
 stresses (elem, integ.pnt.,sxx,syy,szz,sxy,sxz,syz) for set ELALL and time  0.1000000E+01

         1   1 -2.709321E+06 -1.844640E+05 -2.282107E+05 -7.190864E+04 -1.560888E+05  1.815457E+01
         1   2 -2.679857E+06  1.589288E+04 -1.014662E+05 -2.251401E+04 -1.017740E+05  3.706062E+00
         1   3 -2.709071E+06  1.014745E+04 -6.171373E+04  2.688406E+04 -4.745903E+04 -2.063751E+00
         1   4 -2.709326E+06 -1.844737E+05 -2.282121E+05  7.040157E-09 -1.560888E+05 -4.060585E-10
         1   5 -2.679857E+06  1.589192E+04 -1.014663E+05  1.241146E-08 -1.017740E+05 -5.318148E-10
         1   6 -2.709072E+06  1.014609E+04 -6.171392E+04  1.992853E-08 -4.745903E+04  1.092158E-09
         1   7 -2.709321E+06 -1.844640E+05 -2.282107E+05  7.190864E+04 -1.560888E+05 -1.815457E+01
         1   8 -2.679857E+06  1.589288E+04 -1.014662E+05  2.251401E+04 -1.017740E+05 -3.706062E+00
         1   9 -2.709071E+06  1.014745E+04 -6.171373E+04 -2.688406E+04 -4.745903E+04  2.063751E+00
         1  10 -2.709347E+06 -1.844706E+05 -2.282566E+05 -7.190864E+04 -2.168346E-10 -6.164408E-11
         1  11 -2.679868E+06  1.589008E+04 -1.014857E+05 -2.251401E+04 -2.000608E-09 -1.602140E-10
         1  12 -2.709073E+06  1.014685E+04 -6.171798E+04  2.688406E+04  1.873877E-09 -2.745498E-10
         1  13 -2.709353E+06 -1.844803E+05 -2.282580E+05 -1.658138E-09  2.865764E-28 -2.143407E-10
         1  14 -2.679868E+06  1.588913E+04 -1.014859E+05  1.244815E-08 -4.351487E-09 -4.065463E-10
         1  15 -2.709074E+06  1.014548E+04 -6.171818E+04  2.976848E-08  8.331328E-10  2.204049E-10
         1  16 -2.709347E+06 -1.844706E+05 -2.282566E+05  7.190864E+04  1.139437E-09 -2.983563E-10
         1  17 -2.679868E+06  1.589008E+04 -1.014857E+05  2.251401E+04 -2.826952E-09 -3.852252E-10
         1  18 -2.709073E+06  1.014685E+04 -6.171798E+04 -2.688406E+04  1.868970E-10  9.666955E-10
         1  19 -2.709321E+06 -1.844640E+05 -2.282107E+05 -7.190864E+04  1.560888E+05 -1.815457E+01
         1  20 -2.679857E+06  1.589288E+04 -1.014662E+05 -2.251401E+04  1.017740E+05 -3.706062E+00
         1  21 -2.709071E+06  1.014745E+04 -6.171373E+04  2.688406E+04  4.745903E+04  2.063751E+00
         1  22 -2.709326E+06 -1.844737E+05 -2.282121E+05 -6.042944E-09  1.560888E+05 -2.898013E-11
         1  23 -2.679857E+06  1.589192E+04 -1.014663E+05 -4.747920E-09  1.017740E+05 -3.062980E-10
         1  24 -2.709072E+06  1.014609E+04 -6.171392E+04  2.828694E-08  4.745903E+04 -6.204564E-10
         1  25 -2.709321E+06 -1.844640E+05 -2.282107E+05  7.190864E+04  1.560888E+05  1.815457E+01
         1  26 -2.679857E+06  1.589288E+04 -1.014662E+05  2.251401E+04  1.017740E+05  3.706062E+00
         1  27 -2.709071E+06  1.014745E+04 -6.171373E+04 -2.688406E+04  4.745903E+04 -2.063751E+00
         2   1 -2.697415E+06 -1.495354E+04 -4.984297E+04 -4.936928E+03 -3.826340E+04  3.055453E-01
         2   2 -2.694401E+06  1.455610E+03 -2.612367E+04 -1.240627E+03 -2.502362E+04  5.021414E-02
         2   3 -2.697379E+06  8.429676E+02 -1.530673E+04  2.455653E+03 -1.178367E+04 -4.680413E-02
         2   4 -2.697415E+06 -1.495359E+04 -4.984298E+04  7.635829E-09 -3.826340E+04  1.468471E-09
         2   5 -2.694401E+06  1.455607E+03 -2.612367E+04 -9.907867E-09 -2.502362E+04  2.002713E-10
         2   6 -2.697379E+06  8.429562E+02 -1.530673E+04 -1.344490E-08 -1.178367E+04 -3.125251E-10
         2   7 -2.697415E+06 -1.495354E+04 -4.984297E+04  4.936928E+03 -3.826340E+04 -3.055453E-01
         2   8 -2.694401E+06  1.455610E+03 -2.612367E+04  1.240627E+03 -2.502362E+04 -5.021414E-02
         2   9 -2.697379E+06  8.429676E+02 -1.530673E+04 -2.455653E+03 -1.178367E+04  4.680413E-02
         2  10 -2.697416E+06 -1.495394E+04 -4.984573E+04 -4.936928E+03 -1.439259E-10  1.368258E-10
         2  11 -2.694402E+06  1.455441E+03 -2.612485E+04 -1.240627E+03  1.465602E-09  2.696242E-10
         2  12 -2.697379E+06  8.429302E+02 -1.530699E+04  2.455653E+03 -4.763560E-11 -8.381980E-10
         2  13 -2.697416E+06 -1.495399E+04 -4.984574E+04  2.482367E-08 -1.990002E-09  5.674776E-10
         2  14 -2.694402E+06  1.455438E+03 -2.612485E+04 -1.428249E-08 -4.151159E-09  3.125590E-10
         2  15 -2.697379E+06  8.429188E+02 -1.530699E+04 -1.250342E-08  8.506012E-10 -3.130240E-10
         2  16 -2.697416E+06 -1.495394E+04 -4.984573E+04  4.936928E+03 -1.267654E-09  1.173196E-09
         2  17 -2.694402E+06  1.455441E+03 -2.612485E+04  1.240627E+03 -2.182523E-10  8.181009E-11
         2  18 -2.697379E+06  8.429302E+02 -1.530699E+04 -2.455653E+03 -1.357961E-09  1.066877E-10
         2  19 -2.697415E+06 -1.495354E+04 -4.984297E+04 -4.936928E+03  3.826340E+04 -3.055453E-01
         2  20 -2.694401E+06  1.455610E+03 -2.612367E+04 -1.240627E+03  2.502362E+04 -5.021414E-02
         2  21 -2.697379E+06  8.429676E+02 -1.530673E+04  2.455653E+03  1.178367E+04  4.680413E-02
         2  22 -2.697415E+06 -1.495359E+04 -4.984298E+04  1.190343E-08  3.826340E+04 -3.451957E-10
         2  23 -2.694401E+06  1.455607E+03 -2.612367E+04 -5.724225E-09  2.502362E+04  4.862798E-10
         2  24 -2.697379E+06  8.429562E+02 -1.530673E+04 -1.364640E-08  1.178367E+04 -3.966494E-10
         2  25 -2.697415E+06 -1.495354E+04 -4.984297E+04  4.936928E+03  3.826340E+04  3.055453E-01
         2  26 -2.694401E+06  1.455610E+03 -2.612367E+04  1.240627E+03  2.502362E+04  5.021414E-02
         2  27 -2.697379E+06  8.429676E+02 -1.530673E+04 -2.455653E+03  1.178367E+04 -4.680413E-02
         3   1 -2.696225E+06 -1.162413E+03 -1.187512E+04 -1.599806E+02 -9.397048E+03  2.431615E-03
         3   2 -2.695829E+06  1.565735E+02 -6.683700E+03  4.706062E+01 -6.070475E+03 -4.620788E-04
         3   3 -2.696219E+06  7.188968E+01 -4.015901E+03  2.540982E+02 -2.743935E+03 -1.127746E-03
         3   4 -2.696225E+06 -1.162413E+03 -1.187512E+04 -2.299915E-09 -9.397048E+03 -4.526131E-10
         3   5 -2.695829E+06  1.565735E+02 -6.683700E+03 -3.555053E-09 -6.070475E+03 -5.384036E-10
         3   6 -2.696219E+06  7.188955E+01 -4.015901E+03  1.076799E-08 -2.743935E+03 -5.319054E-12
         3   7 -2.696225E+06 -1.162413E+03 -1.187512E+04  1.599806E+02 -9.397048E+03 -2.431615E-03
         3   8 -2.695829E+06  1.565735E+02 -6.683700E+03 -4.706062E+01 -6.070475E+03  4.620778E-04
         3   9 -2.696219E+06  7.188968E+01 -4.015901E+03 -2.540982E+02 -2.743935E+03  1.127747E-03
         3  10 -2.696225E+06 -1.162437E+03 -1.187529E+04 -1.599806E+02 -2.151786E-09 -9.325325E-10
         3  11 -2.695829E+06  1.565635E+02 -6.683770E+03  4.706062E+01 -3.028506E-09  3.967161E-10
         3  12 -2.696219E+06  7.188764E+01 -4.015915E+03  2.540982E+02 -1.651891E-09 -2.451513E-11
         3  13 -2.696225E+06 -1.162437E+03 -1.187529E+04  2.049487E-09 -3.367972E-09 -5.270987E-10
         3  14 -2.695829E+06  1.565635E+02 -6.683770E+03 -1.645634E-08 -4.336772E-09 -3.993938E-10
         3  15 -2.696219E+06  7.188752E+01 -4.015915E+03 -5.906984E-09 -2.723081E-09 -4.648054E-10
         3  16 -2.696225E+06 -1.162437E+03 -1.187529E+04  1.599806E+02 -2.483526E-09 -7.417768E-11
         3  17 -2.695829E+06  1.565635E+02 -6.683770E+03 -4.706062E+01 -2.695557E-09 -9.943008E-10
         3  18 -2.696219E+06  7.188764E+01 -4.015915E+03 -2.540982E+02 -2.771832E-09 -1.052122E-09
         3  19 -2.696225E+06 -1.162413E+03 -1.187512E+04 -1.599806E+02  9.397048E+03 -2.431616E-03
         3  20 -2.695829E+06  1.565735E+02 -6.683700E+03  4.706062E+01  6.070475E+03  4.620797E-04
         3  21 -2.696219E+06  7.188968E+01 -4.015901E+03  2.540982E+02  2.743935E+03  1.127747E-03
         3  22 -2.696225E+06 -1.162413E+03 -1.187512E+04 -6.561174E-09  9.397048E+03 -5.713093E-10
         3  23 -2.695829E+06  1.565735E+02 -6.683700E+03 -3.538266E-09  6.070475E+03 -3.406202E-10
         3  24 -2.696219E+06  7.188955E+01 -4.015901E+03  2.163650E-09  2.743935E+03 -9.577047E-10
         3  25 -2.696225E+06 -1.162413E+03 -1.187512E+04  1.599806E+02  9.397048E+03  2.431615E-03
         3  26 -2.695829E+06  1.565735E+02 -6.683700E+03 -4.706062E+01  6.070475E+03 -4.620801E-04
         3  27 -2.696219E+06  7.188968E+01 -4.015901E+03 -2.540982E+02  2.743935E+03 -1.127749E-03
         4   1 -2.696083E+06 -7.705795E+01 -3.194814E+03  4.004117E+01 -2.097166E+03 -1.358233E-04
         4   2 -2.695996E+06  2.690475E+01 -2.179775E+03  2.486878E+01 -1.019073E+03 -4.099087E-05
         4   3 -2.696082E+06  3.489847E+00 -1.900762E+03  9.696172E+00  5.903680E+01  9.271383E-07
         4   4 -2.696083E+06 -7.705795E+01 -3.194814E+03  1.653379E-08 -2.097166E+03  2.550660E-10
         4   5 -2.695996E+06  2.690474E+01 -2.179775E+03  7.742410E-09 -1.019073E+03  4.343627E-10
         4   6 -2.696082E+06  3.489847E+00 -1.900762E+03 -2.668969E-09  5.903680E+01  7.698678E-10
         4   7 -2.696083E+06 -7.705795E+01 -3.194814E+03 -4.004117E+01 -2.097166E+03  1.358234E-04
         4   8 -2.695996E+06  2.690475E+01 -2.179775E+03 -2.486878E+01 -1.019073E+03  4.099168E-05
         4   9 -2.696082E+06  3.489847E+00 -1.900762E+03 -9.696172E+00  5.903680E+01 -9.250505E-07
         4  10 -2.696083E+06 -7.705913E+01 -3.194822E+03  4.004117E+01 -8.831053E-10  1.469742E-10
         4  11 -2.695996E+06  2.690446E+01 -2.179777E+03  2.486878E+01 -1.258575E-09  9.453547E-10
         4  12 -2.696082E+06  3.489846E+00 -1.900762E+03  9.696172E+00  2.309500E-09  3.275329E-10
         4  13 -2.696083E+06 -7.705914E+01 -3.194822E+03 -9.063034E-09 -6.543069E-09  1.900412E-10
         4  14 -2.695996E+06  2.690446E+01 -2.179777E+03  5.618087E-09 -4.147774E-09  1.116758E-09
         4  15 -2.696082E+06  3.489846E+00 -1.900762E+03 -1.092430E-08  1.986298E-09  1.981445E-10
         4  16 -2.696083E+06 -7.705913E+01 -3.194822E+03 -4.004117E+01 -3.188747E-09  1.309151E-10
         4  17 -2.695996E+06  2.690446E+01 -2.179777E+03 -2.486878E+01 -2.542402E-09  1.212081E-09
         4  18 -2.696082E+06  3.489846E+00 -1.900762E+03 -9.696172E+00 -1.308149E-09 -1.991822E-11
         4  19 -2.696083E+06 -7.705795E+01 -3.194814E+03  4.004117E+01  2.097166E+03  1.358240E-04
         4  20 -2.695996E+06  2.690475E+01 -2.179775E+03  2.486878E+01  1.019073E+03  4.099386E-05
         4  21 -2.696082E+06  3.489847E+00 -1.900762E+03  9.696172E+00 -5.903680E+01 -9.262052E-07
         4  22 -2.696083E+06 -7.705795E+01 -3.194814E+03 -4.533135E-09  2.097166E+03  9.152208E-11
         4  23 -2.695996E+06  2.690474E+01 -2.179775E+03 -9.445269E-09  1.019073E+03  1.867250E-09
         4  24 -2.696082E+06  3.489847E+00 -1.900762E+03 -3.595167E-09 -5.903680E+01 -3.861074E-10
         4  25 -2.696083E+06 -7.705795E+01 -3.194814E+03 -4.004117E+01  2.097166E+03 -1.358239E-04
         4  26 -2.695996E+06  2.690475E+01 -2.179775E+03 -2.486878E+01  1.019073E+03 -4.099001E-05
         4  27 -2.696082E+06  3.489847E+00 -1.900762E+03 -9.696172E+00 -5.903680E+01  9.250535E-07
         5   1 -2.696090E+06  6.336472E+00 -1.981584E+03 -2.953892E+01  4.093985E+02 -1.955932E-05
         5   2 -2.695985E+06  3.320085E+01 -2.617850E+03 -4.471564E+01  1.704426E+03 -1.232754E-04
         5   3 -2.696092E+06 -1.050788E+02 -4.141268E+03 -5.989238E+01  2.999452E+03 -2.905682E-04
         5   4 -2.696090E+06  6.336471E+00 -1.981584E+03 -7.297378E-09  4.093985E+02  3.758624E-10
         5   5 -2.695985E+06  3.320084E+01 -2.617850E+03 -1.558503E-08  1.704426E+03 -6.314584E-10
         5   6 -2.696092E+06 -1.050788E+02 -4.141268E+03 -1.274480E-09  2.999452E+03 -1.753137E-10
         5   7 -2.696090E+06  6.336472E+00 -1.981584E+03  2.953892E+01  4.093985E+02  1.956044E-05
         5   8 -2.695985E+06  3.320085E+01 -2.617850E+03  4.471564E+01  1.704426E+03  1.232737E-04
         5   9 -2.696092E+06 -1.050788E+02 -4.141268E+03  5.989238E+01  2.999452E+03  2.905688E-04
         5  10 -2.696090E+06  6.336427E+00 -1.981585E+03 -2.953892E+01 -3.923736E-10 -3.973338E-10
         5  11 -2.695985E+06  3.320006E+01 -2.617855E+03 -4.471564E+01 -2.493018E-09 -7.904312E-10
         5  12 -2.696092E+06 -1.050812E+02 -4.141285E+03 -5.989238E+01 -1.148202E-09  1.047706E-09
         5  13 -2.696090E+06  6.336425E+00 -1.981585E+03 -1.161529E-08 -8.992760E-10 -5.860530E-10
         5  14 -2.695985E+06  3.320006E+01 -2.617855E+03 -1.769046E-08  2.239865E-09 -4.944311E-10
         5  15 -2.696092E+06 -1.050812E+02 -4.141285E+03 -3.316946E-09 -1.149873E-09  4.590011E-10
         5  16 -2.696090E+06  6.336427E+00 -1.981585E+03  2.953892E+01  3.482422E-10 -5.436810E-10
         5  17 -2.695985E+06  3.320006E+01 -2.617855E+03  4.471564E+01  1.716628E-09 -4.736875E-10
         5  18 -2.696092E+06 -1.050812E+02 -4.141285E+03  5.989238E+01  7.952234E-10  2.933223E-10
         5  19 -2.696090E+06  6.336472E+00 -1.981584E+03 -2.953892E+01 -4.093985E+02  1.955896E-05
         5  20 -2.695985E+06  3.320085E+01 -2.617850E+03 -4.471564E+01 -1.704426E+03  1.232747E-04
         5  21 -2.696092E+06 -1.050788E+02 -4.141268E+03 -5.989238E+01 -2.999452E+03  2.905708E-04
         5  22 -2.696090E+06  6.336471E+00 -1.981584E+03  1.275473E-09 -4.093985E+02 -1.579248E-09
         5  23 -2.695985E+06  3.320084E+01 -2.617850E+03  1.724396E-09 -1.704426E+03 -3.293323E-10
         5  24 -2.696092E+06 -1.050788E+02 -4.141268E+03  2.048089E-08 -2.999452E+03  1.088464E-09
         5  25 -2.696090E+06  6.336472E+00 -1.981584E+03  2.953892E+01 -4.093985E+02 -1.956248E-05
         5  26 -2.695985E+06  3.320085E+01 -2.617850E+03  4.471564E+01 -1.704426E+03 -1.232753E-04
         5  27 -2.696092E+06 -1.050788E+02 -4.141268E+03  5.989238E+01 -2.999452E+03 -2.905688E-04
         6   1 -2.696281E+06  9.677336E+01 -5.303378E+03 -3.495140E+02  3.846269E+03 -2.174405E-03
         6   2 -2.695754E+06  2.118335E+02 -8.988439E+03 -6.677377E+01  8.320364E+03 -8.986372E-04
         6   3 -2.696290E+06 -1.578042E+03 -1.607197E+04  2.159633E+02  1.279436E+04  4.469250E-03
         6   4 -2.696281E+06  9.677313E+01 -5.303378E+03  6.958809E-09  3.846269E+03 -3.571988E-11
         6   5 -2.695754E+06  2.118335E+02 -8.988439E+03 -5.543531E-10  8.320364E+03 -3.974556E-10
         6   6 -2.696290E+06 -1.578042E+03 -1.607197E+04 -1.236447E-08  1.279436E+04 -4.670108E-10
         6   7 -2.696281E+06  9.677336E+01 -5.303378E+03  3.495140E+02  3.846269E+03  2.174406E-03
         6   8 -2.695754E+06  2.118335E+02 -8.988439E+03  6.677377E+01  8.320364E+03  8.986361E-04
         6   9 -2.696290E+06 -1.578042E+03 -1.607197E+04 -2.159633E+02  1.279436E+04 -4.469250E-03
         6  10 -2.696281E+06  9.676936E+01 -5.303406E+03 -3.495140E+02  4.878359E-10  6.765552E-10
         6  11 -2.695754E+06  2.118148E+02 -8.988570E+03 -6.677377E+01  1.430177E-09 -8.180859E-10
         6  12 -2.696290E+06 -1.578086E+03 -1.607228E+04  2.159633E+02 -3.513856E-10  2.926713E-10
         6  13 -2.696281E+06  9.676913E+01 -5.303406E+03 -1.868019E-09 -2.771402E-10  3.691411E-10
         6  14 -2.695754E+06  2.118148E+02 -8.988570E+03 -7.028085E-09  5.135422E-09 -5.323309E-10
         6  15 -2.696290E+06 -1.578086E+03 -1.607228E+04 -1.758819E-08  2.002643E-09 -1.271859E-10
         6  16 -2.696281E+06  9.676936E+01 -5.303406E+03  3.495140E+02  7.690071E-10 -3.899569E-11
         6  17 -2.695754E+06  2.118148E+02 -8.988570E+03  6.677377E+01  1.553654E-09 -4.573688E-10
         6  18 -2.696290E+06 -1.578086E+03 -1.607228E+04 -2.159633E+02  1.051798E-09 -3.630139E-10
         6  19 -2.696281E+06  9.677336E+01 -5.303378E+03 -3.495140E+02 -3.846269E+03  2.174407E-03
         6  20 -2.695754E+06  2.118335E+02 -8.988439E+03 -6.677377E+01 -8.320364E+03  8.986359E-04
         6  21 -2.696290E+06 -1.578042E+03 -1.607197E+04  2.159633E+02 -1.279436E+04 -4.469249E-03
         6  22 -2.696281E+06  9.677313E+01 -5.303378E+03  1.517486E-08 -3.846269E+03  7.312832E-10
         6  23 -2.695754E+06  2.118335E+02 -8.988439E+03 -5.921256E-10 -8.320364E+03 -7.599997E-10
         6  24 -2.696290E+06 -1.578042E+03 -1.607197E+04 -3.968476E-09 -1.279436E+04  2.913615E-10
         6  25 -2.696281E+06  9.677336E+01 -5.303378E+03  3.495140E+02 -3.846269E+03 -2.174406E-03
         6  26 -2.695754E+06  2.118335E+02 -8.988439E+03  6.677377E+01 -8.320364E+03 -8.986378E-04
         6  27 -2.696290E+06 -1.578042E+03 -1.607197E+04 -2.159633E+02 -1.279436E+04  4.469249E-03
         7   1 -2.697856E+06  1.144077E+03 -2.074219E+04 -3.334765E+03  1.602668E+04 -8.644618E-02
         7   2 -2.693815E+06  1.975821E+03 -3.544156E+04  1.683496E+03  3.398954E+04  9.255315E-02
         7   3 -2.697905E+06 -2.029983E+04 -6.764851E+04  6.701868E+03  5.195233E+04  5.631652E-01
         7   4 -2.697856E+06  1.144056E+03 -2.074220E+04  3.229147E-12  1.602668E+04  2.411693E-10
         7   5 -2.693815E+06  1.975816E+03 -3.544156E+04  3.275263E-09  3.398954E+04  1.286927E-09
         7   6 -2.697905E+06 -2.029992E+04 -6.764852E+04  1.406335E-08  5.195233E+04  7.036168E-10
         7   7 -2.697856E+06  1.144077E+03 -2.074219E+04  3.334765E+03  1.602668E+04  8.644618E-02
         7   8 -2.693815E+06  1.975821E+03 -3.544156E+04 -1.683496E+03  3.398954E+04 -9.255315E-02
         7   9 -2.697905E+06 -2.029983E+04 -6.764851E+04 -6.701868E+03  5.195233E+04 -5.631652E-01
         7  10 -2.697857E+06  1.144008E+03 -2.074268E+04 -3.334765E+03 -8.715553E-11  3.617915E-10
         7  11 -2.693816E+06  1.975510E+03 -3.544374E+04  1.683496E+03  1.823969E-09 -3.908213E-10
         7  12 -2.697908E+06 -2.030056E+04 -6.765360E+04  6.701868E+03  7.344878E-10 -1.110754E-10
         7  13 -2.697857E+06  1.143987E+03 -2.074268E+04 -1.718878E-08  2.327332E-09  3.207556E-10
         7  14 -2.693816E+06  1.975504E+03 -3.544374E+04 -3.209085E-09  9.543091E-10  2.719122E-10
         7  15 -2.697908E+06 -2.030065E+04 -6.765361E+04  3.282094E-09 -3.209899E-09  1.977660E-11
         7  16 -2.697857E+06  1.144008E+03 -2.074268E+04  3.334765E+03 -1.359020E-11  4.102226E-10
         7  17 -2.693816E+06  1.975510E+03 -3.544374E+04 -1.683496E+03 -1.789255E-09  8.754979E-10
         7  18 -2.697908E+06 -2.030056E+04 -6.765360E+04 -6.701868E+03  5.484996E-10  5.153720E-10
         7  19 -2.697856E+06  1.144077E+03 -2.074219E+04 -3.334765E+03 -1.602668E+04  8.644618E-02
         7  20 -2.693815E+06  1.975821E+03 -3.544156E+04  1.683496E+03 -3.398954E+04 -9.255315E-02
         7  21 -2.697905E+06 -2.029983E+04 -6.764851E+04  6.701868E+03 -5.195233E+04 -5.631652E-01
         7  22 -2.697856E+06  1.144056E+03 -2.074220E+04  1.161575E-11 -1.602668E+04  4.578710E-10
         7  23 -2.693815E+06  1.975816E+03 -3.544156E+04 -1.070018E-09 -3.398954E+04 -6.714075E-10
         7  24 -2.697905E+06 -2.029992E+04 -6.764852E+04  1.558472E-08 -5.195233E+04 -5.876922E-10
         7  25 -2.697856E+06  1.144077E+03 -2.074219E+04  3.334765E+03 -1.602668E+04 -8.644618E-02
         7  26 -2.693815E+06  1.975821E+03 -3.544156E+04 -1.683496E+03 -3.398954E+04  9.255315E-02
         7  27 -2.697905E+06 -2.029983E+04 -6.764851E+04 -6.701868E+03 -5.195233E+04  5.631652E-01
         8   1 -2.713727E+06  1.377595E+04 -8.376469E+04 -3.649545E+04  6.443267E+04 -3.803566E+00
         8   2 -2.674069E+06  2.157504E+04 -1.377252E+05  3.056344E+04  1.381646E+05  6.829944E+00
         8   3 -2.714061E+06 -2.504050E+05 -3.097703E+05  9.761731E+04  2.118978E+05  3.345687E+01
         8   4 -2.713729E+06  1.377344E+04 -8.376505E+04  2.509023E-09  6.443267E+04  4.154447E-10
         8   5 -2.674070E+06  2.157328E+04 -1.377255E+05 -6.739374E-09  1.381646E+05  5.997852E-10
         8   6 -2.714071E+06 -2.504229E+05 -3.097729E+05 -9.192920E-10  2.118978E+05  1.880721E-10
         8   7 -2.713727E+06  1.377595E+04 -8.376469E+04  3.649545E+04  6.443267E+04  3.803566E+00
         8   8 -2.674069E+06  2.157504E+04 -1.377252E+05 -3.056344E+04  1.381646E+05 -6.829944E+00
         8   9 -2.714061E+06 -2.504050E+05 -3.097703E+05 -9.761731E+04  2.118978E+05 -3.345687E+01
         8  10 -2.713732E+06  1.377483E+04 -8.377252E+04 -3.649545E+04  8.811428E-10  1.255489E-10
         8  11 -2.674089E+06  2.156989E+04 -1.377612E+05  3.056343E+04 -1.458189E-09  2.991789E-10
         8  12 -2.714109E+06 -2.504171E+05 -3.098550E+05  9.761731E+04  1.632513E-09  1.013681E-10
         8  13 -2.713733E+06  1.377232E+04 -8.377288E+04 -3.939764E-09 -2.151434E-09 -8.062820E-11
         8  14 -2.674090E+06  2.156813E+04 -1.377615E+05 -2.435876E-09  1.161914E-09  7.684347E-13
         8  15 -2.714119E+06 -2.504351E+05 -3.098576E+05 -4.175847E-09 -2.517293E-09 -1.725050E-11
         8  16 -2.713732E+06  1.377483E+04 -8.377252E+04  3.649545E+04 -1.961789E-10 -2.985371E-10
         8  17 -2.674089E+06  2.156989E+04 -1.377612E+05 -3.056343E+04  2.920068E-10 -2.121372E-10
         8  18 -2.714109E+06 -2.504171E+05 -3.098550E+05 -9.761731E+04  1.065374E-09 -5.666564E-11
         8  19 -2.713727E+06  1.377595E+04 -8.376469E+04 -3.649545E+04 -6.443267E+04  3.803566E+00
         8  20 -2.674069E+06  2.157504E+04 -1.377252E+05  3.056344E+04 -1.381646E+05 -6.829944E+00
         8  21 -2.714061E+06 -2.504050E+05 -3.097703E+05  9.761731E+04 -2.118978E+05 -3.345687E+01
         8  22 -2.713729E+06  1.377344E+04 -8.376505E+04  6.837591E-09 -6.443267E+04 -5.161458E-10
         8  23 -2.674070E+06  2.157328E+04 -1.377255E+05  1.874052E-09 -1.381646E+05 -5.877858E-10
         8  24 -2.714071E+06 -2.504229E+05 -3.097729E+05 -2.541259E-09 -2.118978E+05 -1.747159E-10
         8  25 -2.713727E+06  1.377595E+04 -8.376469E+04  3.649545E+04 -6.443267E+04 -3.803566E+00
         8  26 -2.674069E+06  2.157504E+04 -1.377252E+05 -3.056344E+04 -1.381646E+05  6.829944E+00
         8  27 -2.714061E+06 -2.504050E+05 -3.097703E+05 -9.761731E+04 -2.118978E+05  3.345687E+01
         9   1  1.991923E+06  6.724608E+06  1.929332E+06 -1.203987E+06  9.126878E+04  6.666910E+05
         9   2  1.523162E+06  5.641494E+06  1.317505E+06 -1.026954E+06  2.983162E+05  3.078417E+05
         9   3  1.228407E+06  4.652160E+06  9.819405E+05 -1.066563E+06  3.320294E+05 -5.028444E+04
         9   4  2.039666E+05 -5.361717E+05  2.248331E+05 -1.062354E+06  9.254599E+04  1.556062E+05
         9   5  4.583006E+04 -5.547159E+05  1.098612E+05 -9.543553E+05  2.992314E+05  9.982676E+04
         9   6  1.032776E+04 -5.321135E+05  6.248002E+04 -1.062957E+06  3.318686E+05  4.409696E+04
         9   7 -1.587529E+06 -7.748134E+06 -1.482299E+06 -9.223114E+05  9.360351E+04 -3.495936E+05
         9   8 -1.433762E+06 -6.714187E+06 -1.099452E+06 -8.824399E+05  3.001049E+05 -1.061752E+05
         9   9 -1.209224E+06 -5.690233E+06 -8.579511E+05 -1.059334E+06  3.317079E+05  1.377163E+05
         9  10  1.991796E+06  6.724132E+06  1.928490E+06 -1.204036E+06 -1.636674E-10  1.981059E-09
         9  11  1.523041E+06  5.641369E+06  1.317161E+06 -1.027027E+06 -1.746508E-09  5.040857E-10
         9  12  1.228288E+06  4.652128E+06  9.817288E+05 -1.066550E+06 -1.025469E-09 -1.518829E-09
         9  13  2.039509E+05 -5.362000E+05  2.247714E+05 -1.062366E+06  3.539548E-10 -1.591092E-13
         9  14  4.573120E+04 -5.547507E+05  1.096740E+05 -9.543794E+05  2.934472E-09  6.298953E-11
         9  15  1.020897E+04 -5.321452E+05  6.226933E+04 -1.062968E+06  5.614316E-10  1.236841E-10
         9  16 -1.587571E+06 -7.748269E+06 -1.482548E+06 -9.222850E+05  2.495371E-09 -2.029659E-09
         9  17 -1.433862E+06 -6.714224E+06 -1.099642E+06 -8.824142E+05  6.350864E-12 -3.979190E-10
         9  18 -1.209347E+06 -5.690283E+06 -8.581941E+05 -1.059371E+06  1.860597E-09  1.612473E-09
         9  19  1.991923E+06  6.724608E+06  1.929332E+06 -1.203987E+06 -9.126878E+04 -6.666910E+05
         9  20  1.523162E+06  5.641494E+06  1.317505E+06 -1.026954E+06 -2.983162E+05 -3.078417E+05
         9  21  1.228407E+06  4.652160E+06  9.819405E+05 -1.066563E+06 -3.320294E+05  5.028444E+04
         9  22  2.039666E+05 -5.361717E+05  2.248331E+05 -1.062354E+06 -9.254599E+04 -1.556062E+05
         9  23  4.583006E+04 -5.547159E+05  1.098612E+05 -9.543553E+05 -2.992314E+05 -9.982676E+04
         9  24  1.032776E+04 -5.321135E+05  6.248002E+04 -1.062957E+06 -3.318686E+05 -4.409696E+04
         9  25 -1.587529E+06 -7.748134E+06 -1.482299E+06 -9.223114E+05 -9.360351E+04  3.495936E+05
         9  26 -1.433762E+06 -6.714187E+06 -1.099452E+06 -8.824399E+05 -3.001049E+05  1.061752E+05
         9  27 -1.209224E+06 -5.690233E+06 -8.579511E+05 -1.059334E+06 -3.317079E+05 -1.377163E+05
        10   1  1.071028E+06  3.963475E+06  8.385607E+05 -1.083888E+06  2.965096E+05 -4.135553E+04
        10   2  8.177938E+05  2.923592E+06  6.197091E+05 -9.644485E+05  2.449714E+05 -8.207056E+04
        10   3  5.789029E+05  1.892958E+06  4.306330E+05 -1.073042E+06  1.787425E+05 -1.229253E+05
        10   4  1.430878E+04 -5.391613E+05  4.863067E+04 -1.065464E+06  2.963306E+05  3.557545E+04
        10   5  8.156427E+03 -5.398918E+05  3.021064E+04 -9.514263E+05  2.445498E+05  2.040961E+04
        10   6  1.201314E+04 -5.368002E+05  2.394484E+04 -1.065495E+06  1.780357E+05  5.039325E+03
        10   7 -1.043511E+06 -5.022018E+06 -7.420104E+05 -1.047140E+06  2.961552E+05  1.119671E+05
        10   8 -8.021110E+05 -3.991583E+06 -5.596430E+05 -9.384558E+05  2.441309E+05  1.223381E+05
        10   9 -5.551762E+05 -2.960708E+06 -3.828654E+05 -1.057965E+06  1.773301E+05  1.325207E+05
        10  10  1.070933E+06  3.963449E+06  8.383924E+05 -1.083878E+06 -2.162144E-09 -2.926019E-09
        10  11  8.177276E+05  2.923569E+06  6.195839E+05 -9.644324E+05 -2.467122E-09  8.889731E-09
        10  12  5.788646E+05  1.892934E+06  4.305448E+05 -1.073024E+06 -4.998750E-09  1.932648E-08
        10  13  1.421415E+04 -5.391862E+05  4.846324E+04 -1.065473E+06 -1.853619E-09  1.204843E-10
        10  14  8.092102E+03 -5.399083E+05  3.009746E+04 -9.514304E+05 -3.399480E-10  1.458824E-10
        10  15  1.197910E+04 -5.368087E+05  2.388523E+04 -1.065495E+06 -2.749066E-09  1.224916E-10
        10  16 -1.043609E+06 -5.022055E+06 -7.421991E+05 -1.047166E+06  5.282684E-10  3.140804E-09
        10  17 -8.021791E+05 -3.991615E+06 -5.597834E+05 -9.384800E+05 -6.190585E-10 -8.537993E-09
        10  18 -5.552148E+05 -2.960736E+06 -3.829578E+05 -1.057984E+06 -3.188810E-09 -1.908155E-08
        10  19  1.071028E+06  3.963475E+06  8.385607E+05 -1.083888E+06 -2.965096E+05  4.135553E+04
        10  20  8.177938E+05  2.923592E+06  6.197091E+05 -9.644485E+05 -2.449714E+05  8.207056E+04
        10  21  5.789029E+05  1.892958E+06  4.306330E+05 -1.073042E+06 -1.787425E+05  1.229253E+05
        10  22  1.430878E+04 -5.391613E+05  4.863067E+04 -1.065464E+06 -2.963306E+05 -3.557545E+04
        10  23  8.156427E+03 -5.398918E+05  3.021064E+04 -9.514263E+05 -2.445498E+05 -2.040961E+04
        10  24  1.201314E+04 -5.368002E+05  2.394484E+04 -1.065495E+06 -1.780357E+05 -5.039325E+03
        10  25 -1.043511E+06 -5.022018E+06 -7.420104E+05 -1.047140E+06 -2.961552E+05 -1.119671E+05
        10  26 -8.021110E+05 -3.991583E+06 -5.596430E+05 -9.384558E+05 -2.441309E+05 -1.223381E+05
        10  27 -5.551762E+05 -2.960708E+06 -3.828654E+05 -1.057965E+06 -1.773301E+05 -1.325207E+05
        11   1  4.214383E+05  1.221165E+06  3.118775E+05 -1.074523E+06  1.345918E+05 -1.268631E+05
        11   2  1.863934E+05  1.855200E+05  1.348317E+05 -9.408136E+05  6.741693E+04 -1.184607E+05
        11   3 -2.457570E+04 -8.464769E+05 -4.236472E+04 -1.035332E+06  1.377349E+04 -1.100620E+05
        11   4  1.247558E+04 -5.356335E+05  2.336872E+04 -1.065539E+06  1.338285E+05  9.567203E+02
        11   5  2.049317E+04 -5.386958E+05  2.876361E+04 -9.513193E+05  6.677169E+04 -1.411775E+04
        11   6  5.670880E+04 -5.351222E+05  5.027871E+04 -1.065307E+06  1.325204E+04 -2.918083E+04
        11   7 -3.966368E+05 -2.289345E+06 -2.651684E+05 -1.056575E+06  1.330675E+05  1.284277E+05
        11   8 -1.454250E+05 -1.262360E+06 -7.727252E+04 -9.618112E+05  6.612241E+04  9.010854E+04
        11   9  1.379914E+05 -2.236681E+05  1.429381E+05 -1.095295E+06  1.272291E+04  5.174171E+04
        11  10  4.214146E+05  1.221143E+06  3.118134E+05 -1.074509E+06 -4.506544E-09 -1.493491E-08
        11  11  1.863848E+05  1.855038E+05  1.347969E+05 -9.408072E+05 -6.529234E-10 -8.226024E-09
        11  12 -2.457916E+04 -8.464900E+05 -4.238786E+04 -1.035331E+06 -5.594611E-11 -5.388052E-10
        11  13  1.245635E+04 -5.356383E+05  2.333507E+04 -1.065539E+06 -2.097041E-09  1.786967E-10
        11  14  2.048833E+04 -5.386972E+05  2.875487E+04 -9.513185E+05 -7.019143E-10  8.569298E-11
        11  15  5.670838E+04 -5.351232E+05  5.027678E+04 -1.065306E+06  1.728901E-09 -7.793175E-11
        11  16 -3.966603E+05 -2.289367E+06 -2.652329E+05 -1.056589E+06 -1.324064E-09  1.503655E-08
        11  17 -1.454319E+05 -1.262369E+06 -7.729607E+04 -9.618160E+05 -1.209926E-09  7.775822E-09
        11  18  1.379905E+05 -2.236710E+05  1.429327E+05 -1.095296E+06 -1.247092E-09  2.895132E-10
        11  19  4.214383E+05  1.221165E+06  3.118775E+05 -1.074523E+06 -1.345918E+05  1.268631E+05
        11  20  1.863934E+05  1.855200E+05  1.348317E+05 -9.408136E+05 -6.741693E+04  1.184607E+05
        11  21 -2.457570E+04 -8.464769E+05 -4.236472E+04 -1.035332E+06 -1.377349E+04  1.100620E+05
        11  22  1.247558E+04 -5.356335E+05  2.336872E+04 -1.065539E+06 -1.338285E+05 -9.567203E+02
        11  23  2.049317E+04 -5.386958E+05  2.876361E+04 -9.513193E+05 -6.677169E+04  1.411775E+04
        11  24  5.670880E+04 -5.351222E+05  5.027871E+04 -1.065307E+06 -1.325204E+04  2.918083E+04
        11  25 -3.966368E+05 -2.289345E+06 -2.651684E+05 -1.056575E+06 -1.330675E+05 -1.284277E+05
        11  26 -1.454250E+05 -1.262360E+06 -7.727252E+04 -9.618112E+05 -6.612241E+04 -9.010854E+04
        11  27  1.379914E+05 -2.236681E+05  1.429381E+05 -1.095295E+06 -1.272291E+04 -5.174171E+04
        12   1 -3.563547E+06 -1.001556E+06 -5.267888E+05 -1.337375E+06 -3.044535E+05 -1.113876E+05
        12   2 -3.488170E+06 -5.360268E+05 -2.413844E+05 -1.359899E+06 -1.942918E+05 -6.519159E+04
        12   3 -3.560385E+06 -4.887203E+05 -1.491360E+05 -1.299824E+06 -8.195217E+04 -2.477917E+04
        12   4 -3.451708E+06 -8.315089E+05 -4.712503E+05 -1.175403E+06 -2.999520E+05 -1.097791E+05
        12   5 -3.353156E+06 -4.462588E+05 -1.992609E+05 -1.282723E+06 -1.934198E+05 -6.488025E+04
        12   6 -3.401438E+06 -4.784883E+05 -1.175119E+05 -1.307462E+06 -8.470510E+04 -2.580276E+04
        12   7 -3.339816E+06 -6.613555E+05 -4.157051E+05 -1.013387E+06 -2.954496E+05 -1.081680E+05
        12   8 -3.218120E+06 -3.564741E+05 -1.571386E+05 -1.205528E+06 -1.925476E+05 -6.456868E+04
        12   9 -3.242461E+06 -4.682527E+05 -8.588736E+04 -1.315106E+06 -8.745882E+04 -2.682609E+04
        12  10 -3.563651E+06 -1.001594E+06 -5.269876E+05 -1.337403E+06  2.416099E-09 -4.394637E-11
        12  11 -3.488212E+06 -5.360416E+05 -2.414639E+05 -1.359909E+06 -2.190652E-09 -6.353693E-10
        12  12 -3.560392E+06 -4.887227E+05 -1.491499E+05 -1.299825E+06  1.601663E-09 -3.757729E-10
        12  13 -3.451808E+06 -8.315462E+05 -4.714432E+05 -1.175430E+06  1.305512E-10 -2.908463E-10
        12  14 -3.353197E+06 -4.462734E+05 -1.993396E+05 -1.282733E+06  2.642369E-10 -7.926493E-10
        12  15 -3.401446E+06 -4.784910E+05 -1.175268E+05 -1.307464E+06  4.006503E-09 -2.685547E-10
        12  16 -3.339913E+06 -6.613917E+05 -4.158922E+05 -1.013413E+06  1.216194E-09 -5.284465E-10
        12  17 -3.218161E+06 -3.564887E+05 -1.572166E+05 -1.205538E+06  7.664935E-10 -7.254280E-10
        12  18 -3.242470E+06 -4.682555E+05 -8.590318E+04 -1.315108E+06  4.635197E-09  1.700792E-10
        12  19 -3.563547E+06 -1.001556E+06 -5.267888E+05 -1.337375E+06  3.044535E+05  1.113876E+05
        12  20 -3.488170E+06 -5.360268E+05 -2.413844E+05 -1.359899E+06  1.942918E+05  6.519159E+04
        12  21 -3.560385E+06 -4.887203E+05 -1.491360E+05 -1.299824E+06  8.195217E+04  2.477917E+04
        12  22 -3.451708E+06 -8.315089E+05 -4.712503E+05 -1.175403E+06  2.999520E+05  1.097791E+05
        12  23 -3.353156E+06 -4.462588E+05 -1.992609E+05 -1.282723E+06  1.934198E+05  6.488025E+04
        12  24 -3.401438E+06 -4.784883E+05 -1.175119E+05 -1.307462E+06  8.470510E+04  2.580276E+04
        12  25 -3.339816E+06 -6.613555E+05 -4.157051E+05 -1.013387E+06  2.954496E+05  1.081680E+05
        12  26 -3.218120E+06 -3.564741E+05 -1.571386E+05 -1.205528E+06  1.925476E+05  6.456868E+04
        12  27 -3.242461E+06 -4.682527E+05 -8.588736E+04 -1.315106E+06  8.745882E+04  2.682609E+04
        13   1 -3.457298E+06 -5.592798E+05 -1.148182E+05 -1.311119E+06 -6.704421E+04 -2.141595E+04
        13   2 -3.419320E+06 -4.961282E+05 -5.611491E+04 -1.293147E+06 -4.213414E+04 -1.405660E+04
        13   3 -3.379541E+06 -4.867558E+05 -2.517903E+04 -1.287749E+06 -1.709471E+04 -7.035167E+03
        13   4 -3.386134E+06 -5.229017E+05 -9.468901E+04 -1.281720E+06 -6.802585E+04 -2.178510E+04
        13   5 -3.384855E+06 -4.806929E+05 -4.677981E+04 -1.281160E+06 -4.332537E+04 -1.450314E+04
        13   6 -3.381733E+06 -4.922197E+05 -2.646751E+04 -1.293176E+06 -1.849715E+04 -7.560397E+03
        13   7 -3.314964E+06 -4.865218E+05 -7.456026E+04 -1.252317E+06 -6.900762E+04 -2.215433E+04
        13   8 -3.350389E+06 -4.652573E+05 -3.744484E+04 -1.269173E+06 -4.451666E+04 -1.494972E+04
        13   9 -3.383925E+06 -4.976833E+05 -2.775595E+04 -1.298603E+06 -1.989956E+04 -8.085595E+03
        13  10 -3.457303E+06 -5.592815E+05 -1.148276E+05 -1.311120E+06  2.289968E-09 -4.486124E-11
        13  11 -3.419322E+06 -4.961289E+05 -5.611864E+04 -1.293147E+06 -1.920773E-09 -6.647467E-10
        13  12 -3.379542E+06 -4.867559E+05 -2.517967E+04 -1.287749E+06 -1.247794E-09 -2.573393E-10
        13  13 -3.386139E+06 -5.229034E+05 -9.469865E+04 -1.281721E+06  2.214559E-09 -9.749678E-11
        13  14 -3.384857E+06 -4.806936E+05 -4.678376E+04 -1.281161E+06 -1.772643E-09 -6.003120E-10
        13  15 -3.381734E+06 -4.922198E+05 -2.646826E+04 -1.293176E+06 -8.723547E-11 -4.668423E-10
        13  16 -3.314969E+06 -4.865236E+05 -7.457020E+04 -1.252319E+06  2.040756E-09 -6.234075E-11
        13  17 -3.350391E+06 -4.652581E+05 -3.744901E+04 -1.269174E+06 -1.750552E-09 -6.195968E-10
        13  18 -3.383926E+06 -4.976835E+05 -2.775683E+04 -1.298603E+06  5.391764E-11 -8.985915E-10
        13  19 -3.457298E+06 -5.592798E+05 -1.148182E+05 -1.311119E+06  6.704421E+04  2.141595E+04
        13  20 -3.419320E+06 -4.961282E+05 -5.611491E+04 -1.293147E+06  4.213414E+04  1.405660E+04
        13  21 -3.379541E+06 -4.867558E+05 -2.517903E+04 -1.287749E+06  1.709471E+04  7.035167E+03
        13  22 -3.386134E+06 -5.229017E+05 -9.468901E+04 -1.281720E+06  6.802585E+04  2.178510E+04
        13  23 -3.384855E+06 -4.806929E+05 -4.677981E+04 -1.281160E+06  4.332537E+04  1.450314E+04
        13  24 -3.381733E+06 -4.922197E+05 -2.646751E+04 -1.293176E+06  1.849715E+04  7.560397E+03
        13  25 -3.314964E+06 -4.865218E+05 -7.456026E+04 -1.252317E+06  6.900762E+04  2.215433E+04
        13  26 -3.350389E+06 -4.652573E+05 -3.744484E+04 -1.269173E+06  4.451666E+04  1.494972E+04
        13  27 -3.383925E+06 -4.976833E+05 -2.775595E+04 -1.298603E+06  1.989956E+04  8.085595E+03
        14   1 -3.328836E+06 -4.771905E+05 -7.197647E+03 -1.277346E+06 -1.297717E+04 -6.939827E+03
        14   2 -3.295560E+06 -4.493569E+05  1.288214E+04 -1.255990E+06 -6.725282E+03 -6.960252E+03
        14   3 -3.246063E+06 -4.427893E+05  2.803167E+04 -1.254813E+06 -4.736690E+02 -6.977660E+03
        14   4 -3.380082E+06 -4.959226E+05 -2.042428E+04 -1.290779E+06 -1.427441E+04 -7.425852E+03
        14   5 -3.388005E+06 -4.840008E+05 -1.087666E+04 -1.281170E+06 -8.021186E+03 -7.445900E+03
        14   6 -3.379708E+06 -4.933455E+05 -6.259931E+03 -1.291739E+06 -1.768651E+03 -7.463086E+03
        14   7 -3.431326E+06 -5.146548E+05 -3.365125E+04 -1.304211E+06 -1.557154E+04 -7.911839E+03
        14   8 -3.480443E+06 -5.186443E+05 -3.463631E+04 -1.306345E+06 -9.316887E+03 -7.931472E+03
        14   9 -3.513336E+06 -5.439006E+05 -4.055316E+04 -1.328658E+06 -3.063333E+03 -7.948396E+03
        14  10 -3.328836E+06 -4.771906E+05 -7.198056E+03 -1.277346E+06 -3.338654E-10  7.476787E-11
        14  11 -3.295560E+06 -4.493570E+05  1.288196E+04 -1.255991E+06 -5.981423E-09 -1.370830E-09
        14  12 -3.246063E+06 -4.427894E+05  2.803157E+04 -1.254813E+06 -7.205187E-09 -2.688533E-09
        14  13 -3.380082E+06 -4.959227E+05 -2.042477E+04 -1.290779E+06  2.410628E-09 -4.068046E-10
        14  14 -3.388005E+06 -4.840008E+05 -1.087688E+04 -1.281170E+06  6.077692E-11  3.360670E-11
        14  15 -3.379708E+06 -4.933455E+05 -6.260042E+03 -1.291739E+06 -2.555575E-09 -2.720494E-10
        14  16 -3.431326E+06 -5.146549E+05 -3.365182E+04 -1.304211E+06  2.951218E-10 -4.474768E-10
        14  17 -3.480443E+06 -5.186444E+05 -3.463659E+04 -1.306345E+06  1.808813E-09  1.352910E-09
        14  18 -3.513336E+06 -5.439007E+05 -4.055330E+04 -1.328658E+06  4.499166E-09  2.030142E-09
        14  19 -3.328836E+06 -4.771905E+05 -7.197647E+03 -1.277346E+06  1.297717E+04  6.939827E+03
        14  20 -3.295560E+06 -4.493569E+05  1.288214E+04 -1.255990E+06  6.725282E+03  6.960252E+03
        14  21 -3.246063E+06 -4.427893E+05  2.803167E+04 -1.254813E+06  4.736690E+02  6.977660E+03
        14  22 -3.380082E+06 -4.959226E+05 -2.042428E+04 -1.290779E+06  1.427441E+04  7.425852E+03
        14  23 -3.388005E+06 -4.840008E+05 -1.087666E+04 -1.281170E+06  8.021186E+03  7.445900E+03
        14  24 -3.379708E+06 -4.933455E+05 -6.259931E+03 -1.291739E+06  1.768651E+03  7.463086E+03
        14  25 -3.431326E+06 -5.146548E+05 -3.365125E+04 -1.304211E+06  1.557154E+04  7.911839E+03
        14  26 -3.480443E+06 -5.186443E+05 -3.463631E+04 -1.306345E+06  9.316887E+03  7.931472E+03
        14  27 -3.513336E+06 -5.439006E+05 -4.055316E+04 -1.328658E+06  3.063333E+03  7.948396E+03
        15   1 -3.201672E+06 -4.266717E+05  4.099754E+04 -1.242785E+06  8.679692E+02 -7.838388E+03
        15   2 -3.170448E+06 -4.028853E+05  5.277477E+04 -1.222038E+06  3.188617E+03 -9.263005E+03
        15   3 -3.122192E+06 -3.967203E+05  6.331215E+04 -1.221109E+06  5.493463E+03 -1.064255E+04
        15   4 -3.379665E+06 -4.934585E+05 -4.913388E+03 -1.291316E+06 -4.055120E+02 -8.315894E+03
        15   5 -3.388167E+06 -4.845663E+05 -3.193816E+03 -1.281437E+06  1.942734E+03 -9.730446E+03
        15   6 -3.379647E+06 -4.933015E+05 -2.736259E+03 -1.291377E+06  4.275071E+03 -1.109995E+04
        15   7 -3.557625E+06 -5.602429E+05 -5.082661E+04 -1.339834E+06 -1.678583E+03 -8.793246E+03
        15   8 -3.605840E+06 -5.662441E+05 -5.916618E+04 -1.340817E+06  6.973333E+02 -1.019771E+04
        15   9 -3.637037E+06 -5.898787E+05 -6.879028E+04 -1.361619E+06  3.057232E+03 -1.155715E+04
        15  10 -3.201672E+06 -4.266717E+05  4.099743E+04 -1.242785E+06  3.209655E-09  1.549295E-09
        15  11 -3.170448E+06 -4.028854E+05  5.277459E+04 -1.222038E+06  3.834726E-09  1.452913E-09
        15  12 -3.122192E+06 -3.967205E+05  6.331188E+04 -1.221109E+06 -7.246559E-10  9.015442E-10
        15  13 -3.379665E+06 -4.934586E+05 -4.913518E+03 -1.291316E+06 -8.727578E-10 -1.531162E-10
        15  14 -3.388167E+06 -4.845664E+05 -3.194001E+03 -1.281437E+06  2.161259E-09  6.694549E-10
        15  15 -3.379647E+06 -4.933017E+05 -2.736525E+03 -1.291377E+06 -8.101563E-10  4.075546E-10
        15  16 -3.557625E+06 -5.602430E+05 -5.082676E+04 -1.339834E+06 -6.770776E-09 -1.568189E-09
        15  17 -3.605840E+06 -5.662442E+05 -5.916637E+04 -1.340817E+06 -4.182232E-09 -6.433690E-10
        15  18 -3.637037E+06 -5.898788E+05 -6.879055E+04 -1.361619E+06 -7.811465E-10 -5.053860E-11
        15  19 -3.201672E+06 -4.266717E+05  4.099754E+04 -1.242785E+06 -8.679692E+02  7.838388E+03
        15  20 -3.170448E+06 -4.028853E+05  5.277477E+04 -1.222038E+06 -3.188617E+03  9.263005E+03
        15  21 -3.122192E+06 -3.967203E+05  6.331215E+04 -1.221109E+06 -5.493463E+03  1.064255E+04
        15  22 -3.379665E+06 -4.934585E+05 -4.913388E+03 -1.291316E+06  4.055120E+02  8.315894E+03
        15  23 -3.388167E+06 -4.845663E+05 -3.193816E+03 -1.281437E+06 -1.942734E+03  9.730446E+03
        15  24 -3.379647E+06 -4.933015E+05 -2.736259E+03 -1.291377E+06 -4.275071E+03  1.109995E+04
        15  25 -3.557625E+06 -5.602429E+05 -5.082661E+04 -1.339834E+06  1.678583E+03  8.793246E+03
        15  26 -3.605840E+06 -5.662441E+05 -5.916618E+04 -1.340817E+06 -6.973333E+02  1.019771E+04
        15  27 -3.637037E+06 -5.898787E+05 -6.879028E+04 -1.361619E+06 -3.057232E+03  1.155715E+04
        16   1 -3.081130E+06 -3.809045E+05  7.409589E+04 -1.209569E+06  6.347734E+03 -1.159979E+04
        16   2 -3.052476E+06 -3.591708E+05  8.226947E+04 -1.190395E+06  8.959489E+03 -1.274534E+04
        16   3 -3.008208E+06 -3.537552E+05  8.893401E+04 -1.189400E+06  1.154483E+04 -1.381659E+04
        16   4 -3.379965E+06 -4.929804E+05 -2.861120E+03 -1.291028E+06  5.157173E+03 -1.204699E+04
        16   5 -3.387792E+06 -4.849677E+05 -3.923513E+03 -1.281883E+06  7.814250E+03 -1.317593E+04
        16   6 -3.380016E+06 -4.932829E+05 -6.531484E+03 -1.290919E+06  1.044479E+04 -1.423060E+04
        16   7 -3.678711E+06 -6.050502E+05 -7.982522E+04 -1.372452E+06  3.967248E+03 -1.249394E+04
        16   8 -3.722998E+06 -6.107575E+05 -9.012576E+04 -1.373327E+06  6.669692E+03 -1.360626E+04
        16   9 -3.751689E+06 -6.328023E+05 -1.020087E+05 -1.392382E+06  9.345472E+03 -1.464433E+04
        16  10 -3.081130E+06 -3.809047E+05  7.409556E+04 -1.209569E+06 -1.491286E-10  1.657783E-09
        16  11 -3.052476E+06 -3.591710E+05  8.226901E+04 -1.190395E+06  5.262140E-09  3.830888E-09
        16  12 -3.008208E+06 -3.537555E+05  8.893340E+04 -1.189400E+06  4.703239E-09  1.285995E-09
        16  13 -3.379965E+06 -4.929806E+05 -2.861442E+03 -1.291028E+06  2.878985E-09  1.387097E-09
        16  14 -3.387792E+06 -4.849679E+05 -3.923954E+03 -1.281883E+06  6.391241E-09  3.394878E-09
        16  15 -3.380016E+06 -4.932832E+05 -6.532069E+03 -1.290919E+06  5.715722E-09  2.092801E-09
        16  16 -3.678711E+06 -6.050504E+05 -7.982554E+04 -1.372452E+06  3.231286E-09  1.041303E-09
        16  17 -3.722999E+06 -6.107577E+05 -9.012620E+04 -1.373327E+06  7.595566E-09  2.326617E-09
        16  18 -3.751690E+06 -6.328026E+05 -1.020093E+05 -1.392382E+06  1.173248E-09  3.395261E-09
        16  19 -3.081130E+06 -3.809045E+05  7.409589E+04 -1.209569E+06 -6.347734E+03  1.159979E+04
        16  20 -3.052476E+06 -3.591708E+05  8.226947E+04 -1.190395E+06 -8.959489E+03  1.274534E+04
        16  21 -3.008208E+06 -3.537552E+05  8.893401E+04 -1.189400E+06 -1.154483E+04  1.381659E+04
        16  22 -3.379965E+06 -4.929804E+05 -2.861120E+03 -1.291028E+06 -5.157173E+03  1.204699E+04
        16  23 -3.387792E+06 -4.849677E+05 -3.923513E+03 -1.281883E+06 -7.814250E+03  1.317593E+04
        16  24 -3.380016E+06 -4.932829E+05 -6.531484E+03 -1.290919E+06 -1.044479E+04  1.423060E+04
        16  25 -3.678711E+06 -6.050502E+05 -7.982522E+04 -1.372452E+06 -3.967248E+03  1.249394E+04
        16  26 -3.722998E+06 -6.107575E+05 -9.012576E+04 -1.373327E+06 -6.669692E+03  1.360626E+04
        16  27 -3.751689E+06 -6.328023E+05 -1.020087E+05 -1.392382E+06 -9.345472E+03  1.464433E+04
        17   1 -2.971395E+06 -3.393625E+05  9.680318E+04 -1.179574E+06  1.312746E+04 -1.437649E+04
        17   2 -2.946004E+06 -3.194769E+05  9.837694E+04 -1.161964E+06  2.118758E+04 -1.321858E+04
        17   3 -2.909084E+06 -3.178853E+05  9.327114E+04 -1.159455E+06  2.919366E+04 -1.191199E+04
        17   4 -3.380750E+06 -4.924360E+05 -8.458077E+03 -1.290722E+06  1.205114E+04 -1.478187E+04
        17   5 -3.386773E+06 -4.850884E+05 -1.496459E+04 -1.282496E+06  2.019894E+04 -1.359147E+04
        17   6 -3.381287E+06 -4.960555E+05 -2.822402E+04 -1.289372E+06  2.829224E+04 -1.225254E+04
        17   7 -3.789941E+06 -6.454991E+05 -1.137331E+05 -1.401803E+06  1.097560E+04 -1.518696E+04
        17   8 -3.827351E+06 -6.506870E+05 -1.283219E+05 -1.402949E+06  1.921106E+04 -1.396408E+04
        17   9 -3.853269E+06 -6.742101E+05 -1.497371E+05 -1.419197E+06  2.739157E+04 -1.259280E+04
        17  10 -2.971395E+06 -3.393628E+05  9.680246E+04 -1.179574E+06  4.604349E-09  6.537498E-10
        17  11 -2.946005E+06 -3.194772E+05  9.837577E+04 -1.161964E+06  1.554833E-09  1.065156E-09
        17  12 -2.909085E+06 -3.178857E+05  9.326927E+04 -1.159455E+06 -2.433358E-09 -5.573871E-10
        17  13 -3.380750E+06 -4.924363E+05 -8.458760E+03 -1.290722E+06  2.805307E-09  1.203264E-09
        17  14 -3.386774E+06 -4.850887E+05 -1.496571E+04 -1.282496E+06  1.862282E-09 -1.668639E-10
        17  15 -3.381287E+06 -4.960559E+05 -2.822581E+04 -1.289371E+06 -6.732740E-10  4.966853E-10
        17  16 -3.789941E+06 -6.454994E+05 -1.137338E+05 -1.401803E+06  2.855649E-10  1.765816E-09
        17  17 -3.827352E+06 -6.506873E+05 -1.283230E+05 -1.402949E+06 -7.844539E-10 -1.143915E-09
        17  18 -3.853269E+06 -6.742105E+05 -1.497388E+05 -1.419197E+06  3.808924E-10  1.021966E-09
        17  19 -2.971395E+06 -3.393625E+05  9.680318E+04 -1.179574E+06 -1.312746E+04  1.437649E+04
        17  20 -2.946004E+06 -3.194769E+05  9.837694E+04 -1.161964E+06 -2.118758E+04  1.321858E+04
        17  21 -2.909084E+06 -3.178853E+05  9.327114E+04 -1.159455E+06 -2.919366E+04  1.191199E+04
        17  22 -3.380750E+06 -4.924360E+05 -8.458077E+03 -1.290722E+06 -1.205114E+04  1.478187E+04
        17  23 -3.386773E+06 -4.850884E+05 -1.496459E+04 -1.282496E+06 -2.019894E+04  1.359147E+04
        17  24 -3.381287E+06 -4.960555E+05 -2.822402E+04 -1.289372E+06 -2.829224E+04  1.225254E+04
        17  25 -3.789941E+06 -6.454991E+05 -1.137331E+05 -1.401803E+06 -1.097560E+04  1.518696E+04
        17  26 -3.827351E+06 -6.506870E+05 -1.283219E+05 -1.402949E+06 -1.921106E+04  1.396408E+04
        17  27 -3.853269E+06 -6.742101E+05 -1.497371E+05 -1.419197E+06 -2.739157E+04  1.259280E+04
        18   1 -2.875126E+06 -3.054394E+05  9.319032E+04 -1.159374E+06  3.497396E+04 -1.084697E+04
        18   2 -2.853790E+06 -2.791963E+05  7.167973E+04 -1.135133E+06  6.810515E+04  1.827658E+02
        18   3 -2.843355E+06 -3.133245E+05  1.254669E+04 -1.112284E+06  1.008410E+05  1.226801E+04
        18   4 -3.384147E+06 -4.903298E+05 -3.660132E+04 -1.292013E+06  3.383519E+04 -1.127679E+04
        18   5 -3.381704E+06 -4.812934E+05 -6.477899E+04 -1.283345E+06  6.759902E+04 -1.003289E+01
        18   6 -3.390309E+06 -5.327839E+05 -1.311078E+05 -1.276068E+06  1.009662E+05  1.231091E+04
        18   7 -3.892916E+06 -6.752087E+05 -1.664145E+05 -1.424555E+06  3.269743E+04 -1.170627E+04
        18   8 -3.909347E+06 -6.833702E+05 -2.012612E+05 -1.431441E+06  6.709333E+04 -2.026552E+02
        18   9 -3.936969E+06 -7.522127E+05 -2.747879E+05 -1.439716E+06  1.010912E+05  1.235375E+04
        18  10 -2.875128E+06 -3.054398E+05  9.318779E+04 -1.159373E+06  7.520520E-10 -2.968681E-10
        18  11 -2.853795E+06 -2.791976E+05  7.167097E+04 -1.135133E+06 -6.067179E-10 -2.830284E-09
        18  12 -2.843366E+06 -3.133274E+05  1.252720E+04 -1.112285E+06 -3.871274E-09 -9.068734E-10
        18  13 -3.384148E+06 -4.903303E+05 -3.660372E+04 -1.292012E+06 -3.048546E-09 -1.379621E-10
        18  14 -3.381709E+06 -4.812947E+05 -6.478762E+04 -1.283345E+06 -2.856087E-09 -1.952739E-09
        18  15 -3.390320E+06 -5.327868E+05 -1.311273E+05 -1.276069E+06 -1.510118E-09 -1.653730E-09
        18  16 -3.892917E+06 -6.752091E+05 -1.664168E+05 -1.424555E+06 -5.031998E-09  3.916859E-10
        18  17 -3.909351E+06 -6.833715E+05 -2.012697E+05 -1.431441E+06 -2.661108E-09 -2.037896E-09
        18  18 -3.936980E+06 -7.522157E+05 -2.748075E+05 -1.439717E+06  6.381356E-10 -1.433921E-09
        18  19 -2.875126E+06 -3.054394E+05  9.319032E+04 -1.159374E+06 -3.497396E+04  1.084697E+04
        18  20 -2.853790E+06 -2.791963E+05  7.167973E+04 -1.135133E+06 -6.810515E+04 -1.827658E+02
        18  21 -2.843355E+06 -3.133245E+05  1.254669E+04 -1.112284E+06 -1.008410E+05 -1.226801E+04
        18  22 -3.384147E+06 -4.903298E+05 -3.660132E+04 -1.292013E+06 -3.383519E+04  1.127679E+04
        18  23 -3.381704E+06 -4.812934E+05 -6.477899E+04 -1.283345E+06 -6.759902E+04  1.003289E+01
        18  24 -3.390309E+06 -5.327839E+05 -1.311078E+05 -1.276068E+06 -1.009662E+05 -1.231091E+04
        18  25 -3.892916E+06 -6.752087E+05 -1.664145E+05 -1.424555E+06 -3.269743E+04  1.170627E+04
        18  26 -3.909347E+06 -6.833702E+05 -2.012612E+05 -1.431441E+06 -6.709333E+04  2.026552E+02
        18  27 -3.936969E+06 -7.522127E+05 -2.747879E+05 -1.439716E+06 -1.010912E+05 -1.235375E+04
        19   1 -2.779965E+06 -3.018624E+05 -1.336039E+04 -1.208484E+06  1.288514E+05  1.968105E+04
        19   2 -2.776152E+06 -1.682996E+05 -1.211013E+05 -1.076364E+06  2.681857E+05  7.304931E+04
        19   3 -2.990058E+06 -5.934476E+05 -4.839700E+05 -8.104089E+05  4.013395E+05  1.428033E+05
        19   4 -3.411867E+06 -4.709068E+05 -1.627111E+05 -1.311292E+06  1.240578E+05  1.788699E+04
        19   5 -3.337151E+06 -4.343002E+05 -2.759256E+05 -1.286270E+06  2.734995E+05  7.502541E+04
        19   6 -3.482419E+06 -9.587956E+05 -6.524950E+05 -1.127335E+06  4.167726E+05  1.484929E+05
        19   7 -4.043370E+06 -6.399603E+05 -3.120859E+05 -1.414026E+06  1.192695E+05  1.609362E+04
        19   8 -3.897832E+06 -7.002216E+05 -4.307777E+05 -1.495984E+06  2.788079E+05  7.699827E+04
        19   9 -3.974463E+06 -1.323841E+06 -8.210336E+05 -1.443966E+06  4.321922E+05  1.541661E+05
        19  10 -2.779983E+06 -3.018673E+05 -1.339248E+04 -1.208486E+06 -4.520722E-10  2.937583E-10
        19  11 -2.776231E+06 -1.683248E+05 -1.212473E+05 -1.076380E+06 -1.699788E-09  1.191159E-09
        19  12 -2.990237E+06 -5.935131E+05 -4.843128E+05 -8.104552E+05  3.259837E-10  2.724779E-10
        19  13 -3.411884E+06 -4.709113E+05 -1.627408E+05 -1.311294E+06 -1.092889E-09 -5.857204E-11
        19  14 -3.337234E+06 -4.343265E+05 -2.760776E+05 -1.286287E+06 -4.106805E-09  1.123296E-09
        19  15 -3.482613E+06 -9.588664E+05 -6.528651E+05 -1.127385E+06 -2.185751E-09  4.829012E-10
        19  16 -4.043385E+06 -6.399644E+05 -3.121133E+05 -1.414028E+06  2.482412E-10 -5.609979E-10
        19  17 -3.897918E+06 -7.002490E+05 -4.309360E+05 -1.496002E+06  1.707567E-09 -9.834582E-10
        19  18 -3.974671E+06 -1.323917E+06 -8.214322E+05 -1.444020E+06  6.593745E-10 -5.437031E-10
        19  19 -2.779965E+06 -3.018624E+05 -1.336039E+04 -1.208484E+06 -1.288514E+05 -1.968105E+04
        19  20 -2.776152E+06 -1.682996E+05 -1.211013E+05 -1.076364E+06 -2.681857E+05 -7.304931E+04
        19  21 -2.990058E+06 -5.934476E+05 -4.839700E+05 -8.104089E+05 -4.013395E+05 -1.428033E+05
        19  22 -3.411867E+06 -4.709068E+05 -1.627111E+05 -1.311292E+06 -1.240578E+05 -1.788699E+04
        19  23 -3.337151E+06 -4.343002E+05 -2.759256E+05 -1.286270E+06 -2.734995E+05 -7.502541E+04
        19  24 -3.482419E+06 -9.587956E+05 -6.524950E+05 -1.127335E+06 -4.167726E+05 -1.484929E+05
        19  25 -4.043370E+06 -6.399603E+05 -3.120859E+05 -1.414026E+06 -1.192695E+05 -1.609362E+04
        19  26 -3.897832E+06 -7.002216E+05 -4.307777E+05 -1.495984E+06 -2.788079E+05 -7.699827E+04
        19  27 -3.974463E+06 -1.323841E+06 -8.210336E+05 -1.443966E+06 -4.321922E+05 -1.541661E+05
        20   1 -1.001163E+06  3.581844E+04  4.432208E+04  1.398756E+04  3.035182E+04  6.848980E-01
        20   2 -1.006864E+06 -3.079332E+03  1.971376E+04  4.379765E+03  1.979691E+04  1.398780E-01
        20   3 -1.001182E+06 -1.970059E+03  1.198747E+04 -5.227789E+03  9.242137E+03 -7.794485E-02
        20   4 -1.001163E+06  3.581807E+04  4.432203E+04 -1.679770E-10  3.035182E+04  5.140443E-10
        20   5 -1.006864E+06 -3.079368E+03  1.971375E+04  4.406949E-10  1.979691E+04  1.267641E-09
        20   6 -1.001182E+06 -1.970111E+03  1.198746E+04  3.470480E-09  9.242137E+03  3.689911E-10
        20   7 -1.001163E+06  3.581844E+04  4.432208E+04 -1.398756E+04  3.035182E+04 -6.848980E-01
        20   8 -1.006864E+06 -3.079332E+03  1.971376E+04 -4.379765E+03  1.979691E+04 -1.398780E-01
        20   9 -1.001182E+06 -1.970059E+03  1.198747E+04  5.227789E+03  9.242137E+03  7.794485E-02
        20  10 -1.001164E+06  3.581819E+04  4.432035E+04  1.398756E+04 -1.538158E-09  3.059215E-10
        20  11 -1.006864E+06 -3.079437E+03  1.971302E+04  4.379765E+03  1.043639E-09  5.002645E-10
        20  12 -1.001182E+06 -1.970082E+03  1.198731E+04 -5.227789E+03 -7.417058E-10 -3.628610E-10
        20  13 -1.001164E+06  3.581782E+04  4.432030E+04  2.063930E-09  9.129567E-11  2.227381E-10
        20  14 -1.006864E+06 -3.079473E+03  1.971302E+04  4.728914E-09 -1.076556E-09  4.213173E-10
        20  15 -1.001182E+06 -1.970134E+03  1.198730E+04  9.551249E-09 -4.125988E-09 -1.586597E-10
        20  16 -1.001164E+06  3.581819E+04  4.432035E+04 -1.398756E+04  7.836585E-10  2.034108E-10
        20  17 -1.006864E+06 -3.079437E+03  1.971302E+04 -4.379765E+03 -2.183921E-09  3.016518E-10
        20  18 -1.001182E+06 -1.970082E+03  1.198731E+04  5.227789E+03 -5.661354E-10  4.448470E-12
        20  19 -1.001163E+06  3.581844E+04  4.432208E+04  1.398756E+04 -3.035182E+04 -6.848980E-01
        20  20 -1.006864E+06 -3.079332E+03  1.971376E+04  4.379765E+03 -1.979691E+04 -1.398780E-01
        20  21 -1.001182E+06 -1.970059E+03  1.198747E+04 -5.227789E+03 -9.242137E+03  7.794485E-02
        20  22 -1.001163E+06  3.581807E+04  4.432203E+04 -2.296587E-11 -3.035182E+04 -8.922380E-11
        20  23 -1.006864E+06 -3.079368E+03  1.971375E+04  4.705801E-09 -1.979691E+04 -3.529261E-10
        20  24 -1.001182E+06 -1.970111E+03  1.198746E+04 -1.063690E-09 -9.242137E+03 -6.834865E-10
        20  25 -1.001163E+06  3.581844E+04  4.432208E+04 -1.398756E+04 -3.035182E+04  6.848980E-01
        20  26 -1.006864E+06 -3.079332E+03  1.971376E+04 -4.379765E+03 -1.979691E+04  1.398780E-01
        20  27 -1.001182E+06 -1.970059E+03  1.198747E+04  5.227789E+03 -9.242137E+03 -7.794485E-02
        21   1 -1.003450E+06  2.901347E+03  9.678845E+03  9.590965E+02  7.453228E+03  1.153202E-02
        21   2 -1.004032E+06 -2.818880E+02  5.065976E+03  2.404751E+02  4.884325E+03  1.894844E-03
        21   3 -1.003452E+06 -1.634146E+02  2.953099E+03 -4.781577E+02  2.315390E+03 -1.786050E-03
        21   4 -1.003450E+06  2.901345E+03  9.678845E+03 -2.430928E-10  7.453228E+03 -5.726778E-11
        21   5 -1.004032E+06 -2.818881E+02  5.065976E+03 -2.373577E-09  4.884325E+03 -2.969615E-11
        21   6 -1.003452E+06 -1.634150E+02  2.953099E+03  2.768855E-09  2.315390E+03 -7.380786E-10
        21   7 -1.003450E+06  2.901347E+03  9.678845E+03 -9.590965E+02  7.453228E+03 -1.153202E-02
        21   8 -1.004032E+06 -2.818880E+02  5.065976E+03 -2.404751E+02  4.884325E+03 -1.894844E-03
        21   9 -1.003452E+06 -1.634146E+02  2.953099E+03  4.781577E+02  2.315390E+03  1.786049E-03
        21  10 -1.003450E+06  2.901332E+03  9.678741E+03  9.590965E+02 -2.101431E-09 -6.146311E-10
        21  11 -1.004032E+06 -2.818945E+02  5.065931E+03  2.404751E+02  2.987001E-10 -1.978659E-10
        21  12 -1.003452E+06 -1.634160E+02  2.953089E+03 -4.781577E+02  6.428634E-10 -5.163211E-10
        21  13 -1.003450E+06  2.901330E+03  9.678740E+03  8.442766E-09 -9.453437E-10 -2.507397E-10
        21  14 -1.004032E+06 -2.818946E+02  5.065931E+03  6.216643E-09 -1.978106E-09 -1.943209E-11
        21  15 -1.003452E+06 -1.634164E+02  2.953089E+03  4.001033E-09  9.646795E-10 -5.629697E-10
        21  16 -1.003450E+06  2.901332E+03  9.678741E+03 -9.590965E+02 -6.866161E-10  1.109721E-10
        21  17 -1.004032E+06 -2.818945E+02  5.065931E+03 -2.404751E+02 -6.813644E-10  1.902182E-10
        21  18 -1.003452E+06 -1.634160E+02  2.953089E+03  4.781577E+02 -8.922388E-10 -5.870066E-10
        21  19 -1.003450E+06  2.901347E+03  9.678845E+03  9.590965E+02 -7.453228E+03 -1.153202E-02
        21  20 -1.004032E+06 -2.818880E+02  5.065976E+03  2.404751E+02 -4.884325E+03 -1.894844E-03
        21  21 -1.003452E+06 -1.634146E+02  2.953099E+03 -4.781577E+02 -2.315390E+03  1.786050E-03
        21  22 -1.003450E+06  2.901345E+03  9.678845E+03  8.503719E-09 -7.453228E+03 -4.585498E-10
        21  23 -1.004032E+06 -2.818881E+02  5.065976E+03 -2.409307E-09 -4.884325E+03  4.382096E-11
        21  24 -1.003452E+06 -1.634150E+02  2.953099E+03 -1.752723E-09 -2.315390E+03 -3.817975E-10
        21  25 -1.003450E+06  2.901347E+03  9.678845E+03 -9.590965E+02 -7.453228E+03  1.153202E-02
        21  26 -1.004032E+06 -2.818880E+02  5.065976E+03 -2.404751E+02 -4.884325E+03  1.894844E-03
        21  27 -1.003452E+06 -1.634146E+02  2.953099E+03  4.781577E+02 -2.315390E+03 -1.786050E-03
        22   1 -1.003677E+06  2.253834E+02  2.278019E+03  3.007968E+01  1.855550E+03  9.004052E-05
        22   2 -1.003752E+06 -2.987827E+01  1.245029E+03 -1.117600E+01  1.235300E+03 -2.227247E-05
        22   3 -1.003678E+06 -1.341418E+01  6.842723E+02 -5.243170E+01  6.150506E+02 -5.202228E-05
        22   4 -1.003677E+06  2.253834E+02  2.278019E+03  3.530930E-09  1.855550E+03 -1.270718E-09
        22   5 -1.003752E+06 -2.987827E+01  1.245029E+03 -3.326581E-09  1.235300E+03 -8.619749E-10
        22   6 -1.003678E+06 -1.341418E+01  6.842723E+02  4.076885E-09  6.150506E+02  1.074202E-09
        22   7 -1.003677E+06  2.253834E+02  2.278019E+03 -3.007968E+01  1.855550E+03 -9.004306E-05
        22   8 -1.003752E+06 -2.987827E+01  1.245029E+03  1.117600E+01  1.235300E+03  2.227057E-05
        22   9 -1.003678E+06 -1.341418E+01  6.842723E+02  5.243170E+01  6.150506E+02  5.202467E-05
        22  10 -1.003677E+06  2.253825E+02  2.278012E+03  3.007968E+01  3.389945E-10 -3.862000E-10
        22  11 -1.003752E+06 -2.987868E+01  1.245026E+03 -1.117600E+01  9.819333E-11  5.255135E-10
        22  12 -1.003678E+06 -1.341428E+01  6.842716E+02 -5.243170E+01  4.532058E-10  3.098964E-10
        22  13 -1.003677E+06  2.253825E+02  2.278012E+03 -6.438594E-10 -1.681413E-11 -5.432730E-10
        22  14 -1.003752E+06 -2.987868E+01  1.245026E+03 -5.450232E-09  2.553838E-10  1.280399E-10
        22  15 -1.003678E+06 -1.341429E+01  6.842716E+02 -1.635893E-09 -4.225839E-10 -9.458147E-12
        22  16 -1.003677E+06  2.253825E+02  2.278012E+03 -3.007968E+01 -3.423256E-10 -6.514090E-10
        22  17 -1.003752E+06 -2.987868E+01  1.245026E+03  1.117600E+01  2.054886E-09 -2.751490E-10
        22  18 -1.003678E+06 -1.341428E+01  6.842716E+02  5.243170E+01 -1.022062E-09 -2.697745E-10
        22  19 -1.003677E+06  2.253834E+02  2.278019E+03  3.007968E+01 -1.855550E+03 -9.004148E-05
        22  20 -1.003752E+06 -2.987827E+01  1.245029E+03 -1.117600E+01 -1.235300E+03  2.227350E-05
        22  21 -1.003678E+06 -1.341418E+01  6.842723E+02 -5.243170E+01 -6.150506E+02  5.202323E-05
        22  22 -1.003677E+06  2.253834E+02  2.278019E+03 -4.837567E-09 -1.855550E+03  2.243512E-10
        22  23 -1.003752E+06 -2.987827E+01  1.245029E+03 -1.187583E-08 -1.235300E+03  1.155836E-09
        22  24 -1.003678E+06 -1.341418E+01  6.842723E+02  3.960237E-09 -6.150506E+02 -1.059370E-09
        22  25 -1.003677E+06  2.253834E+02  2.278019E+03 -3.007968E+01 -1.855550E+03  9.004171E-05
        22  26 -1.003752E+06 -2.987827E+01  1.245029E+03  1.117600E+01 -1.235300E+03 -2.227135E-05
        22  27 -1.003678E+06 -1.341418E+01  6.842723E+02  5.243170E+01 -6.150506E+02 -5.202540E-05
        23   1 -1.003707E+06  1.522466E+01  4.932215E+02 -1.149125E+01  5.094574E+02 -9.443287E-06
        23   2 -1.003716E+06 -3.042940E+00  2.000147E+02 -1.208561E+01  4.103093E+02 -8.000517E-06
        23   3 -1.003707E+06 -1.715557E+00 -2.366821E+01 -1.267997E+01  3.111627E+02 -6.365138E-06
        23   4 -1.003707E+06  1.522466E+01  4.932215E+02 -6.250825E-09  5.094574E+02  1.108376E-09
        23   5 -1.003716E+06 -3.042941E+00  2.000147E+02  3.742010E-09  4.103093E+02 -6.313505E-10
        23   6 -1.003707E+06 -1.715557E+00 -2.366821E+01  1.454541E-08  3.111627E+02 -2.810074E-10
        23   7 -1.003707E+06  1.522466E+01  4.932215E+02  1.149125E+01  5.094574E+02  9.445398E-06
        23   8 -1.003716E+06 -3.042940E+00  2.000147E+02  1.208561E+01  4.103093E+02  7.999156E-06
        23   9 -1.003707E+06 -1.715557E+00 -2.366821E+01  1.267997E+01  3.111627E+02  6.364796E-06
        23  10 -1.003707E+06  1.522459E+01  4.932211E+02 -1.149125E+01  4.142008E-10 -1.548319E-10
        23  11 -1.003716E+06 -3.042986E+00  2.000143E+02 -1.208561E+01 -7.498385E-10 -7.728737E-11
        23  12 -1.003707E+06 -1.715583E+00 -2.366839E+01 -1.267997E+01  1.009526E-10 -5.288329E-11
        23  13 -1.003707E+06  1.522459E+01  4.932211E+02  2.367786E-10 -2.351315E-09 -1.034333E-10
        23  14 -1.003716E+06 -3.042986E+00  2.000143E+02  1.586832E-09 -9.119312E-10  5.959871E-11
        23  15 -1.003707E+06 -1.715583E+00 -2.366839E+01  9.385608E-09 -1.413706E-09 -1.420073E-10
        23  16 -1.003707E+06  1.522459E+01  4.932211E+02  1.149125E+01  8.563720E-10 -1.023608E-10
        23  17 -1.003716E+06 -3.042986E+00  2.000143E+02  1.208561E+01 -1.452786E-10  1.623672E-10
        23  18 -1.003707E+06 -1.715583E+00 -2.366839E+01  1.267997E+01 -1.348342E-10 -1.284371E-10
        23  19 -1.003707E+06  1.522466E+01  4.932215E+02 -1.149125E+01 -5.094574E+02  9.443322E-06
        23  20 -1.003716E+06 -3.042940E+00  2.000147E+02 -1.208561E+01 -4.103093E+02  8.000620E-06
        23  21 -1.003707E+06 -1.715557E+00 -2.366821E+01 -1.267997E+01 -3.111627E+02  6.365205E-06
        23  22 -1.003707E+06  1.522466E+01  4.932215E+02 -4.031543E-09 -5.094574E+02 -1.305178E-09
        23  23 -1.003716E+06 -3.042941E+00  2.000147E+02  3.732553E-09 -4.103093E+02  7.022320E-10
        23  24 -1.003707E+06 -1.715557E+00 -2.366821E+01  1.769305E-08 -3.111627E+02  4.811915E-12
        23  25 -1.003707E+06  1.522466E+01  4.932215E+02  1.149125E+01 -5.094574E+02 -9.445849E-06
        23  26 -1.003716E+06 -3.042940E+00  2.000147E+02  1.208561E+01 -4.103093E+02 -7.999222E-06
        23  27 -1.003707E+06 -1.715557E+00 -2.366821E+01  1.267997E+01 -3.111627E+02 -6.365301E-06
        24   1 -1.003718E+06  2.116858E+00 -1.332804E+02 -1.426076E+01  3.253484E+02 -7.484356E-06
        24   2 -1.003702E+06  5.467308E+00 -3.939158E+02 -1.490531E+01  5.204644E+02 -1.251384E-05
        24   3 -1.003718E+06 -2.253651E+01 -7.895703E+02 -1.554987E+01  7.155833E+02 -1.795078E-05
        24   4 -1.003718E+06  2.116858E+00 -1.332804E+02  7.246884E-09  3.253484E+02  6.938399E-10
        24   5 -1.003702E+06  5.467308E+00 -3.939158E+02  7.203258E-09  5.204644E+02  1.122376E-09
        24   6 -1.003718E+06 -2.253651E+01 -7.895703E+02  3.128916E-09  7.155833E+02 -4.390892E-10
        24   7 -1.003718E+06  2.116858E+00 -1.332804E+02  1.426076E+01  3.253484E+02  7.485585E-06
        24   8 -1.003702E+06  5.467308E+00 -3.939158E+02  1.490531E+01  5.204644E+02  1.251589E-05
        24   9 -1.003718E+06 -2.253651E+01 -7.895703E+02  1.554987E+01  7.155833E+02  1.795034E-05
        24  10 -1.003718E+06  2.116829E+00 -1.332806E+02 -1.426076E+01 -1.605761E-09  1.711226E-10
        24  11 -1.003702E+06  5.467235E+00 -3.939163E+02 -1.490531E+01 -1.460095E-09  5.648498E-10
        24  12 -1.003718E+06 -2.253664E+01 -7.895713E+02 -1.554987E+01  1.655633E-09  7.282526E-11
        24  13 -1.003718E+06  2.116829E+00 -1.332806E+02  7.343565E-09 -1.076539E-09  6.045721E-11
        24  14 -1.003702E+06  5.467235E+00 -3.939163E+02  9.343725E-09  2.829863E-10  4.867983E-10
        24  15 -1.003718E+06 -2.253664E+01 -7.895713E+02  1.241202E-08 -3.604066E-09 -1.284339E-10
        24  16 -1.003718E+06  2.116829E+00 -1.332806E+02  1.426076E+01  1.766140E-09  1.175876E-10
        24  17 -1.003702E+06  5.467235E+00 -3.939163E+02  1.490531E+01 -1.318987E-09  4.751779E-10
        24  18 -1.003718E+06 -2.253664E+01 -7.895713E+02  1.554987E+01 -2.133247E-09 -2.094127E-10
        24  19 -1.003718E+06  2.116858E+00 -1.332804E+02 -1.426076E+01 -3.253484E+02  7.484554E-06
        24  20 -1.003702E+06  5.467308E+00 -3.939158E+02 -1.490531E+01 -5.204644E+02  1.251502E-05
        24  21 -1.003718E+06 -2.253651E+01 -7.895703E+02 -1.554987E+01 -7.155833E+02  1.795116E-05
        24  22 -1.003718E+06  2.116858E+00 -1.332804E+02  5.294525E-09 -3.253484E+02 -5.733533E-10
        24  23 -1.003702E+06  5.467308E+00 -3.939158E+02  2.871881E-09 -5.204644E+02 -1.735918E-10
        24  24 -1.003718E+06 -2.253651E+01 -7.895703E+02  1.784402E-09 -7.155833E+02  2.156562E-10
        24  25 -1.003718E+06  2.116858E+00 -1.332804E+02  1.426076E+01 -3.253484E+02 -7.485834E-06
        24  26 -1.003702E+06  5.467308E+00 -3.939158E+02  1.490531E+01 -5.204644E+02 -1.251535E-05
        24  27 -1.003718E+06 -2.253651E+01 -7.895703E+02  1.554987E+01 -7.155833E+02 -1.795091E-05
        25   1 -1.003761E+06  2.020803E+01 -1.060680E+03 -7.678590E+01  8.815949E+02 -1.092064E-04
        25   2 -1.003649E+06  4.469867E+01 -1.877772E+03 -1.582496E+01  1.816969E+03 -4.638442E-05
        25   3 -1.003761E+06 -3.356024E+02 -3.405765E+03  4.513602E+01  2.752342E+03  2.004110E-04
        25   4 -1.003761E+06  2.020802E+01 -1.060680E+03  1.724003E-08  8.815949E+02 -9.043094E-11
        25   5 -1.003649E+06  4.469867E+01 -1.877772E+03  9.798405E-09  1.816969E+03  1.634837E-09
        25   6 -1.003761E+06 -3.356024E+02 -3.405765E+03  5.036559E-09  2.752342E+03 -4.376521E-10
        25   7 -1.003761E+06  2.020803E+01 -1.060680E+03  7.678590E+01  8.815949E+02  1.092062E-04
        25   8 -1.003649E+06  4.469867E+01 -1.877772E+03  1.582496E+01  1.816969E+03  4.638760E-05
        25   9 -1.003761E+06 -3.356024E+02 -3.405765E+03 -4.513602E+01  2.752342E+03 -2.004119E-04
        25  10 -1.003761E+06  2.020782E+01 -1.060681E+03 -7.678590E+01 -1.272269E-09  9.674462E-11
        25  11 -1.003649E+06  4.469779E+01 -1.877778E+03 -1.582496E+01 -1.864020E-09  2.632440E-10
        25  12 -1.003761E+06 -3.356045E+02 -3.405780E+03  4.513602E+01  5.756899E-10 -1.096616E-09
        25  13 -1.003761E+06  2.020781E+01 -1.060681E+03  1.303371E-08 -8.783875E-10 -1.930540E-10
        25  14 -1.003649E+06  4.469779E+01 -1.877778E+03  1.409931E-08 -4.470670E-09  2.093497E-10
        25  15 -1.003761E+06 -3.356045E+02 -3.405780E+03  2.248530E-09 -1.601037E-10 -3.783571E-10
        25  16 -1.003761E+06  2.020782E+01 -1.060681E+03  7.678590E+01 -8.429744E-10 -4.303863E-10
        25  17 -1.003649E+06  4.469779E+01 -1.877778E+03  1.582496E+01 -3.151790E-09  1.860596E-10
        25  18 -1.003761E+06 -3.356045E+02 -3.405780E+03 -4.513602E+01  3.646139E-11  4.137592E-10
        25  19 -1.003761E+06  2.020803E+01 -1.060680E+03 -7.678590E+01 -8.815949E+02  1.092067E-04
        25  20 -1.003649E+06  4.469867E+01 -1.877772E+03 -1.582496E+01 -1.816969E+03  4.638507E-05
        25  21 -1.003761E+06 -3.356024E+02 -3.405765E+03  4.513602E+01 -2.752342E+03 -2.004132E-04
        25  22 -1.003761E+06  2.020802E+01 -1.060680E+03  2.150709E-10 -8.815949E+02 -3.186884E-10
        25  23 -1.003649E+06  4.469867E+01 -1.877772E+03  1.170325E-09 -1.816969E+03 -1.275437E-09
        25  24 -1.003761E+06 -3.356024E+02 -3.405765E+03  4.277606E-09 -2.752342E+03 -3.723676E-10
        25  25 -1.003761E+06  2.020803E+01 -1.060680E+03  7.678590E+01 -8.815949E+02 -1.092073E-04
        25  26 -1.003649E+06  4.469867E+01 -1.877772E+03  1.582496E+01 -1.816969E+03 -4.638762E-05
        25  27 -1.003761E+06 -3.356024E+02 -3.405765E+03 -4.513602E+01 -2.752342E+03  2.004123E-04
        26   1 -1.004096E+06  2.434338E+02 -4.407649E+03 -7.116917E+02  3.439241E+03 -3.948692E-03
        26   2 -1.003233E+06  4.198191E+02 -7.549263E+03  3.583069E+02  7.267482E+03  4.200848E-03
        26   3 -1.004100E+06 -4.320383E+03 -1.441532E+04  1.428291E+03  1.109565E+04  2.556629E-02
        26   4 -1.004096E+06  2.434328E+02 -4.407649E+03 -1.189605E-09  3.439241E+03 -1.569136E-09
        26   5 -1.003233E+06  4.198189E+02 -7.549263E+03  1.996498E-09  7.267482E+03 -8.145075E-10
        26   6 -1.004100E+06 -4.320386E+03 -1.441532E+04  1.002599E-08  1.109565E+04  5.897946E-10
        26   7 -1.004096E+06  2.434338E+02 -4.407649E+03  7.116917E+02  3.439241E+03  3.948689E-03
        26   8 -1.003233E+06  4.198191E+02 -7.549263E+03 -3.583069E+02  7.267482E+03 -4.200850E-03
        26   9 -1.004100E+06 -4.320383E+03 -1.441532E+04 -1.428291E+03  1.109565E+04 -2.556629E-02
        26  10 -1.004096E+06  2.434306E+02 -4.407671E+03 -7.116917E+02 -8.650812E-10 -1.021108E-09
        26  11 -1.003233E+06  4.198049E+02 -7.549362E+03  3.583069E+02  3.202180E-10  5.058568E-10
        26  12 -1.004100E+06 -4.320416E+03 -1.441556E+04  1.428291E+03  5.623146E-10  5.900254E-10
        26  13 -1.004096E+06  2.434296E+02 -4.407671E+03  7.492083E-09 -1.059720E-09 -5.406999E-10
        26  14 -1.003233E+06  4.198047E+02 -7.549362E+03  4.186369E-09  9.004025E-10 -4.845842E-11
        26  15 -1.004100E+06 -4.320420E+03 -1.441556E+04 -5.576502E-09 -1.519673E-09  1.448436E-10
        26  16 -1.004096E+06  2.434306E+02 -4.407671E+03  7.116917E+02 -1.309005E-09 -9.593707E-11
        26  17 -1.003233E+06  4.198049E+02 -7.549362E+03 -3.583069E+02 -1.440283E-09 -7.023889E-10
        26  18 -1.004100E+06 -4.320416E+03 -1.441556E+04 -1.428291E+03  1.147597E-09 -3.077385E-10
        26  19 -1.004096E+06  2.434338E+02 -4.407649E+03 -7.116917E+02 -3.439241E+03  3.948690E-03
        26  20 -1.003233E+06  4.198191E+02 -7.549263E+03  3.583069E+02 -7.267482E+03 -4.200847E-03
        26  21 -1.004100E+06 -4.320383E+03 -1.441532E+04  1.428291E+03 -1.109565E+04 -2.556629E-02
        26  22 -1.004096E+06  2.434328E+02 -4.407649E+03 -1.057191E-09 -3.439241E+03  5.300164E-10
        26  23 -1.003233E+06  4.198189E+02 -7.549263E+03  9.956200E-10 -7.267482E+03  7.258313E-10
        26  24 -1.004100E+06 -4.320386E+03 -1.441532E+04  1.219063E-08 -1.109565E+04 -2.605421E-10
        26  25 -1.004096E+06  2.434338E+02 -4.407649E+03  7.116917E+02 -3.439241E+03 -3.948689E-03
        26  26 -1.003233E+06  4.198191E+02 -7.549263E+03 -3.583069E+02 -7.267482E+03  4.200848E-03
        26  27 -1.004100E+06 -4.320383E+03 -1.441532E+04 -1.428291E+03 -1.109565E+04  2.556629E-02
        27   1 -1.007476E+06  2.933895E+03 -1.785174E+04 -7.784607E+03  1.375969E+04 -1.728008E-01
        27   2 -9.990155E+05  4.585572E+03 -2.935311E+04  6.522173E+03  2.947756E+04  3.101547E-01
        27   3 -1.007503E+06 -5.333495E+04 -6.599194E+04  2.082894E+04  4.519573E+04  1.518665E+00
        27   4 -1.007476E+06  2.933781E+03 -1.785176E+04  2.711477E-09  1.375969E+04  1.120895E-09
        27   5 -9.990155E+05  4.585492E+03 -2.935313E+04  1.158609E-08  2.947756E+04  9.197231E-10
        27   6 -1.007504E+06 -5.333577E+04 -6.599206E+04  1.076291E-08  4.519573E+04  2.196748E-10
        27   7 -1.007476E+06  2.933895E+03 -1.785174E+04  7.784607E+03  1.375969E+04  1.728008E-01
        27   8 -9.990155E+05  4.585572E+03 -2.935311E+04 -6.522173E+03  2.947756E+04 -3.101547E-01
        27   9 -1.007503E+06 -5.333495E+04 -6.599194E+04 -2.082894E+04  4.519573E+04 -1.518665E+00
        27  10 -1.007476E+06  2.933844E+03 -1.785210E+04 -7.784607E+03 -1.175963E-09  3.377747E-10
        27  11 -9.990164E+05  4.585339E+03 -2.935475E+04  6.522173E+03 -4.117930E-10  2.780877E-10
        27  12 -1.007505E+06 -5.333550E+04 -6.599578E+04  2.082894E+04  7.305647E-10  1.205863E-10
        27  13 -1.007476E+06  2.933730E+03 -1.785212E+04  4.871915E-09  1.768492E-09  1.550381E-10
        27  14 -9.990165E+05  4.585259E+03 -2.935476E+04  1.265632E-08  1.075777E-09  1.774229E-10
        27  15 -1.007506E+06 -5.333632E+04 -6.599590E+04  5.364541E-09 -5.353704E-10  5.927168E-11
        27  16 -1.007476E+06  2.933844E+03 -1.785210E+04  7.784607E+03  1.486760E-09  5.740600E-11
        27  17 -9.990164E+05  4.585339E+03 -2.935475E+04 -6.522173E+03  1.174263E-09  6.927720E-11
        27  18 -1.007505E+06 -5.333550E+04 -6.599578E+04 -2.082894E+04 -2.088743E-10  5.734975E-11
        27  19 -1.007476E+06  2.933895E+03 -1.785174E+04 -7.784607E+03 -1.375969E+04  1.728008E-01
        27  20 -9.990155E+05  4.585572E+03 -2.935311E+04  6.522173E+03 -2.947756E+04 -3.101547E-01
        27  21 -1.007503E+06 -5.333495E+04 -6.599194E+04  2.082894E+04 -4.519573E+04 -1.518665E+00
        27  22 -1.007476E+06  2.933781E+03 -1.785176E+04  1.349271E-08 -1.375969E+04 -7.646952E-10
        27  23 -9.990155E+05  4.585492E+03 -2.935313E+04  1.157453E-08 -2.947756E+04 -6.087379E-10
        27  24 -1.007504E+06 -5.333577E+04 -6.599206E+04  9.128159E-09 -4.519573E+04 -1.149411E-10
        27  25 -1.007476E+06  2.933895E+03 -1.785174E+04  7.784607E+03 -1.375969E+04 -1.728008E-01
        27  26 -9.990155E+05  4.585572E+03 -2.935311E+04 -6.522173E+03 -2.947756E+04  3.101547E-01
        27  27 -1.007503E+06 -5.333495E+04 -6.599194E+04 -2.082894E+04 -4.519573E+04  1.518665E+00
        28   1  5.875399E+05  1.769559E+06  6.591597E+05 -1.664154E+05  1.274055E+04  2.876934E+05
        28   2  2.240655E+05  1.641336E+06  4.168515E+05 -6.107901E+04  3.950641E+04  1.736375E+05
        28   3  2.167588E+05  1.617496E+06  3.378381E+05  2.633326E+03  3.938928E+04  5.958947E+04
        28   4  3.144279E+05  6.712761E+05  3.906107E+05 -4.261107E+04  1.280498E+04  2.603671E+05
        28   5 -2.737330E+04  6.206509E+05  1.793566E+05 -2.188059E+04  3.952762E+04  1.645521E+05
        28   6 -1.587808E+04  6.714011E+05  1.189259E+05 -4.276070E+04  3.937863E+04  6.872752E+04
        28   7  4.128466E+04 -4.258758E+05  1.219847E+05  8.097436E+04  1.285862E+04  2.330887E+05
        28   8 -2.788799E+05 -3.990715E+05 -5.820739E+04  1.725326E+04  3.954770E+04  1.554813E+05
        28   9 -2.485699E+05 -2.738643E+05 -1.000446E+05 -8.808494E+04  3.936664E+04  7.785171E+04
        28  10  5.875176E+05  1.769470E+06  6.590043E+05 -1.664183E+05 -2.129079E-10  5.773958E-10
        28  11  2.240558E+05  1.641303E+06  4.167921E+05 -6.108453E+04  6.632468E-10 -2.263728E-10
        28  12  2.167562E+05  1.617492E+06  3.378286E+05  2.631438E+03 -2.852638E-10 -8.414487E-10
        28  13  3.144096E+05  6.712034E+05  3.904832E+05 -4.261375E+04 -1.853051E-09 -3.176024E-11
        28  14 -2.738223E+04  6.206214E+05  1.793029E+05 -2.188583E+04  3.320515E-09  1.208354E-11
        28  15 -1.588101E+04  6.713956E+05  1.189142E+05 -4.276288E+04  7.496492E-10  2.332491E-10
        28  16  4.126988E+04 -4.259342E+05  1.218822E+05  8.097195E+04  1.938863E-09 -5.741321E-10
        28  17 -2.788880E+05 -3.990979E+05 -5.825578E+04  1.724830E+04  8.644639E-10  3.167738E-10
        28  18 -2.485732E+05 -2.738712E+05 -1.000589E+05 -8.808741E+04 -2.291896E-09  1.510427E-09
        28  19  5.875399E+05  1.769559E+06  6.591597E+05 -1.664154E+05 -1.274055E+04 -2.876934E+05
        28  20  2.240655E+05  1.641336E+06  4.168515E+05 -6.107901E+04 -3.950641E+04 -1.736375E+05
        28  21  2.167588E+05  1.617496E+06  3.378381E+05  2.633326E+03 -3.938928E+04 -5.958947E+04
        28  22  3.144279E+05  6.712761E+05  3.906107E+05 -4.261107E+04 -1.280498E+04 -2.603671E+05
        28  23 -2.737330E+04  6.206509E+05  1.793566E+05 -2.188059E+04 -3.952762E+04 -1.645521E+05
        28  24 -1.587808E+04  6.714011E+05  1.189259E+05 -4.276070E+04 -3.937863E+04 -6.872752E+04
        28  25  4.128466E+04 -4.258758E+05  1.219847E+05  8.097436E+04 -1.285862E+04 -2.330887E+05
        28  26 -2.788799E+05 -3.990715E+05 -5.820739E+04  1.725326E+04 -3.954770E+04 -1.554813E+05
        28  27 -2.485699E+05 -2.738643E+05 -1.000446E+05 -8.808494E+04 -3.936664E+04 -7.785171E+04
        29   1  2.385651E+05  1.522510E+06  3.053843E+05 -5.512626E+04  3.406450E+04  4.954929E+04
        29   2  1.914048E+05  1.439128E+06  2.609423E+05 -2.344395E+04  3.212358E+04  9.379368E+03
        29   3  1.950522E+05  1.373893E+06  2.553655E+05 -3.335053E+04  2.822004E+04 -3.079311E+04
        29   4  2.437483E+04  6.528702E+05  1.031818E+05 -4.268609E+04  3.406782E+04  5.018607E+04
        29   5 -4.351268E+03  6.439232E+05  7.644614E+04 -2.189334E+04  3.212297E+04  1.138353E+04
        29   6  1.753005E+04  6.529032E+05  8.766229E+04 -4.269148E+04  2.821576E+04 -2.742627E+04
        29   7 -1.898682E+05 -2.160726E+05 -9.907164E+04 -3.026317E+04  3.407116E+04  5.082193E+04
        29   8 -2.001518E+05 -1.506992E+05 -1.080925E+05 -2.034446E+04  3.212238E+04  1.338513E+04
        29   9 -1.600284E+05 -6.760783E+04 -8.007584E+04 -5.202125E+04  2.821138E+04 -2.406331E+04
        29  10  2.385632E+05  1.522507E+06  3.053775E+05 -5.512762E+04  2.267556E-10  5.044709E-10
        29  11  1.914037E+05  1.439128E+06  2.609402E+05 -2.344419E+04  1.345159E-09  2.217993E-10
        29  12  1.950511E+05  1.373892E+06  2.553622E+05 -3.334983E+04  1.693905E-09  2.918251E-10
        29  13  2.437291E+04  6.528672E+05  1.031748E+05 -4.268747E+04  1.972290E-09 -3.375442E-10
        29  14 -4.352411E+03  6.439228E+05  7.644395E+04 -2.189363E+04  8.745055E-10 -2.170819E-11
        29  15  1.752899E+04  6.529022E+05  8.765939E+04 -4.269085E+04  3.765242E-09  4.283960E-10
        29  16 -1.898702E+05 -2.160757E+05 -9.907868E+04 -3.026456E+04 -3.001745E-09 -5.169871E-10
        29  17 -2.001530E+05 -1.506997E+05 -1.080947E+05 -2.034481E+04  1.847648E-09 -4.141850E-11
        29  18 -1.600294E+05 -6.760867E+04 -8.007843E+04 -5.202071E+04 -2.171811E-09  8.176061E-10
        29  19  2.385651E+05  1.522510E+06  3.053843E+05 -5.512626E+04 -3.406450E+04 -4.954929E+04
        29  20  1.914048E+05  1.439128E+06  2.609423E+05 -2.344395E+04 -3.212358E+04 -9.379368E+03
        29  21  1.950522E+05  1.373893E+06  2.553655E+05 -3.335053E+04 -2.822004E+04  3.079311E+04
        29  22  2.437483E+04  6.528702E+05  1.031818E+05 -4.268609E+04 -3.406782E+04 -5.018607E+04
        29  23 -4.351268E+03  6.439232E+05  7.644614E+04 -2.189334E+04 -3.212297E+04 -1.138353E+04
        29  24  1.753005E+04  6.529032E+05  8.766229E+04 -4.269148E+04 -2.821576E+04  2.742627E+04
        29  25 -1.898682E+05 -2.160726E+05 -9.907164E+04 -3.026317E+04 -3.407116E+04 -5.082193E+04
        29  26 -2.001518E+05 -1.506992E+05 -1.080925E+05 -2.034446E+04 -3.212238E+04 -1.338513E+04
        29  27 -1.600284E+05 -6.760783E+04 -8.007584E+04 -5.202125E+04 -2.821138E+04  2.406331E+04
        30   1  1.484601E+05  1.311926E+06  2.459257E+05 -7.809685E+04  2.740232E+04 -4.240583E+04
        30   2  1.207486E+05  1.201004E+06  2.698457E+05  5.687188E+03  2.281881E+04 -1.227641E+05
        30   3  3.568712E+05  1.166427E+06  4.119741E+05  4.860822E+04  7.219679E+03 -2.031456E+05
        30   4 -1.073668E+04  6.656463E+05  9.645316E+04 -4.271691E+04  2.740300E+04 -4.287731E+04
        30   5 -2.018878E+04  6.280800E+05  1.366567E+05 -2.197040E+04  2.280837E+04 -1.157735E+05
        30   6  2.330097E+05  6.656032E+05  2.899517E+05 -4.208551E+04  7.209790E+03 -1.887008E+05
        30   7 -1.699582E+05  1.975497E+04 -5.304663E+04 -7.373790E+03  2.740363E+04 -4.334828E+04
        30   8 -1.611463E+05  5.546036E+04  3.446133E+03 -4.960215E+04  2.279730E+04 -1.087893E+05
        30   9  1.091611E+05  1.650258E+05  1.679165E+05 -1.327059E+05  7.195691E+03 -1.742675E+05
        30  10  1.484589E+05  1.311923E+06  2.459209E+05 -7.809592E+04  1.556532E-09 -6.389728E-10
        30  11  1.207440E+05  1.200988E+06  2.698164E+05  5.689442E+03  1.021918E-09 -5.750755E-11
        30  12  3.568601E+05  1.166383E+06  4.118966E+05  4.860940E+04 -5.492890E-10  4.777948E-10
        30  13 -1.073798E+04  6.656442E+05  9.644830E+04 -4.271597E+04  2.017906E-09 -6.016356E-10
        30  14 -2.019293E+04  6.280655E+05  1.366305E+05 -2.196828E+04  8.969148E-10 -3.069269E-11
        30  15  2.330001E+05  6.655650E+05  2.898848E+05 -4.208441E+04  3.429031E-10  5.595900E-10
        30  16 -1.699595E+05  1.975275E+04 -5.305157E+04 -7.372833E+03 -2.378422E-09  5.537141E-10
        30  17 -1.611500E+05  5.544751E+04  3.422920E+03 -4.960015E+04  7.872319E-10  4.283692E-10
        30  18  1.091529E+05  1.649932E+05  1.678593E+05 -1.327049E+05 -3.286062E-10  9.821648E-10
        30  19  1.484601E+05  1.311926E+06  2.459257E+05 -7.809685E+04 -2.740232E+04  4.240583E+04
        30  20  1.207486E+05  1.201004E+06  2.698457E+05  5.687188E+03 -2.281881E+04  1.227641E+05
        30  21  3.568712E+05  1.166427E+06  4.119741E+05  4.860822E+04 -7.219679E+03  2.031456E+05
        30  22 -1.073668E+04  6.656463E+05  9.645316E+04 -4.271691E+04 -2.740300E+04  4.287731E+04
        30  23 -2.018878E+04  6.280800E+05  1.366567E+05 -2.197040E+04 -2.280837E+04  1.157735E+05
        30  24  2.330097E+05  6.656032E+05  2.899517E+05 -4.208551E+04 -7.209790E+03  1.887008E+05
        30  25 -1.699582E+05  1.975497E+04 -5.304663E+04 -7.373790E+03 -2.740363E+04  4.334828E+04
        30  26 -1.611463E+05  5.546036E+04  3.446133E+03 -4.960215E+04 -2.279730E+04  1.087893E+05
        30  27  1.091611E+05  1.650258E+05  1.679165E+05 -1.327059E+05 -7.195691E+03  1.742675E+05
        31   1 -1.652012E+06 -3.723885E+05 -1.452645E+05 -6.182461E+05 -7.671504E+04 -2.731753E+04
        31   2 -1.627820E+06 -2.533461E+05 -7.235529E+04 -6.200927E+05 -4.908039E+04 -1.419225E+04
        31   3 -1.637071E+06 -2.405227E+05 -4.776549E+04 -6.051005E+05 -2.032606E+04 -4.051804E+03
        31   4 -1.567171E+06 -3.088579E+05 -1.161080E+05 -5.626876E+05 -7.426181E+04 -2.640256E+04
        31   5 -1.544490E+06 -2.124717E+05 -4.912813E+04 -5.873873E+05 -4.849899E+04 -1.397526E+04
        31   6 -1.554875E+06 -2.219259E+05 -2.897678E+04 -5.952502E+05 -2.161652E+04 -4.535086E+03
        31   7 -1.482322E+06 -2.453187E+05 -8.695228E+04 -5.071209E+05 -7.180826E+04 -2.548714E+04
        31   8 -1.461154E+06 -1.715955E+05 -2.590175E+04 -5.546777E+05 -4.791751E+04 -1.375822E+04
        31   9 -1.472672E+06 -2.033293E+05 -1.018842E+04 -5.853992E+05 -2.290716E+04 -5.018374E+03
        31  10 -1.652019E+06 -3.723909E+05 -1.452770E+05 -6.182478E+05  1.512618E-10 -3.429649E-11
        31  11 -1.627823E+06 -2.533469E+05 -7.236021E+04 -6.200932E+05 -8.105335E-10 -2.892658E-10
        31  12 -1.637071E+06 -2.405229E+05 -4.776630E+04 -6.051006E+05 -8.924144E-10 -2.679224E-10
        31  13 -1.567178E+06 -3.088601E+05 -1.161197E+05 -5.626892E+05  9.136988E-11 -2.719158E-10
        31  14 -1.544493E+06 -2.124725E+05 -4.913293E+04 -5.873879E+05 -6.036178E-09 -6.500422E-10
        31  15 -1.554875E+06 -2.219261E+05 -2.897770E+04 -5.952503E+05 -2.685489E-09 -7.285420E-10
        31  16 -1.482328E+06 -2.453208E+05 -8.696322E+04 -5.071224E+05 -9.449306E-10 -5.721825E-10
        31  17 -1.461157E+06 -1.715963E+05 -2.590643E+04 -5.546782E+05 -5.336474E-10 -1.157573E-09
        31  18 -1.472673E+06 -2.033295E+05 -1.018945E+04 -5.853993E+05 -2.675051E-09 -1.278296E-09
        31  19 -1.652012E+06 -3.723885E+05 -1.452645E+05 -6.182461E+05  7.671504E+04  2.731753E+04
        31  20 -1.627820E+06 -2.533461E+05 -7.235529E+04 -6.200927E+05  4.908039E+04  1.419225E+04
        31  21 -1.637071E+06 -2.405227E+05 -4.776549E+04 -6.051005E+05  2.032606E+04  4.051804E+03
        31  22 -1.567171E+06 -3.088579E+05 -1.161080E+05 -5.626876E+05  7.426181E+04  2.640256E+04
        31  23 -1.544490E+06 -2.124717E+05 -4.912813E+04 -5.873873E+05  4.849899E+04  1.397526E+04
        31  24 -1.554875E+06 -2.219259E+05 -2.897678E+04 -5.952502E+05  2.161652E+04  4.535086E+03
        31  25 -1.482322E+06 -2.453187E+05 -8.695228E+04 -5.071209E+05  7.180826E+04  2.548714E+04
        31  26 -1.461154E+06 -1.715955E+05 -2.590175E+04 -5.546777E+05  4.791751E+04  1.375822E+04
        31  27 -1.472672E+06 -2.033293E+05 -1.018842E+04 -5.853992E+05  2.290716E+04  5.018374E+03
        32   1 -1.603936E+06 -2.550566E+05 -3.737933E+04 -6.058062E+05 -1.696478E+04 -3.806659E+03
        32   2 -1.588963E+06 -2.352611E+05 -2.105964E+04 -5.976302E+05 -1.065924E+04 -2.225073E+03
        32   3 -1.570434E+06 -2.318276E+05 -1.162218E+04 -5.961233E+05 -4.287940E+03 -8.179630E+02
        32   4 -1.551081E+06 -2.328701E+05 -2.335020E+04 -5.889204E+05 -1.734130E+04 -3.947883E+03
        32   5 -1.552334E+06 -2.209256E+05 -1.154642E+04 -5.869982E+05 -1.114485E+04 -2.407107E+03
        32   6 -1.550010E+06 -2.253213E+05 -6.537764E+03 -5.917452E+05 -4.882875E+03 -1.040924E+03
        32   7 -1.498223E+06 -2.106831E+05 -9.321207E+03 -5.720332E+05 -1.771785E+04 -4.089125E+03
        32   8 -1.515704E+06 -2.065901E+05 -2.033327E+03 -5.763656E+05 -1.163050E+04 -2.589154E+03
        32   9 -1.529585E+06 -2.188150E+05 -1.453433E+03 -5.873670E+05 -5.477826E+03 -1.263889E+03
        32  10 -1.603937E+06 -2.550567E+05 -3.737990E+04 -6.058062E+05 -6.275851E-10 -3.687390E-10
        32  11 -1.588963E+06 -2.352611E+05 -2.105987E+04 -5.976302E+05  3.264625E-09 -8.560161E-10
        32  12 -1.570434E+06 -2.318276E+05 -1.162222E+04 -5.961233E+05  2.199926E-09 -5.207182E-10
        32  13 -1.551081E+06 -2.328702E+05 -2.335079E+04 -5.889205E+05  3.417603E-09 -4.146216E-10
        32  14 -1.552334E+06 -2.209257E+05 -1.154666E+04 -5.869982E+05  2.419523E-09 -2.586122E-10
        32  15 -1.550010E+06 -2.253213E+05 -6.537811E+03 -5.917452E+05  1.264714E-09 -6.376121E-10
        32  16 -1.498223E+06 -2.106832E+05 -9.321830E+03 -5.720333E+05  1.322134E-09 -8.280851E-10
        32  17 -1.515704E+06 -2.065902E+05 -2.033595E+03 -5.763656E+05 -1.525205E-09 -4.652921E-10
        32  18 -1.529585E+06 -2.188150E+05 -1.453493E+03 -5.873670E+05 -2.303771E-09 -6.092477E-10
        32  19 -1.603936E+06 -2.550566E+05 -3.737933E+04 -6.058062E+05  1.696478E+04  3.806659E+03
        32  20 -1.588963E+06 -2.352611E+05 -2.105964E+04 -5.976302E+05  1.065924E+04  2.225073E+03
        32  21 -1.570434E+06 -2.318276E+05 -1.162218E+04 -5.961233E+05  4.287940E+03  8.179630E+02
        32  22 -1.551081E+06 -2.328701E+05 -2.335020E+04 -5.889204E+05  1.734130E+04  3.947883E+03
        32  23 -1.552334E+06 -2.209256E+05 -1.154642E+04 -5.869982E+05  1.114485E+04  2.407107E+03
        32  24 -1.550010E+06 -2.253213E+05 -6.537764E+03 -5.917452E+05  4.882875E+03  1.040924E+03
        32  25 -1.498223E+06 -2.106831E+05 -9.321207E+03 -5.720332E+05  1.771785E+04  4.089125E+03
        32  26 -1.515704E+06 -2.065901E+05 -2.033327E+03 -5.763656E+05  1.163050E+04  2.589154E+03
        32  27 -1.529585E+06 -2.188150E+05 -1.453433E+03 -5.873670E+05  5.477826E+03  1.263889E+03
        33   1 -1.550146E+06 -2.265684E+05 -5.153136E+03 -5.914555E+05 -3.211772E+03 -1.024162E+03
        33   2 -1.536212E+06 -2.153892E+05  1.642415E+03 -5.823706E+05 -1.523626E+03 -1.382131E+03
        33   3 -1.515106E+06 -2.126278E+05  7.215534E+03 -5.819018E+05  1.673179E+02 -1.747340E+03
        33   4 -1.549589E+06 -2.262464E+05 -5.047580E+03 -5.911716E+05 -3.754845E+03 -1.227692E+03
        33   5 -1.553130E+06 -2.217203E+05 -2.695753E+03 -5.869822E+05 -2.071265E+03 -1.587384E+03
        33   6 -1.549498E+06 -2.256109E+05 -1.562636E+03 -5.914090E+05 -3.849240E+02 -1.954333E+03
        33   7 -1.549032E+06 -2.259245E+05 -4.942021E+03 -5.908878E+05 -4.297920E+03 -1.431223E+03
        33   8 -1.570048E+06 -2.280514E+05 -7.033983E+03 -5.915937E+05 -2.618892E+03 -1.792634E+03
        33   9 -1.583890E+06 -2.385942E+05 -1.034101E+04 -6.009159E+05 -9.371389E+02 -2.161315E+03
        33  10 -1.550146E+06 -2.265684E+05 -5.153157E+03 -5.914555E+05 -1.407561E-09 -3.907835E-10
        33  11 -1.536212E+06 -2.153892E+05  1.642407E+03 -5.823706E+05 -4.604517E-10  5.774259E-10
        33  12 -1.515106E+06 -2.126278E+05  7.215528E+03 -5.819018E+05 -3.674289E-09  5.030004E-10
        33  13 -1.549589E+06 -2.262464E+05 -5.047609E+03 -5.911716E+05 -1.035156E-09 -2.317769E-10
        33  14 -1.553130E+06 -2.217203E+05 -2.695766E+03 -5.869822E+05  5.747366E-10  8.288048E-10
        33  15 -1.549498E+06 -2.256109E+05 -1.562643E+03 -5.914090E+05 -5.894588E-10  6.557312E-12
        33  16 -1.549032E+06 -2.259245E+05 -4.942060E+03 -5.908878E+05  5.895685E-10  1.305360E-10
        33  17 -1.570048E+06 -2.280514E+05 -7.034002E+03 -5.915937E+05 -7.587324E-11  2.601378E-10
        33  18 -1.583890E+06 -2.385942E+05 -1.034102E+04 -6.009159E+05  2.705870E-09 -2.639810E-10
        33  19 -1.550146E+06 -2.265684E+05 -5.153136E+03 -5.914555E+05  3.211772E+03  1.024162E+03
        33  20 -1.536212E+06 -2.153892E+05  1.642415E+03 -5.823706E+05  1.523626E+03  1.382131E+03
        33  21 -1.515106E+06 -2.126278E+05  7.215534E+03 -5.819018E+05 -1.673179E+02  1.747340E+03
        33  22 -1.549589E+06 -2.262464E+05 -5.047580E+03 -5.911716E+05  3.754845E+03  1.227692E+03
        33  23 -1.553130E+06 -2.217203E+05 -2.695753E+03 -5.869822E+05  2.071265E+03  1.587384E+03
        33  24 -1.549498E+06 -2.256109E+05 -1.562636E+03 -5.914090E+05  3.849240E+02  1.954333E+03
        33  25 -1.549032E+06 -2.259245E+05 -4.942021E+03 -5.908878E+05  4.297920E+03  1.431223E+03
        33  26 -1.570048E+06 -2.280514E+05 -7.033983E+03 -5.915937E+05  2.618892E+03  1.792634E+03
        33  27 -1.583890E+06 -2.385942E+05 -1.034101E+04 -6.009159E+05  9.371389E+02  2.161315E+03
        34   1 -1.496220E+06 -2.057050E+05  1.248741E+04 -5.768012E+05  5.830253E+02 -2.173279E+03
        34   2 -1.482623E+06 -1.953998E+05  1.727422E+04 -5.677588E+05  1.317458E+03 -2.888625E+03
        34   3 -1.461571E+06 -1.927094E+05  2.173681E+04 -5.673513E+05  2.049860E+03 -3.598213E+03
        34   4 -1.549468E+06 -2.256591E+05 -1.235307E+03 -5.913287E+05  3.588112E+01 -2.378378E+03
        34   5 -1.553192E+06 -2.218309E+05 -8.257869E+02 -5.870191E+05  7.738737E+02 -3.092425E+03
        34   6 -1.549463E+06 -2.256180E+05 -7.432487E+02 -5.913443E+05  1.509825E+03 -3.800719E+03
        34   7 -1.602713E+06 -2.456129E+05 -1.495810E+04 -6.058549E+05 -5.112057E+02 -2.583455E+03
        34   8 -1.623757E+06 -2.482615E+05 -1.892609E+04 -6.062772E+05  2.303602E+02 -3.296198E+03
        34   9 -1.637347E+06 -2.585261E+05 -2.322390E+04 -6.153342E+05  9.698741E+02 -4.003194E+03
        34  10 -1.496220E+06 -2.057050E+05  1.248740E+04 -5.768012E+05 -2.062199E-09 -1.868824E-11
        34  11 -1.482623E+06 -1.953998E+05  1.727421E+04 -5.677588E+05 -7.609413E-10 -4.047216E-10
        34  12 -1.461571E+06 -1.927094E+05  2.173677E+04 -5.673513E+05  4.786540E-10 -1.789616E-09
        34  13 -1.549468E+06 -2.256591E+05 -1.235318E+03 -5.913287E+05 -2.072822E-09 -2.739731E-10
        34  14 -1.553192E+06 -2.218309E+05 -8.258060E+02 -5.870191E+05  2.764001E-09 -9.405466E-11
        34  15 -1.549463E+06 -2.256180E+05 -7.432801E+02 -5.913443E+05 -1.675900E-09 -7.498724E-10
        34  16 -1.602713E+06 -2.456129E+05 -1.495812E+04 -6.058549E+05  2.292446E-09 -3.138899E-10
        34  17 -1.623757E+06 -2.482616E+05 -1.892611E+04 -6.062772E+05  9.771392E-10 -5.789426E-10
        34  18 -1.637347E+06 -2.585261E+05 -2.322393E+04 -6.153342E+05 -7.385785E-09 -4.884868E-10
        34  19 -1.496220E+06 -2.057050E+05  1.248741E+04 -5.768012E+05 -5.830253E+02  2.173279E+03
        34  20 -1.482623E+06 -1.953998E+05  1.727422E+04 -5.677588E+05 -1.317458E+03  2.888625E+03
        34  21 -1.461571E+06 -1.927094E+05  2.173681E+04 -5.673513E+05 -2.049860E+03  3.598213E+03
        34  22 -1.549468E+06 -2.256591E+05 -1.235307E+03 -5.913287E+05 -3.588112E+01  2.378378E+03
        34  23 -1.553192E+06 -2.218309E+05 -8.257869E+02 -5.870191E+05 -7.738737E+02  3.092425E+03
        34  24 -1.549463E+06 -2.256180E+05 -7.432487E+02 -5.913443E+05 -1.509825E+03  3.800719E+03
        34  25 -1.602713E+06 -2.456129E+05 -1.495810E+04 -6.058549E+05  5.112057E+02  2.583455E+03
        34  26 -1.623757E+06 -2.482615E+05 -1.892609E+04 -6.062772E+05 -2.303602E+02  3.296198E+03
        34  27 -1.637347E+06 -2.585261E+05 -2.322390E+04 -6.153342E+05 -9.698741E+02  4.003194E+03
        35   1 -1.443190E+06 -1.857532E+05  2.653522E+04 -5.622986E+05  2.359826E+03 -4.050896E+03
        35   2 -1.430000E+06 -1.757902E+05  3.044798E+04 -5.534994E+05  3.232622E+03 -4.688871E+03
        35   3 -1.409603E+06 -1.732554E+05  3.391964E+04 -5.530678E+05  4.100629E+03 -5.313400E+03
        35   4 -1.549518E+06 -2.255645E+05 -7.962279E+02 -5.912900E+05  1.824204E+03 -4.251784E+03
        35   5 -1.553126E+06 -2.218917E+05 -1.128600E+03 -5.870905E+05  2.705295E+03 -4.886717E+03
        35   6 -1.549531E+06 -2.256491E+05 -1.908794E+03 -5.912590E+05  3.581578E+03 -5.508207E+03
        35   7 -1.655834E+06 -2.653752E+05 -2.812871E+04 -6.202770E+05  1.288682E+03 -4.452634E+03
        35   8 -1.676238E+06 -2.679923E+05 -3.270649E+04 -6.206756E+05  2.178082E+03 -5.084520E+03
        35   9 -1.689440E+06 -2.780416E+05 -3.773884E+04 -6.294424E+05  3.062656E+03 -5.702967E+03
        35  10 -1.443190E+06 -1.857533E+05  2.653518E+04 -5.622986E+05 -1.254797E-09 -2.611379E-09
        35  11 -1.430000E+06 -1.757902E+05  3.044792E+04 -5.534994E+05 -7.415405E-09 -2.035210E-09
        35  12 -1.409603E+06 -1.732554E+05  3.391956E+04 -5.530678E+05 -5.179317E-09 -2.035162E-10
        35  13 -1.549518E+06 -2.255645E+05 -7.962681E+02 -5.912900E+05 -3.965529E-09 -2.034634E-09
        35  14 -1.553126E+06 -2.218917E+05 -1.128658E+03 -5.870905E+05 -7.680598E-09 -1.548146E-09
        35  15 -1.549531E+06 -2.256492E+05 -1.908875E+03 -5.912590E+05 -1.797930E-09  1.628041E-10
        35  16 -1.655834E+06 -2.653752E+05 -2.812875E+04 -6.202770E+05 -9.258961E-09 -1.568515E-09
        35  17 -1.676238E+06 -2.679923E+05 -3.270655E+04 -6.206756E+05 -8.864387E-09 -2.348744E-09
        35  18 -1.689440E+06 -2.780417E+05 -3.773891E+04 -6.294424E+05 -5.992931E-10  4.247914E-10
        35  19 -1.443190E+06 -1.857532E+05  2.653522E+04 -5.622986E+05 -2.359826E+03  4.050896E+03
        35  20 -1.430000E+06 -1.757902E+05  3.044798E+04 -5.534994E+05 -3.232622E+03  4.688871E+03
        35  21 -1.409603E+06 -1.732554E+05  3.391964E+04 -5.530678E+05 -4.100629E+03  5.313400E+03
        35  22 -1.549518E+06 -2.255645E+05 -7.962279E+02 -5.912900E+05 -1.824204E+03  4.251784E+03
        35  23 -1.553126E+06 -2.218917E+05 -1.128600E+03 -5.870905E+05 -2.705295E+03  4.886717E+03
        35  24 -1.549531E+06 -2.256491E+05 -1.908794E+03 -5.912590E+05 -3.581578E+03  5.508207E+03
        35  25 -1.655834E+06 -2.653752E+05 -2.812871E+04 -6.202770E+05 -1.288682E+03  4.452634E+03
        35  26 -1.676238E+06 -2.679923E+05 -3.270649E+04 -6.206756E+05 -2.178082E+03  5.084520E+03
        35  27 -1.689440E+06 -2.780416E+05 -3.773884E+04 -6.294424E+05 -3.062656E+03  5.702967E+03
        36   1 -1.391939E+06 -1.665410E+05  3.800863E+04 -5.483963E+05  4.642011E+03 -5.660418E+03
        36   2 -1.379267E+06 -1.567982E+05  4.013962E+04 -5.397710E+05  7.133523E+03 -5.645759E+03
        36   3 -1.360357E+06 -1.553027E+05  4.030573E+04 -5.388895E+05  9.609974E+03 -5.590002E+03
        36   4 -1.549695E+06 -2.254550E+05 -2.480001E+03 -5.912624E+05  4.122344E+03 -5.855508E+03
        36   5 -1.552888E+06 -2.218574E+05 -4.395320E+03 -5.871928E+05  6.639003E+03 -5.831505E+03
        36   6 -1.549848E+06 -2.265125E+05 -8.295897E+03 -5.908672E+05  9.140545E+03 -5.766420E+03
        36   7 -1.707426E+06 -2.843672E+05 -4.297052E+04 -6.341185E+05  3.602824E+03 -6.050543E+03
        36   8 -1.726480E+06 -2.869147E+05 -4.893274E+04 -6.346026E+05  6.144634E+03 -6.017194E+03
        36   9 -1.739305E+06 -2.977201E+05 -5.690066E+04 -6.428306E+05  8.671271E+03 -5.942780E+03
        36  10 -1.391939E+06 -1.665410E+05  3.800853E+04 -5.483963E+05 -1.407959E-11  1.459912E-09
        36  11 -1.379267E+06 -1.567983E+05  4.013947E+04 -5.397710E+05  9.320080E-10  1.140729E-10
        36  12 -1.360357E+06 -1.553028E+05  4.030550E+04 -5.388895E+05  2.659411E-09  2.126075E-10
        36  13 -1.549695E+06 -2.254550E+05 -2.480098E+03 -5.912624E+05 -1.281956E-09  6.260280E-10
        36  14 -1.552888E+06 -2.218575E+05 -4.395467E+03 -5.871928E+05 -1.471068E-09  3.035982E-11
        36  15 -1.549848E+06 -2.265125E+05 -8.296117E+03 -5.908672E+05  4.383372E-09  6.303856E-10
        36  16 -1.707426E+06 -2.843673E+05 -4.297061E+04 -6.341184E+05  7.444383E-10  2.275356E-10
        36  17 -1.726480E+06 -2.869148E+05 -4.893288E+04 -6.346026E+05  2.113594E-09 -1.372718E-10
        36  18 -1.739305E+06 -2.977201E+05 -5.690087E+04 -6.428306E+05  2.754230E-09  1.182289E-09
        36  19 -1.391939E+06 -1.665410E+05  3.800863E+04 -5.483963E+05 -4.642011E+03  5.660418E+03
        36  20 -1.379267E+06 -1.567982E+05  4.013962E+04 -5.397710E+05 -7.133523E+03  5.645759E+03
        36  21 -1.360357E+06 -1.553027E+05  4.030573E+04 -5.388895E+05 -9.609974E+03  5.590002E+03
        36  22 -1.549695E+06 -2.254550E+05 -2.480001E+03 -5.912624E+05 -4.122344E+03  5.855508E+03
        36  23 -1.552888E+06 -2.218574E+05 -4.395320E+03 -5.871928E+05 -6.639003E+03  5.831505E+03
        36  24 -1.549848E+06 -2.265125E+05 -8.295897E+03 -5.908672E+05 -9.140545E+03  5.766420E+03
        36  25 -1.707426E+06 -2.843672E+05 -4.297052E+04 -6.341185E+05 -3.602824E+03  6.050543E+03
        36  26 -1.726480E+06 -2.869147E+05 -4.893274E+04 -6.346026E+05 -6.144634E+03  6.017194E+03
        36  27 -1.739305E+06 -2.977201E+05 -5.690066E+04 -6.428306E+05 -8.671271E+03  5.942780E+03
        37   1 -1.342908E+06 -1.489324E+05  4.221802E+04 -5.369165E+05  1.144531E+04 -5.478324E+03
        37   2 -1.330942E+06 -1.369724E+05  3.773475E+04 -5.260247E+05  2.122912E+04 -2.620200E+03
        37   3 -1.319031E+06 -1.458507E+05  2.227751E+04 -5.191734E+05  3.084737E+04  6.797807E+02
        37   4 -1.550633E+06 -2.248935E+05 -1.076000E+04 -5.917074E+05  1.085600E+04 -5.699780E+03
        37   5 -1.551465E+06 -2.206696E+05 -1.903425E+04 -5.873533E+05  2.091382E+04 -2.738938E+03
        37   6 -1.552408E+06 -2.373420E+05 -3.850304E+04 -5.870397E+05  3.080582E+04  6.636369E+02
        37   7 -1.758317E+06 -3.008524E+05 -6.374151E+04 -6.464818E+05  1.026690E+04 -5.921159E+03
        37   8 -1.771940E+06 -3.043631E+05 -7.580716E+04 -6.486619E+05  2.059864E+04 -2.857629E+03
        37   9 -1.785731E+06 -3.288280E+05 -9.928795E+04 -6.548821E+05  3.076429E+04  6.474994E+02
        37  10 -1.342908E+06 -1.489325E+05  4.221772E+04 -5.369165E+05  3.721453E-09  4.909940E-10
        37  11 -1.330943E+06 -1.369725E+05  3.773389E+04 -5.260247E+05 -1.598528E-09  2.813804E-10
        37  12 -1.319032E+06 -1.458510E+05  2.227571E+04 -5.191734E+05 -1.712738E-09  7.732910E-10
        37  13 -1.550633E+06 -2.248936E+05 -1.076028E+04 -5.917073E+05  3.215663E-09  6.168856E-10
        37  14 -1.551465E+06 -2.206697E+05 -1.903509E+04 -5.873533E+05  3.144262E-09  1.837814E-10
        37  15 -1.552409E+06 -2.373422E+05 -3.850483E+04 -5.870397E+05 -6.267420E-10  5.726248E-10
        37  16 -1.758317E+06 -3.008525E+05 -6.374178E+04 -6.464817E+05  3.075833E-09  9.820327E-10
        37  17 -1.771940E+06 -3.043632E+05 -7.580797E+04 -6.486619E+05  2.381847E-09  4.488047E-10
        37  18 -1.785732E+06 -3.288283E+05 -9.928973E+04 -6.548821E+05  1.308042E-09  2.284799E-10
        37  19 -1.342908E+06 -1.489324E+05  4.221802E+04 -5.369165E+05 -1.144531E+04  5.478324E+03
        37  20 -1.330942E+06 -1.369724E+05  3.773475E+04 -5.260247E+05 -2.122912E+04  2.620200E+03
        37  21 -1.319031E+06 -1.458507E+05  2.227751E+04 -5.191734E+05 -3.084737E+04 -6.797807E+02
        37  22 -1.550633E+06 -2.248935E+05 -1.076000E+04 -5.917074E+05 -1.085600E+04  5.699780E+03
        37  23 -1.551465E+06 -2.206696E+05 -1.903425E+04 -5.873533E+05 -2.091382E+04  2.738938E+03
        37  24 -1.552408E+06 -2.373420E+05 -3.850304E+04 -5.870397E+05 -3.080582E+04 -6.636369E+02
        37  25 -1.758317E+06 -3.008524E+05 -6.374151E+04 -6.464818E+05 -1.026690E+04  5.921159E+03
        37  26 -1.771940E+06 -3.043631E+05 -7.580716E+04 -6.486619E+05 -2.059864E+04  2.857629E+03
        37  27 -1.785731E+06 -3.288280E+05 -9.928795E+04 -6.548821E+05 -3.076429E+04 -6.474994E+02
        38   1 -1.292306E+06 -1.394705E+05  1.665616E+04 -5.452694E+05  4.009197E+04  2.601984E+03
        38   2 -1.284959E+06 -9.576109E+04 -1.288568E+04 -5.023379E+05  7.946429E+04  1.746303E+04
        38   3 -1.337661E+06 -2.191284E+05 -1.159785E+05 -4.241628E+05  1.160812E+05  3.965801E+04
        38   4 -1.558731E+06 -2.192248E+05 -4.778329E+04 -5.974000E+05  3.781313E+04  1.746740E+03
        38   5 -1.538427E+06 -2.068389E+05 -8.102130E+04 -5.881174E+05  8.177194E+04  1.832772E+04
        38   6 -1.579111E+06 -3.624883E+05 -1.914751E+05 -5.435839E+05  1.229752E+05  4.223859E+04
        38   7 -1.825087E+06 -2.989803E+05 -1.122279E+05 -6.495132E+05  3.553537E+04  8.917101E+02
        38   8 -1.791830E+06 -3.179058E+05 -1.491627E+05 -6.738629E+05  8.407856E+04  1.919188E+04
        38   9 -1.820497E+06 -5.058130E+05 -2.669767E+05 -6.629543E+05  1.298663E+05  4.481659E+04
        38  10 -1.292308E+06 -1.394709E+05  1.665312E+04 -5.452695E+05 -1.829120E-09  7.888070E-10
        38  11 -1.284966E+06 -9.576312E+04 -1.289815E+04 -5.023390E+05 -5.944757E-11  3.164793E-10
        38  12 -1.337676E+06 -2.191337E+05 -1.160068E+05 -4.241665E+05 -4.219741E-10  5.454003E-10
        38  13 -1.558733E+06 -2.192252E+05 -4.778599E+04 -5.974000E+05 -1.658359E-10  5.111623E-10
        38  14 -1.538434E+06 -2.068411E+05 -8.103453E+04 -5.881186E+05  1.121758E-09 -2.752606E-10
        38  15 -1.579128E+06 -3.624943E+05 -1.915070E+05 -5.435881E+05  6.869028E-10  1.128233E-11
        38  16 -1.825089E+06 -2.989806E+05 -1.122303E+05 -6.495133E+05  2.144374E-09  1.489757E-10
        38  17 -1.791838E+06 -3.179081E+05 -1.491767E+05 -6.738642E+05  5.995485E-10  1.085836E-09
        38  18 -1.820516E+06 -5.058197E+05 -2.670123E+05 -6.629590E+05 -3.373144E-10  2.337591E-10
        38  19 -1.292306E+06 -1.394705E+05  1.665616E+04 -5.452694E+05 -4.009197E+04 -2.601984E+03
        38  20 -1.284959E+06 -9.576109E+04 -1.288568E+04 -5.023379E+05 -7.946429E+04 -1.746303E+04
        38  21 -1.337661E+06 -2.191284E+05 -1.159785E+05 -4.241628E+05 -1.160812E+05 -3.965801E+04
        38  22 -1.558731E+06 -2.192248E+05 -4.778329E+04 -5.974000E+05 -3.781313E+04 -1.746740E+03
        38  23 -1.538427E+06 -2.068389E+05 -8.102130E+04 -5.881174E+05 -8.177194E+04 -1.832772E+04
        38  24 -1.579111E+06 -3.624883E+05 -1.914751E+05 -5.435839E+05 -1.229752E+05 -4.223859E+04
        38  25 -1.825087E+06 -2.989803E+05 -1.122279E+05 -6.495132E+05 -3.553537E+04 -8.917101E+02
        38  26 -1.791830E+06 -3.179058E+05 -1.491627E+05 -6.738629E+05 -8.407856E+04 -1.919188E+04
        38  27 -1.820497E+06 -5.058130E+05 -2.669767E+05 -6.629543E+05 -1.298663E+05 -4.481659E+04
        39   1 -2.218627E+05  7.775609E+04  9.622086E+04  3.038991E+04  6.592780E+04  3.228321E+00
        39   2 -2.342176E+05 -6.678851E+03  4.280913E+04  9.516533E+03  4.300335E+04  6.594231E-01
        39   3 -2.218740E+05 -4.276836E+03  2.603755E+04 -1.135636E+04  2.007878E+04 -3.674098E-01
        39   4 -2.218637E+05  7.775436E+04  9.622061E+04 -3.760560E-09  6.592780E+04 -9.188790E-11
        39   5 -2.342177E+05 -6.679021E+03  4.280910E+04 -8.682315E-09  4.300335E+04 -7.284847E-11
        39   6 -2.218741E+05 -4.277079E+03  2.603751E+04  8.204150E-09  2.007878E+04 -3.326016E-10
        39   7 -2.218627E+05  7.775609E+04  9.622086E+04 -3.038991E+04  6.592780E+04 -3.228321E+00
        39   8 -2.342176E+05 -6.678851E+03  4.280913E+04 -9.516533E+03  4.300335E+04 -6.594231E-01
        39   9 -2.218740E+05 -4.276836E+03  2.603755E+04  1.135636E+04  2.007878E+04  3.674098E-01
        39  10 -2.218673E+05  7.775493E+04  9.621269E+04  3.038991E+04 -6.618889E-10  2.696803E-10
        39  11 -2.342196E+05 -6.679348E+03  4.280565E+04  9.516533E+03  5.716123E-11  4.851751E-10
        39  12 -2.218744E+05 -4.276944E+03  2.603679E+04 -1.135636E+04 -1.008786E-09 -4.036816E-10
        39  13 -2.218683E+05  7.775319E+04  9.621244E+04 -1.585718E-09 -2.145443E-09  5.964020E-11
        39  14 -2.342197E+05 -6.679518E+03  4.280563E+04 -7.596526E-09 -4.075559E-10  1.873174E-10
        39  15 -2.218746E+05 -4.277187E+03  2.603675E+04 -8.227468E-09  1.197649E-09  2.175586E-10
        39  16 -2.218673E+05  7.775493E+04  9.621269E+04 -3.038991E+04  1.238219E-09 -1.545300E-10
        39  17 -2.342196E+05 -6.679348E+03  4.280565E+04 -9.516533E+03  1.387160E-09 -1.506834E-10
        39  18 -2.218744E+05 -4.276944E+03  2.603679E+04  1.135636E+04  5.886808E-10  7.719457E-10
        39  19 -2.218627E+05  7.775609E+04  9.622086E+04  3.038991E+04 -6.592780E+04 -3.228321E+00
        39  20 -2.342176E+05 -6.678851E+03  4.280913E+04  9.516533E+03 -4.300335E+04 -6.594231E-01
        39  21 -2.218740E+05 -4.276836E+03  2.603755E+04 -1.135636E+04 -2.007878E+04  3.674098E-01
        39  22 -2.218637E+05  7.775436E+04  9.622061E+04  5.901604E-10 -6.592780E+04  2.198068E-10
        39  23 -2.342177E+05 -6.679021E+03  4.280910E+04  6.410372E-09 -4.300335E+04  4.394540E-10
        39  24 -2.218741E+05 -4.277079E+03  2.603751E+04  1.411743E-08 -2.007878E+04  7.831924E-10
        39  25 -2.218627E+05  7.775609E+04  9.622086E+04 -3.038991E+04 -6.592780E+04  3.228321E+00
        39  26 -2.342176E+05 -6.678851E+03  4.280913E+04 -9.516533E+03 -4.300335E+04  6.594231E-01
        39  27 -2.218740E+05 -4.276836E+03  2.603755E+04  1.135636E+04 -2.007878E+04 -3.674098E-01
        40   1 -2.268009E+05  6.296372E+03  2.102691E+04  2.083062E+03  1.619029E+04  5.434186E-02
        40   2 -2.280612E+05 -6.114149E+02  1.101836E+04  5.226320E+02  1.060178E+04  8.927975E-03
        40   3 -2.268023E+05 -3.549021E+02  6.440322E+03 -1.037778E+03  5.013387E+03 -8.383259E-03
        40   4 -2.268009E+05  6.296364E+03  2.102691E+04  3.142260E-09  1.619029E+04 -5.775541E-10
        40   5 -2.280612E+05 -6.114154E+02  1.101836E+04 -6.754241E-09  1.060178E+04 -5.506479E-10
        40   6 -2.268023E+05 -3.549041E+02  6.440321E+03  1.053870E-08  5.013387E+03  7.148739E-10
        40   7 -2.268009E+05  6.296372E+03  2.102691E+04 -2.083062E+03  1.619029E+04 -5.434186E-02
        40   8 -2.280612E+05 -6.114149E+02  1.101836E+04 -5.226320E+02  1.060178E+04 -8.927976E-03
        40   9 -2.268023E+05 -3.549021E+02  6.440322E+03  1.037778E+03  5.013387E+03  8.383261E-03
        40  10 -2.268012E+05  6.296302E+03  2.102642E+04  2.083062E+03 -2.644834E-10 -8.393391E-10
        40  11 -2.280613E+05 -6.114451E+02  1.101815E+04  5.226320E+02 -1.596916E-09 -5.471679E-10
        40  12 -2.268023E+05 -3.549089E+02  6.440274E+03 -1.037778E+03 -8.586455E-10  2.702679E-10
        40  13 -2.268012E+05  6.296294E+03  2.102642E+04  3.003465E-09  4.206187E-12 -2.191026E-10
        40  14 -2.280613E+05 -6.114456E+02  1.101815E+04 -1.335449E-09  5.426487E-10 -6.833074E-10
        40  15 -2.268023E+05 -3.549109E+02  6.440274E+03 -8.905500E-09  1.406501E-09  3.533835E-10
        40  16 -2.268012E+05  6.296302E+03  2.102642E+04 -2.083062E+03 -8.458236E-10  4.261621E-10
        40  17 -2.280613E+05 -6.114451E+02  1.101815E+04 -5.226320E+02  2.692493E-09 -8.441643E-10
        40  18 -2.268023E+05 -3.549089E+02  6.440274E+03  1.037778E+03 -7.889618E-10  4.706826E-10
        40  19 -2.268009E+05  6.296372E+03  2.102691E+04  2.083062E+03 -1.619029E+04 -5.434186E-02
        40  20 -2.280612E+05 -6.114149E+02  1.101836E+04  5.226320E+02 -1.060178E+04 -8.927976E-03
        40  21 -2.268023E+05 -3.549021E+02  6.440322E+03 -1.037778E+03 -5.013387E+03  8.383260E-03
        40  22 -2.268009E+05  6.296364E+03  2.102691E+04  2.860191E-09 -1.619029E+04  1.380676E-10
        40  23 -2.280612E+05 -6.114154E+02  1.101836E+04  1.161933E-08 -1.060178E+04 -8.325579E-10
        40  24 -2.268023E+05 -3.549041E+02  6.440321E+03  2.341175E-09 -5.013387E+03 -8.342587E-12
        40  25 -2.268009E+05  6.296372E+03  2.102691E+04 -2.083062E+03 -1.619029E+04  5.434186E-02
        40  26 -2.280612E+05 -6.114149E+02  1.101836E+04 -5.226320E+02 -1.060178E+04  8.927975E-03
        40  27 -2.268023E+05 -3.549021E+02  6.440322E+03  1.037778E+03 -5.013387E+03 -8.383260E-03
        41   1 -2.272894E+05  4.888985E+02  4.981843E+03  6.593918E+01  4.008398E+03  4.258850E-04
        41   2 -2.274529E+05 -6.530762E+01  2.762604E+03 -2.244257E+01  2.632023E+03 -9.517884E-05
        41   3 -2.272896E+05 -2.966817E+01  1.587180E+03 -1.108257E+02  1.255629E+03 -2.242218E-04
        41   4 -2.272894E+05  4.888985E+02  4.981843E+03  9.412256E-09  4.008398E+03  6.663135E-10
        41   5 -2.274529E+05 -6.530762E+01  2.762604E+03  8.500671E-09  2.632023E+03 -3.071047E-10
        41   6 -2.272896E+05 -2.966819E+01  1.587180E+03  2.473673E-09  1.255629E+03  7.832348E-10
        41   7 -2.272894E+05  4.888985E+02  4.981843E+03 -6.593918E+01  4.008398E+03 -4.258837E-04
        41   8 -2.274529E+05 -6.530762E+01  2.762604E+03  2.244257E+01  2.632023E+03  9.517818E-05
        41   9 -2.272896E+05 -2.966817E+01  1.587180E+03  1.108257E+02  1.255629E+03  2.242234E-04
        41  10 -2.272894E+05  4.888941E+02  4.981813E+03  6.593918E+01  2.317259E-09  3.723548E-10
        41  11 -2.274529E+05 -6.530948E+01  2.762591E+03 -2.244257E+01  5.476023E-10  1.663348E-10
        41  12 -2.272896E+05 -2.966859E+01  1.587177E+03 -1.108257E+02 -1.279741E-09  5.900798E-10
        41  13 -2.272894E+05  4.888941E+02  4.981813E+03  7.127590E-09 -1.076880E-09  5.625706E-10
        41  14 -2.274529E+05 -6.530948E+01  2.762591E+03  5.267946E-09 -4.540678E-11 -1.562475E-11
        41  15 -2.272896E+05 -2.966861E+01  1.587177E+03  7.714224E-09 -8.324643E-10  5.362707E-10
        41  16 -2.272894E+05  4.888941E+02  4.981813E+03 -6.593918E+01 -4.503806E-09  7.442863E-10
        41  17 -2.274529E+05 -6.530948E+01  2.762591E+03  2.244257E+01  2.394558E-10 -2.055185E-10
        41  18 -2.272896E+05 -2.966859E+01  1.587177E+03  1.108257E+02  1.492911E-09  4.804545E-10
        41  19 -2.272894E+05  4.888985E+02  4.981843E+03  6.593918E+01 -4.008398E+03 -4.258842E-04
        41  20 -2.274529E+05 -6.530762E+01  2.762604E+03 -2.244257E+01 -2.632023E+03  9.517918E-05
        41  21 -2.272896E+05 -2.966817E+01  1.587180E+03 -1.108257E+02 -1.255629E+03  2.242230E-04
        41  22 -2.272894E+05  4.888985E+02  4.981843E+03 -8.078773E-09 -4.008398E+03  4.663094E-10
        41  23 -2.274529E+05 -6.530762E+01  2.762604E+03 -9.810134E-09 -2.632023E+03  2.829890E-10
        41  24 -2.272896E+05 -2.966819E+01  1.587180E+03  1.537932E-08 -1.255629E+03  3.006646E-10
        41  25 -2.272894E+05  4.888985E+02  4.981843E+03 -6.593918E+01 -4.008398E+03  4.258851E-04
        41  26 -2.274529E+05 -6.530762E+01  2.762604E+03  2.244257E+01 -2.632023E+03 -9.517863E-05
        41  27 -2.272896E+05 -2.966817E+01  1.587180E+03  1.108257E+02 -1.255629E+03 -2.242224E-04
        42   1 -2.273501E+05  3.268494E+01  1.204033E+03 -2.128760E+01  1.004946E+03 -3.446946E-05
        42   2 -2.273775E+05 -8.842051E+00  6.649277E+02 -1.889486E+01  6.756037E+02 -2.056903E-05
        42   3 -2.273501E+05 -2.673253E+00  3.522225E+02 -1.650212E+01  3.462613E+02 -9.207252E-06
        42   4 -2.273501E+05  3.268494E+01  1.204033E+03 -8.857773E-09  1.004946E+03  9.964716E-10
        42   5 -2.273775E+05 -8.842051E+00  6.649277E+02  9.225158E-09  6.756037E+02 -4.268792E-11
        42   6 -2.273501E+05 -2.673254E+00  3.522225E+02  5.501106E-09  3.462613E+02 -8.093960E-11
        42   7 -2.273501E+05  3.268494E+01  1.204033E+03  2.128760E+01  1.004946E+03  3.447151E-05
        42   8 -2.273775E+05 -8.842051E+00  6.649277E+02  1.889486E+01  6.756037E+02  2.056889E-05
        42   9 -2.273501E+05 -2.673253E+00  3.522225E+02  1.650212E+01  3.462613E+02  9.207138E-06
        42  10 -2.273501E+05  3.268467E+01  1.204031E+03 -2.128760E+01  6.447198E-10  2.764476E-10
        42  11 -2.273775E+05 -8.842173E+00  6.649269E+02 -1.889486E+01  2.065099E-09 -7.235504E-10
        42  12 -2.273501E+05 -2.673286E+00  3.522222E+02 -1.650212E+01  5.456983E-10 -2.922821E-10
        42  13 -2.273501E+05  3.268467E+01  1.204031E+03 -4.755324E-09  8.643246E-11  3.135752E-10
        42  14 -2.273775E+05 -8.842174E+00  6.649269E+02 -1.664403E-08  1.035763E-09 -6.975351E-10
        42  15 -2.273501E+05 -2.673286E+00  3.522222E+02  9.158945E-09 -3.103321E-10 -1.177769E-10
        42  16 -2.273501E+05  3.268467E+01  1.204031E+03  2.128760E+01 -1.255343E-09  3.716834E-10
        42  17 -2.273775E+05 -8.842173E+00  6.649269E+02  1.889486E+01 -2.791581E-09 -6.973723E-10
        42  18 -2.273501E+05 -2.673286E+00  3.522222E+02  1.650212E+01  4.308163E-10  6.294543E-11
        42  19 -2.273501E+05  3.268494E+01  1.204033E+03 -2.128760E+01 -1.004946E+03  3.447004E-05
        42  20 -2.273775E+05 -8.842051E+00  6.649277E+02 -1.889486E+01 -6.756037E+02  2.056764E-05
        42  21 -2.273501E+05 -2.673253E+00  3.522225E+02 -1.650212E+01 -3.462613E+02  9.206718E-06
        42  22 -2.273501E+05  3.268494E+01  1.204033E+03 -2.807938E-09 -1.004946E+03 -3.776194E-10
        42  23 -2.273775E+05 -8.842051E+00  6.649277E+02 -1.451631E-08 -6.756037E+02 -1.366365E-09
        42  24 -2.273501E+05 -2.673254E+00  3.522225E+02 -2.802641E-09 -3.462613E+02 -1.620247E-10
        42  25 -2.273501E+05  3.268494E+01  1.204033E+03  2.128760E+01 -1.004946E+03 -3.447080E-05
        42  26 -2.273775E+05 -8.842051E+00  6.649277E+02  1.889486E+01 -6.756037E+02 -2.057036E-05
        42  27 -2.273501E+05 -2.673253E+00  3.522225E+02  1.650212E+01 -3.462613E+02 -9.207076E-06
        43   1 -2.273615E+05  1.156362E+00  2.423220E+02 -1.052370E+01  2.924920E+02 -4.959670E-06
        43   2 -2.273633E+05 -3.218214E-01  6.951501E+01 -8.201675E+00  2.582311E+02 -3.412338E-06
        43   3 -2.273615E+05 -5.067405E+00 -8.179895E+01 -5.879688E+00  2.239708E+02 -2.122100E-06
        43   4 -2.273615E+05  1.156362E+00  2.423220E+02 -5.747848E-09  2.924920E+02  2.913931E-10
        43   5 -2.273633E+05 -3.218216E-01  6.951501E+01 -9.893512E-09  2.582311E+02  3.890431E-10
        43   6 -2.273615E+05 -5.067405E+00 -8.179895E+01 -7.848194E-09  2.239708E+02 -3.521136E-10
        43   7 -2.273615E+05  1.156362E+00  2.423220E+02  1.052370E+01  2.924920E+02  4.960236E-06
        43   8 -2.273633E+05 -3.218214E-01  6.951501E+01  8.201675E+00  2.582311E+02  3.413091E-06
        43   9 -2.273615E+05 -5.067405E+00 -8.179895E+01  5.879688E+00  2.239708E+02  2.121455E-06
        43  10 -2.273615E+05  1.156339E+00  2.423218E+02 -1.052370E+01 -4.563533E-10  3.980039E-10
        43  11 -2.273633E+05 -3.218393E-01  6.951489E+01 -8.201675E+00 -1.636382E-09  5.124626E-10
        43  12 -2.273615E+05 -5.067418E+00 -8.179904E+01 -5.879688E+00 -1.882536E-09 -8.131214E-10
        43  13 -2.273615E+05  1.156339E+00  2.423218E+02 -1.354383E-09 -9.883872E-10  6.315100E-10
        43  14 -2.273633E+05 -3.218395E-01  6.951489E+01  4.017803E-09 -9.925939E-10  6.265634E-10
        43  15 -2.273615E+05 -5.067418E+00 -8.179904E+01 -2.455116E-09 -1.873190E-09 -8.959093E-10
        43  16 -2.273615E+05  1.156339E+00  2.423218E+02  1.052370E+01 -1.146342E-09  8.646052E-10
        43  17 -2.273633E+05 -3.218393E-01  6.951489E+01  8.201675E+00  5.995445E-10  7.490196E-10
        43  18 -2.273615E+05 -5.067418E+00 -8.179904E+01  5.879688E+00 -2.206057E-09 -9.448914E-10
        43  19 -2.273615E+05  1.156362E+00  2.423220E+02 -1.052370E+01 -2.924920E+02  4.960543E-06
        43  20 -2.273633E+05 -3.218214E-01  6.951501E+01 -8.201675E+00 -2.582311E+02  3.413398E-06
        43  21 -2.273615E+05 -5.067405E+00 -8.179895E+01 -5.879688E+00 -2.239708E+02  2.120523E-06
        43  22 -2.273615E+05  1.156362E+00  2.423220E+02  3.040133E-09 -2.924920E+02  9.740427E-10
        43  23 -2.273633E+05 -3.218216E-01  6.951501E+01 -3.753999E-10 -2.582311E+02  8.571092E-10
        43  24 -2.273615E+05 -5.067405E+00 -8.179895E+01  3.206655E-09 -2.239708E+02 -1.433738E-09
        43  25 -2.273615E+05  1.156362E+00  2.423220E+02  1.052370E+01 -2.924920E+02 -4.958555E-06
        43  26 -2.273633E+05 -3.218214E-01  6.951501E+01  8.201675E+00 -2.582311E+02 -3.411676E-06
        43  27 -2.273615E+05 -5.067405E+00 -8.179895E+01  5.879688E+00 -2.239708E+02 -2.123436E-06
        44   1 -2.273725E+05  3.987250E+00 -1.618704E+02 -1.865468E+01  2.457161E+02 -7.385961E-06
        44   2 -2.273497E+05  9.306620E+00 -3.670851E+02 -4.748144E+00  4.287815E+02 -3.280030E-06
        44   3 -2.273725E+05 -7.236460E+01 -7.132615E+02  9.158602E+00  6.118497E+02  9.028789E-06
        44   4 -2.273725E+05  3.987250E+00 -1.618704E+02  4.753355E-09  2.457161E+02 -4.300716E-10
        44   5 -2.273497E+05  9.306620E+00 -3.670851E+02 -1.096339E-08  4.287815E+02 -5.103971E-11
        44   6 -2.273725E+05 -7.236460E+01 -7.132615E+02 -7.025842E-09  6.118497E+02 -7.578667E-10
        44   7 -2.273725E+05  3.987250E+00 -1.618704E+02  1.865468E+01  2.457161E+02  7.385125E-06
        44   8 -2.273497E+05  9.306620E+00 -3.670851E+02  4.748144E+00  4.287815E+02  3.279914E-06
        44   9 -2.273725E+05 -7.236460E+01 -7.132615E+02 -9.158602E+00  6.118497E+02 -9.030267E-06
        44  10 -2.273725E+05  3.987234E+00 -1.618706E+02 -1.865468E+01 -1.194277E-09 -7.589036E-10
        44  11 -2.273497E+05  9.306571E+00 -3.670854E+02 -4.748144E+00 -1.793408E-09  7.336870E-10
        44  12 -2.273725E+05 -7.236470E+01 -7.132622E+02  9.158602E+00  2.795258E-10  5.210377E-10
        44  13 -2.273725E+05  3.987233E+00 -1.618706E+02  6.656248E-10  1.001042E-09 -1.002194E-09
        44  14 -2.273497E+05  9.306571E+00 -3.670854E+02  9.532211E-10 -1.200089E-09  2.771246E-10
        44  15 -2.273725E+05 -7.236470E+01 -7.132622E+02 -4.140933E-09  3.536957E-09  2.451390E-10
        44  16 -2.273725E+05  3.987234E+00 -1.618706E+02  1.865468E+01  2.921731E-09 -1.262258E-09
        44  17 -2.273497E+05  9.306571E+00 -3.670854E+02  4.748144E+00 -7.733116E-10 -1.826150E-10
        44  18 -2.273725E+05 -7.236470E+01 -7.132622E+02 -9.158602E+00  8.473964E-10 -4.075240E-11
        44  19 -2.273725E+05  3.987250E+00 -1.618704E+02 -1.865468E+01 -2.457161E+02  7.384503E-06
        44  20 -2.273497E+05  9.306620E+00 -3.670851E+02 -4.748144E+00 -4.287815E+02  3.281571E-06
        44  21 -2.273725E+05 -7.236460E+01 -7.132615E+02  9.158602E+00 -6.118497E+02 -9.027767E-06
        44  22 -2.273725E+05  3.987250E+00 -1.618704E+02  1.165047E-08 -2.457161E+02 -1.572448E-09
        44  23 -2.273497E+05  9.306620E+00 -3.670851E+02 -1.297440E-08 -4.287815E+02  6.138426E-10
        44  24 -2.273725E+05 -7.236460E+01 -7.132615E+02 -2.333689E-09 -6.118497E+02  1.237615E-09
        44  25 -2.273725E+05  3.987250E+00 -1.618704E+02  1.865468E+01 -2.457161E+02 -7.387651E-06
        44  26 -2.273497E+05  9.306620E+00 -3.670851E+02  4.748144E+00 -4.287815E+02 -3.280339E-06
        44  27 -2.273725E+05 -7.236460E+01 -7.132615E+02 -9.158602E+00 -6.118497E+02  9.030185E-06
        45   1 -2.274450E+05  5.236528E+01 -9.348923E+02 -1.541388E+02  7.567394E+02 -1.879476E-04
        45   2 -2.272591E+05  9.039022E+01 -1.620068E+03  7.696410E+01  1.578594E+03  1.957665E-04
        45   3 -2.274452E+05 -9.316373E+02 -3.105462E+03  3.080671E+02  2.400448E+03  1.191559E-03
        45   4 -2.274450E+05  5.236524E+01 -9.348923E+02  2.869192E-09  7.567394E+02 -5.975446E-10
        45   5 -2.272591E+05  9.039020E+01 -1.620068E+03  1.014928E-08  1.578594E+03  8.006483E-10
        45   6 -2.274452E+05 -9.316375E+02 -3.105462E+03  1.797042E-08  2.400448E+03  1.327800E-09
        45   7 -2.274450E+05  5.236528E+01 -9.348923E+02  1.541388E+02  7.567394E+02  1.879464E-04
        45   8 -2.272591E+05  9.039022E+01 -1.620068E+03 -7.696410E+01  1.578594E+03 -1.957650E-04
        45   9 -2.274452E+05 -9.316373E+02 -3.105462E+03 -3.080671E+02  2.400448E+03 -1.191556E-03
        45  10 -2.274450E+05  5.236513E+01 -9.348934E+02 -1.541388E+02 -1.629211E-09  2.123951E-10
        45  11 -2.272591E+05  9.038955E+01 -1.620072E+03  7.696410E+01 -4.103730E-10  1.819965E-10
        45  12 -2.274452E+05 -9.316388E+02 -3.105473E+03  3.080671E+02  6.641291E-10 -2.396285E-10
        45  13 -2.274450E+05  5.236509E+01 -9.348934E+02 -3.599950E-09 -1.072669E-09 -2.061001E-11
        45  14 -2.272591E+05  9.038954E+01 -1.620072E+03 -6.352623E-10  1.035862E-09 -1.066858E-10
        45  15 -2.274452E+05 -9.316390E+02 -3.105473E+03  1.252553E-09  2.985852E-09 -2.881386E-10
        45  16 -2.274450E+05  5.236513E+01 -9.348934E+02  1.541388E+02  4.713625E-10 -2.454965E-10
        45  17 -2.272591E+05  9.038955E+01 -1.620072E+03 -7.696410E+01  2.293851E-09 -4.122891E-10
        45  18 -2.274452E+05 -9.316388E+02 -3.105473E+03 -3.080671E+02  6.726297E-10 -3.401974E-10
        45  19 -2.274450E+05  5.236528E+01 -9.348923E+02 -1.541388E+02 -7.567394E+02  1.879480E-04
        45  20 -2.272591E+05  9.039022E+01 -1.620068E+03  7.696410E+01 -1.578594E+03 -1.957661E-04
        45  21 -2.274452E+05 -9.316373E+02 -3.105462E+03  3.080671E+02 -2.400448E+03 -1.191559E-03
        45  22 -2.274450E+05  5.236524E+01 -9.348923E+02  7.162763E-09 -7.567394E+02  5.523431E-10
        45  23 -2.272591E+05  9.039020E+01 -1.620068E+03  1.119592E-08 -1.578594E+03 -1.009607E-09
        45  24 -2.274452E+05 -9.316375E+02 -3.105462E+03  1.307401E-08 -2.400448E+03 -1.902055E-09
        45  25 -2.274450E+05  5.236528E+01 -9.348923E+02  1.541388E+02 -7.567394E+02 -1.879469E-04
        45  26 -2.272591E+05  9.039022E+01 -1.620068E+03 -7.696410E+01 -1.578594E+03  1.957641E-04
        45  27 -2.274452E+05 -9.316373E+02 -3.105462E+03 -3.080671E+02 -2.400448E+03  1.191556E-03
        46   1 -2.281743E+05  6.328482E+02 -3.848298E+03 -1.680524E+03  2.974846E+03 -8.055398E-03
        46   2 -2.263479E+05  9.882638E+02 -6.331536E+03  1.408060E+03  6.366002E+03  1.444324E-02
        46   3 -2.281756E+05 -1.150473E+04 -1.423524E+04  4.496588E+03  9.757110E+03  7.069382E-02
        46   4 -2.281743E+05  6.328429E+02 -3.848299E+03  1.394989E-08  2.974846E+03  9.128045E-10
        46   5 -2.263479E+05  9.882601E+02 -6.331537E+03  3.034756E-09  6.366002E+03 -4.016556E-12
        46   6 -2.281756E+05 -1.150477E+04 -1.423525E+04  9.350935E-09  9.757110E+03 -1.295603E-10
        46   7 -2.281743E+05  6.328482E+02 -3.848298E+03  1.680524E+03  2.974846E+03  8.055399E-03
        46   8 -2.263479E+05  9.882638E+02 -6.331536E+03 -1.408060E+03  6.366002E+03 -1.444324E-02
        46   9 -2.281756E+05 -1.150473E+04 -1.423524E+04 -4.496588E+03  9.757110E+03 -7.069382E-02
        46  10 -2.281743E+05  6.328459E+02 -3.848314E+03 -1.680524E+03 -4.552896E-10 -2.289420E-10
        46  11 -2.263479E+05  9.882529E+02 -6.331612E+03  1.408060E+03 -3.400200E-10  1.752999E-10
        46  12 -2.281757E+05 -1.150476E+04 -1.423542E+04  4.496588E+03  4.966330E-10  1.011896E-10
        46  13 -2.281743E+05  6.328405E+02 -3.848315E+03  1.112531E-09  1.544289E-10 -1.083895E-10
        46  14 -2.263479E+05  9.882492E+02 -6.331613E+03 -1.257515E-09 -1.613202E-09  3.416601E-10
        46  15 -2.281757E+05 -1.150480E+04 -1.423543E+04  1.252345E-08  9.769977E-10  1.680677E-10
        46  16 -2.281743E+05  6.328459E+02 -3.848314E+03  1.680524E+03  4.917941E-10  4.155299E-12
        46  17 -2.263479E+05  9.882529E+02 -6.331612E+03 -1.408060E+03  6.692505E-10  5.418056E-10
        46  18 -2.281757E+05 -1.150476E+04 -1.423542E+04 -4.496588E+03  8.935149E-10  2.320428E-10
        46  19 -2.281743E+05  6.328482E+02 -3.848298E+03 -1.680524E+03 -2.974846E+03  8.055397E-03
        46  20 -2.263479E+05  9.882638E+02 -6.331536E+03  1.408060E+03 -6.366002E+03 -1.444324E-02
        46  21 -2.281756E+05 -1.150473E+04 -1.423524E+04  4.496588E+03 -9.757110E+03 -7.069382E-02
        46  22 -2.281743E+05  6.328429E+02 -3.848299E+03 -9.531550E-10 -2.974846E+03 -1.127035E-09
        46  23 -2.263479E+05  9.882601E+02 -6.331537E+03  3.065773E-09 -6.366002E+03  6.982781E-10
        46  24 -2.281756E+05 -1.150477E+04 -1.423525E+04  1.731522E-08 -9.757110E+03  4.675028E-10
        46  25 -2.281743E+05  6.328482E+02 -3.848298E+03  1.680524E+03 -2.974846E+03 -8.055399E-03
        46  26 -2.263479E+05  9.882638E+02 -6.331536E+03 -1.408060E+03 -6.366002E+03  1.444324E-02
        46  27 -2.281756E+05 -1.150473E+04 -1.423524E+04 -4.496588E+03 -9.757110E+03  7.069382E-02
        47   1  1.689328E+05 -2.476899E+04  1.644860E+05 -5.450900E+04  7.901754E+03  9.428378E+03
        47   2  1.497152E+05 -1.280741E+05  1.372645E+05 -2.798890E+04  2.339291E+04 -7.249848E+02
        47   3  1.243883E+05 -2.313941E+05  1.151659E+05 -5.871157E+04  2.080822E+04 -1.088127E+04
        47   4 -7.653554E+03 -7.336096E+05 -9.335315E+03 -5.734589E+04  7.905377E+03 -7.047454E+03
        47   5  5.820545E+02 -7.325249E+05 -3.682242E+03 -2.872143E+04  2.339637E+04 -5.054279E+03
        47   6  5.963125E+02 -7.335749E+05 -1.344495E+03 -5.734335E+04  2.080362E+04 -3.065525E+03
        47   7 -1.842770E+05 -1.441992E+06 -1.831925E+05 -6.017949E+04  7.909154E+03 -2.350451E+04
        47   8 -1.485769E+05 -1.336638E+06 -1.446536E+05 -2.945320E+04  2.339983E+04 -9.379383E+03
        47   9 -1.232134E+05 -1.235523E+06 -1.178716E+05 -5.597619E+04  2.079906E+04  4.743945E+03
        47  10  1.689327E+05 -2.476911E+04  1.644858E+05 -5.450906E+04  1.227201E-09  1.361635E-09
        47  11  1.497146E+05 -1.280743E+05  1.372634E+05 -2.798889E+04 -2.747725E-10 -9.893968E-10
        47  12  1.243878E+05 -2.313944E+05  1.151649E+05 -5.871139E+04 -5.852450E-10 -2.315789E-09
        47  13 -7.653635E+03 -7.336096E+05 -9.335526E+03 -5.734585E+04  7.005299E-10  1.310982E-10
        47  14  5.814600E+02 -7.325250E+05 -3.683318E+03 -2.872134E+04  1.167440E-09  2.112684E-10
        47  15  5.958454E+02 -7.335751E+05 -1.345326E+03 -5.734330E+04 -5.492324E-10  2.316314E-10
        47  16 -1.842772E+05 -1.441992E+06 -1.831937E+05 -6.017934E+04  6.714074E-10 -1.339721E-09
        47  17 -1.485775E+05 -1.336639E+06 -1.446548E+05 -2.945302E+04  5.213521E-10  4.753468E-11
        47  18 -1.232139E+05 -1.235523E+06 -1.178725E+05 -5.597627E+04 -1.539945E-09  2.663151E-09
        47  19  1.689328E+05 -2.476899E+04  1.644860E+05 -5.450900E+04 -7.901754E+03 -9.428378E+03
        47  20  1.497152E+05 -1.280741E+05  1.372645E+05 -2.798890E+04 -2.339291E+04  7.249848E+02
        47  21  1.243883E+05 -2.313941E+05  1.151659E+05 -5.871157E+04 -2.080822E+04  1.088127E+04
        47  22 -7.653554E+03 -7.336096E+05 -9.335315E+03 -5.734589E+04 -7.905377E+03  7.047454E+03
        47  23  5.820545E+02 -7.325249E+05 -3.682242E+03 -2.872143E+04 -2.339637E+04  5.054279E+03
        47  24  5.963125E+02 -7.335749E+05 -1.344495E+03 -5.734335E+04 -2.080362E+04  3.065525E+03
        47  25 -1.842770E+05 -1.441992E+06 -1.831925E+05 -6.017949E+04 -7.909154E+03  2.350451E+04
        47  26 -1.485769E+05 -1.336638E+06 -1.446536E+05 -2.945320E+04 -2.339983E+04  9.379383E+03
        47  27 -1.232134E+05 -1.235523E+06 -1.178716E+05 -5.597619E+04 -2.079906E+04 -4.743945E+03
        48   1  9.723852E+04 -3.361635E+05  9.194833E+04 -5.789447E+04  1.568187E+04 -5.254953E+03
        48   2  7.214276E+04 -4.403873E+05  6.980383E+04 -2.843822E+04  1.186363E+04 -6.643643E+03
        48   3  4.839252E+04 -5.441575E+05  4.888333E+04 -5.730585E+04  7.303005E+03 -8.034958E+03
        48   4 -6.560546E+02 -7.329982E+05 -4.588748E+02 -5.758489E+04  1.568058E+04 -2.937637E+03
        48   5 -6.160311E+01 -7.331680E+05  1.749340E+03 -2.842094E+04  1.186131E+04 -3.827590E+03
        48   6  1.792643E+03 -7.329812E+05  4.835571E+03 -5.758252E+04  7.299458E+03 -4.720394E+03
        48   7 -9.856177E+04 -1.129687E+06 -9.287671E+04 -5.727548E+04  1.567929E+04 -6.217925E+02
        48   8 -7.227201E+04 -1.025869E+06 -6.631089E+04 -2.840365E+04  1.185899E+04 -1.012856E+03
        48   9 -4.480975E+04 -9.217719E+05 -3.921457E+04 -5.785909E+04  7.295908E+03 -1.406832E+03
        48  10  9.723825E+04 -3.361636E+05  9.194782E+04 -5.789441E+04 -2.491050E-09  1.983886E-09
        48  11  7.214260E+04 -4.403874E+05  6.980348E+04 -2.843816E+04  1.748815E-10 -8.513157E-10
        48  12  4.839244E+04 -5.441576E+05  4.888311E+04 -5.730580E+04 -2.021029E-11 -8.048534E-10
        48  13 -6.563208E+02 -7.329982E+05 -4.593529E+02 -5.758486E+04 -2.399161E-09  4.579143E-10
        48  14 -6.175807E+01 -7.331681E+05  1.749049E+03 -2.842090E+04  2.485095E-09  5.555631E-10
        48  15  1.792580E+03 -7.329812E+05  4.835429E+03 -5.758249E+04  3.346098E-09  3.058760E-10
        48  16 -9.856203E+04 -1.129687E+06 -9.287717E+04 -5.727547E+04 -8.788386E-10 -1.896271E-09
        48  17 -7.227217E+04 -1.025870E+06 -6.631116E+04 -2.840364E+04  2.568987E-09 -1.276069E-09
        48  18 -4.480981E+04 -9.217719E+05 -3.921467E+04 -5.785909E+04  1.860525E-09  1.280652E-09
        48  19  9.723852E+04 -3.361635E+05  9.194833E+04 -5.789447E+04 -1.568187E+04  5.254953E+03
        48  20  7.214276E+04 -4.403873E+05  6.980383E+04 -2.843822E+04 -1.186363E+04  6.643643E+03
        48  21  4.839252E+04 -5.441575E+05  4.888333E+04 -5.730585E+04 -7.303005E+03  8.034958E+03
        48  22 -6.560546E+02 -7.329982E+05 -4.588748E+02 -5.758489E+04 -1.568058E+04  2.937637E+03
        48  23 -6.160311E+01 -7.331680E+05  1.749340E+03 -2.842094E+04 -1.186131E+04  3.827590E+03
        48  24  1.792643E+03 -7.329812E+05  4.835571E+03 -5.758252E+04 -7.299458E+03  4.720394E+03
        48  25 -9.856177E+04 -1.129687E+06 -9.287671E+04 -5.727548E+04 -1.567929E+04  6.217925E+02
        48  26 -7.227201E+04 -1.025869E+06 -6.631089E+04 -2.840365E+04 -1.185899E+04  1.012856E+03
        48  27 -4.480975E+04 -9.217719E+05 -3.921457E+04 -5.785909E+04 -7.295908E+03  1.406832E+03
        49   1  1.943135E+04 -6.485655E+05  2.543084E+04 -6.060405E+04  3.785290E+03 -9.966332E+03
        49   2 -6.856950E+03 -7.557172E+05  5.911058E+03 -2.592735E+04 -5.626657E+02 -1.299960E+04
        49   3 -1.103394E+04 -8.570829E+05 -6.138226E+03 -4.960210E+04 -7.215740E+02 -1.602802E+04
        49   4 -1.037267E+03 -7.316633E+05  6.289864E+03 -5.759600E+04  3.780286E+03 -5.638232E+03
        49   5 -1.664600E+03 -7.347907E+05  1.089577E+04 -2.840924E+04 -5.643103E+02 -1.148469E+04
        49   6  2.030756E+04 -7.316564E+05  2.492657E+04 -5.757279E+04 -7.198877E+02 -1.732675E+04
        49   7 -2.150633E+04 -8.147546E+05 -1.285149E+04 -5.458835E+04  3.775323E+03 -1.310707E+03
        49   8  3.527742E+03 -7.138637E+05  1.588047E+04 -3.089120E+04 -5.659670E+02 -9.969718E+03
        49   9  5.164812E+04 -6.062154E+05  5.599024E+04 -6.554510E+04 -7.181682E+02 -1.862574E+04
        49  10  1.943131E+04 -6.485656E+05  2.543062E+04 -6.060402E+04  3.509137E-10  6.507454E-10
        49  11 -6.856996E+03 -7.557174E+05  5.910739E+03 -2.592736E+04  9.037397E-10 -1.822986E-09
        49  12 -1.103401E+04 -8.570832E+05 -6.138711E+03 -4.960211E+04  6.118220E-10 -6.222497E-10
        49  13 -1.037291E+03 -7.316633E+05  6.289777E+03 -5.759598E+04  3.091642E-10  5.787919E-10
        49  14 -1.664636E+03 -7.347908E+05  1.089552E+04 -2.840924E+04  5.083732E-10  5.410815E-10
        49  15  2.030748E+04 -7.316567E+05  2.492601E+04 -5.757280E+04  9.834821E-10  3.368198E-10
        49  16 -2.150634E+04 -8.147546E+05 -1.285152E+04 -5.458835E+04  8.451487E-10 -5.322625E-10
        49  17  3.527715E+03 -7.138638E+05  1.588028E+04 -3.089121E+04 -6.484605E-10 -8.107745E-10
        49  18  5.164803E+04 -6.062157E+05  5.598958E+04 -6.554511E+04 -4.359002E-10  1.121893E-09
        49  19  1.943135E+04 -6.485655E+05  2.543084E+04 -6.060405E+04 -3.785290E+03  9.966332E+03
        49  20 -6.856950E+03 -7.557172E+05  5.911058E+03 -2.592735E+04  5.626657E+02  1.299960E+04
        49  21 -1.103394E+04 -8.570829E+05 -6.138226E+03 -4.960210E+04  7.215740E+02  1.602802E+04
        49  22 -1.037267E+03 -7.316633E+05  6.289864E+03 -5.759600E+04 -3.780286E+03  5.638232E+03
        49  23 -1.664600E+03 -7.347907E+05  1.089577E+04 -2.840924E+04  5.643103E+02  1.148469E+04
        49  24  2.030756E+04 -7.316564E+05  2.492657E+04 -5.757279E+04  7.198877E+02  1.732675E+04
        49  25 -2.150633E+04 -8.147546E+05 -1.285149E+04 -5.458835E+04 -3.775323E+03  1.310707E+03
        49  26  3.527742E+03 -7.138637E+05  1.588047E+04 -3.089120E+04  5.659670E+02  9.969718E+03
        49  27  5.164812E+04 -6.062154E+05  5.599024E+04 -6.554510E+04  7.181682E+02  1.862574E+04
        50   1 -7.782369E+05 -1.573551E+05 -4.627921E+04 -2.904589E+05 -1.534255E+04 -4.439600E+03
        50   2 -7.648302E+05 -1.298585E+05 -2.969115E+04 -2.847860E+05 -9.912640E+03  1.356413E+02
        50   3 -7.524410E+05 -1.258328E+05 -2.247115E+04 -2.819322E+05 -3.476964E+03  2.028982E+03
        50   4 -6.846454E+05 -1.166862E+05 -1.992333E+04 -2.594222E+05 -1.310170E+04 -3.599525E+03
        50   5 -6.832528E+05 -9.766043E+04 -8.433923E+03 -2.608076E+05 -9.356805E+03  3.439665E+02
        50   6 -6.825425E+05 -1.017703E+05 -4.975541E+03 -2.650124E+05 -4.606313E+03  1.605610E+03
        50   7 -5.910465E+05 -7.601638E+04  6.431430E+03 -2.283815E+05 -1.086051E+04 -2.759272E+03
        50   8 -6.016691E+05 -6.546187E+04  1.282268E+04 -2.368264E+05 -8.800892E+03  5.523248E+02
        50   9 -6.126388E+05 -7.770753E+04  1.251979E+04 -2.480909E+05 -5.735808E+03  1.182194E+03
        50  10 -7.782371E+05 -1.573552E+05 -4.627969E+04 -2.904589E+05  8.560203E-10  6.733014E-11
        50  11 -7.648303E+05 -1.298585E+05 -2.969134E+04 -2.847860E+05  1.728636E-09 -1.143466E-10
        50  12 -7.524410E+05 -1.258328E+05 -2.247118E+04 -2.819322E+05  2.991597E-10 -8.514991E-12
        50  13 -6.846456E+05 -1.166863E+05 -1.992368E+04 -2.594223E+05  9.027756E-10 -2.702514E-10
        50  14 -6.832529E+05 -9.766046E+04 -8.434088E+03 -2.608076E+05 -3.345467E-09 -5.225172E-10
        50  15 -6.825425E+05 -1.017703E+05 -4.975586E+03 -2.650124E+05 -1.751516E-09  8.634006E-13
        50  16 -5.910466E+05 -7.601642E+04  6.431194E+03 -2.283815E+05 -1.147434E-10 -2.658942E-10
        50  17 -6.016692E+05 -6.546190E+04  1.282253E+04 -2.368264E+05  4.986579E-11 -3.448690E-10
        50  18 -6.126389E+05 -7.770754E+04  1.251973E+04 -2.480909E+05 -1.428563E-09  9.488665E-11
        50  19 -7.782369E+05 -1.573551E+05 -4.627921E+04 -2.904589E+05  1.534255E+04  4.439600E+03
        50  20 -7.648302E+05 -1.298585E+05 -2.969115E+04 -2.847860E+05  9.912640E+03 -1.356413E+02
        50  21 -7.524410E+05 -1.258328E+05 -2.247115E+04 -2.819322E+05  3.476964E+03 -2.028982E+03
        50  22 -6.846454E+05 -1.166862E+05 -1.992333E+04 -2.594222E+05  1.310170E+04  3.599525E+03
        50  23 -6.832528E+05 -9.766043E+04 -8.433923E+03 -2.608076E+05  9.356805E+03 -3.439665E+02
        50  24 -6.825425E+05 -1.017703E+05 -4.975541E+03 -2.650124E+05  4.606313E+03 -1.605610E+03
        50  25 -5.910465E+05 -7.601638E+04  6.431430E+03 -2.283815E+05  1.086051E+04  2.759272E+03
        50  26 -6.016691E+05 -6.546187E+04  1.282268E+04 -2.368264E+05  8.800892E+03 -5.523248E+02
        50  27 -6.126388E+05 -7.770753E+04  1.251979E+04 -2.480909E+05  5.735808E+03 -1.182194E+03
        51   1 -7.342136E+05 -1.236685E+05 -1.752508E+04 -2.786553E+05 -3.334725E+03  1.203153E+03
        51   2 -7.225025E+05 -1.133665E+05 -1.171501E+04 -2.711628E+05 -2.003579E+03  1.060029E+03
        51   3 -7.051289E+05 -1.109523E+05 -7.149263E+03 -2.706221E+05 -6.141427E+02  7.613018E+02
        51   4 -6.818723E+05 -1.036667E+05 -4.010640E+03 -2.639479E+05 -3.639868E+03  1.088753E+03
        51   5 -6.846216E+05 -9.908463E+04 -1.987138E+03 -2.607147E+05 -2.406435E+03  9.090197E+02
        51   6 -6.816891E+05 -1.023708E+05 -1.130376E+03 -2.644332E+05 -1.114751E+03  5.736762E+02
        51   7 -6.295282E+05 -8.366459E+04  9.503600E+03 -2.492394E+05 -3.945040E+03  9.743418E+02
        51   8 -6.467394E+05 -8.480276E+04  7.740552E+03 -2.502661E+05 -2.809315E+03  7.580006E+02
        51   9 -6.582491E+05 -9.378942E+04  4.888376E+03 -2.582442E+05 -1.615373E+03  3.860459E+02
        51  10 -7.342136E+05 -1.236685E+05 -1.752510E+04 -2.786553E+05 -3.073223E-10  5.644330E-10
        51  11 -7.225025E+05 -1.133665E+05 -1.171502E+04 -2.711628E+05  2.358344E-09  1.432242E-09
        51  12 -7.051289E+05 -1.109523E+05 -7.149265E+03 -2.706221E+05  1.760000E-09  8.236714E-10
        51  13 -6.818723E+05 -1.036667E+05 -4.010667E+03 -2.639479E+05  9.354311E-10  4.201242E-10
        51  14 -6.846216E+05 -9.908463E+04 -1.987150E+03 -2.607147E+05  3.136920E-10  1.517456E-09
        51  15 -6.816891E+05 -1.023708E+05 -1.130379E+03 -2.644332E+05  5.749816E-10  1.328623E-09
        51  16 -6.295282E+05 -8.366459E+04  9.503569E+03 -2.492394E+05  2.627965E-09  2.517463E-10
        51  17 -6.467394E+05 -8.480276E+04  7.740536E+03 -2.502661E+05  5.503535E-09  9.557508E-10
        51  18 -6.582491E+05 -9.378942E+04  4.888371E+03 -2.582442E+05  7.042869E-10  2.055061E-09
        51  19 -7.342136E+05 -1.236685E+05 -1.752508E+04 -2.786553E+05  3.334725E+03 -1.203153E+03
        51  20 -7.225025E+05 -1.133665E+05 -1.171501E+04 -2.711628E+05  2.003579E+03 -1.060029E+03
        51  21 -7.051289E+05 -1.109523E+05 -7.149263E+03 -2.706221E+05  6.141427E+02 -7.613018E+02
        51  22 -6.818723E+05 -1.036667E+05 -4.010640E+03 -2.639479E+05  3.639868E+03 -1.088753E+03
        51  23 -6.846216E+05 -9.908463E+04 -1.987138E+03 -2.607147E+05  2.406435E+03 -9.090197E+02
        51  24 -6.816891E+05 -1.023708E+05 -1.130376E+03 -2.644332E+05  1.114751E+03 -5.736762E+02
        51  25 -6.295282E+05 -8.366459E+04  9.503600E+03 -2.492394E+05  3.945040E+03 -9.743418E+02
        51  26 -6.467394E+05 -8.480276E+04  7.740552E+03 -2.502661E+05  2.809315E+03 -7.580006E+02
        51  27 -6.582491E+05 -9.378942E+04  4.888376E+03 -2.582442E+05  1.615373E+03 -3.860459E+02
        52   1 -6.890661E+05 -1.053340E+05 -2.740224E+03 -2.663980E+05 -3.322789E+02  3.560496E+02
        52   2 -6.775209E+05 -9.650805E+04  1.372881E+03 -2.587326E+05  1.874065E+02 -2.767393E+02
        52   3 -6.596668E+05 -9.420748E+04  5.265827E+03 -2.583701E+05  7.101392E+02 -9.175597E+02
        52   4 -6.816144E+05 -1.025328E+05 -8.771828E+02 -2.643387E+05 -7.858958E+02  1.860411E+02
        52   5 -6.847614E+05 -9.921617E+04 -4.817775E+02 -2.607074E+05 -2.712687E+02 -4.486521E+02
        52   6 -6.815989E+05 -1.024241E+05 -3.025408E+02 -2.643793E+05  2.463984E+02 -1.091378E+03
        52   7 -6.741625E+05 -9.973148E+04  9.858796E+02 -2.622793E+05 -1.239524E+03  1.602826E+01
        52   8 -6.920020E+05 -1.019243E+05 -2.336460E+03 -2.626823E+05 -7.299426E+02 -6.205644E+02
        52   9 -7.035307E+05 -1.106408E+05 -5.870997E+03 -2.703884E+05 -2.173284E+02 -1.265191E+03
        52  10 -6.890661E+05 -1.053340E+05 -2.740225E+03 -2.663980E+05  2.562559E-10  5.435571E-10
        52  11 -6.775209E+05 -9.650805E+04  1.372881E+03 -2.587326E+05 -7.052267E-10 -7.959942E-11
        52  12 -6.596668E+05 -9.420748E+04  5.265824E+03 -2.583701E+05 -3.367773E-10  5.172652E-11
        52  13 -6.816144E+05 -1.025328E+05 -8.771841E+02 -2.643387E+05  7.712647E-10  7.561851E-10
        52  14 -6.847614E+05 -9.921617E+04 -4.817780E+02 -2.607074E+05 -1.752405E-09  2.892244E-10
        52  15 -6.815989E+05 -1.024241E+05 -3.025431E+02 -2.643793E+05 -1.627249E-11  6.228405E-11
        52  16 -6.741625E+05 -9.973148E+04  9.858767E+02 -2.622793E+05  1.618066E-09  1.288827E-09
        52  17 -6.920020E+05 -1.019243E+05 -2.336462E+03 -2.626823E+05  3.541529E-09 -5.450579E-10
        52  18 -7.035307E+05 -1.106408E+05 -5.871000E+03 -2.703884E+05 -1.041691E-09  3.121999E-10
        52  19 -6.890661E+05 -1.053340E+05 -2.740224E+03 -2.663980E+05  3.322789E+02 -3.560496E+02
        52  20 -6.775209E+05 -9.650805E+04  1.372881E+03 -2.587326E+05 -1.874065E+02  2.767393E+02
        52  21 -6.596668E+05 -9.420748E+04  5.265827E+03 -2.583701E+05 -7.101392E+02  9.175597E+02
        52  22 -6.816144E+05 -1.025328E+05 -8.771828E+02 -2.643387E+05  7.858958E+02 -1.860411E+02
        52  23 -6.847614E+05 -9.921617E+04 -4.817775E+02 -2.607074E+05  2.712687E+02  4.486521E+02
        52  24 -6.815989E+05 -1.024241E+05 -3.025408E+02 -2.643793E+05 -2.463984E+02  1.091378E+03
        52  25 -6.741625E+05 -9.973148E+04  9.858796E+02 -2.622793E+05  1.239524E+03 -1.602826E+01
        52  26 -6.920020E+05 -1.019243E+05 -2.336460E+03 -2.626823E+05  7.299426E+02  6.205644E+02
        52  27 -7.035307E+05 -1.106408E+05 -5.870997E+03 -2.703884E+05  2.173284E+02  1.265191E+03
        53   1 -6.438780E+05 -8.830743E+04  9.460124E+03 -2.540736E+05  9.135581E+02 -1.329746E+03
        53   2 -6.324096E+05 -7.964669E+04  1.318932E+04 -2.464278E+05  1.298931E+03 -2.019945E+03
        53   3 -6.145989E+05 -7.736570E+04  1.683169E+04 -2.460755E+05  1.683772E+03 -2.708519E+03
        53   4 -6.815975E+05 -1.024298E+05 -2.576724E+02 -2.643632E+05  4.529954E+02 -1.502382E+03
        53   5 -6.847682E+05 -9.923802E+04 -2.244896E+02 -2.607172E+05  8.393666E+02 -2.192228E+03
        53   6 -6.815972E+05 -1.024261E+05 -2.788756E+02 -2.643646E+05  1.225205E+03 -2.880452E+03
        53   7 -7.193151E+05 -1.165518E+05 -9.975439E+03 -2.746521E+05 -7.530284E+00 -1.675003E+03
        53   8 -7.371240E+05 -1.188291E+05 -1.363846E+04 -2.750054E+05  3.798463E+02 -2.364494E+03
        53   9 -7.485914E+05 -1.274864E+05 -1.738992E+04 -2.826521E+05  7.666894E+02 -3.052365E+03
        53  10 -6.438780E+05 -8.830743E+04  9.460120E+03 -2.540736E+05 -2.384579E-09  2.048461E-10
        53  11 -6.324096E+05 -7.964669E+04  1.318930E+04 -2.464278E+05 -1.726183E-09  5.483699E-10
        53  12 -6.145989E+05 -7.736571E+04  1.683167E+04 -2.460755E+05  5.399894E-11  6.788039E-10
        53  13 -6.815975E+05 -1.024298E+05 -2.576771E+02 -2.643632E+05 -1.196318E-09  4.019997E-10
        53  14 -6.847682E+05 -9.923803E+04 -2.244999E+02 -2.607172E+05 -5.459368E-09 -1.176210E-10
        53  15 -6.815972E+05 -1.024261E+05 -2.788940E+02 -2.643646E+05  9.493193E-10  2.996988E-10
        53  16 -7.193151E+05 -1.165518E+05 -9.975445E+03 -2.746521E+05 -2.385233E-09  5.457902E-10
        53  17 -7.371240E+05 -1.188291E+05 -1.363847E+04 -2.750054E+05 -3.527888E-10  1.848118E-10
        53  18 -7.485914E+05 -1.274864E+05 -1.738994E+04 -2.826521E+05  3.742078E-09 -3.095870E-11
        53  19 -6.438780E+05 -8.830743E+04  9.460124E+03 -2.540736E+05 -9.135581E+02  1.329746E+03
        53  20 -6.324096E+05 -7.964669E+04  1.318932E+04 -2.464278E+05 -1.298931E+03  2.019945E+03
        53  21 -6.145989E+05 -7.736570E+04  1.683169E+04 -2.460755E+05 -1.683772E+03  2.708519E+03
        53  22 -6.815975E+05 -1.024298E+05 -2.576724E+02 -2.643632E+05 -4.529954E+02  1.502382E+03
        53  23 -6.847682E+05 -9.923802E+04 -2.244896E+02 -2.607172E+05 -8.393666E+02  2.192228E+03
        53  24 -6.815972E+05 -1.024261E+05 -2.788756E+02 -2.643646E+05 -1.225205E+03  2.880452E+03
        53  25 -7.193151E+05 -1.165518E+05 -9.975439E+03 -2.746521E+05  7.530284E+00  1.675003E+03
        53  26 -7.371240E+05 -1.188291E+05 -1.363846E+04 -2.750054E+05 -3.798463E+02  2.364494E+03
        53  27 -7.485914E+05 -1.274864E+05 -1.738992E+04 -2.826521E+05 -7.666894E+02  3.052365E+03
        54   1 -5.989601E+05 -7.147494E+04  2.089165E+04 -2.418014E+05  1.892335E+03 -3.113887E+03
        54   2 -5.876236E+05 -6.291691E+04  2.432122E+04 -2.342361E+05  2.439895E+03 -3.734873E+03
        54   3 -5.700542E+05 -6.070719E+04  2.753086E+04 -2.338700E+05  2.985642E+03 -4.350631E+03
        54   4 -6.816203E+05 -1.024058E+05 -3.378820E+02 -2.643491E+05  1.435237E+03 -3.285293E+03
        54   5 -6.847403E+05 -9.925488E+04 -5.584763E+02 -2.607408E+05  1.986024E+03 -3.905115E+03
        54   6 -6.816279E+05 -1.024530E+05 -1.001532E+03 -2.643318E+05  2.534989E+03 -4.519709E+03
        54   7 -7.642738E+05 -1.333362E+05 -2.156797E+04 -2.868941E+05  9.782070E+02 -3.456674E+03
        54   8 -7.818475E+05 -1.355922E+05 -2.543889E+04 -2.872417E+05  1.532231E+03 -4.075327E+03
        54   9 -7.931891E+05 -1.441979E+05 -2.953483E+04 -2.947885E+05  2.084426E+03 -4.688753E+03
        54  10 -5.989601E+05 -7.147495E+04  2.089163E+04 -2.418014E+05  2.751999E-09  3.844488E-10
        54  11 -5.876237E+05 -6.291692E+04  2.432118E+04 -2.342361E+05  2.569185E-10 -1.563938E-10
        54  12 -5.700542E+05 -6.070721E+04  2.753081E+04 -2.338700E+05  3.723546E-10  1.241787E-09
        54  13 -6.816203E+05 -1.024058E+05 -3.379061E+02 -2.643491E+05  2.170893E-09  5.225298E-11
        54  14 -6.847403E+05 -9.925490E+04 -5.585123E+02 -2.607408E+05  1.659452E-09 -1.486922E-10
        54  15 -6.816279E+05 -1.024530E+05 -1.001582E+03 -2.643318E+05  1.799974E-09  1.238164E-09
        54  16 -7.642738E+05 -1.333362E+05 -2.156800E+04 -2.868941E+05  1.142401E-09 -3.972402E-10
        54  17 -7.818475E+05 -1.355922E+05 -2.543893E+04 -2.872417E+05 -5.832360E-10  1.049534E-10
        54  18 -7.931891E+05 -1.441979E+05 -2.953488E+04 -2.947885E+05  2.812263E-09  1.093526E-09
        54  19 -5.989601E+05 -7.147494E+04  2.089165E+04 -2.418014E+05 -1.892335E+03  3.113887E+03
        54  20 -5.876236E+05 -6.291691E+04  2.432122E+04 -2.342361E+05 -2.439895E+03  3.734873E+03
        54  21 -5.700542E+05 -6.070719E+04  2.753086E+04 -2.338700E+05 -2.985642E+03  4.350631E+03
        54  22 -6.816203E+05 -1.024058E+05 -3.378820E+02 -2.643491E+05 -1.435237E+03  3.285293E+03
        54  23 -6.847403E+05 -9.925488E+04 -5.584763E+02 -2.607408E+05 -1.986024E+03  3.905115E+03
        54  24 -6.816279E+05 -1.024530E+05 -1.001532E+03 -2.643318E+05 -2.534989E+03  4.519709E+03
        54  25 -7.642738E+05 -1.333362E+05 -2.156797E+04 -2.868941E+05 -9.782070E+02  3.456674E+03
        54  26 -7.818475E+05 -1.355922E+05 -2.543889E+04 -2.872417E+05 -1.532231E+03  4.075327E+03
        54  27 -7.931891E+05 -1.441979E+05 -2.953483E+04 -2.947885E+05 -2.084426E+03  4.688753E+03
        55   1 -5.546432E+05 -5.489712E+04  3.127138E+04 -2.297638E+05  3.337197E+03 -4.697619E+03
        55   2 -5.434741E+05 -4.637241E+04  3.380945E+04 -2.222184E+05  4.774737E+03 -4.967615E+03
        55   3 -5.265301E+05 -4.469610E+04  3.529723E+04 -2.216034E+05  6.202448E+03 -5.210686E+03
        55   4 -6.817026E+05 -1.023617E+05 -1.315995E+03 -2.643486E+05  2.882624E+03 -4.868203E+03
        55   5 -6.846291E+05 -9.922065E+04 -2.357692E+03 -2.607767E+05  4.336786E+03 -5.132031E+03
        55   6 -6.817845E+05 -1.029317E+05 -4.463100E+03 -2.641355E+05  5.781086E+03 -5.368940E+03
        55   7 -8.087466E+05 -1.498255E+05 -3.390482E+04 -2.989271E+05  2.428153E+03 -5.038749E+03
        55   8 -8.257650E+05 -1.520677E+05 -3.852654E+04 -2.993272E+05  3.898944E+03 -5.296405E+03
        55   9 -8.370155E+05 -1.611657E+05 -4.422541E+04 -3.066581E+05  5.359839E+03 -5.527150E+03
        55  10 -5.546433E+05 -5.489715E+04  3.127132E+04 -2.297638E+05  2.588626E-09  1.956056E-09
        55  11 -5.434741E+05 -4.637245E+04  3.380936E+04 -2.222184E+05  1.970211E-09 -1.493996E-11
        55  12 -5.265302E+05 -4.469614E+04  3.529711E+04 -2.216034E+05  1.079739E-09 -2.480629E-10
        55  13 -6.817026E+05 -1.023618E+05 -1.316055E+03 -2.643486E+05  1.635464E-09  1.484249E-09
        55  14 -6.846291E+05 -9.922068E+04 -2.357777E+03 -2.607767E+05 -6.267665E-10  3.212190E-10
        55  15 -6.817846E+05 -1.029317E+05 -4.463217E+03 -2.641355E+05  1.537093E-09 -2.837430E-10
        55  16 -8.087466E+05 -1.498256E+05 -3.390488E+04 -2.989271E+05  1.253506E-09  7.426798E-10
        55  17 -8.257650E+05 -1.520678E+05 -3.852662E+04 -2.993272E+05 -1.450142E-09  5.367374E-10
        55  18 -8.370156E+05 -1.611657E+05 -4.422552E+04 -3.066580E+05  5.054488E-10 -1.399691E-10
        55  19 -5.546432E+05 -5.489712E+04  3.127138E+04 -2.297638E+05 -3.337197E+03  4.697619E+03
        55  20 -5.434741E+05 -4.637241E+04  3.380945E+04 -2.222184E+05 -4.774737E+03  4.967615E+03
        55  21 -5.265301E+05 -4.469610E+04  3.529723E+04 -2.216034E+05 -6.202448E+03  5.210686E+03
        55  22 -6.817026E+05 -1.023617E+05 -1.315995E+03 -2.643486E+05 -2.882624E+03  4.868203E+03
        55  23 -6.846291E+05 -9.922065E+04 -2.357692E+03 -2.607767E+05 -4.336786E+03  5.132031E+03
        55  24 -6.817845E+05 -1.029317E+05 -4.463100E+03 -2.641355E+05 -5.781086E+03  5.368940E+03
        55  25 -8.087466E+05 -1.498255E+05 -3.390482E+04 -2.989271E+05 -2.428153E+03  5.038749E+03
        55  26 -8.257650E+05 -1.520677E+05 -3.852654E+04 -2.993272E+05 -3.898944E+03  5.296405E+03
        55  27 -8.370155E+05 -1.611657E+05 -4.422541E+04 -3.066581E+05 -5.359839E+03  5.527150E+03
        56   1 -5.110580E+05 -3.901225E+04  3.790869E+04 -2.189072E+05  7.302257E+03 -5.315563E+03
        56   2 -5.001266E+05 -2.918316E+04  3.694516E+04 -2.100433E+05  1.259187E+04 -4.078728E+03
        56   3 -4.867061E+05 -3.304046E+04  3.014457E+04 -2.062083E+05  1.774341E+04 -2.473216E+03
        56   4 -6.821896E+05 -1.020784E+05 -5.791821E+03 -2.646078E+05  6.773096E+03 -5.514311E+03
        56   5 -6.838853E+05 -9.856107E+04 -1.025044E+04 -2.608368E+05  1.229292E+04 -4.191164E+03
        56   6 -6.831389E+05 -1.087773E+05 -2.072999E+04 -2.620947E+05  1.767456E+04 -2.499352E+03
        56   7 -8.532921E+05 -1.651427E+05 -4.949454E+04 -3.102968E+05  6.244096E+03 -5.713001E+03
        56   8 -8.676112E+05 -1.679367E+05 -5.744881E+04 -3.116167E+05  1.199407E+04 -4.303562E+03
        56   9 -8.795347E+05 -1.845114E+05 -7.160798E+04 -3.179651E+05  1.760574E+04 -2.525479E+03
        56  10 -5.110580E+05 -3.901230E+04  3.790853E+04 -2.189072E+05  7.884758E-10 -6.592171E-11
        56  11 -5.001268E+05 -2.918322E+04  3.694483E+04 -2.100433E+05  9.383373E-10 -1.350744E-09
        56  12 -4.867064E+05 -3.304055E+04  3.014397E+04 -2.062083E+05  2.518966E-10 -4.414069E-10
        56  13 -6.821897E+05 -1.020784E+05 -5.791964E+03 -2.646077E+05  2.383696E-10 -6.267842E-10
        56  14 -6.838855E+05 -9.856113E+04 -1.025076E+04 -2.608368E+05 -7.999120E-10 -1.092605E-09
        56  15 -6.831392E+05 -1.087774E+05 -2.073059E+04 -2.620947E+05 -1.592470E-09 -2.660895E-10
        56  16 -8.532922E+05 -1.651427E+05 -4.949468E+04 -3.102968E+05 -9.808248E-10 -9.758365E-10
        56  17 -8.676113E+05 -1.679367E+05 -5.744912E+04 -3.116166E+05 -3.107519E-09 -4.723056E-10
        56  18 -8.795351E+05 -1.845115E+05 -7.160858E+04 -3.179651E+05 -2.553061E-10  7.009255E-10
        56  19 -5.110580E+05 -3.901225E+04  3.790869E+04 -2.189072E+05 -7.302257E+03  5.315563E+03
        56  20 -5.001266E+05 -2.918316E+04  3.694516E+04 -2.100433E+05 -1.259187E+04  4.078728E+03
        56  21 -4.867061E+05 -3.304046E+04  3.014457E+04 -2.062083E+05 -1.774341E+04  2.473216E+03
        56  22 -6.821896E+05 -1.020784E+05 -5.791821E+03 -2.646078E+05 -6.773096E+03  5.514311E+03
        56  23 -6.838853E+05 -9.856107E+04 -1.025044E+04 -2.608368E+05 -1.229292E+04  4.191164E+03
        56  24 -6.831389E+05 -1.087773E+05 -2.072999E+04 -2.620947E+05 -1.767456E+04  2.499352E+03
        56  25 -8.532921E+05 -1.651427E+05 -4.949454E+04 -3.102968E+05 -6.244096E+03  5.713001E+03
        56  26 -8.676112E+05 -1.679367E+05 -5.744881E+04 -3.116167E+05 -1.199407E+04  4.303562E+03
        56  27 -8.795347E+05 -1.845114E+05 -7.160798E+04 -3.179651E+05 -1.760574E+04  2.525479E+03
        57   1 -4.660222E+05 -2.727999E+04  2.863147E+04 -2.185429E+05  2.362676E+04 -1.637329E+03
        57   2 -4.574827E+05 -2.787656E+02  1.431507E+04 -1.923628E+05  4.337664E+04  5.749610E+03
        57   3 -4.784001E+05 -6.542952E+04 -3.840297E+04 -1.501271E+05  6.076478E+04  1.942222E+04
        57   4 -6.865399E+05 -9.903795E+04 -2.572646E+04 -2.676802E+05  2.162809E+04 -2.387842E+03
        57   5 -6.768735E+05 -9.111244E+04 -4.361898E+04 -2.612287E+05  4.532208E+04  6.479585E+03
        57   6 -6.974590E+05 -1.761416E+05 -1.030511E+05 -2.387185E+05  6.665369E+04  2.163214E+04
        57   7 -9.070102E+05 -1.707955E+05 -8.008797E+04 -3.168030E+05  1.963019E+04 -3.138152E+03
        57   8 -8.962166E+05 -1.819399E+05 -1.015570E+05 -3.300714E+05  4.726677E+04  7.209207E+03
        57   9 -9.164683E+05 -2.868377E+05 -1.677035E+05 -3.272775E+05  7.254030E+04  2.384052E+04
        57  10 -4.660228E+05 -2.728014E+04  2.863042E+04 -2.185428E+05  7.814333E-10  1.358109E-10
        57  11 -4.574848E+05 -2.793068E+02  1.431147E+04 -1.923630E+05 -3.494297E-09 -1.832780E-09
        57  12 -4.784042E+05 -6.543092E+04 -3.841062E+04 -1.501280E+05 -2.182303E-09 -7.355368E-10
        57  13 -6.865404E+05 -9.903808E+04 -2.572735E+04 -2.676801E+05 -1.740123E-09 -8.726042E-10
        57  14 -6.768757E+05 -9.111304E+04 -4.362292E+04 -2.612289E+05 -4.371148E-09 -1.432380E-09
        57  15 -6.974639E+05 -1.761433E+05 -1.030604E+05 -2.387197E+05 -1.681958E-10 -4.043134E-10
        57  16 -9.070106E+05 -1.707956E+05 -8.008872E+04 -3.168029E+05 -6.130445E-09 -7.399149E-10
        57  17 -8.962190E+05 -1.819405E+05 -1.015613E+05 -3.300717E+05 -1.601795E-09 -2.121461E-09
        57  18 -9.164741E+05 -2.868397E+05 -1.677145E+05 -3.272789E+05  9.104264E-10  6.394562E-10
        57  19 -4.660222E+05 -2.727999E+04  2.863147E+04 -2.185429E+05 -2.362676E+04  1.637329E+03
        57  20 -4.574827E+05 -2.787656E+02  1.431507E+04 -1.923628E+05 -4.337664E+04 -5.749610E+03
        57  21 -4.784001E+05 -6.542952E+04 -3.840297E+04 -1.501271E+05 -6.076478E+04 -1.942222E+04
        57  22 -6.865399E+05 -9.903795E+04 -2.572646E+04 -2.676802E+05 -2.162809E+04  2.387842E+03
        57  23 -6.768735E+05 -9.111244E+04 -4.361898E+04 -2.612287E+05 -4.532208E+04 -6.479585E+03
        57  24 -6.974590E+05 -1.761416E+05 -1.030511E+05 -2.387185E+05 -6.665369E+04 -2.163214E+04
        57  25 -9.070102E+05 -1.707955E+05 -8.008797E+04 -3.168030E+05 -1.963019E+04  3.138152E+03
        57  26 -8.962166E+05 -1.819399E+05 -1.015570E+05 -3.300714E+05 -4.726677E+04 -7.209207E+03
        57  27 -9.164683E+05 -2.868377E+05 -1.677035E+05 -3.272775E+05 -7.254030E+04 -2.384052E+04
        58   1  1.071622E+04  2.833418E+04  3.506034E+04  1.107699E+04  2.403424E+04  4.288166E-01
        58   2  6.216987E+03 -2.433189E+03  1.559531E+04  3.468701E+03  1.568146E+04  8.761423E-02
        58   3  1.071608E+04 -1.558549E+03  9.479126E+03 -4.139633E+03  7.328545E+03 -4.886497E-02
        58   4  1.071609E+04  2.833395E+04  3.506031E+04 -1.982143E-10  2.403424E+04 -3.795026E-10
        58   5  6.216974E+03 -2.433212E+03  1.559531E+04  3.992205E-09  1.568146E+04 -4.097107E-10
        58   6  1.071606E+04 -1.558581E+03  9.479122E+03  8.721753E-09  7.328545E+03  1.066090E-09
        58   7  1.071622E+04  2.833418E+04  3.506034E+04 -1.107699E+04  2.403424E+04 -4.288166E-01
        58   8  6.216987E+03 -2.433189E+03  1.559531E+04 -3.468701E+03  1.568146E+04 -8.761423E-02
        58   9  1.071608E+04 -1.558549E+03  9.479126E+03  4.139633E+03  7.328545E+03  4.886498E-02
        58  10  1.071560E+04  2.833403E+04  3.505925E+04  1.107699E+04  1.683739E-09 -2.428022E-10
        58  11  6.216723E+03 -2.433255E+03  1.559485E+04  3.468701E+03  2.136471E-09 -2.774941E-10
        58  12  1.071602E+04 -1.558563E+03  9.479025E+03 -4.139633E+03 -1.451130E-09  9.399477E-10
        58  13  1.071547E+04  2.833380E+04  3.505922E+04 -6.671968E-09  3.398921E-12 -5.379028E-11
        58  14  6.216710E+03 -2.433278E+03  1.559485E+04  9.427402E-09 -1.075696E-09  1.163482E-10
        58  15  1.071600E+04 -1.558595E+03  9.479021E+03 -1.001223E-08 -8.113016E-10  8.317295E-10
        58  16  1.071560E+04  2.833403E+04  3.505925E+04 -1.107699E+04 -1.683094E-09  1.219271E-10
        58  17  6.216723E+03 -2.433255E+03  1.559485E+04 -3.468701E+03 -1.863987E-09  5.158324E-10
        58  18  1.071602E+04 -1.558563E+03  9.479025E+03  4.139633E+03 -9.004117E-10  7.293193E-10
        58  19  1.071622E+04  2.833418E+04  3.506034E+04  1.107699E+04 -2.403424E+04 -4.288166E-01
        58  20  6.216987E+03 -2.433189E+03  1.559531E+04  3.468701E+03 -1.568146E+04 -8.761423E-02
        58  21  1.071608E+04 -1.558549E+03  9.479126E+03 -4.139633E+03 -7.328545E+03  4.886498E-02
        58  22  1.071609E+04  2.833395E+04  3.506031E+04 -6.683542E-09 -2.403424E+04  2.697065E-10
        58  23  6.216974E+03 -2.433212E+03  1.559531E+04 -1.098425E-08 -1.568146E+04  6.377306E-10
        58  24  1.071606E+04 -1.558581E+03  9.479122E+03  1.244790E-08 -7.328545E+03  5.969883E-10
        58  25  1.071622E+04  2.833418E+04  3.506034E+04 -1.107699E+04 -2.403424E+04  4.288166E-01
        58  26  6.216987E+03 -2.433189E+03  1.559531E+04 -3.468701E+03 -1.568146E+04  8.761423E-02
        58  27  1.071608E+04 -1.558549E+03  9.479126E+03  4.139633E+03 -7.328545E+03 -4.886497E-02
        59   1  8.920040E+03  2.294206E+03  7.649594E+03  7.587989E+02  5.913334E+03  7.227340E-03
        59   2  8.461911E+03 -2.225486E+02  3.991581E+03  1.895860E+02  3.888301E+03  1.187368E-03
        59   3  8.920044E+03 -1.289692E+02  2.304545E+03 -3.796274E+02  1.863271E+03 -1.139339E-03
        59   4  8.920040E+03  2.294205E+03  7.649594E+03  1.626944E-08  5.913334E+03  1.242738E-09
        59   5  8.461911E+03 -2.225487E+02  3.991581E+03 -1.038892E-09  3.888301E+03  5.102884E-11
        59   6  8.920044E+03 -1.289694E+02  2.304545E+03  1.576765E-09  1.863271E+03 -2.004856E-10
        59   7  8.920040E+03  2.294206E+03  7.649594E+03 -7.587989E+02  5.913334E+03 -7.227337E-03
        59   8  8.461911E+03 -2.225486E+02  3.991581E+03 -1.895860E+02  3.888301E+03 -1.187368E-03
        59   9  8.920044E+03 -1.289692E+02  2.304545E+03  3.796274E+02  1.863271E+03  1.139339E-03
        59  10  8.920003E+03  2.294197E+03  7.649529E+03  7.587989E+02 -1.404662E-09  1.166239E-09
        59  11  8.461895E+03 -2.225527E+02  3.991553E+03  1.895860E+02  5.238080E-10  1.518448E-10
        59  12  8.920040E+03 -1.289701E+02  2.304538E+03 -3.796274E+02 -2.468834E-10 -4.836557E-10
        59  13  8.920002E+03  2.294195E+03  7.649529E+03  7.522132E-09 -2.151707E-09  7.754652E-10
        59  14  8.461895E+03 -2.225528E+02  3.991553E+03  2.147963E-09 -2.688275E-09  6.274243E-12
        59  15  8.920040E+03 -1.289704E+02  2.304538E+03 -6.457092E-09 -9.451433E-10  3.172938E-12
        59  16  8.920003E+03  2.294197E+03  7.649529E+03 -7.587989E+02 -2.132575E-10  3.835697E-10
        59  17  8.461895E+03 -2.225527E+02  3.991553E+03 -1.895860E+02 -5.196293E-10 -1.381521E-10
        59  18  8.920040E+03 -1.289701E+02  2.304538E+03  3.796274E+02  3.131041E-10  4.900492E-10
        59  19  8.920040E+03  2.294206E+03  7.649594E+03  7.587989E+02 -5.913334E+03 -7.227338E-03
        59  20  8.461911E+03 -2.225486E+02  3.991581E+03  1.895860E+02 -3.888301E+03 -1.187368E-03
        59  21  8.920044E+03 -1.289692E+02  2.304545E+03 -3.796274E+02 -1.863271E+03  1.139338E-03
        59  22  8.920040E+03  2.294205E+03  7.649594E+03  2.462224E-08 -5.913334E+03  3.083037E-10
        59  23  8.461911E+03 -2.225487E+02  3.991581E+03 -8.665894E-09 -3.888301E+03 -3.876752E-11
        59  24  8.920044E+03 -1.289694E+02  2.304545E+03  1.663458E-09 -1.863271E+03  2.068890E-10
        59  25  8.920040E+03  2.294206E+03  7.649594E+03 -7.587989E+02 -5.913334E+03  7.227338E-03
        59  26  8.461911E+03 -2.225486E+02  3.991581E+03 -1.895860E+02 -3.888301E+03  1.187368E-03
        59  27  8.920044E+03 -1.289692E+02  2.304545E+03  3.796274E+02 -1.863271E+03 -1.139338E-03
        60   1  8.741430E+03  1.781807E+02  1.759096E+03  2.258579E+01  1.505950E+03  5.478535E-05
        60   2  8.685178E+03 -2.294408E+01  9.079116E+02 -1.158847E+01  1.053150E+03 -1.965699E-05
        60   3  8.741433E+03 -9.851513E+00  4.050629E+02 -4.576223E+01  6.003578E+02 -4.425360E-05
        60   4  8.741430E+03  1.781807E+02  1.759096E+03 -9.600149E-09  1.505950E+03  4.176050E-10
        60   5  8.685178E+03 -2.294408E+01  9.079116E+02 -1.889481E-09  1.053150E+03  7.463470E-10
        60   6  8.741433E+03 -9.851517E+00  4.050629E+02  7.975160E-09  6.003578E+02 -1.131086E-09
        60   7  8.741430E+03  1.781807E+02  1.759096E+03 -2.258579E+01  1.505950E+03 -5.478451E-05
        60   8  8.685178E+03 -2.294408E+01  9.079116E+02  1.158847E+01  1.053150E+03  1.965849E-05
        60   9  8.741433E+03 -9.851513E+00  4.050629E+02  4.576223E+01  6.003578E+02  4.425135E-05
        60  10  8.741428E+03  1.781801E+02  1.759092E+03  2.258579E+01 -8.785731E-10 -9.252078E-11
        60  11  8.685176E+03 -2.294438E+01  9.079095E+02 -1.158847E+01  2.436644E-10  3.144591E-10
        60  12  8.741433E+03 -9.851610E+00  4.050622E+02 -4.576223E+01  2.789332E-09 -1.337487E-09
        60  13  8.741428E+03  1.781801E+02  1.759092E+03 -1.169478E-08 -3.173486E-12  3.530278E-10
        60  14  8.685176E+03 -2.294438E+01  9.079095E+02 -9.031925E-10  3.230920E-09  2.152436E-10
        60  15  8.741433E+03 -9.851614E+00  4.050622E+02 -6.266283E-09 -5.445567E-10 -1.236725E-09
        60  16  8.741428E+03  1.781801E+02  1.759092E+03 -2.258579E+01 -1.280039E-09  7.984601E-10
        60  17  8.685176E+03 -2.294438E+01  9.079095E+02  1.158847E+01 -7.921388E-10  1.163122E-10
        60  18  8.741433E+03 -9.851610E+00  4.050622E+02  4.576223E+01 -4.270814E-09 -1.136653E-09
        60  19  8.741430E+03  1.781807E+02  1.759096E+03  2.258579E+01 -1.505950E+03 -5.478552E-05
        60  20  8.685178E+03 -2.294408E+01  9.079116E+02 -1.158847E+01 -1.053150E+03  1.965762E-05
        60  21  8.741433E+03 -9.851513E+00  4.050629E+02 -4.576223E+01 -6.003578E+02  4.425094E-05
        60  22  8.741430E+03  1.781807E+02  1.759096E+03 -1.163545E-08 -1.505950E+03  2.884074E-10
        60  23  8.685178E+03 -2.294408E+01  9.079116E+02 -2.070866E-09 -1.053150E+03 -3.157372E-10
        60  24  8.741433E+03 -9.851517E+00  4.050629E+02 -1.660690E-09 -6.003578E+02 -1.342429E-09
        60  25  8.741430E+03  1.781807E+02  1.759096E+03 -2.258579E+01 -1.505950E+03  5.478615E-05
        60  26  8.685178E+03 -2.294408E+01  9.079116E+02  1.158847E+01 -1.053150E+03 -1.965828E-05
        60  27  8.741433E+03 -9.851513E+00  4.050629E+02  4.576223E+01 -6.003578E+02 -4.425362E-05
        61   1  8.714661E+03  1.245673E+01  2.098063E+02 -1.425801E+01  5.454547E+02 -1.252836E-05
        61   2  8.718645E+03  6.546008E-01 -1.568106E+02 -1.974811E+01  6.227256E+02 -1.980809E-05
        61   3  8.714663E+03 -2.776000E+00 -5.716375E+02 -2.523829E+01  6.999976E+02 -2.845591E-05
        61   4  8.714661E+03  1.245673E+01  2.098063E+02  5.929903E-09  5.454547E+02 -1.407578E-09
        61   5  8.718645E+03  6.546001E-01 -1.568106E+02  1.677792E-08  6.227256E+02  5.514080E-11
        61   6  8.714663E+03 -2.776001E+00 -5.716375E+02  1.093289E-08  6.999976E+02  1.330084E-10
        61   7  8.714661E+03  1.245673E+01  2.098063E+02  1.425801E+01  5.454547E+02  1.252554E-05
        61   8  8.718645E+03  6.546008E-01 -1.568106E+02  1.974811E+01  6.227256E+02  1.980818E-05
        61   9  8.714663E+03 -2.776000E+00 -5.716375E+02  2.523829E+01  6.999976E+02  2.845619E-05
        61  10  8.714661E+03  1.245665E+01  2.098057E+02 -1.425801E+01 -1.804313E-10 -1.277773E-09
        61  11  8.718645E+03  6.544967E-01 -1.568113E+02 -1.974811E+01 -1.042268E-09  6.422745E-10
        61  12  8.714662E+03 -2.776131E+00 -5.716384E+02 -2.523829E+01  1.194314E-09  6.067078E-10
        61  13  8.714661E+03  1.245665E+01  2.098057E+02  6.244267E-09  6.573375E-14 -1.020393E-09
        61  14  8.718645E+03  6.544960E-01 -1.568113E+02  1.686564E-08 -1.712570E-12  7.411230E-10
        61  15  8.714662E+03 -2.776132E+00 -5.716384E+02  4.870614E-09 -8.043728E-10  5.174162E-10
        61  16  8.714661E+03  1.245665E+01  2.098057E+02  1.425801E+01 -3.561809E-10 -7.620960E-10
        61  17  8.718645E+03  6.544967E-01 -1.568113E+02  1.974811E+01 -1.114784E-09  8.400055E-10
        61  18  8.714662E+03 -2.776131E+00 -5.716384E+02  2.523829E+01 -9.936652E-10  4.281099E-10
        61  19  8.714661E+03  1.245673E+01  2.098063E+02 -1.425801E+01 -5.454547E+02  1.252581E-05
        61  20  8.718645E+03  6.546008E-01 -1.568106E+02 -1.974811E+01 -6.227256E+02  1.980937E-05
        61  21  8.714663E+03 -2.776000E+00 -5.716375E+02 -2.523829E+01 -6.999976E+02  2.845712E-05
        61  22  8.714661E+03  1.245673E+01  2.098063E+02 -4.211148E-09 -5.454547E+02 -6.335521E-10
        61  23  8.718645E+03  6.546001E-01 -1.568106E+02 -1.355237E-09 -6.227256E+02  1.427611E-09
        61  24  8.714663E+03 -2.776001E+00 -5.716375E+02  2.039322E-09 -6.999976E+02  9.021171E-10
        61  25  8.714661E+03  1.245673E+01  2.098063E+02  1.425801E+01 -5.454547E+02 -1.252708E-05
        61  26  8.718645E+03  6.546008E-01 -1.568106E+02  1.974811E+01 -6.227256E+02 -1.980652E-05
        61  27  8.714663E+03 -2.776000E+00 -5.716375E+02  2.523829E+01 -6.999976E+02 -2.845531E-05
        62   1  8.687491E+03  6.369441E+00 -8.343235E+02 -3.937036E+01  8.271757E+02 -5.245453E-05
        62   2  8.752615E+03  2.101146E+01 -1.579912E+03 -4.504270E+01  1.609787E+03 -1.167908E-04
        62   3  8.687499E+03 -7.770626E+01 -2.863346E+03 -5.071505E+01  2.392398E+03 -1.954288E-04
        62   4  8.687491E+03  6.369438E+00 -8.343235E+02  9.079069E-09  8.271757E+02  2.053121E-10
        62   5  8.752615E+03  2.101145E+01 -1.579912E+03 -8.987249E-09  1.609787E+03  9.072225E-10
        62   6  8.687499E+03 -7.770627E+01 -2.863346E+03  9.832995E-09  2.392398E+03  1.025098E-09
        62   7  8.687491E+03  6.369441E+00 -8.343235E+02  3.937036E+01  8.271757E+02  5.245495E-05
        62   8  8.752615E+03  2.101146E+01 -1.579912E+03  4.504270E+01  1.609787E+03  1.167926E-04
        62   9  8.687499E+03 -7.770626E+01 -2.863346E+03  5.071505E+01  2.392398E+03  1.954308E-04
        62  10  8.687491E+03  6.369257E+00 -8.343248E+02 -3.937036E+01  1.471750E-10  4.830786E-10
        62  11  8.752612E+03  2.101076E+01 -1.579917E+03 -4.504270E+01 -1.701030E-09  4.544406E-10
        62  12  8.687492E+03 -7.770780E+01 -2.863357E+03 -5.071505E+01 -3.253903E-10 -9.682082E-10
        62  13  8.687491E+03  6.369254E+00 -8.343248E+02  9.146972E-09  2.160901E-09  2.891655E-10
        62  14  8.752612E+03  2.101076E+01 -1.579917E+03 -9.019238E-09 -1.608913E-09  4.457236E-10
        62  15  8.687492E+03 -7.770780E+01 -2.863357E+03  1.158580E-08 -3.364057E-09 -2.712185E-10
        62  16  8.687491E+03  6.369257E+00 -8.343248E+02  3.937036E+01 -6.831712E-10  9.479526E-11
        62  17  8.752612E+03  2.101076E+01 -1.579917E+03  4.504270E+01 -1.797374E-09  4.386986E-10
        62  18  8.687492E+03 -7.770780E+01 -2.863357E+03  5.071505E+01 -2.301653E-09  4.266133E-10
        62  19  8.687491E+03  6.369441E+00 -8.343235E+02 -3.937036E+01 -8.271757E+02  5.245548E-05
        62  20  8.752615E+03  2.101146E+01 -1.579912E+03 -4.504270E+01 -1.609787E+03  1.167917E-04
        62  21  8.687499E+03 -7.770626E+01 -2.863346E+03 -5.071505E+01 -2.392398E+03  1.954269E-04
        62  22  8.687491E+03  6.369438E+00 -8.343235E+02  4.906969E-09 -8.271757E+02  3.726232E-10
        62  23  8.752615E+03  2.101145E+01 -1.579912E+03  1.718561E-09 -1.609787E+03 -1.539827E-11
        62  24  8.687499E+03 -7.770627E+01 -2.863346E+03  9.299937E-09 -2.392398E+03 -1.572643E-09
        62  25  8.687491E+03  6.369441E+00 -8.343235E+02  3.937036E+01 -8.271757E+02 -5.245478E-05
        62  26  8.752615E+03  2.101146E+01 -1.579912E+03  4.504270E+01 -1.609787E+03 -1.167918E-04
        62  27  8.687499E+03 -7.770626E+01 -2.863346E+03  5.071505E+01 -2.392398E+03 -1.954301E-04
        63   1  8.543775E+03  7.055847E+01 -3.775152E+03 -2.636774E+02  2.988732E+03 -1.269343E-03
        63   2  8.932303E+03  1.552969E+02 -6.571628E+03 -5.348099E+01  6.263207E+03 -5.395300E-04
        63   3  8.543835E+03 -1.162543E+03 -1.185049E+04  1.567129E+02  9.537617E+03  2.407483E-03
        63   4  8.543775E+03  7.055834E+01 -3.775152E+03  4.928542E-09  2.988732E+03  3.106486E-10
        63   5  8.932303E+03  1.552969E+02 -6.571628E+03 -3.779558E-09  6.263207E+03 -9.480337E-10
        63   6  8.543835E+03 -1.162543E+03 -1.185049E+04 -4.679578E-09  9.537617E+03 -8.235675E-10
        63   7  8.543775E+03  7.055847E+01 -3.775152E+03  2.636774E+02  2.988732E+03  1.269344E-03
        63   8  8.932303E+03  1.552969E+02 -6.571628E+03  5.348099E+01  6.263207E+03  5.395281E-04
        63   9  8.543835E+03 -1.162543E+03 -1.185049E+04 -1.567129E+02  9.537617E+03 -2.407485E-03
        63  10  8.543765E+03  7.055607E+01 -3.775169E+03 -2.636774E+02 -2.056372E-09 -1.056596E-09
        63  11  8.932261E+03  1.552863E+02 -6.571702E+03 -5.348099E+01 -1.769802E-09  1.423826E-10
        63  12  8.543738E+03 -1.162567E+03 -1.185066E+04  1.567129E+02 -2.541437E-09  6.220923E-11
        63  13  8.543765E+03  7.055594E+01 -3.775169E+03  1.577599E-08 -1.076975E-09 -4.281927E-10
        63  14  8.932261E+03  1.552863E+02 -6.571702E+03  5.938764E-09 -1.080664E-09  2.281758E-11
        63  15  8.543738E+03 -1.162567E+03 -1.185066E+04  3.640339E-09 -9.431413E-10  1.810841E-11
        63  16  8.543765E+03  7.055607E+01 -3.775169E+03  2.636774E+02 -1.179552E-09  2.030022E-10
        63  17  8.932261E+03  1.552863E+02 -6.571702E+03  5.348099E+01 -9.335730E-10 -9.933250E-11
        63  18  8.543738E+03 -1.162567E+03 -1.185066E+04 -1.567129E+02  3.879005E-10 -2.824721E-11
        63  19  8.543775E+03  7.055847E+01 -3.775152E+03 -2.636774E+02 -2.988732E+03  1.269341E-03
        63  20  8.932303E+03  1.552969E+02 -6.571628E+03 -5.348099E+01 -6.263207E+03  5.395305E-04
        63  21  8.543835E+03 -1.162543E+03 -1.185049E+04  1.567129E+02 -9.537617E+03 -2.407483E-03
        63  22  8.543775E+03  7.055834E+01 -3.775152E+03  9.391718E-09 -2.988732E+03 -1.165044E-09
        63  23  8.932303E+03  1.552969E+02 -6.571628E+03  2.733173E-09 -6.263207E+03  9.939880E-10
        63  24  8.543835E+03 -1.162543E+03 -1.185049E+04  8.459915E-09 -9.537617E+03  8.812732E-10
        63  25  8.543775E+03  7.055847E+01 -3.775152E+03  2.636774E+02 -2.988732E+03 -1.269343E-03
        63  26  8.932303E+03  1.552969E+02 -6.571628E+03  5.348099E+01 -6.263207E+03 -5.395285E-04
        63  27  8.543835E+03 -1.162543E+03 -1.185049E+04 -1.567129E+02 -9.537617E+03  2.407485E-03
        64   1  7.385415E+03  8.441157E+02 -1.531967E+04 -2.468665E+03  1.192867E+04 -4.743224E-02
        64   2  1.038070E+04  1.453842E+03 -2.620746E+04  1.243139E+03  2.522304E+04  5.050501E-02
        64   3  7.386165E+03 -1.497359E+04 -5.000850E+04  4.955018E+03  3.851742E+04  3.074119E-01
        64   4  7.385409E+03  8.441043E+02 -1.531967E+04 -7.279524E-09  1.192867E+04 -2.269222E-10
        64   5  1.038070E+04  1.453839E+03 -2.620746E+04 -2.359821E-09  2.522304E+04  3.918946E-10
        64   6  7.386138E+03 -1.497364E+04 -5.000851E+04  2.290660E-09  3.851742E+04  2.093801E-10
        64   7  7.385415E+03  8.441157E+02 -1.531967E+04  2.468665E+03  1.192867E+04  4.743224E-02
        64   8  1.038070E+04  1.453842E+03 -2.620746E+04 -1.243139E+03  2.522304E+04 -5.050501E-02
        64   9  7.386165E+03 -1.497359E+04 -5.000850E+04 -4.955018E+03  3.851742E+04 -3.074119E-01
        64  10  7.385263E+03  8.440775E+02 -1.531994E+04 -2.468665E+03 -2.560141E-09 -7.918824E-11
        64  11  1.038002E+04  1.453671E+03 -2.620866E+04  1.243139E+03 -6.056995E-10 -2.646210E-11
        64  12  7.384571E+03 -1.497399E+04 -5.001129E+04  4.955018E+03 -4.759577E-10 -5.539251E-10
        64  13  7.385256E+03  8.440661E+02 -1.531994E+04  9.929687E-09 -2.145514E-09 -1.229543E-10
        64  14  1.038002E+04  1.453668E+03 -2.620866E+04 -2.400655E-10 -2.158118E-09 -3.715436E-10
        64  15  7.384545E+03 -1.497404E+04 -5.001129E+04 -5.024700E-09 -2.010183E-09 -7.228694E-10
        64  16  7.385263E+03  8.440775E+02 -1.531994E+04  2.468665E+03 -1.205586E-10 -1.585251E-10
        64  17  1.038002E+04  1.453671E+03 -2.620866E+04 -1.243139E+03 -1.800443E-09 -7.051245E-10
        64  18  7.384571E+03 -1.497399E+04 -5.001129E+04 -4.955018E+03 -1.067154E-09 -8.819874E-10
        64  19  7.385415E+03  8.441157E+02 -1.531967E+04 -2.468665E+03 -1.192867E+04  4.743224E-02
        64  20  1.038070E+04  1.453842E+03 -2.620746E+04  1.243139E+03 -2.522304E+04 -5.050501E-02
        64  21  7.386165E+03 -1.497359E+04 -5.000850E+04  4.955018E+03 -3.851742E+04 -3.074119E-01
        64  22  7.385409E+03  8.441043E+02 -1.531967E+04 -3.017243E-09 -1.192867E+04 -1.739716E-11
        64  23  1.038070E+04  1.453839E+03 -2.620746E+04 -2.743847E-10 -2.522304E+04 -1.131665E-09
        64  24  7.386138E+03 -1.497364E+04 -5.000851E+04  2.199330E-09 -3.851742E+04 -1.659103E-09
        64  25  7.385415E+03  8.441157E+02 -1.531967E+04  2.468665E+03 -1.192867E+04 -4.743224E-02
        64  26  1.038070E+04  1.453842E+03 -2.620746E+04 -1.243139E+03 -2.522304E+04  5.050501E-02
        64  27  7.386165E+03 -1.497359E+04 -5.000850E+04 -4.955018E+03 -3.851742E+04  3.074118E-01
        65   1 -4.331462E+03  1.017477E+04 -6.192152E+04 -2.701535E+04  4.776513E+04 -2.078490E+00
        65   2  2.503390E+04  1.588181E+04 -1.017847E+05  2.264241E+04  1.022983E+05  3.730755E+00
        65   3 -4.319085E+03 -1.849095E+05 -2.287648E+05  7.229744E+04  1.568322E+05  1.826308E+01
        65   4 -4.332246E+03  1.017340E+04 -6.192172E+04 -7.749166E-09  4.776513E+04  2.006240E-10
        65   5  2.503335E+04  1.588085E+04 -1.017848E+05 -1.456309E-08  1.022983E+05  5.267754E-10
        65   6 -4.324698E+03 -1.849193E+05 -2.287662E+05 -8.990204E-09  1.568322E+05 -6.942566E-10
        65   7 -4.331462E+03  1.017477E+04 -6.192152E+04  2.701535E+04  4.776513E+04  2.078490E+00
        65   8  2.503390E+04  1.588181E+04 -1.017847E+05 -2.264241E+04  1.022983E+05 -3.730755E+00
        65   9 -4.319085E+03 -1.849095E+05 -2.287648E+05 -7.229744E+04  1.568322E+05 -1.826308E+01
        65  10 -4.333912E+03  1.017416E+04 -6.192581E+04 -2.701535E+04 -1.261312E-09 -4.626059E-10
        65  11  2.502266E+04  1.587900E+04 -1.018043E+05  2.264241E+04 -1.308745E-09  1.761481E-10
        65  12 -4.345502E+03 -1.849161E+05 -2.288110E+05  7.229744E+04 -2.338712E-09  1.570568E-10
        65  13 -4.334696E+03  1.017279E+04 -6.192601E+04 -1.161769E-09  1.039569E-09 -4.914671E-10
        65  14  2.502211E+04  1.587804E+04 -1.018045E+05 -1.560238E-08 -4.926871E-10  2.192014E-10
        65  15 -4.351115E+03 -1.849259E+05 -2.288124E+05 -3.114566E-09 -5.327075E-10  1.589318E-10
        65  16 -4.333912E+03  1.017416E+04 -6.192581E+04  2.701535E+04 -3.537950E-10 -4.752779E-10
        65  17  2.502266E+04  1.587900E+04 -1.018043E+05 -2.264241E+04  2.135872E-09  1.485594E-10
        65  18 -4.345502E+03 -1.849161E+05 -2.288110E+05 -7.229744E+04 -4.750871E-10  2.270204E-10
        65  19 -4.331462E+03  1.017477E+04 -6.192152E+04 -2.701535E+04 -4.776513E+04  2.078490E+00
        65  20  2.503390E+04  1.588181E+04 -1.017847E+05  2.264241E+04 -1.022983E+05 -3.730755E+00
        65  21 -4.319085E+03 -1.849095E+05 -2.287648E+05  7.229744E+04 -1.568322E+05 -1.826308E+01
        65  22 -4.332246E+03  1.017340E+04 -6.192172E+04 -3.195116E-09 -4.776513E+04 -1.185970E-09
        65  23  2.503335E+04  1.588085E+04 -1.017848E+05  2.744504E-09 -1.022983E+05 -9.090133E-11
        65  24 -4.324698E+03 -1.849193E+05 -2.287662E+05  4.106262E-09 -1.568322E+05  5.854618E-10
        65  25 -4.331462E+03  1.017477E+04 -6.192152E+04  2.701535E+04 -4.776513E+04 -2.078490E+00
        65  26  2.503390E+04  1.588181E+04 -1.017847E+05 -2.264241E+04 -1.022983E+05  3.730755E+00
        65  27 -4.319085E+03 -1.849095E+05 -2.287648E+05 -7.229744E+04 -1.568322E+05  1.826308E+01
        66   1  1.090836E+05  2.695141E+05  1.062371E+05 -2.960210E+04  5.174778E+03  6.272610E+03
        66   2  9.909289E+04  2.131043E+05  9.109220E+04 -1.531443E+04  1.551228E+04 -2.877361E+02
        66   3  8.527624E+04  1.566779E+05  7.927900E+04 -3.221210E+04  1.431248E+04 -6.849215E+03
        66   4 -4.812219E+03 -1.879127E+05 -5.847845E+03 -3.140476E+04  5.176212E+03 -4.551282E+03
        66   5  3.718689E+02 -1.872239E+05 -2.199965E+03 -1.581094E+04  1.551382E+04 -3.355995E+03
        66   6  3.826594E+02 -1.879008E+05 -6.057492E+02 -3.140373E+04  1.431081E+04 -2.162317E+03
        66   7 -1.187235E+05 -6.451487E+05 -1.179477E+05 -3.320607E+04  5.177709E+03 -1.536722E+04
        66   8 -9.836049E+04 -5.874043E+05 -9.550294E+04 -1.630712E+04  1.551537E+04 -6.422289E+03
        66   9 -8.451926E+04 -5.323698E+05 -8.049838E+04 -3.059579E+04  1.430914E+04  2.522000E+03
        66  10  1.090836E+05  2.695141E+05  1.062370E+05 -2.960213E+04  1.365492E-10  7.913684E-10
        66  11  9.909264E+04  2.131043E+05  9.109175E+04 -1.531443E+04 -1.277000E-09 -2.373341E-09
        66  12  8.527600E+04  1.566778E+05  7.927853E+04 -3.221202E+04  2.080520E-09 -4.568770E-09
        66  13 -4.812254E+03 -1.879127E+05 -5.847935E+03 -3.140474E+04  6.787696E-10 -1.259849E-11
        66  14  3.716074E+02 -1.872240E+05 -2.200438E+03 -1.581090E+04  8.743675E-10  1.477885E-10
        66  15  3.824383E+02 -1.879009E+05 -6.061428E+02 -3.140370E+04  1.177487E-09 -5.570845E-11
        66  16 -1.187236E+05 -6.451490E+05 -1.179482E+05 -3.320601E+04  6.991872E-10 -7.358854E-10
        66  17 -9.836076E+04 -5.874044E+05 -9.550347E+04 -1.630704E+04  3.035043E-09  2.648782E-09
        66  18 -8.451948E+04 -5.323699E+05 -8.049878E+04 -3.059582E+04  8.683875E-10  5.125197E-09
        66  19  1.090836E+05  2.695141E+05  1.062371E+05 -2.960210E+04 -5.174778E+03 -6.272610E+03
        66  20  9.909289E+04  2.131043E+05  9.109220E+04 -1.531443E+04 -1.551228E+04  2.877361E+02
        66  21  8.527624E+04  1.566779E+05  7.927900E+04 -3.221210E+04 -1.431248E+04  6.849215E+03
        66  22 -4.812219E+03 -1.879127E+05 -5.847845E+03 -3.140476E+04 -5.176212E+03  4.551282E+03
        66  23  3.718689E+02 -1.872239E+05 -2.199965E+03 -1.581094E+04 -1.551382E+04  3.355995E+03
        66  24  3.826594E+02 -1.879008E+05 -6.057492E+02 -3.140373E+04 -1.431081E+04  2.162317E+03
        66  25 -1.187235E+05 -6.451487E+05 -1.179477E+05 -3.320607E+04 -5.177709E+03  1.536722E+04
        66  26 -9.836049E+04 -5.874043E+05 -9.550294E+04 -1.630712E+04 -1.551537E+04  6.422289E+03
        66  27 -8.451926E+04 -5.323698E+05 -8.049838E+04 -3.059579E+04 -1.430914E+04 -2.522000E+03
        67   1  7.038055E+04  9.977189E+04  6.690303E+04 -3.172112E+04  1.132579E+04 -3.267283E+03
        67   2  5.679619E+04  4.308750E+04  5.528380E+04 -1.564609E+04  9.343947E+03 -4.507844E+03
        67   3  4.442543E+04 -1.314294E+04  4.477247E+04 -3.122266E+04  6.780084E+03 -5.749587E+03
        67   4 -4.501401E+02 -1.875032E+05  3.589818E+01 -3.150801E+04  1.132551E+04 -2.129850E+03
        67   5 -8.504634E+01 -1.876913E+05  1.671831E+03 -1.568124E+04  9.343196E+03 -2.979056E+03
        67   6  1.426095E+03 -1.874963E+05  4.144139E+03 -3.150677E+04  6.778749E+03 -3.829555E+03
        67   7 -7.128666E+04 -4.747022E+05 -6.683680E+04 -3.129498E+04  1.132524E+04 -9.929390E+02
        67   8 -5.697004E+04 -4.184209E+05 -5.194372E+04 -1.571636E+04  9.342445E+03 -1.450833E+03
        67   9 -4.157539E+04 -3.618216E+05 -3.648623E+04 -3.179079E+04  6.777412E+03 -1.910058E+03
        67  10  7.038041E+04  9.977184E+04  6.690277E+04 -3.172109E+04 -3.952818E-10  4.612864E-09
        67  11  5.679609E+04  4.308746E+04  5.528360E+04 -1.564606E+04 -2.883048E-10  3.974869E-09
        67  12  4.442537E+04 -1.314299E+04  4.477232E+04 -3.122263E+04 -1.369438E-09 -7.651657E-10
        67  13 -4.502790E+02 -1.875033E+05  3.564864E+01 -3.150799E+04 -4.426259E-10  8.094559E-12
        67  14 -8.514245E+01 -1.876913E+05  1.671650E+03 -1.568122E+04 -8.099399E-10  3.632465E-10
        67  15  1.426042E+03 -1.874963E+05  4.144025E+03 -3.150675E+04 -1.532067E-09 -8.163787E-11
        67  16 -7.128680E+04 -4.747022E+05 -6.683704E+04 -3.129497E+04 -9.384007E-10 -4.042710E-09
        67  17 -5.697013E+04 -4.184209E+05 -5.194388E+04 -1.571635E+04  6.886048E-10 -3.316554E-09
        67  18 -4.157544E+04 -3.618217E+05 -3.648633E+04 -3.179078E+04 -1.790164E-09  1.668173E-09
        67  19  7.038055E+04  9.977189E+04  6.690303E+04 -3.172112E+04 -1.132579E+04  3.267283E+03
        67  20  5.679619E+04  4.308750E+04  5.528380E+04 -1.564609E+04 -9.343947E+03  4.507844E+03
        67  21  4.442543E+04 -1.314294E+04  4.477247E+04 -3.122266E+04 -6.780084E+03  5.749587E+03
        67  22 -4.501401E+02 -1.875032E+05  3.589818E+01 -3.150801E+04 -1.132551E+04  2.129850E+03
        67  23 -8.504634E+01 -1.876913E+05  1.671831E+03 -1.568124E+04 -9.343196E+03  2.979056E+03
        67  24  1.426095E+03 -1.874963E+05  4.144139E+03 -3.150677E+04 -6.778749E+03  3.829555E+03
        67  25 -7.128666E+04 -4.747022E+05 -6.683680E+04 -3.129498E+04 -1.132524E+04  9.929390E+02
        67  26 -5.697004E+04 -4.184209E+05 -5.194372E+04 -1.571636E+04 -9.342445E+03  1.450833E+03
        67  27 -4.157539E+04 -3.618216E+05 -3.648623E+04 -3.179079E+04 -6.777412E+03  1.910058E+03
        68   1  2.792489E+04 -6.932757E+04  3.238214E+04 -3.403637E+04  5.073474E+03 -6.522514E+03
        68   2  1.351419E+04 -1.284473E+05  2.316472E+04 -1.365339E+04  2.507859E+03 -1.103551E+04
        68   3  1.780124E+04 -1.823594E+05  2.154742E+04 -2.495357E+04  4.959423E+02 -1.554788E+04
        68   4 -9.104256E+02 -1.864069E+05  5.324748E+03 -3.151840E+04  5.071978E+03 -4.609775E+03
        68   5 -1.413652E+03 -1.890392E+05  9.108176E+03 -1.566975E+04  2.506653E+03 -9.494593E+03
        68   6  1.684610E+04 -1.864034E+05  2.075001E+04 -3.150398E+04  4.951040E+02 -1.437917E+04
        68   7 -2.974668E+04 -3.034735E+05 -2.173354E+04 -2.900090E+04  5.070498E+03 -2.697393E+03
        68   8 -1.634174E+04 -2.496277E+05 -4.948600E+03 -1.768590E+04  2.505436E+03 -7.953821E+03
        68   9  1.589111E+04 -1.904473E+05  1.995263E+04 -3.805434E+04  4.942410E+02 -1.321046E+04
        68  10  2.792485E+04 -6.932762E+04  3.238201E+04 -3.403634E+04 -7.951952E-10 -7.560560E-09
        68  11  1.351415E+04 -1.284474E+05  2.316447E+04 -1.365337E+04 -6.295634E-10  1.442301E-09
        68  12  1.780118E+04 -1.823596E+05  2.154696E+04 -2.495357E+04 -1.164140E-09  7.316953E-09
        68  13 -9.104589E+02 -1.864069E+05  5.324660E+03 -3.151838E+04  1.292947E-09  1.670680E-11
        68  14 -1.413683E+03 -1.890393E+05  9.107994E+03 -1.566973E+04 -1.728087E-09  4.430998E-10
        68  15  1.684604E+04 -1.864036E+05  2.074962E+04 -3.150397E+04 -6.675304E-11 -1.168655E-10
        68  16 -2.974671E+04 -3.034735E+05 -2.173360E+04 -2.900089E+04 -2.563179E-09  8.364772E-09
        68  17 -1.634176E+04 -2.496278E+05 -4.948730E+03 -1.768589E+04 -9.276993E-10 -5.915841E-10
        68  18  1.589106E+04 -1.904475E+05  1.995231E+04 -3.805433E+04  1.005702E-09 -6.286967E-09
        68  19  2.792489E+04 -6.932757E+04  3.238214E+04 -3.403637E+04 -5.073474E+03  6.522514E+03
        68  20  1.351419E+04 -1.284473E+05  2.316472E+04 -1.365339E+04 -2.507859E+03  1.103551E+04
        68  21  1.780124E+04 -1.823594E+05  2.154742E+04 -2.495357E+04 -4.959423E+02  1.554788E+04
        68  22 -9.104256E+02 -1.864069E+05  5.324748E+03 -3.151840E+04 -5.071978E+03  4.609775E+03
        68  23 -1.413652E+03 -1.890392E+05  9.108176E+03 -1.566975E+04 -2.506653E+03  9.494593E+03
        68  24  1.684610E+04 -1.864034E+05  2.075001E+04 -3.150398E+04 -4.951040E+02  1.437917E+04
        68  25 -2.974668E+04 -3.034735E+05 -2.173354E+04 -2.900090E+04 -5.070498E+03  2.697393E+03
        68  26 -1.634174E+04 -2.496277E+05 -4.948600E+03 -1.768590E+04 -2.505436E+03  7.953821E+03
        68  27  1.589111E+04 -1.904473E+05  1.995263E+04 -3.805434E+04 -4.942410E+02  1.321046E+04
        69   1 -2.296745E+05 -5.787195E+04 -2.353672E+04 -8.832845E+04 -9.879640E+03 -3.278211E+03
        69   2 -2.207966E+05 -3.883022E+04 -1.239706E+04 -8.465339E+04 -6.219065E+03 -1.183497E+03
        69   3 -2.128383E+05 -3.608503E+04 -7.480284E+03 -8.263743E+04 -2.179666E+03 -9.867355E+01
        69   4 -1.979180E+05 -4.205209E+04 -1.418700E+04 -7.571270E+04 -9.164085E+03 -3.009965E+03
        69   5 -1.967739E+05 -2.865711E+04 -6.008049E+03 -7.687387E+04 -6.138620E+03 -1.153350E+03
        69   6 -1.964235E+05 -3.143264E+04 -3.548562E+03 -7.969432E+04 -2.734388E+03 -3.066639E+02
        69   7 -1.661606E+05 -2.623203E+04 -4.837442E+03 -6.309638E+04 -8.448495E+03 -2.741694E+03
        69   8 -1.727508E+05 -1.848393E+04  3.808968E+02 -6.909407E+04 -6.058171E+03 -1.123201E+03
        69   9 -1.800085E+05 -2.678025E+04  3.831548E+02 -7.675115E+04 -3.289127E+03 -5.146575E+02
        69  10 -2.296746E+05 -5.787199E+04 -2.353693E+04 -8.832848E+04  5.223651E-10  1.728514E-10
        69  11 -2.207967E+05 -3.883023E+04 -1.239713E+04 -8.465340E+04 -6.636086E-10  7.896795E-10
        69  12 -2.128383E+05 -3.608503E+04 -7.480293E+03 -8.263743E+04 -7.088444E-10  3.871939E-10
        69  13 -1.979181E+05 -4.205212E+04 -1.418718E+04 -7.571273E+04 -1.767272E-10  2.261066E-10
        69  14 -1.967740E+05 -2.865712E+04 -6.008122E+03 -7.687387E+04  2.467439E-09  6.256097E-10
        69  15 -1.964235E+05 -3.143264E+04 -3.548576E+03 -7.969432E+04  3.359485E-10  2.851549E-11
        69  16 -1.661607E+05 -2.623206E+04 -4.837591E+03 -6.309640E+04  3.787691E-10  3.843860E-10
        69  17 -1.727508E+05 -1.848394E+04  3.808254E+02 -6.909408E+04  3.047031E-10  5.661161E-10
        69  18 -1.800085E+05 -2.678025E+04  3.831339E+02 -7.675115E+04 -5.445820E-10 -2.252730E-10
        69  19 -2.296745E+05 -5.787195E+04 -2.353672E+04 -8.832845E+04  9.879640E+03  3.278211E+03
        69  20 -2.207966E+05 -3.883022E+04 -1.239706E+04 -8.465339E+04  6.219065E+03  1.183497E+03
        69  21 -2.128383E+05 -3.608503E+04 -7.480284E+03 -8.263743E+04  2.179666E+03  9.867355E+01
        69  22 -1.979180E+05 -4.205209E+04 -1.418700E+04 -7.571270E+04  9.164085E+03  3.009965E+03
        69  23 -1.967739E+05 -2.865711E+04 -6.008049E+03 -7.687387E+04  6.138620E+03  1.153350E+03
        69  24 -1.964235E+05 -3.143264E+04 -3.548562E+03 -7.969432E+04  2.734388E+03  3.066639E+02
        69  25 -1.661606E+05 -2.623203E+04 -4.837442E+03 -6.309638E+04  8.448495E+03  2.741694E+03
        69  26 -1.727508E+05 -1.848393E+04  3.808968E+02 -6.909407E+04  6.058171E+03  1.123201E+03
        69  27 -1.800085E+05 -2.678025E+04  3.831548E+02 -7.675115E+04  3.289127E+03  5.146575E+02
        70   1 -2.007473E+05 -3.485216E+04 -4.138542E+03 -8.053044E+04 -1.853573E+03 -4.435083E+02
        70   2 -1.930691E+05 -2.802008E+04 -2.479703E+02 -7.563242E+04 -9.268996E+02 -5.705753E+02
        70   3 -1.817187E+05 -2.643408E+04  2.778252E+03 -7.526575E+04  2.150642E+01 -7.555475E+02
        70   4 -1.959592E+05 -3.276911E+04 -2.862928E+03 -7.892057E+04 -2.097061E+03 -5.348055E+02
        70   5 -1.977341E+05 -2.968898E+04 -1.427280E+03 -7.682759E+04 -1.206809E+03 -6.755288E+02
        70   6 -1.958296E+05 -3.184774E+04 -8.271238E+02 -7.926601E+04 -2.948401E+02 -8.741625E+02
        70   7 -1.911711E+05 -3.068606E+04 -1.587318E+03 -7.731069E+04 -2.340551E+03 -6.261037E+02
        70   8 -2.023989E+05 -3.135788E+04 -2.606586E+03 -7.802275E+04 -1.486716E+03 -7.804810E+02
        70   9 -2.099402E+05 -3.726135E+04 -4.432488E+03 -8.326616E+04 -6.111766E+02 -9.927735E+02
        70  10 -2.007473E+05 -3.485216E+04 -4.138549E+03 -8.053045E+04 -1.860087E-09 -9.829851E-11
        70  11 -1.930691E+05 -2.802008E+04 -2.479725E+02 -7.563242E+04  8.235185E-10  5.487107E-10
        70  12 -1.817187E+05 -2.643408E+04  2.778251E+03 -7.526575E+04  3.452280E-09  2.583424E-11
        70  13 -1.959592E+05 -3.276912E+04 -2.862937E+03 -7.892057E+04 -1.138767E-09  1.699720E-10
        70  14 -1.977341E+05 -2.968898E+04 -1.427284E+03 -7.682759E+04 -2.614081E-09  4.986501E-10
        70  15 -1.958296E+05 -3.184775E+04 -8.271253E+02 -7.926601E+04  2.389197E-09 -1.483262E-10
        70  16 -1.911711E+05 -3.068607E+04 -1.587329E+03 -7.731069E+04 -3.403056E-10  5.314134E-10
        70  17 -2.023990E+05 -3.135788E+04 -2.606591E+03 -7.802275E+04 -4.661319E-10  6.445925E-10
        70  18 -2.099402E+05 -3.726135E+04 -4.432491E+03 -8.326616E+04 -2.458745E-09 -3.663541E-10
        70  19 -2.007473E+05 -3.485216E+04 -4.138542E+03 -8.053044E+04  1.853573E+03  4.435083E+02
        70  20 -1.930691E+05 -2.802008E+04 -2.479703E+02 -7.563242E+04  9.268996E+02  5.705753E+02
        70  21 -1.817187E+05 -2.643408E+04  2.778252E+03 -7.526575E+04 -2.150642E+01  7.555475E+02
        70  22 -1.959592E+05 -3.276911E+04 -2.862928E+03 -7.892057E+04  2.097061E+03  5.348055E+02
        70  23 -1.977341E+05 -2.968898E+04 -1.427280E+03 -7.682759E+04  1.206809E+03  6.755288E+02
        70  24 -1.958296E+05 -3.184774E+04 -8.271238E+02 -7.926601E+04  2.948401E+02  8.741625E+02
        70  25 -1.911711E+05 -3.068606E+04 -1.587318E+03 -7.731069E+04  2.340551E+03  6.261037E+02
        70  26 -2.023989E+05 -3.135788E+04 -2.606586E+03 -7.802275E+04  1.486716E+03  7.804810E+02
        70  27 -2.099402E+05 -3.726135E+04 -4.432488E+03 -8.326616E+04  6.111766E+02  9.927735E+02
        71   1 -1.712358E+05 -2.278639E+04  5.661996E+03 -7.251058E+04  2.299847E+02 -1.004386E+03
        71   2 -1.637029E+05 -1.702228E+04  8.341890E+03 -6.751120E+04  6.093126E+02 -1.404761E+03
        71   3 -1.520619E+05 -1.552319E+04  1.084710E+04 -6.727203E+04  9.897300E+02 -1.807932E+03
        71   4 -1.957803E+05 -3.195903E+04 -6.538274E+02 -7.919399E+04 -6.838075E+01 -1.116263E+03
        71   5 -1.978293E+05 -2.978827E+04 -3.960333E+02 -7.682828E+04  3.091763E+02 -1.517315E+03
        71   6 -1.957696E+05 -3.188218E+04 -3.114692E+02 -7.922285E+04  6.878188E+02 -1.921163E+03
        71   7 -2.203245E+05 -4.113171E+04 -6.969754E+03 -8.587721E+04 -3.667357E+02 -1.228136E+03
        71   8 -2.319547E+05 -4.255427E+04 -9.134111E+03 -8.614496E+04  9.056169E+00 -1.629862E+03
        71   9 -2.394757E+05 -4.824113E+04 -1.147025E+04 -9.117296E+04  3.859296E+02 -2.034386E+03
        71  10 -1.712358E+05 -2.278639E+04  5.661994E+03 -7.251058E+04  2.201615E-09 -5.018959E-10
        71  11 -1.637029E+05 -1.702228E+04  8.341886E+03 -6.751120E+04  2.862116E-09  8.468390E-10
        71  12 -1.520619E+05 -1.552319E+04  1.084709E+04 -6.727203E+04  2.547904E-10 -6.091656E-10
        71  13 -1.957803E+05 -3.195903E+04 -6.538297E+02 -7.919399E+04  2.391996E-11 -9.479956E-11
        71  14 -1.978293E+05 -2.978828E+04 -3.960378E+02 -7.682828E+04  1.302355E-09  6.273442E-10
        71  15 -1.957696E+05 -3.188219E+04 -3.114771E+02 -7.922285E+04 -1.719010E-09 -5.726043E-10
        71  16 -2.203245E+05 -4.113172E+04 -6.969757E+03 -8.587721E+04  2.767074E-09  3.315084E-10
        71  17 -2.319547E+05 -4.255428E+04 -9.134116E+03 -8.614496E+04  1.903824E-10  4.895315E-10
        71  18 -2.394757E+05 -4.824113E+04 -1.147026E+04 -9.117296E+04 -5.455478E-09 -4.988538E-10
        71  19 -1.712358E+05 -2.278639E+04  5.661996E+03 -7.251058E+04 -2.299847E+02  1.004386E+03
        71  20 -1.637029E+05 -1.702228E+04  8.341890E+03 -6.751120E+04 -6.093126E+02  1.404761E+03
        71  21 -1.520619E+05 -1.552319E+04  1.084710E+04 -6.727203E+04 -9.897300E+02  1.807932E+03
        71  22 -1.957803E+05 -3.195903E+04 -6.538274E+02 -7.919399E+04  6.838075E+01  1.116263E+03
        71  23 -1.978293E+05 -2.978827E+04 -3.960333E+02 -7.682828E+04 -3.091763E+02  1.517315E+03
        71  24 -1.957696E+05 -3.188218E+04 -3.114692E+02 -7.922285E+04 -6.878188E+02  1.921163E+03
        71  25 -2.203245E+05 -4.113171E+04 -6.969754E+03 -8.587721E+04  3.667357E+02  1.228136E+03
        71  26 -2.319547E+05 -4.255427E+04 -9.134111E+03 -8.614496E+04 -9.056169E+00  1.629862E+03
        71  27 -2.394757E+05 -4.824113E+04 -1.147025E+04 -9.117296E+04 -3.859296E+02  2.034386E+03
        72   1 -1.417634E+05 -1.167795E+04  1.355228E+04 -6.447058E+04  1.144513E+03 -2.067977E+03
        72   2 -1.342652E+05 -6.020942E+03  1.588345E+04 -5.947755E+04  1.518971E+03 -2.472302E+03
        72   3 -1.226440E+05 -4.541192E+03  1.806451E+04 -5.924573E+04  1.893254E+03 -2.875974E+03
        72   4 -1.957704E+05 -3.188767E+04 -3.116191E+02 -7.921392E+04  8.438740E+02 -2.180741E+03
        72   5 -1.978320E+05 -2.980015E+04 -3.924422E+02 -7.683291E+04  1.218710E+03 -2.584942E+03
        72   6 -1.957709E+05 -3.188998E+04 -6.237194E+02 -7.921314E+04  1.593370E+03 -2.988492E+03
        72   7 -2.497742E+05 -5.209708E+04 -1.417566E+04 -9.395600E+04  5.432658E+02 -2.293493E+03
        72   8 -2.613948E+05 -5.357906E+04 -1.666863E+04 -9.418663E+04  9.184844E+02 -2.697569E+03
        72   9 -2.688928E+05 -5.923850E+04 -1.931244E+04 -9.917847E+04  1.293524E+03 -3.100996E+03
        72  10 -1.417634E+05 -1.167795E+04  1.355227E+04 -6.447058E+04 -4.633288E-09 -1.469284E-09
        72  11 -1.342652E+05 -6.020949E+03  1.588344E+04 -5.947754E+04 -1.968882E-09  9.079475E-10
        72  12 -1.226440E+05 -4.541202E+03  1.806449E+04 -5.924572E+04  4.652092E-09  3.531544E-10
        72  13 -1.957704E+05 -3.188768E+04 -3.116293E+02 -7.921391E+04 -3.953524E-09 -6.911376E-10
        72  14 -1.978320E+05 -2.980016E+04 -3.924575E+02 -7.683291E+04 -1.105485E-09  3.245856E-10
        72  15 -1.957709E+05 -3.188999E+04 -6.237409E+02 -7.921313E+04  2.950130E-09  4.030096E-11
        72  16 -2.497742E+05 -5.209708E+04 -1.417567E+04 -9.395600E+04 -7.195943E-10  4.397794E-11
        72  17 -2.613948E+05 -5.357907E+04 -1.666865E+04 -9.418663E+04  7.442145E-10 -1.010787E-10
        72  18 -2.688929E+05 -5.923851E+04 -1.931246E+04 -9.917847E+04  1.435950E-09 -2.691389E-10
        72  19 -1.417634E+05 -1.167795E+04  1.355228E+04 -6.447058E+04 -1.144513E+03  2.067977E+03
        72  20 -1.342652E+05 -6.020942E+03  1.588345E+04 -5.947755E+04 -1.518971E+03  2.472302E+03
        72  21 -1.226440E+05 -4.541192E+03  1.806451E+04 -5.924573E+04 -1.893254E+03  2.875974E+03
        72  22 -1.957704E+05 -3.188767E+04 -3.116191E+02 -7.921392E+04 -8.438740E+02  2.180741E+03
        72  23 -1.978320E+05 -2.980015E+04 -3.924422E+02 -7.683291E+04 -1.218710E+03  2.584942E+03
        72  24 -1.957709E+05 -3.188998E+04 -6.237194E+02 -7.921314E+04 -1.593370E+03  2.988492E+03
        72  25 -2.497742E+05 -5.209708E+04 -1.417566E+04 -9.395600E+04 -5.432658E+02  2.293493E+03
        72  26 -2.613948E+05 -5.357906E+04 -1.666863E+04 -9.418663E+04 -9.184844E+02  2.697569E+03
        72  27 -2.688928E+05 -5.923850E+04 -1.931244E+04 -9.917847E+04 -1.293524E+03  3.100996E+03
        73   1 -1.124100E+05 -6.972713E+02  2.057515E+04 -5.647715E+04  2.115590E+03 -3.108939E+03
        73   2 -1.049133E+05  4.950723E+03  2.235795E+04 -5.148602E+04  3.003853E+03 -3.317780E+03
        73   3 -9.342890E+04  6.302818E+03  2.357291E+04 -5.121813E+04  3.891418E+03 -3.524481E+03
        73   4 -1.957959E+05 -3.187581E+04 -8.067415E+02 -7.922016E+04  1.815936E+03 -3.221387E+03
        73   5 -1.977979E+05 -2.978624E+04 -1.422478E+03 -7.683667E+04  2.705425E+03 -3.429796E+03
        73   6 -1.958127E+05 -3.199283E+04 -2.607092E+03 -7.917642E+04  3.594207E+03 -3.636068E+03
        73   7 -2.791747E+05 -6.305379E+04 -2.218912E+04 -1.019603E+05  1.516327E+03 -3.333817E+03
        73   8 -2.906742E+05 -6.452267E+04 -2.520361E+04 -1.021839E+05  2.407046E+03 -3.541793E+03
        73   9 -2.981867E+05 -7.028795E+04 -2.878805E+04 -1.071306E+05  3.297049E+03 -3.747635E+03
        73  10 -1.124100E+05 -6.972829E+02  2.057512E+04 -5.647714E+04  4.681614E-09 -4.881600E-10
        73  11 -1.049133E+05  4.950708E+03  2.235792E+04 -5.148601E+04 -4.468787E-10  1.067529E-10
        73  12 -9.342892E+04  6.302801E+03  2.357286E+04 -5.121812E+04  1.513533E-10  3.684081E-10
        73  13 -1.957959E+05 -3.187582E+04 -8.067672E+02 -7.922016E+04  3.234398E-09 -1.140791E-10
        73  14 -1.977979E+05 -2.978626E+04 -1.422513E+03 -7.683666E+04 -1.623512E-09  3.210192E-11
        73  15 -1.958128E+05 -3.199285E+04 -2.607141E+03 -7.917641E+04 -2.604888E-09  7.742507E-11
        73  16 -2.791747E+05 -6.305381E+04 -2.218914E+04 -1.019603E+05  1.435987E-09  5.254359E-11
        73  17 -2.906742E+05 -6.452268E+04 -2.520365E+04 -1.021839E+05  2.084710E-10 -2.594526E-12
        73  18 -2.981867E+05 -7.028797E+04 -2.878810E+04 -1.071306E+05 -8.473782E-10  1.673495E-10
        73  19 -1.124100E+05 -6.972713E+02  2.057515E+04 -5.647715E+04 -2.115590E+03  3.108939E+03
        73  20 -1.049133E+05  4.950723E+03  2.235795E+04 -5.148602E+04 -3.003853E+03  3.317780E+03
        73  21 -9.342890E+04  6.302818E+03  2.357291E+04 -5.121813E+04 -3.891418E+03  3.524481E+03
        73  22 -1.957959E+05 -3.187581E+04 -8.067415E+02 -7.922016E+04 -1.815936E+03  3.221387E+03
        73  23 -1.977979E+05 -2.978624E+04 -1.422478E+03 -7.683667E+04 -2.705425E+03  3.429796E+03
        73  24 -1.958127E+05 -3.199283E+04 -2.607092E+03 -7.917642E+04 -3.594207E+03  3.636068E+03
        73  25 -2.791747E+05 -6.305379E+04 -2.218912E+04 -1.019603E+05 -1.516327E+03  3.333817E+03
        73  26 -2.906742E+05 -6.452267E+04 -2.520361E+04 -1.021839E+05 -2.407046E+03  3.541793E+03
        73  27 -2.981867E+05 -7.028795E+04 -2.878805E+04 -1.071306E+05 -3.297049E+03  3.747635E+03
        74   1 -8.320447E+04  1.011151E+04  2.541372E+04 -4.877400E+04  4.496527E+03 -3.613852E+03
        74   2 -7.560893E+04  1.606014E+04  2.505311E+04 -4.349335E+04  7.778139E+03 -2.918352E+03
        74   3 -6.496983E+04  1.609780E+04  2.190503E+04 -4.257820E+04  1.105311E+04 -2.204792E+03
        74   4 -1.959486E+05 -3.182009E+04 -3.441343E+03 -7.929697E+04  4.194916E+03 -3.727111E+03
        74   5 -1.975744E+05 -2.960511E+04 -6.182233E+03 -7.683599E+04  7.487278E+03 -3.027614E+03
        74   6 -1.961589E+05 -3.330357E+04 -1.171951E+04 -7.874064E+04  1.077294E+04 -2.310080E+03
        74   7 -3.086804E+05 -7.375093E+04 -3.229744E+04 -1.098150E+05  3.893365E+03 -3.840347E+03
        74   8 -3.195251E+05 -7.526932E+04 -3.741872E+04 -1.101726E+05  7.196481E+03 -3.136853E+03
        74   9 -3.273307E+05 -8.270361E+04 -4.534533E+04 -1.148960E+05  1.049284E+04 -2.415343E+03
        74  10 -8.320449E+04  1.011149E+04  2.541366E+04 -4.877399E+04  8.711658E-10  2.940839E-10
        74  11 -7.560899E+04  1.606011E+04  2.505298E+04 -4.349333E+04 -5.680357E-10  4.382343E-11
        74  12 -6.496996E+04  1.609776E+04  2.190480E+04 -4.257818E+04 -3.622362E-09 -4.653486E-10
        74  13 -1.959487E+05 -3.182011E+04 -3.441402E+03 -7.929696E+04 -1.519883E-10  3.730147E-10
        74  14 -1.975744E+05 -2.960514E+04 -6.182356E+03 -7.683597E+04 -1.010228E-09 -3.245566E-10
        74  15 -1.961590E+05 -3.330361E+04 -1.171974E+04 -7.874062E+04 -6.982000E-10 -1.073213E-09
        74  16 -3.086804E+05 -7.375095E+04 -3.229749E+04 -1.098149E+05 -8.990411E-10 -1.169213E-10
        74  17 -3.195252E+05 -7.526935E+04 -3.741884E+04 -1.101726E+05  5.109225E-10 -3.255722E-10
        74  18 -3.273308E+05 -8.270365E+04 -4.534554E+04 -1.148960E+05 -3.141774E-09 -5.845879E-10
        74  19 -8.320447E+04  1.011151E+04  2.541372E+04 -4.877400E+04 -4.496527E+03  3.613852E+03
        74  20 -7.560893E+04  1.606014E+04  2.505311E+04 -4.349335E+04 -7.778139E+03  2.918352E+03
        74  21 -6.496983E+04  1.609780E+04  2.190503E+04 -4.257820E+04 -1.105311E+04  2.204792E+03
        74  22 -1.959486E+05 -3.182009E+04 -3.441343E+03 -7.929697E+04 -4.194916E+03  3.727111E+03
        74  23 -1.975744E+05 -2.960511E+04 -6.182233E+03 -7.683599E+04 -7.487278E+03  3.027614E+03
        74  24 -1.961589E+05 -3.330357E+04 -1.171951E+04 -7.874064E+04 -1.077294E+04  2.310080E+03
        74  25 -3.086804E+05 -7.375093E+04 -3.229744E+04 -1.098150E+05 -3.893365E+03  3.840347E+03
        74  26 -3.195251E+05 -7.526932E+04 -3.741872E+04 -1.101726E+05 -7.196481E+03  3.136853E+03
        74  27 -3.273307E+05 -8.270361E+04 -4.534533E+04 -1.148960E+05 -1.049284E+04  2.415343E+03
        75   1 -5.369246E+04  1.987019E+04  2.104890E+04 -4.363996E+04  1.341538E+04 -1.670612E+03
        75   2 -4.596696E+04  2.978001E+04  1.171008E+04 -3.441626E+04  2.725315E+04  3.026825E+03
        75   3 -4.352021E+04  1.535112E+04 -1.330079E+04 -2.503797E+04  4.098366E+04  8.011106E+03
        75   4 -1.971346E+05 -3.115572E+04 -1.521261E+04 -8.008379E+04  1.304848E+04 -1.808428E+03
        75   5 -1.957174E+05 -2.775081E+04 -2.691741E+04 -7.686254E+04  2.706324E+04  2.955296E+03
        75   6 -1.996164E+05 -4.872336E+04 -5.443753E+04 -7.348670E+04  4.097056E+04  8.005605E+03
        75   7 -3.405573E+05 -8.218102E+04 -5.147589E+04 -1.165204E+05  1.268166E+04 -1.946213E+03
        75   8 -3.454462E+05 -8.528001E+04 -6.554684E+04 -1.192995E+05  2.687339E+04  2.883787E+03
        75   9 -3.556887E+05 -1.127949E+05 -9.557637E+04 -1.219239E+05  4.095747E+04  8.000106E+03
        75  10 -5.369266E+04  1.987014E+04  2.104856E+04 -4.363994E+04 -8.179786E-10 -5.699164E-11
        75  11 -4.596776E+04  2.977981E+04  1.170867E+04 -3.441632E+04  5.205610E-10 -2.709089E-10
        75  12 -4.352203E+04  1.535060E+04 -1.330406E+04 -2.503823E+04 -2.251492E-09 -1.396083E-09
        75  13 -1.971348E+05 -3.115577E+04 -1.521293E+04 -8.008377E+04 -2.937891E-09 -1.301135E-09
        75  14 -1.957182E+05 -2.775102E+04 -2.691880E+04 -7.686261E+04 -9.529145E-10 -9.962139E-10
        75  15 -1.996182E+05 -4.872388E+04 -5.444080E+04 -7.348696E+04 -2.552197E-09 -7.083552E-10
        75  16 -3.405574E+05 -8.218106E+04 -5.147620E+04 -1.165203E+05 -3.074020E-09 -1.077007E-09
        75  17 -3.454470E+05 -8.528021E+04 -6.554821E+04 -1.192996E+05 -1.670767E-09  2.522926E-10
        75  18 -3.556906E+05 -1.127954E+05 -9.557964E+04 -1.219242E+05  1.170578E-09 -4.493466E-12
        75  19 -5.369246E+04  1.987019E+04  2.104890E+04 -4.363996E+04 -1.341538E+04  1.670612E+03
        75  20 -4.596696E+04  2.978001E+04  1.171008E+04 -3.441626E+04 -2.725315E+04 -3.026825E+03
        75  21 -4.352021E+04  1.535112E+04 -1.330079E+04 -2.503797E+04 -4.098366E+04 -8.011106E+03
        75  22 -1.971346E+05 -3.115572E+04 -1.521261E+04 -8.008379E+04 -1.304848E+04  1.808428E+03
        75  23 -1.957174E+05 -2.775081E+04 -2.691741E+04 -7.686254E+04 -2.706324E+04 -2.955296E+03
        75  24 -1.996164E+05 -4.872336E+04 -5.443753E+04 -7.348670E+04 -4.097056E+04 -8.005605E+03
        75  25 -3.405573E+05 -8.218102E+04 -5.147589E+04 -1.165204E+05 -1.268166E+04  1.946213E+03
        75  26 -3.454462E+05 -8.528001E+04 -6.554684E+04 -1.192995E+05 -2.687339E+04 -2.883787E+03
        75  27 -3.556887E+05 -1.127949E+05 -9.557637E+04 -1.219239E+05 -4.095747E+04 -8.000106E+03
        76   1 -1.747053E+04  1.969100E+04 -2.407416E+04 -6.546339E+04  5.204446E+04  1.113110E+04
        76   2 -1.474821E+04  7.561570E+04 -6.853258E+04 -9.825013E+03  1.111289E+05  3.339346E+04
        76   3 -1.017809E+05 -1.009323E+05 -2.195673E+05  1.004401E+05  1.683548E+05  6.060745E+04
        76   4 -2.083820E+05 -2.333002E+04 -6.755758E+04 -8.835468E+04  5.050943E+04  1.055704E+04
        76   5 -1.774877E+05 -7.970683E+03 -1.145110E+05 -7.763537E+04  1.126879E+05  3.397422E+04
        76   6 -2.369944E+05 -2.257458E+05 -2.705148E+05 -1.228004E+04  1.730100E+05  6.233233E+04
        76   7 -3.992565E+05 -6.635195E+04 -1.110428E+05 -1.112422E+05  4.897493E+04  9.982999E+03
        76   8 -3.401989E+05 -9.154709E+04 -1.604914E+05 -1.454269E+05  1.142465E+05  3.455467E+04
        76   9 -3.721748E+05 -3.505144E+05 -3.214614E+05 -1.249680E+05  1.776640E+05  6.405537E+04
        76  10 -1.747347E+04  1.969014E+04 -2.407949E+04 -6.546386E+04 -4.791672E-09 -7.054044E-10
        76  11 -1.476178E+04  7.561118E+04 -6.855788E+04 -9.828002E+03 -1.288922E-09 -9.974501E-10
        76  12 -1.018123E+05 -1.009438E+05 -2.196275E+05  1.004319E+05  2.364189E-10  1.767474E-10
        76  13 -2.083848E+05 -2.333083E+04 -6.756258E+04 -8.835511E+04  1.554764E-10 -1.133806E-09
        76  14 -1.775016E+05 -7.975333E+03 -1.145370E+05 -7.763845E+04  6.696964E-10  1.994519E-09
        76  15 -2.370276E+05 -2.257580E+05 -2.705784E+05 -1.228872E+04  2.200425E-09  9.647389E-10
        76  16 -3.992591E+05 -6.635270E+04 -1.110475E+05 -1.112425E+05 -1.811857E-09  1.220265E-09
        76  17 -3.402132E+05 -9.155188E+04 -1.605182E+05 -1.454301E+05  1.537758E-09  1.728809E-09
        76  18 -3.722098E+05 -3.505273E+05 -3.215284E+05 -1.249771E+05  8.820401E-10  4.145710E-10
        76  19 -1.747053E+04  1.969100E+04 -2.407416E+04 -6.546339E+04 -5.204446E+04 -1.113110E+04
        76  20 -1.474821E+04  7.561570E+04 -6.853258E+04 -9.825013E+03 -1.111289E+05 -3.339346E+04
        76  21 -1.017809E+05 -1.009323E+05 -2.195673E+05  1.004401E+05 -1.683548E+05 -6.060745E+04
        76  22 -2.083820E+05 -2.333002E+04 -6.755758E+04 -8.835468E+04 -5.050943E+04 -1.055704E+04
        76  23 -1.774877E+05 -7.970683E+03 -1.145110E+05 -7.763537E+04 -1.126879E+05 -3.397422E+04
        76  24 -2.369944E+05 -2.257458E+05 -2.705148E+05 -1.228004E+04 -1.730100E+05 -6.233233E+04
        76  25 -3.992565E+05 -6.635195E+04 -1.110428E+05 -1.112422E+05 -4.897493E+04 -9.982999E+03
        76  26 -3.401989E+05 -9.154709E+04 -1.604914E+05 -1.454269E+05 -1.142465E+05 -3.455467E+04
        76  27 -3.721748E+05 -3.505144E+05 -3.214614E+05 -1.249680E+05 -1.776640E+05 -6.405537E+04
        77   1  2.183143E+05  2.075471E+06  2.174721E+05 -3.961379E+04  9.337659E+03  1.032362E+05
        77   2  1.607854E+05  2.070716E+06  1.544028E+05 -1.720300E+04  3.238675E+04  5.903941E+04
        77   3  1.468900E+05  2.082636E+06  1.309631E+05  7.011469E+03  4.139010E+04  1.484509E+04
        77   4  6.847550E+04  1.466495E+06  7.603879E+04  3.805784E+03  9.346773E+03  5.112116E+04
        77   5  1.576735E+04  1.460282E+06  3.854552E+04  2.896536E+03  3.239501E+04  3.127169E+04
        77   6  2.495198E+03  1.466540E+06  2.382282E+04  3.791709E+03  4.139449E+04  1.142348E+04
        77   7 -8.138084E+04  8.578703E+05 -6.540827E+04  4.718259E+04  9.348625E+03 -9.432495E+02
        77   8 -1.292706E+05  8.502098E+05 -7.732527E+04  2.297591E+04  3.240147E+04  3.530528E+03
        77   9 -1.419200E+05  8.508139E+05 -8.333080E+04  5.752520E+02  4.139891E+04  8.005141E+03
        77  10  2.183113E+05  2.075460E+06  2.174520E+05 -3.961456E+04 -2.277049E-10  1.328961E-09
        77  11  1.607834E+05  2.070712E+06  1.543943E+05 -1.720454E+04  2.276904E-09 -1.103108E-09
        77  12  1.468881E+05  2.082635E+06  1.309595E+05  7.010974E+03 -1.574497E-09 -3.586114E-09
        77  13  6.847471E+04  1.466493E+06  7.603373E+04  3.805399E+03 -8.610007E-10 -9.235411E-12
        77  14  1.576596E+04  1.460281E+06  3.854172E+04  2.895721E+03  5.560357E-10  2.088925E-11
        77  15  2.493322E+03  1.466539E+06  2.381935E+04  3.791328E+03 -4.983142E-11  2.860866E-10
        77  16 -8.138093E+04  8.578703E+05 -6.540844E+04  4.718260E+04  8.560350E-10 -1.472253E-09
        77  17 -1.292717E+05  8.502095E+05 -7.732727E+04  2.297581E+04  1.220579E-09  1.101206E-09
        77  18 -1.419218E+05  8.508134E+05 -8.333414E+04  5.749851E+02 -1.637920E-10  3.148400E-09
        77  19  2.183143E+05  2.075471E+06  2.174721E+05 -3.961379E+04 -9.337659E+03 -1.032362E+05
        77  20  1.607854E+05  2.070716E+06  1.544028E+05 -1.720300E+04 -3.238675E+04 -5.903941E+04
        77  21  1.468900E+05  2.082636E+06  1.309631E+05  7.011469E+03 -4.139010E+04 -1.484509E+04
        77  22  6.847550E+04  1.466495E+06  7.603879E+04  3.805784E+03 -9.346773E+03 -5.112116E+04
        77  23  1.576735E+04  1.460282E+06  3.854552E+04  2.896536E+03 -3.239501E+04 -3.127169E+04
        77  24  2.495198E+03  1.466540E+06  2.382282E+04  3.791709E+03 -4.139449E+04 -1.142348E+04
        77  25 -8.138084E+04  8.578703E+05 -6.540827E+04  4.718259E+04 -9.348625E+03  9.432495E+02
        77  26 -1.292706E+05  8.502098E+05 -7.732527E+04  2.297591E+04 -3.240147E+04 -3.530528E+03
        77  27 -1.419200E+05  8.508139E+05 -8.333080E+04  5.752520E+02 -4.139891E+04 -8.005141E+03
        78   1  1.478147E+05  2.082222E+06  1.268299E+05  1.535627E+03  4.231568E+04  1.302912E+04
        78   2  1.462538E+05  2.084757E+06  1.230264E+05  2.972188E+03  4.387136E+04 -1.787591E+02
        78   3  1.499756E+05  2.090365E+06  1.291332E+05  5.306856E+03  4.279186E+04 -1.338773E+04
        78   4  3.162444E+03  1.464272E+06  2.026791E+04  3.591192E+03  4.232099E+04  8.052785E+03
        78   5  1.034779E+03  1.463129E+06  1.729301E+04  3.141872E+03  4.387548E+04 -5.813336E+02
        78   6  3.400505E+03  1.464270E+06  2.106396E+04  3.590702E+03  4.279355E+04 -9.216462E+03
        78   7 -1.415102E+05  8.466959E+05 -8.630710E+04  5.644680E+03  4.232627E+04  3.081236E+03
        78   8 -1.442047E+05  8.418801E+05 -8.845310E+04  3.311418E+03  4.387960E+04 -9.835187E+02
        78   9 -1.431956E+05  8.385582E+05 -8.701871E+04  1.876375E+03  4.279522E+04 -5.049257E+03
        78  10  1.478127E+05  2.082221E+06  1.268262E+05  1.535183E+03 -1.283378E-09  2.406650E-09
        78  11  1.462518E+05  2.084756E+06  1.230228E+05  2.972195E+03 -4.541721E-10 -5.785410E-10
        78  12  1.499736E+05  2.090364E+06  1.291294E+05  5.307317E+03 -1.765539E-09 -3.444059E-09
        78  13  3.160502E+03  1.464271E+06  2.026442E+04  3.590918E+03  7.573208E-10  2.353486E-10
        78  14  1.032710E+03  1.463128E+06  1.728939E+04  3.141892E+03  7.965932E-10 -1.999288E-10
        78  15  3.398515E+03  1.464269E+06  2.106036E+04  3.591020E+03 -1.973774E-09  7.129328E-10
        78  16 -1.415122E+05  8.466955E+05 -8.631048E+04  5.644575E+03  3.185661E-10 -2.571998E-09
        78  17 -1.442068E+05  8.418796E+05 -8.845673E+04  3.311452E+03  3.048094E-09  6.061344E-10
        78  18 -1.431976E+05  8.385577E+05 -8.702220E+04  1.876549E+03  1.409463E-10  2.622467E-09
        78  19  1.478147E+05  2.082222E+06  1.268299E+05  1.535627E+03 -4.231568E+04 -1.302912E+04
        78  20  1.462538E+05  2.084757E+06  1.230264E+05  2.972188E+03 -4.387136E+04  1.787591E+02
        78  21  1.499756E+05  2.090365E+06  1.291332E+05  5.306856E+03 -4.279186E+04  1.338773E+04
        78  22  3.162444E+03  1.464272E+06  2.026791E+04  3.591192E+03 -4.232099E+04 -8.052785E+03
        78  23  1.034779E+03  1.463129E+06  1.729301E+04  3.141872E+03 -4.387548E+04  5.813336E+02
        78  24  3.400505E+03  1.464270E+06  2.106396E+04  3.590702E+03 -4.279355E+04  9.216462E+03
        78  25 -1.415102E+05  8.466959E+05 -8.630710E+04  5.644680E+03 -4.232627E+04 -3.081236E+03
        78  26 -1.442047E+05  8.418801E+05 -8.845310E+04  3.311418E+03 -4.387960E+04  9.835187E+02
        78  27 -1.431956E+05  8.385582E+05 -8.701871E+04  1.876375E+03 -4.279522E+04  5.049257E+03
        79   1  1.502547E+05  2.096289E+06  1.346940E+05 -5.229950E+02  4.218127E+04 -1.527986E+04
        79   2  1.670777E+05  2.091998E+06  1.613556E+05  2.456596E+04  3.335262E+04 -6.211271E+04
        79   3  2.306617E+05  2.105507E+06  2.301378E+05  4.962820E+04  9.741480E+03 -1.089614E+05
        79   4  2.671952E+03  1.466737E+06  2.507268E+04  3.378190E+03  4.218346E+04 -1.273133E+04
        79   5  1.693746E+04  1.460025E+06  4.116390E+04  3.414280E+03  3.333778E+04 -3.393983E+04
        79   6  7.354748E+04  1.466686E+06  8.163259E+04  3.422657E+03  9.706489E+03 -5.516221E+04
        79   7 -1.449321E+05  8.375732E+05 -8.456265E+04  7.275365E+03  4.218568E+04 -1.018530E+04
        79   8 -1.332240E+05  8.284377E+05 -7.904247E+04 -1.771535E+04  3.332102E+04 -5.794851E+03
        79   9 -8.358589E+04  8.282514E+05 -6.688804E+04 -4.273509E+04  9.663496E+03 -1.417833E+03
        79  10  1.502527E+05  2.096288E+06  1.346903E+05 -5.224764E+02 -1.397161E-09  2.737126E-09
        79  11  1.670755E+05  2.091994E+06  1.613462E+05  2.456762E+04  2.545607E-09 -4.614688E-10
        79  12  2.306584E+05  2.105495E+06  2.301153E+05  4.962905E+04  1.399463E-11 -3.419007E-09
        79  13  2.669996E+03  1.466737E+06  2.506903E+04  3.378622E+03 -2.044226E-09  5.274200E-10
        79  14  1.693596E+04  1.460023E+06  4.115965E+04  3.415190E+03  2.207476E-09  6.816218E-11
        79  15  7.354656E+04  1.466683E+06  8.162671E+04  3.423088E+03  9.454126E-10  1.055665E-09
        79  16 -1.449340E+05  8.375726E+05 -8.456619E+04  7.275711E+03  2.607620E-10 -3.100757E-09
        79  17 -1.332252E+05  8.284373E+05 -7.904462E+04 -1.771520E+04  6.845736E-10  7.403158E-10
        79  18 -8.358599E+04  8.282514E+05 -6.688822E+04 -4.273508E+04  9.599199E-10  2.066239E-09
        79  19  1.502547E+05  2.096289E+06  1.346940E+05 -5.229950E+02 -4.218127E+04  1.527986E+04
        79  20  1.670777E+05  2.091998E+06  1.613556E+05  2.456596E+04 -3.335262E+04  6.211271E+04
        79  21  2.306617E+05  2.105507E+06  2.301378E+05  4.962820E+04 -9.741480E+03  1.089614E+05
        79  22  2.671952E+03  1.466737E+06  2.507268E+04  3.378190E+03 -4.218346E+04  1.273133E+04
        79  23  1.693746E+04  1.460025E+06  4.116390E+04  3.414280E+03 -3.333778E+04  3.393983E+04
        79  24  7.354748E+04  1.466686E+06  8.163259E+04  3.422657E+03 -9.706489E+03  5.516221E+04
        79  25 -1.449321E+05  8.375732E+05 -8.456265E+04  7.275365E+03 -4.218568E+04  1.018530E+04
        79  26 -1.332240E+05  8.284377E+05 -7.904247E+04 -1.771535E+04 -3.332102E+04  5.794851E+03
        79  27 -8.358589E+04  8.282514E+05 -6.688804E+04 -4.273509E+04 -9.663496E+03  1.417833E+03
        80   1 -2.260439E+06 -4.501126E+05 -4.034172E+05 -5.525551E+04  6.942509E+04  2.842967E+04
        80   2 -2.091086E+06 -5.618393E+05 -4.339069E+05 -4.066274E+04  6.464027E+04  8.648448E+04
        80   3 -1.876071E+06 -5.098911E+05 -4.196337E+05 -1.320980E+05  6.010255E+04  8.491237E+04
        80   4  1.523665E+05  1.507665E+05  1.881076E+05 -1.069940E+05  1.286646E+05  2.866880E+04
        80   5  1.262592E+05 -1.451425E+04  8.330867E+04 -5.369359E+04  8.379069E+04  8.652478E+04
        80   6  1.525838E+05 -9.470207E+03  5.098919E+04 -1.063897E+05  3.916766E+04  8.484802E+04
        80   7  2.570501E+06  7.512271E+05  7.792207E+05 -1.589397E+05  1.881338E+05  2.889760E+04
        80   8  2.348150E+06  5.324637E+05  6.001928E+05 -6.677498E+04  1.030088E+05  8.656421E+04
        80   9  2.185048E+06  4.906631E+05  5.213378E+05 -8.059838E+04  1.816453E+04  8.478204E+04
        80  10 -2.260444E+06 -4.501148E+05 -4.034278E+05 -5.525710E+04 -1.683092E-09  5.648441E-10
        80  11 -2.091092E+06 -5.618485E+05 -4.339289E+05 -4.066724E+04  3.553711E-09  1.280241E-09
        80  12 -1.876076E+06 -5.098998E+05 -4.196541E+05 -1.321021E+05  6.794034E-09  1.139473E-09
        80  13  1.523485E+05  1.507611E+05  1.880750E+05 -1.069969E+05 -2.150782E-09  4.268590E-10
        80  14  1.262496E+05 -1.452418E+04  8.328141E+04 -5.369943E+04  1.145327E-09  1.374712E-09
        80  15  1.525802E+05 -9.478351E+03  5.097278E+04 -1.063924E+05  2.291086E-09  1.243339E-09
        80  16  2.570463E+06  7.512168E+05  7.791529E+05 -1.589440E+05 -4.769863E-10  3.514702E-10
        80  17  2.348136E+06  5.324528E+05  6.001588E+05 -6.678215E+04 -2.344870E-09  1.135591E-09
        80  18  2.185046E+06  4.906553E+05  5.213236E+05 -8.059962E+04 -5.017990E-09  1.075337E-09
        80  19 -2.260439E+06 -4.501126E+05 -4.034172E+05 -5.525551E+04 -6.942509E+04 -2.842967E+04
        80  20 -2.091086E+06 -5.618393E+05 -4.339069E+05 -4.066274E+04 -6.464027E+04 -8.648448E+04
        80  21 -1.876071E+06 -5.098911E+05 -4.196337E+05 -1.320980E+05 -6.010255E+04 -8.491237E+04
        80  22  1.523665E+05  1.507665E+05  1.881076E+05 -1.069940E+05 -1.286646E+05 -2.866880E+04
        80  23  1.262592E+05 -1.451425E+04  8.330867E+04 -5.369359E+04 -8.379069E+04 -8.652478E+04
        80  24  1.525838E+05 -9.470207E+03  5.098919E+04 -1.063897E+05 -3.916766E+04 -8.484802E+04
        80  25  2.570501E+06  7.512271E+05  7.792207E+05 -1.589397E+05 -1.881338E+05 -2.889760E+04
        80  26  2.348150E+06  5.324637E+05  6.001928E+05 -6.677498E+04 -1.030088E+05 -8.656421E+04
        80  27  2.185048E+06  4.906631E+05  5.213378E+05 -8.059838E+04 -1.816453E+04 -8.478204E+04
        81   1 -1.692029E+06 -4.415293E+05 -3.864231E+05 -1.052739E+05  3.413508E+04  7.219962E+04
        81   2 -1.504645E+06 -4.073725E+05 -3.607509E+05 -5.367021E+04  2.541906E+04  6.667424E+04
        81   3 -1.310632E+06 -3.595858E+05 -3.255389E+05 -1.090865E+05  1.668253E+04  5.800711E+04
        81   4  1.426638E+05  1.125372E+04  4.111411E+04 -1.067909E+05  3.155620E+04  7.218025E+04
        81   5  1.392679E+05 -1.881544E+03  2.140916E+04 -5.328121E+04  2.070416E+04  6.665708E+04
        81   6  1.428238E+05 -1.033612E+03  1.270860E+04 -1.067735E+05  9.834272E+03  5.799599E+04
        81   7  1.980467E+06  4.637986E+05  4.684237E+05 -1.083135E+05  2.896963E+04  7.216093E+04
        81   8  1.785679E+06  4.034187E+05  4.033873E+05 -5.289172E+04  1.597679E+04  6.663995E+04
        81   9  1.598232E+06  3.573694E+05  3.508137E+05 -1.044550E+05  2.970050E+03  5.798483E+04
        81  10 -1.692031E+06 -4.415352E+05 -3.864351E+05 -1.052759E+05 -4.767144E-09  3.371882E-10
        81  11 -1.504646E+06 -4.073775E+05 -3.607605E+05 -5.367158E+04 -1.000502E-09 -6.783595E-10
        81  12 -1.310634E+06 -3.595895E+05 -3.255457E+05 -1.090873E+05  1.608991E-09 -7.021831E-10
        81  13  1.426613E+05  1.124786E+04  4.110245E+04 -1.067927E+05 -1.074323E-09  1.385883E-10
        81  14  1.392663E+05 -1.886430E+03  2.140001E+04 -5.328232E+04 -1.247431E-09 -5.592173E-10
        81  15  1.428228E+05 -1.037251E+03  1.270210E+04 -1.067740E+05  7.791974E-10 -8.518187E-10
        81  16  1.980464E+06  4.637928E+05  4.684123E+05 -1.083152E+05  5.868624E-09  5.653843E-10
        81  17  1.785677E+06  4.034138E+05  4.033785E+05 -5.289258E+04  4.550874E-09 -7.251908E-10
        81  18  1.598231E+06  3.573658E+05  3.508073E+05 -1.044551E+05 -3.205884E-09 -7.847946E-10
        81  19 -1.692029E+06 -4.415293E+05 -3.864231E+05 -1.052739E+05 -3.413508E+04 -7.219962E+04
        81  20 -1.504645E+06 -4.073725E+05 -3.607509E+05 -5.367021E+04 -2.541906E+04 -6.667424E+04
        81  21 -1.310632E+06 -3.595858E+05 -3.255389E+05 -1.090865E+05 -1.668253E+04 -5.800711E+04
        81  22  1.426638E+05  1.125372E+04  4.111411E+04 -1.067909E+05 -3.155620E+04 -7.218025E+04
        81  23  1.392679E+05 -1.881544E+03  2.140916E+04 -5.328121E+04 -2.070416E+04 -6.665708E+04
        81  24  1.428238E+05 -1.033612E+03  1.270860E+04 -1.067735E+05 -9.834272E+03 -5.799599E+04
        81  25  1.980467E+06  4.637986E+05  4.684237E+05 -1.083135E+05 -2.896963E+04 -7.216093E+04
        81  26  1.785679E+06  4.034187E+05  4.033873E+05 -5.289172E+04 -1.597679E+04 -6.663995E+04
        81  27  1.598232E+06  3.573694E+05  3.508137E+05 -1.044550E+05 -2.970050E+03 -5.798483E+04
        82   1 -1.118893E+06 -3.101790E+05 -2.826339E+05 -1.066128E+05  1.372079E+04  5.235040E+04
        82   2 -9.293202E+05 -2.642427E+05 -2.432514E+05 -5.302537E+04  1.112074E+04  4.350314E+04
        82   3 -7.384347E+05 -2.170502E+05 -2.017244E+05 -1.062377E+05  8.503801E+03  3.449640E+04
        82   4  1.416999E+05  5.788280E+02  9.799235E+03 -1.067306E+05  7.847147E+03  5.234358E+04
        82   5  1.411015E+05 -3.130184E+02  5.449067E+03 -5.333642E+04  5.134274E+03  4.350113E+04
        82   6  1.418034E+05  7.279829E+01  3.320899E+03 -1.067307E+05  2.405294E+03  3.449947E+04
        82   7  1.403762E+06  3.112247E+05  3.021258E+05 -1.068485E+05  1.961639E+03  5.233677E+04
        82   8  1.212582E+06  2.635358E+05  2.540725E+05 -5.364784E+04 -8.624608E+02  4.349913E+04
        82   9  1.022757E+06  2.171410E+05  2.083140E+05 -1.072242E+05 -3.701810E+03  3.450254E+04
        82  10 -1.118894E+06 -3.101820E+05 -2.826394E+05 -1.066133E+05  6.511672E-09  6.325632E-10
        82  11 -9.293208E+05 -2.642447E+05 -2.432552E+05 -5.302576E+04 -1.031754E-09  1.800994E-09
        82  12 -7.384351E+05 -2.170515E+05 -2.017268E+05 -1.062380E+05 -7.446374E-09  3.048576E-10
        82  13  1.416991E+05  5.758690E+02  9.793970E+03 -1.067309E+05  2.153244E-09  2.835453E-10
        82  14  1.411009E+05 -3.150576E+02  5.445461E+03 -5.333660E+04 -3.186507E-09  1.658171E-09
        82  15  1.418031E+05  7.151855E+01  3.318652E+03 -1.067308E+05 -1.396589E-09  1.913851E-10
        82  16  1.403761E+06  3.112218E+05  3.021207E+05 -1.068486E+05 -6.500198E-09  2.715271E-10
        82  17  1.212581E+06  2.635338E+05  2.540690E+05 -5.364780E+04  2.042950E-10  1.504856E-09
        82  18  1.022757E+06  2.171397E+05  2.083117E+05 -1.072241E+05  5.520345E-09  1.056286E-10
        82  19 -1.118893E+06 -3.101790E+05 -2.826339E+05 -1.066128E+05 -1.372079E+04 -5.235040E+04
        82  20 -9.293202E+05 -2.642427E+05 -2.432514E+05 -5.302537E+04 -1.112074E+04 -4.350314E+04
        82  21 -7.384347E+05 -2.170502E+05 -2.017244E+05 -1.062377E+05 -8.503801E+03 -3.449640E+04
        82  22  1.416999E+05  5.788280E+02  9.799235E+03 -1.067306E+05 -7.847147E+03 -5.234358E+04
        82  23  1.411015E+05 -3.130184E+02  5.449067E+03 -5.333642E+04 -5.134274E+03 -4.350113E+04
        82  24  1.418034E+05  7.279829E+01  3.320899E+03 -1.067307E+05 -2.405294E+03 -3.449947E+04
        82  25  1.403762E+06  3.112247E+05  3.021258E+05 -1.068485E+05 -1.961639E+03 -5.233677E+04
        82  26  1.212582E+06  2.635358E+05  2.540725E+05 -5.364784E+04  8.624608E+02 -4.349913E+04
        82  27  1.022757E+06  2.171410E+05  2.083140E+05 -1.072242E+05  3.701810E+03 -3.450254E+04
        83   1 -5.461189E+05 -1.692463E+05 -1.566001E+05 -1.061334E+05  7.910233E+03  2.922537E+04
        83   2 -3.561418E+05 -1.226057E+05 -1.139202E+05 -5.289545E+04  7.073057E+03  2.021997E+04
        83   3 -1.661213E+05 -7.562153E+04 -7.065425E+04 -1.063060E+05  6.228087E+03  1.120928E+04
        83   4  1.415922E+05  1.684629E+02  2.581360E+03 -1.066984E+05  1.864688E+03  2.923074E+04
        83   5  1.416124E+05  8.127428E+01  1.685388E+03 -5.337669E+04  1.022274E+03  2.022757E+04
        83   6  1.416402E+05  3.400812E+02  1.379624E+03 -1.066982E+05  1.723165E+02  1.121924E+04
        83   7  8.297407E+05  1.695500E+05  1.617313E+05 -1.072639E+05 -4.187509E+03  2.923612E+04
        83   8  6.395955E+05  1.227508E+05  1.172745E+05 -5.385824E+04 -5.033329E+03  2.023517E+04
        83   9  4.494891E+05  7.629499E+04  7.340718E+04 -1.070906E+05 -5.886437E+03  1.122921E+04
        83  10 -5.461192E+05 -1.692472E+05 -1.566018E+05 -1.061336E+05 -1.913668E-09 -9.244726E-10
        83  11 -3.561419E+05 -1.226061E+05 -1.139211E+05 -5.289556E+04 -3.835644E-09 -6.854046E-10
        83  12 -1.661214E+05 -7.562168E+04 -7.065456E+04 -1.063061E+05 -3.966872E-10  3.231834E-10
        83  13  1.415920E+05  1.675444E+02  2.579748E+03 -1.066984E+05 -1.067239E-09 -1.016339E-09
        83  14  1.416123E+05  8.083461E+01  1.684617E+03 -5.337671E+04  7.046304E-10  1.343342E-10
        83  15  1.416402E+05  3.399461E+02  1.379387E+03 -1.066982E+05 -1.415463E-09  6.146362E-10
        83  16  8.297404E+05  1.695491E+05  1.617297E+05 -1.072638E+05 -2.458964E-10 -9.263834E-10
        83  17  6.395954E+05  1.227503E+05  1.172736E+05 -5.385815E+04 -5.099413E-10 -5.452205E-10
        83  18  4.494890E+05  7.629485E+04  7.340688E+04 -1.070906E+05  5.154151E-10  1.928937E-10
        83  19 -5.461189E+05 -1.692463E+05 -1.566001E+05 -1.061334E+05 -7.910233E+03 -2.922537E+04
        83  20 -3.561418E+05 -1.226057E+05 -1.139202E+05 -5.289545E+04 -7.073057E+03 -2.021997E+04
        83  21 -1.661213E+05 -7.562153E+04 -7.065425E+04 -1.063060E+05 -6.228087E+03 -1.120928E+04
        83  22  1.415922E+05  1.684629E+02  2.581360E+03 -1.066984E+05 -1.864688E+03 -2.923074E+04
        83  23  1.416124E+05  8.127428E+01  1.685388E+03 -5.337669E+04 -1.022274E+03 -2.022757E+04
        83  24  1.416402E+05  3.400812E+02  1.379624E+03 -1.066982E+05 -1.723165E+02 -1.121924E+04
        83  25  8.297407E+05  1.695500E+05  1.617313E+05 -1.072639E+05  4.187509E+03 -2.923612E+04
        83  26  6.395955E+05  1.227508E+05  1.172745E+05 -5.385824E+04  5.033329E+03 -2.023517E+04
        83  27  4.494891E+05  7.629499E+04  7.340718E+04 -1.070906E+05  5.886437E+03 -1.122921E+04
        84   1  2.628504E+04 -2.797417E+04 -2.485338E+04 -1.065435E+05  5.967759E+03  5.964072E+03
        84   2  2.163641E+05  1.855276E+04  1.900094E+04 -5.345683E+04  5.124281E+03 -3.041335E+03
        84   3  4.062718E+05  6.545504E+04  6.340132E+04 -1.069628E+05  4.281689E+03 -1.204036E+04
        84   4  1.416134E+05  3.328878E+02  1.362256E+03 -1.066872E+05 -8.773894E+01  5.974672E+03
        84   5  1.417125E+05  1.589275E+02  1.668584E+03 -5.339047E+04 -9.277022E+02 -3.031152E+03
        84   6  1.416062E+05  3.621113E+02  2.520376E+03 -1.066871E+05 -1.766529E+03 -1.203046E+04
        84   7  2.569542E+05  2.863904E+04  2.757717E+04 -1.068309E+05 -6.144352E+03  5.985274E+03
        84   8  6.706607E+04 -1.823528E+04 -1.566400E+04 -5.332411E+04 -6.978963E+03 -3.020970E+03
        84   9 -1.229946E+05 -6.473569E+04 -5.836506E+04 -1.064115E+05 -7.812190E+03 -1.202056E+04
        84  10  2.628499E+04 -2.797421E+04 -2.485351E+04 -1.065436E+05  2.190479E-10  5.812187E-10
        84  11  2.163640E+05  1.855274E+04  1.900087E+04 -5.345682E+04  5.973897E-10 -2.583656E-10
        84  12  4.062718E+05  6.545488E+04  6.340101E+04 -1.069628E+05  4.913561E-10 -2.085386E-10
        84  13  1.416134E+05  3.328495E+02  1.362189E+03 -1.066872E+05 -1.172990E-11  1.000529E-09
        84  14  1.417125E+05  1.589174E+02  1.668565E+03 -5.339047E+04 -1.415823E-09  9.698488E-11
        84  15  1.416061E+05  3.619551E+02  2.520098E+03 -1.066872E+05 -3.437954E-10 -9.023536E-11
        84  16  2.569542E+05  2.863899E+04  2.757703E+04 -1.068309E+05  3.177636E-10  3.439741E-10
        84  17  6.706602E+04 -1.823530E+04 -1.566411E+04 -5.332412E+04  1.774210E-09  2.910576E-10
        84  18 -1.229947E+05 -6.473586E+04 -5.836545E+04 -1.064116E+05  8.325050E-10 -7.253579E-10
        84  19  2.628504E+04 -2.797417E+04 -2.485338E+04 -1.065435E+05 -5.967759E+03 -5.964072E+03
        84  20  2.163641E+05  1.855276E+04  1.900094E+04 -5.345683E+04 -5.124281E+03  3.041335E+03
        84  21  4.062718E+05  6.545504E+04  6.340132E+04 -1.069628E+05 -4.281689E+03  1.204036E+04
        84  22  1.416134E+05  3.328878E+02  1.362256E+03 -1.066872E+05  8.773894E+01 -5.974672E+03
        84  23  1.417125E+05  1.589275E+02  1.668584E+03 -5.339047E+04  9.277022E+02  3.031152E+03
        84  24  1.416062E+05  3.621113E+02  2.520376E+03 -1.066871E+05  1.766529E+03  1.203046E+04
        84  25  2.569542E+05  2.863904E+04  2.757717E+04 -1.068309E+05  6.144352E+03 -5.985274E+03
        84  26  6.706607E+04 -1.823528E+04 -1.566400E+04 -5.332411E+04  6.978963E+03  3.020970E+03
        84  27 -1.229946E+05 -6.473569E+04 -5.836506E+04 -1.064115E+05  7.812190E+03  1.202056E+04
        85   1  5.989924E+05  1.130010E+05  1.099048E+05 -1.070593E+05  3.799219E+03 -1.729965E+04
        85   2  7.888466E+05  1.593950E+05  1.555998E+05 -5.390328E+04  1.036556E+03 -2.628922E+04
        85   3  9.793952E+05  2.071435E+05  2.034121E+05 -1.074123E+05 -1.717029E+03 -3.514471E+04
        85   4  1.417610E+05  2.556341E+02  3.212597E+03 -1.067049E+05 -2.293654E+03 -1.729077E+04
        85   5  1.414053E+05 -7.711421E+01  5.329494E+03 -5.336852E+04 -4.964373E+03 -2.628351E+04
        85   6  1.416984E+05  9.327377E+02  9.504225E+03 -1.067040E+05 -7.625187E+03 -3.514197E+04
        85   7 -3.152777E+05 -1.125045E+05 -1.034937E+05 -1.063507E+05 -8.382072E+03 -1.728188E+04
        85   8 -5.056492E+05 -1.595787E+05 -1.449689E+05 -5.283419E+04 -1.095909E+04 -2.627780E+04
        85   9 -6.953506E+05 -2.053273E+05 -1.844504E+05 -1.059964E+05 -1.352544E+04 -3.513924E+04
        85  10  5.989923E+05  1.130007E+05  1.099042E+05 -1.070593E+05 -8.758990E-10 -5.394672E-10
        85  11  7.888464E+05  1.593942E+05  1.555985E+05 -5.390326E+04 -6.428737E-10 -5.494683E-10
        85  12  9.793948E+05  2.071422E+05  2.034098E+05 -1.074123E+05  6.312970E-10 -5.899622E-10
        85  13  1.417609E+05  2.553117E+02  3.212025E+03 -1.067050E+05  1.093173E-09 -9.145184E-10
        85  14  1.414051E+05 -7.786271E+01  5.328150E+03 -5.336862E+04  1.238480E-09 -7.081899E-10
        85  15  1.416980E+05  9.313959E+02  9.501794E+03 -1.067042E+05  1.172342E-09 -9.075340E-10
        85  16 -3.152779E+05 -1.125048E+05 -1.034943E+05 -1.063508E+05  1.415710E-09 -6.092297E-10
        85  17 -5.056495E+05 -1.595795E+05 -1.449704E+05 -5.283442E+04  1.398056E-09 -4.690745E-10
        85  18 -6.953512E+05 -2.053287E+05 -1.844531E+05 -1.059968E+05 -6.092519E-10 -5.090280E-10
        85  19  5.989924E+05  1.130010E+05  1.099048E+05 -1.070593E+05 -3.799219E+03  1.729965E+04
        85  20  7.888466E+05  1.593950E+05  1.555998E+05 -5.390328E+04 -1.036556E+03  2.628922E+04
        85  21  9.793952E+05  2.071435E+05  2.034121E+05 -1.074123E+05  1.717029E+03  3.514471E+04
        85  22  1.417610E+05  2.556341E+02  3.212597E+03 -1.067049E+05  2.293654E+03  1.729077E+04
        85  23  1.414053E+05 -7.711421E+01  5.329494E+03 -5.336852E+04  4.964373E+03  2.628351E+04
        85  24  1.416984E+05  9.327377E+02  9.504225E+03 -1.067040E+05  7.625187E+03  3.514197E+04
        85  25 -3.152777E+05 -1.125045E+05 -1.034937E+05 -1.063507E+05  8.382072E+03  1.728188E+04
        85  26 -5.056492E+05 -1.595787E+05 -1.449689E+05 -5.283419E+04  1.095909E+04  2.627780E+04
        85  27 -6.953506E+05 -2.053273E+05 -1.844504E+05 -1.059964E+05  1.352544E+04  3.513924E+04
        86   1  1.173386E+06  2.532537E+05  2.519475E+05 -1.053604E+05 -2.834433E+03 -4.071698E+04
        86   2  1.361005E+06  2.992479E+05  3.042346E+05 -5.442202E+04 -1.518482E+04 -4.940757E+04
        86   3  1.554696E+06  3.592330E+05  3.682384E+05 -1.102411E+05 -2.752272E+04 -5.549320E+04
        86   4  1.427390E+05 -6.408930E+02  1.230379E+04 -1.067264E+05 -9.554506E+03 -4.071641E+04
        86   5  1.398102E+05 -1.455627E+03  2.082838E+04 -5.334197E+04 -2.013297E+04 -4.941338E+04
        86   6  1.426202E+05  1.143039E+04  3.985774E+04 -1.067272E+05 -3.069518E+04 -5.550305E+04
        86   7 -8.869285E+05 -2.546103E+05 -2.274114E+05 -1.080899E+05 -1.626351E+04 -4.071582E+04
        86   8 -1.080010E+06 -3.022641E+05 -2.626779E+05 -5.226395E+04 -2.507144E+04 -4.941921E+04
        86   9 -1.267619E+06 -3.365128E+05 -2.886573E+05 -1.032214E+05 -3.386042E+04 -5.551295E+04
        86  10  1.173385E+06  2.532519E+05  2.519444E+05 -1.053605E+05 -6.863882E-10 -1.870573E-10
        86  11  1.361005E+06  2.992452E+05  3.042296E+05 -5.442263E+04 -1.443455E-09  5.030236E-10
        86  12  1.554695E+06  3.592294E+05  3.682312E+05 -1.102423E+05 -2.516834E-10 -5.334046E-10
        86  13  1.427384E+05 -6.426979E+02  1.230050E+04 -1.067268E+05 -2.188781E-11 -7.448049E-11
        86  14  1.398091E+05 -1.458358E+03  2.082303E+04 -5.334278E+04 -1.070261E-09  5.355399E-10
        86  15  1.426184E+05  1.142682E+04  3.985017E+04 -1.067286E+05 -1.511218E-09 -3.628760E-10
        86  16 -8.869293E+05 -2.546122E+05 -2.274150E+05 -1.080904E+05 -9.248098E-10 -2.825838E-10
        86  17 -1.080011E+06 -3.022669E+05 -2.626837E+05 -5.226495E+04  1.091249E-09  8.598157E-10
        86  18 -1.267621E+06 -3.365164E+05 -2.886653E+05 -1.032229E+05 -2.981614E-09  1.064420E-10
        86  19  1.173386E+06  2.532537E+05  2.519475E+05 -1.053604E+05  2.834433E+03  4.071698E+04
        86  20  1.361005E+06  2.992479E+05  3.042346E+05 -5.442202E+04  1.518482E+04  4.940757E+04
        86  21  1.554696E+06  3.592330E+05  3.682384E+05 -1.102411E+05  2.752272E+04  5.549320E+04
        86  22  1.427390E+05 -6.408930E+02  1.230379E+04 -1.067264E+05  9.554506E+03  4.071641E+04
        86  23  1.398102E+05 -1.455627E+03  2.082838E+04 -5.334197E+04  2.013297E+04  4.941338E+04
        86  24  1.426202E+05  1.143039E+04  3.985774E+04 -1.067272E+05  3.069518E+04  5.550305E+04
        86  25 -8.869285E+05 -2.546103E+05 -2.274114E+05 -1.080899E+05  1.626351E+04  4.071582E+04
        86  26 -1.080010E+06 -3.022641E+05 -2.626779E+05 -5.226395E+04  2.507144E+04  4.941921E+04
        86  27 -1.267619E+06 -3.365128E+05 -2.886573E+05 -1.032214E+05  3.386042E+04  5.551295E+04
        87   1  1.758303E+06  3.866295E+05  4.212419E+05 -8.392716E+04 -1.963325E+04 -6.686589E+04
        87   2  1.922647E+06  4.285635E+05  4.986712E+05 -6.959015E+04 -9.632069E+04 -6.975244E+04
        87   3  2.142066E+06  6.410864E+05  6.690827E+05 -1.610193E+05 -1.731472E+05 -2.328005E+04
        87   4  1.521791E+05 -8.639219E+03  4.941626E+04 -1.064234E+05 -3.808471E+04 -6.689050E+04
        87   5  1.273881E+05 -1.354682E+04  8.088411E+04 -5.369025E+04 -8.140606E+04 -6.974543E+04
        87   6  1.520009E+05  1.466103E+05  1.823448E+05 -1.067274E+05 -1.248395E+05 -2.318748E+04
        87   7 -1.451565E+06 -4.040871E+05 -3.225804E+05 -1.288614E+05 -5.648879E+04 -6.691382E+04
        87   8 -1.664902E+06 -4.558834E+05 -3.371195E+05 -3.783757E+04 -6.653390E+04 -6.973766E+04
        87   9 -1.834452E+06 -3.481455E+05 -3.046720E+05 -5.261124E+04 -7.668542E+04 -2.308636E+04
        87  10  1.758302E+06  3.866246E+05  4.212327E+05 -8.392822E+04 -2.150371E-10 -1.623351E-10
        87  11  1.922636E+06  4.285558E+05  4.986447E+05 -6.959555E+04  2.458522E-10  1.111480E-09
        87  12  2.142034E+06  6.410778E+05  6.690255E+05 -1.610225E+05  1.252318E-09  1.180924E-10
        87  13  1.521764E+05 -8.644414E+03  4.940512E+04 -1.064255E+05 -2.174888E-09 -3.897079E-10
        87  14  1.273797E+05 -1.355382E+04  8.086252E+04 -5.369482E+04 -3.473022E-09  1.805797E-10
        87  15  1.519841E+05  1.466055E+05  1.823145E+05 -1.067297E+05 -5.163224E-10  3.349244E-10
        87  16 -1.451569E+06 -4.040927E+05 -3.225949E+05 -1.288645E+05 -3.442224E-10 -2.710355E-10
        87  17 -1.664908E+06 -4.558898E+05 -3.371370E+05 -3.784131E+04 -1.952719E-09  5.537438E-10
        87  18 -1.834458E+06 -3.481477E+05 -3.046841E+05 -5.261267E+04 -1.362186E-09  2.776526E-11
        87  19  1.758303E+06  3.866295E+05  4.212419E+05 -8.392716E+04  1.963325E+04  6.686589E+04
        87  20  1.922647E+06  4.285635E+05  4.986712E+05 -6.959015E+04  9.632069E+04  6.975244E+04
        87  21  2.142066E+06  6.410864E+05  6.690827E+05 -1.610193E+05  1.731472E+05  2.328005E+04
        87  22  1.521791E+05 -8.639219E+03  4.941626E+04 -1.064234E+05  3.808471E+04  6.689050E+04
        87  23  1.273881E+05 -1.354682E+04  8.088411E+04 -5.369025E+04  8.140606E+04  6.974543E+04
        87  24  1.520009E+05  1.466103E+05  1.823448E+05 -1.067274E+05  1.248395E+05  2.318748E+04
        87  25 -1.451565E+06 -4.040871E+05 -3.225804E+05 -1.288614E+05  5.648879E+04  6.691382E+04
        87  26 -1.664902E+06 -4.558834E+05 -3.371195E+05 -3.783757E+04  6.653390E+04  6.973766E+04
        87  27 -1.834452E+06 -3.481455E+05 -3.046720E+05 -5.261124E+04  7.668542E+04  2.308636E+04
        88   1  1.354309E+05 -4.494953E+04  1.551124E+05 -1.663698E+05 -1.038410E+02  7.824870E+04
        88   2 -2.297112E+04 -2.940538E+05  3.436347E+04 -7.567200E+04 -3.308622E+03  4.728667E+04
        88   3 -7.789185E+04 -5.147724E+05 -4.069388E+04 -1.163149E+05 -1.329252E+04  1.630505E+04
        88   4  9.239037E+04 -2.154121E+05  1.125348E+05 -1.302052E+05 -9.924530E+01  7.822600E+04
        88   5 -7.157696E+03 -2.292028E+05  4.920940E+04 -6.477437E+04 -3.330067E+03  5.182507E+04
        88   6 -4.013082E+03 -2.154347E+05  2.842395E+04 -1.306738E+05 -1.333734E+04  2.539312E+04
        88   7  4.935247E+04 -3.858456E+05  6.995568E+04 -9.405055E+04 -9.465111E+01  7.820329E+04
        88   8  8.655904E+03 -1.643476E+05  6.405521E+04 -5.387558E+04 -3.351350E+03  5.636394E+04
        88   9  6.986017E+04  8.398654E+04  9.753622E+04 -1.450395E+05 -1.338255E+04  3.448555E+04
        88  10  1.354293E+05 -4.495610E+04  1.551009E+05 -1.663698E+05  1.579676E-10  2.045154E-09
        88  11 -2.297173E+04 -2.940562E+05  3.435924E+04 -7.567188E+04  6.631261E-10 -7.859306E-11
        88  12 -7.789211E+04 -5.147727E+05 -4.069472E+04 -1.163147E+05 -4.798903E-10 -2.302912E-09
        88  13  9.238873E+04 -2.154187E+05  1.125233E+05 -1.302052E+05 -1.795371E-09  3.481827E-11
        88  14 -7.158429E+03 -2.292057E+05  4.920433E+04 -6.477423E+04  9.381438E-10  1.585846E-10
        88  15 -4.013446E+03 -2.154354E+05  2.842240E+04 -1.306735E+05  2.536846E-09 -4.050811E-12
        88  16  4.935083E+04 -3.858522E+05  6.994418E+04 -9.405055E+04 -4.264545E-10 -2.148245E-09
        88  17  8.655039E+03 -1.643510E+05  6.404921E+04 -5.387543E+04  1.211205E-09  9.541215E-11
        88  18  6.985965E+04  8.398522E+04  9.753365E+04 -1.450391E+05  3.144329E-10  2.266759E-09
        88  19  1.354309E+05 -4.494953E+04  1.551124E+05 -1.663698E+05  1.038410E+02 -7.824870E+04
        88  20 -2.297112E+04 -2.940538E+05  3.436347E+04 -7.567200E+04  3.308622E+03 -4.728667E+04
        88  21 -7.789185E+04 -5.147724E+05 -4.069388E+04 -1.163149E+05  1.329252E+04 -1.630505E+04
        88  22  9.239037E+04 -2.154121E+05  1.125348E+05 -1.302052E+05  9.924530E+01 -7.822600E+04
        88  23 -7.157696E+03 -2.292028E+05  4.920940E+04 -6.477437E+04  3.330067E+03 -5.182507E+04
        88  24 -4.013082E+03 -2.154347E+05  2.842395E+04 -1.306738E+05  1.333734E+04 -2.539312E+04
        88  25  4.935247E+04 -3.858456E+05  6.995568E+04 -9.405055E+04  9.465111E+01 -7.820329E+04
        88  26  8.655904E+03 -1.643476E+05  6.405521E+04 -5.387558E+04  3.351350E+03 -5.636394E+04
        88  27  6.986017E+04  8.398654E+04  9.753622E+04 -1.450395E+05  1.338255E+04 -3.448555E+04
        89   1 -1.239032E+05 -7.590455E+05 -1.035025E+05 -1.306056E+05 -2.090393E+04  1.354783E+04
        89   2 -1.904742E+05 -9.942483E+05 -1.715780E+05 -6.308757E+04 -3.132591E+04  1.077167E+04
        89   3 -2.508792E+05 -1.228524E+06 -2.365460E+05 -1.272611E+05 -3.980157E+04  8.017873E+03
        89   4  8.759077E+03 -2.213609E+05  2.187560E+04 -1.305893E+05 -2.093971E+04  2.122134E+04
        89   5  3.262626E+00 -2.219607E+05  7.948185E+03 -6.477363E+04 -3.135141E+04  1.713617E+04
        89   6 -2.357377E+03 -2.214555E+05 -1.958051E+03 -1.306388E+05 -3.981804E+04  1.307238E+04
        89   7  1.414010E+05  3.165908E+05  1.472343E+05 -1.305727E+05 -2.097549E+04  2.890144E+04
        89   8  1.904386E+05  5.508782E+05  1.874343E+05 -6.646117E+04 -3.137692E+04  2.350853E+04
        89   9  2.460927E+05  7.865507E+05  2.325615E+05 -1.340209E+05 -3.983454E+04  1.813502E+04
        89  10 -1.239038E+05 -7.590458E+05 -1.035037E+05 -1.306054E+05  4.160685E-10  9.445347E-10
        89  11 -1.904753E+05 -9.942487E+05 -1.715800E+05 -6.308730E+04  3.623837E-09 -3.668845E-11
        89  12 -2.508809E+05 -1.228525E+06 -2.365491E+05 -1.272608E+05  5.149066E-10 -7.601708E-10
        89  13  8.758485E+03 -2.213615E+05  2.187393E+04 -1.305890E+05  2.413558E-09 -1.466692E-11
        89  14  2.128497E+00 -2.219613E+05  7.945786E+03 -6.477320E+04  2.592601E-09 -1.151781E-10
        89  15 -2.359125E+03 -2.214561E+05 -1.961351E+03 -1.306384E+05 -2.974137E-10 -9.614656E-11
        89  16  1.414003E+05  3.165898E+05  1.472319E+05 -1.305722E+05 -9.452122E-10 -8.896451E-10
        89  17  1.904374E+05  5.508773E+05  1.874314E+05 -6.646057E+04 -2.001745E-09 -8.843109E-13
        89  18  2.460909E+05  7.865499E+05  2.325579E+05 -1.340204E+05 -1.522148E-09  7.523109E-10
        89  19 -1.239032E+05 -7.590455E+05 -1.035025E+05 -1.306056E+05  2.090393E+04 -1.354783E+04
        89  20 -1.904742E+05 -9.942483E+05 -1.715780E+05 -6.308757E+04  3.132591E+04 -1.077167E+04
        89  21 -2.508792E+05 -1.228524E+06 -2.365460E+05 -1.272611E+05  3.980157E+04 -8.017873E+03
        89  22  8.759077E+03 -2.213609E+05  2.187560E+04 -1.305893E+05  2.093971E+04 -2.122134E+04
        89  23  3.262626E+00 -2.219607E+05  7.948185E+03 -6.477363E+04  3.135141E+04 -1.713617E+04
        89  24 -2.357377E+03 -2.214555E+05 -1.958051E+03 -1.306388E+05  3.981804E+04 -1.307238E+04
        89  25  1.414010E+05  3.165908E+05  1.472343E+05 -1.305727E+05  2.097549E+04 -2.890144E+04
        89  26  1.904386E+05  5.508782E+05  1.874343E+05 -6.646117E+04  3.137692E+04 -2.350853E+04
        89  27  2.460927E+05  7.865507E+05  2.325615E+05 -1.340209E+05  3.983454E+04 -1.813502E+04
        90   1 -3.039009E+05 -1.469103E+06 -2.949130E+05 -1.217665E+05 -5.165541E+04 -4.764094E+03
        90   2 -3.618694E+05 -1.696188E+06 -3.610496E+05 -6.596619E+04 -5.733949E+04  3.331352E+04
        90   3 -4.608792E+05 -1.938038E+06 -4.622036E+05 -1.401512E+05 -1.941840E+04  7.149000E+04
        90   4  3.230577E+03 -2.239908E+05 -5.916729E+03 -1.302086E+05 -5.171865E+04  1.359602E+04
        90   5  2.763395E+03 -2.192296E+05 -1.643182E+04 -6.527478E+04 -5.729611E+04  2.245931E+04
        90   6 -3.360929E+04 -2.241697E+05 -4.161477E+04 -1.303117E+05 -1.931332E+04  3.143705E+04
        90   7  3.102531E+05  1.022556E+06  2.829766E+05 -1.386663E+05 -5.178233E+04  3.199274E+04
        90   8  3.672417E+05  1.259745E+06  3.280385E+05 -6.458006E+04 -5.725281E+04  1.157935E+04
        90   9  3.934438E+05  1.492383E+06  3.787644E+05 -1.204431E+05 -1.920966E+04 -8.726621E+03
        90  10 -3.039037E+05 -1.469103E+06 -2.949181E+05 -1.217667E+05 -1.091629E-09  1.129548E-09
        90  11 -3.618732E+05 -1.696191E+06 -3.610578E+05 -6.596465E+04  9.414538E-10  1.160557E-10
        90  12 -4.608810E+05 -1.938044E+06 -4.622139E+05 -1.401501E+05  3.123753E-10 -5.235634E-10
        90  13  3.227656E+03 -2.239917E+05 -5.922102E+03 -1.302081E+05 -9.043370E-10 -9.458868E-11
        90  14  2.759735E+03 -2.192310E+05 -1.643894E+04 -6.527375E+04  3.244105E-10 -5.261275E-11
        90  15 -3.360996E+04 -2.241709E+05 -4.161733E+04 -1.303113E+05  7.141688E-11 -2.966081E-11
        90  16  3.102499E+05  1.022554E+06  2.829697E+05 -1.386650E+05 -1.093196E-09 -1.132819E-09
        90  17  3.672381E+05  1.259744E+06  3.280321E+05 -6.457953E+04 -8.074813E-10 -9.667375E-11
        90  18  3.934434E+05  1.492383E+06  3.787636E+05 -1.204432E+05  1.470300E-10  4.203358E-10
        90  19 -3.039009E+05 -1.469103E+06 -2.949130E+05 -1.217665E+05  5.165541E+04  4.764094E+03
        90  20 -3.618694E+05 -1.696188E+06 -3.610496E+05 -6.596619E+04  5.733949E+04 -3.331352E+04
        90  21 -4.608792E+05 -1.938038E+06 -4.622036E+05 -1.401512E+05  1.941840E+04 -7.149000E+04
        90  22  3.230577E+03 -2.239908E+05 -5.916729E+03 -1.302086E+05  5.171865E+04 -1.359602E+04
        90  23  2.763395E+03 -2.192296E+05 -1.643182E+04 -6.527478E+04  5.729611E+04 -2.245931E+04
        90  24 -3.360929E+04 -2.241697E+05 -4.161477E+04 -1.303117E+05  1.931332E+04 -3.143705E+04
        90  25  3.102531E+05  1.022556E+06  2.829766E+05 -1.386663E+05  5.178233E+04 -3.199274E+04
        90  26  3.672417E+05  1.259745E+06  3.280385E+05 -6.458006E+04  5.725281E+04 -1.157935E+04
        90  27  3.934438E+05  1.492383E+06  3.787644E+05 -1.204431E+05  1.920966E+04  8.726621E+03
        91   1 -4.222872E+06 -1.487472E+06 -9.220444E+05 -1.482689E+06 -3.278606E+05 -9.885862E+04
        91   2 -4.086891E+06 -1.004180E+06 -6.154742E+05 -1.462644E+06 -2.160075E+05 -3.236669E+03
        91   3 -4.055749E+06 -9.458156E+05 -5.077577E+05 -1.404280E+06 -8.594543E+04  4.456362E+04
        91   4 -2.515173E+06 -7.179864E+05 -4.348912E+05 -8.919349E+05 -2.843830E+05 -8.241992E+04
        91   5 -2.442247E+06 -3.463742E+05 -1.842442E+05 -9.725478E+05 -2.021821E+05  1.972879E+03
        91   6 -2.467862E+06 -3.931931E+05 -1.084364E+05 -1.014955E+06 -1.018172E+05  3.855593E+04
        91   7 -8.046102E+05  5.203264E+04  5.198628E+04 -2.995860E+05 -2.407722E+05 -6.590942E+04
        91   8 -7.949452E+05  3.117013E+05  2.467545E+05 -4.812343E+05 -1.883157E+05  7.200058E+03
        91   9 -8.775007E+05  1.595061E+05  2.906892E+05 -6.247611E+05 -1.177335E+05  3.253434E+04
        91  10 -4.222991E+06 -1.487512E+06 -9.222665E+05 -1.482715E+06 -1.455869E-10  1.152538E-10
        91  11 -4.086942E+06 -1.004193E+06 -6.155625E+05 -1.462645E+06 -6.287036E-10 -1.124603E-10
        91  12 -4.055758E+06 -9.458197E+05 -5.077753E+05 -1.404277E+06  8.048096E-10  1.085111E-10
        91  13 -2.515262E+06 -7.180156E+05 -4.350567E+05 -8.919539E+05 -1.720408E-09 -1.108588E-10
        91  14 -2.442291E+06 -3.463852E+05 -1.843213E+05 -9.725475E+05  6.075032E-10  1.532637E-11
        91  15 -2.467873E+06 -3.931975E+05 -1.084587E+05 -1.014952E+06 -6.922192E-10  2.968853E-10
        91  16 -8.046736E+05  5.201238E+04  5.186900E+04 -2.995988E+05 -2.757933E-10 -1.108823E-10
        91  17 -7.949834E+05  3.116917E+05  2.466877E+05 -4.812332E+05 -1.374735E-10 -9.321808E-11
        91  18 -8.775158E+05  1.595012E+05  2.906612E+05 -6.247581E+05 -1.489270E-09  5.367880E-10
        91  19 -4.222872E+06 -1.487472E+06 -9.220444E+05 -1.482689E+06  3.278606E+05  9.885862E+04
        91  20 -4.086891E+06 -1.004180E+06 -6.154742E+05 -1.462644E+06  2.160075E+05  3.236669E+03
        91  21 -4.055749E+06 -9.458156E+05 -5.077577E+05 -1.404280E+06  8.594543E+04 -4.456362E+04
        91  22 -2.515173E+06 -7.179864E+05 -4.348912E+05 -8.919349E+05  2.843830E+05  8.241992E+04
        91  23 -2.442247E+06 -3.463742E+05 -1.842442E+05 -9.725478E+05  2.021821E+05 -1.972879E+03
        91  24 -2.467862E+06 -3.931931E+05 -1.084364E+05 -1.014955E+06  1.018172E+05 -3.855593E+04
        91  25 -8.046102E+05  5.203264E+04  5.198628E+04 -2.995860E+05  2.407722E+05  6.590942E+04
        91  26 -7.949452E+05  3.117013E+05  2.467545E+05 -4.812343E+05  1.883157E+05 -7.200058E+03
        91  27 -8.775007E+05  1.595061E+05  2.906892E+05 -6.247611E+05  1.177335E+05 -3.253434E+04
        92   1 -3.864002E+06 -9.761973E+05 -4.533115E+05 -1.389073E+06 -8.202983E+04  3.484024E+04
        92   2 -3.756549E+06 -8.611958E+05 -3.740781E+05 -1.323169E+06 -5.664000E+04  4.038983E+04
        92   3 -3.605292E+06 -8.368958E+05 -3.214521E+05 -1.315082E+06 -3.014729E+04  4.298720E+04
        92   4 -2.452659E+06 -4.354048E+05 -8.742556E+04 -9.926639E+05 -8.341510E+04  3.430485E+04
        92   5 -2.472636E+06 -3.759081E+05 -4.333976E+04 -9.691320E+05 -5.982132E+04  3.918162E+04
        92   6 -2.448438E+06 -4.067027E+05 -2.438333E+04 -1.003421E+06 -3.513115E+04  4.110653E+04
        92   7 -1.039369E+06  1.055335E+05  2.782922E+05 -5.954285E+05 -8.480371E+04  3.376817E+04
        92   8 -1.187108E+06  1.094905E+05  2.872621E+05 -6.144267E+05 -6.300982E+04  3.797069E+04
        92   9 -1.290271E+06  2.357068E+04  2.725766E+05 -6.912344E+05 -4.012525E+04  3.922211E+04
        92  10 -3.864010E+06 -9.762004E+05 -4.533265E+05 -1.389071E+06  1.155861E-09  3.872747E-10
        92  11 -3.756553E+06 -8.611984E+05 -3.740872E+05 -1.323167E+06 -5.851833E-11  5.549180E-11
        92  12 -3.605293E+06 -8.368980E+05 -3.214573E+05 -1.315081E+06  1.065526E-09 -1.395584E-10
        92  13 -2.452667E+06 -4.354080E+05 -8.744087E+04 -9.926616E+05  1.420238E-09  4.581049E-10
        92  14 -2.472640E+06 -3.759107E+05 -4.334937E+04 -9.691301E+05  6.983863E-11 -1.320694E-10
        92  15 -2.448440E+06 -4.067048E+05 -2.438883E+04 -1.003420E+06 -6.484661E-10 -4.264780E-10
        92  16 -1.039377E+06  1.055304E+05  2.782765E+05 -5.954262E+05 -1.917175E-09  5.722905E-10
        92  17 -1.187113E+06  1.094879E+05  2.872520E+05 -6.144248E+05  5.809242E-10 -4.612685E-10
        92  18 -1.290273E+06  2.356860E+04  2.725707E+05 -6.912332E+05 -1.616148E-09 -6.477253E-10
        92  19 -3.864002E+06 -9.761973E+05 -4.533115E+05 -1.389073E+06  8.202983E+04 -3.484024E+04
        92  20 -3.756549E+06 -8.611958E+05 -3.740781E+05 -1.323169E+06  5.664000E+04 -4.038983E+04
        92  21 -3.605292E+06 -8.368958E+05 -3.214521E+05 -1.315082E+06  3.014729E+04 -4.298720E+04
        92  22 -2.452659E+06 -4.354048E+05 -8.742556E+04 -9.926639E+05  8.341510E+04 -3.430485E+04
        92  23 -2.472636E+06 -3.759081E+05 -4.333976E+04 -9.691320E+05  5.982132E+04 -3.918162E+04
        92  24 -2.448438E+06 -4.067027E+05 -2.438333E+04 -1.003421E+06  3.513115E+04 -4.110653E+04
        92  25 -1.039369E+06  1.055335E+05  2.782922E+05 -5.954285E+05  8.480371E+04 -3.376817E+04
        92  26 -1.187108E+06  1.094905E+05  2.872621E+05 -6.144267E+05  6.300982E+04 -3.797069E+04
        92  27 -1.290271E+06  2.357068E+04  2.725766E+05 -6.912344E+05  4.012525E+04 -3.922211E+04
        93   1 -3.451204E+06 -7.887388E+05 -2.768712E+05 -1.277305E+06 -2.581326E+04  3.962319E+04
        93   2 -3.339972E+06 -7.013114E+05 -2.320150E+05 -1.203371E+06 -1.798353E+04  3.472321E+04
        93   3 -3.168034E+06 -6.785606E+05 -1.917071E+05 -1.199534E+06 -1.005450E+04  2.952578E+04
        93   4 -2.446115E+06 -4.111055E+05 -1.885657E+04 -1.002309E+06 -3.003802E+04  3.803091E+04
        93   5 -2.476246E+06 -3.774186E+05 -1.007852E+04 -9.677590E+05 -2.238550E+04  3.306826E+04
        93   6 -2.445658E+06 -4.083640E+05 -5.700781E+03 -1.003306E+06 -1.463510E+04  2.780794E+04
        93   7 -1.440036E+06 -3.340682E+04  2.390750E+05 -7.269081E+05 -3.427030E+04  3.643581E+04
        93   8 -1.611792E+06 -5.347897E+04  2.117961E+05 -7.318492E+05 -2.679420E+04  3.141078E+04
        93   9 -1.722774E+06 -1.381361E+05  1.802617E+05 -8.068717E+05 -1.922155E+04  2.608792E+04
        93  10 -3.451205E+06 -7.887407E+05 -2.768754E+05 -1.277304E+06  4.876763E-10 -4.602683E-10
        93  11 -3.339973E+06 -7.013128E+05 -2.320179E+05 -1.203371E+06  1.200805E-09 -4.581591E-11
        93  12 -3.168035E+06 -6.785616E+05 -1.917089E+05 -1.199534E+06  9.251760E-10  2.124422E-10
        93  13 -2.446116E+06 -4.111073E+05 -1.886098E+04 -1.002308E+06  1.138391E-09 -3.617406E-10
        93  14 -2.476247E+06 -3.774199E+05 -1.008152E+04 -9.677584E+05  3.954888E-10  8.981471E-11
        93  15 -2.445658E+06 -4.083649E+05 -5.702635E+03 -1.003306E+06 -2.493709E-10  1.203625E-10
        93  16 -1.440038E+06 -3.340856E+04  2.390703E+05 -7.269071E+05 -6.104539E-10 -3.688108E-10
        93  17 -1.611793E+06 -5.348022E+04  2.117929E+05 -7.318486E+05 -7.309614E-11 -4.900258E-10
        93  18 -1.722774E+06 -1.381369E+05  1.802597E+05 -8.068713E+05 -8.343429E-10  6.183831E-11
        93  19 -3.451204E+06 -7.887388E+05 -2.768712E+05 -1.277305E+06  2.581326E+04 -3.962319E+04
        93  20 -3.339972E+06 -7.013114E+05 -2.320150E+05 -1.203371E+06  1.798353E+04 -3.472321E+04
        93  21 -3.168034E+06 -6.785606E+05 -1.917071E+05 -1.199534E+06  1.005450E+04 -2.952578E+04
        93  22 -2.446115E+06 -4.111055E+05 -1.885657E+04 -1.002309E+06  3.003802E+04 -3.803091E+04
        93  23 -2.476246E+06 -3.774186E+05 -1.007852E+04 -9.677590E+05  2.238550E+04 -3.306826E+04
        93  24 -2.445658E+06 -4.083640E+05 -5.700781E+03 -1.003306E+06  1.463510E+04 -2.780794E+04
        93  25 -1.440036E+06 -3.340682E+04  2.390750E+05 -7.269081E+05  3.427030E+04 -3.643581E+04
        93  26 -1.611792E+06 -5.347897E+04  2.117961E+05 -7.318492E+05  2.679420E+04 -3.141078E+04
        93  27 -1.722774E+06 -1.381361E+05  1.802617E+05 -8.068717E+05  1.922155E+04 -2.608792E+04
        94   1 -3.010567E+06 -6.208457E+05 -1.491853E+05 -1.157728E+06 -7.627660E+03  2.557323E+04
        94   2 -2.895027E+06 -5.332596E+05 -1.101778E+05 -1.080713E+06 -3.411709E+03  1.877498E+04
        94   3 -2.715508E+06 -5.100943E+05 -7.231318E+04 -1.077336E+06  8.261797E+02  1.190075E+04
        94   4 -2.445009E+06 -4.092030E+05 -4.481637E+03 -1.003738E+06 -1.220927E+04  2.385702E+04
        94   5 -2.476946E+06 -3.768199E+05 -2.841262E+03 -9.669749E+05 -8.039559E+03  1.704339E+04
        94   6 -2.444923E+06 -4.088472E+05 -2.306360E+03 -1.003855E+06 -3.848360E+03  1.015378E+04
        94   7 -1.879135E+06 -1.975388E+05  1.401969E+05 -8.496190E+05 -1.679549E+04  2.213909E+04
        94   8 -2.058695E+06 -2.203695E+05  1.044807E+05 -8.531670E+05 -1.267082E+04  1.531053E+04
        94   9 -2.174270E+06 -3.075967E+05  6.769368E+04 -9.303451E+05 -8.525092E+03  8.406001E+03
        94  10 -3.010567E+06 -6.208465E+05 -1.491866E+05 -1.157728E+06  1.615295E-09  3.689349E-10
        94  11 -2.895027E+06 -5.332600E+05 -1.101785E+05 -1.080713E+06 -1.557949E-09 -3.525394E-11
        94  12 -2.715508E+06 -5.100944E+05 -7.231345E+04 -1.077336E+06  7.113824E-10  2.145101E-10
        94  13 -2.445010E+06 -4.092037E+05 -4.482985E+03 -1.003738E+06  8.460334E-10 -4.111848E-10
        94  14 -2.476946E+06 -3.768202E+05 -2.841928E+03 -9.669748E+05 -4.179271E-10  4.924113E-10
        94  15 -2.444923E+06 -4.088473E+05 -2.306581E+03 -1.003855E+06  1.791314E-09  7.317888E-10
        94  16 -1.879135E+06 -1.975394E+05  1.401954E+05 -8.496187E+05 -1.186526E-09  7.457996E-10
        94  17 -2.058695E+06 -2.203698E+05  1.044800E+05 -8.531669E+05 -2.625750E-10  1.442346E-10
        94  18 -2.174270E+06 -3.075968E+05  6.769341E+04 -9.303451E+05 -4.080815E-11  5.578544E-10
        94  19 -3.010567E+06 -6.208457E+05 -1.491853E+05 -1.157728E+06  7.627660E+03 -2.557323E+04
        94  20 -2.895027E+06 -5.332596E+05 -1.101778E+05 -1.080713E+06  3.411709E+03 -1.877498E+04
        94  21 -2.715508E+06 -5.100943E+05 -7.231318E+04 -1.077336E+06 -8.261797E+02 -1.190075E+04
        94  22 -2.445009E+06 -4.092030E+05 -4.481637E+03 -1.003738E+06  1.220927E+04 -2.385702E+04
        94  23 -2.476946E+06 -3.768199E+05 -2.841262E+03 -9.669749E+05  8.039559E+03 -1.704339E+04
        94  24 -2.444923E+06 -4.088472E+05 -2.306360E+03 -1.003855E+06  3.848360E+03 -1.015378E+04
        94  25 -1.879135E+06 -1.975388E+05  1.401969E+05 -8.496190E+05  1.679549E+04 -2.213909E+04
        94  26 -2.058695E+06 -2.203695E+05  1.044807E+05 -8.531670E+05  1.267082E+04 -1.531053E+04
        94  27 -2.174270E+06 -3.075967E+05  6.769368E+04 -9.303451E+05  8.525092E+03 -8.406001E+03
        95   1 -2.554764E+06 -4.500953E+05 -3.004980E+04 -1.034040E+06  2.851113E+03  7.699230E+03
        95   2 -2.437752E+06 -3.618881E+05  6.953474E+03 -9.560930E+05  7.196954E+03  8.073676E+02
        95   3 -2.256269E+06 -3.388369E+05  4.269946E+04 -9.526691E+05  1.153858E+04 -6.069975E+03
        95   4 -2.444799E+06 -4.090117E+05 -2.370736E+03 -1.004046E+06 -1.838642E+03  5.947198E+03
        95   5 -2.477040E+06 -3.765442E+05 -3.122509E+03 -9.667387E+05  2.515536E+03 -9.418192E+02
        95   6 -2.444833E+06 -4.092363E+05 -5.136652E+03 -1.003964E+06  6.865065E+03 -7.816385E+03
        95   7 -2.334820E+06 -3.679270E+05  2.530760E+04 -9.740478E+05 -6.529330E+03  4.194817E+03
        95   8 -2.516327E+06 -3.912003E+05 -1.319861E+04 -9.773838E+05 -2.165595E+03 -2.690899E+03
        95   9 -2.633364E+06 -4.796343E+05 -5.297615E+04 -1.055245E+06  2.193055E+03 -9.562234E+03
        95  10 -2.554764E+06 -4.500954E+05 -3.004992E+04 -1.034040E+06  6.393937E-10  6.813030E-10
        95  11 -2.437752E+06 -3.618881E+05  6.953375E+03 -9.560930E+05 -6.312662E-10  4.383736E-10
        95  12 -2.256269E+06 -3.388369E+05  4.269914E+04 -9.526691E+05  3.326509E-10  5.043373E-10
        95  13 -2.444799E+06 -4.090117E+05 -2.370809E+03 -1.004046E+06  1.050192E-09  3.642743E-10
        95  14 -2.477040E+06 -3.765442E+05 -3.122523E+03 -9.667387E+05  8.206389E-10 -1.638126E-10
        95  15 -2.444833E+06 -4.092364E+05 -5.136855E+03 -1.003964E+06  3.485824E-09  5.097326E-10
        95  16 -2.334820E+06 -3.679270E+05  2.530749E+04 -9.740478E+05  6.464697E-10 -5.157001E-10
        95  17 -2.516327E+06 -3.912003E+05 -1.319864E+04 -9.773838E+05  1.132890E-09 -1.446599E-09
        95  18 -2.633364E+06 -4.796344E+05 -5.297633E+04 -1.055245E+06  2.972941E-09  7.404061E-10
        95  19 -2.554764E+06 -4.500953E+05 -3.004980E+04 -1.034040E+06 -2.851113E+03 -7.699230E+03
        95  20 -2.437752E+06 -3.618881E+05  6.953474E+03 -9.560930E+05 -7.196954E+03 -8.073676E+02
        95  21 -2.256269E+06 -3.388369E+05  4.269946E+04 -9.526691E+05 -1.153858E+04  6.069975E+03
        95  22 -2.444799E+06 -4.090117E+05 -2.370736E+03 -1.004046E+06  1.838642E+03 -5.947198E+03
        95  23 -2.477040E+06 -3.765442E+05 -3.122509E+03 -9.667387E+05 -2.515536E+03  9.418192E+02
        95  24 -2.444833E+06 -4.092363E+05 -5.136652E+03 -1.003964E+06 -6.865065E+03  7.816385E+03
        95  25 -2.334820E+06 -3.679270E+05  2.530760E+04 -9.740478E+05  6.529330E+03 -4.194817E+03
        95  26 -2.516327E+06 -3.912003E+05 -1.319861E+04 -9.773838E+05  2.165595E+03  2.690899E+03
        95  27 -2.633364E+06 -4.796343E+05 -5.297615E+04 -1.055245E+06 -2.193055E+03  9.562234E+03
        96   1 -2.096187E+06 -2.785821E+05  8.340689E+04 -9.095854E+05  1.414769E+04 -1.005538E+04
        96   2 -1.980892E+06 -1.911018E+05  1.154775E+05 -8.321091E+05  2.267448E+04 -1.527303E+04
        96   3 -1.803571E+06 -1.708424E+05  1.423806E+05 -8.272903E+05  3.113187E+04 -2.027988E+04
        96   4 -2.445263E+06 -4.086860E+05 -6.620743E+03 -1.003940E+06  9.453325E+03 -1.181044E+04
        96   5 -2.476491E+06 -3.765642E+05 -1.170343E+04 -9.670541E+05  1.810602E+04 -1.698339E+04
        96   6 -2.445736E+06 -4.116944E+05 -2.205537E+04 -1.002837E+06  2.668780E+04 -2.194594E+04
        96   7 -2.794218E+06 -5.387811E+05 -9.665736E+04 -1.098246E+06  4.761907E+03 -1.356440E+04
        96   8 -2.971846E+06 -5.620100E+05 -1.389037E+05 -1.101901E+06  1.354158E+04 -1.869224E+04
        96   9 -3.087496E+06 -6.525195E+05 -1.865248E+05 -1.178218E+06  2.224877E+04 -2.361011E+04
        96  10 -2.096187E+06 -2.785823E+05  8.340633E+04 -9.095853E+05  3.849255E-09  9.029660E-10
        96  11 -1.980893E+06 -1.911021E+05  1.154761E+05 -8.321088E+05  1.413815E-09 -2.374176E-10
        96  12 -1.803573E+06 -1.708431E+05  1.423780E+05 -8.272897E+05 -1.208681E-09 -7.082632E-10
        96  13 -2.445264E+06 -4.086861E+05 -6.621172E+03 -1.003940E+06  3.549460E-09  9.080249E-10
        96  14 -2.476491E+06 -3.765646E+05 -1.170459E+04 -9.670539E+05 -4.562227E-10 -4.812332E-10
        96  15 -2.445737E+06 -4.116951E+05 -2.205761E+04 -1.002837E+06 -3.452400E-09 -9.061890E-10
        96  16 -2.794218E+06 -5.387813E+05 -9.665775E+04 -1.098246E+06  1.567134E-09  9.809240E-10
        96  17 -2.971846E+06 -5.620105E+05 -1.389047E+05 -1.101900E+06 -7.116732E-10  3.242977E-10
        96  18 -3.087496E+06 -6.525202E+05 -1.865268E+05 -1.178218E+06 -2.603493E-09 -6.782302E-10
        96  19 -2.096187E+06 -2.785821E+05  8.340689E+04 -9.095854E+05 -1.414769E+04  1.005538E+04
        96  20 -1.980892E+06 -1.911018E+05  1.154775E+05 -8.321091E+05 -2.267448E+04  1.527303E+04
        96  21 -1.803571E+06 -1.708424E+05  1.423806E+05 -8.272903E+05 -3.113187E+04  2.027988E+04
        96  22 -2.445263E+06 -4.086860E+05 -6.620743E+03 -1.003940E+06 -9.453325E+03  1.181044E+04
        96  23 -2.476491E+06 -3.765642E+05 -1.170343E+04 -9.670541E+05 -1.810602E+04  1.698339E+04
        96  24 -2.445736E+06 -4.116944E+05 -2.205537E+04 -1.002837E+06 -2.668780E+04  2.194594E+04
        96  25 -2.794218E+06 -5.387811E+05 -9.665736E+04 -1.098246E+06 -4.761907E+03  1.356440E+04
        96  26 -2.971846E+06 -5.620100E+05 -1.389037E+05 -1.101901E+06 -1.354158E+04  1.869224E+04
        96  27 -3.087496E+06 -6.525195E+05 -1.865248E+05 -1.178218E+06 -2.224877E+04  2.361011E+04
        97   1 -1.646200E+06 -1.117431E+05  1.767579E+05 -7.913503E+05  3.751600E+04 -2.302321E+04
        97   2 -1.535957E+06 -2.022073E+04  1.903256E+05 -7.094357E+05  6.462887E+04 -2.069071E+04
        97   3 -1.381149E+06 -2.771625E+04  1.754828E+05 -6.883378E+05  9.084175E+04 -1.590782E+04
        97   4 -2.448071E+06 -4.070158E+05 -2.855980E+04 -1.004662E+06  3.241973E+04 -2.493553E+04
        97   5 -2.472610E+06 -3.740635E+05 -5.063869E+04 -9.679949E+05  6.102892E+04 -2.204687E+04
        97   6 -2.452927E+06 -4.404775E+05 -1.023529E+05 -9.921595E+05  8.873157E+04 -1.670890E+04
        97   7 -3.249317E+06 -7.022548E+05 -2.339308E+05 -1.217727E+06  2.733066E+04 -2.684527E+04
        97   8 -3.408408E+06 -7.278477E+05 -2.916759E+05 -1.226199E+06  5.743487E+04 -2.340078E+04
        97   9 -3.523583E+06 -8.531494E+05 -3.802849E+05 -1.295499E+06  8.662529E+04 -1.750843E+04
        97  10 -1.646202E+06 -1.117440E+05  1.767542E+05 -7.913496E+05 -4.137029E-09 -9.034858E-10
        97  11 -1.535962E+06 -2.022231E+04  1.903170E+05 -7.094346E+05 -1.253744E-09  3.395710E-11
        97  12 -1.381158E+06 -2.771874E+04  1.754668E+05 -6.883367E+05  9.077628E-10 -4.584462E-11
        97  13 -2.448072E+06 -4.070167E+05 -2.856295E+04 -1.004661E+06 -4.360549E-09 -8.383013E-10
        97  14 -2.472615E+06 -3.740651E+05 -5.064662E+04 -9.679939E+05 -1.321860E-09 -2.931230E-10
        97  15 -2.452936E+06 -4.404799E+05 -1.023683E+05 -9.921583E+05  2.762928E-10 -4.873449E-11
        97  16 -3.249318E+06 -7.022557E+05 -2.339335E+05 -1.217726E+06 -1.418720E-09 -1.218760E-09
        97  17 -3.408412E+06 -7.278492E+05 -2.916832E+05 -1.226198E+06 -1.036857E-10 -4.671707E-10
        97  18 -3.523591E+06 -8.531517E+05 -3.802997E+05 -1.295498E+06  7.879251E-10  7.107593E-10
        97  19 -1.646200E+06 -1.117431E+05  1.767579E+05 -7.913503E+05 -3.751600E+04  2.302321E+04
        97  20 -1.535957E+06 -2.022073E+04  1.903256E+05 -7.094357E+05 -6.462887E+04  2.069071E+04
        97  21 -1.381149E+06 -2.771625E+04  1.754828E+05 -6.883378E+05 -9.084175E+04  1.590782E+04
        97  22 -2.448071E+06 -4.070158E+05 -2.855980E+04 -1.004662E+06 -3.241973E+04  2.493553E+04
        97  23 -2.472610E+06 -3.740635E+05 -5.063869E+04 -9.679949E+05 -6.102892E+04  2.204687E+04
        97  24 -2.452927E+06 -4.404775E+05 -1.023529E+05 -9.921595E+05 -8.873157E+04  1.670890E+04
        97  25 -3.249317E+06 -7.022548E+05 -2.339308E+05 -1.217727E+06 -2.733066E+04  2.684527E+04
        97  26 -3.408408E+06 -7.278477E+05 -2.916759E+05 -1.226199E+06 -5.743487E+04  2.340078E+04
        97  27 -3.523583E+06 -8.531494E+05 -3.802849E+05 -1.295499E+06 -8.662529E+04  1.750843E+04
        98   1 -1.204574E+06  2.991516E+04  1.873759E+05 -7.275378E+05  1.236663E+05 -1.394538E+04
        98   2 -1.113316E+06  2.019702E+05  1.331769E+05 -5.642929E+05  2.166599E+05  1.821493E+04
        98   3 -1.137064E+06 -1.071941E+05 -1.059323E+05 -3.530112E+05  2.945601E+05  9.043076E+04
        98   4 -2.470295E+06 -3.915481E+05 -1.269705E+05 -1.018840E+06  1.093776E+05 -1.931780E+04
        98   5 -2.437539E+06 -3.385703E+05 -2.155294E+05 -9.711557E+05  2.272877E+05  2.219423E+04
        98   6 -2.525139E+06 -7.723973E+05 -5.091205E+05 -8.753613E+05  3.300727E+05  1.037627E+05
        98   7 -3.734447E+06 -8.129860E+05 -4.414365E+05 -1.309638E+06  9.512076E+04 -2.468133E+04
        98   8 -3.760038E+06 -8.789089E+05 -5.643857E+05 -1.377198E+06  2.378902E+05  2.616211E+04
        98   9 -3.911296E+06 -1.437117E+06 -9.124909E+05 -1.396538E+06  3.654973E+05  1.170412E+05
        98  10 -1.204590E+06  2.991084E+04  1.873467E+05 -7.275364E+05  1.532406E-09  1.913150E-11
        98  11 -1.113367E+06  2.019572E+05  1.330879E+05 -5.642961E+05  1.618201E-09  4.700582E-10
        98  12 -1.137159E+06 -1.072263E+05 -1.061111E+05 -3.530327E+05  3.421355E-10 -1.648468E-10
        98  13 -2.470308E+06 -3.915517E+05 -1.269938E+05 -1.018838E+06 -6.220975E-10  3.884881E-10
        98  14 -2.437595E+06 -3.385848E+05 -2.156278E+05 -9.711598E+05 -1.871019E-10  6.089022E-10
        98  15 -2.525259E+06 -7.724383E+05 -5.093465E+05 -8.753889E+05  6.370572E-11  2.989830E-10
        98  16 -3.734457E+06 -8.129891E+05 -4.414547E+05 -1.309636E+06 -1.291063E-09  5.006567E-10
        98  17 -3.760099E+06 -8.789250E+05 -5.644941E+05 -1.377203E+06 -3.635148E-09  9.967106E-10
        98  18 -3.911444E+06 -1.437168E+06 -9.127696E+05 -1.396572E+06 -6.526422E-10 -5.156234E-10
        98  19 -1.204574E+06  2.991516E+04  1.873759E+05 -7.275378E+05 -1.236663E+05  1.394538E+04
        98  20 -1.113316E+06  2.019702E+05  1.331769E+05 -5.642929E+05 -2.166599E+05 -1.821493E+04
        98  21 -1.137064E+06 -1.071941E+05 -1.059323E+05 -3.530112E+05 -2.945601E+05 -9.043076E+04
        98  22 -2.470295E+06 -3.915481E+05 -1.269705E+05 -1.018840E+06 -1.093776E+05  1.931780E+04
        98  23 -2.437539E+06 -3.385703E+05 -2.155294E+05 -9.711557E+05 -2.272877E+05 -2.219423E+04
        98  24 -2.525139E+06 -7.723973E+05 -5.091205E+05 -8.753613E+05 -3.300727E+05 -1.037627E+05
        98  25 -3.734447E+06 -8.129860E+05 -4.414365E+05 -1.309638E+06 -9.512076E+04  2.468133E+04
        98  26 -3.760038E+06 -8.789089E+05 -5.643857E+05 -1.377198E+06 -2.378902E+05 -2.616211E+04
        98  27 -3.911296E+06 -1.437117E+06 -9.124909E+05 -1.396538E+06 -3.654973E+05 -1.170412E+05
        99   1 -1.544873E+06 -2.547398E+05 -2.236581E+05 -2.236403E+04  5.351637E+04  1.700926E+04
        99   2 -1.451748E+06 -3.384669E+05 -2.530664E+05 -1.988852E+04  4.643319E+04  5.195517E+04
        99   3 -1.327840E+06 -3.085908E+05 -2.491975E+05 -7.707573E+04  3.943552E+04  5.130910E+04
        99   4 -1.015345E+05  1.047070E+05  1.300886E+05 -6.076195E+04  8.904633E+04  1.709178E+04
        99   5 -1.189344E+05 -9.544949E+03  5.774006E+04 -3.081461E+04  5.803424E+04  5.196879E+04
        99   6 -1.014710E+05 -6.168931E+03  3.523558E+04 -6.051952E+04  2.711059E+04  5.128721E+04
        99   7  1.343711E+06  4.640058E+05  4.836883E+05 -9.925059E+04  1.246587E+05  1.716981E+04
        99   8  1.215521E+06  3.192518E+05  3.684268E+05 -4.176510E+04  6.965996E+04  5.198199E+04
        99   9  1.126290E+06  2.961481E+05  3.195684E+05 -4.393069E+04  1.476141E+04  5.126468E+04
        99  10 -1.544876E+06 -2.547408E+05 -2.236641E+05 -2.236476E+04  1.711434E-09  5.247192E-10
        99  11 -1.451751E+06 -3.384704E+05 -2.530755E+05 -1.989046E+04  3.191188E-10 -3.693369E-10
        99  12 -1.327842E+06 -3.085941E+05 -2.492054E+05 -7.707736E+04 -1.733106E-09  8.118090E-10
        99  13 -1.015431E+05  1.047045E+05  1.300732E+05 -6.076318E+04  3.746756E-12 -7.854649E-10
        99  14 -1.189387E+05 -9.548754E+03  5.772866E+04 -3.081704E+04  1.883777E-09  3.173888E-10
        99  15 -1.014725E+05 -6.171953E+03  3.522925E+04 -6.052064E+04  1.262886E-09  2.653612E-10
        99  16  1.343695E+06  4.640013E+05  4.836586E+05 -9.925231E+04 -1.060968E-09  8.792344E-10
        99  17  1.215515E+06  3.192476E+05  3.684126E+05 -4.176801E+04  8.755673E-10 -4.596675E-10
        99  18  1.126289E+06  2.961452E+05  3.195631E+05 -4.393130E+04  4.189719E-09  8.007856E-11
        99  19 -1.544873E+06 -2.547398E+05 -2.236581E+05 -2.236403E+04 -5.351637E+04 -1.700926E+04
        99  20 -1.451748E+06 -3.384669E+05 -2.530664E+05 -1.988852E+04 -4.643319E+04 -5.195517E+04
        99  21 -1.327840E+06 -3.085908E+05 -2.491975E+05 -7.707573E+04 -3.943552E+04 -5.130910E+04
        99  22 -1.015345E+05  1.047070E+05  1.300886E+05 -6.076195E+04 -8.904633E+04 -1.709178E+04
        99  23 -1.189344E+05 -9.544949E+03  5.774006E+04 -3.081461E+04 -5.803424E+04 -5.196879E+04
        99  24 -1.014710E+05 -6.168931E+03  3.523558E+04 -6.051952E+04 -2.711059E+04 -5.128721E+04
        99  25  1.343711E+06  4.640058E+05  4.836883E+05 -9.925059E+04 -1.246587E+05 -1.716981E+04
        99  26  1.215521E+06  3.192518E+05  3.684268E+05 -4.176510E+04 -6.965996E+04 -5.198199E+04
        99  27  1.126290E+06  2.961481E+05  3.195684E+05 -4.393069E+04 -1.476141E+04 -5.126468E+04
       100   1 -1.224552E+06 -2.673109E+05 -2.316666E+05 -5.890598E+04  2.321738E+04  4.389760E+04
       100   2 -1.118099E+06 -2.496398E+05 -2.194060E+05 -3.017961E+04  1.696315E+04  4.086837E+04
       100   3 -1.007699E+06 -2.224831E+05 -2.005333E+05 -6.228955E+04  1.070147E+04  3.595175E+04
       100   4 -1.082304E+05  8.145987E+03  2.843597E+04 -6.085205E+04  2.184858E+04  4.389075E+04
       100   5 -1.102778E+05 -1.075697E+03  1.485587E+04 -3.043381E+04  1.431566E+04  4.086234E+04
       100   6 -1.081762E+05 -5.981246E+02  8.767492E+03 -6.084549E+04  6.776360E+03  3.594793E+04
       100   7  1.009243E+06  2.835147E+05  2.884543E+05 -6.280187E+04  2.047730E+04  4.388390E+04
       100   8  8.984818E+05  2.474167E+05  2.490494E+05 -3.068855E+04  1.166389E+04  4.085631E+04
       100   9  7.920947E+05  2.212297E+05  2.180137E+05 -5.939929E+04  2.845590E+03  3.594409E+04
       100  10 -1.224553E+06 -2.673131E+05 -2.316713E+05 -5.890680E+04 -7.995990E-09  1.357327E-10
       100  11 -1.118099E+06 -2.496417E+05 -2.194097E+05 -3.018016E+04 -8.005920E-10 -1.140875E-09
       100  12 -1.007700E+06 -2.224845E+05 -2.005359E+05 -6.228986E+04  5.490077E-09 -8.384046E-10
       100  13 -1.082315E+05  8.143790E+03  2.843146E+04 -6.085282E+04  8.559248E-12 -4.941975E-10
       100  14 -1.102785E+05 -1.077545E+03  1.485234E+04 -3.043429E+04 -2.823698E-09 -5.311021E-10
       100  15 -1.081766E+05 -5.995246E+02  8.764978E+03 -6.084568E+04 -1.164964E-09 -5.607367E-10
       100  16  1.009242E+06  2.835125E+05  2.884499E+05 -6.280259E+04  7.458292E-09  3.322660E-10
       100  17  8.984812E+05  2.474149E+05  2.490460E+05 -3.068893E+04  2.410353E-10 -5.967089E-10
       100  18  7.920943E+05  2.212283E+05  2.180113E+05 -5.939937E+04 -7.583340E-09 -7.456031E-10
       100  19 -1.224552E+06 -2.673109E+05 -2.316666E+05 -5.890598E+04 -2.321738E+04 -4.389760E+04
       100  20 -1.118099E+06 -2.496398E+05 -2.194060E+05 -3.017961E+04 -1.696315E+04 -4.086837E+04
       100  21 -1.007699E+06 -2.224831E+05 -2.005333E+05 -6.228955E+04 -1.070147E+04 -3.595175E+04
       100  22 -1.082304E+05  8.145987E+03  2.843597E+04 -6.085205E+04 -2.184858E+04 -4.389075E+04
       100  23 -1.102778E+05 -1.075697E+03  1.485587E+04 -3.043381E+04 -1.431566E+04 -4.086234E+04
       100  24 -1.081762E+05 -5.981246E+02  8.767492E+03 -6.084549E+04 -6.776360E+03 -3.594793E+04
       100  25  1.009243E+06  2.835147E+05  2.884543E+05 -6.280187E+04 -2.047730E+04 -4.388390E+04
       100  26  8.984818E+05  2.474167E+05  2.490494E+05 -3.068855E+04 -1.166389E+04 -4.085631E+04
       100  27  7.920947E+05  2.212297E+05  2.180137E+05 -5.939929E+04 -2.845590E+03 -3.594409E+04
       101   1 -8.984135E+05 -1.941051E+05 -1.764011E+05 -6.074089E+04  8.753214E+03  3.271780E+04
       101   2 -7.900825E+05 -1.680428E+05 -1.544039E+05 -3.021183E+04  6.935510E+03  2.767302E+04
       101   3 -6.810495E+05 -1.411308E+05 -1.309571E+05 -6.070009E+04  5.111613E+03  2.252565E+04
       101   4 -1.088951E+05  5.297782E+02  6.781410E+03 -6.088783E+04  5.405577E+03  3.271544E+04
       101   5 -1.092278E+05 -1.599070E+02  3.791961E+03 -3.038132E+04  3.516559E+03  2.767242E+04
       101   6 -1.088577E+05  1.270888E+01  2.300779E+03 -6.088801E+04  1.621660E+03  2.252690E+04
       101   7  6.811996E+05  1.951208E+05  1.899221E+05 -6.103491E+04  2.053706E+03  3.271309E+04
       101   8  5.720553E+05  1.676903E+05  1.619567E+05 -3.055094E+04  9.387882E+01  2.767183E+04
       101   9  4.636364E+05  1.411331E+05  1.355366E+05 -6.107603E+04 -1.871490E+03  2.252816E+04
       101  10 -8.984139E+05 -1.941063E+05 -1.764032E+05 -6.074112E+04 -2.142592E-09  5.012518E-10
       101  11 -7.900828E+05 -1.680437E+05 -1.544054E+05 -3.021199E+04 -2.820140E-09  9.027923E-10
       101  12 -6.810497E+05 -1.411313E+05 -1.309581E+05 -6.070018E+04  5.359795E-10 -1.360760E-09
       101  13 -1.088954E+05  5.286211E+02  6.779343E+03 -6.088797E+04 -2.160187E-09  5.011776E-10
       101  14 -1.092280E+05 -1.607326E+02  3.790499E+03 -3.038140E+04 -4.231101E-09  1.311746E-09
       101  15 -1.088579E+05  1.216327E+01  2.299821E+03 -6.088804E+04 -1.189963E-09 -3.369474E-10
       101  16  6.811993E+05  1.951196E+05  1.899201E+05 -6.103496E+04 -6.170352E-11  1.112218E-10
       101  17  5.720551E+05  1.676895E+05  1.619552E+05 -3.055094E+04  3.872836E-10  2.151591E-10
       101  18  4.636363E+05  1.411325E+05  1.355357E+05 -6.107600E+04 -2.712007E-09 -1.353701E-09
       101  19 -8.984135E+05 -1.941051E+05 -1.764011E+05 -6.074089E+04 -8.753214E+03 -3.271780E+04
       101  20 -7.900825E+05 -1.680428E+05 -1.544039E+05 -3.021183E+04 -6.935510E+03 -2.767302E+04
       101  21 -6.810495E+05 -1.411308E+05 -1.309571E+05 -6.070009E+04 -5.111613E+03 -2.252565E+04
       101  22 -1.088951E+05  5.297782E+02  6.781410E+03 -6.088783E+04 -5.405577E+03 -3.271544E+04
       101  23 -1.092278E+05 -1.599070E+02  3.791961E+03 -3.038132E+04 -3.516559E+03 -2.767242E+04
       101  24 -1.088577E+05  1.270888E+01  2.300779E+03 -6.088801E+04 -1.621660E+03 -2.252690E+04
       101  25  6.811996E+05  1.951208E+05  1.899221E+05 -6.103491E+04 -2.053706E+03 -3.271309E+04
       101  26  5.720553E+05  1.676903E+05  1.619567E+05 -3.055094E+04 -9.387882E+01 -2.767183E+04
       101  27  4.636364E+05  1.411331E+05  1.355366E+05 -6.107603E+04  1.871490E+03 -2.252816E+04
       102   1 -5.709511E+05 -1.137464E+05 -1.051939E+05 -6.063503E+04  4.709476E+03  1.950860E+04
       102   2 -4.621269E+05 -8.703544E+04 -8.082200E+04 -3.011110E+04  4.111541E+03  1.435086E+04
       102   3 -3.532374E+05 -6.014526E+04 -5.603215E+04 -6.068590E+04  3.510446E+03  9.186359E+03
       102   4 -1.089725E+05  8.740322E+01  1.810071E+03 -6.090646E+04  1.248252E+03  1.951072E+04
       102   5 -1.089912E+05  2.228784E+01  1.211122E+03 -3.035815E+04  6.451462E+02  1.435390E+04
       102   6 -1.089530E+05  1.384067E+02  1.034481E+03 -6.090643E+04  3.898495E+01  9.190357E+03
       102   7  3.532034E+05  1.139062E+05  1.087998E+05 -6.117805E+04 -2.215532E+03  1.951285E+04
       102   8  2.442598E+05  8.707122E+04  8.323590E+04 -3.060531E+04 -2.823207E+03  1.435694E+04
       102   9  1.353864E+05  6.041785E+04  5.809710E+04 -6.112702E+04 -3.433834E+03  9.194357E+03
       102  10 -5.709512E+05 -1.137468E+05 -1.051947E+05 -6.063510E+04 -2.158614E-09 -1.193711E-09
       102  11 -4.621270E+05 -8.703566E+04 -8.082242E+04 -3.011114E+04  1.010141E-09  1.245137E-09
       102  12 -3.532374E+05 -6.014535E+04 -5.603233E+04 -6.068593E+04  5.983751E-10  3.768843E-10
       102  13 -1.089726E+05  8.699405E+01  1.809353E+03 -6.090648E+04 -2.179048E-09 -1.878113E-09
       102  14 -1.089912E+05  2.206650E+01  1.210734E+03 -3.035816E+04 -1.467505E-09  1.151497E-09
       102  15 -1.089530E+05  1.383160E+02  1.034323E+03 -6.090643E+04 -9.334624E-10 -7.192931E-11
       102  16  3.532033E+05  1.139058E+05  1.087991E+05 -6.117801E+04  1.638397E-09 -1.473205E-09
       102  17  2.442598E+05  8.707100E+04  8.323549E+04 -3.060528E+04 -1.589365E-09 -1.971213E-10
       102  18  1.353864E+05  6.041776E+04  5.809692E+04 -6.112700E+04 -7.183148E-10 -8.261888E-10
       102  19 -5.709511E+05 -1.137464E+05 -1.051939E+05 -6.063503E+04 -4.709476E+03 -1.950860E+04
       102  20 -4.621269E+05 -8.703544E+04 -8.082200E+04 -3.011110E+04 -4.111541E+03 -1.435086E+04
       102  21 -3.532374E+05 -6.014526E+04 -5.603215E+04 -6.068590E+04 -3.510446E+03 -9.186359E+03
       102  22 -1.089725E+05  8.740322E+01  1.810071E+03 -6.090646E+04 -1.248252E+03 -1.951072E+04
       102  23 -1.089912E+05  2.228784E+01  1.211122E+03 -3.035815E+04 -6.451462E+02 -1.435390E+04
       102  24 -1.089530E+05  1.384067E+02  1.034481E+03 -6.090643E+04 -3.898495E+01 -9.190357E+03
       102  25  3.532034E+05  1.139062E+05  1.087998E+05 -6.117805E+04  2.215532E+03 -1.951285E+04
       102  26  2.442598E+05  8.707122E+04  8.323590E+04 -3.060531E+04  2.823207E+03 -1.435694E+04
       102  27  1.353864E+05  6.041785E+04  5.809710E+04 -6.112702E+04  3.433834E+03 -9.194357E+03
       103   1 -2.428961E+05 -3.281527E+04 -2.973138E+04 -6.078119E+04  3.317253E+03  6.178308E+03
       103   2 -1.339483E+05 -6.103306E+03 -4.453027E+03 -3.030399E+04  2.638875E+03  1.013193E+03
       103   3 -2.502691E+04  2.081886E+04  2.127819E+04 -6.095841E+04  1.960158E+03 -4.148296E+03
       103   4 -1.089639E+05  1.338159E+02  1.053608E+03 -6.091420E+04 -1.546264E+02  6.182634E+03
       103   5 -1.089434E+05  5.991806E+01  1.354321E+03 -3.034843E+04 -8.309018E+02  1.017560E+03
       103   6 -1.089624E+05  1.962373E+02  2.106609E+03 -6.091410E+04 -1.507400E+03 -4.143844E+03
       103   7  2.498502E+04  3.308165E+04  3.183746E+04 -6.104723E+04 -3.627249E+03  6.186961E+03
       103   8 -8.393797E+04  6.223105E+03  7.161672E+03 -3.039286E+04 -4.300818E+03  1.021927E+03
       103   9 -1.928914E+05 -2.042687E+04 -1.706539E+04 -6.086980E+04 -4.974494E+03 -4.139392E+03
       103  10 -2.428961E+05 -3.281531E+04 -2.973148E+04 -6.078121E+04 -1.299843E-09  9.222182E-10
       103  11 -1.339483E+05 -6.103309E+03 -4.453042E+03 -3.030399E+04 -5.740746E-10  2.629836E-09
       103  12 -2.502692E+04  2.081884E+04  2.127815E+04 -6.095840E+04  3.145108E-10 -1.415341E-09
       103  13 -1.089639E+05  1.337748E+02  1.053536E+03 -6.091420E+04 -1.077619E-09  3.909384E-10
       103  14 -1.089434E+05  5.991677E+01  1.354318E+03 -3.034842E+04 -4.080136E-10  1.591280E-10
       103  15 -1.089624E+05  1.962183E+02  2.106572E+03 -6.091411E+04 -2.396250E-09 -4.432974E-10
       103  16  2.498500E+04  3.308161E+04  3.183736E+04 -6.104721E+04  1.857345E-09  2.888544E-10
       103  17 -8.393799E+04  6.223099E+03  7.161635E+03 -3.039286E+04 -1.315276E-09 -5.684645E-12
       103  18 -1.928914E+05 -2.042689E+04 -1.706547E+04 -6.086982E+04 -2.381819E-09 -5.978693E-10
       103  19 -2.428961E+05 -3.281527E+04 -2.973138E+04 -6.078119E+04 -3.317253E+03 -6.178308E+03
       103  20 -1.339483E+05 -6.103306E+03 -4.453027E+03 -3.030399E+04 -2.638875E+03 -1.013193E+03
       103  21 -2.502691E+04  2.081886E+04  2.127819E+04 -6.095841E+04 -1.960158E+03  4.148296E+03
       103  22 -1.089639E+05  1.338159E+02  1.053608E+03 -6.091420E+04  1.546264E+02 -6.182634E+03
       103  23 -1.089434E+05  5.991806E+01  1.354321E+03 -3.034843E+04  8.309018E+02 -1.017560E+03
       103  24 -1.089624E+05  1.962373E+02  2.106609E+03 -6.091410E+04  1.507400E+03  4.143844E+03
       103  25  2.498502E+04  3.308165E+04  3.183746E+04 -6.104723E+04  3.627249E+03 -6.186961E+03
       103  26 -8.393797E+04  6.223105E+03  7.161672E+03 -3.039286E+04  4.300818E+03 -1.021927E+03
       103  27 -1.928914E+05 -2.042687E+04 -1.706539E+04 -6.086980E+04  4.974494E+03  4.139392E+03
       104   1  8.546965E+04  4.805315E+04  4.813991E+04 -6.092094E+04  1.546929E+03 -7.163865E+03
       104   2  1.941465E+05  7.467075E+04  7.494595E+04 -3.056036E+04 -7.674939E+02 -1.231680E+04
       104   3  3.033072E+05  1.023640E+05  1.035028E+05 -6.130416E+04 -3.079634E+03 -1.739363E+04
       104   4 -1.088582E+05  9.791362E+01  2.691204E+03 -6.090879E+04 -1.943394E+03 -7.159625E+03
       104   5 -1.090987E+05 -5.831015E+01  4.528429E+03 -3.035528E+04 -4.205922E+03 -1.231344E+04
       104   6 -1.088748E+05  8.532454E+02  8.081755E+03 -6.090795E+04 -6.465769E+03 -1.739110E+04
       104   7 -3.031513E+05 -4.786000E+04 -4.276003E+04 -6.089664E+04 -5.432632E+03 -7.155385E+03
       104   8 -4.122590E+05 -7.479384E+04 -6.589523E+04 -3.015027E+04 -7.642683E+03 -1.231008E+04
       104   9 -5.208999E+05 -1.006694E+05 -8.735057E+04 -6.051196E+04 -9.849673E+03 -1.738856E+04
       104  10  8.546963E+04  4.805310E+04  4.813981E+04 -6.092093E+04 -2.188369E-09 -2.059959E-09
       104  11  1.941465E+05  7.467058E+04  7.494567E+04 -3.056037E+04 -5.024553E-10 -6.489082E-11
       104  12  3.033071E+05  1.023636E+05  1.035022E+05 -6.130420E+04 -8.136797E-10  6.736256E-10
       104  13 -1.088582E+05  9.785757E+01  2.691100E+03 -6.090881E+04  1.097750E-09 -7.238860E-10
       104  14 -1.090988E+05 -5.847771E+01  4.528111E+03 -3.035532E+04  6.538266E-10 -6.349353E-10
       104  15 -1.088749E+05  8.529094E+02  8.081108E+03 -6.090804E+04 -3.455534E-09 -2.885759E-10
       104  16 -3.031513E+05 -4.786006E+04 -4.276018E+04 -6.089667E+04  1.204146E-10 -5.869336E-10
       104  17 -4.122591E+05 -7.479402E+04 -6.589563E+04 -3.015035E+04 -9.827529E-10  1.160933E-09
       104  18 -5.209000E+05 -1.006697E+05 -8.735132E+04 -6.051210E+04 -4.978846E-11 -2.244323E-11
       104  19  8.546965E+04  4.805315E+04  4.813991E+04 -6.092094E+04 -1.546929E+03  7.163865E+03
       104  20  1.941465E+05  7.467075E+04  7.494595E+04 -3.056036E+04  7.674939E+02  1.231680E+04
       104  21  3.033072E+05  1.023640E+05  1.035028E+05 -6.130416E+04  3.079634E+03  1.739363E+04
       104  22 -1.088582E+05  9.791362E+01  2.691204E+03 -6.090879E+04  1.943394E+03  7.159625E+03
       104  23 -1.090987E+05 -5.831015E+01  4.528429E+03 -3.035528E+04  4.205922E+03  1.231344E+04
       104  24 -1.088748E+05  8.532454E+02  8.081755E+03 -6.090795E+04  6.465769E+03  1.739110E+04
       104  25 -3.031513E+05 -4.786000E+04 -4.276003E+04 -6.089664E+04  5.432632E+03  7.155385E+03
       104  26 -4.122590E+05 -7.479384E+04 -6.589523E+04 -3.015027E+04  7.642683E+03  1.231008E+04
       104  27 -5.208999E+05 -1.006694E+05 -8.735057E+04 -6.051196E+04  9.849673E+03  1.738856E+04
       105   1  4.144837E+05  1.283044E+05  1.320463E+05 -5.954900E+04 -4.279807E+03 -2.057151E+04
       105   2  5.210788E+05  1.545081E+05  1.643785E+05 -3.147197E+04 -1.426129E+04 -2.554618E+04
       105   3  6.321125E+05  1.925187E+05  2.061916E+05 -6.438028E+04 -2.423888E+04 -2.910863E+04
       105   4 -1.080555E+05 -5.014857E+02  1.043993E+04 -6.088388E+04 -8.099972E+03 -2.056939E+04
       105   5 -1.102066E+05 -1.037796E+03  1.777904E+04 -3.038718E+04 -1.712364E+04 -2.554640E+04
       105   6 -1.080890E+05  1.007476E+04  3.394234E+04 -6.087929E+04 -2.614170E+04 -2.911058E+04
       105   7 -6.303428E+05 -1.293266E+05 -1.111848E+05 -6.221756E+04 -1.191694E+04 -2.056725E+04
       105   8 -7.411241E+05 -1.566118E+05 -1.288472E+05 -2.930345E+04 -1.998309E+04 -2.554664E+04
       105   9 -8.477851E+05 -1.724079E+05 -1.383439E+05 -5.738244E+04 -2.804226E+04 -2.911256E+04
       105  10  4.144836E+05  1.283039E+05  1.320455E+05 -5.954907E+04 -9.494212E-10  1.030466E-09
       105  11  5.210784E+05  1.545074E+05  1.643769E+05 -3.147226E+04 -5.269787E-10 -3.501139E-10
       105  12  6.321117E+05  1.925177E+05  2.061889E+05 -6.438085E+04  2.887322E-10 -7.778614E-10
       105  13 -1.080557E+05 -5.019576E+02  1.043901E+04 -6.088402E+04 -1.085002E-09  4.513486E-10
       105  14 -1.102071E+05 -1.038576E+03  1.777726E+04 -3.038754E+04 -1.511940E-09  7.108759E-10
       105  15 -1.080899E+05  1.007366E+04  3.393946E+04 -6.087990E+04 -1.928156E-09 -2.217459E-10
       105  16 -6.303430E+05 -1.293271E+05 -1.111859E+05 -6.221776E+04 -2.058831E-10 -4.336320E-11
       105  17 -7.411247E+05 -1.566126E+05 -1.288492E+05 -2.930387E+04 -1.278811E-09  1.810652E-10
       105  18 -8.477862E+05 -1.724090E+05 -1.383469E+05 -5.738310E+04 -1.173706E-09  3.467790E-10
       105  19  4.144837E+05  1.283044E+05  1.320463E+05 -5.954900E+04  4.279807E+03  2.057151E+04
       105  20  5.210788E+05  1.545081E+05  1.643785E+05 -3.147197E+04  1.426129E+04  2.554618E+04
       105  21  6.321125E+05  1.925187E+05  2.061916E+05 -6.438028E+04  2.423888E+04  2.910863E+04
       105  22 -1.080555E+05 -5.014857E+02  1.043993E+04 -6.088388E+04  8.099972E+03  2.056939E+04
       105  23 -1.102066E+05 -1.037796E+03  1.777904E+04 -3.038718E+04  1.712364E+04  2.554640E+04
       105  24 -1.080890E+05  1.007476E+04  3.394234E+04 -6.087929E+04  2.614170E+04  2.911058E+04
       105  25 -6.303428E+05 -1.293266E+05 -1.111848E+05 -6.221756E+04  1.191694E+04  2.056725E+04
       105  26 -7.411241E+05 -1.566118E+05 -1.288472E+05 -2.930345E+04  1.998309E+04  2.554664E+04
       105  27 -8.477851E+05 -1.724079E+05 -1.383439E+05 -5.738244E+04  2.804226E+04  2.911256E+04
       106   1  7.506476E+05  2.024968E+05  2.391463E+05 -4.234938E+04 -2.230398E+04 -3.540357E+04
       106   2  8.377386E+05  2.251484E+05  2.921743E+05 -4.575737E+04 -7.722624E+04 -3.718886E+04
       106   3  9.684434E+05  3.911329E+05  4.168930E+05 -1.092227E+05 -1.321798E+05 -1.235043E+04
       106   4 -1.000717E+05 -6.997897E+03  4.204655E+04 -6.065591E+04 -3.242744E+04 -3.540542E+04
       106   5 -1.203679E+05 -1.100694E+04  6.902160E+04 -3.066641E+04 -6.938964E+04 -3.719175E+04
       106   6 -1.001137E+05  1.253160E+05  1.552872E+05 -6.073210E+04 -1.063717E+05 -1.234202E+04
       106   7 -9.501220E+05 -2.165421E+05 -1.551011E+05 -7.893716E+04 -4.253712E+04 -3.540667E+04
       106   8 -1.077627E+06 -2.472263E+05 -1.541928E+05 -1.559893E+04 -6.156498E+04 -3.719427E+04
       106   9 -1.167625E+06 -1.405762E+05 -1.063985E+05 -1.232517E+04 -8.060788E+04 -1.232959E+04
       106  10  7.506467E+05  2.024953E+05  2.391430E+05 -4.235002E+04 -1.673252E-09 -5.418207E-10
       106  11  8.377318E+05  2.251453E+05  2.921605E+05 -4.575968E+04 -1.150220E-09  4.916392E-10
       106  12  9.684246E+05  3.911281E+05  4.168600E+05 -1.092240E+05 -6.240015E-10  1.362392E-10
       106  13 -1.000732E+05 -6.999525E+03  4.204222E+04 -6.065684E+04 -1.137369E-09 -2.531792E-10
       106  14 -1.203734E+05 -1.100971E+04  6.900995E+04 -3.066849E+04 -1.736966E-09  5.865568E-10
       106  15 -1.001259E+05  1.253128E+05  1.552656E+05 -6.073316E+04 -1.829929E-09 -7.248085E-11
       106  16 -9.501243E+05 -2.165440E+05 -1.551069E+05 -7.893837E+04  4.959756E-10 -3.558182E-11
       106  17 -1.077632E+06 -2.472288E+05 -1.542026E+05 -1.560078E+04  2.579081E-09 -5.323932E-10
       106  18 -1.167632E+06 -1.405781E+05 -1.064110E+05 -1.232597E+04  1.543276E-10 -5.639665E-10
       106  19  7.506476E+05  2.024968E+05  2.391463E+05 -4.234938E+04  2.230398E+04  3.540357E+04
       106  20  8.377386E+05  2.251484E+05  2.921743E+05 -4.575737E+04  7.722624E+04  3.718886E+04
       106  21  9.684434E+05  3.911329E+05  4.168930E+05 -1.092227E+05  1.321798E+05  1.235043E+04
       106  22 -1.000717E+05 -6.997897E+03  4.204655E+04 -6.065591E+04  3.242744E+04  3.540542E+04
       106  23 -1.203679E+05 -1.100694E+04  6.902160E+04 -3.066641E+04  6.938964E+04  3.719175E+04
       106  24 -1.001137E+05  1.253160E+05  1.552872E+05 -6.073210E+04  1.063717E+05  1.234202E+04
       106  25 -9.501220E+05 -2.165421E+05 -1.551011E+05 -7.893716E+04  4.253712E+04  3.540667E+04
       106  26 -1.077627E+06 -2.472263E+05 -1.541928E+05 -1.559893E+04  6.156498E+04  3.719427E+04
       106  27 -1.167625E+06 -1.405762E+05 -1.063985E+05 -1.232517E+04  8.060788E+04  1.232959E+04
       107   1  3.767310E+05  9.830695E+05  3.845184E+05 -3.392230E+05  8.426467E+03  1.738193E+05
       107   2  1.877699E+05  7.397839E+05  2.156038E+05 -2.583359E+05  2.616032E+04  9.047300E+04
       107   3  1.006513E+05  5.325201E+05  1.263221E+05 -2.257848E+05  2.296116E+04  7.100317E+03
       107   4  1.670862E+05  1.391362E+05  1.836566E+05 -2.326047E+05  8.611351E+03  1.254479E+05
       107   5  3.954132E+04  1.243181E+05  9.152021E+04 -2.087007E+05  2.620928E+04  7.835376E+04
       107   6  7.606187E+03  1.392349E+05  5.391458E+04 -2.331136E+05  2.287991E+04  3.120091E+04
       107   7 -4.256672E+04 -7.041157E+05 -1.724043E+04 -1.261313E+05  8.779788E+03  7.714170E+04
       107   8 -1.087017E+05 -4.907818E+05 -3.258106E+04 -1.591153E+05  2.625632E+04  6.624626E+04
       107   9 -8.544714E+04 -2.538989E+05 -1.849711E+04 -2.404376E+05  2.279805E+04  5.528665E+04
       107  10  3.767228E+05  9.830371E+05  3.844616E+05 -3.392242E+05 -6.264722E-10  7.362409E-09
       107  11  1.877670E+05  7.397750E+05  2.155872E+05 -2.583378E+05  2.352340E-10 -1.144944E-08
       107  12  1.006507E+05  5.325199E+05  1.263210E+05 -2.257849E+05  5.157337E-10 -2.642280E-08
       107  13  1.670819E+05  1.391192E+05  1.836269E+05 -2.326056E+05 -1.865348E-09  7.836906E-10
       107  14  3.953893E+04  1.243113E+05  9.150739E+04 -2.087024E+05  4.241728E-09 -7.529052E-10
       107  15  7.605363E+03  1.392337E+05  5.391176E+04 -2.331142E+05  3.601026E-09 -1.394851E-09
       107  16 -4.256840E+04 -7.041221E+05 -1.725177E+04 -1.261318E+05  1.041140E-09 -7.712633E-09
       107  17 -1.087036E+05 -4.907867E+05 -3.259061E+04 -1.591167E+05 -9.170096E-10  1.146108E-08
       107  18 -8.544852E+04 -2.539023E+05 -1.850384E+04 -2.404386E+05  9.586153E-10  2.667650E-08
       107  19  3.767310E+05  9.830695E+05  3.845184E+05 -3.392230E+05 -8.426467E+03 -1.738193E+05
       107  20  1.877699E+05  7.397839E+05  2.156038E+05 -2.583359E+05 -2.616032E+04 -9.047300E+04
       107  21  1.006513E+05  5.325201E+05  1.263221E+05 -2.257848E+05 -2.296116E+04 -7.100317E+03
       107  22  1.670862E+05  1.391362E+05  1.836566E+05 -2.326047E+05 -8.611351E+03 -1.254479E+05
       107  23  3.954132E+04  1.243181E+05  9.152021E+04 -2.087007E+05 -2.620928E+04 -7.835376E+04
       107  24  7.606187E+03  1.392349E+05  5.391458E+04 -2.331136E+05 -2.287991E+04 -3.120091E+04
       107  25 -4.256672E+04 -7.041157E+05 -1.724043E+04 -1.261313E+05 -8.779788E+03 -7.714170E+04
       107  26 -1.087017E+05 -4.907818E+05 -3.258106E+04 -1.591153E+05 -2.625632E+04 -6.624626E+04
       107  27 -8.544714E+04 -2.538989E+05 -1.849711E+04 -2.404376E+05 -2.279805E+04 -5.528665E+04
       108   1  6.760217E+04  3.793995E+05  8.930547E+04 -2.380018E+05  1.430800E+04  1.624088E+03
       108   2  8.241999E+03  1.520133E+05  3.612585E+04 -2.089234E+05  1.497700E+03 -1.486287E+04
       108   3 -4.232389E+04 -7.135482E+04 -4.229183E+03 -2.295832E+05 -1.140042E+04 -3.134459E+04
       108   4  9.335035E+03  1.335201E+05  4.395258E+04 -2.333660E+05  1.423197E+04  2.378617E+04
       108   5  3.449120E+03  1.315498E+05  3.263746E+04 -2.085028E+05  1.421017E+03  7.451059E+03
       108   6  6.334518E+03  1.335233E+05  3.404468E+04 -2.333763E+05 -1.147764E+04 -8.884435E+03
       108   7 -4.893522E+04 -1.122996E+05 -1.400966E+03 -2.287321E+05  1.415626E+04  4.593971E+04
       108   8 -1.343512E+03  1.110878E+05  2.915093E+04 -2.080821E+05  1.344362E+03  2.976428E+04
       108   9  5.499082E+04  3.384431E+05  7.231865E+04 -2.371706E+05 -1.155513E+04  1.358294E+04
       108  10  6.760195E+04  3.793995E+05  8.930508E+04 -2.380018E+05  9.431231E-10  2.158768E-08
       108  11  8.241937E+03  1.520131E+05  3.612543E+04 -2.089234E+05 -2.230568E-11  6.940252E-09
       108  12 -4.232429E+04 -7.135591E+04 -4.231275E+03 -2.295835E+05 -1.214834E-12 -7.282844E-09
       108  13  9.334665E+03  1.335194E+05  4.395113E+04 -2.333663E+05  2.972649E-09  8.878035E-10
       108  14  3.449103E+03  1.315497E+05  3.263735E+04 -2.085028E+05  3.137801E-09 -8.841284E-10
       108  15  6.334355E+03  1.335232E+05  3.404428E+04 -2.333764E+05  2.258182E-09 -1.497845E-09
       108  16 -4.893600E+04 -1.123020E+05 -1.405311E+03 -2.287326E+05 -4.682732E-10 -2.197697E-08
       108  17 -1.343752E+03  1.110868E+05  2.914927E+04 -2.080822E+05  1.361795E-10 -7.059571E-09
       108  18  5.499063E+04  3.384429E+05  7.231805E+04 -2.371705E+05 -4.798009E-10  7.565892E-09
       108  19  6.760217E+04  3.793995E+05  8.930547E+04 -2.380018E+05 -1.430800E+04 -1.624088E+03
       108  20  8.241999E+03  1.520133E+05  3.612585E+04 -2.089234E+05 -1.497700E+03  1.486287E+04
       108  21 -4.232389E+04 -7.135482E+04 -4.229183E+03 -2.295832E+05  1.140042E+04  3.134459E+04
       108  22  9.335035E+03  1.335201E+05  4.395258E+04 -2.333660E+05 -1.423197E+04 -2.378617E+04
       108  23  3.449120E+03  1.315498E+05  3.263746E+04 -2.085028E+05 -1.421017E+03 -7.451059E+03
       108  24  6.334518E+03  1.335233E+05  3.404468E+04 -2.333763E+05  1.147764E+04  8.884435E+03
       108  25 -4.893522E+04 -1.122996E+05 -1.400966E+03 -2.287321E+05 -1.415626E+04 -4.593971E+04
       108  26 -1.343512E+03  1.110878E+05  2.915093E+04 -2.080821E+05 -1.344362E+03 -2.976428E+04
       108  27  5.499082E+04  3.384431E+05  7.231865E+04 -2.371706E+05  1.155513E+04 -1.358294E+04
       109   1 -7.808890E+04 -2.153894E+05 -2.690211E+04 -2.370624E+05 -2.010050E+04 -3.880866E+04
       109   2 -1.135031E+05 -4.469199E+05 -5.739866E+04 -1.773018E+05 -2.419208E+04 -3.458089E+04
       109   3 -9.545695E+04 -6.658842E+05 -7.735393E+04 -1.660059E+05 -8.292785E+03 -3.029772E+04
       109   4  5.359064E+03  1.367404E+05  3.836156E+04 -2.331272E+05 -2.018317E+04 -1.451559E+04
       109   5  2.489695E+04  1.274515E+05  5.892358E+04 -2.087445E+05 -2.415470E+04 -4.483344E+04
       109   6  1.038606E+05  1.366508E+05  1.140034E+05 -2.328117E+05 -8.144323E+03 -7.509480E+04
       109   7  8.880032E+04  4.889917E+05  1.036222E+05 -2.291896E+05 -2.026550E+04  9.790911E+03
       109   8  1.632801E+05  7.021394E+05  1.752296E+05 -2.402166E+05 -2.411631E+04 -5.509528E+04
       109   9  3.031489E+05  9.397904E+05  3.053253E+05 -2.997037E+05 -7.986323E+03 -1.199495E+05
       109  10 -7.808974E+04 -2.153912E+05 -2.690570E+04 -2.370630E+05 -7.424597E-11 -2.704400E-08
       109  11 -1.135041E+05 -4.469213E+05 -5.740201E+04 -1.773025E+05  1.472704E-09 -2.242482E-09
       109  12 -9.545727E+04 -6.658852E+05 -7.735578E+04 -1.660061E+05  7.695110E-10  2.526195E-08
       109  13  5.358570E+03  1.367401E+05  3.836040E+04 -2.331274E+05 -1.337018E-09  7.484752E-10
       109  14  2.489578E+04  1.274492E+05  5.891871E+04 -2.087454E+05 -3.742699E-10 -6.844590E-10
       109  15  1.038590E+05  1.366447E+05  1.139927E+05 -2.328122E+05  4.796679E-10 -1.348809E-09
       109  16  8.879985E+04  4.889915E+05  1.036213E+05 -2.291895E+05 -2.132781E-09  2.654674E-08
       109  17  1.632787E+05  7.021360E+05  1.752228E+05 -2.402176E+05 -1.381566E-09  1.783274E-09
       109  18  3.031450E+05  9.397750E+05  3.052981E+05 -2.997045E+05  5.603846E-10 -2.485476E-08
       109  19 -7.808890E+04 -2.153894E+05 -2.690211E+04 -2.370624E+05  2.010050E+04  3.880866E+04
       109  20 -1.135031E+05 -4.469199E+05 -5.739866E+04 -1.773018E+05  2.419208E+04  3.458089E+04
       109  21 -9.545695E+04 -6.658842E+05 -7.735393E+04 -1.660059E+05  8.292785E+03  3.029772E+04
       109  22  5.359064E+03  1.367404E+05  3.836156E+04 -2.331272E+05  2.018317E+04  1.451559E+04
       109  23  2.489695E+04  1.274515E+05  5.892358E+04 -2.087445E+05  2.415470E+04  4.483344E+04
       109  24  1.038606E+05  1.366508E+05  1.140034E+05 -2.328117E+05  8.144323E+03  7.509480E+04
       109  25  8.880032E+04  4.889917E+05  1.036222E+05 -2.291896E+05  2.026550E+04 -9.790911E+03
       109  26  1.632801E+05  7.021394E+05  1.752296E+05 -2.402166E+05  2.411631E+04  5.509528E+04
       109  27  3.031489E+05  9.397904E+05  3.053253E+05 -2.997037E+05  7.986323E+03  1.199495E+05
       110   1 -3.762584E+06 -1.285705E+06 -7.920914E+05 -1.343880E+06 -3.374984E+05 -1.109963E+05
       110   2 -3.655769E+06 -7.879049E+05 -4.794998E+05 -1.349224E+06 -2.196796E+05 -3.244625E+04
       110   3 -3.686391E+06 -7.332247E+05 -3.755044E+05 -1.286982E+06 -9.022616E+04  1.537381E+04
       110   4 -2.704121E+06 -7.533133E+05 -4.792870E+05 -9.205723E+05 -3.095784E+05 -1.005362E+05
       110   5 -2.611610E+06 -3.546507E+05 -2.028353E+05 -1.021863E+06 -2.108340E+05 -2.913241E+04
       110   6 -2.652472E+06 -3.949178E+05 -1.195374E+05 -1.055647E+06 -1.004722E+05  1.151698E+04
       110   7 -1.644519E+06 -2.205711E+05 -1.665876E+05 -4.965217E+05 -2.816055E+05 -9.004111E+04
       110   8 -1.566376E+06  7.874071E+04  7.373461E+04 -6.939767E+05 -2.019717E+05 -2.581082E+04
       110   9 -1.617508E+06 -5.660240E+04  1.363488E+05 -8.239896E+05 -1.107369E+05  7.655222E+03
       110  10 -3.762710E+06 -1.285749E+06 -7.923302E+05 -1.343910E+06  3.224762E-10 -1.020086E-11
       110  11 -3.655821E+06 -7.879191E+05 -4.795930E+05 -1.349230E+06 -2.550728E-10 -2.087489E-10
       110  12 -3.686400E+06 -7.332271E+05 -3.755202E+05 -1.286980E+06  3.690276E-09  1.742544E-09
       110  13 -2.704227E+06 -7.533501E+05 -4.794870E+05 -9.205975E+05  2.600432E-09 -3.064673E-10
       110  14 -2.611658E+06 -3.546636E+05 -2.029208E+05 -1.021868E+06 -8.106329E-10 -2.976859E-10
       110  15 -2.652483E+06 -3.949207E+05 -1.195567E+05 -1.055646E+06  4.447715E-09  2.395079E-09
       110  16 -1.644607E+06 -2.206012E+05 -1.667523E+05 -4.965421E+05 -1.796743E-10 -6.886564E-10
       110  17 -1.566420E+06  7.872900E+04  7.365648E+04 -6.939809E+05  1.261808E-09 -8.471743E-10
       110  18 -1.617522E+06 -5.660576E+04  1.363256E+05 -8.239889E+05  7.780420E-09  3.017201E-09
       110  19 -3.762584E+06 -1.285705E+06 -7.920914E+05 -1.343880E+06  3.374984E+05  1.109963E+05
       110  20 -3.655769E+06 -7.879049E+05 -4.794998E+05 -1.349224E+06  2.196796E+05  3.244625E+04
       110  21 -3.686391E+06 -7.332247E+05 -3.755044E+05 -1.286982E+06  9.022616E+04 -1.537381E+04
       110  22 -2.704121E+06 -7.533133E+05 -4.792870E+05 -9.205723E+05  3.095784E+05  1.005362E+05
       110  23 -2.611610E+06 -3.546507E+05 -2.028353E+05 -1.021863E+06  2.108340E+05  2.913241E+04
       110  24 -2.652472E+06 -3.949178E+05 -1.195374E+05 -1.055647E+06  1.004722E+05 -1.151698E+04
       110  25 -1.644519E+06 -2.205711E+05 -1.665876E+05 -4.965217E+05  2.816055E+05  9.004111E+04
       110  26 -1.566376E+06  7.874071E+04  7.373461E+04 -6.939767E+05  2.019717E+05  2.581082E+04
       110  27 -1.617508E+06 -5.660240E+04  1.363488E+05 -8.239896E+05  1.107369E+05 -7.655222E+03
       111   1 -3.537049E+06 -7.894620E+05 -3.305022E+05 -1.286978E+06 -8.093521E+04  1.164822E+04
       111   2 -3.464432E+06 -6.987440E+05 -2.589057E+05 -1.245670E+06 -5.440750E+04  1.896837E+04
       111   3 -3.370435E+06 -6.819549E+05 -2.161874E+05 -1.238802E+06 -2.716574E+04  2.438554E+04
       111   4 -2.636181E+06 -4.408655E+05 -9.634262E+04 -1.030386E+06 -8.186923E+04  1.129076E+04
       111   5 -2.644724E+06 -3.883600E+05 -4.766102E+04 -1.019033E+06 -5.649794E+04  1.817867E+04
       111   6 -2.631643E+06 -4.095188E+05 -2.690419E+04 -1.042124E+06 -3.041679E+04  2.316269E+04
       111   7 -1.734515E+06 -9.220254E+04  1.377496E+05 -7.734483E+05 -8.280469E+04  1.093273E+04
       111   8 -1.824356E+06 -7.792940E+04  1.635284E+05 -7.921218E+05 -5.859138E+04  1.738783E+04
       111   9 -1.892317E+06 -1.370528E+05  1.623344E+05 -8.452349E+05 -3.367209E+04  2.193832E+04
       111  10 -3.537056E+06 -7.894640E+05 -3.305148E+05 -1.286977E+06  5.792087E-09  3.160841E-09
       111  11 -3.464435E+06 -6.987452E+05 -2.589120E+05 -1.245669E+06  1.668793E-09  8.108673E-10
       111  12 -3.370436E+06 -6.819558E+05 -2.161899E+05 -1.238802E+06  3.282437E-09  5.756131E-10
       111  13 -2.636188E+06 -4.408674E+05 -9.635549E+04 -1.030385E+06  5.669685E-09  2.426847E-09
       111  14 -2.644728E+06 -3.883612E+05 -4.766766E+04 -1.019032E+06 -9.389005E-10  7.697484E-10
       111  15 -2.631644E+06 -4.095196E+05 -2.690694E+04 -1.042123E+06  2.631237E-09  1.235949E-09
       111  16 -1.734522E+06 -9.220451E+04  1.377364E+05 -7.734476E+05  3.370996E-09  1.833231E-09
       111  17 -1.824360E+06 -7.793065E+04  1.635214E+05 -7.921210E+05 -1.647873E-09  1.261969E-09
       111  18 -1.892318E+06 -1.370536E+05  1.623314E+05 -8.452343E+05 -1.610304E-09  1.548240E-09
       111  19 -3.537049E+06 -7.894620E+05 -3.305022E+05 -1.286978E+06  8.093521E+04 -1.164822E+04
       111  20 -3.464432E+06 -6.987440E+05 -2.589057E+05 -1.245670E+06  5.440750E+04 -1.896837E+04
       111  21 -3.370435E+06 -6.819549E+05 -2.161874E+05 -1.238802E+06  2.716574E+04 -2.438554E+04
       111  22 -2.636181E+06 -4.408655E+05 -9.634262E+04 -1.030386E+06  8.186923E+04 -1.129076E+04
       111  23 -2.644724E+06 -3.883600E+05 -4.766102E+04 -1.019033E+06  5.649794E+04 -1.817867E+04
       111  24 -2.631643E+06 -4.095188E+05 -2.690419E+04 -1.042124E+06  3.041679E+04 -2.316269E+04
       111  25 -1.734515E+06 -9.220254E+04  1.377496E+05 -7.734483E+05  8.280469E+04 -1.093273E+04
       111  26 -1.824356E+06 -7.792940E+04  1.635284E+05 -7.921218E+05  5.859138E+04 -1.738783E+04
       111  27 -1.892317E+06 -1.370528E+05  1.623344E+05 -8.452349E+05  3.367209E+04 -2.193832E+04
       112   1 -3.267332E+06 -6.536441E+05 -1.845277E+05 -1.214996E+06 -2.277105E+04  2.277760E+04
       112   2 -3.194079E+06 -5.952243E+05 -1.512103E+05 -1.166804E+06 -1.540399E+04  2.041268E+04
       112   3 -3.082073E+06 -5.804344E+05 -1.229339E+05 -1.164314E+06 -7.968856E+03  1.785389E+04
       112   4 -2.629374E+06 -4.139505E+05 -2.077167E+04 -1.040439E+06 -2.553686E+04  2.173800E+04
       112   5 -2.648545E+06 -3.907594E+05 -1.105456E+04 -1.018100E+06 -1.828530E+04  1.933138E+04
       112   6 -2.628947E+06 -4.111712E+05 -6.281941E+03 -1.041465E+06 -1.096661E+04  1.673065E+04
       112   7 -1.991020E+06 -1.742314E+05  1.429503E+05 -8.657191E+05 -2.830579E+04  2.069724E+04
       112   8 -2.102719E+06 -1.862756E+05  1.290767E+05 -8.692774E+05 -2.116939E+04  1.824904E+04
       112   9 -2.175619E+06 -2.418949E+05  1.103535E+05 -9.185337E+05 -1.396677E+04  1.560651E+04
       112  10 -3.267333E+06 -6.536448E+05 -1.845296E+05 -1.214996E+06  6.503232E-09  1.165138E-09
       112  11 -3.194079E+06 -5.952248E+05 -1.512115E+05 -1.166804E+06  5.182294E-10  6.681334E-11
       112  12 -3.082073E+06 -5.804348E+05 -1.229346E+05 -1.164314E+06  2.630435E-10 -1.662094E-10
       112  13 -2.629375E+06 -4.139512E+05 -2.077378E+04 -1.040439E+06  3.795558E-09  1.055531E-09
       112  14 -2.648545E+06 -3.907598E+05 -1.105589E+04 -1.018100E+06  1.605615E-09  1.192316E-10
       112  15 -2.628947E+06 -4.111716E+05 -6.282692E+03 -1.041465E+06 -9.673894E-10 -3.044211E-10
       112  16 -1.991021E+06 -1.742321E+05  1.429480E+05 -8.657187E+05 -1.663632E-09  5.824558E-10
       112  17 -2.102720E+06 -1.862760E+05  1.290752E+05 -8.692771E+05 -1.642183E-09 -4.944336E-10
       112  18 -2.175619E+06 -2.418952E+05  1.103527E+05 -9.185335E+05 -1.053794E-09 -1.643358E-10
       112  19 -3.267332E+06 -6.536441E+05 -1.845277E+05 -1.214996E+06  2.277105E+04 -2.277760E+04
       112  20 -3.194079E+06 -5.952243E+05 -1.512103E+05 -1.166804E+06  1.540399E+04 -2.041268E+04
       112  21 -3.082073E+06 -5.804344E+05 -1.229339E+05 -1.164314E+06  7.968856E+03 -1.785389E+04
       112  22 -2.629374E+06 -4.139505E+05 -2.077167E+04 -1.040439E+06  2.553686E+04 -2.173800E+04
       112  23 -2.648545E+06 -3.907594E+05 -1.105456E+04 -1.018100E+06  1.828530E+04 -1.933138E+04
       112  24 -2.628947E+06 -4.111712E+05 -6.281941E+03 -1.041465E+06  1.096661E+04 -1.673065E+04
       112  25 -1.991020E+06 -1.742314E+05  1.429503E+05 -8.657191E+05  2.830579E+04 -2.069724E+04
       112  26 -2.102719E+06 -1.862756E+05  1.290767E+05 -8.692774E+05  2.116939E+04 -1.824904E+04
       112  27 -2.175619E+06 -2.418949E+05  1.103535E+05 -9.185337E+05  1.396677E+04 -1.560651E+04
       113   1 -2.978746E+06 -5.429225E+05 -9.452370E+04 -1.137024E+06 -6.009171E+03  1.540677E+04
       113   2 -2.903030E+06 -4.855277E+05 -6.822523E+04 -1.086636E+06 -2.650710E+03  1.118178E+04
       113   3 -2.785605E+06 -4.704239E+05 -4.316105E+04 -1.084448E+06  7.236688E+02  6.907477E+03
       113   4 -2.628406E+06 -4.118335E+05 -4.901661E+03 -1.041652E+06 -9.008047E+03  1.428392E+04
       113   5 -2.649232E+06 -3.905587E+05 -3.060567E+03 -1.017597E+06 -5.679602E+03  1.004847E+04
       113   6 -2.628353E+06 -4.115677E+05 -2.428910E+03 -1.041744E+06 -2.335540E+03  5.763674E+03
       113   7 -2.277945E+06 -2.807364E+05  8.471058E+04 -9.462307E+05 -1.200879E+04  1.316038E+04
       113   8 -2.395372E+06 -2.955864E+05  6.209841E+04 -9.485333E+05 -8.709836E+03  8.914665E+03
       113   9 -2.471079E+06 -3.527109E+05  3.830058E+04 -9.990317E+05 -5.395558E+03  4.619570E+03
       113  10 -2.978746E+06 -5.429228E+05 -9.452421E+04 -1.137024E+06  9.016744E-10  3.579814E-10
       113  11 -2.903030E+06 -4.855278E+05 -6.822547E+04 -1.086636E+06 -4.618845E-10  1.833026E-09
       113  12 -2.785605E+06 -4.704239E+05 -4.316114E+04 -1.084448E+06  1.204212E-10 -8.677239E-10
       113  13 -2.628406E+06 -4.118337E+05 -4.902196E+03 -1.041652E+06  1.077806E-11  6.366437E-10
       113  14 -2.649232E+06 -3.905589E+05 -3.060817E+03 -1.017597E+06  1.626122E-10  7.414102E-10
       113  15 -2.628353E+06 -4.115678E+05 -2.428983E+03 -1.041744E+06  3.746866E-10  1.093731E-09
       113  16 -2.277945E+06 -2.807367E+05  8.470998E+04 -9.462305E+05 -1.130050E-10  3.694780E-10
       113  17 -2.395372E+06 -2.955865E+05  6.209811E+04 -9.485332E+05  5.650425E-10  1.117859E-09
       113  18 -2.471079E+06 -3.527109E+05  3.830049E+04 -9.990317E+05 -2.002856E-09 -1.382746E-09
       113  19 -2.978746E+06 -5.429225E+05 -9.452370E+04 -1.137024E+06  6.009171E+03 -1.540677E+04
       113  20 -2.903030E+06 -4.855277E+05 -6.822523E+04 -1.086636E+06  2.650710E+03 -1.118178E+04
       113  21 -2.785605E+06 -4.704239E+05 -4.316105E+04 -1.084448E+06 -7.236688E+02 -6.907477E+03
       113  22 -2.628406E+06 -4.118335E+05 -4.901661E+03 -1.041652E+06  9.008047E+03 -1.428392E+04
       113  23 -2.649232E+06 -3.905587E+05 -3.060567E+03 -1.017597E+06  5.679602E+03 -1.004847E+04
       113  24 -2.628353E+06 -4.115677E+05 -2.428910E+03 -1.041744E+06  2.335540E+03 -5.763674E+03
       113  25 -2.277945E+06 -2.807364E+05  8.471058E+04 -9.462307E+05  1.200879E+04 -1.316038E+04
       113  26 -2.395372E+06 -2.955864E+05  6.209841E+04 -9.485333E+05  8.709836E+03 -8.914665E+03
       113  27 -2.471079E+06 -3.527109E+05  3.830058E+04 -9.990317E+05  5.395558E+03 -4.619570E+03
       114   1 -2.680367E+06 -4.311370E+05 -1.546744E+04 -1.056097E+06  2.198935E+03  4.213904E+03
       114   2 -2.603857E+06 -3.734427E+05  8.520979E+03 -1.005131E+06  5.587323E+03 -8.923055E+01
       114   3 -2.485296E+06 -3.584578E+05  3.125716E+04 -1.002868E+06  8.971366E+03 -4.378305E+03
       114   4 -2.628273E+06 -4.116629E+05 -2.448691E+03 -1.041855E+06 -8.689725E+02  3.067072E+03
       114   5 -2.649310E+06 -3.904145E+05 -3.140769E+03 -1.017461E+06  2.527773E+03 -1.233134E+03
       114   6 -2.628306E+06 -4.118790E+05 -5.091546E+03 -1.041775E+06  5.919886E+03 -5.519336E+03
       114   7 -2.576176E+06 -3.921883E+05  1.057006E+04 -1.027611E+06 -3.937199E+03  1.920121E+03
       114   8 -2.694760E+06 -4.073864E+05 -1.480277E+04 -1.029790E+06 -5.315628E+02 -2.376958E+03
       114   9 -2.771298E+06 -4.652993E+05 -4.144219E+04 -1.080674E+06  2.869152E+03 -6.660089E+03
       114  10 -2.680367E+06 -4.311371E+05 -1.546748E+04 -1.056097E+06 -8.960349E-10 -1.215748E-09
       114  11 -2.603857E+06 -3.734427E+05  8.520920E+03 -1.005131E+06 -1.104501E-09 -1.668946E-09
       114  12 -2.485296E+06 -3.584578E+05  3.125697E+04 -1.002868E+06  6.452126E-10 -9.051647E-10
       114  13 -2.628273E+06 -4.116629E+05 -2.448710E+03 -1.041855E+06 -3.276993E-10 -1.522160E-09
       114  14 -2.649310E+06 -3.904145E+05 -3.140783E+03 -1.017461E+06 -1.891719E-09 -9.733145E-10
       114  15 -2.628306E+06 -4.118790E+05 -5.091669E+03 -1.041775E+06  1.016708E-09  4.872454E-10
       114  16 -2.576176E+06 -3.921883E+05  1.057002E+04 -1.027611E+06  2.167405E-09 -1.577973E-10
       114  17 -2.694760E+06 -4.073864E+05 -1.480278E+04 -1.029790E+06  1.548355E-09  1.084851E-09
       114  18 -2.771298E+06 -4.652993E+05 -4.144229E+04 -1.080674E+06  7.905675E-10 -1.071554E-10
       114  19 -2.680367E+06 -4.311370E+05 -1.546744E+04 -1.056097E+06 -2.198935E+03 -4.213904E+03
       114  20 -2.603857E+06 -3.734427E+05  8.520979E+03 -1.005131E+06 -5.587323E+03  8.923055E+01
       114  21 -2.485296E+06 -3.584578E+05  3.125716E+04 -1.002868E+06 -8.971366E+03  4.378305E+03
       114  22 -2.628273E+06 -4.116629E+05 -2.448691E+03 -1.041855E+06  8.689725E+02 -3.067072E+03
       114  23 -2.649310E+06 -3.904145E+05 -3.140769E+03 -1.017461E+06 -2.527773E+03  1.233134E+03
       114  24 -2.628306E+06 -4.118790E+05 -5.091546E+03 -1.041775E+06 -5.919886E+03  5.519336E+03
       114  25 -2.576176E+06 -3.921883E+05  1.057006E+04 -1.027611E+06  3.937199E+03 -1.920121E+03
       114  26 -2.694760E+06 -4.073864E+05 -1.480277E+04 -1.029790E+06  5.315628E+02  2.376958E+03
       114  27 -2.771298E+06 -4.652993E+05 -4.144219E+04 -1.080674E+06 -2.869152E+03  6.660089E+03
       115   1 -2.380802E+06 -3.190913E+05  5.734910E+04 -9.749151E+05  1.099932E+04 -6.859576E+03
       115   2 -2.305493E+06 -2.618174E+05  7.659889E+04 -9.242131E+05  1.851602E+04 -9.531640E+03
       115   3 -2.190447E+06 -2.495068E+05  9.071390E+04 -9.206838E+05  2.598305E+04 -1.205876E+04
       115   4 -2.628698E+06 -4.113924E+05 -6.550407E+03 -1.041811E+06  7.935883E+03 -8.005472E+03
       115   5 -2.648767E+06 -3.903247E+05 -1.152316E+04 -1.017696E+06  1.553945E+04 -1.064611E+04
       115   6 -2.629126E+06 -4.142405E+05 -2.170153E+04 -1.040758E+06  2.309243E+04 -1.314210E+04
       115   7 -2.876530E+06 -5.036885E+05 -7.045400E+04 -1.108682E+06  4.873837E+03 -9.150855E+03
       115   8 -2.991924E+06 -5.188241E+05 -9.965448E+04 -1.111132E+06  1.256470E+04 -1.175990E+04
       115   9 -3.067618E+06 -5.789625E+05 -1.341334E+05 -1.160756E+06  2.020403E+04 -1.422461E+04
       115  10 -2.380802E+06 -3.190913E+05  5.734879E+04 -9.749151E+05  4.135200E-10 -4.939145E-10
       115  11 -2.305493E+06 -2.618176E+05  7.659807E+04 -9.242130E+05  4.047984E-10 -6.980886E-10
       115  12 -2.190448E+06 -2.495072E+05  9.071236E+04 -9.206836E+05 -8.684202E-10 -4.067000E-10
       115  13 -2.628698E+06 -4.113925E+05 -6.550646E+03 -1.041811E+06 -8.954428E-10 -5.850443E-10
       115  14 -2.648767E+06 -3.903249E+05 -1.152383E+04 -1.017696E+06 -1.217435E-09 -1.936768E-10
       115  15 -2.629126E+06 -4.142408E+05 -2.170286E+04 -1.040758E+06 -2.577265E-10 -1.623083E-10
       115  16 -2.876530E+06 -5.036886E+05 -7.045420E+04 -1.108682E+06 -1.300331E-09 -7.873002E-10
       115  17 -2.991924E+06 -5.188243E+05 -9.965504E+04 -1.111132E+06 -2.069847E-10 -8.284257E-10
       115  18 -3.067619E+06 -5.789629E+05 -1.341346E+05 -1.160756E+06 -1.038430E-09  4.108310E-10
       115  19 -2.380802E+06 -3.190913E+05  5.734910E+04 -9.749151E+05 -1.099932E+04  6.859576E+03
       115  20 -2.305493E+06 -2.618174E+05  7.659889E+04 -9.242131E+05 -1.851602E+04  9.531640E+03
       115  21 -2.190447E+06 -2.495068E+05  9.071390E+04 -9.206838E+05 -2.598305E+04  1.205876E+04
       115  22 -2.628698E+06 -4.113924E+05 -6.550407E+03 -1.041811E+06 -7.935883E+03  8.005472E+03
       115  23 -2.648767E+06 -3.903247E+05 -1.152316E+04 -1.017696E+06 -1.553945E+04  1.064611E+04
       115  24 -2.629126E+06 -4.142405E+05 -2.170153E+04 -1.040758E+06 -2.309243E+04  1.314210E+04
       115  25 -2.876530E+06 -5.036885E+05 -7.045400E+04 -1.108682E+06 -4.873837E+03  9.150855E+03
       115  26 -2.991924E+06 -5.188241E+05 -9.965448E+04 -1.111132E+06 -1.256470E+04  1.175990E+04
       115  27 -3.067618E+06 -5.789625E+05 -1.341334E+05 -1.160756E+06 -2.020403E+04  1.422461E+04
       116   1 -2.087424E+06 -2.110485E+05  1.108909E+05 -8.996913E+05  3.149254E+04 -1.333971E+04
       116   2 -2.015511E+06 -1.489350E+05  1.123593E+05 -8.438828E+05  5.776404E+04 -8.577240E+03
       116   3 -1.920784E+06 -1.639253E+05  8.539278E+04 -8.245919E+05  8.343372E+04 -2.185601E+03
       116   4 -2.631316E+06 -4.098180E+05 -2.812009E+04 -1.042752E+06  2.817399E+04 -1.458407E+04
       116   5 -2.644968E+06 -3.875194E+05 -4.977692E+04 -1.018374E+06  5.544030E+04 -9.451142E+03
       116   6 -2.636028E+06 -4.425529E+05 -1.006829E+05 -1.030519E+06  8.210072E+04 -2.690384E+03
       116   7 -3.174920E+06 -6.085725E+05 -1.671551E+05 -1.185701E+06  2.485864E+04 -1.582730E+04
       116   8 -3.274037E+06 -6.260758E+05 -2.119456E+05 -1.192703E+06  5.311913E+04 -1.032406E+04
       116   9 -3.350769E+06 -7.211361E+05 -2.868010E+05 -1.236225E+06  8.076936E+04 -3.194498E+03
       116  10 -2.087425E+06 -2.110490E+05  1.108887E+05 -8.996910E+05  6.489557E-10  1.810856E-10
       116  11 -2.015515E+06 -1.489360E+05  1.123528E+05 -8.438824E+05  3.905779E-09  1.252680E-09
       116  12 -1.920791E+06 -1.639272E+05  8.537965E+04 -8.245918E+05  3.497704E-09  4.967348E-10
       116  13 -2.631317E+06 -4.098184E+05 -2.812198E+04 -1.042752E+06  1.228171E-09  1.415697E-09
       116  14 -2.644972E+06 -3.875203E+05 -4.978289E+04 -1.018374E+06  4.690397E-09  1.185729E-09
       116  15 -2.636035E+06 -4.425547E+05 -1.006956E+05 -1.030518E+06  2.532152E-09  4.469830E-11
       116  16 -3.174921E+06 -6.085729E+05 -1.671567E+05 -1.185701E+06  1.887500E-09  1.725172E-09
       116  17 -3.274040E+06 -6.260766E+05 -2.119511E+05 -1.192703E+06  4.017425E-09  1.362222E-09
       116  18 -3.350776E+06 -7.211379E+05 -2.868133E+05 -1.236225E+06 -7.686541E-10 -3.900022E-10
       116  19 -2.087424E+06 -2.110485E+05  1.108909E+05 -8.996913E+05 -3.149254E+04  1.333971E+04
       116  20 -2.015511E+06 -1.489350E+05  1.123593E+05 -8.438828E+05 -5.776404E+04  8.577240E+03
       116  21 -1.920784E+06 -1.639253E+05  8.539278E+04 -8.245919E+05 -8.343372E+04  2.185601E+03
       116  22 -2.631316E+06 -4.098180E+05 -2.812009E+04 -1.042752E+06 -2.817399E+04  1.458407E+04
       116  23 -2.644968E+06 -3.875194E+05 -4.977692E+04 -1.018374E+06 -5.544030E+04  9.451142E+03
       116  24 -2.636028E+06 -4.425529E+05 -1.006829E+05 -1.030519E+06 -8.210072E+04  2.690384E+03
       116  25 -3.174920E+06 -6.085725E+05 -1.671551E+05 -1.185701E+06 -2.485864E+04  1.582730E+04
       116  26 -3.274037E+06 -6.260758E+05 -2.119456E+05 -1.192703E+06 -5.311913E+04  1.032406E+04
       116  27 -3.350769E+06 -7.211361E+05 -2.868010E+05 -1.236225E+06 -8.076936E+04  3.194498E+03
       117   1 -1.796533E+06 -1.261677E+05  8.473575E+04 -8.773405E+05  1.106837E+05  1.241441E+03
       117   2 -1.740157E+06  1.676111E+04  1.989244E+04 -7.398509E+05  2.097982E+05  3.673907E+04
       117   3 -1.818485E+06 -2.969847E+05 -2.335762E+05 -5.338392E+05  2.989389E+05  9.879101E+04
       117   4 -2.652884E+06 -3.947215E+05 -1.249274E+05 -1.057135E+06  1.012958E+05 -2.278141E+03
       117   5 -2.610602E+06 -3.519548E+05 -2.119209E+05 -1.020996E+06  2.169071E+05  3.939185E+04
       117   6 -2.706575E+06 -7.695678E+05 -5.008661E+05 -9.162838E+05  3.225306E+05  1.075944E+05
       117   7 -3.508520E+06 -6.632780E+05 -3.346444E+05 -1.236728E+06  9.192199E+04 -5.794426E+03
       117   8 -3.480299E+06 -7.205617E+05 -4.437997E+05 -1.301762E+06  2.240049E+05  4.203921E+04
       117   9 -3.593839E+06 -1.241834E+06 -7.682267E+05 -1.298151E+06  3.460847E+05  1.163705E+05
       117  10 -1.796547E+06 -1.261710E+05  8.471266E+04 -8.773406E+05  7.637587E-10 -4.031661E-10
       117  11 -1.740204E+06  1.674780E+04  1.980692E+04 -7.398571E+05  8.578942E-10 -1.854141E-10
       117  12 -1.818584E+06 -2.970193E+05 -2.337630E+05 -5.338630E+05 -8.942039E-11  8.789643E-10
       117  13 -2.652895E+06 -3.947243E+05 -1.249467E+05 -1.057135E+06  1.368692E-10 -1.399317E-10
       117  14 -2.610653E+06 -3.519692E+05 -2.120126E+05 -1.021003E+06  7.654993E-10 -5.482599E-10
       117  15 -2.706690E+06 -7.696084E+05 -5.010844E+05 -9.163118E+05 -5.193781E-10 -2.395366E-11
       117  16 -3.508529E+06 -6.632803E+05 -3.346604E+05 -1.236728E+06  3.891699E-10  2.420136E-10
       117  17 -3.480353E+06 -7.205772E+05 -4.438979E+05 -1.301769E+06 -5.914081E-10  1.002826E-09
       117  18 -3.593972E+06 -1.241881E+06 -7.684789E+05 -1.298184E+06 -3.808084E-10  3.855425E-10
       117  19 -1.796533E+06 -1.261677E+05  8.473575E+04 -8.773405E+05 -1.106837E+05 -1.241441E+03
       117  20 -1.740157E+06  1.676111E+04  1.989244E+04 -7.398509E+05 -2.097982E+05 -3.673907E+04
       117  21 -1.818485E+06 -2.969847E+05 -2.335762E+05 -5.338392E+05 -2.989389E+05 -9.879101E+04
       117  22 -2.652884E+06 -3.947215E+05 -1.249274E+05 -1.057135E+06 -1.012958E+05  2.278141E+03
       117  23 -2.610602E+06 -3.519548E+05 -2.119209E+05 -1.020996E+06 -2.169071E+05 -3.939185E+04
       117  24 -2.706575E+06 -7.695678E+05 -5.008661E+05 -9.162838E+05 -3.225306E+05 -1.075944E+05
       117  25 -3.508520E+06 -6.632780E+05 -3.346444E+05 -1.236728E+06 -9.192199E+04  5.794426E+03
       117  26 -3.480299E+06 -7.205617E+05 -4.437997E+05 -1.301762E+06 -2.240049E+05 -4.203921E+04
       117  27 -3.593839E+06 -1.241834E+06 -7.682267E+05 -1.298151E+06 -3.460847E+05 -1.163705E+05
       118   1 -4.726605E+05  1.928661E+04  5.773465E+04  3.444888E+04  1.164777E+05  6.353365E+03
       118   2 -4.515841E+05 -1.343432E+05 -3.032555E+04  5.902518E+03  8.033984E+04  1.914989E+04
       118   3 -3.832633E+05 -1.187089E+05 -5.248255E+04 -4.728560E+04  4.421004E+04  1.868935E+04
       118   4  6.405392E+04  1.528029E+05  1.891857E+05 -2.492938E+04  1.296281E+05  6.353780E+03
       118   5  3.968322E+04 -1.319833E+04  8.415943E+04 -1.254514E+04  8.454958E+04  1.914937E+04
       118   6  6.406447E+04 -8.462084E+03  5.120572E+04 -2.480056E+04  3.948248E+04  1.868780E+04
       118   7  6.010389E+05  2.863112E+05  3.206182E+05 -8.435915E+04  1.427899E+05  6.351683E+03
       118   8  5.311741E+05  1.079307E+05  1.986283E+05 -3.100754E+04  8.876260E+04  1.914861E+04
       118   9  5.115783E+05  1.017725E+05  1.548809E+05 -2.299214E+03  3.475152E+04  1.868591E+04
       118  10 -4.726751E+05  1.928292E+04  5.770906E+04  3.444828E+04 -3.291643E-10  1.361946E-10
       118  11 -4.515912E+05 -1.343453E+05 -3.033838E+04  5.901279E+03 -1.733287E-09 -6.598506E-10
       118  12 -3.832655E+05 -1.187098E+05 -5.248688E+04 -4.728626E+04 -1.703597E-09  2.543203E-10
       118  13  6.403587E+04  1.527983E+05  1.891541E+05 -2.493004E+04  1.068767E-09 -5.126327E-11
       118  14  3.967545E+04 -1.320064E+04  8.414531E+04 -1.254644E+04 -3.352022E-09 -1.192995E-09
       118  15  6.406270E+04 -8.462878E+03  5.120214E+04 -2.480116E+04 -2.167544E-09  4.651074E-10
       118  16  6.010170E+05  2.863057E+05  3.205799E+05 -8.435988E+04 -7.479511E-10 -3.116753E-10
       118  17  5.311655E+05  1.079282E+05  1.986129E+05 -3.100891E+04 -1.527291E-09 -3.147696E-10
       118  18  5.115769E+05  1.017718E+05  1.548780E+05 -2.299737E+03 -1.562590E-09  4.530584E-10
       118  19 -4.726605E+05  1.928661E+04  5.773465E+04  3.444888E+04 -1.164777E+05 -6.353365E+03
       118  20 -4.515841E+05 -1.343432E+05 -3.032555E+04  5.902518E+03 -8.033984E+04 -1.914989E+04
       118  21 -3.832633E+05 -1.187089E+05 -5.248255E+04 -4.728560E+04 -4.421004E+04 -1.868935E+04
       118  22  6.405392E+04  1.528029E+05  1.891857E+05 -2.492938E+04 -1.296281E+05 -6.353780E+03
       118  23  3.968322E+04 -1.319833E+04  8.415943E+04 -1.254514E+04 -8.454958E+04 -1.914937E+04
       118  24  6.406447E+04 -8.462084E+03  5.120572E+04 -2.480056E+04 -3.948248E+04 -1.868780E+04
       118  25  6.010389E+05  2.863112E+05  3.206182E+05 -8.435915E+04 -1.427899E+05 -6.351683E+03
       118  26  5.311741E+05  1.079307E+05  1.986283E+05 -3.100754E+04 -8.876260E+04 -1.914861E+04
       118  27  5.115783E+05  1.017725E+05  1.548809E+05 -2.299214E+03 -3.475152E+04 -1.868591E+04
       119   1 -3.477750E+05 -8.683901E+04 -5.228476E+04 -2.092085E+04  3.246961E+04  1.581564E+04
       119   2 -3.057982E+05 -8.938962E+04 -6.141333E+04 -1.147014E+04  2.195503E+04  1.449344E+04
       119   3 -2.588515E+05 -7.793664E+04 -6.017099E+04 -2.694488E+04  1.143904E+04  1.247088E+04
       119   4  5.436098E+04  1.232635E+04  4.135071E+04 -2.490155E+04  3.183301E+04  1.581450E+04
       119   5  5.184118E+04 -1.233875E+03  2.167067E+04 -1.243760E+04  2.084143E+04  1.449260E+04
       119   6  5.436919E+04 -7.123314E+02  1.268795E+04 -2.489804E+04  9.849197E+03  1.247044E+04
       119   7  4.566463E+05  1.114803E+05  1.349753E+05 -2.888486E+04  3.119599E+04  1.581336E+04
       119   8  4.095986E+05  8.691286E+04  1.047461E+05 -1.340563E+04  1.972719E+04  1.449177E+04
       119   9  3.676805E+05  7.650507E+04  8.554029E+04 -2.285015E+04  8.258558E+03  1.246998E+04
       119  10 -3.477762E+05 -8.683956E+04 -5.228721E+04 -2.092126E+04  2.994337E-10  1.711822E-10
       119  11 -3.057987E+05 -8.938998E+04 -6.141463E+04 -1.147039E+04 -3.083235E-09  4.447768E-10
       119  12 -2.588517E+05 -7.793684E+04 -6.017153E+04 -2.694500E+04 -9.899531E-10  4.196514E-10
       119  13  5.435982E+04  1.232581E+04  4.134834E+04 -2.490195E+04 -2.156262E-09  2.535603E-10
       119  14  5.184066E+04 -1.234217E+03  2.166945E+04 -1.243785E+04  5.082493E-10 -2.828875E-10
       119  15  5.436905E+04 -7.125244E+02  1.268748E+04 -2.489814E+04 -2.585014E-10  4.880207E-10
       119  16  4.566452E+05  1.114798E+05  1.349730E+05 -2.888525E+04  3.296093E-10  4.341172E-10
       119  17  4.095982E+05  8.691253E+04  1.047449E+05 -1.340586E+04 -7.864891E-11 -1.067213E-09
       119  18  3.676804E+05  7.650488E+04  8.553987E+04 -2.285023E+04  7.240143E-10  5.967796E-10
       119  19 -3.477750E+05 -8.683901E+04 -5.228476E+04 -2.092085E+04 -3.246961E+04 -1.581564E+04
       119  20 -3.057982E+05 -8.938962E+04 -6.141333E+04 -1.147014E+04 -2.195503E+04 -1.449344E+04
       119  21 -2.588515E+05 -7.793664E+04 -6.017099E+04 -2.694488E+04 -1.143904E+04 -1.247088E+04
       119  22  5.436098E+04  1.232635E+04  4.135071E+04 -2.490155E+04 -3.183301E+04 -1.581450E+04
       119  23  5.184118E+04 -1.233875E+03  2.167067E+04 -1.243760E+04 -2.084143E+04 -1.449260E+04
       119  24  5.436919E+04 -7.123314E+02  1.268795E+04 -2.489804E+04 -9.849197E+03 -1.247044E+04
       119  25  4.566463E+05  1.114803E+05  1.349753E+05 -2.888486E+04 -3.119599E+04 -1.581336E+04
       119  26  4.095986E+05  8.691286E+04  1.047461E+05 -1.340563E+04 -1.972719E+04 -1.449177E+04
       119  27  3.676805E+05  7.650507E+04  8.554029E+04 -2.285015E+04 -8.258558E+03 -1.246998E+04
       120   1 -2.147969E+05 -6.513612E+04 -5.235284E+04 -2.476504E+04  9.240751E+03  1.115676E+04
       120   2 -1.707169E+05 -5.529122E+04 -4.649746E+04 -1.245964E+04  6.538477E+03  9.091540E+03
       120   3 -1.259661E+05 -4.428435E+04 -3.858606E+04 -2.508152E+04  3.835195E+03  6.989853E+03
       120   4  5.340340E+04  9.445589E+02  9.822501E+03 -2.489944E+04  7.867645E+03  1.115648E+04
       120   5  5.306982E+04 -1.358886E+02  5.475365E+03 -1.243615E+04  5.139735E+03  9.091504E+03
       120   6  5.340851E+04 -5.030814E+01  3.201219E+03 -2.489956E+04  2.411005E+03  6.990066E+03
       120   7  3.216701E+05  6.702018E+04  7.199303E+04 -2.503390E+04  6.493949E+03  1.115621E+04
       120   8  2.769028E+05  5.501592E+04  5.744482E+04 -1.241264E+04  3.740491E+03  9.091468E+03
       120   9  2.328129E+05  4.418146E+04  4.498633E+04 -2.471754E+04  9.864068E+02  6.990278E+03
       120  10 -2.147970E+05 -6.513628E+04 -5.235324E+04 -2.476512E+04  6.860965E-10  3.111976E-10
       120  11 -1.707169E+05 -5.529132E+04 -4.649769E+04 -1.245969E+04 -2.052860E-10 -2.744384E-10
       120  12 -1.259662E+05 -4.428441E+04 -3.858618E+04 -2.508154E+04 -2.179883E-09 -5.439125E-10
       120  13  5.340330E+04  9.444087E+02  9.822150E+03 -2.489951E+04 -1.074814E-09  6.700774E-10
       120  14  5.306977E+04 -1.359844E+02  5.475160E+03 -1.243618E+04 -3.747019E-09 -2.099515E-10
       120  15  5.340849E+04 -5.036217E+01  3.201116E+03 -2.489957E+04 -1.924124E-09 -4.713907E-10
       120  16  3.216700E+05  6.702003E+04  7.199271E+04 -2.503396E+04 -2.329433E-09  1.014793E-09
       120  17  2.769027E+05  5.501582E+04  5.744464E+04 -1.241267E+04 -8.523667E-10 -7.436998E-11
       120  18  2.328128E+05  4.418141E+04  4.498624E+04 -2.471755E+04 -1.511855E-09  1.164399E-12
       120  19 -2.147969E+05 -6.513612E+04 -5.235284E+04 -2.476504E+04 -9.240751E+03 -1.115676E+04
       120  20 -1.707169E+05 -5.529122E+04 -4.649746E+04 -1.245964E+04 -6.538477E+03 -9.091540E+03
       120  21 -1.259661E+05 -4.428435E+04 -3.858606E+04 -2.508152E+04 -3.835195E+03 -6.989853E+03
       120  22  5.340340E+04  9.445589E+02  9.822501E+03 -2.489944E+04 -7.867645E+03 -1.115648E+04
       120  23  5.306982E+04 -1.358886E+02  5.475365E+03 -1.243615E+04 -5.139735E+03 -9.091504E+03
       120  24  5.340851E+04 -5.030814E+01  3.201219E+03 -2.489956E+04 -2.411005E+03 -6.990066E+03
       120  25  3.216701E+05  6.702018E+04  7.199303E+04 -2.503390E+04 -6.493949E+03 -1.115621E+04
       120  26  2.769028E+05  5.501592E+04  5.744482E+04 -1.241264E+04 -3.740491E+03 -9.091468E+03
       120  27  2.328129E+05  4.418146E+04  4.498633E+04 -2.471754E+04 -9.864068E+02 -6.990278E+03
       121   1 -8.110116E+04 -3.302259E+04 -2.860726E+04 -2.490888E+04  3.313509E+03  5.759552E+03
       121   2 -3.675962E+04 -2.219088E+04 -1.941251E+04 -1.245131E+04  2.578695E+03  3.656197E+03
       121   3  7.694280E+03 -1.124978E+04 -9.714961E+03 -2.490712E+04  1.843512E+03  1.551184E+03
       121   4  5.328728E+04  7.118542E+01  2.470306E+03 -2.489650E+04  1.900839E+03  5.759871E+03
       121   5  5.323295E+04 -1.285775E+01  1.485552E+03 -1.243993E+04  1.164719E+03  3.656610E+03
       121   6  5.328932E+04  1.281262E+01  1.004483E+03 -2.489653E+04  4.282810E+02  1.551697E+03
       121   7  1.876924E+05  3.316370E+04  3.354667E+04 -2.488412E+04  4.878641E+02  5.760191E+03
       121   8  1.432330E+05  2.216460E+04  2.238307E+04 -1.242856E+04 -2.494616E+02  3.657023E+03
       121   9  9.888628E+04  1.127526E+04  1.172379E+04 -2.488594E+04 -9.870529E+02  1.552211E+03
       121  10 -8.110119E+04 -3.302263E+04 -2.860734E+04 -2.490890E+04 -2.790471E-09 -7.842862E-11
       121  11 -3.675963E+04 -2.219090E+04 -1.941255E+04 -1.245132E+04 -1.546465E-09  1.057774E-09
       121  12  7.694276E+03 -1.124979E+04 -9.714972E+03 -2.490712E+04  6.704793E-11  1.222002E-11
       121  13  5.328726E+04  7.114882E+01  2.470237E+03 -2.489651E+04 -2.175794E-09 -5.467274E-11
       121  14  5.323295E+04 -1.287247E+01  1.485524E+03 -1.243994E+04  5.858326E-10 -3.429083E-10
       121  15  5.328932E+04  1.280998E+01  1.004478E+03 -2.489653E+04  2.079411E-10 -7.011272E-11
       121  16  1.876924E+05  3.316366E+04  3.354661E+04 -2.488412E+04  6.902661E-10 -8.319851E-10
       121  17  1.432330E+05  2.216458E+04  2.238305E+04 -1.242856E+04  1.719286E-10 -1.043757E-09
       121  18  9.888628E+04  1.127526E+04  1.172379E+04 -2.488593E+04 -9.563232E-10  1.565404E-10
       121  19 -8.110116E+04 -3.302259E+04 -2.860726E+04 -2.490888E+04 -3.313509E+03 -5.759552E+03
       121  20 -3.675962E+04 -2.219088E+04 -1.941251E+04 -1.245131E+04 -2.578695E+03 -3.656197E+03
       121  21  7.694280E+03 -1.124978E+04 -9.714961E+03 -2.490712E+04 -1.843512E+03 -1.551184E+03
       121  22  5.328728E+04  7.118542E+01  2.470306E+03 -2.489650E+04 -1.900839E+03 -5.759871E+03
       121  23  5.323295E+04 -1.285775E+01  1.485552E+03 -1.243993E+04 -1.164719E+03 -3.656610E+03
       121  24  5.328932E+04  1.281262E+01  1.004483E+03 -2.489653E+04 -4.282810E+02 -1.551697E+03
       121  25  1.876924E+05  3.316370E+04  3.354667E+04 -2.488412E+04 -4.878641E+02 -5.760191E+03
       121  26  1.432330E+05  2.216460E+04  2.238307E+04 -1.242856E+04  2.494616E+02 -3.657023E+03
       121  27  9.888628E+04  1.127526E+04  1.172379E+04 -2.488594E+04  9.870529E+02 -1.552211E+03
       122   1  5.265919E+04 -1.090588E+02  8.749605E+02 -2.490197E+04  1.671826E+03  3.254786E+02
       122   2  9.703135E+04  1.078679E+04  1.101484E+04 -1.244857E+04  1.249936E+03 -1.779347E+03
       122   3  1.414554E+05  2.173863E+04  2.143882E+04 -2.490664E+04  8.281781E+02 -3.882587E+03
       122   4  5.327649E+04  1.671745E+01  8.865999E+02 -2.489617E+04  2.566041E+02  3.260086E+02
       122   5  5.325070E+04 -1.777068E+00  8.488933E+02 -1.244038E+04 -1.642402E+02 -1.778868E+03
       122   6  5.327550E+04  3.582663E+01  1.094837E+03 -2.489616E+04 -5.849232E+02 -3.882152E+03
       122   7  5.389380E+04  1.424947E+02  8.982469E+02 -2.489037E+04 -1.158619E+03  3.265386E+02
       122   8  9.471821E+03 -1.079048E+04 -9.317175E+03 -1.243219E+04 -1.578318E+03 -1.778389E+03
       122   9 -3.489725E+04 -2.166752E+04 -1.924966E+04 -2.488569E+04 -1.997825E+03 -3.881716E+03
       122  10  5.265918E+04 -1.090596E+02  8.749550E+02 -2.490197E+04  6.598294E-10  1.682558E-10
       122  11  9.703135E+04  1.078679E+04  1.101483E+04 -1.244857E+04 -2.836408E-09  1.193700E-09
       122  12  1.414554E+05  2.173861E+04  2.143879E+04 -2.490663E+04 -4.464259E-09 -1.171500E-09
       122  13  5.327649E+04  1.671732E+01  8.865996E+02 -2.489617E+04 -1.868836E-11  8.926892E-10
       122  14  5.325070E+04 -1.780473E+00  8.488873E+02 -1.244038E+04  1.637473E-09  8.933453E-10
       122  15  5.327550E+04  3.581036E+01  1.094808E+03 -2.489617E+04 -7.065576E-10 -1.128265E-09
       122  16  5.389380E+04  1.424943E+02  8.982442E+02 -2.489037E+04  9.459876E-10  8.314827E-10
       122  17  9.471817E+03 -1.079049E+04 -9.317186E+03 -1.243219E+04  3.893362E-09  1.133796E-10
       122  18 -3.489726E+04 -2.166753E+04 -1.924969E+04 -2.488570E+04  5.624145E-09 -3.261613E-10
       122  19  5.265919E+04 -1.090588E+02  8.749605E+02 -2.490197E+04 -1.671826E+03 -3.254786E+02
       122  20  9.703135E+04  1.078679E+04  1.101484E+04 -1.244857E+04 -1.249936E+03  1.779347E+03
       122  21  1.414554E+05  2.173863E+04  2.143882E+04 -2.490664E+04 -8.281781E+02  3.882587E+03
       122  22  5.327649E+04  1.671745E+01  8.865999E+02 -2.489617E+04 -2.566041E+02 -3.260086E+02
       122  23  5.325070E+04 -1.777068E+00  8.488933E+02 -1.244038E+04  1.642402E+02  1.778868E+03
       122  24  5.327550E+04  3.582663E+01  1.094837E+03 -2.489616E+04  5.849232E+02  3.882152E+03
       122  25  5.389380E+04  1.424947E+02  8.982469E+02 -2.489037E+04  1.158619E+03 -3.265386E+02
       122  26  9.471821E+03 -1.079048E+04 -9.317175E+03 -1.243219E+04  1.578318E+03  1.778389E+03
       122  27 -3.489725E+04 -2.166752E+04 -1.924966E+04 -2.488569E+04  1.997825E+03  3.881716E+03
       123   1  1.864896E+05  3.283092E+04  3.238107E+04 -2.485136E+04  6.201987E+02 -5.112160E+03
       123   2  2.307762E+05  4.370826E+04  4.336211E+04 -1.245137E+04 -4.635589E+02 -7.213417E+03
       123   3  2.753272E+05  5.503449E+04  5.516220E+04 -2.496786E+04 -1.546781E+03 -9.280977E+03
       123   4  5.331908E+04 -9.702779E+00  1.329611E+03 -2.489738E+04 -8.036057E+02 -5.111799E+03
       123   5  5.318807E+04 -5.020560E+01  2.128427E+03 -1.243888E+04 -1.864496E+03 -7.213256E+03
       123   6  5.331505E+04  3.542812E+02  3.730518E+03 -2.489730E+04 -2.924774E+03 -9.281005E+03
       123   7 -7.983506E+04 -3.285158E+04 -2.972304E+04 -2.494338E+04 -2.227107E+03 -5.111439E+03
       123   8 -1.243710E+05 -4.381089E+04 -3.910737E+04 -1.242639E+04 -3.265035E+03 -7.213096E+03
       123   9 -1.686516E+05 -5.432940E+04 -4.770446E+04 -2.482676E+04 -4.302277E+03 -9.281034E+03
       123  10  1.864896E+05  3.283090E+04  3.238102E+04 -2.485136E+04  4.502149E-09 -1.342984E-09
       123  11  2.307762E+05  4.370820E+04  4.336202E+04 -1.245137E+04  3.274455E-09  1.308151E-10
       123  12  2.753272E+05  5.503440E+04  5.516203E+04 -2.496787E+04 -1.434090E-09  1.874954E-10
       123  13  5.331908E+04 -9.731013E+00  1.329561E+03 -2.489738E+04 -1.057225E-09 -1.204669E-09
       123  14  5.318805E+04 -5.026241E+01  2.128323E+03 -1.243889E+04 -4.858349E-10 -3.460450E-10
       123  15  5.331502E+04  3.541864E+02  3.730341E+03 -2.489732E+04 -1.660463E-10  4.362292E-10
       123  16 -7.983507E+04 -3.285161E+04 -2.972309E+04 -2.494339E+04 -6.153734E-09 -5.406978E-11
       123  17 -1.243710E+05 -4.381095E+04 -3.910749E+04 -1.242641E+04 -2.751462E-09 -5.741842E-10
       123  18 -1.686517E+05 -5.432949E+04 -4.770465E+04 -2.482679E+04 -1.989261E-09  6.421933E-10
       123  19  1.864896E+05  3.283092E+04  3.238107E+04 -2.485136E+04 -6.201987E+02  5.112160E+03
       123  20  2.307762E+05  4.370826E+04  4.336211E+04 -1.245137E+04  4.635589E+02  7.213417E+03
       123  21  2.753272E+05  5.503449E+04  5.516220E+04 -2.496786E+04  1.546781E+03  9.280977E+03
       123  22  5.331908E+04 -9.702779E+00  1.329611E+03 -2.489738E+04  8.036057E+02  5.111799E+03
       123  23  5.318807E+04 -5.020560E+01  2.128427E+03 -1.243888E+04  1.864496E+03  7.213256E+03
       123  24  5.331505E+04  3.542812E+02  3.730518E+03 -2.489730E+04  2.924774E+03  9.281005E+03
       123  25 -7.983506E+04 -3.285158E+04 -2.972304E+04 -2.494338E+04  2.227107E+03  5.111439E+03
       123  26 -1.243710E+05 -4.381089E+04 -3.910737E+04 -1.242639E+04  3.265035E+03  7.213096E+03
       123  27 -1.686516E+05 -5.432940E+04 -4.770446E+04 -2.482676E+04  4.302277E+03  9.281034E+03
       124   1  3.207217E+05  6.555153E+04  6.691167E+04 -2.414862E+04 -2.098693E+03 -1.058677E+04
       124   2  3.641821E+05  7.627074E+04  8.048386E+04 -1.280472E+04 -6.669662E+03 -1.261251E+04
       124   3  4.096483E+05  9.235588E+04  9.838625E+04 -2.637826E+04 -1.124006E+04 -1.399452E+04
       124   4  5.368100E+04 -2.673881E+02  4.798231E+03 -2.489746E+04 -3.675986E+03 -1.058695E+04
       124   5  5.271260E+04 -4.738133E+02  8.153812E+03 -1.243870E+04 -7.812319E+03 -1.261303E+04
       124   6  5.367382E+04  4.611973E+03  1.553952E+04 -2.489808E+04 -1.194776E+04 -1.399524E+04
       124   7 -2.132939E+05 -6.609134E+04 -5.732001E+04 -2.564597E+04 -5.252605E+03 -1.058713E+04
       124   8 -2.586674E+05 -7.722520E+04 -6.418276E+04 -1.207287E+04 -8.954407E+03 -1.261355E+04
       124   9 -3.021838E+05 -8.314087E+04 -6.731576E+04 -2.341875E+04 -1.265506E+04 -1.399596E+04
       124  10  3.207216E+05  6.555141E+04  6.691145E+04 -2.414864E+04 -3.376406E-10 -2.030320E-10
       124  11  3.641820E+05  7.627056E+04  8.048348E+04 -1.280479E+04 -1.083136E-09  7.197317E-11
       124  12  4.096481E+05  9.235563E+04  9.838564E+04 -2.637839E+04 -8.396211E-10 -3.290601E-10
       124  13  5.368095E+04 -2.675121E+02  4.797995E+03 -2.489749E+04 -4.308005E-09  9.200292E-11
       124  14  5.271249E+04 -4.740006E+02  8.153398E+03 -1.243878E+04 -2.698032E-09 -3.663530E-10
       124  15  5.367362E+04  4.611724E+03  1.553888E+04 -2.489821E+04  5.850246E-10 -1.077524E-10
       124  16 -2.132939E+05 -6.609146E+04 -5.732027E+04 -2.564602E+04 -2.876002E-09  3.543610E-10
       124  17 -2.586675E+05 -7.722540E+04 -6.418321E+04 -1.207296E+04 -6.308075E-10 -9.141918E-10
       124  18 -3.021840E+05 -8.314113E+04 -6.731643E+04 -2.341890E+04  2.044268E-09  3.684678E-10
       124  19  3.207217E+05  6.555153E+04  6.691167E+04 -2.414862E+04  2.098693E+03  1.058677E+04
       124  20  3.641821E+05  7.627074E+04  8.048386E+04 -1.280472E+04  6.669662E+03  1.261251E+04
       124  21  4.096483E+05  9.235588E+04  9.838625E+04 -2.637826E+04  1.124006E+04  1.399452E+04
       124  22  5.368100E+04 -2.673881E+02  4.798231E+03 -2.489746E+04  3.675986E+03  1.058695E+04
       124  23  5.271260E+04 -4.738133E+02  8.153812E+03 -1.243870E+04  7.812319E+03  1.261303E+04
       124  24  5.367382E+04  4.611973E+03  1.553952E+04 -2.489808E+04  1.194776E+04  1.399524E+04
       124  25 -2.132939E+05 -6.609134E+04 -5.732001E+04 -2.564597E+04  5.252605E+03  1.058713E+04
       124  26 -2.586674E+05 -7.722520E+04 -6.418276E+04 -1.207287E+04  8.954407E+03  1.261355E+04
       124  27 -3.021838E+05 -8.314087E+04 -6.731576E+04 -2.341875E+04  1.265506E+04  1.399596E+04
       125   1  4.585253E+05  9.561557E+04  1.121932E+05 -1.632935E+04 -1.035698E+04 -1.672632E+04
       125   2  4.932745E+05  1.047440E+05  1.352873E+05 -1.939915E+04 -3.547415E+04 -1.730155E+04
       125   3  5.478313E+05  1.794116E+05  1.911423E+05 -4.705304E+04 -6.060137E+04 -5.708213E+03
       125   4  5.732531E+04 -3.197174E+03  1.923998E+04 -2.481350E+04 -1.482238E+04 -1.672826E+04
       125   5  4.812067E+04 -4.987655E+03  3.159951E+04 -1.253974E+04 -3.174653E+04 -1.730090E+04
       125   6  5.731442E+04  5.736396E+04  7.104657E+04 -2.484996E+04 -4.867872E+04 -5.702330E+03
       125   7 -3.437258E+05 -1.020210E+05 -7.372396E+04 -3.329214E+04 -1.928491E+04 -1.673008E+04
       125   8 -3.968503E+05 -1.147331E+05 -7.210161E+04 -5.685301E+03 -2.802155E+04 -1.730016E+04
       125   9 -4.329820E+05 -6.469953E+04 -4.906599E+04 -2.664477E+03 -3.676545E+04 -5.695593E+03
       125  10  4.585251E+05  9.561524E+04  1.121925E+05 -1.632949E+04 -9.934828E-10 -3.101560E-10
       125  11  4.932730E+05  1.047433E+05  1.352844E+05 -1.939964E+04  3.956547E-10  1.436999E-10
       125  12  5.478274E+05  1.794106E+05  1.911354E+05 -4.705332E+04  2.728811E-10  4.223565E-10
       125  13  5.732500E+04 -3.197534E+03  1.923904E+04 -2.481370E+04 -1.120337E-09 -4.282727E-10
       125  14  4.811951E+04 -4.988247E+03  3.159705E+04 -1.254018E+04  4.669402E-10  5.845033E-11
       125  15  5.731187E+04  5.736329E+04  7.104206E+04 -2.485018E+04  9.614622E-10 -2.901283E-10
       125  16 -3.437263E+05 -1.020214E+05 -7.372519E+04 -3.329240E+04 -1.254140E-09  6.232771E-10
       125  17 -3.968512E+05 -1.147336E+05 -7.210365E+04 -5.685691E+03 -1.700073E-09 -4.392123E-10
       125  18 -4.329835E+05 -6.469993E+04 -4.906860E+04 -2.664646E+03 -3.983012E-10  4.317866E-10
       125  19  4.585253E+05  9.561557E+04  1.121932E+05 -1.632935E+04  1.035698E+04  1.672632E+04
       125  20  4.932745E+05  1.047440E+05  1.352873E+05 -1.939915E+04  3.547415E+04  1.730155E+04
       125  21  5.478313E+05  1.794116E+05  1.911423E+05 -4.705304E+04  6.060137E+04  5.708213E+03
       125  22  5.732531E+04 -3.197174E+03  1.923998E+04 -2.481350E+04  1.482238E+04  1.672826E+04
       125  23  4.812067E+04 -4.987655E+03  3.159951E+04 -1.253974E+04  3.174653E+04  1.730090E+04
       125  24  5.731442E+04  5.736396E+04  7.104657E+04 -2.484996E+04  4.867872E+04  5.702330E+03
       125  25 -3.437258E+05 -1.020210E+05 -7.372396E+04 -3.329214E+04  1.928491E+04  1.673008E+04
       125  26 -3.968503E+05 -1.147331E+05 -7.210161E+04 -5.685301E+03  2.802155E+04  1.730016E+04
       125  27 -4.329820E+05 -6.469953E+04 -4.906599E+04 -2.664477E+03  3.676545E+04  5.695593E+03
       126   1  5.271765E+05  1.296704E+06  5.231167E+05 -2.643371E+05  2.144886E+04  5.995271E+04
       126   2  3.887801E+05  8.308329E+05  3.778269E+05 -1.319370E+05  6.072429E+04  1.892120E+04
       126   3  2.778037E+05  3.776682E+05  2.661494E+05 -2.550152E+05  4.606786E+04 -2.218495E+04
       126   4  1.790487E+04 -7.486353E+05  2.141153E+04 -2.549202E+05  2.153031E+04  1.539434E+04
       126   5 -1.477899E+03 -7.515775E+05  8.854939E+03 -1.271797E+05  6.075408E+04  1.069056E+04
       126   6  3.091032E+02 -7.482754E+05  4.746071E+03 -2.549539E+05  4.598552E+04  5.881630E+03
       126   7 -4.916759E+05 -2.790163E+06 -4.805934E+05 -2.455319E+05  2.161056E+04 -2.901779E+04
       126   8 -3.919131E+05 -2.331679E+06 -3.602864E+05 -1.224329E+05  6.078378E+04  2.480714E+03
       126   9 -2.772745E+05 -1.873046E+06 -2.567396E+05 -2.548917E+05  4.590310E+04  3.389768E+04
       126  10  5.271750E+05  1.296700E+06  5.231091E+05 -2.643381E+05  1.041454E-09  8.304880E-11
       126  11  3.887760E+05  8.308315E+05  3.778193E+05 -1.319380E+05  2.932124E-10 -3.854785E-09
       126  12  2.778013E+05  3.776671E+05  2.661445E+05 -2.550143E+05 -3.231965E-09 -1.480156E-09
       126  13  1.790431E+04 -7.486357E+05  2.141022E+04 -2.549204E+05 -7.187847E-11  7.374650E-10
       126  14 -1.481892E+03 -7.515786E+05  8.847790E+03 -1.271802E+05  1.972400E-09  1.181901E-09
       126  15  3.068237E+02 -7.482760E+05  4.742033E+03 -2.549541E+05  1.050599E-09  8.954070E-10
       126  16 -4.916766E+05 -2.790164E+06 -4.805958E+05 -2.455314E+05  6.354861E-10 -6.622814E-11
       126  17 -3.919171E+05 -2.331680E+06 -3.602934E+05 -1.224330E+05 -2.225060E-09 -1.357275E-09
       126  18 -2.772771E+05 -1.873048E+06 -2.567457E+05 -2.548929E+05 -2.622350E-09  2.695338E-09
       126  19  5.271765E+05  1.296704E+06  5.231167E+05 -2.643371E+05 -2.144886E+04 -5.995271E+04
       126  20  3.887801E+05  8.308329E+05  3.778269E+05 -1.319370E+05 -6.072429E+04 -1.892120E+04
       126  21  2.778037E+05  3.776682E+05  2.661494E+05 -2.550152E+05 -4.606786E+04  2.218495E+04
       126  22  1.790487E+04 -7.486353E+05  2.141153E+04 -2.549202E+05 -2.153031E+04 -1.539434E+04
       126  23 -1.477899E+03 -7.515775E+05  8.854939E+03 -1.271797E+05 -6.075408E+04 -1.069056E+04
       126  24  3.091032E+02 -7.482754E+05  4.746071E+03 -2.549539E+05 -4.598552E+04 -5.881630E+03
       126  25 -4.916759E+05 -2.790163E+06 -4.805934E+05 -2.455319E+05 -2.161056E+04  2.901779E+04
       126  26 -3.919131E+05 -2.331679E+06 -3.602864E+05 -1.224329E+05 -6.078378E+04 -2.480714E+03
       126  27 -2.772745E+05 -1.873046E+06 -2.567396E+05 -2.548917E+05 -4.590310E+04 -3.389768E+04
       127   1  1.653681E+05 -9.122634E+04  1.563217E+05 -2.572769E+05  2.635077E+04 -6.969628E+03
       127   2  4.971942E+04 -5.509209E+05  4.569294E+04 -1.271560E+05  8.045548E+03 -7.178875E+03
       127   3 -6.476822E+04 -1.012024E+06 -6.496482E+04 -2.552589E+05 -1.076330E+04 -7.396087E+03
       127   4  2.943708E+03 -7.498212E+05  3.117868E+03 -2.555414E+05  2.631173E+04  5.156465E+03
       127   5  8.701070E+02 -7.489683E+05 -3.457769E+02 -1.264324E+05  8.003810E+03  5.282600E+03
       127   6 -8.575061E+01 -7.497770E+05 -4.058243E+03 -2.555517E+05 -1.080851E+04  5.400645E+03
       127   7 -1.595113E+05 -1.408015E+06 -1.501146E+05 -2.538074E+05  2.627274E+04  1.726978E+04
       127   8 -4.798190E+04 -9.469791E+05 -4.638655E+04 -1.257089E+05  7.962095E+03  1.774012E+04
       127   9  6.459195E+04 -4.874658E+05  5.684433E+04 -2.558445E+05 -1.085372E+04  1.820275E+04
       127  10  1.653673E+05 -9.122658E+04  1.563203E+05 -2.572768E+05 -1.573866E-09 -4.944340E-10
       127  11  4.971934E+04 -5.509210E+05  4.569272E+04 -1.271560E+05 -1.455138E-09 -4.435448E-09
       127  12 -6.476836E+04 -1.012024E+06 -6.496515E+04 -2.552590E+05 -2.337852E-09  5.001662E-10
       127  13  2.942958E+03 -7.498214E+05  3.116517E+03 -2.555415E+05  1.482432E-09  1.587726E-09
       127  14  8.700307E+02 -7.489683E+05 -3.459498E+02 -1.264324E+05  1.499767E-09  1.772597E-09
       127  15 -8.588382E+01 -7.497771E+05 -4.058517E+03 -2.555516E+05 -3.794598E-09  1.106567E-09
       127  16 -1.595121E+05 -1.408016E+06 -1.501165E+05 -2.538077E+05 -9.533284E-10  4.393584E-10
       127  17 -4.798205E+04 -9.469794E+05 -4.638726E+04 -1.257090E+05 -1.353601E-09 -3.059721E-09
       127  18  6.459174E+04 -4.874662E+05  5.684348E+04 -2.558444E+05 -1.164539E-09  9.230292E-10
       127  19  1.653681E+05 -9.122634E+04  1.563217E+05 -2.572769E+05 -2.635077E+04  6.969628E+03
       127  20  4.971942E+04 -5.509209E+05  4.569294E+04 -1.271560E+05 -8.045548E+03  7.178875E+03
       127  21 -6.476822E+04 -1.012024E+06 -6.496482E+04 -2.552589E+05  1.076330E+04  7.396087E+03
       127  22  2.943708E+03 -7.498212E+05  3.117868E+03 -2.555414E+05 -2.631173E+04 -5.156465E+03
       127  23  8.701070E+02 -7.489683E+05 -3.457769E+02 -1.264324E+05 -8.003810E+03 -5.282600E+03
       127  24 -8.575061E+01 -7.497770E+05 -4.058243E+03 -2.555517E+05  1.080851E+04 -5.400645E+03
       127  25 -1.595113E+05 -1.408015E+06 -1.501146E+05 -2.538074E+05 -2.627274E+04 -1.726978E+04
       127  26 -4.798190E+04 -9.469791E+05 -4.638655E+04 -1.257089E+05 -7.962095E+03 -1.774012E+04
       127  27  6.459195E+04 -4.874658E+05  5.684433E+04 -2.558445E+05  1.085372E+04 -1.820275E+04
       128   1 -1.771645E+05 -1.480256E+06 -1.753791E+05 -2.502820E+05 -2.931742E+04 -1.957653E+04
       128   2 -2.908757E+05 -1.933847E+06 -2.879857E+05 -1.270754E+05 -4.539915E+04  1.612518E+04
       128   3 -4.307748E+05 -2.399129E+06 -4.306273E+05 -2.602226E+05 -1.683653E+04  5.191267E+04
       128   4  2.843104E+03 -7.510031E+05 -5.682567E+03 -2.551082E+05 -2.940293E+04  6.104976E+03
       128   5  2.114854E+03 -7.478143E+05 -1.086009E+04 -1.269718E+05 -4.538133E+04  1.188710E+04
       128   6 -1.955583E+04 -7.512876E+05 -2.523031E+04 -2.551627E+05 -1.675272E+04  1.778223E+04
       128   7  1.828135E+05 -2.125705E+04  1.639806E+05 -2.599397E+05 -2.948878E+04  3.181649E+04
       128   8  2.950055E+05  4.395185E+05  2.661699E+05 -1.268669E+05 -4.536354E+04  7.640946E+03
       128   9  3.914617E+05  8.990348E+05  3.799708E+05 -2.500874E+05 -1.666960E+04 -1.643898E+04
       128  10 -1.771655E+05 -1.480257E+06 -1.753814E+05 -2.502824E+05 -4.368800E-09 -2.872615E-10
       128  11 -2.908779E+05 -1.933847E+06 -2.879900E+05 -1.270748E+05 -2.314476E-09 -3.704793E-09
       128  12 -4.307759E+05 -2.399132E+06 -4.306329E+05 -2.602219E+05 -9.554844E-10  6.656584E-10
       128  13  2.842166E+03 -7.510034E+05 -5.684261E+03 -2.551081E+05 -4.093874E-09  1.722752E-09
       128  14  2.112606E+03 -7.478150E+05 -1.086422E+04 -1.269713E+05 -2.850473E-09  1.225655E-09
       128  15 -1.955621E+04 -7.512880E+05 -2.523143E+04 -2.551625E+05 -1.278792E-09  4.517354E-10
       128  16  1.828123E+05 -2.125837E+04  1.639770E+05 -2.599390E+05 -1.176189E-09  2.761537E-10
       128  17  2.950033E+05  4.395178E+05  2.661660E+05 -1.268666E+05 -1.202085E-09 -2.762807E-09
       128  18  3.914613E+05  8.990344E+05  3.799697E+05 -2.500876E+05  7.396882E-10  1.169222E-10
       128  19 -1.771645E+05 -1.480256E+06 -1.753791E+05 -2.502820E+05  2.931742E+04  1.957653E+04
       128  20 -2.908757E+05 -1.933847E+06 -2.879857E+05 -1.270754E+05  4.539915E+04 -1.612518E+04
       128  21 -4.307748E+05 -2.399129E+06 -4.306273E+05 -2.602226E+05  1.683653E+04 -5.191267E+04
       128  22  2.843104E+03 -7.510031E+05 -5.682567E+03 -2.551082E+05  2.940293E+04 -6.104976E+03
       128  23  2.114854E+03 -7.478143E+05 -1.086009E+04 -1.269718E+05  4.538133E+04 -1.188710E+04
       128  24 -1.955583E+04 -7.512876E+05 -2.523031E+04 -2.551627E+05  1.675272E+04 -1.778223E+04
       128  25  1.828135E+05 -2.125705E+04  1.639806E+05 -2.599397E+05  2.948878E+04 -3.181649E+04
       128  26  2.950055E+05  4.395185E+05  2.661699E+05 -1.268669E+05  4.536354E+04 -7.640946E+03
       128  27  3.914617E+05  8.990348E+05  3.799708E+05 -2.500874E+05  1.666960E+04  1.643898E+04
       129   1 -1.940881E+06 -5.611744E+05 -3.012217E+05 -7.071847E+05 -1.346697E+05 -4.504738E+04
       129   2 -1.897204E+06 -3.595178E+05 -1.755087E+05 -7.087099E+05 -8.725310E+04 -1.580068E+04
       129   3 -1.908678E+06 -3.374273E+05 -1.333174E+05 -6.835581E+05 -3.585821E+04  2.876966E+03
       129   4 -1.583019E+06 -3.731748E+05 -1.940415E+05 -5.553649E+05 -1.251221E+05 -4.147141E+04
       129   5 -1.545792E+06 -2.114744E+05 -8.211592E+04 -5.959638E+05 -8.431692E+04 -1.470057E+04
       129   6 -1.562367E+06 -2.279755E+05 -4.842651E+04 -6.098972E+05 -3.953562E+04  1.496265E+03
       129   7 -1.225026E+06 -1.851273E+05 -8.687353E+04 -4.034543E+05 -1.155684E+05 -3.789111E+04
       129   8 -1.194259E+06 -6.341387E+04  1.126616E+04 -4.831565E+05 -8.137890E+04 -1.359958E+04
       129   9 -1.215937E+06 -1.185233E+05  3.645606E+04 -5.362025E+05 -4.321529E+04  1.150177E+02
       129  10 -1.940901E+06 -5.611815E+05 -3.012598E+05 -7.071896E+05  1.392013E-09 -1.459917E-10
       129  11 -1.897212E+06 -3.595201E+05 -1.755235E+05 -7.087110E+05  1.460244E-09 -1.183943E-09
       129  12 -1.908679E+06 -3.374276E+05 -1.333199E+05 -6.835580E+05 -1.977238E-09 -6.834321E-10
       129  13 -1.583037E+06 -3.731808E+05 -1.940743E+05 -5.553691E+05 -4.142245E-10  1.595894E-10
       129  14 -1.545800E+06 -2.114766E+05 -8.212972E+04 -5.959648E+05 -1.469682E-09 -8.846727E-10
       129  15 -1.562369E+06 -2.279759E+05 -4.842946E+04 -6.098971E+05 -2.040175E-09  1.985583E-10
       129  16 -1.225041E+06 -1.851324E+05 -8.690138E+04 -4.034579E+05  1.293978E-09 -1.662237E-09
       129  17 -1.194266E+06 -6.341585E+04  1.125334E+04 -4.831574E+05  1.219768E-09 -1.876118E-09
       129  18 -1.215939E+06 -1.185238E+05  3.645254E+04 -5.362025E+05 -8.134910E-11  3.678244E-10
       129  19 -1.940881E+06 -5.611744E+05 -3.012217E+05 -7.071847E+05  1.346697E+05  4.504738E+04
       129  20 -1.897204E+06 -3.595178E+05 -1.755087E+05 -7.087099E+05  8.725310E+04  1.580068E+04
       129  21 -1.908678E+06 -3.374273E+05 -1.333174E+05 -6.835581E+05  3.585821E+04 -2.876966E+03
       129  22 -1.583019E+06 -3.731748E+05 -1.940415E+05 -5.553649E+05  1.251221E+05  4.147141E+04
       129  23 -1.545792E+06 -2.114744E+05 -8.211592E+04 -5.959638E+05  8.431692E+04  1.470057E+04
       129  24 -1.562367E+06 -2.279755E+05 -4.842651E+04 -6.098972E+05  3.953562E+04 -1.496265E+03
       129  25 -1.225026E+06 -1.851273E+05 -8.687353E+04 -4.034543E+05  1.155684E+05  3.789111E+04
       129  26 -1.194259E+06 -6.341387E+04  1.126616E+04 -4.831565E+05  8.137890E+04  1.359958E+04
       129  27 -1.215937E+06 -1.185233E+05  3.645606E+04 -5.362025E+05  4.321529E+04 -1.150177E+02
       130   1 -1.848718E+06 -3.602112E+05 -1.151127E+05 -6.835811E+05 -3.163046E+04  1.815619E+03
       130   2 -1.820077E+06 -3.242946E+05 -8.648820E+04 -6.674866E+05 -2.092833E+04  4.674557E+03
       130   3 -1.783446E+06 -3.177855E+05 -6.952251E+04 -6.648147E+05 -9.989169E+03  6.901662E+03
       130   4 -1.555912E+06 -2.463896E+05 -3.902647E+04 -5.994601E+05 -3.207936E+04  1.646338E+03
       130   5 -1.559046E+06 -2.254109E+05 -1.930620E+04 -5.951153E+05 -2.176915E+04  4.358514E+03
       130   6 -1.554110E+06 -2.337571E+05 -1.092895E+04 -6.041932E+05 -1.122254E+04  6.438649E+03
       130   7 -1.263022E+06 -1.325609E+05  3.705252E+04 -5.153026E+05 -3.252849E+04  1.476962E+03
       130   8 -1.297948E+06 -1.265227E+05  4.787003E+04 -5.227163E+05 -2.261034E+04  4.042323E+03
       130   9 -1.324723E+06 -1.497264E+05  4.766011E+04 -5.435519E+05 -1.245640E+04  5.975460E+03
       130  10 -1.848719E+06 -3.602115E+05 -1.151146E+05 -6.835810E+05  1.350290E-09  6.528200E-10
       130  11 -1.820077E+06 -3.242947E+05 -8.648907E+04 -6.674865E+05  2.278375E-09  7.408319E-11
       130  12 -1.783446E+06 -3.177855E+05 -6.952279E+04 -6.648146E+05  9.604630E-10 -4.867232E-10
       130  13 -1.555913E+06 -2.463899E+05 -3.902841E+04 -5.994601E+05 -1.335962E-10  6.003570E-10
       130  14 -1.559046E+06 -2.254111E+05 -1.930713E+04 -5.951152E+05  3.875739E-09 -1.476414E-10
       130  15 -1.554110E+06 -2.337572E+05 -1.092927E+04 -6.041932E+05 -3.669098E-09 -1.013961E-09
       130  16 -1.263023E+06 -1.325612E+05  3.705052E+04 -5.153025E+05 -1.769426E-09  7.763686E-10
       130  17 -1.297949E+06 -1.265229E+05  4.786904E+04 -5.227163E+05 -2.916582E-10  1.517737E-10
       130  18 -1.324723E+06 -1.497265E+05  4.765975E+04 -5.435519E+05 -2.096286E-09 -1.400897E-09
       130  19 -1.848718E+06 -3.602112E+05 -1.151127E+05 -6.835811E+05  3.163046E+04 -1.815619E+03
       130  20 -1.820077E+06 -3.242946E+05 -8.648820E+04 -6.674866E+05  2.092833E+04 -4.674557E+03
       130  21 -1.783446E+06 -3.177855E+05 -6.952251E+04 -6.648147E+05  9.989169E+03 -6.901662E+03
       130  22 -1.555912E+06 -2.463896E+05 -3.902647E+04 -5.994601E+05  3.207936E+04 -1.646338E+03
       130  23 -1.559046E+06 -2.254109E+05 -1.930620E+04 -5.951153E+05  2.176915E+04 -4.358514E+03
       130  24 -1.554110E+06 -2.337571E+05 -1.092895E+04 -6.041932E+05  1.122254E+04 -6.438649E+03
       130  25 -1.263022E+06 -1.325609E+05  3.705252E+04 -5.153026E+05  3.252849E+04 -1.476962E+03
       130  26 -1.297948E+06 -1.265227E+05  4.787003E+04 -5.227163E+05  2.261034E+04 -4.042323E+03
       130  27 -1.324723E+06 -1.497264E+05  4.766011E+04 -5.435519E+05  1.245640E+04 -5.975460E+03
       131   1 -1.743907E+06 -3.070048E+05 -5.727004E+04 -6.556040E+05 -8.207858E+03  6.332489E+03
       131   2 -1.716195E+06 -2.849336E+05 -4.446730E+04 -6.374492E+05 -5.260791E+03  5.491208E+03
       131   3 -1.673999E+06 -2.794134E+05 -3.372617E+04 -6.365171E+05 -2.295425E+03  4.600072E+03
       131   4 -1.553314E+06 -2.354069E+05 -8.443207E+03 -6.033517E+05 -9.264740E+03  5.935819E+03
       131   5 -1.560480E+06 -2.265948E+05 -4.519457E+03 -5.949413E+05 -6.348276E+03  5.083228E+03
       131   6 -1.553156E+06 -2.343273E+05 -2.632610E+03 -6.037540E+05 -3.413663E+03  4.180738E+03
       131   7 -1.362684E+06 -1.638064E+05  4.038085E+04 -5.510845E+05 -1.032198E+04  5.539013E+03
       131   8 -1.404740E+06 -1.682543E+05  3.542648E+04 -5.524237E+05 -7.436062E+03  4.675135E+03
       131   9 -1.432299E+06 -1.892403E+05  2.845976E+04 -5.709852E+05 -4.532141E+03  3.761315E+03
       131  10 -1.743907E+06 -3.070049E+05 -5.727025E+04 -6.556040E+05 -4.119833E-09 -9.049939E-10
       131  11 -1.716195E+06 -2.849337E+05 -4.446741E+04 -6.374492E+05 -1.400395E-09  4.467975E-11
       131  12 -1.673999E+06 -2.794134E+05 -3.372622E+04 -6.365170E+05  3.435920E-10  5.955232E-10
       131  13 -1.553314E+06 -2.354070E+05 -8.443435E+03 -6.033516E+05 -1.912245E-09 -7.731527E-10
       131  14 -1.560480E+06 -2.265948E+05 -4.519582E+03 -5.949413E+05  1.629145E-09  7.891733E-10
       131  15 -1.553156E+06 -2.343273E+05 -2.632665E+03 -6.037540E+05  1.280333E-09  2.889790E-10
       131  16 -1.362685E+06 -1.638064E+05  4.038059E+04 -5.510845E+05 -3.804643E-10 -5.081977E-10
       131  17 -1.404740E+06 -1.682543E+05  3.542634E+04 -5.524236E+05 -1.301157E-09  5.094191E-10
       131  18 -1.432299E+06 -1.892403E+05  2.845969E+04 -5.709852E+05 -9.069658E-10 -2.571501E-10
       131  19 -1.743907E+06 -3.070048E+05 -5.727004E+04 -6.556040E+05  8.207858E+03 -6.332489E+03
       131  20 -1.716195E+06 -2.849336E+05 -4.446730E+04 -6.374492E+05  5.260791E+03 -5.491208E+03
       131  21 -1.673999E+06 -2.794134E+05 -3.372617E+04 -6.365171E+05  2.295425E+03 -4.600072E+03
       131  22 -1.553314E+06 -2.354069E+05 -8.443207E+03 -6.033517E+05  9.264740E+03 -5.935819E+03
       131  23 -1.560480E+06 -2.265948E+05 -4.519457E+03 -5.949413E+05  6.348276E+03 -5.083228E+03
       131  24 -1.553156E+06 -2.343273E+05 -2.632610E+03 -6.037540E+05  3.413663E+03 -4.180738E+03
       131  25 -1.362684E+06 -1.638064E+05  4.038085E+04 -5.510845E+05  1.032198E+04 -5.539013E+03
       131  26 -1.404740E+06 -1.682543E+05  3.542648E+04 -5.524237E+05  7.436062E+03 -4.675135E+03
       131  27 -1.432299E+06 -1.892403E+05  2.845976E+04 -5.709852E+05  4.532141E+03 -3.761315E+03
       132   1 -1.635647E+06 -2.654161E+05 -2.315795E+04 -6.262718E+05 -1.525131E+03  3.707603E+03
       132   2 -1.607726E+06 -2.442625E+05 -1.349929E+04 -6.076975E+05 -1.390961E+02  2.202413E+03
       132   3 -1.564465E+06 -2.387274E+05 -4.411760E+03 -6.068627E+05  1.249361E+03  6.903475E+02
       132   4 -1.553019E+06 -2.345012E+05 -2.094824E+03 -6.037255E+05 -2.637593E+03  3.290512E+03
       132   5 -1.560682E+06 -2.266530E+05 -1.434213E+03 -5.948701E+05 -1.255807E+03  1.783782E+03
       132   6 -1.553007E+06 -2.344224E+05 -1.341313E+03 -6.037545E+05  1.283522E+02  2.701680E+02
       132   7 -1.470384E+06 -2.035858E+05  1.896772E+04 -5.811765E+05 -3.750217E+03  2.873360E+03
       132   8 -1.513636E+06 -2.090434E+05  1.063063E+04 -5.820418E+05 -2.372606E+03  1.365119E+03
       132   9 -1.541548E+06 -2.301174E+05  1.729106E+03 -6.006463E+05 -9.926719E+02 -1.500170E+02
       132  10 -1.635647E+06 -2.654161E+05 -2.315798E+04 -6.262718E+05  1.789976E-09  5.307315E-10
       132  11 -1.607726E+06 -2.442625E+05 -1.349930E+04 -6.076975E+05  5.375616E-09  1.452200E-09
       132  12 -1.564465E+06 -2.387274E+05 -4.411764E+03 -6.068627E+05  3.372619E-09  5.831189E-10
       132  13 -1.553019E+06 -2.345012E+05 -2.094858E+03 -6.037255E+05 -1.225743E-09  6.076049E-10
       132  14 -1.560682E+06 -2.266530E+05 -1.434222E+03 -5.948701E+05  6.389569E-09  1.483519E-09
       132  15 -1.553007E+06 -2.344224E+05 -1.341313E+03 -6.037545E+05  3.727381E-09 -1.740550E-10
       132  16 -1.470384E+06 -2.035858E+05  1.896768E+04 -5.811765E+05  1.584903E-09  7.940902E-10
       132  17 -1.513636E+06 -2.090434E+05  1.063062E+04 -5.820418E+05  2.493752E-09  1.235745E-09
       132  18 -1.541548E+06 -2.301174E+05  1.729104E+03 -6.006463E+05  4.772006E-10 -8.961418E-10
       132  19 -1.635647E+06 -2.654161E+05 -2.315795E+04 -6.262718E+05  1.525131E+03 -3.707603E+03
       132  20 -1.607726E+06 -2.442625E+05 -1.349929E+04 -6.076975E+05  1.390961E+02 -2.202413E+03
       132  21 -1.564465E+06 -2.387274E+05 -4.411760E+03 -6.068627E+05 -1.249361E+03 -6.903475E+02
       132  22 -1.553019E+06 -2.345012E+05 -2.094824E+03 -6.037255E+05  2.637593E+03 -3.290512E+03
       132  23 -1.560682E+06 -2.266530E+05 -1.434213E+03 -5.948701E+05  1.255807E+03 -1.783782E+03
       132  24 -1.553007E+06 -2.344224E+05 -1.341313E+03 -6.037545E+05 -1.283522E+02 -2.701680E+02
       132  25 -1.470384E+06 -2.035858E+05  1.896772E+04 -5.811765E+05  3.750217E+03 -2.873360E+03
       132  26 -1.513636E+06 -2.090434E+05  1.063063E+04 -5.820418E+05  2.372606E+03 -1.365119E+03
       132  27 -1.541548E+06 -2.301174E+05  1.729106E+03 -6.006463E+05  9.926719E+02  1.500170E+02
       133   1 -1.526061E+06 -2.243306E+05  5.577424E+03 -5.964501E+05  1.870674E+03 -2.624112E+02
       133   2 -1.498159E+06 -2.032713E+05  1.389766E+04 -5.778532E+05  3.594956E+03 -1.646645E+03
       133   3 -1.455015E+06 -1.979033E+05  2.137264E+04 -5.769643E+05  5.316281E+03 -3.022143E+03
       133   4 -1.553025E+06 -2.344118E+05 -1.464240E+03 -6.037579E+05  7.500125E+02 -6.824664E+02
       133   5 -1.560657E+06 -2.266446E+05 -2.125911E+03 -5.948743E+05  2.479617E+03 -2.064787E+03
       133   6 -1.553049E+06 -2.345699E+05 -3.636894E+03 -6.036994E+05  4.206194E+03 -3.438389E+03
       133   7 -1.579987E+06 -2.444931E+05 -8.506021E+03 -6.110654E+05 -3.706042E+02 -1.102505E+03
       133   8 -1.623151E+06 -2.500178E+05 -1.814991E+04 -6.118940E+05  1.364395E+03 -2.482885E+03
       133   9 -1.651074E+06 -2.712359E+05 -2.864733E+04 -6.304308E+05  3.096295E+03 -3.854565E+03
       133  10 -1.526061E+06 -2.243306E+05  5.577417E+03 -5.964501E+05  1.607247E-10 -9.488295E-10
       133  11 -1.498159E+06 -2.032713E+05  1.389763E+04 -5.778532E+05  1.715812E-09 -6.616649E-10
       133  12 -1.455015E+06 -1.979034E+05  2.137257E+04 -5.769643E+05  2.535492E-11 -2.955519E-10
       133  13 -1.553025E+06 -2.344118E+05 -1.464242E+03 -6.037579E+05  1.558449E-09 -1.037055E-09
       133  14 -1.560657E+06 -2.266446E+05 -2.125931E+03 -5.948743E+05  8.159054E-10 -7.925710E-10
       133  15 -1.553049E+06 -2.345699E+05 -3.636949E+03 -6.036994E+05 -1.650000E-09 -2.869108E-10
       133  16 -1.579987E+06 -2.444931E+05 -8.506023E+03 -6.110654E+05  9.937160E-10 -1.492884E-09
       133  17 -1.623151E+06 -2.500178E+05 -1.814992E+04 -6.118940E+05 -1.311559E-09 -4.546844E-10
       133  18 -1.651074E+06 -2.712360E+05 -2.864737E+04 -6.304308E+05 -5.044238E-09 -5.068287E-10
       133  19 -1.526061E+06 -2.243306E+05  5.577424E+03 -5.964501E+05 -1.870674E+03  2.624112E+02
       133  20 -1.498159E+06 -2.032713E+05  1.389766E+04 -5.778532E+05 -3.594956E+03  1.646645E+03
       133  21 -1.455015E+06 -1.979033E+05  2.137264E+04 -5.769643E+05 -5.316281E+03  3.022143E+03
       133  22 -1.553025E+06 -2.344118E+05 -1.464240E+03 -6.037579E+05 -7.500125E+02  6.824664E+02
       133  23 -1.560657E+06 -2.266446E+05 -2.125911E+03 -5.948743E+05 -2.479617E+03  2.064787E+03
       133  24 -1.553049E+06 -2.345699E+05 -3.636894E+03 -6.036994E+05 -4.206194E+03  3.438389E+03
       133  25 -1.579987E+06 -2.444931E+05 -8.506021E+03 -6.110654E+05  3.706042E+02  1.102505E+03
       133  26 -1.623151E+06 -2.500178E+05 -1.814991E+04 -6.118940E+05 -1.364395E+03  2.482885E+03
       133  27 -1.651074E+06 -2.712359E+05 -2.864733E+04 -6.304308E+05 -3.096295E+03  3.854565E+03
       134   1 -1.417013E+06 -1.836011E+05  3.027547E+04 -5.670104E+05  6.395887E+03 -3.795537E+03
       134   2 -1.389410E+06 -1.624507E+05  3.542574E+04 -5.482898E+05  1.125564E+04 -3.968956E+03
       134   3 -1.348045E+06 -1.589398E+05  3.679831E+04 -5.465163E+05  1.609654E+04 -4.089492E+03
       134   4 -1.553280E+06 -2.342822E+05 -4.735644E+03 -6.038023E+05  5.280022E+03 -4.214034E+03
       134   5 -1.560304E+06 -2.264725E+05 -8.407596E+03 -5.949499E+05  1.017165E+04 -4.375696E+03
       134   6 -1.553574E+06 -2.363097E+05 -1.588350E+04 -6.030454E+05  1.504418E+04 -4.484560E+03
       134   7 -1.689528E+06 -2.849619E+05 -3.974802E+04 -6.405867E+05  4.164433E+03 -4.632430E+03
       134   8 -1.731169E+06 -2.904924E+05 -5.224322E+04 -6.415983E+05  9.087986E+03 -4.782311E+03
       134   9 -1.759062E+06 -3.136770E+05 -6.856890E+04 -6.595576E+05  1.399220E+04 -4.879484E+03
       134  10 -1.417013E+06 -1.836012E+05  3.027536E+04 -5.670104E+05  4.110120E-09  2.665079E-09
       134  11 -1.389410E+06 -1.624507E+05  3.542547E+04 -5.482898E+05 -8.321208E-10  1.121964E-09
       134  12 -1.348045E+06 -1.589399E+05  3.679779E+04 -5.465163E+05 -9.237650E-09 -2.669420E-09
       134  13 -1.553280E+06 -2.342823E+05 -4.735729E+03 -6.038023E+05 -4.264811E-09  3.319491E-10
       134  14 -1.560304E+06 -2.264726E+05 -8.407826E+03 -5.949499E+05 -4.247475E-10  9.259835E-10
       134  15 -1.553574E+06 -2.363098E+05 -1.588396E+04 -6.030453E+05 -2.226826E-09 -4.756563E-10
       134  16 -1.689528E+06 -2.849619E+05 -3.974809E+04 -6.405867E+05 -1.121773E-08 -2.084175E-09
       134  17 -1.731169E+06 -2.904925E+05 -5.224342E+04 -6.415983E+05  5.113263E-10  5.948930E-10
       134  18 -1.759062E+06 -3.136771E+05 -6.856931E+04 -6.595576E+05  6.133352E-09  1.748487E-09
       134  19 -1.417013E+06 -1.836011E+05  3.027547E+04 -5.670104E+05 -6.395887E+03  3.795537E+03
       134  20 -1.389410E+06 -1.624507E+05  3.542574E+04 -5.482898E+05 -1.125564E+04  3.968956E+03
       134  21 -1.348045E+06 -1.589398E+05  3.679831E+04 -5.465163E+05 -1.609654E+04  4.089492E+03
       134  22 -1.553280E+06 -2.342822E+05 -4.735644E+03 -6.038023E+05 -5.280022E+03  4.214034E+03
       134  23 -1.560304E+06 -2.264725E+05 -8.407596E+03 -5.949499E+05 -1.017165E+04  4.375696E+03
       134  24 -1.553574E+06 -2.363097E+05 -1.588350E+04 -6.030454E+05 -1.504418E+04  4.484560E+03
       134  25 -1.689528E+06 -2.849619E+05 -3.974802E+04 -6.405867E+05 -4.164433E+03  4.632430E+03
       134  26 -1.731169E+06 -2.904924E+05 -5.224322E+04 -6.415983E+05 -9.087986E+03  4.782311E+03
       134  27 -1.759062E+06 -3.136770E+05 -6.856890E+04 -6.595576E+05 -1.399220E+04  4.879484E+03
       135   1 -1.309522E+06 -1.449387E+05  4.179262E+04 -5.414723E+05  1.960598E+04 -4.006982E+03
       135   2 -1.282623E+06 -1.190468E+05  3.448378E+04 -5.179653E+05  3.856285E+04  1.245621E+03
       135   3 -1.253655E+06 -1.352925E+05  6.063157E+03 -5.047264E+05  5.727519E+04  7.154158E+03
       135   4 -1.554995E+06 -2.332887E+05 -2.060258E+04 -6.047462E+05  1.837095E+04 -4.470630E+03
       135   5 -1.557686E+06 -2.241014E+05 -3.644878E+04 -5.951419E+05  3.773108E+04  9.327776E+02
       135   6 -1.558394E+06 -2.571407E+05 -7.373452E+04 -5.958058E+05  5.684574E+04  6.991514E+03
       135   7 -1.800409E+06 -3.216357E+05 -8.300238E+04 -6.679978E+05  1.713647E+04 -4.934093E+03
       135   8 -1.832675E+06 -3.291503E+05 -1.073876E+05 -6.722872E+05  3.689971E+04  6.200912E+02
       135   9 -1.863044E+06 -3.789799E+05 -1.535404E+05 -6.868436E+05  5.641652E+04  6.828966E+03
       135  10 -1.309522E+06 -1.449388E+05  4.179187E+04 -5.414722E+05 -2.766627E-09 -1.353513E-09
       135  11 -1.282624E+06 -1.190472E+05  3.448098E+04 -5.179653E+05  1.231085E-09 -4.534093E-11
       135  12 -1.253658E+06 -1.352935E+05  6.056883E+03 -5.047267E+05  1.018238E-09  6.208523E-12
       135  13 -1.554996E+06 -2.332888E+05 -2.060325E+04 -6.047462E+05  2.398948E-10 -5.216605E-10
       135  14 -1.557687E+06 -2.241018E+05 -3.645146E+04 -5.951419E+05  3.802888E-09 -6.266120E-11
       135  15 -1.558398E+06 -2.571416E+05 -7.374070E+04 -5.958061E+05  1.424396E-09 -6.061964E-10
       135  16 -1.800410E+06 -3.216358E+05 -8.300298E+04 -6.679977E+05  3.832281E-09  2.204461E-10
       135  17 -1.832677E+06 -3.291507E+05 -1.073902E+05 -6.722872E+05  2.828805E-09  6.594628E-10
       135  18 -1.863048E+06 -3.789808E+05 -1.535465E+05 -6.868440E+05  1.752350E-09 -7.046111E-10
       135  19 -1.309522E+06 -1.449387E+05  4.179262E+04 -5.414723E+05 -1.960598E+04  4.006982E+03
       135  20 -1.282623E+06 -1.190468E+05  3.448378E+04 -5.179653E+05 -3.856285E+04 -1.245621E+03
       135  21 -1.253655E+06 -1.352925E+05  6.063157E+03 -5.047264E+05 -5.727519E+04 -7.154158E+03
       135  22 -1.554995E+06 -2.332887E+05 -2.060258E+04 -6.047462E+05 -1.837095E+04  4.470630E+03
       135  23 -1.557686E+06 -2.241014E+05 -3.644878E+04 -5.951419E+05 -3.773108E+04 -9.327776E+02
       135  24 -1.558394E+06 -2.571407E+05 -7.373452E+04 -5.958058E+05 -5.684574E+04 -6.991514E+03
       135  25 -1.800409E+06 -3.216357E+05 -8.300238E+04 -6.679978E+05 -1.713647E+04  4.934093E+03
       135  26 -1.832675E+06 -3.291503E+05 -1.073876E+05 -6.722872E+05 -3.689971E+04 -6.200912E+02
       135  27 -1.863044E+06 -3.789799E+05 -1.535404E+05 -6.868436E+05 -5.641652E+04 -6.828966E+03
       136   1 -1.196582E+06 -1.209418E+05 -2.985000E+03 -5.532412E+05  7.394178E+04  1.071764E+04
       136   2 -1.177900E+06 -3.374788E+04 -5.818805E+04 -4.678940E+05  1.515318E+05  3.932839E+04
       136   3 -1.271978E+06 -2.694700E+05 -2.557750E+05 -3.180188E+05  2.250093E+05  7.889386E+04
       136   4 -1.570417E+06 -2.225266E+05 -9.150358E+04 -6.157436E+05  7.017089E+04  9.305574E+03
       136   5 -1.532832E+06 -1.975119E+05 -1.551385E+05 -5.964822E+05  1.545861E+05  4.046671E+04
       136   6 -1.609449E+06 -4.969020E+05 -3.666409E+05 -5.126722E+05  2.348883E+05  8.256423E+04
       136   7 -1.944115E+06 -3.241149E+05 -1.800311E+05 -6.782192E+05  6.640248E+04  7.893853E+03
       136   8 -1.887635E+06 -3.612468E+05 -2.520994E+05 -7.249963E+05  1.576384E+05  4.160391E+04
       136   9 -1.946778E+06 -7.242244E+05 -4.775132E+05 -7.072021E+05  2.447613E+05  8.622830E+04
       136  10 -1.196588E+06 -1.209434E+05 -2.995513E+03 -5.532419E+05 -5.413930E-10 -6.503320E-10
       136  11 -1.177925E+06 -3.375572E+04 -5.823421E+04 -4.678988E+05  3.702907E-10  7.163073E-10
       136  12 -1.272034E+06 -2.694904E+05 -2.558820E+05 -3.180331E+05  6.141216E-10  2.611104E-10
       136  13 -1.570423E+06 -2.225280E+05 -9.151302E+04 -6.157441E+05  5.913343E-10 -9.238657E-10
       136  14 -1.532858E+06 -1.975201E+05 -1.551866E+05 -5.964872E+05 -9.111423E-10 -4.216124E-10
       136  15 -1.609510E+06 -4.969242E+05 -3.667577E+05 -5.126878E+05  3.131610E-10  7.117383E-10
       136  16 -1.944119E+06 -3.241161E+05 -1.800395E+05 -6.782196E+05  1.657099E-09 -2.144693E-10
       136  17 -1.887662E+06 -3.612554E+05 -2.521495E+05 -7.250016E+05  4.688264E-10 -4.114298E-10
       136  18 -1.946845E+06 -7.242486E+05 -4.776402E+05 -7.072191E+05 -1.912587E-09  9.156501E-10
       136  19 -1.196582E+06 -1.209418E+05 -2.985000E+03 -5.532412E+05 -7.394178E+04 -1.071764E+04
       136  20 -1.177900E+06 -3.374788E+04 -5.818805E+04 -4.678940E+05 -1.515318E+05 -3.932839E+04
       136  21 -1.271978E+06 -2.694700E+05 -2.557750E+05 -3.180188E+05 -2.250093E+05 -7.889386E+04
       136  22 -1.570417E+06 -2.225266E+05 -9.150358E+04 -6.157436E+05 -7.017089E+04 -9.305574E+03
       136  23 -1.532832E+06 -1.975119E+05 -1.551385E+05 -5.964822E+05 -1.545861E+05 -4.046671E+04
       136  24 -1.609449E+06 -4.969020E+05 -3.666409E+05 -5.126722E+05 -2.348883E+05 -8.256423E+04
       136  25 -1.944115E+06 -3.241149E+05 -1.800311E+05 -6.782192E+05 -6.640248E+04 -7.893853E+03
       136  26 -1.887635E+06 -3.612468E+05 -2.520994E+05 -7.249963E+05 -1.576384E+05 -4.160391E+04
       136  27 -1.946778E+06 -7.242244E+05 -4.775132E+05 -7.072021E+05 -2.447613E+05 -8.622830E+04
       137   1 -1.914591E+05 -1.482511E+04  5.281308E+03  1.205224E+04  5.732012E+04  4.377049E+03
       137   2 -1.702991E+05 -9.073859E+04 -3.623777E+04  2.218147E+02  4.046385E+04  1.325366E+04
       137   3 -1.252296E+05 -8.022772E+04 -4.515298E+04 -2.985356E+04  2.361267E+04  1.285640E+04
       137   4  1.827690E+05  7.829466E+04  9.693166E+04 -1.836580E+04  6.643583E+04  4.380681E+03
       137   5  1.702864E+05 -6.762226E+03  4.311787E+04 -9.217185E+03  4.333630E+04  1.325421E+04
       137   6  1.827807E+05 -4.338461E+03  2.622907E+04 -1.831204E+04  2.024296E+04  1.285499E+04
       137   7  5.571268E+05  1.714076E+05  1.885726E+05 -4.880223E+04  7.555702E+04  4.383419E+03
       137   8  5.109791E+05  7.720628E+04  1.224657E+05 -1.866141E+04  4.621031E+04  1.325467E+04
       137   9  4.908789E+05  7.154462E+04  9.760488E+04 -6.764769E+03  1.687158E+04  1.285344E+04
       137  10 -1.914626E+05 -1.482601E+04  5.275095E+03  1.205204E+04 -2.393776E-10 -7.743986E-10
       137  11 -1.703009E+05 -9.073922E+04 -3.624118E+04  2.213827E+02 -3.562809E-10  4.990096E-11
       137  12 -1.252302E+05 -8.022805E+04 -4.515434E+04 -2.985380E+04 -1.309012E-10 -4.321201E-10
       137  13  1.827642E+05  7.829345E+04  9.692333E+04 -1.836603E+04  2.213215E-09  4.094908E-10
       137  14  1.702843E+05 -6.762918E+03  4.311401E+04 -9.217647E+03 -1.099691E-09 -2.954809E-10
       137  15  1.827802E+05 -4.338749E+03  2.622799E+04 -1.831225E+04  1.640532E-09 -5.824310E-10
       137  16  5.571207E+05  1.714060E+05  1.885618E+05 -4.880250E+04  4.383052E-10  3.452151E-10
       137  17  5.109768E+05  7.720552E+04  1.224614E+05 -1.866191E+04  3.160161E-09 -2.314142E-10
       137  18  4.908785E+05  7.154437E+04  9.760404E+04 -6.764943E+03  2.815531E-09  7.709087E-10
       137  19 -1.914591E+05 -1.482511E+04  5.281308E+03  1.205224E+04 -5.732012E+04 -4.377049E+03
       137  20 -1.702991E+05 -9.073859E+04 -3.623777E+04  2.218147E+02 -4.046385E+04 -1.325366E+04
       137  21 -1.252296E+05 -8.022772E+04 -4.515298E+04 -2.985356E+04 -2.361267E+04 -1.285640E+04
       137  22  1.827690E+05  7.829466E+04  9.693166E+04 -1.836580E+04 -6.643583E+04 -4.380681E+03
       137  23  1.702864E+05 -6.762226E+03  4.311787E+04 -9.217185E+03 -4.333630E+04 -1.325421E+04
       137  24  1.827807E+05 -4.338461E+03  2.622907E+04 -1.831204E+04 -2.024296E+04 -1.285499E+04
       137  25  5.571268E+05  1.714076E+05  1.885726E+05 -4.880223E+04 -7.555702E+04 -4.383419E+03
       137  26  5.109791E+05  7.720628E+04  1.224657E+05 -1.866141E+04 -4.621031E+04 -1.325467E+04
       137  27  4.908789E+05  7.154462E+04  9.760488E+04 -6.764769E+03 -1.687158E+04 -1.285344E+04
       138   1 -9.674904E+04 -6.137715E+04 -4.273835E+04 -1.634400E+04  1.683198E+04  1.079828E+04
       138   2 -6.514925E+04 -6.018942E+04 -4.504990E+04 -8.676466E+03  1.154187E+04  9.790730E+03
       138   3 -3.102086E+04 -5.184676E+04 -4.211717E+04 -1.943238E+04  6.251089E+03  8.293998E+03
       138   4  1.778078E+05  6.313540E+03  2.117590E+04 -1.836809E+04  1.632536E+04  1.079773E+04
       138   5  1.765184E+05 -6.323136E+02  1.108131E+04 -9.155684E+03  1.070427E+04  9.790256E+03
       138   6  1.778127E+05 -3.674238E+02  6.459086E+03 -1.836619E+04  5.082784E+03  8.293672E+03
       138   7  4.524342E+05  7.399893E+04  8.508507E+04 -2.039310E+04  1.581850E+04  1.079717E+04
       138   8  4.182399E+05  5.892068E+04  6.720860E+04 -9.635092E+03  9.866338E+03  9.789784E+03
       138   9  3.866866E+05  5.110884E+04  5.503240E+04 -1.729963E+04  3.914088E+03  8.293341E+03
       138  10 -9.674937E+04 -6.137736E+04 -4.273910E+04 -1.634414E+04 -8.837743E-10 -7.886559E-11
       138  11 -6.514942E+04 -6.018956E+04 -4.505033E+04 -8.676557E+03 -2.687359E-09  4.242642E-10
       138  12 -3.102092E+04 -5.184684E+04 -4.211737E+04 -1.943242E+04 -1.168602E-09 -1.420932E-10
       138  13  1.778075E+05  6.313344E+03  2.117518E+04 -1.836824E+04 -1.012099E-09  7.420788E-10
       138  14  1.765182E+05 -6.324473E+02  1.108092E+04 -9.155768E+03  5.828293E-11  6.700305E-10
       138  15  1.778127E+05 -3.675046E+02  6.458908E+03 -1.836622E+04 -9.685122E-10  2.594865E-10
       138  16  4.524339E+05  7.399873E+04  8.508438E+04 -2.039324E+04  1.429271E-09  5.374816E-10
       138  17  4.182398E+05  5.892055E+04  6.720824E+04 -9.635170E+03  1.405444E-09  4.102959E-10
       138  18  3.866865E+05  5.110876E+04  5.503225E+04 -1.729966E+04 -1.192049E-09  9.121356E-10
       138  19 -9.674904E+04 -6.137715E+04 -4.273835E+04 -1.634400E+04 -1.683198E+04 -1.079828E+04
       138  20 -6.514925E+04 -6.018942E+04 -4.504990E+04 -8.676466E+03 -1.154187E+04 -9.790730E+03
       138  21 -3.102086E+04 -5.184676E+04 -4.211717E+04 -1.943238E+04 -6.251089E+03 -8.293998E+03
       138  22  1.778078E+05  6.313540E+03  2.117590E+04 -1.836809E+04 -1.632536E+04 -1.079773E+04
       138  23  1.765184E+05 -6.323136E+02  1.108131E+04 -9.155684E+03 -1.070427E+04 -9.790256E+03
       138  24  1.778127E+05 -3.674238E+02  6.459086E+03 -1.836619E+04 -5.082784E+03 -8.293672E+03
       138  25  4.524342E+05  7.399893E+04  8.508507E+04 -2.039310E+04 -1.581850E+04 -1.079717E+04
       138  26  4.182399E+05  5.892068E+04  6.720860E+04 -9.635092E+03 -9.866338E+03 -9.789784E+03
       138  27  3.866866E+05  5.110884E+04  5.503240E+04 -1.729963E+04 -3.914088E+03 -8.293341E+03
       139   1  1.720668E+03 -4.277262E+04 -3.571250E+04 -1.830502E+04  5.092415E+03  7.327450E+03
       139   2  3.432246E+04 -3.526468E+04 -3.045732E+04 -9.194769E+03  3.760541E+03  5.801980E+03
       139   3  6.726049E+04 -2.716767E+04 -2.418464E+04 -1.846934E+04  2.428252E+03  4.251638E+03
       139   4  1.773169E+05  4.812882E+02  4.976830E+03 -1.835821E+04  4.076439E+03  7.327231E+03
       139   5  1.771489E+05 -6.969517E+01  2.706935E+03 -9.165928E+03  2.727482E+03  5.801870E+03
       139   6  1.773195E+05 -2.857747E+01  1.466327E+03 -1.835820E+04  1.378178E+03  4.251645E+03
       139   7  3.529417E+05  4.373303E+04  4.566410E+04 -1.841142E+04  3.060179E+03  7.327013E+03
       139   8  3.199942E+05  3.512385E+04  3.586982E+04 -9.137080E+03  1.694186E+03  5.801761E+03
       139   9  2.873896E+05  2.710966E+04  2.711647E+04 -1.824704E+04  3.279190E+02  4.251650E+03
       139  10  1.720626E+03 -4.277268E+04 -3.571265E+04 -1.830505E+04 -1.162016E-09 -4.408647E-10
       139  11  3.432244E+04 -3.526472E+04 -3.045741E+04 -9.194787E+03 -5.533052E-10 -3.355085E-10
       139  12  6.726048E+04 -2.716770E+04 -2.418468E+04 -1.846935E+04  1.664886E-09  7.580655E-11
       139  13  1.773169E+05  4.812260E+02  4.976698E+03 -1.835824E+04 -6.176130E-11  2.537882E-10
       139  14  1.771489E+05 -6.973332E+01  2.706858E+03 -9.165941E+03 -2.698604E-09 -3.390008E-10
       139  15  1.773195E+05 -2.859739E+01  1.466289E+03 -1.835820E+04  2.655311E-10 -4.177438E-10
       139  16  3.529416E+05  4.373297E+04  4.566398E+04 -1.841144E+04 -5.758759E-10  9.575141E-10
       139  17  3.199942E+05  3.512381E+04  3.586975E+04 -9.137088E+03  1.703393E-09 -3.452157E-10
       139  18  2.873896E+05  2.710964E+04  2.711644E+04 -1.824704E+04 -4.351542E-10 -1.190459E-09
       139  19  1.720668E+03 -4.277262E+04 -3.571250E+04 -1.830502E+04 -5.092415E+03 -7.327450E+03
       139  20  3.432246E+04 -3.526468E+04 -3.045732E+04 -9.194769E+03 -3.760541E+03 -5.801980E+03
       139  21  6.726049E+04 -2.716767E+04 -2.418464E+04 -1.846934E+04 -2.428252E+03 -4.251638E+03
       139  22  1.773169E+05  4.812882E+02  4.976830E+03 -1.835821E+04 -4.076439E+03 -7.327231E+03
       139  23  1.771489E+05 -6.969517E+01  2.706935E+03 -9.165928E+03 -2.727482E+03 -5.801870E+03
       139  24  1.773195E+05 -2.857747E+01  1.466327E+03 -1.835820E+04 -1.378178E+03 -4.251645E+03
       139  25  3.529417E+05  4.373303E+04  4.566410E+04 -1.841142E+04 -3.060179E+03 -7.327013E+03
       139  26  3.199942E+05  3.512385E+04  3.586982E+04 -9.137080E+03 -1.694186E+03 -5.801761E+03
       139  27  2.873896E+05  2.710966E+04  2.711647E+04 -1.824704E+04 -3.279190E+02 -4.251650E+03
       140   1  1.003611E+05 -1.889402E+04 -1.672057E+04 -1.837636E+04  2.195126E+03  3.344804E+03
       140   2  1.330713E+05 -1.088720E+04 -9.893885E+03 -9.198577E+03  2.016848E+03  1.794280E+03
       140   3  1.658149E+05 -2.838325E+03 -2.941059E+03 -1.838338E+04  1.838442E+03  2.427749E+02
       140   4  1.772529E+05  3.335237E+01  1.036052E+03 -1.835331E+04  1.153439E+03  3.344858E+03
       140   5  1.772373E+05 -4.597628E+00  3.606543E+02 -9.172053E+03  9.744371E+02  1.794367E+03
       140   6  1.772537E+05 -4.290828E-01 -1.882082E+02 -1.835331E+04  7.953175E+02  2.428988E+02
       140   7  2.541503E+05  1.896031E+04  1.879228E+04 -1.833024E+04  1.116244E+02  3.344912E+03
       140   8  2.214052E+05  1.087787E+04  1.061507E+04 -9.145527E+03 -6.804698E+01  1.794454E+03
       140   9  1.886927E+05  2.837458E+03  2.564638E+03 -1.832324E+04 -2.478266E+02  2.430226E+02
       140  10  1.003610E+05 -1.889403E+04 -1.672060E+04 -1.837637E+04 -7.731961E-11  6.210884E-10
       140  11  1.330713E+05 -1.088721E+04 -9.893898E+03 -9.198580E+03  1.525898E-09  8.185424E-10
       140  12  1.658149E+05 -2.838326E+03 -2.941066E+03 -1.838339E+04  1.780669E-09 -6.834940E-10
       140  13  1.772529E+05  3.334000E+01  1.036028E+03 -1.835331E+04 -4.206686E-12  7.228923E-11
       140  14  1.772373E+05 -4.601340E+00  3.606465E+02 -9.172054E+03 -2.326805E-11  8.850460E-10
       140  15  1.772537E+05 -4.293159E-01 -1.882095E+02 -1.835331E+04 -1.700925E-09 -7.867339E-10
       140  16  2.541503E+05  1.896030E+04  1.879226E+04 -1.833024E+04  1.735406E-09 -5.955075E-10
       140  17  2.214052E+05  1.087787E+04  1.061506E+04 -9.145526E+03 -5.077770E-10  6.938543E-10
       140  18  1.886927E+05  2.837458E+03  2.564638E+03 -1.832324E+04 -1.420647E-09 -6.111191E-10
       140  19  1.003611E+05 -1.889402E+04 -1.672057E+04 -1.837636E+04 -2.195126E+03 -3.344804E+03
       140  20  1.330713E+05 -1.088720E+04 -9.893885E+03 -9.198577E+03 -2.016848E+03 -1.794280E+03
       140  21  1.658149E+05 -2.838325E+03 -2.941059E+03 -1.838338E+04 -1.838442E+03 -2.427749E+02
       140  22  1.772529E+05  3.335237E+01  1.036052E+03 -1.835331E+04 -1.153439E+03 -3.344858E+03
       140  23  1.772373E+05 -4.597628E+00  3.606543E+02 -9.172053E+03 -9.744371E+02 -1.794367E+03
       140  24  1.772537E+05 -4.290828E-01 -1.882082E+02 -1.835331E+04 -7.953175E+02 -2.428988E+02
       140  25  2.541503E+05  1.896031E+04  1.879228E+04 -1.833024E+04 -1.116244E+02 -3.344912E+03
       140  26  2.214052E+05  1.087787E+04  1.061507E+04 -9.145527E+03  6.804698E+01 -1.794454E+03
       140  27  1.886927E+05  2.837458E+03  2.564638E+03 -1.832324E+04  2.478266E+02 -2.430226E+02
       141   1  1.989339E+05  5.377924E+03  4.665363E+03 -1.839413E+04  1.898048E+03 -6.605375E+02
       141   2  2.317147E+05  1.343067E+04  1.146255E+04 -9.215610E+03  2.480516E+03 -2.212066E+03
       141   3  2.643975E+05  2.139399E+04  1.785787E+04 -1.840055E+04  3.063156E+03 -3.762702E+03
       141   4  1.772245E+05  9.475587E+00 -4.719720E+02 -1.835354E+04  8.548536E+02 -6.604162E+02
       141   5  1.772737E+05  1.706771E+01 -1.176913E+03 -9.171769E+03  1.437844E+03 -2.211990E+03
       141   6  1.772237E+05 -6.481537E+01 -2.284086E+03 -1.835356E+04  2.020975E+03 -3.762667E+03
       141   7  1.555155E+05 -5.359006E+03 -5.609336E+03 -1.831295E+04 -1.883043E+02 -6.602951E+02
       141   8  1.228353E+05 -1.339675E+04 -1.381657E+04 -9.127932E+03  3.952626E+02 -2.211914E+03
       141   9  9.005683E+04 -2.152415E+04 -2.242655E+04 -1.830657E+04  9.789402E+02 -3.762632E+03
       141  10  1.989339E+05  5.377923E+03  4.665356E+03 -1.839413E+04 -3.321022E-09 -8.075072E-10
       141  11  2.317147E+05  1.343067E+04  1.146253E+04 -9.215605E+03  1.478915E-09  2.195435E-10
       141  12  2.643975E+05  2.139397E+04  1.785783E+04 -1.840054E+04  1.364144E-09 -1.935995E-10
       141  13  1.772245E+05  9.474923E+00 -4.719741E+02 -1.835354E+04  1.261227E-10 -1.116130E-09
       141  14  1.772737E+05  1.706190E+01 -1.176926E+03 -9.171767E+03  1.751768E-09 -7.194245E-13
       141  15  1.772237E+05 -6.483167E+01 -2.284121E+03 -1.835355E+04 -1.731479E-09  2.739158E-10
       141  16  1.555155E+05 -5.359007E+03 -5.609337E+03 -1.831295E+04  2.240831E-09 -1.154790E-09
       141  17  1.228353E+05 -1.339675E+04 -1.381658E+04 -9.127932E+03  1.242777E-09  1.486169E-10
       141  18  9.005682E+04 -2.152417E+04 -2.242657E+04 -1.830657E+04 -9.911323E-10  8.785253E-10
       141  19  1.989339E+05  5.377924E+03  4.665363E+03 -1.839413E+04 -1.898048E+03  6.605375E+02
       141  20  2.317147E+05  1.343067E+04  1.146255E+04 -9.215610E+03 -2.480516E+03  2.212066E+03
       141  21  2.643975E+05  2.139399E+04  1.785787E+04 -1.840055E+04 -3.063156E+03  3.762702E+03
       141  22  1.772245E+05  9.475587E+00 -4.719720E+02 -1.835354E+04 -8.548536E+02  6.604162E+02
       141  23  1.772737E+05  1.706771E+01 -1.176913E+03 -9.171769E+03 -1.437844E+03  2.211990E+03
       141  24  1.772237E+05 -6.481537E+01 -2.284086E+03 -1.835356E+04 -2.020975E+03  3.762667E+03
       141  25  1.555155E+05 -5.359006E+03 -5.609336E+03 -1.831295E+04  1.883043E+02  6.602951E+02
       141  26  1.228353E+05 -1.339675E+04 -1.381657E+04 -9.127932E+03 -3.952626E+02  2.211914E+03
       141  27  9.005683E+04 -2.152415E+04 -2.242655E+04 -1.830657E+04 -9.789402E+02  3.762632E+03
       142   1  2.974584E+05  2.972884E+04  2.498732E+04 -1.858218E+04  3.550920E+03 -4.669618E+03
       142   2  3.305494E+05  3.785008E+04  3.017783E+04 -9.203159E+03  6.211880E+03 -6.219602E+03
       142   3  3.630247E+05  4.481996E+04  3.335234E+04 -1.821554E+04  8.873322E+03 -7.743839E+03
       142   4  1.771063E+05  5.751182E+01 -3.049728E+03 -1.835982E+04  2.499926E+03 -4.669636E+03
       142   5  1.774150E+05  1.218193E+02 -5.373608E+03 -9.163954E+03  5.177578E+03 -6.219743E+03
       142   6  1.771042E+05 -9.681661E+02 -9.725327E+03 -1.835978E+04  7.855575E+03 -7.744099E+03
       142   7  5.676765E+04 -2.961484E+04 -3.108775E+04 -1.813751E+04  1.449134E+03 -4.669654E+03
       142   8  2.430219E+04 -3.760809E+04 -4.092662E+04 -9.124759E+03  4.143529E+03 -6.219885E+03
       142   9 -8.784414E+03 -4.675872E+04 -5.280531E+04 -1.850397E+04  6.838129E+03 -7.744359E+03
       142  10  2.974583E+05  2.972881E+04  2.498725E+04 -1.858216E+04 -9.135736E-10 -1.699485E-10
       142  11  3.305494E+05  3.785003E+04  3.017769E+04 -9.203128E+03 -3.847260E-10  5.695738E-10
       142  12  3.630246E+05  4.481987E+04  3.335208E+04 -1.821549E+04  7.955191E-10 -9.109283E-12
       142  13  1.771063E+05  5.748673E+01 -3.049781E+03 -1.835981E+04  2.139370E-09  3.583672E-10
       142  14  1.774149E+05  1.217706E+02 -5.373731E+03 -9.163928E+03  1.002016E-09  5.171680E-10
       142  15  1.771041E+05 -9.682471E+02 -9.725556E+03 -1.835973E+04  1.206109E-09 -1.728601E-10
       142  16  5.676764E+04 -2.961486E+04 -3.108780E+04 -1.813750E+04  2.041632E-09  1.021469E-09
       142  17  2.430216E+04 -3.760814E+04 -4.092673E+04 -9.124738E+03  1.169104E-09  4.600975E-10
       142  18 -8.784480E+03 -4.675880E+04 -5.280551E+04 -1.850393E+04 -4.674347E-10 -1.093665E-10
       142  19  2.974584E+05  2.972884E+04  2.498732E+04 -1.858218E+04 -3.550920E+03  4.669618E+03
       142  20  3.305494E+05  3.785008E+04  3.017783E+04 -9.203159E+03 -6.211880E+03  6.219602E+03
       142  21  3.630247E+05  4.481996E+04  3.335234E+04 -1.821554E+04 -8.873322E+03  7.743839E+03
       142  22  1.771063E+05  5.751182E+01 -3.049728E+03 -1.835982E+04 -2.499926E+03  4.669636E+03
       142  23  1.774150E+05  1.218193E+02 -5.373608E+03 -9.163954E+03 -5.177578E+03  6.219743E+03
       142  24  1.771042E+05 -9.681661E+02 -9.725327E+03 -1.835978E+04 -7.855575E+03  7.744099E+03
       142  25  5.676765E+04 -2.961484E+04 -3.108775E+04 -1.813751E+04 -1.449134E+03  4.669654E+03
       142  26  2.430219E+04 -3.760809E+04 -4.092662E+04 -9.124759E+03 -4.143529E+03  6.219885E+03
       142  27 -8.784414E+03 -4.675872E+04 -5.280531E+04 -1.850397E+04 -6.838129E+03  7.744359E+03
       143   1  3.953394E+05  5.469663E+04  3.838634E+04 -2.037299E+04  1.099380E+04 -8.711221E+03
       143   2  4.306312E+05  6.327197E+04  3.698178E+04 -8.079001E+03  2.158633E+04 -1.020094E+04
       143   3  4.611151E+05  5.790056E+04  2.521049E+04 -1.420490E+04  3.217989E+04 -1.118558E+04
       143   4  1.761560E+05  6.819615E+02 -1.257981E+04 -1.836739E+04  9.818656E+03 -8.711572E+03
       143   5  1.785902E+05  1.176261E+03 -2.154169E+04 -9.155050E+03  2.074669E+04 -1.020149E+04
       143   6  1.761542E+05 -1.233790E+04 -4.110655E+04 -1.836327E+04  3.167519E+04 -1.118634E+04
       143   7 -4.298301E+04 -5.333608E+04 -6.354919E+04 -1.636251E+04  8.643926E+03 -8.711931E+03
       143   8 -7.339223E+04 -6.092392E+04 -8.006944E+04 -1.023066E+04  1.990738E+04 -1.020203E+04
       143   9 -1.087317E+05 -8.258203E+04 -1.074291E+05 -2.251974E+04  3.117073E+04 -1.118708E+04
       143  10  3.953392E+05  5.469651E+04  3.838597E+04 -2.037291E+04 -1.605654E-09 -4.038993E-10
       143  11  4.306306E+05  6.327174E+04  3.698071E+04 -8.078824E+03 -3.189248E-10 -4.682461E-10
       143  12  4.611140E+05  5.790014E+04  2.520831E+04 -1.420461E+04 -9.854738E-10 -1.367145E-09
       143  13  1.761559E+05  6.818541E+02 -1.258013E+04 -1.836733E+04 -1.102205E-09 -4.694957E-10
       143  14  1.785897E+05  1.176034E+03 -2.154270E+04 -9.154879E+03  1.579678E-09 -3.784246E-10
       143  15  1.761531E+05 -1.233831E+04 -4.110867E+04 -1.836299E+04 -1.220753E-09 -4.048201E-10
       143  16 -4.298311E+04 -5.333618E+04 -6.354947E+04 -1.636245E+04  2.759681E-09 -3.626138E-10
       143  17 -7.339268E+04 -6.092414E+04 -8.007038E+04 -1.023050E+04  9.501246E-10  3.976988E-10
       143  18 -1.087328E+05 -8.258242E+04 -1.074311E+05 -2.251945E+04  1.475657E-09  6.248081E-10
       143  19  3.953394E+05  5.469663E+04  3.838634E+04 -2.037299E+04 -1.099380E+04  8.711221E+03
       143  20  4.306312E+05  6.327197E+04  3.698178E+04 -8.079001E+03 -2.158633E+04  1.020094E+04
       143  21  4.611151E+05  5.790056E+04  2.521049E+04 -1.420490E+04 -3.217989E+04  1.118558E+04
       143  22  1.761560E+05  6.819615E+02 -1.257981E+04 -1.836739E+04 -9.818656E+03  8.711572E+03
       143  23  1.785902E+05  1.176261E+03 -2.154169E+04 -9.155050E+03 -2.074669E+04  1.020149E+04
       143  24  1.761542E+05 -1.233790E+04 -4.110655E+04 -1.836327E+04 -3.167519E+04  1.118634E+04
       143  25 -4.298301E+04 -5.333608E+04 -6.354919E+04 -1.636251E+04 -8.643926E+03  8.711931E+03
       143  26 -7.339223E+04 -6.092392E+04 -8.006944E+04 -1.023066E+04 -1.990738E+04  1.020203E+04
       143  27 -1.087317E+05 -8.258203E+04 -1.074291E+05 -2.251974E+04 -3.117073E+04  1.118708E+04
       144   1  4.850339E+05  8.673935E+04  2.288231E+04 -4.042710E+04  4.273036E+04 -1.326744E+04
       144   2  5.416304E+05  9.956535E+04 -1.923133E+03  9.563221E+03  8.116941E+04 -1.358583E+04
       144   3  5.512132E+05 -5.617320E+04 -9.384693E+04  4.146440E+04  1.196043E+05 -4.356304E+03
       144   4  1.665275E+05  8.330453E+03 -5.089881E+04 -1.832346E+04  3.927819E+04 -1.326796E+04
       144   5  1.906120E+05  1.301202E+04 -8.368217E+04 -9.222805E+03  8.411248E+04 -1.358696E+04
       144   6  1.665403E+05 -1.520386E+05 -1.880511E+05 -1.821214E+04  1.289400E+05 -4.360702E+03
       144   7 -1.518841E+05 -7.008373E+04 -1.246864E+05  3.768761E+03  3.582776E+04 -1.326873E+04
       144   8 -1.602921E+05 -7.354869E+04 -1.654493E+05 -2.799816E+04  8.705390E+04 -1.358826E+04
       144   9 -2.179901E+05 -2.479016E+05 -2.822638E+05 -7.785167E+04  1.382698E+05 -4.366897E+03
       144  10  4.850319E+05  8.673868E+04  2.287855E+04 -4.042664E+04  4.675103E-10 -1.618329E-09
       144  11  5.416233E+05  9.956339E+04 -1.935851E+03  9.564109E+03 -8.382769E-10 -1.759457E-09
       144  12  5.511978E+05 -5.617706E+04 -9.387382E+04  4.146482E+04 -1.692412E-09 -4.824453E-10
       144  13  1.665258E+05  8.329850E+03 -5.090204E+04 -1.832304E+04  3.056447E-09 -2.389936E-09
       144  14  1.906043E+05  1.300993E+04 -8.369581E+04 -9.221885E+03  1.344911E-10  9.117621E-10
       144  15  1.665224E+05 -1.520431E+05 -1.880823E+05 -1.821168E+04  2.089883E-10 -5.756454E-11
       144  16 -1.518855E+05 -7.008426E+04 -1.246892E+05  3.769144E+03 -1.029395E-09 -7.896198E-11
       144  17 -1.603003E+05 -7.355092E+04 -1.654639E+05 -2.799721E+04  1.072155E-09  1.238266E-10
       144  18 -2.180107E+05 -2.479067E+05 -2.822998E+05 -7.785119E+04  1.647717E-09 -1.097532E-09
       144  19  4.850339E+05  8.673935E+04  2.288231E+04 -4.042710E+04 -4.273036E+04  1.326744E+04
       144  20  5.416304E+05  9.956535E+04 -1.923133E+03  9.563221E+03 -8.116941E+04  1.358583E+04
       144  21  5.512132E+05 -5.617320E+04 -9.384693E+04  4.146440E+04 -1.196043E+05  4.356304E+03
       144  22  1.665275E+05  8.330453E+03 -5.089881E+04 -1.832346E+04 -3.927819E+04  1.326796E+04
       144  23  1.906120E+05  1.301202E+04 -8.368217E+04 -9.222805E+03 -8.411248E+04  1.358696E+04
       144  24  1.665403E+05 -1.520386E+05 -1.880511E+05 -1.821214E+04 -1.289400E+05  4.360702E+03
       144  25 -1.518841E+05 -7.008373E+04 -1.246864E+05  3.768761E+03 -3.582776E+04  1.326873E+04
       144  26 -1.602921E+05 -7.354869E+04 -1.654493E+05 -2.799816E+04 -8.705390E+04  1.358826E+04
       144  27 -2.179901E+05 -2.479016E+05 -2.822638E+05 -7.785167E+04 -1.382698E+05  4.366897E+03
       145   1  3.620977E+05  1.202195E+06  3.609208E+05 -1.883014E+05  1.437804E+04  4.611476E+04
       145   2  2.586241E+05  8.744412E+05  2.552200E+05 -9.367182E+04  4.043653E+04  1.656670E+04
       145   3  1.805084E+05  5.570167E+05  1.750874E+05 -1.784446E+05  2.997772E+04 -1.301880E+04
       145   4  1.857128E+04 -1.777561E+05  2.246517E+04 -1.798652E+05  1.441887E+04  1.629840E+04
       145   5 -1.509154E+03 -1.806667E+05  9.259916E+03 -9.016932E+04  4.045010E+04  1.134207E+04
       145   6 -4.654950E+02 -1.775863E+05  4.586528E+03 -1.798921E+05  2.993695E+04  6.332974E+03
       145   7 -3.250957E+05 -1.555973E+06 -3.161268E+05 -1.714469E+05  1.445896E+04 -1.345195E+04
       145   8 -2.617211E+05 -1.234748E+06 -2.367754E+05 -8.667231E+04  4.046363E+04  6.126245E+03
       145   9 -1.814772E+05 -9.116905E+05 -1.659492E+05 -1.813375E+05  2.989606E+04  2.566202E+04
       145  10  3.620969E+05  1.202192E+06  3.609164E+05 -1.883020E+05  6.896155E-11  1.527876E-09
       145  11  2.586223E+05  8.744404E+05  2.552164E+05 -9.367236E+04 -6.219387E-10  2.496148E-09
       145  12  1.805074E+05  5.570163E+05  1.750854E+05 -1.784443E+05 -1.005239E-09 -9.334373E-10
       145  13  1.857098E+04 -1.777564E+05  2.246428E+04 -1.798654E+05 -4.429242E-11  2.000325E-13
       145  14 -1.510946E+03 -1.806673E+05  9.256600E+03 -9.016969E+04  2.085933E-09  8.537685E-10
       145  15 -4.664682E+02 -1.775866E+05  4.584769E+03 -1.798923E+05 -1.247995E-09 -2.835558E-10
       145  16 -3.250959E+05 -1.555973E+06 -3.161276E+05 -1.714467E+05 -1.006932E-09 -4.281959E-10
       145  17 -2.617229E+05 -1.234749E+06 -2.367786E+05 -8.667251E+04  1.894813E-09 -8.514707E-10
       145  18 -1.814783E+05 -9.116914E+05 -1.659521E+05 -1.813382E+05 -6.072087E-10  3.387063E-09
       145  19  3.620977E+05  1.202195E+06  3.609208E+05 -1.883014E+05 -1.437804E+04 -4.611476E+04
       145  20  2.586241E+05  8.744412E+05  2.552200E+05 -9.367182E+04 -4.043653E+04 -1.656670E+04
       145  21  1.805084E+05  5.570167E+05  1.750874E+05 -1.784446E+05 -2.997772E+04  1.301880E+04
       145  22  1.857128E+04 -1.777561E+05  2.246517E+04 -1.798652E+05 -1.441887E+04 -1.629840E+04
       145  23 -1.509154E+03 -1.806667E+05  9.259916E+03 -9.016932E+04 -4.045010E+04 -1.134207E+04
       145  24 -4.654950E+02 -1.775863E+05  4.586528E+03 -1.798921E+05 -2.993695E+04 -6.332974E+03
       145  25 -3.250957E+05 -1.555973E+06 -3.161268E+05 -1.714469E+05 -1.445896E+04  1.345195E+04
       145  26 -2.617211E+05 -1.234748E+06 -2.367754E+05 -8.667231E+04 -4.046363E+04 -6.126245E+03
       145  27 -1.814772E+05 -9.116905E+05 -1.659492E+05 -1.813375E+05 -2.989606E+04 -2.566202E+04
       146   1  1.027500E+05  2.283364E+05  9.753090E+04 -1.809716E+05  1.632461E+04 -2.884716E+03
       146   2  2.143927E+04 -9.353237E+04  1.859379E+04 -9.025173E+04  3.446315E+03 -2.468255E+03
       146   3 -5.995802E+04 -4.163303E+05 -6.086185E+04 -1.802624E+05 -9.647509E+03 -2.054445E+03
       146   4  2.331904E+03 -1.790564E+05  2.826146E+03 -1.801717E+05  1.630487E+04  5.696007E+03
       146   5  4.867736E+02 -1.785255E+05 -1.152766E+03 -8.981024E+04  3.425826E+03  6.256137E+03
       146   6 -1.462289E+03 -1.790432E+05 -5.742859E+03 -1.801806E+05 -9.669102E+03  6.813837E+03
       146   7 -9.809786E+04 -5.862960E+05 -9.188951E+04 -1.793723E+05  1.628514E+04  1.427114E+04
       146   8 -2.046619E+04 -2.635118E+05 -2.089952E+04 -8.936881E+04  3.405347E+03  1.497934E+04
       146   9  5.702951E+04  5.829608E+04  4.937264E+04 -1.800988E+05 -9.690688E+03  1.568549E+04
       146  10  1.027497E+05  2.283363E+05  9.753038E+04 -1.809715E+05 -1.014222E-09  1.270071E-09
       146  11  2.143926E+04 -9.353238E+04  1.859376E+04 -9.025172E+04 -3.050158E-10  4.572323E-09
       146  12 -5.995812E+04 -4.163303E+05 -6.086204E+04 -1.802624E+05 -2.906105E-10  1.848184E-10
       146  13  2.331610E+03 -1.790566E+05  2.825585E+03 -1.801718E+05  1.202550E-09  2.188655E-11
       146  14  4.867505E+02 -1.785255E+05 -1.152861E+03 -8.981026E+04  7.915533E-10  1.248892E-09
       146  15 -1.462402E+03 -1.790433E+05 -5.743121E+03 -1.801806E+05 -1.966619E-09 -2.648987E-10
       146  16 -9.809820E+04 -5.862962E+05 -9.189040E+04 -1.793725E+05 -6.424499E-10  1.033141E-09
       146  17 -2.046626E+04 -2.635120E+05 -2.089997E+04 -8.936885E+04  2.866905E-10 -2.176275E-09
       146  18  5.702935E+04  5.829579E+04  4.937200E+04 -1.800987E+05 -2.949868E-09  2.634935E-09
       146  19  1.027500E+05  2.283364E+05  9.753090E+04 -1.809716E+05 -1.632461E+04  2.884716E+03
       146  20  2.143927E+04 -9.353237E+04  1.859379E+04 -9.025173E+04 -3.446315E+03  2.468255E+03
       146  21 -5.995802E+04 -4.163303E+05 -6.086185E+04 -1.802624E+05  9.647509E+03  2.054445E+03
       146  22  2.331904E+03 -1.790564E+05  2.826146E+03 -1.801717E+05 -1.630487E+04 -5.696007E+03
       146  23  4.867736E+02 -1.785255E+05 -1.152766E+03 -8.981024E+04 -3.425826E+03 -6.256137E+03
       146  24 -1.462289E+03 -1.790432E+05 -5.742859E+03 -1.801806E+05  9.669102E+03 -6.813837E+03
       146  25 -9.809786E+04 -5.862960E+05 -9.188951E+04 -1.793723E+05 -1.628514E+04 -1.427114E+04
       146  26 -2.046619E+04 -2.635118E+05 -2.089952E+04 -8.936881E+04 -3.405347E+03 -1.497934E+04
       146  27  5.702951E+04  5.829608E+04  4.937264E+04 -1.800988E+05  9.690688E+03 -1.568549E+04
       147   1 -1.367853E+05 -7.449318E+05 -1.389591E+05 -1.750323E+05 -2.279250E+04 -1.044245E+04
       147   2 -2.158743E+05 -1.061105E+06 -2.207908E+05 -9.218949E+04 -3.387726E+04  1.903481E+04
       147   3 -3.277291E+05 -1.389466E+06 -3.301053E+05 -1.890007E+05 -1.243408E+04  4.855114E+04
       147   4  2.363036E+03 -1.807589E+05 -7.816785E+03 -1.799200E+05 -2.283420E+04  7.877483E+03
       147   5  2.441211E+03 -1.765946E+05 -1.430806E+04 -9.012250E+04 -3.386726E+04  1.553476E+04
       147   6 -2.642237E+04 -1.809055E+05 -3.309535E+04 -1.799671E+05 -1.239228E+04  2.324704E+04
       147   7  1.414892E+05  3.837089E+05  1.233053E+05 -1.848119E+05 -2.287616E+04  2.621396E+04
       147   8  2.207014E+05  7.086381E+05  1.921217E+05 -8.805214E+04 -3.385729E+04  1.202974E+04
       147   9  2.747764E+05  1.028988E+06  2.638095E+05 -1.709151E+05 -1.235127E+04 -2.106365E+03
       147  10 -1.367859E+05 -7.449320E+05 -1.389602E+05 -1.750325E+05 -7.814983E-10  3.340083E-09
       147  11 -2.158757E+05 -1.061106E+06 -2.207937E+05 -9.218897E+04  2.377209E-09  3.892137E-09
       147  12 -3.277299E+05 -1.389468E+06 -3.301100E+05 -1.890002E+05  2.894265E-10 -3.313917E-10
       147  13  2.362460E+03 -1.807591E+05 -7.817881E+03 -1.799199E+05 -8.814936E-10 -3.576436E-11
       147  14  2.439915E+03 -1.765952E+05 -1.431067E+04 -9.012207E+04  9.251981E-10  9.410516E-10
       147  15 -2.642268E+04 -1.809061E+05 -3.309665E+04 -1.799669E+05  2.044712E-09 -1.796161E-10
       147  16  1.414884E+05  3.837080E+05  1.233030E+05 -1.848115E+05 -1.576229E-09 -1.096654E-09
       147  17  2.207001E+05  7.086377E+05  1.921193E+05 -8.805182E+04  1.326598E-09 -2.006401E-09
       147  18  2.747762E+05  1.028988E+06  2.638092E+05 -1.709152E+05  1.579700E-09  1.799968E-09
       147  19 -1.367853E+05 -7.449318E+05 -1.389591E+05 -1.750323E+05  2.279250E+04  1.044245E+04
       147  20 -2.158743E+05 -1.061105E+06 -2.207908E+05 -9.218949E+04  3.387726E+04 -1.903481E+04
       147  21 -3.277291E+05 -1.389466E+06 -3.301053E+05 -1.890007E+05  1.243408E+04 -4.855114E+04
       147  22  2.363036E+03 -1.807589E+05 -7.816785E+03 -1.799200E+05  2.283420E+04 -7.877483E+03
       147  23  2.441211E+03 -1.765946E+05 -1.430806E+04 -9.012250E+04  3.386726E+04 -1.553476E+04
       147  24 -2.642237E+04 -1.809055E+05 -3.309535E+04 -1.799671E+05  1.239228E+04 -2.324704E+04
       147  25  1.414892E+05  3.837089E+05  1.233053E+05 -1.848119E+05  2.287616E+04 -2.621396E+04
       147  26  2.207014E+05  7.086381E+05  1.921217E+05 -8.805214E+04  3.385729E+04 -1.202974E+04
       147  27  2.747764E+05  1.028988E+06  2.638095E+05 -1.709151E+05  1.235127E+04  2.106365E+03
       148   1 -1.014925E+06 -3.361085E+05 -1.964268E+05 -3.678774E+05 -7.670185E+04 -2.417488E+04
       148   2 -9.766128E+05 -2.151074E+05 -1.215917E+05 -3.592399E+05 -4.980046E+04 -4.748784E+03
       148   3 -9.608506E+05 -2.001816E+05 -9.387829E+04 -3.450678E+05 -1.949727E+04  5.633203E+03
       148   4 -7.002123E+05 -1.885842E+05 -1.057217E+05 -2.525014E+05 -6.875341E+04 -2.119228E+04
       148   5 -6.839051E+05 -9.656344E+04 -4.475651E+04 -2.701216E+05 -4.752372E+04 -3.894848E+03
       148   6 -6.890072E+05 -1.094689E+05 -2.639715E+04 -2.822126E+05 -2.289461E+04  4.357568E+03
       148   7 -3.853999E+05 -4.103662E+04 -1.502538E+04 -1.370667E+05 -6.080050E+04 -1.820708E+04
       148   8 -3.911130E+05  2.199018E+04  3.207155E+04 -1.809635E+05 -4.524580E+04 -3.040385E+03
       148   9 -4.170917E+05 -1.875511E+04  4.107845E+04 -2.193340E+05 -2.629359E+04  3.081474E+03
       148  10 -1.014932E+06 -3.361107E+05 -1.964390E+05 -3.678789E+05  1.548834E-09 -3.878616E-10
       148  11 -9.766154E+05 -2.151081E+05 -1.215964E+05 -3.592401E+05 -4.338805E-10 -5.124683E-10
       148  12 -9.608510E+05 -2.001817E+05 -9.387907E+04 -3.450677E+05 -2.812029E-09 -1.794842E-10
       148  13 -7.002175E+05 -1.885859E+05 -1.057314E+05 -2.525026E+05  2.130564E-09  5.320487E-10
       148  14 -6.839076E+05 -9.656407E+04 -4.476079E+04 -2.701217E+05 -9.899901E-10 -2.399998E-10
       148  15 -6.890078E+05 -1.094691E+05 -2.639817E+04 -2.822125E+05  2.060489E-10  5.452433E-10
       148  16 -3.854039E+05 -4.103797E+04 -1.503295E+04 -1.370676E+05 -3.641370E-10  1.423275E-10
       148  17 -3.911152E+05  2.198962E+04  3.206769E+04 -1.809636E+05  4.859404E-10 -7.100561E-10
       148  18 -4.170924E+05 -1.875531E+04  4.107713E+04 -2.193340E+05  3.037939E-09  8.986204E-10
       148  19 -1.014925E+06 -3.361085E+05 -1.964268E+05 -3.678774E+05  7.670185E+04  2.417488E+04
       148  20 -9.766128E+05 -2.151074E+05 -1.215917E+05 -3.592399E+05  4.980046E+04  4.748784E+03
       148  21 -9.608506E+05 -2.001816E+05 -9.387829E+04 -3.450678E+05  1.949727E+04 -5.633203E+03
       148  22 -7.002123E+05 -1.885842E+05 -1.057217E+05 -2.525014E+05  6.875341E+04  2.119228E+04
       148  23 -6.839051E+05 -9.656344E+04 -4.475651E+04 -2.701216E+05  4.752372E+04  3.894848E+03
       148  24 -6.890072E+05 -1.094689E+05 -2.639715E+04 -2.822126E+05  2.289461E+04 -4.357568E+03
       148  25 -3.853999E+05 -4.103662E+04 -1.502538E+04 -1.370667E+05  6.080050E+04  1.820708E+04
       148  26 -3.911130E+05  2.199018E+04  3.207155E+04 -1.809635E+05  4.524580E+04  3.040385E+03
       148  27 -4.170917E+05 -1.875511E+04  4.107845E+04 -2.193340E+05  2.629359E+04 -3.081474E+03
       149   1 -9.087370E+05 -2.053118E+05 -7.904192E+04 -3.397548E+05 -1.784993E+04  3.723452E+03
       149   2 -8.790913E+05 -1.751329E+05 -5.882634E+04 -3.216281E+05 -1.163529E+04  4.637034E+03
       149   3 -8.373258E+05 -1.687831E+05 -4.505537E+04 -3.197329E+05 -5.223131E+03  5.023632E+03
       149   4 -6.855013E+05 -1.194852E+05 -2.127602E+04 -2.765112E+05 -1.846979E+04  3.490424E+03
       149   5 -6.911054E+05 -1.041616E+05 -1.053279E+04 -2.696856E+05 -1.258440E+04  4.280651E+03
       149   6 -6.845242E+05 -1.126001E+05 -5.971124E+03 -2.790921E+05 -6.501837E+03  4.543813E+03
       149   7 -4.622179E+05 -3.365497E+04  3.648550E+04 -2.132469E+05 -1.908990E+04  3.257299E+03
       149   8 -5.030849E+05 -3.318788E+04  3.775785E+04 -2.177289E+05 -1.353381E+04  3.924148E+03
       149   9 -5.316993E+05 -5.641563E+04  3.311138E+04 -2.384422E+05 -7.780893E+03  4.063869E+03
       149  10 -9.087373E+05 -2.053119E+05 -7.904255E+04 -3.397547E+05  6.713038E-10  4.499967E-10
       149  11 -8.790915E+05 -1.751330E+05 -5.882664E+04 -3.216281E+05  4.680817E-09  6.330480E-10
       149  12 -8.373258E+05 -1.687831E+05 -4.505547E+04 -3.197329E+05  1.940319E-09  3.468118E-10
       149  13 -6.855017E+05 -1.194853E+05 -2.127669E+04 -2.765111E+05  2.015853E-09  5.423564E-10
       149  14 -6.911055E+05 -1.041617E+05 -1.053312E+04 -2.696856E+05  2.789744E-09  2.554648E-10
       149  15 -6.845242E+05 -1.126001E+05 -5.971243E+03 -2.790921E+05  1.993679E-09  6.795567E-10
       149  16 -4.622183E+05 -3.365508E+04  3.648479E+04 -2.132469E+05  1.314051E-09  4.203053E-10
       149  17 -5.030851E+05 -3.318794E+04  3.775748E+04 -2.177288E+05  2.330958E-09  6.715167E-10
       149  18 -5.316994E+05 -5.641567E+04  3.311123E+04 -2.384421E+05  1.470526E-09  9.450821E-10
       149  19 -9.087370E+05 -2.053118E+05 -7.904192E+04 -3.397548E+05  1.784993E+04 -3.723452E+03
       149  20 -8.790913E+05 -1.751329E+05 -5.882634E+04 -3.216281E+05  1.163529E+04 -4.637034E+03
       149  21 -8.373258E+05 -1.687831E+05 -4.505537E+04 -3.197329E+05  5.223131E+03 -5.023632E+03
       149  22 -6.855013E+05 -1.194852E+05 -2.127602E+04 -2.765112E+05  1.846979E+04 -3.490424E+03
       149  23 -6.911054E+05 -1.041616E+05 -1.053279E+04 -2.696856E+05  1.258440E+04 -4.280651E+03
       149  24 -6.845242E+05 -1.126001E+05 -5.971124E+03 -2.790921E+05  6.501837E+03 -4.543813E+03
       149  25 -4.622179E+05 -3.365497E+04  3.648550E+04 -2.132469E+05  1.908990E+04 -3.257299E+03
       149  26 -5.030849E+05 -3.318788E+04  3.775785E+04 -2.177289E+05  1.353381E+04 -3.924148E+03
       149  27 -5.316993E+05 -5.641563E+04  3.311138E+04 -2.384422E+05  7.780893E+03 -4.063869E+03
       150   1 -7.967359E+05 -1.557270E+05 -3.338007E+04 -3.094823E+05 -4.106949E+03  4.151350E+03
       150   2 -7.678325E+05 -1.332890E+05 -2.196378E+04 -2.903856E+05 -2.155375E+03  2.829450E+03
       150   3 -7.233855E+05 -1.275305E+05 -1.168589E+04 -2.894462E+05 -1.916146E+02  1.474369E+03
       150   4 -6.841191E+05 -1.134706E+05 -4.619662E+03 -2.786012E+05 -5.228634E+03  3.730532E+03
       150   5 -6.918499E+05 -1.048393E+05 -2.492145E+03 -2.696321E+05 -3.297682E+03  2.400983E+03
       150   6 -6.840343E+05 -1.128832E+05 -1.486335E+03 -2.788206E+05 -1.354632E+03  1.038231E+03
       150   7 -5.714899E+05 -7.121337E+04  2.413971E+04 -2.477150E+05 -6.350541E+03  3.309630E+03
       150   8 -6.158619E+05 -7.638931E+04  1.697898E+04 -2.488764E+05 -4.440141E+03  1.972460E+03
       150   9 -6.446818E+05 -9.823587E+04  8.713060E+03 -2.681944E+05 -2.517726E+03  6.020644E+02
       150  10 -7.967359E+05 -1.557271E+05 -3.338014E+04 -3.094823E+05  2.171226E-09  6.994735E-10
       150  11 -7.678325E+05 -1.332890E+05 -2.196381E+04 -2.903856E+05  1.258567E-09  5.802348E-10
       150  12 -7.233855E+05 -1.275305E+05 -1.168590E+04 -2.894462E+05  2.543582E-10 -4.922346E-10
       150  13 -6.841191E+05 -1.134706E+05 -4.619740E+03 -2.786012E+05  7.991198E-10  6.884352E-10
       150  14 -6.918499E+05 -1.048393E+05 -2.492177E+03 -2.696321E+05 -5.039920E-10  4.285364E-10
       150  15 -6.840343E+05 -1.128832E+05 -1.486341E+03 -2.788206E+05 -1.665158E-10 -2.869141E-10
       150  16 -5.714899E+05 -7.121339E+04  2.413962E+04 -2.477150E+05 -1.509088E-09  6.791720E-10
       150  17 -6.158619E+05 -7.638932E+04  1.697894E+04 -2.488764E+05  7.609304E-10 -1.300224E-11
       150  18 -6.446818E+05 -9.823588E+04  8.713047E+03 -2.681944E+05 -2.370189E-09 -1.207876E-10
       150  19 -7.967359E+05 -1.557270E+05 -3.338007E+04 -3.094823E+05  4.106949E+03 -4.151350E+03
       150  20 -7.678325E+05 -1.332890E+05 -2.196378E+04 -2.903856E+05  2.155375E+03 -2.829450E+03
       150  21 -7.233855E+05 -1.275305E+05 -1.168589E+04 -2.894462E+05  1.916146E+02 -1.474369E+03
       150  22 -6.841191E+05 -1.134706E+05 -4.619662E+03 -2.786012E+05  5.228634E+03 -3.730532E+03
       150  23 -6.918499E+05 -1.048393E+05 -2.492145E+03 -2.696321E+05  3.297682E+03 -2.400983E+03
       150  24 -6.840343E+05 -1.128832E+05 -1.486335E+03 -2.788206E+05  1.354632E+03 -1.038231E+03
       150  25 -5.714899E+05 -7.121337E+04  2.413971E+04 -2.477150E+05  6.350541E+03 -3.309630E+03
       150  26 -6.158619E+05 -7.638931E+04  1.697898E+04 -2.488764E+05  4.440141E+03 -1.972460E+03
       150  27 -6.446818E+05 -9.823587E+04  8.713060E+03 -2.681944E+05  2.517726E+03 -6.020644E+02
       151   1 -6.837168E+05 -1.128284E+05 -1.004403E+03 -2.787123E+05  4.238797E+02  4.799917E+02
       151   2 -6.548991E+05 -9.103950E+04  8.585287E+03 -2.595150E+05  1.563774E+03 -1.187028E+03
       151   3 -6.101822E+05 -8.531774E+04  1.781883E+04 -2.586287E+05  2.703846E+03 -2.854037E+03
       151   4 -6.839849E+05 -1.129535E+05 -1.209342E+03 -2.787777E+05 -7.304008E+02  4.714394E+01
       151   5 -6.919315E+05 -1.049028E+05 -9.034882E+02 -2.696283E+05  4.094287E+02 -1.619949E+03
       151   6 -6.839811E+05 -1.129198E+05 -9.539162E+02 -2.787908E+05  1.549398E+03 -3.287031E+03
       151   7 -6.842530E+05 -1.130787E+05 -1.414276E+03 -2.788432E+05 -1.884688E+03 -3.857062E+02
       151   8 -7.289625E+05 -1.187661E+05 -1.039235E+04 -2.797410E+05 -7.448388E+02 -2.052841E+03
       151   9 -7.577739E+05 -1.405212E+05 -1.972688E+04 -2.989504E+05  3.951124E+02 -3.719963E+03
       151  10 -6.837168E+05 -1.128284E+05 -1.004404E+03 -2.787123E+05  4.786165E-10 -6.181103E-10
       151  11 -6.548991E+05 -9.103950E+04  8.585280E+03 -2.595150E+05  4.917712E-10 -1.494377E-10
       151  12 -6.101822E+05 -8.531775E+04  1.781880E+04 -2.586287E+05  9.920542E-10 -1.820696E-10
       151  13 -6.839849E+05 -1.129535E+05 -1.209343E+03 -2.787777E+05  4.124867E-10 -3.581364E-10
       151  14 -6.919315E+05 -1.049028E+05 -9.034935E+02 -2.696283E+05 -1.000801E-09 -2.409970E-10
       151  15 -6.839811E+05 -1.129198E+05 -9.539410E+02 -2.787908E+05  4.457200E-10 -2.581449E-10
       151  16 -6.842530E+05 -1.130787E+05 -1.414282E+03 -2.788432E+05  1.967414E-09 -1.623542E-10
       151  17 -7.289625E+05 -1.187661E+05 -1.039236E+04 -2.797410E+05  2.640370E-10 -8.044812E-10
       151  18 -7.577739E+05 -1.405213E+05 -1.972691E+04 -2.989504E+05  3.343517E-10 -2.599641E-10
       151  19 -6.837168E+05 -1.128284E+05 -1.004403E+03 -2.787123E+05 -4.238797E+02 -4.799917E+02
       151  20 -6.548991E+05 -9.103950E+04  8.585287E+03 -2.595150E+05 -1.563774E+03  1.187028E+03
       151  21 -6.101822E+05 -8.531774E+04  1.781883E+04 -2.586287E+05 -2.703846E+03  2.854037E+03
       151  22 -6.839849E+05 -1.129535E+05 -1.209342E+03 -2.787777E+05  7.304008E+02 -4.714394E+01
       151  23 -6.919315E+05 -1.049028E+05 -9.034882E+02 -2.696283E+05 -4.094287E+02  1.619949E+03
       151  24 -6.839811E+05 -1.129198E+05 -9.539162E+02 -2.787908E+05 -1.549398E+03  3.287031E+03
       151  25 -6.842530E+05 -1.130787E+05 -1.414276E+03 -2.788432E+05  1.884688E+03  3.857062E+02
       151  26 -7.289625E+05 -1.187661E+05 -1.039235E+04 -2.797410E+05  7.448388E+02  2.052841E+03
       151  27 -7.577739E+05 -1.405212E+05 -1.972688E+04 -2.989504E+05 -3.951124E+02  3.719963E+03
       152   1 -5.707326E+05 -7.049576E+04  2.806220E+04 -2.478845E+05  3.272284E+03 -3.859436E+03
       152   2 -5.420801E+05 -4.885679E+04  3.668514E+04 -2.287599E+05  4.800042E+03 -5.372637E+03
       152   3 -4.976881E+05 -4.329640E+04  4.463945E+04 -2.278192E+05  6.324905E+03 -6.876284E+03
       152   4 -6.840137E+05 -1.128901E+05 -1.092872E+03 -2.787754E+05  2.119402E+03 -4.291913E+03
       152   5 -6.918937E+05 -1.049214E+05 -1.695759E+03 -2.696569E+05  3.652852E+03 -5.803164E+03
       152   6 -6.840363E+05 -1.130327E+05 -2.971716E+03 -2.787230E+05  5.183354E+03 -7.304877E+03
       152   7 -7.972829E+05 -1.552839E+05 -3.024914E+04 -3.096613E+05  9.667450E+02 -4.724305E+03
       152   8 -8.416868E+05 -1.609851E+05 -4.007883E+04 -3.105453E+05  2.505955E+03 -6.233581E+03
       152   9 -8.703528E+05 -1.827676E+05 -5.058632E+04 -3.296136E+05  4.042165E+03 -7.733334E+03
       152  10 -5.707326E+05 -7.049578E+04  2.806215E+04 -2.478845E+05 -4.499174E-10 -1.501373E-10
       152  11 -5.420801E+05 -4.885683E+04  3.668504E+04 -2.287599E+05  2.230877E-09  8.208301E-10
       152  12 -4.976882E+05 -4.329646E+04  4.463929E+04 -2.278191E+05  3.029436E-09  4.006172E-10
       152  13 -6.840138E+05 -1.128902E+05 -1.092915E+03 -2.787754E+05  1.772740E-09  2.755742E-10
       152  14 -6.918938E+05 -1.049215E+05 -1.695847E+03 -2.696569E+05  1.345957E-09  9.596872E-10
       152  15 -6.840363E+05 -1.130328E+05 -2.971867E+03 -2.787229E+05 -2.383170E-10 -2.024412E-10
       152  16 -7.972829E+05 -1.552839E+05 -3.024918E+04 -3.096613E+05 -6.741710E-10  8.280402E-10
       152  17 -8.416868E+05 -1.609851E+05 -4.007891E+04 -3.105453E+05 -5.262473E-10  9.630363E-10
       152  18 -8.703528E+05 -1.827677E+05 -5.058646E+04 -3.296135E+05 -2.414691E-09 -4.887394E-10
       152  19 -5.707326E+05 -7.049576E+04  2.806220E+04 -2.478845E+05 -3.272284E+03  3.859436E+03
       152  20 -5.420801E+05 -4.885679E+04  3.668514E+04 -2.287599E+05 -4.800042E+03  5.372637E+03
       152  21 -4.976881E+05 -4.329640E+04  4.463945E+04 -2.278192E+05 -6.324905E+03  6.876284E+03
       152  22 -6.840137E+05 -1.128901E+05 -1.092872E+03 -2.787754E+05 -2.119402E+03  4.291913E+03
       152  23 -6.918937E+05 -1.049214E+05 -1.695759E+03 -2.696569E+05 -3.652852E+03  5.803164E+03
       152  24 -6.840363E+05 -1.130327E+05 -2.971716E+03 -2.787230E+05 -5.183354E+03  7.304877E+03
       152  25 -7.972829E+05 -1.552839E+05 -3.024914E+04 -3.096613E+05 -9.667450E+02  4.724305E+03
       152  26 -8.416868E+05 -1.609851E+05 -4.007883E+04 -3.105453E+05 -2.505955E+03  6.233581E+03
       152  27 -8.703528E+05 -1.827676E+05 -5.058632E+04 -3.296136E+05 -4.042165E+03  7.733334E+03
       153   1 -4.586228E+05 -2.859876E+04  5.399506E+04 -2.174904E+05  7.295927E+03 -7.723926E+03
       153   2 -4.302168E+05 -6.856913E+03  6.004582E+04 -1.982436E+05  1.143404E+04 -8.225746E+03
       153   3 -3.872659E+05 -2.817861E+03  6.299562E+04 -1.965584E+05  1.555211E+04 -8.671048E+03
       153   4 -6.842243E+05 -1.127971E+05 -3.887794E+03 -2.788116E+05  6.144854E+03 -8.156251E+03
       153   5 -6.916147E+05 -1.047842E+05 -6.938175E+03 -2.697157E+05  1.031688E+04 -8.645636E+03
       153   6 -6.844683E+05 -1.144814E+05 -1.311724E+04 -2.781818E+05  1.446867E+04 -9.078571E+03
       153   7 -9.097738E+05 -1.969914E+05 -6.177416E+04 -3.401120E+05  4.994251E+03 -8.588400E+03
       153   8 -9.529444E+05 -2.027064E+05 -7.392733E+04 -3.411601E+05  9.200251E+03 -9.065330E+03
       153   9 -9.815842E+05 -2.261390E+05 -8.923721E+04 -3.597697E+05  1.338580E+04 -9.485878E+03
       153  10 -4.586229E+05 -2.859884E+04  5.399485E+04 -2.174903E+05  1.510583E-09 -8.692369E-10
       153  11 -4.302169E+05 -6.857021E+03  6.004545E+04 -1.982435E+05  1.370924E-09  5.360421E-11
       153  12 -3.872661E+05 -2.818006E+03  6.299503E+04 -1.965583E+05 -1.124163E-09  1.050893E-09
       153  13 -6.842244E+05 -1.127972E+05 -3.887990E+03 -2.788115E+05 -1.031163E-09 -3.230839E-10
       153  14 -6.916148E+05 -1.047843E+05 -6.938516E+03 -2.697156E+05 -2.017765E-09  7.066310E-10
       153  15 -6.844685E+05 -1.144816E+05 -1.311779E+04 -2.781817E+05 -1.583993E-09  2.089861E-09
       153  16 -9.097739E+05 -1.969915E+05 -6.177435E+04 -3.401120E+05 -1.871519E-09 -2.478574E-10
       153  17 -9.529445E+05 -2.027066E+05 -7.392764E+04 -3.411600E+05 -2.209238E-09  9.115849E-10
       153  18 -9.815844E+05 -2.261392E+05 -8.923771E+04 -3.597696E+05  1.064939E-09  1.119516E-09
       153  19 -4.586228E+05 -2.859876E+04  5.399506E+04 -2.174904E+05 -7.295927E+03  7.723926E+03
       153  20 -4.302168E+05 -6.856913E+03  6.004582E+04 -1.982436E+05 -1.143404E+04  8.225746E+03
       153  21 -3.872659E+05 -2.817861E+03  6.299562E+04 -1.965584E+05 -1.555211E+04  8.671048E+03
       153  22 -6.842243E+05 -1.127971E+05 -3.887794E+03 -2.788116E+05 -6.144854E+03  8.156251E+03
       153  23 -6.916147E+05 -1.047842E+05 -6.938175E+03 -2.697157E+05 -1.031688E+04  8.645636E+03
       153  24 -6.844683E+05 -1.144814E+05 -1.311724E+04 -2.781818E+05 -1.446867E+04  9.078571E+03
       153  25 -9.097738E+05 -1.969914E+05 -6.177416E+04 -3.401120E+05 -4.994251E+03  8.588400E+03
       153  26 -9.529444E+05 -2.027064E+05 -7.392733E+04 -3.411601E+05 -9.200251E+03  9.065330E+03
       153  27 -9.815842E+05 -2.261390E+05 -8.923721E+04 -3.597697E+05 -1.338580E+04  9.485878E+03
       154   1 -3.475994E+05  1.167040E+04  6.915582E+04 -1.902496E+05  1.862738E+04 -8.814397E+03
       154   2 -3.196311E+05  3.747118E+04  6.499096E+04 -1.669309E+05  3.426083E+04 -4.865420E+03
       154   3 -2.866115E+05  2.531286E+04  4.354732E+04 -1.557424E+05  4.959679E+04 -1.190749E+02
       154   4 -6.856152E+05 -1.120082E+05 -1.701591E+04 -2.796077E+05  1.731054E+04 -9.309774E+03
       154   5 -6.894895E+05 -1.028169E+05 -3.011516E+04 -2.698445E+05  3.343589E+04 -5.176492E+03
       154   6 -6.884178E+05 -1.316928E+05 -6.089169E+04 -2.722124E+05  4.926281E+04 -2.462061E+02
       154   7 -1.023521E+06 -2.356814E+05 -1.031972E+05 -3.689228E+05  1.599448E+04 -9.804875E+03
       154   8 -1.059215E+06 -2.430956E+05 -1.252328E+05 -3.727025E+05  3.261148E+04 -5.487359E+03
       154   9 -1.090067E+06 -2.886845E+05 -1.653443E+05 -3.886129E+05  4.892905E+04 -3.732436E+02
       154  10 -3.475998E+05  1.167022E+04  6.915503E+04 -1.902495E+05  2.179431E-09  1.024570E-09
       154  11 -3.196323E+05  3.747084E+04  6.498871E+04 -1.669308E+05  2.330073E-10 -2.047660E-09
       154  12 -2.866142E+05  2.531220E+04  4.354270E+04 -1.557424E+05 -2.949842E-09 -2.527819E-09
       154  13 -6.856155E+05 -1.120084E+05 -1.701663E+04 -2.796076E+05  1.619815E-09 -1.148509E-09
       154  14 -6.894907E+05 -1.028172E+05 -3.011731E+04 -2.698444E+05  2.114786E-09 -2.591821E-09
       154  15 -6.884204E+05 -1.316935E+05 -6.089625E+04 -2.722124E+05  8.471620E-10 -9.458724E-10
       154  16 -1.023521E+06 -2.356815E+05 -1.031979E+05 -3.689226E+05 -2.453871E-09 -1.041486E-09
       154  17 -1.059216E+06 -2.430959E+05 -1.252348E+05 -3.727024E+05 -6.145172E-10  1.189184E-10
       154  18 -1.090069E+06 -2.886852E+05 -1.653488E+05 -3.886128E+05  2.547399E-09  7.208115E-10
       154  19 -3.475994E+05  1.167040E+04  6.915582E+04 -1.902496E+05 -1.862738E+04  8.814397E+03
       154  20 -3.196311E+05  3.747118E+04  6.499096E+04 -1.669309E+05 -3.426083E+04  4.865420E+03
       154  21 -2.866115E+05  2.531286E+04  4.354732E+04 -1.557424E+05 -4.959679E+04  1.190749E+02
       154  22 -6.856152E+05 -1.120082E+05 -1.701591E+04 -2.796077E+05 -1.731054E+04  9.309774E+03
       154  23 -6.894895E+05 -1.028169E+05 -3.011516E+04 -2.698445E+05 -3.343589E+04  5.176492E+03
       154  24 -6.884178E+05 -1.316928E+05 -6.089169E+04 -2.722124E+05 -4.926281E+04  2.462061E+02
       154  25 -1.023521E+06 -2.356814E+05 -1.031972E+05 -3.689228E+05 -1.599448E+04  9.804875E+03
       154  26 -1.059215E+06 -2.430956E+05 -1.252328E+05 -3.727025E+05 -3.261148E+04  5.487359E+03
       154  27 -1.090067E+06 -2.886845E+05 -1.653443E+05 -3.886129E+05 -4.892905E+04  3.732436E+02
       155   1 -2.311756E+05  4.012557E+04  3.796777E+04 -1.935214E+05  6.507872E+04  2.559608E+03
       155   2 -2.099008E+05  1.167949E+05 -5.475544E+03 -1.190200E+05  1.262738E+05  2.523484E+04
       155   3 -2.777309E+05 -7.564585E+04 -1.641119E+05  5.098053E+03  1.823593E+05  6.148630E+04
       155   4 -6.983143E+05 -1.031676E+05 -7.556307E+04 -2.887142E+05  6.057894E+04  8.686150E+02
       155   5 -6.689898E+05 -8.087666E+04 -1.281135E+05 -2.709093E+05  1.302586E+05  2.672833E+04
       155   6 -7.305373E+05 -3.295121E+05 -3.026528E+05 -2.034682E+05  1.948260E+05  6.615486E+04
       155   7 -1.165239E+06 -2.464621E+05 -1.891092E+05 -3.838500E+05  5.608287E+04 -8.215644E+02
       155   8 -1.127868E+06 -2.785140E+05 -2.507690E+05 -4.226892E+05  1.342401E+05  2.822018E+04
       155   9 -1.183122E+06 -5.832758E+05 -4.412107E+05 -4.118700E+05  2.072826E+05  7.081541E+04
       155  10 -2.311801E+05  4.012443E+04  3.795979E+04 -1.935216E+05 -5.054974E-10  2.465642E-12
       155  11 -2.099181E+05  1.167899E+05 -5.506719E+03 -1.190226E+05 -3.393013E-09 -4.106509E-09
       155  12 -2.777677E+05 -7.565884E+04 -1.641815E+05  5.089020E+03 -1.776515E-09 -1.320826E-09
       155  13 -6.983183E+05 -1.031686E+05 -7.556997E+04 -2.887143E+05 -2.784340E-09 -1.973358E-09
       155  14 -6.690082E+05 -8.088200E+04 -1.281467E+05 -2.709121E+05 -2.001551E-09  2.573000E-09
       155  15 -7.305793E+05 -3.295270E+05 -3.027325E+05 -2.034785E+05 -2.051359E-09  1.295847E-09
       155  16 -1.165243E+06 -2.464629E+05 -1.891151E+05 -3.838500E+05 -2.704712E-09  1.628548E-09
       155  17 -1.127888E+06 -2.785197E+05 -2.508044E+05 -4.226922E+05 -4.619324E-09  2.454505E-09
       155  18 -1.183169E+06 -5.832928E+05 -4.413011E+05 -4.118819E+05 -2.101416E-09  1.225437E-09
       155  19 -2.311756E+05  4.012557E+04  3.796777E+04 -1.935214E+05 -6.507872E+04 -2.559608E+03
       155  20 -2.099008E+05  1.167949E+05 -5.475544E+03 -1.190200E+05 -1.262738E+05 -2.523484E+04
       155  21 -2.777309E+05 -7.564585E+04 -1.641119E+05  5.098053E+03 -1.823593E+05 -6.148630E+04
       155  22 -6.983143E+05 -1.031676E+05 -7.556307E+04 -2.887142E+05 -6.057894E+04 -8.686150E+02
       155  23 -6.689898E+05 -8.087666E+04 -1.281135E+05 -2.709093E+05 -1.302586E+05 -2.672833E+04
       155  24 -7.305373E+05 -3.295121E+05 -3.026528E+05 -2.034682E+05 -1.948260E+05 -6.615486E+04
       155  25 -1.165239E+06 -2.464621E+05 -1.891092E+05 -3.838500E+05 -5.608287E+04  8.215644E+02
       155  26 -1.127868E+06 -2.785140E+05 -2.507690E+05 -4.226892E+05 -1.342401E+05 -2.822018E+04
       155  27 -1.183122E+06 -5.832758E+05 -4.412107E+05 -4.118700E+05 -2.072826E+05 -7.081541E+04
       156   1  2.461152E+05  2.158616E+06  2.437897E+05 -5.277300E+04  1.088298E+04  1.088023E+05
       156   2  1.861915E+05  2.141266E+06  1.758843E+05 -2.992514E+04  3.775329E+04  5.943988E+04
       156   3  1.696182E+05  2.141205E+06  1.509092E+05 -7.772248E+03  4.769583E+04  1.006699E+04
       156   4  6.624494E+04  1.428141E+06  7.387451E+04 -1.006486E+04  1.094665E+04  4.763784E+04
       156   5  1.521249E+04  1.422053E+06  3.897985E+04 -9.753698E+03  3.779165E+04  2.762358E+04
       156   6  2.471122E+03  1.428186E+06  2.669507E+04 -1.013614E+04  4.770350E+04  7.596496E+03
       156   7 -1.136542E+05  6.981679E+05 -9.606169E+04  3.259294E+04  1.100196E+04 -1.345539E+04
       156   8 -1.557947E+05  7.033401E+05 -9.794390E+04  1.039402E+04  3.782798E+04 -4.156848E+03
       156   9 -1.647034E+05  7.156635E+05 -9.753700E+04 -1.249711E+04  4.771119E+04  5.128738E+03
       156  10  2.461119E+05  2.158604E+06  2.437673E+05 -5.277395E+04 -4.106926E-10  2.219806E-08
       156  11  1.861890E+05  2.141262E+06  1.758750E+05 -2.992695E+04  2.371171E-10  7.700086E-09
       156  12  1.696157E+05  2.141205E+06  1.509047E+05 -7.772634E+03 -1.255704E-09 -8.661227E-09
       156  13  6.624421E+04  1.428138E+06  7.387003E+04 -1.006528E+04  5.523917E-10  1.027910E-09
       156  14  1.521075E+04  1.422052E+06  3.897573E+04 -9.754538E+03 -1.100878E-09 -2.526902E-10
       156  15  2.468662E+03  1.428186E+06  2.669068E+04 -1.013644E+04 -2.934495E-09  1.359139E-09
       156  16 -1.136543E+05  6.981677E+05 -9.606225E+04  3.259306E+04 -2.949242E-10 -2.260281E-08
       156  17 -1.557963E+05  7.033397E+05 -9.794663E+04  1.039415E+04 -1.238914E-09 -6.863283E-09
       156  18 -1.647058E+05  7.156629E+05 -9.754133E+04 -1.249731E+04 -1.403521E-09  6.764447E-09
       156  19  2.461152E+05  2.158616E+06  2.437897E+05 -5.277300E+04 -1.088298E+04 -1.088023E+05
       156  20  1.861915E+05  2.141266E+06  1.758843E+05 -2.992514E+04 -3.775329E+04 -5.943988E+04
       156  21  1.696182E+05  2.141205E+06  1.509092E+05 -7.772248E+03 -4.769583E+04 -1.006699E+04
       156  22  6.624494E+04  1.428141E+06  7.387451E+04 -1.006486E+04 -1.094665E+04 -4.763784E+04
       156  23  1.521249E+04  1.422053E+06  3.897985E+04 -9.753698E+03 -3.779165E+04 -2.762358E+04
       156  24  2.471122E+03  1.428186E+06  2.669507E+04 -1.013614E+04 -4.770350E+04 -7.596496E+03
       156  25 -1.136542E+05  6.981679E+05 -9.606169E+04  3.259294E+04 -1.100196E+04  1.345539E+04
       156  26 -1.557947E+05  7.033401E+05 -9.794390E+04  1.039402E+04 -3.782798E+04  4.156848E+03
       156  27 -1.647034E+05  7.156635E+05 -9.753700E+04 -1.249711E+04 -4.771119E+04 -5.128738E+03
       157   1  1.685258E+05  2.132981E+06  1.466371E+05 -1.346688E+04  4.824634E+04  7.906992E+03
       157   2  1.646786E+05  2.122660E+06  1.445333E+05 -9.731016E+03  4.928273E+04 -1.010697E+04
       157   3  1.684198E+05  2.116616E+06  1.560396E+05 -7.794555E+03  4.736054E+04 -2.812505E+04
       157   4  3.046941E+03  1.426222E+06  2.459768E+04 -1.037463E+04  4.825660E+04  3.584355E+03
       157   5  1.587155E+03  1.424526E+06  2.578614E+04 -9.472814E+03  4.928662E+04 -9.289884E+03
       157   6  6.830470E+03  1.426220E+06  3.703123E+04 -1.037048E+04  4.735656E+04 -2.216843E+04
       157   7 -1.624586E+05  7.199517E+05 -9.745889E+04 -7.285843E+03  4.826682E+04 -7.335270E+02
       157   8 -1.615300E+05  7.268692E+05 -9.297702E+04 -9.214751E+03  4.929050E+04 -8.473676E+03
       157   9 -1.547843E+05  7.362905E+05 -8.199336E+04 -1.294330E+04  4.735252E+04 -1.621819E+04
       157  10  1.685233E+05  2.132981E+06  1.466326E+05 -1.346719E+04  3.978827E-12 -2.241427E-08
       157  11  1.646759E+05  2.122660E+06  1.445286E+05 -9.730615E+03  3.089940E-09 -1.294956E-08
       157  12  1.684172E+05  2.116614E+06  1.560339E+05 -7.793484E+03  5.912997E-10 -1.316184E-09
       157  13  3.044435E+03  1.426222E+06  2.459328E+04 -1.037477E+04 -3.893731E-09  1.325505E-09
       157  14  1.584522E+03  1.424525E+06  2.578141E+04 -9.472445E+03  4.999758E-10  5.260936E-12
       157  15  6.827929E+03  1.426219E+06  3.702610E+04 -1.036964E+04  4.825291E-10  1.796287E-09
       157  16 -1.624611E+05  7.199511E+05 -9.746327E+04 -7.285814E+03 -1.548066E-09  2.178131E-08
       157  17 -1.615327E+05  7.268685E+05 -9.298172E+04 -9.214415E+03  1.231885E-09  1.322724E-08
       157  18 -1.547868E+05  7.362897E+05 -8.199807E+04 -1.294268E+04  1.056391E-09 -1.304765E-09
       157  19  1.685258E+05  2.132981E+06  1.466371E+05 -1.346688E+04 -4.824634E+04 -7.906992E+03
       157  20  1.646786E+05  2.122660E+06  1.445333E+05 -9.731016E+03 -4.928273E+04  1.010697E+04
       157  21  1.684198E+05  2.116616E+06  1.560396E+05 -7.794555E+03 -4.736054E+04  2.812505E+04
       157  22  3.046941E+03  1.426222E+06  2.459768E+04 -1.037463E+04 -4.825660E+04 -3.584355E+03
       157  23  1.587155E+03  1.424526E+06  2.578614E+04 -9.472814E+03 -4.928662E+04  9.289884E+03
       157  24  6.830470E+03  1.426220E+06  3.703123E+04 -1.037048E+04 -4.735656E+04  2.216843E+04
       157  25 -1.624586E+05  7.199517E+05 -9.745889E+04 -7.285843E+03 -4.826682E+04  7.335270E+02
       157  26 -1.615300E+05  7.268692E+05 -9.297702E+04 -9.214751E+03 -4.929050E+04  8.473676E+03
       157  27 -1.547843E+05  7.362905E+05 -8.199336E+04 -1.294330E+04 -4.735252E+04  1.621819E+04
       158   1  1.661016E+05  2.117226E+06  1.654362E+05 -1.878380E+04  4.618958E+04 -3.266920E+04
       158   2  1.940604E+05  2.094261E+06  2.080708E+05  3.230391E+04  3.613517E+04 -1.006415E+05
       158   3  3.102638E+05  2.102201E+06  3.169284E+05  8.069222E+04  1.063541E+04 -1.686457E+05
       158   4  5.324990E+03  1.431316E+06  4.621226E+04 -1.060216E+04  4.618712E+04 -2.842433E+04
       158   5  3.363406E+04  1.418127E+06  7.987966E+04 -9.140855E+03  3.609339E+04 -6.961740E+04
       158   6  1.455898E+05  1.431224E+06  1.612371E+05 -1.038020E+04  1.055744E+04 -1.108399E+05
       158   7 -1.554768E+05  7.458666E+05 -7.302809E+04 -2.429642E+03  4.618477E+04 -2.418398E+04
       158   8 -1.268119E+05  7.424388E+05 -4.832728E+04 -5.053936E+04  3.604746E+04 -3.862612E+04
       158   9 -1.908275E+04  7.606859E+05  5.532659E+03 -1.013536E+05  1.046253E+04 -5.309584E+04
       158  10  1.660990E+05  2.117224E+06  1.654302E+05 -1.878258E+04  1.790781E-09 -7.127829E-10
       158  11  1.940563E+05  2.094250E+06  2.080494E+05  3.230684E+04  1.013261E-09 -2.522614E-09
       158  12  3.102561E+05  2.102170E+06  3.168749E+05  8.069367E+04  3.299213E-10 -3.681767E-09
       158  13  5.322481E+03  1.431315E+06  4.620674E+04 -1.060111E+04  1.352921E-10  1.381535E-09
       158  14  3.363136E+04  1.418122E+06  7.986813E+04 -9.138833E+03 -1.596269E-10 -7.655684E-12
       158  15  1.455864E+05  1.431210E+06  1.612139E+05 -1.037926E+04  1.093859E-09  2.285367E-09
       158  16 -1.554792E+05  7.458654E+05 -7.303320E+04 -2.428742E+03  1.162895E-09 -5.444407E-10
       158  17 -1.268137E+05  7.424368E+05 -4.833252E+04 -5.053824E+04 -1.509434E-10  2.967230E-09
       158  18 -1.908363E+04  7.606829E+05  5.527163E+03 -1.013532E+05 -7.607332E-10  3.582290E-10
       158  19  1.661016E+05  2.117226E+06  1.654362E+05 -1.878380E+04 -4.618958E+04  3.266920E+04
       158  20  1.940604E+05  2.094261E+06  2.080708E+05  3.230391E+04 -3.613517E+04  1.006415E+05
       158  21  3.102638E+05  2.102201E+06  3.169284E+05  8.069222E+04 -1.063541E+04  1.686457E+05
       158  22  5.324990E+03  1.431316E+06  4.621226E+04 -1.060216E+04 -4.618712E+04  2.842433E+04
       158  23  3.363406E+04  1.418127E+06  7.987966E+04 -9.140855E+03 -3.609339E+04  6.961740E+04
       158  24  1.455898E+05  1.431224E+06  1.612371E+05 -1.038020E+04 -1.055744E+04  1.108399E+05
       158  25 -1.554768E+05  7.458666E+05 -7.302809E+04 -2.429642E+03 -4.618477E+04  2.418398E+04
       158  26 -1.268119E+05  7.424388E+05 -4.832728E+04 -5.053936E+04 -3.604746E+04  3.862612E+04
       158  27 -1.908275E+04  7.606859E+05  5.532659E+03 -1.013536E+05 -1.046253E+04  5.309584E+04
       159   1 -9.968691E+04 -1.193016E+05 -6.618083E+04  1.016310E+04  1.396257E+05  1.511078E+04
       159   2 -7.858929E+03 -3.046876E+05 -1.603730E+05 -9.385414E+03  1.017635E+05  4.531660E+04
       159   3  1.454418E+05 -2.684602E+05 -1.742848E+05 -9.664464E+04  6.394546E+04  4.355669E+04
       159   4  1.189458E+06  2.011249E+05  2.493465E+05 -6.693293E+04  1.709529E+05  1.514681E+04
       159   5  1.157016E+06 -1.766934E+04  1.108802E+05 -3.292320E+04  1.115041E+05  4.531925E+04
       159   6  1.189645E+06 -1.134237E+04  6.754960E+04 -6.660908E+04  5.210913E+04  4.354606E+04
       159   7  2.480130E+06  5.214519E+05  5.647595E+05 -1.441899E+05  2.023448E+05  1.517505E+04
       159   8  2.323143E+06  2.692553E+05  3.820425E+05 -5.650582E+04  1.212627E+05  4.532116E+04
       159   9  2.234857E+06  2.457024E+05  3.093121E+05 -3.652277E+04  4.025298E+04  4.353429E+04
       159  10 -9.970791E+04 -1.193071E+05 -6.621790E+04  1.016140E+04  6.613067E-11  2.567981E-10
       159  11 -7.870602E+03 -3.046925E+05 -1.603963E+05 -9.389129E+03  4.505613E-10  5.545176E-10
       159  12  1.454369E+05 -2.684634E+05 -1.742961E+05 -9.664689E+04  2.225202E-10  4.200920E-11
       159  13  1.189426E+06  2.011168E+05  2.492913E+05 -6.693501E+04  5.444172E-10  1.765808E-10
       159  14  1.157002E+06 -1.767487E+04  1.108530E+05 -3.292727E+04 -7.080445E-10  4.597769E-10
       159  15  1.189642E+06 -1.134513E+04  6.754094E+04 -6.661090E+04  4.959642E-10  2.933427E-11
       159  16  2.480086E+06  5.214407E+05  5.646824E+05 -1.441924E+05 -3.053012E-10  1.070713E-10
       159  17  2.323126E+06  2.692492E+05  3.820111E+05 -5.651024E+04 -1.251318E-09  2.426519E-10
       159  18  2.234854E+06  2.456999E+05  3.093055E+05 -3.652418E+04 -1.129673E-09  7.019960E-11
       159  19 -9.968691E+04 -1.193016E+05 -6.618083E+04  1.016310E+04 -1.396257E+05 -1.511078E+04
       159  20 -7.858929E+03 -3.046876E+05 -1.603730E+05 -9.385414E+03 -1.017635E+05 -4.531660E+04
       159  21  1.454418E+05 -2.684602E+05 -1.742848E+05 -9.664464E+04 -6.394546E+04 -4.355669E+04
       159  22  1.189458E+06  2.011249E+05  2.493465E+05 -6.693293E+04 -1.709529E+05 -1.514681E+04
       159  23  1.157016E+06 -1.766934E+04  1.108802E+05 -3.292320E+04 -1.115041E+05 -4.531925E+04
       159  24  1.189645E+06 -1.134237E+04  6.754960E+04 -6.660908E+04 -5.210913E+04 -4.354606E+04
       159  25  2.480130E+06  5.214519E+05  5.647595E+05 -1.441899E+05 -2.023448E+05 -1.517505E+04
       159  26  2.323143E+06  2.692553E+05  3.820425E+05 -5.650582E+04 -1.212627E+05 -4.532116E+04
       159  27  2.234857E+06  2.457024E+05  3.093121E+05 -3.652277E+04 -4.025298E+04 -4.353429E+04
       160   1  2.546747E+05 -2.111111E+05 -1.599490E+05 -6.144728E+04  4.393447E+04  3.625954E+04
       160   2  3.702974E+05 -1.994735E+05 -1.577838E+05 -3.188511E+04  3.056075E+04  3.249798E+04
       160   3  4.927218E+05 -1.694486E+05 -1.422177E+05 -6.903214E+04  1.717836E+04  2.708627E+04
       160   4  1.176770E+06  1.606033E+04  5.453952E+04 -6.647967E+04  4.200603E+04  3.625457E+04
       160   5  1.173315E+06 -1.727423E+03  2.858673E+04 -3.312566E+04  2.750322E+04  3.249461E+04
       160   6  1.176835E+06 -9.456548E+02  1.680320E+04 -6.647477E+04  1.299427E+04  2.708536E+04
       160   7  2.099648E+06  2.431719E+05  2.689708E+05 -7.151963E+04  4.007471E+04  3.624964E+04
       160   8  1.976928E+06  1.959733E+05  2.149140E+05 -3.436782E+04  2.444175E+04  3.249126E+04
       160   9  1.861379E+06  1.675243E+05  1.757926E+05 -6.391451E+04  8.805605E+03  2.708440E+04
       160  10  2.546723E+05 -2.111130E+05 -1.599551E+05 -6.144856E+04 -1.020540E-10 -2.466917E-10
       160  11  3.702961E+05 -1.994749E+05 -1.577875E+05 -3.188591E+04  3.119041E-10 -8.046718E-11
       160  12  4.927213E+05 -1.694494E+05 -1.422196E+05 -6.903252E+04  1.482605E-10  9.984141E-11
       160  13  1.176767E+06  1.605845E+04  5.453373E+04 -6.648089E+04  1.181096E-10 -1.902503E-10
       160  14  1.173314E+06 -1.728760E+03  2.858333E+04 -3.312638E+04 -2.885086E-10 -1.883666E-10
       160  15  1.176834E+06 -9.464883E+02  1.680150E+04 -6.647505E+04 -1.395491E-10 -3.024498E-11
       160  16  2.099646E+06  2.431701E+05  2.689653E+05 -7.152080E+04 -2.801807E-10 -1.727828E-10
       160  17  1.976927E+06  1.959720E+05  2.149109E+05 -3.436846E+04 -3.991396E-10 -3.577371E-10
       160  18  1.861378E+06  1.675235E+05  1.757911E+05 -6.391470E+04 -5.150416E-10 -7.206947E-11
       160  19  2.546747E+05 -2.111111E+05 -1.599490E+05 -6.144728E+04 -4.393447E+04 -3.625954E+04
       160  20  3.702974E+05 -1.994735E+05 -1.577838E+05 -3.188511E+04 -3.056075E+04 -3.249798E+04
       160  21  4.927218E+05 -1.694486E+05 -1.422177E+05 -6.903214E+04 -1.717836E+04 -2.708627E+04
       160  22  1.176770E+06  1.606033E+04  5.453952E+04 -6.647967E+04 -4.200603E+04 -3.625457E+04
       160  23  1.173315E+06 -1.727423E+03  2.858673E+04 -3.312566E+04 -2.750322E+04 -3.249461E+04
       160  24  1.176835E+06 -9.456548E+02  1.680320E+04 -6.647477E+04 -1.299427E+04 -2.708536E+04
       160  25  2.099648E+06  2.431719E+05  2.689708E+05 -7.151963E+04 -4.007471E+04 -3.624964E+04
       160  26  1.976928E+06  1.959733E+05  2.149140E+05 -3.436782E+04 -2.444175E+04 -3.249126E+04
       160  27  1.861379E+06  1.675243E+05  1.757926E+05 -6.391451E+04 -8.805605E+03 -2.708440E+04
       161   1  6.107023E+05 -1.377731E+05 -1.177071E+05 -6.591705E+04  1.400725E+04  2.362522E+04
       161   2  7.273108E+05 -1.104095E+05 -9.654473E+04 -3.329119E+04  1.040072E+04  1.816669E+04
       161   3  8.448408E+05 -8.146419E+04 -7.263205E+04 -6.631352E+04  6.789427E+03  1.264216E+04
       161   4  1.175525E+06  1.228390E+03  1.302237E+04 -6.624047E+04  1.036343E+04  2.362525E+04
       161   5  1.175081E+06 -1.731821E+02  7.330563E+03 -3.341820E+04  6.709177E+03  1.816797E+04
       161   6  1.175555E+06  1.560387E+01  4.421098E+03 -6.624119E+04  3.050825E+03  1.264475E+04
       161   7  1.740642E+06  1.402075E+05  1.437306E+05 -6.656414E+04  6.716320E+03  2.362528E+04
       161   8  1.623036E+06  1.100490E+05  1.111925E+05 -3.354528E+04  3.014990E+03  1.816925E+04
       161   9  1.506369E+06  8.148769E+04  8.146691E+04 -6.616880E+04 -6.897534E+02  1.264735E+04
       161  10  6.107019E+05 -1.377737E+05 -1.177085E+05 -6.591732E+04  2.767038E-10  2.200233E-10
       161  11  7.273106E+05 -1.104099E+05 -9.654555E+04 -3.329134E+04  1.067794E-10  2.813658E-10
       161  12  8.448407E+05 -8.146438E+04 -7.263244E+04 -6.631359E+04  1.799382E-10 -1.837934E-10
       161  13  1.175525E+06  1.227762E+03  1.302112E+04 -6.624067E+04 -6.434036E-10  2.644544E-10
       161  14  1.175081E+06 -1.735488E+02  7.329858E+03 -3.341830E+04 -4.018303E-10  3.879993E-10
       161  15  1.175555E+06  1.542958E+01  4.420780E+03 -6.624122E+04  3.083847E-11 -6.661020E-11
       161  16  1.740642E+06  1.402069E+05  1.437294E+05 -6.656427E+04 -3.091004E-10  2.722362E-10
       161  17  1.623036E+06  1.100487E+05  1.111918E+05 -3.354532E+04  4.631323E-10  2.152158E-10
       161  18  1.506369E+06  8.148752E+04  8.146661E+04 -6.616879E+04 -1.666455E-10 -1.475414E-10
       161  19  6.107023E+05 -1.377731E+05 -1.177071E+05 -6.591705E+04 -1.400725E+04 -2.362522E+04
       161  20  7.273108E+05 -1.104095E+05 -9.654473E+04 -3.329119E+04 -1.040072E+04 -1.816669E+04
       161  21  8.448408E+05 -8.146419E+04 -7.263205E+04 -6.631352E+04 -6.789427E+03 -1.264216E+04
       161  22  1.175525E+06  1.228390E+03  1.302237E+04 -6.624047E+04 -1.036343E+04 -2.362525E+04
       161  23  1.175081E+06 -1.731821E+02  7.330563E+03 -3.341820E+04 -6.709177E+03 -1.816797E+04
       161  24  1.175555E+06  1.560387E+01  4.421098E+03 -6.624119E+04 -3.050825E+03 -1.264475E+04
       161  25  1.740642E+06  1.402075E+05  1.437306E+05 -6.656414E+04 -6.716320E+03 -2.362528E+04
       161  26  1.623036E+06  1.100490E+05  1.111925E+05 -3.354528E+04 -3.014990E+03 -1.816925E+04
       161  27  1.506369E+06  8.148769E+04  8.146691E+04 -6.616880E+04  6.897534E+02 -1.264735E+04
       162   1  9.625610E+05 -5.214684E+04 -4.551091E+04 -6.605099E+04  6.036677E+03  9.419961E+03
       162   2  1.078752E+06 -2.374651E+04 -2.001242E+04 -3.351512E+04  4.849104E+03  3.916166E+03
       162   3  1.195040E+06  4.879483E+03  6.284988E+03 -6.615504E+04  3.660406E+03 -1.587128E+03
       162   4  1.175385E+06  1.717420E+02  3.508646E+03 -6.613648E+04  2.333226E+03  9.423027E+03
       162   5  1.175347E+06  2.904691E+01  2.390878E+03 -3.354894E+04  1.145315E+03  3.919478E+03
       162   6  1.175392E+06  1.124243E+02  2.072180E+03 -6.613657E+04 -4.350403E+01 -1.583520E+03
       162   7  1.388251E+06  5.248717E+04  5.252525E+04 -6.622199E+04 -1.371484E+03  9.426094E+03
       162   8  1.271951E+06  2.380395E+04  2.479360E+04 -3.358276E+04 -2.559046E+03  3.922790E+03
       162   9  1.155743E+06 -4.654652E+03 -2.140599E+03 -6.611809E+04 -3.747298E+03 -1.579912E+03
       162  10  9.625610E+05 -5.214695E+04 -4.551115E+04 -6.605104E+04 -5.247206E-10 -9.558612E-11
       162  11  1.078752E+06 -2.374653E+04 -2.001249E+04 -3.351513E+04  1.961215E-10  1.418507E-10
       162  12  1.195040E+06  4.879477E+03  6.284958E+03 -6.615504E+04  1.953865E-09 -4.326350E-10
       162  13  1.175385E+06  1.716451E+02  3.508469E+03 -6.613650E+04 -6.751916E-10 -1.422245E-10
       162  14  1.175347E+06  2.903006E+01  2.390846E+03 -3.354894E+04 -1.078965E-09  3.564566E-10
       162  15  1.175392E+06  1.124216E+02  2.072175E+03 -6.613657E+04  3.421044E-10 -3.366933E-10
       162  16  1.388251E+06  5.248707E+04  5.252508E+04 -6.622198E+04 -3.082589E-10 -1.459334E-10
       162  17  1.271950E+06  2.380393E+04  2.479356E+04 -3.358275E+04  7.386784E-10 -4.790976E-11
       162  18  1.155743E+06 -4.654659E+03 -2.140630E+03 -6.611809E+04 -1.577051E-09 -4.774089E-10
       162  19  9.625610E+05 -5.214684E+04 -4.551091E+04 -6.605099E+04 -6.036677E+03 -9.419961E+03
       162  20  1.078752E+06 -2.374651E+04 -2.001242E+04 -3.351512E+04 -4.849104E+03 -3.916166E+03
       162  21  1.195040E+06  4.879483E+03  6.284988E+03 -6.615504E+04 -3.660406E+03  1.587128E+03
       162  22  1.175385E+06  1.717420E+02  3.508646E+03 -6.613648E+04 -2.333226E+03 -9.423027E+03
       162  23  1.175347E+06  2.904691E+01  2.390878E+03 -3.354894E+04 -1.145315E+03 -3.919478E+03
       162  24  1.175392E+06  1.124243E+02  2.072180E+03 -6.613657E+04  4.350403E+01  1.583520E+03
       162  25  1.388251E+06  5.248717E+04  5.252525E+04 -6.622199E+04  1.371484E+03 -9.426094E+03
       162  26  1.271951E+06  2.380395E+04  2.479360E+04 -3.358276E+04  2.559046E+03 -3.922790E+03
       162  27  1.155743E+06 -4.654652E+03 -2.140599E+03 -6.611809E+04  3.747298E+03  1.579912E+03
       163   1  1.312672E+06  3.396144E+04  3.432870E+04 -6.623965E+04  3.276360E+03 -4.790522E+03
       163   2  1.429096E+06  6.245696E+04  6.166525E+04 -3.360803E+04  1.880662E+03 -1.030033E+04
       163   3  1.545699E+06  9.120566E+04  8.995179E+04 -6.628770E+04  4.870471E+02 -1.581846E+04
       163   4  1.175406E+06  1.114248E+02  2.154330E+03 -6.616718E+04 -4.303493E+02 -4.787055E+03
       163   5  1.175314E+06  5.305216E+00  2.818285E+03 -3.351066E+04 -1.831478E+03 -1.029760E+04
       163   6  1.175390E+06  1.542943E+02  4.436983E+03 -6.616709E+04 -3.230267E+03 -1.581641E+04
       163   7  1.038157E+06 -3.373992E+04 -3.002127E+04 -6.609472E+04 -4.136246E+03 -4.783589E+03
       163   8  9.215915E+05 -6.245087E+04 -5.603295E+04 -3.341333E+04 -5.542114E+03 -1.029487E+04
       163   9  8.052076E+05 -9.090666E+04 -8.108690E+04 -6.604653E+04 -6.945384E+03 -1.581436E+04
       163  10  1.312672E+06  3.396141E+04  3.432863E+04 -6.623964E+04 -9.229511E-10 -2.847590E-10
       163  11  1.429096E+06  6.245685E+04  6.166504E+04 -3.360801E+04 -3.302293E-10  3.311429E-10
       163  12  1.545698E+06  9.120539E+04  8.995132E+04 -6.628770E+04 -4.892915E-10 -5.975487E-11
       163  13  1.175406E+06  1.114001E+02  2.154286E+03 -6.616718E+04  7.300942E-10 -2.057318E-10
       163  14  1.175314E+06  5.190384E+00  2.818079E+03 -3.351068E+04 -7.849339E-10  2.397674E-10
       163  15  1.175390E+06  1.540227E+02  4.436493E+03 -6.616713E+04 -4.296282E-10  3.571401E-10
       163  16  1.038157E+06 -3.373995E+04 -3.002135E+04 -6.609473E+04 -3.470947E-10 -5.012586E-10
       163  17  9.215915E+05 -6.245099E+04 -5.603320E+04 -3.341337E+04 -8.921866E-10  4.414861E-10
       163  18  8.052075E+05 -9.090695E+04 -8.108746E+04 -6.604661E+04  1.819283E-10  2.296428E-10
       163  19  1.312672E+06  3.396144E+04  3.432870E+04 -6.623965E+04 -3.276360E+03  4.790522E+03
       163  20  1.429096E+06  6.245696E+04  6.166525E+04 -3.360803E+04 -1.880662E+03  1.030033E+04
       163  21  1.545699E+06  9.120566E+04  8.995179E+04 -6.628770E+04 -4.870471E+02  1.581846E+04
       163  22  1.175406E+06  1.114248E+02  2.154330E+03 -6.616718E+04  4.303493E+02  4.787055E+03
       163  23  1.175314E+06  5.305216E+00  2.818285E+03 -3.351066E+04  1.831478E+03  1.029760E+04
       163  24  1.175390E+06  1.542943E+02  4.436983E+03 -6.616709E+04  3.230267E+03  1.581641E+04
       163  25  1.038157E+06 -3.373992E+04 -3.002127E+04 -6.609472E+04  4.136246E+03  4.783589E+03
       163  26  9.215915E+05 -6.245087E+04 -5.603295E+04 -3.341333E+04  5.542114E+03  1.029487E+04
       163  27  8.052076E+05 -9.090666E+04 -8.108690E+04 -6.604653E+04  6.945384E+03  1.581436E+04
       164   1  1.664397E+06  1.202803E+05  1.193506E+05 -6.619231E+04 -3.837925E+02 -1.905458E+04
       164   2  1.781610E+06  1.489810E+05  1.502304E+05 -3.334481E+04 -5.214424E+03 -2.460655E+04
       164   3  1.900171E+06  1.797422E+05  1.848017E+05 -6.656595E+04 -1.004026E+04 -3.009054E+04
       164   4  1.175623E+06 -4.979848E+01  5.689660E+03 -6.633607E+04 -4.144893E+03 -1.905329E+04
       164   5  1.174937E+06 -2.802265E+02  9.582839E+03 -3.329956E+04 -8.925819E+03 -2.460703E+04
       164   6  1.175582E+06  1.544118E+03  1.713694E+04 -6.633563E+04 -1.370105E+04 -3.009270E+04
       164   7  6.870684E+05 -1.203967E+05 -1.079873E+05 -6.647967E+04 -7.903058E+03 -1.905200E+04
       164   8  5.686038E+05 -1.495673E+05 -1.310894E+05 -3.325432E+04 -1.263362E+04 -2.460751E+04
       164   9  4.514775E+05 -1.766908E+05 -1.505628E+05 -6.610555E+04 -1.735761E+04 -3.009487E+04
       164  10  1.664397E+06  1.202799E+05  1.193499E+05 -6.619232E+04  2.377626E-10 -2.159745E-10
       164  11  1.781609E+06  1.489803E+05  1.502292E+05 -3.334492E+04  5.899494E-10 -2.110408E-10
       164  12  1.900171E+06  1.797412E+05  1.847998E+05 -6.656619E+04 -1.509831E-10 -1.179885E-10
       164  13  1.175623E+06 -5.019313E+01  5.688945E+03 -6.633613E+04 -5.144151E-10 -1.287173E-10
       164  14  1.174937E+06 -2.808984E+02  9.581551E+03 -3.329974E+04 -5.081378E-10 -2.477826E-10
       164  15  1.175582E+06  1.543094E+03  1.713488E+04 -6.633596E+04 -2.346959E-10  9.182812E-12
       164  16  6.870682E+05 -1.203971E+05 -1.079881E+05 -6.647979E+04 -7.051496E-10  1.100396E-10
       164  17  5.686035E+05 -1.495680E+05 -1.310908E+05 -3.325457E+04 -1.046034E-10 -4.011902E-10
       164  18  4.514770E+05 -1.766919E+05 -1.505651E+05 -6.610597E+04 -1.649950E-10  1.872513E-10
       164  19  1.664397E+06  1.202803E+05  1.193506E+05 -6.619231E+04  3.837925E+02  1.905458E+04
       164  20  1.781610E+06  1.489810E+05  1.502304E+05 -3.334481E+04  5.214424E+03  2.460655E+04
       164  21  1.900171E+06  1.797422E+05  1.848017E+05 -6.656595E+04  1.004026E+04  3.009054E+04
       164  22  1.175623E+06 -4.979848E+01  5.689660E+03 -6.633607E+04  4.144893E+03  1.905329E+04
       164  23  1.174937E+06 -2.802265E+02  9.582839E+03 -3.329956E+04  8.925819E+03  2.460703E+04
       164  24  1.175582E+06  1.544118E+03  1.713694E+04 -6.633563E+04  1.370105E+04  3.009270E+04
       164  25  6.870684E+05 -1.203967E+05 -1.079873E+05 -6.647967E+04  7.903058E+03  1.905200E+04
       164  26  5.686038E+05 -1.495673E+05 -1.310894E+05 -3.325432E+04  1.263362E+04  2.460751E+04
       164  27  4.514775E+05 -1.766908E+05 -1.505628E+05 -6.610555E+04  1.735761E+04  3.009487E+04
       165   1  2.022349E+06  2.066117E+05  2.183095E+05 -6.298771E+04 -1.289181E+04 -3.360472E+04
       165   2  2.137984E+06  2.351459E+05  2.615041E+05 -3.425318E+04 -3.329368E+04 -3.905086E+04
       165   3  2.263145E+06  2.883401E+05  3.242615E+05 -7.290699E+04 -5.369335E+04 -4.264985E+04
       165   4  1.177309E+06 -1.325310E+03  2.213694E+04 -6.662471E+04 -1.716355E+04 -3.360835E+04
       165   5  1.172616E+06 -2.323706E+03  3.769829E+04 -3.293655E+04 -3.629434E+04 -3.905690E+04
       165   6  1.177229E+06  2.114042E+04  7.196380E+04 -6.664220E+04 -5.541901E+04 -4.265728E+04
       165   7  3.329272E+05 -2.093125E+05 -1.740835E+05 -7.025674E+04 -2.142952E+04 -3.361194E+04
       165   8  2.081059E+05 -2.398588E+05 -1.861700E+05 -3.162209E+04 -3.929035E+04 -3.906296E+04
       165   9  9.239852E+04 -2.461421E+05 -1.804131E+05 -6.038863E+04 -5.714162E+04 -4.266475E+04
       165  10  2.022348E+06  2.066105E+05  2.183071E+05 -6.298805E+04 -5.099880E-10  5.742808E-11
       165  11  2.137982E+06  2.351440E+05  2.614992E+05 -3.425423E+04  2.651208E-10  3.981474E-10
       165  12  2.263141E+06  2.883374E+05  3.242526E+05 -7.290883E+04 -2.547905E-11  2.511373E-10
       165  13  1.177309E+06 -1.326603E+03  2.213426E+04 -6.662518E+04 -5.563331E-10 -6.674326E-11
       165  14  1.172614E+06 -2.325698E+03  3.769295E+04 -3.293769E+04 -2.877262E-11 -7.988032E-11
       165  15  1.177225E+06  2.113764E+04  7.195462E+04 -6.664410E+04  4.021736E-10 -7.437807E-11
       165  16  3.329264E+05 -2.093138E+05 -1.740865E+05 -7.025732E+04  2.462159E-10  1.477120E-10
       165  17  2.081038E+05 -2.398608E+05 -1.861758E+05 -3.162332E+04  5.160783E-10 -4.695958E-10
       165  18  9.239452E+04 -2.461449E+05 -1.804227E+05 -6.039060E+04 -3.067554E-10  1.149078E-11
       165  19  2.022349E+06  2.066117E+05  2.183095E+05 -6.298771E+04  1.289181E+04  3.360472E+04
       165  20  2.137984E+06  2.351459E+05  2.615041E+05 -3.425318E+04  3.329368E+04  3.905086E+04
       165  21  2.263145E+06  2.883401E+05  3.242615E+05 -7.290699E+04  5.369335E+04  4.264985E+04
       165  22  1.177309E+06 -1.325310E+03  2.213694E+04 -6.662471E+04  1.716355E+04  3.360835E+04
       165  23  1.172616E+06 -2.323706E+03  3.769829E+04 -3.293655E+04  3.629434E+04  3.905690E+04
       165  24  1.177229E+06  2.114042E+04  7.196380E+04 -6.664220E+04  5.541901E+04  4.265728E+04
       165  25  3.329272E+05 -2.093125E+05 -1.740835E+05 -7.025674E+04  2.142952E+04  3.361194E+04
       165  26  2.081059E+05 -2.398588E+05 -1.861700E+05 -3.162209E+04  3.929035E+04  3.906296E+04
       165  27  9.239852E+04 -2.461421E+05 -1.804131E+05 -6.038863E+04  5.714162E+04  4.266475E+04
       166   1  2.403944E+06  2.825153E+05  3.689065E+05 -2.663408E+04 -5.586047E+04 -5.047753E+04
       166   2  2.483544E+06  3.044102E+05  4.560990E+05 -6.335992E+04 -1.585741E+05 -5.193318E+04
       166   3  2.653080E+06  6.272252E+05  6.855102E+05 -1.688859E+05 -2.614000E+05 -1.749133E+04
       166   4  1.194209E+06 -1.502168E+04  8.913277E+04 -6.677051E+04 -6.874707E+04 -5.049760E+04
       166   5  1.151149E+06 -2.332826E+04  1.463325E+05 -3.268520E+04 -1.471243E+05 -5.192691E+04
       166   6  1.193978E+06  2.653993E+05  3.290763E+05 -6.738910E+04 -2.255891E+05 -1.744789E+04
       166   7 -1.417400E+04 -3.126553E+05 -1.907373E+05 -1.068288E+05 -8.160873E+04 -5.051602E+04
       166   8 -1.796112E+05 -3.511879E+05 -1.635524E+05 -2.077289E+03 -1.356986E+05 -5.191951E+04
       166   9 -2.631656E+05 -9.654337E+04 -2.750205E+04  3.386846E+04 -1.898614E+05 -1.739276E+04
       166  10  2.403940E+06  2.825118E+05  3.688959E+05 -2.663635E+04  6.292800E-10  6.207014E-10
       166  11  2.483517E+06  3.044006E+05  4.560468E+05 -6.336655E+04  6.999210E-10  3.254275E-10
       166  12  2.653007E+06  6.272066E+05  6.853818E+05 -1.688896E+05  3.172998E-10 -3.125482E-10
       166  13  1.194203E+06 -1.502569E+04  8.911911E+04 -6.677330E+04 -1.526016E-10  2.425665E-10
       166  14  1.151125E+06 -2.333695E+04  1.462868E+05 -3.269135E+04  5.058585E-10 -1.515920E-10
       166  15  1.193923E+06  2.653853E+05  3.289803E+05 -6.739227E+04  6.837376E-11  8.779203E-11
       166  16 -1.418184E+04 -3.126598E+05 -1.907546E+05 -1.068321E+05 -6.165178E-10  8.069313E-11
       166  17 -1.796317E+05 -3.511958E+05 -1.635921E+05 -2.082965E+03 -2.758079E-09  6.916489E-10
       166  18 -2.632044E+05 -9.655337E+04 -2.757038E+04  3.386580E+04 -8.797999E-10 -5.719322E-11
       166  19  2.403944E+06  2.825153E+05  3.689065E+05 -2.663408E+04  5.586047E+04  5.047753E+04
       166  20  2.483544E+06  3.044102E+05  4.560990E+05 -6.335992E+04  1.585741E+05  5.193318E+04
       166  21  2.653080E+06  6.272252E+05  6.855102E+05 -1.688859E+05  2.614000E+05  1.749133E+04
       166  22  1.194209E+06 -1.502168E+04  8.913277E+04 -6.677051E+04  6.874707E+04  5.049760E+04
       166  23  1.151149E+06 -2.332826E+04  1.463325E+05 -3.268520E+04  1.471243E+05  5.192691E+04
       166  24  1.193978E+06  2.653993E+05  3.290763E+05 -6.738910E+04  2.255891E+05  1.744789E+04
       166  25 -1.417400E+04 -3.126553E+05 -1.907373E+05 -1.068288E+05  8.160873E+04  5.051602E+04
       166  26 -1.796112E+05 -3.511879E+05 -1.635524E+05 -2.077289E+03  1.356986E+05  5.191951E+04
       166  27 -2.631656E+05 -9.654337E+04 -2.750205E+04  3.386846E+04  1.898614E+05  1.739276E+04
       167   1  1.087386E+05  5.269723E+05  1.213071E+05 -8.273052E+04  1.621857E+03  5.080775E+04
       167   2  2.027146E+04  4.111223E+05  5.530122E+04 -3.767155E+04  3.640487E+03  2.973169E+04
       167   3 -3.982258E+03  3.137616E+05  1.899884E+04 -5.210622E+04 -5.215068E+02  8.645534E+03
       167   4  5.674890E+04  3.187883E+05  7.002255E+04 -6.025553E+04  1.631162E+03  4.739639E+04
       167   5 -4.735072E+03  3.099125E+05  3.162348E+04 -3.057393E+04  3.639205E+03  3.048109E+04
       167   6 -2.719902E+03  3.188021E+05  2.004810E+04 -6.038394E+04 -5.327960E+02  1.355211E+04
       167   7  4.757832E+03  1.106447E+05  1.873516E+04 -3.778807E+04  1.640221E+03  4.398617E+04
       167   8 -2.974215E+04  2.087122E+05  7.945079E+03 -2.347748E+04  3.637940E+03  3.123036E+04
       167   9 -1.457277E+03  3.238428E+05  2.109749E+04 -6.866173E+04 -5.442158E+02  1.845872E+04
       167  10  1.087379E+05  5.269695E+05  1.213022E+05 -8.273058E+04  9.643057E-10  1.216820E-09
       167  11  2.027121E+04  4.111214E+05  5.529953E+04 -3.767163E+04  3.725415E-10  7.134246E-11
       167  12 -3.982279E+03  3.137615E+05  1.899869E+04 -5.210621E+04  2.617041E-10 -1.722298E-09
       167  13  5.674830E+04  3.187858E+05  7.001833E+04 -6.025560E+04  1.692544E-09  4.732337E-11
       167  14 -4.735335E+03  3.099115E+05  3.162171E+04 -3.057402E+04  1.244503E-09  1.358071E-10
       167  15 -2.719951E+03  3.188019E+05  2.004776E+04 -6.038393E+04  8.867196E-10  4.716048E-11
       167  16  4.757310E+03  1.106426E+05  1.873152E+04 -3.778813E+04  5.695961E-10 -1.220456E-09
       167  17 -2.974242E+04  2.087111E+05  7.943222E+03 -2.347757E+04  1.808257E-09  2.829571E-11
       167  18 -1.457368E+03  3.238424E+05  2.109685E+04 -6.866172E+04  3.202734E-11  1.693096E-09
       167  19  1.087386E+05  5.269723E+05  1.213071E+05 -8.273052E+04 -1.621857E+03 -5.080775E+04
       167  20  2.027146E+04  4.111223E+05  5.530122E+04 -3.767155E+04 -3.640487E+03 -2.973169E+04
       167  21 -3.982258E+03  3.137616E+05  1.899884E+04 -5.210622E+04  5.215068E+02 -8.645534E+03
       167  22  5.674890E+04  3.187883E+05  7.002255E+04 -6.025553E+04 -1.631162E+03 -4.739639E+04
       167  23 -4.735072E+03  3.099125E+05  3.162348E+04 -3.057393E+04 -3.639205E+03 -3.048109E+04
       167  24 -2.719902E+03  3.188021E+05  2.004810E+04 -6.038394E+04  5.327960E+02 -1.355211E+04
       167  25  4.757832E+03  1.106447E+05  1.873516E+04 -3.778807E+04 -1.640221E+03 -4.398617E+04
       167  26 -2.974215E+04  2.087122E+05  7.945079E+03 -2.347748E+04 -3.637940E+03 -3.123036E+04
       167  27 -1.457277E+03  3.238428E+05  2.109749E+04 -6.866173E+04  5.442158E+02 -1.845872E+04
       168   1 -2.313700E+04  2.022102E+05 -9.599334E+03 -6.198757E+04 -4.337516E+03  7.226103E+03
       168   2 -5.462616E+04  9.447037E+04 -4.038971E+04 -3.041631E+04 -8.896518E+03  2.184463E+03
       168   3 -7.891799E+04 -1.108156E+04 -6.616289E+04 -5.862782E+04 -1.290504E+04 -2.853500E+03
       168   4  4.751712E+03  3.153473E+05  1.678452E+04 -6.040532E+04 -4.344812E+03  1.048477E+04
       168   5 -4.788553E+02  3.142211E+05  1.064553E+04 -3.051825E+04 -8.902477E+03  5.071956E+03
       168   6  1.551965E+03  3.153363E+05  9.781603E+03 -6.041236E+04 -1.290976E+04 -3.380240E+02
       168   7  3.263954E+04  4.284963E+05  4.316754E+04 -5.882277E+04 -4.352092E+03  1.374403E+04
       168   8  5.366505E+04  5.340163E+05  6.167755E+04 -3.062020E+04 -8.908435E+03  7.960464E+03
       168   9  8.201441E+04  6.418525E+05  8.571893E+04 -6.219779E+04 -1.291449E+04  2.178766E+03
       168  10 -2.313704E+04  2.022102E+05 -9.599467E+03 -6.198755E+04 -7.657824E-10 -5.193758E-11
       168  11 -5.462625E+04  9.447034E+04 -4.038986E+04 -3.041630E+04 -7.297748E-10 -3.556846E-10
       168  12 -7.891817E+04 -1.108162E+04 -6.616322E+04 -5.862785E+04 -6.987696E-11 -7.905047E-10
       168  13  4.751662E+03  3.153472E+05  1.678427E+04 -6.040528E+04 -4.985128E-10  7.468057E-11
       168  14 -4.789473E+02  3.142210E+05  1.064533E+04 -3.051821E+04  2.832848E-10  1.412972E-10
       168  15  1.551786E+03  3.153362E+05  9.781290E+03 -6.041236E+04 -9.628281E-10  1.138396E-10
       168  16  3.263947E+04  4.284961E+05  4.316715E+04 -5.882272E+04 -7.726685E-10  1.301118E-10
       168  17  5.366495E+04  5.340162E+05  6.167728E+04 -3.062014E+04 -1.487150E-09  5.091773E-10
       168  18  8.201423E+04  6.418524E+05  8.571861E+04 -6.219776E+04 -1.072992E-09  8.983446E-10
       168  19 -2.313700E+04  2.022102E+05 -9.599334E+03 -6.198757E+04  4.337516E+03 -7.226103E+03
       168  20 -5.462616E+04  9.447037E+04 -4.038971E+04 -3.041631E+04  8.896518E+03 -2.184463E+03
       168  21 -7.891799E+04 -1.108156E+04 -6.616289E+04 -5.862782E+04  1.290504E+04  2.853500E+03
       168  22  4.751712E+03  3.153473E+05  1.678452E+04 -6.040532E+04  4.344812E+03 -1.048477E+04
       168  23 -4.788553E+02  3.142211E+05  1.064553E+04 -3.051825E+04  8.902477E+03 -5.071956E+03
       168  24  1.551965E+03  3.153363E+05  9.781603E+03 -6.041236E+04  1.290976E+04  3.380240E+02
       168  25  3.263954E+04  4.284963E+05  4.316754E+04 -5.882277E+04  4.352092E+03 -1.374403E+04
       168  26  5.366505E+04  5.340163E+05  6.167755E+04 -3.062020E+04  8.908435E+03 -7.960464E+03
       168  27  8.201441E+04  6.418525E+05  8.571893E+04 -6.219779E+04  1.291449E+04 -2.178766E+03
       169   1 -1.076194E+05 -1.185201E+05 -9.088448E+04 -6.262383E+04 -1.794135E+04 -9.588158E+03
       169   2 -1.351033E+05 -2.278878E+05 -1.137376E+05 -2.749083E+04 -2.087667E+04 -4.944814E+03
       169   3 -1.418119E+05 -3.327069E+05 -1.344332E+05 -5.177412E+04 -7.133631E+03 -2.766351E+02
       169   4 -5.190021E+02  3.162573E+05  9.939436E+03 -6.033896E+04 -1.795539E+04 -2.020654E+03
       169   5 -1.699236E+03  3.130028E+05  1.234644E+04 -3.061692E+04 -2.086923E+04 -8.585798E+03
       169   6  1.983203E+04  3.162253E+05  2.468980E+04 -6.030711E+04 -7.111241E+03 -1.512522E+04
       169   7  1.065682E+05  7.512094E+05  1.107509E+05 -5.805239E+04 -1.796937E+04  5.552112E+03
       169   8  1.316842E+05  8.541634E+05  1.384108E+05 -3.374563E+04 -2.086176E+04 -1.222993E+04
       169   9  1.814451E+05  9.655416E+05  1.837828E+05 -6.884889E+04 -7.088454E+03 -2.998929E+04
       169  10 -1.076198E+05 -1.185203E+05 -9.088525E+04 -6.262397E+04 -5.535725E-10  3.869991E-10
       169  11 -1.351038E+05 -2.278880E+05 -1.137385E+05 -2.749092E+04  8.748397E-10  2.861145E-10
       169  12 -1.418119E+05 -3.327069E+05 -1.344333E+05 -5.177412E+04 -1.538658E-11 -2.041317E-10
       169  13 -5.193494E+02  3.162572E+05  9.938822E+03 -6.033899E+04  5.178339E-10  9.243208E-12
       169  14 -1.699723E+03  3.130026E+05  1.234548E+04 -3.061707E+04  7.143283E-10  8.442231E-11
       169  15  1.983192E+04  3.162250E+05  2.468928E+04 -6.030720E+04 -7.542623E-11  2.840620E-11
       169  16  1.065678E+05  7.512093E+05  1.107502E+05 -5.805231E+04 -1.557372E-09 -2.083423E-10
       169  17  1.316837E+05  8.541631E+05  1.384097E+05 -3.374584E+04  5.204519E-10 -3.858507E-10
       169  18  1.814448E+05  9.655406E+05  1.837810E+05 -6.884906E+04  6.047274E-10  9.734855E-11
       169  19 -1.076194E+05 -1.185201E+05 -9.088448E+04 -6.262383E+04  1.794135E+04  9.588158E+03
       169  20 -1.351033E+05 -2.278878E+05 -1.137376E+05 -2.749083E+04  2.087667E+04  4.944814E+03
       169  21 -1.418119E+05 -3.327069E+05 -1.344332E+05 -5.177412E+04  7.133631E+03  2.766351E+02
       169  22 -5.190021E+02  3.162573E+05  9.939436E+03 -6.033896E+04  1.795539E+04  2.020654E+03
       169  23 -1.699236E+03  3.130028E+05  1.234644E+04 -3.061692E+04  2.086923E+04  8.585798E+03
       169  24  1.983203E+04  3.162253E+05  2.468980E+04 -6.030711E+04  7.111241E+03  1.512522E+04
       169  25  1.065682E+05  7.512094E+05  1.107509E+05 -5.805239E+04  1.796937E+04 -5.552112E+03
       169  26  1.316842E+05  8.541634E+05  1.384108E+05 -3.374563E+04  2.086176E+04  1.222993E+04
       169  27  1.814451E+05  9.655416E+05  1.837828E+05 -6.884889E+04  7.088454E+03  2.998929E+04
       170   1 -1.779027E+06 -6.745892E+05 -4.460278E+05 -6.274684E+05 -1.903633E+05 -6.250615E+04
       170   2 -1.719723E+06 -3.950416E+05 -2.703870E+05 -6.308542E+05 -1.239559E+05 -1.826316E+04
       170   3 -1.738273E+06 -3.644685E+05 -2.121094E+05 -5.958822E+05 -5.103707E+04  8.739097E+03
       170   4 -1.181082E+06 -3.746675E+05 -2.698118E+05 -3.885407E+05 -1.745119E+05 -5.655579E+04
       170   5 -1.128860E+06 -1.504313E+05 -1.142138E+05 -4.457095E+05 -1.188751E+05 -1.635593E+04
       170   6 -1.152269E+06 -1.729077E+05 -6.734493E+04 -4.645478E+05 -5.673216E+04  6.595658E+03
       170   7 -5.827787E+05 -7.463683E+04 -9.363021E+04 -1.493787E+05 -1.586438E+05 -5.059436E+04
       170   8 -5.376545E+05  9.422230E+04  4.192900E+04 -2.603977E+05 -1.137890E+05 -1.444621E+04
       170   9 -5.659268E+05  1.865692E+04  7.739440E+04 -3.331095E+05 -6.243315E+04  4.450653E+03
       170  10 -1.779067E+06 -6.746032E+05 -4.461035E+05 -6.274780E+05  1.285579E-10  1.924356E-11
       170  11 -1.719740E+06 -3.950461E+05 -2.704166E+05 -6.308560E+05 -1.108690E-09  3.700713E-11
       170  12 -1.738276E+06 -3.644693E+05 -2.121144E+05 -5.958819E+05 -4.079161E-10 -2.808735E-10
       170  13 -1.181115E+06 -3.746791E+05 -2.698751E+05 -3.885486E+05  4.437093E-11 -8.628439E-11
       170  14 -1.128875E+06 -1.504354E+05 -1.142409E+05 -4.457111E+05  2.778627E-09 -1.686668E-10
       170  15 -1.152272E+06 -1.729086E+05 -6.735107E+04 -4.645475E+05  1.287545E-09  1.075411E-10
       170  16 -5.828065E+05 -7.464634E+04 -9.368237E+04 -1.493851E+05  6.044117E-10 -1.819097E-10
       170  17 -5.376684E+05  9.421860E+04  4.190425E+04 -2.603990E+05  1.747694E-09  1.141214E-11
       170  18 -5.659310E+05  1.865585E+04  7.738703E+04 -3.331093E+05  3.870797E-10  6.186795E-10
       170  19 -1.779027E+06 -6.745892E+05 -4.460278E+05 -6.274684E+05  1.903633E+05  6.250615E+04
       170  20 -1.719723E+06 -3.950416E+05 -2.703870E+05 -6.308542E+05  1.239559E+05  1.826316E+04
       170  21 -1.738273E+06 -3.644685E+05 -2.121094E+05 -5.958822E+05  5.103707E+04 -8.739097E+03
       170  22 -1.181082E+06 -3.746675E+05 -2.698118E+05 -3.885407E+05  1.745119E+05  5.655579E+04
       170  23 -1.128860E+06 -1.504313E+05 -1.142138E+05 -4.457095E+05  1.188751E+05  1.635593E+04
       170  24 -1.152269E+06 -1.729077E+05 -6.734493E+04 -4.645478E+05  5.673216E+04 -6.595658E+03
       170  25 -5.827787E+05 -7.463683E+04 -9.363021E+04 -1.493787E+05  1.586438E+05  5.059436E+04
       170  26 -5.376545E+05  9.422230E+04  4.192900E+04 -2.603977E+05  1.137890E+05  1.444621E+04
       170  27 -5.659268E+05  1.865692E+04  7.739440E+04 -3.331095E+05  6.243315E+04 -4.450653E+03
       171   1 -1.657121E+06 -3.969849E+05 -1.875275E+05 -5.963987E+05 -4.584177E+04  6.707577E+03
       171   2 -1.619060E+06 -3.482289E+05 -1.481867E+05 -5.751167E+05 -3.097163E+04  1.099584E+04
       171   3 -1.570714E+06 -3.394433E+05 -1.250996E+05 -5.713717E+05 -1.571646E+04  1.425887E+04
       171   4 -1.143318E+06 -1.984875E+05 -5.427270E+04 -4.500080E+05 -4.626131E+04  6.547775E+03
       171   5 -1.147270E+06 -1.697810E+05 -2.685137E+04 -4.445386E+05 -3.202350E+04  1.059897E+04
       171   6 -1.140805E+06 -1.809087E+05 -1.517105E+04 -4.566076E+05 -1.740183E+04  1.362470E+04
       171   7 -6.292599E+05  3.026971E+01  7.895950E+04 -3.035064E+05 -4.668122E+04  6.387828E+03
       171   8 -6.752621E+05  8.682017E+03  9.446563E+04 -3.138702E+05 -3.307624E+04  1.020177E+04
       171   9 -7.107132E+05 -2.236329E+04  9.474284E+04 -3.417718E+05 -1.908849E+04  1.299007E+04
       171  10 -1.657123E+06 -3.969855E+05 -1.875316E+05 -5.963984E+05  8.882592E-10 -1.590205E-10
       171  11 -1.619061E+06 -3.482293E+05 -1.481888E+05 -5.751164E+05 -2.956942E-10  1.740738E-10
       171  12 -1.570715E+06 -3.394435E+05 -1.251004E+05 -5.713715E+05  1.454828E-09  4.957979E-10
       171  13 -1.143321E+06 -1.984881E+05 -5.427681E+04 -4.500077E+05  9.069698E-10 -3.091654E-11
       171  14 -1.147271E+06 -1.697814E+05 -2.685351E+04 -4.445383E+05  4.424654E-10 -1.283827E-10
       171  15 -1.140805E+06 -1.809089E+05 -1.517196E+04 -4.566074E+05  3.048976E-09  7.027238E-10
       171  16 -6.292622E+05  2.964048E+01  7.895532E+04 -3.035062E+05 -1.550534E-10  1.386673E-10
       171  17 -6.752633E+05  8.681612E+03  9.446338E+04 -3.138699E+05 -9.064179E-10 -6.814248E-10
       171  18 -7.107137E+05 -2.236357E+04  9.474184E+04 -3.417716E+05  3.646708E-09  7.535377E-10
       171  19 -1.657121E+06 -3.969849E+05 -1.875275E+05 -5.963987E+05  4.584177E+04 -6.707577E+03
       171  20 -1.619060E+06 -3.482289E+05 -1.481867E+05 -5.751167E+05  3.097163E+04 -1.099584E+04
       171  21 -1.570714E+06 -3.394433E+05 -1.250996E+05 -5.713717E+05  1.571646E+04 -1.425887E+04
       171  22 -1.143318E+06 -1.984875E+05 -5.427270E+04 -4.500080E+05  4.626131E+04 -6.547775E+03
       171  23 -1.147270E+06 -1.697810E+05 -2.685137E+04 -4.445386E+05  3.202350E+04 -1.059897E+04
       171  24 -1.140805E+06 -1.809087E+05 -1.517105E+04 -4.566076E+05  1.740183E+04 -1.362470E+04
       171  25 -6.292599E+05  3.026971E+01  7.895950E+04 -3.035064E+05  4.668122E+04 -6.387828E+03
       171  26 -6.752621E+05  8.682017E+03  9.446563E+04 -3.138702E+05  3.307624E+04 -1.020177E+04
       171  27 -7.107132E+05 -2.236329E+04  9.474284E+04 -3.417718E+05  1.908849E+04 -1.299007E+04
       172   1 -1.518112E+06 -3.253246E+05 -1.086855E+05 -5.591774E+05 -1.330591E+04  1.349460E+04
       172   2 -1.481284E+06 -2.958364E+05 -9.138123E+04 -5.350131E+05 -9.276052E+03  1.243307E+04
       172   3 -1.425147E+06 -2.884412E+05 -7.690613E+04 -5.337107E+05 -5.217036E+03  1.128993E+04
       172   4 -1.139700E+06 -1.832065E+05 -1.170532E+04 -4.554395E+05 -1.470087E+04  1.296988E+04
       172   5 -1.149246E+06 -1.714042E+05 -6.220551E+03 -4.442922E+05 -1.072024E+04  1.189034E+04
       172   6 -1.139474E+06 -1.816833E+05 -3.524360E+03 -4.560065E+05 -6.710729E+03  1.072914E+04
       172   7 -7.611488E+05 -4.107910E+04  8.526316E+04 -3.516442E+05 -1.609677E+04  1.244480E+04
       172   8 -8.171007E+05 -4.696516E+04  7.893091E+04 -3.535275E+05 -1.216528E+04  1.134730E+04
       172   9 -8.537236E+05 -7.492084E+04  6.985042E+04 -3.782703E+05 -8.205170E+03  1.016807E+04
       172  10 -1.518112E+06 -3.253249E+05 -1.086862E+05 -5.591773E+05  3.132407E-09  1.240965E-09
       172  11 -1.481284E+06 -2.958366E+05 -9.138168E+04 -5.350131E+05  4.327347E-10  2.296399E-10
       172  12 -1.425147E+06 -2.884413E+05 -7.690642E+04 -5.337107E+05 -7.020779E-10 -1.948821E-10
       172  13 -1.139700E+06 -1.832067E+05 -1.170604E+04 -4.554393E+05  3.523634E-09  9.059263E-10
       172  14 -1.149246E+06 -1.714044E+05 -6.221033E+03 -4.442921E+05  7.530699E-10  9.683217E-11
       172  15 -1.139475E+06 -1.816835E+05 -3.524660E+03 -4.560065E+05 -4.215093E-10 -1.529412E-10
       172  16 -7.611491E+05 -4.107934E+04  8.526238E+04 -3.516440E+05  2.624915E-09  6.091667E-10
       172  17 -8.171009E+05 -4.696533E+04  7.893039E+04 -3.535274E+05  1.270574E-10 -6.772464E-11
       172  18 -8.537237E+05 -7.492097E+04  6.985010E+04 -3.782702E+05  9.386825E-12  5.325459E-11
       172  19 -1.518112E+06 -3.253246E+05 -1.086855E+05 -5.591774E+05  1.330591E+04 -1.349460E+04
       172  20 -1.481284E+06 -2.958364E+05 -9.138123E+04 -5.350131E+05  9.276052E+03 -1.243307E+04
       172  21 -1.425147E+06 -2.884412E+05 -7.690613E+04 -5.337107E+05  5.217036E+03 -1.128993E+04
       172  22 -1.139700E+06 -1.832065E+05 -1.170532E+04 -4.554395E+05  1.470087E+04 -1.296988E+04
       172  23 -1.149246E+06 -1.714042E+05 -6.220551E+03 -4.442922E+05  1.072024E+04 -1.189034E+04
       172  24 -1.139474E+06 -1.816833E+05 -3.524360E+03 -4.560065E+05  6.710729E+03 -1.072914E+04
       172  25 -7.611488E+05 -4.107910E+04  8.526316E+04 -3.516442E+05  1.609677E+04 -1.244480E+04
       172  26 -8.171007E+05 -4.696516E+04  7.893091E+04 -3.535275E+05  1.216528E+04 -1.134730E+04
       172  27 -8.537236E+05 -7.492084E+04  6.985042E+04 -3.782703E+05  8.205170E+03 -1.016807E+04
       173   1 -1.373960E+06 -2.698077E+05 -6.273960E+04 -5.200663E+05 -4.193837E+03  1.009650E+04
       173   2 -1.336605E+06 -2.414613E+05 -4.962724E+04 -4.951898E+05 -2.460250E+03  8.040142E+03
       173   3 -1.278663E+06 -2.340178E+05 -3.718072E+04 -4.940491E+05 -7.213198E+02  5.967094E+03
       173   4 -1.139261E+06 -1.819547E+05 -2.733719E+03 -4.559977E+05 -5.679194E+03  9.539097E+03
       173   5 -1.149542E+06 -1.714367E+05 -1.668342E+03 -4.441537E+05 -3.955756E+03  7.479211E+03
       173   6 -1.139237E+06 -1.818194E+05 -1.260735E+03 -4.560461E+05 -2.227052E+03  5.402620E+03
       173   7 -9.045078E+05 -9.409783E+04  5.726791E+04 -3.919070E+05 -7.165172E+03  8.981463E+03
       173   8 -9.624443E+05 -1.014096E+05  4.628780E+04 -3.931036E+05 -5.451759E+03  6.918094E+03
       173   9 -9.997919E+05 -1.296198E+05  3.465766E+04 -4.180354E+05 -3.733156E+03  4.838006E+03
       173  10 -1.373960E+06 -2.698078E+05 -6.273982E+04 -5.200663E+05  3.995487E-10 -9.186538E-11
       173  11 -1.336605E+06 -2.414614E+05 -4.962737E+04 -4.951898E+05  1.206749E-09 -4.146169E-10
       173  12 -1.278663E+06 -2.340178E+05 -3.718079E+04 -4.940491E+05 -3.919814E-11 -4.024316E-11
       173  13 -1.139261E+06 -1.819548E+05 -2.733950E+03 -4.559977E+05 -3.285907E-10 -4.592663E-10
       173  14 -1.149542E+06 -1.714367E+05 -1.668476E+03 -4.441537E+05 -2.853982E-10 -6.049583E-10
       173  15 -1.139237E+06 -1.818194E+05 -1.260799E+03 -4.560461E+05 -6.149536E-10 -1.608070E-10
       173  16 -9.045079E+05 -9.409793E+04  5.726767E+04 -3.919069E+05 -1.072156E-10 -1.884499E-10
       173  17 -9.624444E+05 -1.014097E+05  4.628765E+04 -3.931036E+05 -1.091069E-09 -5.927019E-10
       173  18 -9.997919E+05 -1.296198E+05  3.465759E+04 -4.180354E+05 -2.728780E-10 -2.466205E-10
       173  19 -1.373960E+06 -2.698077E+05 -6.273960E+04 -5.200663E+05  4.193837E+03 -1.009650E+04
       173  20 -1.336605E+06 -2.414613E+05 -4.962724E+04 -4.951898E+05  2.460250E+03 -8.040142E+03
       173  21 -1.278663E+06 -2.340178E+05 -3.718072E+04 -4.940491E+05  7.213198E+02 -5.967094E+03
       173  22 -1.139261E+06 -1.819547E+05 -2.733719E+03 -4.559977E+05  5.679194E+03 -9.539097E+03
       173  23 -1.149542E+06 -1.714367E+05 -1.668342E+03 -4.441537E+05  3.955756E+03 -7.479211E+03
       173  24 -1.139237E+06 -1.818194E+05 -1.260735E+03 -4.560461E+05  2.227052E+03 -5.402620E+03
       173  25 -9.045078E+05 -9.409783E+04  5.726791E+04 -3.919070E+05  7.165172E+03 -8.981463E+03
       173  26 -9.624443E+05 -1.014096E+05  4.628780E+04 -3.931036E+05  5.451759E+03 -6.918094E+03
       173  27 -9.997919E+05 -1.296198E+05  3.465766E+04 -4.180354E+05  3.733156E+03 -4.838006E+03
       174   1 -1.227002E+06 -2.147213E+05 -2.356946E+04 -4.800816E+05  1.255531E+01  4.648160E+03
       174   2 -1.189277E+06 -1.862445E+05 -1.167890E+04 -4.549347E+05  1.663816E+03  2.525679E+03
       174   3 -1.130786E+06 -1.788413E+05 -3.863161E+02 -4.537652E+05  3.315227E+03  4.023271E+02
       174   4 -1.139195E+06 -1.818667E+05 -1.233709E+03 -4.560952E+05 -1.497064E+03  4.082348E+03
       174   5 -1.149583E+06 -1.713722E+05 -1.500581E+03 -4.440900E+05  1.536611E+02  1.959723E+03
       174   6 -1.139206E+06 -1.819514E+05 -2.364885E+03 -4.560632E+05  1.804474E+03 -1.637881E+02
       174   7 -1.051381E+06 -1.490117E+05  2.110134E+04 -4.321057E+05 -3.006913E+03  3.516449E+03
       174   8 -1.109887E+06 -1.564999E+05  8.677621E+03 -4.332447E+05 -1.356600E+03  1.393728E+03
       174   9 -1.147627E+06 -1.850615E+05 -4.343458E+03 -4.583611E+05  2.937379E+02 -7.298969E+02
       174  10 -1.227002E+06 -2.147213E+05 -2.356950E+04 -4.800816E+05  4.245878E-11  3.999836E-11
       174  11 -1.189277E+06 -1.862445E+05 -1.167892E+04 -4.549347E+05  5.293374E-10 -6.317977E-11
       174  12 -1.130786E+06 -1.788413E+05 -3.863371E+02 -4.537652E+05  8.426733E-10  5.237046E-10
       174  13 -1.139195E+06 -1.818667E+05 -1.233744E+03 -4.560952E+05 -1.814077E-10 -6.222560E-11
       174  14 -1.149583E+06 -1.713722E+05 -1.500589E+03 -4.440900E+05  9.466305E-11 -3.295695E-10
       174  15 -1.139206E+06 -1.819514E+05 -2.364891E+03 -4.560632E+05  1.815496E-10 -2.060588E-10
       174  16 -1.051381E+06 -1.490117E+05  2.110130E+04 -4.321057E+05 -6.941716E-10 -2.474407E-10
       174  17 -1.109887E+06 -1.564999E+05  8.677614E+03 -4.332446E+05 -5.369456E-10 -3.292955E-10
       174  18 -1.147627E+06 -1.850615E+05 -4.343459E+03 -4.583611E+05 -1.189891E-09 -9.307098E-10
       174  19 -1.227002E+06 -2.147213E+05 -2.356946E+04 -4.800816E+05 -1.255531E+01 -4.648160E+03
       174  20 -1.189277E+06 -1.862445E+05 -1.167890E+04 -4.549347E+05 -1.663816E+03 -2.525679E+03
       174  21 -1.130786E+06 -1.788413E+05 -3.863161E+02 -4.537652E+05 -3.315227E+03 -4.023271E+02
       174  22 -1.139195E+06 -1.818667E+05 -1.233709E+03 -4.560952E+05  1.497064E+03 -4.082348E+03
       174  23 -1.149583E+06 -1.713722E+05 -1.500581E+03 -4.440900E+05 -1.536611E+02 -1.959723E+03
       174  24 -1.139206E+06 -1.819514E+05 -2.364885E+03 -4.560632E+05 -1.804474E+03  1.637881E+02
       174  25 -1.051381E+06 -1.490117E+05  2.110134E+04 -4.321057E+05  3.006913E+03 -3.516449E+03
       174  26 -1.109887E+06 -1.564999E+05  8.677621E+03 -4.332447E+05  1.356600E+03 -1.393728E+03
       174  27 -1.147627E+06 -1.850615E+05 -4.343458E+03 -4.583611E+05 -2.937379E+02  7.298969E+02
       175   1 -1.078975E+06 -1.594127E+05  1.257777E+04 -4.399434E+05  4.295542E+03 -8.343294E+02
       175   2 -1.041241E+06 -1.307451E+05  2.244003E+04 -4.145844E+05  7.828038E+03 -2.245339E+03
       175   3 -9.835473E+05 -1.244656E+05  2.993572E+04 -4.128564E+05  1.134359E+04 -3.609167E+03
       175   4 -1.139325E+06 -1.817972E+05 -3.026870E+03 -4.561544E+05  2.773910E+03 -1.404557E+03
       175   5 -1.149393E+06 -1.712339E+05 -5.284611E+03 -4.441019E+05  6.335439E+03 -2.804858E+03
       175   6 -1.139508E+06 -1.830651E+05 -9.932142E+03 -4.556815E+05  9.879799E+03 -4.158047E+03
       175   7 -1.199671E+06 -2.041814E+05 -1.863180E+04 -4.723641E+05  1.252440E+03 -1.974725E+03
       175   8 -1.257533E+06 -2.117219E+05 -3.301014E+04 -4.736147E+05  4.843129E+03 -3.364268E+03
       175   9 -1.295445E+06 -2.416628E+05 -4.980182E+04 -4.984967E+05  8.416412E+03 -4.706773E+03
       175  10 -1.078975E+06 -1.594127E+05  1.257773E+04 -4.399434E+05  6.669061E-09  3.343628E-09
       175  11 -1.041241E+06 -1.307451E+05  2.243990E+04 -4.145844E+05  2.906857E-09  1.710479E-09
       175  12 -9.835474E+05 -1.244657E+05  2.993545E+04 -4.128564E+05 -3.974558E-09 -1.950831E-09
       175  13 -1.139325E+06 -1.817972E+05 -3.026889E+03 -4.561544E+05  6.467815E-10  6.340847E-10
       175  14 -1.149393E+06 -1.712339E+05 -5.284701E+03 -4.441019E+05  1.679830E-09  1.585816E-09
       175  15 -1.139509E+06 -1.830652E+05 -9.932358E+03 -4.556815E+05  7.492829E-10  4.328942E-10
       175  16 -1.199671E+06 -2.041814E+05 -1.863181E+04 -4.723641E+05 -3.902122E-09 -1.981934E-09
       175  17 -1.257533E+06 -2.117219E+05 -3.301021E+04 -4.736147E+05  2.913291E-09  1.721395E-09
       175  18 -1.295445E+06 -2.416629E+05 -4.980199E+04 -4.984967E+05  6.201873E-09  2.972694E-09
       175  19 -1.078975E+06 -1.594127E+05  1.257777E+04 -4.399434E+05 -4.295542E+03  8.343294E+02
       175  20 -1.041241E+06 -1.307451E+05  2.244003E+04 -4.145844E+05 -7.828038E+03  2.245339E+03
       175  21 -9.835473E+05 -1.244656E+05  2.993572E+04 -4.128564E+05 -1.134359E+04  3.609167E+03
       175  22 -1.139325E+06 -1.817972E+05 -3.026870E+03 -4.561544E+05 -2.773910E+03  1.404557E+03
       175  23 -1.149393E+06 -1.712339E+05 -5.284611E+03 -4.441019E+05 -6.335439E+03  2.804858E+03
       175  24 -1.139508E+06 -1.830651E+05 -9.932142E+03 -4.556815E+05 -9.879799E+03  4.158047E+03
       175  25 -1.199671E+06 -2.041814E+05 -1.863180E+04 -4.723641E+05 -1.252440E+03  1.974725E+03
       175  26 -1.257533E+06 -2.117219E+05 -3.301014E+04 -4.736147E+05 -4.843129E+03  3.364268E+03
       175  27 -1.295445E+06 -2.416628E+05 -4.980182E+04 -4.984967E+05 -8.416412E+03  4.706773E+03
       176   1 -9.312746E+05 -1.051380E+05  4.046929E+04 -4.020188E+05  1.392928E+04 -4.324429E+03
       176   2 -8.939858E+05 -7.350410E+04  4.254598E+04 -3.736590E+05  2.605663E+04 -2.399744E+03
       176   3 -8.439589E+05 -7.949689E+04  3.160579E+04 -3.647564E+05  3.792126E+04  2.314685E+02
       176   4 -1.140391E+06 -1.811801E+05 -1.286945E+04 -4.567401E+05  1.226007E+04 -4.950456E+03
       176   5 -1.147772E+06 -1.697657E+05 -2.275036E+04 -4.442217E+05  2.482618E+04 -2.861719E+03
       176   6 -1.142508E+06 -1.960716E+05 -4.600098E+04 -4.511624E+05  3.712863E+04 -6.679428E+01
       176   7 -1.349465E+06 -2.572203E+05 -6.621193E+04 -5.114451E+05  1.059147E+04 -5.576271E+03
       176   8 -1.401496E+06 -2.660230E+05 -8.805214E+04 -5.147583E+05  2.359629E+04 -3.323482E+03
       176   9 -1.440970E+06 -3.126385E+05 -1.236152E+05 -5.375300E+05  3.633642E+04 -3.648867E+02
       176  10 -9.312748E+05 -1.051381E+05  4.046889E+04 -4.020188E+05 -6.165738E-10 -1.088419E-09
       176  11 -8.939866E+05 -7.350429E+04  4.254469E+04 -3.736590E+05 -3.873267E-10 -4.411498E-10
       176  12 -8.439604E+05 -7.949727E+04  3.160308E+04 -3.647564E+05  1.182633E-10 -5.162452E-10
       176  13 -1.140391E+06 -1.811801E+05 -1.286978E+04 -4.567400E+05  4.534552E-10 -3.721564E-10
       176  14 -1.147773E+06 -1.697659E+05 -2.275153E+04 -4.442217E+05  6.282567E-11 -4.998978E-10
       176  15 -1.142509E+06 -1.960719E+05 -4.600357E+04 -4.511624E+05 -2.651867E-10 -3.358465E-10
       176  16 -1.349465E+06 -2.572204E+05 -6.621220E+04 -5.114451E+05  4.102084E-10  1.095631E-10
       176  17 -1.401496E+06 -2.660231E+05 -8.805321E+04 -5.147582E+05  1.126988E-09 -6.119856E-10
       176  18 -1.440971E+06 -3.126389E+05 -1.236177E+05 -5.375300E+05  7.860355E-10 -3.297661E-11
       176  19 -9.312746E+05 -1.051380E+05  4.046929E+04 -4.020188E+05 -1.392928E+04  4.324429E+03
       176  20 -8.939858E+05 -7.350410E+04  4.254598E+04 -3.736590E+05 -2.605663E+04  2.399744E+03
       176  21 -8.439589E+05 -7.949689E+04  3.160579E+04 -3.647564E+05 -3.792126E+04 -2.314685E+02
       176  22 -1.140391E+06 -1.811801E+05 -1.286945E+04 -4.567401E+05 -1.226007E+04  4.950456E+03
       176  23 -1.147772E+06 -1.697657E+05 -2.275036E+04 -4.442217E+05 -2.482618E+04  2.861719E+03
       176  24 -1.142508E+06 -1.960716E+05 -4.600098E+04 -4.511624E+05 -3.712863E+04  6.679428E+01
       176  25 -1.349465E+06 -2.572203E+05 -6.621193E+04 -5.114451E+05 -1.059147E+04  5.576271E+03
       176  26 -1.401496E+06 -2.660230E+05 -8.805214E+04 -5.147583E+05 -2.359629E+04  3.323482E+03
       176  27 -1.440970E+06 -3.126385E+05 -1.236152E+05 -5.375300E+05 -3.633642E+04  3.648867E+02
       177   1 -7.802328E+05 -5.995260E+04  3.307366E+04 -3.872584E+05  5.044650E+04  1.623751E+03
       177   2 -7.484063E+05  9.692940E+03  5.380213E+03 -3.205278E+05  9.590430E+04  1.745912E+04
       177   3 -7.749555E+05 -1.325747E+05 -1.085095E+05 -2.263830E+05  1.368620E+05  4.528488E+04
       177   4 -1.150057E+06 -1.744345E+05 -5.708139E+04 -4.635353E+05  4.598128E+04 -5.086538E+01
       177   5 -1.132236E+06 -1.532677E+05 -9.678613E+04 -4.451183E+05  9.894084E+04  1.859530E+04
       177   6 -1.174334E+06 -3.455882E+05 -2.286818E+05 -3.992766E+05  1.473971E+05  4.922707E+04
       177   7 -1.519745E+06 -2.889166E+05 -1.472458E+05 -5.397755E+05  4.151899E+04 -1.724818E+03
       177   8 -1.515919E+06 -3.162067E+05 -1.989652E+05 -5.696348E+05  1.019753E+05  1.973046E+04
       177   9 -1.573548E+06 -5.585382E+05 -3.488693E+05 -5.720542E+05  1.579248E+05  5.316378E+04
       177  10 -7.802356E+05 -5.995329E+04  3.306887E+04 -3.872584E+05 -4.163135E-10 -1.346467E-10
       177  11 -7.484163E+05  9.690139E+03  5.362332E+03 -3.205292E+05 -1.046530E-09  4.389879E-10
       177  12 -7.749762E+05 -1.325820E+05 -1.085486E+05 -2.263880E+05  5.817026E-11  1.123216E-10
       177  13 -1.150059E+06 -1.744351E+05 -5.708537E+04 -4.635353E+05 -2.452527E-10 -4.274187E-11
       177  14 -1.132246E+06 -1.532707E+05 -9.680522E+04 -4.451198E+05 -7.499584E-10  2.745607E-10
       177  15 -1.174358E+06 -3.455967E+05 -2.287273E+05 -3.992825E+05  7.735896E-11  2.103959E-10
       177  16 -1.519747E+06 -2.889171E+05 -1.472490E+05 -5.397755E+05 -1.241087E-11  1.125755E-10
       177  17 -1.515931E+06 -3.162099E+05 -1.989855E+05 -5.696364E+05 -6.438780E-11 -3.697610E-10
       177  18 -1.573576E+06 -5.585480E+05 -3.489216E+05 -5.720610E+05 -4.830218E-11 -1.894567E-10
       177  19 -7.802328E+05 -5.995260E+04  3.307366E+04 -3.872584E+05 -5.044650E+04 -1.623751E+03
       177  20 -7.484063E+05  9.692940E+03  5.380213E+03 -3.205278E+05 -9.590430E+04 -1.745912E+04
       177  21 -7.749555E+05 -1.325747E+05 -1.085095E+05 -2.263830E+05 -1.368620E+05 -4.528488E+04
       177  22 -1.150057E+06 -1.744345E+05 -5.708139E+04 -4.635353E+05 -4.598128E+04  5.086538E+01
       177  23 -1.132236E+06 -1.532677E+05 -9.678613E+04 -4.451183E+05 -9.894084E+04 -1.859530E+04
       177  24 -1.174334E+06 -3.455882E+05 -2.286818E+05 -3.992766E+05 -1.473971E+05 -4.922707E+04
       177  25 -1.519745E+06 -2.889166E+05 -1.472458E+05 -5.397755E+05 -4.151899E+04  1.724818E+03
       177  26 -1.515919E+06 -3.162067E+05 -1.989652E+05 -5.696348E+05 -1.019753E+05 -1.973046E+04
       177  27 -1.573548E+06 -5.585382E+05 -3.488693E+05 -5.720542E+05 -1.579248E+05 -5.316378E+04
       178   1 -1.248637E+06 -2.785691E+05 -2.391749E+05 -2.513204E+04  7.465674E+04  1.954829E+04
       178   2 -1.132603E+06 -3.887123E+05 -2.808143E+05 -2.307931E+04  6.215431E+04  5.942482E+04
       178   3 -9.760989E+05 -3.510229E+05 -2.770017E+05 -9.608303E+04  4.974711E+04  5.817664E+04
       178   4  4.156485E+05  1.356860E+05  1.685716E+05 -7.532514E+04  1.154428E+05  1.963915E+04
       178   5  3.931337E+05 -1.235260E+04  7.483107E+04 -3.765247E+04  7.526088E+04  5.943687E+04
       178   6  4.157774E+05 -7.950575E+03  4.567240E+04 -7.502033E+04  3.517935E+04  5.815339E+04
       178   7  2.082469E+06  5.497467E+05  5.761230E+05 -1.256547E+05  1.563379E+05  1.972331E+04
       178   8  1.921021E+06  3.638435E+05  4.303197E+05 -5.226264E+04  8.839931E+04  5.944830E+04
       178   9  1.809446E+06  3.349871E+05  3.682176E+05 -5.391038E+04  2.057905E+04  5.812918E+04
       178  10 -1.248643E+06 -2.785710E+05 -2.391861E+05 -2.513322E+04  1.048034E-09  2.357834E-10
       178  11 -1.132608E+06 -3.887172E+05 -2.808282E+05 -2.308228E+04  1.869209E-09 -8.904373E-10
       178  12 -9.761024E+05 -3.510272E+05 -2.770127E+05 -9.608536E+04 -5.713905E-10  4.363511E-10
       178  13  4.156341E+05  1.356820E+05  1.685458E+05 -7.532696E+04  1.203576E-09 -7.064552E-10
       178  14  3.931267E+05 -1.235791E+04  7.481379E+04 -3.765607E+04  7.910175E-10 -1.466699E-10
       178  15  4.157751E+05 -7.954539E+03  4.566372E+04 -7.502197E+04 -5.577721E-10  1.686028E-10
       178  16  2.082443E+06  5.497398E+05  5.760765E+05 -1.256571E+05 -1.040020E-09  8.938810E-10
       178  17  1.921012E+06  3.638376E+05  4.302984E+05 -5.226687E+04 -2.049079E-09 -7.160634E-10
       178  18  1.809444E+06  3.349833E+05  3.682105E+05 -5.391135E+04  1.022998E-10 -9.746125E-11
       178  19 -1.248637E+06 -2.785691E+05 -2.391749E+05 -2.513204E+04 -7.465674E+04 -1.954829E+04
       178  20 -1.132603E+06 -3.887123E+05 -2.808143E+05 -2.307931E+04 -6.215431E+04 -5.942482E+04
       178  21 -9.760989E+05 -3.510229E+05 -2.770017E+05 -9.608303E+04 -4.974711E+04 -5.817664E+04
       178  22  4.156485E+05  1.356860E+05  1.685716E+05 -7.532514E+04 -1.154428E+05 -1.963915E+04
       178  23  3.931337E+05 -1.235260E+04  7.483107E+04 -3.765247E+04 -7.526088E+04 -5.943687E+04
       178  24  4.157774E+05 -7.950575E+03  4.567240E+04 -7.502033E+04 -3.517935E+04 -5.815339E+04
       178  25  2.082469E+06  5.497467E+05  5.761230E+05 -1.256547E+05 -1.563379E+05 -1.972331E+04
       178  26  1.921021E+06  3.638435E+05  4.303197E+05 -5.226264E+04 -8.839931E+04 -5.944830E+04
       178  27  1.809446E+06  3.349871E+05  3.682176E+05 -5.391038E+04 -2.057905E+04 -5.812918E+04
       179   1 -8.477993E+05 -2.988771E+05 -2.553566E+05 -7.228686E+04  3.023046E+04  4.933985E+04
       179   2 -7.160067E+05 -2.775490E+05 -2.410361E+05 -3.685859E+04  2.192477E+04  4.540135E+04
       179   3 -5.791511E+05 -2.438631E+05 -2.180223E+05 -7.677969E+04  1.360762E+04  3.930743E+04
       179   4  4.070030E+05  1.059646E+04  3.685670E+04 -7.517344E+04  2.835249E+04  4.933145E+04
       179   5  4.043982E+05 -1.356787E+03  1.926511E+04 -3.750047E+04  1.858188E+04  4.539480E+04
       179   6  4.070829E+05 -7.102384E+02  1.137105E+04 -7.516795E+04  8.801560E+03  3.930448E+04
       179   7  1.663259E+06  3.199588E+05  3.289636E+05 -7.806609E+04  2.647071E+04  4.932308E+04
       179   8  1.525962E+06  2.747469E+05  2.794819E+05 -3.814355E+04  1.523297E+04  4.538826E+04
       179   9  1.394215E+06  2.423740E+05  2.406989E+05 -7.355351E+04  3.987905E+03  3.930151E+04
       179  10 -8.478009E+05 -2.988799E+05 -2.553629E+05 -7.228806E+04 -3.071428E-10  3.609283E-10
       179  11 -7.160077E+05 -2.775513E+05 -2.410409E+05 -3.685939E+04  1.367403E-09 -3.888613E-10
       179  12 -5.791517E+05 -2.438648E+05 -2.180255E+05 -7.678012E+04  3.720564E-10  6.931141E-11
       179  13  4.070014E+05  1.059363E+04  3.685061E+04 -7.517457E+04 -1.450425E-09 -2.501107E-10
       179  14  4.043973E+05 -1.359093E+03  1.926059E+04 -3.750115E+04  2.465206E-10  1.135978E-10
       179  15  4.070824E+05 -7.119184E+02  1.136800E+04 -7.516823E+04 -9.455574E-10  9.351819E-11
       179  16  1.663257E+06  3.199560E+05  3.289577E+05 -7.806714E+04 -9.352845E-10  2.726887E-10
       179  17  1.525962E+06  2.747446E+05  2.794776E+05 -3.814411E+04  2.721824E-10  5.368172E-11
       179  18  1.394214E+06  2.423724E+05  2.406960E+05 -7.355364E+04  3.784468E-11  4.479716E-11
       179  19 -8.477993E+05 -2.988771E+05 -2.553566E+05 -7.228686E+04 -3.023046E+04 -4.933985E+04
       179  20 -7.160067E+05 -2.775490E+05 -2.410361E+05 -3.685859E+04 -2.192477E+04 -4.540135E+04
       179  21 -5.791511E+05 -2.438631E+05 -2.180223E+05 -7.677969E+04 -1.360762E+04 -3.930743E+04
       179  22  4.070030E+05  1.059646E+04  3.685670E+04 -7.517344E+04 -2.835249E+04 -4.933145E+04
       179  23  4.043982E+05 -1.356787E+03  1.926511E+04 -3.750047E+04 -1.858188E+04 -4.539480E+04
       179  24  4.070829E+05 -7.102384E+02  1.137105E+04 -7.516795E+04 -8.801560E+03 -3.930448E+04
       179  25  1.663259E+06  3.199588E+05  3.289636E+05 -7.806609E+04 -2.647071E+04 -4.932308E+04
       179  26  1.525962E+06  2.747469E+05  2.794819E+05 -3.814355E+04 -1.523297E+04 -4.538826E+04
       179  27  1.394215E+06  2.423740E+05  2.406989E+05 -7.355351E+04 -3.987905E+03 -3.930151E+04
       180   1 -4.446149E+05 -2.088612E+05 -1.884417E+05 -7.465634E+04  1.114776E+04  3.534325E+04
       180   2 -3.116743E+05 -1.769708E+05 -1.616751E+05 -3.727503E+04  8.761293E+03  2.914053E+04
       180   3 -1.779242E+05 -1.439376E+05 -1.330263E+05 -7.473242E+04  6.366703E+03  2.283607E+04
       180   4  4.061486E+05  7.499263E+02  8.796130E+03 -7.505625E+04  7.021331E+03  3.534202E+04
       180   5  4.057709E+05 -1.629596E+02  4.930347E+03 -3.763981E+04  4.563071E+03  2.914159E+04
       180   6  4.061978E+05  7.970132E+01  2.995387E+03 -7.505676E+04  2.097189E+03  2.283955E+04
       180   7  1.257581E+06  2.103101E+05  2.059855E+05 -7.545659E+04  2.889285E+03  3.534080E+04
       180   8  1.123691E+06  1.766086E+05  1.715012E+05 -3.800492E+04  3.600278E+02  2.914266E+04
       180   9  9.906345E+05  1.440729E+05  1.389941E+05 -7.538130E+04 -2.176316E+03  2.284303E+04
       180  10 -4.446153E+05 -2.088626E+05 -1.884443E+05 -7.465666E+04 -3.233555E-10  1.960842E-10
       180  11 -3.116746E+05 -1.769717E+05 -1.616768E+05 -3.727523E+04 -8.936557E-10  9.107946E-11
       180  12 -1.779244E+05 -1.439382E+05 -1.330274E+05 -7.473254E+04 -5.396753E-10 -7.201701E-10
       180  13  4.061482E+05  7.485715E+02  8.793690E+03 -7.505645E+04  4.306523E-10  2.787980E-10
       180  14  4.057707E+05 -1.638773E+02  4.928712E+03 -3.763992E+04  2.421610E-10  4.528988E-10
       180  15  4.061976E+05  7.913987E+01  2.994398E+03 -7.505680E+04 -1.838270E-09  6.600068E-10
       180  16  1.257580E+06  2.103088E+05  2.059831E+05 -7.545667E+04 -5.349488E-10  1.073603E-11
       180  17  1.123691E+06  1.766077E+05  1.714996E+05 -3.800493E+04  8.960526E-10 -3.797711E-10
       180  18  9.906343E+05  1.440724E+05  1.389931E+05 -7.538126E+04 -4.165325E-10 -3.357664E-10
       180  19 -4.446149E+05 -2.088612E+05 -1.884417E+05 -7.465634E+04 -1.114776E+04 -3.534325E+04
       180  20 -3.116743E+05 -1.769708E+05 -1.616751E+05 -3.727503E+04 -8.761293E+03 -2.914053E+04
       180  21 -1.779242E+05 -1.439376E+05 -1.330263E+05 -7.473242E+04 -6.366703E+03 -2.283607E+04
       180  22  4.061486E+05  7.499263E+02  8.796130E+03 -7.505625E+04 -7.021331E+03 -3.534202E+04
       180  23  4.057709E+05 -1.629596E+02  4.930347E+03 -3.763981E+04 -4.563071E+03 -2.914159E+04
       180  24  4.061978E+05  7.970132E+01  2.995387E+03 -7.505676E+04 -2.097189E+03 -2.283955E+04
       180  25  1.257581E+06  2.103101E+05  2.059855E+05 -7.545659E+04 -2.889285E+03 -3.534080E+04
       180  26  1.123691E+06  1.766086E+05  1.715012E+05 -3.800492E+04 -3.600278E+02 -2.914266E+04
       180  27  9.906345E+05  1.440729E+05  1.389941E+05 -7.538130E+04  2.176316E+03 -2.284303E+04
       181   1 -4.336847E+04 -1.104822E+05 -1.015892E+05 -7.460261E+04  5.838334E+03  1.915036E+04
       181   2  8.944787E+04 -7.794405E+04 -7.190409E+04 -3.742642E+04  5.039415E+03  1.285637E+04
       181   3  2.222701E+05 -4.513729E+04 -4.167391E+04 -7.477046E+04  4.236997E+03  6.562287E+03
       181   4  4.060522E+05  1.768424E+02  2.363917E+03 -7.498646E+04  1.608855E+03  1.915487E+04
       181   5  4.060671E+05  6.499560E+01  1.602276E+03 -3.772751E+04  8.090089E+02  1.286186E+04
       181   6  4.060736E+05  2.235272E+02  1.387370E+03 -7.498644E+04  5.831051E+00  6.568836E+03
       181   7  8.556595E+05  1.108217E+05  1.063036E+05 -7.537052E+04 -2.623663E+03  1.915939E+04
       181   8  7.227789E+05  7.806699E+04  7.510197E+04 -3.802871E+04 -3.423539E+03  1.286737E+04
       181   9  5.899082E+05  4.558195E+04  4.444641E+04 -7.520247E+04 -4.226579E+03  6.575387E+03
       181  10 -4.336861E+04 -1.104826E+05 -1.015900E+05 -7.460270E+04 -7.608948E-10 -2.150592E-10
       181  11  8.944780E+04 -7.794424E+04 -7.190445E+04 -3.742647E+04 -2.933529E-10  2.203966E-10
       181  12  2.222701E+05 -4.513734E+04 -4.167403E+04 -7.477049E+04  2.530267E-11 -1.474277E-10
       181  13  4.060521E+05  1.764476E+02  2.363223E+03 -7.498648E+04 -1.336377E-09 -1.217729E-09
       181  14  4.060671E+05  6.481774E+01  1.601963E+03 -3.772752E+04 -9.651781E-10  3.211363E-10
       181  15  4.060736E+05  2.234808E+02  1.387289E+03 -7.498644E+04 -5.540963E-11 -6.835109E-10
       181  16  8.556594E+05  1.108213E+05  1.063029E+05 -7.537048E+04  8.225521E-10  1.006343E-10
       181  17  7.227789E+05  7.806681E+04  7.510164E+04 -3.802868E+04 -1.018215E-09 -3.428158E-10
       181  18  5.899081E+05  4.558190E+04  4.444630E+04 -7.520244E+04 -9.578895E-10 -1.297369E-09
       181  19 -4.336847E+04 -1.104822E+05 -1.015892E+05 -7.460261E+04 -5.838334E+03 -1.915036E+04
       181  20  8.944787E+04 -7.794405E+04 -7.190409E+04 -3.742642E+04 -5.039415E+03 -1.285637E+04
       181  21  2.222701E+05 -4.513729E+04 -4.167391E+04 -7.477046E+04 -4.236997E+03 -6.562287E+03
       181  22  4.060522E+05  1.768424E+02  2.363917E+03 -7.498646E+04 -1.608855E+03 -1.915487E+04
       181  23  4.060671E+05  6.499560E+01  1.602276E+03 -3.772751E+04 -8.090089E+02 -1.286186E+04
       181  24  4.060736E+05  2.235272E+02  1.387370E+03 -7.498644E+04 -5.831051E+00 -6.568836E+03
       181  25  8.556595E+05  1.108217E+05  1.063036E+05 -7.537052E+04  2.623663E+03 -1.915939E+04
       181  26  7.227789E+05  7.806699E+04  7.510197E+04 -3.802871E+04  3.423539E+03 -1.286737E+04
       181  27  5.899082E+05  4.558195E+04  4.444641E+04 -7.520247E+04  4.226579E+03 -6.575387E+03
       182   1  3.566687E+05 -1.187155E+04 -9.643259E+03 -7.490155E+04  3.973795E+03  2.899752E+03
       182   2  4.894203E+05  2.061486E+04  2.120210E+04 -3.780850E+04  3.040111E+03 -3.388830E+03
       182   3  6.221232E+05  5.340607E+04  5.266978E+04 -7.516404E+04  2.107102E+03 -9.673943E+03
       182   4  4.060684E+05  2.189933E+02  1.429976E+03 -7.497121E+04 -2.563624E+02  2.906544E+03
       182   5  4.060992E+05  9.110824E+01  1.862845E+03 -3.774656E+04 -1.188058E+03 -3.382341E+03
       182   6  4.060626E+05  2.683599E+02  2.917089E+03 -7.497109E+04 -2.118883E+03 -9.667691E+03
       182   7  4.554704E+05  1.230938E+04  1.250312E+04 -7.504086E+04 -4.486853E+03  2.913337E+03
       182   8  3.227845E+05 -2.043313E+04 -1.747681E+04 -3.768462E+04 -5.415663E+03 -3.375853E+03
       182   9  1.900453E+05 -5.287260E+04 -4.683863E+04 -7.477820E+04 -6.343410E+03 -9.661442E+03
       182  10  3.566687E+05 -1.187157E+04 -9.643305E+03 -7.490156E+04 -1.040255E-09  1.048698E-09
       182  11  4.894203E+05  2.061485E+04  2.120207E+04 -3.780849E+04 -8.301716E-10  2.496291E-09
       182  12  6.221231E+05  5.340597E+04  5.266959E+04 -7.516402E+04  1.371922E-09 -1.481292E-09
       182  13  4.060684E+05  2.189842E+02  1.429960E+03 -7.497121E+04 -9.385811E-10  2.373089E-11
       182  14  4.060992E+05  9.109557E+01  1.862821E+03 -3.774656E+04 -8.144552E-10 -7.267978E-10
       182  15  4.060626E+05  2.682583E+02  2.916905E+03 -7.497111E+04 -5.781940E-10  5.860382E-11
       182  16  4.554703E+05  1.230937E+04  1.250307E+04 -7.504085E+04  2.206289E-10 -1.522533E-10
       182  17  3.227845E+05 -2.043315E+04 -1.747689E+04 -3.768464E+04  4.473854E-11 -6.947724E-10
       182  18  1.900452E+05 -5.287272E+04 -4.683888E+04 -7.477825E+04 -2.147215E-09  1.879626E-10
       182  19  3.566687E+05 -1.187155E+04 -9.643259E+03 -7.490155E+04 -3.973795E+03 -2.899752E+03
       182  20  4.894203E+05  2.061486E+04  2.120210E+04 -3.780850E+04 -3.040111E+03  3.388830E+03
       182  21  6.221232E+05  5.340607E+04  5.266978E+04 -7.516404E+04 -2.107102E+03  9.673943E+03
       182  22  4.060684E+05  2.189933E+02  1.429976E+03 -7.497121E+04  2.563624E+02 -2.906544E+03
       182  23  4.060992E+05  9.110824E+01  1.862845E+03 -3.774656E+04  1.188058E+03  3.382341E+03
       182  24  4.060626E+05  2.683599E+02  2.917089E+03 -7.497109E+04  2.118883E+03  9.667691E+03
       182  25  4.554704E+05  1.230938E+04  1.250312E+04 -7.504086E+04  4.486853E+03 -2.913337E+03
       182  26  3.227845E+05 -2.043313E+04 -1.747681E+04 -3.768462E+04  5.415663E+03  3.375853E+03
       182  27  1.900453E+05 -5.287260E+04 -4.683863E+04 -7.477820E+04  6.343410E+03  9.661442E+03
       183   1  7.568231E+05  8.655998E+04  8.549174E+04 -7.515479E+04  1.535392E+03 -1.334875E+04
       183   2  8.895208E+05  1.190070E+05  1.185268E+05 -3.807036E+04 -1.669931E+03 -1.963336E+04
       183   3  1.022965E+06  1.529465E+05  1.540012E+05 -7.560224E+04 -4.870759E+03 -2.582782E+04
       183   4  4.062184E+05  1.349713E+02  3.738029E+03 -7.500947E+04 -2.724263E+03 -1.334305E+04
       183   5  4.058417E+05 -1.052271E+02  6.287766E+03 -3.769892E+04 -5.867124E+03 -1.962932E+04
       183   6  4.061850E+05  1.138226E+03  1.123599E+04 -7.500822E+04 -9.004817E+03 -2.582535E+04
       183   7  5.572695E+04 -8.629872E+04 -7.802394E+04 -7.486418E+04 -6.981531E+03 -1.333734E+04
       183   8 -7.762167E+04 -1.192339E+05 -1.059669E+05 -3.732769E+04 -1.006107E+04 -1.962529E+04
       183   9 -2.102438E+05 -1.506967E+05 -1.315546E+05 -7.441468E+04 -1.313480E+04 -2.582289E+04
       183  10  7.568231E+05  8.655978E+04  8.549140E+04 -7.515477E+04 -8.952481E-10 -1.688914E-09
       183  11  8.895207E+05  1.190066E+05  1.185261E+05 -3.807038E+04 -3.380452E-10  9.196883E-11
       183  12  1.022964E+06  1.529458E+05  1.539999E+05 -7.560234E+04  2.400704E-10 -5.431354E-11
       183  13  4.062184E+05  1.347781E+02  3.737680E+03 -7.500949E+04 -2.608745E-09  1.297835E-10
       183  14  4.058415E+05 -1.056502E+02  6.286977E+03 -3.769901E+04 -1.570370E-09 -5.162420E-10
       183  15  4.061847E+05  1.137487E+03  1.123458E+04 -7.500840E+04  2.692381E-10 -5.216009E-10
       183  16  5.572685E+04 -8.629892E+04 -7.802437E+04 -7.486425E+04 -7.211158E-10  4.197290E-10
       183  17 -7.762188E+04 -1.192343E+05 -1.059678E+05 -3.732785E+04 -1.465665E-10  1.295270E-09
       183  18 -2.102441E+05 -1.506975E+05 -1.315562E+05 -7.441495E+04 -5.685732E-10  3.325879E-10
       183  19  7.568231E+05  8.655998E+04  8.549174E+04 -7.515479E+04 -1.535392E+03  1.334875E+04
       183  20  8.895208E+05  1.190070E+05  1.185268E+05 -3.807036E+04  1.669931E+03  1.963336E+04
       183  21  1.022965E+06  1.529465E+05  1.540012E+05 -7.560224E+04  4.870759E+03  2.582782E+04
       183  22  4.062184E+05  1.349713E+02  3.738029E+03 -7.500947E+04  2.724263E+03  1.334305E+04
       183  23  4.058417E+05 -1.052271E+02  6.287766E+03 -3.769892E+04  5.867124E+03  1.962932E+04
       183  24  4.061850E+05  1.138226E+03  1.123599E+04 -7.500822E+04  9.004817E+03  2.582535E+04
       183  25  5.572695E+04 -8.629872E+04 -7.802394E+04 -7.486418E+04  6.981531E+03  1.333734E+04
       183  26 -7.762167E+04 -1.192339E+05 -1.059669E+05 -3.732769E+04  1.006107E+04  1.962529E+04
       183  27 -2.102438E+05 -1.506967E+05 -1.315546E+05 -7.441468E+04  1.313480E+04  2.582289E+04
       184   1  1.159271E+06  1.844654E+05  1.893202E+05 -7.324238E+04 -6.558538E+03 -2.973661E+04
       184   2  1.289960E+06  2.165701E+05  2.302376E+05 -3.900937E+04 -2.036611E+04 -3.582583E+04
       184   3  1.426987E+06  2.650543E+05  2.843138E+05 -7.975632E+04 -3.416764E+04 -4.005924E+04
       184   4  4.073375E+05 -7.408267E+02  1.452170E+04 -7.509169E+04 -1.127850E+04 -2.973507E+04
       184   5  4.042483E+05 -1.505746E+03  2.470771E+04 -3.759691E+04 -2.382099E+04 -3.582794E+04
       184   6  4.072730E+05  1.390461E+04  4.719008E+04 -7.508805E+04 -3.635451E+04 -4.006389E+04
       184   7 -3.440748E+05 -1.859869E+05 -1.603148E+05 -7.693862E+04 -1.599279E+04 -2.973349E+04
       184   8 -4.807402E+05 -2.196368E+05 -1.808748E+05 -3.618638E+04 -2.727095E+04 -3.583007E+04
       184   9 -6.114826E+05 -2.373183E+05 -1.900037E+05 -7.042741E+04 -3.853777E+04 -4.006858E+04
       184  10  1.159271E+06  1.844644E+05  1.893185E+05 -7.324253E+04 -2.562026E-10  4.560079E-10
       184  11  1.289959E+06  2.165686E+05  2.302344E+05 -3.900996E+04  2.554404E-10  1.962513E-10
       184  12  1.426985E+06  2.650523E+05  2.843086E+05 -7.975742E+04 -9.819222E-10 -2.815995E-10
       184  13  4.073371E+05 -7.418105E+02  1.451980E+04 -7.509196E+04 -1.807767E-10  5.472154E-10
       184  14  4.042473E+05 -1.507277E+03  2.470423E+04 -3.759760E+04 -4.954741E-10  4.078180E-10
       184  15  4.072711E+05  1.390253E+04  4.718458E+04 -7.508922E+04  6.835294E-10 -4.030190E-10
       184  16 -3.440754E+05 -1.859879E+05 -1.603170E+05 -7.693901E+04 -2.560008E-10  5.647990E-10
       184  17 -4.807414E+05 -2.196384E+05 -1.808786E+05 -3.618717E+04 -6.186996E-10  4.427984E-11
       184  18 -6.114847E+05 -2.373204E+05 -1.900095E+05 -7.042866E+04 -2.195561E-10 -5.074379E-10
       184  19  1.159271E+06  1.844654E+05  1.893202E+05 -7.324238E+04  6.558538E+03  2.973661E+04
       184  20  1.289960E+06  2.165701E+05  2.302376E+05 -3.900937E+04  2.036611E+04  3.582583E+04
       184  21  1.426987E+06  2.650543E+05  2.843138E+05 -7.975632E+04  3.416764E+04  4.005924E+04
       184  22  4.073375E+05 -7.408267E+02  1.452170E+04 -7.509169E+04  1.127850E+04  2.973507E+04
       184  23  4.042483E+05 -1.505746E+03  2.470771E+04 -3.759691E+04  2.382099E+04  3.582794E+04
       184  24  4.072730E+05  1.390461E+04  4.719008E+04 -7.508805E+04  3.635451E+04  4.006389E+04
       184  25 -3.440748E+05 -1.859869E+05 -1.603148E+05 -7.693862E+04  1.599279E+04  2.973349E+04
       184  26 -4.807402E+05 -2.196368E+05 -1.808748E+05 -3.618638E+04  2.727095E+04  3.583007E+04
       184  27 -6.114826E+05 -2.373183E+05 -1.900037E+05 -7.042741E+04  3.853777E+04  4.006858E+04
       185   1  1.574719E+06  2.747120E+05  3.261292E+05 -4.921592E+04 -3.195556E+04 -4.814916E+04
       185   2  1.679841E+06  3.022312E+05  3.960871E+05 -5.827527E+04 -1.072448E+05 -5.009517E+04
       185   3  1.845687E+06  5.287560E+05  5.649739E+05 -1.420131E+05 -1.826016E+05 -1.666821E+04
       185   4  4.184433E+05 -9.827648E+03  5.846280E+04 -7.496746E+04 -4.509765E+04 -4.815716E+04
       185   5  3.900436E+05 -1.540932E+04  9.592737E+04 -3.773321E+04 -9.647336E+04 -5.009678E+04
       185   6  4.183248E+05  1.740837E+05  2.158586E+05 -7.517338E+04 -1.478972E+05 -1.664199E+04
       185   7 -7.365982E+05 -2.944586E+05 -2.092921E+05 -1.006708E+05 -5.821543E+04 -4.816409E+04
       185   8 -8.982207E+05 -3.331655E+05 -2.043440E+05 -1.723431E+04 -8.572395E+04 -5.009768E+04
       185   9 -1.007172E+06 -1.807214E+05 -1.333985E+05 -8.487773E+03 -1.132719E+05 -1.660831E+04
       185  10  1.574718E+06  2.747092E+05  3.261230E+05 -4.921716E+04 -7.534589E-10 -2.046087E-10
       185  11  1.679828E+06  3.022254E+05  3.960609E+05 -5.827959E+04  5.788134E-11  8.864504E-10
       185  12  1.845651E+06  5.287468E+05  5.649109E+05 -1.420156E+05  8.233633E-10 -1.003431E-10
       185  13  4.184405E+05 -9.830685E+03  5.845462E+04 -7.496921E+04 -8.314240E-10  2.077542E-10
       185  14  3.900330E+05 -1.541451E+04  9.590517E+04 -3.773710E+04 -1.152990E-09  1.793832E-09
       185  15  4.183013E+05  1.740776E+05  2.158170E+05 -7.517537E+04  1.011894E-09 -5.006221E-12
       185  16 -7.366025E+05 -2.944620E+05 -2.093028E+05 -1.006731E+05  5.205855E-10 -1.488568E-10
       185  17 -8.982293E+05 -3.331702E+05 -2.043625E+05 -1.723777E+04 -8.444796E-10  5.028097E-10
       185  18 -1.007186E+06 -1.807251E+05 -1.334231E+05 -8.489289E+03 -1.305308E-09 -3.683495E-10
       185  19  1.574719E+06  2.747120E+05  3.261292E+05 -4.921592E+04  3.195556E+04  4.814916E+04
       185  20  1.679841E+06  3.022312E+05  3.960871E+05 -5.827527E+04  1.072448E+05  5.009517E+04
       185  21  1.845687E+06  5.287560E+05  5.649739E+05 -1.420131E+05  1.826016E+05  1.666821E+04
       185  22  4.184433E+05 -9.827648E+03  5.846280E+04 -7.496746E+04  4.509765E+04  4.815716E+04
       185  23  3.900436E+05 -1.540932E+04  9.592737E+04 -3.773321E+04  9.647336E+04  5.009678E+04
       185  24  4.183248E+05  1.740837E+05  2.158586E+05 -7.517338E+04  1.478972E+05  1.664199E+04
       185  25 -7.365982E+05 -2.944586E+05 -2.092921E+05 -1.006708E+05  5.821543E+04  4.816409E+04
       185  26 -8.982207E+05 -3.331655E+05 -2.043440E+05 -1.723431E+04  8.572395E+04  5.009768E+04
       185  27 -1.007172E+06 -1.807214E+05 -1.333985E+05 -8.487773E+03  1.132719E+05  1.660831E+04
       186   1  2.244749E+05  6.994421E+05  2.470082E+05 -1.872457E+05  3.607878E+03  9.348733E+04
       186   2  4.601474E+04  4.232024E+05  1.105894E+05 -8.656096E+04  7.848882E+03  5.227341E+04
       186   3 -1.371446E+04  1.810081E+05  3.044435E+04 -1.305603E+05 -2.330738E+03  1.103218E+04
       186   4  1.044068E+05  2.188001E+05  1.285649E+05 -1.454910E+05  3.637966E+03  8.584238E+04
       186   5 -8.503520E+03  2.026531E+05  5.896049E+04 -7.331875E+04  7.843606E+03  5.434771E+04
       186   6 -4.336257E+03  2.188372E+05  3.891956E+04 -1.458215E+05 -2.369984E+03  2.280858E+04
       186   7 -1.567209E+04 -2.616284E+05  1.010557E+04 -1.037685E+05  3.667041E+03  7.820332E+04
       186   8 -6.302460E+04 -1.785115E+04  7.328347E+03 -6.008124E+04  7.838417E+03  5.642126E+04
       186   9  5.042794E+03  2.566685E+05  4.739532E+04 -1.610837E+05 -2.409808E+03  3.458569E+04
       186  10  2.244725E+05  6.994328E+05  2.469918E+05 -1.872459E+05  6.520201E-10  6.031365E-10
       186  11  4.601394E+04  4.231995E+05  1.105842E+05 -8.656129E+04 -8.327052E-10 -4.697471E-11
       186  12 -1.371450E+04  1.810080E+05  3.044411E+04 -1.305602E+05 -1.173169E-09 -6.138985E-10
       186  13  1.044048E+05  2.187922E+05  1.285510E+05 -1.454913E+05  1.753029E-09 -7.124169E-10
       186  14 -8.504378E+03  2.026499E+05  5.895482E+04 -7.331909E+04  1.431438E-09  6.082504E-11
       186  15 -4.336402E+03  2.188367E+05  3.891857E+04 -1.458215E+05 -7.318536E-11  6.403237E-10
       186  16 -1.567375E+04 -2.616349E+05  1.009404E+04 -1.037688E+05  3.874472E-10 -6.110581E-10
       186  17 -6.302552E+04 -1.785458E+04  7.322249E+03 -6.008160E+04  4.473867E-09  6.490739E-10
       186  18  5.042467E+03  2.566672E+05  4.739307E+04 -1.610837E+05 -8.342496E-11  2.282574E-09
       186  19  2.244749E+05  6.994421E+05  2.470082E+05 -1.872457E+05 -3.607878E+03 -9.348733E+04
       186  20  4.601474E+04  4.232024E+05  1.105894E+05 -8.656096E+04 -7.848882E+03 -5.227341E+04
       186  21 -1.371446E+04  1.810081E+05  3.044435E+04 -1.305603E+05  2.330738E+03 -1.103218E+04
       186  22  1.044068E+05  2.188001E+05  1.285649E+05 -1.454910E+05 -3.637966E+03 -8.584238E+04
       186  23 -8.503520E+03  2.026531E+05  5.896049E+04 -7.331875E+04 -7.843606E+03 -5.434771E+04
       186  24 -4.336257E+03  2.188372E+05  3.891956E+04 -1.458215E+05  2.369984E+03 -2.280858E+04
       186  25 -1.567209E+04 -2.616284E+05  1.010557E+04 -1.037685E+05 -3.667041E+03 -7.820332E+04
       186  26 -6.302460E+04 -1.785115E+04  7.328347E+03 -6.008124E+04 -7.838417E+03 -5.642126E+04
       186  27  5.042794E+03  2.566685E+05  4.739532E+04 -1.610837E+05  2.409808E+03 -3.458569E+04
       187   1 -6.515481E+04 -8.792867E+04 -3.645064E+04 -1.488574E+05 -1.153996E+04  8.754998E+03
       187   2 -1.390076E+05 -3.496373E+05 -1.054576E+05 -7.220216E+04 -2.264995E+04 -2.814552E+03
       187   3 -1.960211E+05 -6.063724E+05 -1.629134E+05 -1.409046E+05 -3.235875E+04 -1.436505E+04
       187   4  8.977453E+03  2.127554E+05  3.367412E+04 -1.458637E+05 -1.156555E+04  1.672216E+04
       187   5 -1.017925E+03  2.101824E+05  2.459782E+04 -7.319470E+04 -2.266928E+04  4.203101E+03
       187   6  5.988038E+03  2.126822E+05  2.773120E+04 -1.458737E+05 -3.237248E+04 -8.301617E+03
       187   7  8.310340E+04  5.135229E+05  1.037930E+05 -1.428685E+05 -1.159106E+04  2.469316E+04
       187   8  1.369497E+05  7.702916E+05  1.546324E+05 -7.418791E+04 -2.268863E+04  1.122704E+04
       187   9  2.079498E+05  1.032356E+06  2.183307E+05 -1.508489E+05 -3.238631E+04 -2.230226E+03
       187  10 -6.515497E+04 -8.792879E+04 -3.645104E+04 -1.488574E+05 -1.354607E-09 -5.433361E-10
       187  11 -1.390081E+05 -3.496375E+05 -1.054586E+05 -7.220221E+04 -1.712324E-09 -7.094333E-13
       187  12 -1.960222E+05 -6.063729E+05 -1.629158E+05 -1.409050E+05 -1.571883E-10  8.082180E-10
       187  13  8.977234E+03  2.127550E+05  3.367334E+04 -1.458636E+05 -1.097341E-09 -7.776862E-10
       187  14 -1.018481E+03  2.101822E+05  2.459682E+04 -7.319462E+04 -6.967138E-10 -4.620619E-11
       187  15  5.986894E+03  2.126818E+05  2.772910E+04 -1.458739E+05 -9.415225E-10  4.338737E-10
       187  16  8.310309E+04  5.135223E+05  1.037916E+05 -1.428682E+05 -9.553532E-10  6.672006E-10
       187  17  1.369491E+05  7.702913E+05  1.546312E+05 -7.418770E+04 -2.833686E-09  7.362932E-10
       187  18  2.079487E+05  1.032356E+06  2.183287E+05 -1.508490E+05 -1.005063E-09  4.824789E-10
       187  19 -6.515481E+04 -8.792867E+04 -3.645064E+04 -1.488574E+05  1.153996E+04 -8.754998E+03
       187  20 -1.390076E+05 -3.496373E+05 -1.054576E+05 -7.220216E+04  2.264995E+04  2.814552E+03
       187  21 -1.960211E+05 -6.063724E+05 -1.629134E+05 -1.409046E+05  3.235875E+04  1.436505E+04
       187  22  8.977453E+03  2.127554E+05  3.367412E+04 -1.458637E+05  1.156555E+04 -1.672216E+04
       187  23 -1.017925E+03  2.101824E+05  2.459782E+04 -7.319470E+04  2.266928E+04 -4.203101E+03
       187  24  5.988038E+03  2.126822E+05  2.773120E+04 -1.458737E+05  3.237248E+04  8.301617E+03
       187  25  8.310340E+04  5.135229E+05  1.037930E+05 -1.428685E+05  1.159106E+04 -2.469316E+04
       187  26  1.369497E+05  7.702916E+05  1.546324E+05 -7.418791E+04  2.268863E+04 -1.122704E+04
       187  27  2.079498E+05  1.032356E+06  2.183307E+05 -1.508489E+05  3.238631E+04  2.230226E+03
       188   1 -2.694874E+05 -8.655146E+05 -2.206831E+05 -1.543462E+05 -4.466205E+04 -3.174872E+04
       188   2 -3.371226E+05 -1.135241E+06 -2.699541E+05 -6.273640E+04 -5.172348E+04 -2.681145E+04
       188   3 -3.266865E+05 -1.385458E+06 -3.028118E+05 -1.154526E+05 -1.763055E+04 -2.181579E+04
       188   4 -2.769783E+03  2.168073E+05  3.041787E+04 -1.456800E+05 -4.470373E+04 -1.322620E+04
       188   5 -6.447435E+03  2.046183E+05  4.255778E+04 -7.347248E+04 -5.169858E+04 -3.594214E+04
       188   6  7.265997E+04  2.166249E+05  9.028115E+04 -1.455647E+05 -1.757877E+04 -5.859805E+04
       188   7  2.638658E+05  1.300213E+06  2.814416E+05 -1.369978E+05 -4.474486E+04  5.328439E+03
       188   8  3.241010E+05  1.546135E+06  3.549484E+05 -8.423107E+04 -5.167340E+04 -4.509235E+04
       188   9  4.718200E+05  1.821053E+06  4.831912E+05 -1.757537E+05 -1.752350E+04 -9.547505E+04
       188  10 -2.694898E+05 -8.655162E+05 -2.206888E+05 -1.543474E+05 -2.273936E-10  1.039059E-09
       188  11 -3.371257E+05 -1.135242E+06 -2.699605E+05 -6.273752E+04  9.869216E-10  6.646573E-10
       188  12 -3.266870E+05 -1.385458E+06 -3.028133E+05 -1.154530E+05 -2.799078E-12 -2.793439E-10
       188  13 -2.771976E+03  2.168065E+05  3.041378E+04 -1.456805E+05  5.010890E-10 -6.564955E-10
       188  14 -6.450652E+03  2.046161E+05  4.255033E+04 -7.347398E+04  3.844194E-10  2.845607E-11
       188  15  7.265871E+04  2.166212E+05  9.027411E+04 -1.455655E+05  4.363369E-10  2.033797E-10
       188  16  2.638637E+05  1.300212E+06  2.814378E+05 -1.369976E+05 -1.784783E-09 -9.036580E-10
       188  17  3.240976E+05  1.546132E+06  3.549396E+05 -8.423295E+04  1.134758E-09 -2.612073E-10
       188  18  4.718172E+05  1.821043E+06  4.831736E+05 -1.757551E+05  6.349713E-10  8.160042E-10
       188  19 -2.694874E+05 -8.655146E+05 -2.206831E+05 -1.543462E+05  4.466205E+04  3.174872E+04
       188  20 -3.371226E+05 -1.135241E+06 -2.699541E+05 -6.273640E+04  5.172348E+04  2.681145E+04
       188  21 -3.266865E+05 -1.385458E+06 -3.028118E+05 -1.154526E+05  1.763055E+04  2.181579E+04
       188  22 -2.769783E+03  2.168073E+05  3.041787E+04 -1.456800E+05  4.470373E+04  1.322620E+04
       188  23 -6.447435E+03  2.046183E+05  4.255778E+04 -7.347248E+04  5.169858E+04  3.594214E+04
       188  24  7.265997E+04  2.166249E+05  9.028115E+04 -1.455647E+05  1.757877E+04  5.859805E+04
       188  25  2.638658E+05  1.300213E+06  2.814416E+05 -1.369978E+05  4.474486E+04 -5.328439E+03
       188  26  3.241010E+05  1.546135E+06  3.549484E+05 -8.423107E+04  5.167340E+04  4.509235E+04
       188  27  4.718200E+05  1.821053E+06  4.831912E+05 -1.757537E+05  1.752350E+04  9.547505E+04
       189   1 -3.395817E+06 -1.223251E+06 -7.771291E+05 -1.202209E+06 -3.144798E+05 -1.009975E+05
       189   2 -3.284551E+06 -7.570406E+05 -4.840709E+05 -1.198253E+06 -2.052271E+05 -2.304080E+04
       189   3 -3.292084E+06 -7.041397E+05 -3.843710E+05 -1.140721E+06 -8.337070E+04  2.162541E+04
       189   4 -2.233803E+06 -6.628045E+05 -4.385783E+05 -7.618065E+05 -2.843021E+05 -8.967124E+04
       189   5 -2.153002E+06 -2.944317E+05 -1.856680E+05 -8.503677E+05 -1.957302E+05 -1.948023E+04
       189   6 -2.186618E+06 -3.348572E+05 -1.094005E+05 -8.854301E+05 -9.457714E+04  1.740570E+04
       189   7 -1.070437E+06 -1.020074E+05 -1.001541E+05 -3.205702E+05 -2.540617E+05 -7.830648E+04
       189   8 -1.020195E+06  1.683248E+05  1.126244E+05 -5.018819E+05 -1.862141E+05 -1.591094E+04
       189   9 -1.079960E+06  3.444302E+04  1.654763E+05 -6.297543E+05 -1.058054E+05  1.317988E+04
       189  10 -3.395926E+06 -1.223289E+06 -7.773354E+05 -1.202235E+06  1.468601E-09 -3.897063E-10
       189  11 -3.284597E+06 -7.570526E+05 -4.841515E+05 -1.198257E+06  1.628940E-09 -1.469600E-09
       189  12 -3.292091E+06 -7.041421E+05 -3.843850E+05 -1.140719E+06 -7.940545E-10 -8.659650E-11
       189  13 -2.233893E+06 -6.628350E+05 -4.387459E+05 -7.618271E+05 -3.022344E-10 -2.784691E-10
       189  14 -2.153044E+06 -2.944425E+05 -1.857410E+05 -8.503708E+05  1.483230E-10 -1.047343E-09
       189  15 -2.186628E+06 -3.348600E+05 -1.094180E+05 -8.854287E+05  9.909013E-10  1.828548E-10
       189  16 -1.070508E+06 -1.020314E+05 -1.002872E+05 -3.205862E+05 -1.526441E-09 -2.439071E-10
       189  17 -1.020232E+06  1.683152E+05  1.125587E+05 -5.018843E+05  1.960775E-09 -4.846401E-10
       189  18 -1.079972E+06  3.443983E+04  1.654549E+05 -6.297532E+05  3.016775E-10  8.544732E-10
       189  19 -3.395817E+06 -1.223251E+06 -7.771291E+05 -1.202209E+06  3.144798E+05  1.009975E+05
       189  20 -3.284551E+06 -7.570406E+05 -4.840709E+05 -1.198253E+06  2.052271E+05  2.304080E+04
       189  21 -3.292084E+06 -7.041397E+05 -3.843710E+05 -1.140721E+06  8.337070E+04 -2.162541E+04
       189  22 -2.233803E+06 -6.628045E+05 -4.385783E+05 -7.618065E+05  2.843021E+05  8.967124E+04
       189  23 -2.153002E+06 -2.944317E+05 -1.856680E+05 -8.503677E+05  1.957302E+05  1.948023E+04
       189  24 -2.186618E+06 -3.348572E+05 -1.094005E+05 -8.854301E+05  9.457714E+04 -1.740570E+04
       189  25 -1.070437E+06 -1.020074E+05 -1.001541E+05 -3.205702E+05  2.540617E+05  7.830648E+04
       189  26 -1.020195E+06  1.683248E+05  1.126244E+05 -5.018819E+05  1.862141E+05  1.591094E+04
       189  27 -1.079960E+06  3.444302E+04  1.654763E+05 -6.297543E+05  1.058054E+05 -1.317988E+04
       190   1 -3.137189E+06 -7.487540E+05 -3.386888E+05 -1.135712E+06 -7.601813E+04  1.645905E+04
       190   2 -3.057656E+06 -6.557104E+05 -2.687706E+05 -1.089099E+06 -5.135058E+04  2.271240E+04
       190   3 -2.951149E+06 -6.376283E+05 -2.253896E+05 -1.082345E+06 -2.592113E+04  2.693113E+04
       190   4 -2.171713E+06 -3.769042E+05 -8.817918E+04 -8.623319E+05 -7.710973E+04  1.604199E+04
       190   5 -2.183252E+06 -3.251992E+05 -4.363905E+04 -8.477781E+05 -5.368213E+04  2.183197E+04
       190   6 -2.167558E+06 -3.481747E+05 -2.461747E+04 -8.730869E+05 -2.949702E+04  2.558666E+04
       190   7 -1.205322E+06 -4.980689E+03  1.622533E+05 -5.885598E+05 -7.820314E+04  1.562421E+04
       190   8 -1.308098E+06  5.364374E+03  1.814297E+05 -6.061471E+05 -5.601726E+04  2.095017E+04
       190   9 -1.383368E+06 -5.868680E+04  1.761045E+05 -6.635911E+05 -3.307786E+04  2.424039E+04
       190  10 -3.137195E+06 -7.487558E+05 -3.387002E+05 -1.135711E+06 -9.123560E-10  6.105431E-10
       190  11 -3.057659E+06 -6.557117E+05 -2.687765E+05 -1.089098E+06 -1.099942E-09 -9.001462E-11
       190  12 -2.951150E+06 -6.376293E+05 -2.253922E+05 -1.082344E+06 -1.396869E-09 -1.264945E-09
       190  13 -2.171720E+06 -3.769061E+05 -8.819086E+04 -8.623309E+05 -6.049406E-10  6.739994E-10
       190  14 -2.183255E+06 -3.252005E+05 -4.364537E+04 -8.477771E+05 -3.961743E-10 -7.153059E-11
       190  15 -2.167560E+06 -3.481756E+05 -2.462033E+04 -8.730863E+05 -2.196397E-09 -1.160381E-09
       190  16 -1.205328E+06 -4.982594E+03  1.622413E+05 -5.885588E+05  3.577121E-10  2.134888E-10
       190  17 -1.308101E+06  5.363060E+03  1.814230E+05 -6.061461E+05 -6.503071E-10 -2.580755E-10
       190  18 -1.383369E+06 -5.868772E+04  1.761013E+05 -6.635905E+05 -3.322821E-09 -1.547246E-09
       190  19 -3.137189E+06 -7.487540E+05 -3.386888E+05 -1.135712E+06  7.601813E+04 -1.645905E+04
       190  20 -3.057656E+06 -6.557104E+05 -2.687706E+05 -1.089099E+06  5.135058E+04 -2.271240E+04
       190  21 -2.951149E+06 -6.376283E+05 -2.253896E+05 -1.082345E+06  2.592113E+04 -2.693113E+04
       190  22 -2.171713E+06 -3.769042E+05 -8.817918E+04 -8.623319E+05  7.710973E+04 -1.604199E+04
       190  23 -2.183252E+06 -3.251992E+05 -4.363905E+04 -8.477781E+05  5.368213E+04 -2.183197E+04
       190  24 -2.167558E+06 -3.481747E+05 -2.461747E+04 -8.730869E+05  2.949702E+04 -2.558666E+04
       190  25 -1.205322E+06 -4.980689E+03  1.622533E+05 -5.885598E+05  7.820314E+04 -1.562421E+04
       190  26 -1.308098E+06  5.364374E+03  1.814297E+05 -6.061471E+05  5.601726E+04 -2.095017E+04
       190  27 -1.383368E+06 -5.868680E+04  1.761045E+05 -6.635911E+05  3.307786E+04 -2.424039E+04
       191   1 -2.838893E+06 -6.049644E+05 -1.917132E+05 -1.055647E+06 -2.179612E+04  2.489994E+04
       191   2 -2.758894E+06 -5.416954E+05 -1.570204E+05 -1.002881E+06 -1.474715E+04  2.192332E+04
       191   3 -2.636198E+06 -5.255324E+05 -1.269298E+05 -1.000201E+06 -7.632266E+03  1.875623E+04
       191   4 -2.165517E+06 -3.522117E+05 -1.900620E+04 -8.715236E+05 -2.483442E+04  2.375850E+04
       191   5 -2.186673E+06 -3.273836E+05 -1.010488E+04 -8.469545E+05 -1.789904E+04  2.074115E+04
       191   6 -2.165118E+06 -3.496349E+05 -5.710973E+03 -8.724723E+05 -1.089868E+04  1.753310E+04
       191   7 -1.491700E+06 -9.943072E+04  1.536629E+05 -6.872196E+05 -2.787633E+04  2.261571E+04
       191   8 -1.614131E+06 -1.130512E+05  1.367837E+05 -6.908976E+05 -2.105411E+04  1.955779E+04
       191   9 -1.693820E+06 -1.737232E+05  1.154901E+05 -7.446557E+05 -1.416782E+04  1.630895E+04
       191  10 -2.838894E+06 -6.049652E+05 -1.917152E+05 -1.055646E+06 -2.952645E-09 -8.605708E-10
       191  11 -2.758895E+06 -5.416960E+05 -1.570217E+05 -1.002881E+06 -5.745216E-10  1.353762E-09
       191  12 -2.636198E+06 -5.255327E+05 -1.269306E+05 -1.000201E+06  2.757785E-10  6.736172E-10
       191  13 -2.165518E+06 -3.522125E+05 -1.900842E+04 -8.715231E+05 -2.350612E-09 -9.044937E-10
       191  14 -2.186673E+06 -3.273842E+05 -1.010629E+04 -8.469542E+05 -4.396792E-10  9.426717E-10
       191  15 -2.165118E+06 -3.496352E+05 -5.711773E+03 -8.724722E+05  2.550855E-10 -3.320423E-11
       191  16 -1.491701E+06 -9.943148E+04  1.536605E+05 -6.872190E+05 -2.297706E-09 -8.025233E-10
       191  17 -1.614132E+06 -1.130517E+05  1.367822E+05 -6.908972E+05  4.189291E-10 -4.667630E-10
       191  18 -1.693820E+06 -1.737235E+05  1.154892E+05 -7.446555E+05  1.631570E-10 -3.984737E-10
       191  19 -2.838893E+06 -6.049644E+05 -1.917132E+05 -1.055647E+06  2.179612E+04 -2.489994E+04
       191  20 -2.758894E+06 -5.416954E+05 -1.570204E+05 -1.002881E+06  1.474715E+04 -2.192332E+04
       191  21 -2.636198E+06 -5.255324E+05 -1.269298E+05 -1.000201E+06  7.632266E+03 -1.875623E+04
       191  22 -2.165517E+06 -3.522117E+05 -1.900620E+04 -8.715236E+05  2.483442E+04 -2.375850E+04
       191  23 -2.186673E+06 -3.273836E+05 -1.010488E+04 -8.469545E+05  1.789904E+04 -2.074115E+04
       191  24 -2.165118E+06 -3.496349E+05 -5.710973E+03 -8.724723E+05  1.089868E+04 -1.753310E+04
       191  25 -1.491700E+06 -9.943072E+04  1.536629E+05 -6.872196E+05  2.787633E+04 -2.261571E+04
       191  26 -1.614131E+06 -1.130512E+05  1.367837E+05 -6.908976E+05  2.105411E+04 -1.955779E+04
       191  27 -1.693820E+06 -1.737232E+05  1.154901E+05 -7.446557E+05  1.416782E+04 -1.630895E+04
       192   1 -2.523966E+06 -4.845657E+05 -9.627056E+04 -9.704032E+05 -5.673317E+03  1.602990E+04
       192   2 -2.441836E+06 -4.223990E+05 -6.803165E+04 -9.157509E+05 -2.341642E+03  1.132676E+04
       192   3 -2.314446E+06 -4.060114E+05 -4.088617E+04 -9.133805E+05  1.002902E+03  6.581704E+03
       192   4 -2.164650E+06 -3.502230E+05 -4.437562E+03 -8.726206E+05 -8.933898E+03  1.480987E+04
       192   5 -2.187252E+06 -3.272078E+05 -2.709515E+03 -8.465230E+05 -5.627697E+03  1.009804E+04
       192   6 -2.164599E+06 -3.499656E+05 -2.053433E+03 -8.727098E+05 -2.308906E+03  5.344249E+03
       192   7 -1.805209E+06 -2.158721E+05  8.738493E+04 -7.747866E+05 -1.219655E+04  1.358907E+04
       192   8 -1.932604E+06 -2.320128E+05  6.260721E+04 -7.772695E+05 -8.915227E+03  8.868760E+03
       192   9 -2.014730E+06 -2.939186E+05  3.677732E+04 -8.320304E+05 -5.621580E+03  4.106470E+03
       192  10 -2.523966E+06 -4.845660E+05 -9.627110E+04 -9.704031E+05 -3.047231E-10 -5.461852E-10
       192  11 -2.441836E+06 -4.223991E+05 -6.803190E+04 -9.157509E+05  4.012996E-10  9.519975E-10
       192  12 -2.314446E+06 -4.060114E+05 -4.088625E+04 -9.133805E+05  9.070627E-10  7.194728E-10
       192  13 -2.164651E+06 -3.502232E+05 -4.438123E+03 -8.726205E+05  8.324618E-11 -2.197915E-10
       192  14 -2.187252E+06 -3.272080E+05 -2.709765E+03 -8.465230E+05 -3.484920E-10  9.935395E-10
       192  15 -2.164599E+06 -3.499656E+05 -2.053496E+03 -8.727098E+05  1.241078E-09  1.698626E-09
       192  16 -1.805209E+06 -2.158724E+05  8.738430E+04 -7.747864E+05  9.423483E-10 -1.462779E-10
       192  17 -1.932604E+06 -2.320129E+05  6.260691E+04 -7.772694E+05  1.656216E-09  3.638475E-10
       192  18 -2.014730E+06 -2.939186E+05  3.677723E+04 -8.320304E+05 -1.171447E-09 -1.542887E-09
       192  19 -2.523966E+06 -4.845657E+05 -9.627056E+04 -9.704032E+05  5.673317E+03 -1.602990E+04
       192  20 -2.441836E+06 -4.223990E+05 -6.803165E+04 -9.157509E+05  2.341642E+03 -1.132676E+04
       192  21 -2.314446E+06 -4.060114E+05 -4.088617E+04 -9.133805E+05 -1.002902E+03 -6.581704E+03
       192  22 -2.164650E+06 -3.502230E+05 -4.437562E+03 -8.726206E+05  8.933898E+03 -1.480987E+04
       192  23 -2.187252E+06 -3.272078E+05 -2.709515E+03 -8.465230E+05  5.627697E+03 -1.009804E+04
       192  24 -2.164599E+06 -3.499656E+05 -2.053433E+03 -8.727098E+05  2.308906E+03 -5.344249E+03
       192  25 -1.805209E+06 -2.158721E+05  8.738493E+04 -7.747866E+05  1.219655E+04 -1.358907E+04
       192  26 -1.932604E+06 -2.320128E+05  6.260721E+04 -7.772695E+05  8.915227E+03 -8.868760E+03
       192  27 -2.014730E+06 -2.939186E+05  3.677732E+04 -8.320304E+05  5.621580E+03 -4.106470E+03
       193   1 -2.200708E+06 -3.635297E+05 -1.090861E+04 -8.826854E+05  2.494659E+03  3.631044E+03
       193   2 -2.117992E+06 -3.012104E+05  1.531170E+04 -8.275953E+05  5.692128E+03 -1.193665E+03
       193   3 -1.989747E+06 -2.849334E+05  4.055040E+04 -8.251666E+05  8.885003E+03 -6.003270E+03
       193   4 -2.164537E+06 -3.500397E+05 -2.015571E+03 -8.727873E+05 -8.234735E+02  2.391437E+03
       193   5 -2.187309E+06 -3.271028E+05 -2.465936E+03 -8.464227E+05  2.382940E+03 -2.430201E+03
       193   6 -2.164565E+06 -3.502120E+05 -3.905036E+03 -8.727250E+05  5.584510E+03 -7.236767E+03
       193   7 -2.128364E+06 -3.365496E+05  6.877451E+03 -8.628886E+05 -4.141829E+03  1.151747E+03
       193   8 -2.256621E+06 -3.529950E+05 -2.024396E+04 -8.652483E+05 -9.258496E+02 -3.666588E+03
       193   9 -2.339354E+06 -4.154887E+05 -4.836291E+04 -9.202713E+05  2.285035E+03 -8.469884E+03
       193  10 -2.200708E+06 -3.635297E+05 -1.090864E+04 -8.826854E+05  2.860142E-10  1.207269E-09
       193  11 -2.117993E+06 -3.012104E+05  1.531164E+04 -8.275953E+05 -3.818595E-10 -4.770302E-10
       193  12 -1.989747E+06 -2.849334E+05  4.055019E+04 -8.251665E+05  7.384677E-10 -3.295261E-10
       193  13 -2.164537E+06 -3.500397E+05 -2.015583E+03 -8.727873E+05 -1.091828E-10 -5.254783E-10
       193  14 -2.187309E+06 -3.271028E+05 -2.465958E+03 -8.464227E+05  6.440272E-10  3.056880E-09
       193  15 -2.164565E+06 -3.502120E+05 -3.905193E+03 -8.727250E+05  4.152395E-10  9.058528E-10
       193  16 -2.128364E+06 -3.365496E+05  6.877416E+03 -8.628886E+05 -1.011372E-09 -6.203980E-10
       193  17 -2.256621E+06 -3.529950E+05 -2.024399E+04 -8.652483E+05  3.665820E-10  1.867371E-09
       193  18 -2.339354E+06 -4.154888E+05 -4.836305E+04 -9.202713E+05 -6.238977E-10 -1.336043E-11
       193  19 -2.200708E+06 -3.635297E+05 -1.090861E+04 -8.826854E+05 -2.494659E+03 -3.631044E+03
       193  20 -2.117992E+06 -3.012104E+05  1.531170E+04 -8.275953E+05 -5.692128E+03  1.193665E+03
       193  21 -1.989747E+06 -2.849334E+05  4.055040E+04 -8.251666E+05 -8.885003E+03  6.003270E+03
       193  22 -2.164537E+06 -3.500397E+05 -2.015571E+03 -8.727873E+05  8.234735E+02 -2.391437E+03
       193  23 -2.187309E+06 -3.271028E+05 -2.465936E+03 -8.464227E+05 -2.382940E+03  2.430201E+03
       193  24 -2.164565E+06 -3.502120E+05 -3.905036E+03 -8.727250E+05 -5.584510E+03  7.236767E+03
       193  25 -2.128364E+06 -3.365496E+05  6.877451E+03 -8.628886E+05  4.141829E+03 -1.151747E+03
       193  26 -2.256621E+06 -3.529950E+05 -2.024396E+04 -8.652483E+05  9.258496E+02  3.666588E+03
       193  27 -2.339354E+06 -4.154887E+05 -4.836291E+04 -9.202713E+05 -2.285035E+03  8.469884E+03
       194   1 -1.876741E+06 -2.423895E+05  6.923870E+04 -7.947525E+05  1.077694E+04 -8.798243E+03
       194   2 -1.795299E+06 -1.806159E+05  9.170347E+04 -7.400421E+05  1.703989E+04 -1.238979E+04
       194   3 -1.670178E+06 -1.664078E+05  1.103044E+05 -7.366082E+05  2.325132E+04 -1.582944E+04
       194   4 -2.164889E+06 -3.498021E+05 -4.993845E+03 -8.727052E+05  7.461646E+03 -1.003778E+04
       194   5 -2.186882E+06 -3.271084E+05 -8.751300E+03 -8.466586E+05  1.381625E+04 -1.359640E+04
       194   6 -2.165226E+06 -3.520024E+05 -1.644675E+04 -8.718947E+05  2.011853E+04 -1.700333E+04
       194   7 -2.452956E+06 -4.572094E+05 -7.923293E+04 -9.506249E+05  4.148056E+03 -1.127669E+04
       194   8 -2.578316E+06 -4.735914E+05 -1.092186E+05 -9.532140E+05  1.059484E+04 -1.480218E+04
       194   9 -2.660036E+06 -5.375819E+05 -1.432185E+05 -1.007084E+06  1.698847E+04 -1.817619E+04
       194  10 -1.876741E+06 -2.423896E+05  6.923834E+04 -7.947524E+05  6.044089E-10 -1.366007E-10
       194  11 -1.795299E+06 -1.806161E+05  9.170264E+04 -7.400420E+05 -1.380385E-09 -1.699177E-10
       194  12 -1.670179E+06 -1.664083E+05  1.103030E+05 -7.366079E+05 -7.994023E-10  5.200201E-10
       194  13 -2.164889E+06 -3.498023E+05 -4.994139E+03 -8.727052E+05  3.862673E-11 -1.653261E-11
       194  14 -2.186883E+06 -3.271087E+05 -8.752006E+03 -8.466584E+05 -7.534807E-10  6.955699E-10
       194  15 -2.165226E+06 -3.520028E+05 -1.644805E+04 -8.718944E+05 -6.766785E-10  6.639192E-10
       194  16 -2.452956E+06 -4.572095E+05 -7.923320E+04 -9.506249E+05  5.175071E-10  4.239810E-10
       194  17 -2.578317E+06 -4.735916E+05 -1.092192E+05 -9.532139E+05  8.605262E-10  1.004431E-09
       194  18 -2.660036E+06 -5.375823E+05 -1.432196E+05 -1.007083E+06  8.904639E-11  1.620376E-09
       194  19 -1.876741E+06 -2.423895E+05  6.923870E+04 -7.947525E+05 -1.077694E+04  8.798243E+03
       194  20 -1.795299E+06 -1.806159E+05  9.170347E+04 -7.400421E+05 -1.703989E+04  1.238979E+04
       194  21 -1.670178E+06 -1.664078E+05  1.103044E+05 -7.366082E+05 -2.325132E+04  1.582944E+04
       194  22 -2.164889E+06 -3.498021E+05 -4.993845E+03 -8.727052E+05 -7.461646E+03  1.003778E+04
       194  23 -2.186882E+06 -3.271084E+05 -8.751300E+03 -8.466586E+05 -1.381625E+04  1.359640E+04
       194  24 -2.165226E+06 -3.520024E+05 -1.644675E+04 -8.718947E+05 -2.011853E+04  1.700333E+04
       194  25 -2.452956E+06 -4.572094E+05 -7.923293E+04 -9.506249E+05 -4.148056E+03  1.127669E+04
       194  26 -2.578316E+06 -4.735914E+05 -1.092186E+05 -9.532140E+05 -1.059484E+04  1.480218E+04
       194  27 -2.660036E+06 -5.375819E+05 -1.432185E+05 -1.007084E+06 -1.698847E+04  1.817619E+04
       195   1 -1.558993E+06 -1.247357E+05  1.343034E+05 -7.115596E+05  2.794479E+04 -1.770703E+04
       195   2 -1.480856E+06 -5.972237E+04  1.430987E+05 -6.533544E+05  4.805973E+04 -1.570128E+04
       195   3 -1.371993E+06 -6.618133E+04  1.306814E+05 -6.379091E+05  6.751580E+04 -1.191202E+04
       195   4 -2.166943E+06 -3.485720E+05 -2.129683E+04 -8.733104E+05  2.433071E+04 -1.906218E+04
       195   5 -2.183976E+06 -3.251341E+05 -3.771399E+04 -8.472866E+05  4.554227E+04 -1.664811E+04
       195   6 -2.170522E+06 -3.734134E+05 -7.623418E+04 -8.640294E+05  6.609147E+04 -1.245109E+04
       195   7 -2.774533E+06 -5.723881E+05 -1.769272E+05 -1.034919E+06  2.072050E+04 -2.041594E+04
       195   8 -2.886611E+06 -5.905121E+05 -2.185671E+05 -1.041018E+06  4.302792E+04 -1.759376E+04
       195   9 -2.968424E+06 -6.805948E+05 -2.832023E+05 -1.089882E+06  6.466911E+04 -1.298939E+04
       195  10 -1.558994E+06 -1.247363E+05  1.343014E+05 -7.115592E+05 -2.804472E-10  2.273328E-10
       195  11 -1.480859E+06 -5.972326E+04  1.430939E+05 -6.533538E+05  4.032452E-10 -3.964161E-10
       195  12 -1.371998E+06 -6.618271E+04  1.306725E+05 -6.379084E+05  8.716492E-10 -7.930717E-11
       195  13 -2.166944E+06 -3.485725E+05 -2.129862E+04 -8.733100E+05 -4.591216E-10  1.353889E-09
       195  14 -2.183978E+06 -3.251350E+05 -3.771842E+04 -8.472860E+05  1.348692E-09  3.711086E-10
       195  15 -2.170526E+06 -3.734147E+05 -7.624270E+04 -8.640288E+05 -4.767686E-10 -3.879896E-10
       195  16 -2.774534E+06 -5.723887E+05 -1.769288E+05 -1.034919E+06 -8.226394E-10  1.106707E-09
       195  17 -2.886613E+06 -5.905129E+05 -2.185712E+05 -1.041018E+06  2.430973E-10  6.391295E-10
       195  18 -2.968429E+06 -6.805961E+05 -2.832105E+05 -1.089881E+06 -5.850878E-11 -7.685465E-10
       195  19 -1.558993E+06 -1.247357E+05  1.343034E+05 -7.115596E+05 -2.794479E+04  1.770703E+04
       195  20 -1.480856E+06 -5.972237E+04  1.430987E+05 -6.533544E+05 -4.805973E+04  1.570128E+04
       195  21 -1.371993E+06 -6.618133E+04  1.306814E+05 -6.379091E+05 -6.751580E+04  1.191202E+04
       195  22 -2.166943E+06 -3.485720E+05 -2.129683E+04 -8.733104E+05 -2.433071E+04  1.906218E+04
       195  23 -2.183976E+06 -3.251341E+05 -3.771399E+04 -8.472866E+05 -4.554227E+04  1.664811E+04
       195  24 -2.170522E+06 -3.734134E+05 -7.623418E+04 -8.640294E+05 -6.609147E+04  1.245109E+04
       195  25 -2.774533E+06 -5.723881E+05 -1.769272E+05 -1.034919E+06 -2.072050E+04  2.041594E+04
       195  26 -2.886611E+06 -5.905121E+05 -2.185671E+05 -1.041018E+06 -4.302792E+04  1.759376E+04
       195  27 -2.968424E+06 -6.805948E+05 -2.832023E+05 -1.089882E+06 -6.466911E+04  1.298939E+04
       196   1 -1.245768E+06 -2.536601E+04  1.381442E+05 -6.687435E+05  9.177139E+04 -1.030961E+04
       196   2 -1.180758E+06  1.000271E+05  9.671716E+04 -5.494919E+05  1.612101E+05  1.385192E+04
       196   3 -1.203633E+06 -1.313982E+05 -8.273671E+04 -3.925866E+05  2.196050E+05  6.738236E+04
       196   4 -2.183420E+06 -3.370541E+05 -9.457917E+04 -8.839822E+05  8.140491E+04 -1.420192E+04
       196   5 -2.157854E+06 -2.985094E+05 -1.604918E+05 -8.494985E+05  1.691564E+05  1.682645E+04
       196   6 -2.224029E+06 -6.207711E+05 -3.791547E+05 -7.773246E+05  2.458470E+05  7.722361E+04
       196   7 -3.120217E+06 -6.487313E+05 -3.273700E+05 -1.098947E+06  7.105550E+04 -1.808950E+04
       196   8 -3.134011E+06 -6.969357E+05 -4.177821E+05 -1.149059E+06  1.770888E+05  1.979470E+04
       196   9 -3.243377E+06 -1.109876E+06 -6.756680E+05 -1.161423E+06  2.720410E+05  8.703571E+04
       196  10 -1.245778E+06 -2.536839E+04  1.381281E+05 -6.687428E+05  6.661428E-10 -4.589169E-10
       196  11 -1.180786E+06  1.000199E+05  9.666786E+04 -5.494937E+05  4.628931E-10 -1.259287E-09
       196  12 -1.203686E+06 -1.314160E+05 -8.283609E+04 -3.925986E+05 -6.095332E-10  1.887371E-10
       196  13 -2.183427E+06 -3.370561E+05 -9.459203E+04 -8.839813E+05  1.004362E-09 -5.172549E-10
       196  14 -2.157885E+06 -2.985174E+05 -1.605463E+05 -8.495008E+05 -1.113974E-09 -2.014425E-10
       196  15 -2.224096E+06 -6.207938E+05 -3.792800E+05 -7.773399E+05  1.217031E-09 -5.915440E-10
       196  16 -3.120222E+06 -6.487330E+05 -3.273802E+05 -1.098946E+06  7.249170E-10 -8.896182E-10
       196  17 -3.134045E+06 -6.969446E+05 -4.178421E+05 -1.149061E+06  7.541421E-10  7.031640E-11
       196  18 -3.243459E+06 -1.109904E+06 -6.758222E+05 -1.161442E+06  4.854129E-11  2.445499E-10
       196  19 -1.245768E+06 -2.536601E+04  1.381442E+05 -6.687435E+05 -9.177139E+04  1.030961E+04
       196  20 -1.180758E+06  1.000271E+05  9.671716E+04 -5.494919E+05 -1.612101E+05 -1.385192E+04
       196  21 -1.203633E+06 -1.313982E+05 -8.273671E+04 -3.925866E+05 -2.196050E+05 -6.738236E+04
       196  22 -2.183420E+06 -3.370541E+05 -9.457917E+04 -8.839822E+05 -8.140491E+04  1.420192E+04
       196  23 -2.157854E+06 -2.985094E+05 -1.604918E+05 -8.494985E+05 -1.691564E+05 -1.682645E+04
       196  24 -2.224029E+06 -6.207711E+05 -3.791547E+05 -7.773246E+05 -2.458470E+05 -7.722361E+04
       196  25 -3.120217E+06 -6.487313E+05 -3.273700E+05 -1.098947E+06 -7.105550E+04  1.808950E+04
       196  26 -3.134011E+06 -6.969357E+05 -4.177821E+05 -1.149059E+06 -1.770888E+05 -1.979470E+04
       196  27 -3.243377E+06 -1.109876E+06 -6.756680E+05 -1.161423E+06 -2.720410E+05 -8.703571E+04
       197   1  1.503078E+05  6.074659E+04  1.282275E+05  6.671402E+04  2.085777E+05  1.013875E+04
       197   2  1.783355E+05 -2.134742E+05 -3.089208E+04  1.391750E+04  1.428993E+05  3.013816E+04
       197   3  2.903294E+05 -1.881567E+05 -7.225371E+04 -7.755025E+04  7.724137E+04  2.939342E+04
       197   4  9.932065E+05  2.700421E+05  3.344498E+05 -3.800000E+04  2.292900E+05  1.013427E+04
       197   5  9.501434E+05 -2.335694E+04  1.488084E+05 -1.847246E+04  1.495643E+05  3.013604E+04
       197   6  9.933569E+05 -1.500273E+04  9.055871E+04 -3.761130E+04  6.986883E+04  2.938983E+04
       197   7  1.836777E+06  4.793268E+05  5.406278E+05 -1.428566E+05  2.500302E+05  1.012283E+04
       197   8  1.722503E+06  1.667223E+05  3.284694E+05 -5.090309E+04  1.562375E+05  3.013323E+04
       197   9  1.696844E+06  1.581225E+05  2.533391E+05  2.373098E+03  6.248796E+04  2.938529E+04
       197  10  1.502611E+05  6.073480E+04  1.281456E+05  6.671232E+04 -4.898461E-10  7.501692E-10
       197  11  1.783133E+05 -2.134807E+05 -3.093214E+04  1.391403E+04  2.893389E-10  2.006199E-12
       197  12  2.903228E+05 -1.881592E+05 -7.226654E+04 -7.755208E+04  1.376790E-09  1.159712E-11
       197  13  9.931501E+05  2.700279E+05  3.343510E+05 -3.800187E+04 -1.132580E-10  2.235655E-10
       197  14  9.501192E+05 -2.336391E+04  1.487647E+05 -1.847608E+04  3.785069E-10 -1.498723E-09
       197  15  9.933515E+05 -1.500497E+04  9.054793E+04 -3.761295E+04 -1.107120E-09 -6.802602E-11
       197  16  1.836710E+06  4.793100E+05  5.405105E+05 -1.428587E+05  1.934327E-10 -2.541610E-10
       197  17  1.722476E+06  1.667148E+05  3.284219E+05 -5.090688E+04 -4.549764E-11 -5.448386E-10
       197  18  1.696840E+06  1.581205E+05  2.533302E+05  2.371621E+03 -4.876817E-10 -6.175595E-10
       197  19  1.503078E+05  6.074659E+04  1.282275E+05  6.671402E+04 -2.085777E+05 -1.013875E+04
       197  20  1.783355E+05 -2.134742E+05 -3.089208E+04  1.391750E+04 -1.428993E+05 -3.013816E+04
       197  21  2.903294E+05 -1.881567E+05 -7.225371E+04 -7.755025E+04 -7.724137E+04 -2.939342E+04
       197  22  9.932065E+05  2.700421E+05  3.344498E+05 -3.800000E+04 -2.292900E+05 -1.013427E+04
       197  23  9.501434E+05 -2.335694E+04  1.488084E+05 -1.847246E+04 -1.495643E+05 -3.013604E+04
       197  24  9.933569E+05 -1.500273E+04  9.055871E+04 -3.761130E+04 -6.986883E+04 -2.938983E+04
       197  25  1.836777E+06  4.793268E+05  5.406278E+05 -1.428566E+05 -2.500302E+05 -1.012283E+04
       197  26  1.722503E+06  1.667223E+05  3.284694E+05 -5.090309E+04 -1.562375E+05 -3.013323E+04
       197  27  1.696844E+06  1.581225E+05  2.533391E+05  2.373098E+03 -6.248796E+04 -2.938529E+04
       198   1  3.427595E+05 -1.343165E+05 -7.422281E+04 -3.067956E+04  5.726871E+04  2.491064E+04
       198   2  4.061910E+05 -1.414733E+05 -9.291691E+04 -1.694349E+04  3.855761E+04  2.290673E+04
       198   3  4.785008E+05 -1.238756E+05 -9.318892E+04 -4.123729E+04  1.984301E+04  1.983067E+04
       198   4  9.761780E+05  2.173696E+04  7.313115E+04 -3.758464E+04  5.632886E+04  2.490761E+04
       198   5  9.717002E+05 -2.205349E+03  3.833816E+04 -1.856493E+04  3.687874E+04  2.290447E+04
       198   6  9.762154E+05 -1.278094E+03  2.246625E+04 -3.757240E+04  1.742714E+04  1.982931E+04
       198   7  1.609966E+06  1.777623E+05  2.204581E+05 -4.449686E+04  5.538804E+04  2.490461E+04
       198   8  1.537504E+06  1.370402E+05  1.695718E+05 -2.018788E+04  3.519833E+04  2.290222E+04
       198   9  1.474158E+06  1.213020E+05  1.381048E+05 -3.390456E+04  1.500935E+04  1.982793E+04
       198  10  3.427558E+05 -1.343181E+05 -7.423013E+04 -3.068071E+04 -9.564423E-10 -6.734146E-10
       198  11  4.061893E+05 -1.414743E+05 -9.292068E+04 -1.694421E+04  1.106836E-10  4.581544E-10
       198  12  4.785003E+05 -1.238761E+05 -9.319040E+04 -4.123761E+04 -6.556237E-10 -1.064784E-11
       198  13  9.761745E+05  2.173544E+04  7.312403E+04 -3.758577E+04  7.131515E-10 -3.978590E-10
       198  14  9.716986E+05 -2.206278E+03  3.833462E+04 -1.856561E+04 -1.476997E-09 -1.506659E-10
       198  15  9.762150E+05 -1.278598E+03  2.246494E+04 -3.757268E+04 -4.554550E-10 -6.618904E-11
       198  16  1.609963E+06  1.777608E+05  2.204512E+05 -4.449797E+04  4.432676E-10 -1.166927E-11
       198  17  1.537503E+06  1.370393E+05  1.695684E+05 -2.018853E+04 -6.557813E-10 -8.517338E-10
       198  18  1.474158E+06  1.213015E+05  1.381036E+05 -3.390479E+04  3.441016E-10  1.099410E-10
       198  19  3.427595E+05 -1.343165E+05 -7.422281E+04 -3.067956E+04 -5.726871E+04 -2.491064E+04
       198  20  4.061910E+05 -1.414733E+05 -9.291691E+04 -1.694349E+04 -3.855761E+04 -2.290673E+04
       198  21  4.785008E+05 -1.238756E+05 -9.318892E+04 -4.123729E+04 -1.984301E+04 -1.983067E+04
       198  22  9.761780E+05  2.173696E+04  7.313115E+04 -3.758464E+04 -5.632886E+04 -2.490761E+04
       198  23  9.717002E+05 -2.205349E+03  3.833816E+04 -1.856493E+04 -3.687874E+04 -2.290447E+04
       198  24  9.762154E+05 -1.278094E+03  2.246625E+04 -3.757240E+04 -1.742714E+04 -1.982931E+04
       198  25  1.609966E+06  1.777623E+05  2.204581E+05 -4.449686E+04 -5.538804E+04 -2.490461E+04
       198  26  1.537504E+06  1.370402E+05  1.695718E+05 -2.018788E+04 -3.519833E+04 -2.290222E+04
       198  27  1.474158E+06  1.213020E+05  1.381048E+05 -3.390456E+04 -1.500935E+04 -1.982793E+04
       199   1  5.447845E+05 -1.041320E+05 -8.213517E+04 -3.722632E+04  1.598055E+04  1.783986E+04
       199   2  6.108223E+05 -8.965225E+04 -7.451742E+04 -1.879407E+04  1.116589E+04  1.473748E+04
       199   3  6.780832E+05 -7.311988E+04 -6.323658E+04 -3.774664E+04  6.348775E+03  1.159326E+04
       199   4  9.745028E+05  1.647808E+03  1.740006E+04 -3.743266E+04  1.391479E+04  1.783892E+04
       199   5  9.738995E+05 -2.511103E+02  9.724686E+03 -1.874101E+04  9.068816E+03  1.473713E+04
       199   6  9.745185E+05 -9.297914E+01  5.732001E+03 -3.743281E+04  4.220886E+03  1.159350E+04
       199   7  1.404391E+06  1.074147E+05  1.169229E+05 -3.763914E+04  1.184762E+04  1.783799E+04
       199   8  1.337098E+06  8.914076E+04  9.395796E+04 -1.868792E+04  6.970521E+03  1.473677E+04
       199   9  1.271035E+06  7.292773E+04  7.469467E+04 -3.711883E+04  2.091989E+03  1.159374E+04
       199  10  5.447842E+05 -1.041324E+05 -8.213624E+04 -3.722655E+04 -3.629018E-10  2.542334E-10
       199  11  6.108221E+05 -8.965251E+04 -7.451806E+04 -1.879420E+04  4.530271E-10  2.518422E-10
       199  12  6.780831E+05 -7.312003E+04 -6.323690E+04 -3.774670E+04 -8.412251E-10  9.507350E-11
       199  13  9.745025E+05  1.647414E+03  1.739910E+04 -3.743286E+04 -1.023067E-09  8.137480E-11
       199  14  9.738993E+05 -2.513657E+02  9.724123E+03 -1.874112E+04  6.992826E-10  7.808834E-11
       199  15  9.745185E+05 -9.312832E+01  5.731714E+03 -3.743285E+04  1.378756E-09  2.723479E-10
       199  16  1.404391E+06  1.074143E+05  1.169221E+05 -3.763931E+04 -2.469517E-10  1.736029E-11
       199  17  1.337098E+06  8.914051E+04  9.395746E+04 -1.868801E+04  7.419074E-10 -1.356423E-10
       199  18  1.271035E+06  7.292758E+04  7.469441E+04 -3.711885E+04  1.225997E-09  8.964317E-10
       199  19  5.447845E+05 -1.041320E+05 -8.213517E+04 -3.722632E+04 -1.598055E+04 -1.783986E+04
       199  20  6.108223E+05 -8.965225E+04 -7.451742E+04 -1.879407E+04 -1.116589E+04 -1.473748E+04
       199  21  6.780832E+05 -7.311988E+04 -6.323658E+04 -3.774664E+04 -6.348775E+03 -1.159326E+04
       199  22  9.745028E+05  1.647808E+03  1.740006E+04 -3.743266E+04 -1.391479E+04 -1.783892E+04
       199  23  9.738995E+05 -2.511103E+02  9.724686E+03 -1.874101E+04 -9.068816E+03 -1.473713E+04
       199  24  9.745185E+05 -9.297914E+01  5.732001E+03 -3.743281E+04 -4.220886E+03 -1.159350E+04
       199  25  1.404391E+06  1.074147E+05  1.169229E+05 -3.763914E+04 -1.184762E+04 -1.783799E+04
       199  26  1.337098E+06  8.914076E+04  9.395796E+04 -1.868792E+04 -6.970521E+03 -1.473677E+04
       199  27  1.271035E+06  7.292773E+04  7.469467E+04 -3.711883E+04 -2.091989E+03 -1.159374E+04
       200   1  7.449103E+05 -5.631898E+04 -4.856564E+04 -3.735796E+04  5.407195E+03  9.759654E+03
       200   2  8.107755E+05 -4.026033E+04 -3.513621E+04 -1.885192E+04  4.028772E+03  6.633296E+03
       200   3  8.768570E+05 -2.400266E+04 -2.076464E+04 -3.734392E+04  2.649353E+03  3.511126E+03
       200   4  9.743028E+05  1.206960E+02  4.457367E+03 -3.734697E+04  3.303360E+03  9.760160E+03
       200   5  9.742001E+05 -2.505351E+01  2.776773E+03 -1.884828E+04  1.927201E+03  6.634053E+03
       200   6  9.743090E+05  2.800290E+01  2.036643E+03 -3.734703E+04  5.501900E+02  3.512150E+03
       200   7  1.203744E+06  5.655669E+04  5.747688E+04 -3.733597E+04  1.198754E+03  9.760666E+03
       200   8  1.137649E+06  4.020835E+04  4.068798E+04 -1.884464E+04 -1.749182E+02  6.634810E+03
       200   9  1.071770E+06  2.405800E+04  2.483730E+04 -3.735015E+04 -1.549300E+03  3.513174E+03
       200  10  7.449102E+05 -5.631909E+04 -4.856587E+04 -3.735800E+04 -1.793772E-10 -5.809985E-12
       200  11  8.107755E+05 -4.026038E+04 -3.513632E+04 -1.885194E+04 -1.010699E-09  2.359302E-10
       200  12  8.768570E+05 -2.400268E+04 -2.076468E+04 -3.734393E+04 -1.306946E-09 -3.640889E-10
       200  13  9.743028E+05  1.205908E+02  4.457167E+03 -3.734700E+04  1.169821E-09  5.844673E-10
       200  14  9.742001E+05 -2.510178E+01  2.776684E+03 -1.884829E+04 -4.774197E-10 -5.100437E-10
       200  15  9.743090E+05  2.798957E+01  2.036619E+03 -3.734703E+04 -7.269252E-10 -7.085629E-10
       200  16  1.203744E+06  5.655659E+04  5.747670E+04 -3.733598E+04  4.079533E-10  1.487324E-10
       200  17  1.137649E+06  4.020830E+04  4.068790E+04 -1.884464E+04  1.328079E-09 -4.215554E-10
       200  18  1.071770E+06  2.405799E+04  2.483727E+04 -3.735014E+04  4.265731E-10 -7.013694E-10
       200  19  7.449103E+05 -5.631898E+04 -4.856564E+04 -3.735796E+04 -5.407195E+03 -9.759654E+03
       200  20  8.107755E+05 -4.026033E+04 -3.513621E+04 -1.885192E+04 -4.028772E+03 -6.633296E+03
       200  21  8.768570E+05 -2.400266E+04 -2.076464E+04 -3.734392E+04 -2.649353E+03 -3.511126E+03
       200  22  9.743028E+05  1.206960E+02  4.457367E+03 -3.734697E+04 -3.303360E+03 -9.760160E+03
       200  23  9.742001E+05 -2.505351E+01  2.776773E+03 -1.884828E+04 -1.927201E+03 -6.634053E+03
       200  24  9.743090E+05  2.800290E+01  2.036643E+03 -3.734703E+04 -5.501900E+02 -3.512150E+03
       200  25  1.203744E+06  5.655669E+04  5.747688E+04 -3.733597E+04 -1.198754E+03 -9.760666E+03
       200  26  1.137649E+06  4.020835E+04  4.068798E+04 -1.884464E+04  1.749182E+02 -6.634810E+03
       200  27  1.071770E+06  2.405800E+04  2.483730E+04 -3.735015E+04  1.549300E+03 -3.513174E+03
       201   1  9.434637E+05 -7.519032E+03 -5.047762E+03 -3.731249E+04  2.289328E+03  1.696086E+03
       201   2  1.009211E+06  8.604939E+03  1.020741E+04 -1.886660E+04  1.251250E+03 -1.420659E+03
       201   3  1.075092E+06  2.487233E+04  2.616361E+04 -3.732439E+04  2.132622E+02 -4.536469E+03
       201   4  9.742932E+05  3.159058E+01  1.908789E+03 -3.732622E+04  1.917351E+02  1.697176E+03
       201   5  9.742271E+05 -7.112253E+00  2.092366E+03 -1.887430E+04 -8.457721E+02 -1.419633E+03
       201   6  9.742917E+05  9.804811E+01  2.977075E+03 -3.732618E+04 -1.883081E+03 -4.535491E+03
       201   7  1.005123E+06  7.582151E+03  8.865295E+03 -3.733996E+04 -1.905961E+03  1.698265E+03
       201   8  9.392442E+05 -8.619248E+03 -6.022743E+03 -1.888199E+04 -2.942677E+03 -1.418608E+03
       201   9  8.735006E+05 -2.467694E+04 -2.021011E+04 -3.732797E+04 -3.979088E+03 -4.534514E+03
       201  10  9.434637E+05 -7.519037E+03 -5.047777E+03 -3.731249E+04 -5.352217E-10 -3.077962E-10
       201  11  1.009211E+06  8.604937E+03  1.020740E+04 -1.886660E+04 -7.835379E-11  4.495381E-10
       201  12  1.075092E+06  2.487231E+04  2.616357E+04 -3.732439E+04  9.868648E-10 -3.515526E-10
       201  13  9.742932E+05  3.158748E+01  1.908784E+03 -3.732622E+04 -2.039459E-09  2.710427E-10
       201  14  9.742271E+05 -7.114610E+00  2.092361E+03 -1.887430E+04 -9.913112E-10  7.387482E-10
       201  15  9.742917E+05  9.802506E+01  2.977030E+03 -3.732619E+04  1.989180E-10 -6.266291E-10
       201  16  1.005123E+06  7.582147E+03  8.865283E+03 -3.733996E+04 -2.892190E-10 -1.448546E-10
       201  17  9.392442E+05 -8.619252E+03 -6.022763E+03 -1.888200E+04 -7.707374E-10  1.508651E-10
       201  18  8.735006E+05 -2.467697E+04 -2.021018E+04 -3.732798E+04  3.132503E-10  3.062100E-10
       201  19  9.434637E+05 -7.519032E+03 -5.047762E+03 -3.731249E+04 -2.289328E+03 -1.696086E+03
       201  20  1.009211E+06  8.604939E+03  1.020741E+04 -1.886660E+04 -1.251250E+03  1.420659E+03
       201  21  1.075092E+06  2.487233E+04  2.616361E+04 -3.732439E+04 -2.132622E+02  4.536469E+03
       201  22  9.742932E+05  3.159058E+01  1.908789E+03 -3.732622E+04 -1.917351E+02 -1.697176E+03
       201  23  9.742271E+05 -7.112253E+00  2.092366E+03 -1.887430E+04  8.457721E+02  1.419633E+03
       201  24  9.742917E+05  9.804811E+01  2.977075E+03 -3.732618E+04  1.883081E+03  4.535491E+03
       201  25  1.005123E+06  7.582151E+03  8.865295E+03 -3.733996E+04  1.905961E+03 -1.698265E+03
       201  26  9.392442E+05 -8.619248E+03 -6.022743E+03 -1.888199E+04  2.942677E+03  1.418608E+03
       201  27  8.735006E+05 -2.467694E+04 -2.021011E+04 -3.732797E+04  3.979088E+03  4.534514E+03
       202   1  1.141949E+06  4.124069E+04  4.276606E+04 -3.719688E+04 -3.717817E+02 -6.359207E+03
       202   2  1.207753E+06  5.738333E+04  6.033051E+04 -1.883139E+04 -3.452919E+03 -9.481833E+03
       202   3  1.274294E+06  7.482083E+04  8.022239E+04 -3.756027E+04 -6.533205E+03 -1.256546E+04
       202   4  9.744198E+05 -3.523958E+01  3.715809E+03 -3.736884E+04 -2.486632E+03 -6.358360E+03
       202   5  9.740510E+05 -1.407943E+02  6.125622E+03 -1.882105E+04 -5.540603E+03 -9.481377E+03
       202   6  9.744098E+05  1.044239E+03  1.084475E+04 -3.736847E+04 -8.593401E+03 -1.256538E+04
       202   7  8.069168E+05 -4.131315E+04 -3.533632E+04 -3.754075E+04 -4.600917E+03 -6.357512E+03
       202   8  7.403995E+05 -5.766875E+04 -4.808291E+04 -1.881070E+04 -7.627509E+03 -9.480920E+03
       202   9  6.746087E+05 -7.273865E+04 -5.853889E+04 -3.717676E+04 -1.065261E+04 -1.256529E+04
       202  10  1.141949E+06  4.124064E+04  4.276598E+04 -3.719688E+04 -7.160432E-10 -1.904102E-10
       202  11  1.207753E+06  5.738323E+04  6.033032E+04 -1.883141E+04  1.621832E-09 -8.071362E-11
       202  12  1.274294E+06  7.482065E+04  8.022202E+04 -3.756034E+04  8.626848E-10 -5.056099E-10
       202  13  9.744198E+05 -3.528467E+01  3.715721E+03 -3.736885E+04 -2.575387E-10 -2.391312E-10
       202  14  9.740510E+05 -1.408991E+02  6.125395E+03 -1.882109E+04 -6.258314E-10 -3.362545E-10
       202  15  9.744097E+05  1.044049E+03  1.084431E+04 -3.736856E+04 -1.058666E-09 -4.002993E-10
       202  16  8.069167E+05 -4.131320E+04 -3.533644E+04 -3.754077E+04 -8.591304E-10  8.414311E-10
       202  17  7.403994E+05 -5.766886E+04 -4.808319E+04 -1.881076E+04 -3.945740E-10 -3.058976E-10
       202  18  6.746086E+05 -7.273885E+04 -5.853940E+04 -3.717686E+04 -1.208070E-09 -4.472843E-10
       202  19  1.141949E+06  4.124069E+04  4.276606E+04 -3.719688E+04  3.717817E+02  6.359207E+03
       202  20  1.207753E+06  5.738333E+04  6.033051E+04 -1.883139E+04  3.452919E+03  9.481833E+03
       202  21  1.274294E+06  7.482083E+04  8.022239E+04 -3.756027E+04  6.533205E+03  1.256546E+04
       202  22  9.744198E+05 -3.523958E+01  3.715809E+03 -3.736884E+04  2.486632E+03  6.358360E+03
       202  23  9.740510E+05 -1.407943E+02  6.125622E+03 -1.882105E+04  5.540603E+03  9.481377E+03
       202  24  9.744098E+05  1.044239E+03  1.084475E+04 -3.736847E+04  8.593401E+03  1.256538E+04
       202  25  8.069168E+05 -4.131315E+04 -3.533632E+04 -3.754075E+04  4.600917E+03  6.357512E+03
       202  26  7.403995E+05 -5.766875E+04 -4.808291E+04 -1.881070E+04  7.627509E+03  9.480920E+03
       202  27  6.746087E+05 -7.273865E+04 -5.853889E+04 -3.717676E+04  1.065261E+04  1.256529E+04
       203   1  1.342723E+06  8.965128E+04  9.931598E+04 -3.527795E+04 -8.425242E+03 -1.451428E+04
       203   2  1.406944E+06  1.055250E+05  1.245362E+05 -1.979482E+04 -2.112273E+04 -1.756394E+04
       203   3  1.476830E+06  1.369375E+05  1.619207E+05 -4.186826E+04 -3.381975E+04 -1.970332E+04
       203   4  9.754729E+05 -7.703614E+02  1.397480E+04 -3.747103E+04 -1.078078E+04 -1.451446E+04
       203   5  9.726810E+05 -1.358028E+03  2.380153E+04 -1.869305E+04 -2.285799E+04 -1.756491E+04
       203   6  9.754467E+05  1.349237E+04  4.536901E+04 -3.747292E+04 -3.493340E+04 -1.970491E+04
       203   7  6.083472E+05 -9.120147E+04 -7.137544E+04 -3.966280E+04 -1.313493E+04 -1.451463E+04
       203   8  5.385917E+05 -1.082543E+05 -7.694584E+04 -1.759205E+04 -2.459205E+04 -1.756588E+04
       203   9  4.742954E+05 -1.099704E+05 -7.119962E+04 -3.308115E+04 -3.604615E+04 -1.970652E+04
       203  10  1.342723E+06  8.965103E+04  9.931545E+04 -3.527805E+04 -1.083010E-09 -4.175121E-10
       203  11  1.406943E+06  1.055245E+05  1.245348E+05 -1.979512E+04  4.705789E-10  6.975011E-10
       203  12  1.476828E+06  1.369368E+05  1.619179E+05 -4.186880E+04 -5.692404E-10 -4.859764E-10
       203  13  9.754727E+05 -7.706189E+02  1.397419E+04 -3.747115E+04 -5.455151E-10 -3.019119E-10
       203  14  9.726803E+05 -1.358500E+03  2.379997E+04 -1.869337E+04 -1.950833E-09  4.341093E-10
       203  15  9.754453E+05  1.349163E+04  4.536599E+04 -3.747347E+04  5.140144E-10 -1.867465E-10
       203  16  6.083469E+05 -9.120175E+04 -7.137616E+04 -3.966295E+04 -4.731993E-10 -3.583012E-10
       203  17  5.385909E+05 -1.082548E+05 -7.694755E+04 -1.759240E+04 -8.815299E-10  1.364115E-11
       203  18  4.742939E+05 -1.099712E+05 -7.120279E+04 -3.308172E+04 -1.774347E-09  4.265876E-10
       203  19  1.342723E+06  8.965128E+04  9.931598E+04 -3.527795E+04  8.425242E+03  1.451428E+04
       203  20  1.406944E+06  1.055250E+05  1.245362E+05 -1.979482E+04  2.112273E+04  1.756394E+04
       203  21  1.476830E+06  1.369375E+05  1.619207E+05 -4.186826E+04  3.381975E+04  1.970332E+04
       203  22  9.754729E+05 -7.703614E+02  1.397480E+04 -3.747103E+04  1.078078E+04  1.451446E+04
       203  23  9.726810E+05 -1.358028E+03  2.380153E+04 -1.869305E+04  2.285799E+04  1.756491E+04
       203  24  9.754467E+05  1.349237E+04  4.536901E+04 -3.747292E+04  3.493340E+04  1.970491E+04
       203  25  6.083472E+05 -9.120147E+04 -7.137544E+04 -3.966280E+04  1.313493E+04  1.451463E+04
       203  26  5.385917E+05 -1.082543E+05 -7.694584E+04 -1.759205E+04  2.459205E+04  1.756588E+04
       203  27  4.742954E+05 -1.099704E+05 -7.119962E+04 -3.308115E+04  3.604615E+04  1.970652E+04
       204   1  1.556195E+06  1.309698E+05  1.881102E+05 -1.282729E+04 -3.677601E+04 -2.374646E+04
       204   2  1.597075E+06  1.425264E+05  2.406743E+05 -3.885247E+04 -9.806450E+04 -2.477939E+04
       204   3  1.693491E+06  3.432149E+05  3.804184E+05 -1.027836E+05 -1.593757E+05 -8.263689E+03
       204   4  9.861065E+05 -9.295586E+03  5.617526E+04 -3.750937E+04 -4.333341E+04 -2.374896E+04
       204   5  9.592895E+05 -1.449282E+04  9.228516E+04 -1.862993E+04 -9.276562E+04 -2.478078E+04
       204   6  9.860044E+05  1.674848E+05  2.074112E+05 -3.765228E+04 -1.422127E+05 -8.264821E+03
       204   7  4.163193E+05 -1.495815E+05 -7.578091E+04 -6.216868E+04 -4.988482E+04 -2.375093E+04
       204   8  3.218790E+05 -1.715392E+05 -5.613111E+04  1.571677E+03 -8.747209E+04 -2.478183E+04
       204   9  2.789826E+05 -8.266197E+03  3.437086E+04  2.740476E+04 -1.250691E+05 -8.262369E+03
       204  10  1.556193E+06  1.309688E+05  1.881066E+05 -1.282800E+04  9.110465E-12 -5.844434E-10
       204  11  1.597065E+06  1.425232E+05  2.406552E+05 -3.885442E+04  9.832118E-10  5.505266E-10
       204  12  1.693464E+06  3.432081E+05  3.803707E+05 -1.027847E+05  1.311826E-09  7.203017E-10
       204  13  9.861044E+05 -9.296695E+03  5.617068E+04 -3.751020E+04 -1.647538E-09 -9.495729E-10
       204  14  9.592801E+05 -1.449579E+04  9.226786E+04 -1.863178E+04 -3.417984E-10  4.701579E-10
       204  15  9.859827E+05  1.674793E+05  2.073731E+05 -3.765323E+04  6.569071E-10 -2.100189E-10
       204  16  4.163165E+05 -1.495828E+05 -7.578664E+04 -6.216964E+04 -2.658693E-10  2.598347E-10
       204  17  3.218706E+05 -1.715419E+05 -5.614664E+04  1.569931E+03 -1.859882E-09 -2.290437E-10
       204  18  2.789658E+05 -8.270467E+03  3.434135E+04  2.740393E+04 -1.034230E-09  8.553720E-10
       204  19  1.556195E+06  1.309698E+05  1.881102E+05 -1.282729E+04  3.677601E+04  2.374646E+04
       204  20  1.597075E+06  1.425264E+05  2.406743E+05 -3.885247E+04  9.806450E+04  2.477939E+04
       204  21  1.693491E+06  3.432149E+05  3.804184E+05 -1.027836E+05  1.593757E+05  8.263689E+03
       204  22  9.861065E+05 -9.295586E+03  5.617526E+04 -3.750937E+04  4.333341E+04  2.374896E+04
       204  23  9.592895E+05 -1.449282E+04  9.228516E+04 -1.862993E+04  9.276562E+04  2.478078E+04
       204  24  9.860044E+05  1.674848E+05  2.074112E+05 -3.765228E+04  1.422127E+05  8.264821E+03
       204  25  4.163193E+05 -1.495815E+05 -7.578091E+04 -6.216868E+04  4.988482E+04  2.375093E+04
       204  26  3.218790E+05 -1.715392E+05 -5.613111E+04  1.571677E+03  8.747209E+04  2.478183E+04
       204  27  2.789826E+05 -8.266197E+03  3.437086E+04  2.740476E+04  1.250691E+05  8.262369E+03
       205   1  5.393327E+05  1.633772E+06  5.272494E+05 -5.492308E+05  1.970664E+04  1.646942E+05
       205   2  3.494375E+05  1.136556E+06  3.189971E+05 -4.707902E+05  5.943161E+04  6.290570E+04
       205   3  2.177179E+05  6.670089E+05  1.914010E+05 -4.961125E+05  5.305878E+04 -3.887926E+04
       205   4  7.785919E+04 -2.306982E+05  8.413729E+04 -4.976909E+05  2.000642E+04  5.641328E+04
       205   5  1.941891E+04 -2.373227E+05  4.276074E+04 -4.459078E+05  5.952427E+04  3.451408E+04
       205   6  5.392528E+03 -2.302755E+05  2.670314E+04 -4.978806E+05  5.290612E+04  1.253625E+04
       205   7 -3.838491E+05 -2.091952E+06 -3.591725E+05 -4.463031E+05  2.028882E+04 -5.154484E+04
       205   8 -3.107136E+05 -1.609400E+06 -2.335687E+05 -4.210795E+05  5.961478E+04  6.183920E+03
       205   9 -2.069771E+05 -1.126773E+06 -1.380178E+05 -4.996453E+05  5.275303E+04  6.387947E+04
       205  10  5.393251E+05  1.633743E+06  5.271978E+05 -5.492334E+05 -3.833186E-10  9.725372E-10
       205  11  3.494326E+05  1.136550E+06  3.189830E+05 -4.707932E+05 -1.652961E-09 -5.772386E-10
       205  12  2.177145E+05  6.670065E+05  1.913929E+05 -4.961108E+05  1.750451E-10 -1.070957E-09
       205  13  7.785790E+04 -2.307018E+05  8.413055E+04 -4.976918E+05  1.354397E-09  3.132060E-11
       205  14  1.941479E+04 -2.373250E+05  4.275184E+04 -4.459094E+05 -5.521589E-10 -1.068737E-09
       205  15  5.389479E+03 -2.302764E+05  2.669759E+04 -4.978812E+05  5.076379E-10 -2.003057E-10
       205  16 -3.838503E+05 -2.091955E+06 -3.591783E+05 -4.463022E+05 -1.198396E-10 -1.436413E-09
       205  17 -3.107175E+05 -1.609401E+06 -2.335755E+05 -4.210798E+05  1.913956E-09  1.634474E-09
       205  18 -2.069812E+05 -1.126778E+06 -1.380307E+05 -4.996480E+05  1.139414E-10  1.974115E-09
       205  19  5.393327E+05  1.633772E+06  5.272494E+05 -5.492308E+05 -1.970664E+04 -1.646942E+05
       205  20  3.494375E+05  1.136556E+06  3.189971E+05 -4.707902E+05 -5.943161E+04 -6.290570E+04
       205  21  2.177179E+05  6.670089E+05  1.914010E+05 -4.961125E+05 -5.305878E+04  3.887926E+04
       205  22  7.785919E+04 -2.306982E+05  8.413729E+04 -4.976909E+05 -2.000642E+04 -5.641328E+04
       205  23  1.941891E+04 -2.373227E+05  4.276074E+04 -4.459078E+05 -5.952427E+04 -3.451408E+04
       205  24  5.392528E+03 -2.302755E+05  2.670314E+04 -4.978806E+05 -5.290612E+04 -1.253625E+04
       205  25 -3.838491E+05 -2.091952E+06 -3.591725E+05 -4.463031E+05 -2.028882E+04  5.154484E+04
       205  26 -3.107136E+05 -1.609400E+06 -2.335687E+05 -4.210795E+05 -5.961478E+04 -6.183920E+03
       205  27 -2.069771E+05 -1.126773E+06 -1.380178E+05 -4.996453E+05 -5.275303E+04 -6.387947E+04
       206   1  1.438811E+05  3.486690E+05  1.294950E+05 -5.018970E+05  3.454086E+04 -3.843371E+04
       206   2  2.675336E+04 -1.354773E+05  3.666774E+04 -4.453327E+05  7.109877E+03 -4.915290E+04
       206   3 -8.457678E+04 -6.171347E+05 -4.790750E+04 -4.953748E+05 -2.073908E+04 -5.986727E+04
       206   4  6.263399E+03 -2.327495E+05  2.287028E+04 -4.984931E+05  3.439375E+04  8.669956E+03
       206   5  3.731735E+03 -2.338022E+05  1.990202E+04 -4.451897E+05  6.959189E+03 -1.339597E+03
       206   6  6.885592E+03 -2.327179E+05  2.469296E+04 -4.984915E+05 -2.089373E+04 -1.135216E+04
       206   7 -1.313722E+05 -8.138351E+05 -8.375989E+04 -4.950922E+05  3.424708E+04  5.573069E+04
       206   8 -1.928918E+04 -3.321127E+05  3.144578E+03 -4.450467E+05  6.808508E+03  4.646637E+04
       206   9  9.834064E+04  1.518467E+05  9.729577E+04 -5.016099E+05 -2.104881E+04  3.719228E+04
       206  10  1.438794E+05  3.486671E+05  1.294900E+05 -5.018960E+05  4.362316E-10 -4.465359E-10
       206  11  2.675266E+04 -1.354799E+05  3.666311E+04 -4.453324E+05  1.173938E-10 -1.056662E-09
       206  12 -8.457821E+04 -6.171387E+05 -4.791505E+04 -4.953758E+05 -2.910236E-10 -5.959340E-11
       206  13  6.262109E+03 -2.327499E+05  2.286792E+04 -4.984934E+05 -7.479853E-10  1.242155E-11
       206  14  3.731683E+03 -2.338022E+05  1.990193E+04 -4.451897E+05 -2.281363E-09 -1.350798E-09
       206  15  6.885089E+03 -2.327182E+05  2.469190E+04 -4.984916E+05 -5.970623E-10 -4.042355E-10
       206  16 -1.313743E+05 -8.138388E+05 -8.376794E+04 -4.950937E+05 -8.572809E-10 -1.731499E-10
       206  17 -1.928981E+04 -3.321150E+05  3.140430E+03 -4.450470E+05 -1.332618E-09  1.750189E-09
       206  18  9.833979E+04  1.518451E+05  9.729234E+04 -5.016093E+05 -1.221911E-10  1.110278E-09
       206  19  1.438811E+05  3.486690E+05  1.294950E+05 -5.018970E+05 -3.454086E+04  3.843371E+04
       206  20  2.675336E+04 -1.354773E+05  3.666774E+04 -4.453327E+05 -7.109877E+03  4.915290E+04
       206  21 -8.457678E+04 -6.171347E+05 -4.790750E+04 -4.953748E+05  2.073908E+04  5.986727E+04
       206  22  6.263399E+03 -2.327495E+05  2.287028E+04 -4.984931E+05 -3.439375E+04 -8.669956E+03
       206  23  3.731735E+03 -2.338022E+05  1.990202E+04 -4.451897E+05 -6.959189E+03  1.339597E+03
       206  24  6.885592E+03 -2.327179E+05  2.469296E+04 -4.984915E+05  2.089373E+04  1.135216E+04
       206  25 -1.313722E+05 -8.138351E+05 -8.375989E+04 -4.950922E+05 -3.424708E+04 -5.573069E+04
       206  26 -1.928918E+04 -3.321127E+05  3.144578E+03 -4.450467E+05 -6.808508E+03 -4.646637E+04
       206  27  9.834064E+04  1.518467E+05  9.729577E+04 -5.016099E+05  2.104881E+04 -3.719228E+04
       207   1 -1.601708E+05 -9.294692E+05 -1.008023E+05 -5.007443E+05 -3.948843E+04 -6.784497E+04
       207   2 -2.611317E+05 -1.413788E+06 -1.901860E+05 -4.179778E+05 -4.915525E+04 -2.113735E+04
       207   3 -3.235155E+05 -1.894672E+06 -3.004769E+05 -4.393188E+05 -1.721309E+04  2.561047E+04
       207   4  5.910630E+03 -2.297799E+05  2.955934E+04 -4.979538E+05 -3.965025E+04 -1.554661E+04
       207   5  2.226365E+04 -2.377865E+05  4.875883E+04 -4.458055E+05 -4.909033E+04 -4.064107E+04
       207   6  8.963215E+04 -2.301398E+05  9.693851E+04 -4.977293E+05 -1.696218E+04 -6.565909E+04
       207   7  1.719654E+05  4.703899E+05  1.599104E+05 -4.951596E+05 -3.981148E+04  3.680926E+04
       207   8  3.055756E+05  9.395353E+05  2.876332E+05 -4.736857E+05 -4.902374E+04 -6.018105E+04
       207   9  5.025958E+05  1.436963E+06  4.941919E+05 -5.562950E+05 -1.669447E+04 -1.571726E+05
       207  10 -1.601737E+05 -9.294746E+05 -1.008139E+05 -5.007464E+05  1.024744E-09  1.183834E-09
       207  11 -2.611344E+05 -1.413789E+06 -1.901914E+05 -4.179786E+05  2.353645E-09  1.419079E-10
       207  12 -3.235160E+05 -1.894673E+06 -3.004787E+05 -4.393184E+05  6.089546E-10 -2.669235E-11
       207  13  5.908877E+03 -2.297806E+05  2.955593E+04 -4.979543E+05  5.590505E-10 -2.337209E-11
       207  14  2.226061E+04 -2.377889E+05  4.875119E+04 -4.458071E+05 -1.924795E-09 -1.098096E-09
       207  15  8.963068E+04 -2.301445E+05  9.692986E+04 -4.977302E+05  5.564689E-10 -1.592482E-10
       207  16  1.719633E+05  4.703880E+05  1.599049E+05 -4.951585E+05 -1.441664E-09 -1.666426E-09
       207  17  3.055720E+05  9.395308E+05  2.876219E+05 -4.736881E+05  4.004667E-10  4.382336E-10
       207  18  5.025889E+05  1.436936E+06  4.941450E+05 -5.562971E+05  3.112374E-10  7.387166E-10
       207  19 -1.601708E+05 -9.294692E+05 -1.008023E+05 -5.007443E+05  3.948843E+04  6.784497E+04
       207  20 -2.611317E+05 -1.413788E+06 -1.901860E+05 -4.179778E+05  4.915525E+04  2.113735E+04
       207  21 -3.235155E+05 -1.894672E+06 -3.004769E+05 -4.393188E+05  1.721309E+04 -2.561047E+04
       207  22  5.910630E+03 -2.297799E+05  2.955934E+04 -4.979538E+05  3.965025E+04  1.554661E+04
       207  23  2.226365E+04 -2.377865E+05  4.875883E+04 -4.458055E+05  4.909033E+04  4.064107E+04
       207  24  8.963215E+04 -2.301398E+05  9.693851E+04 -4.977293E+05  1.696218E+04  6.565909E+04
       207  25  1.719654E+05  4.703899E+05  1.599104E+05 -4.951596E+05  3.981148E+04 -3.680926E+04
       207  26  3.055756E+05  9.395353E+05  2.876332E+05 -4.736857E+05  4.902374E+04  6.018105E+04
       207  27  5.025958E+05  1.436963E+06  4.941919E+05 -5.562950E+05  1.669447E+04  1.571726E+05
       208   1 -2.355158E+06 -9.163690E+05 -4.903497E+05 -8.954136E+05 -1.843616E+05 -4.286384E+04
       208   2 -2.221497E+06 -7.651390E+05 -3.388978E+05 -8.450474E+05 -1.172943E+05  4.343476E+04
       208   3 -2.097878E+06 -6.930776E+05 -2.676601E+05 -8.089260E+05 -3.472899E+04  8.871608E+04
       208   4 -8.265564E+05 -2.981598E+05 -8.709114E+04 -4.320902E+05 -6.513441E+04  2.013572E+03
       208   5 -8.232833E+05 -2.314807E+05 -4.037473E+04 -4.375999E+05 -6.415489E+04  6.340637E+04
       208   6 -8.168715E+05 -2.307703E+05 -2.129875E+04 -4.573761E+05 -4.771965E+04  8.381232E+04
       208   7  7.043231E+05  3.202961E+05  3.160153E+05  3.230173E+04  5.441218E+04  4.703243E+04
       208   8  5.769325E+05  3.023795E+05  2.580470E+05 -2.928989E+04 -1.088642E+04  8.343078E+04
       208   9  4.658630E+05  2.316835E+05  2.249975E+05 -1.051498E+05 -6.073928E+04  7.889795E+04
       208  10 -2.355195E+06 -9.163802E+05 -4.904173E+05 -8.954200E+05  2.445138E-09 -3.132609E-10
       208  11 -2.221513E+06 -7.651447E+05 -3.389273E+05 -8.450433E+05  3.469044E-10 -1.089151E-09
       208  12 -2.097882E+06 -6.930864E+05 -2.676771E+05 -8.089235E+05 -9.517781E-10 -1.024250E-09
       208  13 -8.265609E+05 -2.981609E+05 -8.709913E+04 -4.320901E+05  7.661978E-11 -4.782991E-10
       208  14 -8.232888E+05 -2.314861E+05 -4.039001E+04 -4.375966E+05  4.072620E-10 -3.913928E-10
       208  15 -8.168759E+05 -2.307784E+05 -2.131622E+04 -4.573729E+05 -1.626397E-09 -6.436184E-10
       208  16  7.043194E+05  3.202930E+05  3.160056E+05  3.229967E+04 -1.846110E-09 -1.192389E-09
       208  17  5.769305E+05  3.023720E+05  2.580337E+05 -2.928916E+04 -1.662237E-11 -1.693293E-09
       208  18  4.658574E+05  2.316758E+05  2.249789E+05 -1.051459E+05  6.699278E-10 -3.427138E-10
       208  19 -2.355158E+06 -9.163690E+05 -4.903497E+05 -8.954136E+05  1.843616E+05  4.286384E+04
       208  20 -2.221497E+06 -7.651390E+05 -3.388978E+05 -8.450474E+05  1.172943E+05 -4.343476E+04
       208  21 -2.097878E+06 -6.930776E+05 -2.676601E+05 -8.089260E+05  3.472899E+04 -8.871608E+04
       208  22 -8.265564E+05 -2.981598E+05 -8.709114E+04 -4.320902E+05  6.513441E+04 -2.013572E+03
       208  23 -8.232833E+05 -2.314807E+05 -4.037473E+04 -4.375999E+05  6.415489E+04 -6.340637E+04
       208  24 -8.168715E+05 -2.307703E+05 -2.129875E+04 -4.573761E+05  4.771965E+04 -8.381232E+04
       208  25  7.043231E+05  3.202961E+05  3.160153E+05  3.230173E+04 -5.441218E+04 -4.703243E+04
       208  26  5.769325E+05  3.023795E+05  2.580470E+05 -2.928989E+04  1.088642E+04 -8.343078E+04
       208  27  4.658630E+05  2.316835E+05  2.249975E+05 -1.051498E+05  6.073928E+04 -7.889795E+04
       209   1 -1.996336E+06 -6.640696E+05 -2.425987E+05 -7.865906E+05 -3.638384E+04  8.216864E+04
       209   2 -1.867024E+06 -5.963125E+05 -2.031171E+05 -7.338440E+05 -2.448017E+04  7.981757E+04
       209   3 -1.715850E+06 -5.559263E+05 -1.716338E+05 -7.082356E+05 -1.133068E+04  7.413464E+04
       209   4 -8.138856E+05 -2.322344E+05 -1.611320E+04 -4.563463E+05 -4.335355E+04  7.953185E+04
       209   5 -8.250588E+05 -2.174635E+05 -8.513300E+03 -4.433600E+05 -3.681531E+04  7.517085E+04
       209   6 -8.133223E+05 -2.289933E+05 -4.644917E+03 -4.575161E+05 -2.903476E+04  6.748026E+04
       209   7  3.700240E+05  1.997299E+05  2.103132E+05 -1.255156E+05 -5.033751E+04  7.688969E+04
       209   8  2.180405E+05  1.614846E+05  1.860473E+05 -1.524225E+05 -4.917258E+04  7.051582E+04
       209   9  9.005262E+04  9.801177E+04  1.623120E+05 -2.064592E+05 -4.676625E+04  6.081564E+04
       209  10 -1.996339E+06 -6.640772E+05 -2.426138E+05 -7.865882E+05  6.265695E-11  3.151046E-10
       209  11 -1.867027E+06 -5.963195E+05 -2.031302E+05 -7.338424E+05 -1.929742E-10 -7.510425E-11
       209  12 -1.715852E+06 -5.559323E+05 -1.716443E+05 -7.082349E+05 -8.257612E-10 -1.613125E-10
       209  13 -8.138894E+05 -2.322417E+05 -1.612861E+04 -4.563435E+05 -8.996294E-10 -6.216720E-10
       209  14 -8.250617E+05 -2.174700E+05 -8.526458E+03 -4.433578E+05 -1.238697E-10 -2.464468E-10
       209  15 -8.133244E+05 -2.289984E+05 -4.655053E+03 -4.575146E+05  1.274608E-10 -1.122526E-10
       209  16  3.700197E+05  1.997229E+05  2.102973E+05 -1.255124E+05 -2.497666E-09  4.479630E-10
       209  17  2.180366E+05  1.614787E+05  1.860334E+05 -1.524197E+05  6.698575E-10 -4.962792E-10
       209  18  9.004928E+04  9.800721E+04  1.623010E+05 -2.064569E+05  1.172219E-09  7.962444E-11
       209  19 -1.996336E+06 -6.640696E+05 -2.425987E+05 -7.865906E+05  3.638384E+04 -8.216864E+04
       209  20 -1.867024E+06 -5.963125E+05 -2.031171E+05 -7.338440E+05  2.448017E+04 -7.981757E+04
       209  21 -1.715850E+06 -5.559263E+05 -1.716338E+05 -7.082356E+05  1.133068E+04 -7.413464E+04
       209  22 -8.138856E+05 -2.322344E+05 -1.611320E+04 -4.563463E+05  4.335355E+04 -7.953185E+04
       209  23 -8.250588E+05 -2.174635E+05 -8.513300E+03 -4.433600E+05  3.681531E+04 -7.517085E+04
       209  24 -8.133223E+05 -2.289933E+05 -4.644917E+03 -4.575161E+05  2.903476E+04 -6.748026E+04
       209  25  3.700240E+05  1.997299E+05  2.103132E+05 -1.255156E+05  5.033751E+04 -7.688969E+04
       209  26  2.180405E+05  1.614846E+05  1.860473E+05 -1.524225E+05  4.917258E+04 -7.051582E+04
       209  27  9.005262E+04  9.801177E+04  1.623120E+05 -2.064592E+05  4.676625E+04 -6.081564E+04
       210   1 -1.622501E+06 -5.223638E+05 -1.525101E+05 -6.826398E+05 -8.739058E+03  6.777262E+04
       210   2 -1.493424E+06 -4.588091E+05 -1.248847E+05 -6.294352E+05 -3.259255E+03  5.748861E+04
       210   3 -1.340169E+06 -4.197809E+05 -9.834267E+04 -6.040889E+05  2.318920E+03  4.692467E+04
       210   4 -8.130668E+05 -2.290656E+05 -3.500463E+03 -4.574818E+05 -2.597451E+04  6.129828E+04
       210   5 -8.251362E+05 -2.167272E+05 -1.940615E+03 -4.435788E+05 -2.094577E+04  5.085058E+04
       210   6 -8.129648E+05 -2.288276E+05 -1.108561E+03 -4.575410E+05 -1.581908E+04  4.012303E+04
       210   7 -2.935392E+03  6.429685E+04  1.454882E+05 -2.320477E+05 -4.323418E+04  5.481488E+04
       210   8 -1.563753E+05  2.539773E+04  1.209891E+05 -2.575347E+05 -3.865274E+04  4.420489E+04
       210   9 -2.854680E+05 -3.784820E+04  9.611660E+04 -3.108769E+05 -3.397358E+04  3.331521E+04
       210  10 -1.622503E+06 -5.223687E+05 -1.525188E+05 -6.826393E+05 -1.615100E-11 -2.838067E-10
       210  11 -1.493425E+06 -4.588126E+05 -1.248909E+05 -6.294351E+05 -1.067828E-09 -7.008777E-10
       210  12 -1.340169E+06 -4.197833E+05 -9.834682E+04 -6.040890E+05 -1.624494E-09  1.508478E-10
       210  13 -8.130686E+05 -2.290698E+05 -3.508787E+03 -4.574806E+05  8.035304E-10 -3.323330E-10
       210  14 -8.251374E+05 -2.167301E+05 -1.946296E+03 -4.435780E+05 -1.185990E-09 -4.168843E-10
       210  15 -8.129655E+05 -2.288294E+05 -1.112055E+03 -4.575405E+05 -1.443621E-09 -3.622107E-10
       210  16 -2.938204E+03  6.429312E+04  1.454790E+05 -2.320458E+05 -3.308862E-10 -6.929312E-11
       210  17 -1.563774E+05  2.539524E+04  1.209827E+05 -2.575333E+05  6.904240E-10 -2.135090E-10
       210  18 -2.854696E+05 -3.784970E+04  9.611235E+04 -3.108760E+05  2.330536E-10 -4.080685E-10
       210  19 -1.622501E+06 -5.223638E+05 -1.525101E+05 -6.826398E+05  8.739058E+03 -6.777262E+04
       210  20 -1.493424E+06 -4.588091E+05 -1.248847E+05 -6.294352E+05  3.259255E+03 -5.748861E+04
       210  21 -1.340169E+06 -4.197809E+05 -9.834267E+04 -6.040889E+05 -2.318920E+03 -4.692467E+04
       210  22 -8.130668E+05 -2.290656E+05 -3.500463E+03 -4.574818E+05  2.597451E+04 -6.129828E+04
       210  23 -8.251362E+05 -2.167272E+05 -1.940615E+03 -4.435788E+05  2.094577E+04 -5.085058E+04
       210  24 -8.129648E+05 -2.288276E+05 -1.108561E+03 -4.575410E+05  1.581908E+04 -4.012303E+04
       210  25 -2.935392E+03  6.429685E+04  1.454882E+05 -2.320477E+05  4.323418E+04 -5.481488E+04
       210  26 -1.563753E+05  2.539773E+04  1.209891E+05 -2.575347E+05  3.865274E+04 -4.420489E+04
       210  27 -2.854680E+05 -3.784820E+04  9.611660E+04 -3.108769E+05  3.397358E+04 -3.331521E+04
       211   1 -1.247096E+06 -3.859568E+05 -8.024690E+04 -5.782935E+05  4.908558E+03  4.043276E+04
       211   2 -1.117775E+06 -3.225609E+05 -5.433931E+04 -5.249681E+05  9.459074E+03  2.933462E+04
       211   3 -9.640823E+05 -2.835572E+05 -2.868347E+04 -4.995861E+05  1.401600E+04  1.821086E+04
       211   4 -8.129202E+05 -2.288199E+05 -8.738086E+02 -4.575502E+05 -1.320259E+04  3.364364E+04
       211   5 -8.250808E+05 -2.165927E+05 -6.013842E+02 -4.435817E+05 -8.694632E+03  2.253207E+04
       211   6 -8.128831E+05 -2.287509E+05 -5.483209E+02 -4.575641E+05 -4.180329E+03  1.139482E+04
       211   7 -3.785501E+05 -7.166656E+04  7.849272E+04 -3.367291E+05 -3.132711E+04  2.684951E+04
       211   8 -5.322962E+05 -1.106162E+05  5.313479E+04 -3.621593E+05 -2.685749E+04  1.572609E+04
       211   9 -6.616578E+05 -1.739417E+05  2.758776E+04 -4.155320E+05 -2.238157E+04  4.576946E+03
       211  10 -1.247096E+06 -3.859586E+05 -8.025002E+04 -5.782936E+05 -9.033454E-10  2.377013E-10
       211  11 -1.117775E+06 -3.225619E+05 -5.434109E+04 -5.249683E+05  6.356998E-10 -3.069769E-11
       211  12 -9.640826E+05 -2.835576E+05 -2.868447E+04 -4.995863E+05  1.199845E-09 -1.025809E-10
       211  13 -8.129207E+05 -2.288211E+05 -8.762620E+02 -4.575499E+05 -1.397888E-09 -2.032665E-10
       211  14 -8.250810E+05 -2.165932E+05 -6.024798E+02 -4.435815E+05  5.734614E-11  3.580013E-10
       211  15 -8.128832E+05 -2.287510E+05 -5.485976E+02 -4.575640E+05 -6.879214E-10  1.664262E-10
       211  16 -3.785513E+05 -7.166760E+04  7.848952E+04 -3.367284E+05  6.958824E-10 -1.859145E-10
       211  17 -5.322971E+05 -1.106166E+05  5.313297E+04 -3.621589E+05 -9.612742E-10  3.104178E-10
       211  18 -6.616584E+05 -1.739418E+05  2.758678E+04 -4.155319E+05 -1.555924E-09 -4.623106E-10
       211  19 -1.247096E+06 -3.859568E+05 -8.024690E+04 -5.782935E+05 -4.908558E+03 -4.043276E+04
       211  20 -1.117775E+06 -3.225609E+05 -5.433931E+04 -5.249681E+05 -9.459074E+03 -2.933462E+04
       211  21 -9.640823E+05 -2.835572E+05 -2.868347E+04 -4.995861E+05 -1.401600E+04 -1.821086E+04
       211  22 -8.129202E+05 -2.288199E+05 -8.738086E+02 -4.575502E+05  1.320259E+04 -3.364364E+04
       211  23 -8.250808E+05 -2.165927E+05 -6.013842E+02 -4.435817E+05  8.694632E+03 -2.253207E+04
       211  24 -8.128831E+05 -2.287509E+05 -5.483209E+02 -4.575641E+05  4.180329E+03 -1.139482E+04
       211  25 -3.785501E+05 -7.166656E+04  7.849272E+04 -3.367291E+05  3.132711E+04 -2.684951E+04
       211  26 -5.322962E+05 -1.106162E+05  5.313479E+04 -3.621593E+05  2.685749E+04 -1.572609E+04
       211  27 -6.616578E+05 -1.739417E+05  2.758776E+04 -4.155320E+05  2.238157E+04 -4.576946E+03
       212   1 -8.709111E+05 -2.497101E+05 -1.086346E+04 -4.737562E+05  1.657081E+04  1.169088E+04
       212   2 -7.414727E+05 -1.863453E+05  1.447964E+04 -4.204040E+05  2.119092E+04  5.891962E+02
       212   3 -5.876754E+05 -1.473747E+05  3.952285E+04 -3.950176E+05  2.580489E+04 -1.049405E+04
       212   4 -8.128829E+05 -2.287472E+05 -5.967563E+02 -4.575699E+05 -1.628976E+03  4.874061E+03
       212   5 -8.250537E+05 -2.165450E+05 -8.658502E+02 -4.435853E+05  3.018587E+03 -6.218044E+03
       212   6 -8.128920E+05 -2.287446E+05 -1.457392E+03 -4.575750E+05  7.659893E+03 -1.729171E+04
       212   7 -7.548505E+05 -2.077837E+05  9.671254E+03 -4.413820E+05 -1.983057E+04 -1.943435E+03
       212   8 -9.086262E+05 -2.467436E+05 -1.621006E+04 -4.667635E+05 -1.515104E+04 -1.302427E+04
       212   9 -1.038052E+06 -3.101087E+05 -4.243742E+04 -5.201104E+05 -1.047790E+04 -2.408667E+04
       212  10 -8.709114E+05 -2.497103E+05 -1.086423E+04 -4.737563E+05 -5.682170E-10 -1.980281E-10
       212  11 -7.414732E+05 -1.863454E+05  1.447879E+04 -4.204040E+05 -1.243052E-09 -1.419904E-10
       212  12 -5.876762E+05 -1.473750E+05  3.952139E+04 -3.950174E+05  9.823540E-10 -1.439159E-10
       212  13 -8.128830E+05 -2.287472E+05 -5.968059E+02 -4.575699E+05 -2.581241E-10 -4.365144E-10
       212  14 -8.250537E+05 -2.165450E+05 -8.659400E+02 -4.435853E+05 -1.001765E-09  3.043099E-10
       212  15 -8.128921E+05 -2.287449E+05 -1.458063E+03 -4.575749E+05 -1.878196E-10 -6.373388E-12
       212  16 -7.548510E+05 -2.077838E+05  9.670507E+03 -4.413820E+05  1.060408E-09 -9.982540E-11
       212  17 -9.086265E+05 -2.467438E+05 -1.621081E+04 -4.667636E+05 -5.817784E-10 -1.095333E-10
       212  18 -1.038053E+06 -3.101093E+05 -4.243872E+04 -5.201106E+05 -1.137104E-09  2.338981E-10
       212  19 -8.709111E+05 -2.497101E+05 -1.086346E+04 -4.737562E+05 -1.657081E+04 -1.169088E+04
       212  20 -7.414727E+05 -1.863453E+05  1.447964E+04 -4.204040E+05 -2.119092E+04 -5.891962E+02
       212  21 -5.876754E+05 -1.473747E+05  3.952285E+04 -3.950176E+05 -2.580489E+04  1.049405E+04
       212  22 -8.128829E+05 -2.287472E+05 -5.967563E+02 -4.575699E+05  1.628976E+03 -4.874061E+03
       212  23 -8.250537E+05 -2.165450E+05 -8.658502E+02 -4.435853E+05 -3.018587E+03  6.218044E+03
       212  24 -8.128920E+05 -2.287446E+05 -1.457392E+03 -4.575750E+05 -7.659893E+03  1.729171E+04
       212  25 -7.548505E+05 -2.077837E+05  9.671254E+03 -4.413820E+05  1.983057E+04  1.943435E+03
       212  26 -9.086262E+05 -2.467436E+05 -1.621006E+04 -4.667635E+05  1.515104E+04  1.302427E+04
       212  27 -1.038052E+06 -3.101087E+05 -4.243742E+04 -5.201104E+05  1.047790E+04  2.408667E+04
       213   1 -4.945202E+05 -1.135502E+05  5.693828E+04 -3.692050E+05  2.856709E+04 -1.692501E+04
       213   2 -3.651327E+05 -5.024705E+04  8.112954E+04 -3.158621E+05  3.406586E+04 -2.754621E+04
       213   3 -2.115523E+05 -1.142588E+04  1.043106E+05 -2.904376E+05  3.947918E+04 -3.792600E+04
       213   4 -8.129488E+05 -2.287414E+05 -1.914349E+03 -4.575836E+05  1.039268E+04 -2.373506E+04
       213   5 -8.250349E+05 -2.165767E+05 -3.438779E+03 -4.435854E+05  1.627685E+04 -3.421579E+04
       213   6 -8.130281E+05 -2.289754E+05 -6.281028E+03 -4.575164E+05  2.207521E+04 -4.445509E+04
       213   7 -1.131273E+06 -3.439242E+05 -6.077026E+04 -5.459208E+05 -7.771932E+03 -3.054145E+04
       213   8 -1.284717E+06 -3.828874E+05 -8.801424E+04 -5.712210E+05 -1.498163E+03 -4.088014E+04
       213   9 -1.414124E+06 -4.464914E+05 -1.168848E+05 -6.244445E+05  4.689242E+03 -5.097744E+04
       213  10 -4.945211E+05 -1.135507E+05  5.693621E+04 -3.692046E+05  9.590040E-10  2.238492E-10
       213  11 -3.651341E+05 -5.024817E+04  8.112593E+04 -3.158614E+05 -3.571910E-10 -2.080983E-10
       213  12 -2.115544E+05 -1.142784E+04  1.043049E+05 -2.904364E+05 -1.309120E-09 -6.517640E-10
       213  13 -8.129490E+05 -2.287420E+05 -1.915610E+03 -4.575834E+05 -5.332841E-10 -1.180823E-10
       213  14 -8.250355E+05 -2.165780E+05 -3.441476E+03 -4.435849E+05 -4.369526E-10 -6.609675E-10
       213  15 -8.130292E+05 -2.289777E+05 -6.285655E+03 -4.575156E+05  6.612666E-10 -3.954694E-10
       213  16 -1.131274E+06 -3.439252E+05 -6.077212E+04 -5.459210E+05 -5.364634E-10 -1.981728E-10
       213  17 -1.284717E+06 -3.828892E+05 -8.801738E+04 -5.712210E+05 -1.579646E-10 -9.076059E-10
       213  18 -1.414125E+06 -4.464942E+05 -1.168897E+05 -6.244443E+05  7.399595E-10 -3.265071E-10
       213  19 -4.945202E+05 -1.135502E+05  5.693828E+04 -3.692050E+05 -2.856709E+04  1.692501E+04
       213  20 -3.651327E+05 -5.024705E+04  8.112954E+04 -3.158621E+05 -3.406586E+04  2.754621E+04
       213  21 -2.115523E+05 -1.142588E+04  1.043106E+05 -2.904376E+05 -3.947918E+04  3.792600E+04
       213  22 -8.129488E+05 -2.287414E+05 -1.914349E+03 -4.575836E+05 -1.039268E+04  2.373506E+04
       213  23 -8.250349E+05 -2.165767E+05 -3.438779E+03 -4.435854E+05 -1.627685E+04  3.421579E+04
       213  24 -8.130281E+05 -2.289754E+05 -6.281028E+03 -4.575164E+05 -2.207521E+04  4.445509E+04
       213  25 -1.131273E+06 -3.439242E+05 -6.077026E+04 -5.459208E+05  7.771932E+03  3.054145E+04
       213  26 -1.284717E+06 -3.828874E+05 -8.801424E+04 -5.712210E+05  1.498163E+03  4.088014E+04
       213  27 -1.414124E+06 -4.464914E+05 -1.168848E+05 -6.244445E+05 -4.689242E+03  5.097744E+04
       214   1 -1.183715E+05  2.215217E+04  1.202082E+05 -2.651894E+05  4.347611E+04 -4.378179E+04
       214   2  9.904698E+03  8.589120E+04  1.406373E+05 -2.102084E+05  5.009991E+04 -5.220664E+04
       214   3  1.609213E+05  1.223731E+05  1.579990E+05 -1.821706E+05  5.564365E+04 -5.773405E+04
       214   4 -8.134360E+05 -2.288553E+05 -8.360642E+03 -4.576590E+05  2.565789E+04 -5.046934E+04
       214   5 -8.247671E+05 -2.175575E+05 -1.531052E+04 -4.431512E+05  3.695640E+04 -5.714718E+04
       214   6 -8.143066E+05 -2.344506E+05 -2.903843E+04 -4.555969E+05  4.717333E+04 -6.092570E+04
       214   7 -1.507987E+06 -4.798162E+05 -1.369447E+05 -6.499265E+05  7.861147E+03 -5.714890E+04
       214   8 -1.658710E+06 -5.209412E+05 -1.712849E+05 -6.758023E+05  2.383177E+04 -6.208060E+04
       214   9 -1.788553E+06 -5.911889E+05 -2.161186E+05 -7.286258E+05  3.871716E+04 -6.411197E+04
       214  10 -1.183740E+05  2.214960E+04  1.202011E+05 -2.651878E+05 -1.651653E-10 -4.570313E-10
       214  11  9.901273E+03  8.588761E+04  1.406274E+05 -2.102063E+05  8.092937E-10 -4.844006E-10
       214  12  1.609171E+05  1.223687E+05  1.579870E+05 -1.821680E+05 -7.889435E-10  1.150420E-10
       214  13 -8.134374E+05 -2.288582E+05 -8.366662E+03 -4.576579E+05 -3.769949E-10 -7.142921E-10
       214  14 -8.247694E+05 -2.175614E+05 -1.531922E+04 -4.431495E+05 -1.189168E-10 -4.264878E-10
       214  15 -8.143100E+05 -2.344552E+05 -2.904958E+04 -4.555946E+05 -9.290063E-10  3.190648E-10
       214  16 -1.507988E+06 -4.798197E+05 -1.369510E+05 -6.499261E+05  8.556757E-10 -7.018623E-10
       214  17 -1.658711E+06 -5.209455E+05 -1.712932E+05 -6.758011E+05  3.269823E-10 -3.669950E-10
       214  18 -1.788556E+06 -5.911937E+05 -2.161291E+05 -7.286238E+05  1.327475E-09  5.329220E-10
       214  19 -1.183715E+05  2.215217E+04  1.202082E+05 -2.651894E+05 -4.347611E+04  4.378179E+04
       214  20  9.904698E+03  8.589120E+04  1.406373E+05 -2.102084E+05 -5.009991E+04  5.220664E+04
       214  21  1.609213E+05  1.223731E+05  1.579990E+05 -1.821706E+05 -5.564365E+04  5.773405E+04
       214  22 -8.134360E+05 -2.288553E+05 -8.360642E+03 -4.576590E+05 -2.565789E+04  5.046934E+04
       214  23 -8.247671E+05 -2.175575E+05 -1.531052E+04 -4.431512E+05 -3.695640E+04  5.714718E+04
       214  24 -8.143066E+05 -2.344506E+05 -2.903843E+04 -4.555969E+05 -4.717333E+04  6.092570E+04
       214  25 -1.507987E+06 -4.798162E+05 -1.369447E+05 -6.499265E+05 -7.861147E+03  5.714890E+04
       214  26 -1.658710E+06 -5.209412E+05 -1.712849E+05 -6.758023E+05 -2.383177E+04  6.208060E+04
       214  27 -1.788553E+06 -5.911889E+05 -2.161186E+05 -7.286258E+05 -3.871716E+04  6.411197E+04
       215   1  2.582712E+05  1.515703E+05  1.682792E+05 -1.671772E+05  6.728453E+04 -5.949437E+04
       215   2  3.601228E+05  2.269677E+05  1.826886E+05 -6.867721E+04  4.404492E+04 -5.751158E+04
       215   3  4.613308E+05  2.120406E+05  1.929605E+05  2.388798E+04  7.370118E+03 -1.985064E+04
       215   4 -8.192483E+05 -2.321639E+05 -3.839578E+04 -4.579571E+05  5.354925E+04 -6.466552E+04
       215   5 -8.218415E+05 -2.420207E+05 -7.272934E+04 -4.321866E+05  8.803534E+04 -4.099489E+04
       215   6 -8.365918E+05 -3.537450E+05 -1.569977E+05 -4.123514E+05  1.090733E+05  1.839258E+04
       215   7 -1.895562E+06 -6.158067E+05 -2.451196E+05 -7.482741E+05  3.983951E+04 -6.982758E+04
       215   8 -2.002361E+06 -7.108236E+05 -3.282177E+05 -7.950312E+05  1.319353E+05 -2.451850E+04
       215   9 -2.132816E+06 -9.192348E+05 -5.070562E+05 -8.476951E+05  2.105429E+05  5.651539E+04
       215  10  2.582654E+05  1.515653E+05  1.682641E+05 -1.671740E+05  7.066321E-10  5.157832E-10
       215  11  3.601199E+05  2.269636E+05  1.826787E+05 -6.867517E+04 -7.907165E-10  1.575937E-09
       215  12  4.613306E+05  2.120402E+05  1.929597E+05  2.388810E+04 -9.304519E-10  5.467008E-10
       215  13 -8.192525E+05 -2.321692E+05 -3.840902E+04 -4.579543E+05 -1.496045E-09  1.260705E-11
       215  14 -8.218503E+05 -2.420246E+05 -7.274707E+04 -4.321837E+05 -1.028412E-09  1.345643E-09
       215  15 -8.366047E+05 -3.537486E+05 -1.570207E+05 -4.123531E+05 -9.706650E-10  3.864015E-10
       215  16 -1.895565E+06 -6.158123E+05 -2.451318E+05 -7.482718E+05 -1.408204E-09  6.525056E-11
       215  17 -2.002380E+06 -7.108290E+05 -3.282516E+05 -7.950286E+05  1.869594E-10 -1.068751E-09
       215  18 -2.132864E+06 -9.192502E+05 -5.071459E+05 -8.477047E+05  1.074135E-10 -4.031540E-10
       215  19  2.582712E+05  1.515703E+05  1.682792E+05 -1.671772E+05 -6.728453E+04  5.949437E+04
       215  20  3.601228E+05  2.269677E+05  1.826886E+05 -6.867721E+04 -4.404492E+04  5.751158E+04
       215  21  4.613308E+05  2.120406E+05  1.929605E+05  2.388798E+04 -7.370118E+03  1.985064E+04
       215  22 -8.192483E+05 -2.321639E+05 -3.839578E+04 -4.579571E+05 -5.354925E+04  6.466552E+04
       215  23 -8.218415E+05 -2.420207E+05 -7.272934E+04 -4.321866E+05 -8.803534E+04  4.099489E+04
       215  24 -8.365918E+05 -3.537450E+05 -1.569977E+05 -4.123514E+05 -1.090733E+05 -1.839258E+04
       215  25 -1.895562E+06 -6.158067E+05 -2.451196E+05 -7.482741E+05 -3.983951E+04  6.982758E+04
       215  26 -2.002361E+06 -7.108236E+05 -3.282177E+05 -7.950312E+05 -1.319353E+05  2.451850E+04
       215  27 -2.132816E+06 -9.192348E+05 -5.070562E+05 -8.476951E+05 -2.105429E+05 -5.651539E+04
       216   1 -4.870790E+05 -1.630155E+05 -1.306479E+05 -5.092504E+04  2.639916E+04  1.733896E+04
       216   2 -3.511486E+05 -2.378179E+05 -1.379539E+05 -8.927399E+04  3.605978E+04  5.688551E+04
       216   3 -1.959244E+05 -2.313487E+05 -1.312114E+05 -1.577288E+05  4.575597E+04  6.552975E+04
       216   4  8.102474E+05  1.571389E+05  1.741171E+05 -1.492632E+05  1.215313E+05  1.740792E+04
       216   5  7.960860E+05  3.605903E+04  8.480466E+04 -1.341720E+05  7.777094E+04  5.689944E+04
       216   6  8.104141E+05  5.426385E+03  4.658692E+04 -1.491759E+05  3.404655E+04  6.551647E+04
       216   7  2.109163E+06  4.772150E+05  4.788061E+05 -2.478084E+05  2.168609E+05  1.744669E+04
       216   8  1.944592E+06  3.098659E+05  3.075088E+05 -1.791550E+05  1.195574E+05  5.690734E+04
       216   9  1.817743E+06  2.421463E+05  2.243485E+05 -1.406088E+05  2.231868E+04  6.550287E+04
       216  10 -4.870798E+05 -1.630161E+05 -1.306498E+05 -5.092541E+04  1.430216E-09 -1.030311E-09
       216  11 -3.511509E+05 -2.378217E+05 -1.379624E+05 -8.927565E+04 -1.613095E-09  2.502634E-11
       216  12 -1.959278E+05 -2.313539E+05 -1.312234E+05 -1.577312E+05 -4.480692E-09 -2.327419E-10
       216  13  8.102315E+05  1.571346E+05  1.740888E+05 -1.492649E+05 -8.176487E-10  4.878423E-10
       216  14  7.960787E+05  3.605393E+04  8.478721E+04 -1.341756E+05 -1.338548E-09 -3.328029E-10
       216  15  8.104117E+05  5.421463E+03  4.657668E+04 -1.491777E+05 -1.780659E-10 -4.604111E-10
       216  16  2.109113E+06  4.772021E+05  4.787174E+05 -2.478114E+05 -8.135254E-10  3.908558E-10
       216  17  1.944576E+06  3.098586E+05  3.074759E+05 -1.791605E+05  3.548143E-09 -3.181049E-10
       216  18  1.817741E+06  2.421416E+05  2.243395E+05 -1.406100E+05  3.897597E-09  9.957835E-10
       216  19 -4.870790E+05 -1.630155E+05 -1.306479E+05 -5.092504E+04 -2.639916E+04 -1.733896E+04
       216  20 -3.511486E+05 -2.378179E+05 -1.379539E+05 -8.927399E+04 -3.605978E+04 -5.688551E+04
       216  21 -1.959244E+05 -2.313487E+05 -1.312114E+05 -1.577288E+05 -4.575597E+04 -6.552975E+04
       216  22  8.102474E+05  1.571389E+05  1.741171E+05 -1.492632E+05 -1.215313E+05 -1.740792E+04
       216  23  7.960860E+05  3.605903E+04  8.480466E+04 -1.341720E+05 -7.777094E+04 -5.689944E+04
       216  24  8.104141E+05  5.426385E+03  4.658692E+04 -1.491759E+05 -3.404655E+04 -6.551647E+04
       216  25  2.109163E+06  4.772150E+05  4.788061E+05 -2.478084E+05 -2.168609E+05 -1.744669E+04
       216  26  1.944592E+06  3.098659E+05  3.075088E+05 -1.791550E+05 -1.195574E+05 -5.690734E+04
       216  27  1.817743E+06  2.421463E+05  2.243485E+05 -1.406088E+05 -2.231868E+04 -6.550287E+04
       217   1 -1.060846E+05 -2.067248E+05 -1.236901E+05 -1.467958E+05  3.657898E+04  6.090842E+04
       217   2  3.798254E+04 -1.779900E+05 -1.105206E+05 -1.328315E+05  3.181504E+04  5.448961E+04
       217   3  1.838160E+05 -1.451470E+05 -9.319558E+04 -1.508353E+05  2.704664E+04  4.521839E+04
       217   4  8.046903E+05  7.181646E+03  3.540437E+04 -1.496081E+05  2.798380E+04  6.089783E+04
       217   5  8.034309E+05  1.026500E+03  1.945632E+04 -1.336252E+05  1.827775E+04  5.448126E+04
       217   6  8.047701E+05 -1.661602E+02  1.108645E+04 -1.496075E+05  8.568333E+03  4.521404E+04
       217   7  1.716277E+06  2.210432E+05  1.944696E+05 -1.524247E+05  1.937637E+04  6.088734E+04
       217   8  1.569456E+06  1.800122E+05  1.494149E+05 -1.344199E+05  4.724284E+03  5.447295E+04
       217   9  1.426105E+06  1.447947E+05  1.153577E+05 -1.483784E+05 -9.927850E+03  4.520961E+04
       217  10 -1.060870E+05 -2.067292E+05 -1.236996E+05 -1.467976E+05 -5.837670E-09  1.693037E-10
       217  11  3.798065E+04 -1.779935E+05 -1.105281E+05 -1.328329E+05  8.014240E-09  4.254925E-10
       217  12  1.838147E+05 -1.451494E+05 -9.320080E+04 -1.508363E+05  2.282775E-08 -1.198336E-11
       217  13  8.046885E+05  7.177452E+03  3.539593E+04 -1.496095E+05 -7.812768E-10  1.173147E-09
       217  14  8.034298E+05  1.023222E+03  1.945012E+04 -1.336260E+05  9.883467E-10  9.477274E-10
       217  15  8.047695E+05 -1.683760E+02  1.108247E+04 -1.496078E+05 -8.437667E-10  5.007533E-10
       217  16  1.716276E+06  2.210391E+05  1.944619E+05 -1.524256E+05  4.641534E-09  1.043429E-09
       217  17  1.569455E+06  1.800090E+05  1.494093E+05 -1.344201E+05 -9.219328E-09  1.102207E-09
       217  18  1.426104E+06  1.447925E+05  1.153536E+05 -1.483780E+05 -2.345363E-08  1.198146E-09
       217  19 -1.060846E+05 -2.067248E+05 -1.236901E+05 -1.467958E+05 -3.657898E+04 -6.090842E+04
       217  20  3.798254E+04 -1.779900E+05 -1.105206E+05 -1.328315E+05 -3.181504E+04 -5.448961E+04
       217  21  1.838160E+05 -1.451470E+05 -9.319558E+04 -1.508353E+05 -2.704664E+04 -4.521839E+04
       217  22  8.046903E+05  7.181646E+03  3.540437E+04 -1.496081E+05 -2.798380E+04 -6.089783E+04
       217  23  8.034309E+05  1.026500E+03  1.945632E+04 -1.336252E+05 -1.827775E+04 -5.448126E+04
       217  24  8.047701E+05 -1.661602E+02  1.108645E+04 -1.496075E+05 -8.568333E+03 -4.521404E+04
       217  25  1.716277E+06  2.210432E+05  1.944696E+05 -1.524247E+05 -1.937637E+04 -6.088734E+04
       217  26  1.569456E+06  1.800122E+05  1.494149E+05 -1.344199E+05 -4.724284E+03 -5.447295E+04
       217  27  1.426105E+06  1.447947E+05  1.153577E+05 -1.483784E+05  9.927850E+03 -4.520961E+04
       218   1  2.773425E+05 -1.228880E+05 -7.944551E+04 -1.500966E+05  2.505304E+04  3.893398E+04
       218   2  4.219182E+05 -8.929081E+04 -5.888089E+04 -1.339294E+05  2.314124E+04  2.828139E+04
       218   3  5.668379E+05 -5.551293E+04 -3.701866E+04 -1.498650E+05  2.122619E+04  1.736801E+04
       218   4  8.043031E+05  1.315238E+01  8.412145E+03 -1.496382E+05  6.867895E+03  3.893177E+04
       218   5  8.041204E+05 -1.695294E+02  4.783843E+03 -1.335876E+05  4.501508E+03  2.828166E+04
       218   6  8.043411E+05 -9.173739E+01  2.767081E+03 -1.496384E+05  2.132296E+03  1.737086E+04
       218   7  1.331538E+06  1.229000E+05  9.626254E+04 -1.491794E+05 -1.133217E+04  3.892954E+04
       218   8  1.186468E+06  8.894434E+04  6.844542E+04 -1.332454E+05 -1.414931E+04  2.828191E+04
       218   9  1.041901E+06  5.532671E+04  4.255243E+04 -1.494118E+05 -1.696865E+04  1.737369E+04
       218  10  2.773415E+05 -1.228898E+05 -7.944954E+04 -1.500974E+05 -2.464195E-08 -3.467006E-10
       218  11  4.219174E+05 -8.929181E+04 -5.888340E+04 -1.339300E+05 -1.222203E-08 -7.685063E-10
       218  12  5.668374E+05 -5.551338E+04 -3.702007E+04 -1.498653E+05  4.620760E-09 -4.745744E-10
       218  13  8.043027E+05  1.151145E+01  8.409207E+03 -1.496384E+05 -1.357406E-09  3.876701E-10
       218  14  8.041202E+05 -1.703941E+02  4.782302E+03 -1.335877E+05  9.479852E-15 -7.732017E-11
       218  15  8.043410E+05 -9.206277E+01  2.766505E+03 -1.496385E+05 -2.300815E-09 -1.949177E-10
       218  16  1.331538E+06  1.228984E+05  9.625945E+04 -1.491790E+05  2.338605E-08  1.244839E-09
       218  17  1.186467E+06  8.894343E+04  6.844354E+04 -1.332451E+05  1.009112E-08  6.724241E-10
       218  18  1.041900E+06  5.532631E+04  4.255133E+04 -1.494115E+05 -4.853341E-09 -2.161045E-10
       218  19  2.773425E+05 -1.228880E+05 -7.944551E+04 -1.500966E+05 -2.505304E+04 -3.893398E+04
       218  20  4.219182E+05 -8.929081E+04 -5.888089E+04 -1.339294E+05 -2.314124E+04 -2.828139E+04
       218  21  5.668379E+05 -5.551293E+04 -3.701866E+04 -1.498650E+05 -2.122619E+04 -1.736801E+04
       218  22  8.043031E+05  1.315238E+01  8.412145E+03 -1.496382E+05 -6.867895E+03 -3.893177E+04
       218  23  8.041204E+05 -1.695294E+02  4.783843E+03 -1.335876E+05 -4.501508E+03 -2.828166E+04
       218  24  8.043411E+05 -9.173739E+01  2.767081E+03 -1.496384E+05 -2.132296E+03 -1.737086E+04
       218  25  1.331538E+06  1.229000E+05  9.626254E+04 -1.491794E+05  1.133217E+04 -3.892954E+04
       218  26  1.186468E+06  8.894434E+04  6.844542E+04 -1.332454E+05  1.414931E+04 -2.828191E+04
       218  27  1.041901E+06  5.532671E+04  4.255243E+04 -1.494118E+05  1.696865E+04 -1.737369E+04
       219   1  6.605821E+05 -3.349275E+04 -2.147411E+04 -1.498036E+05  2.075653E+04  1.093615E+04
       219   2  8.052386E+05  1.862757E+02  1.387934E+03 -1.336984E+05  2.018109E+04 -9.899602E+01
       219   3  9.500024E+05  3.386752E+04  2.462682E+04 -1.496978E+05  1.960554E+04 -1.115579E+04
       219   4  8.042786E+05 -6.007585E+01  2.111588E+03 -1.496391E+05  1.690119E+03  1.093974E+04
       219   5  8.042333E+05 -4.342418E+01  1.243321E+03 -1.335868E+05  1.074852E+03 -9.542156E+01
       219   6  8.042788E+05 -1.757530E+01  7.778133E+02 -1.496392E+05  4.595890E+02 -1.115221E+04
       219   7  9.479963E+05  3.337173E+04  2.569806E+04 -1.494746E+05 -1.738055E+04  1.094331E+04
       219   8  8.032288E+05 -2.729283E+02  1.100079E+03 -1.334752E+05 -1.803136E+04 -9.185394E+01
       219   9  6.585770E+05 -3.390356E+04 -2.307043E+04 -1.495805E+05 -1.868203E+04 -1.114863E+04
       219  10  6.605816E+05 -3.349299E+04 -2.147515E+04 -1.498038E+05 -1.412868E-09 -1.001338E-10
       219  11  8.052381E+05  1.861665E+02  1.387170E+03 -1.336984E+05 -2.178500E-09  6.756681E-10
       219  12  9.500019E+05  3.386728E+04  2.462587E+04 -1.496977E+05 -4.526230E-09  1.620660E-09
       219  13  8.042786E+05 -6.020518E+01  2.111358E+03 -1.496392E+05 -1.102538E-09 -2.871965E-10
       219  14  8.042333E+05 -4.342450E+01  1.243319E+03 -1.335868E+05 -1.452955E-10  3.231979E-10
       219  15  8.042788E+05 -1.770896E+01  7.775791E+02 -1.496392E+05 -4.725018E-11  1.749501E-09
       219  16  9.479960E+05  3.337152E+04  2.569726E+04 -1.494744E+05  1.098492E-09 -6.551712E-10
       219  17  8.032285E+05 -2.730155E+02  1.099469E+03 -1.334752E+05  2.423053E-09  4.690463E-11
       219  18  6.585766E+05 -3.390379E+04 -2.307132E+04 -1.495807E+05  4.097801E-09  1.975130E-09
       219  19  6.605821E+05 -3.349275E+04 -2.147411E+04 -1.498036E+05 -2.075653E+04 -1.093615E+04
       219  20  8.052386E+05  1.862757E+02  1.387934E+03 -1.336984E+05 -2.018109E+04  9.899602E+01
       219  21  9.500024E+05  3.386752E+04  2.462682E+04 -1.496978E+05 -1.960554E+04  1.115579E+04
       219  22  8.042786E+05 -6.007585E+01  2.111588E+03 -1.496391E+05 -1.690119E+03 -1.093974E+04
       219  23  8.042333E+05 -4.342418E+01  1.243321E+03 -1.335868E+05 -1.074852E+03  9.542156E+01
       219  24  8.042788E+05 -1.757530E+01  7.778133E+02 -1.496392E+05 -4.595890E+02  1.115221E+04
       219  25  9.479963E+05  3.337173E+04  2.569806E+04 -1.494746E+05  1.738055E+04 -1.094331E+04
       219  26  8.032288E+05 -2.729283E+02  1.100079E+03 -1.334752E+05  1.803136E+04  9.185394E+01
       219  27  6.585770E+05 -3.390356E+04 -2.307043E+04 -1.495805E+05  1.868203E+04  1.114863E+04
       220   1  1.043818E+06  5.584230E+04  4.067185E+04 -1.496974E+05  1.947998E+04 -1.759887E+04
       220   2  1.188592E+06  8.947558E+04  6.425261E+04 -1.335888E+05  1.918992E+04 -2.865339E+04
       220   3  1.333457E+06  1.231120E+05  8.802939E+04 -1.495997E+05  1.890279E+04 -3.968261E+04
       220   4  8.042654E+05 -2.320557E+01  6.415623E+02 -1.496427E+05  3.291785E+02 -1.759605E+04
       220   5  8.042160E+05 -6.136583E+01  5.013214E+02 -1.335824E+05  8.088318E+01 -2.865314E+04
       220   6  8.042285E+05 -1.029002E+02  5.272968E+02 -1.496427E+05 -1.644194E+02 -3.968490E+04
       220   7  5.647707E+05 -5.589150E+04 -3.938912E+04 -1.495880E+05 -1.881448E+04 -1.759323E+04
       220   8  4.199865E+05 -8.960576E+04 -6.325304E+04 -1.335760E+05 -1.901674E+04 -2.865289E+04
       220   9  2.752773E+05 -1.233321E+05 -8.698177E+04 -1.496857E+05 -1.921595E+04 -3.968720E+04
       220  10  1.043817E+06  5.584186E+04  4.067056E+04 -1.496972E+05  3.768766E-09  2.025282E-09
       220  11  1.188591E+06  8.947460E+04  6.425037E+04 -1.335884E+05 -1.008568E-08  9.589265E-10
       220  12  1.333456E+06  1.231102E+05  8.802576E+04 -1.495991E+05 -2.336459E-08 -2.101023E-09
       220  13  8.042654E+05 -2.353821E+01  6.409801E+02 -1.496427E+05  5.723726E-10  2.138315E-09
       220  14  8.042158E+05 -6.224777E+01  4.997779E+02 -1.335824E+05  4.223224E-11  1.009921E-09
       220  15  8.042281E+05 -1.045920E+02  5.243361E+02 -1.496427E+05  4.590843E-10 -1.672153E-09
       220  16  5.647702E+05 -5.589193E+04 -3.939037E+04 -1.495883E+05 -3.930275E-09  2.423330E-09
       220  17  4.199859E+05 -8.960674E+04 -6.325526E+04 -1.335764E+05  9.408337E-09  8.387183E-10
       220  18  2.752765E+05 -1.233339E+05 -8.698543E+04 -1.496863E+05  2.382910E-08 -1.387042E-09
       220  19  1.043818E+06  5.584230E+04  4.067185E+04 -1.496974E+05 -1.947998E+04  1.759887E+04
       220  20  1.188592E+06  8.947558E+04  6.425261E+04 -1.335888E+05 -1.918992E+04  2.865339E+04
       220  21  1.333457E+06  1.231120E+05  8.802939E+04 -1.495997E+05 -1.890279E+04  3.968261E+04
       220  22  8.042654E+05 -2.320557E+01  6.415623E+02 -1.496427E+05 -3.291785E+02  1.759605E+04
       220  23  8.042160E+05 -6.136583E+01  5.013214E+02 -1.335824E+05 -8.088318E+01  2.865314E+04
       220  24  8.042285E+05 -1.029002E+02  5.272968E+02 -1.496427E+05  1.644194E+02  3.968490E+04
       220  25  5.647707E+05 -5.589150E+04 -3.938912E+04 -1.495880E+05  1.881448E+04  1.759323E+04
       220  26  4.199865E+05 -8.960576E+04 -6.325304E+04 -1.335760E+05  1.901674E+04  2.865289E+04
       220  27  2.752773E+05 -1.233321E+05 -8.698177E+04 -1.496857E+05  1.921595E+04  3.968720E+04
       221   1  1.427431E+06  1.450889E+05  1.043222E+05 -1.495663E+05  1.884550E+04 -4.611348E+04
       221   2  1.572365E+06  1.787554E+05  1.285647E+05 -1.333591E+05  1.783926E+04 -5.698562E+04
       221   3  1.717579E+06  2.125529E+05  1.535175E+05 -1.492995E+05  1.683852E+04 -6.752506E+04
       221   4  8.042296E+05 -1.342248E+02  6.007072E+02 -1.496492E+05 -2.655340E+02 -4.611804E+04
       221   5  8.041122E+05 -2.201271E+02  8.780501E+02 -1.335743E+05 -6.971046E+02 -5.699517E+04
       221   6  8.041555E+05 -2.732513E+02  1.467482E+03 -1.496492E+05 -1.122950E+03 -6.753937E+04
       221   7  1.814119E+05 -1.453773E+05 -1.031313E+05 -1.497321E+05 -1.935806E+04 -4.612261E+04
       221   8  3.644148E+04 -1.792261E+05 -1.268252E+05 -1.337891E+05 -1.921134E+04 -5.700472E+04
       221   9 -1.084451E+05 -2.131426E+05 -1.506068E+05 -1.499983E+05 -1.905893E+04 -6.755368E+04
       221  10  1.427430E+06  1.450865E+05  1.043176E+05 -1.495656E+05 -3.560399E-08 -3.542152E-09
       221  11  1.572364E+06  1.787518E+05  1.285580E+05 -1.333583E+05  8.539031E-09 -4.395903E-09
       221  12  1.717577E+06  2.125480E+05  1.535084E+05 -1.492986E+05  5.122837E-08 -1.806634E-09
       221  13  8.042291E+05 -1.365096E+02  5.967087E+02 -1.496492E+05  6.314214E-11 -3.085987E-09
       221  14  8.041113E+05 -2.236168E+02  8.719424E+02 -1.335743E+05 -8.381078E-10 -3.593775E-09
       221  15  8.041543E+05 -2.781519E+02  1.458904E+03 -1.496492E+05  9.582124E-11 -1.891782E-09
       221  16  1.814109E+05 -1.453797E+05 -1.031360E+05 -1.497328E+05  3.589112E-08 -2.698836E-09
       221  17  3.644021E+04 -1.792296E+05 -1.268320E+05 -1.337900E+05 -9.551543E-09 -3.127651E-09
       221  18 -1.084467E+05 -2.131476E+05 -1.506160E+05 -1.499994E+05 -5.304148E-08 -1.508579E-09
       221  19  1.427431E+06  1.450889E+05  1.043222E+05 -1.495663E+05 -1.884550E+04  4.611348E+04
       221  20  1.572365E+06  1.787554E+05  1.285647E+05 -1.333591E+05 -1.783926E+04  5.698562E+04
       221  21  1.717579E+06  2.125529E+05  1.535175E+05 -1.492995E+05 -1.683852E+04  6.752506E+04
       221  22  8.042296E+05 -1.342248E+02  6.007072E+02 -1.496492E+05  2.655340E+02  4.611804E+04
       221  23  8.041122E+05 -2.201271E+02  8.780501E+02 -1.335743E+05  6.971046E+02  5.699517E+04
       221  24  8.041555E+05 -2.732513E+02  1.467482E+03 -1.496492E+05  1.122950E+03  6.753937E+04
       221  25  1.814119E+05 -1.453773E+05 -1.031313E+05 -1.497321E+05  1.935806E+04  4.612261E+04
       221  26  3.644148E+04 -1.792261E+05 -1.268252E+05 -1.337891E+05  1.921134E+04  5.700472E+04
       221  27 -1.084451E+05 -2.131426E+05 -1.506068E+05 -1.499983E+05  1.905893E+04  6.755368E+04
       222   1  1.812017E+06  2.346184E+05  1.704838E+05 -1.490380E+05  1.693494E+04 -7.376745E+04
       222   2  1.956639E+06  2.689153E+05  1.981807E+05 -1.331544E+05  8.936891E+03 -8.252857E+04
       222   3  2.103010E+06  3.051431E+05  2.316078E+05 -1.492461E+05  9.404879E+02 -8.761869E+04
       222   4  8.042241E+05 -3.465912E+02  1.914787E+03 -1.496111E+05 -1.413383E+03 -7.378554E+04
       222   5  8.038552E+05 -2.459789E+02  3.299657E+03 -1.336218E+05 -3.049505E+03 -8.254973E+04
       222   6  8.041126E+05  6.851970E+02  6.007137E+03 -1.496116E+05 -4.682076E+03 -8.763947E+04
       222   7 -2.025686E+05 -2.353643E+05 -1.666844E+05 -1.501831E+05 -1.973297E+04 -7.380361E+04
       222   8 -3.476229E+05 -2.694771E+05 -1.916235E+05 -1.340884E+05 -1.501441E+04 -8.257090E+04
       222   9 -4.931354E+05 -3.038637E+05 -2.196525E+05 -1.499764E+05 -1.029326E+04 -8.766028E+04
       222  10  1.812015E+06  2.346125E+05  1.704730E+05 -1.490370E+05  2.023447E-09 -1.469115E-10
       222  11  1.956637E+06  2.689080E+05  1.981677E+05 -1.331538E+05  1.427818E-09  9.444608E-10
       222  12  2.103008E+06  3.051349E+05  2.315934E+05 -1.492461E+05  1.563458E-09  1.723185E-10
       222  13  8.042226E+05 -3.524403E+02  1.904548E+03 -1.496111E+05  3.461045E-13 -6.009212E-10
       222  14  8.038534E+05 -2.533018E+02  3.286829E+03 -1.336220E+05 -5.389396E-10  4.306786E-10
       222  15  8.041105E+05  6.769402E+02  5.992657E+03 -1.496119E+05 -1.296966E-09  5.380501E-10
       222  16 -2.025705E+05 -2.353703E+05 -1.666954E+05 -1.501843E+05 -1.604186E-09 -6.556248E-10
       222  17 -3.476250E+05 -2.694845E+05 -1.916368E+05 -1.340894E+05 -1.016188E-09  1.468429E-09
       222  18 -4.931376E+05 -3.038720E+05 -2.196672E+05 -1.499772E+05 -1.891220E-09  1.065487E-09
       222  19  1.812017E+06  2.346184E+05  1.704838E+05 -1.490380E+05 -1.693494E+04  7.376745E+04
       222  20  1.956639E+06  2.689153E+05  1.981807E+05 -1.331544E+05 -8.936891E+03  8.252857E+04
       222  21  2.103010E+06  3.051431E+05  2.316078E+05 -1.492461E+05 -9.404879E+02  8.761869E+04
       222  22  8.042241E+05 -3.465912E+02  1.914787E+03 -1.496111E+05  1.413383E+03  7.378554E+04
       222  23  8.038552E+05 -2.459789E+02  3.299657E+03 -1.336218E+05  3.049505E+03  8.254973E+04
       222  24  8.041126E+05  6.851970E+02  6.007137E+03 -1.496116E+05  4.682076E+03  8.763947E+04
       222  25 -2.025686E+05 -2.353643E+05 -1.666844E+05 -1.501831E+05  1.973297E+04  7.380361E+04
       222  26 -3.476229E+05 -2.694771E+05 -1.916235E+05 -1.340884E+05  1.501441E+04  8.257090E+04
       222  27 -4.931354E+05 -3.038637E+05 -2.196525E+05 -1.499764E+05  1.029326E+04  8.766028E+04
       223   1  2.200508E+06  3.279392E+05  2.529676E+05 -1.465503E+05  3.955420E+03 -9.171561E+04
       223   2  2.338261E+06  3.712837E+05  3.105348E+05 -1.406163E+05 -7.240236E+04 -7.747906E+04
       223   3  2.493135E+06  4.420532E+05  4.246227E+05 -1.641845E+05 -1.488601E+05 -2.345654E+04
       223   4  8.050756E+05  3.264196E+02  7.906298E+03 -1.490555E+05 -5.708576E+03 -9.174289E+04
       223   5  8.024117E+05  5.460705E+03  1.433959E+04 -1.343206E+05 -1.307911E+04 -7.742299E+04
       223   6  8.049236E+05  2.610125E+04  2.950466E+04 -1.490854E+05 -2.052737E+04 -2.327429E+04
       223   7 -5.884567E+05 -3.273924E+05 -2.372253E+05 -1.515552E+05 -1.535155E+04 -9.177013E+04
       223   8 -7.311693E+05 -3.605001E+05 -2.819520E+05 -1.280412E+05  4.610120E+04 -7.736566E+04
       223   9 -8.806342E+05 -3.900430E+05 -3.657457E+05 -1.340280E+05  1.074597E+05 -2.308559E+04
       223  10  2.200505E+06  3.279302E+05  2.529518E+05 -1.465500E+05  1.012968E-09 -1.430101E-09
       223  11  2.338254E+06  3.712759E+05  3.105137E+05 -1.406208E+05 -3.166878E-09 -4.406119E-09
       223  12  2.493111E+06  4.420467E+05  4.245802E+05 -1.641873E+05 -3.495443E-09 -1.358212E-09
       223  13  8.050733E+05  3.173692E+02  7.890414E+03 -1.490560E+05 -1.904342E-09 -4.365652E-09
       223  14  8.024100E+05  5.454220E+03  1.432800E+04 -1.343214E+05  2.480059E-09  2.406977E-09
       223  15  8.049230E+05  2.610056E+04  2.950285E+04 -1.490857E+05  1.962218E-09 -1.128878E-10
       223  16 -5.884592E+05 -3.274015E+05 -2.372415E+05 -1.515564E+05 -2.309869E-09  8.612271E-11
       223  17 -7.311732E+05 -3.605071E+05 -2.819673E+05 -1.280383E+05  1.315111E-09  2.010662E-09
       223  18 -8.806468E+05 -3.900466E+05 -3.657685E+05 -1.340260E+05  2.357429E-09 -1.580924E-09
       223  19  2.200508E+06  3.279392E+05  2.529676E+05 -1.465503E+05 -3.955420E+03  9.171561E+04
       223  20  2.338261E+06  3.712837E+05  3.105348E+05 -1.406163E+05  7.240236E+04  7.747906E+04
       223  21  2.493135E+06  4.420532E+05  4.246227E+05 -1.641845E+05  1.488601E+05  2.345654E+04
       223  22  8.050756E+05  3.264196E+02  7.906298E+03 -1.490555E+05  5.708576E+03  9.174289E+04
       223  23  8.024117E+05  5.460705E+03  1.433959E+04 -1.343206E+05  1.307911E+04  7.742299E+04
       223  24  8.049236E+05  2.610125E+04  2.950466E+04 -1.490854E+05  2.052737E+04  2.327429E+04
       223  25 -5.884567E+05 -3.273924E+05 -2.372253E+05 -1.515552E+05  1.535155E+04  9.177013E+04
       223  26 -7.311693E+05 -3.605001E+05 -2.819520E+05 -1.280412E+05 -4.610120E+04  7.736566E+04
       223  27 -8.806342E+05 -3.900430E+05 -3.657457E+05 -1.340280E+05 -1.074597E+05  2.308559E+04
       224   1  5.354623E+05  2.173706E+06  5.173217E+05 -5.655272E+05  2.177198E+04  1.392637E+05
       224   2  3.695512E+05  1.635920E+06  3.200207E+05 -4.983254E+05  6.523613E+04  4.294906E+04
       224   3  2.363981E+05  1.118939E+06  1.934409E+05 -5.442855E+05  5.830074E+04 -5.333705E+04
       224   4  3.089607E+04  1.331315E+05  3.267004E+04 -5.437834E+05  2.202842E+04  2.064259E+04
       224   5  8.283274E+03  1.306615E+05  1.759893E+04 -4.872278E+05  6.532138E+04  1.170493E+04
       224   6  3.349489E+03  1.336481E+05  1.273097E+04 -5.438415E+05  5.816198E+04  2.712364E+03
       224   7 -4.739606E+05 -1.903599E+06 -4.522194E+05 -5.221078E+05  2.227713E+04 -9.759164E+04
       224   8 -3.531234E+05 -1.372438E+06 -2.849347E+05 -4.761556E+05  6.540566E+04 -1.946511E+04
       224   9 -2.297525E+05 -8.506950E+05 -1.680069E+05 -5.433972E+05  5.802315E+04  5.867532E+04
       224  10  5.354566E+05  2.173685E+06  5.172845E+05 -5.655296E+05  1.611493E-09  1.991375E-09
       224  11  3.695462E+05  1.635917E+06  3.200093E+05 -4.983276E+05  3.529338E-09  2.454584E-09
       224  12  2.363937E+05  1.118935E+06  1.934292E+05 -5.442830E+05  1.706330E-09  7.121490E-10
       224  13  3.089544E+04  1.331310E+05  3.266832E+04 -5.437838E+05  7.849302E-10 -2.890898E-11
       224  14  8.278655E+03  1.306602E+05  1.759065E+04 -4.872284E+05  5.110074E-10 -7.576125E-10
       224  15  3.345854E+03  1.336472E+05  1.272460E+04 -5.438416E+05  2.103343E-09 -3.138895E-09
       224  16 -4.739637E+05 -1.903609E+06 -4.522382E+05 -5.221061E+05  2.694970E-10 -1.298885E-09
       224  17 -3.531281E+05 -1.372439E+06 -2.849435E+05 -4.761545E+05  1.240120E-09 -1.545234E-09
       224  18 -2.297570E+05 -8.506996E+05 -1.680197E+05 -5.434000E+05  3.458843E-10  4.773480E-10
       224  19  5.354623E+05  2.173706E+06  5.173217E+05 -5.655272E+05 -2.177198E+04 -1.392637E+05
       224  20  3.695512E+05  1.635920E+06  3.200207E+05 -4.983254E+05 -6.523613E+04 -4.294906E+04
       224  21  2.363981E+05  1.118939E+06  1.934409E+05 -5.442855E+05 -5.830074E+04  5.333705E+04
       224  22  3.089607E+04  1.331315E+05  3.267004E+04 -5.437834E+05 -2.202842E+04 -2.064259E+04
       224  23  8.283274E+03  1.306615E+05  1.759893E+04 -4.872278E+05 -6.532138E+04 -1.170493E+04
       224  24  3.349489E+03  1.336481E+05  1.273097E+04 -5.438415E+05 -5.816198E+04 -2.712364E+03
       224  25 -4.739606E+05 -1.903599E+06 -4.522194E+05 -5.221078E+05 -2.227713E+04  9.759164E+04
       224  26 -3.531234E+05 -1.372438E+06 -2.849347E+05 -4.761556E+05 -6.540566E+04  1.946511E+04
       224  27 -2.297525E+05 -8.506950E+05 -1.680069E+05 -5.433972E+05 -5.802315E+04 -5.867532E+04
       225   1  1.553340E+05  7.737074E+05  1.295128E+05 -5.468517E+05  3.811992E+04 -5.064158E+04
       225   2  2.973978E+04  2.462012E+05  3.302598E+04 -4.862932E+05  8.219199E+03 -5.831008E+04
       225   3 -9.175405E+04 -2.794800E+05 -5.759344E+04 -5.419558E+05 -2.216488E+04 -6.597593E+04
       225   4  3.742945E+03  1.328548E+05  1.211199E+04 -5.445142E+05  3.798440E+04  6.799926E+02
       225   5  3.053897E+03  1.321700E+05  1.359044E+04 -4.864006E+05  8.079732E+03 -6.171259E+03
       225   6  6.335361E+03  1.328942E+05  2.036534E+04 -5.445077E+05 -2.230883E+04 -1.302596E+04
       225   7 -1.478699E+05 -5.075936E+05 -1.052957E+05 -5.421788E+05  3.784918E+04  5.195005E+04
       225   8 -2.363122E+04  1.815751E+04 -5.835308E+03 -4.865081E+05  7.940229E+03  4.595830E+04
       225   9  1.044164E+05  5.454387E+05  9.832715E+04 -5.470612E+05 -2.245314E+04  3.995834E+04
       225  10  1.553317E+05  7.737042E+05  1.295053E+05 -5.468501E+05  1.020395E-09  3.634527E-09
       225  11  2.973880E+04  2.461975E+05  3.301947E+04 -4.862928E+05  3.426123E-09  3.008819E-09
       225  12 -9.175575E+04 -2.794848E+05 -5.760256E+04 -5.419569E+05  6.508019E-10 -3.922619E-10
       225  13  3.741395E+03  1.328544E+05  1.210928E+04 -5.445142E+05  1.341014E-09 -6.222845E-11
       225  14  3.053817E+03  1.321700E+05  1.359025E+04 -4.864006E+05  8.745166E-10 -9.235380E-10
       225  15  6.334781E+03  1.328939E+05  2.036408E+04 -5.445079E+05 -1.450691E-10 -3.263319E-09
       225  16 -1.478722E+05 -5.075969E+05 -1.053035E+05 -5.421803E+05  5.814759E-10 -2.495362E-09
       225  17 -2.363185E+04  1.815523E+04 -5.839396E+03 -4.865084E+05 -9.475064E-10 -1.867078E-09
       225  18  1.044154E+05  5.454369E+05  9.832321E+04 -5.470604E+05 -2.864963E-10  1.734464E-09
       225  19  1.553340E+05  7.737074E+05  1.295128E+05 -5.468517E+05 -3.811992E+04  5.064158E+04
       225  20  2.973978E+04  2.462012E+05  3.302598E+04 -4.862932E+05 -8.219199E+03  5.831008E+04
       225  21 -9.175405E+04 -2.794800E+05 -5.759344E+04 -5.419558E+05  2.216488E+04  6.597593E+04
       225  22  3.742945E+03  1.328548E+05  1.211199E+04 -5.445142E+05 -3.798440E+04 -6.799926E+02
       225  23  3.053897E+03  1.321700E+05  1.359044E+04 -4.864006E+05 -8.079732E+03  6.171259E+03
       225  24  6.335361E+03  1.328942E+05  2.036534E+04 -5.445077E+05  2.230883E+04  1.302596E+04
       225  25 -1.478699E+05 -5.075936E+05 -1.052957E+05 -5.421788E+05 -3.784918E+04 -5.195005E+04
       225  26 -2.363122E+04  1.815751E+04 -5.835308E+03 -4.865081E+05 -7.940229E+03 -4.595830E+04
       225  27  1.044164E+05  5.454387E+05  9.832715E+04 -5.470612E+05  2.245314E+04 -3.995834E+04
       226   1 -1.740681E+05 -6.203322E+05 -1.152233E+05 -5.467387E+05 -4.261627E+04 -7.359993E+04
       226   2 -2.865747E+05 -1.147438E+06 -2.144315E+05 -4.612541E+05 -5.323658E+04 -1.862828E+04
       226   3 -3.648516E+05 -1.673085E+06 -3.409807E+05 -4.893249E+05 -1.866073E+04  3.635295E+04
       226   4  5.359882E+03  1.357739E+05  2.568003E+04 -5.439256E+05 -4.276550E+04 -1.654400E+04
       226   5  2.068258E+04  1.281984E+05  4.475201E+04 -4.870821E+05 -5.317667E+04 -3.958615E+04
       226   6  8.375129E+04  1.353317E+05  9.066851E+04 -5.437557E+05 -1.843931E+04 -6.257202E+04
       226   7  1.847568E+05  8.924407E+05  1.665713E+05 -5.411084E+05 -4.291410E+04  4.057971E+04
       226   8  3.278409E+05  1.405387E+06  3.038525E+05 -5.129627E+05 -5.311511E+04 -6.058627E+04
       226   9  5.321334E+05  1.946779E+06  5.221259E+05 -5.983433E+05 -1.820094E+04 -1.617842E+05
       226  10 -1.740716E+05 -6.203385E+05 -1.152370E+05 -5.467413E+05  1.278411E-10  3.239499E-08
       226  11 -2.865778E+05 -1.147439E+06 -2.144374E+05 -4.612549E+05  2.329333E-09  4.339086E-09
       226  12 -3.648523E+05 -1.673087E+06 -3.409838E+05 -4.893243E+05  1.041012E-09 -2.711002E-08
       226  13  5.357844E+03  1.357731E+05  2.567607E+04 -5.439262E+05 -5.905897E-10  2.465788E-11
       226  14  2.067912E+04  1.281959E+05  4.474374E+04 -4.870838E+05 -6.364931E-10 -7.566813E-10
       226  15  8.374987E+04  1.353274E+05  9.066051E+04 -5.437566E+05  5.464144E-10 -2.317289E-09
       226  16  1.847544E+05  8.924384E+05  1.665647E+05 -5.411070E+05 -1.611962E-09 -3.110568E-08
       226  17  3.278369E+05  1.405382E+06  3.038403E+05 -5.129653E+05 -3.762740E-09 -2.850095E-09
       226  18  5.321260E+05  1.946751E+06  5.220763E+05 -5.983457E+05 -1.244932E-09  2.818210E-08
       226  19 -1.740681E+05 -6.203322E+05 -1.152233E+05 -5.467387E+05  4.261627E+04  7.359993E+04
       226  20 -2.865747E+05 -1.147438E+06 -2.144315E+05 -4.612541E+05  5.323658E+04  1.862828E+04
       226  21 -3.648516E+05 -1.673085E+06 -3.409807E+05 -4.893249E+05  1.866073E+04 -3.635295E+04
       226  22  5.359882E+03  1.357739E+05  2.568003E+04 -5.439256E+05  4.276550E+04  1.654400E+04
       226  23  2.068258E+04  1.281984E+05  4.475201E+04 -4.870821E+05  5.317667E+04  3.958615E+04
       226  24  8.375129E+04  1.353317E+05  9.066851E+04 -5.437557E+05  1.843931E+04  6.257202E+04
       226  25  1.847568E+05  8.924407E+05  1.665713E+05 -5.411084E+05  4.291410E+04 -4.057971E+04
       226  26  3.278409E+05  1.405387E+06  3.038525E+05 -5.129627E+05  5.311511E+04  6.058627E+04
       226  27  5.321334E+05  1.946779E+06  5.221259E+05 -5.983433E+05  1.820094E+04  1.617842E+05
       227   1 -1.286498E+06 -5.986055E+05 -3.405138E+05 -5.250220E+05 -1.524396E+05 -4.439421E+04
       227   2 -1.209633E+06 -4.355320E+05 -2.105680E+05 -4.921246E+05 -9.519661E+04  6.368179E+03
       227   3 -1.156635E+06 -3.633375E+05 -1.513360E+05 -4.572473E+05 -3.021089E+04  3.659777E+04
       227   4 -5.597791E+05 -2.558432E+05 -1.394550E+05 -2.542975E+05 -9.452929E+04 -2.263981E+04
       227   5 -5.434867E+05 -1.597240E+05 -6.459598E+04 -2.755573E+05 -7.042489E+04  1.566999E+04
       227   6 -5.444545E+05 -1.478664E+05 -3.411833E+04 -2.948521E+05 -3.859205E+04  3.344452E+04
       227   7  1.674665E+05  8.704627E+04  6.156746E+04  1.674286E+04 -3.654573E+04 -8.413628E+02
       227   8  1.231157E+05  1.161546E+05  8.135171E+04 -5.876396E+04 -4.562462E+04  2.498568E+04
       227   9  6.811951E+04  6.763330E+04  8.308465E+04 -1.323099E+05 -4.698213E+04  3.028817E+04
       227  10 -1.286524E+06 -5.986139E+05 -3.405613E+05 -5.250274E+05  1.804938E-09  2.239321E-10
       227  11 -1.209642E+06 -4.355345E+05 -2.105851E+05 -4.921241E+05 -6.536890E-10 -8.377621E-10
       227  12 -1.156637E+06 -3.633392E+05 -1.513402E+05 -4.572464E+05 -3.062741E-09 -6.547879E-10
       227  13 -5.597888E+05 -2.558461E+05 -1.394728E+05 -2.542993E+05  2.462664E-10  7.149166E-10
       227  14 -5.434921E+05 -1.597256E+05 -6.460577E+04 -2.755564E+05 -3.811971E-10  1.647577E-10
       227  15 -5.444564E+05 -1.478680E+05 -3.412323E+04 -2.948511E+05  1.829236E-09 -8.972690E-10
       227  16  1.674651E+05  8.704591E+04  6.156495E+04  1.674284E+04 -8.433177E-10 -1.374930E-09
       227  17  1.231133E+05  1.161534E+05  8.134662E+04 -5.876304E+04  1.695161E-09 -6.675407E-10
       227  18  6.811689E+04  6.763172E+04  8.307878E+04 -1.323087E+05  3.464383E-09  5.821908E-10
       227  19 -1.286498E+06 -5.986055E+05 -3.405138E+05 -5.250220E+05  1.524396E+05  4.439421E+04
       227  20 -1.209633E+06 -4.355320E+05 -2.105680E+05 -4.921246E+05  9.519661E+04 -6.368179E+03
       227  21 -1.156635E+06 -3.633375E+05 -1.513360E+05 -4.572473E+05  3.021089E+04 -3.659777E+04
       227  22 -5.597791E+05 -2.558432E+05 -1.394550E+05 -2.542975E+05  9.452929E+04  2.263981E+04
       227  23 -5.434867E+05 -1.597240E+05 -6.459598E+04 -2.755573E+05  7.042489E+04 -1.566999E+04
       227  24 -5.444545E+05 -1.478664E+05 -3.411833E+04 -2.948521E+05  3.859205E+04 -3.344452E+04
       227  25  1.674665E+05  8.704627E+04  6.156746E+04  1.674286E+04  3.654573E+04  8.413628E+02
       227  26  1.231157E+05  1.161546E+05  8.135171E+04 -5.876396E+04  4.562462E+04 -2.498568E+04
       227  27  6.811951E+04  6.763330E+04  8.308465E+04 -1.323099E+05  4.698213E+04 -3.028817E+04
       228   1 -1.088656E+06 -3.513357E+05 -1.312397E+05 -4.471417E+05 -2.813326E+04  3.364788E+04
       228   2 -1.010298E+06 -3.074277E+05 -1.004722E+05 -4.153404E+05 -1.704610E+04  3.308674E+04
       228   3 -9.200673E+05 -2.822072E+05 -7.787318E+04 -3.995721E+05 -5.334495E+03  3.086123E+04
       228   4 -5.402009E+05 -1.497973E+05 -2.580203E+04 -2.925970E+05 -3.348969E+04  3.163194E+04
       228   5 -5.460446E+05 -1.382911E+05 -1.360557E+04 -2.854853E+05 -2.508547E+04  3.006479E+04
       228   6 -5.394872E+05 -1.449379E+05 -7.444592E+03 -2.944090E+05 -1.605838E+04  2.683341E+04
       228   7  8.562495E+03  5.176796E+04  7.962147E+04 -1.379262E+05 -3.885114E+04  2.961407E+04
       228   8 -8.156510E+04  3.086591E+04  7.325288E+04 -1.555397E+05 -3.313128E+04  2.704041E+04
       228   9 -1.587515E+05 -7.654291E+03  6.297997E+04 -1.891851E+05 -2.678939E+04  2.280296E+04
       228  10 -1.088657E+06 -3.513371E+05 -1.312433E+05 -4.471410E+05  7.957204E-10  1.624908E-10
       228  11 -1.010299E+06 -3.074290E+05 -1.004748E+05 -4.153400E+05 -7.037551E-10 -9.805451E-10
       228  12 -9.200676E+05 -2.822082E+05 -7.787502E+04 -3.995719E+05 -1.017883E-09 -6.855517E-10
       228  13 -5.402023E+05 -1.497987E+05 -2.580601E+04 -2.925962E+05  2.000024E-09 -1.501695E-10
       228  14 -5.460455E+05 -1.382922E+05 -1.360845E+04 -2.854847E+05  2.159762E-09 -1.593645E-09
       228  15 -5.394877E+05 -1.449388E+05 -7.446429E+03 -2.944087E+05 -6.195699E-10  1.525531E-10
       228  16  8.560639E+03  5.176661E+04  7.961699E+04 -1.379253E+05 -7.803741E-11 -7.569292E-10
       228  17 -8.156647E+04  3.086483E+04  7.324945E+04 -1.555390E+05  1.036052E-09 -2.596287E-10
       228  18 -1.587524E+05 -7.655041E+03  6.297765E+04 -1.891847E+05  1.898842E-09  8.110389E-10
       228  19 -1.088656E+06 -3.513357E+05 -1.312397E+05 -4.471417E+05  2.813326E+04 -3.364788E+04
       228  20 -1.010298E+06 -3.074277E+05 -1.004722E+05 -4.153404E+05  1.704610E+04 -3.308674E+04
       228  21 -9.200673E+05 -2.822072E+05 -7.787318E+04 -3.995721E+05  5.334495E+03 -3.086123E+04
       228  22 -5.402009E+05 -1.497973E+05 -2.580203E+04 -2.925970E+05  3.348969E+04 -3.163194E+04
       228  23 -5.460446E+05 -1.382911E+05 -1.360557E+04 -2.854853E+05  2.508547E+04 -3.006479E+04
       228  24 -5.394872E+05 -1.449379E+05 -7.444592E+03 -2.944090E+05  1.605838E+04 -2.683341E+04
       228  25  8.562495E+03  5.176796E+04  7.962147E+04 -1.379262E+05  3.885114E+04 -2.961407E+04
       228  26 -8.156510E+04  3.086591E+04  7.325288E+04 -1.555397E+05  3.313128E+04 -2.704041E+04
       228  27 -1.587515E+05 -7.654291E+03  6.297997E+04 -1.891851E+05  2.678939E+04 -2.280296E+04
       229   1 -8.633537E+05 -2.623185E+05 -6.521657E+04 -3.843046E+05 -3.080037E+03  2.727666E+04
       229   2 -7.854458E+05 -2.240308E+05 -4.706542E+04 -3.522831E+05  1.140502E+03  2.138169E+04
       229   3 -6.931622E+05 -2.006387E+05 -3.027502E+04 -3.370590E+05  5.411049E+03  1.534992E+04
       229   4 -5.391501E+05 -1.450473E+05 -5.598770E+03 -2.942582E+05 -1.356426E+04  2.333986E+04
       229   5 -5.463385E+05 -1.375507E+05 -3.085198E+03 -2.858816E+05 -9.564340E+03  1.736328E+04
       229   6 -5.391153E+05 -1.449059E+05 -1.757259E+03 -2.943047E+05 -5.514691E+03  1.124986E+04
       229   7 -2.148360E+05 -2.776631E+04  5.401556E+04 -2.041680E+05 -2.405433E+04  1.940086E+04
       229   8 -3.071723E+05 -5.106557E+04  4.089306E+04 -2.194566E+05 -2.027354E+04  1.334324E+04
       229   9 -3.850448E+05 -8.917132E+04  2.675969E+04 -2.515408E+05 -1.644323E+04  7.148752E+03
       229  10 -8.633539E+05 -2.623193E+05 -6.521798E+04 -3.843045E+05  7.912770E-10  6.151607E-10
       229  11 -7.854459E+05 -2.240313E+05 -4.706629E+04 -3.522831E+05 -1.923615E-09  9.062945E-11
       229  12 -6.931623E+05 -2.006390E+05 -3.027552E+04 -3.370591E+05 -1.150939E-09  2.951046E-10
       229  13 -5.391504E+05 -1.450479E+05 -5.600139E+03 -2.942579E+05 -8.759418E-11  2.864289E-10
       229  14 -5.463387E+05 -1.375510E+05 -3.085936E+03 -2.858815E+05 -1.786503E-09 -1.240320E-10
       229  15 -5.391154E+05 -1.449060E+05 -1.757554E+03 -2.943046E+05 -5.183351E-10  6.477262E-10
       229  16 -2.148367E+05 -2.776687E+04  5.401377E+04 -2.041676E+05 -2.971766E-10 -4.541281E-11
       229  17 -3.071728E+05 -5.106587E+04  4.089195E+04 -2.194563E+05  2.828229E-11 -4.383083E-10
       229  18 -3.850451E+05 -8.917145E+04  2.675909E+04 -2.515407E+05 -4.967973E-10  9.431628E-10
       229  19 -8.633537E+05 -2.623185E+05 -6.521657E+04 -3.843046E+05  3.080037E+03 -2.727666E+04
       229  20 -7.854458E+05 -2.240308E+05 -4.706542E+04 -3.522831E+05 -1.140502E+03 -2.138169E+04
       229  21 -6.931622E+05 -2.006387E+05 -3.027502E+04 -3.370590E+05 -5.411049E+03 -1.534992E+04
       229  22 -5.391501E+05 -1.450473E+05 -5.598770E+03 -2.942582E+05  1.356426E+04 -2.333986E+04
       229  23 -5.463385E+05 -1.375507E+05 -3.085198E+03 -2.858816E+05  9.564340E+03 -1.736328E+04
       229  24 -5.391153E+05 -1.449059E+05 -1.757259E+03 -2.943047E+05  5.514691E+03 -1.124986E+04
       229  25 -2.148360E+05 -2.776631E+04  5.401556E+04 -2.041680E+05  2.405433E+04 -1.940086E+04
       229  26 -3.071723E+05 -5.106557E+04  4.089306E+04 -2.194566E+05  2.027354E+04 -1.334324E+04
       229  27 -3.850448E+05 -8.917132E+04  2.675969E+04 -2.515408E+05  1.644323E+04 -7.148752E+03
       230   1 -6.370961E+05 -1.803106E+05 -1.914180E+04 -3.215192E+05  7.129709E+03  1.150438E+04
       230   2 -5.592745E+05 -1.422058E+05 -3.265891E+03 -2.894287E+05  1.012714E+04  4.925232E+03
       230   3 -4.668305E+05 -1.187919E+05  1.226429E+04 -2.741457E+05  1.312820E+04 -1.663718E+03
       230   4 -5.390737E+05 -1.449130E+05 -1.367370E+03 -2.942900E+05 -3.778612E+03  7.411235E+03
       230   5 -5.463820E+05 -1.375748E+05 -8.969451E+02 -2.858817E+05 -7.978345E+02  8.258755E+02
       230   6 -5.390742E+05 -1.449258E+05 -7.599940E+02 -2.942846E+05  2.186490E+03 -5.769294E+03
       230   7 -4.410400E+05 -1.095140E+05  1.640750E+04 -2.670564E+05 -1.468888E+04  3.317369E+03
       230   8 -5.334889E+05 -1.329436E+05  1.472525E+03 -2.823346E+05 -1.172311E+04 -3.273591E+03
       230   9 -6.113122E+05 -1.710592E+05 -1.378395E+04 -3.144212E+05 -8.753869E+03 -9.874361E+03
       230  10 -6.370962E+05 -1.803108E+05 -1.914215E+04 -3.215192E+05  1.807154E-09  7.561526E-10
       230  11 -5.592746E+05 -1.422059E+05 -3.266130E+03 -2.894288E+05 -1.276674E-09 -4.955011E-10
       230  12 -4.668307E+05 -1.187919E+05  1.226396E+04 -2.741457E+05 -1.879284E-09 -1.829452E-10
       230  13 -5.390738E+05 -1.449130E+05 -1.367500E+03 -2.942899E+05 -7.290236E-11  1.101114E-10
       230  14 -5.463820E+05 -1.375748E+05 -8.969476E+02 -2.858817E+05 -2.882393E-09 -1.344196E-10
       230  15 -5.390742E+05 -1.449258E+05 -7.600655E+02 -2.942845E+05 -6.311603E-10 -1.887172E-10
       230  16 -4.410403E+05 -1.095141E+05  1.640707E+04 -2.670564E+05 -3.519052E-09  7.917697E-12
       230  17 -5.334891E+05 -1.329437E+05  1.472246E+03 -2.823346E+05  4.610332E-10 -5.754054E-11
       230  18 -6.113123E+05 -1.710593E+05 -1.378428E+04 -3.144212E+05  2.055141E-09  2.587667E-11
       230  19 -6.370961E+05 -1.803106E+05 -1.914180E+04 -3.215192E+05 -7.129709E+03 -1.150438E+04
       230  20 -5.592745E+05 -1.422058E+05 -3.265891E+03 -2.894287E+05 -1.012714E+04 -4.925232E+03
       230  21 -4.668305E+05 -1.187919E+05  1.226429E+04 -2.741457E+05 -1.312820E+04  1.663718E+03
       230  22 -5.390737E+05 -1.449130E+05 -1.367370E+03 -2.942900E+05  3.778612E+03 -7.411235E+03
       230  23 -5.463820E+05 -1.375748E+05 -8.969451E+02 -2.858817E+05  7.978345E+02 -8.258755E+02
       230  24 -5.390742E+05 -1.449258E+05 -7.599940E+02 -2.942846E+05 -2.186490E+03  5.769294E+03
       230  25 -4.410400E+05 -1.095140E+05  1.640750E+04 -2.670564E+05  1.468888E+04 -3.317369E+03
       230  26 -5.334889E+05 -1.329436E+05  1.472525E+03 -2.823346E+05  1.172311E+04  3.273591E+03
       230  27 -6.113122E+05 -1.710592E+05 -1.378395E+04 -3.144212E+05  8.753869E+03  9.874361E+03
       231   1 -4.108275E+05 -9.843928E+04  2.296785E+04 -2.585916E+05  1.473580E+04 -5.554500E+03
       231   2 -3.330254E+05 -6.034442E+04  3.806530E+04 -2.265082E+05  1.778773E+04 -1.211977E+04
       231   3 -2.406088E+05 -3.693148E+04  5.278023E+04 -2.112263E+05  2.083529E+04 -1.866977E+04
       231   4 -5.390804E+05 -1.449274E+05 -7.928196E+02 -2.942837E+05  3.794559E+03 -9.660190E+03
       231   5 -5.463880E+05 -1.375869E+05 -1.081446E+03 -2.858827E+05  6.869817E+03 -1.621779E+04
       231   6 -5.390930E+05 -1.449337E+05 -1.771202E+03 -2.942864E+05  9.940633E+03 -2.276017E+04
       231   7 -6.673145E+05 -1.914135E+05 -2.455327E+04 -3.299685E+05 -7.144161E+03 -1.376494E+04
       231   8 -7.597025E+05 -2.148250E+05 -4.022936E+04 -3.452382E+05 -4.044090E+03 -2.031430E+04
       231   9 -8.374861E+05 -2.529286E+05 -5.632614E+04 -3.773101E+05 -9.485282E+02 -2.684851E+04
       231  10 -4.108278E+05 -9.843937E+04  2.296738E+04 -2.585915E+05 -5.436186E-10  5.346130E-10
       231  11 -3.330258E+05 -6.034466E+04  3.806443E+04 -2.265080E+05  3.894656E-10  8.342118E-10
       231  12 -2.406093E+05 -3.693198E+04  5.277876E+04 -2.112260E+05 -1.183628E-09  2.766259E-11
       231  13 -5.390804E+05 -1.449275E+05 -7.930219E+02 -2.942836E+05  6.996121E-10  5.187189E-10
       231  14 -5.463881E+05 -1.375872E+05 -1.082029E+03 -2.858826E+05  3.936318E-11  1.284032E-10
       231  15 -5.390932E+05 -1.449343E+05 -1.772361E+03 -2.942862E+05 -1.041950E-09  3.685928E-10
       231  16 -6.673146E+05 -1.914137E+05 -2.455372E+04 -3.299685E+05  1.115815E-09 -1.872561E-10
       231  17 -7.597027E+05 -2.148255E+05 -4.023017E+04 -3.452382E+05  3.399375E-10  1.160534E-11
       231  18 -8.374863E+05 -2.529294E+05 -5.632750E+04 -3.773101E+05 -1.012629E-09  6.035682E-10
       231  19 -4.108275E+05 -9.843928E+04  2.296785E+04 -2.585916E+05 -1.473580E+04  5.554500E+03
       231  20 -3.330254E+05 -6.034442E+04  3.806530E+04 -2.265082E+05 -1.778773E+04  1.211977E+04
       231  21 -2.406088E+05 -3.693148E+04  5.278023E+04 -2.112263E+05 -2.083529E+04  1.866977E+04
       231  22 -5.390804E+05 -1.449274E+05 -7.928196E+02 -2.942837E+05 -3.794559E+03  9.660190E+03
       231  23 -5.463880E+05 -1.375869E+05 -1.081446E+03 -2.858827E+05 -6.869817E+03  1.621779E+04
       231  24 -5.390930E+05 -1.449337E+05 -1.771202E+03 -2.942864E+05 -9.940633E+03  2.276017E+04
       231  25 -6.673145E+05 -1.914135E+05 -2.455327E+04 -3.299685E+05  7.144161E+03  1.376494E+04
       231  26 -7.597025E+05 -2.148250E+05 -4.022936E+04 -3.452382E+05  4.044090E+03  2.031430E+04
       231  27 -8.374861E+05 -2.529286E+05 -5.632614E+04 -3.773101E+05  9.485282E+02  2.684851E+04
       232   1 -1.846702E+05 -1.660735E+04  6.297197E+04 -1.957239E+05  2.267051E+04 -2.246504E+04
       232   2 -1.068650E+05  2.146335E+04  7.662306E+04 -1.636571E+05  2.695362E+04 -2.845773E+04
       232   3 -1.467927E+04  4.468799E+04  8.891023E+04 -1.483658E+05  3.117488E+04 -3.427806E+04
       232   4 -5.391565E+05 -1.449279E+05 -2.313312E+03 -2.943044E+05  1.175540E+04 -2.656411E+04
       232   5 -5.463446E+05 -1.375801E+05 -4.123866E+03 -2.858822E+05  1.631442E+04 -3.245544E+04
       232   6 -5.392139E+05 -1.451347E+05 -7.517746E+03 -2.942393E+05  2.081128E+04 -3.817441E+04
       232   7 -8.935106E+05 -2.732367E+05 -6.760274E+04 -3.928325E+05  8.469604E+02 -3.066069E+04
       232   8 -9.856191E+05 -2.966048E+05 -8.487685E+04 -4.080261E+05  5.683310E+03 -3.645012E+04
       232   9 -1.063455E+06 -3.349300E+05 -1.039541E+05 -4.399967E+05  1.045713E+04 -4.206723E+04
       232  10 -1.846709E+05 -1.660803E+04  6.297006E+04 -1.957234E+05  2.674222E-09  2.446493E-09
       232  11 -1.068660E+05  2.146229E+04  7.662017E+04 -1.636565E+05 -1.064281E-08 -2.818951E-09
       232  12 -1.468063E+04  4.468647E+04  8.890620E+04 -1.483649E+05 -2.066530E-08 -8.423738E-09
       232  13 -5.391568E+05 -1.449287E+05 -2.314897E+03 -2.943042E+05 -2.163101E-09  7.038931E-10
       232  14 -5.463452E+05 -1.375813E+05 -4.126345E+03 -2.858817E+05 -2.675423E-10  1.703291E-10
       232  15 -5.392147E+05 -1.451364E+05 -7.521297E+03 -2.942386E+05  1.221423E-09 -2.860763E-10
       232  16 -8.935108E+05 -2.732377E+05 -6.760451E+04 -3.928325E+05 -4.980692E-09 -1.505222E-09
       232  17 -9.856195E+05 -2.966062E+05 -8.487940E+04 -4.080259E+05  9.050243E-09  3.123066E-09
       232  18 -1.063455E+06 -3.349319E+05 -1.039576E+05 -4.399963E+05  2.271216E-08  8.473878E-09
       232  19 -1.846702E+05 -1.660735E+04  6.297197E+04 -1.957239E+05 -2.267051E+04  2.246504E+04
       232  20 -1.068650E+05  2.146335E+04  7.662306E+04 -1.636571E+05 -2.695362E+04  2.845773E+04
       232  21 -1.467927E+04  4.468799E+04  8.891023E+04 -1.483658E+05 -3.117488E+04  3.427806E+04
       232  22 -5.391565E+05 -1.449279E+05 -2.313312E+03 -2.943044E+05 -1.175540E+04  2.656411E+04
       232  23 -5.463446E+05 -1.375801E+05 -4.123866E+03 -2.858822E+05 -1.631442E+04  3.245544E+04
       232  24 -5.392139E+05 -1.451347E+05 -7.517746E+03 -2.942393E+05 -2.081128E+04  3.817441E+04
       232  25 -8.935106E+05 -2.732367E+05 -6.760274E+04 -3.928325E+05 -8.469604E+02  3.066069E+04
       232  26 -9.856191E+05 -2.966048E+05 -8.487685E+04 -4.080261E+05 -5.683310E+03  3.645012E+04
       232  27 -1.063455E+06 -3.349300E+05 -1.039541E+05 -4.399967E+05 -1.045713E+04  4.206723E+04
       233   1  4.134229E+04  6.469484E+04  9.723678E+04 -1.335837E+05  3.431825E+04 -3.750319E+04
       233   2  1.182012E+05  1.033102E+05  1.056109E+05 -9.941474E+04  4.226424E+04 -4.085015E+04
       233   3  2.073526E+05  1.232611E+05  1.085344E+05 -8.098651E+04  4.943350E+04 -4.211999E+04
       233   4 -5.396642E+05 -1.449888E+05 -1.000301E+04 -2.944391E+05  2.365549E+04 -4.151353E+04
       233   5 -5.459567E+05 -1.385907E+05 -1.829672E+04 -2.853474E+05  3.495141E+04 -4.360472E+04
       233   6 -5.406323E+05 -1.515278E+05 -3.470270E+04 -2.920018E+05  4.546931E+04 -4.361788E+04
       233   7 -1.120323E+06 -3.546440E+05 -1.172566E+05 -4.551563E+05  1.300328E+04 -4.551995E+04
       233   8 -1.209656E+06 -3.804512E+05 -1.422223E+05 -4.710957E+05  2.764691E+04 -4.635615E+04
       233   9 -1.288034E+06 -4.262630E+05 -1.779635E+05 -5.027800E+05  4.151022E+04 -4.511383E+04
       233  10  4.134065E+04  6.469301E+04  9.723192E+04 -1.335827E+05  2.421476E-08  7.986413E-09
       233  11  1.181989E+05  1.033080E+05  1.056045E+05 -9.941335E+04  9.829146E-09  4.946469E-09
       233  12  2.073495E+05  1.232585E+05  1.085265E+05 -8.098484E+04 -5.260845E-09 -2.216318E-09
       233  13 -5.396653E+05 -1.449908E+05 -1.000730E+04 -2.944383E+05  3.006958E-09 -1.417032E-09
       233  14 -5.459585E+05 -1.385931E+05 -1.830259E+04 -2.853462E+05  1.283036E-09 -6.796997E-13
       233  15 -5.406350E+05 -1.515304E+05 -3.471016E+04 -2.920002E+05 -1.305245E-09  9.961194E-13
       233  16 -1.120323E+06 -3.546463E+05 -1.172608E+05 -4.551558E+05 -2.076536E-08 -8.725171E-09
       233  17 -1.209658E+06 -3.804537E+05 -1.422277E+05 -4.710946E+05 -9.944756E-09 -3.415573E-09
       233  18 -1.288037E+06 -4.262657E+05 -1.779706E+05 -5.027785E+05  4.064569E-09  4.907991E-09
       233  19  4.134229E+04  6.469484E+04  9.723678E+04 -1.335837E+05 -3.431825E+04  3.750319E+04
       233  20  1.182012E+05  1.033102E+05  1.056109E+05 -9.941474E+04 -4.226424E+04  4.085015E+04
       233  21  2.073526E+05  1.232611E+05  1.085344E+05 -8.098651E+04 -4.943350E+04  4.211999E+04
       233  22 -5.396642E+05 -1.449888E+05 -1.000301E+04 -2.944391E+05 -2.365549E+04  4.151353E+04
       233  23 -5.459567E+05 -1.385907E+05 -1.829672E+04 -2.853474E+05 -3.495141E+04  4.360472E+04
       233  24 -5.406323E+05 -1.515278E+05 -3.470270E+04 -2.920018E+05 -4.546931E+04  4.361788E+04
       233  25 -1.120323E+06 -3.546440E+05 -1.172566E+05 -4.551563E+05 -1.300328E+04  4.551995E+04
       233  26 -1.209656E+06 -3.804512E+05 -1.422223E+05 -4.710957E+05 -2.764691E+04  4.635615E+04
       233  27 -1.288034E+06 -4.262630E+05 -1.779635E+05 -5.027800E+05 -4.151022E+04  4.511383E+04
       234   1  2.679643E+05  1.374783E+05  1.093661E+05 -7.884901E+04  5.959030E+04 -4.183224E+04
       234   2  3.151183E+05  1.895173E+05  1.003984E+05  9.166920E+03  6.054093E+04 -3.229003E+04
       234   3  3.423337E+05  1.415408E+05  6.460642E+04  1.055542E+05  5.184583E+04  2.861956E+03
       234   4 -5.463286E+05 -1.489520E+05 -4.588810E+04 -2.950597E+05  5.184403E+04 -4.475301E+04
       234   5 -5.425530E+05 -1.673772E+05 -8.688184E+04 -2.719610E+05  9.420558E+04 -1.963234E+04
       234   6 -5.669841E+05 -2.941202E+05 -1.875641E+05 -2.404851E+05  1.269108E+05  3.111403E+04
       234   7 -1.359932E+06 -4.353334E+05 -2.011696E+05 -5.110117E+05  4.410866E+04 -4.767001E+04
       234   8 -1.399449E+06 -5.241433E+05 -2.741963E+05 -5.527049E+05  1.278197E+05 -6.999415E+03
       234   9 -1.475431E+06 -7.295462E+05 -4.397769E+05 -5.860005E+05  2.018538E+05  5.929142E+04
       234  10  2.679600E+05  1.374755E+05  1.093561E+05 -7.884700E+04 -1.390269E-10 -5.132901E-10
       234  11  3.151141E+05  1.895152E+05  1.003895E+05  9.168494E+03 -1.955598E-10 -2.261131E-10
       234  12  3.423308E+05  1.415400E+05  6.460136E+04  1.055541E+05 -1.746783E-10 -1.591656E-09
       234  13 -5.463321E+05 -1.489548E+05 -4.589691E+04 -2.950578E+05 -8.090990E-11 -2.095353E-09
       234  14 -5.425627E+05 -1.673800E+05 -8.689925E+04 -2.719595E+05 -1.238609E-09 -4.832161E-09
       234  15 -5.670016E+05 -2.941256E+05 -1.875962E+05 -2.404883E+05  7.379794E-10  2.370451E-10
       234  16 -1.359934E+06 -4.353363E+05 -2.011775E+05 -5.110100E+05 -2.694460E-09  2.599205E-09
       234  17 -1.399467E+06 -5.241477E+05 -2.742271E+05 -5.527042E+05 -6.152838E-10  3.718791E-09
       234  18 -1.475476E+06 -7.295610E+05 -4.398603E+05 -5.860102E+05 -4.217608E-10  1.263278E-10
       234  19  2.679643E+05  1.374783E+05  1.093661E+05 -7.884901E+04 -5.959030E+04  4.183224E+04
       234  20  3.151183E+05  1.895173E+05  1.003984E+05  9.166920E+03 -6.054093E+04  3.229003E+04
       234  21  3.423337E+05  1.415408E+05  6.460642E+04  1.055542E+05 -5.184583E+04 -2.861956E+03
       234  22 -5.463286E+05 -1.489520E+05 -4.588810E+04 -2.950597E+05 -5.184403E+04  4.475301E+04
       234  23 -5.425530E+05 -1.673772E+05 -8.688184E+04 -2.719610E+05 -9.420558E+04  1.963234E+04
       234  24 -5.669841E+05 -2.941202E+05 -1.875641E+05 -2.404851E+05 -1.269108E+05 -3.111403E+04
       234  25 -1.359932E+06 -4.353334E+05 -2.011696E+05 -5.110117E+05 -4.410866E+04  4.767001E+04
       234  26 -1.399449E+06 -5.241433E+05 -2.741963E+05 -5.527049E+05 -1.278197E+05  6.999415E+03
       234  27 -1.475431E+06 -7.295462E+05 -4.397769E+05 -5.860005E+05 -2.018538E+05 -5.929142E+04
       235   1  1.217472E+06  1.619728E+05  1.400587E+05  2.975677E+03  1.395552E+04 -1.437321E+04
       235   2  1.168184E+06  2.055124E+05  1.354931E+05  2.685561E+04 -2.825373E+03 -4.876407E+04
       235   3  1.110723E+06  2.073991E+05  1.314803E+05  6.085904E+04 -1.964556E+04 -5.972754E+04
       235   4  2.148130E+05 -8.499757E+04 -9.414849E+04  5.506582E+04 -6.570910E+04 -1.452920E+04
       235   5  2.224359E+05 -1.963644E+04 -4.587465E+04  4.991386E+04 -4.196323E+04 -4.885318E+04
       235   6  2.148354E+05 -2.997354E+03 -2.518233E+04  5.488600E+04 -1.825752E+04 -5.973186E+04
       235   7 -7.869010E+05 -3.320253E+05 -3.283986E+05  1.070710E+05 -1.452460E+05 -1.469868E+04
       235   8 -7.224476E+05 -2.448352E+05 -2.272773E+05  7.293575E+04 -8.104290E+04 -4.894527E+04
       235   9 -6.802667E+05 -2.134373E+05 -1.818736E+05  4.892135E+04 -1.687140E+04 -5.973620E+04
       235  10  1.217472E+06  1.619725E+05  1.400580E+05  2.975838E+03  4.972617E-09 -1.028241E-09
       235  11  1.168183E+06  2.055099E+05  1.354886E+05  2.685550E+04  1.658337E-09 -5.518628E-09
       235  12  1.110721E+06  2.073952E+05  1.314728E+05  6.085809E+04  5.544089E-10 -3.949461E-09
       235  13  2.148083E+05 -8.499895E+04 -9.415700E+04  5.506505E+04  1.094736E-10  1.275263E-09
       235  14  2.224334E+05 -1.963948E+04 -4.588244E+04  4.991221E+04 -5.333653E-10 -3.198292E-09
       235  15  2.148341E+05 -3.001275E+03 -2.518966E+04  5.488512E+04 -5.276736E-10 -4.422272E-10
       235  16 -7.869237E+05 -3.320312E+05 -3.284387E+05  1.070693E+05 -4.611216E-09  1.632777E-10
       235  17 -7.224553E+05 -2.448396E+05 -2.272942E+05  7.293256E+04 -1.946125E-09 -6.976468E-09
       235  18 -6.802680E+05 -2.134412E+05 -1.818808E+05  4.892054E+04 -1.301595E-09 -7.203881E-09
       235  19  1.217472E+06  1.619728E+05  1.400587E+05  2.975677E+03 -1.395552E+04  1.437321E+04
       235  20  1.168184E+06  2.055124E+05  1.354931E+05  2.685561E+04  2.825373E+03  4.876407E+04
       235  21  1.110723E+06  2.073991E+05  1.314803E+05  6.085904E+04  1.964556E+04  5.972754E+04
       235  22  2.148130E+05 -8.499757E+04 -9.414849E+04  5.506582E+04  6.570910E+04  1.452920E+04
       235  23  2.224359E+05 -1.963644E+04 -4.587465E+04  4.991386E+04  4.196323E+04  4.885318E+04
       235  24  2.148354E+05 -2.997354E+03 -2.518233E+04  5.488600E+04  1.825752E+04  5.973186E+04
       235  25 -7.869010E+05 -3.320253E+05 -3.283986E+05  1.070710E+05  1.452460E+05  1.469868E+04
       235  26 -7.224476E+05 -2.448352E+05 -2.272773E+05  7.293575E+04  8.104290E+04  4.894527E+04
       235  27 -6.802667E+05 -2.134373E+05 -1.818736E+05  4.892135E+04  1.687140E+04  5.973620E+04
       236   1  1.078269E+06  1.977972E+05  1.297208E+05  5.511652E+04 -1.399348E+04 -5.875241E+04
       236   2  1.025636E+06  1.879693E+05  1.255891E+05  5.045260E+04 -1.247549E+04 -5.824771E+04
       236   3  9.723141E+05  1.761813E+05  1.199836E+05  5.738500E+04 -1.096432E+04 -5.557847E+04
       236   4  2.179322E+05 -3.904521E+03 -1.914081E+04  5.523607E+04 -1.498407E+04 -5.876207E+04
       236   5  2.186165E+05 -5.393858E+02 -1.052598E+04  4.943204E+04 -9.726625E+03 -5.824767E+04
       236   6  2.179592E+05  2.151638E+02 -5.982456E+03  5.522533E+04 -4.475790E+03 -5.556731E+04
       236   7 -6.416792E+05 -2.056460E+05 -1.680280E+05  5.535500E+04 -1.597332E+04 -5.877174E+04
       236   8 -5.877623E+05 -1.890824E+05 -1.466617E+05  4.841244E+04 -6.981204E+03 -5.824763E+04
       236   9 -5.358346E+05 -1.757806E+05 -1.319659E+05  5.306799E+04  2.005127E+03 -5.555620E+04
       236  10  1.078268E+06  1.977934E+05  1.297139E+05  5.511586E+04 -1.177136E-08 -4.959689E-09
       236  11  1.025635E+06  1.879657E+05  1.255824E+05  5.045202E+04  6.168456E-09  7.352293E-10
       236  12  9.723131E+05  1.761780E+05  1.199776E+05  5.738451E+04  2.267032E-08  2.915534E-09
       236  13  2.179311E+05 -3.908290E+03 -1.914772E+04  5.523536E+04 -1.065015E-09 -3.808115E-09
       236  14  2.186154E+05 -5.430548E+02 -1.053253E+04  4.943159E+04 -2.150389E-09  4.720251E-10
       236  15  2.179584E+05  2.118424E+02 -5.988296E+03  5.522513E+04 -1.291431E-09 -1.731803E-09
       236  16 -6.416804E+05 -2.056498E+05 -1.680350E+05  5.535424E+04  1.097798E-08 -1.172698E-09
       236  17 -5.877632E+05 -1.890860E+05 -1.466682E+05  4.841211E+04 -7.507150E-09  1.525445E-09
       236  18 -5.358354E+05 -1.757839E+05 -1.319717E+05  5.306808E+04 -2.379967E-08  2.205354E-09
       236  19  1.078269E+06  1.977972E+05  1.297208E+05  5.511652E+04  1.399348E+04  5.875241E+04
       236  20  1.025636E+06  1.879693E+05  1.255891E+05  5.045260E+04  1.247549E+04  5.824771E+04
       236  21  9.723141E+05  1.761813E+05  1.199836E+05  5.738500E+04  1.096432E+04  5.557847E+04
       236  22  2.179322E+05 -3.904521E+03 -1.914081E+04  5.523607E+04  1.498407E+04  5.876207E+04
       236  23  2.186165E+05 -5.393858E+02 -1.052598E+04  4.943204E+04  9.726625E+03  5.824767E+04
       236  24  2.179592E+05  2.151638E+02 -5.982456E+03  5.522533E+04  4.475790E+03  5.556731E+04
       236  25 -6.416792E+05 -2.056460E+05 -1.680280E+05  5.535500E+04  1.597332E+04  5.877174E+04
       236  26 -5.877623E+05 -1.890824E+05 -1.466617E+05  4.841244E+04  6.981204E+03  5.824763E+04
       236  27 -5.358346E+05 -1.757806E+05 -1.319659E+05  5.306799E+04 -2.005127E+03  5.555620E+04
       237   1  9.381539E+05  1.680169E+05  1.153392E+05  5.698076E+04 -9.828064E+03 -5.334834E+04
       237   2  8.853580E+05  1.557523E+05  1.082716E+05  5.102065E+04 -8.902670E+03 -4.962688E+04
       237   3  8.324055E+05  1.434787E+05  1.005903E+05  5.677585E+04 -7.979738E+03 -4.570694E+04
       237   4  2.182184E+05  1.471898E+02 -4.537351E+03  5.525329E+04 -3.562702E+03 -5.333680E+04
       237   5  2.183396E+05  2.607153E+02 -2.574604E+03  4.939505E+04 -2.295471E+03 -4.961287E+04
       237   6  2.182417E+05  3.057944E+02 -1.463640E+03  5.525285E+04 -1.030626E+03 -4.569035E+04
       237   7 -5.012058E+05 -1.677495E+05 -1.244295E+05  5.352753E+04  2.695648E+03 -5.332529E+04
       237   8 -4.482398E+05 -1.552540E+05 -1.134342E+05  4.777093E+04  4.304877E+03 -4.959889E+04
       237   9 -3.955499E+05 -1.428866E+05 -1.035288E+05  5.373112E+04  5.911849E+03 -4.567379E+04
       237  10  9.381530E+05  1.680139E+05  1.153337E+05  5.698034E+04  1.285929E-08  4.912668E-09
       237  11  8.853573E+05  1.557497E+05  1.082669E+05  5.102030E+04 -3.144233E-08  3.136864E-09
       237  12  8.324049E+05  1.434764E+05  1.005863E+05  5.677556E+04 -6.544332E-08 -2.000393E-09
       237  13  2.182176E+05  1.441313E+02 -4.542722E+03  5.525314E+04 -2.283629E-09 -2.323656E-09
       237  14  2.183389E+05  2.580705E+02 -2.579240E+03  4.939496E+04 -1.052689E-09  4.594204E-09
       237  15  2.182411E+05  3.035521E+02 -1.467565E+03  5.525281E+04 -1.733605E-10  5.566523E-09
       237  16 -5.012065E+05 -1.677525E+05 -1.244349E+05  5.352764E+04 -1.185651E-08  3.984870E-09
       237  17 -4.482405E+05 -1.552566E+05 -1.134388E+05  4.777110E+04  2.893526E-08  5.755881E-09
       237  18 -3.955505E+05 -1.428889E+05 -1.035328E+05  5.373134E+04  6.425976E-08  1.685931E-10
       237  19  9.381539E+05  1.680169E+05  1.153392E+05  5.698076E+04  9.828064E+03  5.334834E+04
       237  20  8.853580E+05  1.557523E+05  1.082716E+05  5.102065E+04  8.902670E+03  4.962688E+04
       237  21  8.324055E+05  1.434787E+05  1.005903E+05  5.677585E+04  7.979738E+03  4.570694E+04
       237  22  2.182184E+05  1.471898E+02 -4.537351E+03  5.525329E+04  3.562702E+03  5.333680E+04
       237  23  2.183396E+05  2.607153E+02 -2.574604E+03  4.939505E+04  2.295471E+03  4.961287E+04
       237  24  2.182417E+05  3.057944E+02 -1.463640E+03  5.525285E+04  1.030626E+03  4.569035E+04
       237  25 -5.012058E+05 -1.677495E+05 -1.244295E+05  5.352753E+04 -2.695648E+03  5.332529E+04
       237  26 -4.482398E+05 -1.552540E+05 -1.134342E+05  4.777093E+04 -4.304877E+03  4.959889E+04
       237  27 -3.955499E+05 -1.428866E+05 -1.035288E+05  5.373112E+04 -5.911849E+03  4.567379E+04
       238   1  7.981738E+05  1.354447E+05  9.502737E+04  5.668489E+04 -7.730775E+03 -4.336470E+04
       238   2  7.454042E+05  1.231277E+05  8.684164E+04  5.071281E+04 -7.468736E+03 -3.935172E+04
       238   3  6.925610E+05  1.108869E+05  7.848732E+04  5.645312E+04 -7.208273E+03 -3.532184E+04
       238   4  2.182800E+05  3.044173E+02 -1.101983E+03  5.525228E+04 -8.045972E+02 -4.334732E+04
       238   5  2.183303E+05  2.777866E+02 -6.091302E+02  4.939579E+04 -5.139055E+02 -3.933298E+04
       238   6  2.182985E+05  3.221148E+02 -3.052688E+02  5.525227E+04 -2.247684E+02 -3.530174E+04
       238   7 -3.612818E+05 -1.348533E+05 -9.724125E+04  5.382079E+04  6.115336E+03 -4.332998E+04
       238   8 -3.084692E+05 -1.225865E+05 -8.806809E+04  4.807972E+04  6.435225E+03 -3.931427E+04
       238   9 -2.557420E+05 -1.102543E+05 -7.910448E+04  5.405219E+04  6.753585E+03 -3.528165E+04
       238  10  7.981732E+05  1.354427E+05  9.502372E+04  5.668462E+04  4.772904E-08 -2.793377E-09
       238  11  7.454037E+05  1.231261E+05  8.683863E+04  5.071257E+04  1.719115E-08  8.511820E-09
       238  12  6.925606E+05  1.108855E+05  7.848487E+04  5.645292E+04 -1.450771E-08  8.013196E-09
       238  13  2.182795E+05  3.023992E+02 -1.105516E+03  5.525225E+04  1.034136E-09 -6.215711E-11
       238  14  2.183299E+05  2.761250E+02 -6.120383E+02  4.939578E+04 -9.301260E-10  8.006144E-09
       238  15  2.182981E+05  3.207764E+02 -3.076110E+02  5.525227E+04 -1.482758E-09  4.632165E-09
       238  16 -3.612823E+05 -1.348553E+05 -9.724485E+04  5.382100E+04 -4.674729E-08 -2.062086E-10
       238  17 -3.084696E+05 -1.225882E+05 -8.807107E+04  4.807992E+04 -1.906259E-08  1.670694E-09
       238  18 -2.557424E+05 -1.102556E+05 -7.910690E+04  5.405238E+04  1.384053E-08  2.672381E-09
       238  19  7.981738E+05  1.354447E+05  9.502737E+04  5.668489E+04  7.730775E+03  4.336470E+04
       238  20  7.454042E+05  1.231277E+05  8.684164E+04  5.071281E+04  7.468736E+03  3.935172E+04
       238  21  6.925610E+05  1.108869E+05  7.848732E+04  5.645312E+04  7.208273E+03  3.532184E+04
       238  22  2.182800E+05  3.044173E+02 -1.101983E+03  5.525228E+04  8.045972E+02  4.334732E+04
       238  23  2.183303E+05  2.777866E+02 -6.091302E+02  4.939579E+04  5.139055E+02  3.933298E+04
       238  24  2.182985E+05  3.221148E+02 -3.052688E+02  5.525227E+04  2.247684E+02  3.530174E+04
       238  25 -3.612818E+05 -1.348533E+05 -9.724125E+04  5.382079E+04 -6.115336E+03  4.332998E+04
       238  26 -3.084692E+05 -1.225865E+05 -8.806809E+04  4.807972E+04 -6.435225E+03  3.931427E+04
       238  27 -2.557420E+05 -1.102543E+05 -7.910448E+04  5.405219E+04 -6.753585E+03  3.528165E+04
       239   1  6.583494E+05  1.028718E+05  7.269133E+04  5.637773E+04 -7.165714E+03 -3.297166E+04
       239   2  6.056248E+05  9.056746E+04  6.423064E+04  5.040932E+04 -7.167105E+03 -2.893646E+04
       239   3  5.528412E+05  7.834346E+04  5.576781E+04  5.614860E+04 -7.169596E+03 -2.490252E+04
       239   4  2.183093E+05  3.272681E+02 -1.965909E+02  5.525120E+04 -1.859304E+02 -3.295091E+04
       239   5  2.183464E+05  2.957413E+02 -1.675359E+01  4.939714E+04 -1.897244E+02 -2.891478E+04
       239   6  2.183229E+05  3.453256E+02  1.627066E+02  5.525119E+04 -1.946179E+02 -2.487990E+04
       239   7 -2.215394E+05 -1.022273E+05 -7.309013E+04  5.412535E+04  6.789077E+03 -3.293017E+04
       239   8 -1.687838E+05 -8.998372E+04 -6.426848E+04  4.838550E+04  6.783453E+03 -2.889311E+04
       239   9 -1.160849E+05 -7.765859E+04 -5.544561E+04  5.435418E+04  6.776730E+03 -2.485729E+04
       239  10  6.583490E+05  1.028707E+05  7.268919E+04  5.637754E+04  1.495155E-08  1.565583E-09
       239  11  6.056245E+05  9.056654E+04  6.422897E+04  5.040915E+04  2.528237E-09 -2.178626E-09
       239  12  5.528410E+05  7.834278E+04  5.576655E+04  5.614846E+04 -9.316752E-09 -2.175846E-09
       239  13  2.183090E+05  3.261020E+02 -1.986316E+02  5.525120E+04 -9.475297E-10  1.041058E-08
       239  14  2.183462E+05  2.948435E+02 -1.832495E+01  4.939714E+04 -1.536526E-09  2.951576E-10
       239  15  2.183228E+05  3.446608E+02  1.615432E+02  5.525119E+04 -1.110507E-09 -3.539274E-09
       239  16 -2.215397E+05 -1.022285E+05 -7.309225E+04  5.412553E+04 -1.597240E-08  5.452394E-09
       239  17 -1.687841E+05 -8.998463E+04 -6.427014E+04  4.838565E+04 -4.104986E-09 -3.921593E-09
       239  18 -1.160851E+05 -7.765927E+04 -5.544685E+04  5.435432E+04  9.173774E-09 -3.566201E-09
       239  19  6.583494E+05  1.028718E+05  7.269133E+04  5.637773E+04  7.165714E+03  3.297166E+04
       239  20  6.056248E+05  9.056746E+04  6.423064E+04  5.040932E+04  7.167105E+03  2.893646E+04
       239  21  5.528412E+05  7.834346E+04  5.576781E+04  5.614860E+04  7.169596E+03  2.490252E+04
       239  22  2.183093E+05  3.272681E+02 -1.965909E+02  5.525120E+04  1.859304E+02  3.295091E+04
       239  23  2.183464E+05  2.957413E+02 -1.675359E+01  4.939714E+04  1.897244E+02  2.891478E+04
       239  24  2.183229E+05  3.453256E+02  1.627066E+02  5.525119E+04  1.946179E+02  2.487990E+04
       239  25 -2.215394E+05 -1.022273E+05 -7.309013E+04  5.412535E+04 -6.789077E+03  3.293017E+04
       239  26 -1.687838E+05 -8.998372E+04 -6.426848E+04  4.838550E+04 -6.783453E+03  2.889311E+04
       239  27 -1.160849E+05 -7.765859E+04 -5.544561E+04  5.435418E+04 -6.776730E+03  2.485729E+04
       240   1  5.186611E+05  7.033163E+04  4.997037E+04  5.607150E+04 -7.216239E+03 -2.255430E+04
       240   2  4.659602E+05  5.802842E+04  4.160322E+04  5.010081E+04 -7.463015E+03 -1.853133E+04
       240   3  4.132265E+05  4.583259E+04  3.339669E+04  5.582777E+04 -7.710408E+03 -1.452888E+04
       240   4  2.183340E+05  3.477164E+02  2.655602E+02  5.524896E+04 -2.408495E+02 -2.253122E+04
       240   5  2.183531E+05  3.118303E+02  5.437321E+02  4.939994E+04 -5.232923E+02 -1.850778E+04
       240   6  2.183427E+05  3.896052E+02  1.007179E+03  5.524884E+04 -8.063702E+02 -1.450485E+04
       240   7 -8.190381E+04 -6.964084E+04 -4.944176E+04  5.442675E+04  6.731282E+03 -2.250816E+04
       240   8 -2.919342E+04 -5.740791E+04 -4.051742E+04  4.869930E+04  6.413757E+03 -1.848424E+04
       240   9  2.349647E+04 -4.505532E+04 -3.138331E+04  5.467006E+04  6.095574E+03 -1.448083E+04
       240  10  5.186609E+05  7.033107E+04  4.996931E+04  5.607137E+04  1.018176E-09  3.652883E-09
       240  11  4.659600E+05  5.802804E+04  4.160247E+04  5.010070E+04 -4.043486E-09  3.070916E-10
       240  12  4.132264E+05  4.583234E+04  3.339618E+04  5.582768E+04 -5.670111E-09  2.983973E-09
       240  13  2.183339E+05  3.471712E+02  2.646060E+02  5.524895E+04 -2.149247E-09  1.519251E-09
       240  14  2.183530E+05  3.114623E+02  5.430878E+02  4.939993E+04 -5.396506E-10  9.543193E-10
       240  15  2.183426E+05  3.893791E+02  1.006783E+03  5.524883E+04  5.499036E-10  5.189191E-09
       240  16 -8.190399E+04 -6.964139E+04 -4.944279E+04  5.442687E+04 -4.189316E-10  2.543512E-09
       240  17 -2.919356E+04 -5.740829E+04 -4.051814E+04  4.869940E+04  2.637070E-09 -9.558982E-09
       240  18  2.349637E+04 -4.505556E+04 -3.138377E+04  5.467013E+04  4.925080E-09 -1.178374E-09
       240  19  5.186611E+05  7.033163E+04  4.997037E+04  5.607150E+04  7.216239E+03  2.255430E+04
       240  20  4.659602E+05  5.802842E+04  4.160322E+04  5.010081E+04  7.463015E+03  1.853133E+04
       240  21  4.132265E+05  4.583259E+04  3.339669E+04  5.582777E+04  7.710408E+03  1.452888E+04
       240  22  2.183340E+05  3.477164E+02  2.655602E+02  5.524896E+04  2.408495E+02  2.253122E+04
       240  23  2.183531E+05  3.118303E+02  5.437321E+02  4.939994E+04  5.232923E+02  1.850778E+04
       240  24  2.183427E+05  3.896052E+02  1.007179E+03  5.524884E+04  8.063702E+02  1.450485E+04
       240  25 -8.190381E+04 -6.964084E+04 -4.944176E+04  5.442675E+04 -6.731282E+03  2.250816E+04
       240  26 -2.919342E+04 -5.740791E+04 -4.051742E+04  4.869930E+04 -6.413757E+03  1.848424E+04
       240  27  2.349647E+04 -4.505532E+04 -3.138331E+04  5.467006E+04 -6.095574E+03  1.448083E+04
       241   1  3.791055E+05  3.780202E+04  2.781653E+04  5.582436E+04 -7.944026E+03 -1.219386E+04
       241   2  3.263288E+05  2.563439E+04  2.007494E+04  4.958142E+04 -8.769421E+03 -8.299221E+03
       241   3  2.737179E+05  1.409269E+04  1.299850E+04  5.501636E+04 -9.594299E+03 -4.620659E+03
       241   4  2.184020E+05  3.741553E+02  1.340098E+03  5.524491E+04 -1.019057E+03 -1.216951E+04
       241   5  2.182903E+05  4.932859E+02  2.375006E+03  4.940429E+04 -2.218162E+03 -8.275945E+03
       241   6  2.184056E+05  1.303126E+03  4.334177E+03  5.524163E+04 -3.416808E+03 -4.598481E+03
       241   7  5.772419E+04 -3.705502E+04 -2.513691E+04  5.466560E+04  5.904182E+03 -1.214516E+04
       241   8  1.102635E+05 -2.464840E+04 -1.532510E+04  4.922719E+04  4.331997E+03 -8.252671E+03
       241   9  1.630964E+05 -1.148657E+04 -4.330080E+03  5.546687E+04  2.760152E+03 -4.576296E+03
       241  10  3.791054E+05  3.780185E+04  2.781613E+04  5.582428E+04 -6.246695E-09  7.656549E-09
       241  11  3.263287E+05  2.563430E+04  2.007467E+04  4.958136E+04 -1.971601E-09  1.530398E-09
       241  12  2.737178E+05  1.409264E+04  1.299829E+04  5.501633E+04  6.393099E-09  7.653740E-09
       241  13  2.184020E+05  3.739960E+02  1.339818E+03  5.524490E+04 -1.087702E-09  6.034623E-09
       241  14  2.182903E+05  4.932110E+02  2.374868E+03  4.940428E+04 -1.097476E-09  8.563257E-09
       241  15  2.184056E+05  1.303100E+03  4.334116E+03  5.524162E+04  2.175515E-09 -3.289487E-10
       241  16  5.772411E+04 -3.705518E+04 -2.513725E+04  5.466566E+04  6.323036E-09  4.437572E-09
       241  17  1.102635E+05 -2.464847E+04 -1.532527E+04  4.922722E+04  1.017087E-09  2.859049E-09
       241  18  1.630964E+05 -1.148659E+04 -4.330134E+03  5.546688E+04 -8.532344E-09 -8.428512E-09
       241  19  3.791055E+05  3.780202E+04  2.781653E+04  5.582436E+04  7.944026E+03  1.219386E+04
       241  20  3.263288E+05  2.563439E+04  2.007494E+04  4.958142E+04  8.769421E+03  8.299221E+03
       241  21  2.737179E+05  1.409269E+04  1.299850E+04  5.501636E+04  9.594299E+03  4.620659E+03
       241  22  2.184020E+05  3.741553E+02  1.340098E+03  5.524491E+04  1.019057E+03  1.216951E+04
       241  23  2.182903E+05  4.932859E+02  2.375006E+03  4.940429E+04  2.218162E+03  8.275945E+03
       241  24  2.184056E+05  1.303126E+03  4.334177E+03  5.524163E+04  3.416808E+03  4.598481E+03
       241  25  5.772419E+04 -3.705502E+04 -2.513691E+04  5.466560E+04 -5.904182E+03  1.214516E+04
       241  26  1.102635E+05 -2.464840E+04 -1.532510E+04  4.922719E+04 -4.331997E+03  8.252671E+03
       241  27  1.630964E+05 -1.148657E+04 -4.330080E+03  5.546687E+04 -2.760152E+03  4.576296E+03
       242   1  2.401333E+05  5.822982E+03  8.288275E+03  5.627248E+04 -1.057929E+04 -2.415101E+03
       242   2  1.861301E+05 -3.016396E+03  2.753817E+03  4.377205E+04 -1.191729E+04  1.238339E+02
       242   3  1.348167E+05 -1.397046E+03  6.789768E+02  4.277085E+04 -1.324709E+04  3.296951E+02
       242   4  2.191085E+05  1.093740E+03  5.705610E+03  5.521076E+04 -4.166588E+03 -2.391998E+03
       242   5  2.174135E+05  4.815373E+03  1.039534E+04  4.942832E+04 -9.537546E+03  1.322727E+02
       242   6  2.191057E+05  1.969543E+04  2.134441E+04  5.514462E+04 -1.490048E+04  3.234963E+02
       242   7  1.980842E+05 -3.635494E+03  3.123100E+03  5.414906E+04  2.245904E+03 -2.368916E+03
       242   8  2.486979E+05  1.264719E+04  1.803683E+04  5.508488E+04 -7.157687E+03  1.407547E+02
       242   9  3.034014E+05  4.078795E+04  4.200941E+04  6.752007E+04 -1.655411E+04  3.172320E+02
       242  10  2.401332E+05  5.822946E+03  8.288054E+03  5.627246E+04 -2.524851E-09  5.198494E-09
       242  11  1.861300E+05 -3.016435E+03  2.753550E+03  4.377205E+04 -1.823006E-09 -3.729221E-09
       242  12  1.348165E+05 -1.397093E+03  6.786469E+02  4.277085E+04  1.171238E-09  1.945522E-10
       242  13  2.191084E+05  1.093729E+03  5.705567E+03  5.521075E+04  1.304076E-10  7.956970E-09
       242  14  2.174134E+05  4.815348E+03  1.039517E+04  4.942832E+04  3.623574E-09 -7.582036E-09
       242  15  2.191054E+05  1.969537E+04  2.134399E+04  5.514462E+04  1.617086E-09  3.811921E-09
       242  16  1.980842E+05 -3.635501E+03  3.123080E+03  5.414907E+04  4.077285E-09  1.991472E-09
       242  17  2.486979E+05  1.264718E+04  1.803673E+04  5.508488E+04 -2.271865E-11  6.397160E-10
       242  18  3.034011E+05  4.078787E+04  4.200890E+04  6.752008E+04 -2.545588E-09 -4.031186E-09
       242  19  2.401333E+05  5.822982E+03  8.288275E+03  5.627248E+04  1.057929E+04  2.415101E+03
       242  20  1.861301E+05 -3.016396E+03  2.753817E+03  4.377205E+04  1.191729E+04 -1.238339E+02
       242  21  1.348167E+05 -1.397046E+03  6.789768E+02  4.277085E+04  1.324709E+04 -3.296951E+02
       242  22  2.191085E+05  1.093740E+03  5.705610E+03  5.521076E+04  4.166588E+03  2.391998E+03
       242  23  2.174135E+05  4.815373E+03  1.039534E+04  4.942832E+04  9.537546E+03 -1.322727E+02
       242  24  2.191057E+05  1.969543E+04  2.134441E+04  5.514462E+04  1.490048E+04 -3.234963E+02
       242  25  1.980842E+05 -3.635494E+03  3.123100E+03  5.414906E+04 -2.245904E+03  2.368916E+03
       242  26  2.486979E+05  1.264719E+04  1.803683E+04  5.508488E+04  7.157687E+03 -1.407547E+02
       242  27  3.034014E+05  4.078795E+04  4.200941E+04  6.752007E+04  1.655411E+04 -3.172320E+02
       243   1  1.199307E+05  1.193632E+06  1.218489E+05 -1.747269E+05  2.336429E+03  4.017020E+04
       243   2  5.243332E+04  1.046331E+06  6.223283E+04 -1.454496E+05  5.382724E+03  1.332578E+04
       243   3  1.071947E+04  9.088424E+05  2.648835E+04 -1.471143E+05  1.713604E+02 -1.352762E+04
       243   4  4.062094E+04  8.743630E+05  4.482481E+04 -1.486716E+05  2.363647E+03  2.784608E+04
       243   5  9.733026E+03  8.707175E+05  2.445327E+04 -1.332402E+05  5.378985E+03  1.529471E+04
       243   6  2.156718E+03  8.743944E+05  1.804664E+04 -1.487483E+05  1.367740E+02  2.728393E+03
       243   7 -3.869363E+04  5.551892E+05 -3.220564E+04 -1.226297E+05  2.389840E+03  1.552826E+04
       243   8 -3.296874E+04  6.951330E+05 -1.332801E+04 -1.210343E+05  5.375323E+03  1.726309E+04
       243   9 -6.405967E+03  8.399481E+05  9.605822E+03 -1.503822E+05  1.021011E+02  1.898351E+04
       243  10  1.199302E+05  1.193630E+06  1.218459E+05 -1.747270E+05 -3.741582E-10  3.400312E-08
       243  11  5.243324E+04  1.046331E+06  6.223244E+04 -1.454497E+05  1.457150E-09 -1.395753E-08
       243  12  1.071942E+04  9.088422E+05  2.648801E+04 -1.471143E+05  4.415180E-10 -6.047053E-08
       243  13  4.062073E+04  8.743621E+05  4.482335E+04 -1.486717E+05  2.041953E-09  1.915789E-09
       243  14  9.732932E+03  8.707172E+05  2.445277E+04 -1.332403E+05  1.519622E-09 -2.137427E-12
       243  15  2.156716E+03  8.743944E+05  1.804662E+04 -1.487483E+05 -2.077880E-10  2.126788E-09
       243  16 -3.869370E+04  5.551889E+05 -3.220611E+04 -1.226297E+05  1.107459E-09 -3.508512E-08
       243  17 -3.296885E+04  6.951327E+05 -1.332863E+04 -1.210343E+05  1.670834E-09  1.491530E-08
       243  18 -6.406063E+03  8.399477E+05  9.605146E+03 -1.503822E+05 -1.115138E-09  5.755645E-08
       243  19  1.199307E+05  1.193632E+06  1.218489E+05 -1.747269E+05 -2.336429E+03 -4.017020E+04
       243  20  5.243332E+04  1.046331E+06  6.223283E+04 -1.454496E+05 -5.382724E+03 -1.332578E+04
       243  21  1.071947E+04  9.088424E+05  2.648835E+04 -1.471143E+05 -1.713604E+02  1.352762E+04
       243  22  4.062094E+04  8.743630E+05  4.482481E+04 -1.486716E+05 -2.363647E+03 -2.784608E+04
       243  23  9.733026E+03  8.707175E+05  2.445327E+04 -1.332402E+05 -5.378985E+03 -1.529471E+04
       243  24  2.156718E+03  8.743944E+05  1.804664E+04 -1.487483E+05 -1.367740E+02 -2.728393E+03
       243  25 -3.869363E+04  5.551892E+05 -3.220564E+04 -1.226297E+05 -2.389840E+03 -1.552826E+04
       243  26 -3.296874E+04  6.951330E+05 -1.332801E+04 -1.210343E+05 -5.375323E+03 -1.726309E+04
       243  27 -6.405967E+03  8.399481E+05  9.605822E+03 -1.503822E+05 -1.021011E+02 -1.898351E+04
       244   1 -1.083909E+04  8.149784E+05  9.206234E+03 -1.505177E+05 -5.563982E+03 -1.567431E+04
       244   2 -4.510160E+04  6.714587E+05 -1.383418E+04 -1.323240E+05 -1.412274E+04 -2.436133E+04
       244   3 -7.423351E+04  5.302334E+05 -2.997935E+04 -1.455402E+05 -2.182870E+04 -3.304376E+04
       244   4  2.465708E+03  8.733276E+05  1.748014E+04 -1.488443E+05 -5.597123E+03 -1.027888E+02
       244   5  1.817252E+03  8.720515E+05  2.032445E+04 -1.331357E+05 -1.415163E+04 -1.026897E+04
       244   6  6.555499E+03  8.733048E+05  3.108780E+04 -1.488356E+05 -2.185344E+04 -2.043245E+04
       244   7  1.577049E+04  9.316807E+05  2.575491E+04 -1.471708E+05 -5.630177E+03  1.547013E+04
       244   8  4.873408E+04  1.072684E+06  5.448250E+04 -1.339476E+05 -1.418055E+04  3.827788E+03
       244   9  8.733813E+04  1.216491E+06  9.215113E+04 -1.521329E+05 -2.187831E+04 -7.814370E+03
       244  10 -1.083918E+04  8.149782E+05  9.205715E+03 -1.505178E+05 -2.104140E-12  2.190641E-08
       244  11 -4.510197E+04  6.714580E+05 -1.383567E+04 -1.323243E+05  1.633452E-09  4.756907E-09
       244  12 -7.423431E+04  5.302321E+05 -2.998230E+04 -1.455408E+05 -7.405100E-10 -1.307371E-08
       244  13  2.465674E+03  8.733276E+05  1.748008E+04 -1.488443E+05 -2.780444E-10  2.145131E-09
       244  14  1.817008E+03  8.720514E+05  2.032388E+04 -1.331358E+05  1.560690E-09 -5.016404E-10
       244  15  6.554874E+03  8.733042E+05  3.108612E+04 -1.488360E+05 -1.247416E-09  2.056182E-09
       244  16  1.577039E+04  9.316805E+05  2.575440E+04 -1.471707E+05 -6.414550E-10 -2.299402E-08
       244  17  4.873386E+04  1.072684E+06  5.448210E+04 -1.339475E+05  2.255547E-11 -4.022267E-09
       244  18  8.733760E+04  1.216491E+06  9.215012E+04 -1.521330E+05  8.276328E-10  9.887943E-09
       244  19 -1.083909E+04  8.149784E+05  9.206234E+03 -1.505177E+05  5.563982E+03  1.567431E+04
       244  20 -4.510160E+04  6.714587E+05 -1.383418E+04 -1.323240E+05  1.412274E+04  2.436133E+04
       244  21 -7.423351E+04  5.302334E+05 -2.997935E+04 -1.455402E+05  2.182870E+04  3.304376E+04
       244  22  2.465708E+03  8.733276E+05  1.748014E+04 -1.488443E+05  5.597123E+03  1.027888E+02
       244  23  1.817252E+03  8.720515E+05  2.032445E+04 -1.331357E+05  1.415163E+04  1.026897E+04
       244  24  6.555499E+03  8.733048E+05  3.108780E+04 -1.488356E+05  2.185344E+04  2.043245E+04
       244  25  1.577049E+04  9.316807E+05  2.575491E+04 -1.471708E+05  5.630177E+03 -1.547013E+04
       244  26  4.873408E+04  1.072684E+06  5.448250E+04 -1.339476E+05  1.418055E+04 -3.827788E+03
       244  27  8.733813E+04  1.216491E+06  9.215113E+04 -1.521329E+05  2.187831E+04  7.814370E+03
       245   1 -9.766827E+04  4.414635E+05 -3.905465E+04 -1.544459E+05 -2.705654E+04 -4.002580E+04
       245   2 -1.083411E+05  2.901925E+05 -4.479763E+04 -9.580539E+04 -2.655187E+04 -4.530742E+04
       245   3 -5.123868E+04  1.564952E+05 -3.017301E+04 -6.744440E+04 -8.476064E+03 -5.055948E+04
       245   4  5.199264E+03  8.777988E+05  3.940989E+04 -1.486106E+05 -2.708416E+04 -2.571454E+04
       245   5  2.978360E+04  8.663482E+05  6.921539E+04 -1.333620E+05 -2.651660E+04 -6.139421E+04
       245   6  1.273732E+05  8.776938E+05  1.404624E+05 -1.483829E+05 -8.384622E+03 -9.704659E+04
       245   7  1.080564E+05  1.314320E+06  1.178679E+05 -1.427711E+05 -2.711150E+04 -1.139350E+04
       245   8  1.678935E+05  1.442825E+06  1.832138E+05 -1.709541E+05 -2.647941E+04 -7.749558E+04
       245   9  3.059734E+05  1.599388E+06  3.110733E+05 -2.294157E+05 -8.281129E+03 -1.435874E+05
       245  10 -9.766948E+04  4.414616E+05 -3.905903E+04 -1.544467E+05 -1.405518E-10 -2.801034E-08
       245  11 -1.083424E+05  2.901901E+05 -4.480282E+04 -9.580636E+04  3.477594E-09 -2.761148E-09
       245  12 -5.123944E+04  1.564925E+05 -3.017794E+04 -6.744475E+04  1.574884E-09  2.272451E-08
       245  13  5.198299E+03  8.777979E+05  3.940727E+04 -1.486112E+05  1.110792E-09  1.554041E-09
       245  14  2.978183E+04  8.663439E+05  6.920700E+04 -1.333634E+05  1.499250E-09 -1.550628E-10
       245  15  1.273706E+05  8.776837E+05  1.404446E+05 -1.483836E+05  2.031722E-10  1.812707E-09
       245  16  1.080556E+05  1.314320E+06  1.178662E+05 -1.427713E+05 -6.155652E-10  2.696598E-08
       245  17  1.678911E+05  1.442818E+06  1.832012E+05 -1.709557E+05  5.181177E-10  3.641306E-09
       245  18  3.059678E+05  1.599366E+06  3.110345E+05 -2.294167E+05 -6.057150E-10 -2.523534E-08
       245  19 -9.766827E+04  4.414635E+05 -3.905465E+04 -1.544459E+05  2.705654E+04  4.002580E+04
       245  20 -1.083411E+05  2.901925E+05 -4.479763E+04 -9.580539E+04  2.655187E+04  4.530742E+04
       245  21 -5.123868E+04  1.564952E+05 -3.017301E+04 -6.744440E+04  8.476064E+03  5.055948E+04
       245  22  5.199264E+03  8.777988E+05  3.940989E+04 -1.486106E+05  2.708416E+04  2.571454E+04
       245  23  2.978360E+04  8.663482E+05  6.921539E+04 -1.333620E+05  2.651660E+04  6.139421E+04
       245  24  1.273732E+05  8.776938E+05  1.404624E+05 -1.483829E+05  8.384622E+03  9.704659E+04
       245  25  1.080564E+05  1.314320E+06  1.178679E+05 -1.427711E+05  2.711150E+04  1.139350E+04
       245  26  1.678935E+05  1.442825E+06  1.832138E+05 -1.709541E+05  2.647941E+04  7.749558E+04
       245  27  3.059734E+05  1.599388E+06  3.110733E+05 -2.294157E+05  8.281129E+03  1.435874E+05
       246   1  1.361239E+06  4.374406E+05  2.149456E+05  4.842057E+05  5.792976E+04  4.962240E+03
       246   2  1.286941E+06  4.263513E+05  1.721209E+05  4.601836E+05  3.856900E+04 -4.159604E+04
       246   3  1.201371E+06  4.161907E+05  1.502507E+05  4.537326E+05  9.609889E+03 -6.267798E+04
       246   4  3.690246E+05  8.336413E+04 -3.699396E+04  2.307286E+05 -1.839448E+04 -2.383444E+04
       246   5  3.808123E+05  1.012769E+05 -1.715377E+04  2.165580E+05  3.544039E+03 -5.482481E+04
       246   6  3.731434E+05  1.119352E+05 -9.051758E+03  2.199612E+05  1.587152E+04 -6.032156E+04
       246   7 -6.221880E+05 -2.706556E+05 -2.889780E+05 -2.238131E+04 -9.458250E+04 -5.258547E+04
       246   8 -5.244607E+05 -2.237319E+05 -2.064630E+05 -2.673997E+04 -3.142520E+04 -6.803372E+04
       246   9 -4.543695E+05 -1.922543E+05 -1.683830E+05 -1.352000E+04  2.212421E+04 -5.796858E+04
       246  10  1.361236E+06  4.374397E+05  2.149393E+05  4.842054E+05  2.359356E-09 -6.632975E-10
       246  11  1.286939E+06  4.263491E+05  1.721148E+05  4.601848E+05  4.642603E-10 -7.310679E-09
       246  12  1.201370E+06  4.161865E+05  1.502432E+05  4.537331E+05 -2.215658E-09 -6.733592E-09
       246  13  3.690241E+05  8.336343E+04 -3.699567E+04  2.307283E+05  2.856155E-09  4.062600E-09
       246  14  3.808115E+05  1.012737E+05 -1.715944E+04  2.165581E+05  8.026668E-10 -9.649867E-10
       246  15  3.731422E+05  1.119312E+05 -9.059071E+03  2.199620E+05  1.743825E-09  1.511471E-09
       246  16 -6.221984E+05 -2.706609E+05 -2.890000E+05 -2.238532E+04 -3.070001E-09  2.722515E-09
       246  17 -5.244630E+05 -2.237371E+05 -2.064735E+05 -2.674169E+04  1.791973E-09  7.046135E-10
       246  18 -4.543709E+05 -1.922581E+05 -1.683903E+05 -1.351896E+04  2.252271E-09  4.597321E-09
       246  19  1.361239E+06  4.374406E+05  2.149456E+05  4.842057E+05 -5.792976E+04 -4.962240E+03
       246  20  1.286941E+06  4.263513E+05  1.721209E+05  4.601836E+05 -3.856900E+04  4.159604E+04
       246  21  1.201371E+06  4.161907E+05  1.502507E+05  4.537326E+05 -9.609889E+03  6.267798E+04
       246  22  3.690246E+05  8.336413E+04 -3.699396E+04  2.307286E+05  1.839448E+04  2.383444E+04
       246  23  3.808123E+05  1.012769E+05 -1.715377E+04  2.165580E+05 -3.544039E+03  5.482481E+04
       246  24  3.731434E+05  1.119352E+05 -9.051758E+03  2.199612E+05 -1.587152E+04  6.032156E+04
       246  25 -6.221880E+05 -2.706556E+05 -2.889780E+05 -2.238131E+04  9.458250E+04  5.258547E+04
       246  26 -5.244607E+05 -2.237319E+05 -2.064630E+05 -2.673997E+04  3.142520E+04  6.803372E+04
       246  27 -4.543695E+05 -1.922543E+05 -1.683830E+05 -1.352000E+04 -2.212421E+04  5.796858E+04
       247   1  1.154496E+06  3.959898E+05  1.418865E+05  4.388817E+05  1.344103E+04 -5.830522E+04
       247   2  1.087282E+06  3.638092E+05  1.279204E+05  4.114164E+05  1.096588E+04 -5.631465E+04
       247   3  1.007646E+06  3.439282E+05  1.150081E+05  3.983872E+05  7.711674E+03 -5.226945E+04
       247   4  3.739555E+05  1.117671E+05 -6.845700E+03  2.209201E+05  1.593267E+04 -5.737170E+04
       247   5  3.806119E+05  1.066243E+05 -3.612171E+03  2.134534E+05  1.678634E+04 -5.412149E+04
       247   6  3.741818E+05  1.131222E+05 -1.961785E+03  2.204221E+05  1.686035E+04 -4.881540E+04
       247   7 -4.059585E+05 -1.724029E+05 -1.556054E+05  3.209929E+03  1.842099E+04 -5.643943E+04
       247   8 -3.255397E+05 -1.505151E+05 -1.351649E+05  1.569859E+04  2.259977E+04 -5.193100E+04
       247   9 -2.588620E+05 -1.176454E+05 -1.189465E+05  4.262578E+04  2.599907E+04 -4.536512E+04
       247  10  1.154494E+06  3.959861E+05  1.418797E+05  4.388824E+05  2.284516E-09 -1.174765E-09
       247  11  1.087281E+06  3.638058E+05  1.279142E+05  4.114169E+05 -1.799966E-09 -2.799044E-09
       247  12  1.007645E+06  3.439252E+05  1.150028E+05  3.983875E+05 -3.693929E-09 -3.825263E-09
       247  13  3.739543E+05  1.117635E+05 -6.852363E+03  2.209208E+05 -2.133006E-11 -2.719162E-09
       247  14  3.806108E+05  1.066211E+05 -3.618206E+03  2.134542E+05  2.151309E-09 -2.348441E-09
       247  15  3.741809E+05  1.131196E+05 -1.966799E+03  2.204228E+05 -1.515585E-10 -3.958543E-09
       247  16 -4.059598E+05 -1.724064E+05 -1.556120E+05  3.210766E+03 -6.573343E-11  5.845137E-10
       247  17 -3.255410E+05 -1.505181E+05 -1.351709E+05  1.569953E+04  4.714210E-09 -5.214994E-09
       247  18 -2.588633E+05 -1.176478E+05 -1.189516E+05  4.262673E+04  6.548636E-09  2.069933E-09
       247  19  1.154496E+06  3.959898E+05  1.418865E+05  4.388817E+05 -1.344103E+04  5.830522E+04
       247  20  1.087282E+06  3.638092E+05  1.279204E+05  4.114164E+05 -1.096588E+04  5.631465E+04
       247  21  1.007646E+06  3.439282E+05  1.150081E+05  3.983872E+05 -7.711674E+03  5.226945E+04
       247  22  3.739555E+05  1.117671E+05 -6.845700E+03  2.209201E+05 -1.593267E+04  5.737170E+04
       247  23  3.806119E+05  1.066243E+05 -3.612171E+03  2.134534E+05 -1.678634E+04  5.412149E+04
       247  24  3.741818E+05  1.131222E+05 -1.961785E+03  2.204221E+05 -1.686035E+04  4.881540E+04
       247  25 -4.059585E+05 -1.724029E+05 -1.556054E+05  3.209929E+03 -1.842099E+04  5.643943E+04
       247  26 -3.255397E+05 -1.505151E+05 -1.351649E+05  1.569859E+04 -2.259977E+04  5.193100E+04
       247  27 -2.588620E+05 -1.176454E+05 -1.189465E+05  4.262578E+04 -2.599907E+04  4.536512E+04
       248   1  9.596599E+05  3.262598E+05  1.061911E+05  3.848746E+05  7.044720E+03 -4.873930E+04
       248   2  8.930128E+05  2.934471E+05  9.337154E+04  3.572343E+05  5.083331E+03 -4.315514E+04
       248   3  8.137447E+05  2.732903E+05  8.046718E+04  3.439215E+05  3.057985E+03 -3.740901E+04
       248   4  3.742530E+05  1.131276E+05 -1.468773E+03  2.204815E+05  1.588228E+04 -4.540137E+04
       248   5  3.806140E+05  1.068723E+05 -7.873103E+02  2.133068E+05  1.418316E+04 -3.971584E+04
       248   6  3.742948E+05  1.132211E+05 -3.995671E+02  2.204586E+05  1.242006E+04 -3.386823E+04
       248   7 -2.107890E+05 -9.996965E+04 -1.091395E+05  5.623408E+04  2.471087E+04 -4.206685E+04
       248   8 -1.315094E+05 -7.967724E+04 -9.495553E+04  6.948989E+04  2.327498E+04 -3.627958E+04
       248   9 -6.495675E+04 -4.683102E+04 -8.127426E+04  9.707592E+04  2.177516E+04 -3.033010E+04
       248  10  9.596592E+05  3.262572E+05  1.061865E+05  3.848749E+05 -5.482552E-08 -2.401420E-08
       248  11  8.930122E+05  2.934451E+05  9.336799E+04  3.572345E+05 -3.773024E-09 -6.428400E-09
       248  12  8.137443E+05  2.732888E+05  8.046453E+04  3.439216E+05  4.691453E-08  1.161028E-08
       248  13  3.742522E+05  1.131253E+05 -1.473122E+03  2.204821E+05 -3.363807E-10 -7.819335E-09
       248  14  3.806134E+05  1.068706E+05 -7.906532E+02  2.133073E+05 -2.417965E-09 -1.216200E-08
       248  15  3.742943E+05  1.132199E+05 -4.020131E+02  2.204590E+05 -1.820627E-09  1.050848E-09
       248  16 -2.107902E+05 -9.997171E+04 -1.091440E+05  5.623492E+04  5.134254E-08  2.157715E-08
       248  17 -1.315103E+05 -7.967880E+04 -9.495902E+04  6.949057E+04 -4.401430E-09 -3.459864E-09
       248  18 -6.495750E+04 -4.683214E+04 -8.127688E+04  9.707645E+04 -5.190924E-08 -2.037184E-08
       248  19  9.596599E+05  3.262598E+05  1.061911E+05  3.848746E+05 -7.044720E+03  4.873930E+04
       248  20  8.930128E+05  2.934471E+05  9.337154E+04  3.572343E+05 -5.083331E+03  4.315514E+04
       248  21  8.137447E+05  2.732903E+05  8.046718E+04  3.439215E+05 -3.057985E+03  3.740901E+04
       248  22  3.742530E+05  1.131276E+05 -1.468773E+03  2.204815E+05 -1.588228E+04  4.540137E+04
       248  23  3.806140E+05  1.068723E+05 -7.873103E+02  2.133068E+05 -1.418316E+04  3.971584E+04
       248  24  3.742948E+05  1.132211E+05 -3.995671E+02  2.204586E+05 -1.242006E+04  3.386823E+04
       248  25 -2.107890E+05 -9.996965E+04 -1.091395E+05  5.623408E+04 -2.471087E+04  4.206685E+04
       248  26 -1.315094E+05 -7.967724E+04 -9.495553E+04  6.948989E+04 -2.327498E+04  3.627958E+04
       248  27 -6.495675E+04 -4.683102E+04 -8.127426E+04  9.707592E+04 -2.177516E+04  3.033010E+04
       249   1  7.658212E+05  2.557812E+05  7.139785E+04  3.304856E+05  1.870238E+03 -3.401234E+04
       249   2  6.993168E+05  2.230011E+05  5.840936E+04  3.028667E+05 -2.888250E+02 -2.823700E+04
       249   3  6.201882E+05  2.028637E+05  4.540788E+04  2.895566E+05 -2.453329E+03 -2.245161E+04
       249   4  3.743117E+05  1.132272E+05 -2.750630E+02  2.204579E+05  1.120296E+04 -3.048158E+04
       249   5  3.806385E+05  1.069226E+05 -7.833912E+01  2.133023E+05  9.059947E+03 -2.469877E+04
       249   6  3.743316E+05  1.132570E+05  9.192338E+01  2.204535E+05  6.911502E+03 -1.890592E+04
       249   7 -1.703673E+04 -2.931204E+04 -7.195316E+04  1.104948E+05  2.052939E+04 -2.695320E+04
       249   8  6.206847E+04 -9.145459E+03 -5.856896E+04  1.237812E+05  1.840355E+04 -2.116250E+04
       249   9  1.285410E+05  2.365704E+04 -4.522526E+04  1.513767E+05  1.627228E+04 -1.536177E+04
       249  10  7.658209E+05  2.557800E+05  7.139567E+04  3.304857E+05 -7.605822E-09 -4.890811E-09
       249  11  6.993165E+05  2.230003E+05  5.840786E+04  3.028667E+05 -4.709161E-10  6.998944E-09
       249  12  6.201880E+05  2.028632E+05  4.540693E+04  2.895565E+05  7.932561E-09 -1.187568E-10
       249  13  3.743113E+05  1.132261E+05 -2.770453E+02  2.204582E+05 -5.506981E-10 -4.061407E-09
       249  14  3.806382E+05  1.069219E+05 -7.964003E+01  2.133025E+05 -3.022873E-09 -3.038468E-09
       249  15  3.743315E+05  1.132566E+05  9.116175E+01  2.204536E+05 -2.995432E-10 -4.551800E-09
       249  16 -1.703738E+04 -2.931294E+04 -7.195532E+04  1.104953E+05  3.852722E-09  9.270945E-09
       249  17  6.206798E+04 -9.146031E+03 -5.857043E+04  1.237815E+05 -3.281114E-09 -6.874846E-09
       249  18  1.285407E+05  2.365672E+04 -4.522620E+04  1.513769E+05 -9.428284E-09 -2.692980E-09
       249  19  7.658212E+05  2.557812E+05  7.139785E+04  3.304856E+05 -1.870238E+03  3.401234E+04
       249  20  6.993168E+05  2.230011E+05  5.840936E+04  3.028667E+05  2.888250E+02  2.823700E+04
       249  21  6.201882E+05  2.028637E+05  4.540788E+04  2.895566E+05  2.453329E+03  2.245161E+04
       249  22  3.743117E+05  1.132272E+05 -2.750630E+02  2.204579E+05 -1.120296E+04  3.048158E+04
       249  23  3.806385E+05  1.069226E+05 -7.833912E+01  2.133023E+05 -9.059947E+03  2.469877E+04
       249  24  3.743316E+05  1.132570E+05  9.192338E+01  2.204535E+05 -6.911502E+03  1.890592E+04
       249  25 -1.703673E+04 -2.931204E+04 -7.195316E+04  1.104948E+05 -2.052939E+04  2.695320E+04
       249  26  6.206847E+04 -9.145459E+03 -5.856896E+04  1.237812E+05 -1.840355E+04  2.116250E+04
       249  27  1.285410E+05  2.365704E+04 -4.522526E+04  1.513767E+05 -1.627228E+04  1.536177E+04
       250   1  5.723285E+05  1.853701E+05  3.631900E+04  2.761362E+05 -3.746993E+03 -1.909344E+04
       250   2  5.058756E+05  1.526003E+05  2.340356E+04  2.485477E+05 -6.131819E+03 -1.339098E+04
       250   3  4.268224E+05  1.324704E+05  1.063561E+04  2.352627E+05 -8.514395E+03 -7.696083E+03
       250   4  3.743445E+05  1.132605E+05  1.811156E+02  2.204539E+05  5.614065E+03 -1.554860E+04
       250   5  3.806481E+05  1.069376E+05  4.220021E+02  2.133047E+05  3.216679E+03 -9.850326E+03
       250   6  3.743496E+05  1.132573E+05  8.204579E+02  2.204576E+05  8.215215E+02 -4.159631E+03
       250   7  1.764000E+05  4.115403E+04 -3.595835E+04  1.647876E+05  1.497203E+04 -1.200493E+04
       250   8  2.554366E+05  6.127625E+04 -2.255993E+04  1.780682E+05  1.256321E+04 -6.310418E+03
       250   9  3.218798E+05  9.404446E+04 -8.994437E+03  2.056536E+05  1.015660E+04 -6.235007E+02
       250  10  5.723284E+05  1.853697E+05  3.631829E+04  2.761362E+05 -1.044108E-08 -5.188809E-09
       250  11  5.058756E+05  1.526001E+05  2.340315E+04  2.485476E+05  1.784087E-08  1.814249E-08
       250  12  4.268224E+05  1.324703E+05  1.063537E+04  2.352627E+05  4.596728E-08  1.379501E-08
       250  13  3.743444E+05  1.132602E+05  1.806019E+02  2.204540E+05 -9.562235E-10 -3.996033E-10
       250  14  3.806481E+05  1.069375E+05  4.218003E+02  2.133047E+05 -3.917169E-10  4.748629E-09
       250  15  3.743496E+05  1.132572E+05  8.204241E+02  2.204576E+05  3.989489E-09  3.983138E-09
       250  16  1.763997E+05  4.115381E+04 -3.595904E+04  1.647877E+05  9.835157E-09  2.318732E-09
       250  17  2.554364E+05  6.127616E+04 -2.256030E+04  1.780683E+05 -1.793908E-08 -9.234580E-09
       250  18  3.218797E+05  9.404443E+04 -8.994631E+03  2.056536E+05 -4.127428E-08 -1.790339E-08
       250  19  5.723285E+05  1.853701E+05  3.631900E+04  2.761362E+05  3.746993E+03  1.909344E+04
       250  20  5.058756E+05  1.526003E+05  2.340356E+04  2.485477E+05  6.131819E+03  1.339098E+04
       250  21  4.268224E+05  1.324704E+05  1.063561E+04  2.352627E+05  8.514395E+03  7.696083E+03
       250  22  3.743445E+05  1.132605E+05  1.811156E+02  2.204539E+05 -5.614065E+03  1.554860E+04
       250  23  3.806481E+05  1.069376E+05  4.220021E+02  2.133047E+05 -3.216679E+03  9.850326E+03
       250  24  3.743496E+05  1.132573E+05  8.204579E+02  2.204576E+05 -8.215215E+02  4.159631E+03
       250  25  1.764000E+05  4.115403E+04 -3.595835E+04  1.647876E+05 -1.497203E+04  1.200493E+04
       250  26  2.554366E+05  6.127625E+04 -2.255993E+04  1.780682E+05 -1.256321E+04  6.310418E+03
       250  27  3.218798E+05  9.404446E+04 -8.994437E+03  2.056536E+05 -1.015660E+04  6.235007E+02
       251   1  3.789981E+05  1.149906E+05  1.746256E+03  2.218813E+05 -9.960485E+03 -4.399599E+03
       251   2  3.124855E+05  8.220550E+04 -1.054281E+04  1.943081E+05 -1.299263E+04  1.002943E+03
       251   3  2.334973E+05  6.215015E+04 -2.216705E+04  1.810424E+05 -1.598954E+04  6.313947E+03
       251   4  3.743792E+05  1.132517E+05  1.107853E+03  2.204704E+05 -6.118105E+02 -8.582490E+02
       251   5  3.806074E+05  1.069017E+05  2.029502E+03  2.133059E+05 -3.792994E+03  4.487524E+03
       251   6  3.743836E+05  1.133101E+05  3.733664E+03  2.204464E+05 -6.939077E+03  9.741754E+03
       251   7  3.697606E+05  1.115129E+05  4.698380E+02  2.190596E+05  8.736705E+03  2.683037E+03
       251   8  4.487344E+05  1.315985E+05  1.460201E+04  2.323058E+05  5.407717E+03  7.972509E+03
       251   9  5.152922E+05  1.644724E+05  2.963436E+04  2.598593E+05  2.113664E+03  1.317042E+04
       251  10  3.789980E+05  1.149905E+05  1.746033E+03  2.218812E+05 -4.186539E-08 -1.771082E-08
       251  11  3.124853E+05  8.220545E+04 -1.054313E+04  1.943081E+05 -2.041196E-08 -4.192949E-09
       251  12  2.334970E+05  6.215004E+04 -2.216760E+04  1.810424E+05  5.294464E-09  5.642685E-09
       251  13  3.743792E+05  1.132517E+05  1.107851E+03  2.204704E+05  3.743800E-09  8.702149E-09
       251  14  3.806074E+05  1.069017E+05  2.029437E+03  2.133059E+05  4.113933E-09  4.755152E-09
       251  15  3.743835E+05  1.133099E+05  3.733395E+03  2.204465E+05  4.640237E-11 -5.795347E-09
       251  16  3.697605E+05  1.115129E+05  4.696811E+02  2.190596E+05  4.621222E-08  1.703111E-08
       251  17  4.487344E+05  1.315984E+05  1.460183E+04  2.323057E+05  1.781006E-08 -2.619278E-09
       251  18  5.152921E+05  1.644722E+05  2.963402E+04  2.598592E+05 -9.417102E-09 -1.795242E-09
       251  19  3.789981E+05  1.149906E+05  1.746256E+03  2.218813E+05  9.960485E+03  4.399599E+03
       251  20  3.124855E+05  8.220550E+04 -1.054281E+04  1.943081E+05  1.299263E+04 -1.002943E+03
       251  21  2.334973E+05  6.215015E+04 -2.216705E+04  1.810424E+05  1.598954E+04 -6.313947E+03
       251  22  3.743792E+05  1.132517E+05  1.107853E+03  2.204704E+05  6.118105E+02  8.582490E+02
       251  23  3.806074E+05  1.069017E+05  2.029502E+03  2.133059E+05  3.792994E+03 -4.487524E+03
       251  24  3.743836E+05  1.133101E+05  3.733664E+03  2.204464E+05  6.939077E+03 -9.741754E+03
       251  25  3.697606E+05  1.115129E+05  4.698380E+02  2.190596E+05 -8.736705E+03 -2.683037E+03
       251  26  4.487344E+05  1.315985E+05  1.460201E+04  2.323058E+05 -5.407717E+03 -7.972509E+03
       251  27  5.152922E+05  1.644724E+05  2.963436E+04  2.598593E+05 -2.113664E+03 -1.317042E+04
       252   1  1.855568E+05  4.481349E+04 -3.015748E+04  1.680278E+05 -1.811152E+04  9.317047E+03
       252   2  1.193636E+05  1.169442E+04 -3.993619E+04  1.394080E+05 -2.278964E+04  1.340932E+04
       252   3  4.172241E+04 -6.796390E+03 -4.712689E+04  1.246185E+05 -2.703566E+04  1.636446E+04
       252   4  3.746008E+05  1.132304E+05  4.977949E+03  2.205570E+05 -8.892106E+03  1.280845E+04
       252   5  3.803658E+05  1.073193E+05  9.106580E+03  2.130401E+05 -1.541336E+04  1.620163E+04
       252   6  3.750416E+05  1.163999E+05  1.728290E+04  2.193506E+05 -2.150294E+04  1.845782E+04
       252   7  5.636822E+05  1.816505E+05  4.011234E+04  2.731010E+05  3.303125E+02  1.630096E+04
       252   8  6.414379E+05  2.029503E+05  5.814651E+04  2.867006E+05 -8.033801E+03  1.899519E+04
       252   9  7.084731E+05  2.396059E+05  8.168710E+04  3.141291E+05 -1.596709E+04  2.055239E+04
       252  10  1.855565E+05  4.481330E+04 -3.015826E+04  1.680280E+05  6.441220E-09  5.213392E-09
       252  11  1.193630E+05  1.169409E+04 -3.993750E+04  1.394083E+05  2.351243E-09 -5.126322E-10
       252  12  4.172155E+04 -6.796874E+03 -4.712877E+04  1.246189E+05 -1.584086E-09  3.844074E-09
       252  13  3.746007E+05  1.132302E+05  4.977492E+03  2.205571E+05 -8.801920E-10  1.860498E-09
       252  14  3.803654E+05  1.073190E+05  9.105640E+03  2.130403E+05  3.738251E-09 -5.207429E-09
       252  15  3.750410E+05  1.163994E+05  1.728139E+04  2.193509E+05  4.623060E-09 -1.897270E-09
       252  16  5.636822E+05  1.816502E+05  4.011184E+04  2.731010E+05 -7.734979E-09 -2.961399E-09
       252  17  6.414377E+05  2.029499E+05  5.814571E+04  2.867007E+05  5.847526E-10 -1.129300E-08
       252  18  7.084727E+05  2.396054E+05  8.168582E+04  3.141294E+05  2.962816E-09 -2.257528E-09
       252  19  1.855568E+05  4.481349E+04 -3.015748E+04  1.680278E+05  1.811152E+04 -9.317047E+03
       252  20  1.193636E+05  1.169442E+04 -3.993619E+04  1.394080E+05  2.278964E+04 -1.340932E+04
       252  21  4.172241E+04 -6.796390E+03 -4.712689E+04  1.246185E+05  2.703566E+04 -1.636446E+04
       252  22  3.746008E+05  1.132304E+05  4.977949E+03  2.205570E+05  8.892106E+03 -1.280845E+04
       252  23  3.803658E+05  1.073193E+05  9.106580E+03  2.130401E+05  1.541336E+04 -1.620163E+04
       252  24  3.750416E+05  1.163999E+05  1.728290E+04  2.193506E+05  2.150294E+04 -1.845782E+04
       252  25  5.636822E+05  1.816505E+05  4.011234E+04  2.731010E+05 -3.303125E+02 -1.630096E+04
       252  26  6.414379E+05  2.029503E+05  5.814651E+04  2.867006E+05  8.033801E+03 -1.899519E+04
       252  27  7.084731E+05  2.396059E+05  8.168710E+04  3.141291E+05  1.596709E+04 -2.055239E+04
       253   1 -8.709534E+03 -2.128539E+04 -5.147750E+04  1.178674E+05 -3.281244E+04  1.750803E+04
       253   2 -6.016351E+04 -6.131570E+04 -5.350523E+04  6.254741E+04 -3.170085E+04  1.526178E+04
       253   3 -1.072727E+05 -4.656697E+04 -4.387183E+04  8.995874E+03 -2.526223E+04 -1.069037E+03
       253   4  3.778690E+05  1.151017E+05  2.285744E+04  2.208818E+05 -2.520457E+04  2.038660E+04
       253   5  3.785945E+05  1.215310E+05  4.325660E+04  2.063403E+05 -4.688999E+04  9.510542E+03
       253   6  3.881649E+05  1.872332E+05  9.338004E+04  1.935682E+05 -6.325165E+04 -1.544518E+04
       253   7  7.646080E+05  2.515018E+05  9.718765E+04  3.239559E+05 -1.759151E+04  2.326698E+04
       253   8  8.175504E+05  3.044092E+05  1.400077E+05  3.502320E+05 -6.209066E+04  3.753657E+03
       253   9  8.838425E+05  4.210902E+05  2.306134E+05  3.782856E+05 -1.012735E+05 -2.984082E+04
       253  10 -8.710773E+03 -2.128600E+04 -5.148010E+04  1.178679E+05 -1.839919E-09  3.862337E-09
       253  11 -6.016465E+04 -6.131622E+04 -5.350755E+04  6.254780E+04  8.075179E-10  1.175205E-09
       253  12 -1.072734E+05 -4.656715E+04 -4.387303E+04  8.995852E+03  3.761824E-09 -8.537810E-10
       253  13  3.778682E+05  1.151011E+05  2.285547E+04  2.208822E+05  5.240050E-10 -7.296481E-09
       253  14  3.785921E+05  1.215303E+05  4.325230E+04  2.063406E+05 -1.864268E-09 -5.424050E-09
       253  15  3.881605E+05  1.872318E+05  9.337208E+04  1.935674E+05 -1.149596E-09  3.544103E-09
       253  16  7.646075E+05  2.515011E+05  9.718605E+04  3.239562E+05  3.151619E-09  5.064571E-09
       253  17  8.175463E+05  3.044081E+05  1.400004E+05  3.502322E+05 -2.995596E-09  4.224242E-09
       253  18  8.838313E+05  4.210865E+05  2.305924E+05  3.782831E+05 -4.329724E-09  4.007883E-09
       253  19 -8.709534E+03 -2.128539E+04 -5.147750E+04  1.178674E+05  3.281244E+04 -1.750803E+04
       253  20 -6.016351E+04 -6.131570E+04 -5.350523E+04  6.254741E+04  3.170085E+04 -1.526178E+04
       253  21 -1.072727E+05 -4.656697E+04 -4.387183E+04  8.995874E+03  2.526223E+04  1.069037E+03
       253  22  3.778690E+05  1.151017E+05  2.285744E+04  2.208818E+05  2.520457E+04 -2.038660E+04
       253  23  3.785945E+05  1.215310E+05  4.325660E+04  2.063403E+05  4.688999E+04 -9.510542E+03
       253  24  3.881649E+05  1.872332E+05  9.338004E+04  1.935682E+05  6.325165E+04  1.544518E+04
       253  25  7.646080E+05  2.515018E+05  9.718765E+04  3.239559E+05  1.759151E+04 -2.326698E+04
       253  26  8.175504E+05  3.044092E+05  1.400077E+05  3.502320E+05  6.209066E+04 -3.753657E+03
       253  27  8.838425E+05  4.210902E+05  2.306134E+05  3.782856E+05  1.012735E+05  2.984082E+04
       254   1  1.375784E+05  1.377752E+04  9.004734E+03  7.513207E+02 -1.215170E+04 -1.503336E+03
       254   2  1.270710E+05  2.967144E+04  1.669443E+04  1.854173E+03 -8.988744E+03 -4.457771E+03
       254   3  1.111954E+05  2.595728E+04  1.741904E+04  1.025906E+04 -5.837128E+03 -4.229125E+03
       254   4  1.014197E+04 -1.789096E+04 -2.220067E+04  7.428680E+03 -1.521241E+04 -1.514287E+03
       254   5  1.301280E+04  1.564770E+03 -9.877995E+03  3.743979E+03 -9.911016E+03 -4.461156E+03
       254   6  1.014284E+04  1.039139E+03 -6.006398E+03  7.361462E+03 -4.620878E+03 -4.224733E+03
       254   7 -1.172796E+05 -4.956047E+04 -5.340720E+04  1.410465E+04 -1.827248E+04 -1.525305E+03
       254   8 -1.010334E+05 -2.654280E+04 -3.645129E+04  5.633425E+03 -1.083312E+04 -4.464547E+03
       254   9 -9.090025E+04 -2.387969E+04 -2.943251E+04  4.464335E+03 -3.404825E+03 -4.220351E+03
       254  10  1.375783E+05  1.377748E+04  9.004453E+03  7.513059E+02 -2.734159E-09  2.333481E-09
       254  11  1.270709E+05  2.967139E+04  1.669424E+04  1.854141E+03  1.851946E-09  1.119412E-08
       254  12  1.111953E+05  2.595725E+04  1.741894E+04  1.025904E+04  2.421096E-09  4.601610E-09
       254  13  1.014172E+04 -1.789103E+04 -2.220111E+04  7.428662E+03 -1.384830E-10 -6.874300E-09
       254  14  1.301269E+04  1.564722E+03 -9.878217E+03  3.743944E+03  3.983059E-10 -1.254988E-08
       254  15  1.014281E+04  1.039114E+03 -6.006472E+03  7.361446E+03 -3.288016E-09  4.814551E-10
       254  16 -1.172799E+05 -4.956056E+04 -5.340783E+04  1.410463E+04  3.956283E-09 -2.412902E-10
       254  17 -1.010336E+05 -2.654285E+04 -3.645155E+04  5.633386E+03 -4.179262E-09  1.034794E-08
       254  18 -9.090027E+04 -2.387971E+04 -2.943257E+04  4.464323E+03 -2.950814E-09 -5.309438E-10
       254  19  1.375784E+05  1.377752E+04  9.004734E+03  7.513207E+02  1.215170E+04  1.503336E+03
       254  20  1.270710E+05  2.967144E+04  1.669443E+04  1.854173E+03  8.988744E+03  4.457771E+03
       254  21  1.111954E+05  2.595728E+04  1.741904E+04  1.025906E+04  5.837128E+03  4.229125E+03
       254  22  1.014197E+04 -1.789096E+04 -2.220067E+04  7.428680E+03  1.521241E+04  1.514287E+03
       254  23  1.301280E+04  1.564770E+03 -9.877995E+03  3.743979E+03  9.911016E+03  4.461156E+03
       254  24  1.014284E+04  1.039139E+03 -6.006398E+03  7.361462E+03  4.620878E+03  4.224733E+03
       254  25 -1.172796E+05 -4.956047E+04 -5.340720E+04  1.410465E+04  1.827248E+04  1.525305E+03
       254  26 -1.010334E+05 -2.654280E+04 -3.645129E+04  5.633425E+03  1.083312E+04  4.464547E+03
       254  27 -9.090025E+04 -2.387969E+04 -2.943251E+04  4.464335E+03  3.404825E+03  4.220351E+03
       255   1  9.901529E+04  2.022697E+04  1.557172E+04  7.157916E+03 -3.960691E+03 -3.467094E+03
       255   2  8.619574E+04  1.855206E+04  1.478918E+04  3.801558E+03 -2.787731E+03 -3.030767E+03
       255   3  7.276495E+04  1.529847E+04  1.283471E+04  7.803978E+03 -1.615500E+03 -2.425743E+03
       255   4  1.127884E+04 -1.400325E+03 -4.849837E+03  7.397397E+03 -3.726670E+03 -3.466275E+03
       255   5  1.159476E+04  1.673458E+02 -2.538515E+03  3.715151E+03 -2.440503E+03 -3.029513E+03
       255   6  1.127935E+04  1.365310E+02 -1.477915E+03  7.391750E+03 -1.155043E+03 -2.424045E+03
       255   7 -7.645052E+04 -2.302816E+04 -2.527191E+04  7.636838E+03 -3.492682E+03 -3.465456E+03
       255   8 -6.300108E+04 -1.821776E+04 -1.986659E+04  3.628750E+03 -2.093316E+03 -3.028259E+03
       255   9 -5.020276E+04 -1.502568E+04 -1.579080E+04  6.979560E+03 -6.946304E+02 -2.422348E+03
       255  10  9.901527E+04  2.022695E+04  1.557167E+04  7.157905E+03 -2.042206E-09 -2.359712E-09
       255  11  8.619573E+04  1.855205E+04  1.478915E+04  3.801551E+03  2.526133E-09  5.202535E-09
       255  12  7.276495E+04  1.529847E+04  1.283470E+04  7.803975E+03 -1.208987E-09  9.226057E-09
       255  13  1.127882E+04 -1.400342E+03 -4.849886E+03  7.397387E+03 -1.191400E-09  9.193089E-09
       255  14  1.159475E+04  1.673343E+02 -2.538544E+03  3.715145E+03 -6.158813E-10 -2.289945E-08
       255  15  1.127935E+04  1.365243E+02 -1.477928E+03  7.391748E+03 -9.827938E-10  1.067515E-08
       255  16 -7.645054E+04 -2.302818E+04 -2.527196E+04  7.636828E+03  1.188056E-09 -1.027658E-08
       255  17 -6.300109E+04 -1.821777E+04 -1.986661E+04  3.628745E+03 -1.705672E-09 -7.113544E-09
       255  18 -5.020277E+04 -1.502568E+04 -1.579081E+04  6.979559E+03 -3.015543E-10  2.916213E-09
       255  19  9.901529E+04  2.022697E+04  1.557172E+04  7.157916E+03  3.960691E+03  3.467094E+03
       255  20  8.619574E+04  1.855206E+04  1.478918E+04  3.801558E+03  2.787731E+03  3.030767E+03
       255  21  7.276495E+04  1.529847E+04  1.283471E+04  7.803978E+03  1.615500E+03  2.425743E+03
       255  22  1.127884E+04 -1.400325E+03 -4.849837E+03  7.397397E+03  3.726670E+03  3.466275E+03
       255  23  1.159476E+04  1.673458E+02 -2.538515E+03  3.715151E+03  2.440503E+03  3.029513E+03
       255  24  1.127935E+04  1.365310E+02 -1.477915E+03  7.391750E+03  1.155043E+03  2.424045E+03
       255  25 -7.645052E+04 -2.302816E+04 -2.527191E+04  7.636838E+03  3.492682E+03  3.465456E+03
       255  26 -6.300108E+04 -1.821776E+04 -1.986659E+04  3.628750E+03  2.093316E+03  3.028259E+03
       255  27 -5.020276E+04 -1.502568E+04 -1.579080E+04  6.979560E+03  6.946304E+02  2.422348E+03
       256   1  5.958428E+04  1.181179E+04  1.001789E+04  7.514727E+03 -1.334621E+03 -2.041791E+03
       256   2  4.652944E+04  8.686606E+03  7.526445E+03  3.818244E+03 -1.034613E+03 -1.428618E+03
       256   3  3.334719E+04  5.481375E+03  4.804543E+03  7.482699E+03 -7.346756E+02 -8.065252E+02
       256   4  1.139147E+04 -5.818313E+01 -1.138816E+03  7.394180E+03 -9.262553E+02 -2.040276E+03
       256   5  1.145581E+04  4.264108E+01 -6.184545E+02  3.713469E+03 -6.202757E+02 -1.427070E+03
       256   6  1.139171E+04  6.243211E+01 -3.326523E+02  7.393721E+03 -3.143610E+02 -8.049433E+02
       256   7 -3.679919E+04 -1.192832E+04 -1.229568E+04  7.273641E+03 -5.179212E+02 -2.038761E+03
       256   8 -2.361669E+04 -8.601410E+03 -8.763436E+03  3.608699E+03 -2.059620E+02 -1.425522E+03
       256   9 -1.056332E+04 -5.356545E+03 -5.469880E+03  7.304747E+03  1.059388E+02 -8.033615E+02
       256  10  5.958428E+04  1.181178E+04  1.001788E+04  7.514725E+03 -1.701499E-11 -4.260101E-09
       256  11  4.652944E+04  8.686603E+03  7.526439E+03  3.818242E+03  5.428163E-09 -4.534349E-09
       256  12  3.334719E+04  5.481374E+03  4.804541E+03  7.482698E+03  8.878499E-09 -3.516330E-09
       256  13  1.139147E+04 -5.818783E+01 -1.138826E+03  7.394179E+03  2.069802E-09  2.474918E-09
       256  14  1.145581E+04  4.263879E+01 -6.184591E+02  3.713468E+03 -6.183318E-10 -7.087449E-09
       256  15  1.139171E+04  6.243138E+01 -3.326537E+02  7.393721E+03 -2.920505E-10 -5.942333E-09
       256  16 -3.679919E+04 -1.192832E+04 -1.229569E+04  7.273641E+03  1.044079E-09 -6.938687E-09
       256  17 -2.361669E+04 -8.601412E+03 -8.763440E+03  3.608699E+03 -4.379882E-09  3.537358E-09
       256  18 -1.056332E+04 -5.356545E+03 -5.469881E+03  7.304747E+03 -7.941412E-09  5.547947E-09
       256  19  5.958428E+04  1.181179E+04  1.001789E+04  7.514727E+03  1.334621E+03  2.041791E+03
       256  20  4.652944E+04  8.686606E+03  7.526445E+03  3.818244E+03  1.034613E+03  1.428618E+03
       256  21  3.334719E+04  5.481375E+03  4.804543E+03  7.482699E+03  7.346756E+02  8.065252E+02
       256  22  1.139147E+04 -5.818313E+01 -1.138816E+03  7.394180E+03  9.262553E+02  2.040276E+03
       256  23  1.145581E+04  4.264108E+01 -6.184545E+02  3.713469E+03  6.202757E+02  1.427070E+03
       256  24  1.139171E+04  6.243211E+01 -3.326523E+02  7.393721E+03  3.143610E+02  8.049433E+02
       256  25 -3.679919E+04 -1.192832E+04 -1.229568E+04  7.273641E+03  5.179212E+02  2.038761E+03
       256  26 -2.361669E+04 -8.601410E+03 -8.763436E+03  3.608699E+03  2.059620E+02  1.425522E+03
       256  27 -1.056332E+04 -5.356545E+03 -5.469880E+03  7.304747E+03 -1.059388E+02  8.033615E+02
       257   1  2.007130E+04  2.175889E+03  1.739931E+03  7.424482E+03 -6.824956E+02 -4.431629E+02
       257   2  6.984898E+03 -1.067934E+03 -1.110204E+03  3.707755E+03 -6.472804E+02  1.785468E+02
       257   3 -6.163888E+03 -4.265914E+03 -3.987177E+03  7.351460E+03 -6.120629E+02  8.006945E+02
       257   4  1.140644E+04  4.809292E+01 -2.335229E+02  7.393760E+03 -2.649425E+02 -4.415883E+02
       257   5  1.143773E+04  2.942120E+01 -7.618985E+01  3.713526E+03 -2.294385E+02  1.801208E+02
       257   6  1.140641E+04  5.655250E+01  5.411035E+01  7.393719E+03 -1.939315E+02  8.022685E+02
       257   7  2.741662E+03 -2.079709E+03 -2.206981E+03  7.363038E+03  1.526048E+02 -4.400137E+02
       257   8  1.589058E+04  1.126775E+03  9.578238E+02  3.719296E+03  1.884063E+02  1.816948E+02
       257   9  2.897700E+04  4.378998E+03  4.095378E+03  7.435979E+03  2.242116E+02  8.038425E+02
       257  10  2.007130E+04  2.175889E+03  1.739929E+03  7.424482E+03  7.802258E-09 -4.533930E-09
       257  11  6.984898E+03 -1.067934E+03 -1.110205E+03  3.707755E+03  3.688713E-09  4.565441E-09
       257  12 -6.163889E+03 -4.265915E+03 -3.987179E+03  7.351460E+03 -4.142716E-09  4.469386E-09
       257  13  1.140644E+04  4.809269E+01 -2.335234E+02  7.393759E+03 -5.792768E-11  2.200512E-09
       257  14  1.143773E+04  2.942115E+01 -7.619001E+01  3.713526E+03 -2.723083E-09 -2.636014E-09
       257  15  1.140641E+04  5.655180E+01  5.410907E+01  7.393719E+03  1.646812E-09 -8.550884E-10
       257  16  2.741662E+03 -2.079709E+03 -2.206981E+03  7.363038E+03 -7.543474E-09 -1.329141E-09
       257  17  1.589058E+04  1.126775E+03  9.578236E+02  3.719296E+03 -3.373830E-09  7.227668E-09
       257  18  2.897700E+04  4.378997E+03  4.095377E+03  7.435979E+03  4.246096E-09  1.405999E-09
       257  19  2.007130E+04  2.175889E+03  1.739931E+03  7.424482E+03  6.824956E+02  4.431629E+02
       257  20  6.984898E+03 -1.067934E+03 -1.110204E+03  3.707755E+03  6.472804E+02 -1.785468E+02
       257  21 -6.163888E+03 -4.265914E+03 -3.987177E+03  7.351460E+03  6.120629E+02 -8.006945E+02
       257  22  1.140644E+04  4.809292E+01 -2.335229E+02  7.393760E+03  2.649425E+02  4.415883E+02
       257  23  1.143773E+04  2.942120E+01 -7.618985E+01  3.713526E+03  2.294385E+02 -1.801208E+02
       257  24  1.140641E+04  5.655250E+01  5.411035E+01  7.393719E+03  1.939315E+02 -8.022685E+02
       257  25  2.741662E+03 -2.079709E+03 -2.206981E+03  7.363038E+03 -1.526048E+02  4.400137E+02
       257  26  1.589058E+04  1.126775E+03  9.578237E+02  3.719296E+03 -1.884063E+02 -1.816948E+02
       257  27  2.897700E+04  4.378998E+03  4.095378E+03  7.435979E+03 -2.242116E+02 -8.038425E+02
       258   1 -1.944693E+04 -7.559341E+03 -7.082891E+03  7.315738E+03 -6.294724E+02  1.162837E+03
       258   2 -3.255028E+04 -1.081535E+04 -9.918697E+03  3.599603E+03 -7.771557E+02  1.784321E+03
       258   3 -4.568246E+04 -1.399415E+04 -1.265402E+04  7.244732E+03 -9.247857E+02  2.405207E+03
       258   4  1.141369E+04  5.422867E+01  1.225990E+02  7.393930E+03 -2.112866E+02  1.164406E+03
       258   5  1.142809E+04  2.349956E+01  2.942370E+02  3.713280E+03 -3.593887E+02  1.785874E+03
       258   6  1.141339E+04  7.000670E+01  5.666007E+02  7.393861E+03 -5.074405E+02  2.406745E+03
       258   7  4.227519E+04  7.667731E+03  7.328025E+03  7.472124E+03  2.069199E+02  1.165975E+03
       258   8  5.540825E+04  1.086221E+04  1.050704E+04  3.826963E+03  5.840769E+01  1.787428E+03
       258   9  6.851224E+04  1.413394E+04  1.378700E+04  7.543001E+03 -9.005729E+01  2.408284E+03
       258  10 -1.944693E+04 -7.559342E+03 -7.082894E+03  7.315738E+03 -1.509330E-08  1.101974E-09
       258  11 -3.255029E+04 -1.081535E+04 -9.918704E+03  3.599604E+03 -5.838269E-09 -5.593531E-09
       258  12 -4.568246E+04 -1.399416E+04 -1.265403E+04  7.244734E+03 -4.012240E-09 -4.683879E-09
       258  13  1.141369E+04  5.422720E+01  1.225963E+02  7.393930E+03  1.050893E-09  8.098758E-09
       258  14  1.142809E+04  2.349610E+01  2.942308E+02  3.713281E+03  4.856440E-10 -9.773451E-09
       258  15  1.141338E+04  7.000041E+01  5.665893E+02  7.393862E+03  6.545674E-10 -8.350230E-09
       258  16  4.227519E+04  7.667729E+03  7.328022E+03  7.472124E+03  1.624500E-08 -2.108817E-10
       258  17  5.540825E+04  1.086221E+04  1.050704E+04  3.826963E+03  6.966551E-09 -2.172085E-08
       258  18  6.851224E+04  1.413393E+04  1.378699E+04  7.543001E+03  3.374965E-09 -8.349802E-09
       258  19 -1.944693E+04 -7.559341E+03 -7.082891E+03  7.315738E+03  6.294724E+02 -1.162837E+03
       258  20 -3.255028E+04 -1.081535E+04 -9.918697E+03  3.599603E+03  7.771557E+02 -1.784321E+03
       258  21 -4.568246E+04 -1.399415E+04 -1.265402E+04  7.244732E+03  9.247857E+02 -2.405207E+03
       258  22  1.141369E+04  5.422867E+01  1.225990E+02  7.393930E+03  2.112866E+02 -1.164406E+03
       258  23  1.142809E+04  2.349956E+01  2.942370E+02  3.713280E+03  3.593887E+02 -1.785874E+03
       258  24  1.141339E+04  7.000670E+01  5.666007E+02  7.393861E+03  5.074405E+02 -2.406745E+03
       258  25  4.227519E+04  7.667731E+03  7.328025E+03  7.472124E+03 -2.069199E+02 -1.165975E+03
       258  26  5.540825E+04  1.086221E+04  1.050704E+04  3.826963E+03 -5.840769E+01 -1.787428E+03
       258  27  6.851224E+04  1.413394E+04  1.378700E+04  7.543001E+03  9.005729E+01 -2.408284E+03
       259   1 -5.894406E+04 -1.731520E+04 -1.562871E+04  7.251338E+03 -1.048697E+03  2.768376E+03
       259   2 -7.211696E+04 -2.058700E+04 -1.806437E+04  3.494321E+03 -1.704855E+03  3.386687E+03
       259   3 -8.518313E+04 -2.352112E+04 -2.000243E+04  7.097450E+03 -2.360879E+03  3.992892E+03
       259   4  1.144346E+04  4.004474E+01  7.559095E+02  7.393926E+03 -6.275912E+02  2.769915E+03
       259   5  1.138909E+04 -5.623739E+00  1.328711E+03  3.713425E+03 -1.291964E+03  3.388169E+03
       259   6  1.144288E+04  2.878354E+02  2.404812E+03  7.393010E+03 -1.956217E+03  3.994318E+03
       259   7  8.183554E+04  1.739494E+04  1.714020E+04  7.536526E+03 -2.064379E+02  2.771454E+03
       259   8  9.490157E+04  2.057526E+04  2.072132E+04  3.932554E+03 -8.790182E+02  3.389650E+03
       259   9  1.080775E+05  2.409614E+04  2.481143E+04  7.688608E+03 -1.551492E+03  3.995744E+03
       259  10 -5.894406E+04 -1.731520E+04 -1.562873E+04  7.251340E+03 -1.915140E-09 -6.151547E-09
       259  11 -7.211697E+04 -2.058701E+04 -1.806439E+04  3.494325E+03 -1.549823E-10 -1.220810E-08
       259  12 -8.518314E+04 -2.352114E+04 -2.000247E+04  7.097458E+03 -1.765250E-09 -3.904549E-09
       259  13  1.144346E+04  4.003639E+01  7.558943E+02  7.393927E+03  1.004663E-09 -5.075478E-09
       259  14  1.138908E+04 -5.636515E+00  1.328686E+03  3.713429E+03  2.069437E-09  1.965696E-09
       259  15  1.144287E+04  2.878172E+02  2.404775E+03  7.393016E+03  6.304812E-10  4.573734E-10
       259  16  8.183554E+04  1.739493E+04  1.714018E+04  7.536526E+03  2.482045E-09  4.961417E-09
       259  17  9.490157E+04  2.057524E+04  2.072130E+04  3.932556E+03  2.002501E-10 -8.072730E-09
       259  18  1.080775E+05  2.409612E+04  2.481140E+04  7.688613E+03  1.608817E-09  3.024168E-09
       259  19 -5.894406E+04 -1.731520E+04 -1.562871E+04  7.251338E+03  1.048697E+03 -2.768376E+03
       259  20 -7.211696E+04 -2.058700E+04 -1.806437E+04  3.494321E+03  1.704855E+03 -3.386687E+03
       259  21 -8.518313E+04 -2.352112E+04 -2.000243E+04  7.097450E+03  2.360879E+03 -3.992892E+03
       259  22  1.144346E+04  4.004474E+01  7.559095E+02  7.393926E+03  6.275912E+02 -2.769915E+03
       259  23  1.138909E+04 -5.623739E+00  1.328711E+03  3.713425E+03  1.291964E+03 -3.388169E+03
       259  24  1.144288E+04  2.878354E+02  2.404812E+03  7.393010E+03  1.956217E+03 -3.994318E+03
       259  25  8.183554E+04  1.739494E+04  1.714020E+04  7.536526E+03  2.064379E+02 -2.771454E+03
       259  26  9.490157E+04  2.057526E+04  2.072132E+04  3.932554E+03  8.790182E+02 -3.389650E+03
       259  27  1.080775E+05  2.409614E+04  2.481143E+04  7.688608E+03  1.551492E+03 -3.995744E+03
       260   1 -9.824636E+04 -2.721519E+04 -2.244949E+04  7.597554E+03 -2.918522E+03  4.381480E+03
       260   2 -1.119401E+05 -3.059946E+04 -2.325509E+04  3.134047E+03 -5.466812E+03  4.965740E+03
       260   3 -1.244849E+05 -3.049434E+04 -2.154133E+04  6.018540E+03 -8.014133E+03  5.320579E+03
       260   4  1.167931E+04 -1.197705E+02  3.111235E+03  7.394247E+03 -2.443040E+03  4.383142E+03
       260   5  1.109126E+04 -2.722253E+02  5.324326E+03  3.714642E+03 -5.145964E+03  4.966807E+03
       260   6  1.167850E+04  3.091168E+03  1.016380E+04  7.382929E+03 -7.847974E+03  5.321066E+03
       260   7  1.216161E+05  2.697479E+04  2.867114E+04  7.190894E+03 -1.967473E+03  4.384803E+03
       260   8  1.341365E+05  3.005394E+04  3.390272E+04  4.295341E+03 -4.825053E+03  4.967875E+03
       260   9  1.478590E+05  3.667537E+04  4.186768E+04  8.747605E+03 -7.681778E+03  5.321553E+03
       260  10 -9.824638E+04 -2.721521E+04 -2.244954E+04  7.597564E+03  4.930190E-09 -3.079533E-09
       260  11 -1.119401E+05 -3.059949E+04 -2.325519E+04  3.134069E+03 -5.442455E-10  1.005677E-08
       260  12 -1.244849E+05 -3.049438E+04 -2.154150E+04  6.018574E+03 -4.622977E-09 -2.713773E-09
       260  13  1.167930E+04 -1.197927E+02  3.111187E+03  7.394256E+03 -1.181671E-09 -5.336810E-09
       260  14  1.109122E+04 -2.722589E+02  5.324230E+03  3.714663E+03  1.491798E-09  9.276831E-09
       260  15  1.167842E+04  3.091121E+03  1.016364E+04  7.382963E+03 -8.625029E-10  3.088627E-09
       260  16  1.216161E+05  2.697477E+04  2.867110E+04  7.190901E+03 -5.564445E-09 -3.698172E-09
       260  17  1.341365E+05  3.005391E+04  3.390263E+04  4.295360E+03 -1.519022E-09 -1.385444E-08
       260  18  1.478589E+05  3.667532E+04  4.186752E+04  8.747638E+03  2.644007E-09  2.604895E-09
       260  19 -9.824636E+04 -2.721519E+04 -2.244949E+04  7.597554E+03  2.918522E+03 -4.381480E+03
       260  20 -1.119401E+05 -3.059946E+04 -2.325509E+04  3.134047E+03  5.466812E+03 -4.965740E+03
       260  21 -1.244849E+05 -3.049434E+04 -2.154133E+04  6.018540E+03  8.014133E+03 -5.320579E+03
       260  22  1.167931E+04 -1.197705E+02  3.111235E+03  7.394247E+03  2.443040E+03 -4.383142E+03
       260  23  1.109126E+04 -2.722253E+02  5.324326E+03  3.714642E+03  5.145964E+03 -4.966807E+03
       260  24  1.167850E+04  3.091168E+03  1.016380E+04  7.382929E+03  7.847974E+03 -5.321066E+03
       260  25  1.216161E+05  2.697479E+04  2.867114E+04  7.190894E+03  1.967473E+03 -4.384803E+03
       260  26  1.341365E+05  3.005394E+04  3.390272E+04  4.295341E+03  4.825053E+03 -4.967875E+03
       260  27  1.478590E+05  3.667537E+04  4.186768E+04  8.747605E+03  7.681778E+03 -5.321553E+03
       261   1 -1.355003E+05 -3.882105E+04 -2.206494E+04  1.247895E+04 -1.123401E+04  6.207117E+03
       261   2 -1.543043E+05 -4.330277E+04 -1.716043E+04 -1.261054E+03 -1.940204E+04  6.252029E+03
       261   3 -1.617045E+05 -6.257596E+03  3.436695E+03 -7.883139E+03 -2.755535E+04  1.964184E+03
       261   4  1.406207E+04 -2.019906E+03  1.258644E+04  7.378020E+03 -9.731135E+03  6.212303E+03
       261   5  8.108695E+03 -3.208057E+03  2.069039E+04  3.752909E+03 -2.081285E+04  6.247006E+03
       261   6  1.406145E+04  3.763028E+04  4.650741E+04  7.245382E+03 -3.188004E+04  1.949192E+03
       261   7  1.636452E+05  3.477977E+04  4.723634E+04  2.275831E+03 -8.227903E+03  6.217464E+03
       261   8  1.705461E+05  3.688488E+04  5.853945E+04  8.768173E+03 -2.222403E+04  6.241962E+03
       261   9  1.898560E+05  8.151672E+04  8.957606E+04  2.237818E+04 -3.620595E+04  1.933991E+03
       261  10 -1.355004E+05 -3.882113E+04 -2.206525E+04  1.247901E+04  5.791280E-09 -3.196792E-09
       261  11 -1.543048E+05 -4.330291E+04 -1.716121E+04 -1.260957E+03  6.478927E-09  2.154049E-09
       261  12 -1.617053E+05 -6.257804E+03  3.435260E+03 -7.883096E+03  2.867241E-10  7.840763E-09
       261  13  1.406196E+04 -2.019973E+03  1.258619E+04  7.378069E+03 -1.225716E-09  4.334349E-09
       261  14  8.108220E+03 -3.208215E+03  2.068951E+04  3.753014E+03  2.523623E-09  5.386472E-09
       261  15  1.406036E+04  3.763001E+04  4.650550E+04  7.245433E+03 -1.288622E-09  7.227640E-09
       261  16  1.636451E+05  3.477971E+04  4.723614E+04  2.275872E+03 -6.738356E-09  6.075117E-09
       261  17  1.705456E+05  3.688470E+04  5.853845E+04  8.768285E+03 -7.801972E-09  1.473839E-08
       261  18  1.898546E+05  8.151636E+04  8.957359E+04  2.237823E+04 -1.878662E-09  1.636117E-09
       261  19 -1.355003E+05 -3.882105E+04 -2.206494E+04  1.247895E+04  1.123401E+04 -6.207117E+03
       261  20 -1.543043E+05 -4.330277E+04 -1.716043E+04 -1.261054E+03  1.940204E+04 -6.252029E+03
       261  21 -1.617045E+05 -6.257596E+03  3.436695E+03 -7.883139E+03  2.755535E+04 -1.964184E+03
       261  22  1.406207E+04 -2.019906E+03  1.258644E+04  7.378020E+03  9.731135E+03 -6.212303E+03
       261  23  8.108695E+03 -3.208057E+03  2.069039E+04  3.752909E+03  2.081285E+04 -6.247006E+03
       261  24  1.406145E+04  3.763028E+04  4.650741E+04  7.245382E+03  3.188004E+04 -1.949192E+03
       261  25  1.636452E+05  3.477977E+04  4.723634E+04  2.275831E+03  8.227903E+03 -6.217464E+03
       261  26  1.705461E+05  3.688488E+04  5.853945E+04  8.768173E+03  2.222403E+04 -6.241962E+03
       261  27  1.898560E+05  8.151672E+04  8.957606E+04  2.237818E+04  3.620595E+04 -1.933991E+03
       262   1 -3.137617E+05 -1.345173E+06 -3.351648E+05  1.317769E+05 -8.695460E+03 -1.052096E+05
       262   2 -1.581857E+05 -1.171357E+06 -2.180494E+05  5.985974E+04 -2.590414E+04 -5.852489E+04
       262   3 -1.236760E+05 -1.032946E+06 -1.614915E+05  7.452293E+04 -2.142152E+04 -1.175867E+04
       262   4 -1.057064E+05 -5.120918E+05 -1.305448E+05  8.854067E+04 -8.748218E+03 -8.655664E+04
       262   5  8.730202E+03 -4.956215E+05 -6.033687E+04  4.542228E+04 -2.591329E+04 -5.438531E+04
       262   6  4.696087E+03 -5.120124E+05 -4.054568E+04  8.888719E+04 -2.139321E+04 -2.214530E+04
       262   7  1.023042E+05  3.216271E+05  7.402634E+04  4.524663E+04 -8.803548E+03 -6.787856E+04
       262   8  1.756145E+05  1.805360E+05  9.734483E+04  3.096926E+04 -2.592263E+04 -5.024123E+04
       262   9  1.330499E+05  9.173236E+03  8.038239E+04  1.032638E+05 -2.136539E+04 -3.254059E+04
       262  10 -3.137648E+05 -1.345185E+06 -3.351857E+05  1.317762E+05  4.026490E-11  2.745798E-09
       262  11 -1.581874E+05 -1.171361E+06 -2.180571E+05  5.985852E+04 -6.292364E-10  8.377092E-09
       262  12 -1.236766E+05 -1.032947E+06 -1.614926E+05  7.452273E+04 -5.814018E-10 -2.709540E-09
       262  13 -1.057085E+05 -5.120999E+05 -1.305590E+05  8.854006E+04  1.375161E-09  7.386893E-09
       262  14  8.728686E+03 -4.956248E+05 -6.034369E+04  4.542114E+04 -1.241923E-09 -2.257612E-11
       262  15  4.695464E+03 -5.120131E+05 -4.054746E+04  8.888681E+04 -5.588787E-11  5.457116E-09
       262  16  1.023029E+05  3.216221E+05  7.401754E+04  4.524615E+04 -1.050137E-09  3.292678E-09
       262  17  1.756131E+05  1.805331E+05  9.733882E+04  3.096822E+04 -5.507359E-10 -3.906052E-09
       262  18  1.330492E+05  9.171976E+03  8.037954E+04  1.032632E+05 -2.368832E-09  6.280927E-09
       262  19 -3.137617E+05 -1.345173E+06 -3.351648E+05  1.317769E+05  8.695460E+03  1.052096E+05
       262  20 -1.581857E+05 -1.171357E+06 -2.180494E+05  5.985974E+04  2.590414E+04  5.852489E+04
       262  21 -1.236760E+05 -1.032946E+06 -1.614915E+05  7.452293E+04  2.142152E+04  1.175867E+04
       262  22 -1.057064E+05 -5.120918E+05 -1.305448E+05  8.854067E+04  8.748218E+03  8.655664E+04
       262  23  8.730202E+03 -4.956215E+05 -6.033687E+04  4.542228E+04  2.591329E+04  5.438531E+04
       262  24  4.696087E+03 -5.120124E+05 -4.054568E+04  8.888719E+04  2.139321E+04  2.214530E+04
       262  25  1.023042E+05  3.216271E+05  7.402634E+04  4.524663E+04  8.803548E+03  6.787856E+04
       262  26  1.756145E+05  1.805360E+05  9.734483E+04  3.096926E+04  2.592263E+04  5.024123E+04
       262  27  1.330499E+05  9.173236E+03  8.038239E+04  1.032638E+05  2.136539E+04  3.254059E+04
       263   1 -9.791807E+04 -8.679226E+05 -1.198732E+05  9.382552E+04 -1.434121E+04 -1.188028E+04
       263   2 -4.929740E+04 -7.082718E+05 -7.526099E+04  4.560783E+04 -8.319065E+03  2.461053E+03
       263   3 -1.940417E+04 -5.545547E+05 -4.455006E+04  8.526076E+04 -1.774825E+03  1.680497E+04
       263   4 -8.593144E+03 -5.059901E+05 -3.559899E+04  8.906518E+04 -1.433074E+04 -1.577752E+04
       263   5  1.321365E+03 -5.030347E+05 -2.755249E+04  4.513195E+04 -8.308439E+03 -1.781293E+03
       263   6 -7.426214E+03 -5.059734E+05 -3.316162E+04  8.906862E+04 -1.764004E+03  1.221397E+04
       263   7  8.072260E+04 -1.439365E+05  4.866640E+04  8.430211E+04 -1.432022E+04 -1.967701E+04
       263   8  5.193717E+04 -2.977587E+05  2.015325E+04  4.465594E+04 -8.297808E+03 -6.025033E+03
       263   9  4.551645E+03 -4.573898E+05 -2.177325E+04  9.287678E+04 -1.753240E+03  7.622625E+03
       263  10 -9.791832E+04 -8.679228E+05 -1.198738E+05  9.382538E+04  1.663640E-09 -7.707372E-09
       263  11 -4.929748E+04 -7.082718E+05 -7.526113E+04  4.560785E+04  6.427507E-09  4.425786E-09
       263  12 -1.940425E+04 -5.545550E+05 -4.455060E+04  8.526078E+04  4.312069E-10  3.651994E-10
       263  13 -8.593431E+03 -5.059904E+05 -3.559985E+04  8.906500E+04  1.796014E-09  6.861266E-09
       263  14  1.321290E+03 -5.030347E+05 -2.755262E+04  4.513194E+04  8.281713E-10  9.052842E-10
       263  15 -7.426257E+03 -5.059735E+05 -3.316191E+04  8.906864E+04 -3.652603E-10  1.860095E-09
       263  16  8.072227E+04 -1.439370E+05  4.866529E+04  8.430189E+04  8.882405E-10  1.092358E-08
       263  17  5.193708E+04 -2.977588E+05  2.015305E+04  4.465590E+04  2.182313E-09 -1.679902E-09
       263  18  4.551626E+03 -4.573899E+05 -2.177337E+04  9.287679E+04  7.114280E-10  3.606777E-10
       263  19 -9.791807E+04 -8.679226E+05 -1.198732E+05  9.382552E+04  1.434121E+04  1.188028E+04
       263  20 -4.929740E+04 -7.082718E+05 -7.526099E+04  4.560783E+04  8.319065E+03 -2.461053E+03
       263  21 -1.940417E+04 -5.545547E+05 -4.455006E+04  8.526076E+04  1.774825E+03 -1.680497E+04
       263  22 -8.593144E+03 -5.059901E+05 -3.559899E+04  8.906518E+04  1.433074E+04  1.577752E+04
       263  23  1.321365E+03 -5.030347E+05 -2.755249E+04  4.513195E+04  8.308439E+03  1.781293E+03
       263  24 -7.426214E+03 -5.059734E+05 -3.316162E+04  8.906862E+04  1.764004E+03 -1.221397E+04
       263  25  8.072260E+04 -1.439365E+05  4.866640E+04  8.430211E+04  1.432022E+04  1.967701E+04
       263  26  5.193717E+04 -2.977587E+05  2.015325E+04  4.465594E+04  8.297808E+03  6.025033E+03
       263  27  4.551645E+03 -4.573898E+05 -2.177325E+04  9.287678E+04  1.753240E+03 -7.622625E+03
       264   1  3.120579E+04 -4.005357E+05 -1.123457E+04  1.023939E+05  4.154793E+03  2.602749E+04
       264   2  7.364240E+04 -2.299670E+05  8.670368E+03  3.337302E+04  9.946001E+03  4.666871E+04
       264   3  1.315981E+04 -8.716816E+04 -1.046104E+04  5.166219E+04  3.823170E+03  6.728479E+04
       264   4  3.986571E+03 -5.111502E+05 -3.704233E+04  8.902426E+04  4.172834E+03  1.809777E+04
       264   5  7.772651E+03 -4.965719E+05 -5.362091E+04  4.524016E+04  9.946996E+03  4.673064E+04
       264   6 -9.277502E+04 -5.111941E+05 -1.148032E+05  8.877375E+04  3.806504E+03  7.533284E+04
       264   7 -2.323280E+04 -6.217529E+05 -6.285057E+04  7.565698E+04  4.191218E+03  1.016947E+04
       264   8 -5.810163E+04 -7.631110E+05 -1.159169E+05  5.710221E+04  9.947994E+03  4.679254E+04
       264   9 -1.987181E+05 -9.350533E+05 -2.191576E+05  1.258600E+05  3.790797E+03  8.337539E+04
       264  10  3.120559E+04 -4.005364E+05 -1.123588E+04  1.023939E+05 -5.781989E-10  2.524087E-09
       264  11  7.364171E+04 -2.299693E+05  8.666088E+03  3.337265E+04  3.882785E-09  7.078811E-09
       264  12  1.315858E+04 -8.717303E+04 -1.046958E+04  5.166198E+04  6.792457E-10 -9.761685E-10
       264  13  3.986465E+03 -5.111506E+05 -3.704297E+04  8.902420E+04  2.178439E-10  8.677314E-09
       264  14  7.771958E+03 -4.965743E+05 -5.362520E+04  4.523979E+04 -1.329837E-09 -2.328899E-09
       264  15 -9.277656E+04 -5.112002E+05 -1.148139E+05  8.877352E+04 -4.600860E-10  1.088754E-09
       264  16 -2.323284E+04 -6.217530E+05 -6.285080E+04  7.565695E+04 -1.300633E-10  3.883796E-10
       264  17 -5.810232E+04 -7.631134E+05 -1.159212E+05  5.710183E+04  2.215491E-09 -5.760556E-09
       264  18 -1.987200E+05 -9.350608E+05 -2.191707E+05  1.258598E+05  1.884620E-09  2.581944E-09
       264  19  3.120579E+04 -4.005357E+05 -1.123457E+04  1.023939E+05 -4.154793E+03 -2.602749E+04
       264  20  7.364240E+04 -2.299670E+05  8.670368E+03  3.337302E+04 -9.946001E+03 -4.666871E+04
       264  21  1.315981E+04 -8.716816E+04 -1.046104E+04  5.166219E+04 -3.823170E+03 -6.728479E+04
       264  22  3.986571E+03 -5.111502E+05 -3.704233E+04  8.902426E+04 -4.172834E+03 -1.809777E+04
       264  23  7.772651E+03 -4.965719E+05 -5.362091E+04  4.524016E+04 -9.946996E+03 -4.673064E+04
       264  24 -9.277502E+04 -5.111941E+05 -1.148032E+05  8.877375E+04 -3.806504E+03 -7.533284E+04
       264  25 -2.323280E+04 -6.217529E+05 -6.285057E+04  7.565698E+04 -4.191218E+03 -1.016947E+04
       264  26 -5.810163E+04 -7.631110E+05 -1.159169E+05  5.710221E+04 -9.947994E+03 -4.679254E+04
       264  27 -1.987181E+05 -9.350533E+05 -2.191576E+05  1.258600E+05 -3.790797E+03 -8.337539E+04
       265   1  5.348079E+05  1.798716E+05  1.073728E+05  1.997569E+05  5.505575E+04  1.961572E+04
       265   2  5.180095E+05  9.549823E+04  5.548066E+04  2.015556E+05  3.534141E+04  9.670526E+03
       265   3  5.253201E+05  8.634658E+04  3.810383E+04  1.909473E+05  1.468357E+04  2.216033E+03
       265   4  4.594966E+05  1.286214E+05  8.256678E+04  1.559220E+05  5.290675E+04  1.879868E+04
       265   5  4.431766E+05  6.035036E+04  3.495943E+04  1.738094E+05  3.476220E+04  9.450449E+03
       265   6  4.506578E+05  6.699400E+04  2.062640E+04  1.792889E+05  1.567386E+04  2.591685E+03
       265   7  3.841929E+05  7.737719E+04  5.776061E+04  1.120936E+05  5.075807E+04  1.798195E+04
       265   8  3.683495E+05  2.520394E+04  1.443777E+04  1.460667E+05  3.418306E+04  9.230418E+03
       265   9  3.760007E+05  4.764118E+04  3.148541E+03  1.676314E+05  1.666402E+04  2.967325E+03
       265  10  5.348045E+05  1.798704E+05  1.073664E+05  1.997560E+05 -1.101417E-08 -5.941127E-09
       265  11  5.180081E+05  9.549779E+04  5.547814E+04  2.015553E+05 -2.808492E-09 -3.530085E-09
       265  12  5.253198E+05  8.634652E+04  3.810342E+04  1.909472E+05  4.614720E-09  1.001025E-08
       265  13  4.594935E+05  1.286203E+05  8.256086E+04  1.559212E+05 -2.080629E-09  2.971945E-09
       265  14  4.431753E+05  6.034994E+04  3.495699E+04  1.738092E+05 -5.875063E-09  1.387825E-08
       265  15  4.506576E+05  6.699393E+04  2.062593E+04  1.792889E+05 -2.398581E-09  5.054056E-09
       265  16  3.841901E+05  7.737616E+04  5.775516E+04  1.120929E+05  7.444598E-09  9.202014E-09
       265  17  3.683482E+05  2.520354E+04  1.443542E+04  1.460664E+05 -5.631835E-09  2.670173E-09
       265  18  3.760004E+05  4.764110E+04  3.148003E+03  1.676314E+05 -1.306023E-08 -4.598472E-09
       265  19  5.348079E+05  1.798716E+05  1.073728E+05  1.997569E+05 -5.505575E+04 -1.961572E+04
       265  20  5.180095E+05  9.549823E+04  5.548066E+04  2.015556E+05 -3.534141E+04 -9.670526E+03
       265  21  5.253201E+05  8.634658E+04  3.810383E+04  1.909473E+05 -1.468357E+04 -2.216033E+03
       265  22  4.594966E+05  1.286214E+05  8.256678E+04  1.559220E+05 -5.290675E+04 -1.879868E+04
       265  23  4.431766E+05  6.035036E+04  3.495943E+04  1.738094E+05 -3.476220E+04 -9.450449E+03
       265  24  4.506578E+05  6.699400E+04  2.062640E+04  1.792889E+05 -1.567386E+04 -2.591685E+03
       265  25  3.841929E+05  7.737719E+04  5.776061E+04  1.120936E+05 -5.075807E+04 -1.798195E+04
       265  26  3.683495E+05  2.520394E+04  1.443777E+04  1.460667E+05 -3.418306E+04 -9.230418E+03
       265  27  3.760007E+05  4.764118E+04  3.148541E+03  1.676314E+05 -1.666402E+04 -2.967325E+03
       266   1  5.025381E+05  9.696887E+04  3.095226E+04  1.915114E+05  1.239442E+04  2.103346E+03
       266   2  4.925759E+05  8.335523E+04  1.955033E+04  1.861415E+05  7.916273E+03  8.887432E+02
       266   3  4.804177E+05  8.103614E+04  1.304848E+04  1.850454E+05  3.384489E+03 -1.841128E+02
       266   4  4.480139E+05  7.470483E+04  1.662179E+04  1.747109E+05  1.261517E+04  2.186983E+03
       266   5  4.487379E+05  6.639463E+04  8.226308E+03  1.735875E+05  8.226596E+03  1.006390E+03
       266   6  4.472481E+05  6.936151E+04  4.660259E+03  1.767379E+05  3.784315E+03 -3.250121E+01
       266   7  3.934926E+05  5.244113E+04  2.291063E+03  1.579118E+05  1.283589E+04  2.270610E+03
       266   8  4.049018E+05  4.943423E+04 -3.097852E+03  1.610344E+05  8.536894E+03  1.124027E+03
       266   9  4.140797E+05  5.768695E+04 -3.728019E+03  1.684308E+05  4.184117E+03  1.191023E+02
       266  10  5.025379E+05  9.696883E+04  3.095196E+04  1.915114E+05  2.271804E-09  6.042452E-09
       266  11  4.925758E+05  8.335521E+04  1.955021E+04  1.861415E+05  4.143926E-09  1.979119E-08
       266  12  4.804177E+05  8.103614E+04  1.304846E+04  1.850454E+05  1.357517E-09  7.006942E-09
       266  13  4.480137E+05  7.470478E+04  1.662148E+04  1.747109E+05 -5.879665E-10  5.859425E-09
       266  14  4.487378E+05  6.639462E+04  8.226179E+03  1.735875E+05  1.410242E-11  2.314132E-08
       266  15  4.472481E+05  6.936150E+04  4.660232E+03  1.767379E+05 -1.599468E-09  8.936166E-09
       266  16  3.934925E+05  5.244108E+04  2.290743E+03  1.579118E+05 -6.783436E-09 -6.353040E-09
       266  17  4.049017E+05  4.943421E+04 -3.097991E+03  1.610344E+05 -6.242756E-09  1.479429E-08
       266  18  4.140797E+05  5.768695E+04 -3.728052E+03  1.684308E+05 -1.565166E-09  1.430251E-11
       266  19  5.025381E+05  9.696887E+04  3.095226E+04  1.915114E+05 -1.239442E+04 -2.103346E+03
       266  20  4.925759E+05  8.335523E+04  1.955033E+04  1.861415E+05 -7.916273E+03 -8.887432E+02
       266  21  4.804177E+05  8.103614E+04  1.304848E+04  1.850454E+05 -3.384489E+03  1.841128E+02
       266  22  4.480139E+05  7.470483E+04  1.662179E+04  1.747109E+05 -1.261517E+04 -2.186983E+03
       266  23  4.487379E+05  6.639463E+04  8.226308E+03  1.735875E+05 -8.226596E+03 -1.006390E+03
       266  24  4.472481E+05  6.936151E+04  4.660259E+03  1.767379E+05 -3.784315E+03  3.250121E+01
       266  25  3.934926E+05  5.244113E+04  2.291063E+03  1.579118E+05 -1.283589E+04 -2.270610E+03
       266  26  4.049018E+05  4.943423E+04 -3.097852E+03  1.610344E+05 -8.536894E+03 -1.124027E+03
       266  27  4.140797E+05  5.768695E+04 -3.728019E+03  1.684308E+05 -4.184117E+03 -1.191023E+02
       267   1  4.670356E+05  7.765270E+04  8.723073E+03  1.819520E+05  2.632365E+03 -6.348800E+01
       267   2  4.578789E+05  7.020448E+04  4.123839E+03  1.759599E+05  1.443538E+03  1.359635E+02
       267   3  4.439797E+05  6.838238E+04  3.956270E+02  1.755952E+05  2.517096E+02  3.433199E+02
       267   4  4.469593E+05  7.000731E+04  3.598321E+03  1.763176E+05  2.987773E+03  7.128130E+01
       267   5  4.492989E+05  6.696968E+04  1.923553E+03  1.735893E+05  1.803955E+03  2.726367E+02
       267   6  4.468950E+05  6.955729E+04  1.115944E+03  1.764884E+05  6.171191E+02  4.818901E+02
       267   7  4.268834E+05  6.236192E+04 -1.526485E+03  1.706834E+05  3.343169E+03  2.060462E+02
       267   8  4.407189E+05  6.373488E+04 -2.767430E+02  1.712187E+05  2.164368E+03  4.093081E+02
       267   9  4.498103E+05  7.073220E+04  1.836261E+03  1.773817E+05  9.825305E+02  6.204611E+02
       267  10  4.670356E+05  7.765270E+04  8.723060E+03  1.819520E+05  1.248630E-09  5.150605E-09
       267  11  4.578789E+05  7.020448E+04  4.123835E+03  1.759599E+05  4.099893E-09 -2.709987E-09
       267  12  4.439797E+05  6.838238E+04  3.956267E+02  1.755952E+05  6.893117E-09 -1.388049E-08
       267  13  4.469593E+05  7.000731E+04  3.598304E+03  1.763176E+05 -6.847091E-10 -3.660905E-10
       267  14  4.492989E+05  6.696968E+04  1.923547E+03  1.735893E+05  4.068329E-09  3.787911E-09
       267  15  4.468950E+05  6.955729E+04  1.115943E+03  1.764884E+05  3.878002E-09 -9.071522E-09
       267  16  4.268834E+05  6.236191E+04 -1.526506E+03  1.706834E+05 -3.792978E-09 -9.684851E-09
       267  17  4.407189E+05  6.373488E+04 -2.767521E+02  1.712187E+05 -3.142840E-09  1.935181E-09
       267  18  4.498103E+05  7.073220E+04  1.836258E+03  1.773817E+05 -4.886836E-10  2.273908E-09
       267  19  4.670356E+05  7.765270E+04  8.723073E+03  1.819520E+05 -2.632365E+03  6.348800E+01
       267  20  4.578789E+05  7.020448E+04  4.123839E+03  1.759599E+05 -1.443538E+03 -1.359635E+02
       267  21  4.439797E+05  6.838238E+04  3.956270E+02  1.755952E+05 -2.517096E+02 -3.433199E+02
       267  22  4.469593E+05  7.000731E+04  3.598321E+03  1.763176E+05 -2.987773E+03 -7.128130E+01
       267  23  4.492989E+05  6.696968E+04  1.923553E+03  1.735893E+05 -1.803955E+03 -2.726367E+02
       267  24  4.468950E+05  6.955729E+04  1.115944E+03  1.764884E+05 -6.171191E+02 -4.818901E+02
       267  25  4.268834E+05  6.236192E+04 -1.526485E+03  1.706834E+05 -3.343169E+03 -2.060462E+02
       267  26  4.407189E+05  6.373488E+04 -2.767430E+02  1.712187E+05 -2.164368E+03 -4.093081E+02
       267  27  4.498103E+05  7.073220E+04  1.836261E+03  1.773817E+05 -9.825305E+02 -6.204611E+02
       268   1  4.314769E+05  6.380343E+04 -3.103757E+03  1.722050E+05 -3.791505E+01  6.189238E+02
       268   2  4.224104E+05  5.686558E+04 -6.320547E+03  1.661462E+05 -5.523089E+02  1.084115E+03
       268   3  4.083240E+05  5.506510E+04 -9.303048E+03  1.658228E+05 -1.067103E+03  1.550495E+03
       268   4  4.468566E+05  6.960927E+04  8.827257E+02  1.764515E+05  3.251545E+02  7.566039E+02
       268   5  4.493642E+05  6.702441E+04  5.906652E+02  1.735900E+05 -1.885080E+02  1.222062E+03
       268   6  4.468517E+05  6.957673E+04  5.323280E+02  1.764638E+05 -7.025785E+02  1.688707E+03
       268   7  4.622364E+05  7.541511E+04  4.869174E+03  1.806981E+05  6.882325E+02  8.942873E+02
       268   8  4.763187E+05  7.718329E+04  7.501818E+03  1.810341E+05  1.753103E+02  1.360015E+03
       268   9  4.853810E+05  8.408851E+04  1.036762E+04  1.871054E+05 -3.380277E+02  1.826929E+03
       268  10  4.314769E+05  6.380343E+04 -3.103758E+03  1.722050E+05 -6.791929E-09 -1.200601E-08
       268  11  4.224104E+05  5.686558E+04 -6.320550E+03  1.661462E+05 -2.002581E-09 -8.544905E-11
       268  12  4.083240E+05  5.506510E+04 -9.303054E+03  1.658228E+05  1.071568E-08  4.327949E-09
       268  13  4.468566E+05  6.960927E+04  8.827244E+02  1.764515E+05  4.678476E-09 -5.815831E-09
       268  14  4.493642E+05  6.702441E+04  5.906623E+02  1.735900E+05 -1.322038E-09  7.640785E-10
       268  15  4.468517E+05  6.957672E+04  5.323217E+02  1.764638E+05  1.886415E-09 -3.952088E-09
       268  16  4.622364E+05  7.541511E+04  4.869172E+03  1.806981E+05  1.175001E-08 -1.718919E-09
       268  17  4.763187E+05  7.718329E+04  7.501815E+03  1.810341E+05  2.207358E-09  2.021724E-09
       268  18  4.853810E+05  8.408850E+04  1.036762E+04  1.871054E+05 -6.250849E-09  3.353027E-09
       268  19  4.314769E+05  6.380343E+04 -3.103757E+03  1.722050E+05  3.791505E+01 -6.189238E+02
       268  20  4.224104E+05  5.686558E+04 -6.320547E+03  1.661462E+05  5.523089E+02 -1.084115E+03
       268  21  4.083240E+05  5.506510E+04 -9.303048E+03  1.658228E+05  1.067103E+03 -1.550495E+03
       268  22  4.468566E+05  6.960927E+04  8.827257E+02  1.764515E+05 -3.251545E+02 -7.566039E+02
       268  23  4.493642E+05  6.702441E+04  5.906652E+02  1.735900E+05  1.885080E+02 -1.222062E+03
       268  24  4.468517E+05  6.957673E+04  5.323280E+02  1.764638E+05  7.025785E+02 -1.688707E+03
       268  25  4.622364E+05  7.541511E+04  4.869174E+03  1.806981E+05 -6.882325E+02 -8.942873E+02
       268  26  4.763187E+05  7.718329E+04  7.501818E+03  1.810341E+05 -1.753103E+02 -1.360015E+03
       268  27  4.853810E+05  8.408851E+04  1.036762E+04  1.871054E+05  3.380277E+02 -1.826929E+03
       269   1  3.958587E+05  5.037747E+04 -1.254239E+04  1.624170E+05 -1.287136E+03  1.852873E+03
       269   2  3.867318E+05  4.342752E+04 -1.524765E+04  1.563069E+05 -1.911210E+03  2.280302E+03
       269   3  3.725844E+05  4.167473E+04 -1.762935E+04  1.559655E+05 -2.535538E+03  2.708677E+03
       269   4  4.468501E+05  6.958185E+04  5.713480E+02  1.764741E+05 -9.219166E+02  1.991338E+03
       269   5  4.493641E+05  6.701007E+04  8.078611E+02  1.735797E+05 -1.545453E+03  2.418947E+03
       269   6  4.468574E+05  6.963526E+04  1.367468E+03  1.764537E+05 -2.169250E+03  2.847499E+03
       269   7  4.978440E+05  8.878640E+04  1.368487E+04  1.905323E+05 -5.566640E+02  2.129815E+03
       269   8  5.120002E+05  9.059282E+04  1.686302E+04  1.908539E+05 -1.179656E+03  2.557606E+03
       269   9  5.211356E+05  9.759606E+04  2.036376E+04  1.969440E+05 -1.802917E+03  2.986338E+03
       269  10  3.958587E+05  5.037747E+04 -1.254240E+04  1.624170E+05  2.706911E-09 -3.201312E-09
       269  11  3.867318E+05  4.342752E+04 -1.524766E+04  1.563070E+05 -6.542456E-09 -2.868343E-09
       269  12  3.725843E+05  4.167472E+04 -1.762937E+04  1.559655E+05 -1.011059E-08 -1.799994E-09
       269  13  4.468501E+05  6.958185E+04  5.713389E+02  1.764741E+05  6.200902E-10  1.931721E-09
       269  14  4.493641E+05  6.701006E+04  8.078456E+02  1.735797E+05  2.678386E-09 -1.001801E-08
       269  15  4.468574E+05  6.963525E+04  1.367444E+03  1.764537E+05 -3.009557E-10 -1.496387E-08
       269  16  4.978440E+05  8.878639E+04  1.368487E+04  1.905323E+05  2.725114E-09 -1.752292E-10
       269  17  5.120002E+05  9.059282E+04  1.686300E+04  1.908539E+05  8.008018E-09 -5.220494E-09
       269  18  5.211355E+05  9.759605E+04  2.036374E+04  1.969440E+05  8.585203E-09 -9.801710E-09
       269  19  3.958587E+05  5.037747E+04 -1.254239E+04  1.624170E+05  1.287136E+03 -1.852873E+03
       269  20  3.867318E+05  4.342752E+04 -1.524765E+04  1.563069E+05  1.911210E+03 -2.280302E+03
       269  21  3.725844E+05  4.167473E+04 -1.762935E+04  1.559655E+05  2.535538E+03 -2.708677E+03
       269  22  4.468501E+05  6.958185E+04  5.713480E+02  1.764741E+05  9.219166E+02 -1.991338E+03
       269  23  4.493641E+05  6.701007E+04  8.078611E+02  1.735797E+05  1.545453E+03 -2.418947E+03
       269  24  4.468574E+05  6.963526E+04  1.367468E+03  1.764537E+05  2.169250E+03 -2.847499E+03
       269  25  4.978440E+05  8.878640E+04  1.368487E+04  1.905323E+05  5.566640E+02 -2.129815E+03
       269  26  5.120002E+05  9.059282E+04  1.686302E+04  1.908539E+05  1.179656E+03 -2.557606E+03
       269  27  5.211356E+05  9.759606E+04  2.036376E+04  1.969440E+05  1.802917E+03 -2.986338E+03
       270   1  3.599821E+05  3.695420E+04 -2.052532E+04  1.526927E+05 -2.929475E+03  2.950602E+03
       270   2  3.506748E+05  2.976180E+04 -2.213234E+04  1.463552E+05 -4.725878E+03  2.938718E+03
       270   3  3.367567E+05  2.864429E+04 -2.232294E+04  1.456858E+05 -6.517159E+03  2.913670E+03
       270   4  4.469099E+05  6.956432E+04  1.777433E+03  1.765320E+05 -2.557177E+03  3.091682E+03
       270   5  4.492672E+05  6.689694E+04  3.144444E+03  1.735572E+05 -4.362129E+03  3.076521E+03
       270   6  4.470153E+05  7.030609E+04  5.934560E+03  1.762504E+05 -6.161991E+03  3.048185E+03
       270   7  5.338455E+05  1.021751E+05  2.407965E+04  2.003744E+05 -2.184821E+03  3.232784E+03
       270   8  5.478693E+05  1.040328E+05  2.842049E+04  2.007631E+05 -3.998317E+03  3.214348E+03
       270   9  5.572859E+05  1.119687E+05  3.419107E+04  2.068199E+05 -5.806753E+03  3.182725E+03
       270  10  3.599821E+05  3.695419E+04 -2.052535E+04  1.526927E+05 -5.314983E-09 -4.779437E-09
       270  11  3.506748E+05  2.976179E+04 -2.213240E+04  1.463552E+05 -1.066611E-09  2.562337E-09
       270  12  3.367566E+05  2.864427E+04 -2.232303E+04  1.456858E+05  1.586120E-09 -3.568082E-09
       270  13  4.469099E+05  6.956431E+04  1.777403E+03  1.765320E+05 -1.255416E-11 -2.148613E-09
       270  14  4.492672E+05  6.689692E+04  3.144390E+03  1.735572E+05 -1.343584E-09 -1.802502E-09
       270  15  4.470153E+05  7.030607E+04  5.934471E+03  1.762504E+05  3.466954E-10 -5.626947E-09
       270  16  5.338454E+05  1.021750E+05  2.407962E+04  2.003744E+05  2.793915E-09  1.558081E-09
       270  17  5.478692E+05  1.040328E+05  2.842044E+04  2.007631E+05 -3.581804E-09  5.255539E-09
       270  18  5.572858E+05  1.119687E+05  3.419098E+04  2.068199E+05 -5.088215E-09 -1.216835E-09
       270  19  3.599821E+05  3.695420E+04 -2.052532E+04  1.526927E+05  2.929475E+03 -2.950602E+03
       270  20  3.506748E+05  2.976180E+04 -2.213234E+04  1.463552E+05  4.725878E+03 -2.938718E+03
       270  21  3.367567E+05  2.864429E+04 -2.232294E+04  1.456858E+05  6.517159E+03 -2.913670E+03
       270  22  4.469099E+05  6.956432E+04  1.777433E+03  1.765320E+05  2.557177E+03 -3.091682E+03
       270  23  4.492672E+05  6.689694E+04  3.144444E+03  1.735572E+05  4.362129E+03 -3.076521E+03
       270  24  4.470153E+05  7.030609E+04  5.934560E+03  1.762504E+05  6.161991E+03 -3.048185E+03
       270  25  5.338455E+05  1.021751E+05  2.407965E+04  2.003744E+05  2.184821E+03 -3.232784E+03
       270  26  5.478693E+05  1.040328E+05  2.842049E+04  2.007631E+05  3.998317E+03 -3.214348E+03
       270  27  5.572859E+05  1.119687E+05  3.419107E+04  2.068199E+05  5.806753E+03 -3.182725E+03
       271   1  3.234024E+05  2.388718E+04 -2.389200E+04  1.441370E+05 -7.841612E+03  2.846933E+03
       271   2  3.138547E+05  1.455266E+04 -2.101424E+04  1.356991E+05 -1.487663E+04  8.303305E+02
       271   3  3.038102E+05  2.067023E+04 -1.027873E+04  1.307518E+05 -2.180758E+04 -1.460348E+03
       271   4  4.474846E+05  6.924885E+04  7.698132E+03  1.769589E+05 -7.398972E+03  3.014578E+03
       271   5  4.483484E+05  6.592825E+04  1.360542E+04  1.735377E+05 -1.460806E+04  9.319430E+02
       271   6  4.487489E+05  7.809253E+04  2.750709E+04  1.736071E+05 -2.171324E+04 -1.424853E+03
       271   7  5.715813E+05  1.146111E+05  3.928690E+04  2.097864E+05 -6.956236E+03  3.182258E+03
       271   8  5.828598E+05  1.173052E+05  4.822359E+04  2.113838E+05 -1.433943E+04  1.033580E+03
       271   9  5.937087E+05  1.355170E+05  6.529127E+04  2.164718E+05 -2.161888E+04 -1.389346E+03
       271  10  3.234023E+05  2.388716E+04 -2.389213E+04  1.441370E+05  1.655490E-09 -3.563809E-09
       271  11  3.138544E+05  1.455260E+04 -2.101466E+04  1.356991E+05 -1.566836E-09  1.012924E-08
       271  12  3.038097E+05  2.067010E+04 -1.027962E+04  1.307518E+05 -4.185097E-09 -3.634083E-09
       271  13  4.474845E+05  6.924882E+04  7.698012E+03  1.769589E+05 -2.897333E-09 -5.748536E-09
       271  14  4.483482E+05  6.592820E+04  1.360502E+04  1.735377E+05  1.866991E-09  7.096938E-09
       271  15  4.487484E+05  7.809240E+04  2.750620E+04  1.736071E+05 -1.005072E-09  6.798605E-09
       271  16  5.715813E+05  1.146111E+05  3.928679E+04  2.097865E+05 -4.749259E-09  9.706179E-10
       271  17  5.828596E+05  1.173051E+05  4.822320E+04  2.113838E+05  8.499544E-10  2.471481E-09
       271  18  5.937082E+05  1.355169E+05  6.529039E+04  2.164718E+05  1.879616E-10  6.143266E-09
       271  19  3.234024E+05  2.388718E+04 -2.389200E+04  1.441370E+05  7.841612E+03 -2.846933E+03
       271  20  3.138547E+05  1.455266E+04 -2.101424E+04  1.356991E+05  1.487663E+04 -8.303305E+02
       271  21  3.038102E+05  2.067023E+04 -1.027873E+04  1.307518E+05  2.180758E+04  1.460348E+03
       271  22  4.474846E+05  6.924885E+04  7.698132E+03  1.769589E+05  7.398972E+03 -3.014578E+03
       271  23  4.483484E+05  6.592825E+04  1.360542E+04  1.735377E+05  1.460806E+04 -9.319430E+02
       271  24  4.487489E+05  7.809253E+04  2.750709E+04  1.736071E+05  2.171324E+04  1.424853E+03
       271  25  5.715813E+05  1.146111E+05  3.928690E+04  2.097864E+05  6.956236E+03 -3.182258E+03
       271  26  5.828598E+05  1.173052E+05  4.822359E+04  2.113838E+05  1.433943E+04 -1.033580E+03
       271  27  5.937087E+05  1.355170E+05  6.529127E+04  2.164718E+05  2.161888E+04  1.389346E+03
       272   1  2.826042E+05  1.564666E+04 -6.777287E+03  1.489774E+05 -2.832620E+04 -2.811682E+03
       272   2  2.755166E+05 -1.717486E+04  1.369382E+04  1.170612E+05 -5.669932E+04 -1.342125E+04
       272   3  3.103967E+05  7.028187E+04  8.683121E+04  6.107324E+04 -8.323763E+04 -2.887579E+04
       272   4  4.531284E+05  6.532905E+04  3.413728E+04  1.811822E+05 -2.673252E+04 -2.207584E+03
       272   5  4.391463E+05  5.591700E+04  5.786106E+04  1.738994E+05 -5.816484E+04 -1.397748E+04
       272   6  4.677233E+05  1.673666E+05  1.366649E+05  1.425491E+05 -8.776221E+04 -3.059447E+04
       272   7  6.236815E+05  1.150111E+05  7.505000E+04  2.133938E+05 -2.513835E+04 -1.603395E+03
       272   8  6.028017E+05  1.290135E+05  1.020257E+05  2.307519E+05 -5.963077E+04 -1.453393E+04
       272   9  6.250754E+05  2.644671E+05  1.864959E+05  2.240465E+05 -9.228799E+04 -3.231428E+04
       272  10  2.826033E+05  1.564643E+04 -6.778809E+03  1.489774E+05  3.975218E-09  7.846826E-10
       272  11  2.755131E+05 -1.717591E+04  1.368745E+04  1.170606E+05  3.876896E-09 -1.305649E-09
       272  12  3.103890E+05  7.027912E+04  8.681663E+04  6.107130E+04  1.361446E-10 -2.672314E-09
       272  13  4.531276E+05  6.532885E+04  3.413593E+04  1.811822E+05 -4.800117E-10 -6.573978E-10
       272  14  4.391426E+05  5.591589E+04  5.785434E+04  1.738987E+05 -3.220520E-09 -1.391781E-08
       272  15  4.677148E+05  1.673636E+05  1.366487E+05  1.425469E+05  7.201709E-10  6.383651E-09
       272  16  6.236808E+05  1.150110E+05  7.504880E+04  2.133938E+05 -8.813366E-09  8.217900E-09
       272  17  6.027978E+05  1.290123E+05  1.020186E+05  2.307512E+05 -4.405512E-09 -1.715661E-08
       272  18  6.250660E+05  2.644637E+05  1.864779E+05  2.240441E+05 -1.086503E-09  1.664374E-09
       272  19  2.826042E+05  1.564666E+04 -6.777287E+03  1.489774E+05  2.832620E+04  2.811682E+03
       272  20  2.755166E+05 -1.717486E+04  1.369382E+04  1.170612E+05  5.669932E+04  1.342125E+04
       272  21  3.103967E+05  7.028187E+04  8.683121E+04  6.107324E+04  8.323763E+04  2.887579E+04
       272  22  4.531284E+05  6.532905E+04  3.413728E+04  1.811822E+05  2.673252E+04  2.207584E+03
       272  23  4.391463E+05  5.591700E+04  5.786106E+04  1.738994E+05  5.816484E+04  1.397748E+04
       272  24  4.677233E+05  1.673666E+05  1.366649E+05  1.425491E+05  8.776221E+04  3.059447E+04
       272  25  6.236815E+05  1.150111E+05  7.505000E+04  2.133938E+05  2.513835E+04  1.603395E+03
       272  26  6.028017E+05  1.290135E+05  1.020257E+05  2.307519E+05  5.963077E+04  1.453393E+04
       272  27  6.250754E+05  2.644671E+05  1.864959E+05  2.240465E+05  9.228799E+04  3.231428E+04
       273   1 -8.145214E+04 -6.141527E+05 -9.006517E+04  2.979506E+04 -1.805862E+03 -3.540963E+04
       273   2 -3.312187E+04 -5.846810E+05 -5.704934E+04  1.300523E+04 -5.650729E+03 -2.043128E+04
       273   3 -2.897842E+04 -5.680970E+05 -4.482383E+04  8.898993E+03 -5.156378E+03 -5.438160E+03
       273   4 -3.877558E+04 -4.433761E+05 -4.815984E+04  1.416664E+04 -1.817879E+03 -3.140836E+04
       273   5  3.313341E+03 -4.371811E+05 -2.264535E+04  7.889381E+03 -5.653932E+03 -1.934098E+04
       273   6  1.726520E+03 -4.433656E+05 -1.589487E+04  1.429623E+04 -5.150719E+03 -7.259501E+03
       273   7  3.899720E+03 -2.725724E+05 -6.256464E+03 -1.466080E+03 -1.830095E+03 -2.740598E+04
       273   8  3.974710E+04 -2.896610E+05  1.175718E+04  2.772327E+03 -5.657153E+03 -1.825042E+04
       273   9  3.243048E+04 -3.186198E+05  1.303309E+04  1.969457E+04 -5.145091E+03 -9.081206E+03
       273  10 -8.145248E+04 -6.141540E+05 -9.006753E+04  2.979501E+04  5.514281E-10  1.405414E-08
       273  11 -3.312201E+04 -5.846814E+05 -5.705019E+04  1.300513E+04 -1.670726E-09 -4.176864E-09
       273  12 -2.897845E+04 -5.680971E+05 -4.482394E+04  8.898970E+03 -1.158195E-09 -1.530271E-08
       273  13 -3.877585E+04 -4.433772E+05 -4.816170E+04  1.416659E+04  8.804877E-10 -2.100324E-09
       273  14  3.313206E+03 -4.371815E+05 -2.264612E+04  7.889293E+03 -5.760702E-10  3.259169E-09
       273  15  1.726478E+03 -4.433657E+05 -1.589501E+04  1.429620E+04 -1.086165E-10 -4.648362E-10
       273  16  3.899515E+03 -2.725732E+05 -6.257882E+03 -1.466121E+03  5.929238E-10 -1.291989E-08
       273  17  3.974698E+04 -2.896614E+05  1.175649E+04  2.772244E+03  4.294213E-09  7.362215E-09
       273  18  3.243043E+04 -3.186199E+05  1.303288E+04  1.969453E+04 -3.333218E-09  2.369540E-08
       273  19 -8.145214E+04 -6.141527E+05 -9.006517E+04  2.979506E+04  1.805862E+03  3.540963E+04
       273  20 -3.312187E+04 -5.846810E+05 -5.704934E+04  1.300523E+04  5.650729E+03  2.043128E+04
       273  21 -2.897842E+04 -5.680970E+05 -4.482383E+04  8.898993E+03  5.156378E+03  5.438160E+03
       273  22 -3.877558E+04 -4.433761E+05 -4.815984E+04  1.416664E+04  1.817879E+03  3.140836E+04
       273  23  3.313341E+03 -4.371811E+05 -2.264535E+04  7.889381E+03  5.653932E+03  1.934098E+04
       273  24  1.726520E+03 -4.433656E+05 -1.589487E+04  1.429623E+04  5.150719E+03  7.259501E+03
       273  25  3.899720E+03 -2.725724E+05 -6.256464E+03 -1.466080E+03  1.830095E+03  2.740598E+04
       273  26  3.974710E+04 -2.896610E+05  1.175718E+04  2.772327E+03  5.657153E+03  1.825042E+04
       273  27  3.243048E+04 -3.186198E+05  1.303309E+04  1.969457E+04  5.145091E+03  9.081206E+03
       274   1 -2.796829E+04 -5.424210E+05 -3.795693E+04  1.626860E+04 -3.981659E+03 -4.223769E+03
       274   2 -1.858253E+04 -5.178467E+05 -3.053814E+04  7.931703E+03 -3.165646E+03  2.206547E+03
       274   3 -1.749022E+04 -4.960802E+05 -2.935934E+04  1.258017E+04 -2.151789E+03  8.637567E+03
       274   4 -2.993004E+03 -4.412340E+05 -1.439080E+04  1.432314E+04 -3.980084E+03 -4.719064E+03
       274   5  6.530245E+02 -4.398412E+05 -1.240818E+04  7.829031E+03 -3.163714E+03  1.579154E+03
       274   6 -3.970841E+03 -4.412334E+05 -1.657316E+04  1.432026E+04 -2.149475E+03  7.877841E+03
       274   7  2.198157E+04 -3.400375E+05  9.174627E+03  1.237736E+04 -3.978507E+03 -5.214440E+03
       274   8  1.988815E+04 -3.618301E+05  5.721372E+03  7.726350E+03 -3.161782E+03  9.516822E+02
       274   9  9.548334E+03 -3.863839E+05 -3.787186E+03  1.606051E+04 -2.147165E+03  7.118048E+03
       274  10 -2.796831E+04 -5.424211E+05 -3.795699E+04  1.626859E+04 -2.161509E-10 -1.856984E-09
       274  11 -1.858254E+04 -5.178467E+05 -3.053817E+04  7.931709E+03  1.611671E-09 -6.165051E-09
       274  12 -1.749024E+04 -4.960803E+05 -2.935949E+04  1.258019E+04 -3.578685E-10 -4.216830E-09
       274  13 -2.993027E+03 -4.412340E+05 -1.439088E+04  1.432312E+04 -2.254868E-09 -8.602672E-09
       274  14  6.530131E+02 -4.398412E+05 -1.240820E+04  7.829035E+03  1.003849E-09 -3.206471E-09
       274  15 -3.970863E+03 -4.412335E+05 -1.657329E+04  1.432027E+04 -1.315929E-09 -5.903938E-09
       274  16  2.198155E+04 -3.400375E+05  9.174547E+03  1.237734E+04 -3.476086E-09  2.869806E-09
       274  17  1.988814E+04 -3.618301E+05  5.721352E+03  7.726352E+03  2.627047E-09  5.309121E-09
       274  18  9.548316E+03 -3.863840E+05 -3.787290E+03  1.606052E+04 -1.061198E-09  4.140630E-09
       274  19 -2.796829E+04 -5.424210E+05 -3.795693E+04  1.626860E+04  3.981659E+03  4.223769E+03
       274  20 -1.858253E+04 -5.178467E+05 -3.053814E+04  7.931703E+03  3.165646E+03 -2.206547E+03
       274  21 -1.749022E+04 -4.960802E+05 -2.935934E+04  1.258017E+04  2.151789E+03 -8.637567E+03
       274  22 -2.993004E+03 -4.412340E+05 -1.439080E+04  1.432314E+04  3.980084E+03  4.719064E+03
       274  23  6.530245E+02 -4.398412E+05 -1.240818E+04  7.829031E+03  3.163714E+03 -1.579154E+03
       274  24 -3.970841E+03 -4.412334E+05 -1.657316E+04  1.432026E+04  2.149475E+03 -7.877841E+03
       274  25  2.198157E+04 -3.400375E+05  9.174627E+03  1.237736E+04  3.978507E+03  5.214440E+03
       274  26  1.988815E+04 -3.618301E+05  5.721372E+03  7.726350E+03  3.161782E+03 -9.516822E+02
       274  27  9.548334E+03 -3.863839E+05 -3.787186E+03  1.606051E+04  2.147165E+03 -7.118048E+03
       275   1 -5.316304E+03 -4.754154E+05 -2.627503E+04  2.178014E+04 -1.411990E+03  1.173653E+04
       275   2  2.344239E+03 -4.442996E+05 -3.051079E+04  1.681203E+03 -4.499251E+02  2.662431E+04
       275   3 -4.633816E+04 -4.291130E+05 -5.850776E+04 -5.522124E+03 -1.168316E+02  4.151057E+04
       275   4  2.434204E+03 -4.441680E+05 -1.905050E+04  1.435161E+04 -1.409478E+03  1.084941E+04
       275   5  4.298768E+03 -4.361718E+05 -2.864903E+04  7.824993E+03 -4.482722E+02  2.615933E+04
       275   6 -5.025336E+04 -4.441793E+05 -6.230229E+04  1.419408E+04 -1.153855E+02  4.146717E+04
       275   7  1.018485E+04 -4.129196E+05 -1.182599E+04  6.922707E+03 -1.406944E+03  9.962248E+03
       275   8  6.253435E+03 -4.280439E+05 -2.678726E+04  1.396886E+04 -4.466286E+02  2.569434E+04
       275   9 -5.416711E+04 -4.592446E+05 -6.609662E+04  3.390979E+04 -1.139422E+02  4.142377E+04
       275  10 -5.316344E+03 -4.754156E+05 -2.627530E+04  2.178016E+04  1.982740E-11 -4.756805E-09
       275  11  2.344048E+03 -4.443003E+05 -3.051212E+04  1.681212E+03  2.336804E-09 -6.834815E-09
       275  12 -4.633862E+04 -4.291148E+05 -5.851100E+04 -5.522120E+03  5.831837E-11  5.429340E-09
       275  13  2.434170E+03 -4.441682E+05 -1.905072E+04  1.435163E+04  7.092134E-10 -4.274596E-09
       275  14  4.298584E+03 -4.361725E+05 -2.865032E+04  7.825002E+03  5.325915E-10 -1.076356E-08
       275  15 -5.025382E+04 -4.441811E+05 -6.230552E+04  1.419408E+04  1.763331E-09  1.090923E-09
       275  16  1.018482E+04 -4.129197E+05 -1.182618E+04  6.922718E+03 -1.024139E-09 -2.693976E-09
       275  17  6.253258E+03 -4.280446E+05 -2.678850E+04  1.396887E+04  2.050239E-09  1.125021E-08
       275  18 -5.416757E+04 -4.592464E+05 -6.609985E+04  3.390980E+04  2.684900E-10  2.479886E-09
       275  19 -5.316304E+03 -4.754154E+05 -2.627503E+04  2.178014E+04  1.411990E+03 -1.173653E+04
       275  20  2.344239E+03 -4.442996E+05 -3.051079E+04  1.681203E+03  4.499251E+02 -2.662431E+04
       275  21 -4.633816E+04 -4.291130E+05 -5.850776E+04 -5.522124E+03  1.168316E+02 -4.151057E+04
       275  22  2.434204E+03 -4.441680E+05 -1.905050E+04  1.435161E+04  1.409478E+03 -1.084941E+04
       275  23  4.298768E+03 -4.361718E+05 -2.864903E+04  7.824993E+03  4.482722E+02 -2.615933E+04
       275  24 -5.025336E+04 -4.441793E+05 -6.230229E+04  1.419408E+04  1.153855E+02 -4.146717E+04
       275  25  1.018485E+04 -4.129196E+05 -1.182599E+04  6.922707E+03  1.406944E+03 -9.962248E+03
       275  26  6.253435E+03 -4.280439E+05 -2.678726E+04  1.396886E+04  4.466286E+02 -2.569434E+04
       275  27 -5.416711E+04 -4.592446E+05 -6.609662E+04  3.390979E+04  1.139422E+02 -4.142377E+04
       276   1 -9.839268E+04 -9.817328E+04 -8.400435E+04 -7.594469E+03  2.735935E+04  6.923459E+03
       276   2 -5.731830E+04 -1.383253E+05 -9.945317E+04 -7.452697E+03  2.263736E+04  2.114165E+04
       276   3 -2.006296E+03 -1.250122E+05 -9.841631E+04 -3.379763E+04  1.793159E+04  2.072508E+04
       276   4  4.941847E+05  4.928035E+04  6.108364E+04 -2.638195E+04  4.186047E+04  6.939155E+03
       276   5  4.862327E+05 -4.328096E+03  2.716131E+04 -1.311250E+04  2.729415E+04  2.114452E+04
       276   6  4.942100E+05 -2.788962E+03  1.654608E+04 -2.632747E+04  1.274455E+04  2.072062E+04
       276   7  1.087083E+06  1.967095E+05  2.061469E+05 -4.518750E+04  5.637538E+04  6.953967E+03
       276   8  1.030056E+06  1.296483E+05  1.537559E+05 -1.877735E+04  3.195499E+04  2.114731E+04
       276   9  9.906539E+05  1.194172E+05  1.314921E+05 -1.885133E+04  7.553392E+03  2.071604E+04
       276  10 -9.839350E+04 -9.817353E+04 -8.400585E+04 -7.594621E+03 -2.127835E-10  2.299846E-11
       276  11 -5.731898E+04 -1.383259E+05 -9.945497E+04 -7.453082E+03 -1.303282E-10 -7.788208E-11
       276  12 -2.006757E+03 -1.250128E+05 -9.841772E+04 -3.379793E+04 -7.198812E-11  9.013277E-11
       276  13  4.941828E+05  4.927983E+04  6.108026E+04 -2.638219E+04  3.740212E-14 -6.335162E-11
       276  14  4.862317E+05 -4.328776E+03  2.715907E+04 -1.311296E+04 -1.319010E-10 -2.377812E-11
       276  15  4.942098E+05 -2.789467E+03  1.654497E+04 -2.632768E+04  3.928351E-10  9.925234E-11
       276  16  1.087080E+06  1.967086E+05  2.061409E+05 -4.518781E+04 -4.332880E-10 -2.891752E-11
       276  17  1.030055E+06  1.296476E+05  1.537532E+05 -1.877789E+04  4.363075E-10 -5.156182E-11
       276  18  9.906537E+05  1.194167E+05  1.314912E+05 -1.885146E+04  2.588070E-10  7.469318E-11
       276  19 -9.839268E+04 -9.817328E+04 -8.400435E+04 -7.594469E+03 -2.735935E+04 -6.923459E+03
       276  20 -5.731830E+04 -1.383253E+05 -9.945317E+04 -7.452697E+03 -2.263736E+04 -2.114165E+04
       276  21 -2.006296E+03 -1.250122E+05 -9.841631E+04 -3.379763E+04 -1.793159E+04 -2.072508E+04
       276  22  4.941847E+05  4.928035E+04  6.108364E+04 -2.638195E+04 -4.186047E+04 -6.939155E+03
       276  23  4.862327E+05 -4.328096E+03  2.716131E+04 -1.311250E+04 -2.729415E+04 -2.114452E+04
       276  24  4.942100E+05 -2.788962E+03  1.654608E+04 -2.632747E+04 -1.274455E+04 -2.072062E+04
       276  25  1.087083E+06  1.967095E+05  2.061469E+05 -4.518750E+04 -5.637538E+04 -6.953967E+03
       276  26  1.030056E+06  1.296483E+05  1.537559E+05 -1.877735E+04 -3.195499E+04 -2.114731E+04
       276  27  9.906539E+05  1.194172E+05  1.314921E+05 -1.885133E+04 -7.553392E+03 -2.071604E+04
       277   1  4.330709E+04 -1.064409E+05 -9.084953E+04 -2.523512E+04  1.093604E+04  1.759506E+04
       277   2  8.989525E+04 -9.906030E+04 -8.594714E+04 -1.286737E+04  7.899827E+03  1.621514E+04
       277   3  1.381236E+05 -8.722995E+04 -7.792733E+04 -2.707012E+04  4.862404E+03  1.406858E+04
       277   4  4.910628E+05  3.926136E+03  1.336224E+04 -2.636273E+04  1.027240E+04  1.759380E+04
       277   5  4.902051E+05 -4.320847E+02  7.006672E+03 -1.307708E+04  6.718642E+03  1.621397E+04
       277   6  4.910741E+05 -2.523284E+02  4.126147E+03 -2.636080E+04  3.163906E+03  1.406770E+04
       277   7  9.390034E+05  1.142790E+05  1.175605E+05 -2.749118E+04  9.608276E+03  1.759254E+04
       277   8  8.906629E+05  9.818484E+04  9.994972E+04 -1.328694E+04  5.536699E+03  1.621279E+04
       277   9  8.441396E+05  8.671651E+04  8.617124E+04 -2.565108E+04  1.464450E+03  1.406683E+04
       277  10  4.330688E+04 -1.064413E+05 -9.085034E+04 -2.523527E+04 -2.315409E-10  9.371535E-11
       277  11  8.989511E+04 -9.906060E+04 -8.594775E+04 -1.286747E+04 -6.665131E-10  2.362619E-13
       277  12  1.381235E+05 -8.723017E+04 -7.792775E+04 -2.707018E+04 -5.565025E-10 -9.452000E-11
       277  13  4.910626E+05  3.925776E+03  1.336146E+04 -2.636287E+04  1.517749E-11  1.666295E-10
       277  14  4.902050E+05 -4.323792E+02  7.006093E+03 -1.307717E+04 -5.746058E-10 -6.033080E-11
       277  15  4.910741E+05 -2.525437E+02  4.125756E+03 -2.636084E+04 -2.294996E-10  2.618071E-11
       277  16  9.390032E+05  1.142787E+05  1.175597E+05 -2.749132E+04 -2.427614E-10  1.147877E-10
       277  17  8.906628E+05  9.818455E+04  9.994917E+04 -1.328701E+04  2.855324E-10  4.136137E-11
       277  18  8.441396E+05  8.671630E+04  8.617087E+04 -2.565110E+04 -1.784826E-11  9.256161E-11
       277  19  4.330709E+04 -1.064409E+05 -9.084953E+04 -2.523512E+04 -1.093604E+04 -1.759506E+04
       277  20  8.989525E+04 -9.906030E+04 -8.594714E+04 -1.286737E+04 -7.899827E+03 -1.621514E+04
       277  21  1.381236E+05 -8.722995E+04 -7.792733E+04 -2.707012E+04 -4.862404E+03 -1.406858E+04
       277  22  4.910628E+05  3.926136E+03  1.336224E+04 -2.636273E+04 -1.027240E+04 -1.759380E+04
       277  23  4.902051E+05 -4.320847E+02  7.006672E+03 -1.307708E+04 -6.718642E+03 -1.621397E+04
       277  24  4.910741E+05 -2.523284E+02  4.126147E+03 -2.636080E+04 -3.163906E+03 -1.406770E+04
       277  25  9.390034E+05  1.142790E+05  1.175605E+05 -2.749118E+04 -9.608276E+03 -1.759254E+04
       277  26  8.906629E+05  9.818484E+04  9.994972E+04 -1.328694E+04 -5.536699E+03 -1.621279E+04
       277  27  8.441396E+05  8.671651E+04  8.617124E+04 -2.565108E+04 -1.464450E+03 -1.406683E+04
       278   1  1.855667E+05 -7.487966E+04 -6.752072E+04 -2.629996E+04  3.973372E+03  1.267108E+04
       278   2  2.324125E+05 -6.366765E+04 -5.811849E+04 -1.315495E+04  3.090039E+03  1.048704E+04
       278   3  2.795123E+05 -5.208505E+04 -4.803904E+04 -2.635856E+04  2.205697E+03  8.267620E+03
       278   4  4.907553E+05  2.811222E+02  3.205223E+03 -2.631215E+04  2.518113E+03  1.267050E+04
       278   5  4.906301E+05 -5.607239E+01  1.822556E+03 -1.313817E+04  1.610554E+03  1.048674E+04
       278   6  4.907617E+05 -1.828374E+01  1.133941E+03 -2.631214E+04  7.020541E+02  8.267615E+03
       278   7  7.960298E+05  7.543536E+04  7.392493E+04 -2.632434E+04  1.062143E+03  1.266991E+04
       278   8  7.489092E+05  6.355081E+04  6.175913E+04 -1.312138E+04  1.304590E+02  1.048644E+04
       278   9  7.020523E+05  5.204533E+04  5.030392E+04 -2.626569E+04 -8.020969E+02  8.267609E+03
       278  10  1.855667E+05 -7.487984E+04 -6.752105E+04 -2.630000E+04 -6.303622E-10 -9.563554E-11
       278  11  2.324124E+05 -6.366777E+04 -5.811871E+04 -1.315497E+04 -1.855552E-10 -1.270915E-10
       278  12  2.795123E+05 -5.208512E+04 -4.803918E+04 -2.635858E+04  1.196816E-11 -1.351022E-10
       278  13  4.907552E+05  2.809481E+02  3.204909E+03 -2.631217E+04 -8.273833E-10  4.420997E-12
       278  14  4.906301E+05 -5.619120E+01  1.822345E+03 -1.313818E+04 -6.732417E-10 -3.184776E-11
       278  15  4.907617E+05 -1.835729E+01  1.133812E+03 -2.631214E+04 -4.208209E-11 -4.557819E-11
       278  16  7.960297E+05  7.543519E+04  7.392463E+04 -2.632435E+04 -2.645530E-10  1.115837E-10
       278  17  7.489092E+05  6.355069E+04  6.175892E+04 -1.312138E+04  2.759623E-10  1.886747E-11
       278  18  7.020522E+05  5.204526E+04  5.030379E+04 -2.626569E+04 -1.830567E-10  1.643432E-12
       278  19  1.855667E+05 -7.487966E+04 -6.752072E+04 -2.629996E+04 -3.973372E+03 -1.267108E+04
       278  20  2.324125E+05 -6.366765E+04 -5.811849E+04 -1.315495E+04 -3.090039E+03 -1.048704E+04
       278  21  2.795123E+05 -5.208505E+04 -4.803904E+04 -2.635856E+04 -2.205697E+03 -8.267620E+03
       278  22  4.907553E+05  2.811222E+02  3.205223E+03 -2.631215E+04 -2.518113E+03 -1.267050E+04
       278  23  4.906301E+05 -5.607239E+01  1.822556E+03 -1.313817E+04 -1.610554E+03 -1.048674E+04
       278  24  4.907617E+05 -1.828374E+01  1.133941E+03 -2.631214E+04 -7.020541E+02 -8.267615E+03
       278  25  7.960298E+05  7.543536E+04  7.392493E+04 -2.632434E+04 -1.062143E+03 -1.266991E+04
       278  26  7.489092E+05  6.355081E+04  6.175913E+04 -1.312138E+04 -1.304590E+02 -1.048644E+04
       278  27  7.020523E+05  5.204533E+04  5.030392E+04 -2.626569E+04  8.020969E+02 -8.267609E+03
       279   1  3.268889E+05 -4.030973E+04 -3.696279E+04 -2.627325E+04  2.004884E+03  6.970665E+03
       279   2  3.735903E+05 -2.885172E+04 -2.647733E+04 -1.316095E+04  1.656005E+03  4.756375E+03
       279   3  4.203477E+05 -1.734966E+04 -1.575462E+04 -2.626415E+04  1.306660E+03  2.542580E+03
       279   4  4.907210E+05  1.997734E+01  9.270381E+02 -2.628263E+04  5.161627E+02  6.970797E+03
       279   5  4.906957E+05 -5.501794E+00  7.040161E+02 -1.317504E+04  1.674809E+02  4.756634E+03
       279   6  4.907238E+05  1.299595E+01  7.179928E+02 -2.628264E+04 -1.816408E+02  2.542976E+03
       279   7  6.545778E+05  4.034780E+04  3.881508E+04 -2.629202E+04 -9.729485E+02  6.970928E+03
       279   8  6.078138E+05  2.883976E+04  2.788445E+04 -1.318914E+04 -1.321322E+03  4.756894E+03
       279   9  5.611044E+05  1.737530E+04  1.719028E+04 -2.630113E+04 -1.670109E+03  2.543372E+03
       279  10  3.268889E+05 -4.030978E+04 -3.696289E+04 -2.627326E+04  7.564768E-12 -7.057847E-11
       279  11  3.735903E+05 -2.885175E+04 -2.647738E+04 -1.316096E+04 -4.214627E-11  1.772688E-10
       279  12  4.203477E+05 -1.734967E+04 -1.575464E+04 -2.626415E+04 -1.872777E-10  1.513803E-10
       279  13  4.907209E+05  1.992507E+01  9.269463E+02 -2.628264E+04 -2.639731E-10 -1.704092E-10
       279  14  4.906957E+05 -5.526103E+00  7.039735E+02 -1.317505E+04  1.125049E-10  1.316049E-10
       279  15  4.907237E+05  1.298900E+01  7.179806E+02 -2.628264E+04  3.201385E-10  1.499219E-10
       279  16  6.545778E+05  4.034775E+04  3.881499E+04 -2.629202E+04 -2.823753E-10 -3.251027E-11
       279  17  6.078138E+05  2.883973E+04  2.788441E+04 -1.318913E+04 -1.425705E-10 -7.662482E-12
       279  18  5.611044E+05  1.737530E+04  1.719026E+04 -2.630113E+04 -1.347386E-10  5.809766E-11
       279  19  3.268889E+05 -4.030973E+04 -3.696279E+04 -2.627325E+04 -2.004884E+03 -6.970665E+03
       279  20  3.735903E+05 -2.885172E+04 -2.647733E+04 -1.316095E+04 -1.656005E+03 -4.756375E+03
       279  21  4.203477E+05 -1.734966E+04 -1.575462E+04 -2.626415E+04 -1.306660E+03 -2.542580E+03
       279  22  4.907210E+05  1.997734E+01  9.270381E+02 -2.628263E+04 -5.161627E+02 -6.970797E+03
       279  23  4.906957E+05 -5.501794E+00  7.040161E+02 -1.317504E+04 -1.674809E+02 -4.756634E+03
       279  24  4.907238E+05  1.299595E+01  7.179928E+02 -2.628264E+04  1.816408E+02 -2.542976E+03
       279  25  6.545778E+05  4.034780E+04  3.881508E+04 -2.629202E+04  9.729485E+02 -6.970928E+03
       279  26  6.078138E+05  2.883976E+04  2.788445E+04 -1.318914E+04  1.321322E+03 -4.756894E+03
       279  27  5.611044E+05  1.737530E+04  1.719028E+04 -2.630113E+04  1.670109E+03 -2.543372E+03
       280   1  4.676222E+05 -5.654812E+03 -4.421173E+03 -2.625271E+04  1.167752E+03  1.254609E+03
       280   2  5.142529E+05  5.795698E+03  6.642751E+03 -1.316493E+04  5.849721E+02 -9.571078E+02
       280   3  5.609679E+05  1.733209E+04  1.810359E+04 -2.625682E+04  2.236253E+00 -3.167601E+03
       280   4  4.907313E+05  9.579576E+00  8.039706E+02 -2.627476E+04 -3.199104E+02  1.255039E+03
       280   5  4.906899E+05 -8.018175E+00  1.173959E+03 -1.318489E+04 -9.018984E+02 -9.567085E+02
       280   6  4.907306E+05  6.027847E+01  1.940449E+03 -2.627474E+04 -1.483799E+03 -3.167224E+03
       280   7  5.138409E+05  5.673935E+03  6.029088E+03 -2.629681E+04 -1.807628E+03  1.255469E+03
       280   8  4.671273E+05 -5.811772E+03 -4.294862E+03 -1.320484E+04 -2.388713E+03 -9.563091E+02
       280   9  4.204978E+05 -1.721187E+04 -1.422301E+04 -2.629266E+04 -2.969668E+03 -3.166848E+03
       280  10  4.676222E+05 -5.654814E+03 -4.421178E+03 -2.625272E+04 -2.784602E-10 -1.302960E-12
       280  11  5.142529E+05  5.795697E+03  6.642748E+03 -1.316493E+04 -2.653844E-10 -1.111511E-10
       280  12  5.609679E+05  1.733208E+04  1.810357E+04 -2.625682E+04 -2.841203E-10  5.358672E-11
       280  13  4.907313E+05  9.577857E+00  8.039675E+02 -2.627476E+04 -2.714957E-10  1.406046E-10
       280  14  4.906899E+05 -8.019376E+00  1.173955E+03 -1.318489E+04  6.510997E-10  4.824912E-11
       280  15  4.907306E+05  6.026711E+01  1.940426E+03 -2.627475E+04 -1.172719E-10  4.000902E-12
       280  16  5.138408E+05  5.673933E+03  6.029079E+03 -2.629681E+04  2.102356E-10  9.503265E-11
       280  17  4.671273E+05 -5.811775E+03 -4.294875E+03 -1.320485E+04 -3.925920E-10  1.952208E-10
       280  18  4.204978E+05 -1.721189E+04 -1.422305E+04 -2.629267E+04 -1.283049E-10 -1.159890E-10
       280  19  4.676222E+05 -5.654812E+03 -4.421173E+03 -2.625271E+04 -1.167752E+03 -1.254609E+03
       280  20  5.142529E+05  5.795698E+03  6.642751E+03 -1.316493E+04 -5.849721E+02  9.571078E+02
       280  21  5.609679E+05  1.733209E+04  1.810359E+04 -2.625682E+04 -2.236253E+00  3.167601E+03
       280  22  4.907313E+05  9.579576E+00  8.039706E+02 -2.627476E+04  3.199104E+02 -1.255039E+03
       280  23  4.906899E+05 -8.018175E+00  1.173959E+03 -1.318489E+04  9.018984E+02  9.567085E+02
       280  24  4.907306E+05  6.027847E+01  1.940449E+03 -2.627474E+04  1.483799E+03  3.167224E+03
       280  25  5.138409E+05  5.673935E+03  6.029088E+03 -2.629681E+04  1.807628E+03 -1.255469E+03
       280  26  4.671273E+05 -5.811772E+03 -4.294862E+03 -1.320484E+04  2.388713E+03  9.563091E+02
       280  27  4.204978E+05 -1.721187E+04 -1.422301E+04 -2.629266E+04  2.969668E+03  3.166848E+03
       281   1  6.083669E+05  2.894215E+04  2.992708E+04 -2.614380E+04 -3.866244E+02 -4.460100E+03
       281   2  6.549066E+05  4.037302E+04  4.243017E+04 -1.314928E+04 -2.546467E+03 -6.671797E+03
       281   3  7.019663E+05  5.271988E+04  5.656849E+04 -2.640359E+04 -4.705832E+03 -8.852536E+03
       281   4  4.908246E+05 -3.493794E+01  2.511018E+03 -2.629023E+04 -1.884488E+03 -4.459789E+03
       281   5  4.905646E+05 -1.021309E+02  4.290382E+03 -1.316555E+04 -4.023034E+03 -6.671680E+03
       281   6  4.908199E+05  7.434942E+02  7.690870E+03 -2.629011E+04 -6.160943E+03 -8.852602E+03
       281   7  3.732950E+05 -2.901300E+04 -2.490597E+04 -2.643663E+04 -3.382070E+03 -4.459478E+03
       281   8  3.262475E+05 -4.057918E+04 -3.385121E+04 -1.318180E+04 -5.499213E+03 -6.671564E+03
       281   9  2.797147E+05 -5.123602E+04 -4.118972E+04 -2.617666E+04 -7.615563E+03 -8.852669E+03
       281  10  6.083669E+05  2.894213E+04  2.992704E+04 -2.614381E+04 -7.807900E-11  2.038189E-11
       281  11  6.549066E+05  4.037297E+04  4.243007E+04 -1.314930E+04  1.798572E-10 -1.294851E-10
       281  12  7.019663E+05  5.271979E+04  5.656830E+04 -2.640362E+04 -2.690519E-10  5.470985E-12
       281  13  4.908246E+05 -3.496026E+01  2.510974E+03 -2.629024E+04 -2.082256E-10 -7.676219E-11
       281  14  4.905646E+05 -1.021831E+02  4.290268E+03 -1.316557E+04 -2.250650E-10 -7.743847E-11
       281  15  4.908199E+05  7.433999E+02  7.690651E+03 -2.629015E+04 -1.351328E-10 -4.276240E-11
       281  16  3.732949E+05 -2.901303E+04 -2.490603E+04 -2.643665E+04  1.058492E-10 -1.181536E-10
       281  17  3.262475E+05 -4.057924E+04 -3.385135E+04 -1.318183E+04 -9.966741E-11 -3.712905E-11
       281  18  2.797146E+05 -5.123612E+04 -4.118998E+04 -2.617672E+04  4.435208E-11 -6.162710E-11
       281  19  6.083669E+05  2.894215E+04  2.992708E+04 -2.614380E+04  3.866244E+02  4.460100E+03
       281  20  6.549066E+05  4.037302E+04  4.243017E+04 -1.314928E+04  2.546467E+03  6.671797E+03
       281  21  7.019663E+05  5.271988E+04  5.656849E+04 -2.640359E+04  4.705832E+03  8.852536E+03
       281  22  4.908246E+05 -3.493794E+01  2.511018E+03 -2.629023E+04  1.884488E+03  4.459789E+03
       281  23  4.905646E+05 -1.021309E+02  4.290382E+03 -1.316555E+04  4.023034E+03  6.671680E+03
       281  24  4.908199E+05  7.434942E+02  7.690870E+03 -2.629011E+04  6.160943E+03  8.852602E+03
       281  25  3.732950E+05 -2.901300E+04 -2.490597E+04 -2.643663E+04  3.382070E+03  4.459478E+03
       281  26  3.262475E+05 -4.057918E+04 -3.385121E+04 -1.318180E+04  5.499213E+03  6.671564E+03
       281  27  2.797147E+05 -5.123602E+04 -4.118972E+04 -2.617666E+04  7.615563E+03  8.852669E+03
       282   1  7.502600E+05  6.317790E+04  7.008409E+04 -2.473273E+04 -6.053399E+03 -1.022775E+04
       282   2  7.953692E+05  7.434120E+04  8.793616E+04 -1.389865E+04 -1.509800E+04 -1.237553E+04
       282   3  8.444971E+05  9.659351E+04  1.144578E+05 -2.946170E+04 -2.414257E+04 -1.387702E+04
       282   4  4.915763E+05 -5.525165E+02  9.933699E+03 -2.632271E+04 -7.713124E+03 -1.022797E+04
       282   5  4.895994E+05 -9.625562E+02  1.696377E+04 -1.312471E+04 -1.631923E+04 -1.237610E+04
       282   6  4.915649E+05  9.643560E+03  3.236229E+04 -2.632443E+04 -2.492463E+04 -1.387787E+04
       282   7  2.329542E+05 -6.428764E+04 -5.022119E+04 -2.791203E+04 -9.372162E+03 -1.022818E+04
       282   8  1.839158E+05 -7.627289E+04 -5.401491E+04 -1.235116E+04 -1.753987E+04 -1.237668E+04
       282   9  1.387476E+05 -7.731514E+04 -4.974161E+04 -2.318897E+04 -2.570624E+04 -1.387873E+04
       282  10  7.502599E+05  6.317778E+04  7.008383E+04 -2.473278E+04 -2.329449E-10  5.986811E-11
       282  11  7.953689E+05  7.434098E+04  8.793545E+04 -1.389880E+04  2.226163E-10 -3.858083E-11
       282  12  8.444964E+05  9.659315E+04  1.144563E+05 -2.946197E+04  9.355240E-11  1.273046E-10
       282  13  4.915762E+05 -5.526448E+02  9.933391E+03 -2.632278E+04  2.169444E-10 -5.704240E-11
       282  14  4.895990E+05 -9.627921E+02  1.696298E+04 -1.312487E+04  1.608358E-10 -3.451988E-11
       282  15  4.915642E+05  9.643186E+03  3.236076E+04 -2.632471E+04  3.133335E-10  9.785448E-11
       282  16  2.329541E+05 -6.428777E+04 -5.022155E+04 -2.791210E+04 -2.060077E-10 -1.628376E-10
       282  17  1.839154E+05 -7.627314E+04 -5.401577E+04 -1.235133E+04 -2.649679E-10 -9.941974E-11
       282  18  1.387468E+05 -7.731553E+04 -4.974321E+04 -2.318926E+04 -1.149177E-10  1.194971E-10
       282  19  7.502600E+05  6.317790E+04  7.008409E+04 -2.473273E+04  6.053399E+03  1.022775E+04
       282  20  7.953692E+05  7.434120E+04  8.793616E+04 -1.389865E+04  1.509800E+04  1.237553E+04
       282  21  8.444971E+05  9.659351E+04  1.144578E+05 -2.946170E+04  2.414257E+04  1.387702E+04
       282  22  4.915763E+05 -5.525165E+02  9.933699E+03 -2.632271E+04  7.713124E+03  1.022797E+04
       282  23  4.895994E+05 -9.625562E+02  1.696377E+04 -1.312471E+04  1.631923E+04  1.237610E+04
       282  24  4.915649E+05  9.643560E+03  3.236229E+04 -2.632443E+04  2.492463E+04  1.387787E+04
       282  25  2.329542E+05 -6.428764E+04 -5.022119E+04 -2.791203E+04  9.372162E+03  1.022818E+04
       282  26  1.839158E+05 -7.627289E+04 -5.401491E+04 -1.235116E+04  1.753987E+04  1.237668E+04
       282  27  1.387476E+05 -7.731514E+04 -4.974161E+04 -2.318897E+04  2.570624E+04  1.387873E+04
       283   1  9.001757E+05  9.210632E+04  1.329421E+05 -8.696750E+03 -2.631586E+04 -1.671069E+04
       283   2  9.281520E+05  1.000643E+05  1.701767E+05 -2.762653E+04 -6.990552E+04 -1.741635E+04
       283   3  9.956924E+05  2.430032E+05  2.695404E+05 -7.290423E+04 -1.135078E+05 -5.789957E+03
       283   4  4.991631E+05 -6.621507E+03  4.007467E+04 -2.628945E+04 -3.091359E+04 -1.671225E+04
       283   5  4.800703E+05 -1.032584E+04  6.585676E+04 -1.315738E+04 -6.618645E+04 -1.741680E+04
       283   6  4.991244E+05  1.195570E+05  1.480257E+05 -2.637078E+04 -1.014680E+05 -5.789850E+03
       283   7  9.829956E+04 -1.053595E+05 -5.280334E+04 -4.387072E+04 -3.550837E+04 -1.671355E+04
       283   8  3.217400E+04 -1.207294E+05 -3.847660E+04  1.301243E+03 -6.247004E+04 -1.741708E+04
       283   9  2.785780E+03 -3.899114E+03  2.649470E+04  2.012540E+04 -8.943770E+04 -5.787943E+03
       283  10  9.001749E+05  9.210583E+04  1.329403E+05 -8.697104E+03  2.883611E-10  2.755049E-10
       283  11  9.281467E+05  1.000627E+05  1.701670E+05 -2.762751E+04  8.456258E-11  1.433382E-10
       283  12  9.956786E+05  2.429997E+05  2.695161E+05 -7.290476E+04 -1.056698E-10 -8.386138E-11
       283  13  4.991620E+05 -6.622063E+03  4.007235E+04 -2.628986E+04  2.692288E-10  1.943089E-10
       283  14  4.800655E+05 -1.032734E+04  6.584797E+04 -1.315831E+04 -2.905202E-10 -6.020787E-11
       283  15  4.991134E+05  1.195542E+05  1.480063E+05 -2.637125E+04 -2.514106E-10 -1.147855E-11
       283  16  9.829813E+04 -1.053601E+05 -5.280623E+04 -4.387120E+04 -2.747194E-10  1.643070E-10
       283  17  3.216973E+04 -1.207308E+05 -3.848450E+04  1.300367E+03 -2.134918E-10  3.632924E-10
       283  18  2.777182E+03 -3.901297E+03  2.647960E+04  2.012498E+04 -3.391785E-10  1.799100E-11
       283  19  9.001757E+05  9.210632E+04  1.329421E+05 -8.696750E+03  2.631586E+04  1.671069E+04
       283  20  9.281520E+05  1.000643E+05  1.701767E+05 -2.762653E+04  6.990552E+04  1.741635E+04
       283  21  9.956924E+05  2.430032E+05  2.695404E+05 -7.290423E+04  1.135078E+05  5.789957E+03
       283  22  4.991631E+05 -6.621507E+03  4.007467E+04 -2.628945E+04  3.091359E+04  1.671225E+04
       283  23  4.800703E+05 -1.032584E+04  6.585676E+04 -1.315738E+04  6.618645E+04  1.741680E+04
       283  24  4.991244E+05  1.195570E+05  1.480257E+05 -2.637078E+04  1.014680E+05  5.789850E+03
       283  25  9.829956E+04 -1.053595E+05 -5.280334E+04 -4.387072E+04  3.550837E+04  1.671355E+04
       283  26  3.217400E+04 -1.207294E+05 -3.847660E+04  1.301243E+03  6.247004E+04  1.741708E+04
       283  27  2.785780E+03 -3.899114E+03  2.649470E+04  2.012540E+04  8.943770E+04  5.787943E+03
       284   1  1.308575E+05  8.352096E+05  1.429958E+05 -7.289676E+04  2.872814E+03  5.487936E+04
       284   2  4.631416E+04  7.369755E+05  7.902322E+04 -3.288042E+04  7.836284E+03  3.298630E+04
       284   3  2.614497E+04  6.575327E+05  4.535569E+04 -4.232920E+04  4.728093E+03  1.108445E+04
       284   4  5.695572E+04  5.386475E+05  7.019058E+04 -5.039268E+04  2.883402E+03  4.883432E+04
       284   5 -4.795468E+03  5.297339E+05  3.069542E+04 -2.570350E+04  7.837736E+03  3.237785E+04
       284   6 -3.102578E+03  5.386721E+05  1.774343E+04 -5.047825E+04  4.720290E+03  1.590943E+04
       284   7 -1.695071E+04  2.421665E+05 -2.620659E+03 -2.789933E+04  2.893555E+03  4.279216E+04
       284   8 -5.590795E+04  3.225320E+05 -1.763526E+04 -1.852896E+04  7.839174E+03  3.176961E+04
       284   9 -3.235086E+04  4.198248E+05 -9.869650E+03 -5.862572E+04  4.712360E+03  2.073349E+04
       284  10  1.308567E+05  8.352063E+05  1.429901E+05 -7.289689E+04 -3.111686E-11 -1.177008E-10
       284  11  4.631381E+04  7.369743E+05  7.902106E+04 -3.288063E+04 -3.530244E-10  7.833996E-11
       284  12  2.614492E+04  6.575326E+05  4.535542E+04 -4.232925E+04  1.092366E-09  2.430778E-10
       284  13  5.695507E+04  5.386449E+05  7.018608E+04 -5.039279E+04  7.687724E-10 -1.258338E-10
       284  14 -4.795815E+03  5.297328E+05  3.069333E+04 -2.570370E+04 -1.268447E-09  2.032437E-10
       284  15 -3.102670E+03  5.386719E+05  1.774292E+04 -5.047831E+04  6.771442E-10  5.604254E-11
       284  16 -1.695122E+04  2.421645E+05 -2.624114E+03 -2.789942E+04  5.286604E-11  9.024233E-11
       284  17 -5.590828E+04  3.225309E+05 -1.763727E+04 -1.852916E+04  1.266322E-10 -6.084823E-12
       284  18 -3.235100E+04  4.198243E+05 -9.870499E+03 -5.862580E+04  1.252669E-10 -2.575419E-10
       284  19  1.308575E+05  8.352096E+05  1.429958E+05 -7.289676E+04 -2.872814E+03 -5.487936E+04
       284  20  4.631416E+04  7.369755E+05  7.902322E+04 -3.288042E+04 -7.836284E+03 -3.298630E+04
       284  21  2.614497E+04  6.575327E+05  4.535569E+04 -4.232920E+04 -4.728093E+03 -1.108445E+04
       284  22  5.695572E+04  5.386475E+05  7.019058E+04 -5.039268E+04 -2.883402E+03 -4.883432E+04
       284  23 -4.795468E+03  5.297339E+05  3.069542E+04 -2.570350E+04 -7.837736E+03 -3.237785E+04
       284  24 -3.102578E+03  5.386721E+05  1.774343E+04 -5.047825E+04 -4.720290E+03 -1.590943E+04
       284  25 -1.695071E+04  2.421665E+05 -2.620659E+03 -2.789933E+04 -2.893555E+03 -4.279216E+04
       284  26 -5.590795E+04  3.225320E+05 -1.763526E+04 -1.852896E+04 -7.839174E+03 -3.176961E+04
       284  27 -3.235086E+04  4.198248E+05 -9.869650E+03 -5.862572E+04 -4.712360E+03 -2.073349E+04
       285   1  1.196926E+04  5.638270E+05  2.032681E+04 -5.177146E+04  1.209113E+03  1.082313E+04
       285   2 -1.492801E+04  4.746350E+05 -8.877866E+03 -2.610086E+04 -2.431723E+03  8.378324E+03
       285   3 -3.840320E+04  3.864377E+05 -3.567904E+04 -5.013976E+04 -5.923532E+03  5.934478E+03
       285   4  4.851425E+03  5.349287E+05  1.364249E+04 -5.050181E+04  1.205090E+03  1.332429E+04
       285   5 -2.021163E+02  5.344260E+05  5.003096E+03 -2.565249E+04 -2.435475E+03  1.077958E+04
       285   6 -1.815527E+03  5.349290E+05 -1.162200E+03 -5.051227E+04 -5.927038E+03  8.235482E+03
       285   7 -2.266463E+03  5.060311E+05  6.958128E+03 -4.923221E+04  1.201076E+03  1.582534E+04
       285   8  1.452353E+04  5.942204E+05  1.888384E+04 -2.520408E+04 -2.439223E+03  1.318106E+04
       285   9  3.477060E+04  6.834406E+05  3.335317E+04 -5.088485E+04 -5.930547E+03  1.053703E+04
       285  10  1.196923E+04  5.638269E+05  2.032659E+04 -5.177147E+04  3.475103E-10 -3.949740E-10
       285  11 -1.492803E+04  4.746349E+05 -8.878008E+03 -2.610085E+04  2.907569E-10 -2.352134E-10
       285  12 -3.840325E+04  3.864376E+05 -3.567917E+04 -5.013973E+04 -7.641085E-10  7.334633E-11
       285  13  4.851375E+03  5.349285E+05  1.364215E+04 -5.050182E+04  3.705159E-10  1.013478E-10
       285  14 -2.021538E+02  5.344259E+05  5.002867E+03 -2.565247E+04  1.110223E-09 -1.020012E-10
       285  15 -1.815583E+03  5.349289E+05 -1.162393E+03 -5.051223E+04  1.122240E-09 -1.512634E-10
       285  16 -2.266532E+03  5.060308E+05  6.957655E+03 -4.923223E+04 -3.852758E-13  5.096602E-10
       285  17  1.452348E+04  5.942202E+05  1.888350E+04 -2.520405E+04 -9.882395E-10  3.006003E-10
       285  18  3.477053E+04  6.834405E+05  3.335290E+04 -5.088480E+04 -4.326621E-10 -6.388895E-11
       285  19  1.196926E+04  5.638270E+05  2.032681E+04 -5.177146E+04 -1.209113E+03 -1.082313E+04
       285  20 -1.492801E+04  4.746350E+05 -8.877866E+03 -2.610086E+04  2.431723E+03 -8.378324E+03
       285  21 -3.840320E+04  3.864377E+05 -3.567904E+04 -5.013976E+04  5.923532E+03 -5.934478E+03
       285  22  4.851425E+03  5.349287E+05  1.364249E+04 -5.050181E+04 -1.205090E+03 -1.332429E+04
       285  23 -2.021163E+02  5.344260E+05  5.003096E+03 -2.565249E+04  2.435475E+03 -1.077958E+04
       285  24 -1.815527E+03  5.349290E+05 -1.162200E+03 -5.051227E+04  5.927038E+03 -8.235482E+03
       285  25 -2.266463E+03  5.060311E+05  6.958128E+03 -4.923221E+04 -1.201076E+03 -1.582534E+04
       285  26  1.452353E+04  5.942204E+05  1.888384E+04 -2.520408E+04  2.439223E+03 -1.318106E+04
       285  27  3.477060E+04  6.834406E+05  3.335317E+04 -5.088485E+04  5.930547E+03 -1.053703E+04
       286   1 -5.710405E+04  2.947244E+05 -5.898607E+04 -4.716066E+04 -9.774760E+03  3.030246E+03
       286   2 -7.879485E+04  2.095452E+05 -8.624976E+04 -2.792172E+04 -1.258504E+04  1.580982E+04
       286   3 -1.246582E+05  1.165757E+05 -1.278962E+05 -5.822343E+04 -4.457982E+03  2.860112E+04
       286   4  1.656618E+03  5.332468E+05 -3.654285E+03 -5.046201E+04 -9.782928E+03  8.585395E+03
       286   5  1.804336E+03  5.365022E+05 -1.004107E+04 -2.570633E+04 -1.258211E+04  1.401609E+04
       286   6 -2.093792E+04  5.332386E+05 -2.570492E+04 -5.049060E+04 -4.446273E+03  1.946056E+04
       286   7  6.041334E+04  7.718218E+05  5.167380E+04 -5.376462E+04 -9.791154E+03  1.414266E+04
       286   8  8.239599E+04  8.635577E+05  6.616039E+04 -2.348973E+04 -1.257919E+04  1.222143E+04
       286   9  8.276979E+04  9.500599E+05  7.647396E+04 -4.275253E+04 -4.434795E+03  1.031388E+04
       286  10 -5.710416E+04  2.947244E+05 -5.898627E+04 -4.716063E+04  2.767417E-11 -8.952663E-11
       286  11 -7.879509E+04  2.095449E+05 -8.625052E+04 -2.792156E+04  3.522617E-10 -3.890236E-11
       286  12 -1.246585E+05  1.165748E+05 -1.278977E+05 -5.822332E+04 -1.908305E-10  1.045166E-10
       286  13  1.656495E+03  5.332467E+05 -3.654604E+03 -5.046194E+04 -1.040203E-09  9.644329E-11
       286  14  1.804113E+03  5.365019E+05 -1.004174E+04 -2.570619E+04  5.432177E-10 -9.704979E-11
       286  15 -2.093804E+04  5.332382E+05 -2.570566E+04 -5.049054E+04 -2.816245E-10  2.886138E-11
       286  16  6.041318E+04  7.718215E+05  5.167325E+04 -5.376451E+04  2.284921E-10 -3.965224E-11
       286  17  8.239578E+04  8.635575E+05  6.615982E+04 -2.348961E+04  1.905370E-11 -1.107206E-10
       286  18  8.276974E+04  9.500598E+05  7.647373E+04 -4.275249E+04 -4.688296E-10 -4.520763E-11
       286  19 -5.710405E+04  2.947244E+05 -5.898607E+04 -4.716066E+04  9.774760E+03 -3.030246E+03
       286  20 -7.879485E+04  2.095452E+05 -8.624976E+04 -2.792172E+04  1.258504E+04 -1.580982E+04
       286  21 -1.246582E+05  1.165757E+05 -1.278962E+05 -5.822343E+04  4.457982E+03 -2.860112E+04
       286  22  1.656618E+03  5.332468E+05 -3.654285E+03 -5.046201E+04  9.782928E+03 -8.585395E+03
       286  23  1.804336E+03  5.365022E+05 -1.004107E+04 -2.570633E+04  1.258211E+04 -1.401609E+04
       286  24 -2.093792E+04  5.332386E+05 -2.570492E+04 -5.049060E+04  4.446273E+03 -1.946056E+04
       286  25  6.041334E+04  7.718218E+05  5.167380E+04 -5.376462E+04  9.791154E+03 -1.414266E+04
       286  26  8.239599E+04  8.635577E+05  6.616039E+04 -2.348973E+04  1.257919E+04 -1.222143E+04
       286  27  8.276979E+04  9.500599E+05  7.647396E+04 -4.275253E+04  4.434795E+03 -1.031388E+04
       287   1 -8.286271E+05 -3.569934E+05 -2.535522E+05 -2.869251E+05 -1.077236E+05 -3.520545E+04
       287   2 -7.951702E+05 -1.992867E+05 -1.543815E+05 -2.887609E+05 -7.017971E+04 -1.002618E+04
       287   3 -8.056732E+05 -1.820713E+05 -1.215014E+05 -2.690331E+05 -2.890988E+04  5.261529E+03
       287   4 -4.836903E+05 -1.852260E+05 -1.522331E+05 -1.501393E+05 -9.856772E+04 -3.176849E+04
       287   5 -4.542619E+05 -5.867936E+04 -6.444854E+04 -1.823337E+05 -6.722409E+04 -8.916724E+03
       287   6 -4.675365E+05 -7.135460E+04 -3.801101E+04 -1.929736E+05 -3.215617E+04  4.041189E+03
       287   7 -1.386357E+05 -1.342375E+04 -5.092585E+04 -1.327688E+04 -8.940635E+04 -2.832789E+04
       287   8 -1.132403E+05  8.194204E+04  2.547428E+04 -7.585126E+04 -6.426670E+04 -7.806442E+03
       287   9 -1.292874E+05  3.936352E+04  4.547115E+04 -1.168793E+05 -3.540441E+04  2.820328E+03
       287  10 -8.286399E+05 -3.569978E+05 -2.535764E+05 -2.869282E+05  7.772309E-10  4.656360E-13
       287  11 -7.951755E+05 -1.992881E+05 -1.543910E+05 -2.887615E+05 -6.818297E-10 -2.099642E-10
       287  12 -8.056742E+05 -1.820715E+05 -1.215031E+05 -2.690330E+05  1.307184E-10 -2.732951E-10
       287  13 -4.837010E+05 -1.852296E+05 -1.522533E+05 -1.501418E+05  7.205888E-10 -5.929044E-11
       287  14 -4.542668E+05 -5.868066E+04 -6.445719E+04 -1.823342E+05 -2.540345E-10 -2.487153E-10
       287  15 -4.675376E+05 -7.135489E+04 -3.801298E+04 -1.929735E+05  3.205516E-11 -1.085343E-10
       287  16 -1.386445E+05 -1.342676E+04 -5.094238E+04 -1.327892E+04  6.417118E-10 -1.500502E-10
       287  17 -1.132447E+05  8.194087E+04  2.546640E+04 -7.585166E+04  6.945998E-11 -2.144856E-10
       287  18 -1.292888E+05  3.936318E+04  4.546878E+04 -1.168792E+05  1.334932E-10  1.655168E-11
       287  19 -8.286271E+05 -3.569934E+05 -2.535522E+05 -2.869251E+05  1.077236E+05  3.520545E+04
       287  20 -7.951702E+05 -1.992867E+05 -1.543815E+05 -2.887609E+05  7.017971E+04  1.002618E+04
       287  21 -8.056732E+05 -1.820713E+05 -1.215014E+05 -2.690331E+05  2.890988E+04 -5.261529E+03
       287  22 -4.836903E+05 -1.852260E+05 -1.522331E+05 -1.501393E+05  9.856772E+04  3.176849E+04
       287  23 -4.542619E+05 -5.867936E+04 -6.444854E+04 -1.823337E+05  6.722409E+04  8.916724E+03
       287  24 -4.675365E+05 -7.135460E+04 -3.801101E+04 -1.929736E+05  3.215617E+04 -4.041189E+03
       287  25 -1.386357E+05 -1.342375E+04 -5.092585E+04 -1.327688E+04  8.940635E+04  2.832789E+04
       287  26 -1.132403E+05  8.194204E+04  2.547428E+04 -7.585126E+04  6.426670E+04  7.806442E+03
       287  27 -1.292874E+05  3.936352E+04  4.547115E+04 -1.168793E+05  3.540441E+04 -2.820328E+03
       288   1 -7.603657E+05 -2.005409E+05 -1.077652E+05 -2.694121E+05 -2.603090E+04  4.080209E+03
       288   2 -7.394139E+05 -1.734947E+05 -8.575037E+04 -2.577859E+05 -1.764894E+04  6.541181E+03
       288   3 -7.130198E+05 -1.686784E+05 -7.291270E+04 -2.557121E+05 -9.050566E+03  8.425714E+03
       288   4 -4.625364E+05 -8.572098E+04 -3.063182E+04 -1.846974E+05 -2.623684E+04  4.002161E+03
       288   5 -4.645916E+05 -6.969234E+04 -1.515607E+04 -1.817798E+05 -1.821352E+04  6.328611E+03
       288   6 -4.611314E+05 -7.581902E+04 -8.569689E+03 -1.884151E+05 -9.974138E+03  8.078557E+03
       288   7 -1.646216E+05  2.910558E+04  4.649387E+04 -9.994568E+04 -2.644289E+04  3.924072E+03
       288   8 -1.896957E+05  3.411519E+04  5.543202E+04 -1.057431E+05 -1.877838E+04  6.115937E+03
       288   9 -2.091804E+05  1.704419E+04  5.576842E+04 -1.210934E+05 -1.089812E+04  7.731251E+03
       288  10 -7.603664E+05 -2.005411E+05 -1.077665E+05 -2.694120E+05 -3.173773E-10 -6.481580E-11
       288  11 -7.394143E+05 -1.734949E+05 -8.575104E+04 -2.577859E+05 -9.035290E-10  5.317203E-11
       288  12 -7.130199E+05 -1.686785E+05 -7.291299E+04 -2.557121E+05  1.693244E-10 -3.236295E-11
       288  13 -4.625371E+05 -8.572118E+04 -3.063315E+04 -1.846973E+05 -3.053629E-10  4.637126E-12
       288  14 -4.645920E+05 -6.969248E+04 -1.515677E+04 -1.817797E+05  7.502130E-11  1.106501E-10
       288  15 -4.611315E+05 -7.581912E+04 -8.569998E+03 -1.884151E+05 -6.501071E-10 -3.114544E-11
       288  16 -1.646224E+05  2.910537E+04  4.649252E+04 -9.994559E+04 -1.989872E-10  1.234865E-10
       288  17 -1.896960E+05  3.411506E+04  5.543128E+04 -1.057430E+05  9.589750E-11  5.260707E-11
       288  18 -2.091805E+05  1.704410E+04  5.576808E+04 -1.210933E+05 -6.560459E-11 -9.296573E-11
       288  19 -7.603657E+05 -2.005409E+05 -1.077652E+05 -2.694121E+05  2.603090E+04 -4.080209E+03
       288  20 -7.394139E+05 -1.734947E+05 -8.575037E+04 -2.577859E+05  1.764894E+04 -6.541181E+03
       288  21 -7.130198E+05 -1.686784E+05 -7.291270E+04 -2.557121E+05  9.050566E+03 -8.425714E+03
       288  22 -4.625364E+05 -8.572098E+04 -3.063182E+04 -1.846974E+05  2.623684E+04 -4.002161E+03
       288  23 -4.645916E+05 -6.969234E+04 -1.515607E+04 -1.817798E+05  1.821352E+04 -6.328611E+03
       288  24 -4.611314E+05 -7.581902E+04 -8.569689E+03 -1.884151E+05  9.974138E+03 -8.078557E+03
       288  25 -1.646216E+05  2.910558E+04  4.649387E+04 -9.994568E+04  2.644289E+04 -3.924072E+03
       288  26 -1.896957E+05  3.411519E+04  5.543202E+04 -1.057431E+05  1.877838E+04 -6.115937E+03
       288  27 -2.091804E+05  1.704419E+04  5.576842E+04 -1.210934E+05  1.089812E+04 -7.731251E+03
       289   1 -6.844795E+05 -1.610869E+05 -6.394728E+04 -2.490791E+05 -7.706372E+03  8.021051E+03
       289   2 -6.646485E+05 -1.452031E+05 -5.450346E+04 -2.360958E+05 -5.455490E+03  7.481279E+03
       289   3 -6.344865E+05 -1.412399E+05 -4.665819E+04 -2.353954E+05 -3.190565E+03  6.902772E+03
       289   4 -4.605538E+05 -7.706316E+04 -6.611753E+03 -1.876981E+05 -8.458402E+03  7.738419E+03
       289   5 -4.656600E+05 -7.068151E+04 -3.516173E+03 -1.817151E+05 -6.231191E+03  7.189917E+03
       289   6 -4.604311E+05 -7.621527E+04 -1.999841E+03 -1.880149E+05 -3.990022E+03  6.602658E+03
       289   7 -2.365793E+05  6.963806E+03  5.071966E+04 -1.262970E+05 -9.210729E+03  7.455674E+03
       289   8 -2.666334E+05  3.842392E+03  4.746777E+04 -1.273188E+05 -7.007163E+03  6.898453E+03
       289   9 -2.863468E+05 -1.118898E+04  4.265584E+04 -1.406226E+05 -4.789722E+03  6.302455E+03
       289  10 -6.844796E+05 -1.610870E+05 -6.394751E+04 -2.490791E+05  1.493484E-10 -1.877877E-10
       289  11 -6.646485E+05 -1.452031E+05 -5.450362E+04 -2.360958E+05 -1.109231E-10  1.675406E-10
       289  12 -6.344865E+05 -1.412400E+05 -4.665829E+04 -2.353954E+05  1.245282E-10  5.345671E-11
       289  13 -4.605539E+05 -7.706325E+04 -6.612000E+03 -1.876980E+05  1.552331E-10 -5.822533E-11
       289  14 -4.656601E+05 -7.068158E+04 -3.516343E+03 -1.817151E+05  7.498028E-11  1.496422E-10
       289  15 -4.604311E+05 -7.621532E+04 -1.999953E+03 -1.880149E+05 -1.566473E-10 -1.004367E-11
       289  16 -2.365795E+05  6.963724E+03  5.071940E+04 -1.262970E+05  1.582819E-10  1.711790E-11
       289  17 -2.666334E+05  3.842328E+03  4.746758E+04 -1.273188E+05 -1.968148E-12  1.468378E-10
       289  18 -2.863468E+05 -1.118903E+04  4.265572E+04 -1.406226E+05  2.141287E-11 -1.277284E-10
       289  19 -6.844795E+05 -1.610869E+05 -6.394728E+04 -2.490791E+05  7.706372E+03 -8.021051E+03
       289  20 -6.646485E+05 -1.452031E+05 -5.450346E+04 -2.360958E+05  5.455490E+03 -7.481279E+03
       289  21 -6.344865E+05 -1.412399E+05 -4.665819E+04 -2.353954E+05  3.190565E+03 -6.902772E+03
       289  22 -4.605538E+05 -7.706316E+04 -6.611753E+03 -1.876981E+05  8.458402E+03 -7.738419E+03
       289  23 -4.656600E+05 -7.068151E+04 -3.516173E+03 -1.817151E+05  6.231191E+03 -7.189917E+03
       289  24 -4.604311E+05 -7.621527E+04 -1.999841E+03 -1.880149E+05  3.990022E+03 -6.602658E+03
       289  25 -2.365793E+05  6.963806E+03  5.071966E+04 -1.262970E+05  9.210729E+03 -7.455674E+03
       289  26 -2.666334E+05  3.842392E+03  4.746777E+04 -1.273188E+05  7.007163E+03 -6.898453E+03
       289  27 -2.863468E+05 -1.118898E+04  4.265584E+04 -1.406226E+05  4.789722E+03 -6.302455E+03
       290   1 -6.071916E+05 -1.312859E+05 -3.908348E+04 -2.280828E+05 -2.629843E+03  6.271537E+03
       290   2 -5.873320E+05 -1.162261E+05 -3.209440E+04 -2.148629E+05 -1.672897E+03  5.191197E+03
       290   3 -5.565445E+05 -1.122774E+05 -2.548697E+04 -2.142505E+05 -7.142470E+02  4.105461E+03
       290   4 -4.603396E+05 -7.633598E+04 -1.554687E+03 -1.879738E+05 -3.421550E+03  5.974417E+03
       290   5 -4.657975E+05 -7.074566E+04 -9.613538E+02 -1.816827E+05 -2.467876E+03  4.892945E+03
       290   6 -4.603279E+05 -7.626586E+04 -7.471259E+02 -1.879993E+05 -1.512521E+03  3.806073E+03
       290   7 -3.134661E+05 -2.138448E+04  3.597250E+04 -1.478560E+05 -4.213465E+03  5.677220E+03
       290   8 -3.442483E+05 -2.526420E+04  3.017055E+04 -1.484966E+05 -3.263027E+03  4.594629E+03
       290   9 -3.641023E+05 -4.025371E+04  2.399196E+04 -1.617444E+05 -2.310931E+03  3.506633E+03
       290  10 -6.071916E+05 -1.312859E+05 -3.908356E+04 -2.280828E+05 -2.621988E-10 -1.232315E-10
       290  11 -5.873321E+05 -1.162261E+05 -3.209445E+04 -2.148629E+05  1.232165E-10  1.099126E-10
       290  12 -5.565445E+05 -1.122774E+05 -2.548700E+04 -2.142505E+05  9.425494E-11 -1.017923E-10
       290  13 -4.603397E+05 -7.633602E+04 -1.554776E+03 -1.879738E+05  1.040912E-10  6.039960E-11
       290  14 -4.657975E+05 -7.074569E+04 -9.614102E+02 -1.816827E+05  6.251439E-11  3.704488E-11
       290  15 -4.603279E+05 -7.626588E+04 -7.471574E+02 -1.879993E+05  1.764155E-10 -1.817327E-10
       290  16 -3.134661E+05 -2.138452E+04  3.597240E+04 -1.478560E+05  2.809315E-10 -7.975640E-11
       290  17 -3.442483E+05 -2.526423E+04  3.017049E+04 -1.484966E+05 -2.602417E-10  2.107750E-12
       290  18 -3.641024E+05 -4.025373E+04  2.399192E+04 -1.617444E+05 -6.539279E-11 -9.097122E-11
       290  19 -6.071916E+05 -1.312859E+05 -3.908348E+04 -2.280828E+05  2.629843E+03 -6.271537E+03
       290  20 -5.873320E+05 -1.162261E+05 -3.209440E+04 -2.148629E+05  1.672897E+03 -5.191197E+03
       290  21 -5.565445E+05 -1.122774E+05 -2.548697E+04 -2.142505E+05  7.142470E+02 -4.105461E+03
       290  22 -4.603396E+05 -7.633598E+04 -1.554687E+03 -1.879738E+05  3.421550E+03 -5.974417E+03
       290  23 -4.657975E+05 -7.074566E+04 -9.613538E+02 -1.816827E+05  2.467876E+03 -4.892945E+03
       290  24 -4.603279E+05 -7.626586E+04 -7.471259E+02 -1.879993E+05  1.512521E+03 -3.806073E+03
       290  25 -3.134661E+05 -2.138448E+04  3.597250E+04 -1.478560E+05  4.213465E+03 -5.677220E+03
       290  26 -3.442483E+05 -2.526420E+04  3.017055E+04 -1.484966E+05  3.263027E+03 -4.594629E+03
       290  27 -3.641023E+05 -4.025371E+04  2.399196E+04 -1.617444E+05  2.310931E+03 -3.506633E+03
       291   1 -5.292074E+05 -1.020560E+05 -1.829780E+04 -2.068416E+05 -3.125937E+02  3.412453E+03
       291   2 -5.092381E+05 -8.698726E+04 -1.205703E+04 -1.935314E+05  6.291975E+02  2.315438E+03
       291   3 -4.782937E+05 -8.308217E+04 -6.185944E+03 -1.929008E+05  1.570990E+03  1.218103E+03
       291   4 -4.603165E+05 -7.627982E+04 -7.426857E+02 -1.880140E+05 -1.111886E+03  3.112728E+03
       291   5 -4.658073E+05 -7.072517E+04 -9.302658E+02 -1.816638E+05 -1.702673E+02  2.015684E+03
       291   6 -4.603238E+05 -7.633415E+04 -1.487365E+03 -1.879934E+05  7.713337E+02  9.183127E+02
       291   7 -3.914213E+05 -5.050346E+04  1.681198E+04 -1.691845E+05 -1.911272E+03  2.812968E+03
       291   8 -4.223748E+05 -5.446296E+04  1.019635E+04 -1.697954E+05 -9.697934E+02  1.715906E+03
       291   9 -4.423535E+05 -6.958608E+04  3.211208E+03 -1.830859E+05 -2.835116E+01  6.185115E+02
       291  10 -5.292074E+05 -1.020560E+05 -1.829782E+04 -2.068416E+05 -2.555012E-10 -3.131701E-10
       291  11 -5.092381E+05 -8.698726E+04 -1.205704E+04 -1.935314E+05 -2.435081E-10  1.308099E-10
       291  12 -4.782937E+05 -8.308217E+04 -6.185951E+03 -1.929008E+05  1.420958E-10  8.378728E-11
       291  13 -4.603165E+05 -7.627983E+04 -7.427063E+02 -1.880140E+05 -1.952968E-10 -1.684965E-10
       291  14 -4.658073E+05 -7.072517E+04 -9.302734E+02 -1.816638E+05 -2.877234E-10  8.445284E-12
       291  15 -4.603238E+05 -7.633415E+04 -1.487367E+03 -1.879934E+05  4.013173E-11 -1.017176E-10
       291  16 -3.914213E+05 -5.050347E+04  1.681196E+04 -1.691845E+05  4.114439E-10  6.567651E-11
       291  17 -4.223748E+05 -5.446297E+04  1.019634E+04 -1.697954E+05 -2.827385E-10 -7.043686E-11
       291  18 -4.423535E+05 -6.958608E+04  3.211207E+03 -1.830859E+05 -1.887162E-10 -1.746839E-10
       291  19 -5.292074E+05 -1.020560E+05 -1.829780E+04 -2.068416E+05  3.125937E+02 -3.412453E+03
       291  20 -5.092381E+05 -8.698726E+04 -1.205703E+04 -1.935314E+05 -6.291975E+02 -2.315438E+03
       291  21 -4.782937E+05 -8.308217E+04 -6.185944E+03 -1.929008E+05 -1.570990E+03 -1.218103E+03
       291  22 -4.603165E+05 -7.627982E+04 -7.426857E+02 -1.880140E+05  1.111886E+03 -3.112728E+03
       291  23 -4.658073E+05 -7.072517E+04 -9.302658E+02 -1.816638E+05  1.702673E+02 -2.015684E+03
       291  24 -4.603238E+05 -7.633415E+04 -1.487365E+03 -1.879934E+05 -7.713337E+02 -9.183127E+02
       291  25 -3.914213E+05 -5.050346E+04  1.681198E+04 -1.691845E+05  1.911272E+03 -2.812968E+03
       291  26 -4.223748E+05 -5.446296E+04  1.019635E+04 -1.697954E+05  9.697934E+02 -1.715906E+03
       291  27 -4.423535E+05 -6.958608E+04  3.211208E+03 -1.830859E+05  2.835116E+01 -6.185115E+02
       292   1 -4.508731E+05 -7.281575E+04  5.943719E+02 -1.856220E+05  2.134788E+03  5.811937E+02
       292   2 -4.308176E+05 -5.756944E+04  5.590159E+03 -1.721324E+05  4.284053E+03 -6.266017E+01
       292   3 -4.002662E+05 -5.436119E+04  9.084130E+03 -1.711534E+05  6.425890E+03 -6.863256E+02
       292   4 -4.603909E+05 -7.624609E+04 -1.910298E+03 -1.880619E+05  1.329180E+03  2.791740E+02
       292   5 -4.656938E+05 -7.062325E+04 -3.343979E+03 -1.816577E+05  3.491014E+03 -3.599976E+02
       292   6 -4.605038E+05 -7.704106E+04 -6.289461E+03 -1.877644E+05  5.645341E+03 -9.790062E+02
       292   7 -4.699085E+05 -7.967642E+04 -4.414972E+03 -1.905018E+05  5.235853E+02 -2.284100E+01
       292   8 -5.005687E+05 -8.367697E+04 -1.227820E+04 -1.911825E+05  2.698025E+03 -6.573161E+02
       292   9 -5.207377E+05 -9.972061E+04 -2.166328E+04 -2.043738E+05  4.864877E+03 -1.271654E+03
       292  10 -4.508731E+05 -7.281575E+04  5.943627E+02 -1.856220E+05 -9.121615E-11 -1.108394E-10
       292  11 -4.308176E+05 -5.756944E+04  5.590124E+03 -1.721324E+05 -5.505119E-11 -2.097921E-11
       292  12 -4.002662E+05 -5.436120E+04  9.084051E+03 -1.711534E+05 -3.296317E-10 -1.931064E-12
       292  13 -4.603909E+05 -7.624609E+04 -1.910301E+03 -1.880619E+05 -9.771823E-11 -2.334155E-11
       292  14 -4.656938E+05 -7.062326E+04 -3.344002E+03 -1.816577E+05 -7.741025E-11  2.723948E-10
       292  15 -4.605038E+05 -7.704107E+04 -6.289523E+03 -1.877644E+05 -1.013579E-10 -4.845332E-11
       292  16 -4.699085E+05 -7.967642E+04 -4.414973E+03 -1.905018E+05 -2.243006E-10 -1.015126E-10
       292  17 -5.005687E+05 -8.367697E+04 -1.227821E+04 -1.911825E+05 -1.094087E-10  7.015719E-11
       292  18 -5.207377E+05 -9.972062E+04 -2.166333E+04 -2.043738E+05  2.394163E-10  1.179142E-10
       292  19 -4.508731E+05 -7.281575E+04  5.943719E+02 -1.856220E+05 -2.134788E+03 -5.811937E+02
       292  20 -4.308176E+05 -5.756944E+04  5.590159E+03 -1.721324E+05 -4.284053E+03  6.266017E+01
       292  21 -4.002662E+05 -5.436119E+04  9.084130E+03 -1.711534E+05 -6.425890E+03  6.863256E+02
       292  22 -4.603909E+05 -7.624609E+04 -1.910298E+03 -1.880619E+05 -1.329180E+03 -2.791740E+02
       292  23 -4.656938E+05 -7.062325E+04 -3.343979E+03 -1.816577E+05 -3.491014E+03  3.599976E+02
       292  24 -4.605038E+05 -7.704106E+04 -6.289461E+03 -1.877644E+05 -5.645341E+03  9.790062E+02
       292  25 -4.699085E+05 -7.967642E+04 -4.414972E+03 -1.905018E+05 -5.235853E+02  2.284100E+01
       292  26 -5.005687E+05 -8.367697E+04 -1.227820E+04 -1.911825E+05 -2.698025E+03  6.573161E+02
       292  27 -5.207377E+05 -9.972061E+04 -2.166328E+04 -2.043738E+05 -4.864877E+03  1.271654E+03
       293   1 -3.723021E+05 -4.410248E+04  1.439201E+04 -1.657362E+05  7.979627E+03 -9.965684E+02
       293   2 -3.522417E+05 -2.678307E+04  1.454685E+04 -1.501745E+05  1.564398E+04  4.705630E+02
       293   3 -3.261408E+05 -3.130796E+04  6.404818E+03 -1.446640E+05  2.318192E+04  2.276704E+03
       293   4 -4.610328E+05 -7.588296E+04 -8.152203E+03 -1.884732E+05  7.096712E+03 -1.327651E+03
       293   5 -4.646956E+05 -6.964380E+04 -1.440710E+04 -1.816838E+05  1.497276E+04  2.187308E+02
       293   6 -4.623618E+05 -8.529285E+04 -2.912811E+04 -1.849461E+05  2.272207E+04  2.103977E+03
       293   7 -5.497562E+05 -1.076632E+05 -3.069714E+04 -2.112075E+05  6.213932E+03 -1.658688E+03
       293   8 -5.771374E+05 -1.125037E+05 -4.336216E+04 -2.131879E+05  1.430166E+04 -3.304987E+01
       293   9 -5.985648E+05 -1.392760E+05 -6.466261E+04 -2.252200E+05  2.226233E+04  1.931297E+03
       293  10 -3.723021E+05 -4.410250E+04  1.439189E+04 -1.657362E+05 -9.730867E-11 -1.592798E-12
       293  11 -3.522420E+05 -2.678314E+04  1.454639E+04 -1.501745E+05  3.168625E-10 -1.120625E-10
       293  12 -3.261413E+05 -3.130811E+04  6.403798E+03 -1.446640E+05 -1.435963E-10 -1.676554E-11
       293  13 -4.610328E+05 -7.588298E+04 -8.152301E+03 -1.884732E+05  2.471704E-10 -1.860277E-11
       293  14 -4.646959E+05 -6.964386E+04 -1.440752E+04 -1.816838E+05 -9.847864E-11 -1.513792E-10
       293  15 -4.623624E+05 -8.529300E+04 -2.912909E+04 -1.849461E+05  1.054466E-10 -5.660062E-12
       293  16 -5.497562E+05 -1.076632E+05 -3.069722E+04 -2.112075E+05  8.346985E-11 -9.714204E-12
       293  17 -5.771376E+05 -1.125037E+05 -4.336254E+04 -2.131879E+05  1.985245E-10  1.302546E-10
       293  18 -5.985653E+05 -1.392761E+05 -6.466355E+04 -2.252201E+05  2.715516E-10  9.561888E-11
       293  19 -3.723021E+05 -4.410248E+04  1.439201E+04 -1.657362E+05 -7.979627E+03  9.965684E+02
       293  20 -3.522417E+05 -2.678307E+04  1.454685E+04 -1.501745E+05 -1.564398E+04 -4.705630E+02
       293  21 -3.261408E+05 -3.130796E+04  6.404818E+03 -1.446640E+05 -2.318192E+04 -2.276704E+03
       293  22 -4.610328E+05 -7.588296E+04 -8.152203E+03 -1.884732E+05 -7.096712E+03  1.327651E+03
       293  23 -4.646956E+05 -6.964380E+04 -1.440710E+04 -1.816838E+05 -1.497276E+04 -2.187308E+02
       293  24 -4.623618E+05 -8.529285E+04 -2.912811E+04 -1.849461E+05 -2.272207E+04 -2.103977E+03
       293  25 -5.497562E+05 -1.076632E+05 -3.069714E+04 -2.112075E+05 -6.213932E+03  1.658688E+03
       293  26 -5.771374E+05 -1.125037E+05 -4.336216E+04 -2.131879E+05 -1.430166E+04  3.304987E+01
       293  27 -5.985648E+05 -1.392760E+05 -6.466261E+04 -2.252200E+05 -2.226233E+04 -1.931297E+03
       294   1 -2.904297E+05 -2.076110E+04  6.193644E+03 -1.602870E+05  3.046000E+04  3.310109E+03
       294   2 -2.732754E+05  2.098268E+04 -1.239770E+04 -1.200684E+05  6.031819E+04  1.376306E+04
       294   3 -2.950195E+05 -6.997883E+04 -8.642309E+04 -6.060237E+04  8.798340E+04  3.006463E+04
       294   4 -4.670891E+05 -7.166342E+04 -3.614602E+04 -1.928519E+05  2.820160E+04  2.463553E+03
       294   5 -4.549142E+05 -5.910888E+04 -6.127475E+04 -1.821499E+05  6.172744E+04  1.429031E+04
       294   6 -4.823819E+05 -1.800131E+05 -1.447578E+05 -1.521979E+05  9.305937E+04  3.196300E+04
       294   7 -6.437177E+05 -1.225662E+05 -7.848772E+04 -2.254098E+05  2.594392E+04  1.617123E+03
       294   8 -6.365194E+05 -1.391941E+05 -1.101544E+05 -2.442134E+05  6.313623E+04  1.481731E+04
       294   9 -6.697043E+05 -2.900259E+05 -2.030950E+05 -2.437626E+05  9.813360E+04  3.385991E+04
       294  10 -2.904307E+05 -2.076136E+04  6.191879E+03 -1.602870E+05 -8.827998E-11 -1.872642E-11
       294  11 -2.732793E+05  2.098150E+04 -1.240490E+04 -1.200690E+05 -3.471982E-11  1.911737E-11
       294  12 -2.950281E+05 -6.998188E+04 -8.643935E+04 -6.060451E+04 -1.474808E-10  4.286252E-12
       294  13 -4.670900E+05 -7.166364E+04 -3.614753E+04 -1.928520E+05 -2.697388E-11 -5.928969E-12
       294  14 -4.549184E+05 -5.911012E+04 -6.128230E+04 -1.821506E+05 -2.320170E-10  2.164661E-10
       294  15 -4.823915E+05 -1.800166E+05 -1.447760E+05 -1.522003E+05  1.185299E-10  7.758603E-11
       294  16 -6.437185E+05 -1.225664E+05 -7.848899E+04 -2.254098E+05  5.678861E-11  3.602268E-11
       294  17 -6.365237E+05 -1.391954E+05 -1.101623E+05 -2.442141E+05 -3.260906E-10  3.936412E-11
       294  18 -6.697149E+05 -2.900297E+05 -2.031153E+05 -2.437653E+05 -3.956272E-10 -6.520065E-11
       294  19 -2.904297E+05 -2.076110E+04  6.193644E+03 -1.602870E+05 -3.046000E+04 -3.310109E+03
       294  20 -2.732754E+05  2.098268E+04 -1.239770E+04 -1.200684E+05 -6.031819E+04 -1.376306E+04
       294  21 -2.950195E+05 -6.997883E+04 -8.642309E+04 -6.060237E+04 -8.798340E+04 -3.006463E+04
       294  22 -4.670891E+05 -7.166342E+04 -3.614602E+04 -1.928519E+05 -2.820160E+04 -2.463553E+03
       294  23 -4.549142E+05 -5.910888E+04 -6.127475E+04 -1.821499E+05 -6.172744E+04 -1.429031E+04
       294  24 -4.823819E+05 -1.800131E+05 -1.447578E+05 -1.521979E+05 -9.305937E+04 -3.196300E+04
       294  25 -6.437177E+05 -1.225662E+05 -7.848772E+04 -2.254098E+05 -2.594392E+04 -1.617123E+03
       294  26 -6.365194E+05 -1.391941E+05 -1.101544E+05 -2.442134E+05 -6.313623E+04 -1.481731E+04
       294  27 -6.697043E+05 -2.900259E+05 -2.030950E+05 -2.437626E+05 -9.813360E+04 -3.385991E+04
       295   1 -5.106654E+05 -1.241312E+05 -9.570587E+04 -9.608331E+03  6.596935E+04  1.058280E+04
       295   2 -4.365762E+05 -2.124910E+05 -1.350282E+05 -1.255623E+04  5.067815E+04  3.203179E+04
       295   3 -3.315948E+05 -1.872471E+05 -1.358878E+05 -6.487698E+04  3.539790E+04  3.068789E+04
       295   4  4.049491E+05  1.037951E+05  1.285912E+05 -4.979258E+04  8.812394E+04  1.059188E+04
       295   5  3.882255E+05 -9.087511E+03  5.717244E+04 -2.508360E+04  5.748715E+04  3.202987E+04
       295   6  4.050057E+05 -5.786615E+03  3.482928E+04 -4.974112E+04  2.686464E+04  3.068706E+04
       295   7  1.321332E+06  3.316656E+05  3.528296E+05 -9.003634E+04  1.103111E+05  1.059808E+04
       295   8  1.213655E+06  1.942685E+05  2.493273E+05 -3.762777E+04  6.430509E+04  3.202767E+04
       295   9  1.142108E+06  1.756366E+05  2.055104E+05 -3.458713E+04  1.832130E+04  3.068581E+04
       295  10 -5.106701E+05 -1.241325E+05 -9.571427E+04 -9.608894E+03 -3.222277E-10  1.796747E-10
       295  11 -4.365793E+05 -2.124928E+05 -1.350349E+05 -1.255754E+04  6.149545E-10  4.201523E-11
       295  12 -3.315964E+05 -1.872485E+05 -1.358920E+05 -6.487786E+04 -5.898248E-11 -1.566845E-10
       295  13  4.049407E+05  1.037929E+05  1.285764E+05 -4.979333E+04  5.001743E-10 -1.966403E-10
       295  14  3.882216E+05 -9.089500E+03  5.716431E+04 -2.508508E+04  1.304032E-10  7.409145E-11
       295  15  4.050047E+05 -5.787820E+03  3.482616E+04 -4.974179E+04 -5.220193E-10 -1.493205E-10
       295  16  1.321319E+06  3.316623E+05  3.528066E+05 -9.003728E+04 -3.841510E-10  2.501289E-10
       295  17  1.213651E+06  1.942663E+05  2.493176E+05 -3.762942E+04 -1.986685E-10  1.063471E-10
       295  18  1.142107E+06  1.756355E+05  2.055080E+05 -3.458759E+04  1.215343E-10  4.254215E-11
       295  19 -5.106654E+05 -1.241312E+05 -9.570587E+04 -9.608331E+03 -6.596935E+04 -1.058280E+04
       295  20 -4.365762E+05 -2.124910E+05 -1.350282E+05 -1.255623E+04 -5.067815E+04 -3.203179E+04
       295  21 -3.315948E+05 -1.872471E+05 -1.358878E+05 -6.487698E+04 -3.539790E+04 -3.068789E+04
       295  22  4.049491E+05  1.037951E+05  1.285912E+05 -4.979258E+04 -8.812394E+04 -1.059188E+04
       295  23  3.882255E+05 -9.087511E+03  5.717244E+04 -2.508360E+04 -5.748715E+04 -3.202987E+04
       295  24  4.050057E+05 -5.786615E+03  3.482928E+04 -4.974112E+04 -2.686464E+04 -3.068706E+04
       295  25  1.321332E+06  3.316656E+05  3.528296E+05 -9.003634E+04 -1.103111E+05 -1.059808E+04
       295  26  1.213655E+06  1.942685E+05  2.493273E+05 -3.762777E+04 -6.430509E+04 -3.202767E+04
       295  27  1.142108E+06  1.756366E+05  2.055104E+05 -3.458713E+04 -1.832130E+04 -3.068581E+04
       296   1 -2.479433E+05 -1.509976E+05 -1.223239E+05 -4.691681E+04  2.314990E+04  2.541636E+04
       296   2 -1.610777E+05 -1.382929E+05 -1.147878E+05 -2.409244E+04  1.648247E+04  2.257314E+04
       296   3 -7.081457E+04 -1.160845E+05 -1.005013E+05 -5.092917E+04  9.810039E+03  1.853280E+04
       296   4  3.983709E+05  8.349152E+03  2.812182E+04 -4.981620E+04  2.165556E+04  2.541486E+04
       296   5  3.966218E+05 -8.574442E+02  1.474220E+04 -2.498897E+04  1.417669E+04  2.257290E+04
       296   6  3.983987E+05 -4.246258E+02  8.670748E+03 -4.981976E+04  6.693731E+03  1.853429E+04
       296   7  1.045070E+06  1.676665E+05  1.785393E+05 -5.271860E+04  2.015966E+04  2.541337E+04
       296   8  9.546085E+05  1.365561E+05  1.442513E+05 -2.588627E+04  1.186883E+04  2.257267E+04
       296   9  8.678151E+05  1.152197E+05  1.178280E+05 -4.870945E+04  3.575083E+03  1.853577E+04
       296  10 -2.479441E+05 -1.509985E+05 -1.223261E+05 -4.691728E+04 -2.003677E-10 -2.518055E-10
       296  11 -1.610782E+05 -1.382935E+05 -1.147892E+05 -2.409274E+04  8.044232E-10 -1.120452E-10
       296  12 -7.081476E+04 -1.160849E+05 -1.005021E+05 -5.092931E+04 -2.265230E-10  1.051461E-10
       296  13  3.983702E+05  8.348332E+03  2.811972E+04 -4.981665E+04 -6.307526E-10 -2.451569E-10
       296  14  3.966215E+05 -8.580454E+02  1.474086E+04 -2.498922E+04  5.418940E-10 -6.012430E-10
       296  15  3.983985E+05 -4.250068E+02  8.670018E+03 -4.981986E+04 -6.568188E-10  2.120388E-10
       296  16  1.045070E+06  1.676657E+05  1.785373E+05 -5.271901E+04  1.249092E-10 -1.474550E-10
       296  17  9.546083E+05  1.365555E+05  1.442500E+05 -2.588648E+04 -2.494219E-10 -2.824463E-10
       296  18  8.678150E+05  1.152193E+05  1.178273E+05 -4.870951E+04  4.738112E-11  4.382747E-11
       296  19 -2.479433E+05 -1.509976E+05 -1.223239E+05 -4.691681E+04 -2.314990E+04 -2.541636E+04
       296  20 -1.610777E+05 -1.382929E+05 -1.147878E+05 -2.409244E+04 -1.648247E+04 -2.257314E+04
       296  21 -7.081457E+04 -1.160845E+05 -1.005013E+05 -5.092917E+04 -9.810039E+03 -1.853280E+04
       296  22  3.983709E+05  8.349152E+03  2.812182E+04 -4.981620E+04 -2.165556E+04 -2.541486E+04
       296  23  3.966218E+05 -8.574442E+02  1.474220E+04 -2.498897E+04 -1.417669E+04 -2.257290E+04
       296  24  3.983987E+05 -4.246258E+02  8.670748E+03 -4.981976E+04 -6.693731E+03 -1.853429E+04
       296  25  1.045070E+06  1.676665E+05  1.785393E+05 -5.271860E+04 -2.015966E+04 -2.541337E+04
       296  26  9.546085E+05  1.365561E+05  1.442513E+05 -2.588627E+04 -1.186883E+04 -2.257267E+04
       296  27  8.678151E+05  1.152197E+05  1.178280E+05 -4.870945E+04 -3.575083E+03 -1.853577E+04
       297   1  1.794612E+04 -9.283107E+04 -8.121805E+04 -4.943783E+04  8.074981E+03  1.594730E+04
       297   2  1.058643E+05 -7.191638E+04 -6.391043E+04 -2.486532E+04  6.217772E+03  1.183932E+04
       297   3  1.941874E+05 -5.013146E+04 -4.519046E+04 -4.973387E+04  4.358223E+03  7.672614E+03
       297   4  3.977239E+05  6.974779E+02  6.725725E+03 -4.976967E+04  5.334964E+03  1.594907E+04
       297   5  3.975285E+05 -5.607881E+01  3.803607E+03 -2.505019E+04  3.437051E+03  1.184172E+04
       297   6  3.977374E+05  6.781559E+01  2.321681E+03 -4.977031E+04  1.537056E+03  7.675699E+03
       297   7  7.776349E+05  9.421590E+04  9.465988E+04 -5.010168E+04  2.593283E+03  1.595084E+04
       297   8  6.892712E+05  7.179824E+04  7.151195E+04 -2.523512E+04  6.550322E+02  1.184413E+04
       297   9  6.013257E+05  5.026417E+04  4.983104E+04 -4.980675E+04 -1.285030E+03  7.678784E+03
       297  10  1.794598E+04 -9.283136E+04 -8.121865E+04 -4.943793E+04  4.987048E-10  7.567278E-12
       297  11  1.058642E+05 -7.191654E+04 -6.391076E+04 -2.486538E+04  4.128372E-10  3.388835E-10
       297  12  1.941874E+05 -5.013153E+04 -4.519061E+04 -4.973390E+04  1.870624E-10 -7.363540E-10
       297  13  3.977238E+05  6.971971E+02  6.725194E+03 -4.976973E+04 -2.734184E-10  1.010708E-10
       297  14  3.975284E+05 -5.623259E+01  3.803321E+03 -2.505022E+04 -9.151712E-10  6.904906E-10
       297  15  3.977374E+05  6.775168E+01  2.321566E+03 -4.977032E+04 -4.536366E-10  6.644602E-10
       297  16  7.776348E+05  9.421562E+04  9.465939E+04 -5.010171E+04 -4.460344E-10  4.285464E-11
       297  17  6.892712E+05  7.179809E+04  7.151169E+04 -2.523513E+04 -8.009213E-10 -6.116780E-10
       297  18  6.013257E+05  5.026410E+04  4.983093E+04 -4.980674E+04 -5.434948E-10 -3.049077E-10
       297  19  1.794612E+04 -9.283107E+04 -8.121805E+04 -4.943783E+04 -8.074981E+03 -1.594730E+04
       297  20  1.058643E+05 -7.191638E+04 -6.391043E+04 -2.486532E+04 -6.217772E+03 -1.183932E+04
       297  21  1.941874E+05 -5.013146E+04 -4.519046E+04 -4.973387E+04 -4.358223E+03 -7.672614E+03
       297  22  3.977239E+05  6.974779E+02  6.725725E+03 -4.976967E+04 -5.334964E+03 -1.594907E+04
       297  23  3.975285E+05 -5.607881E+01  3.803607E+03 -2.505019E+04 -3.437051E+03 -1.184172E+04
       297  24  3.977374E+05  6.781559E+01  2.321681E+03 -4.977031E+04 -1.537056E+03 -7.675699E+03
       297  25  7.776349E+05  9.421590E+04  9.465988E+04 -5.010168E+04 -2.593283E+03 -1.595084E+04
       297  26  6.892712E+05  7.179824E+04  7.151195E+04 -2.523512E+04 -6.550322E+02 -1.184413E+04
       297  27  6.013257E+05  5.026417E+04  4.983104E+04 -4.980675E+04  1.285030E+03 -7.678784E+03
       298   1  2.832278E+05 -2.798794E+04 -2.443588E+04 -4.967354E+04  3.957025E+03  5.236925E+03
       298   2  3.711957E+05 -6.475649E+03 -4.808601E+03 -2.506452E+04  3.294341E+03  1.070839E+03
       298   3  4.591607E+05  1.520877E+04  1.526094E+04 -4.980196E+04  2.631387E+03 -3.098016E+03
       298   4  3.976528E+05  1.490356E+02  1.866415E+03 -4.974936E+04  1.156822E+03  5.240207E+03
       298   5  3.976577E+05  4.297525E+01  1.333839E+03 -2.507622E+04  4.920283E+02  1.074164E+03
       298   6  3.976541E+05  1.102175E+02  1.245627E+03 -4.974941E+04 -1.729435E+02 -3.094617E+03
       298   7  5.120900E+05  2.828511E+04  2.816787E+04 -4.982519E+04 -1.643893E+03  5.243489E+03
       298   8  4.241203E+05  6.561554E+03  7.476262E+03 -2.508793E+04 -2.310403E+03  1.077490E+03
       298   9  3.361509E+05 -1.498859E+04 -1.276990E+04 -4.969687E+04 -2.976999E+03 -3.091218E+03
       298  10  2.832278E+05 -2.798798E+04 -2.443596E+04 -4.967355E+04  2.629578E-10 -4.226492E-10
       298  11  3.711957E+05 -6.475653E+03 -4.808623E+03 -2.506452E+04  3.131128E-10  1.602728E-10
       298  12  4.591607E+05  1.520876E+04  1.526091E+04 -4.980196E+04 -1.746154E-10 -5.383728E-11
       298  13  3.976528E+05  1.490058E+02  1.866361E+03 -4.974936E+04 -1.982988E-10 -1.060055E-09
       298  14  3.976577E+05  4.297394E+01  1.333837E+03 -2.507622E+04 -7.189632E-11  3.177507E-10
       298  15  3.976541E+05  1.102072E+02  1.245609E+03 -4.974941E+04  4.263503E-10 -4.454825E-10
       298  16  5.120900E+05  2.828508E+04  2.816782E+04 -4.982519E+04 -1.811841E-11  1.741309E-10
       298  17  4.241203E+05  6.561552E+03  7.476250E+03 -2.508793E+04 -4.802768E-10 -1.965689E-10
       298  18  3.361509E+05 -1.498861E+04 -1.276994E+04 -4.969688E+04 -6.673344E-11 -7.983436E-10
       298  19  2.832278E+05 -2.798794E+04 -2.443588E+04 -4.967354E+04 -3.957025E+03 -5.236925E+03
       298  20  3.711957E+05 -6.475649E+03 -4.808601E+03 -2.506452E+04 -3.294341E+03 -1.070839E+03
       298  21  4.591607E+05  1.520877E+04  1.526094E+04 -4.980196E+04 -2.631387E+03  3.098016E+03
       298  22  3.976528E+05  1.490356E+02  1.866415E+03 -4.974936E+04 -1.156822E+03 -5.240207E+03
       298  23  3.976577E+05  4.297525E+01  1.333839E+03 -2.507622E+04 -4.920283E+02 -1.074164E+03
       298  24  3.976541E+05  1.102175E+02  1.245627E+03 -4.974941E+04  1.729435E+02  3.094617E+03
       298  25  5.120900E+05  2.828511E+04  2.816787E+04 -4.982519E+04  1.643893E+03 -5.243489E+03
       298  26  4.241203E+05  6.561554E+03  7.476262E+03 -2.508793E+04  2.310403E+03 -1.077490E+03
       298  27  3.361509E+05 -1.498859E+04 -1.276990E+04 -4.969687E+04  2.976999E+03  3.091218E+03
       299   1  5.482956E+05  3.726170E+04  3.656610E+04 -4.987545E+04  2.394791E+03 -5.525719E+03
       299   2  6.363441E+05  5.881473E+04  5.726375E+04 -2.520789E+04  1.468672E+03 -9.697261E+03
       299   3  7.244867E+05  8.057825E+04  7.859546E+04 -4.994656E+04  5.440805E+02 -1.386914E+04
       299   4  3.976702E+05  1.085701E+02  1.346094E+03 -4.976299E+04 -4.110279E+02 -5.522466E+03
       299   5  3.976220E+05  1.745832E+01  1.860129E+03 -2.505926E+04 -1.337264E+03 -9.694530E+03
       299   6  3.976594E+05  1.370932E+02  3.008556E+03 -4.976293E+04 -2.261844E+03 -1.386690E+04
       299   7  2.470658E+05 -3.704616E+04 -3.387543E+04 -4.965055E+04 -3.216171E+03 -5.519213E+03
       299   8  1.589524E+05 -5.878382E+04 -5.354729E+04 -2.491067E+04 -4.142130E+03 -9.691801E+03
       299   9  7.093072E+04 -8.031156E+04 -7.258546E+04 -4.957937E+04 -5.066304E+03 -1.386467E+04
       299  10  5.482956E+05  3.726167E+04  3.656604E+04 -4.987544E+04  6.397398E-11  6.913185E-10
       299  11  6.363441E+05  5.881463E+04  5.726357E+04 -2.520787E+04  4.052542E-11  1.548020E-09
       299  12  7.244867E+05  8.057804E+04  7.859510E+04 -4.994655E+04  1.307958E-09 -9.173000E-10
       299  13  3.976702E+05  1.085373E+02  1.346037E+03 -4.976299E+04 -2.859435E-10  1.646369E-10
       299  14  3.976220E+05  1.735689E+01  1.859949E+03 -2.505927E+04 -4.351640E-10 -5.525623E-10
       299  15  3.976593E+05  1.368853E+02  3.008185E+03 -4.976295E+04 -6.846154E-10 -1.505873E-10
       299  16  2.470657E+05 -3.704620E+04 -3.387550E+04 -4.965056E+04  5.801231E-10  1.555462E-10
       299  17  1.589524E+05 -5.878393E+04 -5.354750E+04 -2.491071E+04 -1.505488E-09 -1.894929E-10
       299  18  7.093064E+04 -8.031177E+04 -7.258587E+04 -4.957943E+04 -1.358379E-09 -6.745978E-11
       299  19  5.482956E+05  3.726170E+04  3.656610E+04 -4.987545E+04 -2.394791E+03  5.525719E+03
       299  20  6.363441E+05  5.881473E+04  5.726375E+04 -2.520789E+04 -1.468672E+03  9.697261E+03
       299  21  7.244867E+05  8.057825E+04  7.859546E+04 -4.994656E+04 -5.440805E+02  1.386914E+04
       299  22  3.976702E+05  1.085701E+02  1.346094E+03 -4.976299E+04  4.110279E+02  5.522466E+03
       299  23  3.976220E+05  1.745832E+01  1.860129E+03 -2.505926E+04  1.337264E+03  9.694530E+03
       299  24  3.976594E+05  1.370932E+02  3.008556E+03 -4.976293E+04  2.261844E+03  1.386690E+04
       299  25  2.470658E+05 -3.704616E+04 -3.387543E+04 -4.965055E+04  3.216171E+03  5.519213E+03
       299  26  1.589524E+05 -5.878382E+04 -5.354729E+04 -2.491067E+04  4.142130E+03  9.691801E+03
       299  27  7.093072E+04 -8.031156E+04 -7.258546E+04 -4.957937E+04  5.066304E+03  1.386467E+04
       300   1  8.140437E+05  1.025521E+05  1.007281E+05 -4.983224E+04 -5.060641E+01 -1.631218E+04
       300   2  9.021012E+05  1.241200E+05  1.237003E+05 -2.517111E+04 -3.380664E+03 -2.048957E+04
       300   3  9.910554E+05  1.471501E+05  1.492209E+05 -5.013697E+04 -6.707641E+03 -2.459831E+04
       300   4  3.978197E+05 -4.075958E+00  3.881161E+03 -4.981252E+04 -2.884327E+03 -1.631043E+04
       300   5  3.973669E+05 -1.763956E+02  6.576503E+03 -2.499746E+04 -6.165977E+03 -2.048895E+04
       300   6  3.977961E+05  1.106499E+03  1.178870E+04 -4.981186E+04 -9.444079E+03 -2.459876E+04
       300   7 -1.824471E+04 -1.025725E+05 -9.297745E+04 -4.979278E+04 -5.716162E+03 -1.630869E+04
       300   8 -1.071325E+05 -1.244907E+05 -1.105644E+05 -2.482391E+04 -8.949042E+03 -2.048834E+04
       300   9 -1.951384E+05 -1.449618E+05 -1.256670E+05 -4.948701E+04 -1.217792E+04 -2.459922E+04
       300  10  8.140436E+05  1.025519E+05  1.007276E+05 -4.983224E+04 -8.990532E-11 -8.671774E-10
       300  11  9.021010E+05  1.241195E+05  1.236995E+05 -2.517117E+04 -2.321834E-10  3.454785E-10
       300  12  9.910552E+05  1.471494E+05  1.492197E+05 -5.013711E+04 -2.002796E-11 -3.978821E-10
       300  13  3.978196E+05 -4.363918E+00  3.880645E+03 -4.981256E+04 -3.411239E-10 -1.324523E-10
       300  14  3.973667E+05 -1.768567E+02  6.575642E+03 -2.499756E+04  3.408461E-10 -5.397301E-10
       300  15  3.977959E+05  1.105825E+03  1.178740E+04 -4.981205E+04 -1.321865E-10 -7.830380E-10
       300  16 -1.824481E+04 -1.025728E+05 -9.297801E+04 -4.979285E+04  7.017104E-10 -1.557219E-10
       300  17 -1.071327E+05 -1.244912E+05 -1.105653E+05 -2.482406E+04 -8.922287E-10  4.616760E-10
       300  18 -1.951388E+05 -1.449625E+05 -1.256685E+05 -4.948725E+04 -4.286400E-10 -5.261808E-10
       300  19  8.140437E+05  1.025521E+05  1.007281E+05 -4.983224E+04  5.060641E+01  1.631218E+04
       300  20  9.021012E+05  1.241200E+05  1.237003E+05 -2.517111E+04  3.380664E+03  2.048957E+04
       300  21  9.910554E+05  1.471501E+05  1.492209E+05 -5.013697E+04  6.707641E+03  2.459831E+04
       300  22  3.978197E+05 -4.075958E+00  3.881161E+03 -4.981252E+04  2.884327E+03  1.631043E+04
       300  23  3.973669E+05 -1.763956E+02  6.576503E+03 -2.499746E+04  6.165977E+03  2.048895E+04
       300  24  3.977961E+05  1.106499E+03  1.178870E+04 -4.981186E+04  9.444079E+03  2.459876E+04
       300  25 -1.824471E+04 -1.025725E+05 -9.297745E+04 -4.979278E+04  5.716162E+03  1.630869E+04
       300  26 -1.071325E+05 -1.244907E+05 -1.105644E+05 -2.482391E+04  8.949042E+03  2.048834E+04
       300  27 -1.951384E+05 -1.449618E+05 -1.256670E+05 -4.948701E+04  1.217792E+04  2.459922E+04
       301   1  1.082223E+06  1.674070E+05  1.739811E+05 -4.757569E+04 -8.626174E+03 -2.723025E+04
       301   2  1.168176E+06  1.886140E+05  2.052011E+05 -2.604792E+04 -2.279678E+04 -3.126428E+04
       301   3  1.260640E+06  2.268905E+05  2.499853E+05 -5.449255E+04 -3.696487E+04 -3.383682E+04
       301   4  3.989810E+05 -8.730130E+02  1.523259E+04 -4.988833E+04 -1.182524E+04 -2.723145E+04
       301   5  3.957902E+05 -1.571597E+03  2.595938E+04 -2.490239E+04 -2.499762E+04 -3.126724E+04
       301   6  3.989415E+05  1.463928E+04  4.957079E+04 -4.989227E+04 -3.816548E+04 -3.384085E+04
       301   7 -2.838307E+05 -1.691859E+05 -1.435473E+05 -5.219836E+04 -1.502082E+04 -2.723263E+04
       301   8 -3.760451E+05 -1.917992E+05 -1.533223E+05 -2.375830E+04 -2.719573E+04 -3.127020E+04
       301   9 -4.620733E+05 -1.976642E+05 -1.508937E+05 -4.529846E+04 -3.936441E+04 -3.384490E+04
       301  10  1.082223E+06  1.674062E+05  1.739796E+05 -4.757588E+04 -6.557525E-10 -6.691652E-10
       301  11  1.168175E+06  1.886129E+05  2.051982E+05 -2.604849E+04  3.761591E-09 -3.400768E-10
       301  12  1.260639E+06  2.268889E+05  2.499806E+05 -5.449356E+04  6.649954E-09  8.190693E-10
       301  13  3.989807E+05 -8.738470E+02  1.523094E+04 -4.988859E+04  2.861565E-10 -9.771694E-10
       301  14  3.957893E+05 -1.572814E+03  2.595637E+04 -2.490302E+04 -2.716059E-10 -6.252640E-10
       301  15  3.989396E+05  1.463765E+04  4.956590E+04 -4.989331E+04 -2.579694E-10  5.703660E-10
       301  16 -2.838312E+05 -1.691868E+05 -1.435491E+05 -5.219869E+04  5.861972E-10 -7.969777E-10
       301  17 -3.760462E+05 -1.918005E+05 -1.533256E+05 -2.375899E+04 -3.035384E-09 -8.505936E-10
       301  18 -4.620752E+05 -1.976659E+05 -1.508988E+05 -4.529953E+04 -6.084040E-09  2.933262E-10
       301  19  1.082223E+06  1.674070E+05  1.739811E+05 -4.757569E+04  8.626174E+03  2.723025E+04
       301  20  1.168176E+06  1.886140E+05  2.052011E+05 -2.604792E+04  2.279678E+04  3.126428E+04
       301  21  1.260640E+06  2.268905E+05  2.499853E+05 -5.449255E+04  3.696487E+04  3.383682E+04
       301  22  3.989810E+05 -8.730130E+02  1.523259E+04 -4.988833E+04  1.182524E+04  2.723145E+04
       301  23  3.957902E+05 -1.571597E+03  2.595938E+04 -2.490239E+04  2.499762E+04  3.126724E+04
       301  24  3.989415E+05  1.463928E+04  4.957079E+04 -4.989227E+04  3.816548E+04  3.384085E+04
       301  25 -2.838307E+05 -1.691859E+05 -1.435473E+05 -5.219836E+04  1.502082E+04  2.723263E+04
       301  26 -3.760451E+05 -1.917992E+05 -1.533223E+05 -2.375830E+04  2.719573E+04  3.127020E+04
       301  27 -4.620733E+05 -1.976642E+05 -1.508937E+05 -4.529846E+04  3.936441E+04  3.384490E+04
       302   1  1.363428E+06  2.242434E+05  2.819668E+05 -2.248567E+04 -3.750265E+04 -3.976973E+04
       302   2  1.422871E+06  2.405504E+05  3.432845E+05 -4.654220E+04 -1.103565E+05 -4.056680E+04
       302   3  1.544546E+06  4.647047E+05  5.040949E+05 -1.204291E+05 -1.832683E+05 -1.346135E+04
       302   4  4.106211E+05 -1.028406E+04  6.139646E+04 -4.978394E+04 -4.734218E+04 -3.977898E+04
       302   5  3.810562E+05 -1.602829E+04  1.008209E+05 -2.500480E+04 -1.013359E+05 -4.056488E+04
       302   6  4.105427E+05  1.829829E+05  2.267566E+05 -5.005043E+04 -1.553745E+05 -1.343891E+04
       302   7 -5.413462E+05 -2.448724E+05 -1.592339E+05 -7.704019E+04 -5.716670E+04 -3.978737E+04
       302   8 -6.597573E+05 -2.726817E+05 -1.417154E+05 -3.503992E+03 -9.233031E+04 -4.056235E+04
       302   9 -7.222782E+05 -9.881465E+04 -5.067000E+04  2.019926E+04 -1.275313E+05 -1.341014E+04
       302  10  1.363426E+06  2.242413E+05  2.819612E+05 -2.248687E+04  2.195231E-09  1.575186E-09
       302  11  1.422857E+06  2.405454E+05  3.432586E+05 -4.654580E+04 -2.815836E-09  6.252708E-10
       302  12  1.544510E+06  4.646955E+05  5.040316E+05 -1.204311E+05 -5.362354E-09 -2.828485E-10
       302  13  4.106183E+05 -1.028636E+04  6.138927E+04 -4.978546E+04  3.910335E-10  1.670633E-09
       302  14  3.810448E+05 -1.603281E+04  1.007985E+05 -2.500811E+04  6.087207E-10  2.671462E-09
       302  15  4.105168E+05  1.829762E+05  2.267109E+05 -5.005211E+04 -4.101863E-10  7.621121E-11
       302  16 -5.413502E+05 -2.448750E+05 -1.592430E+05 -7.704202E+04 -2.745919E-09  1.229018E-09
       302  17 -6.597669E+05 -2.726858E+05 -1.417346E+05 -3.507009E+03  2.946185E-09  1.282650E-09
       302  18 -7.222957E+05 -9.881922E+04 -5.070094E+04  2.019788E+04  5.491036E-09 -3.166888E-10
       302  19  1.363428E+06  2.242434E+05  2.819668E+05 -2.248567E+04  3.750265E+04  3.976973E+04
       302  20  1.422871E+06  2.405504E+05  3.432845E+05 -4.654220E+04  1.103565E+05  4.056680E+04
       302  21  1.544546E+06  4.647047E+05  5.040949E+05 -1.204291E+05  1.832683E+05  1.346135E+04
       302  22  4.106211E+05 -1.028406E+04  6.139646E+04 -4.978394E+04  4.734218E+04  3.977898E+04
       302  23  3.810562E+05 -1.602829E+04  1.008209E+05 -2.500480E+04  1.013359E+05  4.056488E+04
       302  24  4.105427E+05  1.829829E+05  2.267566E+05 -5.005043E+04  1.553745E+05  1.343891E+04
       302  25 -5.413462E+05 -2.448724E+05 -1.592339E+05 -7.704019E+04  5.716670E+04  3.978737E+04
       302  26 -6.597573E+05 -2.726817E+05 -1.417154E+05 -3.503992E+03  9.233031E+04  4.056235E+04
       302  27 -7.222782E+05 -9.881465E+04 -5.067000E+04  2.019926E+04  1.275313E+05  1.341014E+04
       303   1  2.266418E+05  8.299678E+05  2.409357E+05 -1.336794E+05  6.152068E+03  7.226997E+04
       303   2  1.018620E+05  6.291839E+05  1.408104E+05 -6.215566E+04  1.658497E+04  3.997965E+04
       303   3  5.790906E+04  4.526511E+05  8.185649E+04 -9.572894E+04  9.945625E+03  7.678860E+03
       303   4  7.049370E+04  2.031001E+05  8.703100E+04 -1.056467E+05  6.169805E+03  5.950175E+04
       303   5 -5.954226E+03  1.919987E+05  3.884116E+04 -5.314063E+04  1.658791E+04  3.871486E+04
       303   6 -3.535017E+03  2.031480E+05  2.386829E+04 -1.057304E+05  9.930411E+03  1.790755E+04
       303   7 -8.568060E+04 -4.234083E+05 -6.690153E+04 -7.764206E+04  6.186401E+03  4.674636E+04
       303   8 -1.137837E+05 -2.450103E+05 -6.314094E+04 -4.413192E+04  1.659083E+04  3.745093E+04
       303   9 -6.498304E+04 -4.629731E+04 -3.412364E+04 -1.157278E+05  9.914865E+03  2.813215E+04
       303  10  2.266404E+05  8.299622E+05  2.409258E+05 -1.336798E+05  1.748741E-10  2.214860E-10
       303  11  1.018613E+05  6.291821E+05  1.408068E+05 -6.215620E+04  7.668736E-11 -6.028583E-11
       303  12  5.790894E+04  4.526510E+05  8.185619E+04 -9.572900E+04  7.287926E-10  1.527384E-10
       303  13  7.049271E+04  2.030963E+05  8.702428E+04 -1.056470E+05  8.196038E-10 -3.115315E-10
       303  14 -5.954924E+03  1.919970E+05  3.883783E+04 -5.314115E+04 -1.395095E-09  1.216530E-11
       303  15 -3.535209E+03  2.031476E+05  2.386751E+04 -1.057305E+05  4.084064E-10  2.111707E-10
       303  16 -8.568123E+04 -4.234107E+05 -6.690571E+04 -7.764230E+04  1.575238E-11 -2.219845E-10
       303  17 -1.137844E+05 -2.450118E+05 -6.314410E+04 -4.413242E+04  4.304523E-10  1.967838E-10
       303  18 -6.498336E+04 -4.629819E+04 -3.412532E+04 -1.157280E+05  1.701067E-11  4.732790E-10
       303  19  2.266418E+05  8.299678E+05  2.409357E+05 -1.336794E+05 -6.152068E+03 -7.226997E+04
       303  20  1.018620E+05  6.291839E+05  1.408104E+05 -6.215566E+04 -1.658497E+04 -3.997965E+04
       303  21  5.790906E+04  4.526511E+05  8.185649E+04 -9.572894E+04 -9.945625E+03 -7.678860E+03
       303  22  7.049370E+04  2.031001E+05  8.703100E+04 -1.056467E+05 -6.169805E+03 -5.950175E+04
       303  23 -5.954226E+03  1.919987E+05  3.884116E+04 -5.314063E+04 -1.658791E+04 -3.871486E+04
       303  24 -3.535017E+03  2.031480E+05  2.386829E+04 -1.057304E+05 -9.930411E+03 -1.790755E+04
       303  25 -8.568060E+04 -4.234083E+05 -6.690153E+04 -7.764206E+04 -6.186401E+03 -4.674636E+04
       303  26 -1.137837E+05 -2.450103E+05 -6.314094E+04 -4.413192E+04 -1.659083E+04 -3.745093E+04
       303  27 -6.498304E+04 -4.629731E+04 -3.412364E+04 -1.157278E+05 -9.914865E+03 -2.813215E+04
       304   1  2.034053E+04  2.570617E+05  3.292890E+04 -1.078336E+05  2.474681E+03  8.991828E+03
       304   2 -3.249339E+04  6.756662E+04 -1.951833E+04 -5.330476E+04 -5.267458E+03  3.778524E+03
       304   3 -7.808127E+04 -1.197392E+05 -6.684141E+04 -1.043967E+05 -1.268432E+04 -1.431026E+03
       304   4  5.965280E+03  1.987046E+05  1.943107E+04 -1.058165E+05  2.466521E+03  1.431072E+04
       304   5 -4.511130E+02  1.976010E+05  1.068323E+04 -5.301114E+04 -5.274730E+03  8.878744E+03
       304   6  4.187730E+02  1.986930E+05  7.214580E+03 -1.058246E+05 -1.269083E+04  3.448981E+03
       304   7 -8.410181E+03  1.403506E+05  5.933116E+03 -1.037997E+05  2.458396E+03  1.962911E+04
       304   8  3.158999E+04  3.276511E+05  4.088375E+04 -5.271746E+04 -5.281997E+03  1.398002E+04
       304   9  7.891167E+04  5.172188E+05  8.126382E+04 -1.072532E+05 -1.269735E+04  8.331475E+03
       304  10  2.034050E+04  2.570617E+05  3.292874E+04 -1.078336E+05  3.068177E-10 -3.997722E-10
       304  11 -3.249343E+04  6.756660E+04 -1.951841E+04 -5.330474E+04  2.698023E-10  5.647710E-11
       304  12 -7.808144E+04 -1.197392E+05 -6.684172E+04 -1.043967E+05 -5.133531E-10  5.912417E-10
       304  13  5.965219E+03  1.987043E+05  1.943067E+04 -1.058166E+05 -3.118619E-10 -4.334749E-10
       304  14 -4.511640E+02  1.976009E+05  1.068303E+04 -5.301111E+04  4.977515E-10 -8.451052E-11
       304  15  4.185968E+02  1.986929E+05  7.214255E+03 -1.058246E+05  7.402769E-10  2.084348E-10
       304  16 -8.410291E+03  1.403502E+05  5.932381E+03 -1.037998E+05 -4.529509E-10  3.677788E-10
       304  17  3.158991E+04  3.276509E+05  4.088333E+04 -5.271740E+04 -1.470124E-09  2.341472E-10
       304  18  7.891148E+04  5.172187E+05  8.126339E+04 -1.072531E+05 -5.972423E-10  1.097372E-10
       304  19  2.034053E+04  2.570617E+05  3.292890E+04 -1.078336E+05 -2.474681E+03 -8.991828E+03
       304  20 -3.249339E+04  6.756662E+04 -1.951833E+04 -5.330476E+04  5.267458E+03 -3.778524E+03
       304  21 -7.808127E+04 -1.197392E+05 -6.684141E+04 -1.043967E+05  1.268432E+04  1.431026E+03
       304  22  5.965280E+03  1.987046E+05  1.943107E+04 -1.058165E+05 -2.466521E+03 -1.431072E+04
       304  23 -4.511130E+02  1.976010E+05  1.068323E+04 -5.301114E+04  5.274730E+03 -8.878744E+03
       304  24  4.187730E+02  1.986930E+05  7.214580E+03 -1.058246E+05  1.269083E+04 -3.448981E+03
       304  25 -8.410181E+03  1.403506E+05  5.933116E+03 -1.037997E+05 -2.458396E+03 -1.962911E+04
       304  26  3.158999E+04  3.276511E+05  4.088375E+04 -5.271746E+04  5.281997E+03 -1.398002E+04
       304  27  7.891167E+04  5.172188E+05  8.126382E+04 -1.072532E+05  1.269735E+04 -8.331475E+03
       305   1 -1.252392E+05 -3.109157E+05 -1.120518E+05 -1.061385E+05 -2.087011E+04 -9.529070E+03
       305   2 -1.725326E+05 -4.995292E+05 -1.573423E+05 -5.191545E+04 -2.680487E+04  3.384038E+03
       305   3 -2.148739E+05 -6.884574E+05 -2.097934E+05 -1.027092E+05 -9.441186E+03  1.631132E+04
       305   4  3.440576E+02  1.986912E+05  6.223857E+03 -1.056883E+05 -2.088447E+04  2.271889E+03
       305   5 -5.892914E+02  1.974746E+05  5.217988E+03 -5.318161E+04 -2.679912E+04 -4.629511E+02
       305   6  6.145407E+03  1.986244E+05  7.921029E+03 -1.056840E+05 -9.427001E+03 -3.179433E+03
       305   7  1.259091E+05  7.085383E+05  1.244826E+05 -1.052377E+05 -2.089881E+04  1.408247E+04
       305   8  1.713196E+05  8.949267E+05  1.677454E+05 -5.444909E+04 -2.679337E+04 -4.314233E+03
       305   9  2.271065E+05  1.086424E+06  2.255791E+05 -1.086629E+05 -9.412641E+03 -2.269800E+04
       305  10 -1.252397E+05 -3.109159E+05 -1.120528E+05 -1.061386E+05  1.537892E-10 -1.156122E-10
       305  11 -1.725334E+05 -4.995294E+05 -1.573437E+05 -5.191537E+04  2.054237E-10  1.053421E-10
       305  12 -2.148740E+05 -6.884577E+05 -2.097940E+05 -1.027091E+05 -1.168627E-10  1.665422E-10
       305  13  3.435878E+02  1.986911E+05  6.223027E+03 -1.056883E+05 -9.003381E-10 -1.585263E-10
       305  14 -5.900627E+02  1.974744E+05  5.216638E+03 -5.318162E+04  4.006670E-10 -1.866801E-12
       305  15  6.145308E+03  1.986244E+05  7.920843E+03 -1.056840E+05 -6.797169E-11  1.308121E-10
       305  16  1.259086E+05  7.085380E+05  1.244814E+05 -1.052375E+05  5.156174E-10  8.104827E-11
       305  17  1.713189E+05  8.949264E+05  1.677440E+05 -5.444918E+04 -3.953859E-10 -8.884653E-11
       305  18  2.271063E+05  1.086423E+06  2.255779E+05 -1.086631E+05 -4.377520E-10  6.856301E-11
       305  19 -1.252392E+05 -3.109157E+05 -1.120518E+05 -1.061385E+05  2.087011E+04  9.529070E+03
       305  20 -1.725326E+05 -4.995292E+05 -1.573423E+05 -5.191545E+04  2.680487E+04 -3.384038E+03
       305  21 -2.148739E+05 -6.884574E+05 -2.097934E+05 -1.027092E+05  9.441186E+03 -1.631132E+04
       305  22  3.440576E+02  1.986912E+05  6.223857E+03 -1.056883E+05  2.088447E+04 -2.271889E+03
       305  23 -5.892914E+02  1.974746E+05  5.217988E+03 -5.318161E+04  2.679912E+04  4.629511E+02
       305  24  6.145407E+03  1.986244E+05  7.921029E+03 -1.056840E+05  9.427001E+03  3.179433E+03
       305  25  1.259091E+05  7.085383E+05  1.244826E+05 -1.052377E+05  2.089881E+04 -1.408247E+04
       305  26  1.713196E+05  8.949267E+05  1.677454E+05 -5.444909E+04  2.679337E+04  4.314233E+03
       305  27  2.271065E+05  1.086424E+06  2.255791E+05 -1.086629E+05  9.412641E+03  2.269800E+04
       306   1 -1.477498E+06 -5.133772E+05 -3.227653E+05 -5.296620E+05 -1.478769E+05 -4.987867E+04
       306   2 -1.435369E+06 -2.952573E+05 -1.864043E+05 -5.352762E+05 -9.584354E+04 -1.858619E+04
       306   3 -1.457323E+06 -2.720467E+05 -1.417662E+05 -5.076558E+05 -3.981339E+04  2.081205E+03
       306   4 -1.118764E+06 -3.196090E+05 -2.143475E+05 -3.719050E+05 -1.381334E+05 -4.623397E+04
       306   5 -1.076028E+06 -1.426401E+05 -9.072202E+04 -4.186318E+05 -9.274914E+04 -1.742784E+04
       306   6 -1.096015E+06 -1.592025E+05 -5.350395E+04 -4.321361E+05 -4.336981E+04  7.469205E+02
       306   7 -7.598951E+05 -1.257862E+05 -1.059415E+05 -2.140518E+05 -1.283838E+05 -4.258462E+04
       306   8 -7.165602E+05  9.995619E+03  4.948929E+03 -3.019225E+05 -8.965276E+04 -1.626852E+04
       306   9 -7.345810E+05 -4.635906E+04  3.474860E+04 -3.565812E+05 -4.692849E+04 -5.878851E+02
       306  10 -1.477522E+06 -5.133858E+05 -3.228112E+05 -5.296680E+05  3.869507E-10 -1.950791E-10
       306  11 -1.435379E+06 -2.952602E+05 -1.864223E+05 -5.352777E+05  2.463160E-10 -4.135626E-10
       306  12 -1.457324E+06 -2.720471E+05 -1.417692E+05 -5.076557E+05  1.556155E-10 -1.339607E-10
       306  13 -1.118785E+06 -3.196164E+05 -2.143875E+05 -3.719101E+05  3.148055E-10 -1.357446E-10
       306  14 -1.076037E+06 -1.426428E+05 -9.073879E+04 -4.186331E+05 -4.601438E-10 -4.170718E-10
       306  15 -1.096017E+06 -1.592030E+05 -5.350749E+04 -4.321361E+05 -2.388998E-10 -1.115548E-10
       306  16 -7.599133E+05 -1.257925E+05 -1.059760E+05 -2.140562E+05  1.955636E-10 -1.105297E-10
       306  17 -7.165689E+05  9.993173E+03  4.933307E+03 -3.019237E+05 -3.542982E-10 -2.817951E-10
       306  18 -7.345834E+05 -4.635965E+04  3.474445E+04 -3.565813E+05 -3.022815E-10 -1.307499E-10
       306  19 -1.477498E+06 -5.133772E+05 -3.227653E+05 -5.296620E+05  1.478769E+05  4.987867E+04
       306  20 -1.435369E+06 -2.952573E+05 -1.864043E+05 -5.352762E+05  9.584354E+04  1.858619E+04
       306  21 -1.457323E+06 -2.720467E+05 -1.417662E+05 -5.076558E+05  3.981339E+04 -2.081205E+03
       306  22 -1.118764E+06 -3.196090E+05 -2.143475E+05 -3.719050E+05  1.381334E+05  4.623397E+04
       306  23 -1.076028E+06 -1.426401E+05 -9.072202E+04 -4.186318E+05  9.274914E+04  1.742784E+04
       306  24 -1.096015E+06 -1.592025E+05 -5.350395E+04 -4.321361E+05  4.336981E+04 -7.469205E+02
       306  25 -7.598951E+05 -1.257862E+05 -1.059415E+05 -2.140518E+05  1.283838E+05  4.258462E+04
       306  26 -7.165602E+05  9.995619E+03  4.948929E+03 -3.019225E+05  8.965276E+04  1.626852E+04
       306  27 -7.345810E+05 -4.635906E+04  3.474860E+04 -3.565812E+05  4.692849E+04  5.878851E+02
       307   1 -1.399747E+06 -3.003894E+05 -1.238641E+05 -5.099844E+05 -3.496339E+04  1.395213E+03
       307   2 -1.374581E+06 -2.656257E+05 -9.436393E+04 -4.965159E+05 -2.331235E+04  4.879145E+03
       307   3 -1.344177E+06 -2.597327E+05 -7.770245E+04 -4.937654E+05 -1.142492E+04  7.733692E+03
       307   4 -1.088938E+06 -1.794820E+05 -4.311596E+04 -4.205386E+05 -3.526585E+04  1.280874E+03
       307   5 -1.090605E+06 -1.581135E+05 -2.132365E+04 -4.177922E+05 -2.400475E+04  4.618882E+03
       307   6 -1.086957E+06 -1.655333E+05 -1.205557E+04 -4.257645E+05 -1.250788E+04  7.327288E+03
       307   7 -7.780335E+05 -5.856592E+04  3.762434E+04 -3.310511E+05 -3.556846E+04  1.166469E+03
       307   8 -8.065510E+05 -5.059552E+04  5.171012E+04 -3.390357E+05 -2.469749E+04  4.358487E+03
       307   9 -8.296712E+05 -7.133056E+04  5.358596E+04 -3.577385E+05 -1.359134E+04  6.920710E+03
       307  10 -1.399748E+06 -3.003898E+05 -1.238664E+05 -5.099844E+05 -3.017302E-10  2.480489E-10
       307  11 -1.374581E+06 -2.656258E+05 -9.436500E+04 -4.965158E+05 -6.627940E-10 -5.034361E-12
       307  12 -1.344178E+06 -2.597328E+05 -7.770281E+04 -4.937653E+05 -9.489905E-11 -3.989808E-11
       307  13 -1.088939E+06 -1.794823E+05 -4.311831E+04 -4.205386E+05 -6.641708E-11  9.926718E-11
       307  14 -1.090606E+06 -1.581137E+05 -2.132478E+04 -4.177922E+05  4.823085E-10  2.025563E-10
       307  15 -1.086957E+06 -1.655334E+05 -1.205596E+04 -4.257645E+05 -4.331667E-10 -1.513582E-11
       307  16 -7.780348E+05 -5.856626E+04  3.762195E+04 -3.310511E+05 -1.525516E-10 -1.086792E-10
       307  17 -8.065516E+05 -5.059570E+04  5.170894E+04 -3.390356E+05  1.344109E-10  3.367599E-10
       307  18 -8.296714E+05 -7.133066E+04  5.358552E+04 -3.577384E+05 -3.634438E-10 -7.929664E-11
       307  19 -1.399747E+06 -3.003894E+05 -1.238641E+05 -5.099844E+05  3.496339E+04 -1.395213E+03
       307  20 -1.374581E+06 -2.656257E+05 -9.436393E+04 -4.965159E+05  2.331235E+04 -4.879145E+03
       307  21 -1.344177E+06 -2.597327E+05 -7.770245E+04 -4.937654E+05  1.142492E+04 -7.733692E+03
       307  22 -1.088938E+06 -1.794820E+05 -4.311596E+04 -4.205386E+05  3.526585E+04 -1.280874E+03
       307  23 -1.090605E+06 -1.581135E+05 -2.132365E+04 -4.177922E+05  2.400475E+04 -4.618882E+03
       307  24 -1.086957E+06 -1.655333E+05 -1.205557E+04 -4.257645E+05  1.250788E+04 -7.327288E+03
       307  25 -7.780335E+05 -5.856592E+04  3.762434E+04 -3.310511E+05  3.556846E+04 -1.166469E+03
       307  26 -8.065510E+05 -5.059552E+04  5.171012E+04 -3.390357E+05  2.469749E+04 -4.358487E+03
       307  27 -8.296712E+05 -7.133056E+04  5.358596E+04 -3.577385E+05  1.359134E+04 -6.920710E+03
       308   1 -1.309682E+06 -2.512345E+05 -6.657043E+04 -4.860475E+05 -9.540665E+03  7.364781E+03
       308   2 -1.285800E+06 -2.319535E+05 -5.458072E+04 -4.704848E+05 -6.476480E+03  6.848485E+03
       308   3 -1.249656E+06 -2.271952E+05 -4.484018E+04 -4.696570E+05 -3.394647E+03  6.283762E+03
       308   4 -1.086107E+06 -1.673209E+05 -9.298988E+03 -4.247956E+05 -1.044404E+04  7.025832E+03
       308   5 -1.092154E+06 -1.594667E+05 -4.936909E+03 -4.176504E+05 -7.409360E+03  6.498661E+03
       308   6 -1.085935E+06 -1.661290E+05 -2.799912E+03 -4.252402E+05 -4.357159E+03  5.923024E+03
       308   7 -8.624838E+05 -8.340435E+04  4.796814E+04 -3.635239E+05 -1.134777E+04  6.686749E+03
       308   8 -8.984721E+05 -8.697762E+04  4.470383E+04 -3.648010E+05 -8.342559E+03  6.148718E+03
       308   9 -9.221867E+05 -1.050610E+05  3.923832E+04 -3.808127E+05 -5.319952E+03  5.562181E+03
       308  10 -1.309682E+06 -2.512346E+05 -6.657071E+04 -4.860475E+05 -4.889936E-10  3.087553E-11
       308  11 -1.285800E+06 -2.319535E+05 -5.458089E+04 -4.704848E+05 -2.021891E-11  4.781137E-10
       308  12 -1.249656E+06 -2.271953E+05 -4.484028E+04 -4.696570E+05 -1.237365E-10  1.256883E-10
       308  13 -1.086107E+06 -1.673210E+05 -9.299286E+03 -4.247956E+05  5.533746E-11 -3.131905E-11
       308  14 -1.092154E+06 -1.594668E+05 -4.937092E+03 -4.176503E+05  1.342416E-10  3.179672E-10
       308  15 -1.085935E+06 -1.661291E+05 -2.800013E+03 -4.252402E+05 -3.021527E-10 -1.122482E-10
       308  16 -8.624840E+05 -8.340443E+04  4.796782E+04 -3.635239E+05  7.511941E-11 -1.204477E-10
       308  17 -8.984722E+05 -8.697768E+04  4.470363E+04 -3.648009E+05  5.666039E-11 -1.964807E-10
       308  18 -9.221867E+05 -1.050611E+05  3.923821E+04 -3.808127E+05 -3.411380E-10 -2.136101E-10
       308  19 -1.309682E+06 -2.512345E+05 -6.657043E+04 -4.860475E+05  9.540665E+03 -7.364781E+03
       308  20 -1.285800E+06 -2.319535E+05 -5.458072E+04 -4.704848E+05  6.476480E+03 -6.848485E+03
       308  21 -1.249656E+06 -2.271952E+05 -4.484018E+04 -4.696570E+05  3.394647E+03 -6.283762E+03
       308  22 -1.086107E+06 -1.673209E+05 -9.298988E+03 -4.247956E+05  1.044404E+04 -7.025832E+03
       308  23 -1.092154E+06 -1.594667E+05 -4.936909E+03 -4.176504E+05  7.409360E+03 -6.498661E+03
       308  24 -1.085935E+06 -1.661290E+05 -2.799912E+03 -4.252402E+05  4.357159E+03 -5.923024E+03
       308  25 -8.624838E+05 -8.340435E+04  4.796814E+04 -3.635239E+05  1.134777E+04 -6.686749E+03
       308  26 -8.984721E+05 -8.697762E+04  4.470383E+04 -3.648010E+05  8.342559E+03 -6.148718E+03
       308  27 -9.221867E+05 -1.050610E+05  3.923832E+04 -3.808127E+05  5.319952E+03 -5.562181E+03
       309   1 -1.216640E+06 -2.152459E+05 -3.559602E+04 -4.608788E+05 -2.659524E+03  5.543719E+03
       309   2 -1.192580E+06 -1.970148E+05 -2.699952E+04 -4.448871E+05 -1.423331E+03  4.265602E+03
       309   3 -1.155329E+06 -1.922399E+05 -1.893037E+04 -4.441702E+05 -1.841209E+02  2.978528E+03
       309   4 -1.085786E+06 -1.663154E+05 -2.168382E+03 -4.252007E+05 -3.616076E+03  5.185307E+03
       309   5 -1.092374E+06 -1.595399E+05 -1.318295E+03 -4.175808E+05 -2.385355E+03  3.905238E+03
       309   6 -1.085770E+06 -1.662194E+05 -9.910348E+02 -4.252358E+05 -1.151657E+03  2.616203E+03
       309   7 -9.549147E+05 -1.173839E+05  3.125785E+04 -3.895159E+05 -4.572848E+03  4.826813E+03
       309   8 -9.921578E+05 -1.220645E+05  2.436205E+04 -3.902706E+05 -3.347548E+03  3.544810E+03
       309   9 -1.016207E+06 -1.401987E+05  1.694784E+04 -4.062996E+05 -2.119307E+03  2.253835E+03
       309  10 -1.216640E+06 -2.152459E+05 -3.559609E+04 -4.608788E+05 -9.059993E-11 -1.740379E-10
       309  11 -1.192580E+06 -1.970148E+05 -2.699956E+04 -4.448871E+05  5.814591E-10  3.592864E-10
       309  12 -1.155329E+06 -1.922399E+05 -1.893039E+04 -4.441702E+05  7.980770E-11  5.328762E-10
       309  13 -1.085786E+06 -1.663155E+05 -2.168457E+03 -4.252007E+05 -1.317904E-12 -1.424038E-10
       309  14 -1.092374E+06 -1.595400E+05 -1.318334E+03 -4.175808E+05  5.675516E-10  4.837997E-10
       309  15 -1.085770E+06 -1.662194E+05 -9.910501E+02 -4.252358E+05 -5.231338E-10  2.251722E-10
       309  16 -9.549148E+05 -1.173839E+05  3.125777E+04 -3.895158E+05  2.390137E-10 -1.633720E-10
       309  17 -9.921578E+05 -1.220646E+05  2.436201E+04 -3.902706E+05  2.840606E-10  2.254118E-10
       309  18 -1.016207E+06 -1.401987E+05  1.694782E+04 -4.062996E+05 -5.291112E-11 -2.906061E-10
       309  19 -1.216640E+06 -2.152459E+05 -3.559602E+04 -4.608788E+05  2.659524E+03 -5.543719E+03
       309  20 -1.192580E+06 -1.970148E+05 -2.699952E+04 -4.448871E+05  1.423331E+03 -4.265602E+03
       309  21 -1.155329E+06 -1.922399E+05 -1.893037E+04 -4.441702E+05  1.841209E+02 -2.978528E+03
       309  22 -1.085786E+06 -1.663154E+05 -2.168382E+03 -4.252007E+05  3.616076E+03 -5.185307E+03
       309  23 -1.092374E+06 -1.595399E+05 -1.318295E+03 -4.175808E+05  2.385355E+03 -3.905238E+03
       309  24 -1.085770E+06 -1.662194E+05 -9.910348E+02 -4.252358E+05  1.151657E+03 -2.616203E+03
       309  25 -9.549147E+05 -1.173839E+05  3.125785E+04 -3.895159E+05  4.572848E+03 -4.826813E+03
       309  26 -9.921578E+05 -1.220645E+05  2.436205E+04 -3.902706E+05  3.347548E+03 -3.544810E+03
       309  27 -1.016207E+06 -1.401987E+05  1.694784E+04 -4.062996E+05  2.119307E+03 -2.253835E+03
       310   1 -1.122145E+06 -1.798480E+05 -1.018020E+04 -4.351990E+05  3.153892E+02  2.142192E+03
       310   2 -1.097937E+06 -1.615984E+05 -2.586003E+03 -4.190748E+05  1.473726E+03  8.176093E+02
       310   3 -1.060446E+06 -1.568696E+05  4.545894E+03 -4.183315E+05  2.631640E+03 -5.058021E+02
       310   4 -1.085750E+06 -1.662409E+05 -9.646044E+02 -4.252566E+05 -6.537832E+02  1.779289E+03
       310   5 -1.092396E+06 -1.595148E+05 -1.163946E+03 -4.175529E+05  5.052645E+02  4.549730E+02
       310   6 -1.085760E+06 -1.663100E+05 -1.826275E+03 -4.252307E+05  1.663854E+03 -8.681784E+02
       310   7 -1.049354E+06 -1.526336E+05  8.250924E+03 -4.153136E+05 -1.623021E+03  1.416361E+03
       310   8 -1.086856E+06 -1.574312E+05  2.581152E+02 -4.160311E+05 -4.632086E+02  9.233240E+01
       310   9 -1.111074E+06 -1.757503E+05 -8.198492E+03 -4.321298E+05  6.961115E+02 -1.230539E+03
       310  10 -1.122145E+06 -1.798480E+05 -1.018021E+04 -4.351990E+05 -2.691508E-10  6.345854E-10
       310  11 -1.097937E+06 -1.615984E+05 -2.586008E+03 -4.190748E+05 -4.159052E-10 -6.322431E-10
       310  12 -1.060446E+06 -1.568696E+05  4.545880E+03 -4.183315E+05  1.245179E-10 -3.327794E-10
       310  13 -1.085750E+06 -1.662409E+05 -9.646111E+02 -4.252566E+05 -3.077659E-10 -9.814509E-11
       310  14 -1.092396E+06 -1.595148E+05 -1.163947E+03 -4.175529E+05  1.303904E-09  1.209230E-09
       310  15 -1.085760E+06 -1.663100E+05 -1.826282E+03 -4.252307E+05  4.457294E-10  3.836142E-10
       310  16 -1.049354E+06 -1.526336E+05  8.250915E+03 -4.153136E+05 -1.028663E-10 -1.971456E-10
       310  17 -1.086856E+06 -1.574312E+05  2.581148E+02 -4.160311E+05  4.488653E-10  7.896352E-10
       310  18 -1.111074E+06 -1.757503E+05 -8.198495E+03 -4.321298E+05  3.636953E-10  2.984655E-10
       310  19 -1.122145E+06 -1.798480E+05 -1.018020E+04 -4.351990E+05 -3.153892E+02 -2.142192E+03
       310  20 -1.097937E+06 -1.615984E+05 -2.586003E+03 -4.190748E+05 -1.473726E+03 -8.176093E+02
       310  21 -1.060446E+06 -1.568696E+05  4.545894E+03 -4.183315E+05 -2.631640E+03  5.058021E+02
       310  22 -1.085750E+06 -1.662409E+05 -9.646044E+02 -4.252566E+05  6.537832E+02 -1.779289E+03
       310  23 -1.092396E+06 -1.595148E+05 -1.163946E+03 -4.175529E+05 -5.052645E+02 -4.549730E+02
       310  24 -1.085760E+06 -1.663100E+05 -1.826275E+03 -4.252307E+05 -1.663854E+03  8.681784E+02
       310  25 -1.049354E+06 -1.526336E+05  8.250924E+03 -4.153136E+05  1.623021E+03 -1.416361E+03
       310  26 -1.086856E+06 -1.574312E+05  2.581152E+02 -4.160311E+05  4.632086E+02 -9.233240E+01
       310  27 -1.111074E+06 -1.757503E+05 -8.198492E+03 -4.321298E+05 -6.961115E+02  1.230539E+03
       311   1 -1.027263E+06 -1.444286E+05  1.276213E+04 -4.095151E+05  3.317576E+03 -1.276252E+03
       311   2 -1.003084E+06 -1.260549E+05  1.877911E+04 -3.932529E+05  5.923978E+03 -2.050226E+03
       311   3 -9.662618E+05 -1.221951E+05  2.297176E+04 -3.920820E+05  8.518410E+03 -2.791171E+03
       311   4 -1.085855E+06 -1.661865E+05 -2.334943E+03 -4.252960E+05  2.342774E+03 -1.641282E+03
       311   5 -1.092245E+06 -1.594140E+05 -4.072161E+03 -4.175685E+05  4.969551E+03 -2.407714E+03
       311   6 -1.085995E+06 -1.671597E+05 -7.650064E+03 -4.249329E+05  7.584257E+03 -3.141154E+03
       311   7 -1.144445E+06 -1.879442E+05 -1.743224E+04 -4.410754E+05  1.368076E+03 -2.006272E+03
       311   8 -1.181398E+06 -1.927726E+05 -2.692408E+04 -4.418809E+05  4.015275E+03 -2.765146E+03
       311   9 -1.205715E+06 -2.121236E+05 -3.827318E+04 -4.577780E+05  6.650298E+03 -3.491064E+03
       311  10 -1.027263E+06 -1.444286E+05  1.276211E+04 -4.095151E+05 -2.203206E-10 -1.705108E-11
       311  11 -1.003084E+06 -1.260549E+05  1.877904E+04 -3.932529E+05 -5.812594E-10  5.468340E-11
       311  12 -9.662619E+05 -1.221951E+05  2.297161E+04 -3.920820E+05 -6.180160E-10  1.668064E-10
       311  13 -1.085855E+06 -1.661865E+05 -2.334958E+03 -4.252960E+05  2.258030E-10  6.913070E-11
       311  14 -1.092245E+06 -1.594140E+05 -4.072218E+03 -4.175685E+05 -7.127912E-11  4.319494E-10
       311  15 -1.085995E+06 -1.671597E+05 -7.650191E+03 -4.249328E+05 -4.343644E-10  3.157094E-10
       311  16 -1.144445E+06 -1.879442E+05 -1.743225E+04 -4.410754E+05  6.100534E-10  4.523334E-10
       311  17 -1.181398E+06 -1.927726E+05 -2.692412E+04 -4.418809E+05  4.831752E-10  3.614105E-10
       311  18 -1.205715E+06 -2.121236E+05 -3.827328E+04 -4.577780E+05  1.912323E-10  1.112539E-09
       311  19 -1.027263E+06 -1.444286E+05  1.276213E+04 -4.095151E+05 -3.317576E+03  1.276252E+03
       311  20 -1.003084E+06 -1.260549E+05  1.877911E+04 -3.932529E+05 -5.923978E+03  2.050226E+03
       311  21 -9.662618E+05 -1.221951E+05  2.297176E+04 -3.920820E+05 -8.518410E+03  2.791171E+03
       311  22 -1.085855E+06 -1.661865E+05 -2.334943E+03 -4.252960E+05 -2.342774E+03  1.641282E+03
       311  23 -1.092245E+06 -1.594140E+05 -4.072161E+03 -4.175685E+05 -4.969551E+03  2.407714E+03
       311  24 -1.085995E+06 -1.671597E+05 -7.650064E+03 -4.249329E+05 -7.584257E+03  3.141154E+03
       311  25 -1.144445E+06 -1.879442E+05 -1.743224E+04 -4.410754E+05 -1.368076E+03  2.006272E+03
       311  26 -1.181398E+06 -1.927726E+05 -2.692408E+04 -4.418809E+05 -4.015275E+03  2.765146E+03
       311  27 -1.205715E+06 -2.121236E+05 -3.827318E+04 -4.577780E+05 -6.650298E+03  3.491064E+03
       312   1 -9.327332E+05 -1.098477E+05  2.931407E+04 -3.855825E+05  1.042023E+04 -3.159555E+03
       312   2 -9.088511E+05 -8.916795E+04  2.934514E+04 -3.669910E+05  1.968446E+04 -1.360920E+03
       312   3 -8.778901E+05 -9.477104E+04  1.931658E+04 -3.603123E+05  2.876941E+04  9.184635E+02
       312   4 -1.086674E+06 -1.657136E+05 -9.913074E+03 -4.257538E+05  9.346464E+03 -3.561898E+03
       312   5 -1.090994E+06 -1.582706E+05 -1.751947E+04 -4.176529E+05  1.891001E+04 -1.651351E+03
       312   6 -1.088297E+06 -1.771729E+05 -3.542532E+04 -4.214652E+05  2.829382E+04  7.397544E+02
       312   7 -1.240591E+06 -2.215783E+05 -4.914212E+04 -4.659163E+05  8.272987E+03 -3.964138E+03
       312   8 -1.273104E+06 -2.273708E+05 -6.438672E+04 -4.683011E+05  1.813582E+04 -1.941685E+03
       312   9 -1.298660E+06 -2.595706E+05 -9.017073E+04 -4.825987E+05  2.781840E+04  5.611185E+02
       312  10 -9.327333E+05 -1.098477E+05  2.931384E+04 -3.855825E+05 -4.084414E-10  2.425364E-10
       312  11 -9.088515E+05 -8.916805E+04  2.934441E+04 -3.669910E+05 -7.938045E-10 -2.802610E-10
       312  12 -8.778910E+05 -9.477126E+04  1.931502E+04 -3.603123E+05 -2.142222E-10 -7.988251E-11
       312  13 -1.086674E+06 -1.657136E+05 -9.913262E+03 -4.257538E+05 -6.830939E-10  7.946106E-10
       312  14 -1.090994E+06 -1.582707E+05 -1.752015E+04 -4.176528E+05 -6.924425E-12  3.135337E-10
       312  15 -1.088298E+06 -1.771731E+05 -3.542683E+04 -4.214652E+05 -2.511283E-10 -2.340672E-10
       312  16 -1.240591E+06 -2.215783E+05 -4.914228E+04 -4.659162E+05 -3.266862E-10  6.442720E-10
       312  17 -1.273104E+06 -2.273709E+05 -6.438734E+04 -4.683010E+05  5.203760E-10  2.465067E-10
       312  18 -1.298661E+06 -2.595708E+05 -9.017219E+04 -4.825987E+05  5.057594E-10 -3.154408E-11
       312  19 -9.327332E+05 -1.098477E+05  2.931407E+04 -3.855825E+05 -1.042023E+04  3.159555E+03
       312  20 -9.088511E+05 -8.916795E+04  2.934514E+04 -3.669910E+05 -1.968446E+04  1.360920E+03
       312  21 -8.778901E+05 -9.477104E+04  1.931658E+04 -3.603123E+05 -2.876941E+04 -9.184635E+02
       312  22 -1.086674E+06 -1.657136E+05 -9.913074E+03 -4.257538E+05 -9.346464E+03  3.561898E+03
       312  23 -1.090994E+06 -1.582706E+05 -1.751947E+04 -4.176529E+05 -1.891001E+04  1.651351E+03
       312  24 -1.088297E+06 -1.771729E+05 -3.542532E+04 -4.214652E+05 -2.829382E+04 -7.397544E+02
       312  25 -1.240591E+06 -2.215783E+05 -4.914212E+04 -4.659163E+05 -8.272987E+03  3.964138E+03
       312  26 -1.273104E+06 -2.273708E+05 -6.438672E+04 -4.683011E+05 -1.813582E+04  1.941685E+03
       312  27 -1.298660E+06 -2.595706E+05 -9.017073E+04 -4.825987E+05 -2.781840E+04 -5.611185E+02
       313   1 -8.354463E+05 -8.220810E+04  1.876277E+04 -3.794893E+05  3.797195E+04  2.180890E+03
       313   2 -8.155722E+05 -3.219015E+04 -4.127898E+03 -3.312446E+05  7.357130E+04  1.480180E+04
       313   3 -8.434241E+05 -1.429328E+05 -9.394066E+04 -2.589589E+05  1.061101E+05  3.558992E+04
       313   4 -1.094103E+06 -1.605227E+05 -4.395992E+04 -4.310053E+05  3.499454E+04  1.065558E+03
       313   5 -1.079038E+06 -1.455315E+05 -7.453213E+04 -4.183155E+05  7.570820E+04  1.560082E+04
       313   6 -1.112742E+06 -2.923620E+05 -1.761063E+05 -3.815803E+05  1.133598E+05  3.829993E+04
       313   7 -1.352695E+06 -2.388384E+05 -1.066876E+05 -4.825046E+05  3.201848E+04 -4.949420E+01
       313   8 -1.342434E+06 -2.588618E+05 -1.449423E+05 -5.053506E+05  7.784409E+04  1.639933E+04
       313   9 -1.381981E+06 -4.417560E+05 -2.582777E+05 -5.041442E+05  1.206060E+05  4.100720E+04
       313  10 -8.354478E+05 -8.220849E+04  1.876004E+04 -3.794894E+05 -5.082740E-10 -1.983986E-10
       313  11 -8.155780E+05 -3.219184E+04 -4.138497E+03 -3.312454E+05 -2.902048E-10 -9.772549E-12
       313  12 -8.434366E+05 -1.429372E+05 -9.396423E+04 -2.589620E+05 -2.265229E-10  1.930906E-10
       313  13 -1.094104E+06 -1.605231E+05 -4.396222E+04 -4.310053E+05  2.512673E-11 -4.469025E-11
       313  14 -1.079044E+06 -1.455333E+05 -7.454338E+04 -4.183164E+05  6.118169E-10  3.248922E-10
       313  15 -1.112756E+06 -2.923671E+05 -1.761332E+05 -3.815838E+05  2.643231E-12  7.429487E-11
       313  16 -1.352697E+06 -2.388387E+05 -1.066895E+05 -4.825046E+05  6.052939E-10  1.153576E-11
       313  17 -1.342441E+06 -2.588638E+05 -1.449542E+05 -5.053516E+05  3.376115E-11  2.742217E-10
       313  18 -1.381997E+06 -4.417617E+05 -2.583083E+05 -5.041482E+05 -4.883786E-10  6.011346E-12
       313  19 -8.354463E+05 -8.220810E+04  1.876277E+04 -3.794893E+05 -3.797195E+04 -2.180890E+03
       313  20 -8.155722E+05 -3.219015E+04 -4.127898E+03 -3.312446E+05 -7.357130E+04 -1.480180E+04
       313  21 -8.434241E+05 -1.429328E+05 -9.394066E+04 -2.589589E+05 -1.061101E+05 -3.558992E+04
       313  22 -1.094103E+06 -1.605227E+05 -4.395992E+04 -4.310053E+05 -3.499454E+04 -1.065558E+03
       313  23 -1.079038E+06 -1.455315E+05 -7.453213E+04 -4.183155E+05 -7.570820E+04 -1.560082E+04
       313  24 -1.112742E+06 -2.923620E+05 -1.761063E+05 -3.815803E+05 -1.133598E+05 -3.829993E+04
       313  25 -1.352695E+06 -2.388384E+05 -1.066876E+05 -4.825046E+05 -3.201848E+04  4.949420E+01
       313  26 -1.342434E+06 -2.588618E+05 -1.449423E+05 -5.053506E+05 -7.784409E+04 -1.639933E+04
       313  27 -1.381981E+06 -4.417560E+05 -2.582777E+05 -5.041442E+05 -1.206060E+05 -4.100720E+04
       314   1  6.897182E+05  1.557359E+05  2.496258E+05  1.064483E+05  3.008716E+05  1.106362E+04
       314   2  7.077570E+05 -2.365771E+05  1.709213E+04  2.618656E+04  2.036630E+05  3.237772E+04
       314   3  8.447374E+05 -2.061542E+05 -4.635695E+04 -9.697035E+04  1.064724E+05  3.143254E+04
       314   4  1.596097E+06  3.804454E+05  4.712047E+05 -4.138706E+04  3.231625E+05  1.102750E+04
       314   5  1.535571E+06 -3.283451E+04  2.097064E+05 -1.964581E+04  2.108175E+05  3.236884E+04
       314   6  1.596413E+06 -2.110016E+04  1.276135E+05 -4.079564E+04  9.850614E+04  3.143219E+04
       314   7  2.503271E+06  6.051773E+05  6.927374E+05 -1.894387E+05  3.454856E+05  1.098085E+04
       314   8  2.364020E+06  1.708678E+05  4.022757E+05 -6.553984E+04  2.179814E+05  3.235892E+04
       314   9  2.348617E+06  1.639260E+05  3.015481E+05  1.544738E+04  9.053029E+04  3.143040E+04
       314  10  6.896211E+05  1.557115E+05  2.494557E+05  1.064456E+05 -1.058631E-09  5.879553E-10
       314  11  7.077122E+05 -2.365893E+05  1.701231E+04  2.618125E+04 -4.931979E-10 -4.943100E-10
       314  12  8.447249E+05 -2.061583E+05 -4.638009E+04 -9.697304E+04  3.041944E-10 -1.955614E-10
       314  13  1.595985E+06  3.804174E+05  4.710087E+05 -4.138993E+04 -2.867621E-10  2.465247E-10
       314  14  1.535523E+06 -3.284753E+04  2.096211E+05 -1.965131E+04 -9.639040E-10 -1.570224E-09
       314  15  1.596403E+06 -2.110382E+04  1.275934E+05 -4.079814E+04 -2.775756E-10 -6.143770E-11
       314  16  2.503143E+06  6.051453E+05  6.925138E+05 -1.894417E+05 -4.490506E-11 -8.730329E-11
       314  17  2.363969E+06  1.708540E+05  4.021848E+05 -6.554551E+04  5.905713E-10 -2.596008E-10
       314  18  2.348608E+06  1.639228E+05  3.015309E+05  1.544509E+04 -1.935337E-12 -6.191224E-10
       314  19  6.897182E+05  1.557359E+05  2.496258E+05  1.064483E+05 -3.008716E+05 -1.106362E+04
       314  20  7.077570E+05 -2.365771E+05  1.709213E+04  2.618656E+04 -2.036630E+05 -3.237772E+04
       314  21  8.447374E+05 -2.061542E+05 -4.635695E+04 -9.697035E+04 -1.064724E+05 -3.143254E+04
       314  22  1.596097E+06  3.804454E+05  4.712047E+05 -4.138706E+04 -3.231625E+05 -1.102750E+04
       314  23  1.535571E+06 -3.283451E+04  2.097064E+05 -1.964581E+04 -2.108175E+05 -3.236884E+04
       314  24  1.596413E+06 -2.110016E+04  1.276135E+05 -4.079564E+04 -9.850614E+04 -3.143219E+04
       314  25  2.503271E+06  6.051773E+05  6.927374E+05 -1.894387E+05 -3.454856E+05 -1.098085E+04
       314  26  2.364020E+06  1.708678E+05  4.022757E+05 -6.553984E+04 -2.179814E+05 -3.235892E+04
       314  27  2.348617E+06  1.639260E+05  3.015481E+05  1.544738E+04 -9.053029E+04 -3.143040E+04
       315   1  8.967647E+05 -1.356476E+05 -5.396409E+04 -3.083263E+04  8.045149E+04  2.656897E+04
       315   2  9.644828E+05 -1.511071E+05 -8.545734E+04 -1.759425E+04  5.381601E+04  2.435389E+04
       315   3  1.044681E+06 -1.316627E+05 -9.083555E+04 -4.578078E+04  2.717608E+04  2.100444E+04
       315   4  1.572205E+06  3.064596E+04  1.030601E+05 -4.064494E+04  7.941398E+04  2.656493E+04
       315   5  1.565938E+06 -3.082026E+03  5.405090E+04 -1.992470E+04  5.198783E+04  2.435119E+04
       315   6  1.572269E+06 -1.789199E+03  3.168400E+04 -4.062602E+04  2.456037E+04  2.100295E+04
       315   7  2.248067E+06  1.969078E+05  2.600536E+05 -5.046806E+04  7.837532E+04  2.656092E+04
       315   8  2.167727E+06  1.449177E+05  1.935349E+05 -2.225746E+04  5.015787E+04  2.434850E+04
       315   9  2.100114E+06  1.280649E+05  1.541849E+05 -3.546686E+04  2.194244E+04  2.100142E+04
       315  10  8.967575E+05 -1.356501E+05 -5.397756E+04 -3.083435E+04 -6.884480E-10 -8.800998E-10
       315  11  9.644795E+05 -1.511085E+05 -8.546389E+04 -1.759531E+04  1.686528E-10  4.539519E-11
       315  12  1.044680E+06 -1.316634E+05 -9.083777E+04 -4.578124E+04 -6.734520E-10  1.765601E-10
       315  13  1.572199E+06  3.064352E+04  1.030469E+05 -4.064664E+04 -5.384567E-10 -4.935321E-10
       315  14  1.565935E+06 -3.083387E+03  5.404472E+04 -1.992572E+04  6.737118E-10 -2.839094E-10
       315  15  1.572268E+06 -1.789835E+03  3.168204E+04 -4.062644E+04 -2.838757E-10 -1.756322E-11
       315  16  2.248060E+06  1.969054E+05  2.600408E+05 -5.046973E+04  8.370434E-10  3.382044E-11
       315  17  2.167725E+06  1.449164E+05  1.935291E+05 -2.225844E+04  4.745080E-10 -7.366915E-10
       315  18  2.100113E+06  1.280643E+05  1.541832E+05 -3.546723E+04  3.473544E-10 -3.669407E-11
       315  19  8.967647E+05 -1.356476E+05 -5.396409E+04 -3.083263E+04 -8.045149E+04 -2.656897E+04
       315  20  9.644828E+05 -1.511071E+05 -8.545734E+04 -1.759425E+04 -5.381601E+04 -2.435389E+04
       315  21  1.044681E+06 -1.316627E+05 -9.083555E+04 -4.578078E+04 -2.717608E+04 -2.100444E+04
       315  22  1.572205E+06  3.064596E+04  1.030601E+05 -4.064494E+04 -7.941398E+04 -2.656493E+04
       315  23  1.565938E+06 -3.082026E+03  5.405090E+04 -1.992470E+04 -5.198783E+04 -2.435119E+04
       315  24  1.572269E+06 -1.789199E+03  3.168400E+04 -4.062602E+04 -2.456037E+04 -2.100295E+04
       315  25  2.248067E+06  1.969078E+05  2.600536E+05 -5.046806E+04 -7.837532E+04 -2.656092E+04
       315  26  2.167727E+06  1.449177E+05  1.935349E+05 -2.225746E+04 -5.015787E+04 -2.434850E+04
       315  27  2.100114E+06  1.280649E+05  1.541849E+05 -3.546686E+04 -2.194244E+04 -2.100142E+04
       316   1  1.115887E+06 -1.093451E+05 -8.052744E+04 -4.009079E+04  2.183589E+04  1.884966E+04
       316   2  1.186911E+06 -9.437431E+04 -7.484536E+04 -2.031896E+04  1.500846E+04  1.550022E+04
       316   3  1.259639E+06 -7.651525E+04 -6.398232E+04 -4.084634E+04  8.178058E+03  1.211584E+04
       316   4  1.569862E+06  2.332255E+03  2.455171E+04 -4.038143E+04  1.960327E+04  1.884857E+04
       316   5  1.569022E+06 -3.475006E+02  1.375515E+04 -2.023270E+04  1.274764E+04  1.549979E+04
       316   6  1.569884E+06 -1.355587E+02  8.155938E+03 -4.038161E+04  5.889801E+03  1.211609E+04
       316   7  2.024028E+06  1.139952E+05  1.296171E+05 -4.067228E+04  1.736903E+04  1.884749E+04
       316   8  1.951268E+06  9.366905E+04  1.023459E+05 -2.014639E+04  1.048543E+04  1.549935E+04
       316   9  1.880218E+06  7.623736E+04  8.028774E+04 -3.991664E+04  3.600410E+03  1.211633E+04
       316  10  1.115886E+06 -1.093456E+05 -8.052900E+04 -4.009112E+04  6.418042E-10  4.059909E-10
       316  11  1.186910E+06 -9.437463E+04 -7.484624E+04 -2.031915E+04  5.240817E-10 -2.138485E-10
       316  12  1.259639E+06 -7.651543E+04 -6.398272E+04 -4.084642E+04 -6.034689E-10  2.215877E-10
       316  13  1.569862E+06  2.331771E+03  2.455032E+04 -4.038173E+04 -2.862964E-10  1.858002E-10
       316  14  1.569022E+06 -3.478023E+02  1.375439E+04 -2.023286E+04  3.037298E-11  1.159264E-11
       316  15  1.569884E+06 -1.357258E+02  8.155597E+03 -4.038167E+04  7.813045E-10  4.420262E-12
       316  16  2.024027E+06  1.139947E+05  1.296159E+05 -4.067254E+04 -9.308540E-10 -6.495117E-11
       316  17  1.951268E+06  9.366877E+04  1.023452E+05 -2.014652E+04  6.188146E-11  2.216632E-10
       316  18  1.880217E+06  7.623720E+04  8.028744E+04 -3.991667E+04 -8.538615E-11  2.982583E-10
       316  19  1.115887E+06 -1.093451E+05 -8.052744E+04 -4.009079E+04 -2.183589E+04 -1.884966E+04
       316  20  1.186911E+06 -9.437431E+04 -7.484536E+04 -2.031896E+04 -1.500846E+04 -1.550022E+04
       316  21  1.259639E+06 -7.651525E+04 -6.398232E+04 -4.084634E+04 -8.178058E+03 -1.211584E+04
       316  22  1.569862E+06  2.332255E+03  2.455171E+04 -4.038143E+04 -1.960327E+04 -1.884857E+04
       316  23  1.569022E+06 -3.475006E+02  1.375515E+04 -2.023270E+04 -1.274764E+04 -1.549979E+04
       316  24  1.569884E+06 -1.355587E+02  8.155938E+03 -4.038161E+04 -5.889801E+03 -1.211609E+04
       316  25  2.024028E+06  1.139952E+05  1.296171E+05 -4.067228E+04 -1.736903E+04 -1.884749E+04
       316  26  1.951268E+06  9.366905E+04  1.023459E+05 -2.014639E+04 -1.048543E+04 -1.549935E+04
       316  27  1.880218E+06  7.623736E+04  8.028774E+04 -3.991664E+04 -3.600410E+03 -1.211633E+04
       317   1  1.331340E+06 -5.841156E+04 -4.864087E+04 -4.027220E+04  6.838614E+03  1.014705E+04
       317   2  1.401914E+06 -4.125597E+04 -3.474760E+04 -2.043083E+04  4.807059E+03  6.794933E+03
       317   3  1.472809E+06 -2.382463E+04 -1.946940E+04 -4.024071E+04  2.774344E+03  3.451425E+03
       317   4  1.569586E+06  1.662895E+02  6.384487E+03 -4.023775E+04  4.580008E+03  1.014759E+04
       317   5  1.569432E+06 -4.013068E+01  4.089245E+03 -2.041249E+04  2.553449E+03  6.795746E+03
       317   6  1.569593E+06  2.851765E+01  3.175225E+03 -4.023784E+04  5.259572E+02  3.452529E+03
       317   7  1.807884E+06  5.874017E+04  6.140609E+04 -4.020328E+04  2.320543E+03  1.014813E+04
       317   8  1.736976E+06  4.117374E+04  4.292422E+04 -2.039415E+04  2.992365E+02  6.796558E+03
       317   9  1.666386E+06  2.388100E+04  2.581923E+04 -4.023496E+04 -1.722777E+03  3.453633E+03
       317  10  1.331340E+06 -5.841169E+04 -4.864116E+04 -4.027225E+04  2.712912E-10  9.188680E-11
       317  11  1.401914E+06 -4.125602E+04 -3.474773E+04 -2.043085E+04  5.502626E-11  1.835755E-10
       317  12  1.472809E+06 -2.382464E+04 -1.946944E+04 -4.024072E+04 -1.732058E-09  3.749506E-10
       317  13  1.569585E+06  1.661733E+02  6.384254E+03 -4.023779E+04  5.642722E-11  2.647804E-10
       317  14  1.569432E+06 -4.018206E+01  4.089146E+03 -2.041251E+04  5.525992E-10 -5.742946E-10
       317  15  1.569593E+06  2.850476E+01  3.175202E+03 -4.023784E+04  8.223002E-10 -5.697834E-11
       317  16  1.807884E+06  5.874006E+04  6.140589E+04 -4.020330E+04  7.485381E-10 -5.849087E-10
       317  17  1.736976E+06  4.117369E+04  4.292414E+04 -2.039415E+04 -5.594242E-10 -3.926686E-10
       317  18  1.666386E+06  2.388099E+04  2.581921E+04 -4.023496E+04  1.259850E-09 -1.923345E-10
       317  19  1.331340E+06 -5.841156E+04 -4.864087E+04 -4.027220E+04 -6.838614E+03 -1.014705E+04
       317  20  1.401914E+06 -4.125597E+04 -3.474760E+04 -2.043083E+04 -4.807059E+03 -6.794933E+03
       317  21  1.472809E+06 -2.382463E+04 -1.946940E+04 -4.024071E+04 -2.774344E+03 -3.451425E+03
       317  22  1.569586E+06  1.662895E+02  6.384487E+03 -4.023775E+04 -4.580008E+03 -1.014759E+04
       317  23  1.569432E+06 -4.013068E+01  4.089245E+03 -2.041249E+04 -2.553449E+03 -6.795746E+03
       317  24  1.569593E+06  2.851765E+01  3.175225E+03 -4.023784E+04 -5.259572E+02 -3.452529E+03
       317  25  1.807884E+06  5.874017E+04  6.140609E+04 -4.020328E+04 -2.320543E+03 -1.014813E+04
       317  26  1.736976E+06  4.117374E+04  4.292422E+04 -2.039415E+04 -2.992365E+02 -6.796558E+03
       317  27  1.666386E+06  2.388100E+04  2.581923E+04 -4.023496E+04  1.722777E+03 -3.453633E+03
       318   1  1.544099E+06 -6.197074E+03 -2.606963E+03 -4.017748E+04  2.202916E+03  1.509405E+03
       318   2  1.614457E+06  1.104556E+04  1.407828E+04 -2.042149E+04  3.956012E+02 -1.825797E+03
       318   3  1.685071E+06  2.852837E+04  3.198759E+04 -4.017230E+04 -1.411640E+03 -5.161433E+03
       318   4  1.569582E+06  3.052686E+01  3.091901E+03 -4.020592E+04 -4.307923E+01  1.510575E+03
       318   5  1.569454E+06 -2.542464E+01  3.646251E+03 -2.045239E+04 -1.850703E+03 -1.824712E+03
       318   6  1.569579E+06  1.594851E+02  5.425488E+03 -4.020584E+04 -3.658051E+03 -5.160415E+03
       318   7  1.595066E+06  6.258087E+03  8.790743E+03 -4.023437E+04 -2.289166E+03  1.511746E+03
       318   8  1.524453E+06 -1.109654E+04 -6.785899E+03 -2.048329E+04 -4.096846E+03 -1.823627E+03
       318   9  1.454099E+06 -2.821032E+04 -2.113748E+04 -4.023937E+04 -5.904050E+03 -5.159396E+03
       318  10  1.544099E+06 -6.197078E+03 -2.606977E+03 -4.017748E+04 -4.416355E-10  2.826703E-10
       318  11  1.614457E+06  1.104555E+04  1.407828E+04 -2.042149E+04  8.963246E-10 -2.418358E-10
       318  12  1.685071E+06  2.852834E+04  3.198754E+04 -4.017231E+04  1.647023E-10 -4.024047E-10
       318  13  1.569582E+06  3.052441E+01  3.091897E+03 -4.020592E+04 -4.821851E-10  1.002718E-09
       318  14  1.569454E+06 -2.542913E+01  3.646238E+03 -2.045239E+04 -1.661058E-09  6.520623E-10
       318  15  1.569579E+06  1.594529E+02  5.425413E+03 -4.020585E+04  1.595143E-10 -1.170941E-09
       318  16  1.595066E+06  6.258083E+03  8.790729E+03 -4.023437E+04  2.962032E-10  6.487506E-10
       318  17  1.524453E+06 -1.109655E+04 -6.785936E+03 -2.048330E+04 -1.400739E-09  9.155589E-10
       318  18  1.454099E+06 -2.821036E+04 -2.113760E+04 -4.023939E+04 -5.416092E-10 -7.558130E-10
       318  19  1.544099E+06 -6.197074E+03 -2.606963E+03 -4.017748E+04 -2.202916E+03 -1.509405E+03
       318  20  1.614457E+06  1.104556E+04  1.407828E+04 -2.042149E+04 -3.956012E+02  1.825797E+03
       318  21  1.685071E+06  2.852837E+04  3.198759E+04 -4.017230E+04  1.411640E+03  5.161433E+03
       318  22  1.569582E+06  3.052686E+01  3.091901E+03 -4.020592E+04  4.307923E+01 -1.510575E+03
       318  23  1.569454E+06 -2.542464E+01  3.646251E+03 -2.045239E+04  1.850703E+03  1.824712E+03
       318  24  1.569579E+06  1.594851E+02  5.425488E+03 -4.020584E+04  3.658051E+03  5.160415E+03
       318  25  1.595066E+06  6.258087E+03  8.790743E+03 -4.023437E+04  2.289166E+03 -1.511746E+03
       318  26  1.524453E+06 -1.109654E+04 -6.785899E+03 -2.048329E+04  4.096846E+03  1.823627E+03
       318  27  1.454099E+06 -2.821032E+04 -2.113748E+04 -4.023937E+04  5.904050E+03  5.159396E+03
       319   1  1.756819E+06  4.594910E+04  5.039865E+04 -3.991148E+04 -2.495459E+03 -7.114269E+03
       319   2  1.827265E+06  6.322778E+04  7.125541E+04 -2.032498E+04 -8.217372E+03 -1.046498E+04
       319   3  1.899077E+06  8.291000E+04  9.643243E+04 -4.059500E+04 -1.393860E+04 -1.378032E+04
       319   4  1.569819E+06 -9.098874E+01  6.848753E+03 -4.028395E+04 -4.764347E+03 -7.113408E+03
       319   5  1.569133E+06 -2.666987E+02  1.142495E+04 -2.035487E+04 -1.046044E+04 -1.046458E+04
       319   6  1.569803E+06  1.957543E+03  2.030505E+04 -4.028331E+04 -1.615520E+04 -1.378036E+04
       319   7  1.382851E+06 -4.613354E+04 -3.670348E+04 -4.065630E+04 -7.032557E+03 -7.112543E+03
       319   8  1.311062E+06 -6.376585E+04 -4.840996E+04 -2.038476E+04 -1.270257E+04 -1.046418E+04
       319   9  1.240629E+06 -7.900250E+04 -5.582955E+04 -3.997177E+04 -1.837063E+04 -1.378040E+04
       319  10  1.756819E+06  4.594905E+04  5.039854E+04 -3.991149E+04 -1.929593E-09  2.433811E-10
       319  11  1.827265E+06  6.322764E+04  7.125508E+04 -2.032504E+04  3.763335E-10  1.622860E-10
       319  12  1.899076E+06  8.290974E+04  9.643171E+04 -4.059516E+04 -7.389282E-10  4.767507E-10
       319  13  1.569819E+06 -9.104920E+01  6.848615E+03 -4.028398E+04  2.712106E-11 -7.553959E-10
       319  14  1.569133E+06 -2.668456E+02  1.142454E+04 -2.035496E+04  8.491240E-10 -3.255875E-10
       319  15  1.569803E+06  1.957269E+03  2.030420E+04 -4.028349E+04  5.960422E-10  1.480721E-10
       319  16  1.382851E+06 -4.613361E+04 -3.670367E+04 -4.065634E+04  5.832912E-10 -2.259147E-10
       319  17  1.311062E+06 -6.376601E+04 -4.841047E+04 -2.038486E+04  7.021946E-10 -1.551104E-10
       319  18  1.240629E+06 -7.900279E+04 -5.583054E+04 -3.997198E+04 -7.103348E-10 -3.682851E-10
       319  19  1.756819E+06  4.594910E+04  5.039865E+04 -3.991148E+04  2.495459E+03  7.114269E+03
       319  20  1.827265E+06  6.322778E+04  7.125541E+04 -2.032498E+04  8.217372E+03  1.046498E+04
       319  21  1.899077E+06  8.291000E+04  9.643243E+04 -4.059500E+04  1.393860E+04  1.378032E+04
       319  22  1.569819E+06 -9.098874E+01  6.848753E+03 -4.028395E+04  4.764347E+03  7.113408E+03
       319  23  1.569133E+06 -2.666987E+02  1.142495E+04 -2.035487E+04  1.046044E+04  1.046458E+04
       319  24  1.569803E+06  1.957543E+03  2.030505E+04 -4.028331E+04  1.615520E+04  1.378036E+04
       319  25  1.382851E+06 -4.613354E+04 -3.670348E+04 -4.065630E+04  7.032557E+03  7.112543E+03
       319  26  1.311062E+06 -6.376585E+04 -4.840996E+04 -2.038476E+04  1.270257E+04  1.046418E+04
       319  27  1.240629E+06 -7.900250E+04 -5.582955E+04 -3.997177E+04  1.837063E+04  1.378040E+04
       320   1  1.973685E+06  9.743870E+04  1.195058E+05 -3.630675E+04 -1.770953E+04 -1.588292E+04
       320   2  2.041132E+06  1.141973E+05  1.546379E+05 -2.218710E+04 -4.103600E+04 -1.918240E+04
       320   3  2.119020E+06  1.599831E+05  2.122107E+05 -4.876081E+04 -6.436341E+04 -2.150338E+04
       320   4  1.571787E+06 -1.445226E+03  2.618204E+04 -4.046830E+04 -2.025336E+04 -1.588321E+04
       320   5  1.566596E+06 -2.517583E+03  4.463756E+04 -2.012368E+04 -4.290534E+04 -1.918376E+04
       320   6  1.571735E+06  2.533384E+04  8.507984E+04 -4.047368E+04 -6.555558E+04 -2.150591E+04
       320   7  1.170037E+06 -1.003404E+05 -6.715251E+04 -4.462714E+04 -2.279555E+04 -1.588347E+04
       320   8  1.092267E+06 -1.192483E+05 -6.537781E+04 -1.806186E+04 -4.477325E+04 -1.918512E+04
       320   9  1.024726E+06 -1.093362E+05 -4.207112E+04 -3.219390E+04 -6.674669E+04 -2.150847E+04
       320  10  1.973685E+06  9.743834E+04  1.195047E+05 -3.630697E+04  6.708871E-10 -9.725649E-11
       320  11  2.041130E+06  1.141965E+05  1.546340E+05 -2.218773E+04  2.183981E-10 -5.409466E-10
       320  12  2.119015E+06  1.599815E+05  2.122021E+05 -4.876193E+04 -7.588508E-10 -3.349458E-10
       320  13  1.571786E+06 -1.445607E+03  2.618080E+04 -4.046856E+04 -8.424414E-11 -2.727320E-10
       320  14  1.566594E+06 -2.518471E+03  4.463341E+04 -2.012435E+04  1.881200E-09 -3.303517E-10
       320  15  1.571730E+06  2.533219E+04  8.507092E+04 -4.047482E+04  6.645351E-10 -2.335692E-10
       320  16  1.170036E+06 -1.003408E+05 -6.715396E+04 -4.462744E+04  6.071285E-10 -4.680982E-10
       320  17  1.092265E+06 -1.192492E+05 -6.538227E+04 -1.806255E+04  4.617202E-10 -3.571260E-11
       320  18  1.024721E+06 -1.093379E+05 -4.208034E+04 -3.219505E+04  4.873673E-10  4.433199E-10
       320  19  1.973685E+06  9.743870E+04  1.195058E+05 -3.630675E+04  1.770953E+04  1.588292E+04
       320  20  2.041132E+06  1.141973E+05  1.546379E+05 -2.218710E+04  4.103600E+04  1.918240E+04
       320  21  2.119020E+06  1.599831E+05  2.122107E+05 -4.876081E+04  6.436341E+04  2.150338E+04
       320  22  1.571787E+06 -1.445226E+03  2.618204E+04 -4.046830E+04  2.025336E+04  1.588321E+04
       320  23  1.566596E+06 -2.517583E+03  4.463756E+04 -2.012368E+04  4.290534E+04  1.918376E+04
       320  24  1.571735E+06  2.533384E+04  8.507984E+04 -4.047368E+04  6.555558E+04  2.150591E+04
       320  25  1.170037E+06 -1.003404E+05 -6.715251E+04 -4.462714E+04  2.279555E+04  1.588347E+04
       320  26  1.092267E+06 -1.192483E+05 -6.537781E+04 -1.806186E+04  4.477325E+04  1.918512E+04
       320  27  1.024726E+06 -1.093362E+05 -4.207112E+04 -3.219390E+04  6.674669E+04  2.150847E+04
       321   1  2.213801E+06  1.356024E+05  2.492101E+05  5.594899E+03 -7.417445E+04 -2.592327E+04
       321   2  2.238014E+06  1.442436E+05  3.350274E+05 -5.804008E+04 -1.798614E+05 -2.709311E+04
       321   3  2.364475E+06  5.057835E+05  5.777931E+05 -1.634248E+05 -2.855803E+05 -9.124501E+03
       321   4  1.591715E+06 -1.738018E+04  1.053435E+05 -4.061686E+04 -8.131675E+04 -2.592288E+04
       321   5  1.541531E+06 -2.707451E+04  1.731002E+05 -1.990444E+04 -1.740331E+05 -2.710167E+04
       321   6  1.591450E+06  3.140716E+05  3.889317E+05 -4.092786E+04 -2.667664E+05 -9.161139E+03
       321   7  9.699906E+05 -1.703819E+05 -3.854760E+04 -8.678215E+04 -8.845193E+04 -2.592143E+04
       321   8  8.454964E+05 -1.984212E+05  1.114127E+04  1.818818E+04 -1.682113E+05 -2.710954E+04
       321   9  8.189994E+05  1.223722E+05  2.000361E+05  8.141660E+04 -2.479756E+05 -9.190426E+03
       321  10  2.213795E+06  1.356002E+05  2.491986E+05  5.593352E+03 -7.783593E-10 -2.930427E-10
       321  11  2.237979E+06  1.442341E+05  3.349655E+05 -5.804400E+04 -1.866120E-10 -2.754596E-10
       321  12  2.364388E+06  5.057617E+05  5.776403E+05 -1.634269E+05  1.141647E-09  3.893418E-10
       321  13  1.591708E+06 -1.738267E+04  1.053299E+05 -4.061856E+04 -1.614157E-09 -1.019643E-09
       321  14  1.541498E+06 -2.708341E+04  1.730421E+05 -1.990824E+04 -1.667281E-11 -2.097762E-10
       321  15  1.591373E+06  3.140524E+05  3.887981E+05 -4.092983E+04  1.321709E-10 -5.411019E-10
       321  16  9.699820E+05 -1.703847E+05 -3.856355E+04 -8.678400E+04 -1.178308E-09 -3.009222E-11
       321  17  8.454658E+05 -1.984296E+05  1.108679E+04  1.818450E+04 -1.078878E-09 -6.541364E-10
       321  18  8.189334E+05  1.223556E+05  1.999206E+05  8.141477E+04  2.834007E-10  9.019185E-10
       321  19  2.213801E+06  1.356024E+05  2.492101E+05  5.594899E+03  7.417445E+04  2.592327E+04
       321  20  2.238014E+06  1.442436E+05  3.350274E+05 -5.804008E+04  1.798614E+05  2.709311E+04
       321  21  2.364475E+06  5.057835E+05  5.777931E+05 -1.634248E+05  2.855803E+05  9.124501E+03
       321  22  1.591715E+06 -1.738018E+04  1.053435E+05 -4.061686E+04  8.131675E+04  2.592288E+04
       321  23  1.541531E+06 -2.707451E+04  1.731002E+05 -1.990444E+04  1.740331E+05  2.710167E+04
       321  24  1.591450E+06  3.140716E+05  3.889317E+05 -4.092786E+04  2.667664E+05  9.161139E+03
       321  25  9.699906E+05 -1.703819E+05 -3.854760E+04 -8.678215E+04  8.845193E+04  2.592143E+04
       321  26  8.454964E+05 -1.984212E+05  1.114127E+04  1.818818E+04  1.682113E+05  2.710954E+04
       321  27  8.189994E+05  1.223722E+05  2.000361E+05  8.141660E+04  2.479756E+05  9.190426E+03
       322   1  1.756098E+05  3.992283E+05  2.226322E+05 -1.281755E+05 -1.959757E+03  1.568280E+05
       322   2 -5.804815E+04  2.763699E+05  7.165322E+04 -5.022339E+04 -6.966895E+03  9.815648E+04
       322   3 -7.380138E+04  2.154126E+05  1.328857E+04 -2.369206E+04 -1.124504E+04  3.949398E+04
       322   4  1.942019E+05  4.757018E+05  2.409544E+05 -5.212182E+04 -1.947674E+03  1.605497E+05
       322   5 -1.667678E+04  4.447302E+05  1.107364E+05 -2.660347E+04 -6.968881E+03  1.013762E+05
       322   6 -9.599138E+03  4.757322E+05  7.347657E+04 -5.249484E+04 -1.125133E+04  4.220348E+04
       322   7  2.128154E+05  5.521932E+05  2.592794E+05  2.394123E+04 -1.934682E+03  1.642720E+05
       322   8  2.469472E+04  6.131178E+05  1.498181E+05 -2.977084E+03 -6.970622E+03  1.045968E+05
       322   9  5.460143E+04  7.361162E+05  1.336605E+05 -8.130976E+04 -1.125786E+04  4.491411E+04
       322  10  1.756032E+05  3.992019E+05  2.225860E+05 -1.281752E+05 -3.861201E-10 -5.876252E-11
       322  11 -5.805079E+04  2.763596E+05  7.163503E+04 -5.022284E+04 -5.193629E-10 -5.580635E-09
       322  12 -7.380193E+04  2.154109E+05  1.328541E+04 -2.369171E+04  1.800686E-09 -4.031208E-09
       322  13  1.941950E+05  4.756742E+05  2.409060E+05 -5.212157E+04  7.458706E-10  9.089108E-10
       322  14 -1.667959E+04  4.447191E+05  1.107171E+05 -2.660290E+04  2.980507E-10  1.111406E-09
       322  15 -9.599751E+03  4.757303E+05  7.347299E+04 -5.249446E+04  1.850203E-09  7.236471E-10
       322  16  2.128082E+05  5.521643E+05  2.592288E+05  2.394148E+04  4.080399E-11  3.139662E-11
       322  17  2.469173E+04  6.131061E+05  1.497975E+05 -2.976497E+03  1.073834E-09  1.063724E-09
       322  18  5.460076E+04  7.361140E+05  1.336565E+05 -8.130935E+04  6.302777E-10  4.977883E-09
       322  19  1.756098E+05  3.992283E+05  2.226322E+05 -1.281755E+05  1.959757E+03 -1.568280E+05
       322  20 -5.804815E+04  2.763699E+05  7.165322E+04 -5.022339E+04  6.966895E+03 -9.815648E+04
       322  21 -7.380138E+04  2.154126E+05  1.328857E+04 -2.369206E+04  1.124504E+04 -3.949398E+04
       322  22  1.942019E+05  4.757018E+05  2.409544E+05 -5.212182E+04  1.947674E+03 -1.605497E+05
       322  23 -1.667678E+04  4.447302E+05  1.107364E+05 -2.660347E+04  6.968881E+03 -1.013762E+05
       322  24 -9.599138E+03  4.757322E+05  7.347657E+04 -5.249484E+04  1.125133E+04 -4.220348E+04
       322  25  2.128154E+05  5.521932E+05  2.592794E+05  2.394123E+04  1.934682E+03 -1.642720E+05
       322  26  2.469472E+04  6.131178E+05  1.498181E+05 -2.977084E+03  6.970622E+03 -1.045968E+05
       322  27  5.460143E+04  7.361162E+05  1.336605E+05 -8.130976E+04  1.125786E+04 -4.491411E+04
       323   1 -7.199764E+04  1.104966E+05 -1.858259E+04 -5.917546E+04 -1.381812E+04  2.748045E+04
       323   2 -1.125924E+05  1.260818E+04 -5.617375E+04 -2.640087E+04 -1.806132E+04  4.141222E+03
       323   3 -1.218484E+05 -7.445320E+04 -7.075026E+04 -4.545664E+04 -2.119549E+04 -1.919001E+04
       323   4  1.520895E+04  4.643687E+05  6.382587E+04 -5.247025E+04 -1.382279E+04  3.074488E+04
       323   5 -2.629704E+03  4.588868E+05  4.746731E+04 -2.656090E+04 -1.806410E+04  6.646613E+03
       323   6  1.099045E+04  4.643491E+05  5.464143E+04 -5.247860E+04 -2.119628E+04 -1.744705E+04
       323   7  1.024069E+05  8.183563E+05  1.462259E+05 -4.576114E+04 -1.382738E+04  3.401116E+04
       323   8  1.073190E+05  9.053493E+05  1.510950E+05 -2.672097E+04 -1.806689E+04  9.153791E+03
       323   9  1.438090E+05  1.003419E+06  1.800136E+05 -5.950659E+04 -2.119710E+04 -1.570258E+04
       323  10 -7.199805E+04  1.104958E+05 -1.858437E+04 -5.917515E+04  1.226464E-09  4.153400E-09
       323  11 -1.125928E+05  1.260807E+04 -5.617439E+04 -2.640081E+04  6.845838E-10  1.310004E-10
       323  12 -1.218490E+05 -7.445372E+04 -7.075180E+04 -4.545697E+04 -8.969586E-10 -6.727053E-10
       323  13  1.520849E+04  4.643676E+05  6.382374E+04 -5.246991E+04  1.535316E-09  1.047149E-09
       323  14 -2.630067E+03  4.588867E+05  4.746661E+04 -2.656080E+04  1.053459E-09  6.959115E-10
       323  15  1.098989E+04  4.643487E+05  5.464002E+04 -5.247889E+04  1.470747E-10  3.627582E-10
       323  16  1.024064E+05  8.183550E+05  1.462234E+05 -4.576076E+04  5.530676E-10 -3.936948E-09
       323  17  1.073186E+05  9.053492E+05  1.510942E+05 -2.672084E+04 -1.211127E-09 -3.878517E-09
       323  18  1.438085E+05  1.003419E+06  1.800123E+05 -5.950686E+04 -8.703053E-10  1.174906E-09
       323  19 -7.199764E+04  1.104966E+05 -1.858259E+04 -5.917546E+04  1.381812E+04 -2.748045E+04
       323  20 -1.125924E+05  1.260818E+04 -5.617375E+04 -2.640087E+04  1.806132E+04 -4.141222E+03
       323  21 -1.218484E+05 -7.445320E+04 -7.075026E+04 -4.545664E+04  2.119549E+04  1.919001E+04
       323  22  1.520895E+04  4.643687E+05  6.382587E+04 -5.247025E+04  1.382279E+04 -3.074488E+04
       323  23 -2.629704E+03  4.588868E+05  4.746731E+04 -2.656090E+04  1.806410E+04 -6.646613E+03
       323  24  1.099045E+04  4.643491E+05  5.464143E+04 -5.247860E+04  2.119628E+04  1.744705E+04
       323  25  1.024069E+05  8.183563E+05  1.462259E+05 -4.576114E+04  1.382738E+04 -3.401116E+04
       323  26  1.073190E+05  9.053493E+05  1.510950E+05 -2.672097E+04  1.806689E+04 -9.153791E+03
       323  27  1.438090E+05  1.003419E+06  1.800136E+05 -5.950659E+04  2.119710E+04  1.570258E+04
       324   1 -1.626223E+05 -1.606696E+05 -8.649126E+04 -7.336410E+04 -2.627563E+04 -3.519346E+04
       324   2 -1.916117E+05 -2.764967E+05 -8.355198E+04 -8.248356E+03 -2.806007E+04 -6.692122E+04
       324   3 -5.839689E+04 -3.473661E+05 -1.933548E+04  5.312460E+03 -9.293018E+03 -9.863133E+04
       324   4 -6.738531E+03  4.724055E+05  6.022468E+04 -5.245087E+04 -2.628420E+04 -2.708959E+04
       324   5 -1.274083E+04  4.487273E+05  8.544512E+04 -2.662940E+04 -2.805136E+04 -7.267021E+04
       324   6  1.457572E+05  4.723414E+05  1.815064E+05 -5.235490E+04 -9.273689E+03 -1.182388E+05
       324   7  1.491188E+05  1.105852E+06  2.069143E+05 -3.151603E+04 -2.629221E+04 -1.897750E+04
       324   8  1.660942E+05  1.174437E+06  2.544069E+05 -4.503196E+04 -2.804233E+04 -7.842582E+04
       324   9  3.498742E+05  1.292669E+06  3.823024E+05 -1.100985E+05 -9.250736E+03 -1.378721E+05
       324  10 -1.626234E+05 -1.606712E+05 -8.649488E+04 -7.336485E+04  3.698305E-11 -2.326562E-10
       324  11 -1.916138E+05 -2.765018E+05 -8.356187E+04 -8.249869E+03  4.302366E-10 -1.136121E-09
       324  12 -5.839960E+04 -3.473766E+05 -1.935393E+04  5.311722E+03  2.124181E-10  4.670107E-11
       324  13 -6.739470E+03  4.724045E+05  6.022201E+04 -5.245144E+04 -7.449285E-10  7.754072E-10
       324  14 -1.274309E+04  4.487214E+05  8.543372E+04 -2.663104E+04  2.029791E-10  3.356131E-10
       324  15  1.457534E+05  4.723264E+05  1.814800E+05 -5.235578E+04 -9.089447E-11  1.299425E-11
       324  16  1.491179E+05  1.105851E+06  2.069123E+05 -3.151643E+04  1.663308E-11  2.392245E-11
       324  17  1.660917E+05  1.174430E+06  2.543939E+05 -4.503373E+04  5.081568E-11 -7.188738E-10
       324  18  3.498690E+05  1.292649E+06  3.822666E+05 -1.100995E+05 -2.478740E-10  2.405108E-10
       324  19 -1.626223E+05 -1.606696E+05 -8.649126E+04 -7.336410E+04  2.627563E+04  3.519346E+04
       324  20 -1.916117E+05 -2.764967E+05 -8.355198E+04 -8.248356E+03  2.806007E+04  6.692122E+04
       324  21 -5.839689E+04 -3.473661E+05 -1.933548E+04  5.312460E+03  9.293018E+03  9.863133E+04
       324  22 -6.738531E+03  4.724055E+05  6.022468E+04 -5.245087E+04  2.628420E+04  2.708959E+04
       324  23 -1.274083E+04  4.487273E+05  8.544512E+04 -2.662940E+04  2.805136E+04  7.267021E+04
       324  24  1.457572E+05  4.723414E+05  1.815064E+05 -5.235490E+04  9.273689E+03  1.182388E+05
       324  25  1.491188E+05  1.105852E+06  2.069143E+05 -3.151603E+04  2.629221E+04  1.897750E+04
       324  26  1.660942E+05  1.174437E+06  2.544069E+05 -4.503196E+04  2.804233E+04  7.842582E+04
       324  27  3.498742E+05  1.292669E+06  3.823024E+05 -1.100985E+05  9.250736E+03  1.378721E+05
       325   1 -2.774768E+06 -1.052849E+06 -5.700579E+05 -1.069980E+06 -2.728550E+05 -8.257270E+04
       325   2 -2.704754E+06 -7.770268E+05 -3.513069E+05 -1.037084E+06 -1.741146E+05  1.724038E+03
       325   3 -2.692313E+06 -6.608641E+05 -2.577769E+05 -9.840867E+05 -6.393616E+04  5.577714E+04
       325   4 -1.717117E+06 -5.187830E+05 -2.713805E+05 -6.404813E+05 -1.821387E+05 -4.846041E+04
       325   5 -1.678207E+06 -3.388442E+05 -1.256621E+05 -6.900039E+05 -1.320836E+05  1.752431E+04
       325   6 -1.687092E+06 -3.087611E+05 -6.635674E+04 -7.194584E+05 -7.061369E+04  5.325247E+04
       325   7 -6.583233E+05  1.564610E+04  2.722423E+04 -2.102322E+05 -9.125540E+04 -1.423479E+04
       325   8 -6.505643E+05  9.953458E+04  9.992731E+04 -3.423552E+05 -8.997785E+04  3.336319E+04
       325   9 -6.808029E+05  4.341828E+04  1.250250E+05 -4.544356E+05 -7.730290E+04  5.072381E+04
       325  10 -2.774851E+06 -1.052876E+06 -5.702114E+05 -1.069998E+06 -1.156739E-09  6.533651E-11
       325  11 -2.704787E+06 -7.770350E+05 -3.513641E+05 -1.037084E+06  5.432093E-10  1.452410E-10
       325  12 -2.692319E+06 -6.608686E+05 -2.577904E+05 -9.840838E+05  4.212888E-10  1.138605E-11
       325  13 -1.717153E+06 -5.187945E+05 -2.714475E+05 -6.404885E+05  7.720053E-10  6.669979E-11
       325  14 -1.678226E+06 -3.388493E+05 -1.256955E+05 -6.900021E+05 -4.203018E-11 -1.204368E-09
       325  15 -1.687098E+06 -3.087655E+05 -6.637144E+04 -7.194554E+05  6.516626E-10 -6.526988E-10
       325  16 -6.583323E+05  1.564364E+04  2.720819E+04 -2.102333E+05 -2.930165E-10  2.574419E-10
       325  17 -6.505733E+05  9.953121E+04  9.990999E+04 -3.423527E+05  4.698598E-11 -4.518628E-10
       325  18 -6.808100E+05  4.341391E+04  1.250089E+05 -4.544325E+05  6.296854E-10  3.783361E-10
       325  19 -2.774768E+06 -1.052849E+06 -5.700579E+05 -1.069980E+06  2.728550E+05  8.257270E+04
       325  20 -2.704754E+06 -7.770268E+05 -3.513069E+05 -1.037084E+06  1.741146E+05 -1.724038E+03
       325  21 -2.692313E+06 -6.608641E+05 -2.577769E+05 -9.840867E+05  6.393616E+04 -5.577714E+04
       325  22 -1.717117E+06 -5.187830E+05 -2.713805E+05 -6.404813E+05  1.821387E+05  4.846041E+04
       325  23 -1.678207E+06 -3.388442E+05 -1.256621E+05 -6.900039E+05  1.320836E+05 -1.752431E+04
       325  24 -1.687092E+06 -3.087611E+05 -6.635674E+04 -7.194584E+05  7.061369E+04 -5.325247E+04
       325  25 -6.583233E+05  1.564610E+04  2.722423E+04 -2.102322E+05  9.125540E+04  1.423479E+04
       325  26 -6.505643E+05  9.953458E+04  9.992731E+04 -3.423552E+05  8.997785E+04 -3.336319E+04
       325  27 -6.808029E+05  4.341828E+04  1.250250E+05 -4.544356E+05  7.730290E+04 -5.072381E+04
       326   1 -2.616217E+06 -6.578970E+05 -2.298386E+05 -9.798400E+05 -5.981069E+04  5.416784E+04
       326   2 -2.540958E+06 -6.104350E+05 -1.867037E+05 -9.496265E+05 -4.156535E+04  5.806447E+04
       326   3 -2.456788E+06 -5.846004E+05 -1.584621E+05 -9.340316E+05 -2.239257E+04  5.949317E+04
       326   4 -1.678903E+06 -3.124605E+05 -5.017972E+04 -7.149681E+05 -6.204943E+04  5.331375E+04
       326   5 -1.683051E+06 -2.973265E+05 -2.645425E+04 -7.094166E+05 -4.776171E+04  5.572415E+04
       326   6 -1.677500E+06 -3.030240E+05 -1.446085E+04 -7.184844E+05 -3.254973E+04  5.566743E+04
       326   7 -7.406705E+05  3.306160E+04  1.294419E+05 -4.497212E+05 -6.429177E+04  5.245829E+04
       326   8 -8.243745E+05  1.585033E+04  1.337655E+05 -4.688971E+05 -5.396721E+04  5.338038E+04
       326   9 -8.975805E+05 -2.139528E+04  1.295158E+05 -5.026870E+05 -4.272046E+04  5.183666E+04
       326  10 -2.616222E+06 -6.579011E+05 -2.298508E+05 -9.798374E+05  1.578926E-09  1.428787E-09
       326  11 -2.540960E+06 -6.104391E+05 -1.867133E+05 -9.496246E+05  1.738173E-09  2.614843E-11
       326  12 -2.456789E+06 -5.846043E+05 -1.584696E+05 -9.340306E+05  1.935393E-10 -1.165157E-10
       326  13 -1.678908E+06 -3.124645E+05 -5.019230E+04 -7.149654E+05 -5.218793E-10 -3.676542E-10
       326  14 -1.683054E+06 -2.973305E+05 -2.646437E+04 -7.094144E+05 -7.347989E-10 -4.148009E-10
       326  15 -1.677502E+06 -3.030276E+05 -1.446866E+04 -7.184830E+05 -2.528031E-10  1.175139E-10
       326  16 -7.406756E+05  3.305754E+04  1.294290E+05 -4.497184E+05 -3.398325E-09  5.976393E-10
       326  17 -8.243784E+05  1.584649E+04  1.337547E+05 -4.688948E+05 -1.500603E-09 -1.026012E-09
       326  18 -8.975832E+05 -2.139865E+04  1.295073E+05 -5.026852E+05  1.956421E-10  5.263460E-10
       326  19 -2.616217E+06 -6.578970E+05 -2.298386E+05 -9.798400E+05  5.981069E+04 -5.416784E+04
       326  20 -2.540958E+06 -6.104350E+05 -1.867037E+05 -9.496265E+05  4.156535E+04 -5.806447E+04
       326  21 -2.456788E+06 -5.846004E+05 -1.584621E+05 -9.340316E+05  2.239257E+04 -5.949317E+04
       326  22 -1.678903E+06 -3.124605E+05 -5.017972E+04 -7.149681E+05  6.204943E+04 -5.331375E+04
       326  23 -1.683051E+06 -2.973265E+05 -2.645425E+04 -7.094166E+05  4.776171E+04 -5.572415E+04
       326  24 -1.677500E+06 -3.030240E+05 -1.446085E+04 -7.184844E+05  3.254973E+04 -5.566743E+04
       326  25 -7.406705E+05  3.306160E+04  1.294419E+05 -4.497212E+05  6.429177E+04 -5.245829E+04
       326  26 -8.243745E+05  1.585033E+04  1.337655E+05 -4.688971E+05  5.396721E+04 -5.338038E+04
       326  27 -8.975805E+05 -2.139528E+04  1.295158E+05 -5.026870E+05  4.272046E+04 -5.183666E+04
       327   1 -2.401700E+06 -5.659658E+05 -1.444431E+05 -9.196688E+05 -1.932246E+04  5.642463E+04
       327   2 -2.326675E+06 -5.289052E+05 -1.243410E+05 -8.889072E+05 -1.366743E+04  5.147520E+04
       327   3 -2.238038E+06 -5.063927E+05 -1.068015E+05 -8.743253E+05 -7.934194E+03  4.630876E+04
       327   4 -1.676836E+06 -3.032514E+05 -1.087032E+04 -7.182096E+05 -2.914816E+04  5.272557E+04
       327   5 -1.683630E+06 -2.958631E+05 -5.973627E+03 -7.101654E+05 -2.383953E+04  4.764905E+04
       327   6 -1.676752E+06 -3.029538E+05 -3.363394E+03 -7.183027E+05 -1.845322E+04  4.235549E+04
       327   7 -9.514123E+05 -4.048557E+04  1.226852E+05 -5.165287E+05 -3.898625E+04  4.902188E+04
       327   8 -1.040146E+06 -6.278119E+04  1.123798E+05 -5.312497E+05 -3.402297E+04  4.381866E+04
       327   9 -1.115134E+06 -9.948539E+04  1.000635E+05 -5.621483E+05 -2.898244E+04  3.839840E+04
       327  10 -2.401701E+06 -5.659693E+05 -1.444498E+05 -9.196679E+05  6.592442E-10  3.956267E-10
       327  11 -2.326676E+06 -5.289081E+05 -1.243464E+05 -8.889067E+05 -8.822658E-10  5.752436E-10
       327  12 -2.238039E+06 -5.063950E+05 -1.068056E+05 -8.743251E+05  4.330515E-10  5.033334E-10
       327  13 -1.676838E+06 -3.032546E+05 -1.087714E+04 -7.182083E+05  6.661673E-10 -2.388270E-10
       327  14 -1.683631E+06 -2.958656E+05 -5.978957E+03 -7.101645E+05  4.842004E-10  1.552037E-10
       327  15 -1.676753E+06 -3.029558E+05 -3.367401E+03 -7.183021E+05 -7.438436E-10  2.050493E-10
       327  16 -9.514146E+05 -4.048856E+04  1.226779E+05 -5.165271E+05 -4.756091E-10  4.595625E-10
       327  17 -1.040148E+06 -6.278356E+04  1.123740E+05 -5.312485E+05 -7.615554E-11 -9.158726E-11
       327  18 -1.115136E+06 -9.948719E+04  1.000591E+05 -5.621474E+05  3.559559E-10 -5.274622E-10
       327  19 -2.401700E+06 -5.659658E+05 -1.444431E+05 -9.196688E+05  1.932246E+04 -5.642463E+04
       327  20 -2.326675E+06 -5.289052E+05 -1.243410E+05 -8.889072E+05  1.366743E+04 -5.147520E+04
       327  21 -2.238038E+06 -5.063927E+05 -1.068015E+05 -8.743253E+05  7.934194E+03 -4.630876E+04
       327  22 -1.676836E+06 -3.032514E+05 -1.087032E+04 -7.182096E+05  2.914816E+04 -5.272557E+04
       327  23 -1.683630E+06 -2.958631E+05 -5.973627E+03 -7.101654E+05  2.383953E+04 -4.764905E+04
       327  24 -1.676752E+06 -3.029538E+05 -3.363394E+03 -7.183027E+05  1.845322E+04 -4.235549E+04
       327  25 -9.514123E+05 -4.048557E+04  1.226852E+05 -5.165287E+05  3.898625E+04 -4.902188E+04
       327  26 -1.040146E+06 -6.278119E+04  1.123798E+05 -5.312497E+05  3.402297E+04 -4.381866E+04
       327  27 -1.115134E+06 -9.948539E+04  1.000635E+05 -5.621483E+05  2.898244E+04 -3.839840E+04
       328   1 -2.183858E+06 -4.867762E+05 -9.563380E+04 -8.593567E+05 -6.020091E+03  4.268884E+04
       328   2 -2.108536E+06 -4.498400E+05 -7.970738E+04 -8.283163E+05 -2.717360E+03  3.647685E+04
       328   3 -2.019079E+06 -4.271479E+05 -6.441023E+04 -8.135699E+05  5.935355E+02  3.023616E+04
       328   4 -1.676646E+06 -3.029754E+05 -2.587859E+03 -7.182941E+05 -1.653235E+04  3.873970E+04
       328   5 -1.683701E+06 -2.958437E+05 -1.616975E+03 -7.101462E+05 -1.327534E+04  3.251268E+04
       328   6 -1.676620E+06 -3.029472E+05 -1.239384E+03 -7.182946E+05 -1.001028E+04  2.625691E+04
       328   7 -1.169168E+06 -1.191523E+05  9.044779E+04 -5.771250E+05 -2.705371E+04  3.478715E+04
       328   8 -1.258677E+06 -1.418304E+05  7.646724E+04 -5.919005E+05 -2.384106E+04  2.854561E+04
       328   9 -1.334034E+06 -1.787343E+05  6.192845E+04 -6.229693E+05 -2.062045E+04  2.227527E+04
       328  10 -2.183859E+06 -4.867782E+05 -9.563729E+04 -8.593565E+05 -4.642994E-10  1.154483E-10
       328  11 -2.108536E+06 -4.498415E+05 -7.970990E+04 -8.283162E+05 -5.047873E-10 -2.238751E-10
       328  12 -2.019079E+06 -4.271488E+05 -6.441195E+04 -8.135699E+05  1.794957E-10 -4.585408E-10
       328  13 -1.676647E+06 -3.029771E+05 -2.591190E+03 -7.182935E+05 -7.208817E-11  1.524977E-10
       328  14 -1.683702E+06 -2.958449E+05 -1.619291E+03 -7.101458E+05 -9.277223E-10  1.519374E-10
       328  15 -1.676620E+06 -3.029480E+05 -1.240866E+03 -7.182944E+05  2.668191E-10 -1.634966E-10
       328  16 -1.169169E+06 -1.191538E+05  9.044415E+04 -5.771243E+05  2.968043E-10 -2.055564E-11
       328  17 -1.258677E+06 -1.418314E+05  7.646464E+04 -5.918999E+05  1.354420E-10  4.792768E-10
       328  18 -1.334034E+06 -1.787349E+05  6.192672E+04 -6.229690E+05  4.783909E-11 -7.823253E-11
       328  19 -2.183858E+06 -4.867762E+05 -9.563380E+04 -8.593567E+05  6.020091E+03 -4.268884E+04
       328  20 -2.108536E+06 -4.498400E+05 -7.970738E+04 -8.283163E+05  2.717360E+03 -3.647685E+04
       328  21 -2.019079E+06 -4.271479E+05 -6.441023E+04 -8.135699E+05 -5.935355E+02 -3.023616E+04
       328  22 -1.676646E+06 -3.029754E+05 -2.587859E+03 -7.182941E+05  1.653235E+04 -3.873970E+04
       328  23 -1.683701E+06 -2.958437E+05 -1.616975E+03 -7.101462E+05  1.327534E+04 -3.251268E+04
       328  24 -1.676620E+06 -3.029472E+05 -1.239384E+03 -7.182946E+05  1.001028E+04 -2.625691E+04
       328  25 -1.169168E+06 -1.191523E+05  9.044779E+04 -5.771250E+05  2.705371E+04 -3.478715E+04
       328  26 -1.258677E+06 -1.418304E+05  7.646724E+04 -5.919005E+05  2.384106E+04 -2.854561E+04
       328  27 -1.334034E+06 -1.787343E+05  6.192845E+04 -6.229693E+05  2.062045E+04 -2.227527E+04
       329   1 -1.964714E+06 -4.073817E+05 -5.395554E+04 -7.985104E+05  2.247509E+03  2.648915E+04
       329   2 -1.889050E+06 -3.703091E+05 -3.926919E+04 -7.673675E+05  5.474808E+03  2.019432E+04
       329   3 -1.799205E+06 -3.475264E+05 -2.514772E+04 -7.525918E+05  8.700964E+03  1.389906E+04
       329   4 -1.676602E+06 -3.029502E+05 -1.224213E+03 -7.183107E+05 -8.368390E+03  2.250629E+04
       329   5 -1.683679E+06 -2.957745E+05 -1.523898E+03 -7.101350E+05 -5.141866E+03  1.621220E+04
       329   6 -1.676582E+06 -3.028889E+05 -2.388279E+03 -7.183288E+05 -1.916601E+03  9.917671E+03
       329   7 -1.388402E+06 -1.985109E+05  5.150455E+04 -6.380762E+05 -1.898956E+04  1.852145E+04
       329   8 -1.478264E+06 -2.212363E+05  3.622004E+04 -6.528851E+05 -1.576225E+04  1.222870E+04
       329   9 -1.553943E+06 -2.582503E+05  2.037074E+04 -6.840598E+05 -1.253631E+04  5.935473E+03
       329  10 -1.964714E+06 -4.073825E+05 -5.395687E+04 -7.985104E+05 -7.793247E-10 -6.485729E-10
       329  11 -1.889051E+06 -3.703095E+05 -3.927002E+04 -7.673676E+05 -1.310112E-09  1.049366E-11
       329  12 -1.799205E+06 -3.475266E+05 -2.514823E+04 -7.525919E+05 -1.204738E-09  1.389889E-10
       329  13 -1.676602E+06 -3.029508E+05 -1.225296E+03 -7.183106E+05  1.792461E-10 -2.619410E-10
       329  14 -1.683679E+06 -2.957748E+05 -1.524441E+03 -7.101350E+05  1.779643E-10  3.335063E-10
       329  15 -1.676582E+06 -3.028890E+05 -2.388471E+03 -7.183288E+05 -2.581211E-10  4.107127E-10
       329  16 -1.388402E+06 -1.985113E+05  5.150323E+04 -6.380760E+05  1.841390E-09  3.387935E-10
       329  17 -1.478264E+06 -2.212365E+05  3.621929E+04 -6.528850E+05  1.298984E-09  4.022991E-10
       329  18 -1.553943E+06 -2.582504E+05  2.037038E+04 -6.840597E+05  5.099726E-10  7.743036E-10
       329  19 -1.964714E+06 -4.073817E+05 -5.395554E+04 -7.985104E+05 -2.247509E+03 -2.648915E+04
       329  20 -1.889050E+06 -3.703091E+05 -3.926919E+04 -7.673675E+05 -5.474808E+03 -2.019432E+04
       329  21 -1.799205E+06 -3.475264E+05 -2.514772E+04 -7.525918E+05 -8.700964E+03 -1.389906E+04
       329  22 -1.676602E+06 -3.029502E+05 -1.224213E+03 -7.183107E+05  8.368390E+03 -2.250629E+04
       329  23 -1.683679E+06 -2.957745E+05 -1.523898E+03 -7.101350E+05  5.141866E+03 -1.621220E+04
       329  24 -1.676582E+06 -3.028889E+05 -2.388279E+03 -7.183288E+05  1.916601E+03 -9.917671E+03
       329  25 -1.388402E+06 -1.985109E+05  5.150455E+04 -6.380762E+05  1.898956E+04 -1.852145E+04
       329  26 -1.478264E+06 -2.212363E+05  3.622004E+04 -6.528851E+05  1.576225E+04 -1.222870E+04
       329  27 -1.553943E+06 -2.582503E+05  2.037074E+04 -6.840598E+05  1.253631E+04 -5.935473E+03
       330   1 -1.744705E+06 -3.277345E+05 -1.537791E+04 -7.375648E+05  1.061131E+04  1.023979E+04
       330   2 -1.668740E+06 -2.906160E+05 -2.690529E+03 -7.063757E+05  1.563468E+04  4.661011E+03
       330   3 -1.578921E+06 -2.680892E+05  8.011978E+03 -6.915911E+05  2.062319E+04 -8.235509E+02
       330   4 -1.676648E+06 -3.028759E+05 -3.091714E+03 -7.183693E+05 -2.428313E+01  6.251930E+03
       330   5 -1.683570E+06 -2.956577E+05 -5.457585E+03 -7.101312E+05  5.150014E+03  7.296449E+02
       330   6 -1.676677E+06 -3.030628E+05 -9.929455E+03 -7.183010E+05  1.028907E+04 -4.698536E+03
       330   7 -1.608585E+06 -2.780166E+05  9.194998E+03 -6.991716E+05 -1.066123E+04  2.263554E+03
       330   8 -1.698400E+06 -3.006992E+05 -8.224197E+03 -7.138865E+05 -5.334437E+03 -3.201655E+03
       330   9 -1.774424E+06 -3.380354E+05 -2.787079E+04 -7.450069E+05 -4.330760E+01 -8.572889E+03
       330  10 -1.744705E+06 -3.277347E+05 -1.537832E+04 -7.375649E+05  9.238126E-12  3.721104E-10
       330  11 -1.668740E+06 -2.906161E+05 -2.691031E+03 -7.063758E+05 -2.944320E-11 -1.563023E-10
       330  12 -1.578921E+06 -2.680893E+05  8.011175E+03 -6.915911E+05 -1.063957E-09 -9.929368E-10
       330  13 -1.676648E+06 -3.028760E+05 -3.091788E+03 -7.183693E+05 -4.029677E-10  3.681273E-10
       330  14 -1.683570E+06 -2.956577E+05 -5.457636E+03 -7.101312E+05 -2.628951E-10 -3.276929E-10
       330  15 -1.676678E+06 -3.030628E+05 -9.929696E+03 -7.183010E+05  5.488469E-10 -3.068149E-11
       330  16 -1.608585E+06 -2.780166E+05  9.194774E+03 -6.991716E+05  1.045142E-10  2.354971E-10
       330  17 -1.698400E+06 -3.006993E+05 -8.224270E+03 -7.138865E+05 -2.615193E-10 -2.439184E-10
       330  18 -1.774424E+06 -3.380355E+05 -2.787093E+04 -7.450069E+05  1.017390E-09  4.905399E-10
       330  19 -1.744705E+06 -3.277345E+05 -1.537791E+04 -7.375648E+05 -1.061131E+04 -1.023979E+04
       330  20 -1.668740E+06 -2.906160E+05 -2.690529E+03 -7.063757E+05 -1.563468E+04 -4.661011E+03
       330  21 -1.578921E+06 -2.680892E+05  8.011978E+03 -6.915911E+05 -2.062319E+04  8.235509E+02
       330  22 -1.676648E+06 -3.028759E+05 -3.091714E+03 -7.183693E+05  2.428313E+01 -6.251930E+03
       330  23 -1.683570E+06 -2.956577E+05 -5.457585E+03 -7.101312E+05 -5.150014E+03 -7.296449E+02
       330  24 -1.676677E+06 -3.030628E+05 -9.929455E+03 -7.183010E+05 -1.028907E+04  4.698536E+03
       330  25 -1.608585E+06 -2.780166E+05  9.194998E+03 -6.991716E+05  1.066123E+04 -2.263554E+03
       330  26 -1.698400E+06 -3.006992E+05 -8.224197E+03 -7.138865E+05  5.334437E+03  3.201655E+03
       330  27 -1.774424E+06 -3.380354E+05 -2.787079E+04 -7.450069E+05  4.330760E+01  8.572889E+03
       331   1 -1.524235E+06 -2.487432E+05  1.525486E+04 -6.775465E+05  2.405326E+04 -3.872653E+03
       331   2 -1.449191E+06 -2.109491E+05  2.004256E+04 -6.434140E+05  3.653818E+04 -5.941063E+03
       331   3 -1.363468E+06 -1.933730E+05  1.558952E+04 -6.244594E+05  4.858599E+04 -6.837863E+03
       331   4 -1.677250E+06 -3.028740E+05 -1.321079E+04 -7.185986E+05  1.355080E+04 -7.811075E+03
       331   5 -1.683014E+06 -2.968511E+05 -2.414850E+04 -7.094114E+05  2.792101E+04 -9.173647E+03
       331   6 -1.678483E+06 -3.114238E+05 -4.582751E+04 -7.154058E+05  4.185272E+04 -9.364971E+03
       331   7 -1.830238E+06 -3.570024E+05 -4.167648E+04 -7.596409E+05  3.051205E+03 -1.174848E+04
       331   8 -1.916780E+06 -3.827477E+05 -6.834145E+04 -7.753856E+05  1.930733E+04 -1.240489E+04
       331   9 -1.993397E+06 -4.294653E+05 -1.072496E+05 -8.063095E+05  3.512306E+04 -1.189064E+04
       331  10 -1.524235E+06 -2.487434E+05  1.525374E+04 -6.775464E+05 -1.431038E-10 -6.441422E-10
       331  11 -1.449192E+06 -2.109495E+05  2.003998E+04 -6.434138E+05 -1.928035E-10 -4.471912E-10
       331  12 -1.363471E+06 -1.933737E+05  1.558499E+04 -6.244592E+05  2.140824E-10 -4.229063E-10
       331  13 -1.677250E+06 -3.028741E+05 -1.321125E+04 -7.185985E+05 -3.494606E-10 -5.141350E-10
       331  14 -1.683015E+06 -2.968514E+05 -2.415012E+04 -7.094112E+05 -7.093698E-10 -6.432083E-10
       331  15 -1.678485E+06 -3.114244E+05 -4.583097E+04 -7.154055E+05  2.531784E-10 -4.213385E-10
       331  16 -1.830238E+06 -3.570025E+05 -4.167675E+04 -7.596409E+05  3.810969E-10  1.205573E-10
       331  17 -1.916780E+06 -3.827480E+05 -6.834244E+04 -7.753854E+05 -9.650594E-11 -5.520482E-10
       331  18 -1.993399E+06 -4.294657E+05 -1.072522E+05 -8.063092E+05 -2.981921E-10 -3.644042E-10
       331  19 -1.524235E+06 -2.487432E+05  1.525486E+04 -6.775465E+05 -2.405326E+04  3.872653E+03
       331  20 -1.449191E+06 -2.109491E+05  2.004256E+04 -6.434140E+05 -3.653818E+04  5.941063E+03
       331  21 -1.363468E+06 -1.933730E+05  1.558952E+04 -6.244594E+05 -4.858599E+04  6.837863E+03
       331  22 -1.677250E+06 -3.028740E+05 -1.321079E+04 -7.185986E+05 -1.355080E+04  7.811075E+03
       331  23 -1.683014E+06 -2.968511E+05 -2.414850E+04 -7.094114E+05 -2.792101E+04  9.173647E+03
       331  24 -1.678483E+06 -3.114238E+05 -4.582751E+04 -7.154058E+05 -4.185272E+04  9.364971E+03
       331  25 -1.830238E+06 -3.570024E+05 -4.167648E+04 -7.596409E+05 -3.051205E+03  1.174848E+04
       331  26 -1.916780E+06 -3.827477E+05 -6.834145E+04 -7.753856E+05 -1.930733E+04  1.240489E+04
       331  27 -1.993397E+06 -4.294653E+05 -1.072496E+05 -8.063095E+05 -3.512306E+04  1.189064E+04
       332   1 -1.303395E+06 -1.822899E+05  1.199787E+04 -6.275765E+05  5.884925E+04 -6.829369E+03
       332   2 -1.265723E+06 -1.277571E+05 -1.782290E+04 -5.203110E+05  9.483004E+04  8.676138E+03
       332   3 -1.264847E+06 -2.078443E+05 -1.080864E+05 -3.974522E+05  1.253927E+05  3.863384E+04
       332   4 -1.685804E+06 -3.081782E+05 -6.060403E+04 -7.196846E+05  4.998824E+04 -1.015382E+04
       332   5 -1.678695E+06 -3.345394E+05 -1.147508E+05 -6.914951E+05  1.092621E+05  1.408038E+04
       332   6 -1.713063E+06 -5.002268E+05 -2.478643E+05 -6.477128E+05  1.631102E+05  5.275942E+04
       332   7 -2.068064E+06 -4.340608E+05 -1.332122E+05 -8.117434E+05  4.113304E+04 -1.347658E+04
       332   8 -2.091475E+06 -5.412551E+05 -2.116856E+05 -8.625562E+05  1.236836E+05  1.947741E+04
       332   9 -2.161022E+06 -7.924251E+05 -3.876447E+05 -8.977585E+05  2.007967E+05  6.685426E+04
       332  10 -1.303399E+06 -1.822909E+05  1.199126E+04 -6.275762E+05  6.241860E-10 -3.399921E-10
       332  11 -1.265733E+06 -1.277596E+05 -1.783998E+04 -5.203117E+05 -6.738332E-10  4.679825E-10
       332  12 -1.264864E+06 -2.078502E+05 -1.081189E+05 -3.974561E+05  9.707321E-11  3.665480E-10
       332  13 -1.685807E+06 -3.081790E+05 -6.060892E+04 -7.196842E+05 -1.624953E-10 -2.476648E-10
       332  14 -1.678708E+06 -3.345428E+05 -1.147737E+05 -6.914964E+05  4.151823E-10  7.834216E-11
       332  15 -1.713093E+06 -5.002370E+05 -2.479197E+05 -6.477197E+05 -4.690990E-10  1.142330E-10
       332  16 -2.068066E+06 -4.340614E+05 -1.332158E+05 -8.117430E+05 -3.665567E-10 -3.454611E-11
       332  17 -2.091492E+06 -5.412596E+05 -2.117152E+05 -8.625581E+05 -3.499840E-10 -2.044122E-10
       332  18 -2.161066E+06 -7.924408E+05 -3.877292E+05 -8.977693E+05 -3.675508E-10 -1.459457E-10
       332  19 -1.303395E+06 -1.822899E+05  1.199787E+04 -6.275765E+05 -5.884925E+04  6.829369E+03
       332  20 -1.265723E+06 -1.277571E+05 -1.782290E+04 -5.203110E+05 -9.483004E+04 -8.676138E+03
       332  21 -1.264847E+06 -2.078443E+05 -1.080864E+05 -3.974522E+05 -1.253927E+05 -3.863384E+04
       332  22 -1.685804E+06 -3.081782E+05 -6.060403E+04 -7.196846E+05 -4.998824E+04  1.015382E+04
       332  23 -1.678695E+06 -3.345394E+05 -1.147508E+05 -6.914951E+05 -1.092621E+05 -1.408038E+04
       332  24 -1.713063E+06 -5.002268E+05 -2.478643E+05 -6.477128E+05 -1.631102E+05 -5.275942E+04
       332  25 -2.068064E+06 -4.340608E+05 -1.332122E+05 -8.117434E+05 -4.113304E+04  1.347658E+04
       332  26 -2.091475E+06 -5.412551E+05 -2.116856E+05 -8.625562E+05 -1.236836E+05 -1.947741E+04
       332  27 -2.161022E+06 -7.924251E+05 -3.876447E+05 -8.977585E+05 -2.007967E+05 -6.685426E+04
       333   1  4.783041E+05  8.627812E+04  1.394638E+05  5.733868E+04  1.702141E+05  6.208466E+03
       333   2  4.937949E+05 -1.343864E+05  9.193414E+03  1.323406E+04  1.153438E+05  1.835304E+04
       333   3  5.764420E+05 -1.158536E+05 -2.551820E+04 -5.800295E+04  6.048083E+04  1.762510E+04
       333   4  9.983567E+05  2.153987E+05  2.666965E+05 -2.651187E+04  1.828669E+05  6.199564E+03
       333   5  9.641127E+05 -1.855825E+04  1.186827E+05 -1.282844E+04  1.192875E+05  1.835093E+04
       333   6  9.984703E+05 -1.191884E+04  7.221286E+04 -2.627461E+04  5.572082E+04  1.762390E+04
       333   7  1.518671E+06  3.445258E+05  3.939139E+05 -1.104328E+05  1.955303E+05  6.187260E+03
       333   8  1.434636E+06  9.725693E+04  2.281576E+05 -3.891084E+04  1.232342E+05  1.834849E+04
       333   9  1.420665E+06  9.200721E+04  1.699326E+05  5.475408E+03  5.095758E+04  1.762222E+04
       333  10  4.782730E+05  8.627031E+04  1.394093E+05  5.733783E+04 -3.611834E-10 -1.239936E-09
       333  11  4.937805E+05 -1.343904E+05  9.167801E+03  1.323236E+04  1.290815E-09  4.146309E-10
       333  12  5.764380E+05 -1.158549E+05 -2.552565E+04 -5.800381E+04  2.144233E-09  1.723694E-10
       333  13  9.983208E+05  2.153897E+05  2.666337E+05 -2.651278E+04  3.235637E-10  7.618359E-10
       333  14  9.640974E+05 -1.856242E+04  1.186554E+05 -1.283020E+04 -4.792912E-10  1.621456E-10
       333  15  9.984668E+05 -1.192000E+04  7.220645E+04 -2.627540E+04 -2.408040E-10  3.822647E-11
       333  16  1.518630E+06  3.445156E+05  3.938421E+05 -1.104338E+05 -2.553448E-10  7.448775E-10
       333  17  1.434620E+06  9.725250E+04  2.281285E+05 -3.891266E+04 -1.261012E-09  4.031850E-10
       333  18  1.420662E+06  9.200618E+04  1.699272E+05  5.474686E+03 -2.456286E-09  2.456320E-09
       333  19  4.783041E+05  8.627812E+04  1.394638E+05  5.733868E+04 -1.702141E+05 -6.208466E+03
       333  20  4.937949E+05 -1.343864E+05  9.193414E+03  1.323406E+04 -1.153438E+05 -1.835304E+04
       333  21  5.764420E+05 -1.158536E+05 -2.551820E+04 -5.800295E+04 -6.048083E+04 -1.762510E+04
       333  22  9.983567E+05  2.153987E+05  2.666965E+05 -2.651187E+04 -1.828669E+05 -6.199564E+03
       333  23  9.641127E+05 -1.855825E+04  1.186827E+05 -1.282844E+04 -1.192875E+05 -1.835093E+04
       333  24  9.984703E+05 -1.191884E+04  7.221286E+04 -2.627461E+04 -5.572082E+04 -1.762390E+04
       333  25  1.518671E+06  3.445258E+05  3.939139E+05 -1.104328E+05 -1.955303E+05 -6.187260E+03
       333  26  1.434636E+06  9.725693E+04  2.281576E+05 -3.891084E+04 -1.232342E+05 -1.834849E+04
       333  27  1.420665E+06  9.200721E+04  1.699326E+05  5.475408E+03 -5.095758E+04 -1.762222E+04
       334   1  6.116475E+05 -7.453329E+04 -2.846481E+04 -2.067216E+04  4.569194E+04  1.468991E+04
       334   2  6.559110E+05 -8.183773E+04 -4.492139E+04 -1.155384E+04  3.063401E+04  1.317909E+04
       334   3  7.071751E+05 -6.939439E+04 -4.662081E+04 -2.920097E+04  1.557443E+04  1.100102E+04
       334   4  9.847844E+05  1.737728E+04  5.831956E+04 -2.626633E+04  4.492456E+04  1.468841E+04
       334   5  9.812592E+05 -1.727044E+03  3.058183E+04 -1.287923E+04  2.940923E+04  1.317795E+04
       334   6  9.848070E+05 -1.010573E+03  1.791183E+04 -2.625634E+04  1.389341E+04  1.100020E+04
       334   7  1.358050E+06  1.092782E+05  1.450946E+05 -3.186391E+04  4.415672E+04  1.468692E+04
       334   8  1.306705E+06  7.837621E+04  1.060779E+05 -1.420532E+04  2.818382E+04  1.317682E+04
       334   9  1.262510E+06  6.736785E+04  8.243930E+04 -2.331039E+04  1.221163E+04  1.099938E+04
       334  10  6.116452E+05 -7.453409E+04 -2.846913E+04 -2.067270E+04 -5.345941E-09  1.169498E-10
       334  11  6.559099E+05 -8.183817E+04 -4.492348E+04 -1.155416E+04 -2.636292E-09 -1.064038E-10
       334  12  7.071748E+05 -6.939459E+04 -4.662149E+04 -2.920111E+04  7.348646E-10 -6.317185E-10
       334  13  9.847822E+05  1.737650E+04  5.831536E+04 -2.626687E+04 -1.918835E-10  1.793267E-09
       334  14  9.812583E+05 -1.727463E+03  3.057988E+04 -1.287954E+04 -2.877124E-10  1.639292E-10
       334  15  9.848067E+05 -1.010755E+03  1.791124E+04 -2.625646E+04 -3.692222E-10 -9.051977E-10
       334  16  1.358048E+06  1.092774E+05  1.450905E+05 -3.186444E+04  4.367346E-09  1.490042E-09
       334  17  1.306704E+06  7.837581E+04  1.060761E+05 -1.420562E+04  3.892592E-09 -1.741872E-10
       334  18  1.262510E+06  6.736768E+04  8.243879E+04 -2.331050E+04 -9.465535E-10 -6.824450E-10
       334  19  6.116475E+05 -7.453329E+04 -2.846481E+04 -2.067216E+04 -4.569194E+04 -1.468991E+04
       334  20  6.559110E+05 -8.183773E+04 -4.492139E+04 -1.155384E+04 -3.063401E+04 -1.317909E+04
       334  21  7.071751E+05 -6.939439E+04 -4.662081E+04 -2.920097E+04 -1.557443E+04 -1.100102E+04
       334  22  9.847844E+05  1.737728E+04  5.831956E+04 -2.626633E+04 -4.492456E+04 -1.468841E+04
       334  23  9.812592E+05 -1.727044E+03  3.058183E+04 -1.287923E+04 -2.940923E+04 -1.317795E+04
       334  24  9.848070E+05 -1.010573E+03  1.791183E+04 -2.625634E+04 -1.389341E+04 -1.100020E+04
       334  25  1.358050E+06  1.092782E+05  1.450946E+05 -3.186391E+04 -4.415672E+04 -1.468692E+04
       334  26  1.306705E+06  7.837621E+04  1.060779E+05 -1.420532E+04 -2.818382E+04 -1.317682E+04
       334  27  1.262510E+06  6.736785E+04  8.243930E+04 -2.331039E+04 -1.221163E+04 -1.099938E+04
       335   1  7.537597E+05 -5.520230E+04 -3.928958E+04 -2.604481E+04  1.255799E+04  9.609048E+03
       335   2  8.003753E+05 -4.515157E+04 -3.460690E+04 -1.306647E+04  8.713093E+03  7.413111E+03
       335   3  8.479331E+05 -3.348304E+04 -2.701109E+04 -2.649059E+04  4.867313E+03  5.189154E+03
       335   4  9.834497E+05  1.324645E+03  1.387503E+04 -2.617890E+04  1.109363E+04  9.608419E+03
       335   5  9.829814E+05 -1.934328E+02  7.756984E+03 -1.297778E+04  7.228528E+03  7.412683E+03
       335   6  9.834568E+05 -9.033376E+01  4.565426E+03 -2.617863E+04  3.362829E+03  5.188935E+03
       335   7  1.213188E+06  5.784789E+04  6.703612E+04 -2.631304E+04  9.628736E+03  9.607791E+03
       335   8  1.165618E+06  4.476236E+04  5.011864E+04 -1.288906E+04  5.743530E+03  7.412254E+03
       335   9  1.118998E+06  3.330108E+04  3.614071E+04 -2.586660E+04  1.858019E+03  5.188715E+03
       335  10  7.537595E+05 -5.520244E+04 -3.929005E+04 -2.604491E+04 -2.524786E-10 -4.837803E-10
       335  11  8.003753E+05 -4.515165E+04 -3.460715E+04 -1.306652E+04 -1.076064E-09 -6.675208E-10
       335  12  8.479330E+05 -3.348308E+04 -2.701118E+04 -2.649061E+04  1.482637E-10 -8.860377E-11
       335  13  9.834495E+05  1.324512E+03  1.387463E+04 -2.617899E+04 -3.545442E-10 -3.880030E-10
       335  14  9.829814E+05 -1.935059E+02  7.756783E+03 -1.297782E+04 -8.080476E-10  2.928429E-11
       335  15  9.834568E+05 -9.036571E+01  4.565354E+03 -2.617864E+04  3.008514E-10 -9.552373E-11
       335  16  1.213188E+06  5.784777E+04  6.703578E+04 -2.631312E+04 -7.668174E-10 -3.128941E-10
       335  17  1.165618E+06  4.476229E+04  5.011848E+04 -1.288910E+04 -1.092949E-09 -1.197849E-10
       335  18  1.118998E+06  3.330105E+04  3.614065E+04 -2.586661E+04  2.870170E-10  2.252091E-10
       335  19  7.537597E+05 -5.520230E+04 -3.928958E+04 -2.604481E+04 -1.255799E+04 -9.609048E+03
       335  20  8.003753E+05 -4.515157E+04 -3.460690E+04 -1.306647E+04 -8.713093E+03 -7.413111E+03
       335  21  8.479331E+05 -3.348304E+04 -2.701109E+04 -2.649059E+04 -4.867313E+03 -5.189154E+03
       335  22  9.834497E+05  1.324645E+03  1.387503E+04 -2.617890E+04 -1.109363E+04 -9.608419E+03
       335  23  9.829814E+05 -1.934328E+02  7.756984E+03 -1.297778E+04 -7.228528E+03 -7.412683E+03
       335  24  9.834568E+05 -9.033376E+01  4.565426E+03 -2.617863E+04 -3.362829E+03 -5.188935E+03
       335  25  1.213188E+06  5.784789E+04  6.703612E+04 -2.631304E+04 -9.628736E+03 -9.607791E+03
       335  26  1.165618E+06  4.476236E+04  5.011864E+04 -1.288906E+04 -5.743530E+03 -7.412254E+03
       335  27  1.118998E+06  3.330108E+04  3.614071E+04 -2.586660E+04 -1.858019E+03 -5.188715E+03
       336   1  8.952250E+05 -2.157121E+04 -1.674035E+04 -2.620271E+04  4.123433E+03  3.891892E+03
       336   2  9.419276E+05 -1.019026E+04 -7.366429E+03 -1.306610E+04  3.030461E+03  1.675606E+03
       336   3  9.888154E+05  1.322875E+03  2.752829E+03 -2.617008E+04  1.937240E+03 -5.407153E+02
       336   4  9.832903E+05  8.167377E+01  3.550402E+03 -2.614284E+04  2.632718E+03  3.891755E+03
       336   5  9.831999E+05 -2.982231E+01  2.207585E+03 -1.302260E+04  1.539520E+03  1.675511E+03
       336   6  9.832919E+05 -9.155314E+00  1.610062E+03 -2.614284E+04  4.461547E+02 -5.407589E+02
       336   7  1.071363E+06  2.173401E+04  2.384065E+04 -2.608295E+04  1.141793E+03  3.891618E+03
       336   8  1.024474E+06  1.013050E+04  1.178149E+04 -1.297910E+04  4.848124E+01  1.675417E+03
       336   9  9.777684E+05 -1.341186E+03  4.673031E+02 -2.611561E+04 -1.044917E+03 -5.408026E+02
       336  10  8.952250E+05 -2.157123E+04 -1.674041E+04 -2.620272E+04 -4.707703E-10 -1.142645E-11
       336  11  9.419276E+05 -1.019027E+04 -7.366451E+03 -1.306611E+04 -7.575314E-10  1.487477E-11
       336  12  9.888154E+05  1.322873E+03  2.752821E+03 -2.617008E+04 -7.825594E-10 -3.532714E-10
       336  13  9.832903E+05  8.165564E+01  3.550361E+03 -2.614285E+04 -5.555662E-10  1.241263E-10
       336  14  9.831999E+05 -2.982596E+01  2.207575E+03 -1.302260E+04 -7.162532E-10  1.974736E-12
       336  15  9.832919E+05 -9.155682E+00  1.610062E+03 -2.614284E+04  5.678316E-10 -1.656184E-11
       336  16  1.071363E+06  2.173400E+04  2.384062E+04 -2.608296E+04 -1.365424E-10  2.363360E-10
       336  17  1.024474E+06  1.013050E+04  1.178149E+04 -1.297910E+04 -1.141665E-10  1.591600E-10
       336  18  9.777684E+05 -1.341187E+03  4.673005E+02 -2.611561E+04 -6.525690E-11  7.723557E-11
       336  19  8.952250E+05 -2.157121E+04 -1.674035E+04 -2.620271E+04 -4.123433E+03 -3.891892E+03
       336  20  9.419276E+05 -1.019026E+04 -7.366429E+03 -1.306610E+04 -3.030461E+03 -1.675606E+03
       336  21  9.888154E+05  1.322875E+03  2.752829E+03 -2.617008E+04 -1.937240E+03  5.407153E+02
       336  22  9.832903E+05  8.167377E+01  3.550402E+03 -2.614284E+04 -2.632718E+03 -3.891755E+03
       336  23  9.831999E+05 -2.982231E+01  2.207585E+03 -1.302260E+04 -1.539520E+03 -1.675511E+03
       336  24  9.832919E+05 -9.155314E+00  1.610062E+03 -2.614284E+04 -4.461547E+02  5.407589E+02
       336  25  1.071363E+06  2.173401E+04  2.384065E+04 -2.608295E+04 -1.141793E+03 -3.891618E+03
       336  26  1.024474E+06  1.013050E+04  1.178149E+04 -1.297910E+04 -4.848124E+01 -1.675417E+03
       336  27  9.777684E+05 -1.341186E+03  4.673031E+02 -2.611561E+04  1.044917E+03  5.408026E+02
       337   1  1.036159E+06  1.303904E+04  1.390902E+04 -2.614897E+04  1.655892E+03 -1.830760E+03
       337   2  1.082964E+06  2.453113E+04  2.477684E+04 -1.298702E+04  8.460857E+02 -4.049259E+03
       337   3  1.129912E+06  3.610529E+04  3.619448E+04 -2.610812E+04  3.659060E+01 -6.270135E+03
       337   4  9.832819E+05 -5.262992E+00  1.505517E+03 -2.615236E+04  1.639662E+02 -1.830825E+03
       337   5  9.832102E+05 -2.432012E+01  1.638680E+03 -1.301071E+04 -6.473895E+02 -4.049442E+03
       337   6  9.832793E+05  3.911769E+01  2.322902E+03 -2.615236E+04 -1.458374E+03 -6.270426E+03
       337   7  9.304070E+05 -1.304976E+04 -1.089817E+04 -2.615576E+04 -1.327833E+03 -1.830890E+03
       337   8  8.834652E+05 -2.458047E+04 -2.150014E+04 -1.303440E+04 -2.140627E+03 -4.049624E+03
       337   9  8.366665E+05 -3.602856E+04 -3.155010E+04 -2.619660E+04 -2.952989E+03 -6.270717E+03
       337  10  1.036159E+06  1.303903E+04  1.390901E+04 -2.614896E+04  1.083992E-10 -7.363777E-11
       337  11  1.082964E+06  2.453111E+04  2.477681E+04 -1.298701E+04  1.562185E-10  1.418219E-10
       337  12  1.129912E+06  3.610525E+04  3.619440E+04 -2.610811E+04 -1.309790E-09  6.267791E-11
       337  13  9.832819E+05 -5.266601E+00  1.505510E+03 -2.615236E+04  1.215268E-09  2.423983E-10
       337  14  9.832102E+05 -2.433785E+01  1.638649E+03 -1.301071E+04 -9.058599E-10  3.069424E-10
       337  15  9.832793E+05  3.907488E+01  2.322824E+03 -2.615237E+04  6.580407E-11  1.343152E-10
       337  16  9.304070E+05 -1.304976E+04 -1.089818E+04 -2.615576E+04 -1.331375E-11  7.726791E-11
       337  17  8.834652E+05 -2.458049E+04 -2.150018E+04 -1.303440E+04  4.776836E-11 -7.046377E-11
       337  18  8.366665E+05 -3.602861E+04 -3.155019E+04 -2.619662E+04  1.147506E-10  2.991815E-10
       337  19  1.036159E+06  1.303904E+04  1.390902E+04 -2.614897E+04 -1.655892E+03  1.830760E+03
       337  20  1.082964E+06  2.453113E+04  2.477684E+04 -1.298702E+04 -8.460857E+02  4.049259E+03
       337  21  1.129912E+06  3.610529E+04  3.619448E+04 -2.610812E+04 -3.659060E+01  6.270135E+03
       337  22  9.832819E+05 -5.262992E+00  1.505517E+03 -2.615236E+04 -1.639662E+02  1.830825E+03
       337  23  9.832102E+05 -2.432012E+01  1.638680E+03 -1.301071E+04  6.473895E+02  4.049442E+03
       337  24  9.832793E+05  3.911769E+01  2.322902E+03 -2.615236E+04  1.458374E+03  6.270426E+03
       337  25  9.304070E+05 -1.304976E+04 -1.089817E+04 -2.615576E+04  1.327833E+03  1.830890E+03
       337  26  8.834652E+05 -2.458047E+04 -2.150014E+04 -1.303440E+04  2.140627E+03  4.049624E+03
       337  27  8.366665E+05 -3.602856E+04 -3.155010E+04 -2.619660E+04  2.952989E+03  6.270717E+03
       338   1  1.177639E+06  4.777909E+04  4.808987E+04 -2.600456E+04 -4.164996E+02 -7.571928E+03
       338   2  1.224659E+06  5.933409E+04  6.080192E+04 -1.285003E+04 -2.813444E+03 -9.804409E+03
       338   3  1.272294E+06  7.186557E+04  7.532837E+04 -2.623073E+04 -5.209647E+03 -1.200734E+04
       338   4  9.833797E+05 -6.444546E+01  2.896628E+03 -2.620840E+04 -1.928110E+03 -7.572348E+03
       338   5  9.830705E+05 -1.303368E+02  4.768943E+03 -1.294060E+04 -4.304377E+03 -9.805103E+03
       338   6  9.833723E+05  7.772850E+02  8.442174E+03 -2.620866E+04 -6.679724E+03 -1.200829E+04
       338   7  7.891553E+05 -4.791064E+04 -4.229915E+04 -2.641217E+04 -3.439252E+03 -7.572768E+03
       338   8  7.415361E+05 -5.959887E+04 -5.126795E+04 -1.303114E+04 -5.794735E+03 -9.805797E+03
       338   9  6.945274E+05 -7.031686E+04 -5.844960E+04 -2.618661E+04 -8.149122E+03 -1.200925E+04
       338  10  1.177639E+06  4.777902E+04  4.808976E+04 -2.600456E+04 -9.175354E-10  3.110124E-10
       338  11  1.224659E+06  5.933399E+04  6.080173E+04 -1.285005E+04 -1.236786E-09 -6.801213E-10
       338  12  1.272294E+06  7.186541E+04  7.532805E+04 -2.623078E+04 -3.838238E-11  2.114999E-10
       338  13  9.833797E+05 -6.450806E+01  2.896513E+03 -2.620841E+04 -1.060600E-09  2.254767E-10
       338  14  9.830705E+05 -1.304451E+02  4.768728E+03 -1.294063E+04 -1.432239E-09 -2.208603E-10
       338  15  9.833722E+05  7.771182E+02  8.441819E+03 -2.620872E+04 -1.437269E-10 -2.611102E-10
       338  16  7.891553E+05 -4.791070E+04 -4.229928E+04 -2.641219E+04 -8.947054E-11  6.882155E-11
       338  17  7.415360E+05 -5.959898E+04 -5.126819E+04 -1.303118E+04 -3.230355E-10 -1.593279E-10
       338  18  6.945273E+05 -7.031703E+04 -5.844999E+04 -2.618668E+04  6.703451E-10 -2.275211E-11
       338  19  1.177639E+06  4.777909E+04  4.808987E+04 -2.600456E+04  4.164996E+02  7.571928E+03
       338  20  1.224659E+06  5.933409E+04  6.080192E+04 -1.285003E+04  2.813444E+03  9.804409E+03
       338  21  1.272294E+06  7.186557E+04  7.532837E+04 -2.623073E+04  5.209647E+03  1.200734E+04
       338  22  9.833797E+05 -6.444546E+01  2.896628E+03 -2.620840E+04  1.928110E+03  7.572348E+03
       338  23  9.830705E+05 -1.303368E+02  4.768943E+03 -1.294060E+04  4.304377E+03  9.805103E+03
       338  24  9.833723E+05  7.772850E+02  8.442174E+03 -2.620866E+04  6.679724E+03  1.200829E+04
       338  25  7.891553E+05 -4.791064E+04 -4.229915E+04 -2.641217E+04  3.439252E+03  7.572768E+03
       338  26  7.415361E+05 -5.959887E+04 -5.126795E+04 -1.303114E+04  5.794735E+03  9.805797E+03
       338  27  6.945274E+05 -7.031686E+04 -5.844960E+04 -2.618661E+04  8.149122E+03  1.200925E+04
       339   1  1.321403E+06  8.238464E+04  8.920060E+04 -2.444282E+04 -6.668555E+03 -1.341672E+04
       339   2  1.367343E+06  9.376752E+04  1.079099E+05 -1.350319E+04 -1.657296E+04 -1.559961E+04
       339   3  1.417729E+06  1.172193E+05  1.361043E+05 -2.953491E+04 -2.647759E+04 -1.703887E+04
       339   4  9.841982E+05 -6.355156E+02  1.087739E+04 -2.630312E+04 -8.381521E+03 -1.341801E+04
       339   5  9.820099E+05 -1.072932E+03  1.852548E+04 -1.282107E+04 -1.778019E+04 -1.560109E+04
       339   6  9.841798E+05  1.047530E+04  3.531211E+04 -2.631118E+04 -2.717831E+04 -1.704040E+04
       339   7  6.470986E+05 -8.366366E+04 -6.745347E+04 -2.816242E+04 -1.009356E+04 -1.341928E+04
       339   8  5.968134E+05 -9.592382E+04 -7.086894E+04 -1.213940E+04 -1.898667E+04 -1.560257E+04
       339   9  5.508033E+05 -9.628195E+04 -6.549269E+04 -2.308975E+04 -2.787855E+04 -1.704195E+04
       339  10  1.321403E+06  8.238443E+04  8.920018E+04 -2.444289E+04 -4.979341E-11 -1.670218E-10
       339  11  1.367343E+06  9.376718E+04  1.079090E+05 -1.350340E+04 -5.399464E-10 -1.498760E-09
       339  12  1.417729E+06  1.172188E+05  1.361024E+05 -2.953527E+04 -6.803133E-10 -1.542167E-09
       339  13  9.841981E+05 -6.357278E+02  1.087692E+04 -2.630321E+04 -5.217742E-10 -1.032971E-10
       339  14  9.820095E+05 -1.073278E+03  1.852443E+04 -1.282130E+04  4.657222E-13 -6.774280E-10
       339  15  9.841789E+05  1.047479E+04  3.531018E+04 -2.631156E+04  1.355710E-10 -8.582512E-10
       339  16  6.470984E+05 -8.366388E+04 -6.745400E+04 -2.816253E+04 -1.943765E-10 -1.129677E-10
       339  17  5.968129E+05 -9.592418E+04 -7.087007E+04 -1.213964E+04  2.111746E-09  1.664360E-09
       339  18  5.508024E+05 -9.628247E+04 -6.549469E+04 -2.309013E+04  5.935357E-10  2.715052E-10
       339  19  1.321403E+06  8.238464E+04  8.920060E+04 -2.444282E+04  6.668555E+03  1.341672E+04
       339  20  1.367343E+06  9.376752E+04  1.079099E+05 -1.350319E+04  1.657296E+04  1.559961E+04
       339  21  1.417729E+06  1.172193E+05  1.361043E+05 -2.953491E+04  2.647759E+04  1.703887E+04
       339  22  9.841982E+05 -6.355156E+02  1.087739E+04 -2.630312E+04  8.381521E+03  1.341801E+04
       339  23  9.820099E+05 -1.072932E+03  1.852548E+04 -1.282107E+04  1.778019E+04  1.560109E+04
       339  24  9.841798E+05  1.047530E+04  3.531211E+04 -2.631118E+04  2.717831E+04  1.704040E+04
       339  25  6.470986E+05 -8.366366E+04 -6.745347E+04 -2.816242E+04  1.009356E+04  1.341928E+04
       339  26  5.968134E+05 -9.592382E+04 -7.086894E+04 -1.213940E+04  1.898667E+04  1.560257E+04
       339  27  5.508033E+05 -9.628195E+04 -6.549269E+04 -2.308975E+04  2.787855E+04  1.704195E+04
       340   1  1.475463E+06  1.116025E+05  1.554971E+05 -6.909403E+03 -2.855773E+04 -2.016372E+04
       340   2  1.503369E+06  1.196207E+05  1.955458E+05 -2.827814E+04 -7.672881E+04 -2.071697E+04
       340   3  1.574585E+06  2.749038E+05  3.037729E+05 -7.697370E+04 -1.249244E+05 -6.909137E+03
       340   4  9.924722E+05 -7.261213E+03  4.372099E+04 -2.633405E+04 -3.371405E+04 -2.016876E+04
       340   5  9.716016E+05 -1.128394E+04  7.182786E+04 -1.276122E+04 -7.219025E+04 -2.071476E+04
       340   6  9.923951E+05  1.303414E+05  1.614272E+05 -2.651247E+04 -1.106863E+05 -6.899629E+03
       340   7  5.096973E+05 -1.261399E+05 -6.807037E+04 -4.574355E+04 -3.886639E+04 -2.017347E+04
       340   8  4.400955E+05 -1.422075E+05 -5.190888E+04  2.742282E+03 -6.765553E+04 -2.071232E+04
       340   9  4.105189E+05 -1.423632E+04  1.905894E+04  2.390134E+04 -9.646144E+04 -6.887811E+03
       340  10  1.475462E+06  1.116019E+05  1.554948E+05 -6.909866E+03  7.030864E-11 -2.140446E-09
       340  11  1.503362E+06  1.196186E+05  1.955339E+05 -2.827942E+04  2.685475E-10 -3.779935E-09
       340  12  1.574569E+06  2.748996E+05  3.037436E+05 -7.697440E+04 -9.721384E-10 -1.224086E-09
       340  13  9.924708E+05 -7.261955E+03  4.371809E+04 -2.633459E+04 -2.652173E-09 -4.729775E-09
       340  14  9.715959E+05 -1.128580E+04  7.181728E+04 -1.276242E+04  1.578969E-09  1.542503E-09
       340  15  9.923820E+05  1.303381E+05  1.614042E+05 -2.651309E+04 -1.301756E-10 -6.674811E-11
       340  16  5.096955E+05 -1.261408E+05 -6.807397E+04 -4.574418E+04 -6.366274E-10 -1.280028E-09
       340  17  4.400904E+05 -1.422092E+05 -5.191828E+04  2.741153E+03  1.204234E-09  1.249332E-09
       340  18  4.105089E+05 -1.423887E+04  1.904138E+04  2.390081E+04  7.898202E-10 -1.628304E-09
       340  19  1.475463E+06  1.116025E+05  1.554971E+05 -6.909403E+03  2.855773E+04  2.016372E+04
       340  20  1.503369E+06  1.196207E+05  1.955458E+05 -2.827814E+04  7.672881E+04  2.071697E+04
       340  21  1.574585E+06  2.749038E+05  3.037729E+05 -7.697370E+04  1.249244E+05  6.909137E+03
       340  22  9.924722E+05 -7.261213E+03  4.372099E+04 -2.633405E+04  3.371405E+04  2.016876E+04
       340  23  9.716016E+05 -1.128394E+04  7.182786E+04 -1.276122E+04  7.219025E+04  2.071476E+04
       340  24  9.923951E+05  1.303414E+05  1.614272E+05 -2.651247E+04  1.106863E+05  6.899629E+03
       340  25  5.096973E+05 -1.261399E+05 -6.807037E+04 -4.574355E+04  3.886639E+04  2.017347E+04
       340  26  4.400955E+05 -1.422075E+05 -5.190888E+04  2.742282E+03  6.765553E+04  2.071232E+04
       340  27  4.105189E+05 -1.423632E+04  1.905894E+04  2.390134E+04  9.646144E+04  6.887811E+03
       341   1  9.783033E+05  3.831374E+06  9.886630E+05 -5.690480E+05  3.562745E+04  1.535877E+05
       341   2  6.291408E+05  2.872750E+06  6.620417E+05 -2.817673E+05  9.859686E+04  5.828586E+04
       341   3  4.082731E+05  1.959829E+06  4.293278E+05 -5.146080E+05  6.718013E+04 -3.715287E+04
       341   4  1.005695E+05  3.000453E+05  1.237444E+05 -5.229979E+05  3.584217E+04  7.914613E+04
       341   5 -8.415249E+03  2.836258E+05  5.919383E+04 -2.630307E+05  9.866327E+04  4.775824E+04
       341   6  1.901142E+02  3.012768E+05  4.458628E+04 -5.232785E+05  6.693166E+04  1.608794E+04
       341   7 -7.780767E+05 -3.219956E+06 -7.420656E+05 -4.771972E+05  3.604668E+04  5.124132E+03
       341   8 -6.464435E+05 -2.299333E+06 -5.441065E+05 -2.443658E+05  9.872922E+04  3.727374E+04
       341   9 -4.080843E+05 -1.354735E+06 -3.403292E+05 -5.319216E+05  6.668133E+04  6.918784E+04
       341  10  9.782957E+05  3.831348E+06  9.886165E+05 -5.690524E+05 -4.910977E-10  1.574864E-09
       341  11  6.291295E+05  2.872744E+06  6.620171E+05 -2.817719E+05 -2.693882E-09  7.256112E-09
       341  12  4.082679E+05  1.959827E+06  4.293168E+05 -5.146060E+05  1.528699E-09  3.443009E-09
       341  13  1.005665E+05  3.000383E+05  1.237302E+05 -5.230001E+05  2.058679E-10 -4.355890E-11
       341  14 -8.426318E+03  2.836208E+05  5.917124E+04 -2.630345E+05 -5.733937E-09  1.825756E-09
       341  15  1.852323E+02  3.012753E+05  4.457737E+04 -5.232794E+05  1.076666E-10 -5.410172E-10
       341  16 -7.780781E+05 -3.219957E+06 -7.420681E+05 -4.771973E+05 -2.258919E-10  3.921550E-10
       341  17 -6.464543E+05 -2.299337E+06 -5.441274E+05 -2.443688E+05  1.481494E-09 -3.412787E-09
       341  18 -4.080904E+05 -1.354741E+06 -3.403466E+05 -5.319253E+05 -8.694594E-10  1.443531E-09
       341  19  9.783033E+05  3.831374E+06  9.886630E+05 -5.690480E+05 -3.562745E+04 -1.535877E+05
       341  20  6.291408E+05  2.872750E+06  6.620417E+05 -2.817673E+05 -9.859686E+04 -5.828586E+04
       341  21  4.082731E+05  1.959829E+06  4.293278E+05 -5.146080E+05 -6.718013E+04  3.715287E+04
       341  22  1.005695E+05  3.000453E+05  1.237444E+05 -5.229979E+05 -3.584217E+04 -7.914613E+04
       341  23 -8.415249E+03  2.836258E+05  5.919383E+04 -2.630307E+05 -9.866327E+04 -4.775824E+04
       341  24  1.901142E+02  3.012768E+05  4.458628E+04 -5.232785E+05 -6.693166E+04 -1.608794E+04
       341  25 -7.780767E+05 -3.219956E+06 -7.420656E+05 -4.771972E+05 -3.604668E+04 -5.124132E+03
       341  26 -6.464435E+05 -2.299333E+06 -5.441065E+05 -2.443658E+05 -9.872922E+04 -3.727374E+04
       341  27 -4.080843E+05 -1.354735E+06 -3.403292E+05 -5.319216E+05 -6.668133E+04 -6.918784E+04
       342   1  1.871164E+05  1.006709E+06  2.067024E+05 -5.312484E+05  2.895614E+04 -1.707853E+04
       342   2 -5.421908E+04  7.163393E+04 -1.143714E+04 -2.610653E+05 -8.771206E+03 -3.711854E+04
       342   3 -2.658079E+05 -8.580463E+05 -2.104425E+05 -5.135681E+05 -4.593689E+04 -5.711225E+04
       342   4  1.184800E+04  2.952986E+05  4.160357E+04 -5.237311E+05  2.882437E+04  8.544215E+03
       342   5  3.198604E+02  2.929222E+05  3.995606E+04 -2.623836E+05 -8.894990E+03 -1.188798E+04
       342   6  1.865786E+04  2.951929E+05  5.775603E+04 -5.236984E+05 -4.605518E+04 -3.230311E+04
       342   7 -1.634555E+05 -4.156435E+05 -1.235268E+05 -5.162217E+05  2.869314E+04  3.413785E+04
       342   8  5.485570E+04  5.142571E+05  9.134836E+04 -2.637023E+05 -9.018857E+03  1.335150E+04
       342   9  3.030303E+05  1.449662E+06  3.258672E+05 -5.338456E+05 -4.617416E+04 -7.448120E+03
       342  10  1.871154E+05  1.006708E+06  2.067002E+05 -5.312480E+05  1.126862E-09  2.201313E-09
       342  11 -5.421953E+04  7.163243E+04 -1.143988E+04 -2.610655E+05  1.713160E-09  9.294677E-09
       342  12 -2.658110E+05 -8.580503E+05 -2.104526E+05 -5.135702E+05 -1.089284E-09  1.918284E-09
       342  13  1.184709E+04  2.952983E+05  4.160187E+04 -5.237313E+05  1.098833E-09  3.565494E-11
       342  14  3.197374E+02  2.929221E+05  3.995565E+04 -2.623837E+05  2.902615E-09  2.438701E-09
       342  15  1.865530E+04  2.951912E+05  5.775007E+04 -5.236996E+05  3.601996E-09 -5.631942E-10
       342  16 -1.634567E+05 -4.156450E+05 -1.235305E+05 -5.162225E+05 -9.356808E-10  2.677271E-09
       342  17  5.485556E+04  5.142569E+05  9.134788E+04 -2.637022E+05 -2.842464E-09 -4.317045E-09
       342  18  3.030280E+05  1.449661E+06  3.258631E+05 -5.338459E+05 -1.588691E-09  3.430181E-09
       342  19  1.871164E+05  1.006709E+06  2.067024E+05 -5.312484E+05 -2.895614E+04  1.707853E+04
       342  20 -5.421908E+04  7.163393E+04 -1.143714E+04 -2.610653E+05  8.771206E+03  3.711854E+04
       342  21 -2.658079E+05 -8.580463E+05 -2.104425E+05 -5.135681E+05  4.593689E+04  5.711225E+04
       342  22  1.184800E+04  2.952986E+05  4.160357E+04 -5.237311E+05 -2.882437E+04 -8.544215E+03
       342  23  3.198604E+02  2.929222E+05  3.995606E+04 -2.623836E+05  8.894990E+03  1.188798E+04
       342  24  1.865786E+04  2.951929E+05  5.775603E+04 -5.236984E+05  4.605518E+04  3.230311E+04
       342  25 -1.634555E+05 -4.156435E+05 -1.235268E+05 -5.162217E+05 -2.869314E+04 -3.413785E+04
       342  26  5.485570E+04  5.142571E+05  9.134836E+04 -2.637023E+05  9.018857E+03 -1.335150E+04
       342  27  3.030303E+05  1.449662E+06  3.258672E+05 -5.338456E+05  4.617416E+04  7.448120E+03
       343   1 -5.228091E+05 -1.790844E+06 -4.194597E+05 -5.432632E+05 -8.514922E+04 -9.876155E+04
       343   2 -7.638374E+05 -2.749488E+06 -6.029171E+05 -2.341017E+05 -1.158981E+05 -8.355096E+04
       343   3 -8.043410E+05 -3.656175E+06 -7.456799E+05 -4.452236E+05 -4.137744E+04 -6.811391E+04
       343   4 -5.510404E+03  3.074163E+05  6.806329E+04 -5.232891E+05 -8.538979E+04 -4.306669E+04
       343   5 -1.649942E+04  2.751368E+05  1.035775E+05 -2.630497E+05 -1.158109E+05 -9.857957E+04
       343   6  1.848418E+05  3.059674E+05  2.287203E+05 -5.228695E+05 -4.119260E+04 -1.538473E+05
       343   7  5.114814E+05  2.409756E+06  5.553021E+05 -5.032406E+05 -8.562631E+04  1.281566E+04
       343   8  7.301923E+05  3.308221E+06  8.094522E+05 -2.921322E+05 -1.157227E+05 -1.136802E+05
       343   9  1.172881E+06  4.282477E+06  1.201995E+06 -6.010018E+05 -4.098707E+04 -2.401267E+05
       343  10 -5.228195E+05 -1.790857E+06 -4.194917E+05 -5.432700E+05  1.094732E-09  1.956367E-09
       343  11 -7.638537E+05 -2.749499E+06 -6.029555E+05 -2.341095E+05  2.116888E-09  5.756216E-09
       343  12 -8.043441E+05 -3.656181E+06 -7.456919E+05 -4.452258E+05  4.562376E-10  6.738485E-10
       343  13 -5.518737E+03  3.074123E+05  6.804609E+04 -5.232921E+05 -2.304022E-09  1.250702E-10
       343  14 -1.651644E+04  2.751228E+05  1.035340E+05 -2.630589E+05  2.691386E-09  1.414567E-09
       343  15  1.848337E+05  3.059415E+05  2.286727E+05 -5.228746E+05  2.202248E-10 -1.227305E-10
       343  16  5.114735E+05  2.409754E+06  5.552880E+05 -5.032397E+05  1.059510E-09  2.098512E-09
       343  17  7.301745E+05  3.308203E+06  8.094029E+05 -2.921428E+05  1.699104E-09 -3.239399E-09
       343  18  1.172864E+06  4.282415E+06  1.201884E+06 -6.010097E+05  9.211248E-12  5.945334E-10
       343  19 -5.228091E+05 -1.790844E+06 -4.194597E+05 -5.432632E+05  8.514922E+04  9.876155E+04
       343  20 -7.638374E+05 -2.749488E+06 -6.029171E+05 -2.341017E+05  1.158981E+05  8.355096E+04
       343  21 -8.043410E+05 -3.656175E+06 -7.456799E+05 -4.452236E+05  4.137744E+04  6.811391E+04
       343  22 -5.510404E+03  3.074163E+05  6.806329E+04 -5.232891E+05  8.538979E+04  4.306669E+04
       343  23 -1.649942E+04  2.751368E+05  1.035775E+05 -2.630497E+05  1.158109E+05  9.857957E+04
       343  24  1.848418E+05  3.059674E+05  2.287203E+05 -5.228695E+05  4.119260E+04  1.538473E+05
       343  25  5.114814E+05  2.409756E+06  5.553021E+05 -5.032406E+05  8.562631E+04 -1.281566E+04
       343  26  7.301923E+05  3.308221E+06  8.094522E+05 -2.921322E+05  1.157227E+05  1.136802E+05
       343  27  1.172881E+06  4.282477E+06  1.201995E+06 -6.010018E+05  4.098707E+04  2.401267E+05
       344   1 -1.650383E+06 -6.877160E+05 -3.710928E+05 -6.727147E+05 -1.759052E+05 -5.404179E+04
       344   2 -1.577949E+06 -4.906027E+05 -2.211947E+05 -6.398476E+05 -1.097453E+05 -1.804292E+03
       344   3 -1.538875E+06 -4.051011E+05 -1.540100E+05 -5.991748E+05 -3.628504E+04  3.109333E+04
       344   4 -9.854466E+05 -3.467009E+05 -1.818589E+05 -3.970001E+05 -1.216647E+05 -3.366821E+04
       344   5 -9.618685E+05 -2.236132E+05 -8.422044E+04 -4.273442E+05 -8.670370E+04  6.849437E+03
       344   6 -9.654175E+05 -2.058972E+05 -4.448225E+04 -4.498996E+05 -4.445688E+04  2.801782E+04
       344   7 -3.200398E+05 -5.523108E+03  7.350575E+03 -1.209740E+05 -6.736004E+04 -1.325035E+04
       344   8 -3.453878E+05  4.345455E+04  5.273470E+04 -2.146293E+05 -6.363730E+04  1.551631E+04
       344   9 -3.916178E+05 -6.671416E+03  6.503190E+04 -3.004993E+05 -5.263682E+04  2.493958E+04
       344  10 -1.650417E+06 -6.877275E+05 -3.711566E+05 -6.727224E+05 -9.747402E-10 -1.825847E-10
       344  11 -1.577962E+06 -4.906060E+05 -2.212174E+05 -6.398478E+05 -6.142822E-10 -9.000254E-11
       344  12 -1.538877E+06 -4.051025E+05 -1.540143E+05 -5.991739E+05 -8.146368E-10  5.824177E-10
       344  13 -9.854628E+05 -3.467061E+05 -1.818889E+05 -3.970034E+05 -8.298867E-10  1.266644E-09
       344  14 -9.618766E+05 -2.236152E+05 -8.423467E+04 -4.273438E+05 -1.168653E-09  1.531398E-09
       344  15 -9.654199E+05 -2.058986E+05 -4.448744E+04 -4.498986E+05 -1.142205E-09  1.258534E-09
       344  16 -3.200447E+05 -5.524515E+03  7.341714E+03 -1.209747E+05  4.414645E-10 -1.744178E-10
       344  17 -3.453922E+05  4.345321E+04  5.272663E+04 -2.146285E+05  3.033431E-10  9.600837E-10
       344  18 -3.916209E+05 -6.672827E+03  6.502553E+04 -3.004983E+05  2.660508E-10  9.220717E-10
       344  19 -1.650383E+06 -6.877160E+05 -3.710928E+05 -6.727147E+05  1.759052E+05  5.404179E+04
       344  20 -1.577949E+06 -4.906027E+05 -2.211947E+05 -6.398476E+05  1.097453E+05  1.804292E+03
       344  21 -1.538875E+06 -4.051011E+05 -1.540100E+05 -5.991748E+05  3.628504E+04 -3.109333E+04
       344  22 -9.854466E+05 -3.467009E+05 -1.818589E+05 -3.970001E+05  1.216647E+05  3.366821E+04
       344  23 -9.618685E+05 -2.236132E+05 -8.422044E+04 -4.273442E+05  8.670370E+04 -6.849437E+03
       344  24 -9.654175E+05 -2.058972E+05 -4.448225E+04 -4.498996E+05  4.445688E+04 -2.801782E+04
       344  25 -3.200398E+05 -5.523108E+03  7.350575E+03 -1.209740E+05  6.736004E+04  1.325035E+04
       344  26 -3.453878E+05  4.345455E+04  5.273470E+04 -2.146293E+05  6.363730E+04 -1.551631E+04
       344  27 -3.916178E+05 -6.671416E+03  6.503190E+04 -3.004993E+05  5.263682E+04 -2.493958E+04
       345   1 -1.469487E+06 -3.964326E+05 -1.318004E+05 -5.912274E+05 -3.288986E+04  2.874134E+04
       345   2 -1.393558E+06 -3.522159E+05 -9.800495E+04 -5.604860E+05 -1.990750E+04  2.897080E+04
       345   3 -1.306866E+06 -3.272871E+05 -7.409588E+04 -5.450499E+05 -6.335338E+03  2.763047E+04
       345   4 -9.599515E+05 -2.083517E+05 -3.363849E+04 -4.468678E+05 -3.821399E+04  2.673686E+04
       345   5 -9.651218E+05 -1.958061E+05 -1.773270E+04 -4.403922E+05 -2.775946E+04  2.601792E+04
       345   6 -9.590309E+05 -2.020442E+05 -9.701152E+03 -4.492242E+05 -1.671685E+04  2.372912E+04
       345   7 -4.501494E+05 -2.024724E+04  6.451109E+04 -3.023986E+05 -4.354276E+04  2.473060E+04
       345   8 -5.364928E+05 -3.937892E+04  6.253257E+04 -3.202209E+05 -3.561723E+04  2.306284E+04
       345   9 -6.110652E+05 -7.678922E+04  5.469033E+04 -3.533478E+05 -2.710469E+04  1.982544E+04
       345  10 -1.469489E+06 -3.964337E+05 -1.318040E+05 -5.912267E+05  9.005702E-10  8.388443E-10
       345  11 -1.393559E+06 -3.522169E+05 -9.800727E+04 -5.604855E+05 -4.978503E-10  6.033141E-10
       345  12 -1.306867E+06 -3.272879E+05 -7.409738E+04 -5.450497E+05 -1.397500E-12  6.292041E-10
       345  13 -9.599533E+05 -2.083529E+05 -3.364258E+04 -4.468670E+05 -8.460338E-11  4.516156E-10
       345  14 -9.651228E+05 -1.958071E+05 -1.773542E+04 -4.403916E+05 -7.937721E-10 -1.098478E-09
       345  15 -9.590314E+05 -2.020449E+05 -9.702734E+03 -4.492239E+05 -7.542448E-10  3.673772E-10
       345  16 -4.501516E+05 -2.024840E+04  6.450638E+04 -3.023977E+05 -1.372974E-09 -2.948818E-10
       345  17 -5.364943E+05 -3.937984E+04  6.252919E+04 -3.202203E+05 -7.949899E-10 -1.819455E-10
       345  18 -6.110661E+05 -7.678983E+04  5.468821E+04 -3.533474E+05  2.596292E-10 -4.910674E-10
       345  19 -1.469487E+06 -3.964326E+05 -1.318004E+05 -5.912274E+05  3.288986E+04 -2.874134E+04
       345  20 -1.393558E+06 -3.522159E+05 -9.800495E+04 -5.604860E+05  1.990750E+04 -2.897080E+04
       345  21 -1.306866E+06 -3.272871E+05 -7.409588E+04 -5.450499E+05  6.335338E+03 -2.763047E+04
       345  22 -9.599515E+05 -2.083517E+05 -3.363849E+04 -4.468678E+05  3.821399E+04 -2.673686E+04
       345  23 -9.651218E+05 -1.958061E+05 -1.773270E+04 -4.403922E+05  2.775946E+04 -2.601792E+04
       345  24 -9.590309E+05 -2.020442E+05 -9.701152E+03 -4.492242E+05  1.671685E+04 -2.372912E+04
       345  25 -4.501494E+05 -2.024724E+04  6.451109E+04 -3.023986E+05  4.354276E+04 -2.473060E+04
       345  26 -5.364928E+05 -3.937892E+04  6.253257E+04 -3.202209E+05  3.561723E+04 -2.306284E+04
       345  27 -6.110652E+05 -7.678922E+04  5.469033E+04 -3.533478E+05  2.710469E+04 -1.982544E+04
       346   1 -1.251741E+06 -3.081957E+05 -6.122065E+04 -5.303628E+05 -3.796192E+03  2.429221E+04
       346   2 -1.176269E+06 -2.710754E+05 -4.279888E+04 -4.993760E+05  8.005798E+02  1.876869E+04
       346   3 -1.086958E+06 -2.484517E+05 -2.608798E+04 -4.846607E+05  5.445124E+03  1.311518E+04
       346   4 -9.585981E+05 -2.021865E+05 -7.293305E+03 -4.490203E+05 -1.395462E+04  2.047557E+04
       346   5 -9.655165E+05 -1.948754E+05 -4.012204E+03 -4.409118E+05 -9.567269E+03  1.487443E+04
       346   6 -9.585610E+05 -2.020192E+05 -2.275448E+03 -4.490771E+05 -5.132475E+03  9.143222E+03
       346   7 -6.653651E+05 -9.616934E+04  4.663126E+04 -3.676420E+05 -2.411818E+04  1.665703E+04
       346   8 -7.547182E+05 -1.186715E+05  3.477299E+04 -3.824295E+05 -1.993883E+04  1.097879E+04
       346   9 -8.301480E+05 -1.555857E+05  2.153659E+04 -4.134869E+05 -1.571231E+04  5.170434E+03
       346  10 -1.251741E+06 -3.081964E+05 -6.122179E+04 -5.303627E+05  1.010062E-09  7.400153E-10
       346  11 -1.176269E+06 -2.710758E+05 -4.279954E+04 -4.993760E+05  8.040864E-10 -7.491081E-11
       346  12 -1.086958E+06 -2.484519E+05 -2.608836E+04 -4.846608E+05  4.046179E-10  3.154530E-10
       346  13 -9.585984E+05 -2.021870E+05 -7.294458E+03 -4.490200E+05 -5.853799E-10  3.269032E-10
       346  14 -9.655166E+05 -1.948756E+05 -4.012791E+03 -4.409117E+05 -1.636746E-10 -1.913448E-10
       346  15 -9.585611E+05 -2.020193E+05 -2.275655E+03 -4.490770E+05  6.754361E-10 -1.521318E-11
       346  16 -6.653658E+05 -9.616980E+04  4.662965E+04 -3.676417E+05 -6.590230E-10 -9.612069E-11
       346  17 -7.547186E+05 -1.186718E+05  3.477201E+04 -3.824293E+05 -1.544834E-09 -8.499693E-10
       346  18 -8.301482E+05 -1.555858E+05  2.153608E+04 -4.134868E+05 -1.029560E-09 -2.609156E-10
       346  19 -1.251741E+06 -3.081957E+05 -6.122065E+04 -5.303628E+05  3.796192E+03 -2.429221E+04
       346  20 -1.176269E+06 -2.710754E+05 -4.279888E+04 -4.993760E+05 -8.005798E+02 -1.876869E+04
       346  21 -1.086958E+06 -2.484517E+05 -2.608798E+04 -4.846607E+05 -5.445124E+03 -1.311518E+04
       346  22 -9.585981E+05 -2.021865E+05 -7.293305E+03 -4.490203E+05  1.395462E+04 -2.047557E+04
       346  23 -9.655165E+05 -1.948754E+05 -4.012204E+03 -4.409118E+05  9.567269E+03 -1.487443E+04
       346  24 -9.585610E+05 -2.020192E+05 -2.275448E+03 -4.490771E+05  5.132475E+03 -9.143222E+03
       346  25 -6.653651E+05 -9.616934E+04  4.663126E+04 -3.676420E+05  2.411818E+04 -1.665703E+04
       346  26 -7.547182E+05 -1.186715E+05  3.477299E+04 -3.824295E+05  1.993883E+04 -1.097879E+04
       346  27 -8.301480E+05 -1.555857E+05  2.153659E+04 -4.134869E+05  1.571231E+04 -5.170434E+03
       347   1 -1.032642E+06 -2.287664E+05 -1.516365E+04 -4.696116E+05  7.195697E+03  9.421938E+03
       347   2 -9.572846E+05 -1.918561E+05  3.913409E+02 -4.385370E+05  1.023046E+04  3.097303E+03
       347   3 -8.677749E+05 -1.691871E+05  1.551430E+04 -4.237418E+05  1.326864E+04 -3.236153E+03
       347   4 -9.585070E+05 -2.020300E+05 -1.761662E+03 -4.490564E+05 -3.366202E+03  5.456178E+03
       347   5 -9.655817E+05 -1.949214E+05 -1.131449E+03 -4.409106E+05 -3.464946E+02 -8.741815E+02
       347   6 -9.585100E+05 -2.020526E+05 -9.221890E+02 -4.490478E+05  2.676535E+03 -7.213373E+03
       347   7 -8.843655E+05 -1.752927E+05  1.164081E+04 -4.284985E+05 -1.392955E+04  1.489879E+03
       347   8 -9.738785E+05 -1.979866E+05 -2.653772E+03 -4.432841E+05 -1.092335E+04 -4.845626E+03
       347   9 -1.049236E+06 -2.349174E+05 -1.735850E+04 -4.743502E+05 -7.913921E+03 -1.118997E+04
       347  10 -1.032642E+06 -2.287665E+05 -1.516391E+04 -4.696117E+05 -2.574426E-10 -2.678175E-10
       347  11 -9.572847E+05 -1.918561E+05  3.911258E+02 -4.385370E+05 -2.179368E-11 -7.088127E-11
       347  12 -8.677751E+05 -1.691871E+05  1.551395E+04 -4.237418E+05 -1.802731E-09  4.995696E-10
       347  13 -9.585070E+05 -2.020300E+05 -1.761740E+03 -4.490563E+05  4.049675E-10 -6.436730E-10
       347  14 -9.655817E+05 -1.949214E+05 -1.131450E+03 -4.409106E+05  4.849718E-10  3.430255E-10
       347  15 -9.585100E+05 -2.020527E+05 -9.223002E+02 -4.490477E+05 -1.000001E-12  1.965428E-10
       347  16 -8.843657E+05 -1.752928E+05  1.164044E+04 -4.284985E+05 -5.980485E-10 -1.073232E-10
       347  17 -9.738786E+05 -1.979867E+05 -2.654041E+03 -4.432841E+05  1.224971E-10  5.103217E-10
       347  18 -1.049236E+06 -2.349175E+05 -1.735885E+04 -4.743502E+05  4.274591E-10  6.186636E-10
       347  19 -1.032642E+06 -2.287664E+05 -1.516365E+04 -4.696116E+05 -7.195697E+03 -9.421938E+03
       347  20 -9.572846E+05 -1.918561E+05  3.913409E+02 -4.385370E+05 -1.023046E+04 -3.097303E+03
       347  21 -8.677749E+05 -1.691871E+05  1.551430E+04 -4.237418E+05 -1.326864E+04  3.236153E+03
       347  22 -9.585070E+05 -2.020300E+05 -1.761662E+03 -4.490564E+05  3.366202E+03 -5.456178E+03
       347  23 -9.655817E+05 -1.949214E+05 -1.131449E+03 -4.409106E+05  3.464946E+02  8.741815E+02
       347  24 -9.585100E+05 -2.020526E+05 -9.221890E+02 -4.490478E+05 -2.676535E+03  7.213373E+03
       347  25 -8.843655E+05 -1.752927E+05  1.164081E+04 -4.284985E+05  1.392955E+04 -1.489879E+03
       347  26 -9.738785E+05 -1.979866E+05 -2.653772E+03 -4.432841E+05  1.092335E+04  4.845626E+03
       347  27 -1.049236E+06 -2.349174E+05 -1.735850E+04 -4.743502E+05  7.913921E+03  1.118997E+04
       348   1 -8.135516E+05 -1.494671E+05  2.589710E+04 -4.086751E+05  1.485539E+04 -6.993696E+03
       348   2 -7.382537E+05 -1.125749E+05  4.049527E+04 -3.776202E+05  1.790613E+04 -1.331554E+04
       348   3 -6.488108E+05 -8.990702E+04  5.465314E+04 -3.628300E+05  2.095192E+04 -1.962049E+04
       348   4 -9.585166E+05 -2.020535E+05 -9.417990E+02 -4.490447E+05  4.265085E+03 -1.097058E+04
       348   5 -9.655896E+05 -1.949411E+05 -1.242691E+03 -4.409125E+05  7.341790E+03 -1.728379E+04
       348   6 -9.585296E+05 -2.020591E+05 -2.004590E+03 -4.490479E+05  1.041348E+04 -2.358015E+04
       348   7 -1.103458E+06 -2.546373E+05 -2.778064E+04 -4.894050E+05 -6.322476E+03 -1.494643E+04
       348   8 -1.192871E+06 -2.773025E+05 -4.298208E+04 -5.041831E+05 -3.218414E+03 -2.125049E+04
       348   9 -1.268150E+06 -3.142032E+05 -5.866614E+04 -5.352265E+05 -1.194446E+02 -2.753774E+04
       348  10 -8.135518E+05 -1.494673E+05  2.589660E+04 -4.086750E+05 -2.657828E-10  1.511765E-09
       348  11 -7.382541E+05 -1.125751E+05  4.049434E+04 -3.776200E+05 -1.494671E-09  1.572087E-09
       348  12 -6.488114E+05 -8.990755E+04  5.465159E+04 -3.628297E+05  4.458236E-10 -6.875415E-10
       348  13 -9.585167E+05 -2.020536E+05 -9.420592E+02 -4.490446E+05 -1.234314E-09  1.509572E-09
       348  14 -9.655898E+05 -1.949415E+05 -1.243353E+03 -4.409124E+05  6.866005E-10  4.163176E-10
       348  15 -9.585299E+05 -2.020597E+05 -2.005838E+03 -4.490477E+05  1.214691E-10  2.744967E-10
       348  16 -1.103458E+06 -2.546375E+05 -2.778114E+04 -4.894051E+05 -1.754583E-10  3.837296E-10
       348  17 -1.192871E+06 -2.773029E+05 -4.298295E+04 -5.041831E+05 -1.819191E-10  1.128339E-09
       348  18 -1.268150E+06 -3.142040E+05 -5.866756E+04 -5.352265E+05 -1.786679E-10  1.179690E-09
       348  19 -8.135516E+05 -1.494671E+05  2.589710E+04 -4.086751E+05 -1.485539E+04  6.993696E+03
       348  20 -7.382537E+05 -1.125749E+05  4.049527E+04 -3.776202E+05 -1.790613E+04  1.331554E+04
       348  21 -6.488108E+05 -8.990702E+04  5.465314E+04 -3.628300E+05 -2.095192E+04  1.962049E+04
       348  22 -9.585166E+05 -2.020535E+05 -9.417990E+02 -4.490447E+05 -4.265085E+03  1.097058E+04
       348  23 -9.655896E+05 -1.949411E+05 -1.242691E+03 -4.409125E+05 -7.341790E+03  1.728379E+04
       348  24 -9.585296E+05 -2.020591E+05 -2.004590E+03 -4.490479E+05 -1.041348E+04  2.358015E+04
       348  25 -1.103458E+06 -2.546373E+05 -2.778064E+04 -4.894050E+05  6.322476E+03  1.494643E+04
       348  26 -1.192871E+06 -2.773025E+05 -4.298208E+04 -5.041831E+05  3.218414E+03  2.125049E+04
       348  27 -1.268150E+06 -3.142032E+05 -5.866614E+04 -5.352265E+05  1.194446E+02  2.753774E+04
       349   1 -5.947004E+05 -7.023000E+04  6.444005E+04 -3.478319E+05  2.278060E+04 -2.327385E+04
       349   2 -5.194652E+05 -3.339881E+04  7.736845E+04 -3.168266E+05  2.723727E+04 -2.895121E+04
       349   3 -4.303677E+05 -1.097060E+04  8.873592E+04 -3.020438E+05  3.163166E+04 -3.445524E+04
       349   4 -9.586028E+05 -2.020487E+05 -2.609539E+03 -4.490653E+05  1.222547E+04 -2.724079E+04
       349   5 -9.655332E+05 -1.949305E+05 -4.637177E+03 -4.409166E+05  1.695927E+04 -3.281620E+04
       349   6 -9.586629E+05 -2.022718E+05 -8.446416E+03 -4.489941E+05  2.163046E+04 -3.821830E+04
       349   7 -1.322366E+06 -3.338549E+05 -6.966356E+04 -5.502434E+05  1.676952E+03 -3.120524E+04
       349   8 -1.411390E+06 -3.564427E+05 -8.664911E+04 -5.649229E+05  6.689213E+03 -3.667822E+04
       349   9 -1.486660E+06 -3.935451E+05 -1.056373E+05 -5.958265E+05  1.163846E+04 -4.197793E+04
       349  10 -5.947011E+05 -7.023072E+04  6.443805E+04 -3.478314E+05  1.539952E-09  3.963025E-11
       349  11 -5.194663E+05 -3.339991E+04  7.736549E+04 -3.168260E+05 -8.065379E-09 -2.677874E-09
       349  12 -4.303691E+05 -1.097214E+04  8.873181E+04 -3.020429E+05 -9.039253E-09 -1.972449E-09
       349  13 -9.586032E+05 -2.020495E+05 -2.611213E+03 -4.490650E+05 -3.645527E-09 -8.485072E-10
       349  14 -9.655338E+05 -1.949317E+05 -4.639740E+03 -4.409161E+05 -6.764117E-09 -2.826189E-09
       349  15 -9.586637E+05 -2.022735E+05 -8.450038E+03 -4.489934E+05 -2.360570E-09 -1.394960E-09
       349  16 -1.322366E+06 -3.338560E+05 -6.966539E+04 -5.502433E+05 -6.445142E-09 -2.043267E-09
       349  17 -1.411390E+06 -3.564441E+05 -8.665172E+04 -5.649227E+05 -4.609890E-09 -3.511929E-09
       349  18 -1.486660E+06 -3.935470E+05 -1.056408E+05 -5.958261E+05  2.255770E-09  3.107600E-10
       349  19 -5.947004E+05 -7.023000E+04  6.444005E+04 -3.478319E+05 -2.278060E+04  2.327385E+04
       349  20 -5.194652E+05 -3.339881E+04  7.736845E+04 -3.168266E+05 -2.723727E+04  2.895121E+04
       349  21 -4.303677E+05 -1.097060E+04  8.873592E+04 -3.020438E+05 -3.163166E+04  3.445524E+04
       349  22 -9.586028E+05 -2.020487E+05 -2.609539E+03 -4.490653E+05 -1.222547E+04  2.724079E+04
       349  23 -9.655332E+05 -1.949305E+05 -4.637177E+03 -4.409166E+05 -1.695927E+04  3.281620E+04
       349  24 -9.586629E+05 -2.022718E+05 -8.446416E+03 -4.489941E+05 -2.163046E+04  3.821830E+04
       349  25 -1.322366E+06 -3.338549E+05 -6.966356E+04 -5.502434E+05 -1.676952E+03  3.120524E+04
       349  26 -1.411390E+06 -3.564427E+05 -8.664911E+04 -5.649229E+05 -6.689213E+03  3.667822E+04
       349  27 -1.486660E+06 -3.935451E+05 -1.056373E+05 -5.958265E+05 -1.163846E+04  4.197793E+04
       350   1 -3.762371E+05  8.317830E+03  9.639914E+04 -2.878812E+05  3.488867E+04 -3.748795E+04
       350   2 -3.021421E+05  4.569447E+04  1.032037E+05 -2.545388E+05  4.392690E+04 -4.017768E+04
       350   3 -2.166283E+05  6.430049E+04  1.035232E+05 -2.362513E+05  5.219631E+04 -4.081274E+04
       350   4 -9.591698E+05 -2.021038E+05 -1.123734E+04 -4.492182E+05  2.459745E+04 -4.136160E+04
       350   5 -9.650873E+05 -1.960516E+05 -2.055162E+04 -4.403205E+05  3.694613E+04 -4.280939E+04
       350   6 -9.602541E+05 -2.094338E+05 -3.898376E+04 -4.464830E+05  4.852455E+04 -4.220168E+04
       350   7 -1.541752E+06 -4.124968E+05 -1.188878E+05 -6.104159E+05  1.431647E+04 -4.523145E+04
       350   8 -1.627575E+06 -4.377573E+05 -1.443248E+05 -6.259181E+05  2.997330E+04 -4.543809E+04
       350   9 -1.703303E+06 -4.831145E+05 -1.815142E+05 -6.564794E+05  4.485748E+04 -4.358881E+04
       350  10 -3.762388E+05  8.315996E+03  9.639421E+04 -2.878801E+05 -1.267819E-09  1.183913E-09
       350  11 -3.021446E+05  4.569222E+04  1.031970E+05 -2.545374E+05  8.448001E-11  3.046777E-09
       350  12 -2.166316E+05  6.429798E+04  1.035150E+05 -2.362496E+05  6.733210E-10 -2.849938E-10
       350  13 -9.591709E+05 -2.021058E+05 -1.124169E+04 -4.492174E+05  1.593263E-09 -1.060347E-09
       350  14 -9.650893E+05 -1.960540E+05 -2.055763E+04 -4.403193E+05 -4.432213E-10  6.663349E-10
       350  15 -9.602571E+05 -2.094363E+05 -3.899153E+04 -4.464813E+05  3.038694E-10 -8.407126E-10
       350  16 -1.541752E+06 -4.124991E+05 -1.188920E+05 -6.104154E+05  2.080125E-09 -7.682864E-10
       350  17 -1.627577E+06 -4.377597E+05 -1.443303E+05 -6.259170E+05 -1.887917E-09  1.636687E-10
       350  18 -1.703306E+06 -4.831171E+05 -1.815215E+05 -6.564779E+05 -1.673405E-09  2.458283E-09
       350  19 -3.762371E+05  8.317830E+03  9.639914E+04 -2.878812E+05 -3.488867E+04  3.748795E+04
       350  20 -3.021421E+05  4.569447E+04  1.032037E+05 -2.545388E+05 -4.392690E+04  4.017768E+04
       350  21 -2.166283E+05  6.430049E+04  1.035232E+05 -2.362513E+05 -5.219631E+04  4.081274E+04
       350  22 -9.591698E+05 -2.021038E+05 -1.123734E+04 -4.492182E+05 -2.459745E+04  4.136160E+04
       350  23 -9.650873E+05 -1.960516E+05 -2.055162E+04 -4.403205E+05 -3.694613E+04  4.280939E+04
       350  24 -9.602541E+05 -2.094338E+05 -3.898376E+04 -4.464830E+05 -4.852455E+04  4.220168E+04
       350  25 -1.541752E+06 -4.124968E+05 -1.188878E+05 -6.104159E+05 -1.431647E+04  4.523145E+04
       350  26 -1.627575E+06 -4.377573E+05 -1.443248E+05 -6.259181E+05 -2.997330E+04  4.543809E+04
       350  27 -1.703303E+06 -4.831145E+05 -1.815142E+05 -6.564794E+05 -4.485748E+04  4.358881E+04
       351   1 -1.575524E+05  7.692767E+04  1.025771E+05 -2.364022E+05  6.289224E+04 -4.017486E+04
       351   2 -1.166923E+05  1.291879E+05  8.775934E+04 -1.422912E+05  6.995863E+04 -2.826664E+04
       351   3 -1.015589E+05  7.008210E+04  3.830978E+04 -3.628290E+04  6.749416E+04  8.933101E+03
       351   4 -9.666203E+05 -2.065625E+05 -5.154997E+04 -4.499589E+05  5.549116E+04 -4.296757E+04
       351   5 -9.613044E+05 -2.283231E+05 -9.760643E+04 -4.252377E+05  1.034199E+05 -1.567755E+04
       351   6 -9.898890E+05 -3.696615E+05 -2.107515E+05 -3.886115E+05  1.418063E+05  3.691757E+04
       351   7 -1.775007E+06 -4.900057E+05 -2.057039E+05 -6.632622E+05  4.810042E+04 -4.575674E+04
       351   8 -1.805162E+06 -5.856992E+05 -2.830053E+05 -7.078004E+05  1.368316E+05 -3.113526E+03
       351   9 -1.877379E+06 -8.091481E+05 -4.598523E+05 -7.404118E+05  2.160004E+05  6.482555E+04
       351  10 -1.575570E+05  7.692487E+04  1.025666E+05 -2.364001E+05 -7.508536E-10 -1.744119E-09
       351  11 -1.166978E+05  1.291858E+05  8.774864E+04 -1.422896E+05 -5.754887E-11 -1.101988E-09
       351  12 -1.015639E+05  7.008079E+04  3.830107E+04 -3.628339E+04  4.562812E-10 -1.311670E-09
       351  13 -9.666241E+05 -2.065653E+05 -5.155922E+04 -4.499570E+05  1.923612E-09 -3.500607E-09
       351  14 -9.613160E+05 -2.283262E+05 -9.762702E+04 -4.252364E+05  1.673572E-09 -5.219095E-09
       351  15 -9.899109E+05 -3.696684E+05 -2.107920E+05 -3.886158E+05 -1.093702E-10  9.913228E-11
       351  16 -1.775010E+06 -4.900085E+05 -2.057122E+05 -6.632605E+05  6.042516E-10  2.956860E-09
       351  17 -1.805182E+06 -5.857043E+05 -2.830406E+05 -7.078001E+05 -2.902074E-09  4.283716E-09
       351  18 -1.877430E+06 -8.091652E+05 -4.599482E+05 -7.404231E+05 -2.143053E-10  1.750139E-10
       351  19 -1.575524E+05  7.692767E+04  1.025771E+05 -2.364022E+05 -6.289224E+04  4.017486E+04
       351  20 -1.166923E+05  1.291879E+05  8.775934E+04 -1.422912E+05 -6.995863E+04  2.826664E+04
       351  21 -1.015589E+05  7.008210E+04  3.830978E+04 -3.628290E+04 -6.749416E+04 -8.933101E+03
       351  22 -9.666203E+05 -2.065625E+05 -5.154997E+04 -4.499589E+05 -5.549116E+04  4.296757E+04
       351  23 -9.613044E+05 -2.283231E+05 -9.760643E+04 -4.252377E+05 -1.034199E+05  1.567755E+04
       351  24 -9.898890E+05 -3.696615E+05 -2.107515E+05 -3.886115E+05 -1.418063E+05 -3.691757E+04
       351  25 -1.775007E+06 -4.900057E+05 -2.057039E+05 -6.632622E+05 -4.810042E+04  4.575674E+04
       351  26 -1.805162E+06 -5.856992E+05 -2.830053E+05 -7.078004E+05 -1.368316E+05  3.113526E+03
       351  27 -1.877379E+06 -8.091481E+05 -4.598523E+05 -7.404118E+05 -2.160004E+05 -6.482555E+04
       352   1 -8.889122E+04 -3.886895E+03 -4.000678E+04 -3.634092E+04 -1.074851E+05 -6.753753E+03
       352   2 -1.029419E+05  1.411844E+05  4.306637E+04 -7.860594E+03 -7.446785E+04 -2.049987E+04
       352   3 -1.606972E+05  1.282427E+05  6.518380E+04  4.030533E+04 -4.147686E+04 -2.049478E+04
       352   4 -6.485360E+05 -1.430605E+05 -1.770497E+05  1.889542E+04 -1.212979E+05 -6.786527E+03
       352   5 -6.258356E+05  1.227306E+04 -7.878617E+04  8.918087E+03 -7.907628E+04 -2.051178E+04
       352   6 -6.484821E+05  7.917130E+03 -4.791283E+04  1.862837E+04 -3.687827E+04 -2.048476E+04
       352   7 -1.207888E+06 -2.822457E+05 -3.141131E+05  7.408174E+04 -1.350983E+05 -6.821778E+03
       352   8 -1.148476E+06 -1.166565E+05 -2.006570E+05  2.568242E+04 -8.368083E+04 -2.052394E+04
       352   9 -1.136046E+06 -1.124235E+05 -1.610251E+05 -3.031547E+03 -3.228326E+04 -2.047505E+04
       352  10 -8.890364E+04 -3.890046E+03 -4.002858E+04 -3.634151E+04 -8.226541E-11 -2.526165E-11
       352  11 -1.029479E+05  1.411824E+05  4.305515E+04 -7.861823E+03 -7.438102E-13 -2.403557E-09
       352  12 -1.606991E+05  1.282418E+05  6.517978E+04  4.030465E+04  2.146431E-09 -3.762942E-09
       352  13 -6.485518E+05 -1.430645E+05 -1.770774E+05  1.889476E+04 -2.232720E-10  1.913003E-09
       352  14 -6.258425E+05  1.227093E+04 -7.879872E+04  8.916781E+03 -2.149353E-09 -1.110427E-09
       352  15 -6.484837E+05  7.916314E+03 -4.791617E+04  1.862776E+04 -7.586765E-10 -2.311384E-10
       352  16 -1.207908E+06 -2.822507E+05 -3.141475E+05  7.408100E+04 -1.023000E-09  7.849253E-10
       352  17 -1.148484E+06 -1.166588E+05 -2.006709E+05  2.568104E+04  8.352262E-10 -4.174271E-09
       352  18 -1.136047E+06 -1.124243E+05 -1.610279E+05 -3.032080E+03 -1.657009E-09 -6.061089E-09
       352  19 -8.889122E+04 -3.886895E+03 -4.000678E+04 -3.634092E+04  1.074851E+05  6.753753E+03
       352  20 -1.029419E+05  1.411844E+05  4.306637E+04 -7.860594E+03  7.446785E+04  2.049987E+04
       352  21 -1.606972E+05  1.282427E+05  6.518380E+04  4.030533E+04  4.147686E+04  2.049478E+04
       352  22 -6.485360E+05 -1.430605E+05 -1.770497E+05  1.889542E+04  1.212979E+05  6.786527E+03
       352  23 -6.258356E+05  1.227306E+04 -7.878617E+04  8.918087E+03  7.907628E+04  2.051178E+04
       352  24 -6.484821E+05  7.917130E+03 -4.791283E+04  1.862837E+04  3.687827E+04  2.048476E+04
       352  25 -1.207888E+06 -2.822457E+05 -3.141131E+05  7.408174E+04  1.350983E+05  6.821778E+03
       352  26 -1.148476E+06 -1.166565E+05 -2.006570E+05  2.568242E+04  8.368083E+04  2.052394E+04
       352  27 -1.136046E+06 -1.124235E+05 -1.610251E+05 -3.031547E+03  3.228326E+04  2.047505E+04
       353   1 -1.883088E+05  9.972054E+04  6.637885E+04  1.581513E+04 -3.010242E+04 -1.778125E+04
       353   2 -2.224891E+05  1.033650E+05  7.604967E+04  8.447827E+03 -2.030125E+04 -1.685957E+04
       353   3 -2.612040E+05  9.402403E+04  7.609036E+04  2.152162E+04 -1.050319E+04 -1.519595E+04
       353   4 -6.394340E+05 -1.154162E+04 -3.870036E+04  1.889501E+04 -2.973251E+04 -1.778149E+04
       353   5 -6.371148E+05  1.135471E+03 -2.030019E+04  8.659587E+03 -1.943966E+04 -1.685829E+04
       353   6 -6.394199E+05  7.366040E+02 -1.187678E+04  1.886625E+04 -9.149353E+03 -1.519301E+04
       353   7 -1.090371E+06 -1.228181E+05 -1.437933E+05  2.197252E+04 -2.936286E+04 -1.778173E+04
       353   8 -1.051582E+06 -1.011062E+05 -1.166616E+05  8.871108E+03 -1.857865E+04 -1.685701E+04
       353   9 -1.017504E+06 -9.256091E+04 -9.985356E+04  1.621242E+04 -7.796338E+03 -1.519008E+04
       353  10 -1.883098E+05  9.971996E+04  6.637655E+04  1.581470E+04 -3.858574E-09 -5.775168E-09
       353  11 -2.224896E+05  1.033646E+05  7.604836E+04  8.447551E+03 -1.618454E-09  1.354479E-09
       353  12 -2.612041E+05  9.402375E+04  7.608972E+04  2.152149E+04 -1.756477E-09  2.694217E-09
       353  13 -6.394350E+05 -1.154219E+04 -3.870262E+04  1.889458E+04 -5.802127E-10 -3.643166E-09
       353  14 -6.371152E+05  1.135064E+03 -2.030143E+04  8.659323E+03 -2.689708E-09 -1.101284E-09
       353  15 -6.394201E+05  7.363337E+02 -1.187737E+04  1.886613E+04 -1.736492E-10 -2.224744E-09
       353  16 -1.090372E+06 -1.228187E+05 -1.437956E+05  2.197210E+04  5.144161E-10 -1.420096E-09
       353  17 -1.051582E+06 -1.011066E+05 -1.166628E+05  8.870855E+03  1.717393E-09  6.241734E-10
       353  18 -1.017504E+06 -9.256117E+04 -9.985411E+04  1.621232E+04  1.763138E-09  2.591868E-10
       353  19 -1.883088E+05  9.972054E+04  6.637885E+04  1.581513E+04  3.010242E+04  1.778125E+04
       353  20 -2.224891E+05  1.033650E+05  7.604967E+04  8.447827E+03  2.030125E+04  1.685957E+04
       353  21 -2.612040E+05  9.402403E+04  7.609036E+04  2.152162E+04  1.050319E+04  1.519595E+04
       353  22 -6.394340E+05 -1.154162E+04 -3.870036E+04  1.889501E+04  2.973251E+04  1.778149E+04
       353  23 -6.371148E+05  1.135471E+03 -2.030019E+04  8.659587E+03  1.943966E+04  1.685829E+04
       353  24 -6.394199E+05  7.366040E+02 -1.187678E+04  1.886625E+04  9.149353E+03  1.519301E+04
       353  25 -1.090371E+06 -1.228181E+05 -1.437933E+05  2.197252E+04  2.936286E+04  1.778173E+04
       353  26 -1.051582E+06 -1.011062E+05 -1.166616E+05  8.871108E+03  1.857865E+04  1.685701E+04
       353  27 -1.017504E+06 -9.256091E+04 -9.985356E+04  1.621242E+04  7.796338E+03  1.519008E+04
       354   1 -2.975926E+05  8.323089E+04  6.991886E+04  1.952208E+04 -8.432755E+03 -1.408613E+04
       354   2 -3.343062E+05  7.509007E+04  6.544817E+04  9.242436E+03 -5.897396E+03 -1.237039E+04
       354   3 -3.716763E+05  6.599087E+04  5.906724E+04  1.975162E+04 -3.363199E+03 -1.060700E+04
       354   4 -6.385336E+05 -8.184715E+02 -9.207536E+03  1.895381E+04 -7.298155E+03 -1.408359E+04
       354   5 -6.381984E+05  1.553173E+02 -5.160997E+03  8.557701E+03 -4.732089E+03 -1.236749E+04
       354   6 -6.385266E+05  1.650492E+02 -3.046789E+03  1.895105E+04 -2.167036E+03 -1.060374E+04
       354   7 -9.793671E+05 -8.487602E+04 -8.834175E+04  1.838579E+04 -6.164173E+03 -1.408105E+04
       354   8 -9.420051E+05 -7.478595E+04 -7.577638E+04  7.873242E+03 -3.567348E+03 -1.236460E+04
       354   9 -9.053112E+05 -6.566580E+04 -6.516562E+04  1.815078E+04 -9.713841E+02 -1.060048E+04
       354  10 -2.975927E+05  8.323065E+04  6.991836E+04  1.952198E+04 -3.130269E-09  4.394005E-09
       354  11 -3.343063E+05  7.508990E+04  6.544781E+04  9.242378E+03  2.381975E-09  4.299079E-09
       354  12 -3.716763E+05  6.599075E+04  5.906700E+04  1.975160E+04  6.625833E-09  8.955893E-10
       354  13 -6.385337E+05 -8.186987E+02 -9.208009E+03  1.895373E+04 -6.005688E-10 -2.407344E-09
       354  14 -6.381984E+05  1.551471E+02 -5.161326E+03  8.557653E+03 -1.089072E-09  3.588578E-09
       354  15 -6.385267E+05  1.649273E+02 -3.047009E+03  1.895103E+04 -1.366470E-09  8.532784E-09
       354  16 -9.793672E+05 -8.487625E+04 -8.834219E+04  1.838572E+04  1.662384E-09  2.878301E-09
       354  17 -9.420052E+05 -7.478612E+04 -7.577669E+04  7.873207E+03 -2.272094E-09  6.685307E-09
       354  18 -9.053112E+05 -6.566593E+04 -6.516583E+04  1.815077E+04 -6.874769E-09  4.585197E-09
       354  19 -2.975926E+05  8.323089E+04  6.991886E+04  1.952208E+04  8.432755E+03  1.408613E+04
       354  20 -3.343062E+05  7.509007E+04  6.544817E+04  9.242436E+03  5.897396E+03  1.237039E+04
       354  21 -3.716763E+05  6.599087E+04  5.906724E+04  1.975162E+04  3.363199E+03  1.060700E+04
       354  22 -6.385336E+05 -8.184715E+02 -9.207536E+03  1.895381E+04  7.298155E+03  1.408359E+04
       354  23 -6.381984E+05  1.553173E+02 -5.160997E+03  8.557701E+03  4.732089E+03  1.236749E+04
       354  24 -6.385266E+05  1.650492E+02 -3.046789E+03  1.895105E+04  2.167036E+03  1.060374E+04
       354  25 -9.793671E+05 -8.487602E+04 -8.834175E+04  1.838579E+04  6.164173E+03  1.408105E+04
       354  26 -9.420051E+05 -7.478595E+04 -7.577638E+04  7.873242E+03  3.567348E+03  1.236460E+04
       354  27 -9.053112E+05 -6.566580E+04 -6.516562E+04  1.815078E+04  9.713841E+02  1.060048E+04
       355   1 -4.093696E+05  5.651093E+04  5.072727E+04  1.956169E+04 -2.870481E+03 -9.571373E+03
       355   2 -4.467184E+05  4.731752E+04  4.299422E+04  8.965895E+03 -2.126013E+03 -7.796974E+03
       355   3 -4.842932E+05  3.816170E+04  3.475465E+04  1.939448E+04 -1.382194E+03 -6.015047E+03
       355   4 -6.384253E+05  4.863086E+01 -2.386405E+03  1.900431E+04 -1.682321E+03 -9.567992E+03
       355   5 -6.383090E+05  7.102556E+01 -1.524165E+03  8.491785E+03 -9.330819E+02 -7.793407E+03
       355   6 -6.384214E+05  1.300780E+02 -1.171989E+03  1.900403E+04 -1.844483E+02 -6.011288E+03
       355   7 -8.674325E+05 -5.641736E+04 -5.550360E+04  1.844710E+04 -4.945957E+02 -9.564612E+03
       355   8 -8.298657E+05 -4.717806E+04 -4.604502E+04  8.017795E+03  2.594832E+02 -7.789841E+03
       355   9 -7.925278E+05 -3.790322E+04 -3.710023E+04  1.861366E+04  1.013002E+03 -6.007530E+03
       355  10 -4.093696E+05  5.651083E+04  5.072708E+04  1.956167E+04 -1.841530E-09 -2.563039E-10
       355  11 -4.467184E+05  4.731745E+04  4.299410E+04  8.965882E+03 -2.732403E-09  8.050482E-09
       355  12 -4.842932E+05  3.816166E+04  3.475458E+04  1.939447E+04 -2.560247E-09  5.403187E-09
       355  13 -6.384253E+05  4.853182E+01 -2.386583E+03  1.900430E+04 -1.629807E-09  1.384254E-09
       355  14 -6.383090E+05  7.096012E+01 -1.524281E+03  8.491779E+03 -7.380544E-10  5.301048E-09
       355  15 -6.384214E+05  1.300392E+02 -1.172057E+03  1.900403E+04  1.600883E-10  7.338044E-10
       355  16 -8.674326E+05 -5.641746E+04 -5.550377E+04  1.844710E+04 -1.151292E-09  1.629453E-09
       355  17 -8.298657E+05 -4.717813E+04 -4.604513E+04  8.017797E+03  3.116799E-09 -2.680850E-09
       355  18 -7.925278E+05 -3.790326E+04 -3.710030E+04  1.861367E+04  1.884776E-09 -2.198718E-09
       355  19 -4.093696E+05  5.651093E+04  5.072727E+04  1.956169E+04  2.870481E+03  9.571373E+03
       355  20 -4.467184E+05  4.731752E+04  4.299422E+04  8.965895E+03  2.126013E+03  7.796974E+03
       355  21 -4.842932E+05  3.816170E+04  3.475465E+04  1.939448E+04  1.382194E+03  6.015047E+03
       355  22 -6.384253E+05  4.863086E+01 -2.386405E+03  1.900431E+04  1.682321E+03  9.567992E+03
       355  23 -6.383090E+05  7.102556E+01 -1.524165E+03  8.491785E+03  9.330819E+02  7.793407E+03
       355  24 -6.384214E+05  1.300780E+02 -1.171989E+03  1.900403E+04  1.844483E+02  6.011288E+03
       355  25 -8.674325E+05 -5.641736E+04 -5.550360E+04  1.844710E+04  4.945957E+02  9.564612E+03
       355  26 -8.298657E+05 -4.717806E+04 -4.604502E+04  8.017795E+03 -2.594832E+02  7.789841E+03
       355  27 -7.925278E+05 -3.790322E+04 -3.710023E+04  1.861366E+04 -1.013002E+03  6.007530E+03
       356   1 -5.224169E+05  2.871396E+04  2.570620E+04  1.930922E+04 -1.178608E+03 -4.975411E+03
       356   2 -5.599860E+05  1.939154E+04  1.686437E+04  8.631298E+03 -5.246903E+02 -3.186408E+03
       356   3 -5.977943E+05  1.012686E+04  7.573276E+03  1.911026E+04  1.289585E+02 -1.396137E+03
       356   4 -6.384213E+05  1.281515E+02 -1.138718E+03  1.903344E+04  2.096043E+01 -4.971566E+03
       356   5 -6.383006E+05  7.788196E+01 -1.334148E+03  8.454976E+03  6.756265E+02 -3.182491E+03
       356   6 -6.384200E+05  8.544234E+01 -1.979178E+03  1.903356E+04  1.330063E+03 -1.392143E+03
       356   7 -7.544133E+05 -2.845861E+04 -2.798453E+04  1.875770E+04  1.220307E+03 -4.967721E+03
       356   8 -7.166096E+05 -1.923621E+04 -1.953308E+04  8.278672E+03  1.875793E+03 -3.178575E+03
       356   9 -6.790441E+05 -9.956090E+03 -1.153174E+04  1.895687E+04  2.531089E+03 -1.388149E+03
       356  10 -5.224169E+05  2.871394E+04  2.570615E+04  1.930922E+04  4.690803E-09  1.683144E-09
       356  11 -5.599860E+05  1.939153E+04  1.686435E+04  8.631296E+03 -7.373742E-10 -8.177738E-10
       356  12 -5.977943E+05  1.012686E+04  7.573272E+03  1.911026E+04 -6.949245E-09 -5.021270E-09
       356  13 -6.384213E+05  1.281250E+02 -1.138764E+03  1.903344E+04 -1.032858E-09  1.079576E-08
       356  14 -6.383006E+05  7.787097E+01 -1.334168E+03  8.454978E+03  1.114768E-09  5.690864E-10
       356  15 -6.384200E+05  8.543978E+01 -1.979185E+03  1.903356E+04  5.660830E-10 -4.162782E-09
       356  16 -7.544133E+05 -2.845863E+04 -2.798458E+04  1.875770E+04 -6.955538E-09  4.554803E-09
       356  17 -7.166096E+05 -1.923623E+04 -1.953310E+04  8.278677E+03  1.408657E-09 -2.155185E-09
       356  18 -6.790441E+05 -9.956094E+03 -1.153176E+04  1.895687E+04  7.490925E-09 -4.194362E-09
       356  19 -5.224169E+05  2.871396E+04  2.570620E+04  1.930922E+04  1.178608E+03  4.975411E+03
       356  20 -5.599860E+05  1.939154E+04  1.686437E+04  8.631298E+03  5.246903E+02  3.186408E+03
       356  21 -5.977943E+05  1.012686E+04  7.573276E+03  1.911026E+04 -1.289585E+02  1.396137E+03
       356  22 -6.384213E+05  1.281515E+02 -1.138718E+03  1.903344E+04 -2.096043E+01  4.971566E+03
       356  23 -6.383006E+05  7.788196E+01 -1.334148E+03  8.454976E+03 -6.756265E+02  3.182491E+03
       356  24 -6.384200E+05  8.544234E+01 -1.979178E+03  1.903356E+04 -1.330063E+03  1.392143E+03
       356  25 -7.544133E+05 -2.845861E+04 -2.798453E+04  1.875770E+04 -1.220307E+03  4.967721E+03
       356  26 -7.166096E+05 -1.923621E+04 -1.953308E+04  8.278672E+03 -1.875793E+03  3.178575E+03
       356  27 -6.790441E+05 -9.956090E+03 -1.153174E+04  1.895687E+04 -2.531089E+03  1.388149E+03
       357   1 -6.361344E+05  7.389888E+02 -2.056880E+03  1.888361E+04  5.206042E+02 -3.498461E+02
       357   2 -6.735445E+05 -8.559166E+03 -1.238235E+04  8.331938E+03  2.604544E+03  1.444919E+03
       357   3 -7.115833E+05 -1.859524E+04 -2.428886E+04  1.895793E+04  4.688532E+03  3.217514E+03
       357   4 -6.385056E+05  1.778388E+02 -2.496018E+03  1.903724E+04  1.728549E+03 -3.458164E+02
       357   5 -6.381928E+05  1.601909E+02 -4.166149E+03  8.449719E+03  3.797685E+03  1.448864E+03
       357   6 -6.385073E+05 -5.926486E+02 -7.406829E+03  1.903979E+04  5.866994E+03  3.221381E+03
       357   7 -6.408767E+05 -3.833106E+02 -2.935152E+03  1.919086E+04  2.936488E+03 -3.417861E+02
       357   8 -6.028399E+05  8.879460E+03  4.049970E+03  8.567506E+03  4.990893E+03  1.452810E+03
       357   9 -5.654262E+05  1.740957E+04  9.474851E+03  1.912166E+04  7.045593E+03  3.225247E+03
       357  10 -6.361344E+05  7.389886E+02 -2.056881E+03  1.888361E+04 -9.588953E-10  4.775540E-10
       357  11 -6.735446E+05 -8.559170E+03 -1.238236E+04  8.331935E+03 -6.281576E-10  3.395864E-09
       357  12 -7.115833E+05 -1.859526E+04 -2.428892E+04  1.895792E+04 -2.743540E-09  2.262468E-09
       357  13 -6.385056E+05  1.778379E+02 -2.496024E+03  1.903724E+04 -2.938825E-11  1.661831E-09
       357  14 -6.381928E+05  1.601848E+02 -4.166181E+03  8.449715E+03  2.586472E-10  2.663672E-09
       357  15 -6.385073E+05 -5.926690E+02 -7.406913E+03  1.903978E+04 -4.346485E-11  5.456096E-09
       357  16 -6.408768E+05 -3.833131E+02 -2.935168E+03  1.919086E+04 -4.638865E-10  1.439356E-09
       357  17 -6.028399E+05  8.879451E+03  4.049919E+03  8.567500E+03  1.830242E-09 -6.307442E-09
       357  18 -5.654263E+05  1.740955E+04  9.474738E+03  1.912164E+04  1.918894E-09  2.124322E-10
       357  19 -6.361344E+05  7.389888E+02 -2.056880E+03  1.888361E+04 -5.206042E+02  3.498461E+02
       357  20 -6.735445E+05 -8.559166E+03 -1.238235E+04  8.331938E+03 -2.604544E+03 -1.444919E+03
       357  21 -7.115833E+05 -1.859524E+04 -2.428886E+04  1.895793E+04 -4.688532E+03 -3.217514E+03
       357  22 -6.385056E+05  1.778388E+02 -2.496018E+03  1.903724E+04 -1.728549E+03  3.458164E+02
       357  23 -6.381928E+05  1.601909E+02 -4.166149E+03  8.449719E+03 -3.797685E+03 -1.448864E+03
       357  24 -6.385073E+05 -5.926486E+02 -7.406829E+03  1.903979E+04 -5.866994E+03 -3.221381E+03
       357  25 -6.408767E+05 -3.833106E+02 -2.935152E+03  1.919086E+04 -2.936488E+03  3.417861E+02
       357  26 -6.028399E+05  8.879460E+03  4.049970E+03  8.567506E+03 -4.990893E+03 -1.452810E+03
       357  27 -5.654262E+05  1.740957E+04  9.474851E+03  1.912166E+04 -7.045593E+03 -3.225247E+03
       358   1 -7.504848E+05 -2.682022E+04 -3.550965E+04  1.720465E+04  6.053924E+03  4.312082E+03
       358   2 -7.861236E+05 -3.574189E+04 -5.089219E+04  8.893416E+03  1.458238E+04  6.073038E+03
       358   3 -8.256530E+05 -5.516472E+04 -7.449188E+04  2.167977E+04  2.311183E+04  7.428747E+03
       358   4 -6.392234E+05  6.549069E+02 -9.547587E+03  1.901109E+04  7.354587E+03  4.316310E+03
       358   5 -6.373054E+05  9.603899E+02 -1.629494E+04  8.477993E+03  1.561273E+04  6.076221E+03
       358   6 -6.392315E+05 -9.186782E+03 -3.106998E+04  1.904234E+04  2.387236E+04  7.430872E+03
       358   7 -5.279506E+05  2.812917E+04  1.641365E+04  2.081785E+04  8.655483E+03  4.320545E+03
       358   8 -4.884666E+05  3.766111E+04  1.830082E+04  8.062454E+03  1.664331E+04  6.079403E+03
       358   9 -4.527778E+05  3.678873E+04  1.234957E+04  1.640408E+04  2.463312E+04  7.432991E+03
       358  10 -7.504848E+05 -2.682025E+04 -3.550976E+04  1.720463E+04 -5.535476E-09  5.890262E-09
       358  11 -7.861238E+05 -3.574199E+04 -5.089266E+04  8.893344E+03  1.870965E-11  1.961549E-09
       358  12 -8.256536E+05 -5.516492E+04 -7.449298E+04  2.167963E+04  2.537244E-09  5.018215E-09
       358  13 -6.392235E+05  6.548723E+02 -9.547724E+03  1.901107E+04 -1.097728E-09  3.911673E-09
       358  14 -6.373056E+05  9.602847E+02 -1.629547E+04  8.477917E+03 -1.359436E-09  4.812929E-09
       358  15 -6.392321E+05 -9.186994E+03 -3.107116E+04  1.904219E+04 -2.383090E-10 -3.123687E-09
       358  16 -5.279506E+05  2.812913E+04  1.641347E+04  2.081781E+04  2.979857E-09  2.087161E-09
       358  17 -4.884670E+05  3.766100E+04  1.830023E+04  8.062373E+03  1.467736E-09 -3.520000E-09
       358  18 -4.527785E+05  3.678851E+04  1.234832E+04  1.640393E+04 -2.909185E-09 -6.236014E-09
       358  19 -7.504848E+05 -2.682022E+04 -3.550965E+04  1.720465E+04 -6.053924E+03 -4.312082E+03
       358  20 -7.861236E+05 -3.574189E+04 -5.089219E+04  8.893416E+03 -1.458238E+04 -6.073038E+03
       358  21 -8.256530E+05 -5.516472E+04 -7.449188E+04  2.167977E+04 -2.311183E+04 -7.428747E+03
       358  22 -6.392234E+05  6.549069E+02 -9.547587E+03  1.901109E+04 -7.354587E+03 -4.316310E+03
       358  23 -6.373054E+05  9.603899E+02 -1.629494E+04  8.477993E+03 -1.561273E+04 -6.076221E+03
       358  24 -6.392315E+05 -9.186782E+03 -3.106998E+04  1.904234E+04 -2.387236E+04 -7.430872E+03
       358  25 -5.279506E+05  2.812917E+04  1.641365E+04  2.081785E+04 -8.655483E+03 -4.320545E+03
       358  26 -4.884666E+05  3.766111E+04  1.830082E+04  8.062454E+03 -1.664331E+04 -6.079403E+03
       358  27 -4.527778E+05  3.678873E+04  1.234957E+04  1.640408E+04 -2.463312E+04 -7.432991E+03
       359   1 -8.708375E+05 -4.901204E+04 -9.054638E+04  1.580573E+03  2.652045E+04  9.404668E+03
       359   2 -8.895969E+05 -5.449346E+04 -1.241793E+05  2.207542E+04  6.545406E+04  1.033005E+04
       359   3 -9.458218E+05 -1.890438E+05 -2.154749E+05  6.345001E+04  1.044076E+05  3.689671E+03
       359   4 -6.464997E+05  6.435406E+03 -3.846547E+04  1.887045E+04  2.960855E+04  9.414698E+03
       359   5 -6.282356E+05  9.913728E+03 -6.323550E+04  8.605784E+03  6.347382E+04  1.032240E+04
       359   6 -6.465416E+05 -1.147697E+05 -1.421291E+05  1.922273E+04  9.736162E+04  3.661896E+03
       359   7 -4.221147E+05  6.188040E+04  1.361223E+04  3.616660E+04  3.269775E+04  9.424898E+03
       359   8 -3.668108E+05  7.431679E+04 -2.296185E+03 -4.869615E+03  6.149275E+04  1.031484E+04
       359   9 -3.471753E+05 -4.049471E+04 -6.878856E+04 -2.502599E+04  9.031226E+04  3.635134E+03
       359  10 -8.708383E+05 -4.901232E+04 -9.054787E+04  1.580372E+03 -3.171033E-09  4.220518E-09
       359  11 -8.896015E+05 -5.449473E+04 -1.241876E+05  2.207488E+04  3.693608E-10  2.242218E-09
       359  12 -9.458335E+05 -1.890467E+05 -2.154954E+05  6.344970E+04  1.253047E-09 -1.238934E-09
       359  13 -6.465007E+05  6.435075E+03 -3.846729E+04  1.887023E+04 -9.939706E-10  6.353849E-09
       359  14 -6.282399E+05  9.912531E+03 -6.324328E+04  8.605256E+03 -8.761028E-11 -6.278247E-09
       359  15 -6.465518E+05 -1.147722E+05 -1.421469E+05  1.922244E+04 -1.426628E-09  5.821098E-09
       359  16 -4.221159E+05  6.188002E+04  1.361006E+04  3.616635E+04  4.115690E-10  2.656304E-09
       359  17 -3.668149E+05  7.431566E+04 -2.303495E+03 -4.870125E+03  4.266301E-10  3.028109E-09
       359  18 -3.471841E+05 -4.049691E+04 -6.880392E+04 -2.502625E+04 -1.946046E-09 -1.975693E-09
       359  19 -8.708375E+05 -4.901204E+04 -9.054638E+04  1.580573E+03 -2.652045E+04 -9.404668E+03
       359  20 -8.895969E+05 -5.449346E+04 -1.241793E+05  2.207542E+04 -6.545406E+04 -1.033005E+04
       359  21 -9.458218E+05 -1.890438E+05 -2.154749E+05  6.345001E+04 -1.044076E+05 -3.689671E+03
       359  22 -6.464997E+05  6.435406E+03 -3.846547E+04  1.887045E+04 -2.960855E+04 -9.414698E+03
       359  23 -6.282356E+05  9.913728E+03 -6.323550E+04  8.605784E+03 -6.347382E+04 -1.032240E+04
       359  24 -6.465416E+05 -1.147697E+05 -1.421291E+05  1.922273E+04 -9.736162E+04 -3.661896E+03
       359  25 -4.221147E+05  6.188040E+04  1.361223E+04  3.616660E+04 -3.269775E+04 -9.424898E+03
       359  26 -3.668108E+05  7.431679E+04 -2.296185E+03 -4.869615E+03 -6.149275E+04 -1.031484E+04
       359  27 -3.471753E+05 -4.049471E+04 -6.878856E+04 -2.502599E+04 -9.031226E+04 -3.635134E+03
       360   1  5.834964E+05  2.958781E+06  6.270759E+05 -2.892245E+05  1.539096E+04  1.989273E+05
       360   2  2.671465E+05  2.559765E+06  3.886362E+05 -1.328116E+05  4.393458E+04  1.079090E+05
       360   3  1.867482E+05  2.231267E+06  2.681836E+05 -1.784488E+05  3.226179E+04  1.685347E+04
       360   4  2.048610E+05  1.436445E+06  2.543186E+05 -2.062559E+05  1.548730E+04  1.660178E+05
       360   5 -1.751660E+04  1.403694E+06  1.195956E+05 -1.054714E+05  4.395871E+04  1.022607E+05
       360   6 -8.410030E+03  1.436794E+06  8.416523E+04 -2.067249E+05  3.219673E+04  3.841126E+04
       360   7 -1.739199E+05 -8.377320E+04 -1.186005E+05 -1.234890E+05  1.557503E+04  1.331882E+05
       360   8 -3.022713E+05  2.488524E+05 -1.495346E+05 -7.818143E+04  4.398237E+04  9.662273E+04
       360   9 -2.036091E+05  6.429057E+05 -9.989317E+04 -2.349641E+05  3.212966E+04  5.994173E+04
       360  10  5.834856E+05  2.958739E+06  6.270014E+05 -2.892269E+05 -8.238258E-10 -4.974448E-10
       360  11  2.671413E+05  2.559752E+06  3.886108E+05 -1.328154E+05 -1.923861E-09  1.451613E-09
       360  12  1.867470E+05  2.231267E+06  2.681811E+05 -1.784493E+05  2.101963E-09  2.129431E-09
       360  13  2.048534E+05  1.436415E+06  2.542665E+05 -2.062580E+05 -3.516830E-10  1.577953E-09
       360  14 -1.752148E+04  1.403682E+06  1.195724E+05 -1.054750E+05 -2.527846E-09  4.231707E-10
       360  15 -8.411540E+03  1.436793E+06  8.416051E+04 -2.067259E+05  7.815542E-10  3.124845E-09
       360  16 -1.739250E+05 -8.379232E+04 -1.186343E+05 -1.234907E+05 -5.854327E-10  2.454562E-09
       360  17 -3.022759E+05  2.488419E+05 -1.495558E+05 -7.818485E+04  3.312431E-10 -1.202825E-09
       360  18 -2.036112E+05  6.429016E+05 -9.990186E+04 -2.349657E+05  6.394978E-10 -3.447187E-09
       360  19  5.834964E+05  2.958781E+06  6.270759E+05 -2.892245E+05 -1.539096E+04 -1.989273E+05
       360  20  2.671465E+05  2.559765E+06  3.886362E+05 -1.328116E+05 -4.393458E+04 -1.079090E+05
       360  21  1.867482E+05  2.231267E+06  2.681836E+05 -1.784488E+05 -3.226179E+04 -1.685347E+04
       360  22  2.048610E+05  1.436445E+06  2.543186E+05 -2.062559E+05 -1.548730E+04 -1.660178E+05
       360  23 -1.751660E+04  1.403694E+06  1.195956E+05 -1.054714E+05 -4.395871E+04 -1.022607E+05
       360  24 -8.410030E+03  1.436794E+06  8.416523E+04 -2.067249E+05 -3.219673E+04 -3.841126E+04
       360  25 -1.739199E+05 -8.377320E+04 -1.186005E+05 -1.234890E+05 -1.557503E+04 -1.331882E+05
       360  26 -3.022713E+05  2.488524E+05 -1.495346E+05 -7.818143E+04 -4.398237E+04 -9.662273E+04
       360  27 -2.036091E+05  6.429057E+05 -9.989317E+04 -2.349641E+05 -3.212966E+04 -5.994173E+04
       361   1  1.217833E+05  1.852928E+06  1.754157E+05 -2.166479E+05  1.706681E+04  1.523345E+04
       361   2  1.331324E+04  1.484775E+06  8.122889E+04 -1.052428E+05  2.741733E+03 -1.834191E+04
       361   3 -5.074704E+04  1.130714E+06  1.961928E+04 -1.960322E+05 -1.174474E+04 -5.190059E+04
       361   4  1.650656E+04  1.425346E+06  7.619585E+04 -2.066045E+05  1.703624E+04  2.488982E+04
       361   5 -3.023021E+03  1.418373E+06  6.582949E+04 -1.055008E+05  2.710297E+03 -8.569049E+03
       361   6  2.184841E+04  1.425352E+06  8.797238E+04 -2.065870E+05 -1.177641E+04 -4.203027E+04
       361   7 -8.878260E+04  9.979317E+05 -2.303586E+04 -1.965678E+05  1.700598E+04  3.453960E+04
       361   8 -1.935954E+04  1.351975E+06  5.043016E+04 -1.057587E+05  2.678851E+03  1.202775E+03
       361   9  9.443820E+04  1.720070E+06  1.563201E+05 -2.171468E+05 -1.180841E+04 -3.215530E+04
       361  10  1.217829E+05  1.852928E+06  1.754147E+05 -2.166481E+05  9.804415E-10 -2.261375E-09
       361  11  1.331314E+04  1.484774E+06  8.122825E+04 -1.052427E+05 -5.140629E-10 -7.899217E-10
       361  12 -5.074791E+04  1.130711E+06  1.961397E+04 -1.960327E+05  1.692220E-10  2.706754E-09
       361  13  1.650609E+04  1.425345E+06  7.619414E+04 -2.066048E+05  2.068464E-10  2.780110E-09
       361  14 -3.023048E+03  1.418372E+06  6.582934E+04 -1.055008E+05  8.002863E-10 -6.527817E-10
       361  15  2.184779E+04  1.425350E+06  8.796881E+04 -2.065874E+05  3.515102E-09  2.651674E-09
       361  16 -8.878323E+04  9.979303E+05 -2.303864E+04 -1.965683E+05  2.018944E-10  5.593703E-09
       361  17 -1.935955E+04  1.351975E+06  5.043015E+04 -1.057587E+05 -3.356549E-09  1.385271E-10
       361  18  9.443777E+04  1.720069E+06  1.563179E+05 -2.171471E+05  7.643982E-10 -4.066911E-09
       361  19  1.217833E+05  1.852928E+06  1.754157E+05 -2.166479E+05 -1.706681E+04 -1.523345E+04
       361  20  1.331324E+04  1.484775E+06  8.122889E+04 -1.052428E+05 -2.741733E+03  1.834191E+04
       361  21 -5.074704E+04  1.130714E+06  1.961928E+04 -1.960322E+05  1.174474E+04  5.190059E+04
       361  22  1.650656E+04  1.425346E+06  7.619585E+04 -2.066045E+05 -1.703624E+04 -2.488982E+04
       361  23 -3.023021E+03  1.418373E+06  6.582949E+04 -1.055008E+05 -2.710297E+03  8.569049E+03
       361  24  2.184841E+04  1.425352E+06  8.797238E+04 -2.065870E+05  1.177641E+04  4.203027E+04
       361  25 -8.878260E+04  9.979317E+05 -2.303586E+04 -1.965678E+05 -1.700598E+04 -3.453960E+04
       361  26 -1.935954E+04  1.351975E+06  5.043016E+04 -1.057587E+05 -2.678851E+03 -1.202775E+03
       361  27  9.443820E+04  1.720070E+06  1.563201E+05 -2.171468E+05  1.180841E+04  3.215530E+04
       362   1 -1.745342E+05  7.801744E+05 -5.208912E+04 -2.442099E+05 -2.647865E+04 -7.859195E+04
       362   2 -2.746103E+05  3.769461E+05 -8.606597E+04 -7.080410E+04 -3.866015E+04 -1.348283E+05
       362   3 -7.867249E+04  5.469462E+04 -9.534264E+03 -9.918878E+04 -1.379098E+04 -1.909363E+05
       362   4 -1.214640E+04  1.441089E+06  1.011760E+05 -2.067128E+05 -2.654802E+04 -5.788752E+04
       362   5 -2.267575E+04  1.398409E+06  1.520177E+05 -1.055141E+05 -3.863716E+04 -1.391595E+05
       362   6  2.668617E+05  1.440722E+06  3.305758E+05 -2.060487E+05 -1.368962E+04 -2.203382E+05
       362   7  1.502164E+05  2.102410E+06  2.544143E+05 -1.691751E+05 -2.661486E+04 -3.716120E+04
       362   8  2.291894E+05  2.420835E+06  3.900315E+05 -1.402809E+05 -3.861370E+04 -1.434978E+05
       362   9  6.122960E+05  2.828522E+06  6.705540E+05 -3.131464E+05 -1.357831E+04 -2.498053E+05
       362  10 -1.745366E+05  7.801675E+05 -5.210203E+04 -2.442116E+05  1.844772E-09 -2.725961E-09
       362  11 -2.746168E+05  3.769262E+05 -8.610292E+04 -7.080830E+04 -1.177709E-09 -1.059997E-09
       362  12 -7.868248E+04  5.465542E+04 -9.603124E+03 -9.919090E+04 -1.029400E-09  1.292418E-09
       362  13 -1.214806E+04  1.441085E+06  1.011684E+05 -2.067140E+05 -6.561771E-10  3.295161E-09
       362  14 -2.268253E+04  1.398388E+06  1.519786E+05 -1.055185E+05 -8.559353E-10  1.893528E-11
       362  15  2.668485E+05  1.440670E+06  3.304844E+05 -2.060512E+05 -1.814578E-09  2.754093E-09
       362  16  1.502153E+05  2.102408E+06  2.544103E+05 -1.691759E+05  1.883658E-09  5.749994E-09
       362  17  2.291823E+05  2.420813E+06  3.899901E+05 -1.402854E+05 -1.915781E-10  1.266445E-09
       362  18  6.122791E+05  2.828455E+06  6.704369E+05 -3.131491E+05 -1.451270E-09 -1.658311E-09
       362  19 -1.745342E+05  7.801744E+05 -5.208912E+04 -2.442099E+05  2.647865E+04  7.859195E+04
       362  20 -2.746103E+05  3.769461E+05 -8.606597E+04 -7.080410E+04  3.866015E+04  1.348283E+05
       362  21 -7.867249E+04  5.469462E+04 -9.534264E+03 -9.918878E+04  1.379098E+04  1.909363E+05
       362  22 -1.214640E+04  1.441089E+06  1.011760E+05 -2.067128E+05  2.654802E+04  5.788752E+04
       362  23 -2.267575E+04  1.398409E+06  1.520177E+05 -1.055141E+05  3.863716E+04  1.391595E+05
       362  24  2.668617E+05  1.440722E+06  3.305758E+05 -2.060487E+05  1.368962E+04  2.203382E+05
       362  25  1.502164E+05  2.102410E+06  2.544143E+05 -1.691751E+05  2.661486E+04  3.716120E+04
       362  26  2.291894E+05  2.420835E+06  3.900315E+05 -1.402809E+05  3.861370E+04  1.434978E+05
       362  27  6.122960E+05  2.828522E+06  6.705540E+05 -3.131464E+05  1.357831E+04  2.498053E+05
       363   1  3.581673E+05  1.152151E+05  6.044321E+04  1.034932E+05 -3.332155E+04 -1.969457E+04
       363   2  3.372528E+05  1.643868E+05  8.832851E+04  7.927707E+04 -1.944710E+04 -2.923110E+04
       363   3  2.775214E+05  1.658224E+05  9.248966E+04  8.791992E+04 -1.057174E+04 -2.550740E+04
       363   4 -1.600840E+05 -5.986067E+04 -7.540121E+04 -1.707123E+04 -4.560427E+04 -2.432573E+04
       363   5 -1.358258E+05 -6.969553E+03 -3.194000E+04 -4.412690E+04 -2.339460E+04 -3.072152E+04
       363   6 -1.520579E+05 -3.493907E+03 -1.882499E+04 -3.831732E+04 -6.184803E+03 -2.385242E+04
       363   7 -6.780704E+05 -2.349306E+05 -2.112654E+05 -1.375493E+05 -5.787551E+04 -2.895359E+04
       363   8 -6.086835E+05 -1.783141E+05 -1.522255E+05 -1.674467E+05 -2.733876E+04 -3.221079E+04
       363   9 -5.814566E+05 -1.727929E+05 -1.301549E+05 -1.644735E+05 -1.801191E+03 -2.219883E+04
       363  10  3.581660E+05  1.152144E+05  6.044039E+04  1.034927E+05 -1.327964E-09 -7.503346E-10
       363  11  3.372522E+05  1.643857E+05  8.832620E+04  7.927661E+04 -2.460489E-09  2.942209E-10
       363  12  2.775211E+05  1.658217E+05  9.248823E+04  8.791970E+04  1.778329E-09  2.420115E-09
       363  13 -1.600864E+05 -5.986187E+04 -7.540623E+04 -1.707212E+04 -1.559698E-09  4.726775E-09
       363  14 -1.358267E+05 -6.970713E+03 -3.194280E+04 -4.412748E+04 -1.033173E-09 -5.414933E-10
       363  15 -1.520581E+05 -3.494528E+03 -1.882613E+04 -3.831743E+04 -6.846223E-10  1.621450E-09
       363  16 -6.780743E+05 -2.349324E+05 -2.112732E+05 -1.375507E+05  2.988699E-09  2.081382E-09
       363  17 -6.086846E+05 -1.783154E+05 -1.522289E+05 -1.674474E+05  1.258180E-09 -2.408229E-09
       363  18 -5.814567E+05 -1.727934E+05 -1.301558E+05 -1.644735E+05 -3.592245E-09 -9.072756E-10
       363  19  3.581673E+05  1.152151E+05  6.044321E+04  1.034932E+05  3.332155E+04  1.969457E+04
       363  20  3.372528E+05  1.643868E+05  8.832851E+04  7.927707E+04  1.944710E+04  2.923110E+04
       363  21  2.775214E+05  1.658224E+05  9.248966E+04  8.791992E+04  1.057174E+04  2.550740E+04
       363  22 -1.600840E+05 -5.986067E+04 -7.540121E+04 -1.707123E+04  4.560427E+04  2.432573E+04
       363  23 -1.358258E+05 -6.969553E+03 -3.194000E+04 -4.412690E+04  2.339460E+04  3.072152E+04
       363  24 -1.520579E+05 -3.493907E+03 -1.882499E+04 -3.831732E+04  6.184803E+03  2.385242E+04
       363  25 -6.780704E+05 -2.349306E+05 -2.112654E+05 -1.375493E+05  5.787551E+04  2.895359E+04
       363  26 -6.086835E+05 -1.783141E+05 -1.522255E+05 -1.674467E+05  2.733876E+04  3.221079E+04
       363  27 -5.814566E+05 -1.727929E+05 -1.301549E+05 -1.644735E+05  1.801191E+03  2.219883E+04
       364   1  2.503411E+05  1.383699E+05  8.735564E+04  7.429822E+04 -4.938633E+03 -2.030771E+04
       364   2  2.245713E+05  1.243571E+05  8.606621E+04  5.600185E+04 -1.876535E+03 -1.818081E+04
       364   3  1.816018E+05  1.195894E+05  8.077483E+04  5.584677E+04  8.957065E+02 -1.529006E+04
       364   4 -1.497384E+05 -1.045601E+04 -1.517130E+04 -3.405085E+04 -4.638999E+03 -2.019550E+04
       364   5 -1.407357E+05 -1.257036E+04 -7.510673E+03 -4.404954E+04 -1.098367E+03 -1.788759E+04
       364   6 -1.490301E+05 -5.536017E+03 -4.233356E+03 -3.590638E+04  2.152531E+03 -1.481555E+04
       364   7 -5.496637E+05 -1.592729E+05 -1.177117E+05 -1.423376E+05 -4.339574E+03 -2.008337E+04
       364   8 -5.059134E+05 -1.494895E+05 -1.010987E+05 -1.440480E+05 -3.206990E+02 -1.759457E+04
       364   9 -4.795556E+05 -1.306539E+05 -8.925055E+04 -1.276152E+05  3.408622E+03 -1.434132E+04
       364  10  2.503410E+05  1.383694E+05  8.735482E+04  7.429814E+04  1.604143E-09  1.805056E-11
       364  11  2.245712E+05  1.243567E+05  8.606558E+04  5.600182E+04 -1.208209E-09 -1.458008E-09
       364  12  1.816017E+05  1.195891E+05  8.077439E+04  5.584678E+04 -3.784129E-09  2.457250E-09
       364  13 -1.497385E+05 -1.045645E+04 -1.517211E+04 -3.405093E+04 -1.115325E-09 -3.963558E-09
       364  14 -1.407357E+05 -1.257070E+04 -7.511276E+03 -4.404955E+04  3.243527E-09  1.144061E-08
       364  15 -1.490302E+05 -5.536254E+03 -4.233777E+03 -3.590635E+04 -9.476207E-10 -1.563623E-09
       364  16 -5.496638E+05 -1.592734E+05 -1.177125E+05 -1.423377E+05 -7.606587E-10 -3.248227E-09
       364  17 -5.059135E+05 -1.494899E+05 -1.010993E+05 -1.440480E+05  2.184997E-09 -7.226146E-09
       364  18 -4.795557E+05 -1.306541E+05 -8.925096E+04 -1.276152E+05  3.650141E-09 -1.806848E-09
       364  19  2.503411E+05  1.383699E+05  8.735564E+04  7.429822E+04  4.938633E+03  2.030771E+04
       364  20  2.245713E+05  1.243571E+05  8.606621E+04  5.600185E+04  1.876535E+03  1.818081E+04
       364  21  1.816018E+05  1.195894E+05  8.077483E+04  5.584677E+04 -8.957065E+02  1.529006E+04
       364  22 -1.497384E+05 -1.045601E+04 -1.517130E+04 -3.405085E+04  4.638999E+03  2.019550E+04
       364  23 -1.407357E+05 -1.257036E+04 -7.510673E+03 -4.404954E+04  1.098367E+03  1.788759E+04
       364  24 -1.490301E+05 -5.536017E+03 -4.233356E+03 -3.590638E+04 -2.152531E+03  1.481555E+04
       364  25 -5.496637E+05 -1.592729E+05 -1.177117E+05 -1.423376E+05  4.339574E+03  2.008337E+04
       364  26 -5.059134E+05 -1.494895E+05 -1.010987E+05 -1.440480E+05  3.206990E+02  1.759457E+04
       364  27 -4.795556E+05 -1.306539E+05 -8.925055E+04 -1.276152E+05 -3.408622E+03  1.434132E+04
       365   1  1.460066E+05  1.046793E+05  7.220049E+04  4.555786E+04  1.319586E+03 -1.389147E+04
       365   2  1.195576E+05  8.502621E+04  6.513829E+04  2.772840E+04  1.535015E+03 -1.192710E+04
       365   3  7.799403E+04  7.975718E+04  5.733253E+04  2.685299E+04  1.732200E+03 -9.917163E+03
       365   4 -1.487896E+05 -6.116039E+03 -3.263087E+03 -3.550941E+04  2.342898E+03 -1.350502E+04
       365   5 -1.411948E+05 -1.308690E+04 -1.721323E+03 -4.406811E+04  2.586685E+03 -1.152965E+04
       365   6 -1.487220E+05 -5.678962E+03 -9.459163E+02 -3.567249E+04  2.812273E+03 -9.508677E+03
       365   7 -4.435002E+05 -1.169053E+05 -7.873347E+04 -1.165416E+05  3.365674E+03 -1.311878E+04
       365   8 -4.018809E+05 -1.111955E+05 -6.858651E+04 -1.158374E+05  3.637871E+03 -1.113238E+04
       365   9 -3.753888E+05 -9.111202E+04 -5.922882E+04 -9.817754E+04  3.891918E+03 -9.100353E+03
       365  10  1.460066E+05  1.046791E+05  7.220012E+04  4.555787E+04 -1.591817E-09  3.758359E-09
       365  11  1.195576E+05  8.502605E+04  6.513802E+04  2.772841E+04  4.694287E-10  8.591300E-09
       365  12  7.799400E+04  7.975708E+04  5.733234E+04  2.685301E+04  2.199173E-09 -2.403595E-10
       365  13 -1.487897E+05 -6.116236E+03 -3.263440E+03 -3.550938E+04 -2.258349E-09  3.116680E-09
       365  14 -1.411948E+05 -1.308705E+04 -1.721586E+03 -4.406809E+04  1.690164E-10 -5.054868E-10
       365  15 -1.487220E+05 -5.679061E+03 -9.461010E+02 -3.567246E+04 -5.042761E-10 -1.388635E-09
       365  16 -4.435002E+05 -1.169055E+05 -7.873382E+04 -1.165416E+05 -7.679253E-10  3.168634E-09
       365  17 -4.018810E+05 -1.111957E+05 -6.858677E+04 -1.158373E+05 -4.396605E-09  8.057383E-09
       365  18 -3.753889E+05 -9.111211E+04 -5.922900E+04 -9.817751E+04 -3.080097E-09 -2.571285E-09
       365  19  1.460066E+05  1.046793E+05  7.220049E+04  4.555786E+04 -1.319586E+03  1.389147E+04
       365  20  1.195576E+05  8.502621E+04  6.513829E+04  2.772840E+04 -1.535015E+03  1.192710E+04
       365  21  7.799403E+04  7.975718E+04  5.733253E+04  2.685299E+04 -1.732200E+03  9.917163E+03
       365  22 -1.487896E+05 -6.116039E+03 -3.263087E+03 -3.550941E+04 -2.342898E+03  1.350502E+04
       365  23 -1.411948E+05 -1.308690E+04 -1.721323E+03 -4.406811E+04 -2.586685E+03  1.152965E+04
       365  24 -1.487220E+05 -5.678962E+03 -9.459163E+02 -3.567249E+04 -2.812273E+03  9.508677E+03
       365  25 -4.435002E+05 -1.169053E+05 -7.873347E+04 -1.165416E+05 -3.365674E+03  1.311878E+04
       365  26 -4.018809E+05 -1.111955E+05 -6.858651E+04 -1.158374E+05 -3.637871E+03  1.113238E+04
       365  27 -3.753888E+05 -9.111202E+04 -5.922882E+04 -9.817754E+04 -3.891918E+03  9.100353E+03
       366   1  4.152288E+04  6.587641E+04  4.794664E+04  1.679672E+04  1.504184E+03 -8.866400E+03
       366   2  1.494420E+04  4.567084E+04  3.968098E+04 -1.040312E+03  1.045149E+03 -7.099008E+03
       366   3 -2.658252E+04  4.034702E+04  3.127094E+04 -1.983946E+03  5.842081E+02 -5.328096E+03
       366   4 -1.487015E+05 -5.718116E+03 -7.126921E+02 -3.562735E+04  2.571599E+03 -8.462552E+03
       366   5 -1.412217E+05 -1.313483E+04 -3.718511E+02 -4.408235E+04  2.114754E+03 -6.694165E+03
       366   6 -1.486920E+05 -5.670264E+03 -1.772095E+02 -3.564430E+04  1.656010E+03 -4.922250E+03
       366   7 -3.388906E+05 -7.731024E+04 -4.937497E+04 -8.803688E+04  3.638656E+03 -8.058840E+03
       366   8 -2.973636E+05 -7.193878E+04 -4.042660E+04 -8.711452E+04  3.184061E+03 -6.289435E+03
       366   9 -2.707864E+05 -5.168639E+04 -3.162646E+04 -6.929853E+04  2.727577E+03 -4.516493E+03
       366  10  4.152285E+04  6.587633E+04  4.794649E+04  1.679673E+04 -3.189604E-09  4.388972E-09
       366  11  1.494418E+04  4.567079E+04  3.968088E+04 -1.040306E+03 -1.075086E-09  3.028671E-09
       366  12 -2.658252E+04  4.034699E+04  3.127089E+04 -1.983943E+03  6.073092E-09  1.142330E-09
       366  13 -1.487015E+05 -5.718194E+03 -7.128390E+02 -3.562733E+04  1.181038E-09  1.839375E-10
       366  14 -1.412217E+05 -1.313488E+04 -3.719437E+02 -4.408234E+04  3.991603E-10  6.948802E-09
       366  15 -1.486920E+05 -5.670290E+03 -1.772602E+02 -3.564429E+04  3.933978E-09  5.246325E-10
       366  16 -3.388906E+05 -7.731031E+04 -4.937512E+04 -8.803686E+04  3.779067E-09 -2.620014E-09
       366  17 -2.973636E+05 -7.193882E+04 -4.042669E+04 -8.711450E+04 -7.646848E-10 -4.023913E-09
       366  18 -2.707864E+05 -5.168642E+04 -3.162651E+04 -6.929852E+04 -7.273443E-09 -1.245782E-09
       366  19  4.152288E+04  6.587641E+04  4.794664E+04  1.679672E+04 -1.504184E+03  8.866400E+03
       366  20  1.494420E+04  4.567084E+04  3.968098E+04 -1.040312E+03 -1.045149E+03  7.099008E+03
       366  21 -2.658252E+04  4.034702E+04  3.127094E+04 -1.983946E+03 -5.842081E+02  5.328096E+03
       366  22 -1.487015E+05 -5.718116E+03 -7.126921E+02 -3.562735E+04 -2.571599E+03  8.462552E+03
       366  23 -1.412217E+05 -1.313483E+04 -3.718511E+02 -4.408235E+04 -2.114754E+03  6.694165E+03
       366  24 -1.486920E+05 -5.670264E+03 -1.772095E+02 -3.564430E+04 -1.656010E+03  4.922250E+03
       366  25 -3.388906E+05 -7.731024E+04 -4.937497E+04 -8.803688E+04 -3.638656E+03  8.058840E+03
       366  26 -2.973636E+05 -7.193878E+04 -4.042660E+04 -8.711452E+04 -3.184061E+03  6.289435E+03
       366  27 -2.707864E+05 -5.168639E+04 -3.162646E+04 -6.929853E+04 -2.727577E+03  4.516493E+03
       367   1 -6.318711E+04  2.651654E+04  2.169399E+04 -1.204996E+04  2.324144E+02 -4.327531E+03
       367   2 -8.980128E+04  6.227964E+03  1.319129E+04 -2.991209E+04 -4.132786E+02 -2.624668E+03
       367   3 -1.313636E+05  8.951573E+02  4.690151E+03 -3.086861E+04 -1.058773E+03 -9.228048E+02
       367   4 -1.486917E+05 -5.669681E+03 -1.120464E+02 -3.563447E+04  1.304249E+03 -3.921597E+03
       367   5 -1.412160E+05 -1.314058E+04  2.471073E+00 -4.408974E+04  6.579231E+02 -2.218917E+03
       367   6 -1.486888E+05 -5.655319E+03  1.192888E+02 -3.563958E+04  1.179430E+01 -5.172347E+02
       367   7 -2.341894E+05 -3.785553E+04 -2.191876E+04 -5.921613E+04  2.375926E+03 -3.515723E+03
       367   8 -1.926282E+05 -3.250898E+04 -1.318659E+04 -5.826636E+04  1.729030E+03 -1.813203E+03
       367   9 -1.660138E+05 -1.220578E+04 -4.451595E+03 -4.041043E+04  1.082329E+03 -1.116769E+02
       367  10 -6.318712E+04  2.651652E+04  2.169396E+04 -1.204995E+04 -3.838611E-09 -1.055922E-08
       367  11 -8.980128E+04  6.227956E+03  1.319128E+04 -2.991209E+04 -2.630825E-09 -1.655797E-09
       367  12 -1.313636E+05  8.951560E+02  4.690147E+03 -3.086861E+04  8.158047E-10  5.027893E-10
       367  13 -1.486917E+05 -5.669698E+03 -1.120785E+02 -3.563447E+04  2.930093E-10 -2.031959E-10
       367  14 -1.412160E+05 -1.314058E+04  2.461008E+00 -4.408974E+04 -5.006497E-09  3.562272E-09
       367  15 -1.486888E+05 -5.655320E+03  1.192883E+02 -3.563958E+04 -1.862276E-09  5.799774E-09
       367  16 -2.341894E+05 -3.785555E+04 -2.191879E+04 -5.921612E+04  4.649255E-09  8.530795E-09
       367  17 -1.926282E+05 -3.250898E+04 -1.318660E+04 -5.826635E+04  5.825219E-10  1.571753E-08
       367  18 -1.660138E+05 -1.220578E+04 -4.451597E+03 -4.041043E+04 -4.181788E-09  2.464681E-09
       367  19 -6.318711E+04  2.651654E+04  2.169399E+04 -1.204996E+04 -2.324144E+02  4.327531E+03
       367  20 -8.980128E+04  6.227964E+03  1.319129E+04 -2.991209E+04  4.132786E+02  2.624668E+03
       367  21 -1.313636E+05  8.951573E+02  4.690151E+03 -3.086861E+04  1.058773E+03  9.228048E+02
       367  22 -1.486917E+05 -5.669681E+03 -1.120464E+02 -3.563447E+04 -1.304249E+03  3.921597E+03
       367  23 -1.412160E+05 -1.314058E+04  2.471073E+00 -4.408974E+04 -6.579231E+02  2.218917E+03
       367  24 -1.486888E+05 -5.655319E+03  1.192888E+02 -3.563958E+04 -1.179430E+01  5.172347E+02
       367  25 -2.341894E+05 -3.785553E+04 -2.191876E+04 -5.921613E+04 -2.375926E+03  3.515723E+03
       367  26 -1.926282E+05 -3.250898E+04 -1.318659E+04 -5.826636E+04 -1.729030E+03  1.813203E+03
       367  27 -1.660138E+05 -1.220578E+04 -4.451595E+03 -4.041043E+04 -1.082329E+03  1.116769E+02
       368   1 -1.679927E+05 -1.294391E+04 -4.891526E+03 -4.092791E+04 -1.468866E+03  5.988066E+01
       368   2 -1.946192E+05 -3.326113E+04 -1.331684E+04 -5.880644E+04 -2.286967E+03  1.695320E+03
       368   3 -2.361279E+05 -3.851647E+04 -2.158271E+04 -5.979996E+04 -3.094692E+03  3.303997E+03
       368   4 -1.486785E+05 -5.666039E+03  1.855969E+02 -3.563101E+04 -3.902678E+02  4.684914E+02
       368   5 -1.412327E+05 -1.315371E+04  3.782800E+02 -4.409042E+04 -1.225275E+03  2.097463E+03
       368   6 -1.486667E+05 -5.576344E+03  7.438988E+02 -3.566543E+04 -2.049922E+03  3.699678E+03
       368   7 -1.293640E+05  1.611827E+03  5.262674E+03 -3.033397E+04  6.883636E+02  8.771145E+02
       368   8 -8.784335E+04  6.953904E+03  1.407317E+04 -2.937326E+04 -1.634834E+02  2.499644E+03
       368   9 -6.119766E+04  2.736441E+04  2.306998E+04 -1.152773E+04 -1.004986E+03  4.095421E+03
       368  10 -1.679927E+05 -1.294391E+04 -4.891530E+03 -4.092791E+04  1.225524E-09 -2.368041E-09
       368  11 -1.946192E+05 -3.326113E+04 -1.331686E+04 -5.880644E+04  8.566804E-10  3.622458E-09
       368  12 -2.361279E+05 -3.851648E+04 -2.158275E+04 -5.979995E+04  3.575401E-10 -5.800931E-09
       368  13 -1.486785E+05 -5.666040E+03  1.855962E+02 -3.563101E+04 -2.295967E-09  8.149318E-09
       368  14 -1.412327E+05 -1.315371E+04  3.782690E+02 -4.409042E+04  4.786861E-10 -5.180444E-09
       368  15 -1.486667E+05 -5.576360E+03  7.438652E+02 -3.566542E+04  1.705182E-09  6.183214E-09
       368  16 -1.293640E+05  1.611826E+03  5.262672E+03 -3.033397E+04 -2.297573E-09  6.705822E-09
       368  17 -8.784335E+04  6.953897E+03  1.407316E+04 -2.937326E+04 -1.916433E-09 -3.688133E-09
       368  18 -6.119766E+04  2.736439E+04  2.306994E+04 -1.152773E+04 -9.088496E-10  3.924129E-09
       368  19 -1.679927E+05 -1.294391E+04 -4.891526E+03 -4.092791E+04  1.468866E+03 -5.988066E+01
       368  20 -1.946192E+05 -3.326113E+04 -1.331684E+04 -5.880644E+04  2.286967E+03 -1.695320E+03
       368  21 -2.361279E+05 -3.851647E+04 -2.158271E+04 -5.979996E+04  3.094692E+03 -3.303997E+03
       368  22 -1.486785E+05 -5.666039E+03  1.855969E+02 -3.563101E+04  3.902678E+02 -4.684914E+02
       368  23 -1.412327E+05 -1.315371E+04  3.782800E+02 -4.409042E+04  1.225275E+03 -2.097463E+03
       368  24 -1.486667E+05 -5.576344E+03  7.438988E+02 -3.566543E+04  2.049922E+03 -3.699678E+03
       368  25 -1.293640E+05  1.611827E+03  5.262674E+03 -3.033397E+04 -6.883636E+02 -8.771145E+02
       368  26 -8.784335E+04  6.953904E+03  1.407317E+04 -2.937326E+04  1.634834E+02 -2.499644E+03
       368  27 -6.119766E+04  2.736441E+04  2.306998E+04 -1.152773E+04  1.004986E+03 -4.095421E+03
       369   1 -2.728004E+05 -5.234292E+04 -3.096990E+04 -6.963256E+04 -3.771629E+03  4.248845E+03
       369   2 -2.994089E+05 -7.287852E+04 -3.883727E+04 -8.772166E+04 -4.996257E+03  5.677827E+03
       369   3 -3.403579E+05 -7.724425E+04 -4.591205E+04 -8.923852E+04 -6.045713E+03  6.645747E+03
       369   4 -1.485937E+05 -5.718567E+03  9.733649E+02 -3.558429E+04 -2.585505E+03  4.697987E+03
       369   5 -1.413731E+05 -1.327505E+04  1.727031E+03 -4.408139E+04 -4.100437E+03  6.016862E+03
       369   6 -1.484365E+05 -4.604704E+03  3.503408E+03 -3.600702E+04 -5.440253E+03  6.874725E+03
       369   7 -2.437212E+04  4.090676E+04  3.291536E+04 -1.529875E+03 -1.399121E+03  5.147225E+03
       369   8  1.668683E+04  4.632998E+04  4.228920E+04 -4.311403E+02 -3.204369E+03  6.355991E+03
       369   9  4.352008E+04  6.803708E+04  5.291563E+04  1.723921E+04 -4.834590E+03  7.103781E+03
       369  10 -2.728004E+05 -5.234294E+04 -3.096996E+04 -6.963255E+04  1.867271E-09  1.550028E-09
       369  11 -2.994090E+05 -7.287856E+04 -3.883737E+04 -8.772164E+04  3.579355E-09  2.295673E-09
       369  12 -3.403579E+05 -7.724431E+04 -4.591221E+04 -8.923849E+04 -1.627050E-10 -1.163868E-09
       369  13 -1.485938E+05 -5.718593E+03  9.733109E+02 -3.558428E+04 -5.060427E-12 -8.415856E-09
       369  14 -1.413731E+05 -1.327509E+04  1.726932E+03 -4.408137E+04 -2.765282E-09 -3.503384E-09
       369  15 -1.484365E+05 -4.604763E+03  3.503263E+03 -3.600699E+04  1.185169E-09  5.484121E-10
       369  16 -2.437213E+04  4.090673E+04  3.291531E+04 -1.529869E+03 -1.141381E-11 -1.022708E-09
       369  17  1.668681E+04  4.632993E+04  4.228910E+04 -4.311239E+02  1.192290E-09  4.699664E-09
       369  18  4.352004E+04  6.803702E+04  5.291549E+04  1.723923E+04  6.995406E-10  4.769918E-09
       369  19 -2.728004E+05 -5.234292E+04 -3.096990E+04 -6.963256E+04  3.771629E+03 -4.248845E+03
       369  20 -2.994089E+05 -7.287852E+04 -3.883727E+04 -8.772166E+04  4.996257E+03 -5.677827E+03
       369  21 -3.403579E+05 -7.724425E+04 -4.591205E+04 -8.923852E+04  6.045713E+03 -6.645747E+03
       369  22 -1.485937E+05 -5.718567E+03  9.733649E+02 -3.558429E+04  2.585505E+03 -4.697987E+03
       369  23 -1.413731E+05 -1.327505E+04  1.727031E+03 -4.408139E+04  4.100437E+03 -6.016862E+03
       369  24 -1.484365E+05 -4.604704E+03  3.503408E+03 -3.600702E+04  5.440253E+03 -6.874725E+03
       369  25 -2.437212E+04  4.090676E+04  3.291536E+04 -1.529875E+03  1.399121E+03 -5.147225E+03
       369  26  1.668683E+04  4.632998E+04  4.228920E+04 -4.311403E+02  3.204369E+03 -6.355991E+03
       369  27  4.352008E+04  6.803708E+04  5.291563E+04  1.723921E+04  4.834590E+03 -7.103781E+03
       370   1 -3.779564E+05 -9.105689E+04 -5.422835E+04 -9.660598E+04 -9.874357E+03  7.510291E+03
       370   2 -4.039711E+05 -1.143480E+05 -6.007430E+04 -1.174007E+05 -9.161469E+03  8.789006E+03
       370   3 -4.395017E+05 -1.091866E+05 -6.287995E+04 -1.253845E+05 -5.415705E+03  2.047975E+03
       370   4 -1.478208E+05 -6.283427E+03  4.351594E+03 -3.509816E+04 -6.798763E+03  8.674001E+03
       370   5 -1.426330E+05 -1.450598E+04  7.367656E+03 -4.396352E+04 -1.113014E+04  8.043858E+03
       370   6 -1.459632E+05  6.720686E+03  1.742395E+04 -4.001758E+04 -1.242934E+04 -6.043615E+02
       370   7  8.236776E+04  7.849343E+04  6.292763E+04  2.643039E+04 -3.721902E+03  9.838168E+03
       370   8  1.187714E+05  8.534093E+04  7.480389E+04  2.950179E+04 -1.309971E+04  7.298357E+03
       370   9  1.476562E+05  1.226344E+05  9.771961E+04  4.538580E+04 -1.944658E+04 -3.258194E+03
       370  10 -3.779566E+05 -9.105698E+04 -5.422863E+04 -9.660592E+04 -1.269728E-09 -8.962874E-10
       370  11 -4.039712E+05 -1.143481E+05 -6.007460E+04 -1.174007E+05  1.084191E-09  6.543262E-09
       370  12 -4.395017E+05 -1.091866E+05 -6.288002E+04 -1.253845E+05  1.022571E-09  2.552802E-09
       370  13 -1.478208E+05 -6.283521E+03  4.351366E+03 -3.509811E+04 -1.979805E-09  9.503742E-10
       370  14 -1.426332E+05 -1.450608E+04  7.367301E+03 -4.396345E+04  1.526728E-09  4.212848E-09
       370  15 -1.459633E+05  6.720644E+03  1.742366E+04 -4.001759E+04 -4.337216E-10  9.728723E-10
       370  16  8.236772E+04  7.849332E+04  6.292742E+04  2.643042E+04  1.409047E-09  8.515449E-09
       370  17  1.187712E+05  8.534083E+04  7.480346E+04  2.950187E+04 -7.441339E-10  6.997560E-09
       370  18  1.476558E+05  1.226343E+05  9.771888E+04  4.538575E+04 -3.936417E-09 -2.763725E-09
       370  19 -3.779564E+05 -9.105689E+04 -5.422835E+04 -9.660598E+04  9.874357E+03 -7.510291E+03
       370  20 -4.039711E+05 -1.143480E+05 -6.007430E+04 -1.174007E+05  9.161469E+03 -8.789006E+03
       370  21 -4.395017E+05 -1.091866E+05 -6.287995E+04 -1.253845E+05  5.415705E+03 -2.047975E+03
       370  22 -1.478208E+05 -6.283427E+03  4.351594E+03 -3.509816E+04  6.798763E+03 -8.674001E+03
       370  23 -1.426330E+05 -1.450598E+04  7.367656E+03 -4.396352E+04  1.113014E+04 -8.043858E+03
       370  24 -1.459632E+05  6.720686E+03  1.742395E+04 -4.001758E+04  1.242934E+04  6.043615E+02
       370  25  8.236776E+04  7.849343E+04  6.292763E+04  2.643039E+04  3.721902E+03 -9.838168E+03
       370  26  1.187714E+05  8.534093E+04  7.480389E+04  2.950179E+04  1.309971E+04 -7.298357E+03
       370  27  1.476562E+05  1.226344E+05  9.771961E+04  4.538580E+04  1.944658E+04  3.258194E+03
       371   1  4.574234E+04  3.983294E+04  1.916528E+04 -9.364868E+03 -5.543583E+04 -5.720851E+03
       371   2  1.859477E+04  1.149167E+05  5.859220E+04  9.801541E+02 -3.999299E+04 -1.717334E+04
       371   3 -3.229809E+04  1.031804E+05  6.627990E+04  3.284320E+04 -2.458581E+04 -1.679022E+04
       371   4 -4.325291E+05 -7.905770E+04 -9.795026E+04  2.054285E+04 -6.710271E+04 -5.757482E+03
       371   5 -4.199439E+05  6.822247E+03 -4.359259E+04  9.658587E+03 -4.372183E+04 -1.718623E+04
       371   6 -4.325032E+05  4.468566E+03 -2.650628E+04  2.029403E+04 -2.037527E+04 -1.677672E+04
       371   7 -9.105897E+05 -1.979617E+05 -2.150815E+05  5.042733E+04 -7.876061E+04 -5.795253E+03
       371   8 -8.583049E+05 -1.012854E+05 -1.457903E+05  1.833071E+04 -4.744804E+04 -1.719923E+04
       371   9 -8.325599E+05 -9.425396E+04 -1.193031E+05  7.752893E+03 -1.616742E+04 -1.676337E+04
       371  10  4.573903E+04  3.983208E+04  1.915944E+04 -9.365123E+03  7.655393E-10  1.064572E-09
       371  11  1.859298E+04  1.149159E+05  5.858864E+04  9.796010E+02 -4.212115E-10  9.390433E-09
       371  12 -3.229882E+04  1.031799E+05  6.627823E+04  3.284287E+04 -3.888992E-09  2.777082E-09
       371  13 -4.325339E+05 -7.905895E+04 -9.795879E+04  2.054253E+04  3.012140E-10 -2.778938E-09
       371  14 -4.199460E+05  6.821416E+03 -4.359674E+04  9.657982E+03  1.579806E-09 -9.459971E-09
       371  15 -4.325037E+05  4.468152E+03 -2.650759E+04  2.029376E+04 -5.219743E-10  2.798075E-09
       371  16 -9.105964E+05 -1.979635E+05 -2.150933E+05  5.042696E+04 -1.637787E-09  3.428602E-11
       371  17 -8.583074E+05 -1.012864E+05 -1.457951E+05  1.833006E+04  2.739693E-09  7.446808E-09
       371  18 -8.325603E+05 -9.425433E+04 -1.193041E+05  7.752674E+03  3.273465E-09 -2.812878E-09
       371  19  4.574234E+04  3.983294E+04  1.916528E+04 -9.364868E+03  5.543583E+04  5.720851E+03
       371  20  1.859477E+04  1.149167E+05  5.859220E+04  9.801541E+02  3.999299E+04  1.717334E+04
       371  21 -3.229809E+04  1.031804E+05  6.627990E+04  3.284320E+04  2.458581E+04  1.679022E+04
       371  22 -4.325291E+05 -7.905770E+04 -9.795026E+04  2.054285E+04  6.710271E+04  5.757482E+03
       371  23 -4.199439E+05  6.822247E+03 -4.359259E+04  9.658587E+03  4.372183E+04  1.718623E+04
       371  24 -4.325032E+05  4.468566E+03 -2.650628E+04  2.029403E+04  2.037527E+04  1.677672E+04
       371  25 -9.105897E+05 -1.979617E+05 -2.150815E+05  5.042733E+04  7.876061E+04  5.795253E+03
       371  26 -8.583049E+05 -1.012854E+05 -1.457903E+05  1.833071E+04  4.744804E+04  1.719923E+04
       371  27 -8.325599E+05 -9.425396E+04 -1.193031E+05  7.752893E+03  1.616742E+04  1.676337E+04
       372   1 -6.691605E+04  8.262127E+04  6.255717E+04  1.927806E+04 -1.699236E+04 -1.422885E+04
       372   2 -1.048504E+05  7.988532E+04  6.342616E+04  9.794468E+03 -1.172349E+04 -1.306209E+04
       372   3 -1.453589E+05  7.009189E+04  5.907425E+04  2.229977E+04 -6.458071E+03 -1.126150E+04
       372   4 -4.275010E+05 -6.294442E+03 -2.141044E+04  2.048738E+04 -1.642686E+04 -1.422757E+04
       372   5 -4.261709E+05  6.729526E+02 -1.123017E+04  9.480776E+03 -1.073512E+04 -1.305909E+04
       372   6 -4.274921E+05  5.070906E+02 -6.566996E+03  2.046390E+04 -5.046512E+03 -1.125666E+04
       372   7 -7.879659E+05 -9.521933E+04 -1.053868E+05  2.169589E+04 -1.586169E+04 -1.422628E+04
       372   8 -7.473960E+05 -7.854670E+04 -8.589345E+04  9.167163E+03 -9.747258E+03 -1.305609E+04
       372   9 -7.095518E+05 -6.908332E+04 -7.221361E+04  1.862880E+04 -3.635590E+03 -1.125183E+04
       372  10 -6.691641E+04  8.262097E+04  6.255625E+04  1.927787E+04  2.397624E-09 -4.139353E-09
       372  11 -1.048506E+05  7.988510E+04  6.342558E+04  9.794345E+03  1.353732E-10  1.758034E-09
       372  12 -1.453590E+05  7.009174E+04  5.907393E+04  2.229972E+04 -1.957697E-09  1.147882E-08
       372  13 -4.275013E+05 -6.294732E+03 -2.141133E+04  2.048719E+04  2.068704E-10  9.327536E-09
       372  14 -4.261710E+05  6.727386E+02 -1.123071E+04  9.480663E+03  1.765706E-10 -2.274105E-08
       372  15 -4.274921E+05  5.069478E+02 -6.567282E+03  2.046386E+04  2.703191E-10  1.419905E-08
       372  16 -7.879662E+05 -9.521962E+04 -1.053877E+05  2.169571E+04 -2.958807E-09 -1.033706E-08
       372  17 -7.473961E+05 -7.854690E+04 -8.589395E+04  9.167060E+03  7.107976E-11 -4.941274E-09
       372  18 -7.095518E+05 -6.908346E+04 -7.221387E+04  1.862877E+04  1.432308E-09  7.062948E-09
       372  19 -6.691605E+04  8.262127E+04  6.255717E+04  1.927806E+04  1.699236E+04  1.422885E+04
       372  20 -1.048504E+05  7.988532E+04  6.342616E+04  9.794468E+03  1.172349E+04  1.306209E+04
       372  21 -1.453589E+05  7.009189E+04  5.907425E+04  2.229977E+04  6.458071E+03  1.126150E+04
       372  22 -4.275010E+05 -6.294442E+03 -2.141044E+04  2.048738E+04  1.642686E+04  1.422757E+04
       372  23 -4.261709E+05  6.729526E+02 -1.123017E+04  9.480776E+03  1.073512E+04  1.305909E+04
       372  24 -4.274921E+05  5.070906E+02 -6.566996E+03  2.046390E+04  5.046512E+03  1.125666E+04
       372  25 -7.879659E+05 -9.521933E+04 -1.053868E+05  2.169589E+04  1.586169E+04  1.422628E+04
       372  26 -7.473960E+05 -7.854670E+04 -8.589345E+04  9.167163E+03  9.747258E+03  1.305609E+04
       372  27 -7.095518E+05 -6.908332E+04 -7.221361E+04  1.862880E+04  3.635590E+03  1.125183E+04
       373   1 -1.847807E+05  5.934347E+04  5.107963E+04  2.112256E+04 -5.246247E+03 -1.009291E+04
       373   2 -2.240447E+05  5.011627E+04  4.424754E+04  1.002842E+04 -3.859653E+03 -8.253694E+03
       373   3 -2.637799E+05  4.046152E+04  3.636468E+04  2.110313E+04 -2.473897E+03 -6.377276E+03
       373   4 -4.270037E+05 -3.533631E+02 -5.089704E+03  2.051209E+04 -4.025551E+03 -1.008862E+04
       373   5 -4.267632E+05  1.366841E+02 -2.846141E+03  9.426395E+03 -2.614493E+03 -8.249125E+03
       373   6 -4.269992E+05  1.950202E+02 -1.670470E+03  2.050999E+04 -1.204185E+03 -6.372415E+03
       373   7 -6.691725E+05 -6.005433E+04 -6.126297E+04  1.990181E+04 -2.805328E+03 -1.008433E+04
       373   8 -6.294437E+05 -4.984580E+04 -4.994259E+04  8.824529E+03 -1.369737E+03 -8.244557E+03
       373   9 -5.901939E+05 -4.007337E+04 -3.970741E+04  1.991699E+04  6.519425E+01 -6.367555E+03
       373  10 -1.847808E+05  5.934335E+04  5.107939E+04  2.112251E+04 -1.574537E-09 -1.336832E-09
       373  11 -2.240447E+05  5.011619E+04  4.424739E+04  1.002840E+04 -3.051010E-09 -4.309492E-09
       373  12 -2.637799E+05  4.046148E+04  3.636459E+04  2.110312E+04 -1.623483E-09 -6.747060E-09
       373  13 -4.270038E+05 -3.534767E+02 -5.089926E+03  2.051206E+04  1.077984E-09  3.821583E-09
       373  14 -4.267632E+05  1.366092E+02 -2.846282E+03  9.426377E+03  1.508204E-09 -6.402554E-09
       373  15 -4.269992E+05  1.949762E+02 -1.670549E+03  2.050998E+04  1.120731E-09 -4.034706E-09
       373  16 -6.691726E+05 -6.005444E+04 -6.126318E+04  1.990178E+04  1.802488E-09 -2.676878E-10
       373  17 -6.294438E+05 -4.984587E+04 -4.994272E+04  8.824520E+03  4.067813E-09  4.047615E-09
       373  18 -5.901939E+05 -4.007341E+04 -3.970749E+04  1.991699E+04  5.454653E-10  1.012362E-08
       373  19 -1.847807E+05  5.934347E+04  5.107963E+04  2.112256E+04  5.246247E+03  1.009291E+04
       373  20 -2.240447E+05  5.011627E+04  4.424754E+04  1.002842E+04  3.859653E+03  8.253694E+03
       373  21 -2.637799E+05  4.046152E+04  3.636468E+04  2.110313E+04  2.473897E+03  6.377276E+03
       373  22 -4.270037E+05 -3.533631E+02 -5.089704E+03  2.051209E+04  4.025551E+03  1.008862E+04
       373  23 -4.267632E+05  1.366841E+02 -2.846141E+03  9.426395E+03  2.614493E+03  8.249125E+03
       373  24 -4.269992E+05  1.950202E+02 -1.670470E+03  2.050999E+04  1.204185E+03  6.372415E+03
       373  25 -6.691725E+05 -6.005433E+04 -6.126297E+04  1.990181E+04  2.805328E+03  1.008433E+04
       373  26 -6.294437E+05 -4.984580E+04 -4.994259E+04  8.824529E+03  1.369737E+03  8.244557E+03
       373  27 -5.901939E+05 -4.007337E+04 -3.970741E+04  1.991699E+04 -6.519425E+01  6.367555E+03
       374   1 -3.038630E+05  3.045381E+04  2.717681E+04  2.091515E+04 -2.202726E+03 -5.278723E+03
       374   2 -3.434048E+05  2.065916E+04  1.857263E+04  9.665340E+03 -1.812259E+03 -3.398564E+03
       374   3 -3.831819E+05  1.098762E+04  9.696866E+03  2.067429E+04 -1.422093E+03 -1.515147E+03
       374   4 -4.269430E+05  1.305680E+02 -1.300380E+03  2.053063E+04 -9.417782E+02 -5.273807E+03
       374   5 -4.268236E+05  9.094413E+01 -8.075291E+02  9.401068E+03 -5.492299E+02 -3.393562E+03
       374   6 -4.269412E+05  1.741634E+02 -5.876791E+02  2.053044E+04 -1.569575E+02 -1.510053E+03
       374   7 -5.500091E+05 -3.019374E+04 -2.977858E+04  2.014618E+04  3.189216E+02 -5.268891E+03
       374   8 -5.102360E+05 -2.047776E+04 -2.018815E+04  9.136826E+03  7.136307E+02 -3.388560E+03
       374   9 -4.706988E+05 -1.063943E+04 -1.087235E+04  2.038660E+04  1.108089E+03 -1.504960E+03
       374  10 -3.038630E+05  3.045378E+04  2.717675E+04  2.091514E+04 -2.868041E-10 -5.785658E-09
       374  11 -3.434048E+05  2.065914E+04  1.857260E+04  9.665335E+03 -3.699047E-09  8.964239E-10
       374  12 -3.831819E+05  1.098761E+04  9.696858E+03  2.067429E+04 -6.330957E-09 -2.145793E-09
       374  13 -4.269430E+05  1.305379E+02 -1.300434E+03  2.053063E+04 -1.079222E-09  6.154562E-10
       374  14 -4.268236E+05  9.093169E+01 -8.075513E+02  9.401067E+03 -2.159507E-10 -5.695799E-09
       374  15 -4.269412E+05  1.741609E+02 -5.876835E+02  2.053044E+04 -2.559945E-10 -2.965534E-09
       374  16 -5.500091E+05 -3.019377E+04 -2.977863E+04  2.014618E+04 -4.517848E-10  6.530928E-09
       374  17 -5.102360E+05 -2.047777E+04 -2.018817E+04  9.136828E+03  4.129391E-09  9.003092E-09
       374  18 -4.706988E+05 -1.063943E+04 -1.087236E+04  2.038660E+04  6.266000E-09  4.972138E-09
       374  19 -3.038630E+05  3.045381E+04  2.717681E+04  2.091515E+04  2.202726E+03  5.278723E+03
       374  20 -3.434048E+05  2.065916E+04  1.857263E+04  9.665340E+03  1.812259E+03  3.398564E+03
       374  21 -3.831819E+05  1.098762E+04  9.696866E+03  2.067429E+04  1.422093E+03  1.515147E+03
       374  22 -4.269430E+05  1.305680E+02 -1.300380E+03  2.053063E+04  9.417782E+02  5.273807E+03
       374  23 -4.268236E+05  9.094413E+01 -8.075291E+02  9.401068E+03  5.492299E+02  3.393562E+03
       374  24 -4.269412E+05  1.741634E+02 -5.876791E+02  2.053044E+04  1.569575E+02  1.510053E+03
       374  25 -5.500091E+05 -3.019374E+04 -2.977858E+04  2.014618E+04 -3.189216E+02  5.268891E+03
       374  26 -5.102360E+05 -2.047776E+04 -2.018815E+04  9.136826E+03 -7.136307E+02  3.388560E+03
       374  27 -4.706988E+05 -1.063943E+04 -1.087235E+04  2.038660E+04 -1.108089E+03  1.504960E+03
       375   1 -4.234094E+05  1.019130E+03  1.524972E+02  2.054287E+04 -1.323985E+03 -4.182297E+02
       375   2 -4.629813E+05 -8.825513E+03 -8.998743E+03  9.282502E+03 -1.033784E+03  1.465756E+03
       375   3 -5.027755E+05 -1.852875E+04 -1.835291E+04  2.029647E+04 -7.434830E+02  3.347546E+03
       375   4 -4.269379E+05  1.726805E+02 -5.494185E+02  2.053387E+04 -5.867960E+01 -4.131206E+02
       375   5 -4.268262E+05  8.973645E+01 -5.984333E+02  9.396789E+03  2.300116E+02  1.470821E+03
       375   6 -4.269387E+05  1.484169E+02 -8.493909E+02  2.053396E+04  5.188212E+02  3.352573E+03
       375   7 -4.304663E+05 -6.737690E+02 -1.251329E+03  2.052486E+04  1.206619E+03 -4.080116E+02
       375   8 -3.906699E+05  9.004895E+03  7.801794E+03  9.511081E+03  1.493880E+03  1.475887E+03
       375   9 -3.510965E+05  1.882518E+04  1.665375E+04  2.077148E+04  1.781279E+03  3.357602E+03
       375  10 -4.234094E+05  1.019129E+03  1.524936E+02  2.054287E+04 -6.332058E-09 -7.531114E-10
       375  11 -4.629813E+05 -8.825516E+03 -8.998749E+03  9.282503E+03 -6.561376E-10 -3.895873E-09
       375  12 -5.027755E+05 -1.852876E+04 -1.835293E+04  2.029647E+04 -1.549154E-09 -4.671513E-09
       375  13 -4.269379E+05  1.726803E+02 -5.494188E+02  2.053387E+04 -3.329264E-10  4.098931E-09
       375  14 -4.268262E+05  8.973412E+01 -5.984375E+02  9.396788E+03 -5.227872E-10 -1.733140E-09
       375  15 -4.269387E+05  1.484048E+02 -8.494125E+02  2.053396E+04  5.131344E-10 -8.115564E-09
       375  16 -4.304663E+05 -6.737696E+02 -1.251332E+03  2.052486E+04  4.594719E-09 -1.283613E-09
       375  17 -3.906699E+05  9.004892E+03  7.801786E+03  9.511079E+03  1.716416E-09 -1.522019E-08
       375  18 -3.510965E+05  1.882517E+04  1.665372E+04  2.077147E+04  1.709068E-09 -9.797253E-09
       375  19 -4.234094E+05  1.019130E+03  1.524972E+02  2.054287E+04  1.323985E+03  4.182297E+02
       375  20 -4.629813E+05 -8.825513E+03 -8.998743E+03  9.282502E+03  1.033784E+03 -1.465756E+03
       375  21 -5.027755E+05 -1.852875E+04 -1.835291E+04  2.029647E+04  7.434830E+02 -3.347546E+03
       375  22 -4.269379E+05  1.726805E+02 -5.494185E+02  2.053387E+04  5.867960E+01  4.131206E+02
       375  23 -4.268262E+05  8.973645E+01 -5.984333E+02  9.396789E+03 -2.300116E+02 -1.470821E+03
       375  24 -4.269387E+05  1.484169E+02 -8.493909E+02  2.053396E+04 -5.188212E+02 -3.352573E+03
       375  25 -4.304663E+05 -6.737690E+02 -1.251329E+03  2.052486E+04 -1.206619E+03  4.080116E+02
       375  26 -3.906699E+05  9.004895E+03  7.801794E+03  9.511081E+03 -1.493880E+03 -1.475887E+03
       375  27 -3.510965E+05  1.882518E+04  1.665375E+04  2.077148E+04 -1.781279E+03 -3.357602E+03
       376   1 -5.429929E+05 -2.844686E+04 -2.813287E+04  2.010560E+04 -5.848161E+02  4.446950E+03
       376   2 -5.823829E+05 -3.825293E+04 -3.790112E+04  8.947522E+03  3.002646E+02  6.325731E+03
       376   3 -6.221369E+05 -4.825483E+04 -4.833985E+04  2.000025E+04  1.185917E+03  8.171341E+03
       376   4 -4.269710E+05  1.875359E+02 -1.057602E+03  2.051934E+04  6.857148E+02  4.451950E+03
       376   5 -4.267923E+05  1.158334E+02 -1.747757E+03  9.414765E+03  1.548691E+03  6.330492E+03
       376   6 -4.269744E+05 -1.475267E+02 -3.092664E+03  2.052065E+04  2.412295E+03  8.175873E+03
       376   7 -3.109366E+05  2.882098E+04  2.601676E+04  2.093315E+04  1.956482E+03  4.456951E+03
       376   8 -2.711793E+05  3.848289E+04  3.440398E+04  9.882104E+03  2.797429E+03  6.335253E+03
       376   9 -2.317768E+05  4.795709E+04  4.215197E+04  2.104118E+04  3.639056E+03  8.180405E+03
       376  10 -5.429929E+05 -2.844688E+04 -2.813291E+04  2.010560E+04 -1.338272E-08 -1.736596E-09
       376  11 -5.823830E+05 -3.825298E+04 -3.790119E+04  8.947520E+03 -6.200456E-09 -7.178078E-09
       376  12 -6.221369E+05 -4.825490E+04 -4.833998E+04  2.000024E+04  9.326985E-10 -2.813263E-09
       376  13 -4.269710E+05  1.875145E+02 -1.057640E+03  2.051934E+04  4.886457E-11 -2.763015E-09
       376  14 -4.267923E+05  1.157897E+02 -1.747836E+03  9.414757E+03 -2.255263E-13  2.223065E-09
       376  15 -4.269745E+05 -1.476000E+02 -3.092801E+03  2.052063E+04 -7.755526E-10 -2.219291E-09
       376  16 -3.109366E+05  2.882096E+04  2.601671E+04  2.093314E+04  1.297356E-08  7.833491E-09
       376  17 -2.711793E+05  3.848285E+04  3.440389E+04  9.882090E+03  7.596952E-09 -5.642680E-09
       376  18 -2.317768E+05  4.795702E+04  4.215182E+04  2.104116E+04 -1.323522E-09  7.181270E-09
       376  19 -5.429929E+05 -2.844686E+04 -2.813287E+04  2.010560E+04  5.848161E+02 -4.446950E+03
       376  20 -5.823829E+05 -3.825293E+04 -3.790112E+04  8.947522E+03 -3.002646E+02 -6.325731E+03
       376  21 -6.221369E+05 -4.825483E+04 -4.833985E+04  2.000025E+04 -1.185917E+03 -8.171341E+03
       376  22 -4.269710E+05  1.875359E+02 -1.057602E+03  2.051934E+04 -6.857148E+02 -4.451950E+03
       376  23 -4.267923E+05  1.158334E+02 -1.747757E+03  9.414765E+03 -1.548691E+03 -6.330492E+03
       376  24 -4.269744E+05 -1.475267E+02 -3.092664E+03  2.052065E+04 -2.412295E+03 -8.175873E+03
       376  25 -3.109366E+05  2.882098E+04  2.601676E+04  2.093315E+04 -1.956482E+03 -4.456951E+03
       376  26 -2.711793E+05  3.848289E+04  3.440398E+04  9.882104E+03 -2.797429E+03 -6.335253E+03
       376  27 -2.317768E+05  4.795709E+04  4.215197E+04  2.104118E+04 -3.639056E+03 -8.180405E+03
       377   1 -6.624328E+05 -5.764769E+04 -5.873026E+04  1.917498E+04  1.630559E+03  9.333357E+03
       377   2 -7.009048E+05 -6.725175E+04 -7.059056E+04  9.028900E+03  5.454785E+03  1.114358E+04
       377   3 -7.411051E+05 -8.116830E+04 -8.605515E+04  2.094841E+04  9.281599E+03  1.237932E+04
       377   4 -4.272678E+05  3.729813E+02 -3.981311E+03  2.048313E+04  3.030047E+03  9.338410E+03
       377   5 -4.264403E+05  4.355411E+02 -6.796664E+03  9.458021E+03  6.469904E+03  1.114695E+04
       377   6 -4.272749E+05 -3.746334E+03 -1.294794E+04  2.049795E+04  9.912588E+03  1.238110E+04
       377   7 -1.920517E+05  5.838975E+04  5.076390E+04  2.179173E+04  4.430062E+03  9.343468E+03
       377   8 -1.519062E+05  6.811751E+04  5.699216E+04  9.887269E+03  7.485468E+03  1.115031E+04
       377   9 -1.133537E+05  7.366867E+04  6.015261E+04  2.004718E+04  1.054389E+04  1.238288E+04
       377  10 -6.624328E+05 -5.764779E+04 -5.873042E+04  1.917497E+04  5.053687E-09 -1.590808E-09
       377  11 -7.009049E+05 -6.725189E+04 -7.059085E+04  9.028851E+03  2.248679E-09  5.182134E-09
       377  12 -7.411052E+05 -8.116849E+04 -8.605560E+04  2.094831E+04  8.902341E-10 -4.087322E-09
       377  13 -4.272679E+05  3.728852E+02 -3.981492E+03  2.048311E+04 -7.491423E-10 -1.054747E-08
       377  14 -4.264404E+05  4.353965E+02 -6.796976E+03  9.457962E+03 -4.615390E-10  1.734409E-09
       377  15 -4.272750E+05 -3.746525E+03 -1.294841E+04  2.049785E+04 -1.310857E-09  3.006613E-09
       377  16 -1.920518E+05  5.838965E+04  5.076370E+04  2.179170E+04 -7.017258E-09 -2.321010E-09
       377  17 -1.519063E+05  6.811736E+04  5.699182E+04  9.887202E+03 -1.791930E-09 -1.715193E-08
       377  18 -1.133538E+05  7.366847E+04  6.015212E+04  2.004708E+04 -1.648314E-09  3.780234E-09
       377  19 -6.624328E+05 -5.764769E+04 -5.873026E+04  1.917498E+04 -1.630559E+03 -9.333357E+03
       377  20 -7.009048E+05 -6.725175E+04 -7.059056E+04  9.028900E+03 -5.454785E+03 -1.114358E+04
       377  21 -7.411051E+05 -8.116830E+04 -8.605515E+04  2.094841E+04 -9.281599E+03 -1.237932E+04
       377  22 -4.272678E+05  3.729813E+02 -3.981311E+03  2.048313E+04 -3.030047E+03 -9.338410E+03
       377  23 -4.264403E+05  4.355411E+02 -6.796664E+03  9.458021E+03 -6.469904E+03 -1.114695E+04
       377  24 -4.272749E+05 -3.746334E+03 -1.294794E+04  2.049795E+04 -9.912588E+03 -1.238110E+04
       377  25 -1.920517E+05  5.838975E+04  5.076390E+04  2.179173E+04 -4.430062E+03 -9.343468E+03
       377  26 -1.519062E+05  6.811751E+04  5.699216E+04  9.887269E+03 -7.485468E+03 -1.115031E+04
       377  27 -1.133537E+05  7.366867E+04  6.015261E+04  2.004718E+04 -1.054389E+04 -1.238288E+04
       378   1 -7.838986E+05 -8.447518E+04 -9.804784E+04  1.243633E+04  8.360896E+03  1.478213E+04
       378   2 -8.147906E+05 -9.257262E+04 -1.177785E+05  1.450965E+04  2.967896E+04  1.533973E+04
       378   3 -8.621783E+05 -1.552107E+05 -1.650520E+05  3.818803E+04  5.102853E+04  5.156642E+03
       378   4 -4.302956E+05  2.759816E+03 -1.602684E+04  2.033882E+04  1.229673E+04  1.479521E+04
       378   5 -4.226870E+05  4.145013E+03 -2.635958E+04  9.616361E+03  2.641214E+04  1.532814E+04
       378   6 -4.303142E+05 -4.774101E+04 -5.921932E+04  2.049934E+04  4.056073E+04  5.122513E+03
       378   7 -7.657689E+04  8.998622E+04  6.598586E+04  2.824575E+04  1.623479E+04  1.480838E+04
       378   8 -3.044132E+04  1.008519E+05  6.504897E+04  4.719843E+03  2.314327E+04  1.531660E+04
       378   9  1.721024E+03  5.971616E+04  4.660027E+04  2.798170E+03  3.008565E+04  5.088994E+03
       378  10 -7.838987E+05 -8.447544E+04 -9.804839E+04  1.243623E+04 -5.339802E-09 -8.295508E-09
       378  11 -8.147916E+05 -9.257311E+04 -1.177806E+05  1.450928E+04  2.509155E-10 -2.116059E-09
       378  12 -8.621811E+05 -1.552114E+05 -1.650569E+05  3.818782E+04  4.384872E-09  7.588083E-09
       378  13 -4.302958E+05  2.759541E+03 -1.602753E+04  2.033867E+04 -5.322033E-10  2.507494E-09
       378  14 -4.226878E+05  4.144574E+03 -2.636134E+04  9.616035E+03 -2.867679E-10  1.116093E-09
       378  15 -4.303159E+05 -4.774148E+04 -5.922247E+04  2.049917E+04 -3.344515E-10  7.855479E-09
       378  16 -7.657723E+04  8.998592E+04  6.598495E+04  2.824555E+04  4.015576E-09  1.195795E-08
       378  17 -3.044196E+04  1.008515E+05  6.504752E+04  4.719558E+03 -1.867366E-10  3.404170E-09
       378  18  1.720045E+03  5.971589E+04  4.659852E+04  2.798047E+03 -4.972276E-09 -3.310312E-09
       378  19 -7.838986E+05 -8.447518E+04 -9.804784E+04  1.243633E+04 -8.360896E+03 -1.478213E+04
       378  20 -8.147906E+05 -9.257262E+04 -1.177785E+05  1.450965E+04 -2.967896E+04 -1.533973E+04
       378  21 -8.621783E+05 -1.552107E+05 -1.650520E+05  3.818803E+04 -5.102853E+04 -5.156642E+03
       378  22 -4.302956E+05  2.759816E+03 -1.602684E+04  2.033882E+04 -1.229673E+04 -1.479521E+04
       378  23 -4.226870E+05  4.145013E+03 -2.635958E+04  9.616361E+03 -2.641214E+04 -1.532814E+04
       378  24 -4.303142E+05 -4.774101E+04 -5.921932E+04  2.049934E+04 -4.056073E+04 -5.122513E+03
       378  25 -7.657689E+04  8.998622E+04  6.598586E+04  2.824575E+04 -1.623479E+04 -1.480838E+04
       378  26 -3.044132E+04  1.008519E+05  6.504897E+04  4.719843E+03 -2.314327E+04 -1.531660E+04
       378  27  1.721024E+03  5.971616E+04  4.660027E+04  2.798170E+03 -3.008565E+04 -5.088994E+03
       379   1 -1.815370E+05 -7.058569E+05 -1.754859E+05  1.773564E+05 -7.253501E+03 -5.304434E+04
       379   2 -1.248654E+05 -5.412197E+05 -1.081537E+05  1.543400E+05 -2.213086E+04 -2.074184E+04
       379   3 -8.242265E+04 -3.840716E+05 -6.540292E+04  1.658107E+05 -2.061421E+04  1.161570E+04
       379   4 -1.697017E+04 -4.151450E+04 -1.762149E+04  1.660975E+05 -7.350503E+03 -1.334886E+04
       379   5 -4.524321E+03 -4.019125E+04 -7.799526E+03  1.488731E+05 -2.215667E+04 -9.343370E+03
       379   6 -1.384151E+03 -4.146172E+04 -2.890315E+03  1.661357E+05 -2.057431E+04 -5.292134E+03
       379   7  1.475662E+05  6.232371E+05  1.402181E+05  1.548266E+05 -7.448898E+03  2.638893E+04
       379   8  1.158015E+05  4.610773E+05  9.254249E+04  1.434017E+05 -2.218268E+04  2.064128E+03
       379   9  7.964787E+04  3.012629E+05  5.961863E+04  1.664610E+05 -2.053443E+04 -2.220905E+04
       379  10 -1.815378E+05 -7.058600E+05 -1.754913E+05  1.773561E+05 -2.384440E-10  3.088418E-09
       379  11 -1.248660E+05 -5.412203E+05 -1.081555E+05  1.543396E+05 -1.469132E-09  6.701098E-09
       379  12 -8.242314E+04 -3.840719E+05 -6.540397E+04  1.658109E+05  8.725189E-10 -1.962246E-10
       379  13 -1.697027E+04 -4.151470E+04 -1.762192E+04  1.660974E+05  2.989406E-10  4.862965E-09
       379  14 -4.524871E+03 -4.019148E+04 -7.800612E+03  1.488729E+05 -1.362776E-09 -1.618481E-09
       379  15 -1.384613E+03 -4.146187E+04 -2.891163E+03  1.661356E+05  2.957414E-10  1.970449E-09
       379  16  1.475659E+05  6.232363E+05  1.402167E+05  1.548268E+05 -2.487272E-10  2.435935E-09
       379  17  1.158009E+05  4.610771E+05  9.254155E+04  1.434017E+05 -4.788352E-10 -6.530810E-09
       379  18  7.964729E+04  3.012623E+05  5.961691E+04  1.664606E+05 -2.165625E-09 -2.364980E-09
       379  19 -1.815370E+05 -7.058569E+05 -1.754859E+05  1.773564E+05  7.253501E+03  5.304434E+04
       379  20 -1.248654E+05 -5.412197E+05 -1.081537E+05  1.543400E+05  2.213086E+04  2.074184E+04
       379  21 -8.242265E+04 -3.840716E+05 -6.540292E+04  1.658107E+05  2.061421E+04 -1.161570E+04
       379  22 -1.697017E+04 -4.151450E+04 -1.762149E+04  1.660975E+05  7.350503E+03  1.334886E+04
       379  23 -4.524321E+03 -4.019125E+04 -7.799526E+03  1.488731E+05  2.215667E+04  9.343370E+03
       379  24 -1.384151E+03 -4.146172E+04 -2.890315E+03  1.661357E+05  2.057431E+04  5.292134E+03
       379  25  1.475662E+05  6.232371E+05  1.402181E+05  1.548266E+05  7.448898E+03 -2.638893E+04
       379  26  1.158015E+05  4.610773E+05  9.254249E+04  1.434017E+05  2.218268E+04 -2.064128E+03
       379  27  7.964787E+04  3.012629E+05  5.961863E+04  1.664610E+05  2.053443E+04  2.220905E+04
       380   1 -5.770093E+04 -2.782095E+05 -4.416221E+04  1.668102E+05 -1.449492E+04  1.031712E+04
       380   2 -1.847456E+04 -1.175872E+05 -1.042286E+04  1.490587E+05 -5.438062E+03  9.591351E+03
       380   3  2.115646E+04  4.348974E+04  2.394877E+04  1.668173E+05  3.944576E+03  8.865701E+03
       380   4 -1.580972E+03 -4.075644E+04 -1.067836E+03  1.663568E+05 -1.445956E+04 -5.045203E+03
       380   5 -5.464578E+02 -4.101631E+04  2.628726E+03  1.486049E+05 -5.401833E+03 -6.335436E+03
       380   6  9.921184E+02 -4.074814E+04  7.350107E+03  1.663627E+05  3.981606E+03 -7.625372E+03
       380   7  5.453595E+04  1.967520E+05  4.202519E+04  1.659033E+05 -1.442418E+04 -2.041324E+04
       380   8  1.738147E+04  3.556091E+04  1.568107E+04  1.481510E+05 -5.365582E+03 -2.226413E+04
       380   9 -1.917250E+04 -1.249786E+05 -9.247884E+03  1.659082E+05  4.018662E+03 -2.411425E+04
       380  10 -5.770119E+04 -2.782097E+05 -4.416281E+04  1.668103E+05  2.410488E-09  1.871093E-10
       380  11 -1.847462E+04 -1.175873E+05 -1.042308E+04  1.490588E+05  2.186526E-09  7.508924E-10
       380  12  2.115642E+04  4.348965E+04  2.394860E+04  1.668173E+05  4.597263E-10 -1.607322E-09
       380  13 -1.581203E+03 -4.075652E+04 -1.068276E+03  1.663568E+05  9.759676E-10  4.407738E-09
       380  14 -5.464999E+02 -4.101636E+04  2.628595E+03  1.486049E+05  2.232285E-09  1.345094E-11
       380  15  9.920858E+02 -4.074821E+04  7.349968E+03  1.663627E+05  2.583697E-09  3.005218E-09
       380  16  5.453561E+04  1.967515E+05  4.202401E+04  1.659030E+05 -1.182322E-09  3.382474E-09
       380  17  1.738131E+04  3.556037E+04  1.568008E+04  1.481509E+05 -1.721382E-09 -4.790275E-09
       380  18 -1.917268E+04 -1.249793E+05 -9.249007E+03  1.659083E+05  3.985310E-11 -1.256590E-09
       380  19 -5.770093E+04 -2.782095E+05 -4.416221E+04  1.668102E+05  1.449492E+04 -1.031712E+04
       380  20 -1.847456E+04 -1.175872E+05 -1.042286E+04  1.490587E+05  5.438062E+03 -9.591351E+03
       380  21  2.115646E+04  4.348974E+04  2.394877E+04  1.668173E+05 -3.944576E+03 -8.865701E+03
       380  22 -1.580972E+03 -4.075644E+04 -1.067836E+03  1.663568E+05  1.445956E+04  5.045203E+03
       380  23 -5.464578E+02 -4.101631E+04  2.628726E+03  1.486049E+05  5.401833E+03  6.335436E+03
       380  24  9.921184E+02 -4.074814E+04  7.350107E+03  1.663627E+05 -3.981606E+03  7.625372E+03
       380  25  5.453595E+04  1.967520E+05  4.202519E+04  1.659033E+05  1.442418E+04  2.041324E+04
       380  26  1.738147E+04  3.556091E+04  1.568107E+04  1.481510E+05  5.365582E+03  2.226413E+04
       380  27 -1.917250E+04 -1.249786E+05 -9.247884E+03  1.659082E+05 -4.018662E+03  2.411425E+04
       381   1  4.557156E+04  1.499258E+05  4.608092E+04  1.638413E+05  1.025039E+04  8.755146E+03
       381   2  9.182148E+04  3.055604E+05  9.113171E+04  1.590186E+05  1.412294E+04 -2.367452E+04
       381   3  1.633324E+05  4.719938E+05  1.636567E+05  1.889963E+05  5.169176E+03 -5.614692E+04
       381   4  5.590929E+02 -3.932982E+04  1.032173E+04  1.661919E+05  1.029052E+04 -8.892750E+03
       381   5  7.969520E+03 -4.281516E+04  1.989245E+04  1.488364E+05  1.411341E+04 -1.914726E+04
       381   6  3.680185E+04 -3.936529E+04  4.154711E+04  1.662795E+05  5.107987E+03 -2.943606E+04
       381   7 -4.445528E+04 -2.285502E+05 -2.543788E+04  1.685417E+05  1.033053E+04 -2.653540E+04
       381   8 -7.588962E+04 -3.910752E+05 -5.135310E+04  1.386600E+05  1.410372E+04 -1.462249E+04
       381   9 -8.974518E+04 -5.504821E+05 -8.057791E+04  1.435816E+05  5.044822E+03 -2.747084E+03
       381  10  4.557143E+04  1.499257E+05  4.608058E+04  1.638413E+05  1.362707E-09  4.295448E-09
       381  11  9.182111E+04  3.055598E+05  9.113029E+04  1.590188E+05  6.462025E-10  5.422658E-09
       381  12  1.633315E+05  4.719904E+05  1.636507E+05  1.889965E+05 -5.119422E-10 -1.703534E-09
       381  13  5.589579E+02 -3.932994E+04  1.032138E+04  1.661919E+05 -3.455714E-10  3.295999E-09
       381  14  7.969207E+03 -4.281561E+04  1.989139E+04  1.488366E+05  1.568329E-09 -1.604459E-09
       381  15  3.680159E+04 -3.936623E+04  4.154543E+04  1.662796E+05  1.333068E-10  4.206280E-09
       381  16 -4.445558E+04 -2.285510E+05 -2.543940E+04  1.685419E+05  5.605679E-10 -1.254340E-09
       381  17 -7.588990E+04 -3.910755E+05 -5.135387E+04  1.386602E+05  2.051575E-09 -5.111137E-09
       381  18 -8.974521E+04 -5.504821E+05 -8.057797E+04  1.435816E+05 -4.314217E-10 -1.660584E-09
       381  19  4.557156E+04  1.499258E+05  4.608092E+04  1.638413E+05 -1.025039E+04 -8.755146E+03
       381  20  9.182148E+04  3.055604E+05  9.113171E+04  1.590186E+05 -1.412294E+04  2.367452E+04
       381  21  1.633324E+05  4.719938E+05  1.636567E+05  1.889963E+05 -5.169176E+03  5.614692E+04
       381  22  5.590929E+02 -3.932982E+04  1.032173E+04  1.661919E+05 -1.029052E+04  8.892750E+03
       381  23  7.969520E+03 -4.281516E+04  1.989245E+04  1.488364E+05 -1.411341E+04  1.914726E+04
       381  24  3.680185E+04 -3.936529E+04  4.154711E+04  1.662795E+05 -5.107987E+03  2.943606E+04
       381  25 -4.445528E+04 -2.285502E+05 -2.543788E+04  1.685417E+05 -1.033053E+04  2.653540E+04
       381  26 -7.588962E+04 -3.910752E+05 -5.135310E+04  1.386600E+05 -1.410372E+04  1.462249E+04
       381  27 -8.974518E+04 -5.504821E+05 -8.057791E+04  1.435816E+05 -5.044822E+03  2.747084E+03
       382   1  8.411918E+05  3.170362E+05  2.052497E+05  2.988892E+05  8.290665E+04  2.666843E+04
       382   2  8.094649E+05  1.928849E+05  1.274876E+05  2.963064E+05  5.406393E+04  6.134387E+03
       382   3  8.078521E+05  1.785920E+05  1.005553E+05  2.812576E+05  2.188624E+04 -5.578096E+03
       382   4  5.304875E+05  1.678483E+05  1.151845E+05  1.813341E+05  7.480058E+04  2.359679E+04
       382   5  5.098315E+05  7.045276E+04  4.876214E+04  2.038469E+05  5.152672E+04  5.172702E+03
       382   6  5.182046E+05  8.184014E+04  2.877588E+04  2.138889E+05  2.491594E+04 -4.430990E+03
       382   7  2.198828E+05  1.868664E+04  2.511130E+04  6.383934E+04  6.669905E+04  2.052789E+04
       382   8  2.102868E+05 -5.196861E+04 -2.997074E+04  1.114297E+05  4.899085E+04  4.211622E+03
       382   9  2.286371E+05 -1.491085E+04 -4.301025E+04  1.465463E+05  2.794410E+04 -3.284316E+03
       382  10  8.411843E+05  3.170336E+05  2.052355E+05  2.988874E+05 -2.957303E-09 -2.313369E-09
       382  11  8.094618E+05  1.928841E+05  1.274821E+05  2.963061E+05 -4.118000E-09 -3.592736E-09
       382  12  8.078516E+05  1.785919E+05  1.005544E+05  2.812577E+05 -2.852517E-09  1.720825E-10
       382  13  5.304814E+05  1.678462E+05  1.151729E+05  1.813327E+05 -2.675548E-10  6.429531E-10
       382  14  5.098286E+05  7.045202E+04  4.875710E+04  2.038467E+05 -2.481764E-09  7.644367E-09
       382  15  5.182039E+05  8.183996E+04  2.877468E+04  2.138890E+05 -2.349950E-09  4.376226E-09
       382  16  2.198779E+05  1.868500E+04  2.510216E+04  6.383823E+04  1.326553E-09  5.791933E-09
       382  17  2.102842E+05 -5.196927E+04 -2.997528E+04  1.114296E+05  1.765963E-10  4.813914E-09
       382  18  2.286363E+05 -1.491107E+04 -4.301174E+04  1.465464E+05 -4.106671E-09 -2.880906E-09
       382  19  8.411918E+05  3.170362E+05  2.052497E+05  2.988892E+05 -8.290665E+04 -2.666843E+04
       382  20  8.094649E+05  1.928849E+05  1.274876E+05  2.963064E+05 -5.406393E+04 -6.134387E+03
       382  21  8.078521E+05  1.785920E+05  1.005553E+05  2.812576E+05 -2.188624E+04  5.578096E+03
       382  22  5.304875E+05  1.678483E+05  1.151845E+05  1.813341E+05 -7.480058E+04 -2.359679E+04
       382  23  5.098315E+05  7.045276E+04  4.876214E+04  2.038469E+05 -5.152672E+04 -5.172702E+03
       382  24  5.182046E+05  8.184014E+04  2.877588E+04  2.138889E+05 -2.491594E+04  4.430990E+03
       382  25  2.198828E+05  1.868664E+04  2.511130E+04  6.383934E+04 -6.669905E+04 -2.052789E+04
       382  26  2.102868E+05 -5.196861E+04 -2.997074E+04  1.114297E+05 -4.899085E+04 -4.211622E+03
       382  27  2.286371E+05 -1.491085E+04 -4.301025E+04  1.465463E+05 -2.794410E+04  3.284316E+03
       383   1  7.655362E+05  1.894997E+05  8.813042E+04  2.791491E+05  1.997846E+04 -4.132045E+03
       383   2  7.440878E+05  1.647947E+05  6.963690E+04  2.666503E+05  1.348772E+04 -5.752195E+03
       383   3  7.154559E+05  1.600823E+05  5.813605E+04  2.648723E+05  6.808000E+03 -6.873883E+03
       383   4  5.145105E+05  9.259560E+04  2.318672E+04  2.074986E+05  2.027846E+04 -4.018863E+03
       383   5  5.176024E+05  7.890870E+04  1.147010E+04  2.035492E+05  1.410403E+04 -5.519009E+03
       383   6  5.134488E+05  8.515382E+04  6.497710E+03  2.103203E+05  7.740343E+03 -6.520743E+03
       383   7  2.635462E+05 -4.303454E+03 -4.176223E+04  1.358746E+05  2.057832E+04 -3.905736E+03
       383   8  2.911673E+05 -6.973590E+03 -4.670079E+04  1.404691E+05  1.472010E+04 -5.285918E+03
       383   9  3.114822E+05  1.022796E+04 -4.514375E+04  1.557843E+05  8.672351E+03 -6.167726E+03
       383  10  7.655357E+05  1.894996E+05  8.812964E+04  2.791491E+05 -6.114565E-10 -3.061286E-11
       383  11  7.440876E+05  1.647947E+05  6.963650E+04  2.666503E+05  3.328195E-09  1.602014E-08
       383  12  7.154559E+05  1.600823E+05  5.813588E+04  2.648724E+05 -7.463640E-10  5.465718E-09
       383  13  5.145100E+05  9.259547E+04  2.318592E+04  2.074987E+05 -2.675748E-09  1.535983E-09
       383  14  5.176021E+05  7.890861E+04  1.146967E+04  2.035493E+05  1.238942E-09  1.880664E-08
       383  15  5.134488E+05  8.515375E+04  6.497517E+03  2.103203E+05 -4.243906E-10  3.312986E-09
       383  16  2.635457E+05 -4.303584E+03 -4.176305E+04  1.358747E+05 -4.022769E-09 -8.051834E-09
       383  17  2.911671E+05 -6.973679E+03 -4.670125E+04  1.404692E+05 -2.514956E-09  1.137826E-08
       383  18  3.114821E+05  1.022790E+04 -4.514396E+04  1.557844E+05  5.381645E-10 -2.226341E-09
       383  19  7.655362E+05  1.894997E+05  8.813042E+04  2.791491E+05 -1.997846E+04  4.132045E+03
       383  20  7.440878E+05  1.647947E+05  6.963690E+04  2.666503E+05 -1.348772E+04  5.752195E+03
       383  21  7.154559E+05  1.600823E+05  5.813605E+04  2.648723E+05 -6.808000E+03  6.873883E+03
       383  22  5.145105E+05  9.259560E+04  2.318672E+04  2.074986E+05 -2.027846E+04  4.018863E+03
       383  23  5.176024E+05  7.890870E+04  1.147010E+04  2.035492E+05 -1.410403E+04  5.519009E+03
       383  24  5.134488E+05  8.515382E+04  6.497710E+03  2.103203E+05 -7.740343E+03  6.520743E+03
       383  25  2.635462E+05 -4.303454E+03 -4.176223E+04  1.358746E+05 -2.057832E+04  3.905736E+03
       383  26  2.911673E+05 -6.973590E+03 -4.670079E+04  1.404691E+05 -1.472010E+04  5.285918E+03
       383  27  3.114822E+05  1.022796E+04 -4.514375E+04  1.557843E+05 -8.672351E+03  6.167726E+03
       384   1  6.866673E+05  1.515169E+05  4.945056E+04  2.577412E+05  5.737644E+03 -6.354456E+03
       384   2  6.666117E+05  1.355949E+05  4.066882E+04  2.445075E+05  3.908067E+03 -5.628995E+03
       384   3  6.358738E+05  1.316091E+05  3.310737E+04  2.437420E+05  2.069032E+03 -4.879553E+03
       384   4  5.130678E+05  8.602821E+04  5.012826E+03  2.097052E+05  6.510797E+03 -6.061558E+03
       384   5  5.183674E+05  7.975299E+04  2.669195E+03  2.035886E+05  4.696728E+03 -5.330098E+03
       384   6  5.129814E+05  8.541122E+04  1.534011E+03  2.099402E+05  2.873142E+03 -4.574674E+03
       384   7  3.394970E+05  2.054133E+04 -3.942755E+04  1.616812E+05  7.283716E+03 -5.768748E+03
       384   8  3.701441E+05  2.391239E+04 -3.533231E+04  1.626784E+05  5.485184E+03 -5.031278E+03
       384   9  3.901036E+05  3.921432E+04 -3.004059E+04  1.761444E+05  3.677078E+03 -4.269861E+03
       384  10  6.866673E+05  1.515168E+05  4.945042E+04  2.577412E+05 -2.488737E-09  1.840974E-09
       384  11  6.666117E+05  1.355949E+05  4.066873E+04  2.445075E+05 -1.400924E-09 -3.680238E-09
       384  12  6.358738E+05  1.316091E+05  3.310731E+04  2.437420E+05  3.153631E-09 -1.189165E-08
       384  13  5.130678E+05  8.602815E+04  5.012677E+03  2.097052E+05 -7.955132E-10  3.213597E-09
       384  14  5.183673E+05  7.975296E+04  2.669100E+03  2.035886E+05  3.974644E-09  9.149281E-09
       384  15  5.129814E+05  8.541119E+04  1.533956E+03  2.099402E+05  1.644669E-09 -9.779144E-09
       384  16  3.394969E+05  2.054128E+04 -3.942771E+04  1.616812E+05  7.784957E-10 -4.502490E-09
       384  17  3.701441E+05  2.391235E+04 -3.533241E+04  1.626784E+05 -9.198985E-10  7.834630E-09
       384  18  3.901036E+05  3.921429E+04 -3.004065E+04  1.761444E+05 -1.000562E-09  6.042620E-09
       384  19  6.866673E+05  1.515169E+05  4.945056E+04  2.577412E+05 -5.737644E+03  6.354456E+03
       384  20  6.666117E+05  1.355949E+05  4.066882E+04  2.445075E+05 -3.908067E+03  5.628995E+03
       384  21  6.358738E+05  1.316091E+05  3.310737E+04  2.437420E+05 -2.069032E+03  4.879553E+03
       384  22  5.130678E+05  8.602821E+04  5.012826E+03  2.097052E+05 -6.510797E+03  6.061558E+03
       384  23  5.183674E+05  7.975299E+04  2.669195E+03  2.035886E+05 -4.696728E+03  5.330098E+03
       384  24  5.129814E+05  8.541122E+04  1.534011E+03  2.099402E+05 -2.873142E+03  4.574674E+03
       384  25  3.394970E+05  2.054133E+04 -3.942755E+04  1.616812E+05 -7.283716E+03  5.768748E+03
       384  26  3.701441E+05  2.391239E+04 -3.533231E+04  1.626784E+05 -5.485184E+03  5.031278E+03
       384  27  3.901036E+05  3.921432E+04 -3.004059E+04  1.761444E+05 -3.677078E+03  4.269861E+03
       385   1  6.085821E+05  1.214718E+05  2.562103E+04  2.362685E+05  1.574651E+03 -4.221367E+03
       385   2  5.888406E+05  1.063822E+05  1.881187E+04  2.230512E+05  7.149769E+02 -3.106410E+03
       385   3  5.581010E+05  1.024474E+05  1.230622E+04  2.223363E+05 -1.445739E+02 -1.992203E+03
       385   4  5.129454E+05  8.546132E+04  1.199321E+03  2.098638E+05  2.368149E+03 -3.920455E+03
       385   5  5.184425E+05  7.986379E+04  7.660308E+02  2.036206E+05  1.508060E+03 -2.805601E+03
       385   6  5.129407E+05  8.542121E+04  6.366580E+02  2.098796E+05  6.480751E+02 -1.691500E+03
       385   7  4.173179E+05  4.945161E+04 -2.322303E+04  1.834630E+05  3.161511E+03 -3.619595E+03
       385   8  4.480492E+05  5.334570E+04 -1.728021E+04  1.841919E+05  2.301046E+03 -2.504830E+03
       385   9  4.677823E+05  6.839507E+04 -1.103312E+04  1.974236E+05  1.440664E+03 -1.390819E+03
       385  10  6.085821E+05  1.214717E+05  2.562099E+04  2.362685E+05 -8.222091E-09 -3.791064E-09
       385  11  5.888406E+05  1.063822E+05  1.881185E+04  2.230512E+05 -5.736611E-09  1.029549E-08
       385  12  5.581010E+05  1.024474E+05  1.230621E+04  2.223363E+05  4.372302E-09  9.660283E-09
       385  13  5.129454E+05  8.546130E+04  1.199282E+03  2.098638E+05  8.178634E-10 -2.238405E-09
       385  14  5.184425E+05  7.986378E+04  7.660118E+02  2.036206E+05 -1.276522E-09  1.191370E-08
       385  15  5.129407E+05  8.542120E+04  6.366519E+02  2.098796E+05  1.720728E-10 -3.821879E-09
       385  16  4.173179E+05  4.945160E+04 -2.322307E+04  1.834630E+05  1.137312E-08 -1.181818E-09
       385  17  4.480491E+05  5.334569E+04 -1.728023E+04  1.841919E+05  2.484266E-09  7.282793E-09
       385  18  4.677823E+05  6.839507E+04 -1.103312E+04  1.974236E+05 -7.397690E-09  9.799220E-09
       385  19  6.085821E+05  1.214718E+05  2.562103E+04  2.362685E+05 -1.574651E+03  4.221367E+03
       385  20  5.888406E+05  1.063822E+05  1.881187E+04  2.230512E+05 -7.149769E+02  3.106410E+03
       385  21  5.581010E+05  1.024474E+05  1.230622E+04  2.223363E+05  1.445739E+02  1.992203E+03
       385  22  5.129454E+05  8.546132E+04  1.199321E+03  2.098638E+05 -2.368149E+03  3.920455E+03
       385  23  5.184425E+05  7.986379E+04  7.660308E+02  2.036206E+05 -1.508060E+03  2.805601E+03
       385  24  5.129407E+05  8.542121E+04  6.366580E+02  2.098796E+05 -6.480751E+02  1.691500E+03
       385  25  4.173179E+05  4.945161E+04 -2.322303E+04  1.834630E+05 -3.161511E+03  3.619595E+03
       385  26  4.480492E+05  5.334570E+04 -1.728021E+04  1.841919E+05 -2.301046E+03  2.504830E+03
       385  27  4.677823E+05  6.839507E+04 -1.103312E+04  1.974236E+05 -1.440664E+03  1.390819E+03
       386   1  5.310590E+05  9.223591E+04  5.207020E+03  2.148948E+05 -5.287662E+02 -1.300266E+03
       386   2  5.113701E+05  7.721944E+04 -9.379546E+02  2.016888E+05 -1.439956E+03 -2.077222E+02
       386   3  4.807173E+05  7.334675E+04 -6.737440E+03  2.009533E+05 -2.350713E+03  8.838647E+02
       386   4  5.129481E+05  8.541447E+04  6.550954E+02  2.098742E+05  2.632165E+02 -9.997968E+02
       386   5  5.184344E+05  7.987067E+04  8.711597E+02  2.036285E+05 -6.486103E+02  9.249689E+01
       386   6  5.129561E+05  8.547063E+04  1.433201E+03  2.098528E+05 -1.560023E+03  1.183829E+03
       386   7  4.948375E+05  7.859305E+04 -3.896851E+03  2.048538E+05  1.055174E+03 -6.993377E+02
       386   8  5.254987E+05  8.252190E+04  2.680269E+03  2.055682E+05  1.427438E+02  3.927191E+02
       386   9  5.451958E+05  9.759454E+04  9.603728E+03  2.187528E+05 -7.692908E+02  1.483809E+03
       386  10  5.310590E+05  9.223591E+04  5.207016E+03  2.148948E+05  1.247577E-08  1.314807E-09
       386  11  5.113701E+05  7.721944E+04 -9.379586E+02  2.016888E+05  5.586681E-09 -2.624004E-10
       386  12  4.807173E+05  7.334674E+04 -6.737452E+03  2.009533E+05 -6.018739E-09 -6.983467E-09
       386  13  5.129481E+05  8.541447E+04  6.550934E+02  2.098742E+05  1.716619E-09 -1.586410E-09
       386  14  5.184344E+05  7.987067E+04  8.711589E+02  2.036285E+05  8.631330E-10 -1.094344E-08
       386  15  5.129561E+05  8.547063E+04  1.433194E+03  2.098528E+05  2.190069E-09 -1.777453E-08
       386  16  4.948375E+05  7.859305E+04 -3.896854E+03  2.048538E+05 -9.035687E-09  2.372210E-09
       386  17  5.254987E+05  8.252190E+04  2.680269E+03  2.055682E+05  4.097411E-09  1.308726E-09
       386  18  5.451958E+05  9.759454E+04  9.603723E+03  2.187528E+05  1.113112E-08 -6.283022E-09
       386  19  5.310590E+05  9.223591E+04  5.207020E+03  2.148948E+05  5.287662E+02  1.300266E+03
       386  20  5.113701E+05  7.721944E+04 -9.379546E+02  2.016888E+05  1.439956E+03  2.077222E+02
       386  21  4.807173E+05  7.334675E+04 -6.737440E+03  2.009533E+05  2.350713E+03 -8.838647E+02
       386  22  5.129481E+05  8.541447E+04  6.550954E+02  2.098742E+05 -2.632165E+02  9.997968E+02
       386  23  5.184344E+05  7.987067E+04  8.711597E+02  2.036285E+05  6.486103E+02 -9.249689E+01
       386  24  5.129561E+05  8.547063E+04  1.433201E+03  2.098528E+05  1.560023E+03 -1.183829E+03
       386  25  4.948375E+05  7.859305E+04 -3.896851E+03  2.048538E+05 -1.055174E+03  6.993377E+02
       386  26  5.254987E+05  8.252190E+04  2.680269E+03  2.055682E+05 -1.427438E+02 -3.927191E+02
       386  27  5.451958E+05  9.759454E+04  9.603728E+03  2.187528E+05  7.692908E+02 -1.483809E+03
       387   1  4.536258E+05  6.314146E+04 -1.343997E+04  1.936832E+05 -2.907481E+03  1.513925E+03
       387   2  4.337880E+05  4.790115E+04 -1.841640E+04  1.802679E+05 -5.012140E+03  2.154783E+03
       387   3  4.034292E+05  4.468972E+04 -2.193031E+04  1.791967E+05 -7.108638E+03  2.774890E+03
       387   4  5.130149E+05  8.539301E+04  1.852284E+03  2.099288E+05 -2.108866E+03  1.816871E+03
       387   5  5.183282E+05  7.975915E+04  3.259048E+03  2.036115E+05 -4.226860E+03  2.452603E+03
       387   6  5.131230E+05  8.615678E+04  6.138915E+03  2.096382E+05 -6.336763E+03  3.067559E+03
       387   7  5.724076E+05  1.076449E+05  1.714431E+04  2.261757E+05 -1.310164E+03  2.119851E+03
       387   8  6.028756E+05  1.116177E+05  2.493396E+04  2.269581E+05 -3.441461E+03  2.750468E+03
       387   9  6.228286E+05  1.276247E+05  3.420716E+04  2.400847E+05 -5.564737E+03  3.360285E+03
       387  10  4.536258E+05  6.314145E+04 -1.343999E+04  1.936832E+05 -9.429316E-09 -1.034813E-08
       387  11  4.337880E+05  4.790114E+04 -1.841646E+04  1.802679E+05  2.582074E-09 -2.239609E-09
       387  12  4.034291E+05  4.468970E+04 -2.193042E+04  1.791967E+05  8.453472E-09 -1.337543E-09
       387  13  5.130149E+05  8.539301E+04  1.852269E+03  2.099288E+05  1.467166E-09 -2.360328E-09
       387  14  5.183282E+05  7.975914E+04  3.259003E+03  2.036115E+05 -3.659693E-09 -4.439412E-09
       387  15  5.131229E+05  8.615676E+04  6.138822E+03  2.096383E+05 -6.833120E-10 -6.732148E-09
       387  16  5.724076E+05  1.076449E+05  1.714430E+04  2.261757E+05  1.263653E-08  1.352000E-09
       387  17  6.028755E+05  1.116177E+05  2.493392E+04  2.269581E+05 -2.831266E-09  3.314040E-09
       387  18  6.228285E+05  1.276247E+05  3.420708E+04  2.400847E+05 -1.177244E-08 -1.330036E-09
       387  19  4.536258E+05  6.314146E+04 -1.343997E+04  1.936832E+05  2.907481E+03 -1.513925E+03
       387  20  4.337880E+05  4.790115E+04 -1.841640E+04  1.802679E+05  5.012140E+03 -2.154783E+03
       387  21  4.034292E+05  4.468972E+04 -2.193031E+04  1.791967E+05  7.108638E+03 -2.774890E+03
       387  22  5.130149E+05  8.539301E+04  1.852284E+03  2.099288E+05  2.108866E+03 -1.816871E+03
       387  23  5.183282E+05  7.975915E+04  3.259048E+03  2.036115E+05  4.226860E+03 -2.452603E+03
       387  24  5.131230E+05  8.615678E+04  6.138915E+03  2.096382E+05  6.336763E+03 -3.067559E+03
       387  25  5.724076E+05  1.076449E+05  1.714431E+04  2.261757E+05  1.310164E+03 -2.119851E+03
       387  26  6.028756E+05  1.116177E+05  2.493396E+04  2.269581E+05  3.441461E+03 -2.750468E+03
       387  27  6.228286E+05  1.276247E+05  3.420716E+04  2.400847E+05  5.564737E+03 -3.360285E+03
       388   1  3.755603E+05  3.446045E+04 -2.724849E+04  1.737204E+05 -8.666950E+03  3.087384E+03
       388   2  3.554420E+05  1.698879E+04 -2.759898E+04  1.581234E+05 -1.610656E+04  1.672610E+03
       388   3  3.290411E+05  2.123568E+04 -1.988600E+04  1.526375E+05 -2.339225E+04 -1.463036E+02
       388   4  5.136066E+05  8.506782E+04  7.961496E+03  2.103744E+05 -7.766658E+03  3.428704E+03
       388   5  5.173762E+05  7.875030E+04  1.406493E+04  2.035869E+05 -1.546268E+04  1.916537E+03
       388   6  5.149122E+05  9.419980E+04  2.843335E+04  2.069099E+05 -2.300512E+04  1.067712E-01
       388   7  6.516709E+05  1.356760E+05  4.316981E+04  2.470356E+05 -6.866149E+03  3.770101E+03
       388   8  6.793359E+05  1.405137E+05  5.572668E+04  2.490612E+05 -1.481861E+04  2.160536E+03
       388   9  7.008178E+05  1.671673E+05  7.674998E+04  2.611975E+05 -2.261786E+04  1.465708E+02
       388  10  3.755602E+05  3.446042E+04 -2.724865E+04  1.737204E+05 -2.602855E-10 -3.689486E-10
       388  11  3.554417E+05  1.698872E+04 -2.759947E+04  1.581234E+05  7.471025E-10  1.215079E-08
       388  12  3.290405E+05  2.123553E+04 -1.988702E+04  1.526375E+05 -3.380239E-09  3.773546E-09
       388  13  5.136065E+05  8.506779E+04  7.961361E+03  2.103745E+05 -2.366277E-09 -5.635329E-09
       388  14  5.173759E+05  7.875024E+04  1.406448E+04  2.035869E+05  2.627200E-09  1.115671E-08
       388  15  5.149117E+05  9.419966E+04  2.843235E+04  2.069099E+05 -4.039446E-10  1.308829E-08
       388  16  6.516708E+05  1.356760E+05  4.316969E+04  2.470356E+05  3.016389E-10  1.033921E-09
       388  17  6.793357E+05  1.405137E+05  5.572626E+04  2.490612E+05  1.663956E-09  5.836518E-09
       388  18  7.008172E+05  1.671671E+05  7.674901E+04  2.611975E+05 -1.232550E-10  8.243415E-09
       388  19  3.755603E+05  3.446045E+04 -2.724849E+04  1.737204E+05  8.666950E+03 -3.087384E+03
       388  20  3.554420E+05  1.698879E+04 -2.759898E+04  1.581234E+05  1.610656E+04 -1.672610E+03
       388  21  3.290411E+05  2.123568E+04 -1.988600E+04  1.526375E+05  2.339225E+04  1.463036E+02
       388  22  5.136066E+05  8.506782E+04  7.961496E+03  2.103744E+05  7.766658E+03 -3.428704E+03
       388  23  5.173762E+05  7.875030E+04  1.406493E+04  2.035869E+05  1.546268E+04 -1.916537E+03
       388  24  5.149122E+05  9.419980E+04  2.843335E+04  2.069099E+05  2.300512E+04 -1.067713E-01
       388  25  6.516709E+05  1.356760E+05  4.316981E+04  2.470356E+05  6.866149E+03 -3.770101E+03
       388  26  6.793359E+05  1.405137E+05  5.572668E+04  2.490612E+05  1.481861E+04 -2.160536E+03
       388  27  7.008178E+05  1.671673E+05  7.674998E+04  2.611975E+05  2.261786E+04 -1.465708E+02
       389   1  2.929490E+05  1.072559E+04 -1.986779E+04  1.675662E+05 -3.103893E+04 -1.136197E+03
       389   2  2.753367E+05 -3.105539E+04 -2.136945E+03  1.277092E+05 -5.918780E+04 -1.115491E+04
       389   3  2.951164E+05  5.698698E+04  6.897515E+04  6.947415E+04 -8.463201E+04 -2.831080E+04
       389   4  5.194388E+05  8.101240E+04  3.528750E+04  2.147454E+05 -2.844347E+04 -1.520902E+02
       389   5  5.078532E+05  6.839377E+04  5.980428E+04  2.039584E+05 -6.109807E+04 -1.188017E+04
       389   6  5.345313E+05  1.864587E+05  1.412575E+05  1.747980E+05 -9.104889E+04 -3.074717E+04
       389   7  7.459793E+05  1.512992E+05  9.043930E+04  2.619384E+05 -2.584696E+04  8.322561E+02
       389   8  7.404216E+05  1.678505E+05  1.217404E+05  2.802345E+05 -6.300911E+04 -1.260582E+04
       389   9  7.740025E+05  3.159528E+05  2.135337E+05  2.801630E+05 -9.746838E+04 -3.318554E+04
       389  10  2.929479E+05  1.072533E+04 -1.986961E+04  1.675661E+05  3.423685E-09  6.448210E-09
       389  11  2.753329E+05 -3.105646E+04 -2.143759E+03  1.277087E+05  4.264416E-09 -7.455212E-11
       389  12  2.951085E+05  5.698420E+04  6.896019E+04  6.947222E+04  1.210889E-09 -1.277739E-09
       389  13  5.194380E+05  8.101218E+04  3.528598E+04  2.147454E+05 -1.607910E-09 -3.382491E-09
       389  14  5.078492E+05  6.839262E+04  5.979701E+04  2.039578E+05  8.582169E-10 -1.876542E-08
       389  15  5.345222E+05  1.864555E+05  1.412402E+05  1.747957E+05 -9.081176E-11 -3.612025E-09
       389  16  7.459786E+05  1.512990E+05  9.043805E+04  2.619385E+05 -9.366037E-09  8.545200E-09
       389  17  7.404173E+05  1.678493E+05  1.217327E+05  2.802339E+05 -5.986582E-09 -1.267379E-08
       389  18  7.739920E+05  3.159491E+05  2.135138E+05  2.801604E+05 -3.167638E-09 -5.651479E-10
       389  19  2.929490E+05  1.072559E+04 -1.986779E+04  1.675662E+05  3.103893E+04  1.136197E+03
       389  20  2.753367E+05 -3.105539E+04 -2.136945E+03  1.277092E+05  5.918780E+04  1.115491E+04
       389  21  2.951164E+05  5.698698E+04  6.897515E+04  6.947415E+04  8.463201E+04  2.831080E+04
       389  22  5.194388E+05  8.101240E+04  3.528750E+04  2.147454E+05  2.844347E+04  1.520902E+02
       389  23  5.078532E+05  6.839377E+04  5.980428E+04  2.039584E+05  6.109807E+04  1.188017E+04
       389  24  5.345313E+05  1.864587E+05  1.412575E+05  1.747980E+05  9.104889E+04  3.074717E+04
       389  25  7.459793E+05  1.512992E+05  9.043930E+04  2.619384E+05  2.584696E+04 -8.322561E+02
       389  26  7.404216E+05  1.678505E+05  1.217404E+05  2.802345E+05  6.300911E+04  1.260582E+04
       389  27  7.740025E+05  3.159528E+05  2.135337E+05  2.801630E+05  9.746838E+04  3.318554E+04
       390   1 -1.559664E+05 -7.978657E+05 -1.573383E+05  9.137379E+04 -5.658358E+03 -2.446433E+04
       390   2 -1.000878E+05 -6.456676E+05 -1.051368E+05  4.524392E+04 -1.566169E+04 -9.359724E+03
       390   3 -6.427031E+04 -4.997598E+05 -6.767957E+04  8.214942E+04 -1.060411E+04  5.789861E+03
       390   4 -1.634645E+04 -2.379148E+05 -1.976110E+04  8.395704E+04 -5.690518E+03 -1.272742E+04
       390   5  1.118872E+03 -2.356227E+05 -9.432350E+03  4.246331E+04 -1.566525E+04 -7.729047E+03
       390   6  2.874563E+02 -2.378819E+05 -6.818013E+03  8.400276E+04 -1.058327E+04 -2.689566E+03
       390   7  1.232505E+05  3.223222E+05  1.177936E+05  7.653377E+04 -5.722944E+03 -9.799212E+02
       390   8  1.023137E+05  1.745773E+05  8.626069E+04  3.968095E+04 -1.566883E+04 -6.097297E+03
       390   9  6.484044E+04  2.405946E+04  5.403920E+04  8.585693E+04 -1.056248E+04 -1.117255E+04
       390  10 -1.559666E+05 -7.978663E+05 -1.573395E+05  9.137367E+04 -9.124534E-10 -2.939819E-09
       390  11 -1.000881E+05 -6.456677E+05 -1.051374E+05  4.524380E+04 -2.212574E-09 -7.632929E-09
       390  12 -6.427044E+04 -4.997599E+05 -6.767985E+04  8.214947E+04  2.006829E-09 -7.818396E-10
       390  13 -1.634653E+04 -2.379150E+05 -1.976147E+04  8.395698E+04 -2.521815E-11 -2.112708E-09
       390  14  1.118593E+03 -2.356228E+05 -9.432924E+03  4.246322E+04 -4.150417E-09  9.876109E-10
       390  15  2.873341E+02 -2.378820E+05 -6.818237E+03  8.400274E+04 -8.835101E-11 -1.460430E-09
       390  16  1.232504E+05  3.223222E+05  1.177936E+05  7.653376E+04 -1.088741E-10 -2.999153E-10
       390  17  1.023134E+05  1.745772E+05  8.626015E+04  3.968087E+04  9.439492E-11  1.136448E-08
       390  18  6.484028E+04  2.405929E+04  5.403876E+04  8.585683E+04 -3.442583E-09  8.399870E-10
       390  19 -1.559664E+05 -7.978657E+05 -1.573383E+05  9.137379E+04  5.658358E+03  2.446433E+04
       390  20 -1.000878E+05 -6.456676E+05 -1.051368E+05  4.524392E+04  1.566169E+04  9.359724E+03
       390  21 -6.427031E+04 -4.997598E+05 -6.767957E+04  8.214942E+04  1.060411E+04 -5.789861E+03
       390  22 -1.634645E+04 -2.379148E+05 -1.976110E+04  8.395704E+04  5.690518E+03  1.272742E+04
       390  23  1.118872E+03 -2.356227E+05 -9.432350E+03  4.246331E+04  1.566525E+04  7.729047E+03
       390  24  2.874563E+02 -2.378819E+05 -6.818013E+03  8.400276E+04  1.058327E+04  2.689566E+03
       390  25  1.232505E+05  3.223222E+05  1.177936E+05  7.653377E+04  5.722944E+03  9.799212E+02
       390  26  1.023137E+05  1.745773E+05  8.626069E+04  3.968095E+04  1.566883E+04  6.097297E+03
       390  27  6.484044E+04  2.405946E+04  5.403920E+04  8.585693E+04  1.056248E+04  1.117255E+04
       391   1 -2.885791E+04 -3.476744E+05 -3.200998E+04  8.509655E+04 -4.504528E+03  2.526638E+03
       391   2  9.607347E+03 -1.981331E+05  3.111652E+03  4.217549E+04  1.544191E+03  5.433629E+03
       391   3  4.379133E+04 -4.948678E+04  3.538211E+04  8.285207E+04  7.495875E+03  8.341464E+03
       391   4 -1.584159E+03 -2.370628E+05 -6.314844E+03  8.411473E+04 -4.494759E+03 -1.574069E+03
       391   5  1.237406E+02 -2.366008E+05 -5.826454E+03  4.231455E+04  1.553968E+03  1.397745E+03
       391   6 -2.459555E+03 -2.370659E+05 -8.233181E+03  8.411259E+04  7.505593E+03  4.369724E+03
       391   7  2.568874E+04 -1.264399E+05  1.937953E+04  8.313275E+04 -4.484978E+03 -5.675503E+03
       391   8 -9.359962E+03 -2.750671E+05 -1.476460E+04  4.245360E+04  1.563743E+03 -2.637891E+03
       391   9 -4.871291E+04 -4.246125E+05 -5.185078E+04  8.537274E+04  7.515296E+03  3.991756E+02
       391  10 -2.885793E+04 -3.476745E+05 -3.201003E+04  8.509655E+04  1.976049E-09 -1.521247E-09
       391  11  9.607337E+03 -1.981331E+05  3.111592E+03  4.217548E+04  1.578904E-10 -3.773797E-09
       391  12  4.379125E+04 -4.948687E+04  3.538187E+04  8.285202E+04 -5.243335E-10 -1.431732E-09
       391  13 -1.584182E+03 -2.370628E+05 -6.314886E+03  8.411473E+04 -1.186083E-10 -8.622974E-09
       391  14  1.237375E+02 -2.366008E+05 -5.826462E+03  4.231455E+04  2.205639E-09 -2.084674E-09
       391  15 -2.459620E+03 -2.370659E+05 -8.233323E+03  8.411256E+04  1.150684E-09 -5.146841E-09
       391  16  2.568871E+04 -1.264399E+05  1.937944E+04  8.313273E+04 -1.594614E-09  1.521098E-09
       391  17 -9.359966E+03 -2.750671E+05 -1.476462E+04  4.245361E+04 -2.766091E-10  3.331167E-09
       391  18 -4.871298E+04 -4.246125E+05 -5.185089E+04  8.537274E+04 -3.120187E-09  4.690096E-09
       391  19 -2.885791E+04 -3.476744E+05 -3.200998E+04  8.509655E+04  4.504528E+03 -2.526638E+03
       391  20  9.607347E+03 -1.981331E+05  3.111652E+03  4.217549E+04 -1.544191E+03 -5.433629E+03
       391  21  4.379133E+04 -4.948678E+04  3.538211E+04  8.285207E+04 -7.495875E+03 -8.341464E+03
       391  22 -1.584159E+03 -2.370628E+05 -6.314844E+03  8.411473E+04  4.494759E+03  1.574069E+03
       391  23  1.237406E+02 -2.366008E+05 -5.826454E+03  4.231455E+04 -1.553968E+03 -1.397745E+03
       391  24 -2.459555E+03 -2.370659E+05 -8.233181E+03  8.411259E+04 -7.505593E+03 -4.369724E+03
       391  25  2.568874E+04 -1.264399E+05  1.937953E+04  8.313275E+04  4.484978E+03  5.675503E+03
       391  26 -9.359962E+03 -2.750671E+05 -1.476460E+04  4.245360E+04 -1.563743E+03  2.637891E+03
       391  27 -4.871291E+04 -4.246125E+05 -5.185078E+04  8.537274E+04 -7.515296E+03 -3.991756E+02
       392   1  8.439582E+04  1.003373E+05  6.909708E+04  8.714917E+04  1.378330E+04  1.481233E+04
       392   2  1.220983E+05  2.522596E+05  9.887213E+04  3.829028E+04  1.865630E+04  1.134478E+04
       392   3  1.323062E+05  3.985234E+05  1.241860E+05  7.234216E+04  6.645836E+03  7.828617E+03
       392   4  8.922951E+02 -2.385801E+05 -9.587432E+03  8.398604E+04  1.380587E+04  5.865583E+03
       392   5  1.953958E+03 -2.347730E+05 -1.471232E+04  4.248888E+04  1.865082E+04  1.374245E+04
       392   6 -2.645873E+04 -2.386199E+05 -3.218114E+04  8.390803E+04  6.606360E+03  2.157125E+04
       392   7 -8.261924E+04 -5.773911E+05 -8.827936E+04  8.082471E+04  1.382852E+04 -3.076316E+03
       392   8 -1.182071E+05 -7.215868E+05 -1.283128E+05  4.668430E+04  1.864537E+04  1.613825E+04
       392   9 -1.852532E+05 -8.753931E+05 -1.885773E+05  9.546226E+04  6.567377E+03  3.529980E+04
       392  10  8.439556E+04  1.003370E+05  6.909631E+04  8.714900E+04  7.595384E-10 -1.770162E-09
       392  11  1.220979E+05  2.522594E+05  9.887124E+04  3.829011E+04  7.949674E-10 -5.871022E-09
       392  12  1.323061E+05  3.985234E+05  1.241858E+05  7.234212E+04 -5.430524E-10  5.395280E-09
       392  13  8.920812E+02 -2.385801E+05 -9.587855E+03  8.398598E+04 -2.276239E-09 -2.207015E-09
       392  14  1.953534E+03 -2.347733E+05 -1.471333E+04  4.248867E+04  3.045096E-09  2.203593E-09
       392  15 -2.645891E+04 -2.386205E+05 -3.218209E+04  8.390792E+04  1.240226E-10 -2.153362E-09
       392  16 -8.261945E+04 -5.773912E+05 -8.827974E+04  8.082475E+04 -1.113706E-09  1.808649E-09
       392  17 -1.182075E+05 -7.215872E+05 -1.283140E+05  4.668406E+04  2.816521E-09  2.946777E-09
       392  18 -1.852536E+05 -8.753945E+05 -1.885798E+05  9.546208E+04  8.260066E-10  4.691049E-09
       392  19  8.439582E+04  1.003373E+05  6.909708E+04  8.714917E+04 -1.378330E+04 -1.481233E+04
       392  20  1.220983E+05  2.522596E+05  9.887213E+04  3.829028E+04 -1.865630E+04 -1.134478E+04
       392  21  1.323062E+05  3.985234E+05  1.241860E+05  7.234216E+04 -6.645836E+03 -7.828617E+03
       392  22  8.922951E+02 -2.385801E+05 -9.587432E+03  8.398604E+04 -1.380587E+04 -5.865583E+03
       392  23  1.953958E+03 -2.347730E+05 -1.471232E+04  4.248888E+04 -1.865082E+04 -1.374245E+04
       392  24 -2.645873E+04 -2.386199E+05 -3.218114E+04  8.390803E+04 -6.606360E+03 -2.157125E+04
       392  25 -8.261924E+04 -5.773911E+05 -8.827936E+04  8.082471E+04 -1.382852E+04  3.076316E+03
       392  26 -1.182071E+05 -7.215868E+05 -1.283128E+05  4.668430E+04 -1.864537E+04 -1.613825E+04
       392  27 -1.852532E+05 -8.753931E+05 -1.885773E+05  9.546226E+04 -6.567377E+03 -3.529980E+04
       393   1  3.483349E+05 -8.841361E+04 -8.127528E+04 -9.506161E+03  7.971474E+03  5.199124E+03
       393   2  3.787068E+05 -1.032033E+05 -8.339170E+04 -6.271580E+03  8.753054E+03  1.597128E+04
       393   3  4.150306E+05 -9.436156E+04 -8.008438E+04 -2.131342E+04  9.545432E+03  1.579715E+04
       393   4  7.931316E+05  2.224093E+04  2.757974E+04 -1.789728E+04  1.890152E+04  5.209637E+03
       393   5  7.895281E+05 -1.964869E+03  1.226297E+04 -8.749008E+03  1.232088E+04  1.597343E+04
       393   6  7.931476E+05 -1.270661E+03  7.474933E+03 -1.787615E+04  5.750960E+03  1.579417E+04
       393   7  1.238109E+06  1.328812E+05  1.364208E+05 -2.629446E+04  2.983937E+04  5.219851E+03
       393   8  1.200505E+06  9.926165E+04  1.079063E+05 -1.122812E+04  1.589104E+04  1.597555E+04
       393   9  1.171397E+06  9.181024E+04  9.502474E+04 -1.443678E+04  1.954195E+03  1.579115E+04
       393  10  3.483348E+05 -8.841366E+04 -8.127545E+04 -9.506194E+03  4.668451E-10  5.541161E-11
       393  11  3.787066E+05 -1.032036E+05 -8.339233E+04 -6.271692E+03  1.157264E-09  4.647090E-11
       393  12  4.150304E+05 -9.436185E+04 -8.008502E+04 -2.131354E+04 -1.059455E-10  1.021576E-10
       393  13  7.931312E+05  2.224080E+04  2.757902E+04 -1.789736E+04  5.794684E-10  4.500451E-11
       393  14  7.895278E+05 -1.965183E+03  1.226221E+04 -8.749166E+03 -8.212183E-12  9.646240E-11
       393  15  7.931475E+05 -1.270938E+03  7.474402E+03 -1.787622E+04  8.954965E-10  1.658189E-10
       393  16  1.238108E+06  1.328809E+05  1.364191E+05 -2.629458E+04  3.985914E-11  8.602125E-11
       393  17  1.200505E+06  9.926131E+04  1.079053E+05 -1.122832E+04 -5.181415E-10  6.586475E-11
       393  18  1.171397E+06  9.180998E+04  9.502427E+04 -1.443680E+04 -3.433620E-10 -7.965859E-11
       393  19  3.483349E+05 -8.841361E+04 -8.127528E+04 -9.506161E+03 -7.971474E+03 -5.199124E+03
       393  20  3.787068E+05 -1.032033E+05 -8.339170E+04 -6.271580E+03 -8.753054E+03 -1.597128E+04
       393  21  4.150306E+05 -9.436156E+04 -8.008438E+04 -2.131342E+04 -9.545432E+03 -1.579715E+04
       393  22  7.931316E+05  2.224093E+04  2.757974E+04 -1.789728E+04 -1.890152E+04 -5.209637E+03
       393  23  7.895281E+05 -1.964869E+03  1.226297E+04 -8.749008E+03 -1.232088E+04 -1.597343E+04
       393  24  7.931476E+05 -1.270661E+03  7.474933E+03 -1.787615E+04 -5.750960E+03 -1.579417E+04
       393  25  1.238109E+06  1.328812E+05  1.364208E+05 -2.629446E+04 -2.983937E+04 -5.219851E+03
       393  26  1.200505E+06  9.926165E+04  1.079063E+05 -1.122812E+04 -1.589104E+04 -1.597555E+04
       393  27  1.171397E+06  9.181024E+04  9.502474E+04 -1.443678E+04 -1.954195E+03 -1.579115E+04
       394   1  4.469650E+05 -8.318532E+04 -7.417277E+04 -1.740720E+04  5.039277E+03  1.353577E+04
       394   2  4.790627E+05 -7.710841E+04 -6.931050E+04 -8.714881E+03  3.815191E+03  1.264501E+04
       394   3  5.118968E+05 -6.905172E+04 -6.313916E+04 -1.821078E+04  2.590588E+03  1.118483E+04
       394   4  7.917248E+05  1.761704E+03  6.038039E+03 -1.786310E+04  4.633962E+03  1.353504E+04
       394   5  7.913273E+05 -2.027494E+02  3.169875E+03 -8.768858E+03  3.026227E+03  1.264426E+04
       394   6  7.917312E+05 -1.213971E+02  1.876461E+03 -1.786225E+04  1.418039E+03  1.118420E+04
       394   7  1.136594E+06  8.670034E+04  8.624084E+04 -1.831926E+04  4.228423E+03  1.353431E+04
       394   8  1.103682E+06  7.669605E+04  7.564371E+04 -8.822870E+03  2.236869E+03  1.264351E+04
       394   9  1.071638E+06  6.880341E+04  6.688682E+04 -1.751357E+04  2.449654E+02  1.118356E+04
       394  10  4.469649E+05 -8.318552E+04 -7.417317E+04 -1.740726E+04  2.667601E-10  1.272257E-10
       394  11  4.790627E+05 -7.710858E+04 -6.931083E+04 -8.714920E+03  5.252561E-10  8.605755E-11
       394  12  5.118968E+05 -6.905186E+04 -6.313941E+04 -1.821080E+04 -6.095168E-11  2.959489E-11
       394  13  7.917247E+05  1.761501E+03  6.037654E+03 -1.786315E+04  3.191932E-10  1.494794E-10
       394  14  7.913272E+05 -2.029236E+02  3.169557E+03 -8.768889E+03 -5.305472E-11  1.524637E-10
       394  15  7.917311E+05 -1.215320E+02  1.876222E+03 -1.786226E+04  4.357318E-10  3.203638E-10
       394  16  1.136594E+06  8.670014E+04  8.624046E+04 -1.831931E+04  1.080975E-10 -2.422096E-11
       394  17  1.103682E+06  7.669587E+04  7.564340E+04 -8.822893E+03 -3.177226E-10 -1.063962E-10
       394  18  1.071638E+06  6.880328E+04  6.688659E+04 -1.751357E+04 -2.003790E-10 -9.365083E-11
       394  19  4.469650E+05 -8.318532E+04 -7.417277E+04 -1.740720E+04 -5.039277E+03 -1.353577E+04
       394  20  4.790627E+05 -7.710841E+04 -6.931050E+04 -8.714881E+03 -3.815191E+03 -1.264501E+04
       394  21  5.118968E+05 -6.905172E+04 -6.313916E+04 -1.821078E+04 -2.590588E+03 -1.118483E+04
       394  22  7.917248E+05  1.761704E+03  6.038039E+03 -1.786310E+04 -4.633962E+03 -1.353504E+04
       394  23  7.913273E+05 -2.027494E+02  3.169875E+03 -8.768858E+03 -3.026227E+03 -1.264426E+04
       394  24  7.917312E+05 -1.213971E+02  1.876461E+03 -1.786225E+04 -1.418039E+03 -1.118420E+04
       394  25  1.136594E+06  8.670034E+04  8.624084E+04 -1.831926E+04 -4.228423E+03 -1.353431E+04
       394  26  1.103682E+06  7.669605E+04  7.564371E+04 -8.822870E+03 -2.236869E+03 -1.264351E+04
       394  27  1.071638E+06  6.880341E+04  6.688682E+04 -1.751357E+04 -2.449654E+02 -1.118356E+04
       395   1  5.443071E+05 -6.076052E+04 -5.583660E+04 -1.781330E+04  2.111877E+03  1.022617E+04
       395   2  5.761467E+05 -5.306885E+04 -4.912681E+04 -8.872399E+03  1.704047E+03  8.744550E+03
       395   3  6.081155E+05 -4.521249E+04 -4.210306E+04 -1.782261E+04  1.295664E+03  7.239793E+03
       395   4  7.915865E+05  1.193038E+02  1.464157E+03 -1.779652E+04  1.123692E+03  1.022571E+04
       395   5  7.915226E+05 -3.045517E+01  8.510135E+02 -8.851151E+03  7.001373E+02  8.744253E+03
       395   6  7.915902E+05 -1.266011E+01  5.628154E+02 -1.779650E+04  2.760495E+02  7.239663E+03
       395   7  1.038922E+06  6.099483E+04  5.876082E+04 -1.777974E+04  1.351166E+02  1.022526E+04
       395   8  1.006941E+06  5.300467E+04  5.082572E+04 -8.829897E+03 -3.041182E+02  8.743956E+03
       395   9  9.750958E+05  4.518480E+04  4.322643E+04 -1.777039E+04 -7.438636E+02  7.239533E+03
       395  10  5.443071E+05 -6.076064E+04 -5.583680E+04 -1.781331E+04  2.810409E-11  1.339370E-10
       395  11  5.761466E+05 -5.306893E+04 -4.912696E+04 -8.872411E+03  1.615140E-10  9.158593E-11
       395  12  6.081155E+05 -4.521255E+04 -4.210317E+04 -1.782261E+04  1.066045E-10  3.621777E-11
       395  13  7.915865E+05  1.191911E+02  1.463958E+03 -1.779653E+04  1.132481E-10  1.605631E-10
       395  14  7.915225E+05 -3.053744E+01  8.508689E+02 -8.851156E+03 -1.077094E-15  4.124440E-11
       395  15  7.915901E+05 -1.271644E+01  5.627167E+02 -1.779651E+04 -4.215105E-11 -3.671690E-11
       395  16  1.038922E+06  6.099472E+04  5.876062E+04 -1.777974E+04  7.167491E-11 -2.783893E-11
       395  17  1.006941E+06  5.300459E+04  5.082558E+04 -8.829895E+03 -3.897192E-11 -7.071057E-11
       395  18  9.750958E+05  4.518474E+04  4.322633E+04 -1.777039E+04 -2.144175E-11 -4.659458E-11
       395  19  5.443071E+05 -6.076052E+04 -5.583660E+04 -1.781330E+04 -2.111877E+03 -1.022617E+04
       395  20  5.761467E+05 -5.306885E+04 -4.912681E+04 -8.872399E+03 -1.704047E+03 -8.744550E+03
       395  21  6.081155E+05 -4.521249E+04 -4.210306E+04 -1.782261E+04 -1.295664E+03 -7.239793E+03
       395  22  7.915865E+05  1.193038E+02  1.464157E+03 -1.779652E+04 -1.123692E+03 -1.022571E+04
       395  23  7.915226E+05 -3.045517E+01  8.510135E+02 -8.851151E+03 -7.001373E+02 -8.744253E+03
       395  24  7.915902E+05 -1.266011E+01  5.628154E+02 -1.779650E+04 -2.760495E+02 -7.239663E+03
       395  25  1.038922E+06  6.099483E+04  5.876082E+04 -1.777974E+04 -1.351166E+02 -1.022526E+04
       395  26  1.006941E+06  5.300467E+04  5.082572E+04 -8.829897E+03  3.041182E+02 -8.743956E+03
       395  27  9.750958E+05  4.518480E+04  4.322643E+04 -1.777039E+04  7.438636E+02 -7.239533E+03
       396   1  6.401880E+05 -3.725502E+04 -3.454778E+04 -1.775061E+04  1.188282E+03  6.361807E+03
       396   2  6.717181E+05 -2.951487E+04 -2.737267E+04 -8.894478E+03  9.722387E+02  4.866056E+03
       396   3  7.032887E+05 -2.175267E+04 -2.005030E+04 -1.773506E+04  7.558809E+02  3.372971E+03
       396   4  7.915722E+05  4.469936E+00  4.850468E+02 -1.775335E+04  1.814870E+02  6.361760E+03
       396   5  7.915538E+05 -5.971114E+00  4.330708E+02 -8.905098E+03 -3.283529E+01  4.866098E+03
       396   6  7.915741E+05  5.284069E+00  5.270626E+02 -1.775335E+04 -2.474610E+02  3.373106E+03
       396   7  9.429776E+05  3.726236E+04  3.551634E+04 -1.775609E+04 -8.255517E+02  6.361713E+03
       396   8  9.114027E+05  2.950192E+04  2.823785E+04 -8.915719E+03 -1.038102E+03  4.866141E+03
       396   9  8.798668E+05  2.176269E+04  2.110390E+04 -1.777164E+04 -1.250944E+03  3.373241E+03
       396  10  6.401880E+05 -3.725507E+04 -3.454786E+04 -1.775061E+04 -1.595662E-10 -3.401938E-11
       396  11  6.717181E+05 -2.951490E+04 -2.737271E+04 -8.894482E+03 -3.921925E-11 -1.183500E-10
       396  12  7.032887E+05 -2.175268E+04 -2.005032E+04 -1.773506E+04  1.680209E-10 -1.408802E-10
       396  13  7.915722E+05  4.426451E+00  4.849706E+02 -1.775335E+04  4.803746E-12 -2.885610E-11
       396  14  7.915538E+05 -5.996550E+00  4.330262E+02 -8.905097E+03 -1.891884E-11  7.128805E-11
       396  15  7.915741E+05  5.271831E+00  5.270411E+02 -1.775335E+04 -1.712491E-10  3.193226E-11
       396  16  9.429776E+05  3.726231E+04  3.551627E+04 -1.775609E+04  1.349434E-10 -6.767418E-11
       396  17  9.114027E+05  2.950190E+04  2.823780E+04 -8.915715E+03 -2.288486E-11 -7.047535E-11
       396  18  8.798668E+05  2.176268E+04  2.110388E+04 -1.777163E+04  3.939999E-11  1.720715E-11
       396  19  6.401880E+05 -3.725502E+04 -3.454778E+04 -1.775061E+04 -1.188282E+03 -6.361807E+03
       396  20  6.717181E+05 -2.951487E+04 -2.737267E+04 -8.894478E+03 -9.722387E+02 -4.866056E+03
       396  21  7.032887E+05 -2.175267E+04 -2.005030E+04 -1.773506E+04 -7.558809E+02 -3.372971E+03
       396  22  7.915722E+05  4.469936E+00  4.850468E+02 -1.775335E+04 -1.814870E+02 -6.361760E+03
       396  23  7.915538E+05 -5.971114E+00  4.330708E+02 -8.905098E+03  3.283529E+01 -4.866098E+03
       396  24  7.915741E+05  5.284069E+00  5.270626E+02 -1.775335E+04  2.474610E+02 -3.373106E+03
       396  25  9.429776E+05  3.726236E+04  3.551634E+04 -1.775609E+04  8.255517E+02 -6.361713E+03
       396  26  9.114027E+05  2.950192E+04  2.823785E+04 -8.915719E+03  1.038102E+03 -4.866141E+03
       396  27  8.798668E+05  2.176269E+04  2.110390E+04 -1.777164E+04  1.250944E+03 -3.373241E+03
       397   1  7.351338E+05 -1.387992E+04 -1.237431E+04 -1.770842E+04  6.493253E+02  2.505528E+03
       397   2  7.664952E+05 -6.177869E+03 -4.817794E+03 -8.902779E+03  1.552515E+02  1.017235E+03
       397   3  7.979328E+05  1.595799E+03  3.076298E+03 -1.770662E+04 -3.389094E+02 -4.691391E+02
       397   4  7.915833E+05  1.260450E+00  6.298823E+02 -1.773400E+04 -3.524236E+02  2.505699E+03
       397   5  7.915459E+05 -9.622506E+00  9.943988E+02 -8.929276E+03 -8.452454E+02  1.017423E+03
       397   6  7.915835E+05  5.095704E+01  1.695672E+03 -1.773399E+04 -1.338130E+03 -4.689306E+02
       397   7  8.480358E+05  1.388222E+04  1.363387E+04 -1.775959E+04 -1.354263E+03  2.505870E+03
       397   8  8.165972E+05  6.158580E+03  6.806553E+03 -8.955773E+03 -1.845782E+03  1.017611E+03
       397   9  7.852342E+05 -1.493887E+03  3.150475E+02 -1.776136E+04 -2.337340E+03 -4.687220E+02
       397  10  7.351338E+05 -1.387993E+04 -1.237432E+04 -1.770843E+04 -3.623106E-11 -1.409550E-11
       397  11  7.664952E+05 -6.177870E+03 -4.817796E+03 -8.902779E+03 -1.774367E-10 -6.971451E-11
       397  12  7.979328E+05  1.595799E+03  3.076298E+03 -1.770662E+04 -7.641118E-12 -8.255851E-11
       397  13  7.915833E+05  1.253672E+00  6.298703E+02 -1.773400E+04 -1.793470E-10  1.951527E-11
       397  14  7.915459E+05 -9.623809E+00  9.943955E+02 -8.929275E+03  6.526562E-11 -1.047816E-10
       397  15  7.915835E+05  5.095632E+01  1.695668E+03 -1.773399E+04 -1.770014E-10  7.559519E-11
       397  16  8.480358E+05  1.388222E+04  1.363385E+04 -1.775958E+04 -7.952218E-11  1.612464E-11
       397  17  8.165972E+05  6.158578E+03  6.806545E+03 -8.955772E+03 -2.370939E-11  7.855669E-11
       397  18  7.852342E+05 -1.493889E+03  3.150368E+02 -1.776136E+04  1.815381E-10  2.190782E-11
       397  19  7.351338E+05 -1.387992E+04 -1.237431E+04 -1.770842E+04 -6.493253E+02 -2.505528E+03
       397  20  7.664952E+05 -6.177869E+03 -4.817794E+03 -8.902779E+03 -1.552515E+02 -1.017235E+03
       397  21  7.979328E+05  1.595799E+03  3.076298E+03 -1.770662E+04  3.389094E+02  4.691391E+02
       397  22  7.915833E+05  1.260450E+00  6.298823E+02 -1.773400E+04  3.524236E+02 -2.505699E+03
       397  23  7.915459E+05 -9.622506E+00  9.943988E+02 -8.929276E+03  8.452454E+02 -1.017423E+03
       397  24  7.915835E+05  5.095704E+01  1.695672E+03 -1.773399E+04  1.338130E+03  4.689306E+02
       397  25  8.480358E+05  1.388222E+04  1.363387E+04 -1.775959E+04  1.354263E+03 -2.505870E+03
       397  26  8.165972E+05  6.158580E+03  6.806553E+03 -8.955773E+03  1.845782E+03 -1.017611E+03
       397  27  7.852342E+05 -1.493887E+03  3.150475E+02 -1.776136E+04  2.337340E+03  4.687220E+02
       398   1  8.297998E+05  9.373832E+03  1.114792E+04 -1.759566E+04 -6.833663E+02 -1.337252E+03
       398   2  8.610238E+05  1.704503E+04  1.994268E+04 -8.899641E+03 -2.589199E+03 -2.823456E+03
       398   3  8.926956E+05  2.552696E+04  3.017857E+04 -1.783923E+04 -4.494927E+03 -4.291514E+03
       398   4  7.916654E+05 -3.406249E+01  2.208070E+03 -1.773987E+04 -1.689370E+03 -1.337053E+03
       398   5  7.914417E+05 -8.735978E+01  3.798681E+03 -8.921946E+03 -3.582815E+03 -2.823314E+03
       398   6  7.916632E+05  6.681954E+02  6.822175E+03 -1.773975E+04 -5.476061E+03 -4.291425E+03
       398   7  7.535323E+05 -9.442060E+03 -6.731880E+03 -1.788407E+04 -2.695313E+03 -1.336854E+03
       398   8  7.218639E+05 -1.722009E+04 -1.234564E+04 -8.944249E+03 -4.576320E+03 -2.823171E+03
       398   9  6.906402E+05 -2.419128E+04 -1.653490E+04 -1.764029E+04 -6.457036E+03 -4.291336E+03
       398  10  8.297998E+05  9.373830E+03  1.114792E+04 -1.759566E+04 -5.911647E-11 -1.170769E-10
       398  11  8.610238E+05  1.704502E+04  1.994265E+04 -8.899646E+03 -2.642526E-10 -4.132328E-11
       398  12  8.926956E+05  2.552693E+04  3.017850E+04 -1.783924E+04  1.227174E-10 -1.000123E-10
       398  13  7.916654E+05 -3.406517E+01  2.208061E+03 -1.773987E+04 -3.704817E-11 -7.325380E-11
       398  14  7.914416E+05 -8.737179E+01  3.798642E+03 -8.921954E+03 -1.642369E-10 -5.729421E-11
       398  15  7.916631E+05  6.681675E+02  6.822084E+03 -1.773977E+04 -2.328807E-10  1.382355E-11
       398  16  7.535323E+05 -9.442063E+03 -6.731897E+03 -1.788407E+04 -3.888410E-11  5.112647E-11
       398  17  7.218639E+05 -1.722010E+04 -1.234569E+04 -8.944259E+03  1.028981E-10 -6.350745E-11
       398  18  6.906401E+05 -2.419131E+04 -1.653501E+04 -1.764031E+04 -1.957610E-10 -1.101106E-10
       398  19  8.297998E+05  9.373832E+03  1.114792E+04 -1.759566E+04  6.833663E+02  1.337252E+03
       398  20  8.610238E+05  1.704503E+04  1.994268E+04 -8.899641E+03  2.589199E+03  2.823456E+03
       398  21  8.926956E+05  2.552696E+04  3.017857E+04 -1.783923E+04  4.494927E+03  4.291514E+03
       398  22  7.916654E+05 -3.406249E+01  2.208070E+03 -1.773987E+04  1.689370E+03  1.337053E+03
       398  23  7.914417E+05 -8.735978E+01  3.798681E+03 -8.921946E+03  3.582815E+03  2.823314E+03
       398  24  7.916632E+05  6.681954E+02  6.822175E+03 -1.773975E+04  5.476061E+03  4.291425E+03
       398  25  7.535323E+05 -9.442060E+03 -6.731880E+03 -1.788407E+04  2.695313E+03  1.336854E+03
       398  26  7.218639E+05 -1.722009E+04 -1.234564E+04 -8.944249E+03  4.576320E+03  2.823171E+03
       398  27  6.906402E+05 -2.419128E+04 -1.653490E+04 -1.764029E+04  6.457036E+03  4.291336E+03
       399   1  9.253051E+05  3.227257E+04  3.974566E+04 -1.636044E+04 -5.749889E+03 -5.209201E+03
       399   2  9.552544E+05  3.970183E+04  5.327174E+04 -9.603449E+03 -1.365101E+04 -6.658915E+03
       399   3  9.887036E+05  5.695381E+04  7.439512E+04 -2.060609E+04 -2.155234E+04 -7.726002E+03
       399   4  7.923306E+05 -4.828637E+02  8.813530E+03 -1.776740E+04 -6.853302E+03 -5.209142E+03
       399   5  7.905989E+05 -8.390993E+02  1.506196E+04 -8.887515E+03 -1.449522E+04 -6.659027E+03
       399   6  7.923220E+05  8.583941E+03  2.872938E+04 -1.776742E+04 -2.213693E+04 -7.726290E+03
       399   7  6.593724E+05 -3.323953E+04 -2.211979E+04 -1.917405E+04 -7.956482E+03 -5.209079E+03
       399   8  6.259684E+05 -4.138194E+04 -2.314965E+04 -8.171772E+03 -1.533920E+04 -6.659142E+03
       399   9  5.959760E+05 -3.978862E+04 -1.693895E+04 -1.492965E+04 -2.272134E+04 -7.726584E+03
       399  10  9.253051E+05  3.227253E+04  3.974555E+04 -1.636047E+04 -5.082114E-11 -7.436141E-11
       399  11  9.552542E+05  3.970174E+04  5.327131E+04 -9.603522E+03  9.077920E-11  4.885123E-11
       399  12  9.887031E+05  5.695362E+04  7.439413E+04 -2.060622E+04 -4.284981E-11 -7.083410E-11
       399  13  7.923306E+05 -4.829054E+02  8.813391E+03 -1.776743E+04 -1.797562E-10 -3.949206E-11
       399  14  7.905986E+05 -8.392033E+02  1.506148E+04 -8.887593E+03  6.924724E-11  9.391551E-12
       399  15  7.923215E+05  8.583745E+03  2.872835E+04 -1.776756E+04  1.330371E-10  1.831687E-10
       399  16  6.593723E+05 -3.323958E+04 -2.211996E+04 -1.917409E+04  1.105547E-10 -1.416757E-10
       399  17  6.259681E+05 -4.138205E+04 -2.315018E+04 -8.171854E+03 -1.303469E-10  1.700091E-11
       399  18  5.959754E+05 -3.978882E+04 -1.694003E+04 -1.492979E+04 -5.057088E-11 -2.423480E-11
       399  19  9.253051E+05  3.227257E+04  3.974566E+04 -1.636044E+04  5.749889E+03  5.209201E+03
       399  20  9.552544E+05  3.970183E+04  5.327174E+04 -9.603449E+03  1.365101E+04  6.658915E+03
       399  21  9.887036E+05  5.695381E+04  7.439512E+04 -2.060609E+04  2.155234E+04  7.726002E+03
       399  22  7.923306E+05 -4.828637E+02  8.813530E+03 -1.776740E+04  6.853302E+03  5.209142E+03
       399  23  7.905989E+05 -8.390993E+02  1.506196E+04 -8.887515E+03  1.449522E+04  6.659027E+03
       399  24  7.923220E+05  8.583941E+03  2.872938E+04 -1.776742E+04  2.213693E+04  7.726290E+03
       399  25  6.593724E+05 -3.323953E+04 -2.211979E+04 -1.917405E+04  7.956482E+03  5.209079E+03
       399  26  6.259684E+05 -4.138194E+04 -2.314965E+04 -8.171772E+03  1.533920E+04  6.659142E+03
       399  27  5.959760E+05 -3.978862E+04 -1.693895E+04 -1.492965E+04  2.272134E+04  7.726584E+03
       400   1  1.027824E+06  5.045222E+04  8.854475E+04 -2.226796E+03 -2.459997E+04 -9.513723E+03
       400   2  1.042739E+06  5.505928E+04  1.191295E+05 -2.185249E+04 -6.086239E+04 -1.010628E+04
       400   3  1.092256E+06  1.790611E+05  2.031550E+05 -5.928217E+04 -9.712908E+04 -3.368360E+03
       400   4  7.990617E+05 -5.851839E+03  3.557412E+04 -1.776858E+04 -2.745478E+04 -9.513619E+03
       400   5  7.821591E+05 -9.128781E+03  5.847069E+04 -8.882895E+03 -5.877522E+04 -1.010739E+04
       400   6  7.990156E+05  1.061563E+05  1.313943E+05 -1.779928E+04 -9.009773E+04 -3.372638E+03
       400   7  5.703481E+05 -6.215867E+04 -1.739985E+04 -3.330460E+04 -3.030854E+04 -9.513371E+03
       400   8  5.216423E+05 -7.332099E+04 -2.192639E+03  4.081225E+03 -5.668891E+04 -1.010841E+04
       400   9  5.058567E+05  3.325158E+04  5.962843E+04  2.366400E+04 -8.306969E+04 -3.375980E+03
       400  10  1.027824E+06  5.045196E+04  8.854344E+04 -2.226984E+03  1.449337E-10  6.237705E-11
       400  11  1.042735E+06  5.505817E+04  1.191224E+05 -2.185299E+04  1.318253E-10  1.698751E-10
       400  12  1.092246E+06  1.790585E+05  2.031373E+05 -5.928243E+04  5.675454E-11  3.989857E-11
       400  13  7.990609E+05 -5.852138E+03  3.557254E+04 -1.776879E+04  9.909474E-12  1.300142E-10
       400  14  7.821554E+05 -9.129817E+03  5.846402E+04 -8.883374E+03 -1.248563E-12  1.201606E-10
       400  15  7.990069E+05  1.061541E+05  1.313790E+05 -1.779952E+04  5.470367E-10  2.270662E-11
       400  16  5.703471E+05 -6.215901E+04 -1.740174E+04 -3.330483E+04  9.884191E-11  1.325067E-10
       400  17  5.216388E+05 -7.332197E+04 -2.198865E+03  4.080764E+03  1.940614E-12  2.307389E-10
       400  18  5.058493E+05  3.324972E+04  5.961545E+04  2.366378E+04 -3.686477E-10  7.048134E-13
       400  19  1.027824E+06  5.045222E+04  8.854475E+04 -2.226796E+03  2.459997E+04  9.513723E+03
       400  20  1.042739E+06  5.505928E+04  1.191295E+05 -2.185249E+04  6.086239E+04  1.010628E+04
       400  21  1.092256E+06  1.790611E+05  2.031550E+05 -5.928217E+04  9.712908E+04  3.368360E+03
       400  22  7.990617E+05 -5.851839E+03  3.557412E+04 -1.776858E+04  2.745478E+04  9.513619E+03
       400  23  7.821591E+05 -9.128781E+03  5.847069E+04 -8.882895E+03  5.877522E+04  1.010739E+04
       400  24  7.990156E+05  1.061563E+05  1.313943E+05 -1.779928E+04  9.009773E+04  3.372638E+03
       400  25  5.703481E+05 -6.215867E+04 -1.739985E+04 -3.330460E+04  3.030854E+04  9.513371E+03
       400  26  5.216423E+05 -7.332099E+04 -2.192639E+03  4.081225E+03  5.668891E+04  1.010841E+04
       400  27  5.058567E+05  3.325158E+04  5.962843E+04  2.366400E+04  8.306969E+04  3.375980E+03
       401   1 -1.919122E+05 -9.218318E+04 -8.856880E+04 -1.587037E+04 -2.848224E+03  4.679334E+03
       401   2 -1.584809E+05 -9.160754E+04 -8.132409E+04 -8.642384E+03  1.431252E+03  1.431902E+04
       401   3 -1.234933E+05 -8.295869E+04 -7.482953E+04 -2.020179E+04  5.713917E+03  1.397291E+04
       401   4  2.113574E+05  8.222740E+03  1.020103E+04 -1.900252E+04  6.984897E+03  4.682230E+03
       401   5  2.100014E+05 -7.412906E+02  4.530687E+03 -9.608176E+03  4.554753E+03  1.431892E+04
       401   6  2.113646E+05 -4.696744E+02  2.768791E+03 -1.900052E+04  2.127679E+03  1.397247E+04
       401   7  6.147754E+05  1.086167E+05  1.089593E+05 -2.213672E+04  1.682439E+04  4.685026E+03
       401   8  5.786088E+05  9.011537E+04  9.037632E+04 -1.057455E+04  7.680094E+03  1.431880E+04
       401   9  5.463261E+05  8.201146E+04  8.035965E+04 -1.779860E+04 -1.460480E+03  1.397202E+04
       401  10 -1.919122E+05 -9.218320E+04 -8.856885E+04 -1.587036E+04  3.506283E-10  3.158578E-11
       401  11 -1.584809E+05 -9.160776E+04 -8.132448E+04 -8.642400E+03  1.291424E-10 -1.247267E-10
       401  12 -1.234933E+05 -8.295890E+04 -7.482996E+04 -2.020185E+04 -5.604289E-11  7.125255E-11
       401  13  2.113573E+05  8.222703E+03  1.020089E+04 -1.900255E+04  1.667649E-10 -1.828749E-11
       401  14  2.100013E+05 -7.415163E+02  4.530263E+03 -9.608228E+03 -2.019322E-10 -1.675841E-10
       401  15  2.113645E+05 -4.698853E+02  2.768416E+03 -1.900055E+04  3.833516E-11 -1.103508E-11
       401  16  6.147750E+05  1.086166E+05  1.089587E+05 -2.213678E+04  4.696950E-11  1.504094E-10
       401  17  5.786087E+05  9.011514E+04  9.037583E+04 -1.057464E+04 -3.861311E-10 -1.991139E-10
       401  18  5.463260E+05  8.201125E+04  8.035928E+04 -1.779858E+04  1.133072E-11 -7.837304E-11
       401  19 -1.919122E+05 -9.218318E+04 -8.856880E+04 -1.587037E+04  2.848224E+03 -4.679334E+03
       401  20 -1.584809E+05 -9.160754E+04 -8.132409E+04 -8.642384E+03 -1.431252E+03 -1.431902E+04
       401  21 -1.234933E+05 -8.295869E+04 -7.482953E+04 -2.020179E+04 -5.713917E+03 -1.397291E+04
       401  22  2.113574E+05  8.222740E+03  1.020103E+04 -1.900252E+04 -6.984897E+03 -4.682230E+03
       401  23  2.100014E+05 -7.412906E+02  4.530687E+03 -9.608176E+03 -4.554753E+03 -1.431892E+04
       401  24  2.113646E+05 -4.696744E+02  2.768791E+03 -1.900052E+04 -2.127679E+03 -1.397247E+04
       401  25  6.147754E+05  1.086167E+05  1.089593E+05 -2.213672E+04 -1.682439E+04 -4.685026E+03
       401  26  5.786088E+05  9.011537E+04  9.037632E+04 -1.057455E+04 -7.680094E+03 -1.431880E+04
       401  27  5.463261E+05  8.201146E+04  8.035965E+04 -1.779860E+04  1.460480E+03 -1.397202E+04
       402   1 -8.944386E+04 -7.337998E+04 -6.766517E+04 -1.881226E+04  2.216709E+03  1.180077E+04
       402   2 -5.563642E+04 -6.570686E+04 -6.067681E+04 -9.446080E+03  1.973118E+03  1.078691E+04
       402   3 -2.158174E+04 -5.732223E+04 -5.334396E+04 -1.910216E+04  1.728780E+03  9.246271E+03
       402   4  2.108339E+05  6.528900E+02  2.237236E+03 -1.905318E+04  1.712991E+03  1.180043E+04
       402   5  2.106827E+05 -7.584386E+01  1.178562E+03 -9.542359E+03  1.115185E+03  1.078677E+04
       402   6  2.108386E+05 -3.180847E+01  7.100858E+02 -1.905329E+04  5.166398E+02  9.246451E+03
       402   7  5.111948E+05  7.467939E+04  7.213356E+04 -1.929421E+04  1.209032E+03  1.180009E+04
       402   8  4.770673E+05  6.555017E+04  6.302916E+04 -9.638675E+03  2.568870E+02  1.078664E+04
       402   9  4.433087E+05  5.725480E+04  5.476049E+04 -1.900439E+04 -6.959512E+02  9.246630E+03
       402  10 -8.944390E+04 -7.338013E+04 -6.766544E+04 -1.881228E+04 -1.122571E-10 -8.924654E-12
       402  11 -5.563646E+04 -6.570698E+04 -6.067703E+04 -9.446098E+03 -3.708027E-10 -4.207699E-11
       402  12 -2.158176E+04 -5.732232E+04 -5.334412E+04 -1.910218E+04 -2.001381E-10  1.630066E-10
       402  13  2.108338E+05  6.527397E+02  2.236969E+03 -1.905319E+04 -3.436082E-10  7.747642E-11
       402  14  2.106827E+05 -7.596915E+01  1.178341E+03 -9.542369E+03 -3.299641E-10 -1.430513E-10
       402  15  2.108385E+05 -3.190036E+01  7.099246E+02 -1.905329E+04 -5.430925E-10  1.458680E-10
       402  16  5.111948E+05  7.467924E+04  7.213329E+04 -1.929422E+04 -9.026141E-11 -5.938864E-11
       402  17  4.770673E+05  6.555004E+04  6.302894E+04 -9.638677E+03  5.245659E-11 -1.530812E-10
       402  18  4.433087E+05  5.725471E+04  5.476033E+04 -1.900438E+04  2.372490E-10  2.842520E-11
       402  19 -8.944386E+04 -7.337998E+04 -6.766517E+04 -1.881226E+04 -2.216709E+03 -1.180077E+04
       402  20 -5.563642E+04 -6.570686E+04 -6.067681E+04 -9.446080E+03 -1.973118E+03 -1.078691E+04
       402  21 -2.158174E+04 -5.732223E+04 -5.334396E+04 -1.910216E+04 -1.728780E+03 -9.246271E+03
       402  22  2.108339E+05  6.528900E+02  2.237236E+03 -1.905318E+04 -1.712991E+03 -1.180043E+04
       402  23  2.106827E+05 -7.584386E+01  1.178562E+03 -9.542359E+03 -1.115185E+03 -1.078677E+04
       402  24  2.108386E+05 -3.180847E+01  7.100858E+02 -1.905329E+04 -5.166398E+02 -9.246451E+03
       402  25  5.111948E+05  7.467939E+04  7.213356E+04 -1.929421E+04 -1.209032E+03 -1.180009E+04
       402  26  4.770673E+05  6.555017E+04  6.302916E+04 -9.638675E+03 -2.568870E+02 -1.078664E+04
       402  27  4.433087E+05  5.725480E+04  5.476049E+04 -1.900439E+04  6.959512E+02 -9.246630E+03
       403   1  1.266635E+04 -4.874505E+04 -4.535382E+04 -1.897641E+04  1.451781E+03  8.246459E+03
       403   2  4.645564E+04 -4.049188E+04 -3.780191E+04 -9.501778E+03  1.295145E+03  6.674000E+03
       403   3  8.028187E+04 -3.216162E+04 -3.012969E+04 -1.899594E+04  1.138049E+03  5.075061E+03
       403   4  2.107827E+05  5.675068E+01  5.614681E+02 -1.904140E+04  4.040142E+02  8.246697E+03
       403   5  2.107646E+05 -4.198833E+00  3.496232E+02 -9.557170E+03  2.295084E+02  6.674376E+03
       403   6  2.107855E+05  1.511161E+01  2.705216E+02 -1.904142E+04  5.455202E+01  5.075583E+03
       403   7  4.089353E+05  4.885579E+04  4.647413E+04 -1.910641E+04 -6.440849E+02  8.246935E+03
       403   8  3.750986E+05  4.048158E+04  3.849935E+04 -9.612574E+03 -8.364079E+02  6.674752E+03
       403   9  3.413049E+05  3.219064E+04  3.066959E+04 -1.908691E+04 -1.029171E+03  5.076104E+03
       403  10  1.266633E+04 -4.874512E+04 -4.535395E+04 -1.897642E+04  3.649219E-11  2.114232E-10
       403  11  4.645563E+04 -4.049193E+04 -3.780200E+04 -9.501785E+03 -5.391741E-10  1.454969E-10
       403  12  8.028186E+04 -3.216165E+04 -3.012974E+04 -1.899594E+04  1.847575E-10 -3.243514E-10
       403  13  2.107827E+05  5.667760E+01  5.613399E+02 -1.904140E+04 -3.308859E-10  1.467365E-10
       403  14  2.107646E+05 -4.246688E+00  3.495394E+02 -9.557171E+03 -5.707335E-11  2.318239E-10
       403  15  2.107855E+05  1.508394E+01  2.704732E+02 -1.904142E+04 -6.002176E-10  4.219060E-10
       403  16  4.089353E+05  4.885572E+04  4.647400E+04 -1.910640E+04 -2.289075E-10  4.174949E-12
       403  17  3.750985E+05  4.048153E+04  3.849926E+04 -9.612569E+03  3.341210E-10 -3.454839E-10
       403  18  3.413049E+05  3.219061E+04  3.066954E+04 -1.908690E+04  3.475278E-10 -1.595272E-10
       403  19  1.266635E+04 -4.874505E+04 -4.535382E+04 -1.897641E+04 -1.451781E+03 -8.246459E+03
       403  20  4.645564E+04 -4.049188E+04 -3.780191E+04 -9.501778E+03 -1.295145E+03 -6.674000E+03
       403  21  8.028187E+04 -3.216162E+04 -3.012969E+04 -1.899594E+04 -1.138049E+03 -5.075061E+03
       403  22  2.107827E+05  5.675068E+01  5.614681E+02 -1.904140E+04 -4.040142E+02 -8.246697E+03
       403  23  2.107646E+05 -4.198833E+00  3.496232E+02 -9.557170E+03 -2.295084E+02 -6.674376E+03
       403  24  2.107855E+05  1.511161E+01  2.705216E+02 -1.904142E+04 -5.455202E+01 -5.075583E+03
       403  25  4.089353E+05  4.885579E+04  4.647413E+04 -1.910641E+04  6.440849E+02 -8.246935E+03
       403  26  3.750986E+05  4.048158E+04  3.849935E+04 -9.612574E+03  8.364079E+02 -6.674752E+03
       403  27  3.413049E+05  3.219064E+04  3.066959E+04 -1.908691E+04  1.029171E+03 -5.076104E+03
       404   1  1.144811E+05 -2.368679E+04 -2.199788E+04 -1.899133E+04  1.080271E+03  4.139709E+03
       404   2  1.482256E+05 -1.540543E+04 -1.422066E+04 -9.534189E+03  9.303550E+02  2.540958E+03
       404   3  1.819730E+05 -7.093715E+03 -6.343974E+03 -1.900986E+04  7.802654E+02  9.413853E+02
       404   4  2.107794E+05  2.126844E+01  2.610278E+02 -1.903346E+04  5.961203E+00  4.140286E+03
       404   5  2.107787E+05  7.401828E+00  3.026202E+02 -9.567112E+03 -1.445400E+02  2.541585E+03
       404   6  2.107805E+05  2.420174E+01  4.442611E+02 -1.903346E+04 -2.952073E+02  9.420650E+02
       404   7  3.070862E+05  2.372867E+04  2.251932E+04 -1.907559E+04 -1.068514E+03  4.140863E+03
       404   8  2.733354E+05  1.541996E+04  1.482564E+04 -9.600037E+03 -1.219543E+03  2.542211E+03
       404   9  2.395887E+05  7.142060E+03  7.232443E+03 -1.905706E+04 -1.370730E+03  9.427447E+02
       404  10  1.144811E+05 -2.368681E+04 -2.199792E+04 -1.899134E+04 -2.061585E-10 -1.156522E-10
       404  11  1.482256E+05 -1.540544E+04 -1.422067E+04 -9.534191E+03 -7.772290E-10  1.791519E-10
       404  12  1.819730E+05 -7.093716E+03 -6.343977E+03 -1.900986E+04  3.780205E-10 -3.441932E-11
       404  13  2.107794E+05  2.125003E+01  2.609956E+02 -1.903346E+04  1.070925E-11 -4.358032E-10
       404  14  2.107787E+05  7.394885E+00  3.026080E+02 -9.567112E+03  2.963968E-10  1.329149E-10
       404  15  2.107804E+05  2.420076E+01  4.442593E+02 -1.903346E+04 -6.329989E-10 -2.447458E-10
       404  16  3.070862E+05  2.372866E+04  2.251929E+04 -1.907559E+04  9.169447E-13  6.105847E-11
       404  17  2.733354E+05  1.541995E+04  1.482562E+04 -9.600035E+03  4.074271E-10 -1.359725E-10
       404  18  2.395887E+05  7.142058E+03  7.232438E+03 -1.905706E+04 -3.717743E-11 -5.193579E-10
       404  19  1.144811E+05 -2.368679E+04 -2.199788E+04 -1.899133E+04 -1.080271E+03 -4.139709E+03
       404  20  1.482256E+05 -1.540543E+04 -1.422066E+04 -9.534189E+03 -9.303550E+02 -2.540958E+03
       404  21  1.819730E+05 -7.093715E+03 -6.343974E+03 -1.900986E+04 -7.802654E+02 -9.413853E+02
       404  22  2.107794E+05  2.126844E+01  2.610278E+02 -1.903346E+04 -5.961203E+00 -4.140286E+03
       404  23  2.107787E+05  7.401827E+00  3.026202E+02 -9.567112E+03  1.445400E+02 -2.541585E+03
       404  24  2.107805E+05  2.420174E+01  4.442611E+02 -1.903346E+04  2.952073E+02 -9.420650E+02
       404  25  3.070862E+05  2.372867E+04  2.251932E+04 -1.907559E+04  1.068514E+03 -4.140863E+03
       404  26  2.733354E+05  1.541996E+04  1.482564E+04 -9.600037E+03  1.219543E+03 -2.542211E+03
       404  27  2.395887E+05  7.142060E+03  7.232443E+03 -1.905706E+04  1.370730E+03 -9.427447E+02
       405   1  2.161581E+05  1.362073E+03  1.907364E+03 -1.901633E+04  6.885104E+02  1.019714E+01
       405   2  2.498712E+05  9.634200E+03  1.001805E+04 -9.562119E+03  2.218005E+02 -1.588911E+03
       405   3  2.836411E+05  1.799186E+04  1.844779E+04 -1.903707E+04 -2.448361E+02 -3.187052E+03
       405   4  2.107923E+05  2.004354E+01  5.615892E+02 -1.903270E+04 -3.868963E+02  1.088300E+01
       405   5  2.107644E+05 -9.340764E-01  9.389774E+02 -9.568066E+03 -8.529626E+02 -1.588260E+03
       405   6  2.107916E+05  6.347037E+01  1.634924E+03 -1.903267E+04 -1.318931E+03 -3.186431E+03
       405   7  2.054266E+05 -1.321988E+03 -7.841839E+02 -1.904907E+04 -1.462294E+03  1.156891E+01
       405   8  1.716590E+05 -9.636175E+03 -8.140197E+03 -9.574012E+03 -1.927659E+03 -1.587608E+03
       405   9  1.379470E+05 -1.786529E+04 -1.517830E+04 -1.902827E+04 -2.392900E+03 -3.185810E+03
       405  10  2.161581E+05  1.362073E+03  1.907363E+03 -1.901633E+04 -3.394350E-10  3.479596E-10
       405  11  2.498712E+05  9.634197E+03  1.001805E+04 -9.562119E+03 -9.189420E-10  8.728240E-10
       405  12  2.836411E+05  1.799185E+04  1.844778E+04 -1.903707E+04  7.992426E-10 -4.840784E-10
       405  13  2.107923E+05  2.004350E+01  5.615889E+02 -1.903270E+04 -4.568653E-10 -4.408792E-12
       405  14  2.107644E+05 -9.369807E-01  9.389713E+02 -9.568067E+03 -1.031413E-11 -3.716107E-10
       405  15  2.107916E+05  6.345900E+01  1.634902E+03 -1.903267E+04 -8.168402E-10  1.175263E-10
       405  16  2.054266E+05 -1.321988E+03 -7.841879E+02 -1.904907E+04 -2.707109E-11 -2.510072E-12
       405  17  1.716590E+05 -9.636179E+03 -8.140208E+03 -9.574015E+03 -4.784347E-11 -2.773515E-10
       405  18  1.379470E+05 -1.786531E+04 -1.517833E+04 -1.902827E+04 -2.498088E-10  1.060438E-11
       405  19  2.161581E+05  1.362073E+03  1.907364E+03 -1.901633E+04 -6.885104E+02 -1.019714E+01
       405  20  2.498712E+05  9.634200E+03  1.001805E+04 -9.562119E+03 -2.218005E+02  1.588911E+03
       405  21  2.836411E+05  1.799186E+04  1.844779E+04 -1.903707E+04  2.448361E+02  3.187052E+03
       405  22  2.107923E+05  2.004354E+01  5.615892E+02 -1.903270E+04  3.868963E+02 -1.088300E+01
       405  23  2.107644E+05 -9.340764E-01  9.389774E+02 -9.568066E+03  8.529626E+02  1.588260E+03
       405  24  2.107916E+05  6.347037E+01  1.634924E+03 -1.903267E+04  1.318931E+03  3.186431E+03
       405  25  2.054266E+05 -1.321988E+03 -7.841839E+02 -1.904907E+04  1.462294E+03 -1.156891E+01
       405  26  1.716590E+05 -9.636175E+03 -8.140197E+03 -9.574012E+03  1.927659E+03  1.587608E+03
       405  27  1.379470E+05 -1.786529E+04 -1.517830E+04 -1.902827E+04  2.392900E+03  3.185810E+03
       406   1  3.179215E+05  2.637411E+04  2.708968E+04 -1.893894E+04 -5.760332E+02 -4.121600E+03
       406   2  3.514989E+05  3.461716E+04  3.639026E+04 -9.582860E+03 -2.434665E+03 -5.718861E+03
       406   3  3.855104E+05  4.366658E+04  4.709934E+04 -1.918378E+04 -4.293014E+03 -7.291117E+03
       406   4  2.108734E+05 -1.903772E+01  2.139091E+03 -1.903902E+04 -1.658714E+03 -4.121022E+03
       406   5  2.106570E+05 -8.154771E+01  3.693659E+03 -9.560214E+03 -3.500183E+03 -5.718409E+03
       406   6  2.108707E+05  6.595551E+02  6.645126E+03 -1.903868E+04 -5.341269E+03 -7.290785E+03
       406   7  1.038359E+05 -2.641300E+04 -2.281227E+04 -1.913908E+04 -2.741209E+03 -4.120443E+03
       406   8  6.983336E+04 -3.478165E+04 -2.900428E+04 -9.537572E+03 -4.565460E+03 -5.717957E+03
       406   9  3.625925E+04 -4.234961E+04 -3.381112E+04 -1.889361E+04 -6.389231E+03 -7.290454E+03
       406  10  3.179215E+05  2.637409E+04  2.708964E+04 -1.893895E+04  2.895587E-11 -6.149143E-10
       406  11  3.514988E+05  3.461712E+04  3.639019E+04 -9.582871E+03 -8.984380E-10  2.433674E-11
       406  12  3.855103E+05  4.366651E+04  4.709920E+04 -1.918381E+04 -1.030550E-10  1.807400E-10
       406  13  2.108734E+05 -1.905669E+01  2.139054E+03 -1.903902E+04 -3.432024E-10  7.991605E-11
       406  14  2.106569E+05 -8.158612E+01  3.693574E+03 -9.560231E+03 -9.675784E-11 -2.408966E-10
       406  15  2.108707E+05  6.594903E+02  6.644972E+03 -1.903871E+04 -4.782552E-10 -1.440591E-10
       406  16  1.038359E+05 -2.641302E+04 -2.281231E+04 -1.913908E+04 -3.483260E-10  1.422021E-10
       406  17  6.983332E+04 -3.478169E+04 -2.900438E+04 -9.537593E+03  2.906652E-10  5.426989E-10
       406  18  3.625919E+04 -4.234968E+04 -3.381130E+04 -1.889364E+04  5.738098E-10  2.005974E-10
       406  19  3.179215E+05  2.637411E+04  2.708968E+04 -1.893894E+04  5.760332E+02  4.121600E+03
       406  20  3.514989E+05  3.461716E+04  3.639026E+04 -9.582860E+03  2.434665E+03  5.718861E+03
       406  21  3.855104E+05  4.366658E+04  4.709934E+04 -1.918378E+04  4.293014E+03  7.291117E+03
       406  22  2.108734E+05 -1.903772E+01  2.139091E+03 -1.903902E+04  1.658714E+03  4.121022E+03
       406  23  2.106570E+05 -8.154771E+01  3.693659E+03 -9.560214E+03  3.500183E+03  5.718409E+03
       406  24  2.108707E+05  6.595551E+02  6.645126E+03 -1.903868E+04  5.341269E+03  7.290785E+03
       406  25  1.038359E+05 -2.641300E+04 -2.281227E+04 -1.913908E+04  2.741209E+03  4.120443E+03
       406  26  6.983336E+04 -3.478165E+04 -2.900428E+04 -9.537572E+03  4.565460E+03  5.717957E+03
       406  27  3.625925E+04 -4.234961E+04 -3.381112E+04 -1.889361E+04  6.389231E+03  7.290454E+03
       407   1  4.204533E+05  5.102400E+04  5.717500E+04 -1.773054E+04 -5.479570E+03 -8.286090E+03
       407   2  4.526401E+05  5.899896E+04  7.105694E+04 -1.029273E+04 -1.326237E+04 -9.826935E+03
       407   3  4.882668E+05  7.658306E+04  9.241041E+04 -2.185776E+04 -2.104482E+04 -1.087201E+04
       407   4  2.115236E+05 -4.629631E+02  8.588094E+03 -1.904977E+04 -6.682620E+03 -8.285786E+03
       407   5  2.098295E+05 -8.209374E+02  1.467867E+04 -9.547096E+03 -1.412947E+04 -9.826967E+03
       407   6  2.115181E+05  8.374356E+03  2.800998E+04 -1.904765E+04 -2.157557E+04 -1.087234E+04
       407   7  2.634284E+03 -5.195300E+04 -4.000175E+04 -2.036855E+04 -7.885268E+03 -8.285477E+03
       407   8 -3.292666E+04 -6.064499E+04 -4.170356E+04 -8.801756E+03 -1.499624E+04 -9.827002E+03
       407   9 -6.516001E+04 -5.983973E+04 -3.639562E+04 -1.623879E+04 -2.210607E+04 -1.087267E+04
       407  10  4.204532E+05  5.102392E+04  5.717482E+04 -1.773057E+04 -1.112449E-10  1.574849E-10
       407  11  4.526399E+05  5.899881E+04  7.105643E+04 -1.029283E+04 -4.727979E-10 -2.262827E-10
       407  12  4.882663E+05  7.658282E+04  9.240936E+04 -2.185794E+04 -3.531862E-10 -1.404812E-11
       407  13  2.115236E+05 -4.630488E+02  8.587881E+03 -1.904982E+04 -3.336685E-10  2.488039E-10
       407  14  2.098293E+05 -8.210947E+02  1.467811E+04 -9.547208E+03 -2.767972E-10  1.626284E-10
       407  15  2.115175E+05  8.374104E+03  2.800888E+04 -1.904784E+04  1.551510E-10  3.032853E-11
       407  16  2.634199E+03 -5.195309E+04 -4.000200E+04 -2.036861E+04 -2.598838E-10  8.460613E-11
       407  17 -3.292693E+04 -6.064515E+04 -4.170416E+04 -8.801874E+03  7.676173E-11 -2.396527E-10
       407  18 -6.516057E+04 -5.983999E+04 -3.639676E+04 -1.623899E+04  5.954722E-10  1.197420E-10
       407  19  4.204533E+05  5.102400E+04  5.717500E+04 -1.773054E+04  5.479570E+03  8.286090E+03
       407  20  4.526401E+05  5.899896E+04  7.105694E+04 -1.029273E+04  1.326237E+04  9.826935E+03
       407  21  4.882668E+05  7.658306E+04  9.241041E+04 -2.185776E+04  2.104482E+04  1.087201E+04
       407  22  2.115236E+05 -4.629631E+02  8.588094E+03 -1.904977E+04  6.682620E+03  8.285786E+03
       407  23  2.098295E+05 -8.209374E+02  1.467867E+04 -9.547096E+03  1.412947E+04  9.826967E+03
       407  24  2.115181E+05  8.374356E+03  2.800998E+04 -1.904765E+04  2.157557E+04  1.087234E+04
       407  25  2.634284E+03 -5.195300E+04 -4.000175E+04 -2.036855E+04  7.885268E+03  8.285477E+03
       407  26 -3.292666E+04 -6.064499E+04 -4.170356E+04 -8.801756E+03  1.499624E+04  9.827002E+03
       407  27 -6.516001E+04 -5.983973E+04 -3.639562E+04 -1.623879E+04  2.210607E+04  1.087267E+04
       408   1  5.293855E+05  7.094521E+04  1.067969E+05 -3.890226E+03 -2.332115E+04 -1.297406E+04
       408   2  5.465281E+05  7.610430E+04  1.373453E+05 -2.227537E+04 -6.019427E+04 -1.339295E+04
       408   3  5.977219E+05  1.979924E+05  2.210845E+05 -5.946311E+04 -9.707202E+04 -4.402614E+03
       408   4  2.180897E+05 -5.706614E+03  3.468563E+04 -1.900087E+04 -2.675887E+04 -1.297358E+04
       408   5  2.015985E+05 -8.917745E+03  5.701088E+04 -9.607697E+03 -5.729152E+04 -1.339452E+04
       408   6  2.180745E+05  1.035320E+05  1.281444E+05 -1.901495E+04 -8.782625E+04 -4.407207E+03
       408   7 -9.311604E+04 -8.236438E+04 -3.743200E+04 -3.410387E+04 -3.019488E+04 -1.297293E+04
       408   8 -1.432211E+05 -9.394759E+04 -2.333149E+04  3.052897E+03 -5.439036E+04 -1.339597E+04
       408   9 -1.614381E+05  9.067129E+03  3.519493E+04  2.140844E+04 -7.858610E+04 -4.410599E+03
       408  10  5.293849E+05  7.094488E+04  1.067956E+05 -3.890470E+03  1.298770E-10  1.006832E-10
       408  11  5.465242E+05  7.610313E+04  1.373382E+05 -2.227602E+04  2.474250E-10  1.211335E-10
       408  12  5.977118E+05  1.979899E+05  2.210668E+05 -5.946345E+04 -3.145359E-10 -3.159005E-11
       408  13  2.180889E+05 -5.706987E+03  3.468397E+04 -1.900114E+04 -2.393418E-10  1.914303E-10
       408  14  2.015949E+05 -8.918818E+03  5.700438E+04 -9.608315E+03  3.680922E-10  1.005742E-10
       408  15  2.180662E+05  1.035299E+05  1.281299E+05 -1.901526E+04  3.828832E-10 -9.677079E-11
       408  16 -9.311707E+04 -8.236481E+04 -3.743403E+04 -3.410419E+04 -7.753316E-11  1.561791E-10
       408  17 -1.432243E+05 -9.394857E+04 -2.333738E+04  3.052311E+03 -4.549574E-12 -1.110722E-10
       408  18 -1.614447E+05  9.065449E+03  3.518329E+04  2.140816E+04 -1.085981E-10 -1.197936E-10
       408  19  5.293855E+05  7.094521E+04  1.067969E+05 -3.890226E+03  2.332115E+04  1.297406E+04
       408  20  5.465281E+05  7.610430E+04  1.373453E+05 -2.227537E+04  6.019427E+04  1.339295E+04
       408  21  5.977219E+05  1.979924E+05  2.210845E+05 -5.946311E+04  9.707202E+04  4.402614E+03
       408  22  2.180897E+05 -5.706614E+03  3.468563E+04 -1.900087E+04  2.675887E+04  1.297358E+04
       408  23  2.015985E+05 -8.917745E+03  5.701088E+04 -9.607697E+03  5.729152E+04  1.339452E+04
       408  24  2.180745E+05  1.035320E+05  1.281444E+05 -1.901495E+04  8.782625E+04  4.407207E+03
       408  25 -9.311604E+04 -8.236438E+04 -3.743200E+04 -3.410387E+04  3.019488E+04  1.297293E+04
       408  26 -1.432211E+05 -9.394759E+04 -2.333149E+04  3.052897E+03  5.439036E+04  1.339597E+04
       408  27 -1.614381E+05  9.067129E+03  3.519493E+04  2.140844E+04  7.858610E+04  4.410599E+03
       409   1 -1.117538E+06 -1.285753E+05 -1.519318E+05 -4.580599E+04 -8.783455E+04  1.278395E+03
       409   2 -1.089995E+06 -1.633264E+04 -7.887519E+04 -1.573467E+04 -5.633786E+04  3.918705E+03
       409   3 -1.094699E+06 -1.663673E+04 -5.448426E+04  8.070494E+03 -2.483994E+04  3.739889E+03
       409   4 -1.004880E+06 -1.004664E+05 -1.242949E+05 -6.554355E+03 -8.512855E+04  1.273529E+03
       409   5 -9.888975E+05  8.633746E+03 -5.528881E+04 -3.433375E+03 -5.552063E+04  3.917724E+03
       409   6 -1.004829E+06  5.522783E+03 -3.362955E+04 -6.579787E+03 -2.591219E+04  3.740256E+03
       409   7 -8.922078E+05 -7.235255E+04 -9.665817E+04  3.270443E+04 -8.242205E+04  1.269007E+03
       409   8 -8.877902E+05  3.359997E+04 -3.170305E+04  8.869938E+03 -5.470327E+04  3.916774E+03
       409   9 -9.149512E+05  2.768254E+04 -1.277526E+04 -2.123221E+04 -2.698460E+04  3.740674E+03
       409  10 -1.117546E+06 -1.285774E+05 -1.519463E+05 -4.580590E+04  2.448117E-10 -9.882168E-11
       409  11 -1.089999E+06 -1.633351E+04 -7.888119E+04 -1.573449E+04  7.111310E-10 -3.508222E-10
       409  12 -1.094700E+06 -1.663692E+04 -5.448545E+04  8.070569E+03 -2.849244E-10  3.920930E-11
       409  13 -1.004888E+06 -1.004683E+05 -1.243086E+05 -6.554267E+03  1.516900E-10 -1.052002E-11
       409  14 -9.889009E+05  8.632900E+03 -5.529465E+04 -3.433200E+03  7.414465E-10 -4.580818E-10
       409  15 -1.004830E+06  5.522587E+03 -3.363084E+04 -6.579709E+03  1.139197E-10 -1.134394E-10
       409  16 -8.922151E+05 -7.235438E+04 -9.667096E+04  3.270451E+04 -1.646115E-10 -1.325338E-10
       409  17 -8.877934E+05  3.359915E+04 -3.170871E+04  8.870111E+03 -1.838957E-10 -1.238826E-10
       409  18 -9.149520E+05  2.768233E+04 -1.277665E+04 -2.123213E+04  2.974301E-10 -4.514313E-11
       409  19 -1.117538E+06 -1.285753E+05 -1.519318E+05 -4.580599E+04  8.783455E+04 -1.278395E+03
       409  20 -1.089995E+06 -1.633264E+04 -7.887519E+04 -1.573467E+04  5.633786E+04 -3.918705E+03
       409  21 -1.094699E+06 -1.663673E+04 -5.448426E+04  8.070494E+03  2.483994E+04 -3.739889E+03
       409  22 -1.004880E+06 -1.004664E+05 -1.242949E+05 -6.554355E+03  8.512855E+04 -1.273529E+03
       409  23 -9.888975E+05  8.633746E+03 -5.528881E+04 -3.433375E+03  5.552063E+04 -3.917724E+03
       409  24 -1.004829E+06  5.522783E+03 -3.362955E+04 -6.579787E+03  2.591219E+04 -3.740256E+03
       409  25 -8.922078E+05 -7.235255E+04 -9.665817E+04  3.270443E+04  8.242205E+04 -1.269007E+03
       409  26 -8.877902E+05  3.359997E+04 -3.170305E+04  8.869938E+03  5.470327E+04 -3.916774E+03
       409  27 -9.149512E+05  2.768254E+04 -1.277526E+04 -2.123221E+04  2.698460E+04 -3.740674E+03
       410   1 -1.076629E+06 -2.743540E+04 -4.537546E+04 -9.324728E+03 -2.068759E+04  3.075888E+03
       410   2 -1.063388E+06 -1.563120E+04 -2.970938E+04 -4.053775E+03 -1.336844E+04  2.696115E+03
       410   3 -1.053417E+06 -1.310760E+04 -2.113339E+04 -5.290319E+03 -6.049241E+03  2.163892E+03
       410   4 -9.984699E+05 -8.141248E+03 -2.715951E+04 -6.625241E+03 -2.089368E+04  3.075741E+03
       410   5 -9.968398E+05  7.891266E+02 -1.423329E+04 -3.372085E+03 -1.367604E+04  2.696043E+03
       410   6 -9.984623E+05  4.572185E+02 -8.325825E+03 -6.626385E+03 -6.458481E+03  2.163855E+03
       410   7 -9.203051E+05  1.115249E+04 -8.943983E+03 -3.925413E+03 -2.109980E+04  3.075592E+03
       410   8 -9.302877E+05  1.720914E+04  1.242509E+03 -2.690322E+03 -1.398367E+04  2.695971E+03
       410   9 -9.435046E+05  1.402183E+04  4.481539E+03 -7.962570E+03 -6.867757E+03  2.163821E+03
       410  10 -1.076630E+06 -2.743552E+04 -4.537628E+04 -9.324676E+03  1.834908E-10  7.788363E-11
       410  11 -1.063388E+06 -1.563126E+04 -2.970973E+04 -4.053746E+03 -1.775326E-10  1.871939E-10
       410  12 -1.053417E+06 -1.310761E+04 -2.113347E+04 -5.290309E+03  6.864791E-11  5.083222E-12
       410  13 -9.984704E+05 -8.141376E+03 -2.716035E+04 -6.625190E+03  1.200306E-10  1.270514E-10
       410  14 -9.968400E+05  7.890685E+02 -1.423365E+04 -3.372055E+03 -6.729048E-11  5.765394E-11
       410  15 -9.984624E+05  4.572022E+02 -8.325912E+03 -6.626374E+03  3.748747E-10 -1.832456E-10
       410  16 -9.203056E+05  1.115236E+04 -8.944838E+03 -3.925360E+03 -2.431008E-12  1.440792E-10
       410  17 -9.302879E+05  1.720908E+04  1.242127E+03 -2.690291E+03  2.673441E-10 -2.592035E-11
       410  18 -9.435046E+05  1.402181E+04  4.481442E+03 -7.962558E+03  5.339183E-11 -4.246434E-11
       410  19 -1.076629E+06 -2.743540E+04 -4.537546E+04 -9.324728E+03  2.068759E+04 -3.075888E+03
       410  20 -1.063388E+06 -1.563120E+04 -2.970938E+04 -4.053775E+03  1.336844E+04 -2.696115E+03
       410  21 -1.053417E+06 -1.310760E+04 -2.113339E+04 -5.290319E+03  6.049241E+03 -2.163892E+03
       410  22 -9.984699E+05 -8.141248E+03 -2.715951E+04 -6.625241E+03  2.089368E+04 -3.075741E+03
       410  23 -9.968398E+05  7.891266E+02 -1.423329E+04 -3.372085E+03  1.367604E+04 -2.696043E+03
       410  24 -9.984623E+05  4.572185E+02 -8.325825E+03 -6.626385E+03  6.458481E+03 -2.163855E+03
       410  25 -9.203051E+05  1.115249E+04 -8.943983E+03 -3.925413E+03  2.109980E+04 -3.075592E+03
       410  26 -9.302877E+05  1.720914E+04  1.242509E+03 -2.690322E+03  1.398367E+04 -2.695971E+03
       410  27 -9.435046E+05  1.402183E+04  4.481539E+03 -7.962570E+03  6.867757E+03 -2.163821E+03
       411   1 -1.040941E+06 -1.126327E+04 -1.643804E+04 -6.732361E+03 -4.795148E+03  1.822808E+03
       411   2 -1.028996E+06 -7.656874E+03 -1.088646E+04 -3.323666E+03 -2.999881E+03  1.275683E+03
       411   3 -1.017475E+06 -4.815456E+03 -6.695992E+03 -6.502963E+03 -1.204578E+03  7.192361E+02
       411   4 -9.978338E+05 -6.337102E+02 -6.446564E+03 -6.643917E+03 -5.159531E+03  1.822771E+03
       411   5 -9.976217E+05  8.405605E+01 -3.592064E+03 -3.349951E+03 -3.370410E+03  1.275655E+03
       411   6 -9.978322E+05  3.791429E+01 -2.094354E+03 -6.643959E+03 -1.581287E+03  7.192172E+02
       411   7 -9.547249E+05  9.995723E+03  3.544790E+03 -6.555467E+03 -5.523940E+03  1.822734E+03
       411   8 -9.662460E+05  7.824917E+03  3.702266E+03 -3.376236E+03 -3.740959E+03  1.275627E+03
       411   9 -9.781887E+05  4.891257E+03  2.507258E+03 -6.784959E+03 -1.958008E+03  7.191985E+02
       411  10 -1.040941E+06 -1.126328E+04 -1.643809E+04 -6.732354E+03 -3.127697E-10  7.692938E-11
       411  11 -1.028996E+06 -7.656879E+03 -1.088648E+04 -3.323663E+03 -2.029174E-11  6.436149E-12
       411  12 -1.017475E+06 -4.815457E+03 -6.695995E+03 -6.502962E+03 -5.396160E-12  4.175276E-11
       411  13 -9.978338E+05 -6.337209E+02 -6.446620E+03 -6.643909E+03  1.344892E-11 -5.260698E-11
       411  14 -9.976217E+05  8.405125E+01 -3.592088E+03 -3.349947E+03 -2.474653E-10 -2.627293E-10
       411  15 -9.978322E+05  3.791306E+01 -2.094359E+03 -6.643958E+03 -2.335855E-11 -9.073304E-11
       411  16 -9.547249E+05  9.995712E+03  3.544726E+03 -6.555459E+03  2.544475E-10 -1.271080E-10
       411  17 -9.662461E+05  7.824912E+03  3.702236E+03 -3.376232E+03  2.560723E-11  2.801541E-11
       411  18 -9.781887E+05  4.891256E+03  2.507250E+03 -6.784958E+03  1.488387E-10 -3.134549E-12
       411  19 -1.040941E+06 -1.126327E+04 -1.643804E+04 -6.732361E+03  4.795148E+03 -1.822808E+03
       411  20 -1.028996E+06 -7.656874E+03 -1.088646E+04 -3.323666E+03  2.999881E+03 -1.275683E+03
       411  21 -1.017475E+06 -4.815456E+03 -6.695992E+03 -6.502963E+03  1.204578E+03 -7.192361E+02
       411  22 -9.978338E+05 -6.337102E+02 -6.446564E+03 -6.643917E+03  5.159531E+03 -1.822771E+03
       411  23 -9.976217E+05  8.405605E+01 -3.592064E+03 -3.349951E+03  3.370410E+03 -1.275655E+03
       411  24 -9.978322E+05  3.791429E+01 -2.094354E+03 -6.643959E+03  1.581287E+03 -7.192172E+02
       411  25 -9.547249E+05  9.995723E+03  3.544790E+03 -6.555467E+03  5.523940E+03 -1.822734E+03
       411  26 -9.662460E+05  7.824917E+03  3.702266E+03 -3.376236E+03  3.740959E+03 -1.275627E+03
       411  27 -9.781887E+05  4.891257E+03  2.507258E+03 -6.784959E+03  1.958008E+03 -7.191985E+02
       412   1 -1.005468E+06 -1.938686E+03 -3.372916E+03 -6.623165E+03 -8.736866E+02  3.931441E+02
       412   2 -9.936600E+05  1.012992E+03 -2.110036E+01 -3.323166E+03 -3.961995E+02 -1.650697E+02
       412   3 -9.819297E+05  3.899603E+03  3.003387E+03 -6.631668E+03  8.130073E+01 -7.234837E+02
       412   4 -9.977555E+05 -4.285314E+01 -1.614692E+03 -6.648505E+03 -1.248302E+03  3.931276E+02
       412   5 -9.977166E+05  1.216056E+01 -9.641621E+02 -3.344254E+03 -7.709459E+02 -1.650876E+02
       412   6 -9.977552E+05  2.141621E+00 -6.408536E+02 -6.648506E+03 -2.935858E+02 -7.235025E+02
       412   7 -9.900431E+05  1.852976E+03  1.435290E+02 -6.673845E+03 -1.622922E+03  3.931112E+02
       412   8 -1.001773E+06 -9.886723E+02 -1.907224E+03 -3.365341E+03 -1.145690E+03 -1.651055E+02
       412   9 -1.013581E+06 -3.895337E+03 -4.285110E+03 -6.665343E+03 -6.684629E+02 -7.235214E+02
       412  10 -1.005468E+06 -1.938686E+03 -3.372918E+03 -6.623165E+03 -7.588307E-12  1.793798E-11
       412  11 -9.936600E+05  1.012992E+03 -2.110071E+01 -3.323166E+03  2.734294E-10 -7.815996E-11
       412  12 -9.819297E+05  3.899603E+03  3.003386E+03 -6.631668E+03 -4.654277E-11  1.026559E-11
       412  13 -9.977555E+05 -4.285372E+01 -1.614695E+03 -6.648505E+03  4.409583E-10 -1.754238E-10
       412  14 -9.977166E+05  1.216037E+01 -9.641633E+02 -3.344254E+03 -1.802983E-10  4.703136E-11
       412  15 -9.977552E+05  2.141036E+00 -6.408548E+02 -6.648506E+03 -3.489642E-10  1.823011E-10
       412  16 -9.900431E+05  1.852975E+03  1.435237E+02 -6.673844E+03 -3.734190E-10  1.828289E-11
       412  17 -1.001773E+06 -9.886727E+02 -1.907227E+03 -3.365341E+03 -1.482673E-10  7.705986E-11
       412  18 -1.013581E+06 -3.895338E+03 -4.285112E+03 -6.665343E+03 -3.724745E-10  3.376153E-10
       412  19 -1.005468E+06 -1.938686E+03 -3.372916E+03 -6.623165E+03  8.736866E+02 -3.931441E+02
       412  20 -9.936600E+05  1.012992E+03 -2.110036E+01 -3.323166E+03  3.961995E+02  1.650697E+02
       412  21 -9.819297E+05  3.899603E+03  3.003387E+03 -6.631668E+03 -8.130073E+01  7.234837E+02
       412  22 -9.977555E+05 -4.285314E+01 -1.614692E+03 -6.648505E+03  1.248302E+03 -3.931276E+02
       412  23 -9.977166E+05  1.216056E+01 -9.641621E+02 -3.344254E+03  7.709459E+02  1.650876E+02
       412  24 -9.977552E+05  2.141621E+00 -6.408536E+02 -6.648506E+03  2.935858E+02  7.235025E+02
       412  25 -9.900431E+05  1.852976E+03  1.435290E+02 -6.673845E+03  1.622922E+03 -3.931112E+02
       412  26 -1.001773E+06 -9.886723E+02 -1.907224E+03 -3.365341E+03  1.145690E+03  1.651055E+02
       412  27 -1.013581E+06 -3.895337E+03 -4.285110E+03 -6.665343E+03  6.684629E+02  7.235214E+02
       413   1 -9.700008E+05  6.851615E+03  5.927019E+03 -6.636165E+03  1.891840E+02 -1.048425E+03
       413   2 -9.582711E+05  9.739733E+03  8.655147E+03 -3.351518E+03  4.437174E+02 -1.605029E+03
       413   3 -9.465791E+05  1.260115E+04  1.121114E+04 -6.643029E+03  6.982883E+02 -2.159324E+03
       413   4 -9.977465E+05 -6.928742E-01 -5.583382E+02 -6.641323E+03 -1.851997E+02 -1.048448E+03
       413   5 -9.977278E+05  5.273176E+00 -5.175437E+02 -3.353231E+03  7.086998E+01 -1.605063E+03
       413   6 -9.977468E+05 -1.567810E+01 -6.499050E+02 -6.641322E+03  3.269725E+02 -2.159370E+03
       413   7 -1.025492E+06 -6.853056E+03 -7.043748E+03 -6.646481E+03 -5.595668E+02 -1.048470E+03
       413   8 -1.037183E+06 -9.729297E+03 -9.690339E+03 -3.354944E+03 -3.019539E+02 -1.605097E+03
       413   9 -1.048912E+06 -1.263269E+04 -1.251113E+04 -6.639616E+03 -4.431295E+01 -2.159415E+03
       413  10 -9.700008E+05  6.851614E+03  5.927017E+03 -6.636165E+03  2.665523E-11  9.284613E-11
       413  11 -9.582711E+05  9.739730E+03  8.655142E+03 -3.351518E+03 -1.384269E-10 -8.472613E-11
       413  12 -9.465791E+05  1.260114E+04  1.121113E+04 -6.643028E+03 -4.753559E-13 -1.707127E-10
       413  13 -9.977465E+05 -6.940633E-01 -5.583403E+02 -6.641323E+03  2.441964E-10  1.362618E-11
       413  14 -9.977278E+05  5.270409E+00 -5.175486E+02 -3.353231E+03  3.269919E-10 -5.805685E-11
       413  15 -9.977468E+05 -1.568313E+01 -6.499139E+02 -6.641322E+03 -4.324227E-10 -1.469176E-11
       413  16 -1.025492E+06 -6.853057E+03 -7.043750E+03 -6.646481E+03 -1.327158E-10  4.942976E-11
       413  17 -1.037183E+06 -9.729299E+03 -9.690344E+03 -3.354944E+03  2.846509E-10 -1.484161E-10
       413  18 -1.048912E+06 -1.263269E+04 -1.251114E+04 -6.639616E+03 -1.695243E-10  2.055248E-10
       413  19 -9.700008E+05  6.851615E+03  5.927019E+03 -6.636165E+03 -1.891840E+02  1.048425E+03
       413  20 -9.582711E+05  9.739733E+03  8.655147E+03 -3.351518E+03 -4.437174E+02  1.605029E+03
       413  21 -9.465791E+05  1.260115E+04  1.121114E+04 -6.643029E+03 -6.982883E+02  2.159324E+03
       413  22 -9.977465E+05 -6.928742E-01 -5.583382E+02 -6.641323E+03  1.851997E+02  1.048448E+03
       413  23 -9.977278E+05  5.273176E+00 -5.175437E+02 -3.353231E+03 -7.086998E+01  1.605063E+03
       413  24 -9.977468E+05 -1.567810E+01 -6.499050E+02 -6.641322E+03 -3.269725E+02  2.159370E+03
       413  25 -1.025492E+06 -6.853056E+03 -7.043748E+03 -6.646481E+03  5.595668E+02  1.048470E+03
       413  26 -1.037183E+06 -9.729297E+03 -9.690339E+03 -3.354944E+03  3.019539E+02  1.605097E+03
       413  27 -1.048912E+06 -1.263269E+04 -1.251113E+04 -6.639616E+03  4.431295E+01  2.159415E+03
       414   1 -9.347880E+05  1.555656E+04  1.389434E+04 -6.661541E+03  8.288558E+02 -2.482529E+03
       414   2 -9.231608E+05  1.841612E+04  1.608495E+04 -3.376916E+03  1.438768E+03 -3.031339E+03
       414   3 -9.116703E+05  2.102171E+04  1.781585E+04 -6.581204E+03  2.048766E+03 -3.566159E+03
       414   4 -9.977695E+05  1.149323E+01 -7.818243E+02 -6.621951E+03  4.556936E+02 -2.482585E+03
       414   5 -9.977006E+05  2.651344E+01 -1.243631E+03 -3.377454E+03  1.074925E+03 -3.031415E+03
       414   6 -9.977704E+05 -2.141272E+02 -2.171713E+03 -6.621919E+03  1.694232E+03 -3.566253E+03
       414   7 -1.060747E+06 -1.553385E+04 -1.545826E+04 -6.582365E+03  8.256916E+01 -2.482640E+03
       414   8 -1.072235E+06 -1.836349E+04 -1.857259E+04 -3.377991E+03  7.111265E+02 -3.031491E+03
       414   9 -1.083864E+06 -2.145048E+04 -2.215978E+04 -6.662628E+03  1.339747E+03 -3.566348E+03
       414  10 -9.347880E+05  1.555655E+04  1.389433E+04 -6.661539E+03  2.703068E-10 -2.154349E-10
       414  11 -9.231608E+05  1.841611E+04  1.608493E+04 -3.376912E+03  6.135438E-11  1.828170E-10
       414  12 -9.116703E+05  2.102169E+04  1.781582E+04 -6.581198E+03  1.649548E-10  9.309504E-12
       414  13 -9.977695E+05  1.148656E+01 -7.818363E+02 -6.621950E+03 -2.983481E-10  1.610370E-10
       414  14 -9.977006E+05  2.650327E+01 -1.243650E+03 -3.377451E+03 -6.081634E-10  3.529357E-10
       414  15 -9.977704E+05 -2.141416E+02 -2.171742E+03 -6.621914E+03  3.559348E-10 -2.049122E-10
       414  16 -1.060747E+06 -1.553386E+04 -1.545827E+04 -6.582365E+03  2.617649E-10  7.543245E-11
       414  17 -1.072235E+06 -1.836350E+04 -1.857261E+04 -3.377990E+03 -5.774986E-10  4.024613E-10
       414  18 -1.083864E+06 -2.145050E+04 -2.215980E+04 -6.662624E+03 -4.401774E-10  7.764764E-11
       414  19 -9.347880E+05  1.555656E+04  1.389434E+04 -6.661541E+03 -8.288558E+02  2.482529E+03
       414  20 -9.231608E+05  1.841612E+04  1.608495E+04 -3.376916E+03 -1.438768E+03  3.031339E+03
       414  21 -9.116703E+05  2.102171E+04  1.781585E+04 -6.581204E+03 -2.048766E+03  3.566159E+03
       414  22 -9.977695E+05  1.149323E+01 -7.818243E+02 -6.621951E+03 -4.556936E+02  2.482585E+03
       414  23 -9.977006E+05  2.651344E+01 -1.243631E+03 -3.377454E+03 -1.074925E+03  3.031415E+03
       414  24 -9.977704E+05 -2.141272E+02 -2.171713E+03 -6.621919E+03 -1.694232E+03  3.566253E+03
       414  25 -1.060747E+06 -1.553385E+04 -1.545826E+04 -6.582365E+03 -8.256916E+01  2.482640E+03
       414  26 -1.072235E+06 -1.836349E+04 -1.857259E+04 -3.377991E+03 -7.111265E+02  3.031491E+03
       414  27 -1.083864E+06 -2.145048E+04 -2.215978E+04 -6.662628E+03 -1.339747E+03  3.566348E+03
       415   1 -9.002637E+05  2.426121E+04  1.995523E+04 -7.020658E+03  2.544737E+03 -3.907214E+03
       415   2 -8.884252E+05  2.715532E+04  2.060291E+04 -3.171651E+03  4.813457E+03 -4.420448E+03
       415   3 -8.776353E+05  2.699191E+04  1.901013E+04 -5.667240E+03  7.082244E+03 -4.727983E+03
       415   4 -9.979783E+05  1.489195E+02 -2.789570E+03 -6.590097E+03  2.130624E+03 -3.907335E+03
       415   5 -9.974434E+05  2.589726E+02 -4.745817E+03 -3.417377E+03  4.537042E+03 -4.420572E+03
       415   6 -9.979814E+05 -2.712740E+03 -9.038550E+03 -6.589335E+03  6.943487E+03 -4.728097E+03
       415   7 -1.095684E+06 -2.396404E+04 -2.553501E+04 -6.159603E+03  1.716575E+03 -3.907457E+03
       415   8 -1.106451E+06 -2.663821E+04 -3.009534E+04 -3.663060E+03  4.260676E+03 -4.420695E+03
       415   9 -1.118314E+06 -3.241841E+04 -3.708821E+04 -7.511252E+03  6.804757E+03 -4.728211E+03
       415  10 -9.002637E+05  2.426119E+04  1.995519E+04 -7.020650E+03 -9.216308E-11  3.815653E-11
       415  11 -8.884252E+05  2.715529E+04  2.060283E+04 -3.171634E+03  2.493214E-10 -1.874890E-10
       415  12 -8.776354E+05  2.699187E+04  1.900999E+04 -5.667213E+03 -3.880187E-10  2.541627E-10
       415  13 -9.979783E+05  1.489019E+02 -2.789608E+03 -6.590090E+03  6.106723E-11 -2.322494E-10
       415  14 -9.974434E+05  2.589460E+02 -4.745893E+03 -3.417360E+03 -2.473866E-10 -2.457962E-11
       415  15 -9.979814E+05 -2.712777E+03 -9.038682E+03 -6.589309E+03  5.290987E-10  1.373888E-10
       415  16 -1.095684E+06 -2.396406E+04 -2.553505E+04 -6.159598E+03 -2.448306E-10 -1.893646E-10
       415  17 -1.106451E+06 -2.663824E+04 -3.009541E+04 -3.663044E+03 -1.409395E-10 -1.508965E-10
       415  18 -1.118314E+06 -3.241845E+04 -3.708834E+04 -7.511226E+03  1.442907E-10  4.683586E-10
       415  19 -9.002637E+05  2.426121E+04  1.995523E+04 -7.020658E+03 -2.544737E+03  3.907214E+03
       415  20 -8.884252E+05  2.715532E+04  2.060291E+04 -3.171651E+03 -4.813457E+03  4.420448E+03
       415  21 -8.776353E+05  2.699191E+04  1.901013E+04 -5.667240E+03 -7.082244E+03  4.727983E+03
       415  22 -9.979783E+05  1.489195E+02 -2.789570E+03 -6.590097E+03 -2.130624E+03  3.907335E+03
       415  23 -9.974434E+05  2.589726E+02 -4.745817E+03 -3.417377E+03 -4.537042E+03  4.420572E+03
       415  24 -9.979814E+05 -2.712740E+03 -9.038550E+03 -6.589335E+03 -6.943487E+03  4.728097E+03
       415  25 -1.095684E+06 -2.396404E+04 -2.553501E+04 -6.159603E+03 -1.716575E+03  3.907457E+03
       415  26 -1.106451E+06 -2.663821E+04 -3.009534E+04 -3.663060E+03 -4.260676E+03  4.420695E+03
       415  27 -1.118314E+06 -3.241841E+04 -3.708821E+04 -7.511252E+03 -6.804757E+03  4.728211E+03
       416   1 -8.683758E+05  3.430910E+04  1.936620E+04 -1.136545E+04  9.916378E+03 -5.502929E+03
       416   2 -8.522983E+05  3.804686E+04  1.484533E+04  6.236982E+02  1.722030E+04 -5.542949E+03
       416   3 -8.463736E+05  4.917331E+03 -3.647987E+03  6.593262E+03  2.452260E+04 -1.790778E+03
       416   4 -1.000095E+06  1.830887E+03 -1.118826E+04 -6.521793E+03  8.613625E+03 -5.503358E+03
       416   5 -9.948054E+05  2.865179E+03 -1.839092E+04 -3.504557E+03  1.846126E+04 -5.542660E+03
       416   6 -1.000113E+06 -3.341476E+04 -4.133682E+04 -6.506910E+03  2.830704E+04 -1.789597E+03
       416   7 -1.131798E+06 -3.064846E+04 -4.174386E+04 -1.679174E+03  7.311147E+03 -5.503807E+03
       416   8 -1.137294E+06 -3.231788E+04 -5.162853E+04 -7.631859E+03  1.970193E+04 -5.542389E+03
       416   9 -1.153831E+06 -7.174796E+04 -7.902723E+04 -1.960383E+04  3.209055E+04 -1.788575E+03
       416  10 -8.683759E+05  3.430904E+04  1.936596E+04 -1.136540E+04  3.388740E-10  3.430880E-10
       416  11 -8.522987E+05  3.804675E+04  1.484471E+04  6.237751E+02  6.719177E-10  9.630235E-11
       416  12 -8.463743E+05  4.917166E+03 -3.649125E+03  6.593297E+03 -1.487859E-10  2.383190E-10
       416  13 -1.000095E+06  1.830835E+03 -1.118846E+04 -6.521754E+03  8.993166E-10 -2.460458E-10
       416  14 -9.948058E+05  2.865054E+03 -1.839162E+04 -3.504475E+03  1.671299E-11  2.849270E-10
       416  15 -1.000114E+06 -3.341498E+04 -4.133833E+04 -6.506870E+03  7.824873E-10 -2.041507E-10
       416  16 -1.131799E+06 -3.064850E+04 -4.174402E+04 -1.679142E+03 -3.023207E-11  3.900050E-10
       416  17 -1.137294E+06 -3.231802E+04 -5.162932E+04 -7.631771E+03 -6.594212E-11  6.845162E-12
       416  18 -1.153832E+06 -7.174824E+04 -7.902918E+04 -1.960378E+04 -5.887716E-10  4.565256E-10
       416  19 -8.683758E+05  3.430910E+04  1.936620E+04 -1.136545E+04 -9.916378E+03  5.502929E+03
       416  20 -8.522983E+05  3.804686E+04  1.484533E+04  6.236982E+02 -1.722030E+04  5.542949E+03
       416  21 -8.463736E+05  4.917331E+03 -3.647987E+03  6.593262E+03 -2.452260E+04  1.790778E+03
       416  22 -1.000095E+06  1.830887E+03 -1.118826E+04 -6.521793E+03 -8.613625E+03  5.503358E+03
       416  23 -9.948054E+05  2.865179E+03 -1.839092E+04 -3.504557E+03 -1.846126E+04  5.542660E+03
       416  24 -1.000113E+06 -3.341476E+04 -4.133682E+04 -6.506910E+03 -2.830704E+04  1.789597E+03
       416  25 -1.131798E+06 -3.064846E+04 -4.174386E+04 -1.679174E+03 -7.311147E+03  5.503807E+03
       416  26 -1.137294E+06 -3.231788E+04 -5.162853E+04 -7.631859E+03 -1.970193E+04  5.542389E+03
       416  27 -1.153831E+06 -7.174796E+04 -7.902723E+04 -1.960383E+04 -3.209055E+04  1.788575E+03
       417   1  1.881489E+06  4.344126E+05  5.472298E+05  1.715356E+05  3.975662E+05  1.974385E+03
       417   2  1.832181E+06 -7.187314E+04  2.305737E+05  5.164967E+04  2.608253E+05  5.046399E+03
       417   3  1.932315E+06 -5.132868E+04  1.345361E+05 -8.231624E+04  1.240731E+05  4.268476E+03
       417   4  2.034728E+06  4.722235E+05  5.846742E+05 -1.340005E+04  4.011178E+05  1.857807E+03
       417   5  1.960040E+06 -4.046785E+04  2.603039E+05 -6.249783E+03  2.617147E+05  5.022406E+03
       417   6  2.035182E+06 -2.598944E+04  1.583502E+05 -1.319013E+04  1.223066E+05  4.281617E+03
       417   7  2.188061E+06  5.101609E+05  6.221354E+05 -1.983813E+05  4.046702E+05  1.739145E+03
       417   8  2.087921E+06 -9.051138E+03  2.900349E+05 -6.416121E+04  2.626044E+05  4.998252E+03
       417   9  2.138070E+06 -6.330304E+02  1.821662E+05  5.594749E+04  1.205398E+05  4.294364E+03
       417  10  1.881320E+06  4.343703E+05  5.469336E+05  1.715349E+05  6.096573E-10 -6.863672E-10
       417  11  1.832108E+06 -7.189135E+04  2.304462E+05  5.164861E+04  1.108741E-09 -1.990848E-11
       417  12  1.932298E+06 -5.133282E+04  1.345073E+05 -8.231666E+04 -1.665598E-09 -2.917549E-10
       417  13  2.034555E+06  4.721805E+05  5.843729E+05 -1.340065E+04  8.592283E-10  1.095515E-10
       417  14  1.959967E+06 -4.048619E+04  2.601756E+05 -6.250841E+03  6.630527E-10 -3.273089E-10
       417  15  2.035166E+06 -2.599345E+04  1.583222E+05 -1.319055E+04 -3.196184E-10  1.083532E-10
       417  16  2.187885E+06  5.101172E+05  6.218287E+05 -1.983818E+05 -1.031548E-11 -4.959212E-11
       417  17  2.087848E+06 -9.069597E+03  2.899057E+05 -6.416226E+04  8.788909E-10 -3.521761E-10
       417  18  2.138054E+06 -6.369338E+02  1.821390E+05  5.594707E+04  2.190763E-09  1.134825E-09
       417  19  1.881489E+06  4.344126E+05  5.472298E+05  1.715356E+05 -3.975662E+05 -1.974385E+03
       417  20  1.832181E+06 -7.187314E+04  2.305737E+05  5.164967E+04 -2.608253E+05 -5.046399E+03
       417  21  1.932315E+06 -5.132868E+04  1.345361E+05 -8.231624E+04 -1.240731E+05 -4.268476E+03
       417  22  2.034728E+06  4.722235E+05  5.846742E+05 -1.340005E+04 -4.011178E+05 -1.857807E+03
       417  23  1.960040E+06 -4.046785E+04  2.603039E+05 -6.249783E+03 -2.617147E+05 -5.022406E+03
       417  24  2.035182E+06 -2.598944E+04  1.583502E+05 -1.319013E+04 -1.223066E+05 -4.281617E+03
       417  25  2.188061E+06  5.101609E+05  6.221354E+05 -1.983813E+05 -4.046702E+05 -1.739145E+03
       417  26  2.087921E+06 -9.051138E+03  2.900349E+05 -6.416121E+04 -2.626044E+05 -4.998252E+03
       417  27  2.138070E+06 -6.330304E+02  1.821662E+05  5.594749E+04 -1.205398E+05 -4.294364E+03
       418   1  1.927341E+06  1.905461E+04  1.098254E+05 -5.437125E+02  9.915650E+04  3.107941E+03
       418   2  1.944334E+06 -1.679813E+04  5.476551E+04 -3.127809E+03  6.524108E+04  2.163861E+03
       418   3  1.976593E+06 -9.226615E+03  3.260070E+04 -1.949131E+04  3.132549E+04  1.017720E+03
       418   4  2.005184E+06  3.819344E+04  1.278947E+05 -1.318860E+04  9.860445E+04  3.105730E+03
       418   5  1.997573E+06 -3.707255E+03  6.710694E+04 -6.293183E+03  6.454815E+04  2.163317E+03
       418   6  2.005250E+06 -2.162357E+03  3.930807E+04 -1.317659E+04  3.049300E+04  1.017820E+03
       418   7  2.083033E+06  5.733245E+04  1.459637E+05 -2.583509E+04  9.805233E+04  3.103542E+03
       418   8  2.050816E+06  9.383458E+03  7.944819E+04 -9.458830E+03  6.385517E+04  2.162780E+03
       418   9  2.033909E+06  4.901992E+03  4.601540E+04 -6.861569E+03  2.966048E+04  1.017904E+03
       418  10  1.927331E+06  1.905197E+04  1.098069E+05 -5.439605E+02  2.200664E-10  1.857249E-10
       418  11  1.944329E+06 -1.679927E+04  5.475753E+04 -3.127923E+03  9.986364E-10  5.243839E-10
       418  12  1.976591E+06 -9.226878E+03  3.259886E+04 -1.949134E+04 -2.489922E-10 -5.917342E-10
       418  13  2.005174E+06  3.819083E+04  1.278765E+05 -1.318885E+04  9.118958E-10  8.857522E-10
       418  14  1.997569E+06 -3.708374E+03  6.709913E+04 -6.293296E+03  1.159796E-09  1.321574E-10
       418  15  2.005249E+06 -2.162607E+03  3.930632E+04 -1.317661E+04 -3.591874E-10 -4.030347E-10
       418  16  2.083023E+06  5.732987E+04  1.459457E+05 -2.583533E+04 -3.416297E-10  8.230209E-10
       418  17  2.050811E+06  9.382363E+03  7.944054E+04 -9.458941E+03  3.414267E-10 -4.526265E-10
       418  18  2.033908E+06  4.901755E+03  4.601375E+04 -6.861593E+03 -1.755398E-10 -3.512144E-10
       418  19  1.927341E+06  1.905461E+04  1.098254E+05 -5.437125E+02 -9.915650E+04 -3.107941E+03
       418  20  1.944334E+06 -1.679813E+04  5.476551E+04 -3.127809E+03 -6.524108E+04 -2.163861E+03
       418  21  1.976593E+06 -9.226615E+03  3.260070E+04 -1.949131E+04 -3.132549E+04 -1.017720E+03
       418  22  2.005184E+06  3.819344E+04  1.278947E+05 -1.318860E+04 -9.860445E+04 -3.105730E+03
       418  23  1.997573E+06 -3.707255E+03  6.710694E+04 -6.293183E+03 -6.454815E+04 -2.163317E+03
       418  24  2.005250E+06 -2.162357E+03  3.930807E+04 -1.317659E+04 -3.049300E+04 -1.017820E+03
       418  25  2.083033E+06  5.733245E+04  1.459637E+05 -2.583509E+04 -9.805233E+04 -3.103542E+03
       418  26  2.050816E+06  9.383458E+03  7.944819E+04 -9.458830E+03 -6.385517E+04 -2.162780E+03
       418  27  2.033909E+06  4.901992E+03  4.601540E+04 -6.861569E+03 -2.966048E+04 -1.017904E+03
       419   1  1.998395E+06  2.011037E+03  2.962955E+04 -1.276980E+04  2.510938E+04  3.165983E+02
       419   2  2.021899E+06  4.664688E+03  2.184213E+04 -6.431083E+03  1.660960E+04 -8.317883E+02
       419   3  2.047409E+06  1.088453E+04  2.046922E+04 -1.382059E+04  8.109755E+03 -1.993482E+03
       419   4  2.002293E+06  2.955982E+03  3.046603E+04 -1.316948E+04  2.434154E+04  3.163880E+02
       419   5  2.001296E+06 -4.013830E+02  1.706867E+04 -6.304962E+03  1.583266E+04 -8.319945E+02
       419   6  2.002305E+06 -1.909225E+02  1.009193E+04 -1.316869E+04  7.324051E+03 -1.993696E+03
       419   7  2.006191E+06  3.900926E+03  3.130253E+04 -1.356915E+04  2.357369E+04  3.161787E+02
       419   8  1.980693E+06 -5.467484E+03  1.229518E+04 -6.178845E+03  1.505575E+04 -8.322011E+02
       419   9  1.957203E+06 -1.126652E+04 -2.854935E+02 -1.251683E+04  6.538404E+03 -1.993912E+03
       419  10  1.998394E+06  2.010868E+03  2.962836E+04 -1.276981E+04 -5.402941E-10 -4.859036E-10
       419  11  2.021899E+06  4.664614E+03  2.184161E+04 -6.431072E+03 -1.529061E-09 -6.405985E-10
       419  12  2.047409E+06  1.088451E+04  2.046909E+04 -1.382058E+04 -4.200739E-10 -5.785532E-11
       419  13  2.002292E+06  2.955823E+03  3.046492E+04 -1.316948E+04 -6.896104E-10 -2.770680E-10
       419  14  2.001296E+06 -4.014508E+02  1.706820E+04 -6.304952E+03 -1.010779E-10 -2.581507E-11
       419  15  2.002305E+06 -1.909411E+02  1.009182E+04 -1.316868E+04 -1.200253E-09 -3.249741E-10
       419  16  2.006190E+06  3.900778E+03  3.130148E+04 -1.356915E+04 -4.731028E-10 -1.085774E-11
       419  17  1.980693E+06 -5.467545E+03  1.229476E+04 -6.178835E+03 -7.203638E-10 -2.812742E-10
       419  18  1.957203E+06 -1.126653E+04 -2.855810E+02 -1.251682E+04 -1.549776E-10  9.995228E-11
       419  19  1.998395E+06  2.011037E+03  2.962955E+04 -1.276980E+04 -2.510938E+04 -3.165983E+02
       419  20  2.021899E+06  4.664688E+03  2.184213E+04 -6.431083E+03 -1.660960E+04  8.317883E+02
       419  21  2.047409E+06  1.088453E+04  2.046922E+04 -1.382059E+04 -8.109755E+03  1.993482E+03
       419  22  2.002293E+06  2.955982E+03  3.046603E+04 -1.316948E+04 -2.434154E+04 -3.163880E+02
       419  23  2.001296E+06 -4.013830E+02  1.706867E+04 -6.304962E+03 -1.583266E+04  8.319945E+02
       419  24  2.002305E+06 -1.909225E+02  1.009193E+04 -1.316869E+04 -7.324051E+03  1.993696E+03
       419  25  2.006191E+06  3.900926E+03  3.130253E+04 -1.356915E+04 -2.357369E+04 -3.161787E+02
       419  26  1.980693E+06 -5.467484E+03  1.229518E+04 -6.178845E+03 -1.505575E+04  8.322011E+02
       419  27  1.957203E+06 -1.126652E+04 -2.854935E+02 -1.251683E+04 -6.538404E+03  1.993912E+03
       420   1  2.071929E+06  1.740887E+04  2.417699E+04 -1.330703E+04  6.490220E+03 -2.672333E+03
       420   2  2.096532E+06  2.323738E+04  2.697889E+04 -6.317133E+03  4.010334E+03 -3.842494E+03
       420   3  2.121551E+06  2.936532E+04  3.147012E+04 -1.322659E+04  1.530511E+03 -5.021826E+03
       420   4  2.001951E+06  1.880803E+02  7.892149E+03 -1.320705E+04  5.704948E+03 -2.672577E+03
       420   5  2.001744E+06 -6.931050E+01  5.017532E+03 -6.257286E+03  3.219108E+03 -3.842798E+03
       420   6  2.001952E+06 -2.628063E+01  3.836378E+03 -1.320700E+04  7.334274E+02 -5.022188E+03
       420   7  1.931977E+06 -1.703305E+04 -8.393018E+03 -1.310709E+04  4.919764E+03 -2.672821E+03
       420   8  1.906963E+06 -2.337663E+04 -1.694442E+04 -6.197448E+03  2.428001E+03 -3.843102E+03
       420   9  1.882366E+06 -2.941889E+04 -2.379832E+04 -1.318742E+04 -6.350392E+01 -5.022550E+03
       420  10  2.071929E+06  1.740885E+04  2.417690E+04 -1.330702E+04  6.105972E-10 -5.230002E-11
       420  11  2.096532E+06  2.323736E+04  2.697883E+04 -6.317121E+03  2.028627E-11 -2.325148E-10
       420  12  2.121551E+06  2.936530E+04  3.147007E+04 -1.322658E+04 -1.160444E-09 -2.159564E-11
       420  13  2.001951E+06  1.880639E+02  7.892074E+03 -1.320704E+04 -3.020327E-13 -1.002848E-10
       420  14  2.001744E+06 -6.932914E+01  5.017484E+03 -6.257276E+03 -4.285863E-10 -5.769719E-10
       420  15  2.001952E+06 -2.630788E+01  3.836330E+03 -1.320700E+04  1.257348E-09  7.878223E-10
       420  16  1.931977E+06 -1.703307E+04 -8.393077E+03 -1.310707E+04 -6.272013E-11  2.650047E-10
       420  17  1.906963E+06 -2.337665E+04 -1.694446E+04 -6.197441E+03 -6.567238E-10 -5.701540E-10
       420  18  1.882366E+06 -2.941891E+04 -2.379836E+04 -1.318742E+04  3.063209E-10  5.931915E-11
       420  19  2.071929E+06  1.740887E+04  2.417699E+04 -1.330703E+04 -6.490220E+03  2.672333E+03
       420  20  2.096532E+06  2.323738E+04  2.697889E+04 -6.317133E+03 -4.010334E+03  3.842494E+03
       420  21  2.121551E+06  2.936532E+04  3.147012E+04 -1.322659E+04 -1.530511E+03  5.021826E+03
       420  22  2.001951E+06  1.880803E+02  7.892149E+03 -1.320705E+04 -5.704948E+03  2.672577E+03
       420  23  2.001744E+06 -6.931050E+01  5.017532E+03 -6.257286E+03 -3.219108E+03  3.842798E+03
       420  24  2.001952E+06 -2.628063E+01  3.836378E+03 -1.320700E+04 -7.334274E+02  5.022188E+03
       420  25  1.931977E+06 -1.703305E+04 -8.393018E+03 -1.310709E+04 -4.919764E+03  2.672821E+03
       420  26  1.906963E+06 -2.337663E+04 -1.694442E+04 -6.197448E+03 -2.428001E+03  3.843102E+03
       420  27  1.882366E+06 -2.941889E+04 -2.379832E+04 -1.318742E+04  6.350392E+01  5.022550E+03
       421   1  2.146927E+06  3.564197E+04  3.736638E+04 -1.323001E+04  8.544904E+02 -5.713381E+03
       421   2  2.172260E+06  4.185760E+04  4.379281E+04 -6.031092E+03 -1.261683E+03 -6.914517E+03
       421   3  2.197964E+06  4.830697E+04  5.165965E+04 -1.312913E+04 -3.377594E+03 -8.129446E+03
       421   4  2.001940E+06 -2.108196E+01  3.703228E+03 -1.329538E+04  5.044599E+01 -5.713799E+03
       421   5  2.001753E+06 -6.519257E+01  4.290052E+03 -6.146821E+03 -2.074541E+03 -6.915043E+03
       421   6  2.001937E+06  1.260907E+02  6.323703E+03 -1.329546E+04 -4.199180E+03 -8.130080E+03
       421   7  1.856973E+06 -3.568561E+04 -2.996134E+04 -1.336074E+04 -7.534125E+02 -5.714216E+03
       421   8  1.831272E+06 -4.199002E+04 -3.521465E+04 -6.262521E+03 -2.887178E+03 -6.915569E+03
       421   9  1.805946E+06 -4.805748E+04 -3.901480E+04 -1.346174E+04 -5.020509E+03 -8.130714E+03
       421  10  2.146927E+06  3.564194E+04  3.736632E+04 -1.323001E+04  3.083056E-10  4.587952E-10
       421  11  2.172260E+06  4.185755E+04  4.379271E+04 -6.031099E+03 -1.466195E-09  8.807203E-10
       421  12  2.197964E+06  4.830690E+04  5.165950E+04 -1.312915E+04 -4.927004E-09 -1.025592E-09
       421  13  2.001940E+06 -2.111705E+01  3.703166E+03 -1.329538E+04  1.644533E-09  1.518043E-09
       421  14  2.001753E+06 -6.524512E+01  4.289954E+03 -6.146833E+03  1.445052E-09  1.546163E-09
       421  15  2.001937E+06  1.260149E+02  6.323546E+03 -1.329549E+04  9.960114E-10 -4.193340E-10
       421  16  1.856973E+06 -3.568565E+04 -2.996140E+04 -1.336074E+04  2.060200E-10  1.165067E-09
       421  17  1.831272E+06 -4.199007E+04 -3.521475E+04 -6.262538E+03  2.238137E-09  5.049913E-11
       421  18  1.805945E+06 -4.805756E+04 -3.901498E+04 -1.346177E+04  4.020906E-09 -1.284887E-09
       421  19  2.146927E+06  3.564197E+04  3.736638E+04 -1.323001E+04 -8.544904E+02  5.713381E+03
       421  20  2.172260E+06  4.185760E+04  4.379281E+04 -6.031092E+03  1.261683E+03  6.914517E+03
       421  21  2.197964E+06  4.830697E+04  5.165965E+04 -1.312913E+04  3.377594E+03  8.129446E+03
       421  22  2.001940E+06 -2.108196E+01  3.703228E+03 -1.329538E+04 -5.044599E+01  5.713799E+03
       421  23  2.001753E+06 -6.519257E+01  4.290052E+03 -6.146821E+03  2.074541E+03  6.915043E+03
       421  24  2.001937E+06  1.260907E+02  6.323703E+03 -1.329546E+04  4.199180E+03  8.130080E+03
       421  25  1.856973E+06 -3.568561E+04 -2.996134E+04 -1.336074E+04  7.534125E+02  5.714216E+03
       421  26  1.831272E+06 -4.199002E+04 -3.521465E+04 -6.262521E+03  2.887178E+03  6.915569E+03
       421  27  1.805946E+06 -4.805748E+04 -3.901480E+04 -1.346174E+04  5.020509E+03  8.130714E+03
       422   1  2.224548E+06  5.451514E+04  5.954352E+04 -1.282846E+04 -4.643800E+03 -8.850320E+03
       422   2  2.250378E+06  6.088431E+04  7.093106E+04 -5.735726E+03 -1.125596E+04 -1.010145E+04
       422   3  2.277817E+06  6.999084E+04  8.731076E+04 -1.356960E+04 -1.786785E+04 -1.134482E+04
       422   4  2.002209E+06 -1.652050E+02  7.960691E+03 -1.343479E+04 -5.485255E+03 -8.851048E+03
       422   5  2.001399E+06 -3.298740E+02  1.325017E+04 -5.972226E+03 -1.208985E+04 -1.010234E+04
       422   6  2.002196E+06  2.242460E+03  2.352819E+04 -1.343662E+04 -1.869388E+04 -1.134587E+04
       422   7  1.779916E+06 -5.484902E+04 -4.362545E+04 -1.404091E+04 -6.326411E+03 -8.851775E+03
       422   8  1.752477E+06 -6.154840E+04 -4.443486E+04 -6.208641E+03 -1.292340E+04 -1.010322E+04
       422   9  1.726646E+06 -6.551124E+04 -4.025945E+04 -1.330372E+04 -1.951955E+04 -1.134691E+04
       422  10  2.224548E+06  5.451505E+04  5.954333E+04 -1.282849E+04  5.097950E-09 -1.809437E-10
       422  11  2.250378E+06  6.088416E+04  7.093063E+04 -5.735818E+03  2.216078E-09 -8.532195E-10
       422  12  2.277816E+06  6.999062E+04  8.730992E+04 -1.356976E+04  5.358359E-10  5.374619E-10
       422  13  2.002209E+06 -1.652973E+02  7.960487E+03 -1.343483E+04  3.085266E-10 -5.270080E-10
       422  14  2.001398E+06 -3.300227E+02  1.324971E+04 -5.972324E+03 -3.856259E-10  9.045936E-11
       422  15  2.002196E+06  2.242229E+03  2.352729E+04 -1.343679E+04  1.048598E-09  6.158337E-11
       422  16  1.779916E+06 -5.484911E+04 -4.362567E+04 -1.404096E+04 -4.465442E-09 -1.779432E-09
       422  17  1.752476E+06 -6.154855E+04 -4.443537E+04 -6.208746E+03 -3.969130E-09  3.036234E-10
       422  18  1.726646E+06 -6.551148E+04 -4.026041E+04 -1.330390E+04 -7.402351E-10  2.096637E-10
       422  19  2.224548E+06  5.451514E+04  5.954352E+04 -1.282846E+04  4.643800E+03  8.850320E+03
       422  20  2.250378E+06  6.088431E+04  7.093106E+04 -5.735726E+03  1.125596E+04  1.010145E+04
       422  21  2.277817E+06  6.999084E+04  8.731076E+04 -1.356960E+04  1.786785E+04  1.134482E+04
       422  22  2.002209E+06 -1.652050E+02  7.960691E+03 -1.343479E+04  5.485255E+03  8.851048E+03
       422  23  2.001399E+06 -3.298740E+02  1.325017E+04 -5.972226E+03  1.208985E+04  1.010234E+04
       422  24  2.002196E+06  2.242460E+03  2.352819E+04 -1.343662E+04  1.869388E+04  1.134587E+04
       422  25  1.779916E+06 -5.484902E+04 -4.362545E+04 -1.404091E+04  6.326411E+03  8.851775E+03
       422  26  1.752477E+06 -6.154840E+04 -4.443486E+04 -6.208641E+03  1.292340E+04  1.010322E+04
       422  27  1.726646E+06 -6.551124E+04 -4.025945E+04 -1.330372E+04  1.951955E+04  1.134691E+04
       423   1  2.307754E+06  7.288447E+04  1.006462E+05 -8.550554E+03 -2.242223E+04 -1.217499E+04
       423   2  2.329970E+06  7.859550E+04  1.285082E+05 -7.917505E+03 -4.904527E+04 -1.345058E+04
       423   3  2.364121E+06  1.178109E+05  1.820581E+05 -2.307988E+04 -7.567058E+04 -1.417742E+04
       423   4  2.004479E+06 -1.699710E+03  3.032629E+04 -1.361831E+04 -2.344199E+04 -1.217615E+04
       423   5  1.998513E+06 -2.889797E+03  5.170959E+04 -5.738031E+03 -4.968309E+04 -1.345194E+04
       423   6  2.004423E+06  2.936855E+04  9.852607E+04 -1.365333E+04 -7.592526E+04 -1.417947E+04
       423   7  1.701288E+06 -7.629025E+04 -3.999972E+04 -1.868361E+04 -2.446125E+04 -1.217730E+04
       423   8  1.667157E+06 -8.438278E+04 -2.509634E+04 -3.559751E+03 -5.032057E+04 -1.345331E+04
       423   9  1.644844E+06 -5.908258E+04  1.498538E+04 -4.232302E+03 -7.617980E+04 -1.418153E+04
       423  10  2.307754E+06  7.288417E+04  1.006449E+05 -8.550774E+03  9.143778E-10  2.216628E-10
       423  11  2.329968E+06  7.859466E+04  1.285033E+05 -7.918036E+03  1.884773E-09 -1.144906E-09
       423  12  2.364115E+06  1.178092E+05  1.820470E+05 -2.308074E+04  5.561450E-10 -1.652884E-09
       423  13  2.004478E+06 -1.700017E+03  3.032498E+04 -1.361854E+04  4.906547E-10 -3.028698E-10
       423  14  1.998511E+06 -2.890652E+03  5.170463E+04 -5.738569E+03  4.050843E-10 -1.075123E-09
       423  15  2.004417E+06  2.936679E+04  9.851490E+04 -1.365420E+04  2.351207E-09 -1.267094E-09
       423  16  1.701287E+06 -7.629057E+04 -4.000112E+04 -1.868385E+04  2.170800E-10 -1.205289E-10
       423  17  1.667154E+06 -8.438365E+04 -2.510143E+04 -3.560296E+03  8.201446E-10  2.263036E-09
       423  18  1.644837E+06 -5.908435E+04  1.497412E+04 -4.233172E+03 -1.841200E-10 -3.594619E-10
       423  19  2.307754E+06  7.288447E+04  1.006462E+05 -8.550554E+03  2.242223E+04  1.217499E+04
       423  20  2.329970E+06  7.859550E+04  1.285082E+05 -7.917505E+03  4.904527E+04  1.345058E+04
       423  21  2.364121E+06  1.178109E+05  1.820581E+05 -2.307988E+04  7.567058E+04  1.417742E+04
       423  22  2.004479E+06 -1.699710E+03  3.032629E+04 -1.361831E+04  2.344199E+04  1.217615E+04
       423  23  1.998513E+06 -2.889797E+03  5.170959E+04 -5.738031E+03  4.968309E+04  1.345194E+04
       423  24  2.004423E+06  2.936855E+04  9.852607E+04 -1.365333E+04  7.592526E+04  1.417947E+04
       423  25  1.701288E+06 -7.629025E+04 -3.999972E+04 -1.868361E+04  2.446125E+04  1.217730E+04
       423  26  1.667157E+06 -8.438278E+04 -2.509634E+04 -3.559751E+03  5.032057E+04  1.345331E+04
       423  27  1.644844E+06 -5.908258E+04  1.498538E+04 -4.232302E+03  7.617980E+04  1.418153E+04
       424   1  2.416637E+06  7.571755E+04  2.119347E+05  3.990099E+04 -9.050857E+04 -1.637227E+04
       424   2  2.388661E+06  7.170677E+04  2.978412E+05 -4.969569E+04 -2.053334E+05 -1.654135E+04
       424   3  2.477477E+06  4.749440E+05  5.601710E+05 -1.563430E+05 -3.201813E+05 -5.728854E+03
       424   4  2.027536E+06 -2.007479E+04  1.219803E+05 -1.373321E+04 -9.418115E+04 -1.637004E+04
       424   5  1.969574E+06 -3.122533E+04  2.004742E+05 -5.519483E+03 -2.015650E+05 -1.655115E+04
       424   6  2.027174E+06  3.636955E+05  4.503108E+05 -1.434195E+04 -3.089645E+05 -5.783465E+03
       424   7  1.638581E+06 -1.158670E+05  3.201744E+04 -6.733369E+04 -9.785144E+04 -1.636716E+04
       424   8  1.550652E+06 -1.341624E+05  1.030966E+05  3.862674E+04 -1.977991E+05 -1.656043E+04
       424   9  1.577097E+06  2.525080E+05  3.404473E+05  1.275562E+05 -2.977558E+05 -5.833002E+03
       424  10  2.416628E+06  7.571508E+04  2.119189E+05  3.989980E+04  9.100592E-10 -2.479930E-09
       424  11  2.388616E+06  7.169521E+04  2.977618E+05 -4.969842E+04  7.653516E-10 -4.094678E-09
       424  12  2.477368E+06  4.749166E+05  5.599790E+05 -1.563445E+05 -1.529546E-09 -1.131196E-09
       424  13  2.027527E+06 -2.007745E+04  1.219632E+05 -1.373445E+04 -1.117090E-09 -6.837954E-09
       424  14  1.969530E+06 -3.123648E+04  2.003976E+05 -5.522167E+03  2.501906E-09  2.626196E-09
       424  15  2.027071E+06  3.636700E+05  4.501320E+05 -1.434339E+04  2.657215E-09  4.317601E-11
       424  16  1.638571E+06 -1.158699E+05  3.199899E+04 -6.733498E+04  4.943252E-10 -1.917778E-09
       424  17  1.550610E+06 -1.341731E+05  1.030228E+05  3.862411E+04  6.110500E-10  1.485213E-09
       424  18  1.577002E+06  2.524842E+05  3.402810E+05  1.275548E+05  2.362942E-10 -1.988815E-09
       424  19  2.416637E+06  7.571755E+04  2.119347E+05  3.990099E+04  9.050857E+04  1.637227E+04
       424  20  2.388661E+06  7.170677E+04  2.978412E+05 -4.969569E+04  2.053334E+05  1.654135E+04
       424  21  2.477477E+06  4.749440E+05  5.601710E+05 -1.563430E+05  3.201813E+05  5.728854E+03
       424  22  2.027536E+06 -2.007479E+04  1.219803E+05 -1.373321E+04  9.418115E+04  1.637004E+04
       424  23  1.969574E+06 -3.122533E+04  2.004742E+05 -5.519483E+03  2.015650E+05  1.655115E+04
       424  24  2.027174E+06  3.636955E+05  4.503108E+05 -1.434195E+04  3.089645E+05  5.783465E+03
       424  25  1.638581E+06 -1.158670E+05  3.201744E+04 -6.733369E+04  9.785144E+04  1.636716E+04
       424  26  1.550652E+06 -1.341624E+05  1.030966E+05  3.862674E+04  1.977991E+05  1.656043E+04
       424  27  1.577097E+06  2.525080E+05  3.404473E+05  1.275562E+05  2.977558E+05  5.833002E+03
       425   1  5.628221E+05  1.884060E+05  1.730746E+05  4.426958E+04  4.310814E+04 -1.266653E+04
       425   2  4.985874E+05  1.919398E+05  1.424688E+05  4.990312E+04  1.614094E+04 -4.276071E+04
       425   3  4.344489E+05  1.817336E+05  1.260167E+05  6.820818E+04 -1.085888E+04 -5.154259E+04
       425   4 -3.433247E+05 -3.512643E+04 -3.906897E+04  6.514749E+04 -2.724425E+04 -1.280157E+04
       425   5 -3.401496E+05 -8.041813E+03 -1.903933E+04  5.877539E+04 -1.735728E+04 -4.283447E+04
       425   6 -3.432850E+05 -1.105988E+03 -1.044723E+04  6.507539E+04 -7.506367E+03 -5.154082E+04
       425   7 -1.248703E+06 -2.587128E+05 -2.512497E+05  8.599437E+04 -9.749464E+04 -1.294144E+04
       425   8 -1.178207E+06 -2.080642E+05 -1.805757E+05  6.763504E+04 -5.081130E+04 -4.290924E+04
       425   9 -1.120427E+06 -1.839786E+05 -1.469329E+05  6.194631E+04 -4.157923E+03 -5.153910E+04
       425  10  5.628201E+05  1.884053E+05  1.730708E+05  4.427002E+04  3.402020E-09 -7.910608E-10
       425  11  4.985866E+05  1.919378E+05  1.424648E+05  4.990368E+04  2.885789E-09 -4.998801E-09
       425  12  4.344481E+05  1.817308E+05  1.260114E+05  6.820773E+04  1.066446E-09 -4.310938E-09
       425  13 -3.433255E+05 -3.512681E+04 -3.907068E+04  6.514721E+04  5.897934E-10  1.306412E-09
       425  14 -3.401504E+05 -8.043864E+03 -1.904334E+04  5.877479E+04 -2.590341E-10 -2.695239E-09
       425  15 -3.432858E+05 -1.108856E+03 -1.045233E+04  6.507508E+04  5.344396E-10  5.581591E-10
       425  16 -1.248714E+06 -2.587156E+05 -2.512679E+05  8.599335E+04 -3.602190E-09  4.177063E-10
       425  17 -1.178211E+06 -2.080669E+05 -1.805840E+05  6.763328E+04 -1.686747E-09 -6.654709E-09
       425  18 -1.120428E+06 -1.839814E+05 -1.469379E+05  6.194613E+04 -9.155545E-10 -5.650323E-09
       425  19  5.628221E+05  1.884060E+05  1.730746E+05  4.426958E+04 -4.310814E+04  1.266653E+04
       425  20  4.985874E+05  1.919398E+05  1.424688E+05  4.990312E+04 -1.614094E+04  4.276071E+04
       425  21  4.344489E+05  1.817336E+05  1.260167E+05  6.820818E+04  1.085888E+04  5.154259E+04
       425  22 -3.433247E+05 -3.512643E+04 -3.906897E+04  6.514749E+04  2.724425E+04  1.280157E+04
       425  23 -3.401496E+05 -8.041813E+03 -1.903933E+04  5.877539E+04  1.735728E+04  4.283447E+04
       425  24 -3.432850E+05 -1.105988E+03 -1.044723E+04  6.507539E+04  7.506367E+03  5.154082E+04
       425  25 -1.248703E+06 -2.587128E+05 -2.512497E+05  8.599437E+04  9.749464E+04  1.294144E+04
       425  26 -1.178207E+06 -2.080642E+05 -1.805757E+05  6.763504E+04  5.081130E+04  4.290924E+04
       425  27 -1.120427E+06 -1.839786E+05 -1.469329E+05  6.194631E+04  4.157923E+03  5.153910E+04
       426   1  3.931262E+05  1.710631E+05  1.196533E+05  6.597898E+04 -7.349235E+03 -4.995180E+04
       426   2  3.290253E+05  1.567400E+05  1.090171E+05  5.935767E+04 -8.576696E+03 -4.827891E+04
       426   3  2.649409E+05  1.419731E+05  9.906270E+04  6.681907E+04 -9.810247E+03 -4.463346E+04
       426   4 -3.419997E+05 -1.472193E+03 -7.942285E+03  6.539820E+04 -6.151757E+03 -4.995433E+04
       426   5 -3.416959E+05 -8.153771E+01 -4.371196E+03  5.835422E+04 -3.970809E+03 -4.827253E+04
       426   6 -3.419707E+05  2.736513E+02 -2.485713E+03  6.539391E+04 -1.796017E+03 -4.461709E+04
       426   7 -1.076596E+06 -1.740367E+05 -1.355567E+05  6.481780E+04 -4.955649E+03 -4.995686E+04
       426   8 -1.011974E+06 -1.569267E+05 -1.177739E+05  5.735160E+04  6.302664E+02 -4.826616E+04
       426   9 -9.485187E+05 -1.414450E+05 -1.040453E+05  6.396995E+04  6.210641E+03 -4.460075E+04
       426  10  3.931255E+05  1.710605E+05  1.196485E+05  6.597868E+04 -6.859725E-09 -4.994686E-09
       426  11  3.290246E+05  1.567374E+05  1.090126E+05  5.935734E+04 -1.663847E-09  8.974054E-10
       426  12  2.649402E+05  1.419710E+05  9.905877E+04  6.681871E+04  7.672713E-10  1.205265E-09
       426  13 -3.420004E+05 -1.474883E+03 -7.947045E+03  6.539795E+04  1.701505E-09 -2.368951E-09
       426  14 -3.416965E+05 -8.404380E+01 -4.375604E+03  5.835406E+04 -4.884505E-10  5.656989E-10
       426  15 -3.419712E+05  2.715131E+02 -2.489459E+03  6.539384E+04  7.696902E-10 -3.285264E-09
       426  16 -1.076596E+06 -1.740394E+05 -1.355614E+05  6.481760E+04  6.855656E-09  3.422348E-10
       426  17 -1.011974E+06 -1.569292E+05 -1.177783E+05  5.735163E+04  1.731457E-09  2.447576E-09
       426  18 -9.485192E+05 -1.414472E+05 -1.040491E+05  6.397017E+04 -1.888037E-09  4.650394E-10
       426  19  3.931262E+05  1.710631E+05  1.196533E+05  6.597898E+04  7.349235E+03  4.995180E+04
       426  20  3.290253E+05  1.567400E+05  1.090171E+05  5.935767E+04  8.576696E+03  4.827891E+04
       426  21  2.649409E+05  1.419731E+05  9.906270E+04  6.681907E+04  9.810247E+03  4.463346E+04
       426  22 -3.419997E+05 -1.472193E+03 -7.942285E+03  6.539820E+04  6.151757E+03  4.995433E+04
       426  23 -3.416959E+05 -8.153771E+01 -4.371196E+03  5.835422E+04  3.970809E+03  4.827253E+04
       426  24 -3.419707E+05  2.736513E+02 -2.485713E+03  6.539391E+04  1.796017E+03  4.461709E+04
       426  25 -1.076596E+06 -1.740367E+05 -1.355567E+05  6.481780E+04  4.955649E+03  4.995686E+04
       426  26 -1.011974E+06 -1.569267E+05 -1.177739E+05  5.735160E+04 -6.302664E+02  4.826616E+04
       426  27 -9.485187E+05 -1.414450E+05 -1.040453E+05  6.396995E+04 -6.210641E+03  4.460075E+04
       427   1  2.233654E+05  1.321502E+05  9.232502E+04  6.662964E+04 -9.238432E+03 -4.189160E+04
       427   2  1.592383E+05  1.171790E+05  8.227817E+04  5.939905E+04 -9.031096E+03 -3.727679E+04
       427   3  9.504017E+04  1.022825E+05  7.209667E+04  6.639727E+04 -8.825943E+03 -3.247782E+04
       427   4 -3.418617E+05  2.529738E+02 -1.888836E+03  6.542692E+04 -1.420635E+03 -4.187476E+04
       427   5 -3.417857E+05  2.902633E+02 -1.080763E+03  5.831208E+04 -8.957758E+02 -3.725771E+04
       427   6 -3.418401E+05  3.472914E+02 -6.282254E+02  6.542670E+04 -3.730788E+02 -3.245641E+04
       427   7 -9.067731E+05 -1.316609E+05 -9.611224E+04  6.422513E+04  6.390283E+03 -4.185795E+04
       427   8 -8.425616E+05 -1.166115E+05 -8.444707E+04  5.722584E+04  7.233200E+03 -3.723864E+04
       427   9 -7.785318E+05 -1.015978E+05 -7.335866E+04  6.445671E+04  8.074037E+03 -3.243503E+04
       427  10  2.233648E+05  1.321483E+05  9.232157E+04  6.662933E+04 -3.407045E-09  2.364652E-09
       427  11  1.592379E+05  1.171775E+05  8.227540E+04  5.939878E+04  1.453179E-09  2.688159E-09
       427  12  9.503981E+04  1.022813E+05  7.209454E+04  6.639703E+04  5.139947E-09 -1.330078E-10
       427  13 -3.418621E+05  2.510907E+02 -1.892134E+03  6.542688E+04  1.852548E-09 -3.929938E-09
       427  14 -3.417860E+05  2.887727E+02 -1.083373E+03  5.831205E+04 -6.999399E-10  2.411108E-09
       427  15 -3.418404E+05  3.461604E+02 -6.302049E+02  6.542669E+04  5.650097E-10  5.019029E-09
       427  16 -9.067736E+05 -1.316628E+05 -9.611561E+04  6.422534E+04  2.942743E-09  1.231023E-09
       427  17 -8.425620E+05 -1.166130E+05 -8.444978E+04  5.722606E+04 -9.715455E-10  3.339195E-09
       427  18 -7.785321E+05 -1.015989E+05 -7.336076E+04  6.445692E+04 -5.587203E-09 -1.114861E-09
       427  19  2.233654E+05  1.321502E+05  9.232502E+04  6.662964E+04  9.238432E+03  4.189160E+04
       427  20  1.592383E+05  1.171790E+05  8.227817E+04  5.939905E+04  9.031096E+03  3.727679E+04
       427  21  9.504017E+04  1.022825E+05  7.209667E+04  6.639727E+04  8.825943E+03  3.247782E+04
       427  22 -3.418617E+05  2.529738E+02 -1.888836E+03  6.542692E+04  1.420635E+03  4.187476E+04
       427  23 -3.417857E+05  2.902633E+02 -1.080763E+03  5.831208E+04  8.957758E+02  3.725771E+04
       427  24 -3.418401E+05  3.472914E+02 -6.282254E+02  6.542670E+04  3.730788E+02  3.245641E+04
       427  25 -9.067731E+05 -1.316609E+05 -9.611224E+04  6.422513E+04 -6.390283E+03  4.185795E+04
       427  26 -8.425616E+05 -1.166115E+05 -8.444707E+04  5.722584E+04 -7.233200E+03  3.723864E+04
       427  27 -7.785318E+05 -1.015978E+05 -7.335866E+04  6.445671E+04 -8.074037E+03  3.243503E+04
       428   1  5.341888E+04  9.251980E+04  6.503813E+04  6.631055E+04 -8.716533E+03 -2.962678E+04
       428   2 -1.076333E+04  7.753598E+04  5.466553E+04  5.904461E+04 -8.609125E+03 -2.473588E+04
       428   3 -7.502193E+04  6.263618E+04  4.421919E+04  6.603262E+04 -8.502925E+03 -1.982741E+04
       428   4 -3.418237E+05  3.516543E+02 -4.859172E+02  6.543228E+04 -2.797888E+02 -2.960470E+04
       428   5 -3.417733E+05  3.251784E+02 -3.034481E+02  5.830506E+04 -1.425946E+02 -2.471273E+04
       428   6 -3.418095E+05  3.774268E+02 -2.159142E+02  6.543223E+04 -6.597493E+00 -1.980320E+04
       428   7 -7.369117E+05 -9.182454E+04 -6.601439E+04  6.455447E+04  8.151765E+03 -2.958263E+04
       428   8 -6.726747E+05 -7.689127E+04 -5.527546E+04  5.756584E+04  8.319573E+03 -2.468960E+04
       428   9 -6.085266E+05 -6.188499E+04 -4.465292E+04  6.483206E+04  8.486200E+03 -1.977899E+04
       428  10  5.341856E+04  9.251883E+04  6.503634E+04  6.631034E+04 -9.541268E-09  2.364479E-10
       428  11 -1.076358E+04  7.753530E+04  5.466424E+04  5.904444E+04  1.953646E-08  9.374466E-09
       428  12 -7.502212E+04  6.263574E+04  4.421832E+04  6.603248E+04  4.431360E-08  7.994948E-09
       428  13 -3.418240E+05  3.507133E+02 -4.875641E+02  6.543227E+04  1.990502E-09  4.196079E-10
       428  14 -3.417734E+05  3.245227E+02 -3.045956E+02  5.830506E+04 -8.733382E-10  9.074669E-09
       428  15 -3.418096E+05  3.770057E+02 -2.166511E+02  6.543223E+04  4.922709E-10  3.912389E-09
       428  16 -7.369121E+05 -9.182550E+04 -6.601616E+04  6.455466E+04  9.452813E-09 -7.151273E-11
       428  17 -6.726750E+05 -7.689194E+04 -5.527674E+04  5.756601E+04 -1.949440E-08  2.756487E-09
       428  18 -6.085268E+05 -6.188543E+04 -4.465379E+04  6.483220E+04 -4.458535E-08  3.251762E-09
       428  19  5.341888E+04  9.251980E+04  6.503813E+04  6.631055E+04  8.716533E+03  2.962678E+04
       428  20 -1.076333E+04  7.753598E+04  5.466553E+04  5.904461E+04  8.609125E+03  2.473588E+04
       428  21 -7.502193E+04  6.263618E+04  4.421919E+04  6.603262E+04  8.502925E+03  1.982741E+04
       428  22 -3.418237E+05  3.516543E+02 -4.859172E+02  6.543228E+04  2.797888E+02  2.960470E+04
       428  23 -3.417733E+05  3.251784E+02 -3.034481E+02  5.830506E+04  1.425946E+02  2.471273E+04
       428  24 -3.418095E+05  3.774268E+02 -2.159142E+02  6.543223E+04  6.597493E+00  1.980320E+04
       428  25 -7.369117E+05 -9.182454E+04 -6.601439E+04  6.455447E+04 -8.151765E+03  2.958263E+04
       428  26 -6.726747E+05 -7.689127E+04 -5.527546E+04  5.756584E+04 -8.319573E+03  2.468960E+04
       428  27 -6.085266E+05 -6.188499E+04 -4.465292E+04  6.483206E+04 -8.486200E+03  1.977899E+04
       429   1 -1.166778E+05  5.286947E+04  3.704035E+04  6.594183E+04 -8.473604E+03 -1.696450E+04
       429   2 -1.808842E+05  3.787678E+04  2.648944E+04  5.865672E+04 -8.371872E+03 -1.204924E+04
       429   3 -2.451821E+05  2.296329E+04  1.586300E+04  6.563746E+04 -8.270691E+03 -7.139667E+03
       429   4 -3.418069E+05  3.824166E+02 -2.000345E+02  6.543483E+04  2.302359E+01 -1.693985E+04
       429   5 -3.417571E+05  3.509875E+02 -2.137357E+02  5.830178E+04  1.145633E+02 -1.202415E+04
       429   6 -3.418000E+05  4.009190E+02 -2.957874E+02  6.543479E+04  2.055619E+02 -7.114129E+03
       429   7 -5.668858E+05 -5.210722E+04 -3.744166E+04  6.492798E+04  8.516674E+03 -1.691521E+04
       429   8 -5.026041E+05 -3.717611E+04 -2.691742E+04  5.794691E+04  8.598873E+03 -1.199907E+04
       429   9 -4.384086E+05 -2.216190E+04 -1.645459E+04  6.523214E+04  8.680539E+03 -7.088593E+03
       429  10 -1.166779E+05  5.286914E+04  3.703967E+04  6.594171E+04 -3.416787E-08  2.097549E-09
       429  11 -1.808843E+05  3.787660E+04  2.648904E+04  5.865664E+04 -1.678714E-08 -1.267396E-09
       429  12 -2.451822E+05  2.296321E+04  1.586278E+04  6.563742E+04  1.982805E-09 -1.999932E-09
       429  13 -3.418070E+05  3.821085E+02 -2.005737E+02  6.543483E+04  7.718229E-10  9.028350E-09
       429  14 -3.417571E+05  3.508323E+02 -2.140074E+02  5.830178E+04 -7.662336E-10  1.286958E-09
       429  15 -3.418000E+05  4.008646E+02 -2.958826E+02  6.543479E+04  2.834715E-10 -1.600662E-09
       429  16 -5.668859E+05 -5.210754E+04 -3.744233E+04  6.492809E+04  3.398559E-08  5.970680E-09
       429  17 -5.026043E+05 -3.717628E+04 -2.691783E+04  5.794700E+04  1.648278E-08 -1.068407E-09
       429  18 -4.384087E+05 -2.216197E+04 -1.645483E+04  6.523219E+04 -2.454487E-09 -3.127515E-09
       429  19 -1.166778E+05  5.286947E+04  3.704035E+04  6.594183E+04  8.473604E+03  1.696450E+04
       429  20 -1.808842E+05  3.787678E+04  2.648944E+04  5.865672E+04  8.371872E+03  1.204924E+04
       429  21 -2.451821E+05  2.296329E+04  1.586300E+04  6.563746E+04  8.270691E+03  7.139667E+03
       429  22 -3.418069E+05  3.824166E+02 -2.000345E+02  6.543483E+04 -2.302359E+01  1.693985E+04
       429  23 -3.417571E+05  3.509875E+02 -2.137357E+02  5.830178E+04 -1.145633E+02  1.202415E+04
       429  24 -3.418000E+05  4.009190E+02 -2.957874E+02  6.543479E+04 -2.055619E+02  7.114129E+03
       429  25 -5.668858E+05 -5.210722E+04 -3.744166E+04  6.492798E+04 -8.516674E+03  1.691521E+04
       429  26 -5.026041E+05 -3.717611E+04 -2.691742E+04  5.794691E+04 -8.598873E+03  1.199907E+04
       429  27 -4.384086E+05 -2.216190E+04 -1.645459E+04  6.523214E+04 -8.680539E+03  7.088593E+03
       430   1 -2.868592E+05  1.319010E+04  8.586823E+03  6.553134E+04 -8.227895E+03 -4.279004E+03
       430   2 -3.510416E+05 -1.820514E+03 -2.244770E+03  5.824093E+04 -7.791816E+03  5.917547E+02
       430   3 -4.153756E+05 -1.680681E+04 -1.338440E+04  6.521312E+04 -7.355505E+03  5.377054E+03
       430   4 -3.418071E+05  4.051345E+02 -3.694245E+02  6.543399E+04  2.570328E+02 -4.253306E+03
       430   5 -3.417423E+05  3.671613E+02 -6.112923E+02  5.830274E+04  5.450913E+02  6.169761E+02
       430   6 -3.418075E+05  3.793627E+02 -1.058504E+03  6.543407E+04  8.334251E+02  5.401803E+03
       430   7 -3.967518E+05 -1.237994E+04 -9.325487E+03  6.533664E+04  8.741235E+03 -4.227609E+03
       430   8 -3.324427E+05  2.554869E+03  1.022444E+03  5.836455E+04  8.882119E+03  6.421990E+02
       430   9 -2.682340E+05  1.756529E+04  1.126747E+04  6.565505E+04  9.023294E+03  5.426557E+03
       430  10 -2.868593E+05  1.319006E+04  8.586661E+03  6.553131E+04 -5.036013E-09  4.599541E-09
       430  11 -3.510416E+05 -1.820531E+03 -2.244885E+03  5.824093E+04 -1.418514E-09  2.118416E-09
       430  12 -4.153756E+05 -1.680685E+04 -1.338455E+04  6.521315E+04 -2.118171E-09  4.696658E-10
       430  13 -3.418071E+05  4.051151E+02 -3.694587E+02  6.543399E+04  1.280564E-09  8.396104E-10
       430  14 -3.417423E+05  3.671609E+02 -6.112935E+02  5.830274E+04 -9.268077E-10  3.192402E-09
       430  15 -3.418076E+05  3.793312E+02 -1.058560E+03  6.543407E+04  5.829666E-10  1.653558E-09
       430  16 -3.967519E+05 -1.237998E+04 -9.325664E+03  6.533667E+04  4.621644E-09  2.191966E-09
       430  17 -3.324428E+05  2.554848E+03  1.022294E+03  5.836455E+04  2.044018E-09 -1.007924E-08
       430  18 -2.682341E+05  1.756523E+04  1.126726E+04  6.565501E+04  1.072540E-09 -3.148708E-10
       430  19 -2.868592E+05  1.319010E+04  8.586823E+03  6.553134E+04  8.227895E+03  4.279004E+03
       430  20 -3.510416E+05 -1.820514E+03 -2.244770E+03  5.824093E+04  7.791816E+03 -5.917547E+02
       430  21 -4.153756E+05 -1.680681E+04 -1.338440E+04  6.521312E+04  7.355505E+03 -5.377054E+03
       430  22 -3.418071E+05  4.051345E+02 -3.694245E+02  6.543399E+04 -2.570328E+02  4.253306E+03
       430  23 -3.417423E+05  3.671613E+02 -6.112923E+02  5.830274E+04 -5.450913E+02 -6.169761E+02
       430  24 -3.418075E+05  3.793627E+02 -1.058504E+03  6.543407E+04 -8.334251E+02 -5.401803E+03
       430  25 -3.967518E+05 -1.237994E+04 -9.325487E+03  6.533664E+04 -8.741235E+03  4.227609E+03
       430  26 -3.324427E+05  2.554869E+03  1.022444E+03  5.836455E+04 -8.882119E+03 -6.421990E+02
       430  27 -2.682340E+05  1.756529E+04  1.126747E+04  6.565505E+04 -9.023294E+03 -5.426557E+03
       431   1 -4.571398E+05 -2.659023E+04 -2.098601E+04  6.501019E+04 -7.243398E+03  8.188165E+03
       431   2 -5.210524E+05 -4.185833E+04 -3.319465E+04  5.803748E+04 -4.439009E+03  1.252873E+04
       431   3 -5.856293E+05 -5.794310E+04 -4.746210E+04  6.526513E+04 -1.631786E+03  1.594247E+04
       431   4 -3.418671E+05  3.960197E+02 -1.390485E+03  6.541975E+04  1.038405E+03  8.213033E+03
       431   5 -3.416755E+05  1.868800E+02 -2.437604E+03  5.832112E+04  2.242228E+03  1.254833E+04
       431   6 -3.418751E+05 -5.608122E+02 -4.431505E+03  6.542260E+04  3.449185E+03  1.595693E+04
       431   7 -2.265811E+05  2.738161E+04  1.820486E+04  6.582939E+04  9.321698E+03  8.237910E+03
       431   8 -1.622669E+05  4.223040E+04  2.831853E+04  5.860482E+04  8.925335E+03  1.256793E+04
       431   9 -9.806268E+04  5.681823E+04  3.859701E+04  6.558009E+04  8.532094E+03  1.597140E+04
       431  10 -4.571399E+05 -2.659032E+04 -2.098623E+04  6.501024E+04 -9.053867E-09  6.590791E-09
       431  11 -5.210524E+05 -4.185851E+04 -3.319498E+04  5.803753E+04  8.596440E-10  1.846275E-09
       431  12 -5.856294E+05 -5.794337E+04 -4.746259E+04  6.526515E+04  8.995951E-09  1.519943E-09
       431  13 -3.418671E+05  3.959470E+02 -1.390614E+03  6.541975E+04  1.018684E-09  2.068226E-09
       431  14 -3.416756E+05  1.867096E+02 -2.437909E+03  5.832110E+04 -7.855678E-10  4.463490E-09
       431  15 -3.418752E+05 -5.610887E+02 -4.432005E+03  6.542255E+04  4.790609E-10 -2.928486E-09
       431  16 -2.265812E+05  2.738151E+04  1.820457E+04  6.582933E+04  8.358978E-09  2.898936E-09
       431  17 -1.622670E+05  4.223021E+04  2.831808E+04  5.860473E+04 -8.791542E-10  7.540802E-10
       431  18 -9.806283E+04  5.681794E+04  3.859640E+04  6.557998E+04 -9.742781E-09 -7.447357E-09
       431  19 -4.571398E+05 -2.659023E+04 -2.098601E+04  6.501019E+04  7.243398E+03 -8.188165E+03
       431  20 -5.210524E+05 -4.185833E+04 -3.319465E+04  5.803748E+04  4.439009E+03 -1.252873E+04
       431  21 -5.856293E+05 -5.794310E+04 -4.746210E+04  6.526513E+04  1.631786E+03 -1.594247E+04
       431  22 -3.418671E+05  3.960197E+02 -1.390485E+03  6.541975E+04 -1.038405E+03 -8.213033E+03
       431  23 -3.416755E+05  1.868800E+02 -2.437604E+03  5.832112E+04 -2.242228E+03 -1.254833E+04
       431  24 -3.418751E+05 -5.608122E+02 -4.431505E+03  6.542260E+04 -3.449185E+03 -1.595693E+04
       431  25 -2.265811E+05  2.738161E+04  1.820486E+04  6.582939E+04 -9.321698E+03 -8.237910E+03
       431  26 -1.622669E+05  4.223040E+04  2.831853E+04  5.860482E+04 -8.925335E+03 -1.256793E+04
       431  27 -9.806268E+04  5.681823E+04  3.859701E+04  6.558009E+04 -8.532094E+03 -1.597140E+04
       432   1 -6.284867E+05 -6.777796E+04 -5.685353E+04  6.361584E+04 -1.892671E+03  1.820950E+04
       432   2 -6.894970E+05 -8.766969E+04 -7.901409E+04  6.345562E+04  2.089248E+04  1.679247E+04
       432   3 -7.571145E+05 -1.217965E+05 -1.195917E+05  7.684514E+04  4.370194E+04  5.352849E+03
       432   4 -3.425924E+05 -3.527928E+02 -5.829433E+03  6.527096E+04  4.200010E+03  1.822660E+04
       432   5 -3.408008E+05 -4.246134E+03 -1.061958E+04  5.852303E+04  9.683819E+03  1.675945E+04
       432   6 -3.426102E+05 -1.936417E+04 -2.180118E+04  6.532516E+04  1.519438E+04  5.271801E+03
       432   7 -5.661809E+04  6.706787E+04  4.519170E+04  6.692680E+04  1.029542E+04  1.824373E+04
       432   8  8.012350E+03  7.917025E+04  5.776954E+04  5.358752E+04 -1.531006E+03  1.672662E+04
       432   9  7.205443E+04  8.305680E+04  7.598062E+04  5.379732E+04 -1.333213E+04  5.191841E+03
       432  10 -6.284868E+05 -6.777832E+04 -5.685415E+04  6.361587E+04 -6.083918E-09  1.464085E-09
       432  11 -6.894976E+05 -8.767011E+04 -7.901544E+04  6.345534E+04 -4.869095E-10 -2.854408E-09
       432  12 -7.571166E+05 -1.217970E+05 -1.195953E+05  7.684495E+04  1.224448E-09 -2.056199E-09
       432  13 -3.425925E+05 -3.531542E+02 -5.830090E+03  6.527090E+04  9.915293E-10  4.501613E-09
       432  14 -3.408010E+05 -4.246461E+03 -1.062029E+04  5.852290E+04 -4.863553E-10 -7.924360E-09
       432  15 -3.426104E+05 -1.936426E+04 -2.180166E+04  6.532509E+04  4.148654E-10  3.434909E-09
       432  16 -5.661829E+04  6.706749E+04  4.519088E+04  6.692665E+04  5.792197E-09 -1.201831E-09
       432  17  8.012273E+03  7.916995E+04  5.776901E+04  5.358754E+04  1.241087E-09  1.271608E-09
       432  18  7.205423E+04  8.305672E+04  7.598024E+04  5.379737E+04 -2.027021E-09 -2.728365E-10
       432  19 -6.284867E+05 -6.777796E+04 -5.685353E+04  6.361584E+04  1.892671E+03 -1.820950E+04
       432  20 -6.894970E+05 -8.766969E+04 -7.901409E+04  6.345562E+04 -2.089248E+04 -1.679247E+04
       432  21 -7.571145E+05 -1.217965E+05 -1.195917E+05  7.684514E+04 -4.370194E+04 -5.352849E+03
       432  22 -3.425924E+05 -3.527928E+02 -5.829433E+03  6.527096E+04 -4.200010E+03 -1.822660E+04
       432  23 -3.408008E+05 -4.246134E+03 -1.061958E+04  5.852303E+04 -9.683819E+03 -1.675945E+04
       432  24 -3.426102E+05 -1.936417E+04 -2.180118E+04  6.532516E+04 -1.519438E+04 -5.271801E+03
       432  25 -5.661809E+04  6.706787E+04  4.519170E+04  6.692680E+04 -1.029542E+04 -1.824373E+04
       432  26  8.012350E+03  7.917025E+04  5.776954E+04  5.358752E+04  1.531006E+03 -1.672662E+04
       432  27  7.205443E+04  8.305680E+04  7.598062E+04  5.379732E+04  1.333213E+04 -5.191841E+03
       433   1 -1.461946E+05  5.475344E+04  3.751783E+04 -5.629973E+03 -4.295499E+04 -5.714053E+03
       433   2 -1.731818E+05  1.145474E+05  6.746967E+04  1.529149E+03 -3.182439E+04 -1.729051E+04
       433   3 -2.192620E+05  1.038276E+05  7.256638E+04  2.879289E+04 -2.072770E+04 -1.703414E+04
       433   4 -6.254482E+05 -6.445191E+04 -7.986360E+04  1.859377E+04 -5.469930E+04 -5.748629E+03
       433   5 -6.151896E+05  5.558878E+03 -3.554557E+04  8.442905E+03 -3.563106E+04 -1.730304E+04
       433   6 -6.254193E+05  3.648660E+03 -2.161219E+04  1.839813E+04 -1.659579E+04 -1.702149E+04
       433   7 -1.104491E+06 -1.836719E+05 -1.972610E+05  4.279863E+04 -6.643455E+04 -5.784135E+03
       433   8 -1.057017E+06 -1.034433E+05 -1.385739E+05  1.535157E+04 -3.943504E+04 -1.731565E+04
       433   9 -1.031424E+06 -9.654149E+04 -1.158017E+05  8.010098E+03 -1.246656E+04 -1.700897E+04
       433  10 -1.461965E+05  5.475291E+04  3.751431E+04 -5.630171E+03 -5.326217E-09  1.329589E-09
       433  11 -1.731830E+05  1.145468E+05  6.746720E+04  1.528705E+03  2.821228E-09  1.059094E-08
       433  12 -2.192626E+05  1.038271E+05  7.256503E+04  2.879260E+04  2.009989E-09  7.097570E-09
       433  13 -6.254515E+05 -6.445275E+04 -7.986929E+04  1.859352E+04  1.638608E-09 -2.925305E-09
       433  14 -6.151910E+05  5.558215E+03 -3.554852E+04  8.442409E+03  8.272446E-10 -8.075271E-09
       433  15 -6.254197E+05  3.648275E+03 -2.161325E+04  1.839790E+04  4.476694E-09  2.828046E-09
       433  16 -1.104496E+06 -1.836731E+05 -1.972694E+05  4.279832E+04  6.788342E-09  1.296702E-09
       433  17 -1.057019E+06 -1.034440E+05 -1.385774E+05  1.535102E+04 -1.331748E-09  1.099858E-08
       433  18 -1.031424E+06 -9.654184E+04 -1.158026E+05  8.009928E+03 -3.622749E-09  6.511207E-10
       433  19 -1.461946E+05  5.475344E+04  3.751783E+04 -5.629973E+03  4.295499E+04  5.714053E+03
       433  20 -1.731818E+05  1.145474E+05  6.746967E+04  1.529149E+03  3.182439E+04  1.729051E+04
       433  21 -2.192620E+05  1.038276E+05  7.256638E+04  2.879289E+04  2.072770E+04  1.703414E+04
       433  22 -6.254482E+05 -6.445191E+04 -7.986360E+04  1.859377E+04  5.469930E+04  5.748629E+03
       433  23 -6.151896E+05  5.558878E+03 -3.554557E+04  8.442905E+03  3.563106E+04  1.730304E+04
       433  24 -6.254193E+05  3.648660E+03 -2.161219E+04  1.839813E+04  1.659579E+04  1.702149E+04
       433  25 -1.104491E+06 -1.836719E+05 -1.972610E+05  4.279863E+04  6.643455E+04  5.784135E+03
       433  26 -1.057017E+06 -1.034433E+05 -1.385739E+05  1.535157E+04  3.943504E+04  1.731565E+04
       433  27 -1.031424E+06 -9.654149E+04 -1.158017E+05  8.010098E+03  1.246656E+04  1.700897E+04
       434   1 -2.524541E+05  8.586082E+04  6.846365E+04  1.778165E+04 -1.386922E+04 -1.454087E+04
       434   2 -2.883843E+05  8.238036E+04  6.796075E+04  8.648548E+03 -9.650736E+03 -1.348551E+04
       434   3 -3.263984E+05  7.317715E+04  6.325825E+04  2.024300E+04 -5.435545E+03 -1.179363E+04
       434   4 -6.213437E+05 -5.126280E+03 -1.745898E+04  1.860645E+04 -1.337798E+04 -1.453989E+04
       434   5 -6.202586E+05  5.482514E+02 -9.163476E+03  8.232980E+03 -8.734383E+03 -1.348289E+04
       434   6 -6.213345E+05  4.242099E+02 -5.364977E+03  1.858785E+04 -4.093842E+03 -1.178921E+04
       434   7 -9.901076E+05 -9.612300E+04 -1.033908E+05  1.943066E+04 -1.288702E+04 -1.453891E+04
       434   8 -9.520311E+05 -8.129164E+04 -8.629512E+04  7.817548E+03 -7.818515E+03 -1.348026E+04
       434   9 -9.161902E+05 -7.233487E+04 -7.399406E+04  1.693341E+04 -2.752772E+03 -1.178480E+04
       434  10 -2.524544E+05  8.586054E+04  6.846289E+04  1.778149E+04 -2.534613E-09  1.527367E-10
       434  11 -2.883844E+05  8.238014E+04  6.796023E+04  8.648444E+03  7.816058E-09  6.823787E-09
       434  12 -3.263985E+05  7.317699E+04  6.325793E+04  2.024295E+04  9.269293E-09  9.686641E-09
       434  13 -6.213440E+05 -5.126555E+03 -1.745971E+04  1.860630E+04  1.661887E-09  1.104673E-08
       434  14 -6.202587E+05  5.480358E+02 -9.163961E+03  8.232885E+03  1.230834E-09 -1.597227E-08
       434  15 -6.213346E+05  4.240562E+02 -5.365269E+03  1.858781E+04  4.422674E-09  1.316570E-08
       434  16 -9.901079E+05 -9.612327E+04 -1.033915E+05  1.943051E+04  5.476425E-09 -8.674549E-09
       434  17 -9.520312E+05 -8.129185E+04 -8.629558E+04  7.817463E+03 -5.037263E-09  4.716488E-10
       434  18 -9.161903E+05 -7.233502E+04 -7.399434E+04  1.693339E+04 -1.192956E-08  3.799111E-09
       434  19 -2.524541E+05  8.586082E+04  6.846365E+04  1.778165E+04  1.386922E+04  1.454087E+04
       434  20 -2.883843E+05  8.238036E+04  6.796075E+04  8.648548E+03  9.650736E+03  1.348551E+04
       434  21 -3.263984E+05  7.317715E+04  6.325825E+04  2.024300E+04  5.435545E+03  1.179363E+04
       434  22 -6.213437E+05 -5.126280E+03 -1.745898E+04  1.860645E+04  1.337798E+04  1.453989E+04
       434  23 -6.202586E+05  5.482514E+02 -9.163476E+03  8.232980E+03  8.734383E+03  1.348289E+04
       434  24 -6.213345E+05  4.242099E+02 -5.364977E+03  1.858785E+04  4.093842E+03  1.178921E+04
       434  25 -9.901076E+05 -9.612300E+04 -1.033908E+05  1.943066E+04  1.288702E+04  1.453891E+04
       434  26 -9.520311E+05 -8.129164E+04 -8.629512E+04  7.817548E+03  7.818515E+03  1.348026E+04
       434  27 -9.161902E+05 -7.233487E+04 -7.399406E+04  1.693341E+04  2.752772E+03  1.178480E+04
       435   1 -3.637319E+05  6.312766E+04  5.550390E+04  1.930227E+04 -4.412210E+03 -1.068520E+04
       435   2 -4.009470E+05  5.431366E+04  4.872071E+04  8.786424E+03 -3.274492E+03 -8.946858E+03
       435   3 -4.385564E+05  4.517171E+04  4.107796E+04  1.927078E+04 -2.137619E+03 -7.169094E+03
       435   4 -6.209381E+05 -2.775630E+02 -4.165146E+03  1.865494E+04 -3.259715E+03 -1.068130E+04
       435   5 -6.207359E+05  1.144651E+02 -2.349043E+03  8.153755E+03 -2.095979E+03 -8.942671E+03
       435   6 -6.209333E+05  1.741118E+02 -1.410669E+03  1.865323E+04 -9.330205E+02 -7.164606E+03
       435   7 -8.780831E+05 -6.368745E+04 -6.383863E+04  1.800781E+04 -2.107695E+03 -1.067741E+04
       435   8 -8.404801E+05 -5.408814E+04 -5.342205E+04  7.521270E+03 -9.178812E+02 -8.938486E+03
       435   9 -8.032795E+05 -4.482584E+04 -4.390154E+04  1.803584E+04  2.712266E+02 -7.160120E+03
       435  10 -3.637319E+05  6.312753E+04  5.550365E+04  1.930223E+04  1.847623E-09 -4.864474E-09
       435  11 -4.009471E+05  5.431357E+04  4.872054E+04  8.786400E+03  6.226971E-09 -8.959519E-09
       435  12 -4.385564E+05  4.517165E+04  4.107785E+04  1.927076E+04  1.938661E-09 -4.688333E-09
       435  13 -6.209381E+05 -2.776884E+02 -4.165380E+03  1.865491E+04  1.842734E-09 -1.915756E-09
       435  14 -6.207359E+05  1.143781E+02 -2.349201E+03  8.153740E+03  6.347308E-10 -9.339705E-09
       435  15 -6.209333E+05  1.740565E+02 -1.410767E+03  1.865323E+04  5.800799E-09 -2.092716E-09
       435  16 -8.780831E+05 -6.368757E+04 -6.383885E+04  1.800780E+04  6.532492E-10 -3.227010E-09
       435  17 -8.404801E+05 -5.408822E+04 -5.342220E+04  7.521264E+03 -3.314743E-09  6.427432E-09
       435  18 -8.032796E+05 -4.482589E+04 -4.390164E+04  1.803584E+04 -4.570335E-09  1.267278E-08
       435  19 -3.637319E+05  6.312766E+04  5.550390E+04  1.930227E+04  4.412210E+03  1.068520E+04
       435  20 -4.009470E+05  5.431366E+04  4.872071E+04  8.786424E+03  3.274492E+03  8.946858E+03
       435  21 -4.385564E+05  4.517171E+04  4.107796E+04  1.927078E+04  2.137619E+03  7.169094E+03
       435  22 -6.209381E+05 -2.775630E+02 -4.165146E+03  1.865494E+04  3.259715E+03  1.068130E+04
       435  23 -6.207359E+05  1.144651E+02 -2.349043E+03  8.153755E+03  2.095979E+03  8.942671E+03
       435  24 -6.209333E+05  1.741118E+02 -1.410669E+03  1.865323E+04  9.330205E+02  7.164606E+03
       435  25 -8.780831E+05 -6.368745E+04 -6.383863E+04  1.800781E+04  2.107695E+03  1.067741E+04
       435  26 -8.404801E+05 -5.408814E+04 -5.342205E+04  7.521270E+03  9.178812E+02  8.938486E+03
       435  27 -8.032795E+05 -4.482584E+04 -4.390154E+04  1.803584E+04 -2.712266E+02  7.160120E+03
       436   1 -4.766067E+05  3.568074E+04  3.229079E+04  1.912186E+04 -1.906204E+03 -6.126407E+03
       436   2 -5.141786E+05  2.637008E+04  2.399855E+04  8.434252E+03 -1.533725E+03 -4.340662E+03
       436   3 -5.519676E+05  1.717910E+04  1.544926E+04  1.889725E+04 -1.161607E+03 -2.550275E+03
       436   4 -6.208900E+05  1.213067E+02 -1.125295E+03  1.868717E+04 -7.093323E+02 -6.121851E+03
       436   5 -6.207795E+05  8.079868E+01 -7.723441E+02  8.111674E+03 -3.338432E+02 -4.336000E+03
       436   6 -6.208879E+05  1.595222E+02 -6.785081E+02  1.868700E+04  4.130829E+01 -2.545501E+03
       436   7 -7.651541E+05 -3.543959E+04 -3.454277E+04  1.825257E+04  4.872635E+02 -6.117297E+03
       436   8 -7.273698E+05 -2.620929E+04 -2.554400E+04  7.789141E+03  8.658342E+02 -4.331339E+03
       436   9 -6.898037E+05 -1.686040E+04 -1.680659E+04  1.847677E+04  1.244090E+03 -2.540728E+03
       436  10 -4.766067E+05  3.568070E+04  3.229072E+04  1.912185E+04  8.386655E-10 -3.425827E-09
       436  11 -5.141786E+05  2.637006E+04  2.399851E+04  8.434247E+03 -8.129361E-09  3.101810E-09
       436  12 -5.519676E+05  1.717910E+04  1.544925E+04  1.889725E+04 -2.003824E-08  8.506423E-10
       436  13 -6.208900E+05  1.212664E+02 -1.125366E+03  1.868717E+04  2.333826E-09  4.013670E-09
       436  14 -6.207795E+05  8.077847E+01 -7.723796E+02  8.111673E+03  2.019829E-10 -6.765356E-09
       436  15 -6.208879E+05  1.595153E+02 -6.785202E+02  1.868700E+04  5.793026E-09 -8.061204E-09
       436  16 -7.651541E+05 -3.543963E+04 -3.454284E+04  1.825257E+04  2.011482E-09  6.841327E-09
       436  17 -7.273698E+05 -2.620931E+04 -2.554403E+04  7.789144E+03  1.050541E-08  1.317680E-08
       436  18 -6.898037E+05 -1.686040E+04 -1.680661E+04  1.847677E+04  1.684743E-08 -5.007139E-10
       436  19 -4.766067E+05  3.568074E+04  3.229079E+04  1.912186E+04  1.906204E+03  6.126407E+03
       436  20 -5.141786E+05  2.637008E+04  2.399855E+04  8.434252E+03  1.533725E+03  4.340662E+03
       436  21 -5.519676E+05  1.717910E+04  1.544926E+04  1.889725E+04  1.161607E+03  2.550275E+03
       436  22 -6.208900E+05  1.213067E+02 -1.125295E+03  1.868717E+04  7.093323E+02  6.121851E+03
       436  23 -6.207795E+05  8.079868E+01 -7.723441E+02  8.111674E+03  3.338432E+02  4.336000E+03
       436  24 -6.208879E+05  1.595222E+02 -6.785081E+02  1.868700E+04 -4.130829E+01  2.545501E+03
       436  25 -7.651541E+05 -3.543959E+04 -3.454277E+04  1.825257E+04 -4.872635E+02  6.117297E+03
       436  26 -7.273698E+05 -2.620929E+04 -2.554400E+04  7.789141E+03 -8.658342E+02  4.331339E+03
       436  27 -6.898037E+05 -1.686040E+04 -1.680659E+04  1.847677E+04 -1.244090E+03  2.540728E+03
       437   1 -5.902406E+05  7.697410E+03  6.299641E+03  1.877776E+04 -1.040889E+03 -1.506734E+03
       437   2 -6.278795E+05 -1.666628E+03 -2.597998E+03  8.061075E+03 -5.786091E+02  2.866981E+02
       437   3 -6.657609E+05 -1.092458E+04 -1.181700E+04  1.854148E+04 -1.163376E+02  2.078621E+03
       437   4 -6.208925E+05  1.603956E+02 -7.112072E+02  1.869725E+04  1.626766E+02 -1.501928E+03
       437   5 -6.207705E+05  8.682956E+01 -9.459059E+02  8.098802E+03  6.239033E+02  2.914913E+02
       437   6 -6.208928E+05  1.194822E+02 -1.501306E+03  1.869741E+04  1.085150E+03  2.083406E+03
       437   7 -6.515435E+05 -7.376683E+03 -7.722111E+03  1.861675E+04  1.366183E+03 -1.497121E+03
       437   8 -6.136616E+05  1.840284E+03  7.061880E+02  8.136529E+03  1.826429E+03  2.962846E+02
       437   9 -5.760228E+05  1.116341E+04  8.814263E+03  1.885336E+04  2.286724E+03  2.088192E+03
       437  10 -5.902406E+05  7.697407E+03  6.299634E+03  1.877776E+04  9.228114E-09  1.651956E-10
       437  11 -6.278795E+05 -1.666628E+03 -2.597998E+03  8.061075E+03  9.781628E-09 -9.002882E-09
       437  12 -6.657609E+05 -1.092459E+04 -1.181701E+04  1.854148E+04 -1.106591E-08 -1.817009E-09
       437  13 -6.208925E+05  1.603932E+02 -7.112115E+02  1.869725E+04  1.494022E-09  4.944774E-09
       437  14 -6.207706E+05  8.682936E+01 -9.459068E+02  8.098802E+03  2.922641E-10 -5.829377E-09
       437  15 -6.208928E+05  1.194773E+02 -1.501316E+03  1.869741E+04  5.967639E-09 -3.107019E-09
       437  16 -6.515435E+05 -7.376686E+03 -7.722119E+03  1.861675E+04 -7.644508E-09 -3.706921E-09
       437  17 -6.136616E+05  1.840283E+03  7.061815E+02  8.136529E+03 -5.978316E-09 -1.814418E-08
       437  18 -5.760228E+05  1.116340E+04  8.814245E+03  1.885336E+04  8.525547E-09 -6.139473E-09
       437  19 -5.902406E+05  7.697410E+03  6.299641E+03  1.877776E+04  1.040889E+03  1.506734E+03
       437  20 -6.278795E+05 -1.666628E+03 -2.597998E+03  8.061075E+03  5.786091E+02 -2.866981E+02
       437  21 -6.657609E+05 -1.092458E+04 -1.181700E+04  1.854148E+04  1.163376E+02 -2.078621E+03
       437  22 -6.208925E+05  1.603956E+02 -7.112072E+02  1.869725E+04 -1.626766E+02  1.501928E+03
       437  23 -6.207705E+05  8.682956E+01 -9.459059E+02  8.098802E+03 -6.239033E+02 -2.914913E+02
       437  24 -6.208928E+05  1.194822E+02 -1.501306E+03  1.869741E+04 -1.085150E+03 -2.083406E+03
       437  25 -6.515435E+05 -7.376683E+03 -7.722111E+03  1.861675E+04 -1.366183E+03  1.497121E+03
       437  26 -6.136616E+05  1.840284E+03  7.061880E+02  8.136529E+03 -1.826429E+03 -2.962846E+02
       437  27 -5.760228E+05  1.116341E+04  8.814263E+03  1.885336E+04 -2.286724E+03 -2.088192E+03
       438   1 -7.040801E+05 -2.033195E+04 -2.135232E+04  1.830709E+04  1.797715E+02  3.125521E+03
       438   2 -7.414621E+05 -2.964124E+04 -3.133116E+04  7.737203E+03  1.817990E+03  4.916984E+03
       438   3 -7.793861E+05 -3.947943E+04 -4.255373E+04  1.830400E+04  3.456608E+03  6.678212E+03
       438   4 -6.209595E+05  1.927086E+02 -1.923321E+03  1.868311E+04  1.388505E+03  3.130297E+03
       438   5 -6.206916E+05  1.468620E+02 -3.263011E+03  8.116103E+03  3.006689E+03  4.921568E+03
       438   6 -6.209626E+05 -4.240488E+02 -5.832076E+03  1.868553E+04  4.625370E+03  6.682612E+03
       438   7 -5.378326E+05  2.071687E+04  1.750522E+04  1.905916E+04  2.597399E+03  3.135074E+03
       438   8 -4.999075E+05  2.993394E+04  2.480416E+04  8.495064E+03  4.195618E+03  4.926152E+03
       438   9 -4.625160E+05  3.862957E+04  3.088790E+04  1.906714E+04  5.794429E+03  6.687012E+03
       438  10 -7.040801E+05 -2.033196E+04 -2.135234E+04  1.830709E+04 -6.021509E-09  1.277894E-09
       438  11 -7.414622E+05 -2.964127E+04 -3.133121E+04  7.737196E+03  7.140768E-09 -9.346752E-09
       438  12 -7.793861E+05 -3.947948E+04 -4.255383E+04  1.830398E+04  5.044740E-09  1.442697E-09
       438  13 -6.209595E+05  1.926976E+02 -1.923343E+03  1.868310E+04  2.138552E-09 -8.785230E-10
       438  14 -6.206916E+05  1.468336E+02 -3.263074E+03  8.116091E+03 -1.476026E-10  1.119778E-10
       438  15 -6.209627E+05 -4.241025E+02 -5.832200E+03  1.868551E+04  5.360511E-09  3.447905E-09
       438  16 -5.378326E+05  2.071686E+04  1.750519E+04  1.905916E+04  7.698663E-09  6.476288E-09
       438  17 -4.999076E+05  2.993391E+04  2.480408E+04  8.495047E+03 -2.931071E-09 -5.047193E-09
       438  18 -4.625160E+05  3.862951E+04  3.088775E+04  1.906711E+04 -7.665566E-09  8.800070E-09
       438  19 -7.040801E+05 -2.033195E+04 -2.135232E+04  1.830709E+04 -1.797715E+02 -3.125521E+03
       438  20 -7.414621E+05 -2.964124E+04 -3.133116E+04  7.737203E+03 -1.817990E+03 -4.916984E+03
       438  21 -7.793861E+05 -3.947943E+04 -4.255373E+04  1.830400E+04 -3.456608E+03 -6.678212E+03
       438  22 -6.209595E+05  1.927086E+02 -1.923321E+03  1.868311E+04 -1.388505E+03 -3.130297E+03
       438  23 -6.206916E+05  1.468620E+02 -3.263011E+03  8.116103E+03 -3.006689E+03 -4.921568E+03
       438  24 -6.209626E+05 -4.240488E+02 -5.832076E+03  1.868553E+04 -4.625370E+03 -6.682612E+03
       438  25 -5.378326E+05  2.071687E+04  1.750522E+04  1.905916E+04 -2.597399E+03 -3.135074E+03
       438  26 -4.999075E+05  2.993394E+04  2.480416E+04  8.495064E+03 -4.195618E+03 -4.926152E+03
       438  27 -4.625160E+05  3.862957E+04  3.088790E+04  1.906714E+04 -5.794429E+03 -6.687012E+03
       439   1 -8.179912E+05 -4.793010E+04 -5.328717E+04  1.686502E+04  4.473625E+03  7.781346E+03
       439   2 -8.538075E+05 -5.689728E+04 -6.721388E+04  8.126880E+03  1.133090E+04  9.518265E+03
       439   3 -8.927416E+05 -7.412528E+04 -8.771028E+04  2.036302E+04  1.819023E+04  1.074186E+04
       439   4 -6.215255E+05  5.610533E+02 -7.524683E+03  1.863944E+04  5.795799E+03  7.786235E+03
       439   5 -6.200007E+05  7.712813E+02 -1.285947E+04  8.166734E+03  1.231067E+04  9.521638E+03
       439   6 -6.215341E+05 -7.217821E+03 -2.452398E+04  1.866792E+04  1.882800E+04  1.074377E+04
       439   7 -4.250241E+05  4.904948E+04  3.823520E+04  2.041439E+04  7.118388E+03  7.791131E+03
       439   8 -3.861434E+05  5.843598E+04  4.149126E+04  8.206557E+03  1.329080E+04  9.525010E+03
       439   9 -3.502585E+05  5.968444E+04  3.865733E+04  1.697201E+04  1.946605E+04  1.074567E+04
       439  10 -8.179912E+05 -4.793017E+04 -5.328732E+04  1.686499E+04  8.629542E-09  4.344249E-09
       439  11 -8.538076E+05 -5.689741E+04 -6.721429E+04  8.126793E+03  4.541165E-09  4.851750E-09
       439  12 -8.927420E+05 -7.412549E+04 -8.771112E+04  2.036286E+04 -3.740782E-09 -8.281835E-09
       439  13 -6.215255E+05  5.609792E+02 -7.524860E+03  1.863940E+04  2.532921E-09 -4.716592E-09
       439  14 -6.200009E+05  7.711432E+02 -1.285993E+04  8.166640E+03 -8.670175E-10  4.425601E-10
       439  15 -6.215345E+05 -7.218040E+03 -2.452487E+04  1.866776E+04  5.084131E-09 -5.938966E-09
       439  16 -4.250242E+05  4.904940E+04  3.823499E+04  2.041435E+04 -6.549129E-09 -2.911024E-09
       439  17 -3.861436E+05  5.843583E+04  4.149075E+04  8.206455E+03 -2.072710E-09 -2.310026E-08
       439  18 -3.502590E+05  5.968422E+04  3.865641E+04  1.697184E+04  1.148861E-09  1.202434E-09
       439  19 -8.179912E+05 -4.793010E+04 -5.328717E+04  1.686502E+04 -4.473625E+03 -7.781346E+03
       439  20 -8.538075E+05 -5.689728E+04 -6.721388E+04  8.126880E+03 -1.133090E+04 -9.518265E+03
       439  21 -8.927416E+05 -7.412528E+04 -8.771028E+04  2.036302E+04 -1.819023E+04 -1.074186E+04
       439  22 -6.215255E+05  5.610533E+02 -7.524683E+03  1.863944E+04 -5.795799E+03 -7.786235E+03
       439  23 -6.200007E+05  7.712813E+02 -1.285947E+04  8.166734E+03 -1.231067E+04 -9.521638E+03
       439  24 -6.215341E+05 -7.217821E+03 -2.452398E+04  1.866792E+04 -1.882800E+04 -1.074377E+04
       439  25 -4.250241E+05  4.904948E+04  3.823520E+04  2.041439E+04 -7.118388E+03 -7.791131E+03
       439  26 -3.861434E+05  5.843598E+04  4.149126E+04  8.206557E+03 -1.329080E+04 -9.525010E+03
       439  27 -3.502585E+05  5.968444E+04  3.865733E+04  1.697201E+04 -1.946605E+04 -1.074567E+04
       440   1 -9.361510E+05 -7.116871E+04 -1.020408E+05  4.416906E+03  1.977491E+04  1.295127E+04
       440   2 -9.583038E+05 -7.734490E+04 -1.304739E+05  1.854826E+04  5.291584E+04  1.360436E+04
       440   3 -1.010449E+06 -1.857772E+05 -2.060905E+05  5.327809E+04  8.608499E+04  4.697531E+03
       440   4 -6.272680E+05  5.113164E+03 -3.036207E+04  1.847352E+04  2.335211E+04  1.296388E+04
       440   5 -6.128535E+05  7.829983E+03 -4.992406E+04  8.330953E+03  5.008815E+04  1.359339E+04
       440   6 -6.273035E+05 -9.056766E+04 -1.122010E+05  1.878860E+04  7.685486E+04  4.662733E+03
       440   7 -3.182963E+05  8.138902E+04  4.131036E+04  3.253712E+04  2.693108E+04  1.297665E+04
       440   8 -2.672927E+05  9.299684E+04  3.061777E+04 -1.892176E+03  4.725889E+04  1.358250E+04
       440   9 -2.440215E+05  4.635664E+03 -1.832116E+04 -1.572234E+04  6.761902E+04  4.628974E+03
       440  10 -9.361515E+05 -7.116900E+04 -1.020418E+05  4.416699E+03  1.812609E-09 -3.514516E-09
       440  11 -9.583069E+05 -7.734585E+04 -1.304795E+05  1.854768E+04  9.806037E-09 -1.687321E-09
       440  12 -1.010457E+06 -1.857793E+05 -2.061045E+05  5.327776E+04  5.435087E-09  6.453407E-09
       440  13 -6.272686E+05  5.112837E+03 -3.036341E+04  1.847328E+04  1.869227E-09  8.429086E-10
       440  14 -6.128563E+05  7.829111E+03 -4.992913E+04  8.330405E+03  2.393855E-10  6.396581E-09
       440  15 -6.273098E+05 -9.056927E+04 -1.122121E+05  1.878832E+04  4.027882E-09  4.591927E-09
       440  16 -3.182971E+05  8.138865E+04  4.130868E+04  3.253684E+04  4.924866E-11  6.949089E-09
       440  17 -2.672951E+05  9.299604E+04  3.061323E+04 -1.892693E+03 -7.113173E-09  9.284649E-09
       440  18 -2.440264E+05  4.634413E+03 -1.832980E+04 -1.572259E+04 -8.508499E-09  2.289758E-10
       440  19 -9.361510E+05 -7.116871E+04 -1.020408E+05  4.416906E+03 -1.977491E+04 -1.295127E+04
       440  20 -9.583038E+05 -7.734490E+04 -1.304739E+05  1.854826E+04 -5.291584E+04 -1.360436E+04
       440  21 -1.010449E+06 -1.857772E+05 -2.060905E+05  5.327809E+04 -8.608499E+04 -4.697531E+03
       440  22 -6.272680E+05  5.113164E+03 -3.036207E+04  1.847352E+04 -2.335211E+04 -1.296388E+04
       440  23 -6.128535E+05  7.829983E+03 -4.992406E+04  8.330953E+03 -5.008815E+04 -1.359339E+04
       440  24 -6.273035E+05 -9.056766E+04 -1.122010E+05  1.878860E+04 -7.685486E+04 -4.662733E+03
       440  25 -3.182963E+05  8.138902E+04  4.131036E+04  3.253712E+04 -2.693108E+04 -1.297665E+04
       440  26 -2.672927E+05  9.299684E+04  3.061777E+04 -1.892176E+03 -4.725889E+04 -1.358250E+04
       440  27 -2.440215E+05  4.635664E+03 -1.832116E+04 -1.572234E+04 -6.761902E+04 -4.628974E+03
