    1C
    1UUSER                                                              
    1UDATE              11.october.2022                                 
    1UTIME              17:33:23                                        
    1UHOST                                                              
    1UPGM               CalculiX                                        
    1UVERSION           Version 2.20                             
    1UCOMPILETIME       Sun Jul 31 18:08:37 CEST 2022                    
    1UDIR                                                               
    1UDBN                                                               
    1UMAT    1MESH_MATERIAL                                             
    2C                           841                                     1
 -1         1 0.00000E+00 0.00000E+00 0.00000E+00
 -1         2 1.66667E-02 0.00000E+00 0.00000E+00
 -1         3 3.33333E-02 0.00000E+00 0.00000E+00
 -1         4 5.00000E-02 0.00000E+00 0.00000E+00
 -1         5 6.66667E-02 0.00000E+00 0.00000E+00
 -1         8 0.00000E+00 6.25000E-03 0.00000E+00
 -1         9 1.66667E-02 6.25000E-03 0.00000E+00
 -1        10 3.33333E-02 6.25000E-03 0.00000E+00
 -1        11 5.00000E-02 6.25000E-03 0.00000E+00
 -1        12 6.66667E-02 6.25000E-03 0.00000E+00
 -1        15 0.00000E+00 1.25000E-02 0.00000E+00
 -1        16 1.66667E-02 1.25000E-02 0.00000E+00
 -1        17 3.33333E-02 1.25000E-02 0.00000E+00
 -1        18 5.00000E-02 1.25000E-02 0.00000E+00
 -1        19 6.66667E-02 1.25000E-02 0.00000E+00
 -1        20 8.33333E-02 1.25000E-02 0.00000E+00
 -1        21 1.00000E-01 1.25000E-02 0.00000E+00
 -1        22 0.00000E+00 1.87500E-02 0.00000E+00
 -1        23 1.66667E-02 1.87500E-02 0.00000E+00
 -1        24 3.33333E-02 1.87500E-02 0.00000E+00
 -1        25 5.00000E-02 1.87500E-02 0.00000E+00
 -1        26 6.66667E-02 1.87500E-02 0.00000E+00
 -1        27 8.33333E-02 1.87500E-02 0.00000E+00
 -1        28 1.00000E-01 1.87500E-02 0.00000E+00
 -1        29 0.00000E+00 2.50000E-02 0.00000E+00
 -1        30 1.66667E-02 2.50000E-02 0.00000E+00
 -1        31 3.33333E-02 2.50000E-02 0.00000E+00
 -1        32 5.00000E-02 2.50000E-02 0.00000E+00
 -1        33 6.66667E-02 2.50000E-02 0.00000E+00
 -1        34 8.33333E-02 2.50000E-02 0.00000E+00
 -1        35 1.00000E-01 2.50000E-02 0.00000E+00
 -1        36 1.04167E-03 0.00000E+00 0.00000E+00
 -1        37 2.08333E-03 0.00000E+00 0.00000E+00
 -1        38 3.12500E-03 0.00000E+00 0.00000E+00
 -1        39 4.16667E-03 0.00000E+00 0.00000E+00
 -1        40 5.20833E-03 0.00000E+00 0.00000E+00
 -1        41 6.25000E-03 0.00000E+00 0.00000E+00
 -1        42 7.29167E-03 0.00000E+00 0.00000E+00
 -1        43 8.33333E-03 0.00000E+00 0.00000E+00
 -1        44 9.37500E-03 0.00000E+00 0.00000E+00
 -1        45 1.04167E-02 0.00000E+00 0.00000E+00
 -1        46 1.14583E-02 0.00000E+00 0.00000E+00
 -1        47 1.25000E-02 0.00000E+00 0.00000E+00
 -1        48 1.35417E-02 0.00000E+00 0.00000E+00
 -1        49 1.45833E-02 0.00000E+00 0.00000E+00
 -1        50 1.56250E-02 0.00000E+00 0.00000E+00
 -1        51 0.00000E+00 1.04167E-03 0.00000E+00
 -1        52 0.00000E+00 2.08333E-03 0.00000E+00
 -1        53 0.00000E+00 3.12500E-03 0.00000E+00
 -1        54 0.00000E+00 4.16667E-03 0.00000E+00
 -1        55 0.00000E+00 5.20833E-03 0.00000E+00
 -1        56 1.04167E-03 3.90630E-04 0.00000E+00
 -1        57 2.08333E-03 7.81250E-04 0.00000E+00
 -1        58 3.12500E-03 1.17188E-03 0.00000E+00
 -1        59 4.16667E-03 1.56250E-03 0.00000E+00
 -1        60 5.20833E-03 1.95312E-03 0.00000E+00
 -1        61 6.25000E-03 2.34375E-03 0.00000E+00
 -1        62 7.29167E-03 2.73438E-03 0.00000E+00
 -1        63 8.33333E-03 3.12500E-03 0.00000E+00
 -1        64 9.37500E-03 3.51563E-03 0.00000E+00
 -1        65 1.04167E-02 3.90625E-03 0.00000E+00
 -1        66 1.14583E-02 4.29688E-03 0.00000E+00
 -1        67 1.25000E-02 4.68750E-03 0.00000E+00
 -1        68 1.35417E-02 5.07813E-03 0.00000E+00
 -1        69 1.45833E-02 5.46875E-03 0.00000E+00
 -1        70 1.56250E-02 5.85938E-03 0.00000E+00
 -1        71 1.77083E-02 0.00000E+00 0.00000E+00
 -1        72 1.87500E-02 0.00000E+00 0.00000E+00
 -1        73 1.97917E-02 0.00000E+00 0.00000E+00
 -1        74 2.08333E-02 0.00000E+00 0.00000E+00
 -1        75 2.18750E-02 0.00000E+00 0.00000E+00
 -1        76 2.29167E-02 0.00000E+00 0.00000E+00
 -1        77 2.39583E-02 0.00000E+00 0.00000E+00
 -1        78 2.50000E-02 0.00000E+00 0.00000E+00
 -1        79 2.60417E-02 0.00000E+00 0.00000E+00
 -1        80 2.70833E-02 0.00000E+00 0.00000E+00
 -1        81 2.81250E-02 0.00000E+00 0.00000E+00
 -1        82 2.91667E-02 0.00000E+00 0.00000E+00
 -1        83 3.02083E-02 0.00000E+00 0.00000E+00
 -1        84 3.12500E-02 0.00000E+00 0.00000E+00
 -1        85 3.22917E-02 0.00000E+00 0.00000E+00
 -1        86 1.66667E-02 1.04167E-03 0.00000E+00
 -1        87 1.66667E-02 2.08333E-03 0.00000E+00
 -1        88 1.66667E-02 3.12500E-03 0.00000E+00
 -1        89 1.66667E-02 4.16667E-03 0.00000E+00
 -1        90 1.66667E-02 5.20833E-03 0.00000E+00
 -1        91 1.77083E-02 3.90630E-04 0.00000E+00
 -1        92 1.87500E-02 7.81250E-04 0.00000E+00
 -1        93 1.97917E-02 1.17188E-03 0.00000E+00
 -1        94 2.08333E-02 1.56250E-03 0.00000E+00
 -1        95 2.18750E-02 1.95312E-03 0.00000E+00
 -1        96 2.29167E-02 2.34375E-03 0.00000E+00
 -1        97 2.39583E-02 2.73438E-03 0.00000E+00
 -1        98 2.50000E-02 3.12500E-03 0.00000E+00
 -1        99 2.60417E-02 3.51563E-03 0.00000E+00
 -1       100 2.70833E-02 3.90625E-03 0.00000E+00
 -1       101 2.81250E-02 4.29688E-03 0.00000E+00
 -1       102 2.91667E-02 4.68750E-03 0.00000E+00
 -1       103 3.02083E-02 5.07813E-03 0.00000E+00
 -1       104 3.12500E-02 5.46875E-03 0.00000E+00
 -1       105 3.22917E-02 5.85938E-03 0.00000E+00
 -1       106 3.43750E-02 0.00000E+00 0.00000E+00
 -1       107 3.54167E-02 0.00000E+00 0.00000E+00
 -1       108 3.64583E-02 0.00000E+00 0.00000E+00
 -1       109 3.75000E-02 0.00000E+00 0.00000E+00
 -1       110 3.85417E-02 0.00000E+00 0.00000E+00
 -1       111 3.95833E-02 0.00000E+00 0.00000E+00
 -1       112 4.06250E-02 0.00000E+00 0.00000E+00
 -1       113 4.16667E-02 0.00000E+00 0.00000E+00
 -1       114 4.27083E-02 0.00000E+00 0.00000E+00
 -1       115 4.37500E-02 0.00000E+00 0.00000E+00
 -1       116 4.47917E-02 0.00000E+00 0.00000E+00
 -1       117 4.58333E-02 0.00000E+00 0.00000E+00
 -1       118 4.68750E-02 0.00000E+00 0.00000E+00
 -1       119 4.79167E-02 0.00000E+00 0.00000E+00
 -1       120 4.89583E-02 0.00000E+00 0.00000E+00
 -1       121 3.33333E-02 1.04167E-03 0.00000E+00
 -1       122 3.33333E-02 2.08333E-03 0.00000E+00
 -1       123 3.33333E-02 3.12500E-03 0.00000E+00
 -1       124 3.33333E-02 4.16667E-03 0.00000E+00
 -1       125 3.33333E-02 5.20833E-03 0.00000E+00
 -1       126 3.43750E-02 3.90630E-04 0.00000E+00
 -1       127 3.54167E-02 7.81250E-04 0.00000E+00
 -1       128 3.64583E-02 1.17188E-03 0.00000E+00
 -1       129 3.75000E-02 1.56250E-03 0.00000E+00
 -1       130 3.85417E-02 1.95312E-03 0.00000E+00
 -1       131 3.95833E-02 2.34375E-03 0.00000E+00
 -1       132 4.06250E-02 2.73438E-03 0.00000E+00
 -1       133 4.16667E-02 3.12500E-03 0.00000E+00
 -1       134 4.27083E-02 3.51563E-03 0.00000E+00
 -1       135 4.37500E-02 3.90625E-03 0.00000E+00
 -1       136 4.47917E-02 4.29688E-03 0.00000E+00
 -1       137 4.58333E-02 4.68750E-03 0.00000E+00
 -1       138 4.68750E-02 5.07813E-03 0.00000E+00
 -1       139 4.79167E-02 5.46875E-03 0.00000E+00
 -1       140 4.89583E-02 5.85938E-03 0.00000E+00
 -1       141 5.10417E-02 0.00000E+00 0.00000E+00
 -1       142 5.20833E-02 0.00000E+00 0.00000E+00
 -1       143 5.31250E-02 0.00000E+00 0.00000E+00
 -1       144 5.41667E-02 0.00000E+00 0.00000E+00
 -1       145 5.52083E-02 0.00000E+00 0.00000E+00
 -1       146 5.62500E-02 0.00000E+00 0.00000E+00
 -1       147 5.72917E-02 0.00000E+00 0.00000E+00
 -1       148 5.83333E-02 0.00000E+00 0.00000E+00
 -1       149 5.93750E-02 0.00000E+00 0.00000E+00
 -1       150 6.04167E-02 0.00000E+00 0.00000E+00
 -1       151 6.14583E-02 0.00000E+00 0.00000E+00
 -1       152 6.25000E-02 0.00000E+00 0.00000E+00
 -1       153 6.35417E-02 0.00000E+00 0.00000E+00
 -1       154 6.45833E-02 0.00000E+00 0.00000E+00
 -1       155 6.56250E-02 0.00000E+00 0.00000E+00
 -1       156 5.00000E-02 1.04167E-03 0.00000E+00
 -1       157 5.00000E-02 2.08333E-03 0.00000E+00
 -1       158 5.00000E-02 3.12500E-03 0.00000E+00
 -1       159 5.00000E-02 4.16667E-03 0.00000E+00
 -1       160 5.00000E-02 5.20833E-03 0.00000E+00
 -1       161 5.10417E-02 3.90630E-04 0.00000E+00
 -1       162 5.20833E-02 7.81250E-04 0.00000E+00
 -1       163 5.31250E-02 1.17188E-03 0.00000E+00
 -1       164 5.41667E-02 1.56250E-03 0.00000E+00
 -1       165 5.52083E-02 1.95312E-03 0.00000E+00
 -1       166 5.62500E-02 2.34375E-03 0.00000E+00
 -1       167 5.72917E-02 2.73438E-03 0.00000E+00
 -1       168 5.83333E-02 3.12500E-03 0.00000E+00
 -1       169 5.93750E-02 3.51563E-03 0.00000E+00
 -1       170 6.04167E-02 3.90625E-03 0.00000E+00
 -1       171 6.14583E-02 4.29688E-03 0.00000E+00
 -1       172 6.25000E-02 4.68750E-03 0.00000E+00
 -1       173 6.35417E-02 5.07813E-03 0.00000E+00
 -1       174 6.45833E-02 5.46875E-03 0.00000E+00
 -1       175 6.56250E-02 5.85938E-03 0.00000E+00
 -1       191 6.66667E-02 1.04167E-03 0.00000E+00
 -1       192 6.66667E-02 2.08333E-03 0.00000E+00
 -1       193 6.66667E-02 3.12500E-03 0.00000E+00
 -1       194 6.66667E-02 4.16667E-03 0.00000E+00
 -1       195 6.66667E-02 5.20833E-03 0.00000E+00
 -1       251 1.04167E-03 6.25000E-03 0.00000E+00
 -1       252 2.08333E-03 6.25000E-03 0.00000E+00
 -1       253 3.12500E-03 6.25000E-03 0.00000E+00
 -1       254 4.16667E-03 6.25000E-03 0.00000E+00
 -1       255 5.20833E-03 6.25000E-03 0.00000E+00
 -1       256 6.25000E-03 6.25000E-03 0.00000E+00
 -1       257 7.29167E-03 6.25000E-03 0.00000E+00
 -1       258 8.33333E-03 6.25000E-03 0.00000E+00
 -1       259 9.37500E-03 6.25000E-03 0.00000E+00
 -1       260 1.04167E-02 6.25000E-03 0.00000E+00
 -1       261 1.14583E-02 6.25000E-03 0.00000E+00
 -1       262 1.25000E-02 6.25000E-03 0.00000E+00
 -1       263 1.35417E-02 6.25000E-03 0.00000E+00
 -1       264 1.45833E-02 6.25000E-03 0.00000E+00
 -1       265 1.56250E-02 6.25000E-03 0.00000E+00
 -1       266 0.00000E+00 7.29167E-03 0.00000E+00
 -1       267 0.00000E+00 8.33333E-03 0.00000E+00
 -1       268 0.00000E+00 9.37500E-03 0.00000E+00
 -1       269 0.00000E+00 1.04167E-02 0.00000E+00
 -1       270 0.00000E+00 1.14583E-02 0.00000E+00
 -1       271 1.04167E-03 6.64063E-03 0.00000E+00
 -1       272 2.08333E-03 7.03125E-03 0.00000E+00
 -1       273 3.12500E-03 7.42188E-03 0.00000E+00
 -1       274 4.16667E-03 7.81250E-03 0.00000E+00
 -1       275 5.20833E-03 8.20313E-03 0.00000E+00
 -1       276 6.25000E-03 8.59375E-03 0.00000E+00
 -1       277 7.29167E-03 8.98438E-03 0.00000E+00
 -1       278 8.33333E-03 9.37500E-03 0.00000E+00
 -1       279 9.37500E-03 9.76562E-03 0.00000E+00
 -1       280 1.04167E-02 1.01562E-02 0.00000E+00
 -1       281 1.14583E-02 1.05469E-02 0.00000E+00
 -1       282 1.25000E-02 1.09375E-02 0.00000E+00
 -1       283 1.35417E-02 1.13281E-02 0.00000E+00
 -1       284 1.45833E-02 1.17188E-02 0.00000E+00
 -1       285 1.56250E-02 1.21094E-02 0.00000E+00
 -1       286 1.77083E-02 6.25000E-03 0.00000E+00
 -1       287 1.87500E-02 6.25000E-03 0.00000E+00
 -1       288 1.97917E-02 6.25000E-03 0.00000E+00
 -1       289 2.08333E-02 6.25000E-03 0.00000E+00
 -1       290 2.18750E-02 6.25000E-03 0.00000E+00
 -1       291 2.29167E-02 6.25000E-03 0.00000E+00
 -1       292 2.39583E-02 6.25000E-03 0.00000E+00
 -1       293 2.50000E-02 6.25000E-03 0.00000E+00
 -1       294 2.60417E-02 6.25000E-03 0.00000E+00
 -1       295 2.70833E-02 6.25000E-03 0.00000E+00
 -1       296 2.81250E-02 6.25000E-03 0.00000E+00
 -1       297 2.91667E-02 6.25000E-03 0.00000E+00
 -1       298 3.02083E-02 6.25000E-03 0.00000E+00
 -1       299 3.12500E-02 6.25000E-03 0.00000E+00
 -1       300 3.22917E-02 6.25000E-03 0.00000E+00
 -1       301 1.66667E-02 7.29167E-03 0.00000E+00
 -1       302 1.66667E-02 8.33333E-03 0.00000E+00
 -1       303 1.66667E-02 9.37500E-03 0.00000E+00
 -1       304 1.66667E-02 1.04167E-02 0.00000E+00
 -1       305 1.66667E-02 1.14583E-02 0.00000E+00
 -1       306 1.77083E-02 6.64063E-03 0.00000E+00
 -1       307 1.87500E-02 7.03125E-03 0.00000E+00
 -1       308 1.97917E-02 7.42188E-03 0.00000E+00
 -1       309 2.08333E-02 7.81250E-03 0.00000E+00
 -1       310 2.18750E-02 8.20313E-03 0.00000E+00
 -1       311 2.29167E-02 8.59375E-03 0.00000E+00
 -1       312 2.39583E-02 8.98438E-03 0.00000E+00
 -1       313 2.50000E-02 9.37500E-03 0.00000E+00
 -1       314 2.60417E-02 9.76562E-03 0.00000E+00
 -1       315 2.70833E-02 1.01562E-02 0.00000E+00
 -1       316 2.81250E-02 1.05469E-02 0.00000E+00
 -1       317 2.91667E-02 1.09375E-02 0.00000E+00
 -1       318 3.02083E-02 1.13281E-02 0.00000E+00
 -1       319 3.12500E-02 1.17188E-02 0.00000E+00
 -1       320 3.22917E-02 1.21094E-02 0.00000E+00
 -1       321 3.43750E-02 6.25000E-03 0.00000E+00
 -1       322 3.54167E-02 6.25000E-03 0.00000E+00
 -1       323 3.64583E-02 6.25000E-03 0.00000E+00
 -1       324 3.75000E-02 6.25000E-03 0.00000E+00
 -1       325 3.85417E-02 6.25000E-03 0.00000E+00
 -1       326 3.95833E-02 6.25000E-03 0.00000E+00
 -1       327 4.06250E-02 6.25000E-03 0.00000E+00
 -1       328 4.16667E-02 6.25000E-03 0.00000E+00
 -1       329 4.27083E-02 6.25000E-03 0.00000E+00
 -1       330 4.37500E-02 6.25000E-03 0.00000E+00
 -1       331 4.47917E-02 6.25000E-03 0.00000E+00
 -1       332 4.58333E-02 6.25000E-03 0.00000E+00
 -1       333 4.68750E-02 6.25000E-03 0.00000E+00
 -1       334 4.79167E-02 6.25000E-03 0.00000E+00
 -1       335 4.89583E-02 6.25000E-03 0.00000E+00
 -1       336 3.33333E-02 7.29167E-03 0.00000E+00
 -1       337 3.33333E-02 8.33333E-03 0.00000E+00
 -1       338 3.33333E-02 9.37500E-03 0.00000E+00
 -1       339 3.33333E-02 1.04167E-02 0.00000E+00
 -1       340 3.33333E-02 1.14583E-02 0.00000E+00
 -1       341 3.43750E-02 6.64063E-03 0.00000E+00
 -1       342 3.54167E-02 7.03125E-03 0.00000E+00
 -1       343 3.64583E-02 7.42188E-03 0.00000E+00
 -1       344 3.75000E-02 7.81250E-03 0.00000E+00
 -1       345 3.85417E-02 8.20313E-03 0.00000E+00
 -1       346 3.95833E-02 8.59375E-03 0.00000E+00
 -1       347 4.06250E-02 8.98438E-03 0.00000E+00
 -1       348 4.16667E-02 9.37500E-03 0.00000E+00
 -1       349 4.27083E-02 9.76562E-03 0.00000E+00
 -1       350 4.37500E-02 1.01562E-02 0.00000E+00
 -1       351 4.47917E-02 1.05469E-02 0.00000E+00
 -1       352 4.58333E-02 1.09375E-02 0.00000E+00
 -1       353 4.68750E-02 1.13281E-02 0.00000E+00
 -1       354 4.79167E-02 1.17188E-02 0.00000E+00
 -1       355 4.89583E-02 1.21094E-02 0.00000E+00
 -1       356 5.10417E-02 6.25000E-03 0.00000E+00
 -1       357 5.20833E-02 6.25000E-03 0.00000E+00
 -1       358 5.31250E-02 6.25000E-03 0.00000E+00
 -1       359 5.41667E-02 6.25000E-03 0.00000E+00
 -1       360 5.52083E-02 6.25000E-03 0.00000E+00
 -1       361 5.62500E-02 6.25000E-03 0.00000E+00
 -1       362 5.72917E-02 6.25000E-03 0.00000E+00
 -1       363 5.83333E-02 6.25000E-03 0.00000E+00
 -1       364 5.93750E-02 6.25000E-03 0.00000E+00
 -1       365 6.04167E-02 6.25000E-03 0.00000E+00
 -1       366 6.14583E-02 6.25000E-03 0.00000E+00
 -1       367 6.25000E-02 6.25000E-03 0.00000E+00
 -1       368 6.35417E-02 6.25000E-03 0.00000E+00
 -1       369 6.45833E-02 6.25000E-03 0.00000E+00
 -1       370 6.56250E-02 6.25000E-03 0.00000E+00
 -1       371 5.00000E-02 7.29167E-03 0.00000E+00
 -1       372 5.00000E-02 8.33333E-03 0.00000E+00
 -1       373 5.00000E-02 9.37500E-03 0.00000E+00
 -1       374 5.00000E-02 1.04167E-02 0.00000E+00
 -1       375 5.00000E-02 1.14583E-02 0.00000E+00
 -1       376 5.10417E-02 6.64063E-03 0.00000E+00
 -1       377 5.20833E-02 7.03125E-03 0.00000E+00
 -1       378 5.31250E-02 7.42188E-03 0.00000E+00
 -1       379 5.41667E-02 7.81250E-03 0.00000E+00
 -1       380 5.52083E-02 8.20313E-03 0.00000E+00
 -1       381 5.62500E-02 8.59375E-03 0.00000E+00
 -1       382 5.72917E-02 8.98438E-03 0.00000E+00
 -1       383 5.83333E-02 9.37500E-03 0.00000E+00
 -1       384 5.93750E-02 9.76562E-03 0.00000E+00
 -1       385 6.04167E-02 1.01562E-02 0.00000E+00
 -1       386 6.14583E-02 1.05469E-02 0.00000E+00
 -1       387 6.25000E-02 1.09375E-02 0.00000E+00
 -1       388 6.35417E-02 1.13281E-02 0.00000E+00
 -1       389 6.45833E-02 1.17188E-02 0.00000E+00
 -1       390 6.56250E-02 1.21094E-02 0.00000E+00
 -1       406 6.66667E-02 7.29167E-03 0.00000E+00
 -1       407 6.66667E-02 8.33333E-03 0.00000E+00
 -1       408 6.66667E-02 9.37500E-03 0.00000E+00
 -1       409 6.66667E-02 1.04167E-02 0.00000E+00
 -1       410 6.66667E-02 1.14583E-02 0.00000E+00
 -1       466 1.04167E-03 1.25000E-02 0.00000E+00
 -1       467 2.08333E-03 1.25000E-02 0.00000E+00
 -1       468 3.12500E-03 1.25000E-02 0.00000E+00
 -1       469 4.16667E-03 1.25000E-02 0.00000E+00
 -1       470 5.20833E-03 1.25000E-02 0.00000E+00
 -1       471 6.25000E-03 1.25000E-02 0.00000E+00
 -1       472 7.29167E-03 1.25000E-02 0.00000E+00
 -1       473 8.33333E-03 1.25000E-02 0.00000E+00
 -1       474 9.37500E-03 1.25000E-02 0.00000E+00
 -1       475 1.04167E-02 1.25000E-02 0.00000E+00
 -1       476 1.14583E-02 1.25000E-02 0.00000E+00
 -1       477 1.25000E-02 1.25000E-02 0.00000E+00
 -1       478 1.35417E-02 1.25000E-02 0.00000E+00
 -1       479 1.45833E-02 1.25000E-02 0.00000E+00
 -1       480 1.56250E-02 1.25000E-02 0.00000E+00
 -1       481 0.00000E+00 1.35417E-02 0.00000E+00
 -1       482 0.00000E+00 1.45833E-02 0.00000E+00
 -1       483 0.00000E+00 1.56250E-02 0.00000E+00
 -1       484 0.00000E+00 1.66667E-02 0.00000E+00
 -1       485 0.00000E+00 1.77083E-02 0.00000E+00
 -1       486 1.04167E-03 1.28906E-02 0.00000E+00
 -1       487 2.08333E-03 1.32813E-02 0.00000E+00
 -1       488 3.12500E-03 1.36719E-02 0.00000E+00
 -1       489 4.16667E-03 1.40625E-02 0.00000E+00
 -1       490 5.20833E-03 1.44531E-02 0.00000E+00
 -1       491 6.25000E-03 1.48437E-02 0.00000E+00
 -1       492 7.29167E-03 1.52344E-02 0.00000E+00
 -1       493 8.33333E-03 1.56250E-02 0.00000E+00
 -1       494 9.37500E-03 1.60156E-02 0.00000E+00
 -1       495 1.04167E-02 1.64062E-02 0.00000E+00
 -1       496 1.14583E-02 1.67969E-02 0.00000E+00
 -1       497 1.25000E-02 1.71875E-02 0.00000E+00
 -1       498 1.35417E-02 1.75781E-02 0.00000E+00
 -1       499 1.45833E-02 1.79687E-02 0.00000E+00
 -1       500 1.56250E-02 1.83594E-02 0.00000E+00
 -1       501 1.77083E-02 1.25000E-02 0.00000E+00
 -1       502 1.87500E-02 1.25000E-02 0.00000E+00
 -1       503 1.97917E-02 1.25000E-02 0.00000E+00
 -1       504 2.08333E-02 1.25000E-02 0.00000E+00
 -1       505 2.18750E-02 1.25000E-02 0.00000E+00
 -1       506 2.29167E-02 1.25000E-02 0.00000E+00
 -1       507 2.39583E-02 1.25000E-02 0.00000E+00
 -1       508 2.50000E-02 1.25000E-02 0.00000E+00
 -1       509 2.60417E-02 1.25000E-02 0.00000E+00
 -1       510 2.70833E-02 1.25000E-02 0.00000E+00
 -1       511 2.81250E-02 1.25000E-02 0.00000E+00
 -1       512 2.91667E-02 1.25000E-02 0.00000E+00
 -1       513 3.02083E-02 1.25000E-02 0.00000E+00
 -1       514 3.12500E-02 1.25000E-02 0.00000E+00
 -1       515 3.22917E-02 1.25000E-02 0.00000E+00
 -1       516 1.66667E-02 1.35417E-02 0.00000E+00
 -1       517 1.66667E-02 1.45833E-02 0.00000E+00
 -1       518 1.66667E-02 1.56250E-02 0.00000E+00
 -1       519 1.66667E-02 1.66667E-02 0.00000E+00
 -1       520 1.66667E-02 1.77083E-02 0.00000E+00
 -1       521 1.77083E-02 1.28906E-02 0.00000E+00
 -1       522 1.87500E-02 1.32813E-02 0.00000E+00
 -1       523 1.97917E-02 1.36719E-02 0.00000E+00
 -1       524 2.08333E-02 1.40625E-02 0.00000E+00
 -1       525 2.18750E-02 1.44531E-02 0.00000E+00
 -1       526 2.29167E-02 1.48437E-02 0.00000E+00
 -1       527 2.39583E-02 1.52344E-02 0.00000E+00
 -1       528 2.50000E-02 1.56250E-02 0.00000E+00
 -1       529 2.60417E-02 1.60156E-02 0.00000E+00
 -1       530 2.70833E-02 1.64062E-02 0.00000E+00
 -1       531 2.81250E-02 1.67969E-02 0.00000E+00
 -1       532 2.91667E-02 1.71875E-02 0.00000E+00
 -1       533 3.02083E-02 1.75781E-02 0.00000E+00
 -1       534 3.12500E-02 1.79687E-02 0.00000E+00
 -1       535 3.22917E-02 1.83594E-02 0.00000E+00
 -1       536 3.43750E-02 1.25000E-02 0.00000E+00
 -1       537 3.54167E-02 1.25000E-02 0.00000E+00
 -1       538 3.64583E-02 1.25000E-02 0.00000E+00
 -1       539 3.75000E-02 1.25000E-02 0.00000E+00
 -1       540 3.85417E-02 1.25000E-02 0.00000E+00
 -1       541 3.95833E-02 1.25000E-02 0.00000E+00
 -1       542 4.06250E-02 1.25000E-02 0.00000E+00
 -1       543 4.16667E-02 1.25000E-02 0.00000E+00
 -1       544 4.27083E-02 1.25000E-02 0.00000E+00
 -1       545 4.37500E-02 1.25000E-02 0.00000E+00
 -1       546 4.47917E-02 1.25000E-02 0.00000E+00
 -1       547 4.58333E-02 1.25000E-02 0.00000E+00
 -1       548 4.68750E-02 1.25000E-02 0.00000E+00
 -1       549 4.79167E-02 1.25000E-02 0.00000E+00
 -1       550 4.89583E-02 1.25000E-02 0.00000E+00
 -1       551 3.33333E-02 1.35417E-02 0.00000E+00
 -1       552 3.33333E-02 1.45833E-02 0.00000E+00
 -1       553 3.33333E-02 1.56250E-02 0.00000E+00
 -1       554 3.33333E-02 1.66667E-02 0.00000E+00
 -1       555 3.33333E-02 1.77083E-02 0.00000E+00
 -1       556 3.43750E-02 1.28906E-02 0.00000E+00
 -1       557 3.54167E-02 1.32813E-02 0.00000E+00
 -1       558 3.64583E-02 1.36719E-02 0.00000E+00
 -1       559 3.75000E-02 1.40625E-02 0.00000E+00
 -1       560 3.85417E-02 1.44531E-02 0.00000E+00
 -1       561 3.95833E-02 1.48437E-02 0.00000E+00
 -1       562 4.06250E-02 1.52344E-02 0.00000E+00
 -1       563 4.16667E-02 1.56250E-02 0.00000E+00
 -1       564 4.27083E-02 1.60156E-02 0.00000E+00
 -1       565 4.37500E-02 1.64062E-02 0.00000E+00
 -1       566 4.47917E-02 1.67969E-02 0.00000E+00
 -1       567 4.58333E-02 1.71875E-02 0.00000E+00
 -1       568 4.68750E-02 1.75781E-02 0.00000E+00
 -1       569 4.79167E-02 1.79687E-02 0.00000E+00
 -1       570 4.89583E-02 1.83594E-02 0.00000E+00
 -1       571 5.10417E-02 1.25000E-02 0.00000E+00
 -1       572 5.20833E-02 1.25000E-02 0.00000E+00
 -1       573 5.31250E-02 1.25000E-02 0.00000E+00
 -1       574 5.41667E-02 1.25000E-02 0.00000E+00
 -1       575 5.52083E-02 1.25000E-02 0.00000E+00
 -1       576 5.62500E-02 1.25000E-02 0.00000E+00
 -1       577 5.72917E-02 1.25000E-02 0.00000E+00
 -1       578 5.83333E-02 1.25000E-02 0.00000E+00
 -1       579 5.93750E-02 1.25000E-02 0.00000E+00
 -1       580 6.04167E-02 1.25000E-02 0.00000E+00
 -1       581 6.14583E-02 1.25000E-02 0.00000E+00
 -1       582 6.25000E-02 1.25000E-02 0.00000E+00
 -1       583 6.35417E-02 1.25000E-02 0.00000E+00
 -1       584 6.45833E-02 1.25000E-02 0.00000E+00
 -1       585 6.56250E-02 1.25000E-02 0.00000E+00
 -1       586 5.00000E-02 1.35417E-02 0.00000E+00
 -1       587 5.00000E-02 1.45833E-02 0.00000E+00
 -1       588 5.00000E-02 1.56250E-02 0.00000E+00
 -1       589 5.00000E-02 1.66667E-02 0.00000E+00
 -1       590 5.00000E-02 1.77083E-02 0.00000E+00
 -1       591 5.10417E-02 1.28906E-02 0.00000E+00
 -1       592 5.20833E-02 1.32813E-02 0.00000E+00
 -1       593 5.31250E-02 1.36719E-02 0.00000E+00
 -1       594 5.41667E-02 1.40625E-02 0.00000E+00
 -1       595 5.52083E-02 1.44531E-02 0.00000E+00
 -1       596 5.62500E-02 1.48437E-02 0.00000E+00
 -1       597 5.72917E-02 1.52344E-02 0.00000E+00
 -1       598 5.83333E-02 1.56250E-02 0.00000E+00
 -1       599 5.93750E-02 1.60156E-02 0.00000E+00
 -1       600 6.04167E-02 1.64062E-02 0.00000E+00
 -1       601 6.14583E-02 1.67969E-02 0.00000E+00
 -1       602 6.25000E-02 1.71875E-02 0.00000E+00
 -1       603 6.35417E-02 1.75781E-02 0.00000E+00
 -1       604 6.45833E-02 1.79687E-02 0.00000E+00
 -1       605 6.56250E-02 1.83594E-02 0.00000E+00
 -1       606 6.77083E-02 1.25000E-02 0.00000E+00
 -1       607 6.87500E-02 1.25000E-02 0.00000E+00
 -1       608 6.97917E-02 1.25000E-02 0.00000E+00
 -1       609 7.08333E-02 1.25000E-02 0.00000E+00
 -1       610 7.18750E-02 1.25000E-02 0.00000E+00
 -1       611 7.29167E-02 1.25000E-02 0.00000E+00
 -1       612 7.39583E-02 1.25000E-02 0.00000E+00
 -1       613 7.50000E-02 1.25000E-02 0.00000E+00
 -1       614 7.60417E-02 1.25000E-02 0.00000E+00
 -1       615 7.70833E-02 1.25000E-02 0.00000E+00
 -1       616 7.81250E-02 1.25000E-02 0.00000E+00
 -1       617 7.91667E-02 1.25000E-02 0.00000E+00
 -1       618 8.02083E-02 1.25000E-02 0.00000E+00
 -1       619 8.12500E-02 1.25000E-02 0.00000E+00
 -1       620 8.22917E-02 1.25000E-02 0.00000E+00
 -1       621 6.66667E-02 1.35417E-02 0.00000E+00
 -1       622 6.66667E-02 1.45833E-02 0.00000E+00
 -1       623 6.66667E-02 1.56250E-02 0.00000E+00
 -1       624 6.66667E-02 1.66667E-02 0.00000E+00
 -1       625 6.66667E-02 1.77083E-02 0.00000E+00
 -1       626 6.77083E-02 1.28906E-02 0.00000E+00
 -1       627 6.87500E-02 1.32813E-02 0.00000E+00
 -1       628 6.97917E-02 1.36719E-02 0.00000E+00
 -1       629 7.08333E-02 1.40625E-02 0.00000E+00
 -1       630 7.18750E-02 1.44531E-02 0.00000E+00
 -1       631 7.29167E-02 1.48437E-02 0.00000E+00
 -1       632 7.39583E-02 1.52344E-02 0.00000E+00
 -1       633 7.50000E-02 1.56250E-02 0.00000E+00
 -1       634 7.60417E-02 1.60156E-02 0.00000E+00
 -1       635 7.70833E-02 1.64062E-02 0.00000E+00
 -1       636 7.81250E-02 1.67969E-02 0.00000E+00
 -1       637 7.91667E-02 1.71875E-02 0.00000E+00
 -1       638 8.02083E-02 1.75781E-02 0.00000E+00
 -1       639 8.12500E-02 1.79687E-02 0.00000E+00
 -1       640 8.22917E-02 1.83594E-02 0.00000E+00
 -1       641 8.43750E-02 1.25000E-02 0.00000E+00
 -1       642 8.54167E-02 1.25000E-02 0.00000E+00
 -1       643 8.64583E-02 1.25000E-02 0.00000E+00
 -1       644 8.75000E-02 1.25000E-02 0.00000E+00
 -1       645 8.85417E-02 1.25000E-02 0.00000E+00
 -1       646 8.95833E-02 1.25000E-02 0.00000E+00
 -1       647 9.06250E-02 1.25000E-02 0.00000E+00
 -1       648 9.16667E-02 1.25000E-02 0.00000E+00
 -1       649 9.27083E-02 1.25000E-02 0.00000E+00
 -1       650 9.37500E-02 1.25000E-02 0.00000E+00
 -1       651 9.47917E-02 1.25000E-02 0.00000E+00
 -1       652 9.58333E-02 1.25000E-02 0.00000E+00
 -1       653 9.68750E-02 1.25000E-02 0.00000E+00
 -1       654 9.79167E-02 1.25000E-02 0.00000E+00
 -1       655 9.89583E-02 1.25000E-02 0.00000E+00
 -1       656 8.33333E-02 1.35417E-02 0.00000E+00
 -1       657 8.33333E-02 1.45833E-02 0.00000E+00
 -1       658 8.33333E-02 1.56250E-02 0.00000E+00
 -1       659 8.33333E-02 1.66667E-02 0.00000E+00
 -1       660 8.33333E-02 1.77083E-02 0.00000E+00
 -1       661 8.43750E-02 1.28906E-02 0.00000E+00
 -1       662 8.54167E-02 1.32813E-02 0.00000E+00
 -1       663 8.64583E-02 1.36719E-02 0.00000E+00
 -1       664 8.75000E-02 1.40625E-02 0.00000E+00
 -1       665 8.85417E-02 1.44531E-02 0.00000E+00
 -1       666 8.95833E-02 1.48437E-02 0.00000E+00
 -1       667 9.06250E-02 1.52344E-02 0.00000E+00
 -1       668 9.16667E-02 1.56250E-02 0.00000E+00
 -1       669 9.27083E-02 1.60156E-02 0.00000E+00
 -1       670 9.37500E-02 1.64062E-02 0.00000E+00
 -1       671 9.47917E-02 1.67969E-02 0.00000E+00
 -1       672 9.58333E-02 1.71875E-02 0.00000E+00
 -1       673 9.68750E-02 1.75781E-02 0.00000E+00
 -1       674 9.79167E-02 1.79687E-02 0.00000E+00
 -1       675 9.89583E-02 1.83594E-02 0.00000E+00
 -1       676 1.00000E-01 1.35417E-02 0.00000E+00
 -1       677 1.00000E-01 1.45833E-02 0.00000E+00
 -1       678 1.00000E-01 1.56250E-02 0.00000E+00
 -1       679 1.00000E-01 1.66667E-02 0.00000E+00
 -1       680 1.00000E-01 1.77083E-02 0.00000E+00
 -1       681 1.04167E-03 1.87500E-02 0.00000E+00
 -1       682 2.08333E-03 1.87500E-02 0.00000E+00
 -1       683 3.12500E-03 1.87500E-02 0.00000E+00
 -1       684 4.16667E-03 1.87500E-02 0.00000E+00
 -1       685 5.20833E-03 1.87500E-02 0.00000E+00
 -1       686 6.25000E-03 1.87500E-02 0.00000E+00
 -1       687 7.29167E-03 1.87500E-02 0.00000E+00
 -1       688 8.33333E-03 1.87500E-02 0.00000E+00
 -1       689 9.37500E-03 1.87500E-02 0.00000E+00
 -1       690 1.04167E-02 1.87500E-02 0.00000E+00
 -1       691 1.14583E-02 1.87500E-02 0.00000E+00
 -1       692 1.25000E-02 1.87500E-02 0.00000E+00
 -1       693 1.35417E-02 1.87500E-02 0.00000E+00
 -1       694 1.45833E-02 1.87500E-02 0.00000E+00
 -1       695 1.56250E-02 1.87500E-02 0.00000E+00
 -1       696 0.00000E+00 1.97917E-02 0.00000E+00
 -1       697 0.00000E+00 2.08333E-02 0.00000E+00
 -1       698 0.00000E+00 2.18750E-02 0.00000E+00
 -1       699 0.00000E+00 2.29167E-02 0.00000E+00
 -1       700 0.00000E+00 2.39583E-02 0.00000E+00
 -1       701 1.04167E-03 1.91406E-02 0.00000E+00
 -1       702 2.08333E-03 1.95312E-02 0.00000E+00
 -1       703 3.12500E-03 1.99219E-02 0.00000E+00
 -1       704 4.16667E-03 2.03125E-02 0.00000E+00
 -1       705 5.20833E-03 2.07031E-02 0.00000E+00
 -1       706 6.25000E-03 2.10938E-02 0.00000E+00
 -1       707 7.29167E-03 2.14844E-02 0.00000E+00
 -1       708 8.33333E-03 2.18750E-02 0.00000E+00
 -1       709 9.37500E-03 2.22656E-02 0.00000E+00
 -1       710 1.04167E-02 2.26563E-02 0.00000E+00
 -1       711 1.14583E-02 2.30469E-02 0.00000E+00
 -1       712 1.25000E-02 2.34375E-02 0.00000E+00
 -1       713 1.35417E-02 2.38281E-02 0.00000E+00
 -1       714 1.45833E-02 2.42187E-02 0.00000E+00
 -1       715 1.56250E-02 2.46094E-02 0.00000E+00
 -1       716 1.77083E-02 1.87500E-02 0.00000E+00
 -1       717 1.87500E-02 1.87500E-02 0.00000E+00
 -1       718 1.97917E-02 1.87500E-02 0.00000E+00
 -1       719 2.08333E-02 1.87500E-02 0.00000E+00
 -1       720 2.18750E-02 1.87500E-02 0.00000E+00
 -1       721 2.29167E-02 1.87500E-02 0.00000E+00
 -1       722 2.39583E-02 1.87500E-02 0.00000E+00
 -1       723 2.50000E-02 1.87500E-02 0.00000E+00
 -1       724 2.60417E-02 1.87500E-02 0.00000E+00
 -1       725 2.70833E-02 1.87500E-02 0.00000E+00
 -1       726 2.81250E-02 1.87500E-02 0.00000E+00
 -1       727 2.91667E-02 1.87500E-02 0.00000E+00
 -1       728 3.02083E-02 1.87500E-02 0.00000E+00
 -1       729 3.12500E-02 1.87500E-02 0.00000E+00
 -1       730 3.22917E-02 1.87500E-02 0.00000E+00
 -1       731 1.66667E-02 1.97917E-02 0.00000E+00
 -1       732 1.66667E-02 2.08333E-02 0.00000E+00
 -1       733 1.66667E-02 2.18750E-02 0.00000E+00
 -1       734 1.66667E-02 2.29167E-02 0.00000E+00
 -1       735 1.66667E-02 2.39583E-02 0.00000E+00
 -1       736 1.77083E-02 1.91406E-02 0.00000E+00
 -1       737 1.87500E-02 1.95312E-02 0.00000E+00
 -1       738 1.97917E-02 1.99219E-02 0.00000E+00
 -1       739 2.08333E-02 2.03125E-02 0.00000E+00
 -1       740 2.18750E-02 2.07031E-02 0.00000E+00
 -1       741 2.29167E-02 2.10938E-02 0.00000E+00
 -1       742 2.39583E-02 2.14844E-02 0.00000E+00
 -1       743 2.50000E-02 2.18750E-02 0.00000E+00
 -1       744 2.60417E-02 2.22656E-02 0.00000E+00
 -1       745 2.70833E-02 2.26563E-02 0.00000E+00
 -1       746 2.81250E-02 2.30469E-02 0.00000E+00
 -1       747 2.91667E-02 2.34375E-02 0.00000E+00
 -1       748 3.02083E-02 2.38281E-02 0.00000E+00
 -1       749 3.12500E-02 2.42187E-02 0.00000E+00
 -1       750 3.22917E-02 2.46094E-02 0.00000E+00
 -1       751 3.43750E-02 1.87500E-02 0.00000E+00
 -1       752 3.54167E-02 1.87500E-02 0.00000E+00
 -1       753 3.64583E-02 1.87500E-02 0.00000E+00
 -1       754 3.75000E-02 1.87500E-02 0.00000E+00
 -1       755 3.85417E-02 1.87500E-02 0.00000E+00
 -1       756 3.95833E-02 1.87500E-02 0.00000E+00
 -1       757 4.06250E-02 1.87500E-02 0.00000E+00
 -1       758 4.16667E-02 1.87500E-02 0.00000E+00
 -1       759 4.27083E-02 1.87500E-02 0.00000E+00
 -1       760 4.37500E-02 1.87500E-02 0.00000E+00
 -1       761 4.47917E-02 1.87500E-02 0.00000E+00
 -1       762 4.58333E-02 1.87500E-02 0.00000E+00
 -1       763 4.68750E-02 1.87500E-02 0.00000E+00
 -1       764 4.79167E-02 1.87500E-02 0.00000E+00
 -1       765 4.89583E-02 1.87500E-02 0.00000E+00
 -1       766 3.33333E-02 1.97917E-02 0.00000E+00
 -1       767 3.33333E-02 2.08333E-02 0.00000E+00
 -1       768 3.33333E-02 2.18750E-02 0.00000E+00
 -1       769 3.33333E-02 2.29167E-02 0.00000E+00
 -1       770 3.33333E-02 2.39583E-02 0.00000E+00
 -1       771 3.43750E-02 1.91406E-02 0.00000E+00
 -1       772 3.54167E-02 1.95312E-02 0.00000E+00
 -1       773 3.64583E-02 1.99219E-02 0.00000E+00
 -1       774 3.75000E-02 2.03125E-02 0.00000E+00
 -1       775 3.85417E-02 2.07031E-02 0.00000E+00
 -1       776 3.95833E-02 2.10938E-02 0.00000E+00
 -1       777 4.06250E-02 2.14844E-02 0.00000E+00
 -1       778 4.16667E-02 2.18750E-02 0.00000E+00
 -1       779 4.27083E-02 2.22656E-02 0.00000E+00
 -1       780 4.37500E-02 2.26563E-02 0.00000E+00
 -1       781 4.47917E-02 2.30469E-02 0.00000E+00
 -1       782 4.58333E-02 2.34375E-02 0.00000E+00
 -1       783 4.68750E-02 2.38281E-02 0.00000E+00
 -1       784 4.79167E-02 2.42187E-02 0.00000E+00
 -1       785 4.89583E-02 2.46094E-02 0.00000E+00
 -1       786 5.10417E-02 1.87500E-02 0.00000E+00
 -1       787 5.20833E-02 1.87500E-02 0.00000E+00
 -1       788 5.31250E-02 1.87500E-02 0.00000E+00
 -1       789 5.41667E-02 1.87500E-02 0.00000E+00
 -1       790 5.52083E-02 1.87500E-02 0.00000E+00
 -1       791 5.62500E-02 1.87500E-02 0.00000E+00
 -1       792 5.72917E-02 1.87500E-02 0.00000E+00
 -1       793 5.83333E-02 1.87500E-02 0.00000E+00
 -1       794 5.93750E-02 1.87500E-02 0.00000E+00
 -1       795 6.04167E-02 1.87500E-02 0.00000E+00
 -1       796 6.14583E-02 1.87500E-02 0.00000E+00
 -1       797 6.25000E-02 1.87500E-02 0.00000E+00
 -1       798 6.35417E-02 1.87500E-02 0.00000E+00
 -1       799 6.45833E-02 1.87500E-02 0.00000E+00
 -1       800 6.56250E-02 1.87500E-02 0.00000E+00
 -1       801 5.00000E-02 1.97917E-02 0.00000E+00
 -1       802 5.00000E-02 2.08333E-02 0.00000E+00
 -1       803 5.00000E-02 2.18750E-02 0.00000E+00
 -1       804 5.00000E-02 2.29167E-02 0.00000E+00
 -1       805 5.00000E-02 2.39583E-02 0.00000E+00
 -1       806 5.10417E-02 1.91406E-02 0.00000E+00
 -1       807 5.20833E-02 1.95312E-02 0.00000E+00
 -1       808 5.31250E-02 1.99219E-02 0.00000E+00
 -1       809 5.41667E-02 2.03125E-02 0.00000E+00
 -1       810 5.52083E-02 2.07031E-02 0.00000E+00
 -1       811 5.62500E-02 2.10938E-02 0.00000E+00
 -1       812 5.72917E-02 2.14844E-02 0.00000E+00
 -1       813 5.83333E-02 2.18750E-02 0.00000E+00
 -1       814 5.93750E-02 2.22656E-02 0.00000E+00
 -1       815 6.04167E-02 2.26563E-02 0.00000E+00
 -1       816 6.14583E-02 2.30469E-02 0.00000E+00
 -1       817 6.25000E-02 2.34375E-02 0.00000E+00
 -1       818 6.35417E-02 2.38281E-02 0.00000E+00
 -1       819 6.45833E-02 2.42187E-02 0.00000E+00
 -1       820 6.56250E-02 2.46094E-02 0.00000E+00
 -1       821 6.77083E-02 1.87500E-02 0.00000E+00
 -1       822 6.87500E-02 1.87500E-02 0.00000E+00
 -1       823 6.97917E-02 1.87500E-02 0.00000E+00
 -1       824 7.08333E-02 1.87500E-02 0.00000E+00
 -1       825 7.18750E-02 1.87500E-02 0.00000E+00
 -1       826 7.29167E-02 1.87500E-02 0.00000E+00
 -1       827 7.39583E-02 1.87500E-02 0.00000E+00
 -1       828 7.50000E-02 1.87500E-02 0.00000E+00
 -1       829 7.60417E-02 1.87500E-02 0.00000E+00
 -1       830 7.70833E-02 1.87500E-02 0.00000E+00
 -1       831 7.81250E-02 1.87500E-02 0.00000E+00
 -1       832 7.91667E-02 1.87500E-02 0.00000E+00
 -1       833 8.02083E-02 1.87500E-02 0.00000E+00
 -1       834 8.12500E-02 1.87500E-02 0.00000E+00
 -1       835 8.22917E-02 1.87500E-02 0.00000E+00
 -1       836 6.66667E-02 1.97917E-02 0.00000E+00
 -1       837 6.66667E-02 2.08333E-02 0.00000E+00
 -1       838 6.66667E-02 2.18750E-02 0.00000E+00
 -1       839 6.66667E-02 2.29167E-02 0.00000E+00
 -1       840 6.66667E-02 2.39583E-02 0.00000E+00
 -1       841 6.77083E-02 1.91406E-02 0.00000E+00
 -1       842 6.87500E-02 1.95312E-02 0.00000E+00
 -1       843 6.97917E-02 1.99219E-02 0.00000E+00
 -1       844 7.08333E-02 2.03125E-02 0.00000E+00
 -1       845 7.18750E-02 2.07031E-02 0.00000E+00
 -1       846 7.29167E-02 2.10938E-02 0.00000E+00
 -1       847 7.39583E-02 2.14844E-02 0.00000E+00
 -1       848 7.50000E-02 2.18750E-02 0.00000E+00
 -1       849 7.60417E-02 2.22656E-02 0.00000E+00
 -1       850 7.70833E-02 2.26563E-02 0.00000E+00
 -1       851 7.81250E-02 2.30469E-02 0.00000E+00
 -1       852 7.91667E-02 2.34375E-02 0.00000E+00
 -1       853 8.02083E-02 2.38281E-02 0.00000E+00
 -1       854 8.12500E-02 2.42187E-02 0.00000E+00
 -1       855 8.22917E-02 2.46094E-02 0.00000E+00
 -1       856 8.43750E-02 1.87500E-02 0.00000E+00
 -1       857 8.54167E-02 1.87500E-02 0.00000E+00
 -1       858 8.64583E-02 1.87500E-02 0.00000E+00
 -1       859 8.75000E-02 1.87500E-02 0.00000E+00
 -1       860 8.85417E-02 1.87500E-02 0.00000E+00
 -1       861 8.95833E-02 1.87500E-02 0.00000E+00
 -1       862 9.06250E-02 1.87500E-02 0.00000E+00
 -1       863 9.16667E-02 1.87500E-02 0.00000E+00
 -1       864 9.27083E-02 1.87500E-02 0.00000E+00
 -1       865 9.37500E-02 1.87500E-02 0.00000E+00
 -1       866 9.47917E-02 1.87500E-02 0.00000E+00
 -1       867 9.58333E-02 1.87500E-02 0.00000E+00
 -1       868 9.68750E-02 1.87500E-02 0.00000E+00
 -1       869 9.79167E-02 1.87500E-02 0.00000E+00
 -1       870 9.89583E-02 1.87500E-02 0.00000E+00
 -1       871 8.33333E-02 1.97917E-02 0.00000E+00
 -1       872 8.33333E-02 2.08333E-02 0.00000E+00
 -1       873 8.33333E-02 2.18750E-02 0.00000E+00
 -1       874 8.33333E-02 2.29167E-02 0.00000E+00
 -1       875 8.33333E-02 2.39583E-02 0.00000E+00
 -1       876 8.43750E-02 1.91406E-02 0.00000E+00
 -1       877 8.54167E-02 1.95312E-02 0.00000E+00
 -1       878 8.64583E-02 1.99219E-02 0.00000E+00
 -1       879 8.75000E-02 2.03125E-02 0.00000E+00
 -1       880 8.85417E-02 2.07031E-02 0.00000E+00
 -1       881 8.95833E-02 2.10938E-02 0.00000E+00
 -1       882 9.06250E-02 2.14844E-02 0.00000E+00
 -1       883 9.16667E-02 2.18750E-02 0.00000E+00
 -1       884 9.27083E-02 2.22656E-02 0.00000E+00
 -1       885 9.37500E-02 2.26563E-02 0.00000E+00
 -1       886 9.47917E-02 2.30469E-02 0.00000E+00
 -1       887 9.58333E-02 2.34375E-02 0.00000E+00
 -1       888 9.68750E-02 2.38281E-02 0.00000E+00
 -1       889 9.79167E-02 2.42187E-02 0.00000E+00
 -1       890 9.89583E-02 2.46094E-02 0.00000E+00
 -1       891 1.00000E-01 1.97917E-02 0.00000E+00
 -1       892 1.00000E-01 2.08333E-02 0.00000E+00
 -1       893 1.00000E-01 2.18750E-02 0.00000E+00
 -1       894 1.00000E-01 2.29167E-02 0.00000E+00
 -1       895 1.00000E-01 2.39583E-02 0.00000E+00
 -1       896 1.04167E-03 2.50000E-02 0.00000E+00
 -1       897 2.08333E-03 2.50000E-02 0.00000E+00
 -1       898 3.12500E-03 2.50000E-02 0.00000E+00
 -1       899 4.16667E-03 2.50000E-02 0.00000E+00
 -1       900 5.20833E-03 2.50000E-02 0.00000E+00
 -1       901 6.25000E-03 2.50000E-02 0.00000E+00
 -1       902 7.29167E-03 2.50000E-02 0.00000E+00
 -1       903 8.33333E-03 2.50000E-02 0.00000E+00
 -1       904 9.37500E-03 2.50000E-02 0.00000E+00
 -1       905 1.04167E-02 2.50000E-02 0.00000E+00
 -1       906 1.14583E-02 2.50000E-02 0.00000E+00
 -1       907 1.25000E-02 2.50000E-02 0.00000E+00
 -1       908 1.35417E-02 2.50000E-02 0.00000E+00
 -1       909 1.45833E-02 2.50000E-02 0.00000E+00
 -1       910 1.56250E-02 2.50000E-02 0.00000E+00
 -1       911 1.77083E-02 2.50000E-02 0.00000E+00
 -1       912 1.87500E-02 2.50000E-02 0.00000E+00
 -1       913 1.97917E-02 2.50000E-02 0.00000E+00
 -1       914 2.08333E-02 2.50000E-02 0.00000E+00
 -1       915 2.18750E-02 2.50000E-02 0.00000E+00
 -1       916 2.29167E-02 2.50000E-02 0.00000E+00
 -1       917 2.39583E-02 2.50000E-02 0.00000E+00
 -1       918 2.50000E-02 2.50000E-02 0.00000E+00
 -1       919 2.60417E-02 2.50000E-02 0.00000E+00
 -1       920 2.70833E-02 2.50000E-02 0.00000E+00
 -1       921 2.81250E-02 2.50000E-02 0.00000E+00
 -1       922 2.91667E-02 2.50000E-02 0.00000E+00
 -1       923 3.02083E-02 2.50000E-02 0.00000E+00
 -1       924 3.12500E-02 2.50000E-02 0.00000E+00
 -1       925 3.22917E-02 2.50000E-02 0.00000E+00
 -1       926 3.43750E-02 2.50000E-02 0.00000E+00
 -1       927 3.54167E-02 2.50000E-02 0.00000E+00
 -1       928 3.64583E-02 2.50000E-02 0.00000E+00
 -1       929 3.75000E-02 2.50000E-02 0.00000E+00
 -1       930 3.85417E-02 2.50000E-02 0.00000E+00
 -1       931 3.95833E-02 2.50000E-02 0.00000E+00
 -1       932 4.06250E-02 2.50000E-02 0.00000E+00
 -1       933 4.16667E-02 2.50000E-02 0.00000E+00
 -1       934 4.27083E-02 2.50000E-02 0.00000E+00
 -1       935 4.37500E-02 2.50000E-02 0.00000E+00
 -1       936 4.47917E-02 2.50000E-02 0.00000E+00
 -1       937 4.58333E-02 2.50000E-02 0.00000E+00
 -1       938 4.68750E-02 2.50000E-02 0.00000E+00
 -1       939 4.79167E-02 2.50000E-02 0.00000E+00
 -1       940 4.89583E-02 2.50000E-02 0.00000E+00
 -1       941 5.10417E-02 2.50000E-02 0.00000E+00
 -1       942 5.20833E-02 2.50000E-02 0.00000E+00
 -1       943 5.31250E-02 2.50000E-02 0.00000E+00
 -1       944 5.41667E-02 2.50000E-02 0.00000E+00
 -1       945 5.52083E-02 2.50000E-02 0.00000E+00
 -1       946 5.62500E-02 2.50000E-02 0.00000E+00
 -1       947 5.72917E-02 2.50000E-02 0.00000E+00
 -1       948 5.83333E-02 2.50000E-02 0.00000E+00
 -1       949 5.93750E-02 2.50000E-02 0.00000E+00
 -1       950 6.04167E-02 2.50000E-02 0.00000E+00
 -1       951 6.14583E-02 2.50000E-02 0.00000E+00
 -1       952 6.25000E-02 2.50000E-02 0.00000E+00
 -1       953 6.35417E-02 2.50000E-02 0.00000E+00
 -1       954 6.45833E-02 2.50000E-02 0.00000E+00
 -1       955 6.56250E-02 2.50000E-02 0.00000E+00
 -1       956 6.77083E-02 2.50000E-02 0.00000E+00
 -1       957 6.87500E-02 2.50000E-02 0.00000E+00
 -1       958 6.97917E-02 2.50000E-02 0.00000E+00
 -1       959 7.08333E-02 2.50000E-02 0.00000E+00
 -1       960 7.18750E-02 2.50000E-02 0.00000E+00
 -1       961 7.29167E-02 2.50000E-02 0.00000E+00
 -1       962 7.39583E-02 2.50000E-02 0.00000E+00
 -1       963 7.50000E-02 2.50000E-02 0.00000E+00
 -1       964 7.60417E-02 2.50000E-02 0.00000E+00
 -1       965 7.70833E-02 2.50000E-02 0.00000E+00
 -1       966 7.81250E-02 2.50000E-02 0.00000E+00
 -1       967 7.91667E-02 2.50000E-02 0.00000E+00
 -1       968 8.02083E-02 2.50000E-02 0.00000E+00
 -1       969 8.12500E-02 2.50000E-02 0.00000E+00
 -1       970 8.22917E-02 2.50000E-02 0.00000E+00
 -1       971 8.43750E-02 2.50000E-02 0.00000E+00
 -1       972 8.54167E-02 2.50000E-02 0.00000E+00
 -1       973 8.64583E-02 2.50000E-02 0.00000E+00
 -1       974 8.75000E-02 2.50000E-02 0.00000E+00
 -1       975 8.85417E-02 2.50000E-02 0.00000E+00
 -1       976 8.95833E-02 2.50000E-02 0.00000E+00
 -1       977 9.06250E-02 2.50000E-02 0.00000E+00
 -1       978 9.16667E-02 2.50000E-02 0.00000E+00
 -1       979 9.27083E-02 2.50000E-02 0.00000E+00
 -1       980 9.37500E-02 2.50000E-02 0.00000E+00
 -1       981 9.47917E-02 2.50000E-02 0.00000E+00
 -1       982 9.58333E-02 2.50000E-02 0.00000E+00
 -1       983 9.68750E-02 2.50000E-02 0.00000E+00
 -1       984 9.79167E-02 2.50000E-02 0.00000E+00
 -1       985 9.89583E-02 2.50000E-02 0.00000E+00
 -3
    3C                           440                                     1
 -1         1   12    0    1
 -2         1        37        36
 -1         2   12    0    1
 -2        37        39        38
 -1         3   12    0    1
 -2        39        41        40
 -1         4   12    0    1
 -2        41        43        42
 -1         5   12    0    1
 -2        43        45        44
 -1         6   12    0    1
 -2        45        47        46
 -1         7   12    0    1
 -2        47        49        48
 -1         8   12    0    1
 -2        49         2        50
 -1         9   12    0    1
 -2         1        52        51
 -1        10   12    0    1
 -2        52        54        53
 -1        11   12    0    1
 -2        54         8        55
 -1        12   12    0    1
 -2         1        57        56
 -1        13   12    0    1
 -2        57        59        58
 -1        14   12    0    1
 -2        59        61        60
 -1        15   12    0    1
 -2        61        63        62
 -1        16   12    0    1
 -2        63        65        64
 -1        17   12    0    1
 -2        65        67        66
 -1        18   12    0    1
 -2        67        69        68
 -1        19   12    0    1
 -2        69         9        70
 -1        20   12    0    1
 -2         2        72        71
 -1        21   12    0    1
 -2        72        74        73
 -1        22   12    0    1
 -2        74        76        75
 -1        23   12    0    1
 -2        76        78        77
 -1        24   12    0    1
 -2        78        80        79
 -1        25   12    0    1
 -2        80        82        81
 -1        26   12    0    1
 -2        82        84        83
 -1        27   12    0    1
 -2        84         3        85
 -1        28   12    0    1
 -2         2        87        86
 -1        29   12    0    1
 -2        87        89        88
 -1        30   12    0    1
 -2        89         9        90
 -1        31   12    0    1
 -2         2        92        91
 -1        32   12    0    1
 -2        92        94        93
 -1        33   12    0    1
 -2        94        96        95
 -1        34   12    0    1
 -2        96        98        97
 -1        35   12    0    1
 -2        98       100        99
 -1        36   12    0    1
 -2       100       102       101
 -1        37   12    0    1
 -2       102       104       103
 -1        38   12    0    1
 -2       104        10       105
 -1        39   12    0    1
 -2         3       107       106
 -1        40   12    0    1
 -2       107       109       108
 -1        41   12    0    1
 -2       109       111       110
 -1        42   12    0    1
 -2       111       113       112
 -1        43   12    0    1
 -2       113       115       114
 -1        44   12    0    1
 -2       115       117       116
 -1        45   12    0    1
 -2       117       119       118
 -1        46   12    0    1
 -2       119         4       120
 -1        47   12    0    1
 -2         3       122       121
 -1        48   12    0    1
 -2       122       124       123
 -1        49   12    0    1
 -2       124        10       125
 -1        50   12    0    1
 -2         3       127       126
 -1        51   12    0    1
 -2       127       129       128
 -1        52   12    0    1
 -2       129       131       130
 -1        53   12    0    1
 -2       131       133       132
 -1        54   12    0    1
 -2       133       135       134
 -1        55   12    0    1
 -2       135       137       136
 -1        56   12    0    1
 -2       137       139       138
 -1        57   12    0    1
 -2       139        11       140
 -1        58   12    0    1
 -2         4       142       141
 -1        59   12    0    1
 -2       142       144       143
 -1        60   12    0    1
 -2       144       146       145
 -1        61   12    0    1
 -2       146       148       147
 -1        62   12    0    1
 -2       148       150       149
 -1        63   12    0    1
 -2       150       152       151
 -1        64   12    0    1
 -2       152       154       153
 -1        65   12    0    1
 -2       154         5       155
 -1        66   12    0    1
 -2         4       157       156
 -1        67   12    0    1
 -2       157       159       158
 -1        68   12    0    1
 -2       159        11       160
 -1        69   12    0    1
 -2         4       162       161
 -1        70   12    0    1
 -2       162       164       163
 -1        71   12    0    1
 -2       164       166       165
 -1        72   12    0    1
 -2       166       168       167
 -1        73   12    0    1
 -2       168       170       169
 -1        74   12    0    1
 -2       170       172       171
 -1        75   12    0    1
 -2       172       174       173
 -1        76   12    0    1
 -2       174        12       175
 -1        77   12    0    1
 -2         5       192       191
 -1        78   12    0    1
 -2       192       194       193
 -1        79   12    0    1
 -2       194        12       195
 -1        80   12    0    1
 -2         8       252       251
 -1        81   12    0    1
 -2       252       254       253
 -1        82   12    0    1
 -2       254       256       255
 -1        83   12    0    1
 -2       256       258       257
 -1        84   12    0    1
 -2       258       260       259
 -1        85   12    0    1
 -2       260       262       261
 -1        86   12    0    1
 -2       262       264       263
 -1        87   12    0    1
 -2       264         9       265
 -1        88   12    0    1
 -2         8       267       266
 -1        89   12    0    1
 -2       267       269       268
 -1        90   12    0    1
 -2       269        15       270
 -1        91   12    0    1
 -2         8       272       271
 -1        92   12    0    1
 -2       272       274       273
 -1        93   12    0    1
 -2       274       276       275
 -1        94   12    0    1
 -2       276       278       277
 -1        95   12    0    1
 -2       278       280       279
 -1        96   12    0    1
 -2       280       282       281
 -1        97   12    0    1
 -2       282       284       283
 -1        98   12    0    1
 -2       284        16       285
 -1        99   12    0    1
 -2         9       287       286
 -1       100   12    0    1
 -2       287       289       288
 -1       101   12    0    1
 -2       289       291       290
 -1       102   12    0    1
 -2       291       293       292
 -1       103   12    0    1
 -2       293       295       294
 -1       104   12    0    1
 -2       295       297       296
 -1       105   12    0    1
 -2       297       299       298
 -1       106   12    0    1
 -2       299        10       300
 -1       107   12    0    1
 -2         9       302       301
 -1       108   12    0    1
 -2       302       304       303
 -1       109   12    0    1
 -2       304        16       305
 -1       110   12    0    1
 -2         9       307       306
 -1       111   12    0    1
 -2       307       309       308
 -1       112   12    0    1
 -2       309       311       310
 -1       113   12    0    1
 -2       311       313       312
 -1       114   12    0    1
 -2       313       315       314
 -1       115   12    0    1
 -2       315       317       316
 -1       116   12    0    1
 -2       317       319       318
 -1       117   12    0    1
 -2       319        17       320
 -1       118   12    0    1
 -2        10       322       321
 -1       119   12    0    1
 -2       322       324       323
 -1       120   12    0    1
 -2       324       326       325
 -1       121   12    0    1
 -2       326       328       327
 -1       122   12    0    1
 -2       328       330       329
 -1       123   12    0    1
 -2       330       332       331
 -1       124   12    0    1
 -2       332       334       333
 -1       125   12    0    1
 -2       334        11       335
 -1       126   12    0    1
 -2        10       337       336
 -1       127   12    0    1
 -2       337       339       338
 -1       128   12    0    1
 -2       339        17       340
 -1       129   12    0    1
 -2        10       342       341
 -1       130   12    0    1
 -2       342       344       343
 -1       131   12    0    1
 -2       344       346       345
 -1       132   12    0    1
 -2       346       348       347
 -1       133   12    0    1
 -2       348       350       349
 -1       134   12    0    1
 -2       350       352       351
 -1       135   12    0    1
 -2       352       354       353
 -1       136   12    0    1
 -2       354        18       355
 -1       137   12    0    1
 -2        11       357       356
 -1       138   12    0    1
 -2       357       359       358
 -1       139   12    0    1
 -2       359       361       360
 -1       140   12    0    1
 -2       361       363       362
 -1       141   12    0    1
 -2       363       365       364
 -1       142   12    0    1
 -2       365       367       366
 -1       143   12    0    1
 -2       367       369       368
 -1       144   12    0    1
 -2       369        12       370
 -1       145   12    0    1
 -2        11       372       371
 -1       146   12    0    1
 -2       372       374       373
 -1       147   12    0    1
 -2       374        18       375
 -1       148   12    0    1
 -2        11       377       376
 -1       149   12    0    1
 -2       377       379       378
 -1       150   12    0    1
 -2       379       381       380
 -1       151   12    0    1
 -2       381       383       382
 -1       152   12    0    1
 -2       383       385       384
 -1       153   12    0    1
 -2       385       387       386
 -1       154   12    0    1
 -2       387       389       388
 -1       155   12    0    1
 -2       389        19       390
 -1       156   12    0    1
 -2        12       407       406
 -1       157   12    0    1
 -2       407       409       408
 -1       158   12    0    1
 -2       409        19       410
 -1       159   12    0    1
 -2        15       467       466
 -1       160   12    0    1
 -2       467       469       468
 -1       161   12    0    1
 -2       469       471       470
 -1       162   12    0    1
 -2       471       473       472
 -1       163   12    0    1
 -2       473       475       474
 -1       164   12    0    1
 -2       475       477       476
 -1       165   12    0    1
 -2       477       479       478
 -1       166   12    0    1
 -2       479        16       480
 -1       167   12    0    1
 -2        15       482       481
 -1       168   12    0    1
 -2       482       484       483
 -1       169   12    0    1
 -2       484        22       485
 -1       170   12    0    1
 -2        15       487       486
 -1       171   12    0    1
 -2       487       489       488
 -1       172   12    0    1
 -2       489       491       490
 -1       173   12    0    1
 -2       491       493       492
 -1       174   12    0    1
 -2       493       495       494
 -1       175   12    0    1
 -2       495       497       496
 -1       176   12    0    1
 -2       497       499       498
 -1       177   12    0    1
 -2       499        23       500
 -1       178   12    0    1
 -2        16       502       501
 -1       179   12    0    1
 -2       502       504       503
 -1       180   12    0    1
 -2       504       506       505
 -1       181   12    0    1
 -2       506       508       507
 -1       182   12    0    1
 -2       508       510       509
 -1       183   12    0    1
 -2       510       512       511
 -1       184   12    0    1
 -2       512       514       513
 -1       185   12    0    1
 -2       514        17       515
 -1       186   12    0    1
 -2        16       517       516
 -1       187   12    0    1
 -2       517       519       518
 -1       188   12    0    1
 -2       519        23       520
 -1       189   12    0    1
 -2        16       522       521
 -1       190   12    0    1
 -2       522       524       523
 -1       191   12    0    1
 -2       524       526       525
 -1       192   12    0    1
 -2       526       528       527
 -1       193   12    0    1
 -2       528       530       529
 -1       194   12    0    1
 -2       530       532       531
 -1       195   12    0    1
 -2       532       534       533
 -1       196   12    0    1
 -2       534        24       535
 -1       197   12    0    1
 -2        17       537       536
 -1       198   12    0    1
 -2       537       539       538
 -1       199   12    0    1
 -2       539       541       540
 -1       200   12    0    1
 -2       541       543       542
 -1       201   12    0    1
 -2       543       545       544
 -1       202   12    0    1
 -2       545       547       546
 -1       203   12    0    1
 -2       547       549       548
 -1       204   12    0    1
 -2       549        18       550
 -1       205   12    0    1
 -2        17       552       551
 -1       206   12    0    1
 -2       552       554       553
 -1       207   12    0    1
 -2       554        24       555
 -1       208   12    0    1
 -2        17       557       556
 -1       209   12    0    1
 -2       557       559       558
 -1       210   12    0    1
 -2       559       561       560
 -1       211   12    0    1
 -2       561       563       562
 -1       212   12    0    1
 -2       563       565       564
 -1       213   12    0    1
 -2       565       567       566
 -1       214   12    0    1
 -2       567       569       568
 -1       215   12    0    1
 -2       569        25       570
 -1       216   12    0    1
 -2        18       572       571
 -1       217   12    0    1
 -2       572       574       573
 -1       218   12    0    1
 -2       574       576       575
 -1       219   12    0    1
 -2       576       578       577
 -1       220   12    0    1
 -2       578       580       579
 -1       221   12    0    1
 -2       580       582       581
 -1       222   12    0    1
 -2       582       584       583
 -1       223   12    0    1
 -2       584        19       585
 -1       224   12    0    1
 -2        18       587       586
 -1       225   12    0    1
 -2       587       589       588
 -1       226   12    0    1
 -2       589        25       590
 -1       227   12    0    1
 -2        18       592       591
 -1       228   12    0    1
 -2       592       594       593
 -1       229   12    0    1
 -2       594       596       595
 -1       230   12    0    1
 -2       596       598       597
 -1       231   12    0    1
 -2       598       600       599
 -1       232   12    0    1
 -2       600       602       601
 -1       233   12    0    1
 -2       602       604       603
 -1       234   12    0    1
 -2       604        26       605
 -1       235   12    0    1
 -2        19       607       606
 -1       236   12    0    1
 -2       607       609       608
 -1       237   12    0    1
 -2       609       611       610
 -1       238   12    0    1
 -2       611       613       612
 -1       239   12    0    1
 -2       613       615       614
 -1       240   12    0    1
 -2       615       617       616
 -1       241   12    0    1
 -2       617       619       618
 -1       242   12    0    1
 -2       619        20       620
 -1       243   12    0    1
 -2        19       622       621
 -1       244   12    0    1
 -2       622       624       623
 -1       245   12    0    1
 -2       624        26       625
 -1       246   12    0    1
 -2        19       627       626
 -1       247   12    0    1
 -2       627       629       628
 -1       248   12    0    1
 -2       629       631       630
 -1       249   12    0    1
 -2       631       633       632
 -1       250   12    0    1
 -2       633       635       634
 -1       251   12    0    1
 -2       635       637       636
 -1       252   12    0    1
 -2       637       639       638
 -1       253   12    0    1
 -2       639        27       640
 -1       254   12    0    1
 -2        20       642       641
 -1       255   12    0    1
 -2       642       644       643
 -1       256   12    0    1
 -2       644       646       645
 -1       257   12    0    1
 -2       646       648       647
 -1       258   12    0    1
 -2       648       650       649
 -1       259   12    0    1
 -2       650       652       651
 -1       260   12    0    1
 -2       652       654       653
 -1       261   12    0    1
 -2       654        21       655
 -1       262   12    0    1
 -2        20       657       656
 -1       263   12    0    1
 -2       657       659       658
 -1       264   12    0    1
 -2       659        27       660
 -1       265   12    0    1
 -2        20       662       661
 -1       266   12    0    1
 -2       662       664       663
 -1       267   12    0    1
 -2       664       666       665
 -1       268   12    0    1
 -2       666       668       667
 -1       269   12    0    1
 -2       668       670       669
 -1       270   12    0    1
 -2       670       672       671
 -1       271   12    0    1
 -2       672       674       673
 -1       272   12    0    1
 -2       674        28       675
 -1       273   12    0    1
 -2        21       677       676
 -1       274   12    0    1
 -2       677       679       678
 -1       275   12    0    1
 -2       679        28       680
 -1       276   12    0    1
 -2        22       682       681
 -1       277   12    0    1
 -2       682       684       683
 -1       278   12    0    1
 -2       684       686       685
 -1       279   12    0    1
 -2       686       688       687
 -1       280   12    0    1
 -2       688       690       689
 -1       281   12    0    1
 -2       690       692       691
 -1       282   12    0    1
 -2       692       694       693
 -1       283   12    0    1
 -2       694        23       695
 -1       284   12    0    1
 -2        22       697       696
 -1       285   12    0    1
 -2       697       699       698
 -1       286   12    0    1
 -2       699        29       700
 -1       287   12    0    1
 -2        22       702       701
 -1       288   12    0    1
 -2       702       704       703
 -1       289   12    0    1
 -2       704       706       705
 -1       290   12    0    1
 -2       706       708       707
 -1       291   12    0    1
 -2       708       710       709
 -1       292   12    0    1
 -2       710       712       711
 -1       293   12    0    1
 -2       712       714       713
 -1       294   12    0    1
 -2       714        30       715
 -1       295   12    0    1
 -2        23       717       716
 -1       296   12    0    1
 -2       717       719       718
 -1       297   12    0    1
 -2       719       721       720
 -1       298   12    0    1
 -2       721       723       722
 -1       299   12    0    1
 -2       723       725       724
 -1       300   12    0    1
 -2       725       727       726
 -1       301   12    0    1
 -2       727       729       728
 -1       302   12    0    1
 -2       729        24       730
 -1       303   12    0    1
 -2        23       732       731
 -1       304   12    0    1
 -2       732       734       733
 -1       305   12    0    1
 -2       734        30       735
 -1       306   12    0    1
 -2        23       737       736
 -1       307   12    0    1
 -2       737       739       738
 -1       308   12    0    1
 -2       739       741       740
 -1       309   12    0    1
 -2       741       743       742
 -1       310   12    0    1
 -2       743       745       744
 -1       311   12    0    1
 -2       745       747       746
 -1       312   12    0    1
 -2       747       749       748
 -1       313   12    0    1
 -2       749        31       750
 -1       314   12    0    1
 -2        24       752       751
 -1       315   12    0    1
 -2       752       754       753
 -1       316   12    0    1
 -2       754       756       755
 -1       317   12    0    1
 -2       756       758       757
 -1       318   12    0    1
 -2       758       760       759
 -1       319   12    0    1
 -2       760       762       761
 -1       320   12    0    1
 -2       762       764       763
 -1       321   12    0    1
 -2       764        25       765
 -1       322   12    0    1
 -2        24       767       766
 -1       323   12    0    1
 -2       767       769       768
 -1       324   12    0    1
 -2       769        31       770
 -1       325   12    0    1
 -2        24       772       771
 -1       326   12    0    1
 -2       772       774       773
 -1       327   12    0    1
 -2       774       776       775
 -1       328   12    0    1
 -2       776       778       777
 -1       329   12    0    1
 -2       778       780       779
 -1       330   12    0    1
 -2       780       782       781
 -1       331   12    0    1
 -2       782       784       783
 -1       332   12    0    1
 -2       784        32       785
 -1       333   12    0    1
 -2        25       787       786
 -1       334   12    0    1
 -2       787       789       788
 -1       335   12    0    1
 -2       789       791       790
 -1       336   12    0    1
 -2       791       793       792
 -1       337   12    0    1
 -2       793       795       794
 -1       338   12    0    1
 -2       795       797       796
 -1       339   12    0    1
 -2       797       799       798
 -1       340   12    0    1
 -2       799        26       800
 -1       341   12    0    1
 -2        25       802       801
 -1       342   12    0    1
 -2       802       804       803
 -1       343   12    0    1
 -2       804        32       805
 -1       344   12    0    1
 -2        25       807       806
 -1       345   12    0    1
 -2       807       809       808
 -1       346   12    0    1
 -2       809       811       810
 -1       347   12    0    1
 -2       811       813       812
 -1       348   12    0    1
 -2       813       815       814
 -1       349   12    0    1
 -2       815       817       816
 -1       350   12    0    1
 -2       817       819       818
 -1       351   12    0    1
 -2       819        33       820
 -1       352   12    0    1
 -2        26       822       821
 -1       353   12    0    1
 -2       822       824       823
 -1       354   12    0    1
 -2       824       826       825
 -1       355   12    0    1
 -2       826       828       827
 -1       356   12    0    1
 -2       828       830       829
 -1       357   12    0    1
 -2       830       832       831
 -1       358   12    0    1
 -2       832       834       833
 -1       359   12    0    1
 -2       834        27       835
 -1       360   12    0    1
 -2        26       837       836
 -1       361   12    0    1
 -2       837       839       838
 -1       362   12    0    1
 -2       839        33       840
 -1       363   12    0    1
 -2        26       842       841
 -1       364   12    0    1
 -2       842       844       843
 -1       365   12    0    1
 -2       844       846       845
 -1       366   12    0    1
 -2       846       848       847
 -1       367   12    0    1
 -2       848       850       849
 -1       368   12    0    1
 -2       850       852       851
 -1       369   12    0    1
 -2       852       854       853
 -1       370   12    0    1
 -2       854        34       855
 -1       371   12    0    1
 -2        27       857       856
 -1       372   12    0    1
 -2       857       859       858
 -1       373   12    0    1
 -2       859       861       860
 -1       374   12    0    1
 -2       861       863       862
 -1       375   12    0    1
 -2       863       865       864
 -1       376   12    0    1
 -2       865       867       866
 -1       377   12    0    1
 -2       867       869       868
 -1       378   12    0    1
 -2       869        28       870
 -1       379   12    0    1
 -2        27       872       871
 -1       380   12    0    1
 -2       872       874       873
 -1       381   12    0    1
 -2       874        34       875
 -1       382   12    0    1
 -2        27       877       876
 -1       383   12    0    1
 -2       877       879       878
 -1       384   12    0    1
 -2       879       881       880
 -1       385   12    0    1
 -2       881       883       882
 -1       386   12    0    1
 -2       883       885       884
 -1       387   12    0    1
 -2       885       887       886
 -1       388   12    0    1
 -2       887       889       888
 -1       389   12    0    1
 -2       889        35       890
 -1       390   12    0    1
 -2        28       892       891
 -1       391   12    0    1
 -2       892       894       893
 -1       392   12    0    1
 -2       894        35       895
 -1       393   12    0    1
 -2        29       897       896
 -1       394   12    0    1
 -2       897       899       898
 -1       395   12    0    1
 -2       899       901       900
 -1       396   12    0    1
 -2       901       903       902
 -1       397   12    0    1
 -2       903       905       904
 -1       398   12    0    1
 -2       905       907       906
 -1       399   12    0    1
 -2       907       909       908
 -1       400   12    0    1
 -2       909        30       910
 -1       401   12    0    1
 -2        30       912       911
 -1       402   12    0    1
 -2       912       914       913
 -1       403   12    0    1
 -2       914       916       915
 -1       404   12    0    1
 -2       916       918       917
 -1       405   12    0    1
 -2       918       920       919
 -1       406   12    0    1
 -2       920       922       921
 -1       407   12    0    1
 -2       922       924       923
 -1       408   12    0    1
 -2       924        31       925
 -1       409   12    0    1
 -2        31       927       926
 -1       410   12    0    1
 -2       927       929       928
 -1       411   12    0    1
 -2       929       931       930
 -1       412   12    0    1
 -2       931       933       932
 -1       413   12    0    1
 -2       933       935       934
 -1       414   12    0    1
 -2       935       937       936
 -1       415   12    0    1
 -2       937       939       938
 -1       416   12    0    1
 -2       939        32       940
 -1       417   12    0    1
 -2        32       942       941
 -1       418   12    0    1
 -2       942       944       943
 -1       419   12    0    1
 -2       944       946       945
 -1       420   12    0    1
 -2       946       948       947
 -1       421   12    0    1
 -2       948       950       949
 -1       422   12    0    1
 -2       950       952       951
 -1       423   12    0    1
 -2       952       954       953
 -1       424   12    0    1
 -2       954        33       955
 -1       425   12    0    1
 -2        33       957       956
 -1       426   12    0    1
 -2       957       959       958
 -1       427   12    0    1
 -2       959       961       960
 -1       428   12    0    1
 -2       961       963       962
 -1       429   12    0    1
 -2       963       965       964
 -1       430   12    0    1
 -2       965       967       966
 -1       431   12    0    1
 -2       967       969       968
 -1       432   12    0    1
 -2       969        34       970
 -1       433   12    0    1
 -2        34       972       971
 -1       434   12    0    1
 -2       972       974       973
 -1       435   12    0    1
 -2       974       976       975
 -1       436   12    0    1
 -2       976       978       977
 -1       437   12    0    1
 -2       978       980       979
 -1       438   12    0    1
 -2       980       982       981
 -1       439   12    0    1
 -2       982       984       983
 -1       440   12    0    1
 -2       984        35       985
 -3
    1PSTEP                         1           1           1          
  100CL  101 1.000000000         841                     0    1           1
 -4  DISP        4    1
 -5  D1          1    2    1    0
 -5  D2          1    2    2    0
 -5  D3          1    2    3    0
 -5  ALL         1    2    0    0    1ALL
 -1         1 7.29342E-05 0.00000E+00 0.00000E+00
 -1         2 5.78989E-05 0.00000E+00 0.00000E+00
 -1         3 5.22845E-05 0.00000E+00 0.00000E+00
 -1         4 5.10021E-05 0.00000E+00 0.00000E+00
 -1         5 5.10758E-05 0.00000E+00 0.00000E+00
 -1         8 4.71192E-05-1.21839E-06 0.00000E+00
 -1         9 4.78382E-05 1.26533E-06 0.00000E+00
 -1        10 4.71824E-05-1.54242E-06 0.00000E+00
 -1        11 4.74455E-05-3.96478E-07 0.00000E+00
 -1        12 4.84474E-05 3.04267E-06 0.00000E+00
 -1        15 2.14915E-05-1.74523E-06 0.00000E+00
 -1        16 2.79765E-05 1.46982E-06 0.00000E+00
 -1        17 3.01853E-05-3.13688E-06 0.00000E+00
 -1        18 3.55579E-05-7.81136E-07 0.00000E+00
 -1        19 4.00177E-05 5.98840E-06 0.00000E+00
 -1        20 4.11723E-05 5.66522E-05 0.00000E+00
 -1        21 4.11231E-05 1.17233E-04 0.00000E+00
 -1        22 9.05306E-06-1.10911E-06 0.00000E+00
 -1        23 1.17680E-05 1.86492E-06 0.00000E+00
 -1        24 1.39394E-05-3.67051E-06 0.00000E+00
 -1        25 2.25944E-05-5.32118E-07 0.00000E+00
 -1        26 2.80314E-05 7.77945E-06 0.00000E+00
 -1        27 2.44307E-05 5.56006E-05 0.00000E+00
 -1        28 2.19519E-05 1.16293E-04 0.00000E+00
 -1        29 0.00000E+00 0.00000E+00 0.00000E+00
 -1        30 4.40331E-06 2.26446E-06 0.00000E+00
 -1        31 5.56279E-06-2.76094E-06 0.00000E+00
 -1        32 0.00000E+00 0.00000E+00 0.00000E+00
 -1        33 1.10437E-05 1.06643E-05 0.00000E+00
 -1        34 9.08171E-06 5.54907E-05 0.00000E+00
 -1        35 5.52331E-06 1.15780E-04 0.00000E+00
 -1        36 7.20100E-05 2.38228E-22 0.00000E+00
 -1        37 7.10695E-05 6.43216E-21-1.32349E-23
 -1        38 7.01289E-05 1.01776E-20-2.64698E-23
 -1        39 6.91860E-05 4.18223E-21 0.00000E+00
 -1        40 6.82428E-05-1.73377E-21 2.64698E-23
 -1        41 6.72990E-05-9.03943E-21 0.00000E+00
 -1        42 6.63552E-05-1.61466E-20 0.00000E+00
 -1        43 6.54113E-05-2.13479E-20 0.00000E+00
 -1        44 6.44674E-05-3.03542E-20-2.64698E-23
 -1        45 6.35237E-05-3.66077E-20-1.32349E-23
 -1        46 6.25801E-05-3.71371E-20 0.00000E+00
 -1        47 6.16370E-05-3.39541E-20 0.00000E+00
 -1        48 6.06946E-05-2.51000E-20 0.00000E+00
 -1        49 5.97552E-05-1.03894E-20 1.32349E-23
 -1        50 5.88160E-05-1.33672E-21 0.00000E+00
 -1        51 7.12447E-05-2.13749E-07 0.00000E+00
 -1        52 6.80805E-05-4.12662E-07 0.00000E+00
 -1        53 6.37583E-05-6.11118E-07 0.00000E+00
 -1        54 5.86055E-05-8.10890E-07 0.00000E+00
 -1        55 5.29498E-05-1.01268E-06 0.00000E+00
 -1        56 7.16501E-05-5.80293E-07 0.00000E+00
 -1        57 7.03758E-05-1.29091E-06 0.00000E+00
 -1        58 6.91290E-05-2.07373E-06 0.00000E+00
 -1        59 6.78872E-05-2.88438E-06 2.64698E-23
 -1        60 6.66371E-05-3.67500E-06 0.00000E+00
 -1        61 6.53614E-05-4.39946E-06 0.00000E+00
 -1        62 6.40435E-05-5.01192E-06 0.00000E+00
 -1        63 6.26667E-05-5.46786E-06 0.00000E+00
 -1        64 6.12150E-05-5.72398E-06 0.00000E+00
 -1        65 5.96729E-05-5.73897E-06 0.00000E+00
 -1        66 5.80258E-05-5.47343E-06 0.00000E+00
 -1        67 5.62606E-05-4.89055E-06-2.64698E-23
 -1        68 5.43643E-05-3.95634E-06 0.00000E+00
 -1        69 5.23307E-05-2.63828E-06-1.32349E-23
 -1        70 5.01424E-05-9.11335E-07-2.64698E-23
 -1        71 5.75439E-05 2.51794E-21-1.32349E-23
 -1        72 5.71922E-05 7.92604E-21 0.00000E+00
 -1        73 5.68404E-05 1.30761E-20 1.32349E-23
 -1        74 5.64891E-05 1.11487E-20-6.61744E-24
 -1        75 5.61379E-05 3.22600E-21 0.00000E+00
 -1        76 5.57868E-05-5.23274E-21-6.61744E-24
 -1        77 5.54357E-05-9.29751E-21-1.32349E-23
 -1        78 5.50846E-05-2.56757E-21-6.61744E-24
 -1        79 5.47336E-05 1.63616E-21 0.00000E+00
 -1        80 5.43825E-05-1.33342E-21 0.00000E+00
 -1        81 5.40315E-05-4.54453E-21 0.00000E+00
 -1        82 5.36807E-05-6.60256E-21 0.00000E+00
 -1        83 5.33299E-05-7.24279E-21 0.00000E+00
 -1        84 5.29799E-05-6.79612E-21-6.61744E-24
 -1        85 5.26298E-05-2.94807E-21 6.61744E-24
 -1        86 5.75421E-05 1.92646E-07 3.30872E-24
 -1        87 5.65664E-05 4.12087E-07 0.00000E+00
 -1        88 5.50402E-05 6.30470E-07 0.00000E+00
 -1        89 5.30317E-05 8.49067E-07 0.00000E+00
 -1        90 5.06086E-05 1.06749E-06-4.13590E-25
 -1        91 5.73042E-05-2.73329E-07 1.32349E-23
 -1        92 5.67254E-05-6.14578E-07 0.00000E+00
 -1        93 5.61639E-05-1.00163E-06 0.00000E+00
 -1        94 5.56112E-05-1.41569E-06-6.61744E-24
 -1        95 5.50610E-05-1.83706E-06 1.32349E-23
 -1        96 5.45061E-05-2.24638E-06 0.00000E+00
 -1        97 5.39394E-05-2.62428E-06 0.00000E+00
 -1        98 5.33536E-05-2.95161E-06 0.00000E+00
 -1        99 5.27418E-05-3.20936E-06 1.32349E-23
 -1       100 5.20970E-05-3.37883E-06-6.61744E-24
 -1       101 5.14122E-05-3.44168E-06 0.00000E+00
 -1       102 5.06811E-05-3.37996E-06-6.61744E-24
 -1       103 4.98970E-05-3.17626E-06 0.00000E+00
 -1       104 4.90552E-05-2.81324E-06-6.61744E-24
 -1       105 4.81476E-05-2.27543E-06 0.00000E+00
 -1       106 5.21966E-05-1.83510E-21 6.61744E-24
 -1       107 5.21156E-05-5.51688E-21 0.00000E+00
 -1       108 5.20347E-05-8.95630E-21 3.30872E-24
 -1       109 5.19547E-05-7.76309E-21 1.65436E-24
 -1       110 5.18749E-05-9.56428E-21-3.30872E-24
 -1       111 5.17953E-05-1.33809E-20 1.65436E-24
 -1       112 5.17158E-05-2.30122E-20 3.30872E-24
 -1       113 5.16362E-05-2.68573E-20 0.00000E+00
 -1       114 5.15567E-05-2.76758E-20 0.00000E+00
 -1       115 5.14773E-05-2.73408E-20 1.65436E-24
 -1       116 5.13978E-05-2.66973E-20 0.00000E+00
 -1       117 5.13183E-05-2.57406E-20 0.00000E+00
 -1       118 5.12389E-05-1.47031E-20 0.00000E+00
 -1       119 5.11597E-05-5.12025E-21-8.27181E-25
 -1       120 5.10804E-05-3.60899E-21 0.00000E+00
 -1       121 5.20367E-05-2.55609E-07-6.61744E-24
 -1       122 5.14216E-05-5.12076E-07 0.00000E+00
 -1       123 5.05334E-05-7.68779E-07 0.00000E+00
 -1       124 4.94673E-05-1.02599E-06 0.00000E+00
 -1       125 4.83185E-05-1.28331E-06-6.61744E-24
 -1       126 5.20268E-05-1.41789E-07-6.61744E-24
 -1       127 5.17900E-05-3.43369E-07 3.30872E-24
 -1       128 5.15694E-05-5.88240E-07 0.00000E+00
 -1       129 5.13587E-05-8.60356E-07-3.30872E-24
 -1       130 5.11522E-05-1.14349E-06 6.61744E-24
 -1       131 5.09437E-05-1.42145E-06-3.30872E-24
 -1       132 5.07272E-05-1.67807E-06 0.00000E+00
 -1       133 5.04966E-05-1.89721E-06 0.00000E+00
 -1       134 5.02460E-05-2.06280E-06 6.61744E-24
 -1       135 4.99694E-05-2.15887E-06-3.30872E-24
 -1       136 4.96607E-05-2.16957E-06 0.00000E+00
 -1       137 4.93144E-05-2.07917E-06 3.30872E-24
 -1       138 4.89244E-05-1.87216E-06-6.61744E-24
 -1       139 4.84860E-05-1.53296E-06 3.30872E-24
 -1       140 4.79924E-05-1.04687E-06-6.61744E-24
 -1       141 5.10021E-05-4.65284E-21 0.00000E+00
 -1       142 5.10046E-05-5.86572E-21-2.06795E-25
 -1       143 5.10072E-05-2.43470E-21-1.03398E-25
 -1       144 5.10100E-05-9.48983E-21 6.46235E-27
 -1       145 5.10130E-05-2.58816E-20-5.16988E-26
 -1       146 5.10160E-05-3.99172E-20 5.16988E-26
 -1       147 5.10190E-05-4.72571E-20 0.00000E+00
 -1       148 5.10221E-05-4.77592E-20 5.16988E-26
 -1       149 5.10252E-05-4.75916E-20-2.06795E-25
 -1       150 5.10284E-05-4.84361E-20 0.00000E+00
 -1       151 5.10318E-05-4.15116E-20-4.13590E-25
 -1       152 5.10356E-05-3.12442E-20 0.00000E+00
 -1       153 5.10398E-05-2.20950E-20 1.65436E-24
 -1       154 5.10463E-05-9.96298E-21 1.65436E-24
 -1       155 5.10529E-05 5.03753E-22 0.00000E+00
 -1       156 5.08455E-05-6.50949E-08 0.00000E+00
 -1       157 5.04459E-05-1.30716E-07 8.27181E-25
 -1       158 4.98544E-05-1.96468E-07 1.65436E-24
 -1       159 4.91227E-05-2.62574E-07 0.00000E+00
 -1       160 4.83025E-05-3.28763E-07-3.30872E-24
 -1       161 5.09296E-05-4.49137E-08 0.00000E+00
 -1       162 5.08627E-05-1.08005E-07 0.00000E+00
 -1       163 5.07985E-05-1.78361E-07 1.65436E-24
 -1       164 5.07330E-05-2.45473E-07 1.65436E-24
 -1       165 5.06622E-05-2.98736E-07 1.65436E-24
 -1       166 5.05823E-05-3.27602E-07 1.65436E-24
 -1       167 5.04893E-05-3.21525E-07-1.65436E-24
 -1       168 5.03792E-05-2.69984E-07 8.27181E-25
 -1       169 5.02482E-05-1.62478E-07 0.00000E+00
 -1       170 5.00923E-05 1.14772E-08-8.27181E-25
 -1       171 4.99078E-05 2.62326E-07-1.65436E-24
 -1       172 4.96909E-05 6.00577E-07 0.00000E+00
 -1       173 4.94378E-05 1.03656E-06-8.27181E-25
 -1       174 4.91469E-05 1.58139E-06 0.00000E+00
 -1       175 4.88114E-05 2.24428E-06 3.30872E-24
 -1       191 5.10068E-05 5.03519E-07 0.00000E+00
 -1       192 5.07924E-05 1.01234E-06-6.61744E-24
 -1       193 5.04304E-05 1.52199E-06 0.00000E+00
 -1       194 4.99197E-05 2.03154E-06 0.00000E+00
 -1       195 4.92588E-05 2.54003E-06 0.00000E+00
 -1       251 4.71435E-05 2.94762E-06 0.00000E+00
 -1       252 4.71859E-05 5.76638E-06 0.00000E+00
 -1       253 4.72310E-05 7.41144E-06 0.00000E+00
 -1       254 4.72791E-05 8.05770E-06 0.00000E+00
 -1       255 4.73279E-05 7.87955E-06-1.34417E-24
 -1       256 4.73768E-05 7.05121E-06 2.06795E-25
 -1       257 4.74254E-05 5.74672E-06-1.65436E-24
 -1       258 4.74737E-05 4.13997E-06 0.00000E+00
 -1       259 4.75217E-05 2.40476E-06-1.65436E-24
 -1       260 4.75698E-05 7.14875E-07 0.00000E+00
 -1       261 4.76181E-05-7.55896E-07 0.00000E+00
 -1       262 4.76665E-05-1.83373E-06 0.00000E+00
 -1       263 4.77149E-05-2.34464E-06 0.00000E+00
 -1       264 4.77615E-05-2.11457E-06 0.00000E+00
 -1       265 4.78073E-05-9.69018E-07-1.65436E-24
 -1       266 4.20333E-05-1.31769E-06-6.61744E-24
 -1       267 3.69867E-05-1.40865E-06 1.65436E-24
 -1       268 3.21944E-05-1.49832E-06-3.30872E-24
 -1       269 2.78714E-05-1.58442E-06 0.00000E+00
 -1       270 2.42327E-05-1.66777E-06 0.00000E+00
 -1       271 4.45457E-05 2.69025E-06 0.00000E+00
 -1       272 4.23962E-05 5.38567E-06 0.00000E+00
 -1       273 4.06502E-05 7.01377E-06 2.64698E-23
 -1       274 3.92481E-05 7.71640E-06 1.32349E-23
 -1       275 3.81366E-05 7.64370E-06 2.64698E-23
 -1       276 3.72571E-05 6.95032E-06 1.32349E-23
 -1       277 3.65504E-05 5.79484E-06-2.64698E-23
 -1       278 3.59560E-05 4.33915E-06 1.32349E-23
 -1       279 3.54126E-05 2.74693E-06-2.64698E-23
 -1       280 3.48588E-05 1.18295E-06 0.00000E+00
 -1       281 3.42331E-05-1.88262E-07 0.00000E+00
 -1       282 3.34752E-05-1.20346E-06 0.00000E+00
 -1       283 3.25245E-05-1.70174E-06 0.00000E+00
 -1       284 3.13260E-05-1.52450E-06-1.32349E-23
 -1       285 2.98162E-05-5.20497E-07-1.32349E-23
 -1       286 4.77858E-05 3.69083E-06 0.00000E+00
 -1       287 4.77443E-05 5.30656E-06-1.65436E-24
 -1       288 4.77038E-05 6.21058E-06 0.00000E+00
 -1       289 4.76649E-05 6.50223E-06 0.00000E+00
 -1       290 4.76264E-05 6.28077E-06 1.65436E-24
 -1       291 4.75879E-05 5.64566E-06-8.27181E-25
 -1       292 4.75493E-05 4.69644E-06 0.00000E+00
 -1       293 4.75105E-05 3.53270E-06 8.27181E-25
 -1       294 4.74716E-05 2.25410E-06 1.65436E-24
 -1       295 4.74326E-05 9.60325E-07-4.13590E-25
 -1       296 4.73936E-05-2.48970E-07-1.65436E-24
 -1       297 4.73545E-05-1.27412E-06 8.27181E-25
 -1       298 4.73154E-05-2.01547E-06 0.00000E+00
 -1       299 4.72749E-05-2.37354E-06 0.00000E+00
 -1       300 4.72343E-05-2.24874E-06 6.61744E-24
 -1       301 4.46584E-05 1.28874E-06 3.30872E-24
 -1       302 4.13321E-05 1.32479E-06-3.10193E-25
 -1       303 3.79294E-05 1.36295E-06 4.13590E-25
 -1       304 3.45218E-05 1.40167E-06 0.00000E+00
 -1       305 3.11808E-05 1.43948E-06 0.00000E+00
 -1       306 4.58903E-05 3.33749E-06 0.00000E+00
 -1       307 4.41986E-05 4.62530E-06 0.00000E+00
 -1       308 4.27648E-05 5.22912E-06-2.64698E-23
 -1       309 4.15482E-05 5.24082E-06 0.00000E+00
 -1       310 4.05158E-05 4.75915E-06 2.64698E-23
 -1       311 3.96296E-05 3.88529E-06-1.32349E-23
 -1       312 3.88510E-05 2.72315E-06 0.00000E+00
 -1       313 3.81405E-05 1.37870E-06 0.00000E+00
 -1       314 3.74581E-05-4.08747E-08-2.64698E-23
 -1       315 3.67636E-05-1.42776E-06 0.00000E+00
 -1       316 3.60170E-05-2.67448E-06-2.64698E-23
 -1       317 3.51789E-05-3.67442E-06 0.00000E+00
 -1       318 3.42100E-05-4.32275E-06 0.00000E+00
 -1       319 3.30760E-05-4.51592E-06 0.00000E+00
 -1       320 3.17341E-05-4.15654E-06 2.64698E-23
 -1       321 4.71842E-05-6.54570E-07 0.00000E+00
 -1       322 4.71997E-05-6.50139E-08 0.00000E+00
 -1       323 4.72154E-05 2.66614E-07 0.00000E+00
 -1       324 4.72330E-05 3.81053E-07 0.00000E+00
 -1       325 4.72510E-05 3.18948E-07-2.06795E-25
 -1       326 4.72694E-05 1.20948E-07 1.03398E-25
 -1       327 4.72878E-05-1.72320E-07 0.00000E+00
 -1       328 4.73063E-05-5.20234E-07-2.06795E-25
 -1       329 4.73248E-05-8.82175E-07-4.13590E-25
 -1       330 4.73433E-05-1.21754E-06 0.00000E+00
 -1       331 4.73618E-05-1.48570E-06 0.00000E+00
 -1       332 4.73801E-05-1.64604E-06 0.00000E+00
 -1       333 4.73984E-05-1.65792E-06 0.00000E+00
 -1       334 4.74159E-05-1.48070E-06 5.16988E-26
 -1       335 4.74333E-05-1.07368E-06 8.27181E-25
 -1       336 4.53513E-05-1.80796E-06 0.00000E+00
 -1       337 4.25592E-05-2.07380E-06-3.30872E-24
 -1       338 3.92250E-05-2.34101E-06 6.61744E-24
 -1       339 3.57705E-05-2.60812E-06 0.00000E+00
 -1       340 3.26173E-05-2.87431E-06 0.00000E+00
 -1       341 4.62312E-05-8.58857E-07 0.00000E+00
 -1       342 4.53637E-05-4.40959E-07 0.00000E+00
 -1       343 4.45808E-05-2.47761E-07 0.00000E+00
 -1       344 4.38665E-05-2.42976E-07 6.61744E-24
 -1       345 4.32081E-05-3.88322E-07 0.00000E+00
 -1       346 4.25913E-05-6.45423E-07 1.32349E-23
 -1       347 4.20017E-05-9.75408E-07-5.29396E-23
 -1       348 4.14247E-05-1.33913E-06-1.32349E-23
 -1       349 4.08457E-05-1.69729E-06 1.32349E-23
 -1       350 4.02500E-05-2.01063E-06-6.61744E-24
 -1       351 3.96230E-05-2.24007E-06 0.00000E+00
 -1       352 3.89507E-05-2.34678E-06 0.00000E+00
 -1       353 3.82186E-05-2.29256E-06 1.32349E-23
 -1       354 3.74157E-05-2.03879E-06-6.61744E-24
 -1       355 3.65244E-05-1.55012E-06 1.32349E-23
 -1       356 4.74988E-05 3.19624E-07-8.27181E-25
 -1       357 4.75591E-05 8.28975E-07 4.13590E-25
 -1       358 4.76196E-05 1.16149E-06-1.65436E-24
 -1       359 4.76810E-05 1.34727E-06 8.27181E-25
 -1       360 4.77426E-05 1.41635E-06 1.65436E-24
 -1       361 4.78044E-05 1.39872E-06 0.00000E+00
 -1       362 4.78663E-05 1.32434E-06 0.00000E+00
 -1       363 4.79283E-05 1.22314E-06 0.00000E+00
 -1       364 4.79903E-05 1.12506E-06-1.65436E-24
 -1       365 4.80524E-05 1.06003E-06 8.27181E-25
 -1       366 4.81146E-05 1.05799E-06-1.65436E-24
 -1       367 4.81771E-05 1.14891E-06 0.00000E+00
 -1       368 4.82400E-05 1.36279E-06 3.30872E-24
 -1       369 4.83047E-05 1.72965E-06 0.00000E+00
 -1       370 4.83694E-05 2.27964E-06 6.61744E-24
 -1       371 4.60842E-05-4.61802E-07 0.00000E+00
 -1       372 4.40824E-05-5.26361E-07 0.00000E+00
 -1       373 4.17340E-05-5.91489E-07 0.00000E+00
 -1       374 3.93339E-05-6.56167E-07-8.27181E-25
 -1       375 3.71773E-05-7.20303E-07 0.00000E+00
 -1       376 4.69101E-05 2.10472E-07 6.61744E-24
 -1       377 4.64475E-05 6.00414E-07-3.30872E-24
 -1       378 4.60506E-05 8.15543E-07 6.61744E-24
 -1       379 4.57032E-05 8.95409E-07 0.00000E+00
 -1       380 4.53913E-05 8.80477E-07 0.00000E+00
 -1       381 4.50996E-05 8.11088E-07 0.00000E+00
 -1       382 4.48130E-05 7.27725E-07 0.00000E+00
 -1       383 4.45165E-05 6.70866E-07-3.30872E-24
 -1       384 4.41950E-05 6.80948E-07 0.00000E+00
 -1       385 4.38333E-05 7.98283E-07 3.30872E-24
 -1       386 4.34164E-05 1.06299E-06-6.61744E-24
 -1       387 4.29298E-05 1.51498E-06 3.30872E-24
 -1       388 4.23584E-05 2.19374E-06 6.61744E-24
 -1       389 4.16903E-05 3.13918E-06-1.65436E-24
 -1       390 4.09074E-05 4.38879E-06 8.27181E-25
 -1       406 4.74636E-05 3.53256E-06 1.32349E-23
 -1       407 4.63085E-05 4.02729E-06 6.61744E-24
 -1       408 4.49837E-05 4.52241E-06 0.00000E+00
 -1       409 4.34918E-05 5.01658E-06 6.61744E-24
 -1       410 4.18353E-05 5.50838E-06 0.00000E+00
 -1       466 2.18788E-05-2.76693E-08-6.61744E-24
 -1       467 2.22849E-05 9.83571E-07 3.30872E-24
 -1       468 2.26915E-05 1.39852E-06 1.32349E-23
 -1       469 2.31007E-05 1.32653E-06 6.61744E-24
 -1       470 2.35104E-05 8.75824E-07 0.00000E+00
 -1       471 2.39203E-05 1.53632E-07 0.00000E+00
 -1       472 2.43303E-05-7.33356E-07 0.00000E+00
 -1       473 2.47403E-05-1.67889E-06 0.00000E+00
 -1       474 2.51503E-05-2.57687E-06-1.32349E-23
 -1       475 2.55604E-05-3.32103E-06 6.61744E-24
 -1       476 2.59703E-05-3.80481E-06 1.32349E-23
 -1       477 2.63798E-05-3.92095E-06 0.00000E+00
 -1       478 2.67885E-05-3.56142E-06-1.32349E-23
 -1       479 2.71936E-05-2.61700E-06-6.61744E-24
 -1       480 2.75976E-05-9.77057E-07-6.61744E-24
 -1       481 1.92472E-05-1.64364E-06 0.00000E+00
 -1       482 1.69416E-05-1.53723E-06-8.27181E-25
 -1       483 1.46718E-05-1.43077E-06 3.30872E-24
 -1       484 1.25355E-05-1.32358E-06 0.00000E+00
 -1       485 1.06301E-05-1.21582E-06 0.00000E+00
 -1       486 2.03386E-05-1.15905E-08 0.00000E+00
 -1       487 1.93302E-05 1.27950E-06 0.00000E+00
 -1       488 1.84681E-05 2.18266E-06 1.32349E-23
 -1       489 1.77306E-05 2.74597E-06 0.00000E+00
 -1       490 1.71013E-05 3.02024E-06 0.00000E+00
 -1       491 1.65609E-05 3.05643E-06 6.61744E-24
 -1       492 1.60903E-05 2.90629E-06 0.00000E+00
 -1       493 1.56698E-05 2.62212E-06 0.00000E+00
 -1       494 1.52798E-05 2.25658E-06 0.00000E+00
 -1       495 1.49005E-05 1.86261E-06 0.00000E+00
 -1       496 1.45121E-05 1.49325E-06 0.00000E+00
 -1       497 1.40951E-05 1.20150E-06 0.00000E+00
 -1       498 1.36296E-05 1.04006E-06 0.00000E+00
 -1       499 1.30979E-05 1.06188E-06 0.00000E+00
 -1       500 1.24782E-05 1.31788E-06 0.00000E+00
 -1       501 2.81008E-05 3.84924E-06 0.00000E+00
 -1       502 2.82389E-05 5.30233E-06 0.00000E+00
 -1       503 2.83779E-05 5.95183E-06-1.65436E-24
 -1       504 2.85189E-05 5.92105E-06-1.65436E-24
 -1       505 2.86601E-05 5.33258E-06-3.30872E-24
 -1       506 2.88013E-05 4.30857E-06 0.00000E+00
 -1       507 2.89422E-05 2.97085E-06 0.00000E+00
 -1       508 2.90829E-05 1.44095E-06-1.65436E-24
 -1       509 2.92236E-05-1.59732E-07 0.00000E+00
 -1       510 2.93642E-05-1.70983E-06-1.65436E-24
 -1       511 2.95050E-05-3.08801E-06 3.30872E-24
 -1       512 2.96456E-05-4.17272E-06 0.00000E+00
 -1       513 2.97862E-05-4.84221E-06 0.00000E+00
 -1       514 2.99248E-05-4.97441E-06 0.00000E+00
 -1       515 3.00631E-05-4.44670E-06-4.13590E-25
 -1       516 2.48201E-05 1.52804E-06 0.00000E+00
 -1       517 2.15298E-05 1.59482E-06 1.03398E-25
 -1       518 1.83423E-05 1.66177E-06-2.06795E-25
 -1       519 1.54948E-05 1.73005E-06 2.06795E-25
 -1       520 1.32245E-05 1.79988E-06 0.00000E+00
 -1       521 2.62122E-05 3.60195E-06 1.32349E-23
 -1       522 2.47300E-05 4.89042E-06 0.00000E+00
 -1       523 2.35241E-05 5.44559E-06 0.00000E+00
 -1       524 2.25502E-05 5.37010E-06 0.00000E+00
 -1       525 2.17713E-05 4.77272E-06-2.64698E-23
 -1       526 2.11455E-05 3.76435E-06 1.32349E-23
 -1       527 2.06309E-05 2.45822E-06 2.64698E-23
 -1       528 2.01845E-05 9.69374E-07 0.00000E+00
 -1       529 1.97630E-05-5.86174E-07-2.64698E-23
 -1       530 1.93230E-05-2.09195E-06 0.00000E+00
 -1       531 1.88211E-05-3.43182E-06 2.64698E-23
 -1       532 1.82148E-05-4.49052E-06 1.32349E-23
 -1       533 1.74613E-05-5.15449E-06 2.64698E-23
 -1       534 1.65221E-05-5.31163E-06-1.32349E-23
 -1       535 1.53520E-05-4.85489E-06 1.32349E-23
 -1       536 3.04954E-05-1.62906E-06-1.65436E-24
 -1       537 3.08300E-05-5.89265E-07 0.00000E+00
 -1       538 3.11651E-05 4.51719E-08 0.00000E+00
 -1       539 3.15036E-05 3.36631E-07-3.30872E-24
 -1       540 3.18429E-05 3.46803E-07-6.61744E-24
 -1       541 3.21828E-05 1.36787E-07-6.61744E-24
 -1       542 3.25228E-05-2.32698E-07 0.00000E+00
 -1       543 3.28629E-05-7.01283E-07 0.00000E+00
 -1       544 3.32030E-05-1.20876E-06-1.32349E-23
 -1       545 3.35430E-05-1.69504E-06 6.61744E-24
 -1       546 3.38830E-05-2.09995E-06 1.32349E-23
 -1       547 3.42226E-05-2.36317E-06 0.00000E+00
 -1       548 3.45619E-05-2.42413E-06 0.00000E+00
 -1       549 3.48991E-05-2.22183E-06 3.30872E-24
 -1       550 3.52360E-05-1.69474E-06 0.00000E+00
 -1       551 2.77899E-05-3.22917E-06-2.89513E-24
 -1       552 2.50675E-05-3.31618E-06-1.65436E-24
 -1       553 2.21684E-05-3.40263E-06-3.30872E-24
 -1       554 1.92457E-05-3.48924E-06 6.61744E-24
 -1       555 1.64525E-05-3.57672E-06-6.61744E-24
 -1       556 2.92846E-05-1.82123E-06 0.00000E+00
 -1       557 2.85276E-05-9.06352E-07 6.61744E-24
 -1       558 2.79005E-05-3.40443E-07 0.00000E+00
 -1       559 2.73840E-05-7.05851E-08 0.00000E+00
 -1       560 2.69584E-05-4.37476E-08 0.00000E+00
 -1       561 2.66040E-05-2.06681E-07 0.00000E+00
 -1       562 2.63007E-05-5.06086E-07 1.32349E-23
 -1       563 2.60285E-05-8.88587E-07 0.00000E+00
 -1       564 2.57675E-05-1.30078E-06 0.00000E+00
 -1       565 2.54976E-05-1.68925E-06 6.61744E-24
 -1       566 2.51989E-05-2.00058E-06 0.00000E+00
 -1       567 2.48515E-05-2.18138E-06 0.00000E+00
 -1       568 2.44355E-05-2.17829E-06 1.32349E-23
 -1       569 2.39318E-05-1.93798E-06-3.30872E-24
 -1       570 2.33212E-05-1.40724E-06 0.00000E+00
 -1       571 3.58208E-05 9.76687E-08-3.20532E-24
 -1       572 3.60966E-05 7.02987E-07 1.65436E-24
 -1       573 3.63750E-05 1.07887E-06-3.30872E-24
 -1       574 3.66550E-05 1.27116E-06-3.30872E-24
 -1       575 3.69354E-05 1.32573E-06 6.61744E-24
 -1       576 3.72162E-05 1.28856E-06 0.00000E+00
 -1       577 3.74970E-05 1.20564E-06 6.61744E-24
 -1       578 3.77780E-05 1.12298E-06 0.00000E+00
 -1       579 3.80589E-05 1.08654E-06 1.32349E-23
 -1       580 3.83398E-05 1.14233E-06 0.00000E+00
 -1       581 3.86207E-05 1.33637E-06 0.00000E+00
 -1       582 3.89014E-05 1.71471E-06 0.00000E+00
 -1       583 3.91820E-05 2.32341E-06 0.00000E+00
 -1       584 3.94620E-05 3.20838E-06 0.00000E+00
 -1       585 3.97412E-05 4.41552E-06-1.32349E-23
 -1       586 3.37417E-05-7.39402E-07 0.00000E+00
 -1       587 3.15675E-05-6.95938E-07 0.00000E+00
 -1       588 2.91991E-05-6.52563E-07 0.00000E+00
 -1       589 2.68033E-05-6.09719E-07 0.00000E+00
 -1       590 2.45470E-05-5.67874E-07 0.00000E+00
 -1       591 3.49683E-05 1.04037E-07 6.61744E-24
 -1       592 3.44414E-05 7.91277E-07 0.00000E+00
 -1       593 3.39741E-05 1.31423E-06 6.61744E-24
 -1       594 3.35553E-05 1.70502E-06 0.00000E+00
 -1       595 3.31737E-05 1.99584E-06 0.00000E+00
 -1       596 3.28174E-05 2.21878E-06 3.30872E-24
 -1       597 3.24744E-05 2.40597E-06 0.00000E+00
 -1       598 3.21327E-05 2.58949E-06 0.00000E+00
 -1       599 3.17804E-05 2.80146E-06 6.61744E-24
 -1       600 3.14054E-05 3.07396E-06 3.30872E-24
 -1       601 3.09957E-05 3.43908E-06 6.61744E-24
 -1       602 3.05395E-05 3.92889E-06 1.65436E-24
 -1       603 3.00248E-05 4.57547E-06-3.30872E-24
 -1       604 2.94407E-05 5.41099E-06-1.24077E-24
 -1       605 2.87762E-05 6.46757E-06 8.27181E-25
 -1       606 4.01015E-05 8.03948E-06 0.00000E+00
 -1       607 4.01780E-05 1.03161E-05 0.00000E+00
 -1       608 4.02528E-05 1.28030E-05-6.61744E-24
 -1       609 4.03262E-05 1.54835E-05 0.00000E+00
 -1       610 4.03989E-05 1.83410E-05-6.61744E-24
 -1       611 4.04711E-05 2.13586E-05 0.00000E+00
 -1       612 4.05428E-05 2.45196E-05 0.00000E+00
 -1       613 4.06140E-05 2.78073E-05 0.00000E+00
 -1       614 4.06849E-05 3.12047E-05 0.00000E+00
 -1       615 4.07555E-05 3.46951E-05 0.00000E+00
 -1       616 4.08258E-05 3.82617E-05 0.00000E+00
 -1       617 4.08959E-05 4.18879E-05 0.00000E+00
 -1       618 4.09657E-05 4.55567E-05 0.00000E+00
 -1       619 4.10353E-05 4.92515E-05 8.27181E-25
 -1       620 4.11046E-05 5.29556E-05-1.65436E-24
 -1       621 3.79747E-05 6.28693E-06-6.61744E-24
 -1       622 3.58901E-05 6.58834E-06-3.30872E-24
 -1       623 3.38085E-05 6.88999E-06-6.61744E-24
 -1       624 3.17750E-05 7.19092E-06 3.30872E-24
 -1       625 2.98346E-05 7.49011E-06 3.30872E-24
 -1       626 3.94067E-05 8.14049E-06 0.00000E+00
 -1       627 3.86974E-05 1.05447E-05 0.00000E+00
 -1       628 3.79018E-05 1.31761E-05 0.00000E+00
 -1       629 3.70304E-05 1.60074E-05-3.30872E-24
 -1       630 3.60936E-05 1.90113E-05-6.61744E-24
 -1       631 3.51019E-05 2.21604E-05 3.30872E-24
 -1       632 3.40655E-05 2.54271E-05 6.61744E-24
 -1       633 3.29951E-05 2.87842E-05 0.00000E+00
 -1       634 3.19007E-05 3.22041E-05 0.00000E+00
 -1       635 3.07929E-05 3.56596E-05-3.30872E-24
 -1       636 2.96820E-05 3.91231E-05 6.61744E-24
 -1       637 2.85783E-05 4.25673E-05 0.00000E+00
 -1       638 2.74920E-05 4.59648E-05 0.00000E+00
 -1       639 2.64330E-05 4.92880E-05 1.65436E-24
 -1       640 2.54111E-05 5.25095E-05 0.00000E+00
 -1       641 4.11717E-05 6.03389E-05 8.27181E-25
 -1       642 4.11693E-05 6.40947E-05 0.00000E+00
 -1       643 4.11667E-05 6.79079E-05-4.13590E-25
 -1       644 4.11637E-05 7.17664E-05 0.00000E+00
 -1       645 4.11605E-05 7.56581E-05 0.00000E+00
 -1       646 4.11571E-05 7.95712E-05 0.00000E+00
 -1       647 4.11538E-05 8.34936E-05 0.00000E+00
 -1       648 4.11504E-05 8.74132E-05 0.00000E+00
 -1       649 4.11471E-05 9.13182E-05 0.00000E+00
 -1       650 4.11438E-05 9.51964E-05-2.58494E-26
 -1       651 4.11407E-05 9.90360E-05 0.00000E+00
 -1       652 4.11377E-05 1.02825E-04 0.00000E+00
 -1       653 4.11348E-05 1.06551E-04 0.00000E+00
 -1       654 4.11317E-05 1.10202E-04 0.00000E+00
 -1       655 4.11289E-05 1.13767E-04 0.00000E+00
 -1       656 3.78318E-05 5.64816E-05 0.00000E+00
 -1       657 3.49021E-05 5.63032E-05-1.65436E-24
 -1       658 3.22406E-05 5.61257E-05 0.00000E+00
 -1       659 2.97038E-05 5.59484E-05 1.65436E-24
 -1       660 2.71483E-05 5.57708E-05 0.00000E+00
 -1       661 3.99588E-05 6.03959E-05 0.00000E+00
 -1       662 3.87295E-05 6.41989E-05 0.00000E+00
 -1       663 3.74834E-05 6.80463E-05 0.00000E+00
 -1       664 3.62262E-05 7.19255E-05 0.00000E+00
 -1       665 3.49619E-05 7.58237E-05-6.61744E-24
 -1       666 3.36955E-05 7.97280E-05 3.30872E-24
 -1       667 3.24315E-05 8.36257E-05 0.00000E+00
 -1       668 3.11749E-05 8.75043E-05 3.30872E-24
 -1       669 2.99304E-05 9.13507E-05 6.61744E-24
 -1       670 2.87029E-05 9.51525E-05-3.30872E-24
 -1       671 2.74971E-05 9.88966E-05 0.00000E+00
 -1       672 2.63178E-05 1.02570E-04 0.00000E+00
 -1       673 2.51699E-05 1.06160E-04 6.61744E-24
 -1       674 2.40573E-05 1.09653E-04 0.00000E+00
 -1       675 2.29862E-05 1.13036E-04 1.65436E-24
 -1       676 3.77742E-05 1.17078E-04-3.30872E-24
 -1       677 3.45149E-05 1.16920E-04 0.00000E+00
 -1       678 3.13243E-05 1.16762E-04 0.00000E+00
 -1       679 2.81811E-05 1.16604E-04 0.00000E+00
 -1       680 2.50640E-05 1.16446E-04-3.30872E-24
 -1       681 9.21856E-06 4.20729E-08-3.30872E-24
 -1       682 9.38874E-06 8.63417E-07-1.65436E-24
 -1       683 9.55914E-06 1.39832E-06 6.61744E-24
 -1       684 9.73024E-06 1.69027E-06-1.65436E-24
 -1       685 9.90151E-06 1.78249E-06 6.61744E-24
 -1       686 1.00729E-05 1.71801E-06-3.30872E-24
 -1       687 1.02443E-05 1.53971E-06 6.61744E-24
 -1       688 1.04157E-05 1.29036E-06 0.00000E+00
 -1       689 1.05871E-05 1.01263E-06 0.00000E+00
 -1       690 1.07584E-05 7.49199E-07-3.30872E-24
 -1       691 1.09297E-05 5.42745E-07 6.61744E-24
 -1       692 1.11006E-05 4.36004E-07-3.30872E-24
 -1       693 1.12714E-05 4.71806E-07 3.30872E-24
 -1       694 1.14406E-05 6.93116E-07 0.00000E+00
 -1       695 1.16096E-05 1.14313E-06 1.65436E-24
 -1       696 7.58851E-06-9.29351E-07-3.30872E-24
 -1       697 5.99826E-06-7.44694E-07 0.00000E+00
 -1       698 4.36319E-06-5.60016E-07 0.00000E+00
 -1       699 2.76440E-06-3.74315E-07 0.00000E+00
 -1       700 1.28303E-06-1.88292E-07 6.61744E-24
 -1       701 8.42637E-06 2.89853E-08 0.00000E+00
 -1       702 7.88294E-06 9.12335E-07 0.00000E+00
 -1       703 7.42387E-06 1.57154E-06 6.61744E-24
 -1       704 7.03735E-06 2.03307E-06 3.30872E-24
 -1       705 6.71440E-06 2.32463E-06 0.00000E+00
 -1       706 6.44465E-06 2.47369E-06-3.30872E-24
 -1       707 6.21788E-06 2.50796E-06-6.61744E-24
 -1       708 6.02370E-06 2.45526E-06 0.00000E+00
 -1       709 5.85167E-06 2.34349E-06 0.00000E+00
 -1       710 5.69132E-06 2.20065E-06 3.30872E-24
 -1       711 5.53219E-06 2.05477E-06-6.61744E-24
 -1       712 5.36394E-06 1.93394E-06-3.30872E-24
 -1       713 5.17605E-06 1.86614E-06 6.61744E-24
 -1       714 4.95926E-06 1.87974E-06 0.00000E+00
 -1       715 4.70161E-06 2.00202E-06-1.65436E-24
 -1       716 1.18956E-05 2.44621E-06 1.55096E-25
 -1       717 1.20325E-05 2.52685E-06-8.27181E-25
 -1       718 1.21694E-05 2.18775E-06 0.00000E+00
 -1       719 1.23075E-05 1.51012E-06 0.00000E+00
 -1       720 1.24457E-05 5.74791E-07 0.00000E+00
 -1       721 1.25839E-05-5.37566E-07 1.65436E-24
 -1       722 1.27221E-05-1.74641E-06 3.30872E-24
 -1       723 1.28603E-05-2.97133E-06 0.00000E+00
 -1       724 1.29985E-05-4.13188E-06 3.30872E-24
 -1       725 1.31368E-05-5.14755E-06 0.00000E+00
 -1       726 1.32752E-05-5.93779E-06 0.00000E+00
 -1       727 1.34133E-05-6.42178E-06 1.65436E-24
 -1       728 1.35510E-05-6.51852E-06 3.30872E-24
 -1       729 1.36865E-05-6.14668E-06 0.00000E+00
 -1       730 1.38214E-05-5.22449E-06-4.13590E-25
 -1       731 1.06301E-05 1.92605E-06 0.00000E+00
 -1       732 9.22693E-06 1.99309E-06 0.00000E+00
 -1       733 7.73036E-06 2.06002E-06 0.00000E+00
 -1       734 6.31273E-06 2.12787E-06 8.27181E-25
 -1       735 5.14645E-06 2.19616E-06 1.65436E-24
 -1       736 1.10727E-05 2.44204E-06 0.00000E+00
 -1       737 1.04621E-05 2.74661E-06 0.00000E+00
 -1       738 9.94015E-06 2.81528E-06 0.00000E+00
 -1       739 9.49267E-06 2.67912E-06-6.61744E-24
 -1       740 9.10922E-06 2.37117E-06-1.32349E-23
 -1       741 8.77742E-06 1.92436E-06-6.61744E-24
 -1       742 8.48501E-06 1.37212E-06 1.32349E-23
 -1       743 8.21942E-06 7.48082E-07 0.00000E+00
 -1       744 7.96804E-06 8.61094E-08 1.32349E-23
 -1       745 7.71819E-06-5.79815E-07 6.61744E-24
 -1       746 7.45718E-06-1.21573E-06 1.32349E-23
 -1       747 7.17254E-06-1.78767E-06 0.00000E+00
 -1       748 6.85162E-06-2.26194E-06 0.00000E+00
 -1       749 6.48337E-06-2.60463E-06-6.61744E-24
 -1       750 6.05352E-06-2.78333E-06 6.61744E-24
 -1       751 1.44452E-05-2.04286E-06-3.30872E-24
 -1       752 1.49854E-05-9.16738E-07 0.00000E+00
 -1       753 1.55261E-05-2.23157E-07 0.00000E+00
 -1       754 1.60716E-05 1.05967E-07 0.00000E+00
 -1       755 1.66182E-05 1.37616E-07 0.00000E+00
 -1       756 1.71656E-05-6.22599E-08 0.00000E+00
 -1       757 1.77132E-05-4.28347E-07 1.32349E-23
 -1       758 1.82610E-05-8.95926E-07 0.00000E+00
 -1       759 1.88087E-05-1.40055E-06 0.00000E+00
 -1       760 1.93564E-05-1.87791E-06 6.61744E-24
 -1       761 1.99038E-05-2.26363E-06 0.00000E+00
 -1       762 2.04506E-05-2.49299E-06-6.61744E-24
 -1       763 2.09967E-05-2.50084E-06-1.32349E-23
 -1       764 2.15389E-05-2.22129E-06 0.00000E+00
 -1       765 2.20807E-05-1.58755E-06 0.00000E+00
 -1       766 1.20066E-05-3.53179E-06 0.00000E+00
 -1       767 1.01759E-05-3.37615E-06 8.27181E-25
 -1       768 8.53163E-06-3.22047E-06 0.00000E+00
 -1       769 7.15820E-06-3.06382E-06 8.27181E-25
 -1       770 6.14041E-06-2.90636E-06 0.00000E+00
 -1       771 1.26358E-05-2.22439E-06 2.64698E-23
 -1       772 1.14261E-05-1.08822E-06 0.00000E+00
 -1       773 1.03161E-05-2.27759E-07-2.64698E-23
 -1       774 9.29598E-06 3.87845E-07 1.32349E-23
 -1       775 8.35547E-06 7.89591E-07-2.64698E-23
 -1       776 7.48330E-06 1.00841E-06 0.00000E+00
 -1       777 6.66802E-06 1.07533E-06 0.00000E+00
 -1       778 5.89804E-06 1.02143E-06 1.32349E-23
 -1       779 5.16169E-06 8.77902E-07 0.00000E+00
 -1       780 4.44730E-06 6.75983E-07 1.32349E-23
 -1       781 3.74321E-06 4.46964E-07 0.00000E+00
 -1       782 3.03791E-06 2.22203E-07-1.32349E-23
 -1       783 2.31989E-06 3.30744E-08 2.64698E-23
 -1       784 1.57880E-06-8.87565E-08-6.61744E-24
 -1       785 8.04212E-07-1.11696E-07-1.32349E-23
 -1       786 2.29141E-05 6.07982E-07 3.30872E-24
 -1       787 2.32530E-05 1.46293E-06 3.30872E-24
 -1       788 2.35923E-05 2.07674E-06 6.61744E-24
 -1       789 2.39343E-05 2.49325E-06 3.30872E-24
 -1       790 2.42769E-05 2.75591E-06-1.32349E-23
 -1       791 2.46200E-05 2.90783E-06 6.61744E-24
 -1       792 2.49633E-05 2.99196E-06-1.32349E-23
 -1       793 2.53066E-05 3.05106E-06 0.00000E+00
 -1       794 2.56500E-05 3.12787E-06 1.32349E-23
 -1       795 2.59933E-05 3.26516E-06 0.00000E+00
 -1       796 2.63365E-05 3.50580E-06 1.32349E-23
 -1       797 2.66794E-05 3.89292E-06 0.00000E+00
 -1       798 2.70219E-05 4.46987E-06 1.32349E-23
 -1       799 2.73626E-05 5.28041E-06 0.00000E+00
 -1       800 2.77030E-05 6.36880E-06 6.61744E-24
 -1       801 1.99129E-05-4.43521E-07 0.00000E+00
 -1       802 1.56620E-05-3.51110E-07 0.00000E+00
 -1       803 1.06925E-05-2.61849E-07 8.27181E-25
 -1       804 5.85734E-06-1.73073E-07 0.00000E+00
 -1       805 2.00960E-06-8.06530E-08 0.00000E+00
 -1       806 2.17775E-05 4.64108E-07 0.00000E+00
 -1       807 2.10157E-05 1.27326E-06 0.00000E+00
 -1       808 2.03089E-05 1.92899E-06 1.32349E-23
 -1       809 1.96464E-05 2.46246E-06 6.61744E-24
 -1       810 1.90177E-05 2.90494E-06 1.32349E-23
 -1       811 1.84112E-05 3.28755E-06 0.00000E+00
 -1       812 1.78154E-05 3.64140E-06 1.32349E-23
 -1       813 1.72187E-05 3.99760E-06-6.61744E-24
 -1       814 1.66094E-05 4.38727E-06 0.00000E+00
 -1       815 1.59759E-05 4.84148E-06 0.00000E+00
 -1       816 1.53066E-05 5.39130E-06 6.61744E-24
 -1       817 1.45900E-05 6.06780E-06 3.30872E-24
 -1       818 1.38146E-05 6.90199E-06-6.61744E-24
 -1       819 1.29700E-05 7.92500E-06 0.00000E+00
 -1       820 1.20458E-05 9.16789E-06-3.30872E-24
 -1       821 2.78221E-05 9.56211E-06-1.65436E-24
 -1       822 2.75995E-05 1.16624E-05 1.65436E-24
 -1       823 2.73762E-05 1.40479E-05 0.00000E+00
 -1       824 2.71505E-05 1.66854E-05-3.30872E-24
 -1       825 2.69240E-05 1.95414E-05 0.00000E+00
 -1       826 2.66966E-05 2.25821E-05 0.00000E+00
 -1       827 2.64686E-05 2.57735E-05-6.61744E-24
 -1       828 2.62403E-05 2.90813E-05 0.00000E+00
 -1       829 2.60116E-05 3.24712E-05-6.61744E-24
 -1       830 2.57829E-05 3.59086E-05 0.00000E+00
 -1       831 2.55542E-05 3.93592E-05 0.00000E+00
 -1       832 2.53258E-05 4.27883E-05 0.00000E+00
 -1       833 2.50979E-05 4.61613E-05 6.61744E-24
 -1       834 2.48716E-05 4.94439E-05 0.00000E+00
 -1       835 2.46458E-05 5.26017E-05 0.00000E+00
 -1       836 2.58507E-05 8.25181E-06 0.00000E+00
 -1       837 2.29699E-05 8.73992E-06 6.61744E-24
 -1       838 1.97189E-05 9.22647E-06-1.32349E-23
 -1       839 1.64278E-05 9.71212E-06 6.61744E-24
 -1       840 1.34261E-05 1.01990E-05-6.61744E-24
 -1       841 2.73101E-05 9.55386E-06 0.00000E+00
 -1       842 2.64569E-05 1.16612E-05 2.06795E-25
 -1       843 2.54912E-05 1.40670E-05-8.27181E-25
 -1       844 2.44261E-05 1.67335E-05-4.13590E-25
 -1       845 2.32762E-05 1.96238E-05-1.65436E-24
 -1       846 2.20557E-05 2.27007E-05 8.27181E-25
 -1       847 2.07786E-05 2.59267E-05 0.00000E+00
 -1       848 1.94593E-05 2.92644E-05 0.00000E+00
 -1       849 1.81118E-05 3.26764E-05 0.00000E+00
 -1       850 1.67504E-05 3.61252E-05 0.00000E+00
 -1       851 1.53892E-05 3.95732E-05-1.65436E-24
 -1       852 1.40424E-05 4.29831E-05 0.00000E+00
 -1       853 1.27243E-05 4.63172E-05-1.65436E-24
 -1       854 1.14489E-05 4.95382E-05 8.27181E-25
 -1       855 1.02304E-05 5.26086E-05-3.30872E-24
 -1       856 2.42855E-05 5.86545E-05 0.00000E+00
 -1       857 2.41324E-05 6.19747E-05 0.00000E+00
 -1       858 2.39786E-05 6.55258E-05-3.30872E-24
 -1       859 2.38232E-05 6.92723E-05 1.65436E-24
 -1       860 2.36670E-05 7.31780E-05 3.30872E-24
 -1       861 2.35101E-05 7.72068E-05 1.65436E-24
 -1       862 2.33528E-05 8.13227E-05 3.30872E-24
 -1       863 2.31953E-05 8.54892E-05 0.00000E+00
 -1       864 2.30377E-05 8.96701E-05 0.00000E+00
 -1       865 2.28803E-05 9.38290E-05 0.00000E+00
 -1       866 2.27231E-05 9.79297E-05 3.30872E-24
 -1       867 2.25663E-05 1.01936E-04 0.00000E+00
 -1       868 2.24102E-05 1.05811E-04 3.30872E-24
 -1       869 2.22553E-05 1.09520E-04-1.65436E-24
 -1       870 2.21011E-05 1.13025E-04-3.30872E-24
 -1       871 2.17423E-05 5.55843E-05 0.00000E+00
 -1       872 1.91733E-05 5.55670E-05 8.27181E-25
 -1       873 1.66736E-05 5.55494E-05-8.27181E-25
 -1       874 1.41923E-05 5.55314E-05-4.13590E-25
 -1       875 1.16784E-05 5.55127E-05-1.65436E-24
 -1       876 2.34909E-05 5.86991E-05 0.00000E+00
 -1       877 2.24765E-05 6.20199E-05 3.30872E-24
 -1       878 2.13899E-05 6.55312E-05 0.00000E+00
 -1       879 2.02430E-05 6.92052E-05 0.00000E+00
 -1       880 1.90455E-05 7.30133E-05 6.61744E-24
 -1       881 1.78080E-05 7.69273E-05 3.30872E-24
 -1       882 1.65409E-05 8.09194E-05-6.61744E-24
 -1       883 1.52548E-05 8.49619E-05 0.00000E+00
 -1       884 1.39601E-05 8.90270E-05 0.00000E+00
 -1       885 1.26673E-05 9.30870E-05-3.30872E-24
 -1       886 1.13868E-05 9.71143E-05 6.61744E-24
 -1       887 1.01290E-05 1.01081E-04-3.30872E-24
 -1       888 8.90445E-06 1.04959E-04 6.61744E-24
 -1       889 7.72256E-06 1.08721E-04-1.65436E-24
 -1       890 6.59538E-06 1.12339E-04 0.00000E+00
 -1       891 1.90450E-05 1.16208E-04 0.00000E+00
 -1       892 1.63873E-05 1.16122E-04 0.00000E+00
 -1       893 1.38427E-05 1.16036E-04 0.00000E+00
 -1       894 1.12747E-05 1.15951E-04 0.00000E+00
 -1       895 8.54687E-06 1.15865E-04 8.27181E-25
 -1       896 2.73676E-07 9.82878E-07 0.00000E+00
 -1       897 5.49527E-07 1.71659E-06 0.00000E+00
 -1       898 8.25528E-07 2.23104E-06 0.00000E+00
 -1       899 1.10188E-06 2.55607E-06 3.30872E-24
 -1       900 1.37833E-06 2.72121E-06 0.00000E+00
 -1       901 1.65483E-06 2.75571E-06 3.30872E-24
 -1       902 1.93135E-06 2.68863E-06 6.61744E-24
 -1       903 2.20786E-06 2.54887E-06 0.00000E+00
 -1       904 2.48435E-06 2.36521E-06-6.61744E-24
 -1       905 2.76079E-06 2.16635E-06 3.30872E-24
 -1       906 3.03715E-06 1.98099E-06 0.00000E+00
 -1       907 3.31327E-06 1.83783E-06-3.30872E-24
 -1       908 3.58915E-06 1.76563E-06 0.00000E+00
 -1       909 3.86372E-06 1.79330E-06 3.30872E-24
 -1       910 4.13822E-06 1.94988E-06 6.61744E-24
 -1       911 4.47604E-06 2.54498E-06 1.65436E-24
 -1       912 4.54954E-06 2.60181E-06 8.27181E-25
 -1       913 4.62304E-06 2.46586E-06 0.00000E+00
 -1       914 4.69662E-06 2.16822E-06 0.00000E+00
 -1       915 4.77016E-06 1.73989E-06 0.00000E+00
 -1       916 4.84368E-06 1.21180E-06 8.27181E-25
 -1       917 4.91717E-06 6.14872E-07 0.00000E+00
 -1       918 4.99062E-06-2.00367E-08 0.00000E+00
 -1       919 5.06405E-06-6.62061E-07-1.65436E-24
 -1       920 5.13744E-06-1.28034E-06-8.27181E-25
 -1       921 5.21079E-06-1.84402E-06 1.65436E-24
 -1       922 5.28394E-06-2.32221E-06-8.27181E-25
 -1       923 5.35689E-06-2.68398E-06 0.00000E+00
 -1       924 5.42860E-06-2.89837E-06 8.27181E-25
 -1       925 5.50028E-06-2.93431E-06 0.00000E+00
 -1       926 5.22457E-06-2.49957E-06 0.00000E+00
 -1       927 4.87749E-06-2.29968E-06 3.30872E-24
 -1       928 4.53037E-06-2.15088E-06 1.32349E-23
 -1       929 4.18202E-06-2.04254E-06 6.61744E-24
 -1       930 3.83343E-06-1.96402E-06 0.00000E+00
 -1       931 3.48462E-06-1.90457E-06 6.61744E-24
 -1       932 3.13573E-06-1.85345E-06 1.32349E-23
 -1       933 2.78679E-06-1.79986E-06 6.61744E-24
 -1       934 2.43785E-06-1.73302E-06-1.32349E-23
 -1       935 2.08890E-06-1.64218E-06 6.61744E-24
 -1       936 1.73997E-06-1.51664E-06 0.00000E+00
 -1       937 1.39111E-06-1.34578E-06-6.61744E-24
 -1       938 1.04231E-06-1.11903E-06-1.32349E-23
 -1       939 6.93906E-07-8.25978E-07 0.00000E+00
 -1       940 3.45496E-07-4.56314E-07 1.32349E-23
 -1       941 6.48003E-07 4.52443E-07-6.61744E-24
 -1       942 1.33773E-06 8.27520E-07-6.61744E-24
 -1       943 2.02773E-06 1.14787E-06 0.00000E+00
 -1       944 2.72355E-06 1.43599E-06 0.00000E+00
 -1       945 3.42048E-06 1.71425E-06 0.00000E+00
 -1       946 4.11848E-06 2.00498E-06 0.00000E+00
 -1       947 4.81681E-06 2.33056E-06 0.00000E+00
 -1       948 5.51531E-06 2.71353E-06 0.00000E+00
 -1       949 6.21380E-06 3.17661E-06 0.00000E+00
 -1       950 6.91212E-06 3.74291E-06 1.32349E-23
 -1       951 7.61009E-06 4.43588E-06 0.00000E+00
 -1       952 8.30714E-06 5.27958E-06 0.00000E+00
 -1       953 9.00318E-06 6.29855E-06 1.32349E-23
 -1       954 9.69452E-06 7.51815E-06 0.00000E+00
 -1       955 1.03854E-05 8.96448E-06 0.00000E+00
 -1       956 1.09263E-05 1.26674E-05-1.24077E-24
 -1       957 1.08056E-05 1.48707E-05-2.06795E-25
 -1       958 1.06840E-05 1.72552E-05 0.00000E+00
 -1       959 1.05617E-05 1.98008E-05 8.27181E-25
 -1       960 1.04390E-05 2.24872E-05-2.48154E-24
 -1       961 1.03158E-05 2.52941E-05 0.00000E+00
 -1       962 1.01924E-05 2.82009E-05 0.00000E+00
 -1       963 1.00688E-05 3.11874E-05 8.27181E-25
 -1       964 9.94498E-06 3.42329E-05 3.30872E-24
 -1       965 9.82106E-06 3.73171E-05 0.00000E+00
 -1       966 9.69711E-06 4.04196E-05 0.00000E+00
 -1       967 9.57319E-06 4.35198E-05 1.65436E-24
 -1       968 9.44939E-06 4.65973E-05 0.00000E+00
 -1       969 9.32590E-06 4.96318E-05 0.00000E+00
 -1       970 9.20290E-06 5.26029E-05 0.00000E+00
 -1       971 8.86740E-06 5.84341E-05 3.30872E-24
 -1       972 8.64661E-06 6.16460E-05 0.00000E+00
 -1       973 8.42503E-06 6.50934E-05 0.00000E+00
 -1       974 8.20198E-06 6.87424E-05 3.30872E-24
 -1       975 7.97818E-06 7.25592E-05 0.00000E+00
 -1       976 7.75374E-06 7.65096E-05-3.30872E-24
 -1       977 7.52887E-06 8.05592E-05 6.61744E-24
 -1       978 7.30373E-06 8.46736E-05 3.30872E-24
 -1       979 7.07848E-06 8.88183E-05 6.61744E-24
 -1       980 6.85328E-06 9.29586E-05 0.00000E+00
 -1       981 6.62830E-06 9.70601E-05 6.61744E-24
 -1       982 6.40381E-06 1.01088E-04 0.00000E+00
 -1       983 6.17995E-06 1.05008E-04 0.00000E+00
 -1       984 5.95772E-06 1.08786E-04-3.30872E-24
 -1       985 5.73616E-06 1.12388E-04 0.00000E+00
 -3
    1PSTEP                         2           1           1          
  100CL  101 1.000000000         841                     0    1           1
 -4  STRESS      6    1
 -5  SXX         1    4    1    1
 -5  SYY         1    4    2    2
 -5  SZZ         1    4    3    3
 -5  SXY         1    4    1    2
 -5  SYZ         1    4    2    3
 -5  SZX         1    4    3    1
 -1         1-1.98889E+06-5.94291E+05-1.99577E+05-7.54829E+05 1.06714E-10-3.47791E-09
 -1         2-1.20938E+06 5.46393E+03 2.18682E+03-1.52244E+05 3.54703E-11-1.65346E-09
 -1         3-4.80876E+05-2.05797E+05 2.16945E+02-8.39894E+04 5.68434E-11 1.75169E-09
 -1         4-1.05342E+05-5.28754E+04 1.82454E+02-2.93702E+04 5.33191E-11-1.32081E-09
 -1         5 3.36683E+04 5.94382E+05-9.54125E+04 2.18423E+03 1.10231E-09 3.99609E-10
 -1         8-5.41165E+05-3.53228E+05-2.75932E+04-5.79421E+05 4.00178E-11 7.16682E-10
 -1         9-9.43148E+05-1.57242E+05-7.42571E+04-4.10090E+05-5.45697E-12 5.61461E-10
 -1        10-5.25499E+05-3.23513E+05 4.20321E+02-2.65590E+05 2.76335E-10-2.73030E-09
 -1        11-1.84857E+05-1.00861E+05 1.52380E+02-1.35777E+05-2.71408E-10 1.47588E-09
 -1        12 1.64022E+04 5.84795E+05-9.54896E+04-3.50441E+03 3.19699E-09 4.67772E-10
 -1        15 9.43875E+03-1.98588E+04 1.57489E+03-1.76965E+05-1.40972E-10-1.71349E-09
 -1        16-4.82425E+05-1.41749E+05-4.50330E+04-3.66061E+05 1.03137E-09-2.75577E-10
 -1        17-3.41689E+05-2.67248E+05 3.20211E+03-3.88142E+05-5.73588E-10-3.75924E-10
 -1        18-6.57946E+04-8.72541E+04-2.70485E+04-2.92451E+05-2.02029E-09 3.29116E-09
 -1        19 1.44138E+05 3.10495E+05-4.20069E+04-3.44335E+04-2.13125E-10 2.03120E-10
 -1        20 1.33971E+05-9.02686E+04-1.48681E+04 8.36291E+04 9.06834E-09-1.50521E-09
 -1        21-2.05862E+04-1.95027E+05-8.81319E+02 1.39868E+04 1.61663E-08-1.05165E-09
 -1        22 2.91938E+04 1.72605E+05 7.00975E+02-7.97174E+04 3.86535E-11-1.13505E-09
 -1        23-1.98843E+05-1.17506E+04 1.35748E+03-1.94756E+05 2.66785E-10 3.08546E-10
 -1        24-2.52035E+05-4.12128E+04 7.86309E+04-3.49123E+05 5.83289E-10-1.44792E-09
 -1        25 1.78749E+05 7.75788E+04 1.09390E+05-3.60376E+05 1.83991E-09-2.72848E-09
 -1        26 1.20706E+04 3.15160E+05 2.33202E+04-1.12452E+05-2.39182E-09-2.93767E-10
 -1        27-5.47526E+04-7.07218E+04-3.36099E+04 1.18687E+05 7.12286E-09-4.26371E-09
 -1        28-1.31988E+04-1.34750E+05-9.79537E+02 7.16798E+04 1.02507E-08-1.06083E-09
 -1        29 3.81898E+05 2.82569E+05 9.93193E+02-4.54994E+04 4.90274E-11 3.60956E-10
 -1        30 1.33606E+05 3.35867E+04 9.85933E+02-8.23846E+04 3.43263E-10 1.18234E-10
 -1        31-4.23783E+05 3.19720E+04 2.12760E+03-1.17460E+05-2.60417E-10 3.60160E-10
 -1        32-9.17824E+04 1.08812E+05 1.62413E+05-3.38777E+05-1.46497E-09 1.81899E-09
 -1        33 2.81167E+05 3.86439E+05 1.64602E+05-1.49876E+05 2.70137E-09 1.11140E-09
 -1        34-2.68746E+05-3.56551E+04-1.32423E+04 5.91548E+04 2.07571E-08-4.01997E-10
 -1        35-4.25186E+04-4.45470E+04-7.65136E+02 1.00031E+05 3.27070E-08-2.75516E-09
 -1        36-2.67998E+06 1.58977E+04-1.01455E+05-4.98676E-09-5.19031E-10-9.53150E-10
 -1        37-2.71390E+06-2.65819E+04-6.28254E+04 4.58494E-08 5.98229E-10 8.99581E-09
 -1        38-2.69454E+06 1.45568E+03-2.61241E+04-2.60621E-08 2.38247E-10 4.46289E-09
 -1        39-2.69782E+06-2.17116E+03-1.42205E+04-1.32047E-08-4.43157E-10 6.05542E-09
 -1        40-2.69596E+06 1.56576E+02-6.68400E+03-3.10757E-09-2.86548E-10 4.93628E-09
 -1        41-2.69620E+06-1.73817E+02-3.67082E+03-1.69565E-08-5.93950E-10 2.69296E-09
 -1        42-2.69613E+06 2.69052E+01-2.17989E+03 1.38163E-08 1.13359E-09 2.78590E-10
 -1        43-2.69604E+06-2.98748E+01-1.96034E+03-4.14632E-09-3.96167E-10 4.31973E-09
 -1        44-2.69612E+06 3.32017E+01-2.61798E+03-2.16889E-08-5.36324E-10-1.15051E-10
 -1        45-2.69629E+06-2.35421E+02-4.81004E+03 7.73639E-11 1.19067E-09-2.95267E-09
 -1        46-2.69589E+06 2.11841E+02-8.98881E+03-5.47964E-09-5.91580E-10-4.62614E-09
 -1        47-2.69849E+06-2.94741E+03-1.92615E+04-1.97784E-08 5.20248E-10-4.17981E-09
 -1        48-2.69395E+06 1.97599E+03-3.54416E+04 3.54623E-09 2.04253E-10-5.80258E-10
 -1        49-2.72032E+06-3.60849E+04-8.52740E+04-4.23006E-09 5.07430E-11-2.06364E-09
 -1        50-2.67418E+06 2.15846E+04-1.37701E+05-2.05473E-08-2.69722E-10-4.51109E-10
 -1        51 4.39193E+04-5.23831E+05 1.08570E+05-9.55001E+05-2.61934E-10-2.56114E-09
 -1        52 1.95834E+04-5.09332E+05 5.83145E+04-1.13826E+06-3.56522E-10 8.49832E-09
 -1        53 7.65176E+03-5.29738E+05 2.99740E+04-9.51518E+05-4.87489E-10-1.97906E-09
 -1        54 1.50901E+04-5.31194E+05 2.46100E+04-1.14156E+06 2.40107E-10-5.66070E-09
 -1        55 2.04672E+04-5.37912E+05 2.87935E+04-9.51368E+05-2.25555E-10 3.45244E-09
 -1        56-3.35326E+06-4.46245E+05-1.99203E+05-1.28276E+06-7.82165E-10-9.16043E-09
 -1        57-3.41447E+06-5.55764E+05-1.21637E+05-1.29165E+06 2.07365E-10 7.66704E-09
 -1        58-3.38502E+06-4.80716E+05-4.67791E+04-1.28122E+06-7.56700E-10-2.42289E-09
 -1        59-3.37747E+06-5.04507E+05-2.49336E+04-1.29815E+06-7.97172E-10-1.32354E-09
 -1        60-3.38817E+06-4.84025E+05-1.08778E+04-1.28123E+06 4.40195E-10-2.28965E-09
 -1        61-3.37396E+06-4.99687E+05-5.74791E+03-1.29820E+06-1.05229E-09 5.47442E-09
 -1        62-3.38830E+06-4.84588E+05-3.19706E+03-1.28149E+06-1.00954E-10 1.15983E-09
 -1        63-3.37416E+06-4.98743E+05-2.84609E+03-1.29747E+06 1.22054E-09-2.66243E-09
 -1        64-3.38787E+06-4.84986E+05-3.93120E+03-1.28191E+06 3.25281E-09 1.40126E-08
 -1        65-3.37557E+06-4.98365E+05-7.71682E+03-1.29636E+06 9.78616E-10 1.11140E-08
 -1        66-3.38678E+06-4.85102E+05-1.49778E+04-1.28250E+06-5.02951E-10 3.92902E-09
 -1        67-3.38190E+06-5.03477E+05-3.44739E+04-1.29437E+06 9.48148E-11-2.11458E-09
 -1        68-3.38164E+06-4.81300E+05-6.47949E+04-1.28331E+06-2.02587E-09-3.07409E-09
 -1        69-3.43448E+06-5.73033E+05-1.68430E+05-1.28369E+06 8.55152E-10-7.02130E-10
 -1        70-3.33697E+06-4.34214E+05-2.75829E+05-1.28616E+06-3.96903E-09 7.42148E-10
 -1        71-1.00691E+06-3.07886E+03 1.97156E+04-1.78607E-08 4.27685E-10-6.21276E-09
 -1        72-1.00019E+06 5.15734E+03 1.21998E+04-4.72437E-09-5.78166E-10-1.07048E-09
 -1        73-1.00408E+06-2.81863E+02 5.06629E+03-1.21692E-08-1.37096E-10 1.06616E-09
 -1        74-1.00331E+06 4.20950E+02 2.73743E+03-1.96588E-08-8.31281E-10-3.45460E-09
 -1        75-1.00380E+06-2.98767E+01 1.24510E+03-1.16424E-08 7.59942E-11 4.35813E-09
 -1        76-1.00362E+06 3.33173E+01 6.00666E+02 1.14369E-08-1.43708E-10-2.96274E-09
 -1        77-1.00377E+06-3.04286E+00 2.00026E+02 9.04056E-10 2.04737E-11 1.21440E-09
 -1        78-1.00368E+06-1.19806E+00-7.92445E+01-1.66748E-08-3.18636E-10 3.66231E-09
 -1        79-1.00375E+06 5.46732E+00-3.93936E+02-1.56458E-08 4.26315E-10 3.58114E-10
 -1        80-1.00374E+06-4.97617E+01-9.43201E+02 2.32983E-09-4.32114E-10 3.03839E-09
 -1        81-1.00370E+06 4.46976E+01-1.87787E+03 2.06887E-09 1.19844E-10 3.75167E-11
 -1        82-1.00421E+06-6.26823E+02-4.08827E+03-2.16776E-08-8.13447E-10-1.13084E-09
 -1        83-1.00328E+06 4.19805E+02-7.54959E+03-3.02869E-08-1.59864E-10 6.32599E-09
 -1        84-1.00886E+06-7.67962E+03-1.81689E+04-1.07009E-08 1.37267E-10-9.74978E-10
 -1        85-9.99065E+05 4.58572E+03-2.93534E+04 7.89760E-09 2.50954E-11-1.29330E-09
 -1        86-2.74123E+04 6.21517E+05 1.79357E+05-2.19376E+04 1.23691E-10 2.04091E-09
 -1        87 4.79855E+04 6.82628E+05 1.23824E+05-5.65600E+04 1.60344E-09-7.01493E-09
 -1        88-4.38707E+03 6.44444E+05 7.64181E+04-2.18965E+04 1.89175E-10-6.56655E-10
 -1        89 3.73478E+04 6.75111E+05 1.01990E+05-5.65080E+04 2.47474E-09 1.20781E-09
 -1        90-2.01956E+04 6.28384E+05 1.36671E+05-2.19536E+04 3.92902E-10-5.55701E-10
 -1        91-1.54456E+06-2.12480E+05-4.91274E+04-5.87412E+05-9.23137E-10 1.88629E-09
 -1        92-1.55701E+06-2.41977E+05-2.99841E+04-5.92530E+05-9.18646E-10 3.36377E-09
 -1        93-1.55241E+06-2.20937E+05-1.15470E+04-5.87027E+05-5.82418E-10 2.11594E-09
 -1        94-1.54787E+06-2.29398E+05-6.15844E+03-5.94171E+05-7.95808E-10 1.40744E-10
 -1        95-1.55321E+06-2.21731E+05-2.69595E+03-5.87012E+05 1.05888E-09-5.98902E-10
 -1        96-1.54698E+06-2.28255E+05-1.43887E+03-5.94236E+05 1.54728E-10 4.62069E-09
 -1        97-1.55327E+06-2.21842E+05-8.26074E+02-5.87047E+05-6.20389E-10 5.93616E-10
 -1        98-1.54698E+06-2.28080E+05-7.82749E+02-5.94128E+05-2.46939E-09 6.33861E-10
 -1        99-1.55319E+06-2.21902E+05-1.12972E+03-5.87115E+05-2.18165E-09-6.12590E-09
 -1       100-1.54728E+06-2.28085E+05-2.25898E+03-5.93942E+05 7.97968E-10 1.75760E-09
 -1       101-1.55294E+06-2.21867E+05-4.39753E+03-5.87212E+05-2.16005E-11-1.58525E-09
 -1       102-1.54901E+06-2.29722E+05-1.01316E+04-5.93526E+05 1.26693E-09 8.34689E-09
 -1       103-1.55150E+06-2.20678E+05-1.90379E+04-5.87366E+05 4.41332E-10 1.32968E-09
 -1       104-1.56429E+06-2.50246E+05-4.94454E+04-5.90555E+05 3.01441E-10 8.36735E-10
 -1       105-1.53844E+06-2.06838E+05-8.10191E+04-5.88117E+05 1.62072E-09-2.98678E-09
 -1       106-2.34227E+05-6.67723E+03 4.28147E+04 4.89581E-09-1.57121E-10 1.12232E-09
 -1       107-2.19793E+05 1.11919E+04 2.64977E+04 3.50183E-08 2.02363E-10-8.06722E-10
 -1       108-2.28072E+05-6.11345E+02 1.10192E+04-5.67871E-09-6.97199E-10-2.85581E-09
 -1       109-2.26562E+05 9.13161E+02 5.97559E+03-3.82195E-09 9.65561E-10-3.39242E-09
 -1       110-2.27464E+05-6.53034E+01 2.76276E+03-2.25370E-08-2.88822E-11 1.42393E-09
 -1       111-2.27247E+05 7.26090E+01 1.42224E+03-3.75008E-08 9.25376E-10 2.42605E-09
 -1       112-2.27389E+05-8.84191E+00 6.64964E+02-5.87549E-09-7.10114E-10 2.22741E-09
 -1       113-2.27337E+05 4.52664E+00 3.00182E+02-3.02888E-09 3.55640E-10-3.30309E-09
 -1       114-2.27375E+05-3.21858E-01 6.95188E+01-2.98881E-08 6.23288E-10 1.71104E-09
 -1       115-2.27365E+05-1.04808E+01-1.25205E+02-1.87308E-08-1.61130E-09-1.19607E-09
 -1       116-2.27361E+05 9.30625E+00-3.67105E+02-1.33450E-08 2.79275E-10-4.92773E-09
 -1       117-2.27469E+05-1.35136E+02-8.63099E+02-1.84331E-08-3.18226E-11 2.90180E-09
 -1       118-2.27270E+05 9.03848E+01-1.62015E+03-1.98987E-08-1.23661E-10-2.35565E-09
 -1       119-2.28472E+05-1.65598E+03-3.91572E+03-7.11191E-09-3.44682E-10 1.40858E-09
 -1       120-2.26359E+05 9.88208E+02-6.33184E+03-9.64275E-09 3.56624E-10 5.34328E-10
 -1       121 5.60117E+02-7.32277E+05-3.70315E+03-2.87227E+04-1.01539E-09 1.68075E-09
 -1       122-7.79150E+02-7.33401E+05-1.12189E+03-7.67250E+04 1.01181E-10-4.00178E-10
 -1       123-6.67850E+01-7.33135E+05 1.74460E+03-2.84230E+04-1.55478E-09 2.72576E-09
 -1       124 2.97871E+03-7.31180E+05 6.30826E+03-7.70349E+04-1.42336E-10-2.76373E-10
 -1       125-1.66466E+03-7.34824E+05 1.08964E+04-2.84116E+04-1.85355E-09-5.17048E-10
 -1       126-6.83282E+05-9.76651E+04-8.43484E+03-2.60818E+05-2.78327E-10 1.50840E-09
 -1       127-6.81204E+05-1.06891E+05-5.14802E+03-2.66468E+05 2.42494E-10 1.87856E-09
 -1       128-6.84655E+05-9.90896E+04-1.98738E+03-2.60727E+05 1.56183E-09 6.03313E-09
 -1       129-6.79614E+05-1.04760E+05-1.06651E+03-2.66784E+05 1.01748E-09-1.88244E-09
 -1       130-6.84796E+05-9.92212E+04-4.81826E+02-2.60720E+05-2.59490E-11 3.34438E-10
 -1       131-6.79460E+05-1.04566E+05-2.87367E+02-2.66796E+05-5.06759E-10-1.47998E-09
 -1       132-6.84800E+05-9.92428E+04-2.24650E+02-2.60729E+05-2.91607E-10-2.45393E-10
 -1       133-6.79481E+05-1.04529E+05-3.13723E+02-2.66761E+05 3.48564E-10-8.74707E-10
 -1       134-6.84767E+05-9.92593E+04-5.59084E+02-2.60751E+05-3.36286E-10-4.62501E-09
 -1       135-6.79620E+05-1.04565E+05-1.19332E+03-2.66694E+05 1.64152E-09 3.74314E-10
 -1       136-6.84647E+05-9.92247E+04-2.35919E+03-2.60783E+05 2.08047E-10-2.03386E-09
 -1       137-6.80506E+05-1.05485E+05-5.45179E+03-2.66513E+05-5.02610E-10 7.56359E-10
 -1       138-6.83892E+05-9.85642E+04-1.02531E+04-2.60839E+05-2.14868E-10-3.00952E-09
 -1       139-6.88686E+05-1.16562E+05-2.66181E+04-2.64951E+05 9.68839E-10-5.62795E-09
 -1       140-6.76866E+05-9.11115E+04-4.36215E+04-2.61222E+05-2.99156E-09-3.69255E-09
 -1       141 6.21766E+03-2.43285E+03 1.55966E+04-4.44516E-09 1.92597E-10 7.97627E-10
 -1       142 1.14701E+04 4.07793E+03 9.64496E+03-1.25442E-09 1.21303E-09-1.67165E-09
 -1       143 8.46236E+03-2.22530E+02 3.99182E+03-1.86148E-08 3.08330E-11 1.87242E-09
 -1       144 9.00185E+03 3.32743E+02 2.12791E+03-2.07423E-08 1.44079E-10-4.41429E-09
 -1       145 8.68561E+03-2.29428E+01 9.07962E+02 1.28072E-09 2.21336E-10-7.40158E-10
 -1       146 8.74512E+03 2.58286E+01 3.15783E+02-8.69403E-09-1.90747E-09 1.64925E-09
 -1       147 8.71908E+03 6.54788E-01-1.56818E+02 1.53403E-08 7.39103E-10 2.88730E-09
 -1       148 8.67769E+03-1.06927E+01-7.09856E+02-6.69613E-09 7.94410E-11 4.04295E-09
 -1       149 8.75305E+03 2.10119E+01-1.57999E+03-6.61073E-09 4.28999E-10-3.73461E-10
 -1       150 8.46408E+03-1.72633E+02-3.38257E+03 3.88599E-09-6.67395E-10 5.08368E-09
 -1       151 8.93278E+03 1.55300E+02-6.57192E+03-1.17275E-08 5.10043E-12 9.53150E-10
 -1       152 6.83639E+03-2.17140E+03-1.42142E+04-1.30225E-08-8.09339E-11 2.24668E-09
 -1       153 1.03818E+04 1.45391E+03-2.62079E+04-1.09607E-08-6.95541E-11 7.23048E-10
 -1       154-9.25985E+03-2.66139E+04-6.30206E+04-4.95493E-09-8.78986E-10 3.52156E-09
 -1       155 2.50463E+04 1.58867E+04-1.01773E+05-1.43691E-08 9.22624E-10 2.77942E-09
 -1       156 3.62297E+02-1.87109E+05-2.20911E+03-1.58117E+04 3.84773E-10-1.29239E-09
 -1       157-4.69050E+02-1.87782E+05-4.10430E+02-4.19283E+04 7.74435E-10 4.41196E-09
 -1       158-8.81824E+01-1.87659E+05 1.66899E+03-1.56823E+04 1.23941E-09 2.92312E-09
 -1       159 2.41949E+03-1.85987E+05 5.35894E+03-4.20686E+04 9.09949E-10-2.76304E-09
 -1       160-1.41376E+03-1.89045E+05 9.10861E+03-1.56708E+04 1.76124E-09 2.01430E-09
 -1       161-1.96783E+05-2.86586E+04-6.00840E+03-7.68775E+04 6.65921E-10 3.35376E-10
 -1       162-1.95603E+05-3.49623E+04-3.67221E+03-8.06006E+04-1.99741E-10 3.91253E-10
 -1       163-1.97744E+05-2.96905E+04-1.42735E+03-7.68315E+04 6.67598E-10 1.41358E-09
 -1       164-1.94490E+05-3.34246E+04-7.85386E+02-8.07984E+04-5.50187E-10-1.04629E-09
 -1       165-1.97838E+05-2.97898E+04-3.96181E+02-7.68318E+04 7.99957E-10 4.31106E-09
 -1       166-1.94387E+05-3.32848E+04-3.17987E+02-8.08035E+04-1.29950E-09 3.28072E-09
 -1       167-1.97838E+05-2.98014E+04-3.92702E+02-7.68354E+04 3.98245E-10 3.88286E-09
 -1       168-1.94418E+05-3.32852E+04-7.27191E+02-8.07954E+04-4.78451E-10 5.87187E-09
 -1       169-1.97801E+05-2.97873E+04-1.42312E+03-7.68377E+04-3.98131E-10 2.29750E-09
 -1       170-1.94678E+05-3.35069E+04-3.11448E+03-8.07820E+04 6.39943E-10-3.30783E-09
 -1       171-1.97572E+05-2.96058E+04-6.18344E+03-7.68349E+04-1.24385E-09-2.25054E-09
 -1       172-1.96837E+05-3.61060E+04-1.43172E+04-8.05446E+04-1.76948E-09-6.79916E-09
 -1       173-1.95709E+05-2.77508E+04-2.69193E+04-7.68585E+04 8.97671E-10-5.87534E-09
 -1       174-2.18018E+05-6.54973E+04-6.98974E+04-7.68364E+04-2.54590E-09-3.53521E-09
 -1       175-1.77460E+05-7.95675E+03-1.14496E+05-7.76202E+04 1.82445E-09 6.99220E-09
 -1       191 1.57532E+04 1.46066E+06 3.85396E+04 2.88029E+03-2.54659E-10 2.53567E-09
 -1       192 5.31657E+03 1.46812E+06 2.30978E+04 4.14420E+03-1.88493E-10 3.19051E-09
 -1       193 1.01908E+03 1.46352E+06 1.72856E+04 3.14191E+03-3.82073E-10-1.61708E-09
 -1       194 5.68660E+03 1.46838E+06 2.41880E+04 3.62188E+03-1.06343E-09-6.68024E-09
 -1       195 1.69224E+04 1.46042E+06 4.11576E+04 3.43248E+03-4.62023E-10-5.23505E-09
 -1       251 1.30070E+05-1.47999E+04 8.30506E+04-5.37414E+04 1.09503E-09-1.15324E-09
 -1       252 1.60383E+05 2.06346E+04 5.18569E+04-1.41993E+05 6.49379E-10-1.30240E-09
 -1       253 1.41369E+05-2.03827E+03 2.12637E+04-5.32840E+04-1.10231E-09-7.34144E-09
 -1       254 1.45039E+05 1.35409E+03 1.17643E+04-1.42376E+05-1.38243E-10-2.66300E-09
 -1       255 1.42002E+05-3.79791E+02 5.38691E+03-5.33403E+04 1.45337E-09-1.12050E-09
 -1       256 1.42372E+05 3.07638E+02 3.00367E+03-1.42283E+05-1.18234E-09-4.46562E-10
 -1       257 1.41821E+05 6.62561E+01 1.67154E+03-5.33807E+04-1.05774E-09-3.90901E-09
 -1       258 1.41611E+05 4.65864E+02 1.38710E+03-1.42229E+05 6.82121E-10 1.16643E-09
 -1       259 1.41735E+05 1.57857E+02 1.66781E+03-5.33942E+04-6.14136E-10 2.99815E-09
 -1       260 1.41841E+05 5.41943E+02 2.92078E+03-1.42237E+05-1.81899E-10-3.79328E-09
 -1       261 1.41746E+05-1.01976E+02 5.30663E+03-5.33725E+04 8.18545E-10 1.06672E-09
 -1       262 1.43937E+05 1.77517E+03 1.14045E+04-1.42284E+05-8.65839E-10-5.94980E-10
 -1       263 1.40975E+05-1.54218E+03 2.07488E+04-5.33471E+04-4.36557E-11 3.09228E-10
 -1       264 1.58325E+05 2.06450E+04 5.02653E+04-1.41937E+05-2.11003E-09-2.12003E-09
 -1       265 1.29885E+05-1.37321E+04 8.07199E+04-5.37357E+04-1.02955E-09-2.25555E-10
 -1       266-7.15675E+03-2.29191E+05 4.92154E+04-6.47812E+04-2.12822E-10 4.54520E-10
 -1       267 1.43409E+04-2.13495E+05 2.85156E+04-1.74496E+05-1.73259E-10-1.46974E-09
 -1       268-3.22938E+01-2.21495E+05 7.91563E+03-6.47799E+04-2.20552E-10-2.10821E-09
 -1       269-2.68026E+03-2.23185E+05-4.91297E+03-1.74036E+05 2.94676E-10 1.21327E-09
 -1       270 2.63287E+03-2.17545E+05-1.65556E+04-6.52758E+04-2.49202E-10 2.14277E-09
 -1       271-2.44012E+06-3.46148E+05-1.84386E+05-9.71572E+05-3.16277E-10 2.19734E-09
 -1       272-2.46423E+06-4.77458E+05-1.12240E+05-1.01453E+06 6.43922E-10 2.05182E-09
 -1       273-2.47141E+06-3.75833E+05-4.34496E+04-9.68623E+05 1.76442E-10-1.60071E-09
 -1       274-2.42847E+06-4.32760E+05-2.29872E+04-1.02447E+06-7.22139E-10-2.06273E-09
 -1       275-2.47576E+06-3.77398E+05-1.01291E+04-9.67558E+05 8.73115E-11-7.47605E-10
 -1       276-2.42410E+06-4.30080E+05-5.23632E+03-1.02737E+06 1.25056E-09 1.67211E-09
 -1       277-2.47692E+06-3.76830E+05-2.85348E+03-9.66963E+05 3.68345E-10-2.43665E-09
 -1       278-2.42333E+06-4.30465E+05-2.37555E+03-1.02861E+06-2.63753E-11-2.55409E-09
 -1       279-2.47715E+06-3.76563E+05-3.12333E+03-9.66784E+05-8.75389E-12-2.86491E-11
 -1       280-2.42380E+06-4.30808E+05-6.04920E+03-1.02850E+06 1.12391E-09 3.76258E-09
 -1       281-2.47640E+06-3.76569E+05-1.17199E+04-9.67018E+05 9.78616E-10-6.84850E-10
 -1       282-2.42837E+06-4.34870E+05-2.69122E+04-1.02662E+06-4.45652E-10-1.61799E-09
 -1       283-2.47201E+06-3.74032E+05-5.06967E+04-9.67746E+05 2.91038E-11-8.18545E-10
 -1       284-2.46943E+06-4.88394E+05-1.31426E+05-1.01673E+06 1.39698E-09 7.27596E-10
 -1       285-2.43617E+06-3.38392E+05-2.15584E+05-9.70505E+05-1.61526E-09 1.12050E-09
 -1       286-1.17566E+05-9.64713E+03 5.76499E+04-3.08378E+04 3.14321E-09-6.23731E-09
 -1       287-9.72900E+04 1.47013E+04 3.58475E+04-8.07269E+04 2.07729E-09-6.25005E-09
 -1       288-1.09497E+05-1.13452E+03 1.48017E+04-3.04362E+04-9.62245E-10 3.06864E-09
 -1       289-1.07177E+05 1.08683E+03 8.12931E+03-8.11701E+04-7.04858E-10 3.37150E-09
 -1       290-1.08872E+05-1.86867E+02 3.76694E+03-3.03835E+04 1.32968E-09-6.85759E-10
 -1       291-1.08582E+05 1.67600E+02 2.09177E+03-8.12470E+04-3.96994E-10 7.44444E-09
 -1       292-1.08897E+05 1.48574E+01 1.20426E+03-3.03604E+04 1.58707E-09 7.86395E-09
 -1       293-1.08927E+05 1.98814E+02 1.05502E+03-8.12797E+04 8.18773E-10 1.53682E-09
 -1       294-1.08945E+05 5.96366E+01 1.35417E+03-3.03506E+04 1.69092E-09-2.97428E-09
 -1       295-1.08824E+05 3.08899E+02 2.44380E+03-8.12824E+04 8.83460E-10 4.51689E-09
 -1       296-1.09030E+05-6.38445E+01 4.52355E+03-3.03574E+04 8.77208E-10 2.39589E-09
 -1       297-1.07508E+05 1.56859E+03 9.68798E+03-8.12426E+04 2.05955E-09 7.49111E-10
 -1       298-1.09902E+05-1.06091E+03 1.77587E+04-3.03901E+04 5.98448E-10-8.84029E-10
 -1       299-9.61233E+04 1.79760E+04 4.27828E+04-8.09179E+04-3.53793E-10 1.11277E-09
 -1       300-1.19660E+05-1.10572E+04 6.89823E+04-3.06894E+04-1.52795E-10-5.38421E-10
 -1       301 3.95361E+04 1.24653E+05 9.15214E+04-2.08759E+05 2.19370E-09-1.13687E-09
 -1       302 1.44774E+04 1.42051E+05 5.14200E+04-2.49599E+05 5.43423E-10 9.78616E-10
 -1       303 3.44883E+03 1.31574E+05 3.26408E+04-2.08514E+05 2.71666E-09-5.93900E-10
 -1       304 9.82540E+03 1.38912E+05 3.78505E+04-2.49625E+05 6.40284E-10-3.01043E-10
 -1       305 2.48851E+04 1.27740E+05 5.89168E+04-2.08784E+05 2.33013E-09 2.59479E-09
 -1       306-2.61080E+06-3.54531E+05-2.02852E+05-1.02147E+06 1.11322E-09-4.36557E-11
 -1       307-2.65864E+06-4.79501E+05-1.23726E+05-1.04618E+06 4.06408E-09 6.71025E-09
 -1       308-2.64430E+06-3.88340E+05-4.77048E+04-1.01886E+06 8.44011E-10-3.19415E-09
 -1       309-2.61965E+06-4.29162E+05-2.53489E+04-1.05523E+06 1.36424E-09 2.66482E-09
 -1       310-2.64843E+06-3.90763E+05-1.10749E+04-1.01805E+06-1.51340E-09-1.35242E-09
 -1       311-2.61500E+06-4.25609E+05-5.75290E+03-1.05718E+06-8.22183E-10-1.84184E-09
 -1       312-2.64931E+06-3.90575E+05-3.06544E+03-1.01763E+06 7.25322E-10-4.05635E-09
 -1       313-2.61424E+06-4.25730E+05-2.47847E+03-1.05792E+06-1.53943E-09 2.08320E-09
 -1       314-2.64944E+06-3.90434E+05-3.14134E+03-1.01751E+06-8.41595E-10-6.53472E-10
 -1       315-2.61471E+06-4.26042E+05-5.98995E+03-1.05779E+06-3.58705E-09-1.79034E-09
 -1       316-2.64880E+06-3.90338E+05-1.15313E+04-1.01771E+06-8.05358E-10 7.73980E-10
 -1       317-2.61923E+06-4.30215E+05-2.64915E+04-1.05640E+06 1.38016E-09 6.43922E-10
 -1       318-2.64477E+06-3.87515E+05-4.98021E+04-1.01829E+06 1.09367E-09 3.88536E-09
 -1       319-2.65955E+06-4.83350E+05-1.29308E+05-1.04765E+06-9.07789E-11 5.03860E-10
 -1       320-2.61006E+06-3.51856E+05-2.11908E+05-1.02072E+06 9.98625E-10-4.48199E-09
 -1       321 3.98802E+04-1.32067E+04 8.41628E+04-1.25588E+04-2.14641E-10 2.40107E-10
 -1       322 6.83152E+04 2.19409E+04 5.21075E+04-3.30917E+04-2.59206E-10 7.93989E-10
 -1       323 5.19433E+04-1.24111E+03 2.16656E+04-1.24388E+04-3.39242E-10-1.51067E-09
 -1       324 5.49019E+04 1.77635E+03 1.17749E+04-3.32055E+04 1.18030E-09-1.70621E-09
 -1       325 5.31117E+04-1.38803E+02 5.47297E+03-1.24370E+04-6.00267E-11-4.82942E-10
 -1       326 5.34946E+04 1.53569E+02 2.88872E+03-3.32038E+04-4.75666E-10 1.65937E-09
 -1       327 5.32425E+04-1.33648E+01 1.48517E+03-1.24408E+04-3.00133E-10 3.05363E-09
 -1       328 5.33074E+04 3.67910E+01 9.54953E+02-3.31996E+04 1.77721E-10 4.21733E-09
 -1       329 5.32554E+04-1.92852E+00 8.48804E+02-1.24412E+04 6.11067E-10 8.14566E-10
 -1       330 5.33554E+04 7.08390E+01 1.23319E+03-3.32007E+04-1.83945E-09 5.36363E-09
 -1       331 5.32156E+04-5.20599E+01 2.12681E+03-1.24397E+04-1.30512E-10 3.44851E-09
 -1       332 5.39059E+04 6.67750E+02 4.45978E+03-3.32021E+04 6.83940E-10 5.04241E-09
 -1       333 5.27906E+04-4.79407E+02 8.14907E+03-1.24397E+04-3.23325E-10-3.34603E-09
 -1       334 5.89952E+04 8.22053E+03 1.95799E+04-3.30993E+04 3.63798E-10-1.21145E-09
 -1       335 4.82772E+04-4.99831E+03 3.15920E+04-1.25450E+04-8.74024E-10-4.31100E-10
 -1       336-1.63170E+03-7.49629E+05 8.70942E+03-1.27198E+05-4.36194E-09 3.22325E-09
 -1       337 4.24380E+03-7.47705E+05 4.57510E+03-3.40863E+05-2.65572E-10-1.28239E-10
 -1       338 8.63228E+02-7.48910E+05-3.51709E+02-1.26442E+05-5.17230E-09 9.95897E-10
 -1       339-5.22479E+02-7.51622E+05-5.54777E+03-3.41081E+05-1.33696E-09-4.00178E-11
 -1       340 2.02552E+03-7.46705E+05-1.09454E+04-1.26979E+05-2.88401E-09 1.55705E-09
 -1       341-1.54576E+06-2.11468E+05-8.21176E+04-5.95941E+05-2.58660E-09 1.49157E-10
 -1       342-1.56524E+06-2.62115E+05-5.01117E+04-6.06044E+05 7.31916E-10-1.43154E-09
 -1       343-1.55907E+06-2.25419E+05-1.93114E+04-5.95122E+05-2.09866E-10 1.73895E-09
 -1       344-1.54973E+06-2.41375E+05-1.02970E+04-6.09157E+05-1.50294E-09-4.86443E-09
 -1       345-1.56054E+06-2.26605E+05-4.52122E+03-5.94963E+05 4.85215E-10-7.21047E-09
 -1       346-1.54804E+06-2.39692E+05-2.43045E+03-6.09567E+05-7.37600E-10-2.55025E-09
 -1       347-1.56076E+06-2.26664E+05-1.43449E+03-5.94899E+05 7.75685E-10 2.86499E-09
 -1       348-1.54786E+06-2.39609E+05-1.42598E+03-6.09647E+05-7.63180E-10 4.14389E-09
 -1       349-1.56073E+06-2.26656E+05-2.12639E+03-5.94903E+05-4.71857E-10 4.18618E-09
 -1       350-1.54824E+06-2.39837E+05-4.30942E+03-6.09549E+05-6.72230E-10-6.63135E-09
 -1       351-1.56036E+06-2.26482E+05-8.40983E+03-5.94970E+05 9.09949E-10-1.22736E-09
 -1       352-1.55133E+06-2.43179E+05-1.93983E+04-6.08988E+05-1.36777E-09 2.26055E-09
 -1       353-1.55770E+06-2.24108E+05-3.64538E+04-5.95145E+05 8.70841E-10 1.52977E-09
 -1       354-1.58036E+06-2.82707E+05-9.46926E+04-6.03530E+05-9.87029E-10 3.92902E-10
 -1       355-1.53278E+06-1.97485E+05-1.55113E+05-5.96444E+05-2.59570E-09 7.78527E-10
 -1       356 1.70387E+05-6.76728E+03 4.31171E+04-9.22240E+03 3.57431E-10-4.43288E-09
 -1       357 1.84946E+05 1.12387E+04 2.66897E+04-2.44432E+04-7.33053E-10-1.21963E-08
 -1       358 1.76573E+05-6.35636E+02 1.10789E+04-9.15645E+03 4.68390E-11-7.70797E-10
 -1       359 1.78073E+05 9.06331E+02 5.98402E+03-2.44958E+04 4.47244E-10-4.33261E-10
 -1       360 1.77174E+05-7.08879E+01 2.70597E+03-9.16656E+03-4.37467E-10-5.67206E-09
 -1       361 1.77347E+05 7.29824E+01 1.27699E+03-2.44796E+04-7.30552E-10-5.20572E-09
 -1       362 1.77248E+05-4.73212E+00 3.60553E+02-9.17269E+03 4.49177E-10-1.51999E-10
 -1       363 1.77220E+05-3.91755E-01-3.33225E+02-2.44738E+04-1.72736E-09-3.06034E-09
 -1       364 1.77285E+05 1.68750E+01-1.17715E+03-9.17242E+03 5.78552E-10-2.61525E-09
 -1       365 1.77046E+05-1.42315E+02-2.71851E+03-2.44820E+04 1.49726E-10 5.26597E-10
 -1       366 1.77442E+05 1.20448E+02-5.37514E+03-9.16462E+03 2.87400E-10 3.70164E-10
 -1       367 1.75739E+05-1.79990E+03-1.16696E+04-2.44991E+04-6.75072E-10-6.60293E-10
 -1       368 1.78649E+05 1.17261E+03-2.15456E+04-9.15539E+03-2.83308E-10 2.00725E-09
 -1       369 1.62564E+05-2.19115E+04-5.18011E+04-2.44427E+04-2.30057E-09 2.31285E-09
 -1       370 1.90724E+05 1.30085E+04-8.36821E+04-9.21414E+03 1.21508E-09 2.16824E-09
 -1       371-1.57763E+03-1.79790E+05 9.19542E+03-9.01809E+04 2.99224E-09-2.60297E-09
 -1       372 3.31291E+03-1.77271E+05 4.33630E+03-2.40050E+05 2.79124E-09-1.29194E-09
 -1       373 4.84101E+02-1.78497E+05-1.15504E+03-8.98166E+04 4.91900E-09-2.82262E-09
 -1       374-2.57762E+03-1.81389E+05-7.71908E+03-2.40107E+05 2.32740E-09-1.06047E-09
 -1       375 2.39197E+03-1.75971E+05-1.43553E+04-9.01249E+04 4.43015E-09 7.29051E-09
 -1       376-6.83867E+05-9.65598E+04-4.47615E+04-2.70101E+05-5.09090E-10-1.77351E-09
 -1       377-6.87970E+05-1.30665E+05-2.73132E+04-2.83092E+05-1.50612E-09 3.17186E-09
 -1       378-6.91111E+05-1.04165E+05-1.05356E+04-2.69687E+05 3.39696E-10 2.27783E-09
 -1       379-6.79593E+05-1.19311E+05-5.62785E+03-2.84734E+05 8.28436E-10 2.44836E-09
 -1       380-6.91879E+05-1.04844E+05-2.49271E+03-2.69644E+05 2.79897E-10 2.45370E-09
 -1       381-6.78736E+05-1.18331E+05-1.38473E+03-2.84882E+05-5.90944E-10 1.95401E-09
 -1       382-6.91964E+05-1.04908E+05-9.03607E+02-2.69641E+05-5.25006E-10-9.03356E-10
 -1       383-6.78689E+05-1.18245E+05-1.04009E+03-2.84857E+05-8.82210E-11 5.18412E-10
 -1       384-6.91911E+05-1.04926E+05-1.69764E+03-2.69663E+05 9.90667E-10 2.56568E-09
 -1       385-6.79007E+05-1.18428E+05-3.53115E+03-2.84742E+05-2.79215E-10 4.69231E-09
 -1       386-6.91592E+05-1.04785E+05-6.94265E+03-2.69706E+05-1.57888E-09 8.27185E-10
 -1       387-6.81500E+05-1.21223E+05-1.60197E+04-2.84293E+05-1.89812E-09-1.95223E-09
 -1       388-6.89412E+05-1.02814E+05-3.01247E+04-2.69812E+05 4.11319E-10 3.78350E-10
 -1       389-7.05363E+05-1.53890E+05-7.81868E+04-2.79819E+05-3.31885E-09-8.68749E-09
 -1       390-6.68831E+05-8.08441E+04-1.28106E+05-2.70827E+05 1.54159E-09-2.45927E-09
 -1       406 1.51913E+04 1.42254E+06 3.89694E+04-9.77372E+03-4.72937E-10-5.10045E-09
 -1       407 5.32183E+03 1.43016E+06 2.67404E+04-1.06731E+04-2.33024E-09-1.94996E-09
 -1       408 1.56741E+03 1.42500E+06 2.57772E+04-9.47367E+03-1.04501E-09 6.50107E-09
 -1       409 1.11849E+04 1.43405E+06 4.37682E+04-1.12615E+04-2.26419E-09-6.37556E-10
 -1       410 3.36249E+04 1.41858E+06 7.98814E+04-9.10390E+03-1.09867E-09 2.77214E-09
 -1       466 1.15813E+06-1.77399E+04 1.10832E+05-3.29650E+04 3.96540E-10 1.81899E-10
 -1       467 1.19591E+06 2.86991E+04 6.87264E+04-8.88872E+04-3.05590E-10 4.49654E-09
 -1       468 1.17387E+06-1.76456E+03 2.85544E+04-3.31291E+04-1.07320E-10-7.80346E-10
 -1       469 1.17774E+06 2.33038E+03 1.55971E+04-8.84113E+04 4.83851E-10 1.81899E-10
 -1       470 1.17530E+06-1.84967E+02 7.32001E+03-3.34205E+04 3.08319E-10-7.83075E-10
 -1       471 1.17564E+06 3.08659E+02 4.03674E+03-8.79900E+04 1.05501E-10-3.10365E-09
 -1       472 1.17542E+06 2.82310E+01 2.39029E+03-3.35513E+04 3.88582E-10-5.30235E-10
 -1       473 1.17539E+06 1.84735E+02 2.13494E+03-8.78977E+04-6.55518E-10 1.91608E-09
 -1       474 1.17543E+06 1.32813E+00 2.81476E+03-3.35130E+04-1.25510E-10-6.29711E-10
 -1       475 1.17585E+06 3.14217E+02 5.15607E+03-8.81469E+04 1.44155E-10-8.99433E-10
 -1       476 1.17528E+06-3.01607E+02 9.56346E+03-3.33018E+04-2.56478E-10 7.81256E-10
 -1       477 1.17864E+06 2.97559E+03 2.05385E+04-8.87180E+04-2.72848E-10 1.09139E-11
 -1       478 1.17340E+06-2.37710E+03 3.76519E+04-3.29402E+04-5.36602E-10 8.11269E-10
 -1       479 1.20255E+06 3.78009E+04 9.06829E+04-8.93093E+04-2.32831E-09-3.27418E-10
 -1       480 1.15260E+06-2.34166E+04 1.46279E+05-3.27458E+04-1.70985E-09-1.60071E-10
 -1       481-4.73490E+03 3.09941E+05 3.16261E+04-3.05779E+04-6.36646E-11 2.08161E-09
 -1       482 8.71558E+03 3.20396E+05 2.06389E+04-8.02797E+04-2.54659E-10 4.07681E-09
 -1       483-4.81829E+02 3.14278E+05 1.06434E+04-3.05205E+04-1.49555E-10 1.23327E-09
 -1       484 3.79070E+03 3.17346E+05 1.08055E+04-8.02411E+04-1.27329E-11-8.84484E-10
 -1       485-1.71661E+03 3.13247E+05 1.23306E+04-3.06215E+04 1.71894E-10-1.57797E-09
 -1       486-1.12862E+06-1.50397E+05-1.14223E+05-4.45589E+05 1.90994E-11-9.16771E-10
 -1       487-1.15645E+06-2.20044E+05-6.96866E+04-4.58762E+05 3.44016E-10 2.96677E-09
 -1       488-1.14714E+06-1.69777E+05-2.68666E+04-4.44486E+05-2.65118E-10 1.44792E-09
 -1       489-1.13495E+06-1.91193E+05-1.42867E+04-4.63125E+05 1.00772E-09 4.48381E-09
 -1       490-1.14921E+06-1.71407E+05-6.22828E+03-4.44278E+05 1.11413E-10-3.79259E-10
 -1       491-1.13260E+06-1.88871E+05-3.21966E+03-4.63766E+05 2.72848E-10 1.65255E-09
 -1       492-1.14957E+06-1.71443E+05-1.67069E+03-4.44164E+05-2.72848E-10 5.52404E-10
 -1       493-1.13227E+06-1.88815E+05-1.26773E+03-4.64007E+05 2.13390E-10 2.35366E-10
 -1       494-1.14964E+06-1.71381E+05-1.50083E+03-4.44112E+05-3.29578E-10-5.73664E-10
 -1       495-1.13242E+06-1.89026E+05-2.77354E+03-4.64058E+05-2.07471E-10-7.34417E-10
 -1       496-1.14944E+06-1.71242E+05-5.28562E+03-4.44120E+05 1.70098E-09 3.23371E-09
 -1       497-1.13430E+06-1.91142E+05-1.21209E+04-4.63736E+05-1.57002E-10 1.70417E-09
 -1       498-1.14778E+06-1.69771E+05-2.27553E+04-4.44222E+05-3.15936E-10-6.20275E-10
 -1       499-1.15241E+06-2.15745E+05-5.90662E+04-4.60245E+05 3.80993E-10 1.31877E-09
 -1       500-1.13216E+06-1.53253E+05-9.67858E+04-4.45076E+05-8.83119E-10 1.83718E-09
 -1       501 3.94956E+05-1.24857E+04 7.47149E+04-3.76873E+04 2.47019E-09 2.53567E-09
 -1       502 4.21127E+05 1.91031E+04 4.64626E+04-1.00107E+05 1.59343E-09 1.54978E-09
 -1       503 4.05391E+05-1.42945E+03 1.91984E+04-3.75038E+04 1.29148E-10-2.44654E-10
 -1       504 4.08259E+05 1.49061E+03 1.05441E+04-1.00137E+05-1.76442E-10-2.74758E-09
 -1       505 4.06193E+05-1.92951E+02 4.90258E+03-3.76426E+04 6.02085E-10 4.67935E-10
 -1       506 4.06441E+05 2.98938E+02 2.72759E+03-9.99112E+04 1.69348E-09 1.40153E-09
 -1       507 4.06170E+05 5.88632E+01 1.59668E+03-3.77302E+04 1.54159E-09-1.62504E-09
 -1       508 4.06047E+05 3.16724E+02 1.42383E+03-9.98042E+04 1.37220E-09-1.04683E-09
 -1       509 4.06130E+05 9.03453E+01 1.86230E+03-3.77492E+04 1.28148E-09 1.86742E-09
 -1       510 4.06289E+05 4.26307E+02 3.38958E+03-9.98327E+04 2.35468E-09-1.79170E-09
 -1       511 4.06047E+05-1.19033E+02 6.27526E+03-3.77017E+04 1.07866E-09-9.41327E-11
 -1       512 4.08239E+05 2.12297E+03 1.34714E+04-9.99805E+04 2.13822E-09-4.57533E-10
 -1       513 4.04877E+05-1.55108E+03 2.46672E+04-3.76009E+04 5.80258E-10 1.20235E-09
 -1       514 4.24214E+05 2.48654E+04 5.94806E+04-9.99236E+04-1.19871E-09 7.63066E-10
 -1       515 3.91356E+05-1.55002E+04 9.58557E+04-3.77738E+04 4.01997E-10-8.58563E-10
 -1       516-8.50512E+03 2.02725E+05 5.89648E+04-7.33317E+04 8.44011E-10 7.47605E-10
 -1       517 1.69734E+04 2.22023E+05 4.05011E+04-1.94196E+05 3.72370E-09 4.72915E-09
 -1       518-1.03732E+03 2.10455E+05 2.45812E+04-7.32009E+04 4.56112E-10-7.36691E-11
 -1       519 1.24859E+04 2.20291E+05 3.22058E+04-1.94046E+05 3.17777E-09-1.04774E-09
 -1       520-6.55382E+03 2.06031E+05 4.24603E+04-7.34986E+04 5.23869E-10-2.54659E-09
 -1       521-2.15202E+06-2.94304E+05-1.85709E+05-8.49900E+05 1.13960E-09-4.36557E-11
 -1       522-2.18959E+06-4.14657E+05-1.13228E+05-8.79483E+05 1.90721E-09-1.74441E-09
 -1       523-2.18273E+06-3.25171E+05-4.36892E+04-8.47561E+05-4.49290E-10 1.71894E-09
 -1       524-2.15409E+06-3.68545E+05-2.31933E+04-8.87805E+05-2.12276E-09-4.37831E-09
 -1       525-2.18651E+06-3.27383E+05-1.01271E+04-8.46887E+05-6.36646E-12 8.45830E-11
 -1       526-2.14997E+06-3.65213E+05-5.22087E+03-8.89581E+05-4.27008E-10 4.06203E-09
 -1       527-2.18730E+06-3.27221E+05-2.71424E+03-8.46543E+05-3.95175E-10 1.31627E-09
 -1       528-2.14934E+06-3.65261E+05-2.06718E+03-8.90216E+05-2.88969E-09-3.11627E-09
 -1       529-2.18741E+06-3.27119E+05-2.46661E+03-8.46462E+05-2.00492E-09-1.67711E-09
 -1       530-2.14972E+06-3.65449E+05-4.57758E+03-8.90044E+05-2.21075E-09 6.44150E-10
 -1       531-2.18686E+06-3.27117E+05-8.76203E+03-8.46649E+05-3.21961E-10-1.42791E-10
 -1       532-2.15316E+06-3.68497E+05-2.00675E+04-8.88763E+05 8.35826E-10 1.26920E-09
 -1       533-2.18368E+06-3.25122E+05-3.77466E+04-8.47161E+05 2.91948E-10 2.79215E-09
 -1       534-2.18378E+06-4.08461E+05-9.78897E+04-8.81693E+05 5.01586E-10 9.93168E-10
 -1       535-2.15715E+06-2.98418E+05-1.60523E+05-8.49160E+05 2.19188E-10 2.91038E-11
 -1       536 9.50677E+05-2.33752E+04 1.48821E+05-1.85091E+04-1.32786E-10 1.85537E-09
 -1       537 1.00096E+06 3.87153E+04 9.21427E+04-5.03236E+04-1.99361E-09-6.98492E-10
 -1       538 9.71997E+05-2.22337E+03 3.83251E+04-1.85672E+04-1.92813E-10 7.27596E-10
 -1       539 9.77187E+05 3.11260E+03 2.08508E+04-5.00670E+04 6.09816E-10 3.62434E-10
 -1       540 9.74051E+05-2.58750E+02 9.71817E+03-1.87422E+04 3.01043E-10-1.42381E-09
 -1       541 9.74663E+05 2.66090E+02 5.18858E+03-4.97854E+04 3.56522E-10-2.57603E-09
 -1       542 9.74271E+05-2.66772E+01 2.77542E+03-1.88496E+04-5.75255E-10 1.59707E-09
 -1       543 9.74321E+05 7.52220E+01 1.99228E+03-4.96523E+04-7.00766E-10 1.43530E-09
 -1       544 9.74278E+05-7.27239E+00 2.09235E+03-1.88756E+04 2.02192E-10-3.65503E-10
 -1       545 9.74472E+05 1.95873E+02 3.40624E+03-4.96794E+04-8.07518E-10 2.71314E-10
 -1       546 9.74143E+05-1.44010E+02 6.12299E+03-1.88223E+04 6.82121E-12 1.86674E-10
 -1       547 9.76035E+05 1.95965E+03 1.29796E+04-4.98597E+04-4.37922E-10-2.78942E-09
 -1       548 9.72876E+05-1.36875E+03 2.37934E+04-1.86949E+04 5.51154E-10-8.63110E-10
 -1       549 9.90810E+05 2.40271E+04 5.71610E+04-5.00421E+04-2.77851E-10 2.86855E-09
 -1       550 9.59661E+05-1.45099E+04 9.22822E+04-1.86497E+04-1.07684E-09 9.60426E-10
 -1       551 1.93187E+04-2.35764E+05 4.26867E+04-4.45982E+05 3.56522E-09 2.61934E-10
 -1       552 8.84545E+03-2.28498E+05 2.59866E+04-5.33232E+05 1.70257E-09 4.70027E-09
 -1       553 3.72879E+03-2.33726E+05 1.99083E+04-4.45214E+05 3.75076E-09 8.85848E-10
 -1       554 9.79771E+03-2.28111E+05 2.84844E+04-5.33322E+05 1.96815E-09 2.47474E-09
 -1       555 2.21898E+04-2.36626E+05 4.87038E+04-4.45880E+05 3.29055E-09-9.49512E-10
 -1       556-8.21652E+05-2.31323E+05-4.04526E+04-4.36901E+05 2.11912E-09-2.81580E-09
 -1       557-8.09006E+05-2.42087E+05-2.00187E+04-4.64984E+05-1.84809E-09 9.85892E-10
 -1       558-8.24147E+05-2.17387E+05-8.54197E+03-4.43003E+05 8.73115E-11-3.18323E-11
 -1       559-8.04637E+05-2.37200E+05-4.17031E+03-4.66480E+05 3.63798E-10 6.88033E-10
 -1       560-8.24775E+05-2.16700E+05-1.94884E+03-4.43443E+05-5.12955E-10-7.58519E-10
 -1       561-8.04615E+05-2.36923E+05-1.00310E+03-4.66758E+05-4.88399E-10-2.42085E-09
 -1       562-8.25039E+05-2.16596E+05-6.02241E+02-4.43572E+05-8.98581E-10-1.07048E-09
 -1       563-8.04731E+05-2.36866E+05-5.75204E+02-4.66870E+05-1.16324E-09 1.50067E-09
 -1       564-8.25080E+05-2.16554E+05-8.64687E+02-4.43602E+05 4.48154E-10 1.41154E-09
 -1       565-8.04757E+05-2.36873E+05-1.70448E+03-4.66862E+05-2.72848E-11-1.31331E-09
 -1       566-8.24885E+05-2.16570E+05-3.44308E+03-4.43532E+05-3.27418E-11 1.35333E-09
 -1       567-8.05132E+05-2.37274E+05-7.48994E+03-4.66720E+05-5.42059E-10-4.31100E-10
 -1       568-8.24193E+05-2.17512E+05-1.53285E+04-4.42929E+05-2.32831E-10 3.63798E-11
 -1       569-8.13028E+05-2.46469E+05-3.60732E+04-4.65067E+05 3.14139E-09 3.71074E-10
 -1       570-8.20669E+05-2.41873E+05-7.27794E+04-4.31650E+05-1.34969E-09 3.76531E-10
 -1       571 7.97199E+05 3.60078E+04 8.47778E+04-1.34252E+05 5.12955E-10 1.34423E-09
 -1       572 8.13449E+05 1.16632E+04 4.32412E+04-1.59705E+05-4.96584E-10 6.09361E-10
 -1       573 8.03959E+05 1.00248E+03 1.94457E+04-1.33633E+05 1.09139E-10 5.69344E-10
 -1       574 8.05269E+05 2.54731E+02 9.91723E+03-1.60294E+05 6.37556E-10 1.58252E-09
 -1       575 8.04288E+05-1.75407E+02 4.78249E+03-1.33594E+05-4.91127E-11 3.10865E-09
 -1       576 8.04383E+05-4.25190E+01 2.46192E+03-1.60334E+05-7.02130E-10 1.51704E-09
 -1       577 8.04281E+05-4.35220E+01 1.24456E+03-1.33594E+05 1.95314E-10 1.32422E-09
 -1       578 8.04289E+05-1.14006E+01 7.16385E+02-1.60339E+05 2.22599E-09-3.06409E-09
 -1       579 8.04385E+05-6.72489E+01 4.99837E+02-1.33589E+05 1.06593E-09-4.13820E-10
 -1       580 8.04500E+05-1.21737E+02 5.67623E+02-1.60352E+05-2.01453E-09 2.37651E-09
 -1       581 8.04645E+05-2.43450E+02 8.68265E+02-1.33581E+05-4.39468E-09-1.18143E-09
 -1       582 8.05040E+05-2.86681E+02 1.71338E+03-1.60312E+05-1.38243E-09-1.94541E-09
 -1       583 8.04991E+05-3.00150E+02 3.27215E+03-1.33628E+05 3.05590E-10-3.88354E-09
 -1       584 8.07006E+05 1.35545E+03 7.31695E+03-1.59566E+05-3.97085E-09-2.54840E-09
 -1       585 8.04348E+05 5.34617E+03 1.42671E+04-1.34342E+05 1.69894E-09 2.94676E-10
 -1       586 8.15910E+03 1.32549E+05 1.75058E+04-4.87277E+05 6.27551E-09-1.52431E-09
 -1       587 4.94447E+03 1.34841E+05 1.29523E+04-5.82390E+05 9.36416E-09 2.59388E-09
 -1       588 3.05022E+03 1.32282E+05 1.35973E+04-4.86427E+05 7.14135E-09 2.44836E-09
 -1       589 8.94743E+03 1.37204E+05 2.42582E+04-5.82487E+05 1.10158E-08-1.37788E-09
 -1       590 2.05942E+04 1.29583E+05 4.46857E+04-4.87159E+05 5.70981E-09-4.28554E-09
 -1       591-5.43128E+05-1.59670E+05-6.46121E+04-2.75381E+05-5.74573E-10-1.32422E-09
 -1       592-5.41758E+05-1.58374E+05-3.20431E+04-2.98770E+05 1.93450E-09-3.01497E-10
 -1       593-5.45881E+05-1.38280E+05-1.36115E+04-2.85424E+05-3.00133E-10-2.19916E-09
 -1       594-5.34671E+05-1.50134E+05-6.67047E+03-2.99881E+05 2.34650E-10-5.03547E-10
 -1       595-5.46314E+05-1.37553E+05-3.08648E+03-2.85876E+05 2.80124E-10-1.20963E-10
 -1       596-5.34222E+05-1.49815E+05-1.58005E+03-2.99887E+05 7.56700E-10-6.61203E-10
 -1       597-5.46406E+05-1.37581E+05-8.96509E+02-2.85895E+05-2.67846E-10 3.61069E-10
 -1       598-5.34179E+05-1.49817E+05-7.82986E+02-2.99872E+05-5.36545E-10 4.69936E-09
 -1       599-5.46373E+05-1.37590E+05-1.08215E+03-2.85880E+05-8.19000E-10 1.02136E-09
 -1       600-5.34191E+05-1.49834E+05-2.06777E+03-2.99851E+05-1.15961E-10 7.78073E-10
 -1       601-5.46198E+05-1.37570E+05-4.12746E+03-2.85828E+05-2.87400E-10 5.27507E-11
 -1       602-5.34764E+05-1.50278E+05-8.96387E+03-2.99818E+05-5.72982E-11-7.85803E-10
 -1       603-5.45598E+05-1.38562E+05-1.83090E+04-2.85208E+05 6.16637E-10-5.27507E-11
 -1       604-5.44256E+05-1.61389E+05-4.31009E+04-2.98346E+05 2.44017E-09-3.78350E-10
 -1       605-5.41925E+05-1.67272E+05-8.69008E+04-2.71651E+05 5.68798E-09 1.08594E-09
 -1       606 2.23170E+05-1.96778E+04-4.59003E+04 4.98861E+04-1.42227E-08-4.04725E-10
 -1       607 2.14244E+05-6.37156E+03-2.33937E+04 5.86763E+04-4.34193E-09 1.92222E-09
 -1       608 2.19163E+05-5.65763E+02-1.05398E+04 4.94357E+04 1.00626E-08-4.11092E-10
 -1       609 2.18266E+05 1.64287E+00-5.35622E+03 5.91240E+04-4.89854E-09-7.23958E-10
 -1       610 2.18718E+05 2.43228E+02-2.58278E+03 4.93989E+04-1.62327E-08-6.00994E-09
 -1       611 2.18494E+05 3.01883E+02-1.29683E+03 5.91562E+04-3.08728E-08-5.75801E-09
 -1       612 2.18571E+05 2.66903E+02-6.14045E+02 4.93992E+04-1.44919E-08-2.86354E-09
 -1       613 2.18443E+05 3.41890E+02-2.54266E+02 5.91537E+04-1.61135E-08-4.25644E-10
 -1       614 2.18482E+05 2.89869E+02-1.93134E+01 4.94002E+04-2.68301E-09-9.70886E-10
 -1       615 2.18387E+05 3.73366E+02 2.15473E+02 5.91493E+04 1.36642E-08 1.87310E-09
 -1       616 2.18416E+05 3.09435E+02 5.42810E+02 4.94027E+04-1.47047E-08-1.04319E-09
 -1       617 2.18422E+05 4.50227E+02 1.19423E+03 5.91411E+04-2.24190E-09 3.86081E-10
 -1       618 2.18312E+05 4.92854E+02 2.37509E+03 4.94069E+04-1.91767E-09-4.53520E-09
 -1       619 2.19351E+05 1.88742E+03 5.29710E+03 5.90913E+04-2.10548E-10-1.27466E-09
 -1       620 2.17426E+05 4.81578E+03 1.03960E+04 4.94313E+04 4.65075E-09-6.42103E-10
 -1       621 9.73229E+03 8.70792E+05 2.44534E+04-1.33251E+05-1.18143E-09-2.42721E-09
 -1       622 3.99863E+03 8.75463E+05 1.84727E+04-1.59187E+05-3.89537E-09-1.88845E-09
 -1       623 1.81555E+03 8.72135E+05 2.03254E+04-1.33143E+05-1.46792E-09 6.70298E-10
 -1       624 1.03442E+04 8.79858E+05 3.71083E+04-1.59006E+05-3.49974E-09-5.63887E-09
 -1       625 2.97760E+04 8.66670E+05 6.92140E+04-1.33401E+05-3.36513E-10 2.05728E-09
 -1       626 3.81546E+05 1.01337E+05-1.71801E+04 2.16842E+05-1.25474E-08-4.22006E-10
 -1       627 3.68948E+05 1.14612E+05-8.50952E+03 2.25245E+05-2.73576E-09-1.99361E-09
 -1       628 3.81065E+05 1.06670E+05-3.62561E+03 2.13638E+05 1.12086E-08 1.72849E-09
 -1       629 3.70247E+05 1.17285E+05-1.75742E+03 2.25332E+05 1.56215E-08 9.14952E-10
 -1       630 3.80865E+05 1.06900E+05-7.92889E+02 2.13410E+05 9.44056E-10-2.78749E-09
 -1       631 3.70217E+05 1.17445E+05-3.43690E+02 2.25279E+05-1.63100E-08 1.59977E-09
 -1       632 3.80750E+05 1.06937E+05-7.99374E+01 2.13350E+05-5.09317E-09 9.60654E-10
 -1       633 3.70159E+05 1.17474E+05 1.37868E+02 2.25229E+05 5.13091E-09 3.75803E-09
 -1       634 3.80682E+05 1.06944E+05 4.21821E+02 2.13322E+05 9.88166E-09 1.08093E-09
 -1       635 3.70172E+05 1.17479E+05 9.76620E+02 2.25224E+05 2.00189E-08 8.37053E-09
 -1       636 3.80633E+05 1.06908E+05 2.02988E+03 2.13319E+05 1.49089E-09 1.05592E-09
 -1       637 3.70544E+05 1.17667E+05 4.45642E+03 2.25276E+05 8.34825E-09-8.51560E-09
 -1       638 3.80445E+05 1.07330E+05 9.10522E+03 2.13075E+05 1.03237E-08 2.95586E-10
 -1       639 3.75463E+05 1.23114E+05 2.14590E+04 2.24647E+05-1.10795E-08 1.91721E-09
 -1       640 3.78781E+05 1.21566E+05 4.32534E+04 2.06434E+05 6.38465E-10 2.02272E-09
 -1       641 1.30236E+04 1.56394E+03-9.87914E+03 3.74392E+03-1.33284E-08 2.27737E-09
 -1       642 9.65518E+03-2.51226E+03-6.11242E+03 9.81850E+03-1.58717E-08 6.47560E-10
 -1       643 1.15997E+04 1.67015E+02-2.53895E+03 3.71542E+03-1.39320E-08 1.82945E-09
 -1       644 1.12106E+04-1.37875E+02-1.36934E+03 9.84567E+03-1.00196E-08-3.51719E-10
 -1       645 1.14574E+04 4.25680E+01-6.18556E+02 3.71373E+03-1.07025E-09 2.54079E-09
 -1       646 1.13669E+04 5.75406E+01-2.88955E+02 9.84703E+03-7.67282E-09 2.51271E-09
 -1       647 1.14384E+04 2.94184E+01-7.61976E+01 3.71379E+03 1.18156E-08-2.61451E-09
 -1       648 1.13947E+04 7.53342E+01 8.92295E+01 9.84719E+03 3.70670E-08 5.03360E-09
 -1       649 1.14302E+04 2.33866E+01 2.94146E+02 3.71354E+03 2.06221E-08 2.02886E-09
 -1       650 1.14442E+04 1.07309E+02 6.74019E+02 9.84727E+03 1.60713E-08 3.55607E-09
 -1       651 1.13951E+04-6.02535E+00 1.32841E+03 3.71370E+03-4.81850E-09 4.71709E-09
 -1       652 1.17827E+04 5.10331E+02 2.88580E+03 9.84544E+03-8.19773E-09 1.26761E-09
 -1       653 1.11035E+04-2.73074E+02 5.32384E+03 3.71498E+03 4.86875E-09-2.29124E-09
 -1       654 1.50657E+04 5.47368E+03 1.28086E+04 9.79921E+03 3.70073E-09 2.30102E-10
 -1       655 8.13005E+03-3.20906E+03 2.06909E+04 3.75429E+03 2.81827E-08 6.17365E-09
 -1       656 8.70406E+03-4.95284E+05-6.03615E+04 4.54104E+04-4.94401E-09-4.36376E-09
 -1       657-1.68666E+04-5.15296E+05-4.23888E+04 1.18082E+05-3.93072E-09 2.30330E-09
 -1       658 1.31833E+03-5.03020E+05-2.75565E+04 4.51347E+04-6.00426E-09 4.29827E-09
 -1       659-1.50934E+04-5.14396E+05-3.89752E+04 1.18263E+05 1.06047E-09-1.37298E-09
 -1       660 7.76888E+03-4.96532E+05-5.36247E+04 4.52370E+04-5.16229E-09-7.97172E-10
 -1       661 4.43205E+05 6.03562E+04 3.49633E+04 1.73821E+05-2.50943E-08-5.52791E-09
 -1       662 4.52332E+05 8.11166E+04 2.13371E+04 1.77190E+05-1.21680E-08-6.48674E-09
 -1       663 4.48762E+05 6.63982E+04 8.22676E+03 1.73597E+05-1.19030E-09-2.09775E-09
 -1       664 4.45876E+05 7.21427E+04 4.38883E+03 1.78306E+05-7.39772E-09-1.97815E-10
 -1       665 4.49321E+05 6.69731E+04 1.92365E+03 1.73598E+05-1.56589E-08-5.04059E-09
 -1       666 4.45226E+05 7.13439E+04 1.02765E+03 1.78368E+05-4.82636E-09-1.67983E-10
 -1       667 4.49387E+05 6.70279E+04 5.90651E+02 1.73599E+05-1.15398E-08 4.66684E-11
 -1       668 4.45160E+05 7.12928E+04 5.61096E+02 1.78382E+05-3.41215E-08 2.22158E-09
 -1       669 4.49390E+05 6.70136E+04 8.07615E+02 1.73590E+05 1.29527E-08-2.92710E-09
 -1       670 4.45259E+05 7.14262E+04 1.61846E+03 1.78413E+05 2.39075E-08 1.43791E-09
 -1       671 4.49298E+05 6.69010E+04 3.14403E+03 1.73569E+05 6.62851E-09-4.15957E-09
 -1       672 4.46313E+05 7.27794E+04 7.24587E+03 1.78352E+05 7.93545E-09-4.98721E-09
 -1       673 4.48386E+05 6.59329E+04 1.36053E+04 1.73553E+05-8.52941E-09 7.48514E-10
 -1       674 4.56988E+05 8.76518E+04 3.53130E+04 1.76531E+05-3.50542E-09 1.60253E-09
 -1       675 4.39194E+05 5.59270E+04 5.78683E+04 1.73920E+05 3.98359E-09 1.18234E-09
 -1       676 3.31208E+03-4.37186E+05-2.26472E+04 7.88879E+03-7.07314E-09-1.63618E-09
 -1       677-6.27362E+03-4.44799E+05-1.67886E+04 1.85977E+04-2.95592E-08-1.01647E-09
 -1       678 6.52623E+02-4.39858E+05-1.24091E+04 7.82952E+03-4.44174E-09 3.87706E-09
 -1       679-7.78728E+03-4.45813E+05-1.98570E+04 1.86601E+04-9.88302E-09-3.33466E-09
 -1       680 4.29892E+03-4.36193E+05-2.86495E+04 7.82541E+03-3.94175E-09 1.87120E-09
 -1       681 4.86486E+05-4.34472E+03 2.71477E+04-1.31178E+04-1.14596E-10-9.73159E-10
 -1       682 4.95731E+05 7.01926E+03 1.68370E+04-3.51790E+04 1.80535E-10 1.36424E-11
 -1       683 4.90354E+05-4.41335E+02 6.99841E+03-1.30781E+04 3.00133E-11 7.76254E-10
 -1       684 4.91308E+05 5.44850E+02 3.83333E+03-3.51548E+04 7.27596E-12 9.86802E-11
 -1       685 4.90707E+05-5.99522E+01 1.81903E+03-1.31391E+04-1.40517E-10 7.32825E-10
 -1       686 4.90800E+05 4.74426E+01 1.04830E+03-3.50570E+04-8.23093E-11 8.77549E-10
 -1       687 4.90732E+05-6.33616E+00 7.03280E+02-1.31760E+04-4.66116E-11-3.42538E-10
 -1       688 4.90731E+05 2.86759E+01 7.68582E+02-3.50103E+04-1.00044E-11 6.36987E-10
 -1       689 4.90716E+05-8.09539E+00 1.17396E+03-1.31858E+04-1.59559E-10 1.80250E-10
 -1       690 4.90864E+05 1.25734E+02 2.26731E+03-3.50198E+04-1.19257E-10 5.05878E-10
 -1       691 4.90611E+05-1.03722E+02 4.28915E+03-1.31664E+04 9.82254E-11 4.75552E-10
 -1       692 4.91963E+05 1.39536E+03 9.21895E+03-3.50795E+04-9.95897E-11 4.37467E-10
 -1       693 4.89697E+05-9.67859E+02 1.69600E+04-1.31259E+04-2.39652E-10-1.90084E-10
 -1       694 5.02469E+05 1.71652E+04 4.07793E+04-3.50837E+04-5.27507E-10-1.48384E-09
 -1       695 4.80255E+05-1.03339E+04 6.58567E+04-1.31676E+04-3.27418E-10-4.00178E-10
 -1       696-4.79714E+03 5.29797E+05 3.06963E+04-2.57079E+04 9.27685E-11-8.39918E-10
 -1       697 8.13723E+03 5.39925E+05 1.77898E+04-6.70213E+04 1.44610E-10-9.80720E-10
 -1       698-2.02448E+02 5.34458E+05 5.00319E+03-2.56543E+04-1.37788E-10 1.83081E-09
 -1       699-2.16408E+03 5.33174E+05-3.01637E+03-6.70266E+04-2.18336E-10 2.22963E-09
 -1       700 1.79776E+03 5.36614E+05-1.00476E+04-2.57069E+04-2.65572E-10 1.65210E-09
 -1       701-4.54186E+05-5.86693E+04-6.44534E+04-1.82296E+05-2.06455E-10-4.72937E-11
 -1       702-4.70059E+05-9.78652E+04-3.93279E+04-1.89646E+05-1.54614E-11 9.91349E-10
 -1       703-4.64553E+05-6.96916E+04-1.51616E+04-1.81763E+05 5.50244E-11 5.56611E-10
 -1       704-4.58043E+05-8.14549E+04-8.06912E+03-1.91918E+05-2.59206E-10 2.54659E-11
 -1       705-4.65651E+05-7.06831E+04-3.51905E+03-1.81711E+05-8.91305E-11 4.20641E-11
 -1       706-4.56794E+05-8.00524E+04-1.82847E+03-1.92148E+05-2.83990E-10-2.04182E-10
 -1       707-4.65808E+05-7.07484E+04-9.62330E+02-1.81687E+05 1.52795E-10-1.95541E-10
 -1       708-4.56647E+05-7.99729E+04-7.57176E+02-1.92215E+05-2.59320E-10 4.01769E-10
 -1       709-4.65829E+05-7.07287E+04-9.30460E+02-1.81672E+05-9.33369E-11 1.21645E-10
 -1       710-4.56754E+05-8.01006E+04-1.74785E+03-1.92239E+05-1.65926E-10 5.08749E-11
 -1       711-4.65716E+05-7.06268E+04-3.34422E+03-1.81666E+05 1.99257E-10 1.65755E-10
 -1       712-4.57909E+05-8.14869E+04-7.67636E+03-1.92105E+05 2.54090E-10-7.13953E-10
 -1       713-4.64708E+05-6.96467E+04-1.44085E+04-1.81689E+05 1.07349E-10-4.68390E-10
 -1       714-4.69278E+05-9.71686E+04-3.73985E+04-1.90055E+05-8.29914E-11 6.31189E-10
 -1       715-4.54905E+05-5.91053E+04-6.12739E+04-1.82143E+05-1.73713E-10 7.09406E-10
 -1       716 3.88774E+05-9.12488E+03 5.71432E+04-2.51002E+04 3.32875E-10 8.76753E-10
 -1       717 4.08211E+05 1.48905E+04 3.54396E+04-6.62658E+04-2.25555E-10 1.11868E-09
 -1       718 3.96884E+05-8.75448E+02 1.47263E+04-2.49913E+04-3.20142E-10 1.02682E-09
 -1       719 3.98837E+05 1.28659E+03 8.05172E+03-6.63090E+04-5.45242E-10 1.69348E-09
 -1       720 3.97616E+05-6.11286E+01 3.79912E+03-2.50520E+04 1.12459E-09 8.87212E-10
 -1       721 3.97762E+05 2.39340E+02 2.13166E+03-6.62225E+04 1.04524E-09 3.41811E-09
 -1       722 3.97681E+05 4.27757E+01 1.33375E+03-2.50780E+04 1.45815E-09 2.89788E-09
 -1       723 3.97665E+05 1.68085E+02 1.30909E+03-6.62135E+04 1.26875E-09 2.32603E-09
 -1       724 3.97688E+05 1.40217E+01 1.85704E+03-2.50610E+04 6.58929E-10 1.17097E-09
 -1       725 3.97989E+05 2.57744E+02 3.50833E+03-6.62922E+04 9.96806E-10 2.68392E-09
 -1       726 3.97585E+05-1.91192E+02 6.56306E+03-2.49992E+04 6.52108E-10 1.50385E-09
 -1       727 3.99888E+05 2.10657E+03 1.41323E+04-6.64474E+04 6.99401E-10-5.72982E-10
 -1       728 3.96272E+05-1.60587E+03 2.59294E+04-2.49051E+04-2.65572E-10-7.36691E-11
 -1       729 4.16296E+05 2.61428E+04 6.24703E+04-6.64250E+04-2.11912E-10-6.12090E-10
 -1       730 3.81923E+05-1.60842E+04 1.00784E+05-2.50383E+04 6.91216E-10-1.58616E-09
 -1       731-5.96497E+03 1.92168E+05 3.88343E+04-5.31514E+04 3.40151E-10 1.78261E-10
 -1       732 1.05915E+04 2.05000E+05 2.43582E+04-1.40891E+05 1.92631E-09-3.55499E-10
 -1       733-4.52796E+02 1.97635E+05 1.06824E+04-5.30150E+04 2.18733E-10 1.64005E-09
 -1       734 2.03978E+03 1.99566E+05 7.19715E+03-1.40858E+05 1.51886E-09 2.28829E-09
 -1       735-6.18957E+02 1.97868E+05 5.19009E+03-5.31866E+04 7.73070E-11 1.03682E-09
 -1       736-1.07597E+06-1.42628E+05-9.07222E+04-4.18596E+05-2.24645E-10 3.27418E-11
 -1       737-1.10040E+06-1.95733E+05-5.53624E+04-4.26543E+05 1.83718E-10-5.63887E-10
 -1       738-1.09059E+06-1.58117E+05-2.13294E+04-4.17786E+05 4.20187E-10-1.73713E-10
 -1       739-1.08338E+06-1.72707E+05-1.13520E+04-4.29835E+05-1.19826E-10-1.08366E-09
 -1       740-1.09218E+06-1.59473E+05-4.93964E+03-4.17659E+05-2.54204E-10-9.51104E-10
 -1       741-1.08154E+06-1.70797E+05-2.55614E+03-4.30228E+05-3.28782E-10 7.56586E-10
 -1       742-1.09242E+06-1.59548E+05-1.31908E+03-4.17598E+05-4.28145E-10-2.89333E-11
 -1       743-1.08130E+06-1.70708E+05-9.93896E+02-4.30342E+05-1.23958E-09-4.85890E-10
 -1       744-1.09245E+06-1.59523E+05-1.16402E+03-4.17574E+05-1.06212E-09-6.08452E-10
 -1       745-1.08143E+06-1.70849E+05-2.14050E+03-4.30349E+05-1.09685E-09-7.02585E-11
 -1       746-1.09229E+06-1.59422E+05-4.07291E+03-4.17587E+05-2.48292E-10-4.75211E-11
 -1       747-1.08289E+06-1.72477E+05-9.33638E+03-4.30107E+05 2.47383E-10 9.70658E-10
 -1       748-1.09102E+06-1.58277E+05-1.75221E+04-4.17662E+05 1.32047E-10 7.01220E-10
 -1       749-1.09683E+06-1.91445E+05-4.54873E+04-4.27467E+05-1.46144E-10 7.63976E-11
 -1       750-1.07903E+06-1.45527E+05-7.45316E+04-4.18305E+05-2.54659E-10 7.27596E-11
 -1       751 1.53623E+06-3.28424E+04 2.09755E+05-1.97009E+04-5.62068E-10-1.78989E-09
 -1       752 1.60698E+06 5.45628E+04 1.29836E+05-5.46872E+04-2.40107E-09-1.81353E-09
 -1       753 1.56630E+06-3.10204E+03 5.40386E+04-1.99276E+04-4.56566E-10-1.30967E-10
 -1       754 1.57357E+06 4.39634E+03 2.94100E+04-5.41181E+04 6.35282E-10 7.74889E-10
 -1       755 1.56921E+06-3.55935E+02 1.37482E+04-2.02340E+04-4.18368E-11 3.56522E-10
 -1       756 1.57006E+06 3.69479E+02 7.40301E+03-5.36329E+04-5.18412E-10-2.12822E-09
 -1       757 1.56953E+06-4.18422E+01 4.08789E+03-2.04139E+04-5.68889E-10 5.20686E-10
 -1       758 1.56962E+06 9.60379E+01 3.16444E+03-5.34135E+04 1.24999E-10 1.96655E-09
 -1       759 1.56954E+06-2.56429E+01 3.64627E+03-2.04538E+04 2.61025E-10 1.53921E-09
 -1       760 1.56992E+06 3.33562E+02 6.24797E+03-5.34709E+04-1.54660E-09 3.95266E-09
 -1       761 1.56926E+06-2.70589E+02 1.14221E+04-2.03562E+04 9.86802E-11 4.97494E-10
 -1       762 1.57278E+06 3.66999E+03 2.43110E+04-5.37976E+04 2.61934E-10-1.03842E-09
 -1       763 1.56685E+06-2.52999E+03 4.46307E+04-2.01262E+04 5.36602E-11-6.07542E-10
 -1       764 1.60034E+06 4.50856E+04 1.07183E+05-5.42311E+04 9.64064E-11-3.98541E-09
 -1       765 1.54202E+06-2.70805E+04 1.73134E+05-1.99438E+04-2.20098E-09-1.05501E-09
 -1       766-1.66696E+04 4.44790E+05 1.10759E+05-2.66028E+04-2.93949E-09-1.69894E-09
 -1       767 2.98482E+04 4.82256E+05 7.65393E+04-6.97182E+04-9.99535E-10 1.15506E-10
 -1       768-2.64103E+03 4.59066E+05 4.74598E+04-2.65631E+04-1.80239E-09 1.55887E-09
 -1       769 2.33647E+04 4.78328E+05 6.36476E+04-6.96874E+04-1.01045E-09 6.91671E-10
 -1       770-1.27668E+04 4.49164E+05 8.54302E+04-2.66506E+04-1.25874E-09 1.60071E-09
 -1       771-1.67736E+06-3.38686E+05-1.25687E+05-6.89562E+05 2.68210E-09-1.51340E-09
 -1       772-1.68636E+06-3.24398E+05-6.23315E+04-7.21464E+05 2.78305E-10 1.86265E-09
 -1       773-1.68249E+06-2.97282E+05-2.64740E+04-7.09195E+05 5.38421E-10 1.57343E-09
 -1       774-1.67262E+06-3.08301E+05-1.29611E+04-7.23507E+05 1.55705E-09-1.17598E-09
 -1       775-1.68334E+06-2.95843E+05-5.98207E+03-7.10056E+05 4.80213E-10-1.91358E-09
 -1       776-1.67175E+06-3.07697E+05-3.01407E+03-7.23592E+05 6.63931E-11-2.01499E-09
 -1       777-1.68362E+06-2.95844E+05-1.62075E+03-7.10118E+05-1.10958E-10-2.05341E-09
 -1       778-1.67174E+06-3.07685E+05-1.24319E+03-7.23683E+05-5.52973E-10 3.93698E-10
 -1       779-1.68372E+06-2.95786E+05-1.52471E+03-7.10155E+05 3.40151E-10 1.29421E-09
 -1       780-1.67187E+06-3.07671E+05-2.77200E+03-7.23788E+05 3.65617E-10 1.60981E-10
 -1       781-1.68365E+06-2.95672E+05-5.45742E+03-7.10166E+05 3.09228E-11 1.06411E-10
 -1       782-1.67278E+06-3.08217E+05-1.18350E+04-7.23909E+05-3.67208E-10-5.51154E-10
 -1       783-1.68305E+06-2.96861E+05-2.41503E+04-7.09427E+05-1.44610E-10 6.71207E-10
 -1       784-1.68528E+06-3.23095E+05-5.69204E+04-7.22423E+05 3.02862E-10 1.06229E-09
 -1       785-1.67860E+06-3.34489E+05-1.14742E+05-6.91422E+05-7.47605E-10 8.18545E-10
 -1       786 9.64349E+05-1.85602E+04 1.18701E+05-1.28469E+04 1.27511E-09 1.96451E-10
 -1       787 1.00433E+06 3.09226E+04 7.34789E+04-3.52219E+04-1.44155E-10-2.68756E-09
 -1       788 9.81391E+05-1.73285E+03 3.05791E+04-1.28806E+04-7.66704E-10 6.22094E-10
 -1       789 9.85475E+05 2.49219E+03 1.66257E+04-3.50762E+04-3.43107E-10-9.54060E-10
 -1       790 9.83057E+05-1.95376E+02 7.75565E+03-1.29786E+04 3.21506E-10 1.76124E-09
 -1       791 9.83531E+05 1.90903E+02 4.13293E+03-3.49335E+04 8.66748E-10 3.66731E-09
 -1       792 9.83251E+05-2.99658E+01 2.20758E+03-1.30235E+04 5.07157E-10 1.45201E-09
 -1       793 9.83301E+05 1.87468E+01 1.57315E+03-3.49007E+04-2.39822E-10 3.43334E-11
 -1       794 9.83268E+05-2.49379E+01 1.63820E+03-1.30116E+04-6.11180E-10-1.96195E-09
 -1       795 9.83437E+05 1.03726E+02 2.65614E+03-3.49826E+04 6.49607E-10 3.06173E-09
 -1       796 9.83165E+05-1.33727E+02 4.76605E+03-1.29415E+04-1.32695E-09-1.42336E-10
 -1       797 9.84649E+05 1.47806E+03 1.01031E+04-3.51718E+04-5.42059E-10-6.11317E-09
 -1       798 9.82174E+05-1.08137E+03 1.85189E+04-1.28223E+04-7.54881E-10-2.94403E-09
 -1       799 9.96121E+05 1.86646E+04 4.44891E+04-3.53494E+04-4.39468E-09-3.08773E-09
 -1       800 9.71874E+05-1.12962E+04 7.18250E+04-1.27738E+04 7.91260E-11-2.74304E-09
 -1       801-8.83165E+03 2.89038E+05 5.88029E+04-2.63121E+05 5.52973E-09-1.92085E-09
 -1       802 2.27485E+04 3.05545E+05 4.76857E+04-6.97298E+05 6.26460E-09 2.11003E-10
 -1       803 2.98393E+02 2.93244E+05 3.99407E+04-2.62406E+05 1.01008E-08 4.00632E-09
 -1       804 3.34679E+04 3.14361E+05 7.04692E+04-6.97234E+05 3.70892E-09-4.15457E-09
 -1       805-1.70571E+04 2.82466E+05 1.03062E+05-2.63201E+05 7.21411E-09 2.78669E-09
 -1       806-9.61575E+05-2.23553E+05-8.42288E+04-4.27186E+05-1.41745E-09-2.18279E-09
 -1       807-9.63646E+05-2.18011E+05-4.17776E+04-4.53208E+05 1.92904E-09 1.93859E-09
 -1       808-9.65007E+05-1.95801E+05-1.77378E+04-4.40349E+05 2.72848E-10 1.89266E-09
 -1       809-9.54434E+05-2.07192E+05-8.69142E+03-4.54501E+05 8.00355E-11-1.06326E-09
 -1       810-9.65524E+05-1.94882E+05-4.01323E+03-4.40918E+05 3.81988E-11-1.14119E-09
 -1       811-9.53817E+05-2.06785E+05-2.04184E+03-4.54478E+05-6.41194E-10-4.13365E-10
 -1       812-9.65627E+05-1.94931E+05-1.13108E+03-4.40932E+05 1.75078E-11 7.64885E-10
 -1       813-9.53751E+05-2.06790E+05-9.40189E+02-4.54449E+05 3.95858E-10-1.46065E-09
 -1       814-9.65590E+05-1.94947E+05-1.24357E+03-4.40916E+05 2.62844E-10 1.95632E-09
 -1       815-9.53774E+05-2.06803E+05-2.33593E+03-4.54422E+05 3.39242E-10-4.80213E-10
 -1       816-9.65402E+05-1.94923E+05-4.64095E+03-4.40868E+05-3.40333E-09-7.78164E-09
 -1       817-9.54444E+05-2.07287E+05-1.00704E+04-4.54392E+05 1.51613E-09-3.22689E-09
 -1       818-9.64751E+05-1.96026E+05-2.05638E+04-4.40189E+05 1.40972E-09-1.64437E-09
 -1       819-9.65114E+05-2.19793E+05-4.84199E+04-4.52803E+05 1.22418E-09 2.64663E-09
 -1       820-9.60713E+05-2.28214E+05-9.76220E+04-4.24936E+05 9.05493E-09-2.36832E-09
 -1       821-6.25649E+05 1.22601E+04-7.87955E+04 8.90648E+03-1.02127E-08-3.84171E-09
 -1       822-6.52089E+05-2.05276E+04-4.87676E+04 2.54424E+04-4.63797E-09-5.22778E-09
 -1       823-6.37014E+05 1.12554E+03-2.03100E+04 8.66015E+03 8.69113E-09-3.06864E-09
 -1       824-6.39733E+05-1.56658E+03-1.10302E+04 2.57805E+04-4.67253E-09-5.75687E-09
 -1       825-6.38159E+05 1.49968E+02-5.16625E+03 8.55860E+03-1.54187E-08-5.47266E-09
 -1       826-6.38552E+05 1.43976E+01-2.76695E+03 2.59461E+04-2.47737E-08-6.46764E-09
 -1       827-6.38312E+05 6.88842E+01-1.52625E+03 8.49253E+03-1.44373E-08-3.90855E-09
 -1       828-6.38460E+05 1.52882E+02-1.16669E+03 2.60484E+04-2.01399E-08-9.06090E-09
 -1       829-6.38327E+05 7.75030E+01-1.33457E+03 8.45563E+03-2.99224E-09-6.20111E-09
 -1       830-6.38582E+05 7.17084E+01-2.27803E+03 2.60904E+04 9.44544E-09-1.41428E-08
 -1       831-6.38223E+05 1.60093E+02-4.16644E+03 8.45036E+03-3.51594E-09-6.26392E-09
 -1       832-6.39579E+05-1.17398E+03-8.86839E+03 2.60688E+04 2.63481E-09-5.42695E-09
 -1       833-6.37320E+05 9.59085E+02-1.62967E+04 8.47854E+03-3.30033E-09-6.39830E-09
 -1       834-6.49542E+05-1.63779E+04-3.91511E+04 2.59329E+04-6.12386E-09-1.19762E-08
 -1       835-6.28210E+05 9.91158E+03-6.32363E+04 8.60118E+03 7.21320E-09-6.15546E-09
 -1       836-1.75889E+04 1.40484E+06 1.19543E+05-1.05530E+05-2.37924E-09-8.58563E-10
 -1       837 3.41073E+04 1.44457E+06 8.88898E+04-2.74038E+05-6.03609E-09 4.13365E-10
 -1       838-3.02551E+03 1.41849E+06 6.58320E+04-1.05510E+05-3.83079E-09 1.43928E-09
 -1       839 4.23433E+04 1.44980E+06 1.05430E+05-2.73979E+05-5.10772E-09 1.23100E-09
 -1       840-2.27244E+04 1.39934E+06 1.51998E+05-1.05581E+05-4.67844E-09 1.16052E-09
 -1       841-1.35647E+05-6.96003E+03-3.19541E+04-4.40585E+04-4.09455E-09 2.35741E-09
 -1       842-1.59854E+05-9.93054E+03-1.94768E+04-2.90316E+04-3.55794E-09 7.75799E-10
 -1       843-1.40635E+05-1.25638E+04-7.52000E+03-4.40073E+04-2.96041E-09 2.50338E-09
 -1       844-1.54181E+05-1.57240E+03-3.98535E+03-2.99473E+04 7.04404E-10-1.74009E-09
 -1       845-1.41146E+05-1.30836E+04-1.72590E+03-4.40473E+04 4.91582E-10-2.58160E-09
 -1       846-1.53679E+05-7.90968E+02-8.54683E+02-3.00036E+04-7.69978E-09-3.48200E-09
 -1       847-1.41208E+05-1.31338E+04-3.73436E+02-4.40760E+04-8.20546E-09-9.35205E-09
 -1       848-1.53660E+05-6.93710E+02-1.47130E+02-3.00022E+04 1.36831E-08 1.37447E-09
 -1       849-1.41221E+05-1.31409E+04 2.24614E+00-4.40908E+04 1.21761E-08 2.47093E-09
 -1       850-1.53650E+05-6.62354E+02 1.57884E+02-3.00002E+04 2.13062E-08 3.22643E-09
 -1       851-1.41237E+05-1.31540E+04 3.78102E+02-4.40913E+04 4.15378E-09-3.51679E-09
 -1       852-1.53487E+05-5.05685E+02 9.13772E+02-3.00155E+04 3.26718E-08-6.21321E-09
 -1       853-1.41360E+05-1.32742E+04 1.72538E+03-4.40750E+04 1.88231E-08-1.40130E-09
 -1       854-1.52011E+05 1.30615E+03 4.50144E+03-3.03124E+04-2.23451E-08 2.05591E-09
 -1       855-1.42585E+05-1.45023E+04 7.36339E+03-4.39420E+04-7.25049E-09 2.55113E-09
 -1       856-4.19815E+05 6.81160E+03-4.36027E+04 9.65379E+03-1.95241E-08-3.19960E-09
 -1       857-4.34506E+05-1.12333E+04-2.69785E+04 2.76302E+04-1.42136E-08-7.51425E-09
 -1       858-4.26112E+05 6.66950E+02-1.12362E+04 9.48158E+03-1.27138E-08-4.89217E-09
 -1       859-4.27700E+05-7.32920E+02-6.09808E+03 2.78461E+04-5.54110E-10-1.16970E-08
 -1       860-4.26752E+05 1.34287E+02-2.84853E+03 9.42724E+03 2.41471E-10-9.34597E-09
 -1       861-4.27058E+05 1.46903E+02-1.51299E+03 2.79243E+04-8.70114E-09-9.27633E-09
 -1       862-4.26839E+05 9.05158E+01-8.07972E+02 9.40179E+03 1.69443E-08-6.80234E-09
 -1       863-4.26999E+05 2.22446E+02-5.73987E+02 2.79537E+04 2.64419E-08-1.26122E-08
 -1       864-4.26846E+05 8.96338E+01-5.98561E+02 9.39749E+03 1.94783E-08-8.34228E-09
 -1       865-4.27029E+05 1.81761E+02-9.70450E+02 2.79400E+04 2.09633E-08-8.21331E-09
 -1       866-4.26794E+05 1.14409E+02-1.74918E+03 9.41554E+03 2.73644E-09-3.82043E-09
 -1       867-4.27406E+05-3.53915E+02-3.70008E+03 2.78798E+04-5.99493E-09-8.08318E-09
 -1       868-4.26403E+05 4.31145E+02-6.80109E+03 9.45884E+03 9.77116E-09-8.10428E-09
 -1       869-4.31498E+05-6.71091E+03-1.63130E+04 2.76883E+04-4.14570E-09-9.76399E-09
 -1       870-4.22589E+05 4.13603E+03-2.63686E+04 9.61421E+03 1.05656E-08-5.60794E-09
 -1       871-4.53820E+03-3.99856E+04-7.81003E+03 1.48877E+05 4.02270E-09-4.00541E-09
 -1       872-2.00517E+03-4.13912E+04-2.16828E+03 1.77909E+05 1.16415E-09-5.74710E-09
 -1       873-5.47026E+02-4.10047E+04 2.62938E+03 1.48613E+05-1.92358E-09-3.66708E-09
 -1       874 1.98025E+03-3.87867E+04 9.36199E+03 1.77982E+05 1.83536E-09 1.31035E-09
 -1       875 7.96363E+03-4.27127E+04 1.98887E+04 1.48850E+05 2.71120E-09 2.32558E-09
 -1       876 5.09934E+05 7.04681E+04 4.87632E+04 2.03893E+05-1.53295E-08-3.31056E-09
 -1       877 5.19210E+05 1.02952E+05 2.97658E+04 2.12577E+05-2.12399E-08-5.67888E-09
 -1       878 5.17670E+05 7.89161E+04 1.14676E+04 2.03577E+05-6.56019E-09 3.74530E-09
 -1       879 5.10207E+05 9.04038E+04 6.11705E+03 2.14069E+05-7.77436E-09-3.21052E-10
 -1       880 5.18411E+05 7.97583E+04 2.66782E+03 2.03606E+05-2.26623E-08-1.93336E-09
 -1       881 5.09332E+05 8.92397E+04 1.40579E+03 2.14075E+05-7.52698E-09-1.20764E-10
 -1       882 5.18473E+05 7.98682E+04 7.65743E+02 2.03633E+05 1.26124E-09-3.27728E-09
 -1       883 5.09263E+05 8.91239E+04 6.56545E+02 2.14034E+05-4.44202E-08 4.41543E-09
 -1       884 5.18460E+05 7.98748E+04 8.71185E+02 2.03639E+05 4.80959E-09 6.91330E-09
 -1       885 5.09379E+05 8.92396E+04 1.69048E+03 2.14038E+05 3.18119E-08 9.22444E-09
 -1       886 5.18360E+05 7.97637E+04 3.25879E+03 2.03624E+05 1.08961E-08-5.75801E-09
 -1       887 5.10477E+05 9.06338E+04 7.49425E+03 2.13976E+05 2.21430E-08-5.82668E-09
 -1       888 5.17424E+05 7.87562E+04 1.40643E+04 2.03606E+05-1.14252E-08 3.79532E-09
 -1       889 5.21526E+05 1.06004E+05 3.65024E+04 2.12107E+05 1.39310E-08 6.57110E-10
 -1       890 5.07926E+05 6.84072E+04 5.98100E+04 2.03992E+05 1.10940E-08-6.65750E-10
 -1       891 1.10823E+03-2.35499E+05-9.44284E+03 4.24645E+04-9.55424E-10-5.64796E-10
 -1       892-3.14024E+03-2.38356E+05-7.25405E+03 1.11832E+05-1.49739E-08 9.41327E-11
 -1       893 1.23132E+02-2.36605E+05-5.82724E+03 4.23174E+04 9.27730E-09 2.00134E-09
 -1       894-4.48805E+03-2.39197E+05-9.94823E+03 1.11806E+05-4.32829E-09-4.25734E-09
 -1       895 1.93927E+03-2.34596E+05-1.47268E+04 4.24887E+04 3.41606E-09 2.74667E-09
 -1       896 7.89698E+05-1.97457E+03 1.22545E+04-8.75108E+03 5.45697E-12-1.78261E-10
 -1       897 7.93843E+05 3.15550E+03 7.60659E+03-2.39434E+04 1.89175E-10 3.62888E-10
 -1       898 7.91442E+05-2.08374E+02 3.16477E+03-8.76949E+03 2.50111E-11-7.07132E-11
 -1       899 7.91836E+05 2.36489E+02 1.74595E+03-2.38417E+04 1.29148E-10 2.34763E-10
 -1       900 7.91598E+05-3.31420E+01 8.48544E+02-8.85176E+03 1.10049E-10 6.35509E-11
 -1       901 7.91599E+05 1.62073E+01 5.32279E+02-2.37055E+04 4.97948E-11-1.73998E-10
 -1       902 7.91605E+05-6.81718E+00 4.32305E+02-8.90572E+03-1.40972E-11-2.67164E-11
 -1       903 7.91570E+05 1.49712E+01 5.84162E+02-2.36274E+04 3.59250E-11 1.96906E-10
 -1       904 7.91586E+05-9.67893E+00 9.94404E+02-8.92990E+03 1.04535E-10 8.52651E-13
 -1       905 7.91680E+05 1.07690E+02 1.98856E+03-2.36105E+04 2.36099E-10-2.97305E-10
 -1       906 7.91485E+05-8.76522E+01 3.79863E+03-8.92256E+03 4.39968E-11 3.12525E-10
 -1       907 7.92626E+05 1.24803E+03 8.17880E+03-2.36520E+04-7.67386E-11 6.58133E-10
 -1       908 7.90660E+05-8.40571E+02 1.50616E+04-8.88828E+03-2.91038E-11 3.16504E-10
 -1       909 8.01899E+05 1.52642E+04 3.61995E+04-2.36885E+04-1.60071E-10-1.74623E-10
 -1       910 7.82255E+05-9.12974E+03 5.84761E+04-8.88841E+03-1.93268E-10-4.18368E-10
 -1       911 2.10117E+05-7.49250E+02 4.52340E+03-9.60935E+03 6.09361E-11 1.19996E-10
 -1       912 2.11673E+05 1.17137E+03 2.81776E+03-2.53271E+04 3.43334E-11 2.26464E-10
 -1       913 2.10748E+05-7.99555E+01 1.17476E+03-9.54305E+03-3.17414E-10 1.66665E-10
 -1       914 2.10895E+05 1.05228E+02 6.63839E+02-2.53784E+04 5.27507E-11 1.19030E-10
 -1       915 2.10796E+05-5.77616E+00 3.48167E+02-9.55785E+03 6.19821E-10 1.79512E-10
 -1       916 2.10790E+05 3.27289E+01 2.69402E+02-2.53537E+04 7.70797E-10-5.02496E-10
 -1       917 2.10793E+05 7.15333E+00 3.02407E+02-9.56778E+03 7.17478E-10 2.44995E-11
 -1       918 2.10787E+05 3.85435E+01 5.07936E+02-2.53428E+04 4.98687E-10 1.62572E-10
 -1       919 2.10776E+05-1.04513E+00 9.38928E+02-9.56873E+03 4.19050E-10 9.46443E-12
 -1       920 2.10911E+05 1.23738E+02 1.92268E+03-2.53496E+04 1.09185E-09-4.66386E-10
 -1       921 2.10683E+05-8.27064E+01 3.69279E+03-9.56087E+03 4.47926E-10 1.23691E-10
 -1       922 2.11852E+05 1.22877E+03 7.96870E+03-2.53702E+04 9.31323E-10-2.47610E-10
 -1       923 2.09886E+05-8.24255E+02 1.46766E+04-9.54796E+03 2.29193E-10-3.41061E-10
 -1       924 2.20920E+05 1.48933E+04 3.52964E+04-2.53183E+04 1.16415E-10-5.22050E-10
 -1       925 2.01704E+05-8.92185E+03 5.70131E+04-9.61457E+03 7.91260E-11-3.74712E-10
 -1       926-9.88936E+05 8.63454E+03-5.52875E+04-3.43182E+03 5.02951E-10-1.27329E-10
 -1       927-1.00746E+06-1.44693E+04-3.42287E+04-8.73454E+03-7.03153E-11 6.31189E-10
 -1       928-9.96886E+05 7.88864E+02-1.42340E+04-3.37227E+03-3.41061E-11-4.76575E-10
 -1       929-9.98718E+05-1.18269E+03-7.72833E+03-8.81766E+03 3.84262E-11-6.50402E-10
 -1       930-9.97671E+05 8.39955E+01-3.59229E+03-3.35019E+03 2.56762E-10 2.68301E-11
 -1       931-9.97837E+05-9.50421E+01-1.88932E+03-8.84543E+03 1.62117E-10 3.16334E-11
 -1       932-9.97766E+05 1.21568E+01-9.64216E+02-3.34449E+03 1.40339E-10-3.72481E-10
 -1       933-9.97730E+05-1.02601E+01-6.05473E+02-8.84214E+03 7.69944E-11-5.38378E-11
 -1       934-9.97776E+05 5.18042E+00-5.17658E+02-3.35346E+03-3.78577E-11 5.18412E-11
 -1       935-9.97745E+05-3.40479E+01-7.28117E+02-8.80894E+03 1.42336E-10-2.63356E-10
 -1       936-9.97746E+05 2.61889E+01-1.24400E+03-3.37769E+03 2.28738E-10 1.23066E-10
 -1       937-9.98030E+05-3.97537E+02-2.59459E+03-8.74482E+03 4.73165E-10-7.08951E-10
 -1       938-9.97484E+05 2.58270E+02-4.74669E+03-3.41758E+03 4.20187E-10-9.01082E-10
 -1       939-1.00093E+06-4.81835E+03-1.13883E+04-8.61771E+03 7.42148E-10-3.20597E-11
 -1       940-9.94839E+05 2.86398E+03-1.83926E+04-3.50397E+03-3.36968E-10 5.04770E-10
 -1       941 1.96023E+06-4.04193E+04 2.60432E+05-6.26157E+03 1.32809E-09 2.03727E-09
 -1       942 2.04765E+06 6.78937E+04 1.61104E+05-1.78117E+04 9.91008E-10-1.78989E-09
 -1       943 1.99768E+06-3.70609E+03 6.71171E+04-6.29390E+03 1.30285E-10-2.25555E-10
 -1       944 2.00658E+06 5.52519E+03 3.64905E+04-1.77561E+04-4.83283E-10-1.21145E-09
 -1       945 2.00140E+06-4.01346E+02 1.70700E+04-6.30543E+03 6.80132E-10 1.45246E-09
 -1       946 2.00245E+06 4.29753E+02 9.15654E+03-1.77920E+04 1.35736E-09 3.08773E-09
 -1       947 2.00185E+06-6.98353E+01 5.01733E+03-6.25775E+03 9.15179E-10 2.30830E-09
 -1       948 2.00201E+06 3.83358E+01 3.80635E+03-1.79502E+04 1.16415E-09 1.95715E-09
 -1       949 2.00188E+06-6.68700E+01 4.28872E+03-6.14724E+03-1.67211E-09-2.92368E-09
 -1       950 2.00236E+06 3.08896E+02 7.27012E+03-1.82351E+04 6.79165E-10 3.21728E-09
 -1       951 2.00155E+06-3.33393E+02 1.32478E+04-5.97254E+03-2.54249E-09-2.36287E-09
 -1       952 2.00557E+06 4.21228E+03 2.81623E+04-1.86435E+04-1.32627E-09-3.95630E-10
 -1       953 1.99870E+06-2.89528E+03 5.17105E+04-5.73922E+03-1.03500E-09 8.36735E-11
 -1       954 2.03727E+06 5.22320E+04 1.24107E+05-1.91025E+04-5.55656E-09-4.71118E-10
 -1       955 1.96986E+06-3.12057E+04 2.00544E+05-5.54555E+03-2.72848E-12 2.91038E-10
 -1       956-3.39599E+05-8.07611E+03-1.90613E+04 5.87678E+04-1.33077E-08-9.53150E-10
 -1       957-3.43309E+05-2.49474E+03-9.70934E+03 6.96926E+04-5.50426E-09-6.12999E-10
 -1       958-3.41342E+05-9.98632E+01-4.38077E+03 5.83581E+04 8.90941E-09-3.18641E-09
 -1       959-3.41739E+05 2.00806E+02-2.22811E+03 7.01274E+04-5.60340E-09-4.92491E-10
 -1       960-3.41594E+05 2.80363E+02-1.08525E+03 5.83158E+04-1.80426E-08-3.26418E-09
 -1       961-3.41713E+05 3.64179E+02-5.62938E+02 7.01747E+04-2.97950E-08 1.75896E-09
 -1       962-3.41698E+05 3.20874E+02-3.05227E+02 5.83084E+04-1.19326E-08-2.04045E-09
 -1       963-3.41776E+05 4.04857E+02-2.09410E+02 7.01846E+04-1.38430E-08 3.76076E-09
 -1       964-3.41751E+05 3.49972E+02-2.13984E+02 5.83049E+04-1.62345E-10-2.26601E-09
 -1       965-3.41824E+05 4.28045E+02-3.34885E+02 7.01866E+04 1.82463E-08 9.24047E-10
 -1       966-3.41758E+05 3.67155E+02-6.11106E+02 5.83058E+04-1.01543E-08-2.31512E-09
 -1       967-3.41905E+05 3.73795E+02-1.24524E+03 7.01680E+04-1.80012E-09 9.11768E-10
 -1       968-3.41665E+05 1.85502E+02-2.43835E+03 5.83242E+04 8.75843E-10-2.68710E-09
 -1       969-3.42829E+05-1.10646E+03-5.41400E+03 6.99664E+04-4.98767E-09 6.47105E-10
 -1       970-3.40719E+05-4.25251E+03-1.06243E+04 5.85235E+04-1.10140E-09-3.60887E-09
 -1       971-6.15068E+05 5.54772E+03-3.55564E+04 8.43912E+03-1.54259E-08 9.53150E-10
 -1       972-6.27015E+05-9.14962E+03-2.19982E+04 2.52987E+04-1.47202E-08 1.91449E-09
 -1       973-6.20204E+05 5.41849E+02-9.16986E+03 8.23375E+03-1.40217E-08-2.76941E-10
 -1       974-6.21480E+05-5.81882E+02-4.98521E+03 2.55749E+04 4.23506E-09 1.38789E-09
 -1       975-6.20729E+05 1.11654E+02-2.35180E+03 8.15454E+03 3.90173E-10-9.06539E-10
 -1       976-6.20970E+05 1.40765E+02-1.29090E+03 2.56948E+04-1.50185E-08 1.96565E-09
 -1       977-6.20801E+05 8.01189E+01-7.73022E+02 8.11233E+03 1.30708E-08-1.69098E-09
 -1       978-6.20941E+05 2.03185E+02-7.01565E+02 2.57495E+04 3.51829E-08-4.46050E-10
 -1       979-6.20801E+05 8.68020E+01-9.45981E+02 8.09942E+03 2.02315E-08-2.29954E-09
 -1       980-6.21029E+05 1.27985E+02-1.74386E+03 2.57451E+04 3.06613E-08-3.13349E-10
 -1       981-6.20711E+05 1.45995E+02-3.26398E+03 8.11678E+03-3.56727E-09-5.28189E-10
 -1       982-6.21795E+05-8.66249E+02-6.98719E+03 2.56787E+04-3.84898E-09 3.04181E-09
 -1       983-6.19989E+05 7.68087E+02-1.28629E+04 8.16736E+03 6.09680E-09-1.71985E-09
 -1       984-6.29630E+05-1.28805E+04-3.09031E+04 2.54827E+04-5.62659E-09 8.56744E-10
 -1       985-6.12789E+05 7.82396E+03-4.99295E+04 8.32643E+03 2.36123E-08-8.11269E-10
 -3
 9999
