    1C
    1UUSER                                                              
    1UDATE              11.october.2022                                 
    1UTIME              17:34:08                                        
    1UHOST                                                              
    1UPGM               CalculiX                                        
    1UVERSION           Version 2.20                             
    1UCOMPILETIME       Sun Jul 31 18:08:37 CEST 2022                    
    1UDIR                                                               
    1UDBN                                                               
    1UMAT    1MESH_MATERIAL                                             
    2C                           841                                     1
 -1         1 0.00000E+00 0.00000E+00 0.00000E+00
 -1         2 1.66667E-02 0.00000E+00 0.00000E+00
 -1         3 3.33333E-02 0.00000E+00 0.00000E+00
 -1         4 5.00000E-02 0.00000E+00 0.00000E+00
 -1         5 6.66667E-02 0.00000E+00 0.00000E+00
 -1         8 0.00000E+00 6.25000E-03 0.00000E+00
 -1         9 1.66667E-02 6.25000E-03 0.00000E+00
 -1        10 3.33333E-02 6.25000E-03 0.00000E+00
 -1        11 5.00000E-02 6.25000E-03 0.00000E+00
 -1        12 6.66667E-02 6.25000E-03 0.00000E+00
 -1        15 0.00000E+00 1.25000E-02 0.00000E+00
 -1        16 1.66667E-02 1.25000E-02 0.00000E+00
 -1        17 3.33333E-02 1.25000E-02 0.00000E+00
 -1        18 5.00000E-02 1.25000E-02 0.00000E+00
 -1        19 6.66667E-02 1.25000E-02 0.00000E+00
 -1        20 8.33333E-02 1.25000E-02 0.00000E+00
 -1        21 1.00000E-01 1.25000E-02 0.00000E+00
 -1        22 0.00000E+00 1.87500E-02 0.00000E+00
 -1        23 1.66667E-02 1.87500E-02 0.00000E+00
 -1        24 3.33333E-02 1.87500E-02 0.00000E+00
 -1        25 5.00000E-02 1.87500E-02 0.00000E+00
 -1        26 6.66667E-02 1.87500E-02 0.00000E+00
 -1        27 8.33333E-02 1.87500E-02 0.00000E+00
 -1        28 1.00000E-01 1.87500E-02 0.00000E+00
 -1        29 0.00000E+00 2.50000E-02 0.00000E+00
 -1        30 1.66667E-02 2.50000E-02 0.00000E+00
 -1        31 3.33333E-02 2.50000E-02 0.00000E+00
 -1        32 5.00000E-02 2.50000E-02 0.00000E+00
 -1        33 6.66667E-02 2.50000E-02 0.00000E+00
 -1        34 8.33333E-02 2.50000E-02 0.00000E+00
 -1        35 1.00000E-01 2.50000E-02 0.00000E+00
 -1        36 1.04167E-03 0.00000E+00 0.00000E+00
 -1        37 2.08333E-03 0.00000E+00 0.00000E+00
 -1        38 3.12500E-03 0.00000E+00 0.00000E+00
 -1        39 4.16667E-03 0.00000E+00 0.00000E+00
 -1        40 5.20833E-03 0.00000E+00 0.00000E+00
 -1        41 6.25000E-03 0.00000E+00 0.00000E+00
 -1        42 7.29167E-03 0.00000E+00 0.00000E+00
 -1        43 8.33333E-03 0.00000E+00 0.00000E+00
 -1        44 9.37500E-03 0.00000E+00 0.00000E+00
 -1        45 1.04167E-02 0.00000E+00 0.00000E+00
 -1        46 1.14583E-02 0.00000E+00 0.00000E+00
 -1        47 1.25000E-02 0.00000E+00 0.00000E+00
 -1        48 1.35417E-02 0.00000E+00 0.00000E+00
 -1        49 1.45833E-02 0.00000E+00 0.00000E+00
 -1        50 1.56250E-02 0.00000E+00 0.00000E+00
 -1        51 0.00000E+00 1.04167E-03 0.00000E+00
 -1        52 0.00000E+00 2.08333E-03 0.00000E+00
 -1        53 0.00000E+00 3.12500E-03 0.00000E+00
 -1        54 0.00000E+00 4.16667E-03 0.00000E+00
 -1        55 0.00000E+00 5.20833E-03 0.00000E+00
 -1        56 1.04167E-03 3.90630E-04 0.00000E+00
 -1        57 2.08333E-03 7.81250E-04 0.00000E+00
 -1        58 3.12500E-03 1.17188E-03 0.00000E+00
 -1        59 4.16667E-03 1.56250E-03 0.00000E+00
 -1        60 5.20833E-03 1.95312E-03 0.00000E+00
 -1        61 6.25000E-03 2.34375E-03 0.00000E+00
 -1        62 7.29167E-03 2.73438E-03 0.00000E+00
 -1        63 8.33333E-03 3.12500E-03 0.00000E+00
 -1        64 9.37500E-03 3.51563E-03 0.00000E+00
 -1        65 1.04167E-02 3.90625E-03 0.00000E+00
 -1        66 1.14583E-02 4.29688E-03 0.00000E+00
 -1        67 1.25000E-02 4.68750E-03 0.00000E+00
 -1        68 1.35417E-02 5.07813E-03 0.00000E+00
 -1        69 1.45833E-02 5.46875E-03 0.00000E+00
 -1        70 1.56250E-02 5.85938E-03 0.00000E+00
 -1        71 1.77083E-02 0.00000E+00 0.00000E+00
 -1        72 1.87500E-02 0.00000E+00 0.00000E+00
 -1        73 1.97917E-02 0.00000E+00 0.00000E+00
 -1        74 2.08333E-02 0.00000E+00 0.00000E+00
 -1        75 2.18750E-02 0.00000E+00 0.00000E+00
 -1        76 2.29167E-02 0.00000E+00 0.00000E+00
 -1        77 2.39583E-02 0.00000E+00 0.00000E+00
 -1        78 2.50000E-02 0.00000E+00 0.00000E+00
 -1        79 2.60417E-02 0.00000E+00 0.00000E+00
 -1        80 2.70833E-02 0.00000E+00 0.00000E+00
 -1        81 2.81250E-02 0.00000E+00 0.00000E+00
 -1        82 2.91667E-02 0.00000E+00 0.00000E+00
 -1        83 3.02083E-02 0.00000E+00 0.00000E+00
 -1        84 3.12500E-02 0.00000E+00 0.00000E+00
 -1        85 3.22917E-02 0.00000E+00 0.00000E+00
 -1        86 1.66667E-02 1.04167E-03 0.00000E+00
 -1        87 1.66667E-02 2.08333E-03 0.00000E+00
 -1        88 1.66667E-02 3.12500E-03 0.00000E+00
 -1        89 1.66667E-02 4.16667E-03 0.00000E+00
 -1        90 1.66667E-02 5.20833E-03 0.00000E+00
 -1        91 1.77083E-02 3.90630E-04 0.00000E+00
 -1        92 1.87500E-02 7.81250E-04 0.00000E+00
 -1        93 1.97917E-02 1.17188E-03 0.00000E+00
 -1        94 2.08333E-02 1.56250E-03 0.00000E+00
 -1        95 2.18750E-02 1.95312E-03 0.00000E+00
 -1        96 2.29167E-02 2.34375E-03 0.00000E+00
 -1        97 2.39583E-02 2.73438E-03 0.00000E+00
 -1        98 2.50000E-02 3.12500E-03 0.00000E+00
 -1        99 2.60417E-02 3.51563E-03 0.00000E+00
 -1       100 2.70833E-02 3.90625E-03 0.00000E+00
 -1       101 2.81250E-02 4.29688E-03 0.00000E+00
 -1       102 2.91667E-02 4.68750E-03 0.00000E+00
 -1       103 3.02083E-02 5.07813E-03 0.00000E+00
 -1       104 3.12500E-02 5.46875E-03 0.00000E+00
 -1       105 3.22917E-02 5.85938E-03 0.00000E+00
 -1       106 3.43750E-02 0.00000E+00 0.00000E+00
 -1       107 3.54167E-02 0.00000E+00 0.00000E+00
 -1       108 3.64583E-02 0.00000E+00 0.00000E+00
 -1       109 3.75000E-02 0.00000E+00 0.00000E+00
 -1       110 3.85417E-02 0.00000E+00 0.00000E+00
 -1       111 3.95833E-02 0.00000E+00 0.00000E+00
 -1       112 4.06250E-02 0.00000E+00 0.00000E+00
 -1       113 4.16667E-02 0.00000E+00 0.00000E+00
 -1       114 4.27083E-02 0.00000E+00 0.00000E+00
 -1       115 4.37500E-02 0.00000E+00 0.00000E+00
 -1       116 4.47917E-02 0.00000E+00 0.00000E+00
 -1       117 4.58333E-02 0.00000E+00 0.00000E+00
 -1       118 4.68750E-02 0.00000E+00 0.00000E+00
 -1       119 4.79167E-02 0.00000E+00 0.00000E+00
 -1       120 4.89583E-02 0.00000E+00 0.00000E+00
 -1       121 3.33333E-02 1.04167E-03 0.00000E+00
 -1       122 3.33333E-02 2.08333E-03 0.00000E+00
 -1       123 3.33333E-02 3.12500E-03 0.00000E+00
 -1       124 3.33333E-02 4.16667E-03 0.00000E+00
 -1       125 3.33333E-02 5.20833E-03 0.00000E+00
 -1       126 3.43750E-02 3.90630E-04 0.00000E+00
 -1       127 3.54167E-02 7.81250E-04 0.00000E+00
 -1       128 3.64583E-02 1.17188E-03 0.00000E+00
 -1       129 3.75000E-02 1.56250E-03 0.00000E+00
 -1       130 3.85417E-02 1.95312E-03 0.00000E+00
 -1       131 3.95833E-02 2.34375E-03 0.00000E+00
 -1       132 4.06250E-02 2.73438E-03 0.00000E+00
 -1       133 4.16667E-02 3.12500E-03 0.00000E+00
 -1       134 4.27083E-02 3.51563E-03 0.00000E+00
 -1       135 4.37500E-02 3.90625E-03 0.00000E+00
 -1       136 4.47917E-02 4.29688E-03 0.00000E+00
 -1       137 4.58333E-02 4.68750E-03 0.00000E+00
 -1       138 4.68750E-02 5.07813E-03 0.00000E+00
 -1       139 4.79167E-02 5.46875E-03 0.00000E+00
 -1       140 4.89583E-02 5.85938E-03 0.00000E+00
 -1       141 5.10417E-02 0.00000E+00 0.00000E+00
 -1       142 5.20833E-02 0.00000E+00 0.00000E+00
 -1       143 5.31250E-02 0.00000E+00 0.00000E+00
 -1       144 5.41667E-02 0.00000E+00 0.00000E+00
 -1       145 5.52083E-02 0.00000E+00 0.00000E+00
 -1       146 5.62500E-02 0.00000E+00 0.00000E+00
 -1       147 5.72917E-02 0.00000E+00 0.00000E+00
 -1       148 5.83333E-02 0.00000E+00 0.00000E+00
 -1       149 5.93750E-02 0.00000E+00 0.00000E+00
 -1       150 6.04167E-02 0.00000E+00 0.00000E+00
 -1       151 6.14583E-02 0.00000E+00 0.00000E+00
 -1       152 6.25000E-02 0.00000E+00 0.00000E+00
 -1       153 6.35417E-02 0.00000E+00 0.00000E+00
 -1       154 6.45833E-02 0.00000E+00 0.00000E+00
 -1       155 6.56250E-02 0.00000E+00 0.00000E+00
 -1       156 5.00000E-02 1.04167E-03 0.00000E+00
 -1       157 5.00000E-02 2.08333E-03 0.00000E+00
 -1       158 5.00000E-02 3.12500E-03 0.00000E+00
 -1       159 5.00000E-02 4.16667E-03 0.00000E+00
 -1       160 5.00000E-02 5.20833E-03 0.00000E+00
 -1       161 5.10417E-02 3.90630E-04 0.00000E+00
 -1       162 5.20833E-02 7.81250E-04 0.00000E+00
 -1       163 5.31250E-02 1.17188E-03 0.00000E+00
 -1       164 5.41667E-02 1.56250E-03 0.00000E+00
 -1       165 5.52083E-02 1.95312E-03 0.00000E+00
 -1       166 5.62500E-02 2.34375E-03 0.00000E+00
 -1       167 5.72917E-02 2.73438E-03 0.00000E+00
 -1       168 5.83333E-02 3.12500E-03 0.00000E+00
 -1       169 5.93750E-02 3.51563E-03 0.00000E+00
 -1       170 6.04167E-02 3.90625E-03 0.00000E+00
 -1       171 6.14583E-02 4.29688E-03 0.00000E+00
 -1       172 6.25000E-02 4.68750E-03 0.00000E+00
 -1       173 6.35417E-02 5.07813E-03 0.00000E+00
 -1       174 6.45833E-02 5.46875E-03 0.00000E+00
 -1       175 6.56250E-02 5.85938E-03 0.00000E+00
 -1       191 6.66667E-02 1.04167E-03 0.00000E+00
 -1       192 6.66667E-02 2.08333E-03 0.00000E+00
 -1       193 6.66667E-02 3.12500E-03 0.00000E+00
 -1       194 6.66667E-02 4.16667E-03 0.00000E+00
 -1       195 6.66667E-02 5.20833E-03 0.00000E+00
 -1       251 1.04167E-03 6.25000E-03 0.00000E+00
 -1       252 2.08333E-03 6.25000E-03 0.00000E+00
 -1       253 3.12500E-03 6.25000E-03 0.00000E+00
 -1       254 4.16667E-03 6.25000E-03 0.00000E+00
 -1       255 5.20833E-03 6.25000E-03 0.00000E+00
 -1       256 6.25000E-03 6.25000E-03 0.00000E+00
 -1       257 7.29167E-03 6.25000E-03 0.00000E+00
 -1       258 8.33333E-03 6.25000E-03 0.00000E+00
 -1       259 9.37500E-03 6.25000E-03 0.00000E+00
 -1       260 1.04167E-02 6.25000E-03 0.00000E+00
 -1       261 1.14583E-02 6.25000E-03 0.00000E+00
 -1       262 1.25000E-02 6.25000E-03 0.00000E+00
 -1       263 1.35417E-02 6.25000E-03 0.00000E+00
 -1       264 1.45833E-02 6.25000E-03 0.00000E+00
 -1       265 1.56250E-02 6.25000E-03 0.00000E+00
 -1       266 0.00000E+00 7.29167E-03 0.00000E+00
 -1       267 0.00000E+00 8.33333E-03 0.00000E+00
 -1       268 0.00000E+00 9.37500E-03 0.00000E+00
 -1       269 0.00000E+00 1.04167E-02 0.00000E+00
 -1       270 0.00000E+00 1.14583E-02 0.00000E+00
 -1       271 1.04167E-03 6.64063E-03 0.00000E+00
 -1       272 2.08333E-03 7.03125E-03 0.00000E+00
 -1       273 3.12500E-03 7.42188E-03 0.00000E+00
 -1       274 4.16667E-03 7.81250E-03 0.00000E+00
 -1       275 5.20833E-03 8.20313E-03 0.00000E+00
 -1       276 6.25000E-03 8.59375E-03 0.00000E+00
 -1       277 7.29167E-03 8.98438E-03 0.00000E+00
 -1       278 8.33333E-03 9.37500E-03 0.00000E+00
 -1       279 9.37500E-03 9.76562E-03 0.00000E+00
 -1       280 1.04167E-02 1.01562E-02 0.00000E+00
 -1       281 1.14583E-02 1.05469E-02 0.00000E+00
 -1       282 1.25000E-02 1.09375E-02 0.00000E+00
 -1       283 1.35417E-02 1.13281E-02 0.00000E+00
 -1       284 1.45833E-02 1.17188E-02 0.00000E+00
 -1       285 1.56250E-02 1.21094E-02 0.00000E+00
 -1       286 1.77083E-02 6.25000E-03 0.00000E+00
 -1       287 1.87500E-02 6.25000E-03 0.00000E+00
 -1       288 1.97917E-02 6.25000E-03 0.00000E+00
 -1       289 2.08333E-02 6.25000E-03 0.00000E+00
 -1       290 2.18750E-02 6.25000E-03 0.00000E+00
 -1       291 2.29167E-02 6.25000E-03 0.00000E+00
 -1       292 2.39583E-02 6.25000E-03 0.00000E+00
 -1       293 2.50000E-02 6.25000E-03 0.00000E+00
 -1       294 2.60417E-02 6.25000E-03 0.00000E+00
 -1       295 2.70833E-02 6.25000E-03 0.00000E+00
 -1       296 2.81250E-02 6.25000E-03 0.00000E+00
 -1       297 2.91667E-02 6.25000E-03 0.00000E+00
 -1       298 3.02083E-02 6.25000E-03 0.00000E+00
 -1       299 3.12500E-02 6.25000E-03 0.00000E+00
 -1       300 3.22917E-02 6.25000E-03 0.00000E+00
 -1       301 1.66667E-02 7.29167E-03 0.00000E+00
 -1       302 1.66667E-02 8.33333E-03 0.00000E+00
 -1       303 1.66667E-02 9.37500E-03 0.00000E+00
 -1       304 1.66667E-02 1.04167E-02 0.00000E+00
 -1       305 1.66667E-02 1.14583E-02 0.00000E+00
 -1       306 1.77083E-02 6.64063E-03 0.00000E+00
 -1       307 1.87500E-02 7.03125E-03 0.00000E+00
 -1       308 1.97917E-02 7.42188E-03 0.00000E+00
 -1       309 2.08333E-02 7.81250E-03 0.00000E+00
 -1       310 2.18750E-02 8.20313E-03 0.00000E+00
 -1       311 2.29167E-02 8.59375E-03 0.00000E+00
 -1       312 2.39583E-02 8.98438E-03 0.00000E+00
 -1       313 2.50000E-02 9.37500E-03 0.00000E+00
 -1       314 2.60417E-02 9.76562E-03 0.00000E+00
 -1       315 2.70833E-02 1.01562E-02 0.00000E+00
 -1       316 2.81250E-02 1.05469E-02 0.00000E+00
 -1       317 2.91667E-02 1.09375E-02 0.00000E+00
 -1       318 3.02083E-02 1.13281E-02 0.00000E+00
 -1       319 3.12500E-02 1.17188E-02 0.00000E+00
 -1       320 3.22917E-02 1.21094E-02 0.00000E+00
 -1       321 3.43750E-02 6.25000E-03 0.00000E+00
 -1       322 3.54167E-02 6.25000E-03 0.00000E+00
 -1       323 3.64583E-02 6.25000E-03 0.00000E+00
 -1       324 3.75000E-02 6.25000E-03 0.00000E+00
 -1       325 3.85417E-02 6.25000E-03 0.00000E+00
 -1       326 3.95833E-02 6.25000E-03 0.00000E+00
 -1       327 4.06250E-02 6.25000E-03 0.00000E+00
 -1       328 4.16667E-02 6.25000E-03 0.00000E+00
 -1       329 4.27083E-02 6.25000E-03 0.00000E+00
 -1       330 4.37500E-02 6.25000E-03 0.00000E+00
 -1       331 4.47917E-02 6.25000E-03 0.00000E+00
 -1       332 4.58333E-02 6.25000E-03 0.00000E+00
 -1       333 4.68750E-02 6.25000E-03 0.00000E+00
 -1       334 4.79167E-02 6.25000E-03 0.00000E+00
 -1       335 4.89583E-02 6.25000E-03 0.00000E+00
 -1       336 3.33333E-02 7.29167E-03 0.00000E+00
 -1       337 3.33333E-02 8.33333E-03 0.00000E+00
 -1       338 3.33333E-02 9.37500E-03 0.00000E+00
 -1       339 3.33333E-02 1.04167E-02 0.00000E+00
 -1       340 3.33333E-02 1.14583E-02 0.00000E+00
 -1       341 3.43750E-02 6.64063E-03 0.00000E+00
 -1       342 3.54167E-02 7.03125E-03 0.00000E+00
 -1       343 3.64583E-02 7.42188E-03 0.00000E+00
 -1       344 3.75000E-02 7.81250E-03 0.00000E+00
 -1       345 3.85417E-02 8.20313E-03 0.00000E+00
 -1       346 3.95833E-02 8.59375E-03 0.00000E+00
 -1       347 4.06250E-02 8.98438E-03 0.00000E+00
 -1       348 4.16667E-02 9.37500E-03 0.00000E+00
 -1       349 4.27083E-02 9.76562E-03 0.00000E+00
 -1       350 4.37500E-02 1.01562E-02 0.00000E+00
 -1       351 4.47917E-02 1.05469E-02 0.00000E+00
 -1       352 4.58333E-02 1.09375E-02 0.00000E+00
 -1       353 4.68750E-02 1.13281E-02 0.00000E+00
 -1       354 4.79167E-02 1.17188E-02 0.00000E+00
 -1       355 4.89583E-02 1.21094E-02 0.00000E+00
 -1       356 5.10417E-02 6.25000E-03 0.00000E+00
 -1       357 5.20833E-02 6.25000E-03 0.00000E+00
 -1       358 5.31250E-02 6.25000E-03 0.00000E+00
 -1       359 5.41667E-02 6.25000E-03 0.00000E+00
 -1       360 5.52083E-02 6.25000E-03 0.00000E+00
 -1       361 5.62500E-02 6.25000E-03 0.00000E+00
 -1       362 5.72917E-02 6.25000E-03 0.00000E+00
 -1       363 5.83333E-02 6.25000E-03 0.00000E+00
 -1       364 5.93750E-02 6.25000E-03 0.00000E+00
 -1       365 6.04167E-02 6.25000E-03 0.00000E+00
 -1       366 6.14583E-02 6.25000E-03 0.00000E+00
 -1       367 6.25000E-02 6.25000E-03 0.00000E+00
 -1       368 6.35417E-02 6.25000E-03 0.00000E+00
 -1       369 6.45833E-02 6.25000E-03 0.00000E+00
 -1       370 6.56250E-02 6.25000E-03 0.00000E+00
 -1       371 5.00000E-02 7.29167E-03 0.00000E+00
 -1       372 5.00000E-02 8.33333E-03 0.00000E+00
 -1       373 5.00000E-02 9.37500E-03 0.00000E+00
 -1       374 5.00000E-02 1.04167E-02 0.00000E+00
 -1       375 5.00000E-02 1.14583E-02 0.00000E+00
 -1       376 5.10417E-02 6.64063E-03 0.00000E+00
 -1       377 5.20833E-02 7.03125E-03 0.00000E+00
 -1       378 5.31250E-02 7.42188E-03 0.00000E+00
 -1       379 5.41667E-02 7.81250E-03 0.00000E+00
 -1       380 5.52083E-02 8.20313E-03 0.00000E+00
 -1       381 5.62500E-02 8.59375E-03 0.00000E+00
 -1       382 5.72917E-02 8.98438E-03 0.00000E+00
 -1       383 5.83333E-02 9.37500E-03 0.00000E+00
 -1       384 5.93750E-02 9.76562E-03 0.00000E+00
 -1       385 6.04167E-02 1.01562E-02 0.00000E+00
 -1       386 6.14583E-02 1.05469E-02 0.00000E+00
 -1       387 6.25000E-02 1.09375E-02 0.00000E+00
 -1       388 6.35417E-02 1.13281E-02 0.00000E+00
 -1       389 6.45833E-02 1.17188E-02 0.00000E+00
 -1       390 6.56250E-02 1.21094E-02 0.00000E+00
 -1       406 6.66667E-02 7.29167E-03 0.00000E+00
 -1       407 6.66667E-02 8.33333E-03 0.00000E+00
 -1       408 6.66667E-02 9.37500E-03 0.00000E+00
 -1       409 6.66667E-02 1.04167E-02 0.00000E+00
 -1       410 6.66667E-02 1.14583E-02 0.00000E+00
 -1       466 1.04167E-03 1.25000E-02 0.00000E+00
 -1       467 2.08333E-03 1.25000E-02 0.00000E+00
 -1       468 3.12500E-03 1.25000E-02 0.00000E+00
 -1       469 4.16667E-03 1.25000E-02 0.00000E+00
 -1       470 5.20833E-03 1.25000E-02 0.00000E+00
 -1       471 6.25000E-03 1.25000E-02 0.00000E+00
 -1       472 7.29167E-03 1.25000E-02 0.00000E+00
 -1       473 8.33333E-03 1.25000E-02 0.00000E+00
 -1       474 9.37500E-03 1.25000E-02 0.00000E+00
 -1       475 1.04167E-02 1.25000E-02 0.00000E+00
 -1       476 1.14583E-02 1.25000E-02 0.00000E+00
 -1       477 1.25000E-02 1.25000E-02 0.00000E+00
 -1       478 1.35417E-02 1.25000E-02 0.00000E+00
 -1       479 1.45833E-02 1.25000E-02 0.00000E+00
 -1       480 1.56250E-02 1.25000E-02 0.00000E+00
 -1       481 0.00000E+00 1.35417E-02 0.00000E+00
 -1       482 0.00000E+00 1.45833E-02 0.00000E+00
 -1       483 0.00000E+00 1.56250E-02 0.00000E+00
 -1       484 0.00000E+00 1.66667E-02 0.00000E+00
 -1       485 0.00000E+00 1.77083E-02 0.00000E+00
 -1       486 1.04167E-03 1.28906E-02 0.00000E+00
 -1       487 2.08333E-03 1.32813E-02 0.00000E+00
 -1       488 3.12500E-03 1.36719E-02 0.00000E+00
 -1       489 4.16667E-03 1.40625E-02 0.00000E+00
 -1       490 5.20833E-03 1.44531E-02 0.00000E+00
 -1       491 6.25000E-03 1.48437E-02 0.00000E+00
 -1       492 7.29167E-03 1.52344E-02 0.00000E+00
 -1       493 8.33333E-03 1.56250E-02 0.00000E+00
 -1       494 9.37500E-03 1.60156E-02 0.00000E+00
 -1       495 1.04167E-02 1.64062E-02 0.00000E+00
 -1       496 1.14583E-02 1.67969E-02 0.00000E+00
 -1       497 1.25000E-02 1.71875E-02 0.00000E+00
 -1       498 1.35417E-02 1.75781E-02 0.00000E+00
 -1       499 1.45833E-02 1.79687E-02 0.00000E+00
 -1       500 1.56250E-02 1.83594E-02 0.00000E+00
 -1       501 1.77083E-02 1.25000E-02 0.00000E+00
 -1       502 1.87500E-02 1.25000E-02 0.00000E+00
 -1       503 1.97917E-02 1.25000E-02 0.00000E+00
 -1       504 2.08333E-02 1.25000E-02 0.00000E+00
 -1       505 2.18750E-02 1.25000E-02 0.00000E+00
 -1       506 2.29167E-02 1.25000E-02 0.00000E+00
 -1       507 2.39583E-02 1.25000E-02 0.00000E+00
 -1       508 2.50000E-02 1.25000E-02 0.00000E+00
 -1       509 2.60417E-02 1.25000E-02 0.00000E+00
 -1       510 2.70833E-02 1.25000E-02 0.00000E+00
 -1       511 2.81250E-02 1.25000E-02 0.00000E+00
 -1       512 2.91667E-02 1.25000E-02 0.00000E+00
 -1       513 3.02083E-02 1.25000E-02 0.00000E+00
 -1       514 3.12500E-02 1.25000E-02 0.00000E+00
 -1       515 3.22917E-02 1.25000E-02 0.00000E+00
 -1       516 1.66667E-02 1.35417E-02 0.00000E+00
 -1       517 1.66667E-02 1.45833E-02 0.00000E+00
 -1       518 1.66667E-02 1.56250E-02 0.00000E+00
 -1       519 1.66667E-02 1.66667E-02 0.00000E+00
 -1       520 1.66667E-02 1.77083E-02 0.00000E+00
 -1       521 1.77083E-02 1.28906E-02 0.00000E+00
 -1       522 1.87500E-02 1.32813E-02 0.00000E+00
 -1       523 1.97917E-02 1.36719E-02 0.00000E+00
 -1       524 2.08333E-02 1.40625E-02 0.00000E+00
 -1       525 2.18750E-02 1.44531E-02 0.00000E+00
 -1       526 2.29167E-02 1.48437E-02 0.00000E+00
 -1       527 2.39583E-02 1.52344E-02 0.00000E+00
 -1       528 2.50000E-02 1.56250E-02 0.00000E+00
 -1       529 2.60417E-02 1.60156E-02 0.00000E+00
 -1       530 2.70833E-02 1.64062E-02 0.00000E+00
 -1       531 2.81250E-02 1.67969E-02 0.00000E+00
 -1       532 2.91667E-02 1.71875E-02 0.00000E+00
 -1       533 3.02083E-02 1.75781E-02 0.00000E+00
 -1       534 3.12500E-02 1.79687E-02 0.00000E+00
 -1       535 3.22917E-02 1.83594E-02 0.00000E+00
 -1       536 3.43750E-02 1.25000E-02 0.00000E+00
 -1       537 3.54167E-02 1.25000E-02 0.00000E+00
 -1       538 3.64583E-02 1.25000E-02 0.00000E+00
 -1       539 3.75000E-02 1.25000E-02 0.00000E+00
 -1       540 3.85417E-02 1.25000E-02 0.00000E+00
 -1       541 3.95833E-02 1.25000E-02 0.00000E+00
 -1       542 4.06250E-02 1.25000E-02 0.00000E+00
 -1       543 4.16667E-02 1.25000E-02 0.00000E+00
 -1       544 4.27083E-02 1.25000E-02 0.00000E+00
 -1       545 4.37500E-02 1.25000E-02 0.00000E+00
 -1       546 4.47917E-02 1.25000E-02 0.00000E+00
 -1       547 4.58333E-02 1.25000E-02 0.00000E+00
 -1       548 4.68750E-02 1.25000E-02 0.00000E+00
 -1       549 4.79167E-02 1.25000E-02 0.00000E+00
 -1       550 4.89583E-02 1.25000E-02 0.00000E+00
 -1       551 3.33333E-02 1.35417E-02 0.00000E+00
 -1       552 3.33333E-02 1.45833E-02 0.00000E+00
 -1       553 3.33333E-02 1.56250E-02 0.00000E+00
 -1       554 3.33333E-02 1.66667E-02 0.00000E+00
 -1       555 3.33333E-02 1.77083E-02 0.00000E+00
 -1       556 3.43750E-02 1.28906E-02 0.00000E+00
 -1       557 3.54167E-02 1.32813E-02 0.00000E+00
 -1       558 3.64583E-02 1.36719E-02 0.00000E+00
 -1       559 3.75000E-02 1.40625E-02 0.00000E+00
 -1       560 3.85417E-02 1.44531E-02 0.00000E+00
 -1       561 3.95833E-02 1.48437E-02 0.00000E+00
 -1       562 4.06250E-02 1.52344E-02 0.00000E+00
 -1       563 4.16667E-02 1.56250E-02 0.00000E+00
 -1       564 4.27083E-02 1.60156E-02 0.00000E+00
 -1       565 4.37500E-02 1.64062E-02 0.00000E+00
 -1       566 4.47917E-02 1.67969E-02 0.00000E+00
 -1       567 4.58333E-02 1.71875E-02 0.00000E+00
 -1       568 4.68750E-02 1.75781E-02 0.00000E+00
 -1       569 4.79167E-02 1.79687E-02 0.00000E+00
 -1       570 4.89583E-02 1.83594E-02 0.00000E+00
 -1       571 5.10417E-02 1.25000E-02 0.00000E+00
 -1       572 5.20833E-02 1.25000E-02 0.00000E+00
 -1       573 5.31250E-02 1.25000E-02 0.00000E+00
 -1       574 5.41667E-02 1.25000E-02 0.00000E+00
 -1       575 5.52083E-02 1.25000E-02 0.00000E+00
 -1       576 5.62500E-02 1.25000E-02 0.00000E+00
 -1       577 5.72917E-02 1.25000E-02 0.00000E+00
 -1       578 5.83333E-02 1.25000E-02 0.00000E+00
 -1       579 5.93750E-02 1.25000E-02 0.00000E+00
 -1       580 6.04167E-02 1.25000E-02 0.00000E+00
 -1       581 6.14583E-02 1.25000E-02 0.00000E+00
 -1       582 6.25000E-02 1.25000E-02 0.00000E+00
 -1       583 6.35417E-02 1.25000E-02 0.00000E+00
 -1       584 6.45833E-02 1.25000E-02 0.00000E+00
 -1       585 6.56250E-02 1.25000E-02 0.00000E+00
 -1       586 5.00000E-02 1.35417E-02 0.00000E+00
 -1       587 5.00000E-02 1.45833E-02 0.00000E+00
 -1       588 5.00000E-02 1.56250E-02 0.00000E+00
 -1       589 5.00000E-02 1.66667E-02 0.00000E+00
 -1       590 5.00000E-02 1.77083E-02 0.00000E+00
 -1       591 5.10417E-02 1.28906E-02 0.00000E+00
 -1       592 5.20833E-02 1.32813E-02 0.00000E+00
 -1       593 5.31250E-02 1.36719E-02 0.00000E+00
 -1       594 5.41667E-02 1.40625E-02 0.00000E+00
 -1       595 5.52083E-02 1.44531E-02 0.00000E+00
 -1       596 5.62500E-02 1.48437E-02 0.00000E+00
 -1       597 5.72917E-02 1.52344E-02 0.00000E+00
 -1       598 5.83333E-02 1.56250E-02 0.00000E+00
 -1       599 5.93750E-02 1.60156E-02 0.00000E+00
 -1       600 6.04167E-02 1.64062E-02 0.00000E+00
 -1       601 6.14583E-02 1.67969E-02 0.00000E+00
 -1       602 6.25000E-02 1.71875E-02 0.00000E+00
 -1       603 6.35417E-02 1.75781E-02 0.00000E+00
 -1       604 6.45833E-02 1.79687E-02 0.00000E+00
 -1       605 6.56250E-02 1.83594E-02 0.00000E+00
 -1       606 6.77083E-02 1.25000E-02 0.00000E+00
 -1       607 6.87500E-02 1.25000E-02 0.00000E+00
 -1       608 6.97917E-02 1.25000E-02 0.00000E+00
 -1       609 7.08333E-02 1.25000E-02 0.00000E+00
 -1       610 7.18750E-02 1.25000E-02 0.00000E+00
 -1       611 7.29167E-02 1.25000E-02 0.00000E+00
 -1       612 7.39583E-02 1.25000E-02 0.00000E+00
 -1       613 7.50000E-02 1.25000E-02 0.00000E+00
 -1       614 7.60417E-02 1.25000E-02 0.00000E+00
 -1       615 7.70833E-02 1.25000E-02 0.00000E+00
 -1       616 7.81250E-02 1.25000E-02 0.00000E+00
 -1       617 7.91667E-02 1.25000E-02 0.00000E+00
 -1       618 8.02083E-02 1.25000E-02 0.00000E+00
 -1       619 8.12500E-02 1.25000E-02 0.00000E+00
 -1       620 8.22917E-02 1.25000E-02 0.00000E+00
 -1       621 6.66667E-02 1.35417E-02 0.00000E+00
 -1       622 6.66667E-02 1.45833E-02 0.00000E+00
 -1       623 6.66667E-02 1.56250E-02 0.00000E+00
 -1       624 6.66667E-02 1.66667E-02 0.00000E+00
 -1       625 6.66667E-02 1.77083E-02 0.00000E+00
 -1       626 6.77083E-02 1.28906E-02 0.00000E+00
 -1       627 6.87500E-02 1.32813E-02 0.00000E+00
 -1       628 6.97917E-02 1.36719E-02 0.00000E+00
 -1       629 7.08333E-02 1.40625E-02 0.00000E+00
 -1       630 7.18750E-02 1.44531E-02 0.00000E+00
 -1       631 7.29167E-02 1.48437E-02 0.00000E+00
 -1       632 7.39583E-02 1.52344E-02 0.00000E+00
 -1       633 7.50000E-02 1.56250E-02 0.00000E+00
 -1       634 7.60417E-02 1.60156E-02 0.00000E+00
 -1       635 7.70833E-02 1.64062E-02 0.00000E+00
 -1       636 7.81250E-02 1.67969E-02 0.00000E+00
 -1       637 7.91667E-02 1.71875E-02 0.00000E+00
 -1       638 8.02083E-02 1.75781E-02 0.00000E+00
 -1       639 8.12500E-02 1.79687E-02 0.00000E+00
 -1       640 8.22917E-02 1.83594E-02 0.00000E+00
 -1       641 8.43750E-02 1.25000E-02 0.00000E+00
 -1       642 8.54167E-02 1.25000E-02 0.00000E+00
 -1       643 8.64583E-02 1.25000E-02 0.00000E+00
 -1       644 8.75000E-02 1.25000E-02 0.00000E+00
 -1       645 8.85417E-02 1.25000E-02 0.00000E+00
 -1       646 8.95833E-02 1.25000E-02 0.00000E+00
 -1       647 9.06250E-02 1.25000E-02 0.00000E+00
 -1       648 9.16667E-02 1.25000E-02 0.00000E+00
 -1       649 9.27083E-02 1.25000E-02 0.00000E+00
 -1       650 9.37500E-02 1.25000E-02 0.00000E+00
 -1       651 9.47917E-02 1.25000E-02 0.00000E+00
 -1       652 9.58333E-02 1.25000E-02 0.00000E+00
 -1       653 9.68750E-02 1.25000E-02 0.00000E+00
 -1       654 9.79167E-02 1.25000E-02 0.00000E+00
 -1       655 9.89583E-02 1.25000E-02 0.00000E+00
 -1       656 8.33333E-02 1.35417E-02 0.00000E+00
 -1       657 8.33333E-02 1.45833E-02 0.00000E+00
 -1       658 8.33333E-02 1.56250E-02 0.00000E+00
 -1       659 8.33333E-02 1.66667E-02 0.00000E+00
 -1       660 8.33333E-02 1.77083E-02 0.00000E+00
 -1       661 8.43750E-02 1.28906E-02 0.00000E+00
 -1       662 8.54167E-02 1.32813E-02 0.00000E+00
 -1       663 8.64583E-02 1.36719E-02 0.00000E+00
 -1       664 8.75000E-02 1.40625E-02 0.00000E+00
 -1       665 8.85417E-02 1.44531E-02 0.00000E+00
 -1       666 8.95833E-02 1.48437E-02 0.00000E+00
 -1       667 9.06250E-02 1.52344E-02 0.00000E+00
 -1       668 9.16667E-02 1.56250E-02 0.00000E+00
 -1       669 9.27083E-02 1.60156E-02 0.00000E+00
 -1       670 9.37500E-02 1.64062E-02 0.00000E+00
 -1       671 9.47917E-02 1.67969E-02 0.00000E+00
 -1       672 9.58333E-02 1.71875E-02 0.00000E+00
 -1       673 9.68750E-02 1.75781E-02 0.00000E+00
 -1       674 9.79167E-02 1.79687E-02 0.00000E+00
 -1       675 9.89583E-02 1.83594E-02 0.00000E+00
 -1       676 1.00000E-01 1.35417E-02 0.00000E+00
 -1       677 1.00000E-01 1.45833E-02 0.00000E+00
 -1       678 1.00000E-01 1.56250E-02 0.00000E+00
 -1       679 1.00000E-01 1.66667E-02 0.00000E+00
 -1       680 1.00000E-01 1.77083E-02 0.00000E+00
 -1       681 1.04167E-03 1.87500E-02 0.00000E+00
 -1       682 2.08333E-03 1.87500E-02 0.00000E+00
 -1       683 3.12500E-03 1.87500E-02 0.00000E+00
 -1       684 4.16667E-03 1.87500E-02 0.00000E+00
 -1       685 5.20833E-03 1.87500E-02 0.00000E+00
 -1       686 6.25000E-03 1.87500E-02 0.00000E+00
 -1       687 7.29167E-03 1.87500E-02 0.00000E+00
 -1       688 8.33333E-03 1.87500E-02 0.00000E+00
 -1       689 9.37500E-03 1.87500E-02 0.00000E+00
 -1       690 1.04167E-02 1.87500E-02 0.00000E+00
 -1       691 1.14583E-02 1.87500E-02 0.00000E+00
 -1       692 1.25000E-02 1.87500E-02 0.00000E+00
 -1       693 1.35417E-02 1.87500E-02 0.00000E+00
 -1       694 1.45833E-02 1.87500E-02 0.00000E+00
 -1       695 1.56250E-02 1.87500E-02 0.00000E+00
 -1       696 0.00000E+00 1.97917E-02 0.00000E+00
 -1       697 0.00000E+00 2.08333E-02 0.00000E+00
 -1       698 0.00000E+00 2.18750E-02 0.00000E+00
 -1       699 0.00000E+00 2.29167E-02 0.00000E+00
 -1       700 0.00000E+00 2.39583E-02 0.00000E+00
 -1       701 1.04167E-03 1.91406E-02 0.00000E+00
 -1       702 2.08333E-03 1.95312E-02 0.00000E+00
 -1       703 3.12500E-03 1.99219E-02 0.00000E+00
 -1       704 4.16667E-03 2.03125E-02 0.00000E+00
 -1       705 5.20833E-03 2.07031E-02 0.00000E+00
 -1       706 6.25000E-03 2.10938E-02 0.00000E+00
 -1       707 7.29167E-03 2.14844E-02 0.00000E+00
 -1       708 8.33333E-03 2.18750E-02 0.00000E+00
 -1       709 9.37500E-03 2.22656E-02 0.00000E+00
 -1       710 1.04167E-02 2.26563E-02 0.00000E+00
 -1       711 1.14583E-02 2.30469E-02 0.00000E+00
 -1       712 1.25000E-02 2.34375E-02 0.00000E+00
 -1       713 1.35417E-02 2.38281E-02 0.00000E+00
 -1       714 1.45833E-02 2.42187E-02 0.00000E+00
 -1       715 1.56250E-02 2.46094E-02 0.00000E+00
 -1       716 1.77083E-02 1.87500E-02 0.00000E+00
 -1       717 1.87500E-02 1.87500E-02 0.00000E+00
 -1       718 1.97917E-02 1.87500E-02 0.00000E+00
 -1       719 2.08333E-02 1.87500E-02 0.00000E+00
 -1       720 2.18750E-02 1.87500E-02 0.00000E+00
 -1       721 2.29167E-02 1.87500E-02 0.00000E+00
 -1       722 2.39583E-02 1.87500E-02 0.00000E+00
 -1       723 2.50000E-02 1.87500E-02 0.00000E+00
 -1       724 2.60417E-02 1.87500E-02 0.00000E+00
 -1       725 2.70833E-02 1.87500E-02 0.00000E+00
 -1       726 2.81250E-02 1.87500E-02 0.00000E+00
 -1       727 2.91667E-02 1.87500E-02 0.00000E+00
 -1       728 3.02083E-02 1.87500E-02 0.00000E+00
 -1       729 3.12500E-02 1.87500E-02 0.00000E+00
 -1       730 3.22917E-02 1.87500E-02 0.00000E+00
 -1       731 1.66667E-02 1.97917E-02 0.00000E+00
 -1       732 1.66667E-02 2.08333E-02 0.00000E+00
 -1       733 1.66667E-02 2.18750E-02 0.00000E+00
 -1       734 1.66667E-02 2.29167E-02 0.00000E+00
 -1       735 1.66667E-02 2.39583E-02 0.00000E+00
 -1       736 1.77083E-02 1.91406E-02 0.00000E+00
 -1       737 1.87500E-02 1.95312E-02 0.00000E+00
 -1       738 1.97917E-02 1.99219E-02 0.00000E+00
 -1       739 2.08333E-02 2.03125E-02 0.00000E+00
 -1       740 2.18750E-02 2.07031E-02 0.00000E+00
 -1       741 2.29167E-02 2.10938E-02 0.00000E+00
 -1       742 2.39583E-02 2.14844E-02 0.00000E+00
 -1       743 2.50000E-02 2.18750E-02 0.00000E+00
 -1       744 2.60417E-02 2.22656E-02 0.00000E+00
 -1       745 2.70833E-02 2.26563E-02 0.00000E+00
 -1       746 2.81250E-02 2.30469E-02 0.00000E+00
 -1       747 2.91667E-02 2.34375E-02 0.00000E+00
 -1       748 3.02083E-02 2.38281E-02 0.00000E+00
 -1       749 3.12500E-02 2.42187E-02 0.00000E+00
 -1       750 3.22917E-02 2.46094E-02 0.00000E+00
 -1       751 3.43750E-02 1.87500E-02 0.00000E+00
 -1       752 3.54167E-02 1.87500E-02 0.00000E+00
 -1       753 3.64583E-02 1.87500E-02 0.00000E+00
 -1       754 3.75000E-02 1.87500E-02 0.00000E+00
 -1       755 3.85417E-02 1.87500E-02 0.00000E+00
 -1       756 3.95833E-02 1.87500E-02 0.00000E+00
 -1       757 4.06250E-02 1.87500E-02 0.00000E+00
 -1       758 4.16667E-02 1.87500E-02 0.00000E+00
 -1       759 4.27083E-02 1.87500E-02 0.00000E+00
 -1       760 4.37500E-02 1.87500E-02 0.00000E+00
 -1       761 4.47917E-02 1.87500E-02 0.00000E+00
 -1       762 4.58333E-02 1.87500E-02 0.00000E+00
 -1       763 4.68750E-02 1.87500E-02 0.00000E+00
 -1       764 4.79167E-02 1.87500E-02 0.00000E+00
 -1       765 4.89583E-02 1.87500E-02 0.00000E+00
 -1       766 3.33333E-02 1.97917E-02 0.00000E+00
 -1       767 3.33333E-02 2.08333E-02 0.00000E+00
 -1       768 3.33333E-02 2.18750E-02 0.00000E+00
 -1       769 3.33333E-02 2.29167E-02 0.00000E+00
 -1       770 3.33333E-02 2.39583E-02 0.00000E+00
 -1       771 3.43750E-02 1.91406E-02 0.00000E+00
 -1       772 3.54167E-02 1.95312E-02 0.00000E+00
 -1       773 3.64583E-02 1.99219E-02 0.00000E+00
 -1       774 3.75000E-02 2.03125E-02 0.00000E+00
 -1       775 3.85417E-02 2.07031E-02 0.00000E+00
 -1       776 3.95833E-02 2.10938E-02 0.00000E+00
 -1       777 4.06250E-02 2.14844E-02 0.00000E+00
 -1       778 4.16667E-02 2.18750E-02 0.00000E+00
 -1       779 4.27083E-02 2.22656E-02 0.00000E+00
 -1       780 4.37500E-02 2.26563E-02 0.00000E+00
 -1       781 4.47917E-02 2.30469E-02 0.00000E+00
 -1       782 4.58333E-02 2.34375E-02 0.00000E+00
 -1       783 4.68750E-02 2.38281E-02 0.00000E+00
 -1       784 4.79167E-02 2.42187E-02 0.00000E+00
 -1       785 4.89583E-02 2.46094E-02 0.00000E+00
 -1       786 5.10417E-02 1.87500E-02 0.00000E+00
 -1       787 5.20833E-02 1.87500E-02 0.00000E+00
 -1       788 5.31250E-02 1.87500E-02 0.00000E+00
 -1       789 5.41667E-02 1.87500E-02 0.00000E+00
 -1       790 5.52083E-02 1.87500E-02 0.00000E+00
 -1       791 5.62500E-02 1.87500E-02 0.00000E+00
 -1       792 5.72917E-02 1.87500E-02 0.00000E+00
 -1       793 5.83333E-02 1.87500E-02 0.00000E+00
 -1       794 5.93750E-02 1.87500E-02 0.00000E+00
 -1       795 6.04167E-02 1.87500E-02 0.00000E+00
 -1       796 6.14583E-02 1.87500E-02 0.00000E+00
 -1       797 6.25000E-02 1.87500E-02 0.00000E+00
 -1       798 6.35417E-02 1.87500E-02 0.00000E+00
 -1       799 6.45833E-02 1.87500E-02 0.00000E+00
 -1       800 6.56250E-02 1.87500E-02 0.00000E+00
 -1       801 5.00000E-02 1.97917E-02 0.00000E+00
 -1       802 5.00000E-02 2.08333E-02 0.00000E+00
 -1       803 5.00000E-02 2.18750E-02 0.00000E+00
 -1       804 5.00000E-02 2.29167E-02 0.00000E+00
 -1       805 5.00000E-02 2.39583E-02 0.00000E+00
 -1       806 5.10417E-02 1.91406E-02 0.00000E+00
 -1       807 5.20833E-02 1.95312E-02 0.00000E+00
 -1       808 5.31250E-02 1.99219E-02 0.00000E+00
 -1       809 5.41667E-02 2.03125E-02 0.00000E+00
 -1       810 5.52083E-02 2.07031E-02 0.00000E+00
 -1       811 5.62500E-02 2.10938E-02 0.00000E+00
 -1       812 5.72917E-02 2.14844E-02 0.00000E+00
 -1       813 5.83333E-02 2.18750E-02 0.00000E+00
 -1       814 5.93750E-02 2.22656E-02 0.00000E+00
 -1       815 6.04167E-02 2.26563E-02 0.00000E+00
 -1       816 6.14583E-02 2.30469E-02 0.00000E+00
 -1       817 6.25000E-02 2.34375E-02 0.00000E+00
 -1       818 6.35417E-02 2.38281E-02 0.00000E+00
 -1       819 6.45833E-02 2.42187E-02 0.00000E+00
 -1       820 6.56250E-02 2.46094E-02 0.00000E+00
 -1       821 6.77083E-02 1.87500E-02 0.00000E+00
 -1       822 6.87500E-02 1.87500E-02 0.00000E+00
 -1       823 6.97917E-02 1.87500E-02 0.00000E+00
 -1       824 7.08333E-02 1.87500E-02 0.00000E+00
 -1       825 7.18750E-02 1.87500E-02 0.00000E+00
 -1       826 7.29167E-02 1.87500E-02 0.00000E+00
 -1       827 7.39583E-02 1.87500E-02 0.00000E+00
 -1       828 7.50000E-02 1.87500E-02 0.00000E+00
 -1       829 7.60417E-02 1.87500E-02 0.00000E+00
 -1       830 7.70833E-02 1.87500E-02 0.00000E+00
 -1       831 7.81250E-02 1.87500E-02 0.00000E+00
 -1       832 7.91667E-02 1.87500E-02 0.00000E+00
 -1       833 8.02083E-02 1.87500E-02 0.00000E+00
 -1       834 8.12500E-02 1.87500E-02 0.00000E+00
 -1       835 8.22917E-02 1.87500E-02 0.00000E+00
 -1       836 6.66667E-02 1.97917E-02 0.00000E+00
 -1       837 6.66667E-02 2.08333E-02 0.00000E+00
 -1       838 6.66667E-02 2.18750E-02 0.00000E+00
 -1       839 6.66667E-02 2.29167E-02 0.00000E+00
 -1       840 6.66667E-02 2.39583E-02 0.00000E+00
 -1       841 6.77083E-02 1.91406E-02 0.00000E+00
 -1       842 6.87500E-02 1.95312E-02 0.00000E+00
 -1       843 6.97917E-02 1.99219E-02 0.00000E+00
 -1       844 7.08333E-02 2.03125E-02 0.00000E+00
 -1       845 7.18750E-02 2.07031E-02 0.00000E+00
 -1       846 7.29167E-02 2.10938E-02 0.00000E+00
 -1       847 7.39583E-02 2.14844E-02 0.00000E+00
 -1       848 7.50000E-02 2.18750E-02 0.00000E+00
 -1       849 7.60417E-02 2.22656E-02 0.00000E+00
 -1       850 7.70833E-02 2.26563E-02 0.00000E+00
 -1       851 7.81250E-02 2.30469E-02 0.00000E+00
 -1       852 7.91667E-02 2.34375E-02 0.00000E+00
 -1       853 8.02083E-02 2.38281E-02 0.00000E+00
 -1       854 8.12500E-02 2.42187E-02 0.00000E+00
 -1       855 8.22917E-02 2.46094E-02 0.00000E+00
 -1       856 8.43750E-02 1.87500E-02 0.00000E+00
 -1       857 8.54167E-02 1.87500E-02 0.00000E+00
 -1       858 8.64583E-02 1.87500E-02 0.00000E+00
 -1       859 8.75000E-02 1.87500E-02 0.00000E+00
 -1       860 8.85417E-02 1.87500E-02 0.00000E+00
 -1       861 8.95833E-02 1.87500E-02 0.00000E+00
 -1       862 9.06250E-02 1.87500E-02 0.00000E+00
 -1       863 9.16667E-02 1.87500E-02 0.00000E+00
 -1       864 9.27083E-02 1.87500E-02 0.00000E+00
 -1       865 9.37500E-02 1.87500E-02 0.00000E+00
 -1       866 9.47917E-02 1.87500E-02 0.00000E+00
 -1       867 9.58333E-02 1.87500E-02 0.00000E+00
 -1       868 9.68750E-02 1.87500E-02 0.00000E+00
 -1       869 9.79167E-02 1.87500E-02 0.00000E+00
 -1       870 9.89583E-02 1.87500E-02 0.00000E+00
 -1       871 8.33333E-02 1.97917E-02 0.00000E+00
 -1       872 8.33333E-02 2.08333E-02 0.00000E+00
 -1       873 8.33333E-02 2.18750E-02 0.00000E+00
 -1       874 8.33333E-02 2.29167E-02 0.00000E+00
 -1       875 8.33333E-02 2.39583E-02 0.00000E+00
 -1       876 8.43750E-02 1.91406E-02 0.00000E+00
 -1       877 8.54167E-02 1.95312E-02 0.00000E+00
 -1       878 8.64583E-02 1.99219E-02 0.00000E+00
 -1       879 8.75000E-02 2.03125E-02 0.00000E+00
 -1       880 8.85417E-02 2.07031E-02 0.00000E+00
 -1       881 8.95833E-02 2.10938E-02 0.00000E+00
 -1       882 9.06250E-02 2.14844E-02 0.00000E+00
 -1       883 9.16667E-02 2.18750E-02 0.00000E+00
 -1       884 9.27083E-02 2.22656E-02 0.00000E+00
 -1       885 9.37500E-02 2.26563E-02 0.00000E+00
 -1       886 9.47917E-02 2.30469E-02 0.00000E+00
 -1       887 9.58333E-02 2.34375E-02 0.00000E+00
 -1       888 9.68750E-02 2.38281E-02 0.00000E+00
 -1       889 9.79167E-02 2.42187E-02 0.00000E+00
 -1       890 9.89583E-02 2.46094E-02 0.00000E+00
 -1       891 1.00000E-01 1.97917E-02 0.00000E+00
 -1       892 1.00000E-01 2.08333E-02 0.00000E+00
 -1       893 1.00000E-01 2.18750E-02 0.00000E+00
 -1       894 1.00000E-01 2.29167E-02 0.00000E+00
 -1       895 1.00000E-01 2.39583E-02 0.00000E+00
 -1       896 1.04167E-03 2.50000E-02 0.00000E+00
 -1       897 2.08333E-03 2.50000E-02 0.00000E+00
 -1       898 3.12500E-03 2.50000E-02 0.00000E+00
 -1       899 4.16667E-03 2.50000E-02 0.00000E+00
 -1       900 5.20833E-03 2.50000E-02 0.00000E+00
 -1       901 6.25000E-03 2.50000E-02 0.00000E+00
 -1       902 7.29167E-03 2.50000E-02 0.00000E+00
 -1       903 8.33333E-03 2.50000E-02 0.00000E+00
 -1       904 9.37500E-03 2.50000E-02 0.00000E+00
 -1       905 1.04167E-02 2.50000E-02 0.00000E+00
 -1       906 1.14583E-02 2.50000E-02 0.00000E+00
 -1       907 1.25000E-02 2.50000E-02 0.00000E+00
 -1       908 1.35417E-02 2.50000E-02 0.00000E+00
 -1       909 1.45833E-02 2.50000E-02 0.00000E+00
 -1       910 1.56250E-02 2.50000E-02 0.00000E+00
 -1       911 1.77083E-02 2.50000E-02 0.00000E+00
 -1       912 1.87500E-02 2.50000E-02 0.00000E+00
 -1       913 1.97917E-02 2.50000E-02 0.00000E+00
 -1       914 2.08333E-02 2.50000E-02 0.00000E+00
 -1       915 2.18750E-02 2.50000E-02 0.00000E+00
 -1       916 2.29167E-02 2.50000E-02 0.00000E+00
 -1       917 2.39583E-02 2.50000E-02 0.00000E+00
 -1       918 2.50000E-02 2.50000E-02 0.00000E+00
 -1       919 2.60417E-02 2.50000E-02 0.00000E+00
 -1       920 2.70833E-02 2.50000E-02 0.00000E+00
 -1       921 2.81250E-02 2.50000E-02 0.00000E+00
 -1       922 2.91667E-02 2.50000E-02 0.00000E+00
 -1       923 3.02083E-02 2.50000E-02 0.00000E+00
 -1       924 3.12500E-02 2.50000E-02 0.00000E+00
 -1       925 3.22917E-02 2.50000E-02 0.00000E+00
 -1       926 3.43750E-02 2.50000E-02 0.00000E+00
 -1       927 3.54167E-02 2.50000E-02 0.00000E+00
 -1       928 3.64583E-02 2.50000E-02 0.00000E+00
 -1       929 3.75000E-02 2.50000E-02 0.00000E+00
 -1       930 3.85417E-02 2.50000E-02 0.00000E+00
 -1       931 3.95833E-02 2.50000E-02 0.00000E+00
 -1       932 4.06250E-02 2.50000E-02 0.00000E+00
 -1       933 4.16667E-02 2.50000E-02 0.00000E+00
 -1       934 4.27083E-02 2.50000E-02 0.00000E+00
 -1       935 4.37500E-02 2.50000E-02 0.00000E+00
 -1       936 4.47917E-02 2.50000E-02 0.00000E+00
 -1       937 4.58333E-02 2.50000E-02 0.00000E+00
 -1       938 4.68750E-02 2.50000E-02 0.00000E+00
 -1       939 4.79167E-02 2.50000E-02 0.00000E+00
 -1       940 4.89583E-02 2.50000E-02 0.00000E+00
 -1       941 5.10417E-02 2.50000E-02 0.00000E+00
 -1       942 5.20833E-02 2.50000E-02 0.00000E+00
 -1       943 5.31250E-02 2.50000E-02 0.00000E+00
 -1       944 5.41667E-02 2.50000E-02 0.00000E+00
 -1       945 5.52083E-02 2.50000E-02 0.00000E+00
 -1       946 5.62500E-02 2.50000E-02 0.00000E+00
 -1       947 5.72917E-02 2.50000E-02 0.00000E+00
 -1       948 5.83333E-02 2.50000E-02 0.00000E+00
 -1       949 5.93750E-02 2.50000E-02 0.00000E+00
 -1       950 6.04167E-02 2.50000E-02 0.00000E+00
 -1       951 6.14583E-02 2.50000E-02 0.00000E+00
 -1       952 6.25000E-02 2.50000E-02 0.00000E+00
 -1       953 6.35417E-02 2.50000E-02 0.00000E+00
 -1       954 6.45833E-02 2.50000E-02 0.00000E+00
 -1       955 6.56250E-02 2.50000E-02 0.00000E+00
 -1       956 6.77083E-02 2.50000E-02 0.00000E+00
 -1       957 6.87500E-02 2.50000E-02 0.00000E+00
 -1       958 6.97917E-02 2.50000E-02 0.00000E+00
 -1       959 7.08333E-02 2.50000E-02 0.00000E+00
 -1       960 7.18750E-02 2.50000E-02 0.00000E+00
 -1       961 7.29167E-02 2.50000E-02 0.00000E+00
 -1       962 7.39583E-02 2.50000E-02 0.00000E+00
 -1       963 7.50000E-02 2.50000E-02 0.00000E+00
 -1       964 7.60417E-02 2.50000E-02 0.00000E+00
 -1       965 7.70833E-02 2.50000E-02 0.00000E+00
 -1       966 7.81250E-02 2.50000E-02 0.00000E+00
 -1       967 7.91667E-02 2.50000E-02 0.00000E+00
 -1       968 8.02083E-02 2.50000E-02 0.00000E+00
 -1       969 8.12500E-02 2.50000E-02 0.00000E+00
 -1       970 8.22917E-02 2.50000E-02 0.00000E+00
 -1       971 8.43750E-02 2.50000E-02 0.00000E+00
 -1       972 8.54167E-02 2.50000E-02 0.00000E+00
 -1       973 8.64583E-02 2.50000E-02 0.00000E+00
 -1       974 8.75000E-02 2.50000E-02 0.00000E+00
 -1       975 8.85417E-02 2.50000E-02 0.00000E+00
 -1       976 8.95833E-02 2.50000E-02 0.00000E+00
 -1       977 9.06250E-02 2.50000E-02 0.00000E+00
 -1       978 9.16667E-02 2.50000E-02 0.00000E+00
 -1       979 9.27083E-02 2.50000E-02 0.00000E+00
 -1       980 9.37500E-02 2.50000E-02 0.00000E+00
 -1       981 9.47917E-02 2.50000E-02 0.00000E+00
 -1       982 9.58333E-02 2.50000E-02 0.00000E+00
 -1       983 9.68750E-02 2.50000E-02 0.00000E+00
 -1       984 9.79167E-02 2.50000E-02 0.00000E+00
 -1       985 9.89583E-02 2.50000E-02 0.00000E+00
 -3
    3C                           440                                     1
 -1         1   12    0    1
 -2         1        37        36
 -1         2   12    0    1
 -2        37        39        38
 -1         3   12    0    1
 -2        39        41        40
 -1         4   12    0    1
 -2        41        43        42
 -1         5   12    0    1
 -2        43        45        44
 -1         6   12    0    1
 -2        45        47        46
 -1         7   12    0    1
 -2        47        49        48
 -1         8   12    0    1
 -2        49         2        50
 -1         9   12    0    1
 -2         1        52        51
 -1        10   12    0    1
 -2        52        54        53
 -1        11   12    0    1
 -2        54         8        55
 -1        12   12    0    1
 -2         1        57        56
 -1        13   12    0    1
 -2        57        59        58
 -1        14   12    0    1
 -2        59        61        60
 -1        15   12    0    1
 -2        61        63        62
 -1        16   12    0    1
 -2        63        65        64
 -1        17   12    0    1
 -2        65        67        66
 -1        18   12    0    1
 -2        67        69        68
 -1        19   12    0    1
 -2        69         9        70
 -1        20   12    0    1
 -2         2        72        71
 -1        21   12    0    1
 -2        72        74        73
 -1        22   12    0    1
 -2        74        76        75
 -1        23   12    0    1
 -2        76        78        77
 -1        24   12    0    1
 -2        78        80        79
 -1        25   12    0    1
 -2        80        82        81
 -1        26   12    0    1
 -2        82        84        83
 -1        27   12    0    1
 -2        84         3        85
 -1        28   12    0    1
 -2         2        87        86
 -1        29   12    0    1
 -2        87        89        88
 -1        30   12    0    1
 -2        89         9        90
 -1        31   12    0    1
 -2         2        92        91
 -1        32   12    0    1
 -2        92        94        93
 -1        33   12    0    1
 -2        94        96        95
 -1        34   12    0    1
 -2        96        98        97
 -1        35   12    0    1
 -2        98       100        99
 -1        36   12    0    1
 -2       100       102       101
 -1        37   12    0    1
 -2       102       104       103
 -1        38   12    0    1
 -2       104        10       105
 -1        39   12    0    1
 -2         3       107       106
 -1        40   12    0    1
 -2       107       109       108
 -1        41   12    0    1
 -2       109       111       110
 -1        42   12    0    1
 -2       111       113       112
 -1        43   12    0    1
 -2       113       115       114
 -1        44   12    0    1
 -2       115       117       116
 -1        45   12    0    1
 -2       117       119       118
 -1        46   12    0    1
 -2       119         4       120
 -1        47   12    0    1
 -2         3       122       121
 -1        48   12    0    1
 -2       122       124       123
 -1        49   12    0    1
 -2       124        10       125
 -1        50   12    0    1
 -2         3       127       126
 -1        51   12    0    1
 -2       127       129       128
 -1        52   12    0    1
 -2       129       131       130
 -1        53   12    0    1
 -2       131       133       132
 -1        54   12    0    1
 -2       133       135       134
 -1        55   12    0    1
 -2       135       137       136
 -1        56   12    0    1
 -2       137       139       138
 -1        57   12    0    1
 -2       139        11       140
 -1        58   12    0    1
 -2         4       142       141
 -1        59   12    0    1
 -2       142       144       143
 -1        60   12    0    1
 -2       144       146       145
 -1        61   12    0    1
 -2       146       148       147
 -1        62   12    0    1
 -2       148       150       149
 -1        63   12    0    1
 -2       150       152       151
 -1        64   12    0    1
 -2       152       154       153
 -1        65   12    0    1
 -2       154         5       155
 -1        66   12    0    1
 -2         4       157       156
 -1        67   12    0    1
 -2       157       159       158
 -1        68   12    0    1
 -2       159        11       160
 -1        69   12    0    1
 -2         4       162       161
 -1        70   12    0    1
 -2       162       164       163
 -1        71   12    0    1
 -2       164       166       165
 -1        72   12    0    1
 -2       166       168       167
 -1        73   12    0    1
 -2       168       170       169
 -1        74   12    0    1
 -2       170       172       171
 -1        75   12    0    1
 -2       172       174       173
 -1        76   12    0    1
 -2       174        12       175
 -1        77   12    0    1
 -2         5       192       191
 -1        78   12    0    1
 -2       192       194       193
 -1        79   12    0    1
 -2       194        12       195
 -1        80   12    0    1
 -2         8       252       251
 -1        81   12    0    1
 -2       252       254       253
 -1        82   12    0    1
 -2       254       256       255
 -1        83   12    0    1
 -2       256       258       257
 -1        84   12    0    1
 -2       258       260       259
 -1        85   12    0    1
 -2       260       262       261
 -1        86   12    0    1
 -2       262       264       263
 -1        87   12    0    1
 -2       264         9       265
 -1        88   12    0    1
 -2         8       267       266
 -1        89   12    0    1
 -2       267       269       268
 -1        90   12    0    1
 -2       269        15       270
 -1        91   12    0    1
 -2         8       272       271
 -1        92   12    0    1
 -2       272       274       273
 -1        93   12    0    1
 -2       274       276       275
 -1        94   12    0    1
 -2       276       278       277
 -1        95   12    0    1
 -2       278       280       279
 -1        96   12    0    1
 -2       280       282       281
 -1        97   12    0    1
 -2       282       284       283
 -1        98   12    0    1
 -2       284        16       285
 -1        99   12    0    1
 -2         9       287       286
 -1       100   12    0    1
 -2       287       289       288
 -1       101   12    0    1
 -2       289       291       290
 -1       102   12    0    1
 -2       291       293       292
 -1       103   12    0    1
 -2       293       295       294
 -1       104   12    0    1
 -2       295       297       296
 -1       105   12    0    1
 -2       297       299       298
 -1       106   12    0    1
 -2       299        10       300
 -1       107   12    0    1
 -2         9       302       301
 -1       108   12    0    1
 -2       302       304       303
 -1       109   12    0    1
 -2       304        16       305
 -1       110   12    0    1
 -2         9       307       306
 -1       111   12    0    1
 -2       307       309       308
 -1       112   12    0    1
 -2       309       311       310
 -1       113   12    0    1
 -2       311       313       312
 -1       114   12    0    1
 -2       313       315       314
 -1       115   12    0    1
 -2       315       317       316
 -1       116   12    0    1
 -2       317       319       318
 -1       117   12    0    1
 -2       319        17       320
 -1       118   12    0    1
 -2        10       322       321
 -1       119   12    0    1
 -2       322       324       323
 -1       120   12    0    1
 -2       324       326       325
 -1       121   12    0    1
 -2       326       328       327
 -1       122   12    0    1
 -2       328       330       329
 -1       123   12    0    1
 -2       330       332       331
 -1       124   12    0    1
 -2       332       334       333
 -1       125   12    0    1
 -2       334        11       335
 -1       126   12    0    1
 -2        10       337       336
 -1       127   12    0    1
 -2       337       339       338
 -1       128   12    0    1
 -2       339        17       340
 -1       129   12    0    1
 -2        10       342       341
 -1       130   12    0    1
 -2       342       344       343
 -1       131   12    0    1
 -2       344       346       345
 -1       132   12    0    1
 -2       346       348       347
 -1       133   12    0    1
 -2       348       350       349
 -1       134   12    0    1
 -2       350       352       351
 -1       135   12    0    1
 -2       352       354       353
 -1       136   12    0    1
 -2       354        18       355
 -1       137   12    0    1
 -2        11       357       356
 -1       138   12    0    1
 -2       357       359       358
 -1       139   12    0    1
 -2       359       361       360
 -1       140   12    0    1
 -2       361       363       362
 -1       141   12    0    1
 -2       363       365       364
 -1       142   12    0    1
 -2       365       367       366
 -1       143   12    0    1
 -2       367       369       368
 -1       144   12    0    1
 -2       369        12       370
 -1       145   12    0    1
 -2        11       372       371
 -1       146   12    0    1
 -2       372       374       373
 -1       147   12    0    1
 -2       374        18       375
 -1       148   12    0    1
 -2        11       377       376
 -1       149   12    0    1
 -2       377       379       378
 -1       150   12    0    1
 -2       379       381       380
 -1       151   12    0    1
 -2       381       383       382
 -1       152   12    0    1
 -2       383       385       384
 -1       153   12    0    1
 -2       385       387       386
 -1       154   12    0    1
 -2       387       389       388
 -1       155   12    0    1
 -2       389        19       390
 -1       156   12    0    1
 -2        12       407       406
 -1       157   12    0    1
 -2       407       409       408
 -1       158   12    0    1
 -2       409        19       410
 -1       159   12    0    1
 -2        15       467       466
 -1       160   12    0    1
 -2       467       469       468
 -1       161   12    0    1
 -2       469       471       470
 -1       162   12    0    1
 -2       471       473       472
 -1       163   12    0    1
 -2       473       475       474
 -1       164   12    0    1
 -2       475       477       476
 -1       165   12    0    1
 -2       477       479       478
 -1       166   12    0    1
 -2       479        16       480
 -1       167   12    0    1
 -2        15       482       481
 -1       168   12    0    1
 -2       482       484       483
 -1       169   12    0    1
 -2       484        22       485
 -1       170   12    0    1
 -2        15       487       486
 -1       171   12    0    1
 -2       487       489       488
 -1       172   12    0    1
 -2       489       491       490
 -1       173   12    0    1
 -2       491       493       492
 -1       174   12    0    1
 -2       493       495       494
 -1       175   12    0    1
 -2       495       497       496
 -1       176   12    0    1
 -2       497       499       498
 -1       177   12    0    1
 -2       499        23       500
 -1       178   12    0    1
 -2        16       502       501
 -1       179   12    0    1
 -2       502       504       503
 -1       180   12    0    1
 -2       504       506       505
 -1       181   12    0    1
 -2       506       508       507
 -1       182   12    0    1
 -2       508       510       509
 -1       183   12    0    1
 -2       510       512       511
 -1       184   12    0    1
 -2       512       514       513
 -1       185   12    0    1
 -2       514        17       515
 -1       186   12    0    1
 -2        16       517       516
 -1       187   12    0    1
 -2       517       519       518
 -1       188   12    0    1
 -2       519        23       520
 -1       189   12    0    1
 -2        16       522       521
 -1       190   12    0    1
 -2       522       524       523
 -1       191   12    0    1
 -2       524       526       525
 -1       192   12    0    1
 -2       526       528       527
 -1       193   12    0    1
 -2       528       530       529
 -1       194   12    0    1
 -2       530       532       531
 -1       195   12    0    1
 -2       532       534       533
 -1       196   12    0    1
 -2       534        24       535
 -1       197   12    0    1
 -2        17       537       536
 -1       198   12    0    1
 -2       537       539       538
 -1       199   12    0    1
 -2       539       541       540
 -1       200   12    0    1
 -2       541       543       542
 -1       201   12    0    1
 -2       543       545       544
 -1       202   12    0    1
 -2       545       547       546
 -1       203   12    0    1
 -2       547       549       548
 -1       204   12    0    1
 -2       549        18       550
 -1       205   12    0    1
 -2        17       552       551
 -1       206   12    0    1
 -2       552       554       553
 -1       207   12    0    1
 -2       554        24       555
 -1       208   12    0    1
 -2        17       557       556
 -1       209   12    0    1
 -2       557       559       558
 -1       210   12    0    1
 -2       559       561       560
 -1       211   12    0    1
 -2       561       563       562
 -1       212   12    0    1
 -2       563       565       564
 -1       213   12    0    1
 -2       565       567       566
 -1       214   12    0    1
 -2       567       569       568
 -1       215   12    0    1
 -2       569        25       570
 -1       216   12    0    1
 -2        18       572       571
 -1       217   12    0    1
 -2       572       574       573
 -1       218   12    0    1
 -2       574       576       575
 -1       219   12    0    1
 -2       576       578       577
 -1       220   12    0    1
 -2       578       580       579
 -1       221   12    0    1
 -2       580       582       581
 -1       222   12    0    1
 -2       582       584       583
 -1       223   12    0    1
 -2       584        19       585
 -1       224   12    0    1
 -2        18       587       586
 -1       225   12    0    1
 -2       587       589       588
 -1       226   12    0    1
 -2       589        25       590
 -1       227   12    0    1
 -2        18       592       591
 -1       228   12    0    1
 -2       592       594       593
 -1       229   12    0    1
 -2       594       596       595
 -1       230   12    0    1
 -2       596       598       597
 -1       231   12    0    1
 -2       598       600       599
 -1       232   12    0    1
 -2       600       602       601
 -1       233   12    0    1
 -2       602       604       603
 -1       234   12    0    1
 -2       604        26       605
 -1       235   12    0    1
 -2        19       607       606
 -1       236   12    0    1
 -2       607       609       608
 -1       237   12    0    1
 -2       609       611       610
 -1       238   12    0    1
 -2       611       613       612
 -1       239   12    0    1
 -2       613       615       614
 -1       240   12    0    1
 -2       615       617       616
 -1       241   12    0    1
 -2       617       619       618
 -1       242   12    0    1
 -2       619        20       620
 -1       243   12    0    1
 -2        19       622       621
 -1       244   12    0    1
 -2       622       624       623
 -1       245   12    0    1
 -2       624        26       625
 -1       246   12    0    1
 -2        19       627       626
 -1       247   12    0    1
 -2       627       629       628
 -1       248   12    0    1
 -2       629       631       630
 -1       249   12    0    1
 -2       631       633       632
 -1       250   12    0    1
 -2       633       635       634
 -1       251   12    0    1
 -2       635       637       636
 -1       252   12    0    1
 -2       637       639       638
 -1       253   12    0    1
 -2       639        27       640
 -1       254   12    0    1
 -2        20       642       641
 -1       255   12    0    1
 -2       642       644       643
 -1       256   12    0    1
 -2       644       646       645
 -1       257   12    0    1
 -2       646       648       647
 -1       258   12    0    1
 -2       648       650       649
 -1       259   12    0    1
 -2       650       652       651
 -1       260   12    0    1
 -2       652       654       653
 -1       261   12    0    1
 -2       654        21       655
 -1       262   12    0    1
 -2        20       657       656
 -1       263   12    0    1
 -2       657       659       658
 -1       264   12    0    1
 -2       659        27       660
 -1       265   12    0    1
 -2        20       662       661
 -1       266   12    0    1
 -2       662       664       663
 -1       267   12    0    1
 -2       664       666       665
 -1       268   12    0    1
 -2       666       668       667
 -1       269   12    0    1
 -2       668       670       669
 -1       270   12    0    1
 -2       670       672       671
 -1       271   12    0    1
 -2       672       674       673
 -1       272   12    0    1
 -2       674        28       675
 -1       273   12    0    1
 -2        21       677       676
 -1       274   12    0    1
 -2       677       679       678
 -1       275   12    0    1
 -2       679        28       680
 -1       276   12    0    1
 -2        22       682       681
 -1       277   12    0    1
 -2       682       684       683
 -1       278   12    0    1
 -2       684       686       685
 -1       279   12    0    1
 -2       686       688       687
 -1       280   12    0    1
 -2       688       690       689
 -1       281   12    0    1
 -2       690       692       691
 -1       282   12    0    1
 -2       692       694       693
 -1       283   12    0    1
 -2       694        23       695
 -1       284   12    0    1
 -2        22       697       696
 -1       285   12    0    1
 -2       697       699       698
 -1       286   12    0    1
 -2       699        29       700
 -1       287   12    0    1
 -2        22       702       701
 -1       288   12    0    1
 -2       702       704       703
 -1       289   12    0    1
 -2       704       706       705
 -1       290   12    0    1
 -2       706       708       707
 -1       291   12    0    1
 -2       708       710       709
 -1       292   12    0    1
 -2       710       712       711
 -1       293   12    0    1
 -2       712       714       713
 -1       294   12    0    1
 -2       714        30       715
 -1       295   12    0    1
 -2        23       717       716
 -1       296   12    0    1
 -2       717       719       718
 -1       297   12    0    1
 -2       719       721       720
 -1       298   12    0    1
 -2       721       723       722
 -1       299   12    0    1
 -2       723       725       724
 -1       300   12    0    1
 -2       725       727       726
 -1       301   12    0    1
 -2       727       729       728
 -1       302   12    0    1
 -2       729        24       730
 -1       303   12    0    1
 -2        23       732       731
 -1       304   12    0    1
 -2       732       734       733
 -1       305   12    0    1
 -2       734        30       735
 -1       306   12    0    1
 -2        23       737       736
 -1       307   12    0    1
 -2       737       739       738
 -1       308   12    0    1
 -2       739       741       740
 -1       309   12    0    1
 -2       741       743       742
 -1       310   12    0    1
 -2       743       745       744
 -1       311   12    0    1
 -2       745       747       746
 -1       312   12    0    1
 -2       747       749       748
 -1       313   12    0    1
 -2       749        31       750
 -1       314   12    0    1
 -2        24       752       751
 -1       315   12    0    1
 -2       752       754       753
 -1       316   12    0    1
 -2       754       756       755
 -1       317   12    0    1
 -2       756       758       757
 -1       318   12    0    1
 -2       758       760       759
 -1       319   12    0    1
 -2       760       762       761
 -1       320   12    0    1
 -2       762       764       763
 -1       321   12    0    1
 -2       764        25       765
 -1       322   12    0    1
 -2        24       767       766
 -1       323   12    0    1
 -2       767       769       768
 -1       324   12    0    1
 -2       769        31       770
 -1       325   12    0    1
 -2        24       772       771
 -1       326   12    0    1
 -2       772       774       773
 -1       327   12    0    1
 -2       774       776       775
 -1       328   12    0    1
 -2       776       778       777
 -1       329   12    0    1
 -2       778       780       779
 -1       330   12    0    1
 -2       780       782       781
 -1       331   12    0    1
 -2       782       784       783
 -1       332   12    0    1
 -2       784        32       785
 -1       333   12    0    1
 -2        25       787       786
 -1       334   12    0    1
 -2       787       789       788
 -1       335   12    0    1
 -2       789       791       790
 -1       336   12    0    1
 -2       791       793       792
 -1       337   12    0    1
 -2       793       795       794
 -1       338   12    0    1
 -2       795       797       796
 -1       339   12    0    1
 -2       797       799       798
 -1       340   12    0    1
 -2       799        26       800
 -1       341   12    0    1
 -2        25       802       801
 -1       342   12    0    1
 -2       802       804       803
 -1       343   12    0    1
 -2       804        32       805
 -1       344   12    0    1
 -2        25       807       806
 -1       345   12    0    1
 -2       807       809       808
 -1       346   12    0    1
 -2       809       811       810
 -1       347   12    0    1
 -2       811       813       812
 -1       348   12    0    1
 -2       813       815       814
 -1       349   12    0    1
 -2       815       817       816
 -1       350   12    0    1
 -2       817       819       818
 -1       351   12    0    1
 -2       819        33       820
 -1       352   12    0    1
 -2        26       822       821
 -1       353   12    0    1
 -2       822       824       823
 -1       354   12    0    1
 -2       824       826       825
 -1       355   12    0    1
 -2       826       828       827
 -1       356   12    0    1
 -2       828       830       829
 -1       357   12    0    1
 -2       830       832       831
 -1       358   12    0    1
 -2       832       834       833
 -1       359   12    0    1
 -2       834        27       835
 -1       360   12    0    1
 -2        26       837       836
 -1       361   12    0    1
 -2       837       839       838
 -1       362   12    0    1
 -2       839        33       840
 -1       363   12    0    1
 -2        26       842       841
 -1       364   12    0    1
 -2       842       844       843
 -1       365   12    0    1
 -2       844       846       845
 -1       366   12    0    1
 -2       846       848       847
 -1       367   12    0    1
 -2       848       850       849
 -1       368   12    0    1
 -2       850       852       851
 -1       369   12    0    1
 -2       852       854       853
 -1       370   12    0    1
 -2       854        34       855
 -1       371   12    0    1
 -2        27       857       856
 -1       372   12    0    1
 -2       857       859       858
 -1       373   12    0    1
 -2       859       861       860
 -1       374   12    0    1
 -2       861       863       862
 -1       375   12    0    1
 -2       863       865       864
 -1       376   12    0    1
 -2       865       867       866
 -1       377   12    0    1
 -2       867       869       868
 -1       378   12    0    1
 -2       869        28       870
 -1       379   12    0    1
 -2        27       872       871
 -1       380   12    0    1
 -2       872       874       873
 -1       381   12    0    1
 -2       874        34       875
 -1       382   12    0    1
 -2        27       877       876
 -1       383   12    0    1
 -2       877       879       878
 -1       384   12    0    1
 -2       879       881       880
 -1       385   12    0    1
 -2       881       883       882
 -1       386   12    0    1
 -2       883       885       884
 -1       387   12    0    1
 -2       885       887       886
 -1       388   12    0    1
 -2       887       889       888
 -1       389   12    0    1
 -2       889        35       890
 -1       390   12    0    1
 -2        28       892       891
 -1       391   12    0    1
 -2       892       894       893
 -1       392   12    0    1
 -2       894        35       895
 -1       393   12    0    1
 -2        29       897       896
 -1       394   12    0    1
 -2       897       899       898
 -1       395   12    0    1
 -2       899       901       900
 -1       396   12    0    1
 -2       901       903       902
 -1       397   12    0    1
 -2       903       905       904
 -1       398   12    0    1
 -2       905       907       906
 -1       399   12    0    1
 -2       907       909       908
 -1       400   12    0    1
 -2       909        30       910
 -1       401   12    0    1
 -2        30       912       911
 -1       402   12    0    1
 -2       912       914       913
 -1       403   12    0    1
 -2       914       916       915
 -1       404   12    0    1
 -2       916       918       917
 -1       405   12    0    1
 -2       918       920       919
 -1       406   12    0    1
 -2       920       922       921
 -1       407   12    0    1
 -2       922       924       923
 -1       408   12    0    1
 -2       924        31       925
 -1       409   12    0    1
 -2        31       927       926
 -1       410   12    0    1
 -2       927       929       928
 -1       411   12    0    1
 -2       929       931       930
 -1       412   12    0    1
 -2       931       933       932
 -1       413   12    0    1
 -2       933       935       934
 -1       414   12    0    1
 -2       935       937       936
 -1       415   12    0    1
 -2       937       939       938
 -1       416   12    0    1
 -2       939        32       940
 -1       417   12    0    1
 -2        32       942       941
 -1       418   12    0    1
 -2       942       944       943
 -1       419   12    0    1
 -2       944       946       945
 -1       420   12    0    1
 -2       946       948       947
 -1       421   12    0    1
 -2       948       950       949
 -1       422   12    0    1
 -2       950       952       951
 -1       423   12    0    1
 -2       952       954       953
 -1       424   12    0    1
 -2       954        33       955
 -1       425   12    0    1
 -2        33       957       956
 -1       426   12    0    1
 -2       957       959       958
 -1       427   12    0    1
 -2       959       961       960
 -1       428   12    0    1
 -2       961       963       962
 -1       429   12    0    1
 -2       963       965       964
 -1       430   12    0    1
 -2       965       967       966
 -1       431   12    0    1
 -2       967       969       968
 -1       432   12    0    1
 -2       969        34       970
 -1       433   12    0    1
 -2        34       972       971
 -1       434   12    0    1
 -2       972       974       973
 -1       435   12    0    1
 -2       974       976       975
 -1       436   12    0    1
 -2       976       978       977
 -1       437   12    0    1
 -2       978       980       979
 -1       438   12    0    1
 -2       980       982       981
 -1       439   12    0    1
 -2       982       984       983
 -1       440   12    0    1
 -2       984        35       985
 -3
    1PSTEP                         1           1           1          
  100CL  101 1.000000000         841                     0    1           1
 -4  DISP        4    1
 -5  D1          1    2    1    0
 -5  D2          1    2    2    0
 -5  D3          1    2    3    0
 -5  ALL         1    2    0    0    1ALL
 -1         1 8.40561E-05 0.00000E+00 0.00000E+00
 -1         2 6.59892E-05 0.00000E+00 0.00000E+00
 -1         3 5.88160E-05 0.00000E+00 0.00000E+00
 -1         4 5.67866E-05 0.00000E+00 0.00000E+00
 -1         5 5.67540E-05 0.00000E+00 0.00000E+00
 -1         8 5.70639E-05-1.13820E-06 0.00000E+00
 -1         9 5.54317E-05 1.36088E-06 0.00000E+00
 -1        10 5.36221E-05-2.74463E-06 0.00000E+00
 -1        11 5.29307E-05-6.73928E-07 0.00000E+00
 -1        12 5.34326E-05 2.89971E-06 0.00000E+00
 -1        15 2.41225E-05-1.82543E-06 0.00000E+00
 -1        16 3.16743E-05 1.56321E-06 0.00000E+00
 -1        17 3.33374E-05-5.50369E-06 0.00000E+00
 -1        18 3.92649E-05-1.26335E-06 0.00000E+00
 -1        19 4.37071E-05 5.69562E-06 0.00000E+00
 -1        20 4.47576E-05 5.55453E-05 0.00000E+00
 -1        21 4.46923E-05 1.21495E-04 0.00000E+00
 -1        22 9.68182E-06-1.15372E-06 0.00000E+00
 -1        23 1.26473E-05 2.01538E-06 0.00000E+00
 -1        24 1.47802E-05-6.19139E-06 0.00000E+00
 -1        25 2.60791E-05-9.73572E-07 0.00000E+00
 -1        26 3.23785E-05 7.33517E-06 0.00000E+00
 -1        27 2.81992E-05 5.42139E-05 0.00000E+00
 -1        28 2.47247E-05 1.20302E-04 0.00000E+00
 -1        29 0.00000E+00 0.00000E+00 0.00000E+00
 -1        30 4.73435E-06 2.42905E-06 0.00000E+00
 -1        31 6.16308E-06-5.14951E-06 0.00000E+00
 -1        32 0.00000E+00 0.00000E+00 0.00000E+00
 -1        33 1.45823E-05 1.11480E-05 0.00000E+00
 -1        34 1.29099E-05 5.41174E-05 0.00000E+00
 -1        35 8.43625E-06 1.19665E-04 0.00000E+00
 -1        36 8.29518E-05 4.75794E-21 0.00000E+00
 -1        37 8.18221E-05 2.19203E-20 0.00000E+00
 -1        38 8.06929E-05 4.21399E-20 2.64698E-23
 -1        39 7.95598E-05 6.42223E-20 1.32349E-23
 -1        40 7.84261E-05 7.11508E-20-2.64698E-23
 -1        41 7.72917E-05 7.39830E-20-1.32349E-23
 -1        42 7.61571E-05 7.82844E-20-2.64698E-23
 -1        43 7.50224E-05 7.73050E-20 1.32349E-23
 -1        44 7.38877E-05 7.92241E-20 2.64698E-23
 -1        45 7.27531E-05 7.55050E-20-1.32349E-23
 -1        46 7.16187E-05 6.08342E-20-2.64698E-23
 -1        47 7.04850E-05 4.84926E-20 0.00000E+00
 -1        48 6.93519E-05 4.67655E-20-2.64698E-23
 -1        49 6.82227E-05 3.55059E-20 0.00000E+00
 -1        50 6.70931E-05 1.14945E-20 2.64698E-23
 -1        51 8.22727E-05-1.98534E-07-1.32349E-23
 -1        52 7.89986E-05-3.83089E-07 0.00000E+00
 -1        53 7.45311E-05-5.67190E-07 0.00000E+00
 -1        54 6.91795E-05-7.53170E-07-3.30872E-24
 -1        55 6.32536E-05-9.42185E-07 2.58494E-24
 -1        56 8.26073E-05-6.95440E-07-2.64698E-23
 -1        57 8.11923E-05-1.61264E-06 0.00000E+00
 -1        58 7.98300E-05-2.66673E-06 0.00000E+00
 -1        59 7.84861E-05-3.78985E-06 2.64698E-23
 -1        60 7.71397E-05-4.90797E-06 5.29396E-23
 -1        61 7.57633E-05-5.94954E-06-2.64698E-23
 -1        62 7.43315E-05-6.84381E-06 0.00000E+00
 -1        63 7.28188E-05-7.52282E-06 0.00000E+00
 -1        64 7.12012E-05-7.92206E-06 0.00000E+00
 -1        65 6.94564E-05-7.98170E-06 0.00000E+00
 -1        66 6.75639E-05-7.64746E-06-5.29396E-23
 -1        67 6.55067E-05-6.87138E-06-2.64698E-23
 -1        68 6.32688E-05-5.61319E-06 0.00000E+00
 -1        69 6.08450E-05-3.83790E-06 0.00000E+00
 -1        70 5.82161E-05-1.52501E-06-2.64698E-23
 -1        71 6.55370E-05-1.06375E-20-1.32349E-23
 -1        72 6.50879E-05-2.59536E-20 6.61744E-24
 -1        73 6.46387E-05-3.72347E-20 1.32349E-23
 -1        74 6.41900E-05-3.95789E-20 0.00000E+00
 -1        75 6.37414E-05-3.73406E-20-1.32349E-23
 -1        76 6.32928E-05-2.71315E-20 0.00000E+00
 -1        77 6.28443E-05-2.10633E-20 1.32349E-23
 -1        78 6.23959E-05-1.27502E-20 6.61744E-24
 -1        79 6.19474E-05-2.19782E-20-1.32349E-23
 -1        80 6.14990E-05-2.89761E-20 6.61744E-24
 -1        81 6.10506E-05-2.13578E-20 1.32349E-23
 -1        82 6.06023E-05-1.31968E-20 0.00000E+00
 -1        83 6.01541E-05-1.62094E-20-1.32349E-23
 -1        84 5.97066E-05-1.53823E-20 6.61744E-24
 -1        85 5.92591E-05-1.02752E-20 0.00000E+00
 -1        86 6.57269E-05 2.05711E-07-3.30872E-24
 -1        87 6.49089E-05 4.42587E-07 0.00000E+00
 -1        88 6.35037E-05 6.77711E-07 0.00000E+00
 -1        89 6.14786E-05 9.13356E-07 0.00000E+00
 -1        90 5.87997E-05 1.14869E-06-8.27181E-25
 -1        91 6.52864E-05-3.32868E-07 0.00000E+00
 -1        92 6.46113E-05-7.67427E-07 1.32349E-23
 -1        93 6.39638E-05-1.27473E-06 0.00000E+00
 -1        94 6.33325E-05-1.82926E-06 0.00000E+00
 -1        95 6.27086E-05-2.40412E-06 0.00000E+00
 -1        96 6.20821E-05-2.97268E-06 1.32349E-23
 -1        97 6.14433E-05-3.50833E-06 0.00000E+00
 -1        98 6.07822E-05-3.98480E-06 0.00000E+00
 -1        99 6.00892E-05-4.37621E-06-2.64698E-23
 -1       100 5.93549E-05-4.65737E-06 1.32349E-23
 -1       101 5.85703E-05-4.80398E-06 0.00000E+00
 -1       102 5.77268E-05-4.79269E-06 0.00000E+00
 -1       103 5.68160E-05-4.60153E-06 0.00000E+00
 -1       104 5.58319E-05-4.20926E-06-1.32349E-23
 -1       105 5.47650E-05-3.59769E-06-1.32349E-23
 -1       106 5.86790E-05 9.97621E-21 0.00000E+00
 -1       107 5.85512E-05 1.43020E-20 3.30872E-24
 -1       108 5.84232E-05 1.22340E-20 0.00000E+00
 -1       109 5.82966E-05 2.64131E-20-1.65436E-24
 -1       110 5.81702E-05 3.69977E-20 0.00000E+00
 -1       111 5.80440E-05 4.76051E-20 0.00000E+00
 -1       112 5.79179E-05 6.25394E-20 0.00000E+00
 -1       113 5.77919E-05 6.42045E-20 1.65436E-24
 -1       114 5.76659E-05 6.58064E-20 3.30872E-24
 -1       115 5.75399E-05 7.06445E-20 0.00000E+00
 -1       116 5.74140E-05 6.13499E-20 0.00000E+00
 -1       117 5.72881E-05 4.91775E-20 0.00000E+00
 -1       118 5.71622E-05 4.02924E-20-3.30872E-24
 -1       119 5.70365E-05 2.50201E-20 1.65436E-24
 -1       120 5.69108E-05 9.85462E-21 0.00000E+00
 -1       121 5.85990E-05-4.52966E-07 0.00000E+00
 -1       122 5.80224E-05-9.10908E-07 0.00000E+00
 -1       123 5.71601E-05-1.36892E-06 0.00000E+00
 -1       124 5.60882E-05-1.82767E-06 6.61744E-24
 -1       125 5.48831E-05-2.28670E-06-1.32349E-23
 -1       126 5.84963E-05-1.73605E-07 1.32349E-23
 -1       127 5.82053E-05-4.22899E-07 0.00000E+00
 -1       128 5.79352E-05-7.28118E-07 0.00000E+00
 -1       129 5.76786E-05-1.06914E-06-6.61744E-24
 -1       130 5.74279E-05-1.42573E-06 1.32349E-23
 -1       131 5.71754E-05-1.77758E-06 0.00000E+00
 -1       132 5.69135E-05-2.10445E-06 0.00000E+00
 -1       133 5.66347E-05-2.38615E-06 0.00000E+00
 -1       134 5.63314E-05-2.60266E-06 1.32349E-23
 -1       135 5.59964E-05-2.73419E-06 6.61744E-24
 -1       136 5.56222E-05-2.76126E-06-1.32349E-23
 -1       137 5.52019E-05-2.66471E-06 6.61744E-24
 -1       138 5.47283E-05-2.42591E-06 0.00000E+00
 -1       139 5.41956E-05-2.02635E-06 3.30872E-24
 -1       140 5.35959E-05-1.44894E-06-6.61744E-24
 -1       141 5.67786E-05-1.06301E-20 0.00000E+00
 -1       142 5.67743E-05-1.29455E-20 0.00000E+00
 -1       143 5.67700E-05-1.35288E-20 0.00000E+00
 -1       144 5.67662E-05-6.71708E-21 0.00000E+00
 -1       145 5.67626E-05-7.06881E-21 2.06795E-25
 -1       146 5.67590E-05-1.37071E-20 0.00000E+00
 -1       147 5.67555E-05-1.69261E-20 1.03398E-25
 -1       148 5.67520E-05-7.30280E-21 2.58494E-26
 -1       149 5.67486E-05-8.73753E-21 0.00000E+00
 -1       150 5.67453E-05-2.29130E-20 0.00000E+00
 -1       151 5.67421E-05-1.95787E-20-2.06795E-25
 -1       152 5.67394E-05-1.49274E-20 4.13590E-25
 -1       153 5.67371E-05-1.01495E-20 1.65436E-24
 -1       154 5.67373E-05-1.13235E-20 0.00000E+00
 -1       155 5.67373E-05-5.44492E-21 0.00000E+00
 -1       156 5.66363E-05-1.10832E-07 3.30872E-24
 -1       157 5.62302E-05-2.22611E-07-1.65436E-24
 -1       158 5.56121E-05-3.34519E-07 0.00000E+00
 -1       159 5.48264E-05-4.46952E-07 0.00000E+00
 -1       160 5.39177E-05-5.59466E-07 3.30872E-24
 -1       161 5.66714E-05-7.26366E-08-3.30872E-24
 -1       162 5.65688E-05-1.83119E-07 0.00000E+00
 -1       163 5.64745E-05-3.15611E-07-3.30872E-24
 -1       164 5.63825E-05-4.54864E-07 1.65436E-24
 -1       165 5.62873E-05-5.85453E-07 0.00000E+00
 -1       166 5.61829E-05-6.92044E-07 0.00000E+00
 -1       167 5.60639E-05-7.59324E-07 3.30872E-24
 -1       168 5.59244E-05-7.72040E-07 1.65436E-24
 -1       169 5.57588E-05-7.15009E-07 3.30872E-24
 -1       170 5.55614E-05-5.73125E-07 0.00000E+00
 -1       171 5.53268E-05-3.31413E-07 0.00000E+00
 -1       172 5.50497E-05 2.51158E-08 0.00000E+00
 -1       173 5.47243E-05 5.11056E-07 0.00000E+00
 -1       174 5.43482E-05 1.14197E-06-1.03398E-25
 -1       175 5.39120E-05 1.93077E-06 0.00000E+00
 -1       191 5.66601E-05 4.80908E-07 0.00000E+00
 -1       192 5.63824E-05 9.65602E-07 0.00000E+00
 -1       193 5.59201E-05 1.45092E-06 2.64698E-23
 -1       194 5.52737E-05 1.93606E-06 6.61744E-24
 -1       195 5.44440E-05 2.42021E-06 1.32349E-23
 -1       251 5.69452E-05 3.28315E-06 0.00000E+00
 -1       252 5.68407E-05 6.19714E-06-3.30872E-24
 -1       253 5.67391E-05 7.80168E-06 0.00000E+00
 -1       254 5.66401E-05 8.29696E-06 0.00000E+00
 -1       255 5.65413E-05 7.88396E-06 0.00000E+00
 -1       256 5.64424E-05 6.76460E-06 0.00000E+00
 -1       257 5.63429E-05 5.14142E-06 3.30872E-24
 -1       258 5.62429E-05 3.21744E-06 0.00000E+00
 -1       259 5.61428E-05 1.19591E-06 0.00000E+00
 -1       260 5.60429E-05-7.19783E-07-1.65436E-24
 -1       261 5.59433E-05-2.32635E-06 0.00000E+00
 -1       262 5.58442E-05-3.42085E-06 0.00000E+00
 -1       263 5.57454E-05-3.80072E-06-3.30872E-24
 -1       264 5.56452E-05-3.26418E-06-1.65436E-24
 -1       265 5.55438E-05-1.61001E-06 3.30872E-24
 -1       266 5.13175E-05-1.26283E-06 0.00000E+00
 -1       267 4.50807E-05-1.38113E-06 1.65436E-24
 -1       268 3.87980E-05-1.49978E-06 3.30872E-24
 -1       269 3.29144E-05-1.61424E-06 0.00000E+00
 -1       270 2.78750E-05-1.72431E-06-3.30872E-24
 -1       271 5.40478E-05 2.94266E-06 2.64698E-23
 -1       272 5.14783E-05 5.71486E-06 0.00000E+00
 -1       273 4.93497E-05 7.32429E-06 5.29396E-23
 -1       274 4.75975E-05 7.91505E-06 2.64698E-23
 -1       275 4.61659E-05 7.65056E-06-5.29396E-23
 -1       276 4.49887E-05 6.70453E-06 2.64698E-23
 -1       277 4.39974E-05 5.26086E-06 0.00000E+00
 -1       278 4.31206E-05 3.51050E-06-2.64698E-23
 -1       279 4.22855E-05 1.64879E-06-5.29396E-23
 -1       280 4.14185E-05-1.27214E-07 2.64698E-23
 -1       281 4.04467E-05-1.62182E-06 0.00000E+00
 -1       282 3.92992E-05-2.64319E-06 0.00000E+00
 -1       283 3.79059E-05-3.00667E-06 0.00000E+00
 -1       284 3.62073E-05-2.53468E-06 0.00000E+00
 -1       285 3.41320E-05-1.06709E-06-2.64698E-23
 -1       286 5.53081E-05 4.50577E-06-6.61744E-24
 -1       287 5.51946E-05 6.60581E-06 3.30872E-24
 -1       288 5.50824E-05 7.78505E-06 0.00000E+00
 -1       289 5.49719E-05 8.16936E-06-1.65436E-24
 -1       290 5.48617E-05 7.88521E-06 3.30872E-24
 -1       291 5.47515E-05 7.05984E-06-1.65436E-24
 -1       292 5.46409E-05 5.82104E-06-3.30872E-24
 -1       293 5.45300E-05 4.29700E-06 0.00000E+00
 -1       294 5.44188E-05 2.61620E-06 0.00000E+00
 -1       295 5.43075E-05 9.07333E-07-1.65436E-24
 -1       296 5.41963E-05-7.00959E-07-3.30872E-24
 -1       297 5.40850E-05-2.08008E-06-1.65436E-24
 -1       298 5.39738E-05-3.10167E-06-3.30872E-24
 -1       299 5.38609E-05-3.63781E-06-3.30872E-24
 -1       300 5.37483E-05-3.56091E-06-6.61744E-24
 -1       301 5.15416E-05 1.38271E-06-1.65436E-24
 -1       302 4.75761E-05 1.41861E-06-2.06795E-25
 -1       303 4.35705E-05 1.45720E-06 4.13590E-25
 -1       304 3.95610E-05 1.49640E-06 0.00000E+00
 -1       305 3.55838E-05 1.53422E-06 0.00000E+00
 -1       306 5.29199E-05 4.06824E-06 2.64698E-23
 -1       307 5.07323E-05 5.78060E-06 1.32349E-23
 -1       308 4.88801E-05 6.60709E-06 5.29396E-23
 -1       309 4.73148E-05 6.65017E-06-2.64698E-23
 -1       310 4.59981E-05 6.02857E-06 0.00000E+00
 -1       311 4.48818E-05 4.86854E-06 2.64698E-23
 -1       312 4.39164E-05 3.30454E-06 5.29396E-23
 -1       313 4.30494E-05 1.47669E-06 0.00000E+00
 -1       314 4.22272E-05-4.70965E-07-5.29396E-23
 -1       315 4.13954E-05-2.39259E-06-2.64698E-23
 -1       316 4.05000E-05-4.14292E-06 0.00000E+00
 -1       317 3.94883E-05-5.57885E-06 2.64698E-23
 -1       318 3.83081E-05-6.56228E-06 0.00000E+00
 -1       319 3.69162E-05-6.95936E-06-1.32349E-23
 -1       320 3.52574E-05-6.64993E-06 2.64698E-23
 -1       321 5.35612E-05-1.68772E-06-6.61744E-24
 -1       322 5.35169E-05-9.70422E-07 0.00000E+00
 -1       323 5.34725E-05-5.46871E-07 0.00000E+00
 -1       324 5.34306E-05-3.70828E-07 0.00000E+00
 -1       325 5.33890E-05-3.96023E-07 1.65436E-24
 -1       326 5.33479E-05-5.76080E-07 0.00000E+00
 -1       327 5.33070E-05-8.64578E-07 0.00000E+00
 -1       328 5.32661E-05-1.21504E-06-8.27181E-25
 -1       329 5.32252E-05-1.58098E-06 0.00000E+00
 -1       330 5.31843E-05-1.91591E-06 8.27181E-25
 -1       331 5.31434E-05-2.17332E-06 0.00000E+00
 -1       332 5.31024E-05-2.30676E-06 8.27181E-25
 -1       333 5.30613E-05-2.26983E-06 1.65436E-24
 -1       334 5.30195E-05-2.01619E-06 0.00000E+00
 -1       335 5.29776E-05-1.49954E-06 3.30872E-24
 -1       336 5.14931E-05-3.20253E-06 0.00000E+00
 -1       337 4.81460E-05-3.66437E-06 0.00000E+00
 -1       338 4.41167E-05-4.12820E-06 0.00000E+00
 -1       339 3.99455E-05-4.59138E-06 6.61744E-24
 -1       340 3.61731E-05-5.05334E-06 0.00000E+00
 -1       341 5.24651E-05-1.92538E-06 1.32349E-23
 -1       342 5.13961E-05-1.38286E-06 0.00000E+00
 -1       343 5.04169E-05-1.07815E-06 0.00000E+00
 -1       344 4.95116E-05-9.76541E-07 1.32349E-23
 -1       345 4.86680E-05-1.04010E-06-2.64698E-23
 -1       346 4.78715E-05-1.23026E-06 1.32349E-23
 -1       347 4.71076E-05-1.50733E-06 0.00000E+00
 -1       348 4.63610E-05-1.83096E-06 0.00000E+00
 -1       349 4.56167E-05-2.16040E-06-2.64698E-23
 -1       350 4.48594E-05-2.45483E-06 0.00000E+00
 -1       351 4.40740E-05-2.67379E-06 0.00000E+00
 -1       352 4.32462E-05-2.77721E-06 0.00000E+00
 -1       353 4.23610E-05-2.72629E-06-2.64698E-23
 -1       354 4.14087E-05-2.48176E-06 0.00000E+00
 -1       355 4.03698E-05-2.00965E-06-1.32349E-23
 -1       356 5.29516E-05 1.78139E-07 0.00000E+00
 -1       357 5.29805E-05 7.66612E-07-4.13590E-25
 -1       358 5.30094E-05 1.13000E-06 0.00000E+00
 -1       359 5.30395E-05 1.30694E-06 2.06795E-25
 -1       360 5.30698E-05 1.33597E-06 0.00000E+00
 -1       361 5.31004E-05 1.25560E-06-4.13590E-25
 -1       362 5.31310E-05 1.10432E-06 0.00000E+00
 -1       363 5.31617E-05 9.20591E-07 0.00000E+00
 -1       364 5.31924E-05 7.42859E-07-8.27181E-25
 -1       365 5.32232E-05 6.09581E-07 4.13590E-25
 -1       366 5.32542E-05 5.59224E-07 1.65436E-24
 -1       367 5.32856E-05 6.30275E-07-8.27181E-25
 -1       368 5.33173E-05 8.61264E-07 0.00000E+00
 -1       369 5.33511E-05 1.29074E-06 0.00000E+00
 -1       370 5.33846E-05 1.95739E-06 0.00000E+00
 -1       371 5.13470E-05-7.74362E-07 3.30872E-24
 -1       372 4.89846E-05-8.73523E-07 1.65436E-24
 -1       373 4.62187E-05-9.73539E-07 0.00000E+00
 -1       374 4.34259E-05-1.07257E-06 1.65436E-24
 -1       375 4.09828E-05-1.17082E-06 0.00000E+00
 -1       376 5.22400E-05 5.08033E-08 6.61744E-24
 -1       377 5.16314E-05 5.28857E-07 6.61744E-24
 -1       378 5.10987E-05 8.05283E-07 0.00000E+00
 -1       379 5.06245E-05 9.21882E-07 0.00000E+00
 -1       380 5.01938E-05 9.22160E-07 0.00000E+00
 -1       381 4.97901E-05 8.49603E-07 6.61744E-24
 -1       382 4.93972E-05 7.48098E-07 0.00000E+00
 -1       383 4.89986E-05 6.61590E-07 0.00000E+00
 -1       384 4.85780E-05 6.33977E-07-1.32349E-23
 -1       385 4.81191E-05 7.08935E-07 0.00000E+00
 -1       386 4.76056E-05 9.29681E-07 0.00000E+00
 -1       387 4.70220E-05 1.33901E-06 0.00000E+00
 -1       388 4.63523E-05 1.97869E-06 0.00000E+00
 -1       389 4.55845E-05 2.89090E-06-3.30872E-24
 -1       390 4.46989E-05 4.11383E-06 0.00000E+00
 -1       406 5.21801E-05 3.36578E-06-1.32349E-23
 -1       407 5.07551E-05 3.83535E-06 0.00000E+00
 -1       408 4.91757E-05 4.30515E-06-1.32349E-23
 -1       409 4.74615E-05 4.77392E-06 6.61744E-24
 -1       410 4.56319E-05 5.24025E-06-1.32349E-23
 -1       466 2.45730E-05 5.00031E-07-6.61744E-24
 -1       467 2.50460E-05 1.86429E-06 0.00000E+00
 -1       468 2.55195E-05 2.41921E-06-1.32349E-23
 -1       469 2.59963E-05 2.31353E-06 0.00000E+00
 -1       470 2.64735E-05 1.69309E-06 0.00000E+00
 -1       471 2.69509E-05 7.01346E-07 6.61744E-24
 -1       472 2.74283E-05-5.19805E-07-1.32349E-23
 -1       473 2.79057E-05-1.82953E-06-6.61744E-24
 -1       474 2.83831E-05-3.08743E-06 1.32349E-23
 -1       475 2.88606E-05-4.15278E-06 0.00000E+00
 -1       476 2.93381E-05-4.88410E-06-1.32349E-23
 -1       477 2.98151E-05-5.13832E-06 0.00000E+00
 -1       478 3.02914E-05-4.77037E-06 1.32349E-23
 -1       479 3.07630E-05-3.63229E-06-6.61744E-24
 -1       480 3.12335E-05-1.57272E-06 0.00000E+00
 -1       481 2.12446E-05-1.71919E-06 0.00000E+00
 -1       482 1.84559E-05-1.60715E-06 0.00000E+00
 -1       483 1.58306E-05-1.49484E-06 0.00000E+00
 -1       484 1.34432E-05-1.38137E-06 0.00000E+00
 -1       485 1.13687E-05-1.26707E-06 0.00000E+00
 -1       486 2.26299E-05 5.41776E-07 1.32349E-23
 -1       487 2.13345E-05 2.31799E-06 6.61744E-24
 -1       488 2.02379E-05 3.56878E-06 1.32349E-23
 -1       489 1.93130E-05 4.35299E-06-6.61744E-24
 -1       490 1.85390E-05 4.73477E-06 0.00000E+00
 -1       491 1.78909E-05 4.77949E-06-6.61744E-24
 -1       492 1.73437E-05 4.55477E-06 1.32349E-23
 -1       493 1.68716E-05 4.12969E-06 0.00000E+00
 -1       494 1.64481E-05 3.57453E-06 0.00000E+00
 -1       495 1.60469E-05 2.96035E-06 6.61744E-24
 -1       496 1.56412E-05 2.35855E-06-1.32349E-23
 -1       497 1.52046E-05 1.84057E-06-6.61744E-24
 -1       498 1.47104E-05 1.47717E-06 0.00000E+00
 -1       499 1.41350E-05 1.33918E-06-6.61744E-24
 -1       500 1.34490E-05 1.49393E-06 0.00000E+00
 -1       501 3.17637E-05 4.63464E-06-1.65436E-24
 -1       502 3.18677E-05 6.50381E-06 2.06795E-25
 -1       503 3.19729E-05 7.32951E-06 0.00000E+00
 -1       504 3.20802E-05 7.27036E-06 8.27181E-25
 -1       505 3.21875E-05 6.48395E-06 3.30872E-24
 -1       506 3.22946E-05 5.12717E-06 1.65436E-24
 -1       507 3.24012E-05 3.35636E-06 0.00000E+00
 -1       508 3.25074E-05 1.32738E-06 0.00000E+00
 -1       509 3.26134E-05-8.04111E-07 3.30872E-24
 -1       510 3.27194E-05-2.88255E-06 1.65436E-24
 -1       511 3.28257E-05-4.75239E-06 3.30872E-24
 -1       512 3.29321E-05-6.25781E-06 0.00000E+00
 -1       513 3.30388E-05-7.24264E-06 0.00000E+00
 -1       514 3.31435E-05-7.55022E-06 0.00000E+00
 -1       515 3.32485E-05-7.02310E-06-8.27181E-25
 -1       516 2.77621E-05 1.62899E-06 0.00000E+00
 -1       517 2.37989E-05 1.70494E-06-1.03398E-25
 -1       518 2.00450E-05 1.78126E-06 4.13590E-25
 -1       519 1.67610E-05 1.85958E-06 2.06795E-25
 -1       520 1.42081E-05 1.94024E-06-1.65436E-24
 -1       521 2.94361E-05 4.33596E-06 0.00000E+00
 -1       522 2.75633E-05 6.02353E-06-1.32349E-23
 -1       523 2.60529E-05 6.75308E-06 2.64698E-23
 -1       524 2.48500E-05 6.64642E-06 0.00000E+00
 -1       525 2.39092E-05 5.83930E-06 2.64698E-23
 -1       526 2.31762E-05 4.47383E-06-1.32349E-23
 -1       527 2.25959E-05 2.69900E-06 0.00000E+00
 -1       528 2.21110E-05 6.68381E-07 0.00000E+00
 -1       529 2.16632E-05-1.46138E-06 2.64698E-23
 -1       530 2.11935E-05-3.53247E-06 1.32349E-23
 -1       531 2.06436E-05-5.38785E-06 2.64698E-23
 -1       532 1.99561E-05-6.87276E-06 1.32349E-23
 -1       533 1.90746E-05-7.83712E-06-2.64698E-23
 -1       534 1.79492E-05-8.13531E-06 0.00000E+00
 -1       535 1.65220E-05-7.63318E-06-2.64698E-23
 -1       536 3.36797E-05-3.69621E-06 1.65436E-24
 -1       537 3.40489E-05-2.39662E-06-3.30872E-24
 -1       538 3.44181E-05-1.53717E-06 6.61744E-24
 -1       539 3.47915E-05-1.05132E-06 6.61744E-24
 -1       540 3.51656E-05-8.73853E-07 0.00000E+00
 -1       541 3.55405E-05-9.40663E-07 6.61744E-24
 -1       542 3.59155E-05-1.18846E-06-1.32349E-23
 -1       543 3.62907E-05-1.55460E-06 0.00000E+00
 -1       544 3.66658E-05-1.97686E-06 0.00000E+00
 -1       545 3.70409E-05-2.39320E-06 0.00000E+00
 -1       546 3.74159E-05-2.74158E-06 0.00000E+00
 -1       547 3.77905E-05-2.95969E-06-6.61744E-24
 -1       548 3.81648E-05-2.98480E-06-1.32349E-23
 -1       549 3.85366E-05-2.75348E-06 0.00000E+00
 -1       550 3.89087E-05-2.20141E-06 0.00000E+00
 -1       551 3.05920E-05-5.62139E-06 4.13590E-24
 -1       552 2.75176E-05-5.73383E-06 1.03398E-24
 -1       553 2.42554E-05-5.84567E-06 3.30872E-24
 -1       554 2.09495E-05-5.95781E-06 0.00000E+00
 -1       555 1.77438E-05-6.07113E-06 6.61744E-24
 -1       556 3.23869E-05-3.89357E-06-1.32349E-23
 -1       557 3.15939E-05-2.70961E-06-1.32349E-23
 -1       558 3.09416E-05-1.90083E-06 0.00000E+00
 -1       559 3.04099E-05-1.41365E-06-6.61744E-24
 -1       560 2.99788E-05-1.19435E-06 0.00000E+00
 -1       561 2.96279E-05-1.18888E-06-6.61744E-24
 -1       562 2.93370E-05-1.34312E-06 1.32349E-23
 -1       563 2.90856E-05-1.60289E-06-6.61744E-24
 -1       564 2.88534E-05-1.91396E-06 0.00000E+00
 -1       565 2.86202E-05-2.22209E-06-3.30872E-24
 -1       566 2.83657E-05-2.47304E-06 6.61744E-24
 -1       567 2.80695E-05-2.61257E-06 0.00000E+00
 -1       568 2.77115E-05-2.58648E-06 6.61744E-24
 -1       569 2.72721E-05-2.34063E-06-2.48154E-24
 -1       570 2.67319E-05-1.82098E-06 3.30872E-24
 -1       571 3.95272E-05-3.85107E-07 2.06795E-25
 -1       572 3.98018E-05 2.24637E-07 0.00000E+00
 -1       573 4.00792E-05 6.09062E-07-3.30872E-24
 -1       574 4.03581E-05 8.13268E-07-3.30872E-24
 -1       575 4.06375E-05 8.82426E-07 0.00000E+00
 -1       576 4.09172E-05 8.61878E-07-3.30872E-24
 -1       577 4.11970E-05 7.96959E-07 0.00000E+00
 -1       578 4.14769E-05 7.33017E-07 6.61744E-24
 -1       579 4.17568E-05 7.15394E-07 0.00000E+00
 -1       580 4.20366E-05 7.89453E-07-6.61744E-24
 -1       581 4.23164E-05 1.00056E-06 0.00000E+00
 -1       582 4.25961E-05 1.39410E-06 0.00000E+00
 -1       583 4.28755E-05 2.01547E-06-1.32349E-23
 -1       584 4.31543E-05 2.90985E-06 0.00000E+00
 -1       585 4.34322E-05 4.12237E-06-1.32349E-23
 -1       586 3.73835E-05-1.21460E-06 0.00000E+00
 -1       587 3.51618E-05-1.16432E-06 0.00000E+00
 -1       588 3.27587E-05-1.11412E-06-1.65436E-24
 -1       589 3.03363E-05-1.06448E-06 0.00000E+00
 -1       590 2.80566E-05-1.01598E-06 0.00000E+00
 -1       591 3.87032E-05-3.46773E-07 0.00000E+00
 -1       592 3.82009E-05 3.83913E-07 0.00000E+00
 -1       593 3.77552E-05 9.58591E-07 0.00000E+00
 -1       594 3.73562E-05 1.40607E-06 3.30872E-24
 -1       595 3.69938E-05 1.75518E-06-6.61744E-24
 -1       596 3.66574E-05 2.03471E-06 0.00000E+00
 -1       597 3.63362E-05 2.27343E-06-6.61744E-24
 -1       598 3.60194E-05 2.50011E-06 0.00000E+00
 -1       599 3.56965E-05 2.74353E-06-6.61744E-24
 -1       600 3.53564E-05 3.03245E-06 3.30872E-24
 -1       601 3.49886E-05 3.39563E-06 0.00000E+00
 -1       602 3.45823E-05 3.86186E-06 0.00000E+00
 -1       603 3.41269E-05 4.45990E-06 3.30872E-24
 -1       604 3.36127E-05 5.21860E-06 1.38294E-24
 -1       605 3.30299E-05 6.16685E-06 1.65436E-24
 -1       606 4.37841E-05 7.75194E-06 6.61744E-24
 -1       607 4.38541E-05 1.00144E-05-6.61744E-24
 -1       608 4.39222E-05 1.24703E-05-6.61744E-24
 -1       609 4.39890E-05 1.51056E-05 0.00000E+00
 -1       610 4.40551E-05 1.79063E-05 0.00000E+00
 -1       611 4.41207E-05 2.08579E-05 0.00000E+00
 -1       612 4.41859E-05 2.39464E-05 0.00000E+00
 -1       613 4.42507E-05 2.71573E-05 0.00000E+00
 -1       614 4.43151E-05 3.04765E-05 0.00000E+00
 -1       615 4.43792E-05 3.38897E-05 0.00000E+00
 -1       616 4.44430E-05 3.73827E-05-3.30872E-24
 -1       617 4.45066E-05 4.09411E-05 0.00000E+00
 -1       618 4.45699E-05 4.45508E-05 0.00000E+00
 -1       619 4.46331E-05 4.81976E-05 0.00000E+00
 -1       620 4.46959E-05 5.18671E-05 0.00000E+00
 -1       621 4.16812E-05 5.96913E-06-6.61744E-24
 -1       622 3.96620E-05 6.24487E-06 0.00000E+00
 -1       623 3.76858E-05 6.52087E-06-6.61744E-24
 -1       624 3.57891E-05 6.79625E-06 0.00000E+00
 -1       625 3.40083E-05 7.06996E-06 3.30872E-24
 -1       626 4.30751E-05 7.84921E-06 0.00000E+00
 -1       627 4.23526E-05 1.02334E-05-1.32349E-23
 -1       628 4.15507E-05 1.28259E-05 0.00000E+00
 -1       629 4.06790E-05 1.56021E-05-3.30872E-24
 -1       630 3.97470E-05 1.85375E-05 6.61744E-24
 -1       631 3.87643E-05 2.16070E-05-3.30872E-24
 -1       632 3.77401E-05 2.47859E-05-6.61744E-24
 -1       633 3.66840E-05 2.80492E-05 0.00000E+00
 -1       634 3.56053E-05 3.13723E-05 0.00000E+00
 -1       635 3.45134E-05 3.47300E-05-3.30872E-24
 -1       636 3.34177E-05 3.80977E-05 0.00000E+00
 -1       637 3.23275E-05 4.14506E-05 1.65436E-24
 -1       638 3.12521E-05 4.47636E-05 0.00000E+00
 -1       639 3.02005E-05 4.80119E-05-1.65436E-24
 -1       640 2.91815E-05 5.11706E-05 2.48154E-24
 -1       641 4.47574E-05 5.92694E-05 0.00000E+00
 -1       642 4.47549E-05 6.31505E-05 2.06795E-25
 -1       643 4.47519E-05 6.71663E-05 0.00000E+00
 -1       644 4.47482E-05 7.12946E-05 0.00000E+00
 -1       645 4.47441E-05 7.55131E-05 0.00000E+00
 -1       646 4.47397E-05 7.97995E-05 0.00000E+00
 -1       647 4.47351E-05 8.41315E-05 2.06795E-25
 -1       648 4.47303E-05 8.84868E-05 0.00000E+00
 -1       649 4.47255E-05 9.28431E-05 1.03398E-25
 -1       650 4.47208E-05 9.71782E-05 0.00000E+00
 -1       651 4.47163E-05 1.01470E-04 5.16988E-26
 -1       652 4.47119E-05 1.05695E-04 0.00000E+00
 -1       653 4.47077E-05 1.09833E-04 0.00000E+00
 -1       654 4.47034E-05 1.13860E-04 4.13590E-25
 -1       655 4.46996E-05 1.17755E-04 0.00000E+00
 -1       656 4.14191E-05 5.53292E-05 0.00000E+00
 -1       657 3.85163E-05 5.51034E-05 0.00000E+00
 -1       658 3.58966E-05 5.48789E-05 0.00000E+00
 -1       659 3.34063E-05 5.46545E-05 1.65436E-24
 -1       660 3.08917E-05 5.44296E-05 0.00000E+00
 -1       661 4.35889E-05 5.93500E-05 3.30872E-24
 -1       662 4.23734E-05 6.33034E-05-3.30872E-24
 -1       663 4.11118E-05 6.73774E-05 0.00000E+00
 -1       664 3.98150E-05 7.15482E-05 0.00000E+00
 -1       665 3.84911E-05 7.57908E-05 0.00000E+00
 -1       666 3.71492E-05 8.00812E-05 0.00000E+00
 -1       667 3.57984E-05 8.43953E-05 0.00000E+00
 -1       668 3.44477E-05 8.87092E-05 0.00000E+00
 -1       669 3.31061E-05 9.29989E-05 0.00000E+00
 -1       670 3.17829E-05 9.72405E-05 0.00000E+00
 -1       671 3.04869E-05 1.01410E-04 0.00000E+00
 -1       672 2.92274E-05 1.05482E-04 0.00000E+00
 -1       673 2.80135E-05 1.09433E-04 0.00000E+00
 -1       674 2.68532E-05 1.13237E-04 0.00000E+00
 -1       675 2.57581E-05 1.16870E-04 3.30872E-24
 -1       676 4.11309E-05 1.21297E-04 0.00000E+00
 -1       677 3.77112E-05 1.21096E-04 3.30872E-24
 -1       678 3.43969E-05 1.20896E-04 6.61744E-24
 -1       679 3.11520E-05 1.20696E-04 0.00000E+00
 -1       680 2.79401E-05 1.20496E-04 3.30872E-24
 -1       681 9.86263E-06 9.74227E-08 0.00000E+00
 -1       682 1.00486E-05 9.90386E-07-3.30872E-24
 -1       683 1.02347E-05 1.57280E-06 0.00000E+00
 -1       684 1.04217E-05 1.89197E-06 3.30872E-24
 -1       685 1.06088E-05 1.99470E-06 6.61744E-24
 -1       686 1.07960E-05 1.92746E-06 0.00000E+00
 -1       687 1.09833E-05 1.73639E-06 6.61744E-24
 -1       688 1.11706E-05 1.46742E-06 0.00000E+00
 -1       689 1.13578E-05 1.16635E-06-6.61744E-24
 -1       690 1.15450E-05 8.78922E-07 3.30872E-24
 -1       691 1.17321E-05 6.50908E-07 0.00000E+00
 -1       692 1.19188E-05 5.28172E-07 0.00000E+00
 -1       693 1.21053E-05 5.56769E-07 0.00000E+00
 -1       694 1.22900E-05 7.83008E-07 0.00000E+00
 -1       695 1.24748E-05 1.25358E-06 1.65436E-24
 -1       696 8.11431E-06-9.66582E-07 3.30872E-24
 -1       697 6.41115E-06-7.74507E-07 3.30872E-24
 -1       698 4.66018E-06-5.82549E-07 0.00000E+00
 -1       699 2.94932E-06-3.89411E-07 0.00000E+00
 -1       700 1.36660E-06-1.95995E-07-6.61744E-24
 -1       701 9.00538E-06 8.14256E-08 0.00000E+00
 -1       702 8.41970E-06 1.04032E-06 1.65436E-24
 -1       703 7.92600E-06 1.75559E-06 0.00000E+00
 -1       704 7.51133E-06 2.25533E-06 0.00000E+00
 -1       705 7.16617E-06 2.56939E-06 6.61744E-24
 -1       706 6.87924E-06 2.72743E-06-3.30872E-24
 -1       707 6.63948E-06 2.75958E-06 6.61744E-24
 -1       708 6.43551E-06 2.69615E-06 0.00000E+00
 -1       709 6.25594E-06 2.56766E-06-6.61744E-24
 -1       710 6.08931E-06 2.40477E-06-3.30872E-24
 -1       711 5.92413E-06 2.23823E-06 0.00000E+00
 -1       712 5.74908E-06 2.09885E-06 0.00000E+00
 -1       713 5.55256E-06 2.01725E-06 0.00000E+00
 -1       714 5.32461E-06 2.02456E-06 1.65436E-24
 -1       715 5.05181E-06 2.15039E-06 0.00000E+00
 -1       716 1.27722E-05 2.58863E-06-7.36708E-25
 -1       717 1.29072E-05 2.54907E-06 0.00000E+00
 -1       718 1.30418E-05 1.99778E-06 0.00000E+00
 -1       719 1.31777E-05 1.03565E-06 0.00000E+00
 -1       720 1.33135E-05-2.37051E-07 0.00000E+00
 -1       721 1.34493E-05-1.72042E-06 0.00000E+00
 -1       722 1.35850E-05-3.31481E-06 3.30872E-24
 -1       723 1.37207E-05-4.92076E-06 0.00000E+00
 -1       724 1.38565E-05-6.43877E-06 3.30872E-24
 -1       725 1.39925E-05-7.76924E-06 0.00000E+00
 -1       726 1.41287E-05-8.81238E-06 0.00000E+00
 -1       727 1.42647E-05-9.46797E-06 0.00000E+00
 -1       728 1.44004E-05-9.63532E-06-3.30872E-24
 -1       729 1.45334E-05-9.21314E-06-1.65436E-24
 -1       730 1.46661E-05-8.09932E-06 0.00000E+00
 -1       731 1.14555E-05 2.07807E-06 3.10193E-25
 -1       732 9.94664E-06 2.14752E-06 0.00000E+00
 -1       733 8.32023E-06 2.21668E-06 0.00000E+00
 -1       734 6.77615E-06 2.28701E-06-8.27181E-25
 -1       735 5.51431E-06 2.35787E-06 0.00000E+00
 -1       736 1.18764E-05 2.59366E-06 0.00000E+00
 -1       737 1.12048E-05 2.85502E-06 6.61744E-24
 -1       738 1.06376E-05 2.84003E-06 0.00000E+00
 -1       739 1.01581E-05 2.58323E-06 6.61744E-24
 -1       740 9.75472E-06 2.12241E-06 0.00000E+00
 -1       741 9.41308E-06 1.49556E-06 0.00000E+00
 -1       742 9.11888E-06 7.41766E-07 0.00000E+00
 -1       743 8.85728E-06-9.93475E-08 6.61744E-24
 -1       744 8.61333E-06-9.87634E-07 0.00000E+00
 -1       745 8.37198E-06-1.88269E-06-6.61744E-24
 -1       746 8.11814E-06-2.74413E-06 0.00000E+00
 -1       747 7.83703E-06-3.53161E-06 0.00000E+00
 -1       748 7.51361E-06-4.20535E-06-1.32349E-23
 -1       749 7.13514E-06-4.72544E-06-6.61744E-24
 -1       750 6.68457E-06-5.05445E-06-1.32349E-23
 -1       751 1.54428E-05-4.15667E-06 6.61744E-24
 -1       752 1.61481E-05-2.68645E-06 0.00000E+00
 -1       753 1.68533E-05-1.70202E-06-1.32349E-23
 -1       754 1.75651E-05-1.12767E-06-1.32349E-23
 -1       755 1.82781E-05-8.90356E-07 2.64698E-23
 -1       756 1.89922E-05-9.19358E-07 0.00000E+00
 -1       757 1.97067E-05-1.14564E-06 2.64698E-23
 -1       758 2.04213E-05-1.50156E-06 0.00000E+00
 -1       759 2.11359E-05-1.92028E-06 2.64698E-23
 -1       760 2.18504E-05-2.33540E-06 0.00000E+00
 -1       761 2.25646E-05-2.68052E-06-2.64698E-23
 -1       762 2.32779E-05-2.88872E-06 0.00000E+00
 -1       763 2.39905E-05-2.89223E-06 0.00000E+00
 -1       764 2.46978E-05-2.62188E-06 0.00000E+00
 -1       765 2.54056E-05-2.00669E-06 0.00000E+00
 -1       766 1.25312E-05-6.03275E-06-1.65436E-24
 -1       767 1.05459E-05-5.85453E-06-8.27181E-25
 -1       768 8.87002E-06-5.67647E-06 1.65436E-24
 -1       769 7.54967E-06-5.49711E-06 0.00000E+00
 -1       770 6.63163E-06-5.31659E-06 0.00000E+00
 -1       771 1.33217E-05-4.32284E-06 0.00000E+00
 -1       772 1.19662E-05-2.78161E-06-1.32349E-23
 -1       773 1.07190E-05-1.53820E-06 5.29396E-23
 -1       774 9.57149E-06-5.65390E-07 0.00000E+00
 -1       775 8.51487E-06 1.64082E-07 0.00000E+00
 -1       776 7.53915E-06 6.77505E-07 0.00000E+00
 -1       777 6.63420E-06 1.00225E-06-2.64698E-23
 -1       778 5.78975E-06 1.16578E-06-2.64698E-23
 -1       779 4.99550E-06 1.19566E-06 0.00000E+00
 -1       780 4.24108E-06 1.11953E-06 0.00000E+00
 -1       781 3.51617E-06 9.65096E-07 0.00000E+00
 -1       782 2.81054E-06 7.60174E-07 0.00000E+00
 -1       783 2.11401E-06 5.32613E-07-2.64698E-23
 -1       784 1.41740E-06 3.10603E-07 0.00000E+00
 -1       785 7.11735E-07 1.22388E-07 1.32349E-23
 -1       786 2.64512E-05 1.53580E-07 0.00000E+00
 -1       787 2.68443E-05 1.01679E-06-3.30872E-24
 -1       788 2.72372E-05 1.65670E-06-1.32349E-23
 -1       789 2.76334E-05 2.11326E-06 6.61744E-24
 -1       790 2.80301E-05 2.42574E-06 0.00000E+00
 -1       791 2.84274E-05 2.63287E-06 0.00000E+00
 -1       792 2.88249E-05 2.77300E-06 0.00000E+00
 -1       793 2.92225E-05 2.88423E-06 6.61744E-24
 -1       794 2.96201E-05 3.00455E-06 0.00000E+00
 -1       795 3.00177E-05 3.17198E-06-6.61744E-24
 -1       796 3.04151E-05 3.42472E-06 1.32349E-23
 -1       797 3.08121E-05 3.80130E-06 0.00000E+00
 -1       798 3.12088E-05 4.34068E-06 0.00000E+00
 -1       799 3.16032E-05 5.08244E-06 6.61744E-24
 -1       800 3.19978E-05 6.06691E-06 0.00000E+00
 -1       801 2.31804E-05-8.10594E-07 0.00000E+00
 -1       802 1.81979E-05-6.43763E-07 0.00000E+00
 -1       803 1.22599E-05-4.82081E-07 0.00000E+00
 -1       804 6.49490E-06-3.20922E-07 1.03398E-25
 -1       805 2.03190E-06-1.53505E-07 0.00000E+00
 -1       806 2.52897E-05 1.46288E-08 1.32349E-23
 -1       807 2.45447E-05 8.46464E-07 6.61744E-24
 -1       808 2.38448E-05 1.55073E-06 1.32349E-23
 -1       809 2.31813E-05 2.15401E-06 0.00000E+00
 -1       810 2.25454E-05 2.68288E-06 0.00000E+00
 -1       811 2.19272E-05 3.16379E-06 0.00000E+00
 -1       812 2.13169E-05 3.62317E-06-1.32349E-23
 -1       813 2.07049E-05 4.08743E-06-6.61744E-24
 -1       814 2.00810E-05 4.58299E-06 0.00000E+00
 -1       815 1.94355E-05 5.13625E-06-6.61744E-24
 -1       816 1.87585E-05 5.77360E-06 1.32349E-23
 -1       817 1.80403E-05 6.52141E-06 3.30872E-24
 -1       818 1.72711E-05 7.40605E-06 6.61744E-24
 -1       819 1.64423E-05 8.45401E-06 3.30872E-24
 -1       820 1.55452E-05 9.69177E-06 3.30872E-24
 -1       821 3.21345E-05 8.95285E-06-3.30872E-24
 -1       822 3.18757E-05 1.09111E-05 0.00000E+00
 -1       823 3.16166E-05 1.31764E-05-6.61744E-24
 -1       824 3.13546E-05 1.57141E-05 3.30872E-24
 -1       825 3.10918E-05 1.84892E-05 6.61744E-24
 -1       826 3.08280E-05 2.14658E-05 0.00000E+00
 -1       827 3.05636E-05 2.46076E-05 6.61744E-24
 -1       828 3.02987E-05 2.78781E-05 3.30872E-24
 -1       829 3.00336E-05 3.12403E-05-6.61744E-24
 -1       830 2.97683E-05 3.46569E-05 0.00000E+00
 -1       831 2.95030E-05 3.80908E-05 6.61744E-24
 -1       832 2.92382E-05 4.15045E-05 3.30872E-24
 -1       833 2.89738E-05 4.48606E-05-6.61744E-24
 -1       834 2.87114E-05 4.81222E-05-3.30872E-24
 -1       835 2.84493E-05 5.12521E-05 0.00000E+00
 -1       836 3.02687E-05 7.95904E-06 0.00000E+00
 -1       837 2.72458E-05 8.60404E-06 0.00000E+00
 -1       838 2.37390E-05 9.24648E-06 0.00000E+00
 -1       839 2.01749E-05 9.88785E-06 0.00000E+00
 -1       840 1.69800E-05 1.05315E-05-6.61744E-24
 -1       841 3.16716E-05 8.93318E-06-2.06795E-25
 -1       842 3.08185E-05 1.08959E-05 0.00000E+00
 -1       843 2.98419E-05 1.31865E-05 1.65436E-24
 -1       844 2.87557E-05 1.57640E-05-1.65436E-24
 -1       845 2.75761E-05 1.85881E-05 0.00000E+00
 -1       846 2.63186E-05 2.16178E-05-1.65436E-24
 -1       847 2.49987E-05 2.48119E-05 0.00000E+00
 -1       848 2.36323E-05 2.81292E-05 0.00000E+00
 -1       849 2.22348E-05 3.15281E-05 3.30872E-24
 -1       850 2.08222E-05 3.49672E-05 0.00000E+00
 -1       851 1.94101E-05 3.84047E-05 0.00000E+00
 -1       852 1.80144E-05 4.17992E-05 0.00000E+00
 -1       853 1.66507E-05 4.51091E-05 0.00000E+00
 -1       854 1.53350E-05 4.82929E-05 0.00000E+00
 -1       855 1.40825E-05 5.13092E-05 0.00000E+00
 -1       856 2.79955E-05 5.72848E-05 0.00000E+00
 -1       857 2.77812E-05 6.07296E-05 0.00000E+00
 -1       858 2.75659E-05 6.45001E-05 0.00000E+00
 -1       859 2.73481E-05 6.85471E-05-3.30872E-24
 -1       860 2.71292E-05 7.28207E-05 0.00000E+00
 -1       861 2.69093E-05 7.72707E-05 0.00000E+00
 -1       862 2.66887E-05 8.18465E-05-6.61744E-24
 -1       863 2.64678E-05 8.64973E-05 0.00000E+00
 -1       864 2.62468E-05 9.11721E-05 6.61744E-24
 -1       865 2.60259E-05 9.58199E-05 0.00000E+00
 -1       866 2.58054E-05 1.00390E-04 0.00000E+00
 -1       867 2.55857E-05 1.04831E-04 3.30872E-24
 -1       868 2.53668E-05 1.09092E-04 0.00000E+00
 -1       869 2.51497E-05 1.13124E-04 3.30872E-24
 -1       870 2.49336E-05 1.16877E-04 0.00000E+00
 -1       871 2.55272E-05 5.41999E-05 0.00000E+00
 -1       872 2.29581E-05 5.41848E-05 0.00000E+00
 -1       873 2.04523E-05 5.41694E-05 0.00000E+00
 -1       874 1.79692E-05 5.41537E-05 4.13590E-25
 -1       875 1.54684E-05 5.41371E-05-8.27181E-25
 -1       876 2.73146E-05 5.73485E-05 0.00000E+00
 -1       877 2.63214E-05 6.08027E-05-3.30872E-24
 -1       878 2.52243E-05 6.45304E-05 0.00000E+00
 -1       879 2.40407E-05 6.84910E-05 3.30872E-24
 -1       880 2.27846E-05 7.26433E-05 0.00000E+00
 -1       881 2.14712E-05 7.69472E-05 0.00000E+00
 -1       882 2.01155E-05 8.13631E-05 0.00000E+00
 -1       883 1.87322E-05 8.58516E-05 0.00000E+00
 -1       884 1.73361E-05 9.03735E-05 0.00000E+00
 -1       885 1.59422E-05 9.48900E-05 3.30872E-24
 -1       886 1.45650E-05 9.93619E-05 6.61744E-24
 -1       887 1.32193E-05 1.03750E-04 0.00000E+00
 -1       888 1.19201E-05 1.08015E-04 0.00000E+00
 -1       889 1.06807E-05 1.12116E-04-3.30872E-24
 -1       890 9.51874E-06 1.16015E-04-3.30872E-24
 -1       891 2.17637E-05 1.20195E-04-3.30872E-24
 -1       892 1.91573E-05 1.20089E-04 1.65436E-24
 -1       893 1.67136E-05 1.19983E-04 3.30872E-24
 -1       894 1.42403E-05 1.19877E-04 0.00000E+00
 -1       895 1.15451E-05 1.19770E-04 0.00000E+00
 -1       896 2.94093E-07 1.06101E-06-6.61744E-24
 -1       897 5.90648E-07 1.85154E-06 0.00000E+00
 -1       898 8.87321E-07 2.40490E-06 6.61744E-24
 -1       899 1.18443E-06 2.75389E-06 0.00000E+00
 -1       900 1.48162E-06 2.93075E-06 0.00000E+00
 -1       901 1.77889E-06 2.96721E-06 0.00000E+00
 -1       902 2.07618E-06 2.89466E-06 6.61744E-24
 -1       903 2.37345E-06 2.74415E-06-3.30872E-24
 -1       904 2.67070E-06 2.54653E-06 6.61744E-24
 -1       905 2.96790E-06 2.33251E-06 3.30872E-24
 -1       906 3.26501E-06 2.13277E-06 6.61744E-24
 -1       907 3.56186E-06 1.97801E-06-3.30872E-24
 -1       908 3.85850E-06 1.89906E-06 0.00000E+00
 -1       909 4.15362E-06 1.92697E-06-3.30872E-24
 -1       910 4.44892E-06 2.09310E-06 0.00000E+00
 -1       911 4.82368E-06 2.70937E-06 0.00000E+00
 -1       912 4.91420E-06 2.71463E-06 8.27181E-25
 -1       913 5.00467E-06 2.48251E-06 3.30872E-24
 -1       914 5.09526E-06 2.05066E-06 0.00000E+00
 -1       915 5.18579E-06 1.45653E-06 0.00000E+00
 -1       916 5.27628E-06 7.37447E-07 0.00000E+00
 -1       917 5.36671E-06-6.93625E-08 0.00000E+00
 -1       918 5.45709E-06-9.26768E-07 1.65436E-24
 -1       919 5.54744E-06-1.79766E-06 3.30872E-24
 -1       920 5.63774E-06-2.64494E-06 0.00000E+00
 -1       921 5.72801E-06-3.43151E-06-3.30872E-24
 -1       922 5.81805E-06-4.12020E-06-1.65436E-24
 -1       923 5.90794E-06-4.67376E-06 0.00000E+00
 -1       924 5.99630E-06-5.05485E-06 0.00000E+00
 -1       925 6.08491E-06-5.22595E-06 0.00000E+00
 -1       926 5.78809E-06-4.91263E-06 0.00000E+00
 -1       927 5.40347E-06-4.64461E-06 6.61744E-24
 -1       928 5.01904E-06-4.34948E-06 0.00000E+00
 -1       929 4.63311E-06-4.03140E-06-6.61744E-24
 -1       930 4.24697E-06-3.69458E-06 0.00000E+00
 -1       931 3.86056E-06-3.34334E-06 0.00000E+00
 -1       932 3.47407E-06-2.98202E-06 1.32349E-23
 -1       933 3.08752E-06-2.61501E-06 6.61744E-24
 -1       934 2.70095E-06-2.24672E-06 0.00000E+00
 -1       935 2.31439E-06-1.88156E-06 0.00000E+00
 -1       936 1.92785E-06-1.52393E-06 1.32349E-23
 -1       937 1.54140E-06-1.17821E-06 0.00000E+00
 -1       938 1.15500E-06-8.48719E-07 1.32349E-23
 -1       939 7.69064E-07-5.39738E-07-6.61744E-24
 -1       940 3.83079E-07-2.55471E-07-1.32349E-23
 -1       941 8.59433E-07 2.35650E-07 0.00000E+00
 -1       942 1.77089E-06 4.75253E-07 0.00000E+00
 -1       943 2.68140E-06 7.29908E-07 0.00000E+00
 -1       944 3.59988E-06 1.01086E-06 0.00000E+00
 -1       945 4.51948E-06 1.32956E-06 0.00000E+00
 -1       946 5.44054E-06 1.69781E-06-1.32349E-23
 -1       947 6.36197E-06 2.12783E-06 2.64698E-23
 -1       948 7.28362E-06 2.63235E-06-1.32349E-23
 -1       949 8.20526E-06 3.22476E-06 0.00000E+00
 -1       950 9.12665E-06 3.91923E-06 0.00000E+00
 -1       951 1.00477E-05 4.73073E-06 2.64698E-23
 -1       952 1.09674E-05 5.67533E-06 0.00000E+00
 -1       953 1.18861E-05 6.77017E-06-2.64698E-23
 -1       954 1.27983E-05 8.03371E-06 0.00000E+00
 -1       955 1.37110E-05 9.48586E-06 1.32349E-23
 -1       956 1.44819E-05 1.30764E-05 0.00000E+00
 -1       957 1.43791E-05 1.51879E-05 8.27181E-25
 -1       958 1.42755E-05 1.74660E-05-8.27181E-25
 -1       959 1.41714E-05 1.98932E-05-4.13590E-25
 -1       960 1.40669E-05 2.24515E-05-2.17135E-24
 -1       961 1.39621E-05 2.51231E-05 8.27181E-25
 -1       962 1.38571E-05 2.78900E-05-8.27181E-25
 -1       963 1.37518E-05 3.07343E-05-8.27181E-25
 -1       964 1.36464E-05 3.36380E-05 1.65436E-24
 -1       965 1.35408E-05 3.65830E-05-1.65436E-24
 -1       966 1.34352E-05 3.95515E-05 0.00000E+00
 -1       967 1.33296E-05 4.25255E-05 1.65436E-24
 -1       968 1.32241E-05 4.54869E-05-3.30872E-24
 -1       969 1.31188E-05 4.84179E-05 1.65436E-24
 -1       970 1.30138E-05 5.13005E-05 3.30872E-24
 -1       971 1.26420E-05 5.70508E-05 0.00000E+00
 -1       972 1.23649E-05 6.03590E-05 3.30872E-24
 -1       973 1.20869E-05 6.39968E-05-6.61744E-24
 -1       974 1.18066E-05 6.79183E-05 3.30872E-24
 -1       975 1.15253E-05 7.20763E-05 0.00000E+00
 -1       976 1.12429E-05 7.64235E-05-3.30872E-24
 -1       977 1.09599E-05 8.09119E-05-6.61744E-24
 -1       978 1.06764E-05 8.54932E-05 0.00000E+00
 -1       979 1.03928E-05 9.01187E-05 0.00000E+00
 -1       980 1.01092E-05 9.47398E-05 3.30872E-24
 -1       981 9.82594E-06 9.93078E-05-6.61744E-24
 -1       982 9.54339E-06 1.03774E-04-3.30872E-24
 -1       983 9.26169E-06 1.08091E-04 6.61744E-24
 -1       984 8.98234E-06 1.12210E-04 0.00000E+00
 -1       985 8.70373E-06 1.16083E-04 0.00000E+00
 -3
    1PSTEP                         2           1           1          
  100CL  101 1.000000000         841                     0    1           1
 -4  STRESS      6    1
 -5  SXX         1    4    1    1
 -5  SYY         1    4    2    2
 -5  SZZ         1    4    3    3
 -5  SXY         1    4    1    2
 -5  SYZ         1    4    2    3
 -5  SZX         1    4    3    1
 -1         1-2.35580E+06-7.06972E+05-3.15084E+05-8.34188E+05 8.97368E-11 4.64691E-09
 -1         2-1.46930E+06-9.17109E+03 2.52789E+03-1.59516E+05-1.87356E-10-9.94987E-10
 -1         3-6.38711E+05-3.40741E+05-1.58981E+02-9.25738E+04-1.73358E-10-1.58988E-09
 -1         4-1.74300E+05-8.83492E+04 2.58490E+02-3.61672E+04-3.60956E-11 2.70666E-09
 -1         5 9.84899E+03 5.51706E+05-1.14544E+05-1.17215E+03 1.41881E-09 2.59854E-09
 -1         8-8.65686E+05-4.49899E+05-8.60324E+04-6.83125E+05 3.18323E-10 1.20781E-09
 -1         9-1.25925E+06-2.39868E+05-1.37864E+05-4.34602E+05 9.33748E-10-2.20704E-10
 -1        10-7.08450E+05-5.12282E+05-2.35883E+02-2.93970E+05 8.26124E-10-8.00355E-10
 -1        11-2.93938E+05-1.50346E+05 1.22536E+02-1.52832E+05-1.07078E-09 2.25433E-09
 -1        12-4.98646E+04 5.28686E+05-1.22428E+05-3.09438E+04 3.14139E-09 2.47719E-09
 -1        15-8.92252E+01-3.61947E+04 2.01186E+03-2.09151E+05 6.09361E-11-5.23869E-10
 -1        16-7.06472E+05-2.07063E+05-8.78746E+04-4.07470E+05 1.26662E-09-2.40349E-09
 -1        17-4.62501E+05-4.04082E+05-3.32003E+04-4.23227E+05-1.76260E-09-4.19580E-10
 -1        18-1.01437E+05-1.18777E+05-4.75242E+04-3.14634E+05-1.77897E-09 1.83475E-09
 -1        19 8.31816E+04 2.69900E+05-5.70863E+04-6.18289E+04-8.51590E-10-2.85278E-09
 -1        20 1.60230E+05-1.13092E+05-1.68943E+04 9.09254E+04 2.43281E-08-2.25555E-09
 -1        21-2.70167E+04-2.48861E+05-1.15869E+03 1.83414E+04 3.23671E-08-5.17267E-09
 -1        22 3.27826E+04 1.82243E+05 8.72386E+02-6.76951E+04 1.12777E-10-9.44056E-10
 -1        23-2.54471E+05-1.79431E+04 1.78404E+03-2.04270E+05 2.90280E-10-6.29522E-10
 -1        24-2.48833E+05-3.55127E+04 1.03006E+05-3.74535E+05 1.70136E-09-1.70742E-09
 -1        25 3.35557E+05 1.54667E+05 1.52117E+05-3.60010E+05 2.30708E-09 6.11180E-10
 -1        26 3.11395E+04 3.78099E+05 3.72395E+04-1.10868E+05 2.17369E-09 1.27693E-09
 -1        27-8.99278E+04-9.80207E+04-4.70337E+04 1.17692E+05 1.92713E-08-1.75472E-09
 -1        28-2.26106E+04-1.70270E+05-1.38965E+03 8.59018E+04 1.49528E-08 9.30223E-10
 -1        29 4.09605E+05 2.95471E+05 1.07417E+03-3.70683E+04 5.37739E-11 9.15406E-10
 -1        30 1.51509E+05 3.63436E+04 1.23584E+03-7.70595E+04 3.03334E-10 3.25599E-10
 -1        31-4.76102E+05 3.85206E+04 2.65203E+03-1.16657E+05 4.01979E-10 2.16460E-10
 -1        32 7.61699E+04 2.24533E+05 2.40682E+05-3.32541E+05-1.40246E-09 2.04454E-09
 -1        33 5.04718E+05 5.56102E+05 2.44167E+05-1.41036E+05 3.21172E-09 1.73713E-10
 -1        34-3.29001E+05-5.58800E+04-3.10127E+04 4.61312E+04-7.94525E-09-8.26731E-10
 -1        35-4.57540E+04-5.50365E+04-1.07392E+03 1.17607E+05 2.05238E-08 5.34298E-09
 -1        36-3.21297E+06 3.88749E+04-1.58254E+05-1.39298E-08 3.23222E-10-1.06957E-09
 -1        37-3.27054E+06-5.15565E+04-1.02061E+05 7.36300E-08-1.33168E-09 6.73754E-09
 -1        38-3.23697E+06 4.10779E+03-4.10113E+04-2.40948E-08 7.21803E-10 6.99947E-09
 -1        39-3.24360E+06-5.26620E+03-2.30581E+04-1.41849E-08-1.35256E-09-9.84073E-10
 -1        40-3.23975E+06 4.50509E+02-1.04955E+04 3.77469E-09 6.58356E-10-5.36966E-09
 -1        41-3.24043E+06-5.36702E+02-5.78708E+03-1.12647E-08-8.95061E-10-1.74623E-09
 -1        42-3.24010E+06 6.00152E+01-3.22870E+03 1.69141E-08 7.47259E-11 3.79453E-09
 -1        43-3.24007E+06-1.05092E+02-2.67129E+03 4.55140E-08-5.12281E-10-2.20645E-09
 -1        44-3.24010E+06 6.05431E+01-3.25107E+03 3.22700E-09-3.45914E-10 3.79032E-10
 -1        45-3.24043E+06-5.42789E+02-5.84630E+03-9.24359E-10-8.59151E-11 3.47427E-09
 -1        46-3.23974E+06 4.55694E+02-1.06129E+04-1.44684E-08-1.12938E-10 3.47063E-09
 -1        47-3.24364E+06-5.32695E+03-2.33223E+04 1.74825E-08-1.02692E-09-3.01952E-10
 -1        48-3.23694E+06 4.15515E+03-4.14837E+04-1.44922E-08-6.65374E-10 4.95129E-09
 -1        49-3.27090E+06-5.21517E+04-1.03238E+05-1.79061E-08 2.57891E-09 1.06393E-08
 -1        50-3.21265E+06 3.93235E+04-1.60080E+05-8.98217E-09-7.32932E-10 2.04454E-09
 -1        51 4.80255E+04-4.74998E+05 1.04886E+05-1.06800E+06 2.91038E-10 2.91038E-10
 -1        52 2.07549E+04-4.63230E+05 5.74053E+04-1.24082E+06 5.60249E-10-8.78936E-09
 -1        53 9.30295E+03-4.84316E+05 3.26466E+04-1.06420E+06 4.51109E-10 6.69388E-09
 -1        54 1.96260E+04-4.84950E+05 3.30302E+04-1.24461E+06 2.76486E-10-1.85901E-09
 -1        55 3.25922E+04-4.95770E+05 4.68870E+04-1.06372E+06 8.73115E-11-2.83762E-10
 -1        56-3.82200E+06-4.81257E+05-2.51741E+05-1.46588E+06 9.82254E-10-1.35187E-08
 -1        57-3.90881E+06-6.55547E+05-1.60033E+05-1.46883E+06-1.05047E-09-9.57334E-09
 -1        58-3.86640E+06-5.41049E+05-5.93382E+04-1.45819E+06-7.13953E-10 3.07409E-09
 -1        59-3.85759E+06-5.79114E+05-3.28768E+04-1.48076E+06 8.11724E-11 1.71076E-09
 -1        60-3.87153E+06-5.47707E+05-1.38316E+04-1.45756E+06 4.99313E-10-3.15868E-09
 -1        61-3.85207E+06-5.70327E+05-7.45664E+03-1.48118E+06 6.00267E-10 1.50266E-10
 -1        62-3.87169E+06-5.48962E+05-3.98376E+03-1.45806E+06-4.58840E-10-8.85473E-09
 -1        63-3.85276E+06-5.68197E+05-3.46391E+03-1.47959E+06-2.12049E-09 2.87741E-10
 -1        64-3.87076E+06-5.49896E+05-4.57997E+03-1.45909E+06 4.82942E-10 3.11866E-09
 -1        65-3.85568E+06-5.67038E+05-9.06152E+03-1.47691E+06 1.00863E-09 9.70363E-09
 -1        66-3.86863E+06-5.50285E+05-1.71106E+04-1.46061E+06 1.70303E-09 3.87263E-09
 -1        67-3.86584E+06-5.74447E+05-4.07043E+04-1.47229E+06-2.26987E-09 2.61934E-09
 -1        68-3.86061E+06-5.43650E+05-7.35976E+04-1.46322E+06 1.95541E-10-3.92902E-10
 -1        69-3.93220E+06-6.66242E+05-1.98365E+05-1.45412E+06-2.13277E-10-4.07454E-09
 -1        70-3.80424E+06-4.70802E+05-3.12079E+05-1.47419E+06 3.38332E-09 2.83762E-09
 -1        71-1.28533E+06-4.71028E+03 1.92278E+04-1.26897E-09 6.78194E-11-2.05182E-09
 -1        72-1.27819E+06 6.25266E+03 1.23897E+04 2.43392E-08 2.75767E-10-1.15506E-09
 -1        73-1.28241E+06-4.97602E+02 4.97426E+03-4.25753E-09 2.52588E-10 3.56977E-09
 -1        74-1.28146E+06 6.38196E+02 2.77930E+03-5.97193E-09 7.79070E-10-7.32376E-09
 -1        75-1.28207E+06-5.42384E+01 1.22956E+03-6.91212E-09-2.57890E-10-5.47971E-11
 -1        76-1.28185E+06 6.36041E+01 6.06690E+02-1.62555E-08-5.12418E-10 5.09711E-09
 -1        77-1.28203E+06-5.16476E+00 2.01418E+02-4.22371E-08 5.42596E-11 6.40088E-09
 -1        78-1.28191E+06-2.80034E+00-7.16859E+01-2.59752E-08-3.09021E-10-2.65085E-09
 -1        79-1.28201E+06 8.38694E+00-3.75278E+02-2.51779E-08 2.53209E-10-1.72349E-09
 -1        80-1.28199E+06-9.24008E+01-9.18568E+02 1.44452E-08 4.88537E-10-2.14351E-09
 -1        81-1.28195E+06 7.84224E+01-1.79524E+03-3.86795E-08 1.12849E-10 1.86560E-09
 -1        82-1.28255E+06-9.20970E+02-4.02116E+03-1.60430E-08-6.83986E-10 6.58247E-09
 -1        83-1.28146E+06 7.18114E+02-7.18270E+03-4.83651E-08-3.20579E-10 6.40966E-09
 -1        84-1.28727E+06-9.02258E+03-1.78806E+04 1.10001E-08-5.57696E-10 3.69801E-09
 -1        85-1.27724E+06 6.79780E+03-2.77415E+04-2.23054E-08 7.11924E-11 1.35515E-09
 -1        86-4.95250E+04 6.65762E+05 2.07258E+05 3.73324E+03 4.87489E-10 3.37786E-09
 -1        87 6.95299E+04 7.42974E+05 1.47881E+05 1.88305E+04 5.16593E-10 1.96815E-09
 -1        88-8.93137E+03 6.93775E+05 8.64497E+04 3.44922E+03 1.42245E-09 1.67165E-09
 -1        89 5.13242E+04 7.32600E+05 1.16470E+05 1.94666E+04 9.32232E-10 2.64117E-09
 -1        90-3.46035E+04 6.76369E+05 1.48099E+05 3.12239E+03 2.96131E-09 6.74845E-10
 -1        91-1.83215E+06-2.46761E+05-5.29173E+04-6.95081E+05-2.42835E-10 2.41562E-09
 -1        92-1.84694E+06-2.86631E+05-3.36183E+04-6.99502E+05-1.01966E-09 3.86353E-09
 -1        93-1.84151E+06-2.59269E+05-1.24855E+04-6.93448E+05 3.04453E-10-4.93856E-10
 -1        94-1.83614E+06-2.70671E+05-6.92149E+03-7.02082E+05-1.28850E-10-1.88754E-09
 -1        95-1.84263E+06-2.60627E+05-2.92198E+03-6.93275E+05 1.57729E-09 5.77757E-10
 -1        96-1.83491E+06-2.68912E+05-1.58808E+03-7.02273E+05-8.08171E-10 1.03863E-09
 -1        97-1.84271E+06-2.60834E+05-8.69894E+02-6.93326E+05 1.17768E-09-6.95650E-10
 -1        98-1.83496E+06-2.68570E+05-7.98227E+02-7.02068E+05-7.03949E-10-4.30839E-09
 -1        99-1.84257E+06-2.60964E+05-1.09670E+03-6.93476E+05 6.12999E-10-5.04792E-09
 -1       100-1.83549E+06-2.68486E+05-2.21233E+03-7.01647E+05 1.58843E-09 7.81893E-09
 -1       101-1.84216E+06-2.60953E+05-4.18635E+03-6.93725E+05-2.00998E-10 6.45286E-10
 -1       102-1.83777E+06-2.70513E+05-9.97018E+03-7.00763E+05 9.54969E-12-1.62163E-09
 -1       103-1.84030E+06-2.59233E+05-1.80185E+04-6.94239E+05 5.22391E-11 2.09002E-09
 -1       104-1.85378E+06-2.93117E+05-4.85120E+04-6.96538E+05 2.70290E-10-1.90175E-09
 -1       105-1.82660E+06-2.41376E+05-7.63719E+04-6.96815E+05 1.64073E-09-1.76442E-09
 -1       106-3.70092E+05-1.38506E+04 5.65989E+04 1.18130E-08-2.12312E-11-6.20639E-09
 -1       107-3.49381E+05 1.83913E+04 3.64743E+04-1.53173E-08-6.74088E-10 3.25963E-09
 -1       108-3.61496E+05-1.46305E+03 1.46650E+04-1.21703E-08 6.44758E-10 4.96038E-09
 -1       109-3.58990E+05 1.87680E+03 8.22143E+03 3.88928E-09-2.72206E-10-2.20189E-09
 -1       110-3.60496E+05-1.59986E+02 3.69575E+03 9.72494E-09-1.87165E-10-4.45198E-10
 -1       111-3.60124E+05 1.89156E+02 1.93857E+03 2.22993E-08 1.35810E-10 2.74102E-09
 -1       112-3.60364E+05-1.84438E+01 8.90335E+02 2.55049E-08-2.60398E-10 7.05370E-10
 -1       113-3.60281E+05 1.56953E+01 4.02759E+02 1.31401E-08 9.25406E-10-4.16305E-09
 -1       114-3.60340E+05 4.06380E-01 8.64022E+01 2.78911E-09-8.77573E-10 6.67598E-10
 -1       115-3.60329E+05-2.77987E+01-1.87160E+02 1.53126E-09 1.34296E-09 4.37794E-09
 -1       116-3.60316E+05 2.45132E+01-5.19497E+02-1.60177E-09-1.58323E-11 3.94093E-09
 -1       117-3.60510E+05-2.92082E+02-1.25169E+03 1.51282E-08-3.19296E-10 4.35875E-09
 -1       118-3.60159E+05 2.27725E+02-2.26934E+03-1.57992E-08 1.25465E-10 3.65787E-09
 -1       119-3.62007E+05-2.86326E+03-5.67188E+03 4.93969E-09-2.92916E-10 8.45830E-10
 -1       120-3.58820E+05 2.15673E+03-8.80678E+03-1.28222E-09-2.70265E-10-1.73713E-10
 -1       121 7.42412E+03-1.30626E+06-3.08701E+04-9.75325E+03-1.46792E-09-3.29783E-09
 -1       122-1.01314E+04-1.31741E+06-2.06958E+04-4.45653E+04-1.27102E-09 5.32418E-09
 -1       123 9.99987E+02-1.31076E+06-9.89231E+03-9.28777E+03-2.95131E-09 8.76116E-09
 -1       124-3.60417E+03-1.31378E+06-9.49637E+03-4.52113E+04-2.12469E-09 1.45292E-09
 -1       125 2.13162E+03-1.31006E+06-9.78391E+03-9.10769E+03-3.92902E-09 1.83354E-09
 -1       126-8.43794E+05-1.20505E+05 1.31035E+03-3.18322E+05 8.63793E-10 7.90408E-11
 -1       127-8.37215E+05-1.25628E+05 8.31909E+02-3.25204E+05-3.81533E-10 5.60505E-10
 -1       128-8.43617E+05-1.20138E+05 3.03057E+02-3.18301E+05-1.43996E-09 1.24216E-09
 -1       129-8.37422E+05-1.26090E+05 1.57730E+02-3.25221E+05 7.85874E-10-2.03455E-09
 -1       130-8.43601E+05-1.20090E+05 4.30025E+01-3.18290E+05-7.29266E-10 2.53860E-09
 -1       131-8.37461E+05-1.26131E+05-2.48915E+01-3.25210E+05-6.30294E-10 5.62194E-09
 -1       132-8.43577E+05-1.20102E+05-1.10047E+02-3.18309E+05-2.53749E-10 1.31189E-09
 -1       133-8.37544E+05-1.26091E+05-2.69120E+02-3.25134E+05-2.19188E-10-4.71772E-10
 -1       134-8.43511E+05-1.20135E+05-5.53343E+02-3.18362E+05 2.84672E-10-2.39208E-09
 -1       135-8.37791E+05-1.26131E+05-1.25513E+03-3.24977E+05 1.42677E-10-4.44288E-09
 -1       136-8.43318E+05-1.20081E+05-2.43880E+03-3.18453E+05-2.28670E-09-1.45747E-09
 -1       137-8.39018E+05-1.27432E+05-5.84306E+03-3.24584E+05-3.90628E-10-2.20632E-09
 -1       138-8.42290E+05-1.19010E+05-1.05739E+04-3.18680E+05-1.49964E-09 5.04588E-09
 -1       139-8.48268E+05-1.40816E+05-2.84599E+04-3.22254E+05-2.82000E-09-4.35375E-09
 -1       140-8.34307E+05-1.08476E+05-4.48090E+04-3.20108E+05-5.22459E-09 1.50249E-09
 -1       141-1.40054E+04-5.68397E+03 2.32238E+04-5.14281E-08 1.56908E-10-1.00317E-09
 -1       142-5.51511E+03 7.54725E+03 1.49595E+04-9.37121E-09-8.97515E-11 2.69915E-09
 -1       143-1.04737E+04-6.00202E+02 5.99535E+03-7.38774E-09-8.12690E-12 3.84307E-09
 -1       144-9.46010E+03 7.69913E+02 3.32358E+03 4.79579E-09 9.06124E-10-2.27055E-09
 -1       145-1.00613E+04-6.49174E+01 1.41526E+03 2.85320E-08-1.17122E-10 6.79222E-10
 -1       146-9.93388E+03 7.45960E+01 5.86240E+02 3.89374E-08-4.06559E-10 3.41106E-09
 -1       147-9.99999E+03-3.05803E+00-4.60919E+01-1.90987E-08-4.66625E-10 2.44924E-09
 -1       148-1.00420E+04-2.67088E+01-6.86206E+02-2.75832E-08 1.15515E-09 2.96234E-09
 -1       149-9.95320E+03 3.37704E+01-1.61797E+03-1.75904E-08-4.28908E-11 6.74504E-10
 -1       150-1.03339E+04-3.49233E+02-3.56969E+03 2.63508E-08-5.89071E-10 3.04681E-10
 -1       151-9.70800E+03 2.95537E+02-6.82526E+03-1.02300E-08 2.39582E-10-1.69848E-09
 -1       152-1.24294E+04-3.46747E+03-1.51933E+04-6.26369E-09 1.38281E-10 1.07684E-09
 -1       153-7.85684E+03 2.70333E+03-2.71013E+04-3.92079E-08-5.38169E-11-1.10776E-09
 -1       154-3.01816E+04-3.39805E+04-6.74039E+04-1.51458E-08-2.03591E-10 7.93079E-10
 -1       155 8.06155E+03 2.55998E+04-1.04529E+05 3.32693E-09 1.32454E-09 6.12636E-09
 -1       156 1.18921E+03-3.18857E+05-4.54745E+03-6.04952E+03-9.09495E-13 1.81535E-09
 -1       157-1.26347E+03-3.20359E+05-1.69687E+03-2.66554E+04 9.03810E-10 1.08980E-09
 -1       158-1.69842E+02-3.19851E+05 1.62630E+03-5.92049E+03 5.21140E-10 1.31877E-09
 -1       159 3.60746E+03-3.17604E+05 6.69146E+03-2.68341E+04 1.09912E-09-3.14321E-09
 -1       160-2.79292E+03-3.21699E+05 1.12362E+04-5.87027E+03 8.26731E-10-3.52293E-09
 -1       161-3.14529E+05-4.34113E+04-8.46242E+03-1.20453E+05-5.24778E-10-1.04001E-09
 -1       162-3.13535E+05-5.31353E+04-5.38165E+03-1.25009E+05-1.99190E-09 4.73221E-10
 -1       163-3.16019E+05-4.54160E+04-2.01388E+03-1.20203E+05 8.69989E-11 1.81831E-09
 -1       164-3.11827E+05-5.05723E+04-1.14272E+03-1.25404E+05 7.13754E-10 1.32563E-09
 -1       165-3.16190E+05-4.56400E+04-5.40540E+02-1.20184E+05-3.36115E-10 4.43751E-09
 -1       166-3.11645E+05-5.02874E+04-4.11186E+02-1.25423E+05 1.27767E-09-3.06500E-09
 -1       167-3.16193E+05-4.56711E+04-4.59415E+02-1.20193E+05 1.87811E-10 2.65868E-09
 -1       168-3.11698E+05-5.02784E+04-8.29965E+02-1.25391E+05 7.36691E-11 2.83978E-09
 -1       169-3.16130E+05-4.56505E+04-1.58353E+03-1.20212E+05-3.65276E-10 4.94651E-10
 -1       170-3.12112E+05-5.06800E+04-3.53619E+03-1.25305E+05-1.08685E-10-4.44140E-09
 -1       171-3.15773E+05-4.53083E+04-6.83608E+03-1.20260E+05-3.17993E-09-1.74668E-09
 -1       172-3.15145E+05-5.47466E+04-1.63770E+04-1.24723E+05-1.37524E-09-5.07953E-09
 -1       173-3.13150E+05-4.20496E+04-2.96120E+04-1.20614E+05-1.54841E-10 5.21504E-09
 -1       174-3.40457E+05-9.28243E+04-7.97089E+04-1.18926E+05-3.36604E-09-4.59841E-09
 -1       175-2.91135E+05-1.21734E+04-1.25427E+05-1.24186E+05 2.70666E-09-1.50612E-09
 -1       191 1.30340E+04 1.39134E+06 2.81695E+04-3.08093E+03 6.91216E-11 6.63567E-09
 -1       192 4.27417E+03 1.39652E+06 1.68947E+04-2.67761E+03-4.27463E-10-1.39335E-09
 -1       193 1.06357E+03 1.39325E+06 1.29810E+04-2.70919E+03 2.17312E-10 5.59157E-09
 -1       194 4.95938E+03 1.39690E+06 1.86754E+04-3.40011E+03-1.19167E-09 3.73984E-09
 -1       195 1.52557E+04 1.39094E+06 3.24975E+04-2.32441E+03 1.70985E-10-7.62157E-10
 -1       251-2.89503E+05-1.49527E+04 5.49669E+04-2.86781E+04-1.09139E-11-2.02272E-09
 -1       252-2.66285E+05 1.71131E+04 3.59915E+04-1.21364E+05 8.36735E-11 1.58798E-09
 -1       253-2.81377E+05-2.06158E+03 1.41311E+04-2.79704E+04 5.09317E-10-2.34559E-09
 -1       254-2.77810E+05 1.56375E+03 8.18708E+03-1.22352E+05-3.49246E-10 6.12545E-10
 -1       255-2.80655E+05-3.37542E+02 3.58986E+03-2.76908E+04 7.22139E-10 4.76803E-09
 -1       256-2.80225E+05 4.15293E+02 2.06584E+03-1.22784E+05 1.77715E-09 8.07177E-11
 -1       257-2.80677E+05 4.25981E+01 1.10879E+03-2.75402E+04-8.36735E-10 2.68778E-09
 -1       258-2.80910E+05 4.84431E+02 9.04186E+02-1.22961E+05 9.27571E-10 2.89356E-09
 -1       259-2.80703E+05 9.16405E+01 1.04231E+03-2.75133E+04-7.55335E-10 1.29330E-09
 -1       260-2.80606E+05 5.36895E+02 1.82921E+03-1.22900E+05 1.14960E-09-3.25895E-09
 -1       261-2.80722E+05-1.77434E+02 3.19960E+03-2.76015E+04 5.93900E-10-1.87970E-09
 -1       262-2.78687E+05 1.61780E+03 7.16137E+03-1.22580E+05-3.96540E-10 1.44775E-09
 -1       263-2.81376E+05-1.64835E+03 1.24337E+04-2.78340E+04-1.54614E-10 1.97269E-09
 -1       264-2.68694E+05 1.52549E+04 3.14928E+04-1.21727E+05-1.71713E-09-2.01305E-09
 -1       265-2.88493E+05-1.29138E+04 4.81897E+04-2.84562E+04-1.89175E-09-2.51748E-09
 -1       266-1.29920E+04-2.90299E+05 5.45760E+04-5.99704E+04 1.27329E-10 3.09592E-09
 -1       267 2.06604E+04-2.72815E+05 3.29754E+04-2.68321E+05-2.63981E-10 3.08241E-09
 -1       268-2.21178E+02-2.81454E+05 8.80051E+03-5.97665E+04-9.27685E-11-3.10501E-09
 -1       269-2.38266E+03-2.84254E+05-5.88748E+03-2.67990E+05 4.60886E-10 7.34872E-10
 -1       270 4.73781E+03-2.76746E+05-1.89789E+04-6.03341E+04-8.73115E-11 3.71801E-09
 -1       271-3.29298E+06-4.23058E+05-2.55217E+05-1.28901E+06-1.69166E-10 1.86265E-09
 -1       272-3.36034E+06-6.17530E+05-1.61854E+05-1.31257E+06 2.49884E-10 3.45608E-09
 -1       273-3.34108E+06-4.80207E+05-6.03133E+04-1.27795E+06 4.34738E-10-3.79441E-09
 -1       274-3.30409E+06-5.45604E+05-3.32204E+04-1.33154E+06-1.02227E-09-9.48421E-09
 -1       275-3.34885E+06-4.84254E+05-1.41000E+04-1.27464E+06 5.05679E-10-3.65799E-09
 -1       276-3.29503E+06-5.40862E+05-7.49391E+03-1.33745E+06-6.36646E-10 4.52565E-09
 -1       277-3.35094E+06-4.83415E+05-3.96454E+03-1.27306E+06-4.12001E-10 6.07588E-09
 -1       278-3.29304E+06-5.41674E+05-3.33440E+03-1.33974E+06 5.60362E-10 1.10094E-09
 -1       279-3.35125E+06-4.83039E+05-4.28046E+03-1.27271E+06-6.55803E-10-3.34467E-09
 -1       280-3.29419E+06-5.42166E+05-8.45017E+03-1.33905E+06 2.25191E-09-5.22368E-09
 -1       281-3.34969E+06-4.83088E+05-1.59452E+04-1.27363E+06 2.01953E-09-2.20098E-10
 -1       282-3.30319E+06-5.49229E+05-3.78761E+04-1.33446E+06-2.54204E-10-3.10683E-09
 -1       283-3.34180E+06-4.77529E+05-6.86136E+04-1.27642E+06 2.24645E-10-1.27329E-09
 -1       284-3.36566E+06-6.33106E+05-1.84502E+05-1.31516E+06-2.32376E-09 1.07320E-09
 -1       285-3.28798E+06-4.11306E+05-2.90640E+05-1.28792E+06 1.35333E-09-1.58616E-09
 -1       286-3.21419E+05-1.18137E+04 4.53570E+04-1.81842E+04 3.90537E-09 2.67573E-09
 -1       287-3.03297E+05 1.43828E+04 2.95092E+04-7.62990E+04 5.89353E-10 5.16229E-09
 -1       288-3.14624E+05-1.49904E+03 1.17029E+04-1.76466E+04-2.71029E-10 9.86802E-10
 -1       289-3.11988E+05 1.36130E+03 6.71951E+03-7.70599E+04 6.18456E-10 3.24235E-09
 -1       290-3.13939E+05-2.42520E+02 3.01106E+03-1.74197E+04 2.93767E-10 4.45948E-09
 -1       291-3.13526E+05 2.47923E+02 1.77303E+03-7.74199E+04 2.45245E-09 2.18824E-09
 -1       292-3.13915E+05-5.69666E+00 1.07507E+03-1.72876E+04 1.36424E-10-1.99293E-09
 -1       293-3.13946E+05 2.68579E+02 1.09609E+03-7.76031E+04 2.31103E-09-6.03450E-10
 -1       294-3.13957E+05 3.14629E+01 1.55286E+03-1.72358E+04 1.47020E-09-8.25025E-10
 -1       295-3.13775E+05 5.19007E+02 2.97447E+03-7.76215E+04 2.00828E-09 4.12203E-09
 -1       296-3.14129E+05-2.04854E+02 5.47361E+03-1.72689E+04 1.97997E-09 4.52826E-09
 -1       297-3.11847E+05 2.88717E+03 1.21023E+04-7.74631E+04 3.07409E-09-2.77510E-09
 -1       298-3.15529E+05-2.22633E+03 2.14638E+04-1.73943E+04-1.00044E-10 7.91260E-11
 -1       299-2.97179E+05 2.69077E+04 5.35224E+04-7.69598E+04-8.95852E-11 5.77984E-10
 -1       300-3.28034E+05-2.05971E+04 8.28418E+04-1.77782E+04-2.78305E-10 6.76664E-10
 -1       301 4.96726E+04 1.33142E+05 1.02192E+05-1.25084E+05-4.78394E-09 3.33421E-09
 -1       302 1.71241E+04 1.51731E+05 5.69534E+04-1.45901E+05-5.52745E-10-3.71256E-09
 -1       303 4.38287E+03 1.40420E+05 3.65656E+04-1.25069E+05-5.19367E-09-2.69017E-09
 -1       304 1.18510E+04 1.48713E+05 4.31546E+04-1.45927E+05-4.62023E-10 2.84763E-09
 -1       305 3.25037E+04 1.36130E+05 6.86459E+04-1.25135E+05-4.91491E-09 4.61841E-09
 -1       306-3.33835E+06-4.20362E+05-2.65705E+05-1.29909E+06-2.41198E-09-6.12636E-09
 -1       307-3.42249E+06-6.10197E+05-1.68698E+05-1.30910E+06 1.70644E-09 1.34605E-09
 -1       308-3.38746E+06-4.81035E+05-6.27318E+04-1.28857E+06 2.27374E-11 1.57524E-09
 -1       309-3.36493E+06-5.33747E+05-3.46387E+04-1.32677E+06 2.72848E-10 5.46606E-10
 -1       310-3.39489E+06-4.85990E+05-1.46343E+04-1.28576E+06 1.41517E-09 2.20462E-09
 -1       311-3.35602E+06-5.27958E+05-7.78599E+03-1.33164E+06 1.77670E-09-1.65301E-09
 -1       312-3.39675E+06-4.85511E+05-4.05647E+03-1.28443E+06-1.50976E-09-3.54680E-09
 -1       313-3.35408E+06-5.28538E+05-3.31475E+03-1.33358E+06 6.11180E-10-6.13866E-09
 -1       314-3.39709E+06-4.85124E+05-4.12628E+03-1.28405E+06-2.02778E-09-4.62251E-10
 -1       315-3.35493E+06-5.29280E+05-8.04326E+03-1.33333E+06 1.42529E-09 2.15528E-09
 -1       316-3.39589E+06-4.84854E+05-1.50912E+04-1.28464E+06 2.29693E-09 3.56795E-09
 -1       317-3.36298E+06-5.36640E+05-3.58877E+04-1.32999E+06 2.11526E-09 2.01180E-09
 -1       318-3.38892E+06-4.79025E+05-6.48930E+04-1.28679E+06 2.35707E-09 5.16957E-09
 -1       319-3.42137E+06-6.17170E+05-1.74727E+05-1.31329E+06-3.55612E-10 7.49424E-09
 -1       320-3.33871E+06-4.15510E+05-2.75046E+05-1.29696E+06 1.77533E-09 1.44064E-09
 -1       321-1.33944E+05-2.47892E+04 1.01036E+05-6.53125E+03-6.12090E-10-2.35013E-09
 -1       322-9.68706E+04 3.27779E+04 6.51344E+04-2.80114E+04-1.48589E-09 2.40561E-09
 -1       323-1.18615E+05-2.64320E+03 2.61836E+04-6.42000E+03-4.66116E-10 1.14051E-09
 -1       324-1.14130E+05 3.33269E+03 1.47079E+04-2.81473E+04 8.18545E-11-1.77715E-09
 -1       325-1.16843E+05-2.95180E+02 6.64164E+03-6.38881E+03 9.77252E-10-2.13277E-10
 -1       326-1.16216E+05 3.47122E+02 3.55928E+03-2.81912E+04-1.65164E-09-2.83899E-09
 -1       327-1.16618E+05-3.22776E+01 1.77713E+03-6.37621E+03-1.62117E-10-1.89289E-09
 -1       328-1.16502E+05 6.16696E+01 1.10693E+03-2.82058E+04-3.86535E-11 4.30646E-10
 -1       329-1.16593E+05-1.01138E+01 9.05219E+02-6.37429E+03 1.09708E-10-2.61497E-09
 -1       330-1.16451E+05 1.17051E+02 1.25175E+03-2.81975E+04-4.09386E-10-7.51456E-10
 -1       331-1.16650E+05-8.99338E+01 2.06882E+03-6.38456E+03-4.77485E-11-1.24220E-09
 -1       332-1.15805E+05 9.90306E+02 4.42686E+03-2.81624E+04 3.87445E-10 2.12873E-09
 -1       333-1.17169E+05-8.00822E+02 7.80901E+03-6.40929E+03 2.42380E-10-3.28646E-09
 -1       334-1.10608E+05 9.73375E+03 1.94015E+04-2.80372E+04 1.09367E-09-1.58593E-09
 -1       335-1.21725E+05-7.41584E+03 3.00511E+04-6.51130E+03-1.29876E-09 2.27192E-09
 -1       336 1.69338E+03-1.30457E+06-1.09857E+04-7.06037E+04-9.13792E-09 3.78350E-10
 -1       337-2.12330E+03-1.30976E+06-1.24360E+04-3.21621E+05-7.52152E-09-2.19461E-09
 -1       338 2.23302E+03-1.30522E+06-1.59992E+04-6.93650E+04-1.18700E-08 2.30102E-10
 -1       339-1.56953E+04-1.31853E+06-3.63582E+04-3.22076E+05-8.63793E-09 3.82352E-09
 -1       340 1.35462E+04-1.29673E+06-5.56997E+04-7.01480E+04-8.06540E-09 3.87809E-09
 -1       341-1.88616E+06-2.49566E+05-8.24875E+04-7.21492E+05 1.78898E-09-7.16682E-10
 -1       342-1.91103E+06-3.09922E+05-5.23998E+04-7.26310E+05-6.25789E-10 4.39468E-09
 -1       343-1.90098E+06-2.68833E+05-1.94791E+04-7.18697E+05-1.37163E-10-1.94541E-09
 -1       344-1.89379E+06-2.85481E+05-1.08073E+04-7.30860E+05 6.63022E-10-3.90492E-09
 -1       345-1.90294E+06-2.70722E+05-4.60280E+03-7.18184E+05-9.94305E-10 2.15050E-09
 -1       346-1.89146E+06-2.83175E+05-2.57144E+03-7.31683E+05-5.64626E-10-2.35030E-09
 -1       347-1.90329E+06-2.70811E+05-1.55299E+03-7.18011E+05-4.63274E-10 2.37877E-09
 -1       348-1.89116E+06-2.83100E+05-1.67840E+03-7.31885E+05-1.09935E-10 2.79090E-09
 -1       349-1.90326E+06-2.70765E+05-2.57552E+03-7.18001E+05-6.59782E-10 5.20799E-09
 -1       350-1.89180E+06-2.83633E+05-5.41939E+03-7.31703E+05 1.02148E-10 8.60723E-10
 -1       351-1.90265E+06-2.70335E+05-1.03366E+04-7.18169E+05-1.97247E-11-1.41881E-10
 -1       352-1.89665E+06-2.89505E+05-2.47045E+04-7.30502E+05-6.13525E-10 1.71485E-09
 -1       353-1.89850E+06-2.65610E+05-4.46444E+04-7.18929E+05-1.80989E-10 3.22507E-09
 -1       354-1.93537E+06-3.46530E+05-1.20266E+05-7.21163E+05 5.91172E-11 2.09548E-09
 -1       355-1.86501E+06-2.20786E+05-1.89220E+05-7.24706E+05-3.68891E-09 2.88128E-09
 -1       356 7.94268E+04-1.19726E+04 4.87429E+04-5.34473E+03 7.38055E-10 1.97178E-09
 -1       357 9.73287E+04 1.58084E+04 3.14235E+04-2.33738E+04-7.43967E-10-5.14456E-09
 -1       358 8.68286E+04-1.27871E+03 1.26100E+04-5.30507E+03-5.32054E-10-3.31511E-09
 -1       359 8.89827E+04 1.60444E+03 7.04519E+03-2.34014E+04-6.34714E-10 1.83547E-09
 -1       360 8.76845E+04-1.42090E+02 3.09862E+03-5.31457E+03 1.19735E-09 1.71212E-09
 -1       361 8.79605E+04 1.63471E+02 1.49771E+03-2.33865E+04-1.29376E-09 3.02293E-09
 -1       362 8.78005E+04-1.05328E+01 4.25252E+02-5.32000E+03-4.60830E-10 1.17029E-09
 -1       363 8.77779E+04-6.47602E+00-3.61169E+02-2.33815E+04-3.90855E-10-7.53244E-09
 -1       364 8.78523E+04 2.93875E+01-1.30237E+03-5.31958E+03 1.02807E-09-5.14456E-09
 -1       365 8.75253E+04-3.03844E+02-3.06916E+03-2.33896E+04-2.11639E-09-1.13852E-09
 -1       366 8.80739E+04 2.52286E+02-5.95766E+03-5.31200E+03 3.31283E-10-1.51977E-09
 -1       367 8.57291E+04-3.05446E+03-1.33021E+04-2.34055E+04-3.55612E-10-2.45382E-09
 -1       368 8.97062E+04 2.34789E+03-2.37606E+04-5.30369E+03-9.73159E-11-5.89353E-10
 -1       369 7.02401E+04-2.98240E+04-5.90783E+04-2.33659E+04-3.04840E-09 3.96085E-09
 -1       370 1.03672E+05 2.23914E+04-9.16552E+04-5.34625E+03 2.02544E-09 2.02999E-09
 -1       371-3.85549E+03-2.77474E+05 1.40861E+04-5.15571E+04 1.09230E-09 2.11912E-09
 -1       372 5.29994E+03-2.73021E+05 6.44577E+03-2.27557E+05 4.01087E-09 1.62072E-09
 -1       373 5.81933E+02-2.74814E+05-2.76795E+03-5.12234E+04 2.35832E-09 9.22228E-10
 -1       374-6.97483E+03-2.80287E+05-1.48597E+04-2.27596E+05 3.55169E-09-5.68662E-10
 -1       375 6.40391E+03-2.70333E+05-2.59144E+04-5.15195E+04 2.50111E-09 3.33966E-09
 -1       376-9.32948E+05-1.21912E+05-5.49146E+04-3.60797E+05-1.34423E-09 5.02769E-09
 -1       377-9.43815E+05-1.67774E+05-3.48822E+04-3.70563E+05-9.88507E-10 3.34103E-09
 -1       378-9.42741E+05-1.34804E+05-1.29768E+04-3.59042E+05-5.40467E-10-3.03953E-09
 -1       379-9.32531E+05-1.51345E+05-7.20554E+03-3.73407E+05-1.02682E-09 2.11003E-10
 -1       380-9.43966E+05-1.36143E+05-3.08061E+03-3.58800E+05-4.57021E-11 3.13707E-09
 -1       381-9.31141E+05-1.49657E+05-1.74508E+03-3.73776E+05 9.22000E-10 4.94013E-09
 -1       382-9.44124E+05-1.36273E+05-1.09826E+03-3.58765E+05-1.10958E-10 2.90157E-10
 -1       383-9.31057E+05-1.49497E+05-1.25753E+03-3.73763E+05 8.48331E-10-1.92813E-09
 -1       384-9.44043E+05-1.36292E+05-1.99799E+03-3.58815E+05 1.70530E-12-4.45652E-10
 -1       385-9.31619E+05-1.49850E+05-4.24039E+03-3.73523E+05 1.06047E-09 5.05452E-09
 -1       386-9.43533E+05-1.35981E+05-8.11364E+03-3.58966E+05-2.38811E-09 7.21184E-09
 -1       387-9.35399E+05-1.54442E+05-1.93786E+04-3.72546E+05-8.69591E-10 1.35333E-09
 -1       388-9.40284E+05-1.32283E+05-3.50378E+04-3.59547E+05-2.81909E-09-5.00404E-09
 -1       389-9.65674E+05-1.99150E+05-9.43009E+04-3.65228E+05-4.79827E-09-3.03771E-10
 -1       390-9.14021E+05-9.71599E+04-1.48410E+05-3.64031E+05 3.67436E-09-2.08820E-09
 -1       406 1.33781E+04 1.35105E+06 3.03067E+04-6.98153E+04 3.01952E-10 3.63798E-09
 -1       407 4.86528E+03 1.35662E+06 2.17197E+04-8.04626E+04-3.06773E-09 2.06728E-09
 -1       408 2.25654E+03 1.35252E+06 2.26613E+04-6.94575E+04-6.73026E-11 5.25506E-09
 -1       409 1.20638E+04 1.36051E+06 4.03259E+04-8.09895E+04-3.35058E-09 9.67248E-09
 -1       410 3.66862E+04 1.34672E+06 7.55423E+04-6.92025E+04 1.70985E-10 4.72937E-09
 -1       466 1.34765E+06-3.21991E+04 1.29369E+05-1.91586E+04-2.91038E-11-1.96451E-09
 -1       467 1.39596E+06 4.17340E+04 8.36064E+04-9.01389E+04-5.22050E-10-5.31145E-10
 -1       468 1.36722E+06-3.55247E+03 3.35555E+04-2.00653E+04-2.76486E-10-2.10093E-09
 -1       469 1.37307E+06 4.26295E+03 1.89714E+04-8.85093E+04 3.83807E-10 2.03636E-09
 -1       470 1.36941E+06-3.94075E+02 8.64658E+03-2.07710E+04-1.90994E-11 1.79443E-09
 -1       471 1.37001E+06 5.98572E+02 4.85735E+03-8.74866E+04 4.19050E-10 2.82648E-09
 -1       472 1.36966E+06 7.06259E-01 2.82592E+03-2.10887E+04 2.74667E-10 5.74573E-10
 -1       473 1.36962E+06 3.03577E+02 2.53507E+03-8.72413E+04-5.64114E-10 5.63205E-10
 -1       474 1.36965E+06-2.83022E+01 3.30234E+03-2.10164E+04-4.37012E-10-7.57382E-10
 -1       475 1.37027E+06 6.74432E+02 6.13899E+03-8.77814E+04-4.07454E-10 2.81034E-10
 -1       476 1.36933E+06-5.58163E+02 1.11578E+04-2.05484E+04-3.63798E-10-1.47202E-09
 -1       477 1.37426E+06 5.45068E+03 2.46674E+04-8.90955E+04 4.67480E-10-4.34738E-10
 -1       478 1.36647E+06-4.65721E+03 4.36835E+04-1.97010E+04-6.47560E-10 2.18279E-10
 -1       479 1.40397E+06 5.42997E+04 1.08899E+05-9.10146E+04-2.20643E-09-4.44379E-09
 -1       480 1.34097E+06-4.19245E+04 1.68562E+05-1.86570E+04-2.02090E-09-3.31056E-09
 -1       481-8.54480E+03 3.28677E+05 3.55758E+04-1.11694E+04 1.85537E-10 2.07729E-09
 -1       482 1.19841E+04 3.41606E+05 2.40808E+04-4.61050E+04-2.40107E-10 7.03744E-09
 -1       483-1.17085E+03 3.33821E+05 1.18329E+04-1.11169E+04-9.84528E-11 3.33148E-09
 -1       484 5.01495E+03 3.37744E+05 1.21147E+04-4.61749E+04 1.95541E-11-2.29875E-10
 -1       485-2.90481E+03 3.32755E+05 1.30350E+04-1.11044E+04 2.79215E-10-1.68529E-09
 -1       486-1.35502E+06-1.65908E+05-1.32680E+05-5.31495E+05 1.54250E-09 2.28465E-09
 -1       487-1.39400E+06-2.63804E+05-8.42418E+04-5.40228E+05-6.02540E-10 1.01136E-09
 -1       488-1.37892E+06-1.96818E+05-3.13413E+04-5.27002E+05-1.85992E-10-1.07502E-09
 -1       489-1.36633E+06-2.24571E+05-1.73153E+04-5.47694E+05-4.45652E-11 1.69166E-09
 -1       490-1.38214E+06-1.99787E+05-7.30427E+03-5.26146E+05-9.32232E-11 1.13323E-09
 -1       491-1.36255E+06-2.20968E+05-3.86673E+03-5.49225E+05 5.00222E-11 1.24828E-09
 -1       492-1.38280E+06-1.99826E+05-1.96720E+03-5.25777E+05 1.84627E-10-6.23004E-10
 -1       493-1.36183E+06-2.20985E+05-1.51179E+03-5.49854E+05-3.68345E-11-2.90626E-10
 -1       494-1.38297E+06-1.99664E+05-1.76515E+03-5.25611E+05 1.93040E-10-3.52145E-10
 -1       495-1.36200E+06-2.21464E+05-3.33450E+03-5.50000E+05 5.85374E-10 3.79941E-10
 -1       496-1.38267E+06-1.99353E+05-6.19389E+03-5.25646E+05 3.49161E-10 5.38421E-10
 -1       497-1.36483E+06-2.24971E+05-1.47004E+04-5.49295E+05 2.39993E-10-9.00172E-10
 -1       498-1.38016E+06-1.96600E+05-2.65418E+04-5.26132E+05-4.41105E-11-8.31278E-10
 -1       499-1.38792E+06-2.58651E+05-7.14263E+04-5.43488E+05-1.11868E-10 1.14596E-09
 -1       500-1.36012E+06-1.70178E+05-1.12437E+05-5.29716E+05 6.83940E-10 5.89353E-10
 -1       501 2.97795E+05-1.84278E+04 7.15377E+04-2.16720E+04 3.55067E-09-2.62298E-09
 -1       502 3.25818E+05 2.28427E+04 4.64691E+04-9.59632E+04 1.64164E-09-1.50612E-09
 -1       503 3.08527E+05-2.23588E+03 1.84865E+04-2.17171E+04-4.20187E-10-6.55746E-10
 -1       504 3.12296E+05 2.28786E+03 1.05583E+04-9.56962E+04-7.23048E-10 1.22759E-09
 -1       505 3.09636E+05-3.03491E+02 4.74047E+03-2.19317E+04 1.50794E-09 3.58477E-09
 -1       506 3.10047E+05 4.64663E+02 2.70863E+03-9.53514E+04 2.57751E-09 2.68801E-09
 -1       507 3.09703E+05 2.67140E+01 1.55395E+03-2.20625E+04 1.95359E-09 7.23276E-10
 -1       508 3.09527E+05 4.21254E+02 1.40442E+03-9.51884E+04 1.54557E-09 5.47720E-09
 -1       509 3.09672E+05 5.87082E+01 1.82433E+03-2.20939E+04 1.69280E-09 2.23133E-09
 -1       510 3.09821E+05 6.49861E+02 3.37446E+03-9.52223E+04 3.14571E-09-5.55701E-10
 -1       511 3.09508E+05-2.47464E+02 6.12515E+03-2.20288E+04 1.01682E-09-9.27571E-10
 -1       512 3.12190E+05 3.20889E+03 1.35483E+04-9.54380E+04 2.66255E-09-5.12955E-10
 -1       513 3.07985E+05-2.57795E+03 2.39450E+04-2.18784E+04 3.58341E-10-4.20550E-09
 -1       514 3.28919E+05 2.99201E+04 5.98213E+04-9.56137E+04 0.00000E+00-3.74166E-09
 -1       515 2.94060E+05-2.32124E+04 9.24429E+04-2.18623E+04-9.64064E-11-2.11730E-09
 -1       516-1.60208E+04 2.34261E+05 6.84931E+04-3.69676E+04 3.32147E-09 1.19940E-10
 -1       517 2.42333E+04 2.58860E+05 4.91566E+04-1.59161E+05 1.99225E-09 8.75571E-09
 -1       518-2.79721E+03 2.43532E+05 2.91668E+04-3.68532E+04 2.95952E-09 5.74619E-09
 -1       519 1.86282E+04 2.56966E+05 4.01537E+04-1.59215E+05 1.79534E-09 1.75532E-10
 -1       520-1.23286E+04 2.37627E+05 5.12051E+04-3.69298E+04 1.54432E-09-1.77897E-09
 -1       521-2.67442E+06-3.36164E+05-2.28530E+05-1.04621E+06-1.81171E-09-1.61526E-09
 -1       522-2.73640E+06-5.09180E+05-1.45001E+05-1.06620E+06 9.58607E-10-3.20142E-09
 -1       523-2.71673E+06-3.88160E+05-5.39870E+04-1.03716E+06-9.50422E-10 3.23780E-10
 -1       524-2.68716E+06-4.43477E+05-2.97691E+04-1.08155E+06-6.44377E-10-1.57797E-09
 -1       525-2.72310E+06-3.92390E+05-1.25804E+04-1.03480E+06 4.74756E-10-1.95632E-09
 -1       526-2.67973E+06-4.38386E+05-6.64438E+03-1.08573E+06 2.75395E-09 3.74325E-09
 -1       527-2.72466E+06-3.92008E+05-3.38886E+03-1.03374E+06 5.18867E-10-1.77340E-09
 -1       528-2.67822E+06-4.38738E+05-2.62832E+03-1.08729E+06-8.50378E-11 1.78417E-09
 -1       529-2.72489E+06-3.91757E+05-3.10408E+03-1.03349E+06-1.62788E-09 1.04706E-09
 -1       530-2.67894E+06-4.39117E+05-5.90665E+03-1.08690E+06 2.01703E-09 2.74076E-09
 -1       531-2.72388E+06-3.91729E+05-1.10348E+04-1.03406E+06 8.04903E-11 1.42427E-09
 -1       532-2.68503E+06-4.44118E+05-2.61484E+04-1.08392E+06 1.31490E-09 1.81717E-09
 -1       533-2.71852E+06-3.87798E+05-4.73324E+04-1.03589E+06 1.33332E-09 3.26690E-09
 -1       534-2.72792E+06-5.02110E+05-1.27236E+05-1.07083E+06 6.22592E-10 4.11274E-09
 -1       535-2.68151E+06-3.42079E+05-2.00476E+05-1.04371E+06 1.80080E-10 2.27010E-09
 -1       536 1.04668E+06-3.98970E+04 1.62638E+05-8.04036E+03-5.68434E-10-1.89175E-09
 -1       537 1.10635E+06 5.26682E+04 1.04854E+05-3.97134E+04-2.66255E-09-4.06180E-09
 -1       538 1.07137E+06-4.27309E+03 4.21736E+04-8.41172E+03-1.73713E-10-1.37516E-09
 -1       539 1.07854E+06 5.32980E+03 2.37176E+04-3.89972E+04 6.98492E-10-1.74668E-09
 -1       540 1.07423E+06-4.87297E+02 1.07480E+04-8.73940E+03-8.68567E-11-9.89985E-10
 -1       541 1.07516E+06 5.45776E+02 5.83931E+03-3.84708E+04-1.27329E-11-8.03425E-10
 -1       542 1.07458E+06-5.84759E+01 3.06224E+03-8.93852E+03-5.59339E-10 4.77939E-10
 -1       543 1.07469E+06 1.11716E+02 2.19508E+03-3.82102E+04 6.27210E-10 1.80864E-09
 -1       544 1.07460E+06-3.10718E+01 2.25500E+03-9.00014E+03 5.58060E-11-1.59389E-10
 -1       545 1.07489E+06 3.53781E+02 3.69491E+03-3.82221E+04-3.47995E-10 1.45050E-10
 -1       546 1.07439E+06-2.76398E+02 6.51042E+03-8.92661E+03-1.01636E-10-2.62139E-09
 -1       547 1.07688E+06 3.20324E+03 1.41732E+04-3.85013E+04 1.12755E-09 1.34605E-10
 -1       548 1.07270E+06-2.53095E+03 2.51367E+04-8.72070E+03 2.92403E-10-2.22190E-09
 -1       549 1.09345E+06 3.13792E+04 6.24349E+04-3.89738E+04-3.52884E-10-1.21145E-09
 -1       550 1.05799E+06-2.37512E+04 9.68041E+04-8.46006E+03-1.34605E-09 1.85537E-09
 -1       551 2.28829E+04-3.05182E+05 4.39909E+04-4.96231E+05-4.18368E-10-7.56700E-10
 -1       552 1.03753E+04-2.98225E+05 2.67740E+04-5.78411E+05-1.56797E-09 2.26282E-09
 -1       553 5.04429E+03-3.03541E+05 2.10201E+04-4.95411E+05-3.56522E-10 1.36515E-09
 -1       554 1.21052E+04-2.97724E+05 3.08027E+04-5.78593E+05-1.24419E-09 1.99498E-09
 -1       555 2.82388E+04-3.06659E+05 5.38123E+04-4.96019E+05-8.53106E-10-3.97631E-09
 -1       556-6.57668E+05-2.22003E+05-1.69988E+04-4.05839E+05 1.93359E-09-2.00089E-09
 -1       557-6.40836E+05-2.36842E+05-8.25821E+03-4.30732E+05-1.01863E-09-1.35060E-10
 -1       558-6.59335E+05-2.14719E+05-3.55431E+03-4.08489E+05-2.12822E-09 1.90175E-09
 -1       559-6.39133E+05-2.34921E+05-1.71735E+03-4.32276E+05 5.36602E-10 9.42748E-10
 -1       560-6.59974E+05-2.14123E+05-8.23680E+02-4.08878E+05 2.23008E-09 6.79461E-09
 -1       561-6.39403E+05-2.34697E+05-4.38457E+02-4.32674E+05-5.09317E-11-6.12999E-10
 -1       562-6.60307E+05-2.13951E+05-3.13159E+02-4.09068E+05 4.91127E-10-8.86757E-10
 -1       563-6.39618E+05-2.34601E+05-3.72237E+02-4.32846E+05 3.35604E-10 2.00089E-11
 -1       564-6.60398E+05-2.13877E+05-6.46289E+02-4.09134E+05-1.70485E-09-6.35737E-09
 -1       565-6.39672E+05-2.34592E+05-1.33198E+03-4.32864E+05-3.40162E-09 4.00178E-10
 -1       566-6.60228E+05-2.13900E+05-2.72517E+03-4.09067E+05-1.66983E-09-7.23958E-10
 -1       567-6.39950E+05-2.34983E+05-5.96143E+03-4.32689E+05-2.39743E-09-5.83168E-09
 -1       568-6.59606E+05-2.14967E+05-1.22502E+04-4.08439E+05 1.78261E-10 2.48110E-09
 -1       569-6.46110E+05-2.42888E+05-2.88638E+04-4.30806E+05 2.25191E-09 2.09548E-09
 -1       570-6.57242E+05-2.37921E+05-5.90764E+04-3.98321E+05-4.18368E-10-1.97178E-09
 -1       571 7.95022E+05 3.95469E+04 8.16832E+04-1.56402E+05 1.03319E-09 3.91083E-11
 -1       572 8.09733E+05 1.24478E+04 4.11669E+04-1.81445E+05-7.91260E-10-2.40107E-09
 -1       573 8.00984E+05 1.44579E+03 1.84777E+04-1.55734E+05-1.56433E-10-2.40107E-10
 -1       574 8.02249E+05 3.48789E+02 9.39945E+03-1.82085E+05 2.43745E-10 4.63479E-09
 -1       575 8.01265E+05-1.62153E+02 4.52065E+03-1.55684E+05-3.27418E-10 2.69029E-09
 -1       576 8.01346E+05-4.79668E+01 2.33160E+03-1.82139E+05-1.81899E-11-2.21917E-10
 -1       577 8.01244E+05-5.18934E+01 1.18580E+03-1.55681E+05-2.46303E-10 6.84122E-09
 -1       578 8.01256E+05-2.16350E+01 6.99161E+02-1.82146E+05 2.49202E-10 6.42103E-10
 -1       579 8.01363E+05-8.43368E+01 5.14869E+02-1.55677E+05-5.27507E-11-1.10049E-09
 -1       580 8.01501E+05-1.46934E+02 6.23906E+02-1.82154E+05-2.03727E-10 1.03682E-10
 -1       581 8.01664E+05-2.80622E+02 9.90070E+02-1.55673E+05-1.52431E-09 2.08456E-09
 -1       582 8.02122E+05-3.03096E+02 1.97777E+03-1.82093E+05-9.73159E-10 7.69978E-09
 -1       583 8.02060E+05-2.30788E+02 3.80197E+03-1.55736E+05-4.22006E-10 1.91812E-09
 -1       584 8.04305E+05 1.88391E+03 8.50790E+03-1.81275E+05-5.53155E-09 1.52886E-09
 -1       585 8.01388E+05 7.35056E+03 1.68026E+04-1.56513E+05 2.49565E-09 3.15777E-09
 -1       586 8.74946E+03 1.52312E+05 1.60469E+04-5.60033E+05-1.90994E-09 1.41154E-09
 -1       587 5.40233E+03 1.54094E+05 1.21069E+04-6.52660E+05-4.33283E-09 2.78578E-09
 -1       588 3.76951E+03 1.51731E+05 1.31862E+04-5.59158E+05-2.77578E-09 2.51930E-09
 -1       589 1.00528E+04 1.56505E+05 2.40198E+04-6.52731E+05-4.30009E-09-1.44883E-09
 -1       590 2.37442E+04 1.49416E+05 4.50141E+04-5.59938E+05-2.18324E-09-1.88811E-09
 -1       591-4.50498E+05-1.51456E+05-5.86090E+04-2.45085E+05-3.93584E-10-9.28412E-09
 -1       592-4.48426E+05-1.47427E+05-2.86600E+04-2.66879E+05-4.63842E-09-4.26371E-09
 -1       593-4.52299E+05-1.29024E+05-1.21615E+04-2.55164E+05-1.26965E-09-3.56340E-09
 -1       594-4.42216E+05-1.39473E+05-5.94314E+03-2.68257E+05 6.47560E-09 6.60100E-09
 -1       595-4.52679E+05-1.28102E+05-2.74333E+03-2.55675E+05 4.67662E-09 8.10428E-09
 -1       596-4.41804E+05-1.39128E+05-1.40417E+03-2.68293E+05-7.94898E-10 3.50428E-09
 -1       597-4.52773E+05-1.28113E+05-7.96516E+02-2.55703E+05-1.25056E-09-9.29685E-09
 -1       598-4.41773E+05-1.39125E+05-6.95896E+02-2.68288E+05-1.91953E-09-1.17661E-08
 -1       599-4.52751E+05-1.28115E+05-9.61186E+02-2.55694E+05-3.16368E-09-6.39375E-09
 -1       600-4.41792E+05-1.39139E+05-1.83846E+03-2.68277E+05-8.00355E-11-1.35969E-10
 -1       601-4.52598E+05-1.28103E+05-3.66927E+03-2.55644E+05-1.43700E-09 2.28829E-09
 -1       602-4.42337E+05-1.39611E+05-7.99293E+03-2.68227E+05 1.50703E-09-5.59339E-10
 -1       603-4.52094E+05-1.29342E+05-1.63699E+04-2.54953E+05-1.24783E-09 1.26784E-09
 -1       604-4.50653E+05-1.50368E+05-3.85849E+04-2.66445E+05 2.58296E-10-4.45652E-10
 -1       605-4.49737E+05-1.59454E+05-7.88945E+04-2.41324E+05-4.25644E-10-2.95768E-09
 -1       606 2.03611E+05-2.23141E+04-4.56594E+04 5.00146E+04-1.47411E-08 6.23004E-10
 -1       607 1.95242E+05-7.04954E+03-2.29936E+04 5.73480E+04-2.37560E-09 5.24460E-09
 -1       608 1.99902E+05-8.52627E+02-1.03370E+04 4.95645E+04 9.61154E-09-2.84308E-09
 -1       609 1.98999E+05-8.16928E+01-5.23942E+03 5.77964E+04-6.71753E-09-7.44149E-09
 -1       610 1.99458E+05 2.24939E+02-2.51941E+03 4.95221E+04-1.60035E-08 1.50385E-09
 -1       611 1.99244E+05 2.83272E+02-1.26919E+03 5.78355E+04-2.86500E-08 4.64115E-09
 -1       612 1.99314E+05 2.59163E+02-6.08607E+02 4.95206E+04-1.19908E-08 2.18552E-09
 -1       613 1.99197E+05 3.21648E+02-2.70382E+02 5.78356E+04-1.76869E-08 3.25781E-09
 -1       614 1.99226E+05 2.80275E+02-6.37559E+01 4.95208E+04-3.62888E-09 1.02636E-09
 -1       615 1.99138E+05 3.52854E+02 1.18447E+02 5.78326E+04 1.83400E-08 4.89035E-09
 -1       616 1.99159E+05 3.05252E+02 3.49180E+02 4.95227E+04-1.05356E-08 3.40333E-09
 -1       617 1.99143E+05 4.26475E+02 7.93730E+02 5.78278E+04 3.73802E-09-2.00635E-09
 -1       618 1.99071E+05 4.82722E+02 1.59237E+03 4.95242E+04 2.88219E-09-2.64117E-09
 -1       619 1.99720E+05 1.51317E+03 3.56469E+03 5.78126E+04 2.70279E-09-3.07728E-09
 -1       620 1.98497E+05 3.81715E+03 7.08325E+03 4.95213E+04 1.52227E-09 2.77942E-09
 -1       621 8.66630E+03 7.96730E+05 1.92377E+04-1.27118E+05 6.05496E-10 2.85809E-10
 -1       622 3.55628E+03 8.00282E+05 1.48952E+04-1.48298E+05-4.71300E-09 4.08136E-09
 -1       623 2.04116E+03 7.97688E+05 1.71063E+04-1.27108E+05 1.87356E-10 1.20235E-09
 -1       624 9.98904E+03 8.04170E+05 3.19394E+04-1.47970E+05-3.09956E-09 1.07684E-09
 -1       625 2.97247E+04 7.93280E+05 6.06489E+04-1.27423E+05 1.38880E-09-2.29375E-09
 -1       626 3.31808E+05 9.59963E+04-1.99831E+04 2.03940E+05-1.56251E-09 3.84716E-09
 -1       627 3.20063E+05 1.09771E+05-9.76392E+03 2.10550E+05 1.00044E-08 3.94016E-09
 -1       628 3.31479E+05 1.03256E+05-4.15073E+03 1.99953E+05 1.47120E-08 7.72297E-09
 -1       629 3.21585E+05 1.12989E+05-2.01044E+03 2.10509E+05 1.67929E-08 4.78406E-09
 -1       630 3.31282E+05 1.03593E+05-9.07297E+02 1.99669E+05-3.62343E-09-3.32557E-09
 -1       631 3.21578E+05 1.13186E+05-4.05363E+02 2.10465E+05-2.31594E-08-6.77315E-09
 -1       632 3.31166E+05 1.03626E+05-1.19338E+02 1.99606E+05-1.32823E-08 1.38698E-11
 -1       633 3.21520E+05 1.13216E+05 9.42369E+01 2.10420E+05-1.09590E-08-3.05590E-09
 -1       634 3.31098E+05 1.03631E+05 3.51823E+02 1.99577E+05 1.48702E-08-5.90717E-09
 -1       635 3.21527E+05 1.13221E+05 8.36393E+02 2.10414E+05 1.17361E-08 1.18325E-09
 -1       636 3.31051E+05 1.03605E+05 1.74748E+03 1.99572E+05 5.77472E-10 1.25783E-09
 -1       637 3.21866E+05 1.13417E+05 3.85122E+03 2.10443E+05-9.43510E-09-5.10499E-09
 -1       638 3.30904E+05 1.04144E+05 7.89219E+03 1.99298E+05 1.58188E-08-1.16852E-08
 -1       639 3.26066E+05 1.18519E+05 1.86219E+04 2.09655E+05 1.88252E-08-2.93403E-09
 -1       640 3.29908E+05 1.18635E+05 3.80652E+04 1.92831E+05 1.01563E-08-4.57476E-10
 -1       641 1.43410E+04 2.67151E+03-1.08773E+04 3.15878E+03-2.04413E-08-5.56111E-09
 -1       642 1.03128E+04-3.43433E+03-7.00338E+03 1.35588E+04-4.08738E-09-9.17521E-09
 -1       643 1.26840E+04 2.99781E+02-2.81496E+03 3.12752E+03-1.64559E-08-3.81738E-09
 -1       644 1.21351E+04-2.54016E+02-1.56669E+03 1.35900E+04-6.03507E-09-8.87155E-09
 -1       645 1.24885E+04 5.42876E+01-6.86681E+02 3.12548E+03-4.30771E-09-6.87936E-09
 -1       646 1.23411E+04 7.62478E+01-3.21934E+02 1.35910E+04-5.02268E-09-2.23460E-09
 -1       647 1.24599E+04 2.86631E+01-7.24557E+01 3.12615E+03 2.70915E-08-1.13670E-09
 -1       648 1.23770E+04 1.18670E+02 1.26678E+02 1.35903E+04 4.63255E-08-9.40805E-09
 -1       649 1.24464E+04 1.81387E+01 3.79193E+02 3.12608E+03 2.19297E-08-4.65769E-09
 -1       650 1.24556E+04 1.98176E+02 8.72106E+02 1.35903E+04 3.44714E-08-5.01893E-09
 -1       651 1.23869E+04-4.90867E+01 1.68105E+03 3.12613E+03-9.64781E-09-5.24119E-09
 -1       652 1.29874E+04 9.63694E+02 3.75342E+03 1.35882E+04-1.54478E-08-4.89854E-09
 -1       653 1.19322E+04-6.48934E+02 6.69497E+03 3.12780E+03 9.01400E-09-4.36285E-09
 -1       654 1.73986E+04 8.49715E+03 1.66610E+04 1.35417E+04-8.69920E-09-5.45242E-09
 -1       655 8.00586E+03-6.31368E+03 2.58415E+04 3.16836E+03 2.36992E-08-2.08183E-09
 -1       656 1.72473E+04-6.29300E+05-7.37923E+04 2.30846E+04-9.26957E-09-1.78079E-09
 -1       657-2.55654E+04-6.56172E+05-5.40537E+04 9.45574E+04-4.11683E-09 3.07978E-09
 -1       658 3.34061E+03-6.38978E+05-3.41096E+04 2.27787E+04-1.43771E-09 2.64731E-09
 -1       659-2.32447E+04-6.55040E+05-5.01491E+04 9.47867E+04 4.74256E-09-5.34566E-09
 -1       660 1.54758E+04-6.30670E+05-6.64011E+04 2.28603E+04-1.48793E-09 4.04270E-10
 -1       661 5.95936E+05 7.60741E+04 4.86598E+04 2.33815E+05 1.55287E-08-1.28239E-09
 -1       662 6.09200E+05 1.13157E+05 3.09143E+04 2.38333E+05 9.94928E-09 3.07546E-09
 -1       663 6.04408E+05 8.77102E+04 1.14969E+04 2.32496E+05 1.71944E-08 6.05860E-09
 -1       664 5.99476E+05 9.83039E+04 6.37758E+03 2.40450E+05-5.37941E-09-6.41103E-09
 -1       665 6.05374E+05 8.90253E+04 2.69927E+03 2.32413E+05 2.02493E-09-5.59828E-09
 -1       666 5.98366E+05 9.66642E+04 1.47450E+03 2.40589E+05-4.58117E-09 7.93878E-09
 -1       667 6.05485E+05 8.91789E+04 8.20744E+02 2.32418E+05 2.03345E-08 7.03405E-09
 -1       668 5.98252E+05 9.65209E+04 7.75346E+02 2.40603E+05-5.53996E-09 9.82300E-09
 -1       669 6.05487E+05 8.91560E+04 1.08395E+03 2.32405E+05-5.55957E-09 2.42460E-09
 -1       670 5.98421E+05 9.68201E+04 2.20901E+03 2.40644E+05 2.11512E-08 5.02411E-09
 -1       671 6.05328E+05 8.88929E+04 4.17529E+03 2.32376E+05 1.15450E-08-1.62254E-09
 -1       672 6.00143E+05 9.94117E+04 9.95424E+03 2.40458E+05 5.00535E-09-4.58658E-09
 -1       673 6.03820E+05 8.68282E+04 1.79701E+04 2.32499E+05 3.76713E-09-1.11868E-09
 -1       674 6.15353E+05 1.22650E+05 4.83502E+04 2.37153E+05 1.87947E-08-1.02955E-09
 -1       675 5.90567E+05 6.86327E+04 7.61119E+04 2.34564E+05 1.03628E-08-3.06318E-09
 -1       676 6.56222E+03-5.56870E+05-2.83218E+04 6.87750E+03 5.50426E-09 2.71052E-09
 -1       677-9.94008E+03-5.67295E+05-2.18283E+04 2.36994E+04 7.22696E-09-4.65968E-09
 -1       678 1.53555E+03-5.60310E+05-1.55604E+04 6.77747E+03-3.72779E-09 2.82091E-09
 -1       679-1.21760E+04-5.68625E+05-2.57112E+04 2.38057E+04 3.34012E-10-3.60615E-09
 -1       680 8.43663E+03-5.55571E+05-3.56083E+04 6.77075E+03 7.58519E-09 2.72257E-09
 -1       681 5.31091E+05-7.36004E+03 2.97411E+04-6.17961E+03 1.14596E-10-6.87578E-10
 -1       682 5.42098E+05 9.60553E+03 1.92085E+04-2.84449E+04 1.01636E-10-3.72893E-10
 -1       683 5.35602E+05-8.06630E+02 7.72223E+03-6.26911E+03-1.90539E-10-2.43745E-10
 -1       684 5.36930E+05 9.59925E+02 4.37311E+03-2.82399E+04-2.36469E-11 7.43171E-10
 -1       685 5.36114E+05-9.76837E+01 2.02100E+03-6.38262E+03 1.70530E-10-3.42880E-10
 -1       686 5.36269E+05 1.02997E+02 1.18870E+03-2.80602E+04 3.28555E-11-1.05047E-10
 -1       687 5.36170E+05-1.26933E+01 7.93202E+02-6.44888E+03-6.54836E-11 7.03551E-10
 -1       688 5.36189E+05 4.85197E+01 8.84474E+02-2.79761E+04-7.23048E-11 1.12146E-09
 -1       689 5.36152E+05-2.21763E+01 1.34912E+03-6.46674E+03 6.29257E-11-8.66514E-10
 -1       690 5.36383E+05 2.63061E+02 2.65377E+03-2.79909E+04 1.02659E-10 1.42322E-10
 -1       691 5.35983E+05-2.14101E+02 4.93189E+03-6.43412E+03-1.59162E-12 4.20187E-10
 -1       692 5.37921E+05 2.47456E+03 1.09013E+04-2.81000E+04 2.52840E-10-1.71212E-10
 -1       693 5.34668E+05-1.95223E+03 1.94023E+04-6.35751E+03-1.69166E-10-1.06775E-09
 -1       694 5.50704E+05 2.42715E+04 4.82434E+04-2.82458E+04-7.86713E-10-1.62936E-09
 -1       695 5.23303E+05-1.83503E+04 7.48231E+04-6.29192E+03 1.81899E-12 7.63976E-10
 -1       696-7.67105E+03 5.50945E+05 3.09533E+04-1.30883E+04 8.36735E-11-7.04176E-10
 -1       697 1.00204E+04 5.61994E+05 1.85328E+04-5.43322E+04 1.10049E-10-1.76354E-09
 -1       698-4.35421E+02 5.55990E+05 4.73348E+03-1.30706E+04-1.58252E-10 2.06899E-09
 -1       699-3.04489E+03 5.54421E+05-4.07286E+03-5.43694E+04-2.03499E-10 2.45984E-09
 -1       700 3.13490E+03 5.58569E+05-1.15359E+04-1.30538E+04-2.16460E-10 1.82445E-09
 -1       701-4.84958E+05-5.47567E+04-6.75468E+04-1.92616E+05-1.76442E-10-7.23958E-10
 -1       702-5.05213E+05-1.04332E+05-4.29034E+04-1.96818E+05 6.86668E-11 5.62068E-10
 -1       703-4.96909E+05-7.07181E+04-1.59548E+04-1.90574E+05-1.42109E-10-2.79215E-10
 -1       704-4.91455E+05-8.39954E+04-8.82920E+03-2.00151E+05 2.54659E-11-1.21872E-10
 -1       705-4.98383E+05-7.24038E+04-3.72153E+03-1.90318E+05-2.30102E-10 3.79487E-10
 -1       706-4.89755E+05-8.19032E+04-1.98460E+03-2.00595E+05-4.36557E-10 2.13618E-10
 -1       707-4.98611E+05-7.25399E+04-1.02351E+03-1.90249E+05-1.09139E-10 1.84059E-10
 -1       708-4.89518E+05-8.17646E+04-8.20557E+02-2.00717E+05 3.79657E-10-3.69965E-10
 -1       709-4.98641E+05-7.25098E+04-9.97660E+02-1.90219E+05 8.06040E-11 3.60814E-10
 -1       710-4.89665E+05-8.19972E+04-1.91940E+03-2.00738E+05 7.64686E-11 5.06020E-10
 -1       711-4.98475E+05-7.23187E+04-3.58080E+03-1.90228E+05-1.57698E-10 2.91038E-11
 -1       712-4.91226E+05-8.41105E+04-8.50608E+03-2.00445E+05-9.98455E-11-3.02862E-10
 -1       713-4.97109E+05-7.06385E+04-1.53539E+04-1.90419E+05 3.95630E-11 1.53705E-10
 -1       714-5.04377E+05-1.03807E+05-4.13139E+04-1.97386E+05-2.04636E-10 4.42014E-10
 -1       715-4.85670E+05-5.51964E+04-6.50239E+04-1.92312E+05 5.58430E-10 4.91127E-10
 -1       716 3.81642E+05-1.52779E+04 6.15663E+04-1.41223E+04 4.91127E-10 8.14907E-10
 -1       717 4.04489E+05 1.99993E+04 3.97812E+04-6.14309E+04 3.67436E-10 1.17780E-09
 -1       718 3.90952E+05-1.64978E+03 1.59752E+04-1.41729E+04-5.75710E-10 1.65528E-10
 -1       719 3.93640E+05 2.14194E+03 9.03483E+03-6.12615E+04-9.73614E-10-3.91083E-11
 -1       720 3.91997E+05-1.56033E+02 4.14441E+03-1.42883E+04 1.38107E-09-8.88122E-10
 -1       721 3.92223E+05 3.81871E+02 2.36763E+03-6.11022E+04 1.78898E-09-3.52657E-10
 -1       722 3.92117E+05 2.01293E+01 1.46107E+03-1.43322E+04 1.68220E-09-1.57684E-10
 -1       723 3.92094E+05 2.32427E+02 1.44821E+03-6.10928E+04 1.34014E-09 8.16271E-11
 -1       724 3.92113E+05-1.44268E+01 2.03733E+03-1.42978E+04 6.14364E-10 9.96067E-10
 -1       725 3.92532E+05 4.75460E+02 3.91790E+03-6.12424E+04 2.12231E-09-1.85281E-10
 -1       726 3.91904E+05-3.52925E+02 7.18298E+03-1.41827E+04 8.78572E-10-1.14596E-10
 -1       727 3.95067E+05 3.58783E+03 1.59278E+04-6.15421E+04 1.45383E-09-2.97860E-10
 -1       728 3.90044E+05-2.98360E+03 2.82351E+04-1.39976E+04 3.55612E-10-1.44064E-09
 -1       729 4.14153E+05 3.52434E+04 7.04064E+04-6.18258E+04-2.23008E-09 3.21052E-10
 -1       730 3.73541E+05-2.70530E+04 1.09015E+05-1.39109E+04 2.41926E-10-1.17871E-09
 -1       731-1.09082E+04 1.98371E+05 4.47108E+04-2.79819E+04 1.03319E-09-1.29694E-09
 -1       732 1.49488E+04 2.14482E+05 2.90248E+04-1.21624E+05 7.75799E-10-1.37425E-09
 -1       733-1.12213E+03 2.05096E+05 1.19810E+04-2.79062E+04 1.16916E-09 1.44132E-09
 -1       734 2.51421E+03 2.07421E+05 7.58931E+03-1.21632E+05 9.88507E-10 1.86355E-09
 -1       735-7.25553E+02 2.05631E+05 4.37805E+03-2.79763E+04 7.28051E-10 1.11322E-09
 -1       736-1.24451E+06-1.54187E+05-1.00574E+05-4.81685E+05 3.27418E-11-2.47383E-10
 -1       737-1.27701E+06-2.25675E+05-6.38877E+04-4.85234E+05 2.41016E-10 2.40107E-10
 -1       738-1.26242E+06-1.77844E+05-2.37427E+04-4.78485E+05-4.82771E-10-6.24823E-10
 -1       739-1.25628E+06-1.95604E+05-1.31393E+04-4.90459E+05-1.06070E-10-4.12228E-10
 -1       740-1.26471E+06-1.80255E+05-5.52718E+03-4.77985E+05 6.67796E-10 8.45830E-10
 -1       741-1.25358E+06-1.92641E+05-2.93779E+03-4.91296E+05 1.27511E-09 1.71684E-09
 -1       742-1.26511E+06-1.80406E+05-1.48999E+03-4.77818E+05 7.34644E-10 7.75458E-10
 -1       743-1.25316E+06-1.92495E+05-1.15294E+03-4.91549E+05-2.06740E-10 2.07824E-10
 -1       744-1.26517E+06-1.80357E+05-1.34809E+03-4.77762E+05-5.69855E-10-9.95612E-10
 -1       745-1.25336E+06-1.92778E+05-2.55016E+03-4.91546E+05 1.08274E-09 2.21405E-10
 -1       746-1.26491E+06-1.80144E+05-4.73747E+03-4.77815E+05 5.92479E-10 4.86125E-10
 -1       747-1.25554E+06-1.95451E+05-1.12429E+04-4.91007E+05 1.50601E-09 1.48657E-09
 -1       748-1.26302E+06-1.78014E+05-2.02933E+04-4.78170E+05 1.29461E-09 1.31149E-09
 -1       749-1.27315E+06-2.21278E+05-5.46186E+04-4.86686E+05 9.89075E-11-1.52795E-10
 -1       750-1.24776E+06-1.57734E+05-8.59700E+04-4.80843E+05 1.24328E-09 2.56841E-09
 -1       751 2.00331E+06-6.37662E+04 2.60585E+05-7.86580E+03-6.82121E-10-6.69388E-10
 -1       752 2.09870E+06 8.43389E+04 1.67935E+05-4.46087E+04-2.93267E-09-2.12458E-09
 -1       753 2.04288E+06-6.80568E+03 6.76072E+04-8.75957E+03-3.17414E-10 1.67347E-10
 -1       754 2.05428E+06 8.54650E+03 3.80318E+04-4.29904E+04 1.30785E-09 1.11413E-09
 -1       755 2.04747E+06-7.69344E+02 1.72939E+04-9.45289E+03 5.63887E-11 1.44610E-10
 -1       756 2.04892E+06 8.71246E+02 9.48011E+03-4.18842E+04 4.25416E-10-1.81740E-09
 -1       757 2.04805E+06-9.67051E+01 5.14662E+03-9.86620E+03-3.11047E-10-8.47422E-10
 -1       758 2.04824E+06 1.83118E+02 4.00447E+03-4.13398E+04 8.25935E-11-2.35787E-10
 -1       759 2.04806E+06-7.22407E+01 4.55607E+03-9.99762E+03 3.04318E-10-1.38880E-09
 -1       760 2.04870E+06 7.43848E+02 7.90656E+03-4.13536E+04-7.06734E-10-5.87761E-11
 -1       761 2.04758E+06-6.02020E+02 1.41913E+04-9.85224E+03 8.66294E-11 2.73758E-10
 -1       762 2.05299E+06 7.01738E+03 3.10329E+04-4.19202E+04 1.02864E-09 2.96495E-10
 -1       763 2.04383E+06-5.50835E+03 5.51264E+04-9.43053E+03 6.66660E-10 3.89264E-10
 -1       764 2.08914E+06 6.87958E+04 1.36851E+05-4.29770E+04 1.16870E-10 9.24047E-10
 -1       765 2.01157E+06-5.19150E+04 2.12332E+05-8.81012E+03-1.66983E-09 6.69388E-10
 -1       766-2.99743E+04 5.07452E+05 1.25983E+05-7.30334E+03-5.31145E-09-1.55296E-09
 -1       767 4.25178E+04 5.54163E+05 9.04568E+04-2.88255E+04-4.00905E-09-1.10663E-09
 -1       768-5.48598E+03 5.24354E+05 5.38934E+04-7.17529E+03-4.08363E-09 1.82808E-09
 -1       769 3.31081E+04 5.48864E+05 7.42545E+04-2.90731E+04-3.21961E-09 1.03137E-09
 -1       770-2.23049E+04 5.12946E+05 9.54651E+04-7.06966E+03-2.23736E-09 1.98179E-09
 -1       771-1.66064E+06-3.41755E+05-1.14162E+05-6.86374E+05 6.78256E-10-1.78261E-09
 -1       772-1.66730E+06-3.23050E+05-5.58182E+04-7.16268E+05-4.06908E-09 4.37467E-09
 -1       773-1.66397E+06-2.98235E+05-2.36913E+04-7.06085E+05-1.13869E-09 2.78305E-09
 -1       774-1.65523E+06-3.07537E+05-1.15635E+04-7.18914E+05 2.67755E-09-1.70303E-09
 -1       775-1.66475E+06-2.96397E+05-5.33030E+03-7.07077E+05-2.87400E-10-9.18590E-11
 -1       776-1.65447E+06-3.06875E+05-2.68349E+03-7.19086E+05-1.19144E-09 9.24274E-10
 -1       777-1.66507E+06-2.96349E+05-1.44695E+03-7.07172E+05 6.40284E-10 1.84400E-10
 -1       778-1.65450E+06-3.06846E+05-1.10420E+03-7.19220E+05 3.01952E-10 1.49925E-09
 -1       779-1.66522E+06-2.96263E+05-1.35445E+03-7.07235E+05 1.80080E-10 1.57979E-09
 -1       780-1.65468E+06-3.06820E+05-2.45323E+03-7.19371E+05 7.50333E-10 6.96673E-10
 -1       781-1.66521E+06-2.96138E+05-4.82841E+03-7.07264E+05 9.45874E-10 8.42192E-10
 -1       782-1.65556E+06-3.07401E+05-1.04950E+04-7.19513E+05-6.63022E-10 2.05273E-09
 -1       783-1.66479E+06-2.97617E+05-2.14726E+04-7.06447E+05-2.62617E-09 3.56886E-09
 -1       784-1.66641E+06-3.21777E+05-5.06675E+04-7.17725E+05-2.16755E-09-1.94814E-09
 -1       785-1.66218E+06-3.36822E+05-1.03585E+05-6.88413E+05 2.59206E-10-4.62023E-10
 -1       786 1.11646E+06-3.16146E+04 1.29214E+05-4.67382E+03 7.59428E-10 1.17143E-09
 -1       787 1.16366E+06 4.18935E+04 8.32839E+04-2.36832E+04-6.51198E-10-2.39015E-09
 -1       788 1.13609E+06-3.35508E+03 3.35213E+04-4.87559E+03-3.51520E-10 1.08048E-09
 -1       789 1.14169E+06 4.25404E+03 1.88396E+04-2.33090E+04 6.22094E-10-7.69433E-10
 -1       790 1.13838E+06-3.72649E+02 8.55308E+03-5.03952E+03 7.16227E-10 3.88809E-10
 -1       791 1.13908E+06 4.24397E+02 4.65058E+03-2.30680E+04 1.11663E-09 4.74165E-09
 -1       792 1.13867E+06-4.79581E+01 2.46234E+03-5.11655E+03 1.03114E-10 3.20597E-09
 -1       793 1.13875E+06 6.41335E+01 1.80076E+03-2.30016E+04-8.75737E-10-1.17893E-09
 -1       794 1.13869E+06-3.57128E+01 1.90283E+03-5.10607E+03-2.39879E-10-3.20377E-09
 -1       795 1.13894E+06 2.71514E+02 3.17283E+03-2.31114E+04 1.12607E-09 4.77559E-09
 -1       796 1.13850E+06-2.47296E+02 5.62162E+03-5.00666E+03-8.50832E-10-1.75783E-09
 -1       797 1.14065E+06 2.74547E+03 1.22586E+04-2.33942E+04-6.52790E-10-3.00338E-09
 -1       798 1.13703E+06-2.18781E+03 2.17543E+04-4.82332E+03-6.52562E-10-1.31695E-09
 -1       799 1.15493E+06 2.71469E+04 5.40262E+04-2.38029E+04-4.53019E-09 6.32099E-10
 -1       800 1.12429E+06-2.05294E+04 8.37833E+04-4.60393E+03 4.42014E-10 2.17915E-09
 -1       801-1.90779E+04 5.09608E+05 7.78008E+04-1.58947E+05 1.28784E-09-2.54659E-10
 -1       802 3.50872E+04 5.35579E+05 6.52013E+04-6.88453E+05 8.96398E-09 3.12866E-10
 -1       803-3.27305E+03 5.16976E+05 5.21640E+04-1.58808E+05 5.06225E-09 3.90492E-09
 -1       804 5.13726E+04 5.47258E+05 9.45242E+04-6.88544E+05 5.87170E-09-2.73576E-09
 -1       805-3.40976E+04 5.00288E+05 1.32358E+05-1.58875E+05 4.44561E-09 5.09317E-11
 -1       806-9.07131E+05-2.19406E+05-8.08701E+04-4.05806E+05 2.62935E-09 1.41154E-09
 -1       807-9.08989E+05-2.09133E+05-3.95537E+04-4.30411E+05-1.54978E-09 6.85759E-10
 -1       808-9.09377E+05-1.88644E+05-1.67733E+04-4.19820E+05 1.62981E-09 5.25779E-09
 -1       809-9.00467E+05-1.98036E+05-8.19693E+03-4.32069E+05-8.27640E-10 2.86130E-09
 -1       810-9.09819E+05-1.87422E+05-3.77390E+03-4.20495E+05 5.82077E-10 2.14914E-09
 -1       811-8.99847E+05-1.97574E+05-1.91907E+03-4.32061E+05-1.17552E-09 1.80626E-09
 -1       812-9.09912E+05-1.87462E+05-1.05962E+03-4.20510E+05 1.04933E-09-2.30102E-10
 -1       813-8.99779E+05-1.97579E+05-8.75691E+02-4.32031E+05 8.53561E-10-5.11136E-10
 -1       814-9.09877E+05-1.87476E+05-1.15064E+03-4.20495E+05-1.26875E-09 1.93359E-09
 -1       815-8.99804E+05-1.97592E+05-2.15748E+03-4.32012E+05 9.39508E-10 3.45608E-11
 -1       816-9.09707E+05-1.87461E+05-4.28251E+03-4.20446E+05-2.86309E-09 7.74889E-10
 -1       817-9.00464E+05-1.98131E+05-9.31801E+03-4.31966E+05 1.63709E-09 1.66438E-10
 -1       818-9.09152E+05-1.88887E+05-1.90773E+04-4.19659E+05-4.94765E-10 2.81761E-09
 -1       819-9.10158E+05-2.10704E+05-4.49756E+04-4.29979E+05 1.51704E-09 5.45697E-11
 -1       820-9.06525E+05-2.23900E+05-9.19573E+04-4.03735E+05 3.34148E-09 2.29193E-09
 -1       821-7.27743E+05 2.15680E+04-8.82430E+04 3.39253E+03-7.65522E-09 3.67072E-09
 -1       822-7.59864E+05-2.86280E+04-5.68745E+04 1.91607E+04-4.97062E-09-6.83940E-10
 -1       823-7.41169E+05 2.26687E+03-2.28992E+04 3.09578E+03 1.02723E-08-2.31466E-09
 -1       824-7.44969E+05-2.84084E+03-1.28562E+04 1.96346E+04-2.21235E-09-3.76872E-09
 -1       825-7.42738E+05 2.53693E+02-5.85639E+03 2.91285E+03-1.61053E-08-2.21689E-10
 -1       826-7.43275E+05-1.83304E+02-3.19710E+03 1.99411E+04-2.92066E-08 2.38043E-09
 -1       827-7.42945E+05 4.96680E+01-1.74075E+03 2.78775E+03-1.47409E-08 2.49577E-09
 -1       828-7.43112E+05 7.99882E+01-1.35044E+03 2.01359E+04-1.96849E-08 1.99955E-09
 -1       829-7.42956E+05 5.27308E+01-1.54093E+03 2.71736E+03-2.88640E-09 4.97650E-10
 -1       830-7.43288E+05-1.03831E+02-2.67912E+03 2.02187E+04 9.36085E-09-2.08890E-09
 -1       831-7.42795E+05 2.31246E+02-4.81588E+03 2.70470E+03-9.06488E-09 9.50649E-10
 -1       832-7.44721E+05-2.25900E+03-1.05426E+04 2.01875E+04 2.62304E-09 4.52474E-11
 -1       833-7.41518E+05 1.89011E+03-1.87414E+04 2.74960E+03 4.03816E-10 1.56433E-10
 -1       834-7.56955E+05-2.33570E+04-4.65691E+04 2.00262E+04 2.36150E-09-1.73759E-09
 -1       835-7.30532E+05 1.77016E+04-7.22287E+04 2.87602E+03 3.72120E-09-3.85626E-09
 -1       836-3.75210E+04 1.85155E+06 1.60151E+05-6.47251E+04-2.98314E-09 2.55204E-09
 -1       837 5.68228E+04 1.91043E+06 1.22869E+05-2.66274E+05 3.64616E-09-4.79849E-09
 -1       838-8.24245E+03 1.87094E+06 8.62948E+04-6.53534E+04-5.24051E-09 1.60605E-09
 -1       839 6.71380E+04 1.91616E+06 1.40608E+05-2.66063E+05 3.48518E-09-1.31695E-09
 -1       840-4.58722E+04 1.84551E+06 1.93600E+05-6.49309E+04-3.95812E-09-2.80124E-10
 -1       841-2.49548E+05-2.16127E+04-4.44154E+04-9.44207E+04-9.25138E-09-1.13323E-09
 -1       842-2.80304E+05-3.66390E+04-2.81888E+04-7.72299E+04-5.52245E-09 2.36150E-09
 -1       843-2.57194E+05-3.22993E+04-1.04930E+04-9.33350E+04 1.16906E-08 2.85809E-09
 -1       844-2.71643E+05-2.29404E+04-5.78920E+03-7.90776E+04 2.32990E-08 4.05009E-09
 -1       845-2.58057E+05-3.35052E+04-2.42730E+03-9.32986E+04 2.29666E-08-2.68534E-09
 -1       846-2.70742E+05-2.13741E+04-1.25204E+03-7.91837E+04-4.48563E-09-7.98565E-10
 -1       847-2.58141E+05-3.36610E+04-5.68571E+02-9.33395E+04-2.44195E-08-7.43825E-10
 -1       848-2.70698E+05-2.11541E+04-3.07239E+02-7.91525E+04 2.75247E-09 5.70720E-09
 -1       849-2.58141E+05-3.36876E+04-1.91073E+02-9.33642E+04 3.77406E-09 3.08347E-09
 -1       850-2.70723E+05-2.11351E+04-2.10617E+02-7.91369E+04-4.52948E-09 6.09202E-09
 -1       851-2.58131E+05-3.36731E+04-3.18668E+02-9.33645E+04-3.14628E-09-4.31709E-09
 -1       852-2.70810E+05-2.13327E+04-7.08664E+02-7.91316E+04 4.05396E-09-9.29674E-09
 -1       853-2.58041E+05-3.35189E+04-1.26958E+03-9.33515E+04-1.89311E-09-1.88260E-09
 -1       854-2.71755E+05-2.30525E+04-3.39015E+03-7.89708E+04-1.67141E-08 5.38398E-09
 -1       855-2.57174E+05-3.21901E+04-5.35116E+03-9.34152E+04-6.56701E-09 1.41085E-09
 -1       856-5.92012E+05 1.45042E+04-5.93939E+04 4.84341E+03-1.74186E-08-1.20053E-10
 -1       857-6.13665E+05-1.91261E+04-3.82608E+04 2.75463E+04-1.67220E-08-2.91038E-09
 -1       858-6.01054E+05 1.54345E+03-1.54118E+04 4.57457E+03-7.24458E-09-1.24055E-09
 -1       859-6.03715E+05-1.75307E+03-8.64321E+03 2.79528E+04 2.41471E-09 2.24645E-09
 -1       860-6.02117E+05 2.02599E+02-3.93025E+03 4.42833E+03 2.44563E-09-6.64159E-10
 -1       861-6.02611E+05 5.01376E+01-2.12869E+03 2.81739E+04-1.91966E-08-1.29944E-09
 -1       862-6.02261E+05 7.04970E+01-1.12625E+03 4.35125E+03 1.25440E-08-4.01678E-09
 -1       863-6.02503E+05 2.32775E+02-8.19228E+02 2.82651E+04 5.24094E-08-2.88099E-09
 -1       864-6.02270E+05 6.71684E+01-8.63164E+02 4.33641E+03 3.24250E-08-3.84117E-09
 -1       865-6.02567E+05 1.30308E+02-1.43676E+03 2.82311E+04 3.08473E-08-2.84560E-09
 -1       866-6.02181E+05 1.50802E+02-2.55337E+03 4.38545E+03 2.07547E-09-1.63857E-09
 -1       867-6.03264E+05-1.02770E+03-5.55764E+03 2.80693E+04 2.94017E-09-2.13026E-09
 -1       868-6.01498E+05 1.00588E+03-9.88825E+03 4.49971E+03 1.52504E-08-3.84989E-09
 -1       869-6.09616E+05-1.21729E+04-2.45280E+04 2.77255E+04-1.12059E-08-4.66389E-09
 -1       870-5.95699E+05 9.30404E+03-3.80808E+04 4.73590E+03 6.68479E-09-2.72303E-09
 -1       871-4.95301E+03-3.37384E+04-7.73088E+03 1.40044E+05 8.08359E-09 1.32150E-09
 -1       872-2.02347E+03-3.50422E+04-2.10770E+03 1.63143E+05-8.51833E-09-3.09592E-09
 -1       873-4.30333E+02-3.46834E+04 2.61310E+03 1.39804E+05 5.50699E-09-2.48747E-09
 -1       874 2.35362E+03-3.26162E+04 9.26421E+03 1.63242E+05-3.50610E-09-2.61383E-09
 -1       875 9.24557E+03-3.63065E+04 1.99074E+04 1.39996E+05 4.72392E-09 7.32143E-10
 -1       876 6.65924E+05 8.37129E+04 6.32397E+04 2.63364E+05 1.98493E-08 3.38332E-09
 -1       877 6.80352E+05 1.34840E+05 4.01905E+04 2.72551E+05 6.72048E-09 3.21415E-09
 -1       878 6.76871E+05 9.89150E+04 1.49340E+04 2.61713E+05 1.41843E-08 2.13640E-09
 -1       879 6.67790E+05 1.15416E+05 8.28630E+03 2.75136E+05 6.47788E-09 1.56774E-09
 -1       880 6.78062E+05 1.00695E+05 3.49030E+03 2.61669E+05 1.06866E-09 9.70886E-10
 -1       881 6.66424E+05 1.13180E+05 1.88578E+03 2.75174E+05-9.22591E-09-7.72570E-09
 -1       882 6.78156E+05 1.00952E+05 1.00041E+03 2.61728E+05 1.34917E-08 5.28411E-09
 -1       883 6.66331E+05 1.12905E+05 8.63137E+02 2.75084E+05-1.41549E-08 5.41643E-09
 -1       884 6.78130E+05 1.00970E+05 1.11998E+03 2.61749E+05-6.00903E-09 8.83352E-09
 -1       885 6.66530E+05 1.13154E+05 2.21498E+03 2.75072E+05 3.91951E-08 4.94470E-09
 -1       886 6.77962E+05 1.00720E+05 4.15772E+03 2.61734E+05 8.27333E-09-6.43854E-09
 -1       887 6.68249E+05 1.15723E+05 9.89214E+03 2.74887E+05-1.46293E-08-1.68779E-08
 -1       888 6.76473E+05 9.86582E+04 1.78498E+04 2.61847E+05-7.44890E-09-6.52653E-09
 -1       889 6.83348E+05 1.38827E+05 4.80241E+04 2.71648E+05 2.30575E-08-1.45883E-09
 -1       890 6.63331E+05 8.05590E+04 7.55883E+04 2.63879E+05-2.49929E-09-3.05590E-10
 -1       891 2.32149E+03-2.95100E+05-1.10742E+04 2.73932E+04-3.06318E-09 1.07411E-09
 -1       892-4.46750E+03-2.98754E+05-9.02146E+03 1.17334E+05-5.74960E-09-5.34783E-09
 -1       893 6.15747E+02-2.96350E+05-7.27713E+03 2.72424E+04-4.79758E-11 2.20422E-09
 -1       894-6.89981E+03-3.00108E+05-1.31994E+04 1.17300E+05 8.42738E-09 9.47693E-10
 -1       895 4.29484E+03-2.93678E+05-1.89403E+04 2.74246E+04-2.31012E-10 3.05681E-09
 -1       896 8.48724E+05-3.42817E+03 1.38196E+04-3.97954E+03-1.10958E-10 1.09821E-09
 -1       897 8.53809E+05 4.45411E+03 8.93206E+03-1.95319E+04 2.42153E-10 1.81672E-09
 -1       898 8.50821E+05-3.80167E+02 3.59404E+03-4.12518E+03 2.13731E-11 4.35648E-10
 -1       899 8.51399E+05 4.39292E+02 2.04720E+03-1.92397E+04 1.57343E-10 8.55835E-10
 -1       900 8.51057E+05-4.91221E+01 9.65062E+02-4.27108E+03 4.13365E-10 1.98554E-10
 -1       901 8.51087E+05 4.45533E+01 6.08132E+02-1.90004E+04 1.96451E-10 5.62750E-11
 -1       902 8.51080E+05-8.94205E+00 4.76091E+02-4.36451E+03 9.66338E-11-1.69393E-11
 -1       903 8.51054E+05 2.98234E+01 6.34693E+02-1.88657E+04-4.08704E-11-6.50914E-10
 -1       904 8.51061E+05-1.91530E+01 1.06070E+03-4.40575E+03 3.10877E-10-2.58666E-10
 -1       905 8.51208E+05 2.12057E+02 2.14897E+03-1.88368E+04 4.29736E-10-7.08894E-10
 -1       906 8.50919E+05-1.72211E+02 4.02602E+03-4.39337E+03 6.96900E-11-5.89012E-10
 -1       907 8.52443E+05 2.02992E+03 8.91168E+03-1.89114E+04 9.77707E-11-4.86580E-10
 -1       908 8.49838E+05-1.58537E+03 1.58748E+04-4.33111E+03 1.26420E-10 3.42880E-10
 -1       909 8.62857E+05 1.98683E+04 3.94574E+04-1.90541E+04-7.73070E-12 7.82165E-11
 -1       910 8.40530E+05-1.49815E+04 6.12090E+04-4.25213E+03-2.34195E-10 2.43745E-10
 -1       911 2.58502E+05-1.79139E+03 7.14147E+03-5.27097E+03 3.54248E-10 5.27507E-11
 -1       912 2.61174E+05 2.31692E+03 4.62796E+03-2.28879E+04-7.00311E-11-4.82487E-10
 -1       913 2.59580E+05-2.00150E+02 1.86303E+03-5.26798E+03-1.06411E-10-4.77030E-10
 -1       914 2.59889E+05 2.51238E+02 1.07717E+03-2.28514E+04-2.12822E-10-1.25419E-09
 -1       915 2.59697E+05-2.09923E+01 5.31893E+02-5.30735E+03 1.02636E-09-1.34912E-09
 -1       916 2.59709E+05 5.61554E+01 3.84324E+02-2.27888E+04 1.03410E-09-1.74148E-09
 -1       917 2.59704E+05 2.22670E+00 3.82712E+02-5.33056E+03 1.04251E-09-7.49992E-10
 -1       918 2.59701E+05 6.07421E+01 6.09892E+02-2.27621E+04 5.80613E-10-2.07339E-09
 -1       919 2.59682E+05-1.32436E+01 1.09497E+03-5.33400E+03 7.67670E-10-1.19428E-09
 -1       920 2.59881E+05 2.51573E+02 2.26578E+03-2.27746E+04 1.22634E-09-2.05125E-09
 -1       921 2.59534E+05-1.80489E+02 4.26456E+03-5.31804E+03 7.19183E-10-4.99995E-10
 -1       922 2.61214E+05 2.17601E+03 9.45979E+03-2.28227E+04 1.30899E-09-2.08593E-09
 -1       923 2.58391E+05-1.68874E+03 1.68509E+04-5.28577E+03 5.72072E-10-1.09685E-09
 -1       924 2.72308E+05 2.11216E+04 4.19115E+04-2.28492E+04 5.40240E-10-1.21099E-09
 -1       925 2.48518E+05-1.59337E+04 6.50094E+04-5.29252E+03-5.50244E-11-2.72848E-10
 -1       926-1.09478E+06 1.46552E+04-5.98059E+04 2.88999E+02-3.21734E-11 3.49246E-10
 -1       927-1.11655E+06-1.94498E+04-3.85577E+04 2.18243E+03-8.82210E-10 1.28784E-09
 -1       928-1.10387E+06 1.54814E+03-1.55019E+04 2.52681E+02 2.23167E-10 4.75666E-10
 -1       929-1.10639E+06-1.98399E+03-8.70090E+03 2.23984E+03 2.71626E-10-1.00090E-09
 -1       930-1.10492E+06 1.69741E+02-3.93135E+03 2.30994E+02-5.88926E-10 2.44199E-10
 -1       931-1.10519E+06-1.99219E+02-2.10415E+03 2.27277E+03-2.59945E-10 1.00545E-09
 -1       932-1.10506E+06 2.11188E+01-1.05139E+03 2.19657E+02 1.55524E-10 1.02432E-10
 -1       933-1.10504E+06-2.37572E+01-6.55534E+02 2.28556E+03-4.28740E-10 7.21059E-10
 -1       934-1.10508E+06 9.07817E+00-5.38487E+02 2.18200E+02-3.72104E-10 5.87949E-10
 -1       935-1.10506E+06-6.04948E+01-7.47674E+02 2.27843E+03 3.62547E-10 6.23857E-10
 -1       936-1.10504E+06 5.18217E+01-1.24137E+03 2.26792E+02-5.46976E-10 7.07757E-10
 -1       937-1.10541E+06-5.97761E+02-2.65359E+03 2.25118E+03 2.15536E-10 5.51950E-11
 -1       938-1.10472E+06 4.67345E+02-4.69195E+03 2.45479E+02 4.42526E-10-4.89308E-10
 -1       939-1.10848E+06-5.86883E+03-1.16429E+04 2.19870E+03 4.60659E-10 6.28461E-10
 -1       940-1.10198E+06 4.42223E+03-1.80545E+04 2.79471E+02-3.33955E-10 8.28550E-10
 -1       941 2.58660E+06-7.91392E+04 3.24799E+05-9.27927E+02 1.60469E-09 3.15777E-09
 -1       942 2.70488E+06 1.05225E+05 2.09180E+05-6.19576E+03 2.41005E-09-1.97906E-09
 -1       943 2.63596E+06-8.35823E+03 8.42956E+04-8.90731E+02 7.01732E-10 2.11003E-10
 -1       944 2.64993E+06 1.07258E+04 4.73756E+04-6.33074E+03 3.88809E-10-7.09406E-10
 -1       945 2.64173E+06-9.17227E+02 2.15661E+04-7.89026E+02 1.00874E-09 2.04363E-09
 -1       946 2.64349E+06 1.08312E+03 1.17942E+04-6.59821E+03 1.93972E-09 4.70595E-09
 -1       947 2.64248E+06-1.22584E+02 6.38425E+03-6.22897E+02 1.09094E-09 3.73802E-09
 -1       948 2.64274E+06 1.79039E+02 4.92067E+03-7.00187E+03 1.73122E-09 3.01505E-09
 -1       949 2.64250E+06-1.05585E+02 5.54070E+03-3.85309E+02-2.02476E-09-2.58103E-09
 -1       950 2.64330E+06 8.47485E+02 9.56943E+03-7.55574E+03 3.15129E-09 5.57566E-09
 -1       951 2.64192E+06-7.33233E+02 1.71501E+04-6.89290E+01-1.85059E-09-1.16052E-09
 -1       952 2.64841E+06 8.44804E+03 3.74741E+04-8.27505E+03-1.57684E-09-1.82354E-10
 -1       953 2.63737E+06-6.61442E+03 6.65824E+04 3.33174E+02-1.56115E-09 2.01544E-09
 -1       954 2.69183E+06 8.30547E+04 1.65187E+05-9.17968E+03-4.71277E-09 1.73713E-09
 -1       955 2.59838E+06-6.25259E+04 2.56393E+05 8.12825E+02-1.11049E-09 2.76486E-09
 -1       956-2.88783E+05-6.44172E+03-1.33955E+04 6.12674E+04-1.29967E-08-1.16961E-09
 -1       957-2.91250E+05-1.90781E+03-6.73987E+03 7.08050E+04-2.35104E-09 1.36561E-09
 -1       958-2.89964E+05-1.03701E+02-3.03657E+03 6.08668E+04 1.04592E-08-3.13230E-09
 -1       959-2.90263E+05 1.91533E+02-1.53848E+03 7.12363E+04-6.52290E-09-4.27463E-11
 -1       960-2.90176E+05 2.64256E+02-7.47416E+02 6.08230E+04-1.49157E-08-4.19459E-09
 -1       961-2.90274E+05 3.44927E+02-3.85366E+02 7.12849E+04-2.58333E-08 2.71575E-09
 -1       962-2.90275E+05 3.12080E+02-2.06414E+02 6.08161E+04-1.17543E-08-2.62617E-09
 -1       963-2.90342E+05 3.87036E+02-1.35474E+02 7.12937E+04-1.83750E-08 3.36831E-09
 -1       964-2.90330E+05 3.42465E+02-1.30724E+02 6.08132E+04 4.87489E-10-3.83443E-09
 -1       965-2.90390E+05 4.11034E+02-1.96236E+02 7.12950E+04 1.30888E-08 1.04774E-09
 -1       966-2.90346E+05 3.57598E+02-3.53709E+02 6.08143E+04-1.15366E-08-3.50792E-09
 -1       967-2.90445E+05 3.73109E+02-7.20366E+02 7.12771E+04-4.00178E-10 2.62935E-09
 -1       968-2.90290E+05 2.12901E+02-1.41411E+03 6.08315E+04 1.43791E-09-3.44880E-09
 -1       969-2.90947E+05-5.87603E+02-3.14573E+03 7.10996E+04 2.10275E-09 2.15005E-09
 -1       970-2.89760E+05-2.73911E+03-6.24916E+03 6.10023E+04 4.52292E-09-3.73984E-09
 -1       971-7.73223E+05 1.23241E+04-5.05144E+04 3.91747E+03-1.94423E-08 6.74299E-09
 -1       972-7.91590E+05-1.62628E+04-3.25367E+04 2.50817E+04-1.04301E-08 9.47330E-09
 -1       973-7.80910E+05 1.30549E+03-1.31154E+04 3.58354E+03-1.82649E-08 5.48971E-09
 -1       974-7.83144E+05-1.48260E+03-7.36347E+03 2.56045E+04-5.09499E-09 9.02855E-09
 -1       975-7.81815E+05 1.68454E+02-3.37430E+03 3.38752E+03 1.61708E-09 3.59159E-09
 -1       976-7.82222E+05 5.62449E+01-1.87221E+03 2.59109E+04-1.73591E-08 1.02916E-08
 -1       977-7.81936E+05 6.01524E+01-1.08199E+03 3.27518E+03 2.28733E-08 5.65183E-09
 -1       978-7.82155E+05 2.07665E+02-9.52233E+02 2.60576E+04 5.12557E-08 8.32972E-09
 -1       979-7.81935E+05 6.85799E+01-1.23071E+03 3.23986E+03 1.76748E-08 4.10691E-09
 -1       980-7.82300E+05 3.24106E+01-2.27212E+03 2.60498E+04 2.57796E-08 9.37593E-09
 -1       981-7.81789E+05 2.17520E+02-4.15889E+03 3.28303E+03-6.57042E-09 6.73322E-09
 -1       982-7.83508E+05-1.85718E+03-9.14307E+03 2.58859E+04-1.55114E-09 1.12543E-08
 -1       983-7.80673E+05 1.64650E+03-1.62820E+04 3.40563E+03 7.26550E-09 4.39923E-09
 -1       984-7.94076E+05-2.02081E+04-4.04491E+04 2.55290E+04-5.33987E-09 1.05465E-08
 -1       985-7.71123E+05 1.53641E+04-6.27651E+04 3.65082E+03 1.77906E-08 4.60932E-09
 -3
 9999
