
 stresses (elem, integ.pnt.,sxx,syy,szz,sxy,sxz,syz) for set ELALL and time  0.1000000E+01

         1   1 -3.262377E+06 -2.867080E+05 -3.610692E+05 -9.330043E+04 -2.464889E+05  3.722886E+01
         1   2 -3.212833E+06  3.886409E+04 -1.582877E+05 -2.731165E+04 -1.611855E+05  7.126146E+00
         1   3 -3.261913E+06  1.499629E+04 -9.859337E+04  3.868363E+04 -7.588269E+04 -4.752093E+00
         1   4 -3.262386E+06 -2.867244E+05 -3.610715E+05  1.878089E-08 -2.464889E+05  2.021577E-10
         1   5 -3.212833E+06  3.886268E+04 -1.582879E+05  6.615529E-09 -1.611855E+05 -2.252445E-10
         1   6 -3.261915E+06  1.499346E+04 -9.859378E+04  2.943768E-08 -7.588269E+04 -2.140482E-09
         1   7 -3.262377E+06 -2.867080E+05 -3.610692E+05  9.330043E+04 -2.464889E+05 -3.722886E+01
         1   8 -3.212833E+06  3.886409E+04 -1.582877E+05  2.731165E+04 -1.611855E+05 -7.126146E+00
         1   9 -3.261913E+06  1.499629E+04 -9.859337E+04 -3.868363E+04 -7.588269E+04  4.752093E+00
         1  10 -3.262442E+06 -2.867244E+05 -3.611839E+05 -9.330043E+04  7.426923E-10  3.632855E-10
         1  11 -3.212861E+06  3.885707E+04 -1.583368E+05 -2.731165E+04  1.963788E-09  2.877748E-10
         1  12 -3.261919E+06  1.499473E+04 -9.860425E+04  3.868363E+04  2.072046E-09 -1.693710E-09
         1  13 -3.262452E+06 -2.867408E+05 -3.611863E+05  1.607065E-09  6.713182E-11  2.337136E-10
         1  14 -3.212861E+06  3.885566E+04 -1.583370E+05  1.302762E-08  3.208255E-09  2.373218E-10
         1  15 -3.261921E+06  1.499191E+04 -9.860465E+04  5.097796E-09  3.339651E-10 -9.944119E-10
         1  16 -3.262442E+06 -2.867244E+05 -3.611839E+05  9.330043E+04 -1.267608E-09  1.049711E-10
         1  17 -3.212861E+06  3.885707E+04 -1.583368E+05  2.731165E+04 -1.948024E-09  1.913229E-10
         1  18 -3.261919E+06  1.499473E+04 -9.860425E+04 -3.868363E+04  8.441611E-10 -2.716616E-10
         1  19 -3.262377E+06 -2.867080E+05 -3.610692E+05 -9.330043E+04  2.464889E+05 -3.722886E+01
         1  20 -3.212833E+06  3.886409E+04 -1.582877E+05 -2.731165E+04  1.611855E+05 -7.126146E+00
         1  21 -3.261913E+06  1.499629E+04 -9.859337E+04  3.868363E+04  7.588269E+04  4.752093E+00
         1  22 -3.262386E+06 -2.867244E+05 -3.610715E+05  2.317936E-08  2.464889E+05  2.985780E-10
         1  23 -3.212833E+06  3.886268E+04 -1.582879E+05  1.083016E-08  1.611855E+05  5.028330E-10
         1  24 -3.261915E+06  1.499346E+04 -9.859378E+04  3.345468E-08  7.588269E+04  1.299030E-10
         1  25 -3.262377E+06 -2.867080E+05 -3.610692E+05  9.330043E+04  2.464889E+05  3.722886E+01
         1  26 -3.212833E+06  3.886409E+04 -1.582877E+05  2.731165E+04  1.611855E+05  7.126146E+00
         1  27 -3.261913E+06  1.499629E+04 -9.859337E+04 -3.868363E+04  7.588269E+04 -4.752093E+00
         2   1 -3.242706E+06 -2.912579E+04 -8.033003E+04 -8.475861E+03 -6.070118E+04  8.328797E-01
         2   2 -3.236813E+06  4.107528E+03 -4.101159E+04 -2.130942E+03 -3.973232E+04  1.370614E-01
         2   3 -3.242632E+06  1.515394E+03 -2.435252E+04  4.213943E+03 -1.876307E+04 -1.279960E-01
         2   4 -3.242706E+06 -2.912593E+04 -8.033005E+04  2.323131E-08 -6.070118E+04 -1.028235E-09
         2   5 -3.236813E+06  4.107519E+03 -4.101159E+04  1.437615E-08 -3.973232E+04  2.018371E-09
         2   6 -3.242632E+06  1.515360E+03 -2.435252E+04  2.652627E-08 -1.876307E+04 -7.715647E-10
         2   7 -3.242706E+06 -2.912579E+04 -8.033003E+04  8.475861E+03 -6.070118E+04 -8.328797E-01
         2   8 -3.236813E+06  4.107528E+03 -4.101159E+04  2.130942E+03 -3.973232E+04 -1.370614E-01
         2   9 -3.242632E+06  1.515394E+03 -2.435252E+04 -4.213943E+03 -1.876307E+04  1.279960E-01
         2  10 -3.242710E+06 -2.912679E+04 -8.033699E+04 -8.475861E+03 -2.039057E-09 -1.500522E-09
         2  11 -3.236815E+06  4.107101E+03 -4.101457E+04 -2.130942E+03 -4.252720E-10  6.833284E-10
         2  12 -3.242632E+06  1.515299E+03 -2.435318E+04  4.213943E+03  1.145822E-09 -4.920563E-10
         2  13 -3.242710E+06 -2.912692E+04 -8.033701E+04  6.191995E-09 -4.128337E-09 -6.348514E-10
         2  14 -3.236815E+06  4.107093E+03 -4.101457E+04 -9.293042E-09  1.824937E-10  6.962734E-10
         2  15 -3.242632E+06  1.515265E+03 -2.435319E+04 -5.425663E-09 -3.799272E-09 -5.805691E-10
         2  16 -3.242710E+06 -2.912679E+04 -8.033699E+04  8.475861E+03  9.971229E-10 -3.963662E-10
         2  17 -3.236815E+06  4.107101E+03 -4.101457E+04  2.130942E+03 -4.206750E-10  1.071336E-09
         2  18 -3.242632E+06  1.515299E+03 -2.435318E+04 -4.213943E+03 -2.680647E-09 -4.035255E-10
         2  19 -3.242706E+06 -2.912579E+04 -8.033003E+04 -8.475861E+03  6.070118E+04 -8.328797E-01
         2  20 -3.236813E+06  4.107528E+03 -4.101159E+04 -2.130942E+03  3.973232E+04 -1.370614E-01
         2  21 -3.242632E+06  1.515394E+03 -2.435252E+04  4.213943E+03  1.876307E+04  1.279960E-01
         2  22 -3.242706E+06 -2.912593E+04 -8.033005E+04  1.500009E-08  6.070118E+04 -2.322476E-10
         2  23 -3.236813E+06  4.107519E+03 -4.101159E+04 -1.573610E-08  3.973232E+04 -3.116035E-10
         2  24 -3.242632E+06  1.515360E+03 -2.435252E+04  3.044252E-08  1.876307E+04 -6.322882E-10
         2  25 -3.242706E+06 -2.912579E+04 -8.033003E+04  8.475861E+03  6.070118E+04  8.328797E-01
         2  26 -3.236813E+06  4.107528E+03 -4.101159E+04  2.130942E+03  3.973232E+04  1.370614E-01
         2  27 -3.242632E+06  1.515394E+03 -2.435252E+04 -4.213943E+03  1.876307E+04 -1.279960E-01
         3   1 -3.240394E+06 -2.902311E+03 -1.905109E+04 -5.949126E+02 -1.493959E+04  1.438779E-02
         3   2 -3.239586E+06  4.505012E+02 -1.049508E+04 -5.456147E+01 -9.687201E+03  8.556312E-04
         3   3 -3.240381E+06  1.481461E+02 -6.285590E+03  4.857795E+02 -4.434858E+03 -3.487559E-03
         3   4 -3.240394E+06 -2.902312E+03 -1.905109E+04  5.079913E-09 -1.493959E+04 -1.656571E-09
         3   5 -3.239586E+06  4.505012E+02 -1.049508E+04 -7.110138E-09 -9.687201E+03 -3.690246E-10
         3   6 -3.240381E+06  1.481457E+02 -6.285591E+03  5.444267E-09 -4.434858E+03  6.456232E-11
         3   7 -3.240394E+06 -2.902311E+03 -1.905109E+04  5.949126E+02 -1.493959E+04 -1.438779E-02
         3   8 -3.239586E+06  4.505012E+02 -1.049508E+04  5.456147E+01 -9.687201E+03 -8.556329E-04
         3   9 -3.240381E+06  1.481461E+02 -6.285590E+03 -4.857795E+02 -4.434858E+03  3.487560E-03
         3  10 -3.240395E+06 -2.902371E+03 -1.905151E+04 -5.949126E+02 -5.623434E-09 -2.530535E-10
         3  11 -3.239586E+06  4.504758E+02 -1.049526E+04 -5.456147E+01  1.436567E-09  1.027118E-09
         3  12 -3.240381E+06  1.481408E+02 -6.285628E+03  4.857795E+02 -2.104014E-10  3.091627E-10
         3  13 -3.240395E+06 -2.902372E+03 -1.905151E+04 -7.621370E-09 -4.329722E-09 -5.737370E-10
         3  14 -3.239586E+06  4.504758E+02 -1.049526E+04  1.442437E-08 -1.041990E-09  8.717655E-10
         3  15 -3.240381E+06  1.481404E+02 -6.285628E+03  8.501039E-09  2.789605E-09 -8.284526E-11
         3  16 -3.240395E+06 -2.902371E+03 -1.905151E+04  5.949126E+02  9.801728E-10 -1.154694E-09
         3  17 -3.239586E+06  4.504758E+02 -1.049526E+04  5.456147E+01  1.160846E-09  3.755852E-10
         3  18 -3.240381E+06  1.481408E+02 -6.285628E+03 -4.857795E+02  6.170114E-10  3.582408E-11
         3  19 -3.240394E+06 -2.902311E+03 -1.905109E+04 -5.949126E+02  1.493959E+04 -1.438779E-02
         3  20 -3.239586E+06  4.505012E+02 -1.049508E+04 -5.456147E+01  9.687201E+03 -8.556277E-04
         3  21 -3.240381E+06  1.481461E+02 -6.285590E+03  4.857795E+02  4.434858E+03  3.487560E-03
         3  22 -3.240394E+06 -2.902312E+03 -1.905109E+04  9.780804E-09  1.493959E+04  4.777480E-10
         3  23 -3.239586E+06  4.505012E+02 -1.049508E+04 -7.074459E-09  9.687201E+03  2.043720E-09
         3  24 -3.240381E+06  1.481457E+02 -6.285591E+03  1.798815E-08  4.434858E+03 -5.034826E-10
         3  25 -3.240394E+06 -2.902311E+03 -1.905109E+04  5.949126E+02  1.493959E+04  1.438779E-02
         3  26 -3.239586E+06  4.505012E+02 -1.049508E+04  5.456147E+01  9.687201E+03  8.556314E-04
         3  27 -3.240381E+06  1.481461E+02 -6.285590E+03 -4.857795E+02  4.434858E+03 -3.487561E-03
         4   1 -3.240094E+06 -2.740776E+02 -4.974240E+03 -2.163102E+00 -3.426849E+03  1.200032E-05
         4   2 -3.239938E+06  6.001515E+01 -3.228532E+03  2.232506E+01 -1.825954E+03 -6.599122E-05
         4   3 -3.240092E+06 -9.085935E+00 -2.629972E+03  4.681357E+01 -2.250323E+02 -1.705498E-05
         4   4 -3.240094E+06 -2.740776E+02 -4.974240E+03  2.469986E-09 -3.426849E+03  2.214892E-10
         4   5 -3.239938E+06  6.001515E+01 -3.228532E+03  4.114839E-09 -1.825954E+03 -3.834273E-11
         4   6 -3.240092E+06 -9.085939E+00 -2.629972E+03  1.274459E-08 -2.250323E+02 -1.112053E-09
         4   7 -3.240094E+06 -2.740776E+02 -4.974240E+03  2.163102E+00 -3.426849E+03 -1.199945E-05
         4   8 -3.239938E+06  6.001515E+01 -3.228532E+03 -2.232506E+01 -1.825954E+03  6.599066E-05
         4   9 -3.240092E+06 -9.085935E+00 -2.629972E+03 -4.681357E+01 -2.250323E+02  1.705324E-05
         4  10 -3.240094E+06 -2.740808E+02 -4.974262E+03 -2.163102E+00 -2.119745E-09 -3.369334E-10
         4  11 -3.239938E+06  6.001425E+01 -3.228538E+03  2.232506E+01  1.850736E-09  1.021921E-10
         4  12 -3.240092E+06 -9.085949E+00 -2.629972E+03  4.681357E+01 -8.877225E-11 -9.467336E-10
         4  13 -3.240094E+06 -2.740808E+02 -4.974262E+03 -1.765152E-09  4.256506E-09 -5.256719E-10
         4  14 -3.239938E+06  6.001425E+01 -3.228538E+03 -6.611470E-09  1.222011E-09 -5.803012E-11
         4  15 -3.240092E+06 -9.085953E+00 -2.629972E+03 -7.104991E-10 -1.179701E-09 -1.696551E-10
         4  16 -3.240094E+06 -2.740808E+02 -4.974262E+03  2.163102E+00  1.553004E-09 -4.430903E-10
         4  17 -3.239938E+06  6.001425E+01 -3.228538E+03 -2.232506E+01  2.367326E-10  1.809737E-10
         4  18 -3.240092E+06 -9.085949E+00 -2.629972E+03 -4.681357E+01  1.356783E-09  7.284335E-10
         4  19 -3.240094E+06 -2.740776E+02 -4.974240E+03 -2.163102E+00  3.426849E+03 -1.200078E-05
         4  20 -3.239938E+06  6.001515E+01 -3.228532E+03  2.232506E+01  1.825954E+03  6.599177E-05
         4  21 -3.240092E+06 -9.085935E+00 -2.629972E+03  4.681357E+01  2.250323E+02  1.705407E-05
         4  22 -3.240094E+06 -2.740776E+02 -4.974240E+03  1.553835E-08  3.426849E+03 -1.445632E-09
         4  23 -3.239938E+06  6.001515E+01 -3.228532E+03 -1.735246E-08  1.825954E+03  1.203722E-10
         4  24 -3.240092E+06 -9.085939E+00 -2.629972E+03  1.806998E-08  2.250323E+02  6.154416E-10
         4  25 -3.240094E+06 -2.740776E+02 -4.974240E+03  2.163102E+00  3.426849E+03  1.199743E-05
         4  26 -3.239938E+06  6.001515E+01 -3.228532E+03 -2.232506E+01  1.825954E+03 -6.599092E-05
         4  27 -3.240092E+06 -9.085935E+00 -2.629972E+03 -4.681357E+01  2.250323E+02 -1.705277E-05
         5   1 -3.240092E+06 -8.669500E+00 -2.634078E+03 -4.777130E+01  2.490056E+02 -1.925831E-05
         5   2 -3.239937E+06  6.054301E+01 -3.250905E+03 -2.291085E+01  1.861037E+03 -6.902429E-05
         5   3 -3.240095E+06 -2.772629E+02 -5.023100E+03  1.949617E+00  3.473065E+03  1.096154E-05
         5   4 -3.240092E+06 -8.669504E+00 -2.634078E+03  1.699156E-08  2.490056E+02 -6.590217E-10
         5   5 -3.239937E+06  6.054301E+01 -3.250905E+03  1.182007E-08  1.861037E+03  4.735180E-10
         5   6 -3.240095E+06 -2.772629E+02 -5.023100E+03  2.544164E-08  3.473065E+03 -2.034395E-10
         5   7 -3.240092E+06 -8.669500E+00 -2.634078E+03  4.777130E+01  2.490056E+02  1.925733E-05
         5   8 -3.239937E+06  6.054301E+01 -3.250905E+03  2.291085E+01  1.861037E+03  6.902466E-05
         5   9 -3.240095E+06 -2.772629E+02 -5.023100E+03 -1.949617E+00  3.473065E+03 -1.096106E-05
         5  10 -3.240092E+06 -8.669516E+00 -2.634078E+03 -4.777130E+01  8.605737E-10 -1.051929E-09
         5  11 -3.239937E+06  6.054207E+01 -3.250911E+03 -2.291085E+01  1.515841E-09  4.258834E-11
         5  12 -3.240095E+06 -2.772662E+02 -5.023123E+03  1.949617E+00 -1.593139E-09 -3.866117E-10
         5  13 -3.240092E+06 -8.669521E+00 -2.634078E+03  4.099438E-09  2.343320E-09 -3.045603E-10
         5  14 -3.239937E+06  6.054207E+01 -3.250911E+03  1.611814E-08  2.297574E-09 -1.164050E-10
         5  15 -3.240095E+06 -2.772662E+02 -5.023123E+03  3.245591E-08 -3.119937E-09  1.124875E-10
         5  16 -3.240092E+06 -8.669516E+00 -2.634078E+03  4.777130E+01 -4.631499E-10  7.072331E-10
         5  17 -3.239937E+06  6.054207E+01 -3.250911E+03  2.291085E+01 -9.246639E-10  3.980780E-10
         5  18 -3.240095E+06 -2.772662E+02 -5.023123E+03 -1.949617E+00 -1.716940E-09  2.945543E-10
         5  19 -3.240092E+06 -8.669500E+00 -2.634078E+03 -4.777130E+01 -2.490056E+02  1.925540E-05
         5  20 -3.239937E+06  6.054301E+01 -3.250905E+03 -2.291085E+01 -1.861037E+03  6.902335E-05
         5  21 -3.240095E+06 -2.772629E+02 -5.023100E+03  1.949617E+00 -3.473065E+03 -1.096119E-05
         5  22 -3.240092E+06 -8.669504E+00 -2.634078E+03  2.995922E-08 -2.490056E+02 -6.141401E-11
         5  23 -3.239937E+06  6.054301E+01 -3.250905E+03  3.228111E-09 -1.861037E+03 -8.103098E-10
         5  24 -3.240095E+06 -2.772629E+02 -5.023100E+03  4.802228E-08 -3.473065E+03  3.417354E-10
         5  25 -3.240092E+06 -8.669500E+00 -2.634078E+03  4.777130E+01 -2.490056E+02 -1.925621E-05
         5  26 -3.239937E+06  6.054301E+01 -3.250905E+03  2.291085E+01 -1.861037E+03 -6.902535E-05
         5  27 -3.240095E+06 -2.772629E+02 -5.023100E+03 -1.949617E+00 -3.473065E+03  1.096159E-05
         6   1 -3.240385E+06  1.498733E+02 -6.351629E+03 -4.915321E+02  4.491273E+03 -3.573751E-03
         6   2 -3.239581E+06  4.556858E+02 -1.061243E+04  5.509621E+01  9.802478E+03  8.742984E-04
         6   3 -3.240399E+06 -2.935795E+03 -1.926882E+04  6.017185E+02  1.511357E+04  1.472186E-02
         6   4 -3.240385E+06  1.498729E+02 -6.351630E+03  2.912092E-08  4.491273E+03 -2.208416E-10
         6   5 -3.239581E+06  4.556858E+02 -1.061243E+04  1.194679E-08  9.802478E+03  3.768990E-10
         6   6 -3.240399E+06 -2.935796E+03 -1.926882E+04  6.614348E-09  1.511357E+04 -6.961687E-10
         6   7 -3.240385E+06  1.498733E+02 -6.351629E+03  4.915321E+02  4.491273E+03  3.573750E-03
         6   8 -3.239581E+06  4.556858E+02 -1.061243E+04 -5.509621E+01  9.802478E+03 -8.742985E-04
         6   9 -3.240399E+06 -2.935795E+03 -1.926882E+04 -6.017185E+02  1.511357E+04 -1.472186E-02
         6  10 -3.240385E+06  1.498679E+02 -6.351668E+03 -4.915321E+02 -4.416987E-09 -5.966282E-11
         6  11 -3.239581E+06  4.556598E+02 -1.061262E+04  5.509621E+01 -3.039310E-09  8.388824E-11
         6  12 -3.240399E+06 -2.935857E+03 -1.926925E+04  6.017185E+02  8.571990E-11 -1.249717E-10
         6  13 -3.240385E+06  1.498674E+02 -6.351668E+03  1.623716E-08 -6.913939E-09  1.230632E-10
         6  14 -3.239581E+06  4.556598E+02 -1.061262E+04  1.836875E-08 -3.519405E-09 -3.429337E-12
         6  15 -3.240399E+06 -2.935857E+03 -1.926925E+04  1.406364E-08 -2.639537E-09 -7.849480E-10
         6  16 -3.240385E+06  1.498679E+02 -6.351668E+03  4.915321E+02 -1.712101E-09  3.101763E-10
         6  17 -3.239581E+06  4.556598E+02 -1.061262E+04 -5.509621E+01 -1.790974E-09 -2.254040E-10
         6  18 -3.240399E+06 -2.935857E+03 -1.926925E+04 -6.017185E+02  1.767049E-09 -1.584210E-09
         6  19 -3.240385E+06  1.498733E+02 -6.351629E+03 -4.915321E+02 -4.491273E+03  3.573750E-03
         6  20 -3.239581E+06  4.556858E+02 -1.061243E+04  5.509621E+01 -9.802478E+03 -8.742975E-04
         6  21 -3.240399E+06 -2.935795E+03 -1.926882E+04  6.017185E+02 -1.511357E+04 -1.472186E-02
         6  22 -3.240385E+06  1.498729E+02 -6.351630E+03  3.774225E-08 -4.491273E+03  6.266500E-10
         6  23 -3.239581E+06  4.556858E+02 -1.061243E+04  1.618823E-08 -9.802478E+03 -4.134927E-10
         6  24 -3.240399E+06 -2.935796E+03 -1.926882E+04  3.175604E-08 -1.511357E+04 -8.802242E-10
         6  25 -3.240385E+06  1.498733E+02 -6.351629E+03  4.915321E+02 -4.491273E+03 -3.573749E-03
         6  26 -3.239581E+06  4.556858E+02 -1.061243E+04 -5.509621E+01 -9.802478E+03  8.742971E-04
         6  27 -3.240399E+06 -2.935795E+03 -1.926882E+04 -6.017185E+02 -1.511357E+04  1.472186E-02
         7   1 -3.242662E+06  1.532914E+03 -2.463200E+04 -4.262612E+03  1.898109E+04 -1.309788E-01
         7   2 -3.236776E+06  4.154873E+03 -4.148400E+04  2.155562E+03  4.019161E+04  1.402475E-01
         7   3 -3.242736E+06 -2.946219E+04 -8.125621E+04  8.573864E+03  6.140205E+04  8.522377E-01
         7   4 -3.242662E+06  1.532880E+03 -2.463201E+04  3.995847E-08  1.898109E+04 -1.701585E-09
         7   5 -3.236776E+06  4.154865E+03 -4.148400E+04  9.121019E-09  4.019161E+04 -1.017190E-09
         7   6 -3.242737E+06 -2.946233E+04 -8.125623E+04 -3.947690E-08  6.140205E+04  2.268334E-09
         7   7 -3.242662E+06  1.532914E+03 -2.463200E+04  4.262612E+03  1.898109E+04  1.309787E-01
         7   8 -3.236776E+06  4.154873E+03 -4.148400E+04 -2.155562E+03  4.019161E+04 -1.402475E-01
         7   9 -3.242736E+06 -2.946219E+04 -8.125621E+04 -8.573864E+03  6.140205E+04 -8.522377E-01
         7  10 -3.242662E+06  1.532817E+03 -2.463268E+04 -4.262612E+03 -3.364936E-09  7.184370E-11
         7  11 -3.236778E+06  4.154437E+03 -4.148705E+04  2.155562E+03  4.940676E-09 -4.218612E-10
         7  12 -3.242741E+06 -2.946321E+04 -8.126333E+04  8.573864E+03  7.480842E-09  1.705509E-09
         7  13 -3.242662E+06  1.532783E+03 -2.463269E+04  9.670397E-09  4.933827E-10 -1.095792E-09
         7  14 -3.236778E+06  4.154428E+03 -4.148705E+04  9.484544E-09 -5.523641E-09 -2.375969E-10
         7  15 -3.242741E+06 -2.946335E+04 -8.126335E+04 -1.542317E-08  1.489175E-10  1.937854E-09
         7  16 -3.242662E+06  1.532817E+03 -2.463268E+04  4.262612E+03  1.113141E-09 -1.930790E-09
         7  17 -3.236778E+06  4.154437E+03 -4.148705E+04 -2.155562E+03 -4.592486E-09 -3.116788E-10
         7  18 -3.242741E+06 -2.946321E+04 -8.126333E+04 -8.573864E+03 -6.949704E-09  1.968303E-09
         7  19 -3.242662E+06  1.532914E+03 -2.463200E+04 -4.262612E+03 -1.898109E+04  1.309788E-01
         7  20 -3.236776E+06  4.154873E+03 -4.148400E+04  2.155562E+03 -4.019161E+04 -1.402475E-01
         7  21 -3.242736E+06 -2.946219E+04 -8.125621E+04  8.573864E+03 -6.140205E+04 -8.522377E-01
         7  22 -3.242662E+06  1.532880E+03 -2.463201E+04  2.232988E-08 -1.898109E+04 -6.031131E-10
         7  23 -3.236776E+06  4.154865E+03 -4.148400E+04  5.547761E-09 -4.019161E+04  4.321556E-10
         7  24 -3.242737E+06 -2.946233E+04 -8.125623E+04  6.079388E-08 -6.140205E+04  1.533473E-09
         7  25 -3.242662E+06  1.532914E+03 -2.463200E+04  4.262612E+03 -1.898109E+04 -1.309788E-01
         7  26 -3.236776E+06  4.154873E+03 -4.148400E+04 -2.155562E+03 -4.019161E+04  1.402475E-01
         7  27 -3.242736E+06 -2.946219E+04 -8.125621E+04 -8.573864E+03 -6.140205E+04  8.522377E-01
         8   1 -3.262165E+06  1.516917E+04 -9.973035E+04 -3.912968E+04  7.675874E+04 -4.862384E+00
         8   2 -3.212519E+06  3.931237E+04 -1.601139E+05  2.762674E+04  1.630457E+05  7.291547E+00
         8   3 -3.262634E+06 -2.900169E+05 -3.652349E+05  9.437753E+04  2.493346E+05  3.809340E+01
         8   4 -3.262167E+06  1.516627E+04 -9.973076E+04  5.867364E-08  7.675874E+04  2.878096E-09
         8   5 -3.212520E+06  3.931093E+04 -1.601141E+05  1.150104E-08  1.630457E+05  6.922198E-10
         8   6 -3.262644E+06 -2.900337E+05 -3.652373E+05 -6.120902E-09  2.493346E+05 -2.955777E-10
         8   7 -3.262165E+06  1.516917E+04 -9.973035E+04  3.912968E+04  7.675874E+04  4.862384E+00
         8   8 -3.212519E+06  3.931237E+04 -1.601139E+05 -2.762674E+04  1.630457E+05 -7.291547E+00
         8   9 -3.262634E+06 -2.900169E+05 -3.652349E+05 -9.437753E+04  2.493346E+05 -3.809340E+01
         8  10 -3.262172E+06  1.516757E+04 -9.974148E+04 -3.912968E+04 -9.506730E-09  1.993536E-09
         8  11 -3.212548E+06  3.930519E+04 -1.601641E+05  2.762674E+04 -6.815489E-09 -4.245508E-10
         8  12 -3.262701E+06 -2.900337E+05 -3.653524E+05  9.437753E+04  6.918085E-10 -5.096994E-10
         8  13 -3.262173E+06  1.516468E+04 -9.974189E+04 -6.809647E-09 -4.402552E-09  1.817322E-09
         8  14 -3.212548E+06  3.930375E+04 -1.601643E+05 -1.250229E-08 -2.006726E-09 -2.601630E-10
         8  15 -3.262711E+06 -2.900505E+05 -3.653548E+05 -8.499789E-09 -1.245814E-09 -3.106341E-10
         8  16 -3.262172E+06  1.516757E+04 -9.974148E+04  3.912968E+04  8.159800E-09  2.017084E-09
         8  17 -3.212548E+06  3.930519E+04 -1.601641E+05 -2.762674E+04  3.963419E-09  7.551361E-11
         8  18 -3.262701E+06 -2.900337E+05 -3.653524E+05 -9.437753E+04 -1.770231E-10 -2.733883E-10
         8  19 -3.262165E+06  1.516917E+04 -9.973035E+04 -3.912968E+04 -7.675874E+04  4.862384E+00
         8  20 -3.212519E+06  3.931237E+04 -1.601139E+05  2.762674E+04 -1.630457E+05 -7.291547E+00
         8  21 -3.262634E+06 -2.900169E+05 -3.652349E+05  9.437753E+04 -2.493346E+05 -3.809340E+01
         8  22 -3.262167E+06  1.516627E+04 -9.973076E+04 -5.940433E-08 -7.675874E+04  8.163732E-10
         8  23 -3.212520E+06  3.931093E+04 -1.601141E+05 -1.499177E-08 -1.630457E+05 -9.430915E-10
         8  24 -3.262644E+06 -2.900337E+05 -3.652373E+05  2.995750E-08 -2.493346E+05 -4.226300E-10
         8  25 -3.262165E+06  1.516917E+04 -9.973035E+04  3.912968E+04 -7.675874E+04 -4.862384E+00
         8  26 -3.212519E+06  3.931237E+04 -1.601139E+05 -2.762674E+04 -1.630457E+05  7.291547E+00
         8  27 -3.262634E+06 -2.900169E+05 -3.652349E+05 -9.437753E+04 -2.493346E+05  3.809340E+01
         9   1  2.133707E+06  7.381299E+06  2.054159E+06 -1.311114E+06  9.799255E+04  7.448144E+05
         9   2  1.660764E+06  6.268928E+06  1.399347E+06 -1.143481E+06  3.240945E+05  3.475214E+05
         9   3  1.356165E+06  5.254031E+06  1.044149E+06 -1.179692E+06  3.688904E+05 -4.890488E+04
         9   4  1.965602E+05 -4.954736E+05  2.141446E+05 -1.168855E+06  9.957860E+04  1.475576E+05
         9   5  5.026277E+04 -5.120998E+05  1.062929E+05 -1.067268E+06  3.252537E+05  9.398930E+04
         9   6  1.398986E+04 -4.908838E+05  6.145257E+04 -1.169472E+06  3.687964E+05  4.051266E+04
         9   7 -1.744717E+06 -8.314672E+06 -1.628754E+06 -1.028316E+06  1.009091E+05 -4.422466E+05
         9   8 -1.562886E+06 -7.248945E+06 -1.188603E+06 -9.918326E+05  3.263602E+05 -1.568636E+05
         9   9 -1.329937E+06 -6.203507E+06 -9.223192E+05 -1.159287E+06  3.687046E+05  1.291328E+05
         9  10  2.133550E+06  7.380707E+06  2.053110E+06 -1.311172E+06 -1.996139E-09 -1.186384E-08
         9  11  1.660619E+06  6.268771E+06  1.398923E+06 -1.143571E+06 -1.376168E-09  1.872778E-08
         9  12  1.356019E+06  5.253992E+06  1.043889E+06 -1.179678E+06 -5.657854E-09  4.741450E-08
         9  13  1.965437E+05 -4.954996E+05  2.140848E+05 -1.168867E+06 -2.600198E-09 -1.162853E-10
         9  14  5.014676E+04 -5.121377E+05  1.060773E+05 -1.067293E+06 -1.368636E-09  1.282382E-11
         9  15  1.384336E+04 -4.909221E+05  6.119383E+04 -1.169484E+06 -3.359473E-09  1.333642E-10
         9  16 -1.744781E+06 -8.314886E+06 -1.629146E+06 -1.028280E+06  5.962750E-10  1.157563E-08
         9  17 -1.563007E+06 -7.249000E+06 -1.188850E+06 -9.917912E+05  1.351432E-09 -1.875635E-08
         9  18 -1.330088E+06 -6.203562E+06 -9.226066E+05 -1.159325E+06 -1.041844E-09 -4.694164E-08
         9  19  2.133707E+06  7.381299E+06  2.054159E+06 -1.311114E+06 -9.799255E+04 -7.448144E+05
         9  20  1.660764E+06  6.268928E+06  1.399347E+06 -1.143481E+06 -3.240945E+05 -3.475214E+05
         9  21  1.356165E+06  5.254031E+06  1.044149E+06 -1.179692E+06 -3.688904E+05  4.890488E+04
         9  22  1.965602E+05 -4.954736E+05  2.141446E+05 -1.168855E+06 -9.957860E+04 -1.475576E+05
         9  23  5.026277E+04 -5.120998E+05  1.062929E+05 -1.067268E+06 -3.252537E+05 -9.398930E+04
         9  24  1.398986E+04 -4.908838E+05  6.145257E+04 -1.169472E+06 -3.687964E+05 -4.051266E+04
         9  25 -1.744717E+06 -8.314672E+06 -1.628754E+06 -1.028316E+06 -1.009091E+05  4.422466E+05
         9  26 -1.562886E+06 -7.248945E+06 -1.188603E+06 -9.918326E+05 -3.263602E+05  1.568636E+05
         9  27 -1.329937E+06 -6.203507E+06 -9.223192E+05 -1.159287E+06 -3.687046E+05 -1.291328E+05
        10   1  1.194540E+06  4.557625E+06  8.998423E+05 -1.194180E+06  3.360139E+05 -4.613839E+04
        10   2  9.354678E+05  3.489296E+06  6.804266E+05 -1.079668E+06  2.855996E+05 -9.685011E+04
        10   3  6.936455E+05  2.432543E+06  4.980553E+05 -1.181350E+06  2.170419E+05 -1.477087E+05
        10   4  1.577529E+04 -4.968871E+05  4.859494E+04 -1.172211E+06  3.358705E+05  3.203236E+04
        10   5  9.937336E+03 -4.977795E+05  3.289521E+04 -1.064087E+06  2.851436E+05  1.553684E+04
        10   6  1.552920E+04 -4.940749E+05  3.063636E+04 -1.172237E+06  2.162133E+05 -1.187966E+03
        10   7 -1.164326E+06 -5.526318E+06 -8.034422E+05 -1.150376E+06  3.357318E+05  1.095901E+05
        10   8 -9.163938E+05 -4.469119E+06 -6.150332E+05 -1.048577E+06  2.846913E+05  1.272301E+05
        10   9 -6.630044E+05 -3.412151E+06 -4.369262E+05 -1.163148E+06  2.153863E+05  1.446690E+05
        10  10  1.194419E+06  4.557592E+06  8.996263E+05 -1.194167E+06 -5.560339E-09 -5.070361E-08
        10  11  9.353778E+05  3.489264E+06  6.802560E+05 -1.079646E+06  2.780661E-09 -1.973513E-08
        10  12  6.935892E+05  2.432507E+06  4.979262E+05 -1.181324E+06 -9.785190E-10  1.367574E-08
        10  13  1.565388E+04 -4.969184E+05  4.838098E+04 -1.172220E+06 -3.929831E-09  1.636969E-10
        10  14  9.849974E+03 -4.978016E+05  3.274197E+04 -1.064091E+06 -2.988663E-09  1.187690E-10
        10  15  1.547901E+04 -4.940874E+05  3.054854E+04 -1.172236E+06  1.213831E-09  7.699234E-11
        10  16 -1.164451E+06 -5.526361E+06 -8.036771E+05 -1.150406E+06 -3.966033E-09  5.016692E-08
        10  17 -9.164852E+05 -4.469158E+06 -6.152164E+05 -1.048606E+06 -3.965046E-09  1.969846E-08
        10  18 -6.630599E+05 -3.412186E+06 -4.370532E+05 -1.163173E+06 -1.000171E-09 -1.363262E-08
        10  19  1.194540E+06  4.557625E+06  8.998423E+05 -1.194180E+06 -3.360139E+05  4.613839E+04
        10  20  9.354678E+05  3.489296E+06  6.804266E+05 -1.079668E+06 -2.855996E+05  9.685011E+04
        10  21  6.936455E+05  2.432543E+06  4.980553E+05 -1.181350E+06 -2.170419E+05  1.477087E+05
        10  22  1.577529E+04 -4.968871E+05  4.859494E+04 -1.172211E+06 -3.358705E+05 -3.203236E+04
        10  23  9.937336E+03 -4.977795E+05  3.289521E+04 -1.064087E+06 -2.851436E+05 -1.553684E+04
        10  24  1.552920E+04 -4.940749E+05  3.063636E+04 -1.172237E+06 -2.162133E+05  1.187966E+03
        10  25 -1.164326E+06 -5.526318E+06 -8.034422E+05 -1.150376E+06 -3.357318E+05 -1.095901E+05
        10  26 -9.163938E+05 -4.469119E+06 -6.150332E+05 -1.048577E+06 -2.846913E+05 -1.272301E+05
        10  27 -6.630044E+05 -3.412151E+06 -4.369262E+05 -1.163148E+06 -2.153863E+05 -1.446690E+05
        11   1  5.365157E+05  1.754687E+06  3.868826E+05 -1.184260E+06  1.708978E+05 -1.520562E+05
        11   2  3.056719E+05  6.878342E+05  2.287729E+05 -1.044172E+06  9.491076E+04 -1.706043E+05
        11   3  1.181854E+05 -3.668553E+05  9.290564E+04 -1.121280E+06  2.199767E+04 -1.891752E+05
        11   4  1.667630E+04 -4.917609E+05  3.273969E+04 -1.172474E+06  1.699998E+05 -6.432694E+03
        11   5  3.264309E+04 -4.973302E+05  4.683464E+04 -1.063680E+06  9.400197E+04 -3.082797E+04
        11   6  9.304113E+04 -4.908972E+05  8.718035E+04 -1.172053E+06  2.108198E+04 -5.527285E+04
        11   7 -5.034014E+05 -2.733143E+06 -3.214488E+05 -1.160720E+06  1.691050E+05  1.386845E+05
        11   8 -2.404413E+05 -1.681047E+06 -1.350609E+05 -1.083147E+06  9.308324E+04  1.086920E+05
        11   9  6.791603E+04 -6.148778E+05  8.152486E+04 -1.222814E+06  2.014424E+04  7.860492E+04
        11  10  5.364782E+05  1.754655E+06  3.867846E+05 -1.184239E+06 -4.836109E-10  4.241980E-09
        11  11  3.056545E+05  6.878006E+05  2.287015E+05 -1.044159E+06  7.738570E-10  2.040291E-10
        11  12  1.181753E+05 -3.668939E+05  9.283748E+04 -1.121277E+06  2.502921E-09 -4.318819E-09
        11  13  1.664527E+04 -4.917687E+05  3.268533E+04 -1.172473E+06  9.414389E-10  2.412476E-10
        11  14  3.263336E+04 -4.973335E+05  4.681627E+04 -1.063678E+06  1.848528E-09 -1.766110E-11
        11  15  9.303983E+04 -4.909006E+05  8.717378E+04 -1.172052E+06  2.521547E-09 -8.977754E-12
        11  16 -5.034373E+05 -2.733172E+06 -3.215391E+05 -1.160739E+06 -1.394003E-09 -4.009066E-09
        11  17 -2.404538E+05 -1.681062E+06 -1.350995E+05 -1.083155E+06  1.127017E-09  7.393236E-11
        11  18  6.791393E+04 -6.148845E+05  8.151246E+04 -1.222816E+06  4.669339E-10  4.444687E-09
        11  19  5.365157E+05  1.754687E+06  3.868826E+05 -1.184260E+06 -1.708978E+05  1.520562E+05
        11  20  3.056719E+05  6.878342E+05  2.287729E+05 -1.044172E+06 -9.491076E+04  1.706043E+05
        11  21  1.181854E+05 -3.668553E+05  9.290564E+04 -1.121280E+06 -2.199767E+04  1.891752E+05
        11  22  1.667630E+04 -4.917609E+05  3.273969E+04 -1.172474E+06 -1.699998E+05  6.432694E+03
        11  23  3.264309E+04 -4.973302E+05  4.683464E+04 -1.063680E+06 -9.400197E+04  3.082797E+04
        11  24  9.304113E+04 -4.908972E+05  8.718035E+04 -1.172053E+06 -2.108198E+04  5.527285E+04
        11  25 -5.034014E+05 -2.733143E+06 -3.214488E+05 -1.160720E+06 -1.691050E+05 -1.386845E+05
        11  26 -2.404413E+05 -1.681047E+06 -1.350609E+05 -1.083147E+06 -9.308324E+04 -1.086920E+05
        11  27  6.791603E+04 -6.148778E+05  8.152486E+04 -1.222814E+06 -2.014424E+04 -7.860492E+04
        12   1 -4.124593E+06 -1.186063E+06 -6.770479E+05 -1.510534E+06 -3.875991E+05 -1.420239E+05
        12   2 -4.018786E+06 -5.938133E+05 -3.111857E+05 -1.559055E+06 -2.485499E+05 -8.408600E+04
        12   3 -4.112826E+06 -5.713135E+05 -2.001714E+05 -1.494280E+06 -1.069065E+05 -3.303789E+04
        12   4 -3.953084E+06 -9.874774E+05 -6.036880E+05 -1.326318E+06 -3.834350E+05 -1.405686E+05
        12   5 -3.821909E+06 -4.812814E+05 -2.518383E+05 -1.465847E+06 -2.477657E+05 -8.381168E+04
        12   6 -3.889837E+06 -5.440935E+05 -1.520881E+05 -1.492110E+06 -1.094959E+05 -3.399573E+04
        12   7 -3.781502E+06 -7.887638E+05 -5.303231E+05 -1.142032E+06 -3.792696E+05 -1.391104E+05
        12   8 -3.624990E+06 -3.687288E+05 -1.924944E+05 -1.372607E+06 -2.469811E+05 -8.353712E+04
        12   9 -3.666794E+06 -5.168707E+05 -1.040055E+05 -1.489944E+06 -1.120862E+05 -3.495337E+04
        12  10 -4.124760E+06 -1.186125E+06 -6.773706E+05 -1.510578E+06 -1.190702E-09  4.740231E-10
        12  11 -4.018854E+06 -5.938377E+05 -3.113160E+05 -1.559072E+06 -2.647402E-10  1.371895E-09
        12  12 -4.112838E+06 -5.713178E+05 -2.001951E+05 -1.494283E+06 -1.289252E-09 -5.162430E-10
        12  13 -3.953248E+06 -9.875385E+05 -6.040037E+05 -1.326361E+06 -2.482252E-09  5.703808E-10
        12  14 -3.821977E+06 -4.813056E+05 -2.519678E+05 -1.465864E+06 -2.534547E-09  1.168461E-09
        12  15 -3.889851E+06 -5.440980E+05 -1.521130E+05 -1.492113E+06  3.297284E-09 -1.820256E-10
        12  16 -3.781663E+06 -7.888236E+05 -5.306319E+05 -1.142075E+06  2.274155E-09  8.201608E-10
        12  17 -3.625058E+06 -3.687529E+05 -1.926230E+05 -1.372624E+06  9.597860E-10  1.262943E-09
        12  18 -3.666808E+06 -5.168754E+05 -1.040316E+05 -1.489947E+06 -2.664413E-09  5.535008E-10
        12  19 -4.124593E+06 -1.186063E+06 -6.770479E+05 -1.510534E+06  3.875991E+05  1.420239E+05
        12  20 -4.018786E+06 -5.938133E+05 -3.111857E+05 -1.559055E+06  2.485499E+05  8.408600E+04
        12  21 -4.112826E+06 -5.713135E+05 -2.001714E+05 -1.494280E+06  1.069065E+05  3.303789E+04
        12  22 -3.953084E+06 -9.874774E+05 -6.036880E+05 -1.326318E+06  3.834350E+05  1.405686E+05
        12  23 -3.821909E+06 -4.812814E+05 -2.518383E+05 -1.465847E+06  2.477657E+05  8.381168E+04
        12  24 -3.889837E+06 -5.440935E+05 -1.520881E+05 -1.492110E+06  1.094959E+05  3.399573E+04
        12  25 -3.781502E+06 -7.887638E+05 -5.303231E+05 -1.142032E+06  3.792696E+05  1.391104E+05
        12  26 -3.624990E+06 -3.687288E+05 -1.924944E+05 -1.372607E+06  2.469811E+05  8.353712E+04
        12  27 -3.666794E+06 -5.168707E+05 -1.040055E+05 -1.489944E+06  1.120862E+05  3.495337E+04
        13   1 -3.979548E+06 -6.611367E+05 -1.551264E+05 -1.500070E+06 -8.664741E+04 -2.787796E+04
        13   2 -3.936654E+06 -5.708408E+05 -7.859031E+04 -1.480700E+06 -5.499309E+04 -1.773916E+04
        13   3 -3.894272E+06 -5.650146E+05 -4.132402E+04 -1.476393E+06 -2.312958E+04 -8.149185E+03
        13   4 -3.869839E+06 -6.068650E+05 -1.236074E+05 -1.456839E+06 -8.726035E+04 -2.810981E+04
        13   5 -3.866218E+06 -5.410234E+05 -5.934015E+04 -1.458124E+06 -5.587130E+04 -1.806838E+04
        13   6 -3.863053E+06 -5.595935E+05 -3.412449E+04 -1.474472E+06 -2.427528E+04 -8.577787E+03
        13   7 -3.760117E+06 -5.525898E+05 -9.208949E+04 -1.413599E+06 -8.787340E+04 -2.834175E+04
        13   8 -3.795778E+06 -5.112054E+05 -4.009050E+04 -1.435544E+06 -5.674962E+04 -1.839766E+04
        13   9 -3.831834E+06 -5.541724E+05 -2.692503E+04 -1.472551E+06 -2.542105E+04 -9.006381E+03
        13  10 -3.979556E+06 -6.611395E+05 -1.551421E+05 -1.500072E+06 -2.263816E-09 -1.259778E-09
        13  11 -3.936657E+06 -5.708419E+05 -7.859663E+04 -1.480701E+06  3.265232E-09 -1.606342E-10
        13  12 -3.894272E+06 -5.650148E+05 -4.132516E+04 -1.476393E+06 -2.186867E-09 -3.088482E-10
        13  13 -3.869847E+06 -6.068679E+05 -1.236233E+05 -1.456841E+06 -1.768112E-09 -9.289070E-10
        13  14 -3.866221E+06 -5.410246E+05 -5.934667E+04 -1.458124E+06  2.441359E-09 -4.389598E-10
        13  15 -3.863054E+06 -5.595937E+05 -3.412574E+04 -1.474472E+06 -5.087844E-10  2.506649E-10
        13  16 -3.760126E+06 -5.525927E+05 -9.210562E+04 -1.413601E+06 -1.117538E-09 -5.651181E-10
        13  17 -3.795781E+06 -5.112066E+05 -4.009723E+04 -1.435545E+06 -2.524359E-09 -7.944908E-10
        13  18 -3.831835E+06 -5.541727E+05 -2.692640E+04 -1.472551E+06  3.411170E-10  5.877414E-10
        13  19 -3.979548E+06 -6.611367E+05 -1.551264E+05 -1.500070E+06  8.664741E+04  2.787796E+04
        13  20 -3.936654E+06 -5.708408E+05 -7.859031E+04 -1.480700E+06  5.499309E+04  1.773916E+04
        13  21 -3.894272E+06 -5.650146E+05 -4.132402E+04 -1.476393E+06  2.312958E+04  8.149185E+03
        13  22 -3.869839E+06 -6.068650E+05 -1.236074E+05 -1.456839E+06  8.726035E+04  2.810981E+04
        13  23 -3.866218E+06 -5.410234E+05 -5.934015E+04 -1.458124E+06  5.587130E+04  1.806838E+04
        13  24 -3.863053E+06 -5.595935E+05 -3.412449E+04 -1.474472E+06  2.427528E+04  8.577787E+03
        13  25 -3.760117E+06 -5.525898E+05 -9.208949E+04 -1.413599E+06  8.787340E+04  2.834175E+04
        13  26 -3.795778E+06 -5.112054E+05 -4.009050E+04 -1.435544E+06  5.674962E+04  1.839766E+04
        13  27 -3.831834E+06 -5.541724E+05 -2.692503E+04 -1.472551E+06  2.542105E+04  9.006381E+03
        14   1 -3.821718E+06 -5.525309E+05 -1.638351E+04 -1.461120E+06 -1.791312E+04 -7.665283E+03
        14   2 -3.787008E+06 -5.161413E+05  8.425864E+03 -1.434755E+06 -1.012989E+04 -7.060649E+03
        14   3 -3.730048E+06 -5.116219E+05  2.627755E+04 -1.436326E+06 -2.343464E+03 -6.461694E+03
        14   4 -3.860574E+06 -5.660794E+05 -2.660923E+04 -1.470541E+06 -1.890620E+04 -8.037095E+03
        14   5 -3.871346E+06 -5.476798E+05 -1.383044E+04 -1.457491E+06 -1.112629E+04 -7.433784E+03
        14   6 -3.859867E+06 -5.611501E+05 -8.006125E+03 -1.472380E+06 -3.343755E+03 -6.836383E+03
        14   7 -3.899429E+06 -5.796280E+05 -3.683514E+04 -1.479961E+06 -1.989922E+04 -8.408888E+03
        14   8 -3.955677E+06 -5.792179E+05 -3.608746E+04 -1.480225E+06 -1.212255E+04 -7.806866E+03
        14   9 -3.989671E+06 -6.106774E+05 -4.229138E+04 -1.508426E+06 -4.343819E+03 -7.210984E+03
        14  10 -3.821718E+06 -5.525311E+05 -1.638423E+04 -1.461120E+06 -1.927597E-09  3.617482E-10
        14  11 -3.787008E+06 -5.161414E+05  8.425575E+03 -1.434755E+06 -2.011570E-09  8.933764E-10
        14  12 -3.730048E+06 -5.116219E+05  2.627746E+04 -1.436326E+06 -3.347996E-09  8.118577E-11
        14  13 -3.860575E+06 -5.660796E+05 -2.661003E+04 -1.470541E+06 -2.312333E-09  2.143632E-10
        14  14 -3.871346E+06 -5.476799E+05 -1.383078E+04 -1.457491E+06 -3.381599E-09  1.029486E-10
        14  15 -3.859867E+06 -5.611502E+05 -8.006234E+03 -1.472380E+06 -9.962074E-11  5.691183E-10
        14  16 -3.899430E+06 -5.796282E+05 -3.683602E+04 -1.479961E+06  1.678506E-09  3.540039E-10
        14  17 -3.955677E+06 -5.792180E+05 -3.608786E+04 -1.480225E+06 -7.042026E-10 -8.333252E-10
        14  18 -3.989671E+06 -6.106775E+05 -4.229151E+04 -1.508426E+06  2.451045E-09  1.072592E-09
        14  19 -3.821718E+06 -5.525309E+05 -1.638351E+04 -1.461120E+06  1.791312E+04  7.665283E+03
        14  20 -3.787008E+06 -5.161413E+05  8.425864E+03 -1.434755E+06  1.012989E+04  7.060649E+03
        14  21 -3.730048E+06 -5.116219E+05  2.627755E+04 -1.436326E+06  2.343464E+03  6.461694E+03
        14  22 -3.860574E+06 -5.660794E+05 -2.660923E+04 -1.470541E+06  1.890620E+04  8.037095E+03
        14  23 -3.871346E+06 -5.476798E+05 -1.383044E+04 -1.457491E+06  1.112629E+04  7.433784E+03
        14  24 -3.859867E+06 -5.611501E+05 -8.006125E+03 -1.472380E+06  3.343755E+03  6.836383E+03
        14  25 -3.899429E+06 -5.796280E+05 -3.683514E+04 -1.479961E+06  1.989922E+04  8.408888E+03
        14  26 -3.955677E+06 -5.792179E+05 -3.608746E+04 -1.480225E+06  1.212255E+04  7.806866E+03
        14  27 -3.989671E+06 -6.106774E+05 -4.229138E+04 -1.508426E+06  4.343819E+03  7.210984E+03
        15   1 -3.667282E+06 -4.889905E+05  4.477080E+04 -1.419219E+06 -7.542878E+02 -7.206503E+03
        15   2 -3.635993E+06 -4.603027E+05  5.828016E+04 -1.393930E+06  1.931277E+03 -8.422334E+03
        15   3 -3.581380E+06 -4.561544E+05  7.014512E+04 -1.395788E+06  4.586886E+03 -9.554476E+03
        15   4 -3.859908E+06 -5.614058E+05 -6.302271E+03 -1.471505E+06 -1.732053E+03 -7.572906E+03
        15   5 -3.871545E+06 -5.489373E+05 -3.979689E+03 -1.458007E+06  9.938909E+02 -8.773894E+03
        15   6 -3.859869E+06 -5.610173E+05 -3.333938E+03 -1.471658E+06  3.689732E+03 -9.891227E+03
        15   7 -4.052497E+06 -6.338186E+05 -5.737827E+04 -1.523776E+06 -2.709478E+03 -7.939182E+03
        15   8 -4.107043E+06 -6.375685E+05 -6.624421E+04 -1.522062E+06  5.689945E+01 -9.125306E+03
        15   9 -4.138283E+06 -6.658757E+05 -7.681982E+04 -1.547496E+06  2.793020E+03 -1.022781E+04
        15  10 -3.667282E+06 -4.889906E+05  4.477070E+04 -1.419219E+06 -1.852272E-09  5.710776E-11
        15  11 -3.635993E+06 -4.603027E+05  5.828002E+04 -1.393930E+06 -4.520423E-09  4.887900E-10
        15  12 -3.581380E+06 -4.561545E+05  7.014491E+04 -1.395788E+06  1.914507E-09 -1.990478E-09
        15  13 -3.859908E+06 -5.614059E+05 -6.302384E+03 -1.471505E+06 -2.398447E-09  5.924298E-10
        15  14 -3.871545E+06 -5.489374E+05 -3.979835E+03 -1.458007E+06 -4.161888E-09  1.450468E-10
        15  15 -3.859869E+06 -5.610174E+05 -3.334147E+03 -1.471657E+06  1.650381E-09 -1.678347E-09
        15  16 -4.052497E+06 -6.338187E+05 -5.737841E+04 -1.523776E+06  2.889937E-09  7.427939E-10
        15  17 -4.107043E+06 -6.375686E+05 -6.624437E+04 -1.522062E+06 -4.450557E-10  4.268805E-10
        15  18 -4.138283E+06 -6.658758E+05 -7.682003E+04 -1.547496E+06 -2.815865E-09 -2.258757E-09
        15  19 -3.667282E+06 -4.889905E+05  4.477080E+04 -1.419219E+06  7.542878E+02  7.206503E+03
        15  20 -3.635993E+06 -4.603027E+05  5.828016E+04 -1.393930E+06 -1.931277E+03  8.422334E+03
        15  21 -3.581380E+06 -4.561544E+05  7.014512E+04 -1.395788E+06 -4.586886E+03  9.554476E+03
        15  22 -3.859908E+06 -5.614058E+05 -6.302271E+03 -1.471505E+06  1.732053E+03  7.572906E+03
        15  23 -3.871545E+06 -5.489373E+05 -3.979689E+03 -1.458007E+06 -9.938909E+02  8.773894E+03
        15  24 -3.859869E+06 -5.610173E+05 -3.333938E+03 -1.471658E+06 -3.689732E+03  9.891227E+03
        15  25 -4.052497E+06 -6.338186E+05 -5.737827E+04 -1.523776E+06  2.709478E+03  7.939182E+03
        15  26 -4.107043E+06 -6.375685E+05 -6.624421E+04 -1.522062E+06 -5.689945E+01  9.125306E+03
        15  27 -4.138283E+06 -6.658757E+05 -7.681982E+04 -1.547496E+06 -2.793020E+03  1.022781E+04
        16   1 -3.526074E+06 -4.344215E+05  8.513835E+04 -1.379897E+06  5.516869E+03 -1.040526E+04
        16   2 -3.499227E+06 -4.099975E+05  9.362210E+04 -1.357897E+06  8.378547E+03 -1.128301E+04
        16   3 -3.452306E+06 -4.069572E+05  1.002553E+05 -1.359193E+06  1.118848E+04 -1.201813E+04
        16   4 -3.860597E+06 -5.602625E+05 -3.428346E+03 -1.470829E+06  4.640307E+03 -1.073453E+04
        16   5 -3.870674E+06 -5.498752E+05 -4.569989E+03 -1.459064E+06  7.570661E+03 -1.158691E+04
        16   6 -3.860691E+06 -5.608866E+05 -7.617523E+03 -1.470597E+06  1.044912E+04 -1.229667E+04
        16   7 -4.195011E+06 -6.860964E+05 -9.200447E+04 -1.561715E+06  3.764268E+03 -1.106361E+04
        16   8 -4.241986E+06 -6.897446E+05 -1.027740E+05 -1.560176E+06  6.763308E+03 -1.189062E+04
        16   9 -4.268914E+06 -7.148062E+05 -1.155051E+05 -1.581935E+06  9.710285E+03 -1.257501E+04
        16  10 -3.526074E+06 -4.344217E+05  8.513809E+04 -1.379897E+06 -3.420394E-10 -2.133357E-09
        16  11 -3.499228E+06 -4.099976E+05  9.362173E+04 -1.357897E+06  1.249106E-10  1.326983E-09
        16  12 -3.452306E+06 -4.069574E+05  1.002548E+05 -1.359193E+06  1.095926E-09  8.759446E-10
        16  13 -3.860597E+06 -5.602626E+05 -3.428602E+03 -1.470828E+06 -3.666014E-09 -1.496851E-09
        16  14 -3.870674E+06 -5.498754E+05 -4.570349E+03 -1.459064E+06  4.102319E-09  6.366797E-10
        16  15 -3.860691E+06 -5.608868E+05 -7.618012E+03 -1.470597E+06  1.249799E-09  9.896937E-10
        16  16 -4.195011E+06 -6.860966E+05 -9.200473E+04 -1.561715E+06 -1.490744E-09 -1.430230E-09
        16  17 -4.241986E+06 -6.897448E+05 -1.027743E+05 -1.560176E+06  2.591360E-09  1.230362E-10
        16  18 -4.268914E+06 -7.148064E+05 -1.155056E+05 -1.581935E+06  1.383786E-09  1.633500E-09
        16  19 -3.526074E+06 -4.344215E+05  8.513835E+04 -1.379897E+06 -5.516869E+03  1.040526E+04
        16  20 -3.499227E+06 -4.099975E+05  9.362210E+04 -1.357897E+06 -8.378547E+03  1.128301E+04
        16  21 -3.452306E+06 -4.069572E+05  1.002553E+05 -1.359193E+06 -1.118848E+04  1.201813E+04
        16  22 -3.860597E+06 -5.602625E+05 -3.428346E+03 -1.470829E+06 -4.640307E+03  1.073453E+04
        16  23 -3.870674E+06 -5.498752E+05 -4.569989E+03 -1.459064E+06 -7.570661E+03  1.158691E+04
        16  24 -3.860691E+06 -5.608866E+05 -7.617523E+03 -1.470597E+06 -1.044912E+04  1.229667E+04
        16  25 -4.195011E+06 -6.860964E+05 -9.200447E+04 -1.561715E+06 -3.764268E+03  1.106361E+04
        16  26 -4.241986E+06 -6.897446E+05 -1.027740E+05 -1.560176E+06 -6.763308E+03  1.189062E+04
        16  27 -4.268914E+06 -7.148062E+05 -1.155051E+05 -1.581935E+06 -9.710285E+03  1.257501E+04
        17   1 -3.407187E+06 -3.884586E+05  1.104819E+05 -1.346831E+06  1.292977E+04 -1.235928E+04
        17   2 -3.385996E+06 -3.680185E+05  1.105785E+05 -1.328632E+06  2.198299E+04 -1.049843E+04
        17   3 -3.352658E+06 -3.712300E+05  1.022567E+05 -1.326787E+06  3.093904E+04 -8.374161E+03
        17   4 -3.862125E+06 -5.590307E+05 -9.766597E+03 -1.469945E+06  1.219678E+04 -1.263570E+04
        17   5 -3.868627E+06 -5.502695E+05 -1.709378E+04 -1.460612E+06  2.137284E+04 -1.072908E+04
        17   6 -3.863009E+06 -5.651897E+05 -3.294214E+04 -1.467633E+06  3.045125E+04 -8.559157E+03
        17   7 -4.316861E+06 -7.295907E+05 -1.300329E+05 -1.592978E+06  1.146439E+04 -1.291190E+04
        17   8 -4.351030E+06 -7.325057E+05 -1.447860E+05 -1.592497E+06  2.076321E+04 -1.095954E+04
        17   9 -4.373105E+06 -7.591317E+05 -1.681632E+05 -1.608373E+06  2.996389E+04 -8.743987E+03
        17  10 -3.407187E+06 -3.884588E+05  1.104813E+05 -1.346831E+06  2.711291E-10  8.957716E-10
        17  11 -3.385997E+06 -3.680188E+05  1.105774E+05 -1.328632E+06  2.054599E-09  3.227364E-09
        17  12 -3.352659E+06 -3.712303E+05  1.022548E+05 -1.326787E+06  2.883242E-09 -4.603537E-10
        17  13 -3.862125E+06 -5.590309E+05 -9.767177E+03 -1.469945E+06  9.892321E-10  1.472713E-09
        17  14 -3.868628E+06 -5.502697E+05 -1.709486E+04 -1.460611E+06 -1.937392E-09  1.770693E-09
        17  15 -3.863010E+06 -5.651900E+05 -3.294403E+04 -1.467633E+06  3.704820E-09 -1.001669E-09
        17  16 -4.316861E+06 -7.295909E+05 -1.300335E+05 -1.592978E+06  4.351091E-09  2.445722E-09
        17  17 -4.351031E+06 -7.325059E+05 -1.447870E+05 -1.592497E+06 -1.037899E-09  1.284957E-09
        17  18 -4.373106E+06 -7.591320E+05 -1.681650E+05 -1.608372E+06  1.733426E-09 -1.825045E-09
        17  19 -3.407187E+06 -3.884586E+05  1.104819E+05 -1.346831E+06 -1.292977E+04  1.235928E+04
        17  20 -3.385996E+06 -3.680185E+05  1.105785E+05 -1.328632E+06 -2.198299E+04  1.049843E+04
        17  21 -3.352658E+06 -3.712300E+05  1.022567E+05 -1.326787E+06 -3.093904E+04  8.374161E+03
        17  22 -3.862125E+06 -5.590307E+05 -9.766597E+03 -1.469945E+06 -1.219678E+04  1.263570E+04
        17  23 -3.868627E+06 -5.502695E+05 -1.709378E+04 -1.460612E+06 -2.137284E+04  1.072908E+04
        17  24 -3.863009E+06 -5.651897E+05 -3.294214E+04 -1.467633E+06 -3.045125E+04  8.559157E+03
        17  25 -4.316861E+06 -7.295907E+05 -1.300329E+05 -1.592978E+06 -1.146439E+04  1.291190E+04
        17  26 -4.351030E+06 -7.325057E+05 -1.447860E+05 -1.592497E+06 -2.076321E+04  1.095954E+04
        17  27 -4.373105E+06 -7.591317E+05 -1.681632E+05 -1.608373E+06 -2.996389E+04  8.743987E+03
        18   1 -3.317415E+06 -3.561522E+05  1.017609E+05 -1.328840E+06  3.755046E+04 -6.757794E+03
        18   2 -3.301382E+06 -3.281600E+05  7.517715E+04 -1.305911E+06  7.545612E+04  6.544565E+03
        18   3 -3.307001E+06 -3.829121E+05  8.052622E+02 -1.276583E+06  1.128673E+05  2.116176E+04
        18   4 -3.867321E+06 -5.558547E+05 -4.225782E+04 -1.471052E+06  3.678344E+04 -7.047708E+03
        18   5 -3.860677E+06 -5.436420E+05 -7.357971E+04 -1.463253E+06  7.530159E+04  6.484210E+03
        18   6 -3.875834E+06 -6.143401E+05 -1.532111E+05 -1.449049E+06  1.133243E+05  2.132942E+04
        18   7 -4.416935E+06 -7.555448E+05 -1.863026E+05 -1.613153E+06  3.601717E+04 -7.337368E+03
        18   8 -4.419668E+06 -7.591016E+05 -2.223642E+05 -1.620464E+06  7.514719E+04  6.423905E+03
        18   9 -4.444351E+06 -8.457338E+05 -3.072566E+05 -1.621367E+06  1.137809E+05  2.149686E+04
        18  10 -3.317416E+06 -3.561526E+05  1.017582E+05 -1.328840E+06  1.231666E-09 -1.947441E-09
        18  11 -3.301389E+06 -3.281616E+05  7.516631E+04 -1.305912E+06 -4.205858E-09 -7.941942E-10
        18  12 -3.307015E+06 -3.829160E+05  7.803353E+02 -1.276585E+06 -6.776349E-10 -4.798631E-10
        18  13 -3.867322E+06 -5.558551E+05 -4.226047E+04 -1.471052E+06 -1.444880E-10 -2.060324E-09
        18  14 -3.860683E+06 -5.436436E+05 -7.359051E+04 -1.463253E+06 -5.873168E-09  1.722085E-10
        18  15 -3.875848E+06 -6.143441E+05 -1.532363E+05 -1.449051E+06 -5.942786E-10 -4.080460E-10
        18  16 -4.416937E+06 -7.555452E+05 -1.863052E+05 -1.613153E+06 -1.005647E-09 -1.150065E-09
        18  17 -4.419674E+06 -7.591032E+05 -2.223749E+05 -1.620464E+06 -1.212514E-09 -1.729243E-10
        18  18 -4.444365E+06 -8.457378E+05 -3.072820E+05 -1.621369E+06 -6.127512E-10  4.177979E-10
        18  19 -3.317415E+06 -3.561522E+05  1.017609E+05 -1.328840E+06 -3.755046E+04  6.757794E+03
        18  20 -3.301382E+06 -3.281600E+05  7.517715E+04 -1.305911E+06 -7.545612E+04 -6.544565E+03
        18  21 -3.307001E+06 -3.829121E+05  8.052622E+02 -1.276583E+06 -1.128673E+05 -2.116176E+04
        18  22 -3.867321E+06 -5.558547E+05 -4.225782E+04 -1.471052E+06 -3.678344E+04  7.047708E+03
        18  23 -3.860677E+06 -5.436420E+05 -7.357971E+04 -1.463253E+06 -7.530159E+04 -6.484210E+03
        18  24 -3.875834E+06 -6.143401E+05 -1.532111E+05 -1.449049E+06 -1.133243E+05 -2.132942E+04
        18  25 -4.416935E+06 -7.555448E+05 -1.863026E+05 -1.613153E+06 -3.601717E+04  7.337368E+03
        18  26 -4.419668E+06 -7.591016E+05 -2.223642E+05 -1.620464E+06 -7.514719E+04 -6.423905E+03
        18  27 -4.444351E+06 -8.457338E+05 -3.072566E+05 -1.621367E+06 -1.137809E+05 -2.149686E+04
        19   1 -3.251536E+06 -3.608756E+05 -3.040747E+04 -1.386174E+06  1.443404E+05  3.039030E+04
        19   2 -3.234893E+06 -2.071235E+05 -1.523975E+05 -1.268802E+06  3.077775E+05  9.234217E+04
        19   3 -3.490267E+06 -7.295737E+05 -5.810351E+05 -9.796841E+05  4.657236E+05  1.688169E+05
        19   4 -3.901365E+06 -5.357858E+05 -1.885215E+05 -1.491947E+06  1.407319E+05  2.904420E+04
        19   5 -3.804425E+06 -4.708846E+05 -3.122130E+05 -1.474300E+06  3.111382E+05  9.358307E+04
        19   6 -3.981184E+06 -1.084018E+06 -7.483248E+05 -1.284812E+06  4.760724E+05  1.725808E+05
        19   7 -4.550774E+06 -7.107067E+05 -3.466627E+05 -1.597641E+06  1.371276E+05  2.769862E+04
        19   8 -4.373634E+06 -7.345746E+05 -4.720585E+05 -1.679609E+06  3.144954E+05  9.482197E+04
        19   9 -4.471795E+06 -1.438187E+06 -9.156305E+05 -1.589659E+06  4.864122E+05  1.763340E+05
        19  10 -3.251559E+06 -3.608822E+05 -3.044860E+04 -1.386178E+06 -1.146158E-09 -6.867707E-10
        19  11 -3.234997E+06 -2.071583E+05 -1.525927E+05 -1.268825E+06 -6.527483E-10  8.696625E-10
        19  12 -3.490508E+06 -7.296631E+05 -5.814991E+05 -9.797477E+05  1.245112E-09  4.307566E-10
        19  13 -3.901387E+06 -5.357921E+05 -1.885606E+05 -1.491950E+06 -5.219496E-11 -9.441000E-11
        19  14 -3.804532E+06 -4.709202E+05 -3.124127E+05 -1.474323E+06  6.098441E-09 -1.336229E-10
        19  15 -3.981437E+06 -1.084111E+06 -7.488102E+05 -1.284879E+06 -1.340831E-09  5.365072E-10
        19  16 -4.550795E+06 -7.107126E+05 -3.466997E+05 -1.597644E+06  3.799435E-09  1.939298E-10
        19  17 -4.373743E+06 -7.346112E+05 -4.722629E+05 -1.679633E+06  2.652893E-09  6.171149E-10
        19  18 -4.472059E+06 -1.438285E+06 -9.161377E+05 -1.589728E+06  1.498921E-10 -3.154345E-10
        19  19 -3.251536E+06 -3.608756E+05 -3.040747E+04 -1.386174E+06 -1.443404E+05 -3.039030E+04
        19  20 -3.234893E+06 -2.071235E+05 -1.523975E+05 -1.268802E+06 -3.077775E+05 -9.234217E+04
        19  21 -3.490267E+06 -7.295737E+05 -5.810351E+05 -9.796841E+05 -4.657236E+05 -1.688169E+05
        19  22 -3.901365E+06 -5.357858E+05 -1.885215E+05 -1.491947E+06 -1.407319E+05 -2.904420E+04
        19  23 -3.804425E+06 -4.708846E+05 -3.122130E+05 -1.474300E+06 -3.111382E+05 -9.358307E+04
        19  24 -3.981184E+06 -1.084018E+06 -7.483248E+05 -1.284812E+06 -4.760724E+05 -1.725808E+05
        19  25 -4.550774E+06 -7.107067E+05 -3.466627E+05 -1.597641E+06 -1.371276E+05 -2.769862E+04
        19  26 -4.373634E+06 -7.345746E+05 -4.720585E+05 -1.679609E+06 -3.144954E+05 -9.482197E+04
        19  27 -4.471795E+06 -1.438187E+06 -9.156305E+05 -1.589659E+06 -4.864122E+05 -1.763340E+05
        20   1 -1.279277E+06  3.479536E+04  4.383559E+04  1.134703E+04  2.996337E+04  5.487298E-01
        20   2 -1.285268E+06 -4.710654E+03  1.922606E+04  3.321645E+03  1.960111E+04  1.050804E-01
        20   3 -1.279301E+06 -1.820047E+03  1.197266E+04 -4.703538E+03  9.238967E+03 -7.013452E-02
        20   4 -1.279278E+06  3.479512E+04  4.383556E+04  4.751944E-08  2.996337E+04 -2.691120E-10
        20   5 -1.285268E+06 -4.710674E+03  1.922606E+04  1.898485E-08  1.960111E+04 -4.215089E-10
        20   6 -1.279301E+06 -1.820089E+03  1.197265E+04 -2.557644E-09  9.238967E+03  6.938545E-10
        20   7 -1.279277E+06  3.479536E+04  4.383559E+04 -1.134703E+04  2.996337E+04 -5.487298E-01
        20   8 -1.285268E+06 -4.710654E+03  1.922606E+04 -3.321645E+03  1.960111E+04 -1.050804E-01
        20   9 -1.279301E+06 -1.820047E+03  1.197266E+04  4.703538E+03  9.238967E+03  7.013452E-02
        20  10 -1.279278E+06  3.479512E+04  4.383390E+04  1.134703E+04 -4.511091E-09 -1.497706E-11
        20  11 -1.285268E+06 -4.710757E+03  1.922534E+04  3.321645E+03  3.056896E-09 -2.163500E-10
        20  12 -1.279301E+06 -1.820070E+03  1.197250E+04 -4.703538E+03  6.425100E-09  3.753929E-11
        20  13 -1.279278E+06  3.479488E+04  4.383386E+04 -2.529595E-09 -1.247430E-12 -5.250792E-11
        20  14 -1.285268E+06 -4.710778E+03  1.922533E+04  1.038098E-08  1.059625E-09 -1.171702E-10
        20  15 -1.279301E+06 -1.820112E+03  1.197249E+04 -1.474087E-09 -1.169583E-09  1.635614E-10
        20  16 -1.279278E+06  3.479512E+04  4.383390E+04 -1.134703E+04  3.815665E-09  7.598572E-11
        20  17 -1.285268E+06 -4.710757E+03  1.922534E+04 -3.321645E+03  1.652537E-10  1.423199E-10
        20  18 -1.279301E+06 -1.820070E+03  1.197250E+04  4.703538E+03 -5.625245E-09  2.012452E-10
        20  19 -1.279277E+06  3.479536E+04  4.383559E+04  1.134703E+04 -2.996337E+04 -5.487298E-01
        20  20 -1.285268E+06 -4.710654E+03  1.922606E+04  3.321645E+03 -1.960111E+04 -1.050804E-01
        20  21 -1.279301E+06 -1.820047E+03  1.197266E+04 -4.703538E+03 -9.238967E+03  7.013452E-02
        20  22 -1.279278E+06  3.479512E+04  4.383556E+04 -3.104269E-08 -2.996337E+04  1.428124E-10
        20  23 -1.285268E+06 -4.710674E+03  1.922606E+04 -6.832029E-09 -1.960111E+04  1.259745E-10
        20  24 -1.279301E+06 -1.820089E+03  1.197265E+04  6.313461E-08 -9.238967E+03 -4.693613E-10
        20  25 -1.279277E+06  3.479536E+04  4.383559E+04 -1.134703E+04 -2.996337E+04  5.487298E-01
        20  26 -1.285268E+06 -4.710654E+03  1.922606E+04 -3.321645E+03 -1.960111E+04  1.050804E-01
        20  27 -1.279301E+06 -1.820047E+03  1.197266E+04  4.703538E+03 -9.238967E+03 -7.013452E-02
        21   1 -1.281638E+06  3.532487E+03  9.752489E+03  1.029838E+03  7.392020E+03  1.228620E-02
        21   2 -1.282349E+06 -4.976265E+02  4.973944E+03  2.585536E+02  4.847368E+03  2.022752E-03
        21   3 -1.281642E+06 -1.838044E+02  2.940698E+03 -5.127427E+02  2.302685E+03 -1.905543E-03
        21   4 -1.281638E+06  3.532485E+03  9.752489E+03  3.100487E-08  7.392020E+03  1.027889E-09
        21   5 -1.282349E+06 -4.976267E+02  4.973944E+03  1.555125E-08  4.847368E+03  9.068558E-10
        21   6 -1.281642E+06 -1.838049E+02  2.940698E+03 -9.850081E-10  2.302685E+03  1.258188E-09
        21   7 -1.281638E+06  3.532487E+03  9.752489E+03 -1.029838E+03  7.392020E+03 -1.228619E-02
        21   8 -1.282349E+06 -4.976265E+02  4.973944E+03 -2.585536E+02  4.847368E+03 -2.022750E-03
        21   9 -1.281642E+06 -1.838044E+02  2.940698E+03  5.127427E+02  2.302685E+03  1.905546E-03
        21  10 -1.281638E+06  3.532472E+03  9.752386E+03  1.029838E+03  4.405539E-10  4.670894E-10
        21  11 -1.282349E+06 -4.976329E+02  4.973900E+03  2.585536E+02  1.429991E-09  8.062610E-10
        21  12 -1.281642E+06 -1.838058E+02  2.940688E+03 -5.127427E+02 -1.098629E-09  6.972694E-10
        21  13 -1.281638E+06  3.532470E+03  9.752386E+03  1.808471E-08 -4.090557E-09  2.309007E-10
        21  14 -1.282349E+06 -4.976330E+02  4.973900E+03  1.771459E-08 -2.633562E-09  3.824728E-10
        21  15 -1.281642E+06 -1.838063E+02  2.940688E+03 -4.175386E-09 -1.821051E-09  6.502442E-10
        21  16 -1.281638E+06  3.532472E+03  9.752386E+03 -1.029838E+03 -1.718703E-09  1.283543E-10
        21  17 -1.282349E+06 -4.976329E+02  4.973900E+03 -2.585536E+02  1.654304E-09 -1.040833E-10
        21  18 -1.281642E+06 -1.838058E+02  2.940688E+03  5.127427E+02  2.349315E-09  8.660179E-10
        21  19 -1.281638E+06  3.532487E+03  9.752489E+03  1.029838E+03 -7.392020E+03 -1.228620E-02
        21  20 -1.282349E+06 -4.976265E+02  4.973944E+03  2.585536E+02 -4.847368E+03 -2.022749E-03
        21  21 -1.281642E+06 -1.838044E+02  2.940698E+03 -5.127427E+02 -2.302685E+03  1.905544E-03
        21  22 -1.281638E+06  3.532485E+03  9.752489E+03  3.098701E-08 -7.392020E+03 -5.975118E-10
        21  23 -1.282349E+06 -4.976267E+02  4.973944E+03  1.557542E-08 -4.847368E+03 -2.875495E-10
        21  24 -1.281642E+06 -1.838049E+02  2.940698E+03  1.684205E-08 -2.302685E+03 -6.859892E-11
        21  25 -1.281638E+06  3.532487E+03  9.752489E+03 -1.029838E+03 -7.392020E+03  1.228619E-02
        21  26 -1.282349E+06 -4.976265E+02  4.973944E+03 -2.585536E+02 -4.847368E+03  2.022749E-03
        21  27 -1.281642E+06 -1.838044E+02  2.940698E+03  5.127427E+02 -2.302685E+03 -1.905545E-03
        22   1 -1.281914E+06  3.517926E+02  2.289540E+03  7.153786E+01  1.841263E+03  2.125875E-04
        22   2 -1.282010E+06 -5.424044E+01  1.229487E+03  5.323104E+00  1.225245E+03  1.052477E-05
        22   3 -1.281915E+06 -1.822163E+01  6.816269E+02 -6.089168E+01  6.092267E+02 -5.987026E-05
        22   4 -1.281914E+06  3.517926E+02  2.289540E+03 -8.488411E-09  1.841263E+03  2.662534E-10
        22   5 -1.282010E+06 -5.424044E+01  1.229487E+03 -3.317197E-09  1.225245E+03 -1.362374E-09
        22   6 -1.281915E+06 -1.822164E+01  6.816269E+02  1.098676E-08  6.092267E+02  1.406956E-09
        22   7 -1.281914E+06  3.517926E+02  2.289540E+03 -7.153786E+01  1.841263E+03 -2.125867E-04
        22   8 -1.282010E+06 -5.424044E+01  1.229487E+03 -5.323104E+00  1.225245E+03 -1.052753E-05
        22   9 -1.281915E+06 -1.822163E+01  6.816269E+02  6.089168E+01  6.092267E+02  5.987331E-05
        22  10 -1.281914E+06  3.517917E+02  2.289533E+03  7.153786E+01 -1.785523E-09  1.295384E-10
        22  11 -1.282010E+06 -5.424085E+01  1.229484E+03  5.323104E+00  1.039254E-09 -2.800630E-10
        22  12 -1.281915E+06 -1.822173E+01  6.816262E+02 -6.089168E+01  1.853446E-09 -6.222505E-10
        22  13 -1.281914E+06  3.517917E+02  2.289533E+03  8.678578E-09 -1.681035E-11  4.462188E-10
        22  14 -1.282010E+06 -5.424085E+01  1.229484E+03 -1.197982E-09  1.424077E-09 -2.304851E-10
        22  15 -1.281915E+06 -1.822174E+01  6.816262E+02 -6.760470E-09  1.196105E-09 -4.500276E-10
        22  16 -1.281914E+06  3.517917E+02  2.289533E+03 -7.153786E+01 -9.214432E-10  5.961391E-10
        22  17 -1.282010E+06 -5.424085E+01  1.229484E+03 -5.323104E+00 -1.577464E-09 -1.683082E-10
        22  18 -1.281915E+06 -1.822173E+01  6.816262E+02  6.089168E+01  3.035711E-10 -2.858035E-10
        22  19 -1.281914E+06  3.517926E+02  2.289540E+03  7.153786E+01 -1.841263E+03 -2.125868E-04
        22  20 -1.282010E+06 -5.424044E+01  1.229487E+03  5.323105E+00 -1.225245E+03 -1.052506E-05
        22  21 -1.281915E+06 -1.822163E+01  6.816269E+02 -6.089168E+01 -6.092267E+02  5.986929E-05
        22  22 -1.281914E+06  3.517926E+02  2.289540E+03  8.611336E-09 -1.841263E+03  6.261803E-10
        22  23 -1.282010E+06 -5.424044E+01  1.229487E+03 -7.686955E-09 -1.225245E+03  8.554294E-10
        22  24 -1.281915E+06 -1.822164E+01  6.816269E+02  7.232958E-09 -6.092267E+02 -2.298678E-09
        22  25 -1.281914E+06  3.517926E+02  2.289540E+03 -7.153786E+01 -1.841263E+03  2.125880E-04
        22  26 -1.282010E+06 -5.424044E+01  1.229487E+03 -5.323105E+00 -1.225245E+03  1.052659E-05
        22  27 -1.281915E+06 -1.822163E+01  6.816269E+02  6.089168E+01 -6.092267E+02 -5.987406E-05
        23   1 -1.281952E+06  3.348764E+01  4.954144E+02 -2.863272E+00  5.038327E+02 -2.326353E-06
        23   2 -1.281964E+06 -5.164914E+00  2.014069E+02 -6.980609E+00  4.036240E+02 -4.547697E-06
        23   3 -1.281952E+06 -5.567084E+00 -1.769936E+01 -1.109789E+01  3.034168E+02 -5.434088E-06
        23   4 -1.281952E+06  3.348764E+01  4.954144E+02 -2.178235E-09  5.038327E+02  1.690824E-09
        23   5 -1.281964E+06 -5.164914E+00  2.014069E+02  2.092702E-09  4.036240E+02 -8.407826E-10
        23   6 -1.281952E+06 -5.567084E+00 -1.769936E+01  3.972734E-08  3.034168E+02 -5.170192E-10
        23   7 -1.281952E+06  3.348764E+01  4.954144E+02  2.863272E+00  5.038327E+02  2.329792E-06
        23   8 -1.281964E+06 -5.164914E+00  2.014069E+02  6.980609E+00  4.036240E+02  4.545920E-06
        23   9 -1.281952E+06 -5.567084E+00 -1.769936E+01  1.109789E+01  3.034168E+02  5.433350E-06
        23  10 -1.281952E+06  3.348758E+01  4.954139E+02 -2.863272E+00  8.576773E-10 -4.180648E-10
        23  11 -1.281964E+06 -5.164958E+00  2.014066E+02 -6.980609E+00  2.700147E-09  5.245802E-10
        23  12 -1.281952E+06 -5.567108E+00 -1.769953E+01 -1.109789E+01  4.131105E-10  4.963685E-10
        23  13 -1.281952E+06  3.348758E+01  4.954139E+02 -2.796078E-08 -1.981093E-10 -2.606895E-10
        23  14 -1.281964E+06 -5.164958E+00  2.014066E+02 -8.664120E-09 -4.073944E-09  7.471460E-11
        23  15 -1.281952E+06 -5.567109E+00 -1.769953E+01  1.815906E-08 -3.383392E-09 -6.692071E-11
        23  16 -1.281952E+06  3.348758E+01  4.954139E+02  2.863272E+00 -6.511628E-10 -2.375549E-10
        23  17 -1.281964E+06 -5.164958E+00  2.014066E+02  6.980609E+00 -4.352151E-09 -1.722109E-10
        23  18 -1.281952E+06 -5.567108E+00 -1.769953E+01  1.109789E+01 -1.972126E-09 -4.774623E-10
        23  19 -1.281952E+06  3.348764E+01  4.954144E+02 -2.863272E+00 -5.038327E+02  2.325728E-06
        23  20 -1.281964E+06 -5.164914E+00  2.014069E+02 -6.980609E+00 -4.036240E+02  4.548799E-06
        23  21 -1.281952E+06 -5.567084E+00 -1.769936E+01 -1.109789E+01 -3.034168E+02  5.435384E-06
        23  22 -1.281952E+06  3.348764E+01  4.954144E+02 -2.068967E-09 -5.038327E+02 -2.167780E-09
        23  23 -1.281964E+06 -5.164914E+00  2.014069E+02 -3.663942E-08 -4.036240E+02  9.518245E-10
        23  24 -1.281952E+06 -5.567084E+00 -1.769936E+01  1.436008E-08 -3.034168E+02  3.817311E-10
        23  25 -1.281952E+06  3.348764E+01  4.954144E+02  2.863272E+00 -5.038327E+02 -2.330499E-06
        23  26 -1.281964E+06 -5.164914E+00  2.014069E+02  6.980609E+00 -4.036240E+02 -4.546676E-06
        23  27 -1.281952E+06 -5.567084E+00 -1.769936E+01  1.109789E+01 -3.034168E+02 -5.434954E-06
        24   1 -1.281966E+06  5.099859E+00 -1.235787E+02 -1.362710E+01  3.161620E+02 -6.953086E-06
        24   2 -1.281947E+06  8.387070E+00 -3.752580E+02 -8.202064E+00  5.026351E+02 -6.653626E-06
        24   3 -1.281966E+06 -4.819116E+01 -7.634916E+02 -2.776943E+00  6.891109E+02 -3.086591E-06
        24   4 -1.281966E+06  5.099859E+00 -1.235787E+02  1.839558E-08  3.161620E+02 -1.427921E-11
        24   5 -1.281947E+06  8.387069E+00 -3.752580E+02 -7.523618E-09  5.026351E+02  2.359241E-11
        24   6 -1.281966E+06 -4.819116E+01 -7.634916E+02  1.015632E-08  6.891109E+02  9.114764E-10
        24   7 -1.281966E+06  5.099859E+00 -1.235787E+02  1.362710E+01  3.161620E+02  6.952814E-06
        24   8 -1.281947E+06  8.387070E+00 -3.752580E+02  8.202064E+00  5.026351E+02  6.653882E-06
        24   9 -1.281966E+06 -4.819116E+01 -7.634916E+02  2.776943E+00  6.891109E+02  3.089058E-06
        24  10 -1.281966E+06  5.099832E+00 -1.235788E+02 -1.362710E+01 -6.162751E-10  2.845867E-10
        24  11 -1.281947E+06  8.387002E+00 -3.752585E+02 -8.202064E+00 -1.530188E-09  1.417290E-11
        24  12 -1.281966E+06 -4.819128E+01 -7.634925E+02 -2.776943E+00 -1.876875E-09  5.424222E-10
        24  13 -1.281966E+06  5.099832E+00 -1.235788E+02 -3.107566E-09 -4.305671E-09 -5.176084E-11
        24  14 -1.281947E+06  8.387001E+00 -3.752585E+02 -1.048299E-09 -2.500392E-09  3.693470E-10
        24  15 -1.281966E+06 -4.819128E+01 -7.634925E+02 -8.680998E-09 -7.810571E-09  3.986815E-10
        24  16 -1.281966E+06  5.099832E+00 -1.235788E+02  1.362710E+01  3.854157E-10 -1.854742E-10
        24  17 -1.281947E+06  8.387002E+00 -3.752585E+02  8.202064E+00 -1.198255E-09  4.447635E-10
        24  18 -1.281966E+06 -4.819128E+01 -7.634925E+02  2.776943E+00 -1.720558E-09  3.376731E-10
        24  19 -1.281966E+06  5.099859E+00 -1.235787E+02 -1.362710E+01 -3.161620E+02  6.953440E-06
        24  20 -1.281947E+06  8.387070E+00 -3.752580E+02 -8.202064E+00 -5.026351E+02  6.654343E-06
        24  21 -1.281966E+06 -4.819116E+01 -7.634916E+02 -2.776943E+00 -6.891109E+02  3.088161E-06
        24  22 -1.281966E+06  5.099859E+00 -1.235787E+02  1.844286E-08 -3.161620E+02 -5.581823E-11
        24  23 -1.281947E+06  8.387069E+00 -3.752580E+02 -7.496301E-09 -5.026351E+02  5.214914E-10
        24  24 -1.281966E+06 -4.819116E+01 -7.634916E+02  9.610755E-09 -6.891109E+02 -1.645097E-10
        24  25 -1.281966E+06  5.099859E+00 -1.235787E+02  1.362710E+01 -3.161620E+02 -6.953802E-06
        24  26 -1.281947E+06  8.387070E+00 -3.752580E+02  8.202064E+00 -5.026351E+02 -6.653251E-06
        24  27 -1.281966E+06 -4.819116E+01 -7.634916E+02  2.776943E+00 -6.891109E+02 -3.089023E-06
        25   1 -1.282019E+06  2.618789E+01 -1.020441E+03 -8.705902E+01  8.489250E+02 -1.192791E-04
        25   2 -1.281881E+06  7.842419E+01 -1.795150E+03  8.215164E+00  1.748223E+03  2.317857E-05
        25   3 -1.282020E+06 -5.076409E+02 -3.315819E+03  1.034894E+02  2.647519E+03  4.422021E-04
        25   4 -1.282019E+06  2.618788E+01 -1.020441E+03  2.182860E-08  8.489250E+02  7.921755E-10
        25   5 -1.281881E+06  7.842419E+01 -1.795150E+03 -7.799445E-09  1.748223E+03  2.680823E-12
        25   6 -1.282020E+06 -5.076409E+02 -3.315819E+03  9.408270E-09  2.647519E+03  2.975375E-10
        25   7 -1.282019E+06  2.618789E+01 -1.020441E+03  8.705902E+01  8.489250E+02  1.192807E-04
        25   8 -1.281881E+06  7.842419E+01 -1.795150E+03 -8.215164E+00  1.748223E+03 -2.317904E-05
        25   9 -1.282020E+06 -5.076409E+02 -3.315819E+03 -1.034894E+02  2.647519E+03 -4.422014E-04
        25  10 -1.282019E+06  2.618770E+01 -1.020443E+03 -8.705902E+01 -1.861081E-09  7.057606E-10
        25  11 -1.281881E+06  7.842337E+01 -1.795156E+03  8.215164E+00 -9.390094E-10 -1.410031E-10
        25  12 -1.282020E+06 -5.076427E+02 -3.315832E+03  1.034894E+02 -5.345314E-10 -2.530762E-10
        25  13 -1.282019E+06  2.618768E+01 -1.020443E+03  8.888471E-09 -1.853949E-09  3.750898E-10
        25  14 -1.281881E+06  7.842337E+01 -1.795156E+03 -7.825711E-09 -4.520498E-09  9.266932E-11
        25  15 -1.282020E+06 -5.076428E+02 -3.315832E+03  1.097352E-08 -5.614035E-10 -3.210179E-10
        25  16 -1.282019E+06  2.618770E+01 -1.020443E+03  8.705902E+01 -2.444587E-09  1.471802E-10
        25  17 -1.281881E+06  7.842337E+01 -1.795156E+03 -8.215164E+00 -3.433171E-09  4.804541E-10
        25  18 -1.282020E+06 -5.076427E+02 -3.315832E+03 -1.034894E+02 -8.347305E-10 -5.112985E-10
        25  19 -1.282019E+06  2.618789E+01 -1.020441E+03 -8.705902E+01 -8.489250E+02  1.192806E-04
        25  20 -1.281881E+06  7.842419E+01 -1.795150E+03  8.215164E+00 -1.748223E+03 -2.317871E-05
        25  21 -1.282020E+06 -5.076409E+02 -3.315819E+03  1.034894E+02 -2.647519E+03 -4.422026E-04
        25  22 -1.282019E+06  2.618788E+01 -1.020441E+03  2.611852E-08 -8.489250E+02 -5.407787E-11
        25  23 -1.281881E+06  7.842419E+01 -1.795150E+03 -3.541050E-09 -1.748223E+03  3.583394E-10
        25  24 -1.282020E+06 -5.076409E+02 -3.315819E+03  2.655427E-08 -2.647519E+03 -9.750562E-10
        25  25 -1.282019E+06  2.618789E+01 -1.020441E+03  8.705902E+01 -8.489250E+02 -1.192805E-04
        25  26 -1.281881E+06  7.842419E+01 -1.795150E+03 -8.215164E+00 -1.748223E+03  2.317970E-05
        25  27 -1.282020E+06 -5.076409E+02 -3.315819E+03 -1.034894E+02 -2.647519E+03  4.422000E-04
        26   1 -1.282413E+06  2.652794E+02 -4.252483E+03 -7.396753E+02  3.315254E+03 -3.957705E-03
        26   2 -1.281392E+06  7.181280E+02 -7.182384E+03  3.732436E+02  6.989805E+03  4.210580E-03
        26   3 -1.282418E+06 -5.097441E+03 -1.407532E+04  1.486147E+03  1.066429E+04  2.557871E-02
        26   4 -1.282413E+06  2.652783E+02 -4.252483E+03 -5.619722E-10  3.315254E+03  5.014531E-11
        26   5 -1.281392E+06  7.181277E+02 -7.182384E+03 -1.206598E-08  6.989805E+03 -9.200494E-10
        26   6 -1.282418E+06 -5.097445E+03 -1.407533E+04  9.260872E-09  1.066429E+04 -4.539797E-10
        26   7 -1.282413E+06  2.652794E+02 -4.252483E+03  7.396753E+02  3.315254E+03  3.957705E-03
        26   8 -1.281392E+06  7.181280E+02 -7.182384E+03 -3.732436E+02  6.989805E+03 -4.210583E-03
        26   9 -1.282418E+06 -5.097441E+03 -1.407532E+04 -1.486147E+03  1.066429E+04 -2.557871E-02
        26  10 -1.282413E+06  2.652764E+02 -4.252504E+03 -7.396753E+02 -1.263307E-09 -1.323760E-10
        26  11 -1.281392E+06  7.181148E+02 -7.182476E+03  3.732436E+02 -1.423485E-09 -2.318814E-10
        26  12 -1.282418E+06 -5.097472E+03 -1.407554E+04  1.486147E+03  3.026530E-10 -5.684518E-10
        26  13 -1.282413E+06  2.652754E+02 -4.252504E+03  3.767871E-09 -1.126845E-09 -4.786657E-10
        26  14 -1.281392E+06  7.181146E+02 -7.182476E+03 -9.918383E-09 -7.544112E-11 -2.315127E-10
        26  15 -1.282418E+06 -5.097476E+03 -1.407554E+04 -1.498903E-08 -1.105330E-09 -4.657517E-10
        26  16 -1.282413E+06  2.652764E+02 -4.252504E+03  7.396753E+02 -4.269605E-10 -7.419882E-10
        26  17 -1.281392E+06  7.181148E+02 -7.182476E+03 -3.732436E+02  4.803603E-10 -2.657544E-10
        26  18 -1.282418E+06 -5.097472E+03 -1.407554E+04 -1.486147E+03 -1.407915E-09 -3.337595E-10
        26  19 -1.282413E+06  2.652794E+02 -4.252483E+03 -7.396753E+02 -3.315254E+03  3.957705E-03
        26  20 -1.281392E+06  7.181280E+02 -7.182384E+03  3.732436E+02 -6.989805E+03 -4.210581E-03
        26  21 -1.282418E+06 -5.097441E+03 -1.407532E+04  1.486147E+03 -1.066429E+04 -2.557871E-02
        26  22 -1.282413E+06  2.652783E+02 -4.252483E+03  1.668911E-08 -3.315254E+03 -9.817275E-10
        26  23 -1.281392E+06  7.181277E+02 -7.182384E+03 -9.920486E-09 -6.989805E+03  3.649152E-10
        26  24 -1.282418E+06 -5.097445E+03 -1.407533E+04  2.734072E-09 -1.066429E+04 -5.039839E-10
        26  25 -1.282413E+06  2.652794E+02 -4.252483E+03  7.396753E+02 -3.315254E+03 -3.957707E-03
        26  26 -1.281392E+06  7.181280E+02 -7.182384E+03 -3.732436E+02 -6.989805E+03  4.210582E-03
        26  27 -1.282418E+06 -5.097441E+03 -1.407532E+04 -1.486147E+03 -1.066429E+04  2.557871E-02
        27   1 -1.285790E+06  2.626599E+03 -1.727788E+04 -6.787252E+03  1.332961E+04 -1.460154E-01
        27   2 -1.277180E+06  6.797686E+03 -2.774120E+04  4.793426E+03  2.828312E+04  2.188038E-01
        27   3 -1.285823E+06 -5.020905E+04 -6.324850E+04  1.637411E+04  4.323692E+04  1.142607E+00
        27   4 -1.285790E+06  2.626513E+03 -1.727789E+04  2.154414E-08  1.332961E+04 -1.855913E-10
        27   5 -1.277180E+06  6.797643E+03 -2.774121E+04  2.685305E-09  2.828312E+04 -2.234805E-10
        27   6 -1.285823E+06 -5.020955E+04 -6.324857E+04  3.334777E-08  4.323692E+04 -1.730842E-10
        27   7 -1.285790E+06  2.626599E+03 -1.727788E+04  6.787252E+03  1.332961E+04  1.460154E-01
        27   8 -1.277180E+06  6.797686E+03 -2.774120E+04 -4.793426E+03  2.828312E+04 -2.188038E-01
        27   9 -1.285823E+06 -5.020905E+04 -6.324850E+04 -1.637411E+04  4.323692E+04 -1.142607E+00
        27  10 -1.285790E+06  2.626551E+03 -1.727821E+04 -6.787252E+03 -5.144825E-10 -5.706830E-10
        27  11 -1.277181E+06  6.797471E+03 -2.774271E+04  4.793426E+03  1.338465E-09  1.177776E-10
        27  12 -1.285825E+06 -5.020955E+04 -6.325202E+04  1.637411E+04  2.059028E-09  1.557722E-10
        27  13 -1.285790E+06  2.626465E+03 -1.727822E+04 -1.282689E-08 -1.587015E-09 -3.261662E-10
        27  14 -1.277181E+06  6.797428E+03 -2.774271E+04 -8.059106E-09 -2.843063E-09  2.441117E-10
        27  15 -1.285825E+06 -5.021005E+04 -6.325209E+04  1.070240E-08 -6.488368E-10  1.459040E-10
        27  16 -1.285790E+06  2.626551E+03 -1.727821E+04  6.787252E+03 -2.984208E-09 -1.622876E-10
        27  17 -1.277181E+06  6.797471E+03 -2.774271E+04 -4.793426E+03 -8.577923E-10  3.705595E-10
        27  18 -1.285825E+06 -5.020955E+04 -6.325202E+04 -1.637411E+04 -9.424227E-10  1.288669E-10
        27  19 -1.285790E+06  2.626599E+03 -1.727788E+04 -6.787252E+03 -1.332961E+04  1.460154E-01
        27  20 -1.277180E+06  6.797686E+03 -2.774120E+04  4.793426E+03 -2.828312E+04 -2.188038E-01
        27  21 -1.285823E+06 -5.020905E+04 -6.324850E+04  1.637411E+04 -4.323692E+04 -1.142607E+00
        27  22 -1.285790E+06  2.626513E+03 -1.727789E+04  4.466324E-09 -1.332961E+04 -4.430441E-10
        27  23 -1.277180E+06  6.797643E+03 -2.774121E+04 -1.234911E-08 -2.828312E+04  6.960039E-10
        27  24 -1.285823E+06 -5.020955E+04 -6.324857E+04  3.003556E-08 -4.323692E+04  4.638552E-10
        27  25 -1.285790E+06  2.626599E+03 -1.727788E+04  6.787252E+03 -1.332961E+04 -1.460154E-01
        27  26 -1.277180E+06  6.797686E+03 -2.774120E+04 -4.793426E+03 -2.828312E+04  2.188038E-01
        27  27 -1.285823E+06 -5.020905E+04 -6.324850E+04 -1.637411E+04 -4.323692E+04  1.142607E+00
        28   1  5.360123E+05  1.425929E+06  6.299122E+05 -1.064356E+05  7.446430E+03  3.182952E+05
        28   2  1.289622E+05  1.386425E+06  3.790607E+05 -3.123539E+04  2.379599E+04  1.989840E+05
        28   3  1.678144E+05  1.474404E+06  3.173908E+05  6.164603E+04  2.547310E+04  7.966541E+04
        28   4  3.623242E+05  7.283569E+05  4.583367E+05  1.266245E+04  7.509087E+03  3.055677E+05
        28   5 -4.951739E+04  6.652873E+05  2.072115E+05  3.764468E+03  2.381144E+04  1.941117E+05
        28   6 -1.657406E+04  7.284519E+05  1.399527E+05  1.255378E+04  2.546604E+04  8.265085E+04
        28   7  1.886532E+05  3.125722E+04  2.867335E+05  1.316267E+05  7.566929E+03  2.928544E+05
        28   8 -2.280299E+05 -5.537192E+04  3.532656E+04  3.872362E+04  2.382637E+04  1.892449E+05
        28   9 -2.009934E+05 -1.698498E+04 -3.752303E+04 -3.647921E+04  2.545850E+04  8.563268E+04
        28  10  5.359851E+05  1.425821E+06  6.297221E+05 -1.064375E+05  4.610651E-10 -5.187797E-10
        28  11  1.289510E+05  1.386383E+06  3.789854E+05 -3.123920E+04  9.723103E-10 -3.236604E-09
        28  12  1.678120E+05  1.474397E+06  3.173777E+05  6.164440E+04 -3.125391E-09 -3.845472E-09
        28  13  3.622991E+05  7.282567E+05  4.581613E+05  1.266061E+04 -8.211309E-10 -4.500472E-11
        28  14 -4.952810E+04  6.652467E+05  2.071397E+05  3.760748E+03  1.111399E-09 -1.459504E-10
        28  15 -1.657658E+04  7.284444E+05  1.399386E+05  1.255209E+04  8.309851E-11 -4.871745E-10
        28  16  1.886301E+05  3.116513E+04  2.865723E+05  1.316249E+05 -3.834030E-10  5.023167E-10
        28  17 -2.280402E+05 -5.541053E+04  3.525820E+04  3.871999E+04  3.483876E-09  3.278247E-09
        28  18 -2.009961E+05 -1.699302E+04 -3.753803E+04 -3.648097E+04  2.698264E-09  3.662596E-09
        28  19  5.360123E+05  1.425929E+06  6.299122E+05 -1.064356E+05 -7.446430E+03 -3.182952E+05
        28  20  1.289622E+05  1.386425E+06  3.790607E+05 -3.123539E+04 -2.379599E+04 -1.989840E+05
        28  21  1.678144E+05  1.474404E+06  3.173908E+05  6.164603E+04 -2.547310E+04 -7.966541E+04
        28  22  3.623242E+05  7.283569E+05  4.583367E+05  1.266245E+04 -7.509087E+03 -3.055677E+05
        28  23 -4.951739E+04  6.652873E+05  2.072115E+05  3.764468E+03 -2.381144E+04 -1.941117E+05
        28  24 -1.657406E+04  7.284519E+05  1.399527E+05  1.255378E+04 -2.546604E+04 -8.265085E+04
        28  25  1.886532E+05  3.125722E+04  2.867335E+05  1.316267E+05 -7.566929E+03 -2.928544E+05
        28  26 -2.280299E+05 -5.537192E+04  3.532656E+04  3.872362E+04 -2.382637E+04 -1.892449E+05
        28  27 -2.009934E+05 -1.698498E+04 -3.752303E+04 -3.647921E+04 -2.545850E+04 -8.563268E+04
        29   1  2.280109E+05  1.484202E+06  3.076066E+05 -2.243686E+03  2.424055E+04  6.204676E+04
        29   2  1.901695E+05  1.497746E+06  2.782660E+05  1.617744E+03  2.638664E+04  1.643759E+04
        29   3  2.289170E+05  1.537091E+06  2.978780E+05  2.434149E+04  2.613998E+04 -2.917552E+04
        29   4  3.534615E+04  7.060471E+05  1.216706E+05  1.288350E+04  2.424611E+04  6.025522E+04
        29   5 -8.893813E+03  6.932441E+05  8.647916E+04  3.450263E+03  2.638971E+04  1.596064E+04
        29   6  2.328033E+04  7.060438E+05  9.936954E+04  1.288029E+04  2.614113E+04 -2.833599E+04
        29   7 -1.573615E+05 -7.155376E+04 -6.430798E+04  2.799184E+04  2.425158E+04  5.846587E+04
        29   8 -2.080039E+05 -1.106653E+05 -1.053530E+05  5.280640E+03  2.639279E+04  1.548429E+04
        29   9 -1.824057E+05 -1.243709E+05 -9.918747E+04  1.434795E+03  2.614225E+04 -2.749756E+04
        29  10  2.280092E+05  1.484198E+06  3.075983E+05 -2.244896E+03 -3.833875E-10  6.092653E-09
        29  11  1.901687E+05  1.497745E+06  2.782641E+05  1.617395E+03  3.667380E-10  4.682978E-09
        29  12  2.289160E+05  1.537090E+06  2.978751E+05  2.434210E+04  3.359230E-10  4.343540E-10
        29  13  3.534455E+04  7.060431E+05  1.216627E+05  1.288233E+04  2.938241E-10 -3.124075E-10
        29  14 -8.894630E+03  6.932436E+05  8.647737E+04  3.449923E+03 -6.547833E-09 -4.688618E-10
        29  15  2.327938E+04  7.060428E+05  9.936675E+04  1.288089E+04  1.041355E-09 -1.115335E-09
        29  16 -1.573630E+05 -7.155758E+04 -6.431551E+04  2.799070E+04  2.881403E-09 -6.225242E-09
        29  17 -2.080047E+05 -1.106657E+05 -1.053548E+05  5.280311E+03  8.761705E-10 -4.578284E-09
        29  18 -1.824066E+05 -1.243719E+05 -9.919018E+04  1.435374E+03  9.149468E-10 -8.175317E-10
        29  19  2.280109E+05  1.484202E+06  3.076066E+05 -2.243686E+03 -2.424055E+04 -6.204676E+04
        29  20  1.901695E+05  1.497746E+06  2.782660E+05  1.617744E+03 -2.638664E+04 -1.643759E+04
        29  21  2.289170E+05  1.537091E+06  2.978780E+05  2.434149E+04 -2.613998E+04  2.917552E+04
        29  22  3.534615E+04  7.060471E+05  1.216706E+05  1.288350E+04 -2.424611E+04 -6.025522E+04
        29  23 -8.893813E+03  6.932441E+05  8.647916E+04  3.450263E+03 -2.638971E+04 -1.596064E+04
        29  24  2.328033E+04  7.060438E+05  9.936954E+04  1.288029E+04 -2.614113E+04  2.833599E+04
        29  25 -1.573615E+05 -7.155376E+04 -6.430798E+04  2.799184E+04 -2.425158E+04 -5.846587E+04
        29  26 -2.080039E+05 -1.106653E+05 -1.053530E+05  5.280640E+03 -2.639279E+04 -1.548429E+04
        29  27 -1.824057E+05 -1.243709E+05 -9.918747E+04  1.434795E+03 -2.614225E+04  2.749756E+04
        30   1  2.048283E+05  1.586154E+06  3.143833E+05 -2.311294E+04  2.951961E+04 -4.068628E+04
        30   2  1.865794E+05  1.570259E+06  3.612048E+05  2.510232E+04  3.007022E+04 -1.309975E+05
        30   3  4.791851E+05  1.644717E+06  5.446396E+05  9.402692E+04  1.037650E+04 -2.213800E+05
        30   4 -9.603870E+03  7.200435E+05  1.082239E+05  1.303269E+04  2.953312E+04 -4.617213E+04
        30   5 -3.456666E+04  6.757045E+05  1.481086E+05  3.095177E+03  3.006269E+04 -1.256798E+05
        30   6  2.496776E+05  7.199619E+05  3.172395E+05  1.386252E+04  1.035191E+04 -2.052529E+05
        30   7 -2.240854E+05 -1.453777E+05 -9.798726E+04  4.912815E+04  2.954599E+04 -5.165035E+04
        30   8 -2.557684E+05 -2.181160E+05 -6.504328E+04 -1.887966E+04  3.005479E+04 -1.203696E+05
        30   9  2.013146E+04 -2.040019E+05  8.978119E+04 -6.618194E+04  1.032317E+04 -1.891495E+05
        30  10  2.048270E+05  1.586152E+06  3.143785E+05 -2.311197E+04 -4.713449E-10  5.956693E-09
        30  11  1.865738E+05  1.570240E+06  3.611709E+05  2.510549E+04  2.791615E-10  1.972292E-10
        30  12  4.791719E+05  1.644665E+06  5.445475E+05  9.402877E+04 -4.317107E-10 -6.162599E-09
        30  13 -9.605379E+03  7.200409E+05  1.082182E+05  1.303379E+04 -1.623080E-09 -7.047021E-10
        30  14 -3.457187E+04  6.756873E+05  1.480772E+05  3.098219E+03  1.134717E-10 -7.309897E-10
        30  15  2.496662E+05  7.199167E+05  3.171603E+05  1.386423E+04  2.008344E-09 -1.869440E-09
        30  16 -2.240870E+05 -1.453808E+05 -9.799391E+04  4.912938E+04  4.322536E-10 -6.367157E-09
        30  17 -2.557733E+05 -2.181318E+05 -6.507222E+04 -1.887674E+04  1.619788E-09  7.812043E-11
        30  18  2.012174E+04 -2.040403E+05  8.971374E+04 -6.618037E+04  1.265570E-09  5.647242E-09
        30  19  2.048283E+05  1.586154E+06  3.143833E+05 -2.311294E+04 -2.951961E+04  4.068628E+04
        30  20  1.865794E+05  1.570259E+06  3.612048E+05  2.510232E+04 -3.007022E+04  1.309975E+05
        30  21  4.791851E+05  1.644717E+06  5.446396E+05  9.402692E+04 -1.037650E+04  2.213800E+05
        30  22 -9.603870E+03  7.200435E+05  1.082239E+05  1.303269E+04 -2.953312E+04  4.617213E+04
        30  23 -3.456666E+04  6.757045E+05  1.481086E+05  3.095177E+03 -3.006269E+04  1.256798E+05
        30  24  2.496776E+05  7.199619E+05  3.172395E+05  1.386252E+04 -1.035191E+04  2.052529E+05
        30  25 -2.240854E+05 -1.453777E+05 -9.798726E+04  4.912815E+04 -2.954599E+04  5.165035E+04
        30  26 -2.557684E+05 -2.181160E+05 -6.504328E+04 -1.887966E+04 -3.005479E+04  1.203696E+05
        30  27  2.013146E+04 -2.040019E+05  8.978119E+04 -6.618194E+04 -1.032317E+04  1.891495E+05
        31   1 -1.961524E+06 -4.223139E+05 -1.606343E+05 -7.252478E+05 -8.287569E+04 -2.958113E+04
        31   2 -1.934054E+06 -2.931609E+05 -8.132259E+04 -7.311714E+05 -5.335211E+04 -1.568738E+04
        31   3 -1.944663E+06 -2.876685E+05 -5.611672E+04 -7.178667E+05 -2.265753E+04 -4.915620E+03
        31   4 -1.857540E+06 -3.549378E+05 -1.267544E+05 -6.680200E+05 -8.089326E+04 -2.884253E+04
        31   5 -1.832069E+06 -2.467510E+05 -5.291823E+04 -6.950522E+05 -5.290544E+04 -1.552084E+04
        31   6 -1.844366E+06 -2.619090E+05 -3.196128E+04 -7.028585E+05 -2.374673E+04 -5.323353E+03
        31   7 -1.753543E+06 -2.875536E+05 -9.287573E+04 -6.107820E+05 -7.891049E+04 -2.810358E+04
        31   8 -1.730075E+06 -2.003392E+05 -2.451500E+04 -6.589272E+05 -5.245870E+04 -1.535427E+04
        31   9 -1.744058E+06 -2.361499E+05 -7.806475E+03 -6.878486E+05 -2.483613E+04 -5.731104E+03
        31  10 -1.961532E+06 -4.223167E+05 -1.606489E+05 -7.252498E+05  6.291194E-10  1.751719E-10
        31  11 -1.934057E+06 -2.931619E+05 -8.132842E+04 -7.311721E+05  3.009700E-09  3.178909E-10
        31  12 -1.944664E+06 -2.876686E+05 -5.611774E+04 -7.178668E+05  2.603374E-09 -2.898967E-10
        31  13 -1.857547E+06 -3.549405E+05 -1.267683E+05 -6.680219E+05 -1.070553E-11  2.265540E-10
        31  14 -1.832072E+06 -2.467520E+05 -5.292397E+04 -6.950528E+05  2.388782E-09  4.201878E-10
        31  15 -1.844366E+06 -2.619092E+05 -3.196240E+04 -7.028586E+05 -2.105920E-09 -1.480922E-10
        31  16 -1.753550E+06 -2.875561E+05 -9.288896E+04 -6.107838E+05  7.461827E-10  2.555037E-10
        31  17 -1.730078E+06 -2.003402E+05 -2.452064E+04 -6.589279E+05 -2.886611E-10 -1.706723E-10
        31  18 -1.744059E+06 -2.361501E+05 -7.807700E+03 -6.878487E+05  1.047907E-09 -2.152551E-10
        31  19 -1.961524E+06 -4.223139E+05 -1.606343E+05 -7.252478E+05  8.287569E+04  2.958113E+04
        31  20 -1.934054E+06 -2.931609E+05 -8.132259E+04 -7.311714E+05  5.335211E+04  1.568738E+04
        31  21 -1.944663E+06 -2.876685E+05 -5.611672E+04 -7.178667E+05  2.265753E+04  4.915620E+03
        31  22 -1.857540E+06 -3.549378E+05 -1.267544E+05 -6.680200E+05  8.089326E+04  2.884253E+04
        31  23 -1.832069E+06 -2.467510E+05 -5.291823E+04 -6.950522E+05  5.290544E+04  1.552084E+04
        31  24 -1.844366E+06 -2.619090E+05 -3.196128E+04 -7.028585E+05  2.374673E+04  5.323353E+03
        31  25 -1.753543E+06 -2.875536E+05 -9.287573E+04 -6.107820E+05  7.891049E+04  2.810358E+04
        31  26 -1.730075E+06 -2.003392E+05 -2.451500E+04 -6.589272E+05  5.245870E+04  1.535427E+04
        31  27 -1.744058E+06 -2.361499E+05 -7.806475E+03 -6.878486E+05  2.483613E+04  5.731104E+03
        32   1 -1.906545E+06 -3.027844E+05 -4.403713E+04 -7.163693E+05 -1.871134E+04 -4.434128E+03
        32   2 -1.892205E+06 -2.790323E+05 -2.600670E+04 -7.079585E+05 -1.191172E+04 -2.466850E+03
        32   3 -1.873906E+06 -2.770770E+05 -1.626637E+04 -7.073718E+05 -5.019272E+03 -7.463698E+02
        32   4 -1.840134E+06 -2.750966E+05 -2.597767E+04 -6.954729E+05 -1.890290E+04 -4.506037E+03
        32   5 -1.841422E+06 -2.592561E+05 -1.248483E+04 -6.934141E+05 -1.222433E+04 -2.584019E+03
        32   6 -1.838727E+06 -2.651876E+05 -7.185241E+03 -6.991796E+05 -5.453159E+03 -9.089246E+02
        32   7 -1.773718E+06 -2.474082E+05 -7.918519E+03 -6.745744E+05 -1.909449E+04 -4.577956E+03
        32   8 -1.790637E+06 -2.394797E+05  1.036780E+03 -6.788686E+05 -1.253697E+04 -2.701199E+03
        32   9 -1.803547E+06 -2.532984E+05  1.895710E+03 -6.909870E+05 -5.887070E+03 -1.071486E+03
        32  10 -1.906545E+06 -3.027845E+05 -4.403783E+04 -7.163694E+05  8.840965E-10 -7.554335E-11
        32  11 -1.892205E+06 -2.790324E+05 -2.600698E+04 -7.079585E+05  1.965034E-09  1.334011E-09
        32  12 -1.873906E+06 -2.770770E+05 -1.626642E+04 -7.073718E+05  1.448397E-09  3.608207E-10
        32  13 -1.840134E+06 -2.750968E+05 -2.597838E+04 -6.954730E+05 -8.426502E-10  2.562079E-10
        32  14 -1.841422E+06 -2.592562E+05 -1.248513E+04 -6.934141E+05 -5.356830E-10  4.239246E-10
        32  15 -1.838727E+06 -2.651876E+05 -7.185298E+03 -6.991796E+05  2.871664E-09  3.134259E-10
        32  16 -1.773718E+06 -2.474083E+05 -7.919245E+03 -6.745744E+05 -6.182821E-11 -5.906944E-11
        32  17 -1.790637E+06 -2.394798E+05  1.036470E+03 -6.788687E+05 -2.601838E-09 -1.368674E-10
        32  18 -1.803547E+06 -2.532984E+05  1.895642E+03 -6.909870E+05 -3.067759E-09 -1.119714E-10
        32  19 -1.906545E+06 -3.027844E+05 -4.403713E+04 -7.163693E+05  1.871134E+04  4.434128E+03
        32  20 -1.892205E+06 -2.790323E+05 -2.600670E+04 -7.079585E+05  1.191172E+04  2.466850E+03
        32  21 -1.873906E+06 -2.770770E+05 -1.626637E+04 -7.073718E+05  5.019272E+03  7.463698E+02
        32  22 -1.840134E+06 -2.750966E+05 -2.597767E+04 -6.954729E+05  1.890290E+04  4.506037E+03
        32  23 -1.841422E+06 -2.592561E+05 -1.248483E+04 -6.934141E+05  1.222433E+04  2.584019E+03
        32  24 -1.838727E+06 -2.651876E+05 -7.185241E+03 -6.991796E+05  5.453159E+03  9.089246E+02
        32  25 -1.773718E+06 -2.474082E+05 -7.918519E+03 -6.745744E+05  1.909449E+04  4.577956E+03
        32  26 -1.790637E+06 -2.394797E+05  1.036780E+03 -6.788686E+05  1.253697E+04  2.701199E+03
        32  27 -1.803547E+06 -2.532984E+05  1.895710E+03 -6.909870E+05  5.887070E+03  1.071486E+03
        33   1 -1.848318E+06 -2.706052E+05 -8.263998E+03 -7.013887E+05 -3.875618E+03 -8.671290E+02
        33   2 -1.835510E+06 -2.580105E+05 -1.075274E+03 -6.913661E+05 -2.103789E+03 -1.058652E+03
        33   3 -1.813831E+06 -2.563086E+05  4.643740E+03 -6.920271E+05 -3.259936E+02 -1.265918E+03
        33   4 -1.838177E+06 -2.665776E+05 -5.605649E+03 -6.983889E+05 -4.241614E+03 -1.004254E+03
        33   5 -1.842539E+06 -2.606135E+05 -2.921810E+03 -6.932407E+05 -2.477537E+03 -1.198686E+03
        33   6 -1.838029E+06 -2.655409E+05 -1.701414E+03 -6.987762E+05 -7.075351E+02 -1.408877E+03
        33   7 -1.828036E+06 -2.625500E+05 -2.947298E+03 -6.953890E+05 -4.607618E+03 -1.141381E+03
        33   8 -1.849569E+06 -2.632167E+05 -4.768363E+03 -6.951153E+05 -2.851283E+03 -1.338719E+03
        33   9 -1.862227E+06 -2.747732E+05 -8.046680E+03 -7.055251E+05 -1.089064E+03 -1.551831E+03
        33  10 -1.848318E+06 -2.706052E+05 -8.264028E+03 -7.013887E+05 -2.377144E-10  5.490425E-10
        33  11 -1.835510E+06 -2.580105E+05 -1.075284E+03 -6.913661E+05 -8.454616E-10  1.475500E-09
        33  12 -1.813831E+06 -2.563086E+05  4.643737E+03 -6.920271E+05  1.590164E-09  2.443185E-10
        33  13 -1.838177E+06 -2.665776E+05 -5.605685E+03 -6.983889E+05 -6.854228E-10  4.665514E-10
        33  14 -1.842539E+06 -2.606136E+05 -2.921825E+03 -6.932407E+05  2.919995E-10  1.612387E-09
        33  15 -1.838029E+06 -2.655409E+05 -1.701419E+03 -6.987762E+05  1.513057E-09 -6.628136E-10
        33  16 -1.828036E+06 -2.625500E+05 -2.947340E+03 -6.953890E+05  1.064876E-09  1.526054E-09
        33  17 -1.849569E+06 -2.632167E+05 -4.768382E+03 -6.951153E+05  2.373440E-09  1.908799E-09
        33  18 -1.862227E+06 -2.747732E+05 -8.046687E+03 -7.055251E+05  1.245513E-09 -1.132570E-09
        33  19 -1.848318E+06 -2.706052E+05 -8.263998E+03 -7.013887E+05  3.875618E+03  8.671290E+02
        33  20 -1.835510E+06 -2.580105E+05 -1.075274E+03 -6.913661E+05  2.103789E+03  1.058652E+03
        33  21 -1.813831E+06 -2.563086E+05  4.643740E+03 -6.920271E+05  3.259936E+02  1.265918E+03
        33  22 -1.838177E+06 -2.665776E+05 -5.605649E+03 -6.983889E+05  4.241614E+03  1.004254E+03
        33  23 -1.842539E+06 -2.606135E+05 -2.921810E+03 -6.932407E+05  2.477537E+03  1.198686E+03
        33  24 -1.838029E+06 -2.655409E+05 -1.701414E+03 -6.987762E+05  7.075351E+02  1.408877E+03
        33  25 -1.828036E+06 -2.625500E+05 -2.947298E+03 -6.953890E+05  4.607618E+03  1.141381E+03
        33  26 -1.849569E+06 -2.632167E+05 -4.768363E+03 -6.951153E+05  2.851283E+03  1.338719E+03
        33  27 -1.862227E+06 -2.747732E+05 -8.046680E+03 -7.055251E+05  1.089064E+03  1.551831E+03
        34   1 -1.789968E+06 -2.475943E+05  1.138028E+04 -6.855845E+05  8.522732E+01 -1.622254E+03
        34   2 -1.777639E+06 -2.364087E+05  1.626508E+04 -6.756020E+05  8.001255E+02 -2.216599E+03
        34   3 -1.756051E+06 -2.347594E+05  2.078591E+04 -6.763439E+05  1.511657E+03 -2.801623E+03
        34   4 -1.837999E+06 -2.656333E+05 -1.347071E+03 -6.986383E+05 -2.898678E+02 -1.762810E+03
        34   5 -1.842623E+06 -2.608216E+05 -8.696101E+02 -6.932924E+05  4.295794E+02 -2.355479E+03
        34   6 -1.837988E+06 -2.655469E+05 -7.596534E+02 -6.986710E+05  1.145648E+03 -2.938831E+03
        34   7 -1.886028E+06 -2.836720E+05 -1.407451E+04 -7.116911E+05 -6.649278E+02 -1.903353E+03
        34   8 -1.907602E+06 -2.852340E+05 -1.800457E+04 -7.109810E+05  5.907770E+01 -2.494343E+03
        34   9 -1.919919E+06 -2.963340E+05 -2.230577E+04 -7.209953E+05  7.796933E+02 -3.076019E+03
        34  10 -1.789968E+06 -2.475943E+05  1.138027E+04 -6.855845E+05 -1.834907E-09 -1.020369E-09
        34  11 -1.777639E+06 -2.364087E+05  1.626506E+04 -6.756020E+05  3.413514E-09  1.087416E-09
        34  12 -1.756051E+06 -2.347594E+05  2.078589E+04 -6.763439E+05  3.617030E-09  6.054861E-10
        34  13 -1.837999E+06 -2.656333E+05 -1.347077E+03 -6.986383E+05  2.080724E-09 -9.967526E-10
        34  14 -1.842623E+06 -2.608216E+05 -8.696209E+02 -6.932924E+05  7.075780E-10  1.138408E-09
        34  15 -1.837988E+06 -2.655470E+05 -7.596721E+02 -6.986709E+05  1.584509E-09 -1.411937E-11
        34  16 -1.886028E+06 -2.836720E+05 -1.407452E+04 -7.116911E+05  6.440118E-10 -4.104530E-10
        34  17 -1.907602E+06 -2.852341E+05 -1.800458E+04 -7.109810E+05 -1.552780E-09  6.249732E-10
        34  18 -1.919919E+06 -2.963340E+05 -2.230579E+04 -7.209953E+05 -1.725856E-09 -3.111829E-10
        34  19 -1.789968E+06 -2.475943E+05  1.138028E+04 -6.855845E+05 -8.522732E+01  1.622254E+03
        34  20 -1.777639E+06 -2.364087E+05  1.626508E+04 -6.756020E+05 -8.001255E+02  2.216599E+03
        34  21 -1.756051E+06 -2.347594E+05  2.078591E+04 -6.763439E+05 -1.511657E+03  2.801623E+03
        34  22 -1.837999E+06 -2.656333E+05 -1.347071E+03 -6.986383E+05  2.898678E+02  1.762810E+03
        34  23 -1.842623E+06 -2.608216E+05 -8.696101E+02 -6.932924E+05 -4.295794E+02  2.355479E+03
        34  24 -1.837988E+06 -2.655469E+05 -7.596534E+02 -6.986710E+05 -1.145648E+03  2.938831E+03
        34  25 -1.886028E+06 -2.836720E+05 -1.407451E+04 -7.116911E+05  6.649278E+02  1.903353E+03
        34  26 -1.907602E+06 -2.852340E+05 -1.800457E+04 -7.109810E+05 -5.907770E+01  2.494343E+03
        34  27 -1.919919E+06 -2.963340E+05 -2.230577E+04 -7.209953E+05 -7.796933E+02  3.076019E+03
        35   1 -1.733180E+06 -2.260312E+05  2.692568E+04 -6.700194E+05  1.798878E+03 -3.185356E+03
        35   2 -1.721493E+06 -2.154900E+05  3.080819E+04 -6.604997E+05  2.608170E+03 -3.708199E+03
        35   3 -1.701044E+06 -2.140595E+05  3.423702E+04 -6.611374E+05  3.408723E+03 -4.207048E+03
        35   4 -1.838097E+06 -2.654334E+05 -7.981455E+02 -6.985528E+05  1.435691E+03 -3.321538E+03
        35   5 -1.842488E+06 -2.609516E+05 -1.095570E+03 -6.934462E+05  2.256684E+03 -3.840050E+03
        35   6 -1.838119E+06 -2.655830E+05 -1.856084E+03 -6.984974E+05  3.068920E+03 -4.334571E+03
        35   7 -1.943004E+06 -3.048351E+05 -2.852301E+04 -7.270820E+05  1.072570E+03 -3.457694E+03
        35   8 -1.963469E+06 -3.064122E+05 -3.300064E+04 -7.263870E+05  1.905273E+03 -3.971873E+03
        35   9 -1.975177E+06 -3.171053E+05 -3.795080E+04 -7.358500E+05  2.729200E+03 -4.462062E+03
        35  10 -1.733180E+06 -2.260312E+05  2.692566E+04 -6.700194E+05  9.588324E-10 -2.472809E-10
        35  11 -1.721493E+06 -2.154901E+05  3.080815E+04 -6.604997E+05  4.624200E-10  8.649854E-10
        35  12 -1.701044E+06 -2.140595E+05  3.423697E+04 -6.611374E+05 -7.086986E-10  8.222514E-10
        35  13 -1.838097E+06 -2.654334E+05 -7.981701E+02 -6.985528E+05  1.180573E-09 -1.835337E-10
        35  14 -1.842488E+06 -2.609516E+05 -1.095608E+03 -6.934462E+05  2.449144E-10  6.422598E-10
        35  15 -1.838119E+06 -2.655830E+05 -1.856137E+03 -6.984974E+05  8.507015E-10  1.442811E-09
        35  16 -1.943004E+06 -3.048351E+05 -2.852303E+04 -7.270820E+05 -4.693512E-10 -3.659041E-12
        35  17 -1.963469E+06 -3.064123E+05 -3.300067E+04 -7.263870E+05 -2.306620E-09 -2.007879E-11
        35  18 -1.975177E+06 -3.171053E+05 -3.795085E+04 -7.358500E+05 -4.560156E-10  1.516599E-09
        35  19 -1.733180E+06 -2.260312E+05  2.692568E+04 -6.700194E+05 -1.798878E+03  3.185356E+03
        35  20 -1.721493E+06 -2.154900E+05  3.080819E+04 -6.604997E+05 -2.608170E+03  3.708199E+03
        35  21 -1.701044E+06 -2.140595E+05  3.423702E+04 -6.611374E+05 -3.408723E+03  4.207048E+03
        35  22 -1.838097E+06 -2.654334E+05 -7.981455E+02 -6.985528E+05 -1.435691E+03  3.321538E+03
        35  23 -1.842488E+06 -2.609516E+05 -1.095570E+03 -6.934462E+05 -2.256684E+03  3.840050E+03
        35  24 -1.838119E+06 -2.655830E+05 -1.856084E+03 -6.984974E+05 -3.068920E+03  4.334571E+03
        35  25 -1.943004E+06 -3.048351E+05 -2.852301E+04 -7.270820E+05 -1.072570E+03  3.457694E+03
        35  26 -1.963469E+06 -3.064122E+05 -3.300064E+04 -7.263870E+05 -1.905273E+03  3.971873E+03
        35  27 -1.975177E+06 -3.171053E+05 -3.795080E+04 -7.358500E+05 -2.729200E+03  4.462062E+03
        36   1 -1.679764E+06 -2.058121E+05  3.945845E+04 -6.554569E+05  3.914688E+03 -4.480507E+03
        36   2 -1.668947E+06 -1.957938E+05  4.148669E+04 -6.464561E+05  6.255189E+03 -4.363307E+03
        36   3 -1.650928E+06 -1.958283E+05  4.145158E+04 -6.463651E+05  8.570641E+03 -4.178408E+03
        36   4 -1.838388E+06 -2.652182E+05 -2.387781E+03 -6.984366E+05  3.568796E+03 -4.610358E+03
        36   5 -1.842093E+06 -2.609417E+05 -4.184040E+03 -6.936997E+05  5.942069E+03 -4.480936E+03
        36   6 -1.838604E+06 -2.667247E+05 -8.070116E+03 -6.978728E+05  8.290241E+03 -4.283826E+03
        36   7 -1.996987E+06 -3.246227E+05 -4.423605E+04 -7.414063E+05  3.223003E+03 -4.740171E+03
        36   8 -2.015210E+06 -3.260877E+05 -4.985735E+04 -7.409314E+05  5.629045E+03 -4.598529E+03
        36   9 -2.026245E+06 -3.376192E+05 -5.759499E+04 -7.493665E+05  8.009934E+03 -4.389210E+03
        36  10 -1.679764E+06 -2.058121E+05  3.945838E+04 -6.554569E+05 -1.292692E-09  1.240348E-09
        36  11 -1.668947E+06 -1.957939E+05  4.148658E+04 -6.464561E+05 -2.423660E-09 -3.355424E-10
        36  12 -1.650929E+06 -1.958283E+05  4.145141E+04 -6.463651E+05  2.622465E-09 -7.273930E-10
        36  13 -1.838388E+06 -2.652182E+05 -2.387845E+03 -6.984366E+05  7.997879E-10  9.910108E-10
        36  14 -1.842093E+06 -2.609417E+05 -4.184144E+03 -6.936997E+05 -7.098187E-10 -4.745874E-11
        36  15 -1.838604E+06 -2.667248E+05 -8.070279E+03 -6.978728E+05  7.519768E-10 -3.191385E-10
        36  16 -1.996987E+06 -3.246228E+05 -4.423611E+04 -7.414062E+05  1.013816E-09  8.320734E-10
        36  17 -2.015210E+06 -3.260877E+05 -4.985745E+04 -7.409314E+05 -7.584161E-10  1.700002E-10
        36  18 -2.026246E+06 -3.376192E+05 -5.759514E+04 -7.493664E+05 -7.116074E-10  4.551999E-11
        36  19 -1.679764E+06 -2.058121E+05  3.945845E+04 -6.554569E+05 -3.914688E+03  4.480507E+03
        36  20 -1.668947E+06 -1.957938E+05  4.148669E+04 -6.464561E+05 -6.255189E+03  4.363307E+03
        36  21 -1.650928E+06 -1.958283E+05  4.145158E+04 -6.463651E+05 -8.570641E+03  4.178408E+03
        36  22 -1.838388E+06 -2.652182E+05 -2.387781E+03 -6.984366E+05 -3.568796E+03  4.610358E+03
        36  23 -1.842093E+06 -2.609417E+05 -4.184040E+03 -6.936997E+05 -5.942069E+03  4.480936E+03
        36  24 -1.838604E+06 -2.667247E+05 -8.070116E+03 -6.978728E+05 -8.290241E+03  4.283826E+03
        36  25 -1.996987E+06 -3.246227E+05 -4.423605E+04 -7.414063E+05 -3.223003E+03  4.740171E+03
        36  26 -2.015210E+06 -3.260877E+05 -4.985735E+04 -7.409314E+05 -5.629045E+03  4.598529E+03
        36  27 -2.026245E+06 -3.376192E+05 -5.759499E+04 -7.493665E+05 -8.009934E+03  4.389210E+03
        37   1 -1.631109E+06 -1.880496E+05  4.430235E+04 -6.439449E+05  1.035065E+04 -3.998475E+03
        37   2 -1.621058E+06 -1.757497E+05  3.998635E+04 -6.333814E+05  1.966853E+04 -1.155491E+03
        37   3 -1.611653E+06 -1.883042E+05  2.406808E+04 -6.266147E+05  2.878867E+04  2.214787E+03
        37   4 -1.839582E+06 -2.645295E+05 -1.035342E+04 -6.988002E+05  9.935366E+03 -4.154553E+03
        37   5 -1.840252E+06 -2.592222E+05 -1.801468E+04 -6.942211E+05  1.951007E+04 -1.215270E+03
        37   6 -1.841621E+06 -2.788248E+05 -3.748537E+04 -6.934387E+05  2.888681E+04  2.251219E+03
        37   7 -2.048012E+06 -3.410073E+05 -6.501286E+04 -7.536391E+05  9.520240E+03 -4.310576E+03
        37   8 -2.059399E+06 -3.426915E+05 -7.601977E+04 -7.550411E+05  1.935167E+04 -1.275024E+03
        37   9 -2.071538E+06 -3.693406E+05 -9.904329E+04 -7.602396E+05  2.898491E+04  2.287634E+03
        37  10 -1.631109E+06 -1.880497E+05  4.430212E+04 -6.439449E+05  3.835838E-09 -1.859662E-10
        37  11 -1.621059E+06 -1.757498E+05  3.998562E+04 -6.333813E+05  2.337001E-09  2.968099E-10
        37  12 -1.611654E+06 -1.883044E+05  2.406651E+04 -6.266148E+05  2.448197E-09  5.491663E-10
        37  13 -1.839582E+06 -2.645295E+05 -1.035363E+04 -6.988002E+05 -1.046698E-09  1.959060E-10
        37  14 -1.840252E+06 -2.592224E+05 -1.801540E+04 -6.942211E+05  2.694207E-09  3.215398E-10
        37  15 -1.841622E+06 -2.788250E+05 -3.748695E+04 -6.934387E+05 -2.578028E-09  1.614152E-10
        37  16 -2.048013E+06 -3.410073E+05 -6.501307E+04 -7.536390E+05 -1.898761E-09  9.871695E-10
        37  17 -2.059399E+06 -3.426916E+05 -7.602048E+04 -7.550411E+05 -2.890302E-10  8.582935E-10
        37  18 -2.071538E+06 -3.693408E+05 -9.904488E+04 -7.602396E+05 -4.969111E-10 -3.134838E-10
        37  19 -1.631109E+06 -1.880496E+05  4.430235E+04 -6.439449E+05 -1.035065E+04  3.998475E+03
        37  20 -1.621058E+06 -1.757497E+05  3.998635E+04 -6.333814E+05 -1.966853E+04  1.155491E+03
        37  21 -1.611653E+06 -1.883042E+05  2.406808E+04 -6.266147E+05 -2.878867E+04 -2.214787E+03
        37  22 -1.839582E+06 -2.645295E+05 -1.035342E+04 -6.988002E+05 -9.935366E+03  4.154553E+03
        37  23 -1.840252E+06 -2.592222E+05 -1.801468E+04 -6.942211E+05 -1.951007E+04  1.215270E+03
        37  24 -1.841621E+06 -2.788248E+05 -3.748537E+04 -6.934387E+05 -2.888681E+04 -2.251219E+03
        37  25 -2.048012E+06 -3.410073E+05 -6.501286E+04 -7.536391E+05 -9.520240E+03  4.310576E+03
        37  26 -2.059399E+06 -3.426915E+05 -7.601977E+04 -7.550411E+05 -1.935167E+04  1.275024E+03
        37  27 -2.071538E+06 -3.693406E+05 -9.904329E+04 -7.602396E+05 -2.898491E+04 -2.287634E+03
        38   1 -1.586081E+06 -1.784068E+05  1.952270E+04 -6.502198E+05  3.759353E+04  4.145321E+03
        38   2 -1.575429E+06 -1.351126E+05 -7.962913E+03 -6.161631E+05  7.628119E+04  1.835000E+04
        38   3 -1.625841E+06 -2.618631E+05 -1.092226E+05 -5.459857E+05  1.125570E+05  3.897108E+04
        38   4 -1.847858E+06 -2.596610E+05 -4.612140E+04 -7.039465E+05  3.585401E+04  3.492354E+03
        38   5 -1.826562E+06 -2.413727E+05 -7.637313E+04 -6.968076E+05  7.768912E+04  1.887746E+04
        38   6 -1.866983E+06 -3.938001E+05 -1.829223E+05 -6.535407E+05  1.171123E+05  4.067592E+04
        38   7 -2.109570E+06 -3.409160E+05 -1.117708E+05 -7.576552E+05  3.411528E+04  2.839567E+03
        38   8 -2.077634E+06 -3.476243E+05 -1.447892E+05 -7.774209E+05  7.909641E+04  1.940462E+04
        38   9 -2.108065E+06 -5.257114E+05 -2.566275E+05 -7.610515E+05  1.216657E+05  4.237927E+04
        38  10 -1.586082E+06 -1.784072E+05  1.952000E+04 -6.502199E+05  2.794155E-09 -4.245209E-10
        38  11 -1.575435E+06 -1.351145E+05 -7.974514E+03 -6.161643E+05  3.317246E-09 -2.144356E-09
        38  12 -1.625855E+06 -2.618682E+05 -1.092493E+05 -5.459892E+05  2.974818E-10 -6.931601E-10
        38  13 -1.847860E+06 -2.596614E+05 -4.612385E+04 -7.039466E+05 -5.090744E-10  1.974649E-10
        38  14 -1.826569E+06 -2.413747E+05 -7.638519E+04 -6.968088E+05  1.281043E-09 -2.201466E-09
        38  15 -1.866999E+06 -3.938056E+05 -1.829513E+05 -6.535445E+05 -1.188686E-09 -3.404307E-10
        38  16 -2.109571E+06 -3.409163E+05 -1.117730E+05 -7.576553E+05 -5.327645E-10 -1.820636E-10
        38  17 -2.077641E+06 -3.476263E+05 -1.448017E+05 -7.774222E+05 -3.294688E-09  6.490273E-10
        38  18 -2.108082E+06 -5.257173E+05 -2.566588E+05 -7.610557E+05  7.108371E-10  4.035442E-10
        38  19 -1.586081E+06 -1.784068E+05  1.952270E+04 -6.502198E+05 -3.759353E+04 -4.145321E+03
        38  20 -1.575429E+06 -1.351126E+05 -7.962913E+03 -6.161631E+05 -7.628119E+04 -1.835000E+04
        38  21 -1.625841E+06 -2.618631E+05 -1.092226E+05 -5.459857E+05 -1.125570E+05 -3.897108E+04
        38  22 -1.847858E+06 -2.596610E+05 -4.612140E+04 -7.039465E+05 -3.585401E+04 -3.492354E+03
        38  23 -1.826562E+06 -2.413727E+05 -7.637313E+04 -6.968076E+05 -7.768912E+04 -1.887746E+04
        38  24 -1.866983E+06 -3.938001E+05 -1.829223E+05 -6.535407E+05 -1.171123E+05 -4.067592E+04
        38  25 -2.109570E+06 -3.409160E+05 -1.117708E+05 -7.576552E+05 -3.411528E+04 -2.839567E+03
        38  26 -2.077634E+06 -3.476243E+05 -1.447892E+05 -7.774209E+05 -7.909641E+04 -1.940462E+04
        38  27 -2.108065E+06 -5.257114E+05 -2.566275E+05 -7.610515E+05 -1.216657E+05 -4.237927E+04
        39   1 -3.524850E+05  1.023759E+05  1.289858E+05  3.341938E+04  8.822226E+04  4.751652E+00
        39   2 -3.700775E+05 -1.385270E+04  5.659008E+04  9.783659E+03  5.771643E+04  9.100708E-01
        39   3 -3.525079E+05 -5.355726E+03  3.524870E+04 -1.385136E+04  2.721036E+04 -6.074198E-01
        39   4 -3.524862E+05  1.023738E+05  1.289855E+05  3.090658E-08  8.822226E+04  1.584991E-10
        39   5 -3.700777E+05 -1.385288E+04  5.659006E+04 -2.231499E-09  5.771643E+04  9.171574E-10
        39   6 -3.525081E+05 -5.356087E+03  3.524865E+04  1.093317E-08  2.721036E+04  4.172799E-10
        39   7 -3.524850E+05  1.023759E+05  1.289858E+05 -3.341938E+04  8.822226E+04 -4.751652E+00
        39   8 -3.700775E+05 -1.385270E+04  5.659008E+04 -9.783659E+03  5.771643E+04 -9.100708E-01
        39   9 -3.525079E+05 -5.355726E+03  3.524870E+04  1.385136E+04  2.721036E+04  6.074198E-01
        39  10 -3.524934E+05  1.023738E+05  1.289711E+05  3.341938E+04 -4.203720E-10  2.701480E-10
        39  11 -3.700811E+05 -1.385359E+04  5.658382E+04  9.783659E+03  5.624591E-10  6.182350E-10
        39  12 -3.525087E+05 -5.355925E+03  3.524730E+04 -1.385136E+04  3.329082E-10 -6.365331E-10
        39  13 -3.524946E+05  1.023717E+05  1.289708E+05  1.373368E-08  2.153777E-09  2.691427E-10
        39  14 -3.700812E+05 -1.385377E+04  5.658379E+04 -4.402969E-09  2.342198E-09  5.752360E-10
        39  15 -3.525089E+05 -5.356286E+03  3.524725E+04  2.226750E-09  1.092302E-10 -1.971485E-10
        39  16 -3.524934E+05  1.023738E+05  1.289711E+05 -3.341938E+04 -1.203371E-09  2.108582E-10
        39  17 -3.700811E+05 -1.385359E+04  5.658382E+04 -9.783659E+03 -2.831450E-09  5.440144E-10
        39  18 -3.525087E+05 -5.355925E+03  3.524730E+04  1.385136E+04  2.063090E-10  2.860376E-10
        39  19 -3.524850E+05  1.023759E+05  1.289858E+05  3.341938E+04 -8.822226E+04 -4.751652E+00
        39  20 -3.700775E+05 -1.385270E+04  5.659008E+04  9.783659E+03 -5.771643E+04 -9.100708E-01
        39  21 -3.525079E+05 -5.355726E+03  3.524870E+04 -1.385136E+04 -2.721036E+04  6.074198E-01
        39  22 -3.524862E+05  1.023738E+05  1.289855E+05  1.810048E-08 -8.822226E+04  3.723100E-10
        39  23 -3.700777E+05 -1.385288E+04  5.659006E+04 -6.572303E-09 -5.771643E+04  1.851889E-10
        39  24 -3.525081E+05 -5.356087E+03  3.524865E+04  2.677375E-09 -2.721036E+04 -8.039181E-10
        39  25 -3.524850E+05  1.023759E+05  1.289858E+05 -3.341938E+04 -8.822226E+04  4.751652E+00
        39  26 -3.700775E+05 -1.385270E+04  5.659008E+04 -9.783659E+03 -5.771643E+04  9.100708E-01
        39  27 -3.525079E+05 -5.355726E+03  3.524870E+04  1.385136E+04 -2.721036E+04 -6.074198E-01
        40   1 -3.593904E+05  1.039070E+04  2.871735E+04  3.032268E+03  2.176812E+04  1.063789E-01
        40   2 -3.614780E+05 -1.463157E+03  1.466389E+04  7.616225E+02  1.426433E+04  1.750891E-02
        40   3 -3.593936E+05 -5.409244E+02  8.692030E+03 -1.508994E+03  6.760709E+03 -1.644167E-02
        40   4 -3.593904E+05  1.039068E+04  2.871735E+04  5.039545E-09  2.176812E+04  1.587185E-10
        40   5 -3.614780E+05 -1.463158E+03  1.466389E+04 -3.561668E-09  1.426433E+04  8.815718E-12
        40   6 -3.593936E+05 -5.409287E+02  8.692030E+03  1.691138E-08  6.760709E+03  1.012673E-10
        40   7 -3.593904E+05  1.039070E+04  2.871735E+04 -3.032268E+03  2.176812E+04 -1.063789E-01
        40   8 -3.614780E+05 -1.463157E+03  1.466389E+04 -7.616225E+02  1.426433E+04 -1.750891E-02
        40   9 -3.593936E+05 -5.409244E+02  8.692030E+03  1.508994E+03  6.760709E+03  1.644167E-02
        40  10 -3.593909E+05  1.039057E+04  2.871646E+04  3.032268E+03 -7.257354E-10 -4.996656E-10
        40  11 -3.614783E+05 -1.463211E+03  1.466351E+04  7.616225E+02 -3.947019E-09  7.845403E-10
        40  12 -3.593936E+05 -5.409367E+02  8.691944E+03 -1.508994E+03  1.061205E-09 -1.346517E-11
        40  13 -3.593909E+05  1.039056E+04  2.871646E+04 -7.776831E-09 -1.051604E-09 -1.270186E-10
        40  14 -3.614783E+05 -1.463212E+03  1.466351E+04  2.910756E-09 -1.076831E-09  6.980793E-10
        40  15 -3.593936E+05 -5.409410E+02  8.691944E+03  8.218537E-09  1.983521E-09  1.845447E-10
        40  16 -3.593909E+05  1.039057E+04  2.871646E+04 -3.032268E+03 -1.467154E-09  2.610196E-10
        40  17 -3.614783E+05 -1.463211E+03  1.466351E+04 -7.616225E+02  2.364675E-09  6.062567E-10
        40  18 -3.593936E+05 -5.409367E+02  8.691944E+03  1.508994E+03 -3.110237E-10  3.321543E-10
        40  19 -3.593904E+05  1.039070E+04  2.871735E+04  3.032268E+03 -2.176812E+04 -1.063789E-01
        40  20 -3.614780E+05 -1.463157E+03  1.466389E+04  7.616225E+02 -1.426433E+04 -1.750890E-02
        40  21 -3.593936E+05 -5.409244E+02  8.692030E+03 -1.508994E+03 -6.760709E+03  1.644167E-02
        40  22 -3.593904E+05  1.039068E+04  2.871735E+04  5.245890E-09 -2.176812E+04 -3.867235E-10
        40  23 -3.614780E+05 -1.463158E+03  1.466389E+04  2.230462E-08 -1.426433E+04  1.365636E-09
        40  24 -3.593936E+05 -5.409287E+02  8.692030E+03  1.674999E-08 -6.760709E+03  2.558300E-10
        40  25 -3.593904E+05  1.039070E+04  2.871735E+04 -3.032268E+03 -2.176812E+04  1.063789E-01
        40  26 -3.614780E+05 -1.463157E+03  1.466389E+04 -7.616225E+02 -1.426433E+04  1.750891E-02
        40  27 -3.593936E+05 -5.409244E+02  8.692030E+03  1.508994E+03 -6.760709E+03 -1.644167E-02
        41   1 -3.601944E+05  1.034494E+03  6.784901E+03  2.112876E+02  5.393928E+03  1.836732E-03
        41   2 -3.604780E+05 -1.599936E+02  3.695527E+03  1.740292E+01  3.542307E+03  9.935131E-05
        41   3 -3.601950E+05 -5.322076E+01  2.137519E+03 -1.764849E+02  1.690663E+03 -4.808747E-04
        41   4 -3.601944E+05  1.034494E+03  6.784901E+03  1.260396E-08  5.393928E+03  6.943083E-11
        41   5 -3.604780E+05 -1.599936E+02  3.695527E+03 -3.057381E-10  3.542307E+03 -2.954733E-10
        41   6 -3.601950E+05 -5.322081E+01  2.137519E+03  1.478205E-08  1.690663E+03 -5.415590E-10
        41   7 -3.601944E+05  1.034494E+03  6.784901E+03 -2.112876E+02  5.393928E+03 -1.836732E-03
        41   8 -3.604780E+05 -1.599936E+02  3.695527E+03 -1.740292E+01  3.542307E+03 -9.935211E-05
        41   9 -3.601950E+05 -5.322076E+01  2.137519E+03  1.764849E+02  1.690663E+03  4.808737E-04
        41  10 -3.601945E+05  1.034486E+03  6.784846E+03  2.112876E+02 -6.157988E-10 -3.641093E-10
        41  11 -3.604780E+05 -1.599970E+02  3.695503E+03  1.740292E+01 -1.423331E-09  9.613999E-11
        41  12 -3.601950E+05 -5.322152E+01  2.137513E+03 -1.764849E+02 -1.466196E-09 -5.773083E-11
        41  13 -3.601945E+05  1.034486E+03  6.784846E+03  3.990482E-09 -1.081029E-09 -2.066358E-10
        41  14 -3.604780E+05 -1.599970E+02  3.695503E+03 -4.602487E-09  3.165191E-09 -1.086891E-10
        41  15 -3.601950E+05 -5.322158E+01  2.137513E+03  2.954680E-09  2.121003E-09  9.997334E-11
        41  16 -3.601945E+05  1.034486E+03  6.784846E+03 -2.112876E+02  3.314395E-11 -7.273270E-12
        41  17 -3.604780E+05 -1.599970E+02  3.695503E+03 -1.740292E+01  3.005926E-09 -2.471260E-10
        41  18 -3.601950E+05 -5.322152E+01  2.137513E+03  1.764849E+02  1.022194E-09  3.201553E-10
        41  19 -3.601944E+05  1.034494E+03  6.784901E+03  2.112876E+02 -5.393928E+03 -1.836733E-03
        41  20 -3.604780E+05 -1.599936E+02  3.695527E+03  1.740292E+01 -3.542307E+03 -9.935129E-05
        41  21 -3.601950E+05 -5.322076E+01  2.137519E+03 -1.764849E+02 -1.690663E+03  4.808747E-04
        41  22 -3.601944E+05  1.034494E+03  6.784901E+03 -3.133625E-10 -5.393928E+03 -4.829621E-10
        41  23 -3.604780E+05 -1.599936E+02  3.695527E+03  4.022292E-09 -3.542307E+03  7.707486E-11
        41  24 -3.601950E+05 -5.322081E+01  2.137519E+03  2.720015E-08 -1.690663E+03  7.333304E-10
        41  25 -3.601944E+05  1.034494E+03  6.784901E+03 -2.112876E+02 -5.393928E+03  1.836732E-03
        41  26 -3.604780E+05 -1.599936E+02  3.695527E+03 -1.740292E+01 -3.542307E+03  9.935134E-05
        41  27 -3.601950E+05 -5.322076E+01  2.137519E+03  1.764849E+02 -1.690663E+03 -4.808733E-04
        42   1 -3.603009E+05  9.798533E+01  1.630128E+03 -3.768099E+00  1.352764E+03 -8.215465E-06
        42   2 -3.603459E+05 -1.844439E+01  8.902860E+02 -1.405107E+01  9.104857E+02 -2.061732E-05
        42   3 -3.603011E+05 -6.099047E+00  4.707068E+02 -2.433404E+01  4.682080E+02 -1.836133E-05
        42   4 -3.603009E+05  9.798533E+01  1.630128E+03  1.787468E-08  1.352764E+03 -1.929274E-10
        42   5 -3.603459E+05 -1.844439E+01  8.902860E+02  9.871059E-09  9.104857E+02  7.066467E-10
        42   6 -3.603011E+05 -6.099048E+00  4.707068E+02  1.371006E-08  4.682080E+02  9.133552E-10
        42   7 -3.603009E+05  9.798533E+01  1.630128E+03  3.768099E+00  1.352764E+03  8.215022E-06
        42   8 -3.603459E+05 -1.844439E+01  8.902860E+02  1.405107E+01  9.104857E+02  2.061860E-05
        42   9 -3.603011E+05 -6.099047E+00  4.707068E+02  2.433404E+01  4.682080E+02  1.836325E-05
        42  10 -3.603009E+05  9.798484E+01  1.630124E+03 -3.768099E+00 -1.701262E-10 -2.185670E-10
        42  11 -3.603459E+05 -1.844461E+01  8.902844E+02 -1.405107E+01 -3.414880E-10 -1.690181E-10
        42  12 -3.603011E+05 -6.099106E+00  4.707064E+02 -2.433404E+01 -4.405462E-13  1.031707E-10
        42  13 -3.603009E+05  9.798484E+01  1.630124E+03  1.352378E-08 -9.507214E-10 -4.422452E-11
        42  14 -3.603459E+05 -1.844461E+01  8.902844E+02  1.275708E-09 -1.141970E-09 -2.291316E-10
        42  15 -3.603011E+05 -6.099107E+00  4.707064E+02 -1.743064E-08 -3.956001E-09  4.818023E-10
        42  16 -3.603009E+05  9.798484E+01  1.630124E+03  3.768099E+00 -1.010729E-09  1.550984E-10
        42  17 -3.603459E+05 -1.844461E+01  8.902844E+02  1.405107E+01 -3.358226E-10 -3.058920E-10
        42  18 -3.603011E+05 -6.099106E+00  4.707064E+02  2.433404E+01  1.534984E-09  8.067007E-10
        42  19 -3.603009E+05  9.798533E+01  1.630128E+03 -3.768099E+00 -1.352764E+03  8.214992E-06
        42  20 -3.603459E+05 -1.844439E+01  8.902860E+02 -1.405107E+01 -9.104857E+02  2.061714E-05
        42  21 -3.603011E+05 -6.099047E+00  4.707068E+02 -2.433404E+01 -4.682080E+02  1.836175E-05
        42  22 -3.603009E+05  9.798533E+01  1.630128E+03  2.209494E-08 -1.352764E+03  1.030704E-10
        42  23 -3.603459E+05 -1.844439E+01  8.902860E+02  1.421618E-08 -9.104857E+02 -1.209871E-09
        42  24 -3.603011E+05 -6.099048E+00  4.707068E+02  1.818425E-08 -4.682080E+02  5.463292E-11
        42  25 -3.603009E+05  9.798533E+01  1.630128E+03  3.768099E+00 -1.352764E+03 -8.214892E-06
        42  26 -3.603459E+05 -1.844439E+01  8.902860E+02  1.405107E+01 -9.104857E+02 -2.061946E-05
        42  27 -3.603011E+05 -6.099047E+00  4.707068E+02  2.433404E+01 -4.682080E+02 -1.836159E-05
        43   1 -3.603202E+05  8.729701E+00  3.230828E+02 -1.014883E+01  3.965471E+02 -6.486197E-06
        43   2 -3.603220E+05  4.064137E-01  8.639746E+01 -7.168416E+00  3.540424E+02 -4.090814E-06
        43   3 -3.603203E+05 -1.559382E+01 -1.245248E+02 -4.188050E+00  3.115384E+02 -2.101572E-06
        43   4 -3.603202E+05  8.729700E+00  3.230828E+02  9.617866E-09  3.965471E+02  2.218445E-10
        43   5 -3.603220E+05  4.064136E-01  8.639746E+01 -2.637917E-09  3.540424E+02 -3.801367E-10
        43   6 -3.603203E+05 -1.559382E+01 -1.245248E+02  3.410204E-08  3.115384E+02  1.473654E-09
        43   7 -3.603202E+05  8.729701E+00  3.230828E+02  1.014883E+01  3.965471E+02  6.486655E-06
        43   8 -3.603220E+05  4.064137E-01  8.639746E+01  7.168416E+00  3.540424E+02  4.089904E-06
        43   9 -3.603203E+05 -1.559382E+01 -1.245248E+02  4.188050E+00  3.115384E+02  2.104490E-06
        43  10 -3.603202E+05  8.729658E+00  3.230825E+02 -1.014883E+01 -4.911356E-10 -3.457079E-10
        43  11 -3.603220E+05  4.063800E-01  8.639723E+01 -7.168416E+00 -3.031579E-09 -1.047021E-09
        43  12 -3.603203E+05 -1.559385E+01 -1.245250E+02 -4.188050E+00 -5.736845E-10  2.474903E-10
        43  13 -3.603202E+05  8.729658E+00  3.230825E+02  8.490275E-10 -9.507849E-10  1.315734E-10
        43  14 -3.603220E+05  4.063799E-01  8.639723E+01 -9.085681E-09 -4.081710E-10 -8.694557E-10
        43  15 -3.603203E+05 -1.559385E+01 -1.245250E+02  3.593836E-09 -1.797965E-09  5.205818E-10
        43  16 -3.603202E+05  8.729658E+00  3.230825E+02  1.014883E+01 -6.151225E-10  6.004523E-10
        43  17 -3.603220E+05  4.063800E-01  8.639723E+01  7.168416E+00  6.738574E-10 -6.742149E-10
        43  18 -3.603203E+05 -1.559385E+01 -1.245250E+02  4.188050E+00 -1.657143E-09  7.942397E-10
        43  19 -3.603202E+05  8.729701E+00  3.230828E+02 -1.014883E+01 -3.965471E+02  6.485623E-06
        43  20 -3.603220E+05  4.064137E-01  8.639746E+01 -7.168416E+00 -3.540424E+02  4.088788E-06
        43  21 -3.603203E+05 -1.559382E+01 -1.245248E+02 -4.188050E+00 -3.115384E+02  2.102004E-06
        43  22 -3.603202E+05  8.729700E+00  3.230828E+02  9.310849E-09 -3.965471E+02  5.194994E-11
        43  23 -3.603220E+05  4.064136E-01  8.639746E+01 -2.611106E-09 -3.540424E+02 -1.310267E-09
        43  24 -3.603203E+05 -1.559382E+01 -1.245248E+02  2.100193E-08 -3.115384E+02 -4.280154E-10
        43  25 -3.603202E+05  8.729701E+00  3.230828E+02  1.014883E+01 -3.965471E+02 -6.485493E-06
        43  26 -3.603220E+05  4.064137E-01  8.639746E+01  7.168416E+00 -3.540424E+02 -4.091387E-06
        43  27 -3.603203E+05 -1.559382E+01 -1.245248E+02  4.188050E+00 -3.115384E+02 -2.102939E-06
        44   1 -3.603398E+05  8.579096E+00 -2.347723E+02 -2.963060E+01  3.435747E+02 -1.640546E-05
        44   2 -3.602977E+05  2.451392E+01 -5.194696E+02  1.289918E+00  6.042355E+02  1.256091E-06
        44   3 -3.603399E+05 -1.610568E+02 -1.024315E+03  3.221091E+01  8.649001E+02  4.489810E-05
        44   4 -3.603398E+05  8.579095E+00 -2.347723E+02  2.880421E-09  3.435747E+02  1.628670E-09
        44   5 -3.602977E+05  2.451392E+01 -5.194696E+02 -1.274462E-08  6.042355E+02 -4.455649E-10
        44   6 -3.603399E+05 -1.610568E+02 -1.024315E+03  7.070619E-10  8.649001E+02 -9.445941E-10
        44   7 -3.603398E+05  8.579096E+00 -2.347723E+02  2.963060E+01  3.435747E+02  1.640871E-05
        44   8 -3.602977E+05  2.451392E+01 -5.194696E+02 -1.289918E+00  6.042355E+02 -1.257050E-06
        44   9 -3.603399E+05 -1.610568E+02 -1.024315E+03 -3.221091E+01  8.649001E+02 -4.489995E-05
        44  10 -3.603398E+05  8.579065E+00 -2.347725E+02 -2.963060E+01 -1.365613E-09  8.332859E-10
        44  11 -3.602977E+05  2.451382E+01 -5.194703E+02  1.289918E+00 -1.616624E-09  3.885335E-10
        44  12 -3.603399E+05 -1.610570E+02 -1.024317E+03  3.221091E+01 -1.622815E-09 -1.891961E-10
        44  13 -3.603398E+05  8.579063E+00 -2.347725E+02 -1.013366E-08 -3.369050E-09  9.644148E-10
        44  14 -3.602977E+05  2.451382E+01 -5.194703E+02 -4.176072E-09 -2.891530E-09  1.054046E-11
        44  15 -3.603399E+05 -1.610570E+02 -1.024317E+03 -5.754109E-09  5.872290E-10 -3.147743E-10
        44  16 -3.603398E+05  8.579065E+00 -2.347725E+02  2.963060E+01 -5.113198E-11  1.054139E-09
        44  17 -3.602977E+05  2.451382E+01 -5.194703E+02 -1.289918E+00 -1.574554E-09 -3.706186E-10
        44  18 -3.603399E+05 -1.610570E+02 -1.024317E+03 -3.221091E+01  1.325545E-09 -4.767764E-10
        44  19 -3.603398E+05  8.579096E+00 -2.347723E+02 -2.963060E+01 -3.435747E+02  1.640724E-05
        44  20 -3.602977E+05  2.451392E+01 -5.194696E+02  1.289918E+00 -6.042355E+02 -1.255219E-06
        44  21 -3.603399E+05 -1.610568E+02 -1.024315E+03  3.221091E+01 -8.649001E+02 -4.489843E-05
        44  22 -3.603398E+05  8.579095E+00 -2.347723E+02 -1.453240E-08 -3.435747E+02  3.229865E-10
        44  23 -3.602977E+05  2.451392E+01 -5.194696E+02  8.625212E-11 -6.042355E+02  4.441448E-10
        44  24 -3.603399E+05 -1.610568E+02 -1.024315E+03  1.793615E-08 -8.649001E+02  3.043701E-10
        44  25 -3.603398E+05  8.579096E+00 -2.347723E+02  2.963060E+01 -3.435747E+02 -1.640661E-05
        44  26 -3.602977E+05  2.451392E+01 -5.194696E+02 -1.289918E+00 -6.042355E+02  1.256132E-06
        44  27 -3.603399E+05 -1.610568E+02 -1.024315E+03 -3.221091E+01 -8.649001E+02  4.489892E-05
        45   1 -3.604652E+05  8.412177E+01 -1.329036E+03 -2.355311E+02  1.072581E+03 -4.071415E-04
        45   2 -3.601412E+05  2.277321E+02 -2.269220E+03  1.181991E+02  2.234070E+03  4.255770E-04
        45   3 -3.604657E+05 -1.617692E+03 -4.463164E+03  4.719294E+02  3.395558E+03  2.582586E-03
        45   4 -3.604652E+05  8.412166E+01 -1.329036E+03  8.694130E-09  1.072581E+03 -1.510141E-10
        45   5 -3.601412E+05  2.277320E+02 -2.269220E+03 -1.869975E-08  2.234070E+03  1.118906E-09
        45   6 -3.604657E+05 -1.617693E+03 -4.463164E+03 -5.710570E-09  3.395558E+03  9.404756E-10
        45   7 -3.604652E+05  8.412177E+01 -1.329036E+03  2.355311E+02  1.072581E+03  4.071412E-04
        45   8 -3.601412E+05  2.277321E+02 -2.269220E+03 -1.181991E+02  2.234070E+03 -4.255750E-04
        45   9 -3.604657E+05 -1.617692E+03 -4.463164E+03 -4.719294E+02  3.395558E+03 -2.582584E-03
        45  10 -3.604653E+05  8.412146E+01 -1.329038E+03 -2.355311E+02 -2.491262E-09 -2.131540E-10
        45  11 -3.601412E+05  2.277307E+02 -2.269229E+03  1.181991E+02 -1.950324E-10 -7.224256E-11
        45  12 -3.604657E+05 -1.617695E+03 -4.463186E+03  4.719294E+02 -3.638986E-10 -4.527402E-10
        45  13 -3.604653E+05  8.412135E+01 -1.329038E+03  1.158566E-10  1.261712E-11 -9.735390E-11
        45  14 -3.601412E+05  2.277307E+02 -2.269229E+03 -5.779504E-09  4.733987E-10  1.758616E-10
        45  15 -3.604657E+05 -1.617696E+03 -4.463186E+03 -1.383008E-08 -2.162411E-10 -1.373538E-10
        45  16 -3.604653E+05  8.412146E+01 -1.329038E+03  2.355311E+02 -8.523830E-10  3.555253E-11
        45  17 -3.601412E+05  2.277307E+02 -2.269229E+03 -1.181991E+02 -7.417157E-11  3.909959E-10
        45  18 -3.604657E+05 -1.617695E+03 -4.463186E+03 -4.719294E+02  1.491476E-09  1.641296E-10
        45  19 -3.604652E+05  8.412177E+01 -1.329036E+03 -2.355311E+02 -1.072581E+03  4.071411E-04
        45  20 -3.601412E+05  2.277321E+02 -2.269220E+03  1.181991E+02 -2.234070E+03 -4.255772E-04
        45  21 -3.604657E+05 -1.617692E+03 -4.463164E+03  4.719294E+02 -3.395558E+03 -2.582587E-03
        45  22 -3.604652E+05  8.412166E+01 -1.329036E+03  2.169087E-08 -1.072581E+03 -6.668071E-11
        45  23 -3.601412E+05  2.277320E+02 -2.269220E+03 -1.870291E-08 -2.234070E+03 -7.925114E-10
        45  24 -3.604657E+05 -1.617693E+03 -4.463164E+03  3.361427E-09 -3.395558E+03 -1.219249E-09
        45  25 -3.604652E+05  8.412177E+01 -1.329036E+03  2.355311E+02 -1.072581E+03 -4.071413E-04
        45  26 -3.601412E+05  2.277321E+02 -2.269220E+03 -1.181991E+02 -2.234070E+03  4.255756E-04
        45  27 -3.604657E+05 -1.617692E+03 -4.463164E+03 -4.719294E+02 -3.395558E+03  2.582585E-03
        46   1 -3.615373E+05  8.338982E+02 -5.481897E+03 -2.156703E+03  4.241523E+03 -1.474278E-02
        46   2 -3.588019E+05  2.156773E+03 -8.806395E+03  1.523185E+03  8.989853E+03  2.206838E-02
        46   3 -3.615403E+05 -1.593822E+04 -2.007801E+04  5.203001E+03  1.373812E+04  1.151987E-01
        46   4 -3.615373E+05  8.338894E+02 -5.481898E+03 -2.580584E-09  4.241523E+03 -1.593887E-11
        46   5 -3.588019E+05  2.156769E+03 -8.806396E+03 -1.994013E-09  8.989853E+03 -1.104073E-09
        46   6 -3.615403E+05 -1.593827E+04 -2.007802E+04 -3.290679E-10  1.373812E+04 -5.126386E-10
        46   7 -3.615373E+05  8.338982E+02 -5.481897E+03  2.156703E+03  4.241523E+03  1.474278E-02
        46   8 -3.588019E+05  2.156773E+03 -8.806395E+03 -1.523185E+03  8.989853E+03 -2.206839E-02
        46   9 -3.615403E+05 -1.593822E+04 -2.007801E+04 -5.203001E+03  1.373812E+04 -1.151987E-01
        46  10 -3.615373E+05  8.338933E+02 -5.481930E+03 -2.156703E+03  5.799764E-10 -4.420930E-10
        46  11 -3.588020E+05  2.156751E+03 -8.806547E+03  1.523185E+03  1.041919E-09 -3.127928E-11
        46  12 -3.615405E+05 -1.593827E+04 -2.007836E+04  5.203001E+03  1.118909E-09  6.758301E-11
        46  13 -3.615373E+05  8.338846E+02 -5.481932E+03 -1.119436E-08 -2.955211E-09 -3.359035E-10
        46  14 -3.588020E+05  2.156747E+03 -8.806547E+03 -2.352076E-08  6.722989E-27 -2.610834E-10
        46  15 -3.615405E+05 -1.593833E+04 -2.007837E+04 -2.466652E-09  1.932862E-09 -7.693396E-11
        46  16 -3.615373E+05  8.338933E+02 -5.481930E+03  2.156703E+03 -1.060090E-09 -1.864611E-10
        46  17 -3.588020E+05  2.156751E+03 -8.806547E+03 -1.523185E+03 -6.758161E-10 -5.089035E-10
        46  18 -3.615405E+05 -1.593827E+04 -2.007836E+04 -5.203001E+03  3.548004E-11 -2.093005E-10
        46  19 -3.615373E+05  8.338982E+02 -5.481897E+03 -2.156703E+03 -4.241523E+03  1.474278E-02
        46  20 -3.588019E+05  2.156773E+03 -8.806395E+03  1.523185E+03 -8.989853E+03 -2.206838E-02
        46  21 -3.615403E+05 -1.593822E+04 -2.007801E+04  5.203001E+03 -1.373812E+04 -1.151987E-01
        46  22 -3.615373E+05  8.338894E+02 -5.481898E+03  1.034521E-08 -4.241523E+03 -6.592304E-10
        46  23 -3.588019E+05  2.156769E+03 -8.806396E+03 -2.351183E-08 -8.989853E+03  5.864399E-10
        46  24 -3.615403E+05 -1.593827E+04 -2.007802E+04 -8.910181E-09 -1.373812E+04  3.660769E-10
        46  25 -3.615373E+05  8.338982E+02 -5.481897E+03  2.156703E+03 -4.241523E+03 -1.474278E-02
        46  26 -3.588019E+05  2.156773E+03 -8.806395E+03 -1.523185E+03 -8.989853E+03  2.206839E-02
        46  27 -3.615403E+05 -1.593822E+04 -2.007801E+04 -5.203001E+03 -1.373812E+04  1.151987E-01
        47   1  7.579287E+04 -7.913718E+05  5.995504E+04 -1.242130E+04  5.270862E+03 -3.844731E+04
        47   2  1.228677E+05 -8.408923E+05  8.030744E+04 -4.627120E+03  1.554476E+04 -2.822119E+04
        47   3  1.038659E+05 -9.080784E+05  7.751965E+04 -3.804050E+04  1.367857E+04 -1.799895E+04
        47   4 -5.509550E+04 -1.315783E+06 -6.948904E+04 -3.036754E+04  5.273449E+03 -4.704246E+04
        47   5  7.437109E+03 -1.306362E+06 -3.085707E+04 -9.755876E+03  1.554664E+04 -3.042465E+04
        47   6  2.754501E+03 -1.315735E+06 -1.982448E+04 -3.035443E+04  1.367612E+04 -1.380949E+04
        47   7 -1.860032E+05 -1.839943E+06 -1.989531E+05 -4.829857E+04  5.276536E+03 -5.563033E+04
        47   8 -1.080091E+05 -1.771632E+06 -1.420368E+05 -1.488074E+04  1.554855E+04 -3.262646E+04
        47   9 -9.836872E+04 -1.723239E+06 -1.171802E+05 -2.267342E+04  1.367379E+04 -9.622762E+03
        47  10  7.579244E+04 -7.913734E+05  5.995220E+04 -1.242114E+04 -6.345058E-10 -3.069786E-10
        47  11  1.228672E+05 -8.408932E+05  8.030549E+04 -4.626767E+03 -3.744283E-10 -8.122790E-12
        47  12  1.038656E+05 -9.080788E+05  7.751869E+04 -3.804030E+04 -4.311213E-10  9.422411E-10
        47  13 -5.509612E+04 -1.315786E+06 -6.949326E+04 -3.036734E+04  9.423253E-10 -2.209715E-11
        47  14  7.436601E+03 -1.306363E+06 -3.085927E+04 -9.755495E+03 -1.443344E-09 -2.268793E-10
        47  15  2.754249E+03 -1.315735E+06 -1.982519E+04 -3.035428E+04  1.285769E-09 -1.090958E-10
        47  16 -1.860040E+05 -1.839947E+06 -1.989589E+05 -4.829833E+04  8.875641E-10  2.618219E-10
        47  17 -1.080096E+05 -1.771633E+06 -1.420393E+05 -1.488033E+04  1.769601E-09 -8.332581E-11
        47  18 -9.836895E+04 -1.723239E+06 -1.171807E+05 -2.267331E+04  1.509188E-09 -7.680205E-10
        47  19  7.579287E+04 -7.913718E+05  5.995504E+04 -1.242130E+04 -5.270862E+03  3.844731E+04
        47  20  1.228677E+05 -8.408923E+05  8.030744E+04 -4.627120E+03 -1.554476E+04  2.822119E+04
        47  21  1.038659E+05 -9.080784E+05  7.751965E+04 -3.804050E+04 -1.367857E+04  1.799895E+04
        47  22 -5.509550E+04 -1.315783E+06 -6.948904E+04 -3.036754E+04 -5.273449E+03  4.704246E+04
        47  23  7.437109E+03 -1.306362E+06 -3.085707E+04 -9.755876E+03 -1.554664E+04  3.042465E+04
        47  24  2.754501E+03 -1.315735E+06 -1.982448E+04 -3.035443E+04 -1.367612E+04  1.380949E+04
        47  25 -1.860032E+05 -1.839943E+06 -1.989531E+05 -4.829857E+04 -5.276536E+03  5.563033E+04
        47  26 -1.080091E+05 -1.771632E+06 -1.420368E+05 -1.488074E+04 -1.554855E+04  3.262646E+04
        47  27 -9.836872E+04 -1.723239E+06 -1.171802E+05 -2.267342E+04 -1.367379E+04  9.622762E+03
        48   1  7.676685E+04 -9.806438E+05  6.276880E+04 -2.907817E+04  1.054342E+04 -1.133818E+04
        48   2  6.830996E+04 -1.039425E+06  5.496181E+04 -9.176688E+03  8.940434E+03 -6.717471E+03
        48   3  5.126597E+04 -1.100974E+06  4.199188E+04 -3.217168E+04  6.501156E+03 -2.099171E+03
        48   4 -5.495210E+03 -1.312184E+06 -1.659953E+04 -3.073756E+04  1.054332E+04 -1.071157E+04
        48   5  1.004497E+03 -1.310754E+06 -9.887510E+03 -9.286952E+03  8.939699E+03 -5.652228E+03
        48   6 -1.161186E+03 -1.312173E+06 -8.645284E+03 -3.073415E+04  6.499627E+03 -5.948575E+02
        48   7 -8.776524E+04 -1.643624E+06 -9.597563E+04 -3.239603E+04  1.054323E+04 -1.008528E+04
        48   8 -6.630631E+04 -1.582016E+06 -7.474202E+04 -9.397152E+03  8.938964E+03 -4.587449E+03
        48   9 -5.359158E+04 -1.523332E+06 -5.928561E+04 -2.929709E+04  6.498106E+03  9.089457E+02
        48  10  7.676669E+04 -9.806440E+05  6.276835E+04 -2.907807E+04 -1.108857E-09  9.921235E-10
        48  11  6.830987E+04 -1.039425E+06  5.496157E+04 -9.176639E+03 -1.032635E-09 -5.393132E-11
        48  12  5.126593E+04 -1.100974E+06  4.199179E+04 -3.217167E+04 -2.062184E-10 -7.112349E-10
        48  13 -5.495360E+03 -1.312184E+06 -1.659995E+04 -3.073746E+04  6.020486E-10  1.320809E-11
        48  14  1.004403E+03 -1.310754E+06 -9.887720E+03 -9.286912E+03  8.660093E-10 -3.799465E-10
        48  15 -1.161232E+03 -1.312173E+06 -8.645364E+03 -3.073414E+04  3.264709E-09 -3.274849E-10
        48  16 -8.776539E+04 -1.643624E+06 -9.597603E+04 -3.239594E+04  5.520758E-10 -1.121617E-09
        48  17 -6.630640E+04 -1.582016E+06 -7.474221E+04 -9.397119E+03  3.209216E-09 -2.074773E-10
        48  18 -5.359163E+04 -1.523332E+06 -5.928569E+04 -2.929710E+04  6.157773E-10  9.082252E-10
        48  19  7.676685E+04 -9.806438E+05  6.276880E+04 -2.907817E+04 -1.054342E+04  1.133818E+04
        48  20  6.830996E+04 -1.039425E+06  5.496181E+04 -9.176688E+03 -8.940434E+03  6.717471E+03
        48  21  5.126597E+04 -1.100974E+06  4.199188E+04 -3.217168E+04 -6.501156E+03  2.099171E+03
        48  22 -5.495210E+03 -1.312184E+06 -1.659953E+04 -3.073756E+04 -1.054332E+04  1.071157E+04
        48  23  1.004497E+03 -1.310754E+06 -9.887510E+03 -9.286952E+03 -8.939699E+03  5.652228E+03
        48  24 -1.161186E+03 -1.312173E+06 -8.645284E+03 -3.073415E+04 -6.499627E+03  5.948575E+02
        48  25 -8.776524E+04 -1.643624E+06 -9.597563E+04 -3.239603E+04 -1.054323E+04  1.008528E+04
        48  26 -6.630631E+04 -1.582016E+06 -7.474202E+04 -9.397152E+03 -8.938964E+03  4.587449E+03
        48  27 -5.359158E+04 -1.523332E+06 -5.928561E+04 -2.929709E+04 -6.498106E+03 -9.089457E+02
        49   1  3.333856E+04 -1.179386E+06  2.321203E+04 -2.885781E+04  4.819334E+03 -5.488085E+02
        49   2  2.008205E+04 -1.237673E+06  7.512524E+03 -1.060022E+04  2.361341E+03  4.951901E+03
        49   3 -1.205160E+04 -1.301516E+06 -1.651918E+04 -3.589772E+04  4.419422E+02  1.045227E+04
        49   4  2.873023E+02 -1.312756E+06 -8.519060E+03 -3.087560E+04  4.817729E+03  8.857427E+02
        49   5  2.132068E+03 -1.310004E+06 -9.783048E+03 -9.106776E+03  2.359999E+03  6.101792E+03
        49   6 -1.485184E+04 -1.312763E+06 -1.918169E+04 -3.089377E+04  4.409430E+02  1.131804E+04
        49   7 -3.276522E+04 -1.446110E+06 -4.025139E+04 -3.289294E+04  4.816114E+03  2.319987E+03
        49   8 -1.581828E+04 -1.382330E+06 -2.707898E+04 -7.613502E+03  2.358662E+03  7.251549E+03
        49   9 -1.765201E+04 -1.324010E+06 -2.184420E+04 -2.588992E+04  4.399578E+02  1.218378E+04
        49  10  3.333853E+04 -1.179386E+06  2.321199E+04 -2.885781E+04 -1.304520E-09 -4.390400E-10
        49  11  2.008204E+04 -1.237673E+06  7.512468E+03 -1.060023E+04  7.967028E-10 -4.608460E-10
        49  12 -1.205162E+04 -1.301516E+06 -1.651939E+04 -3.589772E+04 -5.901182E-11  4.740525E-10
        49  13  2.872772E+02 -1.312756E+06 -8.519105E+03 -3.087560E+04 -2.710586E-10 -2.118570E-11
        49  14  2.132052E+03 -1.310004E+06 -9.783128E+03 -9.106787E+03  1.074566E-09 -6.344593E-10
        49  15 -1.485188E+04 -1.312763E+06 -1.918193E+04 -3.089378E+04 -1.537243E-09 -4.796702E-10
        49  16 -3.276525E+04 -1.446110E+06 -4.025144E+04 -3.289295E+04 -1.071358E-09  3.329878E-10
        49  17 -1.581830E+04 -1.382330E+06 -2.707909E+04 -7.613516E+03 -1.331710E-11  9.768283E-11
        49  18 -1.765205E+04 -1.324011E+06 -2.184448E+04 -2.588992E+04  5.101310E-10 -7.309637E-11
        49  19  3.333856E+04 -1.179386E+06  2.321203E+04 -2.885781E+04 -4.819334E+03  5.488085E+02
        49  20  2.008205E+04 -1.237673E+06  7.512524E+03 -1.060022E+04 -2.361341E+03 -4.951901E+03
        49  21 -1.205160E+04 -1.301516E+06 -1.651918E+04 -3.589772E+04 -4.419422E+02 -1.045227E+04
        49  22  2.873023E+02 -1.312756E+06 -8.519060E+03 -3.087560E+04 -4.817729E+03 -8.857427E+02
        49  23  2.132068E+03 -1.310004E+06 -9.783048E+03 -9.106776E+03 -2.359999E+03 -6.101792E+03
        49  24 -1.485184E+04 -1.312763E+06 -1.918169E+04 -3.089377E+04 -4.409430E+02 -1.131804E+04
        49  25 -3.276522E+04 -1.446110E+06 -4.025139E+04 -3.289294E+04 -4.816114E+03 -2.319987E+03
        49  26 -1.581828E+04 -1.382330E+06 -2.707898E+04 -7.613502E+03 -2.358662E+03 -7.251549E+03
        49  27 -1.765201E+04 -1.324010E+06 -2.184420E+04 -2.588992E+04 -4.399578E+02 -1.218378E+04
        50   1 -9.363168E+05 -1.572637E+05 -2.305344E+04 -3.487584E+05  8.167593E+01  1.180395E+03
        50   2 -9.272042E+05 -1.516260E+05 -2.059706E+04 -3.408366E+05 -1.594818E+02  3.265596E+03
        50   3 -9.100924E+05 -1.504473E+05 -1.777102E+04 -3.417404E+05  5.035531E+02  2.939239E+03
        50   4 -8.394775E+05 -1.214583E+05  3.144284E+03 -3.231532E+05  1.619028E+03  1.756842E+03
        50   5 -8.437576E+05 -1.204991E+05  1.310815E+03 -3.183084E+05  1.871317E+02  3.395509E+03
        50   6 -8.398025E+05 -1.237631E+05  7.912597E+02 -3.222894E+05 -3.406465E+02  2.622781E+03
        50   7 -7.426300E+05 -8.565272E+04  2.934095E+04 -2.975446E+05  3.156630E+03  2.333379E+03
        50   8 -7.603044E+05 -8.937190E+04  2.321804E+04 -2.957775E+05  5.337955E+02  3.525441E+03
        50   9 -7.695076E+05 -9.707854E+04  1.935320E+04 -3.028362E+05 -1.184955E+03  2.306281E+03
        50  10 -9.363168E+05 -1.572637E+05 -2.305344E+04 -3.487584E+05  1.853363E-09  5.723315E-10
        50  11 -9.272042E+05 -1.516260E+05 -2.059708E+04 -3.408366E+05  4.398835E-09  1.813754E-09
        50  12 -9.100924E+05 -1.504473E+05 -1.777104E+04 -3.417404E+05  2.308512E-09  1.009683E-09
        50  13 -8.394775E+05 -1.214583E+05  3.144273E+03 -3.231532E+05  8.475078E-10  5.410737E-10
        50  14 -8.437576E+05 -1.204991E+05  1.310793E+03 -3.183084E+05  1.482664E-09  1.215728E-09
        50  15 -8.398025E+05 -1.237631E+05  7.912466E+02 -3.222894E+05  4.301822E-09  6.869070E-10
        50  16 -7.426301E+05 -8.565272E+04  2.934092E+04 -2.975446E+05  2.621067E-09  5.805290E-10
        50  17 -7.603044E+05 -8.937191E+04  2.321802E+04 -2.957775E+05  6.957893E-10  1.236174E-09
        50  18 -7.695076E+05 -9.707854E+04  1.935319E+04 -3.028362E+05  2.396867E-09  4.698263E-10
        50  19 -9.363168E+05 -1.572637E+05 -2.305344E+04 -3.487584E+05 -8.167593E+01 -1.180395E+03
        50  20 -9.272042E+05 -1.516260E+05 -2.059706E+04 -3.408366E+05  1.594818E+02 -3.265596E+03
        50  21 -9.100924E+05 -1.504473E+05 -1.777102E+04 -3.417404E+05 -5.035531E+02 -2.939239E+03
        50  22 -8.394775E+05 -1.214583E+05  3.144284E+03 -3.231532E+05 -1.619028E+03 -1.756842E+03
        50  23 -8.437576E+05 -1.204991E+05  1.310815E+03 -3.183084E+05 -1.871317E+02 -3.395509E+03
        50  24 -8.398025E+05 -1.237631E+05  7.912597E+02 -3.222894E+05  3.406465E+02 -2.622781E+03
        50  25 -7.426300E+05 -8.565272E+04  2.934095E+04 -2.975446E+05 -3.156630E+03 -2.333379E+03
        50  26 -7.603044E+05 -8.937190E+04  2.321804E+04 -2.957775E+05 -5.337955E+02 -3.525441E+03
        50  27 -7.695076E+05 -9.707854E+04  1.935320E+04 -3.028362E+05  1.184955E+03 -2.306281E+03
        51   1 -8.924371E+05 -1.431526E+05 -1.320939E+04 -3.367708E+05 -5.152433E+01  1.957658E+03
        51   2 -8.829632E+05 -1.349002E+05 -1.006454E+04 -3.289949E+05  3.006523E+01  1.542088E+03
        51   3 -8.661214E+05 -1.336082E+05 -6.791803E+03 -3.296033E+05  1.819586E+02  9.387582E+02
        51   4 -8.398656E+05 -1.234807E+05  6.412097E+02 -3.225232E+05 -1.983068E+02  1.902630E+03
        51   5 -8.435756E+05 -1.201316E+05  3.031877E+02 -3.182854E+05 -2.094352E+02  1.452320E+03
        51   6 -8.398998E+05 -1.237244E+05  1.665747E+02 -3.224318E+05 -1.502605E+02  8.142602E+02
        51   7 -7.872914E+05 -1.038086E+05  1.449160E+04 -3.082745E+05 -3.451031E+02  1.847597E+03
        51   8 -8.041868E+05 -1.053630E+05  1.067073E+04 -3.075753E+05 -4.489512E+02  1.362546E+03
        51   9 -8.136777E+05 -1.138406E+05  7.124812E+03 -3.152601E+05 -4.824913E+02  6.897578E+02
        51  10 -8.924371E+05 -1.431526E+05 -1.320940E+04 -3.367708E+05  1.776480E-09 -3.868356E-10
        51  11 -8.829632E+05 -1.349002E+05 -1.006454E+04 -3.289949E+05 -3.166618E-10 -2.967408E-10
        51  12 -8.661214E+05 -1.336082E+05 -6.791805E+03 -3.296033E+05 -1.574318E-09  8.132621E-10
        51  13 -8.398656E+05 -1.234807E+05  6.412028E+02 -3.225232E+05  1.352518E-11 -1.650526E-10
        51  14 -8.435756E+05 -1.201317E+05  3.031836E+02 -3.182854E+05 -5.671826E-10  3.494448E-10
        51  15 -8.398998E+05 -1.237244E+05  1.665734E+02 -3.224318E+05  4.001134E-10  1.079878E-09
        51  16 -7.872914E+05 -1.038086E+05  1.449159E+04 -3.082745E+05  1.971533E-09  8.308696E-11
        51  17 -8.041868E+05 -1.053630E+05  1.067072E+04 -3.075753E+05  3.061692E-10 -1.508541E-10
        51  18 -8.136777E+05 -1.138406E+05  7.124811E+03 -3.152601E+05 -1.985273E-09  6.122903E-10
        51  19 -8.924371E+05 -1.431526E+05 -1.320939E+04 -3.367708E+05  5.152433E+01 -1.957658E+03
        51  20 -8.829632E+05 -1.349002E+05 -1.006454E+04 -3.289949E+05 -3.006523E+01 -1.542088E+03
        51  21 -8.661214E+05 -1.336082E+05 -6.791803E+03 -3.296033E+05 -1.819586E+02 -9.387582E+02
        51  22 -8.398656E+05 -1.234807E+05  6.412097E+02 -3.225232E+05  1.983068E+02 -1.902630E+03
        51  23 -8.435756E+05 -1.201316E+05  3.031877E+02 -3.182854E+05  2.094352E+02 -1.452320E+03
        51  24 -8.398998E+05 -1.237244E+05  1.665747E+02 -3.224318E+05  1.502605E+02 -8.142602E+02
        51  25 -7.872914E+05 -1.038086E+05  1.449160E+04 -3.082745E+05  3.451031E+02 -1.847597E+03
        51  26 -8.041868E+05 -1.053630E+05  1.067073E+04 -3.075753E+05  4.489512E+02 -1.362546E+03
        51  27 -8.136777E+05 -1.138406E+05  7.124812E+03 -3.152601E+05  4.824913E+02 -6.897578E+02
        52   1 -8.479159E+05 -1.266951E+05 -1.940708E+03 -3.246434E+05  2.432276E+02  5.424606E+02
        52   2 -8.383568E+05 -1.181309E+05  1.413262E+03 -3.168575E+05  4.418154E+02 -3.505066E+01
        52   3 -8.214933E+05 -1.168279E+05  4.786972E+03 -3.174399E+05  6.453106E+02 -6.256046E+02
        52   4 -8.399042E+05 -1.237005E+05  1.229776E+02 -3.224637E+05 -3.583521E+01  4.378869E+02
        52   5 -8.435589E+05 -1.200839E+05  4.301385E+01 -3.182744E+05  1.563057E+02 -1.420453E+02
        52   6 -8.399079E+05 -1.237274E+05 -1.212141E+01 -3.224536E+05  3.533539E+02 -7.350192E+02
        52   7 -8.318925E+05 -1.207059E+05  2.186679E+03 -3.202840E+05 -3.149046E+02  3.333108E+02
        52   8 -8.487609E+05 -1.220370E+05 -1.327248E+03 -3.196914E+05 -1.292038E+02 -2.490398E+02
        52   9 -8.583224E+05 -1.306270E+05 -4.811277E+03 -3.274673E+05  6.140475E+01 -8.444309E+02
        52  10 -8.479159E+05 -1.266951E+05 -1.940708E+03 -3.246434E+05  1.663468E-09  1.126785E-09
        52  11 -8.383568E+05 -1.181309E+05  1.413262E+03 -3.168575E+05 -1.020507E-09 -1.273933E-09
        52  12 -8.214933E+05 -1.168279E+05  4.786971E+03 -3.174399E+05 -2.328909E-09 -3.612510E-10
        52  13 -8.399042E+05 -1.237005E+05  1.229772E+02 -3.224637E+05  9.092828E-10  4.742458E-10
        52  14 -8.435589E+05 -1.200839E+05  4.301377E+01 -3.182744E+05 -1.565800E-09 -1.270076E-09
        52  15 -8.399079E+05 -1.237274E+05 -1.212266E+01 -3.224536E+05  3.639147E-10 -4.656721E-10
        52  16 -8.318925E+05 -1.207059E+05  2.186678E+03 -3.202840E+05 -5.555767E-10  2.281021E-10
        52  17 -8.487609E+05 -1.220370E+05 -1.327248E+03 -3.196914E+05 -1.307821E-09 -9.958905E-10
        52  18 -8.583224E+05 -1.306270E+05 -4.811278E+03 -3.274673E+05  3.039631E-09 -1.496186E-10
        52  19 -8.479159E+05 -1.266951E+05 -1.940708E+03 -3.246434E+05 -2.432276E+02 -5.424606E+02
        52  20 -8.383568E+05 -1.181309E+05  1.413262E+03 -3.168575E+05 -4.418154E+02  3.505066E+01
        52  21 -8.214933E+05 -1.168279E+05  4.786972E+03 -3.174399E+05 -6.453106E+02  6.256046E+02
        52  22 -8.399042E+05 -1.237005E+05  1.229776E+02 -3.224637E+05  3.583521E+01 -4.378869E+02
        52  23 -8.435589E+05 -1.200839E+05  4.301385E+01 -3.182744E+05 -1.563057E+02  1.420453E+02
        52  24 -8.399079E+05 -1.237274E+05 -1.212141E+01 -3.224536E+05 -3.533539E+02  7.350192E+02
        52  25 -8.318925E+05 -1.207059E+05  2.186679E+03 -3.202840E+05  3.149046E+02 -3.333108E+02
        52  26 -8.487609E+05 -1.220370E+05 -1.327248E+03 -3.196914E+05  1.292038E+02  2.490398E+02
        52  27 -8.583224E+05 -1.306270E+05 -4.811277E+03 -3.274673E+05 -6.140475E+01  8.444309E+02
        53   1 -8.033617E+05 -1.099779E+05  9.639886E+03 -3.124896E+05  7.735345E+02 -9.678279E+02
        53   2 -7.938774E+05 -1.014560E+05  1.296796E+04 -3.047710E+05  1.044820E+03 -1.528884E+03
        53   3 -7.771717E+05 -1.001734E+05  1.625421E+04 -3.053413E+05  1.315128E+03 -2.087145E+03
        53   4 -8.399253E+05 -1.237092E+05 -3.887906E+01 -3.224413E+05  4.858769E+02 -1.075638E+03
        53   5 -8.435368E+05 -1.200962E+05 -1.098924E+02 -3.182943E+05  7.585284E+02 -1.636198E+03
        53   6 -8.399274E+05 -1.237227E+05 -2.237841E+02 -3.224363E+05  1.030203E+03 -2.193964E+03
        53   7 -8.764872E+05 -1.374402E+05 -9.717648E+03 -3.323923E+05  1.982412E+02 -1.183440E+03
        53   8 -8.931937E+05 -1.387361E+05 -1.318791E+04 -3.318166E+05  4.722631E+02 -1.743502E+03
        53   9 -9.026795E+05 -1.472718E+05 -1.670219E+04 -3.395298E+05  7.453075E+02 -2.300772E+03
        53  10 -8.033617E+05 -1.099779E+05  9.639883E+03 -3.124896E+05 -1.305586E-09  3.652403E-10
        53  11 -7.938774E+05 -1.014560E+05  1.296795E+04 -3.047709E+05  2.339301E-09  5.524799E-10
        53  12 -7.771717E+05 -1.001734E+05  1.625420E+04 -3.053413E+05 -2.615203E-09  2.296615E-11
        53  13 -8.399253E+05 -1.237092E+05 -3.888168E+01 -3.224413E+05 -2.498101E-09 -1.616751E-10
        53  14 -8.435368E+05 -1.200962E+05 -1.098985E+02 -3.182943E+05  5.510857E-11  5.606227E-10
        53  15 -8.399274E+05 -1.237227E+05 -2.237951E+02 -3.224363E+05  5.567984E-10  8.517746E-10
        53  16 -8.764872E+05 -1.374402E+05 -9.717651E+03 -3.323923E+05  4.464033E-10 -1.961857E-10
        53  17 -8.931937E+05 -1.387361E+05 -1.318791E+04 -3.318166E+05 -2.620192E-10  4.858224E-11
        53  18 -9.026795E+05 -1.472718E+05 -1.670220E+04 -3.395298E+05  1.570590E-09  9.006956E-10
        53  19 -8.033617E+05 -1.099779E+05  9.639886E+03 -3.124896E+05 -7.735345E+02  9.678279E+02
        53  20 -7.938774E+05 -1.014560E+05  1.296796E+04 -3.047710E+05 -1.044820E+03  1.528884E+03
        53  21 -7.771717E+05 -1.001734E+05  1.625421E+04 -3.053413E+05 -1.315128E+03  2.087145E+03
        53  22 -8.399253E+05 -1.237092E+05 -3.887906E+01 -3.224413E+05 -4.858769E+02  1.075638E+03
        53  23 -8.435368E+05 -1.200962E+05 -1.098924E+02 -3.182943E+05 -7.585284E+02  1.636198E+03
        53  24 -8.399274E+05 -1.237227E+05 -2.237841E+02 -3.224363E+05 -1.030203E+03  2.193964E+03
        53  25 -8.764872E+05 -1.374402E+05 -9.717648E+03 -3.323923E+05 -1.982412E+02  1.183440E+03
        53  26 -8.931937E+05 -1.387361E+05 -1.318791E+04 -3.318166E+05 -4.722631E+02  1.743502E+03
        53  27 -9.026795E+05 -1.472718E+05 -1.670219E+04 -3.395298E+05 -7.453075E+02  2.300772E+03
        54   1 -7.593264E+05 -9.340338E+04  2.098494E+04 -3.004535E+05  1.483412E+03 -2.406745E+03
        54   2 -7.500528E+05 -8.505407E+04  2.405137E+04 -2.928979E+05  1.970081E+03 -2.874822E+03
        54   3 -7.337880E+05 -8.388529E+04  2.688526E+04 -2.934149E+05  2.453283E+03 -3.333288E+03
        54   4 -8.399743E+05 -1.236736E+05 -3.012814E+02 -3.224022E+05  1.199348E+03 -2.513260E+03
        54   5 -8.434764E+05 -1.201296E+05 -5.527348E+02 -3.183484E+05  1.690710E+03 -2.979611E+03
        54   6 -8.399882E+05 -1.237672E+05 -1.040429E+03 -3.223674E+05  2.178599E+03 -3.436351E+03
        54   7 -9.206160E+05 -1.539434E+05 -2.158806E+04 -3.443483E+05  9.153259E+02 -2.619760E+03
        54   8 -9.368915E+05 -1.552046E+05 -2.515755E+04 -3.437955E+05  1.411387E+03 -3.084382E+03
        54   9 -9.461772E+05 -1.636483E+05 -2.896700E+04 -3.513154E+05  1.903966E+03 -3.539395E+03
        54  10 -7.593264E+05 -9.340338E+04  2.098493E+04 -3.004535E+05  1.136114E-10  3.862044E-10
        54  11 -7.500528E+05 -8.505408E+04  2.405135E+04 -2.928979E+05  1.981480E-09  8.303034E-10
        54  12 -7.337880E+05 -8.388530E+04  2.688523E+04 -2.934149E+05 -9.077101E-10 -3.457536E-10
        54  13 -8.399743E+05 -1.236736E+05 -3.012960E+02 -3.224022E+05  5.865227E-10  1.695056E-10
        54  14 -8.434764E+05 -1.201296E+05 -5.527569E+02 -3.183484E+05  1.167150E-09  1.868654E-10
        54  15 -8.399882E+05 -1.237672E+05 -1.040460E+03 -3.223674E+05  1.017631E-09  2.107656E-10
        54  16 -9.206160E+05 -1.539434E+05 -2.158808E+04 -3.443483E+05  2.565354E-09  6.164183E-10
        54  17 -9.368915E+05 -1.552046E+05 -2.515757E+04 -3.437955E+05  1.013174E-09 -3.316829E-10
        54  18 -9.461772E+05 -1.636483E+05 -2.896703E+04 -3.513154E+05  4.162548E-10  3.084361E-10
        54  19 -7.593264E+05 -9.340338E+04  2.098494E+04 -3.004535E+05 -1.483412E+03  2.406745E+03
        54  20 -7.500528E+05 -8.505407E+04  2.405137E+04 -2.928979E+05 -1.970081E+03  2.874822E+03
        54  21 -7.337880E+05 -8.388529E+04  2.688526E+04 -2.934149E+05 -2.453283E+03  3.333288E+03
        54  22 -8.399743E+05 -1.236736E+05 -3.012814E+02 -3.224022E+05 -1.199348E+03  2.513260E+03
        54  23 -8.434764E+05 -1.201296E+05 -5.527348E+02 -3.183484E+05 -1.690710E+03  2.979611E+03
        54  24 -8.399882E+05 -1.237672E+05 -1.040429E+03 -3.223674E+05 -2.178599E+03  3.436351E+03
        54  25 -9.206160E+05 -1.539434E+05 -2.158806E+04 -3.443483E+05 -9.153259E+02  2.619760E+03
        54  26 -9.368915E+05 -1.552046E+05 -2.515755E+04 -3.437955E+05 -1.411387E+03  3.084382E+03
        54  27 -9.461772E+05 -1.636483E+05 -2.896700E+04 -3.513154E+05 -1.903966E+03  3.539395E+03
        55   1 -7.164642E+05 -7.727857E+04  3.122284E+04 -2.888162E+05  2.781270E+03 -3.585845E+03
        55   2 -7.074722E+05 -6.902740E+04  3.334148E+04 -2.813839E+05  4.204165E+03 -3.679092E+03
        55   3 -6.922377E+05 -6.868427E+04  3.425897E+04 -2.814844E+05  5.611431E+03 -3.730023E+03
        55   4 -8.401085E+05 -1.235904E+05 -1.365107E+03 -3.223751E+05  2.499254E+03 -3.691686E+03
        55   5 -8.432906E+05 -1.200762E+05 -2.437340E+03 -3.184431E+05  3.942754E+03 -3.777251E+03
        55   6 -8.402346E+05 -1.244746E+05 -4.727319E+03 -3.220441E+05  5.370596E+03 -3.820507E+03
        55   7 -9.637384E+05 -1.699015E+05 -3.395447E+04 -3.559282E+05  2.217299E+03 -3.797504E+03
        55   8 -9.790913E+05 -1.711240E+05 -3.821780E+04 -3.554950E+05  3.681406E+03 -3.875387E+03
        55   9 -9.882103E+05 -1.802636E+05 -4.371549E+04 -3.625950E+05  5.129824E+03 -3.910967E+03
        55  10 -7.164642E+05 -7.727859E+04  3.122280E+04 -2.888162E+05 -3.539609E-09 -2.925269E-09
        55  11 -7.074722E+05 -6.902742E+04  3.334142E+04 -2.813839E+05 -2.742418E-09 -2.434186E-09
        55  12 -6.922378E+05 -6.868429E+04  3.425889E+04 -2.814844E+05  1.874481E-09  1.179225E-09
        55  13 -8.401085E+05 -1.235904E+05 -1.365144E+03 -3.223751E+05 -1.200546E-09 -8.965747E-10
        55  14 -8.432906E+05 -1.200762E+05 -2.437396E+03 -3.184431E+05 -4.910084E-09 -2.115586E-09
        55  15 -8.402346E+05 -1.244746E+05 -4.727401E+03 -3.220440E+05 -7.029316E-09 -8.253689E-10
        55  16 -9.637384E+05 -1.699015E+05 -3.395450E+04 -3.559282E+05  2.639302E-09  1.300323E-09
        55  17 -9.790913E+05 -1.711240E+05 -3.821785E+04 -3.554950E+05 -3.147030E-09 -1.754068E-09
        55  18 -9.882103E+05 -1.802636E+05 -4.371557E+04 -3.625950E+05 -5.890315E-09 -3.524664E-09
        55  19 -7.164642E+05 -7.727857E+04  3.122284E+04 -2.888162E+05 -2.781270E+03  3.585845E+03
        55  20 -7.074722E+05 -6.902740E+04  3.334148E+04 -2.813839E+05 -4.204165E+03  3.679092E+03
        55  21 -6.922377E+05 -6.868427E+04  3.425897E+04 -2.814844E+05 -5.611431E+03  3.730023E+03
        55  22 -8.401085E+05 -1.235904E+05 -1.365107E+03 -3.223751E+05 -2.499254E+03  3.691686E+03
        55  23 -8.432906E+05 -1.200762E+05 -2.437340E+03 -3.184431E+05 -3.942754E+03  3.777251E+03
        55  24 -8.402346E+05 -1.244746E+05 -4.727319E+03 -3.220441E+05 -5.370596E+03  3.820507E+03
        55  25 -9.637384E+05 -1.699015E+05 -3.395447E+04 -3.559282E+05 -2.217299E+03  3.797504E+03
        55  26 -9.790913E+05 -1.711240E+05 -3.821780E+04 -3.554950E+05 -3.681406E+03  3.875387E+03
        55  27 -9.882103E+05 -1.802636E+05 -4.371549E+04 -3.625950E+05 -5.129824E+03  3.910967E+03
        56   1 -6.752613E+05 -6.218243E+04  3.734237E+04 -2.786795E+05  6.736504E+03 -3.727011E+03
        56   2 -6.664199E+05 -5.232117E+04  3.586078E+04 -2.700834E+05  1.221455E+04 -2.252484E+03
        56   3 -6.556930E+05 -5.926539E+04  2.762325E+04 -2.662848E+05  1.753418E+04 -3.552755E+02
        56   4 -8.407579E+05 -1.232385E+05 -6.070598E+03 -3.226462E+05  6.379456E+03 -3.861138E+03
        56   5 -8.422735E+05 -1.190055E+05 -1.057135E+04 -3.186748E+05  1.206471E+04 -2.308902E+03
        56   6 -8.419463E+05 -1.316211E+05 -2.199388E+04 -3.195006E+05  1.759144E+04 -3.339939E+02
        56   7 -1.006227E+06 -1.842929E+05 -4.948576E+04 -3.666023E+05  6.022513E+03 -3.995228E+03
        56   8 -1.018097E+06 -1.856879E+05 -5.700614E+04 -3.672537E+05  1.191491E+04 -2.365303E+03
        56   9 -1.028166E+06 -2.039743E+05 -7.161419E+04 -3.727019E+05  1.764868E+04 -3.127202E+02
        56  10 -6.752614E+05 -6.218245E+04  3.734226E+04 -2.786795E+05 -1.269492E-09  1.382190E-09
        56  11 -6.664201E+05 -5.232121E+04  3.586049E+04 -2.700834E+05 -3.392133E-09 -3.859793E-10
        56  12 -6.556934E+05 -5.926547E+04  2.762267E+04 -2.662848E+05 -3.930667E-09 -3.682914E-09
        56  13 -8.407579E+05 -1.232385E+05 -6.070703E+03 -3.226462E+05 -3.347371E-09  1.648087E-10
        56  14 -8.422737E+05 -1.190056E+05 -1.057163E+04 -3.186748E+05 -2.555363E-09  5.231280E-10
        56  15 -8.419466E+05 -1.316212E+05 -2.199447E+04 -3.195006E+05 -2.841963E-09 -1.322313E-09
        56  16 -1.006228E+06 -1.842929E+05 -4.948586E+04 -3.666023E+05 -1.267308E-09 -1.198372E-09
        56  17 -1.018097E+06 -1.856879E+05 -5.700642E+04 -3.672536E+05  9.387441E-10  1.035409E-09
        56  18 -1.028167E+06 -2.039744E+05 -7.161478E+04 -3.727019E+05  1.427777E-09  8.369445E-10
        56  19 -6.752613E+05 -6.218243E+04  3.734237E+04 -2.786795E+05 -6.736504E+03  3.727011E+03
        56  20 -6.664199E+05 -5.232117E+04  3.586078E+04 -2.700834E+05 -1.221455E+04  2.252484E+03
        56  21 -6.556930E+05 -5.926539E+04  2.762325E+04 -2.662848E+05 -1.753418E+04  3.552755E+02
        56  22 -8.407579E+05 -1.232385E+05 -6.070598E+03 -3.226462E+05 -6.379456E+03  3.861138E+03
        56  23 -8.422735E+05 -1.190055E+05 -1.057135E+04 -3.186748E+05 -1.206471E+04  2.308902E+03
        56  24 -8.419463E+05 -1.316211E+05 -2.199388E+04 -3.195006E+05 -1.759144E+04  3.339939E+02
        56  25 -1.006227E+06 -1.842929E+05 -4.948576E+04 -3.666023E+05 -6.022513E+03  3.995228E+03
        56  26 -1.018097E+06 -1.856879E+05 -5.700614E+04 -3.672537E+05 -1.191491E+04  2.365303E+03
        56  27 -1.028166E+06 -2.039743E+05 -7.161419E+04 -3.727019E+05 -1.764868E+04  3.127202E+02
        57   1 -6.347306E+05 -5.130787E+04  2.646044E+04 -2.785823E+05  2.329553E+04  6.163733E+02
        57   2 -6.252282E+05 -2.298123E+04  1.152099E+04 -2.559308E+05  4.527342E+04  8.502353E+03
        57   3 -6.488648E+05 -9.670441E+04 -4.604882E+04 -2.149493E+05  6.524290E+04  2.173145E+04
        57   4 -8.455604E+05 -1.204361E+05 -2.706109E+04 -3.257235E+05  2.180993E+04  5.845044E+01
        57   5 -8.343025E+05 -1.084751E+05 -4.480677E+04 -3.201092E+05  4.641887E+04  8.932089E+03
        57   6 -8.567187E+05 -1.991070E+05 -1.072808E+05 -2.961616E+05  6.901893E+04  2.314817E+04
        57   7 -1.056347E+06 -1.895640E+05 -8.058607E+04 -3.728513E+05  2.032489E+04 -4.993253E+02
        57   8 -1.043334E+06 -1.939639E+05 -1.011383E+05 -3.842671E+05  4.756388E+04  9.361633E+03
        57   9 -1.064529E+06 -3.014969E+05 -1.685168E+05 -3.773460E+05  7.279355E+04  2.456401E+04
        57  10 -6.347312E+05 -5.130802E+04  2.645942E+04 -2.785824E+05 -4.955197E-10 -1.046204E-09
        57  11 -6.252304E+05 -2.298186E+04  1.151700E+04 -2.559311E+05  1.039192E-09  2.143060E-09
        57  12 -6.488695E+05 -9.670606E+04 -4.605772E+04 -2.149504E+05 -5.137313E-10  1.855542E-09
        57  13 -8.455609E+05 -1.204362E+05 -2.706198E+04 -3.257235E+05 -2.153843E-09 -2.322445E-09
        57  14 -8.343048E+05 -1.084757E+05 -4.481097E+04 -3.201095E+05 -4.646904E-09  1.610654E-09
        57  15 -8.567239E+05 -1.991088E+05 -1.072908E+05 -2.961629E+05 -1.739288E-10  9.201553E-12
        57  16 -1.056348E+06 -1.895641E+05 -8.058685E+04 -3.728513E+05 -6.195260E-09 -2.403744E-09
        57  17 -1.043336E+06 -1.939646E+05 -1.011427E+05 -3.842675E+05 -1.116202E-09 -3.292517E-09
        57  18 -1.064534E+06 -3.014990E+05 -1.685279E+05 -3.773475E+05 -8.971463E-10 -4.344092E-10
        57  19 -6.347306E+05 -5.130787E+04  2.646044E+04 -2.785823E+05 -2.329553E+04 -6.163733E+02
        57  20 -6.252282E+05 -2.298123E+04  1.152099E+04 -2.559308E+05 -4.527342E+04 -8.502353E+03
        57  21 -6.488648E+05 -9.670441E+04 -4.604882E+04 -2.149493E+05 -6.524290E+04 -2.173145E+04
        57  22 -8.455604E+05 -1.204361E+05 -2.706109E+04 -3.257235E+05 -2.180993E+04 -5.845044E+01
        57  23 -8.343025E+05 -1.084751E+05 -4.480677E+04 -3.201092E+05 -4.641887E+04 -8.932089E+03
        57  24 -8.567187E+05 -1.991070E+05 -1.072808E+05 -2.961616E+05 -6.901893E+04 -2.314817E+04
        57  25 -1.056347E+06 -1.895640E+05 -8.058607E+04 -3.728513E+05 -2.032489E+04  4.993253E+02
        57  26 -1.043334E+06 -1.939639E+05 -1.011383E+05 -3.842671E+05 -4.756388E+04 -9.361633E+03
        57  27 -1.064529E+06 -3.014969E+05 -1.685168E+05 -3.773460E+05 -7.279355E+04 -2.456401E+04
        58   1 -6.791225E+03  4.201656E+04  5.293377E+04  1.372142E+04  3.622440E+04  8.006313E-01
        58   2 -1.400544E+04 -5.684466E+03  2.322152E+04  4.017077E+03  2.370365E+04  1.533770E-01
        58   3 -6.792017E+03 -2.198386E+03  1.445847E+04 -5.687293E+03  1.118268E+04 -1.024427E-01
        58   4 -6.791427E+03  4.201621E+04  5.293372E+04 -2.474202E-09  3.622440E+04 -5.811093E-10
        58   5 -1.400546E+04 -5.684497E+03  2.322151E+04 -5.555659E-09  2.370365E+04 -8.660892E-10
        58   6 -6.792051E+03 -2.198447E+03  1.445846E+04 -2.142350E-11  1.118268E+04  5.875343E-10
        58   7 -6.791225E+03  4.201656E+04  5.293377E+04 -1.372142E+04  3.622440E+04 -8.006313E-01
        58   8 -1.400544E+04 -5.684466E+03  2.322152E+04 -4.017077E+03  2.370365E+04 -1.533770E-01
        58   9 -6.792017E+03 -2.198386E+03  1.445847E+04  5.687293E+03  1.118268E+04  1.024427E-01
        58  10 -6.792634E+03  4.201621E+04  5.293131E+04  1.372142E+04  5.044028E-10  5.482404E-11
        58  11 -1.400605E+04 -5.684617E+03  2.322046E+04  4.017077E+03  1.114374E-09  6.982392E-11
        58  12 -6.792151E+03 -2.198420E+03  1.445823E+04 -5.687293E+03 -4.830660E-10 -1.541869E-10
        58  13 -6.792836E+03  4.201585E+04  5.293126E+04 -1.539353E-08 -1.474329E-11  2.568117E-11
        58  14 -1.400606E+04 -5.684648E+03  2.322046E+04  8.992396E-10  1.070661E-09  1.851756E-11
        58  15 -6.792186E+03 -2.198481E+03  1.445823E+04  1.396108E-08  2.434543E-09 -1.511222E-10
        58  16 -6.792634E+03  4.201621E+04  5.293131E+04 -1.372142E+04 -5.138774E-10  1.249480E-11
        58  17 -1.400605E+04 -5.684617E+03  2.322046E+04 -4.017077E+03 -8.598976E-10 -3.079742E-11
        58  18 -6.792151E+03 -2.198420E+03  1.445823E+04  5.687293E+03  9.346404E-10 -1.478982E-10
        58  19 -6.791225E+03  4.201656E+04  5.293377E+04  1.372142E+04 -3.622440E+04 -8.006313E-01
        58  20 -1.400544E+04 -5.684466E+03  2.322152E+04  4.017077E+03 -2.370365E+04 -1.533770E-01
        58  21 -6.792017E+03 -2.198386E+03  1.445847E+04 -5.687293E+03 -1.118268E+04  1.024427E-01
        58  22 -6.791427E+03  4.201621E+04  5.293372E+04 -2.464870E-09 -3.622440E+04  6.349869E-10
        58  23 -1.400546E+04 -5.684497E+03  2.322151E+04 -5.568675E-09 -2.370365E+04  8.939848E-10
        58  24 -6.792051E+03 -2.198447E+03  1.445846E+04  1.663641E-08 -1.118268E+04 -8.898065E-10
        58  25 -6.791225E+03  4.201656E+04  5.293377E+04 -1.372142E+04 -3.622440E+04  8.006313E-01
        58  26 -1.400544E+04 -5.684466E+03  2.322152E+04 -4.017077E+03 -2.370365E+04  1.533770E-01
        58  27 -6.792017E+03 -2.198386E+03  1.445847E+04  5.687293E+03 -1.118268E+04 -1.024427E-01
        59   1 -9.618057E+03  4.264111E+03  1.177412E+04  1.244521E+03  8.950417E+03  1.794227E-02
        59   2 -1.047323E+04 -6.002338E+02  5.994966E+03  3.119568E+02  5.881838E+03  2.955559E-03
        59   3 -9.618125E+03 -2.218314E+02  3.524354E+03 -6.206079E+02  2.813268E+03 -2.812288E-03
        59   4 -9.618058E+03  4.264108E+03  1.177412E+04  2.070532E-08  8.950417E+03  4.240496E-10
        59   5 -1.047323E+04 -6.002339E+02  5.994966E+03 -6.158035E-09  5.881838E+03 -7.984983E-10
        59   6 -9.618125E+03 -2.218321E+02  3.524354E+03 -2.063631E-08  2.813268E+03  7.919858E-10
        59   7 -9.618057E+03  4.264111E+03  1.177412E+04 -1.244521E+03  8.950417E+03 -1.794227E-02
        59   8 -1.047323E+04 -6.002338E+02  5.994966E+03 -3.119568E+02  5.881838E+03 -2.955561E-03
        59   9 -9.618125E+03 -2.218314E+02  3.524354E+03  6.206079E+02  2.813268E+03  2.812290E-03
        59  10 -9.618143E+03  4.264090E+03  1.177397E+04  1.244521E+03 -8.883980E-10 -2.767981E-11
        59  11 -1.047326E+04 -6.002430E+02  5.994901E+03  3.119568E+02  2.763254E-09  5.821596E-10
        59  12 -9.618133E+03 -2.218335E+02  3.524339E+03 -6.206079E+02  4.537747E-09  9.628524E-10
        59  13 -9.618144E+03  4.264087E+03  1.177397E+04  1.411663E-08 -1.080102E-09 -2.579267E-10
        59  14 -1.047326E+04 -6.002432E+02  5.994901E+03 -5.948968E-10 -5.436983E-10 -5.532559E-11
        59  15 -9.618133E+03 -2.218342E+02  3.524339E+03 -5.613763E-09  1.217873E-09  6.215405E-10
        59  16 -9.618143E+03  4.264090E+03  1.177397E+04 -1.244521E+03  3.475269E-10 -4.895256E-10
        59  17 -1.047326E+04 -6.002430E+02  5.994901E+03 -3.119568E+02 -1.961522E-09 -7.009376E-10
        59  18 -9.618133E+03 -2.218335E+02  3.524339E+03  6.206079E+02 -5.545577E-09  2.815056E-10
        59  19 -9.618057E+03  4.264111E+03  1.177412E+04  1.244521E+03 -8.950417E+03 -1.794227E-02
        59  20 -1.047323E+04 -6.002338E+02  5.994966E+03  3.119568E+02 -5.881838E+03 -2.955558E-03
        59  21 -9.618125E+03 -2.218314E+02  3.524354E+03 -6.206079E+02 -2.813268E+03  2.812290E-03
        59  22 -9.618058E+03  4.264108E+03  1.177412E+04  1.614310E-08 -8.950417E+03 -9.395727E-10
        59  23 -1.047323E+04 -6.002339E+02  5.994966E+03  4.967659E-09 -5.881838E+03  6.861497E-10
        59  24 -9.618125E+03 -2.218321E+02  3.524354E+03  2.825527E-08 -2.813268E+03  4.523921E-10
        59  25 -9.618057E+03  4.264111E+03  1.177412E+04 -1.244521E+03 -8.950417E+03  1.794226E-02
        59  26 -1.047323E+04 -6.002338E+02  5.994966E+03 -3.119568E+02 -5.881838E+03  2.955559E-03
        59  27 -9.618125E+03 -2.218314E+02  3.524354E+03  6.206079E+02 -2.813268E+03 -2.812289E-03
        60   1 -9.948089E+03  4.244926E+02  2.727106E+03  8.545057E+01  2.261305E+03  3.112488E-04
        60   2 -1.006080E+04 -6.492005E+01  1.415184E+03  4.523872E+00  1.551445E+03  1.130488E-05
        60   3 -9.948097E+03 -2.237378E+01  6.983959E+02 -7.640168E+01  8.415965E+02 -1.035725E-04
        60   4 -9.948089E+03  4.244926E+02  2.727106E+03  2.797242E-08  2.261305E+03  1.445495E-09
        60   5 -1.006080E+04 -6.492005E+01  1.415184E+03 -7.214029E-09  1.551445E+03  2.119218E-10
        60   6 -9.948097E+03 -2.237379E+01  6.983958E+02 -4.706261E-09  8.415965E+02 -1.084636E-09
        60   7 -9.948089E+03  4.244926E+02  2.727106E+03 -8.545057E+01  2.261305E+03 -3.112459E-04
        60   8 -1.006080E+04 -6.492005E+01  1.415184E+03 -4.523871E+00  1.551445E+03 -1.130445E-05
        60   9 -9.948097E+03 -2.237378E+01  6.983959E+02  7.640168E+01  8.415965E+02  1.035703E-04
        60  10 -9.948094E+03  4.244912E+02  2.727096E+03  8.545057E+01 -4.777983E-09  4.930540E-10
        60  11 -1.006080E+04 -6.492070E+01  1.415179E+03  4.523871E+00 -1.647574E-09 -6.556583E-10
        60  12 -9.948098E+03 -2.237397E+01  6.983945E+02 -7.640168E+01 -4.784774E-10 -7.297329E-10
        60  13 -9.948094E+03  4.244912E+02  2.727096E+03 -1.559295E-08  1.081232E-09  6.083984E-10
        60  14 -1.006080E+04 -6.492070E+01  1.415179E+03  1.419836E-10 -1.615457E-09 -1.279048E-10
        60  15 -9.948098E+03 -2.237398E+01  6.983945E+02 -5.662448E-09 -1.203599E-09 -4.113746E-10
        60  16 -9.948094E+03  4.244912E+02  2.727096E+03 -8.545057E+01  4.246149E-09  7.256382E-10
        60  17 -1.006080E+04 -6.492070E+01  1.415179E+03 -4.523871E+00  2.736679E-09  3.997023E-10
        60  18 -9.948098E+03 -2.237397E+01  6.983945E+02  7.640168E+01 -1.673215E-09 -9.313257E-11
        60  19 -9.948089E+03  4.244926E+02  2.727106E+03  8.545057E+01 -2.261305E+03 -3.112477E-04
        60  20 -1.006080E+04 -6.492005E+01  1.415184E+03  4.523871E+00 -1.551445E+03 -1.130618E-05
        60  21 -9.948097E+03 -2.237378E+01  6.983959E+02 -7.640168E+01 -8.415965E+02  1.035711E-04
        60  22 -9.948089E+03  4.244926E+02  2.727106E+03 -2.038755E-08 -2.261305E+03 -2.283730E-10
        60  23 -1.006080E+04 -6.492005E+01  1.415184E+03  3.190022E-09 -1.551445E+03 -4.678305E-10
        60  24 -9.948097E+03 -2.237379E+01  6.983958E+02  8.997358E-09 -8.415965E+02  2.624467E-10
        60  25 -9.948089E+03  4.244926E+02  2.727106E+03 -8.545057E+01 -2.261305E+03  3.112474E-04
        60  26 -1.006080E+04 -6.492005E+01  1.415184E+03 -4.523871E+00 -1.551445E+03  1.130520E-05
        60  27 -9.948097E+03 -2.237378E+01  6.983959E+02  7.640168E+01 -8.415965E+02 -1.035705E-04
        61   1 -9.997151E+03  4.082328E+01  4.328597E+02 -8.149960E+00  7.404490E+02 -9.721755E-06
        61   2 -9.999490E+03 -3.058286E+00 -4.609024E+01 -1.489512E+01  7.625892E+02 -1.829697E-05
        61   3 -9.997153E+03 -1.671577E+01 -5.318943E+02 -2.164039E+01  7.847296E+02 -2.735318E-05
        61   4 -9.997151E+03  4.082328E+01  4.328597E+02  9.219473E-09  7.404490E+02 -1.337796E-09
        61   5 -9.999490E+03 -3.058287E+00 -4.609024E+01  1.454342E-08  7.625892E+02 -5.728182E-10
        61   6 -9.997153E+03 -1.671577E+01 -5.318943E+02  2.309828E-08  7.847296E+02  6.480609E-10
        61   7 -9.997151E+03  4.082328E+01  4.328597E+02  8.149960E+00  7.404490E+02  9.719073E-06
        61   8 -9.999490E+03 -3.058286E+00 -4.609024E+01  1.489512E+01  7.625892E+02  1.829581E-05
        61   9 -9.997153E+03 -1.671577E+01 -5.318943E+02  2.164039E+01  7.847296E+02  2.735450E-05
        61  10 -9.997151E+03  4.082313E+01  4.328586E+02 -8.149960E+00  1.822018E-09 -6.288610E-10
        61  11 -9.999490E+03 -3.058442E+00 -4.609133E+01 -1.489512E+01  1.842604E-09 -4.140509E-10
        61  12 -9.997154E+03 -1.671594E+01 -5.318954E+02 -2.164039E+01  1.053075E-09  5.755103E-10
        61  13 -9.997151E+03  4.082313E+01  4.328586E+02 -8.040495E-09 -3.231305E-09 -5.669295E-10
        61  14 -9.999490E+03 -3.058443E+00 -4.609133E+01  3.816888E-09 -1.613781E-09 -4.633027E-10
        61  15 -9.997154E+03 -1.671594E+01 -5.318954E+02  1.352047E-08 -1.390772E-10  6.453196E-10
        61  16 -9.997151E+03  4.082313E+01  4.328586E+02  8.149960E+00 -2.363031E-09 -5.023852E-10
        61  17 -9.999490E+03 -3.058442E+00 -4.609133E+01  1.489512E+01 -2.915964E-09 -5.123903E-10
        61  18 -9.997154E+03 -1.671594E+01 -5.318954E+02  2.164039E+01 -1.769094E-10  7.147943E-10
        61  19 -9.997151E+03  4.082328E+01  4.328597E+02 -8.149960E+00 -7.404490E+02  9.720498E-06
        61  20 -9.999490E+03 -3.058286E+00 -4.609024E+01 -1.489512E+01 -7.625892E+02  1.829616E-05
        61  21 -9.997153E+03 -1.671577E+01 -5.318943E+02 -2.164039E+01 -7.847296E+02  2.735434E-05
        61  22 -9.997151E+03  4.082328E+01  4.328597E+02 -1.237672E-08 -7.404490E+02  2.044061E-10
        61  23 -9.999490E+03 -3.058287E+00 -4.609024E+01 -6.909608E-09 -7.625892E+02 -3.544032E-10
        61  24 -9.997153E+03 -1.671577E+01 -5.318943E+02  1.471223E-08 -7.847296E+02  6.426606E-10
        61  25 -9.997151E+03  4.082328E+01  4.328597E+02  8.149960E+00 -7.404490E+02 -9.720094E-06
        61  26 -9.999490E+03 -3.058286E+00 -4.609024E+01  1.489512E+01 -7.625892E+02 -1.829686E-05
        61  27 -9.997153E+03 -1.671577E+01 -5.318943E+02  2.164039E+01 -7.847296E+02 -2.735305E-05
        62   1 -1.003458E+04  1.224930E+01 -8.205550E+02 -4.579474E+01  9.068620E+02 -6.689304E-05
        62   2 -9.952706E+03  3.377048E+01 -1.617888E+03 -2.663358E+01  1.710755E+03 -7.339130E-05
        62   3 -1.003459E+04 -1.810500E+02 -2.997677E+03 -7.472398E+00  2.514646E+03 -3.026857E-05
        62   4 -1.003458E+04  1.224930E+01 -8.205550E+02  1.115034E-08  9.068620E+02  1.260399E-09
        62   5 -9.952706E+03  3.377048E+01 -1.617888E+03 -1.356405E-08  1.710755E+03  8.103224E-10
        62   6 -1.003459E+04 -1.810500E+02 -2.997677E+03 -1.404669E-08  2.514646E+03 -1.277791E-09
        62   7 -1.003458E+04  1.224930E+01 -8.205550E+02  4.579474E+01  9.068620E+02  6.689557E-05
        62   8 -9.952706E+03  3.377048E+01 -1.617888E+03  2.663358E+01  1.710755E+03  7.339288E-05
        62   9 -1.003459E+04 -1.810500E+02 -2.997677E+03  7.472398E+00  2.514646E+03  3.026597E-05
        62  10 -1.003458E+04  1.224908E+01 -8.205566E+02 -4.579474E+01  5.454002E-10  7.539980E-10
        62  11 -9.952709E+03  3.376970E+01 -1.617893E+03 -2.663358E+01 -2.617781E-09 -6.999420E-11
        62  12 -1.003459E+04 -1.810517E+02 -2.997689E+03 -7.472398E+00 -5.268130E-11 -8.219983E-10
        62  13 -1.003458E+04  1.224908E+01 -8.205566E+02 -6.155778E-09  2.146908E-09  8.362162E-10
        62  14 -9.952709E+03  3.376969E+01 -1.617893E+03 -1.791934E-08 -1.083736E-09 -1.917443E-11
        62  15 -1.003459E+04 -1.810517E+02 -2.997689E+03 -2.537512E-08  5.373749E-10 -4.940583E-10
        62  16 -1.003458E+04  1.224908E+01 -8.205566E+02  4.579474E+01 -8.525365E-12  9.177467E-10
        62  17 -9.952709E+03  3.376970E+01 -1.617893E+03  2.663358E+01 -1.691702E-09  3.270365E-11
        62  18 -1.003459E+04 -1.810517E+02 -2.997689E+03  7.472398E+00 -6.184111E-10 -1.662836E-10
        62  19 -1.003458E+04  1.224930E+01 -8.205550E+02 -4.579474E+01 -9.068620E+02  6.689453E-05
        62  20 -9.952706E+03  3.377048E+01 -1.617888E+03 -2.663358E+01 -1.710755E+03  7.339118E-05
        62  21 -1.003459E+04 -1.810500E+02 -2.997677E+03 -7.472398E+00 -2.514646E+03  3.026691E-05
        62  22 -1.003458E+04  1.224930E+01 -8.205550E+02  1.100124E-08 -9.068620E+02  4.122956E-10
        62  23 -9.952706E+03  3.377048E+01 -1.617888E+03 -1.796672E-08 -1.710755E+03 -8.486902E-10
        62  24 -1.003459E+04 -1.810500E+02 -2.997677E+03 -1.354871E-08 -2.514646E+03  2.815610E-10
        62  25 -1.003458E+04  1.224930E+01 -8.205550E+02  4.579474E+01 -9.068620E+02 -6.689377E-05
        62  26 -9.952706E+03  3.377048E+01 -1.617888E+03  2.663358E+01 -1.710755E+03 -7.339286E-05
        62  27 -1.003459E+04 -1.810500E+02 -2.997677E+03  7.472398E+00 -2.514646E+03 -3.026641E-05
        63   1 -1.023071E+04  9.838704E+01 -3.939653E+03 -3.265170E+02  3.136982E+03 -1.649871E-03
        63   2 -9.707540E+03  2.955367E+02 -6.824961E+03  3.189917E+01  6.557161E+03  3.369202E-04
        63   3 -1.023070E+04 -1.911296E+03 -1.253791E+04  3.903109E+02  9.977273E+03  6.272692E-03
        63   4 -1.023072E+04  9.838684E+01 -3.939653E+03  1.209925E-08  3.136982E+03 -1.420743E-09
        63   5 -9.707540E+03  2.955367E+02 -6.824961E+03  4.319738E-10  6.557161E+03  4.396072E-10
        63   6 -1.023070E+04 -1.911297E+03 -1.253791E+04 -1.231241E-08  9.977273E+03  9.897927E-10
        63   7 -1.023071E+04  9.838704E+01 -3.939653E+03  3.265170E+02  3.136982E+03  1.649868E-03
        63   8 -9.707540E+03  2.955367E+02 -6.824961E+03 -3.189917E+01  6.557161E+03 -3.369194E-04
        63   9 -1.023070E+04 -1.911296E+03 -1.253791E+04 -3.903109E+02  9.977273E+03 -6.272691E-03
        63  10 -1.023073E+04  9.838440E+01 -3.939671E+03 -3.265170E+02  1.025709E-10 -5.572300E-10
        63  11 -9.707586E+03  2.955251E+02 -6.825042E+03  3.189917E+01  2.288417E-09  2.409293E-10
        63  12 -1.023081E+04 -1.911323E+03 -1.253810E+04  3.903109E+02 -8.608040E-10 -1.956588E-10
        63  13 -1.023073E+04  9.838420E+01 -3.939671E+03  3.543395E-09  1.077163E-09 -2.930695E-10
        63  14 -9.707586E+03  2.955251E+02 -6.825042E+03 -3.856341E-09  3.233556E-12  2.640171E-10
        63  15 -1.023081E+04 -1.911323E+03 -1.253810E+04 -4.794307E-09 -4.023417E-10  2.572539E-10
        63  16 -1.023073E+04  9.838440E+01 -3.939671E+03  3.265170E+02 -1.718671E-09 -2.723173E-11
        63  17 -9.707586E+03  2.955251E+02 -6.825042E+03 -3.189917E+01 -1.471650E-09  2.814838E-10
        63  18 -1.023081E+04 -1.911323E+03 -1.253810E+04 -3.903109E+02  4.536509E-10  7.137544E-10
        63  19 -1.023071E+04  9.838704E+01 -3.939653E+03 -3.265170E+02 -3.136982E+03  1.649870E-03
        63  20 -9.707540E+03  2.955367E+02 -6.824961E+03  3.189917E+01 -6.557161E+03 -3.369194E-04
        63  21 -1.023070E+04 -1.911296E+03 -1.253791E+04  3.903109E+02 -9.977273E+03 -6.272693E-03
        63  22 -1.023072E+04  9.838684E+01 -3.939653E+03  3.603317E-09 -3.136982E+03  8.348907E-10
        63  23 -9.707540E+03  2.955367E+02 -6.824961E+03 -2.968420E-08 -6.557161E+03  8.975060E-11
        63  24 -1.023070E+04 -1.911297E+03 -1.253791E+04  1.403176E-08 -9.977273E+03 -4.452316E-10
        63  25 -1.023071E+04  9.838704E+01 -3.939653E+03  3.265170E+02 -3.136982E+03 -1.649868E-03
        63  26 -9.707540E+03  2.955367E+02 -6.824961E+03 -3.189917E+01 -6.557161E+03  3.369196E-04
        63  27 -1.023070E+04 -1.911296E+03 -1.253791E+04 -3.903109E+02 -9.977273E+03  6.272692E-03
        64   1 -1.171087E+04  9.996664E+02 -1.606382E+04 -2.789466E+03  1.250381E+04 -5.618185E-02
        64   2 -7.857016E+03  2.703244E+03 -2.710087E+04  1.407723E+03  2.637457E+04  5.980426E-02
        64   3 -1.171034E+04 -1.919940E+04 -5.306880E+04  5.604990E+03  4.024537E+04  3.633469E-01
        64   4 -1.171088E+04  9.996518E+02 -1.606383E+04  3.383740E-09  1.250381E+04  1.761204E-10
        64   5 -7.857018E+03  2.703241E+03 -2.710087E+04 -4.305429E-09  2.637457E+04 -9.302806E-10
        64   6 -1.171038E+04 -1.919946E+04 -5.306881E+04  9.006494E-09  4.024537E+04 -6.745074E-11
        64   7 -1.171087E+04  9.996664E+02 -1.606382E+04  2.789466E+03  1.250381E+04  5.618185E-02
        64   8 -7.857016E+03  2.703244E+03 -2.710087E+04 -1.407723E+03  2.637457E+04 -5.980426E-02
        64   9 -1.171034E+04 -1.919940E+04 -5.306880E+04 -5.604990E+03  4.024537E+04 -3.633469E-01
        64  10 -1.171104E+04  9.996244E+02 -1.606412E+04 -2.789466E+03 -1.267990E-09 -4.057941E-10
        64  11 -7.857763E+03  2.703057E+03 -2.710217E+04  1.407723E+03 -4.799965E-10 -3.732760E-11
        64  12 -1.171208E+04 -1.919983E+04 -5.307185E+04  5.604990E+03 -4.257583E-10 -8.664662E-12
        64  13 -1.171105E+04  9.996098E+02 -1.606412E+04  1.625897E-08 -2.151806E-09 -6.689165E-11
        64  14 -7.857765E+03  2.703054E+03 -2.710217E+04  6.456083E-09 -1.072739E-09 -4.607681E-10
        64  15 -1.171212E+04 -1.919989E+04 -5.307186E+04 -9.809400E-09 -2.827483E-09 -3.019280E-10
        64  16 -1.171104E+04  9.996244E+02 -1.606412E+04  2.789466E+03 -8.706802E-10  2.691254E-10
        64  17 -7.857763E+03  2.703057E+03 -2.710217E+04 -1.407723E+03 -3.317171E-10 -8.959035E-10
        64  18 -1.171208E+04 -1.919983E+04 -5.307185E+04 -5.604990E+03 -2.806250E-09 -5.730620E-10
        64  19 -1.171087E+04  9.996664E+02 -1.606382E+04 -2.789466E+03 -1.250381E+04  5.618185E-02
        64  20 -7.857016E+03  2.703244E+03 -2.710087E+04  1.407723E+03 -2.637457E+04 -5.980426E-02
        64  21 -1.171034E+04 -1.919940E+04 -5.306880E+04  5.604990E+03 -4.024537E+04 -3.633469E-01
        64  22 -1.171088E+04  9.996518E+02 -1.606383E+04  2.051874E-08 -1.250381E+04 -3.134557E-10
        64  23 -7.857018E+03  2.703241E+03 -2.710087E+04 -4.322369E-09 -2.637457E+04  1.575739E-11
        64  24 -1.171038E+04 -1.919946E+04 -5.306881E+04  9.069141E-09 -4.024537E+04 -5.349193E-10
        64  25 -1.171087E+04  9.996664E+02 -1.606382E+04  2.789466E+03 -1.250381E+04 -5.618185E-02
        64  26 -7.857016E+03  2.703244E+03 -2.710087E+04 -1.407723E+03 -2.637457E+04  5.980426E-02
        64  27 -1.171034E+04 -1.919940E+04 -5.306880E+04 -5.604990E+03 -4.024537E+04  3.633469E-01
        65   1 -2.443073E+04  9.900649E+03 -6.513408E+04 -2.560566E+04  5.030269E+04 -2.074756E+00
        65   2  8.049767E+03  2.559544E+04 -1.045420E+05  1.808967E+04  1.066914E+05  3.108691E+00
        65   3 -2.442017E+04 -1.891665E+05 -2.382642E+05  6.178261E+04  1.630810E+05  1.622926E+01
        65   4 -2.443143E+04  9.899417E+03 -6.513426E+04  2.433209E-08  5.030269E+04  6.566288E-10
        65   5  8.049415E+03  2.559483E+04 -1.045421E+05  1.320729E-08  1.066914E+05  6.865363E-10
        65   6 -2.442427E+04 -1.891737E+05 -2.382652E+05  2.092524E-08  1.630810E+05 -9.241099E-10
        65   7 -2.443073E+04  9.900649E+03 -6.513408E+04  2.560566E+04  5.030269E+04  2.074756E+00
        65   8  8.049767E+03  2.559544E+04 -1.045420E+05 -1.808967E+04  1.066914E+05 -3.108691E+00
        65   9 -2.442017E+04 -1.891665E+05 -2.382642E+05 -6.178261E+04  1.630810E+05 -1.622926E+01
        65  10 -2.443345E+04  9.899969E+03 -6.513884E+04 -2.560566E+04  7.518829E-10  4.973876E-11
        65  11  8.037542E+03  2.559239E+04 -1.045634E+05  1.808967E+04 -3.105319E-10  7.467405E-11
        65  12 -2.444874E+04 -1.891736E+05 -2.383141E+05  6.178261E+04  1.139857E-09 -3.671584E-11
        65  13 -2.443415E+04  9.898737E+03 -6.513902E+04  1.576589E-08  2.123761E-09  5.790726E-11
        65  14  8.037190E+03  2.559177E+04 -1.045634E+05  1.536612E-08  1.102713E-09  4.242970E-10
        65  15 -2.445284E+04 -1.891808E+05 -2.383152E+05  3.117550E-09 -2.394417E-09  1.711726E-10
        65  16 -2.443345E+04  9.899969E+03 -6.513884E+04  2.560566E+04 -7.475745E-10  1.526428E-10
        65  17  8.037542E+03  2.559239E+04 -1.045634E+05 -1.808967E+04 -4.948299E-10  5.694101E-10
        65  18 -2.444874E+04 -1.891736E+05 -2.383141E+05 -6.178261E+04 -1.762593E-09  2.498719E-10
        65  19 -2.443073E+04  9.900649E+03 -6.513408E+04 -2.560566E+04 -5.030269E+04  2.074756E+00
        65  20  8.049767E+03  2.559544E+04 -1.045420E+05  1.808967E+04 -1.066914E+05 -3.108691E+00
        65  21 -2.442017E+04 -1.891665E+05 -2.382642E+05  6.178261E+04 -1.630810E+05 -1.622926E+01
        65  22 -2.443143E+04  9.899417E+03 -6.513426E+04  2.012216E-08 -5.030269E+04 -5.434851E-10
        65  23  8.049415E+03  2.559483E+04 -1.045421E+05  1.106181E-08 -1.066914E+05  9.433543E-11
        65  24 -2.442427E+04 -1.891737E+05 -2.382652E+05  9.001632E-09 -1.630810E+05  7.677165E-10
        65  25 -2.443073E+04  9.900649E+03 -6.513408E+04  2.560566E+04 -5.030269E+04 -2.074756E+00
        65  26  8.049767E+03  2.559544E+04 -1.045420E+05 -1.808967E+04 -1.066914E+05  3.108691E+00
        65  27 -2.442017E+04 -1.891665E+05 -2.382642E+05 -6.178261E+04 -1.630810E+05  1.622926E+01
        66   1  8.221662E+04  4.645525E+04  7.893903E+04 -1.538885E+04  3.711749E+03 -2.480176E+03
        66   2  8.334756E+04  1.267105E+04  7.457322E+04 -5.233603E+03  1.104950E+04 -4.442518E+03
        66   3  7.430353E+04 -2.330301E+04  6.896228E+04 -1.965002E+04  9.994427E+03 -6.406037E+03
        66   4 -9.256238E+03 -3.204089E+05 -1.151367E+04 -1.833645E+04  3.712458E+03 -8.566999E+03
        66   5  1.195911E+03 -3.189251E+05 -4.540786E+03 -6.049368E+03  1.105035E+04 -6.098620E+03
        66   6  7.009339E+02 -3.204027E+05 -1.891615E+03 -1.833481E+04  9.993422E+03 -3.631442E+03
        66   7 -1.007391E+05 -6.871506E+05 -1.019762E+05 -2.128231E+04  3.713225E+03 -1.465023E+04
        66   8 -8.096368E+04 -6.504203E+05 -8.366252E+04 -6.864688E+03  1.105121E+04 -7.753841E+03
        66   9 -7.290803E+04 -6.174213E+05 -7.275169E+04 -1.702023E+04  9.992429E+03 -8.581688E+02
        66  10  8.221661E+04  4.645524E+04  7.893899E+04 -1.538884E+04 -4.521667E-10 -4.394854E-10
        66  11  8.334742E+04  1.267099E+04  7.457296E+04 -5.233563E+03 -1.404796E-09  1.081004E-09
        66  12  7.430341E+04 -2.330308E+04  6.896202E+04 -1.964997E+04 -1.187162E-09  1.608504E-09
        66  13 -9.256273E+03 -3.204090E+05 -1.151383E+04 -1.833643E+04  6.302356E-10 -1.088584E-12
        66  14  1.195770E+03 -3.189251E+05 -4.541086E+03 -6.049313E+03 -4.392441E-09 -1.469640E-10
        66  15  7.008231E+02 -3.204027E+05 -1.891827E+03 -1.833478E+04 -9.687650E-11 -7.820537E-10
        66  16 -1.007392E+05 -6.871508E+05 -1.019766E+05 -2.128226E+04 -4.466513E-10  4.855658E-10
        66  17 -8.096383E+04 -6.504204E+05 -8.366286E+04 -6.864619E+03 -1.728888E-09 -1.100310E-09
        66  18 -7.290814E+04 -6.174213E+05 -7.275188E+04 -1.702022E+04 -2.558806E-09 -2.284120E-09
        66  19  8.221662E+04  4.645525E+04  7.893903E+04 -1.538885E+04 -3.711749E+03  2.480176E+03
        66  20  8.334756E+04  1.267105E+04  7.457322E+04 -5.233603E+03 -1.104950E+04  4.442518E+03
        66  21  7.430353E+04 -2.330301E+04  6.896228E+04 -1.965002E+04 -9.994427E+03  6.406037E+03
        66  22 -9.256238E+03 -3.204089E+05 -1.151367E+04 -1.833645E+04 -3.712458E+03  8.566999E+03
        66  23  1.195911E+03 -3.189251E+05 -4.540786E+03 -6.049368E+03 -1.105035E+04  6.098620E+03
        66  24  7.009339E+02 -3.204027E+05 -1.891615E+03 -1.833481E+04 -9.993422E+03  3.631442E+03
        66  25 -1.007391E+05 -6.871506E+05 -1.019762E+05 -2.128231E+04 -3.713225E+03  1.465023E+04
        66  26 -8.096368E+04 -6.504203E+05 -8.366252E+04 -6.864688E+03 -1.105121E+04  7.753841E+03
        66  27 -7.290803E+04 -6.174213E+05 -7.275169E+04 -1.702023E+04 -9.992429E+03  8.581688E+02
        67   1  6.148724E+04 -6.736824E+04  5.944211E+04 -1.857855E+04  7.987629E+03 -3.678214E+03
        67   2  5.362568E+04 -1.027846E+05  5.345831E+04 -5.806455E+03  7.143269E+03 -4.862702E+03
        67   3  4.730465E+04 -1.376533E+05  4.863254E+04 -1.807086E+04  5.636899E+03 -6.048134E+03
        67   4 -1.042196E+03 -3.196302E+05 -8.912040E+02 -1.843961E+04  7.987690E+03 -3.405950E+03
        67   5 -1.670117E+02 -3.198713E+05  1.628919E+03 -5.919960E+03  7.143015E+03 -4.240719E+03
        67   6  2.188298E+03 -3.196264E+05  5.064341E+03 -1.843735E+04  5.636222E+03 -5.076496E+03
        67   7 -6.357625E+04 -5.718339E+05 -6.122901E+04 -1.830071E+04  7.987752E+03 -3.133797E+03
        67   8 -5.396311E+04 -5.369146E+05 -5.020379E+04 -6.033418E+03  7.142760E+03 -3.618952E+03
        67   9 -4.293045E+04 -5.015691E+05 -3.850620E+04 -1.880372E+04  5.635545E+03 -4.105142E+03
        67  10  6.148717E+04 -6.736827E+04  5.944197E+04 -1.857853E+04  4.887212E-10  1.441338E-09
        67  11  5.362562E+04 -1.027847E+05  5.345817E+04 -5.806427E+03  3.371897E-09  1.157287E-09
        67  12  4.730460E+04 -1.376534E+05  4.863241E+04 -1.807083E+04  1.164296E-09  7.778081E-10
        67  13 -1.042267E+03 -3.196303E+05 -8.913457E+02 -1.843959E+04 -2.166044E-09  1.145479E-11
        67  14 -1.670713E+02 -3.198713E+05  1.628789E+03 -5.919935E+03  4.003146E-10 -3.412287E-10
        67  15  2.188257E+03 -3.196264E+05  5.064233E+03 -1.843732E+04  7.048822E-10 -1.352013E-09
        67  16 -6.357632E+04 -5.718339E+05 -6.122915E+04 -1.830069E+04 -1.659778E-09 -1.108594E-09
        67  17 -5.396317E+04 -5.369147E+05 -5.020391E+04 -6.033397E+03  6.162925E-10 -1.147509E-09
        67  18 -4.293049E+04 -5.015691E+05 -3.850629E+04 -1.880370E+04 -5.803818E-10 -1.995671E-09
        67  19  6.148724E+04 -6.736824E+04  5.944211E+04 -1.857855E+04 -7.987629E+03  3.678214E+03
        67  20  5.362568E+04 -1.027846E+05  5.345831E+04 -5.806455E+03 -7.143269E+03  4.862702E+03
        67  21  4.730465E+04 -1.376533E+05  4.863254E+04 -1.807086E+04 -5.636899E+03  6.048134E+03
        67  22 -1.042196E+03 -3.196302E+05 -8.912040E+02 -1.843961E+04 -7.987690E+03  3.405950E+03
        67  23 -1.670117E+02 -3.198713E+05  1.628919E+03 -5.919960E+03 -7.143015E+03  4.240719E+03
        67  24  2.188298E+03 -3.196264E+05  5.064341E+03 -1.843735E+04 -5.636222E+03  5.076496E+03
        67  25 -6.357625E+04 -5.718339E+05 -6.122901E+04 -1.830071E+04 -7.987752E+03  3.133797E+03
        67  26 -5.396311E+04 -5.369146E+05 -5.020379E+04 -6.033418E+03 -7.142760E+03  3.618952E+03
        67  27 -4.293045E+04 -5.015691E+05 -3.850620E+04 -1.880372E+04 -5.635545E+03  4.105142E+03
        68   1  3.273851E+04 -1.813132E+05  3.914243E+04 -2.136727E+04  4.829745E+03 -6.583573E+03
        68   2  2.235093E+04 -2.202084E+05  3.546127E+04 -3.950274E+03  3.362709E+03 -1.316957E+04
        68   3  3.732817E+04 -2.519479E+05  4.240066E+04 -1.173669E+04  9.170234E+02 -1.975634E+04
        68   4 -1.157284E+03 -3.181613E+05  6.578284E+03 -1.848189E+04  4.829336E+03 -6.063716E+03
        68   5 -2.792467E+03 -3.216911E+05  1.123587E+04 -5.869885E+03  3.361838E+03 -1.213236E+04
        68   6  2.084922E+04 -3.181561E+05  2.615535E+04 -1.846123E+04  9.157168E+02 -1.820214E+04
        68   7 -3.505440E+04 -4.549921E+05 -2.598717E+04 -1.559715E+04  4.828931E+03 -5.543974E+03
        68   8 -2.793659E+04 -4.231642E+05 -1.299025E+04 -7.789180E+03  3.360961E+03 -1.109532E+04
        68   9  4.370115E+03 -3.843602E+05  9.909749E+03 -2.518506E+04  9.143764E+02 -1.664810E+04
        68  10  3.273848E+04 -1.813132E+05  3.914231E+04 -2.136725E+04  1.246304E-09  2.304368E-09
        68  11  2.235087E+04 -2.202086E+05  3.546093E+04 -3.950238E+03 -1.723897E-09  1.260821E-09
        68  12  3.732807E+04 -2.519483E+05  4.239993E+04 -1.173668E+04 -1.643630E-09 -1.172530E-09
        68  13 -1.157319E+03 -3.181613E+05  6.578171E+03 -1.848187E+04 -3.693927E-10  2.890928E-11
        68  14 -2.792519E+03 -3.216912E+05  1.123557E+04 -5.869853E+03 -1.161514E-09 -4.436469E-10
        68  15  2.084913E+04 -3.181565E+05  2.615473E+04 -1.846122E+04  1.894807E-10 -1.651559E-09
        68  16 -3.505444E+04 -4.549922E+05 -2.598727E+04 -1.559713E+04 -1.451582E-09 -1.803581E-09
        68  17 -2.793663E+04 -4.231644E+05 -1.299051E+04 -7.789150E+03  1.450582E-09 -1.269682E-09
        68  18  4.370039E+03 -3.843605E+05  9.909226E+03 -2.518504E+04  9.955174E-10 -3.101129E-10
        68  19  3.273851E+04 -1.813132E+05  3.914243E+04 -2.136727E+04 -4.829745E+03  6.583573E+03
        68  20  2.235093E+04 -2.202084E+05  3.546127E+04 -3.950274E+03 -3.362709E+03  1.316957E+04
        68  21  3.732817E+04 -2.519479E+05  4.240066E+04 -1.173669E+04 -9.170234E+02  1.975634E+04
        68  22 -1.157284E+03 -3.181613E+05  6.578284E+03 -1.848189E+04 -4.829336E+03  6.063716E+03
        68  23 -2.792467E+03 -3.216911E+05  1.123587E+04 -5.869885E+03 -3.361838E+03  1.213236E+04
        68  24  2.084922E+04 -3.181561E+05  2.615535E+04 -1.846123E+04 -9.157168E+02  1.820214E+04
        68  25 -3.505440E+04 -4.549921E+05 -2.598717E+04 -1.559715E+04 -4.828931E+03  5.543974E+03
        68  26 -2.793659E+04 -4.231642E+05 -1.299025E+04 -7.789180E+03 -3.360961E+03  1.109532E+04
        68  27  4.370115E+03 -3.843602E+05  9.909749E+03 -2.518506E+04 -9.143764E+02  1.664810E+04
        69   1 -3.643752E+05 -8.523312E+04 -3.414331E+04 -1.360827E+05 -1.383799E+04 -4.598314E+03
        69   2 -3.546184E+05 -5.975537E+04 -1.924806E+04 -1.327152E+05 -8.903308E+03 -1.694823E+03
        69   3 -3.469804E+05 -5.814732E+04 -1.331697E+04 -1.309047E+05 -3.471003E+03 -1.179446E+02
        69   4 -3.165548E+05 -6.270844E+04 -2.025176E+04 -1.184411E+05 -1.305464E+04 -4.304698E+03
        69   5 -3.145144E+05 -4.340907E+04 -8.461900E+03 -1.204479E+05 -8.775167E+03 -1.646806E+03
        69   6 -3.144627E+05 -4.784895E+04 -5.116484E+03 -1.240119E+05 -3.998161E+03 -3.155764E+02
        69   7 -2.687323E+05 -4.018335E+04 -6.360499E+03 -1.007984E+05 -1.227122E+04 -4.011044E+03
        69   8 -2.744089E+05 -2.706261E+04  2.324095E+03 -1.081798E+05 -8.647016E+03 -1.598786E+03
        69   9 -2.819440E+05 -3.755056E+04  3.083934E+03 -1.171188E+05 -4.525350E+03 -5.132159E+02
        69  10 -3.643754E+05 -8.523319E+04 -3.414371E+04 -1.360827E+05  1.610406E-09 -3.915418E-11
        69  11 -3.546185E+05 -5.975539E+04 -1.924821E+04 -1.327152E+05  1.246225E-09 -4.042568E-10
        69  12 -3.469804E+05 -5.814732E+04 -1.331699E+04 -1.309047E+05 -1.059073E-09 -1.245138E-09
        69  13 -3.165550E+05 -6.270851E+04 -2.025211E+04 -1.184412E+05 -2.287060E-09 -8.913595E-12
        69  14 -3.145145E+05 -4.340909E+04 -8.462049E+03 -1.204479E+05 -9.115509E-10 -2.480943E-10
        69  15 -3.144628E+05 -4.784895E+04 -5.116514E+03 -1.240119E+05  1.476622E-10 -1.351549E-09
        69  16 -2.687325E+05 -4.018341E+04 -6.360812E+03 -1.007984E+05  5.582862E-11  1.847650E-10
        69  17 -2.744090E+05 -2.706264E+04  2.323949E+03 -1.081799E+05 -3.069425E-09 -3.195361E-10
        69  18 -2.819440E+05 -3.755056E+04  3.083895E+03 -1.171188E+05 -3.431255E-09 -1.905794E-09
        69  19 -3.643752E+05 -8.523312E+04 -3.414331E+04 -1.360827E+05  1.383799E+04  4.598314E+03
        69  20 -3.546184E+05 -5.975537E+04 -1.924806E+04 -1.327152E+05  8.903308E+03  1.694823E+03
        69  21 -3.469804E+05 -5.814732E+04 -1.331697E+04 -1.309047E+05  3.471003E+03  1.179446E+02
        69  22 -3.165548E+05 -6.270844E+04 -2.025176E+04 -1.184411E+05  1.305464E+04  4.304698E+03
        69  23 -3.145144E+05 -4.340907E+04 -8.461900E+03 -1.204479E+05  8.775167E+03  1.646806E+03
        69  24 -3.144627E+05 -4.784895E+04 -5.116484E+03 -1.240119E+05  3.998161E+03  3.155764E+02
        69  25 -2.687323E+05 -4.018335E+04 -6.360499E+03 -1.007984E+05  1.227122E+04  4.011044E+03
        69  26 -2.744089E+05 -2.706261E+04  2.324095E+03 -1.081798E+05  8.647016E+03  1.598786E+03
        69  27 -2.819440E+05 -3.755056E+04  3.083934E+03 -1.171188E+05  4.525350E+03  5.132159E+02
        70   1 -3.308315E+05 -5.678153E+04 -8.730118E+03 -1.279188E+05 -2.964262E+03 -4.365646E+02
        70   2 -3.232721E+05 -4.825397E+04 -3.947105E+03 -1.222938E+05 -1.740458E+03 -3.640321E+02
        70   3 -3.110764E+05 -4.722438E+04 -5.186974E+02 -1.225151E+05 -4.784714E+02 -3.932956E+02
        70   4 -3.137916E+05 -4.994849E+04 -4.162435E+03 -1.228239E+05 -3.106512E+03 -4.898985E+02
        70   5 -3.160033E+05 -4.541370E+04 -2.013765E+03 -1.201971E+05 -1.932983E+03 -4.362103E+02
        70   6 -3.135689E+05 -4.836690E+04 -1.179831E+03 -1.234166E+05 -7.212929E+02 -4.843259E+02
        70   7 -2.967515E+05 -4.311542E+04  4.052165E+02 -1.177288E+05 -3.248766E+03 -5.432341E+02
        70   8 -3.087345E+05 -4.257343E+04 -8.043629E+01 -1.181003E+05 -2.125509E+03 -5.083892E+02
        70   9 -3.160614E+05 -4.950941E+04 -1.840962E+03 -1.243182E+05 -9.641121E+02 -5.753550E+02
        70  10 -3.308315E+05 -5.678153E+04 -8.730135E+03 -1.279188E+05 -2.587462E-09 -1.529305E-09
        70  11 -3.232721E+05 -4.825397E+04 -3.947111E+03 -1.222938E+05  1.423476E-09  2.314072E-11
        70  12 -3.110764E+05 -4.722438E+04 -5.186981E+02 -1.225151E+05  1.216472E-09  4.492196E-10
        70  13 -3.137916E+05 -4.994849E+04 -4.162454E+03 -1.228239E+05 -1.832089E-09 -1.727191E-09
        70  14 -3.160034E+05 -4.541370E+04 -2.013772E+03 -1.201971E+05 -2.922409E-09 -4.974257E-10
        70  15 -3.135689E+05 -4.836690E+04 -1.179833E+03 -1.234166E+05 -8.186508E-10  8.323885E-12
        70  16 -2.967515E+05 -4.311543E+04  4.051961E+02 -1.177288E+05 -6.959148E-10 -1.457174E-09
        70  17 -3.087345E+05 -4.257343E+04 -8.044527E+01 -1.181003E+05 -1.175886E-09 -4.331808E-10
        70  18 -3.160614E+05 -4.950941E+04 -1.840964E+03 -1.243182E+05 -1.085993E-09  4.407443E-10
        70  19 -3.308315E+05 -5.678153E+04 -8.730118E+03 -1.279188E+05  2.964262E+03  4.365646E+02
        70  20 -3.232721E+05 -4.825397E+04 -3.947105E+03 -1.222938E+05  1.740458E+03  3.640321E+02
        70  21 -3.110764E+05 -4.722438E+04 -5.186974E+02 -1.225151E+05  4.784714E+02  3.932956E+02
        70  22 -3.137916E+05 -4.994849E+04 -4.162435E+03 -1.228239E+05  3.106512E+03  4.898985E+02
        70  23 -3.160033E+05 -4.541370E+04 -2.013765E+03 -1.201971E+05  1.932983E+03  4.362103E+02
        70  24 -3.135689E+05 -4.836690E+04 -1.179831E+03 -1.234166E+05  7.212929E+02  4.843259E+02
        70  25 -2.967515E+05 -4.311542E+04  4.052165E+02 -1.177288E+05  3.248766E+03  5.432341E+02
        70  26 -3.087345E+05 -4.257343E+04 -8.043629E+01 -1.181003E+05  2.125509E+03  5.083892E+02
        70  27 -3.160614E+05 -4.950941E+04 -1.840962E+03 -1.243182E+05  9.641121E+02  5.753550E+02
        71   1 -2.970215E+05 -4.243449E+04  3.425108E+03 -1.188382E+05 -2.347424E+02 -6.128433E+02
        71   2 -2.897458E+05 -3.572550E+04  6.414519E+03 -1.129837E+05  2.054308E+02 -9.439849E+02
        71   3 -2.770735E+05 -3.474455E+04  9.140011E+03 -1.134015E+05  6.481887E+02 -1.281924E+03
        71   4 -3.134874E+05 -4.858278E+04 -9.369684E+02 -1.232837E+05 -4.480242E+02 -6.928017E+02
        71   5 -3.161747E+05 -4.563763E+04 -5.404306E+02 -1.201781E+05 -1.122048E+01 -1.025215E+03
        71   6 -3.134645E+05 -4.841985E+04 -4.050885E+02 -1.233448E+05  4.281626E+02 -1.364428E+03
        71   7 -3.299531E+05 -5.473109E+04 -5.299096E+03 -1.277292E+05 -6.613012E+02 -7.727583E+02
        71   8 -3.426030E+05 -5.554976E+04 -7.495476E+03 -1.273723E+05 -2.278627E+02 -1.106442E+03
        71   9 -3.498544E+05 -6.209512E+04 -9.950336E+03 -1.332877E+05  2.081498E+02 -1.446926E+03
        71  10 -2.970215E+05 -4.243449E+04  3.425107E+03 -1.188382E+05  6.013095E-10 -1.312174E-11
        71  11 -2.897458E+05 -3.572550E+04  6.414518E+03 -1.129837E+05  2.467410E-09 -6.527243E-10
        71  12 -2.770735E+05 -3.474455E+04  9.140007E+03 -1.134015E+05 -1.943641E-09  2.377838E-10
        71  13 -3.134874E+05 -4.858278E+04 -9.369697E+02 -1.232837E+05  3.072585E-11 -7.945730E-11
        71  14 -3.161747E+05 -4.563763E+04 -5.404326E+02 -1.201781E+05  2.593712E-09 -7.979339E-10
        71  15 -3.134645E+05 -4.841985E+04 -4.050923E+02 -1.233448E+05 -7.475283E-10  9.654327E-10
        71  16 -3.299531E+05 -5.473109E+04 -5.299098E+03 -1.277292E+05 -1.724889E-09 -2.552289E-10
        71  17 -3.426030E+05 -5.554976E+04 -7.495479E+03 -1.273723E+05  1.260987E-09 -1.413463E-10
        71  18 -3.498544E+05 -6.209512E+04 -9.950340E+03 -1.332877E+05  8.497960E-10  1.421587E-09
        71  19 -2.970215E+05 -4.243449E+04  3.425108E+03 -1.188382E+05  2.347424E+02  6.128433E+02
        71  20 -2.897458E+05 -3.572550E+04  6.414519E+03 -1.129837E+05 -2.054308E+02  9.439849E+02
        71  21 -2.770735E+05 -3.474455E+04  9.140011E+03 -1.134015E+05 -6.481887E+02  1.281924E+03
        71  22 -3.134874E+05 -4.858278E+04 -9.369684E+02 -1.232837E+05  4.480242E+02  6.928017E+02
        71  23 -3.161747E+05 -4.563763E+04 -5.404306E+02 -1.201781E+05  1.122048E+01  1.025215E+03
        71  24 -3.134645E+05 -4.841985E+04 -4.050885E+02 -1.233448E+05 -4.281626E+02  1.364428E+03
        71  25 -3.299531E+05 -5.473109E+04 -5.299096E+03 -1.277292E+05  6.613012E+02  7.727583E+02
        71  26 -3.426030E+05 -5.554976E+04 -7.495476E+03 -1.273723E+05  2.278627E+02  1.106442E+03
        71  27 -3.498544E+05 -6.209512E+04 -9.950336E+03 -1.332877E+05 -2.081498E+02  1.446926E+03
        72   1 -2.633337E+05 -2.961507E+04  1.283935E+04 -1.096714E+05  8.082492E+02 -1.516227E+03
        72   2 -2.561351E+05 -2.313423E+04  1.534447E+04 -1.038274E+05  1.202160E+03 -1.870018E+03
        72   3 -2.435097E+05 -2.218547E+04  1.766519E+04 -1.042496E+05  1.595644E+03 -2.222468E+03
        72   4 -3.134661E+05 -4.843071E+04 -3.921896E+02 -1.233234E+05  5.906395E+02 -1.597833E+03
        72   5 -3.161801E+05 -4.566896E+04 -4.591576E+02 -1.201886E+05  9.851817E+02 -1.951403E+03
        72   6 -3.134675E+05 -4.843945E+04 -7.110662E+02 -1.233202E+05  1.379294E+03 -2.303633E+03
        72   7 -3.635959E+05 -6.724611E+04 -1.362388E+04 -1.369742E+05  3.730502E+02 -1.679431E+03
        72   8 -3.762214E+05 -6.820344E+04 -1.626306E+04 -1.365484E+05  7.682269E+02 -2.032779E+03
        72   9 -3.834208E+05 -7.469318E+04 -1.908777E+04 -1.423888E+05  1.162970E+03 -2.384788E+03
        72  10 -2.633338E+05 -2.961507E+04  1.283935E+04 -1.096714E+05  1.281852E-09  1.406124E-09
        72  11 -2.561351E+05 -2.313423E+04  1.534446E+04 -1.038274E+05  2.547815E-09  3.700872E-10
        72  12 -2.435097E+05 -2.218548E+04  1.766517E+04 -1.042496E+05  1.106175E-09 -1.390307E-10
        72  13 -3.134662E+05 -4.843072E+04 -3.921950E+02 -1.233234E+05 -1.503118E-09  1.180677E-09
        72  14 -3.161801E+05 -4.566896E+04 -4.591665E+02 -1.201886E+05  3.128949E-09  2.281682E-10
        72  15 -3.134675E+05 -4.843946E+04 -7.110797E+02 -1.233201E+05 -1.191895E-10 -3.308488E-11
        72  16 -3.635959E+05 -6.724612E+04 -1.362388E+04 -1.369742E+05 -1.155360E-09  8.883051E-10
        72  17 -3.762214E+05 -6.820344E+04 -1.626307E+04 -1.365484E+05  9.925335E-10  1.571450E-10
        72  18 -3.834208E+05 -7.469319E+04 -1.908779E+04 -1.423888E+05  1.560743E-09  1.332825E-11
        72  19 -2.633337E+05 -2.961507E+04  1.283935E+04 -1.096714E+05 -8.082492E+02  1.516227E+03
        72  20 -2.561351E+05 -2.313423E+04  1.534447E+04 -1.038274E+05 -1.202160E+03  1.870018E+03
        72  21 -2.435097E+05 -2.218547E+04  1.766519E+04 -1.042496E+05 -1.595644E+03  2.222468E+03
        72  22 -3.134661E+05 -4.843071E+04 -3.921896E+02 -1.233234E+05 -5.906395E+02  1.597833E+03
        72  23 -3.161801E+05 -4.566896E+04 -4.591576E+02 -1.201886E+05 -9.851817E+02  1.951403E+03
        72  24 -3.134675E+05 -4.843945E+04 -7.110662E+02 -1.233202E+05 -1.379294E+03  2.303633E+03
        72  25 -3.635959E+05 -6.724611E+04 -1.362388E+04 -1.369742E+05 -3.730502E+02  1.679431E+03
        72  26 -3.762214E+05 -6.820344E+04 -1.626306E+04 -1.365484E+05 -7.682269E+02  2.032779E+03
        72  27 -3.834208E+05 -7.469318E+04 -1.908777E+04 -1.423888E+05 -1.162970E+03  2.384788E+03
        73   1 -2.299284E+05 -1.705832E+04  2.111973E+04 -1.005906E+05  1.825175E+03 -2.427112E+03
        73   2 -2.227755E+05 -1.061072E+04  2.298601E+04 -9.476752E+04  2.781017E+03 -2.565053E+03
        73   3 -2.104310E+05 -9.910337E+03  2.417603E+04 -9.508550E+04  3.735128E+03 -2.698061E+03
        73   4 -3.135079E+05 -4.839707E+04 -9.088672E+02 -1.233265E+05  1.608810E+03 -2.508298E+03
        73   5 -3.161212E+05 -4.564862E+04 -1.582838E+03 -1.202090E+05  2.566958E+03 -2.645398E+03
        73   6 -3.135436E+05 -4.864788E+04 -2.934981E+03 -1.232326E+05  3.523364E+03 -2.777571E+03
        73   7 -3.970804E+05 -7.973532E+04 -2.293800E+04 -1.460595E+05  1.392477E+03 -2.589471E+03
        73   8 -4.094585E+05 -8.068599E+04 -2.615244E+04 -1.456470E+05  2.352934E+03 -2.725731E+03
        73   9 -4.166461E+05 -8.738488E+04 -3.004698E+04 -1.513755E+05  3.311638E+03 -2.857067E+03
        73  10 -2.299284E+05 -1.705833E+04  2.111971E+04 -1.005906E+05  3.994419E-10  1.348370E-11
        73  11 -2.227755E+05 -1.061073E+04  2.298599E+04 -9.476752E+04 -1.404298E-09  1.403506E-10
        73  12 -2.104311E+05 -9.910349E+03  2.417599E+04 -9.508549E+04 -1.950829E-09 -3.995960E-10
        73  13 -3.135079E+05 -4.839708E+04 -9.088839E+02 -1.233265E+05 -1.219310E-09  6.179031E-11
        73  14 -3.161212E+05 -4.564862E+04 -1.582864E+03 -1.202090E+05 -9.884781E-10 -5.924815E-11
        73  15 -3.135436E+05 -4.864789E+04 -2.935018E+03 -1.232326E+05 -1.719566E-09 -6.352188E-11
        73  16 -3.970804E+05 -7.973532E+04 -2.293801E+04 -1.460595E+05  1.321411E-10  1.732269E-11
        73  17 -4.094585E+05 -8.068600E+04 -2.615246E+04 -1.456470E+05  9.259949E-10  8.280310E-11
        73  18 -4.166461E+05 -8.738489E+04 -3.004702E+04 -1.513755E+05  3.724004E-09  3.408631E-10
        73  19 -2.299284E+05 -1.705832E+04  2.111973E+04 -1.005906E+05 -1.825175E+03  2.427112E+03
        73  20 -2.227755E+05 -1.061072E+04  2.298601E+04 -9.476752E+04 -2.781017E+03  2.565053E+03
        73  21 -2.104310E+05 -9.910337E+03  2.417603E+04 -9.508550E+04 -3.735128E+03  2.698061E+03
        73  22 -3.135079E+05 -4.839707E+04 -9.088672E+02 -1.233265E+05 -1.608810E+03  2.508298E+03
        73  23 -3.161212E+05 -4.564862E+04 -1.582838E+03 -1.202090E+05 -2.566958E+03  2.645398E+03
        73  24 -3.135436E+05 -4.864788E+04 -2.934981E+03 -1.232326E+05 -3.523364E+03  2.777571E+03
        73  25 -3.970804E+05 -7.973532E+04 -2.293800E+04 -1.460595E+05 -1.392477E+03  2.589471E+03
        73  26 -4.094585E+05 -8.068599E+04 -2.615244E+04 -1.456470E+05 -2.352934E+03  2.725731E+03
        73  27 -4.166461E+05 -8.738488E+04 -3.004698E+04 -1.513755E+05 -3.311638E+03  2.857067E+03
        74   1 -1.969581E+05 -4.809430E+03  2.686447E+04 -9.195460E+04  4.394082E+03 -2.741080E+03
        74   2 -1.897100E+05  2.129678E+03  2.636671E+04 -8.577820E+04  8.009911E+03 -1.871015E+03
        74   3 -1.787444E+05  6.163548E+02  2.245782E+04 -8.500843E+04  1.161398E+04 -9.692079E+02
        74   4 -3.137393E+05 -4.830405E+04 -3.842749E+03 -1.234247E+05  4.174917E+03 -2.823387E+03
        74   5 -3.157707E+05 -4.530684E+04 -6.834708E+03 -1.202596E+05  7.805734E+03 -1.947733E+03
        74   6 -3.140878E+05 -5.076558E+04 -1.325020E+04 -1.225013E+05  1.142473E+04 -1.040363E+03
        74   7 -4.305074E+05 -9.179790E+04 -3.455113E+04 -1.548895E+05  3.955797E+03 -2.905676E+03
        74   8 -4.418159E+05 -9.274231E+04 -4.003744E+04 -1.547347E+05  7.601602E+03 -2.024433E+03
        74   9 -4.494132E+05 -1.021462E+05 -4.895968E+04 -1.599866E+05  1.123552E+04 -1.111500E+03
        74  10 -1.969581E+05 -4.809444E+03  2.686442E+04 -9.195459E+04 -4.914636E-09 -2.630301E-09
        74  11 -1.897100E+05  2.129657E+03  2.636659E+04 -8.577819E+04 -2.371341E-09 -1.733542E-09
        74  12 -1.787445E+05  6.163176E+02  2.245756E+04 -8.500842E+04  4.789441E-09  1.082688E-09
        74  13 -3.137394E+05 -4.830406E+04 -3.842797E+03 -1.234247E+05 -1.058650E-09 -4.927221E-10
        74  14 -3.157708E+05 -4.530686E+04 -6.834829E+03 -1.202596E+05 -1.439851E-09 -1.240147E-09
        74  15 -3.140880E+05 -5.076562E+04 -1.325045E+04 -1.225013E+05  6.199455E-11 -1.582509E-09
        74  16 -4.305074E+05 -9.179791E+04 -3.455118E+04 -1.548895E+05  3.936620E-09  1.495653E-09
        74  17 -4.418159E+05 -9.274233E+04 -4.003755E+04 -1.547347E+05 -3.403346E-09 -2.179831E-09
        74  18 -4.494133E+05 -1.021462E+05 -4.895992E+04 -1.599866E+05 -9.834135E-09 -2.992165E-09
        74  19 -1.969581E+05 -4.809430E+03  2.686447E+04 -9.195460E+04 -4.394082E+03  2.741080E+03
        74  20 -1.897100E+05  2.129678E+03  2.636671E+04 -8.577820E+04 -8.009911E+03  1.871015E+03
        74  21 -1.787444E+05  6.163548E+02  2.245782E+04 -8.500843E+04 -1.161398E+04  9.692079E+02
        74  22 -3.137393E+05 -4.830405E+04 -3.842749E+03 -1.234247E+05 -4.174917E+03  2.823387E+03
        74  23 -3.157707E+05 -4.530684E+04 -6.834708E+03 -1.202596E+05 -7.805734E+03  1.947733E+03
        74  24 -3.140878E+05 -5.076558E+04 -1.325020E+04 -1.225013E+05 -1.142473E+04  1.040363E+03
        74  25 -4.305074E+05 -9.179790E+04 -3.455113E+04 -1.548895E+05 -3.955797E+03  2.905676E+03
        74  26 -4.418159E+05 -9.274231E+04 -4.003744E+04 -1.547347E+05 -7.601602E+03  2.024433E+03
        74  27 -4.494132E+05 -1.021462E+05 -4.895968E+04 -1.599866E+05 -1.123552E+04  1.111500E+03
        75   1 -1.642013E+05  6.110244E+03  2.219969E+04 -8.643502E+04  1.427214E+04 -3.088304E+02
        75   2 -1.561498E+05  1.861616E+04  1.203989E+04 -7.603764E+04  2.963806E+04  4.999408E+03
        75   3 -1.557788E+05 -3.210345E+03 -1.737050E+04 -6.443645E+04  4.486654E+04  1.067492E+04
        75   4 -3.153565E+05 -4.751050E+04 -1.701468E+04 -1.244185E+05  1.397888E+04 -4.189779E+02
        75   5 -3.131553E+05 -4.204894E+04 -2.960997E+04 -1.206164E+05  2.952235E+04  4.955732E+03
        75   6 -3.186730E+05 -7.096025E+04 -6.160045E+04 -1.156102E+05  4.492818E+04  1.069740E+04
        75   7 -4.664901E+05 -1.011306E+05 -5.623107E+04 -1.623940E+05  1.368570E+04 -5.291002E+02
        75   8 -4.701370E+05 -1.027123E+05 -7.126204E+04 -1.651849E+05  2.940667E+04  4.912068E+03
        75   9 -4.815413E+05 -1.387069E+05 -1.058328E+05 -1.667712E+05  4.498980E+04  1.071987E+04
        75  10 -1.642015E+05  6.110189E+03  2.219930E+04 -8.643502E+04  8.120917E-11  3.518371E-10
        75  11 -1.561508E+05  1.861590E+04  1.203819E+04 -7.603776E+04  1.460756E-09  2.452058E-09
        75  12 -1.557810E+05 -3.211008E+03 -1.737450E+04 -6.443684E+04  7.617416E-10  3.157643E-10
        75  13 -3.153567E+05 -4.751056E+04 -1.701505E+04 -1.244185E+05 -4.197936E-11  3.332756E-11
        75  14 -3.131562E+05 -4.204920E+04 -2.961166E+04 -1.206165E+05  8.769188E-10  2.364708E-09
        75  15 -3.186752E+05 -7.096091E+04 -6.160446E+04 -1.156106E+05  3.501608E-11 -4.821491E-11
        75  16 -4.664903E+05 -1.011307E+05 -5.623142E+04 -1.623940E+05 -5.279228E-10  5.917188E-10
        75  17 -4.701380E+05 -1.027125E+05 -7.126371E+04 -1.651850E+05  7.225511E-10  2.027813E-09
        75  18 -4.815435E+05 -1.387075E+05 -1.058368E+05 -1.667716E+05 -3.896090E-09  3.517651E-10
        75  19 -1.642013E+05  6.110244E+03  2.219969E+04 -8.643502E+04 -1.427214E+04  3.088304E+02
        75  20 -1.561498E+05  1.861616E+04  1.203989E+04 -7.603764E+04 -2.963806E+04 -4.999408E+03
        75  21 -1.557788E+05 -3.210345E+03 -1.737050E+04 -6.443645E+04 -4.486654E+04 -1.067492E+04
        75  22 -3.153565E+05 -4.751050E+04 -1.701468E+04 -1.244185E+05 -1.397888E+04  4.189779E+02
        75  23 -3.131553E+05 -4.204894E+04 -2.960997E+04 -1.206164E+05 -2.952235E+04 -4.955732E+03
        75  24 -3.186730E+05 -7.096025E+04 -6.160045E+04 -1.156102E+05 -4.492818E+04 -1.069740E+04
        75  25 -4.664901E+05 -1.011306E+05 -5.623107E+04 -1.623940E+05 -1.368570E+04  5.291002E+02
        75  26 -4.701370E+05 -1.027123E+05 -7.126204E+04 -1.651849E+05 -2.940667E+04 -4.912068E+03
        75  27 -4.815413E+05 -1.387069E+05 -1.058328E+05 -1.667712E+05 -4.498980E+04 -1.071987E+04
        76   1 -1.274711E+05  7.246825E+03 -2.836079E+04 -1.076502E+05  5.729211E+04  1.431098E+04
        76   2 -1.158307E+05  7.300728E+04 -7.565284E+04 -5.646089E+04  1.236579E+05  3.897224E+04
        76   3 -2.095708E+05 -1.364865E+05 -2.463168E+05  5.917767E+04  1.882501E+05  6.835791E+04
        76   4 -3.285098E+05 -3.994495E+04 -7.579038E+04 -1.333810E+05  5.598798E+04  1.382382E+04
        76   5 -2.911626E+05 -1.218630E+04 -1.254454E+05 -1.242002E+05  1.246659E+05  3.934632E+04
        76   6 -3.596923E+05 -2.601974E+05 -3.003328E+05 -5.055942E+04  1.915724E+05  6.958205E+04
        76   7 -5.295080E+05 -8.713787E+04 -1.232222E+05 -1.591069E+05  5.468431E+04  1.333668E+04
        76   8 -4.664628E+05 -9.737100E+04 -1.752406E+05 -1.919198E+05  1.256735E+05  3.972020E+04
        76   9 -5.097792E+05 -3.838685E+05 -3.543490E+05 -1.602633E+05  1.948938E+05  7.080494E+04
        76  10 -1.274746E+05  7.245723E+03 -2.836734E+04 -1.076509E+05 -2.745251E-09 -1.077894E-09
        76  11 -1.158476E+05  7.300154E+04 -7.568444E+04 -5.646477E+04  1.723964E-09 -1.850651E-10
        76  12 -2.096102E+05 -1.365011E+05 -2.463922E+05  5.916731E+04  3.163819E-11 -1.019194E-09
        76  13 -3.285132E+05 -3.994600E+04 -7.579663E+04 -1.333816E+05 -1.475503E-09 -3.040009E-09
        76  14 -2.911797E+05 -1.219214E+04 -1.254776E+05 -1.242042E+05  1.163167E-09 -2.772825E-10
        76  15 -3.597331E+05 -2.602125E+05 -3.004109E+05 -5.057016E+04  6.975682E-10  6.241726E-11
        76  16 -5.295112E+05 -8.713886E+04 -1.232281E+05 -1.591075E+05  5.393933E-10 -1.473274E-10
        76  17 -4.664802E+05 -9.737694E+04 -1.752733E+05 -1.919239E+05 -9.204880E-10  1.762750E-09
        76  18 -5.098214E+05 -3.838841E+05 -3.544299E+05 -1.602745E+05 -1.154572E-09 -1.979070E-10
        76  19 -1.274711E+05  7.246825E+03 -2.836079E+04 -1.076502E+05 -5.729211E+04 -1.431098E+04
        76  20 -1.158307E+05  7.300728E+04 -7.565284E+04 -5.646089E+04 -1.236579E+05 -3.897224E+04
        76  21 -2.095708E+05 -1.364865E+05 -2.463168E+05  5.917767E+04 -1.882501E+05 -6.835791E+04
        76  22 -3.285098E+05 -3.994495E+04 -7.579038E+04 -1.333810E+05 -5.598798E+04 -1.382382E+04
        76  23 -2.911626E+05 -1.218630E+04 -1.254454E+05 -1.242002E+05 -1.246659E+05 -3.934632E+04
        76  24 -3.596923E+05 -2.601974E+05 -3.003328E+05 -5.055942E+04 -1.915724E+05 -6.958205E+04
        76  25 -5.295080E+05 -8.713787E+04 -1.232222E+05 -1.591069E+05 -5.468431E+04 -1.333668E+04
        76  26 -4.664628E+05 -9.737100E+04 -1.752406E+05 -1.919198E+05 -1.256735E+05 -3.972020E+04
        76  27 -5.097792E+05 -3.838685E+05 -3.543490E+05 -1.602633E+05 -1.948938E+05 -7.080494E+04
        77   1  2.567552E+05  2.235980E+06  2.493943E+05 -3.515552E+04  1.262841E+04  1.133209E+05
        77   2  2.107830E+05  2.226099E+06  1.830940E+05 -1.871911E+04  4.389119E+04  6.348043E+04
        77   3  1.975742E+05  2.230932E+06  1.573740E+05 -1.382187E+03  5.631616E+04  1.364464E+04
        77   4  5.002018E+04  1.394991E+06  5.496916E+04 -2.605175E+03  1.263884E+04  3.693898E+04
        77   5  1.306382E+04  1.390707E+06  2.818335E+04 -3.063191E+03  4.390517E+04  2.247924E+04
        77   6  2.763531E+03  1.395022E+06  1.747619E+04 -2.619041E+03  5.632481E+04  8.022054E+03
        77   7 -1.567572E+05  5.546682E+05 -1.394807E+05  2.990090E+04  1.264129E+04 -3.934056E+04
        77   8 -1.846935E+05  5.559931E+05 -1.267503E+05  1.257121E+04  4.391711E+04 -1.846837E+04
        77   9 -1.920835E+05  5.597999E+05 -1.224432E+05 -3.854128E+03  5.633348E+04  2.406759E+03
        77  10  2.567516E+05  2.235966E+06  2.493699E+05 -3.515667E+04  3.692405E-10  7.177492E-08
        77  11  2.107799E+05  2.226094E+06  1.830828E+05 -1.872135E+04  3.489126E-09 -2.155177E-08
        77  12  1.975708E+05  2.230931E+06  1.573676E+05 -1.382805E+03  1.680321E-09 -1.127050E-07
        77  13  5.001964E+04  1.394989E+06  5.496630E+04 -2.605550E+03  4.183404E-10  4.369184E-11
        77  14  1.306161E+04  1.390706E+06  2.817878E+04 -3.063986E+03  3.399907E-10  2.346164E-10
        77  15  2.760105E+03  1.395021E+06  1.747010E+04 -2.619405E+03  1.851959E-10 -4.289009E-10
        77  16 -1.567578E+05  5.546665E+05 -1.394839E+05  2.990130E+04 -1.667464E-10 -7.159187E-08
        77  17 -1.846957E+05  5.559922E+05 -1.267545E+05  1.257187E+04  1.360227E-10  2.146087E-08
        77  18 -1.920869E+05  5.597990E+05 -1.224492E+05 -3.854237E+03  2.388733E-09  1.127570E-07
        77  19  2.567552E+05  2.235980E+06  2.493943E+05 -3.515552E+04 -1.262841E+04 -1.133209E+05
        77  20  2.107830E+05  2.226099E+06  1.830940E+05 -1.871911E+04 -4.389119E+04 -6.348043E+04
        77  21  1.975742E+05  2.230932E+06  1.573740E+05 -1.382187E+03 -5.631616E+04 -1.364464E+04
        77  22  5.002018E+04  1.394991E+06  5.496916E+04 -2.605175E+03 -1.263884E+04 -3.693898E+04
        77  23  1.306382E+04  1.390707E+06  2.818335E+04 -3.063191E+03 -4.390517E+04 -2.247924E+04
        77  24  2.763531E+03  1.395022E+06  1.747619E+04 -2.619041E+03 -5.632481E+04 -8.022054E+03
        77  25 -1.567572E+05  5.546682E+05 -1.394807E+05  2.990090E+04 -1.264129E+04  3.934056E+04
        77  26 -1.846935E+05  5.559931E+05 -1.267503E+05  1.257121E+04 -4.391711E+04  1.846837E+04
        77  27 -1.920835E+05  5.597999E+05 -1.224432E+05 -3.854128E+03 -5.633348E+04 -2.406759E+03
        78   1  1.965961E+05  2.227084E+06  1.526392E+05 -4.843810E+03  5.761945E+04  1.245553E+04
        78   2  1.939252E+05  2.223606E+06  1.479029E+05 -2.973284E+03  5.940908E+04 -1.148664E+03
        78   3  1.961240E+05  2.223169E+06  1.532353E+05 -1.500729E+03  5.741331E+04 -1.475489E+04
        78   4  2.683318E+03  1.393512E+06  1.491255E+04 -2.907546E+03  5.762932E+04  5.548227E+03
        78   5  1.090453E+03  1.392607E+06  1.299250E+04 -2.708788E+03  5.941634E+04 -9.406238E+02
        78   6  3.138332E+03  1.393513E+06  1.621684E+04 -2.908030E+03  5.741548E+04 -7.431549E+03
        78   7 -1.912652E+05  5.606256E+05 -1.228346E+05 -9.738948E+02  5.763915E+04 -1.350144E+03
        78   8 -1.917793E+05  5.622900E+05 -1.219371E+05 -2.444569E+03  5.942361E+04 -7.328513E+02
        78   9 -1.898828E+05  5.645356E+05 -1.208219E+05 -4.313282E+03  5.741762E+04 -1.176274E+02
        78  10  1.965925E+05  2.227083E+06  1.526326E+05 -4.844388E+03  1.348043E-09  4.920613E-08
        78  11  1.939214E+05  2.223605E+06  1.478962E+05 -2.973229E+03  2.273888E-09  1.884378E-08
        78  12  1.961204E+05  2.223167E+06  1.532287E+05 -1.500048E+03  9.304172E-10 -1.330123E-08
        78  13  2.679741E+03  1.393512E+06  1.490625E+04 -2.907803E+03  2.004075E-09 -7.150890E-11
        78  14  1.086659E+03  1.392606E+06  1.298586E+04 -2.708743E+03 -1.119884E-09  4.517309E-10
        78  15  3.134776E+03  1.393512E+06  1.621053E+04 -2.907687E+03  4.497200E-10 -1.017666E-09
        78  16 -1.912688E+05  5.606247E+05 -1.228408E+05 -9.738321E+02  2.499841E-09 -4.859618E-08
        78  17 -1.917831E+05  5.622890E+05 -1.219438E+05 -2.444534E+03  1.267292E-09 -1.919976E-08
        78  18 -1.898863E+05  5.645347E+05 -1.208281E+05 -4.313277E+03  1.372203E-09  1.367745E-08
        78  19  1.965961E+05  2.227084E+06  1.526392E+05 -4.843810E+03 -5.761945E+04 -1.245553E+04
        78  20  1.939252E+05  2.223606E+06  1.479029E+05 -2.973284E+03 -5.940908E+04  1.148664E+03
        78  21  1.961240E+05  2.223169E+06  1.532353E+05 -1.500729E+03 -5.741331E+04  1.475489E+04
        78  22  2.683318E+03  1.393512E+06  1.491255E+04 -2.907546E+03 -5.762932E+04 -5.548227E+03
        78  23  1.090453E+03  1.392607E+06  1.299250E+04 -2.708788E+03 -5.941634E+04  9.406238E+02
        78  24  3.138332E+03  1.393513E+06  1.621684E+04 -2.908030E+03 -5.741548E+04  7.431549E+03
        78  25 -1.912652E+05  5.606256E+05 -1.228346E+05 -9.738948E+02 -5.763915E+04  1.350144E+03
        78  26 -1.917793E+05  5.622900E+05 -1.219371E+05 -2.444569E+03 -5.942361E+04  7.328513E+02
        78  27 -1.898828E+05  5.645356E+05 -1.208219E+05 -4.313282E+03 -5.741762E+04  1.176274E+02
        79   1  1.965230E+05  2.224795E+06  1.582721E+05 -5.401988E+03  5.596557E+04 -1.620137E+04
        79   2  2.104991E+05  2.215437E+06  1.853704E+05  1.519135E+04  4.353466E+04 -6.763875E+04
        79   3  2.615544E+05  2.222071E+06  2.551594E+05  3.412910E+04  1.260748E+04 -1.191002E+05
        79   4  3.225768E+03  1.395333E+06  1.953389E+04 -3.193643E+03  5.596778E+04 -1.014314E+04
        79   5  1.528415E+04  1.390321E+06  3.251004E+04 -2.343809E+03  4.350544E+04 -2.684271E+04
        79   6  5.842784E+04  1.395298E+06  6.412022E+04 -3.151120E+03  1.253884E+04 -4.356432E+04
        79   7 -1.901072E+05  5.665472E+05 -1.192255E+05 -9.882133E+02  5.597004E+04 -4.092711E+03
        79   8 -1.799676E+05  5.658658E+05 -1.203725E+05 -1.985500E+04  4.347391E+04  1.390068E+04
        79   9 -1.447382E+05  5.691694E+05 -1.269424E+05 -4.038133E+04  1.246112E+04  3.187201E+04
        79  10  1.965195E+05  2.224794E+06  1.582657E+05 -5.401259E+03  1.139555E-09  2.615112E-09
        79  11  2.104958E+05  2.215432E+06  1.853582E+05  1.519372E+04  5.032247E-10 -5.650523E-10
        79  12  2.615504E+05  2.222056E+06  2.551325E+05  3.413031E+04  5.120033E-10 -1.924741E-09
        79  13  3.222375E+03  1.395332E+06  1.952780E+04 -3.193186E+03  6.238602E-10 -1.822971E-10
        79  14  1.528192E+04  1.390319E+06  3.250513E+04 -2.342869E+03  9.309133E-10  8.494825E-10
        79  15  5.842717E+04  1.395296E+06  6.411636E+04 -3.150680E+03 -1.677262E-10 -1.497114E-09
        79  16 -1.901106E+05  5.665464E+05 -1.192315E+05 -9.880288E+02  5.132706E-10 -1.870151E-09
        79  17 -1.799697E+05  5.658650E+05 -1.203764E+05 -1.985548E+04  9.649703E-10  3.389966E-11
        79  18 -1.447386E+05  5.691683E+05 -1.269446E+05 -4.038165E+04  1.402002E-09  2.651210E-09
        79  19  1.965230E+05  2.224795E+06  1.582721E+05 -5.401988E+03 -5.596557E+04  1.620137E+04
        79  20  2.104991E+05  2.215437E+06  1.853704E+05  1.519135E+04 -4.353466E+04  6.763875E+04
        79  21  2.615544E+05  2.222071E+06  2.551594E+05  3.412910E+04 -1.260748E+04  1.191002E+05
        79  22  3.225768E+03  1.395333E+06  1.953389E+04 -3.193643E+03 -5.596778E+04  1.014314E+04
        79  23  1.528415E+04  1.390321E+06  3.251004E+04 -2.343809E+03 -4.350544E+04  2.684271E+04
        79  24  5.842784E+04  1.395298E+06  6.412022E+04 -3.151120E+03 -1.253884E+04  4.356432E+04
        79  25 -1.901072E+05  5.665472E+05 -1.192255E+05 -9.882133E+02 -5.597004E+04  4.092711E+03
        79  26 -1.799676E+05  5.658658E+05 -1.203725E+05 -1.985500E+04 -4.347391E+04 -1.390068E+04
        79  27 -1.447382E+05  5.691694E+05 -1.269424E+05 -4.038133E+04 -1.246112E+04 -3.187201E+04
        80   1 -2.382890E+06 -4.269096E+05 -3.940907E+05 -5.865622E+04  5.086475E+04  2.183859E+04
        80   2 -2.243501E+06 -4.987007E+05 -4.109451E+05 -2.421332E+04  4.605447E+04  6.520216E+04
        80   3 -2.068827E+06 -4.516601E+05 -3.940404E+05 -1.005764E+05  4.144806E+04  6.087491E+04
        80   4 -2.726947E+05  9.962875E+04  1.267782E+05 -8.427163E+04  8.645956E+04  2.199407E+04
        80   5 -2.924136E+05 -1.472412E+04  5.518128E+04 -2.866058E+04  5.646449E+04  6.522424E+04
        80   6 -2.725920E+05 -6.064879E+03  3.476039E+04 -8.382989E+04  2.667524E+04  6.082962E+04
        80   7  1.841566E+06  6.258383E+05  6.473225E+05 -1.099789E+05  1.221751E+05  2.214635E+04
        80   8  1.662173E+06  4.689769E+05  5.210399E+05 -3.312489E+04  6.690694E+04  6.524614E+04
        80   9  1.526610E+06  4.392978E+05  4.633350E+05 -6.703612E+04  1.185967E+04  6.078361E+04
        80  10 -2.382893E+06 -4.269108E+05 -3.940965E+05 -5.865712E+04 -1.376223E-10  5.595444E-11
        80  11 -2.243504E+06 -4.987058E+05 -4.109571E+05 -2.421575E+04 -6.323743E-10 -9.253265E-11
        80  12 -2.068830E+06 -4.516646E+05 -3.940506E+05 -1.005784E+05  9.343851E-11 -1.062024E-10
        80  13 -2.727028E+05  9.962622E+04  1.267633E+05 -8.427316E+04  6.291707E-10  1.267782E-10
        80  14 -2.924182E+05 -1.472954E+04  5.516729E+04 -2.866355E+04 -1.617760E-09  3.958227E-10
        80  15 -2.725938E+05 -6.069043E+03  3.475210E+04 -8.383120E+04  2.400830E-09 -8.992654E-11
        80  16  1.841549E+06  6.258338E+05  6.472936E+05 -1.099810E+05  6.363388E-10  1.426940E-10
        80  17  1.662167E+06  4.689711E+05  5.210235E+05 -3.312840E+04 -3.468768E-09  3.614168E-10
        80  18  1.526609E+06  4.392938E+05  4.633278E+05 -6.703670E+04  2.127364E-09  1.725039E-10
        80  19 -2.382890E+06 -4.269096E+05 -3.940907E+05 -5.865622E+04 -5.086475E+04 -2.183859E+04
        80  20 -2.243501E+06 -4.987007E+05 -4.109451E+05 -2.421332E+04 -4.605447E+04 -6.520216E+04
        80  21 -2.068827E+06 -4.516601E+05 -3.940404E+05 -1.005764E+05 -4.144806E+04 -6.087491E+04
        80  22 -2.726947E+05  9.962875E+04  1.267782E+05 -8.427163E+04 -8.645956E+04 -2.199407E+04
        80  23 -2.924136E+05 -1.472412E+04  5.518128E+04 -2.866058E+04 -5.646449E+04 -6.522424E+04
        80  24 -2.725920E+05 -6.064879E+03  3.476039E+04 -8.382989E+04 -2.667524E+04 -6.082962E+04
        80  25  1.841566E+06  6.258383E+05  6.473225E+05 -1.099789E+05 -1.221751E+05 -2.214635E+04
        80  26  1.662173E+06  4.689769E+05  5.210399E+05 -3.312489E+04 -6.690694E+04 -6.524614E+04
        80  27  1.526610E+06  4.392978E+05  4.633350E+05 -6.703612E+04 -1.185967E+04 -6.078361E+04
        81   1 -1.874373E+06 -3.863338E+05 -3.536273E+05 -8.369408E+04  2.199963E+04  5.036377E+04
        81   2 -1.719119E+06 -3.581563E+05 -3.289711E+05 -2.835805E+04  1.649649E+04  4.727297E+04
        81   3 -1.557641E+06 -3.177530E+05 -2.971550E+05 -8.597975E+04  1.097943E+04  4.079690E+04
        81   4 -2.797417E+05  9.363442E+03  2.823368E+04 -8.444693E+04  2.130499E+04  5.035385E+04
        81   5 -2.829502E+05 -1.937900E+03  1.424927E+04 -2.796858E+04  1.400175E+04  4.726322E+04
        81   6 -2.796531E+05 -7.135489E+02  8.663856E+03 -8.443146E+04  6.685995E+03  4.079085E+04
        81   7  1.317224E+06  4.048761E+05  4.099149E+05 -8.520260E+04  2.060851E+04  5.034395E+04
        81   8  1.155113E+06  3.541310E+05  3.573243E+05 -2.757863E+04  1.150122E+04  4.725347E+04
        81   9  9.998348E+05  3.162075E+05  3.143674E+05 -8.287991E+04  2.383731E+03  4.078479E+04
        81  10 -1.874374E+06 -3.863367E+05 -3.536330E+05 -8.369497E+04 -2.028696E-09  3.225141E-10
        81  11 -1.719120E+06 -3.581588E+05 -3.289758E+05 -2.835868E+04 -1.329664E-09  6.762548E-10
        81  12 -1.557642E+06 -3.177549E+05 -2.971584E+05 -8.598011E+04 -2.290894E-10 -1.043170E-10
        81  13 -2.797429E+05  9.360597E+03  2.822807E+04 -8.444779E+04  2.576864E-10  3.445822E-10
        81  14 -2.829511E+05 -1.940351E+03  1.424470E+04 -2.796912E+04  5.499251E-10  3.832367E-10
        81  15 -2.796536E+05 -7.153475E+02  8.660646E+03 -8.443168E+04 -9.551545E-10  1.558455E-10
        81  16  1.317223E+06  4.048733E+05  4.099093E+05 -8.520343E+04  9.497451E-10  3.237130E-10
        81  17  1.155113E+06  3.541286E+05  3.573198E+05 -2.757907E+04 -2.121611E-09  2.450395E-11
        81  18  9.998344E+05  3.162057E+05  3.143643E+05 -8.287999E+04 -9.783077E-10  4.005330E-10
        81  19 -1.874373E+06 -3.863338E+05 -3.536273E+05 -8.369408E+04 -2.199963E+04 -5.036377E+04
        81  20 -1.719119E+06 -3.581563E+05 -3.289711E+05 -2.835805E+04 -1.649649E+04 -4.727297E+04
        81  21 -1.557641E+06 -3.177530E+05 -2.971550E+05 -8.597975E+04 -1.097943E+04 -4.079690E+04
        81  22 -2.797417E+05  9.363442E+03  2.823368E+04 -8.444693E+04 -2.130499E+04 -5.035385E+04
        81  23 -2.829502E+05 -1.937900E+03  1.424927E+04 -2.796858E+04 -1.400175E+04 -4.726322E+04
        81  24 -2.796531E+05 -7.135489E+02  8.663856E+03 -8.443146E+04 -6.685995E+03 -4.079085E+04
        81  25  1.317224E+06  4.048761E+05  4.099149E+05 -8.520260E+04 -2.060851E+04 -5.034395E+04
        81  26  1.155113E+06  3.541310E+05  3.573243E+05 -2.757863E+04 -1.150122E+04 -4.725347E+04
        81  27  9.998348E+05  3.162075E+05  3.143674E+05 -8.287991E+04 -2.383731E+03 -4.078479E+04
        82   1 -1.355115E+06 -2.656299E+05 -2.496257E+05 -8.430016E+04  8.621787E+03  3.645899E+04
        82   2 -1.196039E+06 -2.271067E+05 -2.149155E+05 -2.720000E+04  6.931160E+03  3.004966E+04
        82   3 -1.035697E+06 -1.871698E+05 -1.786094E+05 -8.404835E+04  5.227604E+03  2.338682E+04
        82   4 -2.806851E+05  7.294400E+02  6.705786E+03 -8.465688E+04  5.315678E+03  3.645570E+04
        82   5 -2.812896E+05 -2.870969E+02  3.638162E+03 -2.768790E+04  3.488176E+03  3.004932E+04
        82   6 -2.806268E+05  1.353880E+02  2.261693E+03 -8.465706E+04  1.648180E+03  2.338969E+04
        82   7  7.948052E+05  2.670053E+05  2.629562E+05 -8.501409E+04  2.003858E+03  3.645242E+04
        82   8  6.342279E+05  2.264719E+05  2.221329E+05 -2.817636E+04  4.013115E+01  3.004899E+04
        82   9  4.749670E+05  1.873992E+05  1.830925E+05 -8.526630E+04 -1.935586E+03  2.339257E+04
        82  10 -1.355115E+06 -2.656313E+05 -2.496284E+05 -8.430041E+04 -1.483657E-09 -5.717256E-10
        82  11 -1.196039E+06 -2.271077E+05 -2.149173E+05 -2.720017E+04 -2.164576E-09  3.730042E-10
        82  12 -1.035698E+06 -1.871704E+05 -1.786105E+05 -8.404845E+04 -5.335633E-10  8.088973E-10
        82  13 -2.806855E+05  7.280054E+02  6.703236E+03 -8.465704E+04 -2.162328E-09 -3.364548E-10
        82  14 -2.812899E+05 -2.880696E+02  3.636443E+03 -2.768799E+04 -3.858612E-12  6.419351E-10
        82  15 -2.806269E+05  1.347999E+02  2.260660E+03 -8.465709E+04  1.010540E-09  8.223344E-10
        82  16  7.948048E+05  2.670038E+05  2.629537E+05 -8.501415E+04 -6.252596E-10  2.368896E-10
        82  17  6.342277E+05  2.264709E+05  2.221312E+05 -2.817636E+04  5.694496E-10  3.644102E-10
        82  18  4.749669E+05  1.873986E+05  1.830915E+05 -8.526627E+04 -8.087825E-10  7.495412E-10
        82  19 -1.355115E+06 -2.656299E+05 -2.496257E+05 -8.430016E+04 -8.621787E+03 -3.645899E+04
        82  20 -1.196039E+06 -2.271067E+05 -2.149155E+05 -2.720000E+04 -6.931160E+03 -3.004966E+04
        82  21 -1.035697E+06 -1.871698E+05 -1.786094E+05 -8.404835E+04 -5.227604E+03 -2.338682E+04
        82  22 -2.806851E+05  7.294400E+02  6.705786E+03 -8.465688E+04 -5.315678E+03 -3.645570E+04
        82  23 -2.812896E+05 -2.870969E+02  3.638162E+03 -2.768790E+04 -3.488176E+03 -3.004932E+04
        82  24 -2.806268E+05  1.353880E+02  2.261693E+03 -8.465706E+04 -1.648180E+03 -2.338969E+04
        82  25  7.948052E+05  2.670053E+05  2.629562E+05 -8.501409E+04 -2.003858E+03 -3.645242E+04
        82  26  6.342279E+05  2.264719E+05  2.221329E+05 -2.817636E+04 -4.013115E+01 -3.004899E+04
        82  27  4.749670E+05  1.873992E+05  1.830925E+05 -8.526630E+04  1.935586E+03 -2.339257E+04
        83   1 -8.309820E+05 -1.360620E+05 -1.291835E+05 -8.417705E+04  4.790943E+03  1.946246E+04
        83   2 -6.704415E+05 -9.653600E+04 -9.195023E+04 -2.706318E+04  4.240985E+03  1.278978E+04
        83   3 -5.100041E+05 -5.656740E+04 -5.431784E+04 -8.443291E+04  3.685494E+03  6.094179E+03
        83   4 -2.808630E+05  2.190462E+02  1.742241E+03 -8.477716E+04  1.277443E+03  1.946674E+04
        83   5 -2.807868E+05  5.221113E+01  1.117935E+03 -2.753750E+04  7.145272E+02  1.279533E+04
        83   6 -2.808377E+05  3.313688E+02  9.022768E+02 -8.477697E+04  1.462196E+02  6.101093E+03
        83   7  2.695341E+05  1.364782E+05  1.326469E+05 -8.537767E+04 -2.239160E+03  1.947103E+04
        83   8  1.090072E+05  9.662943E+04  9.417545E+04 -2.801205E+04 -2.814136E+03  1.280088E+04
        83   9 -5.162327E+04  5.722631E+04  5.611869E+04 -8.512113E+04 -3.394358E+03  6.108009E+03
        83  10 -8.309821E+05 -1.360624E+05 -1.291843E+05 -8.417713E+04 -1.056283E-09  5.893778E-10
        83  11 -6.704416E+05 -9.653618E+04 -9.195057E+04 -2.706322E+04 -1.796020E-12 -4.911333E-10
        83  12 -5.100041E+05 -5.656744E+04 -5.431794E+04 -8.443293E+04 -1.129810E-09 -4.982896E-10
        83  13 -2.808631E+05  2.186388E+02  1.741526E+03 -8.477718E+04 -1.940117E-10  5.026134E-11
        83  14 -2.807869E+05  5.203520E+01  1.117627E+03 -2.753751E+04 -5.260117E-10  8.458488E-11
        83  15 -2.808377E+05  3.313288E+02  9.022068E+02 -8.477697E+04 -7.329170E-11  4.141119E-10
        83  16  2.695340E+05  1.364778E+05  1.326462E+05 -8.537764E+04 -2.109588E-12  8.600253E-11
        83  17  1.090072E+05  9.662925E+04  9.417513E+04 -2.801202E+04 -8.973263E-10 -6.575736E-10
        83  18 -5.162330E+04  5.722627E+04  5.611860E+04 -8.512111E+04  1.528153E-09  6.321302E-10
        83  19 -8.309820E+05 -1.360620E+05 -1.291835E+05 -8.417705E+04 -4.790943E+03 -1.946246E+04
        83  20 -6.704415E+05 -9.653600E+04 -9.195023E+04 -2.706318E+04 -4.240985E+03 -1.278978E+04
        83  21 -5.100041E+05 -5.656740E+04 -5.431784E+04 -8.443291E+04 -3.685494E+03 -6.094179E+03
        83  22 -2.808630E+05  2.190462E+02  1.742241E+03 -8.477716E+04 -1.277443E+03 -1.946674E+04
        83  23 -2.807868E+05  5.221113E+01  1.117935E+03 -2.753750E+04 -7.145272E+02 -1.279533E+04
        83  24 -2.808377E+05  3.313688E+02  9.022768E+02 -8.477697E+04 -1.462196E+02 -6.101093E+03
        83  25  2.695341E+05  1.364782E+05  1.326469E+05 -8.537767E+04  2.239160E+03 -1.947103E+04
        83  26  1.090072E+05  9.662943E+04  9.417545E+04 -2.801205E+04  2.814136E+03 -1.280088E+04
        83  27 -5.162327E+04  5.722631E+04  5.611869E+04 -8.512113E+04  3.394358E+03 -6.108009E+03
        84   1 -3.044279E+05 -5.421220E+03 -4.261248E+03 -8.476896E+04  3.514707E+03  2.189290E+03
        84   2 -1.435887E+05  3.407267E+04  3.378474E+04 -2.769367E+04  2.976837E+03 -4.507916E+03
        84   3  1.695723E+04  7.402803E+04  7.218299E+04 -8.519214E+04  2.440743E+03 -1.118896E+04
        84   4 -2.808659E+05  3.202579E+02  8.761388E+02 -8.479839E+04 -2.523518E+01  2.196497E+03
        84   5 -2.807112E+05  9.332812E+01  1.043830E+03 -2.751073E+04 -5.548993E+02 -4.501228E+03
        84   6 -2.808748E+05  3.282276E+02  1.559616E+03 -8.479836E+04 -1.082652E+03 -1.118269E+04
        84   7 -2.573034E+05  6.061706E+03  6.013539E+03 -8.482782E+04 -3.565310E+03  2.203703E+03
        84   8 -4.178164E+05 -3.388737E+04 -3.169836E+04 -2.732782E+04 -4.085859E+03 -4.494540E+03
        84   9 -5.786254E+05 -7.337794E+04 -6.906989E+04 -8.440473E+04 -4.604365E+03 -1.117643E+04
        84  10 -3.044279E+05 -5.421228E+03 -4.261280E+03 -8.476896E+04 -6.690552E-10 -5.353530E-10
        84  11 -1.435888E+05  3.407265E+04  3.378469E+04 -2.769366E+04  5.229524E-10 -3.322622E-11
        84  12  1.695719E+04  7.402789E+04  7.218274E+04 -8.519212E+04 -1.052246E-09  1.441077E-09
        84  13 -2.808660E+05  3.202527E+02  8.761297E+02 -8.479839E+04 -2.170544E-10  6.872642E-10
        84  14 -2.807112E+05  9.330628E+01  1.043792E+03 -2.751073E+04  2.704811E-09  1.563485E-10
        84  15 -2.808749E+05  3.280930E+02  1.559379E+03 -8.479837E+04 -1.917999E-10  8.972146E-10
        84  16 -2.573035E+05  6.061697E+03  6.013506E+03 -8.482781E+04  1.031550E-10  6.517293E-10
        84  17 -4.178164E+05 -3.388740E+04 -3.169843E+04 -2.732784E+04 -2.097939E-09 -2.425987E-10
        84  18 -5.786254E+05 -7.337808E+04 -6.907016E+04 -8.440477E+04  1.597659E-09 -5.108042E-10
        84  19 -3.044279E+05 -5.421220E+03 -4.261248E+03 -8.476896E+04 -3.514707E+03 -2.189290E+03
        84  20 -1.435887E+05  3.407267E+04  3.378474E+04 -2.769367E+04 -2.976837E+03  4.507916E+03
        84  21  1.695723E+04  7.402803E+04  7.218299E+04 -8.519214E+04 -2.440743E+03  1.118896E+04
        84  22 -2.808659E+05  3.202579E+02  8.761388E+02 -8.479839E+04  2.523518E+01 -2.196497E+03
        84  23 -2.807112E+05  9.332812E+01  1.043830E+03 -2.751073E+04  5.548993E+02  4.501228E+03
        84  24 -2.808748E+05  3.282276E+02  1.559616E+03 -8.479836E+04  1.082652E+03  1.118269E+04
        84  25 -2.573034E+05  6.061706E+03  6.013539E+03 -8.482782E+04  3.565310E+03 -2.203703E+03
        84  26 -4.178164E+05 -3.388737E+04 -3.169836E+04 -2.732782E+04  4.085859E+03  4.494540E+03
        84  27 -5.786254E+05 -7.337794E+04 -6.906989E+04 -8.440473E+04  4.604365E+03  1.117643E+04
        85   1  2.226390E+05  1.250368E+05  1.226355E+05 -8.525885E+04  2.171363E+03 -1.511406E+04
        85   2  3.825961E+05  1.642500E+05  1.616336E+05 -2.823582E+04  4.215223E+02 -2.178662E+04
        85   3  5.432489E+05  2.048493E+05  2.021287E+05 -8.546442E+04 -1.319475E+03 -2.823662E+04
        85   4 -2.807040E+05  2.380706E+02  1.992891E+03 -8.472844E+04 -1.412613E+03 -1.510862E+04
        85   5 -2.810524E+05 -1.506524E+02  3.225153E+03 -2.759852E+04 -3.043677E+03 -2.178360E+04
        85   6 -2.807464E+05  8.290217E+02  5.875244E+03 -8.472780E+04 -4.665455E+03 -2.823582E+04
        85   7 -7.838148E+05 -1.245791E+05 -1.186676E+05 -8.419835E+04 -4.993696E+03 -1.510317E+04
        85   8 -9.442971E+05 -1.645832E+05 -1.552142E+05 -2.696177E+04 -6.505189E+03 -2.178058E+04
        85   9 -1.104119E+06 -2.032402E+05 -1.904258E+05 -8.399197E+04 -8.007014E+03 -2.823504E+04
        85  10  2.226389E+05  1.250366E+05  1.226351E+05 -8.525882E+04  3.092924E-10  5.610637E-10
        85  11  3.825959E+05  1.642495E+05  1.616327E+05 -2.823581E+04  1.030450E-10 -1.015881E-09
        85  12  5.432487E+05  2.048484E+05  2.021272E+05 -8.546445E+04 -2.102453E-09 -2.904377E-10
        85  13 -2.807040E+05  2.378250E+02  1.992459E+03 -8.472846E+04  8.350793E-10 -8.877934E-11
        85  14 -2.810525E+05 -1.511644E+02  3.224244E+03 -2.759858E+04  1.046134E-09 -1.014242E-09
        85  15 -2.807467E+05  8.281598E+02  5.873705E+03 -8.472791E+04  2.631241E-09 -5.915692E-10
        85  16 -7.838149E+05 -1.245793E+05 -1.186681E+05 -8.419841E+04 -8.452846E-10 -6.711498E-11
        85  17 -9.442972E+05 -1.645837E+05 -1.552152E+05 -2.696189E+04 -3.091943E-09 -4.697484E-10
        85  18 -1.104119E+06 -2.032411E+05 -1.904274E+05 -8.399215E+04  8.511201E-11 -4.799820E-10
        85  19  2.226390E+05  1.250368E+05  1.226355E+05 -8.525885E+04 -2.171363E+03  1.511406E+04
        85  20  3.825961E+05  1.642500E+05  1.616336E+05 -2.823582E+04 -4.215223E+02  2.178662E+04
        85  21  5.432489E+05  2.048493E+05  2.021287E+05 -8.546442E+04  1.319475E+03  2.823662E+04
        85  22 -2.807040E+05  2.380706E+02  1.992891E+03 -8.472844E+04  1.412613E+03  1.510862E+04
        85  23 -2.810524E+05 -1.506524E+02  3.225153E+03 -2.759852E+04  3.043677E+03  2.178360E+04
        85  24 -2.807464E+05  8.290217E+02  5.875244E+03 -8.472780E+04  4.665455E+03  2.823582E+04
        85  25 -7.838148E+05 -1.245791E+05 -1.186676E+05 -8.419835E+04  4.993696E+03  1.510317E+04
        85  26 -9.442971E+05 -1.645832E+05 -1.552142E+05 -2.696177E+04  6.505189E+03  2.178058E+04
        85  27 -1.104119E+06 -2.032402E+05 -1.904258E+05 -8.399197E+04  8.007014E+03  2.823504E+04
        86   1  7.488106E+05  2.544071E+05  2.534845E+05 -8.379599E+04 -1.638864E+03 -3.253048E+04
        86   2  9.054841E+05  2.926160E+05  2.959577E+05 -2.837886E+04 -9.662864E+03 -3.903534E+04
        86   3  1.067549E+06  3.421792E+05  3.467915E+05 -8.637714E+04 -1.767577E+04 -4.253608E+04
        86   4 -2.798640E+05 -4.436752E+02  7.579500E+03 -8.454292E+04 -5.866355E+03 -3.253120E+04
        86   5 -2.824482E+05 -1.563758E+03  1.251431E+04 -2.783078E+04 -1.229130E+04 -3.904045E+04
        86   6 -2.799375E+05  8.405371E+03  2.471120E+04 -8.454721E+04 -1.870308E+04 -4.254297E+04
        86   7 -1.307569E+06 -2.553711E+05 -2.384001E+05 -8.528839E+04 -1.008687E+04 -3.253191E+04
        86   8 -1.469087E+06 -2.958456E+05 -2.710282E+05 -2.728374E+04 -1.491471E+04 -3.904557E+04
        86   9 -1.625761E+06 -3.254999E+05 -2.974971E+05 -8.272144E+04 -1.972814E+04 -4.254988E+04
        86  10  7.488103E+05  2.544060E+05  2.534825E+05 -8.379604E+04 -1.453284E-09 -2.919127E-11
        86  11  9.054836E+05  2.926144E+05  2.959546E+05 -2.837917E+04 -2.719432E-09 -2.684068E-10
        86  12  1.067548E+06  3.421772E+05  3.467875E+05 -8.637775E+04  1.912206E-09  1.004297E-10
        86  13 -2.798643E+05 -4.448207E+02  7.577447E+03 -8.454308E+04  1.080478E-09 -2.715226E-11
        86  14 -2.824488E+05 -1.565435E+03  1.251116E+04 -2.783117E+04 -1.093975E-09  4.180562E-10
        86  15 -2.799384E+05  8.403334E+03  2.470714E+04 -8.454785E+04  3.408436E-10  2.985089E-13
        86  16 -1.307569E+06 -2.553722E+05 -2.384023E+05 -8.528865E+04  2.504707E-09 -1.308990E-10
        86  17 -1.469088E+06 -2.958472E+05 -2.710315E+05 -2.728421E+04  7.046766E-10  9.776959E-10
        86  18 -1.625761E+06 -3.255020E+05 -2.975013E+05 -8.272212E+04 -3.141938E-10  1.588017E-10
        86  19  7.488106E+05  2.544071E+05  2.534845E+05 -8.379599E+04  1.638864E+03  3.253048E+04
        86  20  9.054841E+05  2.926160E+05  2.959577E+05 -2.837886E+04  9.662864E+03  3.903534E+04
        86  21  1.067549E+06  3.421792E+05  3.467915E+05 -8.637714E+04  1.767577E+04  4.253608E+04
        86  22 -2.798640E+05 -4.436752E+02  7.579500E+03 -8.454292E+04  5.866355E+03  3.253120E+04
        86  23 -2.824482E+05 -1.563758E+03  1.251431E+04 -2.783078E+04  1.229130E+04  3.904045E+04
        86  24 -2.799375E+05  8.405371E+03  2.471120E+04 -8.454721E+04  1.870308E+04  4.254297E+04
        86  25 -1.307569E+06 -2.553711E+05 -2.384001E+05 -8.528839E+04  1.008687E+04  3.253191E+04
        86  26 -1.469087E+06 -2.958456E+05 -2.710282E+05 -2.728374E+04  1.491471E+04  3.904557E+04
        86  27 -1.625761E+06 -3.254999E+05 -2.974971E+05 -8.272144E+04  1.972814E+04  4.254988E+04
        87   1  1.277075E+06  3.787967E+05  3.999079E+05 -7.072369E+04 -9.831312E+03 -5.226968E+04
        87   2  1.416496E+06  4.098194E+05  4.553102E+05 -3.401970E+04 -5.837636E+04 -5.693602E+04
        87   3  1.593706E+06  5.523190E+05  5.708807E+05 -1.087445E+05 -1.070570E+05 -1.930424E+04
        87   4 -2.736870E+05 -5.095132E+03  3.042362E+04 -8.403059E+04 -2.340953E+04 -5.229410E+04
        87   5 -2.907130E+05 -1.273927E+04  4.835313E+04 -2.843880E+04 -4.951081E+04 -5.692770E+04
        87   6 -2.737785E+05  8.736193E+04  1.109710E+05 -8.428893E+04 -7.573411E+04 -1.921471E+04
        87   7 -1.822245E+06 -3.891599E+05 -3.392286E+05 -9.730465E+04 -3.695398E+04 -5.231798E+04
        87   8 -1.995252E+06 -4.355082E+05 -3.588083E+05 -2.287469E+04 -4.066934E+04 -5.691922E+04
        87   9 -2.138091E+06 -3.778516E+05 -3.491921E+05 -5.990911E+04 -4.450482E+04 -1.912260E+04
        87  10  1.277074E+06  3.787937E+05  3.999026E+05 -7.072410E+04 -5.370236E-10  9.354202E-10
        87  11  1.416492E+06  4.098150E+05  4.552977E+05 -3.402238E+04 -8.342281E-10  5.647222E-10
        87  12  1.593694E+06  5.523156E+05  5.708585E+05 -1.087462E+05  9.046648E-10 -4.364134E-10
        87  13 -2.736883E+05 -5.098216E+03  3.041745E+04 -8.403158E+04  1.967387E-10  1.698252E-10
        87  14 -2.907165E+05 -1.274340E+04  4.834244E+04 -2.844107E+04  1.090277E-09 -4.670128E-11
        87  15 -2.737847E+05  8.735999E+04  1.109595E+05 -8.429010E+04 -1.305380E-09  1.556619E-10
        87  16 -1.822247E+06 -3.891632E+05 -3.392364E+05 -9.730620E+04 -2.369568E-11 -3.419310E-10
        87  17 -1.995255E+06 -4.355122E+05 -3.588175E+05 -2.287655E+04 -4.484654E-10  8.388733E-10
        87  18 -2.138094E+06 -3.778525E+05 -3.491966E+05 -5.990979E+04 -2.779653E-09 -9.349200E-12
        87  19  1.277075E+06  3.787967E+05  3.999079E+05 -7.072369E+04  9.831312E+03  5.226968E+04
        87  20  1.416496E+06  4.098194E+05  4.553102E+05 -3.401970E+04  5.837636E+04  5.693602E+04
        87  21  1.593706E+06  5.523190E+05  5.708807E+05 -1.087445E+05  1.070570E+05  1.930424E+04
        87  22 -2.736870E+05 -5.095132E+03  3.042362E+04 -8.403059E+04  2.340953E+04  5.229410E+04
        87  23 -2.907130E+05 -1.273927E+04  4.835313E+04 -2.843880E+04  4.951081E+04  5.692770E+04
        87  24 -2.737785E+05  8.736193E+04  1.109710E+05 -8.428893E+04  7.573411E+04  1.921471E+04
        87  25 -1.822245E+06 -3.891599E+05 -3.392286E+05 -9.730465E+04  3.695398E+04  5.231798E+04
        87  26 -1.995252E+06 -4.355082E+05 -3.588083E+05 -2.287469E+04  4.066934E+04  5.691922E+04
        87  27 -2.138091E+06 -3.778516E+05 -3.491921E+05 -5.990911E+04  4.450482E+04  1.912260E+04
        88   1  3.495990E+05  7.136408E+05  3.708729E+05 -2.213170E+05  8.016880E+03  1.017263E+05
        88   2  1.445502E+05  3.447063E+05  2.061064E+05 -7.232177E+04  2.101332E+04  5.859094E+04
        88   3  6.703964E+04  1.027872E+04  1.006780E+05 -1.727776E+05  8.105642E+03  1.532959E+04
        88   4  1.027246E+05 -2.746302E+05  1.267461E+05 -1.843838E+05  8.098772E+03  8.806430E+04
        88   5 -1.296689E+04 -2.906339E+05  5.459403E+04 -5.995047E+04  2.101527E+04  5.866263E+04
        88   6 -3.416642E+03 -2.745609E+05  3.231824E+04 -1.849701E+05  8.019184E+03  2.911029E+04
        88   7 -1.442180E+05 -1.262011E+06 -1.174520E+05 -1.475081E+05  8.179111E+03  7.442387E+04
        88   8 -1.705127E+05 -9.256037E+05 -9.694665E+04 -4.759133E+04  2.101721E+04  5.873423E+04
        88   9 -7.387811E+04 -5.593253E+05 -3.604645E+04 -1.971569E+05  7.932163E+03  4.288470E+04
        88  10  3.495962E+05  7.136297E+05  3.708534E+05 -2.213176E+05  3.196593E-10  8.720620E-11
        88  11  1.445488E+05  3.447025E+05  2.060991E+05 -7.232276E+04  2.577055E-10 -2.749505E-10
        88  12  6.703951E+04  1.027845E+04  1.006774E+05 -1.727777E+05 -2.010205E-09 -4.664330E-10
        88  13  1.027225E+05 -2.746385E+05  1.267314E+05 -1.843844E+05 -2.834900E-09  1.887068E-11
        88  14 -1.296829E+04 -2.906377E+05  5.458673E+04 -5.995146E+04  1.637841E-09  1.658381E-10
        88  15 -3.416939E+03 -2.745618E+05  3.231653E+04 -1.849703E+05 -1.312238E-09  1.560755E-10
        88  16 -1.442196E+05 -1.262017E+06 -1.174626E+05 -1.475086E+05 -1.293277E-09 -5.215822E-11
        88  17 -1.705141E+05 -9.256075E+05 -9.695397E+04 -4.759233E+04 -1.275679E-09  3.394243E-10
        88  18 -7.387867E+04 -5.593273E+05 -3.605002E+04 -1.971571E+05  8.654669E-10  3.310571E-10
        88  19  3.495990E+05  7.136408E+05  3.708729E+05 -2.213170E+05 -8.016880E+03 -1.017263E+05
        88  20  1.445502E+05  3.447063E+05  2.061064E+05 -7.232177E+04 -2.101332E+04 -5.859094E+04
        88  21  6.703964E+04  1.027872E+04  1.006780E+05 -1.727776E+05 -8.105642E+03 -1.532959E+04
        88  22  1.027246E+05 -2.746302E+05  1.267461E+05 -1.843838E+05 -8.098772E+03 -8.806430E+04
        88  23 -1.296689E+04 -2.906339E+05  5.459403E+04 -5.995047E+04 -2.101527E+04 -5.866263E+04
        88  24 -3.416642E+03 -2.745609E+05  3.231824E+04 -1.849701E+05 -8.019184E+03 -2.911029E+04
        88  25 -1.442180E+05 -1.262011E+06 -1.174520E+05 -1.475081E+05 -8.179111E+03 -7.442387E+04
        88  26 -1.705127E+05 -9.256037E+05 -9.694665E+04 -4.759133E+04 -2.101721E+04 -5.873423E+04
        88  27 -7.387811E+04 -5.593253E+05 -3.604645E+04 -1.971569E+05 -7.932163E+03 -4.288470E+04
        89   1 -2.838118E+04 -4.473452E+05 -1.480431E+04 -1.865343E+05 -4.555497E+03  1.709995E+04
        89   2 -1.283861E+05 -7.987686E+05 -1.146866E+05 -5.855699E+04 -1.709175E+04  1.333904E+04
        89   3 -2.181289E+05 -1.150319E+06 -2.102873E+05 -1.811052E+05 -2.805752E+04  9.602760E+03
        89   4  1.271317E+04 -2.816904E+05  2.509171E+04 -1.849697E+05 -4.599682E+03  2.414972E+04
        89   5 -2.025326E+02 -2.816831E+05  8.817488E+03 -5.975984E+04 -1.712743E+04  1.956019E+04
        89   6 -2.704264E+03 -2.817679E+05 -2.587198E+03 -1.850611E+05 -2.808561E+04  1.499325E+04
        89   7  5.380556E+04 -1.160103E+05  6.498596E+04 -1.834047E+05 -4.643824E+03  3.120137E+04
        89   8  1.279617E+05  2.356479E+05  1.323029E+05 -6.096333E+04 -1.716311E+04  2.578650E+04
        89   9  2.126657E+05  5.874762E+05  2.050597E+05 -1.890216E+05 -2.811375E+04  2.039125E+04
        89  10 -2.838128E+04 -4.473455E+05 -1.480490E+04 -1.865342E+05 -9.480527E-10  1.485110E-09
        89  11 -1.283864E+05 -7.987688E+05 -1.146875E+05 -5.855681E+04  1.240959E-09  2.112188E-10
        89  12 -2.181297E+05 -1.150320E+06 -2.102889E+05 -1.811049E+05  2.402666E-09 -5.557844E-10
        89  13  1.271299E+04 -2.816910E+05  2.509057E+04 -1.849696E+05  1.091647E-10  2.274665E-10
        89  14 -2.029502E+02 -2.816835E+05  8.816218E+03 -5.975957E+04  4.208907E-10  8.022941E-11
        89  15 -2.705171E+03 -2.817684E+05 -2.589102E+03 -1.850608E+05  1.990922E-09  2.439526E-12
        89  16  5.380528E+04 -1.160114E+05  6.498409E+04 -1.834046E+05 -2.371793E-09 -1.407085E-09
        89  17  1.279612E+05  2.356472E+05  1.323011E+05 -6.096297E+04  1.203728E-09  1.506824E-11
        89  18  2.126647E+05  5.874755E+05  2.050575E+05 -1.890211E+05 -2.194961E-09  6.624619E-10
        89  19 -2.838118E+04 -4.473452E+05 -1.480431E+04 -1.865343E+05  4.555497E+03 -1.709995E+04
        89  20 -1.283861E+05 -7.987686E+05 -1.146866E+05 -5.855699E+04  1.709175E+04 -1.333904E+04
        89  21 -2.181289E+05 -1.150319E+06 -2.102873E+05 -1.811052E+05  2.805752E+04 -9.602760E+03
        89  22  1.271317E+04 -2.816904E+05  2.509171E+04 -1.849697E+05  4.599682E+03 -2.414972E+04
        89  23 -2.025326E+02 -2.816831E+05  8.817488E+03 -5.975984E+04  1.712743E+04 -1.956019E+04
        89  24 -2.704264E+03 -2.817679E+05 -2.587198E+03 -1.850611E+05  2.808561E+04 -1.499325E+04
        89  25  5.380556E+04 -1.160103E+05  6.498596E+04 -1.834047E+05  4.643824E+03 -3.120137E+04
        89  26  1.279617E+05  2.356479E+05  1.323029E+05 -6.096333E+04  1.716311E+04 -2.578650E+04
        89  27  2.126657E+05  5.874762E+05  2.050597E+05 -1.890216E+05  2.811375E+04 -2.039125E+04
        90   1 -3.220610E+05 -1.602425E+06 -3.217719E+05 -1.742708E+05 -4.349891E+04 -3.520480E+03
        90   2 -4.083146E+05 -1.944956E+06 -4.167346E+05 -5.875743E+04 -5.582832E+04  3.205819E+04
        90   3 -5.417317E+05 -2.303518E+06 -5.466827E+05 -1.918715E+05 -1.981076E+04  6.780455E+04
        90   4  4.868083E+03 -2.846093E+05 -6.889456E+03 -1.845457E+05 -4.359481E+04  1.564035E+04
        90   5  4.909024E+03 -2.788942E+05 -1.881284E+04 -6.032877E+04 -5.579136E+04  2.578440E+04
        90   6 -3.770898E+04 -2.848504E+05 -4.798048E+04 -1.847037E+05 -1.969719E+04  3.611711E+04
        90   7  3.316718E+05  1.034803E+06  3.078720E+05 -1.948403E+05 -4.369124E+04  3.484173E+04
        90   8  4.179316E+05  1.389719E+06  3.789136E+05 -6.190153E+04 -5.575443E+04  1.949373E+04
        90   9  4.660100E+05  1.737533E+06  4.504232E+05 -1.775087E+05 -1.958455E+04  4.326318E+03
        90  10 -3.220631E+05 -1.602426E+06 -3.217755E+05 -1.742710E+05  2.172013E-11  9.991893E-10
        90  11 -4.083182E+05 -1.944958E+06 -4.167424E+05 -5.875599E+04  8.002322E-10  4.607753E-10
        90  12 -5.417334E+05 -2.303523E+06 -5.466921E+05 -1.918704E+05  9.494333E-10 -1.808798E-10
        90  13  4.865977E+03 -2.846101E+05 -6.893486E+03 -1.845452E+05 -1.897373E-09 -1.388557E-12
        90  14  4.905503E+03 -2.788958E+05 -1.881993E+04 -6.032761E+04  7.504925E-10 -4.302122E-11
        90  15 -3.770974E+04 -2.848519E+05 -4.798366E+04 -1.847031E+05 -7.699842E-10  4.341693E-11
        90  16  3.316694E+05  1.034801E+06  3.078661E+05 -1.948390E+05 -2.385034E-10 -1.016265E-09
        90  17  4.179282E+05  1.389718E+06  3.789070E+05 -6.190066E+04  2.175057E-10 -3.451864E-10
        90  18  4.660096E+05  1.737533E+06  4.504225E+05 -1.775087E+05  1.295808E-09  1.368169E-10
        90  19 -3.220610E+05 -1.602425E+06 -3.217719E+05 -1.742708E+05  4.349891E+04  3.520480E+03
        90  20 -4.083146E+05 -1.944956E+06 -4.167346E+05 -5.875743E+04  5.582832E+04 -3.205819E+04
        90  21 -5.417317E+05 -2.303518E+06 -5.466827E+05 -1.918715E+05  1.981076E+04 -6.780455E+04
        90  22  4.868083E+03 -2.846093E+05 -6.889456E+03 -1.845457E+05  4.359481E+04 -1.564035E+04
        90  23  4.909024E+03 -2.788942E+05 -1.881284E+04 -6.032877E+04  5.579136E+04 -2.578440E+04
        90  24 -3.770898E+04 -2.848504E+05 -4.798048E+04 -1.847037E+05  1.969719E+04 -3.611711E+04
        90  25  3.316718E+05  1.034803E+06  3.078720E+05 -1.948403E+05  4.369124E+04 -3.484173E+04
        90  26  4.179316E+05  1.389719E+06  3.789136E+05 -6.190153E+04  5.575443E+04 -1.949373E+04
        90  27  4.660100E+05  1.737533E+06  4.504232E+05 -1.775087E+05  1.958455E+04 -4.326318E+03
        91   1 -4.811533E+06 -1.611883E+06 -1.019440E+06 -1.679377E+06 -4.173832E+05 -1.399132E+05
        91   2 -4.678592E+06 -9.875153E+05 -6.290411E+05 -1.710416E+06 -2.734749E+05 -4.705253E+04
        91   3 -4.730567E+06 -9.597388E+05 -5.073501E+05 -1.645530E+06 -1.158191E+05  9.725143E+03
        91   4 -3.417641E+06 -9.429976E+05 -6.108458E+05 -1.157049E+06 -3.927697E+05 -1.306683E+05
        91   5 -3.294450E+06 -4.232403E+05 -2.551772E+05 -1.289699E+06 -2.662966E+05 -4.435979E+04
        91   6 -3.352220E+06 -4.958720E+05 -1.538585E+05 -1.326563E+06 -1.260984E+05  5.840909E+03
        91   7 -2.021815E+06 -2.736330E+05 -2.024425E+05 -6.335397E+05 -3.680942E+05 -1.213859E+05
        91   8 -1.908433E+06  1.412407E+05  1.185145E+05 -8.680958E+05 -2.591000E+05 -4.165890E+04
        91   9 -1.972020E+06 -3.197792E+04  1.994818E+05 -1.006994E+06 -1.364027E+05  1.949608E+03
        91  10 -4.811727E+06 -1.611951E+06 -1.019807E+06 -1.679424E+06  1.011202E-09 -2.783173E-10
        91  11 -4.678673E+06 -9.875379E+05 -6.291870E+05 -1.710427E+06  2.273126E-09 -4.037685E-10
        91  12 -4.730581E+06 -9.597426E+05 -5.073756E+05 -1.645529E+06 -1.690436E-09 -3.543515E-10
        91  13 -3.417812E+06 -9.430578E+05 -6.111698E+05 -1.157091E+06 -2.863027E-09 -3.222806E-12
        91  14 -3.294527E+06 -4.232616E+05 -2.553149E+05 -1.289708E+06 -9.082580E-10  2.611415E-11
        91  15 -3.352237E+06 -4.958763E+05 -1.538886E+05 -1.326563E+06 -1.414130E-09  3.776153E-10
        91  16 -2.021965E+06 -2.736855E+05 -2.027258E+05 -6.335758E+05  1.565822E-09  1.305451E-10
        91  17 -1.908506E+06  1.412207E+05  1.183846E+05 -8.681045E+05  5.013477E-09  5.435747E-10
        91  18 -1.972040E+06 -3.198293E+04  1.994468E+05 -1.006994E+06  7.871241E-11  8.855028E-10
        91  19 -4.811533E+06 -1.611883E+06 -1.019440E+06 -1.679377E+06  4.173832E+05  1.399132E+05
        91  20 -4.678592E+06 -9.875153E+05 -6.290411E+05 -1.710416E+06  2.734749E+05  4.705253E+04
        91  21 -4.730567E+06 -9.597388E+05 -5.073501E+05 -1.645530E+06  1.158191E+05 -9.725143E+03
        91  22 -3.417641E+06 -9.429976E+05 -6.108458E+05 -1.157049E+06  3.927697E+05  1.306683E+05
        91  23 -3.294450E+06 -4.232403E+05 -2.551772E+05 -1.289699E+06  2.662966E+05  4.435979E+04
        91  24 -3.352220E+06 -4.958720E+05 -1.538585E+05 -1.326563E+06  1.260984E+05 -5.840909E+03
        91  25 -2.021815E+06 -2.736330E+05 -2.024425E+05 -6.335397E+05  3.680942E+05  1.213859E+05
        91  26 -1.908433E+06  1.412407E+05  1.185145E+05 -8.680958E+05  2.591000E+05  4.165890E+04
        91  27 -1.972020E+06 -3.197792E+04  1.994818E+05 -1.006994E+06  1.364027E+05 -1.949608E+03
        92   1 -4.531923E+06 -1.029603E+06 -4.465466E+05 -1.636130E+06 -1.016007E+05  6.719619E+03
        92   2 -4.451124E+06 -9.024829E+05 -3.543669E+05 -1.584943E+06 -6.834603E+04  1.761540E+04
        92   3 -4.339744E+06 -8.904583E+05 -3.025423E+05 -1.582063E+06 -3.392295E+04  2.540164E+04
        92   4 -3.329960E+06 -5.616544E+05 -1.250983E+05 -1.293428E+06 -1.016725E+05  6.683652E+03
        92   5 -3.341919E+06 -4.802517E+05 -6.022812E+04 -1.278306E+06 -6.988522E+04  1.702938E+04
        92   6 -3.322967E+06 -5.135766E+05 -3.448127E+04 -1.311497E+06 -3.693589E+04  2.426495E+04
        92   7 -2.126592E+06 -9.359368E+04  1.962216E+05 -9.501143E+05 -1.017443E+05  6.647693E+03
        92   8 -2.231515E+06 -5.793906E+04  2.338037E+05 -9.711681E+05 -7.142736E+04  1.644224E+04
        92   9 -2.305182E+06 -1.366395E+05  2.334918E+05 -1.040532E+06 -3.995425E+04  2.312629E+04
        92  10 -4.531935E+06 -1.029606E+06 -4.465662E+05 -1.636129E+06 -6.743970E-12  4.814450E-10
        92  11 -4.451129E+06 -9.024845E+05 -3.543763E+05 -1.584942E+06 -9.193899E-10  2.413702E-10
        92  12 -4.339746E+06 -8.904593E+05 -3.025457E+05 -1.582062E+06 -1.475535E-09 -5.449890E-10
        92  13 -3.329971E+06 -5.616572E+05 -1.251179E+05 -1.293427E+06 -1.654196E-09  3.554600E-10
        92  14 -3.341924E+06 -4.802534E+05 -6.023788E+04 -1.278305E+06 -4.098165E-11 -2.921167E-10
        92  15 -3.322969E+06 -5.135775E+05 -3.448495E+04 -1.311497E+06 -2.379598E-09 -1.834767E-09
        92  16 -2.126603E+06 -9.359652E+04  1.962020E+05 -9.501137E+05 -5.983518E-10  8.190872E-10
        92  17 -2.231521E+06 -5.794072E+04  2.337936E+05 -9.711672E+05 -1.429168E-10 -6.369496E-10
        92  18 -2.305184E+06 -1.366405E+05  2.334878E+05 -1.040531E+06 -1.231275E-09 -2.314386E-09
        92  19 -4.531923E+06 -1.029603E+06 -4.465466E+05 -1.636130E+06  1.016007E+05 -6.719619E+03
        92  20 -4.451124E+06 -9.024829E+05 -3.543669E+05 -1.584943E+06  6.834603E+04 -1.761540E+04
        92  21 -4.339744E+06 -8.904583E+05 -3.025423E+05 -1.582063E+06  3.392295E+04 -2.540164E+04
        92  22 -3.329960E+06 -5.616544E+05 -1.250983E+05 -1.293428E+06  1.016725E+05 -6.683652E+03
        92  23 -3.341919E+06 -4.802517E+05 -6.022812E+04 -1.278306E+06  6.988522E+04 -1.702938E+04
        92  24 -3.322967E+06 -5.135766E+05 -3.448127E+04 -1.311497E+06  3.693589E+04 -2.426495E+04
        92  25 -2.126592E+06 -9.359368E+04  1.962216E+05 -9.501143E+05  1.017443E+05 -6.647693E+03
        92  26 -2.231515E+06 -5.793906E+04  2.338037E+05 -9.711681E+05  7.142736E+04 -1.644224E+04
        92  27 -2.305182E+06 -1.366395E+05  2.334918E+05 -1.040532E+06  3.995425E+04 -2.312629E+04
        93   1 -4.179231E+06 -8.474444E+05 -2.543801E+05 -1.545414E+06 -2.851957E+04  2.376153E+04
        93   2 -4.094448E+06 -7.649282E+05 -2.110982E+05 -1.477736E+06 -1.937299E+04  2.169172E+04
        93   3 -3.947992E+06 -7.530355E+05 -1.748604E+05 -1.482107E+06 -1.006562E+04  1.916984E+04
        93   4 -3.318682E+06 -5.222076E+05 -2.694425E+04 -1.309797E+06 -3.079837E+04  2.290246E+04
        93   5 -3.349133E+06 -4.842581E+05 -1.405989E+04 -1.274762E+06 -2.186362E+04  2.075547E+04
        93   6 -3.317881E+06 -5.168786E+05 -8.041788E+03 -1.311774E+06 -1.276970E+04  1.815615E+04
        93   7 -2.457412E+06 -1.969243E+05  2.004276E+05 -1.073884E+06 -3.308065E+04  2.204208E+04
        93   8 -2.603279E+06 -2.035547E+05  1.829302E+05 -1.071567E+06 -2.435754E+04  1.981799E+04
        93   9 -2.687386E+06 -2.806994E+05  1.587420E+05 -1.141285E+06 -1.547680E+04  1.714133E+04
        93  10 -4.179232E+06 -8.474452E+05 -2.543827E+05 -1.545413E+06 -1.453574E-09 -7.812830E-10
        93  11 -4.094448E+06 -7.649288E+05 -2.110998E+05 -1.477736E+06 -1.646619E-09 -1.589521E-10
        93  12 -3.947992E+06 -7.530359E+05 -1.748613E+05 -1.482107E+06 -1.478922E-09  1.110595E-10
        93  13 -3.318683E+06 -5.222084E+05 -2.694702E+04 -1.309797E+06  1.726263E-10 -1.116440E-09
        93  14 -3.349134E+06 -4.842587E+05 -1.406159E+04 -1.274762E+06 -2.063291E-09 -1.227741E-11
        93  15 -3.317881E+06 -5.168790E+05 -8.042713E+03 -1.311774E+06 -2.661404E-09 -1.810699E-11
        93  16 -2.457413E+06 -1.969251E+05  2.004247E+05 -1.073883E+06 -3.169478E-10 -9.223207E-10
        93  17 -2.603280E+06 -2.035553E+05  1.829283E+05 -1.071567E+06 -4.302220E-09 -3.226792E-10
        93  18 -2.687387E+06 -2.806998E+05  1.587410E+05 -1.141285E+06 -2.599811E-10 -1.166213E-10
        93  19 -4.179231E+06 -8.474444E+05 -2.543801E+05 -1.545414E+06  2.851957E+04 -2.376153E+04
        93  20 -4.094448E+06 -7.649282E+05 -2.110982E+05 -1.477736E+06  1.937299E+04 -2.169172E+04
        93  21 -3.947992E+06 -7.530355E+05 -1.748604E+05 -1.482107E+06  1.006562E+04 -1.916984E+04
        93  22 -3.318682E+06 -5.222076E+05 -2.694425E+04 -1.309797E+06  3.079837E+04 -2.290246E+04
        93  23 -3.349133E+06 -4.842581E+05 -1.405989E+04 -1.274762E+06  2.186362E+04 -2.075547E+04
        93  24 -3.317881E+06 -5.168786E+05 -8.041788E+03 -1.311774E+06  1.276970E+04 -1.815615E+04
        93  25 -2.457412E+06 -1.969243E+05  2.004276E+05 -1.073884E+06  3.308065E+04 -2.204208E+04
        93  26 -2.603279E+06 -2.035547E+05  1.829302E+05 -1.071567E+06  2.435754E+04 -1.981799E+04
        93  27 -2.687386E+06 -2.806994E+05  1.587420E+05 -1.141285E+06  1.547680E+04 -1.714133E+04
        94   1 -3.777561E+06 -6.919459E+05 -1.277123E+05 -1.437946E+06 -7.724661E+03  1.640322E+04
        94   2 -3.686600E+06 -6.094747E+05 -9.262573E+04 -1.364133E+06 -3.622044E+03  1.166748E+04
        94   3 -3.526803E+06 -5.970554E+05 -5.925139E+04 -1.369800E+06  5.221038E+02  6.808469E+03
        94   4 -3.316520E+06 -5.187291E+05 -6.356273E+03 -1.312665E+06 -1.040167E+04  1.540097E+04
        94   5 -3.350874E+06 -4.833962E+05 -3.955998E+03 -1.273034E+06 -6.358184E+03  1.064423E+04
        94   6 -3.316401E+06 -5.181020E+05 -3.219876E+03 -1.312885E+06 -2.273672E+03  5.764170E+03
        94   7 -2.855270E+06 -3.454986E+05  1.149822E+05 -1.187298E+06 -1.308089E+04  1.439789E+04
        94   8 -3.015040E+06 -3.573113E+05  8.470389E+04 -1.181889E+06 -9.095952E+03  9.620378E+03
        94   9 -3.105959E+06 -4.391468E+05  5.280733E+04 -1.255953E+06 -5.070470E+03  4.719490E+03
        94  10 -3.777561E+06 -6.919462E+05 -1.277130E+05 -1.437946E+06 -1.901186E-09 -4.293990E-10
        94  11 -3.686600E+06 -6.094748E+05 -9.262601E+04 -1.364133E+06  1.493752E-09 -5.056054E-11
        94  12 -3.526803E+06 -5.970554E+05 -5.925148E+04 -1.369800E+06 -2.614291E-09  6.355258E-10
        94  13 -3.316520E+06 -5.187294E+05 -6.356921E+03 -1.312664E+06  9.260647E-10 -4.722214E-10
        94  14 -3.350874E+06 -4.833964E+05 -3.956286E+03 -1.273034E+06  1.812035E-09  4.166656E-10
        94  15 -3.316401E+06 -5.181021E+05 -3.219948E+03 -1.312885E+06 -3.170598E-10  8.402369E-10
        94  16 -2.855271E+06 -3.454988E+05  1.149815E+05 -1.187298E+06  1.624881E-09  3.938551E-10
        94  17 -3.015040E+06 -3.573114E+05  8.470356E+04 -1.181889E+06  8.107836E-10 -1.897378E-10
        94  18 -3.105959E+06 -4.391468E+05  5.280724E+04 -1.255953E+06 -2.251857E-10  4.491754E-10
        94  19 -3.777561E+06 -6.919459E+05 -1.277123E+05 -1.437946E+06  7.724661E+03 -1.640322E+04
        94  20 -3.686600E+06 -6.094747E+05 -9.262573E+04 -1.364133E+06  3.622044E+03 -1.166748E+04
        94  21 -3.526803E+06 -5.970554E+05 -5.925139E+04 -1.369800E+06 -5.221038E+02 -6.808469E+03
        94  22 -3.316520E+06 -5.187291E+05 -6.356273E+03 -1.312665E+06  1.040167E+04 -1.540097E+04
        94  23 -3.350874E+06 -4.833962E+05 -3.955998E+03 -1.273034E+06  6.358184E+03 -1.064423E+04
        94  24 -3.316401E+06 -5.181020E+05 -3.219876E+03 -1.312885E+06  2.273672E+03 -5.764170E+03
        94  25 -2.855270E+06 -3.454986E+05  1.149822E+05 -1.187298E+06  1.308089E+04 -1.439789E+04
        94  26 -3.015040E+06 -3.573113E+05  8.470389E+04 -1.181889E+06  9.095952E+03 -9.620378E+03
        94  27 -3.105959E+06 -4.391468E+05  5.280733E+04 -1.255953E+06  5.070470E+03 -4.719490E+03
        95   1 -3.349892E+06 -5.310370E+05 -1.172434E+04 -1.322477E+06  2.304922E+03  3.692352E+03
        95   2 -3.257318E+06 -4.478294E+05  2.047708E+04 -1.247233E+06  6.554817E+03 -1.187297E+03
        95   3 -3.094983E+06 -4.358861E+05  5.084587E+04 -1.252837E+06  1.078978E+04 -6.021514E+03
        95   4 -3.316181E+06 -5.183595E+05 -3.289872E+03 -1.313190E+06 -4.990310E+02  2.645314E+03
        95   5 -3.351096E+06 -4.830143E+05 -4.279067E+03 -1.272655E+06  3.772474E+03 -2.226651E+03
        95   6 -3.316270E+06 -5.189396E+05 -7.116937E+03 -1.312977E+06  8.028554E+03 -7.053298E+03
        95   7 -3.282469E+06 -5.056818E+05  5.144576E+03 -1.303902E+06 -3.303162E+03  1.598209E+03
        95   8 -3.444867E+06 -5.181989E+05 -2.903611E+04 -1.298074E+06  9.905761E+02 -3.265838E+03
        95   9 -3.537511E+06 -6.019910E+05 -6.508445E+04 -1.373097E+06  5.268384E+03 -8.084687E+03
        95  10 -3.349892E+06 -5.310370E+05 -1.172438E+04 -1.322477E+06 -1.307990E-09  1.861745E-10
        95  11 -3.257318E+06 -4.478294E+05  2.047699E+04 -1.247233E+06  3.934988E-10 -6.617965E-10
        95  12 -3.094983E+06 -4.358861E+05  5.084559E+04 -1.252837E+06 -9.220914E-10 -3.120617E-10
        95  13 -3.316181E+06 -5.183595E+05 -3.289886E+03 -1.313190E+06 -1.805151E-09  3.722907E-10
        95  14 -3.351096E+06 -4.830143E+05 -4.279103E+03 -1.272655E+06  3.937873E-10 -6.763160E-10
        95  15 -3.316270E+06 -5.189397E+05 -7.117152E+03 -1.312977E+06  9.976033E-10 -2.996296E-10
        95  16 -3.282469E+06 -5.056818E+05  5.144551E+03 -1.303902E+06  2.157348E-11  2.459997E-10
        95  17 -3.444867E+06 -5.181989E+05 -2.903613E+04 -1.298074E+06 -1.004259E-09 -8.574342E-10
        95  18 -3.537511E+06 -6.019911E+05 -6.508463E+04 -1.373097E+06  2.133246E-09  1.173215E-10
        95  19 -3.349892E+06 -5.310370E+05 -1.172434E+04 -1.322477E+06 -2.304922E+03 -3.692352E+03
        95  20 -3.257318E+06 -4.478294E+05  2.047708E+04 -1.247233E+06 -6.554817E+03  1.187297E+03
        95  21 -3.094983E+06 -4.358861E+05  5.084587E+04 -1.252837E+06 -1.078978E+04  6.021514E+03
        95  22 -3.316181E+06 -5.183595E+05 -3.289872E+03 -1.313190E+06  4.990310E+02 -2.645314E+03
        95  23 -3.351096E+06 -4.830143E+05 -4.279067E+03 -1.272655E+06 -3.772474E+03  2.226651E+03
        95  24 -3.316270E+06 -5.189396E+05 -7.116937E+03 -1.312977E+06 -8.028554E+03  7.053298E+03
        95  25 -3.282469E+06 -5.056818E+05  5.144576E+03 -1.303902E+06  3.303162E+03 -1.598209E+03
        95  26 -3.444867E+06 -5.181989E+05 -2.903611E+04 -1.298074E+06 -9.905761E+02  3.265838E+03
        95  27 -3.537511E+06 -6.019910E+05 -6.508445E+04 -1.373097E+06 -5.268384E+03  8.084687E+03
        96   1 -2.921069E+06 -3.695853E+05  9.580847E+04 -1.206152E+06  1.338340E+04 -8.809112E+03
        96   2 -2.832098E+06 -2.884053E+05  1.207798E+05 -1.132809E+06  2.335069E+04 -1.135006E+04
        96   3 -2.678988E+06 -2.820266E+05  1.379566E+05 -1.135387E+06  3.319346E+04 -1.353373E+04
        96   4 -3.317250E+06 -5.175196E+05 -9.096378E+03 -1.312726E+06  1.058538E+04 -9.855400E+03
        96   5 -3.349743E+06 -4.830779E+05 -1.592601E+04 -1.273658E+06  2.072080E+04 -1.233530E+04
        96   6 -3.318145E+06 -5.234794E+05 -3.068804E+04 -1.310521E+06  3.072997E+04 -1.445838E+04
        96   7 -3.713277E+06 -6.654438E+05 -1.140139E+05 -1.419237E+06  7.789351E+03 -1.090095E+04
        96   8 -3.867126E+06 -6.777333E+05 -1.526542E+05 -1.414400E+06  1.809334E+04 -1.331962E+04
        96   9 -3.956904E+06 -7.649060E+05 -1.993677E+05 -1.485491E+06  2.826926E+04 -1.538197E+04
        96  10 -2.921069E+06 -3.695854E+05  9.580799E+04 -1.206152E+06 -7.463314E-10  4.306897E-10
        96  11 -2.832098E+06 -2.884056E+05  1.207785E+05 -1.132808E+06  5.563880E-10 -5.062689E-10
        96  12 -2.678989E+06 -2.820271E+05  1.379542E+05 -1.135387E+06 -9.311927E-10 -1.825710E-10
        96  13 -3.317251E+06 -5.175197E+05 -9.096771E+03 -1.312726E+06 -1.631257E-10 -3.424080E-10
        96  14 -3.349743E+06 -4.830781E+05 -1.592711E+04 -1.273657E+06 -2.833913E-09 -1.643466E-09
        96  15 -3.318146E+06 -5.234798E+05 -3.069022E+04 -1.310521E+06 -2.494105E-09 -7.306596E-10
        96  16 -3.713277E+06 -6.654439E+05 -1.140142E+05 -1.419237E+06  1.196028E-10  4.262223E-10
        96  17 -3.867126E+06 -6.777336E+05 -1.526552E+05 -1.414399E+06 -3.945885E-10 -9.881566E-10
        96  18 -3.956905E+06 -7.649065E+05 -1.993696E+05 -1.485490E+06 -1.343886E-09 -8.983942E-10
        96  19 -2.921069E+06 -3.695853E+05  9.580847E+04 -1.206152E+06 -1.338340E+04  8.809112E+03
        96  20 -2.832098E+06 -2.884053E+05  1.207798E+05 -1.132809E+06 -2.335069E+04  1.135006E+04
        96  21 -2.678988E+06 -2.820266E+05  1.379566E+05 -1.135387E+06 -3.319346E+04  1.353373E+04
        96  22 -3.317250E+06 -5.175196E+05 -9.096378E+03 -1.312726E+06 -1.058538E+04  9.855400E+03
        96  23 -3.349743E+06 -4.830779E+05 -1.592601E+04 -1.273658E+06 -2.072080E+04  1.233530E+04
        96  24 -3.318145E+06 -5.234794E+05 -3.068804E+04 -1.310521E+06 -3.072997E+04  1.445838E+04
        96  25 -3.713277E+06 -6.654438E+05 -1.140139E+05 -1.419237E+06 -7.789351E+03  1.090095E+04
        96  26 -3.867126E+06 -6.777333E+05 -1.526542E+05 -1.414400E+06 -1.809334E+04  1.331962E+04
        96  27 -3.956904E+06 -7.649060E+05 -1.993677E+05 -1.485491E+06 -2.826926E+04  1.538197E+04
        97   1 -2.514807E+06 -2.180060E+05  1.729300E+05 -1.101133E+06  4.076632E+04 -1.455922E+04
        97   2 -2.433167E+06 -1.313655E+05  1.722831E+05 -1.024772E+06  7.688212E+04 -6.631284E+03
        97   3 -2.319278E+06 -1.728378E+05  1.279723E+05 -1.001165E+06  1.119639E+05  4.095246E+03
        97   4 -3.322379E+06 -5.143984E+05 -3.930973E+04 -1.313278E+06  3.762511E+04 -1.573905E+04
        97   5 -3.342306E+06 -4.775517E+05 -6.855818E+04 -1.276642E+06  7.506595E+04 -7.317802E+03
        97   6 -3.330302E+06 -5.691583E+05 -1.425778E+05 -1.292767E+06  1.114658E+05  3.900155E+03
        97   7 -4.129320E+06 -8.107605E+05 -2.516057E+05 -1.525178E+06  3.448837E+04 -1.691730E+04
        97   8 -4.250642E+06 -8.236831E+05 -3.094716E+05 -1.528176E+06  7.325265E+04 -8.003221E+03
        97   9 -4.340331E+06 -9.653938E+05 -4.132183E+05 -1.583930E+06  1.109685E+05  3.705375E+03
        97  10 -2.514809E+06 -2.180067E+05  1.729265E+05 -1.101132E+06 -8.325133E-10  1.202399E-10
        97  11 -2.433173E+06 -1.313671E+05  1.722719E+05 -1.024772E+06 -1.388686E-09 -1.681006E-10
        97  12 -2.319291E+06 -1.728412E+05  1.279486E+05 -1.001166E+06 -9.844872E-10 -2.646140E-10
        97  13 -3.322381E+06 -5.143991E+05 -3.931286E+04 -1.313278E+06 -2.868734E-09 -1.840131E-11
        97  14 -3.342312E+06 -4.775533E+05 -6.856892E+04 -1.276642E+06  7.650932E-10  4.149649E-10
        97  15 -3.330315E+06 -5.691617E+05 -1.426013E+05 -1.292767E+06 -3.427652E-10 -7.243610E-10
        97  16 -4.129322E+06 -8.107611E+05 -2.516085E+05 -1.525177E+06 -1.640321E-09 -1.079618E-09
        97  17 -4.250648E+06 -8.236846E+05 -3.094818E+05 -1.528176E+06  2.129877E-10  2.398932E-10
        97  18 -4.340344E+06 -9.653971E+05 -4.132416E+05 -1.583930E+06 -5.001509E-10 -4.060642E-10
        97  19 -2.514807E+06 -2.180060E+05  1.729300E+05 -1.101133E+06 -4.076632E+04  1.455922E+04
        97  20 -2.433167E+06 -1.313655E+05  1.722831E+05 -1.024772E+06 -7.688212E+04  6.631284E+03
        97  21 -2.319278E+06 -1.728378E+05  1.279723E+05 -1.001165E+06 -1.119639E+05 -4.095246E+03
        97  22 -3.322379E+06 -5.143984E+05 -3.930973E+04 -1.313278E+06 -3.762511E+04  1.573905E+04
        97  23 -3.342306E+06 -4.775517E+05 -6.855818E+04 -1.276642E+06 -7.506595E+04  7.317802E+03
        97  24 -3.330302E+06 -5.691583E+05 -1.425778E+05 -1.292767E+06 -1.114658E+05 -3.900155E+03
        97  25 -4.129320E+06 -8.107605E+05 -2.516057E+05 -1.525178E+06 -3.448837E+04  1.691730E+04
        97  26 -4.250642E+06 -8.236831E+05 -3.094716E+05 -1.528176E+06 -7.325265E+04  8.003221E+03
        97  27 -4.340331E+06 -9.653938E+05 -4.132183E+05 -1.583930E+06 -1.109685E+05 -3.705375E+03
        98   1 -2.144275E+06 -1.039969E+05  1.316067E+05 -1.067703E+06  1.486808E+05  9.704425E+03
        98   2 -2.069035E+06  9.428464E+04  4.000514E+04 -9.081600E+05  2.926923E+05  6.046139E+04
        98   3 -2.195864E+06 -3.804082E+05 -3.286184E+05 -6.418589E+05  4.242962E+05  1.441067E+05
        98   4 -3.355006E+06 -4.948984E+05 -1.753618E+05 -1.331325E+06  1.388655E+05  6.017787E+03
        98   5 -3.289122E+06 -4.114775E+05 -2.906652E+05 -1.288465E+06  2.987693E+05  6.272452E+04
        98   6 -3.428997E+06 -1.005031E+06 -6.960758E+05 -1.138724E+06  4.462458E+05  1.522847E+05
        98   7 -4.564308E+06 -8.857959E+05 -4.824428E+05 -1.594523E+06  1.290711E+05  2.336432E+03
        98   8 -4.507751E+06 -9.170598E+05 -6.214693E+05 -1.668061E+06  3.048326E+05  6.498133E+04
        98   9 -4.660591E+06 -1.629172E+06 -1.063681E+06 -1.634574E+06  4.681466E+05  1.604300E+05
        98  10 -2.144298E+06 -1.040029E+05  1.315649E+05 -1.067704E+06 -1.251025E-09 -1.001528E-09
        98  11 -2.069128E+06  9.425759E+04  3.983662E+04 -9.081743E+05 -8.467561E-10 -5.418404E-11
        98  12 -2.196063E+06 -3.804791E+05 -3.289972E+05 -6.419083E+05  2.657842E-10 -7.426089E-11
        98  13 -3.355027E+06 -4.949036E+05 -1.753983E+05 -1.331326E+06 -1.352032E-09 -6.511644E-10
        98  14 -3.289219E+06 -4.115059E+05 -2.908414E+05 -1.288481E+06 -2.061060E-09 -7.520094E-10
        98  15 -3.429218E+06 -1.005110E+06 -6.964962E+05 -1.138779E+06 -2.990971E-10  2.791221E-10
        98  16 -4.564326E+06 -8.858004E+05 -4.824744E+05 -1.594524E+06  2.461069E-11 -3.499774E-10
        98  17 -4.507852E+06 -9.170896E+05 -6.216534E+05 -1.668077E+06  6.416271E-10 -9.952986E-11
        98  18 -4.660835E+06 -1.629259E+06 -1.064145E+06 -1.634635E+06  1.182699E-09 -3.534977E-10
        98  19 -2.144275E+06 -1.039969E+05  1.316067E+05 -1.067703E+06 -1.486808E+05 -9.704425E+03
        98  20 -2.069035E+06  9.428464E+04  4.000514E+04 -9.081600E+05 -2.926923E+05 -6.046139E+04
        98  21 -2.195864E+06 -3.804082E+05 -3.286184E+05 -6.418589E+05 -4.242962E+05 -1.441067E+05
        98  22 -3.355006E+06 -4.948984E+05 -1.753618E+05 -1.331325E+06 -1.388655E+05 -6.017787E+03
        98  23 -3.289122E+06 -4.114775E+05 -2.906652E+05 -1.288465E+06 -2.987693E+05 -6.272452E+04
        98  24 -3.428997E+06 -1.005031E+06 -6.960758E+05 -1.138724E+06 -4.462458E+05 -1.522847E+05
        98  25 -4.564308E+06 -8.857959E+05 -4.824428E+05 -1.594523E+06 -1.290711E+05 -2.336432E+03
        98  26 -4.507751E+06 -9.170598E+05 -6.214693E+05 -1.668061E+06 -3.048326E+05 -6.498133E+04
        98  27 -4.660591E+06 -1.629172E+06 -1.063681E+06 -1.634574E+06 -4.681466E+05 -1.604300E+05
        99   1 -1.760241E+06 -2.802239E+05 -2.543695E+05 -2.954241E+04  4.646809E+04  1.507275E+04
        99   2 -1.675607E+06 -3.471634E+05 -2.776306E+05 -1.283802E+04  3.910835E+04  4.517524E+04
        99   3 -1.563171E+06 -3.161180E+05 -2.711637E+05 -6.547756E+04  3.184811E+04  4.258943E+04
        99   4 -3.074581E+05  8.217043E+04  1.040885E+05 -5.296694E+04  7.106572E+04  1.514852E+04
        99   5 -3.228089E+05 -1.170446E+04  4.545782E+04 -1.817159E+04  4.643819E+04  4.518655E+04
        99   6 -3.074214E+05 -4.707335E+03  2.850370E+04 -5.270913E+04  2.191230E+04  4.256738E+04
        99   7  1.147251E+06  4.444099E+05  4.623929E+05 -7.644796E+04  9.572081E+04  1.522234E+04
        99   8  1.031671E+06  3.236221E+05  3.684176E+05 -2.351788E+04  5.378388E+04  4.519772E+04
        99   9  9.497771E+05  3.065899E+05  3.280606E+05 -3.991525E+04  1.195641E+04  4.254496E+04
        99  10 -1.760244E+06 -2.802247E+05 -2.543739E+05 -2.954298E+04 -1.658290E-10  5.127997E-10
        99  11 -1.675609E+06 -3.471660E+05 -2.776373E+05 -1.283945E+04 -3.211572E-09 -8.000508E-10
        99  12 -1.563172E+06 -3.161203E+05 -2.711690E+05 -6.547866E+04 -1.647595E-09 -2.802866E-10
        99  13 -3.074636E+05  8.216883E+04  1.040786E+05 -5.296780E+04 -6.032090E-10 -8.137611E-10
        99  14 -3.228118E+05 -1.170723E+04  4.544993E+04 -1.817328E+04  3.278600E-14 -1.969486E-10
        99  15 -3.074224E+05 -4.709409E+03  2.849940E+04 -5.270988E+04  2.419556E-10 -9.646437E-10
        99  16  1.147241E+06  4.444072E+05  4.623752E+05 -7.644913E+04  2.021312E-10  1.423861E-09
        99  17  1.031667E+06  3.236192E+05  3.684083E+05 -2.351983E+04 -6.015458E-10 -3.742816E-10
        99  18  9.497765E+05  3.065879E+05  3.280570E+05 -3.991566E+04  2.435023E-10 -1.000949E-09
        99  19 -1.760241E+06 -2.802239E+05 -2.543695E+05 -2.954241E+04 -4.646809E+04 -1.507275E+04
        99  20 -1.675607E+06 -3.471634E+05 -2.776306E+05 -1.283802E+04 -3.910835E+04 -4.517524E+04
        99  21 -1.563171E+06 -3.161180E+05 -2.711637E+05 -6.547756E+04 -3.184811E+04 -4.258943E+04
        99  22 -3.074581E+05  8.217043E+04  1.040885E+05 -5.296694E+04 -7.106572E+04 -1.514852E+04
        99  23 -3.228089E+05 -1.170446E+04  4.545782E+04 -1.817159E+04 -4.643819E+04 -4.518655E+04
        99  24 -3.074214E+05 -4.707335E+03  2.850370E+04 -5.270913E+04 -2.191230E+04 -4.256738E+04
        99  25  1.147251E+06  4.444099E+05  4.623929E+05 -7.644796E+04 -9.572081E+04 -1.522234E+04
        99  26  1.031671E+06  3.236221E+05  3.684176E+05 -2.351788E+04 -5.378388E+04 -4.519772E+04
        99  27  9.497771E+05  3.065899E+05  3.280606E+05 -3.991525E+04 -1.195641E+04 -4.254496E+04
       100   1 -1.442203E+06 -2.721208E+05 -2.471286E+05 -5.187716E+04  1.778939E+04  3.561295E+04
       100   2 -1.344779E+06 -2.566969E+05 -2.341848E+05 -1.763317E+04  1.299789E+04  3.387195E+04
       100   3 -1.242961E+06 -2.311679E+05 -2.153292E+05 -5.443333E+04  8.200236E+03  2.980705E+04
       100   4 -3.131459E+05  7.981036E+03  2.318890E+04 -5.316798E+04  1.750892E+04  3.560822E+04
       100   5 -3.154225E+05 -1.435618E+03  1.176321E+04 -1.764495E+04  1.148282E+04  3.386708E+04
       100   6 -3.131073E+05 -5.413229E+02  7.099517E+03 -5.315854E+04  5.451307E+03  2.980378E+04
       100   7  8.170818E+05  2.879904E+05  2.934163E+05 -5.446150E+04  1.722792E+04  3.560350E+04
       100   8  7.149069E+05  2.537489E+05  2.576365E+05 -1.765691E+04  9.965223E+03  3.386222E+04
       100   9  6.175403E+05  2.300225E+05  2.294672E+05 -5.188182E+04  2.698268E+03  2.980050E+04
       100  10 -1.442204E+06 -2.721223E+05 -2.471316E+05 -5.187767E+04 -1.407837E-09 -5.490848E-10
       100  11 -1.344779E+06 -2.566982E+05 -2.341872E+05 -1.763353E+04 -3.889678E-09 -3.003313E-11
       100  12 -1.242962E+06 -2.311688E+05 -2.153310E+05 -5.443353E+04 -1.543149E-09  5.250853E-10
       100  13 -3.131465E+05  7.979592E+03  2.318594E+04 -5.316848E+04 -8.546876E-10 -1.467005E-09
       100  14 -3.154230E+05 -1.436885E+03  1.176081E+04 -1.764526E+04 -2.802966E-09  5.776133E-10
       100  15 -3.131076E+05 -5.422846E+02  7.097792E+03 -5.315867E+04  1.654538E-09  3.410144E-10
       100  16  8.170811E+05  2.879889E+05  2.934134E+05 -5.446199E+04 -1.984202E-10 -7.163825E-10
       100  17  7.149065E+05  2.537476E+05  2.576342E+05 -1.765718E+04 -3.814197E-09 -2.528049E-10
       100  18  6.175401E+05  2.300216E+05  2.294655E+05 -5.188188E+04 -6.980420E-10  7.480130E-10
       100  19 -1.442203E+06 -2.721208E+05 -2.471286E+05 -5.187716E+04 -1.778939E+04 -3.561295E+04
       100  20 -1.344779E+06 -2.566969E+05 -2.341848E+05 -1.763317E+04 -1.299789E+04 -3.387195E+04
       100  21 -1.242961E+06 -2.311679E+05 -2.153292E+05 -5.443333E+04 -8.200236E+03 -2.980705E+04
       100  22 -3.131459E+05  7.981036E+03  2.318890E+04 -5.316798E+04 -1.750892E+04 -3.560822E+04
       100  23 -3.154225E+05 -1.435618E+03  1.176321E+04 -1.764495E+04 -1.148282E+04 -3.386708E+04
       100  24 -3.131073E+05 -5.413229E+02  7.099517E+03 -5.315854E+04 -5.451307E+03 -2.980378E+04
       100  25  8.170818E+05  2.879904E+05  2.934163E+05 -5.446150E+04 -1.722792E+04 -3.560350E+04
       100  26  7.149069E+05  2.537489E+05  2.576365E+05 -1.765691E+04 -9.965223E+03 -3.386222E+04
       100  27  6.175403E+05  2.300225E+05  2.294672E+05 -5.188182E+04 -2.698268E+03 -2.980050E+04
       101   1 -1.115483E+06 -1.980303E+05 -1.857413E+05 -5.310279E+04  6.401652E+03  2.704951E+04
       101   2 -1.015222E+06 -1.739956E+05 -1.644104E+05 -1.713859E+04  4.971109E+03  2.302437E+04
       101   3 -9.140681E+05 -1.488368E+05 -1.417780E+05 -5.302497E+04  3.534288E+03  1.882270E+04
       101   4 -3.138664E+05  6.812574E+02  5.530795E+03 -5.334067E+04  4.329328E+03  2.704754E+04
       101   5 -3.143025E+05 -2.130160E+02  3.039266E+03 -1.741796E+04  2.803780E+03  2.302382E+04
       101   6 -3.138383E+05  3.342697E+01  1.914735E+03 -5.334081E+04  1.272185E+03  1.882371E+04
       101   7  4.883402E+05  1.993463E+05  1.967577E+05 -5.357880E+04  2.254334E+03  2.704557E+04
       101   8  3.870682E+05  1.735340E+05  1.704544E+05 -1.769757E+04  6.340110E+02  2.302328E+04
       101   9  2.867220E+05  1.488775E+05  1.455820E+05 -5.365687E+04 -9.920987E+02  1.882472E+04
       101  10 -1.115483E+06 -1.980311E+05 -1.857428E+05 -5.310293E+04 -2.442383E-10  3.468742E-10
       101  11 -1.015222E+06 -1.739962E+05 -1.644115E+05 -1.713868E+04 -6.424999E-10 -6.352390E-10
       101  12 -9.140682E+05 -1.488372E+05 -1.417787E+05 -5.302503E+04 -1.439477E-09 -1.896489E-10
       101  13 -3.138666E+05  6.804669E+02  5.529386E+03 -5.334076E+04 -1.333941E-11  2.243783E-10
       101  14 -3.143027E+05 -2.135873E+02  3.038255E+03 -1.741801E+04  6.235004E-10 -3.114812E-10
       101  15 -3.138384E+05  3.304610E+01  1.914066E+03 -5.334083E+04  4.594976E-10  6.470648E-10
       101  16  4.883400E+05  1.993456E+05  1.967563E+05 -5.357885E+04 -1.416875E-09  1.495203E-10
       101  17  3.870681E+05  1.735334E+05  1.704534E+05 -1.769758E+04 -2.134485E-10 -7.907873E-10
       101  18  2.867219E+05  1.488771E+05  1.455813E+05 -5.365685E+04  2.086876E-09  2.186233E-10
       101  19 -1.115483E+06 -1.980303E+05 -1.857413E+05 -5.310279E+04 -6.401652E+03 -2.704951E+04
       101  20 -1.015222E+06 -1.739956E+05 -1.644104E+05 -1.713859E+04 -4.971109E+03 -2.302437E+04
       101  21 -9.140681E+05 -1.488368E+05 -1.417780E+05 -5.302497E+04 -3.534288E+03 -1.882270E+04
       101  22 -3.138664E+05  6.812574E+02  5.530795E+03 -5.334067E+04 -4.329328E+03 -2.704754E+04
       101  23 -3.143025E+05 -2.130160E+02  3.039266E+03 -1.741796E+04 -2.803780E+03 -2.302382E+04
       101  24 -3.138383E+05  3.342697E+01  1.914735E+03 -5.334081E+04 -1.272185E+03 -1.882371E+04
       101  25  4.883402E+05  1.993463E+05  1.967577E+05 -5.357880E+04 -2.254334E+03 -2.704557E+04
       101  26  3.870682E+05  1.735340E+05  1.704544E+05 -1.769757E+04 -6.340110E+02 -2.302328E+04
       101  27  2.867220E+05  1.488775E+05  1.455820E+05 -5.365687E+04  9.920987E+02 -1.882472E+04
       102   1 -7.848416E+05 -1.165433E+05 -1.106396E+05 -5.305459E+04  3.174907E+03  1.634399E+04
       102   2 -6.834703E+05 -9.158247E+04 -8.716467E+04 -1.693014E+04  2.643343E+03  1.213070E+04
       102   3 -5.820418E+05 -6.633449E+04 -6.329289E+04 -5.312927E+04  2.108474E+03  7.898998E+03
       102   4 -3.139889E+05  1.211456E+02  1.528689E+03 -5.344633E+04  9.573298E+02  1.634573E+04
       102   5 -3.140067E+05  2.661788E+00  1.083041E+03 -1.728583E+04  4.155573E+02  1.213321E+04
       102   6 -3.139736E+05  1.741414E+02  1.042069E+03 -5.344623E+04 -1.294336E+02  7.902312E+03
       102   7  1.570675E+05  1.167696E+05  1.136815E+05 -5.383831E+04 -1.261923E+03  1.634747E+04
       102   8  5.558212E+04  9.157792E+04  8.932115E+04 -1.764169E+04 -1.813549E+03  1.213572E+04
       102   9 -4.583954E+04  6.667755E+04  6.537194E+04 -5.376329E+04 -2.368304E+03  7.905628E+03
       102  10 -7.848417E+05 -1.165436E+05 -1.106402E+05 -5.305463E+04  1.859608E-09  2.194627E-10
       102  11 -6.834704E+05 -9.158263E+04 -8.716496E+04 -1.693017E+04  2.626268E-09 -9.281102E-10
       102  12 -5.820418E+05 -6.633456E+04 -6.329301E+04 -5.312929E+04 -1.161227E-09 -7.993451E-11
       102  13 -3.139889E+05  1.208585E+02  1.528185E+03 -5.344635E+04  1.963102E-09 -5.292225E-10
       102  14 -3.140068E+05  2.503682E+00  1.082764E+03 -1.728583E+04  5.955862E-11 -4.664375E-10
       102  15 -3.139736E+05  1.740743E+02  1.041952E+03 -5.344623E+04  7.070649E-10 -4.355010E-10
       102  16  1.570674E+05  1.167693E+05  1.136810E+05 -5.383830E+04 -7.500811E-10  1.551494E-10
       102  17  5.558208E+04  9.157776E+04  8.932087E+04 -1.764167E+04 -2.545021E-09 -1.416275E-09
       102  18 -4.583956E+04  6.667748E+04  6.537182E+04 -5.376328E+04 -1.968586E-10 -1.146083E-09
       102  19 -7.848416E+05 -1.165433E+05 -1.106396E+05 -5.305459E+04 -3.174907E+03 -1.634399E+04
       102  20 -6.834703E+05 -9.158247E+04 -8.716467E+04 -1.693014E+04 -2.643343E+03 -1.213070E+04
       102  21 -5.820418E+05 -6.633449E+04 -6.329289E+04 -5.312927E+04 -2.108474E+03 -7.898998E+03
       102  22 -3.139889E+05  1.211456E+02  1.528689E+03 -5.344633E+04 -9.573298E+02 -1.634573E+04
       102  23 -3.140067E+05  2.661788E+00  1.083041E+03 -1.728583E+04 -4.155573E+02 -1.213321E+04
       102  24 -3.139736E+05  1.741414E+02  1.042069E+03 -5.344623E+04  1.294336E+02 -7.902312E+03
       102  25  1.570675E+05  1.167696E+05  1.136815E+05 -5.383831E+04  1.261923E+03 -1.634747E+04
       102  26  5.558212E+04  9.157792E+04  8.932115E+04 -1.764169E+04  1.813549E+03 -1.213572E+04
       102  27 -4.583954E+04  6.667755E+04  6.537194E+04 -5.376329E+04  2.368304E+03 -7.905628E+03
       103   1 -4.520496E+05 -3.400405E+04 -3.154691E+04 -5.329747E+04  1.908733E+03  5.429635E+03
       103   2 -3.503376E+05 -8.987559E+03 -7.137578E+03 -1.717536E+04  1.128353E+03  1.192947E+03
       103   3 -2.486992E+05  1.642792E+04  1.781681E+04 -5.355980E+04  3.475294E+02 -3.036681E+03
       103   4 -3.139893E+05  1.528899E+02  1.115658E+03 -5.348751E+04 -3.296529E+02  5.433247E+03
       103   5 -3.139459E+05  3.176716E+01  1.553052E+03 -1.723423E+04 -1.106532E+03  1.196611E+03
       103   6 -3.139876E+05  3.093632E+02  2.533305E+03 -5.348723E+04 -1.883728E+03 -3.032928E+03
       103   7 -1.759114E+05  3.430847E+04  3.377692E+04 -5.367757E+04 -2.568534E+03  5.436859E+03
       103   8 -2.775529E+05  9.051000E+03  1.024361E+04 -1.729311E+04 -3.341547E+03  1.200275E+03
       103   9 -3.792720E+05 -1.580950E+04 -1.275047E+04 -5.341466E+04 -4.114752E+03 -3.029176E+03
       103  10 -4.520496E+05 -3.400409E+04 -3.154697E+04 -5.329748E+04 -2.692680E-10  1.737516E-09
       103  11 -3.503376E+05 -8.987561E+03 -7.137583E+03 -1.717536E+04  2.720822E-10  2.533274E-09
       103  12 -2.486992E+05  1.642791E+04  1.781680E+04 -5.355979E+04  3.021588E-09 -2.080311E-09
       103  13 -3.139893E+05  1.528582E+02  1.115602E+03 -5.348750E+04  1.921795E-09  9.301201E-10
       103  14 -3.139459E+05  3.176529E+01  1.553047E+03 -1.723423E+04 -6.236537E-10 -6.976198E-10
       103  15 -3.139876E+05  3.093524E+02  2.533281E+03 -5.348723E+04 -3.104982E-10 -3.948853E-10
       103  16 -1.759114E+05  3.430844E+04  3.377685E+04 -5.367756E+04 -7.457459E-10  8.782149E-10
       103  17 -2.775529E+05  9.050995E+03  1.024358E+04 -1.729310E+04 -5.380509E-09 -2.831279E-10
       103  18 -3.792721E+05 -1.580951E+04 -1.275052E+04 -5.341467E+04 -1.293575E-09 -2.913785E-10
       103  19 -4.520496E+05 -3.400405E+04 -3.154691E+04 -5.329747E+04 -1.908733E+03 -5.429635E+03
       103  20 -3.503376E+05 -8.987559E+03 -7.137578E+03 -1.717536E+04 -1.128353E+03 -1.192947E+03
       103  21 -2.486992E+05  1.642792E+04  1.781681E+04 -5.355980E+04 -3.475294E+02  3.036681E+03
       103  22 -3.139893E+05  1.528899E+02  1.115658E+03 -5.348751E+04  3.296529E+02 -5.433247E+03
       103  23 -3.139459E+05  3.176716E+01  1.553052E+03 -1.723423E+04  1.106532E+03 -1.196611E+03
       103  24 -3.139876E+05  3.093632E+02  2.533305E+03 -5.348723E+04  1.883728E+03  3.032928E+03
       103  25 -1.759114E+05  3.430847E+04  3.377692E+04 -5.367757E+04  2.568534E+03 -5.436859E+03
       103  26 -2.775529E+05  9.051000E+03  1.024361E+04 -1.729311E+04  3.341547E+03 -1.200275E+03
       103  27 -3.792720E+05 -1.580950E+04 -1.275047E+04 -5.341466E+04  4.114752E+03  3.029176E+03
       104   1 -1.184242E+05  4.857596E+04  5.021267E+04 -5.345384E+04 -1.420861E+02 -5.520353E+03
       104   2 -1.725607E+04  7.337542E+04  7.637127E+04 -1.760703E+04 -2.961730E+03 -9.746011E+03
       104   3  8.465143E+04  1.002735E+05  1.048524E+05 -5.414448E+04 -5.779111E+03 -1.384542E+04
       104   4 -3.138183E+05  9.622056E+01  3.250738E+03 -5.346142E+04 -2.408106E+03 -5.516733E+03
       104   5 -3.141836E+05 -1.993901E+02  5.478521E+03 -1.726722E+04 -5.160047E+03 -9.743137E+03
       104   6 -3.138299E+05  1.593216E+03  9.983424E+03 -5.345938E+04 -7.909273E+03 -1.384323E+04
       104   7 -5.091775E+05 -4.838630E+04 -4.371389E+04 -5.346897E+04 -4.673415E+03 -5.513113E+03
       104   8 -6.110302E+05 -7.378058E+04 -6.542041E+04 -1.692754E+04 -7.357318E+03 -9.740265E+03
       104   9 -7.121655E+05 -9.709850E+04 -8.489668E+04 -5.277467E+04 -1.003807E+04 -1.384104E+04
       104  10 -1.184242E+05  4.857593E+04  5.021261E+04 -5.345384E+04 -1.114393E-10 -2.056129E-09
       104  11 -1.725611E+04  7.337531E+04  7.637107E+04 -1.760705E+04 -8.044442E-11  5.963891E-10
       104  12  8.465134E+04  1.002733E+05  1.048520E+05 -5.414454E+04 -1.910835E-09  6.433805E-10
       104  13 -3.138183E+05  9.618633E+01  3.250670E+03 -5.346143E+04 -1.471920E-10 -7.433307E-11
       104  14 -3.141836E+05 -1.994991E+02  5.478293E+03 -1.726726E+04  1.558757E-09 -4.855130E-11
       104  15 -3.138300E+05  1.592993E+03  9.982946E+03 -5.345947E+04 -1.637539E-09  3.687155E-11
       104  16 -5.091775E+05 -4.838634E+04 -4.371398E+04 -5.346899E+04  1.795293E-09  2.418883E-10
       104  17 -6.110302E+05 -7.378069E+04 -6.542070E+04 -1.692760E+04  9.643590E-10  2.390961E-09
       104  18 -7.121657E+05 -9.709873E+04 -8.489723E+04 -5.277478E+04  3.585931E-09  1.116378E-09
       104  19 -1.184242E+05  4.857596E+04  5.021267E+04 -5.345384E+04  1.420861E+02  5.520353E+03
       104  20 -1.725607E+04  7.337542E+04  7.637127E+04 -1.760703E+04  2.961730E+03  9.746011E+03
       104  21  8.465143E+04  1.002735E+05  1.048524E+05 -5.414448E+04  5.779111E+03  1.384542E+04
       104  22 -3.138183E+05  9.622056E+01  3.250738E+03 -5.346142E+04  2.408106E+03  5.516733E+03
       104  23 -3.141836E+05 -1.993901E+02  5.478521E+03 -1.726722E+04  5.160047E+03  9.743137E+03
       104  24 -3.138299E+05  1.593216E+03  9.983424E+03 -5.345938E+04  7.909273E+03  1.384323E+04
       104  25 -5.091775E+05 -4.838630E+04 -4.371389E+04 -5.346897E+04  4.673415E+03  5.513113E+03
       104  26 -6.110302E+05 -7.378058E+04 -6.542041E+04 -1.692754E+04  7.357318E+03  9.740265E+03
       104  27 -7.121655E+05 -9.709850E+04 -8.489668E+04 -5.277467E+04  1.003807E+04  1.384104E+04
       105   1  2.155740E+05  1.302117E+05  1.391498E+05 -5.161731E+04 -7.294238E+03 -1.654040E+04
       105   2  3.132739E+05  1.536469E+05  1.716436E+05 -1.884937E+04 -1.921335E+04 -2.066618E+04
       105   3  4.175617E+05  1.960935E+05  2.167013E+05 -5.801284E+04 -3.112842E+04 -2.307720E+04
       105   4 -3.125946E+05 -6.909019E+02  1.279441E+04 -5.336373E+04 -9.926862E+03 -1.653827E+04
       105   5 -3.158197E+05 -2.202697E+03  2.148491E+04 -1.739162E+04 -2.093022E+04 -2.066629E+04
       105   6 -3.126160E+05  1.514999E+04  4.211389E+04 -5.335499E+04 -3.192762E+04 -2.307887E+04
       105   7 -8.405075E+05 -1.316137E+05 -1.135807E+05 -5.510857E+04 -1.255725E+04 -1.653613E+04
       105   8 -9.445504E+05 -1.580809E+05 -1.287016E+05 -1.593528E+04 -2.264534E+04 -2.066642E+04
       105   9 -1.042305E+06 -1.658321E+05 -1.325111E+05 -4.870257E+04 -3.272588E+04 -2.308057E+04
       105  10  2.155739E+05  1.302114E+05  1.391492E+05 -5.161741E+04 -1.088201E-10  1.017204E-10
       105  11  3.132734E+05  1.536464E+05  1.716421E+05 -1.884969E+04 -1.948224E-09 -1.811547E-09
       105  12  4.175606E+05  1.960927E+05  2.166985E+05 -5.801342E+04 -2.380022E-09 -2.923586E-10
       105  13 -3.125948E+05 -6.912221E+02  1.279371E+04 -5.336386E+04 -1.217241E-09  4.664426E-10
       105  14 -3.158203E+05 -2.203273E+03  2.148328E+04 -1.739197E+04 -4.315110E-10  8.747574E-11
       105  15 -3.126172E+05  1.514915E+04  4.211097E+04 -5.335558E+04  2.202913E-10 -2.328915E-10
       105  16 -8.405077E+05 -1.316141E+05 -1.135815E+05 -5.510873E+04 -1.100776E-09  7.616451E-10
       105  17 -9.445511E+05 -1.580815E+05 -1.287034E+05 -1.593566E+04 -2.283647E-09 -2.345794E-10
       105  18 -1.042306E+06 -1.658330E+05 -1.325141E+05 -4.870318E+04 -9.267411E-10 -4.173016E-10
       105  19  2.155740E+05  1.302117E+05  1.391498E+05 -5.161731E+04  7.294238E+03  1.654040E+04
       105  20  3.132739E+05  1.536469E+05  1.716436E+05 -1.884937E+04  1.921335E+04  2.066618E+04
       105  21  4.175617E+05  1.960935E+05  2.167013E+05 -5.801284E+04  3.112842E+04  2.307720E+04
       105  22 -3.125946E+05 -6.909019E+02  1.279441E+04 -5.336373E+04  9.926862E+03  1.653827E+04
       105  23 -3.158197E+05 -2.202697E+03  2.148491E+04 -1.739162E+04  2.093022E+04  2.066629E+04
       105  24 -3.126160E+05  1.514999E+04  4.211389E+04 -5.335499E+04  3.192762E+04  2.307887E+04
       105  25 -8.405075E+05 -1.316137E+05 -1.135807E+05 -5.510857E+04  1.255725E+04  1.653613E+04
       105  26 -9.445504E+05 -1.580809E+05 -1.287016E+05 -1.593528E+04  2.264534E+04  2.066642E+04
       105  27 -1.042305E+06 -1.658321E+05 -1.325111E+05 -4.870257E+04  3.272588E+04  2.308057E+04
       106   1  5.566056E+05  2.048015E+05  2.564994E+05 -3.284272E+04 -3.196472E+04 -2.888736E+04
       106   2  6.295363E+05  2.167633E+05  3.114160E+05 -3.180453E+04 -8.947507E+04 -3.194073E+04
       106   3  7.572517E+05  4.139132E+05  4.502525E+05 -1.014977E+05 -1.470150E+05 -1.084137E+04
       106   4 -3.024101E+05 -7.920853E+03  5.172283E+04 -5.306376E+04 -3.992195E+04 -2.888767E+04
       106   5 -3.287297E+05 -2.054602E+04  8.287895E+04 -1.775728E+04 -8.460902E+04 -3.194405E+04
       106   6 -3.024181E+05  1.499410E+05  1.891362E+05 -5.318125E+04 -1.293150E+05 -1.083757E+04
       106   7 -1.160748E+06 -2.206949E+05 -1.531051E+05 -7.325665E+04 -4.786819E+04 -2.888747E+04
       106   8 -1.286153E+06 -2.579209E+05 -1.457224E+05 -3.731865E+03 -7.975035E+04 -3.194716E+04
       106   9 -1.361061E+06 -1.141058E+05 -7.206065E+04 -4.947505E+03 -1.116450E+05 -1.083102E+04
       106  10  5.566043E+05  2.048003E+05  2.564959E+05 -3.284347E+04 -7.071625E-10  3.387397E-10
       106  11  6.295274E+05  2.167600E+05  3.113991E+05 -3.180683E+04  8.997178E-10 -1.898894E-10
       106  12  7.572284E+05  4.139073E+05  4.502117E+05 -1.014990E+05 -1.460289E-10 -4.489706E-10
       106  13 -3.024120E+05 -7.922177E+03  5.171827E+04 -5.306469E+04 -2.344082E-09 -2.500353E-10
       106  14 -3.287376E+05 -2.054904E+04  8.286357E+04 -1.775945E+04 -2.860446E-09  3.099064E-10
       106  15 -3.024360E+05  1.499364E+05  1.891045E+05 -5.318238E+04 -1.261230E-09 -3.610703E-10
       106  16 -1.160751E+06 -2.206965E+05 -1.531110E+05 -7.325776E+04 -1.091156E-09 -6.136261E-10
       106  17 -1.286160E+06 -2.579237E+05 -1.457363E+05 -3.733918E+03 -2.694090E-09 -6.006383E-10
       106  18 -1.361075E+06 -1.141092E+05 -7.208435E+04 -4.948479E+03 -1.691064E-09 -6.588134E-10
       106  19  5.566056E+05  2.048015E+05  2.564994E+05 -3.284272E+04  3.196472E+04  2.888736E+04
       106  20  6.295363E+05  2.167633E+05  3.114160E+05 -3.180453E+04  8.947507E+04  3.194073E+04
       106  21  7.572517E+05  4.139132E+05  4.502525E+05 -1.014977E+05  1.470150E+05  1.084137E+04
       106  22 -3.024101E+05 -7.920853E+03  5.172283E+04 -5.306376E+04  3.992195E+04  2.888767E+04
       106  23 -3.287297E+05 -2.054602E+04  8.287895E+04 -1.775728E+04  8.460902E+04  3.194405E+04
       106  24 -3.024181E+05  1.499410E+05  1.891362E+05 -5.318125E+04  1.293150E+05  1.083757E+04
       106  25 -1.160748E+06 -2.206949E+05 -1.531051E+05 -7.325665E+04  4.786819E+04  2.888747E+04
       106  26 -1.286153E+06 -2.579209E+05 -1.457224E+05 -3.731865E+03  7.975035E+04  3.194716E+04
       106  27 -1.361061E+06 -1.141058E+05 -7.206065E+04 -4.947505E+03  1.116450E+05  1.083102E+04
       107   1  3.031814E+05  6.167216E+05  3.143057E+05 -2.578604E+05  4.216030E+03  1.674190E+05
       107   2  1.323682E+05  4.758530E+05  1.703464E+05 -1.830509E+05  1.407799E+04  9.395885E+04
       107   3  6.366922E+04  3.698687E+05  9.969617E+04 -1.325761E+05  1.272354E+04  2.047407E+04
       107   4  1.862495E+05  1.486248E+05  2.030705E+05 -1.368738E+05  4.357346E+03  1.389615E+05
       107   5  4.965844E+04  1.330208E+05  1.021765E+05 -1.250463E+05  1.411603E+04  8.652324E+04
       107   6  1.155694E+04  1.486622E+05  6.002894E+04 -1.375399E+05  1.267033E+04  3.404446E+04
       107   7  6.935669E+04 -3.192384E+05  9.183062E+04 -1.597870E+04  4.487642E+03  1.105252E+05
       107   8 -3.304601E+04 -2.096921E+05  3.400269E+04 -6.707423E+04  1.415269E+04  7.909164E+04
       107   9 -4.055786E+04 -7.249605E+04  2.036054E+04 -1.425017E+05  1.261688E+04  4.761016E+04
       107  10  3.031738E+05  6.166915E+05  3.142531E+05 -2.578610E+05  1.424861E-09  3.484524E-09
       107  11  1.323656E+05  4.758435E+05  1.703295E+05 -1.830519E+05  2.267172E-09 -9.162706E-10
       107  12  6.366893E+04  3.698682E+05  9.969508E+04 -1.325764E+05  2.483155E-10 -5.076346E-09
       107  13  1.862443E+05  1.486041E+05  2.030342E+05 -1.368743E+05 -9.834194E-10 -9.543332E-10
       107  14  4.965622E+04  1.330127E+05  1.021621E+05 -1.250472E+05  5.766911E-10 -1.641157E-11
       107  15  1.155645E+04  1.486610E+05  6.002646E+04 -1.375402E+05 -1.105057E-09  9.879250E-10
       107  16  6.935338E+04 -3.192515E+05  9.180762E+04 -1.597910E+04  1.473152E-09 -2.682192E-09
       107  17 -3.304791E+04 -2.096989E+05  3.399055E+04 -6.707513E+04  9.061834E-11 -2.623017E-10
       107  18 -4.055864E+04 -7.249853E+04  2.035598E+04 -1.425022E+05 -1.690321E-09  5.140828E-09
       107  19  3.031814E+05  6.167216E+05  3.143057E+05 -2.578604E+05 -4.216030E+03 -1.674190E+05
       107  20  1.323682E+05  4.758530E+05  1.703464E+05 -1.830509E+05 -1.407799E+04 -9.395885E+04
       107  21  6.366922E+04  3.698687E+05  9.969617E+04 -1.325761E+05 -1.272354E+04 -2.047407E+04
       107  22  1.862495E+05  1.486248E+05  2.030705E+05 -1.368738E+05 -4.357346E+03 -1.389615E+05
       107  23  4.965844E+04  1.330208E+05  1.021765E+05 -1.250463E+05 -1.411603E+04 -8.652324E+04
       107  24  1.155694E+04  1.486622E+05  6.002894E+04 -1.375399E+05 -1.267033E+04 -3.404446E+04
       107  25  6.935669E+04 -3.192384E+05  9.183062E+04 -1.597870E+04 -4.487642E+03 -1.105252E+05
       107  26 -3.304601E+04 -2.096921E+05  3.400269E+04 -6.707423E+04 -1.415269E+04 -7.909164E+04
       107  27 -4.055786E+04 -7.249605E+04  2.036054E+04 -1.425017E+05 -1.261688E+04 -4.761016E+04
       108   1  4.470964E+04  2.841451E+05  7.416978E+04 -1.435922E+05  8.160933E+03  1.288427E+04
       108   2  8.477334E+03  1.579931E+05  3.942427E+04 -1.256932E+05  1.281676E+03 -5.562227E+03
       108   3 -1.735415E+04  3.662219E+04  1.922151E+04 -1.330270E+05 -5.678561E+03 -2.400558E+04
       108   4  1.132210E+04  1.427762E+05  4.883575E+04 -1.376709E+05  8.110038E+03  2.582413E+04
       108   5  4.382629E+03  1.404067E+05  3.656270E+04 -1.250619E+05  1.229994E+03  7.530168E+03
       108   6  7.818836E+03  1.427778E+05  3.872852E+04 -1.376847E+05 -5.730751E+03 -1.076409E+04
       108   7 -2.206634E+04  1.427258E+03  2.350159E+04 -1.317510E+05  8.059382E+03  3.876113E+04
       108   8  2.880018E+02  1.228210E+05  3.370176E+04 -1.244306E+05  1.178337E+03  2.062220E+04
       108   9  3.299135E+04  2.489447E+05  5.823575E+04 -1.423433E+05 -5.783134E+03  2.479601E+03
       108  10  4.470953E+04  2.841449E+05  7.416934E+04 -1.435923E+05  7.068917E-10  1.785387E-08
       108  11  8.477324E+03  1.579931E+05  3.942421E+04 -1.256932E+05  2.992346E-09 -1.922473E-08
       108  12 -1.735434E+04  3.662156E+04  1.922036E+04 -1.330271E+05  2.675285E-09 -5.350325E-08
       108  13  1.132185E+04  1.427755E+05  4.883437E+04 -1.376711E+05 -1.409820E-09 -1.007544E-09
       108  14  4.382612E+03  1.404067E+05  3.656259E+04 -1.250619E+05  2.130811E-10 -2.652828E-10
       108  15  7.818770E+03  1.427776E+05  3.872824E+04 -1.376848E+05  2.787139E-09  1.165224E-09
       108  16 -2.206682E+04  1.425628E+03  2.349865E+04 -1.317512E+05  5.873290E-10 -1.681428E-08
       108  17  2.878861E+02  1.228205E+05  3.370096E+04 -1.244306E+05  3.142365E-11  1.806411E-08
       108  18  3.299131E+04  2.489447E+05  5.823567E+04 -1.423432E+05 -7.845727E-10  5.380234E-08
       108  19  4.470964E+04  2.841451E+05  7.416978E+04 -1.435922E+05 -8.160933E+03 -1.288427E+04
       108  20  8.477334E+03  1.579931E+05  3.942427E+04 -1.256932E+05 -1.281676E+03  5.562227E+03
       108  21 -1.735415E+04  3.662219E+04  1.922151E+04 -1.330270E+05  5.678561E+03  2.400558E+04
       108  22  1.132210E+04  1.427762E+05  4.883575E+04 -1.376709E+05 -8.110038E+03 -2.582413E+04
       108  23  4.382629E+03  1.404067E+05  3.656270E+04 -1.250619E+05 -1.229994E+03 -7.530168E+03
       108  24  7.818836E+03  1.427778E+05  3.872852E+04 -1.376847E+05  5.730751E+03  1.076409E+04
       108  25 -2.206634E+04  1.427258E+03  2.350159E+04 -1.317510E+05 -8.059382E+03 -3.876113E+04
       108  26  2.880018E+02  1.228210E+05  3.370176E+04 -1.244306E+05 -1.178337E+03 -2.062220E+04
       108  27  3.299135E+04  2.489447E+05  5.823575E+04 -1.423433E+05  5.783134E+03 -2.479601E+03
       109   1 -3.588512E+04 -3.964855E+04  1.032214E+04 -1.403456E+05 -1.030261E+04 -3.097497E+04
       109   2 -4.172864E+04 -1.717128E+05  6.988480E+03 -8.696280E+04 -1.242148E+04 -4.668092E+04
       109   3  1.320342E+04 -2.867247E+05  2.903103E+04 -5.804922E+04 -4.124486E+03 -6.234546E+04
       109   4  8.017207E+03  1.462551E+05  4.408219E+04 -1.375570E+05 -1.035704E+04 -1.715559E+04
       109   5  3.249949E+04  1.360369E+05  6.864012E+04 -1.251102E+05 -1.239606E+04 -5.237336E+04
       109   6  1.211202E+05  1.462239E+05  1.321122E+05 -1.371248E+05 -4.019531E+03 -8.755327E+04
       109   7  5.191773E+04  3.321928E+05  7.784160E+04 -1.347674E+05 -1.041134E+04 -3.332190E+03
       109   8  1.067272E+05  4.438801E+05  1.302878E+05 -1.632768E+05 -1.236995E+04 -5.806857E+04
       109   9  2.290470E+05  5.793590E+05  2.351860E+05 -2.162556E+05 -3.908194E+03 -1.127786E+05
       109  10 -3.588549E+04 -3.964961E+04  1.032013E+04 -1.403459E+05  1.201062E-09  5.295632E-08
       109  11 -4.172939E+04 -1.717152E+05  6.984094E+03 -8.696326E+04  2.707990E-09  2.128142E-08
       109  12  1.320235E+04 -2.867289E+05  2.902369E+04 -5.804942E+04  1.451488E-09 -1.190339E-08
       109  13  8.017013E+03  1.462548E+05  4.408144E+04 -1.375571E+05  6.456067E-10 -9.047607E-10
       109  14  3.249859E+04  1.360339E+05  6.863468E+04 -1.251107E+05 -9.422504E-10 -1.221784E-10
       109  15  1.211181E+05  1.462156E+05  1.320978E+05 -1.371250E+05  1.279170E-10  8.945817E-10
       109  16  5.191761E+04  3.321928E+05  7.784137E+04 -1.347674E+05  7.957926E-10 -5.199766E-08
       109  17  1.067261E+05  4.438765E+05  1.302812E+05 -1.632774E+05 -3.458833E-10 -2.247925E-08
       109  18  2.290436E+05  5.793454E+05  2.351620E+05 -2.162559E+05 -1.725221E-10  1.228878E-08
       109  19 -3.588512E+04 -3.964855E+04  1.032214E+04 -1.403456E+05  1.030261E+04  3.097497E+04
       109  20 -4.172864E+04 -1.717128E+05  6.988480E+03 -8.696280E+04  1.242148E+04  4.668092E+04
       109  21  1.320342E+04 -2.867247E+05  2.903103E+04 -5.804922E+04  4.124486E+03  6.234546E+04
       109  22  8.017207E+03  1.462551E+05  4.408219E+04 -1.375570E+05  1.035704E+04  1.715559E+04
       109  23  3.249949E+04  1.360369E+05  6.864012E+04 -1.251102E+05  1.239606E+04  5.237336E+04
       109  24  1.211202E+05  1.462239E+05  1.321122E+05 -1.371248E+05  4.019531E+03  8.755327E+04
       109  25  5.191773E+04  3.321928E+05  7.784160E+04 -1.347674E+05  1.041134E+04  3.332190E+03
       109  26  1.067272E+05  4.438801E+05  1.302878E+05 -1.632768E+05  1.236995E+04  5.806857E+04
       109  27  2.290470E+05  5.793590E+05  2.351860E+05 -2.162556E+05  3.908194E+03  1.127786E+05
       110   1 -4.498364E+06 -1.487042E+06 -9.444319E+05 -1.579031E+06 -4.262021E+05 -1.471791E+05
       110   2 -4.378896E+06 -8.547238E+05 -5.485281E+05 -1.626280E+06 -2.776258E+05 -6.208115E+04
       110   3 -4.466524E+06 -8.290786E+05 -4.287866E+05 -1.558018E+06 -1.187549E+05 -4.125423E+03
       110   4 -3.475043E+06 -9.554035E+05 -6.364768E+05 -1.153727E+06 -4.076008E+05 -1.402569E+05
       110   5 -3.339142E+06 -4.204881E+05 -2.657358E+05 -1.299479E+06 -2.721536E+05 -6.004026E+04
       110   6 -3.407355E+06 -4.890744E+05 -1.603499E+05 -1.329830E+06 -1.264194E+05 -7.007815E+03
       110   7 -2.450647E+06 -4.233939E+05 -3.286226E+05 -7.276921E+05 -3.889651E+05 -1.333108E+05
       110   8 -2.298329E+06  1.388323E+04  1.695832E+04 -9.721561E+05 -2.666710E+05 -5.799446E+04
       110   9 -2.347095E+06 -1.490709E+05  1.079995E+05 -1.101323E+06 -1.340982E+05 -9.893739E+03
       110  10 -4.498566E+06 -1.487114E+06 -9.448171E+05 -1.579082E+06  5.373930E-10 -4.020020E-11
       110  11 -4.378980E+06 -8.547488E+05 -5.486814E+05 -1.626294E+06 -2.362728E-09 -7.644514E-10
       110  12 -4.466539E+06 -8.290825E+05 -4.288133E+05 -1.558018E+06 -7.502827E-10 -6.792259E-10
       110  13 -3.475227E+06 -9.554697E+05 -6.368282E+05 -1.153773E+06  7.856062E-10 -9.281508E-10
       110  14 -3.339223E+06 -4.205120E+05 -2.658827E+05 -1.299492E+06 -2.636827E-10 -1.535404E-09
       110  15 -3.407373E+06 -4.890788E+05 -1.603802E+05 -1.329831E+06  1.778981E-09  8.961630E-11
       110  16 -2.450815E+06 -4.234539E+05 -3.289417E+05 -7.277340E+05  4.598799E-10  7.111793E-10
       110  17 -2.298406E+06  1.386041E+04  1.681776E+04 -9.721686E+05  1.249558E-09  1.605007E-09
       110  18 -2.347115E+06 -1.490759E+05  1.079654E+05 -1.101324E+06  8.583495E-10  1.509130E-09
       110  19 -4.498364E+06 -1.487042E+06 -9.444319E+05 -1.579031E+06  4.262021E+05  1.471791E+05
       110  20 -4.378896E+06 -8.547238E+05 -5.485281E+05 -1.626280E+06  2.776258E+05  6.208115E+04
       110  21 -4.466524E+06 -8.290786E+05 -4.287866E+05 -1.558018E+06  1.187549E+05  4.125423E+03
       110  22 -3.475043E+06 -9.554035E+05 -6.364768E+05 -1.153727E+06  4.076008E+05  1.402569E+05
       110  23 -3.339142E+06 -4.204881E+05 -2.657358E+05 -1.299479E+06  2.721536E+05  6.004026E+04
       110  24 -3.407355E+06 -4.890744E+05 -1.603499E+05 -1.329830E+06  1.264194E+05  7.007815E+03
       110  25 -2.450647E+06 -4.233939E+05 -3.286226E+05 -7.276921E+05  3.889651E+05  1.333108E+05
       110  26 -2.298329E+06  1.388323E+04  1.695832E+04 -9.721561E+05  2.666710E+05  5.799446E+04
       110  27 -2.347095E+06 -1.490709E+05  1.079995E+05 -1.101323E+06  1.340982E+05  9.893739E+03
       111   1 -4.301093E+06 -9.167182E+05 -3.759818E+05 -1.558987E+06 -1.018079E+05 -3.925681E+03
       111   2 -4.239678E+06 -8.057818E+05 -2.886327E+05 -1.524765E+06 -6.781699E+04  7.801426E+03
       111   3 -4.165045E+06 -7.968534E+05 -2.431533E+05 -1.520754E+06 -3.294250E+04  1.718095E+04
       111   4 -3.384766E+06 -5.568866E+05 -1.303502E+05 -1.294492E+06 -1.017910E+05 -3.925662E+03
       111   5 -3.387890E+06 -4.810525E+05 -6.268330E+04 -1.288750E+06 -6.890668E+04  7.387863E+03
       111   6 -3.377544E+06 -5.069472E+05 -3.595588E+04 -1.313225E+06 -3.514332E+04  1.635247E+04
       111   7 -2.467617E+06 -1.969836E+05  1.152077E+05 -1.029634E+06 -1.017740E+05 -3.925588E+03
       111   8 -2.535394E+06 -1.562739E+05  1.632033E+05 -1.052438E+06 -6.999798E+04  6.973686E+03
       111   9 -2.589440E+06 -2.170105E+05  1.711886E+05 -1.105460E+06 -3.734721E+04  1.552291E+04
       111  10 -4.301104E+06 -9.167210E+05 -3.760015E+05 -1.558987E+06  7.600905E-10  1.580384E-10
       111  11 -4.239683E+06 -8.057831E+05 -2.886415E+05 -1.524764E+06  1.212024E-09  1.733358E-10
       111  12 -4.165047E+06 -7.968541E+05 -2.431559E+05 -1.520754E+06  2.126640E-09  6.225724E-10
       111  13 -3.384777E+06 -5.568894E+05 -1.303699E+05 -1.294492E+06  9.806231E-10 -2.040040E-10
       111  14 -3.387895E+06 -4.810538E+05 -6.269237E+04 -1.288749E+06 -1.414216E-09  1.732944E-10
       111  15 -3.377546E+06 -5.069479E+05 -3.595871E+04 -1.313225E+06  2.893573E-09  8.915200E-10
       111  16 -2.467628E+06 -1.969865E+05  1.151881E+05 -1.029634E+06  8.110269E-10  1.266672E-10
       111  17 -2.535399E+06 -1.562753E+05  1.631940E+05 -1.052438E+06 -1.751048E-09 -6.952247E-10
       111  18 -2.589442E+06 -2.170112E+05  1.711855E+05 -1.105460E+06  1.010533E-09  1.528366E-09
       111  19 -4.301093E+06 -9.167182E+05 -3.759818E+05 -1.558987E+06  1.018079E+05  3.925681E+03
       111  20 -4.239678E+06 -8.057818E+05 -2.886327E+05 -1.524765E+06  6.781699E+04 -7.801426E+03
       111  21 -4.165045E+06 -7.968534E+05 -2.431533E+05 -1.520754E+06  3.294250E+04 -1.718095E+04
       111  22 -3.384766E+06 -5.568866E+05 -1.303502E+05 -1.294492E+06  1.017910E+05  3.925662E+03
       111  23 -3.387890E+06 -4.810525E+05 -6.268330E+04 -1.288750E+06  6.890668E+04 -7.387863E+03
       111  24 -3.377544E+06 -5.069472E+05 -3.595588E+04 -1.313225E+06  3.514332E+04 -1.635247E+04
       111  25 -2.467617E+06 -1.969836E+05  1.152077E+05 -1.029634E+06  1.017740E+05  3.925588E+03
       111  26 -2.535394E+06 -1.562739E+05  1.632033E+05 -1.052438E+06  6.999798E+04 -6.973686E+03
       111  27 -2.589440E+06 -2.170105E+05  1.711886E+05 -1.105460E+06  3.734721E+04 -1.552291E+04
       112   1 -4.046005E+06 -7.696529E+05 -2.058336E+05 -1.495108E+06 -2.747084E+04  1.656450E+04
       112   2 -3.983705E+06 -7.075895E+05 -1.702209E+05 -1.446053E+06 -1.858780E+04  1.590185E+04
       112   3 -3.877604E+06 -6.989888E+05 -1.419620E+05 -1.449138E+06 -9.578064E+03  1.488867E+04
       112   4 -3.373486E+06 -5.153955E+05 -2.806555E+04 -1.310874E+06 -2.912152E+04  1.594329E+04
       112   5 -3.395004E+06 -4.859828E+05 -1.460927E+04 -1.285809E+06 -2.040260E+04  1.522048E+04
       112   6 -3.372691E+06 -5.099932E+05 -8.369210E+03 -1.312883E+06 -1.155813E+04  1.414687E+04
       112   7 -2.700529E+06 -2.611102E+05  1.496629E+05 -1.126459E+06 -3.077416E+04  1.532135E+04
       112   8 -2.805965E+06 -2.643551E+05  1.409725E+05 -1.125426E+06 -2.221928E+04  1.453839E+04
       112   9 -2.867530E+06 -3.209825E+05  1.252020E+05 -1.176527E+06 -1.353998E+04  1.340440E+04
       112  10 -4.046006E+06 -7.696534E+05 -2.058356E+05 -1.495108E+06  2.637441E-09  9.006576E-10
       112  11 -3.983706E+06 -7.075898E+05 -1.702221E+05 -1.446053E+06  2.253354E-09  4.118909E-10
       112  12 -3.877604E+06 -6.989890E+05 -1.419626E+05 -1.449138E+06  2.356183E-10 -7.394902E-10
       112  13 -3.373487E+06 -5.153960E+05 -2.806762E+04 -1.310874E+06  2.281636E-09  8.642009E-10
       112  14 -3.395004E+06 -4.859832E+05 -1.461049E+04 -1.285808E+06  7.282291E-10  1.407168E-10
       112  15 -3.372692E+06 -5.099935E+05 -8.369837E+03 -1.312883E+06 -4.247236E-10 -5.857925E-10
       112  16 -2.700530E+06 -2.611107E+05  1.496607E+05 -1.126459E+06 -1.706281E-09  1.383209E-09
       112  17 -2.805966E+06 -2.643555E+05  1.409712E+05 -1.125426E+06 -2.725240E-09  7.239557E-10
       112  18 -2.867531E+06 -3.209828E+05  1.252013E+05 -1.176527E+06 -1.077270E-09  1.964101E-10
       112  19 -4.046005E+06 -7.696529E+05 -2.058336E+05 -1.495108E+06  2.747084E+04 -1.656450E+04
       112  20 -3.983705E+06 -7.075895E+05 -1.702209E+05 -1.446053E+06  1.858780E+04 -1.590185E+04
       112  21 -3.877604E+06 -6.989888E+05 -1.419620E+05 -1.449138E+06  9.578064E+03 -1.488867E+04
       112  22 -3.373486E+06 -5.153955E+05 -2.806555E+04 -1.310874E+06  2.912152E+04 -1.594329E+04
       112  23 -3.395004E+06 -4.859828E+05 -1.460927E+04 -1.285809E+06  2.040260E+04 -1.522048E+04
       112  24 -3.372691E+06 -5.099932E+05 -8.369210E+03 -1.312883E+06  1.155813E+04 -1.414687E+04
       112  25 -2.700529E+06 -2.611102E+05  1.496629E+05 -1.126459E+06  3.077416E+04 -1.532135E+04
       112  26 -2.805965E+06 -2.643551E+05  1.409725E+05 -1.125426E+06  2.221928E+04 -1.453839E+04
       112  27 -2.867530E+06 -3.209825E+05  1.252020E+05 -1.176527E+06  1.353998E+04 -1.340440E+04
       113   1 -3.752415E+06 -6.547460E+05 -1.068927E+05 -1.416996E+06 -7.501673E+03  1.299809E+04
       113   2 -3.685431E+06 -5.939166E+05 -8.031836E+04 -1.362732E+06 -3.909215E+03  9.739066E+03
       113   3 -3.567990E+06 -5.848074E+05 -5.549009E+04 -1.366900E+06 -2.799347E+02  6.373734E+03
       113   4 -3.371471E+06 -5.116391E+05 -6.580846E+03 -1.313508E+06 -9.463204E+03  1.226400E+04
       113   5 -3.396648E+06 -4.854906E+05 -4.049950E+03 -1.284397E+06 -5.921718E+03  8.986633E+03
       113   6 -3.371367E+06 -5.110498E+05 -3.223172E+03 -1.313718E+06 -2.343788E+03  5.602903E+03
       113   7 -2.990385E+06 -3.685233E+05  9.371876E+04 -1.209962E+06 -1.142607E+04  1.152940E+04
       113   8 -3.107785E+06 -3.770601E+05  7.221091E+04 -1.206029E+06 -7.935244E+03  8.233818E+03
       113   9 -3.174709E+06 -4.372907E+05  4.903979E+04 -1.260521E+06 -4.408340E+03  4.831812E+03
       113  10 -3.752415E+06 -6.547462E+05 -1.068931E+05 -1.416996E+06 -8.771452E-10 -1.260266E-09
       113  11 -3.685431E+06 -5.939167E+05 -8.031857E+04 -1.362732E+06  8.259206E-10  4.633437E-10
       113  12 -3.567990E+06 -5.848074E+05 -5.549016E+04 -1.366900E+06 -1.990306E-10  2.680854E-10
       113  13 -3.371471E+06 -5.116393E+05 -6.581297E+03 -1.313508E+06 -1.484137E-09 -1.268144E-09
       113  14 -3.396648E+06 -4.854907E+05 -4.050168E+03 -1.284397E+06  1.228534E-09 -1.570832E-10
       113  15 -3.371367E+06 -5.110498E+05 -3.223241E+03 -1.313718E+06  1.823478E-09 -7.477919E-11
       113  16 -2.990385E+06 -3.685234E+05  9.371827E+04 -1.209962E+06  1.280827E-10 -1.148756E-10
       113  17 -3.107785E+06 -3.770602E+05  7.221066E+04 -1.206029E+06  7.560720E-10 -1.598012E-09
       113  18 -3.174709E+06 -4.372907E+05  4.903971E+04 -1.260521E+06 -1.246479E-09  8.156287E-11
       113  19 -3.752415E+06 -6.547460E+05 -1.068927E+05 -1.416996E+06  7.501673E+03 -1.299809E+04
       113  20 -3.685431E+06 -5.939166E+05 -8.031836E+04 -1.362732E+06  3.909215E+03 -9.739066E+03
       113  21 -3.567990E+06 -5.848074E+05 -5.549009E+04 -1.366900E+06  2.799347E+02 -6.373734E+03
       113  22 -3.371471E+06 -5.116391E+05 -6.580846E+03 -1.313508E+06  9.463204E+03 -1.226400E+04
       113  23 -3.396648E+06 -4.854906E+05 -4.049950E+03 -1.284397E+06  5.921718E+03 -8.986633E+03
       113  24 -3.371367E+06 -5.110498E+05 -3.223172E+03 -1.313718E+06  2.343788E+03 -5.602903E+03
       113  25 -2.990385E+06 -3.685233E+05  9.371876E+04 -1.209962E+06  1.142607E+04 -1.152940E+04
       113  26 -3.107785E+06 -3.770601E+05  7.221091E+04 -1.206029E+06  7.935244E+03 -8.233818E+03
       113  27 -3.174709E+06 -4.372907E+05  4.903979E+04 -1.260521E+06  4.408340E+03 -4.831812E+03
       114   1 -3.437170E+06 -5.361542E+05 -2.034743E+04 -1.332073E+06  1.176419E+03  4.123932E+03
       114   2 -3.368504E+06 -4.744481E+05  3.374144E+03 -1.276298E+06  4.807987E+03  6.936603E+02
       114   3 -3.248290E+06 -4.657140E+05  2.533053E+04 -1.280434E+06  8.432426E+03 -2.715337E+03
       114   4 -3.371115E+06 -5.113327E+05 -3.247396E+03 -1.314042E+06 -8.956767E+02  3.350272E+03
       114   5 -3.396920E+06 -4.850993E+05 -4.125762E+03 -1.283990E+06  2.746049E+03 -7.632395E+01
       114   6 -3.371188E+06 -5.118415E+05 -6.777174E+03 -1.313853E+06  6.380285E+03 -3.481735E+03
       114   7 -3.305056E+06 -4.865107E+05  1.385247E+04 -1.296009E+06 -2.968035E+03  2.576512E+03
       114   8 -3.425336E+06 -4.957506E+05 -1.162578E+04 -1.291681E+06  6.841980E+02 -8.462756E+02
       114   9 -3.494072E+06 -5.579684E+05 -3.888636E+04 -1.347266E+06  4.328576E+03 -4.247970E+03
       114  10 -3.437170E+06 -5.361542E+05 -2.034747E+04 -1.332073E+06  1.153511E-09 -5.547307E-10
       114  11 -3.368505E+06 -4.744481E+05  3.374100E+03 -1.276298E+06  4.170625E-09  1.141892E-10
       114  12 -3.248291E+06 -4.657140E+05  2.533038E+04 -1.280434E+06 -3.043804E-10 -1.324768E-10
       114  13 -3.371115E+06 -5.113327E+05 -3.247418E+03 -1.314042E+06 -3.067992E-11  3.111461E-10
       114  14 -3.396920E+06 -4.850993E+05 -4.125776E+03 -1.283990E+06  8.234711E-10  1.379036E-09
       114  15 -3.371188E+06 -5.118415E+05 -6.777273E+03 -1.313853E+06 -3.787794E-10  7.037632E-10
       114  16 -3.305056E+06 -4.865108E+05  1.385244E+04 -1.296009E+06  1.676281E-09  1.089905E-09
       114  17 -3.425336E+06 -4.957506E+05 -1.162578E+04 -1.291681E+06 -1.680826E-09 -6.606115E-10
       114  18 -3.494072E+06 -5.579684E+05 -3.888643E+04 -1.347266E+06  8.141206E-10 -7.974671E-10
       114  19 -3.437170E+06 -5.361542E+05 -2.034743E+04 -1.332073E+06 -1.176419E+03 -4.123932E+03
       114  20 -3.368504E+06 -4.744481E+05  3.374144E+03 -1.276298E+06 -4.807987E+03 -6.936603E+02
       114  21 -3.248290E+06 -4.657140E+05  2.533053E+04 -1.280434E+06 -8.432426E+03  2.715337E+03
       114  22 -3.371115E+06 -5.113327E+05 -3.247396E+03 -1.314042E+06  8.956767E+02 -3.350272E+03
       114  23 -3.396920E+06 -4.850993E+05 -4.125762E+03 -1.283990E+06 -2.746049E+03  7.632395E+01
       114  24 -3.371188E+06 -5.118415E+05 -6.777174E+03 -1.313853E+06 -6.380285E+03  3.481735E+03
       114  25 -3.305056E+06 -4.865107E+05  1.385247E+04 -1.296009E+06  2.968035E+03 -2.576512E+03
       114  26 -3.425336E+06 -4.957506E+05 -1.162578E+04 -1.291681E+06 -6.841980E+02  8.462756E+02
       114  27 -3.494072E+06 -5.579684E+05 -3.888636E+04 -1.347266E+06 -4.328576E+03  4.247970E+03
       115   1 -3.118830E+06 -4.164962E+05  5.836780E+04 -1.246093E+06  1.063963E+04 -4.684719E+03
       115   2 -3.052149E+06 -3.556048E+05  7.568717E+04 -1.191138E+06  1.970821E+04 -5.969196E+03
       115   3 -2.938476E+06 -3.520044E+05  8.555279E+04 -1.192629E+06  2.868877E+04 -7.004981E+03
       115   4 -3.371930E+06 -5.107281E+05 -8.654078E+03 -1.313867E+06  8.558441E+03 -5.462295E+03
       115   5 -3.395818E+06 -4.848361E+05 -1.508242E+04 -1.284616E+06  1.774457E+04 -6.703755E+03
       115   6 -3.372746E+06 -5.162630E+05 -2.906104E+04 -1.311815E+06  2.684150E+04 -7.696896E+03
       115   7 -3.624965E+06 -6.049556E+05 -7.568070E+04 -1.381615E+06  6.478214E+03 -6.239520E+03
       115   8 -3.739370E+06 -6.140598E+05 -1.058619E+05 -1.378046E+06  1.578213E+04 -7.437863E+03
       115   9 -3.806835E+06 -6.805102E+05 -1.436917E+05 -1.430926E+06  2.499564E+04 -8.388275E+03
       115  10 -3.118830E+06 -4.164962E+05  5.836754E+04 -1.246093E+06 -2.541012E-09 -9.338312E-10
       115  11 -3.052150E+06 -3.556050E+05  7.568637E+04 -1.191138E+06  2.346314E-11 -1.877257E-09
       115  12 -2.938477E+06 -3.520047E+05  8.555115E+04 -1.192629E+06  2.328488E-09 -6.617720E-10
       115  13 -3.371930E+06 -5.107282E+05 -8.654272E+03 -1.313866E+06 -1.296113E-09 -4.021290E-11
       115  14 -3.395818E+06 -4.848362E+05 -1.508310E+04 -1.284616E+06 -2.104230E-09 -7.869772E-10
       115  15 -3.372747E+06 -5.162632E+05 -2.906251E+04 -1.311815E+06 -6.170949E-10 -1.132289E-09
       115  16 -3.624965E+06 -6.049557E+05 -7.568085E+04 -1.381615E+06  2.592921E-10  5.615822E-10
       115  17 -3.739371E+06 -6.140599E+05 -1.058624E+05 -1.378046E+06  1.765045E-09  1.126890E-09
       115  18 -3.806835E+06 -6.805104E+05 -1.436930E+05 -1.430926E+06 -3.005129E-10 -5.023906E-10
       115  19 -3.118830E+06 -4.164962E+05  5.836780E+04 -1.246093E+06 -1.063963E+04  4.684719E+03
       115  20 -3.052149E+06 -3.556048E+05  7.568717E+04 -1.191138E+06 -1.970821E+04  5.969196E+03
       115  21 -2.938476E+06 -3.520044E+05  8.555279E+04 -1.192629E+06 -2.868877E+04  7.004981E+03
       115  22 -3.371930E+06 -5.107281E+05 -8.654078E+03 -1.313867E+06 -8.558441E+03  5.462295E+03
       115  23 -3.395818E+06 -4.848361E+05 -1.508242E+04 -1.284616E+06 -1.774457E+04  6.703755E+03
       115  24 -3.372746E+06 -5.162630E+05 -2.906104E+04 -1.311815E+06 -2.684150E+04  7.696896E+03
       115  25 -3.624965E+06 -6.049556E+05 -7.568070E+04 -1.381615E+06 -6.478214E+03  6.239520E+03
       115  26 -3.739370E+06 -6.140598E+05 -1.058619E+05 -1.378046E+06 -1.578213E+04  7.437863E+03
       115  27 -3.806835E+06 -6.805102E+05 -1.436917E+05 -1.430926E+06 -2.499564E+04  8.388275E+03
       116   1 -2.814779E+06 -3.039438E+05  1.100274E+05 -1.169450E+06  3.545696E+04 -7.355758E+03
       116   2 -2.752503E+06 -2.359917E+05  1.039225E+05 -1.109897E+06  6.958133E+04  1.198199E+03
       116   3 -2.672172E+06 -2.776440E+05  5.610148E+04 -1.087013E+06  1.029618E+05  1.176202E+04
       116   4 -3.376448E+06 -5.080779E+05 -3.724824E+04 -1.314870E+06  3.312097E+04 -8.230983E+03
       116   5 -3.389083E+06 -4.790250E+05 -6.486745E+04 -1.286867E+06  6.819957E+04  6.779749E+02
       116   6 -3.383887E+06 -5.598152E+05 -1.349971E+05 -1.295534E+06  1.025295E+05  1.159475E+04
       116   7 -3.937810E+06 -7.121983E+05 -1.845506E+05 -1.460173E+06  3.078731E+04 -9.105406E+03
       116   8 -4.025267E+06 -7.220301E+05 -2.336923E+05 -1.463670E+06  6.681934E+04  1.583446E+02
       116   9 -4.095106E+06 -8.419399E+05 -3.261400E+05 -1.503832E+06  1.020977E+05  1.142768E+04
       116  10 -2.814780E+06 -3.039442E+05  1.100249E+05 -1.169450E+06  1.849301E-09 -2.603674E-10
       116  11 -2.752509E+06 -2.359930E+05  1.039134E+05 -1.109898E+06  1.058670E-09 -1.340304E-10
       116  12 -2.672184E+06 -2.776470E+05  5.608121E+04 -1.087014E+06 -1.035094E-09 -2.122170E-10
       116  13 -3.376449E+06 -5.080783E+05 -3.725044E+04 -1.314870E+06  1.226705E-09 -5.556545E-10
       116  14 -3.389088E+06 -4.790263E+05 -6.487623E+04 -1.286867E+06  9.871520E-10  5.235132E-10
       116  15 -3.383898E+06 -5.598182E+05 -1.350172E+05 -1.295535E+06 -1.617246E-09 -7.825311E-11
       116  16 -3.937811E+06 -7.121987E+05 -1.845525E+05 -1.460173E+06  1.167251E-10 -6.056409E-10
       116  17 -4.025272E+06 -7.220313E+05 -2.337008E+05 -1.463670E+06  1.766329E-09  1.173567E-09
       116  18 -4.095117E+06 -8.419429E+05 -3.261600E+05 -1.503833E+06  4.155397E-10 -3.459035E-10
       116  19 -2.814779E+06 -3.039438E+05  1.100274E+05 -1.169450E+06 -3.545696E+04  7.355758E+03
       116  20 -2.752503E+06 -2.359917E+05  1.039225E+05 -1.109897E+06 -6.958133E+04 -1.198199E+03
       116  21 -2.672172E+06 -2.776440E+05  5.610148E+04 -1.087013E+06 -1.029618E+05 -1.176202E+04
       116  22 -3.376448E+06 -5.080779E+05 -3.724824E+04 -1.314870E+06 -3.312097E+04  8.230983E+03
       116  23 -3.389083E+06 -4.790250E+05 -6.486745E+04 -1.286867E+06 -6.819957E+04 -6.779749E+02
       116  24 -3.383887E+06 -5.598152E+05 -1.349971E+05 -1.295534E+06 -1.025295E+05 -1.159475E+04
       116  25 -3.937810E+06 -7.121983E+05 -1.845506E+05 -1.460173E+06 -3.078731E+04  9.105406E+03
       116  26 -4.025267E+06 -7.220301E+05 -2.336923E+05 -1.463670E+06 -6.681934E+04 -1.583446E+02
       116  27 -4.095106E+06 -8.419399E+05 -3.261400E+05 -1.503832E+06 -1.020977E+05 -1.142768E+04
       117   1 -2.533145E+06 -2.231288E+05  5.260267E+04 -1.158248E+06  1.350532E+05  1.778264E+04
       117   2 -2.473036E+06 -4.687565E+04 -3.844565E+04 -1.017251E+06  2.747981E+05  6.756889E+04
       117   3 -2.615103E+06 -5.000291E+05 -3.950004E+05 -7.653143E+05  4.056410E+05  1.410655E+05
       117   4 -3.406879E+06 -4.900073E+05 -1.660644E+05 -1.332596E+06  1.279099E+05  1.511200E+04
       117   5 -3.339235E+06 -4.156155E+05 -2.751112E+05 -1.297227E+06  2.791132E+05  6.916639E+04
       117   6 -3.476414E+06 -9.734899E+05 -6.590808E+05 -1.150835E+06  4.214062E+05  1.468878E+05
       117   7 -4.279870E+06 -7.568953E+05 -3.847889E+05 -1.506751E+06  1.207775E+05  1.244369E+04
       117   8 -4.204695E+06 -7.842485E+05 -5.118445E+05 -1.576827E+06  2.834214E+05  7.076052E+04
       117   9 -4.336941E+06 -1.446615E+06 -9.232296E+05 -1.535785E+06  4.371469E+05  1.526912E+05
       117  10 -2.533165E+06 -2.231341E+05  5.256764E+04 -1.158250E+06 -1.035393E-09 -1.016721E-09
       117  11 -2.473119E+06 -4.690096E+04 -3.859684E+04 -1.017266E+06  2.169958E-10 -1.651195E-09
       117  12 -2.615286E+06 -5.000950E+05 -3.953486E+05 -7.653606E+05  6.251284E-10 -3.104449E-10
       117  13 -3.406896E+06 -4.900120E+05 -1.660958E+05 -1.332598E+06 -1.465097E-09 -2.416485E-10
       117  14 -3.339320E+06 -4.156418E+05 -2.752675E+05 -1.297243E+06 -2.327144E-09 -3.083850E-10
       117  15 -3.476612E+06 -9.735612E+05 -6.594575E+05 -1.150885E+06  1.547408E-09 -3.093628E-10
       117  16 -4.279886E+06 -7.568994E+05 -3.848168E+05 -1.506752E+06 -1.072747E-09 -5.552714E-10
       117  17 -4.204784E+06 -7.842757E+05 -5.120061E+05 -1.576844E+06 -4.127997E-09  8.752177E-10
       117  18 -4.337154E+06 -1.446692E+06 -9.236357E+05 -1.535839E+06 -7.529119E-10  7.212591E-10
       117  19 -2.533145E+06 -2.231288E+05  5.260267E+04 -1.158248E+06 -1.350532E+05 -1.778264E+04
       117  20 -2.473036E+06 -4.687565E+04 -3.844565E+04 -1.017251E+06 -2.747981E+05 -6.756889E+04
       117  21 -2.615103E+06 -5.000291E+05 -3.950004E+05 -7.653143E+05 -4.056410E+05 -1.410655E+05
       117  22 -3.406879E+06 -4.900073E+05 -1.660644E+05 -1.332596E+06 -1.279099E+05 -1.511200E+04
       117  23 -3.339235E+06 -4.156155E+05 -2.751112E+05 -1.297227E+06 -2.791132E+05 -6.916639E+04
       117  24 -3.476414E+06 -9.734899E+05 -6.590808E+05 -1.150835E+06 -4.214062E+05 -1.468878E+05
       117  25 -4.279870E+06 -7.568953E+05 -3.847889E+05 -1.506751E+06 -1.207775E+05 -1.244369E+04
       117  26 -4.204695E+06 -7.842485E+05 -5.118445E+05 -1.576827E+06 -2.834214E+05 -7.076052E+04
       117  27 -4.336941E+06 -1.446615E+06 -9.232296E+05 -1.535785E+06 -4.371469E+05 -1.526912E+05
       118   1 -5.796249E+05  6.391092E+04  1.126997E+05  3.974088E+04  1.494474E+05  5.048784E+03
       118   2 -5.741228E+05 -1.337925E+05 -3.979747E+03  1.066304E+04  1.006911E+05  1.473867E+04
       118   3 -5.065412E+05 -1.097255E+05 -3.338771E+04 -4.423824E+04  5.194153E+04  1.367897E+04
       118   4 -1.025815E+05  1.827076E+05  2.302935E+05 -1.952680E+04  1.575126E+05  5.042953E+03
       118   5 -1.340983E+05 -2.478411E+04  1.010242E+05 -6.520013E+03  1.030440E+05  1.473713E+04
       118   6 -1.025943E+05 -9.605114E+03  6.294698E+04 -1.933538E+04  4.858566E+04  1.367849E+04
       118   7  3.746767E+05  3.015007E+05  3.478726E+05 -7.884017E+04  1.655840E+05  5.035587E+03
       118   8  3.061046E+05  8.421145E+04  2.060147E+05 -2.371535E+04  1.053985E+05  1.473547E+04
       118   9  3.015037E+05  9.050584E+04  1.592706E+05  5.583763E+03  4.522761E+04  1.367774E+04
       118  10 -5.796489E+05  6.390489E+04  1.126576E+05  3.974027E+04  5.528610E-10  9.428125E-11
       118  11 -5.741338E+05 -1.337955E+05 -3.999224E+03  1.066185E+04 -1.050140E-09 -7.397681E-10
       118  12 -5.065442E+05 -1.097265E+05 -3.339314E+04 -4.423882E+04 -1.073475E-09 -2.393750E-10
       118  13 -1.026082E+05  1.827009E+05  2.302468E+05 -1.952744E+04 -9.421908E-10 -1.135264E-11
       118  14 -1.341098E+05 -2.478719E+04  1.010038E+05 -6.521236E+03  1.141806E-09 -1.392257E-09
       118  15 -1.025969E+05 -9.605949E+03  6.294220E+04 -1.933591E+04 -9.478696E-10 -2.556793E-10
       118  16  3.746473E+05  3.014933E+05  3.478211E+05 -7.884084E+04  5.579510E-10 -2.087525E-10
       118  17  3.060926E+05  8.420824E+04  2.059935E+05 -2.371660E+04 -2.595235E-09 -4.135769E-10
       118  18  3.015014E+05  9.050509E+04  1.592664E+05  5.583265E+03 -8.522204E-10 -5.232252E-10
       118  19 -5.796249E+05  6.391092E+04  1.126997E+05  3.974088E+04 -1.494474E+05 -5.048784E+03
       118  20 -5.741228E+05 -1.337925E+05 -3.979747E+03  1.066304E+04 -1.006911E+05 -1.473867E+04
       118  21 -5.065412E+05 -1.097255E+05 -3.338771E+04 -4.423824E+04 -5.194153E+04 -1.367897E+04
       118  22 -1.025815E+05  1.827076E+05  2.302935E+05 -1.952680E+04 -1.575126E+05 -5.042953E+03
       118  23 -1.340983E+05 -2.478411E+04  1.010242E+05 -6.520013E+03 -1.030440E+05 -1.473713E+04
       118  24 -1.025943E+05 -9.605114E+03  6.294698E+04 -1.933538E+04 -4.858566E+04 -1.367849E+04
       118  25  3.746767E+05  3.015007E+05  3.478726E+05 -7.884017E+04 -1.655840E+05 -5.035587E+03
       118  26  3.061046E+05  8.421145E+04  2.060147E+05 -2.371535E+04 -1.053985E+05 -1.473547E+04
       118  27  3.015037E+05  9.050584E+04  1.592706E+05  5.583763E+03 -4.522761E+04 -1.367774E+04
       119   1 -4.721928E+05 -7.006838E+04 -3.419496E+04 -1.416047E+04  3.903349E+04  1.128629E+04
       119   2 -4.393917E+05 -8.211337E+04 -5.038922E+04 -5.131076E+03  2.603997E+04  1.055113E+04
       119   3 -3.990850E+05 -7.142206E+04 -5.240760E+04 -2.214759E+04  1.304544E+04  9.056465E+03
       119   4 -1.149046E+05  1.850284E+04  5.128112E+04 -1.944514E+04  3.886408E+04  1.128544E+04
       119   5 -1.186890E+05 -2.637307E+03  2.618700E+04 -6.418923E+03  2.546270E+04  1.055055E+04
       119   6 -1.149023E+05 -9.770150E+02  1.554619E+04 -1.943759E+04  1.206107E+04  9.056160E+03
       119   7  2.425007E+05  1.070649E+05  1.367482E+05 -2.473288E+04  3.869456E+04  1.128460E+04
       119   8  2.021080E+05  7.683132E+04  1.027560E+05 -7.707444E+03  2.488513E+04  1.054997E+04
       119   9  1.693544E+05  6.946221E+04  8.349430E+04 -1.672634E+04  1.107625E+04  9.055846E+03
       119  10 -4.721945E+05 -7.006893E+04 -3.419807E+04 -1.416083E+04  2.754357E-09 -7.267003E-10
       119  11 -4.393925E+05 -8.211367E+04 -5.039071E+04 -5.131297E+03  5.531036E-10 -5.921434E-10
       119  12 -3.990852E+05 -7.142220E+04 -5.240808E+04 -2.214769E+04  8.200025E-10 -3.676463E-10
       119  13 -1.149063E+05  1.850230E+04  5.127804E+04 -1.944549E+04 -9.975771E-10 -4.233224E-10
       119  14 -1.186898E+05 -2.637600E+03  2.618557E+04 -6.419139E+03 -1.072627E-09 -3.939808E-10
       119  15 -1.149025E+05 -9.771422E+02  1.554577E+04 -1.943768E+04 -1.051034E-09 -3.321418E-10
       119  16  2.424991E+05  1.070644E+05  1.367452E+05 -2.473323E+04  1.158116E-11  2.725194E-11
       119  17  2.021073E+05  7.683104E+04  1.027546E+05 -7.707656E+03  2.057717E-10 -2.991322E-10
       119  18  1.693543E+05  6.946209E+04  8.349391E+04 -1.672642E+04 -4.198938E-10 -2.040228E-10
       119  19 -4.721928E+05 -7.006838E+04 -3.419496E+04 -1.416047E+04 -3.903349E+04 -1.128629E+04
       119  20 -4.393917E+05 -8.211337E+04 -5.038922E+04 -5.131076E+03 -2.603997E+04 -1.055113E+04
       119  21 -3.990850E+05 -7.142206E+04 -5.240760E+04 -2.214759E+04 -1.304544E+04 -9.056465E+03
       119  22 -1.149046E+05  1.850284E+04  5.128112E+04 -1.944514E+04 -3.886408E+04 -1.128544E+04
       119  23 -1.186890E+05 -2.637307E+03  2.618700E+04 -6.418923E+03 -2.546270E+04 -1.055055E+04
       119  24 -1.149023E+05 -9.770150E+02  1.554619E+04 -1.943759E+04 -1.206107E+04 -9.056160E+03
       119  25  2.425007E+05  1.070649E+05  1.367482E+05 -2.473288E+04 -3.869456E+04 -1.128460E+04
       119  26  2.021080E+05  7.683132E+04  1.027560E+05 -7.707444E+03 -2.488513E+04 -1.054997E+04
       119  27  1.693544E+05  6.946221E+04  8.349430E+04 -1.672634E+04 -1.107625E+04 -9.055846E+03
       120   1 -3.536815E+05 -5.696641E+04 -4.443670E+04 -1.908919E+04  1.037491E+04  8.060928E+03
       120   2 -3.175385E+05 -5.001984E+04 -4.127130E+04 -6.343031E+03  7.076237E+03  6.588500E+03
       120   3 -2.803470E+05 -4.075007E+04 -3.536877E+04 -1.974666E+04  3.776710E+03  5.061284E+03
       120   4 -1.163442E+05  1.829870E+03  1.214253E+04 -1.946281E+04  9.614632E+03  8.060715E+03
       120   5 -1.168687E+05 -2.927696E+02  6.643555E+03 -6.388234E+03  6.285853E+03  6.588440E+03
       120   6 -1.163417E+05 -8.755650E+01  3.901706E+03 -1.946290E+04  2.956413E+03  5.061385E+03
       120   7  1.210448E+05  6.062208E+04  6.871781E+04 -1.983657E+04  8.854063E+03  8.060504E+03
       120   8  8.383811E+04  4.943139E+04  5.455558E+04 -6.433451E+03  5.495215E+03  6.588380E+03
       120   9  4.768834E+04  4.057301E+04  4.317028E+04 -1.917906E+04  2.135901E+03  5.061486E+03
       120  10 -3.536817E+05 -5.696651E+04 -4.443702E+04 -1.908926E+04 -3.358016E-10  5.769674E-10
       120  11 -3.175386E+05 -5.001990E+04 -4.127148E+04 -6.343069E+03  1.072970E-09  9.714100E-10
       120  12 -2.803470E+05 -4.075010E+04 -3.536885E+04 -1.974667E+04  5.824348E-10 -7.102605E-10
       120  13 -1.163444E+05  1.829775E+03  1.214224E+04 -1.946287E+04 -1.069553E-09  3.576073E-10
       120  14 -1.168687E+05 -2.928268E+02  6.643399E+03 -6.388268E+03  5.171957E-10  8.755376E-10
       120  15 -1.163417E+05 -8.758635E+01  3.901641E+03 -1.946291E+04  9.282084E-10 -6.253146E-10
       120  16  1.210447E+05  6.062199E+04  6.871754E+04 -1.983663E+04 -2.461439E-10  1.756390E-10
       120  17  8.383806E+04  4.943134E+04  5.455544E+04 -6.433480E+03 -7.623688E-10  8.633964E-10
       120  18  4.768832E+04  4.057298E+04  4.317023E+04 -1.917907E+04 -7.143570E-10 -1.588124E-10
       120  19 -3.536815E+05 -5.696641E+04 -4.443670E+04 -1.908919E+04 -1.037491E+04 -8.060928E+03
       120  20 -3.175385E+05 -5.001984E+04 -4.127130E+04 -6.343031E+03 -7.076237E+03 -6.588500E+03
       120  21 -2.803470E+05 -4.075007E+04 -3.536877E+04 -1.974666E+04 -3.776710E+03 -5.061284E+03
       120  22 -1.163442E+05  1.829870E+03  1.214253E+04 -1.946281E+04 -9.614632E+03 -8.060715E+03
       120  23 -1.168687E+05 -2.927696E+02  6.643555E+03 -6.388234E+03 -6.285853E+03 -6.588440E+03
       120  24 -1.163417E+05 -8.755650E+01  3.901706E+03 -1.946290E+04 -2.956413E+03 -5.061385E+03
       120  25  1.210448E+05  6.062208E+04  6.871781E+04 -1.983657E+04 -8.854063E+03 -8.060504E+03
       120  26  8.383811E+04  4.943139E+04  5.455558E+04 -6.433451E+03 -5.495215E+03 -6.588380E+03
       120  27  4.768834E+04  4.057301E+04  4.317028E+04 -1.917906E+04 -2.135901E+03 -5.061486E+03
       121   1 -2.335724E+05 -2.880038E+04 -2.481504E+04 -1.945436E+04  3.139855E+03  4.162822E+03
       121   2 -1.969192E+05 -1.992971E+04 -1.739541E+04 -6.378837E+03  2.259199E+03  2.635624E+03
       121   3 -1.600995E+05 -1.080783E+04 -9.342295E+03 -1.949813E+04  1.378239E+03  1.104287E+03
       121   4 -1.165349E+05  1.786173E+02  3.018891E+03 -1.947290E+04  2.334941E+03  4.162993E+03
       121   5 -1.166171E+05 -3.186506E+01  1.777428E+03 -6.375628E+03  1.451926E+03  2.635854E+03
       121   6 -1.165338E+05  9.306561E+00  1.171041E+03 -1.947296E+04  5.686584E+02  1.104581E+03
       121   7  5.152255E+02  2.915663E+04  3.085187E+04 -1.949145E+04  1.529876E+03  4.163163E+03
       121   8 -3.630909E+04  1.986551E+04  2.094981E+04 -6.372418E+03  6.445485E+02  2.636083E+03
       121   9 -7.296633E+04  1.082631E+04  1.168424E+04 -1.944778E+04 -2.409789E+02  1.104874E+03
       121  10 -2.335725E+05 -2.880040E+04 -2.481510E+04 -1.945437E+04 -1.837913E-10 -1.072439E-09
       121  11 -1.969192E+05 -1.992971E+04 -1.739543E+04 -6.378842E+03  3.933813E-10  5.304884E-10
       121  12 -1.600995E+05 -1.080784E+04 -9.342301E+03 -1.949813E+04  9.640291E-10  2.634715E-10
       121  13 -1.165349E+05  1.785972E+02  3.018849E+03 -1.947291E+04  1.429450E-11 -6.534185E-10
       121  14 -1.166171E+05 -3.187308E+01  1.777411E+03 -6.375631E+03 -1.636528E-09 -8.017533E-11
       121  15 -1.165338E+05  9.305164E+00  1.171038E+03 -1.947296E+04  6.353047E-10 -2.369311E-11
       121  16  5.152183E+02  2.915661E+04  3.085183E+04 -1.949146E+04  7.261197E-10 -1.018721E-09
       121  17 -3.630909E+04  1.986550E+04  2.094980E+04 -6.372419E+03 -4.864754E-10 -2.027191E-11
       121  18 -7.296633E+04  1.082631E+04  1.168424E+04 -1.944778E+04 -3.415266E-10 -1.177178E-10
       121  19 -2.335724E+05 -2.880038E+04 -2.481504E+04 -1.945436E+04 -3.139855E+03 -4.162822E+03
       121  20 -1.969192E+05 -1.992971E+04 -1.739541E+04 -6.378837E+03 -2.259199E+03 -2.635624E+03
       121  21 -1.600995E+05 -1.080783E+04 -9.342295E+03 -1.949813E+04 -1.378239E+03 -1.104287E+03
       121  22 -1.165349E+05  1.786173E+02  3.018891E+03 -1.947290E+04 -2.334941E+03 -4.162993E+03
       121  23 -1.166171E+05 -3.186506E+01  1.777428E+03 -6.375628E+03 -1.451926E+03 -2.635854E+03
       121  24 -1.165338E+05  9.306561E+00  1.171041E+03 -1.947296E+04 -5.686584E+02 -1.104581E+03
       121  25  5.152255E+02  2.915663E+04  3.085187E+04 -1.949145E+04 -1.529876E+03 -4.163163E+03
       121  26 -3.630909E+04  1.986551E+04  2.094981E+04 -6.372418E+03 -6.445485E+02 -2.636083E+03
       121  27 -7.296633E+04  1.082631E+04  1.168424E+04 -1.944778E+04  2.409789E+02 -1.104874E+03
       122   1 -1.131017E+05  9.030598E+02  1.946841E+03 -1.947574E+04  1.180783E+03  2.115059E+02
       122   2 -7.638617E+04  9.950918E+03  1.050325E+04 -6.385571E+03  7.294751E+02 -1.320033E+03
       122   3 -3.960427E+04  1.910361E+04  1.937516E+04 -1.949684E+04  2.782748E+02 -2.848057E+03
       122   4 -1.165555E+05  2.492785E+01  1.010422E+03 -1.947448E+04  3.711941E+02  2.118098E+02
       122   5 -1.165885E+05 -9.988009E+00  9.052887E+02 -6.373705E+03 -7.825945E+01 -1.319763E+03
       122   6 -1.165561E+05  5.983841E+01  1.114599E+03 -1.947447E+04 -5.275790E+02 -2.847815E+03
       122   7 -1.200093E+05 -8.532047E+02  7.400436E+01 -1.947322E+04 -4.383902E+02  2.121136E+02
       122   8 -1.567893E+05 -9.971011E+03 -8.692780E+03 -6.361840E+03 -8.859419E+02 -1.319492E+03
       122   9 -1.935025E+05 -1.898436E+04 -1.714637E+04 -1.945210E+04 -1.333333E+03 -2.847574E+03
       122  10 -1.131017E+05  9.030594E+02  1.946838E+03 -1.947574E+04 -6.068811E-10 -1.180340E-10
       122  11 -7.638617E+04  9.950916E+03  1.050324E+04 -6.385570E+03 -1.028189E-09  2.206254E-10
       122  12 -3.960427E+04  1.910360E+04  1.937514E+04 -1.949684E+04 -1.803656E-10  6.880471E-10
       122  13 -1.165555E+05  2.492776E+01  1.010422E+03 -1.947448E+04  1.071759E-09  3.703403E-10
       122  14 -1.165885E+05 -9.989881E+00  9.052854E+02 -6.373705E+03 -1.036714E-09  5.486527E-10
       122  15 -1.165561E+05  5.982963E+01  1.114583E+03 -1.947447E+04  1.667823E-09 -1.771671E-10
       122  16 -1.200093E+05 -8.532048E+02  7.400392E+01 -1.947322E+04 -1.015560E-09  1.803668E-10
       122  17 -1.567893E+05 -9.971013E+03 -8.692785E+03 -6.361841E+03 -1.489567E-10  3.830982E-10
       122  18 -1.935025E+05 -1.898436E+04 -1.714639E+04 -1.945211E+04 -1.653221E-09 -3.667879E-10
       122  19 -1.131017E+05  9.030598E+02  1.946841E+03 -1.947574E+04 -1.180783E+03 -2.115059E+02
       122  20 -7.638617E+04  9.950918E+03  1.050325E+04 -6.385571E+03 -7.294751E+02  1.320033E+03
       122  21 -3.960427E+04  1.910361E+04  1.937516E+04 -1.949684E+04 -2.782748E+02  2.848057E+03
       122  22 -1.165555E+05  2.492785E+01  1.010422E+03 -1.947448E+04 -3.711941E+02 -2.118098E+02
       122  23 -1.165885E+05 -9.988009E+00  9.052887E+02 -6.373705E+03  7.825945E+01  1.319763E+03
       122  24 -1.165561E+05  5.983841E+01  1.114599E+03 -1.947447E+04  5.275790E+02  2.847815E+03
       122  25 -1.200093E+05 -8.532047E+02  7.400436E+01 -1.947322E+04  4.383902E+02 -2.121136E+02
       122  26 -1.567893E+05 -9.971011E+03 -8.692780E+03 -6.361840E+03  8.859419E+02  1.319492E+03
       122  27 -1.935025E+05 -1.898436E+04 -1.714637E+04 -1.945210E+04  1.333333E+03  2.847574E+03
       123   1  7.452348E+03  3.071537E+04  3.102852E+04 -1.940518E+04  7.281961E+01 -3.746259E+03
       123   2  4.399315E+04  3.971481E+04  4.042285E+04 -6.417120E+03 -9.913955E+02 -5.274332E+03
       123   3  8.086582E+04  4.941979E+04  5.068924E+04 -1.959320E+04 -2.055183E+03 -6.751834E+03
       123   4 -1.165009E+05 -1.701753E+01  1.326315E+03 -1.946629E+04 -7.474183E+02 -3.746066E+03
       123   5 -1.166648E+05 -8.837062E+01  2.070212E+03 -6.383972E+03 -1.784718E+03 -5.274269E+03
       123   6 -1.165032E+05  5.412159E+02  3.667589E+03 -1.946621E+04 -2.821527E+03 -6.751892E+03
       123   7 -2.404400E+05 -3.075052E+04 -2.837697E+04 -1.952738E+04 -1.567493E+03 -3.745873E+03
       123   8 -2.772990E+05 -3.989342E+04 -3.628424E+04 -6.350832E+03 -2.577836E+03 -5.274207E+03
       123   9 -3.138364E+05 -4.834017E+04 -4.335679E+04 -1.933926E+04 -3.587629E+03 -6.751951E+03
       123  10  7.452345E+03  3.071536E+04  3.102849E+04 -1.940518E+04  1.208628E-09  7.883195E-10
       123  11  4.399314E+04  3.971478E+04  4.042280E+04 -6.417124E+03 -3.100215E-09 -1.920886E-10
       123  12  8.086580E+04  4.941974E+04  5.068915E+04 -1.959321E+04 -2.428642E-09 -3.168375E-10
       123  13 -1.165009E+05 -1.703275E+01  1.326287E+03 -1.946629E+04 -2.237029E-09 -4.059089E-11
       123  14 -1.166648E+05 -8.840134E+01  2.070154E+03 -6.383980E+03 -1.678869E-09 -1.710583E-10
       123  15 -1.165032E+05  5.411648E+02  3.667488E+03 -1.946622E+04  3.786228E-12 -7.421926E-11
       123  16 -2.404400E+05 -3.075054E+04 -2.837700E+04 -1.952739E+04 -1.027406E-10  4.792424E-11
       123  17 -2.772990E+05 -3.989345E+04 -3.628431E+04 -6.350843E+03 -1.512512E-09  2.927853E-11
       123  18 -3.138364E+05 -4.834022E+04 -4.335690E+04 -1.933928E+04 -7.436015E-11  1.267050E-10
       123  19  7.452348E+03  3.071537E+04  3.102852E+04 -1.940518E+04 -7.281961E+01  3.746259E+03
       123  20  4.399315E+04  3.971481E+04  4.042285E+04 -6.417120E+03  9.913955E+02  5.274332E+03
       123  21  8.086582E+04  4.941979E+04  5.068924E+04 -1.959320E+04  2.055183E+03  6.751834E+03
       123  22 -1.165009E+05 -1.701753E+01  1.326315E+03 -1.946629E+04  7.474183E+02  3.746066E+03
       123  23 -1.166648E+05 -8.837062E+01  2.070212E+03 -6.383972E+03  1.784718E+03  5.274269E+03
       123  24 -1.165032E+05  5.412159E+02  3.667589E+03 -1.946621E+04  2.821527E+03  6.751892E+03
       123  25 -2.404400E+05 -3.075052E+04 -2.837697E+04 -1.952738E+04  1.567493E+03  3.745873E+03
       123  26 -2.772990E+05 -3.989342E+04 -3.628424E+04 -6.350832E+03  2.577836E+03  5.274207E+03
       123  27 -3.138364E+05 -4.834017E+04 -4.335679E+04 -1.933926E+04  3.587629E+03  6.751951E+03
       124   1  1.282152E+05  6.024612E+04  6.307945E+04 -1.865400E+04 -2.585412E+03 -7.738910E+03
       124   2  1.636427E+05  6.878305E+04  7.485322E+04 -6.782448E+03 -6.956593E+03 -9.233048E+03
       124   3  2.014436E+05  8.417040E+04  9.120353E+04 -2.098740E+04 -1.132741E+04 -1.002547E+04
       124   4 -1.160682E+05 -2.914848E+02  4.670160E+03 -1.944650E+04 -3.558763E+03 -7.739072E+03
       124   5 -1.172244E+05 -7.961328E+02  7.813045E+03 -6.408577E+03 -7.557738E+03 -9.233411E+03
       124   6 -1.160718E+05  5.486875E+03  1.527559E+04 -1.944782E+04 -1.155609E+04 -1.002590E+04
       124   7 -3.602969E+05 -6.083341E+04 -5.374334E+04 -2.023869E+04 -4.531733E+03 -7.739232E+03
       124   8 -3.980191E+05 -7.038102E+04 -5.923268E+04 -6.034877E+03 -8.158611E+03 -9.233774E+03
       124   9 -4.334947E+05 -7.320394E+04 -6.065947E+04 -1.790903E+04 -1.178465E+04 -1.002634E+04
       124  10  1.282152E+05  6.024605E+04  6.307933E+04 -1.865401E+04 -1.901610E-09 -5.076677E-10
       124  11  1.636426E+05  6.878295E+04  7.485297E+04 -6.782500E+03 -2.674970E-09 -8.284129E-10
       124  12  2.014434E+05  8.417026E+04  9.120310E+04 -2.098749E+04 -2.090678E-09  2.290709E-10
       124  13 -1.160682E+05 -2.915525E+02  4.670023E+03 -1.944652E+04 -5.380297E-09 -2.533759E-10
       124  14 -1.172244E+05 -7.962396E+02  7.812778E+03 -6.408633E+03 -2.175270E-09 -8.804296E-11
       124  15 -1.160719E+05  5.486731E+03  1.527515E+04 -1.944791E+04 -6.408357E-10  2.696387E-10
       124  16 -3.602969E+05 -6.083348E+04 -5.374349E+04 -2.023872E+04  2.362759E-10  1.657800E-10
       124  17 -3.980192E+05 -7.038113E+04 -5.923297E+04 -6.034938E+03 -5.031190E-09  3.340427E-10
       124  18 -4.334949E+05 -7.320409E+04 -6.065992E+04 -1.790912E+04  5.355249E-10  7.566980E-10
       124  19  1.282152E+05  6.024612E+04  6.307945E+04 -1.865400E+04  2.585412E+03  7.738910E+03
       124  20  1.636427E+05  6.878305E+04  7.485322E+04 -6.782448E+03  6.956593E+03  9.233048E+03
       124  21  2.014436E+05  8.417040E+04  9.120353E+04 -2.098740E+04  1.132741E+04  1.002547E+04
       124  22 -1.160682E+05 -2.914848E+02  4.670160E+03 -1.944650E+04  3.558763E+03  7.739072E+03
       124  23 -1.172244E+05 -7.961328E+02  7.813045E+03 -6.408577E+03  7.557738E+03  9.233411E+03
       124  24 -1.160718E+05  5.486875E+03  1.527559E+04 -1.944782E+04  1.155609E+04  1.002590E+04
       124  25 -3.602969E+05 -6.083341E+04 -5.374334E+04 -2.023869E+04  4.531733E+03  7.739232E+03
       124  26 -3.980191E+05 -7.038102E+04 -5.923268E+04 -6.034877E+03  8.158611E+03  9.233774E+03
       124  27 -4.334947E+05 -7.320394E+04 -6.065947E+04 -1.790903E+04  1.178465E+04  1.002634E+04
       125   1  2.519291E+05  8.735752E+04  1.055965E+05 -1.188868E+04 -1.128335E+04 -1.229325E+04
       125   2  2.786074E+05  9.177050E+04  1.255730E+05 -1.151637E+04 -3.273877E+04 -1.335353E+04
       125   3  3.250764E+05  1.633625E+05  1.763506E+05 -3.689709E+04 -5.420319E+04 -4.494941E+03
       125   4 -1.123961E+05 -2.878015E+03  1.874736E+04 -1.936231E+04 -1.445192E+04 -1.229486E+04
       125   5 -1.218428E+05 -7.406922E+03  3.005712E+04 -6.507862E+03 -3.065903E+04 -1.335304E+04
       125   6 -1.123979E+05  5.435513E+04  6.853663E+04 -1.940670E+04 -4.687378E+04 -4.490399E+03
       125   7 -4.765996E+05 -9.312292E+04 -6.811105E+04 -2.683154E+04 -1.761864E+04 -1.229639E+04
       125   8 -5.221458E+05 -1.065958E+05 -6.547002E+04 -1.502619E+03 -2.858062E+04 -1.335253E+04
       125   9 -5.496974E+05 -5.466534E+04 -3.929113E+04 -1.928678E+03 -3.954951E+04 -4.485443E+03
       125  10  2.519290E+05  8.735732E+04  1.055960E+05 -1.188879E+04 -1.295619E-10  5.966652E-10
       125  11  2.786062E+05  9.177002E+04  1.255707E+05 -1.151672E+04  4.595392E-10  2.077124E-10
       125  12  3.250732E+05  1.633617E+05  1.763451E+05 -3.689729E+04  1.934621E-10  3.784629E-10
       125  13 -1.123964E+05 -2.878233E+03  1.874668E+04 -1.936245E+04  1.693370E-10 -3.471877E-10
       125  14 -1.218438E+05 -7.407366E+03  3.005502E+04 -6.508191E+03 -5.384330E-10 -6.460020E-11
       125  15 -1.124003E+05  5.435452E+04  6.853246E+04 -1.940687E+04  3.296981E-10 -4.597623E-10
       125  16 -4.765999E+05 -9.312317E+04 -6.811191E+04 -2.683172E+04 -2.068812E-09  2.511379E-10
       125  17 -5.221468E+05 -1.065962E+05 -6.547190E+04 -1.502927E+03 -2.052160E-09 -8.735877E-10
       125  18 -5.496991E+05 -5.466578E+04 -3.929411E+04 -1.928821E+03  9.353093E-10  4.604883E-10
       125  19  2.519291E+05  8.735752E+04  1.055965E+05 -1.188868E+04  1.128335E+04  1.229325E+04
       125  20  2.786074E+05  9.177050E+04  1.255730E+05 -1.151637E+04  3.273877E+04  1.335353E+04
       125  21  3.250764E+05  1.633625E+05  1.763506E+05 -3.689709E+04  5.420319E+04  4.494941E+03
       125  22 -1.123961E+05 -2.878015E+03  1.874736E+04 -1.936231E+04  1.445192E+04  1.229486E+04
       125  23 -1.218428E+05 -7.406922E+03  3.005712E+04 -6.507862E+03  3.065903E+04  1.335304E+04
       125  24 -1.123979E+05  5.435513E+04  6.853663E+04 -1.940670E+04  4.687378E+04  4.490399E+03
       125  25 -4.765996E+05 -9.312292E+04 -6.811105E+04 -2.683154E+04  1.761864E+04  1.229639E+04
       125  26 -5.221458E+05 -1.065958E+05 -6.547002E+04 -1.502619E+03  2.858062E+04  1.335253E+04
       125  27 -5.496974E+05 -5.466534E+04 -3.929113E+04 -1.928678E+03  3.954951E+04  4.485443E+03
       126   1  4.857005E+05  6.936498E+05  4.756860E+05 -2.185287E+05  1.895460E+04  2.136914E+04
       126   2  3.926310E+05  2.703863E+05  3.654463E+05 -7.230543E+04  5.273463E+04  1.349980E+03
       126   3  2.879522E+05 -1.522791E+05  2.655034E+05 -2.258019E+05  3.769387E+04 -1.877518E+04
       126   4 -1.366872E+04 -1.308617E+06 -1.847388E+04 -2.204958E+05  1.901677E+04 -9.336079E+03
       126   5  1.848696E+03 -1.306454E+06 -1.083464E+04 -7.059579E+04  5.275677E+04 -3.561926E+03
       126   6  1.270571E+03 -1.308342E+06 -1.080604E+04 -2.204652E+05  3.762089E+04  2.092772E+03
       126   7 -5.133368E+05 -3.307236E+06 -5.129276E+05 -2.224543E+05  1.907925E+04 -3.994243E+04
       126   8 -3.891136E+05 -2.881013E+06 -3.872905E+05 -6.888887E+04  5.277891E+04 -8.461406E+03
       126   9 -2.855077E+05 -2.463177E+06 -2.872082E+05 -2.151371E+05  3.754821E+04  2.292202E+04
       126  10  4.857000E+05  6.936492E+05  4.756845E+05 -2.185290E+05 -2.187968E-10  8.138465E-10
       126  11  3.926280E+05  2.703856E+05  3.654410E+05 -7.230549E+04  1.849544E-09 -9.698070E-10
       126  12  2.879506E+05 -1.522799E+05  2.655001E+05 -2.258013E+05  5.824717E-10  3.686424E-10
       126  13 -1.366913E+04 -1.308618E+06 -1.847472E+04 -2.204957E+05 -2.008077E-09 -5.827021E-11
       126  14  1.845706E+03 -1.306455E+06 -1.083989E+04 -7.059564E+04  9.104287E-10 -1.448173E-09
       126  15  1.269051E+03 -1.308342E+06 -1.080871E+04 -2.204652E+05  8.396017E-10 -1.101338E-09
       126  16 -5.133376E+05 -3.307238E+06 -5.129313E+05 -2.224536E+05  1.311527E-09 -1.254395E-09
       126  17 -3.891166E+05 -2.881013E+06 -3.872959E+05 -6.888851E+04  1.599000E-09  1.954561E-12
       126  18 -2.855094E+05 -2.463178E+06 -2.872118E+05 -2.151378E+05 -4.222311E-10  8.721512E-10
       126  19  4.857005E+05  6.936498E+05  4.756860E+05 -2.185287E+05 -1.895460E+04 -2.136914E+04
       126  20  3.926310E+05  2.703863E+05  3.654463E+05 -7.230543E+04 -5.273463E+04 -1.349980E+03
       126  21  2.879522E+05 -1.522791E+05  2.655034E+05 -2.258019E+05 -3.769387E+04  1.877518E+04
       126  22 -1.366872E+04 -1.308617E+06 -1.847388E+04 -2.204958E+05 -1.901677E+04  9.336079E+03
       126  23  1.848696E+03 -1.306454E+06 -1.083464E+04 -7.059579E+04 -5.275677E+04  3.561926E+03
       126  24  1.270571E+03 -1.308342E+06 -1.080604E+04 -2.204652E+05 -3.762089E+04 -2.092772E+03
       126  25 -5.133368E+05 -3.307236E+06 -5.129276E+05 -2.224543E+05 -1.907925E+04  3.994243E+04
       126  26 -3.891136E+05 -2.881013E+06 -3.872905E+05 -6.888887E+04 -5.277891E+04  8.461406E+03
       126  27 -2.855077E+05 -2.463177E+06 -2.872082E+05 -2.151371E+05 -3.754821E+04 -2.292202E+04
       127   1  1.519344E+05 -6.982969E+05  1.338389E+05 -2.212686E+05  2.008652E+04 -3.268502E+03
       127   2  4.779887E+04 -1.121615E+06  2.789708E+04 -7.051687E+04  6.028466E+03  4.579675E+03
       127   3 -6.858030E+04 -1.551672E+06 -8.685396E+04 -2.239924E+05 -8.600073E+03  1.241445E+04
       127   4  5.526929E+02 -1.308724E+06 -1.203233E+04 -2.214575E+05  2.005875E+04  3.978651E+03
       127   5  2.239229E+03 -1.305235E+06 -1.599282E+04 -6.935854E+04  5.998430E+03  1.212318E+04
       127   6 -8.357555E+03 -1.308701E+06 -2.895643E+04 -2.214937E+05 -8.632941E+03  2.025965E+04
       127   7 -1.508560E+05 -1.918808E+06 -1.579297E+05 -2.216457E+05  2.003096E+04  1.121870E+04
       127   8 -4.332283E+04 -1.488824E+06 -5.988488E+04 -6.820052E+04  5.968418E+03  1.966446E+04
       127   9  5.186099E+04 -1.065676E+06  2.893719E+04 -2.189939E+05 -8.665738E+03  2.810790E+04
       127  10  1.519340E+05 -6.982970E+05  1.338381E+05 -2.212686E+05  9.831898E-10  1.670614E-09
       127  11  4.779883E+04 -1.121615E+06  2.789697E+04 -7.051689E+04  7.925052E-10 -1.684087E-09
       127  12 -6.858042E+04 -1.551672E+06 -8.685439E+04 -2.239923E+05  6.612820E-10 -6.912036E-10
       127  13  5.522568E+02 -1.308724E+06 -1.203311E+04 -2.214575E+05 -6.641133E-10  1.046176E-10
       127  14  2.239151E+03 -1.305236E+06 -1.599316E+04 -6.935860E+04  3.350544E-10 -1.911810E-09
       127  15 -8.357745E+03 -1.308702E+06 -2.895735E+04 -2.214935E+05 -2.020404E-09 -1.270192E-09
       127  16 -1.508565E+05 -1.918809E+06 -1.579306E+05 -2.216459E+05 -8.426342E-10 -2.566863E-09
       127  17 -4.332297E+04 -1.488825E+06 -5.988567E+04 -6.820062E+04  2.751309E-09  5.885067E-10
       127  18  5.186069E+04 -1.065677E+06  2.893556E+04 -2.189937E+05 -1.428588E-09  2.097944E-09
       127  19  1.519344E+05 -6.982969E+05  1.338389E+05 -2.212686E+05 -2.008652E+04  3.268502E+03
       127  20  4.779887E+04 -1.121615E+06  2.789708E+04 -7.051687E+04 -6.028466E+03 -4.579675E+03
       127  21 -6.858030E+04 -1.551672E+06 -8.685396E+04 -2.239924E+05  8.600073E+03 -1.241445E+04
       127  22  5.526929E+02 -1.308724E+06 -1.203233E+04 -2.214575E+05 -2.005875E+04 -3.978651E+03
       127  23  2.239229E+03 -1.305235E+06 -1.599282E+04 -6.935854E+04 -5.998430E+03 -1.212318E+04
       127  24 -8.357555E+03 -1.308701E+06 -2.895643E+04 -2.214937E+05  8.632941E+03 -2.025965E+04
       127  25 -1.508560E+05 -1.918808E+06 -1.579297E+05 -2.216457E+05 -2.003096E+04 -1.121870E+04
       127  26 -4.332283E+04 -1.488824E+06 -5.988488E+04 -6.820052E+04 -5.968418E+03 -1.966446E+04
       127  27  5.186099E+04 -1.065676E+06  2.893719E+04 -2.189939E+05  8.665738E+03 -2.810790E+04
       128   1 -1.892621E+05 -2.103976E+06 -2.240119E+05 -2.048401E+05 -2.515079E+04  6.607567E+03
       128   2 -2.869490E+05 -2.509003E+06 -3.450831E+05 -7.682310E+04 -4.083205E+04  5.807200E+04
       128   3 -5.079219E+05 -2.952219E+06 -5.308034E+05 -2.503361E+05 -1.542694E+04  1.096281E+05
       128   4  6.792760E+03 -1.314964E+06 -3.498068E+04 -2.207677E+05 -2.522580E+04  2.560519E+04
       128   5  1.363893E+04 -1.297847E+06 -5.561052E+04 -7.015807E+04 -4.081751E+04  5.549452E+04
       128   6 -9.889774E+04 -1.315238E+06 -1.257772E+05 -2.210584E+05 -1.535452E+04  8.551186E+04
       128   7  2.028033E+05 -5.253782E+05  1.540079E+05 -2.367151E+05 -2.530173E+04  4.462691E+04
       128   8  3.141206E+05 -8.534149E+04  2.337586E+05 -6.347877E+04 -4.080305E+04  5.291193E+04
       128   9  3.099294E+05  3.241913E+05  2.790523E+05 -1.917011E+05 -1.528449E+04  6.133166E+04
       128  10 -1.892627E+05 -2.103976E+06 -2.240131E+05 -2.048400E+05 -6.608353E-10  4.408737E-10
       128  11 -2.869517E+05 -2.509007E+06 -3.450926E+05 -7.682119E+04  5.618929E-10 -5.796602E-10
       128  12 -5.079254E+05 -2.952232E+06 -5.308265E+05 -2.503348E+05 -1.164606E-10  4.699436E-10
       128  13  6.791901E+03 -1.314965E+06 -3.498311E+04 -2.207672E+05 -4.208879E-10 -1.873754E-10
       128  14  1.363631E+04 -1.297851E+06 -5.561945E+04 -7.015624E+04 -1.983117E-09 -1.819107E-09
       128  15 -9.889996E+04 -1.315246E+06 -1.257914E+05 -2.210574E+05  1.180877E-09 -8.670391E-10
       128  16  2.028021E+05 -5.253805E+05  1.540029E+05 -2.367142E+05 -8.102764E-10 -1.484475E-09
       128  17  3.141181E+05 -8.534495E+04  2.337502E+05 -6.347703E+04 -1.142404E-09 -1.710082E-10
       128  18  3.099281E+05  3.241872E+05  2.790448E+05 -1.917004E+05 -1.408297E-10  2.795021E-10
       128  19 -1.892621E+05 -2.103976E+06 -2.240119E+05 -2.048401E+05  2.515079E+04 -6.607567E+03
       128  20 -2.869490E+05 -2.509003E+06 -3.450831E+05 -7.682310E+04  4.083205E+04 -5.807200E+04
       128  21 -5.079219E+05 -2.952219E+06 -5.308034E+05 -2.503361E+05  1.542694E+04 -1.096281E+05
       128  22  6.792760E+03 -1.314964E+06 -3.498068E+04 -2.207677E+05  2.522580E+04 -2.560519E+04
       128  23  1.363893E+04 -1.297847E+06 -5.561052E+04 -7.015807E+04  4.081751E+04 -5.549452E+04
       128  24 -9.889774E+04 -1.315238E+06 -1.257772E+05 -2.210584E+05  1.535452E+04 -8.551186E+04
       128  25  2.028033E+05 -5.253782E+05  1.540079E+05 -2.367151E+05  2.530173E+04 -4.462691E+04
       128  26  3.141206E+05 -8.534149E+04  2.337586E+05 -6.347877E+04  4.080305E+04 -5.291193E+04
       128  27  3.099294E+05  3.241913E+05  2.790523E+05 -1.917011E+05  1.528449E+04 -6.133166E+04
       129   1 -2.214636E+06 -5.696086E+05 -2.845843E+05 -8.013217E+05 -1.318569E+05 -4.564865E+04
       129   2 -2.174726E+06 -3.708751E+05 -1.609733E+05 -8.133027E+05 -8.563833E+04 -2.032283E+04
       129   3 -2.196865E+06 -3.626675E+05 -1.227934E+05 -7.923635E+05 -3.651982E+04 -2.698956E+03
       129   4 -1.927100E+06 -4.168717E+05 -1.975600E+05 -6.778176E+05 -1.265713E+05 -4.367161E+04
       129   5 -1.886137E+06 -2.495651E+05 -8.248870E+04 -7.214916E+05 -8.413129E+04 -1.975863E+04
       129   6 -1.906441E+06 -2.719868E+05 -4.981638E+04 -7.322552E+05 -3.879213E+04 -3.552036E+03
       129   7 -1.639479E+06 -2.641027E+05 -1.105437E+05 -5.542540E+05 -1.212830E+05 -4.169261E+04
       129   8 -1.597467E+06 -1.282439E+05 -4.011601E+03 -6.296397E+05 -8.262347E+04 -1.919405E+04
       129   9 -1.615934E+06 -1.813063E+05  2.315449E+04 -6.721242E+05 -4.106561E+04 -4.405386E+03
       129  10 -2.214656E+06 -5.696156E+05 -2.846210E+05 -8.013265E+05  9.166832E-10  4.359103E-10
       129  11 -2.174734E+06 -3.708776E+05 -1.609879E+05 -8.133041E+05 -1.420519E-09  7.764721E-10
       129  12 -2.196867E+06 -3.626679E+05 -1.227959E+05 -7.923635E+05 -2.402523E-09  3.984635E-10
       129  13 -1.927118E+06 -4.168781E+05 -1.975938E+05 -6.778221E+05  2.875979E-10  1.075848E-09
       129  14 -1.886145E+06 -2.495674E+05 -8.250278E+04 -7.214930E+05  9.300752E-10 -5.689119E-10
       129  15 -1.906443E+06 -2.719872E+05 -4.981924E+04 -7.322553E+05 -2.650196E-09  2.039680E-10
       129  16 -1.639495E+06 -2.641085E+05 -1.105747E+05 -5.542581E+05 -5.060908E-10  6.426502E-12
       129  17 -1.597474E+06 -1.282462E+05 -4.025161E+03 -6.296410E+05 -7.034223E-11 -3.019118E-10
       129  18 -1.615936E+06 -1.813067E+05  2.315128E+04 -6.721243E+05  2.790376E-09  5.302164E-10
       129  19 -2.214636E+06 -5.696086E+05 -2.845843E+05 -8.013217E+05  1.318569E+05  4.564865E+04
       129  20 -2.174726E+06 -3.708751E+05 -1.609733E+05 -8.133027E+05  8.563833E+04  2.032283E+04
       129  21 -2.196865E+06 -3.626675E+05 -1.227934E+05 -7.923635E+05  3.651982E+04  2.698956E+03
       129  22 -1.927100E+06 -4.168717E+05 -1.975600E+05 -6.778176E+05  1.265713E+05  4.367161E+04
       129  23 -1.886137E+06 -2.495651E+05 -8.248870E+04 -7.214916E+05  8.413129E+04  1.975863E+04
       129  24 -1.906441E+06 -2.719868E+05 -4.981638E+04 -7.322552E+05  3.879213E+04  3.552036E+03
       129  25 -1.639479E+06 -2.641027E+05 -1.105437E+05 -5.542540E+05  1.212830E+05  4.169261E+04
       129  26 -1.597467E+06 -1.282439E+05 -4.011601E+03 -6.296397E+05  8.262347E+04  1.919405E+04
       129  27 -1.615934E+06 -1.813063E+05  2.315449E+04 -6.721242E+05  4.106561E+04  4.405386E+03
       130   1 -2.142306E+06 -3.883009E+05 -1.054598E+05 -7.914980E+05 -3.106753E+04 -2.550546E+03
       130   2 -2.122124E+06 -3.531367E+05 -7.803818E+04 -7.801278E+05 -2.048571E+04  9.370771E+02
       130   3 -2.097345E+06 -3.503464E+05 -6.362216E+04 -7.790390E+05 -9.668230E+03  3.797128E+03
       130   4 -1.899696E+06 -2.927008E+05 -4.049417E+04 -7.209226E+05 -3.113151E+04 -2.575095E+03
       130   5 -1.900925E+06 -2.688221E+05 -1.947506E+04 -7.186780E+05 -2.085515E+04  7.980740E+02
       130   6 -1.897492E+06 -2.772516E+05 -1.121477E+04 -7.267150E+05 -1.034357E+04  3.543496E+03
       130   7 -1.657030E+06 -1.970956E+05  2.446628E+04 -6.503218E+05 -3.119552E+04 -2.599654E+03
       130   8 -1.679678E+06 -1.845043E+05  3.908373E+04 -6.572083E+05 -2.122473E+04  6.590154E+02
       130   9 -1.697601E+06 -2.041553E+05  4.118907E+04 -6.743761E+05 -1.101915E+04  3.289781E+03
       130  10 -2.142307E+06 -3.883011E+05 -1.054617E+05 -7.914980E+05 -1.187067E-09 -1.583053E-11
       130  11 -2.122124E+06 -3.531368E+05 -7.803897E+04 -7.801278E+05  2.990099E-09  1.302839E-09
       130  12 -2.097345E+06 -3.503464E+05 -6.362236E+04 -7.790390E+05  2.957254E-09  2.177637E-09
       130  13 -1.899697E+06 -2.927011E+05 -4.049601E+04 -7.209227E+05 -1.093952E-09  1.044159E-10
       130  14 -1.900925E+06 -2.688222E+05 -1.947588E+04 -7.186779E+05  2.231250E-09 -3.658947E-10
       130  15 -1.897492E+06 -2.772517E+05 -1.121500E+04 -7.267149E+05 -2.795657E-09  5.475311E-10
       130  16 -1.657031E+06 -1.970959E+05  2.446444E+04 -6.503219E+05  7.981355E-10  3.080745E-10
       130  17 -1.679679E+06 -1.845044E+05  3.908288E+04 -6.572083E+05 -1.767505E-09 -1.016844E-09
       130  18 -1.697601E+06 -2.041553E+05  4.118882E+04 -6.743761E+05 -5.325781E-09 -1.034680E-09
       130  19 -2.142306E+06 -3.883009E+05 -1.054598E+05 -7.914980E+05  3.106753E+04  2.550546E+03
       130  20 -2.122124E+06 -3.531367E+05 -7.803818E+04 -7.801278E+05  2.048571E+04 -9.370771E+02
       130  21 -2.097345E+06 -3.503464E+05 -6.362216E+04 -7.790390E+05  9.668230E+03 -3.797128E+03
       130  22 -1.899696E+06 -2.927008E+05 -4.049417E+04 -7.209226E+05  3.113151E+04  2.575095E+03
       130  23 -1.900925E+06 -2.688221E+05 -1.947506E+04 -7.186780E+05  2.085515E+04 -7.980740E+02
       130  24 -1.897492E+06 -2.772516E+05 -1.121477E+04 -7.267150E+05  1.034357E+04 -3.543496E+03
       130  25 -1.657030E+06 -1.970956E+05  2.446628E+04 -6.503218E+05  3.119552E+04  2.599654E+03
       130  26 -1.679678E+06 -1.845043E+05  3.908373E+04 -6.572083E+05  2.122473E+04 -6.590154E+02
       130  27 -1.697601E+06 -2.041553E+05  4.118907E+04 -6.743761E+05  1.101915E+04 -3.289781E+03
       131   1 -2.060444E+06 -3.416029E+05 -5.201072E+04 -7.707444E+05 -7.951365E+03  3.617427E+03
       131   2 -2.041622E+06 -3.229391E+05 -4.121344E+04 -7.560235E+05 -5.182073E+03  3.435797E+03
       131   3 -2.009782E+06 -3.204256E+05 -3.273534E+04 -7.569656E+05 -2.386878E+03  3.184463E+03
       131   4 -1.896471E+06 -2.795955E+05 -8.762164E+03 -7.256817E+05 -8.462897E+03  3.425334E+03
       131   5 -1.902865E+06 -2.707094E+05 -4.601262E+03 -7.181546E+05 -5.727355E+03  3.231134E+03
       131   6 -1.896236E+06 -2.779665E+05 -2.732319E+03 -7.262906E+05 -2.966024E+03  2.967197E+03
       131   7 -1.732471E+06 -2.175863E+05  3.448422E+04 -6.806081E+05 -8.974578E+03  3.233183E+03
       131   8 -1.764089E+06 -2.184785E+05  3.200932E+04 -6.802779E+05 -6.272772E+03  3.026421E+03
       131   9 -1.782677E+06 -2.355066E+05  2.726959E+04 -6.956105E+05 -3.545287E+03  2.749889E+03
       131  10 -2.060444E+06 -3.416029E+05 -5.201087E+04 -7.707444E+05 -4.977441E-09 -9.291276E-10
       131  11 -2.041622E+06 -3.229391E+05 -4.121351E+04 -7.560235E+05 -6.842159E-09 -2.105503E-09
       131  12 -2.009782E+06 -3.204256E+05 -3.273537E+04 -7.569656E+05 -2.805255E-09 -7.928976E-10
       131  13 -1.896471E+06 -2.795955E+05 -8.762321E+03 -7.256817E+05  1.015097E-09  3.596584E-10
       131  14 -1.902865E+06 -2.707094E+05 -4.601343E+03 -7.181546E+05 -1.570984E-09 -8.545109E-10
       131  15 -1.896236E+06 -2.779665E+05 -2.732352E+03 -7.262906E+05 -1.189230E-10 -1.041025E-09
       131  16 -1.732471E+06 -2.175863E+05  3.448405E+04 -6.806081E+05  2.844838E-09  1.753131E-09
       131  17 -1.764089E+06 -2.184785E+05  3.200923E+04 -6.802779E+05 -2.655225E-10  3.750502E-10
       131  18 -1.782677E+06 -2.355066E+05  2.726956E+04 -6.956105E+05 -4.601347E-10 -8.131982E-10
       131  19 -2.060444E+06 -3.416029E+05 -5.201072E+04 -7.707444E+05  7.951365E+03 -3.617427E+03
       131  20 -2.041622E+06 -3.229391E+05 -4.121344E+04 -7.560235E+05  5.182073E+03 -3.435797E+03
       131  21 -2.009782E+06 -3.204256E+05 -3.273534E+04 -7.569656E+05  2.386878E+03 -3.184463E+03
       131  22 -1.896471E+06 -2.795955E+05 -8.762164E+03 -7.256817E+05  8.462897E+03 -3.425334E+03
       131  23 -1.902865E+06 -2.707094E+05 -4.601262E+03 -7.181546E+05  5.727355E+03 -3.231134E+03
       131  24 -1.896236E+06 -2.779665E+05 -2.732319E+03 -7.262906E+05  2.966024E+03 -2.967197E+03
       131  25 -1.732471E+06 -2.175863E+05  3.448422E+04 -6.806081E+05  8.974578E+03 -3.233183E+03
       131  26 -1.764089E+06 -2.184785E+05  3.200932E+04 -6.802779E+05  6.272772E+03 -3.026421E+03
       131  27 -1.782677E+06 -2.355066E+05  2.726959E+04 -6.956105E+05  3.545287E+03 -2.749889E+03
       132   1 -1.973447E+06 -3.074024E+05 -2.253879E+04 -7.474042E+05 -1.736398E+03  2.652552E+03
       132   2 -1.954279E+06 -2.899976E+05 -1.502516E+04 -7.318893E+05 -5.164603E+02  1.785335E+03
       132   3 -1.920734E+06 -2.874473E+05 -8.168065E+03 -7.330382E+05  7.081858E+02  9.052105E+02
       132   4 -1.896019E+06 -2.782913E+05 -2.209444E+03 -7.262828E+05 -2.305918E+03  2.438945E+03
       132   5 -1.903198E+06 -2.707975E+05 -1.552678E+03 -7.179758E+05 -1.092259E+03  1.569411E+03
       132   6 -1.896000E+06 -2.781569E+05 -1.547402E+03 -7.263327E+05  1.260680E+02  6.869589E+02
       132   7 -1.818586E+06 -2.491797E+05  1.811937E+04 -7.051590E+05 -2.875515E+03  2.225310E+03
       132   8 -1.852114E+06 -2.515973E+05  1.191954E+04 -7.040613E+05 -1.668108E+03  1.353468E+03
       132   9 -1.871264E+06 -2.688666E+05  5.073172E+03 -7.196270E+05 -4.560721E+02  4.686990E+02
       132  10 -1.973447E+06 -3.074024E+05 -2.253881E+04 -7.474042E+05 -3.969129E-09 -3.382839E-10
       132  11 -1.954279E+06 -2.899977E+05 -1.502517E+04 -7.318893E+05 -9.155319E-10  6.572842E-10
       132  12 -1.920734E+06 -2.874473E+05 -8.168068E+03 -7.330382E+05  8.607409E-10  1.795209E-10
       132  13 -1.896019E+06 -2.782913E+05 -2.209466E+03 -7.262828E+05 -4.703573E-09 -7.623099E-10
       132  14 -1.903198E+06 -2.707975E+05 -1.552685E+03 -7.179758E+05  7.737247E-10  9.307948E-11
       132  15 -1.896000E+06 -2.781569E+05 -1.547403E+03 -7.263327E+05 -7.472596E-10 -5.024301E-11
       132  16 -1.818586E+06 -2.491797E+05  1.811934E+04 -7.051590E+05 -7.323623E-10 -8.340370E-10
       132  17 -1.852114E+06 -2.515973E+05  1.191953E+04 -7.040613E+05 -1.052325E-09 -5.705591E-10
       132  18 -1.871264E+06 -2.688666E+05  5.073171E+03 -7.196270E+05  9.248452E-10  6.499309E-10
       132  19 -1.973447E+06 -3.074024E+05 -2.253879E+04 -7.474042E+05  1.736398E+03 -2.652552E+03
       132  20 -1.954279E+06 -2.899976E+05 -1.502516E+04 -7.318893E+05  5.164603E+02 -1.785335E+03
       132  21 -1.920734E+06 -2.874473E+05 -8.168065E+03 -7.330382E+05 -7.081858E+02 -9.052105E+02
       132  22 -1.896019E+06 -2.782913E+05 -2.209444E+03 -7.262828E+05  2.305918E+03 -2.438945E+03
       132  23 -1.903198E+06 -2.707975E+05 -1.552678E+03 -7.179758E+05  1.092259E+03 -1.569411E+03
       132  24 -1.896000E+06 -2.781569E+05 -1.547402E+03 -7.263327E+05 -1.260680E+02 -6.869589E+02
       132  25 -1.818586E+06 -2.491797E+05  1.811937E+04 -7.051590E+05  2.875515E+03 -2.225310E+03
       132  26 -1.852114E+06 -2.515973E+05  1.191954E+04 -7.040613E+05  1.668108E+03 -1.353468E+03
       132  27 -1.871264E+06 -2.688666E+05  5.073172E+03 -7.196270E+05  4.560721E+02 -4.686990E+02
       133   1 -1.884029E+06 -2.736824E+05  1.522575E+03 -7.231719E+05  1.236694E+03  3.184166E+02
       133   2 -1.864796E+06 -2.563452E+05  7.541073E+03 -7.075296E+05  2.964433E+03 -3.744932E+02
       133   3 -1.831320E+06 -2.541469E+05  1.246042E+04 -7.085431E+05  4.688259E+03 -1.056502E+03
       133   4 -1.896018E+06 -2.781391E+05 -1.728039E+03 -7.263615E+05  6.543699E+02  1.000911E+02
       133   5 -1.903166E+06 -2.707517E+05 -2.575224E+03 -7.179654E+05  2.387382E+03 -5.908752E+02
       133   6 -1.896071E+06 -2.785043E+05 -4.525643E+03 -7.262254E+05  4.116418E+03 -1.270960E+03
       133   7 -1.908007E+06 -2.825958E+05 -4.978686E+03 -7.295511E+05  7.205469E+01 -1.182313E+02
       133   8 -1.941534E+06 -2.851582E+05 -1.269170E+04 -7.284007E+05  1.810368E+03 -8.072436E+02
       133   9 -1.960818E+06 -3.028616E+05 -2.151213E+04 -7.439061E+05  3.544641E+03 -1.485394E+03
       133  10 -1.884029E+06 -2.736824E+05  1.522571E+03 -7.231719E+05  1.107845E-09  7.531945E-10
       133  11 -1.864796E+06 -2.563452E+05  7.541056E+03 -7.075296E+05  2.844104E-09  3.277033E-10
       133  12 -1.831320E+06 -2.541469E+05  1.246038E+04 -7.085431E+05 -4.204860E-09  2.248391E-11
       133  13 -1.896018E+06 -2.781391E+05 -1.728040E+03 -7.263615E+05 -1.911600E-09 -1.039805E-10
       133  14 -1.903166E+06 -2.707517E+05 -2.575236E+03 -7.179654E+05  4.119255E-10 -1.267243E-11
       133  15 -1.896071E+06 -2.785044E+05 -4.525678E+03 -7.262254E+05 -2.240564E-09  9.320929E-10
       133  16 -1.908007E+06 -2.825958E+05 -4.978686E+03 -7.295511E+05  7.041471E-10  3.932104E-10
       133  17 -1.941534E+06 -2.851582E+05 -1.269171E+04 -7.284007E+05  2.994363E-09  9.048786E-12
       133  18 -1.960818E+06 -3.028617E+05 -2.151215E+04 -7.439061E+05 -1.343726E-09  9.117111E-10
       133  19 -1.884029E+06 -2.736824E+05  1.522575E+03 -7.231719E+05 -1.236694E+03 -3.184166E+02
       133  20 -1.864796E+06 -2.563452E+05  7.541073E+03 -7.075296E+05 -2.964433E+03  3.744932E+02
       133  21 -1.831320E+06 -2.541469E+05  1.246042E+04 -7.085431E+05 -4.688259E+03  1.056502E+03
       133  22 -1.896018E+06 -2.781391E+05 -1.728039E+03 -7.263615E+05 -6.543699E+02 -1.000911E+02
       133  23 -1.903166E+06 -2.707517E+05 -2.575224E+03 -7.179654E+05 -2.387382E+03  5.908752E+02
       133  24 -1.896071E+06 -2.785043E+05 -4.525643E+03 -7.262254E+05 -4.116418E+03  1.270960E+03
       133  25 -1.908007E+06 -2.825958E+05 -4.978686E+03 -7.295511E+05 -7.205469E+01  1.182313E+02
       133  26 -1.941534E+06 -2.851582E+05 -1.269170E+04 -7.284007E+05 -1.810368E+03  8.072436E+02
       133  27 -1.960818E+06 -3.028616E+05 -2.151213E+04 -7.439061E+05 -3.544641E+03  1.485394E+03
       134   1 -1.795173E+06 -2.404010E+05  2.083178E+04 -6.994373E+05  5.805553E+03 -1.416216E+03
       134   2 -1.776191E+06 -2.226840E+05  2.301841E+04 -6.835699E+05  1.144871E+04 -6.065358E+02
       134   3 -1.745461E+06 -2.238809E+05  2.004630E+04 -6.829096E+05  1.706754E+04  2.697953E+02
       134   4 -1.896428E+06 -2.779194E+05 -5.864987E+03 -7.264388E+05  5.223650E+03 -1.634484E+03
       134   5 -1.902565E+06 -2.703220E+05 -1.033511E+04 -7.181382E+05  1.089851E+04 -8.130088E+02
       134   6 -1.896963E+06 -2.816457E+05 -1.999012E+04 -7.250452E+05  1.654884E+04  7.503093E+01
       134   7 -1.997672E+06 -3.154370E+05 -3.256248E+04 -7.534361E+05  4.641854E+03 -1.852713E+03
       134   8 -2.028924E+06 -3.179589E+05 -4.368994E+04 -7.527001E+05  1.034844E+04 -1.019435E+03
       134   9 -2.048443E+06 -3.394091E+05 -6.002860E+04 -7.671716E+05  1.603027E+04 -1.196800E+02
       134  10 -1.795174E+06 -2.404010E+05  2.083171E+04 -6.994373E+05 -1.264857E-09  6.568593E-10
       134  11 -1.776191E+06 -2.226840E+05  2.301816E+04 -6.835699E+05 -8.187024E-10  5.158862E-10
       134  12 -1.745461E+06 -2.238810E+05  2.004575E+04 -6.829096E+05 -2.195002E-09 -2.535806E-10
       134  13 -1.896428E+06 -2.779194E+05 -5.865044E+03 -7.264388E+05 -3.207538E-09  3.724308E-10
       134  14 -1.902565E+06 -2.703220E+05 -1.033534E+04 -7.181382E+05 -3.851632E-09 -6.722667E-10
       134  15 -1.896963E+06 -2.816458E+05 -1.999063E+04 -7.250452E+05 -6.277643E-10 -5.723921E-10
       134  16 -1.997672E+06 -3.154370E+05 -3.256253E+04 -7.534361E+05 -1.926011E-09  5.030106E-10
       134  17 -2.028924E+06 -3.179589E+05 -4.369014E+04 -7.527001E+05  1.613392E-10 -2.194613E-10
       134  18 -2.048443E+06 -3.394092E+05 -6.002908E+04 -7.671716E+05  1.460936E-09 -8.241964E-10
       134  19 -1.795173E+06 -2.404010E+05  2.083178E+04 -6.994373E+05 -5.805553E+03  1.416216E+03
       134  20 -1.776191E+06 -2.226840E+05  2.301841E+04 -6.835699E+05 -1.144871E+04  6.065358E+02
       134  21 -1.745461E+06 -2.238809E+05  2.004630E+04 -6.829096E+05 -1.706754E+04 -2.697953E+02
       134  22 -1.896428E+06 -2.779194E+05 -5.864987E+03 -7.264388E+05 -5.223650E+03  1.634484E+03
       134  23 -1.902565E+06 -2.703220E+05 -1.033511E+04 -7.181382E+05 -1.089851E+04  8.130088E+02
       134  24 -1.896963E+06 -2.816457E+05 -1.999012E+04 -7.250452E+05 -1.654884E+04 -7.503093E+01
       134  25 -1.997672E+06 -3.154370E+05 -3.256248E+04 -7.534361E+05 -4.641854E+03  1.852713E+03
       134  26 -2.028924E+06 -3.179589E+05 -4.368994E+04 -7.527001E+05 -1.034844E+04  1.019435E+03
       134  27 -2.048443E+06 -3.394091E+05 -6.002860E+04 -7.671716E+05 -1.603027E+04  1.196800E+02
       135   1 -1.709029E+06 -2.098975E+05  2.362212E+04 -6.809060E+05  2.117792E+04  9.844966E+02
       135   2 -1.689776E+06 -1.846057E+05  1.087039E+04 -6.594204E+05  4.447740E+04  8.518247E+03
       135   3 -1.676673E+06 -2.166236E+05 -3.093318E+04 -6.423529E+05  6.754806E+04  1.666443E+04
       135   4 -1.899029E+06 -2.765688E+05 -2.565605E+04 -7.277607E+05  2.049906E+04  7.297510E+02
       135   5 -1.898447E+06 -2.655999E+05 -4.464200E+04 -7.189084E+05  4.409250E+04  8.373311E+03
       135   6 -1.904081E+06 -3.120096E+05 -9.292125E+04 -7.144738E+05  6.745640E+04  1.662847E+04
       135   7 -2.088993E+06 -3.432388E+05 -7.493706E+04 -7.746028E+05  1.982043E+04  4.750784E+02
       135   8 -2.107075E+06 -3.465906E+05 -1.001582E+05 -7.783781E+05  4.370774E+04  8.228432E+03
       135   9 -2.131440E+06 -4.073891E+05 -1.549142E+05 -7.865697E+05  6.736478E+04  1.659252E+04
       135  10 -1.709029E+06 -2.098976E+05  2.362128E+04 -6.809061E+05 -3.249848E-09 -5.368741E-10
       135  11 -1.689778E+06 -1.846063E+05  1.086653E+04 -6.594207E+05 -1.078096E-09  5.898008E-10
       135  12 -1.676678E+06 -2.166251E+05 -3.094230E+04 -6.423538E+05 -5.745064E-10 -7.464648E-10
       135  13 -1.899029E+06 -2.765689E+05 -2.565684E+04 -7.277607E+05 -6.529149E-10 -2.066314E-10
       135  14 -1.898449E+06 -2.656005E+05 -4.464579E+04 -7.189087E+05  1.255241E-09  2.547206E-10
       135  15 -1.904086E+06 -3.120111E+05 -9.293036E+04 -7.144747E+05 -5.927271E-10 -7.353324E-10
       135  16 -2.088994E+06 -3.432389E+05 -7.493780E+04 -7.746028E+05  4.094364E-09 -3.354261E-11
       135  17 -2.107077E+06 -3.465912E+05 -1.001619E+05 -7.783784E+05  1.908553E-09  4.083337E-10
       135  18 -2.131445E+06 -4.073906E+05 -1.549233E+05 -7.865706E+05 -2.849443E-09 -4.913287E-10
       135  19 -1.709029E+06 -2.098975E+05  2.362212E+04 -6.809060E+05 -2.117792E+04 -9.844966E+02
       135  20 -1.689776E+06 -1.846057E+05  1.087039E+04 -6.594204E+05 -4.447740E+04 -8.518247E+03
       135  21 -1.676673E+06 -2.166236E+05 -3.093318E+04 -6.423529E+05 -6.754806E+04 -1.666443E+04
       135  22 -1.899029E+06 -2.765688E+05 -2.565605E+04 -7.277607E+05 -2.049906E+04 -7.297510E+02
       135  23 -1.898447E+06 -2.655999E+05 -4.464200E+04 -7.189084E+05 -4.409250E+04 -8.373311E+03
       135  24 -1.904081E+06 -3.120096E+05 -9.292125E+04 -7.144738E+05 -6.745640E+04 -1.662847E+04
       135  25 -2.088993E+06 -3.432388E+05 -7.493706E+04 -7.746028E+05 -1.982043E+04 -4.750784E+02
       135  26 -2.107075E+06 -3.465906E+05 -1.001582E+05 -7.783781E+05 -4.370774E+04 -8.228432E+03
       135  27 -2.131440E+06 -4.073891E+05 -1.549142E+05 -7.865697E+05 -6.736478E+04 -1.659252E+04
       136   1 -1.621818E+06 -1.958083E+05 -4.417783E+04 -7.038523E+05  8.645906E+04  2.188739E+04
       136   2 -1.598607E+06 -9.148745E+04 -1.135210E+05 -6.221020E+05  1.865124E+05  5.866180E+04
       136   3 -1.730188E+06 -4.070993E+05 -3.690531E+05 -4.480058E+05  2.837401E+05  1.029688E+05
       136   4 -1.919132E+06 -2.649116E+05 -1.143267E+05 -7.410001E+05  8.421499E+04  2.105109E+04
       136   5 -1.865019E+06 -2.208080E+05 -1.892689E+05 -7.247166E+05  1.879308E+05  5.918389E+04
       136   6 -1.966514E+06 -5.974976E+05 -4.533743E+05 -6.160632E+05  2.888246E+05  1.048234E+05
       136   7 -2.216358E+06 -3.340176E+05 -1.844806E+05 -7.781380E+05  8.197211E+04  2.021484E+04
       136   8 -2.131357E+06 -3.501083E+05 -2.650229E+05 -8.272860E+05  1.893486E+05  5.970555E+04
       136   9 -2.202757E+06 -7.878036E+05 -5.376964E+05 -7.840413E+05  2.939068E+05  1.066750E+05
       136  10 -1.621826E+06 -1.958109E+05 -4.419283E+04 -7.038538E+05 -2.895542E-09 -1.225341E-09
       136  11 -1.598646E+06 -9.150053E+04 -1.135931E+05 -6.221108E+05 -1.364887E-09  2.135814E-09
       136  12 -1.730277E+06 -4.071324E+05 -3.692248E+05 -4.480293E+05  5.495347E-11  2.610272E-09
       136  13 -1.919140E+06 -2.649140E+05 -1.143409E+05 -7.410016E+05 -1.483023E-09 -8.783955E-10
       136  14 -1.865058E+06 -2.208213E+05 -1.893421E+05 -7.247256E+05 -2.698353E-09  2.647080E-09
       136  15 -1.966607E+06 -5.975320E+05 -4.535523E+05 -6.160877E+05  2.293329E-10  4.257894E-10
       136  16 -2.216365E+06 -3.340198E+05 -1.844940E+05 -7.781393E+05  1.340497E-10  3.877061E-10
       136  17 -2.131397E+06 -3.501218E+05 -2.650972E+05 -8.272952E+05  1.262503E-09 -3.135032E-10
       136  18 -2.202853E+06 -7.878392E+05 -5.378809E+05 -7.840666E+05 -1.089089E-10 -1.598419E-10
       136  19 -1.621818E+06 -1.958083E+05 -4.417783E+04 -7.038523E+05 -8.645906E+04 -2.188739E+04
       136  20 -1.598607E+06 -9.148745E+04 -1.135210E+05 -6.221020E+05 -1.865124E+05 -5.866180E+04
       136  21 -1.730188E+06 -4.070993E+05 -3.690531E+05 -4.480058E+05 -2.837401E+05 -1.029688E+05
       136  22 -1.919132E+06 -2.649116E+05 -1.143267E+05 -7.410001E+05 -8.421499E+04 -2.105109E+04
       136  23 -1.865019E+06 -2.208080E+05 -1.892689E+05 -7.247166E+05 -1.879308E+05 -5.918389E+04
       136  24 -1.966514E+06 -5.974976E+05 -4.533743E+05 -6.160632E+05 -2.888246E+05 -1.048234E+05
       136  25 -2.216358E+06 -3.340176E+05 -1.844806E+05 -7.781380E+05 -8.197211E+04 -2.021484E+04
       136  26 -2.131357E+06 -3.501083E+05 -2.650229E+05 -8.272860E+05 -1.893486E+05 -5.970555E+04
       136  27 -2.202757E+06 -7.878036E+05 -5.376964E+05 -7.840413E+05 -2.939068E+05 -1.066750E+05
       137   1 -2.781757E+05 -4.700433E+03  1.925192E+04  1.234942E+04  6.977741E+04  3.858168E+03
       137   2 -2.623051E+05 -9.659023E+04 -3.276141E+04  2.913498E+03  4.795907E+04  1.140893E+04
       137   3 -2.167476E+05 -8.176690E+04 -4.385303E+04 -2.818089E+04  2.614589E+04  1.051882E+04
       137   4  9.454899E+04  8.816346E+04  1.111246E+05 -1.620601E+04  7.603271E+04  3.860254E+03
       137   5  7.933043E+04 -1.196737E+04  4.874279E+04 -5.340247E+03  4.974458E+04  1.140909E+04
       137   6  9.455540E+04 -4.642499E+03  3.036927E+04 -1.613146E+04  2.346284E+04  1.051768E+04
       137   7  4.674019E+05  1.810201E+05  2.029875E+05 -4.477864E+04  8.229176E+04  3.861765E+03
       137   8  4.210732E+05  7.264732E+04  1.302388E+05 -1.359857E+04  5.153106E+04  1.140920E+04
       137   9  4.059476E+05  7.247545E+04  1.045849E+05 -4.075980E+03  2.077846E+04  1.051643E+04
       137  10 -2.781810E+05 -4.701757E+03  1.924274E+04  1.234920E+04  5.343989E-10 -9.727685E-10
       137  11 -2.623076E+05 -9.659098E+04 -3.276598E+04  2.913057E+03 -7.360063E-10 -8.176365E-12
       137  12 -2.167484E+05 -8.176721E+04 -4.385452E+04 -2.818111E+04 -1.163039E-09 -7.587665E-11
       137  13  9.454277E+04  8.816189E+04  1.111137E+05 -1.620625E+04 -9.332290E-10  6.258313E-10
       137  14  7.932774E+04 -1.196817E+04  4.873790E+04 -5.340704E+03 -5.165035E-10  3.763391E-11
       137  15  9.455478E+04 -4.642766E+03  3.036802E+04 -1.613166E+04  8.005438E-10 -5.238795E-10
       137  16  4.673947E+05  1.810183E+05  2.029748E+05 -4.477890E+04  7.316095E-10  8.130060E-10
       137  17  4.210703E+05  7.264647E+04  1.302336E+05 -1.359905E+04  1.219010E-09  5.075667E-10
       137  18  4.059471E+05  7.247522E+04  1.045838E+05 -4.076156E+03  1.377405E-09  7.586336E-10
       137  19 -2.781757E+05 -4.700433E+03  1.925192E+04  1.234942E+04 -6.977741E+04 -3.858168E+03
       137  20 -2.623051E+05 -9.659023E+04 -3.276141E+04  2.913498E+03 -4.795907E+04 -1.140893E+04
       137  21 -2.167476E+05 -8.176690E+04 -4.385303E+04 -2.818089E+04 -2.614589E+04 -1.051882E+04
       137  22  9.454899E+04  8.816346E+04  1.111246E+05 -1.620601E+04 -7.603271E+04 -3.860254E+03
       137  23  7.933043E+04 -1.196737E+04  4.874279E+04 -5.340247E+03 -4.974458E+04 -1.140909E+04
       137  24  9.455540E+04 -4.642499E+03  3.036927E+04 -1.613146E+04 -2.346284E+04 -1.051768E+04
       137  25  4.674019E+05  1.810201E+05  2.029875E+05 -4.477864E+04 -8.229176E+04 -3.861765E+03
       137  26  4.210732E+05  7.264732E+04  1.302388E+05 -1.359857E+04 -5.153106E+04 -1.140920E+04
       137  27  4.059476E+05  7.247545E+04  1.045849E+05 -4.075980E+03 -2.077846E+04 -1.051643E+04
       138   1 -1.835898E+05 -5.853946E+04 -4.036522E+04 -1.364142E+04  1.895287E+04  8.597917E+03
       138   2 -1.548922E+05 -6.114960E+04 -4.507721E+04 -4.697527E+03  1.281346E+04  7.947250E+03
       138   3 -1.225820E+05 -5.281341E+04 -4.303851E+04 -1.748567E+04  6.673411E+03  6.702628E+03
       138   4  8.860989E+04  8.921606E+03  2.473495E+04 -1.617168E+04  1.877288E+04  8.597518E+03
       138   5  8.677919E+04 -1.275297E+03  1.261244E+04 -5.304405E+03  1.231735E+04  7.946904E+03
       138   6  8.861333E+04 -4.734356E+02  7.457957E+03 -1.616854E+04  5.861476E+03  6.702403E+03
       138   7  3.608775E+05  7.637733E+04  8.982989E+04 -1.870306E+04  1.859282E+04  8.597121E+03
       138   8  3.285041E+05  5.859479E+04  7.029798E+04 -5.911523E+03  1.182104E+04  7.946560E+03
       138   9  2.998495E+05  5.186332E+04  5.795128E+04 -1.485096E+04  5.049266E+03  6.702175E+03
       138  10 -1.835902E+05 -5.853963E+04 -4.036603E+04 -1.364155E+04  9.706713E-10  2.589842E-10
       138  11 -1.548923E+05 -6.114971E+04 -4.507763E+04 -4.697609E+03  9.293861E-10  1.749606E-11
       138  12 -1.225820E+05 -5.281347E+04 -4.303868E+04 -1.748570E+04 -1.576012E-09 -8.071651E-10
       138  13  8.860949E+04  8.921432E+03  2.473415E+04 -1.617181E+04  8.493871E-11  6.333452E-10
       138  14  8.677901E+04 -1.275405E+03  1.261204E+04 -5.304483E+03 -1.032742E-09  3.401374E-11
       138  15  8.861328E+04 -4.734931E+02  7.457808E+03 -1.616857E+04  7.817876E-10 -8.871488E-10
       138  16  3.608771E+05  7.637716E+04  8.982911E+04 -1.870319E+04 -4.068739E-10  7.677224E-11
       138  17  3.285039E+05  5.859468E+04  7.029759E+04 -5.911599E+03 -1.593586E-09 -4.376645E-10
       138  18  2.998495E+05  5.186326E+04  5.795115E+04 -1.485099E+04  5.677316E-10 -7.609322E-10
       138  19 -1.835898E+05 -5.853946E+04 -4.036522E+04 -1.364142E+04 -1.895287E+04 -8.597917E+03
       138  20 -1.548922E+05 -6.114960E+04 -4.507721E+04 -4.697527E+03 -1.281346E+04 -7.947250E+03
       138  21 -1.225820E+05 -5.281341E+04 -4.303851E+04 -1.748567E+04 -6.673411E+03 -6.702628E+03
       138  22  8.860989E+04  8.921606E+03  2.473495E+04 -1.617168E+04 -1.877288E+04 -8.597518E+03
       138  23  8.677919E+04 -1.275297E+03  1.261244E+04 -5.304405E+03 -1.231735E+04 -7.946904E+03
       138  24  8.861333E+04 -4.734356E+02  7.457957E+03 -1.616854E+04 -5.861476E+03 -6.702403E+03
       138  25  3.608775E+05  7.637733E+04  8.982989E+04 -1.870306E+04 -1.859282E+04 -8.597121E+03
       138  26  3.285041E+05  5.859479E+04  7.029798E+04 -5.911523E+03 -1.182104E+04 -7.946560E+03
       138  27  2.998495E+05  5.186332E+04  5.795128E+04 -1.485096E+04 -5.049266E+03 -6.702175E+03
       139   1 -8.431825E+04 -4.177400E+04 -3.523761E+04 -1.598813E+04  5.325370E+03  5.880184E+03
       139   2 -5.413469E+04 -3.527021E+04 -3.074953E+04 -5.299778E+03  3.793666E+03  4.654920E+03
       139   3 -2.345236E+04 -2.765144E+04 -2.498128E+04 -1.630580E+04  2.261549E+03  3.388493E+03
       139   4  8.791451E+04  8.801777E+02  5.799491E+03 -1.616113E+04  4.690218E+03  5.880046E+03
       139   5  8.766443E+04 -1.408791E+02  3.099608E+03 -5.314095E+03  3.136375E+03  4.654868E+03
       139   6  8.791636E+04 -4.313212E+01  1.695134E+03 -1.616112E+04  1.582193E+03  3.388534E+03
       139   7  2.601745E+05  4.353222E+04  4.683452E+04 -1.633418E+04  4.054891E+03  5.879908E+03
       139   8  2.294820E+05  3.498700E+04  3.694733E+04 -5.328416E+03  2.478934E+03  4.654816E+03
       139   9  1.992964E+05  2.756428E+04  2.837067E+04 -1.601642E+04  9.027143E+02  3.388575E+03
       139  10 -8.431829E+04 -4.177405E+04 -3.523773E+04 -1.598816E+04 -1.823784E-09 -2.891564E-10
       139  11 -5.413471E+04 -3.527024E+04 -3.074960E+04 -5.299792E+03  5.892422E-10  9.249586E-10
       139  12 -2.345237E+04 -2.765146E+04 -2.498131E+04 -1.630581E+04 -1.019319E-11  1.866788E-10
       139  13  8.791448E+04  8.801347E+02  5.799385E+03 -1.616115E+04 -1.919421E-11 -2.472479E-11
       139  14  8.766441E+04 -1.409050E+02  3.099549E+03 -5.314107E+03  1.077034E-09  1.234652E-09
       139  15  8.791635E+04 -4.314512E+01  1.695108E+03 -1.616113E+04  2.013846E-10  1.673178E-10
       139  16  2.601745E+05  4.353217E+04  4.683442E+04 -1.633420E+04  1.751261E-09  2.879410E-10
       139  17  2.294820E+05  3.498697E+04  3.694728E+04 -5.328425E+03  6.696255E-10  1.687258E-09
       139  18  1.992964E+05  2.756427E+04  2.837065E+04 -1.601642E+04 -8.272053E-10 -2.676594E-10
       139  19 -8.431825E+04 -4.177400E+04 -3.523761E+04 -1.598813E+04 -5.325370E+03 -5.880184E+03
       139  20 -5.413469E+04 -3.527021E+04 -3.074953E+04 -5.299778E+03 -3.793666E+03 -4.654920E+03
       139  21 -2.345236E+04 -2.765144E+04 -2.498128E+04 -1.630580E+04 -2.261549E+03 -3.388493E+03
       139  22  8.791451E+04  8.801777E+02  5.799491E+03 -1.616113E+04 -4.690218E+03 -5.880046E+03
       139  23  8.766443E+04 -1.408791E+02  3.099608E+03 -5.314095E+03 -3.136375E+03 -4.654868E+03
       139  24  8.791636E+04 -4.313212E+01  1.695134E+03 -1.616112E+04 -1.582193E+03 -3.388534E+03
       139  25  2.601745E+05  4.353222E+04  4.683452E+04 -1.633418E+04 -4.054891E+03 -5.879908E+03
       139  26  2.294820E+05  3.498700E+04  3.694733E+04 -5.328416E+03 -2.478934E+03 -4.654816E+03
       139  27  1.992964E+05  2.756428E+04  2.837067E+04 -1.601642E+04 -9.027143E+02 -3.388575E+03
       140   1  1.534898E+04 -1.784781E+04 -1.599808E+04 -1.615853E+04  1.988522E+03  2.644772E+03
       140   2  4.572753E+04 -1.043144E+04 -9.615989E+03 -5.334490E+03  1.777865E+03  1.380433E+03
       140   3  7.615255E+04 -2.919555E+03 -3.074226E+03 -1.618505E+04  1.567086E+03  1.135503E+02
       140   4  8.781684E+04  8.632436E+01  1.208657E+03 -1.615677E+04  1.321674E+03  2.644851E+03
       140   5  8.779444E+04 -1.040753E+01  4.253470E+02 -5.319523E+03  1.109620E+03  1.380537E+03
       140   6  8.781740E+04 -1.144722E+01 -1.974212E+02 -1.615679E+04  8.974531E+02  1.136828E+02
       140   7  1.602895E+05  1.802009E+04  1.841503E+04 -1.615501E+04  6.547482E+02  2.644930E+03
       140   8  1.298630E+05  1.041050E+04  1.046656E+04 -5.304555E+03  4.413292E+02  1.380641E+03
       140   9  9.948237E+04  2.896651E+03  2.679375E+03 -1.612852E+04  2.278079E+02  1.138152E+02
       140  10  1.534897E+04 -1.784782E+04 -1.599810E+04 -1.615853E+04  1.770330E-11 -1.627053E-10
       140  11  4.572753E+04 -1.043145E+04 -9.615998E+03 -5.334492E+03 -1.231557E-09  5.675018E-11
       140  12  7.615254E+04 -2.919556E+03 -3.074231E+03 -1.618505E+04  8.748628E-10 -3.436216E-10
       140  13  8.781684E+04  8.631638E+01  1.208641E+03 -1.615677E+04  1.060029E-09 -5.994936E-10
       140  14  8.779444E+04 -1.040991E+01  4.253412E+02 -5.319524E+03  1.061181E-09  1.282897E-10
       140  15  8.781740E+04 -1.144745E+01 -1.974228E+02 -1.615679E+04 -2.430236E-10 -8.000355E-11
       140  16  1.602895E+05  1.802008E+04  1.841501E+04 -1.615501E+04 -5.278483E-10 -1.090769E-09
       140  17  1.298630E+05  1.041050E+04  1.046656E+04 -5.304555E+03 -2.764644E-09  1.647991E-10
       140  18  9.948237E+04  2.896650E+03  2.679375E+03 -1.612852E+04 -1.462973E-09  6.980431E-10
       140  19  1.534898E+04 -1.784781E+04 -1.599808E+04 -1.615853E+04 -1.988522E+03 -2.644772E+03
       140  20  4.572753E+04 -1.043144E+04 -9.615989E+03 -5.334490E+03 -1.777865E+03 -1.380433E+03
       140  21  7.615255E+04 -2.919555E+03 -3.074226E+03 -1.618505E+04 -1.567086E+03 -1.135503E+02
       140  22  8.781684E+04  8.632436E+01  1.208657E+03 -1.615677E+04 -1.321674E+03 -2.644851E+03
       140  23  8.779444E+04 -1.040753E+01  4.253470E+02 -5.319523E+03 -1.109620E+03 -1.380537E+03
       140  24  8.781740E+04 -1.144722E+01 -1.974212E+02 -1.615679E+04 -8.974531E+02 -1.136828E+02
       140  25  1.602895E+05  1.802009E+04  1.841503E+04 -1.615501E+04 -6.547482E+02 -2.644930E+03
       140  26  1.298630E+05  1.041050E+04  1.046656E+04 -5.304555E+03 -4.413292E+02 -1.380641E+03
       140  27  9.948237E+04  2.896651E+03  2.679375E+03 -1.612852E+04 -2.278079E+02 -1.138152E+02
       141   1  1.149969E+05  6.781935E+03  6.075157E+03 -1.620520E+04  1.631215E+03 -6.247267E+02
       141   2  1.454722E+05  1.430446E+04  1.245264E+04 -5.351038E+03  2.276963E+03 -1.891688E+03
       141   3  1.758110E+05  2.162965E+04  1.835940E+04 -1.617284E+04  2.922891E+03 -3.156120E+03
       141   4  8.777658E+04  2.052548E+01 -5.145264E+02 -1.615712E+04  9.615015E+02 -6.245976E+02
       141   5  8.784505E+04  2.960563E+01 -1.302099E+03 -5.319093E+03  1.608509E+03 -1.891597E+03
       141   6  8.777593E+04 -1.588407E+02 -2.561279E+03 -1.615715E+04  2.255665E+03 -3.156064E+03
       141   7  6.055689E+04 -6.740938E+03 -7.104261E+03 -1.610905E+04  2.918170E+02 -6.244685E+02
       141   8  3.022096E+04 -1.424549E+04 -1.505707E+04 -5.287151E+03  9.401161E+02 -1.891506E+03
       141   9 -2.519837E+02 -2.194788E+04 -2.348250E+04 -1.614147E+04  1.588533E+03 -3.156008E+03
       141  10  1.149969E+05  6.781934E+03  6.075151E+03 -1.620520E+04 -1.515334E-09  1.055091E-10
       141  11  1.454722E+05  1.430446E+04  1.245263E+04 -5.351034E+03 -6.471563E-10  5.006425E-10
       141  12  1.758110E+05  2.162963E+04  1.835937E+04 -1.617283E+04  2.964999E-10 -1.450595E-09
       141  13  8.777658E+04  2.052481E+01 -5.145289E+02 -1.615712E+04 -1.038477E-09 -8.689320E-11
       141  14  8.784504E+04  2.960109E+01 -1.302110E+03 -5.319091E+03  2.217721E-09 -5.369677E-11
       141  15  8.777593E+04 -1.588528E+02 -2.561307E+03 -1.615715E+04 -1.197356E-09 -1.194629E-09
       141  16  6.055689E+04 -6.740938E+03 -7.104262E+03 -1.610905E+04 -1.296228E-10  3.723174E-10
       141  17  3.022095E+04 -1.424550E+04 -1.505708E+04 -5.287150E+03  7.251273E-10 -7.079102E-12
       141  18 -2.519891E+02 -2.194790E+04 -2.348253E+04 -1.614146E+04 -2.340296E-09 -7.649892E-10
       141  19  1.149969E+05  6.781935E+03  6.075157E+03 -1.620520E+04 -1.631215E+03  6.247267E+02
       141  20  1.454722E+05  1.430446E+04  1.245264E+04 -5.351038E+03 -2.276963E+03  1.891688E+03
       141  21  1.758110E+05  2.162965E+04  1.835940E+04 -1.617284E+04 -2.922891E+03  3.156120E+03
       141  22  8.777658E+04  2.052548E+01 -5.145264E+02 -1.615712E+04 -9.615015E+02  6.245976E+02
       141  23  8.784505E+04  2.960563E+01 -1.302099E+03 -5.319093E+03 -1.608509E+03  1.891597E+03
       141  24  8.777593E+04 -1.588407E+02 -2.561279E+03 -1.615715E+04 -2.255665E+03  3.156064E+03
       141  25  6.055689E+04 -6.740938E+03 -7.104261E+03 -1.610905E+04 -2.918170E+02  6.244685E+02
       141  26  3.022096E+04 -1.424549E+04 -1.505707E+04 -5.287151E+03 -9.401161E+02  1.891506E+03
       141  27 -2.519837E+02 -2.194788E+04 -2.348250E+04 -1.614147E+04 -1.588533E+03  3.156008E+03
       142   1  2.145571E+05  3.155249E+04  2.699009E+04 -1.646032E+04  3.470699E+03 -3.900093E+03
       142   2  2.454458E+05  3.923990E+04  3.160956E+04 -5.281913E+03  6.433191E+03 -5.166199E+03
       142   3  2.754503E+05  4.482343E+04  3.378028E+04 -1.580647E+04  9.396173E+03 -6.389084E+03
       142   4  8.760667E+04  8.844536E+01 -3.401520E+03 -1.616321E+04  2.790260E+03 -3.900081E+03
       142   5  8.805028E+04  2.537814E+02 -5.955958E+03 -5.311507E+03  5.774884E+03 -5.166290E+03
       142   6  8.760500E+04 -1.688784E+03 -1.097487E+04 -1.616313E+04  8.759856E+03 -6.389273E+03
       142   7 -3.932902E+04 -3.137677E+04 -3.379427E+04 -1.586616E+04  2.109959E+03 -3.900069E+03
       142   8 -6.932257E+04 -3.873412E+04 -4.352322E+04 -5.341093E+03  5.116744E+03 -5.166381E+03
       142   9 -1.002079E+05 -4.820355E+04 -5.573248E+04 -1.651967E+04  8.123730E+03 -6.389462E+03
       142  10  2.145571E+05  3.155247E+04  2.699004E+04 -1.646031E+04 -1.829204E-09 -1.636192E-09
       142  11  2.454458E+05  3.923986E+04  3.160943E+04 -5.281886E+03 -1.333266E-09  6.519318E-10
       142  12  2.754502E+05  4.482337E+04  3.378004E+04 -1.580643E+04  9.531242E-11  6.049807E-10
       142  13  8.760666E+04  8.842693E+01 -3.401563E+03 -1.616320E+04 -2.164457E-09 -1.011987E-09
       142  14  8.805024E+04  2.537438E+02 -5.956071E+03 -5.311483E+03 -5.707464E-10  5.621074E-10
       142  15  8.760491E+04 -1.688848E+03 -1.097509E+04 -1.616308E+04 -1.328198E-11  1.459829E-10
       142  16 -3.932903E+04 -3.137679E+04 -3.379430E+04 -1.586615E+04  8.158681E-10 -3.652296E-10
       142  17 -6.932260E+04 -3.873416E+04 -4.352332E+04 -5.341072E+03 -4.942478E-10  4.852988E-10
       142  18 -1.002080E+05 -4.820361E+04 -5.573268E+04 -1.651963E+04 -1.868258E-09 -2.034118E-10
       142  19  2.145571E+05  3.155249E+04  2.699009E+04 -1.646032E+04 -3.470699E+03  3.900093E+03
       142  20  2.454458E+05  3.923990E+04  3.160956E+04 -5.281913E+03 -6.433191E+03  5.166199E+03
       142  21  2.754503E+05  4.482343E+04  3.378028E+04 -1.580647E+04 -9.396173E+03  6.389084E+03
       142  22  8.760667E+04  8.844536E+01 -3.401520E+03 -1.616321E+04 -2.790260E+03  3.900081E+03
       142  23  8.805028E+04  2.537814E+02 -5.955958E+03 -5.311507E+03 -5.774884E+03  5.166290E+03
       142  24  8.760500E+04 -1.688784E+03 -1.097487E+04 -1.616313E+04 -8.759856E+03  6.389273E+03
       142  25 -3.932902E+04 -3.137677E+04 -3.379427E+04 -1.586616E+04 -2.109959E+03  3.900069E+03
       142  26 -6.932257E+04 -3.873412E+04 -4.352322E+04 -5.341093E+03 -5.116744E+03  5.166381E+03
       142  27 -1.002079E+05 -4.820355E+04 -5.573248E+04 -1.651967E+04 -8.123730E+03  6.389462E+03
       143   1  3.131566E+05  5.706630E+04  4.015014E+04 -1.859113E+04  1.179305E+04 -7.213751E+03
       143   2  3.469900E+05  6.608980E+04  3.765585E+04 -4.006446E+03  2.362778E+04 -8.449920E+03
       143   3  3.742130E+05  5.447519E+04  2.231958E+04 -1.114734E+04  3.546350E+04 -9.063934E+03
       143   4  8.631541E+04  8.662690E+02 -1.406677E+04 -1.617031E+04  1.097173E+04 -7.214008E+03
       143   5  8.965039E+04  2.351802E+03 -2.375636E+04 -5.303607E+03  2.313050E+04 -8.450355E+03
       143   6  8.631394E+04 -1.686205E+04 -4.651704E+04 -1.616329E+04  3.528968E+04 -9.064572E+03
       143   7 -1.404786E+05 -5.533746E+04 -6.828730E+04 -1.375038E+04  1.015072E+04 -7.214271E+03
       143   8 -1.676286E+05 -6.139098E+04 -8.517322E+04 -6.600233E+03  2.263342E+04 -8.450789E+03
       143   9 -2.015091E+05 -8.820521E+04 -1.153595E+05 -2.117692E+04  3.511593E+04 -9.065208E+03
       143  10  3.131564E+05  5.706620E+04  4.014978E+04 -1.859106E+04 -9.827572E-10  7.699037E-11
       143  11  3.469894E+05  6.608957E+04  3.765467E+04 -4.006285E+03 -2.798693E-09 -3.305822E-10
       143  12  3.742116E+05  5.447477E+04  2.231706E+04 -1.114708E+04  9.327014E-10 -7.566633E-10
       143  13  8.631526E+04  8.661808E+02 -1.406709E+04 -1.617025E+04  2.330311E-11 -3.000019E-10
       143  14  8.964980E+04  2.351582E+03 -2.375750E+04 -5.303450E+03 -2.149617E-09 -5.047809E-10
       143  15  8.631258E+04 -1.686247E+04 -4.651954E+04 -1.616304E+04 -2.652701E-09 -8.370280E-10
       143  16 -1.404788E+05 -5.533754E+04 -6.828759E+04 -1.375032E+04  1.067851E-09 -5.738778E-10
       143  17 -1.676291E+05 -6.139119E+04 -8.517432E+04 -6.600079E+03 -3.010520E-09  1.947539E-10
       143  18 -2.015104E+05 -8.820562E+04 -1.153620E+05 -2.117666E+04  3.917055E-10 -5.771554E-10
       143  19  3.131566E+05  5.706630E+04  4.015014E+04 -1.859113E+04 -1.179305E+04  7.213751E+03
       143  20  3.469900E+05  6.608980E+04  3.765585E+04 -4.006446E+03 -2.362778E+04  8.449920E+03
       143  21  3.742130E+05  5.447519E+04  2.231958E+04 -1.114734E+04 -3.546350E+04  9.063934E+03
       143  22  8.631541E+04  8.662690E+02 -1.406677E+04 -1.617031E+04 -1.097173E+04  7.214008E+03
       143  23  8.965039E+04  2.351802E+03 -2.375636E+04 -5.303607E+03 -2.313050E+04  8.450355E+03
       143  24  8.631394E+04 -1.686205E+04 -4.651704E+04 -1.616329E+04 -3.528968E+04  9.064572E+03
       143  25 -1.404786E+05 -5.533746E+04 -6.828730E+04 -1.375038E+04 -1.015072E+04  7.214271E+03
       143  26 -1.676286E+05 -6.139098E+04 -8.517322E+04 -6.600233E+03 -2.263342E+04  8.450789E+03
       143  27 -2.015091E+05 -8.820521E+04 -1.153595E+05 -2.117692E+04 -3.511593E+04  9.065208E+03
       144   1  4.023006E+05  8.961448E+04  2.086634E+04 -3.846449E+04  4.689167E+04 -1.102174E+04
       144   2  4.609321E+05  1.109210E+05 -6.424757E+03  1.071650E+04  9.169864E+04 -1.182794E+04
       144   3  4.636450E+05 -6.890728E+04 -1.131061E+05  3.846539E+04  1.365009E+05 -3.817647E+03
       144   4  7.517523E+04  8.646334E+03 -5.709095E+04 -1.614781E+04  4.410594E+04 -1.102197E+04
       144   5  1.035599E+05  2.239538E+04 -9.165674E+04 -5.353831E+03  9.354294E+04 -1.182932E+04
       144   6  7.518468E+04 -1.658619E+05 -2.088607E+05 -1.599270E+04  1.429725E+05 -3.823468E+03
       144   7 -2.518509E+05 -7.232765E+04 -1.350554E+05  6.157047E+03  4.132166E+04 -1.102241E+04
       144   8 -2.536947E+05 -6.613853E+04 -1.768975E+05 -2.141490E+04  9.538617E+04 -1.183080E+04
       144   9 -3.131321E+05 -2.628167E+05 -3.046248E+05 -7.041671E+04  1.494401E+05 -3.830428E+03
       144  10  4.022982E+05  8.961376E+04  2.086198E+04 -3.846407E+04  2.070655E-09 -1.339381E-09
       144  11  4.609230E+05  1.109186E+05 -6.440811E+03  1.071738E+04 -1.760037E-10 -2.331508E-09
       144  12  4.636250E+05 -6.891229E+04 -1.131411E+05  3.846581E+04 -8.474448E-10 -7.211190E-10
       144  13  7.517311E+04  8.645682E+03 -5.709483E+04 -1.614742E+04 -1.115202E-09 -3.066332E-09
       144  14  1.035504E+05  2.239288E+04 -9.167344E+04 -5.352940E+03  2.276647E-09  1.496630E-09
       144  15  7.516272E+04 -1.658674E+05 -2.088992E+05 -1.599226E+04 -1.713075E-09  4.241821E-11
       144  16 -2.518528E+05 -7.232824E+04 -1.350589E+05  6.157414E+03 -1.609446E-09 -7.957933E-10
       144  17 -2.537046E+05 -6.614112E+04 -1.769149E+05 -2.141399E+04 -2.445414E-09  1.171697E-09
       144  18 -3.131561E+05 -2.628227E+05 -3.046668E+05 -7.041625E+04  7.262080E-10 -5.468257E-10
       144  19  4.023006E+05  8.961448E+04  2.086634E+04 -3.846449E+04 -4.689167E+04  1.102174E+04
       144  20  4.609321E+05  1.109210E+05 -6.424757E+03  1.071650E+04 -9.169864E+04  1.182794E+04
       144  21  4.636450E+05 -6.890728E+04 -1.131061E+05  3.846539E+04 -1.365009E+05  3.817647E+03
       144  22  7.517523E+04  8.646334E+03 -5.709095E+04 -1.614781E+04 -4.410594E+04  1.102197E+04
       144  23  1.035599E+05  2.239538E+04 -9.165674E+04 -5.353831E+03 -9.354294E+04  1.182932E+04
       144  24  7.518468E+04 -1.658619E+05 -2.088607E+05 -1.599270E+04 -1.429725E+05  3.823468E+03
       144  25 -2.518509E+05 -7.232765E+04 -1.350554E+05  6.157047E+03 -4.132166E+04  1.102241E+04
       144  26 -2.536947E+05 -6.613853E+04 -1.768975E+05 -2.141490E+04 -9.538617E+04  1.183080E+04
       144  27 -3.131321E+05 -2.628167E+05 -3.046248E+05 -7.041671E+04 -1.494401E+05  3.830428E+03
       145   1  3.546308E+05  1.035008E+06  3.579507E+05 -1.674572E+05  1.221571E+04  4.556841E+04
       145   2  2.461788E+05  7.311341E+05  2.548233E+05 -5.565693E+04  3.370220E+04  2.091463E+04
       145   3  1.755263E+05  4.401033E+05  1.772066E+05 -1.546423E+05  2.307412E+04 -3.785339E+03
       145   4  2.850140E+04 -2.734020E+05  3.522603E+04 -1.569253E+05  1.224665E+04  2.570897E+04
       145   5 -3.791905E+03 -2.782647E+05  1.414668E+04 -5.154642E+04  3.371148E+04  1.805214E+04
       145   6 -1.193546E+03 -2.732863E+05  6.814449E+03 -1.569715E+05  2.303918E+04  1.033725E+04
       145   7 -2.977551E+05 -1.580255E+06 -2.876239E+05 -1.464148E+05  1.227696E+04  5.891240E+03
       145   8 -2.538362E+05 -1.286729E+06 -2.266014E+05 -4.744213E+04  3.372073E+04  1.519427E+04
       145   9 -1.779501E+05 -9.862089E+05 -1.636128E+05 -1.592976E+05  2.300411E+04  2.444369E+04
       145  10  3.546301E+05  1.035006E+06  3.579466E+05 -1.674577E+05  9.731091E-11  1.010483E-09
       145  11  2.461775E+05  7.311334E+05  2.548203E+05 -5.565750E+04  1.797355E-09  3.919261E-09
       145  12  1.755258E+05  4.401031E+05  1.772055E+05 -1.546423E+05  6.121672E-10  1.336167E-09
       145  13  2.850106E+04 -2.734027E+05  3.522451E+04 -1.569255E+05 -2.458666E-09 -3.788233E-11
       145  14 -3.793212E+03 -2.782654E+05  1.414393E+04 -5.154691E+04  3.190677E-09 -9.752842E-10
       145  15 -1.194144E+03 -2.732866E+05  6.813251E+03 -1.569717E+05  3.938928E-09 -4.051252E-09
       145  16 -2.977552E+05 -1.580255E+06 -2.876242E+05 -1.464148E+05 -6.776113E-10 -5.085210E-10
       145  17 -2.538375E+05 -1.286730E+06 -2.266040E+05 -4.744254E+04  1.845023E-09 -3.957529E-09
       145  18 -1.779508E+05 -9.862097E+05 -1.636149E+05 -1.592980E+05  2.781736E-09 -4.943230E-09
       145  19  3.546308E+05  1.035008E+06  3.579507E+05 -1.674572E+05 -1.221571E+04 -4.556841E+04
       145  20  2.461788E+05  7.311341E+05  2.548233E+05 -5.565693E+04 -3.370220E+04 -2.091463E+04
       145  21  1.755263E+05  4.401033E+05  1.772066E+05 -1.546423E+05 -2.307412E+04  3.785339E+03
       145  22  2.850140E+04 -2.734020E+05  3.522603E+04 -1.569253E+05 -1.224665E+04 -2.570897E+04
       145  23 -3.791905E+03 -2.782647E+05  1.414668E+04 -5.154642E+04 -3.371148E+04 -1.805214E+04
       145  24 -1.193546E+03 -2.732863E+05  6.814449E+03 -1.569715E+05 -2.303918E+04 -1.033725E+04
       145  25 -2.977551E+05 -1.580255E+06 -2.876239E+05 -1.464148E+05 -1.227696E+04 -5.891240E+03
       145  26 -2.538362E+05 -1.286729E+06 -2.266014E+05 -4.744213E+04 -3.372073E+04 -1.519427E+04
       145  27 -1.779501E+05 -9.862089E+05 -1.636128E+05 -1.592976E+05 -2.300411E+04 -2.444369E+04
       146   1  8.621171E+04  5.663519E+04  8.330312E+04 -1.579701E+05  1.104460E+04  4.191442E+03
       146   2  9.218944E+03 -2.399997E+05  5.550484E+03 -5.184955E+04  1.130714E+03  5.529731E+03
       146   3 -6.934421E+04 -5.384657E+05 -7.377012E+04 -1.577428E+05 -8.891802E+03  6.866320E+03
       146   4  3.854198E+03 -2.757895E+05  3.988467E+03 -1.572150E+05  1.103056E+04  9.393210E+03
       146   5  5.840190E+02 -2.748285E+05 -2.766019E+03 -5.121871E+04  1.116470E+03  1.078899E+04
       146   6 -4.259288E+03 -2.757871E+05 -1.112036E+04 -1.572369E+05 -8.906512E+03  1.218371E+04
       146   7 -7.851129E+04 -6.081128E+05 -7.533385E+04 -1.564603E+05  1.101652E+04  1.459221E+04
       146   8 -8.050978E+03 -3.096562E+05 -1.108250E+04 -5.058790E+04  1.102235E+03  1.604795E+04
       146   9  6.082066E+04 -1.304517E+04  5.152466E+04 -1.567307E+05 -8.921210E+03  1.750334E+04
       146  10  8.621158E+04  5.663514E+04  8.330286E+04 -1.579701E+05  2.361311E-09  2.555173E-09
       146  11  9.218935E+03 -2.399997E+05  5.550425E+03 -5.184956E+04  1.531344E-10  4.003709E-09
       146  12 -6.934430E+04 -5.384658E+05 -7.377036E+04 -1.577427E+05 -7.162467E-10  4.628673E-10
       146  13  3.854043E+03 -2.757897E+05  3.988072E+03 -1.572151E+05  3.067678E-09  7.060558E-11
       146  14  5.839864E+02 -2.748286E+05 -2.766240E+03 -5.121872E+04  1.034004E-09 -1.446389E-09
       146  15 -4.259413E+03 -2.757873E+05 -1.112079E+04 -1.572368E+05 -8.656097E-10 -4.399720E-09
       146  16 -7.851148E+04 -6.081131E+05 -7.533448E+04 -1.564604E+05  1.614628E-09 -1.170238E-09
       146  17 -8.051048E+03 -3.096564E+05 -1.108299E+04 -5.058791E+04  3.944540E-09 -4.058442E-09
       146  18  6.082049E+04 -1.304552E+04  5.152393E+04 -1.567306E+05 -6.114247E-10 -4.383173E-09
       146  19  8.621171E+04  5.663519E+04  8.330312E+04 -1.579701E+05 -1.104460E+04 -4.191442E+03
       146  20  9.218944E+03 -2.399997E+05  5.550484E+03 -5.184955E+04 -1.130714E+03 -5.529731E+03
       146  21 -6.934421E+04 -5.384657E+05 -7.377012E+04 -1.577428E+05  8.891802E+03 -6.866320E+03
       146  22  3.854198E+03 -2.757895E+05  3.988467E+03 -1.572150E+05 -1.103056E+04 -9.393210E+03
       146  23  5.840190E+02 -2.748285E+05 -2.766019E+03 -5.121871E+04 -1.116470E+03 -1.078899E+04
       146  24 -4.259288E+03 -2.757871E+05 -1.112036E+04 -1.572369E+05  8.906512E+03 -1.218371E+04
       146  25 -7.851129E+04 -6.081128E+05 -7.533385E+04 -1.564603E+05 -1.101652E+04 -1.459221E+04
       146  26 -8.050978E+03 -3.096562E+05 -1.108250E+04 -5.058790E+04 -1.102235E+03 -1.604795E+04
       146  27  6.082066E+04 -1.304517E+04  5.152466E+04 -1.567307E+05  8.921210E+03 -1.750334E+04
       147   1 -1.559730E+05 -9.223617E+05 -1.685428E+05 -1.492253E+05 -2.069425E+04  5.610357E+02
       147   2 -2.263254E+05 -1.210072E+06 -2.500173E+05 -5.472202E+04 -3.150578E+04  3.064793E+04
       147   3 -3.566367E+05 -1.516714E+06 -3.661445E+05 -1.712096E+05 -1.164388E+04  6.077889E+04
       147   4  3.591449E+03 -2.790474E+05 -1.470496E+04 -1.569660E+05 -2.072949E+04  1.432204E+04
       147   5  6.459497E+03 -2.710206E+05 -2.586008E+04 -5.152080E+04 -3.149751E+04  2.825723E+04
       147   6 -4.776769E+04 -2.791662E+05 -6.040459E+04 -1.570523E+05 -1.161151E+04  4.225148E+04
       147   7  1.631262E+05  3.646472E+05  1.391044E+05 -1.647145E+05 -2.076505E+04  2.809726E+04
       147   8  2.391807E+05  6.688411E+05  1.982351E+05 -4.831426E+04 -3.148926E+04  2.586290E+04
       147   9  2.609878E+05  9.597774E+05  2.452231E+05 -1.428659E+05 -1.158002E+04  2.368705E+04
       147  10 -1.559735E+05 -9.223618E+05 -1.685436E+05 -1.492252E+05 -4.968357E-10  3.701755E-09
       147  11 -2.263268E+05 -1.210074E+06 -2.500210E+05 -5.472124E+04  4.759041E-10  3.717145E-09
       147  12 -3.566378E+05 -1.516718E+06 -3.661517E+05 -1.712091E+05 -9.122614E-10 -2.466894E-10
       147  13  3.590932E+03 -2.790477E+05 -1.470616E+04 -1.569657E+05 -2.250080E-09  1.826967E-11
       147  14  6.458217E+03 -2.710218E+05 -2.586345E+04 -5.152008E+04 -4.806934E-10 -1.019082E-09
       147  15 -4.776832E+04 -2.791681E+05 -6.040820E+04 -1.570519E+05 -5.400887E-10 -2.325064E-09
       147  16  1.631256E+05  3.646462E+05  1.391021E+05 -1.647140E+05 -2.100601E-09 -2.374961E-09
       147  17  2.391794E+05  6.688401E+05  1.982320E+05 -4.831360E+04 -2.236096E-09 -3.760358E-09
       147  18  2.609875E+05  9.597767E+05  2.452218E+05 -1.428657E+05 -7.751196E-10 -1.885535E-09
       147  19 -1.559730E+05 -9.223617E+05 -1.685428E+05 -1.492253E+05  2.069425E+04 -5.610357E+02
       147  20 -2.263254E+05 -1.210072E+06 -2.500173E+05 -5.472202E+04  3.150578E+04 -3.064793E+04
       147  21 -3.566367E+05 -1.516714E+06 -3.661445E+05 -1.712096E+05  1.164388E+04 -6.077889E+04
       147  22  3.591449E+03 -2.790474E+05 -1.470496E+04 -1.569660E+05  2.072949E+04 -1.432204E+04
       147  23  6.459497E+03 -2.710206E+05 -2.586008E+04 -5.152080E+04  3.149751E+04 -2.825723E+04
       147  24 -4.776769E+04 -2.791662E+05 -6.040459E+04 -1.570523E+05  1.161151E+04 -4.225148E+04
       147  25  1.631262E+05  3.646472E+05  1.391044E+05 -1.647145E+05  2.076505E+04 -2.809726E+04
       147  26  2.391807E+05  6.688411E+05  1.982351E+05 -4.831426E+04  3.148926E+04 -2.586290E+04
       147  27  2.609878E+05  9.597774E+05  2.452231E+05 -1.428659E+05  1.158002E+04 -2.368705E+04
       148   1 -1.229822E+06 -3.691728E+05 -2.115679E+05 -4.402362E+05 -8.942465E+04 -3.002527E+04
       148   2 -1.194033E+06 -2.285185E+05 -1.252386E+05 -4.407555E+05 -5.821512E+04 -1.122191E+04
       148   3 -1.192720E+06 -2.217820E+05 -9.653906E+04 -4.273385E+05 -2.430155E+04  3.957198E+02
       148   4 -9.566776E+05 -2.367162E+05 -1.314637E+05 -3.357296E+05 -8.461950E+04 -2.822389E+04
       148   5 -9.329603E+05 -1.219127E+05 -5.491180E+04 -3.608069E+05 -5.694473E+04 -1.074576E+04
       148   6 -9.429983E+05 -1.402970E+05 -3.316589E+04 -3.719539E+05 -2.656748E+04 -4.550831E+02
       148   7 -6.834579E+05 -1.042393E+05 -5.136633E+04 -2.311763E+05 -7.981201E+04 -2.642105E+04
       148   8 -6.718208E+05 -1.529910E+04  1.540908E+04 -2.808265E+05 -5.567374E+04 -1.026934E+04
       148   9 -6.932162E+05 -5.881172E+04  3.020246E+04 -3.165508E+05 -2.883441E+04 -1.306148E+03
       148  10 -1.229831E+06 -3.691759E+05 -2.115847E+05 -4.402383E+05 -1.757095E-10 -8.608647E-10
       148  11 -1.194037E+06 -2.285195E+05 -1.252452E+05 -4.407560E+05 -1.136981E-09 -5.969491E-10
       148  12 -1.192720E+06 -2.217822E+05 -9.654017E+04 -4.273385E+05  1.027036E-09  4.636616E-11
       148  13 -9.566855E+05 -2.367189E+05 -1.314787E+05 -3.357315E+05 -1.453143E-09  1.039565E-09
       148  14 -9.329638E+05 -1.219137E+05 -5.491812E+04 -3.608074E+05 -2.401585E-09  7.207717E-12
       148  15 -9.429990E+05 -1.402972E+05 -3.316721E+04 -3.719539E+05 -1.133589E-09 -1.206496E-09
       148  16 -6.834649E+05 -1.042417E+05 -5.137963E+04 -2.311780E+05 -7.511728E-10  4.975702E-10
       148  17 -6.718242E+05 -1.530005E+04  1.540305E+04 -2.808270E+05 -1.899907E-10  2.170312E-09
       148  18 -6.932171E+05 -5.881194E+04  3.020089E+04 -3.165508E+05 -1.544968E-09 -6.393111E-10
       148  19 -1.229822E+06 -3.691728E+05 -2.115679E+05 -4.402362E+05  8.942465E+04  3.002527E+04
       148  20 -1.194033E+06 -2.285185E+05 -1.252386E+05 -4.407555E+05  5.821512E+04  1.122191E+04
       148  21 -1.192720E+06 -2.217820E+05 -9.653906E+04 -4.273385E+05  2.430155E+04 -3.957198E+02
       148  22 -9.566776E+05 -2.367162E+05 -1.314637E+05 -3.357296E+05  8.461950E+04  2.822389E+04
       148  23 -9.329603E+05 -1.219127E+05 -5.491180E+04 -3.608069E+05  5.694473E+04  1.074576E+04
       148  24 -9.429983E+05 -1.402970E+05 -3.316589E+04 -3.719539E+05  2.656748E+04  4.550831E+02
       148  25 -6.834579E+05 -1.042393E+05 -5.136633E+04 -2.311763E+05  7.981201E+04  2.642105E+04
       148  26 -6.718208E+05 -1.529910E+04  1.540908E+04 -2.808265E+05  5.567374E+04  1.026934E+04
       148  27 -6.932162E+05 -5.881172E+04  3.020246E+04 -3.165508E+05  2.883441E+04  1.306148E+03
       149   1 -1.139443E+06 -2.323899E+05 -8.053814E+04 -4.220610E+05 -2.104075E+04 -3.440015E+02
       149   2 -1.117278E+06 -2.011317E+05 -5.910296E+04 -4.073919E+05 -1.377420E+04  1.630030E+03
       149   3 -1.085411E+06 -1.980832E+05 -4.638033E+04 -4.071896E+05 -6.295674E+03  3.039229E+03
       149   4 -9.385689E+05 -1.540157E+05 -2.696235E+04 -3.643402E+05 -2.123201E+04 -4.161038E+02
       149   5 -9.427189E+05 -1.347984E+05 -1.297414E+04 -3.590348E+05 -1.424211E+04  1.454234E+03
       149   6 -9.371102E+05 -1.437333E+05 -7.476683E+03 -3.681966E+05 -7.040587E+03  2.759641E+03
       149   7 -7.376559E+05 -7.563852E+04  2.660974E+04 -3.066024E+05 -2.142333E+04 -4.882333E+02
       149   8 -7.681298E+05 -6.846305E+04  3.315206E+04 -3.106654E+05 -1.471017E+04  1.278381E+03
       149   9 -7.887878E+05 -8.938231E+04  3.142521E+04 -3.291953E+05 -7.785697E+03  2.479984E+03
       149  10 -1.139444E+06 -2.323900E+05 -8.053897E+04 -4.220610E+05 -1.717278E-10 -9.586706E-10
       149  11 -1.117279E+06 -2.011318E+05 -5.910332E+04 -4.073919E+05 -2.799627E-09 -1.840497E-10
       149  12 -1.085411E+06 -1.980832E+05 -4.638042E+04 -4.071895E+05 -2.412105E-09 -5.892637E-10
       149  13 -9.385694E+05 -1.540158E+05 -2.696320E+04 -3.643402E+05 -5.996753E-10 -9.336602E-10
       149  14 -9.427191E+05 -1.347984E+05 -1.297452E+04 -3.590348E+05 -2.715665E-09  5.610374E-11
       149  15 -9.371103E+05 -1.437334E+05 -7.476791E+03 -3.681966E+05 -5.632048E-10 -5.390457E-10
       149  16 -7.376564E+05 -7.563864E+04  2.660888E+04 -3.066024E+05  8.063109E-10 -1.380184E-09
       149  17 -7.681300E+05 -6.846311E+04  3.315165E+04 -3.106653E+05 -2.048814E-09 -4.974443E-10
       149  18 -7.887879E+05 -8.938233E+04  3.142509E+04 -3.291953E+05 -2.155131E-10 -5.074411E-10
       149  19 -1.139443E+06 -2.323899E+05 -8.053814E+04 -4.220610E+05  2.104075E+04  3.440015E+02
       149  20 -1.117278E+06 -2.011317E+05 -5.910296E+04 -4.073919E+05  1.377420E+04 -1.630030E+03
       149  21 -1.085411E+06 -1.980832E+05 -4.638033E+04 -4.071896E+05  6.295674E+03 -3.039229E+03
       149  22 -9.385689E+05 -1.540157E+05 -2.696235E+04 -3.643402E+05  2.123201E+04  4.161038E+02
       149  23 -9.427189E+05 -1.347984E+05 -1.297414E+04 -3.590348E+05  1.424211E+04 -1.454234E+03
       149  24 -9.371102E+05 -1.437333E+05 -7.476683E+03 -3.681966E+05  7.040587E+03 -2.759641E+03
       149  25 -7.376559E+05 -7.563852E+04  2.660974E+04 -3.066024E+05  2.142333E+04  4.882333E+02
       149  26 -7.681298E+05 -6.846305E+04  3.315206E+04 -3.106654E+05  1.471017E+04 -1.278381E+03
       149  27 -7.887878E+05 -8.938231E+04  3.142521E+04 -3.291953E+05  7.785697E+03 -2.479984E+03
       150   1 -1.044727E+06 -1.861097E+05 -3.431388E+04 -3.971861E+05 -5.075744E+03  2.576928E+03
       150   2 -1.023860E+06 -1.662049E+05 -2.414635E+04 -3.806128E+05 -3.033248E+03  1.958126E+03
       150   3 -9.879902E+05 -1.633999E+05 -1.553129E+04 -3.817390E+05 -9.724640E+02  1.290004E+03
       150   4 -9.364983E+05 -1.452254E+05 -5.845264E+03 -3.674316E+05 -5.663468E+03  2.356376E+03
       150   5 -9.439247E+05 -1.361365E+05 -3.079969E+03 -3.587845E+05 -3.645036E+03  1.728607E+03
       150   6 -9.363436E+05 -1.441423E+05 -1.847691E+03 -3.678370E+05 -1.608401E+03  1.051494E+03
       150   7 -8.282583E+05 -1.043403E+05  2.262235E+04 -3.376724E+05 -6.251304E+03  2.135781E+03
       150   8 -8.639831E+05 -1.060678E+05  1.798584E+04 -3.369537E+05 -4.256910E+03  1.499056E+03
       150   9 -8.846947E+05 -1.248846E+05  1.183564E+04 -3.539339E+05 -2.244394E+03  8.129640E+02
       150  10 -1.044727E+06 -1.861097E+05 -3.431394E+04 -3.971861E+05 -2.292931E-09 -7.552811E-10
       150  11 -1.023860E+06 -1.662049E+05 -2.414638E+04 -3.806128E+05 -2.078478E-09  1.203025E-10
       150  12 -9.879902E+05 -1.633999E+05 -1.553130E+04 -3.817390E+05 -1.471892E-09  3.663964E-10
       150  13 -9.364983E+05 -1.452254E+05 -5.845335E+03 -3.674316E+05  2.137049E-10 -6.591922E-10
       150  14 -9.439247E+05 -1.361365E+05 -3.080000E+03 -3.587845E+05  8.984493E-10 -2.600804E-10
       150  15 -9.363436E+05 -1.441423E+05 -1.847698E+03 -3.678370E+05  1.699601E-09  9.524522E-10
       150  16 -8.282583E+05 -1.043403E+05  2.262227E+04 -3.376724E+05  6.642828E-10 -5.439092E-10
       150  17 -8.639831E+05 -1.060678E+05  1.798580E+04 -3.369537E+05  1.107271E-09 -3.864233E-10
       150  18 -8.846947E+05 -1.248846E+05  1.183563E+04 -3.539339E+05  1.543489E-09  1.361114E-09
       150  19 -1.044727E+06 -1.861097E+05 -3.431388E+04 -3.971861E+05  5.075744E+03 -2.576928E+03
       150  20 -1.023860E+06 -1.662049E+05 -2.414635E+04 -3.806128E+05  3.033248E+03 -1.958126E+03
       150  21 -9.879902E+05 -1.633999E+05 -1.553129E+04 -3.817390E+05  9.724640E+02 -1.290004E+03
       150  22 -9.364983E+05 -1.452254E+05 -5.845264E+03 -3.674316E+05  5.663468E+03 -2.356376E+03
       150  23 -9.439247E+05 -1.361365E+05 -3.079969E+03 -3.587845E+05  3.645036E+03 -1.728607E+03
       150  24 -9.363436E+05 -1.441423E+05 -1.847691E+03 -3.678370E+05  1.608401E+03 -1.051494E+03
       150  25 -8.282583E+05 -1.043403E+05  2.262235E+04 -3.376724E+05  6.251304E+03 -2.135781E+03
       150  26 -8.639831E+05 -1.060678E+05  1.798584E+04 -3.369537E+05  4.256910E+03 -1.499056E+03
       150  27 -8.846947E+05 -1.248846E+05  1.183564E+04 -3.539339E+05  2.244394E+03 -8.129640E+02
       151   1 -9.483411E+05 -1.488398E+05 -4.586741E+03 -3.710868E+05 -4.294053E+02  6.441510E+02
       151   2 -9.275824E+05 -1.300728E+05  3.246805E+03 -3.542538E+05  5.963934E+02 -4.143350E+02
       151   3 -8.911688E+05 -1.272950E+05  1.061963E+04 -3.554910E+05  1.622853E+03 -1.474337E+03
       151   4 -9.362563E+05 -1.443011E+05 -1.507594E+03 -3.677675E+05 -1.053717E+03  4.100186E+02
       151   5 -9.440776E+05 -1.362665E+05 -1.098187E+03 -3.587471E+05 -2.869037E+01 -6.487730E+02
       151   6 -9.362453E+05 -1.442213E+05 -1.149013E+03 -3.677975E+05  9.969628E+02 -1.709085E+03
       151   7 -9.241713E+05 -1.397623E+05  1.571559E+03 -3.644481E+05 -1.678044E+03  1.758801E+02
       151   8 -9.605726E+05 -1.424602E+05 -5.443192E+03 -3.632403E+05 -6.537548E+02 -8.832037E+02
       151   9 -9.813195E+05 -1.611474E+05 -1.291773E+04 -3.801031E+05  3.711276E+02 -1.943812E+03
       151  10 -9.483411E+05 -1.488398E+05 -4.586742E+03 -3.710868E+05 -2.775635E-10  6.655597E-10
       151  11 -9.275824E+05 -1.300728E+05  3.246804E+03 -3.542538E+05  1.692764E-09 -8.013327E-11
       151  12 -8.911688E+05 -1.272950E+05  1.061962E+04 -3.554910E+05  2.347677E-10  3.871734E-10
       151  13 -9.362563E+05 -1.443011E+05 -1.507596E+03 -3.677675E+05 -1.281648E-09  6.783243E-10
       151  14 -9.440776E+05 -1.362665E+05 -1.098188E+03 -3.587471E+05 -4.582734E-10 -4.560588E-10
       151  15 -9.362453E+05 -1.442213E+05 -1.149020E+03 -3.677975E+05  2.358173E-09  9.910623E-11
       151  16 -9.241713E+05 -1.397623E+05  1.571554E+03 -3.644481E+05 -2.608625E-09  4.986891E-10
       151  17 -9.605726E+05 -1.424602E+05 -5.443194E+03 -3.632403E+05  4.262848E-10 -6.483117E-10
       151  18 -9.813195E+05 -1.611474E+05 -1.291773E+04 -3.801031E+05  7.158309E-10 -2.024744E-10
       151  19 -9.483411E+05 -1.488398E+05 -4.586741E+03 -3.710868E+05  4.294053E+02 -6.441510E+02
       151  20 -9.275824E+05 -1.300728E+05  3.246805E+03 -3.542538E+05 -5.963934E+02  4.143350E+02
       151  21 -8.911688E+05 -1.272950E+05  1.061963E+04 -3.554910E+05 -1.622853E+03  1.474337E+03
       151  22 -9.362563E+05 -1.443011E+05 -1.507594E+03 -3.677675E+05  1.053717E+03 -4.100186E+02
       151  23 -9.440776E+05 -1.362665E+05 -1.098187E+03 -3.587471E+05  2.869037E+01  6.487730E+02
       151  24 -9.362453E+05 -1.442213E+05 -1.149013E+03 -3.677975E+05 -9.969628E+02  1.709085E+03
       151  25 -9.241713E+05 -1.397623E+05  1.571559E+03 -3.644481E+05  1.678044E+03 -1.758801E+02
       151  26 -9.605726E+05 -1.424602E+05 -5.443192E+03 -3.632403E+05  6.537548E+02  8.832037E+02
       151  27 -9.813195E+05 -1.611474E+05 -1.291773E+04 -3.801031E+05 -3.711276E+02  1.943812E+03
       152   1 -8.518341E+05 -1.124692E+05  2.104322E+04 -3.448150E+05  2.101747E+03 -2.136539E+03
       152   2 -8.312875E+05 -9.395150E+04  2.769432E+04 -3.280835E+05  3.568944E+03 -3.022130E+03
       152   3 -7.953701E+05 -9.147856E+04  3.350028E+04 -3.291841E+05  5.030989E+03 -3.892794E+03
       152   4 -9.362996E+05 -1.441604E+05 -1.305747E+03 -3.677728E+05  1.476431E+03 -2.371106E+03
       152   5 -9.440058E+05 -1.362858E+05 -1.996806E+03 -3.588010E+05  2.950765E+03 -3.254114E+03
       152   6 -9.363430E+05 -1.444577E+05 -3.538666E+03 -3.676619E+05  4.419899E+03 -4.122209E+03
       152   7 -1.020759E+06 -1.758513E+05 -2.365542E+04 -3.907279E+05  8.512071E+02 -2.605639E+03
       152   8 -1.056713E+06 -1.786197E+05 -3.168922E+04 -3.895138E+05  2.332706E+03 -3.486053E+03
       152   9 -1.077298E+06 -1.974362E+05 -4.057966E+04 -4.061322E+05  3.808956E+03 -4.351569E+03
       152  10 -8.518341E+05 -1.124692E+05  2.104321E+04 -3.448150E+05  9.028561E-10  6.574291E-10
       152  11 -8.312875E+05 -9.395151E+04  2.769428E+04 -3.280835E+05 -8.169823E-10 -3.152318E-10
       152  12 -7.953701E+05 -9.147858E+04  3.350020E+04 -3.291841E+05 -3.293327E-09  4.742897E-10
       152  13 -9.362996E+05 -1.441604E+05 -1.305762E+03 -3.677728E+05 -5.205178E-10  1.920623E-10
       152  14 -9.440058E+05 -1.362859E+05 -1.996842E+03 -3.588010E+05  8.514433E-10 -1.564567E-10
       152  15 -9.363430E+05 -1.444577E+05 -3.538734E+03 -3.676619E+05  1.485938E-10  7.747613E-10
       152  16 -1.020759E+06 -1.758513E+05 -2.365543E+04 -3.907279E+05 -4.228891E-10 -3.347597E-10
       152  17 -1.056713E+06 -1.786197E+05 -3.168926E+04 -3.895138E+05 -1.092681E-09  5.678612E-11
       152  18 -1.077298E+06 -1.974362E+05 -4.057973E+04 -4.061321E+05  1.116350E-09  1.360693E-09
       152  19 -8.518341E+05 -1.124692E+05  2.104322E+04 -3.448150E+05 -2.101747E+03  2.136539E+03
       152  20 -8.312875E+05 -9.395150E+04  2.769432E+04 -3.280835E+05 -3.568944E+03  3.022130E+03
       152  21 -7.953701E+05 -9.147856E+04  3.350028E+04 -3.291841E+05 -5.030989E+03  3.892794E+03
       152  22 -9.362996E+05 -1.441604E+05 -1.305747E+03 -3.677728E+05 -1.476431E+03  2.371106E+03
       152  23 -9.440058E+05 -1.362858E+05 -1.996806E+03 -3.588010E+05 -2.950765E+03  3.254114E+03
       152  24 -9.363430E+05 -1.444577E+05 -3.538666E+03 -3.676619E+05 -4.419899E+03  4.122209E+03
       152  25 -1.020759E+06 -1.758513E+05 -2.365542E+04 -3.907279E+05 -8.512071E+02  2.605639E+03
       152  26 -1.056713E+06 -1.786197E+05 -3.168922E+04 -3.895138E+05 -2.332706E+03  3.486053E+03
       152  27 -1.077298E+06 -1.974362E+05 -4.057966E+04 -4.061322E+05 -3.808956E+03  4.351569E+03
       153   1 -7.567790E+05 -7.681462E+04  4.281173E+04 -3.192162E+05  5.985558E+03 -4.367726E+03
       153   2 -7.365536E+05 -5.808091E+04  4.643505E+04 -3.023872E+05  1.052651E+04 -4.062276E+03
       153   3 -7.029714E+05 -5.827382E+04  4.603244E+04 -3.021540E+05  1.503963E+04 -3.680608E+03
       153   4 -9.366382E+05 -1.439794E+05 -4.592529E+03 -3.678096E+05  5.360481E+03 -4.602475E+03
       153   5 -9.435218E+05 -1.359770E+05 -8.110502E+03 -3.589625E+05  9.937636E+03 -4.283593E+03
       153   6 -9.370569E+05 -1.469093E+05 -1.568407E+04 -3.667116E+05  1.448678E+04 -3.888557E+03
       153   7 -1.116465E+06 -2.111418E+05 -5.199915E+04 -4.163899E+05  4.735609E+03 -4.837148E+03
       153   8 -1.150447E+06 -2.138701E+05 -6.265945E+04 -4.155205E+05  9.348984E+03 -4.504828E+03
       153   9 -1.171089E+06 -2.355411E+05 -7.740520E+04 -4.312469E+05  1.393416E+04 -4.096418E+03
       153  10 -7.567791E+05 -7.681465E+04  4.281163E+04 -3.192161E+05  1.754788E-11  1.145872E-09
       153  11 -7.365537E+05 -5.808095E+04  4.643481E+04 -3.023871E+05 -4.513187E-10  1.574085E-10
       153  12 -7.029717E+05 -5.827390E+04  4.603199E+04 -3.021540E+05 -2.143125E-10 -1.586760E-09
       153  13 -9.366382E+05 -1.439795E+05 -4.592623E+03 -3.678095E+05 -1.801167E-09  1.073726E-09
       153  14 -9.435219E+05 -1.359770E+05 -8.110722E+03 -3.589625E+05 -1.841090E-09  1.948422E-10
       153  15 -9.370572E+05 -1.469094E+05 -1.568449E+04 -3.667115E+05  1.368777E-09 -1.695217E-09
       153  16 -1.116465E+06 -2.111419E+05 -5.199923E+04 -4.163899E+05 -9.556751E-10  6.793549E-10
       153  17 -1.150448E+06 -2.138701E+05 -6.265966E+04 -4.155205E+05  2.629345E-10 -1.167204E-09
       153  18 -1.171089E+06 -2.355412E+05 -7.740560E+04 -4.312469E+05 -2.825603E-10 -2.839361E-10
       153  19 -7.567790E+05 -7.681462E+04  4.281173E+04 -3.192162E+05 -5.985558E+03  4.367726E+03
       153  20 -7.365536E+05 -5.808091E+04  4.643505E+04 -3.023872E+05 -1.052651E+04  4.062276E+03
       153  21 -7.029714E+05 -5.827382E+04  4.603244E+04 -3.021540E+05 -1.503963E+04  3.680608E+03
       153  22 -9.366382E+05 -1.439794E+05 -4.592529E+03 -3.678096E+05 -5.360481E+03  4.602475E+03
       153  23 -9.435218E+05 -1.359770E+05 -8.110502E+03 -3.589625E+05 -9.937636E+03  4.283593E+03
       153  24 -9.370569E+05 -1.469093E+05 -1.568407E+04 -3.667116E+05 -1.448678E+04  3.888557E+03
       153  25 -1.116465E+06 -2.111418E+05 -5.199915E+04 -4.163899E+05 -4.735609E+03  4.837148E+03
       153  26 -1.150447E+06 -2.138701E+05 -6.265945E+04 -4.155205E+05 -9.348984E+03  4.504828E+03
       153  27 -1.171089E+06 -2.355411E+05 -7.740520E+04 -4.312469E+05 -1.393416E+04  4.096418E+03
       154   1 -6.641620E+05 -4.346001E+04  5.156361E+04 -2.977782E+05  1.844262E+04 -3.317575E+03
       154   2 -6.437215E+05 -1.874078E+04  4.348752E+04 -2.765080E+05  3.670204E+04  2.229632E+03
       154   3 -6.238579E+05 -4.301129E+04  1.277904E+04 -2.633768E+05  5.466983E+04  8.557131E+03
       154   4 -9.386632E+05 -1.429344E+05 -2.012806E+04 -3.688461E+05  1.767628E+04 -3.605747E+03
       154   5 -9.403094E+05 -1.322818E+05 -3.503143E+04 -3.595588E+05  3.631221E+04  2.082517E+03
       154   6 -9.426154E+05 -1.707057E+05 -7.287472E+04 -3.584103E+05  5.465573E+04  8.550576E+03
       154   7 -1.213092E+06 -2.424059E+05 -9.182627E+04 -4.398865E+05  1.691031E+04 -3.893792E+03
       154   8 -1.236813E+06 -2.458169E+05 -1.135581E+05 -4.425735E+05  3.592259E+04  1.935481E+03
       154   9 -1.261274E+06 -2.983903E+05 -1.585375E+05 -4.533985E+05  5.464164E+04  8.544021E+03
       154  10 -6.641624E+05 -4.346011E+04  5.156295E+04 -2.977781E+05 -2.208290E-09 -1.995476E-09
       154  11 -6.437229E+05 -1.874115E+04  4.348498E+04 -2.765081E+05 -3.326037E-09  6.378731E-10
       154  12 -6.238612E+05 -4.301217E+04  1.277328E+04 -2.633771E+05 -1.931791E-09 -8.072202E-10
       154  13 -9.386636E+05 -1.429345E+05 -2.012867E+04 -3.688460E+05 -3.934478E-10 -1.316717E-09
       154  14 -9.403109E+05 -1.322822E+05 -3.503392E+04 -3.595588E+05 -4.194297E-09  6.923724E-10
       154  15 -9.426186E+05 -1.707066E+05 -7.288048E+04 -3.584107E+05 -1.623300E-11 -1.235880E-09
       154  16 -1.213093E+06 -2.424060E+05 -9.182684E+04 -4.398864E+05  1.710509E-10  5.061324E-10
       154  17 -1.236814E+06 -2.458172E+05 -1.135606E+05 -4.425735E+05 -3.641712E-09  2.686060E-10
       154  18 -1.261277E+06 -2.983912E+05 -1.585433E+05 -4.533988E+05 -1.836676E-09 -2.545342E-10
       154  19 -6.641620E+05 -4.346001E+04  5.156361E+04 -2.977782E+05 -1.844262E+04  3.317575E+03
       154  20 -6.437215E+05 -1.874078E+04  4.348752E+04 -2.765080E+05 -3.670204E+04 -2.229632E+03
       154  21 -6.238579E+05 -4.301129E+04  1.277904E+04 -2.633768E+05 -5.466983E+04 -8.557131E+03
       154  22 -9.386632E+05 -1.429344E+05 -2.012806E+04 -3.688461E+05 -1.767628E+04  3.605747E+03
       154  23 -9.403094E+05 -1.322818E+05 -3.503143E+04 -3.595588E+05 -3.631221E+04 -2.082517E+03
       154  24 -9.426154E+05 -1.707057E+05 -7.287472E+04 -3.584103E+05 -5.465573E+04 -8.550576E+03
       154  25 -1.213092E+06 -2.424059E+05 -9.182627E+04 -4.398865E+05 -1.691031E+04  3.893792E+03
       154  26 -1.236813E+06 -2.458169E+05 -1.135581E+05 -4.425735E+05 -3.592259E+04 -1.935481E+03
       154  27 -1.261274E+06 -2.983903E+05 -1.585375E+05 -4.533985E+05 -5.464164E+04 -8.544021E+03
       155   1 -5.702972E+05 -2.287894E+04  5.001981E+03 -3.087325E+05  7.094071E+04  1.234688E+04
       155   2 -5.467684E+05  6.397544E+04 -4.737089E+04 -2.401087E+05  1.475509E+05  4.028899E+04
       155   3 -6.398902E+05 -1.819221E+05 -2.440589E+05 -1.037224E+05  2.204605E+05  7.806814E+04
       155   4 -9.543887E+05 -1.338341E+05 -8.965805E+04 -3.792510E+05  6.809307E+04  1.127899E+04
       155   5 -9.141094E+05 -9.718380E+04 -1.484308E+05 -3.640785E+05  1.495105E+05  4.101983E+04
       155   6 -9.915195E+05 -3.943719E+05 -3.554007E+05 -2.811221E+05  2.272275E+05  8.058360E+04
       155   7 -1.338336E+06 -2.447920E+05 -1.843283E+05 -4.497367E+05  6.524736E+04  1.021145E+04
       155   8 -1.281316E+06 -2.583196E+05 -2.495026E+05 -4.879765E+05  1.514687E+05  4.174999E+04
       155   9 -1.343009E+06 -6.067412E+05 -4.667524E+05 -4.584104E+05  2.339901E+05  8.309525E+04
       155  10 -5.703026E+05 -2.288046E+04  4.992227E+03 -3.087332E+05 -1.969727E-09 -1.582941E-09
       155  11 -5.467923E+05  6.396785E+04 -4.741490E+04 -2.401135E+05 -3.731082E-10 -1.389182E-09
       155  12 -6.399440E+05 -1.819417E+05 -2.441618E+05 -1.037362E+05 -1.539697E-09 -2.274952E-09
       155  13 -9.543937E+05 -1.338354E+05 -8.966702E+04 -3.792516E+05 -2.959742E-09 -4.781275E-09
       155  14 -9.141339E+05 -9.719163E+04 -1.484761E+05 -3.640834E+05 -2.764899E-09 -7.520717E-10
       155  15 -9.915767E+05 -3.943928E+05 -3.555101E+05 -2.811369E+05 -5.981751E-10 -2.198041E-11
       155  16 -1.338341E+06 -2.447932E+05 -1.843365E+05 -4.497372E+05 -7.857120E-10 -5.191355E-10
       155  17 -1.281341E+06 -2.583277E+05 -2.495491E+05 -4.879816E+05 -1.997078E-09  2.972583E-09
       155  18 -1.343070E+06 -6.067634E+05 -4.668686E+05 -4.584261E+05 -1.539074E-09 -2.041108E-10
       155  19 -5.702972E+05 -2.287894E+04  5.001981E+03 -3.087325E+05 -7.094071E+04 -1.234688E+04
       155  20 -5.467684E+05  6.397544E+04 -4.737089E+04 -2.401087E+05 -1.475509E+05 -4.028899E+04
       155  21 -6.398902E+05 -1.819221E+05 -2.440589E+05 -1.037224E+05 -2.204605E+05 -7.806814E+04
       155  22 -9.543887E+05 -1.338341E+05 -8.965805E+04 -3.792510E+05 -6.809307E+04 -1.127899E+04
       155  23 -9.141094E+05 -9.718380E+04 -1.484308E+05 -3.640785E+05 -1.495105E+05 -4.101983E+04
       155  24 -9.915195E+05 -3.943719E+05 -3.554007E+05 -2.811221E+05 -2.272275E+05 -8.058360E+04
       155  25 -1.338336E+06 -2.447920E+05 -1.843283E+05 -4.497367E+05 -6.524736E+04 -1.021145E+04
       155  26 -1.281316E+06 -2.583196E+05 -2.495026E+05 -4.879765E+05 -1.514687E+05 -4.174999E+04
       155  27 -1.343009E+06 -6.067412E+05 -4.667524E+05 -4.584104E+05 -2.339901E+05 -8.309525E+04
       156   1  2.614479E+05  2.210041E+06  2.551435E+05 -1.098539E+05  1.157031E+04  1.057152E+05
       156   2  1.996187E+05  2.135031E+06  1.781555E+05 -8.653292E+04  3.924712E+04  5.356361E+04
       156   3  1.713071E+05  2.075183E+06  1.434439E+05 -7.554174E+04  4.740773E+04  1.400018E+03
       156   4  5.084175E+04  1.354867E+06  5.601718E+04 -7.592425E+04  1.166237E+04  3.554933E+04
       156   5  1.340515E+04  1.350485E+06  3.032113E+04 -6.979355E+04  3.929752E+04  2.005245E+04
       156   6  3.159264E+03  1.354930E+06  2.151987E+04 -7.599057E+04  4.740807E+04  4.536372E+03
       156   7 -1.598091E+05  5.003779E+05 -1.431395E+05 -4.204129E+04  1.174684E+04 -3.452083E+04
       156   8 -1.728425E+05  5.665351E+05 -1.175359E+05 -5.307556E+04  3.934617E+04 -1.341753E+04
       156   9 -1.650159E+05  6.351871E+05 -1.004209E+05 -7.643865E+04  4.740841E+04  7.669213E+03
       156  10  2.614448E+05  2.210029E+06  2.551224E+05 -1.098549E+05  2.226964E-10 -2.061796E-10
       156  11  1.996162E+05  2.135028E+06  1.781472E+05 -8.653462E+04 -1.103302E-09 -2.238622E-10
       156  12  1.713047E+05  2.075182E+06  1.434397E+05 -7.554180E+04  5.583789E-10  1.919867E-09
       156  13  5.084127E+04  1.354866E+06  5.601455E+04 -7.592458E+04 -3.359027E-10  1.445661E-10
       156  14  1.340338E+04  1.350485E+06  3.031747E+04 -6.979418E+04 -8.425031E-10  1.288952E-09
       156  15  3.156843E+03  1.354930E+06  2.151561E+04 -7.599074E+04  2.535692E-10 -2.093466E-09
       156  16 -1.598096E+05  5.003766E+05 -1.431420E+05 -4.204096E+04  7.941360E-10  1.421859E-09
       156  17 -1.728442E+05  5.665345E+05 -1.175391E+05 -5.307514E+04  1.043109E-09 -2.171530E-10
       156  18 -1.650184E+05  6.351864E+05 -1.004252E+05 -7.643894E+04 -1.509194E-09 -1.095760E-09
       156  19  2.614479E+05  2.210041E+06  2.551435E+05 -1.098539E+05 -1.157031E+04 -1.057152E+05
       156  20  1.996187E+05  2.135031E+06  1.781555E+05 -8.653292E+04 -3.924712E+04 -5.356361E+04
       156  21  1.713071E+05  2.075183E+06  1.434439E+05 -7.554174E+04 -4.740773E+04 -1.400018E+03
       156  22  5.084175E+04  1.354867E+06  5.601718E+04 -7.592425E+04 -1.166237E+04 -3.554933E+04
       156  23  1.340515E+04  1.350485E+06  3.032113E+04 -6.979355E+04 -3.929752E+04 -2.005245E+04
       156  24  3.159264E+03  1.354930E+06  2.151987E+04 -7.599057E+04 -4.740807E+04 -4.536372E+03
       156  25 -1.598091E+05  5.003779E+05 -1.431395E+05 -4.204129E+04 -1.174684E+04  3.452083E+04
       156  26 -1.728425E+05  5.665351E+05 -1.175359E+05 -5.307556E+04 -3.934617E+04  1.341753E+04
       156  27 -1.650159E+05  6.351871E+05 -1.004209E+05 -7.643865E+04 -4.740841E+04 -7.669213E+03
       157   1  1.606255E+05  2.029972E+06  1.331093E+05 -7.932862E+04  4.592427E+04 -6.287399E+02
       157   2  1.435859E+05  1.961021E+06  1.215338E+05 -6.941039E+04  4.356379E+04 -1.717426E+04
       157   3  1.338109E+05  1.896018E+06  1.225192E+05 -7.313171E+04  3.842972E+04 -3.372398E+04
       157   4  3.059631E+03  1.353655E+06  2.032837E+04 -7.627713E+04  4.592594E+04  1.245773E+03
       157   5  2.270848E+03  1.352143E+06  2.266619E+04 -6.945373E+04  4.355618E+04 -1.008422E+04
       157   6  7.847222E+03  1.353675E+06  3.395642E+04 -7.627038E+04  3.841162E+04 -2.142006E+04
       157   7 -1.545300E+05  6.777869E+05 -9.246657E+04 -7.322887E+04  4.592763E+04  3.118316E+03
       157   8 -1.390630E+05  7.436320E+05 -7.621158E+04 -6.949687E+04  4.354857E+04 -3.000869E+03
       157   9 -1.181313E+05  8.116237E+05 -5.461417E+04 -7.940608E+04  3.839339E+04 -9.126473E+03
       157  10  1.606233E+05  2.029972E+06  1.331053E+05 -7.932859E+04  4.755459E-10  3.955732E-09
       157  11  1.435838E+05  1.961020E+06  1.215297E+05 -6.940979E+04  2.016170E-09  2.651017E-10
       157  12  1.338090E+05  1.896016E+06  1.225143E+05 -7.313067E+04  2.990431E-09 -6.931019E-10
       157  13  3.057364E+03  1.353654E+06  2.032440E+04 -7.627717E+04 -1.070572E-10 -1.542785E-10
       157  14  2.268782E+03  1.352143E+06  2.266244E+04 -6.945338E+04  1.494116E-09  1.575736E-09
       157  15  7.845514E+03  1.353674E+06  3.395279E+04 -7.626972E+04  2.746636E-09 -2.672676E-09
       157  16 -1.545323E+05  6.777863E+05 -9.247055E+04 -7.322899E+04  8.814768E-10 -2.516783E-09
       157  17 -1.390650E+05  7.436315E+05 -7.621517E+04 -6.949676E+04 -1.796283E-10 -1.204135E-09
       157  18 -1.181329E+05  8.116232E+05 -5.461710E+04 -7.940580E+04  8.288165E-10  1.430231E-09
       157  19  1.606255E+05  2.029972E+06  1.331093E+05 -7.932862E+04 -4.592427E+04  6.287399E+02
       157  20  1.435859E+05  1.961021E+06  1.215338E+05 -6.941039E+04 -4.356379E+04  1.717426E+04
       157  21  1.338109E+05  1.896018E+06  1.225192E+05 -7.313171E+04 -3.842972E+04  3.372398E+04
       157  22  3.059631E+03  1.353655E+06  2.032837E+04 -7.627713E+04 -4.592594E+04 -1.245773E+03
       157  23  2.270848E+03  1.352143E+06  2.266619E+04 -6.945373E+04 -4.355618E+04  1.008422E+04
       157  24  7.847222E+03  1.353675E+06  3.395642E+04 -7.627038E+04 -3.841162E+04  2.142006E+04
       157  25 -1.545300E+05  6.777869E+05 -9.246657E+04 -7.322887E+04 -4.592763E+04 -3.118316E+03
       157  26 -1.390630E+05  7.436320E+05 -7.621158E+04 -6.949687E+04 -4.354857E+04  3.000869E+03
       157  27 -1.181313E+05  8.116237E+05 -5.461417E+04 -7.940608E+04 -3.839339E+04  9.126473E+03
       158   1  1.243152E+05  1.858164E+06  1.252872E+05 -8.137338E+04  3.493564E+04 -3.888265E+04
       158   2  1.383255E+05  1.778701E+06  1.532384E+05 -2.724270E+04  2.487816E+04 -9.245060E+04
       158   3  2.282926E+05  1.725139E+06  2.349772E+05  1.273459E+04  6.973933E+03 -1.460303E+05
       158   4  8.033916E+03  1.358201E+06  4.301816E+04 -7.641034E+04  3.491701E+04 -2.718265E+04
       158   5  3.668235E+04  1.346494E+06  7.553235E+04 -6.922164E+04  2.483696E+04 -6.602326E+04
       158   6  1.387536E+05  1.358134E+06  1.516356E+05 -7.618292E+04  6.915715E+03 -1.048792E+05
       158   7 -1.082601E+05  8.584846E+05 -3.925771E+04 -7.145130E+04  3.489856E+04 -1.549172E+04
       158   8 -6.496408E+04  9.144730E+05 -2.177369E+03 -1.111705E+05  2.479217E+04 -3.961375E+04
       158   9  4.923605E+04  9.912737E+05  6.829581E+04 -1.650475E+05  6.845723E+03 -6.375201E+04
       158  10  1.243135E+05  1.858162E+06  1.252821E+05 -8.137229E+04  2.085444E-09  1.419555E-09
       158  11  1.383225E+05  1.778692E+06  1.532212E+05 -2.724085E+04  1.535929E-09 -1.911649E-09
       158  12  2.282869E+05  1.725116E+06  2.349371E+05  1.273541E+04  1.021413E-09 -1.559174E-09
       158  13  8.032408E+03  1.358200E+06  4.301449E+04 -7.640958E+04  1.765174E-09 -1.365802E-11
       158  14  3.668052E+04  1.346489E+06  7.552302E+04 -6.922032E+04 -1.490897E-11  2.061108E-09
       158  15  1.387506E+05  1.358122E+06  1.516148E+05 -7.618234E+04 -8.229747E-11 -2.674261E-09
       158  16 -1.082615E+05  8.584840E+05 -3.926045E+04 -7.145087E+04  1.023019E-09  4.277683E-10
       158  17 -6.496516E+04  9.144711E+05 -2.181468E+03 -1.111697E+05  2.856857E-09  1.163460E-09
       158  18  4.923491E+04  9.912693E+05  6.828810E+04 -1.650471E+05  1.266756E-09  2.811842E-09
       158  19  1.243152E+05  1.858164E+06  1.252872E+05 -8.137338E+04 -3.493564E+04  3.888265E+04
       158  20  1.383255E+05  1.778701E+06  1.532384E+05 -2.724270E+04 -2.487816E+04  9.245060E+04
       158  21  2.282926E+05  1.725139E+06  2.349772E+05  1.273459E+04 -6.973933E+03  1.460303E+05
       158  22  8.033916E+03  1.358201E+06  4.301816E+04 -7.641034E+04 -3.491701E+04  2.718265E+04
       158  23  3.668235E+04  1.346494E+06  7.553235E+04 -6.922164E+04 -2.483696E+04  6.602326E+04
       158  24  1.387536E+05  1.358134E+06  1.516356E+05 -7.618292E+04 -6.915715E+03  1.048792E+05
       158  25 -1.082601E+05  8.584846E+05 -3.925771E+04 -7.145130E+04 -3.489856E+04  1.549172E+04
       158  26 -6.496408E+04  9.144730E+05 -2.177369E+03 -1.111705E+05 -2.479217E+04  3.961375E+04
       158  27  4.923605E+04  9.912737E+05  6.829581E+04 -1.650475E+05 -6.845723E+03  6.375201E+04
       159   1  1.572835E+04 -1.073738E+05 -4.256069E+04  1.127143E+04  1.790556E+05  1.434524E+04
       159   2  9.866202E+04 -3.408676E+05 -1.679744E+05  1.632489E+03  1.257164E+05  4.172038E+04
       159   3  2.613317E+05 -2.913589E+05 -1.874984E+05 -9.483270E+04  7.243200E+04  3.803542E+04
       159   4  1.387474E+06  2.338617E+05  2.952368E+05 -6.279218E+04  2.020865E+05  1.437722E+04
       159   5  1.346375E+06 -3.211539E+04  1.294233E+05 -1.911929E+04  1.322092E+05  4.172170E+04
       159   6  1.387691E+06 -1.253963E+04  8.080328E+04 -6.225467E+04  6.239931E+04  3.802447E+04
       159   7  2.760944E+06  5.749788E+05  6.329007E+05 -1.370206E+05  2.251677E+05  1.440370E+04
       159   8  2.595516E+06  2.765263E+05  4.267124E+05 -3.991356E+04  1.387148E+05  4.172258E+04
       159   9  2.515215E+06  2.661921E+05  3.490170E+05 -2.961751E+04  5.234844E+04  3.801248E+04
       159  10  1.569387E+04 -1.073826E+05 -4.262132E+04  1.126937E+04 -9.903593E-10  4.201878E-11
       159  11  9.864458E+04 -3.408737E+05 -1.680074E+05  1.628264E+03 -9.284831E-10 -1.949817E-11
       159  12  2.613257E+05 -2.913618E+05 -1.875110E+05 -9.483492E+04  2.594424E-10 -3.602859E-10
       159  13  1.387430E+06  2.338505E+05  2.951598E+05 -6.279452E+04 -5.344383E-10  2.163549E-11
       159  14  1.346356E+06 -3.212194E+04  1.293873E+05 -1.912373E+04  5.037303E-10  3.217570E-11
       159  15  1.387686E+06 -1.254222E+04  8.079326E+04 -6.225658E+04  6.373834E-11 -2.938306E-10
       159  16  2.760889E+06  5.749651E+05  6.328054E+05 -1.370232E+05 -2.056148E-10  6.920721E-11
       159  17  2.595495E+06  2.765193E+05  4.266731E+05 -3.991822E+04  5.441931E-10  1.993050E-10
       159  18  2.515212E+06  2.661899E+05  3.490092E+05 -2.961912E+04 -4.599520E-10 -1.280058E-10
       159  19  1.572835E+04 -1.073738E+05 -4.256069E+04  1.127143E+04 -1.790556E+05 -1.434524E+04
       159  20  9.866202E+04 -3.408676E+05 -1.679744E+05  1.632489E+03 -1.257164E+05 -4.172038E+04
       159  21  2.613317E+05 -2.913589E+05 -1.874984E+05 -9.483270E+04 -7.243200E+04 -3.803542E+04
       159  22  1.387474E+06  2.338617E+05  2.952368E+05 -6.279218E+04 -2.020865E+05 -1.437722E+04
       159  23  1.346375E+06 -3.211539E+04  1.294233E+05 -1.911929E+04 -1.322092E+05 -4.172170E+04
       159  24  1.387691E+06 -1.253963E+04  8.080328E+04 -6.225467E+04 -6.239931E+04 -3.802447E+04
       159  25  2.760944E+06  5.749788E+05  6.329007E+05 -1.370206E+05 -2.251677E+05 -1.440370E+04
       159  26  2.595516E+06  2.765263E+05  4.267124E+05 -3.991356E+04 -1.387148E+05 -4.172258E+04
       159  27  2.515215E+06  2.661921E+05  3.490170E+05 -2.961751E+04 -5.234844E+04 -3.801248E+04
       160   1  3.974666E+05 -2.177463E+05 -1.669587E+05 -5.515242E+04  5.066093E+04  3.077460E+04
       160   2  5.089367E+05 -2.157700E+05 -1.709199E+05 -1.847805E+04  3.460100E+04  2.816655E+04
       160   3  6.305864E+05 -1.847336E+05 -1.569912E+05 -6.481387E+04  1.853167E+04  2.344249E+04
       160   4  1.371727E+06  2.346420E+04  6.580219E+04 -6.156884E+04  4.989942E+04  3.077035E+04
       160   5  1.366585E+06 -3.508837E+03  3.359433E+04 -2.006178E+04  3.269708E+04  2.816350E+04
       160   6  1.371792E+06 -1.245996E+03  2.004828E+04 -6.155688E+04  1.548832E+04  2.344173E+04
       160   7  2.346857E+06  2.646063E+05  2.984963E+05 -6.799548E+04  4.913667E+04  3.076612E+04
       160   8  2.224907E+06  2.086993E+05  2.380570E+05 -2.164773E+04  3.079051E+04  2.816046E+04
       160   9  2.113501E+06  1.822019E+05  1.970492E+05 -5.829593E+04  1.244134E+04  2.344094E+04
       160  10  3.974636E+05 -2.177480E+05 -1.669653E+05 -5.515368E+04 -4.742395E-10 -5.433116E-10
       160  11  5.089352E+05 -2.157712E+05 -1.709237E+05 -1.847884E+04 -1.210773E-09 -2.187575E-10
       160  12  6.305859E+05 -1.847342E+05 -1.569929E+05 -6.481422E+04 -3.498287E-10  2.624829E-10
       160  13  1.371724E+06  2.346251E+04  6.579574E+04 -6.157008E+04 -5.354991E-10 -5.261193E-10
       160  14  1.366584E+06 -3.509975E+03  3.359084E+04 -2.006253E+04 -3.074453E-10 -7.649434E-11
       160  15  1.371792E+06 -1.246650E+03  2.004680E+04 -6.155717E+04 -2.679661E-11  2.928445E-10
       160  16  2.346854E+06  2.646046E+05  2.984900E+05 -6.799669E+04  1.728484E-10 -1.897922E-10
       160  17  2.224906E+06  2.086982E+05  2.380537E+05 -2.164843E+04 -2.436956E-10 -4.282608E-10
       160  18  2.113501E+06  1.822013E+05  1.970478E+05 -5.829616E+04  7.785577E-10  2.387647E-10
       160  19  3.974666E+05 -2.177463E+05 -1.669587E+05 -5.515242E+04 -5.066093E+04 -3.077460E+04
       160  20  5.089367E+05 -2.157700E+05 -1.709199E+05 -1.847805E+04 -3.460100E+04 -2.816655E+04
       160  21  6.305864E+05 -1.847336E+05 -1.569912E+05 -6.481387E+04 -1.853167E+04 -2.344249E+04
       160  22  1.371727E+06  2.346420E+04  6.580219E+04 -6.156884E+04 -4.989942E+04 -3.077035E+04
       160  23  1.366585E+06 -3.508837E+03  3.359433E+04 -2.006178E+04 -3.269708E+04 -2.816350E+04
       160  24  1.371792E+06 -1.245996E+03  2.004828E+04 -6.155688E+04 -1.548832E+04 -2.344173E+04
       160  25  2.346857E+06  2.646063E+05  2.984963E+05 -6.799548E+04 -4.913667E+04 -3.076612E+04
       160  26  2.224907E+06  2.086993E+05  2.380570E+05 -2.164773E+04 -3.079051E+04 -2.816046E+04
       160  27  2.113501E+06  1.822019E+05  1.970492E+05 -5.829593E+04 -1.244134E+04 -2.344094E+04
       161   1  7.748106E+05 -1.448769E+05 -1.259197E+05 -6.028978E+04  1.469955E+04  2.036276E+04
       161   2  8.870221E+05 -1.196801E+05 -1.062926E+05 -2.045813E+04  1.041974E+04  1.579929E+04
       161   3  1.000660E+06 -9.141610E+04 -8.309683E+04 -6.107416E+04  6.134568E+03  1.112490E+04
       161   4  1.369860E+06  2.312664E+03  1.566631E+04 -6.099018E+04  1.232326E+04  2.036275E+04
       161   5  1.369161E+06 -3.800256E+02  8.659528E+03 -2.076908E+04  7.980838E+03  1.580041E+04
       161   6  1.369887E+06  4.903334E+00  5.263241E+03 -6.099174E+04  3.633827E+03  1.112721E+04
       161   7  1.965233E+06  1.494768E+05  1.572276E+05 -6.169119E+04  9.944705E+03  2.036275E+04
       161   8  1.851512E+06  1.189033E+05  1.235954E+05 -2.108023E+04  5.540055E+03  1.580152E+04
       161   9  1.739238E+06  9.141605E+04  9.361371E+04 -6.090924E+04  1.131606E+03  1.112952E+04
       161  10  7.748103E+05 -1.448774E+05 -1.259209E+05 -6.029002E+04  7.521139E-10  1.362637E-10
       161  11  8.870219E+05 -1.196804E+05 -1.062933E+05 -2.045826E+04 -4.943546E-10 -2.917048E-10
       161  12  1.000660E+06 -9.141625E+04 -8.309713E+04 -6.107422E+04 -1.168570E-09 -3.292947E-10
       161  13  1.369860E+06  2.312178E+03  1.566525E+04 -6.099038E+04 -6.451830E-11  6.888408E-11
       161  14  1.369160E+06 -3.803109E+02  8.658940E+03 -2.076918E+04 -9.491037E-11 -1.738359E-10
       161  15  1.369887E+06  4.766752E+00  5.262983E+03 -6.099178E+04 -1.428334E-10 -1.218905E-10
       161  16  1.965233E+06  1.494763E+05  1.572266E+05 -6.169135E+04 -4.788155E-10  1.685709E-10
       161  17  1.851512E+06  1.189030E+05  1.235949E+05 -2.108030E+04  5.778315E-10 -1.386069E-10
       161  18  1.739238E+06  9.141592E+04  9.361348E+04 -6.090925E+04 -2.402029E-11 -6.137177E-11
       161  19  7.748106E+05 -1.448769E+05 -1.259197E+05 -6.028978E+04 -1.469955E+04 -2.036276E+04
       161  20  8.870221E+05 -1.196801E+05 -1.062926E+05 -2.045813E+04 -1.041974E+04 -1.579929E+04
       161  21  1.000660E+06 -9.141610E+04 -8.309683E+04 -6.107416E+04 -6.134568E+03 -1.112490E+04
       161  22  1.369860E+06  2.312664E+03  1.566631E+04 -6.099018E+04 -1.232326E+04 -2.036275E+04
       161  23  1.369161E+06 -3.800256E+02  8.659528E+03 -2.076908E+04 -7.980838E+03 -1.580041E+04
       161  24  1.369887E+06  4.903334E+00  5.263241E+03 -6.099174E+04 -3.633827E+03 -1.112721E+04
       161  25  1.965233E+06  1.494768E+05  1.572276E+05 -6.169119E+04 -9.944705E+03 -2.036275E+04
       161  26  1.851512E+06  1.189033E+05  1.235954E+05 -2.108023E+04 -5.540055E+03 -1.580152E+04
       161  27  1.739238E+06  9.141605E+04  9.361371E+04 -6.090924E+04 -1.131606E+03 -1.112952E+04
       162   1  1.143236E+06 -5.561144E+04 -4.943773E+04 -6.054432E+04  5.227152E+03  8.395842E+03
       162   2  1.254515E+06 -2.846176E+04 -2.459959E+04 -2.100029E+04  3.820020E+03  3.766364E+03
       162   3  1.365892E+06 -8.300181E+02  1.225584E+03 -6.075790E+04  2.411528E+03 -8.629247E+02
       162   4  1.369612E+06  3.268024E+02  4.189582E+03 -6.073708E+04  2.778935E+03  8.398566E+03
       162   5  1.369573E+06  1.761674E+00  2.826754E+03 -2.108685E+04  1.371262E+03  3.769329E+03
       162   6  1.369618E+06  1.591991E+02  2.451275E+03 -6.073732E+04 -3.752357E+01 -8.596732E+02
       162   7  1.596035E+06  5.626137E+04  5.781336E+04 -6.092989E+04  3.298320E+02  8.401291E+03
       162   8  1.484642E+06  2.846434E+04  3.025219E+04 -2.117341E+04 -1.077947E+03  3.772295E+03
       162   9  1.373345E+06  1.148418E+03  3.676987E+03 -6.071675E+04 -2.486590E+03 -8.564219E+02
       162  10  1.143236E+06 -5.561152E+04 -4.943792E+04 -6.054435E+04 -1.216634E-09 -3.829014E-12
       162  11  1.254515E+06 -2.846178E+04 -2.459965E+04 -2.100030E+04  1.164237E-10  1.919171E-10
       162  12  1.365892E+06 -8.300204E+02  1.225572E+03 -6.075790E+04  6.436015E-10 -2.639094E-10
       162  13  1.369612E+06  3.267246E+02  4.189435E+03 -6.073710E+04  4.497422E-11 -8.336441E-11
       162  14  1.369573E+06  1.745904E+00  2.826723E+03 -2.108685E+04 -7.544327E-10  4.848684E-10
       162  15  1.369618E+06  1.591983E+02  2.451274E+03 -6.073732E+04 -5.661563E-10  1.596699E-10
       162  16  1.596035E+06  5.626130E+04  5.781323E+04 -6.092989E+04  4.499407E-10  4.587043E-11
       162  17  1.484642E+06  2.846432E+04  3.025216E+04 -2.117341E+04 -9.642478E-10 -4.009836E-11
       162  18  1.373345E+06  1.148416E+03  3.676974E+03 -6.071675E+04 -9.226638E-10  1.836183E-10
       162  19  1.143236E+06 -5.561144E+04 -4.943773E+04 -6.054432E+04 -5.227152E+03 -8.395842E+03
       162  20  1.254515E+06 -2.846176E+04 -2.459959E+04 -2.100029E+04 -3.820020E+03 -3.766364E+03
       162  21  1.365892E+06 -8.300181E+02  1.225584E+03 -6.075790E+04 -2.411528E+03  8.629247E+02
       162  22  1.369612E+06  3.268024E+02  4.189582E+03 -6.073708E+04 -2.778935E+03 -8.398566E+03
       162  23  1.369573E+06  1.761674E+00  2.826754E+03 -2.108685E+04 -1.371262E+03 -3.769329E+03
       162  24  1.369618E+06  1.591991E+02  2.451275E+03 -6.073732E+04  3.752357E+01  8.596732E+02
       162  25  1.596035E+06  5.626137E+04  5.781336E+04 -6.092989E+04 -3.298320E+02 -8.401291E+03
       162  26  1.484642E+06  2.846434E+04  3.025219E+04 -2.117341E+04  1.077947E+03 -3.772295E+03
       162  27  1.373345E+06  1.148418E+03  3.676987E+03 -6.071675E+04  2.486590E+03  8.564219E+02
       163   1  1.508010E+06  3.444823E+04  3.585910E+04 -6.088501E+04  1.957174E+03 -3.557860E+03
       163   2  1.619626E+06  6.183183E+04  6.290821E+04 -2.118896E+04  3.148935E+02 -8.195461E+03
       163   3  1.731456E+06  8.976642E+04  9.112704E+04 -6.105185E+04 -1.325310E+03 -1.284444E+04
       163   4  1.369639E+06  1.552760E+02  2.543939E+03 -6.079515E+04 -4.940794E+02 -3.554713E+03
       163   5  1.369531E+06 -2.432253E+01  3.305960E+03 -2.101455E+04 -2.142021E+03 -8.192902E+03
       163   6  1.369627E+06  3.490604E+02  5.242732E+03 -6.079486E+04 -3.787593E+03 -1.284243E+04
       163   7  1.231286E+06 -3.413907E+04 -3.077256E+04 -6.070529E+04 -2.944790E+03 -3.551565E+03
       163   8  1.119493E+06 -6.188498E+04 -5.630065E+04 -2.084020E+04 -4.597952E+03 -8.190344E+03
       163   9  1.007917E+06 -8.907769E+04 -8.065067E+04 -6.053799E+04 -6.248452E+03 -1.284042E+04
       163  10  1.508010E+06  3.444822E+04  3.585907E+04 -6.088500E+04 -5.617501E-10 -2.872740E-10
       163  11  1.619626E+06  6.183176E+04  6.290808E+04 -2.118896E+04  8.176996E-10  1.858173E-10
       163  12  1.731456E+06  8.976624E+04  9.112673E+04 -6.105186E+04  3.365156E-11  5.347588E-10
       163  13  1.369639E+06  1.552624E+02  2.543915E+03 -6.079515E+04 -6.119214E-10  1.763610E-10
       163  14  1.369531E+06 -2.439589E+01  3.305826E+03 -2.101457E+04 -7.412237E-10  2.785299E-10
       163  15  1.369627E+06  3.488794E+02  5.242395E+03 -6.079490E+04 -1.975461E-09  3.343758E-10
       163  16  1.231286E+06 -3.413909E+04 -3.077260E+04 -6.070530E+04  9.745852E-10 -2.115512E-10
       163  17  1.119493E+06 -6.188506E+04 -5.630081E+04 -2.084023E+04  1.829438E-10  1.018108E-11
       163  18  1.007917E+06 -8.907788E+04 -8.065105E+04 -6.053806E+04 -2.004567E-10 -3.012854E-10
       163  19  1.508010E+06  3.444823E+04  3.585910E+04 -6.088501E+04 -1.957174E+03  3.557860E+03
       163  20  1.619626E+06  6.183183E+04  6.290821E+04 -2.118896E+04 -3.148935E+02  8.195461E+03
       163  21  1.731456E+06  8.976642E+04  9.112704E+04 -6.105185E+04  1.325310E+03  1.284444E+04
       163  22  1.369639E+06  1.552760E+02  2.543939E+03 -6.079515E+04  4.940794E+02  3.554713E+03
       163  23  1.369531E+06 -2.432253E+01  3.305960E+03 -2.101455E+04  2.142021E+03  8.192902E+03
       163  24  1.369627E+06  3.490604E+02  5.242732E+03 -6.079486E+04  3.787593E+03  1.284243E+04
       163  25  1.231286E+06 -3.413907E+04 -3.077256E+04 -6.070529E+04  2.944790E+03  3.551565E+03
       163  26  1.119493E+06 -6.188498E+04 -5.630065E+04 -2.084020E+04  4.597952E+03  8.190344E+03
       163  27  1.007917E+06 -8.907769E+04 -8.065067E+04 -6.053799E+04  6.248452E+03  1.284042E+04
       164   1  1.875712E+06  1.250578E+05  1.275327E+05 -6.099434E+04 -2.342388E+03 -1.559274E+04
       164   2  1.988801E+06  1.527339E+05  1.588623E+05 -2.080431E+04 -8.018737E+03 -2.030472E+04
       164   3  2.103931E+06  1.843601E+05  1.949258E+05 -6.185498E+04 -1.369006E+04 -2.490293E+04
       164   4  1.369996E+06 -6.768650E+01  6.695564E+03 -6.116977E+04 -4.865755E+03 -1.559136E+04
       164   5  1.368969E+06 -5.351415E+02  1.117915E+04 -2.054647E+04 -1.047704E+04 -2.030486E+04
       164   6  1.369962E+06  2.940077E+03  2.035641E+04 -6.116882E+04 -1.608228E+04 -2.490449E+04
       164   7  8.645139E+05 -1.252116E+05 -1.141595E+05 -6.134499E+04 -7.387080E+03 -1.558999E+04
       164   8  7.494870E+05 -1.538318E+05 -1.365309E+05 -2.028885E+04 -1.293291E+04 -2.030500E+04
       164   9  6.364855E+05 -1.785187E+05 -1.542506E+05 -6.048344E+04 -1.847168E+04 -2.490606E+04
       164  10  1.875712E+06  1.250575E+05  1.275322E+05 -6.099437E+04  3.907296E-10 -7.243705E-11
       164  11  1.988801E+06  1.527334E+05  1.588614E+05 -2.080444E+04  2.974136E-10 -4.815687E-10
       164  12  2.103930E+06  1.843594E+05  1.949243E+05 -6.185525E+04  3.013205E-10 -4.215963E-10
       164  13  1.369996E+06 -6.795406E+01  6.695063E+03 -6.116983E+04 -4.997336E-10 -1.885666E-10
       164  14  1.368968E+06 -5.356139E+02  1.117817E+04 -2.054665E+04 -1.277973E-09 -6.681585E-10
       164  15  1.369961E+06  2.939341E+03  2.035476E+04 -6.116915E+04  4.254701E-10  8.522458E-11
       164  16  8.645138E+05 -1.252119E+05 -1.141601E+05 -6.134508E+04 -1.067499E-09 -2.734523E-10
       164  17  7.494868E+05 -1.538323E+05 -1.365320E+05 -2.028906E+04 -1.923046E-09 -5.902986E-10
       164  18  6.364850E+05 -1.785194E+05 -1.542524E+05 -6.048381E+04 -3.864445E-10  1.512236E-10
       164  19  1.875712E+06  1.250578E+05  1.275327E+05 -6.099434E+04  2.342388E+03  1.559274E+04
       164  20  1.988801E+06  1.527339E+05  1.588623E+05 -2.080431E+04  8.018737E+03  2.030472E+04
       164  21  2.103931E+06  1.843601E+05  1.949258E+05 -6.185498E+04  1.369006E+04  2.490293E+04
       164  22  1.369996E+06 -6.768650E+01  6.695564E+03 -6.116977E+04  4.865755E+03  1.559136E+04
       164  23  1.368969E+06 -5.351415E+02  1.117915E+04 -2.054647E+04  1.047704E+04  2.030486E+04
       164  24  1.369962E+06  2.940077E+03  2.035641E+04 -6.116882E+04  1.608228E+04  2.490449E+04
       164  25  8.645139E+05 -1.252116E+05 -1.141595E+05 -6.134499E+04  7.387080E+03  1.558999E+04
       164  26  7.494870E+05 -1.538318E+05 -1.365309E+05 -2.028885E+04  1.293291E+04  2.030500E+04
       164  27  6.364855E+05 -1.785187E+05 -1.542506E+05 -6.048344E+04  1.847168E+04  2.490606E+04
       165   1  2.254687E+06  2.164745E+05  2.365311E+05 -5.729480E+04 -1.706304E+04 -2.805190E+04
       165   2  2.366348E+06  2.427913E+05  2.820972E+05 -2.140252E+04 -4.072916E+04 -3.284747E+04
       165   3  2.491817E+06  3.073150E+05  3.528240E+05 -6.983456E+04 -6.439389E+04 -3.531513E+04
       165   4  1.372473E+06 -1.699296E+03  2.607487E+04 -6.184614E+04 -2.019558E+04 -2.805472E+04
       165   5  1.365634E+06 -4.598102E+03  4.373574E+04 -1.969709E+04 -4.259679E+04 -3.285243E+04
       165   6  1.372394E+06  3.052597E+04  8.571073E+04 -6.187953E+04 -6.499213E+04 -3.532099E+04
       165   7  4.909698E+05 -2.199291E+05 -1.844359E+05 -6.639099E+04 -2.332368E+04 -2.805750E+04
       165   8  3.658358E+05 -2.520596E+05 -1.946958E+05 -1.799456E+04 -4.446139E+04 -3.285741E+04
       165   9  2.541148E+05 -2.463532E+05 -1.814905E+05 -5.393916E+04 -6.558921E+04 -3.532688E+04
       165  10  2.254687E+06  2.164736E+05  2.365291E+05 -5.729518E+04  5.433007E-10 -4.283393E-10
       165  11  2.366346E+06  2.427897E+05  2.820921E+05 -2.140360E+04 -1.864594E-09 -2.290719E-10
       165  12  2.491813E+06  3.073126E+05  3.528139E+05 -6.983639E+04 -1.344139E-09  8.525073E-10
       165  13  1.372472E+06 -1.700251E+03  2.607263E+04 -6.184660E+04 -6.613477E-10 -1.144904E-10
       165  14  1.365632E+06 -4.599747E+03  4.373031E+04 -1.969822E+04 -3.534033E-10 -4.452516E-12
       165  15  1.372389E+06  3.052350E+04  8.570046E+04 -6.188138E+04  5.216074E-10  6.610308E-10
       165  16  4.909690E+05 -2.199301E+05 -1.844384E+05 -6.639152E+04 -1.730191E-09  1.434921E-10
       165  17  3.658334E+05 -2.520613E+05 -1.947016E+05 -1.799573E+04 -2.265095E-09 -3.263988E-10
       165  18  2.541098E+05 -2.463557E+05 -1.815010E+05 -5.394103E+04 -5.328566E-10  3.280589E-10
       165  19  2.254687E+06  2.164745E+05  2.365311E+05 -5.729480E+04  1.706304E+04  2.805190E+04
       165  20  2.366348E+06  2.427913E+05  2.820972E+05 -2.140252E+04  4.072916E+04  3.284747E+04
       165  21  2.491817E+06  3.073150E+05  3.528240E+05 -6.983456E+04  6.439389E+04  3.531513E+04
       165  22  1.372473E+06 -1.699296E+03  2.607487E+04 -6.184614E+04  2.019558E+04  2.805472E+04
       165  23  1.365634E+06 -4.598102E+03  4.373574E+04 -1.969709E+04  4.259679E+04  3.285243E+04
       165  24  1.372394E+06  3.052597E+04  8.571073E+04 -6.187953E+04  6.499213E+04  3.532099E+04
       165  25  4.909698E+05 -2.199291E+05 -1.844359E+05 -6.639099E+04  2.332368E+04  2.805750E+04
       165  26  3.658358E+05 -2.520596E+05 -1.946958E+05 -1.799456E+04  4.446139E+04  3.285741E+04
       165  27  2.541148E+05 -2.463532E+05 -1.814905E+05 -5.393916E+04  6.558921E+04  3.532688E+04
       166   1  2.667762E+06  2.987561E+05  4.084091E+05 -1.963709E+04 -7.040309E+04 -4.309177E+04
       166   2  2.738349E+06  3.037469E+05  5.015249E+05 -4.523774E+04 -1.796796E+05 -4.687664E+04
       166   3  2.919202E+06  6.833874E+05  7.597477E+05 -1.598267E+05 -2.890841E+05 -1.637267E+04
       166   4  1.393166E+06 -1.638187E+04  1.052493E+05 -6.261803E+04 -8.127070E+04 -4.311075E+04
       166   5  1.339375E+06 -4.182370E+04  1.686167E+05 -1.860175E+04 -1.722080E+05 -4.687350E+04
       166   6  1.392899E+06  3.046436E+05  3.846320E+05 -6.356601E+04 -2.632478E+05 -1.633774E+04
       166   7  1.200584E+05 -3.316298E+05 -1.980227E+05 -1.055112E+05 -9.211604E+04 -4.312826E+04
       166   8 -5.780834E+04 -3.875322E+05 -1.644277E+05  7.973088E+03 -1.647527E+05 -4.686974E+04
       166   9 -1.312697E+05 -7.423661E+04  9.352822E+03  3.245706E+04 -2.374740E+05 -1.629484E+04
       166  10  2.667756E+06  2.987527E+05  4.083964E+05 -1.963953E+04  7.093849E-10  1.289785E-09
       166  11  2.738313E+06  3.037359E+05  5.014604E+05 -4.524451E+04 -1.601747E-09  5.750961E-11
       166  12  2.919112E+06  6.833648E+05  7.595909E+05 -1.598305E+05 -1.639255E-10 -5.843408E-10
       166  13  1.393158E+06 -1.638563E+04  1.052334E+05 -6.262085E+04 -1.618007E-09  8.961180E-10
       166  14  1.339343E+06 -4.183400E+04  1.685570E+05 -1.860825E+04  2.786111E-10 -2.188484E-10
       166  15  1.392825E+06  3.046247E+05  3.845015E+05 -6.356947E+04  1.617067E-09  1.551871E-11
       166  16  1.200488E+05 -3.316341E+05 -1.980422E+05 -1.055144E+05 -1.338453E-09  6.551625E-10
       166  17 -5.783807E+04 -3.875418E+05 -1.644828E+05  7.966867E+03 -6.065132E-10  1.121167E-09
       166  18 -1.313303E+05 -7.425203E+04  9.246330E+03  3.245395E+04 -9.767724E-10 -2.913569E-11
       166  19  2.667762E+06  2.987561E+05  4.084091E+05 -1.963709E+04  7.040309E+04  4.309177E+04
       166  20  2.738349E+06  3.037469E+05  5.015249E+05 -4.523774E+04  1.796796E+05  4.687664E+04
       166  21  2.919202E+06  6.833874E+05  7.597477E+05 -1.598267E+05  2.890841E+05  1.637267E+04
       166  22  1.393166E+06 -1.638187E+04  1.052493E+05 -6.261803E+04  8.127070E+04  4.311075E+04
       166  23  1.339375E+06 -4.182370E+04  1.686167E+05 -1.860175E+04  1.722080E+05  4.687350E+04
       166  24  1.392899E+06  3.046436E+05  3.846320E+05 -6.356601E+04  2.632478E+05  1.633774E+04
       166  25  1.200584E+05 -3.316298E+05 -1.980227E+05 -1.055112E+05  9.211604E+04  4.312826E+04
       166  26 -5.780834E+04 -3.875322E+05 -1.644277E+05  7.973088E+03  1.647527E+05  4.686974E+04
       166  27 -1.312697E+05 -7.423661E+04  9.352822E+03  3.245706E+04  2.374740E+05  1.629484E+04
       167   1  4.951936E+04  2.825663E+05  6.607731E+04 -5.256511E+04 -1.074145E+03  5.242283E+04
       167   2 -3.712214E+04  2.130982E+05  8.008018E+03 -1.699441E+04 -3.890881E+03  3.350115E+04
       167   3 -4.613446E+04  1.652311E+05 -1.839825E+04 -2.316181E+04 -6.240546E+03  1.458266E+04
       167   4  6.352958E+04  3.394644E+05  7.995029E+04 -3.194539E+04 -1.077013E+03  5.406793E+04
       167   5 -8.544947E+03  3.286477E+05  3.557252E+04 -1.116878E+04 -3.894317E+03  3.489783E+04
       167   6 -2.954045E+03  3.394713E+05  2.302928E+04 -3.212836E+04 -6.243704E+03  1.572921E+04
       167   7  7.754117E+04  3.963664E+05  9.382327E+04 -1.132377E+04 -1.079772E+03  5.571318E+04
       167   8  2.003141E+04  4.442095E+05  6.313612E+04 -5.342063E+03 -3.897726E+03  3.629477E+04
       167   9  4.022448E+04  5.137396E+05  6.445474E+04 -4.109742E+04 -6.246894E+03  1.687607E+04
       167  10  4.951862E+04  2.825634E+05  6.607215E+04 -5.256507E+04  7.906083E-10  3.844410E-10
       167  11 -3.712246E+04  2.130970E+05  8.005882E+03 -1.699430E+04 -2.296866E-10 -1.299876E-10
       167  12 -4.613456E+04  1.652308E+05 -1.839872E+04 -2.316174E+04 -1.214160E-09 -9.431417E-10
       167  13  6.352879E+04  3.394613E+05  7.994480E+04 -3.194534E+04  9.854729E-10 -3.122249E-11
       167  14 -8.545290E+03  3.286464E+05  3.557021E+04 -1.116867E+04 -5.357541E-10 -2.770417E-12
       167  15 -2.954153E+03  3.394710E+05  2.302874E+04 -3.212828E+04 -5.074548E-10 -4.154072E-11
       167  16  7.754034E+04  3.963631E+05  9.381744E+04 -1.132372E+04  5.233992E-10 -3.978442E-10
       167  17  2.003104E+04  4.442081E+05  6.313361E+04 -5.341949E+03  2.694450E-09 -5.187062E-12
       167  18  4.022436E+04  5.137393E+05  6.445413E+04 -4.109733E+04  4.542226E-10  8.520305E-10
       167  19  4.951936E+04  2.825663E+05  6.607731E+04 -5.256511E+04  1.074145E+03 -5.242283E+04
       167  20 -3.712214E+04  2.130982E+05  8.008018E+03 -1.699441E+04  3.890881E+03 -3.350115E+04
       167  21 -4.613446E+04  1.652311E+05 -1.839825E+04 -2.316181E+04  6.240546E+03 -1.458266E+04
       167  22  6.352958E+04  3.394644E+05  7.995029E+04 -3.194539E+04  1.077013E+03 -5.406793E+04
       167  23 -8.544947E+03  3.286477E+05  3.557252E+04 -1.116878E+04  3.894317E+03 -3.489783E+04
       167  24 -2.954045E+03  3.394713E+05  2.302928E+04 -3.212836E+04  6.243704E+03 -1.572921E+04
       167  25  7.754117E+04  3.963664E+05  9.382327E+04 -1.132377E+04  1.079772E+03 -5.571318E+04
       167  26  2.003141E+04  4.442095E+05  6.313612E+04 -5.342063E+03  3.897726E+03 -3.629477E+04
       167  27  4.022448E+04  5.137396E+05  6.445474E+04 -4.109742E+04  6.246894E+03 -1.687607E+04
       168   1 -5.535185E+04  8.582038E+04 -4.034835E+04 -3.381881E+04 -7.727009E+03  1.056577E+04
       168   2 -7.759130E+04  2.517891E+04 -6.179875E+04 -1.087780E+04 -1.015548E+04  4.991715E+03
       168   3 -8.924651E+04 -3.224105E+04 -7.700891E+04 -2.998031E+04 -1.164977E+04 -5.782213E+02
       168   4  6.483497E+03  3.353854E+05  1.937945E+04 -3.213075E+04 -7.730784E+03  1.210611E+04
       168   5 -1.165163E+03  3.337307E+05  1.183772E+04 -1.111574E+04 -1.015766E+04  6.036551E+03
       168   6  1.853999E+03  3.353792E+05  1.087884E+04 -3.214278E+04 -1.165055E+04 -2.940272E+01
       168   7  6.831434E+04  5.850074E+05  7.910286E+04 -3.044197E+04 -7.734550E+03  1.364706E+04
       168   8  7.525409E+04  6.423698E+05  8.546751E+04 -1.135375E+04 -1.015985E+04  7.081905E+03
       168   9  9.294473E+04  7.031232E+05  9.875707E+04 -3.430646E+04 -1.165133E+04  5.197394E+02
       168  10 -5.535194E+04  8.582025E+04 -4.034868E+04 -3.381874E+04 -1.844647E-09  5.137402E-10
       168  11 -7.759141E+04  2.517886E+04 -6.179899E+04 -1.087776E+04  6.125209E-10  7.155163E-11
       168  12 -8.924665E+04 -3.224108E+04 -7.700917E+04 -2.998032E+04  6.283866E-10 -5.601404E-10
       168  13  6.483394E+03  3.353852E+05  1.937906E+04 -3.213067E+04 -1.397281E-09  7.988820E-11
       168  14 -1.165284E+03  3.337306E+05  1.183746E+04 -1.111569E+04  7.685456E-10  1.883661E-11
       168  15  1.853854E+03  3.353791E+05  1.087859E+04 -3.214278E+04 -7.919328E-10  1.212485E-10
       168  16  6.831423E+04  5.850072E+05  7.910240E+04 -3.044189E+04 -6.470801E-10 -4.237598E-10
       168  17  7.525396E+04  6.423697E+05  8.546722E+04 -1.135369E+04 -1.817686E-09  1.169961E-10
       168  18  9.294459E+04  7.031232E+05  9.875682E+04 -3.430645E+04 -2.418500E-10  6.111795E-10
       168  19 -5.535185E+04  8.582038E+04 -4.034835E+04 -3.381881E+04  7.727009E+03 -1.056577E+04
       168  20 -7.759130E+04  2.517891E+04 -6.179875E+04 -1.087780E+04  1.015548E+04 -4.991715E+03
       168  21 -8.924651E+04 -3.224105E+04 -7.700891E+04 -2.998031E+04  1.164977E+04  5.782213E+02
       168  22  6.483497E+03  3.353854E+05  1.937945E+04 -3.213075E+04  7.730784E+03 -1.210611E+04
       168  23 -1.165163E+03  3.337307E+05  1.183772E+04 -1.111574E+04  1.015766E+04 -6.036551E+03
       168  24  1.853999E+03  3.353792E+05  1.087884E+04 -3.214278E+04  1.165055E+04  2.940272E+01
       168  25  6.831434E+04  5.850074E+05  7.910286E+04 -3.044197E+04  7.734550E+03 -1.364706E+04
       168  26  7.525409E+04  6.423698E+05  8.546751E+04 -1.135375E+04  1.015985E+04 -7.081905E+03
       168  27  9.294473E+04  7.031232E+05  9.875707E+04 -3.430646E+04  1.165133E+04 -5.197394E+02
       169   1 -1.101480E+05 -1.072188E+05 -9.479800E+04 -3.435442E+04 -1.487262E+04 -6.322034E+03
       169   2 -1.273898E+05 -1.700524E+05 -1.068374E+05 -8.457093E+03 -1.673245E+04 -6.466083E+03
       169   3 -1.198053E+05 -2.265836E+05 -1.125616E+05 -2.464738E+04 -5.647646E+03 -6.588859E+03
       169   4 -3.191116E+02  3.362910E+05  1.094738E+04 -3.216109E+04 -1.488126E+04 -1.924328E+03
       169   5 -2.889674E+03  3.325437E+05  1.304889E+04 -1.110157E+04 -1.672710E+04 -8.905838E+03
       169   6  2.054219E+04  3.362759E+05  2.620802E+04 -3.212714E+04 -5.632937E+03 -1.586605E+04
       169   7  1.094956E+05  7.799812E+05  1.166790E+05 -2.996609E+04 -1.488987E+04  2.476507E+03
       169   8  1.215922E+05  8.353715E+05  1.329175E+05 -1.374810E+04 -1.672174E+04 -1.134756E+04
       169   9  1.608663E+05  8.994239E+05  1.649546E+05 -3.961357E+04 -5.618011E+03 -2.515164E+04
       169  10 -1.101482E+05 -1.072189E+05 -9.479849E+04 -3.435450E+04 -5.864424E-10  1.213701E-10
       169  11 -1.273901E+05 -1.700525E+05 -1.068380E+05 -8.457181E+03  7.491661E-10  3.491999E-10
       169  12 -1.198053E+05 -2.265837E+05 -1.125617E+05 -2.464741E+04 -9.854850E-11 -5.043977E-11
       169  13 -3.193505E+02  3.362909E+05  1.094696E+04 -3.216111E+04  4.227101E-10 -4.219173E-11
       169  14 -2.889995E+03  3.325436E+05  1.304821E+04 -1.110169E+04 -7.273060E-12  6.779153E-11
       169  15  2.054209E+04  3.362756E+05  2.620748E+04 -3.212721E+04 -3.630243E-10  1.495006E-11
       169  16  1.094953E+05  7.799811E+05  1.166786E+05 -2.996606E+04 -7.864267E-10  1.108126E-10
       169  17  1.215919E+05  8.353713E+05  1.329167E+05 -1.374825E+04  1.234540E-09 -4.154716E-10
       169  18  1.608661E+05  8.994232E+05  1.649533E+05 -3.961368E+04  9.045853E-10  2.851186E-11
       169  19 -1.101480E+05 -1.072188E+05 -9.479800E+04 -3.435442E+04  1.487262E+04  6.322034E+03
       169  20 -1.273898E+05 -1.700524E+05 -1.068374E+05 -8.457093E+03  1.673245E+04  6.466083E+03
       169  21 -1.198053E+05 -2.265836E+05 -1.125616E+05 -2.464738E+04  5.647646E+03  6.588859E+03
       169  22 -3.191116E+02  3.362910E+05  1.094738E+04 -3.216109E+04  1.488126E+04  1.924328E+03
       169  23 -2.889674E+03  3.325437E+05  1.304889E+04 -1.110157E+04  1.672710E+04  8.905838E+03
       169  24  2.054219E+04  3.362759E+05  2.620802E+04 -3.212714E+04  5.632937E+03  1.586605E+04
       169  25  1.094956E+05  7.799812E+05  1.166790E+05 -2.996609E+04  1.488987E+04 -2.476507E+03
       169  26  1.215922E+05  8.353715E+05  1.329175E+05 -1.374810E+04  1.672174E+04  1.134756E+04
       169  27  1.608663E+05  8.994239E+05  1.649546E+05 -3.961357E+04  5.618011E+03  2.515164E+04
       170   1 -2.045444E+06 -7.431820E+05 -5.019274E+05 -7.052520E+05 -2.154494E+05 -7.297400E+04
       170   2 -1.979752E+06 -4.220156E+05 -3.012214E+05 -7.236950E+05 -1.407579E+05 -2.761967E+04
       170   3 -2.012961E+06 -4.083709E+05 -2.392650E+05 -6.899927E+05 -5.994472E+04  1.555266E+03
       170   4 -1.420594E+06 -4.351834E+05 -3.176120E+05 -4.616526E+05 -2.042136E+05 -6.875838E+04
       170   5 -1.355288E+06 -1.659433E+05 -1.326746E+05 -5.316249E+05 -1.374337E+05 -2.637224E+04
       170   6 -1.387201E+06 -2.024864E+05 -8.009636E+04 -5.494859E+05 -6.453619E+04 -1.741864E+02
       170   7 -7.953558E+05 -1.270753E+05 -1.333352E+05 -2.178052E+05 -1.929653E+05 -6.453478E+04
       170   8 -7.304449E+05  9.017295E+04  3.583720E+04 -3.393727E+05 -1.341057E+05 -2.512311E+04
       170   9 -7.610602E+05  3.401429E+03  7.904198E+04 -4.088607E+05 -6.913274E+04 -1.904998E+03
       170  10 -2.045496E+06 -7.432003E+05 -5.020250E+05 -7.052647E+05  4.228212E-09  2.201325E-09
       170  11 -1.979773E+06 -4.220218E+05 -3.012602E+05 -7.236981E+05  2.148884E-09  1.562318E-09
       170  12 -2.012965E+06 -4.083719E+05 -2.392718E+05 -6.899926E+05 -3.549952E-09 -1.754770E-09
       170  13 -1.420640E+06 -4.351997E+05 -3.176995E+05 -4.616640E+05  1.735804E-09  6.540797E-10
       170  14 -1.355309E+06 -1.659491E+05 -1.327114E+05 -5.316278E+05  2.645803E-09  1.410751E-09
       170  15 -1.387206E+06 -2.024876E+05 -8.010420E+04 -5.494859E+05  2.837939E-09  3.859891E-10
       170  16 -7.953970E+05 -1.270898E+05 -1.334131E+05 -2.178153E+05 -1.900369E-09 -9.484696E-10
       170  17 -7.304644E+05  9.016743E+04  3.580217E+04 -3.393755E+05  3.550600E-09  1.488281E-09
       170  18 -7.610653E+05  3.400140E+03  7.903298E+04 -4.088608E+05  5.699334E-09  2.369522E-09
       170  19 -2.045444E+06 -7.431820E+05 -5.019274E+05 -7.052520E+05  2.154494E+05  7.297400E+04
       170  20 -1.979752E+06 -4.220156E+05 -3.012214E+05 -7.236950E+05  1.407579E+05  2.761967E+04
       170  21 -2.012961E+06 -4.083709E+05 -2.392650E+05 -6.899927E+05  5.994472E+04 -1.555266E+03
       170  22 -1.420594E+06 -4.351834E+05 -3.176120E+05 -4.616526E+05  2.042136E+05  6.875838E+04
       170  23 -1.355288E+06 -1.659433E+05 -1.326746E+05 -5.316249E+05  1.374337E+05  2.637224E+04
       170  24 -1.387201E+06 -2.024864E+05 -8.009636E+04 -5.494859E+05  6.453619E+04  1.741864E+02
       170  25 -7.953558E+05 -1.270753E+05 -1.333352E+05 -2.178052E+05  1.929653E+05  6.453478E+04
       170  26 -7.304449E+05  9.017295E+04  3.583720E+04 -3.393727E+05  1.341057E+05  2.512311E+04
       170  27 -7.610602E+05  3.401429E+03  7.904198E+04 -4.088607E+05  6.913274E+04  1.904998E+03
       171   1 -1.922425E+06 -4.485376E+05 -2.108279E+05 -6.876720E+05 -5.205694E+04  8.062785E+02
       171   2 -1.888667E+06 -3.905304E+05 -1.660916E+05 -6.681537E+05 -3.498222E+04  6.694333E+03
       171   3 -1.846139E+06 -3.857181E+05 -1.423165E+05 -6.663503E+05 -1.741638E+04  1.127667E+04
       171   4 -1.376385E+06 -2.357791E+05 -6.510960E+04 -5.312476E+05 -5.199891E+04  8.261718E+02
       171   5 -1.379059E+06 -1.968219E+05 -3.132278E+04 -5.270630E+05 -3.555392E+04  6.477878E+03
       171   6 -1.372827E+06 -2.109174E+05 -1.798264E+04 -5.405952E+05 -1.861904E+04  1.082364E+04
       171   7 -8.300580E+05 -2.299735E+04  8.058208E+04 -3.746971E+05 -5.194081E+04  8.460955E+02
       171   8 -8.691990E+05 -3.096257E+03  1.034236E+05 -3.858670E+05 -3.612612E+04  6.261230E+03
       171   9 -8.992973E+05 -3.610481E+04  1.063326E+05 -4.147540E+05 -1.982271E+04  1.037025E+04
       171  10 -1.922428E+06 -4.485383E+05 -2.108330E+05 -6.876720E+05 -7.693032E-10 -9.836603E-10
       171  11 -1.888669E+06 -3.905307E+05 -1.660940E+05 -6.681535E+05  4.509393E-10 -2.416289E-10
       171  12 -1.846139E+06 -3.857183E+05 -1.423173E+05 -6.663501E+05 -3.312382E-10 -6.475147E-11
       171  13 -1.376388E+06 -2.357798E+05 -6.511470E+04 -5.312476E+05  6.546660E-10 -3.288298E-10
       171  14 -1.379060E+06 -1.968223E+05 -3.132523E+04 -5.270628E+05 -1.155795E-09 -2.008338E-10
       171  15 -1.372827E+06 -2.109177E+05 -1.798351E+04 -5.405950E+05 -3.935748E-10 -5.911069E-11
       171  16 -8.300609E+05 -2.299808E+04  8.057700E+04 -3.746971E+05  1.628929E-09  3.844004E-10
       171  17 -8.692004E+05 -3.096650E+03  1.034211E+05 -3.858668E+05 -6.318539E-10 -7.696236E-12
       171  18 -8.992977E+05 -3.610503E+04  1.063316E+05 -4.147538E+05  2.663135E-10  8.053694E-12
       171  19 -1.922425E+06 -4.485376E+05 -2.108279E+05 -6.876720E+05  5.205694E+04 -8.062785E+02
       171  20 -1.888667E+06 -3.905304E+05 -1.660916E+05 -6.681537E+05  3.498222E+04 -6.694333E+03
       171  21 -1.846139E+06 -3.857181E+05 -1.423165E+05 -6.663503E+05  1.741638E+04 -1.127667E+04
       171  22 -1.376385E+06 -2.357791E+05 -6.510960E+04 -5.312476E+05  5.199891E+04 -8.261718E+02
       171  23 -1.379059E+06 -1.968219E+05 -3.132278E+04 -5.270630E+05  3.555392E+04 -6.477878E+03
       171  24 -1.372827E+06 -2.109174E+05 -1.798264E+04 -5.405952E+05  1.861904E+04 -1.082364E+04
       171  25 -8.300580E+05 -2.299735E+04  8.058208E+04 -3.746971E+05  5.194081E+04 -8.460955E+02
       171  26 -8.691990E+05 -3.096257E+03  1.034236E+05 -3.858670E+05  3.612612E+04 -6.261230E+03
       171  27 -8.992973E+05 -3.610481E+04  1.063326E+05 -4.147540E+05  1.982271E+04 -1.037025E+04
       172   1 -1.783883E+06 -3.705699E+05 -1.228631E+05 -6.522069E+05 -1.471314E+04  1.085869E+04
       172   2 -1.752027E+06 -3.389633E+05 -1.048361E+05 -6.271277E+05 -1.026940E+04  1.047692E+04
       172   3 -1.697776E+06 -3.346051E+05 -9.047107E+04 -6.286581E+05 -5.773097E+03  9.950859E+03
       172   4 -1.371168E+06 -2.147296E+05 -1.402755E+04 -5.389726E+05 -1.556888E+04  1.053635E+04
       172   5 -1.382180E+06 -1.997840E+05 -7.294208E+03 -5.261653E+05 -1.119374E+04  1.012924E+04
       172   6 -1.370783E+06 -2.120706E+05 -4.166233E+03 -5.399670E+05 -6.766349E+03  9.577774E+03
       172   7 -9.582880E+05 -5.887853E+04  9.479331E+04 -4.256701E+05 -1.642524E+04  1.021378E+04
       172   8 -1.012200E+06 -6.059660E+04  9.023576E+04 -4.251486E+05 -1.211868E+04  9.781334E+03
       172   9 -1.043687E+06 -8.953024E+04  8.212915E+04 -4.512340E+05 -7.760173E+03  9.204477E+03
       172  10 -1.783883E+06 -3.705701E+05 -1.228637E+05 -6.522068E+05 -6.958370E-10  2.791931E-10
       172  11 -1.752028E+06 -3.389634E+05 -1.048365E+05 -6.271276E+05 -1.250423E-10  1.300878E-10
       172  12 -1.697776E+06 -3.346052E+05 -9.047132E+04 -6.286581E+05  6.917171E-10  2.132525E-10
       172  13 -1.371168E+06 -2.147298E+05 -1.402822E+04 -5.389725E+05  1.412181E-10  8.429387E-11
       172  14 -1.382180E+06 -1.997842E+05 -7.294636E+03 -5.261652E+05  3.271785E-10  2.525673E-10
       172  15 -1.370783E+06 -2.120707E+05 -4.166492E+03 -5.399669E+05  8.731718E-11  6.352017E-11
       172  16 -9.582884E+05 -5.887871E+04  9.479261E+04 -4.256699E+05  1.166450E-09 -1.569314E-10
       172  17 -1.012200E+06 -6.059674E+04  9.023530E+04 -4.251485E+05  1.567776E-10 -1.009049E-10
       172  18 -1.043687E+06 -8.953035E+04  8.212888E+04 -4.512339E+05  5.265545E-11  4.150481E-10
       172  19 -1.783883E+06 -3.705699E+05 -1.228631E+05 -6.522069E+05  1.471314E+04 -1.085869E+04
       172  20 -1.752027E+06 -3.389633E+05 -1.048361E+05 -6.271277E+05  1.026940E+04 -1.047692E+04
       172  21 -1.697776E+06 -3.346051E+05 -9.047107E+04 -6.286581E+05  5.773097E+03 -9.950859E+03
       172  22 -1.371168E+06 -2.147296E+05 -1.402755E+04 -5.389726E+05  1.556888E+04 -1.053635E+04
       172  23 -1.382180E+06 -1.997840E+05 -7.294208E+03 -5.261653E+05  1.119374E+04 -1.012924E+04
       172  24 -1.370783E+06 -2.120706E+05 -4.166233E+03 -5.399670E+05  6.766349E+03 -9.577774E+03
       172  25 -9.582880E+05 -5.887853E+04  9.479331E+04 -4.256701E+05  1.642524E+04 -1.021378E+04
       172  26 -1.012200E+06 -6.059660E+04  9.023576E+04 -4.251486E+05  1.211868E+04 -9.781334E+03
       172  27 -1.043687E+06 -8.953024E+04  8.212915E+04 -4.512340E+05  7.760173E+03 -9.204477E+03
       173   1 -1.635705E+06 -3.123836E+05 -7.304539E+04 -6.123663E+05 -4.749156E+03  9.007276E+03
       173   2 -1.602811E+06 -2.824689E+05 -5.996164E+04 -5.856838E+05 -3.000973E+03  7.393196E+03
       173   3 -1.545067E+06 -2.779977E+05 -4.771250E+04 -5.876435E+05 -1.240494E+03  5.743365E+03
       173   4 -1.370373E+06 -2.126788E+05 -3.257731E+03 -5.400367E+05 -5.722479E+03  8.641924E+03
       173   5 -1.382775E+06 -1.998182E+05 -1.963747E+03 -5.257671E+05 -3.991473E+03  7.021669E+03
       173   6 -1.370328E+06 -2.123974E+05 -1.490607E+03 -5.401400E+05 -2.248259E+03  5.365650E+03
       173   7 -1.104971E+06 -1.129694E+05  6.652413E+04 -4.676789E+05 -6.696263E+03  8.276400E+03
       173   8 -1.162692E+06 -1.171644E+05  5.603009E+04 -4.658311E+05 -4.982361E+03  6.649998E+03
       173   9 -1.195559E+06 -1.467952E+05  4.472866E+04 -4.926244E+05 -3.256336E+03  4.987817E+03
       173  10 -1.635705E+06 -3.123837E+05 -7.304559E+04 -6.123663E+05 -2.664487E-10 -3.980043E-10
       173  11 -1.602811E+06 -2.824690E+05 -5.996176E+04 -5.856838E+05 -4.947879E-10  9.984785E-11
       173  12 -1.545067E+06 -2.779977E+05 -4.771256E+04 -5.876435E+05  6.410446E-11  7.193844E-11
       173  13 -1.370373E+06 -2.126789E+05 -3.257933E+03 -5.400367E+05  3.498669E-10  6.163896E-11
       173  14 -1.382775E+06 -1.998182E+05 -1.963869E+03 -5.257671E+05 -5.459111E-10 -7.472278E-11
       173  15 -1.370328E+06 -2.123974E+05 -1.490671E+03 -5.401400E+05  3.759792E-10  7.658023E-11
       173  16 -1.104971E+06 -1.129695E+05  6.652391E+04 -4.676789E+05  3.791620E-10  1.703130E-10
       173  17 -1.162692E+06 -1.171645E+05  5.602996E+04 -4.658311E+05  2.809684E-10  7.009353E-11
       173  18 -1.195559E+06 -1.467952E+05  4.472859E+04 -4.926244E+05  1.676229E-10  1.092202E-10
       173  19 -1.635705E+06 -3.123836E+05 -7.304539E+04 -6.123663E+05  4.749156E+03 -9.007276E+03
       173  20 -1.602811E+06 -2.824689E+05 -5.996164E+04 -5.856838E+05  3.000973E+03 -7.393196E+03
       173  21 -1.545067E+06 -2.779977E+05 -4.771250E+04 -5.876435E+05  1.240494E+03 -5.743365E+03
       173  22 -1.370373E+06 -2.126788E+05 -3.257731E+03 -5.400367E+05  5.722479E+03 -8.641924E+03
       173  23 -1.382775E+06 -1.998182E+05 -1.963747E+03 -5.257671E+05  3.991473E+03 -7.021669E+03
       173  24 -1.370328E+06 -2.123974E+05 -1.490607E+03 -5.401400E+05  2.248259E+03 -5.365650E+03
       173  25 -1.104971E+06 -1.129694E+05  6.652413E+04 -4.676789E+05  6.696263E+03 -8.276400E+03
       173  26 -1.162692E+06 -1.171644E+05  5.603009E+04 -4.658311E+05  4.982361E+03 -6.649998E+03
       173  27 -1.195559E+06 -1.467952E+05  4.472866E+04 -4.926244E+05  3.256336E+03 -4.987817E+03
       174   1 -1.481404E+06 -2.542879E+05 -3.059760E+04 -5.705918E+05 -5.475372E+02  4.643630E+03
       174   2 -1.447761E+06 -2.240083E+05 -1.885733E+04 -5.432415E+05  1.108515E+03  2.925121E+03
       174   3 -1.388759E+06 -2.196712E+05 -7.868336E+03 -5.452059E+05  2.765889E+03  1.202257E+03
       174   4 -1.370212E+06 -2.125315E+05 -1.461292E+03 -5.402786E+05 -1.558403E+03  4.264882E+03
       174   5 -1.382904E+06 -1.996536E+05 -1.764696E+03 -5.255858E+05  9.558557E+01  2.545679E+03
       174   6 -1.370238E+06 -2.127178E+05 -2.817597E+03 -5.402084E+05  1.750824E+03  8.221023E+02
       174   7 -1.259009E+06 -1.707745E+05  2.767388E+04 -5.099606E+05 -2.569466E+03  3.886061E+03
       174   8 -1.318042E+06 -1.752987E+05  1.532758E+04 -5.079285E+05 -9.174602E+02  2.166194E+03
       174   9 -1.351716E+06 -2.057643E+05  2.233130E+03 -5.352108E+05  7.357233E+02  4.419340E+02
       174  10 -1.481404E+06 -2.542879E+05 -3.059764E+04 -5.705918E+05  1.555753E-10  4.501725E-11
       174  11 -1.447761E+06 -2.240083E+05 -1.885735E+04 -5.432415E+05  7.557081E-11  2.550115E-10
       174  12 -1.388759E+06 -2.196712E+05 -7.868353E+03 -5.452059E+05 -6.835300E-10  3.994234E-11
       174  13 -1.370212E+06 -2.125316E+05 -1.461331E+03 -5.402786E+05 -7.725698E-11  1.474763E-10
       174  14 -1.382904E+06 -1.996536E+05 -1.764709E+03 -5.255858E+05 -2.486993E-10  3.742737E-10
       174  15 -1.370238E+06 -2.127178E+05 -2.817604E+03 -5.402084E+05 -1.402160E-10 -1.579034E-11
       174  16 -1.259009E+06 -1.707746E+05  2.767384E+04 -5.099606E+05  2.961521E-10  1.758355E-10
       174  17 -1.318042E+06 -1.752987E+05  1.532757E+04 -5.079285E+05 -6.240625E-10  6.871557E-11
       174  18 -1.351716E+06 -2.057643E+05  2.233128E+03 -5.352108E+05  1.093504E-10 -1.735285E-11
       174  19 -1.481404E+06 -2.542879E+05 -3.059760E+04 -5.705918E+05  5.475372E+02 -4.643630E+03
       174  20 -1.447761E+06 -2.240083E+05 -1.885733E+04 -5.432415E+05 -1.108515E+03 -2.925121E+03
       174  21 -1.388759E+06 -2.196712E+05 -7.868336E+03 -5.452059E+05 -2.765889E+03 -1.202257E+03
       174  22 -1.370212E+06 -2.125315E+05 -1.461292E+03 -5.402786E+05  1.558403E+03 -4.264882E+03
       174  23 -1.382904E+06 -1.996536E+05 -1.764696E+03 -5.255858E+05 -9.558557E+01 -2.545679E+03
       174  24 -1.370238E+06 -2.127178E+05 -2.817597E+03 -5.402084E+05 -1.750824E+03 -8.221023E+02
       174  25 -1.259009E+06 -1.707745E+05  2.767388E+04 -5.099606E+05  2.569466E+03 -3.886061E+03
       174  26 -1.318042E+06 -1.752987E+05  1.532758E+04 -5.079285E+05  9.174602E+02 -2.166194E+03
       174  27 -1.351716E+06 -2.057643E+05  2.233130E+03 -5.352108E+05 -7.357233E+02 -4.419340E+02
       175   1 -1.324535E+06 -1.955004E+05  8.617333E+03 -5.282567E+05  3.761831E+03  1.944549E+02
       175   2 -1.290775E+06 -1.647877E+05  1.801892E+04 -5.005466E+05  7.639401E+03 -6.967096E+02
       175   3 -1.232918E+06 -1.624378E+05  2.434742E+04 -5.015317E+05  1.148967E+04 -1.513084E+03
       175   4 -1.370402E+06 -2.124184E+05 -3.581843E+03 -5.403852E+05  2.729010E+03 -1.923611E+02
       175   5 -1.382605E+06 -1.993429E+05 -6.193006E+03 -5.256225E+05  6.642916E+03 -1.070040E+03
       175   6 -1.370720E+06 -2.146381E+05 -1.190634E+04 -5.395562E+05  1.052926E+04 -1.873014E+03
       175   7 -1.416268E+06 -2.293364E+05 -1.578119E+04 -5.525129E+05  1.696273E+03 -5.791471E+02
       175   8 -1.474426E+06 -2.338976E+05 -3.040561E+04 -5.506951E+05  5.646594E+03 -1.443310E+03
       175   9 -1.508503E+06 -2.668369E+05 -4.816161E+04 -5.775730E+05  9.569082E+03 -2.232855E+03
       175  10 -1.324535E+06 -1.955004E+05  8.617306E+03 -5.282567E+05 -1.200477E-11 -3.448749E-11
       175  11 -1.290775E+06 -1.647877E+05  1.801881E+04 -5.005466E+05 -4.313872E-11 -4.038630E-10
       175  12 -1.232918E+06 -1.624379E+05  2.434716E+04 -5.015317E+05  1.358104E-10  2.987252E-10
       175  13 -1.370402E+06 -2.124184E+05 -3.581857E+03 -5.403852E+05  1.572944E-10 -2.260729E-10
       175  14 -1.382605E+06 -1.993429E+05 -6.193091E+03 -5.256225E+05  2.403342E-10 -7.075582E-10
       175  15 -1.370720E+06 -2.146381E+05 -1.190656E+04 -5.395562E+05 -1.118091E-10  2.364800E-11
       175  16 -1.416268E+06 -2.293364E+05 -1.578120E+04 -5.525129E+05  3.156559E-10 -2.236220E-10
       175  17 -1.474426E+06 -2.338976E+05 -3.040568E+04 -5.506951E+05  2.184879E-10 -3.835160E-10
       175  18 -1.508503E+06 -2.668370E+05 -4.816179E+04 -5.775730E+05  2.456215E-10  5.693164E-11
       175  19 -1.324535E+06 -1.955004E+05  8.617333E+03 -5.282567E+05 -3.761831E+03 -1.944549E+02
       175  20 -1.290775E+06 -1.647877E+05  1.801892E+04 -5.005466E+05 -7.639401E+03  6.967096E+02
       175  21 -1.232918E+06 -1.624378E+05  2.434742E+04 -5.015317E+05 -1.148967E+04  1.513084E+03
       175  22 -1.370402E+06 -2.124184E+05 -3.581843E+03 -5.403852E+05 -2.729010E+03  1.923611E+02
       175  23 -1.382605E+06 -1.993429E+05 -6.193006E+03 -5.256225E+05 -6.642916E+03  1.070040E+03
       175  24 -1.370720E+06 -2.146381E+05 -1.190634E+04 -5.395562E+05 -1.052926E+04  1.873014E+03
       175  25 -1.416268E+06 -2.293364E+05 -1.578119E+04 -5.525129E+05 -1.696273E+03  5.791471E+02
       175  26 -1.474426E+06 -2.338976E+05 -3.040561E+04 -5.506951E+05 -5.646594E+03  1.443310E+03
       175  27 -1.508503E+06 -2.668369E+05 -4.816161E+04 -5.775730E+05 -9.569082E+03  2.232855E+03
       176   1 -1.168483E+06 -1.379938E+05  3.797027E+04 -4.886690E+05  1.440249E+04 -1.905648E+03
       176   2 -1.134778E+06 -1.029382E+05  3.839657E+04 -4.577475E+05  2.852193E+04  1.119683E+03
       176   3 -1.087622E+06 -1.188546E+05  2.177198E+04 -4.489373E+05  4.232285E+04  5.001072E+03
       176   4 -1.371969E+06 -2.115876E+05 -1.526168E+04 -5.411291E+05  1.320764E+04 -2.353505E+03
       176   5 -1.380145E+06 -1.965934E+05 -2.653706E+04 -5.261265E+05  2.774383E+04  8.275807E+02
       176   6 -1.374961E+06 -2.326625E+05 -5.520000E+04 -5.332367E+05  4.196043E+04  4.864290E+03
       176   7 -1.575414E+06 -2.851799E+05 -6.849728E+04 -5.935741E+05  1.201321E+04 -2.801217E+03
       176   8 -1.625454E+06 -2.902445E+05 -9.147600E+04 -5.944809E+05  2.696607E+04  5.356081E+02
       176   9 -1.662220E+06 -3.464630E+05 -1.321793E+05 -6.174999E+05  4.159820E+04  4.727583E+03
       176  10 -1.168484E+06 -1.379939E+05  3.796988E+04 -4.886690E+05  1.028427E-10  4.507032E-10
       176  11 -1.134778E+06 -1.029384E+05  3.839504E+04 -4.577476E+05 -8.408339E-11 -2.943336E-10
       176  12 -1.087624E+06 -1.188552E+05  2.176856E+04 -4.489375E+05 -1.637476E-10 -5.741043E-11
       176  13 -1.371969E+06 -2.115877E+05 -1.526202E+04 -5.411291E+05 -3.344946E-10  1.977979E-10
       176  14 -1.380146E+06 -1.965936E+05 -2.653851E+04 -5.261265E+05 -7.115287E-11 -1.100551E-10
       176  15 -1.374963E+06 -2.326630E+05 -5.520336E+04 -5.332369E+05  5.165735E-10 -1.846730E-10
       176  16 -1.575415E+06 -2.851800E+05 -6.849756E+04 -5.935741E+05 -1.042305E-09 -1.226795E-10
       176  17 -1.625455E+06 -2.902447E+05 -9.147737E+04 -5.944809E+05  2.000473E-10  9.316968E-11
       176  18 -1.662222E+06 -3.464634E+05 -1.321826E+05 -6.175001E+05  1.703435E-10 -2.034149E-10
       176  19 -1.168483E+06 -1.379938E+05  3.797027E+04 -4.886690E+05 -1.440249E+04  1.905648E+03
       176  20 -1.134778E+06 -1.029382E+05  3.839657E+04 -4.577475E+05 -2.852193E+04 -1.119683E+03
       176  21 -1.087622E+06 -1.188546E+05  2.177198E+04 -4.489373E+05 -4.232285E+04 -5.001072E+03
       176  22 -1.371969E+06 -2.115876E+05 -1.526168E+04 -5.411291E+05 -1.320764E+04  2.353505E+03
       176  23 -1.380145E+06 -1.965934E+05 -2.653706E+04 -5.261265E+05 -2.774383E+04 -8.275807E+02
       176  24 -1.374961E+06 -2.326625E+05 -5.520000E+04 -5.332367E+05 -4.196043E+04 -4.864290E+03
       176  25 -1.575414E+06 -2.851799E+05 -6.849728E+04 -5.935741E+05 -1.201321E+04  2.801217E+03
       176  26 -1.625454E+06 -2.902445E+05 -9.147600E+04 -5.944809E+05 -2.696607E+04 -5.356081E+02
       176  27 -1.662220E+06 -3.464630E+05 -1.321793E+05 -6.174999E+05 -4.159820E+04 -4.727583E+03
       177   1 -1.013071E+06 -9.053292E+04  2.491417E+04 -4.738302E+05  5.601880E+04  7.107093E+03
       177   2 -9.778221E+05 -9.196365E+03 -8.505128E+03 -4.076628E+05  1.127849E+05  2.660763E+04
       177   3 -1.017193E+06 -1.929712E+05 -1.499475E+05 -3.054919E+05  1.655046E+05  5.689406E+04
       177   4 -1.384026E+06 -2.045555E+05 -6.790625E+04 -5.488264E+05  5.255260E+04  5.808422E+03
       177   5 -1.360182E+06 -1.701908E+05 -1.124420E+05 -5.297536E+05  1.146036E+05  2.728621E+04
       177   6 -1.412073E+06 -4.020907E+05 -2.692491E+05 -4.746635E+05  1.726054E+05  5.954288E+04
       177   7 -1.754847E+06 -3.185790E+05 -1.607366E+05 -6.237869E+05  4.908868E+04  4.510250E+03
       177   8 -1.742398E+06 -3.311656E+05 -2.163920E+05 -6.517725E+05  1.164210E+05  2.796418E+04
       177   9 -1.806793E+06 -6.111501E+05 -3.885659E+05 -6.437231E+05  1.797012E+05  6.218809E+04
       177  10 -1.013075E+06 -9.053382E+04  2.490816E+04 -4.738305E+05  3.898354E-10 -1.420891E-10
       177  11 -9.778360E+05 -9.200549E+03 -8.530409E+03 -4.076652E+05  1.994077E-11 -6.855689E-11
       177  12 -1.017223E+06 -1.929820E+05 -1.500052E+05 -3.054995E+05  9.600747E-11 -7.560406E-11
       177  13 -1.384029E+06 -2.045562E+05 -6.791152E+04 -5.488267E+05  8.446139E-10 -1.249529E-10
       177  14 -1.360196E+06 -1.701951E+05 -1.124681E+05 -5.297561E+05 -4.211670E-11 -1.558366E-10
       177  15 -1.412106E+06 -4.021025E+05 -2.693120E+05 -4.746718E+05  1.735165E-10  4.552644E-11
       177  16 -1.754849E+06 -3.185796E+05 -1.607412E+05 -6.237870E+05  5.138192E-10 -1.818186E-10
       177  17 -1.742413E+06 -3.311701E+05 -2.164190E+05 -6.517751E+05 -5.405470E-11 -1.987445E-11
       177  18 -1.806829E+06 -6.111630E+05 -3.886341E+05 -6.437321E+05 -1.346015E-10 -6.792174E-11
       177  19 -1.013071E+06 -9.053292E+04  2.491417E+04 -4.738302E+05 -5.601880E+04 -7.107093E+03
       177  20 -9.778221E+05 -9.196365E+03 -8.505128E+03 -4.076628E+05 -1.127849E+05 -2.660763E+04
       177  21 -1.017193E+06 -1.929712E+05 -1.499475E+05 -3.054919E+05 -1.655046E+05 -5.689406E+04
       177  22 -1.384026E+06 -2.045555E+05 -6.790625E+04 -5.488264E+05 -5.255260E+04 -5.808422E+03
       177  23 -1.360182E+06 -1.701908E+05 -1.124420E+05 -5.297536E+05 -1.146036E+05 -2.728621E+04
       177  24 -1.412073E+06 -4.020907E+05 -2.692491E+05 -4.746635E+05 -1.726054E+05 -5.954288E+04
       177  25 -1.754847E+06 -3.185790E+05 -1.607366E+05 -6.237869E+05 -4.908868E+04 -4.510250E+03
       177  26 -1.742398E+06 -3.311656E+05 -2.163920E+05 -6.517725E+05 -1.164210E+05 -2.796418E+04
       177  27 -1.806793E+06 -6.111501E+05 -3.885659E+05 -6.437231E+05 -1.797012E+05 -6.218809E+04
       178   1 -1.366909E+06 -2.908683E+05 -2.519847E+05 -2.821310E+04  8.356962E+04  1.751157E+04
       178   2 -1.262020E+06 -4.043769E+05 -3.001968E+05 -1.198976E+04  6.492916E+04  5.203686E+04
       178   3 -1.112733E+06 -3.623230E+05 -2.967827E+05 -8.537520E+04  4.639814E+04  4.851611E+04
       178   4  3.197526E+05  1.295408E+05  1.639498E+05 -6.664082E+04  1.120353E+05  1.759426E+04
       178   5  2.959133E+05 -1.828439E+04  7.166648E+04 -2.164773E+04  7.325324E+04  5.204649E+04
       178   6  3.198475E+05 -7.259142E+03  4.489537E+04 -6.624580E+04  3.458612E+04  4.849317E+04
       178   7  2.009010E+06  5.497443E+05  5.796779E+05 -1.051752E+05  1.405780E+05  1.767331E+04
       178   8  1.856075E+06  3.676330E+05  4.433594E+05 -3.133136E+04  8.159797E+04  5.205584E+04
       178   9  1.754313E+06  3.476577E+05  3.864300E+05 -4.707256E+04  2.274685E+04  4.846953E+04
       178  10 -1.366916E+06 -2.908705E+05 -2.519984E+05 -2.821428E+04 -9.642466E-11  2.345479E-10
       178  11 -1.262025E+06 -4.043809E+05 -3.002098E+05 -1.199248E+04 -5.497997E-10 -1.646944E-09
       178  12 -1.112736E+06 -3.623261E+05 -2.967912E+05 -8.537702E+04 -2.165547E-09 -3.570174E-10
       178  13  3.197391E+05  1.295371E+05  1.639256E+05 -6.664241E+04  1.052549E-09 -1.031240E-09
       178  14  2.959069E+05 -1.828874E+04  7.165131E+04 -2.165080E+04  3.303488E-10 -1.199084E-10
       178  15  3.198456E+05 -7.261988E+03  4.488871E+04 -6.624715E+04 -1.225265E-09 -4.293262E-10
       178  16  2.008988E+06  5.497387E+05  5.796403E+05 -1.051772E+05 -1.006258E-10  1.422446E-09
       178  17  1.856067E+06  3.676283E+05  4.433418E+05 -3.133477E+04  6.360208E-10 -1.799404E-10
       178  18  1.754312E+06  3.476551E+05  3.864246E+05 -4.707344E+04 -1.483032E-09 -3.834393E-10
       178  19 -1.366909E+06 -2.908683E+05 -2.519847E+05 -2.821310E+04 -8.356962E+04 -1.751157E+04
       178  20 -1.262020E+06 -4.043769E+05 -3.001968E+05 -1.198976E+04 -6.492916E+04 -5.203686E+04
       178  21 -1.112733E+06 -3.623230E+05 -2.967827E+05 -8.537520E+04 -4.639814E+04 -4.851611E+04
       178  22  3.197526E+05  1.295408E+05  1.639498E+05 -6.664082E+04 -1.120353E+05 -1.759426E+04
       178  23  2.959133E+05 -1.828439E+04  7.166648E+04 -2.164773E+04 -7.325324E+04 -5.204649E+04
       178  24  3.198475E+05 -7.259142E+03  4.489537E+04 -6.624580E+04 -3.458612E+04 -4.849317E+04
       178  25  2.009010E+06  5.497443E+05  5.796779E+05 -1.051752E+05 -1.405780E+05 -1.767331E+04
       178  26  1.856075E+06  3.676330E+05  4.433594E+05 -3.133136E+04 -8.159797E+04 -5.205584E+04
       178  27  1.754313E+06  3.476577E+05  3.864300E+05 -4.707256E+04 -2.274685E+04 -4.846953E+04
       179   1 -9.609638E+05 -3.025962E+05 -2.677683E+05 -6.339087E+04  2.817764E+04  4.013148E+04
       179   2 -8.393094E+05 -2.863679E+05 -2.552793E+05 -2.109440E+04  2.008946E+04  3.771001E+04
       179   3 -7.111220E+05 -2.540790E+05 -2.331964E+05 -6.785856E+04  1.199057E+04  3.262977E+04
       179   4  3.108469E+05  1.272407E+04  3.652651E+04 -6.624429E+04  2.764369E+04  4.012534E+04
       179   5  3.075006E+05 -2.157266E+03  1.856078E+04 -2.171428E+04  1.813584E+04  3.770466E+04
       179   6  3.109074E+05 -7.470468E+02  1.116087E+04 -6.623423E+04  8.618868E+03  3.262740E+04
       179   7  1.584141E+06  3.279271E+05  3.407071E+05 -6.910388E+04  2.710861E+04  4.011922E+04
       179   8  1.455517E+06  2.819583E+05  2.923084E+05 -2.233539E+04  1.617859E+04  3.769933E+04
       179   9  1.333895E+06  2.525092E+05  2.554446E+05 -6.460708E+04  5.241630E+03  3.262502E+04
       179  10 -9.609651E+05 -3.025981E+05 -2.677728E+05 -6.339178E+04 -1.417057E-09  1.228271E-10
       179  11 -8.393102E+05 -2.863696E+05 -2.552828E+05 -2.109501E+04 -1.368630E-09 -2.329264E-10
       179  12 -7.111225E+05 -2.540801E+05 -2.331987E+05 -6.785888E+04 -4.838583E-10 -1.171759E-10
       179  13  3.108456E+05  1.272214E+04  3.652205E+04 -6.624518E+04 -2.747644E-09 -5.544994E-10
       179  14  3.074998E+05 -2.158881E+03  1.855749E+04 -2.171483E+04 -3.634229E-10  1.316937E-10
       179  15  3.109070E+05 -7.482100E+02  1.115873E+04 -6.623445E+04 -8.363807E-10  7.813775E-11
       179  16  1.584140E+06  3.279252E+05  3.407027E+05 -6.910475E+04  3.809599E-11 -3.064541E-10
       179  17  1.455516E+06  2.819567E+05  2.923052E+05 -2.233588E+04 -1.316626E-10 -2.208755E-10
       179  18  1.333894E+06  2.525081E+05  2.554425E+05 -6.460721E+04  9.643394E-12 -1.764564E-10
       179  19 -9.609638E+05 -3.025962E+05 -2.677683E+05 -6.339087E+04 -2.817764E+04 -4.013148E+04
       179  20 -8.393094E+05 -2.863679E+05 -2.552793E+05 -2.109440E+04 -2.008946E+04 -3.771001E+04
       179  21 -7.111220E+05 -2.540790E+05 -2.331964E+05 -6.785856E+04 -1.199057E+04 -3.262977E+04
       179  22  3.108469E+05  1.272407E+04  3.652651E+04 -6.624429E+04 -2.764369E+04 -4.012534E+04
       179  23  3.075006E+05 -2.157266E+03  1.856078E+04 -2.171428E+04 -1.813584E+04 -3.770466E+04
       179  24  3.109074E+05 -7.470468E+02  1.116087E+04 -6.623423E+04 -8.618868E+03 -3.262740E+04
       179  25  1.584141E+06  3.279271E+05  3.407071E+05 -6.910388E+04 -2.710861E+04 -4.011922E+04
       179  26  1.455517E+06  2.819583E+05  2.923084E+05 -2.233539E+04 -1.617859E+04 -3.769933E+04
       179  27  1.333895E+06  2.525092E+05  2.554446E+05 -6.460708E+04 -5.241630E+03 -3.262502E+04
       180   1 -5.533904E+05 -2.126219E+05 -1.970739E+05 -6.541379E+04  9.426851E+03  2.923777E+04
       180   2 -4.301727E+05 -1.834641E+05 -1.717454E+05 -2.135568E+04  7.125423E+03  2.426616E+04
       180   3 -3.058407E+05 -1.524886E+05 -1.443909E+05 -6.556962E+04  4.815648E+03  1.912108E+04
       180   4  3.097366E+05  1.188164E+03  8.692710E+03 -6.606168E+04  6.854734E+03  2.923675E+04
       180   5  3.091974E+05 -2.706293E+02  4.771799E+03 -2.192934E+04  4.458521E+03  2.426703E+04
       180   6  3.097739E+05  1.047667E+02  2.941505E+03 -6.606253E+04  2.054415E+03  1.912398E+04
       180   7  1.173547E+06  2.149444E+05  2.144070E+05 -6.671033E+04  4.279049E+03  2.923574E+04
       180   8  1.049069E+06  1.828833E+05  1.812506E+05 -2.250354E+04  1.788452E+03  2.426790E+04
       180   9  9.257358E+05  1.526706E+05  1.502471E+05 -6.655578E+04 -7.095467E+02  1.912689E+04
       180  10 -5.533908E+05 -2.126228E+05 -1.970757E+05 -6.541401E+04 -1.640574E-11 -1.458312E-12
       180  11 -4.301729E+05 -1.834648E+05 -1.717466E+05 -2.135582E+04  4.730874E-10  4.006965E-10
       180  12 -3.058408E+05 -1.524890E+05 -1.443916E+05 -6.556970E+04  2.776961E-10 -7.130499E-10
       180  13  3.097364E+05  1.187233E+03  8.691016E+03 -6.606184E+04 -1.068792E-09 -3.354978E-10
       180  14  3.091972E+05 -2.712670E+02  4.770655E+03 -2.192943E+04 -7.500460E-10  8.806625E-10
       180  15  3.097738E+05  1.043728E+02  2.940810E+03 -6.606256E+04 -7.542998E-10  9.272920E-10
       180  16  1.173547E+06  2.149435E+05  2.144054E+05 -6.671043E+04 -4.103465E-10 -1.995689E-10
       180  17  1.049069E+06  1.828827E+05  1.812494E+05 -2.250358E+04 -1.352443E-09 -7.303266E-10
       180  18  9.257357E+05  1.526702E+05  1.502465E+05 -6.655577E+04  1.167386E-09  1.758186E-10
       180  19 -5.533904E+05 -2.126219E+05 -1.970739E+05 -6.541379E+04 -9.426851E+03 -2.923777E+04
       180  20 -4.301727E+05 -1.834641E+05 -1.717454E+05 -2.135568E+04 -7.125423E+03 -2.426616E+04
       180  21 -3.058407E+05 -1.524886E+05 -1.443909E+05 -6.556962E+04 -4.815648E+03 -1.912108E+04
       180  22  3.097366E+05  1.188164E+03  8.692710E+03 -6.606168E+04 -6.854734E+03 -2.923675E+04
       180  23  3.091974E+05 -2.706293E+02  4.771799E+03 -2.192934E+04 -4.458521E+03 -2.426703E+04
       180  24  3.097739E+05  1.047667E+02  2.941505E+03 -6.606253E+04 -2.054415E+03 -1.912398E+04
       180  25  1.173547E+06  2.149444E+05  2.144070E+05 -6.671033E+04 -4.279049E+03 -2.923574E+04
       180  26  1.049069E+06  1.828833E+05  1.812506E+05 -2.250354E+04 -1.788452E+03 -2.426790E+04
       180  27  9.257358E+05  1.526706E+05  1.502471E+05 -6.655578E+04  7.095467E+02 -1.912689E+04
       181   1 -1.482785E+05 -1.130916E+05 -1.065937E+05 -6.540072E+04  4.276305E+03  1.610100E+04
       181   2 -2.510616E+04 -8.287591E+04 -7.832745E+04 -2.162034E+04  3.497961E+03  1.097813E+04
       181   3  9.802033E+04 -5.220269E+04 -4.950130E+04 -6.563684E+04  2.715946E+03  5.849593E+03
       181   4  3.095597E+05  2.538711E+02  2.321030E+03 -6.595734E+04  1.573317E+03  1.610476E+04
       181   5  3.095968E+05  3.370843E+01  1.560568E+03 -2.206037E+04  7.912710E+02  1.098272E+04
       181   6  3.095763E+05  2.731236E+02  1.363649E+03 -6.595733E+04  5.705383E+00  5.855067E+03
       181   7  7.675904E+05  1.135842E+05  1.112211E+05 -6.651428E+04 -1.131656E+03  1.610852E+04
       181   8  6.444025E+05  8.293523E+04  8.144074E+04 -2.250059E+04 -1.916872E+03  1.098731E+04
       181   9  5.211733E+05  5.274569E+04  5.222544E+04 -6.627792E+04 -2.705455E+03  5.860543E+03
       181  10 -1.482786E+05 -1.130919E+05 -1.065942E+05 -6.540078E+04  3.897931E-10 -2.698266E-10
       181  11 -2.510620E+04 -8.287604E+04 -7.832770E+04 -2.162038E+04  1.039478E-09  2.290571E-10
       181  12  9.802031E+04 -5.220273E+04 -4.950138E+04 -6.563685E+04  1.278640E-09 -2.057813E-10
       181  13  3.095597E+05  2.535919E+02  2.320538E+03 -6.595736E+04  1.127259E-09 -1.440921E-09
       181  14  3.095968E+05  3.357871E+01  1.560341E+03 -2.206038E+04  1.319942E-09  2.359369E-10
       181  15  3.095763E+05  2.730867E+02  1.363585E+03 -6.595733E+04  5.129500E-10 -1.068196E-09
       181  16  7.675903E+05  1.135840E+05  1.112206E+05 -6.651426E+04  1.056107E-09  3.870017E-10
       181  17  6.444024E+05  8.293510E+04  8.144051E+04 -2.250058E+04 -8.743754E-10 -6.372931E-10
       181  18  5.211733E+05  5.274565E+04  5.222536E+04 -6.627791E+04 -2.590046E-10 -1.907951E-09
       181  19 -1.482785E+05 -1.130916E+05 -1.065937E+05 -6.540072E+04 -4.276305E+03 -1.610100E+04
       181  20 -2.510616E+04 -8.287591E+04 -7.832745E+04 -2.162034E+04 -3.497961E+03 -1.097813E+04
       181  21  9.802033E+04 -5.220269E+04 -4.950130E+04 -6.563684E+04 -2.715946E+03 -5.849593E+03
       181  22  3.095597E+05  2.538711E+02  2.321030E+03 -6.595734E+04 -1.573317E+03 -1.610476E+04
       181  23  3.095968E+05  3.370843E+01  1.560568E+03 -2.206037E+04 -7.912710E+02 -1.098272E+04
       181  24  3.095763E+05  2.731236E+02  1.363649E+03 -6.595733E+04 -5.705383E+00 -5.855067E+03
       181  25  7.675904E+05  1.135842E+05  1.112211E+05 -6.651428E+04  1.131656E+03 -1.610852E+04
       181  26  6.444025E+05  8.293523E+04  8.144074E+04 -2.250059E+04  1.916872E+03 -1.098731E+04
       181  27  5.211733E+05  5.274569E+04  5.222544E+04 -6.627792E+04  2.705455E+03 -5.860543E+03
       182   1  2.553143E+05 -1.310277E+04 -1.116951E+04 -6.582857E+04  2.457002E+03  2.863245E+03
       182   2  3.784139E+05  1.708926E+04  1.823405E+04 -2.217900E+04  1.536879E+03 -2.259605E+03
       182   3  5.013538E+05  4.780861E+04  4.827382E+04 -6.620913E+04  6.173041E+02 -7.373454E+03
       182   4  3.095615E+05  2.579005E+02  1.402065E+03 -6.593217E+04 -2.522190E+02  2.868951E+03
       182   5  3.096478E+05  5.931866E+01  1.824788E+03 -2.209189E+04 -1.167772E+03 -2.254110E+03
       182   6  3.095579E+05  3.878889E+02  2.881046E+03 -6.593188E+04 -2.082600E+03 -7.368116E+03
       182   7  3.638114E+05  1.361837E+04  1.397347E+04 -6.603578E+04 -2.961675E+03  2.874658E+03
       182   8  2.408860E+05 -1.697096E+04 -1.458477E+04 -2.200478E+04 -3.872126E+03 -2.248616E+03
       182   9  1.177958E+05 -4.703547E+04 -4.251426E+04 -6.565469E+04 -4.781675E+03 -7.362779E+03
       182  10  2.553143E+05 -1.310278E+04 -1.116954E+04 -6.582857E+04 -1.547287E-10  1.048865E-09
       182  11  3.784139E+05  1.708925E+04  1.823403E+04 -2.217900E+04 -1.068485E-10  2.742294E-09
       182  12  5.013538E+05  4.780855E+04  4.827372E+04 -6.620913E+04  6.820415E-10 -2.017633E-09
       182  13  3.095615E+05  2.578917E+02  1.402049E+03 -6.593217E+04  5.385754E-10 -2.403468E-11
       182  14  3.096478E+05  5.931284E+01  1.824776E+03 -2.209189E+04 -1.255287E-09 -9.323392E-10
       182  15  3.095579E+05  3.878295E+02  2.880936E+03 -6.593189E+04 -2.101889E-09  1.089028E-11
       182  16  3.638114E+05  1.361836E+04  1.397344E+04 -6.603577E+04  1.155892E-09  1.532284E-10
       182  17  2.408860E+05 -1.697097E+04 -1.458481E+04 -2.200479E+04 -1.735004E-09 -3.305407E-10
       182  18  1.177958E+05 -4.703553E+04 -4.251440E+04 -6.565472E+04 -6.946803E-10  1.659275E-11
       182  19  2.553143E+05 -1.310277E+04 -1.116951E+04 -6.582857E+04 -2.457002E+03 -2.863245E+03
       182  20  3.784139E+05  1.708926E+04  1.823405E+04 -2.217900E+04 -1.536879E+03  2.259605E+03
       182  21  5.013538E+05  4.780861E+04  4.827382E+04 -6.620913E+04 -6.173041E+02  7.373454E+03
       182  22  3.095615E+05  2.579005E+02  1.402065E+03 -6.593217E+04  2.522190E+02 -2.868951E+03
       182  23  3.096478E+05  5.931866E+01  1.824788E+03 -2.209189E+04  1.167772E+03  2.254110E+03
       182  24  3.095579E+05  3.878889E+02  2.881046E+03 -6.593188E+04  2.082600E+03  7.368116E+03
       182  25  3.638114E+05  1.361837E+04  1.397347E+04 -6.603578E+04  2.961675E+03 -2.874658E+03
       182  26  2.408860E+05 -1.697096E+04 -1.458477E+04 -2.200478E+04  3.872126E+03  2.248616E+03
       182  27  1.177958E+05 -4.703547E+04 -4.251426E+04 -6.565469E+04  4.781675E+03  7.362779E+03
       183   1  6.590404E+05  8.671778E+04  8.738182E+04 -6.622041E+04  6.871705E+01 -1.037977E+04
       183   2  7.819752E+05  1.167915E+05  1.188973E+05 -2.261854E+04 -3.099469E+03 -1.550245E+04
       183   3  9.058182E+05  1.492604E+05  1.530420E+05 -6.692689E+04 -6.263126E+03 -2.047542E+04
       183   4  3.097695E+05  1.622105E+02  3.680722E+03 -6.598487E+04 -2.679943E+03 -1.037481E+04
       183   5  3.093169E+05 -2.338641E+02  6.137842E+03 -2.202651E+04 -5.767120E+03 -1.549886E+04
       183   6  3.097454E+05  1.753323E+03  1.117050E+04 -6.598244E+04 -8.849148E+03 -2.047311E+04
       183   7 -3.938973E+04 -8.640220E+04 -8.002898E+04 -6.574941E+04 -5.427064E+03 -1.036986E+04
       183   8 -1.631368E+05 -1.172754E+05 -1.066373E+05 -2.143483E+04 -8.432749E+03 -1.549528E+04
       183   9 -2.860017E+05 -1.457794E+05 -1.307258E+05 -6.503877E+04 -1.143270E+04 -2.047080E+04
       183  10  6.590404E+05  8.671766E+04  8.738162E+04 -6.622041E+04 -5.435779E-10 -2.301037E-09
       183  11  7.819752E+05  1.167912E+05  1.188968E+05 -2.261858E+04 -9.482611E-10 -1.217097E-10
       183  12  9.058180E+05  1.492599E+05  1.530411E+05 -6.692699E+04 -3.206868E-10  9.123632E-10
       183  13  3.097695E+05  1.620930E+02  3.680507E+03 -6.598490E+04 -1.129867E-09 -7.080021E-11
       183  14  3.093168E+05 -2.341310E+02  6.137328E+03 -2.202658E+04 -1.526926E-10 -7.504094E-10
       183  15  3.097452E+05  1.752852E+03  1.116956E+04 -6.598258E+04 -5.082167E-10 -6.425161E-11
       183  16 -3.938979E+04 -8.640233E+04 -8.002924E+04 -6.574945E+04 -1.430379E-10 -2.059905E-11
       183  17 -1.631369E+05 -1.172756E+05 -1.066379E+05 -2.143494E+04 -2.229727E-09  1.952749E-09
       183  18 -2.860019E+05 -1.457798E+05 -1.307269E+05 -6.503895E+04  9.655636E-10  6.054164E-10
       183  19  6.590404E+05  8.671778E+04  8.738182E+04 -6.622041E+04 -6.871705E+01  1.037977E+04
       183  20  7.819752E+05  1.167915E+05  1.188973E+05 -2.261854E+04  3.099469E+03  1.550245E+04
       183  21  9.058182E+05  1.492604E+05  1.530420E+05 -6.692689E+04  6.263126E+03  2.047542E+04
       183  22  3.097695E+05  1.622105E+02  3.680722E+03 -6.598487E+04  2.679943E+03  1.037481E+04
       183  23  3.093169E+05 -2.338641E+02  6.137842E+03 -2.202651E+04  5.767120E+03  1.549886E+04
       183  24  3.097454E+05  1.753323E+03  1.117050E+04 -6.598244E+04  8.849148E+03  2.047311E+04
       183  25 -3.938973E+04 -8.640220E+04 -8.002898E+04 -6.574941E+04  5.427064E+03  1.036986E+04
       183  26 -1.631368E+05 -1.172754E+05 -1.066373E+05 -2.143483E+04  8.432749E+03  1.549528E+04
       183  27 -2.860017E+05 -1.457794E+05 -1.307258E+05 -6.503877E+04  1.143270E+04  2.047080E+04
       184   1  1.065537E+06  1.860208E+05  1.945829E+05 -6.431939E+04 -7.849279E+03 -2.378951E+04
       184   2  1.185932E+06  2.149348E+05  2.335145E+05 -2.351023E+04 -2.134322E+04 -2.884074E+04
       184   3  1.314071E+06  2.651237E+05  2.866706E+05 -7.115465E+04 -3.483056E+04 -3.164816E+04
       184   4  3.111658E+05 -7.786432E+02  1.432440E+04 -6.610808E+04 -1.111123E+04 -2.378756E+04
       184   5  3.073748E+05 -2.531896E+03  2.398738E+04 -2.187470E+04 -2.340309E+04 -2.884217E+04
       184   6  3.111184E+05  1.679974E+04  4.705670E+04 -6.610203E+04 -3.568569E+04 -3.165168E+04
       184   7 -4.426841E+05 -1.876193E+05 -1.659741E+05 -6.789440E+04 -1.436923E+04 -2.378558E+04
       184   8 -5.704757E+05 -2.200543E+05 -1.855940E+05 -2.024136E+04 -2.546005E+04 -2.884362E+04
       184   9 -6.909140E+05 -2.315969E+05 -1.926280E+05 -6.105751E+04 -3.653941E+04 -3.165521E+04
       184  10  1.065536E+06  1.860202E+05  1.945817E+05 -6.431954E+04 -6.584269E-10  1.307579E-09
       184  11  1.185931E+06  2.149337E+05  2.335121E+05 -2.351073E+04 -1.450853E-09 -5.629871E-10
       184  12  1.314070E+06  2.651223E+05  2.866664E+05 -7.115554E+04  9.705795E-11 -2.124778E-10
       184  13  3.111655E+05 -7.792840E+02  1.432311E+04 -6.610829E+04 -5.420446E-10  9.948822E-10
       184  14  3.073740E+05 -2.532937E+03  2.398479E+04 -2.187524E+04  3.558410E-10  4.171053E-11
       184  15  3.111168E+05  1.679832E+04  4.705243E+04 -6.610294E+04 -1.478295E-11 -2.109061E-10
       184  16 -4.426845E+05 -1.876199E+05 -1.659756E+05 -6.789468E+04 -5.557449E-10  1.007922E-10
       184  17 -5.704766E+05 -2.200553E+05 -1.855968E+05 -2.024195E+04  1.444016E-10 -7.218002E-10
       184  18 -6.909157E+05 -2.315983E+05 -1.926324E+05 -6.105845E+04 -2.739515E-10 -1.055051E-10
       184  19  1.065537E+06  1.860208E+05  1.945829E+05 -6.431939E+04  7.849279E+03  2.378951E+04
       184  20  1.185932E+06  2.149348E+05  2.335145E+05 -2.351023E+04  2.134322E+04  2.884074E+04
       184  21  1.314071E+06  2.651237E+05  2.866706E+05 -7.115465E+04  3.483056E+04  3.164816E+04
       184  22  3.111658E+05 -7.786432E+02  1.432440E+04 -6.610808E+04  1.111123E+04  2.378756E+04
       184  23  3.073748E+05 -2.531896E+03  2.398738E+04 -2.187470E+04  2.340309E+04  2.884217E+04
       184  24  3.111184E+05  1.679974E+04  4.705670E+04 -6.610203E+04  3.568569E+04  3.165168E+04
       184  25 -4.426841E+05 -1.876193E+05 -1.659741E+05 -6.789440E+04  1.436923E+04  2.378558E+04
       184  26 -5.704757E+05 -2.200543E+05 -1.855940E+05 -2.024136E+04  2.546005E+04  2.884362E+04
       184  27 -6.909140E+05 -2.315969E+05 -1.926280E+05 -6.105751E+04  3.653941E+04  3.165521E+04
       185   1  1.485414E+06  2.787608E+05  3.347432E+05 -4.322952E+04 -3.422952E+04 -3.915896E+04
       185   2  1.580245E+06  2.954190E+05  3.992966E+05 -3.693383E+04 -1.011888E+05 -4.291349E+04
       185   3  1.737493E+06  5.194134E+05  5.595891E+05 -1.194621E+05 -1.682109E+05 -1.459813E+04
       185   4  3.225925E+05 -8.958776E+03  5.780955E+04 -6.612099E+04 -4.462778E+04 -3.916456E+04
       185   5  2.927663E+05 -2.311782E+04  9.251953E+04 -2.183244E+04 -9.452881E+04 -4.291557E+04
       185   6  3.225072E+05  1.673269E+05  2.112635E+05 -6.636889E+04 -1.444772E+05 -1.457548E+04
       185   7 -8.389891E+05 -2.967739E+05 -2.192181E+05 -8.896946E+04 -5.500663E+04 -3.916941E+04
       185   8 -9.931939E+05 -3.417734E+05 -2.143735E+05 -6.762791E+03 -8.788241E+04 -4.291733E+04
       185   9 -1.090653E+06 -1.848973E+05 -1.372060E+05 -1.339724E+04 -1.207970E+05 -1.454876E+04
       185  10  1.485412E+06  2.787589E+05  3.347381E+05 -4.323060E+04  2.113102E-10  3.295369E-10
       185  11  1.580233E+06  2.954143E+05  3.992739E+05 -3.693732E+04 -1.661029E-09  3.551013E-10
       185  12  1.737462E+06  5.194056E+05  5.595357E+05 -1.194641E+05  7.353758E-11 -4.968593E-10
       185  13  3.225899E+05 -8.960958E+03  5.780293E+04 -6.612239E+04  6.329357E-10  5.302366E-10
       185  14  2.927562E+05 -2.312220E+04  9.249928E+04 -2.183571E+04  2.450170E-09  2.231873E-09
       185  15  3.224847E+05  1.673211E+05  2.112239E+05 -6.637058E+04  7.055167E-10  1.933123E-11
       185  16 -8.389928E+05 -2.967763E+05 -2.192267E+05 -8.897119E+04 -8.346481E-11  3.392592E-10
       185  17 -9.932027E+05 -3.417774E+05 -2.143915E+05 -6.765831E+03  2.139637E-09  6.557400E-10
       185  18 -1.090669E+06 -1.849014E+05 -1.372339E+05 -1.339866E+04  3.962272E-11 -4.977474E-10
       185  19  1.485414E+06  2.787608E+05  3.347432E+05 -4.322952E+04  3.422952E+04  3.915896E+04
       185  20  1.580245E+06  2.954190E+05  3.992966E+05 -3.693383E+04  1.011888E+05  4.291349E+04
       185  21  1.737493E+06  5.194134E+05  5.595891E+05 -1.194621E+05  1.682109E+05  1.459813E+04
       185  22  3.225925E+05 -8.958776E+03  5.780955E+04 -6.612099E+04  4.462778E+04  3.916456E+04
       185  23  2.927663E+05 -2.311782E+04  9.251953E+04 -2.183244E+04  9.452881E+04  4.291557E+04
       185  24  3.225072E+05  1.673269E+05  2.112635E+05 -6.636889E+04  1.444772E+05  1.457548E+04
       185  25 -8.389891E+05 -2.967739E+05 -2.192181E+05 -8.896946E+04  5.500663E+04  3.916941E+04
       185  26 -9.931939E+05 -3.417734E+05 -2.143735E+05 -6.762791E+03  8.788241E+04  4.291733E+04
       185  27 -1.090653E+06 -1.848973E+05 -1.372060E+05 -1.339724E+04  1.207970E+05  1.454876E+04
       186   1  1.886469E+05  5.267627E+05  2.186891E+05 -1.498385E+05  1.368161E+03  1.032160E+05
       186   2  4.363063E+02  3.002856E+05  8.421109E+04 -4.859073E+04  2.097683E+03  6.184749E+04
       186   3 -3.920657E+04  1.150077E+05  1.351020E+04 -9.354808E+04 -5.727787E+03  2.045999E+04
       186   4  1.203379E+05  2.544189E+05  1.511730E+05 -1.098244E+05  1.384599E+03  1.006381E+05
       186   5 -1.602256E+04  2.342276E+05  6.848329E+04 -3.696014E+04  2.091389E+03  6.380321E+04
       186   6 -4.585475E+03  2.544344E+05  4.644891E+04 -1.102921E+05 -5.753533E+03  2.693571E+04
       186   7  5.202936E+04 -1.785418E+04  8.365212E+04 -6.982773E+04  1.400710E+03  9.806137E+04
       186   8 -3.248125E+04  1.681740E+05  5.275526E+04 -2.533079E+04  2.085168E+03  6.575872E+04
       186   9  3.003528E+04  3.938796E+05  7.938657E+04 -1.270399E+05 -5.779626E+03  3.341288E+04
       186  10  1.886440E+05  5.267513E+05  2.186691E+05 -1.498386E+05  6.692560E-10  1.318534E-09
       186  11  4.352754E+02  3.002815E+05  8.420390E+04 -4.859084E+04 -1.830325E-10  6.924580E-10
       186  12 -3.920672E+04  1.150072E+05  1.350935E+04 -9.354798E+04  2.850769E-10 -2.957028E-09
       186  13  1.203352E+05  2.544081E+05  1.511539E+05 -1.098245E+05  2.159993E-09 -9.812724E-10
       186  14 -1.602366E+04  2.342233E+05  6.847563E+04 -3.696025E+04  1.085383E-09 -9.789074E-10
       186  15 -4.585705E+03  2.544336E+05  4.644748E+04 -1.102920E+05 -1.261782E-09 -1.981687E-09
       186  16  5.202677E+04 -1.786450E+04  8.363404E+04 -6.982784E+04  1.139276E-09 -1.877986E-09
       186  17 -3.248241E+04  1.681693E+05  5.274713E+04 -2.533090E+04  5.434086E-09 -4.592041E-10
       186  18  3.003495E+04  3.938784E+05  7.938441E+04 -1.270398E+05 -8.281003E-10  2.407715E-09
       186  19  1.886469E+05  5.267627E+05  2.186891E+05 -1.498385E+05 -1.368161E+03 -1.032160E+05
       186  20  4.363063E+02  3.002856E+05  8.421109E+04 -4.859073E+04 -2.097683E+03 -6.184749E+04
       186  21 -3.920657E+04  1.150077E+05  1.351020E+04 -9.354808E+04  5.727787E+03 -2.045999E+04
       186  22  1.203379E+05  2.544189E+05  1.511730E+05 -1.098244E+05 -1.384599E+03 -1.006381E+05
       186  23 -1.602256E+04  2.342276E+05  6.848329E+04 -3.696014E+04 -2.091389E+03 -6.380321E+04
       186  24 -4.585475E+03  2.544344E+05  4.644891E+04 -1.102921E+05  5.753533E+03 -2.693571E+04
       186  25  5.202936E+04 -1.785418E+04  8.365212E+04 -6.982773E+04 -1.400710E+03 -9.806137E+04
       186  26 -3.248125E+04  1.681740E+05  5.275526E+04 -2.533079E+04 -2.085168E+03 -6.575872E+04
       186  27  3.003528E+04  3.938796E+05  7.938657E+04 -1.270399E+05  5.779626E+03 -3.341288E+04
       187   1 -8.738791E+04 -1.559491E+05 -5.602666E+04 -1.139354E+05 -1.225960E+04  1.483562E+04
       187   2 -1.537124E+05 -3.659607E+05 -1.162369E+05 -3.556728E+04 -2.003384E+04  8.384592E+02
       187   3 -1.934692E+05 -5.682959E+05 -1.608788E+05 -1.040898E+05 -2.596795E+04 -1.313865E+04
       187   4  1.250391E+04  2.471487E+05  4.054072E+04 -1.102801E+05 -1.227661E+04  1.946326E+04
       187   5 -2.774301E+03  2.432229E+05  2.918712E+04 -3.684854E+04 -2.004496E+04  4.484234E+03
       187   6  8.675560E+03  2.470986E+05  3.407834E+04 -1.102972E+05 -2.597388E+04 -1.047931E+04
       187   7  1.123840E+05  6.503954E+05  1.370967E+05 -1.066222E+05 -1.229357E+04  2.409389E+04
       187   8  1.481369E+05  8.527469E+05  1.745851E+05 -3.813078E+04 -2.005608E+04  8.133569E+03
       187   9  2.107722E+05  1.063103E+06  2.289887E+05 -1.165122E+05 -2.597986E+04 -7.816471E+03
       187  10 -8.738813E+04 -1.559494E+05 -5.602736E+04 -1.139352E+05 -2.271358E-09  8.567290E-10
       187  11 -1.537128E+05 -3.659608E+05 -1.162377E+05 -3.556726E+04 -5.663903E-10  1.234477E-09
       187  12 -1.934699E+05 -5.682963E+05 -1.608804E+05 -1.040901E+05  3.696410E-10 -1.294387E-09
       187  13  1.250365E+04  2.471482E+05  4.053973E+04 -1.102799E+05 -1.002989E-09 -9.091364E-10
       187  14 -2.774738E+03  2.432228E+05  2.918633E+04 -3.684847E+04 -3.915779E-10 -9.377893E-10
       187  15  8.674806E+03  2.470983E+05  3.407686E+04 -1.102974E+05 -7.784625E-10 -1.531837E-09
       187  16  1.123837E+05  6.503947E+05  1.370953E+05 -1.066220E+05 -1.726052E-09 -1.350860E-09
       187  17  1.481365E+05  8.527467E+05  1.745842E+05 -3.813064E+04 -1.008377E-09 -7.720381E-10
       187  18  2.107715E+05  1.063103E+06  2.289873E+05 -1.165123E+05 -5.608541E-10  8.790498E-10
       187  19 -8.738791E+04 -1.559491E+05 -5.602666E+04 -1.139354E+05  1.225960E+04 -1.483562E+04
       187  20 -1.537124E+05 -3.659607E+05 -1.162369E+05 -3.556728E+04  2.003384E+04 -8.384592E+02
       187  21 -1.934692E+05 -5.682959E+05 -1.608788E+05 -1.040898E+05  2.596795E+04  1.313865E+04
       187  22  1.250391E+04  2.471487E+05  4.054072E+04 -1.102801E+05  1.227661E+04 -1.946326E+04
       187  23 -2.774301E+03  2.432229E+05  2.918712E+04 -3.684854E+04  2.004496E+04 -4.484234E+03
       187  24  8.675560E+03  2.470986E+05  3.407834E+04 -1.102972E+05  2.597388E+04  1.047931E+04
       187  25  1.123840E+05  6.503954E+05  1.370967E+05 -1.066222E+05  1.229357E+04 -2.409389E+04
       187  26  1.481369E+05  8.527469E+05  1.745851E+05 -3.813078E+04  2.005608E+04 -8.133569E+03
       187  27  2.107722E+05  1.063103E+06  2.289887E+05 -1.165122E+05  2.597986E+04  7.816471E+03
       188   1 -2.703359E+05 -8.274538E+05 -2.202645E+05 -1.200654E+05 -3.590079E+04 -2.951927E+04
       188   2 -3.308534E+05 -1.049100E+06 -2.554905E+05 -2.667799E+04 -4.280278E+04 -3.859831E+04
       188   3 -2.855994E+05 -1.242045E+06 -2.581443E+05 -7.995520E+04 -1.470048E+04 -4.761588E+04
       188   4 -2.846763E+03  2.522978E+05  3.738445E+04 -1.102965E+05 -3.593321E+04 -1.665868E+04
       188   5 -1.222942E+04  2.363362E+05  5.129623E+04 -3.690761E+04 -4.278505E+04 -4.424210E+04
       188   6  8.725631E+04  2.521820E+05  1.105762E+05 -1.101586E+05 -1.466400E+04 -7.176758E+04
       188   7  2.645586E+05  1.333120E+06  2.949522E+05 -1.005098E+05 -3.596520E+04 -3.775786E+03
       188   8  3.062754E+05  1.523289E+06  3.579669E+05 -4.715774E+04 -4.276715E+04 -4.989746E+04
       188   9  4.599490E+05  1.748445E+06  4.791341E+05 -1.404340E+05 -1.462523E+04 -9.597726E+04
       188  10 -2.703375E+05 -8.274551E+05 -2.202686E+05 -1.200662E+05 -3.770839E-11  4.738040E-11
       188  11 -3.308557E+05 -1.049102E+06 -2.554967E+05 -2.667933E+04  1.079479E-09  6.794055E-10
       188  12 -2.856002E+05 -1.242048E+06 -2.581490E+05 -7.995576E+04 -1.902627E-10 -4.655255E-10
       188  13 -2.848225E+03  2.522971E+05  3.738150E+04 -1.102970E+05  3.598787E-10 -7.849160E-10
       188  14 -1.223191E+04  2.363336E+05  5.128912E+04 -3.690914E+04  2.194533E-10 -4.736935E-10
       188  15  8.725470E+04  2.521764E+05  1.105661E+05 -1.101594E+05 -1.241057E-10 -5.986936E-10
       188  16  2.645572E+05  1.333119E+06  2.949497E+05 -1.005099E+05 -1.911748E-09 -3.239257E-10
       188  17  3.062727E+05  1.523286E+06  3.579588E+05 -4.715946E+04  1.375768E-09 -4.295067E-10
       188  18  4.599463E+05  1.748435E+06  4.791164E+05 -1.404352E+05  5.650800E-10  1.090992E-10
       188  19 -2.703359E+05 -8.274538E+05 -2.202645E+05 -1.200654E+05  3.590079E+04  2.951927E+04
       188  20 -3.308534E+05 -1.049100E+06 -2.554905E+05 -2.667799E+04  4.280278E+04  3.859831E+04
       188  21 -2.855994E+05 -1.242045E+06 -2.581443E+05 -7.995520E+04  1.470048E+04  4.761588E+04
       188  22 -2.846763E+03  2.522978E+05  3.738445E+04 -1.102965E+05  3.593321E+04  1.665868E+04
       188  23 -1.222942E+04  2.363362E+05  5.129623E+04 -3.690761E+04  4.278505E+04  4.424210E+04
       188  24  8.725631E+04  2.521820E+05  1.105762E+05 -1.101586E+05  1.466400E+04  7.176758E+04
       188  25  2.645586E+05  1.333120E+06  2.949522E+05 -1.005098E+05  3.596520E+04  3.775786E+03
       188  26  3.062754E+05  1.523289E+06  3.579669E+05 -4.715774E+04  4.276715E+04  4.989746E+04
       188  27  4.599490E+05  1.748445E+06  4.791341E+05 -1.404340E+05  1.462523E+04  9.597726E+04
       189   1 -3.940248E+06 -1.363209E+06 -8.866400E+05 -1.369154E+06 -3.721466E+05 -1.253338E+05
       189   2 -3.821897E+06 -8.049061E+05 -5.381772E+05 -1.396919E+06 -2.433459E+05 -4.503553E+04
       189   3 -3.869597E+06 -7.804146E+05 -4.294931E+05 -1.338874E+06 -1.031656E+05  5.258274E+03
       189   4 -2.785828E+06 -8.018707E+05 -5.470430E+05 -9.281266E+05 -3.516624E+05 -1.176685E+05
       189   5 -2.675415E+06 -3.362927E+05 -2.285130E+05 -1.046678E+06 -2.374055E+05 -4.281366E+04
       189   6 -2.727806E+06 -4.010932E+05 -1.378445E+05 -1.079520E+06 -1.117849E+05  2.012835E+03
       189   7 -1.630073E+06 -2.401777E+05 -2.075749E+05 -4.862676E+05 -3.311355E+05 -1.099767E+05
       189   8 -1.527649E+06  1.324652E+05  8.103313E+04 -6.958269E+05 -2.314526E+05 -4.058618E+04
       189   9 -1.584751E+06 -2.175998E+04  1.537000E+05 -8.197661E+05 -1.204217E+05 -1.237340E+03
       189  10 -3.940402E+06 -1.363264E+06 -8.869319E+05 -1.369192E+06 -3.605879E-12 -4.531029E-11
       189  11 -3.821961E+06 -8.049243E+05 -5.382931E+05 -1.396928E+06  2.242548E-09  1.413020E-10
       189  12 -3.869609E+06 -7.804175E+05 -4.295132E+05 -1.338873E+06  6.248617E-10  5.791979E-10
       189  13 -2.785965E+06 -8.019191E+05 -5.473027E+05 -9.281601E+05  9.731401E-10 -5.542306E-10
       189  14 -2.675476E+06 -3.363099E+05 -2.286229E+05 -1.046687E+06 -5.726222E-10 -4.839200E-10
       189  15 -2.727820E+06 -4.010966E+05 -1.378681E+05 -1.079520E+06  1.910714E-09  4.681762E-10
       189  16 -1.630194E+06 -2.402203E+05 -2.078043E+05 -4.862970E+05  7.597169E-10  1.123375E-09
       189  17 -1.527707E+06  1.324490E+05  8.092907E+04 -6.958345E+05 -1.116872E-10  2.457926E-09
       189  18 -1.584766E+06 -2.176389E+04  1.536727E+05 -8.197663E+05 -2.715535E-09  1.028992E-09
       189  19 -3.940248E+06 -1.363209E+06 -8.866400E+05 -1.369154E+06  3.721466E+05  1.253338E+05
       189  20 -3.821897E+06 -8.049061E+05 -5.381772E+05 -1.396919E+06  2.433459E+05  4.503553E+04
       189  21 -3.869597E+06 -7.804146E+05 -4.294931E+05 -1.338874E+06  1.031656E+05 -5.258274E+03
       189  22 -2.785828E+06 -8.018707E+05 -5.470430E+05 -9.281266E+05  3.516624E+05  1.176685E+05
       189  23 -2.675415E+06 -3.362927E+05 -2.285130E+05 -1.046678E+06  2.374055E+05  4.281366E+04
       189  24 -2.727806E+06 -4.010932E+05 -1.378445E+05 -1.079520E+06  1.117849E+05 -2.012835E+03
       189  25 -1.630073E+06 -2.401777E+05 -2.075749E+05 -4.862676E+05  3.311355E+05  1.099767E+05
       189  26 -1.527649E+06  1.324652E+05  8.103313E+04 -6.958269E+05  2.314526E+05  4.058618E+04
       189  27 -1.584751E+06 -2.175998E+04  1.537000E+05 -8.197661E+05  1.204217E+05  1.237340E+03
       190   1 -3.697114E+06 -8.443640E+05 -3.762893E+05 -1.331477E+06 -8.994547E+04  3.193800E+03
       190   2 -3.628626E+06 -7.345698E+05 -2.953190E+05 -1.289075E+06 -6.028068E+04  1.292262E+04
       190   3 -3.536394E+06 -7.245708E+05 -2.504647E+05 -1.286466E+06 -2.966659E+04  2.012240E+04
       190   4 -2.708364E+06 -4.594365E+05 -1.120704E+05 -1.049225E+06 -9.003286E+04  3.154624E+03
       190   5 -2.717269E+06 -3.881872E+05 -5.392997E+04 -1.037389E+06 -6.156787E+04  1.243475E+04
       190   6 -2.702165E+06 -4.164392E+05 -3.090499E+04 -1.065350E+06 -3.215833E+04  1.918505E+04
       190   7 -1.718661E+06 -7.443070E+04  1.520631E+05 -7.665579E+05 -9.012031E+04  3.115428E+03
       190   8 -1.805104E+06 -4.174950E+04  1.873875E+05 -7.853653E+05 -6.285709E+04  1.194610E+04
       190   9 -1.867261E+06 -1.082720E+05  1.885952E+05 -8.439675E+05 -3.465375E+04  1.824639E+04
       190  10 -3.697122E+06 -8.443662E+05 -3.763046E+05 -1.331476E+06  5.806757E-10  6.786274E-10
       190  11 -3.628630E+06 -7.345710E+05 -2.953262E+05 -1.289074E+06 -7.039291E-10 -9.606578E-10
       190  12 -3.536395E+06 -7.245715E+05 -2.504671E+05 -1.286465E+06 -2.275751E-10 -1.880782E-10
       190  13 -2.708373E+06 -4.594387E+05 -1.120858E+05 -1.049225E+06 -6.403233E-10 -6.273291E-10
       190  14 -2.717273E+06 -3.881884E+05 -5.393741E+04 -1.037388E+06 -1.023982E-09 -8.014679E-10
       190  15 -2.702166E+06 -4.164399E+05 -3.090763E+04 -1.065349E+06  2.552243E-10 -4.880836E-10
       190  16 -1.718670E+06 -7.443289E+04  1.520478E+05 -7.665576E+05 -4.605253E-10 -2.933542E-10
       190  17 -1.805108E+06 -4.175071E+04  1.873798E+05 -7.853647E+05 -7.891756E-10 -2.481944E-10
       190  18 -1.867262E+06 -1.082727E+05  1.885923E+05 -8.439670E+05  6.630983E-10  3.319960E-10
       190  19 -3.697114E+06 -8.443640E+05 -3.762893E+05 -1.331477E+06  8.994547E+04 -3.193800E+03
       190  20 -3.628626E+06 -7.345698E+05 -2.953190E+05 -1.289075E+06  6.028068E+04 -1.292262E+04
       190  21 -3.536394E+06 -7.245708E+05 -2.504647E+05 -1.286466E+06  2.966659E+04 -2.012240E+04
       190  22 -2.708364E+06 -4.594365E+05 -1.120704E+05 -1.049225E+06  9.003286E+04 -3.154624E+03
       190  23 -2.717269E+06 -3.881872E+05 -5.392997E+04 -1.037389E+06  6.156787E+04 -1.243475E+04
       190  24 -2.702165E+06 -4.164392E+05 -3.090499E+04 -1.065350E+06  3.215833E+04 -1.918505E+04
       190  25 -1.718661E+06 -7.443070E+04  1.520631E+05 -7.665579E+05  9.012031E+04 -3.115428E+03
       190  26 -1.805104E+06 -4.174950E+04  1.873875E+05 -7.853653E+05  6.285709E+04 -1.194610E+04
       190  27 -1.867261E+06 -1.082720E+05  1.885952E+05 -8.439675E+05  3.465375E+04 -1.824639E+04
       191   1 -3.403883E+06 -6.897981E+05 -2.102785E+05 -1.256184E+06 -2.487108E+04  1.889677E+04
       191   2 -3.334577E+06 -6.222250E+05 -1.739777E+05 -1.201156E+06 -1.687162E+04  1.740024E+04
       191   3 -3.215508E+06 -6.126077E+05 -1.439826E+05 -1.204759E+06 -8.752124E+03  1.556797E+04
       191   4 -2.698726E+06 -4.236989E+05 -2.412873E+04 -1.063318E+06 -2.674137E+04  1.819360E+04
       191   5 -2.723272E+06 -3.923891E+05 -1.255344E+04 -1.034874E+06 -1.889961E+04  1.663955E+04
       191   6 -2.698031E+06 -4.189966E+05 -7.152061E+03 -1.065063E+06 -1.093895E+04  1.474953E+04
       191   7 -1.993087E+06 -1.575695E+05  1.619776E+05 -8.702529E+05 -2.861398E+04  1.748955E+04
       191   8 -2.111604E+06 -1.625305E+05  1.488386E+05 -8.684449E+05 -2.092979E+04  1.587804E+04
       191   9 -2.180293E+06 -2.253696E+05  1.296557E+05 -9.252620E+05 -1.312779E+04  1.393034E+04
       191  10 -3.403884E+06 -6.897986E+05 -2.102803E+05 -1.256184E+06  3.396345E-10  1.606025E-10
       191  11 -3.334577E+06 -6.222254E+05 -1.739788E+05 -1.201155E+06 -1.026978E-09 -3.305195E-10
       191  12 -3.215508E+06 -6.126080E+05 -1.439832E+05 -1.204759E+06 -7.652788E-10 -1.425455E-10
       191  13 -2.698727E+06 -4.236995E+05 -2.413070E+04 -1.063317E+06 -3.275790E-10 -3.368857E-10
       191  14 -2.723272E+06 -3.923895E+05 -1.255463E+04 -1.034874E+06 -1.556136E-09 -1.292337E-09
       191  15 -2.698031E+06 -4.189969E+05 -7.152694E+03 -1.065063E+06 -1.651393E-09 -6.197294E-10
       191  16 -1.993088E+06 -1.575701E+05  1.619755E+05 -8.702525E+05 -7.361391E-10 -8.154998E-11
       191  17 -2.111604E+06 -1.625309E+05  1.488373E+05 -8.684446E+05 -1.892031E-09 -8.726284E-10
       191  18 -2.180293E+06 -2.253698E+05  1.296551E+05 -9.252619E+05 -7.153241E-10 -1.938251E-10
       191  19 -3.403883E+06 -6.897981E+05 -2.102785E+05 -1.256184E+06  2.487108E+04 -1.889677E+04
       191  20 -3.334577E+06 -6.222250E+05 -1.739777E+05 -1.201156E+06  1.687162E+04 -1.740024E+04
       191  21 -3.215508E+06 -6.126077E+05 -1.439826E+05 -1.204759E+06  8.752124E+03 -1.556797E+04
       191  22 -2.698726E+06 -4.236989E+05 -2.412873E+04 -1.063318E+06  2.674137E+04 -1.819360E+04
       191  23 -2.723272E+06 -3.923891E+05 -1.255344E+04 -1.034874E+06  1.889961E+04 -1.663955E+04
       191  24 -2.698031E+06 -4.189966E+05 -7.152061E+03 -1.065063E+06  1.093895E+04 -1.474953E+04
       191  25 -1.993087E+06 -1.575695E+05  1.619776E+05 -8.702529E+05  2.861398E+04 -1.748955E+04
       191  26 -2.111604E+06 -1.625305E+05  1.488386E+05 -8.684449E+05  2.092979E+04 -1.587804E+04
       191  27 -2.180293E+06 -2.253696E+05  1.296557E+05 -9.252620E+05  1.312779E+04 -1.393034E+04
       192   1 -3.078055E+06 -5.633373E+05 -1.057998E+05 -1.168997E+06 -6.776299E+03  1.336926E+04
       192   2 -3.004872E+06 -4.971114E+05 -7.733382E+04 -1.109705E+06 -3.383824E+03  9.594241E+03
       192   3 -2.876503E+06 -4.871389E+05 -5.032861E+04 -1.114282E+06  3.757928E+01  5.733305E+03
       192   4 -2.697041E+06 -4.203804E+05 -5.606971E+03 -1.065554E+06 -8.934999E+03  1.256220E+04
       192   5 -2.724586E+06 -3.919921E+05 -3.382855E+03 -1.033714E+06 -5.583709E+03  8.772552E+03
       192   6 -2.696948E+06 -4.198473E+05 -2.585254E+03 -1.065745E+06 -2.203824E+03  4.896937E+03
       192   7 -2.315886E+06 -2.774148E+05  9.457345E+04 -9.620539E+05 -1.109516E+04  1.175459E+04
       192   8 -2.444224E+06 -2.868684E+05  7.056126E+04 -9.576924E+05 -7.784685E+03  7.950457E+03
       192   9 -2.517362E+06 -3.525540E+05  4.515517E+04 -1.017195E+06 -4.445936E+03  4.060305E+03
       192  10 -3.078055E+06 -5.633375E+05 -1.058002E+05 -1.168997E+06 -1.546928E-09 -4.641998E-10
       192  11 -3.004872E+06 -4.971115E+05 -7.733402E+04 -1.109705E+06 -3.595998E-10  5.201472E-10
       192  12 -2.876503E+06 -4.871390E+05 -5.032867E+04 -1.114282E+06  6.443044E-10  4.149363E-10
       192  13 -2.697041E+06 -4.203806E+05 -5.607417E+03 -1.065554E+06 -1.291102E-09 -4.735109E-10
       192  14 -2.724586E+06 -3.919922E+05 -3.383058E+03 -1.033714E+06 -5.164953E-10  6.521879E-10
       192  15 -2.696948E+06 -4.198473E+05 -2.585308E+03 -1.065745E+06  1.314767E-09 -3.541688E-10
       192  16 -2.315886E+06 -2.774150E+05  9.457296E+04 -9.620538E+05  9.602446E-10  3.492548E-10
       192  17 -2.444224E+06 -2.868685E+05  7.056103E+04 -9.576923E+05  1.535686E-10  4.174879E-10
       192  18 -2.517362E+06 -3.525540E+05  4.515510E+04 -1.017195E+06  1.795348E-09 -1.045778E-09
       192  19 -3.078055E+06 -5.633373E+05 -1.057998E+05 -1.168997E+06  6.776299E+03 -1.336926E+04
       192  20 -3.004872E+06 -4.971114E+05 -7.733382E+04 -1.109705E+06  3.383824E+03 -9.594241E+03
       192  21 -2.876503E+06 -4.871389E+05 -5.032861E+04 -1.114282E+06 -3.757928E+01 -5.733305E+03
       192  22 -2.697041E+06 -4.203804E+05 -5.606971E+03 -1.065554E+06  8.934999E+03 -1.256220E+04
       192  23 -2.724586E+06 -3.919921E+05 -3.382855E+03 -1.033714E+06  5.583709E+03 -8.772552E+03
       192  24 -2.696948E+06 -4.198473E+05 -2.585254E+03 -1.065745E+06  2.203824E+03 -4.896937E+03
       192  25 -2.315886E+06 -2.774148E+05  9.457345E+04 -9.620539E+05  1.109516E+04 -1.175459E+04
       192  26 -2.444224E+06 -2.868684E+05  7.056126E+04 -9.576924E+05  7.784685E+03 -7.950457E+03
       192  27 -2.517362E+06 -3.525540E+05  4.515517E+04 -1.017195E+06  4.445936E+03 -4.060305E+03
       193   1 -2.734819E+06 -4.343125E+05 -1.220410E+04 -1.076364E+06  1.456288E+03  3.235922E+03
       193   2 -2.660512E+06 -3.676568E+05  1.384287E+04 -1.016033E+06  4.699705E+03 -7.347144E+02
       193   3 -2.530274E+06 -3.579987E+05  3.856600E+04 -1.020585E+06  7.933803E+03 -4.677438E+03
       193   4 -2.696779E+06 -4.200475E+05 -2.546125E+03 -1.065954E+06 -7.903904E+02  2.397806E+03
       193   5 -2.724766E+06 -3.917372E+05 -3.103371E+03 -1.033441E+06  2.466354E+03 -1.568071E+03
       193   6 -2.696836E+06 -4.204291E+05 -4.995024E+03 -1.065814E+06  5.713482E+03 -5.506092E+03
       193   7 -2.658737E+06 -4.057824E+05  7.111789E+03 -1.055544E+06 -3.037226E+03  1.559631E+03
       193   8 -2.789016E+06 -4.158174E+05 -2.004998E+04 -1.050846E+06  2.332548E+02 -2.401333E+03
       193   9 -2.863372E+06 -4.828579E+05 -4.855838E+04 -1.111032E+06  3.493816E+03 -6.334501E+03
       193  10 -2.734819E+06 -4.343125E+05 -1.220413E+04 -1.076364E+06  2.097623E-09  1.097846E-09
       193  11 -2.660512E+06 -3.676568E+05  1.384283E+04 -1.016033E+06 -1.132778E-10  1.523334E-09
       193  12 -2.530274E+06 -3.579987E+05  3.856584E+04 -1.020585E+06 -1.775763E-09 -8.092348E-10
       193  13 -2.696779E+06 -4.200475E+05 -2.546137E+03 -1.065954E+06  2.360958E-09 -2.400296E-10
       193  14 -2.724766E+06 -3.917372E+05 -3.103387E+03 -1.033441E+06  1.086920E-09  1.623390E-09
       193  15 -2.696837E+06 -4.204292E+05 -4.995143E+03 -1.065814E+06 -5.158159E-10  1.173707E-09
       193  16 -2.658737E+06 -4.057824E+05  7.111767E+03 -1.055544E+06  5.445385E-10 -8.613438E-10
       193  17 -2.789016E+06 -4.158174E+05 -2.004999E+04 -1.050846E+06 -1.617210E-09 -2.044364E-09
       193  18 -2.863372E+06 -4.828579E+05 -4.855848E+04 -1.111032E+06  8.330044E-10  1.728779E-09
       193  19 -2.734819E+06 -4.343125E+05 -1.220410E+04 -1.076364E+06 -1.456288E+03 -3.235922E+03
       193  20 -2.660512E+06 -3.676568E+05  1.384287E+04 -1.016033E+06 -4.699705E+03  7.347144E+02
       193  21 -2.530274E+06 -3.579987E+05  3.856600E+04 -1.020585E+06 -7.933803E+03  4.677438E+03
       193  22 -2.696779E+06 -4.200475E+05 -2.546125E+03 -1.065954E+06  7.903904E+02 -2.397806E+03
       193  23 -2.724766E+06 -3.917372E+05 -3.103371E+03 -1.033441E+06 -2.466354E+03  1.568071E+03
       193  24 -2.696836E+06 -4.204291E+05 -4.995024E+03 -1.065814E+06 -5.713482E+03  5.506092E+03
       193  25 -2.658737E+06 -4.057824E+05  7.111789E+03 -1.055544E+06  3.037226E+03 -1.559631E+03
       193  26 -2.789016E+06 -4.158174E+05 -2.004998E+04 -1.050846E+06 -2.332548E+02  2.401333E+03
       193  27 -2.863372E+06 -4.828579E+05 -4.855838E+04 -1.111032E+06 -3.493816E+03  6.334501E+03
       194   1 -2.390257E+06 -3.048519E+05  7.495525E+04 -9.830474E+05  9.884397E+03 -6.969846E+03
       194   2 -2.318152E+06 -2.393726E+05  9.601798E+04 -9.238157E+05  1.701169E+04 -9.368520E+03
       194   3 -2.193800E+06 -2.335153E+05  1.116946E+05 -9.263125E+05  2.404687E+04 -1.150523E+04
       194   4 -2.697468E+06 -4.194975E+05 -6.342015E+03 -1.065690E+06  7.630409E+03 -7.811529E+03
       194   5 -2.723876E+06 -3.917178E+05 -1.102260E+04 -1.034066E+06  1.488244E+04 -1.016477E+04
       194   6 -2.698073E+06 -4.235904E+05 -2.119077E+04 -1.064176E+06  2.204139E+04 -1.225630E+04
       194   7 -3.004586E+06 -5.341375E+05 -8.764717E+04 -1.148296E+06  5.377655E+03 -8.652756E+03
       194   8 -3.129441E+06 -5.440532E+05 -1.180773E+05 -1.144250E+06  1.275472E+04 -1.096046E+04
       194   9 -3.202101E+06 -6.136503E+05 -1.540984E+05 -1.201938E+06  2.003769E+04 -1.300670E+04
       194  10 -2.390257E+06 -3.048520E+05  7.495498E+04 -9.830473E+05 -1.175888E-09 -8.952668E-10
       194  11 -2.318152E+06 -2.393728E+05  9.601727E+04 -9.238156E+05 -3.995729E-10  1.123076E-09
       194  12 -2.193801E+06 -2.335155E+05  1.116933E+05 -9.263123E+05  6.718635E-10  3.584781E-10
       194  13 -2.697468E+06 -4.194976E+05 -6.342239E+03 -1.065690E+06  5.602263E-10  8.294427E-10
       194  14 -2.723877E+06 -3.917180E+05 -1.102321E+04 -1.034065E+06  3.483814E-11 -5.001080E-10
       194  15 -2.698074E+06 -4.235907E+05 -2.119197E+04 -1.064175E+06 -1.209354E-09 -7.150649E-10
       194  16 -3.004586E+06 -5.341375E+05 -8.764737E+04 -1.148296E+06  9.469035E-10  2.273221E-09
       194  17 -3.129441E+06 -5.440533E+05 -1.180779E+05 -1.144250E+06 -1.080062E-10  7.914702E-11
       194  18 -3.202101E+06 -6.136506E+05 -1.540995E+05 -1.201937E+06 -9.270803E-10 -1.907064E-10
       194  19 -2.390257E+06 -3.048519E+05  7.495525E+04 -9.830474E+05 -9.884397E+03  6.969846E+03
       194  20 -2.318152E+06 -2.393726E+05  9.601798E+04 -9.238157E+05 -1.701169E+04  9.368520E+03
       194  21 -2.193800E+06 -2.335153E+05  1.116946E+05 -9.263125E+05 -2.404687E+04  1.150523E+04
       194  22 -2.697468E+06 -4.194975E+05 -6.342015E+03 -1.065690E+06 -7.630409E+03  7.811529E+03
       194  23 -2.723876E+06 -3.917178E+05 -1.102260E+04 -1.034066E+06 -1.488244E+04  1.016477E+04
       194  24 -2.698073E+06 -4.235904E+05 -2.119077E+04 -1.064176E+06 -2.204139E+04  1.225630E+04
       194  25 -3.004586E+06 -5.341375E+05 -8.764717E+04 -1.148296E+06 -5.377655E+03  8.652756E+03
       194  26 -3.129441E+06 -5.440532E+05 -1.180773E+05 -1.144250E+06 -1.275472E+04  1.096046E+04
       194  27 -3.202101E+06 -6.136503E+05 -1.540984E+05 -1.201938E+06 -2.003769E+04  1.300670E+04
       195   1 -2.059923E+06 -1.817576E+05  1.413140E+05 -8.972318E+05  2.952975E+04 -1.260833E+04
       195   2 -1.992450E+06 -1.121702E+05  1.448377E+05 -8.355912E+05  5.454922E+04 -7.874862E+03
       195   3 -1.894403E+06 -1.392742E+05  1.183547E+05 -8.201049E+05  7.874496E+04 -9.162647E+02
       195   4 -2.700937E+06 -4.174035E+05 -2.713785E+04 -1.066153E+06  2.696455E+04 -1.356964E+04
       195   5 -2.718812E+06 -3.878075E+05 -4.729609E+04 -1.036017E+06  5.305149E+04 -8.438827E+03
       195   6 -2.706356E+06 -4.551570E+05 -9.833800E+04 -1.052039E+06  7.831062E+04 -1.083683E+03
       195   7 -3.341553E+06 -6.530293E+05 -1.956247E+05 -1.234919E+06  2.440226E+04 -1.452992E+04
       195   8 -3.444662E+06 -6.634099E+05 -2.394752E+05 -1.236229E+06  5.155565E+04 -9.002066E+03
       195   9 -3.517665E+06 -7.709868E+05 -3.150880E+05 -1.283694E+06  7.787684E+04 -1.250872E+03
       195  10 -2.059924E+06 -1.817580E+05  1.413120E+05 -8.972315E+05  9.226308E-11 -3.060937E-10
       195  11 -1.992453E+06 -1.121711E+05  1.448320E+05 -8.355909E+05 -3.932694E-11 -5.120463E-10
       195  12 -1.894410E+06 -1.392758E+05  1.183431E+05 -8.201049E+05 -6.964439E-10  4.156403E-10
       195  13 -2.700938E+06 -4.174039E+05 -2.713957E+04 -1.066153E+06  3.179122E-10 -4.742976E-10
       195  14 -2.718815E+06 -3.878083E+05 -4.730153E+04 -1.036016E+06 -9.992646E-11  4.338378E-10
       195  15 -2.706362E+06 -4.551587E+05 -9.834957E+04 -1.052039E+06 -6.790172E-10 -2.224701E-10
       195  16 -3.341554E+06 -6.530297E+05 -1.956262E+05 -1.234919E+06  5.534751E-10 -1.849703E-10
       195  17 -3.444664E+06 -6.634107E+05 -2.394804E+05 -1.236228E+06  1.421030E-09  4.364200E-10
       195  18 -3.517672E+06 -7.709884E+05 -3.150995E+05 -1.283694E+06  5.291698E-10  1.456117E-10
       195  19 -2.059923E+06 -1.817576E+05  1.413140E+05 -8.972318E+05 -2.952975E+04  1.260833E+04
       195  20 -1.992450E+06 -1.121702E+05  1.448377E+05 -8.355912E+05 -5.454922E+04  7.874862E+03
       195  21 -1.894403E+06 -1.392742E+05  1.183547E+05 -8.201049E+05 -7.874496E+04  9.162647E+02
       195  22 -2.700937E+06 -4.174035E+05 -2.713785E+04 -1.066153E+06 -2.696455E+04  1.356964E+04
       195  23 -2.718812E+06 -3.878075E+05 -4.729609E+04 -1.036017E+06 -5.305149E+04  8.438827E+03
       195  24 -2.706356E+06 -4.551570E+05 -9.833800E+04 -1.052039E+06 -7.831062E+04  1.083683E+03
       195  25 -3.341553E+06 -6.530293E+05 -1.956247E+05 -1.234919E+06 -2.440226E+04  1.452992E+04
       195  26 -3.444662E+06 -6.634099E+05 -2.394752E+05 -1.236229E+06 -5.155565E+04  9.002066E+03
       195  27 -3.517665E+06 -7.709868E+05 -3.150880E+05 -1.283694E+06 -7.787684E+04  1.250872E+03
       196   1 -1.752268E+06 -8.376637E+04  1.264159E+05 -8.602686E+05  1.056421E+05  2.397259E+03
       196   2 -1.688645E+06  6.303513E+04  6.740006E+04 -7.408381E+05  2.031837E+05  3.592294E+04
       196   3 -1.755059E+06 -2.627241E+05 -1.810213E+05 -5.581748E+05  2.906775E+05  9.616272E+04
       196   4 -2.723391E+06 -4.039856E+05 -1.209477E+05 -1.078630E+06  9.759658E+04 -6.207916E+02
       196   5 -2.682221E+06 -3.421721E+05 -2.004636E+05 -1.044051E+06  2.081377E+05  3.777130E+04
       196   6 -2.773964E+06 -7.559728E+05 -4.799641E+05 -9.461802E+05  3.086158E+05  1.028661E+05
       196   7 -3.693604E+06 -7.241987E+05 -3.683863E+05 -1.296707E+06  8.956480E+04 -3.635156E+03
       196   8 -3.674833E+06 -7.472706E+05 -4.684151E+05 -1.346807E+06  2.130827E+05  3.961565E+04
       196   9 -3.791825E+06 -1.248946E+06 -7.790051E+05 -1.333540E+06  3.265212E+05  1.095491E+05
       196  10 -1.752280E+06 -8.376939E+04  1.263948E+05 -8.602688E+05 -7.309354E-10 -1.351162E-10
       196  11 -1.688689E+06  6.302261E+04  6.731981E+04 -7.408440E+05  1.139806E-09 -1.249597E-09
       196  12 -1.755153E+06 -2.627568E+05 -1.811980E+05 -5.581974E+05 -8.619155E-10  1.021313E-09
       196  13 -2.723402E+06 -4.039882E+05 -1.209656E+05 -1.078630E+06 -1.736302E-09  3.312256E-10
       196  14 -2.682268E+06 -3.421854E+05 -2.005481E+05 -1.044058E+06  8.135715E-10 -1.973926E-09
       196  15 -2.774069E+06 -7.560099E+05 -4.801639E+05 -9.462059E+05  3.053264E-10 -4.193344E-10
       196  16 -3.693612E+06 -7.242009E+05 -3.684015E+05 -1.296707E+06 -7.168304E-10  4.638004E-11
       196  17 -3.674882E+06 -7.472846E+05 -4.685040E+05 -1.346814E+06 -2.259905E-09  1.172824E-09
       196  18 -3.791943E+06 -1.248988E+06 -7.792295E+05 -1.333569E+06 -1.373888E-09  1.145551E-09
       196  19 -1.752268E+06 -8.376637E+04  1.264159E+05 -8.602686E+05 -1.056421E+05 -2.397259E+03
       196  20 -1.688645E+06  6.303513E+04  6.740006E+04 -7.408381E+05 -2.031837E+05 -3.592294E+04
       196  21 -1.755059E+06 -2.627241E+05 -1.810213E+05 -5.581748E+05 -2.906775E+05 -9.616272E+04
       196  22 -2.723391E+06 -4.039856E+05 -1.209477E+05 -1.078630E+06 -9.759658E+04  6.207916E+02
       196  23 -2.682221E+06 -3.421721E+05 -2.004636E+05 -1.044051E+06 -2.081377E+05 -3.777130E+04
       196  24 -2.773964E+06 -7.559728E+05 -4.799641E+05 -9.461802E+05 -3.086158E+05 -1.028661E+05
       196  25 -3.693604E+06 -7.241987E+05 -3.683863E+05 -1.296707E+06 -8.956480E+04  3.635156E+03
       196  26 -3.674833E+06 -7.472706E+05 -4.684151E+05 -1.346807E+06 -2.130827E+05 -3.961565E+04
       196  27 -3.791825E+06 -1.248946E+06 -7.790051E+05 -1.333540E+06 -3.265212E+05 -1.095491E+05
       197   1  3.821173E+05  1.163295E+05  1.946254E+05  6.736254E+04  2.415349E+05  7.767603E+03
       197   2  3.870300E+05 -2.029619E+05  5.488979E+03  1.938053E+04  1.623985E+05  2.216248E+04
       197   3  4.920887E+05 -1.653226E+05 -4.276617E+04 -6.753215E+04  8.327983E+04  2.053035E+04
       197   4  1.096941E+06  2.939157E+05  3.705799E+05 -2.774218E+04  2.536641E+05  7.752083E+03
       197   5  1.046268E+06 -3.988685E+04  1.626083E+05 -8.014119E+03  1.659632E+05  2.215887E+04
       197   6  1.097102E+06 -1.549550E+04  1.013446E+05 -2.721411E+04  7.828849E+04  2.052892E+04
       197   7  1.812249E+06  4.714983E+05  5.465021E+05 -1.229567E+05  2.658072E+05  7.732876E+03
       197   8  1.705905E+06  1.231597E+05  3.196976E+05 -3.543811E+04  1.695316E+05  2.215495E+04
       197   9  1.702453E+06  1.343113E+05  2.454307E+05  1.314329E+04  7.329228E+04  2.052685E+04
       197  10  3.820547E+05  1.163138E+05  1.945157E+05  6.736103E+04 -6.121879E-10  5.051525E-10
       197  11  3.870016E+05 -2.029695E+05  5.438531E+03  1.937763E+04 -3.157854E-10 -6.716505E-10
       197  12  4.920811E+05 -1.653249E+05 -4.277999E+04 -6.753352E+04  1.842853E-09 -2.045081E-10
       197  13  1.096872E+06  2.938984E+05  3.704590E+05 -2.774376E+04  7.962740E-12  2.395265E-10
       197  14  1.046238E+06 -3.989476E+04  1.625557E+05 -8.017080E+03  7.470657E-10 -2.208864E-09
       197  15  1.097095E+06 -1.549759E+04  1.013323E+05 -2.721541E+04 -6.870756E-10 -1.713559E-10
       197  16  1.812173E+06  4.714794E+05  5.463696E+05 -1.229583E+05 -4.482070E-10 -9.926916E-11
       197  17  1.705874E+06  1.231515E+05  3.196428E+05 -3.544114E+04 -1.666596E-09 -2.481356E-10
       197  18  1.702448E+06  1.343094E+05  2.454199E+05  1.314207E+04 -7.692486E-10 -7.846331E-10
       197  19  3.821173E+05  1.163295E+05  1.946254E+05  6.736254E+04 -2.415349E+05 -7.767603E+03
       197  20  3.870300E+05 -2.029619E+05  5.488979E+03  1.938053E+04 -1.623985E+05 -2.216248E+04
       197  21  4.920887E+05 -1.653226E+05 -4.276617E+04 -6.753215E+04 -8.327983E+04 -2.053035E+04
       197  22  1.096941E+06  2.939157E+05  3.705799E+05 -2.774218E+04 -2.536641E+05 -7.752083E+03
       197  23  1.046268E+06 -3.988685E+04  1.626083E+05 -8.014119E+03 -1.659632E+05 -2.215887E+04
       197  24  1.097102E+06 -1.549550E+04  1.013446E+05 -2.721411E+04 -7.828849E+04 -2.052892E+04
       197  25  1.812249E+06  4.714983E+05  5.465021E+05 -1.229567E+05 -2.658072E+05 -7.732876E+03
       197  26  1.705905E+06  1.231597E+05  3.196976E+05 -3.543811E+04 -1.695316E+05 -2.215495E+04
       197  27  1.702453E+06  1.343113E+05  2.454307E+05  1.314329E+04 -7.329228E+04 -2.052685E+04
       198   1  5.401685E+05 -1.032500E+05 -4.576626E+04 -1.864458E+04  6.282443E+04  1.697073E+04
       198   2  5.862196E+05 -1.242829E+05 -7.346282E+04 -6.461522E+03  4.182604E+04  1.594792E+04
       198   3  6.444488E+05 -1.087543E+05 -7.828998E+04 -3.140239E+04  2.082557E+04  1.382932E+04
       198   4  1.077255E+06  2.972081E+04  8.256569E+04 -2.698310E+04  6.261992E+04  1.696870E+04
       198   5  1.071138E+06 -4.259652E+03  4.218214E+04 -8.409809E+03  4.102548E+04  1.594644E+04
       198   6  1.077289E+06 -1.591639E+03  2.506716E+04 -2.695818E+04  1.943071E+04  1.382834E+04
       198   7  1.614606E+06  1.626710E+05  2.108774E+05 -3.532890E+04  6.241521E+04  1.696667E+04
       198   8  1.556272E+06  1.157466E+05  1.578106E+05 -1.035966E+04  4.022428E+04  1.594496E+04
       198   9  1.510302E+06  1.055575E+05  1.284111E+05 -2.251086E+04  1.803488E+04  1.382735E+04
       198  10  5.401642E+05 -1.032514E+05 -4.577421E+04 -1.864544E+04 -4.872816E-10 -7.163066E-10
       198  11  5.862177E+05 -1.242836E+05 -7.346658E+04 -6.462059E+03 -2.157958E-09  3.022049E-10
       198  12  6.444483E+05 -1.087546E+05 -7.829115E+04 -3.140262E+04 -7.537418E-10 -4.415272E-10
       198  13  1.077251E+06  2.971945E+04  8.255780E+04 -2.698395E+04 -5.804219E-10 -4.489134E-10
       198  14  1.071136E+06 -4.260376E+03  4.217850E+04 -8.410336E+03 -2.602392E-09  4.992102E-12
       198  15  1.077289E+06 -1.591946E+03  2.506609E+04 -2.695839E+04 -2.472440E-09 -3.432531E-10
       198  16  1.614602E+06  1.626697E+05  2.108695E+05 -3.532975E+04  2.141113E-10  4.077736E-11
       198  17  1.556270E+06  1.157459E+05  1.578071E+05 -1.036017E+04 -4.148361E-10 -6.538618E-10
       198  18  1.510301E+06  1.055572E+05  1.284102E+05 -2.251107E+04 -4.207099E-10 -1.479751E-11
       198  19  5.401685E+05 -1.032500E+05 -4.576626E+04 -1.864458E+04 -6.282443E+04 -1.697073E+04
       198  20  5.862196E+05 -1.242829E+05 -7.346282E+04 -6.461522E+03 -4.182604E+04 -1.594792E+04
       198  21  6.444488E+05 -1.087543E+05 -7.828998E+04 -3.140239E+04 -2.082557E+04 -1.382932E+04
       198  22  1.077255E+06  2.972081E+04  8.256569E+04 -2.698310E+04 -6.261992E+04 -1.696870E+04
       198  23  1.071138E+06 -4.259652E+03  4.218214E+04 -8.409809E+03 -4.102548E+04 -1.594644E+04
       198  24  1.077289E+06 -1.591639E+03  2.506716E+04 -2.695818E+04 -1.943071E+04 -1.382834E+04
       198  25  1.614606E+06  1.626710E+05  2.108774E+05 -3.532890E+04 -6.241521E+04 -1.696667E+04
       198  26  1.556272E+06  1.157466E+05  1.578106E+05 -1.035966E+04 -4.022428E+04 -1.594496E+04
       198  27  1.510302E+06  1.055575E+05  1.284111E+05 -2.251086E+04 -1.803488E+04 -1.382735E+04
       199   1  7.074780E+05 -8.800755E+04 -6.792023E+04 -2.615812E+04  1.653184E+04  1.242831E+04
       199   2  7.570132E+05 -7.895770E+04 -6.486348E+04 -8.702814E+03  1.117537E+04  1.039851E+04
       199   3  8.082902E+05 -6.617947E+04 -5.736660E+04 -2.716768E+04  5.817088E+03  8.311971E+03
       199   4  1.074962E+06  2.919463E+03  1.958948E+04 -2.669833E+04  1.548074E+04  1.242758E+04
       199   5  1.074096E+06 -4.813087E+02  1.075304E+04 -8.738635E+03  1.009134E+04  1.039811E+04
       199   6  1.074973E+06 -1.493274E+02  6.377446E+03 -2.669792E+04  4.700558E+03  8.311907E+03
       199   7  1.442569E+06  9.383675E+04  1.070897E+05 -2.723887E+04  1.442902E+04  1.242685E+04
       199   8  1.391270E+06  7.798783E+04  8.636251E+04 -8.774475E+03  9.006761E+03  1.039770E+04
       199   9  1.341721E+06  6.587568E+04  7.011649E+04 -2.622797E+04  3.583550E+03  8.311841E+03
       199  10  7.074777E+05 -8.800779E+04 -6.792103E+04 -2.615829E+04 -1.142525E-09 -2.165867E-10
       199  11  7.570131E+05 -7.895785E+04 -6.486392E+04 -8.702907E+03 -9.952660E-10 -2.618641E-10
       199  12  8.082902E+05 -6.617955E+04 -5.736679E+04 -2.716771E+04 -2.868628E-10  4.560603E-10
       199  13  1.074962E+06  2.919233E+03  1.958874E+04 -2.669849E+04 -2.659874E-09 -2.606829E-10
       199  14  1.074096E+06 -4.814521E+02  1.075265E+04 -8.738720E+03 -1.411138E-09 -1.745917E-10
       199  15  1.074973E+06 -1.494075E+02  6.377275E+03 -2.669796E+04 -1.326292E-09  3.210676E-10
       199  16  1.442569E+06  9.383652E+04  1.070891E+05 -2.723901E+04 -3.482866E-10 -3.293266E-10
       199  17  1.391270E+06  7.798770E+04  8.636215E+04 -8.774551E+03  3.505877E-11 -3.888109E-10
       199  18  1.341721E+06  6.587560E+04  7.011633E+04 -2.622799E+04 -1.321769E-09  2.293193E-10
       199  19  7.074780E+05 -8.800755E+04 -6.792023E+04 -2.615812E+04 -1.653184E+04 -1.242831E+04
       199  20  7.570132E+05 -7.895770E+04 -6.486348E+04 -8.702814E+03 -1.117537E+04 -1.039851E+04
       199  21  8.082902E+05 -6.617947E+04 -5.736660E+04 -2.716768E+04 -5.817088E+03 -8.311971E+03
       199  22  1.074962E+06  2.919463E+03  1.958948E+04 -2.669833E+04 -1.548074E+04 -1.242758E+04
       199  23  1.074096E+06 -4.813087E+02  1.075304E+04 -8.738635E+03 -1.009134E+04 -1.039811E+04
       199  24  1.074973E+06 -1.493274E+02  6.377446E+03 -2.669792E+04 -4.700558E+03 -8.311907E+03
       199  25  1.442569E+06  9.383675E+04  1.070897E+05 -2.723887E+04 -1.442902E+04 -1.242685E+04
       199  26  1.391270E+06  7.798783E+04  8.636251E+04 -8.774475E+03 -9.006761E+03 -1.039770E+04
       199  27  1.341721E+06  6.587568E+04  7.011649E+04 -2.622797E+04 -3.583550E+03 -8.311841E+03
       200   1  8.716174E+05 -4.994288E+04 -4.328683E+04 -2.651158E+04  4.767993E+03  7.094116E+03
       200   2  9.208740E+05 -3.807799E+04 -3.357221E+04 -8.935214E+03  3.243535E+03  5.036246E+03
       200   3  9.704340E+05 -2.580254E+04 -2.276375E+04 -2.656127E+04  1.718313E+03  2.984009E+03
       200   4  1.074660E+06  2.757089E+02  4.980456E+03 -2.653863E+04  3.679355E+03  7.094210E+03
       200   5  1.074512E+06 -5.702319E+01  3.063466E+03 -8.937730E+03  2.157391E+03  5.036491E+03
       200   6  1.074664E+06  2.042185E+01  2.238415E+03 -2.653871E+04  6.347832E+02  2.984413E+03
       200   7  1.277741E+06  5.049133E+04  5.324486E+04 -2.656568E+04  2.590362E+03  7.094304E+03
       200   8  1.228172E+06  3.796224E+04  3.969749E+04 -8.940244E+03  1.070980E+03  5.036736E+03
       200   9  1.178905E+06  2.584259E+04  2.723982E+04 -2.651615E+04 -4.489270E+02  2.984818E+03
       200  10  8.716173E+05 -4.994294E+04 -4.328696E+04 -2.651161E+04  1.321411E-09  1.966167E-10
       200  11  9.208740E+05 -3.807802E+04 -3.357228E+04 -8.935228E+03  2.791508E-10 -2.641322E-10
       200  12  9.704339E+05 -2.580255E+04 -2.276378E+04 -2.656127E+04  5.677942E-11  7.264867E-10
       200  13  1.074660E+06  2.756512E+02  4.980336E+03 -2.653865E+04 -2.559681E-09  3.940146E-10
       200  14  1.074512E+06 -5.705169E+01  3.063410E+03 -8.937739E+03  1.583125E-10 -5.851685E-10
       200  15  1.074664E+06  2.041217E+01  2.238397E+03 -2.653871E+04 -8.017566E-10  1.426755E-10
       200  16  1.277741E+06  5.049128E+04  5.324476E+04 -2.656569E+04 -1.754096E-09 -6.504988E-11
       200  17  1.228172E+06  3.796221E+04  3.969744E+04 -8.940248E+03 -1.584059E-09 -2.413861E-10
       200  18  1.178905E+06  2.584259E+04  2.723980E+04 -2.651615E+04  9.885617E-10 -1.504574E-10
       200  19  8.716174E+05 -4.994288E+04 -4.328683E+04 -2.651158E+04 -4.767993E+03 -7.094116E+03
       200  20  9.208740E+05 -3.807799E+04 -3.357221E+04 -8.935214E+03 -3.243535E+03 -5.036246E+03
       200  21  9.704340E+05 -2.580254E+04 -2.276375E+04 -2.656127E+04 -1.718313E+03 -2.984009E+03
       200  22  1.074660E+06  2.757089E+02  4.980456E+03 -2.653863E+04 -3.679355E+03 -7.094210E+03
       200  23  1.074512E+06 -5.702319E+01  3.063466E+03 -8.937730E+03 -2.157391E+03 -5.036491E+03
       200  24  1.074664E+06  2.042185E+01  2.238415E+03 -2.653871E+04 -6.347832E+02 -2.984413E+03
       200  25  1.277741E+06  5.049133E+04  5.324486E+04 -2.656568E+04 -2.590362E+03 -7.094304E+03
       200  26  1.228172E+06  3.796224E+04  3.969749E+04 -8.940244E+03 -1.070980E+03 -5.036736E+03
       200  27  1.178905E+06  2.584259E+04  2.723982E+04 -2.651615E+04  4.489270E+02 -2.984818E+03
       201   1  1.033220E+06 -1.018695E+04 -7.639206E+03 -2.645716E+04  1.324842E+03  1.792231E+03
       201   2  1.082230E+06  1.869446E+03  4.086128E+03 -8.993500E+03  2.030273E+02 -2.519355E+02
       201   3  1.131424E+06  1.420433E+04  1.660274E+04 -2.650991E+04 -9.188258E+02 -2.292569E+03
       201   4  1.074641E+06  3.299208E+01  2.087682E+03 -2.648943E+04  2.429715E+02  1.792685E+03
       201   5  1.074549E+06 -3.101619E+01  2.254923E+03 -8.999341E+03 -8.770152E+02 -2.514936E+02
       201   6  1.074640E+06  1.835029E+02  3.212512E+03 -2.648936E+04 -1.996953E+03 -2.292131E+03
       201   7  1.116063E+06  1.025281E+04  1.181446E+04 -2.652169E+04 -8.389707E+02  1.793140E+03
       201   8  1.066869E+06 -1.931482E+03  4.237180E+02 -9.005181E+03 -1.957044E+03 -2.510518E+02
       201   9  1.017860E+06 -1.383755E+04 -1.017793E+04 -2.646881E+04 -3.074981E+03 -2.291694E+03
       201  10  1.033220E+06 -1.018695E+04 -7.639215E+03 -2.645717E+04  4.855029E-10  5.317319E-10
       201  11  1.082230E+06  1.869445E+03  4.086127E+03 -8.993500E+03 -7.071186E-10 -1.597234E-10
       201  12  1.131424E+06  1.420432E+04  1.660273E+04 -2.650991E+04 -7.783031E-10  1.137125E-10
       201  13  1.074641E+06  3.298862E+01  2.087675E+03 -2.648943E+04  6.895906E-10  8.414372E-10
       201  14  1.074549E+06 -3.101646E+01  2.254921E+03 -8.999341E+03 -4.381466E-10  3.507374E-10
       201  15  1.074640E+06  1.834962E+02  3.212495E+03 -2.648936E+04  4.211731E-10 -4.163672E-10
       201  16  1.116063E+06  1.025281E+04  1.181445E+04 -2.652169E+04 -6.923953E-10  1.641530E-10
       201  17  1.066869E+06 -1.931483E+03  4.237107E+02 -9.005182E+03 -2.429101E-09  1.784936E-10
       201  18  1.017860E+06 -1.383756E+04 -1.017796E+04 -2.646881E+04  6.048444E-10  5.642216E-11
       201  19  1.033220E+06 -1.018695E+04 -7.639206E+03 -2.645716E+04 -1.324842E+03 -1.792231E+03
       201  20  1.082230E+06  1.869446E+03  4.086128E+03 -8.993500E+03 -2.030273E+02  2.519355E+02
       201  21  1.131424E+06  1.420433E+04  1.660274E+04 -2.650991E+04  9.188258E+02  2.292569E+03
       201  22  1.074641E+06  3.299208E+01  2.087682E+03 -2.648943E+04 -2.429715E+02 -1.792685E+03
       201  23  1.074549E+06 -3.101619E+01  2.254923E+03 -8.999341E+03  8.770152E+02  2.514936E+02
       201  24  1.074640E+06  1.835029E+02  3.212512E+03 -2.648936E+04  1.996953E+03  2.292131E+03
       201  25  1.116063E+06  1.025281E+04  1.181446E+04 -2.652169E+04  8.389707E+02 -1.793140E+03
       201  26  1.066869E+06 -1.931482E+03  4.237180E+02 -9.005181E+03  1.957044E+03  2.510518E+02
       201  27  1.017860E+06 -1.383755E+04 -1.017793E+04 -2.646881E+04  3.074981E+03  2.291694E+03
       202   1  1.194462E+06  2.956298E+04  3.265583E+04 -2.628980E+04 -1.546201E+03 -3.492414E+03
       202   2  1.243447E+06  4.157165E+04  4.683292E+04 -8.992301E+03 -4.837661E+03 -5.543795E+03
       202   3  1.293431E+06  5.582412E+04  6.371149E+04 -2.693879E+04 -8.128722E+03 -7.544410E+03
       202   4  1.074817E+06 -7.004887E+01  3.983216E+03 -2.654831E+04 -2.644554E+03 -3.492029E+03
       202   5  1.074318E+06 -2.746625E+02  6.511694E+03 -8.925809E+03 -5.908415E+03 -5.543597E+03
       202   6  1.074811E+06  1.760151E+03  1.172309E+04 -2.654786E+04 -9.171618E+03 -7.544387E+03
       202   7  9.551850E+05 -2.970412E+04 -2.469040E+04 -2.680676E+04 -3.742696E+03 -3.491644E+03
       202   8  9.052156E+05 -4.212304E+04 -3.381154E+04 -8.859333E+03 -6.978878E+03 -5.543399E+03
       202   9  8.562344E+05 -5.230725E+04 -4.026864E+04 -2.615707E+04 -1.021415E+04 -7.544365E+03
       202  10  1.194462E+06  2.956297E+04  3.265580E+04 -2.628981E+04  4.544712E-10  2.577259E-10
       202  11  1.243447E+06  4.157162E+04  4.683282E+04 -8.992323E+03 -1.044335E-09 -2.823863E-10
       202  12  1.293431E+06  5.582404E+04  6.371126E+04 -2.693884E+04 -1.412052E-09  4.419868E-10
       202  13  1.074817E+06 -7.006385E+01  3.983180E+03 -2.654832E+04  3.372069E-10 -1.941716E-10
       202  14  1.074318E+06 -2.747048E+02  6.511571E+03 -8.925836E+03  1.626411E-09 -7.540662E-10
       202  15  1.074811E+06  1.760068E+03  1.172283E+04 -2.654792E+04  1.020452E-09  1.732290E-10
       202  16  9.551850E+05 -2.970414E+04 -2.469045E+04 -2.680677E+04  3.252771E-10  3.530168E-10
       202  17  9.052155E+05 -4.212309E+04 -3.381169E+04 -8.859365E+03  3.506274E-10 -6.179408E-10
       202  18  8.562342E+05 -5.230734E+04 -4.026894E+04 -2.615714E+04  2.255967E-09 -3.624140E-10
       202  19  1.194462E+06  2.956298E+04  3.265583E+04 -2.628980E+04  1.546201E+03  3.492414E+03
       202  20  1.243447E+06  4.157165E+04  4.683292E+04 -8.992301E+03  4.837661E+03  5.543795E+03
       202  21  1.293431E+06  5.582412E+04  6.371149E+04 -2.693879E+04  8.128722E+03  7.544410E+03
       202  22  1.074817E+06 -7.004887E+01  3.983216E+03 -2.654831E+04  2.644554E+03  3.492029E+03
       202  23  1.074318E+06 -2.746625E+02  6.511694E+03 -8.925809E+03  5.908415E+03  5.543597E+03
       202  24  1.074811E+06  1.760151E+03  1.172309E+04 -2.654786E+04  9.171618E+03  7.544387E+03
       202  25  9.551850E+05 -2.970412E+04 -2.469040E+04 -2.680676E+04  3.742696E+03  3.491644E+03
       202  26  9.052156E+05 -4.212304E+04 -3.381154E+04 -8.859333E+03  6.978878E+03  5.543399E+03
       202  27  8.562344E+05 -5.230725E+04 -4.026864E+04 -2.615707E+04  1.021415E+04  7.544365E+03
       203   1  1.358612E+06  6.897126E+04  8.242429E+04 -2.415748E+04 -1.022106E+04 -8.877663E+03
       203   2  1.405509E+06  7.984575E+04  1.045047E+05 -9.995848E+03 -2.355640E+04 -1.093144E+04
       203   3  1.459737E+06  1.126280E+05  1.407547E+05 -3.182462E+04 -3.689183E+04 -1.211917E+04
       203   4  1.076195E+06 -9.254680E+02  1.496920E+04 -2.671316E+04 -1.153298E+04 -8.877739E+03
       203   5  1.072558E+06 -2.524558E+03  2.514076E+04 -8.719380E+03 -2.440415E+04 -1.093195E+04
       203   6  1.076174E+06  1.771055E+04  4.916609E+04 -2.671690E+04 -3.727432E+04 -1.212007E+04
       203   7  7.938519E+05 -7.082793E+04 -5.249150E+04 -2.926768E+04 -1.284432E+04 -8.877804E+03
       203   8  7.397084E+05 -8.490285E+04 -5.423091E+04 -7.443599E+03 -2.525144E+04 -1.093247E+04
       203   9  6.927453E+05 -7.721741E+04 -4.243288E+04 -2.161235E+04 -3.765657E+04 -1.212098E+04
       203  10  1.358612E+06  6.897115E+04  8.242395E+04 -2.415755E+04 -1.258556E-10  3.501348E-10
       203  11  1.405508E+06  7.984547E+04  1.045034E+05 -9.996055E+03 -2.305682E-09 -4.387590E-10
       203  12  1.459736E+06  1.126275E+05  1.407519E+05 -3.182498E+04  1.420431E-10 -6.280030E-10
       203  13  1.076195E+06 -9.255884E+02  1.496880E+04 -2.671324E+04 -6.735361E-11  2.313808E-10
       203  14  1.072557E+06 -2.524846E+03  2.513942E+04 -8.719594E+03 -8.669823E-10  1.373148E-10
       203  15  1.076172E+06  1.771002E+04  4.916321E+04 -2.671727E+04  6.524302E-10 -3.673581E-10
       203  16  7.938517E+05 -7.082806E+04 -5.249196E+04 -2.926777E+04  4.985601E-10  4.850805E-11
       203  17  7.397077E+05 -8.490315E+04 -5.423233E+04 -7.443822E+03 -1.174624E-09  4.836589E-10
       203  18  6.927437E+05 -7.721794E+04 -4.243582E+04 -2.161272E+04  5.500099E-11  2.707563E-10
       203  19  1.358612E+06  6.897126E+04  8.242429E+04 -2.415748E+04  1.022106E+04  8.877663E+03
       203  20  1.405509E+06  7.984575E+04  1.045047E+05 -9.995848E+03  2.355640E+04  1.093144E+04
       203  21  1.459737E+06  1.126280E+05  1.407547E+05 -3.182462E+04  3.689183E+04  1.211917E+04
       203  22  1.076195E+06 -9.254680E+02  1.496920E+04 -2.671316E+04  1.153298E+04  8.877739E+03
       203  23  1.072558E+06 -2.524558E+03  2.514076E+04 -8.719380E+03  2.440415E+04  1.093195E+04
       203  24  1.076174E+06  1.771055E+04  4.916609E+04 -2.671690E+04  3.727432E+04  1.212007E+04
       203  25  7.938519E+05 -7.082793E+04 -5.249150E+04 -2.926768E+04  1.284432E+04  8.877804E+03
       203  26  7.397084E+05 -8.490285E+04 -5.423091E+04 -7.443599E+03  2.525144E+04  1.093247E+04
       203  27  6.927453E+05 -7.721741E+04 -4.243288E+04 -2.161235E+04  3.765657E+04  1.212098E+04
       204   1  1.537214E+06  1.019192E+05  1.672883E+05 -3.048008E+03 -4.246299E+04 -1.513009E+04
       204   2  1.558944E+06  1.002012E+05  2.161753E+05 -2.494323E+04 -1.013624E+05 -1.673153E+04
       204   3  1.642195E+06  3.128176E+05  3.569908E+05 -8.393606E+04 -1.602771E+05 -5.735506E+03
       204   4  1.087993E+06 -9.207305E+03  6.034170E+04 -2.691371E+04 -4.660422E+04 -1.513088E+04
       204   5  1.057738E+06 -2.374206E+04  9.679706E+04 -8.447413E+03 -9.880545E+04 -1.673334E+04
       204   6  1.087890E+06  1.749843E+05  2.205871E+05 -2.707571E+04 -1.510165E+05 -5.741500E+03
       204   7  6.389566E+05 -1.203462E+05 -4.661872E+04 -5.076212E+04 -5.074247E+04 -1.513135E+04
       204   8  5.567616E+05 -1.477024E+05 -2.259866E+04  8.035018E+03 -9.625056E+04 -1.673502E+04
       204   9  5.338704E+05  3.714034E+04  8.416284E+04  2.973385E+04 -1.417640E+05 -5.745810E+03
       204  10  1.537212E+06  1.019185E+05  1.672845E+05 -3.048525E+03 -9.597746E-10 -3.553517E-10
       204  11  1.558933E+06  1.001981E+05  2.161556E+05 -2.494460E+04 -3.368020E-11  2.706365E-10
       204  12  1.642168E+06  3.128107E+05  3.569426E+05 -8.393680E+04  1.680571E-10  6.263885E-10
       204  13  1.087990E+06 -9.208133E+03  6.033719E+04 -2.691428E+04 -1.830749E-09 -9.753037E-10
       204  14  1.057727E+06 -2.374498E+04  9.677822E+04 -8.448744E+03  1.708267E-09  2.373277E-10
       204  15  1.087865E+06  1.749781E+05  2.205443E+05 -2.707641E+04  8.249069E-10 -2.667458E-10
       204  16  6.389538E+05 -1.203472E+05 -4.662398E+04 -5.076274E+04  2.919524E-10 -1.791318E-10
       204  17  5.567516E+05 -1.477052E+05 -2.261658E+04  8.033721E+03  6.880275E-10 -2.650429E-10
       204  18  5.338489E+05  3.713492E+04  8.412504E+04  2.973320E+04 -1.268087E-09  8.591751E-10
       204  19  1.537214E+06  1.019192E+05  1.672883E+05 -3.048008E+03  4.246299E+04  1.513009E+04
       204  20  1.558944E+06  1.002012E+05  2.161753E+05 -2.494323E+04  1.013624E+05  1.673153E+04
       204  21  1.642195E+06  3.128176E+05  3.569908E+05 -8.393606E+04  1.602771E+05  5.735506E+03
       204  22  1.087993E+06 -9.207305E+03  6.034170E+04 -2.691371E+04  4.660422E+04  1.513088E+04
       204  23  1.057738E+06 -2.374206E+04  9.679706E+04 -8.447413E+03  9.880545E+04  1.673334E+04
       204  24  1.087890E+06  1.749843E+05  2.205871E+05 -2.707571E+04  1.510165E+05  5.741500E+03
       204  25  6.389566E+05 -1.203462E+05 -4.661872E+04 -5.076212E+04  5.074247E+04  1.513135E+04
       204  26  5.567616E+05 -1.477024E+05 -2.259866E+04  8.035018E+03  9.625056E+04  1.673502E+04
       204  27  5.338704E+05  3.714034E+04  8.416284E+04  2.973385E+04  1.417640E+05  5.745810E+03
       205   1  5.746794E+05  1.696441E+06  5.585642E+05 -5.998043E+05  2.085441E+04  1.825640E+05
       205   2  3.811183E+05  1.188214E+06  3.393284E+05 -5.237163E+05  6.407938E+04  7.088348E+04
       205   3  2.452803E+05  7.088029E+05  2.070679E+05 -5.452352E+05  5.979515E+04 -4.079648E+04
       205   4  8.069919E+04 -3.006612E+05  8.573564E+04 -5.448347E+05  2.124756E+04  5.749331E+04
       205   5  2.299900E+04 -3.070246E+05  4.407327E+04 -4.961444E+05  6.420916E+04  3.501837E+04
       205   6  7.651003E+03 -3.001901E+05  2.759294E+04 -5.450532E+05  5.961861E+04  1.245129E+04
       205   7 -4.135484E+05 -2.294065E+06 -3.873099E+05 -4.900383E+05  2.161940E+04 -6.717823E+04
       205   8 -3.352528E+05 -1.800121E+06 -2.512864E+05 -4.686377E+05  6.433596E+04 -7.623580E+02
       205   9 -2.300329E+05 -1.308184E+06 -1.519096E+05 -5.448703E+05  5.944193E+04  6.561508E+04
       205  10  5.746700E+05  1.696405E+06  5.585009E+05 -5.998074E+05 -2.120570E-10 -1.012614E-09
       205  11  3.811125E+05  1.188208E+06  3.393113E+05 -5.237200E+05 -9.284276E-10 -4.003829E-09
       205  12  2.452760E+05  7.088001E+05  2.070581E+05 -5.452333E+05  6.137978E-10 -2.639855E-09
       205  13  8.069782E+04 -3.006649E+05  8.572857E+04 -5.448357E+05  8.362797E-10  1.008328E-09
       205  14  2.299424E+04 -3.070270E+05  4.406321E+04 -4.961462E+05 -1.298601E-09  1.710594E-09
       205  15  7.647144E+03 -3.001912E+05  2.758596E+04 -5.450538E+05  3.525704E-10 -1.758674E-09
       205  16 -4.135501E+05 -2.294070E+06 -3.873193E+05 -4.900371E+05  5.913830E-10  5.768372E-10
       205  17 -3.352572E+05 -1.800122E+06 -2.512942E+05 -4.686376E+05  2.496444E-09  1.696904E-09
       205  18 -2.300379E+05 -1.308189E+06 -1.519244E+05 -5.448734E+05 -2.238503E-09 -3.319375E-10
       205  19  5.746794E+05  1.696441E+06  5.585642E+05 -5.998043E+05 -2.085441E+04 -1.825640E+05
       205  20  3.811183E+05  1.188214E+06  3.393284E+05 -5.237163E+05 -6.407938E+04 -7.088348E+04
       205  21  2.452803E+05  7.088029E+05  2.070679E+05 -5.452352E+05 -5.979515E+04  4.079648E+04
       205  22  8.069919E+04 -3.006612E+05  8.573564E+04 -5.448347E+05 -2.124756E+04 -5.749331E+04
       205  23  2.299900E+04 -3.070246E+05  4.407327E+04 -4.961444E+05 -6.420916E+04 -3.501837E+04
       205  24  7.651003E+03 -3.001901E+05  2.759294E+04 -5.450532E+05 -5.961861E+04 -1.245129E+04
       205  25 -4.135484E+05 -2.294065E+06 -3.873099E+05 -4.900383E+05 -2.161940E+04  6.717823E+04
       205  26 -3.352528E+05 -1.800121E+06 -2.512864E+05 -4.686377E+05 -6.433596E+04  7.623580E+02
       205  27 -2.300329E+05 -1.308184E+06 -1.519096E+05 -5.448703E+05 -5.944193E+04 -6.561508E+04
       206   1  1.702634E+05  3.882894E+05  1.457337E+05 -5.500486E+05  4.170533E+04 -4.206449E+04
       206   2  5.089660E+04 -1.065229E+05  5.309284E+04 -4.956957E+05  1.431824E+04 -5.431875E+04
       206   3 -6.176621E+04 -5.984486E+05 -3.008172E+04 -5.419949E+05 -1.396946E+04 -6.657007E+04
       206   4  7.680461E+03 -3.024973E+05  2.369028E+04 -5.457120E+05  4.152937E+04  8.450803E+03
       206   5  5.048166E+03 -3.036428E+05  2.101262E+04 -4.953848E+05  1.413326E+04 -2.130266E+03
       206   6  8.840997E+03 -3.024321E+05  2.663851E+04 -5.457086E+05 -1.416386E+04 -1.271750E+04
       206   7 -1.549272E+05 -9.928122E+05 -9.836112E+04 -5.413799E+05  4.135399E+04  5.891156E+04
       206   8 -4.080079E+04 -5.007184E+05 -1.105845E+04 -4.950739E+05  1.394829E+04  5.004222E+04
       206   9  7.944462E+04 -6.324819E+03  8.336564E+04 -5.494241E+05 -1.435885E+04  4.116016E+04
       206  10  1.702610E+05  3.882870E+05  1.457271E+05 -5.500472E+05  7.148276E-10 -1.064539E-09
       206  11  5.089559E+04 -1.065261E+05  5.308691E+04 -4.956951E+05  8.814247E-10 -4.831463E-09
       206  12 -6.176761E+04 -5.984534E+05 -3.009042E+04 -5.419956E+05  4.623547E-10 -2.878498E-09
       206  13  7.678589E+03 -3.024979E+05  2.368690E+04 -5.457123E+05  2.580679E-11  1.281343E-09
       206  14  5.047950E+03 -3.036429E+05  2.101224E+04 -4.953848E+05 -3.517695E-09  1.754886E-09
       206  15  8.840738E+03 -3.024323E+05  2.663782E+04 -5.457087E+05  3.266995E-10 -1.250577E-09
       206  16 -1.549300E+05 -9.928164E+05 -9.837087E+04 -5.413818E+05 -9.494545E-10  6.279401E-11
       206  17 -4.080167E+04 -5.007212E+05 -1.106352E+04 -4.950745E+05 -1.534913E-09  1.658762E-09
       206  18  7.944395E+04 -6.326693E+03  8.336207E+04 -5.494236E+05  1.060429E-09 -1.601375E-10
       206  19  1.702634E+05  3.882894E+05  1.457337E+05 -5.500486E+05 -4.170533E+04  4.206449E+04
       206  20  5.089660E+04 -1.065229E+05  5.309284E+04 -4.956957E+05 -1.431824E+04  5.431875E+04
       206  21 -6.176621E+04 -5.984486E+05 -3.008172E+04 -5.419949E+05  1.396946E+04  6.657007E+04
       206  22  7.680461E+03 -3.024973E+05  2.369028E+04 -5.457120E+05 -4.152937E+04 -8.450803E+03
       206  23  5.048166E+03 -3.036428E+05  2.101262E+04 -4.953848E+05 -1.413326E+04  2.130266E+03
       206  24  8.840997E+03 -3.024321E+05  2.663851E+04 -5.457086E+05  1.416386E+04  1.271750E+04
       206  25 -1.549272E+05 -9.928122E+05 -9.836112E+04 -5.413799E+05 -4.135399E+04 -5.891156E+04
       206  26 -4.080079E+04 -5.007184E+05 -1.105845E+04 -4.950739E+05 -1.394829E+04 -5.004222E+04
       206  27  7.944462E+04 -6.324819E+03  8.336564E+04 -5.494241E+05  1.435885E+04 -4.116016E+04
       207   1 -1.365114E+05 -9.128083E+05 -8.102435E+04 -5.465723E+05 -3.270977E+04 -7.320796E+04
       207   2 -2.366190E+05 -1.407740E+06 -1.683852E+05 -4.634511E+05 -4.346161E+04 -2.847625E+04
       207   3 -2.969928E+05 -1.898769E+06 -2.750981E+05 -4.786119E+05 -1.549947E+04  1.630491E+04
       207   4  8.891389E+03 -2.994087E+05  3.223560E+04 -5.452006E+05 -3.290777E+04 -1.725210E+04
       207   5  2.830204E+04 -3.076835E+05  5.385856E+04 -4.959373E+05 -4.339891E+04 -4.489724E+04
       207   6  9.998515E+04 -2.997506E+05  1.064156E+05 -5.449183E+05 -1.521251E+04 -7.245773E+04
       207   7  1.542744E+05  3.143629E+05  1.454917E+05 -5.438272E+05 -3.310539E+04  3.875768E+04
       207   8  2.931518E+05  7.935303E+05  2.760414E+05 -5.284810E+05 -4.333457E+04 -6.134677E+04
       207   9  4.967979E+05  1.301644E+06  4.877813E+05 -6.113939E+05 -1.490700E+04 -1.614483E+05
       207  10 -1.365140E+05 -9.128144E+05 -8.103646E+04 -5.465742E+05  1.476855E-09 -4.875753E-10
       207  11 -2.366213E+05 -1.407741E+06 -1.683903E+05 -4.634521E+05  2.679124E-09 -3.701698E-09
       207  12 -2.969931E+05 -1.898770E+06 -2.750990E+05 -4.786117E+05  2.820049E-10 -2.469859E-09
       207  13  8.890145E+03 -2.994093E+05  3.223300E+04 -5.452011E+05  2.443334E-09  1.595871E-09
       207  14  2.829947E+04 -3.076861E+05  5.385123E+04 -4.959389E+05 -3.482467E-09  1.552997E-09
       207  15  9.998349E+04 -2.997563E+05  1.064053E+05 -5.449192E+05  2.696682E-10 -1.261244E-09
       207  16  1.542728E+05  3.143610E+05  1.454868E+05 -5.438261E+05 -1.461053E-09  1.886546E-10
       207  17  2.931488E+05  7.935258E+05  2.760308E+05 -5.284831E+05  7.523604E-10  5.355059E-10
       207  18  4.967907E+05  1.301616E+06  4.877319E+05 -6.113959E+05  4.914643E-10 -3.591981E-10
       207  19 -1.365114E+05 -9.128083E+05 -8.102435E+04 -5.465723E+05  3.270977E+04  7.320796E+04
       207  20 -2.366190E+05 -1.407740E+06 -1.683852E+05 -4.634511E+05  4.346161E+04  2.847625E+04
       207  21 -2.969928E+05 -1.898769E+06 -2.750981E+05 -4.786119E+05  1.549947E+04 -1.630491E+04
       207  22  8.891389E+03 -2.994087E+05  3.223560E+04 -5.452006E+05  3.290777E+04  1.725210E+04
       207  23  2.830204E+04 -3.076835E+05  5.385856E+04 -4.959373E+05  4.339891E+04  4.489724E+04
       207  24  9.998515E+04 -2.997506E+05  1.064156E+05 -5.449183E+05  1.521251E+04  7.245773E+04
       207  25  1.542744E+05  3.143629E+05  1.454917E+05 -5.438272E+05  3.310539E+04 -3.875768E+04
       207  26  2.931518E+05  7.935303E+05  2.760414E+05 -5.284810E+05  4.333457E+04  6.134677E+04
       207  27  4.967979E+05  1.301644E+06  4.877813E+05 -6.113939E+05  1.490700E+04  1.614483E+05
       208   1 -2.435980E+06 -9.438099E+05 -4.977195E+05 -9.196284E+05 -1.809719E+05 -3.792934E+04
       208   2 -2.284599E+06 -8.273166E+05 -3.534365E+05 -8.667150E+05 -1.156210E+05  5.708928E+04
       208   3 -2.133939E+06 -7.657507E+05 -2.836557E+05 -8.349684E+05 -3.299472E+04  1.064333E+05
       208   4 -6.543649E+05 -2.555455E+05 -3.606035E+04 -4.121766E+05 -3.342907E+04  1.766039E+04
       208   5 -6.599018E+05 -2.221959E+05 -1.690524E+04 -4.067552E+05 -4.781172E+04  8.259362E+04
       208   6 -6.502879E+05 -2.278888E+05 -8.843486E+03 -4.225174E+05 -4.497068E+04  1.019000E+05
       208   7  1.130346E+06  4.329694E+05  4.254118E+05  9.661282E+04  1.145748E+05  7.343506E+04
       208   8  9.675098E+05  3.831696E+05  3.195031E+05  5.432639E+04  2.018864E+04  1.081724E+05
       208   9  8.356974E+05  3.101851E+05  2.658918E+05 -9.141305E+03 -5.697752E+04  9.735522E+04
       208  10 -2.436016E+06 -9.438203E+05 -4.977840E+05 -9.196339E+05 -2.209604E-10 -2.209341E-10
       208  11 -2.284614E+06 -8.273237E+05 -3.534678E+05 -8.667097E+05 -5.234679E-11  2.519167E-10
       208  12 -2.133943E+06 -7.657632E+05 -2.836790E+05 -8.349656E+05 -7.308941E-10  8.726644E-10
       208  13 -6.543662E+05 -2.555461E+05 -3.606304E+04 -4.121761E+05  1.031351E-09  1.208183E-10
       208  14 -6.599061E+05 -2.222039E+05 -1.692235E+04 -4.067520E+05  2.138462E-10  1.749613E-09
       208  15 -6.502929E+05 -2.279004E+05 -8.866789E+03 -4.225137E+05 -1.057608E-09  3.004867E-11
       208  16  1.130331E+06  4.329601E+05  4.253771E+05  9.660605E+04  2.672793E-10 -6.776848E-10
       208  17  9.675062E+05  3.831569E+05  3.194803E+05  5.432463E+04  1.326700E-09 -1.089357E-09
       208  18  8.356914E+05  3.101741E+05  2.658679E+05 -9.136840E+03  3.051277E-10 -4.182984E-10
       208  19 -2.435980E+06 -9.438099E+05 -4.977195E+05 -9.196284E+05  1.809719E+05  3.792934E+04
       208  20 -2.284599E+06 -8.273166E+05 -3.534365E+05 -8.667150E+05  1.156210E+05 -5.708928E+04
       208  21 -2.133939E+06 -7.657507E+05 -2.836557E+05 -8.349684E+05  3.299472E+04 -1.064333E+05
       208  22 -6.543649E+05 -2.555455E+05 -3.606035E+04 -4.121766E+05  3.342907E+04 -1.766039E+04
       208  23 -6.599018E+05 -2.221959E+05 -1.690524E+04 -4.067552E+05  4.781172E+04 -8.259362E+04
       208  24 -6.502879E+05 -2.278888E+05 -8.843486E+03 -4.225174E+05  4.497068E+04 -1.019000E+05
       208  25  1.130346E+06  4.329694E+05  4.254118E+05  9.661282E+04 -1.145748E+05 -7.343506E+04
       208  26  9.675098E+05  3.831696E+05  3.195031E+05  5.432639E+04 -2.018864E+04 -1.081724E+05
       208  27  8.356974E+05  3.101851E+05  2.658918E+05 -9.141305E+03  5.697752E+04 -9.735522E+04
       209   1 -2.028362E+06 -7.298241E+05 -2.594116E+05 -8.082366E+05 -3.535794E+04  9.996999E+04
       209   2 -1.884812E+06 -6.580282E+05 -2.208718E+05 -7.511021E+05 -2.415316E+04  9.740357E+04
       209   3 -1.718462E+06 -6.131495E+05 -1.895603E+05 -7.218209E+05 -1.140818E+04  9.072080E+04
       209   4 -6.487173E+05 -2.284288E+05 -6.656628E+03 -4.226339E+05 -4.213999E+04  9.739461E+04
       209   5 -6.606294E+05 -2.148332E+05 -3.523634E+03 -4.089951E+05 -3.812222E+04  9.213372E+04
       209   6 -6.483407E+05 -2.267238E+05 -1.908397E+03 -4.232147E+05 -3.256836E+04  8.276021E+04
       209   7  7.329311E+05  2.731477E+05  2.460289E+05 -3.623037E+04 -4.893819E+04  9.481317E+04
       209   8  5.651324E+05  2.285047E+05  2.137748E+05 -6.625821E+04 -5.212065E+04  8.685284E+04
       209   9  4.229840E+05  1.598092E+05  1.857069E+05 -1.241294E+05 -5.376726E+04  7.478512E+04
       209  10 -2.028366E+06 -7.298351E+05 -2.594328E+05 -8.082338E+05  1.008535E-09  1.234296E-09
       209  11 -1.884815E+06 -6.580386E+05 -2.208907E+05 -7.511002E+05  1.237281E-09  3.454456E-10
       209  12 -1.718464E+06 -6.131584E+05 -1.895760E+05 -7.218200E+05 -1.792986E-09  5.106704E-10
       209  13 -6.487217E+05 -2.284394E+05 -6.677781E+03 -4.226306E+05 -2.747293E-10 -7.432021E-10
       209  14 -6.606332E+05 -2.148427E+05 -3.542309E+03 -4.089922E+05 -2.428955E-09  8.878699E-11
       209  15 -6.483436E+05 -2.267314E+05 -1.923255E+03 -4.232125E+05 -2.092840E-09 -2.842048E-11
       209  16  7.329261E+05  2.731374E+05  2.460075E+05 -3.622663E+04 -3.396251E-10 -2.817305E-10
       209  17  5.651274E+05  2.284959E+05  2.137555E+05 -6.625457E+04 -1.541647E-09  4.361611E-10
       209  18  4.229794E+05  1.598024E+05  1.856909E+05 -1.241262E+05  3.822224E-10 -3.863966E-10
       209  19 -2.028362E+06 -7.298241E+05 -2.594116E+05 -8.082366E+05  3.535794E+04 -9.996999E+04
       209  20 -1.884812E+06 -6.580282E+05 -2.208718E+05 -7.511021E+05  2.415316E+04 -9.740357E+04
       209  21 -1.718462E+06 -6.131495E+05 -1.895603E+05 -7.218209E+05  1.140818E+04 -9.072080E+04
       209  22 -6.487173E+05 -2.284288E+05 -6.656628E+03 -4.226339E+05  4.213999E+04 -9.739461E+04
       209  23 -6.606294E+05 -2.148332E+05 -3.523634E+03 -4.089951E+05  3.812222E+04 -9.213372E+04
       209  24 -6.483407E+05 -2.267238E+05 -1.908397E+03 -4.232147E+05  3.256836E+04 -8.276021E+04
       209  25  7.329311E+05  2.731477E+05  2.460289E+05 -3.623037E+04  4.893819E+04 -9.481317E+04
       209  26  5.651324E+05  2.285047E+05  2.137748E+05 -6.625821E+04  5.212065E+04 -8.685284E+04
       209  27  4.229840E+05  1.598092E+05  1.857069E+05 -1.241294E+05  5.376726E+04 -7.478512E+04
       210   1 -1.617531E+06 -5.766460E+05 -1.704923E+05 -6.938645E+05 -8.914800E+03  8.352322E+04
       210   2 -1.474338E+06 -5.077886E+05 -1.424558E+05 -6.362155E+05 -3.322919E+03  7.189102E+04
       210   3 -1.306395E+06 -4.639242E+05 -1.152317E+05 -6.069531E+05  2.402936E+03  5.987910E+04
       210   4 -6.481823E+05 -2.267375E+05 -1.444555E+03 -4.232610E+05 -2.962637E+04  7.573669E+04
       210   5 -6.605415E+05 -2.141716E+05 -8.156700E+02 -4.090936E+05 -2.469835E+04  6.386300E+04
       210   6 -6.480522E+05 -2.264693E+05 -4.763242E+02 -4.233212E+05 -1.963676E+04  5.160978E+04
       210   7  3.221748E+05  1.232669E+05  1.675794E+05 -1.522587E+05 -5.037266E+04  6.793714E+04
       210   8  1.539628E+05  7.951213E+04  1.408078E+05 -1.816913E+05 -4.610377E+04  5.582373E+04
       210   9  1.075141E+04  1.102830E+04  1.142681E+05 -2.395067E+05 -4.170138E+04  4.333112E+04
       210  10 -1.617533E+06 -5.766535E+05 -1.705055E+05 -6.938639E+05 -1.466382E-09  2.776484E-10
       210  11 -1.474339E+06 -5.077942E+05 -1.424656E+05 -6.362153E+05  7.609753E-09  2.561876E-09
       210  12 -1.306396E+06 -4.639281E+05 -1.152385E+05 -6.069532E+05  8.142328E-09  1.764269E-09
       210  13 -6.481848E+05 -2.267439E+05 -1.456978E+03 -4.232592E+05  2.415921E-09  1.144000E-09
       210  14 -6.605432E+05 -2.141761E+05 -8.244769E+02 -4.090923E+05  6.754268E-09  2.240192E-09
       210  15 -6.480534E+05 -2.264722E+05 -4.820518E+02 -4.233204E+05  2.541433E-09  1.198523E-09
       210  16  3.221709E+05  1.232613E+05  1.675660E+05 -1.522559E+05  8.021407E-09  1.930728E-09
       210  17  1.539597E+05  7.950821E+04  1.407980E+05 -1.816893E+05  6.823285E-09  2.542395E-09
       210  18  1.074904E+04  1.102582E+04  1.142613E+05 -2.395053E+05 -2.130405E-09  7.876145E-10
       210  19 -1.617531E+06 -5.766460E+05 -1.704923E+05 -6.938645E+05  8.914800E+03 -8.352322E+04
       210  20 -1.474338E+06 -5.077886E+05 -1.424558E+05 -6.362155E+05  3.322919E+03 -7.189102E+04
       210  21 -1.306395E+06 -4.639242E+05 -1.152317E+05 -6.069531E+05 -2.402936E+03 -5.987910E+04
       210  22 -6.481823E+05 -2.267375E+05 -1.444555E+03 -4.232610E+05  2.962637E+04 -7.573669E+04
       210  23 -6.605415E+05 -2.141716E+05 -8.156700E+02 -4.090936E+05  2.469835E+04 -6.386300E+04
       210  24 -6.480522E+05 -2.264693E+05 -4.763242E+02 -4.233212E+05  1.963676E+04 -5.160978E+04
       210  25  3.221748E+05  1.232669E+05  1.675794E+05 -1.522587E+05  5.037266E+04 -6.793714E+04
       210  26  1.539628E+05  7.951213E+04  1.408078E+05 -1.816913E+05  4.610377E+04 -5.582373E+04
       210  27  1.075141E+04  1.102830E+04  1.142681E+05 -2.395067E+05  4.170138E+04 -4.333112E+04
       211   1 -1.205586E+06 -4.274090E+05 -9.682661E+04 -5.789079E+05  5.199072E+03  5.255267E+04
       211   2 -1.062114E+06 -3.587590E+05 -7.002260E+04 -5.211619E+05  1.014511E+04  4.003768E+04
       211   3 -8.937498E+05 -3.149876E+05 -4.337705E+04 -4.918963E+05  1.510033E+04  2.748599E+04
       211   4 -6.480165E+05 -2.264467E+05 -3.917251E+02 -4.233397E+05 -1.681199E+04  4.429762E+04
       211   5 -6.604264E+05 -2.139553E+05 -3.123030E+02 -4.091073E+05 -1.193174E+04  3.176194E+04
       211   6 -6.479585E+05 -2.263317E+05 -3.415035E+02 -4.233645E+05 -7.042336E+03  1.918947E+04
       211   7 -9.012116E+04 -2.545571E+04  9.603457E+04 -2.676419E+05 -3.884390E+04  3.603476E+04
       211   8 -2.585667E+05 -6.913553E+04  6.939529E+04 -2.969846E+05 -3.402381E+04  2.348048E+04
       211   9 -4.020996E+05 -1.376687E+05  4.269498E+04 -3.548064E+05 -2.919457E+04  1.088936E+04
       211  10 -1.205587E+06 -4.274120E+05 -9.683185E+04 -5.789082E+05 -4.900774E-10 -5.345600E-10
       211  11 -1.062114E+06 -3.587608E+05 -7.002580E+04 -5.211622E+05 -2.222118E-10  3.033155E-10
       211  12 -8.937502E+05 -3.149885E+05 -4.337890E+04 -4.918966E+05  7.265193E-10 -1.329445E-10
       211  13 -6.480173E+05 -2.264489E+05 -3.959420E+02 -4.233391E+05 -6.942717E-10  5.611944E-10
       211  14 -6.604268E+05 -2.139565E+05 -3.144654E+02 -4.091070E+05 -1.093933E-09  8.355085E-10
       211  15 -6.479586E+05 -2.263321E+05 -3.422883E+02 -4.233644E+05 -9.229680E-10  5.543506E-10
       211  16 -9.012312E+04 -2.545751E+04  9.602930E+04 -2.676408E+05 -5.839915E-10  1.759418E-09
       211  17 -2.585681E+05 -6.913643E+04  6.939208E+04 -2.969839E+05  1.353583E-09  1.235849E-09
       211  18 -4.021005E+05 -1.376690E+05  4.269316E+04 -3.548062E+05 -1.504663E-09  1.395959E-09
       211  19 -1.205586E+06 -4.274090E+05 -9.682661E+04 -5.789079E+05 -5.199072E+03 -5.255267E+04
       211  20 -1.062114E+06 -3.587590E+05 -7.002260E+04 -5.211619E+05 -1.014511E+04 -4.003768E+04
       211  21 -8.937498E+05 -3.149876E+05 -4.337705E+04 -4.918963E+05 -1.510033E+04 -2.748599E+04
       211  22 -6.480165E+05 -2.264467E+05 -3.917251E+02 -4.233397E+05  1.681199E+04 -4.429762E+04
       211  23 -6.604264E+05 -2.139553E+05 -3.123030E+02 -4.091073E+05  1.193174E+04 -3.176194E+04
       211  24 -6.479585E+05 -2.263317E+05 -3.415035E+02 -4.233645E+05  7.042336E+03 -1.918947E+04
       211  25 -9.012116E+04 -2.545571E+04  9.603457E+04 -2.676419E+05  3.884390E+04 -3.603476E+04
       211  26 -2.585667E+05 -6.913553E+04  6.939529E+04 -2.969846E+05  3.402381E+04 -2.348048E+04
       211  27 -4.020996E+05 -1.376687E+05  4.269498E+04 -3.548064E+05  2.919457E+04 -1.088936E+04
       212   1 -7.928155E+05 -2.784802E+05 -2.512686E+04 -4.638290E+05  1.792638E+04  2.014558E+04
       212   2 -6.491807E+05 -2.098850E+05  1.313620E+03 -4.060552E+05  2.294824E+04  7.614429E+03
       212   3 -4.806733E+05 -1.661690E+05  2.754411E+04 -3.767926E+05  2.796141E+04 -4.893703E+03
       212   4 -6.479557E+05 -2.263215E+05 -4.033548E+02 -4.233732E+05 -4.221082E+03  1.184838E+04
       212   5 -6.603750E+05 -2.138672E+05 -6.482055E+02 -4.091167E+05  8.382773E+02 -6.688146E+02
       212   6 -6.479553E+05 -2.263022E+05 -1.134325E+03 -4.233814E+05  5.888861E+03 -1.316298E+04
       212   7 -5.030726E+05 -1.741603E+05  2.432167E+04 -3.829082E+05 -2.637403E+04  3.549113E+03
       212   8 -6.715681E+05 -2.178490E+05 -2.607920E+03 -4.121778E+05 -2.127114E+04 -8.951859E+03
       212   9 -8.152047E+05 -2.864316E+05 -2.981096E+04 -4.699578E+05 -1.617714E+04 -2.142981E+04
       212  10 -7.928159E+05 -2.784807E+05 -2.512823E+04 -4.638293E+05  1.167394E-08  3.168200E-09
       212  11 -6.491813E+05 -2.098852E+05  1.312520E+03 -4.060553E+05 -2.497558E-08 -9.744401E-09
       212  12 -4.806742E+05 -1.661693E+05  2.754259E+04 -3.767925E+05 -5.254830E-08 -2.004535E-08
       212  13 -6.479558E+05 -2.263216E+05 -4.036520E+02 -4.233731E+05 -1.697429E-09 -3.890383E-10
       212  14 -6.603750E+05 -2.138672E+05 -6.482077E+02 -4.091167E+05 -7.601301E-09 -2.665971E-09
       212  15 -6.479554E+05 -2.263024E+05 -1.134715E+03 -4.233814E+05 -5.749153E-09 -2.736076E-09
       212  16 -5.030733E+05 -1.741605E+05  2.432033E+04 -3.829082E+05 -1.612656E-08 -3.589168E-09
       212  17 -6.715686E+05 -2.178492E+05 -2.608923E+03 -4.121780E+05  1.005244E-08  5.438731E-09
       212  18 -8.152051E+05 -2.864322E+05 -2.981232E+04 -4.699580E+05  4.165146E-08  1.431870E-08
       212  19 -7.928155E+05 -2.784802E+05 -2.512686E+04 -4.638290E+05 -1.792638E+04 -2.014558E+04
       212  20 -6.491807E+05 -2.098850E+05  1.313620E+03 -4.060552E+05 -2.294824E+04 -7.614429E+03
       212  21 -4.806733E+05 -1.661690E+05  2.754411E+04 -3.767926E+05 -2.796141E+04  4.893703E+03
       212  22 -6.479557E+05 -2.263215E+05 -4.033548E+02 -4.233732E+05  4.221082E+03 -1.184838E+04
       212  23 -6.603750E+05 -2.138672E+05 -6.482055E+02 -4.091167E+05 -8.382773E+02  6.688146E+02
       212  24 -6.479553E+05 -2.263022E+05 -1.134325E+03 -4.233814E+05 -5.888861E+03  1.316298E+04
       212  25 -5.030726E+05 -1.741603E+05  2.432167E+04 -3.829082E+05  2.637403E+04 -3.549113E+03
       212  26 -6.715681E+05 -2.178490E+05 -2.607920E+03 -4.121778E+05  2.127114E+04  8.951859E+03
       212  27 -8.152047E+05 -2.864316E+05 -2.981096E+04 -4.699578E+05  1.617714E+04  2.142981E+04
       213   1 -3.797067E+05 -1.296821E+05  4.550674E+04 -3.487319E+05  3.096479E+04 -1.215093E+04
       213   2 -2.360872E+05 -6.113054E+04  7.114910E+04 -2.909365E+05  3.648527E+04 -2.430262E+04
       213   3 -6.770044E+04 -1.751576E+04  9.614985E+04 -2.616104E+05  4.189940E+04 -3.615813E+04
       213   4 -6.480030E+05 -2.263008E+05 -1.502776E+03 -4.233896E+05  8.861529E+03 -2.043297E+04
       213   5 -6.603626E+05 -2.139047E+05 -2.723349E+03 -4.091117E+05  1.489561E+04 -3.239636E+04
       213   6 -6.480857E+05 -2.265529E+05 -4.995124E+03 -4.233159E+05  2.082306E+04 -4.406350E+04
       213   7 -9.162249E+05 -3.229133E+05 -4.851321E+04 -4.980176E+05 -1.323179E+04 -2.871129E+04
       213   8 -1.084449E+06 -3.666620E+05 -7.659987E+04 -5.272117E+05 -6.678470E+03 -4.048427E+04
       213   9 -1.228114E+06 -4.355573E+05 -1.061485E+05 -5.848800E+05 -2.323137E+02 -5.196103E+04
       213  10 -3.797077E+05 -1.296825E+05  4.550466E+04 -3.487316E+05  5.175086E-08  1.854480E-08
       213  11 -2.360887E+05 -6.113153E+04  7.114549E+04 -2.909358E+05  6.279428E-10 -1.380420E-09
       213  12 -6.770267E+04 -1.751763E+04  9.614410E+04 -2.616091E+05 -5.513506E-08 -2.218602E-08
       213  13 -6.480032E+05 -2.263013E+05 -1.503708E+03 -4.233894E+05 -2.622906E-09 -2.141831E-09
       213  14 -6.603631E+05 -2.139059E+05 -2.725737E+03 -4.091113E+05  9.190856E-11 -1.754263E-09
       213  15 -6.480867E+05 -2.265551E+05 -4.999586E+03 -4.233152E+05 -8.824005E-10 -1.910280E-09
       213  16 -9.162253E+05 -3.229143E+05 -4.851509E+04 -4.980179E+05 -5.481222E-08 -2.291502E-08
       213  17 -1.084449E+06 -3.666638E+05 -7.660304E+04 -5.272119E+05 -1.104472E-09 -2.161312E-09
       213  18 -1.228114E+06 -4.355602E+05 -1.061535E+05 -5.848800E+05  5.182978E-08  1.805293E-08
       213  19 -3.797067E+05 -1.296821E+05  4.550674E+04 -3.487319E+05 -3.096479E+04  1.215093E+04
       213  20 -2.360872E+05 -6.113054E+04  7.114910E+04 -2.909365E+05 -3.648527E+04  2.430262E+04
       213  21 -6.770044E+04 -1.751576E+04  9.614985E+04 -2.616104E+05 -4.189940E+04  3.615813E+04
       213  22 -6.480030E+05 -2.263008E+05 -1.502776E+03 -4.233896E+05 -8.861529E+03  2.043297E+04
       213  23 -6.603626E+05 -2.139047E+05 -2.723349E+03 -4.091117E+05 -1.489561E+04  3.239636E+04
       213  24 -6.480857E+05 -2.265529E+05 -4.995124E+03 -4.233159E+05 -2.082306E+04  4.406350E+04
       213  25 -9.162249E+05 -3.229133E+05 -4.851321E+04 -4.980176E+05  1.323179E+04  2.871129E+04
       213  26 -1.084449E+06 -3.666620E+05 -7.659987E+04 -5.272117E+05  6.678470E+03  4.048427E+04
       213  27 -1.228114E+06 -4.355573E+05 -1.061485E+05 -5.848800E+05  2.323137E+02  5.196103E+04
       214   1  3.334072E+04  1.879893E+04  1.130443E+05 -2.339374E+05  4.587543E+04 -4.286014E+04
       214   2  1.758377E+05  8.777055E+04  1.365551E+05 -1.746707E+05  5.034682E+04 -5.328209E+04
       214   3  3.421905E+05  1.298148E+05  1.591000E+05 -1.430022E+05  5.360744E+04 -6.046001E+04
       214   4 -6.484415E+05 -2.265020E+05 -6.659185E+03 -4.234051E+05  2.443693E+04 -5.090476E+04
       214   5 -6.601972E+05 -2.150155E+05 -1.223617E+04 -4.086660E+05  3.458441E+04 -5.920508E+04
       214   6 -6.492476E+05 -2.315879E+05 -2.328098E+04 -4.215373E+05  4.352006E+04 -6.425898E+04
       214   7 -1.329724E+06 -4.717557E+05 -1.263733E+05 -6.126766E+05  3.023717E+03 -5.893997E+04
       214   8 -1.495494E+06 -5.177334E+05 -1.610494E+05 -6.423668E+05  1.884460E+04 -6.511955E+04
       214   9 -1.639664E+06 -5.928994E+05 -2.057008E+05 -6.996599E+05  3.344976E+04 -6.805145E+04
       214  10  3.333797E+04  1.879639E+04  1.130369E+05 -2.339358E+05  4.212093E-08  1.518820E-08
       214  11  1.758342E+05  8.776683E+04  1.365450E+05 -1.746685E+05  1.820506E-08  7.305102E-09
       214  12  3.421864E+05  1.298101E+05  1.590877E+05 -1.429996E+05 -8.162967E-09 -2.572515E-09
       214  13 -6.484429E+05 -2.265049E+05 -6.665174E+03 -4.234041E+05 -2.662659E-09 -1.699248E-09
       214  14 -6.601994E+05 -2.150196E+05 -1.224500E+04 -4.086644E+05  1.506293E-09 -1.011468E-10
       214  15 -6.492507E+05 -2.315929E+05 -2.329230E+04 -4.215351E+05  5.345287E-10  5.736448E-10
       214  16 -1.329725E+06 -4.717595E+05 -1.263799E+05 -6.126765E+05 -4.598642E-08 -1.843639E-08
       214  17 -1.495495E+06 -5.177381E+05 -1.610580E+05 -6.423658E+05 -1.798898E-08 -7.292579E-09
       214  18 -1.639667E+06 -5.929046E+05 -2.057116E+05 -6.996580E+05  8.502258E-09  4.387968E-09
       214  19  3.334072E+04  1.879893E+04  1.130443E+05 -2.339374E+05 -4.587543E+04  4.286014E+04
       214  20  1.758377E+05  8.777055E+04  1.365551E+05 -1.746707E+05 -5.034682E+04  5.328209E+04
       214  21  3.421905E+05  1.298148E+05  1.591000E+05 -1.430022E+05 -5.360744E+04  6.046001E+04
       214  22 -6.484415E+05 -2.265020E+05 -6.659185E+03 -4.234051E+05 -2.443693E+04  5.090476E+04
       214  23 -6.601972E+05 -2.150155E+05 -1.223617E+04 -4.086660E+05 -3.458441E+04  5.920508E+04
       214  24 -6.492476E+05 -2.315879E+05 -2.328098E+04 -4.215373E+05 -4.352006E+04  6.425898E+04
       214  25 -1.329724E+06 -4.717557E+05 -1.263733E+05 -6.126766E+05 -3.023717E+03  5.893997E+04
       214  26 -1.495494E+06 -5.177334E+05 -1.610494E+05 -6.423668E+05 -1.884460E+04  6.511955E+04
       214  27 -1.639664E+06 -5.928994E+05 -2.057008E+05 -6.996599E+05 -3.344976E+04  6.805145E+04
       215   1  4.460868E+05  1.629881E+05  1.727069E+05 -1.217332E+05  6.325619E+04 -6.301523E+04
       215   2  5.657787E+05  2.406722E+05  1.990019E+05 -2.821209E+04  2.712470E+04 -6.525187E+04
       215   3  6.946603E+05  2.483132E+05  2.362203E+05  5.389345E+04 -2.257182E+04 -3.148015E+04
       215   4 -6.532675E+05 -2.308484E+05 -3.096761E+04 -4.227958E+05  4.904576E+04 -6.836537E+04
       215   5 -6.585136E+05 -2.380702E+05 -5.902573E+04 -3.988889E+05  7.606929E+04 -4.687651E+04
       215   6 -6.671437E+05 -3.279254E+05 -1.262354E+05 -3.864031E+05  8.951916E+04  1.066393E+04
       215   7 -1.751357E+06 -6.245805E+05 -2.346874E+05 -7.233656E+05  3.486220E+04 -7.370573E+04
       215   8 -1.881250E+06 -7.166233E+05 -3.171227E+05 -7.688663E+05  1.249098E+05 -2.854631E+04
       215   9 -2.027082E+06 -9.038821E+05 -4.887941E+05 -8.257620E+05  2.013400E+05  5.267656E+04
       215  10  4.460815E+05  1.629827E+05  1.726920E+05 -1.217300E+05  1.019569E-09  1.419675E-09
       215  11  5.657768E+05  2.406674E+05  1.989925E+05 -2.821066E+04  8.058385E-10  7.711305E-10
       215  12  6.946595E+05  2.483120E+05  2.362175E+05  5.389288E+04 -2.179607E-10  3.675413E-10
       215  13 -6.532713E+05 -2.308540E+05 -3.098090E+04 -4.227931E+05  6.347614E-10  1.188346E-10
       215  14 -6.585204E+05 -2.380741E+05 -5.904073E+04 -3.988860E+05 -1.565913E-09  1.487772E-09
       215  15 -6.671523E+05 -3.279277E+05 -1.262507E+05 -3.864038E+05  3.863015E-10  1.177640E-10
       215  16 -1.751360E+06 -6.245867E+05 -2.346999E+05 -7.233636E+05 -2.165921E-09  2.327475E-10
       215  17 -1.881267E+06 -7.166284E+05 -3.171536E+05 -7.688634E+05 -4.543966E-10 -6.253957E-10
       215  18 -2.027126E+06 -9.038960E+05 -4.888758E+05 -8.257706E+05 -1.207162E-09  4.620968E-10
       215  19  4.460868E+05  1.629881E+05  1.727069E+05 -1.217332E+05 -6.325619E+04  6.301523E+04
       215  20  5.657787E+05  2.406722E+05  1.990019E+05 -2.821209E+04 -2.712470E+04  6.525187E+04
       215  21  6.946603E+05  2.483132E+05  2.362203E+05  5.389345E+04  2.257182E+04  3.148015E+04
       215  22 -6.532675E+05 -2.308484E+05 -3.096761E+04 -4.227958E+05 -4.904576E+04  6.836537E+04
       215  23 -6.585136E+05 -2.380702E+05 -5.902573E+04 -3.988889E+05 -7.606929E+04  4.687651E+04
       215  24 -6.671437E+05 -3.279254E+05 -1.262354E+05 -3.864031E+05 -8.951916E+04 -1.066393E+04
       215  25 -1.751357E+06 -6.245805E+05 -2.346874E+05 -7.233656E+05 -3.486220E+04  7.370573E+04
       215  26 -1.881250E+06 -7.166233E+05 -3.171227E+05 -7.688663E+05 -1.249098E+05  2.854631E+04
       215  27 -2.027082E+06 -9.038821E+05 -4.887941E+05 -8.257620E+05 -2.013400E+05 -5.267656E+04
       216   1 -5.728706E+05 -1.885317E+05 -1.564801E+05 -7.401487E+04  8.555351E+03  1.809890E+04
       216   2 -4.250708E+05 -2.504128E+05 -1.501130E+05 -1.103809E+05  2.603136E+04  5.976058E+04
       216   3 -2.617310E+05 -2.419551E+05 -1.375261E+05 -1.763125E+05  4.354779E+04  6.963868E+04
       216   4  8.065750E+05  1.516601E+05  1.662590E+05 -1.711311E+05  1.163579E+05  1.817841E+04
       216   5  7.937677E+05  3.960516E+04  8.171230E+04 -1.563139E+05  7.432922E+04  5.977725E+04
       216   6  8.067540E+05  8.128626E+03  4.466286E+04 -1.710515E+05  3.233899E+04  6.962400E+04
       216   7  2.187820E+06  4.917588E+05  4.889175E+05 -2.684648E+05  2.243984E+05  1.822413E+04
       216   8  2.014048E+06  3.295453E+05  3.134809E+05 -2.023394E+05  1.227196E+05  5.978676E+04
       216   9  1.876362E+06  2.581519E+05  2.268146E+05 -1.657812E+05  2.111148E+04  6.960915E+04
       216  10 -5.728708E+05 -1.885320E+05 -1.564809E+05 -7.401500E+04  1.326914E-09 -7.349268E-10
       216  11 -4.250725E+05 -2.504168E+05 -1.501210E+05 -1.103822E+05 -1.672109E-09  8.063626E-10
       216  12 -2.617344E+05 -2.419608E+05 -1.375387E+05 -1.763150E+05 -3.254572E-09 -5.270442E-11
       216  13  8.065604E+05  1.516561E+05  1.662330E+05 -1.711328E+05  5.914522E-10  7.050289E-10
       216  14  7.937608E+05  3.959983E+04  8.169521E+04 -1.563175E+05 -2.582313E-11  2.132702E-10
       216  15  8.067515E+05  8.123138E+03  4.465178E+04 -1.710534E+05  1.090253E-09 -3.104992E-10
       216  16  2.187766E+06  4.917450E+05  4.888226E+05 -2.684681E+05  3.665401E-10  5.471311E-10
       216  17  2.014031E+06  3.295374E+05  3.134459E+05 -2.023453E+05  2.650535E-09  4.292201E-11
       216  18  1.876360E+06  2.581466E+05  2.268046E+05 -1.657824E+05  1.442727E-09  1.097601E-09
       216  19 -5.728706E+05 -1.885317E+05 -1.564801E+05 -7.401487E+04 -8.555351E+03 -1.809890E+04
       216  20 -4.250708E+05 -2.504128E+05 -1.501130E+05 -1.103809E+05 -2.603136E+04 -5.976058E+04
       216  21 -2.617310E+05 -2.419551E+05 -1.375261E+05 -1.763125E+05 -4.354779E+04 -6.963868E+04
       216  22  8.065750E+05  1.516601E+05  1.662590E+05 -1.711311E+05 -1.163579E+05 -1.817841E+04
       216  23  7.937677E+05  3.960516E+04  8.171230E+04 -1.563139E+05 -7.432922E+04 -5.977725E+04
       216  24  8.067540E+05  8.128626E+03  4.466286E+04 -1.710515E+05 -3.233899E+04 -6.962400E+04
       216  25  2.187820E+06  4.917588E+05  4.889175E+05 -2.684648E+05 -2.243984E+05 -1.822413E+04
       216  26  2.014048E+06  3.295453E+05  3.134809E+05 -2.023394E+05 -1.227196E+05 -5.978676E+04
       216  27  1.876362E+06  2.581519E+05  2.268146E+05 -1.657812E+05 -2.111148E+04 -6.960915E+04
       217   1 -1.661134E+05 -2.179333E+05 -1.285896E+05 -1.679794E+05  3.579147E+04  6.523775E+04
       217   2 -1.189139E+04 -1.872176E+05 -1.130182E+05 -1.545104E+05  3.267615E+04  5.865138E+04
       217   3  1.438615E+05 -1.524920E+05 -9.438853E+04 -1.726262E+05  2.955677E+04  4.880604E+04
       217   4  8.016260E+05  8.019990E+03  3.376282E+04 -1.715163E+05  2.654499E+04  6.522569E+04
       217   5  8.003895E+05  1.471570E+03  1.848702E+04 -1.557251E+05  1.731618E+04  5.864175E+04
       217   6  8.017163E+05 -9.375149E+00  1.050539E+04 -1.715156E+05  8.084105E+03  4.880101E+04
       217   7  1.770289E+06  2.339244E+05  1.960863E+05 -1.750588E+05  1.728455E+04  6.521375E+04
       217   8  1.613325E+06  1.901275E+05  1.499750E+05 -1.569415E+05  1.936810E+03  5.863219E+04
       217   9  1.460002E+06  1.524518E+05  1.153898E+05 -1.704038E+05 -1.341049E+04  4.879590E+04
       217  10 -1.661159E+05 -2.179383E+05 -1.286001E+05 -1.679813E+05 -3.746623E-10 -8.426868E-11
       217  11 -1.189346E+04 -1.872216E+05 -1.130267E+05 -1.545119E+05 -1.243269E-10  1.569124E-10
       217  12  1.438599E+05 -1.524947E+05 -9.439465E+04 -1.726273E+05 -2.867957E-10  4.943163E-10
       217  13  8.016241E+05  8.015230E+03  3.375350E+04 -1.715177E+05  4.558644E-10  9.692365E-10
       217  14  8.003883E+05  1.467795E+03  1.848000E+04 -1.557260E+05 -1.607636E-09  5.031379E-10
       217  15  8.017156E+05 -1.195113E+01  1.050079E+04 -1.715159E+05 -8.954664E-10  3.468128E-11
       217  16  1.770287E+06  2.339198E+05  1.960778E+05 -1.750598E+05 -1.571338E-09  8.657540E-10
       217  17  1.613324E+06  1.901238E+05  1.499685E+05 -1.569416E+05  2.533816E-10  3.996320E-10
       217  18  1.460001E+06  1.524492E+05  1.153850E+05 -1.704033E+05  4.346478E-10 -2.620189E-10
       217  19 -1.661134E+05 -2.179333E+05 -1.285896E+05 -1.679794E+05 -3.579147E+04 -6.523775E+04
       217  20 -1.189139E+04 -1.872176E+05 -1.130182E+05 -1.545104E+05 -3.267615E+04 -5.865138E+04
       217  21  1.438615E+05 -1.524920E+05 -9.438853E+04 -1.726262E+05 -2.955677E+04 -4.880604E+04
       217  22  8.016260E+05  8.019990E+03  3.376282E+04 -1.715163E+05 -2.654499E+04 -6.522569E+04
       217  23  8.003895E+05  1.471570E+03  1.848702E+04 -1.557251E+05 -1.731618E+04 -5.864175E+04
       217  24  8.017163E+05 -9.375149E+00  1.050539E+04 -1.715156E+05 -8.084105E+03 -4.880101E+04
       217  25  1.770289E+06  2.339244E+05  1.960863E+05 -1.750588E+05 -1.728455E+04 -6.521375E+04
       217  26  1.613325E+06  1.901275E+05  1.499750E+05 -1.569415E+05 -1.936810E+03 -5.863219E+04
       217  27  1.460002E+06  1.524518E+05  1.153898E+05 -1.704038E+05  1.341049E+04 -4.879590E+04
       218   1  2.424480E+05 -1.292894E+05 -8.042163E+04 -1.719548E+05  2.775149E+04  4.203776E+04
       218   2  3.970997E+05 -9.364522E+04 -5.921378E+04 -1.559918E+05  2.613999E+04  3.051307E+04
       218   3  5.520646E+05 -5.781165E+04 -3.690035E+04 -1.717904E+05  2.452512E+04  1.865659E+04
       218   4  8.012583E+05  8.564718E+01  7.963026E+03 -1.715558E+05  6.484957E+03  4.203523E+04
       218   5  8.010804E+05 -1.560041E+02  4.521056E+03 -1.556757E+05  4.247865E+03  3.051344E+04
       218   6  8.013014E+05 -9.876775E+01  2.616952E+03 -1.715560E+05  2.007792E+03  1.865998E+04
       218   7  1.360380E+06  1.294455E+05  9.634154E+04 -1.711564E+05 -1.480001E+04  4.203267E+04
       218   8  1.205225E+06  9.332539E+04  6.825364E+04 -1.553594E+05 -1.765798E+04  3.051378E+04
       218   9  1.050601E+06  5.761130E+04  4.213458E+04 -1.713215E+05 -2.051824E+04  1.866335E+04
       218  10  2.424467E+05 -1.292915E+05 -8.042640E+04 -1.719557E+05  7.815416E-10  3.013321E-10
       218  11  3.970988E+05 -9.364640E+04 -5.921682E+04 -1.559925E+05 -1.425018E-09 -7.356061E-10
       218  12  5.520638E+05 -5.781218E+04 -3.690213E+04 -1.717907E+05 -1.125795E-09 -6.206045E-10
       218  13  8.012578E+05  8.373768E+01  7.959625E+03 -1.715560E+05 -2.338050E-10  6.861111E-12
       218  14  8.010801E+05 -1.570091E+02  4.519272E+03 -1.556758E+05  1.670261E-09 -2.494025E-10
       218  15  8.013013E+05 -9.914289E+01  2.616290E+03 -1.715560E+05  1.680916E-10  1.984260E-11
       218  16  1.360380E+06  1.294435E+05  9.633781E+04 -1.711559E+05 -1.772935E-09 -2.487364E-10
       218  17  1.205224E+06  9.332431E+04  6.825130E+04 -1.553590E+05 -1.356261E-10  4.592114E-11
       218  18  1.050601E+06  5.761081E+04  4.213314E+04 -1.713212E+05  2.458874E-09  4.467000E-10
       218  19  2.424480E+05 -1.292894E+05 -8.042163E+04 -1.719548E+05 -2.775149E+04 -4.203776E+04
       218  20  3.970997E+05 -9.364522E+04 -5.921378E+04 -1.559918E+05 -2.613999E+04 -3.051307E+04
       218  21  5.520646E+05 -5.781165E+04 -3.690035E+04 -1.717904E+05 -2.452512E+04 -1.865659E+04
       218  22  8.012583E+05  8.564718E+01  7.963026E+03 -1.715558E+05 -6.484957E+03 -4.203523E+04
       218  23  8.010804E+05 -1.560041E+02  4.521056E+03 -1.556757E+05 -4.247865E+03 -3.051344E+04
       218  24  8.013014E+05 -9.876775E+01  2.616952E+03 -1.715560E+05 -2.007792E+03 -1.865998E+04
       218  25  1.360380E+06  1.294455E+05  9.634154E+04 -1.711564E+05  1.480001E+04 -4.203267E+04
       218  26  1.205225E+06  9.332539E+04  6.825364E+04 -1.553594E+05  1.765798E+04 -3.051378E+04
       218  27  1.050601E+06  5.761130E+04  4.213458E+04 -1.713215E+05  2.051824E+04 -1.866335E+04
       219   1  6.508463E+05 -3.479238E+04 -2.136083E+04 -1.717255E+05  2.408654E+04  1.165137E+04
       219   2  8.055758E+05  9.531224E+02  1.832828E+03 -1.557857E+05  2.355977E+04 -3.705923E+02
       219   3  9.604129E+05  3.669826E+04  2.537239E+04 -1.716175E+05  2.303292E+04 -1.242253E+04
       219   4  8.012406E+05 -6.609783E+01  1.999703E+03 -1.715585E+05  1.590334E+03  1.165562E+04
       219   5  8.011951E+05 -5.184786E+01  1.184036E+03 -1.556728E+05  1.004407E+03 -3.663691E+02
       219   6  8.012404E+05 -2.768243E+01  7.531005E+02 -1.715586E+05  4.185142E+02 -1.241833E+04
       219   7  9.516585E+05  3.465935E+04  2.536161E+04 -1.713915E+05 -2.091111E+04  1.165986E+04
       219   8  7.968154E+05 -1.056546E+03  5.371531E+02 -1.555598E+05 -2.155081E+04 -3.621542E+02
       219   9  6.420942E+05 -3.675458E+04 -2.386485E+04 -1.714997E+05 -2.219032E+04 -1.241413E+04
       219  10  6.508456E+05 -3.479268E+04 -2.136218E+04 -1.717257E+05  3.087125E-11 -4.605562E-10
       219  11  8.055753E+05  9.529735E+02  1.831786E+03 -1.557857E+05 -1.776543E-09 -5.284570E-10
       219  12  9.604123E+05  3.669795E+04  2.537110E+04 -1.716172E+05 -2.349973E-09 -1.471561E-10
       219  13  8.012405E+05 -6.624445E+01  1.999443E+03 -1.715585E+05 -1.004164E-09 -1.668098E-11
       219  14  8.011951E+05 -5.184828E+01  1.184034E+03 -1.556728E+05 -6.605150E-10 -8.065610E-11
       219  15  8.012403E+05 -2.784814E+01  7.528103E+02 -1.715586E+05 -5.482465E-10  2.075459E-10
       219  16  9.516580E+05  3.465909E+04  2.536054E+04 -1.713913E+05 -1.307346E-10  3.485592E-10
       219  17  7.968149E+05 -1.056671E+03  5.362812E+02 -1.555598E+05 -8.591089E-10  2.773797E-10
       219  18  6.420937E+05 -3.675488E+04 -2.386606E+04 -1.714999E+05  2.092230E-09  6.896741E-10
       219  19  6.508463E+05 -3.479238E+04 -2.136083E+04 -1.717255E+05 -2.408654E+04 -1.165137E+04
       219  20  8.055758E+05  9.531224E+02  1.832828E+03 -1.557857E+05 -2.355977E+04  3.705923E+02
       219  21  9.604129E+05  3.669826E+04  2.537239E+04 -1.716175E+05 -2.303292E+04  1.242253E+04
       219  22  8.012406E+05 -6.609783E+01  1.999703E+03 -1.715585E+05 -1.590334E+03 -1.165562E+04
       219  23  8.011951E+05 -5.184786E+01  1.184036E+03 -1.556728E+05 -1.004407E+03  3.663691E+02
       219  24  8.012404E+05 -2.768243E+01  7.531005E+02 -1.715586E+05 -4.185142E+02  1.241833E+04
       219  25  9.516585E+05  3.465935E+04  2.536161E+04 -1.713915E+05  2.091111E+04 -1.165986E+04
       219  26  7.968154E+05 -1.056546E+03  5.371531E+02 -1.555598E+05  2.155081E+04  3.621542E+02
       219  27  6.420942E+05 -3.675458E+04 -2.386485E+04 -1.714997E+05  2.219032E+04  1.241413E+04
       220   1  1.059265E+06  5.966651E+04  4.137463E+04 -1.716134E+05  2.291095E+04 -1.944788E+04
       220   2  1.214107E+06  9.535881E+04  6.524761E+04 -1.556667E+05  2.258848E+04 -3.149507E+04
       220   3  1.369051E+06  1.310578E+05  8.933992E+04 -1.715037E+05  2.226918E+04 -4.350496E+04
       220   4  8.012270E+05 -3.448439E+01  6.304476E+02 -1.715615E+05  2.914364E+02 -1.944460E+04
       220   5  8.011726E+05 -7.800874E+01  5.153517E+02 -1.556691E+05  3.633809E+01 -3.149485E+04
       220   6  8.011841E+05 -1.258442E+02  5.715949E+02 -1.715616E+05 -2.155168E+02 -4.350778E+04
       220   7  5.432560E+05 -5.973850E+04 -4.011348E+04 -1.715097E+05 -2.231903E+04 -1.944131E+04
       220   8  3.884087E+05 -9.552295E+04 -6.421913E+04 -1.556714E+05 -2.250139E+04 -3.149462E+04
       220   9  2.336393E+05 -1.313250E+05 -8.820256E+04 -1.716193E+05 -2.268045E+04 -4.351059E+04
       220  10  1.059265E+06  5.966596E+04  4.137293E+04 -1.716131E+05 -2.210589E-10  2.076859E-10
       220  11  1.214106E+06  9.535761E+04  6.524479E+04 -1.556661E+05 -3.345646E-10 -6.378680E-12
       220  12  1.369050E+06  1.310556E+05  8.933544E+04 -1.715029E+05 -4.863547E-10 -1.168899E-09
       220  13  8.012269E+05 -3.489057E+01  6.297367E+02 -1.715615E+05 -4.448326E-10  3.457311E-10
       220  14  8.011723E+05 -7.907429E+01  5.134870E+02 -1.556691E+05 -1.528962E-09  1.386366E-11
       220  15  8.011836E+05 -1.278776E+02  5.680363E+02 -1.715616E+05 -1.706476E-09 -6.695537E-10
       220  16  5.432553E+05 -5.973904E+04 -4.011512E+04 -1.715100E+05 -1.000119E-09  6.183753E-10
       220  17  3.884079E+05 -9.552415E+04 -6.422195E+04 -1.556720E+05 -1.253526E-09  3.394529E-13
       220  18  2.336382E+05 -1.313272E+05 -8.820709E+04 -1.716201E+05  6.896513E-10 -3.350630E-10
       220  19  1.059265E+06  5.966651E+04  4.137463E+04 -1.716134E+05 -2.291095E+04  1.944788E+04
       220  20  1.214107E+06  9.535881E+04  6.524761E+04 -1.556667E+05 -2.258848E+04  3.149507E+04
       220  21  1.369051E+06  1.310578E+05  8.933992E+04 -1.715037E+05 -2.226918E+04  4.350496E+04
       220  22  8.012270E+05 -3.448439E+01  6.304476E+02 -1.715615E+05 -2.914364E+02  1.944460E+04
       220  23  8.011726E+05 -7.800874E+01  5.153517E+02 -1.556691E+05 -3.633809E+01  3.149485E+04
       220  24  8.011841E+05 -1.258442E+02  5.715949E+02 -1.715616E+05  2.155168E+02  4.350778E+04
       220  25  5.432560E+05 -5.973850E+04 -4.011348E+04 -1.715097E+05  2.231903E+04  1.944131E+04
       220  26  3.884087E+05 -9.552295E+04 -6.421913E+04 -1.556714E+05  2.250139E+04  3.149462E+04
       220  27  2.336393E+05 -1.313250E+05 -8.820256E+04 -1.716193E+05  2.268045E+04  4.351059E+04
       221   1  1.468063E+06  1.540259E+05  1.056118E+05 -1.714599E+05  2.219532E+04 -5.050466E+04
       221   2  1.623030E+06  1.897617E+05  1.302716E+05 -1.554232E+05  2.090741E+04 -6.229843E+04
       221   3  1.778332E+06  2.256842E+05  1.558400E+05 -1.711836E+05  1.962532E+04 -7.366618E+04
       221   4  8.011850E+05 -1.629275E+02  6.642646E+02 -1.715648E+05 -3.259267E+02 -5.051017E+04
       221   5  8.010548E+05 -2.555021E+02  9.975328E+02 -1.556650E+05 -8.164267E+02 -6.230982E+04
       221   6  8.010995E+05 -2.982214E+02  1.686459E+03 -1.715648E+05 -1.300823E+03 -7.368316E+04
       221   7  1.347502E+05 -1.543734E+05 -1.042924E+05 -1.716696E+05 -2.282392E+04 -5.051567E+04
       221   8 -2.024787E+04 -1.903058E+05 -1.282914E+05 -1.559064E+05 -2.251263E+04 -6.232120E+04
       221   9 -1.751834E+05 -2.263276E+05 -1.524892E+05 -1.719453E+05 -2.219531E+04 -7.370012E+04
       221  10  1.468062E+06  1.540230E+05  1.056061E+05 -1.714590E+05 -2.453531E-09 -1.081911E-09
       221  11  1.623029E+06  1.897574E+05  1.302635E+05 -1.554221E+05 -4.902204E-10 -1.095458E-09
       221  12  1.778330E+06  2.256783E+05  1.558291E+05 -1.711824E+05 -1.125008E-10 -3.014389E-10
       221  13  8.011844E+05 -1.656681E+02  6.594682E+02 -1.715648E+05 -9.706323E-10 -7.474168E-10
       221  14  8.010538E+05 -2.596730E+02  9.902327E+02 -1.556650E+05 -3.411786E-09 -6.485133E-10
       221  15  8.010980E+05 -3.040541E+02  1.676250E+03 -1.715648E+05 -2.584335E-09 -5.097271E-10
       221  16  1.347490E+05 -1.543763E+05 -1.042981E+05 -1.716705E+05  1.729075E-09 -5.068470E-10
       221  17 -2.024945E+04 -1.903101E+05 -1.282997E+05 -1.559075E+05 -1.349921E-09 -5.515211E-10
       221  18 -1.751854E+05 -2.263336E+05 -1.525004E+05 -1.719466E+05 -1.761634E-09 -2.222825E-10
       221  19  1.468063E+06  1.540259E+05  1.056118E+05 -1.714599E+05 -2.219532E+04  5.050466E+04
       221  20  1.623030E+06  1.897617E+05  1.302716E+05 -1.554232E+05 -2.090741E+04  6.229843E+04
       221  21  1.778332E+06  2.256842E+05  1.558400E+05 -1.711836E+05 -1.962532E+04  7.366618E+04
       221  22  8.011850E+05 -1.629275E+02  6.642646E+02 -1.715648E+05  3.259267E+02  5.051017E+04
       221  23  8.010548E+05 -2.555021E+02  9.975328E+02 -1.556650E+05  8.164267E+02  6.230982E+04
       221  24  8.010995E+05 -2.982214E+02  1.686459E+03 -1.715648E+05  1.300823E+03  7.368316E+04
       221  25  1.347502E+05 -1.543734E+05 -1.042924E+05 -1.716696E+05  2.282392E+04  5.051567E+04
       221  26 -2.024787E+04 -1.903058E+05 -1.282914E+05 -1.559064E+05  2.251263E+04  6.232120E+04
       221  27 -1.751834E+05 -2.263276E+05 -1.524892E+05 -1.719453E+05  2.219531E+04  7.370012E+04
       222   1  1.877847E+06  2.487883E+05  1.730051E+05 -1.708864E+05  1.956938E+04 -8.036013E+04
       222   2  2.032326E+06  2.853776E+05  2.020528E+05 -1.553368E+05  9.764544E+03 -8.955735E+04
       222   3  2.188911E+06  3.243746E+05  2.381237E+05 -1.713542E+05 -3.960760E+01 -9.454434E+04
       222   4  8.011801E+05 -3.671799E+02  2.207114E+03 -1.715137E+05 -1.633051E+03 -8.038144E+04
       222   5  8.007598E+05 -1.719626E+02  3.826601E+03 -1.557287E+05 -3.532347E+03 -8.958193E+04
       222   6  8.010517E+05  1.063763E+03  6.992745E+03 -1.715144E+05 -5.428471E+03 -9.456791E+04
       222   7 -2.743351E+05 -2.495800E+05 -1.686188E+05 -1.721398E+05 -2.280014E+04 -8.040274E+04
       222   8 -4.293048E+05 -2.857978E+05 -1.944399E+05 -1.561198E+05 -1.680386E+04 -8.960651E+04
       222   9 -5.849114E+05 -3.223471E+05 -2.241970E+05 -1.716744E+05 -1.080571E+04 -9.459151E+04
       222  10  1.877845E+06  2.487813E+05  1.729923E+05 -1.708851E+05 -5.555185E-10 -1.424685E-10
       222  11  2.032324E+06  2.853690E+05  2.020375E+05 -1.553361E+05  1.578290E-09 -1.352402E-10
       222  12  2.188909E+06  3.243650E+05  2.381069E+05 -1.713542E+05  1.347845E-09 -1.494015E-09
       222  13  8.011783E+05 -3.741215E+02  2.194963E+03 -1.715138E+05 -2.040988E-09 -3.444773E-10
       222  14  8.007576E+05 -1.805867E+02  3.811491E+03 -1.557290E+05 -2.448985E-09 -5.726918E-10
       222  15  8.010493E+05  1.054148E+03  6.975877E+03 -1.715148E+05 -2.130683E-09 -1.173003E-09
       222  16 -2.743374E+05 -2.495871E+05 -1.686319E+05 -1.721413E+05 -5.538031E-10 -2.213879E-10
       222  17 -4.293073E+05 -2.858065E+05 -1.944555E+05 -1.561210E+05 -2.916690E-09  1.036492E-09
       222  18 -5.849139E+05 -3.223567E+05 -2.242140E+05 -1.716752E+05 -4.314060E-09 -6.108884E-10
       222  19  1.877847E+06  2.487883E+05  1.730051E+05 -1.708864E+05 -1.956938E+04  8.036013E+04
       222  20  2.032326E+06  2.853776E+05  2.020528E+05 -1.553368E+05 -9.764544E+03  8.955735E+04
       222  21  2.188911E+06  3.243746E+05  2.381237E+05 -1.713542E+05  3.960760E+01  9.454434E+04
       222  22  8.011801E+05 -3.671799E+02  2.207114E+03 -1.715137E+05  1.633051E+03  8.038144E+04
       222  23  8.007598E+05 -1.719626E+02  3.826601E+03 -1.557287E+05  3.532347E+03  8.958193E+04
       222  24  8.010517E+05  1.063763E+03  6.992745E+03 -1.715144E+05  5.428471E+03  9.456791E+04
       222  25 -2.743351E+05 -2.495800E+05 -1.686188E+05 -1.721398E+05  2.280014E+04  8.040274E+04
       222  26 -4.293048E+05 -2.857978E+05 -1.944399E+05 -1.561198E+05  1.680386E+04  8.960651E+04
       222  27 -5.849114E+05 -3.223471E+05 -2.241970E+05 -1.716744E+05  1.080571E+04  9.459151E+04
       223   1  2.291739E+06  3.488287E+05  2.613345E+05 -1.687140E+05  1.325447E+03 -9.817541E+04
       223   2  2.438524E+06  3.965561E+05  3.261703E+05 -1.646298E+05 -8.448487E+04 -8.196358E+04
       223   3  2.604339E+06  4.744699E+05  4.543512E+05 -1.894375E+05 -1.704047E+05 -2.467958E+04
       223   4  8.021008E+05  1.021439E+03  9.252710E+03 -1.709130E+05 -6.626910E+03 -9.820410E+04
       223   5  7.991773E+05  7.478002E+03  1.687669E+04 -1.564857E+05 -1.527235E+04 -8.189919E+04
       223   6  8.019265E+05  3.079225E+04  3.439621E+04 -1.709466E+05 -2.400016E+04 -2.447528E+04
       223   7 -6.853587E+05 -3.469027E+05 -2.429005E+05 -1.731067E+05 -1.456084E+04 -9.823278E+04
       223   8 -8.375723E+05 -3.817534E+05 -2.925173E+05 -1.483640E+05  5.376247E+04 -8.183292E+04
       223   9 -9.974535E+05 -4.131018E+05 -3.856980E+05 -1.525101E+05  1.219836E+05 -2.426205E+04
       223  10  2.291736E+06  3.488184E+05  2.613164E+05 -1.687139E+05 -2.414776E-09 -2.108399E-09
       223  11  2.438514E+06  3.965469E+05  3.261443E+05 -1.646354E+05 -2.620932E-09 -3.296475E-09
       223  12  2.604308E+06  4.744615E+05  4.542957E+05 -1.894409E+05 -1.119965E-09 -9.186761E-10
       223  13  8.020981E+05  1.011067E+03  9.234497E+03 -1.709135E+05 -2.724435E-09 -5.482445E-09
       223  14  7.991752E+05  7.470734E+03  1.686364E+04 -1.564867E+05 -3.493815E-10  3.095289E-09
       223  15  8.019257E+05  3.079145E+04  3.439400E+04 -1.709470E+05 -2.617380E-10  2.616974E-11
       223  16 -6.853615E+05 -3.469131E+05 -2.429190E+05 -1.731079E+05  5.658775E-10 -1.273524E-09
       223  17 -8.375772E+05 -3.817614E+05 -2.925353E+05 -1.483605E+05  9.677002E-10  1.956078E-09
       223  18 -9.974696E+05 -4.131065E+05 -3.857271E+05 -1.525078E+05  1.107810E-09 -1.464287E-09
       223  19  2.291739E+06  3.488287E+05  2.613345E+05 -1.687140E+05 -1.325447E+03  9.817541E+04
       223  20  2.438524E+06  3.965561E+05  3.261703E+05 -1.646298E+05  8.448487E+04  8.196358E+04
       223  21  2.604339E+06  4.744699E+05  4.543512E+05 -1.894375E+05  1.704047E+05  2.467958E+04
       223  22  8.021008E+05  1.021439E+03  9.252710E+03 -1.709130E+05  6.626910E+03  9.820410E+04
       223  23  7.991773E+05  7.478002E+03  1.687669E+04 -1.564857E+05  1.527235E+04  8.189919E+04
       223  24  8.019265E+05  3.079225E+04  3.439621E+04 -1.709466E+05  2.400016E+04  2.447528E+04
       223  25 -6.853587E+05 -3.469027E+05 -2.429005E+05 -1.731067E+05  1.456084E+04  9.823278E+04
       223  26 -8.375723E+05 -3.817534E+05 -2.925173E+05 -1.483640E+05 -5.376247E+04  8.183292E+04
       223  27 -9.974535E+05 -4.131018E+05 -3.856980E+05 -1.525101E+05 -1.219836E+05  2.426205E+04
       224   1  5.510516E+05  2.266442E+06  5.303475E+05 -6.357946E+05  2.172699E+04  1.469004E+05
       224   2  3.798816E+05  1.699448E+06  3.234636E+05 -5.709473E+05  6.516043E+04  4.401762E+04
       224   3  2.400651E+05  1.153788E+06  1.912059E+05 -6.162589E+05  5.816361E+04 -5.882334E+04
       224   4  2.858082E+04  1.523634E+05  2.943171E+04 -6.150368E+05  2.201999E+04  1.846615E+04
       224   5  8.880201E+03  1.503031E+05  1.614234E+04 -5.599799E+05  6.525565E+04  1.030762E+04
       224   6  4.183225E+03  1.529277E+05  1.187353E+04 -6.150903E+05  5.800631E+04  2.097042E+03
       224   7 -4.942004E+05 -1.957584E+06 -4.717328E+05 -5.943457E+05  2.230511E+04 -1.095344E+05
       224   8 -3.622664E+05 -1.396549E+06 -2.912936E+05 -5.490382E+05  6.534985E+04 -2.332020E+04
       224   9 -2.317523E+05 -8.469495E+05 -1.674833E+05 -6.139225E+05  5.784906E+04  6.292213E+04
       224  10  5.510453E+05  2.266419E+06  5.303062E+05 -6.357972E+05  9.965006E-10  7.313427E-10
       224  11  3.798765E+05  1.699445E+06  3.234520E+05 -5.709496E+05  3.091211E-09  2.365733E-09
       224  12  2.400606E+05  1.153784E+06  1.911930E+05 -6.162562E+05  3.010748E-10  2.200601E-09
       224  13  2.858020E+04  1.523629E+05  2.943016E+04 -6.150371E+05  7.190410E-10 -8.155510E-11
       224  14  8.875599E+03  1.503019E+05  1.613414E+04 -5.599805E+05  2.694729E-10  9.052792E-10
       224  15  4.179610E+03  1.529268E+05  1.186720E+04 -6.150904E+05  8.848902E-10 -2.696930E-10
       224  16 -4.942042E+05 -1.957597E+06 -4.717563E+05 -5.943438E+05  4.605661E-10 -2.556158E-10
       224  17 -3.622711E+05 -1.396551E+06 -2.913027E+05 -5.490369E+05  2.414466E-09 -2.659902E-09
       224  18 -2.317570E+05 -8.469546E+05 -1.674971E+05 -6.139254E+05 -1.679501E-10  1.074314E-09
       224  19  5.510516E+05  2.266442E+06  5.303475E+05 -6.357946E+05 -2.172699E+04 -1.469004E+05
       224  20  3.798816E+05  1.699448E+06  3.234636E+05 -5.709473E+05 -6.516043E+04 -4.401762E+04
       224  21  2.400651E+05  1.153788E+06  1.912059E+05 -6.162589E+05 -5.816361E+04  5.882334E+04
       224  22  2.858082E+04  1.523634E+05  2.943171E+04 -6.150368E+05 -2.201999E+04 -1.846615E+04
       224  23  8.880201E+03  1.503031E+05  1.614234E+04 -5.599799E+05 -6.525565E+04 -1.030762E+04
       224  24  4.183225E+03  1.529277E+05  1.187353E+04 -6.150903E+05 -5.800631E+04 -2.097042E+03
       224  25 -4.942004E+05 -1.957584E+06 -4.717328E+05 -5.943457E+05 -2.230511E+04  1.095344E+05
       224  26 -3.622664E+05 -1.396549E+06 -2.912936E+05 -5.490382E+05 -6.534985E+04  2.332020E+04
       224  27 -2.317523E+05 -8.469495E+05 -1.674833E+05 -6.139225E+05 -5.784906E+04 -6.292213E+04
       225   1  1.557712E+05  7.950698E+05  1.264264E+05 -6.182115E+05  3.757305E+04 -5.785660E+04
       225   2  2.399942E+04  2.386245E+05  2.733500E+04 -5.587843E+05  6.413477E+03 -6.522956E+04
       225   3 -1.035475E+05 -3.159411E+05 -6.604538E+04 -6.126598E+05 -2.514192E+04 -7.259894E+04
       225   4  4.281642E+03  1.523186E+05  1.141764E+04 -6.157830E+05  3.741399E+04  1.825976E+02
       225   5  3.772977E+03  1.516104E+05  1.317679E+04 -5.591284E+05  6.251089E+03 -6.471904E+03
       225   6  7.376892E+03  1.523504E+05  2.014180E+04 -6.157752E+05 -2.530811E+04 -1.312900E+04
       225   7 -1.472290E+05 -4.900230E+05 -1.035943E+05 -6.133567E+05  3.725527E+04  5.816347E+04
       225   8 -1.645200E+04  6.461124E+04 -9.686713E+02 -5.594724E+05  6.088620E+03  5.227780E+04
       225   9  1.182908E+05  6.208623E+05  1.063332E+05 -6.188927E+05 -2.547482E+04  4.638464E+04
       225  10  1.557688E+05  7.950659E+05  1.264175E+05 -6.182098E+05  5.725250E-10  3.534453E-10
       225  11  2.399823E+04  2.386200E+05  2.732694E+04 -5.587840E+05  1.555229E-09  1.922121E-09
       225  12 -1.035496E+05 -3.159469E+05 -6.605649E+04 -6.126613E+05 -1.091627E-09  1.985542E-09
       225  13  4.280139E+03  1.523182E+05  1.141501E+04 -6.157830E+05 -2.801665E-10  3.636702E-11
       225  14  3.772924E+03  1.516104E+05  1.317663E+04 -5.591283E+05  1.412886E-09  1.112614E-09
       225  15  7.376157E+03  1.523500E+05  2.014027E+04 -6.157755E+05 -1.239188E-09 -2.623891E-10
       225  16 -1.472314E+05 -4.900270E+05 -1.036033E+05 -6.133584E+05 -2.450340E-10  6.362159E-10
       225  17 -1.645277E+04  6.460829E+04 -9.738776E+02 -5.594726E+05 -5.377730E-10 -2.997508E-09
       225  18  1.182895E+05  6.208598E+05  1.063280E+05 -6.188918E+05  7.885269E-10  1.452251E-09
       225  19  1.557712E+05  7.950698E+05  1.264264E+05 -6.182115E+05 -3.757305E+04  5.785660E+04
       225  20  2.399942E+04  2.386245E+05  2.733500E+04 -5.587843E+05 -6.413477E+03  6.522956E+04
       225  21 -1.035475E+05 -3.159411E+05 -6.604538E+04 -6.126598E+05  2.514192E+04  7.259894E+04
       225  22  4.281642E+03  1.523186E+05  1.141764E+04 -6.157830E+05 -3.741399E+04 -1.825976E+02
       225  23  3.772977E+03  1.516104E+05  1.317679E+04 -5.591284E+05 -6.251089E+03  6.471904E+03
       225  24  7.376892E+03  1.523504E+05  2.014180E+04 -6.157752E+05  2.530811E+04  1.312900E+04
       225  25 -1.472290E+05 -4.900230E+05 -1.035943E+05 -6.133567E+05 -3.725527E+04 -5.816347E+04
       225  26 -1.645200E+04  6.461124E+04 -9.686713E+02 -5.594724E+05 -6.088620E+03 -5.227780E+04
       225  27  1.182908E+05  6.208623E+05  1.063332E+05 -6.188927E+05  2.547482E+04 -4.638464E+04
       226   1 -1.878633E+05 -6.706526E+05 -1.244936E+05 -6.162269E+05 -4.601809E+04 -7.866215E+04
       226   2 -3.061726E+05 -1.225468E+06 -2.300784E+05 -5.321151E+05 -5.608489E+04 -1.464281E+04
       226   3 -3.949878E+05 -1.781131E+06 -3.700822E+05 -5.584775E+05 -1.953831E+04  4.937224E+04
       226   4  7.345265E+03  1.550451E+05  2.563334E+04 -6.151532E+05 -4.618457E+04 -1.662208E+04
       226   5  2.384543E+04  1.478111E+05  4.508817E+04 -5.598501E+05 -5.601175E+04 -3.975413E+04
       226   6  8.494714E+04  1.545397E+05  9.066208E+04 -6.149809E+05 -1.927885E+04 -6.283289E+04
       226   7  2.025175E+05  9.814144E+05  1.757476E+05 -6.140773E+05 -4.635069E+04  4.549833E+04
       226   8  3.537503E+05  1.522895E+06  3.201619E+05 -5.876460E+05 -5.593647E+04 -6.491990E+04
       226   9  5.646298E+05  2.093688E+06  5.511929E+05 -6.716582E+05 -1.899946E+04 -1.753867E+05
       226  10 -1.878672E+05 -6.706598E+05 -1.245093E+05 -6.162298E+05 -5.765052E-10  1.899112E-09
       226  11 -3.061760E+05 -1.225469E+06 -2.300847E+05 -5.321157E+05  1.426638E-09  2.573281E-09
       226  12 -3.949889E+05 -1.781133E+06 -3.700875E+05 -5.584767E+05  2.867636E-10  9.429375E-10
       226  13  7.342899E+03  1.550442E+05  2.562881E+04 -6.151538E+05  1.312427E-09 -3.399512E-11
       226  14  2.384163E+04  1.478086E+05  4.507930E+04 -5.598519E+05 -4.656553E-10  9.648781E-10
       226  15  8.494568E+04  1.545354E+05  9.065396E+04 -6.149819E+05  8.111603E-12 -1.615972E-10
       226  16  2.025146E+05  9.814116E+05  1.757396E+05 -6.140756E+05 -1.148053E-09 -9.252566E-10
       226  17  3.537458E+05  1.522889E+06  3.201481E+05 -5.876490E+05 -2.151777E-09 -2.768674E-09
       226  18  5.646212E+05  2.093655E+06  5.511346E+05 -6.716609E+05  2.689921E-10  1.787004E-09
       226  19 -1.878633E+05 -6.706526E+05 -1.244936E+05 -6.162269E+05  4.601809E+04  7.866215E+04
       226  20 -3.061726E+05 -1.225468E+06 -2.300784E+05 -5.321151E+05  5.608489E+04  1.464281E+04
       226  21 -3.949878E+05 -1.781131E+06 -3.700822E+05 -5.584775E+05  1.953831E+04 -4.937224E+04
       226  22  7.345265E+03  1.550451E+05  2.563334E+04 -6.151532E+05  4.618457E+04  1.662208E+04
       226  23  2.384543E+04  1.478111E+05  4.508817E+04 -5.598501E+05  5.601175E+04  3.975413E+04
       226  24  8.494714E+04  1.545397E+05  9.066208E+04 -6.149809E+05  1.927885E+04  6.283289E+04
       226  25  2.025175E+05  9.814144E+05  1.757476E+05 -6.140773E+05  4.635069E+04 -4.549833E+04
       226  26  3.537503E+05  1.522895E+06  3.201619E+05 -5.876460E+05  5.593647E+04  6.491990E+04
       226  27  5.646298E+05  2.093688E+06  5.511929E+05 -6.716582E+05  1.899946E+04  1.753867E+05
       227   1 -1.204829E+06 -5.782948E+05 -3.279198E+05 -4.963436E+05 -1.486831E+05 -4.294688E+04
       227   2 -1.129656E+06 -4.303092E+05 -2.036041E+05 -4.644921E+05 -9.277983E+04  7.750312E+03
       227   3 -1.075599E+06 -3.609215E+05 -1.461372E+05 -4.318525E+05 -2.928977E+04  3.832975E+04
       227   4 -4.647664E+05 -2.354697E+05 -1.253276E+05 -2.267887E+05 -8.562298E+04 -1.925321E+04
       227   5 -4.508764E+05 -1.515108E+05 -5.859326E+04 -2.452684E+05 -6.490197E+04  1.822040E+04
       227   6 -4.510944E+05 -1.391329E+05 -3.076055E+04 -2.629735E+05 -3.660844E+04  3.557497E+04
       227   7  2.758406E+05  1.074770E+05  7.722931E+04  4.308444E+04 -2.248177E+04  4.487692E+03
       227   8  2.283789E+05  1.273598E+05  8.639449E+04 -2.581171E+04 -3.699146E+04  2.870619E+04
       227   9  1.738227E+05  8.268911E+04  8.460272E+04 -9.393687E+04 -4.393503E+04  3.281737E+04
       227  10 -1.204854E+06 -5.783027E+05 -3.279649E+05 -4.963487E+05  1.099841E-08  3.574627E-09
       227  11 -1.129665E+06 -4.303116E+05 -2.036205E+05 -4.644915E+05 -2.638433E-08 -9.140319E-09
       227  12 -1.075600E+06 -3.609233E+05 -1.461416E+05 -4.318516E+05 -5.291290E-08 -2.077994E-08
       227  13 -4.647744E+05 -2.354721E+05 -1.253420E+05 -2.267900E+05 -3.097802E-09 -1.060447E-09
       227  14 -4.508810E+05 -1.515123E+05 -5.860180E+04 -2.452674E+05 -7.078183E-09 -4.115254E-09
       227  15 -4.510962E+05 -1.391346E+05 -3.076545E+04 -2.629724E+05 -4.259807E-09 -4.494939E-09
       227  16  2.758400E+05  1.074768E+05  7.722832E+04  4.308453E+04 -1.664380E-08 -6.161007E-09
       227  17  2.283772E+05  1.273585E+05  8.639037E+04 -2.581086E+04  1.311719E-08  2.755487E-09
       227  18  1.738204E+05  8.268744E+04  8.459707E+04 -9.393571E+04  4.392244E-08  1.434076E-08
       227  19 -1.204829E+06 -5.782948E+05 -3.279198E+05 -4.963436E+05  1.486831E+05  4.294688E+04
       227  20 -1.129656E+06 -4.303092E+05 -2.036041E+05 -4.644921E+05  9.277983E+04 -7.750312E+03
       227  21 -1.075599E+06 -3.609215E+05 -1.461372E+05 -4.318525E+05  2.928977E+04 -3.832975E+04
       227  22 -4.647664E+05 -2.354697E+05 -1.253276E+05 -2.267887E+05  8.562298E+04  1.925321E+04
       227  23 -4.508764E+05 -1.515108E+05 -5.859326E+04 -2.452684E+05  6.490197E+04 -1.822040E+04
       227  24 -4.510944E+05 -1.391329E+05 -3.076055E+04 -2.629735E+05  3.660844E+04 -3.557497E+04
       227  25  2.758406E+05  1.074770E+05  7.722931E+04  4.308444E+04  2.248177E+04 -4.487692E+03
       227  26  2.283789E+05  1.273598E+05  8.639449E+04 -2.581171E+04  3.699146E+04 -2.870619E+04
       227  27  1.738227E+05  8.268911E+04  8.460272E+04 -9.393687E+04  4.393503E+04 -3.281737E+04
       228   1 -1.012109E+06 -3.467115E+05 -1.271115E+05 -4.212268E+05 -2.705647E+04  3.594736E+04
       228   2 -9.353832E+05 -3.043952E+05 -9.811980E+04 -3.908135E+05 -1.635444E+04  3.566805E+04
       228   3 -8.481857E+05 -2.791902E+05 -7.708598E+04 -3.747669E+05 -4.973025E+03  3.357857E+04
       228   4 -4.472965E+05 -1.397288E+05 -2.312382E+04 -2.615042E+05 -3.207650E+04  3.405718E+04
       228   5 -4.524842E+05 -1.290373E+05 -1.215644E+04 -2.552338E+05 -2.453738E+04  3.259146E+04
       228   6 -4.465773E+05 -1.348278E+05 -6.633844E+03 -2.633323E+05 -1.632037E+04  2.931583E+04
       228   7  1.178457E+05  6.728352E+04  8.085056E+04 -1.016472E+05 -3.710137E+04  3.216515E+04
       228   8  3.066127E+04  4.634368E+04  7.379955E+04 -1.195553E+05 -3.272710E+04  2.951230E+04
       228   9 -4.479386E+04  9.551550E+03  6.381496E+04 -1.518294E+05 -2.767566E+04  2.505015E+04
       228  10 -1.012110E+06 -3.467131E+05 -1.271153E+05 -4.212260E+05  3.485368E-08  1.261331E-08
       228  11 -9.353838E+05 -3.043966E+05 -9.812269E+04 -3.908131E+05  3.410566E-08  1.420937E-08
       228  12 -8.481861E+05 -2.791914E+05 -7.708815E+04 -3.747668E+05  3.429952E-08  1.693044E-08
       228  13 -4.472979E+05 -1.397303E+05 -2.312793E+04 -2.615034E+05 -1.422663E-09 -2.947385E-09
       228  14 -4.524852E+05 -1.290386E+05 -1.215957E+04 -2.552331E+05 -5.589127E-10 -1.715013E-09
       228  15 -4.465778E+05 -1.348288E+05 -6.635959E+03 -2.633320E+05  7.480390E-09  4.141619E-09
       228  16  1.178440E+05  6.728204E+04  8.084603E+04 -1.016462E+05 -3.959016E-08 -1.911971E-08
       228  17  3.065989E+04  4.634246E+04  7.379590E+04 -1.195545E+05 -3.653657E-08 -1.594336E-08
       228  18 -4.479485E+04  9.550671E+03  6.381234E+04 -1.518288E+05 -2.181515E-08 -8.190290E-09
       228  19 -1.012109E+06 -3.467115E+05 -1.271115E+05 -4.212268E+05  2.705647E+04 -3.594736E+04
       228  20 -9.353832E+05 -3.043952E+05 -9.811980E+04 -3.908135E+05  1.635444E+04 -3.566805E+04
       228  21 -8.481857E+05 -2.791902E+05 -7.708598E+04 -3.747669E+05  4.973025E+03 -3.357857E+04
       228  22 -4.472965E+05 -1.397288E+05 -2.312382E+04 -2.615042E+05  3.207650E+04 -3.405718E+04
       228  23 -4.524842E+05 -1.290373E+05 -1.215644E+04 -2.552338E+05  2.453738E+04 -3.259146E+04
       228  24 -4.465773E+05 -1.348278E+05 -6.633844E+03 -2.633323E+05  1.632037E+04 -2.931583E+04
       228  25  1.178457E+05  6.728352E+04  8.085056E+04 -1.016472E+05  3.710137E+04 -3.216515E+04
       228  26  3.066127E+04  4.634368E+04  7.379955E+04 -1.195553E+05  3.272710E+04 -2.951230E+04
       228  27 -4.479386E+04  9.551550E+03  6.381496E+04 -1.518294E+05  2.767566E+04 -2.505015E+04
       229   1 -7.939603E+05 -2.601611E+05 -6.558277E+04 -3.601095E+05 -2.829429E+03  3.003848E+04
       229   2 -7.176575E+05 -2.235326E+05 -4.885579E+04 -3.295102E+05  1.247225E+03  2.421284E+04
       229   3 -6.284375E+05 -2.003512E+05 -3.341714E+04 -3.140195E+05  5.384217E+03  1.822279E+04
       229   4 -4.462567E+05 -1.348839E+05 -4.983880E+03 -2.632138E+05 -1.397457E+04  2.585276E+04
       229   5 -4.527198E+05 -1.281017E+05 -2.742238E+03 -2.556876E+05 -1.018535E+04  1.992056E+04
       229   6 -4.462161E+05 -1.347097E+05 -1.561034E+03 -2.632721E+05 -6.336037E+03  1.382393E+04
       229   7 -9.842487E+04 -9.595028E+03  5.561185E+04 -1.662673E+05 -2.512636E+04  2.166456E+04
       229   8 -1.877089E+05 -3.266445E+04  4.336936E+04 -1.818359E+05 -2.162305E+04  1.562637E+04
       229   9 -2.639613E+05 -6.906555E+04  3.029411E+04 -2.125112E+05 -1.805983E+04  9.423746E+03
       229  10 -7.939605E+05 -2.601620E+05 -6.558448E+04 -3.601094E+05 -7.005938E-09  1.508051E-09
       229  11 -7.176576E+05 -2.235332E+05 -4.885690E+04 -3.295103E+05 -8.932289E-09 -3.211513E-09
       229  12 -6.284376E+05 -2.003516E+05 -3.341782E+04 -3.140196E+05 -1.033442E-08 -6.260006E-09
       229  13 -4.462571E+05 -1.348847E+05 -4.985502E+03 -2.632135E+05  1.013183E-08  6.435895E-09
       229  14 -4.527200E+05 -1.281021E+05 -2.743179E+03 -2.556874E+05  5.485831E-09  4.221489E-09
       229  15 -4.462162E+05 -1.347099E+05 -1.561468E+03 -2.632720E+05  1.581738E-09  8.582932E-10
       229  16 -9.842567E+04 -9.595701E+03  5.560978E+04 -1.662669E+05  2.604437E-08  1.151644E-08
       229  17 -1.877094E+05 -3.266484E+04  4.336802E+04 -1.818356E+05  1.929633E-08  1.089034E-08
       229  18 -2.639616E+05 -6.906573E+04  3.029333E+04 -2.125110E+05  1.488243E-08  7.967891E-09
       229  19 -7.939603E+05 -2.601611E+05 -6.558277E+04 -3.601095E+05  2.829429E+03 -3.003848E+04
       229  20 -7.176575E+05 -2.235326E+05 -4.885579E+04 -3.295102E+05 -1.247225E+03 -2.421284E+04
       229  21 -6.284375E+05 -2.003512E+05 -3.341714E+04 -3.140195E+05 -5.384217E+03 -1.822279E+04
       229  22 -4.462567E+05 -1.348839E+05 -4.983880E+03 -2.632138E+05  1.397457E+04 -2.585276E+04
       229  23 -4.527198E+05 -1.281017E+05 -2.742238E+03 -2.556876E+05  1.018535E+04 -1.992056E+04
       229  24 -4.462161E+05 -1.347097E+05 -1.561034E+03 -2.632721E+05  6.336037E+03 -1.382393E+04
       229  25 -9.842487E+04 -9.595028E+03  5.561185E+04 -1.662673E+05  2.512636E+04 -2.166456E+04
       229  26 -1.877089E+05 -3.266445E+04  4.336936E+04 -1.818359E+05  2.162305E+04 -1.562637E+04
       229  27 -2.639613E+05 -6.906555E+04  3.029411E+04 -2.125112E+05  1.805983E+04 -9.423746E+03
       230   1 -5.748234E+05 -1.810035E+05 -2.334695E+04 -2.991194E+05  7.060921E+03  1.440409E+04
       230   2 -4.986015E+05 -1.446040E+05 -8.756474E+03 -2.684552E+05  9.992726E+03  7.872586E+03
       230   3 -4.092169E+05 -1.214310E+05  5.519610E+03 -2.529181E+05  1.292931E+04  1.327687E+03
       230   4 -4.461772E+05 -1.347158E+05 -1.214933E+03 -2.632591E+05 -4.643136E+03  1.001178E+04
       230   5 -4.527550E+05 -1.281072E+05 -7.970620E+02 -2.556920E+05 -1.735579E+03  3.471388E+03
       230   6 -4.461747E+05 -1.347219E+05 -6.754515E+02 -2.632553E+05  1.176687E+03 -3.082407E+03
       230   7 -3.175117E+05 -8.842591E+04  2.091758E+04 -2.273914E+05 -1.634990E+04  5.618465E+03
       230   8 -4.069057E+05 -1.116100E+05  7.162947E+03 -2.429278E+05 -1.346487E+04 -9.301771E+02
       230   9 -4.831307E+05 -1.480126E+05 -6.869959E+03 -2.735920E+05 -1.057519E+04 -7.492223E+03
       230  10 -5.748235E+05 -1.810038E+05 -2.334744E+04 -2.991194E+05 -1.336197E-09 -2.393312E-09
       230  11 -4.986017E+05 -1.446041E+05 -8.756778E+03 -2.684553E+05 -8.894448E-09 -3.403834E-09
       230  12 -4.092171E+05 -1.214311E+05  5.519292E+03 -2.529181E+05 -9.279808E-09 -2.884674E-09
       230  13 -4.461772E+05 -1.347160E+05 -1.215161E+03 -2.632591E+05 -1.771191E-09 -1.097118E-09
       230  14 -4.527550E+05 -1.281072E+05 -7.970903E+02 -2.556920E+05 -7.169064E-09 -2.374049E-09
       230  15 -4.461747E+05 -1.347219E+05 -6.754720E+02 -2.632553E+05 -7.934375E-09 -1.756961E-09
       230  16 -3.175120E+05 -8.842602E+04  2.091702E+04 -2.273914E+05 -3.554006E-09  7.074067E-10
       230  17 -4.069059E+05 -1.116101E+05  7.162604E+03 -2.429278E+05 -8.746658E-09  1.874898E-10
       230  18 -4.831308E+05 -1.480126E+05 -6.870275E+03 -2.735920E+05 -6.736035E-09 -1.257357E-09
       230  19 -5.748234E+05 -1.810035E+05 -2.334695E+04 -2.991194E+05 -7.060921E+03 -1.440409E+04
       230  20 -4.986015E+05 -1.446040E+05 -8.756474E+03 -2.684552E+05 -9.992726E+03 -7.872586E+03
       230  21 -4.092169E+05 -1.214310E+05  5.519610E+03 -2.529181E+05 -1.292931E+04 -1.327687E+03
       230  22 -4.461772E+05 -1.347158E+05 -1.214933E+03 -2.632591E+05  4.643136E+03 -1.001178E+04
       230  23 -4.527550E+05 -1.281072E+05 -7.970620E+02 -2.556920E+05  1.735579E+03 -3.471388E+03
       230  24 -4.461747E+05 -1.347219E+05 -6.754515E+02 -2.632553E+05 -1.176687E+03  3.082407E+03
       230  25 -3.175117E+05 -8.842591E+04  2.091758E+04 -2.273914E+05  1.634990E+04 -5.618465E+03
       230  26 -4.069057E+05 -1.116100E+05  7.162947E+03 -2.429278E+05  1.346487E+04  9.301771E+02
       230  27 -4.831307E+05 -1.480126E+05 -6.869959E+03 -2.735920E+05  1.057519E+04  7.492223E+03
       231   1 -3.556579E+05 -1.020608E+05  1.520295E+04 -2.380043E+05  1.451062E+04 -2.534813E+03
       231   2 -2.794358E+05 -6.566755E+04  2.909845E+04 -2.073427E+05  1.747524E+04 -9.065905E+03
       231   3 -1.900548E+05 -4.249274E+04  4.265978E+04 -1.918072E+05  2.043440E+04 -1.557983E+04
       231   4 -4.461794E+05 -1.347230E+05 -7.048394E+02 -2.632556E+05  2.757881E+03 -6.945134E+03
       231   5 -4.527571E+05 -1.281111E+05 -9.611070E+02 -2.556929E+05  5.751312E+03 -1.346629E+04
       231   6 -4.461888E+05 -1.347242E+05 -1.574581E+03 -2.632592E+05  8.739239E+03 -1.997034E+04
       231   7 -5.366909E+05 -1.673839E+05 -1.661203E+04 -2.885032E+05 -8.992914E+03 -1.135473E+04
       231   8 -6.260464E+05 -1.905517E+05 -3.102096E+04 -3.040305E+05 -5.969132E+03 -1.786538E+04
       231   9 -7.022555E+05 -2.269501E+05 -4.581099E+04 -3.346844E+05 -2.950907E+03 -2.435897E+04
       231  10 -3.556582E+05 -1.020608E+05  1.520254E+04 -2.380042E+05 -3.463803E-08 -1.269913E-08
       231  11 -2.794361E+05 -6.566772E+04  2.909772E+04 -2.073426E+05 -8.138601E-09 -2.989384E-09
       231  12 -1.900554E+05 -4.249312E+04  4.265854E+04 -1.918069E+05  2.375022E-08  9.053003E-09
       231  13 -4.461794E+05 -1.347230E+05 -7.049443E+02 -2.632556E+05 -6.893285E-09 -2.202971E-09
       231  14 -4.527572E+05 -1.281113E+05 -9.615099E+02 -2.556929E+05 -4.007773E-09 -3.113556E-09
       231  15 -4.461890E+05 -1.347246E+05 -1.575473E+03 -2.632591E+05 -1.160074E-09 -2.020541E-09
       231  16 -5.366910E+05 -1.673841E+05 -1.661243E+04 -2.885033E+05  2.128862E-08  7.544042E-09
       231  17 -6.260465E+05 -1.905521E+05 -3.102163E+04 -3.040306E+05 -2.220452E-09 -3.259330E-09
       231  18 -7.022556E+05 -2.269507E+05 -4.581212E+04 -3.346844E+05 -2.603007E-08 -1.231561E-08
       231  19 -3.556579E+05 -1.020608E+05  1.520295E+04 -2.380043E+05 -1.451062E+04  2.534813E+03
       231  20 -2.794358E+05 -6.566755E+04  2.909845E+04 -2.073427E+05 -1.747524E+04  9.065905E+03
       231  21 -1.900548E+05 -4.249274E+04  4.265978E+04 -1.918072E+05 -2.043440E+04  1.557983E+04
       231  22 -4.461794E+05 -1.347230E+05 -7.048394E+02 -2.632556E+05 -2.757881E+03  6.945134E+03
       231  23 -4.527571E+05 -1.281111E+05 -9.611070E+02 -2.556929E+05 -5.751312E+03  1.346629E+04
       231  24 -4.461888E+05 -1.347242E+05 -1.574581E+03 -2.632592E+05 -8.739239E+03  1.997034E+04
       231  25 -5.366909E+05 -1.673839E+05 -1.661203E+04 -2.885032E+05  8.992914E+03  1.135473E+04
       231  26 -6.260464E+05 -1.905517E+05 -3.102096E+04 -3.040305E+05  5.969132E+03  1.786538E+04
       231  27 -7.022555E+05 -2.269501E+05 -4.581099E+04 -3.346844E+05  2.950907E+03  2.435897E+04
       232   1 -1.365315E+05 -2.314483E+04  5.189812E+04 -1.769414E+05  2.221602E+04 -1.935440E+04
       232   2 -6.028924E+04  1.324366E+04  6.455392E+04 -1.462682E+05  2.618884E+04 -2.538037E+04
       232   3  2.890641E+04  3.624590E+04  7.605391E+04 -1.306954E+05  3.009234E+04 -3.121554E+04
       232   4 -4.462464E+05 -1.347187E+05 -2.056740E+03 -2.632777E+05  1.050220E+04 -2.375279E+04
       232   5 -4.527160E+05 -1.281111E+05 -3.667611E+03 -2.556865E+05  1.480684E+04 -2.965618E+04
       232   6 -4.463048E+05 -1.349569E+05 -6.697949E+03 -2.631992E+05  1.904191E+04 -3.536877E+04
       232   7 -7.558593E+05 -2.462831E+05 -5.601388E+04 -3.495736E+05 -1.205392E+03 -2.814884E+04
       232   8 -8.449773E+05 -2.694500E+05 -7.189261E+04 -3.650395E+05  3.432557E+03 -3.392910E+04
       232   9 -9.212716E+05 -3.061359E+05 -8.945471E+04 -3.956070E+05  8.000591E+03 -3.951859E+04
       232  10 -1.365321E+05 -2.314536E+04  5.189649E+04 -1.769411E+05 -9.980802E-10 -1.425962E-10
       232  11 -6.029015E+04  1.324278E+04  6.455142E+04 -1.462677E+05 -1.062603E-09  3.443222E-10
       232  12  2.890518E+04  3.624461E+04  7.605038E+04 -1.306946E+05  2.722706E-11  9.239755E-10
       232  13 -4.462466E+05 -1.347193E+05 -2.058007E+03 -2.632775E+05  4.396672E-11 -3.598212E-10
       232  14 -4.527165E+05 -1.281121E+05 -3.669676E+03 -2.556861E+05  1.222862E-09 -7.252002E-11
       232  15 -4.463056E+05 -1.349583E+05 -6.700980E+03 -2.631987E+05  4.150759E-10  1.103446E-09
       232  16 -7.558595E+05 -2.462839E+05 -5.601537E+04 -3.495737E+05  1.929035E-09 -1.305280E-09
       232  17 -8.449776E+05 -2.694512E+05 -7.189479E+04 -3.650395E+05  8.019890E-10  7.397492E-11
       232  18 -9.212721E+05 -3.061376E+05 -8.945776E+04 -3.956068E+05 -9.295529E-10  1.214109E-09
       232  19 -1.365315E+05 -2.314483E+04  5.189812E+04 -1.769414E+05 -2.221602E+04  1.935440E+04
       232  20 -6.028924E+04  1.324366E+04  6.455392E+04 -1.462682E+05 -2.618884E+04  2.538037E+04
       232  21  2.890641E+04  3.624590E+04  7.605391E+04 -1.306954E+05 -3.009234E+04  3.121554E+04
       232  22 -4.462464E+05 -1.347187E+05 -2.056740E+03 -2.632777E+05 -1.050220E+04  2.375279E+04
       232  23 -4.527160E+05 -1.281111E+05 -3.667611E+03 -2.556865E+05 -1.480684E+04  2.965618E+04
       232  24 -4.463048E+05 -1.349569E+05 -6.697949E+03 -2.631992E+05 -1.904191E+04  3.536877E+04
       232  25 -7.558593E+05 -2.462831E+05 -5.601388E+04 -3.495736E+05  1.205392E+03  2.814884E+04
       232  26 -8.449773E+05 -2.694500E+05 -7.189261E+04 -3.650395E+05 -3.432557E+03  3.392910E+04
       232  27 -9.212716E+05 -3.061359E+05 -8.945471E+04 -3.956070E+05 -8.000591E+03  3.951859E+04
       233   1  8.251735E+04  5.529447E+04  8.369765E+04 -1.164309E+05  3.298267E+04 -3.445178E+04
       233   2  1.577174E+05  9.219103E+04  9.196763E+04 -8.357456E+04  3.959096E+04 -3.811955E+04
       233   3  2.440252E+05  1.121940E+05  9.581452E+04 -6.483316E+04  4.541609E+04 -3.969481E+04
       233   4 -4.467290E+05 -1.348830E+05 -8.921709E+03 -2.633603E+05  2.169765E+04 -3.869457E+04
       233   5 -4.524001E+05 -1.293662E+05 -1.636145E+04 -2.550711E+05  3.196506E+04 -4.099042E+04
       233   6 -4.476992E+05 -1.414740E+05 -3.112954E+04 -2.609018E+05  4.144824E+04 -4.119284E+04
       233   7 -9.756845E+05 -3.250361E+05 -1.015507E+05 -4.101744E+05  1.042276E+04 -4.293361E+04
       233   8 -1.062128E+06 -3.508878E+05 -1.247033E+05 -4.264108E+05  2.434711E+04 -4.385828E+04
       233   9 -1.138921E+06 -3.950939E+05 -1.580912E+05 -4.567660E+05  3.748511E+04 -4.268906E+04
       233  10  8.251586E+04  5.529291E+04  8.369337E+04 -1.164300E+05  1.273808E-09  8.317502E-10
       233  11  1.577154E+05  9.218905E+04  9.196196E+04 -8.357335E+04  2.906335E-09 -6.820469E-11
       233  12  2.440226E+05  1.121917E+05  9.580768E+04 -6.483170E+04  3.551331E-09 -5.006507E-10
       233  13 -4.467299E+05 -1.348848E+05 -8.925406E+03 -2.633596E+05  3.419746E-10  1.022727E-09
       233  14 -4.524016E+05 -1.293682E+05 -1.636653E+04 -2.550700E+05  8.607722E-10  2.498641E-10
       233  15 -4.477015E+05 -1.414763E+05 -3.113596E+04 -2.609004E+05  8.563973E-10 -1.729239E-09
       233  16 -9.756852E+05 -3.250381E+05 -1.015544E+05 -4.101741E+05 -1.929355E-09  1.384625E-09
       233  17 -1.062129E+06 -3.508900E+05 -1.247081E+05 -4.264100E+05 -3.193228E-09  1.723065E-09
       233  18 -1.138923E+06 -3.950963E+05 -1.580972E+05 -4.567647E+05 -4.291313E-09 -8.169497E-10
       233  19  8.251735E+04  5.529447E+04  8.369765E+04 -1.164309E+05 -3.298267E+04  3.445178E+04
       233  20  1.577174E+05  9.219103E+04  9.196763E+04 -8.357456E+04 -3.959096E+04  3.811955E+04
       233  21  2.440252E+05  1.121940E+05  9.581452E+04 -6.483316E+04 -4.541609E+04  3.969481E+04
       233  22 -4.467290E+05 -1.348830E+05 -8.921709E+03 -2.633603E+05 -2.169765E+04  3.869457E+04
       233  23 -4.524001E+05 -1.293662E+05 -1.636145E+04 -2.550711E+05 -3.196506E+04  4.099042E+04
       233  24 -4.476992E+05 -1.414740E+05 -3.112954E+04 -2.609018E+05 -4.144824E+04  4.119284E+04
       233  25 -9.756845E+05 -3.250361E+05 -1.015507E+05 -4.101744E+05 -1.042276E+04  4.293361E+04
       233  26 -1.062128E+06 -3.508878E+05 -1.247033E+05 -4.264108E+05 -2.434711E+04  4.385828E+04
       233  27 -1.138921E+06 -3.950939E+05 -1.580912E+05 -4.567660E+05 -3.748511E+04  4.268906E+04
       234   1  3.006453E+05  1.260502E+05  9.717458E+04 -5.971078E+04  5.374991E+04 -3.958528E+04
       234   2  3.480753E+05  1.733839E+05  9.173725E+04  2.183755E+04  5.112051E+04 -3.159713E+04
       234   3  3.802388E+05  1.368775E+05  6.624551E+04  1.094431E+05  3.973709E+04 -3.582148E+02
       234   4 -4.527661E+05 -1.407102E+05 -4.141075E+04 -2.629286E+05  4.711789E+04 -4.208554E+04
       234   5 -4.502869E+05 -1.595481E+05 -7.888022E+04 -2.415952E+05  8.522845E+04 -1.877630E+04
       234   6 -4.711959E+05 -2.703742E+05 -1.687231E+05 -2.142014E+05  1.145764E+05  2.779791E+04
       234   7 -1.205582E+06 -4.074244E+05 -1.800168E+05 -4.659195E+05  4.049446E+04 -4.458276E+04
       234   8 -1.247972E+06 -4.923643E+05 -2.495240E+05 -5.046912E+05  1.192888E+05 -5.979018E+03
       234   9 -1.321862E+06 -6.774183E+05 -4.037245E+05 -5.373855E+05  1.893015E+05  5.588438E+04
       234  10  3.006417E+05  1.260478E+05  9.716621E+04 -5.970906E+04  1.686423E-09 -3.564633E-10
       234  11  3.480722E+05  1.733821E+05  9.173047E+04  2.183885E+04 -2.050295E-09 -2.156700E-09
       234  12  3.802371E+05  1.368771E+05  6.624254E+04  1.094431E+05 -3.079382E-09 -1.923133E-10
       234  13 -4.527690E+05 -1.407127E+05 -4.141825E+04 -2.629270E+05  6.792413E-10 -2.215999E-09
       234  14 -4.502948E+05 -1.595505E+05 -7.889454E+04 -2.415940E+05  6.223725E-11  2.143689E-09
       234  15 -4.712102E+05 -2.703786E+05 -1.687492E+05 -2.142040E+05  1.019156E-09 -1.123476E-09
       234  16 -1.205585E+06 -4.074269E+05 -1.800236E+05 -4.659181E+05 -2.470026E-09 -9.507898E-10
       234  17 -1.247987E+06 -4.923682E+05 -2.495508E+05 -5.046906E+05  1.665494E-09 -5.970004E-10
       234  18 -1.321902E+06 -6.774313E+05 -4.037979E+05 -5.373940E+05  2.116790E-09 -1.712353E-10
       234  19  3.006453E+05  1.260502E+05  9.717458E+04 -5.971078E+04 -5.374991E+04  3.958528E+04
       234  20  3.480753E+05  1.733839E+05  9.173725E+04  2.183755E+04 -5.112051E+04  3.159713E+04
       234  21  3.802388E+05  1.368775E+05  6.624551E+04  1.094431E+05 -3.973709E+04  3.582148E+02
       234  22 -4.527661E+05 -1.407102E+05 -4.141075E+04 -2.629286E+05 -4.711789E+04  4.208554E+04
       234  23 -4.502869E+05 -1.595481E+05 -7.888022E+04 -2.415952E+05 -8.522845E+04  1.877630E+04
       234  24 -4.711959E+05 -2.703742E+05 -1.687231E+05 -2.142014E+05 -1.145764E+05 -2.779791E+04
       234  25 -1.205582E+06 -4.074244E+05 -1.800168E+05 -4.659195E+05 -4.049446E+04  4.458276E+04
       234  26 -1.247972E+06 -4.923643E+05 -2.495240E+05 -5.046912E+05 -1.192888E+05  5.979018E+03
       234  27 -1.321862E+06 -6.774183E+05 -4.037245E+05 -5.373855E+05 -1.893015E+05 -5.588438E+04
       235   1  1.183934E+06  1.584295E+05  1.368229E+05  1.142521E+03  1.951125E+04 -1.403065E+04
       235   2  1.138257E+06  1.995493E+05  1.294854E+05  2.557817E+04  1.254020E+03 -4.800554E+04
       235   3  1.085623E+06  2.031412E+05  1.246902E+05  5.839216E+04 -1.704054E+04 -5.967370E+04
       235   4  1.957657E+05 -8.473314E+04 -9.282577E+04  5.432114E+04 -6.496158E+04 -1.419629E+04
       235   5  2.028895E+05 -2.227493E+04 -4.563748E+04  5.004386E+04 -4.141424E+04 -4.810173E+04
       235   6  1.957864E+05 -4.631910E+03 -2.492683E+04  5.414505E+04 -1.790519E+04 -5.968337E+04
       235   7 -7.914814E+05 -3.279499E+05 -3.225118E+05  1.074142E+05 -1.493010E+05 -1.437651E+04
       235   8 -7.316278E+05 -2.441464E+05 -2.207910E+05  7.447138E+04 -8.401988E+04 -4.820137E+04
       235   9 -6.932703E+05 -2.124464E+05 -1.745689E+05  4.990376E+04 -1.876862E+04 -5.969303E+04
       235  10  1.183934E+06  1.584292E+05  1.368218E+05  1.142741E+03  7.358082E-09 -1.156470E-09
       235  11  1.138256E+06  1.995468E+05  1.294811E+05  2.557822E+04  5.781428E-10 -6.000543E-09
       235  12  1.085621E+06  2.031373E+05  1.246830E+05  5.839134E+04 -2.593075E-09 -4.034778E-09
       235  13  1.957611E+05 -8.473449E+04 -9.283408E+04  5.432040E+04  1.659460E-09  5.879602E-10
       235  14  2.028870E+05 -2.227787E+04 -4.564505E+04  5.004226E+04 -1.063592E-09 -3.802782E-09
       235  15  1.957851E+05 -4.635821E+03 -2.493412E+04  5.414419E+04  1.402481E-09  6.630908E-11
       235  16 -7.915054E+05 -3.279561E+05 -3.225541E+05  1.074125E+05 -6.703803E-09 -2.597859E-10
       235  17 -7.316361E+05 -2.441507E+05 -2.208086E+05  7.446812E+04 -1.901767E-09 -7.660936E-09
       235  18 -6.932716E+05 -2.124504E+05 -1.745762E+05  4.990285E+04  1.820949E-09 -6.008395E-09
       235  19  1.183934E+06  1.584295E+05  1.368229E+05  1.142521E+03 -1.951125E+04  1.403065E+04
       235  20  1.138257E+06  1.995493E+05  1.294854E+05  2.557817E+04 -1.254020E+03  4.800554E+04
       235  21  1.085623E+06  2.031412E+05  1.246902E+05  5.839216E+04  1.704054E+04  5.967370E+04
       235  22  1.957657E+05 -8.473314E+04 -9.282577E+04  5.432114E+04  6.496158E+04  1.419629E+04
       235  23  2.028895E+05 -2.227493E+04 -4.563748E+04  5.004386E+04  4.141424E+04  4.810173E+04
       235  24  1.957864E+05 -4.631910E+03 -2.492683E+04  5.414505E+04  1.790519E+04  5.968337E+04
       235  25 -7.914814E+05 -3.279499E+05 -3.225118E+05  1.074142E+05  1.493010E+05  1.437651E+04
       235  26 -7.316278E+05 -2.441464E+05 -2.207910E+05  7.447138E+04  8.401988E+04  4.820137E+04
       235  27 -6.932703E+05 -2.124464E+05 -1.745689E+05  4.990376E+04  1.876862E+04  5.969303E+04
       236   1  1.056082E+06  1.952122E+05  1.231092E+05  5.388213E+04 -1.241548E+04 -5.930499E+04
       236   2  1.007593E+06  1.866230E+05  1.192677E+05  5.030632E+04 -1.153738E+04 -5.937130E+04
       236   3  9.584846E+05  1.760121E+05  1.143540E+05  5.657365E+04 -1.066596E+04 -5.714874E+04
       236   4  1.986548E+05 -4.528133E+03 -1.884649E+04  5.448912E+04 -1.467400E+04 -5.931788E+04
       236   5  1.993503E+05 -8.274972E+02 -1.032617E+04  4.956115E+04 -9.511106E+03 -5.937352E+04
       236   6  1.986799E+05  1.063179E+02 -5.853787E+03  5.447717E+04 -4.354726E+03 -5.713880E+04
       236   7 -6.580464E+05 -2.043064E+05 -1.608242E+05  5.509479E+04 -1.692951E+04 -5.933077E+04
       236   8 -6.082442E+05 -1.883108E+05 -1.399373E+05  4.881657E+04 -7.487362E+03 -5.937575E+04
       236   9 -5.605506E+05 -1.758281E+05 -1.260760E+05  5.238298E+04  1.949081E+03 -5.712889E+04
       236  10  1.056081E+06  1.952083E+05  1.231023E+05  5.388154E+04 -5.725119E-09 -4.064561E-09
       236  11  1.007592E+06  1.866192E+05  1.192608E+05  5.030577E+04 -2.758750E-09  5.066524E-10
       236  12  9.584836E+05  1.760086E+05  1.143477E+05  5.657315E+04  3.101230E-09  1.152878E-09
       236  13  1.986537E+05 -4.531969E+03 -1.885351E+04  5.448841E+04  6.013026E-10 -2.204519E-09
       236  14  1.993492E+05 -8.313072E+02 -1.033296E+04  4.956069E+04  1.718229E-09  6.238835E-10
       236  15  1.986790E+05  1.028066E+02 -5.859958E+03  5.447697E+04  4.714115E-10 -3.082202E-09
       236  16 -6.580477E+05 -2.043103E+05 -1.608313E+05  5.509399E+04  5.996467E-09  9.698256E-10
       236  17 -6.082452E+05 -1.883146E+05 -1.399440E+05  4.881621E+04  2.046131E-09  2.362150E-09
       236  18 -5.605515E+05 -1.758316E+05 -1.260821E+05  5.238307E+04 -3.489242E-09 -3.794800E-10
       236  19  1.056082E+06  1.952122E+05  1.231092E+05  5.388213E+04  1.241548E+04  5.930499E+04
       236  20  1.007593E+06  1.866230E+05  1.192677E+05  5.030632E+04  1.153738E+04  5.937130E+04
       236  21  9.584846E+05  1.760121E+05  1.143540E+05  5.657365E+04  1.066596E+04  5.714874E+04
       236  22  1.986548E+05 -4.528133E+03 -1.884649E+04  5.448912E+04  1.467400E+04  5.931788E+04
       236  23  1.993503E+05 -8.274972E+02 -1.032617E+04  4.956115E+04  9.511106E+03  5.937352E+04
       236  24  1.986799E+05  1.063179E+02 -5.853787E+03  5.447717E+04  4.354726E+03  5.713880E+04
       236  25 -6.580464E+05 -2.043064E+05 -1.608242E+05  5.509479E+04  1.692951E+04  5.933077E+04
       236  26 -6.082442E+05 -1.883108E+05 -1.399373E+05  4.881657E+04  7.487362E+03  5.937575E+04
       236  27 -5.605506E+05 -1.758281E+05 -1.260760E+05  5.238298E+04 -1.949081E+03  5.712889E+04
       237   1  9.274888E+05  1.686752E+05  1.104318E+05  5.619972E+04 -9.632768E+03 -5.512310E+04
       237   2  8.788466E+05  1.574853E+05  1.043269E+05  5.113373E+04 -8.830745E+03 -5.171624E+04
       237   3  8.300665E+05  1.462643E+05  9.768532E+04  5.604833E+04 -8.031027E+03 -4.807575E+04
       237   4  1.989442E+05  8.481051E+01 -4.435326E+03  5.450916E+04 -3.467449E+03 -5.511262E+04
       237   5  1.990634E+05  2.420422E+02 -2.513308E+03  4.951825E+04 -2.229024E+03 -5.170312E+04
       237   6  1.989662E+05  2.924033E+02 -1.431651E+03  5.450858E+04 -9.928451E+02 -4.805985E+04
       237   7 -5.290722E+05 -1.685318E+05 -1.193154E+05  5.282028E+04  2.690913E+03 -5.510217E+04
       237   8 -4.802598E+05 -1.570240E+05 -1.093647E+05  4.790428E+04  4.365745E+03 -5.169003E+04
       237   9 -4.317374E+05 -1.456991E+05 -1.005582E+05  5.297016E+04  6.038456E+03 -4.804398E+04
       237  10  9.274879E+05  1.686719E+05  1.104259E+05  5.619930E+04 -1.210312E-08  1.941587E-09
       237  11  8.788458E+05  1.574824E+05  1.043217E+05  5.113336E+04  2.078595E-08  3.035705E-09
       237  12  8.300658E+05  1.462618E+05  9.768086E+04  5.604802E+04  5.431031E-08  2.611592E-09
       237  13  1.989433E+05  8.154535E+01 -4.441057E+03  5.450900E+04 -1.594238E-09 -4.234655E-09
       237  14  1.990626E+05  2.391700E+02 -2.518341E+03  4.951816E+04 -1.426350E-09  3.729085E-09
       237  15  1.989656E+05  2.899226E+02 -1.435994E+03  5.450854E+04  1.985635E-09  6.560738E-09
       237  16 -5.290730E+05 -1.685351E+05 -1.193212E+05  5.282040E+04  1.191019E-08  1.216399E-09
       237  17 -4.802605E+05 -1.570269E+05 -1.093697E+05  4.790447E+04 -2.236539E-08  4.007556E-09
       237  18 -4.317381E+05 -1.457016E+05 -1.005626E+05  5.297040E+04 -5.501504E-08  5.546717E-10
       237  19  9.274888E+05  1.686752E+05  1.104318E+05  5.619972E+04  9.632768E+03  5.512310E+04
       237  20  8.788466E+05  1.574853E+05  1.043269E+05  5.113373E+04  8.830745E+03  5.171624E+04
       237  21  8.300665E+05  1.462643E+05  9.768532E+04  5.604833E+04  8.031027E+03  4.807575E+04
       237  22  1.989442E+05  8.481051E+01 -4.435326E+03  5.450916E+04  3.467449E+03  5.511262E+04
       237  23  1.990634E+05  2.420422E+02 -2.513308E+03  4.951825E+04  2.229024E+03  5.170312E+04
       237  24  1.989662E+05  2.924033E+02 -1.431651E+03  5.450858E+04  9.928451E+02  4.805985E+04
       237  25 -5.290722E+05 -1.685318E+05 -1.193154E+05  5.282028E+04 -2.690913E+03  5.510217E+04
       237  26 -4.802598E+05 -1.570240E+05 -1.093647E+05  4.790428E+04 -4.365745E+03  5.169003E+04
       237  27 -4.317374E+05 -1.456991E+05 -1.005582E+05  5.297016E+04 -6.038456E+03  4.804398E+04
       238   1  7.989987E+05  1.390274E+05  9.293884E+04  5.596364E+04 -7.792742E+03 -4.588327E+04
       238   2  7.503739E+05  1.277667E+05  8.583883E+04  5.086741E+04 -7.545402E+03 -4.212471E+04
       238   3  7.016874E+05  1.165706E+05  7.858031E+04  5.575521E+04 -7.299515E+03 -3.834328E+04
       238   4  1.990055E+05  2.907025E+02 -1.080559E+03  5.450944E+04 -7.715621E+02 -4.586659E+04
       238   5  1.990507E+05  2.703567E+02 -6.048245E+02  4.951717E+04 -4.819492E+02 -4.210662E+04
       238   6  1.990235E+05  3.072089E+02 -3.174335E+02  5.450943E+04 -1.937723E+02 -3.832379E+04
       238   7 -4.006290E+05 -1.384637E+05 -9.510847E+04  5.305642E+04  6.243093E+03 -4.584993E+04
       238   8 -3.519697E+05 -1.272409E+05 -8.705565E+04  4.816794E+04  6.575470E+03 -4.208856E+04
       238   9 -3.033886E+05 -1.159686E+05 -7.922113E+04  5.326450E+04  6.906436E+03 -3.830431E+04
       238  10  7.989981E+05  1.390252E+05  9.293477E+04  5.596336E+04 -4.522045E-08  2.960894E-09
       238  11  7.503734E+05  1.277648E+05  8.583539E+04  5.086716E+04 -2.069554E-08  9.631665E-09
       238  12  7.016869E+05  1.165690E+05  7.857744E+04  5.575498E+04  7.781285E-09  7.042899E-09
       238  13  1.990050E+05  2.884431E+02 -1.084514E+03  5.450941E+04  1.889254E-09  2.041480E-09
       238  14  1.990502E+05  2.684526E+02 -6.081570E+02  4.951715E+04 -1.491174E-10  8.362889E-09
       238  15  1.990231E+05  3.056316E+02 -3.201938E+02  5.450943E+04 -5.659968E-10  2.400729E-09
       238  16 -4.006296E+05 -1.384660E+05 -9.511249E+04  5.305665E+04  4.472076E-08  8.364445E-10
       238  17 -3.519702E+05 -1.272428E+05 -8.705906E+04  4.816816E+04  2.211903E-08  3.418357E-09
       238  18 -3.033890E+05 -1.159702E+05 -7.922398E+04  5.326471E+04 -1.044650E-08  6.578951E-10
       238  19  7.989987E+05  1.390274E+05  9.293884E+04  5.596364E+04  7.792742E+03  4.588327E+04
       238  20  7.503739E+05  1.277667E+05  8.583883E+04  5.086741E+04  7.545402E+03  4.212471E+04
       238  21  7.016874E+05  1.165706E+05  7.858031E+04  5.575521E+04  7.299515E+03  3.834328E+04
       238  22  1.990055E+05  2.907025E+02 -1.080559E+03  5.450944E+04  7.715621E+02  4.586659E+04
       238  23  1.990507E+05  2.703567E+02 -6.048245E+02  4.951717E+04  4.819492E+02  4.210662E+04
       238  24  1.990235E+05  3.072089E+02 -3.174335E+02  5.450943E+04  1.937723E+02  3.832379E+04
       238  25 -4.006290E+05 -1.384637E+05 -9.510847E+04  5.305642E+04 -6.243093E+03  4.584993E+04
       238  26 -3.519697E+05 -1.272409E+05 -8.705565E+04  4.816794E+04 -6.575470E+03  4.208856E+04
       238  27 -3.033886E+05 -1.159686E+05 -7.922113E+04  5.326450E+04 -6.906436E+03  3.830431E+04
       239   1  6.706335E+05  1.093534E+05  7.361095E+04  5.568972E+04 -7.253619E+03 -3.613566E+04
       239   2  6.220458E+05  9.810675E+04  6.624241E+04  5.059643E+04 -7.235528E+03 -3.234442E+04
       239   3  5.734097E+05  8.692863E+04  5.886023E+04  5.548528E+04 -7.218491E+03 -2.855231E+04
       239   4  1.990342E+05  3.118458E+02 -2.177040E+02  5.450900E+04 -1.511919E+02 -3.611551E+04
       239   5  1.990663E+05  2.868554E+02 -6.162347E+01  4.951773E+04 -1.316829E+02 -3.232328E+04
       239   6  1.990480E+05  3.304142E+02  7.989723E+01  5.450898E+04 -1.132263E+02 -2.853018E+04
       239   7 -2.723434E+05 -1.087406E+05 -7.405152E+04  5.332903E+04  6.946046E+03 -3.609537E+04
       239   8 -2.237349E+05 -9.754182E+04 -6.636980E+04  4.843964E+04  6.967506E+03 -3.230216E+04
       239   9 -1.751740E+05 -8.627468E+04 -5.870366E+04  5.353317E+04  6.987917E+03 -2.850806E+04
       239  10  6.706331E+05  1.093520E+05  7.360840E+04  5.568951E+04  1.163760E-08  1.319211E-09
       239  11  6.220455E+05  9.810561E+04  6.624035E+04  5.059624E+04  1.487439E-09 -3.123466E-09
       239  12  5.734094E+05  8.692774E+04  5.885860E+04  5.548511E+04 -8.446878E-09 -1.950169E-09
       239  13  1.990338E+05  3.104450E+02 -2.201554E+02  5.450899E+04 -1.160985E-10  8.372735E-09
       239  14  1.990660E+05  2.857333E+02 -6.358706E+01  4.951772E+04 -1.755567E-09  7.479811E-10
       239  15  1.990478E+05  3.295400E+02  7.836746E+01  5.450898E+04  2.729865E-10 -2.818646E-09
       239  16 -2.723438E+05 -1.087420E+05 -7.405406E+04  5.332923E+04 -1.325715E-08  2.698489E-09
       239  17 -2.237353E+05 -9.754295E+04 -6.637185E+04  4.843982E+04 -1.409467E-09 -2.607113E-09
       239  18 -1.751743E+05 -8.627557E+04 -5.870528E+04  5.353333E+04  5.606657E-09 -3.585101E-09
       239  19  6.706335E+05  1.093534E+05  7.361095E+04  5.568972E+04  7.253619E+03  3.613566E+04
       239  20  6.220458E+05  9.810675E+04  6.624241E+04  5.059643E+04  7.235528E+03  3.234442E+04
       239  21  5.734097E+05  8.692863E+04  5.886023E+04  5.548528E+04  7.218491E+03  2.855231E+04
       239  22  1.990342E+05  3.118458E+02 -2.177040E+02  5.450900E+04  1.511919E+02  3.611551E+04
       239  23  1.990663E+05  2.868554E+02 -6.162347E+01  4.951773E+04  1.316829E+02  3.232328E+04
       239  24  1.990480E+05  3.304142E+02  7.989723E+01  5.450898E+04  1.132263E+02  2.853018E+04
       239  25 -2.723434E+05 -1.087406E+05 -7.405152E+04  5.332903E+04 -6.946046E+03  3.609537E+04
       239  26 -2.237349E+05 -9.754182E+04 -6.636980E+04  4.843964E+04 -6.967506E+03  3.230216E+04
       239  27 -1.751740E+05 -8.627468E+04 -5.870366E+04  5.353317E+04 -6.987917E+03  2.850806E+04
       240   1  5.423815E+05  7.971584E+04  5.387203E+04  5.541769E+04 -7.245284E+03 -2.634495E+04
       240   2  4.938164E+05  6.847506E+04  4.654647E+04  5.031781E+04 -7.418544E+03 -2.255642E+04
       240   3  4.452227E+05  5.732705E+04  3.933446E+04  5.519222E+04 -7.592501E+03 -1.877433E+04
       240   4  1.990570E+05  3.338812E+02  1.553104E+02  5.450723E+04 -1.411712E+02 -2.632233E+04
       240   5  1.990763E+05  3.084396E+02  3.501069E+02  4.951989E+04 -3.266850E+02 -2.253315E+04
       240   6  1.990666E+05  3.779760E+02  6.668556E+02  5.450711E+04 -5.129087E+02 -1.875042E+04
       240   7 -1.441499E+05 -7.905384E+04 -5.356405E+04  5.359719E+04  6.959163E+03 -2.629972E+04
       240   8 -9.557718E+04 -6.786243E+04 -4.584816E+04  4.872230E+04  6.761935E+03 -2.250990E+04
       240   9 -4.702896E+04 -5.657406E+04 -3.800204E+04  5.382223E+04  6.563983E+03 -1.872652E+04
       240  10  5.423813E+05  7.971508E+04  5.387063E+04  5.541754E+04 -2.629136E-09  2.913057E-09
       240  11  4.938162E+05  6.847449E+04  4.654541E+04  5.031768E+04 -3.001129E-09  1.624151E-09
       240  12  4.452225E+05  5.732665E+04  3.933369E+04  5.519210E+04 -5.294688E-09  3.131776E-09
       240  13  1.990568E+05  3.331371E+02  1.540082E+02  5.450723E+04  8.776339E-10 -5.185435E-10
       240  14  1.990761E+05  3.078943E+02  3.491524E+02  4.951989E+04  1.966965E-09  1.002480E-09
       240  15  1.990665E+05  3.775983E+02  6.661944E+02  5.450710E+04  1.728466E-09  2.320311E-09
       240  16 -1.441501E+05 -7.905460E+04 -5.356544E+04  5.359734E+04  2.904476E-09  2.864602E-09
       240  17 -9.557737E+04 -6.786298E+04 -4.584920E+04  4.872242E+04  4.241204E-09 -6.243406E-09
       240  18 -4.702911E+04 -5.657445E+04 -3.800278E+04  5.382233E+04  2.905658E-09  1.147205E-10
       240  19  5.423815E+05  7.971584E+04  5.387203E+04  5.541769E+04  7.245284E+03  2.634495E+04
       240  20  4.938164E+05  6.847506E+04  4.654647E+04  5.031781E+04  7.418544E+03  2.255642E+04
       240  21  4.452227E+05  5.732705E+04  3.933446E+04  5.519222E+04  7.592501E+03  1.877433E+04
       240  22  1.990570E+05  3.338812E+02  1.553104E+02  5.450723E+04  1.411712E+02  2.632233E+04
       240  23  1.990763E+05  3.084396E+02  3.501069E+02  4.951989E+04  3.266850E+02  2.253315E+04
       240  24  1.990666E+05  3.779760E+02  6.668556E+02  5.450711E+04  5.129087E+02  1.875042E+04
       240  25 -1.441499E+05 -7.905384E+04 -5.356405E+04  5.359719E+04 -6.959163E+03  2.629972E+04
       240  26 -9.557718E+04 -6.786243E+04 -4.584816E+04  4.872230E+04 -6.761935E+03  2.250990E+04
       240  27 -4.702896E+04 -5.657406E+04 -3.800204E+04  5.382223E+04 -6.563983E+03  1.872652E+04
       241   1  4.142437E+05  5.011118E+04  3.449292E+04  5.517029E+04 -7.737494E+03 -1.657248E+04
       241   2  3.656220E+05  3.899870E+04  2.763338E+04  4.984838E+04 -8.435322E+03 -1.282308E+04
       241   3  3.171324E+05  2.837593E+04  2.132599E+04  5.449145E+04 -9.133302E+03 -9.132587E+03
       241   4  1.991087E+05  3.763873E+02  8.923168E+02  5.450535E+04 -6.551888E+02 -1.654824E+04
       241   5  1.990373E+05  4.837147E+02  1.592462E+03  4.952154E+04 -1.463479E+03 -1.279885E+04
       241   6  1.991140E+05  1.099838E+03  2.921152E+03  5.450285E+04 -2.271968E+03 -9.108373E+03
       241   7 -1.598004E+04 -4.936065E+04 -3.270920E+04  5.384060E+04  6.424756E+03 -1.652402E+04
       241   8  3.248036E+04 -3.803261E+04 -2.444893E+04  4.919477E+04  5.506565E+03 -1.277463E+04
       241   9  8.110954E+04 -2.617691E+04 -1.548384E+04  5.451423E+04  4.588112E+03 -9.084157E+03
       241  10  4.142435E+05  5.011087E+04  3.449229E+04  5.517019E+04 -1.972373E-09  7.878568E-09
       241  11  3.656219E+05  3.899851E+04  2.763294E+04  4.984829E+04  8.584800E-10 -1.898226E-09
       241  12  3.171323E+05  2.837582E+04  2.132568E+04  5.449139E+04  4.157941E-09  5.120412E-09
       241  13  1.991086E+05  3.760931E+02  8.918013E+02  5.450534E+04 -1.248164E-09  3.579850E-09
       241  14  1.990373E+05  4.835382E+02  1.592150E+03  4.952152E+04  1.456855E-09  3.722671E-09
       241  15  1.991140E+05  1.099748E+03  2.920987E+03  5.450283E+04  3.226474E-09 -5.398629E-09
       241  16 -1.598016E+04 -4.936095E+04 -3.270979E+04  5.384069E+04  2.302390E-09  4.115454E-09
       241  17  3.248028E+04 -3.803279E+04 -2.444930E+04  4.919483E+04 -9.575402E-10  7.796302E-10
       241  18  8.110949E+04 -2.617700E+04 -1.548403E+04  5.451426E+04 -5.811331E-09 -1.032524E-08
       241  19  4.142437E+05  5.011118E+04  3.449292E+04  5.517029E+04  7.737494E+03  1.657248E+04
       241  20  3.656220E+05  3.899870E+04  2.763338E+04  4.984838E+04  8.435322E+03  1.282308E+04
       241  21  3.171324E+05  2.837593E+04  2.132599E+04  5.449145E+04  9.133302E+03  9.132587E+03
       241  22  1.991087E+05  3.763873E+02  8.923168E+02  5.450535E+04  6.551888E+02  1.654824E+04
       241  23  1.990373E+05  4.837147E+02  1.592462E+03  4.952154E+04  1.463479E+03  1.279885E+04
       241  24  1.991140E+05  1.099838E+03  2.921152E+03  5.450285E+04  2.271968E+03  9.108373E+03
       241  25 -1.598004E+04 -4.936065E+04 -3.270920E+04  5.384060E+04 -6.424756E+03  1.652402E+04
       241  26  3.248036E+04 -3.803261E+04 -2.444893E+04  4.919477E+04 -5.506565E+03  1.277463E+04
       241  27  8.110954E+04 -2.617691E+04 -1.548384E+04  5.451423E+04 -4.588112E+03  9.084157E+03
       242   1  2.865355E+05  2.116591E+04  1.714659E+04  5.515407E+04 -9.676738E+03 -6.975216E+03
       242   2  2.370344E+05  1.255275E+04  1.239248E+04  4.559111E+04 -1.226250E+04 -3.586843E+03
       242   3  1.894999E+05  1.080026E+04  1.101170E+04  4.593809E+04 -1.484626E+04 -7.686035E+02
       242   4  1.995601E+05  1.115211E+03  3.866806E+03  5.449558E+04 -2.780587E+03 -6.950728E+03
       242   5  1.984853E+05  3.816862E+03  7.082671E+03  4.951883E+04 -6.434100E+03 -3.566161E+03
       242   6  1.995604E+05  1.356481E+04  1.441319E+04  5.445175E+04 -1.008580E+04 -7.517808E+02
       242   7  1.125924E+05 -1.893583E+04 -9.412967E+03  5.383717E+04  4.114635E+03 -6.926253E+03
       242   8  1.599378E+05 -4.919014E+03  1.772979E+03  5.344629E+04 -6.060487E+02 -3.545404E+03
       242   9  2.096211E+05  1.632964E+04  1.781479E+04  6.296555E+04 -5.325271E+03 -7.348277E+02
       242  10  2.865353E+05  2.116583E+04  1.714633E+04  5.515402E+04 -5.562467E-10  4.568898E-09
       242  11  2.370343E+05  1.255270E+04  1.239218E+04  4.559108E+04 -3.529815E-09 -6.533976E-09
       242  12  1.894996E+05  1.080020E+04  1.101129E+04  4.593808E+04 -2.010934E-09 -9.786201E-10
       242  13  1.995601E+05  1.115157E+03  3.866700E+03  5.449556E+04  2.154540E-09  4.601299E-09
       242  14  1.984853E+05  3.816838E+03  7.082569E+03  4.951881E+04  1.887875E-09 -1.061344E-08
       242  15  1.995602E+05  1.356479E+04  1.441300E+04  5.445174E+04  2.544642E-09  3.831106E-09
       242  16  1.125924E+05 -1.893588E+04 -9.413089E+03  5.383719E+04  2.646467E-09 -1.345899E-09
       242  17  1.599378E+05 -4.919028E+03  1.772954E+03  5.344629E+04  4.956746E-09  2.124046E-09
       242  18  2.096211E+05  1.632963E+04  1.781474E+04  6.296555E+04  1.167927E-09 -6.637971E-10
       242  19  2.865355E+05  2.116591E+04  1.714659E+04  5.515407E+04  9.676738E+03  6.975216E+03
       242  20  2.370344E+05  1.255275E+04  1.239248E+04  4.559111E+04  1.226250E+04  3.586843E+03
       242  21  1.894999E+05  1.080026E+04  1.101170E+04  4.593809E+04  1.484626E+04  7.686035E+02
       242  22  1.995601E+05  1.115211E+03  3.866806E+03  5.449558E+04  2.780587E+03  6.950728E+03
       242  23  1.984853E+05  3.816862E+03  7.082671E+03  4.951883E+04  6.434100E+03  3.566161E+03
       242  24  1.995604E+05  1.356481E+04  1.441319E+04  5.445175E+04  1.008580E+04  7.517808E+02
       242  25  1.125924E+05 -1.893583E+04 -9.412967E+03  5.383717E+04 -4.114635E+03  6.926253E+03
       242  26  1.599378E+05 -4.919014E+03  1.772979E+03  5.344629E+04  6.060487E+02  3.545404E+03
       242  27  2.096211E+05  1.632964E+04  1.781479E+04  6.296555E+04  5.325271E+03  7.348277E+02
       243   1  5.596617E+04  8.953290E+05  5.947024E+04 -1.603101E+05 -7.964403E+02  1.551875E+04
       243   2  2.665230E+03  7.673655E+05  1.828825E+04 -1.369266E+05 -5.224222E+03  3.379607E+02
       243   3 -3.290396E+04  6.457064E+05 -8.617797E+03 -1.389047E+05 -1.249411E+04 -1.484482E+04
       243   4  3.170806E+04  7.993648E+05  3.455251E+04 -1.397628E+05 -8.076505E+02  2.121163E+04
       243   5  8.665408E+03  7.966840E+05  1.923595E+04 -1.271112E+05 -5.246683E+03  1.135602E+04
       243   6  2.432149E+03  7.993728E+05  1.450298E+04 -1.398192E+05 -1.252725E+04  1.495650E+03
       243   7  7.450828E+03  7.034098E+05  9.634395E+03 -1.192187E+05 -8.184853E+02  2.690362E+04
       243   8  1.466600E+04  8.260040E+05  2.018423E+04 -1.172954E+05 -5.268795E+03  2.237456E+04
       243   9  3.776729E+04  9.530635E+05  3.762428E+04 -1.407339E+05 -1.256043E+04  1.784000E+04
       243  10  5.596610E+04  8.953288E+05  5.946979E+04 -1.603100E+05 -1.974691E-10 -3.347624E-11
       243  11  2.665201E+03  7.673655E+05  1.828820E+04 -1.369266E+05  6.194459E-10 -1.616958E-09
       243  12 -3.290419E+04  6.457061E+05 -8.618504E+03 -1.389048E+05  1.546017E-09  4.234270E-10
       243  13  3.170794E+04  7.993643E+05  3.455167E+04 -1.397628E+05  1.455321E-09 -2.933892E-11
       243  14  8.665344E+03  7.966839E+05  1.923566E+04 -1.271112E+05 -1.233442E-09  1.939890E-09
       243  15  2.431980E+03  7.993728E+05  1.450268E+04 -1.398192E+05  8.730523E-10 -2.821938E-09
       243  16  7.450633E+03  7.034091E+05  9.633035E+03 -1.192187E+05  3.678599E-10  1.958804E-09
       243  17  1.466584E+04  8.260034E+05  2.018323E+04 -1.172953E+05 -7.064658E-10  7.391221E-10
       243  18  3.776703E+04  9.530631E+05  3.762339E+04 -1.407337E+05 -1.242236E-09  9.339937E-10
       243  19  5.596617E+04  8.953290E+05  5.947024E+04 -1.603101E+05  7.964403E+02 -1.551875E+04
       243  20  2.665230E+03  7.673655E+05  1.828825E+04 -1.369266E+05  5.224222E+03 -3.379607E+02
       243  21 -3.290396E+04  6.457064E+05 -8.617797E+03 -1.389047E+05  1.249411E+04  1.484482E+04
       243  22  3.170806E+04  7.993648E+05  3.455251E+04 -1.397628E+05  8.076505E+02 -2.121163E+04
       243  23  8.665408E+03  7.966840E+05  1.923595E+04 -1.271112E+05  5.246683E+03 -1.135602E+04
       243  24  2.432149E+03  7.993728E+05  1.450298E+04 -1.398192E+05  1.252725E+04 -1.495650E+03
       243  25  7.450828E+03  7.034098E+05  9.634395E+03 -1.192187E+05  8.184853E+02 -2.690362E+04
       243  26  1.466600E+04  8.260040E+05  2.018423E+04 -1.172954E+05  5.268795E+03 -2.237456E+04
       243  27  3.776729E+04  9.530635E+05  3.762428E+04 -1.407339E+05  1.256043E+04 -1.784000E+04
       244   1 -5.168744E+04  5.650106E+05 -2.245551E+04 -1.410770E+05 -1.774542E+04 -1.707025E+04
       244   2 -8.120979E+04  4.392754E+05 -4.113558E+04 -1.258726E+05 -2.560489E+04 -2.256305E+04
       244   3 -1.064046E+05  3.152549E+05 -5.518793E+04 -1.361328E+05 -3.182783E+04 -2.805029E+04
       244   4  2.341000E+03  7.986685E+05  1.424209E+04 -1.398373E+05 -1.777785E+04 -7.962002E+02
       244   5  2.046171E+03  7.975370E+05  1.710702E+04 -1.271013E+05 -2.562937E+04 -9.359719E+03
       244   6  6.610367E+03  7.986353E+05  2.672746E+04 -1.398286E+05 -3.184480E+04 -1.791873E+04
       244   7  5.636690E+04  1.032381E+06  5.093935E+04 -1.385970E+05 -1.781020E+04  1.548375E+04
       244   8  8.529570E+04  1.155926E+06  7.534669E+04 -1.283307E+05 -2.565388E+04  3.850960E+03
       244   9  1.196131E+05  1.282246E+06  1.086357E+05 -1.435272E+05 -3.186189E+04 -7.779534E+03
       244  10 -5.168786E+04  5.650103E+05 -2.245665E+04 -1.410773E+05  3.396221E-10 -4.644970E-10
       244  11 -8.121063E+04  4.392747E+05 -4.113777E+04 -1.258730E+05  4.138032E-11 -2.807972E-09
       244  12 -1.064059E+05  3.152538E+05 -5.519132E+04 -1.361336E+05 -8.375107E-10 -1.225897E-09
       244  13  2.340660E+03  7.986684E+05  1.424149E+04 -1.398373E+05 -1.228682E-09 -3.381377E-11
       244  14  2.045441E+03  7.975367E+05  1.710562E+04 -1.271015E+05 -7.135261E-10  1.838506E-09
       244  15  6.609192E+03  7.986347E+05  2.672495E+04 -1.398291E+05 -1.659786E-09 -2.835619E-09
       244  16  5.636649E+04  1.032381E+06  5.093830E+04 -1.385968E+05 -1.798544E-09  2.133814E-09
       244  17  8.529499E+04  1.155926E+06  7.534542E+04 -1.283306E+05 -3.135895E-09  1.730070E-09
       244  18  1.196120E+05  1.282245E+06  1.086337E+05 -1.435274E+05 -1.913686E-09  1.914394E-09
       244  19 -5.168744E+04  5.650106E+05 -2.245551E+04 -1.410770E+05  1.774542E+04  1.707025E+04
       244  20 -8.120979E+04  4.392754E+05 -4.113558E+04 -1.258726E+05  2.560489E+04  2.256305E+04
       244  21 -1.064046E+05  3.152549E+05 -5.518793E+04 -1.361328E+05  3.182783E+04  2.805029E+04
       244  22  2.341000E+03  7.986685E+05  1.424209E+04 -1.398373E+05  1.777785E+04  7.962002E+02
       244  23  2.046171E+03  7.975370E+05  1.710702E+04 -1.271013E+05  2.562937E+04  9.359719E+03
       244  24  6.610367E+03  7.986353E+05  2.672746E+04 -1.398286E+05  3.184480E+04  1.791873E+04
       244  25  5.636690E+04  1.032381E+06  5.093935E+04 -1.385970E+05  1.781020E+04 -1.548375E+04
       244  26  8.529570E+04  1.155926E+06  7.534669E+04 -1.283307E+05  2.565388E+04 -3.850960E+03
       244  27  1.196131E+05  1.282246E+06  1.086357E+05 -1.435272E+05  3.186189E+04  7.779534E+03
       245   1 -1.254818E+05  2.380787E+05 -6.295579E+04 -1.422893E+05 -3.588270E+04 -3.375670E+04
       245   2 -1.339403E+05  1.066906E+05 -7.122107E+04 -9.225747E+04 -3.244814E+04 -2.938793E+04
       245   3 -8.925973E+04 -1.200449E+04 -6.904822E+04 -6.641161E+04 -1.004711E+04 -2.499350E+04
       245   4  6.718847E+03  8.023080E+05  3.420565E+04 -1.395614E+05 -3.590096E+04 -2.246971E+04
       245   5  2.973992E+04  7.928513E+05  6.065518E+04 -1.273813E+05 -3.240142E+04 -5.363071E+04
       245   6  1.120256E+05  8.022111E+05  1.221850E+05 -1.393796E+05 -9.945549E+03 -8.476614E+04
       245   7  1.389026E+05  1.366850E+06  1.313567E+05 -1.368309E+05 -3.591911E+04 -1.117279E+04
       245   8  1.933971E+05  1.479468E+06  1.925126E+05 -1.625445E+05 -3.235199E+04 -7.789962E+04
       245   9  3.132854E+05  1.617056E+06  3.133890E+05 -2.124436E+05 -9.830023E+03 -1.446166E+05
       245  10 -1.254835E+05  2.380772E+05 -6.296035E+04 -1.422902E+05  1.600098E-09  3.674462E-09
       245  11 -1.339417E+05  1.066894E+05 -7.122468E+04 -9.225824E+04  2.007115E-09 -1.190580E-09
       245  12 -8.926001E+04 -1.200519E+04 -6.904959E+04 -6.641182E+04  8.953878E-10 -2.031853E-09
       245  13  6.717327E+03  8.023072E+05  3.420228E+04 -1.395621E+05 -7.428288E-10 -3.475216E-10
       245  14  2.973802E+04  7.928479E+05  6.064781E+04 -1.273827E+05 -7.473089E-10  1.705113E-09
       245  15  1.120236E+05  8.022034E+05  1.221713E+05 -1.393803E+05  1.209983E-09 -2.168431E-09
       245  16  1.389012E+05  1.366849E+06  1.313541E+05 -1.368312E+05 -1.863044E-09 -1.691174E-09
       245  17  1.933944E+05  1.479462E+06  1.924992E+05 -1.625465E+05 -1.844893E-10  2.329368E-10
       245  18  3.132797E+05  1.617033E+06  3.133496E+05 -2.124447E+05 -1.367246E-10  2.840436E-09
       245  19 -1.254818E+05  2.380787E+05 -6.295579E+04 -1.422893E+05  3.588270E+04  3.375670E+04
       245  20 -1.339403E+05  1.066906E+05 -7.122107E+04 -9.225747E+04  3.244814E+04  2.938793E+04
       245  21 -8.925973E+04 -1.200449E+04 -6.904822E+04 -6.641161E+04  1.004711E+04  2.499350E+04
       245  22  6.718847E+03  8.023080E+05  3.420565E+04 -1.395614E+05  3.590096E+04  2.246971E+04
       245  23  2.973992E+04  7.928513E+05  6.065518E+04 -1.273813E+05  3.240142E+04  5.363071E+04
       245  24  1.120256E+05  8.022111E+05  1.221850E+05 -1.393796E+05  9.945549E+03  8.476614E+04
       245  25  1.389026E+05  1.366850E+06  1.313567E+05 -1.368309E+05  3.591911E+04  1.117279E+04
       245  26  1.933971E+05  1.479468E+06  1.925126E+05 -1.625445E+05  3.235199E+04  7.789962E+04
       245  27  3.132854E+05  1.617056E+06  3.133890E+05 -2.124436E+05  9.830023E+03  1.446166E+05
       246   1  1.304212E+06  4.221566E+05  2.055308E+05  4.659723E+05  5.871538E+04  5.631242E+03
       246   2  1.229893E+06  4.156180E+05  1.630276E+05  4.435350E+05  3.899833E+04 -4.054835E+04
       246   3  1.145023E+06  4.076511E+05  1.412862E+05  4.376774E+05  1.007354E+04 -6.228790E+04
       246   4  3.191996E+05  7.461185E+04 -4.266379E+04  2.181206E+05 -2.226244E+04 -2.492229E+04
       246   5  3.310832E+05  9.593742E+04 -1.996090E+04  2.036626E+05  9.368445E+02 -5.492330E+04
       246   6  3.239094E+05  1.073297E+05 -1.047258E+04  2.057869E+05  1.491601E+04 -6.046774E+04
       246   7 -6.648193E+05 -2.728792E+05 -2.908967E+05 -2.937531E+04 -1.030966E+05 -5.542889E+04
       246   8 -5.668789E+05 -2.236786E+05 -2.029792E+05 -3.588980E+04 -3.706460E+04 -6.927719E+04
       246   9 -4.964965E+05 -1.929251E+05 -1.622561E+05 -2.581739E+04  1.975165E+04 -5.865019E+04
       246  10  1.304208E+06  4.221557E+05  2.055243E+05  4.659720E+05  2.901329E-08  8.830888E-09
       246  11  1.229891E+06  4.156158E+05  1.630217E+05  4.435363E+05  4.892579E-09 -2.664053E-09
       246  12  1.145022E+06  4.076469E+05  1.412787E+05  4.376779E+05 -2.834760E-08 -1.126723E-08
       246  13  3.191989E+05  7.461105E+04 -4.266589E+04  2.181202E+05  9.115422E-10  2.034764E-09
       246  14  3.310824E+05  9.593418E+04 -1.996657E+04  2.036626E+05  6.223656E-09 -3.997827E-09
       246  15  3.239082E+05  1.073257E+05 -1.047987E+04  2.057876E+05  1.091081E-10  6.341738E-10
       246  16 -6.648316E+05 -2.728854E+05 -2.909225E+05 -2.937991E+04 -2.593034E-08 -8.599339E-09
       246  17 -5.668816E+05 -2.236842E+05 -2.029908E+05 -3.589187E+04  7.255174E-09 -2.222688E-09
       246  18 -4.964979E+05 -1.929289E+05 -1.622633E+05 -2.581646E+04  3.201438E-08  1.449597E-08
       246  19  1.304212E+06  4.221566E+05  2.055308E+05  4.659723E+05 -5.871538E+04 -5.631242E+03
       246  20  1.229893E+06  4.156180E+05  1.630276E+05  4.435350E+05 -3.899833E+04  4.054835E+04
       246  21  1.145023E+06  4.076511E+05  1.412862E+05  4.376774E+05 -1.007354E+04  6.228790E+04
       246  22  3.191996E+05  7.461185E+04 -4.266379E+04  2.181206E+05  2.226244E+04  2.492229E+04
       246  23  3.310832E+05  9.593742E+04 -1.996090E+04  2.036626E+05 -9.368445E+02  5.492330E+04
       246  24  3.239094E+05  1.073297E+05 -1.047258E+04  2.057869E+05 -1.491601E+04  6.046774E+04
       246  25 -6.648193E+05 -2.728792E+05 -2.908967E+05 -2.937531E+04  1.030966E+05  5.542889E+04
       246  26 -5.668789E+05 -2.236786E+05 -2.029792E+05 -3.588980E+04  3.706460E+04  6.927719E+04
       246  27 -4.964965E+05 -1.929251E+05 -1.622561E+05 -2.581739E+04 -1.975165E+04  5.865019E+04
       247   1  1.099792E+06  3.883603E+05  1.333760E+05  4.232697E+05  1.327412E+04 -5.870283E+04
       247   2  1.033182E+06  3.575599E+05  1.200906E+05  3.968088E+05  1.066609E+04 -5.711459E+04
       247   3  9.552910E+05  3.377984E+05  1.080126E+05  3.835097E+05  7.227985E+03 -5.333544E+04
       247   4  3.248677E+05  1.074864E+05 -7.872717E+03  2.066702E+05  1.531284E+04 -5.794071E+04
       247   5  3.310304E+05  1.032100E+05 -4.140140E+03  1.997706E+05  1.654987E+04 -5.489800E+04
       247   6  3.251461E+05  1.092114E+05 -2.246250E+03  2.060321E+05  1.695614E+04 -4.966302E+04
       247   7 -4.494351E+05 -1.733340E+05 -1.491454E+05 -9.680644E+03  1.734888E+04 -5.717960E+04
       247   8 -3.706049E+05 -1.510932E+05 -1.283877E+05  2.938970E+03  2.242659E+04 -5.268407E+04
       247   9 -3.045789E+05 -1.193361E+05 -1.125170E+05  2.872266E+04  2.667380E+04 -4.599459E+04
       247  10  1.099791E+06  3.883565E+05  1.333692E+05  4.232704E+05  6.783916E-11 -2.584352E-11
       247  11  1.033181E+06  3.575563E+05  1.200843E+05  3.968093E+05 -6.688642E-10  2.229414E-09
       247  12  9.552901E+05  3.377954E+05  1.080071E+05  3.835100E+05 -3.612570E-09  2.698228E-09
       247  13  3.248665E+05  1.074827E+05 -7.879467E+03  2.066709E+05 -2.765380E-09 -3.782472E-09
       247  14  3.310293E+05  1.032067E+05 -4.146319E+03  1.997714E+05 -9.871075E-10 -1.247158E-08
       247  15  3.251452E+05  1.092087E+05 -2.251426E+03  2.060328E+05 -1.600166E-09 -3.847753E-09
       247  16 -4.494363E+05 -1.733376E+05 -1.491521E+05 -9.679844E+03 -3.117261E-09  6.816469E-10
       247  17 -3.706062E+05 -1.510963E+05 -1.283939E+05  2.939921E+03  7.851280E-09 -1.420827E-09
       247  18 -3.045803E+05 -1.193385E+05 -1.125223E+05  2.872365E+04  7.663572E-09 -1.531869E-09
       247  19  1.099792E+06  3.883603E+05  1.333760E+05  4.232697E+05 -1.327412E+04  5.870283E+04
       247  20  1.033182E+06  3.575599E+05  1.200906E+05  3.968088E+05 -1.066609E+04  5.711459E+04
       247  21  9.552910E+05  3.377984E+05  1.080126E+05  3.835097E+05 -7.227985E+03  5.333544E+04
       247  22  3.248677E+05  1.074864E+05 -7.872717E+03  2.066702E+05 -1.531284E+04  5.794071E+04
       247  23  3.310304E+05  1.032100E+05 -4.140140E+03  1.997706E+05 -1.654987E+04  5.489800E+04
       247  24  3.251461E+05  1.092114E+05 -2.246250E+03  2.060321E+05 -1.695614E+04  4.966302E+04
       247  25 -4.494351E+05 -1.733340E+05 -1.491454E+05 -9.680644E+03 -1.734888E+04  5.717960E+04
       247  26 -3.706049E+05 -1.510932E+05 -1.283877E+05  2.938970E+03 -2.242659E+04  5.268407E+04
       247  27 -3.045789E+05 -1.193361E+05 -1.125170E+05  2.872266E+04 -2.667380E+04  4.599459E+04
       248   1  9.089149E+05  3.207775E+05  9.997720E+04  3.704040E+05  6.560465E+03 -4.985447E+04
       248   2  8.429098E+05  2.890913E+05  8.807999E+04  3.437007E+05  4.596558E+03 -4.432017E+04
       248   3  7.654222E+05  2.689180E+05  7.611053E+04  3.300354E+05  2.557032E+03 -3.859248E+04
       248   4  3.252310E+05  1.092320E+05 -1.681095E+03  2.060993E+05  1.603148E+04 -4.627776E+04
       248   5  3.310314E+05  1.035639E+05 -9.034417E+02  1.995663E+05  1.440678E+04 -4.061298E+04
       248   6  3.252750E+05  1.093415E+05 -4.680161E+02  2.060704E+05  1.270642E+04 -3.475468E+04
       248   7 -2.580863E+05 -1.022772E+05 -1.033476E+05  4.194043E+04  2.549293E+04 -4.270467E+04
       248   8 -1.805693E+05 -8.193729E+04 -8.989430E+04  5.554299E+04  2.420839E+04 -3.690905E+04
       248   9 -1.146713E+05 -5.021735E+04 -7.705318E+04  8.218615E+04  2.284826E+04 -3.091974E+04
       248  10  9.089142E+05  3.207748E+05  9.997244E+04  3.704042E+05  7.015530E-09  5.438872E-09
       248  11  8.429092E+05  2.890892E+05  8.807626E+04  3.437008E+05 -8.068683E-09  3.371791E-09
       248  12  7.654217E+05  2.689164E+05  7.610772E+04  3.300355E+05 -2.714164E-08 -1.281835E-08
       248  13  3.252302E+05  1.092296E+05 -1.685603E+03  2.060999E+05  2.155584E-09  3.700577E-10
       248  14  3.310308E+05  1.035621E+05 -9.069320E+02  1.995668E+05 -4.199274E-11 -3.740389E-09
       248  15  3.252745E+05  1.093401E+05 -4.705899E+02  2.060707E+05 -6.109411E-09 -3.190868E-09
       248  16 -2.580875E+05 -1.022794E+05 -1.033523E+05  4.194131E+04 -5.334389E-09 -3.304992E-09
       248  17 -1.805703E+05 -8.193891E+04 -8.989796E+04  5.554371E+04  9.081327E-09  7.566754E-09
       248  18 -1.146721E+05 -5.021851E+04 -7.705596E+04  8.218672E+04  1.840809E-08  8.627437E-09
       248  19  9.089149E+05  3.207775E+05  9.997720E+04  3.704040E+05 -6.560465E+03  4.985447E+04
       248  20  8.429098E+05  2.890913E+05  8.807999E+04  3.437007E+05 -4.596558E+03  4.432017E+04
       248  21  7.654222E+05  2.689180E+05  7.611053E+04  3.300354E+05 -2.557032E+03  3.859248E+04
       248  22  3.252310E+05  1.092320E+05 -1.681095E+03  2.060993E+05 -1.603148E+04  4.627776E+04
       248  23  3.310314E+05  1.035639E+05 -9.034417E+02  1.995663E+05 -1.440678E+04  4.061298E+04
       248  24  3.252750E+05  1.093415E+05 -4.680161E+02  2.060704E+05 -1.270642E+04  3.475468E+04
       248  25 -2.580863E+05 -1.022772E+05 -1.033476E+05  4.194043E+04 -2.549293E+04  4.270467E+04
       248  26 -1.805693E+05 -8.193729E+04 -8.989430E+04  5.554299E+04 -2.420839E+04  3.690905E+04
       248  27 -1.146713E+05 -5.021735E+04 -7.705318E+04  8.218615E+04 -2.284826E+04  3.091974E+04
       249   1  7.190768E+05  2.520635E+05  6.782957E+04  3.170089E+05  1.375184E+03 -3.518847E+04
       249   2  6.531927E+05  2.203985E+05  5.576803E+04  2.903149E+05 -7.763093E+02 -2.939952E+04
       249   3  5.758168E+05  2.002418E+05  4.368556E+04  2.766483E+05 -2.934843E+03 -2.359601E+04
       249   4  3.252926E+05  1.093487E+05 -3.297516E+02  2.060727E+05  1.149792E+04 -3.135964E+04
       249   5  3.310539E+05  1.036111E+05 -1.184622E+02  1.995582E+05  9.371674E+03 -2.555970E+04
       249   6  3.253122E+05  1.093763E+05  5.105124E+01  2.060692E+05  7.238400E+03 -1.974521E+04
       249   7 -6.832693E+04 -3.335045E+04 -6.849314E+04  9.520219E+04  2.161381E+04 -2.753340E+04
       249   8  9.027000E+03 -1.316508E+04 -5.600710E+04  1.088460E+05  1.951400E+04 -2.172202E+04
       249   9  7.487701E+04  1.851808E+04 -4.358418E+04  1.355174E+05  1.740717E+04 -1.589609E+04
       249  10  7.190764E+05  2.520622E+05  6.782724E+04  3.170090E+05  2.190352E-08  9.444060E-09
       249  11  6.531925E+05  2.203976E+05  5.576640E+04  2.903148E+05  3.832129E-09  8.966653E-09
       249  12  5.758166E+05  2.002412E+05  4.368450E+04  2.766482E+05 -2.459570E-08 -1.293371E-09
       249  13  3.252922E+05  1.093476E+05 -3.318485E+02  2.060729E+05 -3.606596E-09 -3.011936E-09
       249  14  3.310536E+05  1.036104E+05 -1.198552E+02  1.995584E+05  1.993293E-09 -1.529053E-09
       249  15  3.253121E+05  1.093758E+05  5.021997E+01  2.060693E+05 -3.809249E-09 -1.881868E-09
       249  16 -6.832764E+04 -3.335139E+04 -6.849544E+04  9.520267E+04 -2.901597E-08 -1.451190E-08
       249  17  9.026465E+03 -1.316569E+04 -5.600870E+04  1.088464E+05 -1.622270E-09 -2.886964E-09
       249  18  7.487662E+04  1.851773E+04 -4.358522E+04  1.355176E+05  1.994991E-08 -2.422262E-10
       249  19  7.190768E+05  2.520635E+05  6.782957E+04  3.170089E+05 -1.375184E+03  3.518847E+04
       249  20  6.531927E+05  2.203985E+05  5.576803E+04  2.903149E+05  7.763093E+02  2.939952E+04
       249  21  5.758168E+05  2.002418E+05  4.368556E+04  2.766483E+05  2.934843E+03  2.359601E+04
       249  22  3.252926E+05  1.093487E+05 -3.297516E+02  2.060727E+05 -1.149792E+04  3.135964E+04
       249  23  3.310539E+05  1.036111E+05 -1.184622E+02  1.995582E+05 -9.371674E+03  2.555970E+04
       249  24  3.253122E+05  1.093763E+05  5.105124E+01  2.060692E+05 -7.238400E+03  1.974521E+04
       249  25 -6.832693E+04 -3.335045E+04 -6.849314E+04  9.520219E+04 -2.161381E+04  2.753340E+04
       249  26  9.027000E+03 -1.316508E+04 -5.600710E+04  1.088460E+05 -1.951400E+04  2.172202E+04
       249  27  7.487701E+04  1.851808E+04 -4.358418E+04  1.355174E+05 -1.740717E+04  1.589609E+04
       250   1  5.295195E+05  1.834019E+05  3.536999E+04  2.636350E+05 -4.224842E+03 -2.022535E+04
       250   2  4.636764E+05  1.517453E+05  2.334913E+04  2.369661E+05 -6.576766E+03 -1.449248E+04
       250   3  3.863602E+05  1.315951E+05  1.144731E+04  2.233225E+05 -8.925905E+03 -8.768563E+03
       250   4  3.253245E+05  1.093801E+05  1.350201E+02  2.060704E+05  5.944860E+03 -1.637528E+04
       250   5  3.310643E+05  1.036242E+05  3.518863E+02  1.995602E+05  3.576860E+03 -1.064787E+04
       250   6  3.253301E+05  1.093780E+05  7.005772E+02  2.060737E+05  1.211632E+03 -4.929444E+03
       250   7  1.211718E+05  3.536168E+04 -3.510131E+04  1.485229E+05  1.611111E+04 -1.252652E+04
       250   8  1.984704E+05  5.550467E+04 -2.264563E+04  1.621616E+05  1.372823E+04 -6.804120E+03
       250   9  2.643041E+05  8.716145E+04 -1.004583E+04  1.888265E+05  1.134811E+04 -1.090728E+03
       250  10  5.295193E+05  1.834015E+05  3.536919E+04  2.636349E+05  4.921893E-08  1.927260E-08
       250  11  4.636763E+05  1.517451E+05  2.334865E+04  2.369660E+05 -3.593194E-09 -2.166208E-09
       250  12  3.863601E+05  1.315949E+05  1.144701E+04  2.233224E+05 -4.644896E-08 -1.446484E-08
       250  13  3.253244E+05  1.093798E+05  1.344497E+02  2.060704E+05 -8.212144E-09 -4.458597E-09
       250  14  3.310643E+05  1.036241E+05  3.516491E+02  1.995602E+05 -1.038311E-08 -5.829365E-10
       250  15  3.253301E+05  1.093780E+05  7.005288E+02  2.060737E+05 -2.739522E-09 -1.491127E-09
       250  16  1.211715E+05  3.536144E+04 -3.510209E+04  1.485231E+05 -6.135504E-08 -2.848239E-08
       250  17  1.984701E+05  5.550457E+04 -2.264607E+04  1.621616E+05 -1.365506E-08 -2.880676E-09
       250  18  2.643040E+05  8.716142E+04 -1.004608E+04  1.888266E+05  3.980632E-08  1.024195E-08
       250  19  5.295195E+05  1.834019E+05  3.536999E+04  2.636350E+05  4.224842E+03  2.022535E+04
       250  20  4.636764E+05  1.517453E+05  2.334913E+04  2.369661E+05  6.576766E+03  1.449248E+04
       250  21  3.863602E+05  1.315951E+05  1.144731E+04  2.233225E+05  8.925905E+03  8.768563E+03
       250  22  3.253245E+05  1.093801E+05  1.350201E+02  2.060704E+05 -5.944860E+03  1.637528E+04
       250  23  3.310643E+05  1.036242E+05  3.518863E+02  1.995602E+05 -3.576860E+03  1.064787E+04
       250  24  3.253301E+05  1.093780E+05  7.005772E+02  2.060737E+05 -1.211632E+03  4.929444E+03
       250  25  1.211718E+05  3.536168E+04 -3.510131E+04  1.485229E+05 -1.611111E+04  1.252652E+04
       250  26  1.984704E+05  5.550467E+04 -2.264563E+04  1.621616E+05 -1.372823E+04  6.804120E+03
       250  27  2.643041E+05  8.716145E+04 -1.004583E+04  1.888265E+05 -1.134811E+04  1.090728E+03
       251   1  3.400906E+05  1.147662E+05  3.294326E+03  2.103441E+05 -1.034979E+04 -5.454507E+03
       251   2  2.742066E+05  8.309327E+04 -8.218327E+03  1.836826E+05 -1.320606E+04  2.051794E+01
       251   3  1.969548E+05  6.300835E+04 -1.919926E+04  1.700436E+05 -1.602192E+04  5.389976E+03
       251   4  3.253570E+05  1.093725E+05  9.497818E+02  2.060850E+05 -2.010360E+02 -1.611051E+03
       251   5  3.310294E+05  1.035994E+05  1.746999E+03  1.995595E+05 -3.243280E+03  3.793282E+03
       251   6  3.253648E+05  1.094501E+05  3.222822E+03  2.060541E+05 -6.245209E+03  9.092049E+03
       251   7  3.106241E+05  1.039790E+05 -1.394282E+03  2.018261E+05  9.947358E+03  2.232267E+03
       251   8  3.878557E+05  1.241059E+05  1.171265E+04  2.154377E+05  6.720476E+03  7.566408E+03
       251   9  4.537938E+05  1.558941E+05  2.564517E+04  2.420719E+05  3.533759E+03  1.279497E+04
       251  10  3.400905E+05  1.147661E+05  3.294069E+03  2.103441E+05  4.141349E-09  1.291944E-09
       251  11  2.742065E+05  8.309322E+04 -8.218655E+03  1.836826E+05  2.469108E-09 -2.858072E-10
       251  12  1.969546E+05  6.300825E+04 -1.919979E+04  1.700437E+05 -3.006096E-10 -6.517173E-09
       251  13  3.253570E+05  1.093725E+05  9.497769E+02  2.060850E+05 -3.786557E-10  5.459304E-09
       251  14  3.310293E+05  1.035993E+05  1.746952E+03  1.995595E+05  4.234852E-09 -3.059897E-09
       251  15  3.253647E+05  1.094500E+05  3.222593E+03  2.060541E+05  3.083418E-09 -7.288964E-09
       251  16  3.106239E+05  1.039790E+05 -1.394478E+03  2.018261E+05 -2.958351E-09 -5.933906E-09
       251  17  3.878556E+05  1.241058E+05  1.171246E+04  2.154377E+05 -1.461105E-09 -1.793245E-11
       251  18  4.537937E+05  1.558939E+05  2.564484E+04  2.420718E+05  3.655945E-09 -2.706824E-09
       251  19  3.400906E+05  1.147662E+05  3.294326E+03  2.103441E+05  1.034979E+04  5.454507E+03
       251  20  2.742066E+05  8.309327E+04 -8.218327E+03  1.836826E+05  1.320606E+04 -2.051794E+01
       251  21  1.969548E+05  6.300835E+04 -1.919926E+04  1.700436E+05  1.602192E+04 -5.389976E+03
       251  22  3.253570E+05  1.093725E+05  9.497818E+02  2.060850E+05  2.010360E+02  1.611051E+03
       251  23  3.310294E+05  1.035994E+05  1.746999E+03  1.995595E+05  3.243280E+03 -3.793282E+03
       251  24  3.253648E+05  1.094501E+05  3.222822E+03  2.060541E+05  6.245209E+03 -9.092049E+03
       251  25  3.106241E+05  1.039790E+05 -1.394282E+03  2.018261E+05 -9.947358E+03 -2.232267E+03
       251  26  3.878557E+05  1.241059E+05  1.171265E+04  2.154377E+05 -6.720476E+03 -7.566408E+03
       251  27  4.537938E+05  1.558941E+05  2.564517E+04  2.420719E+05 -3.533759E+03 -1.279497E+04
       252   1  1.505922E+05  4.631046E+04 -2.661518E+04  1.573639E+05 -1.800522E+04  8.427357E+03
       252   2  8.511985E+04  1.434296E+04 -3.617244E+04  1.296701E+05 -2.182559E+04  1.277166E+04
       252   3  9.140004E+03 -4.383255E+03 -4.382553E+04  1.145426E+05 -2.519853E+04  1.593726E+04
       252   4  3.255653E+05  1.094054E+05  4.302097E+03  2.061387E+05 -8.093033E+03  1.218036E+04
       252   5  3.308334E+05  1.041334E+05  7.893108E+03  1.992662E+05 -1.398224E+04  1.574031E+04
       252   6  3.259979E+05  1.125110E+05  1.502716E+04  2.049573E+05 -1.942433E+04  1.812175E+04
       252   7  5.005708E+05  1.725033E+05  3.521880E+04  2.549264E+05  1.822129E+03  1.593447E+04
       252   8  5.766093E+05  1.939295E+05  5.195651E+04  2.688878E+05 -6.135622E+03  1.871022E+04
       252   9  6.429578E+05  2.294142E+05  7.387522E+04  2.954143E+05 -1.364704E+04  2.030744E+04
       252  10  1.505919E+05  4.631030E+04 -2.661593E+04  1.573640E+05 -1.271294E-08 -4.552104E-09
       252  11  8.511929E+04  1.434266E+04 -3.617364E+04  1.296703E+05 -3.895570E-09 -6.764132E-09
       252  12  9.139254E+03 -4.383699E+03 -4.382720E+04  1.145429E+05  1.776929E-08  7.390316E-09
       252  13  3.255651E+05  1.094052E+05  4.301695E+03  2.061388E+05 -8.810211E-10 -2.024321E-09
       252  14  3.308331E+05  1.041331E+05  7.892275E+03  1.992664E+05 -4.223721E-09  4.214282E-09
       252  15  3.259974E+05  1.125105E+05  1.502583E+04  2.049576E+05 -3.680028E-09 -2.198536E-09
       252  16  5.005707E+05  1.725030E+05  3.521832E+04  2.549263E+05  8.837363E-09  4.417806E-09
       252  17  5.766092E+05  1.939291E+05  5.195578E+04  2.688879E+05 -1.086469E-08 -7.012516E-09
       252  18  6.429575E+05  2.294137E+05  7.387410E+04  2.954145E+05 -2.484397E-08 -1.082966E-08
       252  19  1.505922E+05  4.631046E+04 -2.661518E+04  1.573639E+05  1.800522E+04 -8.427357E+03
       252  20  8.511985E+04  1.434296E+04 -3.617244E+04  1.296701E+05  2.182559E+04 -1.277166E+04
       252  21  9.140004E+03 -4.383255E+03 -4.382553E+04  1.145426E+05  2.519853E+04 -1.593726E+04
       252  22  3.255653E+05  1.094054E+05  4.302097E+03  2.061387E+05  8.093033E+03 -1.218036E+04
       252  23  3.308334E+05  1.041334E+05  7.893108E+03  1.992662E+05  1.398224E+04 -1.574031E+04
       252  24  3.259979E+05  1.125110E+05  1.502716E+04  2.049573E+05  1.942433E+04 -1.812175E+04
       252  25  5.005708E+05  1.725033E+05  3.521880E+04  2.549264E+05 -1.822129E+03 -1.593447E+04
       252  26  5.766093E+05  1.939295E+05  5.195651E+04  2.688878E+05  6.135622E+03 -1.871022E+04
       252  27  6.429578E+05  2.294142E+05  7.387522E+04  2.954143E+05  1.364704E+04 -2.030744E+04
       253   1 -3.885846E+04 -1.864105E+04 -4.837577E+04  1.062372E+05 -2.996860E+04  1.718841E+04
       253   2 -9.084569E+04 -5.588382E+04 -5.272583E+04  5.525782E+04 -2.581732E+04  1.600136E+04
       253   3 -1.410559E+05 -4.820278E+04 -5.004771E+04  7.003423E+03 -1.669856E+04  1.677431E+03
       253   4  3.284457E+05  1.121149E+05  1.999339E+04  2.059285E+05 -2.269511E+04  1.993997E+04
       253   5  3.297377E+05  1.186029E+05  3.806811E+04  1.927444E+05 -4.157488E+04  1.003619E+04
       253   6  3.373571E+05  1.745607E+05  8.142292E+04  1.822858E+05 -5.548985E+04 -1.299969E+04
       253   7  6.958963E+05  2.428840E+05  8.835905E+04  3.056755E+05 -1.541690E+04  2.269321E+04
       253   8  7.505036E+05  2.931184E+05  1.288528E+05  3.303217E+05 -5.734389E+04  4.065436E+03
       253   9  8.159926E+05  3.973737E+05  2.128768E+05  3.577002E+05 -9.431304E+04 -2.769555E+04
       253  10 -3.885950E+04 -1.864161E+04 -4.837802E+04  1.062376E+05 -2.117341E-08 -1.566690E-08
       253  11 -9.084647E+04 -5.588427E+04 -5.272756E+04  5.525815E+04 -1.121689E-08 -1.248806E-08
       253  12 -1.410562E+05 -4.820286E+04 -5.004824E+04  7.003445E+03 -2.062406E-09  9.528942E-11
       253  13  3.284450E+05  1.121143E+05  1.999167E+04  2.059289E+05  8.786412E-10 -1.471793E-09
       253  14  3.297358E+05  1.186023E+05  3.806467E+04  1.927448E+05  9.937935E-10 -6.560380E-10
       253  15  3.373537E+05  1.745597E+05  8.141682E+04  1.822853E+05  9.402975E-10 -1.304647E-09
       253  16  6.958959E+05  2.428833E+05  8.835763E+04  3.056758E+05  2.084111E-08  7.341525E-09
       253  17  7.505000E+05  2.931176E+05  1.288466E+05  3.303219E+05  1.449363E-08  9.990793E-09
       253  18  8.159829E+05  3.973705E+05  2.128587E+05  3.576981E+05  1.608146E-09 -4.481367E-09
       253  19 -3.885846E+04 -1.864105E+04 -4.837577E+04  1.062372E+05  2.996860E+04 -1.718841E+04
       253  20 -9.084569E+04 -5.588382E+04 -5.272583E+04  5.525782E+04  2.581732E+04 -1.600136E+04
       253  21 -1.410559E+05 -4.820278E+04 -5.004771E+04  7.003423E+03  1.669856E+04 -1.677431E+03
       253  22  3.284457E+05  1.121149E+05  1.999339E+04  2.059285E+05  2.269511E+04 -1.993997E+04
       253  23  3.297377E+05  1.186029E+05  3.806811E+04  1.927444E+05  4.157488E+04 -1.003619E+04
       253  24  3.373571E+05  1.745607E+05  8.142292E+04  1.822858E+05  5.548985E+04  1.299969E+04
       253  25  6.958963E+05  2.428840E+05  8.835905E+04  3.056755E+05  1.541690E+04 -2.269321E+04
       253  26  7.505036E+05  2.931184E+05  1.288528E+05  3.303217E+05  5.734389E+04 -4.065436E+03
       253  27  8.159926E+05  3.973737E+05  2.128768E+05  3.577002E+05  9.431304E+04  2.769555E+04
       254   1  2.323431E+05  3.553890E+04  2.978919E+04  3.606172E+03 -1.324187E+04 -2.303096E+03
       254   2  2.177902E+05  5.305700E+04  3.765740E+04  1.837055E+03 -1.000850E+04 -6.811216E+03
       254   3  1.969009E+05  4.718343E+04  3.757027E+04  1.255732E+04 -6.793143E+03 -6.305820E+03
       254   4  1.090856E+04 -1.960283E+04 -2.477534E+04  9.440872E+03 -1.694865E+04 -2.316411E+03
       254   5  1.430847E+04  2.674060E+03 -1.087448E+04  3.158916E+03 -1.106916E+04 -6.815269E+03
       254   6  1.091013E+04  1.095703E+03 -6.768510E+03  9.366694E+03 -5.207561E+03 -6.299931E+03
       254   7 -2.104813E+05 -7.474807E+04 -7.934342E+04  1.527345E+04 -2.065411E+04 -2.329799E+03
       254   8 -1.891353E+05 -4.771186E+04 -5.940926E+04  4.480308E+03 -1.212947E+04 -6.819327E+03
       254   9 -1.750489E+05 -4.499449E+04 -5.110971E+04  6.176997E+03 -3.622452E+03 -6.294057E+03
       254  10  2.323430E+05  3.553885E+04  2.978885E+04  3.606147E+03 -4.481040E-09  9.394163E-10
       254  11  2.177901E+05  5.305693E+04  3.765713E+04  1.837000E+03 -1.232130E-09  1.015730E-08
       254  12  1.969008E+05  4.718337E+04  3.757011E+04  1.255729E+04  1.115367E-09  1.027324E-08
       254  13  1.090825E+04 -1.960292E+04 -2.477589E+04  9.440840E+03 -1.081751E-09 -4.045724E-09
       254  14  1.430833E+04  2.673977E+03 -1.087480E+04  3.158856E+03 -1.685835E-09 -1.067073E-08
       254  15  1.091009E+04  1.095654E+03 -6.768635E+03  9.366668E+03  2.158991E-09  4.988718E-09
       254  16 -2.104818E+05 -7.474819E+04 -7.934423E+04  1.527341E+04  4.518371E-09  6.017227E-10
       254  17 -1.891354E+05 -4.771195E+04 -5.940963E+04  4.480242E+03 -1.693736E-09  1.065974E-08
       254  18 -1.750489E+05 -4.499453E+04 -5.110981E+04  6.176978E+03 -3.649613E-09 -1.562120E-09
       254  19  2.323431E+05  3.553890E+04  2.978919E+04  3.606172E+03  1.324187E+04  2.303096E+03
       254  20  2.177902E+05  5.305700E+04  3.765740E+04  1.837055E+03  1.000850E+04  6.811216E+03
       254  21  1.969009E+05  4.718343E+04  3.757027E+04  1.255732E+04  6.793143E+03  6.305820E+03
       254  22  1.090856E+04 -1.960283E+04 -2.477534E+04  9.440872E+03  1.694865E+04  2.316411E+03
       254  23  1.430847E+04  2.674060E+03 -1.087448E+04  3.158916E+03  1.106916E+04  6.815269E+03
       254  24  1.091013E+04  1.095703E+03 -6.768510E+03  9.366694E+03  5.207561E+03  6.299931E+03
       254  25 -2.104813E+05 -7.474807E+04 -7.934342E+04  1.527345E+04  2.065411E+04  2.329799E+03
       254  26 -1.891353E+05 -4.771186E+04 -5.940926E+04  4.480308E+03  1.212947E+04  6.819327E+03
       254  27 -1.750489E+05 -4.499449E+04 -5.110971E+04  6.176997E+03  3.622452E+03  6.294057E+03
       255   1  1.756515E+05  3.856391E+04  3.356435E+04  9.297865E+03 -4.266315E+03 -5.171522E+03
       255   2  1.584402E+05  3.641189E+04  3.197918E+04  3.409124E+03 -3.014334E+03 -4.803044E+03
       255   3  1.403853E+05  3.193865E+04  2.897808E+04  1.007876E+04 -1.763970E+03 -4.080648E+03
       255   4  1.222813E+04 -1.929632E+03 -5.514271E+03  9.410556E+03 -4.166975E+03 -5.171235E+03
       255   5  1.266701E+04  3.010606E+02 -2.813591E+03  3.127191E+03 -2.728428E+03 -4.802001E+03
       255   6  1.222923E+04  1.777652E+02 -1.658733E+03  9.402408E+03 -1.291465E+03 -4.078813E+03
       255   7 -1.511708E+05 -4.242511E+04 -4.459477E+04  9.523193E+03 -4.067661E+03 -5.170948E+03
       255   8 -1.330867E+05 -3.581131E+04 -3.760786E+04  2.845306E+03 -2.442588E+03 -4.800959E+03
       255   9 -1.159118E+05 -3.158431E+04 -3.229671E+04  8.726178E+03 -8.190569E+02 -4.076978E+03
       255  10  1.756515E+05  3.856388E+04  3.356426E+04  9.297847E+03  2.337220E-09  3.229724E-09
       255  11  1.584402E+05  3.641186E+04  3.197912E+04  3.409112E+03 -3.706873E-09  2.387247E-09
       255  12  1.403853E+05  3.193863E+04  2.897804E+04  1.007876E+04  1.073907E-09  1.054612E-08
       255  13  1.222811E+04 -1.929666E+03 -5.514354E+03  9.410538E+03 -1.837845E-11  1.144444E-08
       255  14  1.266699E+04  3.010339E+02 -2.813648E+03  3.127180E+03  1.085160E-09 -2.879617E-08
       255  15  1.222922E+04  1.777469E+02 -1.658768E+03  9.402403E+03  1.057300E-09  7.934314E-09
       255  16 -1.511708E+05 -4.242514E+04 -4.459485E+04  9.523176E+03 -2.272054E-09 -1.343687E-08
       255  17 -1.330867E+05 -3.581133E+04 -3.760791E+04  2.845296E+03  8.051465E-10 -3.975856E-09
       255  18 -1.159118E+05 -3.158433E+04 -3.229674E+04  8.726175E+03 -1.671959E-09  3.468526E-09
       255  19  1.756515E+05  3.856391E+04  3.356435E+04  9.297865E+03  4.266315E+03  5.171522E+03
       255  20  1.584402E+05  3.641189E+04  3.197918E+04  3.409124E+03  3.014334E+03  4.803044E+03
       255  21  1.403853E+05  3.193865E+04  2.897808E+04  1.007876E+04  1.763970E+03  4.080648E+03
       255  22  1.222813E+04 -1.929632E+03 -5.514271E+03  9.410556E+03  4.166975E+03  5.171235E+03
       255  23  1.266701E+04  3.010606E+02 -2.813591E+03  3.127191E+03  2.728428E+03  4.802001E+03
       255  24  1.222923E+04  1.777652E+02 -1.658733E+03  9.402408E+03  1.291465E+03  4.078813E+03
       255  25 -1.511708E+05 -4.242511E+04 -4.459477E+04  9.523193E+03  4.067661E+03  5.170948E+03
       255  26 -1.330867E+05 -3.581131E+04 -3.760786E+04  2.845306E+03  2.442588E+03  4.800959E+03
       255  27 -1.159118E+05 -3.158431E+04 -3.229671E+04  8.726178E+03  8.190569E+02  4.076978E+03
       256   1  1.179939E+05  2.602924E+04  2.387525E+04  9.685874E+03 -1.400615E+03 -3.602542E+03
       256   2  1.004748E+05  2.185429E+04  2.031791E+04  3.392299E+03 -1.072547E+03 -2.892985E+03
       256   3  8.275648E+04  1.753429E+04  1.648489E+04  9.659407E+03 -7.447145E+02 -2.158507E+03
       256   4  1.238069E+04 -1.259334E+02 -1.289836E+03  9.406011E+03 -1.033090E+03 -3.601098E+03
       256   5  1.248183E+04  5.475383E+01 -6.861953E+02  3.125176E+03 -6.919170E+02 -2.891457E+03
       256   6  1.238135E+04  8.818270E+01 -3.672834E+02  9.405133E+03 -3.509713E+02 -2.156893E+03
       256   7 -9.322229E+04 -2.628191E+04 -2.645571E+04  9.126185E+03 -6.656271E+02 -3.599655E+03
       256   8 -7.550408E+04 -2.174534E+04 -2.169084E+04  2.858083E+03 -3.113412E+02 -2.889930E+03
       256   9 -5.798925E+04 -1.735828E+04 -1.721981E+04  9.150883E+03  4.272746E+01 -2.155279E+03
       256  10  1.179939E+05  2.602923E+04  2.387523E+04  9.685870E+03  7.567422E-09 -1.882414E-09
       256  11  1.004748E+05  2.185428E+04  2.031789E+04  3.392297E+03 -2.300901E-09 -8.744131E-09
       256  12  8.275648E+04  1.753428E+04  1.648488E+04  9.659406E+03 -6.089021E-09 -2.673660E-09
       256  13  1.238068E+04 -1.259476E+02 -1.289862E+03  9.406008E+03  1.080461E-09  1.421843E-09
       256  14  1.248182E+04  5.474473E+01 -6.862119E+02  3.125174E+03 -5.073340E-10 -8.600698E-09
       256  15  1.238135E+04  8.817767E+01 -3.672924E+02  9.405133E+03  2.069598E-09 -2.262273E-09
       256  16 -9.322229E+04 -2.628193E+04 -2.645573E+04  9.126183E+03 -8.094337E-09 -4.608899E-09
       256  17 -7.550408E+04 -2.174535E+04 -2.169086E+04  2.858082E+03  4.409986E-10  7.420912E-09
       256  18 -5.798925E+04 -1.735829E+04 -1.721982E+04  9.150884E+03  3.002119E-09  1.103687E-08
       256  19  1.179939E+05  2.602924E+04  2.387525E+04  9.685874E+03  1.400615E+03  3.602542E+03
       256  20  1.004748E+05  2.185429E+04  2.031791E+04  3.392299E+03  1.072547E+03  2.892985E+03
       256  21  8.275648E+04  1.753429E+04  1.648489E+04  9.659407E+03  7.447145E+02  2.158507E+03
       256  22  1.238069E+04 -1.259334E+02 -1.289836E+03  9.406011E+03  1.033090E+03  3.601098E+03
       256  23  1.248183E+04  5.475383E+01 -6.861953E+02  3.125176E+03  6.919170E+02  2.891457E+03
       256  24  1.238135E+04  8.818270E+01 -3.672834E+02  9.405133E+03  3.509713E+02  2.156893E+03
       256  25 -9.322229E+04 -2.628191E+04 -2.645571E+04  9.126185E+03  6.656271E+02  3.599655E+03
       256  26 -7.550408E+04 -2.174534E+04 -2.169084E+04  2.858083E+03  3.113412E+02  2.889930E+03
       256  27 -5.798925E+04 -1.735828E+04 -1.721981E+04  9.150883E+03 -4.272746E+01  2.155279E+03
       257   1  6.024084E+04  1.189974E+04  1.111002E+04  9.556427E+03 -6.832694E+02 -1.727397E+03
       257   2  4.268244E+04  7.516805E+03  7.142435E+03  3.225421E+03 -6.509423E+02 -9.947972E+02
       257   3  2.501112E+04  3.218312E+03  3.146956E+03  9.452094E+03 -6.186684E+02 -2.605910E+02
       257   4  1.240170E+04  5.822483E+01 -2.566053E+02  9.404782E+03 -2.969205E+02 -1.725799E+03
       257   5  1.245849E+04  2.872205E+01 -7.239363E+01  3.125865E+03 -2.637546E+02 -9.931849E+02
       257   6  1.240193E+04  8.353095E+01  8.335416E+01  9.404664E+03 -2.306409E+02 -2.589636E+02
       257   7 -3.543534E+04 -1.178345E+04 -1.162339E+04  9.253146E+03  8.939880E+01 -1.724201E+03
       257   8 -1.776461E+04 -7.459427E+03 -7.287286E+03  3.026313E+03  1.234143E+02 -9.915727E+02
       257   9 -2.071133E+02 -3.051262E+03 -2.980259E+03  9.357235E+03  1.573786E+02 -2.573363E+02
       257  10  6.024084E+04  1.189973E+04  1.111001E+04  9.556426E+03 -9.755571E-11 -1.053973E-08
       257  11  4.268244E+04  7.516804E+03  7.142432E+03  3.225421E+03 -6.455625E-09  3.195725E-09
       257  12  2.501112E+04  3.218312E+03  3.146955E+03  9.452094E+03 -8.250036E-09  1.733416E-09
       257  13  1.240170E+04  5.822160E+01 -2.566111E+02  9.404781E+03 -2.270399E-11  9.491848E-10
       257  14  1.245849E+04  2.872097E+01 -7.239562E+01  3.125865E+03  1.666445E-11 -6.599268E-09
       257  15  1.240193E+04  8.353086E+01  8.335393E+01  9.404664E+03  4.870175E-10 -5.973324E-09
       257  16 -3.543534E+04 -1.178345E+04 -1.162340E+04  9.253146E+03 -1.590211E-09  1.207160E-08
       257  17 -1.776462E+04 -7.459428E+03 -7.287288E+03  3.026314E+03  5.324492E-09  1.826774E-08
       257  18 -2.071134E+02 -3.051262E+03 -2.980259E+03  9.357235E+03  4.492428E-09  2.722708E-09
       257  19  6.024084E+04  1.189974E+04  1.111002E+04  9.556427E+03  6.832694E+02  1.727397E+03
       257  20  4.268244E+04  7.516805E+03  7.142435E+03  3.225421E+03  6.509423E+02  9.947972E+02
       257  21  2.501112E+04  3.218312E+03  3.146956E+03  9.452094E+03  6.186684E+02  2.605910E+02
       257  22  1.240170E+04  5.822483E+01 -2.566053E+02  9.404782E+03  2.969205E+02  1.725799E+03
       257  23  1.245849E+04  2.872205E+01 -7.239363E+01  3.125865E+03  2.637546E+02  9.931849E+02
       257  24  1.240193E+04  8.353095E+01  8.335416E+01  9.404664E+03  2.306409E+02  2.589636E+02
       257  25 -3.543534E+04 -1.178345E+04 -1.162339E+04  9.253146E+03 -8.939880E+01  1.724201E+03
       257  26 -1.776461E+04 -7.459427E+03 -7.287286E+03  3.026313E+03 -1.234143E+02  9.915727E+02
       257  27 -2.071133E+02 -3.051262E+03 -2.980259E+03  9.357235E+03 -1.573786E+02  2.573363E+02
       258   1  2.489235E+03 -2.394004E+03 -2.256183E+03  9.385184E+03 -6.430177E+02  1.671385E+02
       258   2 -1.509212E+04 -6.804378E+03 -6.194467E+03  3.046549E+03 -8.336544E+02  9.004380E+02
       258   3 -3.273825E+04 -1.105392E+04 -9.996413E+03  9.265687E+03 -1.024235E+03  1.632135E+03
       258   4  1.241265E+04  7.519570E+01  1.662790E+02  9.404771E+03 -2.550031E+02  1.687661E+02
       258   5  1.244514E+04  1.818824E+01  3.792213E+02  3.125798E+03 -4.465025E+02  9.020514E+02
       258   6  1.241244E+04  1.221106E+02  7.290415E+02  9.404560E+03 -6.379510E+02  1.633735E+03
       258   7  2.233616E+04  2.544389E+03  2.588734E+03  9.424357E+03  1.330178E+02  1.703938E+02
       258   8  3.998309E+04  6.840699E+03  6.952856E+03  3.205049E+03 -5.933337E+01  9.036650E+02
       258   9  5.756501E+04  1.129800E+04  1.145435E+04  9.543441E+03 -2.516390E+02  1.635336E+03
       258  10  2.489235E+03 -2.394005E+03 -2.256184E+03  9.385184E+03 -1.181898E-08  5.167341E-10
       258  11 -1.509212E+04 -6.804379E+03 -6.194469E+03  3.046550E+03 -5.100556E-09 -1.216269E-08
       258  12 -3.273825E+04 -1.105392E+04 -9.996420E+03  9.265688E+03 -2.028141E-09 -2.834794E-09
       258  13  1.241265E+04  7.519565E+01  1.662788E+02  9.404771E+03 -1.089178E-09  9.517830E-09
       258  14  1.244514E+04  1.818731E+01  3.792194E+02  3.125798E+03  6.085911E-12 -3.802683E-09
       258  15  1.241244E+04  1.221077E+02  7.290357E+02  9.404561E+03  1.945198E-09 -5.510672E-09
       258  16  2.233616E+04  2.544389E+03  2.588734E+03  9.424357E+03  8.540722E-09 -3.579202E-09
       258  17  3.998309E+04  6.840698E+03  6.952855E+03  3.205049E+03  2.111581E-09 -1.753952E-08
       258  18  5.756501E+04  1.129799E+04  1.145435E+04  9.543441E+03 -8.471865E-10 -6.335899E-09
       258  19  2.489235E+03 -2.394004E+03 -2.256183E+03  9.385184E+03  6.430177E+02 -1.671385E+02
       258  20 -1.509212E+04 -6.804378E+03 -6.194467E+03  3.046549E+03  8.336544E+02 -9.004380E+02
       258  21 -3.273825E+04 -1.105392E+04 -9.996413E+03  9.265687E+03  1.024235E+03 -1.632135E+03
       258  22  1.241265E+04  7.519570E+01  1.662790E+02  9.404771E+03  2.550031E+02 -1.687661E+02
       258  23  1.244514E+04  1.818824E+01  3.792213E+02  3.125798E+03  4.465025E+02 -9.020514E+02
       258  24  1.241244E+04  1.221106E+02  7.290415E+02  9.404560E+03  6.379510E+02 -1.633735E+03
       258  25  2.233616E+04  2.544389E+03  2.588734E+03  9.424357E+03 -1.330178E+02 -1.703938E+02
       258  26  3.998309E+04  6.840699E+03  6.952856E+03  3.205049E+03  5.933337E+01 -9.036650E+02
       258  27  5.756501E+04  1.129800E+04  1.145435E+04  9.543441E+03  2.516390E+02 -1.635336E+03
       259   1 -5.522210E+04 -1.672614E+04 -1.524576E+04  9.274670E+03 -1.185341E+03  2.062321E+03
       259   2 -7.291841E+04 -2.118309E+04 -1.868180E+04  2.856122E+03 -2.017928E+03  2.792183E+03
       259   3 -9.045378E+04 -2.494606E+04 -2.142837E+04  8.994068E+03 -2.850277E+03  3.497474E+03
       259   4  1.246247E+04  5.360188E+01  9.652792E+02  9.405019E+03 -7.917774E+02  2.063938E+03
       259   5  1.238058E+04 -4.865195E+01  1.681377E+03  3.125820E+03 -1.637444E+03  2.793714E+03
       259   6  1.246184E+04  5.453849E+02  3.096030E+03  9.403004E+03 -2.482896E+03  3.498921E+03
       259   7  8.015125E+04  1.683301E+04  1.717599E+04  9.535379E+03 -3.981714E+02  2.065554E+03
       259   8  9.768625E+04  2.108526E+04  2.204404E+04  3.395547E+03 -1.256907E+03  2.795245E+03
       259   9  1.153872E+05  2.603607E+04  2.761969E+04  9.811998E+03 -2.115454E+03  3.500369E+03
       259  10 -5.522211E+04 -1.672614E+04 -1.524577E+04  9.274672E+03 -8.655805E-09 -1.803995E-10
       259  11 -7.291842E+04 -2.118310E+04 -1.868182E+04  2.856127E+03 -9.434118E-09 -1.151488E-08
       259  12 -9.045379E+04 -2.494608E+04 -2.142841E+04  8.994076E+03 -3.132778E-09  1.390188E-09
       259  13  1.246247E+04  5.359713E+01  9.652700E+02  9.405021E+03 -1.080762E-09 -3.398373E-09
       259  14  1.238058E+04 -4.866105E+01  1.681358E+03  3.125823E+03  1.056364E-09 -7.485562E-09
       259  15  1.246183E+04  5.453701E+02  3.095995E+03  9.403011E+03  1.288553E-09  1.479154E-09
       259  16  8.015125E+04  1.683300E+04  1.717599E+04  9.535380E+03  5.968951E-09  7.571779E-09
       259  17  9.768625E+04  2.108526E+04  2.204402E+04  3.395550E+03  6.440790E-09 -1.034958E-08
       259  18  1.153872E+05  2.603605E+04  2.761966E+04  9.812004E+03  6.579415E-10  7.725247E-09
       259  19 -5.522210E+04 -1.672614E+04 -1.524576E+04  9.274670E+03  1.185341E+03 -2.062321E+03
       259  20 -7.291841E+04 -2.118309E+04 -1.868180E+04  2.856122E+03  2.017928E+03 -2.792183E+03
       259  21 -9.045378E+04 -2.494606E+04 -2.142837E+04  8.994068E+03  2.850277E+03 -3.497474E+03
       259  22  1.246247E+04  5.360188E+01  9.652792E+02  9.405019E+03  7.917774E+02 -2.063938E+03
       259  23  1.238058E+04 -4.865195E+01  1.681377E+03  3.125820E+03  1.637444E+03 -2.793714E+03
       259  24  1.246184E+04  5.453849E+02  3.096030E+03  9.403004E+03  2.482896E+03 -3.498921E+03
       259  25  8.015125E+04  1.683301E+04  1.717599E+04  9.535379E+03  3.981714E+02 -2.065554E+03
       259  26  9.768625E+04  2.108526E+04  2.204404E+04  3.395547E+03  1.256907E+03 -2.795245E+03
       259  27  1.153872E+05  2.603607E+04  2.761969E+04  9.811998E+03  2.115454E+03 -3.500369E+03
       260   1 -1.126305E+05 -3.126105E+04 -2.602696E+04  9.717163E+03 -3.579946E+03  3.970774E+03
       260   2 -1.311452E+05 -3.609778E+04 -2.745653E+04  2.358353E+03 -6.824758E+03  4.676148E+03
       260   3 -1.478632E+05 -3.503165E+04 -2.531945E+04  7.538622E+03 -1.006794E+04  5.032318E+03
       260   4  1.283037E+04 -1.728852E+02  3.969244E+03  9.406488E+03 -3.109010E+03  3.972613E+03
       260   5  1.191583E+04 -6.477462E+02  6.695711E+03  3.127389E+03 -6.538886E+03  4.677194E+03
       260   6  1.282937E+04  4.811633E+03  1.311674E+04  9.387160E+03 -9.967225E+03  5.032596E+03
       260   7  1.383056E+05  3.091414E+04  3.396434E+04  9.095736E+03 -2.637978E+03  3.974450E+03
       260   8  1.549956E+05  3.480081E+04  4.084651E+04  3.896586E+03 -6.252948E+03  4.678239E+03
       260   9  1.735456E+05  4.465305E+04  5.155111E+04  1.123616E+04 -9.866482E+03  5.032875E+03
       260  10 -1.126305E+05 -3.126107E+04 -2.602701E+04  9.717174E+03  1.874886E-08  8.931279E-10
       260  11 -1.311453E+05 -3.609781E+04 -2.745666E+04  2.358378E+03  2.376176E-09 -1.041611E-09
       260  12 -1.478633E+05 -3.503170E+04 -2.531969E+04  7.538663E+03 -5.458446E-09 -6.459820E-09
       260  13  1.283035E+04 -1.729047E+02  3.969197E+03  9.406498E+03  1.036229E-09 -1.406998E-08
       260  14  1.191578E+04 -6.477811E+02  6.695590E+03  3.127414E+03 -1.616522E-09  1.061641E-09
       260  15  1.282926E+04  4.811579E+03  1.311650E+04  9.387200E+03  3.838518E-09 -7.346972E-09
       260  16  1.383056E+05  3.091412E+04  3.396430E+04  9.095745E+03 -1.995849E-08  1.935084E-09
       260  17  1.549956E+05  3.480077E+04  4.084640E+04  3.896609E+03 -3.902201E-09 -2.055182E-08
       260  18  1.735455E+05  4.465300E+04  5.155087E+04  1.123620E+04  3.475289E-09  2.964256E-09
       260  19 -1.126305E+05 -3.126105E+04 -2.602696E+04  9.717163E+03  3.579946E+03 -3.970774E+03
       260  20 -1.311452E+05 -3.609778E+04 -2.745653E+04  2.358353E+03  6.824758E+03 -4.676148E+03
       260  21 -1.478632E+05 -3.503165E+04 -2.531945E+04  7.538622E+03  1.006794E+04 -5.032318E+03
       260  22  1.283037E+04 -1.728852E+02  3.969244E+03  9.406488E+03  3.109010E+03 -3.972613E+03
       260  23  1.191583E+04 -6.477462E+02  6.695711E+03  3.127389E+03  6.538886E+03 -4.677194E+03
       260  24  1.282937E+04  4.811633E+03  1.311674E+04  9.387160E+03  9.967225E+03 -5.032596E+03
       260  25  1.383056E+05  3.091414E+04  3.396434E+04  9.095736E+03  2.637978E+03 -3.974450E+03
       260  26  1.549956E+05  3.480081E+04  4.084651E+04  3.896586E+03  6.252948E+03 -4.678239E+03
       260  27  1.735456E+05  4.465305E+04  5.155111E+04  1.123616E+04  9.866482E+03 -5.032875E+03
       261   1 -1.673520E+05 -4.773335E+04 -2.759682E+04  1.520510E+04 -1.402653E+04  6.134333E+03
       261   2 -1.927331E+05 -5.607823E+04 -2.205151E+04 -1.856341E+03 -2.534438E+04  6.591917E+03
       261   3 -2.025541E+05 -7.804411E+03  5.004886E+03 -6.628024E+03 -3.664388E+04  2.098248E+03
       261   4  1.597829E+04 -2.379337E+03  1.610119E+04  9.399816E+03 -1.245829E+04  6.140293E+03
       261   5  7.973671E+03 -6.311871E+03  2.584117E+04  3.166688E+03 -2.639387E+04  6.587742E+03
       261   6  1.597761E+04  4.681847E+04  5.890503E+04  9.222778E+03 -4.031145E+04  2.084252E+03
       261   7  1.993395E+05  4.297239E+04  5.979687E+04  3.592782E+03 -1.088960E+04  6.146223E+03
       261   8  2.087175E+05  4.345167E+04  7.373104E+04  8.191315E+03 -2.744370E+04  6.583551E+03
       261   9  2.345533E+05  1.014387E+05  1.128018E+05  2.507913E+04 -4.398031E+04  2.070072E+03
       261  10 -1.673522E+05 -4.773345E+04 -2.759726E+04  1.520517E+04  4.160973E-09 -5.917988E-09
       261  11 -1.927338E+05 -5.607845E+04 -2.205280E+04 -1.856206E+03  2.926932E-10  1.314428E-09
       261  12 -2.025556E+05 -7.804776E+03  5.002354E+03 -6.627962E+03  5.178033E-10  1.097461E-08
       261  13  1.597812E+04 -2.379420E+03  1.610083E+04  9.399877E+03 -2.163126E-09  5.472427E-10
       261  14  7.972912E+03 -6.312104E+03  2.583978E+04  3.166828E+03  1.561798E-09 -1.373020E-09
       261  15  1.597587E+04  4.681803E+04  5.890197E+04  9.222846E+03  5.993650E-10  5.222554E-10
       261  16  1.993393E+05  4.297232E+04  5.979658E+04  3.592836E+03 -4.182220E-09  5.222778E-09
       261  17  2.087166E+05  4.345142E+04  7.372955E+04  8.191461E+03 -4.298620E-09  3.823177E-09
       261  18  2.345513E+05  1.014382E+05  1.127982E+05  2.507921E+04 -2.644120E-09  1.217570E-10
       261  19 -1.673520E+05 -4.773335E+04 -2.759682E+04  1.520510E+04  1.402653E+04 -6.134333E+03
       261  20 -1.927331E+05 -5.607823E+04 -2.205151E+04 -1.856341E+03  2.534438E+04 -6.591917E+03
       261  21 -2.025541E+05 -7.804411E+03  5.004886E+03 -6.628024E+03  3.664388E+04 -2.098248E+03
       261  22  1.597829E+04 -2.379337E+03  1.610119E+04  9.399816E+03  1.245829E+04 -6.140293E+03
       261  23  7.973671E+03 -6.311871E+03  2.584117E+04  3.166688E+03  2.639387E+04 -6.587742E+03
       261  24  1.597761E+04  4.681847E+04  5.890503E+04  9.222778E+03  4.031145E+04 -2.084252E+03
       261  25  1.993395E+05  4.297239E+04  5.979687E+04  3.592782E+03  1.088960E+04 -6.146223E+03
       261  26  2.087175E+05  4.345167E+04  7.373104E+04  8.191315E+03  2.744370E+04 -6.583551E+03
       261  27  2.345533E+05  1.014387E+05  1.128018E+05  2.507913E+04  4.398031E+04 -2.070072E+03
       262   1 -2.995967E+05 -1.336367E+06 -3.309655E+05  1.090273E+05 -6.260214E+03 -1.176808E+05
       262   2 -1.226452E+05 -1.193379E+06 -2.084314E+05  3.658252E+04 -1.864660E+04 -6.942788E+04
       262   3 -1.048680E+05 -1.095525E+06 -1.569894E+05  4.920671E+04 -1.459407E+04 -2.111387E+04
       262   4 -1.282474E+05 -6.513548E+05 -1.617196E+05  6.541748E+04 -6.286791E+03 -1.069716E+05
       262   5  1.726488E+04 -6.295206E+05 -7.377678E+04  2.309431E+04 -1.865030E+04 -6.734567E+04
       262   6  5.180961E+03 -6.512878E+05 -5.087592E+04  6.584285E+04 -1.457679E+04 -2.766861E+04
       262   7  4.307384E+04  3.408877E+04  7.492820E+03  2.175972E+04 -6.314864E+03 -9.625066E+04
       262   8  1.571526E+05 -6.537030E+04  6.085558E+04  9.593980E+03 -1.865408E+04 -6.526154E+04
       262   9  1.152167E+05 -2.068688E+05  5.522398E+04  8.249108E+04 -1.455986E+04 -3.422802E+04
       262  10 -2.996005E+05 -1.336382E+06 -3.309916E+05  1.090267E+05  1.872928E-09  2.052706E-09
       262  11 -1.226469E+05 -1.193384E+06 -2.084412E+05  3.658147E+04  2.316255E-09 -9.888708E-10
       262  12 -1.048683E+05 -1.095525E+06 -1.569906E+05  4.920646E+04 -5.268554E-10 -2.952148E-09
       262  13 -1.282505E+05 -6.513671E+05 -1.617412E+05  6.541693E+04  2.403548E-09  8.436117E-09
       262  14  1.726328E+04 -6.295256E+05 -7.378596E+04  2.309329E+04  8.759240E-10 -8.234942E-09
       262  15  5.180527E+03 -6.512887E+05 -5.087776E+04  6.584253E+04 -5.979805E-10  1.658222E-10
       262  16  4.307131E+04  3.407881E+04  7.475336E+03  2.175923E+04  2.175578E-09 -2.183398E-09
       262  17  1.571510E+05 -6.537497E+04  6.084692E+04  9.592999E+03  5.361300E-09  5.946125E-10
       262  18  1.152162E+05 -2.068701E+05  5.522138E+04  8.249068E+04 -2.109281E-09 -1.993374E-09
       262  19 -2.995967E+05 -1.336367E+06 -3.309655E+05  1.090273E+05  6.260214E+03  1.176808E+05
       262  20 -1.226452E+05 -1.193379E+06 -2.084314E+05  3.658252E+04  1.864660E+04  6.942788E+04
       262  21 -1.048680E+05 -1.095525E+06 -1.569894E+05  4.920671E+04  1.459407E+04  2.111387E+04
       262  22 -1.282474E+05 -6.513548E+05 -1.617196E+05  6.541748E+04  6.286791E+03  1.069716E+05
       262  23  1.726488E+04 -6.295206E+05 -7.377678E+04  2.309431E+04  1.865030E+04  6.734567E+04
       262  24  5.180961E+03 -6.512878E+05 -5.087592E+04  6.584285E+04  1.457679E+04  2.766861E+04
       262  25  4.307384E+04  3.408877E+04  7.492820E+03  2.175972E+04  6.314864E+03  9.625066E+04
       262  26  1.571526E+05 -6.537030E+04  6.085558E+04  9.593980E+03  1.865408E+04  6.526154E+04
       262  27  1.152167E+05 -2.068688E+05  5.522398E+04  8.249108E+04  1.455986E+04  3.422802E+04
       263   1 -8.446181E+04 -9.326804E+05 -1.140785E+05  7.204162E+04 -9.286473E+03 -1.757925E+04
       263   2 -3.822346E+04 -8.066113E+05 -7.415440E+04  2.319424E+04 -5.517959E+03  1.588618E+02
       263   3 -2.265985E+04 -6.899396E+05 -5.334014E+04  6.082909E+04 -1.233456E+03  1.790017E+04
       263   4 -1.274650E+04 -6.436571E+05 -4.495657E+04  6.601545E+04 -9.281332E+03 -1.945948E+04
       263   5  3.342677E+03 -6.389718E+05 -3.410617E+04  2.277709E+04 -5.512630E+03 -1.987865E+03
       263   6 -1.119077E+04 -6.436482E+05 -4.217467E+04  6.602060E+04 -1.227727E+03  1.548353E+04
       263   7  5.896289E+04 -3.545570E+05  2.415953E+04  5.998651E+04 -9.276156E+03 -2.134057E+04
       263   8  4.490678E+04 -4.713065E+05  5.940096E+03  2.235985E+04 -5.507299E+03 -4.135170E+03
       263   9  2.782719E+02 -5.973548E+05 -3.100932E+04  7.121251E+04 -1.222040E+03  1.306671E+04
       263  10 -8.446198E+04 -9.326807E+05 -1.140793E+05  7.204149E+04 -9.701405E-10  3.803040E-09
       263  11 -3.822350E+04 -8.066113E+05 -7.415446E+04  2.319424E+04  8.622153E-10  1.644555E-09
       263  12 -2.265994E+04 -6.899400E+05 -5.334075E+04  6.082910E+04 -3.296093E-10  3.602694E-09
       263  13 -1.274669E+04 -6.436575E+05 -4.495744E+04  6.601531E+04 -1.676112E-09  2.417500E-09
       263  14  3.342643E+03 -6.389718E+05 -3.410624E+04  2.277708E+04  5.571016E-10 -7.797938E-09
       263  15 -1.119083E+04 -6.436485E+05 -4.217513E+04  6.602062E+04 -1.569786E-09  3.338290E-10
       263  16  5.896267E+04 -3.545575E+05  2.415851E+04  5.998635E+04 -2.900113E-09 -6.904300E-09
       263  17  4.490675E+04 -4.713066E+05  5.940007E+03  2.235983E+04  1.732702E-09 -1.415199E-09
       263  18  2.782244E+02 -5.973549E+05 -3.100965E+04  7.121252E+04 -2.125140E-09 -7.724031E-09
       263  19 -8.446181E+04 -9.326804E+05 -1.140785E+05  7.204162E+04  9.286473E+03  1.757925E+04
       263  20 -3.822346E+04 -8.066113E+05 -7.415440E+04  2.319424E+04  5.517959E+03 -1.588618E+02
       263  21 -2.265985E+04 -6.899396E+05 -5.334014E+04  6.082909E+04  1.233456E+03 -1.790017E+04
       263  22 -1.274650E+04 -6.436571E+05 -4.495657E+04  6.601545E+04  9.281332E+03  1.945948E+04
       263  23  3.342677E+03 -6.389718E+05 -3.410617E+04  2.277709E+04  5.512630E+03  1.987865E+03
       263  24 -1.119077E+04 -6.436482E+05 -4.217467E+04  6.602060E+04  1.227727E+03 -1.548353E+04
       263  25  5.896289E+04 -3.545570E+05  2.415953E+04  5.998651E+04  9.276156E+03  2.134057E+04
       263  26  4.490678E+04 -4.713065E+05  5.940096E+03  2.235985E+04  5.507299E+03  4.135170E+03
       263  27  2.782719E+02 -5.973548E+05 -3.100932E+04  7.121251E+04  1.222040E+03 -1.306671E+04
       264   1  3.141750E+04 -5.408444E+05 -2.068188E+04  8.148135E+04  3.146193E+03  2.794708E+04
       264   2  7.262247E+04 -4.003840E+05 -1.143844E+04  1.154562E+04  7.598383E+03  5.879111E+04
       264   3 -2.602811E+04 -2.982819E+05 -5.711507E+04  2.759866E+04  2.846842E+03  8.961831E+04
       264   4  4.351497E+03 -6.502816E+05 -4.693777E+04  6.601385E+04  3.156690E+03  2.312570E+04
       264   5  1.547791E+04 -6.306869E+05 -6.639980E+04  2.286345E+04  7.599550E+03  5.881361E+04
       264   6 -1.141243E+05 -6.503279E+05 -1.441658E+05  6.570769E+04  2.839818E+03  9.447846E+04
       264   7 -2.271445E+04 -7.597072E+05 -7.319429E+04  5.054909E+04  3.167429E+03  1.830517E+04
       264   8 -4.167003E+04 -8.609409E+05 -1.213648E+05  3.417708E+04  7.600718E+03  5.883611E+04
       264   9 -2.022243E+05 -1.002258E+06 -2.312248E+05  1.037951E+05  2.833390E+03  9.933584E+04
       264  10  3.141727E+04 -5.408453E+05 -2.068337E+04  8.148128E+04 -3.663892E-10 -8.318451E-10
       264  11  7.262148E+04 -4.003878E+05 -1.144505E+04  1.154526E+04  1.906032E-09 -3.408653E-09
       264  12 -2.603028E+04 -2.982905E+05 -5.713019E+04  2.759846E+04 -1.617784E-10 -3.646897E-09
       264  13  4.351343E+03 -6.502822E+05 -4.693880E+04  6.601379E+04 -9.313343E-10  4.246373E-09
       264  14  1.547692E+04 -6.306907E+05 -6.640642E+04  2.286309E+04 -1.362579E-09 -4.690968E-09
       264  15 -1.141267E+05 -6.503375E+05 -1.441826E+05  6.570748E+04 -3.583299E-10  8.201130E-10
       264  16 -2.271455E+04 -7.597075E+05 -7.319494E+04  5.054904E+04 -4.059271E-09 -1.044943E-09
       264  17 -4.167102E+04 -8.609446E+05 -1.213715E+05  3.417672E+04  2.299693E-09  5.424545E-09
       264  18 -2.022270E+05 -1.002269E+06 -2.312434E+05  1.037949E+05  1.512991E-09  1.187033E-10
       264  19  3.141750E+04 -5.408444E+05 -2.068188E+04  8.148135E+04 -3.146193E+03 -2.794708E+04
       264  20  7.262247E+04 -4.003840E+05 -1.143844E+04  1.154562E+04 -7.598383E+03 -5.879111E+04
       264  21 -2.602811E+04 -2.982819E+05 -5.711507E+04  2.759866E+04 -2.846842E+03 -8.961831E+04
       264  22  4.351497E+03 -6.502816E+05 -4.693777E+04  6.601385E+04 -3.156690E+03 -2.312570E+04
       264  23  1.547791E+04 -6.306869E+05 -6.639980E+04  2.286345E+04 -7.599550E+03 -5.881361E+04
       264  24 -1.141243E+05 -6.503279E+05 -1.441658E+05  6.570769E+04 -2.839818E+03 -9.447846E+04
       264  25 -2.271445E+04 -7.597072E+05 -7.319429E+04  5.054909E+04 -3.167429E+03 -1.830517E+04
       264  26 -4.167003E+04 -8.609409E+05 -1.213648E+05  3.417708E+04 -7.600718E+03 -5.883611E+04
       264  27 -2.022243E+05 -1.002258E+06 -2.312248E+05  1.037951E+05 -2.833390E+03 -9.933584E+04
       265   1  7.769893E+05  2.616719E+05  1.645582E+05  2.791522E+05  7.754470E+04  2.724093E+04
       265   2  7.507268E+05  1.420988E+05  9.082538E+04  2.841400E+05  5.024925E+04  1.266022E+04
       265   3  7.589727E+05  1.367952E+05  6.731723E+04  2.720072E+05  2.132692E+04  2.373708E+03
       265   4  6.190384E+05  1.755910E+05  1.164538E+05  2.090772E+05  7.463753E+04  2.613488E+04
       265   5  5.958837E+05  7.606475E+04  4.865426E+04  2.337927E+05  4.947294E+04  1.236502E+04
       265   6  6.068253E+05  9.040054E+04  2.940067E+04  2.413849E+05  2.268085E+04  2.887578E+03
       265   7  4.611148E+05  8.952169E+04  6.834745E+04  1.390215E+05  7.173120E+04  2.502945E+04
       265   8  4.410644E+05  1.003429E+04  6.481093E+03  1.834574E+05  4.869684E+04  1.206993E+04
       265   9  4.546998E+05  4.400548E+04 -8.517735E+03  2.107683E+05  2.403442E+04  3.401373E+03
       265  10  7.769827E+05  2.616695E+05  1.645456E+05  2.791505E+05  1.282973E-09  7.900808E-09
       265  11  7.507241E+05  1.420980E+05  9.082034E+04  2.841395E+05 -6.393255E-11  3.197290E-09
       265  12  7.589722E+05  1.367950E+05  6.731637E+04  2.720072E+05  8.162225E-10  8.250048E-09
       265  13  6.190322E+05  1.755888E+05  1.164421E+05  2.090756E+05  1.875686E-09 -7.497146E-09
       265  14  5.958810E+05  7.606393E+04  4.864938E+04  2.337922E+05 -2.367418E-10 -1.651738E-08
       265  15  6.068248E+05  9.040039E+04  2.939969E+04  2.413848E+05  1.538932E-09 -3.038452E-09
       265  16  4.611091E+05  8.951964E+04  6.833661E+04  1.390201E+05 -1.079517E-09 -2.499145E-09
       265  17  4.410618E+05  1.003350E+04  6.476367E+03  1.834570E+05  3.245230E-09  1.722974E-09
       265  18  4.546992E+05  4.400531E+04 -8.518841E+03  2.107682E+05  3.772496E-09 -3.051335E-09
       265  19  7.769893E+05  2.616719E+05  1.645582E+05  2.791522E+05 -7.754470E+04 -2.724093E+04
       265  20  7.507268E+05  1.420988E+05  9.082538E+04  2.841400E+05 -5.024925E+04 -1.266022E+04
       265  21  7.589727E+05  1.367952E+05  6.731723E+04  2.720072E+05 -2.132692E+04 -2.373708E+03
       265  22  6.190384E+05  1.755910E+05  1.164538E+05  2.090772E+05 -7.463753E+04 -2.613488E+04
       265  23  5.958837E+05  7.606475E+04  4.865426E+04  2.337927E+05 -4.947294E+04 -1.236502E+04
       265  24  6.068253E+05  9.040054E+04  2.940067E+04  2.413849E+05 -2.268085E+04 -2.887578E+03
       265  25  4.611148E+05  8.952169E+04  6.834745E+04  1.390215E+05 -7.173120E+04 -2.502945E+04
       265  26  4.410644E+05  1.003429E+04  6.481093E+03  1.834574E+05 -4.869684E+04 -1.206993E+04
       265  27  4.546998E+05  4.400548E+04 -8.517735E+03  2.107683E+05 -2.403442E+04 -3.401373E+03
       266   1  7.231386E+05  1.502481E+05  5.606611E+04  2.700592E+05  1.803013E+04  2.298860E+03
       266   2  7.098247E+05  1.282203E+05  3.940079E+04  2.622163E+05  1.175871E+04  3.435095E+02
       266   3  6.926999E+05  1.264002E+05  3.038776E+04  2.616173E+05  5.364797E+03 -1.288687E+03
       266   4  6.030964E+05  1.023213E+05  2.389673E+04  2.343837E+05  1.813123E+04  2.337063E+03
       266   5  6.043683E+05  8.770482E+04  1.149683E+04  2.324808E+05  1.202083E+04  4.429005E+02
       266   6  6.017979E+05  9.326533E+04  6.622789E+03  2.378216E+05  5.787780E+03 -1.128185E+03
       266   7  4.830682E+05  5.439591E+04 -8.273912E+03  1.987146E+05  1.823231E+04  2.375258E+03
       266   8  4.989227E+05  4.719021E+04 -1.640804E+04  2.027499E+05  1.228291E+04  5.422720E+02
       266   9  5.109042E+05  6.013098E+04 -1.714281E+04  2.140290E+05  6.210693E+03 -9.677065E+02
       266  10  7.231382E+05  1.502480E+05  5.606549E+04  2.700592E+05  2.732578E-09  4.648258E-09
       266  11  7.098245E+05  1.282203E+05  3.940053E+04  2.622163E+05 -8.460827E-11  3.224876E-10
       266  12  6.926998E+05  1.264001E+05  3.038770E+04  2.616173E+05 -1.225836E-09  6.151438E-09
       266  13  6.030960E+05  1.023212E+05  2.389611E+04  2.343837E+05  1.440414E-09 -1.198633E-10
       266  14  6.043681E+05  8.770478E+04  1.149656E+04  2.324808E+05 -3.111225E-09 -2.275282E-08
       266  15  6.017979E+05  9.326532E+04  6.622723E+03  2.378216E+05 -2.880832E-09 -2.387447E-09
       266  16  4.830678E+05  5.439582E+04 -8.274546E+03  1.987146E+05 -9.384274E-10 -3.229726E-09
       266  17  4.989226E+05  4.719017E+04 -1.640833E+04  2.027499E+05 -2.594228E-09 -3.437696E-09
       266  18  5.109042E+05  6.013097E+04 -1.714288E+04  2.140290E+05 -1.178416E-09  9.497361E-09
       266  19  7.231386E+05  1.502481E+05  5.606611E+04  2.700592E+05 -1.803013E+04 -2.298860E+03
       266  20  7.098247E+05  1.282203E+05  3.940079E+04  2.622163E+05 -1.175871E+04 -3.435095E+02
       266  21  6.926999E+05  1.264002E+05  3.038776E+04  2.616173E+05 -5.364797E+03  1.288687E+03
       266  22  6.030964E+05  1.023213E+05  2.389673E+04  2.343837E+05 -1.813123E+04 -2.337063E+03
       266  23  6.043683E+05  8.770482E+04  1.149683E+04  2.324808E+05 -1.202083E+04 -4.429005E+02
       266  24  6.017979E+05  9.326533E+04  6.622789E+03  2.378216E+05 -5.787780E+03  1.128185E+03
       266  25  4.830682E+05  5.439591E+04 -8.273912E+03  1.987146E+05 -1.823231E+04 -2.375258E+03
       266  26  4.989227E+05  4.719021E+04 -1.640804E+04  2.027499E+05 -1.228291E+04 -5.422720E+02
       266  27  5.109042E+05  6.013098E+04 -1.714281E+04  2.140290E+05 -6.210693E+03  9.677065E+02
       267   1  6.694492E+05  1.204323E+05  2.310010E+04  2.560256E+05  4.337396E+03 -1.159320E+03
       267   2  6.578776E+05  1.089208E+05  1.654843E+04  2.469241E+05  2.702804E+03 -1.011861E+03
       267   3  6.381872E+05  1.073842E+05  1.135222E+04  2.474343E+05  1.059755E+03 -8.423269E+02
       267   4  6.013489E+05  9.447959E+04  5.167453E+03  2.370269E+05  4.663780E+03 -1.035466E+03
       267   5  6.053418E+05  8.902064E+04  2.699329E+03  2.324007E+05  3.040266E+03 -8.837780E+02
       267   6  6.012137E+05  9.353468E+04  1.578119E+03  2.373861E+05  1.408261E+03 -7.100280E+02
       267   7  5.332528E+05  6.852710E+04 -1.276565E+04  2.180301E+05  4.990125E+03 -9.116271E+02
       267   8  5.528085E+05  6.912066E+04 -1.115003E+04  2.178783E+05  3.377698E+03 -7.557069E+02
       267   9  5.642416E+05  7.968527E+04 -8.196102E+03  2.273384E+05  1.756745E+03 -5.777376E+02
       267  10  6.694492E+05  1.204323E+05  2.310006E+04  2.560256E+05 -4.264120E-09  4.000988E-09
       267  11  6.578776E+05  1.089208E+05  1.654841E+04  2.469241E+05 -2.301554E-09  1.380225E-08
       267  12  6.381872E+05  1.073842E+05  1.135222E+04  2.474343E+05  2.196222E-09  4.326319E-09
       267  13  6.013488E+05  9.447958E+04  5.167410E+03  2.370269E+05 -2.608242E-09  2.537484E-09
       267  14  6.053418E+05  8.902063E+04  2.699310E+03  2.324007E+05  9.148526E-11 -2.508800E-09
       267  15  6.012137E+05  9.353467E+04  1.578114E+03  2.373861E+05  9.600256E-10 -4.920285E-09
       267  16  5.332528E+05  6.852710E+04 -1.276569E+04  2.180301E+05 -2.465579E-10  3.578332E-09
       267  17  5.528085E+05  6.912066E+04 -1.115005E+04  2.178783E+05 -9.129216E-09 -2.358577E-09
       267  18  5.642416E+05  7.968527E+04 -8.196108E+03  2.273384E+05 -3.004008E-09  2.467849E-09
       267  19  6.694492E+05  1.204323E+05  2.310010E+04  2.560256E+05 -4.337396E+03  1.159320E+03
       267  20  6.578776E+05  1.089208E+05  1.654843E+04  2.469241E+05 -2.702804E+03  1.011861E+03
       267  21  6.381872E+05  1.073842E+05  1.135222E+04  2.474343E+05 -1.059755E+03  8.423269E+02
       267  22  6.013489E+05  9.447959E+04  5.167453E+03  2.370269E+05 -4.663780E+03  1.035466E+03
       267  23  6.053418E+05  8.902064E+04  2.699329E+03  2.324007E+05 -3.040266E+03  8.837780E+02
       267  24  6.012137E+05  9.353468E+04  1.578119E+03  2.373861E+05 -1.408261E+03  7.100280E+02
       267  25  5.332528E+05  6.852710E+04 -1.276565E+04  2.180301E+05 -4.990125E+03  9.116271E+02
       267  26  5.528085E+05  6.912066E+04 -1.115003E+04  2.178783E+05 -3.377698E+03  7.557069E+02
       267  27  5.642416E+05  7.968527E+04 -8.196102E+03  2.273384E+05 -1.756745E+03  5.777376E+02
       268   1  6.165064E+05  9.945425E+04  5.241338E+03  2.415421E+05  6.804867E+02 -5.213495E+02
       268   2  6.051994E+05  8.907685E+04  7.532207E+02  2.323353E+05  6.502169E+00  1.231689E+01
       268   3  5.852883E+05  8.756376E+04 -3.389021E+03  2.329307E+05 -6.681269E+02  5.477416E+02
       268   4  6.011584E+05  9.364752E+04  1.253583E+03  2.372921E+05  1.021496E+03 -3.918891E+02
       268   5  6.054547E+05  8.917436E+04  8.207004E+02  2.324067E+05  3.483842E+02  1.421072E+02
       268   6  6.011466E+05  9.356533E+04  7.330392E+02  2.373234E+05 -3.253857E+02  6.778591E+02
       268   7  5.858105E+05  8.784082E+04 -2.734180E+03  2.330422E+05  1.362496E+03 -2.624326E+02
       268   8  6.057100E+05  8.927186E+04  8.881807E+02  2.324781E+05  6.902663E+02  2.718976E+02
       268   9  6.170052E+05  9.956692E+04  4.855091E+03  2.417162E+05  1.736607E+01  8.079807E+02
       268  10  6.165064E+05  9.945425E+04  5.241336E+03  2.415421E+05 -3.234690E-09 -1.240071E-08
       268  11  6.051994E+05  8.907685E+04  7.532207E+02  2.323353E+05  9.651010E-09 -9.178593E-09
       268  12  5.852883E+05  8.756376E+04 -3.389023E+03  2.329307E+05  1.702019E-08 -9.694597E-09
       268  13  6.011584E+05  9.364752E+04  1.253580E+03  2.372921E+05  2.158904E-09 -6.479812E-09
       268  14  6.054547E+05  8.917436E+04  8.207002E+02  2.324067E+05  2.367785E-09 -1.323531E-08
       268  15  6.011466E+05  9.356533E+04  7.330381E+02  2.373234E+05  3.795953E-09 -1.820597E-08
       268  16  5.858105E+05  8.784082E+04 -2.734183E+03  2.330422E+05  7.352730E-09 -7.037038E-10
       268  17  6.057100E+05  8.927186E+04  8.881797E+02  2.324781E+05 -4.915210E-09 -7.085079E-10
       268  18  6.170052E+05  9.956692E+04  4.855090E+03  2.417162E+05 -8.749517E-09 -1.082631E-08
       268  19  6.165064E+05  9.945425E+04  5.241338E+03  2.415421E+05 -6.804867E+02  5.213495E+02
       268  20  6.051994E+05  8.907685E+04  7.532207E+02  2.323353E+05 -6.502169E+00 -1.231689E+01
       268  21  5.852883E+05  8.756376E+04 -3.389021E+03  2.329307E+05  6.681269E+02 -5.477416E+02
       268  22  6.011584E+05  9.364752E+04  1.253583E+03  2.372921E+05 -1.021496E+03  3.918891E+02
       268  23  6.054547E+05  8.917436E+04  8.207004E+02  2.324067E+05 -3.483842E+02 -1.421072E+02
       268  24  6.011466E+05  9.356533E+04  7.330392E+02  2.373234E+05  3.253857E+02 -6.778591E+02
       268  25  5.858105E+05  8.784082E+04 -2.734180E+03  2.330422E+05 -1.362496E+03  2.624326E+02
       268  26  6.057100E+05  8.927186E+04  8.881807E+02  2.324781E+05 -6.902663E+02 -2.718976E+02
       268  27  6.170052E+05  9.956692E+04  4.855091E+03  2.417162E+05 -1.736607E+01 -8.079807E+02
       269   1  5.637446E+05  7.944116E+04 -9.129702E+03  2.270552E+05 -9.468140E+02  9.035248E+02
       269   2  5.523776E+05  6.908538E+04 -1.290118E+04  2.177602E+05 -1.754143E+03  1.390967E+03
       269   3  5.324103E+05  6.770409E+04 -1.620986E+04  2.183089E+05 -2.561626E+03  1.879175E+03
       269   4  6.011442E+05  9.356956E+04  7.800734E+02  2.373401E+05 -6.036731E+02  1.033786E+03
       269   5  6.054542E+05  8.915129E+04  1.084112E+03  2.323921E+05 -1.410688E+03  1.521324E+03
       269   6  6.011636E+05  9.370731E+04  1.850669E+03  2.372875E+05 -2.217872E+03  2.009623E+03
       269   7  6.385451E+05  1.076981E+05  1.068973E+04  2.476255E+05 -2.605095E+02  1.164057E+03
       269   8  6.585335E+05  1.092173E+05  1.506914E+04  2.470250E+05 -1.067201E+03  1.651693E+03
       269   9  6.699213E+05  1.197108E+05  1.991074E+04  2.562680E+05 -1.874076E+03  2.140086E+03
       269  10  5.637446E+05  7.944116E+04 -9.129705E+03  2.270552E+05 -2.757242E-09 -3.582788E-09
       269  11  5.523776E+05  6.908538E+04 -1.290119E+04  2.177602E+05 -7.747934E-10  8.802728E-10
       269  12  5.324103E+05  6.770408E+04 -1.620988E+04  2.183089E+05  3.564635E-09 -2.595736E-09
       269  13  6.011442E+05  9.356956E+04  7.800708E+02  2.373401E+05  2.122387E-09  2.460305E-09
       269  14  6.054542E+05  8.915129E+04  1.084103E+03  2.323921E+05 -4.219429E-11  1.581450E-08
       269  15  6.011636E+05  9.370731E+04  1.850652E+03  2.372875E+05  2.454296E-09  2.069211E-09
       269  16  6.385451E+05  1.076981E+05  1.068972E+04  2.476255E+05  1.054709E-08 -5.720080E-09
       269  17  6.585335E+05  1.092173E+05  1.506914E+04  2.470250E+05  7.111737E-09 -7.228432E-09
       269  18  6.699213E+05  1.197108E+05  1.991072E+04  2.562680E+05  4.175381E-10 -3.788358E-09
       269  19  5.637446E+05  7.944116E+04 -9.129702E+03  2.270552E+05  9.468140E+02 -9.035248E+02
       269  20  5.523776E+05  6.908538E+04 -1.290118E+04  2.177602E+05  1.754143E+03 -1.390967E+03
       269  21  5.324103E+05  6.770409E+04 -1.620986E+04  2.183089E+05  2.561626E+03 -1.879175E+03
       269  22  6.011442E+05  9.356956E+04  7.800734E+02  2.373401E+05  6.036731E+02 -1.033786E+03
       269  23  6.054542E+05  8.915129E+04  1.084112E+03  2.323921E+05  1.410688E+03 -1.521324E+03
       269  24  6.011636E+05  9.370731E+04  1.850669E+03  2.372875E+05  2.217872E+03 -2.009623E+03
       269  25  6.385451E+05  1.076981E+05  1.068973E+04  2.476255E+05  2.605095E+02 -1.164057E+03
       269  26  6.585335E+05  1.092173E+05  1.506914E+04  2.470250E+05  1.067201E+03 -1.651693E+03
       269  27  6.699213E+05  1.197108E+05  1.991074E+04  2.562680E+05  1.874076E+03 -2.140086E+03
       270   1  5.105689E+05  5.947615E+04 -2.152244E+04  2.126855E+05 -3.076118E+03  2.155061E+03
       270   2  4.988806E+05  4.860702E+04 -2.387236E+04  2.029743E+05 -5.447339E+03  2.059201E+03
       270   3  4.793029E+05  4.852809E+04 -2.414053E+04  2.028863E+05 -7.808177E+03  1.936563E+03
       270   4  6.012397E+05  9.354544E+04  2.386249E+03  2.374528E+05 -2.721969E+03  2.289430E+03
       270   5  6.052885E+05  8.888771E+04  4.175794E+03  2.323606E+05 -5.106817E+03  2.188351E+03
       270   6  6.014506E+05  9.502271E+04  8.057697E+03  2.368915E+05 -7.481339E+03  2.060474E+03
       270   7  6.919188E+05  1.276153E+05  2.629431E+04  2.622235E+05 -2.367762E+03  2.423820E+03
       270   8  7.117076E+05  1.291692E+05  3.222302E+04  2.617515E+05 -4.766231E+03  2.317526E+03
       270   9  7.236127E+05  1.415183E+05  4.025465E+04  2.709028E+05 -7.154431E+03  2.184412E+03
       270  10  5.105689E+05  5.947614E+04 -2.152247E+04  2.126855E+05 -5.602369E-09 -3.191089E-09
       270  11  4.988806E+05  4.860701E+04 -2.387242E+04  2.029743E+05 -5.104269E-09  5.363887E-09
       270  12  4.793029E+05  4.852807E+04 -2.414066E+04  2.028863E+05 -1.016314E-08  1.345762E-08
       270  13  6.012397E+05  9.354543E+04  2.386225E+03  2.374528E+05  8.353462E-10 -7.117237E-09
       270  14  6.052885E+05  8.888770E+04  4.175736E+03  2.323606E+05 -1.133720E-09  1.855935E-09
       270  15  6.014505E+05  9.502269E+04  8.057584E+03  2.368915E+05 -4.438690E-09  4.368519E-09
       270  16  6.919187E+05  1.276153E+05  2.629429E+04  2.622235E+05  8.531333E-09 -3.879587E-10
       270  17  7.117076E+05  1.291692E+05  3.222297E+04  2.617515E+05  3.259520E-09  2.096841E-08
       270  18  7.236126E+05  1.415183E+05  4.025455E+04  2.709028E+05  5.037828E-10  8.483750E-09
       270  19  5.105689E+05  5.947615E+04 -2.152244E+04  2.126855E+05  3.076118E+03 -2.155061E+03
       270  20  4.988806E+05  4.860702E+04 -2.387236E+04  2.029743E+05  5.447339E+03 -2.059201E+03
       270  21  4.793029E+05  4.852809E+04 -2.414053E+04  2.028863E+05  7.808177E+03 -1.936563E+03
       270  22  6.012397E+05  9.354544E+04  2.386249E+03  2.374528E+05  2.721969E+03 -2.289430E+03
       270  23  6.052885E+05  8.888771E+04  4.175794E+03  2.323606E+05  5.106817E+03 -2.188351E+03
       270  24  6.014506E+05  9.502271E+04  8.057697E+03  2.368915E+05  7.481339E+03 -2.060474E+03
       270  25  6.919188E+05  1.276153E+05  2.629431E+04  2.622235E+05  2.367762E+03 -2.423820E+03
       270  26  7.117076E+05  1.291692E+05  3.222302E+04  2.617515E+05  4.766231E+03 -2.317526E+03
       270  27  7.236127E+05  1.415183E+05  4.025465E+04  2.709028E+05  7.154431E+03 -2.184412E+03
       271   1  4.561670E+05  3.988448E+04 -2.780345E+04  1.998943E+05 -9.600875E+03  1.802058E+03
       271   2  4.435891E+05  2.527602E+04 -2.442158E+04  1.873148E+05 -1.899164E+04 -9.483937E+02
       271   3  4.297644E+05  3.740967E+04 -9.431512E+03  1.806866E+05 -2.822271E+04 -4.118818E+03
       271   4  6.021513E+05  9.312886E+04  1.034085E+04  2.381404E+05 -9.147486E+03  1.973960E+03
       271   5  6.037688E+05  8.682192E+04  1.797035E+04  2.324779E+05 -1.874845E+04 -8.563386E+02
       271   6  6.041791E+05  1.072954E+05  3.737222E+04  2.327666E+05 -2.818999E+04 -4.106760E+03
       271   7  7.481557E+05  1.463741E+05  4.848325E+04  2.763943E+05 -8.693982E+03  2.145904E+03
       271   8  7.639734E+05  1.483697E+05  6.036006E+04  2.776516E+05 -1.850518E+04 -7.642561E+02
       271   9  7.786238E+05  1.771842E+05  8.417341E+04  2.848603E+05 -2.815725E+04 -4.094697E+03
       271  10  4.561669E+05  3.988446E+04 -2.780363E+04  1.998943E+05  1.270911E-09  1.088693E-08
       271  11  4.435887E+05  2.527593E+04 -2.442226E+04  1.873148E+05 -1.044874E-09 -6.457710E-09
       271  12  4.297635E+05  3.740944E+04 -9.433040E+03  1.806865E+05 -1.028170E-08 -3.865900E-09
       271  13  6.021512E+05  9.312883E+04  1.034069E+04  2.381404E+05 -4.730935E-09 -4.861571E-09
       271  14  6.037685E+05  8.682182E+04  1.796969E+04  2.324779E+05  4.553813E-09  1.655750E-08
       271  15  6.041783E+05  1.072951E+05  3.737070E+04  2.327665E+05 -8.997076E-10 -5.265727E-09
       271  16  7.481556E+05  1.463740E+05  4.848310E+04  2.763943E+05 -7.341877E-09 -2.583880E-10
       271  17  7.639730E+05  1.483696E+05  6.035942E+04  2.776516E+05  4.740145E-09 -1.205509E-08
       271  18  7.786230E+05  1.771840E+05  8.417189E+04  2.848602E+05  6.387456E-09  3.509133E-09
       271  19  4.561670E+05  3.988448E+04 -2.780345E+04  1.998943E+05  9.600875E+03 -1.802058E+03
       271  20  4.435891E+05  2.527602E+04 -2.442158E+04  1.873148E+05  1.899164E+04  9.483937E+02
       271  21  4.297644E+05  3.740967E+04 -9.431512E+03  1.806866E+05  2.822271E+04  4.118818E+03
       271  22  6.021513E+05  9.312886E+04  1.034085E+04  2.381404E+05  9.147486E+03 -1.973960E+03
       271  23  6.037688E+05  8.682192E+04  1.797035E+04  2.324779E+05  1.874845E+04  8.563386E+02
       271  24  6.041791E+05  1.072954E+05  3.737222E+04  2.327666E+05  2.818999E+04  4.106760E+03
       271  25  7.481557E+05  1.463741E+05  4.848325E+04  2.763943E+05  8.693982E+03 -2.145904E+03
       271  26  7.639734E+05  1.483697E+05  6.036006E+04  2.776516E+05  1.850518E+04  7.642561E+02
       271  27  7.786238E+05  1.771842E+05  8.417341E+04  2.848603E+05  2.815725E+04  4.094697E+03
       272   1  3.972528E+05  2.561944E+04 -6.682441E+03  2.028025E+05 -3.683154E+04 -5.977787E+03
       272   2  3.820877E+05 -2.184737E+04  1.902340E+04  1.651553E+05 -7.582230E+04 -2.007657E+04
       272   3  4.245159E+05  1.035018E+05  1.184789E+05  9.535841E+04 -1.126909E+05 -3.977437E+04
       272   4  6.100219E+05  8.864223E+04  4.598320E+04  2.437058E+05 -3.516291E+04 -5.344445E+03
       272   5  5.904963E+05  6.861888E+04  7.610035E+04  2.345332E+05 -7.693849E+04 -2.050132E+04
       272   6  6.290903E+05  2.219241E+05  1.821543E+05  1.932176E+05 -1.165919E+05 -4.126062E+04
       272   7  8.228354E+05  1.516644E+05  9.864572E+04  2.846199E+05 -3.349365E+04 -4.710978E+03
       272   8  7.989464E+05  1.590916E+05  1.331731E+05  3.039332E+05 -7.805508E+04 -2.092626E+04
       272   9  8.337074E+05  3.403680E+05  2.458252E+05  2.911104E+05 -1.204943E+05 -4.274803E+04
       272  10  3.972513E+05  2.561904E+04 -6.685055E+03  2.028023E+05  1.071892E-08  1.914691E-08
       272  11  3.820814E+05 -2.184935E+04  1.901184E+04  1.651541E+05  6.404192E-09  4.360131E-10
       272  12  4.245018E+05  1.034967E+05  1.184521E+05  9.535481E+04  4.625496E-10  4.035740E-09
       272  13  6.100206E+05  8.864187E+04  4.598083E+04  2.437057E+05 -2.834489E-09 -1.275785E-09
       272  14  5.904898E+05  6.861685E+04  7.608845E+04  2.345319E+05 -2.002647E-09  1.469154E-08
       272  15  6.290753E+05  2.219187E+05  1.821256E+05  1.932138E+05 -8.758411E-10 -7.694555E-09
       272  16  8.228342E+05  1.516641E+05  9.864357E+04  2.846198E+05 -1.846783E-08 -7.567112E-09
       272  17  7.989398E+05  1.590895E+05  1.331608E+05  3.039319E+05 -8.211293E-09  1.257762E-09
       272  18  8.336913E+05  3.403621E+05  2.457946E+05  2.911063E+05 -1.872726E-09  3.900099E-09
       272  19  3.972528E+05  2.561944E+04 -6.682441E+03  2.028025E+05  3.683154E+04  5.977787E+03
       272  20  3.820877E+05 -2.184737E+04  1.902340E+04  1.651553E+05  7.582230E+04  2.007657E+04
       272  21  4.245159E+05  1.035018E+05  1.184789E+05  9.535841E+04  1.126909E+05  3.977437E+04
       272  22  6.100219E+05  8.864223E+04  4.598320E+04  2.437058E+05  3.516291E+04  5.344445E+03
       272  23  5.904963E+05  6.861888E+04  7.610035E+04  2.345332E+05  7.693849E+04  2.050132E+04
       272  24  6.290903E+05  2.219241E+05  1.821543E+05  1.932176E+05  1.165919E+05  4.126062E+04
       272  25  8.228354E+05  1.516644E+05  9.864572E+04  2.846199E+05  3.349365E+04  4.710978E+03
       272  26  7.989464E+05  1.590916E+05  1.331731E+05  3.039332E+05  7.805508E+04  2.092626E+04
       272  27  8.337074E+05  3.403680E+05  2.458252E+05  2.911104E+05  1.204943E+05  4.274803E+04
       273   1 -1.012196E+05 -7.769787E+05 -1.133360E+05  3.315755E+04 -1.952104E+03 -4.317084E+04
       273   2 -3.888766E+04 -7.400623E+05 -7.205771E+04  1.194402E+04 -6.030351E+03 -2.536495E+04
       273   3 -3.660408E+04 -7.202830E+05 -5.736316E+04  1.067660E+04 -5.147242E+03 -7.541099E+03
       273   4 -4.824366E+04 -5.652158E+05 -6.104825E+04  1.676626E+04 -1.962734E+03 -3.975150E+04
       273   5  6.564154E+03 -5.568686E+05 -2.831922E+04  6.878328E+03 -6.032743E+03 -2.455824E+04
       273   6  1.786808E+03 -5.652000E+05 -2.035227E+04  1.693702E+04 -5.141393E+03 -9.347956E+03
       273   7  4.729950E+03 -3.534116E+05 -8.763646E+03  3.694021E+02 -1.973544E+03 -3.633099E+04
       273   8  5.201363E+04 -3.736440E+05  1.541692E+04  1.811162E+03 -6.035148E+03 -2.375131E+04
       273   9  4.017611E+04 -4.100948E+05  1.665696E+04  2.319903E+04 -5.135581E+03 -1.115526E+04
       273  10 -1.012201E+05 -7.769807E+05 -1.133395E+05  3.315748E+04  4.256062E-10  1.481526E-09
       273  11 -3.888787E+04 -7.400630E+05 -7.205899E+04  1.194389E+04  3.425270E-10 -1.059945E-08
       273  12 -3.660412E+04 -7.202830E+05 -5.736332E+04  1.067657E+04 -1.969193E-09  7.843780E-09
       273  13 -4.824409E+04 -5.652175E+05 -6.105123E+04  1.676620E+04  1.878013E-09  2.199832E-09
       273  14  6.563953E+03 -5.568693E+05 -2.832042E+04  6.878209E+03  1.750745E-09 -8.356043E-09
       273  15  1.786756E+03 -5.652001E+05 -2.035249E+04  1.693698E+04 -3.734381E-10  3.879032E-09
       273  16  4.729592E+03 -3.534130E+05 -8.766135E+03  3.693443E+02  4.356269E-10 -2.510051E-09
       273  17  5.201344E+04 -3.736446E+05  1.541579E+04  1.811047E+03  3.878906E-09 -1.894778E-09
       273  18  4.017605E+04 -4.100950E+05  1.665667E+04  2.319898E+04 -2.641568E-09  5.537560E-09
       273  19 -1.012196E+05 -7.769787E+05 -1.133360E+05  3.315755E+04  1.952104E+03  4.317084E+04
       273  20 -3.888766E+04 -7.400623E+05 -7.205771E+04  1.194402E+04  6.030351E+03  2.536495E+04
       273  21 -3.660408E+04 -7.202830E+05 -5.736316E+04  1.067660E+04  5.147242E+03  7.541099E+03
       273  22 -4.824366E+04 -5.652158E+05 -6.104825E+04  1.676626E+04  1.962734E+03  3.975150E+04
       273  23  6.564154E+03 -5.568686E+05 -2.831922E+04  6.878328E+03  6.032743E+03  2.455824E+04
       273  24  1.786808E+03 -5.652000E+05 -2.035227E+04  1.693702E+04  5.141393E+03  9.347956E+03
       273  25  4.729950E+03 -3.534116E+05 -8.763646E+03  3.694021E+02  1.973544E+03  3.633099E+04
       273  26  5.201363E+04 -3.736440E+05  1.541692E+04  1.811162E+03  6.035148E+03  2.375131E+04
       273  27  4.017611E+04 -4.100948E+05  1.665696E+04  2.319903E+04  5.135581E+03  1.115526E+04
       274   1 -3.406026E+04 -6.809000E+05 -4.683291E+04  1.961428E+04 -3.759650E+03 -5.649978E+03
       274   2 -2.071823E+04 -6.500566E+05 -3.700126E+04  6.887513E+03 -2.961741E+03  2.462553E+03
       274   3 -2.128948E+04 -6.235790E+05 -3.589789E+04  1.456999E+04 -1.888477E+03  1.057612E+04
       274   4 -4.669040E+03 -5.624585E+05 -1.849621E+04  1.698372E+04 -3.758424E+03 -6.012669E+03
       274   5  1.536095E+03 -5.602879E+05 -1.555914E+04  6.776971E+03 -2.960118E+03  1.955725E+03
       274   6 -6.145856E+03 -5.624581E+05 -2.124921E+04  1.697939E+04 -1.886412E+03  9.924789E+03
       274   7  2.472119E+04 -4.440042E+05  9.839505E+03  1.435267E+04 -3.757196E+03 -6.375429E+03
       274   8  2.378984E+04 -4.705118E+05  5.882417E+03  6.666418E+03 -2.958495E+03  1.448824E+03
       274   9  8.997517E+03 -5.013338E+05 -6.600802E+03  1.938904E+04 -1.884352E+03  9.273392E+03
       274  10 -3.406028E+04 -6.809000E+05 -4.683300E+04  1.961426E+04  5.876811E-11  1.299725E-08
       274  11 -2.071824E+04 -6.500566E+05 -3.700129E+04  6.887519E+03  5.358573E-09 -6.298160E-09
       274  12 -2.128951E+04 -6.235791E+05 -3.589810E+04  1.457000E+04 -1.461807E-09 -1.252220E-09
       274  13 -4.669065E+03 -5.624586E+05 -1.849630E+04  1.698370E+04 -1.128190E-09  6.739330E-12
       274  14  1.536085E+03 -5.602879E+05 -1.555916E+04  6.776975E+03  8.756120E-10 -1.235145E-08
       274  15 -6.145886E+03 -5.624583E+05 -2.124941E+04  1.697941E+04 -2.383966E-09 -4.300006E-09
       274  16  2.472116E+04 -4.440042E+05  9.839402E+03  1.435265E+04 -3.393325E-09 -1.189342E-08
       274  17  2.378983E+04 -4.705118E+05  5.882396E+03  6.666422E+03 -1.662275E-09 -8.766911E-09
       274  18  8.997490E+03 -5.013339E+05 -6.600970E+03  1.938905E+04  6.151337E-10  1.295374E-08
       274  19 -3.406026E+04 -6.809000E+05 -4.683291E+04  1.961428E+04  3.759650E+03  5.649978E+03
       274  20 -2.071823E+04 -6.500566E+05 -3.700126E+04  6.887513E+03  2.961741E+03 -2.462553E+03
       274  21 -2.128948E+04 -6.235790E+05 -3.589789E+04  1.456999E+04  1.888477E+03 -1.057612E+04
       274  22 -4.669040E+03 -5.624585E+05 -1.849621E+04  1.698372E+04  3.758424E+03  6.012669E+03
       274  23  1.536095E+03 -5.602879E+05 -1.555914E+04  6.776971E+03  2.960118E+03 -1.955725E+03
       274  24 -6.145856E+03 -5.624581E+05 -2.124921E+04  1.697939E+04  1.886412E+03 -9.924789E+03
       274  25  2.472119E+04 -4.440042E+05  9.839505E+03  1.435267E+04  3.757196E+03  6.375429E+03
       274  26  2.378984E+04 -4.705118E+05  5.882417E+03  6.666418E+03  2.958495E+03 -1.448824E+03
       274  27  8.997517E+03 -5.013338E+05 -6.600802E+03  1.938904E+04  1.884352E+03 -9.273392E+03
       275   1 -3.403941E+03 -5.904910E+05 -3.002330E+04  2.557800E+04 -9.986023E+02  1.469876E+04
       275   2  9.571759E+03 -5.511432E+05 -3.455513E+04  8.283963E+02  6.402031E+01  3.327911E+04
       275   3 -5.370493E+04 -5.331237E+05 -7.021940E+04 -3.604368E+03  3.514300E+01  5.185675E+04
       275   4  2.659815E+03 -5.662510E+05 -2.427399E+04  1.702906E+04 -9.961025E+02  1.381996E+04
       275   5  8.436360E+03 -5.555447E+05 -3.560804E+04  6.770470E+03  6.527396E+01  3.297559E+04
       275   6 -6.214072E+04 -5.662687E+05 -7.847507E+04  1.682891E+04  3.601211E+01  5.212766E+04
       275   7  8.723802E+03 -5.420103E+05 -1.852467E+04  8.479788E+03 -9.935784E+02  1.294112E+04
       275   8  7.301092E+03 -5.599461E+05 -3.666093E+04  1.271250E+04  6.652179E+01  3.267208E+04
       275   9 -7.057503E+04 -5.994119E+05 -8.673060E+04  3.726110E+04  3.689913E+01  5.239856E+04
       275  10 -3.404001E+03 -5.904912E+05 -3.002371E+04  2.557801E+04 -2.034070E-09 -1.970118E-09
       275  11  9.571461E+03 -5.511444E+05 -3.455721E+04  8.283946E+02  4.762654E-09 -5.047419E-09
       275  12 -5.370565E+04 -5.331265E+05 -7.022446E+04 -3.604369E+03  1.596180E-09  7.008674E-09
       275  13  2.659762E+03 -5.662512E+05 -2.427435E+04  1.702907E+04  1.563445E-09 -2.096721E-09
       275  14  8.436068E+03 -5.555458E+05 -3.561009E+04  6.770468E+03  3.322626E-09 -7.755348E-09
       275  15 -6.214145E+04 -5.662717E+05 -7.848018E+04  1.682891E+04  3.268673E-10 -2.919350E-09
       275  16  8.723756E+03 -5.420104E+05 -1.852499E+04  8.479799E+03  6.203070E-10 -4.368731E-09
       275  17  7.300805E+03 -5.599472E+05 -3.666294E+04  1.271250E+04  3.928234E-09 -3.768464E-09
       275  18 -7.057576E+04 -5.994149E+05 -8.673576E+04  3.726110E+04 -2.851397E-10  2.087686E-09
       275  19 -3.403941E+03 -5.904910E+05 -3.002330E+04  2.557800E+04  9.986023E+02 -1.469876E+04
       275  20  9.571759E+03 -5.511432E+05 -3.455513E+04  8.283963E+02 -6.402031E+01 -3.327911E+04
       275  21 -5.370493E+04 -5.331237E+05 -7.021940E+04 -3.604368E+03 -3.514300E+01 -5.185675E+04
       275  22  2.659815E+03 -5.662510E+05 -2.427399E+04  1.702906E+04  9.961025E+02 -1.381996E+04
       275  23  8.436360E+03 -5.555447E+05 -3.560804E+04  6.770470E+03 -6.527396E+01 -3.297559E+04
       275  24 -6.214072E+04 -5.662687E+05 -7.847507E+04  1.682891E+04 -3.601211E+01 -5.212766E+04
       275  25  8.723802E+03 -5.420103E+05 -1.852467E+04  8.479788E+03  9.935784E+02 -1.294112E+04
       275  26  7.301092E+03 -5.599461E+05 -3.666093E+04  1.271250E+04 -6.652179E+01 -3.267208E+04
       275  27 -7.057503E+04 -5.994119E+05 -8.673060E+04  3.726110E+04 -3.689913E+01 -5.239856E+04
       276   1  3.705753E+04 -7.157229E+04 -5.614579E+04 -2.543293E+03  3.795295E+04  5.186077E+03
       276   2  6.639792E+04 -1.223618E+05 -8.102120E+04 -1.384732E+03  2.789697E+04  1.548653E+04
       276   3  1.134905E+05 -1.085582E+05 -8.314670E+04 -2.711536E+04  1.785382E+04  1.443879E+04
       276   4  5.402764E+05  5.378324E+04  6.784251E+04 -1.965295E+04  4.642038E+04  5.195566E+03
       276   5  5.308983E+05 -7.347778E+03  2.975044E+04 -6.175862E+03  3.036124E+04  1.548805E+04
       276   6  5.402980E+05 -2.870660E+03  1.856158E+04 -1.958603E+04  1.431564E+04  1.443570E+04
       276   7  1.043726E+06  1.791211E+05  1.918125E+05 -3.677657E+04  5.489465E+04  5.204585E+03
       276   8  9.955965E+05  1.076507E+05  1.405070E+05 -1.097064E+04  3.282734E+04  1.548954E+04
       276   9  9.672726E+05  1.028039E+05  1.202572E+05 -1.205154E+04  1.077505E+04  1.443252E+04
       276  10  3.705598E+04 -7.157270E+04 -5.614855E+04 -2.543451E+03  5.868858E-11  8.956309E-11
       276  11  6.639702E+04 -1.223622E+05 -8.102311E+04 -1.385080E+03 -3.877035E-10  9.110014E-11
       276  12  1.134901E+05 -1.085585E+05 -8.314769E+04 -2.711557E+04  9.927802E-11  7.446276E-11
       276  13  5.402741E+05  5.378264E+04  6.783841E+04 -1.965315E+04  2.671204E-10  6.491501E-11
       276  14  5.308972E+05 -7.348283E+03  2.974826E+04 -6.176240E+03 -5.499443E-10  1.539974E-10
       276  15  5.402977E+05 -2.870939E+03  1.856081E+04 -1.958620E+04 -5.324818E-11  5.323608E-11
       276  16  1.043723E+06  1.791203E+05  1.918068E+05 -3.677680E+04  3.963761E-11  6.528186E-11
       276  17  9.955953E+05  1.076502E+05  1.405045E+05 -1.097105E+04  1.980413E-10  1.653050E-10
       276  18  9.672724E+05  1.028037E+05  1.202566E+05 -1.205166E+04  2.211042E-10  7.691355E-11
       276  19  3.705753E+04 -7.157229E+04 -5.614579E+04 -2.543293E+03 -3.795295E+04 -5.186077E+03
       276  20  6.639792E+04 -1.223618E+05 -8.102120E+04 -1.384732E+03 -2.789697E+04 -1.548653E+04
       276  21  1.134905E+05 -1.085582E+05 -8.314670E+04 -2.711536E+04 -1.785382E+04 -1.443879E+04
       276  22  5.402764E+05  5.378324E+04  6.784251E+04 -1.965295E+04 -4.642038E+04 -5.195566E+03
       276  23  5.308983E+05 -7.347778E+03  2.975044E+04 -6.175862E+03 -3.036124E+04 -1.548805E+04
       276  24  5.402980E+05 -2.870660E+03  1.856158E+04 -1.958603E+04 -1.431564E+04 -1.443570E+04
       276  25  1.043726E+06  1.791211E+05  1.918125E+05 -3.677657E+04 -5.489465E+04 -5.204585E+03
       276  26  9.955965E+05  1.076507E+05  1.405070E+05 -1.097064E+04 -3.282734E+04 -1.548954E+04
       276  27  9.672726E+05  1.028039E+05  1.202572E+05 -1.205154E+04 -1.077505E+04 -1.443252E+04
       277   1  1.579773E+05 -8.840223E+04 -7.540846E+04 -1.810761E+04  1.161336E+04  1.194017E+04
       277   2  1.940626E+05 -8.535088E+04 -7.373799E+04 -5.981061E+03  8.076237E+03  1.122059E+04
       277   3  2.324178E+05 -7.566456E+04 -6.807475E+04 -2.036105E+04  4.538369E+03  9.711695E+03
       277   4  5.366525E+05  5.408847E+03  1.512246E+04 -1.952274E+04  1.144757E+04  1.193956E+04
       277   5  5.354862E+05 -7.997004E+02  7.728430E+03 -6.268413E+03  7.491443E+03  1.121992E+04
       277   6  5.366598E+05 -3.025819E+02  4.616243E+03 -1.951966E+04  3.534779E+03  9.711163E+03
       277   7  9.154590E+05  9.920955E+04  1.056433E+05 -2.093875E+04  1.128168E+04  1.193895E+04
       277   8  8.770166E+05  8.374306E+04  8.918666E+04 -6.555934E+03  6.906327E+03  1.121926E+04
       277   9  8.409866E+05  7.505270E+04  7.730073E+04 -1.867785E+04  2.530700E+03  9.710629E+03
       277  10  1.579771E+05 -8.840242E+04 -7.540898E+04 -1.810773E+04 -5.572585E-11  1.481537E-11
       277  11  1.940625E+05 -8.535103E+04 -7.373835E+04 -5.981134E+03 -4.565490E-10 -1.276709E-10
       277  12  2.324178E+05 -7.566467E+04 -6.807497E+04 -2.036109E+04  1.754225E-11 -8.001082E-11
       277  13  5.366523E+05  5.408659E+03  1.512195E+04 -1.952285E+04  2.890404E-11  9.059076E-12
       277  14  5.354861E+05 -7.998507E+02  7.728088E+03 -6.268480E+03 -2.874878E-10 -7.854290E-11
       277  15  5.366598E+05 -3.026866E+02  4.616042E+03 -1.951969E+04  1.355609E-10 -8.571051E-11
       277  16  9.154588E+05  9.920937E+04  1.056428E+05 -2.093885E+04  2.261821E-10  3.903364E-11
       277  17  8.770165E+05  8.374291E+04  8.918634E+04 -6.555996E+03  3.270270E-12 -2.849270E-11
       277  18  8.409866E+05  7.505260E+04  7.730054E+04 -1.867787E+04 -5.971429E-11 -1.637873E-11
       277  19  1.579773E+05 -8.840223E+04 -7.540846E+04 -1.810761E+04 -1.161336E+04 -1.194017E+04
       277  20  1.940626E+05 -8.535088E+04 -7.373799E+04 -5.981061E+03 -8.076237E+03 -1.122059E+04
       277  21  2.324178E+05 -7.566456E+04 -6.807475E+04 -2.036105E+04 -4.538369E+03 -9.711695E+03
       277  22  5.366525E+05  5.408847E+03  1.512246E+04 -1.952274E+04 -1.144757E+04 -1.193956E+04
       277  23  5.354862E+05 -7.997004E+02  7.728430E+03 -6.268413E+03 -7.491443E+03 -1.121992E+04
       277  24  5.366598E+05 -3.025819E+02  4.616243E+03 -1.951966E+04 -3.534779E+03 -9.711163E+03
       277  25  9.154590E+05  9.920955E+04  1.056433E+05 -2.093875E+04 -1.128168E+04 -1.193895E+04
       277  26  8.770166E+05  8.374306E+04  8.918666E+04 -6.555934E+03 -6.906327E+03 -1.121926E+04
       277  27  8.409866E+05  7.505270E+04  7.730073E+04 -1.867785E+04 -2.530700E+03 -9.710629E+03
       278   1  2.791305E+05 -6.312688E+04 -5.763444E+04 -1.934609E+04  3.569644E+03  8.705502E+03
       278   2  3.155715E+05 -5.469155E+04 -5.058357E+04 -6.375776E+03  2.582024E+03  7.234415E+03
       278   3  3.523637E+05 -4.557629E+04 -4.270909E+04 -1.950017E+04  1.593682E+03  5.714635E+03
       278   4  5.362257E+05  5.200678E+02  3.618548E+03 -1.942913E+04  2.806320E+03  8.705165E+03
       278   5  5.360500E+05 -9.476717E+01  2.023694E+03 -6.382048E+03  1.792588E+03  7.234235E+03
       278   6  5.362294E+05 -2.508645E+01  1.270525E+03 -1.942909E+04  7.781926E+02  5.714625E+03
       278   7  7.933815E+05  6.416225E+04  6.486691E+04 -1.951221E+04  2.042682E+03  8.704827E+03
       278   8  7.565731E+05  5.449850E+04  5.462755E+04 -6.388322E+03  1.002874E+03  7.234055E+03
       278   9  7.201259E+05  4.552367E+04  4.524776E+04 -1.935799E+04 -3.753693E+01  5.714615E+03
       278  10  2.791305E+05 -6.312697E+04 -5.763461E+04 -1.934612E+04 -2.513874E-10 -1.474715E-10
       278  11  3.155715E+05 -5.469160E+04 -5.058368E+04 -6.375791E+03 -2.332115E-11 -3.218652E-11
       278  12  3.523637E+05 -4.557632E+04 -4.270915E+04 -1.950017E+04 -5.307712E-11  1.710398E-11
       278  13  5.362257E+05  5.199843E+02  3.618391E+03 -1.942915E+04 -2.051116E-11 -5.611363E-11
       278  14  5.360500E+05 -9.482424E+01  2.023590E+03 -6.382058E+03 -6.839455E-10  2.640005E-11
       278  15  5.362293E+05 -2.512169E+01  1.270463E+03 -1.942909E+04 -1.171264E-10 -2.744752E-11
       278  16  7.933815E+05  6.416217E+04  6.486676E+04 -1.951223E+04 -1.091049E-10 -3.823015E-11
       278  17  7.565731E+05  5.449844E+04  5.462745E+04 -6.388328E+03 -5.173706E-10  3.126275E-11
       278  18  7.201259E+05  4.552363E+04  4.524769E+04 -1.935799E+04 -2.454667E-10  1.263247E-10
       278  19  2.791305E+05 -6.312688E+04 -5.763444E+04 -1.934609E+04 -3.569644E+03 -8.705502E+03
       278  20  3.155715E+05 -5.469155E+04 -5.058357E+04 -6.375776E+03 -2.582024E+03 -7.234415E+03
       278  21  3.523637E+05 -4.557629E+04 -4.270909E+04 -1.950017E+04 -1.593682E+03 -5.714635E+03
       278  22  5.362257E+05  5.200678E+02  3.618548E+03 -1.942913E+04 -2.806320E+03 -8.705165E+03
       278  23  5.360500E+05 -9.476717E+01  2.023694E+03 -6.382048E+03 -1.792588E+03 -7.234235E+03
       278  24  5.362294E+05 -2.508645E+01  1.270525E+03 -1.942909E+04 -7.781926E+02 -5.714625E+03
       278  25  7.933815E+05  6.416225E+04  6.486691E+04 -1.951221E+04 -2.042682E+03 -8.704827E+03
       278  26  7.565731E+05  5.449850E+04  5.462755E+04 -6.388322E+03 -1.002874E+03 -7.234055E+03
       278  27  7.201259E+05  4.552367E+04  4.524776E+04 -1.935799E+04  3.753693E+01 -5.714615E+03
       279   1  3.988533E+05 -3.393023E+04 -3.160797E+04 -1.935674E+04  1.366852E+03  4.824013E+03
       279   2  4.350918E+05 -2.503157E+04 -2.331416E+04 -6.432697E+03  9.730275E+02  3.314598E+03
       279   3  4.714037E+05 -1.604009E+04 -1.474154E+04 -1.936448E+04  5.788614E+02  1.805011E+03
       279   4  5.361705E+05  4.979877E+01  1.045370E+03 -1.937608E+04  5.695816E+02  4.824084E+03
       279   5  5.361354E+05 -1.205757E+01  7.937682E+02 -6.448302E+03  1.755685E+02  3.314742E+03
       279   6  5.361720E+05  1.887467E+01  8.209969E+02 -1.937608E+04 -2.187635E+02  1.805233E+03
       279   7  6.735050E+05  3.402847E+04  3.369739E+04 -1.939542E+04 -2.278640E+02  4.824155E+03
       279   8  6.371884E+05  2.500672E+04  2.490098E+04 -6.463910E+03 -6.220196E+02  3.314887E+03
       279   9  6.009441E+05  1.607754E+04  1.638323E+04 -1.938769E+04 -1.016471E+03  1.805455E+03
       279  10  3.988532E+05 -3.393026E+04 -3.160802E+04 -1.935674E+04  3.683317E-11  9.755454E-12
       279  11  4.350918E+05 -2.503158E+04 -2.331418E+04 -6.432700E+03  3.038442E-10 -1.875465E-11
       279  12  4.714037E+05 -1.604009E+04 -1.474154E+04 -1.936448E+04 -1.723624E-10 -2.043258E-12
       279  13  5.361705E+05  4.977369E+01  1.045326E+03 -1.937608E+04 -5.228139E-10  1.068338E-11
       279  14  5.361354E+05 -1.206938E+01  7.937475E+02 -6.448303E+03 -3.747597E-10 -2.846437E-11
       279  15  5.361720E+05  1.887116E+01  8.209906E+02 -1.937608E+04 -4.046853E-10 -5.698070E-11
       279  16  6.735050E+05  3.402845E+04  3.369735E+04 -1.939542E+04 -4.166146E-10  8.419387E-11
       279  17  6.371884E+05  2.500671E+04  2.490096E+04 -6.463908E+03 -7.039293E-10 -5.791386E-11
       279  18  6.009441E+05  1.607753E+04  1.638323E+04 -1.938769E+04 -1.338842E-10 -2.925714E-11
       279  19  3.988533E+05 -3.393023E+04 -3.160797E+04 -1.935674E+04 -1.366852E+03 -4.824013E+03
       279  20  4.350918E+05 -2.503157E+04 -2.331416E+04 -6.432697E+03 -9.730275E+02 -3.314598E+03
       279  21  4.714037E+05 -1.604009E+04 -1.474154E+04 -1.936448E+04 -5.788614E+02 -1.805011E+03
       279  22  5.361705E+05  4.979877E+01  1.045370E+03 -1.937608E+04 -5.695816E+02 -4.824084E+03
       279  23  5.361354E+05 -1.205757E+01  7.937682E+02 -6.448302E+03 -1.755685E+02 -3.314742E+03
       279  24  5.361720E+05  1.887467E+01  8.209969E+02 -1.937608E+04  2.187635E+02 -1.805233E+03
       279  25  6.735050E+05  3.402847E+04  3.369739E+04 -1.939542E+04  2.278640E+02 -4.824155E+03
       279  26  6.371884E+05  2.500672E+04  2.490098E+04 -6.463910E+03  6.220196E+02 -3.314887E+03
       279  27  6.009441E+05  1.607754E+04  1.638323E+04 -1.938769E+04  1.016471E+03 -1.805455E+03
       280   1  5.176928E+05 -4.548511E+03 -3.379277E+03 -1.933120E+04  4.203815E+02  9.266138E+02
       280   2  5.538233E+05  4.360029E+03  5.571578E+03 -6.454855E+03 -2.513517E+02 -5.805671E+02
       280   3  5.900728E+05  1.345765E+04  1.500284E+04 -1.936971E+04 -9.230687E+02 -2.085304E+03
       280   4  5.361832E+05  7.699978E+00  9.220601E+02 -1.936180E+04 -3.766680E+02  9.268574E+02
       280   5  5.361242E+05 -2.212948E+01  1.349093E+03 -6.466160E+03 -1.047114E+03 -5.803394E+02
       280   6  5.361828E+05  1.370019E+02  2.255743E+03 -1.936176E+04 -1.717504E+03 -2.085087E+03
       280   7  5.546740E+05  4.563888E+03  5.223377E+03 -1.939241E+04 -1.173741E+03  9.271011E+02
       280   8  5.184254E+05 -4.404310E+03 -2.873413E+03 -6.477465E+03 -1.842853E+03 -5.801117E+02
       280   9  4.822954E+05 -1.318386E+04 -1.049156E+04 -1.935381E+04 -2.511871E+03 -2.084871E+03
       280  10  5.176928E+05 -4.548512E+03 -3.379279E+03 -1.933120E+04  2.583377E-10  6.627374E-11
       280  11  5.538233E+05  4.360029E+03  5.571578E+03 -6.454855E+03 -3.400190E-10  1.137204E-10
       280  12  5.900728E+05  1.345765E+04  1.500283E+04 -1.936971E+04  4.592859E-11  1.125266E-10
       280  13  5.361832E+05  7.699017E+00  9.220582E+02 -1.936180E+04 -6.038366E-10  1.542677E-10
       280  14  5.361242E+05 -2.213013E+01  1.349090E+03 -6.466161E+03  4.585943E-11  1.517362E-10
       280  15  5.361828E+05  1.369965E+02  2.255730E+03 -1.936176E+04  4.595531E-10  1.401447E-10
       280  16  5.546740E+05  4.563886E+03  5.223373E+03 -1.939241E+04 -2.487016E-10  3.849681E-12
       280  17  5.184254E+05 -4.404311E+03 -2.873420E+03 -6.477466E+03 -5.011921E-10  1.869650E-10
       280  18  4.822954E+05 -1.318386E+04 -1.049158E+04 -1.935382E+04  2.151235E-10 -4.666185E-11
       280  19  5.176928E+05 -4.548511E+03 -3.379277E+03 -1.933120E+04 -4.203815E+02 -9.266138E+02
       280  20  5.538233E+05  4.360029E+03  5.571578E+03 -6.454855E+03  2.513517E+02  5.805671E+02
       280  21  5.900728E+05  1.345765E+04  1.500284E+04 -1.936971E+04  9.230687E+02  2.085304E+03
       280  22  5.361832E+05  7.699978E+00  9.220601E+02 -1.936180E+04  3.766680E+02 -9.268574E+02
       280  23  5.361242E+05 -2.212948E+01  1.349093E+03 -6.466160E+03  1.047114E+03  5.803394E+02
       280  24  5.361828E+05  1.370019E+02  2.255743E+03 -1.936176E+04  1.717504E+03  2.085087E+03
       280  25  5.546740E+05  4.563888E+03  5.223377E+03 -1.939241E+04  1.173741E+03 -9.271011E+02
       280  26  5.184254E+05 -4.404310E+03 -2.873413E+03 -6.477465E+03  1.842853E+03  5.801117E+02
       280  27  4.822954E+05 -1.318386E+04 -1.049156E+04 -1.935381E+04  2.511871E+03  2.084871E+03
       281   1  6.365457E+05  2.477406E+04  2.692305E+04 -1.917671E+04 -1.372261E+03 -2.970112E+03
       281   2  6.725188E+05  3.360019E+04  3.751356E+04 -6.473506E+03 -3.867522E+03 -4.480013E+03
       281   3  7.092585E+05  4.415550E+04  5.016098E+04 -1.967851E+04 -6.362473E+03 -5.947748E+03
       281   4  5.363241E+05 -6.053668E+01  2.905258E+03 -1.938792E+04 -2.181303E+03 -2.969931E+03
       281   5  5.359415E+05 -2.129744E+02  4.932682E+03 -6.433543E+03 -4.653805E+03 -4.479942E+03
       281   6  5.363211E+05  1.360311E+03  9.001833E+03 -1.938772E+04 -7.125852E+03 -5.947780E+03
       281   7  4.361117E+05 -2.489586E+04 -2.111324E+04 -1.959909E+04 -2.990216E+03 -2.969750E+03
       281   8  3.993812E+05 -3.402749E+04 -2.764950E+04 -6.393588E+03 -5.439915E+03 -4.479871E+03
       281   9  3.634110E+05 -4.143703E+04 -3.215941E+04 -1.909701E+04 -7.889019E+03 -5.947813E+03
       281  10  6.365457E+05  2.477405E+04  2.692303E+04 -1.917671E+04 -1.946596E-10 -8.513818E-11
       281  11  6.725188E+05  3.360017E+04  3.751349E+04 -6.473520E+03 -1.988906E-10 -2.426538E-10
       281  12  7.092585E+05  4.415545E+04  5.016084E+04 -1.967854E+04 -2.337901E-10 -1.362169E-11
       281  13  5.363241E+05 -6.054743E+01  2.905233E+03 -1.938792E+04  3.988829E-11 -2.417354E-10
       281  14  5.359414E+05 -2.130017E+02  4.932604E+03 -6.433560E+03  3.568754E-10 -2.345970E-10
       281  15  5.363210E+05  1.360259E+03  9.001671E+03 -1.938775E+04  1.929585E-10  5.048007E-11
       281  16  4.361117E+05 -2.489587E+04 -2.111328E+04 -1.959910E+04  6.728615E-11 -1.536961E-10
       281  17  3.993812E+05 -3.402752E+04 -2.764960E+04 -6.393608E+03 -3.824893E-11 -2.057999E-10
       281  18  3.634109E+05 -4.143709E+04 -3.215959E+04 -1.909705E+04 -1.576973E-10  2.386978E-10
       281  19  6.365457E+05  2.477406E+04  2.692305E+04 -1.917671E+04  1.372261E+03  2.970112E+03
       281  20  6.725188E+05  3.360019E+04  3.751356E+04 -6.473506E+03  3.867522E+03  4.480013E+03
       281  21  7.092585E+05  4.415550E+04  5.016098E+04 -1.967851E+04  6.362473E+03  5.947748E+03
       281  22  5.363241E+05 -6.053668E+01  2.905258E+03 -1.938792E+04  2.181303E+03  2.969931E+03
       281  23  5.359415E+05 -2.129744E+02  4.932682E+03 -6.433543E+03  4.653805E+03  4.479942E+03
       281  24  5.363211E+05  1.360311E+03  9.001833E+03 -1.938772E+04  7.125852E+03  5.947780E+03
       281  25  4.361117E+05 -2.489586E+04 -2.111324E+04 -1.959909E+04  2.990216E+03  2.969750E+03
       281  26  3.993812E+05 -3.402749E+04 -2.764950E+04 -6.393588E+03  5.439915E+03  4.479871E+03
       281  27  3.634110E+05 -4.143703E+04 -3.215941E+04 -1.909701E+04  7.889019E+03  5.947813E+03
       282   1  7.570384E+05  5.367831E+04  6.401349E+04 -1.746104E+04 -7.977287E+03 -6.926378E+03
       282   2  7.909989E+05  6.152643E+04  8.056285E+04 -7.338799E+03 -1.826113E+04 -8.424272E+03
       282   3  8.306075E+05  8.631303E+04  1.080515E+05 -2.340417E+04 -2.854521E+04 -9.264797E+03
       282   4  5.373891E+05 -7.176019E+02  1.152258E+04 -1.944921E+04 -8.940391E+03 -6.926475E+03
       282   5  5.345904E+05 -1.948455E+03  1.940447E+04 -6.356620E+03 -1.887317E+04 -8.424603E+03
       282   6  5.373798E+05  1.370225E+04  3.798543E+04 -1.945210E+04 -2.880558E+04 -9.265336E+03
       282   7  3.177840E+05 -5.511699E+04 -4.097173E+04 -2.143666E+04 -9.903154E+03 -6.926567E+03
       282   8  2.782421E+05 -6.542808E+04 -4.175852E+04 -5.374849E+03 -1.948496E+04 -8.424937E+03
       282   9  2.442309E+05 -5.891468E+04 -3.208670E+04 -1.550191E+04 -2.906583E+04 -9.265879E+03
       282  10  7.570384E+05  5.367825E+04  6.401328E+04 -1.746108E+04 -1.105174E-11  3.889527E-11
       282  11  7.909986E+05  6.152626E+04  8.056209E+04 -7.338922E+03  8.963825E-11 -7.134920E-11
       282  12  8.306066E+05  8.631272E+04  1.080498E+05 -2.340438E+04  1.196722E-10 -1.612137E-10
       282  13  5.373890E+05 -7.176748E+02  1.152234E+04 -1.944926E+04 -4.797800E-11  1.357808E-10
       282  14  5.345900E+05 -1.948627E+03  1.940367E+04 -6.356748E+03 -5.620912E-10 -8.599319E-11
       282  15  5.373789E+05  1.370194E+04  3.798371E+04 -1.945232E+04 -4.844714E-10 -2.546281E-10
       282  16  3.177839E+05 -5.511707E+04 -4.097200E+04 -2.143672E+04  1.204530E-10  2.438442E-10
       282  17  2.782417E+05 -6.542826E+04 -4.175937E+04 -5.374981E+03 -3.087073E-10 -1.414458E-10
       282  18  2.442300E+05 -5.891500E+04 -3.208845E+04 -1.550213E+04 -7.074046E-11 -1.390197E-10
       282  19  7.570384E+05  5.367831E+04  6.401349E+04 -1.746104E+04  7.977287E+03  6.926378E+03
       282  20  7.909989E+05  6.152643E+04  8.056285E+04 -7.338799E+03  1.826113E+04  8.424272E+03
       282  21  8.306075E+05  8.631303E+04  1.080515E+05 -2.340417E+04  2.854521E+04  9.264797E+03
       282  22  5.373891E+05 -7.176019E+02  1.152258E+04 -1.944921E+04  8.940391E+03  6.926475E+03
       282  23  5.345904E+05 -1.948455E+03  1.940447E+04 -6.356620E+03  1.887317E+04  8.424603E+03
       282  24  5.373798E+05  1.370225E+04  3.798543E+04 -1.945210E+04  2.880558E+04  9.265336E+03
       282  25  3.177840E+05 -5.511699E+04 -4.097173E+04 -2.143666E+04  9.903154E+03  6.926567E+03
       282  26  2.782421E+05 -6.542808E+04 -4.175852E+04 -5.374849E+03  1.948496E+04  8.424937E+03
       282  27  2.442309E+05 -5.891468E+04 -3.208670E+04 -1.550191E+04  2.906583E+04  9.265879E+03
       283   1  8.871773E+05  7.721825E+04  1.277819E+05 -1.071560E+03 -3.294085E+04 -1.148549E+04
       283   2  9.010123E+05  7.515873E+04  1.648762E+05 -1.906774E+04 -7.829574E+04 -1.261468E+04
       283   3  9.623359E+05  2.387903E+05  2.729302E+05 -6.359104E+04 -1.236603E+05 -4.299360E+03
       283   4  5.465040E+05 -7.109682E+03  4.662504E+04 -1.949602E+04 -3.601041E+04 -1.148604E+04
       283   5  5.231611E+05 -1.834546E+04  7.481748E+04 -6.284445E+03 -7.635337E+04 -1.261568E+04
       283   6  5.464643E+05  1.352913E+05  1.705211E+05 -1.959788E+04 -1.167028E+05 -4.302829E+03
       283   7  2.059378E+05 -9.144471E+04 -3.453972E+04 -3.791035E+04 -3.907830E+04 -1.148641E+04
       283   8  1.454410E+05 -1.118593E+05 -1.525116E+04  6.491025E+03 -7.441216E+04 -1.261660E+04
       283   9  1.307541E+05  3.178680E+04  6.810057E+04  2.436579E+04 -1.097500E+05 -4.305316E+03
       283  10  8.871761E+05  7.721782E+04  1.277796E+05 -1.071865E+03 -3.957139E-11  9.214533E-11
       283  11  9.010057E+05  7.515692E+04  1.648644E+05 -1.906853E+04  8.056417E-11  3.276838E-10
       283  12  9.623195E+05  2.387862E+05  2.729015E+05 -6.359147E+04  3.167336E-10  3.026399E-11
       283  13  5.465026E+05 -7.110172E+03  4.662236E+04 -1.949636E+04 -1.077262E-09  4.940720E-11
       283  14  5.231548E+05 -1.834720E+04  7.480624E+04 -6.285221E+03 -3.192250E-10  1.971870E-10
       283  15  5.464497E+05  1.352876E+05  1.704955E+05 -1.959828E+04 -3.557966E-10  9.927236E-11
       283  16  2.059361E+05 -9.144526E+04 -3.454283E+04 -3.791071E+04 -3.119159E-10  3.757366E-11
       283  17  1.454350E+05 -1.118610E+05 -1.526186E+04  6.490269E+03  1.148054E-10  5.582020E-10
       283  18  1.307411E+05  3.178355E+04  6.807790E+04  2.436541E+04  3.805082E-11  1.029497E-10
       283  19  8.871773E+05  7.721825E+04  1.277819E+05 -1.071560E+03  3.294085E+04  1.148549E+04
       283  20  9.010123E+05  7.515873E+04  1.648762E+05 -1.906774E+04  7.829574E+04  1.261468E+04
       283  21  9.623359E+05  2.387903E+05  2.729302E+05 -6.359104E+04  1.236603E+05  4.299360E+03
       283  22  5.465040E+05 -7.109682E+03  4.662504E+04 -1.949602E+04  3.601041E+04  1.148604E+04
       283  23  5.231611E+05 -1.834546E+04  7.481748E+04 -6.284445E+03  7.635337E+04  1.261568E+04
       283  24  5.464643E+05  1.352913E+05  1.705211E+05 -1.959788E+04  1.167028E+05  4.302829E+03
       283  25  2.059378E+05 -9.144471E+04 -3.453972E+04 -3.791035E+04  3.907830E+04  1.148641E+04
       283  26  1.454410E+05 -1.118593E+05 -1.525116E+04  6.491025E+03  7.441216E+04  1.261660E+04
       283  27  1.307541E+05  3.178680E+04  6.810057E+04  2.436579E+04  1.097500E+05  4.305316E+03
       284   1  1.186940E+05  8.065595E+05  1.326270E+05 -5.667750E+04  2.150174E+03  5.363842E+04
       284   2  3.590704E+04  7.268564E+05  7.289021E+04 -1.876499E+04  5.837593E+03  3.363864E+04
       284   3  2.324142E+04  6.671226E+05  4.366211E+04 -3.027461E+04  3.312612E+03  1.363107E+04
       284   4  5.733140E+04  5.605818E+05  7.193485E+04 -3.775046E+04  2.157212E+03  5.005286E+04
       284   5 -7.669932E+03  5.508907E+05  3.095164E+04 -1.308532E+04  5.838468E+03  3.334238E+04
       284   6 -3.108782E+03  5.606029E+05  1.820372E+04 -3.784167E+04  3.307396E+03  1.662184E+04
       284   7 -4.034382E+03  3.146599E+05  1.123849E+04 -1.883091E+04  2.164034E+03  4.646872E+04
       284   8 -5.124902E+04  3.749533E+05 -1.098908E+04 -7.407253E+03  5.839338E+03  3.304621E+04
       284   9 -2.945959E+04  4.540938E+05 -7.255392E+03 -4.540742E+04  3.302107E+03  1.961210E+04
       284  10  1.186932E+05  8.065564E+05  1.326216E+05 -5.667759E+04  6.249868E-11 -4.607078E-10
       284  11  3.590670E+04  7.268552E+05  7.288802E+04 -1.876515E+04 -2.606265E-10  2.770465E-09
       284  12  2.324136E+04  6.671224E+05  4.366174E+04 -3.027465E+04 -2.385504E-11  4.495876E-09
       284  13  5.733073E+04  5.605792E+05  7.193014E+04 -3.775055E+04  6.959873E-10 -9.484261E-11
       284  14 -7.670267E+03  5.508894E+05  3.094949E+04 -1.308548E+04 -2.000870E-09  1.792049E-10
       284  15 -3.108868E+03  5.606026E+05  1.820319E+04 -3.784172E+04 -3.354409E-10  2.587669E-11
       284  16 -4.034966E+03  3.146576E+05  1.123443E+04 -1.883099E+04 -2.454538E-11  4.446511E-10
       284  17 -5.124935E+04  3.749522E+05 -1.099119E+04 -7.407408E+03  2.132091E-10 -2.640934E-09
       284  18 -2.945970E+04  4.540934E+05 -7.256135E+03 -4.540748E+04 -1.754841E-10 -4.474972E-09
       284  19  1.186940E+05  8.065595E+05  1.326270E+05 -5.667750E+04 -2.150174E+03 -5.363842E+04
       284  20  3.590704E+04  7.268564E+05  7.289021E+04 -1.876499E+04 -5.837593E+03 -3.363864E+04
       284  21  2.324142E+04  6.671226E+05  4.366211E+04 -3.027461E+04 -3.312612E+03 -1.363107E+04
       284  22  5.733140E+04  5.605818E+05  7.193485E+04 -3.775046E+04 -2.157212E+03 -5.005286E+04
       284  23 -7.669932E+03  5.508907E+05  3.095164E+04 -1.308532E+04 -5.838468E+03 -3.334238E+04
       284  24 -3.108782E+03  5.606029E+05  1.820372E+04 -3.784167E+04 -3.307396E+03 -1.662184E+04
       284  25 -4.034382E+03  3.146599E+05  1.123849E+04 -1.883091E+04 -2.164034E+03 -4.646872E+04
       284  26 -5.124902E+04  3.749533E+05 -1.098908E+04 -7.407253E+03 -5.839338E+03 -3.304621E+04
       284  27 -2.945959E+04  4.540938E+05 -7.255392E+03 -4.540742E+04 -3.302107E+03 -1.961210E+04
       285   1  1.038861E+04  5.740705E+05  1.820089E+04 -3.919244E+04  6.735641E+02  1.256829E+04
       285   2 -1.331834E+04  5.039156E+05 -7.681456E+03 -1.360303E+04 -1.727261E+03  1.022301E+04
       285   3 -3.270982E+04  4.349488E+05 -3.100302E+04 -3.754998E+04 -3.971246E+03  7.878523E+03
       285   4  6.054936E+03  5.565567E+05  1.406312E+04 -3.783025E+04  6.713342E+02  1.388058E+04
       285   5 -4.351962E+02  5.559584E+05  4.733298E+03 -1.306947E+04 -1.729296E+03  1.145273E+04
       285   6 -2.595069E+03  5.565588E+05 -1.977468E+03 -3.784470E+04 -3.973101E+03  9.025427E+03
       285   7  1.721245E+03  5.390431E+05  9.925343E+03 -3.646809E+04  6.691100E+02  1.519284E+04
       285   8  1.244775E+04  6.080037E+05  1.714787E+04 -1.253586E+04 -1.731330E+03  1.268256E+04
       285   9  2.751861E+04  6.781824E+05  2.704705E+04 -3.813948E+04 -3.974958E+03  1.017255E+04
       285  10  1.038857E+04  5.740704E+05  1.820060E+04 -3.919244E+04 -5.817660E-10 -4.722934E-09
       285  11 -1.331837E+04  5.039155E+05 -7.681658E+03 -1.360301E+04  4.070613E-10 -2.845054E-09
       285  12 -3.270985E+04  4.349487E+05 -3.100316E+04 -3.754996E+04 -2.296816E-10  8.755711E-10
       285  13  6.054884E+03  5.565565E+05  1.406276E+04 -3.783025E+04 -6.306215E-10  5.067204E-11
       285  14 -4.352346E+02  5.559583E+05  4.733046E+03 -1.306945E+04  7.636666E-10 -1.246106E-10
       285  15 -2.595108E+03  5.565587E+05 -1.977650E+03 -3.784468E+04  1.482347E-09 -1.268483E-10
       285  16  1.721182E+03  5.390428E+05  9.924909E+03 -3.646810E+04 -3.395686E-10  4.810435E-09
       285  17  1.244771E+04  6.080036E+05  1.714756E+04 -1.253584E+04 -1.078640E-09  2.859733E-09
       285  18  2.751857E+04  6.781823E+05  2.704682E+04 -3.813945E+04  7.353636E-11 -8.707788E-10
       285  19  1.038861E+04  5.740705E+05  1.820089E+04 -3.919244E+04 -6.735641E+02 -1.256829E+04
       285  20 -1.331834E+04  5.039156E+05 -7.681456E+03 -1.360303E+04  1.727261E+03 -1.022301E+04
       285  21 -3.270982E+04  4.349488E+05 -3.100302E+04 -3.754998E+04  3.971246E+03 -7.878523E+03
       285  22  6.054936E+03  5.565567E+05  1.406312E+04 -3.783025E+04 -6.713342E+02 -1.388058E+04
       285  23 -4.351962E+02  5.559584E+05  4.733298E+03 -1.306947E+04  1.729296E+03 -1.145273E+04
       285  24 -2.595069E+03  5.565588E+05 -1.977468E+03 -3.784470E+04  3.973101E+03 -9.025427E+03
       285  25  1.721245E+03  5.390431E+05  9.925343E+03 -3.646809E+04 -6.691100E+02 -1.519284E+04
       285  26  1.244775E+04  6.080037E+05  1.714787E+04 -1.253586E+04  1.731330E+03 -1.268256E+04
       285  27  2.751861E+04  6.781824E+05  2.704705E+04 -3.813948E+04  3.974958E+03 -1.017255E+04
       286   1 -5.025936E+04  3.437966E+05 -5.491704E+04 -3.449090E+04 -6.903788E+03  6.010960E+03
       286   2 -6.626512E+04  2.781287E+05 -7.836790E+04 -1.502290E+04 -9.385019E+03  1.676220E+04
       286   3 -1.110710E+05  2.037745E+05 -1.160375E+05 -4.517434E+04 -3.379978E+03  2.752369E+04
       286   4  1.935757E+03  5.545248E+05 -4.627927E+03 -3.784604E+04 -6.909357E+03  9.556465E+03
       286   5  3.139792E+03  5.584797E+05 -1.153083E+04 -1.305360E+04 -9.383346E+03  1.582819E+04
       286   6 -2.367166E+04  5.545247E+05 -2.953883E+04 -3.787993E+04 -3.372567E+03  2.211151E+04
       286   7  5.412771E+04  7.652937E+05  4.565812E+04 -4.120232E+04 -6.914962E+03  1.310317E+04
       286   8  7.253905E+04  8.389027E+05  5.530074E+04 -1.108339E+04 -9.381679E+03  1.489376E+04
       286   9  6.371870E+04  9.053869E+05  5.695089E+04 -3.058137E+04 -3.365285E+03  1.669628E+04
       286  10 -5.025942E+04  3.437966E+05 -5.491720E+04 -3.449086E+04  3.181266E-10 -2.309517E-10
       286  11 -6.626529E+04  2.781284E+05 -7.836859E+04 -1.502277E+04  3.085449E-10 -1.352347E-10
       286  12 -1.110712E+05  2.037736E+05 -1.160390E+05 -4.517426E+04 -3.372221E-10  1.993578E-10
       286  13  1.935681E+03  5.545247E+05 -4.628188E+03 -3.784599E+04 -8.179493E-10  5.021259E-11
       286  14  3.139631E+03  5.584794E+05 -1.153146E+04 -1.305348E+04  3.750428E-10 -9.701668E-11
       286  15 -2.367181E+04  5.545241E+05 -2.953977E+04 -3.787987E+04 -4.369656E-10  4.912301E-11
       286  16  5.412762E+04  7.652935E+05  4.565770E+04 -4.120225E+04  7.528102E-10  1.399779E-10
       286  17  7.253889E+04  8.389025E+05  5.530016E+04 -1.108328E+04 -2.032154E-10  1.836741E-11
       286  18  6.371862E+04  9.053866E+05  5.695034E+04 -3.058132E+04 -6.669574E-10 -1.544914E-10
       286  19 -5.025936E+04  3.437966E+05 -5.491704E+04 -3.449090E+04  6.903788E+03 -6.010960E+03
       286  20 -6.626512E+04  2.781287E+05 -7.836790E+04 -1.502290E+04  9.385019E+03 -1.676220E+04
       286  21 -1.110710E+05  2.037745E+05 -1.160375E+05 -4.517434E+04  3.379978E+03 -2.752369E+04
       286  22  1.935757E+03  5.545248E+05 -4.627927E+03 -3.784604E+04  6.909357E+03 -9.556465E+03
       286  23  3.139792E+03  5.584797E+05 -1.153083E+04 -1.305360E+04  9.383346E+03 -1.582819E+04
       286  24 -2.367166E+04  5.545247E+05 -2.953883E+04 -3.787993E+04  3.372567E+03 -2.211151E+04
       286  25  5.412771E+04  7.652937E+05  4.565812E+04 -4.120232E+04  6.914962E+03 -1.310317E+04
       286  26  7.253905E+04  8.389027E+05  5.530074E+04 -1.108339E+04  9.381679E+03 -1.489376E+04
       286  27  6.371870E+04  9.053869E+05  5.695089E+04 -3.058137E+04  3.365285E+03 -1.669628E+04
       287   1 -8.097619E+05 -3.381360E+05 -2.480937E+05 -2.736898E+05 -1.092398E+05 -3.718191E+04
       287   2 -7.764529E+05 -1.748004E+05 -1.462220E+05 -2.829878E+05 -7.123231E+04 -1.490054E+04
       287   3 -7.935249E+05 -1.679362E+05 -1.147283E+05 -2.658548E+05 -3.036813E+04 -2.013597E+02
       287   4 -5.182287E+05 -1.918796E+05 -1.616890E+05 -1.571257E+05 -1.039524E+05 -3.519920E+04
       287   5 -4.850069E+05 -5.476316E+04 -6.754463E+04 -1.926407E+05 -6.967419E+04 -1.431609E+04
       287   6 -5.014001E+05 -7.333965E+04 -4.079606E+04 -2.017332E+05 -3.254013E+04 -1.017668E+03
       287   7 -2.266113E+05 -4.559769E+04 -7.529283E+04 -4.050636E+04 -9.866234E+04 -3.321470E+04
       287   8 -1.934786E+05  6.528383E+04  1.112502E+04 -1.022537E+05 -6.811526E+04 -1.373127E+04
       287   9 -2.091921E+05  2.125740E+04  3.312977E+04 -1.375867E+05 -3.471326E+04 -1.834266E+03
       287  10 -8.097751E+05 -3.381407E+05 -2.481188E+05 -2.736931E+05  2.211725E-10 -3.974563E-11
       287  11 -7.764585E+05 -1.748020E+05 -1.462319E+05 -2.829887E+05 -4.381624E-10 -2.111222E-10
       287  12 -7.935258E+05 -1.679365E+05 -1.147301E+05 -2.658548E+05 -1.437763E-10 -4.313102E-11
       287  13 -5.182406E+05 -1.918838E+05 -1.617116E+05 -1.571287E+05  1.039125E-09 -6.248414E-11
       287  14 -4.850122E+05 -5.476468E+04 -6.755414E+04 -1.926415E+05  2.018383E-11 -2.136481E-10
       287  15 -5.014012E+05 -7.333994E+04 -4.079805E+04 -2.017332E+05  7.779751E-11 -8.969953E-11
       287  16 -2.266220E+05 -4.560149E+04 -7.531320E+04 -4.050900E+04 -4.585743E-10 -1.133839E-10
       287  17 -1.934836E+05  6.528238E+04  1.111594E+04 -1.022545E+05  8.522928E-11 -2.111866E-10
       287  18 -2.091934E+05  2.125707E+04  3.312750E+04 -1.375867E+05  1.319607E-10 -9.866045E-11
       287  19 -8.097619E+05 -3.381360E+05 -2.480937E+05 -2.736898E+05  1.092398E+05  3.718191E+04
       287  20 -7.764529E+05 -1.748004E+05 -1.462220E+05 -2.829878E+05  7.123231E+04  1.490054E+04
       287  21 -7.935249E+05 -1.679362E+05 -1.147283E+05 -2.658548E+05  3.036813E+04  2.013597E+02
       287  22 -5.182287E+05 -1.918796E+05 -1.616890E+05 -1.571257E+05  1.039524E+05  3.519920E+04
       287  23 -4.850069E+05 -5.476316E+04 -6.754463E+04 -1.926407E+05  6.967419E+04  1.431609E+04
       287  24 -5.014001E+05 -7.333965E+04 -4.079606E+04 -2.017332E+05  3.254013E+04  1.017668E+03
       287  25 -2.266113E+05 -4.559769E+04 -7.529283E+04 -4.050636E+04  9.866234E+04  3.321470E+04
       287  26 -1.934786E+05  6.528383E+04  1.112502E+04 -1.022537E+05  6.811526E+04  1.373127E+04
       287  27 -2.091921E+05  2.125740E+04  3.312977E+04 -1.375867E+05  3.471326E+04  1.834266E+03
       288   1 -7.487953E+05 -1.887084E+05 -1.005604E+05 -2.648978E+05 -2.620997E+04 -4.087660E+02
       288   2 -7.326237E+05 -1.602256E+05 -7.819990E+04 -2.558576E+05 -1.754347E+04  2.578568E+03
       288   3 -7.129260E+05 -1.579750E+05 -6.650211E+04 -2.549244E+05 -8.654511E+03  4.973797E+03
       288   4 -4.960317E+05 -9.012095E+04 -3.316096E+04 -1.922638E+05 -2.618762E+04 -4.008164E+02
       288   5 -4.969290E+05 -7.071746E+04 -1.595043E+04 -1.905833E+05 -1.781026E+04  2.478043E+03
       288   6 -4.942405E+05 -7.748501E+04 -9.169962E+03 -1.970104E+05 -9.210699E+03  4.764727E+03
       288   7 -2.432069E+05  8.471415E+03  3.423267E+04 -1.196029E+05 -2.616527E+04 -3.928618E+02
       288   8 -2.611805E+05  1.879433E+04  4.629424E+04 -1.252865E+05 -1.807715E+04  2.377475E+03
       288   9 -2.755082E+05  3.007581E+03  4.815830E+04 -1.390780E+05 -9.767102E+03  4.555581E+03
       288  10 -7.487961E+05 -1.887086E+05 -1.005617E+05 -2.648978E+05  4.391302E-10 -1.713455E-12
       288  11 -7.326240E+05 -1.602257E+05 -7.820049E+04 -2.558576E+05 -6.406541E-11 -5.566581E-11
       288  12 -7.129260E+05 -1.579750E+05 -6.650229E+04 -2.549244E+05  6.849266E-11  1.237528E-10
       288  13 -4.960324E+05 -9.012114E+04 -3.316225E+04 -1.922638E+05 -3.336938E-10 -1.261499E-11
       288  14 -4.969293E+05 -7.071755E+04 -1.595104E+04 -1.905832E+05  1.770235E-10 -1.671763E-10
       288  15 -4.942406E+05 -7.748505E+04 -9.170164E+03 -1.970103E+05 -6.469623E-10  9.009413E-12
       288  16 -2.432076E+05  8.471230E+03  3.423138E+04 -1.196029E+05 -4.181655E-10 -3.777071E-11
       288  17 -2.611809E+05  1.879423E+04  4.629362E+04 -1.252865E+05 -1.841553E-10 -9.111889E-11
       288  18 -2.755083E+05  3.007533E+03  4.815808E+04 -1.390780E+05 -2.088769E-11 -4.526725E-11
       288  19 -7.487953E+05 -1.887084E+05 -1.005604E+05 -2.648978E+05  2.620997E+04  4.087660E+02
       288  20 -7.326237E+05 -1.602256E+05 -7.819990E+04 -2.558576E+05  1.754347E+04 -2.578568E+03
       288  21 -7.129260E+05 -1.579750E+05 -6.650211E+04 -2.549244E+05  8.654511E+03 -4.973797E+03
       288  22 -4.960317E+05 -9.012095E+04 -3.316096E+04 -1.922638E+05  2.618762E+04  4.008164E+02
       288  23 -4.969290E+05 -7.071746E+04 -1.595043E+04 -1.905833E+05  1.781026E+04 -2.478043E+03
       288  24 -4.942405E+05 -7.748501E+04 -9.169962E+03 -1.970104E+05  9.210699E+03 -4.764727E+03
       288  25 -2.432069E+05  8.471415E+03  3.423267E+04 -1.196029E+05  2.616527E+04  3.928618E+02
       288  26 -2.611805E+05  1.879433E+04  4.629424E+04 -1.252865E+05  1.807715E+04 -2.377475E+03
       288  27 -2.755082E+05  3.007581E+03  4.815830E+04 -1.390780E+05  9.767102E+03 -4.555581E+03
       289   1 -6.842462E+05 -1.512455E+05 -5.738465E+04 -2.483805E+05 -7.287238E+03  4.827324E+03
       289   2 -6.698389E+05 -1.368637E+05 -4.888151E+04 -2.371338E+05 -5.068896E+03  4.732631E+03
       289   3 -6.455115E+05 -1.349290E+05 -4.224858E+04 -2.378208E+05 -2.831069E+03  4.585100E+03
       289   4 -4.935147E+05 -7.928962E+04 -7.151524E+03 -1.960350E+05 -7.676871E+03  4.680857E+03
       289   5 -4.983820E+05 -7.240149E+04 -3.719224E+03 -1.903183E+05 -5.484024E+03  4.576683E+03
       289   6 -4.933244E+05 -7.795473E+04 -2.136404E+03 -1.965352E+05 -3.271764E+03  4.419653E+03
       289   7 -3.027480E+05 -7.331442E+03  4.307848E+04 -1.436749E+05 -8.066634E+03  4.534341E+03
       289   8 -3.268970E+05 -7.937594E+03  4.144047E+04 -1.434912E+05 -5.899278E+03  4.420688E+03
       289   9 -3.411153E+05 -2.097931E+04  3.797366E+04 -1.552405E+05 -3.712577E+03  4.254161E+03
       289  10 -6.842462E+05 -1.512456E+05 -5.738480E+04 -2.483805E+05 -4.639108E-10  1.945052E-10
       289  11 -6.698389E+05 -1.368637E+05 -4.888160E+04 -2.371338E+05  1.405708E-11 -8.708522E-11
       289  12 -6.455115E+05 -1.349290E+05 -4.224863E+04 -2.378208E+05 -3.499363E-10 -1.576224E-10
       289  13 -4.935147E+05 -7.928966E+04 -7.151676E+03 -1.960349E+05 -5.001189E-10  3.493549E-11
       289  14 -4.983820E+05 -7.240152E+04 -3.719320E+03 -1.903183E+05  3.625411E-10  1.737255E-10
       289  15 -4.933244E+05 -7.795475E+04 -2.136461E+03 -1.965351E+05 -5.010816E-11 -6.982584E-11
       289  16 -3.027480E+05 -7.331482E+03  4.307832E+04 -1.436749E+05  1.833150E-10 -1.581134E-10
       289  17 -3.268970E+05 -7.937624E+03  4.144037E+04 -1.434912E+05  8.216260E-10  1.017471E-11
       289  18 -3.411153E+05 -2.097933E+04  3.797360E+04 -1.552405E+05  3.363373E-10  2.116399E-11
       289  19 -6.842462E+05 -1.512455E+05 -5.738465E+04 -2.483805E+05  7.287238E+03 -4.827324E+03
       289  20 -6.698389E+05 -1.368637E+05 -4.888151E+04 -2.371338E+05  5.068896E+03 -4.732631E+03
       289  21 -6.455115E+05 -1.349290E+05 -4.224858E+04 -2.378208E+05  2.831069E+03 -4.585100E+03
       289  22 -4.935147E+05 -7.928962E+04 -7.151524E+03 -1.960350E+05  7.676871E+03 -4.680857E+03
       289  23 -4.983820E+05 -7.240149E+04 -3.719224E+03 -1.903183E+05  5.484024E+03 -4.576683E+03
       289  24 -4.933244E+05 -7.795473E+04 -2.136404E+03 -1.965352E+05  3.271764E+03 -4.419653E+03
       289  25 -3.027480E+05 -7.331442E+03  4.307848E+04 -1.436749E+05  8.066634E+03 -4.534341E+03
       289  26 -3.268970E+05 -7.937594E+03  4.144047E+04 -1.434912E+05  5.899278E+03 -4.420688E+03
       289  27 -3.411153E+05 -2.097931E+04  3.797366E+04 -1.552405E+05  3.712577E+03 -4.254161E+03
       290   1 -6.181194E+05 -1.250924E+05 -3.449822E+04 -2.305498E+05 -2.337448E+03  4.183865E+03
       290   2 -6.037257E+05 -1.120102E+05 -2.870368E+04 -2.188959E+05 -1.493163E+03  3.505359E+03
       290   3 -5.785116E+05 -1.100721E+05 -2.334270E+04 -2.197459E+05 -6.460267E+02  2.818648E+03
       290   4 -4.931949E+05 -7.817348E+04 -1.673353E+03 -1.964707E+05 -2.766524E+03  4.022829E+03
       290   5 -4.985954E+05 -7.253682E+04 -1.022713E+03 -1.902428E+05 -1.926184E+03  3.342898E+03
       290   6 -4.931755E+05 -7.804342E+04 -8.025252E+02 -1.965190E+05 -1.083013E+03  2.654759E+03
       290   7 -3.682550E+05 -3.125347E+04  3.115028E+04 -1.623854E+05 -3.195696E+03  3.861757E+03
       290   8 -3.934543E+05 -3.306269E+04  2.665736E+04 -1.615854E+05 -2.359286E+03  3.180407E+03
       290   9 -4.078325E+05 -4.601431E+04  2.173703E+04 -1.732893E+05 -1.520065E+03  2.490844E+03
       290  10 -6.181194E+05 -1.250924E+05 -3.449826E+04 -2.305498E+05  2.485071E-10 -1.598883E-10
       290  11 -6.037257E+05 -1.120102E+05 -2.870371E+04 -2.188959E+05  2.499847E-10 -2.608911E-10
       290  12 -5.785116E+05 -1.100721E+05 -2.334272E+04 -2.197459E+05  5.921506E-11  2.678707E-11
       290  13 -4.931949E+05 -7.817350E+04 -1.673398E+03 -1.964707E+05 -1.223475E-10 -7.699347E-11
       290  14 -4.985954E+05 -7.253684E+04 -1.022741E+03 -1.902428E+05 -5.827662E-11 -2.815197E-10
       290  15 -4.931756E+05 -7.804343E+04 -8.025407E+02 -1.965190E+05 -2.148846E-10  1.222105E-10
       290  16 -3.682550E+05 -3.125349E+04  3.115024E+04 -1.623854E+05  1.321983E-10 -4.009811E-11
       290  17 -3.934543E+05 -3.306270E+04  2.665733E+04 -1.615854E+05 -5.876575E-11 -8.497355E-11
       290  18 -4.078325E+05 -4.601432E+04  2.173701E+04 -1.732893E+05 -2.631607E-10 -3.623109E-11
       290  19 -6.181194E+05 -1.250924E+05 -3.449822E+04 -2.305498E+05  2.337448E+03 -4.183865E+03
       290  20 -6.037257E+05 -1.120102E+05 -2.870368E+04 -2.188959E+05  1.493163E+03 -3.505359E+03
       290  21 -5.785116E+05 -1.100721E+05 -2.334270E+04 -2.197459E+05  6.460267E+02 -2.818648E+03
       290  22 -4.931949E+05 -7.817348E+04 -1.673353E+03 -1.964707E+05  2.766524E+03 -4.022829E+03
       290  23 -4.985954E+05 -7.253682E+04 -1.022713E+03 -1.902428E+05  1.926184E+03 -3.342898E+03
       290  24 -4.931755E+05 -7.804342E+04 -8.025252E+02 -1.965190E+05  1.083013E+03 -2.654759E+03
       290  25 -3.682550E+05 -3.125347E+04  3.115028E+04 -1.623854E+05  3.195696E+03 -3.861757E+03
       290  26 -3.934543E+05 -3.306269E+04  2.665736E+04 -1.615854E+05  2.359286E+03 -3.180407E+03
       290  27 -4.078325E+05 -4.601431E+04  2.173703E+04 -1.732893E+05  1.520065E+03 -2.490844E+03
       291   1 -5.509882E+05 -9.978716E+04 -1.595423E+04 -2.123307E+05 -3.201593E+02  2.353010E+03
       291   2 -5.364659E+05 -8.671741E+04 -1.096283E+04 -2.005261E+05  5.123200E+02  1.655448E+03
       291   3 -5.110356E+05 -8.488423E+04 -6.394344E+03 -2.013479E+05  1.344737E+03  9.578291E+02
       291   4 -4.931555E+05 -7.806777E+04 -7.993707E+02 -1.965444E+05 -7.574597E+02  2.189031E+03
       291   5 -4.986172E+05 -7.250615E+04 -9.974919E+02 -1.902098E+05  7.502174E+01  1.491490E+03
       291   6 -4.931713E+05 -7.818113E+04 -1.618516E+03 -1.965018E+05  9.074248E+02  7.938871E+02
       291   7 -4.353197E+05 -5.634823E+04  1.435516E+04 -1.807567E+05 -1.194804E+03  2.025036E+03
       291   8 -4.607671E+05 -5.829481E+04  8.967721E+03 -1.798930E+05 -3.623058E+02  1.327522E+03
       291   9 -4.753066E+05 -7.147800E+04  3.157298E+03 -1.916556E+05  4.700973E+02  6.299395E+02
       291  10 -5.509882E+05 -9.978717E+04 -1.595424E+04 -2.123307E+05  1.739590E-10  8.193366E-11
       291  11 -5.364659E+05 -8.671741E+04 -1.096283E+04 -2.005261E+05 -2.169811E-10  6.233891E-11
       291  12 -5.110356E+05 -8.488423E+04 -6.394349E+03 -2.013479E+05  9.139553E-11 -4.041937E-11
       291  13 -4.931555E+05 -7.806778E+04 -7.993808E+02 -1.965444E+05 -3.880002E-10 -1.218497E-11
       291  14 -4.986172E+05 -7.250615E+04 -9.974961E+02 -1.902098E+05 -1.104315E-10 -7.509172E-11
       291  15 -4.931713E+05 -7.818113E+04 -1.618519E+03 -1.965018E+05 -4.033372E-10  1.391238E-10
       291  16 -4.353197E+05 -5.634824E+04  1.435515E+04 -1.807567E+05 -4.152860E-10 -1.389890E-10
       291  17 -4.607671E+05 -5.829481E+04  8.967717E+03 -1.798930E+05 -9.149666E-11  7.518861E-12
       291  18 -4.753066E+05 -7.147800E+04  3.157297E+03 -1.916556E+05  9.448891E-11  1.018363E-10
       291  19 -5.509882E+05 -9.978716E+04 -1.595423E+04 -2.123307E+05  3.201593E+02 -2.353010E+03
       291  20 -5.364659E+05 -8.671741E+04 -1.096283E+04 -2.005261E+05 -5.123200E+02 -1.655448E+03
       291  21 -5.110356E+05 -8.488423E+04 -6.394344E+03 -2.013479E+05 -1.344737E+03 -9.578291E+02
       291  22 -4.931555E+05 -7.806777E+04 -7.993707E+02 -1.965444E+05  7.574597E+02 -2.189031E+03
       291  23 -4.986172E+05 -7.250615E+04 -9.974919E+02 -1.902098E+05 -7.502174E+01 -1.491490E+03
       291  24 -4.931713E+05 -7.818113E+04 -1.618516E+03 -1.965018E+05 -9.074248E+02 -7.938871E+02
       291  25 -4.353197E+05 -5.634823E+04  1.435516E+04 -1.807567E+05  1.194804E+03 -2.025036E+03
       291  26 -4.607671E+05 -5.829481E+04  8.967721E+03 -1.798930E+05  3.623058E+02 -1.327522E+03
       291  27 -4.753066E+05 -7.147800E+04  3.157298E+03 -1.916556E+05 -4.700973E+02 -6.299395E+02
       292   1 -4.833680E+05 -7.448096E+04  5.785478E+02 -1.941200E+05  1.849931E+03  5.531885E+02
       292   2 -4.687253E+05 -6.111106E+04  4.253629E+03 -1.820720E+05  3.986813E+03  3.430274E+02
       292   3 -4.438760E+05 -6.041693E+04  6.147571E+03 -1.823361E+05  6.113403E+03  1.606037E+02
       292   4 -4.932594E+05 -7.801665E+04 -2.064860E+03 -1.966137E+05  1.404992E+03  3.863895E+02
       292   5 -4.984513E+05 -7.231500E+04 -3.580566E+03 -1.902187E+05  3.555475E+03  1.813093E+02
       292   6 -4.934398E+05 -7.929190E+04 -6.888230E+03 -1.961361E+05  5.695599E+03  3.943184E+00
       292   7 -5.031507E+05 -8.155234E+04 -4.708275E+03 -1.991074E+05  9.600618E+02  2.195931E+02
       292   8 -5.281765E+05 -8.351886E+04 -1.141482E+04 -1.983651E+05  3.124161E+03  1.960007E+01
       292   9 -5.430010E+05 -9.816664E+04 -1.992420E+04 -2.099350E+05  5.277833E+03 -1.527027E+02
       292  10 -4.833680E+05 -7.448096E+04  5.785408E+02 -1.941200E+05  1.490467E-10  1.350500E-10
       292  11 -4.687253E+05 -6.111106E+04  4.253599E+03 -1.820720E+05 -1.745496E-10 -4.276414E-11
       292  12 -4.438760E+05 -6.041694E+04  6.147501E+03 -1.823361E+05 -4.022913E-11  4.524554E-11
       292  13 -4.932594E+05 -7.801665E+04 -2.064864E+03 -1.966137E+05 -1.559092E-10 -3.530285E-11
       292  14 -4.984514E+05 -7.231500E+04 -3.580590E+03 -1.902187E+05 -2.322353E-10 -3.327056E-10
       292  15 -4.934398E+05 -7.929191E+04 -6.888291E+03 -1.961361E+05  6.950924E-11  1.599339E-11
       292  16 -5.031507E+05 -8.155234E+04 -4.708277E+03 -1.991074E+05 -3.581753E-10 -6.977693E-11
       292  17 -5.281765E+05 -8.351887E+04 -1.141484E+04 -1.983651E+05 -1.259932E-10 -1.091818E-10
       292  18 -5.430011E+05 -9.816665E+04 -1.992425E+04 -2.099350E+05  1.518648E-10  1.192009E-10
       292  19 -4.833680E+05 -7.448096E+04  5.785478E+02 -1.941200E+05 -1.849931E+03 -5.531885E+02
       292  20 -4.687253E+05 -6.111106E+04  4.253629E+03 -1.820720E+05 -3.986813E+03 -3.430274E+02
       292  21 -4.438760E+05 -6.041693E+04  6.147571E+03 -1.823361E+05 -6.113403E+03 -1.606037E+02
       292  22 -4.932594E+05 -7.801665E+04 -2.064860E+03 -1.966137E+05 -1.404992E+03 -3.863895E+02
       292  23 -4.984513E+05 -7.231500E+04 -3.580566E+03 -1.902187E+05 -3.555475E+03 -1.813093E+02
       292  24 -4.934398E+05 -7.929190E+04 -6.888230E+03 -1.961361E+05 -5.695599E+03 -3.943184E+00
       292  25 -5.031507E+05 -8.155234E+04 -4.708275E+03 -1.991074E+05 -9.600618E+02 -2.195931E+02
       292  26 -5.281765E+05 -8.351886E+04 -1.141482E+04 -1.983651E+05 -3.124161E+03 -1.960007E+01
       292  27 -5.430010E+05 -9.816664E+04 -1.992420E+04 -2.099350E+05 -5.277833E+03  1.527027E+02
       293   1 -4.156290E+05 -4.976988E+04  1.157979E+04 -1.774357E+05  7.693746E+03  1.098566E+02
       293   2 -4.006069E+05 -3.354923E+04  1.020922E+04 -1.632248E+05  1.582959E+04  2.167026E+03
       293   3 -3.812865E+05 -4.338063E+04 -1.081596E+03 -1.578716E+05  2.383467E+04  4.574476E+03
       293   4 -4.941028E+05 -7.759748E+04 -8.833110E+03 -1.971217E+05  7.176200E+03 -8.420147E+01
       293   5 -4.970924E+05 -7.063532E+04 -1.535271E+04 -1.904126E+05  1.548377E+04  2.037262E+03
       293   6 -4.958196E+05 -8.976134E+04 -3.193013E+04 -1.925616E+05  2.366032E+04  4.508861E+03
       293   7 -5.725708E+05 -1.054250E+05 -2.924658E+04 -2.168055E+05  6.658725E+03 -2.782366E+02
       293   8 -5.935690E+05 -1.077208E+05 -4.091549E+04 -2.175965E+05  1.513801E+04  1.907521E+03
       293   9 -6.103399E+05 -1.361407E+05 -6.277984E+04 -2.272456E+05  2.348600E+04  4.443261E+03
       293  10 -4.156291E+05 -4.976990E+04  1.157968E+04 -1.774357E+05 -7.566754E-11  1.333039E-10
       293  11 -4.006071E+05 -3.354930E+04  1.020874E+04 -1.632248E+05 -1.553236E-10 -8.117165E-12
       293  12 -3.812871E+05 -4.338081E+04 -1.082704E+03 -1.578717E+05  1.295102E-10 -3.883724E-11
       293  13 -4.941028E+05 -7.759750E+04 -8.833207E+03 -1.971217E+05 -6.178021E-11  1.181530E-10
       293  14 -4.970926E+05 -7.063539E+04 -1.535317E+04 -1.904126E+05 -1.773182E-10  2.817690E-11
       293  15 -4.958202E+05 -8.976152E+04 -3.193122E+04 -1.925617E+05  2.988106E-10 -1.643694E-10
       293  16 -5.725709E+05 -1.054250E+05 -2.924666E+04 -2.168055E+05 -2.060280E-10 -4.657331E-12
       293  17 -5.935693E+05 -1.077209E+05 -4.091593E+04 -2.175965E+05  8.339022E-11  8.448312E-11
       293  18 -6.103405E+05 -1.361408E+05 -6.278091E+04 -2.272457E+05  1.391458E-10 -2.689975E-11
       293  19 -4.156290E+05 -4.976988E+04  1.157979E+04 -1.774357E+05 -7.693746E+03 -1.098566E+02
       293  20 -4.006069E+05 -3.354923E+04  1.020922E+04 -1.632248E+05 -1.582959E+04 -2.167026E+03
       293  21 -3.812865E+05 -4.338063E+04 -1.081596E+03 -1.578716E+05 -2.383467E+04 -4.574476E+03
       293  22 -4.941028E+05 -7.759748E+04 -8.833110E+03 -1.971217E+05 -7.176200E+03  8.420147E+01
       293  23 -4.970924E+05 -7.063532E+04 -1.535271E+04 -1.904126E+05 -1.548377E+04 -2.037262E+03
       293  24 -4.958196E+05 -8.976134E+04 -3.193013E+04 -1.925616E+05 -2.366032E+04 -4.508861E+03
       293  25 -5.725708E+05 -1.054250E+05 -2.924658E+04 -2.168055E+05 -6.658725E+03  2.782366E+02
       293  26 -5.935690E+05 -1.077208E+05 -4.091549E+04 -2.175965E+05 -1.513801E+04 -1.907521E+03
       293  27 -6.103399E+05 -1.361407E+05 -6.277984E+04 -2.272456E+05 -2.348600E+04 -4.443261E+03
       294   1 -3.461112E+05 -3.017683E+04 -1.356465E+03 -1.746290E+05  3.113023E+04  6.002066E+03
       294   2 -3.293917E+05  1.346134E+04 -2.203250E+04 -1.394115E+05  6.473122E+04  1.777656E+04
       294   3 -3.589105E+05 -9.354131E+04 -1.058480E+05 -8.015275E+04  9.663864E+04  3.406849E+04
       294   4 -5.009553E+05 -7.364330E+04 -3.928300E+04 -2.017229E+05  2.964805E+04  5.446777E+03
       294   5 -4.856699E+05 -5.519841E+04 -6.502598E+04 -1.923151E+05  6.547147E+04  1.805297E+04
       294   6 -5.170798E+05 -1.878602E+05 -1.556832E+05 -1.588630E+05  9.960078E+04  3.517371E+04
       294   7 -6.557758E+05 -1.171103E+05 -7.721113E+04 -2.288119E+05  2.816627E+04  4.891553E+03
       294   8 -6.419234E+05 -1.238537E+05 -1.080215E+05 -2.452055E+05  6.621151E+04  1.832928E+04
       294   9 -6.752205E+05 -2.821629E+05 -2.055201E+05 -2.375508E+05  1.025621E+05  3.627819E+04
       294  10 -3.461123E+05 -3.017713E+04 -1.358355E+03 -1.746291E+05 -1.060800E-11 -6.111954E-11
       294  11 -3.293962E+05  1.345987E+04 -2.204097E+04 -1.394124E+05  1.406734E-10  2.090692E-10
       294  12 -3.589208E+05 -9.354507E+04 -1.058677E+05 -8.015540E+04 -1.178567E-10  4.291773E-11
       294  13 -5.009562E+05 -7.364357E+04 -3.928471E+04 -2.017230E+05  1.572002E-10 -1.888695E-11
       294  14 -4.856746E+05 -5.519991E+04 -6.503466E+04 -1.923160E+05  2.094600E-10  1.020663E-10
       294  15 -5.170908E+05 -1.878642E+05 -1.557041E+05 -1.588658E+05 -1.567866E-10 -2.098387E-11
       294  16 -6.557766E+05 -1.171105E+05 -7.721267E+04 -2.288120E+05  8.709442E-11 -4.017257E-11
       294  17 -6.419282E+05 -1.238552E+05 -1.080304E+05 -2.452065E+05  3.980342E-11 -3.520983E-11
       294  18 -6.752321E+05 -2.821672E+05 -2.055424E+05 -2.375538E+05 -1.675500E-10 -1.268388E-10
       294  19 -3.461112E+05 -3.017683E+04 -1.356465E+03 -1.746290E+05 -3.113023E+04 -6.002066E+03
       294  20 -3.293917E+05  1.346134E+04 -2.203250E+04 -1.394115E+05 -6.473122E+04 -1.777656E+04
       294  21 -3.589105E+05 -9.354131E+04 -1.058480E+05 -8.015275E+04 -9.663864E+04 -3.406849E+04
       294  22 -5.009553E+05 -7.364330E+04 -3.928300E+04 -2.017229E+05 -2.964805E+04 -5.446777E+03
       294  23 -4.856699E+05 -5.519841E+04 -6.502598E+04 -1.923151E+05 -6.547147E+04 -1.805297E+04
       294  24 -5.170798E+05 -1.878602E+05 -1.556832E+05 -1.588630E+05 -9.960078E+04 -3.517371E+04
       294  25 -6.557758E+05 -1.171103E+05 -7.721113E+04 -2.288119E+05 -2.816627E+04 -4.891553E+03
       294  26 -6.419234E+05 -1.238537E+05 -1.080215E+05 -2.452055E+05 -6.621151E+04 -1.832928E+04
       294  27 -6.752205E+05 -2.821629E+05 -2.055201E+05 -2.375508E+05 -1.025621E+05 -3.627819E+04
       295   1 -4.754399E+05 -1.069316E+05 -7.545013E+04 -6.629049E+03  8.150974E+04  8.929973E+03
       295   2 -4.133007E+05 -2.120378E+05 -1.279266E+05 -3.601398E+03  5.884859E+04  2.647024E+04
       295   3 -3.139265E+05 -1.828576E+05 -1.319227E+05 -5.751098E+04  3.619487E+04  2.405947E+04
       295   4  4.006173E+05  1.114171E+05  1.405121E+05 -4.260481E+04  9.613065E+04  8.934294E+03
       295   5  3.811337E+05 -1.524238E+04  6.159315E+04 -1.410905E+04  6.290036E+04  2.646797E+04
       295   6  4.006632E+05 -5.875592E+03  3.844361E+04 -4.254413E+04  2.968126E+04  2.406003E+04
       295   7  1.277376E+06  3.297137E+05  3.564191E+05 -7.863153E+04  1.107721E+05  8.936921E+03
       295   8  1.176147E+06  1.815079E+05  2.510687E+05 -2.463026E+04  6.695725E+04  2.646557E+04
       295   9  1.115722E+06  1.710704E+05  2.087743E+05 -2.755993E+04  2.316017E+04  2.406028E+04
       295  10 -4.754471E+05 -1.069335E+05 -7.546277E+04 -6.629635E+03  2.180351E-10  4.724794E-11
       295  11 -4.133046E+05 -2.120395E+05 -1.279344E+05 -3.602653E+03  2.392557E-10 -5.745429E-12
       295  12 -3.139281E+05 -1.828586E+05 -1.319262E+05 -5.751168E+04 -2.039144E-10  2.615157E-10
       295  13  4.006074E+05  1.114146E+05  1.404946E+05 -4.260550E+04  2.399345E-10 -2.384995E-10
       295  14  3.811293E+05 -1.524419E+04  6.158441E+04 -1.411040E+04  4.808854E-11  4.955280E-11
       295  15  4.006621E+05 -5.876450E+03  3.844087E+04 -4.254471E+04  9.326822E-12  1.992445E-10
       295  16  1.277363E+06  3.297104E+05  3.563959E+05 -7.863232E+04 -2.240820E-10  3.677555E-10
       295  17  1.176142E+06  1.815059E+05  2.510589E+05 -2.463168E+04 -3.539947E-10 -8.234783E-12
       295  18  1.115721E+06  1.710697E+05  2.087722E+05 -2.756038E+04  4.376054E-10  3.816340E-10
       295  19 -4.754399E+05 -1.069316E+05 -7.545013E+04 -6.629049E+03 -8.150974E+04 -8.929973E+03
       295  20 -4.133007E+05 -2.120378E+05 -1.279266E+05 -3.601398E+03 -5.884859E+04 -2.647024E+04
       295  21 -3.139265E+05 -1.828576E+05 -1.319227E+05 -5.751098E+04 -3.619487E+04 -2.405947E+04
       295  22  4.006173E+05  1.114171E+05  1.405121E+05 -4.260481E+04 -9.613065E+04 -8.934294E+03
       295  23  3.811337E+05 -1.524238E+04  6.159315E+04 -1.410905E+04 -6.290036E+04 -2.646797E+04
       295  24  4.006632E+05 -5.875592E+03  3.844361E+04 -4.254413E+04 -2.968126E+04 -2.406003E+04
       295  25  1.277376E+06  3.297137E+05  3.564191E+05 -7.863153E+04 -1.107721E+05 -8.936921E+03
       295  26  1.176147E+06  1.815079E+05  2.510687E+05 -2.463026E+04 -6.695725E+04 -2.646557E+04
       295  27  1.115722E+06  1.710704E+05  2.087743E+05 -2.755993E+04 -2.316017E+04 -2.406028E+04
       296   1 -2.191648E+05 -1.404596E+05 -1.150894E+05 -3.899642E+04  2.432673E+04  1.933930E+04
       296   2 -1.419803E+05 -1.335894E+05 -1.111488E+05 -1.305862E+04  1.688340E+04  1.749615E+04
       296   3 -6.015148E+04 -1.128265E+05 -9.884551E+04 -4.377101E+04  9.435014E+03  1.425882E+04
       296   4  3.930839E+05  1.126507E+04  3.130942E+04 -4.249102E+04  2.373537E+04  1.933818E+04
       296   5  3.907132E+05 -1.632850E+03  1.599036E+04 -1.417091E+04  1.554873E+04  1.749611E+04
       296   6  3.931042E+05 -5.158789E+02  9.543718E+03 -4.249764E+04  7.357952E+03  1.426037E+04
       296   7  1.005676E+06  1.629626E+05  1.776818E+05 -4.598904E+04  2.314342E+04  1.933706E+04
       296   8  9.236670E+05  1.303032E+05  1.431096E+05 -1.528411E+04  1.421290E+04  1.749608E+04
       296   9  8.465481E+05  1.117799E+05  1.179185E+05 -4.122328E+04  5.279378E+03  1.426191E+04
       296  10 -2.191655E+05 -1.404601E+05 -1.150912E+05 -3.899680E+04 -1.951648E-10  1.524807E-10
       296  11 -1.419807E+05 -1.335898E+05 -1.111499E+05 -1.305886E+04  3.440362E-10 -2.694329E-10
       296  12 -6.015163E+04 -1.128268E+05 -9.884606E+04 -4.377112E+04  1.929954E-11  2.836841E-10
       296  13  3.930832E+05  1.126451E+04  3.130766E+04 -4.249139E+04 -9.095028E-11  2.965684E-10
       296  14  3.907129E+05 -1.633244E+03  1.598933E+04 -1.417113E+04  5.914129E-10 -9.808392E-10
       296  15  3.931041E+05 -5.161118E+02  9.543234E+03 -4.249773E+04  1.160751E-10  9.537640E-11
       296  16  1.005675E+06  1.629621E+05  1.776801E+05 -4.598940E+04  6.373284E-11  2.472738E-10
       296  17  9.236667E+05  1.303028E+05  1.431086E+05 -1.528431E+04 -3.746882E-10 -2.678233E-10
       296  18  8.465480E+05  1.117797E+05  1.179180E+05 -4.122334E+04  3.220402E-11 -1.921790E-10
       296  19 -2.191648E+05 -1.404596E+05 -1.150894E+05 -3.899642E+04 -2.432673E+04 -1.933930E+04
       296  20 -1.419803E+05 -1.335894E+05 -1.111488E+05 -1.305862E+04 -1.688340E+04 -1.749615E+04
       296  21 -6.015148E+04 -1.128265E+05 -9.884551E+04 -4.377101E+04 -9.435014E+03 -1.425882E+04
       296  22  3.930839E+05  1.126507E+04  3.130942E+04 -4.249102E+04 -2.373537E+04 -1.933818E+04
       296  23  3.907132E+05 -1.632850E+03  1.599036E+04 -1.417091E+04 -1.554873E+04 -1.749611E+04
       296  24  3.931042E+05 -5.158789E+02  9.543718E+03 -4.249764E+04 -7.357952E+03 -1.426037E+04
       296  25  1.005676E+06  1.629626E+05  1.776818E+05 -4.598904E+04 -2.314342E+04 -1.933706E+04
       296  26  9.236670E+05  1.303032E+05  1.431096E+05 -1.528411E+04 -1.421290E+04 -1.749608E+04
       296  27  8.465481E+05  1.117799E+05  1.179185E+05 -4.122328E+04 -5.279378E+03 -1.426191E+04
       297   1  4.012966E+04 -8.597952E+04 -7.635179E+04 -4.186468E+04  7.507443E+03  1.214435E+04
       297   2  1.187387E+05 -6.781209E+04 -6.104589E+04 -1.399864E+04  5.475450E+03  8.958607E+03
       297   3  1.978994E+05 -4.810073E+04 -4.405425E+04 -4.236587E+04  3.441267E+03  5.680651E+03
       297   4  3.921912E+05  1.181730E+03  7.466096E+03 -4.240212E+04  5.850386E+03  1.214588E+04
       297   5  3.919188E+05 -1.514674E+02  4.148552E+03 -1.428697E+04  3.768523E+03  8.960622E+03
       297   6  3.922004E+05  6.787694E+01  2.550889E+03 -4.240354E+04  1.684724E+03  5.683192E+03
       297   7  7.443664E+05  8.833405E+04  9.127531E+04 -4.293982E+04  4.192393E+03  1.214741E+04
       297   8  6.651672E+05  6.750377E+04  6.933776E+04 -1.457542E+04  2.060848E+03  8.962638E+03
       297   9  5.865360E+05  4.823374E+04  4.915337E+04 -4.244122E+04 -7.236630E+01  5.685734E+03
       297  10  4.012956E+04 -8.597969E+04 -7.635217E+04 -4.186476E+04  1.776609E-10 -9.198763E-11
       297  11  1.187387E+05 -6.781219E+04 -6.104610E+04 -1.399868E+04  4.413489E-10  2.544469E-10
       297  12  1.978994E+05 -4.810076E+04 -4.405434E+04 -4.236588E+04 -4.222122E-10 -7.879921E-10
       297  13  3.921911E+05  1.181563E+03  7.465754E+03 -4.240217E+04 -2.482623E-10  2.721144E-12
       297  14  3.919187E+05 -1.515575E+02  4.148374E+03 -1.428700E+04 -1.708156E-10  7.908462E-10
       297  15  3.922004E+05  6.784149E+01  2.550823E+03 -4.240355E+04 -4.404376E-10  9.754193E-10
       297  16  7.443663E+05  8.833388E+04  9.127500E+04 -4.293986E+04 -7.626906E-10 -8.891822E-11
       297  17  6.651672E+05  6.750368E+04  6.933760E+04 -1.457543E+04 -5.335739E-10 -8.310270E-10
       297  18  5.865360E+05  4.823371E+04  4.915331E+04 -4.244122E+04 -4.712217E-10 -4.354172E-10
       297  19  4.012966E+04 -8.597952E+04 -7.635179E+04 -4.186468E+04 -7.507443E+03 -1.214435E+04
       297  20  1.187387E+05 -6.781209E+04 -6.104589E+04 -1.399864E+04 -5.475450E+03 -8.958607E+03
       297  21  1.978994E+05 -4.810073E+04 -4.405425E+04 -4.236587E+04 -3.441267E+03 -5.680651E+03
       297  22  3.921912E+05  1.181730E+03  7.466096E+03 -4.240212E+04 -5.850386E+03 -1.214588E+04
       297  23  3.919188E+05 -1.514674E+02  4.148552E+03 -1.428697E+04 -3.768523E+03 -8.960622E+03
       297  24  3.922004E+05  6.787694E+01  2.550889E+03 -4.240354E+04 -1.684724E+03 -5.683192E+03
       297  25  7.443664E+05  8.833405E+04  9.127531E+04 -4.293982E+04 -4.192393E+03 -1.214741E+04
       297  26  6.651672E+05  6.750377E+04  6.933776E+04 -1.457542E+04 -2.060848E+03 -8.962638E+03
       297  27  5.865360E+05  4.823374E+04  4.915337E+04 -4.244122E+04  7.236630E+01 -5.685734E+03
       298   1  2.984362E+05 -2.291879E+04 -2.004862E+04 -4.226035E+04  2.993269E+03  3.758345E+03
       298   2  3.771269E+05 -3.686591E+03 -2.110633E+03 -1.431852E+04  2.267036E+03  4.877422E+02
       298   3  4.557847E+05  1.585974E+04  1.633199E+04 -4.245114E+04  1.540614E+03 -2.788935E+03
       298   4  3.920770E+05  2.240335E+02  2.059180E+03 -4.236802E+04  1.266785E+03  3.761002E+03
       298   5  3.920958E+05  2.027650E+01  1.461119E+03 -1.433092E+04  5.371772E+02  4.904176E+02
       298   6  3.920776E+05  1.319275E+02  1.370611E+03 -4.236817E+04 -1.925289E+02 -2.786219E+03
       298   7  4.857260E+05  2.336624E+04  2.416639E+04 -4.247570E+04 -4.599576E+02  3.763659E+03
       298   8  4.070649E+05  3.727130E+03  5.032867E+03 -1.434331E+04 -1.192723E+03  4.930930E+02
       298   9  3.283743E+05 -1.559617E+04 -1.359103E+04 -4.228520E+04 -1.925496E+03 -2.783503E+03
       298  10  2.984362E+05 -2.291881E+04 -2.004867E+04 -4.226036E+04  5.780515E-10 -1.461124E-10
       298  11  3.771269E+05 -3.686593E+03 -2.110644E+03 -1.431852E+04  1.478581E-09  2.249909E-10
       298  12  4.557847E+05  1.585973E+04  1.633197E+04 -4.245114E+04  5.113801E-10  1.342530E-10
       298  13  3.920770E+05  2.240179E+02  2.059151E+03 -4.236802E+04 -1.702317E-10 -1.167516E-09
       298  14  3.920958E+05  2.027617E+01  1.461118E+03 -1.433092E+04  3.297183E-10  5.255582E-10
       298  15  3.920776E+05  1.319192E+02  1.370596E+03 -4.236817E+04 -1.894458E-10 -4.564962E-10
       298  16  4.857260E+05  2.336622E+04  2.416636E+04 -4.247570E+04 -5.316409E-10  1.662333E-10
       298  17  4.070649E+05  3.727129E+03  5.032864E+03 -1.434331E+04 -1.690968E-09 -2.916717E-10
       298  18  3.283743E+05 -1.559618E+04 -1.359105E+04 -4.228520E+04 -5.397125E-10 -1.376989E-09
       298  19  2.984362E+05 -2.291879E+04 -2.004862E+04 -4.226035E+04 -2.993269E+03 -3.758345E+03
       298  20  3.771269E+05 -3.686591E+03 -2.110633E+03 -1.431852E+04 -2.267036E+03 -4.877422E+02
       298  21  4.557847E+05  1.585974E+04  1.633199E+04 -4.245114E+04 -1.540614E+03  2.788935E+03
       298  22  3.920770E+05  2.240335E+02  2.059180E+03 -4.236802E+04 -1.266785E+03 -3.761002E+03
       298  23  3.920958E+05  2.027650E+01  1.461119E+03 -1.433092E+04 -5.371772E+02 -4.904176E+02
       298  24  3.920776E+05  1.319275E+02  1.370611E+03 -4.236817E+04  1.925289E+02  2.786219E+03
       298  25  4.857260E+05  2.336624E+04  2.416639E+04 -4.247570E+04  4.599576E+02 -3.763659E+03
       298  26  4.070649E+05  3.727130E+03  5.032867E+03 -1.434331E+04  1.192723E+03 -4.930930E+02
       298  27  3.283743E+05 -1.559617E+04 -1.359103E+04 -4.228520E+04  1.925496E+03  2.783503E+03
       299   1  5.564641E+05  4.087262E+04  4.093639E+04 -4.255253E+04  1.280534E+03 -4.698895E+03
       299   2  6.352754E+05  6.021288E+04  6.006980E+04 -1.452163E+04  2.604958E+02 -7.979455E+03
       299   3  7.141993E+05  7.995429E+04  7.993816E+04 -4.268764E+04 -7.580456E+02 -1.125811E+04
       299   4  3.921030E+05  1.269815E+02  1.482615E+03 -4.239572E+04 -4.540637E+02 -4.696306E+03
       299   5  3.920462E+05 -1.077638E+01  2.040721E+03 -1.429649E+04 -1.472863E+03 -7.977273E+03
       299   6  3.920951E+05  2.526167E+02  3.333195E+03 -4.239553E+04 -2.490039E+03 -1.125632E+04
       299   7  2.277665E+05 -4.062062E+04 -3.797306E+04 -4.223893E+04 -2.188204E+03 -4.693717E+03
       299   8  1.488712E+05 -6.023871E+04 -5.599250E+04 -1.407142E+04 -3.205547E+03 -7.975093E+03
       299   9  7.008598E+04 -7.945653E+04 -7.327901E+04 -4.210354E+04 -4.221139E+03 -1.125452E+04
       299  10  5.564641E+05  4.087259E+04  4.093634E+04 -4.255253E+04  2.450550E-10  7.208501E-10
       299  11  6.352753E+05  6.021281E+04  6.006968E+04 -1.452163E+04  9.431603E-10  1.642972E-09
       299  12  7.141993E+05  7.995415E+04  7.993792E+04 -4.268764E+04  1.124188E-09 -1.291972E-09
       299  13  3.921030E+05  1.269577E+02  1.482573E+03 -4.239572E+04 -8.367358E-12  1.719611E-10
       299  14  3.920462E+05 -1.084531E+01  2.040597E+03 -1.429650E+04  7.299413E-10 -9.268882E-10
       299  15  3.920950E+05  2.524789E+02  3.332945E+03 -4.239555E+04 -6.728536E-11  4.240402E-10
       299  16  2.277665E+05 -4.062064E+04 -3.797311E+04 -4.223894E+04  5.710129E-11 -2.969734E-10
       299  17  1.488712E+05 -6.023878E+04 -5.599264E+04 -1.407144E+04 -1.339650E-09 -4.268015E-10
       299  18  7.008593E+04 -7.945667E+04 -7.327928E+04 -4.210357E+04 -1.640235E-09 -1.558365E-10
       299  19  5.564641E+05  4.087262E+04  4.093639E+04 -4.255253E+04 -1.280534E+03  4.698895E+03
       299  20  6.352754E+05  6.021288E+04  6.006980E+04 -1.452163E+04 -2.604958E+02  7.979455E+03
       299  21  7.141993E+05  7.995429E+04  7.993816E+04 -4.268764E+04  7.580456E+02  1.125811E+04
       299  22  3.921030E+05  1.269815E+02  1.482615E+03 -4.239572E+04  4.540637E+02  4.696306E+03
       299  23  3.920462E+05 -1.077638E+01  2.040721E+03 -1.429649E+04  1.472863E+03  7.977273E+03
       299  24  3.920951E+05  2.526167E+02  3.333195E+03 -4.239553E+04  2.490039E+03  1.125632E+04
       299  25  2.277665E+05 -4.062062E+04 -3.797306E+04 -4.223893E+04  2.188204E+03  4.693717E+03
       299  26  1.488712E+05 -6.023871E+04 -5.599250E+04 -1.407142E+04  3.205547E+03  7.975093E+03
       299  27  7.008598E+04 -7.945653E+04 -7.327901E+04 -4.210354E+04  4.221139E+03  1.125452E+04
       300   1  8.155988E+05  1.048166E+05  1.054909E+05 -4.251986E+04 -1.406496E+03 -1.319215E+04
       300   2  8.944192E+05  1.241183E+05  1.271174E+05 -1.451500E+04 -5.080282E+03 -1.648711E+04
       300   3  9.745235E+05  1.460323E+05  1.518147E+05 -4.311971E+04 -8.751093E+03 -1.967150E+04
       300   4  3.923328E+05 -1.921742E+01  4.283199E+03 -4.248815E+04 -3.177806E+03 -1.319073E+04
       300   5  3.916900E+05 -3.377855E+02  7.197103E+03 -1.418130E+04 -6.790615E+03 -1.648658E+04
       300   6  3.923158E+05  1.947085E+03  1.314184E+04 -4.248681E+04 -1.039999E+04 -1.967180E+04
       300   7 -3.076912E+04 -1.048680E+05 -9.693713E+04 -4.245641E+04 -4.947914E+03 -1.318930E+04
       300   8 -1.108078E+05 -1.248121E+05 -1.127409E+05 -1.384782E+04 -8.499569E+03 -1.648606E+04
       300   9 -1.895815E+05 -1.421626E+05 -1.255548E+05 -4.185446E+04 -1.204734E+04 -1.967211E+04
       300  10  8.155988E+05  1.048165E+05  1.054906E+05 -4.251987E+04 -2.307067E-10 -1.260006E-09
       300  11  8.944191E+05  1.241180E+05  1.271168E+05 -1.451507E+04  4.374983E-10 -1.893535E-10
       300  12  9.745233E+05  1.460319E+05  1.518138E+05 -4.311985E+04  1.686436E-10  3.185569E-10
       300  13  3.923328E+05 -1.940700E+01  4.282853E+03 -4.248818E+04 -6.053509E-10  1.187320E-10
       300  14  3.916898E+05 -3.380898E+02  7.196506E+03 -1.418139E+04 -5.312252E-10 -4.043817E-10
       300  15  3.923155E+05  1.946640E+03  1.314091E+04 -4.248698E+04  2.319849E-10 -2.272442E-10
       300  16 -3.076920E+04 -1.048682E+05 -9.693751E+04 -4.245647E+04 -4.250883E-10 -1.209469E-10
       300  17 -1.108080E+05 -1.248125E+05 -1.127415E+05 -1.384793E+04 -6.695823E-10  1.264678E-09
       300  18 -1.895817E+05 -1.421630E+05 -1.255558E+05 -4.185465E+04 -1.688785E-11  3.039796E-10
       300  19  8.155988E+05  1.048166E+05  1.054909E+05 -4.251986E+04  1.406496E+03  1.319215E+04
       300  20  8.944192E+05  1.241183E+05  1.271174E+05 -1.451500E+04  5.080282E+03  1.648711E+04
       300  21  9.745235E+05  1.460323E+05  1.518147E+05 -4.311971E+04  8.751093E+03  1.967150E+04
       300  22  3.923328E+05 -1.921742E+01  4.283199E+03 -4.248815E+04  3.177806E+03  1.319073E+04
       300  23  3.916900E+05 -3.377855E+02  7.197103E+03 -1.418130E+04  6.790615E+03  1.648658E+04
       300  24  3.923158E+05  1.947085E+03  1.314184E+04 -4.248681E+04  1.039999E+04  1.967180E+04
       300  25 -3.076912E+04 -1.048680E+05 -9.693713E+04 -4.245641E+04  4.947914E+03  1.318930E+04
       300  26 -1.108078E+05 -1.248121E+05 -1.127409E+05 -1.384782E+04  8.499569E+03  1.648606E+04
       300  27 -1.895815E+05 -1.421626E+05 -1.255548E+05 -4.185446E+04  1.204734E+04  1.967211E+04
       301   1  1.078335E+06  1.683903E+05  1.802768E+05 -3.991717E+04 -1.087653E+04 -2.185490E+04
       301   2  1.154397E+06  1.863588E+05  2.106650E+05 -1.538221E+04 -2.628828E+04 -2.511669E+04
       301   3  1.239287E+06  2.291435E+05  2.574052E+05 -4.813447E+04 -4.169790E+04 -2.663706E+04
       301   4  3.939261E+05 -1.061320E+03  1.683574E+04 -4.263689E+04 -1.305361E+04 -2.185568E+04
       301   5  3.895751E+05 -2.948957E+03  2.826599E+04 -1.399511E+04 -2.752860E+04 -2.511894E+04
       301   6  3.938959E+05  1.983502E+04  5.541341E+04 -4.264447E+04 -4.199950E+04 -2.664000E+04
       301   7 -2.900539E+05 -1.705468E+05 -1.466383E+05 -4.535355E+04 -1.522830E+04 -2.185644E+04
       301   8 -3.747110E+05 -1.922989E+05 -1.541741E+05 -1.260974E+04 -2.876739E+04 -2.512120E+04
       301   9 -4.508406E+05 -1.895250E+05 -1.466287E+05 -3.716203E+04 -4.230066E+04 -2.664296E+04
       301  10  1.078335E+06  1.683898E+05  1.802757E+05 -3.991736E+04  1.090198E-10  3.382193E-10
       301  11  1.154396E+06  1.863579E+05  2.106625E+05 -1.538274E+04 -3.527731E-10 -1.229326E-11
       301  12  1.239285E+06  2.291422E+05  2.574006E+05 -4.813536E+04 -1.039678E-10 -4.803224E-10
       301  13  3.939258E+05 -1.061879E+03  1.683452E+04 -4.263712E+04  2.735087E-10  3.485311E-10
       301  14  3.895741E+05 -2.949838E+03  2.826338E+04 -1.399567E+04 -4.545328E-10 -2.334693E-10
       301  15  3.938938E+05  1.983378E+04  5.540877E+04 -4.264537E+04  2.347704E-10 -5.431743E-10
       301  16 -2.900543E+05 -1.705474E+05 -1.466396E+05 -4.535382E+04  4.269365E-10 -2.420831E-10
       301  17 -3.747121E+05 -1.922998E+05 -1.541768E+05 -1.261032E+04 -4.521483E-11 -4.831860E-11
       301  18 -4.508427E+05 -1.895262E+05 -1.466334E+05 -3.716294E+04  3.100802E-10 -4.951380E-10
       301  19  1.078335E+06  1.683903E+05  1.802768E+05 -3.991717E+04  1.087653E+04  2.185490E+04
       301  20  1.154397E+06  1.863588E+05  2.106650E+05 -1.538221E+04  2.628828E+04  2.511669E+04
       301  21  1.239287E+06  2.291435E+05  2.574052E+05 -4.813447E+04  4.169790E+04  2.663706E+04
       301  22  3.939261E+05 -1.061320E+03  1.683574E+04 -4.263689E+04  1.305361E+04  2.185568E+04
       301  23  3.895751E+05 -2.948957E+03  2.826599E+04 -1.399511E+04  2.752860E+04  2.511894E+04
       301  24  3.938959E+05  1.983502E+04  5.541341E+04 -4.264447E+04  4.199950E+04  2.664000E+04
       301  25 -2.900539E+05 -1.705468E+05 -1.466383E+05 -4.535355E+04  1.522830E+04  2.185644E+04
       301  26 -3.747110E+05 -1.922989E+05 -1.541741E+05 -1.260974E+04  2.876739E+04  2.512120E+04
       301  27 -4.508406E+05 -1.895250E+05 -1.466287E+05 -3.716203E+04  4.230066E+04  2.664296E+04
       302   1  1.356471E+06  2.243908E+05  2.940731E+05 -1.534722E+04 -4.477311E+04 -3.210633E+04
       302   2  1.403083E+06  2.279156E+05  3.545808E+05 -3.166200E+04 -1.168822E+05 -3.441878E+04
       302   3  1.521009E+06  4.742011E+05  5.229165E+05 -1.059590E+05 -1.890498E+05 -1.173094E+04
       302   4  4.072852E+05 -1.051656E+04  6.803949E+04 -4.268751E+04 -5.251634E+04 -3.211405E+04
       302   5  3.726965E+05 -2.699646E+04  1.090499E+05 -1.388369E+04 -1.113186E+05 -3.441810E+04
       302   6  4.072202E+05  1.971850E+05  2.487736E+05 -4.305875E+04 -1.701679E+05 -1.171399E+04
       302   7 -5.410734E+05 -2.454861E+05 -1.580566E+05 -6.998602E+04 -6.024775E+04 -3.212110E+04
       302   8 -6.567168E+05 -2.819839E+05 -1.365552E+05  3.864699E+03 -1.057640E+05 -3.441710E+04
       302   9 -7.054329E+05 -7.990799E+04 -2.545722E+04  1.972822E+04 -1.513195E+05 -1.169321E+04
       302  10  1.356468E+06  2.243892E+05  2.940674E+05 -1.534838E+04 -1.213230E-10  5.687932E-11
       302  11  1.403068E+06  2.279107E+05  3.545530E+05 -3.166524E+04 -1.297254E-09  4.617026E-10
       302  12  1.520971E+06  4.741914E+05  5.228492E+05 -1.059608E+05  4.475988E-10 -4.428672E-10
       302  13  4.072819E+05 -1.051841E+04  6.803237E+04 -4.268887E+04  3.937437E-10  4.798954E-10
       302  14  3.726829E+05 -2.700106E+04  1.090244E+05 -1.388677E+04 -7.738630E-11  2.315387E-09
       302  15  4.071891E+05  1.971770E+05  2.487189E+05 -4.306036E+04 -3.397132E-10 -7.676680E-11
       302  16 -5.410776E+05 -2.454882E+05 -1.580654E+05 -6.998758E+04 -1.411161E-10 -9.061750E-11
       302  17 -6.567292E+05 -2.819882E+05 -1.365785E+05  3.861766E+03  1.488966E-10  9.164676E-10
       302  18 -7.054575E+05 -7.991429E+04 -2.550055E+04  1.972680E+04  2.238377E-10 -4.314952E-10
       302  19  1.356471E+06  2.243908E+05  2.940731E+05 -1.534722E+04  4.477311E+04  3.210633E+04
       302  20  1.403083E+06  2.279156E+05  3.545808E+05 -3.166200E+04  1.168822E+05  3.441878E+04
       302  21  1.521009E+06  4.742011E+05  5.229165E+05 -1.059590E+05  1.890498E+05  1.173094E+04
       302  22  4.072852E+05 -1.051656E+04  6.803949E+04 -4.268751E+04  5.251634E+04  3.211405E+04
       302  23  3.726965E+05 -2.699646E+04  1.090499E+05 -1.388369E+04  1.113186E+05  3.441810E+04
       302  24  4.072202E+05  1.971850E+05  2.487736E+05 -4.305875E+04  1.701679E+05  1.171399E+04
       302  25 -5.410734E+05 -2.454861E+05 -1.580566E+05 -6.998602E+04  6.024775E+04  3.212110E+04
       302  26 -6.567168E+05 -2.819839E+05 -1.365552E+05  3.864699E+03  1.057640E+05  3.441710E+04
       302  27 -7.054329E+05 -7.990799E+04 -2.545722E+04  1.972822E+04  1.513195E+05  1.169321E+04
       303   1  2.230641E+05  7.821271E+05  2.424370E+05 -1.109276E+05  5.101732E+03  7.791525E+04
       303   2  9.092018E+04  6.093700E+05  1.427258E+05 -3.609486E+04  1.370275E+04  4.620884E+04
       303   3  5.883504E+04  4.655874E+05  8.861648E+04 -7.350694E+04  7.948439E+03  1.449160E+04
       303   4  8.091104E+04  2.120360E+05  1.017724E+05 -8.404686E+04  5.114768E+03  6.955914E+04
       303   5 -1.089884E+04  1.982220E+05  4.471532E+04 -2.797348E+04  1.370492E+04  4.545990E+04
       303   6 -3.929712E+03  2.120692E+05  2.801081E+04 -8.414468E+04  7.937443E+03  2.134166E+04
       303   7 -6.126358E+04 -3.577583E+05 -3.891556E+04 -5.719066E+04  5.127089E+03  6.121065E+04
       303   8 -1.127298E+05 -2.127710E+05 -5.330696E+04 -1.985745E+04  1.370707E+04  4.471146E+04
       303   9 -6.669866E+04 -4.138974E+04 -3.259914E+04 -9.477803E+04  7.926209E+03  2.818892E+04
       303  10  2.230625E+05  7.821205E+05  2.424255E+05 -1.109280E+05 -3.353314E-12 -3.725084E-10
       303  11  9.091940E+04  6.093676E+05  1.427214E+05 -3.609537E+04 -5.627173E-10  2.968218E-10
       303  12  5.883492E+04  4.655872E+05  8.861597E+04 -7.350703E+04  7.204605E-10  9.136917E-11
       303  13  8.090971E+04  2.120308E+05  1.017633E+05 -8.404715E+04  1.612739E-10 -2.642370E-10
       303  14 -1.089960E+04  1.982197E+05  4.471109E+04 -2.797398E+04 -1.497534E-09 -2.550385E-10
       303  15 -3.929902E+03  2.120687E+05  2.800984E+04 -8.414481E+04  7.042531E-10 -8.773701E-10
       303  16 -6.126461E+04 -3.577623E+05 -3.892266E+04 -5.719092E+04  1.411431E-10  2.241535E-10
       303  17 -1.127306E+05 -2.127732E+05 -5.331107E+04 -1.985795E+04 -7.524417E-10 -2.285463E-10
       303  18 -6.669894E+04 -4.139061E+04 -3.260076E+04 -9.477821E+04 -2.227975E-10 -4.009764E-10
       303  19  2.230641E+05  7.821271E+05  2.424370E+05 -1.109276E+05 -5.101732E+03 -7.791525E+04
       303  20  9.092018E+04  6.093700E+05  1.427258E+05 -3.609486E+04 -1.370275E+04 -4.620884E+04
       303  21  5.883504E+04  4.655874E+05  8.861648E+04 -7.350694E+04 -7.948439E+03 -1.449160E+04
       303  22  8.091104E+04  2.120360E+05  1.017724E+05 -8.404686E+04 -5.114768E+03 -6.955914E+04
       303  23 -1.089884E+04  1.982220E+05  4.471532E+04 -2.797348E+04 -1.370492E+04 -4.545990E+04
       303  24 -3.929712E+03  2.120692E+05  2.801081E+04 -8.414468E+04 -7.937443E+03 -2.134166E+04
       303  25 -6.126358E+04 -3.577583E+05 -3.891556E+04 -5.719066E+04 -5.127089E+03 -6.121065E+04
       303  26 -1.127298E+05 -2.127710E+05 -5.330696E+04 -1.985745E+04 -1.370707E+04 -4.471146E+04
       303  27 -6.669866E+04 -4.138974E+04 -3.259914E+04 -9.477803E+04 -7.926209E+03 -2.818892E+04
       304   1  2.111819E+04  2.578927E+05  3.504915E+04 -8.667217E+04  1.917608E+03  1.403093E+04
       304   2 -2.755764E+04  9.833201E+04 -1.349190E+04 -2.835197E+04 -3.521405E+03  8.057867E+03
       304   3 -6.540895E+04 -5.812047E+04 -5.552979E+04 -8.258413E+04 -8.638221E+03  2.088059E+03
       304   4  8.429223E+03  2.066297E+05  2.290230E+04 -8.417242E+04  1.912784E+03  1.699403E+04
       304   5 -1.120958E+03  2.050689E+05  1.198132E+04 -2.790357E+04 -3.525670E+03  1.085120E+04
       304   6  1.843427E+02  2.066241E+05  7.684240E+03 -8.418537E+04 -8.641987E+03  4.710125E+03
       304   7 -4.259904E+03  1.553691E+05  1.075530E+04 -8.167289E+04  1.907983E+03  1.995689E+04
       304   8  2.531490E+04  3.118163E+05  3.745377E+04 -2.745509E+04 -3.529931E+03  1.364501E+04
       304   9  6.577257E+04  4.714329E+05  7.089337E+04 -8.578726E+04 -8.645766E+03  7.333304E+03
       304  10  2.111813E+04  2.578925E+05  3.504878E+04 -8.667219E+04  4.090081E-10 -6.311881E-10
       304  11 -2.755767E+04  9.833194E+04 -1.349205E+04 -2.835195E+04  5.426878E-10  2.272458E-10
       304  12 -6.540903E+04 -5.812050E+04 -5.552994E+04 -8.258412E+04 -8.827282E-10 -1.538003E-10
       304  13  8.429142E+03  2.066294E+05  2.290175E+04 -8.417245E+04  3.383897E-10 -4.604349E-10
       304  14 -1.121003E+03  2.050688E+05  1.198108E+04 -2.790354E+04  1.239379E-09 -5.727679E-10
       304  15  1.842565E+02  2.066240E+05  7.684058E+03 -8.418533E+04  1.143963E-09 -7.259886E-10
       304  16 -4.260015E+03  1.553687E+05  1.075455E+04 -8.167292E+04  2.764326E-10  3.332368E-10
       304  17  2.531484E+04  3.118161E+05  3.745340E+04 -2.745505E+04 -4.675973E-10 -1.063002E-10
       304  18  6.577248E+04  4.714328E+05  7.089313E+04 -8.578720E+04 -3.352540E-10 -5.699354E-11
       304  19  2.111819E+04  2.578927E+05  3.504915E+04 -8.667217E+04 -1.917608E+03 -1.403093E+04
       304  20 -2.755764E+04  9.833201E+04 -1.349190E+04 -2.835197E+04  3.521405E+03 -8.057867E+03
       304  21 -6.540895E+04 -5.812047E+04 -5.552979E+04 -8.258413E+04  8.638221E+03 -2.088059E+03
       304  22  8.429223E+03  2.066297E+05  2.290230E+04 -8.417242E+04 -1.912784E+03 -1.699403E+04
       304  23 -1.120958E+03  2.050689E+05  1.198132E+04 -2.790357E+04  3.525670E+03 -1.085120E+04
       304  24  1.843427E+02  2.066241E+05  7.684240E+03 -8.418537E+04  8.641987E+03 -4.710125E+03
       304  25 -4.259904E+03  1.553691E+05  1.075530E+04 -8.167289E+04 -1.907983E+03 -1.995689E+04
       304  26  2.531490E+04  3.118163E+05  3.745377E+04 -2.745509E+04  3.529931E+03 -1.364501E+04
       304  27  6.577257E+04  4.714329E+05  7.089337E+04 -8.578726E+04  8.645766E+03 -7.333304E+03
       305   1 -1.148873E+05 -2.606911E+05 -1.051502E+05 -8.433536E+04 -1.525955E+04 -4.510672E+03
       305   2 -1.554359E+05 -4.192632E+05 -1.445927E+05 -2.713441E+04 -2.087229E+04  3.215861E+03
       305   3 -1.914913E+05 -5.775493E+05 -1.879213E+05 -8.224925E+04 -7.476518E+03  1.095733E+04
       305   4  8.244985E+02  2.063359E+05  6.364452E+03 -8.412831E+04 -1.527000E+04  3.464348E+03
       305   5 -7.013492E+02  2.053149E+05  4.401273E+03 -2.797303E+04 -2.086883E+04  1.158636E+03
       305   6  4.006963E+03  2.062961E+05  5.520386E+03 -8.412632E+04 -7.467611E+03 -1.130004E+03
       305   7  1.165205E+05  6.735630E+05  1.178640E+05 -8.392102E+04 -1.528044E+04  1.144534E+04
       305   8  1.540050E+05  8.302508E+05  1.533679E+05 -2.881240E+04 -2.086537E+04 -9.006491E+02
       305   9  1.994595E+05  9.907006E+05  1.989171E+05 -8.600563E+04 -7.458638E+03 -1.323259E+04
       305  10 -1.148875E+05 -2.606912E+05 -1.051506E+05 -8.433542E+04 -1.010392E-11  3.837858E-11
       305  11 -1.554364E+05 -4.192633E+05 -1.445936E+05 -2.713436E+04  2.134182E-10  3.717360E-10
       305  12 -1.914914E+05 -5.775494E+05 -1.879216E+05 -8.224918E+04 -1.210552E-10 -4.315204E-11
       305  13  8.242449E+02  2.063358E+05  6.363991E+03 -8.412827E+04 -7.348268E-10 -1.734444E-10
       305  14 -7.018173E+02  2.053148E+05  4.400452E+03 -2.797301E+04  3.566248E-10 -1.714404E-10
       305  15  4.006903E+03  2.062961E+05  5.520279E+03 -8.412633E+04 -5.246650E-11 -2.852287E-10
       305  16  1.165202E+05  6.735628E+05  1.178633E+05 -8.392088E+04  5.257966E-10 -1.806683E-10
       305  17  1.540046E+05  8.302507E+05  1.533671E+05 -2.881242E+04 -8.635400E-11 -2.155381E-10
       305  18  1.994594E+05  9.907004E+05  1.989167E+05 -8.600571E+04 -2.628822E-10 -6.861178E-11
       305  19 -1.148873E+05 -2.606911E+05 -1.051502E+05 -8.433536E+04  1.525955E+04  4.510672E+03
       305  20 -1.554359E+05 -4.192632E+05 -1.445927E+05 -2.713441E+04  2.087229E+04 -3.215861E+03
       305  21 -1.914913E+05 -5.775493E+05 -1.879213E+05 -8.224925E+04  7.476518E+03 -1.095733E+04
       305  22  8.244985E+02  2.063359E+05  6.364452E+03 -8.412831E+04  1.527000E+04 -3.464348E+03
       305  23 -7.013492E+02  2.053149E+05  4.401273E+03 -2.797303E+04  2.086883E+04 -1.158636E+03
       305  24  4.006963E+03  2.062961E+05  5.520386E+03 -8.412632E+04  7.467611E+03  1.130004E+03
       305  25  1.165205E+05  6.735630E+05  1.178640E+05 -8.392102E+04  1.528044E+04 -1.144534E+04
       305  26  1.540050E+05  8.302508E+05  1.533679E+05 -2.881240E+04  2.086537E+04  9.006491E+02
       305  27  1.994595E+05  9.907006E+05  1.989171E+05 -8.600563E+04  7.458638E+03  1.323259E+04
       306   1 -1.619850E+06 -5.331565E+05 -3.396863E+05 -5.706036E+05 -1.603387E+05 -5.575285E+04
       306   2 -1.574331E+06 -2.936406E+05 -1.903685E+05 -5.875734E+05 -1.041060E+05 -2.552138E+04
       306   3 -1.606623E+06 -2.840292E+05 -1.449016E+05 -5.618273E+05 -4.459888E+04 -3.996076E+03
       306   4 -1.295542E+06 -3.570197E+05 -2.408327E+05 -4.271879E+05 -1.543139E+05 -5.350555E+04
       306   5 -1.244545E+06 -1.541952E+05 -1.005778E+05 -4.817085E+05 -1.023520E+05 -2.486616E+04
       306   6 -1.270467E+06 -1.803621E+05 -6.074272E+04 -4.935262E+05 -4.711638E+04 -4.939727E+03
       306   7 -9.711234E+05 -1.808375E+05 -1.419890E+05 -2.836932E+05 -1.482858E+05 -5.125562E+04
       306   8 -9.146523E+05 -1.473506E+04 -1.079701E+04 -3.757899E+05 -1.005970E+05 -2.421043E+04
       306   9 -9.342022E+05 -7.669638E+04  2.340748E+04 -4.251959E+05 -4.963537E+04 -5.883705E+03
       306  10 -1.619879E+06 -5.331668E+05 -3.397406E+05 -5.706108E+05  1.065654E-10 -1.490212E-11
       306  11 -1.574343E+06 -2.936442E+05 -1.903901E+05 -5.875755E+05 -1.196293E-09  8.118611E-11
       306  12 -1.606625E+06 -2.840297E+05 -1.449054E+05 -5.618274E+05 -2.306244E-10  3.785497E-11
       306  13 -1.295568E+06 -3.570291E+05 -2.408830E+05 -4.271946E+05  6.554074E-10 -1.747202E-10
       306  14 -1.244556E+06 -1.541987E+05 -1.005987E+05 -4.817105E+05  1.728294E-10 -3.261875E-10
       306  15 -1.270469E+06 -1.803628E+05 -6.074695E+04 -4.935264E+05 -9.136698E-11 -5.552468E-11
       306  16 -9.711478E+05 -1.808462E+05 -1.420354E+05 -2.836993E+05 -2.171851E-10 -1.538061E-10
       306  17 -9.146634E+05 -1.473842E+04 -1.081716E+04 -3.757919E+05  1.293713E-10  7.662852E-12
       306  18 -9.342048E+05 -7.669708E+04  2.340278E+04 -4.251961E+05 -1.448157E-10 -4.992661E-11
       306  19 -1.619850E+06 -5.331565E+05 -3.396863E+05 -5.706036E+05  1.603387E+05  5.575285E+04
       306  20 -1.574331E+06 -2.936406E+05 -1.903685E+05 -5.875734E+05  1.041060E+05  2.552138E+04
       306  21 -1.606623E+06 -2.840292E+05 -1.449016E+05 -5.618273E+05  4.459888E+04  3.996076E+03
       306  22 -1.295542E+06 -3.570197E+05 -2.408327E+05 -4.271879E+05  1.543139E+05  5.350555E+04
       306  23 -1.244545E+06 -1.541952E+05 -1.005778E+05 -4.817085E+05  1.023520E+05  2.486616E+04
       306  24 -1.270467E+06 -1.803621E+05 -6.074272E+04 -4.935262E+05  4.711638E+04  4.939727E+03
       306  25 -9.711234E+05 -1.808375E+05 -1.419890E+05 -2.836932E+05  1.482858E+05  5.125562E+04
       306  26 -9.146523E+05 -1.473506E+04 -1.079701E+04 -3.757899E+05  1.005970E+05  2.421043E+04
       306  27 -9.342022E+05 -7.669638E+04  2.340748E+04 -4.251959E+05  4.963537E+04  5.883705E+03
       307   1 -1.546804E+06 -3.176302E+05 -1.255091E+05 -5.624540E+05 -3.784031E+04 -3.525955E+03
       307   2 -1.526018E+06 -2.782153E+05 -9.346472E+04 -5.516814E+05 -2.503669E+04  8.813743E+02
       307   3 -1.502528E+06 -2.753314E+05 -7.723765E+04 -5.501254E+05 -1.197116E+04  4.591523E+03
       307   4 -1.262363E+06 -2.054844E+05 -4.937310E+04 -4.795652E+05 -3.785144E+04 -3.530858E+03
       307   5 -1.262414E+06 -1.778387E+05 -2.373740E+04 -4.784849E+05 -2.538631E+04  7.498674E+02
       307   6 -1.259691E+06 -1.866503E+05 -1.364470E+04 -4.866220E+05 -1.265982E+04  4.333174E+03
       307   7 -9.778427E+05 -9.333118E+04  2.675595E+04 -3.966410E+05 -3.786257E+04 -3.535762E+03
       307   8 -9.987427E+05 -7.745731E+04  4.598402E+04 -4.052601E+05 -2.573609E+04  6.182979E+02
       307   9 -1.016796E+06 -9.796645E+04  4.994327E+04 -4.230966E+05 -1.334876E+04  4.074722E+03
       307  10 -1.546805E+06 -3.176306E+05 -1.255118E+05 -5.624541E+05 -1.060067E-10  8.732067E-11
       307  11 -1.526019E+06 -2.782155E+05 -9.346590E+04 -5.516814E+05 -2.039345E-10 -3.214176E-11
       307  12 -1.502528E+06 -2.753315E+05 -7.723796E+04 -5.501253E+05  4.318770E-10  1.293828E-10
       307  13 -1.262364E+06 -2.054848E+05 -4.937582E+04 -4.795653E+05  2.469418E-10 -2.034389E-10
       307  14 -1.262415E+06 -1.778389E+05 -2.373861E+04 -4.784849E+05 -5.298495E-10 -1.594350E-10
       307  15 -1.259691E+06 -1.866504E+05 -1.364504E+04 -4.866220E+05  3.752579E-10  1.301690E-10
       307  16 -9.778443E+05 -9.333158E+04  2.675323E+04 -3.966411E+05 -2.006669E-10 -2.279014E-10
       307  17 -9.987434E+05 -7.745749E+04  4.598278E+04 -4.052601E+05 -2.295622E-10 -2.259702E-11
       307  18 -1.016796E+06 -9.796651E+04  4.994290E+04 -4.230966E+05 -3.991122E-10  6.212560E-11
       307  19 -1.546804E+06 -3.176302E+05 -1.255091E+05 -5.624540E+05  3.784031E+04  3.525955E+03
       307  20 -1.526018E+06 -2.782153E+05 -9.346472E+04 -5.516814E+05  2.503669E+04 -8.813743E+02
       307  21 -1.502528E+06 -2.753314E+05 -7.723765E+04 -5.501254E+05  1.197116E+04 -4.591523E+03
       307  22 -1.262363E+06 -2.054844E+05 -4.937310E+04 -4.795652E+05  3.785144E+04  3.530858E+03
       307  23 -1.262414E+06 -1.778387E+05 -2.373740E+04 -4.784849E+05  2.538631E+04 -7.498674E+02
       307  24 -1.259691E+06 -1.866503E+05 -1.364470E+04 -4.866220E+05  1.265982E+04 -4.333174E+03
       307  25 -9.778427E+05 -9.333118E+04  2.675595E+04 -3.966410E+05  3.786257E+04  3.535762E+03
       307  26 -9.987427E+05 -7.745731E+04  4.598402E+04 -4.052601E+05  2.573609E+04 -6.182979E+02
       307  27 -1.016796E+06 -9.796645E+04  4.994327E+04 -4.230966E+05  1.334876E+04 -4.074722E+03
       308   1 -1.465501E+06 -2.675690E+05 -6.519448E+04 -5.420691E+05 -9.928871E+03  4.529776E+03
       308   2 -1.446854E+06 -2.487134E+05 -5.354272E+04 -5.276274E+05 -6.696821E+03  4.545173E+03
       308   3 -1.415625E+06 -2.462249E+05 -4.467550E+04 -5.285152E+05 -3.437852E+03  4.487652E+03
       308   4 -1.258526E+06 -1.894221E+05 -1.063937E+04 -4.852650E+05 -1.043002E+04  4.341765E+03
       308   5 -1.264678E+06 -1.802477E+05 -5.524584E+03 -4.779718E+05 -7.233010E+03  4.344160E+03
       308   6 -1.258242E+06 -1.874330E+05 -3.165749E+03 -4.860083E+05 -4.009198E+03  4.273601E+03
       308   7 -1.051510E+06 -1.112726E+05  4.391189E+04 -4.284440E+05 -1.093136E+04  4.153684E+03
       308   8 -1.082471E+06 -1.117800E+05  4.249071E+04 -4.283031E+05 -7.769372E+03  4.143082E+03
       308   9 -1.100835E+06 -1.286394E+05  3.834200E+04 -4.434916E+05 -4.580704E+03  4.059490E+03
       308  10 -1.465502E+06 -2.675691E+05 -6.519470E+04 -5.420690E+05  5.774580E-10  2.022446E-10
       308  11 -1.446854E+06 -2.487134E+05 -5.354285E+04 -5.276273E+05  4.879150E-11  2.019690E-11
       308  12 -1.415625E+06 -2.462250E+05 -4.467556E+04 -5.285152E+05  6.023221E-11 -9.716704E-11
       308  13 -1.258526E+06 -1.894221E+05 -1.063961E+04 -4.852650E+05  2.408298E-10 -4.680440E-11
       308  14 -1.264678E+06 -1.802477E+05 -5.524718E+03 -4.779718E+05 -7.769611E-11 -4.219349E-11
       308  15 -1.258242E+06 -1.874330E+05 -3.165814E+03 -4.860083E+05  1.289913E-10 -2.347244E-10
       308  16 -1.051510E+06 -1.112727E+05  4.391163E+04 -4.284439E+05 -6.077691E-11  2.913766E-10
       308  17 -1.082471E+06 -1.117801E+05  4.249056E+04 -4.283031E+05 -2.699585E-11  2.842736E-10
       308  18 -1.100835E+06 -1.286394E+05  3.834193E+04 -4.434916E+05  2.019120E-10  2.101898E-10
       308  19 -1.465501E+06 -2.675690E+05 -6.519448E+04 -5.420691E+05  9.928871E+03 -4.529776E+03
       308  20 -1.446854E+06 -2.487134E+05 -5.354272E+04 -5.276274E+05  6.696821E+03 -4.545173E+03
       308  21 -1.415625E+06 -2.462249E+05 -4.467550E+04 -5.285152E+05  3.437852E+03 -4.487652E+03
       308  22 -1.258526E+06 -1.894221E+05 -1.063937E+04 -4.852650E+05  1.043002E+04 -4.341765E+03
       308  23 -1.264678E+06 -1.802477E+05 -5.524584E+03 -4.779718E+05  7.233010E+03 -4.344160E+03
       308  24 -1.258242E+06 -1.874330E+05 -3.165749E+03 -4.860083E+05  4.009198E+03 -4.273601E+03
       308  25 -1.051510E+06 -1.112726E+05  4.391189E+04 -4.284440E+05  1.093136E+04 -4.153684E+03
       308  26 -1.082471E+06 -1.117800E+05  4.249071E+04 -4.283031E+05  7.769372E+03 -4.143082E+03
       308  27 -1.100835E+06 -1.286394E+05  3.834200E+04 -4.434916E+05  4.580704E+03 -4.059490E+03
       309   1 -1.379845E+06 -2.335350E+05 -3.448358E+04 -5.191368E+05 -2.736921E+03  3.987172E+03
       309   2 -1.360959E+06 -2.163798E+05 -2.675551E+04 -5.038771E+05 -1.554888E+03  3.128175E+03
       309   3 -1.327943E+06 -2.138423E+05 -1.966398E+04 -5.050179E+05 -3.674025E+02  2.253839E+03
       309   4 -1.258003E+06 -1.878021E+05 -2.471959E+03 -4.859616E+05 -3.296643E+03  3.777541E+03
       309   5 -1.265054E+06 -1.803973E+05 -1.489226E+03 -4.777972E+05 -2.122020E+03  2.915837E+03
       309   6 -1.257974E+06 -1.876083E+05 -1.136973E+03 -4.860334E+05 -9.419819E+02  2.038786E+03
       309   7 -1.136146E+06 -1.420684E+05  2.953839E+04 -4.527804E+05 -3.856486E+03  3.567865E+03
       309   8 -1.169140E+06 -1.444143E+05  2.377623E+04 -4.517137E+05 -2.689248E+03  2.703464E+03
       309   9 -1.188001E+06 -1.613741E+05  1.738955E+04 -4.670471E+05 -1.516631E+03  1.823707E+03
       309  10 -1.379845E+06 -2.335350E+05 -3.448362E+04 -5.191368E+05 -7.104943E-10 -1.512775E-10
       309  11 -1.360959E+06 -2.163798E+05 -2.675553E+04 -5.038771E+05  1.061800E-09  4.525970E-10
       309  12 -1.327943E+06 -2.138423E+05 -1.966399E+04 -5.050179E+05  6.178004E-10  3.013412E-10
       309  13 -1.258003E+06 -1.878022E+05 -2.472006E+03 -4.859616E+05  3.073073E-10 -3.867275E-10
       309  14 -1.265054E+06 -1.803973E+05 -1.489251E+03 -4.777972E+05  9.748647E-11  3.794035E-10
       309  15 -1.257974E+06 -1.876083E+05 -1.136983E+03 -4.860334E+05 -3.931547E-10 -3.051595E-10
       309  16 -1.136146E+06 -1.420684E+05  2.953834E+04 -4.527804E+05  4.636770E-10  6.366993E-11
       309  17 -1.169140E+06 -1.444143E+05  2.377620E+04 -4.517137E+05 -5.059392E-10 -2.034806E-10
       309  18 -1.188001E+06 -1.613741E+05  1.738954E+04 -4.670471E+05 -2.405724E-11 -7.644546E-10
       309  19 -1.379845E+06 -2.335350E+05 -3.448358E+04 -5.191368E+05  2.736921E+03 -3.987172E+03
       309  20 -1.360959E+06 -2.163798E+05 -2.675551E+04 -5.038771E+05  1.554888E+03 -3.128175E+03
       309  21 -1.327943E+06 -2.138423E+05 -1.966398E+04 -5.050179E+05  3.674025E+02 -2.253839E+03
       309  22 -1.258003E+06 -1.878021E+05 -2.471959E+03 -4.859616E+05  3.296643E+03 -3.777541E+03
       309  23 -1.265054E+06 -1.803973E+05 -1.489226E+03 -4.777972E+05  2.122020E+03 -2.915837E+03
       309  24 -1.257974E+06 -1.876083E+05 -1.136973E+03 -4.860334E+05  9.419819E+02 -2.038786E+03
       309  25 -1.136146E+06 -1.420684E+05  2.953839E+04 -4.527804E+05  3.856486E+03 -3.567865E+03
       309  26 -1.169140E+06 -1.444143E+05  2.377623E+04 -4.517137E+05  2.689248E+03 -2.703464E+03
       309  27 -1.188001E+06 -1.613741E+05  1.738955E+04 -4.670471E+05  1.516631E+03 -1.823707E+03
       310   1 -1.291680E+06 -2.003248E+05 -9.909267E+03 -4.952894E+05  7.342653E+01  1.644808E+03
       310   2 -1.272573E+06 -1.831535E+05 -3.316660E+03 -4.797724E+05  1.184942E+03  7.323679E+02
       310   3 -1.239148E+06 -1.807458E+05  2.704421E+03 -4.808788E+05  2.295733E+03 -1.780933E+02
       310   4 -1.257934E+06 -1.876539E+05 -1.113480E+03 -4.860778E+05 -5.020962E+02  1.429429E+03
       310   5 -1.265103E+06 -1.803476E+05 -1.348000E+03 -4.777376E+05  6.103891E+02  5.173538E+02
       310   6 -1.257955E+06 -1.878052E+05 -2.154915E+03 -4.860213E+05  1.722116E+03 -3.927509E+02
       310   7 -1.224186E+06 -1.749830E+05  7.682240E+03 -4.768657E+05 -1.077655E+03  1.214036E+03
       310   8 -1.257632E+06 -1.775417E+05  6.206608E+02 -4.757028E+05  3.582717E+01  3.023365E+02
       310   9 -1.276761E+06 -1.948647E+05 -7.014280E+03 -4.911635E+05  1.148517E+03 -6.074012E+02
       310  10 -1.291680E+06 -2.003248E+05 -9.909272E+03 -4.952894E+05 -2.418306E-11  7.049013E-11
       310  11 -1.272573E+06 -1.831535E+05 -3.316664E+03 -4.797724E+05  3.068360E-10  2.445331E-10
       310  12 -1.239148E+06 -1.807458E+05  2.704411E+03 -4.808788E+05 -6.679421E-10 -5.825928E-10
       310  13 -1.257934E+06 -1.876539E+05 -1.113484E+03 -4.860778E+05  5.593089E-10 -3.279319E-10
       310  14 -1.265103E+06 -1.803476E+05 -1.348001E+03 -4.777376E+05  2.289370E-10  6.257103E-10
       310  15 -1.257955E+06 -1.878052E+05 -2.154921E+03 -4.860213E+05 -4.904414E-10  3.527019E-10
       310  16 -1.224186E+06 -1.749830E+05  7.682235E+03 -4.768657E+05  2.632772E-10 -5.898888E-10
       310  17 -1.257632E+06 -1.775417E+05  6.206606E+02 -4.757028E+05 -5.603732E-11 -8.105508E-10
       310  18 -1.276761E+06 -1.948647E+05 -7.014283E+03 -4.911635E+05  5.360481E-10  5.611019E-10
       310  19 -1.291680E+06 -2.003248E+05 -9.909267E+03 -4.952894E+05 -7.342653E+01 -1.644808E+03
       310  20 -1.272573E+06 -1.831535E+05 -3.316660E+03 -4.797724E+05 -1.184942E+03 -7.323679E+02
       310  21 -1.239148E+06 -1.807458E+05  2.704421E+03 -4.808788E+05 -2.295733E+03  1.780933E+02
       310  22 -1.257934E+06 -1.876539E+05 -1.113480E+03 -4.860778E+05  5.020962E+02 -1.429429E+03
       310  23 -1.265103E+06 -1.803476E+05 -1.348000E+03 -4.777376E+05 -6.103891E+02 -5.173538E+02
       310  24 -1.257955E+06 -1.878052E+05 -2.154915E+03 -4.860213E+05 -1.722116E+03  3.927509E+02
       310  25 -1.224186E+06 -1.749830E+05  7.682240E+03 -4.768657E+05  1.077655E+03 -1.214036E+03
       310  26 -1.257632E+06 -1.775417E+05  6.206608E+02 -4.757028E+05 -3.582717E+01 -3.023365E+02
       310  27 -1.276761E+06 -1.948647E+05 -7.014280E+03 -4.911635E+05 -1.148517E+03  6.074012E+02
       311   1 -1.202863E+06 -1.670692E+05  1.186271E+04 -4.713811E+05  2.963986E+03 -7.084514E+02
       311   2 -1.183782E+06 -1.496573E+05  1.663067E+04 -4.556809E+05  5.778795E+03 -9.763354E+02
       311   3 -1.151427E+06 -1.487770E+05  1.904714E+04 -4.560316E+05  8.575619E+03 -1.195221E+03
       311   4 -1.258099E+06 -1.875568E+05 -2.739237E+03 -4.861348E+05  2.379741E+03 -9.271030E+02
       311   5 -1.264853E+06 -1.801351E+05 -4.736763E+03 -4.777930E+05  5.218367E+03 -1.186134E+03
       311   6 -1.258340E+06 -1.892501E+05 -9.104923E+03 -4.855025E+05  8.038906E+03 -1.396203E+03
       311   7 -1.313331E+06 -2.080441E+05 -1.734140E+04 -5.008873E+05  1.795554E+03 -1.145733E+03
       311   8 -1.345918E+06 -2.106124E+05 -2.610475E+04 -4.999025E+05  4.658019E+03 -1.395903E+03
       311   9 -1.365241E+06 -2.297225E+05 -3.725804E+04 -5.149688E+05  7.502292E+03 -1.597147E+03
       311  10 -1.202863E+06 -1.670692E+05  1.186269E+04 -4.713811E+05 -1.254299E-09 -5.800860E-10
       311  11 -1.183782E+06 -1.496573E+05  1.663060E+04 -4.556809E+05 -5.128712E-10  8.966300E-10
       311  12 -1.151427E+06 -1.487770E+05  1.904700E+04 -4.560316E+05 -3.133491E-10  4.756550E-10
       311  13 -1.258099E+06 -1.875568E+05 -2.739249E+03 -4.861348E+05 -3.207681E-10  3.456981E-10
       311  14 -1.264853E+06 -1.801351E+05 -4.736817E+03 -4.777930E+05 -6.838189E-10  1.452407E-10
       311  15 -1.258340E+06 -1.892501E+05 -9.105048E+03 -4.855025E+05  1.124201E-10 -1.571353E-10
       311  16 -1.313331E+06 -2.080441E+05 -1.734141E+04 -5.008873E+05  1.249010E-09  1.083245E-09
       311  17 -1.345918E+06 -2.106124E+05 -2.610480E+04 -4.999025E+05  4.554106E-10  4.887530E-10
       311  18 -1.365241E+06 -2.297225E+05 -3.725815E+04 -5.149688E+05  3.654194E-10  3.694258E-10
       311  19 -1.202863E+06 -1.670692E+05  1.186271E+04 -4.713811E+05 -2.963986E+03  7.084514E+02
       311  20 -1.183782E+06 -1.496573E+05  1.663067E+04 -4.556809E+05 -5.778795E+03  9.763354E+02
       311  21 -1.151427E+06 -1.487770E+05  1.904714E+04 -4.560316E+05 -8.575619E+03  1.195221E+03
       311  22 -1.258099E+06 -1.875568E+05 -2.739237E+03 -4.861348E+05 -2.379741E+03  9.271030E+02
       311  23 -1.264853E+06 -1.801351E+05 -4.736763E+03 -4.777930E+05 -5.218367E+03  1.186134E+03
       311  24 -1.258340E+06 -1.892501E+05 -9.104923E+03 -4.855025E+05 -8.038906E+03  1.396203E+03
       311  25 -1.313331E+06 -2.080441E+05 -1.734140E+04 -5.008873E+05 -1.795554E+03  1.145733E+03
       311  26 -1.345918E+06 -2.106124E+05 -2.610475E+04 -4.999025E+05 -4.658019E+03  1.395903E+03
       311  27 -1.365241E+06 -2.297225E+05 -3.725804E+04 -5.149688E+05 -7.502292E+03  1.597147E+03
       312   1 -1.115008E+06 -1.349468E+05  2.600654E+04 -4.497159E+05  1.067362E+04 -1.251042E+03
       312   2 -1.095866E+06 -1.141472E+05  2.394409E+04 -4.315014E+05  2.137743E+04  1.487660E+03
       312   3 -1.071570E+06 -1.272482E+05  8.790857E+03 -4.243945E+05  3.188236E+04  4.759313E+03
       312   4 -1.259287E+06 -1.869339E+05 -1.167290E+04 -4.867215E+05  9.991123E+03 -1.506627E+03
       312   5 -1.262976E+06 -1.780068E+05 -2.029091E+04 -4.781554E+05  2.095509E+04  1.329299E+03
       312   6 -1.261565E+06 -2.030358E+05 -4.220900E+04 -4.806971E+05  3.171973E+04  4.697948E+03
       312   7 -1.403546E+06 -2.389202E+05 -4.935408E+04 -5.237195E+05  9.308799E+03 -1.762152E+03
       312   8 -1.430058E+06 -2.418643E+05 -6.452827E+04 -5.247978E+05  2.053288E+04  1.170987E+03
       312   9 -1.451524E+06 -2.788197E+05 -9.321190E+04 -5.369835E+05  3.155715E+04  4.636607E+03
       312  10 -1.115008E+06 -1.349469E+05  2.600632E+04 -4.497159E+05 -5.112750E-10 -1.717811E-10
       312  11 -1.095867E+06 -1.141474E+05  2.394323E+04 -4.315014E+05  6.699295E-11 -2.004327E-10
       312  12 -1.071571E+06 -1.272485E+05  8.788901E+03 -4.243946E+05 -5.642909E-10 -3.890847E-10
       312  13 -1.259287E+06 -1.869340E+05 -1.167309E+04 -4.867215E+05 -3.222167E-10 -2.238926E-10
       312  14 -1.262977E+06 -1.780069E+05 -2.029175E+04 -4.781554E+05  7.834976E-10  6.623604E-11
       312  15 -1.261566E+06 -2.030361E+05 -4.221094E+04 -4.806972E+05 -1.873316E-10 -2.303034E-10
       312  16 -1.403546E+06 -2.389202E+05 -4.935425E+04 -5.237195E+05  1.548310E-10 -3.413920E-10
       312  17 -1.430059E+06 -2.418644E+05 -6.452907E+04 -5.247978E+05  7.698362E-10  5.198800E-11
       312  18 -1.451525E+06 -2.788200E+05 -9.321381E+04 -5.369836E+05  6.407728E-10  3.182468E-11
       312  19 -1.115008E+06 -1.349468E+05  2.600654E+04 -4.497159E+05 -1.067362E+04  1.251042E+03
       312  20 -1.095866E+06 -1.141472E+05  2.394409E+04 -4.315014E+05 -2.137743E+04 -1.487660E+03
       312  21 -1.071570E+06 -1.272482E+05  8.790857E+03 -4.243945E+05 -3.188236E+04 -4.759313E+03
       312  22 -1.259287E+06 -1.869339E+05 -1.167290E+04 -4.867215E+05 -9.991123E+03  1.506627E+03
       312  23 -1.262976E+06 -1.780068E+05 -2.029091E+04 -4.781554E+05 -2.095509E+04 -1.329299E+03
       312  24 -1.261565E+06 -2.030358E+05 -4.220900E+04 -4.806971E+05 -3.171973E+04 -4.697948E+03
       312  25 -1.403546E+06 -2.389202E+05 -4.935408E+04 -5.237195E+05 -9.308799E+03  1.762152E+03
       312  26 -1.430058E+06 -2.418643E+05 -6.452827E+04 -5.247978E+05 -2.053288E+04 -1.170987E+03
       312  27 -1.451524E+06 -2.788197E+05 -9.321190E+04 -5.369835E+05 -3.155715E+04 -4.636607E+03
       313   1 -1.027054E+06 -1.103350E+05  7.900606E+03 -4.469175E+05  4.175151E+04  6.650156E+03
       313   2 -1.006340E+06 -5.391274E+04 -1.993582E+04 -4.014945E+05  8.577523E+04  2.216311E+04
       313   3 -1.047727E+06 -1.955827E+05 -1.309886E+05 -3.230906E+05  1.272826E+05  4.439576E+04
       313   4 -1.268465E+06 -1.815910E+05 -5.192853E+04 -4.926655E+05  3.965431E+04  5.865493E+03
       313   5 -1.247753E+06 -1.577364E+05 -8.597388E+04 -4.808465E+05  8.697568E+04  2.261073E+04
       313   6 -1.289828E+06 -3.326800E+05 -2.058782E+05 -4.360406E+05  1.317797E+05  4.607102E+04
       313   7 -1.509821E+06 -2.528483E+05 -1.117621E+05 -5.384001E+05  3.755801E+04  5.080998E+03
       313   8 -1.489108E+06 -2.615511E+05 -1.520172E+05 -5.601687E+05  8.817561E+04  2.305809E+04
       313   9 -1.531865E+06 -4.697468E+05 -2.807728E+05 -5.489427E+05  1.362749E+05  4.774470E+04
       313  10 -1.027056E+06 -1.103356E+05  7.897241E+03 -4.469177E+05  6.706702E-11  7.953278E-11
       313  11 -1.006348E+06 -5.391525E+04 -1.995060E+04 -4.014960E+05  2.055008E-09  6.232437E-10
       313  12 -1.047745E+06 -1.955892E+05 -1.310228E+05 -3.230952E+05  7.273885E-10  2.981836E-10
       313  13 -1.268467E+06 -1.815915E+05 -5.193156E+04 -4.926657E+05  3.791103E-10 -1.510855E-10
       313  14 -1.247761E+06 -1.577390E+05 -8.598909E+04 -4.808481E+05  1.659123E-09  4.441532E-10
       313  15 -1.289847E+06 -3.326870E+05 -2.059149E+05 -4.360455E+05  7.680891E-10  8.168820E-11
       313  16 -1.509822E+06 -2.528487E+05 -1.117648E+05 -5.384002E+05  1.022081E-09 -3.064023E-10
       313  17 -1.489117E+06 -2.615538E+05 -1.520328E+05 -5.601704E+05  1.462131E-09  3.479119E-10
       313  18 -1.531886E+06 -4.697542E+05 -2.808121E+05 -5.489480E+05  3.822678E-10 -5.936124E-12
       313  19 -1.027054E+06 -1.103350E+05  7.900606E+03 -4.469175E+05 -4.175151E+04 -6.650156E+03
       313  20 -1.006340E+06 -5.391274E+04 -1.993582E+04 -4.014945E+05 -8.577523E+04 -2.216311E+04
       313  21 -1.047727E+06 -1.955827E+05 -1.309886E+05 -3.230906E+05 -1.272826E+05 -4.439576E+04
       313  22 -1.268465E+06 -1.815910E+05 -5.192853E+04 -4.926655E+05 -3.965431E+04 -5.865493E+03
       313  23 -1.247753E+06 -1.577364E+05 -8.597388E+04 -4.808465E+05 -8.697568E+04 -2.261073E+04
       313  24 -1.289828E+06 -3.326800E+05 -2.058782E+05 -4.360406E+05 -1.317797E+05 -4.607102E+04
       313  25 -1.509821E+06 -2.528483E+05 -1.117621E+05 -5.384001E+05 -3.755801E+04 -5.080998E+03
       313  26 -1.489108E+06 -2.615511E+05 -1.520172E+05 -5.601687E+05 -8.817561E+04 -2.305809E+04
       313  27 -1.531865E+06 -4.697468E+05 -2.807728E+05 -5.489427E+05 -1.362749E+05 -4.774470E+04
       314   1  1.284478E+06  2.726047E+05  3.969873E+05  1.214472E+05  3.928254E+05  9.023445E+03
       314   2  1.268897E+06 -2.450419E+05  8.578515E+04  3.633940E+04  2.619645E+05  2.481481E+04
       314   3  1.414099E+06 -1.905858E+05  2.912599E+03 -9.478451E+04  1.311173E+05  2.276735E+04
       314   4  2.083589E+06  4.705862E+05  5.934191E+05 -3.130356E+04  4.064372E+05  8.953749E+03
       314   5  2.002717E+06 -6.377342E+04  2.604848E+05 -7.819234E+03  2.659579E+05  2.480060E+04
       314   6  2.084065E+06 -2.477411E+04  1.623361E+05 -3.035142E+04  1.255086E+05  2.277226E+04
       314   7  2.883330E+06  6.686086E+05  7.898173E+05 -1.842510E+05  4.200662E+05  8.877463E+03
       314   8  2.737034E+06  1.174638E+05  4.351479E+05 -5.203041E+04  2.699559E+05  2.478583E+04
       314   9  2.754451E+06  1.410208E+05  3.217305E+05  3.415127E+04  1.198938E+05  2.277600E+04
       314  10  1.284313E+06  2.725632E+05  3.966977E+05  1.214443E+05 -5.848083E-10  7.881986E-10
       314  11  1.268823E+06 -2.450609E+05  8.565532E+04  3.633417E+04 -1.842751E-09 -2.917796E-10
       314  12  1.414080E+06 -1.905910E+05  2.879391E+03 -9.478691E+04  7.580358E-10  2.450968E-11
       314  13  2.083412E+06  4.705419E+05  5.931095E+05 -3.130648E+04 -3.211375E-10  3.400765E-10
       314  14  2.002641E+06 -6.379299E+04  2.603512E+05 -7.824541E+03 -1.906305E-09 -1.823435E-09
       314  15  2.084048E+06 -2.477888E+04  1.623056E+05 -3.035372E+04 -3.869247E-10 -3.418037E-10
       314  16  2.883141E+06  6.685614E+05  7.894871E+05 -1.842540E+05  8.237325E-10  1.265703E-10
       314  17  2.736956E+06  1.174437E+05  4.350104E+05 -5.203579E+04 -6.852105E-11  2.951111E-10
       314  18  2.754435E+06  1.410164E+05  3.217026E+05  3.414908E+04 -6.939245E-10 -7.197974E-10
       314  19  1.284478E+06  2.726047E+05  3.969873E+05  1.214472E+05 -3.928254E+05 -9.023445E+03
       314  20  1.268897E+06 -2.450419E+05  8.578515E+04  3.633940E+04 -2.619645E+05 -2.481481E+04
       314  21  1.414099E+06 -1.905858E+05  2.912599E+03 -9.478451E+04 -1.311173E+05 -2.276735E+04
       314  22  2.083589E+06  4.705862E+05  5.934191E+05 -3.130356E+04 -4.064372E+05 -8.953749E+03
       314  23  2.002717E+06 -6.377342E+04  2.604848E+05 -7.819234E+03 -2.659579E+05 -2.480060E+04
       314  24  2.084065E+06 -2.477411E+04  1.623361E+05 -3.035142E+04 -1.255086E+05 -2.277226E+04
       314  25  2.883330E+06  6.686086E+05  7.898173E+05 -1.842510E+05 -4.200662E+05 -8.877463E+03
       314  26  2.737034E+06  1.174638E+05  4.351479E+05 -5.203041E+04 -2.699559E+05 -2.478583E+04
       314  27  2.754451E+06  1.410208E+05  3.217305E+05  3.415127E+04 -1.198938E+05 -2.277600E+04
       315   1  1.460253E+06 -9.879296E+04 -9.036646E+03 -1.626875E+04  1.006255E+05  1.873430E+04
       315   2  1.509509E+06 -1.385843E+05 -5.937444E+04 -5.556456E+03  6.666271E+04  1.753061E+04
       315   3  1.578191E+06 -1.198079E+05 -7.291161E+04 -3.680174E+04  3.269692E+04  1.513972E+04
       315   4  2.052269E+06  4.760757E+04  1.322639E+05 -2.975678E+04  1.003859E+05  1.873063E+04
       315   5  2.042553E+06 -6.790153E+03  6.761287E+04 -8.756689E+03  6.576467E+04  1.752858E+04
       315   6  2.052355E+06 -2.535225E+03  4.019309E+04 -2.971102E+04  3.114373E+04  1.513867E+04
       315   7  2.644605E+06  1.939835E+05  2.735399E+05 -4.325777E+04  1.001459E+05  1.872697E+04
       315   8  2.575856E+06  1.249836E+05  1.945803E+05 -1.195972E+04  6.486584E+04  1.752656E+04
       315   9  2.526724E+06  1.147214E+05  1.532821E+05 -2.261490E+04  2.958936E+04  1.513759E+04
       315  10  1.460242E+06 -9.879605E+04 -9.056289E+03 -1.627027E+04 -9.216281E-10 -8.582258E-10
       315  11  1.509504E+06 -1.385858E+05 -5.938335E+04 -5.557397E+03 -2.995566E-10  2.721860E-10
       315  12  1.578190E+06 -1.198084E+05 -7.291405E+04 -3.680213E+04 -1.088057E-10  5.945571E-12
       315  13  2.052258E+06  4.760450E+04  1.322443E+05 -2.975829E+04 -1.094106E-09 -7.064173E-10
       315  14  2.042548E+06 -6.791639E+03  6.760419E+04 -8.757616E+03 -7.499514E-10 -4.700234E-10
       315  15  2.052354E+06 -2.535731E+03  4.019085E+04 -2.971140E+04 -1.262407E-09 -3.133875E-10
       315  16  2.644594E+06  1.939805E+05  2.735205E+05 -4.325928E+04  8.495878E-10 -2.421419E-12
       315  17  2.575852E+06  1.249821E+05  1.945718E+05 -1.196064E+04 -1.304390E-09 -1.135049E-09
       315  18  2.526723E+06  1.147209E+05  1.532800E+05 -2.261526E+04  9.592035E-11  1.188824E-10
       315  19  1.460253E+06 -9.879296E+04 -9.036646E+03 -1.626875E+04 -1.006255E+05 -1.873430E+04
       315  20  1.509509E+06 -1.385843E+05 -5.937444E+04 -5.556456E+03 -6.666271E+04 -1.753061E+04
       315  21  1.578191E+06 -1.198079E+05 -7.291161E+04 -3.680174E+04 -3.269692E+04 -1.513972E+04
       315  22  2.052269E+06  4.760757E+04  1.322639E+05 -2.975678E+04 -1.003859E+05 -1.873063E+04
       315  23  2.042553E+06 -6.790153E+03  6.761287E+04 -8.756689E+03 -6.576467E+04 -1.752858E+04
       315  24  2.052355E+06 -2.535225E+03  4.019309E+04 -2.971102E+04 -3.114373E+04 -1.513867E+04
       315  25  2.644605E+06  1.939835E+05  2.735399E+05 -4.325777E+04 -1.001459E+05 -1.872697E+04
       315  26  2.575856E+06  1.249836E+05  1.945803E+05 -1.195972E+04 -6.486584E+04 -1.752656E+04
       315  27  2.526724E+06  1.147214E+05  1.532821E+05 -2.261490E+04 -2.958936E+04 -1.513759E+04
       316   1  1.647100E+06 -9.455801E+04 -6.408541E+04 -2.828092E+04  2.596540E+04  1.358014E+04
       316   2  1.701079E+06 -8.635264E+04 -6.517168E+04 -9.398015E+03  1.731973E+04  1.134155E+04
       316   3  1.757810E+06 -7.217892E+04 -5.911889E+04 -2.993313E+04  8.671657E+03  9.061730E+03
       316   4  2.048637E+06  4.688471E+03  3.142772E+04 -2.916083E+04  2.480364E+04  1.357920E+04
       316   5  2.047272E+06 -7.622618E+02  1.729947E+04 -9.452085E+03  1.613100E+04  1.134102E+04
       316   6  2.048659E+06 -2.422968E+02  1.032529E+04 -2.915991E+04  7.456728E+03  9.061609E+03
       316   7  2.450322E+06  1.039234E+05  1.269296E+05 -3.004132E+04  2.364113E+04  1.357826E+04
       316   8  2.393576E+06  8.481950E+04  9.976224E+04 -9.506186E+03  1.494162E+04  1.134050E+04
       316   9  2.339586E+06  7.168823E+04  7.976352E+04 -2.838632E+04  6.241233E+03  9.061484E+03
       316  10  1.647100E+06 -9.455838E+04 -6.408702E+04 -2.828120E+04  7.311874E-10  2.708291E-10
       316  11  1.701078E+06 -8.635286E+04 -6.517248E+04 -9.398173E+03 -6.728676E-10 -5.709170E-11
       316  12  1.757810E+06 -7.217903E+04 -5.911918E+04 -2.993319E+04 -1.453178E-09  2.751751E-10
       316  13  2.048637E+06  4.688108E+03  3.142622E+04 -2.916110E+04  2.189030E-10  5.091748E-12
       316  14  2.047272E+06 -7.624696E+02  1.729874E+04 -9.452232E+03 -2.058886E-10 -7.812681E-11
       316  15  2.048659E+06 -2.424000E+02  1.032503E+04 -2.915996E+04 -7.196382E-11  2.781702E-10
       316  16  2.450321E+06  1.039230E+05  1.269282E+05 -3.004158E+04 -3.681938E-10 -2.067881E-10
       316  17  2.393575E+06  8.481930E+04  9.976158E+04 -9.506322E+03 -5.832200E-10 -6.631697E-11
       316  18  2.339586E+06  7.168813E+04  7.976330E+04 -2.838637E+04  1.114451E-10  4.539326E-10
       316  19  1.647100E+06 -9.455801E+04 -6.408541E+04 -2.828092E+04 -2.596540E+04 -1.358014E+04
       316  20  1.701079E+06 -8.635264E+04 -6.517168E+04 -9.398015E+03 -1.731973E+04 -1.134155E+04
       316  21  1.757810E+06 -7.217892E+04 -5.911889E+04 -2.993313E+04 -8.671657E+03 -9.061730E+03
       316  22  2.048637E+06  4.688471E+03  3.142772E+04 -2.916083E+04 -2.480364E+04 -1.357920E+04
       316  23  2.047272E+06 -7.622618E+02  1.729947E+04 -9.452085E+03 -1.613100E+04 -1.134102E+04
       316  24  2.048659E+06 -2.422968E+02  1.032529E+04 -2.915991E+04 -7.456728E+03 -9.061609E+03
       316  25  2.450322E+06  1.039234E+05  1.269296E+05 -3.004132E+04 -2.364113E+04 -1.357826E+04
       316  26  2.393576E+06  8.481950E+04  9.976224E+04 -9.506186E+03 -1.494162E+04 -1.134050E+04
       316  27  2.339586E+06  7.168823E+04  7.976352E+04 -2.838632E+04 -6.241233E+03 -9.061484E+03
       317   1  1.826375E+06 -5.435751E+04 -4.454747E+04 -2.880216E+04  6.976634E+03  7.740486E+03
       317   2  1.879394E+06 -4.175591E+04 -3.499506E+04 -9.874657E+03  4.410733E+03  5.517963E+03
       317   3  1.932918E+06 -2.849295E+04 -2.360977E+04 -2.887583E+04  1.843861E+03  3.312352E+03
       317   4  2.048168E+06  4.400113E+02  8.120813E+03 -2.882930E+04  5.797068E+03  7.740546E+03
       317   5  2.047921E+06 -9.496580E+01  5.147996E+03 -9.865343E+03  3.239268E+03  5.518201E+03
       317   6  2.048175E+06  2.999427E+01  4.002078E+03 -2.882942E+04  6.807138E+02  3.312775E+03
       317   7  2.270007E+06  5.523401E+04  6.078567E+04 -2.885645E+04  4.617083E+03  7.740605E+03
       317   8  2.216474E+06  4.156393E+04  4.528907E+04 -9.856023E+03  2.067487E+03  5.518438E+03
       317   9  2.163444E+06  2.855198E+04  3.161299E+04 -2.878300E+04 -4.826476E+02  3.313198E+03
       317  10  1.826375E+06 -5.435759E+04 -4.454767E+04 -2.880220E+04 -6.992223E-10  3.510487E-10
       317  11  1.879394E+06 -4.175594E+04 -3.499515E+04 -9.874677E+03 -1.996705E-09  2.235692E-10
       317  12  1.932918E+06 -2.849296E+04 -2.360979E+04 -2.887584E+04 -1.399535E-09  1.593817E-10
       317  13  2.048168E+06  4.399379E+02  8.120637E+03 -2.882934E+04 -1.143421E-09  5.413247E-10
       317  14  2.047921E+06 -9.500133E+01  5.147919E+03 -9.865357E+03  4.022803E-10 -4.092258E-10
       317  15  2.048175E+06  2.998235E+01  4.002056E+03 -2.882942E+04  3.479303E-11 -2.487343E-10
       317  16  2.270007E+06  5.523394E+04  6.078552E+04 -2.885648E+04  4.383860E-10  1.652574E-10
       317  17  2.216474E+06  4.156390E+04  4.528900E+04 -9.856032E+03  9.592641E-12 -4.262450E-10
       317  18  2.163444E+06  2.855197E+04  3.161297E+04 -2.878300E+04  1.256243E-10 -4.134014E-10
       317  19  1.826375E+06 -5.435751E+04 -4.454747E+04 -2.880216E+04 -6.976634E+03 -7.740486E+03
       317  20  1.879394E+06 -4.175591E+04 -3.499506E+04 -9.874657E+03 -4.410733E+03 -5.517963E+03
       317  21  1.932918E+06 -2.849295E+04 -2.360977E+04 -2.887583E+04 -1.843861E+03 -3.312352E+03
       317  22  2.048168E+06  4.400113E+02  8.120813E+03 -2.882930E+04 -5.797068E+03 -7.740546E+03
       317  23  2.047921E+06 -9.496580E+01  5.147996E+03 -9.865343E+03 -3.239268E+03 -5.518201E+03
       317  24  2.048175E+06  2.999427E+01  4.002078E+03 -2.882942E+04 -6.807138E+02 -3.312775E+03
       317  25  2.270007E+06  5.523401E+04  6.078567E+04 -2.885645E+04 -4.617083E+03 -7.740605E+03
       317  26  2.216474E+06  4.156393E+04  4.528907E+04 -9.856023E+03 -2.067487E+03 -5.518438E+03
       317  27  2.163444E+06  2.855198E+04  3.161299E+04 -2.878300E+04  4.826476E+02 -3.313198E+03
       318   1  2.000216E+06 -1.178005E+04 -7.367454E+03 -2.865417E+04  1.125736E+03  2.035897E+03
       318   2  2.052626E+06  1.082473E+03  5.668443E+03 -9.971570E+03 -1.139625E+03 -1.525824E+02
       318   3  2.105439E+06  1.451112E+04  2.030882E+04 -2.874391E+04 -3.405123E+03 -2.337185E+03
       318   4  2.048156E+06  3.812308E+01  3.890638E+03 -2.872431E+04 -3.411378E+01  2.036379E+03
       318   5  2.047955E+06 -7.218174E+01  4.555864E+03 -9.996751E+03 -2.297476E+03 -1.521108E+02
       318   6  2.048154E+06  3.837030E+02  6.824588E+03 -2.872415E+04 -4.560787E+03 -2.336714E+03
       318   7  2.096098E+06  1.185613E+04  1.514858E+04 -2.879445E+04 -1.194053E+03  2.036862E+03
       318   8  2.043284E+06 -1.226837E+03  3.443288E+03 -1.002193E+04 -3.455320E+03 -1.516391E+02
       318   9  1.990872E+06 -1.374395E+04 -6.659865E+03 -2.870439E+04 -5.716346E+03 -2.336244E+03
       318  10  2.000216E+06 -1.178005E+04 -7.367464E+03 -2.865417E+04  5.977211E-10 -2.722989E-10
       318  11  2.052626E+06  1.082473E+03  5.668440E+03 -9.971571E+03  4.772207E-10 -2.311771E-10
       318  12  2.105439E+06  1.451111E+04  2.030879E+04 -2.874392E+04 -2.450731E-10 -1.802995E-10
       318  13  2.048156E+06  3.811862E+01  3.890630E+03 -2.872431E+04 -1.446839E-09  6.040160E-10
       318  14  2.047955E+06 -7.218318E+01  4.555854E+03 -9.996752E+03  1.680243E-10  4.029218E-10
       318  15  2.048154E+06  3.836916E+02  6.824539E+03 -2.872416E+04  1.283865E-09 -6.393992E-10
       318  16  2.096098E+06  1.185613E+04  1.514857E+04 -2.879445E+04 -7.585988E-10  3.024158E-11
       318  17  2.043284E+06 -1.226840E+03  3.443266E+03 -1.002193E+04 -1.910975E-09  5.356138E-10
       318  18  1.990872E+06 -1.374396E+04 -6.659936E+03 -2.870440E+04  2.219475E-10 -3.468851E-10
       318  19  2.000216E+06 -1.178005E+04 -7.367454E+03 -2.865417E+04 -1.125736E+03 -2.035897E+03
       318  20  2.052626E+06  1.082473E+03  5.668443E+03 -9.971570E+03  1.139625E+03  1.525824E+02
       318  21  2.105439E+06  1.451112E+04  2.030882E+04 -2.874391E+04  3.405123E+03  2.337185E+03
       318  22  2.048156E+06  3.812308E+01  3.890638E+03 -2.872431E+04  3.411378E+01 -2.036379E+03
       318  23  2.047955E+06 -7.218174E+01  4.555864E+03 -9.996751E+03  2.297476E+03  1.521108E+02
       318  24  2.048154E+06  3.837030E+02  6.824588E+03 -2.872415E+04  4.560787E+03  2.336714E+03
       318  25  2.096098E+06  1.185613E+04  1.514858E+04 -2.879445E+04  1.194053E+03 -2.036862E+03
       318  26  2.043284E+06 -1.226837E+03  3.443288E+03 -1.002193E+04  3.455320E+03  1.516391E+02
       318  27  1.990872E+06 -1.374395E+04 -6.659865E+03 -2.870439E+04  5.716346E+03  2.336244E+03
       319   1  2.173202E+06  3.066706E+04  3.841410E+04 -2.822786E+04 -4.767013E+03 -3.622386E+03
       319   2  2.225477E+06  4.339846E+04  5.658707E+04 -9.956076E+03 -1.190734E+04 -5.826781E+03
       319   3  2.279911E+06  6.101970E+04  8.061997E+04 -2.966144E+04 -1.904762E+04 -7.987036E+03
       319   4  2.048541E+06 -1.755423E+02  8.567817E+03 -2.884072E+04 -5.946068E+03 -3.621970E+03
       319   5  2.047456E+06 -6.001399E+02  1.419211E+04 -9.851375E+03 -1.306124E+04 -5.826578E+03
       319   6  2.048525E+06  3.861747E+03  2.566037E+04 -2.883978E+04 -2.017577E+04 -7.987047E+03
       319   7  1.923893E+06 -3.101926E+04 -2.127956E+04 -2.945346E+04 -7.124888E+03 -3.621550E+03
       319   8  1.869465E+06 -4.460102E+04 -2.820506E+04 -9.746702E+03 -1.421481E+04 -5.826375E+03
       319   9  1.817188E+06 -5.330004E+04 -2.930295E+04 -2.801843E+04 -2.130350E+04 -7.987061E+03
       319  10  2.173202E+06  3.066704E+04  3.841404E+04 -2.822788E+04 -9.255601E-10  4.212461E-10
       319  11  2.225476E+06  4.339838E+04  5.658674E+04 -9.956132E+03  9.019320E-10 -3.109960E-10
       319  12  2.279910E+06  6.101953E+04  8.061917E+04 -2.966156E+04 -1.868116E-10  7.511523E-10
       319  13  2.048541E+06 -1.755659E+02  8.567726E+03 -2.884074E+04 -3.056165E-10 -5.009950E-10
       319  14  2.047456E+06 -6.002220E+02  1.419173E+04 -9.851437E+03  2.517801E-09 -6.621994E-10
       319  15  2.048524E+06  3.861570E+03  2.565949E+04 -2.883991E+04 -3.179879E-10  1.581466E-10
       319  16  1.923893E+06 -3.101929E+04 -2.127968E+04 -2.945348E+04 -5.597488E-10 -2.925094E-10
       319  17  1.869464E+06 -4.460111E+04 -2.820550E+04 -9.746769E+03 -1.175751E-09 -8.850884E-10
       319  18  1.817187E+06 -5.330023E+04 -2.930392E+04 -2.801856E+04  2.454304E-10 -2.882632E-10
       319  19  2.173202E+06  3.066706E+04  3.841410E+04 -2.822786E+04  4.767013E+03  3.622386E+03
       319  20  2.225477E+06  4.339846E+04  5.658707E+04 -9.956076E+03  1.190734E+04  5.826781E+03
       319  21  2.279911E+06  6.101970E+04  8.061997E+04 -2.966144E+04  1.904762E+04  7.987036E+03
       319  22  2.048541E+06 -1.755423E+02  8.567817E+03 -2.884072E+04  5.946068E+03  3.621970E+03
       319  23  2.047456E+06 -6.001399E+02  1.419211E+04 -9.851375E+03  1.306124E+04  5.826578E+03
       319  24  2.048525E+06  3.861747E+03  2.566037E+04 -2.883978E+04  2.017577E+04  7.987047E+03
       319  25  1.923893E+06 -3.101926E+04 -2.127956E+04 -2.945346E+04  7.124888E+03  3.621550E+03
       319  26  1.869465E+06 -4.460102E+04 -2.820506E+04 -9.746702E+03  1.421481E+04  5.826375E+03
       319  27  1.817188E+06 -5.330004E+04 -2.930295E+04 -2.801843E+04  2.130350E+04  7.987061E+03
       320   1  2.352166E+06  7.229269E+04  1.045129E+05 -2.353932E+04 -2.392442E+04 -9.434569E+03
       320   2  2.399760E+06  8.250604E+04  1.399211E+05 -1.225019E+04 -5.265273E+04 -1.168216E+04
       320   3  2.463188E+06  1.406138E+05  2.059844E+05 -4.046980E+04 -8.138295E+04 -1.301137E+04
       320   4  2.051545E+06 -2.028247E+03  3.278730E+04 -2.917830E+04 -2.534961E+04 -9.434511E+03
       320   5  2.043632E+06 -5.501733E+03  5.512606E+04 -9.428410E+03 -5.357744E+04 -1.168295E+04
       320   6  2.051476E+06  3.884846E+04  1.077871E+05 -2.918797E+04 -8.180466E+04 -1.301355E+04
       320   7  1.751006E+06 -7.635557E+04 -3.894466E+04 -3.481454E+04 -2.677411E+04 -9.434428E+03
       320   8  1.687621E+06 -9.351860E+04 -2.967780E+04 -6.608254E+03 -5.450163E+04 -1.168375E+04
       320   9  1.639918E+06 -6.292865E+04  9.578043E+03 -1.791364E+04 -8.222607E+04 -1.301575E+04
       320  10  2.352166E+06  7.229244E+04  1.045117E+05 -2.353950E+04  1.678724E-09  3.819644E-10
       320  11  2.399757E+06  8.250516E+04  1.399156E+05 -1.225068E+04 -5.264029E-11 -3.872421E-10
       320  12  2.463181E+06  1.406119E+05  2.059717E+05 -4.047065E+04  1.945637E-10 -7.382215E-10
       320  13  2.051544E+06 -2.028515E+03  3.278593E+04 -2.917849E+04 -3.370345E-11  2.792251E-10
       320  14  2.043629E+06 -5.502647E+03  5.512043E+04 -9.428914E+03  5.416907E-11 -5.197038E-10
       320  15  2.051468E+06  3.884649E+04  1.077743E+05 -2.918883E+04  2.119501E-11 -5.449055E-10
       320  16  1.751005E+06 -7.635586E+04 -3.894617E+04 -3.481474E+04 -6.320292E-10 -1.228856E-10
       320  17  1.687617E+06 -9.351954E+04 -2.968362E+04 -6.608767E+03 -1.071861E-09 -1.314039E-11
       320  18  1.639911E+06 -6.293065E+04  9.565052E+03 -1.791450E+04 -9.357977E-12  3.004834E-10
       320  19  2.352166E+06  7.229269E+04  1.045129E+05 -2.353932E+04  2.392442E+04  9.434569E+03
       320  20  2.399760E+06  8.250604E+04  1.399211E+05 -1.225019E+04  5.265273E+04  1.168216E+04
       320  21  2.463188E+06  1.406138E+05  2.059844E+05 -4.046980E+04  8.138295E+04  1.301137E+04
       320  22  2.051545E+06 -2.028247E+03  3.278730E+04 -2.917830E+04  2.534961E+04  9.434511E+03
       320  23  2.043632E+06 -5.501733E+03  5.512606E+04 -9.428410E+03  5.357744E+04  1.168295E+04
       320  24  2.051476E+06  3.884846E+04  1.077871E+05 -2.918797E+04  8.180466E+04  1.301355E+04
       320  25  1.751006E+06 -7.635557E+04 -3.894466E+04 -3.481454E+04  2.677411E+04  9.434428E+03
       320  26  1.687621E+06 -9.351860E+04 -2.967780E+04 -6.608254E+03  5.450163E+04  1.168375E+04
       320  27  1.639918E+06 -6.292865E+04  9.578043E+03 -1.791364E+04  8.222607E+04  1.301575E+04
       321   1  2.561997E+06  9.965360E+04  2.475319E+05  2.255882E+04 -9.775146E+04 -1.633724E+04
       321   2  2.554717E+06  8.230272E+04  3.415663E+05 -4.523677E+04 -2.195398E+05 -1.819964E+04
       321   3  2.680572E+06  5.332621E+05  6.318346E+05 -1.551866E+05 -3.413495E+05 -6.365448E+03
       321   4  2.077375E+06 -2.013405E+04  1.322840E+05 -2.965504E+04 -1.022770E+05 -1.633198E+04
       321   5  2.011192E+06 -5.192400E+04  2.122596E+05 -8.780839E+03 -2.167399E+05 -1.821145E+04
       321   6  2.076981E+06  3.835204E+05  4.835124E+05 -3.004628E+04 -3.312110E+05 -6.423709E+03
       321   7  1.592973E+06 -1.399284E+05  1.702112E+04 -8.182812E+04 -1.067990E+05 -1.632595E+04
       321   8  1.467939E+06 -1.861669E+05  8.293297E+04  2.764309E+04 -2.139424E+05 -1.822294E+04
       321   9  1.473754E+06  2.338106E+05  3.351722E+05  9.497260E+04 -3.210822E+05 -6.477952E+03
       321  10  2.561987E+06  9.965076E+04  2.475135E+05  2.255754E+04 -2.570254E-10 -5.566326E-10
       321  11  2.554665E+06  8.228949E+04  3.414754E+05 -4.523998E+04  3.137429E-10 -1.708866E-10
       321  12  2.680447E+06  5.332309E+05  6.316165E+05 -1.551884E+05  1.863725E-09  4.946078E-10
       321  13  2.077364E+06 -2.013713E+04  1.322639E+05 -2.965639E+04 -2.473595E-09 -1.141281E-09
       321  14  2.011141E+06 -5.193691E+04  2.121709E+05 -8.784015E+03 -4.756851E-10  1.171647E-10
       321  15  2.076863E+06  3.834910E+05  4.833069E+05 -3.004799E+04  1.756862E-10 -3.872867E-10
       321  16  1.592961E+06 -1.399317E+05  1.699924E+04 -8.182953E+04 -4.245105E-10 -1.257291E-10
       321  17  1.467890E+06 -1.861795E+05  8.284655E+04  2.763995E+04 -1.543783E-09 -3.497490E-10
       321  18  1.473643E+06  2.337829E+05  3.349789E+05  9.497093E+04  2.610091E-10  1.026505E-09
       321  19  2.561997E+06  9.965360E+04  2.475319E+05  2.255882E+04  9.775146E+04  1.633724E+04
       321  20  2.554717E+06  8.230272E+04  3.415663E+05 -4.523677E+04  2.195398E+05  1.819964E+04
       321  21  2.680572E+06  5.332621E+05  6.318346E+05 -1.551866E+05  3.413495E+05  6.365448E+03
       321  22  2.077375E+06 -2.013405E+04  1.322840E+05 -2.965504E+04  1.022770E+05  1.633198E+04
       321  23  2.011192E+06 -5.192400E+04  2.122596E+05 -8.780839E+03  2.167399E+05  1.821145E+04
       321  24  2.076981E+06  3.835204E+05  4.835124E+05 -3.004628E+04  3.312110E+05  6.423709E+03
       321  25  1.592973E+06 -1.399284E+05  1.702112E+04 -8.182812E+04  1.067990E+05  1.632595E+04
       321  26  1.467939E+06 -1.861669E+05  8.293297E+04  2.764309E+04  2.139424E+05  1.822294E+04
       321  27  1.473754E+06  2.338106E+05  3.351722E+05  9.497260E+04  3.210822E+05  6.477952E+03
       322   1  1.438460E+05  2.386782E+05  2.026236E+05 -9.135148E+04 -3.875093E+03  1.791900E+05
       322   2 -1.145866E+05  1.652189E+05  4.438516E+04 -2.782262E+04 -1.157291E+04  1.146888E+05
       322   3 -1.035277E+05  1.675232E+05 -4.492393E+03  1.040053E+04 -1.314883E+04  5.020294E+04
       322   4  2.198510E+05  5.454447E+05  2.780116E+05 -1.971463E+04 -3.867258E+03  1.850266E+05
       322   5 -2.997639E+04  5.073206E+05  1.259585E+05 -7.310856E+03 -1.157384E+04  1.172578E+05
       322   6 -9.831132E+03  5.454878E+05  8.549814E+04 -2.020634E+04 -1.314944E+04  4.950134E+04
       322   7  2.958684E+05  8.523080E+05  3.533957E+05  5.195770E+04 -3.858084E+03  1.908661E+05
       322   8  5.462697E+04  8.495305E+05  2.075239E+05  1.321231E+04 -1.157461E+04  1.198283E+05
       322   9  8.385862E+04  9.235855E+05  1.754791E+05 -5.083186E+04 -1.314997E+04  4.879931E+04
       322  10  1.438374E+05  2.386437E+05  2.025632E+05 -9.135092E+04  3.744094E-11  2.913248E-11
       322  11 -1.145903E+05  1.652048E+05  4.436020E+04 -2.782155E+04 -1.191285E-10 -4.639522E-10
       322  12 -1.035286E+05  1.675204E+05 -4.497452E+03  1.040106E+04  2.292250E-10  1.522997E-09
       322  13  2.198418E+05  5.454080E+05  2.779473E+05 -1.971405E+04  1.510636E-09 -8.739548E-11
       322  14 -2.998022E+04  5.073058E+05  1.259325E+05 -7.309763E+03  1.673685E-10 -9.484476E-10
       322  15 -9.831975E+03  5.454852E+05  8.549321E+04 -2.020581E+04  3.101936E-10 -6.717224E-10
       322  16  2.958586E+05  8.522689E+05  3.533273E+05  5.195829E+04  2.531566E-11 -4.807152E-10
       322  17  5.462298E+04  8.495151E+05  2.074967E+05  1.321343E+04  1.114406E-09 -5.439893E-10
       322  18  8.385780E+04  9.235829E+05  1.754744E+05 -5.083134E+04 -2.459693E-10 -8.825202E-10
       322  19  1.438460E+05  2.386782E+05  2.026236E+05 -9.135148E+04  3.875093E+03 -1.791900E+05
       322  20 -1.145866E+05  1.652189E+05  4.438516E+04 -2.782262E+04  1.157291E+04 -1.146888E+05
       322  21 -1.035277E+05  1.675232E+05 -4.492393E+03  1.040053E+04  1.314883E+04 -5.020294E+04
       322  22  2.198510E+05  5.454447E+05  2.780116E+05 -1.971463E+04  3.867258E+03 -1.850266E+05
       322  23 -2.997639E+04  5.073206E+05  1.259585E+05 -7.310856E+03  1.157384E+04 -1.172578E+05
       322  24 -9.831132E+03  5.454878E+05  8.549814E+04 -2.020634E+04  1.314944E+04 -4.950134E+04
       322  25  2.958684E+05  8.523080E+05  3.533957E+05  5.195770E+04  3.858084E+03 -1.908661E+05
       322  26  5.462697E+04  8.495305E+05  2.075239E+05  1.321231E+04  1.157461E+04 -1.198283E+05
       322  27  8.385862E+04  9.235855E+05  1.754791E+05 -5.083186E+04  1.314997E+04 -4.879931E+04
       323   1 -8.362537E+04  1.075412E+05 -2.690435E+04 -2.857923E+04 -1.328596E+04  3.439777E+04
       323   2 -1.196666E+05  6.308309E+04 -5.612154E+04 -7.107788E+03 -1.516448E+04  7.535007E+03
       323   3 -1.081073E+05  3.415018E+04 -5.592381E+04 -1.174945E+04 -1.566078E+04 -1.932286E+04
       323   4  2.150345E+04  5.319876E+05  7.461467E+04 -2.022272E+04 -1.328728E+04  3.579699E+04
       323   5 -5.473727E+03  5.241637E+05  5.390163E+04 -7.174476E+03 -1.516467E+04  8.186852E+03
       323   6  1.526014E+04  5.319828E+05  6.310844E+04 -2.023765E+04 -1.565958E+04 -1.941995E+04
       323   7  1.266195E+05  9.565991E+05  1.761210E+05 -1.186041E+04 -1.328855E+04  3.719716E+04
       323   8  1.087038E+05  9.854392E+05  1.639099E+05 -7.241142E+03 -1.516485E+04  8.839178E+03
       323   9  1.386098E+05  1.030043E+06  1.821232E+05 -2.873262E+04 -1.565838E+04 -1.951711E+04
       323  10 -8.362588E+04  1.075399E+05 -2.690690E+04 -2.857886E+04 -2.733522E-11  1.595403E-10
       323  11 -1.196669E+05  6.308296E+04 -5.612207E+04 -7.107696E+03  1.022945E-09 -7.557957E-10
       323  12 -1.081076E+05  3.414971E+04 -5.592497E+04 -1.174970E+04 -5.041098E-10  8.738461E-10
       323  13  2.150292E+04  5.319861E+05  7.461194E+04 -2.022234E+04 -2.615254E-10 -1.493712E-10
       323  14 -5.473992E+03  5.241636E+05  5.390108E+04 -7.174376E+03  7.512315E-10 -8.364494E-10
       323  15  1.525977E+04  5.319824E+05  6.310727E+04 -2.023790E+04  9.598736E-10 -6.357316E-10
       323  16  1.266189E+05  9.565975E+05  1.761181E+05 -1.186001E+04 -2.478477E-10 -7.459046E-10
       323  17  1.087035E+05  9.854390E+05  1.639093E+05 -7.241034E+03 -9.666640E-10  3.560858E-11
       323  18  1.386095E+05  1.030042E+06  1.821221E+05 -2.873286E+04 -2.055089E-10 -2.786782E-10
       323  19 -8.362537E+04  1.075412E+05 -2.690435E+04 -2.857923E+04  1.328596E+04 -3.439777E+04
       323  20 -1.196666E+05  6.308309E+04 -5.612154E+04 -7.107788E+03  1.516448E+04 -7.535007E+03
       323  21 -1.081073E+05  3.415018E+04 -5.592381E+04 -1.174945E+04  1.566078E+04  1.932286E+04
       323  22  2.150345E+04  5.319876E+05  7.461467E+04 -2.022272E+04  1.328728E+04 -3.579699E+04
       323  23 -5.473727E+03  5.241637E+05  5.390163E+04 -7.174476E+03  1.516467E+04 -8.186852E+03
       323  24  1.526014E+04  5.319828E+05  6.310844E+04 -2.023765E+04  1.565958E+04  1.941995E+04
       323  25  1.266195E+05  9.565991E+05  1.761210E+05 -1.186041E+04  1.328855E+04 -3.719716E+04
       323  26  1.087038E+05  9.854392E+05  1.639099E+05 -7.241142E+03  1.516485E+04 -8.839178E+03
       323  27  1.386098E+05  1.030043E+06  1.821232E+05 -2.873262E+04  1.565838E+04  1.951711E+04
       324   1 -1.412730E+05 -4.390871E+03 -6.085544E+04 -4.228764E+04 -1.842290E+04 -3.493310E+04
       324   2 -1.666626E+05 -7.019077E+04 -4.354686E+04  8.719678E+03 -1.933704E+04 -7.882283E+04
       324   3  6.808678E+03 -8.023690E+04  5.213127E+04  3.318660E+04 -6.364572E+03 -1.227022E+05
       324   4 -6.246975E+03  5.411633E+05  6.913496E+04 -2.036491E+04 -1.842729E+04 -3.078116E+04
       324   5 -2.228949E+04  5.126520E+05  9.546717E+04 -7.056318E+03 -1.933170E+04 -8.204626E+04
       324   6  1.617035E+05  5.411170E+05  2.052360E+05 -2.028583E+04 -6.349944E+03 -1.333042E+05
       324   7  1.287595E+05  1.086991E+06  1.991048E+05  1.577234E+03 -1.843139E+04 -2.662557E+04
       324   8  1.220600E+05  1.095807E+06  2.344575E+05 -2.284714E+04 -1.932621E+04 -8.527267E+04
       324   9  3.165803E+05  1.162828E+06  3.583141E+05 -7.381181E+04 -6.333500E+03 -1.439169E+05
       324  10 -1.412737E+05 -4.392272E+03 -6.085838E+04 -4.228815E+04 -1.763797E-10  1.008196E-10
       324  11 -1.666646E+05 -7.019754E+04 -4.355924E+04  8.718450E+03  1.433060E-10 -4.817195E-10
       324  12  6.804592E+03 -8.025308E+04  5.210289E+04  3.318597E+04  1.074651E-10  1.561170E-10
       324  13 -6.247594E+03  5.411622E+05  6.913255E+04 -2.036537E+04 -5.181846E-10  8.130482E-11
       324  14 -2.229170E+04  5.126447E+05  9.545383E+04 -7.057596E+03  2.245475E-10 -5.706339E-10
       324  15  1.616987E+05  5.410979E+05  2.052025E+05 -2.028651E+04  5.854319E-11 -1.394267E-10
       324  16  1.287589E+05  1.086991E+06  1.991029E+05  1.576839E+03  5.601284E-10 -2.836184E-10
       324  17  1.220576E+05  1.095799E+06  2.344432E+05 -2.284847E+04 -5.374695E-10 -4.402368E-10
       324  18  3.165747E+05  1.162806E+06  3.582752E+05 -7.381254E+04 -6.048844E-10  1.132708E-11
       324  19 -1.412730E+05 -4.390871E+03 -6.085544E+04 -4.228764E+04  1.842290E+04  3.493310E+04
       324  20 -1.666626E+05 -7.019077E+04 -4.354686E+04  8.719678E+03  1.933704E+04  7.882283E+04
       324  21  6.808678E+03 -8.023690E+04  5.213127E+04  3.318660E+04  6.364572E+03  1.227022E+05
       324  22 -6.246975E+03  5.411633E+05  6.913496E+04 -2.036491E+04  1.842729E+04  3.078116E+04
       324  23 -2.228949E+04  5.126520E+05  9.546717E+04 -7.056318E+03  1.933170E+04  8.204626E+04
       324  24  1.617035E+05  5.411170E+05  2.052360E+05 -2.028583E+04  6.349944E+03  1.333042E+05
       324  25  1.287595E+05  1.086991E+06  1.991048E+05  1.577234E+03  1.843139E+04  2.662557E+04
       324  26  1.220600E+05  1.095807E+06  2.344575E+05 -2.284714E+04  1.932621E+04  8.527267E+04
       324  27  3.165803E+05  1.162828E+06  3.583141E+05 -7.381181E+04  6.333500E+03  1.439169E+05
       325   1 -2.914265E+06 -1.084549E+06 -5.808390E+05 -1.108047E+06 -2.776514E+05 -8.179680E+04
       325   2 -2.846636E+06 -8.356779E+05 -3.661374E+05 -1.076656E+06 -1.784728E+05  9.930592E+03
       325   3 -2.831218E+06 -7.247368E+05 -2.732916E+05 -1.028633E+06 -6.675224E+04  6.853817E+04
       325   4 -1.695544E+06 -4.988662E+05 -2.441836E+05 -6.433577E+05 -1.658698E+05 -3.969033E+04
       325   5 -1.661795E+06 -3.419469E+05 -1.141268E+05 -6.869520E+05 -1.244409E+05  3.027176E+04
       325   6 -1.668671E+06 -3.113467E+05 -5.989651E+04 -7.139469E+05 -7.049780E+04  6.710981E+04
       325   7 -4.753217E+05  8.720915E+04  9.238361E+04 -1.777474E+05 -5.385079E+04  2.563657E+03
       325   8 -4.754892E+05  1.520232E+05  1.378180E+05 -2.965158E+05 -7.029807E+04  5.066769E+04
       325   9 -5.046860E+05  1.021613E+05  1.534534E+05 -3.987112E+05 -7.425092E+04  6.567877E+04
       325  10 -2.914350E+06 -1.084578E+06 -5.809973E+05 -1.108066E+06  1.060902E-10 -8.119590E-11
       325  11 -2.846670E+06 -8.356865E+05 -3.661977E+05 -1.076655E+06  1.838821E-10 -7.225987E-10
       325  12 -2.831224E+06 -7.247430E+05 -2.733088E+05 -1.028629E+06  3.525981E-09 -1.249641E-09
       325  13 -1.695574E+06 -4.988753E+05 -2.442384E+05 -6.433630E+05  1.368720E-09 -4.469725E-11
       325  14 -1.661812E+06 -3.419521E+05 -1.141577E+05 -6.869489E+05 -1.916344E-09  1.256182E-09
       325  15 -1.668678E+06 -3.113529E+05 -5.991431E+04 -7.139431E+05 -7.743163E-10 -1.817780E-09
       325  16 -4.753248E+05  8.720837E+04  9.237815E+04 -1.777473E+05  8.403881E-11 -1.409287E-09
       325  17 -4.754952E+05  1.520191E+05  1.378039E+05 -2.965129E+05 -3.964531E-11 -2.280840E-09
       325  18 -5.046931E+05  1.021552E+05  1.534349E+05 -3.987073E+05 -3.134749E-09 -1.873820E-09
       325  19 -2.914265E+06 -1.084549E+06 -5.808390E+05 -1.108047E+06  2.776514E+05  8.179680E+04
       325  20 -2.846636E+06 -8.356779E+05 -3.661374E+05 -1.076656E+06  1.784728E+05 -9.930592E+03
       325  21 -2.831218E+06 -7.247368E+05 -2.732916E+05 -1.028633E+06  6.675224E+04 -6.853817E+04
       325  22 -1.695544E+06 -4.988662E+05 -2.441836E+05 -6.433577E+05  1.658698E+05  3.969033E+04
       325  23 -1.661795E+06 -3.419469E+05 -1.141268E+05 -6.869520E+05  1.244409E+05 -3.027176E+04
       325  24 -1.668671E+06 -3.113467E+05 -5.989651E+04 -7.139469E+05  7.049780E+04 -6.710981E+04
       325  25 -4.753217E+05  8.720915E+04  9.238361E+04 -1.777474E+05  5.385079E+04 -2.563657E+03
       325  26 -4.754892E+05  1.520232E+05  1.378180E+05 -2.965158E+05  7.029807E+04 -5.066769E+04
       325  27 -5.046860E+05  1.021613E+05  1.534534E+05 -3.987112E+05  7.425092E+04 -6.567877E+04
       326   1 -2.762144E+06 -7.167948E+05 -2.465695E+05 -1.022968E+06 -6.306476E+04  6.777920E+04
       326   2 -2.689727E+06 -6.712040E+05 -2.055169E+05 -9.945318E+05 -4.538463E+04  7.276611E+04
       326   3 -2.609937E+06 -6.454664E+05 -1.792119E+05 -9.788595E+05 -2.657664E+04  7.475538E+04
       326   4 -1.661322E+06 -3.124819E+05 -4.502473E+04 -7.110247E+05 -6.304260E+04  6.777055E+04
       326   5 -1.664814E+06 -2.983095E+05 -2.366935E+04 -7.064201E+05 -5.057353E+04  7.079732E+04
       326   6 -1.659895E+06 -3.029438E+05 -1.290182E+04 -7.145799E+05 -3.698000E+04  7.082819E+04
       326   7 -5.592212E+05  9.195364E+04  1.564761E+05 -3.985607E+05 -6.302037E+04  6.776196E+04
       326   8 -6.387929E+05  7.468747E+04  1.581429E+05 -4.178628E+05 -5.577155E+04  6.882509E+04
       326   9 -7.089048E+05  3.966163E+04  1.533782E+05 -4.499241E+05 -4.740028E+04  6.689471E+04
       326  10 -2.762149E+06 -7.168008E+05 -2.465856E+05 -1.022965E+06 -1.058907E-09 -1.626360E-09
       326  11 -2.689730E+06 -6.712103E+05 -2.055307E+05 -9.945292E+05 -4.341997E-10  5.108903E-10
       326  12 -2.609939E+06 -6.454726E+05 -1.792237E+05 -9.788580E+05 -6.048789E-10  1.010671E-09
       326  13 -1.661328E+06 -3.124878E+05 -4.504082E+04 -7.110213E+05  3.048838E-10 -2.318200E-09
       326  14 -1.664818E+06 -2.983156E+05 -2.368356E+04 -7.064172E+05 -1.359426E-10  5.569382E-10
       326  15 -1.659898E+06 -3.029496E+05 -1.291380E+04 -7.145778E+05 -3.162146E-10  5.523768E-10
       326  16 -5.592267E+05  9.194765E+04  1.564600E+05 -3.985573E+05  1.902507E-09  2.740269E-10
       326  17 -6.387975E+05  7.468156E+04  1.581281E+05 -4.178597E+05 -7.072166E-10 -8.639305E-10
       326  18 -7.089084E+05  3.965623E+04  1.533656E+05 -4.499215E+05 -3.987639E-10  5.329309E-10
       326  19 -2.762144E+06 -7.167948E+05 -2.465695E+05 -1.022968E+06  6.306476E+04 -6.777920E+04
       326  20 -2.689727E+06 -6.712040E+05 -2.055169E+05 -9.945318E+05  4.538463E+04 -7.276611E+04
       326  21 -2.609937E+06 -6.454664E+05 -1.792119E+05 -9.788595E+05  2.657664E+04 -7.475538E+04
       326  22 -1.661322E+06 -3.124819E+05 -4.502473E+04 -7.110247E+05  6.304260E+04 -6.777055E+04
       326  23 -1.664814E+06 -2.983095E+05 -2.366935E+04 -7.064201E+05  5.057353E+04 -7.079732E+04
       326  24 -1.659895E+06 -3.029438E+05 -1.290182E+04 -7.145799E+05  3.698000E+04 -7.082819E+04
       326  25 -5.592212E+05  9.195364E+04  1.564761E+05 -3.985607E+05  6.302037E+04 -6.776196E+04
       326  26 -6.387929E+05  7.468747E+04  1.581429E+05 -4.178628E+05  5.577155E+04 -6.882509E+04
       326  27 -7.089048E+05  3.966163E+04  1.533782E+05 -4.499241E+05  4.740028E+04 -6.689471E+04
       327   1 -2.558118E+06 -6.278142E+05 -1.665789E+05 -9.652670E+05 -2.377555E+04  7.178063E+04
       327   2 -2.485830E+06 -5.927959E+05 -1.482140E+05 -9.363020E+05 -1.839218E+04  6.704468E+04
       327   3 -2.401503E+06 -5.707554E+05 -1.322882E+05 -9.216437E+05 -1.290423E+04  6.202011E+04
       327   4 -1.659260E+06 -3.030692E+05 -9.689734E+03 -7.143737E+05 -3.387147E+04  6.797163E+04
       327   5 -1.665273E+06 -2.964419E+05 -5.320638E+03 -7.072791E+05 -2.898800E+04  6.305152E+04
       327   6 -1.659156E+06 -3.026925E+05 -2.992409E+03 -7.144927E+05 -2.400046E+04  5.784284E+04
       327   7 -7.595332E+05  2.175835E+04  1.471780E+05 -4.631369E+05 -4.398313E+04  6.415673E+04
       327   8 -8.439943E+05 -2.030544E+01  1.375543E+05 -4.779710E+05 -3.959884E+04  5.905272E+04
       327   9 -9.162216E+05 -3.457566E+04  1.262874E+05 -5.071092E+05 -3.511087E+04  5.366027E+04
       327  10 -2.558120E+06 -6.278199E+05 -1.665896E+05 -9.652656E+05 -1.108881E-09  9.063621E-10
       327  11 -2.485832E+06 -5.928009E+05 -1.482231E+05 -9.363010E+05 -2.695539E-10  3.232402E-10
       327  12 -2.401504E+06 -5.707596E+05 -1.322957E+05 -9.216430E+05  6.046800E-10 -7.636922E-11
       327  13 -1.659262E+06 -3.030744E+05 -9.700562E+03 -7.143718E+05 -6.154415E-10  4.988463E-10
       327  14 -1.665274E+06 -2.964464E+05 -5.329679E+03 -7.072777E+05 -3.042763E-10  3.899263E-10
       327  15 -1.659157E+06 -3.026963E+05 -2.999772E+03 -7.144916E+05 -7.763214E-10  3.239006E-10
       327  16 -7.595364E+05  2.175341E+04  1.471667E+05 -4.631346E+05  6.932452E-12  3.637852E-10
       327  17 -8.439969E+05 -2.446672E+01  1.375448E+05 -4.779691E+05 -8.628307E-10  7.242959E-11
       327  18 -9.162237E+05 -3.457908E+04  1.262797E+05 -5.071077E+05 -1.607595E-10 -9.047712E-10
       327  19 -2.558118E+06 -6.278142E+05 -1.665789E+05 -9.652670E+05  2.377555E+04 -7.178063E+04
       327  20 -2.485830E+06 -5.927959E+05 -1.482140E+05 -9.363020E+05  1.839218E+04 -6.704468E+04
       327  21 -2.401503E+06 -5.707554E+05 -1.322882E+05 -9.216437E+05  1.290423E+04 -6.202011E+04
       327  22 -1.659260E+06 -3.030692E+05 -9.689734E+03 -7.143737E+05  3.387147E+04 -6.797163E+04
       327  23 -1.665273E+06 -2.964419E+05 -5.320638E+03 -7.072791E+05  2.898800E+04 -6.305152E+04
       327  24 -1.659156E+06 -3.026925E+05 -2.992409E+03 -7.144927E+05  2.400046E+04 -5.784284E+04
       327  25 -7.595332E+05  2.175835E+04  1.471780E+05 -4.631369E+05  4.398313E+04 -6.415673E+04
       327  26 -8.439943E+05 -2.030544E+01  1.375543E+05 -4.779710E+05  3.959884E+04 -5.905272E+04
       327  27 -9.162216E+05 -3.457566E+04  1.262874E+05 -5.071092E+05  3.511087E+04 -5.366027E+04
       328   1 -2.350478E+06 -5.523410E+05 -1.223246E+05 -9.074921E+05 -1.107540E+04  5.847644E+04
       328   2 -2.277792E+06 -5.175115E+05 -1.078811E+05 -8.782311E+05 -7.894194E+03  5.240200E+04
       328   3 -2.192539E+06 -4.953288E+05 -9.401341E+04 -8.634177E+05 -4.701298E+03  4.628730E+04
       328   4 -1.659050E+06 -3.027104E+05 -2.302811E+03 -7.144898E+05 -2.216865E+04  5.430241E+04
       328   5 -1.665318E+06 -2.963664E+05 -1.441325E+03 -7.072683E+05 -1.905680E+04  4.820497E+04
       328   6 -1.659011E+06 -3.026556E+05 -1.101142E+03 -7.144967E+05 -1.593336E+04  4.206723E+04
       328   7 -9.671212E+05 -5.303558E+04  1.177034E+05 -5.212876E+05 -3.327498E+04  5.012348E+04
       328   8 -1.052445E+06 -7.518436E+04  1.049878E+05 -5.361472E+05 -3.023117E+04  4.400354E+04
       328   9 -1.125176E+06 -1.099524E+05  9.180463E+04 -5.654539E+05 -2.717583E+04  3.784325E+04
       328  10 -2.350479E+06 -5.523447E+05 -1.223313E+05 -9.074916E+05 -1.834987E-09 -5.903575E-10
       328  11 -2.277793E+06 -5.175145E+05 -1.078864E+05 -8.782307E+05 -1.135013E-09  4.921570E-10
       328  12 -2.192539E+06 -4.953311E+05 -9.401748E+04 -8.634176E+05  4.467821E-10  3.275243E-10
       328  13 -1.659052E+06 -3.027137E+05 -2.309270E+03 -7.144888E+05 -2.293080E-10 -7.775308E-11
       328  14 -1.665319E+06 -2.963689E+05 -1.446369E+03 -7.072676E+05  3.047621E-10  6.281807E-10
       328  15 -1.659012E+06 -3.026576E+05 -1.104941E+03 -7.144961E+05 -3.441167E-10  6.250544E-10
       328  16 -9.671231E+05 -5.303858E+04  1.176966E+05 -5.212862E+05  1.867144E-09  6.192467E-10
       328  17 -1.052447E+06 -7.518669E+04  1.049825E+05 -5.361461E+05  8.116255E-10  9.969161E-10
       328  18 -1.125177E+06 -1.099541E+05  9.180055E+04 -5.654531E+05 -9.369277E-10  7.755873E-10
       328  19 -2.350478E+06 -5.523410E+05 -1.223246E+05 -9.074921E+05  1.107540E+04 -5.847644E+04
       328  20 -2.277792E+06 -5.175115E+05 -1.078811E+05 -8.782311E+05  7.894194E+03 -5.240200E+04
       328  21 -2.192539E+06 -4.953288E+05 -9.401341E+04 -8.634177E+05  4.701298E+03 -4.628730E+04
       328  22 -1.659050E+06 -3.027104E+05 -2.302811E+03 -7.144898E+05  2.216865E+04 -5.430241E+04
       328  23 -1.665318E+06 -2.963664E+05 -1.441325E+03 -7.072683E+05  1.905680E+04 -4.820497E+04
       328  24 -1.659011E+06 -3.026556E+05 -1.101142E+03 -7.144967E+05  1.593336E+04 -4.206723E+04
       328  25 -9.671212E+05 -5.303558E+04  1.177034E+05 -5.212876E+05  3.327498E+04 -5.012348E+04
       328  26 -1.052445E+06 -7.518436E+04  1.049878E+05 -5.361472E+05  3.023117E+04 -4.400354E+04
       328  27 -1.125176E+06 -1.099524E+05  9.180463E+04 -5.654539E+05  2.717583E+04 -3.784325E+04
       329   1 -2.141260E+06 -4.767537E+05 -8.468068E+04 -8.491654E+05 -3.094546E+03  4.261677E+04
       329   2 -2.068108E+06 -4.417525E+05 -7.133401E+04 -8.197674E+05  9.164623E+00  3.643253E+04
       329   3 -1.982329E+06 -4.194570E+05 -5.849261E+04 -8.049117E+05  3.113378E+03  3.024077E+04
       329   4 -1.658987E+06 -3.026560E+05 -1.086945E+03 -7.145178E+05 -1.434423E+04  3.839158E+04
       329   5 -1.665280E+06 -2.962620E+05 -1.351831E+03 -7.072568E+05 -1.125326E+04  3.220458E+04
       329   6 -1.658952E+06 -3.025711E+05 -2.112516E+03 -7.145398E+05 -8.161892E+03  2.601005E+04
       329   7 -1.176465E+06 -1.285355E+05  8.250043E+04 -5.797721E+05 -2.560323E+04  3.416289E+04
       329   8 -1.262281E+06 -1.507563E+05  6.862546E+04 -5.946783E+05 -2.252342E+04  2.797372E+04
       329   9 -1.335467E+06 -1.856762E+05  5.426402E+04 -6.241246E+05 -1.944331E+04  2.177702E+04
       329  10 -2.141261E+06 -4.767557E+05 -8.468411E+04 -8.491653E+05  5.406550E-10 -1.289172E-10
       329  11 -2.068108E+06 -4.417539E+05 -7.133651E+04 -8.197674E+05 -5.507409E-10 -1.750469E-12
       329  12 -1.982329E+06 -4.194580E+05 -5.849434E+04 -8.049118E+05 -1.970251E-09  1.330890E-10
       329  13 -1.658987E+06 -3.026577E+05 -1.090098E+03 -7.145174E+05 -4.920981E-11  2.541561E-10
       329  14 -1.665280E+06 -2.962631E+05 -1.354016E+03 -7.072566E+05 -8.310223E-10  3.075057E-10
       329  15 -1.658952E+06 -3.025719E+05 -2.113911E+03 -7.145396E+05 -3.904085E-10  7.119610E-10
       329  16 -1.176466E+06 -1.285369E+05  8.249701E+04 -5.797714E+05  3.106252E-10  6.577592E-10
       329  17 -1.262282E+06 -1.507572E+05  6.862304E+04 -5.946778E+05  7.019177E-10  6.701543E-10
       329  18 -1.335467E+06 -1.856768E+05  5.426242E+04 -6.241242E+05  1.203248E-09  1.490506E-09
       329  19 -2.141260E+06 -4.767537E+05 -8.468068E+04 -8.491654E+05  3.094546E+03 -4.261677E+04
       329  20 -2.068108E+06 -4.417525E+05 -7.133401E+04 -8.197674E+05 -9.164623E+00 -3.643253E+04
       329  21 -1.982329E+06 -4.194570E+05 -5.849261E+04 -8.049117E+05 -3.113378E+03 -3.024077E+04
       329  22 -1.658987E+06 -3.026560E+05 -1.086945E+03 -7.145178E+05  1.434423E+04 -3.839158E+04
       329  23 -1.665280E+06 -2.962620E+05 -1.351831E+03 -7.072568E+05  1.125326E+04 -3.220458E+04
       329  24 -1.658952E+06 -3.025711E+05 -2.112516E+03 -7.145398E+05  8.161892E+03 -2.601005E+04
       329  25 -1.176465E+06 -1.285355E+05  8.250043E+04 -5.797721E+05  2.560323E+04 -3.416289E+04
       329  26 -1.262281E+06 -1.507563E+05  6.862546E+04 -5.946783E+05  2.252342E+04 -2.797372E+04
       329  27 -1.335467E+06 -1.856762E+05  5.426402E+04 -6.241246E+05  1.944331E+04 -2.177702E+04
       330   1 -1.930811E+06 -4.008317E+05 -4.974712E+04 -7.906747E+05  4.943799E+03  2.663743E+04
       330   2 -1.857222E+06 -3.657222E+05 -3.814509E+04 -7.611529E+05  9.657120E+03  2.106959E+04
       330   3 -1.771300E+06 -3.436626E+05 -2.833141E+04 -7.462330E+05  1.434669E+04  1.556302E+04
       330   4 -1.659005E+06 -3.025585E+05 -2.734896E+03 -7.145869E+05 -6.350522E+03  2.240046E+04
       330   5 -1.665166E+06 -2.961270E+05 -4.828374E+03 -7.072433E+05 -1.530112E+03  1.687370E+04
       330   6 -1.659025E+06 -3.027680E+05 -8.796363E+03 -7.145045E+05  3.266231E+03  1.140812E+04
       330   7 -1.387117E+06 -2.042767E+05  4.427652E+04 -6.384670E+05 -1.765023E+04  1.816145E+04
       330   8 -1.473070E+06 -2.265276E+05  2.848809E+04 -6.533176E+05 -1.272110E+04  1.267640E+04
       330   9 -1.546737E+06 -2.618719E+05  1.073885E+04 -6.827706E+05 -7.816372E+03  7.252406E+03
       330  10 -1.930812E+06 -4.008324E+05 -4.974850E+04 -7.906748E+05 -2.330885E-09  7.092227E-10
       330  11 -1.857222E+06 -3.657227E+05 -3.814610E+04 -7.611530E+05 -2.262708E-09  6.852291E-10
       330  12 -1.771300E+06 -3.436629E+05 -2.833226E+04 -7.462332E+05 -2.275426E-09 -7.275051E-10
       330  13 -1.659005E+06 -3.025590E+05 -2.735914E+03 -7.145868E+05 -9.668982E-10  1.097269E-09
       330  14 -1.665166E+06 -2.961273E+05 -4.828914E+03 -7.072433E+05 -1.757592E-09  5.830608E-10
       330  15 -1.659025E+06 -3.027681E+05 -8.796628E+03 -7.145046E+05 -4.877283E-10 -6.993006E-10
       330  16 -1.387117E+06 -2.042772E+05  4.427531E+04 -6.384668E+05  1.759796E-09  1.663064E-09
       330  17 -1.473070E+06 -2.265278E+05  2.848748E+04 -6.533175E+05  4.458963E-10  7.723888E-10
       330  18 -1.546737E+06 -2.618720E+05  1.073864E+04 -6.827705E+05  2.434119E-09 -2.485794E-10
       330  19 -1.930811E+06 -4.008317E+05 -4.974712E+04 -7.906747E+05 -4.943799E+03 -2.663743E+04
       330  20 -1.857222E+06 -3.657222E+05 -3.814509E+04 -7.611529E+05 -9.657120E+03 -2.106959E+04
       330  21 -1.771300E+06 -3.436626E+05 -2.833141E+04 -7.462330E+05 -1.434669E+04 -1.556302E+04
       330  22 -1.659005E+06 -3.025585E+05 -2.734896E+03 -7.145869E+05  6.350522E+03 -2.240046E+04
       330  23 -1.665166E+06 -2.961270E+05 -4.828374E+03 -7.072433E+05  1.530112E+03 -1.687370E+04
       330  24 -1.659025E+06 -3.027680E+05 -8.796363E+03 -7.145045E+05 -3.266231E+03 -1.140812E+04
       330  25 -1.387117E+06 -2.042767E+05  4.427652E+04 -6.384670E+05  1.765023E+04 -1.816145E+04
       330  26 -1.473070E+06 -2.265276E+05  2.848809E+04 -6.533176E+05  1.272110E+04 -1.267640E+04
       330  27 -1.546737E+06 -2.618719E+05  1.073885E+04 -6.827706E+05  7.816372E+03 -7.252406E+03
       331   1 -1.719540E+06 -3.254623E+05 -2.180893E+04 -7.328077E+05  1.745149E+04  1.246986E+04
       331   2 -1.646824E+06 -2.897288E+05 -1.733485E+04 -7.001504E+05  2.921414E+04  1.001979E+04
       331   3 -1.564746E+06 -2.724409E+05 -2.147014E+04 -6.809862E+05  4.069770E+04  8.316725E+03
       331   4 -1.659547E+06 -3.026790E+05 -1.171581E+04 -7.147603E+05  6.281215E+03  8.281596E+03
       331   5 -1.664706E+06 -2.976020E+05 -2.147235E+04 -7.064127E+05  1.934810E+04  6.320369E+03
       331   6 -1.660768E+06 -3.112312E+05 -4.087528E+04 -7.115614E+05  3.213478E+04  5.105610E+03
       331   7 -1.599551E+06 -2.798954E+05 -1.622423E+03 -6.967114E+05 -4.890100E+03  4.092883E+03
       331   8 -1.682587E+06 -3.054750E+05 -2.560946E+04 -7.126747E+05  9.482371E+03  2.621112E+03
       331   9 -1.756781E+06 -3.500203E+05 -6.028081E+04 -7.421321E+05  2.357319E+04  1.895129E+03
       331  10 -1.719540E+06 -3.254625E+05 -2.180979E+04 -7.328079E+05 -5.711595E-08 -2.316946E-08
       331  11 -1.646825E+06 -2.897291E+05 -1.733665E+04 -7.001507E+05  4.397857E-09 -1.891276E-09
       331  12 -1.564748E+06 -2.724414E+05 -2.147340E+04 -6.809865E+05  6.034821E-08  2.000736E-08
       331  13 -1.659547E+06 -3.026791E+05 -1.171602E+04 -7.147604E+05  1.915217E-09 -1.292343E-09
       331  14 -1.664706E+06 -2.976021E+05 -2.147313E+04 -7.064128E+05  4.293338E-09 -1.752111E-09
       331  15 -1.660769E+06 -3.112315E+05 -4.087727E+04 -7.115615E+05  2.633345E-09 -1.282172E-09
       331  16 -1.599551E+06 -2.798954E+05 -1.622499E+03 -6.967114E+05  6.156957E-08  2.055646E-08
       331  17 -1.682587E+06 -3.054751E+05 -2.560964E+04 -7.126747E+05  4.669939E-09 -1.832316E-09
       331  18 -1.756782E+06 -3.500205E+05 -6.028187E+04 -7.421322E+05 -5.643310E-08 -2.311639E-08
       331  19 -1.719540E+06 -3.254623E+05 -2.180893E+04 -7.328077E+05 -1.745149E+04 -1.246986E+04
       331  20 -1.646824E+06 -2.897288E+05 -1.733485E+04 -7.001504E+05 -2.921414E+04 -1.001979E+04
       331  21 -1.564746E+06 -2.724409E+05 -2.147014E+04 -6.809862E+05 -4.069770E+04 -8.316725E+03
       331  22 -1.659547E+06 -3.026790E+05 -1.171581E+04 -7.147603E+05 -6.281215E+03 -8.281596E+03
       331  23 -1.664706E+06 -2.976020E+05 -2.147235E+04 -7.064127E+05 -1.934810E+04 -6.320369E+03
       331  24 -1.660768E+06 -3.112312E+05 -4.087528E+04 -7.115614E+05 -3.213478E+04 -5.105610E+03
       331  25 -1.599551E+06 -2.798954E+05 -1.622423E+03 -6.967114E+05  4.890100E+03 -4.092883E+03
       331  26 -1.682587E+06 -3.054750E+05 -2.560946E+04 -7.126747E+05 -9.482371E+03 -2.621112E+03
       331  27 -1.756781E+06 -3.500203E+05 -6.028081E+04 -7.421321E+05 -2.357319E+04 -1.895129E+03
       332   1 -1.509819E+06 -2.619001E+05 -2.489692E+04 -6.800543E+05  4.903111E+04  7.644145E+03
       332   2 -1.471213E+06 -2.138176E+05 -5.404950E+04 -5.808691E+05  8.885103E+04  2.114074E+04
       332   3 -1.463897E+06 -2.805382E+05 -1.405185E+05 -4.699777E+05  1.255459E+05  4.298613E+04
       332   4 -1.667173E+06 -3.104291E+05 -5.438098E+04 -7.145143E+05  3.951122E+04  4.075013E+03
       332   5 -1.662151E+06 -3.368440E+05 -1.035953E+05 -6.884168E+05  9.390308E+04  2.302583E+04
       332   6 -1.691347E+06 -4.810017E+05 -2.217113E+05 -6.506186E+05  1.451648E+05  5.031521E+04
       332   7 -1.824503E+06 -3.589577E+05 -8.386588E+04 -7.489672E+05  2.999388E+04  5.064894E+02
       332   8 -1.853039E+06 -4.598355E+05 -1.531412E+05 -7.959245E+05  9.895338E+04  2.490917E+04
       332   9 -1.918702E+06 -6.813466E+05 -3.028985E+05 -8.311691E+05  1.647752E+05  5.763187E+04
       332  10 -1.509821E+06 -2.619008E+05 -2.490156E+04 -6.800546E+05  1.722651E-09 -4.481122E-10
       332  11 -1.471222E+06 -2.138202E+05 -5.406522E+04 -5.808706E+05  1.497177E-09  9.479920E-10
       332  12 -1.463915E+06 -2.805444E+05 -1.405517E+05 -4.699820E+05  1.073902E-09  8.649631E-10
       332  13 -1.667175E+06 -3.104295E+05 -5.438395E+04 -7.145145E+05  5.859798E-10 -4.653633E-10
       332  14 -1.662160E+06 -3.368469E+05 -1.036130E+05 -6.884185E+05  3.176181E-10  3.460256E-10
       332  15 -1.691371E+06 -4.810101E+05 -2.217558E+05 -6.506245E+05 -1.966014E-10  2.565628E-10
       332  16 -1.824504E+06 -3.589580E+05 -8.386758E+04 -7.489672E+05 -1.642603E-09 -1.055056E-09
       332  17 -1.853050E+06 -4.598388E+05 -1.531609E+05 -7.959265E+05 -1.922755E-09 -5.973511E-11
       332  18 -1.918732E+06 -6.813575E+05 -3.029560E+05 -8.311768E+05 -2.279976E-09 -4.914096E-10
       332  19 -1.509819E+06 -2.619001E+05 -2.489692E+04 -6.800543E+05 -4.903111E+04 -7.644145E+03
       332  20 -1.471213E+06 -2.138176E+05 -5.404950E+04 -5.808691E+05 -8.885103E+04 -2.114074E+04
       332  21 -1.463897E+06 -2.805382E+05 -1.405185E+05 -4.699777E+05 -1.255459E+05 -4.298613E+04
       332  22 -1.667173E+06 -3.104291E+05 -5.438098E+04 -7.145143E+05 -3.951122E+04 -4.075013E+03
       332  23 -1.662151E+06 -3.368440E+05 -1.035953E+05 -6.884168E+05 -9.390308E+04 -2.302583E+04
       332  24 -1.691347E+06 -4.810017E+05 -2.217113E+05 -6.506186E+05 -1.451648E+05 -5.031521E+04
       332  25 -1.824503E+06 -3.589577E+05 -8.386588E+04 -7.489672E+05 -2.999388E+04 -5.064894E+02
       332  26 -1.853039E+06 -4.598355E+05 -1.531412E+05 -7.959245E+05 -9.895338E+04 -2.490917E+04
       332  27 -1.918702E+06 -6.813466E+05 -3.028985E+05 -8.311691E+05 -1.647752E+05 -5.763187E+04
       333   1  7.805176E+05  1.401545E+05  2.018350E+05  5.960052E+04  1.952020E+05  4.054356E+03
       333   2  7.736271E+05 -1.163595E+05  4.753803E+04  1.744671E+04  1.300631E+05  1.152038E+04
       333   3  8.463360E+05 -8.906130E+04  6.620443E+03 -4.798722E+04  6.492708E+04  1.050204E+04
       333   4  1.156389E+06  2.335258E+05  2.943433E+05 -1.643346E+04  2.015229E+05  4.037418E+03
       333   5  1.116291E+06 -3.161791E+04  1.291845E+05 -4.662586E+03  1.318565E+05  1.151699E+04
       333   6  1.156522E+06 -1.226060E+04  8.049606E+04 -1.617109E+04  6.219696E+04  1.050297E+04
       333   7  1.532402E+06  3.269085E+05  3.868445E+05 -9.251351E+04  2.078476E+05  4.018945E+03
       333   8  1.459063E+06  5.311703E+04  2.108229E+05 -2.678415E+04  1.336509E+05  1.151347E+04
       333   9  1.466797E+06  6.453695E+04  1.543655E+05  1.566097E+04  5.946548E+04  1.050361E+04
       333  10  7.804767E+05  1.401442E+05  2.017634E+05  5.959988E+04  8.562708E-10 -1.496171E-09
       333  11  7.736089E+05 -1.163641E+05  4.750603E+04  1.744550E+04 -7.285622E-10 -5.009710E-10
       333  12  8.463314E+05 -8.906255E+04  6.612324E+03 -4.798777E+04 -1.987298E-09 -5.960112E-10
       333  13  1.156346E+06  2.335149E+05  2.942671E+05 -1.643412E+04 -1.253117E-10  5.400950E-10
       333  14  1.116272E+06 -3.162271E+04  1.291516E+05 -4.663808E+03  9.301830E-10 -6.023498E-10
       333  15  1.156517E+06 -1.226175E+04  8.048859E+04 -1.617162E+04  5.421933E-10 -8.275167E-10
       333  16  1.532356E+06  3.268969E+05  3.867635E+05 -9.251419E+04 -2.033574E-10  5.501044E-10
       333  17  1.459043E+06  5.311210E+04  2.107892E+05 -2.678539E+04  1.675792E-09 -1.805501E-10
       333  18  1.466794E+06  6.453588E+04  1.543587E+05  1.566047E+04  3.672000E-09  1.693748E-09
       333  19  7.805176E+05  1.401545E+05  2.018350E+05  5.960052E+04 -1.952020E+05 -4.054356E+03
       333  20  7.736271E+05 -1.163595E+05  4.753803E+04  1.744671E+04 -1.300631E+05 -1.152038E+04
       333  21  8.463360E+05 -8.906130E+04  6.620443E+03 -4.798722E+04 -6.492708E+04 -1.050204E+04
       333  22  1.156389E+06  2.335258E+05  2.943433E+05 -1.643346E+04 -2.015229E+05 -4.037418E+03
       333  23  1.116291E+06 -3.161791E+04  1.291845E+05 -4.662586E+03 -1.318565E+05 -1.151699E+04
       333  24  1.156522E+06 -1.226060E+04  8.049606E+04 -1.617109E+04 -6.219696E+04 -1.050297E+04
       333  25  1.532402E+06  3.269085E+05  3.868445E+05 -9.251351E+04 -2.078476E+05 -4.018945E+03
       333  26  1.459063E+06  5.311703E+04  2.108229E+05 -2.678415E+04 -1.336509E+05 -1.151347E+04
       333  27  1.466797E+06  6.453695E+04  1.543655E+05  1.566097E+04 -5.946548E+04 -1.050361E+04
       334   1  8.713653E+05 -4.302409E+04  1.232607E+03 -9.258145E+03  4.994654E+04  8.529562E+03
       334   2  8.979599E+05 -6.225445E+04 -2.323313E+04 -3.231026E+03  3.310051E+04  7.831941E+03
       334   3  9.340995E+05 -5.242011E+04 -2.945597E+04 -1.953551E+04  1.625366E+04  6.552863E+03
       334   4  1.140778E+06  2.365873E+04  6.558656E+04 -1.604751E+04  4.975175E+04  8.528636E+03
       334   5  1.135993E+06 -3.352099E+03  3.352096E+04 -4.874645E+03  3.259147E+04  7.831385E+03
       334   6  1.140802E+06 -1.250338E+03  1.991030E+04 -1.603257E+04  1.543123E+04  6.552499E+03
       334   7  1.410257E+06  9.033648E+04  1.299354E+05 -2.283984E+04  4.955687E+04  8.527714E+03
       334   8  1.374078E+06  5.554618E+04  9.027107E+04 -6.518902E+03  3.208224E+04  7.830831E+03
       334   9  1.347543E+06  4.991639E+04  6.927358E+04 -1.252847E+04  1.460852E+04  6.552126E+03
       334  10  8.713626E+05 -4.302483E+04  1.227789E+03 -9.258488E+03  6.173485E-10 -2.264995E-10
       334  11  8.979587E+05 -6.225481E+04 -2.323530E+04 -3.231235E+03  6.979275E-10 -1.632614E-10
       334  12  9.340992E+05 -5.242022E+04 -2.945654E+04 -1.953560E+04 -1.319642E-09 -6.034259E-11
       334  13  1.140775E+06  2.365799E+04  6.558178E+04 -1.604785E+04  1.973517E-09  1.169028E-09
       334  14  1.135992E+06 -3.352449E+03  3.351885E+04 -4.874850E+03  1.961375E-10  3.413770E-10
       334  15  1.140801E+06 -1.250448E+03  1.990978E+04 -1.603265E+04 -2.157517E-09 -3.494924E-10
       334  16  1.410255E+06  9.033575E+04  1.299307E+05 -2.284018E+04  8.496751E-10  9.455775E-10
       334  17  1.374077E+06  5.554584E+04  9.026903E+04 -6.519104E+03  5.962127E-11 -2.161324E-10
       334  18  1.347543E+06  4.991629E+04  6.927310E+04 -1.252854E+04  6.906449E-10  2.035310E-10
       334  19  8.713653E+05 -4.302409E+04  1.232607E+03 -9.258145E+03 -4.994654E+04 -8.529562E+03
       334  20  8.979599E+05 -6.225445E+04 -2.323313E+04 -3.231026E+03 -3.310051E+04 -7.831941E+03
       334  21  9.340995E+05 -5.242011E+04 -2.945597E+04 -1.953551E+04 -1.625366E+04 -6.552863E+03
       334  22  1.140778E+06  2.365873E+04  6.558656E+04 -1.604751E+04 -4.975175E+04 -8.528636E+03
       334  23  1.135993E+06 -3.352099E+03  3.352096E+04 -4.874645E+03 -3.259147E+04 -7.831385E+03
       334  24  1.140802E+06 -1.250338E+03  1.991030E+04 -1.603257E+04 -1.543123E+04 -6.552499E+03
       334  25  1.410257E+06  9.033648E+04  1.299354E+05 -2.283984E+04 -4.955687E+04 -8.527714E+03
       334  26  1.374078E+06  5.554618E+04  9.027107E+04 -6.518902E+03 -3.208224E+04 -7.830831E+03
       334  27  1.347543E+06  4.991639E+04  6.927358E+04 -1.252847E+04 -1.460852E+04 -6.552126E+03
       335   1  9.716882E+05 -3.903858E+04 -2.424052E+04 -1.546245E+04  1.293471E+04  5.719811E+03
       335   2  1.001530E+06 -3.421659E+04 -2.405804E+04 -5.023867E+03  8.665896E+03  4.486750E+03
       335   3  1.032698E+06 -2.644187E+04 -2.035436E+04 -1.631391E+04  4.396620E+03  3.221754E+03
       335   4  1.138967E+06  2.338961E+03  1.556522E+04 -1.590357E+04  1.229414E+04  5.719497E+03
       335   5  1.138305E+06 -3.715436E+02  8.553595E+03 -5.039064E+03  8.007371E+03  4.486523E+03
       335   6  1.138972E+06 -1.265158E+02  5.075004E+03 -1.590287E+04  3.720350E+03  3.221614E+03
       335   7  1.306270E+06  4.371449E+04  5.536900E+04 -1.634480E+04  1.165339E+04  5.719185E+03
       335   8  1.275097E+06  3.347216E+04  4.116392E+04 -5.054265E+03  7.348702E+03  4.486295E+03
       335   9  1.245257E+06  2.618802E+04  3.050358E+04 -1.549176E+04  3.043965E+03  3.221472E+03
       335  10  9.716881E+05 -3.903866E+04 -2.424089E+04 -1.546251E+04 -6.387773E-10  1.674816E-11
       335  11  1.001530E+06 -3.421663E+04 -2.405822E+04 -5.023898E+03 -6.638947E-10 -5.601582E-10
       335  12  1.032698E+06 -2.644189E+04 -2.035442E+04 -1.631392E+04 -1.743619E-10  2.547288E-10
       335  13  1.138966E+06  2.338885E+03  1.556487E+04 -1.590362E+04  7.742851E-11 -3.539375E-11
       335  14  1.138305E+06 -3.715824E+02  8.553437E+03 -5.039093E+03 -3.584676E-10  6.512150E-11
       335  15  1.138972E+06 -1.265307E+02  5.074958E+03 -1.590288E+04 -2.030930E-10 -1.785878E-10
       335  16  1.306270E+06  4.371442E+04  5.536868E+04 -1.634486E+04  7.958005E-10  3.326890E-10
       335  17  1.275097E+06  3.347212E+04  4.116378E+04 -5.054291E+03 -6.290980E-10 -1.294496E-10
       335  18  1.245256E+06  2.618801E+04  3.050354E+04 -1.549177E+04  1.291961E-09  9.530301E-11
       335  19  9.716882E+05 -3.903858E+04 -2.424052E+04 -1.546245E+04 -1.293471E+04 -5.719811E+03
       335  20  1.001530E+06 -3.421659E+04 -2.405804E+04 -5.023867E+03 -8.665896E+03 -4.486750E+03
       335  21  1.032698E+06 -2.644187E+04 -2.035436E+04 -1.631391E+04 -4.396620E+03 -3.221754E+03
       335  22  1.138967E+06  2.338961E+03  1.556522E+04 -1.590357E+04 -1.229414E+04 -5.719497E+03
       335  23  1.138305E+06 -3.715436E+02  8.553595E+03 -5.039064E+03 -8.007371E+03 -4.486523E+03
       335  24  1.138972E+06 -1.265158E+02  5.075004E+03 -1.590287E+04 -3.720350E+03 -3.221614E+03
       335  25  1.306270E+06  4.371449E+04  5.536900E+04 -1.634480E+04 -1.165339E+04 -5.719185E+03
       335  26  1.275097E+06  3.347216E+04  4.116392E+04 -5.054265E+03 -7.348702E+03 -4.486295E+03
       335  27  1.245257E+06  2.618802E+04  3.050358E+04 -1.549176E+04 -3.043965E+03 -3.221472E+03
       336   1  1.071098E+06 -1.650212E+04 -1.206207E+04 -1.585118E+04  3.569469E+03  2.483232E+03
       336   2  1.101085E+06 -9.333087E+03 -6.484608E+03 -5.142638E+03  2.346799E+03  1.230459E+03
       336   3  1.131319E+06 -1.855879E+03 -3.327293E+01 -1.588477E+04  1.123957E+03 -2.229303E+01
       336   4  1.138733E+06  2.152865E+02  3.972534E+03 -1.584139E+04  2.907400E+03  2.483128E+03
       336   5  1.138611E+06 -4.785581E+01  2.462301E+03 -5.116078E+03  1.684602E+03  1.230377E+03
       336   6  1.138734E+06 -2.882317E+00  1.825871E+03 -1.584136E+04  4.616906E+02 -2.235009E+01
       336   7  1.206372E+06  1.693236E+04  2.000682E+04 -1.583159E+04  2.245259E+03  2.483025E+03
       336   8  1.176138E+06  9.237274E+03  1.140911E+04 -5.089518E+03  1.022365E+03  1.230295E+03
       336   9  1.146149E+06  1.850111E+03  3.685012E+03 -1.579796E+04 -2.005838E+02 -2.240723E+01
       336  10  1.071098E+06 -1.650213E+04 -1.206210E+04 -1.585119E+04 -3.340594E-10  3.022019E-10
       336  11  1.101085E+06 -9.333090E+03 -6.484622E+03 -5.142640E+03 -1.367975E-10 -2.803415E-10
       336  12  1.131319E+06 -1.855880E+03 -3.327530E+01 -1.588477E+04 -1.126721E-10 -3.573363E-10
       336  13  1.138733E+06  2.152776E+02  3.972507E+03 -1.584139E+04  5.723814E-10  2.414017E-10
       336  14  1.138611E+06 -4.785819E+01  2.462293E+03 -5.116080E+03 -7.818328E-10  1.666375E-11
       336  15  1.138734E+06 -2.882375E+00  1.825870E+03 -1.584136E+04 -4.534011E-10 -3.521605E-10
       336  16  1.206372E+06  1.693235E+04  2.000680E+04 -1.583159E+04  4.064274E-11  4.474058E-10
       336  17  1.176138E+06  9.237272E+03  1.140911E+04 -5.089519E+03 -1.814018E-10 -1.042478E-10
       336  18  1.146149E+06  1.850111E+03  3.685012E+03 -1.579796E+04  5.839736E-10 -6.248428E-10
       336  19  1.071098E+06 -1.650212E+04 -1.206207E+04 -1.585118E+04 -3.569469E+03 -2.483232E+03
       336  20  1.101085E+06 -9.333087E+03 -6.484608E+03 -5.142638E+03 -2.346799E+03 -1.230459E+03
       336  21  1.131319E+06 -1.855879E+03 -3.327293E+01 -1.588477E+04 -1.123957E+03  2.229303E+01
       336  22  1.138733E+06  2.152865E+02  3.972534E+03 -1.584139E+04 -2.907400E+03 -2.483128E+03
       336  23  1.138611E+06 -4.785581E+01  2.462301E+03 -5.116078E+03 -1.684602E+03 -1.230377E+03
       336  24  1.138734E+06 -2.882317E+00  1.825871E+03 -1.584136E+04 -4.616906E+02  2.235009E+01
       336  25  1.206372E+06  1.693236E+04  2.000682E+04 -1.583159E+04 -2.245259E+03 -2.483025E+03
       336  26  1.176138E+06  9.237274E+03  1.140911E+04 -5.089518E+03 -1.022365E+03 -1.230295E+03
       336  27  1.146149E+06  1.850111E+03  3.685012E+03 -1.579796E+04  2.005838E+02  2.240723E+01
       337   1  1.169731E+06  7.698587E+03  9.207657E+03 -1.582868E+04  8.034093E+02 -7.513947E+02
       337   2  1.199803E+06  1.510086E+04  1.648779E+04 -5.090722E+03 -1.404203E+02 -2.005397E+03
       337   3  1.230063E+06  2.271593E+04  2.443706E+04 -1.584096E+04 -1.084138E+03 -3.261031E+03
       337   4  1.138721E+06  7.612270E+00  1.723344E+03 -1.584975E+04  1.408265E+02 -7.514569E+02
       337   5  1.138627E+06 -3.547115E+01  1.902955E+03 -5.105599E+03 -8.038088E+02 -2.005499E+03
       337   6  1.138720E+06  1.344574E+02  2.752357E+03 -1.584977E+04 -1.748287E+03 -3.261169E+03
       337   7  1.107712E+06 -7.683433E+03 -5.761037E+03 -1.587082E+04 -5.217233E+02 -7.515191E+02
       337   8  1.077454E+06 -1.517207E+04 -1.268214E+04 -5.120475E+03 -1.467132E+03 -2.005601E+03
       337   9  1.047385E+06 -2.244761E+04 -1.893293E+04 -1.585858E+04 -2.412339E+03 -3.261308E+03
       337  10  1.169731E+06  7.698587E+03  9.207655E+03 -1.582868E+04 -7.317115E-10 -1.697498E-10
       337  11  1.199803E+06  1.510086E+04  1.648778E+04 -5.090723E+03  9.146899E-10  5.067311E-10
       337  12  1.230063E+06  2.271591E+04  2.443704E+04 -1.584096E+04  7.423764E-10  3.295718E-10
       337  13  1.138721E+06  7.611658E+00  1.723343E+03 -1.584975E+04  1.344418E-09 -1.292167E-10
       337  14  1.138627E+06 -3.547564E+01  1.902946E+03 -5.105601E+03  4.940220E-10  5.494084E-10
       337  15  1.138720E+06  1.344451E+02  2.752332E+03 -1.584978E+04 -5.916119E-10  1.247931E-11
       337  16  1.107712E+06 -7.683434E+03 -5.761038E+03 -1.587082E+04  1.657714E-09 -3.231459E-10
       337  17  1.077454E+06 -1.517208E+04 -1.268215E+04 -5.120477E+03 -1.441634E-09  1.133817E-10
       337  18  1.047385E+06 -2.244762E+04 -1.893296E+04 -1.585859E+04 -5.614860E-10 -8.818731E-11
       337  19  1.169731E+06  7.698587E+03  9.207657E+03 -1.582868E+04 -8.034093E+02  7.513947E+02
       337  20  1.199803E+06  1.510086E+04  1.648779E+04 -5.090722E+03  1.404203E+02  2.005397E+03
       337  21  1.230063E+06  2.271593E+04  2.443706E+04 -1.584096E+04  1.084138E+03  3.261031E+03
       337  22  1.138721E+06  7.612270E+00  1.723344E+03 -1.584975E+04 -1.408265E+02  7.514569E+02
       337  23  1.138627E+06 -3.547115E+01  1.902955E+03 -5.105599E+03  8.038088E+02  2.005499E+03
       337  24  1.138720E+06  1.344574E+02  2.752357E+03 -1.584977E+04  1.748287E+03  3.261169E+03
       337  25  1.107712E+06 -7.683433E+03 -5.761037E+03 -1.587082E+04  5.217233E+02  7.515191E+02
       337  26  1.077454E+06 -1.517207E+04 -1.268214E+04 -5.120475E+03  1.467132E+03  2.005601E+03
       337  27  1.047385E+06 -2.244761E+04 -1.893293E+04 -1.585858E+04  2.412339E+03  3.261308E+03
       338   1  1.269000E+06  3.212755E+04  3.453790E+04 -1.565478E+04 -1.623893E+03 -4.002410E+03
       338   2  1.299222E+06  3.953584E+04  4.395466E+04 -4.997547E+03 -4.459687E+03 -5.272581E+03
       338   3  1.330335E+06  4.885903E+04  5.570237E+04 -1.618649E+04 -7.295182E+03 -6.509723E+03
       338   4  1.138873E+06 -8.533924E+01  3.425745E+03 -1.592919E+04 -2.303636E+03 -4.002599E+03
       338   5  1.138427E+06 -2.457541E+02  5.622765E+03 -5.006208E+03 -5.121321E+03 -5.272869E+03
       338   6  1.138869E+06  1.506115E+03  1.013885E+04 -1.592974E+04 -7.938568E+03 -6.510105E+03
       338   7  1.008763E+06 -3.229945E+04 -2.768760E+04 -1.620354E+04 -2.983237E+03 -4.002786E+03
       338   8  9.776561E+05 -4.002921E+04 -3.271094E+04 -5.014869E+03 -5.782784E+03 -5.273156E+03
       338   9  9.474360E+05 -4.584944E+04 -3.542724E+04 -1.567308E+04 -8.581757E+03 -6.510488E+03
       338  10  1.269000E+06  3.212753E+04  3.453787E+04 -1.565479E+04  4.129754E-10  3.165416E-10
       338  11  1.299222E+06  3.953580E+04  4.395457E+04 -4.997566E+03  6.653105E-10 -7.528481E-10
       338  12  1.330335E+06  4.885898E+04  5.570220E+04 -1.618652E+04  7.358003E-10  1.179817E-10
       338  13  1.138873E+06 -8.535787E+01  3.425705E+03 -1.592920E+04 -5.219083E-10  6.806665E-11
       338  14  1.138427E+06 -2.457910E+02  5.622663E+03 -5.006230E+03 -4.974507E-10  1.076869E-10
       338  15  1.138869E+06  1.506053E+03  1.013865E+04 -1.592978E+04 -1.332658E-09 -1.562880E-10
       338  16  1.008763E+06 -3.229947E+04 -2.768765E+04 -1.620355E+04  4.912998E-10 -3.262422E-10
       338  17  9.776560E+05 -4.002925E+04 -3.271105E+04 -5.014894E+03 -2.132459E-09  5.469417E-10
       338  18  9.474359E+05 -4.584951E+04 -3.542746E+04 -1.567312E+04 -7.664693E-10  4.007980E-10
       338  19  1.269000E+06  3.212755E+04  3.453790E+04 -1.565478E+04  1.623893E+03  4.002410E+03
       338  20  1.299222E+06  3.953584E+04  4.395466E+04 -4.997547E+03  4.459687E+03  5.272581E+03
       338  21  1.330335E+06  4.885903E+04  5.570237E+04 -1.618649E+04  7.295182E+03  6.509723E+03
       338  22  1.138873E+06 -8.533924E+01  3.425745E+03 -1.592919E+04  2.303636E+03  4.002599E+03
       338  23  1.138427E+06 -2.457541E+02  5.622765E+03 -5.006208E+03  5.121321E+03  5.272869E+03
       338  24  1.138869E+06  1.506115E+03  1.013885E+04 -1.592974E+04  7.938568E+03  6.510105E+03
       338  25  1.008763E+06 -3.229945E+04 -2.768760E+04 -1.620354E+04  2.983237E+03  4.002786E+03
       338  26  9.776561E+05 -4.002921E+04 -3.271094E+04 -5.014869E+03  5.782784E+03  5.273156E+03
       338  27  9.474360E+05 -4.584944E+04 -3.542724E+04 -1.567308E+04  8.581757E+03  6.510488E+03
       339   1  1.371245E+06  5.639149E+04  6.813628E+04 -1.376306E+04 -9.142348E+03 -7.352970E+03
       339   2  1.399715E+06  6.282732E+04  8.439628E+04 -5.828361E+03 -2.061258E+04 -8.637576E+03
       339   3  1.434511E+06  8.818903E+04  1.128652E+05 -2.040896E+04 -3.208346E+04 -9.301143E+03
       339   4  1.140062E+06 -8.204327E+02  1.294772E+04 -1.607475E+04 -9.980433E+03 -7.353496E+03
       339   5  1.136919E+06 -2.183881E+03  2.175639E+04 -4.822533E+03 -2.111803E+04 -8.638164E+03
       339   6  1.140045E+06  1.532539E+04  4.254711E+04 -1.608599E+04 -3.225570E+04 -9.301794E+03
       339   7  9.089280E+05 -5.803619E+04 -4.224460E+04 -1.838559E+04 -1.081821E+04 -7.354016E+03
       339   8  8.741856E+05 -6.720006E+04 -4.088834E+04 -3.817140E+03 -2.162327E+04 -8.638753E+03
       339   9  8.456589E+05 -5.754444E+04 -2.777706E+04 -1.176509E+04 -3.242785E+04 -9.302448E+03
       339  10  1.371245E+06  5.639141E+04  6.813602E+04 -1.376311E+04 -4.507409E-10 -1.261586E-10
       339  11  1.399714E+06  6.282713E+04  8.439535E+04 -5.828504E+03 -1.109846E-09 -9.057039E-10
       339  12  1.434509E+06  8.818866E+04  1.128631E+05 -2.040920E+04 -3.196077E-10 -1.277229E-09
       339  13  1.140062E+06 -8.205175E+02  1.294743E+04 -1.607481E+04 -1.649752E-09 -2.494004E-10
       339  14  1.136918E+06 -2.184080E+03  2.175542E+04 -4.822680E+03 -1.247925E-09 -7.625447E-10
       339  15  1.140044E+06  1.532502E+04  4.254499E+04 -1.608623E+04 -3.736828E-10 -1.157034E-09
       339  16  9.089278E+05 -5.803628E+04 -4.224492E+04 -1.838565E+04 -1.391783E-10 -6.244425E-12
       339  17  8.741851E+05 -6.720026E+04 -4.088936E+04 -3.817291E+03  8.487085E-10  1.113852E-09
       339  18  8.456577E+05 -5.754481E+04 -2.777920E+04 -1.176533E+04  7.673215E-10 -3.655629E-10
       339  19  1.371245E+06  5.639149E+04  6.813628E+04 -1.376306E+04  9.142348E+03  7.352970E+03
       339  20  1.399715E+06  6.282732E+04  8.439628E+04 -5.828361E+03  2.061258E+04  8.637576E+03
       339  21  1.434511E+06  8.818903E+04  1.128652E+05 -2.040896E+04  3.208346E+04  9.301143E+03
       339  22  1.140062E+06 -8.204327E+02  1.294772E+04 -1.607475E+04  9.980433E+03  7.353496E+03
       339  23  1.136919E+06 -2.183881E+03  2.175639E+04 -4.822533E+03  2.111803E+04  8.638164E+03
       339  24  1.140045E+06  1.532539E+04  4.254711E+04 -1.608599E+04  3.225570E+04  9.301794E+03
       339  25  9.089280E+05 -5.803619E+04 -4.224460E+04 -1.838559E+04  1.081821E+04  7.354016E+03
       339  26  8.741856E+05 -6.720006E+04 -4.088834E+04 -3.817140E+03  2.162327E+04  8.638753E+03
       339  27  8.456589E+05 -5.754444E+04 -2.777706E+04 -1.176509E+04  3.242785E+04  9.302448E+03
       340   1  1.485968E+06  7.509825E+04  1.321312E+05  4.516228E+03 -3.744766E+04 -1.135851E+04
       340   2  1.492659E+06  7.059310E+04  1.715518E+05 -1.880484E+04 -8.744772E+04 -1.234040E+04
       340   3  1.552343E+06  2.513875E+05  2.898367E+05 -6.559400E+04 -1.374615E+05 -4.248491E+03
       340   4  1.150261E+06 -7.971052E+03  5.221491E+04 -1.623306E+04 -4.032815E+04 -1.136014E+04
       340   5  1.124123E+06 -2.052586E+04  8.377423E+04 -4.596053E+03 -8.550743E+04 -1.234083E+04
       340   6  1.150171E+06  1.514380E+05  1.908868E+05 -1.642463E+04 -1.306973E+05 -4.250964E+03
       340   7  8.146589E+05 -9.104686E+04 -2.770898E+04 -3.697111E+04 -4.320708E+04 -1.136159E+04
       340   8  7.557117E+05 -1.116538E+05 -4.012682E+03  9.604243E+03 -8.356826E+04 -1.234118E+04
       340   9  7.481507E+05  5.148562E+04  9.192639E+04  3.271288E+04 -1.239374E+05 -4.252370E+03
       340  10  1.485967E+06  7.509774E+04  1.321283E+05  4.515886E+03  1.999671E-11 -1.850003E-09
       340  11  1.492651E+06  7.059089E+04  1.715371E+05 -1.880571E+04 -9.092128E-10 -3.424156E-09
       340  12  1.552323E+06  2.513825E+05  2.898012E+05 -6.559447E+04 -2.780000E-10 -9.785564E-10
       340  13  1.150260E+06 -7.971626E+03  5.221162E+04 -1.623342E+04 -2.851147E-09 -4.585895E-09
       340  14  1.124115E+06 -2.052798E+04  8.376023E+04 -4.596903E+03  1.446908E-09  1.715251E-09
       340  15  1.150153E+06  1.514334E+05  1.908547E+05 -1.642507E+04 -1.317969E-09 -7.125042E-11
       340  16  8.146569E+05 -9.104750E+04 -2.771272E+04 -3.697151E+04 -3.559709E-10 -1.347137E-09
       340  17  7.557041E+05 -1.116559E+05 -4.026076E+03  9.603412E+03 -4.945286E-10  1.308402E-09
       340  18  7.481342E+05  5.148148E+04  9.189753E+04  3.271245E+04  1.036957E-10 -1.318790E-09
       340  19  1.485968E+06  7.509825E+04  1.321312E+05  4.516228E+03  3.744766E+04  1.135851E+04
       340  20  1.492659E+06  7.059310E+04  1.715518E+05 -1.880484E+04  8.744772E+04  1.234040E+04
       340  21  1.552343E+06  2.513875E+05  2.898367E+05 -6.559400E+04  1.374615E+05  4.248491E+03
       340  22  1.150261E+06 -7.971052E+03  5.221491E+04 -1.623306E+04  4.032815E+04  1.136014E+04
       340  23  1.124123E+06 -2.052586E+04  8.377423E+04 -4.596053E+03  8.550743E+04  1.234083E+04
       340  24  1.150171E+06  1.514380E+05  1.908868E+05 -1.642463E+04  1.306973E+05  4.250964E+03
       340  25  8.146589E+05 -9.104686E+04 -2.770898E+04 -3.697111E+04  4.320708E+04  1.136159E+04
       340  26  7.557117E+05 -1.116538E+05 -4.012682E+03  9.604243E+03  8.356826E+04  1.234118E+04
       340  27  7.481507E+05  5.148562E+04  9.192639E+04  3.271288E+04  1.239374E+05  4.252370E+03
       341   1  1.029518E+06  4.136822E+06  1.054613E+06 -5.267651E+05  3.293572E+04  1.605447E+05
       341   2  6.503752E+05  3.209863E+06  7.222357E+05 -1.789418E+05  9.005574E+04  7.111617E+04
       341   3  4.486744E+05  2.341567E+06  4.925310E+05 -4.662888E+05  5.804868E+04 -1.850595E+04
       341   4  1.319130E+05  5.282619E+05  1.664228E+05 -4.763199E+05  3.310073E+04  1.063604E+05
       341   5 -1.861958E+04  5.037614E+05  7.823668E+04 -1.588535E+05  9.010917E+04  6.447090E+04
       341   6  5.406412E+02  5.292608E+05  6.018153E+04 -4.766854E+05  5.782754E+04  2.225665E+04
       341   7 -7.666490E+05 -3.068497E+06 -7.227159E+05 -4.261549E+05  3.325759E+04  5.248752E+04
       341   8 -6.881406E+05 -2.195645E+06 -5.662746E+05 -1.388455E+05  9.016232E+04  5.785386E+04
       341   9 -4.478285E+05 -1.280038E+06 -3.723923E+05 -4.870464E+05  5.760469E+04  6.290106E+04
       341  10  1.029510E+06  4.136794E+06  1.054563E+06 -5.267694E+05 -1.330079E-10  1.223191E-09
       341  11  6.503652E+05  3.209855E+06  7.222109E+05 -1.789470E+05 -1.229169E-09  7.074122E-09
       341  12  4.486707E+05  2.341566E+06  4.925240E+05 -4.662879E+05  1.634231E-09  3.424340E-09
       341  13  1.319088E+05  5.282495E+05  1.663995E+05 -4.763227E+05  8.022466E-10 -4.799723E-11
       341  14 -1.862942E+04  5.037548E+05  7.821361E+04 -1.588582E+05 -3.713145E-09 -1.788008E-09
       341  15  5.369152E+02  5.292593E+05  6.017431E+04 -4.766865E+05  3.410483E-10 -8.590886E-09
       341  16 -7.666509E+05 -3.068500E+06 -7.227232E+05 -4.261563E+05 -1.560601E-10 -2.368022E-10
       341  17 -6.881502E+05 -2.195651E+06 -5.662962E+05 -1.388497E+05  1.900451E-09 -6.576135E-09
       341  18 -4.478332E+05 -1.280043E+06 -3.724060E+05 -4.870493E+05 -5.911635E-10 -1.129385E-08
       341  19  1.029518E+06  4.136822E+06  1.054613E+06 -5.267651E+05 -3.293572E+04 -1.605447E+05
       341  20  6.503752E+05  3.209863E+06  7.222357E+05 -1.789418E+05 -9.005574E+04 -7.111617E+04
       341  21  4.486744E+05  2.341567E+06  4.925310E+05 -4.662888E+05 -5.804868E+04  1.850595E+04
       341  22  1.319130E+05  5.282619E+05  1.664228E+05 -4.763199E+05 -3.310073E+04 -1.063604E+05
       341  23 -1.861958E+04  5.037614E+05  7.823668E+04 -1.588535E+05 -9.010917E+04 -6.447090E+04
       341  24  5.406412E+02  5.292608E+05  6.018153E+04 -4.766854E+05 -5.782754E+04 -2.225665E+04
       341  25 -7.666490E+05 -3.068497E+06 -7.227159E+05 -4.261549E+05 -3.325759E+04 -5.248752E+04
       341  26 -6.881406E+05 -2.195645E+06 -5.662746E+05 -1.388455E+05 -9.016232E+04 -5.785386E+04
       341  27 -4.478285E+05 -1.280038E+06 -3.723923E+05 -4.870464E+05 -5.760469E+04 -6.290106E+04
       342   1  1.823791E+05  1.189056E+06  2.150994E+05 -4.865753E+05  2.284275E+04 -4.198272E+03
       342   2 -5.885203E+04  2.922089E+05 -1.375415E+03 -1.571111E+05 -7.200473E+03 -3.067835E+04
       342   3 -2.493100E+05 -5.959926E+05 -1.898272E+05 -4.632729E+05 -3.655813E+04 -5.710284E+04
       342   4  1.689581E+04  5.206901E+05  5.599728E+04 -4.766160E+05  2.274548E+04  1.193718E+04
       342   5 -3.252272E+03  5.166667E+05  5.217954E+04 -1.587888E+05 -7.290791E+03 -1.491225E+04
       342   6  2.748156E+04  5.206062E+05  7.668314E+04 -4.765579E+05 -3.664311E+04 -4.174330E+04
       342   7 -1.486193E+05 -1.472655E+05 -1.031351E+05 -4.666667E+05  2.264867E+04  2.805536E+04
       342   8  5.234398E+04  7.411713E+05  1.057319E+05 -1.604671E+05 -7.381176E+03  8.595215E+02
       342   9  3.041836E+05  1.638349E+06  3.431067E+05 -4.898649E+05 -3.672867E+04 -2.635620E+04
       342  10  1.823785E+05  1.189055E+06  2.150984E+05 -4.865752E+05 -1.275205E-09  6.873552E-09
       342  11 -5.885233E+04  2.922079E+05 -1.377280E+03 -1.571113E+05  9.597471E-10  1.040490E-08
       342  12 -2.493123E+05 -5.959965E+05 -1.898358E+05 -4.632746E+05 -5.588355E-10  4.218651E-09
       342  13  1.689521E+04  5.206898E+05  5.599603E+04 -4.766162E+05 -9.178800E-10  9.089329E-11
       342  14 -3.252389E+03  5.166665E+05  5.217902E+04 -1.587889E+05  2.190498E-09 -3.100349E-09
       342  15  2.747965E+04  5.206040E+05  7.667733E+04 -4.765592E+05  6.066834E-09 -9.097021E-09
       342  16 -1.486200E+05 -1.472665E+05 -1.031375E+05 -4.666672E+05 -1.761026E-09 -4.032504E-09
       342  17  5.234392E+04  7.411712E+05  1.057318E+05 -1.604671E+05 -4.686944E-09 -1.048561E-08
       342  18  3.041820E+05  1.638348E+06  3.431029E+05 -4.898656E+05  5.743021E-10 -1.206688E-08
       342  19  1.823791E+05  1.189056E+06  2.150994E+05 -4.865753E+05 -2.284275E+04  4.198272E+03
       342  20 -5.885203E+04  2.922089E+05 -1.375415E+03 -1.571111E+05  7.200473E+03  3.067835E+04
       342  21 -2.493100E+05 -5.959926E+05 -1.898272E+05 -4.632729E+05  3.655813E+04  5.710284E+04
       342  22  1.689581E+04  5.206901E+05  5.599728E+04 -4.766160E+05 -2.274548E+04 -1.193718E+04
       342  23 -3.252272E+03  5.166667E+05  5.217954E+04 -1.587888E+05  7.290791E+03  1.491225E+04
       342  24  2.748156E+04  5.206062E+05  7.668314E+04 -4.765579E+05  3.664311E+04  4.174330E+04
       342  25 -1.486193E+05 -1.472655E+05 -1.031351E+05 -4.666667E+05 -2.264867E+04 -2.805536E+04
       342  26  5.234398E+04  7.411713E+05  1.057319E+05 -1.604671E+05  7.381176E+03 -8.595215E+02
       342  27  3.041836E+05  1.638349E+06  3.431067E+05 -4.898649E+05  3.672867E+04  2.635620E+04
       343   1 -5.660128E+05 -1.720504E+06 -4.498197E+05 -4.999780E+05 -7.277019E+04 -9.923835E+04
       343   2 -8.146423E+05 -2.656031E+06 -6.190423E+05 -1.290569E+05 -1.049515E+05 -1.185607E+05
       343   3 -7.755063E+05 -3.510242E+06 -7.025662E+05 -3.941708E+05 -3.796989E+04 -1.375717E+05
       343   4 -6.445516E+03  5.376164E+05  8.984896E+04 -4.768440E+05 -7.298543E+04 -5.631502E+04
       343   5 -3.348724E+04  4.924165E+05  1.329249E+05 -1.587194E+05 -1.048807E+05 -1.281368E+05
       343   6  2.356169E+05  5.364343E+05  2.978032E+05 -4.763603E+05 -3.783184E+04 -1.996798E+05
       343   7  5.527564E+05  2.800423E+06  6.291660E+05 -4.536174E+05 -7.319702E+04 -1.323564E+04
       343   8  7.469528E+05  3.649976E+06  8.841951E+05 -1.885251E+05 -1.048092E+05 -1.377602E+05
       343   9  1.245542E+06  4.598064E+06  1.296975E+06 -5.590770E+05 -3.767794E+04 -2.621906E+05
       343  10 -5.660211E+05 -1.720516E+06 -4.498483E+05 -4.999838E+05  1.445042E-09  4.736688E-09
       343  11 -8.146579E+05 -2.656049E+06 -6.190895E+05 -1.290669E+05 -5.510233E-10  4.997727E-09
       343  12 -7.755129E+05 -3.510263E+06 -7.026047E+05 -3.941750E+05 -6.248388E-10  7.529582E-10
       343  13 -6.452093E+03  5.376115E+05  8.983298E+04 -4.768473E+05 -1.332121E-09  1.461560E-10
       343  14 -3.350346E+04  4.923959E+05  1.328734E+05 -1.587302E+05  5.396912E-10 -1.682672E-09
       343  15  2.356047E+05  5.363911E+05  2.977256E+05 -4.763664E+05 -1.115344E-09 -1.584701E-09
       343  16  5.527506E+05  2.800422E+06  6.291556E+05 -4.536182E+05  3.933166E-09 -2.320519E-09
       343  17  7.469359E+05  3.649953E+06  8.841390E+05 -1.885367E+05 -4.981551E-10 -5.367294E-09
       343  18  1.245522E+06  4.597991E+06  1.296844E+06 -5.590849E+05 -1.465131E-09 -2.198598E-09
       343  19 -5.660128E+05 -1.720504E+06 -4.498197E+05 -4.999780E+05  7.277019E+04  9.923835E+04
       343  20 -8.146423E+05 -2.656031E+06 -6.190423E+05 -1.290569E+05  1.049515E+05  1.185607E+05
       343  21 -7.755063E+05 -3.510242E+06 -7.025662E+05 -3.941708E+05  3.796989E+04  1.375717E+05
       343  22 -6.445516E+03  5.376164E+05  8.984896E+04 -4.768440E+05  7.298543E+04  5.631502E+04
       343  23 -3.348724E+04  4.924165E+05  1.329249E+05 -1.587194E+05  1.048807E+05  1.281368E+05
       343  24  2.356169E+05  5.364343E+05  2.978032E+05 -4.763603E+05  3.783184E+04  1.996798E+05
       343  25  5.527564E+05  2.800423E+06  6.291660E+05 -4.536174E+05  7.319702E+04  1.323564E+04
       343  26  7.469528E+05  3.649976E+06  8.841951E+05 -1.885251E+05  1.048092E+05  1.377602E+05
       343  27  1.245542E+06  4.598064E+06  1.296975E+06 -5.590770E+05  3.767794E+04  2.621906E+05
       344   1 -1.524915E+06 -6.461874E+05 -3.433003E+05 -6.327669E+05 -1.680199E+05 -5.243387E+04
       344   2 -1.458992E+06 -4.631720E+05 -2.016142E+05 -6.017150E+05 -1.043688E+05 -4.059448E+03
       344   3 -1.424070E+06 -3.794152E+05 -1.372106E+05 -5.632412E+05 -3.432126E+04  2.736949E+04
       344   4 -9.293624E+05 -3.326247E+05 -1.730074E+05 -3.772484E+05 -1.157961E+05 -3.281837E+04
       344   5 -9.073636E+05 -2.194587E+05 -8.086519E+04 -4.059355E+05 -8.177089E+04  4.428241E+03
       344   6 -9.104524E+05 -1.996353E+05 -4.245260E+04 -4.272150E+05 -4.136167E+04  2.471966E+04
       344   7 -3.334266E+05 -1.891593E+04 -2.731749E+03 -1.214681E+05 -6.351690E+04 -1.316292E+04
       344   8 -3.554105E+05  2.432457E+04  3.987001E+04 -2.099794E+05 -5.915122E+04  1.292793E+04
       344   9 -3.965588E+05 -1.983577E+04  5.229564E+04 -2.910858E+05 -4.840833E+04  2.206768E+04
       344  10 -1.524946E+06 -6.461980E+05 -3.433586E+05 -6.327740E+05  4.233432E-10 -5.578458E-10
       344  11 -1.459004E+06 -4.631749E+05 -2.016347E+05 -6.017154E+05 -6.532005E-10  1.229879E-09
       344  12 -1.424071E+06 -3.794163E+05 -1.372142E+05 -5.632405E+05 -1.328556E-09  3.795191E-10
       344  13 -9.293771E+05 -3.326295E+05 -1.730347E+05 -3.772515E+05 -4.321356E-10  6.945380E-11
       344  14 -9.073708E+05 -2.194605E+05 -8.087781E+04 -4.059352E+05  6.560563E-10 -7.082059E-10
       344  15 -9.104544E+05 -1.996364E+05 -4.245696E+04 -4.272142E+05  9.063805E-10 -9.190581E-10
       344  16 -3.334309E+05 -1.891720E+04 -2.739660E+03 -1.214687E+05 -6.201195E-11  2.218322E-10
       344  17 -3.554143E+05  2.432345E+04  3.986312E+04 -2.099788E+05  7.068805E-10 -5.259918E-10
       344  18 -3.965615E+05 -1.983692E+04  5.229033E+04 -2.910850E+05  1.285591E-10  7.194490E-10
       344  19 -1.524915E+06 -6.461874E+05 -3.433003E+05 -6.327669E+05  1.680199E+05  5.243387E+04
       344  20 -1.458992E+06 -4.631720E+05 -2.016142E+05 -6.017150E+05  1.043688E+05  4.059448E+03
       344  21 -1.424070E+06 -3.794152E+05 -1.372106E+05 -5.632412E+05  3.432126E+04 -2.736949E+04
       344  22 -9.293624E+05 -3.326247E+05 -1.730074E+05 -3.772484E+05  1.157961E+05  3.281837E+04
       344  23 -9.073636E+05 -2.194587E+05 -8.086519E+04 -4.059355E+05  8.177089E+04 -4.428241E+03
       344  24 -9.104524E+05 -1.996353E+05 -4.245260E+04 -4.272150E+05  4.136167E+04 -2.471966E+04
       344  25 -3.334266E+05 -1.891593E+04 -2.731749E+03 -1.214681E+05  6.351690E+04  1.316292E+04
       344  26 -3.554105E+05  2.432457E+04  3.987001E+04 -2.099794E+05  5.915122E+04 -1.292793E+04
       344  27 -3.965588E+05 -1.983577E+04  5.229564E+04 -2.910858E+05  4.840833E+04 -2.206768E+04
       345   1 -1.361904E+06 -3.690425E+05 -1.163559E+05 -5.554695E+05 -3.046681E+04  2.577274E+04
       345   2 -1.291452E+06 -3.279072E+05 -8.497485E+04 -5.275800E+05 -1.797686E+04  2.627380E+04
       345   3 -1.212293E+06 -3.040056E+05 -6.323530E+04 -5.125947E+05 -4.913091E+03  2.524862E+04
       345   4 -9.053334E+05 -2.003581E+05 -3.191154E+04 -4.250479E+05 -3.557092E+04  2.385131E+04
       345   5 -9.094624E+05 -1.886469E+05 -1.676997E+04 -4.198517E+05 -2.574541E+04  2.335225E+04
       345   6 -9.043590E+05 -1.936385E+05 -9.150366E+03 -4.275616E+05 -1.534759E+04  2.132689E+04
       345   7 -4.485480E+05 -3.165380E+04  5.252386E+04 -2.945373E+05 -4.067899E+04  2.192832E+04
       345   8 -5.273186E+05 -4.937193E+04  5.143033E+04 -3.120611E+05 -3.351906E+04  2.042875E+04
       345   9 -5.963210E+05 -8.326126E+04  4.493293E+04 -3.424884E+05 -2.578772E+04  1.740308E+04
       345  10 -1.361905E+06 -3.690434E+05 -1.163589E+05 -5.554689E+05 -2.335578E-09  9.616370E-10
       345  11 -1.291452E+06 -3.279080E+05 -8.497676E+04 -5.275796E+05  5.303440E-09  3.001492E-09
       345  12 -1.212293E+06 -3.040063E+05 -6.323654E+04 -5.125946E+05  5.910197E-09  1.544326E-09
       345  13 -9.053349E+05 -2.003590E+05 -3.191498E+04 -4.250472E+05  2.791557E-09  1.376150E-09
       345  14 -9.094633E+05 -1.886477E+05 -1.677224E+04 -4.198512E+05  7.411931E-09  1.655329E-09
       345  15 -9.043594E+05 -1.936390E+05 -9.151663E+03 -4.275614E+05  2.975715E-09  8.367520E-10
       345  16 -4.485499E+05 -3.165476E+04  5.251985E+04 -2.945366E+05  5.414995E-09  2.506585E-09
       345  17 -5.273199E+05 -4.937268E+04  5.142743E+04 -3.120605E+05  6.607887E-09  3.651032E-09
       345  18 -5.963218E+05 -8.326176E+04  4.493111E+04 -3.424880E+05 -5.070089E-10  8.967851E-10
       345  19 -1.361904E+06 -3.690425E+05 -1.163559E+05 -5.554695E+05  3.046681E+04 -2.577274E+04
       345  20 -1.291452E+06 -3.279072E+05 -8.497485E+04 -5.275800E+05  1.797686E+04 -2.627380E+04
       345  21 -1.212293E+06 -3.040056E+05 -6.323530E+04 -5.125947E+05  4.913091E+03 -2.524862E+04
       345  22 -9.053334E+05 -2.003581E+05 -3.191154E+04 -4.250479E+05  3.557092E+04 -2.385131E+04
       345  23 -9.094624E+05 -1.886469E+05 -1.676997E+04 -4.198517E+05  2.574541E+04 -2.335225E+04
       345  24 -9.043590E+05 -1.936385E+05 -9.150366E+03 -4.275616E+05  1.534759E+04 -2.132689E+04
       345  25 -4.485480E+05 -3.165380E+04  5.252386E+04 -2.945373E+05  4.067899E+04 -2.192832E+04
       345  26 -5.273186E+05 -4.937193E+04  5.143033E+04 -3.120611E+05  3.351906E+04 -2.042875E+04
       345  27 -5.963210E+05 -8.326126E+04  4.493293E+04 -3.424884E+05  2.578772E+04 -1.740308E+04
       346   1 -1.162273E+06 -2.867313E+05 -5.192563E+04 -4.992634E+05 -2.503579E+03  2.215888E+04
       346   2 -1.092217E+06 -2.530602E+05 -3.555877E+04 -4.712120E+05  1.851863E+03  1.702187E+04
       346   3 -1.010415E+06 -2.318241E+05 -2.084817E+04 -4.570292E+05  6.258799E+03  1.174576E+04
       346   4 -9.039304E+05 -1.937141E+05 -6.871709E+03 -4.273840E+05 -1.276976E+04  1.830114E+04
       346   5 -9.098046E+05 -1.874155E+05 -3.773389E+03 -4.204858E+05 -8.657369E+03  1.307368E+04
       346   6 -9.038898E+05 -1.935038E+05 -2.138252E+03 -4.274581E+05 -4.493777E+03  7.707058E+03
       346   7 -6.455172E+05 -1.006905E+05  3.818061E+04 -3.554766E+05 -2.304050E+04  1.444171E+04
       346   8 -7.273574E+05 -1.217679E+05  2.801119E+04 -3.697460E+05 -1.916984E+04  9.124288E+03
       346   9 -7.973534E+05 -1.551827E+05  1.657150E+04 -3.978825E+05 -1.524821E+04  3.667664E+03
       346  10 -1.162273E+06 -2.867319E+05 -5.192656E+04 -4.992633E+05 -8.037370E-10  2.749859E-10
       346  11 -1.092217E+06 -2.530605E+05 -3.555932E+04 -4.712120E+05  1.678088E-10  1.228455E-10
       346  12 -1.010415E+06 -2.318243E+05 -2.084851E+04 -4.570293E+05  5.413054E-10  7.882504E-10
       346  13 -9.039307E+05 -1.937145E+05 -6.872644E+03 -4.273838E+05 -1.037828E-10  7.273839E-10
       346  14 -9.098047E+05 -1.874157E+05 -3.773851E+03 -4.204857E+05  4.967633E-10  3.147124E-10
       346  15 -9.038898E+05 -1.935039E+05 -2.138402E+03 -4.274581E+05  3.680748E-11 -7.829830E-12
       346  16 -6.455179E+05 -1.006908E+05  3.817922E+04 -3.554764E+05  6.793844E-10  1.108008E-09
       346  17 -7.273578E+05 -1.217681E+05  2.801034E+04 -3.697458E+05  3.152485E-10 -1.034303E-09
       346  18 -7.973536E+05 -1.551828E+05  1.657104E+04 -3.978825E+05 -9.878728E-10 -1.001956E-09
       346  19 -1.162273E+06 -2.867313E+05 -5.192563E+04 -4.992634E+05  2.503579E+03 -2.215888E+04
       346  20 -1.092217E+06 -2.530602E+05 -3.555877E+04 -4.712120E+05 -1.851863E+03 -1.702187E+04
       346  21 -1.010415E+06 -2.318241E+05 -2.084817E+04 -4.570292E+05 -6.258799E+03 -1.174576E+04
       346  22 -9.039304E+05 -1.937141E+05 -6.871709E+03 -4.273840E+05  1.276976E+04 -1.830114E+04
       346  23 -9.098046E+05 -1.874155E+05 -3.773389E+03 -4.204858E+05  8.657369E+03 -1.307368E+04
       346  24 -9.038898E+05 -1.935038E+05 -2.138252E+03 -4.274581E+05  4.493777E+03 -7.707058E+03
       346  25 -6.455172E+05 -1.006905E+05  3.818061E+04 -3.554766E+05  2.304050E+04 -1.444171E+04
       346  26 -7.273574E+05 -1.217679E+05  2.801119E+04 -3.697460E+05  1.916984E+04 -9.124288E+03
       346  27 -7.973534E+05 -1.551827E+05  1.657150E+04 -3.978825E+05  1.524821E+04 -3.667664E+03
       347   1 -9.611975E+05 -2.140799E+05 -1.143785E+04 -4.433591E+05  7.903159E+03  8.279968E+03
       347   2 -8.912722E+05 -1.806821E+05  2.162231E+03 -4.152290E+05  1.075613E+04  2.344914E+03
       347   3 -8.092842E+05 -1.594341E+05  1.535365E+04 -4.009802E+05  1.361313E+04 -3.600483E+03
       347   4 -9.038377E+05 -1.935149E+05 -1.654537E+03 -4.274365E+05 -2.835982E+03  4.246541E+03
       347   5 -9.098689E+05 -1.874527E+05 -1.060009E+03 -4.204901E+05 -1.911815E+00 -1.695727E+03
       347   6 -9.038414E+05 -1.935379E+05 -8.600303E+02 -4.274280E+05  2.836105E+03 -7.648350E+03
       347   7 -8.464736E+05 -1.729493E+05  8.129345E+03 -4.115122E+05 -1.357629E+04  2.126816E+02
       347   8 -9.284649E+05 -1.942231E+05 -4.281790E+03 -4.257510E+05 -1.075967E+04 -5.736258E+03
       347   9 -9.983889E+05 -2.276407E+05 -1.707347E+04 -4.538720E+05 -7.939172E+03 -1.169556E+04
       347  10 -9.611976E+05 -2.140800E+05 -1.143809E+04 -4.433592E+05 -1.302454E-09 -1.550336E-10
       347  11 -8.912724E+05 -1.806822E+05  2.162003E+03 -4.152291E+05 -7.426507E-10 -2.781978E-10
       347  12 -8.092844E+05 -1.594342E+05  1.535328E+04 -4.009801E+05 -8.705209E-10  3.185055E-10
       347  13 -9.038378E+05 -1.935150E+05 -1.654586E+03 -4.274365E+05  2.628211E-11 -9.348227E-10
       347  14 -9.098689E+05 -1.874527E+05 -1.060014E+03 -4.204901E+05  9.043054E-10 -1.384328E-09
       347  15 -9.038414E+05 -1.935380E+05 -8.601553E+02 -4.274280E+05  1.841686E-10  1.418531E-09
       347  16 -8.464738E+05 -1.729494E+05  8.128998E+03 -4.115122E+05  1.376331E-09 -9.975517E-10
       347  17 -9.284651E+05 -1.942232E+05 -4.282069E+03 -4.257510E+05  8.684062E-10  8.851930E-10
       347  18 -9.983890E+05 -2.276409E+05 -1.707385E+04 -4.538720E+05  6.002950E-10  1.544051E-09
       347  19 -9.611975E+05 -2.140799E+05 -1.143785E+04 -4.433591E+05 -7.903159E+03 -8.279968E+03
       347  20 -8.912722E+05 -1.806821E+05  2.162231E+03 -4.152290E+05 -1.075613E+04 -2.344914E+03
       347  21 -8.092842E+05 -1.594341E+05  1.535365E+04 -4.009802E+05 -1.361313E+04  3.600483E+03
       347  22 -9.038377E+05 -1.935149E+05 -1.654537E+03 -4.274365E+05  2.835982E+03 -4.246541E+03
       347  23 -9.098689E+05 -1.874527E+05 -1.060009E+03 -4.204901E+05  1.911815E+00  1.695727E+03
       347  24 -9.038414E+05 -1.935379E+05 -8.600303E+02 -4.274280E+05 -2.836105E+03  7.648350E+03
       347  25 -8.464736E+05 -1.729493E+05  8.129345E+03 -4.115122E+05  1.357629E+04 -2.126816E+02
       347  26 -9.284649E+05 -1.942231E+05 -4.281790E+03 -4.257510E+05  1.075967E+04  5.736258E+03
       347  27 -9.983889E+05 -2.276407E+05 -1.707347E+04 -4.538720E+05  7.939172E+03  1.169556E+04
       348   1 -7.601629E+05 -1.416555E+05  2.425230E+04 -3.872935E+05  1.510281E+04 -7.129871E+03
       348   2 -6.902873E+05 -1.082698E+05  3.695904E+04 -3.591800E+05  1.795213E+04 -1.307141E+04
       348   3 -6.083515E+05 -8.701789E+04  4.926407E+04 -3.449365E+05  2.079551E+04 -1.899403E+04
       348   4 -9.038472E+05 -1.935392E+05 -8.759864E+02 -4.274256E+05  4.327314E+03 -1.117749E+04
       348   5 -9.098768E+05 -1.874705E+05 -1.150189E+03 -4.204911E+05  7.208516E+03 -1.710808E+04
       348   6 -9.038584E+05 -1.935425E+05 -1.851536E+03 -4.274292E+05  1.008372E+04 -2.301980E+04
       348   7 -1.047508E+06 -2.454204E+05 -2.600400E+04 -4.675486E+05 -6.445422E+03 -1.522407E+04
       348   8 -1.129415E+06 -2.666664E+05 -3.926035E+04 -4.817820E+05 -3.531054E+03 -2.114323E+04
       348   9 -1.199275E+06 -3.000596E+05 -5.297004E+04 -5.098859E+05 -6.227410E+02 -2.704358E+04
       348  10 -7.601632E+05 -1.416556E+05  2.425177E+04 -3.872935E+05  5.973747E-10  1.033577E-09
       348  11 -6.902877E+05 -1.082701E+05  3.695811E+04 -3.591798E+05  6.167406E-10  5.370486E-10
       348  12 -6.083521E+05 -8.701839E+04  4.926258E+04 -3.449361E+05  9.106516E-10 -3.339774E-10
       348  13 -9.038472E+05 -1.935394E+05 -8.762562E+02 -4.274256E+05 -1.217083E-09  1.221426E-09
       348  14 -9.098769E+05 -1.874708E+05 -1.150836E+03 -4.204910E+05  1.397714E-09  6.761590E-11
       348  15 -9.038586E+05 -1.935431E+05 -1.852722E+03 -4.274290E+05 -2.226353E-12 -7.004499E-10
       348  16 -1.047508E+06 -2.454206E+05 -2.600451E+04 -4.675487E+05 -1.171642E-09  7.404679E-10
       348  17 -1.129415E+06 -2.666669E+05 -3.926122E+04 -4.817820E+05  2.762434E-11  2.435154E-11
       348  18 -1.199276E+06 -3.000603E+05 -5.297141E+04 -5.098859E+05 -5.884699E-10 -1.688869E-10
       348  19 -7.601629E+05 -1.416555E+05  2.425230E+04 -3.872935E+05 -1.510281E+04  7.129871E+03
       348  20 -6.902873E+05 -1.082698E+05  3.695904E+04 -3.591800E+05 -1.795213E+04  1.307141E+04
       348  21 -6.083515E+05 -8.701789E+04  4.926407E+04 -3.449365E+05 -2.079551E+04  1.899403E+04
       348  22 -9.038472E+05 -1.935392E+05 -8.759864E+02 -4.274256E+05 -4.327314E+03  1.117749E+04
       348  23 -9.098768E+05 -1.874705E+05 -1.150189E+03 -4.204911E+05 -7.208516E+03  1.710808E+04
       348  24 -9.038584E+05 -1.935425E+05 -1.851536E+03 -4.274292E+05 -1.008372E+04  2.301980E+04
       348  25 -1.047508E+06 -2.454204E+05 -2.600400E+04 -4.675486E+05  6.445422E+03  1.522407E+04
       348  26 -1.129415E+06 -2.666664E+05 -3.926035E+04 -4.817820E+05  3.531054E+03  2.114323E+04
       348  27 -1.199275E+06 -3.000596E+05 -5.297004E+04 -5.098859E+05  6.227410E+02  2.704358E+04
       349   1 -5.593160E+05 -6.927574E+04  5.762111E+04 -3.313174E+05  2.250434E+04 -2.242508E+04
       349   2 -4.894833E+05 -3.592619E+04  6.882790E+04 -3.032192E+05  2.657633E+04 -2.777564E+04
       349   3 -4.078512E+05 -1.490648E+04  7.864002E+04 -2.889500E+05  3.057923E+04 -3.293624E+04
       349   4 -9.039270E+05 -1.935327E+05 -2.409238E+03 -4.274483E+05  1.177794E+04 -2.645725E+04
       349   5 -9.098227E+05 -1.874681E+05 -4.280403E+03 -4.204876E+05  1.617994E+04 -3.168575E+04
       349   6 -9.039900E+05 -1.938001E+05 -7.808774E+03 -4.273590E+05  2.051259E+04 -3.672429E+04
       349   7 -1.248412E+06 -3.177781E+05 -6.244264E+04 -5.235292E+05  1.057876E+03 -3.048705E+04
       349   8 -1.329972E+06 -3.389918E+05 -7.739290E+04 -5.376811E+05  5.791109E+03 -3.559304E+04
       349   9 -1.399862E+06 -3.726678E+05 -9.426312E+04 -5.656632E+05  1.045462E+04 -4.050909E+04
       349  10 -5.593167E+05 -6.927642E+04  5.761921E+04 -3.313170E+05 -7.912109E-10 -6.910272E-10
       349  11 -4.894843E+05 -3.592721E+04  6.882512E+04 -3.032186E+05 -4.065603E-10 -6.308085E-10
       349  12 -4.078525E+05 -1.490789E+04  7.863623E+04 -2.889492E+05 -2.432244E-09  1.073832E-09
       349  13 -9.039273E+05 -1.935335E+05 -2.410813E+03 -4.274480E+05 -1.300893E-09  4.260964E-10
       349  14 -9.098232E+05 -1.874692E+05 -4.282780E+03 -4.204872E+05 -6.758830E-10 -2.496072E-11
       349  15 -9.039908E+05 -1.938016E+05 -7.812098E+03 -4.273584E+05 -4.552170E-10  1.262289E-09
       349  16 -1.248412E+06 -3.177791E+05 -6.244439E+04 -5.235292E+05  4.030955E-10  2.685300E-10
       349  17 -1.329972E+06 -3.389932E+05 -7.739534E+04 -5.376809E+05  1.318077E-09  9.160634E-10
       349  18 -1.399863E+06 -3.726696E+05 -9.426641E+04 -5.656629E+05  3.996230E-10  2.455114E-09
       349  19 -5.593160E+05 -6.927574E+04  5.762111E+04 -3.313174E+05 -2.250434E+04  2.242508E+04
       349  20 -4.894833E+05 -3.592619E+04  6.882790E+04 -3.032192E+05 -2.657633E+04  2.777564E+04
       349  21 -4.078512E+05 -1.490648E+04  7.864002E+04 -2.889500E+05 -3.057923E+04  3.293624E+04
       349  22 -9.039270E+05 -1.935327E+05 -2.409238E+03 -4.274483E+05 -1.177794E+04  2.645725E+04
       349  23 -9.098227E+05 -1.874681E+05 -4.280403E+03 -4.204876E+05 -1.617994E+04  3.168575E+04
       349  24 -9.039900E+05 -1.938001E+05 -7.808774E+03 -4.273590E+05 -2.051259E+04  3.672429E+04
       349  25 -1.248412E+06 -3.177781E+05 -6.244264E+04 -5.235292E+05 -1.057876E+03  3.048705E+04
       349  26 -1.329972E+06 -3.389918E+05 -7.739290E+04 -5.376811E+05 -5.791109E+03  3.559304E+04
       349  27 -1.399862E+06 -3.726678E+05 -9.426312E+04 -5.656632E+05 -1.045462E+04  4.050909E+04
       350   1 -3.587875E+05  2.450656E+03  8.509514E+04 -2.760602E+05  3.354126E+04 -3.577109E+04
       350   2 -2.902258E+05  3.632385E+04  9.089422E+04 -2.454245E+05  4.137789E+04 -3.835443E+04
       350   3 -2.121448E+05  5.365268E+04  9.099954E+04 -2.274745E+05  4.844486E+04 -3.888343E+04
       350   4 -9.044830E+05 -1.937111E+05 -1.039974E+04 -4.275488E+05  2.324981E+04 -3.964504E+04
       350   5 -9.094446E+05 -1.889102E+05 -1.906864E+04 -4.197726E+05  3.467499E+04 -4.088134E+04
       350   6 -9.056086E+05 -2.013717E+05 -3.628370E+04 -4.246864E+05  4.532930E+04 -4.006248E+04
       350   7 -1.449869E+06 -3.898468E+05 -1.059049E+05 -5.789147E+05  1.296789E+04 -4.351545E+04
       350   8 -1.528261E+06 -4.141073E+05 -1.290447E+05 -5.939586E+05  2.797917E+04 -4.340557E+04
       350   9 -1.598567E+06 -4.563472E+05 -1.635846E+05 -6.216917E+05  4.221744E+04 -4.124009E+04
       350  10 -3.587890E+05  2.448981E+03  8.509062E+04 -2.760592E+05  2.495179E-10  2.751195E-09
       350  11 -2.902280E+05  3.632181E+04  9.088824E+04 -2.454232E+05  3.125472E-09  1.657328E-09
       350  12 -2.121477E+05  5.365043E+04  9.099229E+04 -2.274730E+05  3.092213E-09 -1.328508E-10
       350  13 -9.044840E+05 -1.937129E+05 -1.040370E+04 -4.275480E+05  7.127595E-10  2.066080E-09
       350  14 -9.094463E+05 -1.889123E+05 -1.907404E+04 -4.197714E+05 -1.416224E-09  1.484163E-09
       350  15 -9.056113E+05 -2.013740E+05 -3.629058E+04 -4.246850E+05  1.283746E-09 -1.108252E-09
       350  16 -1.449870E+06 -3.898489E+05 -1.059088E+05 -5.789143E+05 -1.903810E-09  1.685172E-09
       350  17 -1.528263E+06 -4.141096E+05 -1.290497E+05 -5.939577E+05 -2.231224E-09  1.730968E-09
       350  18 -1.598569E+06 -4.563495E+05 -1.635911E+05 -6.216903E+05 -1.212104E-09  2.657818E-10
       350  19 -3.587875E+05  2.450656E+03  8.509514E+04 -2.760602E+05 -3.354126E+04  3.577109E+04
       350  20 -2.902258E+05  3.632385E+04  9.089422E+04 -2.454245E+05 -4.137789E+04  3.835443E+04
       350  21 -2.121448E+05  5.365268E+04  9.099954E+04 -2.274745E+05 -4.844486E+04  3.888343E+04
       350  22 -9.044830E+05 -1.937111E+05 -1.039974E+04 -4.275488E+05 -2.324981E+04  3.964504E+04
       350  23 -9.094446E+05 -1.889102E+05 -1.906864E+04 -4.197726E+05 -3.467499E+04  4.088134E+04
       350  24 -9.056086E+05 -2.013717E+05 -3.628370E+04 -4.246864E+05 -4.532930E+04  4.006248E+04
       350  25 -1.449869E+06 -3.898468E+05 -1.059049E+05 -5.789147E+05 -1.296789E+04  4.351545E+04
       350  26 -1.528261E+06 -4.141073E+05 -1.290447E+05 -5.939586E+05 -2.797917E+04  4.340557E+04
       350  27 -1.598567E+06 -4.563472E+05 -1.635846E+05 -6.216917E+05 -4.221744E+04  4.124009E+04
       351   1 -1.598202E+05  6.474672E+04  8.977925E+04 -2.253636E+05  5.737639E+04 -3.819234E+04
       351   2 -1.233838E+05  1.105165E+05  7.652946E+04 -1.375598E+05  6.225696E+04 -2.704340E+04
       351   3 -1.093946E+05  6.011743E+04  3.388614E+04 -3.912180E+04  5.854825E+04  6.901012E+03
       351   4 -9.114695E+05 -2.005145E+05 -4.826818E+04 -4.271033E+05  5.165294E+04 -4.035314E+04
       351   5 -9.070360E+05 -2.239994E+05 -9.194688E+04 -4.040001E+05  9.643865E+04 -1.418269E+04
       351   6 -9.330212E+05 -3.516553E+05 -1.967064E+05 -3.702569E+05  1.326254E+05  3.479479E+04
       351   7 -1.662526E+06 -4.657305E+05 -1.863361E+05 -6.286184E+05  4.593690E+04 -4.251135E+04
       351   8 -1.690032E+06 -5.583912E+05 -2.604482E+05 -6.701021E+05  1.305735E+05 -1.346214E+03
       351   9 -1.755917E+06 -7.631949E+05 -4.273280E+05 -7.009278E+05  2.065932E+05  6.261651E+04
       351  10 -1.598241E+05  6.474427E+04  8.977033E+04 -2.253619E+05  6.235016E-11 -6.816536E-10
       351  11 -1.233881E+05  1.105147E+05  7.652080E+04 -1.375584E+05 -1.729112E-09 -3.946884E-09
       351  12 -1.093983E+05  6.011646E+04  3.387961E+04 -3.912212E+04 -3.666387E-09 -4.137256E-10
       351  13 -9.114728E+05 -2.005169E+05 -4.827625E+04 -4.271016E+05 -3.917633E-10 -2.449213E-09
       351  14 -9.070461E+05 -2.240021E+05 -9.196476E+04 -4.039990E+05  7.055212E-10  2.889721E-09
       351  15 -9.330404E+05 -3.516614E+05 -1.967418E+05 -3.702606E+05 -2.286363E-09 -1.392673E-09
       351  16 -1.662529E+06 -4.657330E+05 -1.863435E+05 -6.286169E+05 -3.145647E-11  6.534623E-10
       351  17 -1.690050E+06 -5.583958E+05 -2.604804E+05 -6.701020E+05  2.180117E-09  8.792507E-10
       351  18 -1.755964E+06 -7.632107E+05 -4.274159E+05 -7.009382E+05  3.745477E-09  2.837029E-10
       351  19 -1.598202E+05  6.474672E+04  8.977925E+04 -2.253636E+05 -5.737639E+04  3.819234E+04
       351  20 -1.233838E+05  1.105165E+05  7.652946E+04 -1.375598E+05 -6.225696E+04  2.704340E+04
       351  21 -1.093946E+05  6.011743E+04  3.388614E+04 -3.912180E+04 -5.854825E+04 -6.901012E+03
       351  22 -9.114695E+05 -2.005145E+05 -4.826818E+04 -4.271033E+05 -5.165294E+04  4.035314E+04
       351  23 -9.070360E+05 -2.239994E+05 -9.194688E+04 -4.040001E+05 -9.643865E+04  1.418269E+04
       351  24 -9.330212E+05 -3.516553E+05 -1.967064E+05 -3.702569E+05 -1.326254E+05 -3.479479E+04
       351  25 -1.662526E+06 -4.657305E+05 -1.863361E+05 -6.286184E+05 -4.593690E+04  4.251135E+04
       351  26 -1.690032E+06 -5.583912E+05 -2.604482E+05 -6.701021E+05 -1.305735E+05  1.346214E+03
       351  27 -1.755917E+06 -7.631949E+05 -4.273280E+05 -7.009278E+05 -2.065932E+05 -6.261651E+04
       352   1 -2.870563E+05 -4.302290E+04 -8.567062E+04 -3.871501E+04 -1.296294E+05 -5.014052E+03
       352   2 -2.867866E+05  1.308307E+05  1.703020E+04 -1.128655E+04 -8.754006E+04 -1.484006E+04
       352   3 -3.402090E+05  1.113269E+05  4.403060E+04  3.483653E+04 -4.547016E+04 -1.417198E+04
       352   4 -7.552411E+05 -1.596229E+05 -2.010885E+05  1.288116E+04 -1.375422E+05 -5.036840E+03
       352   5 -7.278643E+05  2.157637E+04 -8.823979E+04  3.401142E+03 -8.994794E+04 -1.484705E+04
       352   6 -7.551791E+05  8.382556E+03 -5.495746E+04  1.261695E+04 -4.237090E+04 -1.416488E+04
       352   7 -1.223221E+06 -2.762292E+05 -3.165209E+05  6.443828E+04 -1.454489E+05 -5.060956E+03
       352   8 -1.168763E+06 -8.769121E+04 -1.935233E+05  1.807827E+04 -9.235410E+04 -1.485416E+04
       352   9 -1.169990E+06 -9.457245E+04 -1.539573E+05 -9.587777E+03 -3.927370E+04 -1.415801E+04
       352  10 -2.870743E+05 -4.302744E+04 -8.570226E+04 -3.871553E+04  9.406975E-10  6.432871E-10
       352  11 -2.867949E+05  1.308284E+05  1.701538E+04 -1.128760E+04 -2.077723E-10 -1.618313E-09
       352  12 -3.402113E+05  1.113261E+05  4.402634E+04  3.483601E+04  1.977176E-09 -3.305660E-09
       352  13 -7.552615E+05 -1.596281E+05 -2.011242E+05  1.288060E+04 -7.879872E-10  2.003271E-09
       352  14 -7.278730E+05  2.157396E+04 -8.825543E+04  3.400066E+03 -2.063667E-09  5.791409E-10
       352  15 -7.551811E+05  8.381858E+03 -5.496122E+04  1.261647E+04 -3.327055E-10 -4.081586E-11
       352  16 -1.223243E+06 -2.762349E+05 -3.165608E+05  6.443769E+04  4.399110E-10  1.286644E-09
       352  17 -1.168772E+06 -8.769374E+04 -1.935398E+05  1.807717E+04 -4.924068E-10 -3.749292E-09
       352  18 -1.169992E+06 -9.457308E+04 -1.539606E+05 -9.588226E+03 -5.069222E-10 -5.561050E-09
       352  19 -2.870563E+05 -4.302290E+04 -8.567062E+04 -3.871501E+04  1.296294E+05  5.014052E+03
       352  20 -2.867866E+05  1.308307E+05  1.703020E+04 -1.128655E+04  8.754006E+04  1.484006E+04
       352  21 -3.402090E+05  1.113269E+05  4.403060E+04  3.483653E+04  4.547016E+04  1.417198E+04
       352  22 -7.552411E+05 -1.596229E+05 -2.010885E+05  1.288116E+04  1.375422E+05  5.036840E+03
       352  23 -7.278643E+05  2.157637E+04 -8.823979E+04  3.401142E+03  8.994794E+04  1.484705E+04
       352  24 -7.551791E+05  8.382556E+03 -5.495746E+04  1.261695E+04  4.237090E+04  1.416488E+04
       352  25 -1.223221E+06 -2.762292E+05 -3.165209E+05  6.443828E+04  1.454489E+05  5.060956E+03
       352  26 -1.168763E+06 -8.769121E+04 -1.935233E+05  1.807827E+04  9.235410E+04  1.485416E+04
       352  27 -1.169990E+06 -9.457245E+04 -1.539573E+05 -9.587777E+03  3.927370E+04  1.415801E+04
       353   1 -3.640591E+05  7.813706E+04  4.625826E+04  8.809627E+03 -3.389998E+04 -1.204190E+04
       353   2 -3.884187E+05  8.972770E+04  6.137612E+04  2.517077E+03 -2.258286E+04 -1.165521E+04
       353   3 -4.191744E+05  8.156935E+04  6.419044E+04  1.587346E+04 -1.126835E+04 -1.050965E+04
       353   4 -7.444694E+05 -1.617668E+04 -4.478353E+04  1.293927E+04 -3.389467E+04 -1.204263E+04
       353   5 -7.412283E+05  2.274267E+03 -2.289156E+04  3.095674E+03 -2.218354E+04 -1.165477E+04
       353   6 -7.444562E+05  9.013717E+02 -1.358233E+04  1.290182E+04 -1.047453E+04 -1.050797E+04
       353   7 -1.124747E+06 -1.105009E+05 -1.358355E+05  1.706630E+04 -3.388935E+04 -1.204337E+04
       353   8 -1.093924E+06 -8.518818E+04 -1.071680E+05  3.673874E+03 -2.178445E+04 -1.165433E+04
       353   9 -1.069641E+06 -7.977425E+04 -9.136257E+04  9.931682E+03 -9.681115E+03 -1.050630E+04
       353  10 -3.640604E+05  7.813659E+04  4.625582E+04  8.809299E+03 -1.378593E-09 -4.901394E-09
       353  11 -3.884193E+05  8.972741E+04  6.137491E+04  2.516865E+03 -3.034309E-09  2.606317E-09
       353  12 -4.191746E+05  8.156920E+04  6.419000E+04  1.587336E+04 -2.931393E-09  3.904290E-09
       353  13 -7.444707E+05 -1.617715E+04 -4.478596E+04  1.293894E+04  5.461760E-10 -4.052415E-09
       353  14 -7.412288E+05  2.273989E+03 -2.289274E+04  3.095465E+03  4.618307E-10 -4.302188E-10
       353  15 -7.444564E+05  9.012236E+02 -1.358274E+04  1.290173E+04 -1.694776E-09 -1.693126E-09
       353  16 -1.124748E+06 -1.105013E+05 -1.358380E+05  1.706598E+04  1.899764E-09 -1.426156E-09
       353  17 -1.093924E+06 -8.518845E+04 -1.071692E+05  3.673669E+03  8.661508E-10  1.745081E-12
       353  18 -1.069641E+06 -7.977440E+04 -9.136295E+04  9.931600E+03  3.521547E-09  1.028329E-09
       353  19 -3.640591E+05  7.813706E+04  4.625826E+04  8.809627E+03  3.389998E+04  1.204190E+04
       353  20 -3.884187E+05  8.972770E+04  6.137612E+04  2.517077E+03  2.258286E+04  1.165521E+04
       353  21 -4.191744E+05  8.156935E+04  6.419044E+04  1.587346E+04  1.126835E+04  1.050965E+04
       353  22 -7.444694E+05 -1.617668E+04 -4.478353E+04  1.293927E+04  3.389467E+04  1.204263E+04
       353  23 -7.412283E+05  2.274267E+03 -2.289156E+04  3.095674E+03  2.218354E+04  1.165477E+04
       353  24 -7.444562E+05  9.013717E+02 -1.358233E+04  1.290182E+04  1.047453E+04  1.050797E+04
       353  25 -1.124747E+06 -1.105009E+05 -1.358355E+05  1.706630E+04  3.388935E+04  1.204337E+04
       353  26 -1.093924E+06 -8.518818E+04 -1.071680E+05  3.673874E+03  2.178445E+04  1.165433E+04
       353  27 -1.069641E+06 -7.977425E+04 -9.136257E+04  9.931682E+03  9.681115E+03  1.050630E+04
       354   1 -4.538247E+05  7.016905E+04  5.843713E+04  1.329467E+04 -8.918845E+03 -9.721118E+03
       354   2 -4.818096E+05  6.494954E+04  5.648104E+04  3.422991E+03 -6.024245E+03 -8.589053E+03
       354   3 -5.107181E+05  5.782080E+04  5.214710E+04  1.383864E+04 -3.130572E+03 -7.391510E+03
       354   4 -7.432206E+05 -1.560124E+03 -1.062574E+04  1.305860E+04 -8.340145E+03 -9.719906E+03
       354   5 -7.427529E+05  2.577693E+02 -5.852198E+03  2.912337E+03 -5.412234E+03 -8.587601E+03
       354   6 -7.432160E+05  1.601106E+02 -3.480456E+03  1.305395E+04 -2.485118E+03 -7.389805E+03
       354   7 -1.032540E+06 -7.329535E+04 -7.969450E+04  1.282260E+04 -7.761713E+03 -9.718694E+03
       354   8 -1.003634E+06 -6.443893E+04 -6.819023E+04  2.401855E+03 -4.800478E+03 -8.586149E+03
       354   9 -9.756642E+05 -5.750450E+04 -5.911183E+04  1.226951E+04 -1.839905E+03 -7.388102E+03
       354  10 -4.538248E+05  7.016892E+04  5.843681E+04  1.329460E+04 -8.814118E-09  5.480267E-09
       354  11 -4.818096E+05  6.494945E+04  5.648083E+04  3.422950E+03 -3.096767E-09  4.071418E-09
       354  12 -5.107181E+05  5.782074E+04  5.214698E+04  1.383863E+04  8.128954E-09 -1.450319E-09
       354  13 -7.432207E+05 -1.560244E+03 -1.062605E+04  1.305854E+04 -5.087647E-10 -1.798011E-09
       354  14 -7.427530E+05  2.576823E+02 -5.852392E+03  2.912300E+03 -7.649229E-10  4.009069E-09
       354  15 -7.432160E+05  1.600504E+02 -3.480570E+03  1.305393E+04 -1.630823E-09  6.739972E-09
       354  16 -1.032540E+06 -7.329547E+04 -7.969479E+04  1.282253E+04  8.650748E-09  4.172503E-09
       354  17 -1.003634E+06 -6.443902E+04 -6.819041E+04  2.401822E+03 -4.156692E-10  6.148226E-09
       354  18 -9.756642E+05 -5.750456E+04 -5.911194E+04  1.226950E+04 -7.269895E-09  4.020367E-09
       354  19 -4.538247E+05  7.016905E+04  5.843713E+04  1.329467E+04  8.918845E+03  9.721118E+03
       354  20 -4.818096E+05  6.494954E+04  5.648104E+04  3.422991E+03  6.024245E+03  8.589053E+03
       354  21 -5.107181E+05  5.782080E+04  5.214710E+04  1.383864E+04  3.130572E+03  7.391510E+03
       354  22 -7.432206E+05 -1.560124E+03 -1.062574E+04  1.305860E+04  8.340145E+03  9.719906E+03
       354  23 -7.427529E+05  2.577693E+02 -5.852198E+03  2.912337E+03  5.412234E+03  8.587601E+03
       354  24 -7.432160E+05  1.601106E+02 -3.480456E+03  1.305395E+04  2.485118E+03  7.389805E+03
       354  25 -1.032540E+06 -7.329535E+04 -7.969450E+04  1.282260E+04  7.761713E+03  9.718694E+03
       354  26 -1.003634E+06 -6.443893E+04 -6.819023E+04  2.401855E+03  4.800478E+03  8.586149E+03
       354  27 -9.756642E+05 -5.750450E+04 -5.911183E+04  1.226951E+04  1.839905E+03  7.388102E+03
       355   1 -5.474382E+05  4.840582E+04  4.390541E+04  1.359343E+04 -2.562281E+03 -6.683268E+03
       355   2 -5.763820E+05  4.134396E+04  3.804782E+04  3.185838E+03 -1.708780E+03 -5.476290E+03
       355   3 -6.055897E+05  3.419028E+04  3.158315E+04  1.351280E+04 -8.557806E+02 -4.257502E+03
       355   4 -7.430640E+05 -7.798888E+01 -2.741369E+03  1.315506E+04 -1.929485E+03 -6.681513E+03
       355   5 -7.429298E+05  5.133817E+01 -1.739047E+03  2.787322E+03 -1.070009E+03 -5.474419E+03
       355   6 -7.430618E+05  8.768631E+01 -1.348173E+03  1.315448E+04 -2.109950E+02 -4.255510E+03
       355   7 -9.386547E+05 -4.856456E+04 -4.939084E+04  1.271680E+04 -1.296888E+03 -6.679758E+03
       355   8 -9.094521E+05 -4.124329E+04 -4.152787E+04  2.388894E+03 -4.314090E+02 -5.472548E+03
       355   9 -8.805164E+05 -3.401628E+04 -3.428083E+04  1.279623E+04  4.336483E+02 -4.253518E+03
       355  10 -5.474382E+05  4.840577E+04  4.390532E+04  1.359341E+04 -9.939864E-10 -2.168540E-09
       355  11 -5.763821E+05  4.134393E+04  3.804776E+04  3.185830E+03 -2.584816E-09  6.872614E-09
       355  12 -6.055898E+05  3.419026E+04  3.158311E+04  1.351280E+04  3.162780E-09  6.339218E-09
       355  13 -7.430641E+05 -7.803781E+01 -2.741460E+03  1.315505E+04 -5.654531E-10  7.824824E-10
       355  14 -7.429298E+05  5.130569E+01 -1.739106E+03  2.787317E+03 -2.466421E-09  6.060972E-09
       355  15 -7.430618E+05  8.766686E+01 -1.348207E+03  1.315448E+04 -1.398745E-09  5.898865E-10
       355  16 -9.386547E+05 -4.856461E+04 -4.939092E+04  1.271679E+04  1.381167E-09  1.335122E-09
       355  17 -9.094521E+05 -4.124333E+04 -4.152793E+04  2.388892E+03 -6.327847E-10 -2.983530E-09
       355  18 -8.805164E+05 -3.401629E+04 -3.428086E+04  1.279623E+04 -3.928080E-09 -3.351615E-09
       355  19 -5.474382E+05  4.840582E+04  4.390541E+04  1.359343E+04  2.562281E+03  6.683268E+03
       355  20 -5.763820E+05  4.134396E+04  3.804782E+04  3.185838E+03  1.708780E+03  5.476290E+03
       355  21 -6.055897E+05  3.419028E+04  3.158315E+04  1.351280E+04  8.557806E+02  4.257502E+03
       355  22 -7.430640E+05 -7.798888E+01 -2.741369E+03  1.315506E+04  1.929485E+03  6.681513E+03
       355  23 -7.429298E+05  5.133817E+01 -1.739047E+03  2.787322E+03  1.070009E+03  5.474419E+03
       355  24 -7.430618E+05  8.768631E+01 -1.348173E+03  1.315448E+04  2.109950E+02  4.255510E+03
       355  25 -9.386547E+05 -4.856456E+04 -4.939084E+04  1.271680E+04  1.296888E+03  6.679758E+03
       355  26 -9.094521E+05 -4.124329E+04 -4.152787E+04  2.388894E+03  4.314090E+02  5.472548E+03
       355  27 -8.805164E+05 -3.401628E+04 -3.428083E+04  1.279623E+04 -4.336483E+02  4.253518E+03
       356   1 -6.430901E+05  2.485163E+04  2.248069E+04  1.343236E+04 -6.190238E+02 -3.544522E+03
       356   2 -6.723744E+05  1.754523E+04  1.531383E+04  2.880202E+03  1.407250E+02 -2.317076E+03
       356   3 -7.019361E+05  1.018585E+04  7.602981E+03  1.331553E+04  9.002655E+02 -1.087849E+03
       356   4 -7.430619E+05  8.226151E+01 -1.313863E+03  1.321066E+04  2.679111E+01 -3.542477E+03
       356   5 -7.429226E+05  5.304447E+01 -1.540543E+03  2.717006E+03  7.873878E+02 -2.314986E+03
       356   6 -7.430612E+05 -2.913178E+01 -2.311675E+03  1.321098E+04  1.547812E+03 -1.085712E+03
       356   7 -8.430245E+05 -2.468783E+04 -2.510911E+04  1.298900E+04  6.725025E+02 -3.540431E+03
       356   8 -8.134663E+05 -1.743950E+04 -1.839527E+04  2.553825E+03  1.433977E+03 -2.312896E+03
       356   9 -7.841848E+05 -1.024423E+04 -1.222645E+04  1.310643E+04  2.195316E+03 -1.083575E+03
       356  10 -6.430901E+05  2.485162E+04  2.248066E+04  1.343235E+04  4.497950E-09  2.189814E-09
       356  11 -6.723744E+05  1.754522E+04  1.531382E+04  2.880202E+03 -2.709678E-10  9.754698E-10
       356  12 -7.019361E+05  1.018585E+04  7.602978E+03  1.331553E+04  5.088483E-10 -3.867639E-09
       356  13 -7.430619E+05  8.224804E+01 -1.313886E+03  1.321066E+04 -2.169777E-09  9.631999E-09
       356  14 -7.429226E+05  5.303855E+01 -1.540554E+03  2.717007E+03 -1.141719E-09  4.036663E-09
       356  15 -7.430612E+05 -2.913369E+01 -2.311682E+03  1.321098E+04 -1.850916E-09 -5.957915E-09
       356  16 -8.430245E+05 -2.468785E+04 -2.510914E+04  1.298900E+04 -5.220598E-09  4.283707E-09
       356  17 -8.134663E+05 -1.743950E+04 -1.839528E+04  2.553828E+03 -3.465058E-09 -1.765457E-09
       356  18 -7.841848E+05 -1.024424E+04 -1.222646E+04  1.310643E+04  9.502232E-10 -5.583355E-09
       356  19 -6.430901E+05  2.485163E+04  2.248069E+04  1.343236E+04  6.190238E+02  3.544522E+03
       356  20 -6.723744E+05  1.754523E+04  1.531383E+04  2.880202E+03 -1.407250E+02  2.317076E+03
       356  21 -7.019361E+05  1.018585E+04  7.602981E+03  1.331553E+04 -9.002655E+02  1.087849E+03
       356  22 -7.430619E+05  8.226151E+01 -1.313863E+03  1.321066E+04 -2.679111E+01  3.542477E+03
       356  23 -7.429226E+05  5.304447E+01 -1.540543E+03  2.717006E+03 -7.873878E+02  2.314986E+03
       356  24 -7.430612E+05 -2.913178E+01 -2.311675E+03  1.321098E+04 -1.547812E+03  1.085712E+03
       356  25 -8.430245E+05 -2.468783E+04 -2.510911E+04  1.298900E+04 -6.725025E+02  3.540431E+03
       356  26 -8.134663E+05 -1.743950E+04 -1.839527E+04  2.553825E+03 -1.433977E+03  2.312896E+03
       356  27 -7.841848E+05 -1.024423E+04 -1.222645E+04  1.310643E+04 -2.195316E+03  1.083575E+03
       357   1 -7.398291E+05  9.766227E+02 -2.189457E+03  1.300636E+04  1.357005E+03 -3.658014E+02
       357   2 -7.688833E+05 -6.246374E+03 -1.105708E+04  2.664788E+03  3.780480E+03  8.712649E+02
       357   3 -7.988077E+05 -1.500077E+04 -2.192393E+04  1.335904E+04  6.203996E+03  2.078644E+03
       357   4 -7.431919E+05  1.624785E+02 -2.903211E+03  1.321996E+04  2.013213E+03 -3.636256E+02
       357   5 -7.427587E+05  2.313052E+02 -4.815595E+03  2.704357E+03  4.421113E+03  8.733712E+02
       357   6 -7.431936E+05 -1.228428E+03 -8.716206E+03  1.322453E+04  6.829167E+03  2.080683E+03
       357   7 -7.465547E+05 -6.516661E+02 -3.616965E+03  1.343356E+04  2.669418E+03 -3.614493E+02
       357   8 -7.166334E+05  6.708935E+03  1.425839E+03  2.743927E+03  5.061772E+03  8.754775E+02
       357   9 -6.875766E+05  1.254369E+04  4.491300E+03  1.309001E+04  7.454394E+03  2.082721E+03
       357  10 -7.398291E+05  9.766221E+02 -2.189461E+03  1.300636E+04 -5.646551E-09  1.028635E-09
       357  11 -7.688833E+05 -6.246379E+03 -1.105710E+04  2.664785E+03 -4.983009E-09  2.804243E-09
       357  12 -7.988078E+05 -1.500079E+04 -2.192401E+04  1.335903E+04  3.344242E-10  2.553549E-09
       357  13 -7.431919E+05  1.624772E+02 -2.903219E+03  1.321996E+04 -1.574390E-09 -2.120185E-09
       357  14 -7.427587E+05  2.312991E+02 -4.815633E+03  2.704354E+03 -2.781288E-09  2.130951E-09
       357  15 -7.431937E+05 -1.228445E+03 -8.716301E+03  1.322452E+04 -1.161382E-09  2.107639E-09
       357  16 -7.465547E+05 -6.516682E+02 -3.616978E+03  1.343356E+04  4.185237E-09 -3.955514E-10
       357  17 -7.166334E+05  6.708928E+03  1.425789E+03  2.743924E+03  1.632906E-09 -1.031540E-08
       357  18 -6.875767E+05  1.254367E+04  4.491188E+03  1.309000E+04  2.157529E-09 -3.298911E-10
       357  19 -7.398291E+05  9.766227E+02 -2.189457E+03  1.300636E+04 -1.357005E+03  3.658014E+02
       357  20 -7.688833E+05 -6.246374E+03 -1.105708E+04  2.664788E+03 -3.780480E+03 -8.712649E+02
       357  21 -7.988077E+05 -1.500077E+04 -2.192393E+04  1.335904E+04 -6.203996E+03 -2.078644E+03
       357  22 -7.431919E+05  1.624785E+02 -2.903211E+03  1.321996E+04 -2.013213E+03  3.636256E+02
       357  23 -7.427587E+05  2.313052E+02 -4.815595E+03  2.704357E+03 -4.421113E+03 -8.733712E+02
       357  24 -7.431936E+05 -1.228428E+03 -8.716206E+03  1.322453E+04 -6.829167E+03 -2.080683E+03
       357  25 -7.465547E+05 -6.516661E+02 -3.616965E+03  1.343356E+04 -2.669418E+03  3.614493E+02
       357  26 -7.166334E+05  6.708935E+03  1.425839E+03  2.743927E+03 -5.061772E+03 -8.754775E+02
       357  27 -6.875766E+05  1.254369E+04  4.491300E+03  1.309001E+04 -7.454394E+03 -2.082721E+03
       358   1 -8.374768E+05 -2.237466E+04 -3.350286E+04  1.102389E+04  7.835156E+03  2.854607E+03
       358   2 -8.640260E+05 -2.848591E+04 -4.801326E+04  3.430148E+03  1.763455E+04  4.089724E+03
       358   3 -8.960593E+05 -5.081851E+04 -7.299776E+04  1.673718E+04  2.743483E+04  4.914612E+03
       358   4 -7.442116E+05  7.843687E+02 -1.113498E+04  1.317778E+04  8.579069E+03  2.857029E+03
       358   5 -7.414929E+05  1.891008E+03 -1.874000E+04  2.749380E+03  1.816376E+04  4.091327E+03
       358   6 -7.442208E+05 -1.318453E+04 -3.666822E+04  1.322167E+04  2.774979E+04  4.915345E+03
       358   7 -6.509383E+05  2.394278E+04  1.123228E+04  1.533199E+04  9.323094E+03  2.859455E+03
       358   8 -6.189461E+05  3.226684E+04  1.053221E+04  2.068466E+03  1.869307E+04  4.092928E+03
       358   9 -5.923611E+05  2.444782E+04 -3.403095E+02  9.705276E+03  2.806483E+04  4.916074E+03
       358  10 -8.374769E+05 -2.237468E+04 -3.350299E+04  1.102387E+04 -3.101916E-09  5.917158E-09
       358  11 -8.640264E+05 -2.848601E+04 -4.801388E+04  3.430090E+03 -1.811764E-09  3.170504E-09
       358  12 -8.960601E+05 -5.081874E+04 -7.299922E+04  1.673707E+04  1.400793E-09  4.817494E-09
       358  13 -7.442117E+05  7.843402E+02 -1.113514E+04  1.317776E+04 -5.026964E-10  1.992152E-09
       358  14 -7.414933E+05  1.890901E+03 -1.874065E+04  2.749320E+03  2.198342E-10 -1.110123E-10
       358  15 -7.442216E+05 -1.318477E+04 -3.666972E+04  1.322156E+04  5.229660E-10  3.736866E-10
       358  16 -6.509384E+05  2.394275E+04  1.123210E+04  1.533197E+04  2.920588E-09  1.427869E-09
       358  17 -6.189464E+05  3.226673E+04  1.053152E+04  2.068404E+03  5.294410E-10 -2.931132E-09
       358  18 -5.923619E+05  2.444758E+04 -3.418365E+02  9.705164E+03  9.317662E-10 -6.044426E-09
       358  19 -8.374768E+05 -2.237466E+04 -3.350286E+04  1.102389E+04 -7.835156E+03 -2.854607E+03
       358  20 -8.640260E+05 -2.848591E+04 -4.801326E+04  3.430148E+03 -1.763455E+04 -4.089724E+03
       358  21 -8.960593E+05 -5.081851E+04 -7.299776E+04  1.673718E+04 -2.743483E+04 -4.914612E+03
       358  22 -7.442116E+05  7.843687E+02 -1.113498E+04  1.317778E+04 -8.579069E+03 -2.857029E+03
       358  23 -7.414929E+05  1.891008E+03 -1.874000E+04  2.749380E+03 -1.816376E+04 -4.091327E+03
       358  24 -7.442208E+05 -1.318453E+04 -3.666822E+04  1.322167E+04 -2.774979E+04 -4.915345E+03
       358  25 -6.509383E+05  2.394278E+04  1.123228E+04  1.533199E+04 -9.323094E+03 -2.859455E+03
       358  26 -6.189461E+05  3.226684E+04  1.053221E+04  2.068466E+03 -1.869307E+04 -4.092928E+03
       358  27 -5.923611E+05  2.444782E+04 -3.403095E+02  9.705276E+03 -2.806483E+04 -4.916074E+03
       359   1 -9.419502E+05 -4.006310E+04 -9.013423E+04 -5.091288E+03  3.268331E+04  6.429260E+03
       359   2 -9.482204E+05 -3.618024E+04 -1.241900E+05  1.488586E+04  7.463799E+04  7.482368E+03
       359   3 -9.999942E+05 -1.919581E+05 -2.255251E+05  5.553161E+04  1.166079E+05  2.805410E+03
       359   4 -7.529944E+05  6.921785E+03 -4.499788E+04  1.301850E+04  3.468997E+04  6.436208E+03
       359   5 -7.305375E+05  1.770236E+04 -7.223059E+04  2.879544E+03  7.363282E+04  7.477751E+03
       359   6 -7.530455E+05 -1.306271E+05 -1.646325E+05  1.341081E+04  1.125930E+05  2.786036E+03
       359   7 -5.640052E+05  5.390530E+04  1.361320E+02  3.113381E+04  3.669723E+04  6.443273E+03
       359   8 -5.128108E+05  7.158209E+04 -2.027444E+04 -9.131036E+03  7.262730E+04  7.473173E+03
       359   9 -5.060373E+05 -6.929387E+04 -1.037434E+05 -2.872682E+04  1.085766E+05  2.767212E+03
       359  10 -9.419513E+05 -4.006344E+04 -9.013632E+04 -5.091457E+03 -1.575027E-09  4.689649E-09
       359  11 -9.482264E+05 -3.618180E+04 -1.242006E+05  1.488541E+04 -2.396845E-09 -1.095009E-09
       359  12 -1.000009E+06 -1.919618E+05 -2.255507E+05  5.553135E+04  7.163881E-10 -1.257217E-09
       359  13 -7.529957E+05  6.921417E+03 -4.500023E+04  1.301832E+04  1.250277E-11  8.376502E-09
       359  14 -7.305434E+05  1.770084E+04 -7.224090E+04  2.879101E+03 -2.136176E-09 -4.988831E-09
       359  15 -7.530591E+05 -1.306305E+05 -1.646564E+05  1.341056E+04 -1.851193E-09  5.285227E-09
       359  16 -5.640066E+05  5.390489E+04  1.335210E+02  3.113362E+04  7.858889E-10  3.724138E-10
       359  17 -5.128164E+05  7.158061E+04 -2.028447E+04 -9.131473E+03  2.240488E-10  1.860687E-10
       359  18 -5.060500E+05 -6.929705E+04 -1.037656E+05 -2.872706E+04  1.225710E-09 -1.845786E-09
       359  19 -9.419502E+05 -4.006310E+04 -9.013423E+04 -5.091288E+03 -3.268331E+04 -6.429260E+03
       359  20 -9.482204E+05 -3.618024E+04 -1.241900E+05  1.488586E+04 -7.463799E+04 -7.482368E+03
       359  21 -9.999942E+05 -1.919581E+05 -2.255251E+05  5.553161E+04 -1.166079E+05 -2.805410E+03
       359  22 -7.529944E+05  6.921785E+03 -4.499788E+04  1.301850E+04 -3.468997E+04 -6.436208E+03
       359  23 -7.305375E+05  1.770236E+04 -7.223059E+04  2.879544E+03 -7.363282E+04 -7.477751E+03
       359  24 -7.530455E+05 -1.306271E+05 -1.646325E+05  1.341081E+04 -1.125930E+05 -2.786036E+03
       359  25 -5.640052E+05  5.390530E+04  1.361320E+02  3.113381E+04 -3.669723E+04 -6.443273E+03
       359  26 -5.128108E+05  7.158209E+04 -2.027444E+04 -9.131036E+03 -7.262730E+04 -7.473173E+03
       359  27 -5.060373E+05 -6.929387E+04 -1.037434E+05 -2.872682E+04 -1.085766E+05 -2.767212E+03
       360   1  6.545919E+05  3.429748E+06  7.230944E+05 -2.780042E+05  1.383981E+04  2.497796E+05
       360   2  2.559644E+05  3.037427E+06  4.425636E+05 -9.304183E+04  3.918604E+04  1.437929E+05
       360   3  1.989594E+05  2.744217E+06  3.161677E+05 -1.505436E+05  2.725042E+04  3.777555E+04
       360   4  2.734034E+05  1.898017E+06  3.462136E+05 -1.856012E+05  1.392354E+04  2.262456E+05
       360   5 -3.744705E+04  1.850322E+06  1.601914E+05 -6.466454E+04  3.920604E+04  1.402127E+05
       360   6 -9.762415E+03  1.898422E+06  1.147485E+05 -1.861810E+05  2.719700E+04  5.408886E+04
       360   7 -1.079275E+05  3.684273E+05 -3.083349E+04 -9.342405E+04  1.400044E+04  2.027687E+05
       360   8 -3.309570E+05  6.645061E+05 -1.222789E+05 -3.634067E+04  3.922575E+04  1.366390E+05
       360   9 -2.185305E+05  1.053283E+06 -8.671902E+04 -2.217692E+05  2.714167E+04  7.038010E+04
       360  10  6.545751E+05  3.429682E+06  7.229774E+05 -2.780070E+05  1.348269E-09 -7.764970E-10
       360  11  2.559573E+05  3.037404E+06  4.425220E+05 -9.304636E+04  4.615075E-09 -8.064172E-09
       360  12  1.989582E+05  2.744215E+06  3.161636E+05 -1.505445E+05  1.842930E-09 -5.208167E-10
       360  13  2.733895E+05  1.897962E+06  3.461173E+05 -1.856037E+05  1.011164E-09  1.099503E-09
       360  14 -3.745396E+04  1.850301E+06  1.601517E+05 -6.466896E+04 -1.255441E-09 -4.795771E-09
       360  15 -9.763993E+03  1.898418E+06  1.147416E+05 -1.861822E+05  1.046727E-09  3.426129E-09
       360  16 -1.079388E+05  3.683831E+05 -3.091107E+04 -9.342634E+04  5.621563E-10 -1.027593E-09
       360  17 -3.309637E+05  6.644856E+05 -1.223168E+05 -3.634499E+04  1.784497E-09  2.196446E-09
       360  18 -2.185326E+05  1.053277E+06 -8.672970E+04 -2.217707E+05 -8.194166E-10 -2.972115E-09
       360  19  6.545919E+05  3.429748E+06  7.230944E+05 -2.780042E+05 -1.383981E+04 -2.497796E+05
       360  20  2.559644E+05  3.037427E+06  4.425636E+05 -9.304183E+04 -3.918604E+04 -1.437929E+05
       360  21  1.989594E+05  2.744217E+06  3.161677E+05 -1.505436E+05 -2.725042E+04 -3.777555E+04
       360  22  2.734034E+05  1.898017E+06  3.462136E+05 -1.856012E+05 -1.392354E+04 -2.262456E+05
       360  23 -3.744705E+04  1.850322E+06  1.601914E+05 -6.466454E+04 -3.920604E+04 -1.402127E+05
       360  24 -9.762415E+03  1.898422E+06  1.147485E+05 -1.861810E+05 -2.719700E+04 -5.408886E+04
       360  25 -1.079275E+05  3.684273E+05 -3.083349E+04 -9.342405E+04 -1.400044E+04 -2.027687E+05
       360  26 -3.309570E+05  6.645061E+05 -1.222789E+05 -3.634067E+04 -3.922575E+04 -1.366390E+05
       360  27 -2.185305E+05  1.053283E+06 -8.671902E+04 -2.217692E+05 -2.714167E+04 -7.038010E+04
       361   1  1.290235E+05  2.294644E+06  2.019862E+05 -1.995731E+05  1.349788E+04  2.940688E+04
       361   2  1.014935E+04  1.945207E+06  1.040109E+05 -6.506044E+04  2.491851E+03 -1.495986E+04
       361   3 -3.135383E+04  1.619024E+06  5.376578E+04 -1.707721E+05 -8.732420E+03 -5.930570E+04
       361   4  2.701502E+04  1.882370E+06  1.038172E+05 -1.854671E+05  1.347869E+04  3.524487E+04
       361   5 -8.240465E+03  1.870806E+06  8.629012E+04 -6.534548E+04  2.471363E+03 -8.993901E+03
       361   6  3.386595E+04  1.882371E+06  1.164205E+05 -1.854422E+05 -8.752562E+03 -5.323543E+04
       361   7 -7.500494E+04  1.470252E+06  5.636581E+03 -1.713703E+05  1.345977E+04  4.107902E+04
       361   8 -2.663066E+04  1.796411E+06  6.856909E+04 -6.563047E+04  2.450868E+03 -3.028655E+03
       361   9  9.908153E+04  2.145782E+06  1.790706E+05 -2.001184E+05 -8.772986E+03 -4.716260E+04
       361  10  1.290230E+05  2.294643E+06  2.019842E+05 -1.995734E+05 -8.756032E-10 -2.163089E-10
       361  11  1.014928E+04  1.945207E+06  1.040105E+05 -6.506041E+04  3.127253E-10 -1.098386E-08
       361  12 -3.135485E+04  1.619020E+06  5.375904E+04 -1.707725E+05 -1.544401E-09  7.385695E-10
       361  13  2.701450E+04  1.882369E+06  1.038145E+05 -1.854674E+05 -1.131623E-09  3.246981E-09
       361  14 -8.240493E+03  1.870806E+06  8.628996E+04 -6.534546E+04  2.144788E-09 -8.288725E-09
       361  15  3.386511E+04  1.882368E+06  1.164150E+05 -1.854425E+05  3.126001E-09  2.674230E-09
       361  16 -7.500559E+04  1.470250E+06  5.633076E+03 -1.713707E+05 -1.496973E-09 -3.601656E-09
       361  17 -2.663067E+04  1.796411E+06  6.856906E+04 -6.563047E+04 -2.871895E-09  2.593803E-09
       361  18  9.908086E+04  2.145780E+06  1.790663E+05 -2.001188E+05  4.500184E-10 -4.460949E-09
       361  19  1.290235E+05  2.294644E+06  2.019862E+05 -1.995731E+05 -1.349788E+04 -2.940688E+04
       361  20  1.014935E+04  1.945207E+06  1.040109E+05 -6.506044E+04 -2.491851E+03  1.495986E+04
       361  21 -3.135383E+04  1.619024E+06  5.376578E+04 -1.707721E+05  8.732420E+03  5.930570E+04
       361  22  2.701502E+04  1.882370E+06  1.038172E+05 -1.854671E+05 -1.347869E+04 -3.524487E+04
       361  23 -8.240465E+03  1.870806E+06  8.629012E+04 -6.534548E+04 -2.471363E+03  8.993901E+03
       361  24  3.386595E+04  1.882371E+06  1.164205E+05 -1.854422E+05  8.752562E+03  5.323543E+04
       361  25 -7.500494E+04  1.470252E+06  5.636581E+03 -1.713703E+05 -1.345977E+04 -4.107902E+04
       361  26 -2.663066E+04  1.796411E+06  6.856909E+04 -6.563047E+04 -2.450868E+03  3.028655E+03
       361  27  9.908153E+04  2.145782E+06  1.790706E+05 -2.001184E+05  8.772986E+03  4.716260E+04
       362   1 -1.854016E+05  1.207385E+06 -3.323510E+04 -2.304257E+05 -2.196332E+04 -9.012470E+04
       362   2 -3.021548E+05  8.091398E+05 -5.301908E+04 -3.056567E+04 -3.409494E+04 -1.761774E+05
       362   3 -6.580895E+03  5.249226E+05  8.620904E+04 -7.233563E+04 -1.221877E+04 -2.620872E+05
       362   4 -1.367170E+04  1.903139E+06  1.326660E+05 -1.860569E+05 -2.202128E+04 -7.465133E+04
       362   5 -4.582522E+04  1.844524E+06  1.935987E+05 -6.486505E+04 -3.407473E+04 -1.788428E+05
       362   6  3.370898E+05  1.902700E+06  4.258963E+05 -1.852424E+05 -1.212372E+04 -2.829406E+05
       362   7  1.580311E+05  2.599341E+06  2.985351E+05 -1.416379E+05 -2.207699E+04 -5.916069E+04
       362   8  2.104313E+05  2.880891E+06  4.401421E+05 -9.922112E+04 -3.405426E+04 -1.815125E+05
       362   9  6.806665E+05  3.282227E+06  7.654516E+05 -2.983987E+05 -1.202125E+04 -3.038396E+05
       362  10 -1.854043E+05  1.207376E+06 -3.325124E+04 -2.304273E+05  4.531163E-10 -1.512060E-09
       362  11 -3.021643E+05  8.091062E+05 -5.307951E+04 -3.057051E+04  1.248595E-09 -9.286761E-09
       362  12 -6.599476E+03  5.248488E+05  8.607979E+04 -7.233821E+04 -3.862802E-10 -1.399752E-09
       362  13 -1.367371E+04  1.903133E+06  1.326546E+05 -1.860583E+05 -1.315081E-09  3.597332E-09
       362  14 -4.583502E+04  1.844489E+06  1.935366E+05 -6.486996E+04  1.389741E-09 -6.198054E-09
       362  15  3.370682E+05  1.902614E+06  4.257460E+05 -1.852452E+05 -1.078700E-09  2.332681E-09
       362  16  1.580296E+05  2.599337E+06  2.985276E+05 -1.416389E+05  2.207237E-09 -2.436365E-09
       362  17  2.104212E+05  2.880855E+06  4.400783E+05 -9.922609E+04 -1.242820E-09  2.871802E-09
       362  18  6.806418E+05  3.282128E+06  7.652787E+05 -2.984017E+05 -1.749360E-09 -1.030806E-09
       362  19 -1.854016E+05  1.207385E+06 -3.323510E+04 -2.304257E+05  2.196332E+04  9.012470E+04
       362  20 -3.021548E+05  8.091398E+05 -5.301908E+04 -3.056567E+04  3.409494E+04  1.761774E+05
       362  21 -6.580895E+03  5.249226E+05  8.620904E+04 -7.233563E+04  1.221877E+04  2.620872E+05
       362  22 -1.367170E+04  1.903139E+06  1.326660E+05 -1.860569E+05  2.202128E+04  7.465133E+04
       362  23 -4.582522E+04  1.844524E+06  1.935987E+05 -6.486505E+04  3.407473E+04  1.788428E+05
       362  24  3.370898E+05  1.902700E+06  4.258963E+05 -1.852424E+05  1.212372E+04  2.829406E+05
       362  25  1.580311E+05  2.599341E+06  2.985351E+05 -1.416379E+05  2.207699E+04  5.916069E+04
       362  26  2.104313E+05  2.880891E+06  4.401421E+05 -9.922112E+04  3.405426E+04  1.815125E+05
       362  27  6.806665E+05  3.282227E+06  7.654516E+05 -2.983987E+05  1.202125E+04  3.038396E+05
       363   1  1.666201E+05  4.438111E+04  1.093013E+04  3.885354E+04 -5.853936E+04 -2.738480E+04
       363   2  1.597865E+05  1.257318E+05  6.199180E+04  1.070194E+04 -3.579458E+04 -2.959281E+04
       363   3  1.007719E+05  1.266151E+05  7.284526E+04  2.355864E+04 -1.692829E+04 -2.151133E+04
       363   4 -2.818165E+05 -1.013101E+05 -1.062544E+05 -5.929152E+04 -6.571282E+04 -3.009022E+04
       363   5 -2.496737E+05 -2.161812E+04 -4.440524E+04 -9.446811E+04 -3.789653E+04 -3.038658E+04
       363   6 -2.707441E+05 -2.343601E+04 -2.680675E+04 -8.862879E+04 -1.395829E+04 -2.039094E+04
       363   7 -7.300553E+05 -2.469998E+05 -2.234539E+05 -1.573775E+05 -7.288047E+04 -3.279414E+04
       363   8 -6.589697E+05 -1.689604E+05 -1.508156E+05 -1.995766E+05 -3.999694E+04 -3.117982E+04
       363   9 -6.421259E+05 -1.734727E+05 -1.264709E+05 -2.007535E+05 -1.099024E+04 -1.927141E+04
       363  10  1.666162E+05  4.437939E+04  1.092229E+04  3.885225E+04 -2.738129E-09  2.126080E-09
       363  11  1.597849E+05  1.257305E+05  6.198775E+04  1.070109E+04 -2.151354E-09  2.483764E-09
       363  12  1.007715E+05  1.266146E+05  7.284385E+04  2.355835E+04  2.189904E-09  1.322723E-09
       363  13 -2.818214E+05 -1.013123E+05 -1.062643E+05 -5.929311E+04  1.553012E-09  4.342374E-09
       363  14 -2.496755E+05 -2.161950E+04 -4.440968E+04 -9.446903E+04 -1.535927E-09  2.744965E-09
       363  15 -2.707445E+05 -2.343651E+04 -2.680789E+04 -8.862902E+04 -6.514248E-10  1.185723E-09
       363  16 -7.300613E+05 -2.470023E+05 -2.234659E+05 -1.573794E+05  1.078753E-09  1.967135E-09
       363  17 -6.589717E+05 -1.689619E+05 -1.508204E+05 -1.995776E+05 -1.559585E-09 -3.186444E-09
       363  18 -6.421261E+05 -1.734732E+05 -1.264718E+05 -2.007536E+05 -1.857048E-09 -2.203525E-09
       363  19  1.666201E+05  4.438111E+04  1.093013E+04  3.885354E+04  5.853936E+04  2.738480E+04
       363  20  1.597865E+05  1.257318E+05  6.199180E+04  1.070194E+04  3.579458E+04  2.959281E+04
       363  21  1.007719E+05  1.266151E+05  7.284526E+04  2.355864E+04  1.692829E+04  2.151133E+04
       363  22 -2.818165E+05 -1.013101E+05 -1.062544E+05 -5.929152E+04  6.571282E+04  3.009022E+04
       363  23 -2.496737E+05 -2.161812E+04 -4.440524E+04 -9.446811E+04  3.789653E+04  3.038658E+04
       363  24 -2.707441E+05 -2.343601E+04 -2.680675E+04 -8.862879E+04  1.395829E+04  2.039094E+04
       363  25 -7.300553E+05 -2.469998E+05 -2.234539E+05 -1.573775E+05  7.288047E+04  3.279414E+04
       363  26 -6.589697E+05 -1.689604E+05 -1.508156E+05 -1.995766E+05  3.999694E+04  3.117982E+04
       363  27 -6.421259E+05 -1.734727E+05 -1.264709E+05 -2.007535E+05  1.099024E+04  1.927141E+04
       364   1  7.689686E+04  9.323120E+04  6.866404E+04  9.857005E+03 -1.095919E+04 -1.682256E+04
       364   2  5.930003E+04  8.647919E+04  7.280120E+04 -7.097942E+03 -6.038493E+03 -1.455866E+04
       364   3  2.266542E+04  8.417853E+04  7.041645E+04 -4.846387E+03 -1.419136E+03 -1.149938E+04
       364   4 -2.674153E+05 -3.427262E+04 -2.179074E+04 -8.219184E+04 -1.097358E+04 -1.682858E+04
       364   5 -2.572615E+05 -3.230272E+04 -1.048547E+04 -9.336345E+04 -5.662485E+03 -1.441711E+04
       364   6 -2.662260E+05 -2.596177E+04 -6.014456E+03 -8.532775E+04 -6.525495E+02 -1.120999E+04
       364   7 -6.116140E+05 -1.617706E+05 -1.122559E+05 -1.741954E+05 -1.098797E+04 -1.683459E+04
       364   8 -5.737266E+05 -1.510788E+05 -9.378084E+04 -1.795895E+05 -5.286686E+03 -1.427563E+04
       364   9 -5.550368E+05 -1.360964E+05 -8.245257E+04 -1.657752E+05  1.136455E+02 -1.092076E+04
       364  10  7.689665E+04  9.323086E+04  6.866328E+04  9.856857E+03 -1.253739E-10 -2.989907E-09
       364  11  5.929994E+04  8.647895E+04  7.280073E+04 -7.098013E+03  6.878085E-10 -1.856057E-09
       364  12  2.266538E+04  8.417839E+04  7.041619E+04 -4.846400E+03  2.466980E-10 -1.741152E-09
       364  13 -2.674155E+05 -3.427296E+04 -2.179150E+04 -8.219199E+04  2.524525E-11  5.195596E-10
       364  14 -2.572616E+05 -3.230296E+04 -1.048592E+04 -9.336352E+04  1.339640E-09 -1.508536E-08
       364  15 -2.662260E+05 -2.596190E+04 -6.014693E+03 -8.532775E+04  5.020649E-10 -2.044152E-09
       364  16 -6.116142E+05 -1.617709E+05 -1.122566E+05 -1.741956E+05  3.967502E-11 -7.978934E-10
       364  17 -5.737267E+05 -1.510791E+05 -9.378127E+04 -1.795896E+05 -8.978942E-10  2.864493E-09
       364  18 -5.550368E+05 -1.360965E+05 -8.245280E+04 -1.657752E+05  1.075510E-09 -2.666974E-09
       364  19  7.689686E+04  9.323120E+04  6.866404E+04  9.857005E+03  1.095919E+04  1.682256E+04
       364  20  5.930003E+04  8.647919E+04  7.280120E+04 -7.097942E+03  6.038493E+03  1.455866E+04
       364  21  2.266542E+04  8.417853E+04  7.041645E+04 -4.846387E+03  1.419136E+03  1.149938E+04
       364  22 -2.674153E+05 -3.427262E+04 -2.179074E+04 -8.219184E+04  1.097358E+04  1.682858E+04
       364  23 -2.572615E+05 -3.230272E+04 -1.048547E+04 -9.336345E+04  5.662485E+03  1.441711E+04
       364  24 -2.662260E+05 -2.596177E+04 -6.014456E+03 -8.532775E+04  6.525495E+02  1.120999E+04
       364  25 -6.116140E+05 -1.617706E+05 -1.122559E+05 -1.741954E+05  1.098797E+04  1.683459E+04
       364  26 -5.737266E+05 -1.510788E+05 -9.378084E+04 -1.795895E+05  5.286686E+03  1.427563E+04
       364  27 -5.550368E+05 -1.360964E+05 -8.245257E+04 -1.657752E+05 -1.136455E+02  1.092076E+04
       365   1 -1.266947E+04  6.827153E+04  6.192080E+04 -1.523706E+04 -6.307582E+02 -1.028974E+04
       365   2 -3.179846E+04  5.187954E+04  5.721278E+04 -3.116407E+04  1.425460E+02 -8.716188E+03
       365   3 -6.631540E+04  4.927540E+04  5.133104E+04 -2.997394E+04  8.902884E+02 -7.077071E+03
       365   4 -2.658485E+05 -2.706064E+04 -4.687736E+03 -8.458475E+04 -9.175220E+01 -1.008625E+04
       365   5 -2.580855E+05 -3.350637E+04 -2.423592E+03 -9.331120E+04  7.135308E+02 -8.500445E+03
       365   6 -2.657182E+05 -2.617040E+04 -1.358917E+03 -8.492013E+04  1.493306E+03 -6.849038E+03
       365   7 -5.189648E+05 -1.223886E+05 -7.130156E+04 -1.539068E+05  4.470111E+02 -9.882847E+03
       365   8 -4.843230E+05 -1.188891E+05 -6.206436E+04 -1.554379E+05  1.284287E+03 -8.284788E+03
       365   9 -4.650832E+05 -1.016139E+05 -5.405246E+04 -1.398505E+05  2.096112E+03 -6.621085E+03
       365  10 -1.266950E+04  6.827141E+04  6.192061E+04 -1.523706E+04  3.082504E-09 -1.552961E-09
       365  11 -3.179848E+04  5.187946E+04  5.721264E+04 -3.116407E+04 -1.281905E-09 -7.432617E-09
       365  12 -6.631541E+04  4.927534E+04  5.133095E+04 -2.997394E+04 -3.369751E-10 -4.555460E-09
       365  13 -2.658485E+05 -2.706075E+04 -4.687927E+03 -8.458475E+04 -6.497140E-10 -7.374419E-09
       365  14 -2.580855E+05 -3.350645E+04 -2.423729E+03 -9.331119E+04  7.730950E-10 -1.225052E-08
       365  15 -2.657183E+05 -2.617045E+04 -1.359009E+03 -8.492012E+04 -1.338325E-09  2.967957E-10
       365  16 -5.189649E+05 -1.223887E+05 -7.130174E+04 -1.539068E+05 -1.307670E-09 -1.966186E-09
       365  17 -4.843230E+05 -1.188892E+05 -6.206449E+04 -1.554379E+05  2.936426E-10 -2.865869E-09
       365  18 -4.650832E+05 -1.016139E+05 -5.405255E+04 -1.398505E+05  1.783266E-09 -6.073281E-09
       365  19 -1.266947E+04  6.827153E+04  6.192080E+04 -1.523706E+04  6.307582E+02  1.028974E+04
       365  20 -3.179846E+04  5.187954E+04  5.721278E+04 -3.116407E+04 -1.425460E+02  8.716188E+03
       365  21 -6.631540E+04  4.927540E+04  5.133104E+04 -2.997394E+04 -8.902884E+02  7.077071E+03
       365  22 -2.658485E+05 -2.706064E+04 -4.687736E+03 -8.458475E+04  9.175220E+01  1.008625E+04
       365  23 -2.580855E+05 -3.350637E+04 -2.423592E+03 -9.331120E+04 -7.135308E+02  8.500445E+03
       365  24 -2.657182E+05 -2.617040E+04 -1.358917E+03 -8.492013E+04 -1.493306E+03  6.849038E+03
       365  25 -5.189648E+05 -1.223886E+05 -7.130156E+04 -1.539068E+05 -4.470111E+02  9.882847E+03
       365  26 -4.843230E+05 -1.188891E+05 -6.206436E+04 -1.554379E+05 -1.284287E+03  8.284788E+03
       365  27 -4.650832E+05 -1.016139E+05 -5.405246E+04 -1.398505E+05 -2.096112E+03  6.621085E+03
       366   1 -1.032385E+05  3.506778E+04  4.168201E+04 -4.014537E+04  8.375479E+02 -6.294142E+03
       366   2 -1.226805E+05  1.751089E+04  3.514594E+04 -5.608290E+04  6.681474E+02 -4.998161E+03
       366   3 -1.572066E+05  1.485725E+04  2.837324E+04 -5.499925E+04  4.954823E+02 -3.694706E+03
       366   4 -2.656940E+05 -2.625969E+04 -1.041969E+03 -8.481195E+04  1.423911E+03 -6.072316E+03
       366   5 -2.581432E+05 -3.366054E+04 -5.672849E+02 -9.334123E+04  1.258155E+03 -4.774858E+03
       366   6 -2.656781E+05 -2.615887E+04 -3.322125E+02 -8.484952E+04  1.089147E+03 -3.469916E+03
       366   7 -4.281240E+05 -8.758549E+04 -4.376820E+04 -1.294680E+05  2.010106E+03 -5.850554E+03
       366   8 -3.935879E+05 -8.483073E+04 -3.628203E+04 -1.305922E+05  1.848021E+03 -4.551608E+03
       366   9 -3.741380E+05 -6.717412E+04 -2.903859E+04 -1.146950E+05  1.682696E+03 -3.245171E+03
       366  10 -1.032385E+05  3.506774E+04  4.168194E+04 -4.014536E+04 -4.202357E-09  1.692668E-09
       366  11 -1.226805E+05  1.751086E+04  3.514589E+04 -5.608290E+04 -3.375812E-09  9.503747E-09
       366  12 -1.572066E+05  1.485723E+04  2.837321E+04 -5.499925E+04  5.029435E-09 -5.304523E-09
       366  13 -2.656940E+05 -2.625973E+04 -1.042042E+03 -8.481194E+04 -2.606590E-09 -6.883252E-09
       366  14 -2.581432E+05 -3.366057E+04 -5.673307E+02 -9.334123E+04  1.039056E-09  8.172027E-09
       366  15 -2.656781E+05 -2.615888E+04 -3.322374E+02 -8.484952E+04  4.306601E-09  7.742393E-09
       366  16 -4.281240E+05 -8.758553E+04 -4.376827E+04 -1.294680E+05  4.928162E-09 -3.214666E-10
       366  17 -3.935879E+05 -8.483076E+04 -3.628207E+04 -1.305922E+05 -5.480449E-12  6.108376E-09
       366  18 -3.741380E+05 -6.717413E+04 -2.903861E+04 -1.146950E+05 -1.797789E-09  1.281022E-09
       366  19 -1.032385E+05  3.506778E+04  4.168201E+04 -4.014537E+04 -8.375479E+02  6.294142E+03
       366  20 -1.226805E+05  1.751089E+04  3.514594E+04 -5.608290E+04 -6.681474E+02  4.998161E+03
       366  21 -1.572066E+05  1.485725E+04  2.837324E+04 -5.499925E+04 -4.954823E+02  3.694706E+03
       366  22 -2.656940E+05 -2.625969E+04 -1.041969E+03 -8.481195E+04 -1.423911E+03  6.072316E+03
       366  23 -2.581432E+05 -3.366054E+04 -5.672849E+02 -9.334123E+04 -1.258155E+03  4.774858E+03
       366  24 -2.656781E+05 -2.615887E+04 -3.322125E+02 -8.484952E+04 -1.089147E+03  3.469916E+03
       366  25 -4.281240E+05 -8.758549E+04 -4.376820E+04 -1.294680E+05 -2.010106E+03  5.850554E+03
       366  26 -3.935879E+05 -8.483073E+04 -3.628203E+04 -1.305922E+05 -1.848021E+03  4.551608E+03
       366  27 -3.741380E+05 -6.717412E+04 -2.903859E+04 -1.146950E+05 -1.682696E+03  3.245171E+03
       367   1 -1.944774E+05  7.327206E+02  1.840503E+04 -6.522743E+04  2.801768E+02 -2.976680E+03
       367   2 -2.140075E+05 -1.701276E+04  1.144316E+04 -8.121954E+04 -7.811444E+01 -1.740131E+03
       367   3 -2.486522E+05 -1.969515E+04  4.401974E+03 -8.014268E+04 -4.360012E+02 -5.050097E+02
       367   4 -2.656871E+05 -2.615554E+04 -2.675657E+02 -8.482567E+04  8.736754E+02 -2.751906E+03
       367   5 -2.581293E+05 -3.368614E+04 -1.908906E+02 -9.336048E+04  5.146727E+02 -1.515593E+03
       367   6 -2.656864E+05 -2.615329E+04 -1.927895E+02 -8.482638E+04  1.560781E+02 -2.807050E+02
       367   7 -3.368921E+05 -5.304355E+04 -1.894065E+04 -1.044219E+05  1.467101E+03 -2.527159E+03
       367   8 -3.022494E+05 -5.035943E+04 -1.182513E+04 -1.055007E+05  1.107414E+03 -1.291073E+03
       367   9 -2.827202E+05 -3.261142E+04 -4.787578E+03 -8.950996E+04  7.481395E+02 -5.640711E+01
       367  10 -1.944774E+05  7.327111E+02  1.840501E+04 -6.522743E+04  2.192601E-09 -5.532393E-09
       367  11 -2.140075E+05 -1.701276E+04  1.144316E+04 -8.121954E+04 -4.552493E-10  2.125750E-09
       367  12 -2.486522E+05 -1.969515E+04  4.401973E+03 -8.014268E+04  3.302498E-09  2.064960E-09
       367  13 -2.656871E+05 -2.615555E+04 -2.675814E+02 -8.482567E+04  1.414842E-09 -4.719671E-09
       367  14 -2.581293E+05 -3.368615E+04 -1.908954E+02 -9.336048E+04 -4.685279E-10 -3.377374E-10
       367  15 -2.656864E+05 -2.615329E+04 -1.927897E+02 -8.482638E+04  1.373023E-09  5.424079E-10
       367  16 -3.368921E+05 -5.304356E+04 -1.894066E+04 -1.044219E+05  3.332577E-09  4.450480E-09
       367  17 -3.022494E+05 -5.035943E+04 -1.182513E+04 -1.055007E+05  2.235596E-09 -5.328364E-09
       367  18 -2.827202E+05 -3.261142E+04 -4.787579E+03 -8.950996E+04 -1.681600E-09 -3.060360E-09
       367  19 -1.944774E+05  7.327206E+02  1.840503E+04 -6.522743E+04 -2.801768E+02  2.976680E+03
       367  20 -2.140075E+05 -1.701276E+04  1.144316E+04 -8.121954E+04  7.811444E+01  1.740131E+03
       367  21 -2.486522E+05 -1.969515E+04  4.401974E+03 -8.014268E+04  4.360012E+02  5.050097E+02
       367  22 -2.656871E+05 -2.615554E+04 -2.675657E+02 -8.482567E+04 -8.736754E+02  2.751906E+03
       367  23 -2.581293E+05 -3.368614E+04 -1.908906E+02 -9.336048E+04 -5.146727E+02  1.515593E+03
       367  24 -2.656864E+05 -2.615329E+04 -1.927895E+02 -8.482638E+04 -1.560781E+02  2.807050E+02
       367  25 -3.368921E+05 -5.304355E+04 -1.894065E+04 -1.044219E+05 -1.467101E+03  2.527159E+03
       367  26 -3.022494E+05 -5.035943E+04 -1.182513E+04 -1.055007E+05 -1.107414E+03  1.291073E+03
       367  27 -2.827202E+05 -3.261142E+04 -4.787578E+03 -8.950996E+04 -7.481395E+02  5.640711E+01
       368   1 -2.859912E+05 -3.384512E+04 -5.672726E+03 -9.042956E+04 -6.802894E+02  2.086357E+02
       368   2 -3.055145E+05 -5.157629E+04 -1.281457E+04 -1.063959E+05 -9.549990E+02  1.477309E+03
       368   3 -3.401993E+05 -5.435797E+04 -2.012769E+04 -1.052695E+05 -1.215178E+03  2.708048E+03
       368   4 -2.656907E+05 -2.614081E+04 -2.141756E+02 -8.483521E+04 -7.765503E+01  4.369376E+02
       368   5 -2.581197E+05 -3.367168E+04 -3.184837E+02 -9.336089E+04 -3.711238E+02  1.698466E+03
       368   6 -2.657069E+05 -2.624949E+04 -5.791018E+02 -8.479430E+04 -6.500557E+02  2.922070E+03
       368   7 -2.453899E+05 -1.843648E+04  5.244324E+03 -7.924070E+04  5.249994E+02  6.652470E+02
       368   8 -2.107226E+05 -1.576694E+04  1.217741E+04 -8.032499E+04  2.128003E+02  1.919642E+03
       368   9 -1.912089E+05  1.859421E+03  1.896908E+04 -6.431679E+04 -8.485708E+01  3.136121E+03
       368  10 -2.859912E+05 -3.384512E+04 -5.672727E+03 -9.042956E+04  7.053105E-09  3.150841E-09
       368  11 -3.055145E+05 -5.157629E+04 -1.281457E+04 -1.063959E+05  3.514318E-09  7.811675E-09
       368  12 -3.401993E+05 -5.435797E+04 -2.012771E+04 -1.052695E+05 -1.928189E-09  2.475727E-09
       368  13 -2.656907E+05 -2.614081E+04 -2.141760E+02 -8.483521E+04  7.952797E-10  5.259409E-09
       368  14 -2.581197E+05 -3.367169E+04 -3.184893E+02 -9.336089E+04  1.931130E-09  7.136204E-09
       368  15 -2.657069E+05 -2.624950E+04 -5.791186E+02 -8.479430E+04 -1.355618E-09 -7.011084E-09
       368  16 -2.453899E+05 -1.843648E+04  5.244323E+03 -7.924070E+04 -5.700866E-09 -7.908710E-10
       368  17 -2.107226E+05 -1.576694E+04  1.217740E+04 -8.032499E+04 -9.427019E-11 -1.459972E-08
       368  18 -1.912089E+05  1.859411E+03  1.896906E+04 -6.431679E+04  2.691451E-09  2.464438E-10
       368  19 -2.859912E+05 -3.384512E+04 -5.672726E+03 -9.042956E+04  6.802894E+02 -2.086357E+02
       368  20 -3.055145E+05 -5.157629E+04 -1.281457E+04 -1.063959E+05  9.549990E+02 -1.477309E+03
       368  21 -3.401993E+05 -5.435797E+04 -2.012769E+04 -1.052695E+05  1.215178E+03 -2.708048E+03
       368  22 -2.656907E+05 -2.614081E+04 -2.141756E+02 -8.483521E+04  7.765503E+01 -4.369376E+02
       368  23 -2.581197E+05 -3.367168E+04 -3.184837E+02 -9.336089E+04  3.711238E+02 -1.698466E+03
       368  24 -2.657069E+05 -2.624949E+04 -5.791018E+02 -8.479430E+04  6.500557E+02 -2.922070E+03
       368  25 -2.453899E+05 -1.843648E+04  5.244324E+03 -7.924070E+04 -5.249994E+02 -6.652470E+02
       368  26 -2.107226E+05 -1.576694E+04  1.217741E+04 -8.032499E+04 -2.128003E+02 -1.919642E+03
       368  27 -1.912089E+05  1.859421E+03  1.896908E+04 -6.431679E+04  8.485708E+01 -3.136121E+03
       369   1 -3.773798E+05 -6.846192E+04 -3.029063E+04 -1.157392E+05 -1.539354E+03  3.461813E+03
       369   2 -3.967903E+05 -8.585874E+04 -3.783252E+04 -1.314352E+05 -1.090076E+03  4.984950E+03
       369   3 -4.317812E+05 -8.952777E+04 -4.638587E+04 -1.298330E+05 -4.568522E+02  6.023154E+03
       369   4 -2.657371E+05 -2.612628E+04 -7.333578E+02 -8.489530E+04 -8.347431E+02  3.728615E+03
       369   5 -2.580434E+05 -3.351832E+04 -1.268091E+03 -9.335346E+04 -6.249550E+02  5.160960E+03
       369   6 -2.658832E+05 -2.713517E+04 -2.624072E+03 -8.451404E+04 -2.311991E+02  6.108444E+03
       369   7 -1.540823E+05  1.621016E+04  2.882284E+04 -5.404642E+04 -1.299934E+02  3.995470E+03
       369   8 -1.192781E+05  1.882322E+04  3.529463E+04 -5.526413E+04 -1.597209E+02  5.337012E+03
       369   9 -9.995904E+04  3.525891E+04  4.113523E+04 -3.918430E+04 -5.480515E+00  6.193758E+03
       369  10 -3.773799E+05 -6.846193E+04 -3.029066E+04 -1.157392E+05  4.003886E-09 -9.812573E-11
       369  11 -3.967903E+05 -8.585877E+04 -3.783257E+04 -1.314352E+05  3.703369E-10  6.757241E-09
       369  12 -4.317812E+05 -8.952780E+04 -4.638594E+04 -1.298330E+05 -1.061354E-10  1.645025E-09
       369  13 -2.657371E+05 -2.612629E+04 -7.333853E+02 -8.489530E+04  3.746719E-09  4.688982E-09
       369  14 -2.580434E+05 -3.351835E+04 -1.268142E+03 -9.335346E+04 -1.597330E-09  1.031111E-08
       369  15 -2.658832E+05 -2.713521E+04 -2.624142E+03 -8.451404E+04  8.743077E-10 -4.866653E-09
       369  16 -1.540823E+05  1.621015E+04  2.882281E+04 -5.404642E+04 -8.588227E-10 -4.079460E-09
       369  17 -1.192781E+05  1.882319E+04  3.529458E+04 -5.526413E+04 -3.162546E-10 -2.496407E-09
       369  18 -9.995905E+04  3.525887E+04  4.113516E+04 -3.918430E+04 -3.791416E-10  9.619784E-10
       369  19 -3.773798E+05 -6.846192E+04 -3.029063E+04 -1.157392E+05  1.539354E+03 -3.461813E+03
       369  20 -3.967903E+05 -8.585874E+04 -3.783252E+04 -1.314352E+05  1.090076E+03 -4.984950E+03
       369  21 -4.317812E+05 -8.952777E+04 -4.638587E+04 -1.298330E+05  4.568522E+02 -6.023154E+03
       369  22 -2.657371E+05 -2.612628E+04 -7.333578E+02 -8.489530E+04  8.347431E+02 -3.728615E+03
       369  23 -2.580434E+05 -3.351832E+04 -1.268091E+03 -9.335346E+04  6.249550E+02 -5.160960E+03
       369  24 -2.658832E+05 -2.713517E+04 -2.624072E+03 -8.451404E+04  2.311991E+02 -6.108444E+03
       369  25 -1.540823E+05  1.621016E+04  2.882284E+04 -5.404642E+04  1.299934E+02 -3.995470E+03
       369  26 -1.192781E+05  1.882322E+04  3.529463E+04 -5.526413E+04  1.597209E+02 -5.337012E+03
       369  27 -9.995904E+04  3.525891E+04  4.113523E+04 -3.918430E+04  5.480515E+00 -6.193758E+03
       370   1 -4.680991E+05 -1.033174E+05 -5.663477E+04 -1.420697E+05 -2.427575E+03  7.090988E+03
       370   2 -4.870903E+05 -1.181424E+05 -6.571256E+04 -1.557514E+05  3.220234E+03  1.037509E+04
       370   3 -5.260983E+05 -1.303187E+05 -8.256792E+04 -1.497114E+05  1.124854E+04  7.363361E+03
       370   4 -2.662316E+05 -2.587363E+04 -3.223896E+03 -8.533755E+04 -3.761595E+02  7.867106E+03
       370   5 -2.572036E+05 -3.219100E+04 -5.347069E+03 -9.342801E+04  2.162689E+03  9.974829E+03
       370   6 -2.675739E+05 -3.524010E+04 -1.277921E+04 -8.179721E+04  7.081836E+03  5.787897E+03
       370   7 -6.432375E+04  5.157338E+04  5.018371E+04 -2.858838E+04  1.675998E+03  8.643515E+03
       370   8 -2.726593E+04  5.376339E+04  5.501387E+04 -3.108391E+04  1.104713E+03  9.574404E+03
       370   9 -8.986826E+03  5.984097E+04  5.700324E+04 -1.385836E+04  2.913246E+03  4.211766E+03
       370  10 -4.680991E+05 -1.033175E+05 -5.663487E+04 -1.420697E+05  1.038643E-09  5.320454E-09
       370  11 -4.870903E+05 -1.181425E+05 -6.571278E+04 -1.557515E+05  1.960559E-09  4.544701E-09
       370  12 -5.260985E+05 -1.303188E+05 -8.256826E+04 -1.497115E+05  2.544671E-10  2.394304E-09
       370  13 -2.662316E+05 -2.587370E+04 -3.224012E+03 -8.533755E+04  4.098220E-10 -2.621621E-09
       370  14 -2.572036E+05 -3.219111E+04 -5.347265E+03 -9.342803E+04 -3.744076E-10  7.756662E-11
       370  15 -2.675739E+05 -3.524015E+04 -1.277937E+04 -8.179724E+04 -1.643668E-09  3.470703E-09
       370  16 -6.432378E+04  5.157330E+04  5.018356E+04 -2.858839E+04 -1.715424E-09  7.753674E-09
       370  17 -2.726595E+04  5.376329E+04  5.501370E+04 -3.108392E+04 -2.413626E-09  6.049840E-09
       370  18 -8.986839E+03  5.984095E+04  5.700319E+04 -1.385837E+04 -1.086768E-09 -4.223161E-09
       370  19 -4.680991E+05 -1.033174E+05 -5.663477E+04 -1.420697E+05  2.427575E+03 -7.090988E+03
       370  20 -4.870903E+05 -1.181424E+05 -6.571256E+04 -1.557514E+05 -3.220234E+03 -1.037509E+04
       370  21 -5.260983E+05 -1.303187E+05 -8.256792E+04 -1.497114E+05 -1.124854E+04 -7.363361E+03
       370  22 -2.662316E+05 -2.587363E+04 -3.223896E+03 -8.533755E+04  3.761595E+02 -7.867106E+03
       370  23 -2.572036E+05 -3.219100E+04 -5.347069E+03 -9.342801E+04 -2.162689E+03 -9.974829E+03
       370  24 -2.675739E+05 -3.524010E+04 -1.277921E+04 -8.179721E+04 -7.081836E+03 -5.787897E+03
       370  25 -6.432375E+04  5.157338E+04  5.018371E+04 -2.858838E+04 -1.675998E+03 -8.643515E+03
       370  26 -2.726593E+04  5.376339E+04  5.501387E+04 -3.108391E+04 -1.104713E+03 -9.574404E+03
       370  27 -8.986826E+03  5.984097E+04  5.700324E+04 -1.385836E+04 -2.913246E+03 -4.211766E+03
       371   1 -8.708359E+04  2.300324E+04 -6.257653E+03 -1.536702E+04 -8.376534E+04 -5.592327E+03
       371   2 -1.076265E+05  1.345101E+05  5.623577E+04 -4.277061E+03 -5.794041E+04 -1.632126E+04
       371   3 -1.638600E+05  1.165347E+05  6.958043E+04  3.392148E+04 -3.215237E+04 -1.521667E+04
       371   4 -6.105876E+05 -1.073126E+05 -1.352952E+05  1.857233E+04 -9.253751E+04 -5.622490E+03
       371   5 -5.921657E+05  1.451708E+04 -5.938266E+04  4.849247E+03 -6.048969E+04 -1.633105E+04
       371   6 -6.105476E+05  5.726546E+03 -3.697238E+04  1.823679E+04 -2.847677E+04 -1.520406E+04
       371   7 -1.133840E+06 -2.376444E+05 -2.643520E+05  5.248284E+04 -1.013023E+05 -5.653627E+03
       371   8 -1.076489E+06 -1.054926E+05 -1.750175E+05  1.396823E+04 -6.303698E+04 -1.634091E+04
       371   9 -1.057051E+06 -1.050952E+05 -1.435391E+05  2.563289E+03 -2.480380E+04 -1.519163E+04
       371  10 -8.709113E+04  2.300133E+04 -6.270899E+03 -1.536740E+04 -4.328032E-09  3.738727E-09
       371  11 -1.076302E+05  1.345089E+05  5.622896E+04 -4.277822E+03 -1.328339E-09  1.025654E-08
       371  12 -1.638612E+05  1.165342E+05  6.957805E+04  3.392109E+04  1.707151E-09  7.580637E-09
       371  13 -6.105968E+05 -1.073149E+05 -1.353113E+05  1.857191E+04  9.613401E-10 -3.938294E-09
       371  14 -5.921697E+05  1.451581E+04 -5.939005E+04  4.848451E+03 -3.139280E-10 -7.252112E-09
       371  15 -6.105485E+05  5.726080E+03 -3.697434E+04  1.823644E+04 -1.761558E-09 -1.366083E-09
       371  16 -1.133851E+06 -2.376472E+05 -2.643713E+05  5.248238E+04  4.355326E-09  1.204437E-09
       371  17 -1.076494E+06 -1.054939E+05 -1.750255E+05  1.396740E+04 -1.068185E-09  6.384700E-09
       371  18 -1.057052E+06 -1.050956E+05 -1.435407E+05  2.562985E+03 -4.670223E-10 -1.913632E-09
       371  19 -8.708359E+04  2.300324E+04 -6.257653E+03 -1.536702E+04  8.376534E+04  5.592327E+03
       371  20 -1.076265E+05  1.345101E+05  5.623577E+04 -4.277061E+03  5.794041E+04  1.632126E+04
       371  21 -1.638600E+05  1.165347E+05  6.958043E+04  3.392148E+04  3.215237E+04  1.521667E+04
       371  22 -6.105876E+05 -1.073126E+05 -1.352952E+05  1.857233E+04  9.253751E+04  5.622490E+03
       371  23 -5.921657E+05  1.451708E+04 -5.938266E+04  4.849247E+03  6.048969E+04  1.633105E+04
       371  24 -6.105476E+05  5.726546E+03 -3.697238E+04  1.823679E+04  2.847677E+04  1.520406E+04
       371  25 -1.133840E+06 -2.376444E+05 -2.643520E+05  5.248284E+04  1.013023E+05  5.653627E+03
       371  26 -1.076489E+06 -1.054926E+05 -1.750175E+05  1.396823E+04  6.303698E+04  1.634091E+04
       371  27 -1.057051E+06 -1.050952E+05 -1.435391E+05  2.563289E+03  2.480380E+04  1.519163E+04
       372   1 -2.061605E+05  8.766034E+04  6.490202E+04  1.642375E+04 -2.296142E+04 -1.260663E+04
       372   2 -2.431323E+05  9.027705E+04  7.008742E+04  4.782010E+03 -1.552702E+04 -1.183135E+04
       372   3 -2.844749E+05  7.979099E+04  6.713061E+04  2.104475E+04 -8.097320E+03 -1.020634E+04
       372   4 -6.033549E+05 -1.079680E+04 -3.013057E+04  1.854781E+04 -2.278067E+04 -1.260663E+04
       372   5 -6.011230E+05  1.551128E+03 -1.540389E+04  4.574007E+03 -1.490230E+04 -1.182948E+04
       372   6 -6.033440E+05  7.145842E+02 -9.131898E+03  1.850588E+04 -7.028167E+03 -1.020242E+04
       372   7 -1.000405E+06 -1.092654E+05 -1.251743E+05  2.067037E+04 -2.260004E+04 -1.260664E+04
       372   8 -9.589961E+05 -8.718407E+04 -1.009042E+05  4.366013E+03 -1.427794E+04 -1.182760E+04
       372   9 -9.221199E+05 -7.836918E+04 -8.540158E+04  1.596822E+04 -5.959559E+03 -1.019850E+04
       372  10 -2.061611E+05  8.766003E+04  6.490073E+04  1.642352E+04 -3.157329E-09 -1.635541E-09
       372  11 -2.431326E+05  9.027684E+04  7.008670E+04  4.781862E+03 -2.658330E-09  3.182292E-09
       372  12 -2.844750E+05  7.979086E+04  6.713029E+04  2.104468E+04  2.498596E-09  1.214134E-08
       372  13 -6.033555E+05 -1.079711E+04 -3.013185E+04  1.854758E+04  6.641039E-11  1.131888E-08
       372  14 -6.011233E+05  1.550918E+03 -1.540457E+04  4.573865E+03  8.695894E-10 -2.267107E-08
       372  15 -6.033441E+05  7.144592E+02 -9.132186E+03  1.850582E+04 -2.453109E-09  1.159404E-08
       372  16 -1.000405E+06 -1.092657E+05 -1.251756E+05  2.067014E+04  3.716192E-09 -1.280353E-08
       372  17 -9.589963E+05 -8.718428E+04 -1.009049E+05  4.365877E+03  2.637263E-10 -5.698009E-09
       372  18 -9.221199E+05 -7.836930E+04 -8.540184E+04  1.596817E+04 -1.082546E-09  1.751866E-09
       372  19 -2.061605E+05  8.766034E+04  6.490202E+04  1.642375E+04  2.296142E+04  1.260663E+04
       372  20 -2.431323E+05  9.027705E+04  7.008742E+04  4.782010E+03  1.552702E+04  1.183135E+04
       372  21 -2.844749E+05  7.979099E+04  6.713061E+04  2.104475E+04  8.097320E+03  1.020634E+04
       372  22 -6.033549E+05 -1.079680E+04 -3.013057E+04  1.854781E+04  2.278067E+04  1.260663E+04
       372  23 -6.011230E+05  1.551128E+03 -1.540389E+04  4.574007E+03  1.490230E+04  1.182948E+04
       372  24 -6.033440E+05  7.145842E+02 -9.131898E+03  1.850588E+04  7.028167E+03  1.020242E+04
       372  25 -1.000405E+06 -1.092654E+05 -1.251743E+05  2.067037E+04  2.260004E+04  1.260664E+04
       372  26 -9.589961E+05 -8.718407E+04 -1.009042E+05  4.366013E+03  1.427794E+04  1.182760E+04
       372  27 -9.221199E+05 -7.836918E+04 -8.540158E+04  1.596822E+04  5.959559E+03  1.019850E+04
       373   1 -3.342434E+05  6.553567E+04  5.683256E+04  1.922868E+04 -6.421060E+03 -9.124653E+03
       373   2 -3.736866E+05  5.683400E+04  5.063497E+04  5.125432E+03 -4.495785E+03 -7.522712E+03
       373   3 -4.139038E+05  4.700962E+04  4.285041E+04  1.942865E+04 -2.571652E+03 -5.852578E+03
       373   4 -6.025206E+05 -9.440959E+02 -7.143841E+03  1.863365E+04 -5.596157E+03 -9.121557E+03
       373   5 -6.021275E+05  2.057414E+02 -3.927030E+03  4.427638E+03 -3.635681E+03 -7.519288E+03
       373   6 -6.025158E+05  2.266386E+02 -2.321978E+03  1.862873E+04 -1.676225E+03 -5.848812E+03
       373   7 -8.707317E+05 -6.742906E+04 -7.112529E+04  1.803882E+04 -4.771608E+03 -9.118462E+03
       373   8 -8.305206E+05 -5.642630E+04 -5.849271E+04  3.730052E+03 -2.775892E+03 -7.515867E+03
       373   9 -7.910953E+05 -4.655892E+04 -4.749688E+04  1.782903E+04 -7.810681E+02 -5.845048E+03
       373  10 -3.342435E+05  6.553557E+04  5.683232E+04  1.922863E+04  4.247620E-09 -2.799396E-09
       373  11 -3.736866E+05  5.683394E+04  5.063483E+04  5.125405E+03 -2.651089E-09 -7.320732E-09
       373  12 -4.139038E+05  4.700958E+04  4.285033E+04  1.942863E+04 -1.845167E-09 -4.031552E-09
       373  13 -6.025206E+05 -9.441936E+02 -7.144056E+03  1.863361E+04  5.276069E-10 -3.672040E-09
       373  14 -6.021276E+05  2.056772E+02 -3.927161E+03  4.427616E+03 -6.120055E-10 -6.490489E-09
       373  15 -6.025158E+05  2.266011E+02 -2.322047E+03  1.862873E+04 -1.103182E-09 -5.621889E-09
       373  16 -8.707317E+05 -6.742916E+04 -7.112549E+04  1.803879E+04 -2.655444E-09 -4.426118E-09
       373  17 -8.305206E+05 -5.642636E+04 -5.849283E+04  3.730036E+03 -1.734543E-10  2.679307E-09
       373  18 -7.910953E+05 -4.655896E+04 -4.749694E+04  1.782903E+04  3.063156E-09  1.230053E-08
       373  19 -3.342434E+05  6.553567E+04  5.683256E+04  1.922868E+04  6.421060E+03  9.124653E+03
       373  20 -3.736866E+05  5.683400E+04  5.063497E+04  5.125432E+03  4.495785E+03  7.522712E+03
       373  21 -4.139038E+05  4.700962E+04  4.285041E+04  1.942865E+04  2.571652E+03  5.852578E+03
       373  22 -6.025206E+05 -9.440959E+02 -7.143841E+03  1.863365E+04  5.596157E+03  9.121557E+03
       373  23 -6.021275E+05  2.057414E+02 -3.927030E+03  4.427638E+03  3.635681E+03  7.519288E+03
       373  24 -6.025158E+05  2.266386E+02 -2.321978E+03  1.862873E+04  1.676225E+03  5.848812E+03
       373  25 -8.707317E+05 -6.742906E+04 -7.112529E+04  1.803882E+04  4.771608E+03  9.118462E+03
       373  26 -8.305206E+05 -5.642630E+04 -5.849271E+04  3.730052E+03  2.775892E+03  7.515867E+03
       373  27 -7.910953E+05 -4.655892E+04 -4.749688E+04  1.782903E+04  7.810681E+02  5.845048E+03
       374   1 -4.650955E+05  3.408374E+04  3.086031E+04  1.914327E+04 -2.189030E+03 -4.869837E+03
       374   2 -5.051348E+05  2.414445E+04  2.206914E+04  4.683676E+03 -1.641346E+03 -3.196768E+03
       374   3 -5.455256E+05  1.430892E+04  1.288095E+04  1.890447E+04 -1.094066E+03 -1.515953E+03
       374   4 -6.024162E+05  6.506583E+01 -1.819874E+03  1.869133E+04 -1.309311E+03 -4.866046E+03
       374   5 -6.022384E+05  7.109021E+01 -1.125620E+03  4.350710E+03 -7.576749E+02 -3.192882E+03
       374   6 -6.024144E+05  1.802565E+02 -8.311283E+02  1.869075E+04 -2.064067E+02 -1.511965E+03
       374   7 -7.397196E+05 -3.395497E+04 -3.450137E+04  1.823948E+04 -4.297854E+02 -4.862256E+03
       374   8 -6.993334E+05 -2.400296E+04 -2.432104E+04  4.017787E+03  1.258588E+02 -3.188996E+03
       374   9 -6.593001E+05 -1.394864E+04 -1.454344E+04  1.847705E+04  6.811714E+02 -1.507978E+03
       374  10 -4.650955E+05  3.408371E+04  3.086025E+04  1.914326E+04  1.745267E-09 -7.031983E-09
       374  11 -5.051348E+05  2.414444E+04  2.206912E+04  4.683672E+03 -7.600367E-09  1.917877E-09
       374  12 -5.455256E+05  1.430891E+04  1.288095E+04  1.890447E+04 -5.456081E-09 -2.632968E-09
       374  13 -6.024162E+05  6.503995E+01 -1.819922E+03  1.869133E+04 -3.257252E-11  1.468086E-09
       374  14 -6.022384E+05  7.107912E+01 -1.125640E+03  4.350708E+03 -1.006262E-09 -4.573080E-09
       374  15 -6.024144E+05  1.802540E+02 -8.311327E+02  1.869075E+04 -6.686013E-10 -6.164116E-09
       374  16 -7.397196E+05 -3.395499E+04 -3.450142E+04  1.823948E+04 -1.303372E-09  7.412159E-09
       374  17 -6.993334E+05 -2.400297E+04 -2.432106E+04  4.017788E+03  3.367700E-09  9.964422E-09
       374  18 -6.593001E+05 -1.394864E+04 -1.454344E+04  1.847705E+04  7.244443E-09  2.008724E-09
       374  19 -4.650955E+05  3.408374E+04  3.086031E+04  1.914327E+04  2.189030E+03  4.869837E+03
       374  20 -5.051348E+05  2.414445E+04  2.206914E+04  4.683676E+03  1.641346E+03  3.196768E+03
       374  21 -5.455256E+05  1.430892E+04  1.288095E+04  1.890447E+04  1.094066E+03  1.515953E+03
       374  22 -6.024162E+05  6.506583E+01 -1.819874E+03  1.869133E+04  1.309311E+03  4.866046E+03
       374  23 -6.022384E+05  7.109021E+01 -1.125620E+03  4.350710E+03  7.576749E+02  3.192882E+03
       374  24 -6.024144E+05  1.802565E+02 -8.311283E+02  1.869075E+04  2.064067E+02  1.511965E+03
       374  25 -7.397196E+05 -3.395497E+04 -3.450137E+04  1.823948E+04  4.297854E+02  4.862256E+03
       374  26 -6.993334E+05 -2.400296E+04 -2.432104E+04  4.017787E+03 -1.258588E+02  3.188996E+03
       374  27 -6.593001E+05 -1.394864E+04 -1.454344E+04  1.847705E+04 -6.811714E+02  1.507978E+03
       375   1 -5.971031E+05  1.465784E+03  3.612605E+02  1.871059E+04 -9.530812E+02 -5.355895E+02
       375   2 -6.372206E+05 -8.605232E+03 -9.218983E+03  4.214957E+03 -5.297281E+02  1.146675E+03
       375   3 -6.776737E+05 -1.852674E+04 -1.910656E+04  1.845313E+04 -1.062673E+02  2.824125E+03
       375   4 -6.024098E+05  1.747545E+02 -7.836783E+02  1.870260E+04 -6.525052E+01 -5.315830E+02
       375   5 -6.022415E+05  6.727266E+01 -8.630169E+02  4.335896E+03  3.555450E+02  1.150638E+03
       375   6 -6.024105E+05  1.097094E+02 -1.247963E+03  1.870289E+04  7.764759E+02  2.828051E+03
       375   7 -6.077165E+05 -1.116277E+03 -1.928616E+03  1.869461E+04  8.225726E+02 -5.275764E+02
       375   8 -5.672614E+05  8.739689E+03  7.492866E+03  4.456841E+03  1.240868E+03  1.154601E+03
       375   9 -5.271422E+05  1.874575E+04  1.661025E+04  1.895268E+04  1.659326E+03  2.831977E+03
       375  10 -5.971031E+05  1.465784E+03  3.612583E+02  1.871059E+04 -5.968812E-09  7.859317E-10
       375  11 -6.372206E+05 -8.605233E+03 -9.218986E+03  4.214957E+03 -7.903765E-09  2.459065E-10
       375  12 -6.776737E+05 -1.852675E+04 -1.910658E+04  1.845313E+04 -1.189777E-08 -2.485517E-09
       375  13 -6.024098E+05  1.747542E+02 -7.836789E+02  1.870260E+04  6.965522E-11  8.854150E-09
       375  14 -6.022415E+05  6.727120E+01 -8.630196E+02  4.335896E+03 -2.534392E-09 -4.298756E-09
       375  15 -6.024105E+05  1.097007E+02 -1.247979E+03  1.870289E+04 -5.831631E-10  1.096529E-09
       375  16 -6.077165E+05 -1.116277E+03 -1.928618E+03  1.869461E+04  5.782736E-09 -3.160611E-10
       375  17 -5.672614E+05  8.739687E+03  7.492861E+03  4.456840E+03  5.600493E-09 -1.967315E-08
       375  18 -5.271422E+05  1.874574E+04  1.661023E+04  1.895268E+04  1.493790E-08 -5.875237E-09
       375  19 -5.971031E+05  1.465784E+03  3.612605E+02  1.871059E+04  9.530812E+02  5.355895E+02
       375  20 -6.372206E+05 -8.605232E+03 -9.218983E+03  4.214957E+03  5.297281E+02 -1.146675E+03
       375  21 -6.776737E+05 -1.852674E+04 -1.910656E+04  1.845313E+04  1.062673E+02 -2.824125E+03
       375  22 -6.024098E+05  1.747545E+02 -7.836783E+02  1.870260E+04  6.525052E+01  5.315830E+02
       375  23 -6.022415E+05  6.727266E+01 -8.630169E+02  4.335896E+03 -3.555450E+02 -1.150638E+03
       375  24 -6.024105E+05  1.097094E+02 -1.247963E+03  1.870289E+04 -7.764759E+02 -2.828051E+03
       375  25 -6.077165E+05 -1.116277E+03 -1.928616E+03  1.869461E+04 -8.225726E+02  5.275764E+02
       375  26 -5.672614E+05  8.739689E+03  7.492866E+03  4.456841E+03 -1.240868E+03 -1.154601E+03
       375  27 -5.271422E+05  1.874575E+04  1.661025E+04  1.895268E+04 -1.659326E+03 -2.831977E+03
       376   1 -7.292043E+05 -3.123561E+04 -3.194824E+04  1.812276E+04  1.258340E+02  3.809166E+03
       376   2 -7.689430E+05 -4.119837E+04 -4.239346E+04  3.857333E+03  1.427113E+03  5.485691E+03
       376   3 -8.092902E+05 -5.179935E+04 -5.390700E+04  1.815203E+04  2.729147E+03  7.102923E+03
       376   4 -6.024726E+05  2.127774E+02 -1.550100E+03  1.866302E+04  1.022986E+03  3.813097E+03
       376   5 -6.021724E+05  1.524930E+02 -2.551613E+03  4.384841E+03  2.293277E+03  5.489345E+03
       376   6 -6.024760E+05 -5.402093E+02 -4.599425E+03  1.866631E+04  3.564407E+03  7.106313E+03
       376   7 -4.757262E+05  3.166000E+04  2.884690E+04  1.920338E+04  1.920320E+03  3.817029E+03
       376   8 -4.353763E+05  4.150134E+04  3.728828E+04  4.912463E+03  3.159674E+03  5.493000E+03
       376   9 -3.956225E+05  5.071584E+04  4.470515E+04  1.918073E+04  4.399944E+03  7.109703E+03
       376  10 -7.292043E+05 -3.123563E+04 -3.194826E+04  1.812276E+04 -1.412426E-08 -3.700009E-09
       376  11 -7.689431E+05 -4.119840E+04 -4.239352E+04  3.857327E+03 -6.840893E-09 -1.305469E-08
       376  12 -8.092903E+05 -5.179941E+04 -5.390711E+04  1.815201E+04  3.145689E-09  1.796893E-09
       376  13 -6.024726E+05  2.127615E+02 -1.550129E+03  1.866302E+04  4.854691E-10 -4.750822E-09
       376  14 -6.021724E+05  1.524592E+02 -2.551679E+03  4.384831E+03 -1.496511E-10  2.949097E-09
       376  15 -6.024760E+05 -5.402669E+02 -4.599544E+03  1.866629E+04 -1.942239E-09 -1.111841E-09
       376  16 -4.757262E+05  3.165998E+04  2.884687E+04  1.920337E+04  1.342658E-08  5.637984E-09
       376  17 -4.353763E+05  4.150130E+04  3.728820E+04  4.912449E+03  5.615910E-09 -1.068619E-08
       376  18 -3.956225E+05  5.071578E+04  4.470502E+04  1.918070E+04 -1.287079E-10  5.472791E-09
       376  19 -7.292043E+05 -3.123561E+04 -3.194824E+04  1.812276E+04 -1.258340E+02 -3.809166E+03
       376  20 -7.689430E+05 -4.119837E+04 -4.239346E+04  3.857333E+03 -1.427113E+03 -5.485691E+03
       376  21 -8.092902E+05 -5.179935E+04 -5.390700E+04  1.815203E+04 -2.729147E+03 -7.102923E+03
       376  22 -6.024726E+05  2.127774E+02 -1.550100E+03  1.866302E+04 -1.022986E+03 -3.813097E+03
       376  23 -6.021724E+05  1.524930E+02 -2.551613E+03  4.384841E+03 -2.293277E+03 -5.489345E+03
       376  24 -6.024760E+05 -5.402093E+02 -4.599425E+03  1.866631E+04 -3.564407E+03 -7.106313E+03
       376  25 -4.757262E+05  3.166000E+04  2.884690E+04  1.920338E+04 -1.920320E+03 -3.817029E+03
       376  26 -4.353763E+05  4.150134E+04  3.728828E+04  4.912463E+03 -3.159674E+03 -5.493000E+03
       376  27 -3.956225E+05  5.071584E+04  4.470515E+04  1.918073E+04 -4.399944E+03 -7.109703E+03
       377   1 -8.607631E+05 -6.342364E+04 -6.755926E+04  1.674403E+04  3.430262E+03  8.176177E+03
       377   2 -8.987626E+05 -7.268554E+04 -8.089116E+04  4.124059E+03  8.876524E+03  9.814623E+03
       377   3 -9.397697E+05 -9.038059E+04 -9.992247E+04  1.967091E+04  1.432628E+04  1.069567E+04
       377   4 -6.030009E+05  5.238490E+02 -5.867914E+03  1.856775E+04  4.483618E+03  8.180350E+03
       377   5 -6.015359E+05  1.011203E+03 -9.882734E+03  4.499099E+03  9.532582E+03  9.816920E+03
       377   6 -6.030091E+05 -6.863039E+03 -1.931870E+04  1.859652E+04  1.458538E+04  1.069623E+04
       377   7 -3.451776E+05  6.446653E+04  5.581874E+04  2.039217E+04  5.537410E+03  8.184528E+03
       377   8 -3.042280E+05  7.470155E+04  6.111946E+04  4.874238E+03  1.018895E+04  9.819217E+03
       377   9 -2.661445E+05  7.664629E+04  6.127705E+04  1.752144E+04  1.484462E+04  1.069679E+04
       377  10 -8.607632E+05 -6.342372E+04 -6.755941E+04  1.674400E+04  1.263697E-08  2.315473E-09
       377  11 -8.987627E+05 -7.268567E+04 -8.089149E+04  4.123989E+03  2.391598E-09  8.676486E-09
       377  12 -9.397699E+05 -9.038077E+04 -9.992307E+04  1.967079E+04  1.435859E-09 -6.642595E-09
       377  13 -6.030009E+05  5.237718E+02 -5.868077E+03  1.856772E+04  3.623239E-10 -1.708674E-08
       377  14 -6.015360E+05  1.011075E+03 -9.883086E+03  4.499023E+03 -1.487276E-09  3.800003E-09
       377  15 -6.030094E+05 -6.863219E+03 -1.931932E+04  1.859639E+04 -1.312518E-09  1.487283E-09
       377  16 -3.451777E+05  6.446645E+04  5.581856E+04  2.039213E+04 -1.261795E-08 -6.378964E-09
       377  17 -3.042282E+05  7.470142E+04  6.111909E+04  4.874158E+03 -5.850852E-09 -2.035354E-08
       377  18 -2.661448E+05  7.664611E+04  6.127642E+04  1.752131E+04 -1.725678E-10  4.869414E-09
       377  19 -8.607631E+05 -6.342364E+04 -6.755926E+04  1.674403E+04 -3.430262E+03 -8.176177E+03
       377  20 -8.987626E+05 -7.268554E+04 -8.089116E+04  4.124059E+03 -8.876524E+03 -9.814623E+03
       377  21 -9.397697E+05 -9.038059E+04 -9.992247E+04  1.967091E+04 -1.432628E+04 -1.069567E+04
       377  22 -6.030009E+05  5.238490E+02 -5.867914E+03  1.856775E+04 -4.483618E+03 -8.180350E+03
       377  23 -6.015359E+05  1.011203E+03 -9.882734E+03  4.499099E+03 -9.532582E+03 -9.816920E+03
       377  24 -6.030091E+05 -6.863039E+03 -1.931870E+04  1.859652E+04 -1.458538E+04 -1.069623E+04
       377  25 -3.451776E+05  6.446653E+04  5.581874E+04  2.039217E+04 -5.537410E+03 -8.184528E+03
       377  26 -3.042280E+05  7.470155E+04  6.111946E+04  4.874238E+03 -1.018895E+04 -9.819217E+03
       377  27 -2.661445E+05  7.664629E+04  6.127705E+04  1.752144E+04 -1.484462E+04 -1.069679E+04
       378   1 -9.944184E+05 -9.225365E+04 -1.160216E+05  7.953551E+03  1.485585E+04  1.311201E+04
       378   2 -1.020951E+06 -9.604195E+04 -1.395732E+05  1.021314E+04  4.093637E+04  1.431397E+04
       378   3 -1.072103E+06 -1.844619E+05 -2.012945E+05  3.991751E+04  6.704940E+04  4.948295E+03
       378   4 -6.076138E+05  3.728680E+03 -2.370153E+04  1.834167E+04  1.823374E+04  1.312422E+04
       378   5 -5.958092E+05  9.314589E+03 -3.807044E+04  4.738838E+03  3.875377E+04  1.430535E+04
       378   6 -6.076422E+05 -6.873443E+04 -8.672677E+04  1.858116E+04  5.930827E+04  4.920729E+03
       378   7 -2.206717E+05  9.970055E+04  6.860814E+04  2.873617E+04  2.161372E+04  1.313653E+04
       378   8 -1.705012E+05  1.146582E+05  6.341968E+04 -7.393810E+02  3.656968E+04  1.429678E+04
       378   9 -1.429837E+05  4.697876E+04  2.782546E+04 -2.771360E+03  5.156134E+04  4.893707E+03
       378  10 -9.944186E+05 -9.225389E+04 -1.160224E+05  7.953394E+03 -7.593889E-10 -5.673483E-09
       378  11 -1.020953E+06 -9.604262E+04 -1.395768E+05  1.021267E+04  3.234672E-09 -2.234780E-09
       378  12 -1.072108E+06 -1.844631E+05 -2.013030E+05  3.991724E+04  7.460577E-09  8.012623E-09
       378  13 -6.076142E+05  3.728406E+03 -2.370248E+04  1.834147E+04 -1.103434E-09  2.987822E-09
       378  14 -5.958109E+05  9.313966E+03 -3.807365E+04  4.738391E+03 -1.228967E-09  8.037602E-09
       378  15 -6.076460E+05 -6.873540E+04 -8.673343E+04  1.858092E+04 -2.478136E-10  1.040837E-08
       378  16 -2.206722E+05  9.970024E+04  6.860694E+04  2.873594E+04  2.607623E-10  1.325300E-08
       378  17 -1.705027E+05  1.146576E+05  6.341678E+04 -7.398020E+02 -5.139790E-09  2.874987E-09
       378  18 -1.429866E+05  4.697802E+04  2.782042E+04 -2.771563E+03 -7.138699E-09 -6.273179E-10
       378  19 -9.944184E+05 -9.225365E+04 -1.160216E+05  7.953551E+03 -1.485585E+04 -1.311201E+04
       378  20 -1.020951E+06 -9.604195E+04 -1.395732E+05  1.021314E+04 -4.093637E+04 -1.431397E+04
       378  21 -1.072103E+06 -1.844619E+05 -2.012945E+05  3.991751E+04 -6.704940E+04 -4.948295E+03
       378  22 -6.076138E+05  3.728680E+03 -2.370153E+04  1.834167E+04 -1.823374E+04 -1.312422E+04
       378  23 -5.958092E+05  9.314589E+03 -3.807044E+04  4.738838E+03 -3.875377E+04 -1.430535E+04
       378  24 -6.076422E+05 -6.873443E+04 -8.672677E+04  1.858116E+04 -5.930827E+04 -4.920729E+03
       378  25 -2.206717E+05  9.970055E+04  6.860814E+04  2.873617E+04 -2.161372E+04 -1.313653E+04
       378  26 -1.705012E+05  1.146582E+05  6.341968E+04 -7.393810E+02 -3.656968E+04 -1.429678E+04
       378  27 -1.429837E+05  4.697876E+04  2.782546E+04 -2.771360E+03 -5.156134E+04 -4.893707E+03
       379   1 -1.674323E+05 -6.439161E+05 -1.613219E+05  1.650077E+05 -6.612608E+03 -5.252161E+04
       379   2 -1.168770E+05 -5.014503E+05 -9.956420E+04  1.456810E+05 -2.053149E+04 -2.154488E+04
       379   3 -7.949806E+04 -3.660992E+05 -6.126775E+04  1.537484E+05 -1.999986E+04  9.479775E+03
       379   4 -1.675521E+04 -3.515623E+04 -1.727459E+04  1.537197E+05 -6.708570E+03 -1.311785E+04
       379   5 -4.941188E+03 -3.391725E+04 -7.722342E+03  1.400411E+05 -2.055982E+04 -9.164498E+03
       379   6 -1.603031E+03 -3.511347E+04 -2.849791E+03  1.537568E+05 -1.996498E+04 -5.171055E+03
       379   7  1.338965E+05  5.739480E+05  1.267530E+05  1.424208E+05 -6.805923E+03  2.632437E+04
       379   8  1.069816E+05  4.338257E+05  8.410952E+04  1.343969E+05 -2.058836E+04  3.225015E+03
       379   9  7.628610E+04  2.959799E+05  5.556495E+04  1.537652E+05 -1.993012E+04 -1.982947E+04
       379  10 -1.674330E+05 -6.439191E+05 -1.613272E+05  1.650074E+05  4.773676E-10  2.464166E-09
       379  11 -1.168776E+05 -5.014509E+05 -9.956587E+04  1.456806E+05 -1.836643E-10 -1.559144E-09
       379  12 -7.949851E+04 -3.660994E+05 -6.126867E+04  1.537486E+05  7.855096E-10  7.841537E-10
       379  13 -1.675530E+04 -3.515643E+04 -1.727499E+04  1.537196E+05  1.817517E-09  2.646782E-09
       379  14 -4.941664E+03 -3.391746E+04 -7.723294E+03  1.400409E+05 -2.544544E-09  1.424135E-08
       379  15 -1.603466E+03 -3.511360E+04 -2.850590E+03  1.537567E+05  1.507474E-09 -6.322048E-10
       379  16  1.338963E+05  5.739473E+05  1.267516E+05  1.424209E+05  4.828157E-10 -3.235895E-09
       379  17  1.069811E+05  4.338256E+05  8.410870E+04  1.343970E+05  2.672210E-09 -3.451958E-09
       379  18  7.628557E+04  2.959793E+05  5.556347E+04  1.537649E+05 -7.900141E-10  6.482585E-10
       379  19 -1.674323E+05 -6.439161E+05 -1.613219E+05  1.650077E+05  6.612608E+03  5.252161E+04
       379  20 -1.168770E+05 -5.014503E+05 -9.956420E+04  1.456810E+05  2.053149E+04  2.154488E+04
       379  21 -7.949806E+04 -3.660992E+05 -6.126775E+04  1.537484E+05  1.999986E+04 -9.479775E+03
       379  22 -1.675521E+04 -3.515623E+04 -1.727459E+04  1.537197E+05  6.708570E+03  1.311785E+04
       379  23 -4.941188E+03 -3.391725E+04 -7.722342E+03  1.400411E+05  2.055982E+04  9.164498E+03
       379  24 -1.603031E+03 -3.511347E+04 -2.849791E+03  1.537568E+05  1.996498E+04  5.171055E+03
       379  25  1.338965E+05  5.739480E+05  1.267530E+05  1.424208E+05  6.805923E+03 -2.632437E+04
       379  26  1.069816E+05  4.338257E+05  8.410952E+04  1.343969E+05  2.058836E+04 -3.225015E+03
       379  27  7.628610E+04  2.959799E+05  5.556495E+04  1.537652E+05  1.993012E+04  1.982947E+04
       380   1 -5.832159E+04 -2.759075E+05 -4.317807E+04  1.545278E+05 -1.498087E+04  8.883058E+03
       380   2 -2.427569E+04 -1.372201E+05 -1.406775E+04  1.404624E+05 -7.365979E+03  8.474996E+03
       380   3  1.020394E+04  1.833994E+03  1.546423E+04  1.547298E+05  7.176256E+02  8.067482E+03
       380   4 -1.590866E+03 -3.445141E+04 -1.035591E+03  1.539601E+05 -1.494875E+04 -4.928275E+03
       380   5 -4.296990E+02 -3.469707E+04  2.612551E+03  1.397972E+05 -7.332348E+03 -6.214897E+03
       380   6  1.318773E+03 -3.444178E+04  7.292889E+03  1.539668E+05  7.527065E+02 -7.500887E+03
       380   7  5.513680E+04  2.070622E+05  4.110554E+04  1.533921E+05 -1.491662E+04 -1.874482E+04
       380   8  2.341588E+04  6.783687E+04  1.929337E+04  1.391319E+05 -7.298688E+03 -2.090713E+04
       380   9 -7.566354E+03 -7.071580E+04 -8.776205E+02  1.532039E+05  7.878266E+02 -2.306836E+04
       380  10 -5.832186E+04 -2.759076E+05 -4.317864E+04  1.545280E+05  1.609401E-09 -1.129679E-08
       380  11 -2.427577E+04 -1.372202E+05 -1.406799E+04  1.404625E+05  3.522688E-10  1.705419E-08
       380  12  1.020392E+04  1.833924E+03  1.546410E+04  1.547298E+05 -5.900738E-10  4.775881E-08
       380  13 -1.591112E+03 -3.445149E+04 -1.036056E+03  1.539600E+05  2.897350E-10  4.396644E-09
       380  14 -4.297671E+02 -3.469712E+04  2.612378E+03  1.397972E+05  2.457320E-09  1.038367E-08
       380  15  1.318757E+03 -3.444184E+04  7.292783E+03  1.539668E+05  2.708441E-10  1.133147E-09
       380  16  5.513647E+04  2.070618E+05  4.110446E+04  1.533919E+05 -8.064569E-10  8.010692E-09
       380  17  2.341570E+04  6.783639E+04  1.929245E+04  1.391318E+05 -3.781840E-10 -2.274019E-08
       380  18 -7.566498E+03 -7.071638E+04 -8.786218E+02  1.532039E+05 -3.257149E-09 -4.796875E-08
       380  19 -5.832159E+04 -2.759075E+05 -4.317807E+04  1.545278E+05  1.498087E+04 -8.883058E+03
       380  20 -2.427569E+04 -1.372201E+05 -1.406775E+04  1.404624E+05  7.365979E+03 -8.474996E+03
       380  21  1.020394E+04  1.833994E+03  1.546423E+04  1.547298E+05 -7.176256E+02 -8.067482E+03
       380  22 -1.590866E+03 -3.445141E+04 -1.035591E+03  1.539601E+05  1.494875E+04  4.928275E+03
       380  23 -4.296990E+02 -3.469707E+04  2.612551E+03  1.397972E+05  7.332348E+03  6.214897E+03
       380  24  1.318773E+03 -3.444178E+04  7.292889E+03  1.539668E+05 -7.527065E+02  7.500887E+03
       380  25  5.513680E+04  2.070622E+05  4.110554E+04  1.533921E+05  1.491662E+04  1.874482E+04
       380  26  2.341588E+04  6.783687E+04  1.929337E+04  1.391319E+05  7.298688E+03  2.090713E+04
       380  27 -7.566354E+03 -7.071580E+04 -8.776205E+02  1.532039E+05 -7.878266E+02  2.306836E+04
       381   1  3.126653E+04  9.247742E+04  3.426078E+04  1.523532E+05  6.077134E+03  7.331745E+03
       381   2  7.254699E+04  2.266580E+05  7.372604E+04  1.510031E+05  9.826540E+03 -2.130113E+04
       381   3  1.368310E+05  3.705188E+05  1.376209E+05  1.774449E+05  3.749234E+03 -4.996622E+04
       381   4  1.346580E+03 -3.311686E+04  1.028861E+04  1.538356E+05  6.113656E+03 -8.763669E+03
       381   5  9.248416E+03 -3.636607E+04  1.990891E+04  1.399834E+05  9.821917E+03 -1.899438E+04
       381   6  3.696656E+04 -3.313993E+04  4.118581E+04  1.539211E+05  3.702707E+03 -2.925093E+04
       381   7 -2.857415E+04 -1.586954E+05 -1.368330E+04  1.553178E+05  6.150104E+03 -2.485590E+04
       381   8 -5.405402E+04 -2.993241E+05 -3.391181E+04  1.289685E+05  9.817210E+03 -1.668860E+04
       381   9 -6.290734E+04 -4.366472E+05 -5.525887E+04  1.304128E+05  3.654596E+03 -8.549042E+03
       381  10  3.126648E+04  9.247735E+04  3.426061E+04  1.523531E+05  7.366571E-10 -4.769250E-08
       381  11  7.254677E+04  2.266574E+05  7.372501E+04  1.510033E+05 -6.904137E-10 -1.955674E-08
       381  12  1.368304E+05  3.705162E+05  1.376162E+05  1.774450E+05 -6.065452E-10  1.125512E-08
       381  13  1.346519E+03 -3.311695E+04  1.028839E+04  1.538357E+05 -3.876961E-09  4.378381E-09
       381  14  9.248216E+03 -3.636648E+04  1.990805E+04  1.399836E+05  1.505752E-09  1.379289E-08
       381  15  3.696632E+04 -3.314085E+04  4.118418E+04  1.539212E+05 -1.618412E-10  3.412621E-09
       381  16 -2.857436E+04 -1.586960E+05 -1.368454E+04  1.553179E+05 -4.036044E-09  4.453344E-08
       381  17 -5.405420E+04 -2.993244E+05 -3.391251E+04  1.289686E+05  3.698973E-10  1.655389E-08
       381  18 -6.290737E+04 -4.366473E+05 -5.525903E+04  1.304128E+05 -1.081832E-11 -1.281408E-08
       381  19  3.126653E+04  9.247742E+04  3.426078E+04  1.523532E+05 -6.077134E+03 -7.331745E+03
       381  20  7.254699E+04  2.266580E+05  7.372604E+04  1.510031E+05 -9.826540E+03  2.130113E+04
       381  21  1.368310E+05  3.705188E+05  1.376209E+05  1.774449E+05 -3.749234E+03  4.996622E+04
       381  22  1.346580E+03 -3.311686E+04  1.028861E+04  1.538356E+05 -6.113656E+03  8.763669E+03
       381  23  9.248416E+03 -3.636607E+04  1.990891E+04  1.399834E+05 -9.821917E+03  1.899438E+04
       381  24  3.696656E+04 -3.313993E+04  4.118581E+04  1.539211E+05 -3.702707E+03  2.925093E+04
       381  25 -2.857415E+04 -1.586954E+05 -1.368330E+04  1.553178E+05 -6.150104E+03  2.485590E+04
       381  26 -5.405402E+04 -2.993241E+05 -3.391181E+04  1.289685E+05 -9.817210E+03  1.668860E+04
       381  27 -6.290734E+04 -4.366472E+05 -5.525887E+04  1.304128E+05 -3.654596E+03  8.549042E+03
       382   1  1.045532E+06  3.819379E+05  2.535501E+05  3.643484E+05  1.039060E+05  3.468975E+04
       382   2  1.006378E+06  2.219832E+05  1.546546E+05  3.669971E+05  6.793565E+04  1.187386E+04
       382   3  1.008934E+06  2.145142E+05  1.224118E+05  3.515153E+05  2.856059E+04 -1.936204E+03
       382   4  6.941239E+05  2.149118E+05  1.513864E+05  2.332681E+05  9.765049E+04  3.231636E+04
       382   5  6.657912E+05  8.369417E+04  6.323701E+04  2.633058E+05  6.615667E+04  1.119868E+04
       382   6  6.783098E+05  1.041200E+05  3.822282E+04  2.752055E+05  3.125598E+04 -9.150029E+02
       382   7  3.428405E+05  4.791701E+04  4.921176E+04  1.022628E+05  9.139890E+04  2.994531E+04
       382   8  3.253173E+05 -5.458211E+04 -2.819060E+04  1.596679E+05  6.437875E+04  1.052398E+04
       382   9  3.477901E+05 -6.273251E+03 -4.597514E+04  1.989295E+05  3.394979E+04  1.057603E+02
       382  10  1.045521E+06  3.819337E+05  2.535276E+05  3.643455E+05  1.545957E-09  6.209477E-09
       382  11  1.006374E+06  2.219818E+05  1.546457E+05  3.669964E+05  1.860545E-10  1.747098E-09
       382  12  1.008933E+06  2.145139E+05  1.224103E+05  3.515154E+05 -6.948570E-10  1.029159E-08
       382  13  6.941134E+05  2.149081E+05  1.513665E+05  2.332655E+05  2.228455E-09 -4.516989E-09
       382  14  6.657865E+05  8.369286E+04  6.322856E+04  2.633052E+05 -3.926403E-10 -1.065717E-08
       382  15  6.783087E+05  1.041197E+05  3.822099E+04  2.752056E+05 -2.669433E-09 -2.175315E-09
       382  16  3.428313E+05  4.791380E+04  4.919439E+04  1.022606E+05  1.380923E-09  1.889081E-10
       382  17  3.253128E+05 -5.458334E+04 -2.819860E+04  1.596673E+05  1.995010E-09  4.484188E-09
       382  18  3.477888E+05 -6.273560E+03 -4.597730E+04  1.989295E+05 -4.185065E-11 -5.135009E-09
       382  19  1.045532E+06  3.819379E+05  2.535501E+05  3.643484E+05 -1.039060E+05 -3.468975E+04
       382  20  1.006378E+06  2.219832E+05  1.546546E+05  3.669971E+05 -6.793565E+04 -1.187386E+04
       382  21  1.008934E+06  2.145142E+05  1.224118E+05  3.515153E+05 -2.856059E+04  1.936204E+03
       382  22  6.941239E+05  2.149118E+05  1.513864E+05  2.332681E+05 -9.765049E+04 -3.231636E+04
       382  23  6.657912E+05  8.369417E+04  6.323701E+04  2.633058E+05 -6.615667E+04 -1.119868E+04
       382  24  6.783098E+05  1.041200E+05  3.822282E+04  2.752055E+05 -3.125598E+04  9.150029E+02
       382  25  3.428405E+05  4.791701E+04  4.921176E+04  1.022628E+05 -9.139890E+04 -2.994531E+04
       382  26  3.253173E+05 -5.458211E+04 -2.819060E+04  1.596679E+05 -6.437875E+04 -1.052398E+04
       382  27  3.477901E+05 -6.273251E+03 -4.597514E+04  1.989295E+05 -3.394979E+04 -1.057603E+02
       383   1  9.537785E+05  2.287463E+05  1.056532E+05  3.465917E+05  2.502868E+04 -1.002636E+03
       383   2  9.320696E+05  1.961881E+05  8.232485E+04  3.328658E+05  1.675099E+04 -3.588753E+03
       383   3  9.021616E+05  1.932652E+05  6.905591E+04  3.323537E+05  8.217863E+03 -5.501285E+03
       383   4  6.734925E+05  1.195716E+05  3.106397E+04  2.660540E+05  2.509326E+04 -9.786541E+02
       383   5  6.767844E+05  9.890587E+04  1.493726E+04  2.616776E+05  1.715247E+04 -3.436870E+03
       383   6  6.718123E+05  1.078127E+05  8.606596E+03  2.705144E+05  8.955837E+03 -5.221575E+03
       383   7  3.932825E+05  1.040323E+04 -4.353210E+04  1.855494E+05  2.515782E+04 -9.546859E+02
       383   8  4.215625E+05  1.628205E+03 -5.245583E+04  1.905158E+05  1.755377E+04 -3.285058E+03
       383   9  4.415149E+05  2.236337E+04 -5.184704E+04  2.086956E+05  9.693509E+03 -4.941975E+03
       383  10  9.537779E+05  2.287461E+05  1.056520E+05  3.465918E+05  9.215359E-10  9.796029E-09
       383  11  9.320693E+05  1.961880E+05  8.232430E+04  3.328659E+05 -2.325105E-09 -2.470187E-09
       383  12  9.021615E+05  1.932652E+05  6.905573E+04  3.323537E+05 -6.292260E-09  1.181219E-09
       383  13  6.734918E+05  1.195714E+05  3.106279E+04  2.660540E+05 -2.780214E-09  2.435228E-09
       383  14  6.767841E+05  9.890578E+04  1.493669E+04  2.616776E+05 -3.750060E-09 -1.829538E-08
       383  15  6.718122E+05  1.078127E+05  8.606394E+03  2.705144E+05 -1.308356E-09 -1.681645E-09
       383  16  3.932818E+05  1.040306E+04 -4.353329E+04  1.855494E+05 -3.562640E-09 -6.339385E-09
       383  17  4.215622E+05  1.628111E+03 -5.245643E+04  1.905159E+05 -1.293687E-09 -2.176051E-09
       383  18  4.415148E+05  2.236332E+04 -5.184726E+04  2.086956E+05  4.452946E-09  6.573095E-09
       383  19  9.537785E+05  2.287463E+05  1.056532E+05  3.465917E+05 -2.502868E+04  1.002636E+03
       383  20  9.320696E+05  1.961881E+05  8.232485E+04  3.328658E+05 -1.675099E+04  3.588753E+03
       383  21  9.021616E+05  1.932652E+05  6.905591E+04  3.323537E+05 -8.217863E+03  5.501285E+03
       383  22  6.734925E+05  1.195716E+05  3.106397E+04  2.660540E+05 -2.509326E+04  9.786541E+02
       383  23  6.767844E+05  9.890587E+04  1.493726E+04  2.616776E+05 -1.715247E+04  3.436870E+03
       383  24  6.718123E+05  1.078127E+05  8.606596E+03  2.705144E+05 -8.955837E+03  5.221575E+03
       383  25  3.932825E+05  1.040323E+04 -4.353210E+04  1.855494E+05 -2.515782E+04  9.546859E+02
       383  26  4.215625E+05  1.628205E+03 -5.245583E+04  1.905158E+05 -1.755377E+04  3.285058E+03
       383  27  4.415149E+05  2.236337E+04 -5.184704E+04  2.086956E+05 -9.693509E+03  4.941975E+03
       384   1  8.640177E+05  1.824524E+05  5.745423E+04  3.228465E+05  6.889897E+03 -5.116893E+03
       384   2  8.449214E+05  1.638365E+05  4.747242E+04  3.077195E+05  4.678928E+03 -4.694263E+03
       384   3  8.121860E+05  1.613073E+05  3.925869E+04  3.086122E+05  2.451639E+03 -4.229813E+03
       384   4  6.712709E+05  1.093382E+05  6.709882E+03  2.694250E+05  7.424319E+03 -4.914307E+03
       384   5  6.780063E+05  1.006887E+05  3.492114E+03  2.616464E+05  5.234628E+03 -4.483485E+03
       384   6  6.710984E+05  1.081223E+05  2.026176E+03  2.698877E+05  3.028536E+03 -4.010867E+03
       384   7  4.785595E+05  3.622630E+04 -4.403780E+04  2.160184E+05  7.958560E+03 -4.711790E+03
       384   8  5.111178E+05  3.754253E+04 -4.049065E+04  2.155844E+05  5.790165E+03 -4.272769E+03
       384   9  5.300299E+05  5.493848E+04 -3.520805E+04  2.311710E+05  3.605288E+03 -3.791976E+03
       384  10  8.640177E+05  1.824523E+05  5.745409E+04  3.228465E+05  2.588919E-10  2.971426E-09
       384  11  8.449214E+05  1.638364E+05  4.747234E+04  3.077195E+05  6.384687E-09  1.209607E-08
       384  12  8.121860E+05  1.613073E+05  3.925865E+04  3.086122E+05  6.016843E-09  3.704317E-09
       384  13  6.712709E+05  1.093382E+05  6.709733E+03  2.694250E+05 -2.711636E-09  2.947391E-09
       384  14  6.780063E+05  1.006886E+05  3.492025E+03  2.616464E+05  1.657142E-09  3.357936E-09
       384  15  6.710984E+05  1.081223E+05  2.026129E+03  2.698877E+05  2.239318E-09 -4.565538E-09
       384  16  4.785594E+05  3.622626E+04 -4.403796E+04  2.160184E+05 -8.822239E-10 -3.336143E-10
       384  17  5.111178E+05  3.754250E+04 -4.049075E+04  2.155845E+05 -3.454413E-09 -6.371853E-09
       384  18  5.300299E+05  5.493846E+04 -3.520810E+04  2.311710E+05  1.047127E-09  8.239392E-10
       384  19  8.640177E+05  1.824524E+05  5.745423E+04  3.228465E+05 -6.889897E+03  5.116893E+03
       384  20  8.449214E+05  1.638365E+05  4.747242E+04  3.077195E+05 -4.678928E+03  4.694263E+03
       384  21  8.121860E+05  1.613073E+05  3.925869E+04  3.086122E+05 -2.451639E+03  4.229813E+03
       384  22  6.712709E+05  1.093382E+05  6.709882E+03  2.694250E+05 -7.424319E+03  4.914307E+03
       384  23  6.780063E+05  1.006887E+05  3.492114E+03  2.616464E+05 -5.234628E+03  4.483485E+03
       384  24  6.710984E+05  1.081223E+05  2.026176E+03  2.698877E+05 -3.028536E+03  4.010867E+03
       384  25  4.785595E+05  3.622630E+04 -4.403780E+04  2.160184E+05 -7.958560E+03  4.711790E+03
       384  26  5.111178E+05  3.754253E+04 -4.049065E+04  2.155844E+05 -5.790165E+03  4.272769E+03
       384  27  5.300299E+05  5.493848E+04 -3.520805E+04  2.311710E+05 -3.605288E+03  3.791976E+03
       385   1  7.765833E+05  1.481335E+05  2.930183E+04  2.988534E+05  1.916459E+03 -3.665809E+03
       385   2  7.580879E+05  1.311915E+05  2.207166E+04  2.837753E+05  9.859882E+02 -2.724631E+03
       385   3  7.254653E+05  1.287070E+05  1.526462E+04  2.847507E+05  5.583837E+01 -1.784839E+03
       385   4  6.710602E+05  1.082267E+05  1.593154E+03  2.697195E+05  2.476610E+03 -3.453160E+03
       385   5  6.781172E+05  1.009463E+05  1.000807E+03  2.617127E+05  1.545542E+03 -2.512156E+03
       385   6  6.710464E+05  1.081237E+05  8.321727E+02  2.697592E+05  6.147684E+02 -1.572541E+03
       385   7  5.655482E+05  6.832084E+04 -2.611639E+04  2.405901E+05  3.036655E+03 -3.240552E+03
       385   8  5.981527E+05  7.070161E+04 -2.007059E+04  2.396525E+05  2.105016E+03 -2.299710E+03
       385   9  6.166301E+05  8.754056E+04 -1.360057E+04  2.547689E+05  1.173646E+03 -1.360263E+03
       385  10  7.765832E+05  1.481334E+05  2.930180E+04  2.988534E+05  1.252654E-09 -9.324193E-09
       385  11  7.580879E+05  1.311915E+05  2.207164E+04  2.837753E+05  2.316008E-09 -2.707607E-09
       385  12  7.254653E+05  1.287070E+05  1.526462E+04  2.847507E+05  6.716821E-09 -8.784864E-09
       385  13  6.710602E+05  1.082267E+05  1.593120E+03  2.697195E+05  3.929339E-09 -4.746635E-09
       385  14  6.781172E+05  1.009463E+05  1.000791E+03  2.617127E+05  6.066566E-09 -9.643791E-09
       385  15  6.710464E+05  1.081237E+05  8.321673E+02  2.697592E+05  1.017801E-09 -2.025182E-08
       385  16  5.655482E+05  6.832083E+04 -2.611642E+04  2.405901E+05  5.308566E-09 -3.684218E-09
       385  17  5.981527E+05  7.070160E+04 -2.007061E+04  2.396525E+05  2.710949E-09 -9.308479E-10
       385  18  6.166301E+05  8.754056E+04 -1.360058E+04  2.547689E+05  3.892062E-09 -8.877785E-09
       385  19  7.765833E+05  1.481335E+05  2.930183E+04  2.988534E+05 -1.916459E+03  3.665809E+03
       385  20  7.580879E+05  1.311915E+05  2.207166E+04  2.837753E+05 -9.859882E+02  2.724631E+03
       385  21  7.254653E+05  1.287070E+05  1.526462E+04  2.847507E+05 -5.583837E+01  1.784839E+03
       385  22  6.710602E+05  1.082267E+05  1.593154E+03  2.697195E+05 -2.476610E+03  3.453160E+03
       385  23  6.781172E+05  1.009463E+05  1.000807E+03  2.617127E+05 -1.545542E+03  2.512156E+03
       385  24  6.710464E+05  1.081237E+05  8.321727E+02  2.697592E+05 -6.147684E+02  1.572541E+03
       385  25  5.655482E+05  6.832084E+04 -2.611639E+04  2.405901E+05 -3.036655E+03  3.240552E+03
       385  26  5.981527E+05  7.070161E+04 -2.007059E+04  2.396525E+05 -2.105016E+03  2.299710E+03
       385  27  6.166301E+05  8.754056E+04 -1.360057E+04  2.547689E+05 -1.173646E+03  1.360263E+03
       386   1  6.904173E+05  1.154338E+05  5.860133E+03  2.751162E+05 -3.322923E+02 -1.180572E+03
       386   2  6.720345E+05  9.867576E+04 -4.765533E+02  2.600674E+05 -1.320328E+03 -2.665990E+02
       386   3  6.396073E+05  9.633332E+04 -6.339744E+03  2.609817E+05 -2.307364E+03  6.449354E+02
       386   4  6.710640E+05  1.081041E+05  8.525703E+02  2.697433E+05  2.258739E+02 -9.685452E+02
       386   5  6.780962E+05  1.009647E+05  1.119940E+03  2.617358E+05 -7.633955E+02 -5.504739E+01
       386   6  6.710835E+05  1.082408E+05  1.861769E+03  2.696913E+05 -1.751689E+03  8.560047E+02
       386   7  6.517111E+05  1.007745E+05 -4.155022E+03  2.643705E+05  7.840210E+02 -7.565260E+02
       386   8  6.841580E+05  1.032535E+05  2.716429E+03  2.634044E+05 -2.064577E+02  1.565061E+02
       386   9  7.025606E+05  1.201484E+05  1.006317E+04  2.784012E+05 -1.195986E+03  1.067085E+03
       386  10  6.904173E+05  1.154338E+05  5.860131E+03  2.751162E+05  2.774170E-09 -9.986011E-10
       386  11  6.720345E+05  9.867576E+04 -4.765567E+02  2.600674E+05  1.418716E-09  2.373419E-09
       386  12  6.396073E+05  9.633331E+04 -6.339754E+03  2.609817E+05  2.271477E-09 -1.099033E-09
       386  13  6.710640E+05  1.081041E+05  8.525685E+02  2.697433E+05  3.173634E-09  2.788287E-09
       386  14  6.780962E+05  1.009647E+05  1.119939E+03  2.617358E+05  1.061207E-08  2.058048E-08
       386  15  6.710835E+05  1.082408E+05  1.861762E+03  2.696913E+05 -8.886536E-10  1.148688E-08
       386  16  6.517111E+05  1.007745E+05 -4.155024E+03  2.643705E+05  5.817461E-09 -6.654725E-09
       386  17  6.841580E+05  1.032535E+05  2.716429E+03  2.634044E+05  4.694785E-09 -7.113097E-09
       386  18  7.025606E+05  1.201484E+05  1.006317E+04  2.784012E+05 -3.667273E-09  4.847707E-10
       386  19  6.904173E+05  1.154338E+05  5.860133E+03  2.751162E+05  3.322923E+02  1.180572E+03
       386  20  6.720345E+05  9.867576E+04 -4.765533E+02  2.600674E+05  1.320328E+03  2.665990E+02
       386  21  6.396073E+05  9.633332E+04 -6.339744E+03  2.609817E+05  2.307364E+03 -6.449354E+02
       386  22  6.710640E+05  1.081041E+05  8.525703E+02  2.697433E+05 -2.258739E+02  9.685452E+02
       386  23  6.780962E+05  1.009647E+05  1.119940E+03  2.617358E+05  7.633955E+02  5.504739E+01
       386  24  6.710835E+05  1.082408E+05  1.861769E+03  2.696913E+05  1.751689E+03 -8.560047E+02
       386  25  6.517111E+05  1.007745E+05 -4.155022E+03  2.643705E+05 -7.840210E+02  7.565260E+02
       386  26  6.841580E+05  1.032535E+05  2.716429E+03  2.634044E+05  2.064577E+02 -1.565061E+02
       386  27  7.025606E+05  1.201484E+05  1.006317E+04  2.784012E+05  1.195986E+03 -1.067085E+03
       387   1  6.044501E+05  8.303854E+04 -1.524678E+04  2.516676E+05 -2.920663E+03  1.170183E+03
       387   2  5.858037E+05  6.581926E+04 -2.012569E+04  2.362495E+05 -5.440757E+03  1.507117E+03
       387   3  5.538570E+05  6.477377E+04 -2.293852E+04  2.365301E+05 -7.946774E+03  1.807892E+03
       387   4  6.711678E+05  1.080714E+05  2.388027E+03  2.698451E+05 -2.352262E+03  1.386063E+03
       387   5  6.779208E+05  1.007148E+05  4.158044E+03  2.617174E+05 -4.890599E+03  1.716002E+03
       387   6  6.713767E+05  1.095354E+05  8.008508E+03  2.692881E+05 -7.414950E+03  2.009750E+03
       387   7  7.378901E+05  1.331046E+05  2.002251E+04  2.880243E+05 -1.783791E+03  1.601969E+03
       387   8  7.700462E+05  1.356109E+05  2.844109E+04  2.871887E+05 -4.340350E+03  1.924922E+03
       387   9  7.889098E+05  1.542979E+05  3.895435E+04  3.020517E+05 -6.883016E+03  2.211651E+03
       387  10  6.044501E+05  8.303853E+04 -1.524680E+04  2.516676E+05 -5.720713E-10 -5.642637E-09
       387  11  5.858036E+05  6.581924E+04 -2.012574E+04  2.362495E+05 -2.238275E-09 -6.457840E-09
       387  12  5.538569E+05  6.477375E+04 -2.293864E+04  2.365301E+05 -8.995585E-09  5.270399E-09
       387  13  6.711678E+05  1.080714E+05  2.388013E+03  2.698451E+05 -5.629222E-09 -2.051359E-10
       387  14  6.779207E+05  1.007147E+05  4.157994E+03  2.617174E+05 -5.241003E-10  1.125115E-08
       387  15  6.713767E+05  1.095353E+05  8.008397E+03  2.692881E+05 -3.222956E-09  3.062136E-09
       387  16  7.378901E+05  1.331046E+05  2.002249E+04  2.880243E+05 -1.772026E-09  2.224721E-09
       387  17  7.700462E+05  1.356108E+05  2.844104E+04  2.871887E+05  7.294428E-09  2.823030E-08
       387  18  7.889098E+05  1.542979E+05  3.895425E+04  3.020518E+05  6.159560E-09  1.309102E-08
       387  19  6.044501E+05  8.303854E+04 -1.524678E+04  2.516676E+05  2.920663E+03 -1.170183E+03
       387  20  5.858037E+05  6.581926E+04 -2.012569E+04  2.362495E+05  5.440757E+03 -1.507117E+03
       387  21  5.538570E+05  6.477377E+04 -2.293852E+04  2.365301E+05  7.946774E+03 -1.807892E+03
       387  22  6.711678E+05  1.080714E+05  2.388027E+03  2.698451E+05  2.352262E+03 -1.386063E+03
       387  23  6.779208E+05  1.007148E+05  4.158044E+03  2.617174E+05  4.890599E+03 -1.716002E+03
       387  24  6.713767E+05  1.095354E+05  8.008508E+03  2.692881E+05  7.414950E+03 -2.009750E+03
       387  25  7.378901E+05  1.331046E+05  2.002251E+04  2.880243E+05  1.783791E+03 -1.601969E+03
       387  26  7.700462E+05  1.356109E+05  2.844109E+04  2.871887E+05  4.340350E+03 -1.924922E+03
       387  27  7.889098E+05  1.542979E+05  3.895435E+04  3.020517E+05  6.883016E+03 -2.211651E+03
       388   1  5.174105E+05  5.109136E+04 -3.019301E+04  2.298526E+05 -9.866514E+03  1.929283E+03
       388   2  4.978297E+05  3.012218E+04 -2.939113E+04  2.115571E+05 -1.929807E+04 -3.517250E+02
       388   3  4.715211E+05  4.118798E+04 -1.710503E+04  2.053525E+05 -2.852489E+04 -3.170004E+03
       388   4  6.720676E+05  1.076635E+05  1.027594E+04  2.705374E+05 -9.173179E+03  2.192424E+03
       388   5  6.764133E+05  9.865085E+04  1.785048E+04  2.618230E+05 -1.887329E+04 -1.907099E+02
       388   6  6.740818E+05  1.217225E+05  3.711939E+04  2.651992E+05 -2.836910E+04 -3.111294E+03
       388   7  8.267473E+05  1.642366E+05  5.074275E+04  3.112310E+05 -8.479655E+03  2.455630E+03
       388   8  8.550277E+05  1.671818E+05  6.508934E+04  3.121021E+05 -1.844837E+04 -2.964180E+01
       388   9  8.766827E+05  2.022610E+05  9.134035E+04  3.250640E+05 -2.821324E+04 -3.052559E+03
       388  10  5.174104E+05  5.109133E+04 -3.019320E+04  2.298526E+05 -2.836091E-09  1.026870E-09
       388  11  4.978293E+05  3.012208E+04 -2.939183E+04  2.115570E+05 -8.861579E-10  1.697964E-10
       388  12  4.715203E+05  4.118775E+04 -1.710658E+04  2.053524E+05  4.114597E-09  4.567689E-09
       388  13  6.720675E+05  1.076635E+05  1.027577E+04  2.705374E+05 -3.825717E-09 -2.216600E-09
       388  14  6.764129E+05  9.865075E+04  1.784982E+04  2.618230E+05  1.324970E-09  1.007149E-08
       388  15  6.740809E+05  1.217222E+05  3.711786E+04  2.651991E+05 -1.481726E-09 -2.492645E-09
       388  16  8.267472E+05  1.642366E+05  5.074260E+04  3.112310E+05 -4.398020E-09  1.082090E-08
       388  17  8.550273E+05  1.671817E+05  6.508871E+04  3.121021E+05 -3.396956E-09 -1.534016E-08
       388  18  8.766819E+05  2.022607E+05  9.133884E+04  3.250640E+05 -6.300337E-09  5.411271E-09
       388  19  5.174105E+05  5.109136E+04 -3.019301E+04  2.298526E+05  9.866514E+03 -1.929283E+03
       388  20  4.978297E+05  3.012218E+04 -2.939113E+04  2.115571E+05  1.929807E+04  3.517250E+02
       388  21  4.715211E+05  4.118798E+04 -1.710503E+04  2.053525E+05  2.852489E+04  3.170004E+03
       388  22  6.720676E+05  1.076635E+05  1.027594E+04  2.705374E+05  9.173179E+03 -2.192424E+03
       388  23  6.764133E+05  9.865085E+04  1.785048E+04  2.618230E+05  1.887329E+04  1.907099E+02
       388  24  6.740818E+05  1.217225E+05  3.711939E+04  2.651992E+05  2.836910E+04  3.111294E+03
       388  25  8.267473E+05  1.642366E+05  5.074275E+04  3.112310E+05  8.479655E+03 -2.455630E+03
       388  26  8.550277E+05  1.671818E+05  6.508934E+04  3.121021E+05  1.844837E+04  2.964180E+01
       388  27  8.766827E+05  2.022610E+05  9.134035E+04  3.250640E+05  2.821324E+04  3.052559E+03
       389   1  4.255616E+05  2.435672E+04 -1.796044E+04  2.235761E+05 -3.772535E+04 -4.712665E+03
       389   2  4.032896E+05 -2.935141E+04  4.955422E+03  1.803098E+05 -7.580471E+04 -1.802731E+04
       389   3  4.325547E+05  9.398713E+04  1.005015E+05  1.113787E+05 -1.111696E+05 -3.849851E+04
       389   4  6.798678E+05  1.032224E+05  4.567334E+04  2.760915E+05 -3.547872E+04 -3.859695E+03
       389   5  6.632375E+05  8.054259E+04  7.557878E+04  2.638372E+05 -7.711657E+04 -1.852659E+04
       389   6  6.988184E+05  2.355666E+05  1.809100E+05  2.259252E+05 -1.160409E+05 -4.035304E+04
       389   7  9.342371E+05  1.820879E+05  1.093024E+05  3.286240E+05 -3.323108E+04 -3.006495E+03
       389   8  9.232501E+05  1.904453E+05  1.461957E+05  3.473974E+05 -7.842902E+04 -1.902616E+04
       389   9  9.651521E+05  3.771722E+05  2.613108E+05  3.405216E+05 -1.209145E+05 -4.220920E+04
       389  10  4.255601E+05  2.435631E+04 -1.796315E+04  2.235760E+05  2.446250E-09  1.229472E-08
       389  11  4.032834E+05 -2.935330E+04  4.944021E+03  1.803087E+05  2.957227E-09 -5.381494E-09
       389  12  4.325410E+05  9.398223E+04  1.004755E+05  1.113752E+05  2.478859E-09  8.502761E-09
       389  13  6.798664E+05  1.032221E+05  4.567095E+04  2.760914E+05 -9.537579E-10 -3.874662E-09
       389  14  6.632310E+05  8.054063E+04  7.556697E+04  2.638360E+05 -1.823565E-09  3.315554E-09
       389  15  6.988035E+05  2.355612E+05  1.808816E+05  2.259214E+05 -2.055580E-09  1.173177E-08
       389  16  9.342359E+05  1.820876E+05  1.093004E+05  3.286239E+05 -6.674417E-09 -4.178859E-09
       389  17  9.232434E+05  1.904433E+05  1.461835E+05  3.473962E+05 -7.565972E-09  5.151439E-09
       389  18  9.651359E+05  3.771664E+05  2.612800E+05  3.405175E+05 -8.133037E-09  3.207192E-09
       389  19  4.255616E+05  2.435672E+04 -1.796044E+04  2.235761E+05  3.772535E+04  4.712665E+03
       389  20  4.032896E+05 -2.935141E+04  4.955422E+03  1.803098E+05  7.580471E+04  1.802731E+04
       389  21  4.325547E+05  9.398713E+04  1.005015E+05  1.113787E+05  1.111696E+05  3.849851E+04
       389  22  6.798678E+05  1.032224E+05  4.567334E+04  2.760915E+05  3.547872E+04  3.859695E+03
       389  23  6.632375E+05  8.054259E+04  7.557878E+04  2.638372E+05  7.711657E+04  1.852659E+04
       389  24  6.988184E+05  2.355666E+05  1.809100E+05  2.259252E+05  1.160409E+05  4.035304E+04
       389  25  9.342371E+05  1.820879E+05  1.093024E+05  3.286240E+05  3.323108E+04  3.006495E+03
       389  26  9.232501E+05  1.904453E+05  1.461957E+05  3.473974E+05  7.842902E+04  1.902616E+04
       389  27  9.651521E+05  3.771722E+05  2.613108E+05  3.405216E+05  1.209145E+05  4.220920E+04
       390   1 -1.715137E+05 -9.098286E+05 -1.743884E+05  8.858828E+04 -5.610544E+03 -2.398218E+04
       390   2 -1.115082E+05 -7.545176E+05 -1.206637E+05  3.007323E+04 -1.535172E+04 -1.006272E+04
       390   3 -7.615751E+04 -6.062151E+05 -8.200539E+04  7.927221E+04 -9.877446E+03  3.901474E+03
       390   4 -1.881125E+04 -2.980842E+05 -2.328634E+04  8.122088E+04 -5.636144E+03 -1.486146E+04
       390   5  2.334914E+03 -2.952534E+05 -1.106074E+04  2.739267E+04 -1.535385E+04 -8.960893E+03
       390   6  2.308572E+02 -2.980535E+05 -8.319822E+03  8.127479E+04 -9.860882E+03 -3.019191E+03
       390   7  1.338635E+05  3.140010E+05  1.277882E+05  7.384643E+04 -5.661949E+03 -5.731748E+03
       390   8  1.161628E+05  1.642046E+05  9.852736E+04  2.471024E+04 -1.535599E+04 -7.858250E+03
       390   9  7.661239E+04  1.019539E+04  6.535922E+04  8.327841E+04 -9.844367E+03 -9.943278E+03
       390  10 -1.715139E+05 -9.098292E+05 -1.743895E+05  8.858818E+04  9.589443E-10  4.029086E-09
       390  11 -1.115085E+05 -7.545178E+05 -1.206643E+05  3.007310E+04  1.710324E-09  3.187441E-09
       390  12 -7.615762E+04 -6.062151E+05 -8.200560E+04  7.927224E+04  1.355205E-10  8.354217E-09
       390  13 -1.881134E+04 -2.980844E+05 -2.328682E+04  8.122082E+04  2.685614E-09 -4.256833E-09
       390  14  2.334640E+03 -2.952535E+05 -1.106133E+04  2.739256E+04 -1.421703E-09 -7.142915E-09
       390  15  2.307503E+02 -2.980535E+05 -8.320022E+03  8.127476E+04 -1.972485E-09 -2.833713E-09
       390  16  1.338635E+05  3.140010E+05  1.277881E+05  7.384640E+04  1.272114E-09 -5.091249E-09
       390  17  1.161625E+05  1.642044E+05  9.852680E+04  2.471015E+04  3.381121E-09 -5.177960E-09
       390  18  7.661226E+04  1.019526E+04  6.535886E+04  8.327834E+04 -3.753710E-09 -1.983742E-09
       390  19 -1.715137E+05 -9.098286E+05 -1.743884E+05  8.858828E+04  5.610544E+03  2.398218E+04
       390  20 -1.115082E+05 -7.545176E+05 -1.206637E+05  3.007323E+04  1.535172E+04  1.006272E+04
       390  21 -7.615751E+04 -6.062151E+05 -8.200539E+04  7.927221E+04  9.877446E+03 -3.901474E+03
       390  22 -1.881125E+04 -2.980842E+05 -2.328634E+04  8.122088E+04  5.636144E+03  1.486146E+04
       390  23  2.334914E+03 -2.952534E+05 -1.106074E+04  2.739267E+04  1.535385E+04  8.960893E+03
       390  24  2.308572E+02 -2.980535E+05 -8.319822E+03  8.127479E+04  9.860882E+03  3.019191E+03
       390  25  1.338635E+05  3.140010E+05  1.277882E+05  7.384643E+04  5.661949E+03  5.731748E+03
       390  26  1.161628E+05  1.642046E+05  9.852736E+04  2.471024E+04  1.535599E+04  7.858250E+03
       390  27  7.661239E+04  1.019539E+04  6.535922E+04  8.327841E+04  9.844367E+03  9.943278E+03
       391   1 -3.024143E+04 -4.107695E+05 -3.490403E+04  8.263224E+04 -3.890382E+03  1.126974E+03
       391   2  1.011739E+04 -2.580074E+05  1.877415E+03  2.706024E+04  1.249775E+03  4.804359E+03
       391   3  4.347519E+04 -1.067919E+05  3.464917E+04  7.977807E+04  6.273115E+03  8.482776E+03
       391   4 -2.081147E+03 -2.971311E+05 -7.818025E+03  8.138732E+04 -3.884089E+03 -1.621329E+03
       391   5  6.164035E+02 -2.963430E+05 -7.276177E+03  2.724009E+04  1.256065E+03  2.117488E+03
       391   6 -3.696397E+03 -2.971338E+05 -1.078545E+04  8.138346E+04  6.279347E+03  5.856454E+03
       391   7  2.607822E+04 -1.834808E+05  1.926710E+04  8.014217E+04 -3.877785E+03 -4.370133E+03
       391   8 -8.884688E+03 -3.346772E+05 -1.642984E+04  2.741993E+04  1.262355E+03 -5.692182E+02
       391   9 -5.087060E+04 -4.874424E+05 -5.622260E+04  8.298837E+04  6.285566E+03  3.230934E+03
       391  10 -3.024145E+04 -4.107695E+05 -3.490406E+04  8.263225E+04 -1.638146E-09  4.321613E-09
       391  11  1.011738E+04 -2.580074E+05  1.877369E+03  2.706023E+04  1.543655E-09 -4.916166E-09
       391  12  4.347513E+04 -1.067920E+05  3.464896E+04  7.977803E+04  1.865908E-09  1.419181E-09
       391  13 -2.081164E+03 -2.971311E+05 -7.818058E+03  8.138731E+04 -2.384586E-09 -4.317449E-09
       391  14  6.164006E+02 -2.963430E+05 -7.276188E+03  2.724009E+04  2.357939E-09  1.814777E-10
       391  15 -3.696449E+03 -2.971338E+05 -1.078559E+04  8.138343E+04  3.030783E-09 -3.815775E-09
       391  16  2.607819E+04 -1.834808E+05  1.926703E+04  8.014215E+04 -3.448037E-09 -4.333570E-09
       391  17 -8.884690E+03 -3.346772E+05 -1.642985E+04  2.741994E+04 -1.923828E-10 -1.933900E-09
       391  18 -5.087064E+04 -4.874424E+05 -5.622269E+04  8.298835E+04 -7.141321E-10 -3.577670E-09
       391  19 -3.024143E+04 -4.107695E+05 -3.490403E+04  8.263224E+04  3.890382E+03 -1.126974E+03
       391  20  1.011739E+04 -2.580074E+05  1.877415E+03  2.706024E+04 -1.249775E+03 -4.804359E+03
       391  21  4.347519E+04 -1.067919E+05  3.464917E+04  7.977807E+04 -6.273115E+03 -8.482776E+03
       391  22 -2.081147E+03 -2.971311E+05 -7.818025E+03  8.138732E+04  3.884089E+03  1.621329E+03
       391  23  6.164035E+02 -2.963430E+05 -7.276177E+03  2.724009E+04 -1.256065E+03 -2.117488E+03
       391  24 -3.696397E+03 -2.971338E+05 -1.078545E+04  8.138346E+04 -6.279347E+03 -5.856454E+03
       391  25  2.607822E+04 -1.834808E+05  1.926710E+04  8.014217E+04  3.877785E+03  4.370133E+03
       391  26 -8.884688E+03 -3.346772E+05 -1.642984E+04  2.741993E+04 -1.262355E+03  5.692182E+02
       391  27 -5.087060E+04 -4.874424E+05 -5.622260E+04  8.298837E+04 -6.285566E+03 -3.230934E+03
       392   1  9.650873E+04  8.575778E+04  7.940654E+04  8.509913E+04  1.244802E+04  1.518409E+04
       392   2  1.370996E+05  2.420803E+05  1.089169E+05  2.311234E+04  1.787491E+04  1.648000E+04
       392   3  1.379605E+05  3.893904E+05  1.278731E+05  6.867389E+04  6.438653E+03  1.772844E+04
       392   4  1.152200E+03 -2.991654E+05 -1.253783E+04  8.125552E+04  1.246611E+04  7.859211E+03
       392   5  4.312814E+03 -2.938900E+05 -1.892230E+04  2.742572E+04  1.787167E+04  1.805421E+04
       392   6 -3.381884E+04 -2.992031E+05 -4.204954E+04  8.115178E+04  6.407699E+03  2.820118E+04
       392   7 -9.421497E+04 -6.839525E+05 -1.044924E+05  7.741437E+04  1.248429E+04  5.388519E+02
       392   8 -1.284947E+05 -8.295969E+05 -1.467816E+05  3.173555E+04  1.786846E+04  1.962708E+04
       392   9 -2.056330E+05 -9.873651E+05 -2.120069E+05  9.361611E+04  6.377151E+03  3.866231E+04
       392  10  9.650851E+04  8.575749E+04  7.940582E+04  8.509898E+04  2.278955E-09 -1.042145E-10
       392  11  1.370992E+05  2.420799E+05  1.089158E+05  2.311210E+04 -1.634547E-10 -8.340128E-09
       392  12  1.379604E+05  3.893900E+05  1.278725E+05  6.867380E+04 -1.047198E-09  6.666032E-09
       392  13  1.152016E+03 -2.991655E+05 -1.253824E+04  8.125544E+04 -7.741961E-10 -5.359262E-11
       392  14  4.312383E+03 -2.938905E+05 -1.892351E+04  2.742546E+04  1.751772E-09 -9.381545E-09
       392  15 -3.381910E+04 -2.992040E+05 -4.205112E+04  8.115163E+04 -6.643859E-10  9.183103E-09
       392  16 -9.421513E+04 -6.839526E+05 -1.044927E+05  7.741437E+04  6.615446E-10  3.408038E-09
       392  17 -1.284951E+05 -8.295974E+05 -1.467830E+05  3.173526E+04  2.757976E-09  1.826060E-09
       392  18 -2.056334E+05 -9.873667E+05 -2.120098E+05  9.361591E+04 -1.637772E-10 -2.858056E-09
       392  19  9.650873E+04  8.575778E+04  7.940654E+04  8.509913E+04 -1.244802E+04 -1.518409E+04
       392  20  1.370996E+05  2.420803E+05  1.089169E+05  2.311234E+04 -1.787491E+04 -1.648000E+04
       392  21  1.379605E+05  3.893904E+05  1.278731E+05  6.867389E+04 -6.438653E+03 -1.772844E+04
       392  22  1.152200E+03 -2.991654E+05 -1.253783E+04  8.125552E+04 -1.246611E+04 -7.859211E+03
       392  23  4.312814E+03 -2.938900E+05 -1.892230E+04  2.742572E+04 -1.787167E+04 -1.805421E+04
       392  24 -3.381884E+04 -2.992031E+05 -4.204954E+04  8.115178E+04 -6.407699E+03 -2.820118E+04
       392  25 -9.421497E+04 -6.839525E+05 -1.044924E+05  7.741437E+04 -1.248429E+04 -5.388519E+02
       392  26 -1.284947E+05 -8.295969E+05 -1.467816E+05  3.173555E+04 -1.786846E+04 -1.962708E+04
       392  27 -2.056330E+05 -9.873651E+05 -2.120069E+05  9.361611E+04 -6.377151E+03 -3.866231E+04
       393   1  4.747574E+05 -6.920568E+04 -6.161912E+04 -5.547896E+03  1.519943E+04  3.884791E+03
       393   2  4.976301E+05 -9.028858E+04 -6.983520E+04 -1.817551E+03  1.222690E+04  1.168427E+04
       393   3  5.284873E+05 -8.165346E+04 -6.865713E+04 -1.694965E+04  9.262933E+03  1.098390E+04
       393   4  8.529585E+05  2.498812E+04  3.152847E+04 -1.342204E+04  2.157575E+04  3.891315E+03
       393   5  8.485870E+05 -3.420976E+03  1.382567E+04 -3.978069E+03  1.410913E+04  1.168545E+04
       393   6  8.529734E+05 -1.341687E+03  8.630677E+03 -1.339563E+04  6.651198E+03  1.098181E+04
       393   7  1.231290E+06  1.191715E+05  1.246657E+05 -2.130102E+04  2.795594E+04  3.897676E+03
       393   8  1.199657E+06  8.343776E+04  9.747791E+04 -6.139837E+03  1.599241E+04  1.168661E+04
       393   9  1.177556E+06  7.896254E+04  8.591113E+04 -9.839762E+03  4.038104E+03  1.097968E+04
       393  10  4.747571E+05 -6.920576E+04 -6.161958E+04 -5.547944E+03  3.417563E-10 -8.930158E-11
       393  11  4.976299E+05 -9.028877E+04 -6.983574E+04 -1.817666E+03 -5.661770E-11 -2.205303E-10
       393  12  5.284872E+05 -8.165361E+04 -6.865751E+04 -1.694974E+04 -3.775683E-11  5.828478E-11
       393  13  8.529580E+05  2.498798E+04  3.152756E+04 -1.342211E+04  1.959268E-11 -5.495145E-11
       393  14  8.485867E+05 -3.421176E+03  1.382504E+04 -3.978202E+03 -2.640496E-10 -1.678727E-10
       393  15  8.529734E+05 -1.341828E+03  8.630367E+03 -1.339569E+04  5.186619E-11  5.145215E-12
       393  16  1.231289E+06  1.191713E+05  1.246642E+05 -2.130111E+04  5.720923E-10  4.901245E-12
       393  17  1.199656E+06  8.343755E+04  9.747717E+04 -6.139988E+03 -3.270632E-10 -1.124011E-11
       393  18  1.177556E+06  7.896241E+04  8.591088E+04 -9.839798E+03 -5.204487E-10 -2.067233E-10
       393  19  4.747574E+05 -6.920568E+04 -6.161912E+04 -5.547896E+03 -1.519943E+04 -3.884791E+03
       393  20  4.976301E+05 -9.028858E+04 -6.983520E+04 -1.817551E+03 -1.222690E+04 -1.168427E+04
       393  21  5.284873E+05 -8.165346E+04 -6.865713E+04 -1.694965E+04 -9.262933E+03 -1.098390E+04
       393  22  8.529585E+05  2.498812E+04  3.152847E+04 -1.342204E+04 -2.157575E+04 -3.891315E+03
       393  23  8.485870E+05 -3.420976E+03  1.382567E+04 -3.978069E+03 -1.410913E+04 -1.168545E+04
       393  24  8.529734E+05 -1.341687E+03  8.630677E+03 -1.339563E+04 -6.651198E+03 -1.098181E+04
       393  25  1.231290E+06  1.191715E+05  1.246657E+05 -2.130102E+04 -2.795594E+04 -3.897676E+03
       393  26  1.199657E+06  8.343776E+04  9.747791E+04 -6.139837E+03 -1.599241E+04 -1.168661E+04
       393  27  1.177556E+06  7.896254E+04  8.591113E+04 -9.839762E+03 -4.038104E+03 -1.097968E+04
       394   1  5.603302E+05 -6.954394E+04 -6.249933E+04 -1.266995E+04  5.398425E+03  9.161060E+03
       394   2  5.855304E+05 -6.602357E+04 -5.965478E+04 -4.025925E+03  3.866966E+03  8.710494E+03
       394   3  6.117877E+05 -5.944372E+04 -5.502951E+04 -1.369702E+04  2.335230E+03  7.673903E+03
       394   4  8.512771E+05  2.506140E+03  7.032937E+03 -1.328275E+04  5.317318E+03  9.160723E+03
       394   5  8.507244E+05 -3.759851E+02  3.597870E+03 -4.124761E+03  3.475462E+03  8.710078E+03
       394   6  8.512814E+05 -1.454888E+02  2.158289E+03 -1.328139E+04  1.633393E+03  7.673519E+03
       394   7  1.142301E+06  7.455010E+04  7.655925E+04 -1.389585E+04  5.236173E+03  9.160387E+03
       394   8  1.115983E+06  6.526652E+04  6.684559E+04 -4.223645E+03  3.083792E+03  8.709663E+03
       394   9  1.090828E+06  5.914859E+04  5.934206E+04 -1.286559E+04  9.312868E+02  7.673134E+03
       394  10  5.603301E+05 -6.954404E+04 -6.249955E+04 -1.266999E+04  3.133058E-10  1.199221E-10
       394  11  5.855303E+05 -6.602365E+04 -5.965496E+04 -4.025952E+03 -9.796735E-11 -1.105255E-10
       394  12  6.117876E+05 -5.944378E+04 -5.502963E+04 -1.369704E+04  1.045066E-10 -3.323912E-11
       394  13  8.512770E+05  2.506042E+03  7.032727E+03 -1.328279E+04 -3.605556E-11 -3.903298E-11
       394  14  8.507243E+05 -3.760698E+02  3.597704E+03 -4.124785E+03 -2.110062E-10  6.300799E-11
       394  15  8.512814E+05 -1.455528E+02  2.158174E+03 -1.328140E+04  2.745591E-11  5.134628E-11
       394  16  1.142301E+06  7.455000E+04  7.655904E+04 -1.389589E+04  1.680102E-10  1.747888E-11
       394  17  1.115983E+06  6.526644E+04  6.684543E+04 -4.223667E+03 -2.219883E-10  1.733763E-10
       394  18  1.090828E+06  5.914853E+04  5.934194E+04 -1.286560E+04 -3.303799E-10 -7.393931E-12
       394  19  5.603302E+05 -6.954394E+04 -6.249933E+04 -1.266995E+04 -5.398425E+03 -9.161060E+03
       394  20  5.855304E+05 -6.602357E+04 -5.965478E+04 -4.025925E+03 -3.866966E+03 -8.710494E+03
       394  21  6.117877E+05 -5.944372E+04 -5.502951E+04 -1.369702E+04 -2.335230E+03 -7.673903E+03
       394  22  8.512771E+05  2.506140E+03  7.032937E+03 -1.328275E+04 -5.317318E+03 -9.160723E+03
       394  23  8.507244E+05 -3.759851E+02  3.597870E+03 -4.124761E+03 -3.475462E+03 -8.710078E+03
       394  24  8.512814E+05 -1.454888E+02  2.158289E+03 -1.328139E+04 -1.633393E+03 -7.673519E+03
       394  25  1.142301E+06  7.455010E+04  7.655925E+04 -1.389585E+04 -5.236173E+03 -9.160387E+03
       394  26  1.115983E+06  6.526652E+04  6.684559E+04 -4.223645E+03 -3.083792E+03 -8.709663E+03
       394  27  1.090828E+06  5.914859E+04  5.934206E+04 -1.286559E+04 -9.312868E+02 -7.673134E+03
       395   1  6.439271E+05 -5.102944E+04 -4.764939E+04 -1.314551E+04  1.812387E+03  6.976874E+03
       395   2  6.688064E+05 -4.514399E+04 -4.248666E+04 -4.280016E+03  1.345343E+03  5.975591E+03
       395   3  6.938642E+05 -3.894528E+04 -3.693358E+04 -1.320311E+04  8.779084E+02  4.942144E+03
       395   4  8.510788E+05  2.363442E+02  1.697824E+03 -1.316484E+04  1.292124E+03  6.976617E+03
       395   5  8.509893E+05 -4.713803E+01  9.669186E+02 -4.270688E+03  8.079346E+02  5.975422E+03
       395   6  8.510808E+05 -1.431743E+01  6.382790E+02 -1.316480E+04  3.233726E+02  4.942068E+03
       395   7  1.058270E+06  5.149904E+04  5.104204E+04 -1.318418E+04  7.716894E+02  6.976360E+03
       395   8  1.033202E+06  4.504731E+04  4.441816E+04 -4.261358E+03  2.703693E+02  5.975252E+03
       395   9  1.008320E+06  3.891486E+04  3.820840E+04 -1.312648E+04 -2.313029E+02  4.941992E+03
       395  10  6.439270E+05 -5.102949E+04 -4.764949E+04 -1.314552E+04  1.367903E-10 -3.829948E-11
       395  11  6.688064E+05 -4.514402E+04 -4.248673E+04 -4.280023E+03  4.352708E-11 -2.628209E-11
       395  12  6.938642E+05 -3.894531E+04 -3.693363E+04 -1.320312E+04  4.317598E-11 -1.229399E-10
       395  13  8.510788E+05  2.362915E+02  1.697730E+03 -1.316485E+04 -5.286063E-11 -1.718464E-10
       395  14  8.509892E+05 -4.717656E+01  9.668503E+02 -4.270692E+03 -8.222515E-11 -1.819733E-10
       395  15  8.510808E+05 -1.434370E+01  6.382329E+02 -1.316480E+04 -4.960066E-11 -1.292774E-10
       395  16  1.058270E+06  5.149898E+04  5.104194E+04 -1.318419E+04 -5.929400E-11  1.185534E-10
       395  17  1.033202E+06  4.504728E+04  4.441810E+04 -4.261359E+03 -1.185410E-10  8.369653E-13
       395  18  1.008320E+06  3.891483E+04  3.820835E+04 -1.312648E+04 -1.323506E-10 -2.225560E-10
       395  19  6.439271E+05 -5.102944E+04 -4.764939E+04 -1.314551E+04 -1.812387E+03 -6.976874E+03
       395  20  6.688064E+05 -4.514399E+04 -4.248666E+04 -4.280016E+03 -1.345343E+03 -5.975591E+03
       395  21  6.938642E+05 -3.894528E+04 -3.693358E+04 -1.320311E+04 -8.779084E+02 -4.942144E+03
       395  22  8.510788E+05  2.363442E+02  1.697824E+03 -1.316484E+04 -1.292124E+03 -6.976617E+03
       395  23  8.509893E+05 -4.713803E+01  9.669186E+02 -4.270688E+03 -8.079346E+02 -5.975422E+03
       395  24  8.510808E+05 -1.431743E+01  6.382790E+02 -1.316480E+04 -3.233726E+02 -4.942068E+03
       395  25  1.058270E+06  5.149904E+04  5.104204E+04 -1.318418E+04 -7.716894E+02 -6.976360E+03
       395  26  1.033202E+06  4.504731E+04  4.441816E+04 -4.261358E+03 -2.703693E+02 -5.975252E+03
       395  27  1.008320E+06  3.891486E+04  3.820840E+04 -1.312648E+04  2.313029E+02 -4.941992E+03
       396   1  7.253918E+05 -3.107030E+04 -2.934880E+04 -1.308261E+04  7.562487E+02  4.337974E+03
       396   2  7.498563E+05 -2.505123E+04 -2.365382E+04 -4.354320E+03  5.183452E+02  3.317807E+03
       396   3  7.743710E+05 -1.898386E+04 -1.779069E+04 -1.307810E+04  2.802177E+02  2.300466E+03
       396   4  8.510539E+05  1.965111E+01  5.481840E+02 -1.309006E+04  2.164049E+02  4.337947E+03
       396   5  8.510298E+05 -8.321005E+00  4.766621E+02 -4.364114E+03 -2.005711E+01  3.317831E+03
       396   6  8.510548E+05  1.169189E+01  5.722197E+02 -1.309006E+04 -2.567339E+02  2.300541E+03
       396   7  9.767304E+05  3.110847E+04  3.044407E+04 -1.309751E+04 -3.235476E+02  4.337921E+03
       396   8  9.522127E+05  2.503385E+04  2.460643E+04 -4.373910E+03 -5.585467E+02  3.317854E+03
       396   9  9.277439E+05  1.900682E+04  1.893471E+04 -1.310202E+04 -7.937514E+02  2.300617E+03
       396  10  7.253918E+05 -3.107032E+04 -2.934884E+04 -1.308261E+04  2.333491E-11 -6.378254E-11
       396  11  7.498563E+05 -2.505124E+04 -2.365385E+04 -4.354321E+03  7.965757E-11 -1.184628E-10
       396  12  7.743710E+05 -1.898387E+04 -1.779070E+04 -1.307810E+04  1.912007E-10 -1.324441E-10
       396  13  8.510539E+05  1.963088E+01  5.481485E+02 -1.309006E+04 -3.733542E-11 -1.175849E-10
       396  14  8.510298E+05 -8.332831E+00  4.766414E+02 -4.364114E+03 -1.369273E-11 -1.490619E-10
       396  15  8.510548E+05  1.168619E+01  5.722097E+02 -1.309006E+04 -4.914172E-11 -1.062298E-10
       396  16  9.767304E+05  3.110845E+04  3.044403E+04 -1.309751E+04 -1.049097E-10  1.888147E-11
       396  17  9.522127E+05  2.503384E+04  2.460641E+04 -4.373908E+03  1.781180E-11 -8.241971E-11
       396  18  9.277439E+05  1.900681E+04  1.893470E+04 -1.310202E+04 -7.703022E-11 -9.362172E-11
       396  19  7.253918E+05 -3.107030E+04 -2.934880E+04 -1.308261E+04 -7.562487E+02 -4.337974E+03
       396  20  7.498563E+05 -2.505123E+04 -2.365382E+04 -4.354320E+03 -5.183452E+02 -3.317807E+03
       396  21  7.743710E+05 -1.898386E+04 -1.779069E+04 -1.307810E+04 -2.802177E+02 -2.300466E+03
       396  22  8.510539E+05  1.965111E+01  5.481840E+02 -1.309006E+04 -2.164049E+02 -4.337947E+03
       396  23  8.510298E+05 -8.321005E+00  4.766621E+02 -4.364114E+03  2.005711E+01 -3.317831E+03
       396  24  8.510548E+05  1.169189E+01  5.722197E+02 -1.309006E+04  2.567339E+02 -2.300541E+03
       396  25  9.767304E+05  3.110847E+04  3.044407E+04 -1.309751E+04  3.235476E+02 -4.337921E+03
       396  26  9.522127E+05  2.503385E+04  2.460643E+04 -4.373910E+03  5.585467E+02 -3.317854E+03
       396  27  9.277439E+05  1.900682E+04  1.893471E+04 -1.310202E+04  7.937514E+02 -2.300617E+03
       397   1  8.055025E+05 -1.126305E+04 -1.011424E+04 -1.302736E+04  1.657613E+02  1.709877E+03
       397   2  8.297377E+05 -5.286179E+03 -4.014491E+03 -4.389165E+03 -3.629016E+02  6.978464E+02
       397   3  8.540718E+05  8.398461E+02  2.464641E+03 -1.305441E+04 -8.916289E+02 -3.111850E+02
       397   4  8.510667E+05 -2.829220E-03  6.785703E+02 -1.305707E+04 -3.699710E+02  1.709973E+03
       397   5  8.510176E+05 -1.911369E+01  1.060679E+03 -4.405351E+03 -8.970731E+02  6.979521E+02
       397   6  8.510667E+05  1.106989E+02  1.821125E+03 -1.305704E+04 -1.424219E+03 -3.110679E+02
       397   7  8.966329E+05  1.126290E+04  1.147124E+04 -1.308677E+04 -9.057425E+02  1.710070E+03
       397   8  8.722980E+05  5.247919E+03  6.135819E+03 -4.421539E+03 -1.431263E+03  6.980579E+02
       397   9  8.480616E+05 -6.184487E+02  1.177610E+03 -1.305967E+04 -1.956807E+03 -3.109508E+02
       397  10  8.055025E+05 -1.126305E+04 -1.011424E+04 -1.302736E+04 -2.723544E-11  5.625809E-11
       397  11  8.297377E+05 -5.286179E+03 -4.014492E+03 -4.389164E+03 -3.146567E-11  7.137094E-11
       397  12  8.540718E+05  8.398458E+02  2.464640E+03 -1.305441E+04  5.441671E-11 -9.321724E-11
       397  13  8.510667E+05 -6.007013E-03  6.785645E+02 -1.305707E+04 -1.357941E-10  8.971585E-11
       397  14  8.510176E+05 -1.911443E+01  1.060677E+03 -4.405351E+03 -9.027386E-11  1.758133E-10
       397  15  8.510667E+05  1.106983E+02  1.821121E+03 -1.305704E+04 -7.566977E-11 -1.461725E-10
       397  16  8.966329E+05  1.126289E+04  1.147123E+04 -1.308677E+04 -1.030479E-10  1.491349E-11
       397  17  8.722980E+05  5.247918E+03  6.135814E+03 -4.421538E+03  2.800395E-12 -1.091274E-11
       397  18  8.480616E+05 -6.184498E+02  1.177602E+03 -1.305967E+04  2.083319E-10 -2.440781E-10
       397  19  8.055025E+05 -1.126305E+04 -1.011424E+04 -1.302736E+04 -1.657613E+02 -1.709877E+03
       397  20  8.297377E+05 -5.286179E+03 -4.014491E+03 -4.389165E+03  3.629016E+02 -6.978464E+02
       397  21  8.540718E+05  8.398461E+02  2.464641E+03 -1.305441E+04  8.916289E+02  3.111850E+02
       397  22  8.510667E+05 -2.829219E-03  6.785703E+02 -1.305707E+04  3.699710E+02 -1.709973E+03
       397  23  8.510176E+05 -1.911369E+01  1.060679E+03 -4.405351E+03  8.970731E+02 -6.979521E+02
       397  24  8.510667E+05  1.106989E+02  1.821125E+03 -1.305704E+04  1.424219E+03  3.110679E+02
       397  25  8.966329E+05  1.126290E+04  1.147124E+04 -1.308677E+04  9.057425E+02 -1.710070E+03
       397  26  8.722980E+05  5.247919E+03  6.135819E+03 -4.421539E+03  1.431263E+03 -6.980579E+02
       397  27  8.480616E+05 -6.184487E+02  1.177610E+03 -1.305967E+04  1.956807E+03  3.109508E+02
       398   1  8.852154E+05  8.386205E+03  1.054752E+04 -1.288273E+04 -1.258520E+03 -9.032083E+02
       398   2  9.092564E+05  1.427771E+04  1.794906E+04 -4.419337E+03 -3.289890E+03 -1.914332E+03
       398   3  9.339112E+05  2.158159E+04  2.702378E+04 -1.330367E+04 -5.321190E+03 -2.900637E+03
       398   4  8.511805E+05 -5.210373E+01  2.357598E+03 -1.306699E+04 -1.799659E+03 -9.030954E+02
       398   5  8.508738E+05 -1.720043E+02  4.025987E+03 -4.392978E+03 -3.817741E+03 -1.914252E+03
       398   6  8.511785E+05  1.118403E+03  7.358619E+03 -1.306680E+04 -5.835674E+03 -2.900589E+03
       398   7  8.171466E+05 -8.490497E+03 -5.832404E+03 -1.325123E+04 -2.340768E+03 -9.029821E+02
       398   8  7.924942E+05 -1.462196E+04 -9.897327E+03 -4.366621E+03 -4.345542E+03 -1.914173E+03
       398   9  7.684521E+05 -1.934528E+04 -1.230702E+04 -1.282995E+04 -6.350090E+03 -2.900541E+03
       398  10  8.852154E+05  8.386204E+03  1.054751E+04 -1.288273E+04 -2.732681E-11  6.027332E-12
       398  11  9.092564E+05  1.427770E+04  1.794903E+04 -4.419342E+03  5.308693E-11 -1.373013E-10
       398  12  9.339112E+05  2.158158E+04  2.702371E+04 -1.330368E+04  2.250519E-10 -1.193181E-10
       398  13  8.511805E+05 -5.210547E+01  2.357591E+03 -1.306699E+04  9.436781E-12 -2.170136E-10
       398  14  8.508737E+05 -1.720121E+02  4.025952E+03 -4.392984E+03  1.269638E-10 -1.190361E-10
       398  15  8.511785E+05  1.118384E+03  7.358539E+03 -1.306681E+04  1.756617E-10 -2.359089E-11
       398  16  8.171466E+05 -8.490499E+03 -5.832416E+03 -1.325123E+04 -1.928808E-11 -7.954818E-11
       398  17  7.924942E+05 -1.462197E+04 -9.897369E+03 -4.366628E+03 -1.705764E-11 -4.727204E-11
       398  18  7.684520E+05 -1.934530E+04 -1.230711E+04 -1.282997E+04 -7.457074E-11 -1.456558E-11
       398  19  8.852154E+05  8.386205E+03  1.054752E+04 -1.288273E+04  1.258520E+03  9.032083E+02
       398  20  9.092564E+05  1.427771E+04  1.794906E+04 -4.419337E+03  3.289890E+03  1.914332E+03
       398  21  9.339112E+05  2.158159E+04  2.702378E+04 -1.330367E+04  5.321190E+03  2.900637E+03
       398  22  8.511805E+05 -5.210373E+01  2.357598E+03 -1.306699E+04  1.799659E+03  9.030954E+02
       398  23  8.508738E+05 -1.720043E+02  4.025987E+03 -4.392978E+03  3.817741E+03  1.914252E+03
       398  24  8.511785E+05  1.118403E+03  7.358619E+03 -1.306680E+04  5.835674E+03  2.900589E+03
       398  25  8.171466E+05 -8.490497E+03 -5.832404E+03 -1.325123E+04  2.340768E+03  9.029821E+02
       398  26  7.924942E+05 -1.462196E+04 -9.897327E+03 -4.366621E+03  4.345542E+03  1.914173E+03
       398  27  7.684521E+05 -1.934528E+04 -1.230702E+04 -1.282995E+04  6.350090E+03  2.900541E+03
       399   1  9.660674E+05  2.764869E+04  3.667613E+04 -1.149413E+04 -6.685284E+03 -3.549011E+03
       399   2  9.884699E+05  3.273945E+04  4.894550E+04 -5.156651E+03 -1.501956E+04 -4.554469E+03
       399   3  1.015435E+06  5.167274E+04  7.009899E+04 -1.639203E+04 -2.335408E+04 -5.169931E+03
       399   4  8.520478E+05 -5.828097E+02  9.420592E+03 -1.311695E+04 -7.319297E+03 -3.548964E+03
       399   5  8.497800E+05 -1.584331E+03  1.587466E+04 -4.330567E+03 -1.544581E+04 -4.554544E+03
       399   6  8.520390E+05  1.122239E+04  3.107022E+04 -1.311715E+04 -2.357223E+04 -5.170154E+03
       399   7  7.380401E+05 -2.881524E+04 -1.783586E+04 -1.473947E+04 -7.953195E+03 -3.548913E+03
       399   8  7.111078E+05 -3.590949E+04 -1.719753E+04 -3.504667E+03 -1.587196E+04 -4.554621E+03
       399   9  6.886677E+05 -2.922985E+04 -7.960422E+03 -9.843146E+03 -2.379033E+04 -5.170379E+03
       399  10  9.660673E+05  2.764866E+04  3.667603E+04 -1.149415E+04 -4.496082E-11  1.498584E-10
       399  11  9.884696E+05  3.273936E+04  4.894504E+04 -5.156706E+03  9.213895E-13 -2.120373E-11
       399  12  1.015434E+06  5.167257E+04  7.009792E+04 -1.639212E+04 -2.854981E-12  1.366678E-10
       399  13  8.520477E+05 -5.828376E+02  9.420468E+03 -1.311697E+04 -6.808305E-11  2.947708E-11
       399  14  8.497798E+05 -1.584417E+03  1.587417E+04 -4.330623E+03  7.440628E-11 -3.446826E-11
       399  15  8.520384E+05  1.122221E+04  3.106913E+04 -1.311725E+04  1.583396E-11  1.921140E-11
       399  16  7.380400E+05 -2.881527E+04 -1.783600E+04 -1.473949E+04 -1.192957E-10  1.371870E-11
       399  17  7.111075E+05 -3.590958E+04 -1.719804E+04 -3.504725E+03 -2.074531E-10 -3.586328E-11
       399  18  6.886670E+05 -2.923003E+04 -7.961534E+03 -9.843245E+03 -2.122515E-10 -2.003543E-11
       399  19  9.660674E+05  2.764869E+04  3.667613E+04 -1.149413E+04  6.685284E+03  3.549011E+03
       399  20  9.884699E+05  3.273945E+04  4.894550E+04 -5.156651E+03  1.501956E+04  4.554469E+03
       399  21  1.015435E+06  5.167274E+04  7.009899E+04 -1.639203E+04  2.335408E+04  5.169931E+03
       399  22  8.520478E+05 -5.828097E+02  9.420592E+03 -1.311695E+04  7.319297E+03  3.548964E+03
       399  23  8.497800E+05 -1.584331E+03  1.587466E+04 -4.330567E+03  1.544581E+04  4.554544E+03
       399  24  8.520390E+05  1.122239E+04  3.107022E+04 -1.311715E+04  2.357223E+04  5.170154E+03
       399  25  7.380401E+05 -2.881524E+04 -1.783586E+04 -1.473947E+04  7.953195E+03  3.548913E+03
       399  26  7.111078E+05 -3.590949E+04 -1.719753E+04 -3.504667E+03  1.587196E+04  4.554621E+03
       399  27  6.886677E+05 -2.922985E+04 -7.960422E+03 -9.843146E+03  2.379033E+04  5.170379E+03
       400   1  1.054807E+06  4.252928E+04  8.465546E+04  1.832643E+03 -2.757170E+04 -6.561904E+03
       400   2  1.060869E+06  3.955571E+04  1.137252E+05 -1.480371E+04 -6.356255E+04 -7.347702E+03
       400   3  1.105488E+06  1.719098E+05  2.000431E+05 -4.933951E+04 -9.955655E+04 -2.503039E+03
       400   4  8.594966E+05 -5.799527E+03  3.813481E+04 -1.317912E+04 -2.946654E+04 -6.561573E+03
       400   5  8.404465E+05 -1.498120E+04  6.120186E+04 -4.248379E+03 -6.247172E+04 -7.348698E+03
       400   6  8.594474E+05  1.106706E+05  1.394599E+05 -1.321562E+04 -9.547839E+04 -2.507442E+03
       400   7  6.642219E+05 -5.413023E+04 -8.388374E+03 -2.818615E+04 -3.136080E+04 -6.561151E+03
       400   8  6.200686E+05 -6.952120E+04  8.675169E+03  6.303193E+03 -6.138128E+04 -7.349659E+03
       400   9  6.134650E+05  4.943190E+04  7.887303E+04  2.289396E+04 -9.140183E+04 -2.511372E+03
       400  10  1.054806E+06  4.252903E+04  8.465395E+04  1.832497E+03  1.573183E-10  9.498249E-11
       400  11  1.060865E+06  3.955457E+04  1.137175E+05 -1.480409E+04 -1.194333E-10 -2.107052E-10
       400  12  1.105477E+06  1.719071E+05  2.000245E+05 -4.933972E+04 -1.314587E-10 -4.635254E-11
       400  13  8.594956E+05 -5.799806E+03  3.813310E+04 -1.317928E+04 -4.577832E-15  3.364416E-11
       400  14  8.404423E+05 -1.498231E+04  6.119443E+04 -4.248749E+03  9.536786E-11  2.087153E-10
       400  15  8.594376E+05  1.106682E+05  1.394428E+05 -1.321581E+04  1.481933E-12 -5.086404E-12
       400  16  6.642209E+05 -5.413054E+04 -8.390301E+03 -2.818631E+04  1.154955E-10  1.778158E-10
       400  17  6.200646E+05 -6.952226E+04  8.667994E+03  6.302829E+03  2.764628E-10  3.940671E-10
       400  18  6.134560E+05  4.942966E+04  7.885734E+04  2.289377E+04 -3.145352E-10  1.389846E-10
       400  19  1.054807E+06  4.252928E+04  8.465546E+04  1.832643E+03  2.757170E+04  6.561904E+03
       400  20  1.060869E+06  3.955571E+04  1.137252E+05 -1.480371E+04  6.356255E+04  7.347702E+03
       400  21  1.105488E+06  1.719098E+05  2.000431E+05 -4.933951E+04  9.955655E+04  2.503039E+03
       400  22  8.594966E+05 -5.799527E+03  3.813481E+04 -1.317912E+04  2.946654E+04  6.561573E+03
       400  23  8.404465E+05 -1.498120E+04  6.120186E+04 -4.248379E+03  6.247172E+04  7.348698E+03
       400  24  8.594474E+05  1.106706E+05  1.394599E+05 -1.321562E+04  9.547839E+04  2.507442E+03
       400  25  6.642219E+05 -5.413023E+04 -8.388374E+03 -2.818615E+04  3.136080E+04  6.561151E+03
       400  26  6.200686E+05 -6.952120E+04  8.675169E+03  6.303193E+03  6.138128E+04  7.349659E+03
       400  27  6.134650E+05  4.943190E+04  7.887303E+04  2.289396E+04  9.140183E+04  2.511372E+03
       401   1 -1.263712E+05 -8.354963E+04 -7.908249E+04 -1.170663E+04  4.661902E+03  3.950346E+03
       401   2 -9.817184E+04 -9.010175E+04 -7.790511E+04 -4.067785E+03  5.423866E+03  1.187148E+04
       401   3 -6.617912E+04 -8.163905E+04 -7.344264E+04 -1.757289E+04  6.188291E+03  1.104282E+04
       401   4  2.606848E+05  1.293352E+04  1.631755E+04 -1.584319E+04  1.115786E+04  3.952293E+03
       401   5  2.583914E+05 -1.783809E+03  7.148386E+03 -5.269891E+03  7.298916E+03  1.187126E+04
       401   6  2.606908E+05 -6.886623E+02  4.470890E+03 -1.583973E+04  3.442497E+03  1.104267E+04
       401   7  6.478771E+05  1.094056E+05  1.117067E+05 -1.998235E+04  1.765786E+04  3.954153E+03
       401   8  6.150712E+05  8.652495E+04  9.219296E+04 -6.472695E+03  9.175037E+03  1.187104E+04
       401   9  5.876587E+05  8.025403E+04  8.237695E+04 -1.410566E+04  6.952625E+02  1.104251E+04
       401  10 -1.263712E+05 -8.354965E+04 -7.908256E+04 -1.170665E+04  2.106163E-10  5.232384E-11
       401  11 -9.817191E+04 -9.010191E+04 -7.790543E+04 -4.067836E+03 -1.370206E-10  2.574023E-11
       401  12 -6.617920E+04 -8.163919E+04 -7.344294E+04 -1.757294E+04 -1.021021E-10 -4.859564E-11
       401  13  2.606846E+05  1.293347E+04  1.631729E+04 -1.584323E+04 -4.217237E-11 -5.711289E-11
       401  14  2.583913E+05 -1.783974E+03  7.148021E+03 -5.269961E+03 -4.186595E-11  1.359410E-10
       401  15  2.606908E+05 -6.887965E+02  4.470639E+03 -1.583976E+04 -6.752340E-11 -4.480737E-11
       401  16  6.478767E+05  1.094055E+05  1.117061E+05 -1.998241E+04  2.810338E-10  1.594139E-10
       401  17  6.150711E+05  8.652478E+04  9.219254E+04 -6.472783E+03 -1.222771E-10  3.409479E-11
       401  18  5.876587E+05  8.025390E+04  8.237672E+04 -1.410567E+04  1.549478E-11 -9.823972E-11
       401  19 -1.263712E+05 -8.354963E+04 -7.908249E+04 -1.170663E+04 -4.661902E+03 -3.950346E+03
       401  20 -9.817184E+04 -9.010175E+04 -7.790511E+04 -4.067785E+03 -5.423866E+03 -1.187148E+04
       401  21 -6.617912E+04 -8.163905E+04 -7.344264E+04 -1.757289E+04 -6.188291E+03 -1.104282E+04
       401  22  2.606848E+05  1.293352E+04  1.631755E+04 -1.584319E+04 -1.115786E+04 -3.952293E+03
       401  23  2.583914E+05 -1.783809E+03  7.148386E+03 -5.269891E+03 -7.298916E+03 -1.187126E+04
       401  24  2.606908E+05 -6.886623E+02  4.470890E+03 -1.583973E+04 -3.442497E+03 -1.104267E+04
       401  25  6.478771E+05  1.094056E+05  1.117067E+05 -1.998235E+04 -1.765786E+04 -3.954153E+03
       401  26  6.150712E+05  8.652495E+04  9.219296E+04 -6.472695E+03 -9.175037E+03 -1.187104E+04
       401  27  5.876587E+05  8.025403E+04  8.237695E+04 -1.410566E+04 -6.952625E+02 -1.104251E+04
       402   1 -2.885541E+04 -7.022973E+04 -6.538503E+04 -1.542155E+04  2.900306E+03  9.101587E+03
       402   2  5.680090E+02 -6.433942E+04 -5.993607E+04 -5.110224E+03  2.268769E+03  8.509389E+03
       402   3  3.052245E+04 -5.686936E+04 -5.366970E+04 -1.594794E+04  1.636456E+03  7.303729E+03
       402   4  2.598064E+05  1.301843E+03  3.643237E+03 -1.584154E+04  2.750382E+03  9.101332E+03
       402   5  2.595152E+05 -1.961427E+02  1.866785E+03 -5.267464E+03  1.794554E+03  8.509306E+03
       402   6  2.598098E+05 -5.850898E+01  1.132519E+03 -1.584186E+04  8.379754E+02  7.303934E+03
       402   7  5.485446E+05  7.282738E+04  7.266563E+04 -1.626173E+04  2.600388E+03  9.101077E+03
       402   8  5.185238E+05  6.394229E+04  6.366492E+04 -5.424764E+03  1.320142E+03  8.509224E+03
       402   9  4.891453E+05  5.674854E+04  5.593104E+04 -1.573574E+04  3.920174E+01  7.304138E+03
       402  10 -2.885544E+04 -7.022982E+04 -6.538520E+04 -1.542157E+04 -2.117038E-10 -4.674389E-11
       402  11  5.679841E+02 -6.433950E+04 -5.993621E+04 -5.110240E+03 -2.253201E-10 -1.207206E-10
       402  12  3.052243E+04 -5.686942E+04 -5.366981E+04 -1.594795E+04  1.385666E-10  1.913201E-10
       402  13  2.598064E+05  1.301752E+03  3.643067E+03 -1.584156E+04 -1.772501E-10 -7.957766E-11
       402  14  2.595152E+05 -1.962213E+02  1.866643E+03 -5.267476E+03  3.091116E-10 -3.476975E-10
       402  15  2.598098E+05 -5.856646E+01  1.132417E+03 -1.584187E+04 -2.346587E-11  6.972324E-11
       402  16  5.485446E+05  7.282729E+04  7.266546E+04 -1.626174E+04 -4.237150E-11 -1.431236E-10
       402  17  5.185238E+05  6.394221E+04  6.366478E+04 -5.424773E+03  2.696753E-10 -9.413586E-11
       402  18  4.891453E+05  5.674848E+04  5.593094E+04 -1.573574E+04  5.152967E-10 -1.923492E-10
       402  19 -2.885541E+04 -7.022973E+04 -6.538503E+04 -1.542155E+04 -2.900306E+03 -9.101587E+03
       402  20  5.680090E+02 -6.433942E+04 -5.993607E+04 -5.110224E+03 -2.268769E+03 -8.509389E+03
       402  21  3.052245E+04 -5.686936E+04 -5.366970E+04 -1.594794E+04 -1.636456E+03 -7.303729E+03
       402  22  2.598064E+05  1.301843E+03  3.643237E+03 -1.584154E+04 -2.750382E+03 -9.101332E+03
       402  23  2.595152E+05 -1.961427E+02  1.866785E+03 -5.267464E+03 -1.794554E+03 -8.509306E+03
       402  24  2.598098E+05 -5.850898E+01  1.132519E+03 -1.584186E+04 -8.379754E+02 -7.303934E+03
       402  25  5.485446E+05  7.282738E+04  7.266563E+04 -1.626173E+04 -2.600388E+03 -9.101077E+03
       402  26  5.185238E+05  6.394229E+04  6.366492E+04 -5.424764E+03 -1.320142E+03 -8.509224E+03
       402  27  4.891453E+05  5.674854E+04  5.593104E+04 -1.573574E+04 -3.920174E+01 -7.304138E+03
       403   1  6.822450E+04 -4.727665E+04 -4.472852E+04 -1.570594E+04  1.272060E+03  6.500811E+03
       403   2  9.765641E+04 -4.014794E+04 -3.813280E+04 -5.227353E+03  1.026100E+03  5.316731E+03
       403   3  1.271626E+05 -3.283127E+04 -3.133128E+04 -1.575585E+04  7.796996E+02  4.091859E+03
       403   4  2.597011E+05  1.373122E+02  8.974423E+02 -1.581020E+04  6.576462E+02  6.501015E+03
       403   5  2.596635E+05 -1.941276E+01  5.333841E+02 -5.306863E+03  3.900592E+02  5.317043E+03
       403   6  2.597030E+05  1.561257E+01  3.901500E+02 -1.581027E+04  1.220437E+02  4.092285E+03
       403   7  4.512113E+05  4.754863E+04  4.652083E+04 -1.591449E+04  4.304337E+01  6.501220E+03
       403   8  4.216946E+05  4.010722E+04  3.919773E+04 -5.386389E+03 -2.461468E+02  5.317354E+03
       403   9  3.922596E+05  3.286122E+04  3.211034E+04 -1.586470E+04 -5.357519E+02  4.092711E+03
       403  10  6.822449E+04 -4.727670E+04 -4.472860E+04 -1.570595E+04 -3.673972E-10 -2.332729E-11
       403  11  9.765640E+04 -4.014797E+04 -3.813286E+04 -5.227358E+03  1.255808E-10  2.531054E-10
       403  12  1.271626E+05 -3.283129E+04 -3.133131E+04 -1.575585E+04  4.822570E-11 -4.728925E-10
       403  13  2.597011E+05  1.372667E+02  8.973621E+02 -1.581020E+04  8.392124E-12  2.309045E-11
       403  14  2.596635E+05 -1.944316E+01  5.333307E+02 -5.306865E+03  1.619077E-10  4.369263E-10
       403  15  2.597030E+05  1.559458E+01  3.901185E+02 -1.581027E+04 -2.094317E-10  4.362586E-10
       403  16  4.512113E+05  4.754858E+04  4.652075E+04 -1.591449E+04 -8.894993E-11 -1.189026E-10
       403  17  4.216946E+05  4.010719E+04  3.919767E+04 -5.386388E+03  3.235525E-10 -3.055585E-10
       403  18  3.922596E+05  3.286120E+04  3.211031E+04 -1.586470E+04  5.375530E-10 -2.267391E-10
       403  19  6.822450E+04 -4.727665E+04 -4.472852E+04 -1.570594E+04 -1.272060E+03 -6.500811E+03
       403  20  9.765641E+04 -4.014794E+04 -3.813280E+04 -5.227353E+03 -1.026100E+03 -5.316731E+03
       403  21  1.271626E+05 -3.283127E+04 -3.133128E+04 -1.575585E+04 -7.796996E+02 -4.091859E+03
       403  22  2.597011E+05  1.373122E+02  8.974423E+02 -1.581020E+04 -6.576462E+02 -6.501015E+03
       403  23  2.596635E+05 -1.941276E+01  5.333841E+02 -5.306863E+03 -3.900592E+02 -5.317043E+03
       403  24  2.597030E+05  1.561257E+01  3.901500E+02 -1.581027E+04 -1.220437E+02 -4.092285E+03
       403  25  4.512113E+05  4.754863E+04  4.652083E+04 -1.591449E+04 -4.304337E+01 -6.501220E+03
       403  26  4.216946E+05  4.010722E+04  3.919773E+04 -5.386389E+03  2.461468E+02 -5.317354E+03
       403  27  3.922596E+05  3.286122E+04  3.211034E+04 -1.586470E+04  5.357519E+02 -4.092711E+03
       404   1  1.647428E+05 -2.346733E+04 -2.220979E+04 -1.573387E+04  6.979215E+02  3.372827E+03
       404   2  1.940944E+05 -1.624379E+04 -1.527135E+04 -5.286964E+03  5.082221E+02  2.152092E+03
       404   3  2.234497E+05 -8.958947E+03 -8.202221E+03 -1.576340E+04  3.183509E+02  9.296095E+02
       404   4  2.596890E+05  3.186329E+01  3.616715E+02 -1.579168E+04  5.362448E+01  3.373291E+03
       404   5  2.596877E+05  2.501035E+00  3.829547E+02 -5.330079E+03 -1.370268E+02  2.152595E+03
       404   6  2.596897E+05  3.476738E+01  5.357465E+02 -1.579168E+04 -3.278412E+02  9.301545E+02
       404   7  3.546434E+05  2.353041E+04  2.293251E+04 -1.584950E+04 -5.907706E+02  3.373755E+03
       404   8  3.252848E+05  1.624848E+04  1.603696E+04 -5.373197E+03 -7.823436E+02  2.153098E+03
       404   9  2.959310E+05  9.028387E+03  9.273622E+03 -1.581996E+04 -9.740708E+02  9.306996E+02
       404  10  1.647428E+05 -2.346734E+04 -2.220982E+04 -1.573387E+04 -4.854916E-10 -9.924881E-11
       404  11  1.940944E+05 -1.624379E+04 -1.527136E+04 -5.286965E+03  5.713965E-11  2.224510E-10
       404  12  2.234497E+05 -8.958948E+03 -8.202223E+03 -1.576340E+04  2.817065E-10 -1.313606E-10
       404  13  2.596890E+05  3.185107E+01  3.616501E+02 -1.579168E+04 -1.006843E-10 -6.777477E-10
       404  14  2.596877E+05  2.496054E+00  3.829459E+02 -5.330079E+03  9.180310E-11  2.350011E-10
       404  15  2.596897E+05  3.476643E+01  5.357447E+02 -1.579168E+04 -1.303071E-10 -4.373806E-10
       404  16  3.546434E+05  2.353039E+04  2.293249E+04 -1.584950E+04  5.813471E-11  9.047363E-11
       404  17  3.252848E+05  1.624847E+04  1.603695E+04 -5.373196E+03  2.821910E-12 -1.086572E-10
       404  18  2.959310E+05  9.028385E+03  9.273618E+03 -1.581996E+04  1.511004E-10 -7.519528E-10
       404  19  1.647428E+05 -2.346733E+04 -2.220979E+04 -1.573387E+04 -6.979215E+02 -3.372827E+03
       404  20  1.940944E+05 -1.624379E+04 -1.527135E+04 -5.286964E+03 -5.082221E+02 -2.152092E+03
       404  21  2.234497E+05 -8.958947E+03 -8.202221E+03 -1.576340E+04 -3.183509E+02 -9.296095E+02
       404  22  2.596890E+05  3.186329E+01  3.616715E+02 -1.579168E+04 -5.362448E+01 -3.373291E+03
       404  23  2.596877E+05  2.501035E+00  3.829547E+02 -5.330079E+03  1.370268E+02 -2.152595E+03
       404  24  2.596897E+05  3.476738E+01  5.357465E+02 -1.579168E+04  3.278412E+02 -9.301545E+02
       404  25  3.546434E+05  2.353041E+04  2.293251E+04 -1.584950E+04  5.907706E+02 -3.373755E+03
       404  26  3.252848E+05  1.624848E+04  1.603696E+04 -5.373197E+03  7.823436E+02 -2.153098E+03
       404  27  2.959310E+05  9.028387E+03  9.273622E+03 -1.581996E+04  9.740708E+02 -9.306996E+02
       405   1  2.609773E+05  3.539739E+02  1.058765E+03 -1.576443E+04  2.089193E+02  2.175660E+02
       405   2  2.902762E+05  7.567402E+03  8.399350E+03 -5.337660E+03 -3.371121E+02 -1.004116E+03
       405   3  3.196516E+05  1.496406E+04  1.613207E+04 -1.582157E+04 -8.830990E+02 -2.223723E+03
       405   4  2.597060E+05  2.133184E+01  6.662011E+02 -1.578894E+04 -4.371210E+02  2.181182E+02
       405   5  2.596683E+05 -1.317004E+01  1.094982E+03 -5.333525E+03 -9.820487E+02 -1.003585E+03
       405   6  2.597056E+05  1.353260E+02  1.915096E+03 -1.578885E+04 -1.526907E+03 -2.223209E+03
       405   7  2.584348E+05 -3.113101E+02  2.736384E+02 -1.581346E+04 -1.083160E+03  2.186705E+02
       405   8  2.290612E+05 -7.593810E+03 -6.209450E+03 -5.329390E+03 -1.626954E+03 -1.003054E+03
       405   9  1.997628E+05 -1.469367E+04 -1.230213E+04 -1.575613E+04 -2.170652E+03 -2.222696E+03
       405  10  2.609773E+05  3.539738E+02  1.058765E+03 -1.576443E+04 -7.699114E-10  4.416536E-10
       405  11  2.902762E+05  7.567401E+03  8.399347E+03 -5.337660E+03  1.340165E-10  1.464995E-09
       405  12  3.196516E+05  1.496405E+04  1.613206E+04 -1.582157E+04  1.004496E-09 -7.167462E-10
       405  13  2.597060E+05  2.133173E+01  6.662006E+02 -1.578894E+04 -1.388402E-10 -1.273280E-11
       405  14  2.596683E+05 -1.317138E+01  1.094978E+03 -5.333526E+03  4.263743E-10 -2.069696E-10
       405  15  2.597056E+05  1.353201E+02  1.915082E+03 -1.578885E+04 -2.718563E-10  7.737451E-11
       405  16  2.584348E+05 -3.113105E+02  2.736361E+02 -1.581346E+04 -3.082629E-11 -2.549066E-11
       405  17  2.290612E+05 -7.593812E+03 -6.209456E+03 -5.329391E+03  1.643332E-10 -2.155542E-10
       405  18  1.997628E+05 -1.469367E+04 -1.230214E+04 -1.575613E+04 -3.684689E-10 -1.321144E-10
       405  19  2.609773E+05  3.539739E+02  1.058765E+03 -1.576443E+04 -2.089193E+02 -2.175660E+02
       405  20  2.902762E+05  7.567402E+03  8.399350E+03 -5.337660E+03  3.371121E+02  1.004116E+03
       405  21  3.196516E+05  1.496406E+04  1.613207E+04 -1.582157E+04  8.830990E+02  2.223723E+03
       405  22  2.597060E+05  2.133184E+01  6.662011E+02 -1.578894E+04  4.371210E+02 -2.181182E+02
       405  23  2.596683E+05 -1.317004E+01  1.094982E+03 -5.333525E+03  9.820487E+02  1.003585E+03
       405  24  2.597056E+05  1.353260E+02  1.915096E+03 -1.578885E+04  1.526907E+03  2.223209E+03
       405  25  2.584348E+05 -3.113101E+02  2.736384E+02 -1.581346E+04  1.083160E+03 -2.186705E+02
       405  26  2.290612E+05 -7.593810E+03 -6.209450E+03 -5.329390E+03  1.626954E+03  1.003054E+03
       405  27  1.997628E+05 -1.469367E+04 -1.230213E+04 -1.575613E+04  2.170652E+03  2.222696E+03
       406   1  3.573303E+05  2.412756E+04  2.584516E+04 -1.565851E+04 -1.267108E+03 -2.941055E+03
       406   2  3.864291E+05  3.125270E+04  3.455190E+04 -5.404563E+03 -3.425760E+03 -4.162708E+03
       406   3  4.161708E+05  3.990359E+04  4.504018E+04 -1.611810E+04 -5.584178E+03 -5.346972E+03
       406   4  2.598293E+05 -3.662497E+01  2.489797E+03 -1.580184E+04 -1.922953E+03 -2.940565E+03
       406   5  2.595088E+05 -1.795216E+02  4.265245E+03 -5.317554E+03 -4.061474E+03 -4.162312E+03
       406   6  2.598273E+05  1.200113E+03  7.808608E+03 -1.580100E+04 -6.199659E+03 -5.346666E+03
       406   7  1.623369E+05 -2.420150E+04 -2.086624E+04 -1.594515E+04 -2.578696E+03 -2.940074E+03
       406   8  1.326034E+05 -3.161291E+04 -2.602255E+04 -5.230560E+03 -4.697058E+03 -4.161916E+03
       406   9  1.035062E+05 -3.750512E+04 -2.942468E+04 -1.548398E+04 -6.814986E+03 -5.346359E+03
       406  10  3.573303E+05  2.412755E+04  2.584514E+04 -1.565851E+04 -4.027740E-10 -9.212760E-10
       406  11  3.864291E+05  3.125268E+04  3.455185E+04 -5.404574E+03 -4.065871E-10  1.354441E-10
       406  12  4.161708E+05  3.990355E+04  4.504007E+04 -1.611812E+04 -4.796822E-11  4.329877E-10
       406  13  2.598292E+05 -3.663525E+01  2.489774E+03 -1.580185E+04  8.348058E-11  8.647913E-12
       406  14  2.595088E+05 -1.795446E+02  4.265181E+03 -5.317567E+03  3.473710E-11 -8.438347E-11
       406  15  2.598273E+05  1.200072E+03  7.808482E+03 -1.580103E+04  2.869176E-10  8.084717E-11
       406  16  1.623369E+05 -2.420151E+04 -2.086627E+04 -1.594516E+04  1.734626E-10 -7.044822E-11
       406  17  1.326033E+05 -3.161293E+04 -2.602262E+04 -5.230576E+03  5.786937E-10  8.996704E-10
       406  18  1.035062E+05 -3.750517E+04 -2.942482E+04 -1.548401E+04  7.433548E-10  2.393084E-10
       406  19  3.573303E+05  2.412756E+04  2.584516E+04 -1.565851E+04  1.267108E+03  2.941055E+03
       406  20  3.864291E+05  3.125270E+04  3.455190E+04 -5.404563E+03  3.425760E+03  4.162708E+03
       406  21  4.161708E+05  3.990359E+04  4.504018E+04 -1.611810E+04  5.584178E+03  5.346972E+03
       406  22  2.598293E+05 -3.662497E+01  2.489797E+03 -1.580184E+04  1.922953E+03  2.940565E+03
       406  23  2.595088E+05 -1.795216E+02  4.265245E+03 -5.317554E+03  4.061474E+03  4.162312E+03
       406  24  2.598273E+05  1.200113E+03  7.808608E+03 -1.580100E+04  6.199659E+03  5.346666E+03
       406  25  1.623369E+05 -2.420150E+04 -2.086624E+04 -1.594515E+04  2.578696E+03  2.940074E+03
       406  26  1.326034E+05 -3.161291E+04 -2.602255E+04 -5.230560E+03  4.697058E+03  4.161916E+03
       406  27  1.035062E+05 -3.750512E+04 -2.942468E+04 -1.548398E+04  6.814986E+03  5.346359E+03
       407   1  4.548296E+05  4.746816E+04  5.638686E+04 -1.418145E+04 -6.991041E+03 -6.139998E+03
       407   2  4.819968E+05  5.370071E+04  7.021686E+04 -6.234484E+03 -1.591504E+04 -7.341357E+03
       407   3  5.140383E+05  7.467603E+04  9.354472E+04 -1.936957E+04 -2.483866E+04 -7.984980E+03
       407   4  2.607541E+05 -6.061145E+02  1.000046E+04 -1.582865E+04 -7.773970E+03 -6.139645E+03
       407   5  2.583395E+05 -1.685878E+03  1.685244E+04 -5.285039E+03 -1.640054E+04 -7.341335E+03
       407   6  2.607492E+05  1.192872E+04  3.299855E+04 -1.582388E+04 -2.502633E+04 -7.985272E+03
       407   7  6.671307E+04 -4.868311E+04 -3.638858E+04 -1.747532E+04 -8.556656E+03 -6.139287E+03
       407   8  3.472794E+04 -5.707608E+04 -3.651550E+04 -4.335932E+03 -1.688587E+04 -7.341315E+03
       407   9  7.518886E+03 -5.082320E+04 -2.755214E+04 -1.227964E+04 -2.521391E+04 -7.985567E+03
       407  10  4.548295E+05  4.746811E+04  5.638669E+04 -1.418149E+04 -3.728175E-10  5.221703E-10
       407  11  4.819965E+05  5.370059E+04  7.021628E+04 -6.234578E+03 -2.597848E-11 -4.368816E-10
       407  12  5.140376E+05  7.467580E+04  9.354344E+04 -1.936973E+04 -3.933934E-11 -2.803654E-10
       407  13  2.607540E+05 -6.061712E+02  1.000028E+04 -1.582868E+04 -1.365627E-10  3.230800E-10
       407  14  2.583392E+05 -1.686008E+03  1.685183E+04 -5.285136E+03  2.372406E-11  5.921053E-10
       407  15  2.607485E+05  1.192848E+04  3.299725E+04 -1.582404E+04  8.582798E-12 -3.598792E-10
       407  16  6.671298E+04 -4.868317E+04 -3.638879E+04 -1.747536E+04 -2.417765E-10  1.172469E-10
       407  17  3.472762E+04 -5.707622E+04 -3.651613E+04 -4.336032E+03  3.260181E-10 -6.911769E-11
       407  18  7.518187E+03 -5.082344E+04 -2.755345E+04 -1.227980E+04  1.351405E-10  2.013445E-11
       407  19  4.548296E+05  4.746816E+04  5.638686E+04 -1.418145E+04  6.991041E+03  6.139998E+03
       407  20  4.819968E+05  5.370071E+04  7.021686E+04 -6.234484E+03  1.591504E+04  7.341357E+03
       407  21  5.140383E+05  7.467603E+04  9.354472E+04 -1.936957E+04  2.483866E+04  7.984980E+03
       407  22  2.607541E+05 -6.061145E+02  1.000046E+04 -1.582865E+04  7.773970E+03  6.139645E+03
       407  23  2.583395E+05 -1.685878E+03  1.685244E+04 -5.285039E+03  1.640054E+04  7.341335E+03
       407  24  2.607492E+05  1.192872E+04  3.299855E+04 -1.582388E+04  2.502633E+04  7.985272E+03
       407  25  6.671307E+04 -4.868311E+04 -3.638858E+04 -1.747532E+04  8.556656E+03  6.139287E+03
       407  26  3.472794E+04 -5.707608E+04 -3.651550E+04 -4.335932E+03  1.688587E+04  7.341315E+03
       407  27  7.518886E+03 -5.082320E+04 -2.755214E+04 -1.227964E+04  2.521391E+04  7.985567E+03
       408   1  5.600400E+05  6.596758E+04  1.099324E+05  4.239730E+01 -2.873280E+04 -9.816968E+03
       408   2  5.694061E+05  6.354586E+04  1.415392E+05 -1.654738E+04 -6.800370E+04 -1.067741E+04
       408   3  6.199698E+05  2.051044E+05  2.347137E+05 -5.422934E+04 -1.072777E+05 -3.575145E+03
       408   4  2.686716E+05 -6.155798E+03  4.050482E+04 -1.582836E+04 -3.128516E+04 -9.815920E+03
       408   5  2.484211E+05 -1.593038E+04  6.500434E+04 -5.286930E+03 -6.633429E+04 -1.067909E+04
       408   6  2.686548E+05  1.175800E+05  1.481624E+05 -1.583572E+04 -1.013842E+05 -3.581166E+03
       408   7 -2.261852E+04 -7.828435E+04 -2.892851E+04 -3.169163E+04 -3.383632E+04 -9.814741E+03
       408   8 -7.246933E+04 -9.541359E+04 -1.153767E+04  5.967674E+03 -6.466573E+04 -1.068071E+04
       408   9 -8.254487E+04  3.005199E+04  6.160299E+04  2.253616E+04 -9.549411E+04 -3.586461E+03
       408  10  5.600391E+05  6.596725E+04  1.099306E+05  4.217021E+01  1.044963E-10 -2.380218E-10
       408  11  5.694012E+05  6.354450E+04  1.415303E+05 -1.654796E+04 -2.355143E-10 -3.028937E-10
       408  12  6.199574E+05  2.051013E+05  2.346920E+05 -5.422965E+04 -1.833192E-10  6.031981E-11
       408  13  2.686705E+05 -6.156164E+03  4.050280E+04 -1.582861E+04  8.518594E-11 -4.408564E-10
       408  14  2.484163E+05 -1.593169E+04  6.499586E+04 -5.287500E+03 -7.480879E-11 -3.139738E-10
       408  15  2.686437E+05  1.175772E+05  1.481431E+05 -1.583601E+04  1.768602E-11 -1.135904E-10
       408  16 -2.261977E+04 -7.828476E+04 -2.893085E+04 -3.169190E+04 -2.969431E-10 -2.741134E-10
       408  17 -7.247385E+04 -9.541484E+04 -1.154574E+04  5.967118E+03 -2.431870E-10 -4.403999E-10
       408  18 -8.255466E+04  3.004953E+04  6.158582E+04  2.253588E+04 -2.092970E-10 -1.600377E-10
       408  19  5.600400E+05  6.596758E+04  1.099324E+05  4.239730E+01  2.873280E+04  9.816968E+03
       408  20  5.694061E+05  6.354586E+04  1.415392E+05 -1.654738E+04  6.800370E+04  1.067741E+04
       408  21  6.199698E+05  2.051044E+05  2.347137E+05 -5.422934E+04  1.072777E+05  3.575145E+03
       408  22  2.686716E+05 -6.155798E+03  4.050482E+04 -1.582836E+04  3.128516E+04  9.815920E+03
       408  23  2.484211E+05 -1.593038E+04  6.500434E+04 -5.286930E+03  6.633429E+04  1.067909E+04
       408  24  2.686548E+05  1.175800E+05  1.481624E+05 -1.583572E+04  1.013842E+05  3.581166E+03
       408  25 -2.261852E+04 -7.828435E+04 -2.892851E+04 -3.169163E+04  3.383632E+04  9.814741E+03
       408  26 -7.246933E+04 -9.541359E+04 -1.153767E+04  5.967674E+03  6.466573E+04  1.068071E+04
       408  27 -8.254487E+04  3.005199E+04  6.160299E+04  2.253616E+04  9.549411E+04  3.586461E+03
       409   1 -1.069836E+06 -9.740008E+04 -1.256118E+05 -3.387803E+04 -9.249680E+04 -4.610537E+02
       409   2 -1.054434E+06  2.464195E+04 -5.018473E+04 -1.004023E+04 -6.076962E+04 -1.357270E+03
       409   3 -1.076130E+06  1.489036E+04 -2.838374E+04  1.604127E+04 -2.904314E+04 -1.265740E+03
       409   4 -1.113358E+06 -1.082462E+05 -1.363488E+05  1.424129E+03 -9.322621E+04 -4.664859E+02
       409   5 -1.094732E+06  1.465395E+04 -5.980839E+04  2.895444E+02 -6.098157E+04 -1.358341E+03
       409   6 -1.113298E+06  5.663538E+03 -3.725684E+04  1.398025E+03 -2.873742E+04 -1.264978E+03
       409   7 -1.156876E+06 -1.190878E+05 -1.470852E+05  3.672380E+04 -9.395558E+04 -4.720015E+02
       409   8 -1.135029E+06  4.666239E+03 -6.943212E+04  1.061865E+04 -6.119350E+04 -1.359419E+03
       409   9 -1.150464E+06 -3.562576E+03 -4.612993E+04 -1.324434E+04 -2.843171E+04 -1.264230E+03
       409  10 -1.069845E+06 -9.740238E+04 -1.256279E+05 -3.387806E+04  6.018605E-11 -1.611455E-11
       409  11 -1.054438E+06  2.464096E+04 -5.019168E+04 -1.004030E+04  4.783508E-11 -3.182116E-10
       409  12 -1.076131E+06  1.489013E+04 -2.838533E+04  1.604124E+04 -1.493234E-10 -1.158407E-10
       409  13 -1.113368E+06 -1.082485E+05 -1.363652E+05  1.424094E+03 -9.671488E-11 -4.430518E-11
       409  14 -1.094736E+06  1.465295E+04 -5.981540E+04  2.894776E+02  7.847295E-10 -6.228567E-10
       409  15 -1.113299E+06  5.663314E+03 -3.725840E+04  1.397996E+03  1.446170E-10  1.521326E-12
       409  16 -1.156886E+06 -1.190902E+05 -1.471019E+05  3.672377E+04  1.510496E-10 -2.551857E-11
       409  17 -1.135033E+06  4.665229E+03 -6.943917E+04  1.061858E+04  9.509382E-12 -3.055514E-10
       409  18 -1.150464E+06 -3.562795E+03 -4.613146E+04 -1.324437E+04  7.646488E-11  5.867049E-11
       409  19 -1.069836E+06 -9.740008E+04 -1.256118E+05 -3.387803E+04  9.249680E+04  4.610537E+02
       409  20 -1.054434E+06  2.464195E+04 -5.018473E+04 -1.004023E+04  6.076962E+04  1.357270E+03
       409  21 -1.076130E+06  1.489036E+04 -2.838374E+04  1.604127E+04  2.904314E+04  1.265740E+03
       409  22 -1.113358E+06 -1.082462E+05 -1.363488E+05  1.424129E+03  9.322621E+04  4.664859E+02
       409  23 -1.094732E+06  1.465395E+04 -5.980839E+04  2.895444E+02  6.098157E+04  1.358341E+03
       409  24 -1.113298E+06  5.663538E+03 -3.725684E+04  1.398025E+03  2.873742E+04  1.264978E+03
       409  25 -1.156876E+06 -1.190878E+05 -1.470852E+05  3.672380E+04  9.395558E+04  4.720015E+02
       409  26 -1.135029E+06  4.666239E+03 -6.943212E+04  1.061865E+04  6.119350E+04  1.359419E+03
       409  27 -1.150464E+06 -3.562576E+03 -4.612993E+04 -1.324434E+04  2.843171E+04  1.264230E+03
       410   1 -1.073007E+06 -2.797288E+03 -2.244852E+04 -1.763265E+03 -2.300531E+04 -1.048363E+03
       410   2 -1.074109E+06  8.915957E+03 -8.401885E+03 -5.459869E+02 -1.511190E+04 -9.821084E+02
       410   3 -1.079619E+06  7.124161E+03 -2.876780E+03  3.031892E+03 -7.218627E+03 -8.441393E+02
       410   4 -1.106028E+06 -1.098861E+04 -3.035511E+04  1.434652E+03 -2.298956E+04 -1.048481E+03
       410   5 -1.103816E+06  1.548189E+03 -1.550132E+04  2.526728E+02 -1.505875E+04 -9.821155E+02
       410   6 -1.106018E+06  5.730321E+02 -9.195424E+03  1.431355E+03 -7.128035E+03 -8.440947E+02
       410   7 -1.139047E+06 -1.917997E+04 -3.826177E+04  4.632397E+03 -2.297382E+04 -1.048599E+03
       410   8 -1.133521E+06 -5.819642E+03 -2.260083E+04  1.051294E+03 -1.500561E+04 -9.821224E+02
       410   9 -1.132417E+06 -5.978138E+03 -1.551412E+04 -1.691137E+02 -7.037448E+03 -8.440507E+02
       410  10 -1.073008E+06 -2.797431E+03 -2.244951E+04 -1.763284E+03  1.287862E-10 -3.331993E-10
       410  11 -1.074110E+06  8.915895E+03 -8.402317E+03 -5.459988E+02 -4.793636E-10  5.370610E-11
       410  12 -1.079619E+06  7.124147E+03 -2.876880E+03  3.031887E+03  1.452117E-11 -2.573985E-10
       410  13 -1.106028E+06 -1.098875E+04 -3.035611E+04  1.434632E+03  9.254833E-11  5.972836E-11
       410  14 -1.103816E+06  1.548126E+03 -1.550175E+04  2.526609E+02  5.590844E-11 -2.695794E-10
       410  15 -1.106018E+06  5.730177E+02 -9.195521E+03  1.431350E+03  1.771383E-10 -3.140889E-10
       410  16 -1.139048E+06 -1.918012E+04 -3.826277E+04  4.632378E+03  2.047354E-11  1.549646E-10
       410  17 -1.133521E+06 -5.819704E+03 -2.260125E+04  1.051282E+03  4.400103E-10 -3.347423E-10
       410  18 -1.132417E+06 -5.978152E+03 -1.551421E+04 -1.691184E+02 -1.037537E-10  3.931155E-11
       410  19 -1.073007E+06 -2.797288E+03 -2.244852E+04 -1.763265E+03  2.300531E+04  1.048363E+03
       410  20 -1.074109E+06  8.915957E+03 -8.401885E+03 -5.459869E+02  1.511190E+04  9.821084E+02
       410  21 -1.079619E+06  7.124161E+03 -2.876780E+03  3.031892E+03  7.218627E+03  8.441393E+02
       410  22 -1.106028E+06 -1.098861E+04 -3.035511E+04  1.434652E+03  2.298956E+04  1.048481E+03
       410  23 -1.103816E+06  1.548189E+03 -1.550132E+04  2.526728E+02  1.505875E+04  9.821155E+02
       410  24 -1.106018E+06  5.730321E+02 -9.195424E+03  1.431355E+03  7.128035E+03  8.440947E+02
       410  25 -1.139047E+06 -1.917997E+04 -3.826177E+04  4.632397E+03  2.297382E+04  1.048599E+03
       410  26 -1.133521E+06 -5.819642E+03 -2.260083E+04  1.051294E+03  1.500561E+04  9.821224E+02
       410  27 -1.132417E+06 -5.978138E+03 -1.551412E+04 -1.691137E+02  7.037448E+03  8.440507E+02
       411   1 -1.083087E+06  4.382798E+03 -1.914230E+03  1.231034E+03 -5.752976E+03 -7.521793E+02
       411   2 -1.086201E+06  4.800614E+03  5.309670E+02  2.163637E+02 -3.787226E+03 -6.149267E+02
       411   3 -1.089916E+06  3.843460E+03  1.350594E+03  1.638556E+03 -1.821459E+03 -4.713928E+02
       411   4 -1.105172E+06 -1.093365E+03 -7.184209E+03  1.449578E+03 -5.682459E+03 -7.521606E+02
       411   5 -1.104870E+06  1.697644E+02 -3.931143E+03  2.309576E+02 -3.713461E+03 -6.149037E+02
       411   6 -1.105170E+06  5.734124E+01 -2.305940E+03  1.449203E+03 -1.744436E+03 -4.713666E+02
       411   7 -1.127257E+06 -6.569563E+03 -1.245422E+04  1.668115E+03 -5.611945E+03 -7.521417E+02
       411   8 -1.123539E+06 -4.461111E+03 -8.393278E+03  2.455510E+02 -3.639699E+03 -6.148806E+02
       411   9 -1.120425E+06 -3.728794E+03 -5.962490E+03  1.259854E+03 -1.667415E+03 -4.713405E+02
       411  10 -1.083087E+06  4.382789E+03 -1.914294E+03  1.231031E+03 -1.489156E-10  3.838745E-11
       411  11 -1.086201E+06  4.800610E+03  5.309393E+02  2.163618E+02  1.061967E-11  2.195550E-11
       411  12 -1.089916E+06  3.843459E+03  1.350587E+03  1.638556E+03 -1.707067E-11 -2.340985E-10
       411  13 -1.105172E+06 -1.093374E+03 -7.184271E+03  1.449575E+03 -3.357144E-11 -1.027437E-10
       411  14 -1.104870E+06  1.697603E+02 -3.931170E+03  2.309558E+02 -2.205715E-10  1.797540E-10
       411  15 -1.105170E+06  5.734018E+01 -2.305946E+03  1.449202E+03  2.401223E-11 -2.794304E-10
       411  16 -1.127257E+06 -6.569572E+03 -1.245428E+04  1.668111E+03  2.424809E-10 -1.932147E-10
       411  17 -1.123539E+06 -4.461115E+03 -8.393304E+03  2.455492E+02 -7.609919E-11 -4.788537E-10
       411  18 -1.120425E+06 -3.728795E+03 -5.962495E+03  1.259854E+03  1.821757E-10 -4.647417E-10
       411  19 -1.083087E+06  4.382798E+03 -1.914230E+03  1.231034E+03  5.752976E+03  7.521793E+02
       411  20 -1.086201E+06  4.800614E+03  5.309670E+02  2.163637E+02  3.787226E+03  6.149267E+02
       411  21 -1.089916E+06  3.843460E+03  1.350594E+03  1.638556E+03  1.821459E+03  4.713928E+02
       411  22 -1.105172E+06 -1.093365E+03 -7.184209E+03  1.449578E+03  5.682459E+03  7.521606E+02
       411  23 -1.104870E+06  1.697644E+02 -3.931143E+03  2.309576E+02  3.713461E+03  6.149037E+02
       411  24 -1.105170E+06  5.734124E+01 -2.305940E+03  1.449203E+03  1.744436E+03  4.713666E+02
       411  25 -1.127257E+06 -6.569563E+03 -1.245422E+04  1.668115E+03  5.611945E+03  7.521417E+02
       411  26 -1.123539E+06 -4.461111E+03 -8.393278E+03  2.455510E+02  3.639699E+03  6.148806E+02
       411  27 -1.120425E+06 -3.728794E+03 -5.962490E+03  1.259854E+03  1.667415E+03  4.713405E+02
       412   1 -1.094225E+06  2.583184E+03  7.938138E+02  1.463304E+03 -1.453500E+03 -3.867084E+02
       412   2 -1.097644E+06  1.847420E+03  7.084102E+02  2.338933E+02 -9.320258E+02 -2.423094E+02
       412   3 -1.101169E+06  9.710304E+02  2.474476E+02  1.481932E+03 -4.105570E+02 -9.705044E+01
       412   4 -1.105060E+06 -1.023292E+02 -1.785493E+03  1.458365E+03 -1.377666E+03 -3.866825E+02
       412   5 -1.105007E+06  2.112251E+01 -1.051334E+03  2.196209E+02 -8.557473E+02 -2.422829E+02
       412   6 -1.105060E+06  3.869509E+00 -6.930486E+02  1.458328E+03 -3.338308E+02 -9.702319E+01
       412   7 -1.115895E+06 -2.787851E+03 -4.364808E+03  1.453427E+03 -1.301834E+03 -3.866567E+02
       412   8 -1.112370E+06 -1.805179E+03 -2.811081E+03  2.053486E+02 -7.794697E+02 -2.422563E+02
       412   9 -1.108950E+06 -9.632925E+02 -1.633546E+03  1.434723E+03 -2.571050E+02 -9.699595E+01
       412  10 -1.094225E+06  2.583183E+03  7.938095E+02  1.463303E+03  2.854425E-10 -3.482372E-10
       412  11 -1.097644E+06  1.847420E+03  7.084085E+02  2.338932E+02  3.095528E-10 -3.965934E-10
       412  12 -1.101169E+06  9.710304E+02  2.474472E+02  1.481932E+03  2.510499E-10 -2.112494E-10
       412  13 -1.105060E+06 -1.023298E+02 -1.785497E+03  1.458365E+03  4.835601E-10 -5.770346E-10
       412  14 -1.105007E+06  2.112225E+01 -1.051335E+03  2.196207E+02 -3.605758E-10  1.447622E-10
       412  15 -1.105060E+06  3.869469E+00 -6.930488E+02  1.458328E+03 -1.508195E-10  2.108944E-10
       412  16 -1.115895E+06 -2.787851E+03 -4.364811E+03  1.453426E+03 -1.887801E-10  2.710268E-10
       412  17 -1.112370E+06 -1.805179E+03 -2.811083E+03  2.053484E+02 -2.860072E-10  3.099844E-10
       412  18 -1.108950E+06 -9.632925E+02 -1.633546E+03  1.434723E+03 -7.469486E-10  5.564134E-10
       412  19 -1.094225E+06  2.583184E+03  7.938138E+02  1.463304E+03  1.453500E+03  3.867084E+02
       412  20 -1.097644E+06  1.847420E+03  7.084102E+02  2.338933E+02  9.320258E+02  2.423094E+02
       412  21 -1.101169E+06  9.710304E+02  2.474476E+02  1.481932E+03  4.105570E+02  9.705044E+01
       412  22 -1.105060E+06 -1.023292E+02 -1.785493E+03  1.458365E+03  1.377666E+03  3.866825E+02
       412  23 -1.105007E+06  2.112251E+01 -1.051334E+03  2.196209E+02  8.557473E+02  2.422829E+02
       412  24 -1.105060E+06  3.869509E+00 -6.930486E+02  1.458328E+03  3.338308E+02  9.702319E+01
       412  25 -1.115895E+06 -2.787851E+03 -4.364808E+03  1.453427E+03  1.301834E+03  3.866567E+02
       412  26 -1.112370E+06 -1.805179E+03 -2.811081E+03  2.053486E+02  7.794697E+02  2.422563E+02
       412  27 -1.108950E+06 -9.632925E+02 -1.633546E+03  1.434723E+03  2.571050E+02  9.699595E+01
       413   1 -1.105618E+06 -1.492944E+02 -7.458997E+02  1.458774E+03 -2.940506E+02 -1.224942E+01
       413   2 -1.109072E+06 -9.955590E+02 -1.506490E+03  2.182633E+02 -2.680931E+01  1.331067E+02
       413   3 -1.112577E+06 -1.895333E+03 -2.455131E+03  1.460432E+03  2.404280E+02  2.778674E+02
       413   4 -1.105047E+06 -5.616507E+00 -5.988825E+02  1.459499E+03 -2.172981E+02 -1.222209E+01
       413   5 -1.105022E+06  9.079489E+00 -5.384576E+02  2.181647E+02  4.962938E+01  1.331336E+02
       413   6 -1.105047E+06 -2.969135E+01 -6.658781E+02  1.459508E+03  3.165543E+02  2.778939E+02
       413   7 -1.104477E+06  1.380613E+02 -4.518654E+02  1.460225E+03 -1.405455E+02 -1.219477E+01
       413   8 -1.100972E+06  1.013717E+03  4.295735E+02  2.180661E+02  1.260686E+02  1.331605E+02
       413   9 -1.097518E+06  1.835946E+03  1.123371E+03  1.458585E+03  3.926816E+02  2.779205E+02
       413  10 -1.105618E+06 -1.492944E+02 -7.458999E+02  1.458774E+03  2.458082E-10 -4.823623E-11
       413  11 -1.109072E+06 -9.955591E+02 -1.506490E+03  2.182633E+02 -3.316369E-10  1.687080E-12
       413  12 -1.112577E+06 -1.895333E+03 -2.455132E+03  1.460432E+03 -2.672933E-10 -3.924216E-11
       413  13 -1.105047E+06 -5.616520E+00 -5.988826E+02  1.459499E+03  2.144903E-10 -5.148468E-10
       413  14 -1.105022E+06  9.079470E+00 -5.384577E+02  2.181647E+02  1.707209E-10 -3.706810E-10
       413  15 -1.105047E+06 -2.969146E+01 -6.658784E+02  1.459508E+03 -7.104110E-10  6.599838E-10
       413  16 -1.104477E+06  1.380613E+02 -4.518654E+02  1.460225E+03  1.023673E-10 -1.311536E-10
       413  17 -1.100972E+06  1.013717E+03  4.295735E+02  2.180661E+02  4.111476E-10 -3.692361E-10
       413  18 -1.097518E+06  1.835946E+03  1.123371E+03  1.458584E+03 -3.969410E-10  2.567670E-10
       413  19 -1.105618E+06 -1.492944E+02 -7.458997E+02  1.458774E+03  2.940506E+02  1.224942E+01
       413  20 -1.109072E+06 -9.955590E+02 -1.506490E+03  2.182633E+02  2.680931E+01 -1.331067E+02
       413  21 -1.112577E+06 -1.895333E+03 -2.455131E+03  1.460432E+03 -2.404280E+02 -2.778674E+02
       413  22 -1.105047E+06 -5.616507E+00 -5.988825E+02  1.459499E+03  2.172981E+02  1.222209E+01
       413  23 -1.105022E+06  9.079489E+00 -5.384576E+02  2.181647E+02 -4.962938E+01 -1.331336E+02
       413  24 -1.105047E+06 -2.969135E+01 -6.658781E+02  1.459508E+03 -3.165543E+02 -2.778939E+02
       413  25 -1.104477E+06  1.380613E+02 -4.518654E+02  1.460225E+03  1.405455E+02  1.219477E+01
       413  26 -1.100972E+06  1.013717E+03  4.295735E+02  2.180661E+02 -1.260686E+02 -1.331605E+02
       413  27 -1.097518E+06  1.835946E+03  1.123371E+03  1.458585E+03 -3.926816E+02 -2.779205E+02
       414   1 -1.117046E+06 -2.952928E+03 -3.663248E+03  1.395631E+03  3.701546E+02  3.627864E+02
       414   2 -1.120389E+06 -3.769234E+03 -4.923112E+03  2.300519E+02  9.944649E+02  5.067052E+02
       414   3 -1.123920E+06 -5.001118E+03 -6.694275E+03  1.516299E+03  1.618787E+03  6.449197E+02
       414   4 -1.105078E+06  1.787481E+01 -7.922126E+02  1.452608E+03  4.474373E+02  3.628129E+02
       414   5 -1.104985E+06  5.183740E+01 -1.241286E+03  2.267560E+02  1.068754E+03  5.067295E+02
       414   6 -1.105078E+06 -3.292370E+02 -2.199552E+03  1.452726E+03  1.690086E+03  6.449418E+02
       414   7 -1.093110E+06  2.988668E+03  2.078812E+03  1.509587E+03  5.247214E+02  3.628393E+02
       414   8 -1.089580E+06  3.872892E+03  2.440523E+03  2.234600E+02  1.143045E+03  5.067537E+02
       414   9 -1.086236E+06  4.342618E+03  2.295146E+03  1.389150E+03  1.761387E+03  6.449639E+02
       414  10 -1.117046E+06 -2.952929E+03 -3.663248E+03  1.395631E+03  5.129749E-10 -4.728942E-10
       414  11 -1.120389E+06 -3.769235E+03 -4.923114E+03  2.300515E+02 -2.251620E-10  1.559278E-10
       414  12 -1.123920E+06 -5.001119E+03 -6.694281E+03  1.516298E+03 -4.331614E-11 -2.327678E-13
       414  13 -1.105078E+06  1.787461E+01 -7.922132E+02  1.452608E+03 -4.667260E-10  5.119369E-10
       414  14 -1.104985E+06  5.183681E+01 -1.241289E+03  2.267555E+02 -6.894516E-10  5.660830E-10
       414  15 -1.105078E+06 -3.292382E+02 -2.199558E+03  1.452725E+03  1.381298E-10 -1.257253E-10
       414  16 -1.093110E+06  2.988667E+03  2.078812E+03  1.509587E+03  1.059130E-10 -1.325959E-10
       414  17 -1.089580E+06  3.872891E+03  2.440520E+03  2.234595E+02 -6.223709E-10  5.628389E-10
       414  18 -1.086236E+06  4.342617E+03  2.295139E+03  1.389149E+03 -4.550269E-10  2.996744E-10
       414  19 -1.117046E+06 -2.952928E+03 -3.663248E+03  1.395631E+03 -3.701546E+02 -3.627864E+02
       414  20 -1.120389E+06 -3.769234E+03 -4.923112E+03  2.300519E+02 -9.944649E+02 -5.067052E+02
       414  21 -1.123920E+06 -5.001118E+03 -6.694275E+03  1.516299E+03 -1.618787E+03 -6.449197E+02
       414  22 -1.105078E+06  1.787481E+01 -7.922126E+02  1.452608E+03 -4.474373E+02 -3.628129E+02
       414  23 -1.104985E+06  5.183740E+01 -1.241286E+03  2.267560E+02 -1.068754E+03 -5.067295E+02
       414  24 -1.105078E+06 -3.292370E+02 -2.199552E+03  1.452726E+03 -1.690086E+03 -6.449418E+02
       414  25 -1.093110E+06  2.988668E+03  2.078812E+03  1.509587E+03 -5.247214E+02 -3.628393E+02
       414  26 -1.089580E+06  3.872892E+03  2.440523E+03  2.234600E+02 -1.143045E+03 -5.067537E+02
       414  27 -1.086236E+06  4.342618E+03  2.295146E+03  1.389150E+03 -1.761387E+03 -6.449639E+02
       415   1 -1.128526E+06 -5.581515E+03 -8.351392E+03  9.513213E+02  2.041227E+03  7.366435E+02
       415   2 -1.131203E+06 -6.114486E+03 -1.103355E+04  4.827074E+02  4.476374E+03  8.747507E+02
       415   3 -1.135220E+06 -1.073034E+04 -1.632421E+04  2.399248E+03  6.911530E+03  9.460972E+02
       415   4 -1.105333E+06  1.737619E+02 -2.798815E+03  1.437506E+03  2.131294E+03  7.366724E+02
       415   5 -1.104667E+06  4.673991E+02 -4.691684E+03  2.454508E+02  4.531329E+03  8.747633E+02
       415   6 -1.105336E+06 -3.315639E+03 -9.168547E+03  1.438548E+03  6.931387E+03  9.460892E+02
       415   7 -1.082139E+06  5.929000E+03  2.753724E+03  1.923708E+03  2.221364E+03  7.367014E+02
       415   8 -1.078131E+06  7.049234E+03  1.650138E+03  8.183913E+00  4.586287E+03  8.747759E+02
       415   9 -1.075451E+06  4.098998E+03 -2.012943E+03  4.778004E+02  6.951244E+03  9.460811E+02
       415  10 -1.128526E+06 -5.581516E+03 -8.351401E+03  9.513201E+02 -7.643665E-11  2.396270E-10
       415  11 -1.131203E+06 -6.114493E+03 -1.103359E+04  4.827043E+02 -1.004531E-10 -9.552973E-11
       415  12 -1.135220E+06 -1.073035E+04 -1.632431E+04  2.399243E+03 -4.095779E-10  2.845461E-10
       415  13 -1.105333E+06  1.737601E+02 -2.798825E+03  1.437504E+03 -6.722869E-11 -4.879989E-11
       415  14 -1.104667E+06  4.673928E+02 -4.691724E+03  2.454476E+02 -2.646108E-10  3.309455E-11
       415  15 -1.105336E+06 -3.315653E+03 -9.168639E+03  1.438542E+03  2.026480E-10  1.937072E-10
       415  16 -1.082139E+06  5.928998E+03  2.753713E+03  1.923707E+03 -7.284066E-11 -1.257537E-10
       415  17 -1.078131E+06  7.049227E+03  1.650097E+03  8.180681E+00 -4.731007E-11 -2.964586E-10
       415  18 -1.075451E+06  4.098984E+03 -2.013036E+03  4.777951E+02  1.160131E-10  5.594261E-10
       415  19 -1.128526E+06 -5.581515E+03 -8.351392E+03  9.513213E+02 -2.041227E+03 -7.366435E+02
       415  20 -1.131203E+06 -6.114486E+03 -1.103355E+04  4.827074E+02 -4.476374E+03 -8.747507E+02
       415  21 -1.135220E+06 -1.073034E+04 -1.632421E+04  2.399248E+03 -6.911530E+03 -9.460972E+02
       415  22 -1.105333E+06  1.737619E+02 -2.798815E+03  1.437506E+03 -2.131294E+03 -7.366724E+02
       415  23 -1.104667E+06  4.673991E+02 -4.691684E+03  2.454508E+02 -4.531329E+03 -8.747633E+02
       415  24 -1.105336E+06 -3.315639E+03 -9.168547E+03  1.438548E+03 -6.931387E+03 -9.460892E+02
       415  25 -1.082139E+06  5.929000E+03  2.753724E+03  1.923708E+03 -2.221364E+03 -7.367014E+02
       415  26 -1.078131E+06  7.049234E+03  1.650138E+03  8.183913E+00 -4.586287E+03 -8.747759E+02
       415  27 -1.075451E+06  4.098998E+03 -2.012943E+03  4.778004E+02 -6.951244E+03 -9.460811E+02
       416   1 -1.141620E+06 -6.747426E+03 -1.938771E+04 -3.014762E+03  8.376472E+03  1.153720E+03
       416   2 -1.139192E+06 -4.818110E+03 -2.695429E+04  3.391759E+03  1.859316E+04  1.247503E+03
       416   3 -1.148073E+06 -4.277594E+04 -5.115312E+04  1.206527E+04  2.880988E+04  4.212838E+02
       416   4 -1.107530E+06  1.709750E+03 -1.124958E+04  1.408957E+03  8.667290E+03  1.153858E+03
       416   5 -1.101927E+06  4.422313E+03 -1.805387E+04  2.795982E+02  1.839927E+04  1.247354E+03
       416   6 -1.107549E+06 -3.266694E+04 -4.115269E+04  1.417444E+03  2.813136E+04  4.206245E+02
       416   7 -1.073438E+06  1.016692E+04 -3.111518E+03  5.832921E+03  8.958124E+03  1.153999E+03
       416   8 -1.064661E+06  1.366267E+04 -9.153530E+03 -2.832751E+03  1.820537E+04  1.247207E+03
       416   9 -1.067022E+06 -2.255763E+04 -3.115232E+04 -9.231081E+03  2.745279E+04  4.199885E+02
       416  10 -1.141620E+06 -6.747446E+03 -1.938785E+04 -3.014770E+03  3.011842E-10  1.909452E-10
       416  11 -1.139192E+06 -4.818205E+03 -2.695495E+04  3.391741E+03  2.818408E-11  4.225619E-11
       416  12 -1.148074E+06 -4.277616E+04 -5.115468E+04  1.206526E+04 -2.951638E-10  7.526521E-11
       416  13 -1.107530E+06  1.709728E+03 -1.124972E+04  1.408949E+03  7.442114E-10 -1.482145E-10
       416  14 -1.101927E+06  4.422220E+03 -1.805451E+04  2.795797E+02 -8.606795E-11  1.582168E-10
       416  15 -1.107549E+06 -3.266715E+04 -4.115418E+04  1.417434E+03  1.985080E-10 -9.992578E-11
       416  16 -1.073438E+06  1.016689E+04 -3.111672E+03  5.832913E+03  4.426775E-11  3.039625E-10
       416  17 -1.064661E+06  1.366258E+04 -9.154157E+03 -2.832769E+03  1.587313E-10 -4.352745E-11
       416  18 -1.067023E+06 -2.255783E+04 -3.115374E+04 -9.231091E+03 -3.450528E-10  2.362747E-10
       416  19 -1.141620E+06 -6.747426E+03 -1.938771E+04 -3.014762E+03 -8.376472E+03 -1.153720E+03
       416  20 -1.139192E+06 -4.818110E+03 -2.695429E+04  3.391759E+03 -1.859316E+04 -1.247503E+03
       416  21 -1.148073E+06 -4.277594E+04 -5.115312E+04  1.206527E+04 -2.880988E+04 -4.212838E+02
       416  22 -1.107530E+06  1.709750E+03 -1.124958E+04  1.408957E+03 -8.667290E+03 -1.153858E+03
       416  23 -1.101927E+06  4.422313E+03 -1.805387E+04  2.795982E+02 -1.839927E+04 -1.247354E+03
       416  24 -1.107549E+06 -3.266694E+04 -4.115269E+04  1.417444E+03 -2.813136E+04 -4.206245E+02
       416  25 -1.073438E+06  1.016692E+04 -3.111518E+03  5.832921E+03 -8.958124E+03 -1.153999E+03
       416  26 -1.064661E+06  1.366267E+04 -9.153530E+03 -2.832751E+03 -1.820537E+04 -1.247207E+03
       416  27 -1.067022E+06 -2.255763E+04 -3.115232E+04 -9.231081E+03 -2.745279E+04 -4.199885E+02
       417   1  2.682782E+06  5.855351E+05  7.382699E+05  1.878452E+05  5.065132E+05  2.603081E+02
       417   2  2.591458E+06 -7.790049E+04  3.258239E+05  5.529636E+04  3.316187E+05 -5.892773E+01
       417   3  2.701204E+06 -2.728362E+04  2.055174E+05 -8.360187E+04  1.567107E+05 -5.051444E+02
       417   4  2.686500E+06  5.862961E+05  7.391771E+05 -4.181845E+03  5.064851E+05  1.042664E+02
       417   5  2.586347E+06 -7.920030E+04  3.245998E+05 -9.275545E+02  3.314815E+05 -8.887137E+01
       417   6  2.687241E+06 -3.069290E+04  2.022255E+05 -4.041633E+03  1.564669E+05 -4.852005E+02
       417   7  2.690297E+06  5.871951E+05  7.401040E+05 -1.962101E+05  5.064570E+05 -5.175709E+01
       417   8  2.581243E+06 -8.048828E+04  3.233774E+05 -5.715101E+04  3.313443E+05 -1.187905E+02
       417   9  2.673292E+06 -3.407850E+04  1.989371E+05  7.551682E+04  1.562230E+05 -4.653185E+02
       417  10  2.682508E+06  5.854665E+05  7.377899E+05  1.878452E+05  4.026841E-10 -6.848707E-10
       417  11  2.591341E+06 -7.792985E+04  3.256181E+05  5.529638E+04  1.107537E-09 -8.031626E-10
       417  12  2.701178E+06 -2.729018E+04  2.054714E+05 -8.360181E+04 -1.448241E-09 -4.051320E-10
       417  13  2.686226E+06  5.862276E+05  7.386971E+05 -4.181888E+03  9.422076E-10 -2.779190E-10
       417  14  2.586230E+06 -7.922964E+04  3.243942E+05 -9.275309E+02  8.708328E-10 -9.466313E-10
       417  15  2.687215E+06 -3.069944E+04  2.021797E+05 -4.041572E+03 -9.394842E-10 -8.291164E-11
       417  16  2.690023E+06  5.871266E+05  7.396240E+05 -1.962101E+05  2.029213E-10 -4.385969E-10
       417  17  2.581126E+06 -8.051760E+04  3.231720E+05 -5.715098E+04  1.137506E-09 -9.539641E-10
       417  18  2.673266E+06 -3.408502E+04  1.988914E+05  7.551688E+04  2.081636E-09  8.222447E-10
       417  19  2.682782E+06  5.855351E+05  7.382699E+05  1.878452E+05 -5.065132E+05 -2.603081E+02
       417  20  2.591458E+06 -7.790049E+04  3.258239E+05  5.529636E+04 -3.316187E+05  5.892773E+01
       417  21  2.701204E+06 -2.728362E+04  2.055174E+05 -8.360187E+04 -1.567107E+05  5.051444E+02
       417  22  2.686500E+06  5.862961E+05  7.391771E+05 -4.181845E+03 -5.064851E+05 -1.042664E+02
       417  23  2.586347E+06 -7.920030E+04  3.245998E+05 -9.275545E+02 -3.314815E+05  8.887137E+01
       417  24  2.687241E+06 -3.069290E+04  2.022255E+05 -4.041633E+03 -1.564669E+05  4.852005E+02
       417  25  2.690297E+06  5.871951E+05  7.401040E+05 -1.962101E+05 -5.064570E+05  5.175709E+01
       417  26  2.581243E+06 -8.048828E+04  3.233774E+05 -5.715101E+04 -3.313443E+05  1.187905E+02
       417  27  2.673292E+06 -3.407850E+04  1.989371E+05  7.551682E+04 -1.562230E+05  4.653185E+02
       418   1  2.672891E+06  6.569514E+04  1.708040E+05  1.330120E+04  1.253379E+05 -7.295635E+02
       418   2  2.670032E+06  9.417494E+01  9.242437E+04  3.487020E+03  8.218737E+04 -1.097549E+03
       418   3  2.691025E+06  7.564126E+03  6.032646E+04 -1.274270E+04  3.903787E+04 -1.485954E+03
       418   4  2.647684E+06  5.945379E+04  1.647811E+05 -4.106032E+03  1.251516E+05 -7.331080E+02
       418   5  2.635817E+06 -8.360274E+03  8.428025E+04 -8.907203E+02  8.199078E+04 -1.098180E+03
       418   6  2.647804E+06 -3.100371E+03  5.006901E+04 -4.090642E+03  3.883154E+04 -1.485475E+03
       418   7  2.622479E+06  5.321353E+04  1.587584E+05 -2.151256E+04  1.249654E+05 -7.366423E+02
       418   8  2.601604E+06 -1.681473E+04  7.613606E+04 -5.268220E+03  8.179421E+04 -1.098808E+03
       418   9  2.604585E+06 -1.376472E+04  3.981147E+04  4.560816E+03  3.862522E+04 -1.485002E+03
       418  10  2.672875E+06  6.569094E+04  1.707746E+05  1.330127E+04  1.485807E-11  2.063602E-10
       418  11  2.670025E+06  9.236986E+01  9.241173E+04  3.487093E+03  8.989143E-10  1.729945E-10
       418  12  2.691023E+06  7.563717E+03  6.032361E+04 -1.274266E+04  9.727467E-11 -8.473520E-11
       418  13  2.647668E+06  5.944961E+04  1.647518E+05 -4.105958E+03  1.047592E-09  7.770126E-10
       418  14  2.635810E+06 -8.362070E+03  8.426767E+04 -8.906479E+02  1.433407E-09  1.364335E-10
       418  15  2.647802E+06 -3.100777E+03  5.006619E+04 -4.090596E+03 -9.063238E-10 -4.758972E-10
       418  16  2.622462E+06  5.320936E+04  1.587292E+05 -2.151248E+04 -5.168640E-10  9.824696E-10
       418  17  2.601597E+06 -1.681652E+04  7.612353E+04 -5.268147E+03  5.132488E-10 -5.068895E-10
       418  18  2.604584E+06 -1.376512E+04  3.980867E+04  4.560862E+03 -3.927953E-10 -8.244131E-11
       418  19  2.672891E+06  6.569514E+04  1.708040E+05  1.330120E+04 -1.253379E+05  7.295635E+02
       418  20  2.670032E+06  9.417494E+01  9.242437E+04  3.487020E+03 -8.218737E+04  1.097549E+03
       418  21  2.691025E+06  7.564126E+03  6.032646E+04 -1.274270E+04 -3.903787E+04  1.485954E+03
       418  22  2.647684E+06  5.945379E+04  1.647811E+05 -4.106032E+03 -1.251516E+05  7.331080E+02
       418  23  2.635817E+06 -8.360274E+03  8.428025E+04 -8.907203E+02 -8.199078E+04  1.098180E+03
       418  24  2.647804E+06 -3.100371E+03  5.006901E+04 -4.090642E+03 -3.883154E+04  1.485475E+03
       418  25  2.622479E+06  5.321353E+04  1.587584E+05 -2.151256E+04 -1.249654E+05  7.366423E+02
       418  26  2.601604E+06 -1.681473E+04  7.613606E+04 -5.268220E+03 -8.179421E+04  1.098808E+03
       418  27  2.604585E+06 -1.376472E+04  3.981147E+04  4.560816E+03 -3.862522E+04  1.485002E+03
       419   1  2.698182E+06  1.949585E+04  5.227074E+04 -2.952397E+03  3.113509E+04 -1.711509E+03
       419   2  2.706075E+06  1.501124E+04  3.691242E+04 -6.674612E+02  2.032826E+04 -2.103294E+03
       419   3  2.717237E+06  1.796400E+04  3.042898E+04 -5.155491E+03  9.521633E+03 -2.508102E+03
       419   4  2.643215E+06  5.912129E+03  3.916105E+04 -4.176349E+03  3.093066E+04 -1.711639E+03
       419   5  2.641591E+06 -9.171024E+02  2.156455E+04 -7.889033E+02  2.011771E+04 -2.103381E+03
       419   6  2.643237E+06 -3.074647E+02  1.284757E+04 -4.174458E+03  9.305142E+03 -2.508185E+03
       419   7  2.588250E+06 -7.671807E+03  2.605116E+04 -5.400192E+03  3.072624E+04 -1.711767E+03
       419   8  2.577110E+06 -1.684574E+04  6.216377E+03 -9.103331E+02  1.990719E+04 -2.103468E+03
       419   9  2.569241E+06 -1.857932E+04 -4.734222E+03 -3.193542E+03  9.088676E+03 -2.508269E+03
       419  10  2.698181E+06  1.949559E+04  5.226892E+04 -2.952354E+03 -1.012475E-10 -4.809752E-10
       419  11  2.706075E+06  1.501112E+04  3.691164E+04 -6.674268E+02 -2.415025E-09 -9.988442E-10
       419  12  2.717237E+06  1.796397E+04  3.042880E+04 -5.155472E+03 -8.264816E-11 -2.965880E-10
       419  13  2.643214E+06  5.911870E+03  3.915926E+04 -4.176306E+03 -8.850219E-10 -3.782350E-10
       419  14  2.641590E+06 -9.172152E+02  2.156378E+04 -7.888693E+02 -1.576975E-10 -2.022916E-10
       419  15  2.643236E+06 -3.074946E+02  1.284740E+04 -4.174439E+03 -1.846418E-09 -6.835992E-10
       419  16  2.588249E+06 -7.672063E+03  2.604939E+04 -5.400150E+03 -7.048951E-10  9.544689E-11
       419  17  2.577110E+06 -1.684585E+04  6.215627E+03 -9.102994E+02 -1.006813E-09 -5.584894E-10
       419  18  2.569241E+06 -1.857935E+04 -4.734389E+03 -3.193524E+03 -2.143850E-10  2.193552E-10
       419  19  2.698182E+06  1.949585E+04  5.227074E+04 -2.952397E+03 -3.113509E+04  1.711509E+03
       419  20  2.706075E+06  1.501124E+04  3.691242E+04 -6.674612E+02 -2.032826E+04  2.103294E+03
       419  21  2.717237E+06  1.796400E+04  3.042898E+04 -5.155491E+03 -9.521633E+03  2.508102E+03
       419  22  2.643215E+06  5.912129E+03  3.916105E+04 -4.176349E+03 -3.093066E+04  1.711639E+03
       419  23  2.641591E+06 -9.171024E+02  2.156455E+04 -7.889033E+02 -2.011771E+04  2.103381E+03
       419  24  2.643237E+06 -3.074647E+02  1.284757E+04 -4.174458E+03 -9.305142E+03  2.508185E+03
       419  25  2.588250E+06 -7.671807E+03  2.605116E+04 -5.400192E+03 -3.072624E+04  1.711767E+03
       419  26  2.577110E+06 -1.684574E+04  6.216377E+03 -9.103331E+02 -1.990719E+04  2.103468E+03
       419  27  2.569241E+06 -1.857932E+04 -4.734222E+03 -3.193542E+03 -9.088676E+03  2.508269E+03
       420   1  2.729262E+06  2.195332E+04  3.074775E+04 -4.285845E+03  7.460172E+03 -2.747632E+03
       420   2  2.739310E+06  2.383105E+04  2.946483E+04 -6.434074E+02  4.296351E+03 -3.171268E+03
       420   3  2.749985E+06  2.650496E+04  3.043791E+04 -4.371007E+03  1.132533E+03 -3.611958E+03
       420   4  2.642648E+06  5.534613E+02  1.010438E+04 -4.307936E+03  7.240193E+03 -2.747742E+03
       420   5  2.642336E+06 -1.220327E+02  6.384410E+03 -6.227823E+02  4.067719E+03 -3.171402E+03
       420   6  2.642651E+06  2.037857E-01  4.926575E+03 -4.307735E+03  8.953014E+02 -3.612118E+03
       420   7  2.556041E+06 -2.084694E+04 -1.053952E+04 -4.330025E+03  7.020244E+03 -2.747853E+03
       420   8  2.545370E+06 -2.407579E+04 -1.669667E+04 -6.021615E+02  3.839123E+03 -3.171537E+03
       420   9  2.535328E+06 -2.650538E+04 -2.058557E+04 -4.244476E+03  6.581103E+02 -3.612277E+03
       420  10  2.729262E+06  2.195330E+04  3.074763E+04 -4.285829E+03  1.244719E-09  8.851608E-11
       420  11  2.739310E+06  2.383103E+04  2.946478E+04 -6.433964E+02 -5.012149E-10 -9.657962E-10
       420  12  2.749985E+06  2.650495E+04  3.043789E+04 -4.371003E+03 -1.463853E-09 -2.814011E-10
       420  13  2.642648E+06  5.534392E+02  1.010426E+04 -4.307920E+03 -2.694737E-10 -1.781154E-10
       420  14  2.642336E+06 -1.220479E+02  6.384360E+03 -6.227720E+02 -6.665189E-10 -7.870126E-10
       420  15  2.642651E+06  1.895438E-01  4.926549E+03 -4.307733E+03  8.378643E-10  3.927597E-10
       420  16  2.556041E+06 -2.084696E+04 -1.053963E+04 -4.330009E+03 -7.306168E-11  5.771336E-11
       420  17  2.545370E+06 -2.407580E+04 -1.669672E+04 -6.021517E+02 -8.366689E-10 -1.138205E-09
       420  18  2.535328E+06 -2.650539E+04 -2.058559E+04 -4.244474E+03  3.370718E-10  3.412669E-10
       420  19  2.729262E+06  2.195332E+04  3.074775E+04 -4.285845E+03 -7.460172E+03  2.747632E+03
       420  20  2.739310E+06  2.383105E+04  2.946483E+04 -6.434074E+02 -4.296351E+03  3.171268E+03
       420  21  2.749985E+06  2.650496E+04  3.043791E+04 -4.371007E+03 -1.132533E+03  3.611958E+03
       420  22  2.642648E+06  5.534613E+02  1.010438E+04 -4.307936E+03 -7.240193E+03  2.747742E+03
       420  23  2.642336E+06 -1.220327E+02  6.384410E+03 -6.227823E+02 -4.067719E+03  3.171402E+03
       420  24  2.642651E+06  2.037857E-01  4.926575E+03 -4.307735E+03 -8.953014E+02  3.612118E+03
       420  25  2.556041E+06 -2.084694E+04 -1.053952E+04 -4.330025E+03 -7.020244E+03  2.747853E+03
       420  26  2.545370E+06 -2.407579E+04 -1.669667E+04 -6.021615E+02 -3.839123E+03  3.171537E+03
       420  27  2.535328E+06 -2.650538E+04 -2.058557E+04 -4.244476E+03 -6.581103E+02  3.612277E+03
       421   1  2.763878E+06  2.997021E+04  3.366031E+04 -4.381252E+03  2.606763E+02 -3.876074E+03
       421   2  2.775163E+06  3.269853E+04  3.714926E+04 -2.919141E+02 -2.481515E+03 -4.347159E+03
       421   3  2.786996E+06  3.607781E+04  4.258682E+04 -4.427924E+03 -5.223618E+03 -4.839308E+03
       421   4  2.642633E+06  1.622481E+01  4.772448E+03 -4.497812E+03  1.747639E+01 -3.876255E+03
       421   5  2.642356E+06 -1.045438E+02  5.541394E+03 -3.852285E+02 -2.735371E+03 -4.347376E+03
       421   6  2.642630E+06  4.276185E+02  8.266620E+03 -4.498100E+03 -5.488081E+03 -4.839565E+03
       421   7  2.521402E+06 -2.993882E+04 -2.411645E+04 -4.614351E+03 -2.256764E+02 -3.876435E+03
       421   8  2.509566E+06 -3.290888E+04 -2.606770E+04 -4.785255E+02 -2.989173E+03 -4.347593E+03
       421   9  2.498284E+06 -3.522407E+04 -2.605503E+04 -4.568264E+03 -5.752482E+03 -4.839821E+03
       421  10  2.763878E+06  2.997019E+04  3.366028E+04 -4.381251E+03 -2.614863E-10 -3.227108E-10
       421  11  2.775163E+06  3.269851E+04  3.714921E+04 -2.919228E+02  8.203137E-10  7.111733E-10
       421  12  2.786996E+06  3.607778E+04  4.258673E+04 -4.427944E+03  6.288654E-11 -1.216897E-10
       421  13  2.642633E+06  1.620865E+01  4.772420E+03 -4.497812E+03  1.806360E-09  1.421576E-09
       421  14  2.642356E+06 -1.045661E+02  5.541345E+03 -3.852381E+02  1.402162E-09  1.798775E-09
       421  15  2.642630E+06  4.275852E+02  8.266519E+03 -4.498122E+03  2.869564E-10  1.756259E-10
       421  16  2.521402E+06 -2.993883E+04 -2.411647E+04 -4.614352E+03  1.443741E-09  1.588301E-09
       421  17  2.509566E+06 -3.290891E+04 -2.606775E+04 -4.785359E+02 -9.496924E-10  1.377372E-10
       421  18  2.498284E+06 -3.522411E+04 -2.605514E+04 -4.568286E+03 -1.431912E-09 -5.570123E-10
       421  19  2.763878E+06  2.997021E+04  3.366031E+04 -4.381252E+03 -2.606763E+02  3.876074E+03
       421  20  2.775163E+06  3.269853E+04  3.714926E+04 -2.919141E+02  2.481515E+03  4.347159E+03
       421  21  2.786996E+06  3.607781E+04  4.258682E+04 -4.427924E+03  5.223618E+03  4.839308E+03
       421  22  2.642633E+06  1.622481E+01  4.772448E+03 -4.497812E+03 -1.747639E+01  3.876255E+03
       421  23  2.642356E+06 -1.045438E+02  5.541394E+03 -3.852285E+02  2.735371E+03  4.347376E+03
       421  24  2.642630E+06  4.276185E+02  8.266620E+03 -4.498100E+03  5.488081E+03  4.839565E+03
       421  25  2.521402E+06 -2.993882E+04 -2.411645E+04 -4.614351E+03  2.256764E+02  3.876435E+03
       421  26  2.509566E+06 -3.290888E+04 -2.606770E+04 -4.785255E+02  2.989173E+03  4.347593E+03
       421  27  2.498284E+06 -3.522407E+04 -2.605503E+04 -4.568264E+03  5.752482E+03  4.839821E+03
       422   1  2.803146E+06  3.929125E+04  4.849108E+04 -3.876108E+03 -6.883511E+03 -5.142276E+03
       422   2  2.814981E+06  4.205084E+04  5.837382E+04 -4.481280E+01 -1.548489E+04 -5.681049E+03
       422   3  2.829447E+06  5.067596E+04  7.531491E+04 -5.580546E+03 -2.408623E+04 -6.218677E+03
       422   4  2.643092E+06 -2.495000E+02  1.036447E+04 -4.750284E+03 -7.164540E+03 -5.142562E+03
       422   5  2.641768E+06 -7.315364E+02  1.715045E+04 -6.887725E+01 -1.576321E+04 -5.681389E+03
       422   6  2.643074E+06  4.652584E+03  3.099437E+04 -4.754659E+03 -2.436165E+04 -6.219094E+03
       422   7  2.483062E+06 -3.979209E+04 -2.776393E+04 -5.624239E+03 -7.445497E+03 -5.142847E+03
       422   8  2.468582E+06 -4.351607E+04 -2.407501E+04 -9.294071E+01 -1.604144E+04 -5.681729E+03
       422   9  2.456733E+06 -4.137329E+04 -1.332859E+04 -3.929028E+03 -2.463699E+04 -6.219512E+03
       422  10  2.803146E+06  3.929121E+04  4.849094E+04 -3.876136E+03  5.378218E-10  1.154764E-09
       422  11  2.814981E+06  4.205074E+04  5.837331E+04 -4.488358E+01 -2.510121E-09 -9.000918E-10
       422  12  2.829446E+06  5.067577E+04  7.531375E+04 -5.580666E+03  1.211162E-09  7.132114E-10
       422  13  2.643092E+06 -2.495421E+02  1.036433E+04 -4.750314E+03 -2.023177E-10  4.522000E-10
       422  14  2.641768E+06 -7.316375E+02  1.714992E+04 -6.894931E+01 -1.081525E-09  2.048241E-11
       422  15  2.643074E+06  4.652384E+03  3.099319E+04 -4.754781E+03 -3.452489E-10 -1.797806E-10
       422  16  2.483062E+06 -3.979213E+04 -2.776408E+04 -5.624270E+03 -2.045322E-10 -7.284182E-10
       422  17  2.468582E+06 -4.351617E+04 -2.407556E+04 -9.301405E+01 -1.244009E-09  2.075045E-11
       422  18  2.456733E+06 -4.137349E+04 -1.332980E+04 -3.929152E+03 -1.656129E-09  6.776123E-10
       422  19  2.803146E+06  3.929125E+04  4.849108E+04 -3.876108E+03  6.883511E+03  5.142276E+03
       422  20  2.814981E+06  4.205084E+04  5.837382E+04 -4.481280E+01  1.548489E+04  5.681049E+03
       422  21  2.829447E+06  5.067596E+04  7.531491E+04 -5.580546E+03  2.408623E+04  6.218677E+03
       422  22  2.643092E+06 -2.495000E+02  1.036447E+04 -4.750284E+03  7.164540E+03  5.142562E+03
       422  23  2.641768E+06 -7.315364E+02  1.715045E+04 -6.887725E+01  1.576321E+04  5.681389E+03
       422  24  2.643074E+06  4.652584E+03  3.099437E+04 -4.754659E+03  2.436165E+04  6.219094E+03
       422  25  2.483062E+06 -3.979209E+04 -2.776393E+04 -5.624239E+03  7.445497E+03  5.142847E+03
       422  26  2.468582E+06 -4.351607E+04 -2.407501E+04 -9.294071E+01  1.604144E+04  5.681729E+03
       422  27  2.456733E+06 -4.137329E+04 -1.332859E+04 -3.929028E+03  2.463699E+04  6.219512E+03
       423   1  2.851064E+06  4.803511E+04  8.825966E+04  1.926380E+03 -3.019205E+04 -6.631272E+03
       423   2  2.856783E+06  4.761180E+04  1.188275E+05 -2.931270E+03 -6.451516E+04 -7.264270E+03
       423   3  2.881445E+06  1.049029E+05  1.861155E+05 -1.864623E+04 -9.884087E+04 -7.481394E+03
       423   4  2.646702E+06 -2.463002E+03  3.959164E+04 -5.064904E+03 -3.061219E+04 -6.631504E+03
       423   5  2.637199E+06 -6.612931E+03  6.657471E+04  3.340702E+02 -6.470483E+04 -7.265009E+03
       423   6  2.646605E+06  4.692277E+04  1.301277E+05 -5.124195E+03 -9.879922E+04 -7.483703E+03
       423   7  2.442378E+06 -5.296394E+04 -9.079277E+03 -1.205389E+04 -3.103220E+04 -6.631726E+03
       423   8  2.417659E+06 -6.084108E+04  1.431860E+04  3.598243E+03 -6.489442E+04 -7.265751E+03
       423   9  2.411816E+06 -1.106067E+04  7.413613E+04  8.392713E+03 -9.875757E+04 -7.486012E+03
       423  10  2.851063E+06  4.803482E+04  8.825788E+04  1.926219E+03  1.765153E-09  1.862426E-10
       423  11  2.856779E+06  4.761063E+04  1.188196E+05 -2.931647E+03  3.075176E-11 -1.451002E-09
       423  12  2.881434E+06  1.049003E+05  1.860971E+05 -1.864683E+04  7.022971E-10 -2.047217E-09
       423  13  2.646701E+06 -2.463300E+03  3.958981E+04 -5.065067E+03 -5.724117E-10 -6.547270E-10
       423  14  2.637195E+06 -6.614106E+03  6.656677E+04  3.336919E+02 -4.407397E-10 -1.255022E-09
       423  15  2.646594E+06  4.692010E+04  1.301093E+05 -5.124790E+03  2.244260E-10 -1.329486E-09
       423  16  2.442377E+06 -5.296424E+04 -9.081162E+03 -1.205406E+04 -8.551653E-10 -1.732288E-10
       423  17  2.417654E+06 -6.084226E+04  1.431062E+04  3.597864E+03  9.322715E-10  2.045404E-09
       423  18  2.411805E+06 -1.106334E+04  7.411777E+04  8.392118E+03 -3.353962E-10 -2.327396E-10
       423  19  2.851064E+06  4.803511E+04  8.825966E+04  1.926380E+03  3.019205E+04  6.631272E+03
       423  20  2.856783E+06  4.761180E+04  1.188275E+05 -2.931270E+03  6.451516E+04  7.264270E+03
       423  21  2.881445E+06  1.049029E+05  1.861155E+05 -1.864623E+04  9.884087E+04  7.481394E+03
       423  22  2.646702E+06 -2.463002E+03  3.959164E+04 -5.064904E+03  3.061219E+04  6.631504E+03
       423  23  2.637199E+06 -6.612931E+03  6.657471E+04  3.340702E+02  6.470483E+04  7.265009E+03
       423  24  2.646605E+06  4.692277E+04  1.301277E+05 -5.124195E+03  9.879922E+04  7.483703E+03
       423  25  2.442378E+06 -5.296394E+04 -9.079277E+03 -1.205389E+04  3.103220E+04  6.631726E+03
       423  26  2.417659E+06 -6.084108E+04  1.431860E+04  3.598243E+03  6.489442E+04  7.265751E+03
       423  27  2.411816E+06 -1.106067E+04  7.413613E+04  8.392713E+03  9.875757E+04  7.486012E+03
       424   1  2.933427E+06  3.905507E+04  2.204427E+05  5.772952E+04 -1.216242E+05 -8.835042E+03
       424   2  2.871607E+06  4.822582E+03  3.212820E+05 -4.327135E+04 -2.632860E+05 -9.433702E+03
       424   3  2.969204E+06  5.348858E+05  6.551894E+05 -1.574470E+05 -4.049581E+05 -3.552054E+03
       424   4  2.677845E+06 -2.426231E+04  1.596869E+05 -5.363632E+03 -1.235248E+05 -8.825550E+03
       424   5  2.598113E+06 -6.256000E+04  2.562704E+05  8.294544E+02 -2.617252E+05 -9.450389E+03
       424   6  2.677245E+06  4.629290E+05  5.835903E+05 -6.135343E+03 -3.999307E+05 -3.642380E+03
       424   7  2.422331E+06 -8.756955E+04  9.892862E+04 -6.843080E+04 -1.254247E+05 -8.815669E+03
       424   8  2.324691E+06 -1.299406E+05  1.912546E+05  4.491080E+04 -2.601651E+05 -9.466862E+03
       424   9  2.385412E+06  3.910517E+05  5.119973E+05  1.451054E+05 -3.949057E+05 -3.730303E+03
       424  10  2.933411E+06  3.905104E+04  2.204149E+05  5.772865E+04  1.821175E-09 -2.164535E-09
       424  11  2.871533E+06  4.803987E+03  3.211522E+05 -4.327335E+04 -1.542998E-09 -5.018703E-09
       424  12  2.969029E+06  5.348421E+05  6.548826E+05 -1.574482E+05 -2.032809E-09 -1.701906E-09
       424  13  2.677828E+06 -2.426647E+04  1.596582E+05 -5.364509E+03 -3.002640E-09 -6.726843E-09
       424  14  2.598040E+06 -6.257839E+04  2.561420E+05  8.274647E+02  2.233762E-09  2.114454E-09
       424  15  2.677074E+06  4.628863E+05  5.832910E+05 -6.136515E+03  8.892871E-11 -1.762222E-10
       424  16  2.422314E+06 -8.757383E+04  9.889902E+04 -6.843169E+04 -2.400037E-10 -1.572821E-09
       424  17  2.324619E+06 -1.299588E+05  1.911277E+05  4.490882E+04  2.362235E-09  1.741791E-09
       424  18  2.385245E+06  3.910100E+05  5.117053E+05  1.451042E+05  1.277655E-10 -1.724910E-09
       424  19  2.933427E+06  3.905507E+04  2.204427E+05  5.772952E+04  1.216242E+05  8.835042E+03
       424  20  2.871607E+06  4.822582E+03  3.212820E+05 -4.327135E+04  2.632860E+05  9.433702E+03
       424  21  2.969204E+06  5.348858E+05  6.551894E+05 -1.574470E+05  4.049581E+05  3.552054E+03
       424  22  2.677845E+06 -2.426231E+04  1.596869E+05 -5.363632E+03  1.235248E+05  8.825550E+03
       424  23  2.598113E+06 -6.256000E+04  2.562704E+05  8.294544E+02  2.617252E+05  9.450389E+03
       424  24  2.677245E+06  4.629290E+05  5.835903E+05 -6.135343E+03  3.999307E+05  3.642380E+03
       424  25  2.422331E+06 -8.756955E+04  9.892862E+04 -6.843080E+04  1.254247E+05  8.815669E+03
       424  26  2.324691E+06 -1.299406E+05  1.912546E+05  4.491080E+04  2.601651E+05  9.466862E+03
       424  27  2.385412E+06  3.910517E+05  5.119973E+05  1.451054E+05  3.949057E+05  3.730303E+03
       425   1  6.034552E+05  1.959052E+05  1.812929E+05  5.208127E+04  5.555253E+04 -1.234756E+04
       425   2  5.409669E+05  1.908331E+05  1.428499E+05  5.493008E+04  2.438890E+04 -4.204948E+04
       425   3  4.809442E+05  1.793261E+05  1.231144E+05  6.878219E+04 -6.803438E+03 -5.141388E+04
       425   4 -2.914218E+05 -2.466335E+04 -2.719883E+04  6.679756E+04 -1.901710E+04 -1.248587E+04
       425   5 -2.893269E+05 -6.408818E+03 -1.337636E+04  6.127189E+04 -1.207562E+04 -4.212645E+04
       425   6 -2.913864E+05 -1.208939E+03 -7.301691E+03  6.674954E+04 -5.166930E+03 -5.141619E+04
       425   7 -1.185548E+06 -2.452846E+05 -2.357237E+05  8.149214E+04 -9.348004E+04 -1.262781E+04
       425   8 -1.118952E+06 -2.036899E+05 -1.696277E+05  6.760467E+04 -4.849259E+04 -4.220422E+04
       425   9 -1.063129E+06 -1.817754E+05 -1.377369E+05  6.471917E+04 -3.532387E+03 -5.141852E+04
       425  10  6.034519E+05  1.959042E+05  1.812868E+05  5.208182E+04  3.689491E-09 -6.324477E-10
       425  11  5.409658E+05  1.908310E+05  1.428455E+05  5.493091E+04 -4.187501E-10 -4.406354E-09
       425  12  4.809434E+05  1.793233E+05  1.231094E+05  6.878191E+04 -6.193266E-10 -3.344180E-09
       425  13 -2.914222E+05 -2.466362E+04 -2.719980E+04  6.679737E+04 -3.625880E-10  9.100346E-10
       425  14 -2.893275E+05 -6.410762E+03 -1.337997E+04  6.127148E+04 -9.421891E-10 -2.449341E-09
       425  15 -2.913871E+05 -1.211784E+03 -7.306709E+03  6.674933E+04  6.593671E-10  6.878092E-10
       425  16 -1.185557E+06 -2.452872E+05 -2.357404E+05  8.149119E+04 -3.081135E-09  2.615876E-10
       425  17 -1.118955E+06 -2.036924E+05 -1.696355E+05  6.760302E+04 -1.482080E-10 -5.983451E-09
       425  18 -1.063130E+06 -1.817782E+05 -1.377419E+05  6.471902E+04 -2.420088E-10 -6.185787E-09
       425  19  6.034552E+05  1.959052E+05  1.812929E+05  5.208127E+04 -5.555253E+04  1.234756E+04
       425  20  5.409669E+05  1.908331E+05  1.428499E+05  5.493008E+04 -2.438890E+04  4.204948E+04
       425  21  4.809442E+05  1.793261E+05  1.231144E+05  6.878219E+04  6.803438E+03  5.141388E+04
       425  22 -2.914218E+05 -2.466335E+04 -2.719883E+04  6.679756E+04  1.901710E+04  1.248587E+04
       425  23 -2.893269E+05 -6.408818E+03 -1.337636E+04  6.127189E+04  1.207562E+04  4.212645E+04
       425  24 -2.913864E+05 -1.208939E+03 -7.301691E+03  6.674954E+04  5.166930E+03  5.141619E+04
       425  25 -1.185548E+06 -2.452846E+05 -2.357237E+05  8.149214E+04  9.348004E+04  1.262781E+04
       425  26 -1.118952E+06 -2.036899E+05 -1.696277E+05  6.760467E+04  4.849259E+04  4.220422E+04
       425  27 -1.063129E+06 -1.817754E+05 -1.377369E+05  6.471917E+04  3.532387E+03  5.141852E+04
       426   1  4.416166E+05  1.695885E+05  1.161771E+05  6.765438E+04 -4.596093E+03 -5.032537E+04
       426   2  3.803241E+05  1.556032E+05  1.048138E+05  6.180116E+04 -6.995124E+03 -4.908895E+04
       426   3  3.192971E+05  1.415349E+05  9.498649E+04  6.834830E+04 -9.399944E+03 -4.576320E+04
       426   4 -2.905449E+05 -1.166716E+03 -5.521987E+03  6.706519E+04 -4.222965E+03 -5.033000E+04
       426   5 -2.903227E+05 -8.629645E+01 -3.029090E+03  6.086295E+04 -2.709617E+03 -4.908403E+04
       426   6 -2.905172E+05  2.321376E+02 -1.716786E+03  6.706191E+04 -1.202225E+03 -4.574757E+04
       426   7 -1.022177E+06 -1.719497E+05 -1.272373E+05  6.647642E+04 -3.850260E+03 -5.033464E+04
       426   8 -9.605230E+05 -1.557984E+05 -1.108840E+05  5.992552E+04  1.571428E+03 -4.907912E+04
       426   9 -8.999614E+05 -1.410891E+05 -9.842925E+04  6.577660E+04  6.987740E+03 -4.573197E+04
       426  10  4.416159E+05  1.695857E+05  1.161723E+05  6.765419E+04 -6.744588E-09 -3.332850E-09
       426  11  3.803234E+05  1.556006E+05  1.048092E+05  6.180088E+04 -3.640386E-09  2.093834E-09
       426  12  3.192965E+05  1.415327E+05  9.498239E+04  6.834796E+04  1.158429E-09  1.620679E-09
       426  13 -2.905456E+05 -1.169441E+03 -5.526780E+03  6.706502E+04 -2.691990E-10 -2.621488E-09
       426  14 -2.903234E+05 -8.888516E+01 -3.033630E+03  6.086284E+04  2.927613E-12 -1.335797E-09
       426  15 -2.905178E+05  2.298901E+02 -1.720721E+03  6.706187E+04  2.109694E-09 -2.618239E-09
       426  16 -1.022178E+06 -1.719525E+05 -1.272421E+05  6.647627E+04  6.776496E-09 -3.657448E-11
       426  17 -9.605236E+05 -1.558010E+05 -1.108885E+05  5.992558E+04  2.158780E-09  2.043500E-09
       426  18 -8.999620E+05 -1.410914E+05 -9.843327E+04  6.577686E+04 -1.298677E-09  2.912079E-10
       426  19  4.416166E+05  1.695885E+05  1.161771E+05  6.765438E+04  4.596093E+03  5.032537E+04
       426  20  3.803241E+05  1.556032E+05  1.048138E+05  6.180116E+04  6.995124E+03  4.908895E+04
       426  21  3.192971E+05  1.415349E+05  9.498649E+04  6.834830E+04  9.399944E+03  4.576320E+04
       426  22 -2.905449E+05 -1.166716E+03 -5.521987E+03  6.706519E+04  4.222965E+03  5.033000E+04
       426  23 -2.903227E+05 -8.629645E+01 -3.029090E+03  6.086295E+04  2.709617E+03  4.908403E+04
       426  24 -2.905172E+05  2.321376E+02 -1.716786E+03  6.706191E+04  1.202225E+03  4.574757E+04
       426  25 -1.022177E+06 -1.719497E+05 -1.272373E+05  6.647642E+04  3.850260E+03  5.033464E+04
       426  26 -9.605230E+05 -1.557984E+05 -1.108840E+05  5.992552E+04 -1.571428E+03  4.907912E+04
       426  27 -8.999614E+05 -1.410891E+05 -9.842925E+04  6.577660E+04 -6.987740E+03  4.573197E+04
       427   1  2.801805E+05  1.323773E+05  8.878218E+04  6.822231E+04 -9.016299E+03 -4.315559E+04
       427   2  2.189866E+05  1.181844E+05  7.941646E+04  6.185127E+04 -9.060318E+03 -3.873889E+04
       427   3  1.577691E+05  1.040786E+05  7.008580E+04  6.803349E+04 -9.106397E+03 -3.410642E+04
       427   4 -2.904375E+05  2.350429E+02 -1.303064E+03  6.709623E+04 -9.461275E+02 -4.313932E+04
       427   5 -2.903782E+05  2.738869E+02 -7.441493E+02  6.081919E+04 -5.867170E+02 -3.872021E+04
       427   6 -2.904165E+05  3.298666E+02 -4.306310E+02  6.709602E+04 -2.293699E+02 -3.408523E+04
       427   7 -8.607311E+05 -1.319233E+05 -9.139617E+04  6.597101E+04  7.116903E+03 -4.312308E+04
       427   8 -7.994844E+05 -1.176494E+05 -8.091086E+04  5.978782E+04  7.880191E+03 -3.870155E+04
       427   9 -7.384017E+05 -1.034287E+05 -7.095170E+04  6.615910E+04  8.641487E+03 -3.406407E+04
       427  10  2.801799E+05  1.323753E+05  8.877852E+04  6.822200E+04 -3.992000E-09  2.601423E-09
       427  11  2.189862E+05  1.181828E+05  7.941348E+04  6.185099E+04 -7.843079E-10  3.037611E-09
       427  12  1.577687E+05  1.040773E+05  7.008346E+04  6.803324E+04  5.404541E-09  2.064689E-10
       427  13 -2.904380E+05  2.330445E+02 -1.306562E+03  6.709619E+04 -5.246884E-11 -3.885685E-09
       427  14 -2.903786E+05  2.722771E+02 -7.469669E+02  6.081918E+04 -2.757826E-10  3.823727E-09
       427  15 -2.904168E+05  3.286192E+02 -4.328140E+02  6.709601E+04  2.415097E-09  5.083085E-09
       427  16 -8.607317E+05 -1.319253E+05 -9.139976E+04  6.597125E+04  4.850548E-09  9.948601E-10
       427  17 -7.994849E+05 -1.176510E+05 -8.091379E+04  5.978807E+04  6.292757E-11  3.691073E-09
       427  18 -7.384021E+05 -1.034300E+05 -7.095402E+04  6.615934E+04 -5.976018E-09  3.196656E-10
       427  19  2.801805E+05  1.323773E+05  8.878218E+04  6.822231E+04  9.016299E+03  4.315559E+04
       427  20  2.189866E+05  1.181844E+05  7.941646E+04  6.185127E+04  9.060318E+03  3.873889E+04
       427  21  1.577691E+05  1.040786E+05  7.008580E+04  6.803349E+04  9.106397E+03  3.410642E+04
       427  22 -2.904375E+05  2.350429E+02 -1.303064E+03  6.709623E+04  9.461275E+02  4.313932E+04
       427  23 -2.903782E+05  2.738869E+02 -7.441493E+02  6.081919E+04  5.867170E+02  3.872021E+04
       427  24 -2.904165E+05  3.298666E+02 -4.306310E+02  6.709602E+04  2.293699E+02  3.408523E+04
       427  25 -8.607311E+05 -1.319233E+05 -9.139617E+04  6.597101E+04 -7.116903E+03  4.312308E+04
       427  26 -7.994844E+05 -1.176494E+05 -8.091086E+04  5.978782E+04 -7.880191E+03  3.870155E+04
       427  27 -7.384017E+05 -1.034287E+05 -7.095170E+04  6.615910E+04 -8.641487E+03  3.406407E+04
       428   1  1.186589E+05  9.497948E+04  6.377608E+04  6.795924E+04 -9.032878E+03 -3.134074E+04
       428   2  5.743973E+04  8.080366E+04  5.437470E+04  6.154921E+04 -8.984254E+03 -2.659456E+04
       428   3 -3.835734E+03  6.670148E+04  4.493909E+04  6.771572E+04 -8.936778E+03 -2.182618E+04
       428   4 -2.904036E+05  3.357868E+02 -3.322116E+02  6.710117E+04 -1.673381E+02 -3.131885E+04
       428   5 -2.903623E+05  3.165383E+02 -2.051034E+02  6.081268E+04 -7.768145E+01 -2.657154E+04
       428   6 -2.903892E+05  3.636664E+02 -1.412463E+02  6.710112E+04  1.083087E+01 -2.180203E+04
       428   7 -6.992990E+05 -9.431611E+04 -6.444424E+04  6.624357E+04  8.692579E+03 -3.129697E+04
       428   8 -6.380435E+05 -8.017651E+04 -5.478754E+04  6.007650E+04  8.824087E+03 -2.654854E+04
       428   9 -5.768607E+05 -6.597816E+04 -4.522329E+04  6.648677E+04  8.954463E+03 -2.177789E+04
       428  10  1.186585E+05  9.497840E+04  6.377408E+04  6.795901E+04  6.572672E-10 -3.166123E-10
       428  11  5.743946E+04  8.080288E+04  5.437322E+04  6.154902E+04 -1.581025E-09  7.763581E-09
       428  12 -3.835948E+03  6.670095E+04  4.493804E+04  6.771556E+04  1.076626E-09  5.447659E-09
       428  13 -2.904038E+05  3.347337E+02 -3.340547E+02  6.710116E+04 -5.406122E-10  8.660304E-10
       428  14 -2.903625E+05  3.157803E+02 -2.064300E+02  6.081268E+04 -8.942108E-10  8.452670E-09
       428  15 -2.903894E+05  3.631561E+02 -1.421394E+02  6.710112E+04  2.041776E-09  4.701685E-10
       428  16 -6.992993E+05 -9.431718E+04 -6.444623E+04  6.624379E+04  4.342047E-10  3.264326E-10
       428  17 -6.380438E+05 -8.017728E+04 -5.478901E+04  6.007669E+04  4.444786E-10  1.649704E-09
       428  18 -5.768609E+05 -6.597869E+04 -4.522434E+04  6.648692E+04 -1.180303E-09 -6.117812E-10
       428  19  1.186589E+05  9.497948E+04  6.377608E+04  6.795924E+04  9.032878E+03  3.134074E+04
       428  20  5.743973E+04  8.080366E+04  5.437470E+04  6.154921E+04  8.984254E+03  2.659456E+04
       428  21 -3.835734E+03  6.670148E+04  4.493909E+04  6.771572E+04  8.936778E+03  2.182618E+04
       428  22 -2.904036E+05  3.357868E+02 -3.322116E+02  6.710117E+04  1.673381E+02  3.131885E+04
       428  23 -2.903623E+05  3.165383E+02 -2.051034E+02  6.081268E+04  7.768145E+01  2.657154E+04
       428  24 -2.903892E+05  3.636664E+02 -1.412463E+02  6.710112E+04 -1.083087E+01  2.180203E+04
       428  25 -6.992990E+05 -9.431611E+04 -6.444424E+04  6.624357E+04 -8.692579E+03  3.129697E+04
       428  26 -6.380435E+05 -8.017651E+04 -5.478754E+04  6.007650E+04 -8.824087E+03  2.654854E+04
       428  27 -5.768607E+05 -6.597816E+04 -4.522329E+04  6.648677E+04 -8.954463E+03  2.177789E+04
       429   1 -4.296684E+04  5.760140E+04  3.856062E+04  6.763557E+04 -8.920034E+03 -1.904319E+04
       429   2 -1.042017E+05  4.342011E+04  2.906021E+04  6.120756E+04 -8.856300E+03 -1.426608E+04
       429   3 -1.655097E+05  2.930526E+04  1.951000E+04  6.736591E+04 -8.793137E+03 -9.495285E+03
       429   4 -2.903865E+05  3.690051E+02 -1.280849E+02  6.710326E+04  2.777595E+01 -1.901857E+04
       429   5 -2.903457E+05  3.437319E+02 -1.305397E+02  6.080996E+04  7.931164E+01 -1.424095E+04
       429   6 -2.903788E+05  3.873607E+02 -1.742604E+02  6.710323E+04  1.302827E+02 -9.469649E+03
       429   7 -5.377449E+05 -5.686636E+04 -3.881795E+04  6.657113E+04  8.972154E+03 -1.899397E+04
       429   8 -4.764550E+05 -4.273432E+04 -2.932183E+04  6.041246E+04  9.012344E+03 -1.421583E+04
       429   9 -4.152322E+05 -2.853126E+04 -1.985861E+04  6.684059E+04  9.051974E+03 -9.444018E+03
       429  10 -4.296703E+04  5.760099E+04  3.855979E+04  6.763543E+04  9.419848E-09  1.225992E-10
       429  11 -1.042019E+05  4.341988E+04  2.905968E+04  6.120746E+04  3.157334E-10 -5.812136E-10
       429  12 -1.655098E+05  2.930514E+04  1.950969E+04  6.736584E+04 -4.193701E-09 -1.313495E-09
       429  13 -2.903866E+05  3.686168E+02 -1.287645E+02  6.710326E+04 -2.156964E-10  7.944808E-09
       429  14 -2.903458E+05  3.435141E+02 -1.309207E+02  6.080997E+04 -3.744232E-10  8.384238E-10
       429  15 -2.903788E+05  3.872644E+02 -1.744289E+02  6.710323E+04  1.873060E-09 -9.010758E-10
       429  16 -5.377450E+05 -5.686677E+04 -3.881878E+04  6.657127E+04 -8.390858E-09  2.204595E-09
       429  17 -4.764551E+05 -4.273456E+04 -2.932236E+04  6.041257E+04 -1.539568E-09 -1.892505E-09
       429  18 -4.152323E+05 -2.853138E+04 -1.985893E+04  6.684066E+04  3.535504E-09 -2.290736E-09
       429  19 -4.296684E+04  5.760140E+04  3.856062E+04  6.763557E+04  8.920034E+03  1.904319E+04
       429  20 -1.042017E+05  4.342011E+04  2.906021E+04  6.120756E+04  8.856300E+03  1.426608E+04
       429  21 -1.655097E+05  2.930526E+04  1.951000E+04  6.736591E+04  8.793137E+03  9.495285E+03
       429  22 -2.903865E+05  3.690051E+02 -1.280849E+02  6.710326E+04 -2.777595E+01  1.901857E+04
       429  23 -2.903457E+05  3.437319E+02 -1.305397E+02  6.080996E+04 -7.931164E+01  1.424095E+04
       429  24 -2.903788E+05  3.873607E+02 -1.742604E+02  6.710323E+04 -1.302827E+02  9.469649E+03
       429  25 -5.377449E+05 -5.686636E+04 -3.881795E+04  6.657113E+04 -8.972154E+03  1.899397E+04
       429  26 -4.764550E+05 -4.273432E+04 -2.932183E+04  6.041246E+04 -9.012344E+03  1.421583E+04
       429  27 -4.152322E+05 -2.853126E+04 -1.985861E+04  6.684059E+04 -9.051974E+03  9.444018E+03
       430   1 -2.046571E+05  2.019820E+04  1.306779E+04  6.727292E+04 -8.771586E+03 -6.716055E+03
       430   2 -2.658737E+05  5.995748E+03  3.369500E+03  6.084247E+04 -8.443017E+03 -1.988402E+03
       430   3 -3.272134E+05 -8.188561E+03 -6.564297E+03  6.699444E+04 -8.114313E+03  2.650384E+03
       430   4 -2.903826E+05  3.910923E+02 -2.157201E+02  6.710229E+04  1.574641E+02 -6.690219E+03
       430   5 -2.903331E+05  3.576103E+02 -3.539391E+02  6.081111E+04  3.193015E+02 -1.962979E+03
       430   6 -2.903816E+05  3.713404E+02 -6.120350E+02  6.710235E+04  4.813050E+02  2.675395E+03
       430   7 -3.761006E+05 -1.941633E+04 -1.349910E+04  6.693167E+04  9.085327E+03 -6.664387E+03
       430   8 -3.147918E+05 -5.280515E+03 -4.077102E+03  6.077974E+04  9.081288E+03 -1.937556E+03
       430   9 -2.535483E+05  8.931212E+03  5.340468E+03  6.721027E+04  9.077415E+03  2.700407E+03
       430  10 -2.046572E+05  2.019813E+04  1.306756E+04  6.727288E+04 -8.456200E-10  3.608582E-09
       430  11 -2.658737E+05  5.995725E+03  3.369358E+03  6.084246E+04 -3.077581E-09  2.122176E-09
       430  12 -3.272135E+05 -8.188586E+03 -6.564434E+03  6.699446E+04 -2.824856E-09  3.457005E-09
       430  13 -2.903826E+05  3.910442E+02 -2.158043E+02  6.710229E+04 -2.697912E-10 -8.869207E-10
       430  14 -2.903331E+05  3.576061E+02 -3.539465E+02  6.081111E+04 -2.236156E-12  2.640227E-10
       430  15 -2.903816E+05  3.713326E+02 -6.120489E+02  6.710235E+04  2.752304E-09  1.366298E-09
       430  16 -3.761007E+05 -1.941640E+04 -1.349934E+04  6.693172E+04  1.260245E-09  1.916751E-09
       430  17 -3.147919E+05 -5.280541E+03 -4.077264E+03  6.077975E+04  3.132292E-09 -8.665234E-09
       430  18 -2.535484E+05  8.931182E+03  5.340300E+03  6.721025E+04  2.984303E-09 -3.184652E-09
       430  19 -2.046571E+05  2.019820E+04  1.306779E+04  6.727292E+04  8.771586E+03  6.716055E+03
       430  20 -2.658737E+05  5.995748E+03  3.369500E+03  6.084247E+04  8.443017E+03  1.988402E+03
       430  21 -3.272134E+05 -8.188561E+03 -6.564297E+03  6.699444E+04  8.114313E+03 -2.650384E+03
       430  22 -2.903826E+05  3.910923E+02 -2.157201E+02  6.710229E+04 -1.574641E+02  6.690219E+03
       430  23 -2.903331E+05  3.576103E+02 -3.539391E+02  6.081111E+04 -3.193015E+02  1.962979E+03
       430  24 -2.903816E+05  3.713404E+02 -6.120350E+02  6.710235E+04 -4.813050E+02 -2.675395E+03
       430  25 -3.761006E+05 -1.941633E+04 -1.349910E+04  6.693167E+04 -9.085327E+03  6.664387E+03
       430  26 -3.147918E+05 -5.280515E+03 -4.077102E+03  6.077974E+04 -9.081288E+03  1.937556E+03
       430  27 -2.535483E+05  8.931212E+03  5.340468E+03  6.721027E+04 -9.077415E+03 -2.700407E+03
       431   1 -3.664315E+05 -1.732363E+04 -1.324773E+04  6.684202E+04 -8.053115E+03  5.365390E+03
       431   2 -4.274372E+05 -3.175274E+04 -2.404305E+04  6.063667E+04 -5.731655E+03  9.559861E+03
       431   3 -4.889765E+05 -4.678141E+04 -3.652480E+04  6.695442E+04 -3.407721E+03  1.288480E+04
       431   4 -2.904175E+05  3.747149E+02 -8.044695E+02  6.708889E+04  5.960357E+02  5.390462E+03
       431   5 -2.902926E+05  2.136836E+02 -1.413807E+03  6.082834E+04  1.290344E+03  9.579878E+03
       431   6 -2.904233E+05 -2.642976E+02 -2.579338E+03  6.709071E+04  1.987368E+03  1.289987E+04
       431   7 -2.143976E+05  1.807280E+04  1.163890E+04  6.733579E+04  9.246209E+03  5.415540E+03
       431   8 -1.531293E+05  3.217916E+04  2.121507E+04  6.102004E+04  8.313841E+03  9.599897E+03
       431   9 -9.183122E+04  4.625073E+04  3.136492E+04  6.722702E+04  7.384128E+03  1.291493E+04
       431  10 -3.664316E+05 -1.732368E+04 -1.324790E+04  6.684205E+04 -5.946798E-09  5.678801E-09
       431  11 -4.274372E+05 -3.175285E+04 -2.404329E+04  6.063671E+04  1.913184E-10  1.965977E-10
       431  12 -4.889765E+05 -4.678159E+04 -3.652513E+04  6.695445E+04  8.716657E-09  3.154113E-09
       431  13 -2.904175E+05  3.746836E+02 -8.045248E+02  6.708889E+04 -2.712874E-10  2.290963E-09
       431  14 -2.902926E+05  2.135846E+02 -1.413982E+03  6.082833E+04  3.914745E-10  2.433176E-09
       431  15 -2.904233E+05 -2.644773E+02 -2.579658E+03  6.709069E+04  2.325058E-09 -1.751567E-09
       431  16 -2.143977E+05  1.807275E+04  1.163869E+04  6.733575E+04  7.111402E-09  1.226987E-09
       431  17 -1.531294E+05  3.217905E+04  2.121477E+04  6.101997E+04 -7.359356E-10  1.272202E-09
       431  18 -9.183132E+04  4.625053E+04  3.136450E+04  6.722695E+04 -9.223722E-09 -7.426480E-09
       431  19 -3.664315E+05 -1.732363E+04 -1.324773E+04  6.684202E+04  8.053115E+03 -5.365390E+03
       431  20 -4.274372E+05 -3.175274E+04 -2.404305E+04  6.063667E+04  5.731655E+03 -9.559861E+03
       431  21 -4.889765E+05 -4.678141E+04 -3.652480E+04  6.695442E+04  3.407721E+03 -1.288480E+04
       431  22 -2.904175E+05  3.747149E+02 -8.044695E+02  6.708889E+04 -5.960357E+02 -5.390462E+03
       431  23 -2.902926E+05  2.136836E+02 -1.413807E+03  6.082834E+04 -1.290344E+03 -9.579878E+03
       431  24 -2.904233E+05 -2.642976E+02 -2.579338E+03  6.709071E+04 -1.987368E+03 -1.289987E+04
       431  25 -2.143976E+05  1.807280E+04  1.163890E+04  6.733579E+04 -9.246209E+03 -5.415540E+03
       431  26 -1.531293E+05  3.217916E+04  2.121507E+04  6.102004E+04 -8.313841E+03 -9.599897E+03
       431  27 -9.183122E+04  4.625073E+04  3.136492E+04  6.722702E+04 -7.384128E+03 -1.291493E+04
       432   1 -5.289576E+05 -5.619907E+04 -4.472338E+04  6.607769E+04 -3.497231E+03  1.496627E+04
       432   2 -5.879039E+05 -7.388185E+04 -6.385288E+04  6.392526E+04  1.556217E+04  1.394938E+04
       432   3 -6.516114E+05 -1.003958E+05 -9.761898E+04  7.372164E+04  3.464175E+04  4.462017E+03
       432   4 -2.908162E+05 -2.814295E+02 -3.410953E+03  6.695975E+04  2.423159E+03  1.498257E+04
       432   5 -2.898182E+05 -2.734461E+03 -6.245882E+03  6.100051E+04  5.639131E+03  1.392110E+04
       432   6 -2.908297E+05 -1.126390E+04 -1.270719E+04  6.699018E+04  8.877147E+03  4.390785E+03
       432   7 -5.261903E+04  5.563317E+04  3.789963E+04  6.784211E+04  8.345752E+03  1.499888E+04
       432   8  8.353271E+03  6.840773E+04  5.135735E+04  5.807427E+04 -4.288568E+03  1.389291E+04
       432   9  7.007342E+04  7.785929E+04  7.219817E+04  6.025470E+04 -1.690236E+04  4.320135E+03
       432  10 -5.289577E+05 -5.619932E+04 -4.472382E+04  6.607773E+04 -2.987609E-09  3.095440E-09
       432  11 -5.879043E+05 -7.388212E+04 -6.385370E+04  6.392509E+04 -3.259357E-09 -1.280324E-09
       432  12 -6.516127E+05 -1.003962E+05 -9.762127E+04  7.372151E+04 -7.411302E-10 -1.468421E-09
       432  13 -2.908163E+05 -2.816720E+02 -3.411386E+03  6.695972E+04  3.139719E-10  3.368036E-09
       432  14 -2.898183E+05 -2.734678E+03 -6.246306E+03  6.100045E+04  2.201761E-10 -3.809225E-09
       432  15 -2.908298E+05 -1.126394E+04 -1.270737E+04  6.699015E+04  1.858469E-09  5.439881E-09
       432  16 -5.261917E+04  5.563291E+04  3.789908E+04  6.784201E+04  3.867604E-09 -1.736409E-09
       432  17  8.353199E+03  6.840752E+04  5.135695E+04  5.807431E+04  2.571878E-09 -1.008860E-09
       432  18  7.007310E+04  7.785920E+04  7.219760E+04  6.025476E+04  5.633855E-10 -3.482171E-10
       432  19 -5.289576E+05 -5.619907E+04 -4.472338E+04  6.607769E+04  3.497231E+03 -1.496627E+04
       432  20 -5.879039E+05 -7.388185E+04 -6.385288E+04  6.392526E+04 -1.556217E+04 -1.394938E+04
       432  21 -6.516114E+05 -1.003958E+05 -9.761898E+04  7.372164E+04 -3.464175E+04 -4.462017E+03
       432  22 -2.908162E+05 -2.814295E+02 -3.410953E+03  6.695975E+04 -2.423159E+03 -1.498257E+04
       432  23 -2.898182E+05 -2.734461E+03 -6.245882E+03  6.100051E+04 -5.639131E+03 -1.392110E+04
       432  24 -2.908297E+05 -1.126390E+04 -1.270719E+04  6.699018E+04 -8.877147E+03 -4.390785E+03
       432  25 -5.261903E+04  5.563317E+04  3.789963E+04  6.784211E+04 -8.345752E+03 -1.499888E+04
       432  26  8.353271E+03  6.840773E+04  5.135735E+04  5.807427E+04  4.288568E+03 -1.389291E+04
       432  27  7.007342E+04  7.785929E+04  7.219817E+04  6.025470E+04  1.690236E+04 -4.320135E+03
       433   1 -2.674227E+05  3.865545E+04  1.354258E+04 -1.210918E+04 -6.990425E+04 -5.540748E+03
       433   2 -2.880069E+05  1.325728E+05  6.533876E+04 -3.711825E+03 -4.883455E+04 -1.631545E+04
       433   3 -3.387572E+05  1.165508E+05  7.596728E+04  2.983290E+04 -2.779939E+04 -1.533201E+04
       433   4 -7.890231E+05 -9.125623E+04 -1.150548E+05  1.663323E+04 -7.867871E+04 -5.568374E+03
       433   5 -7.733672E+05  1.233743E+04 -5.050201E+04  3.922330E+03 -5.142320E+04 -1.632475E+04
       433   6 -7.889794E+05  4.868747E+03 -3.144072E+04  1.636063E+04 -2.420069E+04 -1.532035E+04
       433   7 -1.310374E+06 -2.211850E+05 -2.436715E+05  4.535129E+04 -8.744579E+04 -5.596825E+03
       433   8 -1.258511E+06 -1.079148E+05 -1.663593E+05  1.155033E+04 -5.400983E+04 -1.633412E+04
       433   9 -1.239015E+06 -1.068274E+05 -1.388628E+05  2.898030E+03 -2.060457E+04 -1.530884E+04
       433  10 -2.674279E+05  3.865410E+04  1.353333E+04 -1.210949E+04 -4.274914E-09  1.812577E-09
       433  11 -2.880095E+05  1.325719E+05  6.533378E+04 -3.712467E+03 -1.752294E-09  8.907326E-09
       433  12 -3.387581E+05  1.165504E+05  7.596538E+04  2.983255E+04  9.871232E-10  8.219364E-09
       433  13 -7.890297E+05 -9.125793E+04 -1.150665E+05  1.663288E+04  2.546124E-10 -2.469342E-09
       433  14 -7.733701E+05  1.233644E+04 -5.050748E+04  3.921654E+03  7.167759E-10 -9.379251E-09
       433  15 -7.889801E+05  4.868337E+03 -3.144226E+04  1.636033E+04 -1.357205E-10  2.934517E-09
       433  16 -1.310382E+06 -2.211870E+05 -2.436860E+05  4.535089E+04  6.605694E-09  7.457976E-10
       433  17 -1.258514E+06 -1.079158E+05 -1.663653E+05  1.154961E+04 -3.286850E-10  1.026562E-08
       433  18 -1.239016E+06 -1.068277E+05 -1.388641E+05  2.897776E+03 -2.799727E-09  1.482805E-09
       433  19 -2.674227E+05  3.865545E+04  1.354258E+04 -1.210918E+04  6.990425E+04  5.540748E+03
       433  20 -2.880069E+05  1.325728E+05  6.533876E+04 -3.711825E+03  4.883455E+04  1.631545E+04
       433  21 -3.387572E+05  1.165508E+05  7.596728E+04  2.983290E+04  2.779939E+04  1.533201E+04
       433  22 -7.890231E+05 -9.125623E+04 -1.150548E+05  1.663323E+04  7.867871E+04  5.568374E+03
       433  23 -7.733672E+05  1.233743E+04 -5.050201E+04  3.922330E+03  5.142320E+04  1.632475E+04
       433  24 -7.889794E+05  4.868747E+03 -3.144072E+04  1.636063E+04  2.420069E+04  1.532035E+04
       433  25 -1.310374E+06 -2.211850E+05 -2.436715E+05  4.535129E+04  8.744579E+04  5.596825E+03
       433  26 -1.258511E+06 -1.079148E+05 -1.663593E+05  1.155033E+04  5.400983E+04  1.633412E+04
       433  27 -1.239015E+06 -1.068274E+05 -1.388628E+05  2.898030E+03  2.060457E+04  1.530884E+04
       434   1 -3.789380E+05  9.096977E+04  7.104234E+04  1.503722E+04 -1.948786E+04 -1.279775E+04
       434   2 -4.138748E+05  9.231620E+04  7.457695E+04  3.902098E+03 -1.322891E+04 -1.212253E+04
       434   3 -4.525028E+05  8.254640E+04  7.123690E+04  1.897830E+04 -6.974394E+03 -1.059859E+04
       434   4 -7.828671E+05 -9.182144E+03 -2.562437E+04  1.670643E+04 -1.935835E+04 -1.279794E+04
       434   5 -7.809751E+05  1.313572E+03 -1.310716E+04  3.582995E+03 -1.265541E+04 -1.212094E+04
       434   6 -7.828558E+05  6.119464E+02 -7.776602E+03  1.667200E+04 -5.956557E+03 -1.059502E+04
       434   7 -1.186646E+06 -1.093459E+05 -1.223026E+05  1.837441E+04 -1.922891E+04 -1.279813E+04
       434   8 -1.147952E+06 -8.969882E+04 -1.008008E+05  3.263969E+03 -1.208225E+04 -1.211934E+04
       434   9 -1.113109E+06 -8.133041E+04 -8.679780E+04  1.436685E+04 -4.939258E+03 -1.059146E+04
       434  10 -3.789384E+05  9.096949E+04  7.104132E+04  1.503702E+04  2.522609E-09 -2.475417E-09
       434  11 -4.138751E+05  9.231600E+04  7.457634E+04  3.901969E+03  1.051745E-09  3.919759E-10
       434  12 -4.525029E+05  8.254627E+04  7.123659E+04  1.897824E+04  1.624385E-09  7.503727E-09
       434  13 -7.828675E+05 -9.182421E+03 -2.562538E+04  1.670623E+04 -5.877526E-10  8.851816E-09
       434  14 -7.809753E+05  1.313371E+03 -1.310774E+04  3.582871E+03  1.167333E-09 -2.437777E-08
       434  15 -7.828558E+05  6.118164E+02 -7.776879E+03  1.667195E+04 -4.798729E-10  6.449605E-09
       434  16 -1.186647E+06 -1.093462E+05 -1.223036E+05  1.837421E+04  1.670624E-09 -7.191596E-09
       434  17 -1.147952E+06 -8.969901E+04 -1.008013E+05  3.263851E+03 -1.423701E-09 -3.664067E-09
       434  18 -1.113109E+06 -8.133054E+04 -8.679806E+04  1.436681E+04 -5.583173E-09  1.181270E-09
       434  19 -3.789380E+05  9.096977E+04  7.104234E+04  1.503722E+04  1.948786E+04  1.279775E+04
       434  20 -4.138748E+05  9.231620E+04  7.457695E+04  3.902098E+03  1.322891E+04  1.212253E+04
       434  21 -4.525028E+05  8.254640E+04  7.123690E+04  1.897830E+04  6.974394E+03  1.059859E+04
       434  22 -7.828671E+05 -9.182144E+03 -2.562437E+04  1.670643E+04  1.935835E+04  1.279794E+04
       434  23 -7.809751E+05  1.313572E+03 -1.310716E+04  3.582995E+03  1.265541E+04  1.212094E+04
       434  24 -7.828558E+05  6.119464E+02 -7.776602E+03  1.667200E+04  5.956557E+03  1.059502E+04
       434  25 -1.186646E+06 -1.093459E+05 -1.223026E+05  1.837441E+04  1.922891E+04  1.279813E+04
       434  26 -1.147952E+06 -8.969882E+04 -1.008008E+05  3.263969E+03  1.208225E+04  1.211934E+04
       434  27 -1.113109E+06 -8.133041E+04 -8.679780E+04  1.436685E+04  4.939258E+03  1.059146E+04
       435   1 -4.995467E+05  6.924887E+04  6.132864E+04  1.748488E+04 -5.513401E+03 -9.572659E+03
       435   2 -5.369255E+05  6.089092E+04  5.513280E+04  4.119282E+03 -3.868439E+03 -8.061696E+03
       435   3 -5.749644E+05  5.159742E+04  4.758573E+04  1.765052E+04 -2.224618E+03 -6.479370E+03
       435   4 -7.821584E+05 -7.991473E+02 -6.091303E+03  1.683769E+04 -4.736959E+03 -9.569876E+03
       435   5 -7.818222E+05  1.720590E+02 -3.370660E+03  3.386872E+03 -3.055049E+03 -8.058582E+03
       435   6 -7.821535E+05  2.012038E+02 -2.027197E+03  1.683356E+04 -1.374181E+03 -6.475907E+03
       435   7 -1.064697E+06 -7.085294E+04 -7.351686E+04  1.619073E+04 -3.960868E+03 -9.567095E+03
       435   8 -1.026664E+06 -6.055115E+04 -6.187834E+04  2.654697E+03 -2.241978E+03 -8.055469E+03
       435   9 -9.893033E+05 -5.119813E+04 -5.164316E+04  1.601682E+04 -5.240265E+02 -6.472445E+03
       435  10 -4.995468E+05  6.924876E+04  6.132841E+04  1.748484E+04  6.180633E-09 -5.630383E-09
       435  11 -5.369255E+05  6.089085E+04  5.513265E+04  4.119257E+03  1.883556E-10 -6.542130E-09
       435  12 -5.749644E+05  5.159737E+04  4.758564E+04  1.765051E+04 -1.304825E-09 -3.851082E-09
       435  13 -7.821585E+05 -7.992516E+02 -6.091517E+03  1.683765E+04 -5.402088E-10 -5.990001E-09
       435  14 -7.818222E+05  1.719868E+02 -3.370800E+03  3.386852E+03 -7.836405E-10 -7.806657E-09
       435  15 -7.821536E+05  2.011582E+02 -2.027279E+03  1.683355E+04  6.326978E-10 -2.934690E-09
       435  16 -1.064697E+06 -7.085304E+04 -7.351706E+04  1.619069E+04 -3.053136E-09 -5.519664E-09
       435  17 -1.026664E+06 -6.055122E+04 -6.187847E+04  2.654683E+03 -2.369121E-09  3.088612E-09
       435  18 -9.893033E+05 -5.119817E+04 -5.164324E+04  1.601682E+04 -2.722946E-09  1.034101E-08
       435  19 -4.995467E+05  6.924887E+04  6.132864E+04  1.748488E+04  5.513401E+03  9.572659E+03
       435  20 -5.369255E+05  6.089092E+04  5.513280E+04  4.119282E+03  3.868439E+03  8.061696E+03
       435  21 -5.749644E+05  5.159742E+04  4.758573E+04  1.765052E+04  2.224618E+03  6.479370E+03
       435  22 -7.821584E+05 -7.991473E+02 -6.091303E+03  1.683769E+04  4.736959E+03  9.569876E+03
       435  23 -7.818222E+05  1.720590E+02 -3.370660E+03  3.386872E+03  3.055049E+03  8.058582E+03
       435  24 -7.821535E+05  2.012038E+02 -2.027197E+03  1.683356E+04  1.374181E+03  6.475907E+03
       435  25 -1.064697E+06 -7.085294E+04 -7.351686E+04  1.619073E+04  3.960868E+03  9.567095E+03
       435  26 -1.026664E+06 -6.055115E+04 -6.187834E+04  2.654697E+03  2.241978E+03  8.055469E+03
       435  27 -9.893033E+05 -5.119813E+04 -5.164316E+04  1.601682E+04  5.240265E+02  6.472445E+03
       436   1 -6.235975E+05  3.933508E+04  3.612829E+04  1.743296E+04 -1.887136E+03 -5.545724E+03
       436   2 -6.617084E+05  2.986583E+04  2.763604E+04  3.673301E+03 -1.362576E+03 -3.954814E+03
       436   3 -7.001425E+05  2.050025E+04  1.876723E+04  1.721162E+04 -8.384861E+02 -2.353799E+03
       436   4 -7.820726E+05  6.360030E+01 -1.618218E+03  1.692411E+04 -1.051478E+03 -5.542224E+03
       436   5 -7.819088E+05  6.104217E+01 -1.081078E+03  3.274691E+03 -5.217280E+02 -3.951199E+03
       436   6 -7.820705E+05  1.613383E+02 -9.240823E+02  1.692357E+04  7.585348E+00 -2.350063E+03
       436   7 -9.405246E+05 -3.920969E+04 -3.936649E+04  1.641536E+04 -2.160334E+02 -5.538724E+03
       436   8 -9.020960E+05 -2.974479E+04 -2.979921E+04  2.876143E+03  3.189580E+02 -3.947584E+03
       436   9 -8.639923E+05 -2.017807E+04 -2.061587E+04  1.663556E+04  8.535455E+02 -2.346327E+03
       436  10 -6.235975E+05  3.933505E+04  3.612823E+04  1.743295E+04  4.558179E-09 -5.592400E-09
       436  11 -6.617084E+05  2.986581E+04  2.763600E+04  3.673297E+03 -1.343895E-09  5.660959E-09
       436  12 -7.001425E+05  2.050025E+04  1.876722E+04  1.721161E+04 -5.361760E-09  8.220888E-10
       436  13 -7.820726E+05  6.356703E+01 -1.618278E+03  1.692410E+04 -5.592817E-10  2.952411E-09
       436  14 -7.819088E+05  6.102534E+01 -1.081107E+03  3.274689E+03 -1.792249E-09 -9.194409E-09
       436  15 -7.820705E+05  1.613323E+02 -9.240926E+02  1.692357E+04  9.205000E-10 -3.010384E-09
       436  16 -9.405247E+05 -3.920973E+04 -3.936655E+04  1.641536E+04 -1.094103E-09  5.297529E-09
       436  17 -9.020960E+05 -2.974480E+04 -2.979924E+04  2.876144E+03 -1.957404E-09  1.099018E-08
       436  18 -8.639923E+05 -2.017807E+04 -2.061589E+04  1.663556E+04  1.647837E-09  6.556495E-09
       436  19 -6.235975E+05  3.933508E+04  3.612829E+04  1.743296E+04  1.887136E+03  5.545724E+03
       436  20 -6.617084E+05  2.986583E+04  2.763604E+04  3.673301E+03  1.362576E+03  3.954814E+03
       436  21 -7.001425E+05  2.050025E+04  1.876723E+04  1.721162E+04  8.384861E+02  2.353799E+03
       436  22 -7.820726E+05  6.360030E+01 -1.618218E+03  1.692411E+04  1.051478E+03  5.542224E+03
       436  23 -7.819088E+05  6.104217E+01 -1.081078E+03  3.274691E+03  5.217280E+02  3.951199E+03
       436  24 -7.820705E+05  1.613383E+02 -9.240823E+02  1.692357E+04 -7.585348E+00  2.350063E+03
       436  25 -9.405246E+05 -3.920969E+04 -3.936649E+04  1.641536E+04  2.160334E+02  5.538724E+03
       436  26 -9.020960E+05 -2.974479E+04 -2.979921E+04  2.876143E+03 -3.189580E+02  3.947584E+03
       436  27 -8.639923E+05 -2.017807E+04 -2.061587E+04  1.663556E+04 -8.535455E+02  2.346327E+03
       437   1 -7.493345E+05  8.258699E+03  6.753149E+03  1.704019E+04 -6.739730E+02 -1.418792E+03
       437   2 -7.876009E+05 -1.346167E+03 -2.593663E+03  3.210304E+03 -6.834293E+01  1.871793E+02
       437   3 -8.262281E+05 -1.086979E+04 -1.238026E+04  1.680536E+04  5.372734E+02  1.789840E+03
       437   4 -7.820771E+05  1.630223E+02 -9.528954E+02  1.695166E+04  1.726397E+02 -1.415021E+03
       437   5 -7.818961E+05  6.861056E+01 -1.230615E+03  3.239426E+03  7.764954E+02  1.909345E+02
       437   6 -7.820775E+05  5.571389E+01 -1.946939E+03  1.695212E+04  1.380375E+03  1.793585E+03
       437   7 -8.148188E+05 -7.932731E+03 -8.659011E+03  1.686313E+04  1.019208E+03 -1.411251E+03
       437   8 -7.761912E+05  1.483386E+03  1.324327E+02  3.268548E+03  1.621341E+03  1.946897E+02
       437   9 -7.379250E+05  1.098108E+04  8.486252E+03  1.709888E+04  2.223536E+03  1.797331E+03
       437  10 -7.493345E+05  8.258697E+03  6.753144E+03  1.704019E+04 -1.256898E-08  2.803281E-09
       437  11 -7.876009E+05 -1.346167E+03 -2.593663E+03  3.210304E+03 -3.639650E-09 -4.976408E-09
       437  12 -8.262281E+05 -1.086979E+04 -1.238027E+04  1.680536E+04  2.536617E-09 -2.704373E-09
       437  13 -7.820771E+05  1.630202E+02 -9.528992E+02  1.695166E+04 -5.867657E-10  8.052626E-09
       437  14 -7.818961E+05  6.861036E+01 -1.230617E+03  3.239426E+03 -1.467762E-09 -8.507572E-09
       437  15 -7.820775E+05  5.570993E+01 -1.946949E+03  1.695212E+04  3.191970E-11 -3.630176E-09
       437  16 -8.148188E+05 -7.932733E+03 -8.659016E+03  1.686313E+04  1.558357E-08  5.556262E-10
       437  17 -7.761912E+05  1.483385E+03  1.324276E+02  3.268548E+03  2.577359E-09 -1.830923E-08
       437  18 -7.379250E+05  1.098107E+04  8.486237E+03  1.709888E+04 -6.235485E-09 -1.368929E-08
       437  19 -7.493345E+05  8.258699E+03  6.753149E+03  1.704019E+04  6.739730E+02  1.418792E+03
       437  20 -7.876009E+05 -1.346167E+03 -2.593663E+03  3.210304E+03  6.834293E+01 -1.871793E+02
       437  21 -8.262281E+05 -1.086979E+04 -1.238026E+04  1.680536E+04 -5.372734E+02 -1.789840E+03
       437  22 -7.820771E+05  1.630223E+02 -9.528954E+02  1.695166E+04 -1.726397E+02  1.415021E+03
       437  23 -7.818961E+05  6.861056E+01 -1.230615E+03  3.239426E+03 -7.764954E+02 -1.909345E+02
       437  24 -7.820775E+05  5.571389E+01 -1.946939E+03  1.695212E+04 -1.380375E+03 -1.793585E+03
       437  25 -8.148188E+05 -7.932731E+03 -8.659011E+03  1.686313E+04 -1.019208E+03  1.411251E+03
       437  26 -7.761912E+05  1.483386E+03  1.324327E+02  3.268548E+03 -1.621341E+03 -1.946897E+02
       437  27 -7.379250E+05  1.098108E+04  8.486252E+03  1.709888E+04 -2.223536E+03 -1.797331E+03
       438   1 -8.754947E+05 -2.294066E+04 -2.488574E+04  1.641139E+04  9.165591E+02  2.730961E+03
       438   2 -9.133005E+05 -3.240167E+04 -3.558757E+04  2.875628E+03  3.019989E+03  4.335891E+03
       438   3 -9.519619E+05 -4.307983E+04 -4.802482E+04  1.661331E+04  5.123975E+03  5.886808E+03
       438   4 -7.821879E+05  2.240549E+02 -2.473986E+03  1.691640E+04  1.772598E+03  2.734727E+03
       438   5 -7.817640E+05  2.185825E+02 -4.157666E+03  3.282531E+03  3.847924E+03  4.339426E+03
       438   6 -7.821914E+05 -9.986891E+02 -7.556673E+03  1.692174E+04  5.923935E+03  5.890122E+03
       438   7 -6.888731E+05  2.338814E+04  1.993716E+04  1.742149E+04  2.628764E+03  2.738493E+03
       438   8 -6.502116E+05  3.283758E+04  2.727102E+04  3.689503E+03  4.676034E+03  4.342961E+03
       438   9 -6.123944E+05  4.108037E+04  3.290945E+04  1.723024E+04  6.724112E+03  5.893436E+03
       438  10 -8.754947E+05 -2.294067E+04 -2.488576E+04  1.641139E+04  2.875074E-09  6.744287E-10
       438  11 -9.133005E+05 -3.240169E+04 -3.558762E+04  2.875617E+03 -3.233806E-09 -1.410107E-08
       438  12 -9.519620E+05 -4.307988E+04 -4.802493E+04  1.661328E+04 -8.356359E-09 -7.268365E-10
       438  13 -7.821879E+05  2.240460E+02 -2.474006E+03  1.691640E+04 -8.148532E-10 -3.590723E-09
       438  14 -7.817640E+05  2.185583E+02 -4.157730E+03  3.282517E+03 -1.254995E-09 -7.258910E-09
       438  15 -7.821914E+05 -9.987358E+02 -7.556805E+03  1.692172E+04  3.399905E-10  5.018833E-09
       438  16 -6.888731E+05  2.338813E+04  1.993713E+04  1.742148E+04 -2.053256E-10  4.517398E-09
       438  17 -6.502116E+05  3.283756E+04  2.727095E+04  3.689487E+03  2.915780E-09 -8.551556E-09
       438  18 -6.123944E+05  4.108032E+04  3.290930E+04  1.723021E+04  5.035312E-09  9.742738E-09
       438  19 -8.754947E+05 -2.294066E+04 -2.488574E+04  1.641139E+04 -9.165591E+02 -2.730961E+03
       438  20 -9.133005E+05 -3.240167E+04 -3.558757E+04  2.875628E+03 -3.019989E+03 -4.335891E+03
       438  21 -9.519619E+05 -4.307983E+04 -4.802482E+04  1.661331E+04 -5.123975E+03 -5.886808E+03
       438  22 -7.821879E+05  2.240549E+02 -2.473986E+03  1.691640E+04 -1.772598E+03 -2.734727E+03
       438  23 -7.817640E+05  2.185825E+02 -4.157666E+03  3.282531E+03 -3.847924E+03 -4.339426E+03
       438  24 -7.821914E+05 -9.986891E+02 -7.556673E+03  1.692174E+04 -5.923935E+03 -5.890122E+03
       438  25 -6.888731E+05  2.338814E+04  1.993716E+04  1.742149E+04 -2.628764E+03 -2.738493E+03
       438  26 -6.502116E+05  3.283758E+04  2.727102E+04  3.689503E+03 -4.676034E+03 -4.342961E+03
       438  27 -6.123944E+05  4.108037E+04  3.290945E+04  1.723024E+04 -6.724112E+03 -5.893436E+03
       439   1 -1.001457E+06 -5.344784E+04 -6.195011E+04  1.444620E+04  6.443883E+03  6.907814E+03
       439   2 -1.036692E+06 -6.183296E+04 -7.744844E+04  3.472429E+03  1.512197E+04  8.486505E+03
       439   3 -1.076768E+06 -8.423447E+04 -1.021522E+05  1.936027E+04  2.380293E+04  9.383161E+03
       439   4 -7.830683E+05  7.522699E+02 -9.658914E+03  1.681161E+04  7.438982E+03  6.911864E+03
       439   5 -7.806849E+05  1.650439E+03 -1.627769E+04  3.405245E+03  1.576047E+04  8.488842E+03
       439   6 -7.830794E+05 -1.140231E+04 -3.185105E+04  1.685994E+04  2.408536E+04  9.383846E+03
       439   7 -5.646360E+05  5.494893E+04  4.262891E+04  1.917781E+04  8.434430E+03  6.915920E+03
       439   8 -5.246177E+05  6.512909E+04  4.488844E+04  3.337972E+03  1.639924E+04  8.491179E+03
       439   9 -4.893115E+05  6.142362E+04  3.844404E+04  1.435835E+04  2.436792E+04  9.384529E+03
       439  10 -1.001457E+06 -5.344790E+04 -6.195028E+04  1.444617E+04  1.094506E-08  3.976179E-09
       439  11 -1.036692E+06 -6.183310E+04 -7.744900E+04  3.472326E+03 -4.875506E-10  5.698255E-09
       439  12 -1.076769E+06 -8.423472E+04 -1.021535E+05  1.936009E+04 -3.719639E-09 -2.121791E-09
       439  13 -7.830683E+05  7.522037E+02 -9.659108E+03  1.681157E+04  2.992476E-10 -1.017693E-08
       439  14 -7.806852E+05  1.650295E+03 -1.627829E+04  3.405137E+03 -2.062816E-09  1.492554E-09
       439  15 -7.830801E+05 -1.140256E+04 -3.185231E+04  1.685976E+04  1.346594E-10 -3.463800E-09
       439  16 -5.646360E+05  5.494886E+04  4.262869E+04  1.917777E+04 -7.348125E-09 -2.626442E-09
       439  17 -5.246180E+05  6.512894E+04  4.488780E+04  3.337859E+03 -1.589154E-09 -2.632238E-08
       439  18 -4.893122E+05  6.142336E+04  3.844276E+04  1.435816E+04  6.409678E-10  1.500817E-09
       439  19 -1.001457E+06 -5.344784E+04 -6.195011E+04  1.444620E+04 -6.443883E+03 -6.907814E+03
       439  20 -1.036692E+06 -6.183296E+04 -7.744844E+04  3.472429E+03 -1.512197E+04 -8.486505E+03
       439  21 -1.076768E+06 -8.423447E+04 -1.021522E+05  1.936027E+04 -2.380293E+04 -9.383161E+03
       439  22 -7.830683E+05  7.522699E+02 -9.658914E+03  1.681161E+04 -7.438982E+03 -6.911864E+03
       439  23 -7.806849E+05  1.650439E+03 -1.627769E+04  3.405245E+03 -1.576047E+04 -8.488842E+03
       439  24 -7.830794E+05 -1.140231E+04 -3.185105E+04  1.685994E+04 -2.408536E+04 -9.383846E+03
       439  25 -5.646360E+05  5.494893E+04  4.262891E+04  1.917781E+04 -8.434430E+03 -6.915920E+03
       439  26 -5.246177E+05  6.512909E+04  4.488844E+04  3.337972E+03 -1.639924E+04 -8.491179E+03
       439  27 -4.893115E+05  6.142362E+04  3.844404E+04  1.435835E+04 -2.436792E+04 -9.384529E+03
       440   1 -1.131930E+06 -7.869672E+04 -1.205637E+05  2.218468E+02  2.703028E+04  1.161058E+04
       440   2 -1.148911E+06 -7.820057E+04 -1.529451E+05  1.348293E+04  6.584395E+04  1.283228E+04
       440   3 -1.205816E+06 -2.167243E+05 -2.454035E+05  5.294833E+04  1.046873E+05  4.575587E+03
       440   4 -7.906895E+05  6.065030E+03 -3.908513E+04  1.655244E+04  3.010768E+04  1.162257E+04
       440   5 -7.711978E+05  1.537122E+04 -6.275979E+04  3.655787E+03  6.394069E+04  1.282380E+04
       440   6 -7.907406E+05 -1.134336E+05 -1.430242E+05  1.696521E+04  9.780608E+04  4.545904E+03
       440   7 -4.493419E+05  9.081930E+04  4.238543E+04  3.289196E+04  3.318675E+04  1.163470E+04
       440   8 -3.933528E+05  1.089331E+05  2.741557E+04 -6.177493E+03  6.203626E+04  1.281537E+04
       440   9 -3.755054E+05 -1.015065E+04 -4.065669E+04 -1.904216E+04  9.092028E+04  4.517032E+03
       440  10 -1.131930E+06 -7.869706E+04 -1.205654E+05  2.215939E+02  6.884090E-09 -1.274093E-09
       440  11 -1.148916E+06 -7.820191E+04 -1.529536E+05  1.348225E+04  4.294513E-09 -3.784269E-09
       440  12 -1.205828E+06 -2.167273E+05 -2.454242E+05  5.294794E+04  1.224282E-09  7.534392E-09
       440  13 -7.906905E+05  6.064642E+03 -3.908709E+04  1.655216E+04 -5.498258E-10  7.386420E-09
       440  14 -7.712022E+05  1.536994E+04 -6.276779E+04  3.655126E+03 -8.342662E-10  1.068041E-09
       440  15 -7.907509E+05 -1.134362E+05 -1.430422E+05  1.696486E+04 -4.258496E-10  4.258324E-09
       440  16 -4.493431E+05  9.081886E+04  4.238311E+04  3.289165E+04 -3.727706E-09  9.990254E-09
       440  17 -3.933570E+05  1.089319E+05  2.740803E+04 -6.178133E+03 -6.474450E-09  1.484648E-08
       440  18 -3.755143E+05 -1.015289E+04 -4.067227E+04 -1.904249E+04 -4.473260E-09 -1.338579E-09
       440  19 -1.131930E+06 -7.869672E+04 -1.205637E+05  2.218468E+02 -2.703028E+04 -1.161058E+04
       440  20 -1.148911E+06 -7.820057E+04 -1.529451E+05  1.348293E+04 -6.584395E+04 -1.283228E+04
       440  21 -1.205816E+06 -2.167243E+05 -2.454035E+05  5.294833E+04 -1.046873E+05 -4.575587E+03
       440  22 -7.906895E+05  6.065030E+03 -3.908513E+04  1.655244E+04 -3.010768E+04 -1.162257E+04
       440  23 -7.711978E+05  1.537122E+04 -6.275979E+04  3.655787E+03 -6.394069E+04 -1.282380E+04
       440  24 -7.907406E+05 -1.134336E+05 -1.430242E+05  1.696521E+04 -9.780608E+04 -4.545904E+03
       440  25 -4.493419E+05  9.081930E+04  4.238543E+04  3.289196E+04 -3.318675E+04 -1.163470E+04
       440  26 -3.933528E+05  1.089331E+05  2.741557E+04 -6.177493E+03 -6.203626E+04 -1.281537E+04
       440  27 -3.755054E+05 -1.015065E+04 -4.065669E+04 -1.904216E+04 -9.092028E+04 -4.517032E+03
