    1C
    1UUSER                                                              
    1UDATE              11.october.2022                                 
    1UTIME              18:39:38                                        
    1UHOST                                                              
    1UPGM               CalculiX                                        
    1UVERSION           Version 2.20                             
    1UCOMPILETIME       Sun Jul 31 18:08:37 CEST 2022                    
    1UDIR                                                               
    1UDBN                                                               
    1UMAT    1MESH_MATERIAL                                             
    2C                           409                                     1
 -1         1 0.00000E+00 0.00000E+00 0.00000E+00
 -1         2 1.66667E-02 0.00000E+00 0.00000E+00
 -1         3 3.33333E-02 0.00000E+00 0.00000E+00
 -1         5 6.66667E-02 0.00000E+00 0.00000E+00
 -1         8 0.00000E+00 6.25000E-03 0.00000E+00
 -1         9 1.66667E-02 6.25000E-03 0.00000E+00
 -1        10 3.33333E-02 6.25000E-03 0.00000E+00
 -1        12 6.66667E-02 6.25000E-03 0.00000E+00
 -1        15 0.00000E+00 1.25000E-02 0.00000E+00
 -1        16 1.66667E-02 1.25000E-02 0.00000E+00
 -1        17 3.33333E-02 1.25000E-02 0.00000E+00
 -1        18 5.00000E-02 1.25000E-02 0.00000E+00
 -1        19 6.66667E-02 1.25000E-02 0.00000E+00
 -1        20 8.33333E-02 1.25000E-02 0.00000E+00
 -1        21 1.00000E-01 1.25000E-02 0.00000E+00
 -1        24 3.33333E-02 1.87500E-02 0.00000E+00
 -1        25 5.00000E-02 1.87500E-02 0.00000E+00
 -1        26 6.66667E-02 1.87500E-02 0.00000E+00
 -1        27 8.33333E-02 1.87500E-02 0.00000E+00
 -1        28 1.00000E-01 1.87500E-02 0.00000E+00
 -1        32 5.00000E-02 2.50000E-02 0.00000E+00
 -1        33 6.66667E-02 2.50000E-02 0.00000E+00
 -1        34 8.33333E-02 2.50000E-02 0.00000E+00
 -1        35 1.00000E-01 2.50000E-02 0.00000E+00
 -1        51 0.00000E+00 1.04167E-03 0.00000E+00
 -1        52 0.00000E+00 2.08333E-03 0.00000E+00
 -1        53 0.00000E+00 3.12500E-03 0.00000E+00
 -1        54 0.00000E+00 4.16667E-03 0.00000E+00
 -1        55 0.00000E+00 5.20833E-03 0.00000E+00
 -1        56 1.04167E-03 3.90630E-04 0.00000E+00
 -1        57 2.08333E-03 7.81250E-04 0.00000E+00
 -1        58 3.12500E-03 1.17188E-03 0.00000E+00
 -1        59 4.16667E-03 1.56250E-03 0.00000E+00
 -1        60 5.20833E-03 1.95312E-03 0.00000E+00
 -1        61 6.25000E-03 2.34375E-03 0.00000E+00
 -1        62 7.29167E-03 2.73438E-03 0.00000E+00
 -1        63 8.33333E-03 3.12500E-03 0.00000E+00
 -1        64 9.37500E-03 3.51563E-03 0.00000E+00
 -1        65 1.04167E-02 3.90625E-03 0.00000E+00
 -1        66 1.14583E-02 4.29688E-03 0.00000E+00
 -1        67 1.25000E-02 4.68750E-03 0.00000E+00
 -1        68 1.35417E-02 5.07813E-03 0.00000E+00
 -1        69 1.45833E-02 5.46875E-03 0.00000E+00
 -1        70 1.56250E-02 5.85938E-03 0.00000E+00
 -1        86 1.66667E-02 1.04167E-03 0.00000E+00
 -1        87 1.66667E-02 2.08333E-03 0.00000E+00
 -1        88 1.66667E-02 3.12500E-03 0.00000E+00
 -1        89 1.66667E-02 4.16667E-03 0.00000E+00
 -1        90 1.66667E-02 5.20833E-03 0.00000E+00
 -1       121 3.33333E-02 1.04167E-03 0.00000E+00
 -1       122 3.33333E-02 2.08333E-03 0.00000E+00
 -1       123 3.33333E-02 3.12500E-03 0.00000E+00
 -1       124 3.33333E-02 4.16667E-03 0.00000E+00
 -1       125 3.33333E-02 5.20833E-03 0.00000E+00
 -1       191 6.66667E-02 1.04167E-03 0.00000E+00
 -1       192 6.66667E-02 2.08333E-03 0.00000E+00
 -1       193 6.66667E-02 3.12500E-03 0.00000E+00
 -1       194 6.66667E-02 4.16667E-03 0.00000E+00
 -1       195 6.66667E-02 5.20833E-03 0.00000E+00
 -1       251 1.04167E-03 6.25000E-03 0.00000E+00
 -1       252 2.08333E-03 6.25000E-03 0.00000E+00
 -1       253 3.12500E-03 6.25000E-03 0.00000E+00
 -1       254 4.16667E-03 6.25000E-03 0.00000E+00
 -1       255 5.20833E-03 6.25000E-03 0.00000E+00
 -1       256 6.25000E-03 6.25000E-03 0.00000E+00
 -1       257 7.29167E-03 6.25000E-03 0.00000E+00
 -1       258 8.33333E-03 6.25000E-03 0.00000E+00
 -1       259 9.37500E-03 6.25000E-03 0.00000E+00
 -1       260 1.04167E-02 6.25000E-03 0.00000E+00
 -1       261 1.14583E-02 6.25000E-03 0.00000E+00
 -1       262 1.25000E-02 6.25000E-03 0.00000E+00
 -1       263 1.35417E-02 6.25000E-03 0.00000E+00
 -1       264 1.45833E-02 6.25000E-03 0.00000E+00
 -1       265 1.56250E-02 6.25000E-03 0.00000E+00
 -1       266 0.00000E+00 7.29167E-03 0.00000E+00
 -1       267 0.00000E+00 8.33333E-03 0.00000E+00
 -1       268 0.00000E+00 9.37500E-03 0.00000E+00
 -1       269 0.00000E+00 1.04167E-02 0.00000E+00
 -1       270 0.00000E+00 1.14583E-02 0.00000E+00
 -1       271 1.04167E-03 6.64063E-03 0.00000E+00
 -1       272 2.08333E-03 7.03125E-03 0.00000E+00
 -1       273 3.12500E-03 7.42188E-03 0.00000E+00
 -1       274 4.16667E-03 7.81250E-03 0.00000E+00
 -1       275 5.20833E-03 8.20313E-03 0.00000E+00
 -1       276 6.25000E-03 8.59375E-03 0.00000E+00
 -1       277 7.29167E-03 8.98438E-03 0.00000E+00
 -1       278 8.33333E-03 9.37500E-03 0.00000E+00
 -1       279 9.37500E-03 9.76562E-03 0.00000E+00
 -1       280 1.04167E-02 1.01562E-02 0.00000E+00
 -1       281 1.14583E-02 1.05469E-02 0.00000E+00
 -1       282 1.25000E-02 1.09375E-02 0.00000E+00
 -1       283 1.35417E-02 1.13281E-02 0.00000E+00
 -1       284 1.45833E-02 1.17188E-02 0.00000E+00
 -1       285 1.56250E-02 1.21094E-02 0.00000E+00
 -1       301 1.66667E-02 7.29167E-03 0.00000E+00
 -1       302 1.66667E-02 8.33333E-03 0.00000E+00
 -1       303 1.66667E-02 9.37500E-03 0.00000E+00
 -1       304 1.66667E-02 1.04167E-02 0.00000E+00
 -1       305 1.66667E-02 1.14583E-02 0.00000E+00
 -1       306 1.77083E-02 6.64063E-03 0.00000E+00
 -1       307 1.87500E-02 7.03125E-03 0.00000E+00
 -1       308 1.97917E-02 7.42188E-03 0.00000E+00
 -1       309 2.08333E-02 7.81250E-03 0.00000E+00
 -1       310 2.18750E-02 8.20313E-03 0.00000E+00
 -1       311 2.29167E-02 8.59375E-03 0.00000E+00
 -1       312 2.39583E-02 8.98438E-03 0.00000E+00
 -1       313 2.50000E-02 9.37500E-03 0.00000E+00
 -1       314 2.60417E-02 9.76562E-03 0.00000E+00
 -1       315 2.70833E-02 1.01562E-02 0.00000E+00
 -1       316 2.81250E-02 1.05469E-02 0.00000E+00
 -1       317 2.91667E-02 1.09375E-02 0.00000E+00
 -1       318 3.02083E-02 1.13281E-02 0.00000E+00
 -1       319 3.12500E-02 1.17188E-02 0.00000E+00
 -1       320 3.22917E-02 1.21094E-02 0.00000E+00
 -1       336 3.33333E-02 7.29167E-03 0.00000E+00
 -1       337 3.33333E-02 8.33333E-03 0.00000E+00
 -1       338 3.33333E-02 9.37500E-03 0.00000E+00
 -1       339 3.33333E-02 1.04167E-02 0.00000E+00
 -1       340 3.33333E-02 1.14583E-02 0.00000E+00
 -1       406 6.66667E-02 7.29167E-03 0.00000E+00
 -1       407 6.66667E-02 8.33333E-03 0.00000E+00
 -1       408 6.66667E-02 9.37500E-03 0.00000E+00
 -1       409 6.66667E-02 1.04167E-02 0.00000E+00
 -1       410 6.66667E-02 1.14583E-02 0.00000E+00
 -1       521 1.77083E-02 1.28906E-02 0.00000E+00
 -1       522 1.87500E-02 1.32813E-02 0.00000E+00
 -1       523 1.97917E-02 1.36719E-02 0.00000E+00
 -1       524 2.08333E-02 1.40625E-02 0.00000E+00
 -1       525 2.18750E-02 1.44531E-02 0.00000E+00
 -1       526 2.29167E-02 1.48437E-02 0.00000E+00
 -1       527 2.39583E-02 1.52344E-02 0.00000E+00
 -1       528 2.50000E-02 1.56250E-02 0.00000E+00
 -1       529 2.60417E-02 1.60156E-02 0.00000E+00
 -1       530 2.70833E-02 1.64062E-02 0.00000E+00
 -1       531 2.81250E-02 1.67969E-02 0.00000E+00
 -1       532 2.91667E-02 1.71875E-02 0.00000E+00
 -1       533 3.02083E-02 1.75781E-02 0.00000E+00
 -1       534 3.12500E-02 1.79687E-02 0.00000E+00
 -1       535 3.22917E-02 1.83594E-02 0.00000E+00
 -1       536 3.43750E-02 1.25000E-02 0.00000E+00
 -1       537 3.54167E-02 1.25000E-02 0.00000E+00
 -1       538 3.64583E-02 1.25000E-02 0.00000E+00
 -1       539 3.75000E-02 1.25000E-02 0.00000E+00
 -1       540 3.85417E-02 1.25000E-02 0.00000E+00
 -1       541 3.95833E-02 1.25000E-02 0.00000E+00
 -1       542 4.06250E-02 1.25000E-02 0.00000E+00
 -1       543 4.16667E-02 1.25000E-02 0.00000E+00
 -1       544 4.27083E-02 1.25000E-02 0.00000E+00
 -1       545 4.37500E-02 1.25000E-02 0.00000E+00
 -1       546 4.47917E-02 1.25000E-02 0.00000E+00
 -1       547 4.58333E-02 1.25000E-02 0.00000E+00
 -1       548 4.68750E-02 1.25000E-02 0.00000E+00
 -1       549 4.79167E-02 1.25000E-02 0.00000E+00
 -1       550 4.89583E-02 1.25000E-02 0.00000E+00
 -1       551 3.33333E-02 1.35417E-02 0.00000E+00
 -1       552 3.33333E-02 1.45833E-02 0.00000E+00
 -1       553 3.33333E-02 1.56250E-02 0.00000E+00
 -1       554 3.33333E-02 1.66667E-02 0.00000E+00
 -1       555 3.33333E-02 1.77083E-02 0.00000E+00
 -1       556 3.43750E-02 1.28906E-02 0.00000E+00
 -1       557 3.54167E-02 1.32813E-02 0.00000E+00
 -1       558 3.64583E-02 1.36719E-02 0.00000E+00
 -1       559 3.75000E-02 1.40625E-02 0.00000E+00
 -1       560 3.85417E-02 1.44531E-02 0.00000E+00
 -1       561 3.95833E-02 1.48437E-02 0.00000E+00
 -1       562 4.06250E-02 1.52344E-02 0.00000E+00
 -1       563 4.16667E-02 1.56250E-02 0.00000E+00
 -1       564 4.27083E-02 1.60156E-02 0.00000E+00
 -1       565 4.37500E-02 1.64062E-02 0.00000E+00
 -1       566 4.47917E-02 1.67969E-02 0.00000E+00
 -1       567 4.58333E-02 1.71875E-02 0.00000E+00
 -1       568 4.68750E-02 1.75781E-02 0.00000E+00
 -1       569 4.79167E-02 1.79687E-02 0.00000E+00
 -1       570 4.89583E-02 1.83594E-02 0.00000E+00
 -1       571 5.10417E-02 1.25000E-02 0.00000E+00
 -1       572 5.20833E-02 1.25000E-02 0.00000E+00
 -1       573 5.31250E-02 1.25000E-02 0.00000E+00
 -1       574 5.41667E-02 1.25000E-02 0.00000E+00
 -1       575 5.52083E-02 1.25000E-02 0.00000E+00
 -1       576 5.62500E-02 1.25000E-02 0.00000E+00
 -1       577 5.72917E-02 1.25000E-02 0.00000E+00
 -1       578 5.83333E-02 1.25000E-02 0.00000E+00
 -1       579 5.93750E-02 1.25000E-02 0.00000E+00
 -1       580 6.04167E-02 1.25000E-02 0.00000E+00
 -1       581 6.14583E-02 1.25000E-02 0.00000E+00
 -1       582 6.25000E-02 1.25000E-02 0.00000E+00
 -1       583 6.35417E-02 1.25000E-02 0.00000E+00
 -1       584 6.45833E-02 1.25000E-02 0.00000E+00
 -1       585 6.56250E-02 1.25000E-02 0.00000E+00
 -1       586 5.00000E-02 1.35417E-02 0.00000E+00
 -1       587 5.00000E-02 1.45833E-02 0.00000E+00
 -1       588 5.00000E-02 1.56250E-02 0.00000E+00
 -1       589 5.00000E-02 1.66667E-02 0.00000E+00
 -1       590 5.00000E-02 1.77083E-02 0.00000E+00
 -1       591 5.10417E-02 1.28906E-02 0.00000E+00
 -1       592 5.20833E-02 1.32813E-02 0.00000E+00
 -1       593 5.31250E-02 1.36719E-02 0.00000E+00
 -1       594 5.41667E-02 1.40625E-02 0.00000E+00
 -1       595 5.52083E-02 1.44531E-02 0.00000E+00
 -1       596 5.62500E-02 1.48437E-02 0.00000E+00
 -1       597 5.72917E-02 1.52344E-02 0.00000E+00
 -1       598 5.83333E-02 1.56250E-02 0.00000E+00
 -1       599 5.93750E-02 1.60156E-02 0.00000E+00
 -1       600 6.04167E-02 1.64062E-02 0.00000E+00
 -1       601 6.14583E-02 1.67969E-02 0.00000E+00
 -1       602 6.25000E-02 1.71875E-02 0.00000E+00
 -1       603 6.35417E-02 1.75781E-02 0.00000E+00
 -1       604 6.45833E-02 1.79687E-02 0.00000E+00
 -1       605 6.56250E-02 1.83594E-02 0.00000E+00
 -1       606 6.77083E-02 1.25000E-02 0.00000E+00
 -1       607 6.87500E-02 1.25000E-02 0.00000E+00
 -1       608 6.97917E-02 1.25000E-02 0.00000E+00
 -1       609 7.08333E-02 1.25000E-02 0.00000E+00
 -1       610 7.18750E-02 1.25000E-02 0.00000E+00
 -1       611 7.29167E-02 1.25000E-02 0.00000E+00
 -1       612 7.39583E-02 1.25000E-02 0.00000E+00
 -1       613 7.50000E-02 1.25000E-02 0.00000E+00
 -1       614 7.60417E-02 1.25000E-02 0.00000E+00
 -1       615 7.70833E-02 1.25000E-02 0.00000E+00
 -1       616 7.81250E-02 1.25000E-02 0.00000E+00
 -1       617 7.91667E-02 1.25000E-02 0.00000E+00
 -1       618 8.02083E-02 1.25000E-02 0.00000E+00
 -1       619 8.12500E-02 1.25000E-02 0.00000E+00
 -1       620 8.22917E-02 1.25000E-02 0.00000E+00
 -1       621 6.66667E-02 1.35417E-02 0.00000E+00
 -1       622 6.66667E-02 1.45833E-02 0.00000E+00
 -1       623 6.66667E-02 1.56250E-02 0.00000E+00
 -1       624 6.66667E-02 1.66667E-02 0.00000E+00
 -1       625 6.66667E-02 1.77083E-02 0.00000E+00
 -1       626 6.77083E-02 1.28906E-02 0.00000E+00
 -1       627 6.87500E-02 1.32813E-02 0.00000E+00
 -1       628 6.97917E-02 1.36719E-02 0.00000E+00
 -1       629 7.08333E-02 1.40625E-02 0.00000E+00
 -1       630 7.18750E-02 1.44531E-02 0.00000E+00
 -1       631 7.29167E-02 1.48437E-02 0.00000E+00
 -1       632 7.39583E-02 1.52344E-02 0.00000E+00
 -1       633 7.50000E-02 1.56250E-02 0.00000E+00
 -1       634 7.60417E-02 1.60156E-02 0.00000E+00
 -1       635 7.70833E-02 1.64062E-02 0.00000E+00
 -1       636 7.81250E-02 1.67969E-02 0.00000E+00
 -1       637 7.91667E-02 1.71875E-02 0.00000E+00
 -1       638 8.02083E-02 1.75781E-02 0.00000E+00
 -1       639 8.12500E-02 1.79687E-02 0.00000E+00
 -1       640 8.22917E-02 1.83594E-02 0.00000E+00
 -1       656 8.33333E-02 1.35417E-02 0.00000E+00
 -1       657 8.33333E-02 1.45833E-02 0.00000E+00
 -1       658 8.33333E-02 1.56250E-02 0.00000E+00
 -1       659 8.33333E-02 1.66667E-02 0.00000E+00
 -1       660 8.33333E-02 1.77083E-02 0.00000E+00
 -1       661 8.43750E-02 1.28906E-02 0.00000E+00
 -1       662 8.54167E-02 1.32813E-02 0.00000E+00
 -1       663 8.64583E-02 1.36719E-02 0.00000E+00
 -1       664 8.75000E-02 1.40625E-02 0.00000E+00
 -1       665 8.85417E-02 1.44531E-02 0.00000E+00
 -1       666 8.95833E-02 1.48437E-02 0.00000E+00
 -1       667 9.06250E-02 1.52344E-02 0.00000E+00
 -1       668 9.16667E-02 1.56250E-02 0.00000E+00
 -1       669 9.27083E-02 1.60156E-02 0.00000E+00
 -1       670 9.37500E-02 1.64062E-02 0.00000E+00
 -1       671 9.47917E-02 1.67969E-02 0.00000E+00
 -1       672 9.58333E-02 1.71875E-02 0.00000E+00
 -1       673 9.68750E-02 1.75781E-02 0.00000E+00
 -1       674 9.79167E-02 1.79687E-02 0.00000E+00
 -1       675 9.89583E-02 1.83594E-02 0.00000E+00
 -1       676 1.00000E-01 1.35417E-02 0.00000E+00
 -1       677 1.00000E-01 1.45833E-02 0.00000E+00
 -1       678 1.00000E-01 1.56250E-02 0.00000E+00
 -1       679 1.00000E-01 1.66667E-02 0.00000E+00
 -1       680 1.00000E-01 1.77083E-02 0.00000E+00
 -1       771 3.43750E-02 1.91406E-02 0.00000E+00
 -1       772 3.54167E-02 1.95312E-02 0.00000E+00
 -1       773 3.64583E-02 1.99219E-02 0.00000E+00
 -1       774 3.75000E-02 2.03125E-02 0.00000E+00
 -1       775 3.85417E-02 2.07031E-02 0.00000E+00
 -1       776 3.95833E-02 2.10938E-02 0.00000E+00
 -1       777 4.06250E-02 2.14844E-02 0.00000E+00
 -1       778 4.16667E-02 2.18750E-02 0.00000E+00
 -1       779 4.27083E-02 2.22656E-02 0.00000E+00
 -1       780 4.37500E-02 2.26563E-02 0.00000E+00
 -1       781 4.47917E-02 2.30469E-02 0.00000E+00
 -1       782 4.58333E-02 2.34375E-02 0.00000E+00
 -1       783 4.68750E-02 2.38281E-02 0.00000E+00
 -1       784 4.79167E-02 2.42187E-02 0.00000E+00
 -1       785 4.89583E-02 2.46094E-02 0.00000E+00
 -1       786 5.10417E-02 1.87500E-02 0.00000E+00
 -1       787 5.20833E-02 1.87500E-02 0.00000E+00
 -1       788 5.31250E-02 1.87500E-02 0.00000E+00
 -1       789 5.41667E-02 1.87500E-02 0.00000E+00
 -1       790 5.52083E-02 1.87500E-02 0.00000E+00
 -1       791 5.62500E-02 1.87500E-02 0.00000E+00
 -1       792 5.72917E-02 1.87500E-02 0.00000E+00
 -1       793 5.83333E-02 1.87500E-02 0.00000E+00
 -1       794 5.93750E-02 1.87500E-02 0.00000E+00
 -1       795 6.04167E-02 1.87500E-02 0.00000E+00
 -1       796 6.14583E-02 1.87500E-02 0.00000E+00
 -1       797 6.25000E-02 1.87500E-02 0.00000E+00
 -1       798 6.35417E-02 1.87500E-02 0.00000E+00
 -1       799 6.45833E-02 1.87500E-02 0.00000E+00
 -1       800 6.56250E-02 1.87500E-02 0.00000E+00
 -1       801 5.00000E-02 1.97917E-02 0.00000E+00
 -1       802 5.00000E-02 2.08333E-02 0.00000E+00
 -1       803 5.00000E-02 2.18750E-02 0.00000E+00
 -1       804 5.00000E-02 2.29167E-02 0.00000E+00
 -1       805 5.00000E-02 2.39583E-02 0.00000E+00
 -1       806 5.10417E-02 1.91406E-02 0.00000E+00
 -1       807 5.20833E-02 1.95312E-02 0.00000E+00
 -1       808 5.31250E-02 1.99219E-02 0.00000E+00
 -1       809 5.41667E-02 2.03125E-02 0.00000E+00
 -1       810 5.52083E-02 2.07031E-02 0.00000E+00
 -1       811 5.62500E-02 2.10938E-02 0.00000E+00
 -1       812 5.72917E-02 2.14844E-02 0.00000E+00
 -1       813 5.83333E-02 2.18750E-02 0.00000E+00
 -1       814 5.93750E-02 2.22656E-02 0.00000E+00
 -1       815 6.04167E-02 2.26563E-02 0.00000E+00
 -1       816 6.14583E-02 2.30469E-02 0.00000E+00
 -1       817 6.25000E-02 2.34375E-02 0.00000E+00
 -1       818 6.35417E-02 2.38281E-02 0.00000E+00
 -1       819 6.45833E-02 2.42187E-02 0.00000E+00
 -1       820 6.56250E-02 2.46094E-02 0.00000E+00
 -1       821 6.77083E-02 1.87500E-02 0.00000E+00
 -1       822 6.87500E-02 1.87500E-02 0.00000E+00
 -1       823 6.97917E-02 1.87500E-02 0.00000E+00
 -1       824 7.08333E-02 1.87500E-02 0.00000E+00
 -1       825 7.18750E-02 1.87500E-02 0.00000E+00
 -1       826 7.29167E-02 1.87500E-02 0.00000E+00
 -1       827 7.39583E-02 1.87500E-02 0.00000E+00
 -1       828 7.50000E-02 1.87500E-02 0.00000E+00
 -1       829 7.60417E-02 1.87500E-02 0.00000E+00
 -1       830 7.70833E-02 1.87500E-02 0.00000E+00
 -1       831 7.81250E-02 1.87500E-02 0.00000E+00
 -1       832 7.91667E-02 1.87500E-02 0.00000E+00
 -1       833 8.02083E-02 1.87500E-02 0.00000E+00
 -1       834 8.12500E-02 1.87500E-02 0.00000E+00
 -1       835 8.22917E-02 1.87500E-02 0.00000E+00
 -1       836 6.66667E-02 1.97917E-02 0.00000E+00
 -1       837 6.66667E-02 2.08333E-02 0.00000E+00
 -1       838 6.66667E-02 2.18750E-02 0.00000E+00
 -1       839 6.66667E-02 2.29167E-02 0.00000E+00
 -1       840 6.66667E-02 2.39583E-02 0.00000E+00
 -1       856 8.43750E-02 1.87500E-02 0.00000E+00
 -1       857 8.54167E-02 1.87500E-02 0.00000E+00
 -1       858 8.64583E-02 1.87500E-02 0.00000E+00
 -1       859 8.75000E-02 1.87500E-02 0.00000E+00
 -1       860 8.85417E-02 1.87500E-02 0.00000E+00
 -1       861 8.95833E-02 1.87500E-02 0.00000E+00
 -1       862 9.06250E-02 1.87500E-02 0.00000E+00
 -1       863 9.16667E-02 1.87500E-02 0.00000E+00
 -1       864 9.27083E-02 1.87500E-02 0.00000E+00
 -1       865 9.37500E-02 1.87500E-02 0.00000E+00
 -1       866 9.47917E-02 1.87500E-02 0.00000E+00
 -1       867 9.58333E-02 1.87500E-02 0.00000E+00
 -1       868 9.68750E-02 1.87500E-02 0.00000E+00
 -1       869 9.79167E-02 1.87500E-02 0.00000E+00
 -1       870 9.89583E-02 1.87500E-02 0.00000E+00
 -1       871 8.33333E-02 1.97917E-02 0.00000E+00
 -1       872 8.33333E-02 2.08333E-02 0.00000E+00
 -1       873 8.33333E-02 2.18750E-02 0.00000E+00
 -1       874 8.33333E-02 2.29167E-02 0.00000E+00
 -1       875 8.33333E-02 2.39583E-02 0.00000E+00
 -1       876 8.43750E-02 1.91406E-02 0.00000E+00
 -1       877 8.54167E-02 1.95312E-02 0.00000E+00
 -1       878 8.64583E-02 1.99219E-02 0.00000E+00
 -1       879 8.75000E-02 2.03125E-02 0.00000E+00
 -1       880 8.85417E-02 2.07031E-02 0.00000E+00
 -1       881 8.95833E-02 2.10938E-02 0.00000E+00
 -1       882 9.06250E-02 2.14844E-02 0.00000E+00
 -1       883 9.16667E-02 2.18750E-02 0.00000E+00
 -1       884 9.27083E-02 2.22656E-02 0.00000E+00
 -1       885 9.37500E-02 2.26563E-02 0.00000E+00
 -1       886 9.47917E-02 2.30469E-02 0.00000E+00
 -1       887 9.58333E-02 2.34375E-02 0.00000E+00
 -1       888 9.68750E-02 2.38281E-02 0.00000E+00
 -1       889 9.79167E-02 2.42187E-02 0.00000E+00
 -1       890 9.89583E-02 2.46094E-02 0.00000E+00
 -1       891 1.00000E-01 1.97917E-02 0.00000E+00
 -1       892 1.00000E-01 2.08333E-02 0.00000E+00
 -1       893 1.00000E-01 2.18750E-02 0.00000E+00
 -1       894 1.00000E-01 2.29167E-02 0.00000E+00
 -1       895 1.00000E-01 2.39583E-02 0.00000E+00
 -1       956 6.77083E-02 2.50000E-02 0.00000E+00
 -1       957 6.87500E-02 2.50000E-02 0.00000E+00
 -1       958 6.97917E-02 2.50000E-02 0.00000E+00
 -1       959 7.08333E-02 2.50000E-02 0.00000E+00
 -1       960 7.18750E-02 2.50000E-02 0.00000E+00
 -1       961 7.29167E-02 2.50000E-02 0.00000E+00
 -1       962 7.39583E-02 2.50000E-02 0.00000E+00
 -1       963 7.50000E-02 2.50000E-02 0.00000E+00
 -1       964 7.60417E-02 2.50000E-02 0.00000E+00
 -1       965 7.70833E-02 2.50000E-02 0.00000E+00
 -1       966 7.81250E-02 2.50000E-02 0.00000E+00
 -1       967 7.91667E-02 2.50000E-02 0.00000E+00
 -1       968 8.02083E-02 2.50000E-02 0.00000E+00
 -1       969 8.12500E-02 2.50000E-02 0.00000E+00
 -1       970 8.22917E-02 2.50000E-02 0.00000E+00
 -1       971 8.43750E-02 2.50000E-02 0.00000E+00
 -1       972 8.54167E-02 2.50000E-02 0.00000E+00
 -1       973 8.64583E-02 2.50000E-02 0.00000E+00
 -1       974 8.75000E-02 2.50000E-02 0.00000E+00
 -1       975 8.85417E-02 2.50000E-02 0.00000E+00
 -1       976 8.95833E-02 2.50000E-02 0.00000E+00
 -1       977 9.06250E-02 2.50000E-02 0.00000E+00
 -1       978 9.16667E-02 2.50000E-02 0.00000E+00
 -1       979 9.27083E-02 2.50000E-02 0.00000E+00
 -1       980 9.37500E-02 2.50000E-02 0.00000E+00
 -1       981 9.47917E-02 2.50000E-02 0.00000E+00
 -1       982 9.58333E-02 2.50000E-02 0.00000E+00
 -1       983 9.68750E-02 2.50000E-02 0.00000E+00
 -1       984 9.79167E-02 2.50000E-02 0.00000E+00
 -1       985 9.89583E-02 2.50000E-02 0.00000E+00
 -3
    3C                           211                                     1
 -1         1   12    0    1
 -2         1        52        51
 -1         2   12    0    1
 -2        52        54        53
 -1         3   12    0    1
 -2        54         8        55
 -1         4   12    0    1
 -2         1        57        56
 -1         5   12    0    1
 -2        57        59        58
 -1         6   12    0    1
 -2        59        61        60
 -1         7   12    0    1
 -2        61        63        62
 -1         8   12    0    1
 -2        63        65        64
 -1         9   12    0    1
 -2        65        67        66
 -1        10   12    0    1
 -2        67        69        68
 -1        11   12    0    1
 -2        69         9        70
 -1        12   12    0    1
 -2         2        87        86
 -1        13   12    0    1
 -2        87        89        88
 -1        14   12    0    1
 -2        89         9        90
 -1        15   12    0    1
 -2         3       122       121
 -1        16   12    0    1
 -2       122       124       123
 -1        17   12    0    1
 -2       124        10       125
 -1        18   12    0    1
 -2         5       192       191
 -1        19   12    0    1
 -2       192       194       193
 -1        20   12    0    1
 -2       194        12       195
 -1        21   12    0    1
 -2         8       252       251
 -1        22   12    0    1
 -2       252       254       253
 -1        23   12    0    1
 -2       254       256       255
 -1        24   12    0    1
 -2       256       258       257
 -1        25   12    0    1
 -2       258       260       259
 -1        26   12    0    1
 -2       260       262       261
 -1        27   12    0    1
 -2       262       264       263
 -1        28   12    0    1
 -2       264         9       265
 -1        29   12    0    1
 -2         8       267       266
 -1        30   12    0    1
 -2       267       269       268
 -1        31   12    0    1
 -2       269        15       270
 -1        32   12    0    1
 -2         8       272       271
 -1        33   12    0    1
 -2       272       274       273
 -1        34   12    0    1
 -2       274       276       275
 -1        35   12    0    1
 -2       276       278       277
 -1        36   12    0    1
 -2       278       280       279
 -1        37   12    0    1
 -2       280       282       281
 -1        38   12    0    1
 -2       282       284       283
 -1        39   12    0    1
 -2       284        16       285
 -1        40   12    0    1
 -2         9       302       301
 -1        41   12    0    1
 -2       302       304       303
 -1        42   12    0    1
 -2       304        16       305
 -1        43   12    0    1
 -2         9       307       306
 -1        44   12    0    1
 -2       307       309       308
 -1        45   12    0    1
 -2       309       311       310
 -1        46   12    0    1
 -2       311       313       312
 -1        47   12    0    1
 -2       313       315       314
 -1        48   12    0    1
 -2       315       317       316
 -1        49   12    0    1
 -2       317       319       318
 -1        50   12    0    1
 -2       319        17       320
 -1        51   12    0    1
 -2        10       337       336
 -1        52   12    0    1
 -2       337       339       338
 -1        53   12    0    1
 -2       339        17       340
 -1        54   12    0    1
 -2        12       407       406
 -1        55   12    0    1
 -2       407       409       408
 -1        56   12    0    1
 -2       409        19       410
 -1        57   12    0    1
 -2        16       522       521
 -1        58   12    0    1
 -2       522       524       523
 -1        59   12    0    1
 -2       524       526       525
 -1        60   12    0    1
 -2       526       528       527
 -1        61   12    0    1
 -2       528       530       529
 -1        62   12    0    1
 -2       530       532       531
 -1        63   12    0    1
 -2       532       534       533
 -1        64   12    0    1
 -2       534        24       535
 -1        65   12    0    1
 -2        17       537       536
 -1        66   12    0    1
 -2       537       539       538
 -1        67   12    0    1
 -2       539       541       540
 -1        68   12    0    1
 -2       541       543       542
 -1        69   12    0    1
 -2       543       545       544
 -1        70   12    0    1
 -2       545       547       546
 -1        71   12    0    1
 -2       547       549       548
 -1        72   12    0    1
 -2       549        18       550
 -1        73   12    0    1
 -2        17       552       551
 -1        74   12    0    1
 -2       552       554       553
 -1        75   12    0    1
 -2       554        24       555
 -1        76   12    0    1
 -2        17       557       556
 -1        77   12    0    1
 -2       557       559       558
 -1        78   12    0    1
 -2       559       561       560
 -1        79   12    0    1
 -2       561       563       562
 -1        80   12    0    1
 -2       563       565       564
 -1        81   12    0    1
 -2       565       567       566
 -1        82   12    0    1
 -2       567       569       568
 -1        83   12    0    1
 -2       569        25       570
 -1        84   12    0    1
 -2        18       572       571
 -1        85   12    0    1
 -2       572       574       573
 -1        86   12    0    1
 -2       574       576       575
 -1        87   12    0    1
 -2       576       578       577
 -1        88   12    0    1
 -2       578       580       579
 -1        89   12    0    1
 -2       580       582       581
 -1        90   12    0    1
 -2       582       584       583
 -1        91   12    0    1
 -2       584        19       585
 -1        92   12    0    1
 -2        18       587       586
 -1        93   12    0    1
 -2       587       589       588
 -1        94   12    0    1
 -2       589        25       590
 -1        95   12    0    1
 -2        18       592       591
 -1        96   12    0    1
 -2       592       594       593
 -1        97   12    0    1
 -2       594       596       595
 -1        98   12    0    1
 -2       596       598       597
 -1        99   12    0    1
 -2       598       600       599
 -1       100   12    0    1
 -2       600       602       601
 -1       101   12    0    1
 -2       602       604       603
 -1       102   12    0    1
 -2       604        26       605
 -1       103   12    0    1
 -2        19       607       606
 -1       104   12    0    1
 -2       607       609       608
 -1       105   12    0    1
 -2       609       611       610
 -1       106   12    0    1
 -2       611       613       612
 -1       107   12    0    1
 -2       613       615       614
 -1       108   12    0    1
 -2       615       617       616
 -1       109   12    0    1
 -2       617       619       618
 -1       110   12    0    1
 -2       619        20       620
 -1       111   12    0    1
 -2        19       622       621
 -1       112   12    0    1
 -2       622       624       623
 -1       113   12    0    1
 -2       624        26       625
 -1       114   12    0    1
 -2        19       627       626
 -1       115   12    0    1
 -2       627       629       628
 -1       116   12    0    1
 -2       629       631       630
 -1       117   12    0    1
 -2       631       633       632
 -1       118   12    0    1
 -2       633       635       634
 -1       119   12    0    1
 -2       635       637       636
 -1       120   12    0    1
 -2       637       639       638
 -1       121   12    0    1
 -2       639        27       640
 -1       122   12    0    1
 -2        20       657       656
 -1       123   12    0    1
 -2       657       659       658
 -1       124   12    0    1
 -2       659        27       660
 -1       125   12    0    1
 -2        20       662       661
 -1       126   12    0    1
 -2       662       664       663
 -1       127   12    0    1
 -2       664       666       665
 -1       128   12    0    1
 -2       666       668       667
 -1       129   12    0    1
 -2       668       670       669
 -1       130   12    0    1
 -2       670       672       671
 -1       131   12    0    1
 -2       672       674       673
 -1       132   12    0    1
 -2       674        28       675
 -1       133   12    0    1
 -2        21       677       676
 -1       134   12    0    1
 -2       677       679       678
 -1       135   12    0    1
 -2       679        28       680
 -1       136   12    0    1
 -2        24       772       771
 -1       137   12    0    1
 -2       772       774       773
 -1       138   12    0    1
 -2       774       776       775
 -1       139   12    0    1
 -2       776       778       777
 -1       140   12    0    1
 -2       778       780       779
 -1       141   12    0    1
 -2       780       782       781
 -1       142   12    0    1
 -2       782       784       783
 -1       143   12    0    1
 -2       784        32       785
 -1       144   12    0    1
 -2        25       787       786
 -1       145   12    0    1
 -2       787       789       788
 -1       146   12    0    1
 -2       789       791       790
 -1       147   12    0    1
 -2       791       793       792
 -1       148   12    0    1
 -2       793       795       794
 -1       149   12    0    1
 -2       795       797       796
 -1       150   12    0    1
 -2       797       799       798
 -1       151   12    0    1
 -2       799        26       800
 -1       152   12    0    1
 -2        25       802       801
 -1       153   12    0    1
 -2       802       804       803
 -1       154   12    0    1
 -2       804        32       805
 -1       155   12    0    1
 -2        25       807       806
 -1       156   12    0    1
 -2       807       809       808
 -1       157   12    0    1
 -2       809       811       810
 -1       158   12    0    1
 -2       811       813       812
 -1       159   12    0    1
 -2       813       815       814
 -1       160   12    0    1
 -2       815       817       816
 -1       161   12    0    1
 -2       817       819       818
 -1       162   12    0    1
 -2       819        33       820
 -1       163   12    0    1
 -2        26       822       821
 -1       164   12    0    1
 -2       822       824       823
 -1       165   12    0    1
 -2       824       826       825
 -1       166   12    0    1
 -2       826       828       827
 -1       167   12    0    1
 -2       828       830       829
 -1       168   12    0    1
 -2       830       832       831
 -1       169   12    0    1
 -2       832       834       833
 -1       170   12    0    1
 -2       834        27       835
 -1       171   12    0    1
 -2        26       837       836
 -1       172   12    0    1
 -2       837       839       838
 -1       173   12    0    1
 -2       839        33       840
 -1       174   12    0    1
 -2        27       857       856
 -1       175   12    0    1
 -2       857       859       858
 -1       176   12    0    1
 -2       859       861       860
 -1       177   12    0    1
 -2       861       863       862
 -1       178   12    0    1
 -2       863       865       864
 -1       179   12    0    1
 -2       865       867       866
 -1       180   12    0    1
 -2       867       869       868
 -1       181   12    0    1
 -2       869        28       870
 -1       182   12    0    1
 -2        27       872       871
 -1       183   12    0    1
 -2       872       874       873
 -1       184   12    0    1
 -2       874        34       875
 -1       185   12    0    1
 -2        27       877       876
 -1       186   12    0    1
 -2       877       879       878
 -1       187   12    0    1
 -2       879       881       880
 -1       188   12    0    1
 -2       881       883       882
 -1       189   12    0    1
 -2       883       885       884
 -1       190   12    0    1
 -2       885       887       886
 -1       191   12    0    1
 -2       887       889       888
 -1       192   12    0    1
 -2       889        35       890
 -1       193   12    0    1
 -2        28       892       891
 -1       194   12    0    1
 -2       892       894       893
 -1       195   12    0    1
 -2       894        35       895
 -1       196   12    0    1
 -2        33       957       956
 -1       197   12    0    1
 -2       957       959       958
 -1       198   12    0    1
 -2       959       961       960
 -1       199   12    0    1
 -2       961       963       962
 -1       200   12    0    1
 -2       963       965       964
 -1       201   12    0    1
 -2       965       967       966
 -1       202   12    0    1
 -2       967       969       968
 -1       203   12    0    1
 -2       969        34       970
 -1       204   12    0    1
 -2        34       972       971
 -1       205   12    0    1
 -2       972       974       973
 -1       206   12    0    1
 -2       974       976       975
 -1       207   12    0    1
 -2       976       978       977
 -1       208   12    0    1
 -2       978       980       979
 -1       209   12    0    1
 -2       980       982       981
 -1       210   12    0    1
 -2       982       984       983
 -1       211   12    0    1
 -2       984        35       985
 -3
    1PSTEP                         1           1           1          
  100CL  101 2.50000E-01         409                     0    1           1
 -4  DISP        4    1
 -5  D1          1    2    1    0
 -5  D2          1    2    2    0
 -5  D3          1    2    3    0
 -5  ALL         1    2    0    0    1ALL
 -1         1 4.87839E-05 0.00000E+00 0.00000E+00
 -1         2 4.38380E-05 3.57440E-31 0.00000E+00
 -1         3 3.83896E-05-1.48730E-27 3.30872E-24
 -1         5 2.76352E-05 2.01995E-26 0.00000E+00
 -1         8 3.94374E-05-3.81585E-07 0.00000E+00
 -1         9 3.48502E-05-7.85017E-07 0.00000E+00
 -1        10 3.54497E-05-7.74589E-07 0.00000E+00
 -1        12 2.73321E-05 2.87547E-07-8.27181E-25
 -1        15 2.89447E-05-4.01991E-07 0.00000E+00
 -1        16 2.45461E-05-8.42079E-07 0.00000E+00
 -1        17 2.58938E-05-1.62181E-06 0.00000E+00
 -1        18 2.58958E-05-1.44124E-07 0.00000E+00
 -1        19 2.64229E-05 5.73428E-07 0.00000E+00
 -1        20 2.65740E-05 7.41937E-06 0.00000E+00
 -1        21 2.60331E-05 1.57591E-05 1.65436E-24
 -1        24 7.72168E-06-2.04655E-06 0.00000E+00
 -1        25 2.48137E-05-6.48958E-08 0.00000E+00
 -1        26 2.52372E-05 7.81779E-07 0.00000E+00
 -1        27 2.46334E-05 6.98291E-06 0.00000E+00
 -1        28 2.42065E-05 1.55088E-05 0.00000E+00
 -1        32 0.00000E+00 0.00000E+00 0.00000E+00
 -1        33 2.37724E-05 1.04478E-06 0.00000E+00
 -1        34 2.31205E-05 6.95802E-06 0.00000E+00
 -1        35 2.23441E-05 1.53756E-05 0.00000E+00
 -1        51 4.81195E-05-6.40351E-08 0.00000E+00
 -1        52 4.69693E-05-1.25916E-07 0.00000E+00
 -1        53 4.54274E-05-1.87648E-07 0.00000E+00
 -1        54 4.35922E-05-2.49953E-07 0.00000E+00
 -1        55 4.15625E-05-3.13536E-07-1.24077E-24
 -1        56 4.80627E-05-3.66688E-07 0.00000E+00
 -1        57 4.73721E-05-8.98874E-07-1.32349E-23
 -1        58 4.67250E-05-1.54195E-06-2.64698E-23
 -1        59 4.60975E-05-2.25220E-06 0.00000E+00
 -1        60 4.54756E-05-2.97783E-06-2.64698E-23
 -1        61 4.48398E-05-3.66881E-06-1.32349E-23
 -1        62 4.41727E-05-4.27671E-06-2.64698E-23
 -1        63 4.34570E-05-4.75523E-06 1.32349E-23
 -1        64 4.26782E-05-5.06546E-06 2.64698E-23
 -1        65 4.18232E-05-5.17211E-06-1.32349E-23
 -1        66 4.08831E-05-5.05178E-06-2.64698E-23
 -1        67 3.98516E-05-4.68571E-06 0.00000E+00
 -1        68 3.87263E-05-4.06990E-06 2.64698E-23
 -1        69 3.75120E-05-3.20386E-06-1.32349E-23
 -1        70 3.62085E-05-2.10538E-06-1.32349E-23
 -1        86 4.34691E-05-1.29221E-07 3.30872E-24
 -1        87 4.23644E-05-2.59012E-07 1.65436E-24
 -1        88 4.07174E-05-3.89508E-07-3.30872E-24
 -1        89 3.87250E-05-5.20925E-07-1.65436E-24
 -1        90 3.66737E-05-6.52344E-07 3.30872E-24
 -1       121 3.83077E-05-1.28892E-07 3.30872E-24
 -1       122 3.80621E-05-2.57813E-07-1.65436E-24
 -1       123 3.76529E-05-3.86791E-07-3.30872E-24
 -1       124 3.70807E-05-5.15878E-07 0.00000E+00
 -1       125 3.63460E-05-6.45058E-07 3.30872E-24
 -1       191 2.76268E-05 4.79279E-08-1.65436E-24
 -1       192 2.76015E-05 9.58550E-08 8.27181E-25
 -1       193 2.75594E-05 1.43782E-07-1.65436E-24
 -1       194 2.75005E-05 1.91707E-07 0.00000E+00
 -1       195 2.74247E-05 2.39629E-07 3.30872E-24
 -1       251 3.91621E-05 2.42641E-06 0.00000E+00
 -1       252 3.88745E-05 7.31697E-06 3.30872E-24
 -1       253 3.85863E-05 1.23894E-05 0.00000E+00
 -1       254 3.83042E-05 1.57403E-05 0.00000E+00
 -1       255 3.80268E-05 1.63427E-05 6.61744E-24
 -1       256 3.77447E-05 1.32034E-05 0.00000E+00
 -1       257 3.74507E-05 7.22855E-06-6.61744E-24
 -1       258 3.71440E-05-6.40480E-07 0.00000E+00
 -1       259 3.68374E-05-8.49921E-06 0.00000E+00
 -1       260 3.65435E-05-1.44430E-05 0.00000E+00
 -1       261 3.62615E-05-1.75412E-05 0.00000E+00
 -1       262 3.59840E-05-1.68985E-05 0.00000E+00
 -1       263 3.57019E-05-1.35183E-05 0.00000E+00
 -1       264 3.54136E-05-8.43814E-06 0.00000E+00
 -1       265 3.51259E-05-3.56039E-06 0.00000E+00
 -1       266 3.76886E-05-3.90776E-07 0.00000E+00
 -1       267 3.59398E-05-3.93468E-07-8.27181E-25
 -1       268 3.41910E-05-3.96580E-07 0.00000E+00
 -1       269 3.24422E-05-3.98466E-07 0.00000E+00
 -1       270 3.06935E-05-4.00326E-07-2.06795E-25
 -1       271 3.80763E-05 8.18604E-07-1.32349E-23
 -1       272 3.68602E-05 1.54832E-06 1.32349E-23
 -1       273 3.57983E-05 1.87148E-06-2.64698E-23
 -1       274 3.48629E-05 1.84408E-06 0.00000E+00
 -1       275 3.40345E-05 1.53073E-06 0.00000E+00
 -1       276 3.32875E-05 9.97765E-07 0.00000E+00
 -1       277 3.25964E-05 3.15115E-07 0.00000E+00
 -1       278 3.19345E-05-4.45709E-07 1.32349E-23
 -1       279 3.12746E-05-1.21203E-06 0.00000E+00
 -1       280 3.05897E-05-1.91109E-06-1.32349E-23
 -1       281 2.98528E-05-2.47118E-06-2.64698E-23
 -1       282 2.90382E-05-2.82216E-06 1.32349E-23
 -1       283 2.81204E-05-2.89710E-06 0.00000E+00
 -1       284 2.70786E-05-2.63108E-06 0.00000E+00
 -1       285 2.58861E-05-1.96696E-06-1.32349E-23
 -1       301 3.31284E-05-7.97963E-07-3.30872E-24
 -1       302 3.14006E-05-8.03799E-07 0.00000E+00
 -1       303 2.96726E-05-8.08995E-07-1.65436E-24
 -1       304 2.79503E-05-8.14763E-07 0.00000E+00
 -1       305 2.62395E-05-8.22158E-07 3.30872E-24
 -1       306 3.38282E-05 4.33748E-07-1.32349E-23
 -1       307 3.30016E-05 1.09011E-06 0.00000E+00
 -1       308 3.23572E-05 1.26364E-06-1.32349E-23
 -1       309 3.18622E-05 1.03161E-06 6.61744E-24
 -1       310 3.14877E-05 4.77998E-07-1.32349E-23
 -1       311 3.12009E-05-3.11285E-07 0.00000E+00
 -1       312 3.09690E-05-1.24729E-06 0.00000E+00
 -1       313 3.07582E-05-2.23996E-06 0.00000E+00
 -1       314 3.05347E-05-3.19844E-06 1.32349E-23
 -1       315 3.02645E-05-4.03220E-06 0.00000E+00
 -1       316 2.99145E-05-4.65230E-06 0.00000E+00
 -1       317 2.94522E-05-4.97150E-06 6.61744E-24
 -1       318 2.88460E-05-4.90639E-06 0.00000E+00
 -1       319 2.80683E-05-4.37582E-06 6.61744E-24
 -1       320 2.70870E-05-3.30650E-06 6.61744E-24
 -1       336 3.43688E-05-9.15404E-07 0.00000E+00
 -1       337 3.30808E-05-1.05665E-06-1.65436E-24
 -1       338 3.15872E-05-1.19813E-06 3.30872E-24
 -1       339 2.98900E-05-1.33964E-06 0.00000E+00
 -1       340 2.79913E-05-1.48155E-06 0.00000E+00
 -1       406 2.72226E-05 3.35457E-07-1.65436E-24
 -1       407 2.70963E-05 3.83349E-07 0.00000E+00
 -1       408 2.69531E-05 4.31207E-07 0.00000E+00
 -1       409 2.67931E-05 4.78968E-07 0.00000E+00
 -1       410 2.66163E-05 5.26533E-07-1.65436E-24
 -1       521 2.31044E-05 2.01964E-07 0.00000E+00
 -1       522 2.18331E-05 7.09251E-07 1.32349E-23
 -1       523 2.07364E-05 7.55907E-07-2.64698E-23
 -1       524 1.97809E-05 4.12718E-07 1.32349E-23
 -1       525 1.89401E-05-2.37275E-07 0.00000E+00
 -1       526 1.81809E-05-1.10781E-06 0.00000E+00
 -1       527 1.74700E-05-2.10729E-06 0.00000E+00
 -1       528 1.67722E-05-3.14234E-06-1.32349E-23
 -1       529 1.60524E-05-4.11866E-06 0.00000E+00
 -1       530 1.52758E-05-4.94296E-06 0.00000E+00
 -1       531 1.44087E-05-5.52536E-06 0.00000E+00
 -1       532 1.34195E-05-5.77965E-06 1.32349E-23
 -1       533 1.22780E-05-5.62729E-06 0.00000E+00
 -1       534 1.09610E-05-4.99461E-06-1.32349E-23
 -1       535 9.43943E-06-3.82217E-06 0.00000E+00
 -1       536 2.58882E-05 3.20452E-07-1.65436E-24
 -1       537 2.58871E-05 1.78537E-06-4.13590E-25
 -1       538 2.58865E-05 2.82232E-06 4.13590E-25
 -1       539 2.58868E-05 3.48079E-06 0.00000E+00
 -1       540 2.58873E-05 3.81020E-06 0.00000E+00
 -1       541 2.58880E-05 3.86001E-06 0.00000E+00
 -1       542 2.58887E-05 3.67966E-06 0.00000E+00
 -1       543 2.58894E-05 3.31859E-06 0.00000E+00
 -1       544 2.58901E-05 2.82623E-06 2.50416E-26
 -1       545 2.58907E-05 2.25201E-06 0.00000E+00
 -1       546 2.58913E-05 1.64537E-06 0.00000E+00
 -1       547 2.58920E-05 1.05574E-06-2.58494E-26
 -1       548 2.58927E-05 5.32546E-07 1.03398E-25
 -1       549 2.58935E-05 1.25218E-07-1.03398E-25
 -1       550 2.58944E-05-1.16801E-07 0.00000E+00
 -1       551 2.32121E-05-1.68980E-06 2.48154E-24
 -1       552 2.01941E-05-1.75753E-06-3.10193E-25
 -1       553 1.69868E-05-1.82595E-06-3.30872E-24
 -1       554 1.37397E-05-1.89547E-06 0.00000E+00
 -1       555 1.06021E-05-1.96620E-06 0.00000E+00
 -1       556 2.51528E-05 2.55854E-07 0.00000E+00
 -1       557 2.45819E-05 1.69095E-06 0.00000E+00
 -1       558 2.41626E-05 2.72467E-06 0.00000E+00
 -1       559 2.38779E-05 3.40151E-06 0.00000E+00
 -1       560 2.37106E-05 3.76588E-06 0.00000E+00
 -1       561 2.36439E-05 3.86244E-06 0.00000E+00
 -1       562 2.36610E-05 3.73585E-06 0.00000E+00
 -1       563 2.37449E-05 3.43084E-06 0.00000E+00
 -1       564 2.38790E-05 2.99214E-06 0.00000E+00
 -1       565 2.40464E-05 2.46447E-06 0.00000E+00
 -1       566 2.42304E-05 1.89260E-06 0.00000E+00
 -1       567 2.44141E-05 1.32127E-06-1.03398E-25
 -1       568 2.45810E-05 7.95238E-07 0.00000E+00
 -1       569 2.47142E-05 3.59204E-07 0.00000E+00
 -1       570 2.47970E-05 5.78794E-08 0.00000E+00
 -1       571 2.59277E-05-8.04957E-08 6.20385E-25
 -1       572 2.59603E-05-3.75962E-08 1.03398E-25
 -1       573 2.59932E-05-1.17029E-08 0.00000E+00
 -1       574 2.60262E-05 1.10131E-09 0.00000E+00
 -1       575 2.60592E-05 4.75074E-09 0.00000E+00
 -1       576 2.60923E-05 3.20608E-09-4.13590E-25
 -1       577 2.61254E-05 4.30128E-10-8.27181E-25
 -1       578 2.61584E-05 3.89163E-10 0.00000E+00
 -1       579 2.61915E-05 7.04977E-09 1.65436E-24
 -1       580 2.62246E-05 2.43784E-08-8.27181E-25
 -1       581 2.62576E-05 5.63409E-08 0.00000E+00
 -1       582 2.62907E-05 1.06899E-07 0.00000E+00
 -1       583 2.63238E-05 1.80010E-07-1.65436E-24
 -1       584 2.63568E-05 2.79590E-07 0.00000E+00
 -1       585 2.63899E-05 4.09532E-07 1.65436E-24
 -1       586 2.57245E-05-1.30485E-07 0.00000E+00
 -1       587 2.55310E-05-1.16914E-07 0.00000E+00
 -1       588 2.53291E-05-1.03401E-07 2.06795E-25
 -1       589 2.51330E-05-9.00318E-08 0.00000E+00
 -1       590 2.49566E-05-7.69450E-08 0.00000E+00
 -1       591 2.58497E-05-6.85555E-08 2.06795E-25
 -1       592 2.58082E-05-9.35544E-09 0.00000E+00
 -1       593 2.57713E-05 3.67700E-08 0.00000E+00
 -1       594 2.57381E-05 7.27535E-08 0.00000E+00
 -1       595 2.57075E-05 1.01550E-07-4.13590E-25
 -1       596 2.56785E-05 1.26091E-07 0.00000E+00
 -1       597 2.56499E-05 1.49305E-07 0.00000E+00
 -1       598 2.56208E-05 1.74117E-07 0.00000E+00
 -1       599 2.55900E-05 2.03455E-07 4.13590E-25
 -1       600 2.55564E-05 2.40242E-07 0.00000E+00
 -1       601 2.55189E-05 2.87404E-07 0.00000E+00
 -1       602 2.54764E-05 3.47870E-07 1.03398E-25
 -1       603 2.54279E-05 4.24569E-07 0.00000E+00
 -1       604 2.53724E-05 5.20450E-07 7.75482E-26
 -1       605 2.53087E-05 6.38444E-07 0.00000E+00
 -1       606 2.64337E-05 8.04500E-07 0.00000E+00
 -1       607 2.64435E-05 1.07350E-06 0.00000E+00
 -1       608 2.64531E-05 1.37818E-06-1.65436E-24
 -1       609 2.64626E-05 1.71602E-06 0.00000E+00
 -1       610 2.64719E-05 2.08447E-06 0.00000E+00
 -1       611 2.64813E-05 2.48096E-06 8.27181E-25
 -1       612 2.64906E-05 2.90290E-06 0.00000E+00
 -1       613 2.65000E-05 3.34771E-06 0.00000E+00
 -1       614 2.65093E-05 3.81281E-06 8.27181E-25
 -1       615 2.65186E-05 4.29560E-06 0.00000E+00
 -1       616 2.65279E-05 4.79352E-06 0.00000E+00
 -1       617 2.65372E-05 5.30396E-06 0.00000E+00
 -1       618 2.65464E-05 5.82435E-06 0.00000E+00
 -1       619 2.65557E-05 6.35211E-06 0.00000E+00
 -1       620 2.65649E-05 6.88464E-06 0.00000E+00
 -1       621 2.62154E-05 6.08334E-07 0.00000E+00
 -1       622 2.60082E-05 6.43339E-07 0.00000E+00
 -1       623 2.58040E-05 6.78326E-07-8.27181E-25
 -1       624 2.56056E-05 7.13222E-07 0.00000E+00
 -1       625 2.54158E-05 7.47978E-07-8.27181E-25
 -1       626 2.63682E-05 8.21858E-07-1.65436E-24
 -1       627 2.62991E-05 1.10900E-06-1.65436E-24
 -1       628 2.62168E-05 1.43116E-06-1.65436E-24
 -1       629 2.61229E-05 1.78437E-06 0.00000E+00
 -1       630 2.60188E-05 2.16465E-06 0.00000E+00
 -1       631 2.59061E-05 2.56796E-06 0.00000E+00
 -1       632 2.57863E-05 2.99029E-06-1.65436E-24
 -1       633 2.56608E-05 3.42762E-06 0.00000E+00
 -1       634 2.55312E-05 3.87592E-06 0.00000E+00
 -1       635 2.53990E-05 4.33116E-06 0.00000E+00
 -1       636 2.52657E-05 4.78932E-06 0.00000E+00
 -1       637 2.51327E-05 5.24639E-06 0.00000E+00
 -1       638 2.50017E-05 5.69831E-06 0.00000E+00
 -1       639 2.48740E-05 6.14109E-06 0.00000E+00
 -1       640 2.47510E-05 6.57066E-06 0.00000E+00
 -1       656 2.61170E-05 7.34857E-06 0.00000E+00
 -1       657 2.57707E-05 7.27462E-06 0.00000E+00
 -1       658 2.54922E-05 7.20091E-06-1.65436E-24
 -1       659 2.52385E-05 7.12724E-06 8.27181E-25
 -1       660 2.49666E-05 7.05335E-06 0.00000E+00
 -1       661 2.64095E-05 7.96532E-06 0.00000E+00
 -1       662 2.62421E-05 8.52310E-06 4.13590E-25
 -1       663 2.60718E-05 9.08862E-06 0.00000E+00
 -1       664 2.59000E-05 9.65837E-06 0.00000E+00
 -1       665 2.57281E-05 1.02287E-05 0.00000E+00
 -1       666 2.55574E-05 1.07960E-05 0.00000E+00
 -1       667 2.53891E-05 1.13567E-05 8.27181E-25
 -1       668 2.52247E-05 1.19072E-05-4.13590E-25
 -1       669 2.50655E-05 1.24438E-05 0.00000E+00
 -1       670 2.49128E-05 1.29631E-05 4.13590E-25
 -1       671 2.47680E-05 1.34613E-05 0.00000E+00
 -1       672 2.46324E-05 1.39349E-05-4.13590E-25
 -1       673 2.45074E-05 1.43801E-05-8.27181E-25
 -1       674 2.43940E-05 1.47934E-05 0.00000E+00
 -1       675 2.42940E-05 1.51711E-05-4.13590E-25
 -1       676 2.57282E-05 1.57171E-05-1.65436E-24
 -1       677 2.54233E-05 1.56751E-05 0.00000E+00
 -1       678 2.51187E-05 1.56331E-05 0.00000E+00
 -1       679 2.48142E-05 1.55913E-05 4.13590E-25
 -1       680 2.45102E-05 1.55495E-05 0.00000E+00
 -1       771 6.52464E-06-7.06428E-09 0.00000E+00
 -1       772 5.47213E-06 1.63786E-06 6.61744E-24
 -1       773 4.55696E-06 2.91687E-06 0.00000E+00
 -1       774 3.76790E-06 3.85971E-06-6.61744E-24
 -1       775 3.09389E-06 4.49629E-06 1.32349E-23
 -1       776 2.52357E-06 4.85676E-06 0.00000E+00
 -1       777 2.04551E-06 4.97142E-06 1.32349E-23
 -1       778 1.64826E-06 4.87073E-06 0.00000E+00
 -1       779 1.32030E-06 4.58524E-06 0.00000E+00
 -1       780 1.05012E-06 4.14564E-06 0.00000E+00
 -1       781 8.26183E-07 3.58269E-06 0.00000E+00
 -1       782 6.36946E-07 2.92726E-06 0.00000E+00
 -1       783 4.70877E-07 2.21022E-06 1.32349E-23
 -1       784 3.16600E-07 1.46259E-06 0.00000E+00
 -1       785 1.62618E-07 7.15324E-07 1.32349E-23
 -1       786 2.48385E-05-1.16471E-08 0.00000E+00
 -1       787 2.48650E-05 2.82192E-08 0.00000E+00
 -1       788 2.48913E-05 5.75665E-08 8.27181E-25
 -1       789 2.49179E-05 7.92548E-08 4.13590E-25
 -1       790 2.49445E-05 9.61380E-08 0.00000E+00
 -1       791 2.49712E-05 1.11069E-07 0.00000E+00
 -1       792 2.49979E-05 1.26897E-07 8.27181E-25
 -1       793 2.50246E-05 1.46475E-07 0.00000E+00
 -1       794 2.50513E-05 1.72655E-07 0.00000E+00
 -1       795 2.50780E-05 2.08296E-07 0.00000E+00
 -1       796 2.51046E-05 2.56260E-07 8.27181E-25
 -1       797 2.51313E-05 3.19419E-07 0.00000E+00
 -1       798 2.51580E-05 4.00654E-07 0.00000E+00
 -1       799 2.51845E-05 5.02853E-07 4.13590E-25
 -1       800 2.52111E-05 6.28924E-07 8.27181E-25
 -1       801 2.28907E-05-4.39120E-08 0.00000E+00
 -1       802 1.81259E-05-3.06170E-08 0.00000E+00
 -1       803 1.19867E-05-2.41323E-08 0.00000E+00
 -1       804 5.94083E-06-1.93031E-08 0.00000E+00
 -1       805 1.45600E-06-6.70598E-09 0.00000E+00
 -1       806 2.47619E-05-2.71572E-08 0.00000E+00
 -1       807 2.47112E-05 4.57028E-09 0.00000E+00
 -1       808 2.46616E-05 3.26615E-08-8.27181E-25
 -1       809 2.46124E-05 5.92879E-08 0.00000E+00
 -1       810 2.45629E-05 8.66110E-08-8.27181E-25
 -1       811 2.45123E-05 1.16774E-07-4.13590E-25
 -1       812 2.44599E-05 1.51919E-07-8.27181E-25
 -1       813 2.44047E-05 1.94182E-07-4.13590E-25
 -1       814 2.43461E-05 2.45702E-07 8.27181E-25
 -1       815 2.42832E-05 3.08616E-07 0.00000E+00
 -1       816 2.42153E-05 3.85061E-07 0.00000E+00
 -1       817 2.41415E-05 4.77172E-07 0.00000E+00
 -1       818 2.40610E-05 5.87085E-07-4.13590E-25
 -1       819 2.39731E-05 7.16922E-07-2.06795E-25
 -1       820 2.38770E-05 8.68809E-07-4.13590E-25
 -1       821 2.52015E-05 9.75903E-07 0.00000E+00
 -1       822 2.51638E-05 1.22091E-06 4.13590E-25
 -1       823 2.51261E-05 1.51151E-06 0.00000E+00
 -1       824 2.50881E-05 1.84240E-06 4.13590E-25
 -1       825 2.50500E-05 2.20820E-06-8.27181E-25
 -1       826 2.50118E-05 2.60354E-06 4.13590E-25
 -1       827 2.49737E-05 3.02298E-06 0.00000E+00
 -1       828 2.49355E-05 3.46111E-06 4.13590E-25
 -1       829 2.48972E-05 3.91246E-06 0.00000E+00
 -1       830 2.48590E-05 4.37157E-06 0.00000E+00
 -1       831 2.48209E-05 4.83297E-06-8.27181E-25
 -1       832 2.47827E-05 5.29118E-06-4.13590E-25
 -1       833 2.47446E-05 5.74074E-06 0.00000E+00
 -1       834 2.47069E-05 6.17617E-06 0.00000E+00
 -1       835 2.46691E-05 6.59204E-06 0.00000E+00
 -1       836 2.50361E-05 8.25195E-07-8.27181E-25
 -1       837 2.47972E-05 8.69899E-07 4.13590E-25
 -1       838 2.45358E-05 9.14555E-07-8.27181E-25
 -1       839 2.42675E-05 9.59004E-07 0.00000E+00
 -1       840 2.40079E-05 1.00338E-06-4.13590E-25
 -1       856 2.46085E-05 7.39345E-06 2.06795E-25
 -1       857 2.45820E-05 7.86205E-06 0.00000E+00
 -1       858 2.45554E-05 8.37981E-06 0.00000E+00
 -1       859 2.45286E-05 8.93780E-06 0.00000E+00
 -1       860 2.45018E-05 9.52705E-06 0.00000E+00
 -1       861 2.44748E-05 1.01386E-05 0.00000E+00
 -1       862 2.44479E-05 1.07635E-05-8.27181E-25
 -1       863 2.44209E-05 1.13928E-05-4.13590E-25
 -1       864 2.43940E-05 1.20174E-05-8.27181E-25
 -1       865 2.43670E-05 1.26286E-05 4.13590E-25
 -1       866 2.43401E-05 1.32171E-05-8.27181E-25
 -1       867 2.43132E-05 1.37742E-05 4.13590E-25
 -1       868 2.42863E-05 1.42909E-05-8.27181E-25
 -1       869 2.42595E-05 1.47581E-05 0.00000E+00
 -1       870 2.42328E-05 1.51671E-05-8.27181E-25
 -1       871 2.43272E-05 6.97983E-06 0.00000E+00
 -1       872 2.40704E-05 6.97601E-06 0.00000E+00
 -1       873 2.38423E-05 6.97205E-06 0.00000E+00
 -1       874 2.36219E-05 6.96789E-06-1.03398E-25
 -1       875 2.33882E-05 6.96352E-06 0.00000E+00
 -1       876 2.45302E-05 7.39680E-06 8.27181E-25
 -1       877 2.44164E-05 7.84383E-06-8.27181E-25
 -1       878 2.42917E-05 8.31965E-06 1.65436E-24
 -1       879 2.41579E-05 8.82046E-06 8.27181E-25
 -1       880 2.40163E-05 9.34237E-06 0.00000E+00
 -1       881 2.38682E-05 9.88151E-06 0.00000E+00
 -1       882 2.37150E-05 1.04341E-05 0.00000E+00
 -1       883 2.35583E-05 1.09962E-05 0.00000E+00
 -1       884 2.33995E-05 1.15640E-05 1.65436E-24
 -1       885 2.32399E-05 1.21337E-05 8.27181E-25
 -1       886 2.30810E-05 1.27015E-05 0.00000E+00
 -1       887 2.29242E-05 1.32635E-05-8.27181E-25
 -1       888 2.27710E-05 1.38159E-05 1.65436E-24
 -1       889 2.26226E-05 1.43547E-05 0.00000E+00
 -1       890 2.24806E-05 1.48761E-05-4.13590E-25
 -1       891 2.39295E-05 1.54867E-05 0.00000E+00
 -1       892 2.36675E-05 1.54643E-05 2.06795E-25
 -1       893 2.33992E-05 1.54420E-05 0.00000E+00
 -1       894 2.31034E-05 1.54197E-05-2.06795E-25
 -1       895 2.27587E-05 1.53973E-05-4.13590E-25
 -1       956 2.37326E-05 1.28349E-06-4.13590E-25
 -1       957 2.36920E-05 1.55905E-06 0.00000E+00
 -1       958 2.36512E-05 1.86751E-06 8.27181E-25
 -1       959 2.36104E-05 2.20469E-06-4.13590E-25
 -1       960 2.35695E-05 2.56640E-06 0.00000E+00
 -1       961 2.35286E-05 2.94841E-06-4.13590E-25
 -1       962 2.34877E-05 3.34652E-06 8.27181E-25
 -1       963 2.34468E-05 3.75651E-06-8.27181E-25
 -1       964 2.34059E-05 4.17415E-06 1.65436E-24
 -1       965 2.33649E-05 4.59523E-06 0.00000E+00
 -1       966 2.33240E-05 5.01554E-06-1.65436E-24
 -1       967 2.32831E-05 5.43084E-06-8.27181E-25
 -1       968 2.32423E-05 5.83692E-06 0.00000E+00
 -1       969 2.32014E-05 6.22959E-06 0.00000E+00
 -1       970 2.31607E-05 6.60464E-06 0.00000E+00
 -1       971 2.30728E-05 7.31906E-06 0.00000E+00
 -1       972 2.30243E-05 7.72877E-06 8.27181E-25
 -1       973 2.29756E-05 8.18154E-06 1.65436E-24
 -1       974 2.29269E-05 8.67165E-06 0.00000E+00
 -1       975 2.28781E-05 9.19336E-06-1.65436E-24
 -1       976 2.28293E-05 9.74093E-06 8.27181E-25
 -1       977 2.27804E-05 1.03086E-05 0.00000E+00
 -1       978 2.27315E-05 1.08907E-05 8.27181E-25
 -1       979 2.26827E-05 1.14814E-05 0.00000E+00
 -1       980 2.26338E-05 1.20751E-05-8.27181E-25
 -1       981 2.25850E-05 1.26658E-05 1.65436E-24
 -1       982 2.25362E-05 1.32479E-05 8.27181E-25
 -1       983 2.24875E-05 1.38157E-05 0.00000E+00
 -1       984 2.24390E-05 1.43634E-05 0.00000E+00
 -1       985 2.23906E-05 1.48853E-05-8.27181E-25
 -3
    1PSTEP                         2           1           1          
  100CL  101 2.50000E-01         409                     0    1           1
 -4  STRESS      6    1
 -5  SXX         1    4    1    1
 -5  SYY         1    4    2    2
 -5  SZZ         1    4    3    3
 -5  SXY         1    4    1    2
 -5  SYZ         1    4    2    3
 -5  SZX         1    4    3    1
 -1         1-1.02028E+06-4.43768E+05-2.27796E+05-5.52389E+05-1.34605E-10 3.27418E-10
 -1         2 2.75649E+02-3.68511E+05 9.08448E+02-1.26733E+03-8.01542E-10 3.66457E-09
 -1         3-2.89063E+00-3.68529E+05 8.99018E+01-5.54847E+01 9.05302E-11-9.27594E-09
 -1         5-2.40194E+00 1.37127E+05 3.84492E+00-4.66461E-02 5.46773E-11 1.49521E-09
 -1         8-6.96156E+05-2.46286E+05-9.64838E+04-2.85143E+05 3.87445E-10 3.83443E-09
 -1         9-8.08546E+05-3.08078E+05-1.25860E+05-2.06511E+05 3.15777E-10 1.92376E-09
 -1        10-3.07794E+02-3.85355E+05-6.19320E+02-3.74795E+02-1.30774E-09-3.71767E-09
 -1        12-8.23720E-01 1.37135E+05 1.24626E+02-6.67471E-02 1.14980E-10 1.62822E-09
 -1        15 9.95854E+02 5.40258E+02 3.11598E+03 7.64877E-01-8.26788E-11 4.25516E-09
 -1        16-1.47645E+06-4.79849E+05-2.25252E+05-4.90669E+05-5.28720E-10 2.94919E-09
 -1        17-2.65247E+05-2.04506E+05-4.15083E+04-1.84670E+05-2.79142E-09 4.77303E-10
 -1        18 1.29769E+04 2.80612E+03-5.10908E+03-3.37117E+04 6.60521E-11 6.83031E-10
 -1        19 4.14961E+04 4.93642E+04-3.18079E+02 5.05619E+03-1.20599E-10 5.22778E-10
 -1        20 2.12541E+04-6.15280E+04-1.16463E+04 1.92988E+04-2.73152E-10-5.19928E-10
 -1        21-3.04131E+01-1.20224E+05-4.79593E+02-2.84994E+01 2.11190E-09-7.07022E-10
 -1        24-1.07829E+06-3.94113E+05-1.25619E+05-5.13344E+05-1.96936E-09-2.62177E-09
 -1        25 7.87968E+03 7.10077E+03 8.62484E+03-1.47317E+05 4.67071E-10-3.43789E-11
 -1        26-8.14391E+03 3.50215E+04-2.22314E+03-7.71434E+03-1.74623E-11-6.67063E-10
 -1        27-1.20806E+04-3.67901E+04-1.69052E+04 2.64525E+04-5.06816E-10 9.46632E-10
 -1        28-6.04843E+02-3.67355E+04 1.23760E+03 1.33642E+04 2.55199E-09 2.01286E-10
 -1        32-3.33608E+05-5.19864E+04 1.02357E+05-4.61268E+05-4.54747E-10-3.01839E-11
 -1        33-4.94052E+04 3.26445E+04 1.05846E+04-1.36171E+04 5.71845E-11 1.00787E-09
 -1        34-7.99642E+04-1.08897E+04-1.48465E+03 2.54059E+04-4.28450E-10-4.23976E-10
 -1        35-9.63024E+03-1.35664E+04-6.89544E+02 2.20282E+04 2.76444E-09-5.37815E-10
 -1        51 9.53218E+03-1.68891E+05 1.76946E+04-4.48406E+05-1.30967E-10 8.58563E-10
 -1        52 4.15443E+03-1.66902E+05 1.14928E+04-5.03533E+05-1.56433E-10-6.94854E-10
 -1        53 2.65334E+03-1.70357E+05 1.03425E+04-4.47116E+05-1.56433E-10-8.56380E-09
 -1        54 7.82918E+03-1.68018E+05 1.70217E+04-5.04940E+05-2.91038E-11-2.12021E-08
 -1        55 1.98646E+04-1.73639E+05 3.14785E+04-4.46927E+05 3.63798E-11-1.29949E-08
 -1        56-1.92923E+06-2.12452E+05-1.61347E+05-7.47290E+05-3.41970E-10-2.05910E-09
 -1        57-2.00349E+06-3.55818E+05-1.09744E+05-7.30716E+05 5.55701E-10-6.36646E-10
 -1        58-1.96162E+06-2.65917E+05-3.79403E+04-7.37131E+05 1.92813E-10-8.71114E-09
 -1        59-1.96599E+06-2.93428E+05-2.29571E+04-7.42665E+05 2.80579E-10-7.49969E-09
 -1        60-1.96648E+06-2.73674E+05-8.87152E+03-7.35743E+05 2.15550E-10 2.41471E-09
 -1        61-1.96071E+06-2.84052E+05-5.11560E+03-7.43866E+05-1.56621E-09 1.81581E-09
 -1        62-1.96685E+06-2.75137E+05-2.43530E+03-7.35975E+05 5.33134E-10-1.68865E-09
 -1        63-1.96101E+06-2.81855E+05-2.04193E+03-7.42824E+05-1.56749E-09 1.35302E-10
 -1        64-1.96617E+06-2.75859E+05-2.31033E+03-7.36784E+05 4.26951E-10 1.06320E-09
 -1        65-1.96331E+06-2.81209E+05-4.72488E+03-7.40746E+05 9.75689E-10-9.66111E-10
 -1        66-1.96455E+06-2.75806E+05-8.16401E+03-7.38042E+05 9.42009E-10-3.37786E-09
 -1        67-1.97042E+06-2.87524E+05-2.10648E+04-7.37023E+05 1.61606E-10-5.58066E-09
 -1        68-1.95909E+06-2.69691E+05-3.48257E+04-7.40460E+05-5.91172E-12-2.61571E-09
 -1        69-2.00642E+06-3.43191E+05-1.00697E+05-7.24266E+05-1.05501E-09-1.45519E-11
 -1        70-1.92879E+06-2.21206E+05-1.48065E+05-7.50434E+05-8.91305E-10 1.94268E-09
 -1        86-1.40774E+02-3.69536E+05 8.13574E+02 6.33672E+02-3.48450E-11 8.45148E-10
 -1        87 8.53314E+02-3.68444E+05 1.86421E+03-2.19731E+03-4.61341E-10-2.43669E-09
 -1        88-7.13423E+02-3.69609E+05 2.75113E+03 1.56367E+03-6.79506E-10 7.99982E-09
 -1        89 5.26894E+03-3.66652E+05 7.46854E+03-3.22620E+03-2.21007E-10 9.31223E-10
 -1        90-4.54753E+03-3.71333E+05 1.05099E+04 1.66259E+03-1.09003E-09 8.52605E-10
 -1       121-1.81875E+01-3.68613E+05 9.80901E+01 2.77360E+01-3.82570E-10-1.66938E-09
 -1       122 3.12123E+01-3.68506E+05 1.98320E+02-1.10833E+02-9.79148E-10-2.05728E-09
 -1       123-4.52714E+01-3.68636E+05 3.30745E+02 8.30615E+01-1.04757E-09 3.16550E-09
 -1       124 4.25136E+02-3.68272E+05 8.37368E+02-2.58953E+02-2.16615E-09 2.25100E-09
 -1       125-3.23290E+02-3.68849E+05 1.27258E+03 1.75910E+02-1.68507E-09 5.44333E-10
 -1       191-2.64933E+00 1.37139E+05 4.61503E+00 2.31327E-02 9.64114E-11 2.50111E-09
 -1       192-2.75481E+00 1.37127E+05 8.14044E+00 1.81808E-01 1.46005E-10 4.22006E-10
 -1       193-3.58790E+00 1.37139E+05 1.51582E+01-2.06278E-01 1.55433E-10-6.67569E-10
 -1       194-3.89063E+00 1.37129E+05 3.07908E+01 5.54664E-01 8.08917E-11 3.80169E-10
 -1       195-5.39210E+00 1.37138E+05 6.02488E+01-3.52122E-01 2.51063E-10-1.40471E-09
 -1       251-7.87872E+05 1.24485E+04-2.97017E+04-8.65380E+03-7.61929E-10 7.09406E-10
 -1       252-7.95158E+05-1.44345E+04-2.00321E+04 2.12671E+04-1.74334E-09 2.59524E-09
 -1       253-7.91962E+05 2.10532E+03-7.80746E+03-9.33712E+03-1.44041E-10-4.71755E-09
 -1       254-7.84631E+05-2.00453E+03-3.14024E+03 1.18252E+04-1.55302E-09 6.71457E-09
 -1       255-7.98271E+05-1.43923E+02-3.34782E+03 7.88152E+02-1.47071E-09-1.62856E-09
 -1       256-7.83435E+05-2.90617E+01 5.06639E+02-8.73342E+03-2.15590E-09-1.74151E-09
 -1       257-7.93112E+05 1.56722E+02-8.75212E+02 1.12201E+04-8.13531E-07-7.94392E-09
 -1       258-7.88610E+05-6.83862E+01 7.37898E+01-1.91274E+04-1.33652E-06-1.07016E-08
 -1       259-7.93154E+05 1.49379E+02-8.53541E+02 1.11818E+04-8.16665E-07-6.29466E-09
 -1       260-7.83381E+05 2.10073E+00 6.01338E+02-8.62112E+03-3.71716E-09-1.70239E-09
 -1       261-7.98282E+05-1.68869E+02-3.19104E+03 7.14139E+02 3.41402E-10-4.57362E-10
 -1       262-7.84578E+05-1.81866E+03-2.75854E+03 1.19328E+04 1.72855E-09 4.49910E-09
 -1       263-7.92005E+05 1.94575E+03-7.17694E+03-9.37069E+03-2.05861E-09-3.26099E-09
 -1       264-7.94589E+05-1.32267E+04-1.83257E+04 2.12588E+04-9.94169E-09 9.62245E-10
 -1       265-7.88396E+05 1.14010E+04-2.73008E+04-8.61190E+03-5.54957E-09 1.67529E-09
 -1       266-1.76121E+04-8.16392E+03 4.07763E+04-1.58620E+01 2.72848E-11 1.13282E-10
 -1       267 2.03996E+04 9.52770E+03 2.89072E+04 1.82523E+01 8.64020E-12-3.41422E-09
 -1       268-2.77085E+03-1.36124E+03 1.07084E+04-2.36652E+00-1.04592E-11-2.66174E-09
 -1       269 3.27085E+03 1.63150E+03 6.99089E+03 2.75223E+00 1.11413E-11 1.41684E-09
 -1       270-4.97625E+02-2.70128E+02 3.36015E+03-3.81933E-01-1.97815E-11 3.32598E-09
 -1       271-2.04210E+06-2.43997E+05-1.63783E+05-7.91020E+05 2.11003E-10-5.45697E-10
 -1       272-2.10196E+06-3.72583E+05-1.06744E+05-7.89801E+05-4.11546E-11 2.43745E-09
 -1       273-2.07323E+06-2.88332E+05-3.86612E+04-7.83211E+05 2.11685E-10 2.93767E-09
 -1       274-2.06570E+06-3.19185E+05-2.20381E+04-8.00700E+05 8.74024E-10 1.28330E-09
 -1       275-2.07779E+06-2.93189E+05-9.01184E+03-7.81719E+05 1.14028E-10 1.73668E-09
 -1       276-2.06027E+06-3.13521E+05-4.89540E+03-8.02876E+05-1.92699E-10-7.03039E-10
 -1       277-2.07865E+06-2.93499E+05-2.41103E+03-7.81248E+05 4.52474E-10 1.41608E-09
 -1       278-2.05939E+06-3.13150E+05-1.86519E+03-8.03398E+05 1.34125E-09 5.89785E-09
 -1       279-2.07868E+06-2.93501E+05-2.10529E+03-7.81231E+05 9.52355E-10 3.34978E-09
 -1       280-2.06009E+06-3.13398E+05-4.02669E+03-8.02958E+05 1.10674E-10-6.04814E-10
 -1       281-2.07794E+06-2.93299E+05-7.29985E+03-7.81660E+05 6.24027E-10-2.36469E-10
 -1       282-2.06461E+06-3.17807E+05-1.77814E+04-8.01020E+05 5.50813E-11-1.55478E-09
 -1       283-2.07416E+06-2.89500E+05-3.11730E+04-7.82988E+05-6.72912E-10 2.49202E-10
 -1       284-2.09409E+06-3.60570E+05-8.60395E+04-7.91904E+05 4.70891E-10 2.22281E-09
 -1       285-2.04890E+06-2.53942E+05-1.32036E+05-7.89474E+05-9.56788E-10 1.68075E-09
 -1       301 1.43198E+04-9.49170E+03 5.23407E+04-1.15405E+04-7.18501E-10 1.81635E-09
 -1       302 6.41422E+03 2.06186E+03 3.50459E+04-1.49097E+04 9.89530E-10 3.21843E-09
 -1       303 8.47729E+02-5.31415E+03 3.07955E+04-1.15547E+04-8.50378E-10 1.65255E-09
 -1       304 1.06213E+04 5.70599E+03 4.92832E+04-1.48910E+04 1.04365E-09 6.54836E-10
 -1       305 2.45694E+04-1.31254E+04 8.54408E+04-1.15371E+04-5.23869E-10 4.10864E-09
 -1       306-1.26071E+06-1.53769E+05-8.29932E+04-4.86262E+05 5.44787E-10-1.86992E-09
 -1       307-1.28075E+06-2.33341E+05-5.46767E+04-4.97284E+05 4.95390E-10-1.14960E-09
 -1       308-1.27713E+06-1.77219E+05-1.95970E+04-4.81452E+05 1.52511E-10-2.05546E-10
 -1       309-1.26157E+06-2.05626E+05-1.13330E+04-5.03863E+05-5.56611E-10 2.48360E-09
 -1       310-1.27977E+06-1.79776E+05-4.59587E+03-4.80380E+05-5.83441E-10-1.22623E-09
 -1       311-1.25846E+06-2.02691E+05-2.56271E+03-5.05393E+05 5.49221E-10 3.09115E-10
 -1       312-1.28029E+06-1.79912E+05-1.32351E+03-4.80050E+05-5.51154E-10-1.14426E-09
 -1       313-1.25802E+06-2.02474E+05-1.18061E+03-5.05677E+05 1.17063E-09 4.97334E-09
 -1       314-1.28023E+06-1.79961E+05-1.51027E+03-4.80118E+05 1.75646E-10-1.51522E-09
 -1       315-1.25875E+06-2.02591E+05-3.09220E+03-5.05100E+05-7.39988E-10-1.39460E-09
 -1       316-1.27952E+06-1.79847E+05-5.63163E+03-4.80586E+05-8.79027E-10-1.66165E-09
 -1       317-1.26262E+06-2.06171E+05-1.39344E+04-5.03176E+05 2.13049E-10 1.88675E-09
 -1       318-1.27629E+06-1.76680E+05-2.41127E+04-4.81882E+05 7.87509E-10-3.63798E-10
 -1       319-1.28615E+06-2.40393E+05-6.72919E+04-4.95224E+05-1.05638E-09 1.71894E-09
 -1       320-1.25616E+06-1.47715E+05-1.02125E+05-4.87691E+05 8.11269E-10 1.28057E-09
 -1       336 4.12686E+02-4.01803E+05-2.42583E+03 1.98885E+02-3.84591E-09 6.23959E-09
 -1       337-9.58713E+02-4.02628E+05-2.86382E+03-5.26568E+02-2.77561E-09 1.07957E-09
 -1       338 3.50196E+02-4.01825E+05-3.69996E+03 3.27340E+02-4.96493E-09 5.00950E-09
 -1       339-4.17982E+03-4.04509E+05-8.38389E+03-7.82102E+02-3.57556E-09 5.39853E-09
 -1       340 3.08682E+03-3.99929E+05-1.27614E+04 4.53088E+02-6.02586E-09 3.00906E-09
 -1       406 8.71185E+00 1.37132E+05 2.46068E+02 4.13373E-01 2.65899E-10 3.91083E-11
 -1       407 8.49617E+01 1.37178E+05 5.22960E+02-5.92121E+00 4.86295E-11-1.16415E-09
 -1       408 2.68375E+02 1.37094E+05 1.04450E+03 5.56628E+00 4.23938E-10-1.65255E-09
 -1       409 1.12861E+03 1.37512E+05 2.35154E+03-5.01101E+01 2.19416E-11-1.69643E-09
 -1       410 3.24420E+03 1.36798E+05 4.80065E+03 4.56338E+01 4.22006E-10-1.93677E-09
 -1       521-2.34626E+06-2.83369E+05-1.61055E+05-9.05062E+05 1.17871E-09-2.76486E-10
 -1       522-2.40501E+06-4.18642E+05-1.06207E+05-9.04314E+05 1.10253E-09 1.73713E-09
 -1       523-2.37800E+06-3.29166E+05-3.79934E+04-8.95893E+05-1.94177E-10-7.33053E-10
 -1       524-2.36779E+06-3.64530E+05-2.19954E+04-9.16692E+05 6.82121E-13 1.08503E-09
 -1       525-2.38304E+06-3.34254E+05-8.87867E+03-8.93911E+05-1.04285E-09-1.60526E-10
 -1       526-2.36180E+06-3.58669E+05-4.91985E+03-9.19410E+05-1.92404E-09-7.13004E-09
 -1       527-2.38399E+06-3.34611E+05-2.45629E+03-8.93356E+05-1.50726E-09 1.15989E-09
 -1       528-2.36103E+06-3.58077E+05-2.04468E+03-9.19773E+05-1.15756E-09 2.52783E-10
 -1       529-2.38381E+06-3.34802E+05-2.44761E+03-8.93568E+05-6.39488E-10-3.89264E-10
 -1       530-2.36246E+06-3.57946E+05-4.88067E+03-9.18551E+05-3.23325E-10-1.17211E-10
 -1       531-2.38251E+06-3.34814E+05-8.81975E+03-8.94526E+05 1.13914E-09 9.63155E-10
 -1       532-2.36906E+06-3.63085E+05-2.18169E+04-9.15055E+05 7.70342E-10 6.70752E-10
 -1       533-2.37719E+06-3.30096E+05-3.77078E+04-8.96861E+05 1.47543E-09-1.43882E-09
 -1       534-2.40658E+06-4.16170E+05-1.05366E+05-9.02085E+05 6.68706E-10 2.47383E-10
 -1       535-2.34542E+06-2.84936E+05-1.59804E+05-9.06270E+05 1.55342E-09-2.40834E-09
 -1       536-2.28328E+03-8.36656E+03 2.38141E+04-2.93289E+01 6.88033E-10 1.62618E-09
 -1       537 7.63553E+03 9.84666E+03 1.61972E+04-1.76836E+04-2.94858E-09 6.25732E-10
 -1       538 1.57368E+03-1.11927E+03 6.17257E+03-8.13735E+00-1.15051E-10-6.20503E-10
 -1       539 3.13153E+03 1.26015E+03 3.68366E+03-1.77079E+04 8.11951E-10 1.91250E-09
 -1       540 2.12934E+03-1.57545E+02 1.55893E+03-4.32585E+00 4.16094E-11-1.48862E-09
 -1       541 2.41890E+03 1.60893E+02 8.66167E+02-1.77102E+04-4.40650E-10 9.19670E-10
 -1       542 2.21936E+03-2.39202E+01 3.76590E+02-5.89032E+00-6.36646E-11 4.93372E-10
 -1       543 2.26571E+03 2.90451E+01 1.81181E+02-1.77078E+04 2.94392E-10-3.63545E-09
 -1       544 2.23928E+03-1.93063E-01 4.02953E+01-6.75050E+00-1.52113E-10-1.20039E-09
 -1       545 2.21080E+03-3.42356E+00-7.55176E+01-1.77069E+04 1.09182E-10-5.15683E-10
 -1       546 2.25468E+03 2.14179E+01-2.06230E+02-6.85128E+00 1.72875E-10 9.48319E-10
 -1       547 2.12198E+03-1.72094E+02-5.25751E+02-1.77054E+04-6.41649E-10-2.76938E-09
 -1       548 2.33218E+03 1.58163E+02-9.06461E+02-8.18229E+00-9.63723E-10-2.67664E-09
 -1       549 1.51561E+03-1.44578E+03-2.36908E+03-1.76899E+04-5.45697E-10 4.01315E-10
 -1       550 2.88880E+03 1.21092E+03-3.51331E+03-2.23646E+01 1.60753E-10 1.14483E-09
 -1       551 3.74234E+03-1.80584E+05 1.13250E+04-2.94676E+05-5.18412E-09-4.11092E-10
 -1       552 3.52535E+03-1.78947E+05 1.21456E+04-3.79128E+05-5.48971E-09 3.55067E-09
 -1       553 2.26569E+03-1.80982E+05 1.76873E+04-2.94021E+05-6.70116E-09 2.13822E-09
 -1       554 1.07784E+04-1.72988E+05 3.63052E+04-3.79241E+05-4.95311E-09 1.05138E-09
 -1       555 2.13390E+04-1.87073E+05 6.75079E+04-2.94506E+05-5.47880E-09-2.95586E-09
 -1       556-1.65309E+04-5.67161E+04 1.75837E+04-8.45656E+04-9.60426E-10 1.80080E-09
 -1       557 2.96494E+03-7.37632E+04 9.09576E+03-1.00462E+05-5.40240E-10 1.19155E-09
 -1       558-1.61603E+04-5.97487E+04 3.78446E+03-8.21181E+04 9.42237E-10 5.27507E-10
 -1       559 9.10295E+02-7.63520E+04 1.88362E+03-1.01242E+05-1.56069E-09 7.03722E-10
 -1       560-1.63502E+04-5.96211E+04 8.30039E+02-8.21891E+04-5.60249E-10-9.58607E-10
 -1       561 4.86317E+02-7.63338E+04 4.13485E+02-1.01510E+05 6.89397E-10 3.51292E-10
 -1       562-1.65310E+04-5.94857E+04 1.71637E+02-8.23212E+04 1.18234E-10-1.11640E-10
 -1       563 2.64879E+02-7.62419E+04 7.55389E+01-1.01655E+05-1.03773E-09-1.10424E-09
 -1       564-1.66430E+04-5.94081E+04-4.66489E+00-8.24021E+04-8.97671E-10 6.75755E-10
 -1       565 1.50034E+02-7.61964E+04-7.68170E+01-1.01727E+05 7.68523E-11-1.39698E-09
 -1       566-1.66744E+04-5.93790E+04-1.99974E+02-8.24290E+04-2.28511E-10 1.55524E-09
 -1       567 1.00556E+02-7.62026E+04-4.57697E+02-1.01717E+05-1.36424E-09 1.55887E-09
 -1       568-1.65955E+04-5.94344E+04-9.49902E+02-8.23982E+04-8.15817E-10 3.32966E-09
 -1       569-5.40152E+02-7.65763E+04-2.24731E+03-1.01380E+05-8.11269E-10 2.80124E-10
 -1       570-1.59828E+04-6.06167E+04-4.38916E+03-8.20406E+04 2.81943E-10 3.32420E-10
 -1       571 9.42243E+04 3.86678E+03 5.72580E+03-2.27345E+04-1.78943E-10 1.56513E-09
 -1       572 9.50799E+04 1.34501E+03 2.80490E+03-2.49221E+04-1.33014E-11 2.04159E-09
 -1       573 9.45728E+04 3.20427E+02 1.24599E+03-2.26755E+04 6.45514E-10 1.42268E-09
 -1       574 9.46768E+04 1.02772E+02 6.23972E+02-2.49883E+04-2.04523E-10-5.14092E-10
 -1       575 9.46145E+04 1.25310E+01 2.93866E+02-2.26677E+04-5.53541E-10-5.71617E-10
 -1       576 9.46234E+04 1.49336E+00 1.49117E+02-2.49972E+04-2.55682E-10-8.77662E-10
 -1       577 9.46208E+04-4.08974E+00 7.27385E+01-2.26666E+04 9.17453E-11 6.37101E-10
 -1       578 9.46166E+04-2.78116E+00 3.82109E+01-2.49982E+04-1.00044E-10 2.08433E-09
 -1       579 9.46242E+04-3.37010E+00 2.09118E+01-2.26667E+04 1.00044E-11-4.24507E-10
 -1       580 9.46195E+04-3.44031E+00 1.53398E+01-2.49967E+04 2.93767E-10 3.80396E-10
 -1       581 9.46292E+04-4.43176E+00 1.64448E+01-2.26681E+04 1.29603E-10 3.16277E-10
 -1       582 9.46283E+04-2.44568E+00 2.78841E+01-2.49830E+04-4.69299E-10 1.07957E-09
 -1       583 9.46350E+04 4.17685E+00 5.16604E+01-2.26804E+04-2.26919E-10 2.09400E-09
 -1       584 9.46542E+04 4.37792E+01 1.14773E+02-2.48812E+04-1.30353E-09-1.84338E-09
 -1       585 9.46296E+04 1.44785E+02 2.32557E+02-2.27700E+04-4.95675E-11-8.04903E-10
 -1       586-1.25220E+02 3.89437E+04 3.78146E+01-6.99340E+04 1.59162E-12-1.61117E-09
 -1       587 7.63292E+01 3.89721E+04 6.42437E+02-7.80321E+04-7.33053E-10 1.12732E-09
 -1       588 3.33593E+02 3.88614E+04 1.53985E+03-6.98658E+04 5.45697E-12-1.20667E-09
 -1       589 1.55451E+03 3.95440E+04 3.59150E+03-7.80034E+04-5.72072E-10 7.07132E-10
 -1       590 4.59370E+03 3.83895E+04 7.34194E+03-6.99625E+04 2.95586E-11 1.44155E-09
 -1       591-3.96865E+04-1.12533E+04-8.64037E+03-1.90545E+04-2.17597E-10-8.69932E-10
 -1       592-4.03571E+04-1.16204E+04-4.44671E+03-2.13291E+04-7.10315E-10-2.90356E-10
 -1       593-4.02710E+04-9.43391E+03-1.88178E+03-2.00682E+04 2.59934E-09 7.81461E-09
 -1       594-3.93095E+04-1.05442E+04-9.27839E+02-2.13796E+04 5.54223E-10-1.60684E-09
 -1       595-4.03231E+04-9.39608E+03-4.28386E+02-2.01051E+04 5.72015E-10-4.13181E-10
 -1       596-3.92407E+04-1.05058E+04-2.16785E+02-2.13687E+04 3.90031E-10-7.26544E-10
 -1       597-4.03310E+04-9.40310E+03-1.17046E+02-2.01053E+04 6.38757E-10-3.05931E-09
 -1       598-3.92336E+04-1.05056E+04-9.18060E+01-2.13659E+04 1.21841E-09-1.14960E-09
 -1       599-4.03308E+04-9.40335E+03-1.14358E+02-2.01052E+04 4.38160E-09-2.48139E-09
 -1       600-3.92400E+04-1.05062E+04-2.09780E+02-2.13681E+04 2.40362E-09-1.55924E-08
 -1       601-4.03223E+04-9.39687E+03-4.13134E+02-2.01046E+04 4.35386E-09-2.47553E-09
 -1       602-3.93066E+04-1.05427E+04-8.94410E+02-2.13772E+04 2.36378E-09-1.71389E-09
 -1       603-4.02711E+04-9.43462E+03-1.81352E+03-2.00695E+04 1.23339E-09 5.51154E-10
 -1       604-4.03252E+04-1.15700E+04-4.28504E+03-2.13167E+04 4.57021E-10-2.13493E-09
 -1       605-3.96976E+04-1.11964E+04-8.32584E+03-1.91026E+04 8.81300E-10-2.10935E-09
 -1       606 2.74994E+04-3.95812E+03-6.91666E+03 1.12174E+04-1.69848E-09 2.66482E-10
 -1       607 2.63340E+04-1.28472E+03-3.43489E+03 1.25252E+04-3.44698E-10-5.86624E-11
 -1       608 2.70041E+04-2.27593E+02-1.53601E+03 1.11309E+04 1.51022E-09-1.08673E-09
 -1       609 2.68696E+04-6.20570E+01-7.75104E+02 1.26210E+04-8.49923E-10 5.99698E-10
 -1       610 2.69476E+04 6.92473E+00-3.69137E+02 1.11210E+04-2.10730E-09 1.41767E-09
 -1       611 2.69231E+04 1.02419E+01-1.86209E+02 1.26318E+04-4.49018E-09 2.50589E-09
 -1       612 2.69362E+04 1.16178E+01-8.86018E+01 1.11200E+04-1.78443E-09-1.18348E-10
 -1       613 2.69277E+04 1.10576E+01-4.02152E+01 1.26331E+04-2.56409E-09-3.40276E-09
 -1       614 2.69312E+04 9.30655E+00-1.04475E+01 1.11197E+04-8.63110E-10-2.41528E-09
 -1       615 2.69272E+04 1.09062E+01 1.41182E+01 1.26333E+04 2.46678E-09-8.54698E-10
 -1       616 2.69274E+04 9.84548E+00 4.49274E+01 1.11198E+04-8.45375E-10 3.75167E-12
 -1       617 2.69333E+04 2.11757E+01 1.03518E+02 1.26330E+04 1.02409E-09 4.76450E-09
 -1       618 2.69187E+04 4.22777E+01 2.09302E+02 1.11200E+04 3.72893E-11 2.61366E-10
 -1       619 2.70064E+04 1.89163E+02 4.70662E+02 1.26320E+04-1.20110E-10 1.11856E-09
 -1       620 2.68506E+04 5.54326E+02 9.48726E+02 1.11204E+04 6.02540E-12 5.45811E-10
 -1       621 2.33089E+02 1.00331E+05 1.07969E+03-5.47320E+03-9.54387E-10 2.79225E-09
 -1       622 1.24441E+02 1.00561E+05 1.13703E+03-7.05572E+03-5.21823E-11-9.44098E-10
 -1       623 4.54712E+01 1.00365E+05 1.65307E+03-5.47104E+03-8.96875E-10 5.02098E-10
 -1       624 7.89985E+02 1.01138E+05 3.38969E+03-7.03847E+03 5.18412E-11 1.65551E-09
 -1       625 1.85371E+03 9.97549E+04 6.31464E+03-5.49012E+03-7.98082E-10 5.73777E-10
 -1       626 7.46939E+04 2.23956E+04 4.41248E+02 4.34894E+04 1.87204E-08-6.49652E-09
 -1       627 7.33307E+04 2.36618E+04 2.11752E+02 4.51726E+04 3.94955E-08-2.78169E-09
 -1       628 7.47497E+04 2.21342E+04 8.96664E+01 4.35027E+04 1.20917E-08-2.11144E-08
 -1       629 7.32137E+04 2.36625E+04 4.50948E+01 4.52590E+04 1.72577E-09 3.90492E-09
 -1       630 7.47529E+04 2.21202E+04 2.27421E+01 4.34977E+04 5.34010E-09-7.27596E-11
 -1       631 7.31976E+04 2.36668E+04 1.62323E+01 4.52635E+04 2.96313E-09-1.32376E-09
 -1       632 7.47502E+04 2.21209E+04 1.85327E+01 4.34952E+04 5.13182E-10-2.44654E-10
 -1       633 7.31950E+04 2.36681E+04 3.21793E+01 4.52629E+04 2.39822E-09 3.10683E-09
 -1       634 7.47465E+04 2.21191E+04 6.25039E+01 4.34943E+04 6.00721E-10-1.44587E-09
 -1       635 7.32000E+04 2.36682E+04 1.33215E+02 4.52644E+04-8.74593E-10-1.91108E-09
 -1       636 7.47403E+04 2.21187E+04 2.72460E+02 4.34925E+04-6.94436E-09 6.16183E-11
 -1       637 7.32569E+04 2.37165E+04 6.01514E+02 4.52611E+04-1.66414E-08-9.04902E-09
 -1       638 7.47178E+04 2.22665E+04 1.23862E+03 4.34244E+04-7.44615E-09 1.64368E-09
 -1       639 7.38950E+04 2.46608E+04 2.93344E+03 4.50593E+04 9.18817E-10 7.77186E-09
 -1       640 7.46544E+04 2.50560E+04 6.10789E+03 4.22394E+04-8.11156E-10 6.27324E-10
 -1       656 7.35895E+03-2.09697E+05-2.18769E+04 9.81514E+01-6.36646E-10 2.93323E-09
 -1       657-9.82720E+03-2.18762E+05-1.72946E+04 1.54329E+04-2.29102E-09 8.07177E-12
 -1       658 1.97028E+03-2.12519E+05-1.10336E+04 6.10685E+01-5.57122E-10-2.13024E-09
 -1       659-1.04000E+04-2.19062E+05-1.81377E+04 1.54567E+04-2.47132E-09-1.31477E-09
 -1       660 7.90606E+03-2.09402E+05-2.33827E+04 7.44651E+01-9.58607E-10-9.28480E-10
 -1       661 9.09524E+04 1.14394E+04 7.61109E+03 3.53809E+04 1.04978E-09-6.16183E-10
 -1       662 9.30388E+04 1.70000E+04 4.80353E+03 3.60757E+04 4.35094E-10-2.43818E-09
 -1       663 9.22649E+04 1.31746E+04 1.79747E+03 3.51930E+04 7.97201E-10 1.80648E-10
 -1       664 9.15289E+04 1.47475E+04 9.90073E+02 3.64037E+04-3.45641E-09-1.05214E-09
 -1       665 9.24156E+04 1.33607E+04 4.22150E+02 3.51773E+04-3.67228E-09-2.00755E-09
 -1       666 9.13554E+04 1.45124E+04 2.30457E+02 3.64320E+04-2.48512E-09-1.33226E-09
 -1       667 9.24343E+04 1.33802E+04 1.30839E+02 3.51759E+04 1.98810E-10 5.42158E-10
 -1       668 9.13378E+04 1.44935E+04 1.26940E+02 3.64356E+04-2.71891E-09 4.88335E-10
 -1       669 9.24333E+04 1.33774E+04 1.81834E+02 3.51747E+04 5.36375E-10 3.59535E-10
 -1       670 9.13699E+04 1.45354E+04 3.71930E+02 3.64362E+04 5.51937E-09 9.46670E-10
 -1       671 9.24032E+04 1.33412E+04 7.08234E+02 3.51745E+04 4.20656E-09 4.60813E-09
 -1       672 9.16624E+04 1.49397E+04 1.67857E+03 3.63937E+04 2.28368E-09-1.17404E-09
 -1       673 9.21486E+04 1.30226E+04 3.05293E+03 3.51989E+04 2.32362E-09 5.51609E-10
 -1       674 9.42292E+04 1.87699E+04 8.16431E+03 3.58381E+04-3.80759E-10-4.73608E-09
 -1       675 8.99165E+04 1.00736E+04 1.29365E+04 3.55193E+04-6.81666E-10-1.06775E-09
 -1       676 1.48509E+01-1.20177E+05-5.75100E+02 1.42499E+01 3.43960E-09 2.76753E-09
 -1       677-1.77040E+02-1.20330E+05-1.06071E+03-2.84980E+01 4.60641E-09 1.06902E-08
 -1       678 1.25718E+02-1.20071E+05-1.85688E+03 1.42380E+01 2.05819E-09 4.25503E-09
 -1       679-1.99464E+03-1.21475E+05-4.45773E+03-2.84960E+01 1.34150E-09-7.73316E-10
 -1       680 1.31835E+03-1.19032E+05-7.08853E+03 1.40983E+01 2.70575E-09 1.32150E-09
 -1       771-9.18730E+05-1.74482E+05-2.32966E+04-3.94941E+05-1.27329E-10-1.48430E-09
 -1       772-9.12843E+05-1.82807E+05-1.19545E+04-4.09507E+05-1.24601E-09-1.68347E-09
 -1       773-9.20859E+05-1.69114E+05-5.11269E+03-3.97348E+05-1.12050E-09 7.38510E-10
 -1       774-9.09844E+05-1.80289E+05-2.50355E+03-4.10338E+05-7.42148E-10 4.92491E-10
 -1       775-9.21232E+05-1.68835E+05-1.18693E+03-3.97493E+05-1.51704E-09 2.20098E-10
 -1       776-9.09781E+05-1.80193E+05-5.86171E+02-4.10564E+05-4.32374E-09-4.46880E-09
 -1       777-9.21434E+05-1.68734E+05-3.27223E+02-3.97556E+05-2.65572E-10 1.02364E-09
 -1       778-9.09870E+05-1.80172E+05-2.24778E+02-4.10733E+05 3.78350E-10-6.78256E-10
 -1       779-9.21570E+05-1.68644E+05-2.68751E+02-3.97604E+05 1.06229E-09 7.68068E-10
 -1       780-9.09968E+05-1.80162E+05-4.54197E+02-4.10866E+05 1.54250E-09 5.45754E-10
 -1       781-9.21642E+05-1.68565E+05-8.89445E+02-3.97634E+05-2.13731E-10-6.02540E-11
 -1       782-9.10164E+05-1.80233E+05-1.91356E+03-4.10965E+05-1.61572E-09-1.08184E-09
 -1       783-9.21580E+05-1.68614E+05-3.88162E+03-3.97576E+05-3.00133E-10-1.09230E-09
 -1       784-9.12369E+05-1.82429E+05-9.17532E+03-4.10861E+05-2.29238E-09-1.12232E-09
 -1       785-9.20354E+05-1.72388E+05-1.78334E+04-3.95516E+05-5.90035E-11 1.96451E-10
 -1       786 7.46021E+04-3.33309E+03 9.56464E+03 2.14870E+00 2.49770E-10-1.58889E-09
 -1       787 7.84414E+04 3.96977E+03 6.48395E+03-1.02200E+03-8.32614E-11 2.39470E-09
 -1       788 7.61407E+04-4.37463E+02 2.48530E+03 1.44882E+00 4.37126E-11 3.30147E-10
 -1       789 7.66854E+04 5.17449E+02 1.47334E+03-1.02068E+03-2.35962E-10 3.95858E-10
 -1       790 7.63582E+04-5.74286E+01 6.34757E+02 8.37084E-01 8.33769E-11 2.02959E-09
 -1       791 7.64358E+04 6.73389E+01 3.54561E+02-1.02020E+03 1.10258E-10 2.26104E-09
 -1       792 7.63903E+04-7.87534E+00 1.72863E+02 9.73706E-01 9.37561E-12 1.09682E-09
 -1       793 7.64005E+04 1.15877E+01 1.14010E+02-1.02132E+03 2.00320E-10 2.93522E-09
 -1       794 7.63936E+04-3.70857E+00 9.67506E+01 1.95524E+00-2.46871E-10 1.27769E-09
 -1       795 7.64081E+04 2.50988E+01 1.45615E+02-1.02414E+03 6.37193E-10 5.21839E-10
 -1       796 7.63828E+04-2.08492E+01 2.37277E+02 3.79081E+00-3.87232E-10-2.61444E-10
 -1       797 7.64973E+04 1.86402E+02 5.35338E+02-1.02831E+03 3.52543E-10-4.46611E-09
 -1       798 7.63045E+04-1.57736E+02 8.97611E+02 6.12755E+00-3.07296E-10-2.63304E-09
 -1       799 7.71303E+04 1.43029E+03 2.33758E+03-1.03255E+03-2.98485E-10 3.07182E-10
 -1       800 7.57501E+04-1.20124E+03 3.44682E+03 8.02117E+00 9.46443E-11 4.34284E-11
 -1       801-5.50389E+03 7.01171E+04 1.20581E+04-6.79957E+02-3.87968E-09-2.21917E-09
 -1       802 1.37271E+04 7.77393E+04 1.97112E+04-5.25946E+05-9.64064E-09-2.93812E-09
 -1       803-3.96774E+03 7.14643E+04 2.49989E+04-6.64644E+02-4.58203E-09 5.56651E-09
 -1       804 4.18576E+04 9.30691E+04 6.13570E+04-5.25951E+05-1.02791E-08 8.44148E-09
 -1       805-3.26496E+04 5.54602E+04 8.62517E+04-6.80629E+02-1.04410E-09 3.92902E-09
 -1       806-8.09240E+04-2.07905E+04-6.82027E+03-3.71427E+04 1.04717E-09-5.77529E-10
 -1       807-8.09313E+04-1.94941E+04-3.27533E+03-3.93164E+04 1.54716E-09-2.78604E-09
 -1       808-8.09752E+04-1.76967E+04-1.38325E+03-3.84927E+04 1.01464E-08 1.29340E-09
 -1       809-8.02465E+04-1.84134E+04-6.71966E+02-3.95143E+04 6.73809E-09-2.64634E-08
 -1       810-8.09985E+04-1.75332E+04-3.05299E+02-3.85719E+04 6.07844E-09-1.16790E-09
 -1       811-8.01860E+04-1.83569E+04-1.51270E+02-3.95150E+04-8.59472E-11 1.24032E-09
 -1       812-8.10041E+04-1.75345E+04-7.52561E+01-3.85737E+04 3.10092E-09 5.63205E-09
 -1       813-8.01786E+04-1.83571E+04-4.75748E+01-3.95116E+04 4.49290E-10-6.83769E-10
 -1       814-8.10038E+04-1.75367E+04-4.46163E+01-3.85727E+04 7.94216E-10 1.50396E-09
 -1       815-8.01803E+04-1.83584E+04-7.02679E+01-3.95108E+04 2.43858E-10 2.99269E-09
 -1       816-8.09995E+04-1.75380E+04-1.31734E+02-3.85712E+04 5.43423E-11 9.73159E-10
 -1       817-8.02076E+04-1.83791E+04-2.85060E+02-3.95044E+04 2.99451E-10-7.51584E-10
 -1       818-8.09849E+04-1.76120E+04-5.84575E+02-3.85409E+04 3.09228E-10 1.26192E-09
 -1       819-8.05311E+04-1.87991E+04-1.38246E+03-3.93774E+04 1.33923E-10-2.20837E-09
 -1       820-8.09272E+04-1.89500E+04-2.87790E+03-3.80077E+04 3.18914E-09 9.23819E-09
 -1       821-1.06596E+05 4.59907E+03-1.31978E+04-1.89334E+01-8.64361E-10-2.15732E-09
 -1       822-1.11891E+05-5.47750E+03-8.94749E+03 1.86775E+03-9.61649E-10-1.17552E-09
 -1       823-1.08719E+05 6.03392E+02-3.43132E+03-3.17710E+01 9.08869E-10 3.19187E-09
 -1       824-1.09470E+05-7.13131E+02-2.03694E+03 1.88803E+03-2.40675E-10 1.50317E-09
 -1       825-1.09019E+05 7.91926E+01-8.84309E+02-3.92506E+01-1.79949E-09 2.35787E-10
 -1       826-1.09127E+05-9.24818E+01-5.06674E+02 1.90051E+03-3.82556E-09 1.22483E-09
 -1       827-1.09062E+05 1.16390E+01-2.72581E+02-4.42602E+01-2.25668E-09-1.24267E-10
 -1       828-1.09084E+05-2.18254E+01-2.29322E+02 1.90837E+03-3.30451E-09-1.38297E-09
 -1       829-1.09062E+05 1.15484E+01-2.69913E+02-4.71198E+01-4.30873E-11 1.67700E-09
 -1       830-1.09127E+05-9.07496E+01-4.99550E+02 1.91168E+03 1.24424E-09 3.45813E-09
 -1       831-1.09019E+05 7.80911E+01-8.70473E+02-4.75643E+01-1.49367E-09 2.94989E-10
 -1       832-1.09465E+05-7.01179E+02-2.00476E+03 1.91026E+03-9.87487E-10-1.77434E-09
 -1       833-1.08724E+05 5.94018E+02-3.37636E+03-4.56899E+01-1.91224E-09-1.07866E-09
 -1       834-1.11849E+05-5.38921E+03-8.80476E+03 1.90313E+03-2.03356E-09-2.70711E-09
 -1       835-1.06635E+05 4.52600E+03-1.29865E+04-4.03487E+01-7.43825E-10-7.27596E-10
 -1       836-3.08711E+02 1.27980E+05 9.55575E+03-9.47802E+03-1.30512E-10-5.43878E-10
 -1       837 1.90869E+03 1.30850E+05 7.45032E+03-1.78394E+04-3.67436E-10-4.44004E-10
 -1       838-1.22638E+02 1.28915E+05 6.87703E+03-9.44768E+03-1.06411E-10 1.59275E-09
 -1       839 3.78006E+03 1.32310E+05 1.21619E+04-1.78472E+04-4.93856E-10-4.67935E-10
 -1       840-6.50976E+02 1.26517E+05 1.92888E+04-9.46983E+03-2.68301E-10-1.94962E-09
 -1       856-7.48561E+04 2.36966E+03-1.02903E+04 1.43291E+03-1.34412E-09-1.79580E-09
 -1       857-7.85618E+04-3.22418E+03-6.58821E+03 5.67239E+03-1.76692E-09-2.45791E-10
 -1       858-7.64082E+04 2.44142E+02-2.66629E+03 1.41469E+03-2.47326E-09 1.02659E-09
 -1       859-7.68382E+04-3.12090E+02-1.48710E+03 5.69397E+03 1.31763E-10-1.96528E-09
 -1       860-7.65843E+04 2.76365E+01-6.75862E+02 1.41114E+03-4.34625E-10-1.84684E-09
 -1       861-7.66418E+04-2.43100E+01-3.60201E+02 5.69845E+03-1.08037E-09-2.96401E-09
 -1       862-7.66072E+04 4.96509E+00-1.80418E+02 1.41019E+03 2.59971E-09-7.79735E-10
 -1       863-7.66170E+04 3.08391E+00-1.11824E+02 5.69911E+03 5.49124E-09 9.91719E-10
 -1       864-7.66096E+04 2.97373E+00-9.13915E+01 1.41047E+03 3.52634E-09 3.41117E-10
 -1       865-7.66194E+04-2.98571E+00-1.25525E+02 5.69690E+03 4.81373E-09 2.21380E-09
 -1       866-7.66032E+04 8.88826E+00-2.08819E+02 1.41240E+03 1.76249E-09-5.65329E-10
 -1       867-7.66743E+04-8.84231E+01-4.42861E+02 5.69105E+03-5.10852E-10-1.17146E-09
 -1       868-7.65510E+04 7.18824E+01-7.88445E+02 1.41634E+03 3.52316E-09 2.24543E-09
 -1       869-7.71787E+04-9.47575E+02-1.94216E+03 5.66605E+03 2.41300E-09 1.16701E-09
 -1       870-7.60931E+04 6.96982E+02-3.03361E+03 1.43744E+03 3.74553E-09-2.59433E-10
 -1       871-1.49363E+03-1.08792E+04-4.42728E+03 4.29799E+04-2.20143E-09-2.98769E-10
 -1       872-5.96845E+02-1.18433E+04-1.65848E+03 5.48461E+04-1.87038E-09-2.55716E-09
 -1       873-2.29385E+00-1.14073E+04 5.86764E+02 4.28849E+04-2.16937E-09 1.77238E-10
 -1       874 8.71605E+02-1.06007E+04 3.26500E+03 5.48697E+04-1.30308E-09-7.73639E-11
 -1       875 2.21068E+03-1.21369E+04 7.05320E+03 4.29581E+04-2.32330E-09 8.71523E-10
 -1       876 1.16411E+05 1.80127E+04 9.06742E+03 4.62493E+04 6.22464E-10 5.61158E-10
 -1       877 1.17851E+05 2.15434E+04 5.15788E+03 4.80413E+04 2.41812E-09-1.96303E-09
 -1       878 1.17569E+05 1.83533E+04 2.09284E+03 4.65746E+04 1.57820E-09-1.31547E-09
 -1       879 1.16419E+05 1.98830E+04 1.06489E+03 4.81729E+04 2.29210E-09-7.54108E-09
 -1       880 1.17661E+05 1.83944E+04 4.84302E+02 4.65967E+04 3.81738E-09 1.96297E-09
 -1       881 1.16308E+05 1.97813E+04 2.52213E+02 4.81680E+04-4.44516E-10-5.14922E-09
 -1       882 1.17671E+05 1.84017E+04 1.45821E+02 4.65987E+04 7.15886E-10 2.83578E-10
 -1       883 1.16299E+05 1.97750E+04 1.34097E+02 4.81652E+04-1.45900E-09-2.02737E-09
 -1       884 1.17669E+05 1.84013E+04 1.91885E+02 4.65988E+04 7.35454E-10 2.12651E-09
 -1       885 1.16317E+05 1.97842E+04 3.74679E+02 4.81684E+04 1.73403E-09 1.75284E-09
 -1       886 1.17653E+05 1.83908E+04 7.43874E+02 4.65960E+04-1.67275E-09-4.80549E-09
 -1       887 1.16489E+05 1.99419E+04 1.64882E+03 4.81749E+04-3.17073E-10-4.99466E-09
 -1       888 1.17509E+05 1.83271E+04 3.24588E+03 4.65612E+04-2.85766E-10 1.05774E-09
 -1       889 1.18699E+05 2.25329E+04 8.00327E+03 4.79856E+04-1.95685E-09 2.16278E-09
 -1       890 1.15725E+05 1.77852E+04 1.40702E+04 4.60402E+04 2.48724E-09 1.52613E-09
 -1       891 1.23389E+02-6.38849E+04-2.14908E+03 1.11627E+04 1.21571E-09 6.18570E-10
 -1       892-4.74659E+02-6.45428E+04-1.68891E+03 2.25276E+04 8.65725E-10-1.00859E-09
 -1       893 3.29436E+01-6.40982E+04-1.54055E+03 1.11454E+04 6.89624E-10-1.20804E-09
 -1       894-9.17761E+02-6.48632E+04-2.73681E+03 2.24947E+04-1.04444E-09-1.12777E-09
 -1       895 2.59443E+02-6.35475E+04-4.28752E+03 1.11954E+04-2.67391E-10-7.63521E-10
 -1       956-1.16366E+05-2.03027E+03-4.84860E+03 1.19170E+04-2.27419E-09-9.31777E-10
 -1       957-1.17305E+05-6.70204E+02-2.47732E+03 1.41997E+04-2.91038E-10-9.15179E-10
 -1       958-1.16786E+05-6.08635E+01-1.11547E+03 1.18446E+04 1.79807E-09-3.75167E-10
 -1       959-1.16863E+05-1.21110E+01-5.68934E+02 1.42784E+04-8.09450E-10-6.38124E-10
 -1       960-1.16824E+05 1.46677E+01-2.76312E+02 1.18379E+04-1.93040E-09-4.88171E-10
 -1       961-1.16829E+05 1.31960E+01-1.45035E+02 1.42858E+04-4.41992E-09 6.45855E-10
 -1       962-1.16831E+05 1.24489E+01-7.99755E+01 1.18371E+04-2.63071E-09 3.68800E-10
 -1       963-1.16827E+05 1.32846E+01-5.89542E+01 1.42867E+04-1.54364E-09 2.67084E-09
 -1       964-1.16832E+05 1.26279E+01-6.50046E+01 1.18369E+04 1.62419E-09-2.75350E-10
 -1       965-1.16831E+05 1.41612E+01-1.06908E+02 1.42866E+04 2.20006E-09-8.13316E-10
 -1       966-1.16829E+05 1.50717E+01-1.97552E+02 1.18373E+04-1.58445E-09 2.99906E-10
 -1       967-1.16857E+05-2.78750E+00-4.03762E+02 1.42820E+04 3.33330E-10 1.78454E-09
 -1       968-1.16804E+05-3.75797E+01-7.90004E+02 1.18415E+04-1.88493E-10-9.89530E-10
 -1       969-1.17171E+05-4.68046E+02-1.75407E+03 1.42326E+04-3.79259E-10 8.35371E-10
 -1       970-1.16508E+05-1.43158E+03-3.43258E+03 1.18873E+04 5.50017E-10-1.94314E-09
 -1       971-1.38580E+05-5.61163E+01-5.34893E+03 4.20472E+03-7.62338E-09-3.65094E-09
 -1       972-1.40111E+05-9.33817E+02-3.09147E+03 7.26181E+03-1.27473E-08-5.74119E-10
 -1       973-1.39264E+05 1.52067E+01-1.34825E+03 4.16366E+03-7.00470E-09-6.58360E-10
 -1       974-1.39382E+05-4.26649E+01-7.08693E+02 7.30638E+03 1.40517E-10 1.76897E-10
 -1       975-1.39317E+05 8.37688E+00-3.46474E+02 4.15988E+03-1.01977E-09-2.00049E-09
 -1       976-1.39327E+05 5.66810E+00-1.93645E+02 7.31116E+03-2.13947E-09 7.36151E-10
 -1       977-1.39324E+05 6.31826E+00-1.27776E+02 4.15885E+03 2.68722E-09-1.33321E-09
 -1       978-1.39324E+05 8.52058E+00-1.32917E+02 7.31262E+03 6.73643E-09-3.95619E-09
 -1       979-1.39323E+05 7.81381E+00-1.99106E+02 4.15841E+03 1.90910E-09-2.55764E-09
 -1       980-1.39339E+05 4.38316E+00-3.76740E+02 7.31281E+03 2.90336E-09-1.01130E-09
 -1       981-1.39310E+05 1.49778E+01-7.22474E+02 4.15865E+03-5.53996E-10-2.29502E-09
 -1       982-1.39463E+05-9.64028E+01-1.50713E+03 7.31067E+03-5.27223E-10 5.05885E-10
 -1       983-1.39198E+05 3.23177E+01-2.87958E+03 4.16061E+03 5.93559E-10-5.04087E-10
 -1       984-1.41030E+05-2.00049E+03-6.61332E+03 7.28122E+03-7.18046E-10-1.87595E-09
 -1       985-1.37739E+05-1.17117E+02-1.14435E+04 4.18898E+03 1.01363E-09-6.80302E-10
 -3
    1PSTEP                         3           2           1          
  100CL  102 5.00000E-01         409                     0    2           1
 -4  DISP        4    1
 -5  D1          1    2    1    0
 -5  D2          1    2    2    0
 -5  D3          1    2    3    0
 -5  ALL         1    2    0    0    1ALL
 -1         1 9.79330E-05 0.00000E+00 0.00000E+00
 -1         2 9.31710E-05 1.11649E-28 0.00000E+00
 -1         3 7.70663E-05-1.05267E-27 0.00000E+00
 -1         5 5.51528E-05 2.32765E-27 3.30872E-24
 -1         8 7.93867E-05-7.83627E-07 0.00000E+00
 -1         9 6.93289E-05-1.07409E-06 0.00000E+00
 -1        10 7.10454E-05-1.54435E-06 3.30872E-24
 -1        12 5.45540E-05 5.76599E-07 0.00000E+00
 -1        15 5.85579E-05-8.41419E-07 0.00000E+00
 -1        16 4.91702E-05-1.20180E-06 0.00000E+00
 -1        17 5.17504E-05-3.24716E-06 0.00000E+00
 -1        18 5.17039E-05-1.92686E-07 0.00000E+00
 -1        19 5.27575E-05 1.14974E-06 0.00000E+00
 -1        20 5.30572E-05 1.47677E-05 0.00000E+00
 -1        21 5.19902E-05 3.13802E-05 0.00000E+00
 -1        24 1.54849E-05-4.14116E-06 0.00000E+00
 -1        25 4.95536E-05-3.31144E-08 0.00000E+00
 -1        26 5.04146E-05 1.56759E-06 0.00000E+00
 -1        27 4.92033E-05 1.38938E-05 0.00000E+00
 -1        28 4.83448E-05 3.08790E-05 0.00000E+00
 -1        32 0.00000E+00 0.00000E+00 0.00000E+00
 -1        33 4.75067E-05 2.09411E-06 0.00000E+00
 -1        34 4.62015E-05 1.38435E-05 0.00000E+00
 -1        35 4.46445E-05 3.06122E-05 0.00000E+00
 -1        51 9.66154E-05-1.30417E-07 0.00000E+00
 -1        52 9.43334E-05-2.56787E-07 0.00000E+00
 -1        53 9.12740E-05-3.83398E-07 0.00000E+00
 -1        54 8.76323E-05-5.11754E-07-3.30872E-24
 -1        55 8.36043E-05-6.43128E-07 6.20385E-24
 -1        56 9.65105E-05-8.71273E-07 2.64698E-23
 -1        57 9.52387E-05-2.31684E-06-2.64698E-23
 -1        58 9.41209E-05-4.16377E-06-5.29396E-23
 -1        59 9.30807E-05-6.24842E-06-2.64698E-23
 -1        60 9.20544E-05-8.37119E-06 0.00000E+00
 -1        61 9.09668E-05-1.03351E-05-2.64698E-23
 -1        62 8.97525E-05-1.19609E-05 0.00000E+00
 -1        63 8.83503E-05-1.30848E-05-2.64698E-23
 -1        64 8.67204E-05-1.36016E-05 0.00000E+00
 -1        65 8.48333E-05-1.34326E-05 0.00000E+00
 -1        66 8.26889E-05-1.25790E-05 0.00000E+00
 -1        67 8.02999E-05-1.10717E-05 0.00000E+00
 -1        68 7.77051E-05-9.01866E-06 5.29396E-23
 -1        69 7.49628E-05-6.54781E-06 0.00000E+00
 -1        70 7.21283E-05-3.84332E-06 2.64698E-23
 -1        86 9.20677E-05-1.69262E-07-6.61744E-24
 -1        87 8.87664E-05-3.43389E-07 3.30872E-24
 -1        88 8.40015E-05-5.23006E-07-6.61744E-24
 -1        89 7.85189E-05-7.07447E-07 3.30872E-24
 -1        90 7.33012E-05-8.90126E-07 6.61744E-24
 -1       121 7.68980E-05-2.56654E-07-6.61744E-24
 -1       122 7.63937E-05-5.13422E-07 0.00000E+00
 -1       123 7.55542E-05-7.70417E-07 6.61744E-24
 -1       124 7.43813E-05-1.02780E-06-3.30872E-24
 -1       125 7.28773E-05-1.28559E-06-6.61744E-24
 -1       191 5.51362E-05 9.61097E-08-3.30872E-24
 -1       192 5.50863E-05 1.92217E-07-1.65436E-24
 -1       193 5.50031E-05 2.88323E-07 3.30872E-24
 -1       194 5.48867E-05 3.84424E-07-1.65436E-24
 -1       195 5.47370E-05 4.80517E-07 3.30872E-24
 -1       251 7.90280E-05-5.97179E-06-1.32349E-23
 -1       252 7.84440E-05-2.83053E-05 0.00000E+00
 -1       253 7.77330E-05-5.63384E-05 0.00000E+00
 -1       254 7.71634E-05-7.85405E-05-6.61744E-24
 -1       255 7.67769E-05-8.69174E-05 0.00000E+00
 -1       256 7.63404E-05-7.36865E-05 0.00000E+00
 -1       257 7.55631E-05-4.34431E-05 0.00000E+00
 -1       258 7.43609E-05-1.04206E-06-6.61744E-24
 -1       259 7.31575E-05 4.13897E-05 1.32349E-23
 -1       260 7.23777E-05 7.17234E-05 0.00000E+00
 -1       261 7.19396E-05 8.50691E-05 0.00000E+00
 -1       262 7.15539E-05 7.67969E-05-6.61744E-24
 -1       263 7.09856E-05 5.46595E-05 0.00000E+00
 -1       264 7.02744E-05 2.66211E-05 0.00000E+00
 -1       265 6.96889E-05 4.22338E-06-1.32349E-23
 -1       266 7.59153E-05-8.04783E-07 0.00000E+00
 -1       267 7.24439E-05-8.13006E-07 0.00000E+00
 -1       268 6.89724E-05-8.22063E-07 0.00000E+00
 -1       269 6.55009E-05-8.28678E-07 4.13590E-25
 -1       270 6.20294E-05-8.35244E-07 0.00000E+00
 -1       271 7.66448E-05 1.62499E-06-2.64698E-23
 -1       272 7.41734E-05 3.14587E-06 0.00000E+00
 -1       273 7.20034E-05 3.87457E-06 0.00000E+00
 -1       274 7.00876E-05 3.89988E-06 0.00000E+00
 -1       275 6.83915E-05 3.33813E-06 0.00000E+00
 -1       276 6.68661E-05 2.31645E-06 2.64698E-23
 -1       277 6.54596E-05 9.76168E-07-5.29396E-23
 -1       278 6.41164E-05-5.34114E-07 0.00000E+00
 -1       279 6.27794E-05-2.06076E-06 0.00000E+00
 -1       280 6.13910E-05-3.44970E-06 0.00000E+00
 -1       281 5.98952E-05-4.55106E-06 0.00000E+00
 -1       282 5.82394E-05-5.22168E-06 0.00000E+00
 -1       283 5.63737E-05-5.33136E-06 0.00000E+00
 -1       284 5.42605E-05-4.76084E-06 0.00000E+00
 -1       285 5.18535E-05-3.41627E-06-2.64698E-23
 -1       301 6.59606E-05-1.10199E-06 0.00000E+00
 -1       302 6.25814E-05-1.11591E-06 0.00000E+00
 -1       303 5.92020E-05-1.12858E-06 3.30872E-24
 -1       304 5.58332E-05-1.14243E-06 3.30872E-24
 -1       305 5.24857E-05-1.15953E-06 0.00000E+00
 -1       306 6.73122E-05 1.31147E-06 0.00000E+00
 -1       307 6.56806E-05 2.59139E-06 0.00000E+00
 -1       308 6.44150E-05 2.90291E-06 0.00000E+00
 -1       309 6.34546E-05 2.38716E-06 1.32349E-23
 -1       310 6.27422E-05 1.20845E-06-2.64698E-23
 -1       311 6.22117E-05-4.59225E-07 0.00000E+00
 -1       312 6.17942E-05-2.42981E-06 2.64698E-23
 -1       313 6.14183E-05-4.51234E-06 1.32349E-23
 -1       314 6.10119E-05-6.51302E-06-2.64698E-23
 -1       315 6.05033E-05-8.23945E-06 1.32349E-23
 -1       316 5.98229E-05-9.50600E-06 0.00000E+00
 -1       317 5.89048E-05-1.01346E-05 0.00000E+00
 -1       318 5.76867E-05-9.96278E-06-2.64698E-23
 -1       319 5.61174E-05-8.83973E-06 0.00000E+00
 -1       320 5.41405E-05-6.64158E-06 0.00000E+00
 -1       336 6.88417E-05-1.82596E-06 6.61744E-24
 -1       337 6.62231E-05-2.10892E-06-3.30872E-24
 -1       338 6.31962E-05-2.39289E-06-6.61744E-24
 -1       339 5.97690E-05-2.67755E-06 3.30872E-24
 -1       340 5.59503E-05-2.96366E-06-6.61744E-24
 -1       406 5.43377E-05 6.72662E-07-3.30872E-24
 -1       407 5.40881E-05 7.68684E-07-1.65436E-24
 -1       408 5.38052E-05 8.64635E-07 0.00000E+00
 -1       409 5.34891E-05 9.60387E-07 0.00000E+00
 -1       410 5.31397E-05 1.05574E-06 3.30872E-24
 -1       521 4.62903E-05 8.36263E-07 5.29396E-23
 -1       522 4.37461E-05 1.81663E-06 0.00000E+00
 -1       523 4.15595E-05 1.85479E-06-5.29396E-23
 -1       524 3.96712E-05 1.07113E-06 0.00000E+00
 -1       525 3.80286E-05-3.70278E-07 0.00000E+00
 -1       526 3.65621E-05-2.28748E-06-2.64698E-23
 -1       527 3.51970E-05-4.47646E-06-5.29396E-23
 -1       528 3.38537E-05-6.72493E-06 0.00000E+00
 -1       529 3.24523E-05-8.81780E-06-5.29396E-23
 -1       530 3.09146E-05-1.05450E-05 0.00000E+00
 -1       531 2.91678E-05-1.17130E-05 5.29396E-23
 -1       532 2.71472E-05-1.21457E-05 2.64698E-23
 -1       533 2.47973E-05-1.17009E-05 0.00000E+00
 -1       534 2.20828E-05-1.02611E-05 2.64698E-23
 -1       535 1.89643E-05-7.76031E-06 0.00000E+00
 -1       536 5.17331E-05 6.34019E-07 0.00000E+00
 -1       537 5.17264E-05 3.56444E-06 0.00000E+00
 -1       538 5.17214E-05 5.64219E-06 0.00000E+00
 -1       539 5.17190E-05 6.96562E-06 2.06795E-25
 -1       540 5.17173E-05 7.63300E-06 0.00000E+00
 -1       541 5.17161E-05 7.74269E-06 0.00000E+00
 -1       542 5.17149E-05 7.39303E-06 0.00000E+00
 -1       543 5.17136E-05 6.68238E-06 0.00000E+00
 -1       544 5.17120E-05 5.70913E-06 0.00000E+00
 -1       545 5.17104E-05 4.57165E-06 0.00000E+00
 -1       546 5.17087E-05 3.36832E-06-4.84676E-27
 -1       547 5.17070E-05 2.19754E-06 0.00000E+00
 -1       548 5.17055E-05 1.15767E-06 0.00000E+00
 -1       549 5.17045E-05 3.47102E-07 0.00000E+00
 -1       550 5.17035E-05-1.35772E-07 0.00000E+00
 -1       551 4.64005E-05-3.38886E-06 3.30872E-24
 -1       552 4.03812E-05-3.53162E-06-2.27475E-24
 -1       553 3.39843E-05-3.67673E-06 6.61744E-24
 -1       554 2.75058E-05-3.82426E-06-6.61744E-24
 -1       555 2.12418E-05-3.97369E-06 0.00000E+00
 -1       556 5.02663E-05 5.04237E-07 1.32349E-23
 -1       557 4.91227E-05 3.37444E-06 0.00000E+00
 -1       558 4.82822E-05 5.44512E-06 0.00000E+00
 -1       559 4.77105E-05 6.80465E-06 0.00000E+00
 -1       560 4.73734E-05 7.54125E-06 0.00000E+00
 -1       561 4.72373E-05 7.74368E-06 3.30872E-24
 -1       562 4.72682E-05 7.50081E-06 0.00000E+00
 -1       563 4.74328E-05 6.90160E-06 0.00000E+00
 -1       564 4.76974E-05 6.03509E-06 0.00000E+00
 -1       565 4.80288E-05 4.99034E-06-3.30872E-24
 -1       566 4.83935E-05 3.85646E-06-1.65436E-24
 -1       567 4.87582E-05 2.72261E-06-4.13590E-25
 -1       568 4.90897E-05 1.67788E-06 0.00000E+00
 -1       569 4.93546E-05 8.11296E-07 0.00000E+00
 -1       570 4.95198E-05 2.11876E-07 0.00000E+00
 -1       571 5.17676E-05-7.00407E-08-4.13590E-25
 -1       572 5.18329E-05 1.07574E-08 2.06795E-25
 -1       573 5.18986E-05 5.72002E-08-1.65436E-24
 -1       574 5.19646E-05 7.71722E-08 4.13590E-25
 -1       575 5.20306E-05 7.85924E-08 0.00000E+00
 -1       576 5.20967E-05 6.94322E-08 8.27181E-25
 -1       577 5.21628E-05 5.76677E-08 1.65436E-24
 -1       578 5.22289E-05 5.12817E-08 0.00000E+00
 -1       579 5.22950E-05 5.82576E-08 0.00000E+00
 -1       580 5.23611E-05 8.65789E-08 0.00000E+00
 -1       581 5.24272E-05 1.44228E-07 0.00000E+00
 -1       582 5.24933E-05 2.39180E-07 3.30872E-24
 -1       583 5.25594E-05 3.79400E-07 0.00000E+00
 -1       584 5.26255E-05 5.72775E-07 0.00000E+00
 -1       585 5.26915E-05 8.27143E-07 0.00000E+00
 -1       586 5.13647E-05-1.65241E-07 0.00000E+00
 -1       587 5.09805E-05-1.37919E-07 1.24077E-24
 -1       588 5.05792E-05-1.10711E-07-2.06795E-25
 -1       589 5.01890E-05-8.37877E-08 0.00000E+00
 -1       590 4.98379E-05-5.74213E-08 0.00000E+00
 -1       591 5.16131E-05-4.60986E-08 0.00000E+00
 -1       592 5.15314E-05 6.73687E-08 0.00000E+00
 -1       593 5.14592E-05 1.54351E-07 0.00000E+00
 -1       594 5.13945E-05 2.20763E-07 4.13590E-25
 -1       595 5.13351E-05 2.72562E-07 0.00000E+00
 -1       596 5.12789E-05 3.15660E-07 0.00000E+00
 -1       597 5.12238E-05 3.55965E-07 8.27181E-25
 -1       598 5.11674E-05 3.99377E-07 4.13590E-25
 -1       599 5.11077E-05 4.51798E-07 0.00000E+00
 -1       600 5.10425E-05 5.19127E-07 0.00000E+00
 -1       601 5.09694E-05 6.07263E-07 8.27181E-25
 -1       602 5.08863E-05 7.22112E-07 2.06795E-25
 -1       603 5.07912E-05 8.69580E-07-8.27181E-25
 -1       604 5.06818E-05 1.05561E-06 3.10193E-25
 -1       605 5.05562E-05 1.28611E-06 0.00000E+00
 -1       606 5.27791E-05 1.60716E-06-3.30872E-24
 -1       607 5.27988E-05 2.14046E-06 0.00000E+00
 -1       608 5.28178E-05 2.74515E-06 0.00000E+00
 -1       609 5.28366E-05 3.41617E-06 0.00000E+00
 -1       610 5.28553E-05 4.14844E-06 0.00000E+00
 -1       611 5.28739E-05 4.93679E-06 0.00000E+00
 -1       612 5.28924E-05 5.77605E-06 0.00000E+00
 -1       613 5.29109E-05 6.66107E-06 0.00000E+00
 -1       614 5.29294E-05 7.58666E-06 0.00000E+00
 -1       615 5.29478E-05 8.54765E-06 0.00000E+00
 -1       616 5.29662E-05 9.53889E-06 0.00000E+00
 -1       617 5.29845E-05 1.05552E-05 0.00000E+00
 -1       618 5.30028E-05 1.15914E-05 8.27181E-25
 -1       619 5.30211E-05 1.26423E-05-4.13590E-25
 -1       620 5.30393E-05 1.37028E-05 8.27181E-25
 -1       621 5.23473E-05 1.21973E-06 1.65436E-24
 -1       622 5.19377E-05 1.28993E-06-8.27181E-25
 -1       623 5.15340E-05 1.36010E-06 1.65436E-24
 -1       624 5.11420E-05 1.43009E-06 0.00000E+00
 -1       625 5.07670E-05 1.49980E-06 1.65436E-24
 -1       626 5.26498E-05 1.64184E-06 0.00000E+00
 -1       627 5.25132E-05 2.21135E-06 0.00000E+00
 -1       628 5.23503E-05 2.85091E-06 0.00000E+00
 -1       629 5.21641E-05 3.55256E-06 0.00000E+00
 -1       630 5.19576E-05 4.30833E-06 0.00000E+00
 -1       631 5.17338E-05 5.11019E-06 0.00000E+00
 -1       632 5.14956E-05 5.95007E-06-3.30872E-24
 -1       633 5.12462E-05 6.81997E-06 0.00000E+00
 -1       634 5.09886E-05 7.71183E-06-3.30872E-24
 -1       635 5.07257E-05 8.61759E-06 8.27181E-25
 -1       636 5.04605E-05 9.52925E-06 0.00000E+00
 -1       637 5.01962E-05 1.04387E-05 0.00000E+00
 -1       638 4.99356E-05 1.13380E-05 1.65436E-24
 -1       639 4.96816E-05 1.22190E-05 0.00000E+00
 -1       640 4.94370E-05 1.30737E-05 8.27181E-25
 -1       656 5.21477E-05 1.46258E-05 0.00000E+00
 -1       657 5.14596E-05 1.44778E-05 1.65436E-24
 -1       658 5.09072E-05 1.43302E-05 0.00000E+00
 -1       659 5.04046E-05 1.41828E-05 1.65436E-24
 -1       660 4.98653E-05 1.40349E-05 1.65436E-24
 -1       661 5.27298E-05 1.58549E-05 0.00000E+00
 -1       662 5.23966E-05 1.69657E-05-8.27181E-25
 -1       663 5.20575E-05 1.80918E-05-1.65436E-24
 -1       664 5.17156E-05 1.92265E-05 0.00000E+00
 -1       665 5.13734E-05 2.03623E-05-1.65436E-24
 -1       666 5.10335E-05 2.14921E-05 8.27181E-25
 -1       667 5.06985E-05 2.26088E-05 0.00000E+00
 -1       668 5.03711E-05 2.37052E-05 0.00000E+00
 -1       669 5.00541E-05 2.47743E-05 0.00000E+00
 -1       670 4.97501E-05 2.58086E-05 0.00000E+00
 -1       671 4.94618E-05 2.68012E-05 0.00000E+00
 -1       672 4.91918E-05 2.77446E-05 0.00000E+00
 -1       673 4.89429E-05 2.86316E-05 0.00000E+00
 -1       674 4.87173E-05 2.94548E-05 0.00000E+00
 -1       675 4.85186E-05 3.02069E-05-8.27181E-25
 -1       676 5.13806E-05 3.12960E-05 0.00000E+00
 -1       677 5.07714E-05 3.12119E-05 0.00000E+00
 -1       678 5.01629E-05 3.11279E-05 0.00000E+00
 -1       679 4.95554E-05 3.10442E-05 0.00000E+00
 -1       680 4.89492E-05 3.09604E-05 1.65436E-24
 -1       771 1.30814E-05-5.30939E-08 5.29396E-23
 -1       772 1.09670E-05 3.25015E-06 0.00000E+00
 -1       773 9.12796E-06 5.82360E-06 0.00000E+00
 -1       774 7.54199E-06 7.72504E-06 1.32349E-23
 -1       775 6.18722E-06 9.01280E-06-2.64698E-23
 -1       776 5.04106E-06 9.74624E-06 1.32349E-23
 -1       777 4.08077E-06 9.98517E-06 0.00000E+00
 -1       778 3.28340E-06 9.79015E-06 0.00000E+00
 -1       779 2.62594E-06 9.22209E-06 0.00000E+00
 -1       780 2.08524E-06 8.34245E-06-1.32349E-23
 -1       781 1.63812E-06 7.21298E-06 0.00000E+00
 -1       782 1.26133E-06 5.89583E-06 0.00000E+00
 -1       783 9.31652E-07 4.45326E-06 0.00000E+00
 -1       784 6.26137E-07 2.94786E-06 0.00000E+00
 -1       785 3.21594E-07 1.44218E-06 0.00000E+00
 -1       786 4.96043E-05 7.10488E-08 0.00000E+00
 -1       787 4.96579E-05 1.47515E-07 0.00000E+00
 -1       788 4.97115E-05 2.02127E-07 0.00000E+00
 -1       789 4.97656E-05 2.40711E-07 0.00000E+00
 -1       790 4.98197E-05 2.69068E-07 1.65436E-24
 -1       791 4.98739E-05 2.92991E-07 0.00000E+00
 -1       792 4.99282E-05 3.18263E-07-1.65436E-24
 -1       793 4.99825E-05 3.50672E-07 8.27181E-25
 -1       794 5.00367E-05 3.96015E-07-1.65436E-24
 -1       795 5.00910E-05 4.60101E-07 8.27181E-25
 -1       796 5.01453E-05 5.48769E-07 0.00000E+00
 -1       797 5.01995E-05 6.67881E-07 8.27181E-25
 -1       798 5.02537E-05 8.23347E-07-1.65436E-24
 -1       799 5.03077E-05 1.02111E-06 8.27181E-25
 -1       800 5.03617E-05 1.26717E-06-1.65436E-24
 -1       801 4.57121E-05 7.62361E-09 0.00000E+00
 -1       802 3.61932E-05 1.59893E-08 0.00000E+00
 -1       803 2.39301E-05-2.24350E-09 8.27181E-25
 -1       804 1.18552E-05-2.27016E-08 1.65436E-24
 -1       805 2.90027E-06-1.34336E-08 1.32349E-23
 -1       806 4.94511E-05 3.99178E-08 1.65436E-24
 -1       807 4.93510E-05 1.00155E-07 0.00000E+00
 -1       808 4.92534E-05 1.52415E-07 0.00000E+00
 -1       809 4.91568E-05 2.01114E-07-8.27181E-25
 -1       810 4.90597E-05 2.50646E-07 0.00000E+00
 -1       811 4.89607E-05 3.05370E-07 0.00000E+00
 -1       812 4.88581E-05 3.69640E-07 1.65436E-24
 -1       813 4.87503E-05 4.47803E-07 0.00000E+00
 -1       814 4.86357E-05 5.44207E-07 0.00000E+00
 -1       815 4.85125E-05 6.63197E-07 0.00000E+00
 -1       816 4.83793E-05 8.09115E-07-8.27181E-25
 -1       817 4.82343E-05 9.86303E-07-8.27181E-25
 -1       818 4.80761E-05 1.19910E-06-1.65436E-24
 -1       819 4.79029E-05 1.45182E-06 4.13590E-25
 -1       820 4.77134E-05 1.74878E-06 1.65436E-24
 -1       821 5.03432E-05 1.95065E-06 0.00000E+00
 -1       822 5.02676E-05 2.43499E-06 8.27181E-25
 -1       823 5.01921E-05 3.01036E-06 0.00000E+00
 -1       824 5.01158E-05 3.66633E-06 0.00000E+00
 -1       825 5.00395E-05 4.39235E-06 0.00000E+00
 -1       826 4.99629E-05 5.17771E-06 0.00000E+00
 -1       827 4.98863E-05 6.01162E-06 1.65436E-24
 -1       828 4.98096E-05 6.88322E-06-8.27181E-25
 -1       829 4.97329E-05 7.78154E-06 0.00000E+00
 -1       830 4.96562E-05 8.69559E-06 0.00000E+00
 -1       831 4.95795E-05 9.61437E-06 1.65436E-24
 -1       832 4.95030E-05 1.05268E-05 0.00000E+00
 -1       833 4.94266E-05 1.14220E-05-1.65436E-24
 -1       834 4.93508E-05 1.22888E-05 0.00000E+00
 -1       835 4.92750E-05 1.31164E-05 8.27181E-25
 -1       836 5.00164E-05 1.65452E-06 1.65436E-24
 -1       837 4.95416E-05 1.74402E-06 0.00000E+00
 -1       838 4.90216E-05 1.83341E-06-1.65436E-24
 -1       839 4.84880E-05 1.92239E-06 0.00000E+00
 -1       840 4.79725E-05 2.01122E-06-8.27181E-25
 -1       856 4.91534E-05 1.47105E-05 0.00000E+00
 -1       857 4.91001E-05 1.56433E-05 4.13590E-25
 -1       858 4.90467E-05 1.66744E-05-1.65436E-24
 -1       859 4.89928E-05 1.77859E-05 8.27181E-25
 -1       860 4.89387E-05 1.89601E-05 0.00000E+00
 -1       861 4.88845E-05 2.01789E-05 0.00000E+00
 -1       862 4.88302E-05 2.14244E-05-1.65436E-24
 -1       863 4.87759E-05 2.26788E-05-8.27181E-25
 -1       864 4.87216E-05 2.39240E-05 1.65436E-24
 -1       865 4.86673E-05 2.51421E-05 0.00000E+00
 -1       866 4.86131E-05 2.63151E-05-1.65436E-24
 -1       867 4.85589E-05 2.74252E-05 8.27181E-25
 -1       868 4.85049E-05 2.84545E-05 0.00000E+00
 -1       869 4.84511E-05 2.93850E-05 0.00000E+00
 -1       870 4.83974E-05 3.01991E-05 1.65436E-24
 -1       871 4.85951E-05 1.38875E-05 0.00000E+00
 -1       872 4.80855E-05 1.38798E-05 0.00000E+00
 -1       873 4.76332E-05 1.38718E-05 0.00000E+00
 -1       874 4.71963E-05 1.38634E-05 0.00000E+00
 -1       875 4.67329E-05 1.38546E-05 4.13590E-25
 -1       876 4.89983E-05 1.47174E-05 0.00000E+00
 -1       877 4.87719E-05 1.56073E-05-1.65436E-24
 -1       878 4.85240E-05 1.65548E-05-3.30872E-24
 -1       879 4.82576E-05 1.75523E-05 0.00000E+00
 -1       880 4.79755E-05 1.85920E-05 0.00000E+00
 -1       881 4.76805E-05 1.96661E-05-1.65436E-24
 -1       882 4.73754E-05 2.07670E-05 0.00000E+00
 -1       883 4.70632E-05 2.18871E-05 1.65436E-24
 -1       884 4.67467E-05 2.30186E-05 3.30872E-24
 -1       885 4.64287E-05 2.41538E-05 0.00000E+00
 -1       886 4.61121E-05 2.52851E-05 3.30872E-24
 -1       887 4.57999E-05 2.64049E-05 1.65436E-24
 -1       888 4.54947E-05 2.75054E-05 0.00000E+00
 -1       889 4.51991E-05 2.85787E-05 0.00000E+00
 -1       890 4.49162E-05 2.96175E-05-8.27181E-25
 -1       891 4.77944E-05 3.08348E-05 0.00000E+00
 -1       892 4.72743E-05 3.07900E-05-4.13590E-25
 -1       893 4.67419E-05 3.07452E-05 8.27181E-25
 -1       894 4.61546E-05 3.07005E-05 0.00000E+00
 -1       895 4.54696E-05 3.06557E-05-8.27181E-25
 -1       956 4.74270E-05 2.56538E-06 1.65436E-24
 -1       957 4.73457E-05 3.11058E-06-4.13590E-25
 -1       958 4.72642E-05 3.72181E-06-3.30872E-24
 -1       959 4.71824E-05 4.39070E-06 0.00000E+00
 -1       960 4.71006E-05 5.10885E-06 1.65436E-24
 -1       961 4.70187E-05 5.86782E-06 8.27181E-25
 -1       962 4.69368E-05 6.65915E-06 1.65436E-24
 -1       963 4.68548E-05 7.47441E-06 0.00000E+00
 -1       964 4.67729E-05 8.30513E-06-1.65436E-24
 -1       965 4.66909E-05 9.14286E-06 1.65436E-24
 -1       966 4.66090E-05 9.97914E-06-3.30872E-24
 -1       967 4.65270E-05 1.08055E-05 0.00000E+00
 -1       968 4.64452E-05 1.16135E-05 0.00000E+00
 -1       969 4.63634E-05 1.23948E-05 0.00000E+00
 -1       970 4.62819E-05 1.31408E-05-3.30872E-24
 -1       971 4.61059E-05 1.45615E-05 1.65436E-24
 -1       972 4.60086E-05 1.53767E-05 0.00000E+00
 -1       973 4.59112E-05 1.62780E-05 0.00000E+00
 -1       974 4.58135E-05 1.72540E-05-1.65436E-24
 -1       975 4.57156E-05 1.82932E-05-3.30872E-24
 -1       976 4.56177E-05 1.93842E-05 1.65436E-24
 -1       977 4.55197E-05 2.05155E-05-3.30872E-24
 -1       978 4.54217E-05 2.16756E-05 1.65436E-24
 -1       979 4.53237E-05 2.28529E-05-3.30872E-24
 -1       980 4.52257E-05 2.40361E-05 0.00000E+00
 -1       981 4.51277E-05 2.52135E-05 0.00000E+00
 -1       982 4.50298E-05 2.63737E-05 0.00000E+00
 -1       983 4.49321E-05 2.75051E-05 0.00000E+00
 -1       984 4.48348E-05 2.85963E-05 0.00000E+00
 -1       985 4.47378E-05 2.96358E-05 0.00000E+00
 -3
    1PSTEP                         4           2           1          
  100CL  102 5.00000E-01         409                     0    2           1
 -4  STRESS      6    1
 -5  SXX         1    4    1    1
 -5  SYY         1    4    2    2
 -5  SZZ         1    4    3    3
 -5  SXY         1    4    1    2
 -5  SYZ         1    4    2    3
 -5  SZX         1    4    3    1
 -1         1-2.07527E+06-9.00461E+05-4.66731E+05-1.11281E+06 1.23691E-10-4.07454E-10
 -1         2 1.22220E+03-4.75980E+05 4.18546E+03-4.94337E+03-2.58093E-09 1.28700E-08
 -1         3-2.94234E+01-7.33482E+05 1.82066E+02-2.23079E+02 1.23018E-10-4.22006E-09
 -1         5-8.61373E+00 2.75020E+05 7.72679E+00 2.00020E-01 1.46098E-10 3.22052E-09
 -1         8-1.16687E+06-4.37136E+05-1.38140E+05-6.04172E+05 1.92813E-10 9.76434E-09
 -1         9-1.43212E+06-5.18063E+05-1.98527E+05-4.39791E+05-1.29512E-10-1.16997E-09
 -1        10-6.32625E+02-7.66966E+05-1.23740E+03-1.52592E+03-2.59229E-09-1.40553E-08
 -1        12-5.45116E+00 2.75036E+05 2.50652E+02 1.60914E+00 2.36312E-10 6.97219E-09
 -1        15 1.98207E+03 1.07530E+03 6.20182E+03 3.02199E+00-1.03853E-10 3.76104E-09
 -1        16-2.97480E+06-9.60153E+05-4.53964E+05-9.78596E+05-8.00355E-10 4.99616E-09
 -1        17-5.26904E+05-4.05121E+05-8.30458E+04-3.64128E+05-5.23214E-09-1.42900E-09
 -1        18 2.39069E+04 5.23156E+03-1.06616E+04-6.76715E+04 1.17552E-10-2.38242E-09
 -1        19 8.30378E+04 9.89794E+04-6.37799E+02 1.00566E+04-2.59388E-10-1.83354E-09
 -1        20 4.25532E+04-1.23027E+05-2.32999E+04 3.86423E+04 1.07624E-11-5.85472E-09
 -1        21-6.07020E+01-2.40444E+05-9.59460E+02-1.13929E+02 5.41349E-09 5.62710E-09
 -1        24-2.16761E+06-7.85681E+05-2.53850E+05-1.01911E+06-3.71801E-09-5.15623E-09
 -1        25 1.75272E+04 2.13398E+04 1.79447E+04-2.94613E+05 9.25684E-10-2.51348E-09
 -1        26-1.59368E+04 7.02860E+04-4.35499E+03-1.56801E+04-2.12094E-10 2.44651E-09
 -1        27-2.42815E+04-7.35679E+04-3.38233E+04 5.28851E+04-1.23903E-09 2.42107E-09
 -1        28-1.19393E+03-7.34194E+04 2.47415E+03 2.67511E+04 4.12240E-09-1.84512E-09
 -1        32-6.65356E+05-8.50491E+04 2.06354E+05-9.22994E+05-5.96629E-10 1.17780E-10
 -1        33-9.86109E+04 6.53617E+04 2.11749E+04-2.75198E+04 8.15893E-11 9.39811E-10
 -1        34-1.59893E+05-2.17556E+04-2.97754E+03 5.07211E+04-2.34924E-10-1.54523E-09
 -1        35-1.93063E+04-2.70684E+04-1.38399E+03 4.40688E+04 5.97244E-09-2.49202E-09
 -1        51 1.81872E+04-3.34011E+05 3.45271E+04-8.88928E+05-1.74623E-10-3.05590E-10
 -1        52 9.36661E+03-3.32269E+05 2.27555E+04-9.98217E+05-7.63976E-10-8.52015E-09
 -1        53 7.05223E+03-3.41587E+05 2.04467E+04-8.86308E+05-7.27596E-11-2.54659E-09
 -1        54 1.88295E+04-3.38782E+05 3.38368E+04-1.00100E+06-7.49424E-10-4.50382E-09
 -1        55 4.26925E+04-3.50586E+05 6.24321E+04-8.85827E+05-1.30967E-10 4.72937E-10
 -1        56-3.92632E+06-4.29756E+05-3.29164E+05-1.51819E+06-7.85803E-10-3.15777E-09
 -1        57-4.06890E+06-7.31474E+05-2.23952E+05-1.49440E+06-2.10275E-09 3.33239E-09
 -1        58-3.99480E+06-5.36494E+05-7.73334E+04-1.49451E+06-7.02130E-10-9.38599E-10
 -1        59-3.98971E+06-6.06660E+05-4.67916E+04-1.52193E+06-1.68802E-09 4.51837E-09
 -1        60-4.00487E+06-5.52149E+05-1.80600E+04-1.49144E+06 1.33605E-09-7.93352E-09
 -1        61-3.98078E+06-5.85528E+05-1.03964E+04-1.52207E+06-1.78557E-09-2.96768E-09
 -1        62-4.00353E+06-5.57328E+05-4.98184E+03-1.49442E+06-2.33786E-09 3.25144E-10
 -1        63-3.98708E+06-5.75153E+05-4.11435E+03-1.51307E+06-3.46552E-09-1.96070E-09
 -1        64-3.99845E+06-5.62554E+05-4.77022E+03-1.50037E+06-8.29232E-10 1.38039E-09
 -1        65-3.99937E+06-5.66219E+05-9.62089E+03-1.50008E+06 6.93717E-10-4.49313E-09
 -1        66-3.99123E+06-5.66323E+05-1.67666E+04-1.50738E+06 2.65217E-10-3.79896E-09
 -1        67-4.02061E+06-5.72793E+05-4.31962E+04-1.48523E+06 3.42379E-09-7.03812E-09
 -1        68-3.97741E+06-5.56238E+05-7.14596E+04-1.51520E+06 6.22094E-10-2.18643E-09
 -1        69-4.09751E+06-6.84730E+05-2.06893E+05-1.45622E+06-1.30967E-09 6.22458E-09
 -1        70-3.91509E+06-4.56522E+05-3.04056E+05-1.53578E+06-6.18456E-10 5.52973E-10
 -1        86-6.38299E+02-4.83857E+05 3.02518E+03 2.47162E+03-1.46088E-10 7.23730E-10
 -1        87 3.47855E+03-4.77045E+05 7.76823E+03-8.20570E+03-1.23725E-09-8.70541E-09
 -1        88-2.84257E+03-4.82851E+05 1.11171E+04 5.73406E+03-2.15778E-09-5.79298E-09
 -1        89 2.13347E+04-4.70450E+05 3.02766E+04-1.08727E+04-1.94632E-10-7.59280E-09
 -1        90-1.84413E+04-4.90487E+05 4.22966E+04 5.13892E+03-2.77942E-09 3.20385E-09
 -1       121-6.86155E+01-7.33738E+05 1.79756E+02 1.11485E+02-8.39634E-10-3.14503E-09
 -1       122 3.94019E+01-7.33440E+05 3.97677E+02-4.45219E+02-2.13978E-09 1.39698E-09
 -1       123-1.21754E+02-7.33784E+05 6.42836E+02 3.33418E+02-2.15653E-09 6.63022E-09
 -1       124 8.26311E+02-7.32980E+05 1.66884E+03-9.62687E+02-4.31160E-09-2.56114E-09
 -1       125-6.73768E+02-7.34207E+05 2.51702E+03 6.29013E+02-3.42698E-09-7.18501E-11
 -1       191-9.29783E+00 2.75042E+05 9.08259E+00-1.01227E-01 1.94092E-10-1.51249E-09
 -1       192-9.32546E+00 2.75020E+05 1.63674E+01 9.41753E-01 2.82826E-10-3.23507E-09
 -1       193-1.11893E+01 2.75042E+05 3.02898E+01-8.48591E-01 2.93161E-10 9.42237E-10
 -1       194-1.16154E+01 2.75023E+05 6.19266E+01 2.25995E+00 6.84217E-11 1.69484E-09
 -1       195-1.48238E+01 2.75040E+05 1.20981E+02-1.43171E+00 4.13472E-10-6.63931E-10
 -1       251-1.09294E+06-1.42885E+04-3.33734E+04 4.24052E+04 6.62112E-10 7.62839E-10
 -1       252-7.99266E+05 8.24159E+03 2.91087E+04-1.29902E+05-3.07234E-09-1.74341E-08
 -1       253-9.59654E+05 7.78429E+03-1.69358E+03 6.61966E+04-5.03189E-09 1.33136E-08
 -1       254-7.13565E+05 6.11572E+03 4.64471E+04-9.17228E+04-6.41899E-09-1.97679E-09
 -1       255-1.17569E+06-1.52617E+04-4.67364E+04 4.20844E+03-1.30831E-09-1.58849E-09
 -1       256-6.57182E+05 1.10396E+04 5.87012E+04 4.73280E+04-9.20227E-09 5.23960E-09
 -1       257-1.01416E+06 9.52920E+02-1.27348E+04-7.26872E+04 4.15866E-10-1.49465E-08
 -1       258-8.24860E+05 3.85348E+02 2.38454E+04 1.24175E+05-1.76030E-09 2.02547E-08
 -1       259-1.01343E+06 1.02356E+03-1.25325E+04-7.28010E+04 1.02496E-08-2.40860E-08
 -1       260-6.57686E+05 1.10546E+04 5.87313E+04 4.77152E+04 9.97716E-10 3.88445E-09
 -1       261-1.17593E+06-1.53306E+04-4.65318E+04 3.93499E+03 5.11318E-09-1.36563E-09
 -1       262-7.12762E+05 6.46989E+03 4.72131E+04-9.13872E+04-5.47936E-09 9.20863E-12
 -1       263-9.60195E+05 7.47711E+03-7.76808E+02 6.61346E+04 1.32006E-08 1.61129E-08
 -1       264-7.98738E+05 1.01539E+04 3.17754E+04-1.30054E+05 4.54522E-08-2.18364E-08
 -1       265-1.09294E+06-1.58794E+04-2.93236E+04 4.26202E+04 1.74300E-08 7.44217E-09
 -1       266-3.50524E+04-1.62442E+04 8.11725E+04-6.26817E+01 4.36557E-11 8.75957E-09
 -1       267 4.06017E+04 1.89636E+04 5.75356E+04 7.21128E+01 8.73115E-11 2.12685E-09
 -1       268-5.51481E+03-2.70905E+03 2.13141E+04-9.35070E+00 3.09228E-11-3.57833E-09
 -1       269 6.51005E+03 3.24726E+03 1.39142E+04 1.08739E+01-4.04725E-11 1.37915E-09
 -1       270-9.90432E+02-5.37637E+02 6.68785E+03-1.50902E+00-2.66027E-11 4.68003E-09
 -1       271-4.10669E+06-4.93647E+05-3.30776E+05-1.59561E+06-7.56700E-10 5.82077E-11
 -1       272-4.23615E+06-7.44863E+05-2.15615E+05-1.58276E+06 6.88942E-10 2.27010E-09
 -1       273-4.17139E+06-5.81484E+05-7.80430E+04-1.57765E+06-2.22371E-10-7.01766E-09
 -1       274-4.15966E+06-6.40086E+05-4.44411E+04-1.60861E+06 2.91038E-10-3.18505E-09
 -1       275-4.18199E+06-5.89855E+05-1.81764E+04-1.57301E+06-1.18007E-10 3.53157E-09
 -1       276-4.14662E+06-6.30794E+05-9.85121E+03-1.61564E+06-1.33923E-09-4.53997E-09
 -1       277-4.18451E+06-5.89662E+05-4.84892E+03-1.57115E+06-1.18121E-09 3.27987E-10
 -1       278-4.14408E+06-6.30869E+05-3.74513E+03-1.61770E+06 2.70290E-10 3.47558E-09
 -1       279-4.18462E+06-5.89612E+05-4.22729E+03-1.57106E+06-3.31738E-10-1.00044E-09
 -1       280-4.14607E+06-6.30737E+05-8.08831E+03-1.61604E+06-1.23907E-09-3.36445E-09
 -1       281-4.18244E+06-5.89928E+05-1.46962E+04-1.57272E+06 1.16870E-10-1.81080E-09
 -1       282-4.15708E+06-6.37638E+05-3.57867E+04-1.60970E+06 1.02978E-09-1.57161E-09
 -1       283-4.17350E+06-5.83639E+05-6.28145E+04-1.57694E+06 3.49246E-10 1.74623E-10
 -1       284-4.21961E+06-7.20864E+05-1.73457E+05-1.58763E+06-4.54747E-11 6.22094E-10
 -1       285-4.12083E+06-5.13656E+05-2.66202E+05-1.59213E+06-3.16140E-09 4.94765E-10
 -1       301 2.82839E+04-1.80153E+04 1.03313E+05-2.10921E+04-1.47338E-09 6.02279E-09
 -1       302 1.27314E+04 4.76249E+03 6.94577E+04-2.73368E+04 1.52841E-09 1.39311E-08
 -1       303 1.75344E+03-9.81337E+03 6.14966E+04-2.11763E+04-1.70348E-09 5.46902E-09
 -1       304 2.14402E+04 1.23097E+04 9.89376E+04-2.72990E+04 1.81171E-09-1.48827E-09
 -1       305 4.95165E+04-2.55213E+04 1.71879E+05-2.10401E+04-9.74978E-10 5.67502E-09
 -1       306-2.49541E+06-3.06285E+05-1.65097E+05-9.65295E+05 1.39516E-09 1.29512E-09
 -1       307-2.53971E+06-4.59351E+05-1.08654E+05-9.81110E+05 1.63482E-10 8.07086E-09
 -1       308-2.52965E+06-3.51241E+05-3.89949E+04-9.53847E+05 2.14573E-09 3.83989E-09
 -1       309-2.49908E+06-4.06943E+05-2.24835E+04-9.97538E+05-1.90084E-10-1.55023E-09
 -1       310-2.53598E+06-3.55138E+05-9.14131E+03-9.50414E+05-1.32650E-09 4.53292E-09
 -1       311-2.49149E+06-4.02714E+05-5.07539E+03-1.00261E+06 9.25866E-10 5.02143E-09
 -1       312-2.53752E+06-3.54863E+05-2.61933E+03-9.49164E+05 4.80668E-10 2.62406E-09
 -1       313-2.49032E+06-4.02631E+05-2.33229E+03-1.00362E+06 2.17477E-09 7.13817E-09
 -1       314-2.53724E+06-3.55128E+05-2.99043E+03-9.49479E+05-1.66779E-09-1.26147E-09
 -1       315-2.49258E+06-4.01913E+05-6.10012E+03-1.00127E+06-2.17460E-09-3.60751E-09
 -1       316-2.53505E+06-3.55764E+05-1.11801E+04-9.51347E+05-3.61069E-10 2.16460E-10
 -1       317-2.50217E+06-4.06854E+05-2.75515E+04-9.94759E+05 9.59744E-10-3.32011E-09
 -1       318-2.52730E+06-3.50933E+05-4.78353E+04-9.55508E+05 9.08358E-11 6.83940E-10
 -1       319-2.55176E+06-4.71536E+05-1.33302E+05-9.75151E+05-6.59384E-10 5.86442E-09
 -1       320-2.48562E+06-2.95370E+05-2.02489E+05-9.69124E+05 4.40195E-10-3.65253E-09
 -1       336 7.82060E+02-7.99801E+05-4.86621E+03 8.96325E+02-7.80983E-09 2.35377E-09
 -1       337-1.92967E+03-8.01344E+05-5.72992E+03-2.21662E+03-5.83574E-09 3.24007E-09
 -1       338 6.67248E+02-7.99843E+05-7.44591E+03 1.31810E+03-1.00408E-08-2.15641E-09
 -1       339-8.39948E+03-8.05155E+05-1.68407E+04-3.04793E+03-7.08496E-09 1.78261E-10
 -1       340 6.17295E+03-7.96036E+05-2.56640E+04 1.72226E+03-1.18134E-08 1.70076E-09
 -1       406 1.35448E+01 2.75029E+05 4.94691E+02-2.07569E-01 5.79149E-10 2.48292E-09
 -1       407 1.67104E+02 2.75123E+05 1.05173E+03-9.39052E+00 3.05249E-11-3.30010E-09
 -1       408 5.35831E+02 2.74953E+05 2.10030E+03 9.81919E+00 6.92580E-10 1.64255E-09
 -1       409 2.26614E+03 2.75794E+05 4.72869E+03-9.60180E+01-7.54881E-11 2.08956E-09
 -1       410 6.52078E+03 2.74355E+05 9.65331E+03 9.05168E+01 7.49424E-10 2.43699E-09
 -1       521-4.71056E+06-5.72605E+05-3.23890E+05-1.82244E+06-1.38243E-10-5.04951E-09
 -1       522-4.83733E+06-8.35797E+05-2.13565E+05-1.81012E+06 4.47471E-10-3.49246E-10
 -1       523-4.77740E+06-6.61756E+05-7.63631E+04-1.80041E+06-9.27685E-10 1.71713E-09
 -1       524-4.75733E+06-7.32029E+05-4.41410E+04-1.84122E+06-1.78329E-09-6.91216E-10
 -1       525-4.78967E+06-6.69745E+05-1.78219E+04-1.79388E+06-1.38039E-09-2.40107E-10
 -1       526-4.74243E+06-7.23266E+05-9.85326E+03-1.85038E+06 6.62567E-10-1.86253E-09
 -1       527-4.79245E+06-6.69542E+05-4.91295E+03-1.79173E+06-3.84216E-09-5.41752E-09
 -1       528-4.74063E+06-7.22355E+05-4.08931E+03-1.85146E+06-1.70212E-09 2.36400E-09
 -1       529-4.79149E+06-6.70553E+05-4.91837E+03-1.79285E+06-1.20281E-09-1.29148E-09
 -1       530-4.74588E+06-7.19539E+05-9.77831E+03-1.84589E+06-1.36765E-09-6.01995E-09
 -1       531-4.78693E+06-6.72621E+05-1.77793E+04-1.79707E+06 8.95398E-10 4.76575E-10
 -1       532-4.76383E+06-7.25025E+05-4.38631E+04-1.83301E+06 1.71212E-09 1.71713E-09
 -1       533-4.77329E+06-6.66105E+05-7.59941E+04-1.80517E+06 1.92813E-09 1.60071E-10
 -1       534-4.84582E+06-8.25905E+05-2.12360E+05-1.79960E+06 6.18456E-10 1.62981E-09
 -1       535-4.70593E+06-5.78259E+05-3.22119E+05-1.82802E+06 1.95723E-09-4.64206E-09
 -1       536-1.19168E+04-1.64470E+04 4.64280E+04-6.15507E+01 1.34241E-09-3.20142E-10
 -1       537 8.11449E+03 1.91191E+04 3.16876E+04-3.51676E+04-5.86806E-09-1.91221E-09
 -1       538-4.34467E+03-2.24284E+03 1.20088E+04-2.36880E+01 7.45786E-11 8.08541E-10
 -1       539-9.31205E+02 2.39899E+03 7.22503E+03-3.52173E+04 3.44698E-09-5.17218E-09
 -1       540-3.23324E+03-3.36983E+02 3.02020E+03-1.04510E+01-3.10592E-10 2.00225E-09
 -1       541-2.50202E+03 3.01664E+02 1.70578E+03-3.52327E+04-1.67392E-09 1.72804E-10
 -1       542-3.03950E+03-5.79080E+01 7.23164E+02-9.02440E+00-1.54796E-09-1.49470E-09
 -1       543-2.91716E+03 7.71682E+01 3.52665E+02-3.52351E+04-2.94949E-09-2.48582E-09
 -1       544-2.98999E+03-8.24160E-01 6.44291E+01-8.11688E+00-9.53605E-10 2.76123E-09
 -1       545-3.08025E+03 2.43898E+01-1.75628E+02-3.52364E+04-1.72986E-09 2.53294E-09
 -1       546-2.95462E+03 4.81202E+01-4.55228E+02-7.64615E+00 3.67493E-10-1.15966E-09
 -1       547-3.26465E+03-3.45435E+02-1.14953E+03-3.52330E+04-2.20814E-09 9.79583E-10
 -1       548-2.79009E+03 3.41815E+02-1.98475E+03-1.15631E+01-1.26761E-09 2.23849E-10
 -1       549-4.52273E+03-3.14156E+03-5.16802E+03-3.51977E+04-1.57343E-09 2.40539E-09
 -1       550-1.58727E+03 2.62623E+03-7.69030E+03-4.30266E+01 4.54747E-12-2.35650E-09
 -1       551 9.97941E+03-3.58454E+05 2.22896E+04-5.82924E+05-1.05392E-08-2.37196E-09
 -1       552 1.13919E+04-3.57010E+05 2.43351E+04-7.50266E+05-1.08048E-08 4.20550E-09
 -1       553 8.04519E+03-3.60737E+05 3.54929E+04-5.81592E+05-1.23910E-08 9.80253E-09
 -1       554 2.62067E+04-3.45483E+05 7.29211E+04-7.50478E+05-1.03828E-08 9.49876E-09
 -1       555 4.57998E+04-3.72136E+05 1.35355E+05-5.82470E+05-1.13068E-08-7.96717E-10
 -1       556-2.99209E+04-1.13776E+05 3.44817E+04-1.66668E+05-2.18279E-10 3.05590E-10
 -1       557 9.01884E+03-1.47340E+05 1.79202E+04-1.98256E+05 3.23053E-09 2.90174E-09
 -1       558-2.98535E+04-1.19369E+05 7.33849E+03-1.62223E+05 2.48838E-09 3.79441E-09
 -1       559 4.12489E+03-1.52166E+05 3.69202E+03-2.00352E+05-2.25555E-09 3.47154E-09
 -1       560-3.07650E+04-1.18787E+05 1.56685E+03-1.62735E+05-1.39698E-09-1.91903E-09
 -1       561 2.66929E+03-1.51866E+05 8.06975E+02-2.01294E+05 1.52068E-09 8.72751E-09
 -1       562-3.15097E+04-1.18281E+05 3.10931E+02-1.63263E+05-6.80302E-10 3.03976E-09
 -1       563 1.81810E+03-1.51504E+05 1.53026E+02-2.01854E+05-6.36646E-10 1.64505E-09
 -1       564-3.19649E+04-1.17983E+05-1.07922E+01-1.63582E+05 7.09406E-11 9.48739E-09
 -1       565 1.38306E+03-1.51324E+05-1.42153E+02-2.02131E+05-3.17686E-09 3.78441E-09
 -1       566-3.21056E+04-1.17877E+05-3.90136E+02-1.63689E+05-2.73394E-09 6.65750E-10
 -1       567 1.28376E+03-1.51335E+05-9.00213E+02-2.02114E+05 2.18279E-09 9.12769E-09
 -1       568-3.18729E+04-1.18034E+05-1.89316E+03-1.63576E+05 1.30967E-09 1.02955E-09
 -1       569 2.20913E+02-1.52160E+05-4.46992E+03-2.01311E+05-1.64528E-09 5.99903E-09
 -1       570-3.04381E+04-1.20514E+05-8.78041E+03-1.62716E+05-8.58563E-10 3.62161E-09
 -1       571 1.88397E+05 7.73740E+03 1.14699E+04-4.57649E+04 4.58840E-10 1.30240E-09
 -1       572 1.90107E+05 2.68831E+03 5.61929E+03-5.01669E+04 7.20775E-10-1.87219E-09
 -1       573 1.89084E+05 6.38108E+02 2.49624E+03-4.56448E+04 5.34783E-10-7.68523E-11
 -1       574 1.89289E+05 2.04563E+02 1.25040E+03-5.03001E+04-2.48292E-10-1.76487E-09
 -1       575 1.89162E+05 2.49188E+01 5.88923E+02-4.56290E+04-5.08635E-10 2.75622E-09
 -1       576 1.89178E+05 3.82868E+00 2.98992E+02-5.03179E+04 6.00835E-10 6.68024E-10
 -1       577 1.89173E+05-7.83437E+00 1.45821E+02-4.56269E+04 2.08388E-10-6.78483E-10
 -1       578 1.89167E+05-5.84719E+00 7.65997E+01-5.03200E+04-1.33696E-09 2.78669E-09
 -1       579 1.89185E+05-9.13066E+00 4.15439E+01-4.56269E+04-7.73070E-11-3.94266E-09
 -1       580 1.89181E+05-1.16630E+01 3.00363E+01-5.03174E+04-7.73070E-12-5.37102E-09
 -1       581 1.89205E+05-1.74005E+01 3.09311E+01-4.56296E+04-4.64752E-10-5.74528E-09
 -1       582 1.89212E+05-1.80387E+01 5.19980E+01-5.02902E+04-6.54836E-10 1.81217E-09
 -1       583 1.89232E+05-1.12033E+01 9.45736E+01-4.56540E+04 9.54878E-09 4.50655E-10
 -1       584 1.89281E+05 5.65741E+01 2.10742E+02-5.00862E+04 1.94295E-08 8.03652E-10
 -1       585 1.89243E+05 2.37948E+02 4.24948E+02-4.58338E+04 1.11941E-08-3.38150E-09
 -1       586-1.48777E+02 7.84980E+04 1.65176E+02-1.40328E+05-1.04592E-11-8.52924E-09
 -1       587 2.31553E+02 7.85489E+04 1.32516E+03-1.56573E+05-1.42427E-09-1.77299E-08
 -1       588 7.19452E+02 7.83235E+04 3.08395E+03-1.40190E+05 1.72804E-11-4.60273E-09
 -1       589 3.14749E+03 7.96921E+04 7.15492E+03-1.56517E+05-1.25601E-09-7.88305E-10
 -1       590 9.16879E+03 7.74235E+04 1.46036E+04-1.40383E+05 7.52607E-11-4.79304E-09
 -1       591-8.01717E+04-2.27008E+04-1.73491E+04-3.84874E+04-3.70619E-10-1.20690E-09
 -1       592-8.15090E+04-2.34470E+04-8.92868E+03-4.30653E+04-1.94632E-10 9.02230E-09
 -1       593-8.13467E+04-1.90472E+04-3.77848E+03-4.05238E+04 5.77757E-10 1.74418E-09
 -1       594-7.94066E+04-2.12859E+04-1.86295E+03-4.31682E+04 2.75691E-10-6.36916E-10
 -1       595-8.14523E+04-1.89707E+04-8.60133E+02-4.05985E+04-5.78780E-10 1.12342E-09
 -1       596-7.92690E+04-2.12087E+04-4.35256E+02-4.31470E+04-8.22524E-10 2.64777E-09
 -1       597-8.14683E+04-1.89846E+04-2.35066E+02-4.05990E+04-1.25039E-09-1.65448E-09
 -1       598-7.92547E+04-2.12083E+04-1.84492E+02-4.31411E+04-1.86310E-09-1.84298E-09
 -1       599-8.14672E+04-1.89855E+04-2.30068E+02-4.05984E+04-4.65661E-09-1.68291E-09
 -1       600-7.92666E+04-2.12098E+04-4.22133E+02-4.31445E+04-3.68618E-09 8.81391E-09
 -1       601-8.14490E+04-1.89733E+04-8.31603E+02-4.05966E+04-4.41082E-09 2.57205E-09
 -1       602-7.93988E+04-2.12838E+04-1.80014E+03-4.31611E+04-1.85366E-09-3.14401E-09
 -1       603-8.13438E+04-1.90506E+04-3.65032E+03-4.05249E+04-1.38539E-09 2.53931E-09
 -1       604-8.14462E+04-2.33524E+04-8.62453E+03-4.30372E+04-3.39060E-09-9.93964E-09
 -1       605-8.01877E+04-2.25968E+04-1.67576E+04-3.85766E+04-3.11434E-09-5.80667E-09
 -1       606 5.51049E+04-7.93078E+03-1.38558E+04 2.24655E+04-3.46608E-09-2.90311E-09
 -1       607 5.27691E+04-2.57232E+03-6.88054E+03 2.50831E+04-5.73436E-10-1.71451E-09
 -1       608 5.41028E+04-4.54832E+02-3.07781E+03 2.22920E+04 3.33148E-09 2.97723E-09
 -1       609 5.38293E+04-1.17438E+02-1.55272E+03 2.52739E+04-1.41335E-09 2.89378E-09
 -1       610 5.39799E+04 2.09197E+01-7.40167E+02 2.22723E+04-4.25280E-09-1.50180E-09
 -1       611 5.39260E+04 3.31537E+01-3.73128E+02 2.52952E+04-6.82212E-09 3.27645E-09
 -1       612 5.39485E+04 3.55038E+01-1.77994E+02 2.22704E+04-3.36240E-09-1.81717E-09
 -1       613 5.39266E+04 3.95601E+01-8.06474E+01 2.52976E+04-7.00311E-09-1.02068E-09
 -1       614 5.39320E+04 3.50178E+01-2.12601E+01 2.22698E+04-1.98361E-09-7.53516E-10
 -1       615 5.39190E+04 4.29532E+01 2.81781E+01 2.52978E+04 3.21165E-09-5.10727E-09
 -1       616 5.39194E+04 3.91826E+01 8.96832E+01 2.22701E+04-2.59752E-09-1.20258E-09
 -1       617 5.39265E+04 6.61027E+01 2.06987E+02 2.52971E+04 3.26509E-10 2.75440E-09
 -1       618 5.38985E+04 1.06056E+02 4.18421E+02 2.22704E+04 1.18439E-09 1.38948E-09
 -1       619 5.40698E+04 4.03478E+02 9.40991E+02 2.52949E+04-1.89175E-10-4.60886E-09
 -1       620 5.37607E+04 1.13072E+03 1.89668E+03 2.22708E+04-4.74074E-11-3.99700E-09
 -1       621 4.83001E+02 2.01332E+05 2.20448E+03-1.09944E+04-1.98901E-09 2.45899E-09
 -1       622 2.59828E+02 2.01802E+05 2.30288E+03-1.41621E+04-3.47882E-11-5.52177E-09
 -1       623 9.54925E+01 2.01405E+05 3.32911E+03-1.09900E+04-1.85196E-09-2.40016E-09
 -1       624 1.59177E+03 2.02958E+05 6.81330E+03-1.41279E+04-1.10049E-10-3.17539E-09
 -1       625 3.72716E+03 2.00181E+05 1.26864E+04-1.10273E+04-1.61026E-09 2.68301E-10
 -1       626 1.49288E+05 4.48042E+04 8.43349E+02 8.70053E+04 5.06998E-09 1.33987E-08
 -1       627 1.46554E+05 4.73537E+04 4.05545E+02 9.03617E+04-2.27828E-09-1.98452E-09
 -1       628 1.49388E+05 4.43029E+04 1.70986E+02 8.70180E+04 4.26098E-09 3.01475E-09
 -1       629 1.46311E+05 4.73654E+04 8.66230E+01 9.05245E+04 4.77985E-09 4.18095E-09
 -1       630 1.49384E+05 4.42811E+04 4.34688E+01 8.70015E+04 3.54066E-09 1.94490E-09
 -1       631 1.46269E+05 4.73780E+04 3.17657E+01 9.05268E+04-3.33011E-09-2.67804E-09
 -1       632 1.49371E+05 4.42864E+04 3.66048E+01 8.69921E+04-5.58202E-09-7.13567E-09
 -1       633 1.46258E+05 4.73831E+04 6.43288E+01 9.05210E+04 1.04683E-09 6.02512E-09
 -1       634 1.49360E+05 4.42851E+04 1.25001E+02 8.69878E+04 6.98037E-10 7.77845E-10
 -1       635 1.46265E+05 4.73845E+04 2.66561E+02 9.05220E+04-6.64159E-10 2.47655E-09
 -1       636 1.49346E+05 4.42848E+04 5.44998E+02 8.69835E+04-3.19443E-09 1.87856E-09
 -1       637 1.46380E+05 4.74809E+04 1.20310E+03 9.05157E+04 4.78229E-09 4.48517E-09
 -1       638 1.49303E+05 4.45792E+04 2.47700E+03 8.68483E+04 5.49994E-09 1.18584E-08
 -1       639 1.47659E+05 4.93678E+04 5.86614E+03 9.01145E+04-4.95447E-10 3.08683E-09
 -1       640 1.49182E+05 5.01541E+04 1.22136E+04 8.44793E+04-4.37240E-10 2.22371E-09
 -1       656 1.47210E+04-4.19488E+05-4.37752E+04 3.61798E+02-1.14051E-09 1.37265E-09
 -1       657-1.96839E+04-4.37589E+05-3.46001E+04 3.09560E+04-7.27346E-09 5.87829E-09
 -1       658 3.94267E+03-4.25131E+05-2.20707E+04 2.29480E+02-2.11918E-09 2.27271E-09
 -1       659-2.08210E+04-4.38199E+05-3.62794E+04 3.10449E+04-3.72665E-09-5.25752E-10
 -1       660 1.58144E+04-4.18899E+05-4.67682E+04 2.73167E+02-1.69348E-09 2.10866E-09
 -1       661 1.82047E+05 2.29760E+04 1.52353E+04 7.09210E+04 1.76624E-09-5.20686E-09
 -1       662 1.86234E+05 3.40948E+04 9.61515E+03 7.22939E+04-1.26548E-09-1.49214E-09
 -1       663 1.84673E+05 2.64500E+04 3.59818E+03 7.05459E+04 1.99304E-09 3.85535E-09
 -1       664 1.83212E+05 2.95857E+04 1.98194E+03 7.29497E+04-8.25043E-09 1.37470E-09
 -1       665 1.84975E+05 2.68225E+04 8.45111E+02 7.05146E+04-6.98677E-09-1.97738E-09
 -1       666 1.82864E+05 2.91160E+04 4.61375E+02 7.30075E+04-5.13313E-09-1.09440E-09
 -1       667 1.85013E+05 2.68603E+04 2.61897E+02 7.05107E+04 5.04531E-09-2.89836E-09
 -1       668 1.82827E+05 2.90812E+04 2.54146E+02 7.30185E+04-4.71420E-09-4.92383E-09
 -1       669 1.85013E+05 2.68525E+04 3.63841E+02 7.05061E+04-2.12418E-09-1.10271E-09
 -1       670 1.82887E+05 2.91698E+04 7.44490E+02 7.30259E+04 1.15614E-08 1.14403E-09
 -1       671 1.84956E+05 2.67769E+04 1.41723E+03 7.05024E+04 3.44460E-09-3.83386E-09
 -1       672 1.83466E+05 2.99855E+04 3.35950E+03 7.29497E+04 2.01081E-09-1.18558E-09
 -1       673 1.84451E+05 2.61349E+04 6.10946E+03 7.05468E+04-1.63655E-09-7.09542E-09
 -1       674 1.88596E+05 3.76582E+04 1.63387E+04 7.18487E+04-1.20851E-09-2.14163E-09
 -1       675 1.79989E+05 2.02287E+04 2.58888E+04 7.11826E+04-2.48428E-09 6.25732E-10
 -1       676 2.97304E+01-2.40351E+05-1.15054E+03 5.69652E+01 6.79327E-09 4.00536E-10
 -1       677-3.54119E+02-2.40657E+05-2.12216E+03-1.13860E+02 2.58299E-09-6.02911E-09
 -1       678 2.51599E+02-2.40138E+05-3.71511E+03 5.68539E+01 5.88079E-09-1.93018E-09
 -1       679-3.99120E+03-2.42948E+05-8.91923E+03-1.13660E+02 3.67208E-09 1.50883E-09
 -1       680 2.63830E+03-2.38060E+05-1.41828E+04 5.61714E+01 4.62751E-09 1.41526E-10
 -1       771-1.83551E+06-3.49730E+05-4.68945E+04-7.88816E+05-3.29237E-09-8.03266E-09
 -1       772-1.82416E+06-3.65502E+05-2.40081E+04-8.17070E+05-3.01225E-09-3.12866E-09
 -1       773-1.84016E+06-3.38732E+05-1.03689E+04-7.93812E+05-1.80444E-09 1.45883E-09
 -1       774-1.81849E+06-3.60443E+05-5.05039E+03-8.19244E+05-2.16460E-09 1.33696E-09
 -1       775-1.84133E+06-3.37883E+05-2.46087E+03-7.94249E+05-9.09495E-10-8.56744E-09
 -1       776-1.81863E+06-3.60217E+05-1.19580E+03-8.20143E+05 1.25874E-08 9.50558E-09
 -1       777-1.84208E+06-3.37436E+05-7.05738E+02-7.94497E+05 4.57294E-09-1.42791E-10
 -1       778-1.81904E+06-3.60143E+05-4.60719E+02-8.20840E+05 5.96629E-10-5.59339E-10
 -1       779-1.84263E+06-3.37070E+05-5.63483E+02-7.94689E+05 2.42653E-09 1.46974E-09
 -1       780-1.81940E+06-3.60096E+05-9.13538E+02-8.21368E+05 2.86491E-09 9.70886E-10
 -1       781-1.84296E+06-3.36784E+05-1.79335E+03-7.94816E+05 6.73026E-11-3.16049E-10
 -1       782-1.81990E+06-3.60223E+05-3.84230E+03-8.21726E+05-3.16504E-09-2.51703E-09
 -1       783-1.84293E+06-3.36818E+05-7.80144E+03-7.94735E+05-5.35692E-10-2.33649E-09
 -1       784-1.82437E+06-3.64636E+05-1.84497E+04-8.21573E+05-4.08136E-09-2.25737E-09
 -1       785-1.84047E+06-3.44402E+05-3.58717E+04-7.90602E+05 1.15961E-10 2.52840E-10
 -1       786 1.51721E+05-6.70223E+03 1.92342E+04 1.09964E+01 2.07791E-10 4.56021E-09
 -1       787 1.59442E+05 7.98237E+03 1.30387E+04-2.07973E+03 7.04169E-10 1.36333E-09
 -1       788 1.54815E+05-8.79668E+02 4.99797E+03 6.08457E+00-2.20766E-10 3.44016E-09
 -1       789 1.55910E+05 1.04042E+03 2.96299E+03-2.07191E+03 8.22382E-11 6.04774E-09
 -1       790 1.55252E+05-1.15476E+02 1.27673E+03 3.21752E+00 1.58813E-10 2.30193E-09
 -1       791 1.55408E+05 1.35376E+02 7.13439E+02-2.06946E+03-1.64192E-10-3.12230E-09
 -1       792 1.55317E+05-1.58526E+01 3.48397E+02 3.63320E+00-5.10596E-11 6.52190E-09
 -1       793 1.55338E+05 2.33744E+01 2.30874E+02-2.07375E+03 1.26704E-10 1.06782E-08
 -1       794 1.55323E+05-7.62471E+00 1.97525E+02 7.51413E+00 4.58726E-11-3.09204E-09
 -1       795 1.55354E+05 5.15307E+01 2.99379E+02-2.08502E+03-1.01409E-10 4.22830E-10
 -1       796 1.55301E+05-4.30785E+01 4.88909E+02 1.48989E+01-2.74269E-10 3.56195E-09
 -1       797 1.55539E+05 3.84131E+02 1.10415E+03-2.10262E+03 5.17986E-11-5.05793E-10
 -1       798 1.55139E+05-3.25522E+02 1.85136E+03 2.51121E+01-2.24048E-10-5.10056E-09
 -1       799 1.56845E+05 2.94969E+03 4.82197E+03-2.12415E+03-1.63772E-09-2.86127E-09
 -1       800 1.53996E+05-2.47807E+03 7.10971E+03 3.63909E+01 3.80339E-10 1.08457E-09
 -1       801-1.49714E+04 1.50574E+05 2.21043E+04-1.92757E+03-7.75253E-09-4.26371E-09
 -1       802 3.83250E+04 1.68171E+05 4.16992E+04-1.05209E+06-1.92304E-08-9.43874E-09
 -1       803-7.10928E+03 1.57171E+05 5.09687E+04-2.37146E+03-8.85120E-09 1.02012E-08
 -1       804 9.41671E+04 2.00650E+05 1.25137E+05-1.05216E+06-2.05910E-08 1.70039E-08
 -1       805-6.97835E+04 1.20806E+05 1.70078E+05-1.89513E+03-2.14641E-09 7.99628E-09
 -1       806-1.61489E+05-4.18000E+04-1.37585E+04-7.44083E+04-6.31417E-10-2.09002E-09
 -1       807-1.61493E+05-3.91961E+04-6.60725E+03-7.88063E+04 3.70608E-09 5.09419E-09
 -1       808-1.61593E+05-3.55580E+04-2.79027E+03-7.71313E+04-7.96234E-09-1.93099E-08
 -1       809-1.60110E+05-3.70170E+04-1.35540E+03-7.92070E+04-1.54856E-09-1.28910E-09
 -1       810-1.61640E+05-3.52281E+04-6.15770E+02-7.72908E+04-2.43688E-09-8.76332E-09
 -1       811-1.59988E+05-3.69033E+04-3.05018E+02-7.92081E+04 2.85354E-11 1.40972E-10
 -1       812-1.61651E+05-3.52313E+04-1.51689E+02-7.72939E+04 4.00519E-09 3.05295E-09
 -1       813-1.59971E+05-3.69043E+04-9.56940E+01-7.92002E+04 3.81988E-10-7.07450E-09
 -1       814-1.61648E+05-3.52368E+04-8.96009E+01-7.72908E+04-1.39380E-09-5.62909E-09
 -1       815-1.59972E+05-3.69078E+04-1.40697E+02-7.91965E+04 1.70985E-10 2.43836E-09
 -1       816-1.61637E+05-3.52409E+04-2.63822E+02-7.72862E+04 7.73070E-12-2.10639E-09
 -1       817-1.60024E+05-3.69504E+04-5.70390E+02-7.91809E+04-2.69210E-10-6.44832E-10
 -1       818-1.61604E+05-3.53912E+04-1.17005E+03-7.72235E+04-4.59295E-11 3.01179E-09
 -1       819-1.60667E+05-3.77916E+04-2.76636E+03-7.89231E+04-1.05956E-10 1.69530E-09
 -1       820-1.61485E+05-3.80699E+04-5.75945E+03-7.61542E+04-2.33740E-09-1.18594E-08
 -1       821-2.13429E+05 9.20929E+03-2.64286E+04-8.37011E+01-2.21303E-09-2.06819E-09
 -1       822-2.24028E+05-1.09680E+04-1.79168E+04 3.58692E+03-1.33014E-10-2.20916E-09
 -1       823-2.17679E+05 1.20771E+03-6.87136E+03-1.27729E+02 1.82445E-09-7.05313E-10
 -1       824-2.19181E+05-1.42607E+03-4.07842E+03 3.66036E+03 6.00721E-10-1.21145E-09
 -1       825-2.18279E+05 1.58184E+02-1.77089E+03-1.57290E+02-4.23938E-09-1.77363E-09
 -1       826-2.18498E+05-1.82501E+02-1.01428E+03 3.71013E+03-6.56121E-09 1.47404E-09
 -1       827-2.18365E+05 2.30784E+01-5.45774E+02-1.77537E+02-4.61532E-09 2.09762E-09
 -1       828-2.18413E+05-4.05637E+01-4.58920E+02 3.74175E+03-4.80065E-09 7.45288E-10
 -1       829-2.18365E+05 2.29865E+01-5.40119E+02-1.88919E+02 9.21005E-11 4.37980E-09
 -1       830-2.18499E+05-1.78306E+02-9.99574E+02 3.75506E+03 1.88960E-09 4.27150E-09
 -1       831-2.18280E+05 1.56176E+02-1.74176E+03-1.90847E+02-2.77920E-09-2.01021E-09
 -1       832-2.19175E+05-1.40002E+03-4.01157E+03 3.74983E+03-1.68227E-09-3.24417E-09
 -1       833-2.17690E+05 1.18864E+03-6.75624E+03-1.83643E+02 4.86381E-10 4.86398E-09
 -1       834-2.23945E+05-1.07823E+04-1.76195E+04 3.72538E+03-6.69559E-10-4.09864E-09
 -1       835-2.13510E+05 9.05759E+03-2.59871E+04-1.66056E+02 1.59372E-09-2.05728E-09
 -1       836-6.13161E+02 2.56391E+05 1.91399E+04-1.93408E+04-3.05590E-10 2.83762E-10
 -1       837 3.83984E+03 2.62130E+05 1.49207E+04-3.63536E+04-9.53605E-10 7.20047E-09
 -1       838-2.35661E+02 2.58258E+05 1.37675E+04-1.92819E+04-4.97948E-10 2.40988E-09
 -1       839 7.58243E+03 2.65045E+05 2.43405E+04-3.63672E+04-1.17871E-09-1.16245E-09
 -1       840-1.29330E+03 2.53462E+05 3.86017E+04-1.93259E+04-5.47516E-10 2.35559E-09
 -1       856-1.49761E+05 4.73790E+03-2.05793E+04 2.78881E+03-2.76782E-09 3.81078E-09
 -1       857-1.57173E+05-6.43870E+03-1.31744E+04 1.12414E+04-1.45053E-09-2.99497E-09
 -1       858-1.52866E+05 4.89502E+02-5.33248E+03 2.74592E+03-4.77962E-09 1.23418E-09
 -1       859-1.53733E+05-6.12484E+02-2.97349E+03 1.12951E+04-1.37879E-09-4.29679E-10
 -1       860-1.53219E+05 5.79841E+01-1.35163E+03 2.73428E+03 2.33854E-10 4.73847E-10
 -1       861-1.53344E+05-3.54006E+01-7.20149E+02 1.13104E+04-4.27355E-09-4.33045E-09
 -1       862-1.53265E+05 1.32708E+01-3.60714E+02 2.73043E+03 6.27134E-09 2.50878E-10
 -1       863-1.53295E+05 1.96945E+01-2.23578E+02 1.13130E+04 9.68362E-09 2.32158E-09
 -1       864-1.53270E+05 9.07793E+00-1.82919E+02 2.73166E+03 7.61759E-09-1.20079E-09
 -1       865-1.53298E+05 6.56559E+00-2.51215E+02 1.13047E+04 1.04624E-08-2.85092E-09
 -1       866-1.53257E+05 1.98795E+01-4.18699E+02 2.73880E+03 3.25804E-09-5.68086E-10
 -1       867-1.53402E+05-1.66793E+02-8.86902E+02 1.12839E+04-2.47383E-09-7.21347E-10
 -1       868-1.53151E+05 1.44188E+02-1.58075E+03 2.75255E+03 5.50926E-09 8.11042E-10
 -1       869-1.54404E+05-1.89111E+03-3.89050E+03 1.12199E+04 1.16052E-09-2.56642E-09
 -1       870-1.52232E+05 1.39361E+03-6.08033E+03 2.80298E+03-9.20863E-11-1.39516E-09
 -1       871-3.04663E+03-2.17492E+04-8.86068E+03 8.58846E+04-3.68254E-09 1.94450E-09
 -1       872-1.24576E+03-2.36847E+04-3.31725E+03 1.09597E+05-3.14367E-09-1.76533E-09
 -1       873-4.19823E+01-2.28386E+04 1.17149E+03 8.56965E+04-3.48609E-09-3.54930E-10
 -1       874 1.69600E+03-2.12131E+04 6.52532E+03 1.09644E+05-3.70164E-09 2.52021E-09
 -1       875 4.37033E+03-2.42813E+04 1.40916E+04 8.58451E+04-4.62114E-09-2.62935E-09
 -1       876 2.32647E+05 3.61022E+04 1.81311E+04 9.25644E+04 3.71983E-10-4.37012E-09
 -1       877 2.35512E+05 4.31784E+04 1.03139E+04 9.61609E+04 2.15528E-09 4.25757E-10
 -1       878 2.34959E+05 3.67863E+04 4.18474E+03 9.32169E+04 2.03954E-09 5.50449E-09
 -1       879 2.32649E+05 3.98559E+04 2.12957E+03 9.64185E+04 2.98030E-09 2.17528E-09
 -1       880 2.35140E+05 3.68710E+04 9.68359E+02 9.32622E+04 5.03860E-10 2.77333E-09
 -1       881 2.32428E+05 3.96506E+04 5.04437E+02 9.64045E+04-1.62669E-09 3.08572E-09
 -1       882 2.35158E+05 3.68870E+04 2.91602E+02 9.32670E+04 1.61515E-09 5.69453E-09
 -1       883 2.32410E+05 3.96369E+04 2.68218E+02 9.63967E+04 2.26328E-09 3.48717E-09
 -1       884 2.35154E+05 3.68869E+04 3.83748E+02 9.32674E+04 2.65319E-09-5.58418E-09
 -1       885 2.32446E+05 3.96551E+04 7.49247E+02 9.64027E+04 1.25568E-09-6.98833E-09
 -1       886 2.35121E+05 3.68657E+04 1.48739E+03 9.32617E+04 9.90838E-10-7.20411E-09
 -1       887 2.32791E+05 3.99710E+04 3.29669E+03 9.64170E+04 4.78488E-09-1.44792E-09
 -1       888 2.34834E+05 3.67371E+04 6.48962E+03 9.31914E+04-6.88772E-10-1.10504E-10
 -1       889 2.37207E+05 4.51515E+04 1.60004E+04 9.60413E+04 1.72641E-09-2.55091E-09
 -1       890 2.31270E+05 3.56521E+04 2.81304E+04 9.21477E+04 7.25095E-09 1.90084E-09
 -1       891 2.34926E+02-1.27703E+05-4.29884E+03 2.24029E+04 2.76725E-09 1.09821E-10
 -1       892-9.71696E+02-1.29007E+05-3.37701E+03 4.51780E+04 2.28374E-09-2.03531E-09
 -1       893 5.23847E+01-1.28128E+05-3.08061E+03 2.23685E+04 2.03727E-09-2.94222E-10
 -1       894-1.86505E+03-1.29629E+05-5.47136E+03 4.51090E+04-5.59612E-09-7.29869E-10
 -1       895 4.92079E+02-1.27013E+05-8.57670E+03 2.24710E+04 3.15595E-10-6.28006E-10
 -1       956-2.32602E+05-4.06319E+03-9.71103E+03 2.37919E+04 1.34605E-10 6.60748E-10
 -1       957-2.34486E+05-1.33378E+03-4.96104E+03 2.83602E+04 6.72662E-09-1.40108E-09
 -1       958-2.33452E+05-1.14102E+02-2.23449E+03 2.36454E+04 7.40602E-09-2.33058E-10
 -1       959-2.33613E+05-9.75557E+00-1.13929E+03 2.85193E+04 2.18279E-10 7.26686E-10
 -1       960-2.33536E+05 4.26248E+01-5.53621E+02 2.36311E+04-3.51520E-09 2.60275E-09
 -1       961-2.33554E+05 4.56973E+01-2.90320E+02 2.85353E+04-6.35123E-09 1.19348E-09
 -1       962-2.33556E+05 4.18596E+01-1.60122E+02 2.36291E+04-2.77623E-09 1.37561E-10
 -1       963-2.33554E+05 4.86981E+01-1.17781E+02 2.85379E+04-3.61615E-09 4.72119E-09
 -1       964-2.33562E+05 4.39797E+01-1.29832E+02 2.36285E+04 6.48015E-12-8.31733E-10
 -1       965-2.33562E+05 5.12862E+01-2.13460E+02 2.85378E+04 3.79821E-09-4.57862E-09
 -1       966-2.33555E+05 4.87120E+01-3.94652E+02 2.36293E+04-2.40095E-09-5.76165E-10
 -1       967-2.33612E+05 1.62718E+01-8.06667E+02 2.85284E+04-7.02585E-10 3.77577E-09
 -1       968-2.33501E+05-5.85227E+01-1.57876E+03 2.36380E+04-1.95996E-10-3.80203E-09
 -1       969-2.34235E+05-9.16450E+02-3.50524E+03 2.84290E+04-4.00405E-10-3.55135E-09
 -1       970-2.32905E+05-2.84735E+03-6.86028E+03 2.37310E+04 1.52158E-09 1.18234E-10
 -1       971-2.77077E+05-1.12131E+02-1.06994E+04 8.27193E+03 1.16643E-09 2.86491E-11
 -1       972-2.80140E+05-1.85959E+03-6.18271E+03 1.43646E+04 7.39578E-09 4.13138E-09
 -1       973-2.78448E+05 3.40581E+01-2.69732E+03 8.18512E+03 1.00499E-09-1.96519E-09
 -1       974-2.78690E+05-7.35232E+01-1.41726E+03 1.44613E+04 3.39696E-10-5.10931E-09
 -1       975-2.78559E+05 2.33382E+01-6.93308E+02 8.17415E+03 1.84150E-09-5.83111E-09
 -1       976-2.78585E+05 2.59379E+01-3.87153E+02 1.44763E+04-2.20302E-09-1.18899E-09
 -1       977-2.78575E+05 2.11148E+01-2.55553E+02 8.16994E+03 3.48518E-09-4.71636E-09
 -1       978-2.78583E+05 3.32063E+01-2.65615E+02 1.44823E+04 1.11406E-08-7.05205E-09
 -1       979-2.78574E+05 2.49194E+01-3.97955E+02 8.16814E+03 4.69524E-09-5.02666E-10
 -1       980-2.78614E+05 2.52443E+01-7.53060E+02 1.44833E+04 6.02657E-09 2.50577E-09
 -1       981-2.78547E+05 3.89744E+01-1.44439E+03 8.16894E+03 1.57263E-09-2.88708E-10
 -1       982-2.78860E+05-1.77253E+02-3.01323E+03 1.44772E+04 1.40039E-09-3.78499E-09
 -1       983-2.78321E+05 7.23364E+01-5.75771E+03 8.17450E+03 2.78760E-09-9.38599E-10
 -1       984-2.81989E+05-3.98704E+03-1.32235E+04 1.44146E+04 2.30375E-09-3.39469E-10
 -1       985-2.75402E+05-2.27871E+02-2.28818E+04 8.23505E+03 7.64430E-09-4.85306E-09
 -3
    1PSTEP                         5           3           1          
  100CL  103 7.50000E-01         409                     0    3           1
 -4  DISP        4    1
 -5  D1          1    2    1    0
 -5  D2          1    2    2    0
 -5  D3          1    2    3    0
 -5  ALL         1    2    0    0    1ALL
 -1         1 1.47466E-04 0.00000E+00 0.00000E+00
 -1         2 1.46194E-04 1.82654E-29 6.61744E-24
 -1         3 1.16510E-04 1.94348E-27 0.00000E+00
 -1         5 8.28039E-05 1.59361E-27 0.00000E+00
 -1         8 1.19675E-04-1.20450E-06 0.00000E+00
 -1         9 1.03983E-04-1.29519E-06 0.00000E+00
 -1        10 1.07213E-04-2.31940E-06 6.61744E-24
 -1        12 8.19177E-05 8.67225E-07 0.00000E+00
 -1        15 8.84448E-05-1.31712E-06 4.13590E-25
 -1        16 7.39190E-05-1.50553E-06 0.00000E+00
 -1        17 7.78415E-05-4.89827E-06 0.00000E+00
 -1        18 7.76789E-05-1.33610E-07 0.00000E+00
 -1        19 7.92585E-05 1.72907E-06 0.00000E+00
 -1        20 7.97045E-05 2.20356E-05 0.00000E+00
 -1        21 7.81259E-05 4.68445E-05-3.30872E-24
 -1        24 2.33006E-05-6.31291E-06 0.00000E+00
 -1        25 7.44769E-05 1.07540E-07 0.00000E+00
 -1        26 7.57909E-05 2.35757E-06 0.00000E+00
 -1        27 7.39681E-05 2.07235E-05 0.00000E+00
 -1        28 7.26733E-05 4.60919E-05 0.00000E+00
 -1        32 0.00000E+00 0.00000E+00 0.00000E+00
 -1        33 7.14647E-05 3.14796E-06 0.00000E+00
 -1        34 6.95046E-05 2.06473E-05 0.00000E+00
 -1        35 6.71634E-05 4.56910E-05 0.00000E+00
 -1        51 1.45493E-04-1.98709E-07 0.00000E+00
 -1        52 1.42075E-04-3.91853E-07 0.00000E+00
 -1        53 1.37491E-04-5.86200E-07 0.00000E+00
 -1        54 1.32033E-04-7.84100E-07 0.00000E+00
 -1        55 1.25997E-04-9.87260E-07 3.30872E-24
 -1        56 1.45597E-04-2.05372E-06 5.29396E-23
 -1        57 1.44482E-04-6.39190E-06 0.00000E+00
 -1        58 1.43988E-04-1.23922E-05 0.00000E+00
 -1        59 1.43835E-04-1.93614E-05 0.00000E+00
 -1        60 1.43716E-04-2.64259E-05 0.00000E+00
 -1        61 1.43308E-04-3.27126E-05-2.64698E-23
 -1        62 1.42338E-04-3.74826E-05-5.29396E-23
 -1        63 1.40566E-04-4.00987E-05 2.64698E-23
 -1        64 1.37890E-04-4.02982E-05 5.29396E-23
 -1        65 1.34263E-04-3.79772E-05 2.64698E-23
 -1        66 1.29806E-04-3.34694E-05-5.29396E-23
 -1        67 1.24699E-04-2.72500E-05 0.00000E+00
 -1        68 1.19232E-04-2.00916E-05 0.00000E+00
 -1        69 1.13738E-04-1.28219E-05-2.64698E-23
 -1        70 1.08525E-04-6.29967E-06 0.00000E+00
 -1        86 1.44141E-04-1.87799E-07 0.00000E+00
 -1        87 1.37998E-04-3.92114E-07 0.00000E+00
 -1        88 1.29249E-04-6.14382E-07 0.00000E+00
 -1        89 1.19399E-04-8.48922E-07 0.00000E+00
 -1        90 1.10346E-04-1.07565E-06 1.32349E-23
 -1       121 1.16249E-04-3.84910E-07 1.32349E-23
 -1       122 1.15468E-04-7.70091E-07-6.61744E-24
 -1       123 1.14170E-04-1.15580E-06 1.32349E-23
 -1       124 1.12357E-04-1.54238E-06-6.61744E-24
 -1       125 1.10035E-04-1.92994E-06 0.00000E+00
 -1       191 8.27793E-05 1.44557E-07 6.61744E-24
 -1       192 8.27054E-05 2.89109E-07 0.00000E+00
 -1       193 8.25824E-05 4.33658E-07 0.00000E+00
 -1       194 8.24101E-05 5.78197E-07 0.00000E+00
 -1       195 8.21885E-05 7.22721E-07 0.00000E+00
 -1       251 1.19271E-04-8.78623E-06 0.00000E+00
 -1       252 1.18385E-04-4.16699E-05 0.00000E+00
 -1       253 1.17225E-04-8.29022E-05 0.00000E+00
 -1       254 1.16377E-04-1.15406E-04-6.61744E-24
 -1       255 1.15923E-04-1.27610E-04 0.00000E+00
 -1       256 1.15361E-04-1.08269E-04-6.61744E-24
 -1       257 1.14064E-04-6.39016E-05-1.32349E-23
 -1       258 1.11835E-04-1.42877E-06 0.00000E+00
 -1       259 1.09604E-04 6.10923E-05-1.32349E-23
 -1       260 1.08301E-04 1.05602E-04 0.00000E+00
 -1       261 1.07736E-04 1.25124E-04 1.32349E-23
 -1       262 1.07284E-04 1.13086E-04-6.61744E-24
 -1       263 1.06439E-04 8.06850E-05 1.32349E-23
 -1       264 1.05278E-04 3.94433E-05 0.00000E+00
 -1       265 1.04389E-04 6.45761E-06 0.00000E+00
 -1       266 1.14470E-04-1.24054E-06-6.61744E-24
 -1       267 1.09265E-04-1.25720E-06 0.00000E+00
 -1       268 1.04060E-04-1.27510E-06 0.00000E+00
 -1       269 9.88549E-05-1.28935E-06 0.00000E+00
 -1       270 9.36499E-05-1.30353E-06 0.00000E+00
 -1       271 1.15526E-04 2.44848E-06 5.29396E-23
 -1       272 1.11760E-04 4.82992E-06 0.00000E+00
 -1       273 1.08444E-04 6.03486E-06 0.00000E+00
 -1       274 1.05518E-04 6.16207E-06 0.00000E+00
 -1       275 1.02937E-04 5.36807E-06-1.05879E-22
 -1       276 1.00630E-04 3.83793E-06-5.29396E-23
 -1       277 9.85151E-05 1.79021E-06 1.05879E-22
 -1       278 9.65051E-05-5.38231E-07-5.29396E-23
 -1       279 9.45068E-05-2.89811E-06 0.00000E+00
 -1       280 9.24270E-05-5.03890E-06 0.00000E+00
 -1       281 9.01757E-05-6.72002E-06 1.05879E-22
 -1       282 8.76703E-05-7.71728E-06 2.64698E-23
 -1       283 8.48363E-05-7.83718E-06-5.29396E-23
 -1       284 8.16222E-05-6.91428E-06 0.00000E+00
 -1       285 7.79689E-05-4.83725E-06 0.00000E+00
 -1       301 9.89489E-05-1.33999E-06 6.61744E-24
 -1       302 9.39060E-05-1.36400E-06 0.00000E+00
 -1       303 8.88677E-05-1.38617E-06 0.00000E+00
 -1       304 8.38479E-05-1.41008E-06 0.00000E+00
 -1       305 7.88605E-05-1.43887E-06 0.00000E+00
 -1       306 1.00958E-04 2.29379E-06 2.64698E-23
 -1       307 9.85083E-05 4.23693E-06-2.64698E-23
 -1       308 9.66159E-05 4.70736E-06 5.29396E-23
 -1       309 9.51967E-05 3.89689E-06 0.00000E+00
 -1       310 9.41656E-05 2.04784E-06-5.29396E-23
 -1       311 9.34213E-05-5.73310E-07 0.00000E+00
 -1       312 9.28549E-05-3.67209E-06 0.00000E+00
 -1       313 9.23519E-05-6.94221E-06 0.00000E+00
 -1       314 9.17964E-05-1.00710E-05 5.29396E-23
 -1       315 9.10735E-05-1.27495E-05-2.64698E-23
 -1       316 9.00734E-05-1.46850E-05 0.00000E+00
 -1       317 8.86946E-05-1.56033E-05 0.00000E+00
 -1       318 8.68454E-05-1.52672E-05 5.29396E-23
 -1       319 8.44547E-05-1.34681E-05 1.32349E-23
 -1       320 8.14504E-05-1.00560E-05 0.00000E+00
 -1       336 1.03825E-04-2.74374E-06 1.32349E-23
 -1       337 9.98112E-05-3.17090E-06 6.61744E-24
 -1       338 9.51867E-05-3.60043E-06 0.00000E+00
 -1       339 8.99695E-05-4.03194E-06 0.00000E+00
 -1       340 8.41802E-05-4.46659E-06 0.00000E+00
 -1       406 8.15976E-05 1.01170E-06 0.00000E+00
 -1       407 8.12282E-05 1.15610E-06 3.30872E-24
 -1       408 8.08095E-05 1.30039E-06 0.00000E+00
 -1       409 8.03416E-05 1.44438E-06 0.00000E+00
 -1       410 7.98244E-05 1.58775E-06 0.00000E+00
 -1       521 6.95867E-05 1.54283E-06 0.00000E+00
 -1       522 6.57602E-05 3.00250E-06-2.64698E-23
 -1       523 6.24933E-05 2.98985E-06 0.00000E+00
 -1       524 5.97075E-05 1.65439E-06 5.29396E-23
 -1       525 5.73229E-05-7.55377E-07-1.05879E-22
 -1       526 5.52261E-05-3.94378E-06 5.29396E-23
 -1       527 5.32889E-05-7.56164E-06 0.00000E+00
 -1       528 5.13737E-05-1.12397E-05 0.00000E+00
 -1       529 4.93418E-05-1.46044E-05-1.05879E-22
 -1       530 4.70598E-05-1.72974E-05 0.00000E+00
 -1       531 4.44101E-05-1.90058E-05 1.05879E-22
 -1       532 4.12942E-05-1.94638E-05 0.00000E+00
 -1       533 3.76403E-05-1.84907E-05 1.05879E-22
 -1       534 3.34169E-05-1.59701E-05 0.00000E+00
 -1       535 2.86001E-05-1.18995E-05-5.29396E-23
 -1       536 7.78053E-05 9.47689E-07 0.00000E+00
 -1       537 7.77871E-05 5.36748E-06 0.00000E+00
 -1       538 7.77731E-05 8.50750E-06 1.65436E-24
 -1       539 7.77638E-05 1.05147E-05 0.00000E+00
 -1       540 7.77561E-05 1.15360E-05 0.00000E+00
 -1       541 7.77493E-05 1.17187E-05 0.00000E+00
 -1       542 7.77424E-05 1.12100E-05 0.00000E+00
 -1       543 7.77353E-05 1.01575E-05 0.00000E+00
 -1       544 7.77277E-05 8.70863E-06 0.00000E+00
 -1       545 7.77198E-05 7.01095E-06-1.03398E-25
 -1       546 7.77118E-05 5.21209E-06-1.03398E-25
 -1       547 7.77039E-05 3.45971E-06 2.58494E-26
 -1       548 7.76963E-05 1.90139E-06 0.00000E+00
 -1       549 7.76895E-05 6.84720E-07 1.03398E-25
 -1       550 7.76831E-05-4.27182E-08 0.00000E+00
 -1       551 6.97982E-05-5.12049E-06-3.30872E-24
 -1       552 6.07514E-05-5.34670E-06-1.24077E-24
 -1       553 5.11366E-05-5.57791E-06 0.00000E+00
 -1       554 4.13959E-05-5.81314E-06 0.00000E+00
 -1       555 3.19716E-05-6.05039E-06 0.00000E+00
 -1       556 7.56015E-05 7.50895E-07 0.00000E+00
 -1       557 7.38748E-05 5.07807E-06-1.32349E-23
 -1       558 7.26048E-05 8.20528E-06 0.00000E+00
 -1       559 7.17396E-05 1.02647E-05 0.00000E+00
 -1       560 7.12277E-05 1.13883E-05 0.00000E+00
 -1       561 7.10179E-05 1.17090E-05 6.61744E-24
 -1       562 7.10597E-05 1.13599E-05 0.00000E+00
 -1       563 7.13024E-05 1.04745E-05 0.00000E+00
 -1       564 7.16960E-05 9.18607E-06 0.00000E+00
 -1       565 7.21902E-05 7.62833E-06 0.00000E+00
 -1       566 7.27352E-05 5.93491E-06-3.30872E-24
 -1       567 7.32810E-05 4.23952E-06-4.13590E-25
 -1       568 7.37776E-05 2.67584E-06 1.65436E-24
 -1       569 7.41753E-05 1.37739E-06 0.00000E+00
 -1       570 7.44241E-05 4.77675E-07 0.00000E+00
 -1       571 7.77744E-05 4.28364E-08 1.24077E-24
 -1       572 7.78723E-05 1.55877E-07-8.27181E-25
 -1       573 7.79708E-05 2.16827E-07-2.48154E-24
 -1       574 7.80697E-05 2.37596E-07 0.00000E+00
 -1       575 7.81688E-05 2.30145E-07 0.00000E+00
 -1       576 7.82678E-05 2.06511E-07 0.00000E+00
 -1       577 7.83670E-05 1.78743E-07 0.00000E+00
 -1       578 7.84661E-05 1.58895E-07-1.65436E-24
 -1       579 7.85652E-05 1.59024E-07 3.30872E-24
 -1       580 7.86643E-05 1.91190E-07 0.00000E+00
 -1       581 7.87634E-05 2.67447E-07 0.00000E+00
 -1       582 7.88625E-05 3.99842E-07 0.00000E+00
 -1       583 7.89616E-05 6.00408E-07 0.00000E+00
 -1       584 7.90607E-05 8.81058E-07 0.00000E+00
 -1       585 7.91597E-05 1.25364E-06 0.00000E+00
 -1       586 7.71754E-05-9.21702E-08 0.00000E+00
 -1       587 7.66037E-05-5.08974E-08-1.65436E-24
 -1       588 7.60056E-05-9.79264E-09 0.00000E+00
 -1       589 7.54236E-05 3.08919E-08 0.00000E+00
 -1       590 7.49002E-05 7.07507E-08 0.00000E+00
 -1       591 7.75448E-05 7.88582E-08 0.00000E+00
 -1       592 7.74247E-05 2.41024E-07-1.65436E-24
 -1       593 7.73191E-05 3.62919E-07 0.00000E+00
 -1       594 7.72247E-05 4.53492E-07 8.27181E-25
 -1       595 7.71385E-05 5.21759E-07 0.00000E+00
 -1       596 7.70573E-05 5.76666E-07-8.27181E-25
 -1       597 7.69777E-05 6.27155E-07 1.65436E-24
 -1       598 7.68963E-05 6.82156E-07 0.00000E+00
 -1       599 7.68100E-05 7.50601E-07 1.65436E-24
 -1       600 7.67152E-05 8.41417E-07 8.27181E-25
 -1       601 7.66088E-05 9.63531E-07-1.65436E-24
 -1       602 7.64873E-05 1.12588E-06-4.13590E-25
 -1       603 7.63475E-05 1.33740E-06 8.27181E-25
 -1       604 7.61864E-05 1.60708E-06 1.55096E-25
 -1       605 7.60007E-05 1.94386E-06 0.00000E+00
 -1       606 7.92909E-05 2.40754E-06 3.30872E-24
 -1       607 7.93203E-05 3.19985E-06 1.65436E-24
 -1       608 7.93489E-05 4.09928E-06-3.30872E-24
 -1       609 7.93769E-05 5.09823E-06 0.00000E+00
 -1       610 7.94048E-05 6.18907E-06 3.30872E-24
 -1       611 7.94325E-05 7.36406E-06 0.00000E+00
 -1       612 7.94601E-05 8.61543E-06 0.00000E+00
 -1       613 7.94876E-05 9.93545E-06 0.00000E+00
 -1       614 7.95150E-05 1.13164E-05 0.00000E+00
 -1       615 7.95423E-05 1.27504E-05 0.00000E+00
 -1       616 7.95696E-05 1.42297E-05 0.00000E+00
 -1       617 7.95968E-05 1.57467E-05 0.00000E+00
 -1       618 7.96239E-05 1.72935E-05 0.00000E+00
 -1       619 7.96510E-05 1.88625E-05 0.00000E+00
 -1       620 7.96779E-05 2.04457E-05 0.00000E+00
 -1       621 7.86510E-05 1.83434E-06 3.30872E-24
 -1       622 7.80442E-05 1.93993E-06 0.00000E+00
 -1       623 7.74465E-05 2.04547E-06 0.00000E+00
 -1       624 7.68663E-05 2.15074E-06-1.65436E-24
 -1       625 7.63117E-05 2.25559E-06 1.65436E-24
 -1       626 7.90997E-05 2.45950E-06 0.00000E+00
 -1       627 7.88976E-05 3.30602E-06 0.00000E+00
 -1       628 7.86559E-05 4.25762E-06 0.00000E+00
 -1       629 7.83793E-05 5.30233E-06 0.00000E+00
 -1       630 7.80722E-05 6.42823E-06 0.00000E+00
 -1       631 7.77390E-05 7.62325E-06 0.00000E+00
 -1       632 7.73844E-05 8.87533E-06 0.00000E+00
 -1       633 7.70129E-05 1.01725E-05 0.00000E+00
 -1       634 7.66289E-05 1.15025E-05 0.00000E+00
 -1       635 7.62370E-05 1.28535E-05 0.00000E+00
 -1       636 7.58418E-05 1.42134E-05-3.30872E-24
 -1       637 7.54477E-05 1.55701E-05 0.00000E+00
 -1       638 7.50593E-05 1.69116E-05-3.30872E-24
 -1       639 7.46807E-05 1.82257E-05-8.27181E-25
 -1       640 7.43163E-05 1.95005E-05-8.27181E-25
 -1       656 7.83475E-05 2.18225E-05-3.30872E-24
 -1       657 7.73227E-05 2.16001E-05 0.00000E+00
 -1       658 7.65017E-05 2.13786E-05-6.61744E-24
 -1       659 7.57553E-05 2.11573E-05 1.65436E-24
 -1       660 7.49539E-05 2.09353E-05 0.00000E+00
 -1       661 7.92160E-05 2.36588E-05 1.65436E-24
 -1       662 7.87187E-05 2.53172E-05 0.00000E+00
 -1       663 7.82126E-05 2.69986E-05 3.30872E-24
 -1       664 7.77025E-05 2.86926E-05 0.00000E+00
 -1       665 7.71917E-05 3.03884E-05 0.00000E+00
 -1       666 7.66844E-05 3.20754E-05 1.65436E-24
 -1       667 7.61844E-05 3.37429E-05 3.30872E-24
 -1       668 7.56958E-05 3.53802E-05 0.00000E+00
 -1       669 7.52226E-05 3.69767E-05-3.30872E-24
 -1       670 7.47689E-05 3.85215E-05 1.65436E-24
 -1       671 7.43386E-05 4.00038E-05 3.30872E-24
 -1       672 7.39357E-05 4.14128E-05 0.00000E+00
 -1       673 7.35644E-05 4.27375E-05-3.30872E-24
 -1       674 7.32281E-05 4.39666E-05 8.27181E-25
 -1       675 7.29319E-05 4.50893E-05 0.00000E+00
 -1       676 7.72126E-05 4.67181E-05 0.00000E+00
 -1       677 7.63002E-05 4.65918E-05-1.65436E-24
 -1       678 7.53892E-05 4.64656E-05-3.30872E-24
 -1       679 7.44806E-05 4.63399E-05 0.00000E+00
 -1       680 7.35751E-05 4.62142E-05 3.30872E-24
 -1       771 1.96688E-05-1.34934E-07 5.29396E-23
 -1       772 1.64733E-05 4.86631E-06-2.64698E-23
 -1       773 1.36937E-05 8.77032E-06 0.00000E+00
 -1       774 1.12971E-05 1.16616E-05 0.00000E+00
 -1       775 9.25079E-06 1.36258E-05 5.29396E-23
 -1       776 7.52097E-06 1.47510E-05 2.64698E-23
 -1       777 6.07347E-06 1.51261E-05 5.29396E-23
 -1       778 4.87370E-06 1.48418E-05 0.00000E+00
 -1       779 3.88693E-06 1.39896E-05 0.00000E+00
 -1       780 3.07810E-06 1.26624E-05 0.00000E+00
 -1       781 2.41210E-06 1.09536E-05 0.00000E+00
 -1       782 1.85365E-06 8.95739E-06-1.32349E-23
 -1       783 1.36746E-06 6.76850E-06-2.64698E-23
 -1       784 9.18672E-07 4.48216E-06 0.00000E+00
 -1       785 4.72005E-07 2.19363E-06 0.00000E+00
 -1       786 7.45542E-05 2.58958E-07-8.27181E-25
 -1       787 7.46362E-05 3.67566E-07 8.27181E-25
 -1       788 7.47179E-05 4.42295E-07 0.00000E+00
 -1       789 7.48005E-05 4.92032E-07 0.00000E+00
 -1       790 7.48831E-05 5.25607E-07 0.00000E+00
 -1       791 7.49658E-05 5.51824E-07 1.65436E-24
 -1       792 7.50486E-05 5.79473E-07 0.00000E+00
 -1       793 7.51315E-05 6.17344E-07-1.65436E-24
 -1       794 7.52143E-05 6.74251E-07-3.30872E-24
 -1       795 7.52971E-05 7.59038E-07-1.65436E-24
 -1       796 7.53799E-05 8.80609E-07-3.30872E-24
 -1       797 7.54627E-05 1.04793E-06 0.00000E+00
 -1       798 7.55454E-05 1.27007E-06 0.00000E+00
 -1       799 7.56278E-05 1.55617E-06-8.27181E-25
 -1       800 7.57102E-05 1.91554E-06 0.00000E+00
 -1       801 6.87016E-05 1.65158E-07 0.00000E+00
 -1       802 5.43883E-05 1.48227E-07 0.00000E+00
 -1       803 3.59510E-05 7.16316E-08 0.00000E+00
 -1       804 1.77997E-05-6.60763E-09 6.61744E-24
 -1       805 4.34360E-06-1.86001E-08 0.00000E+00
 -1       806 7.43252E-05 2.12110E-07 0.00000E+00
 -1       807 7.41774E-05 2.96436E-07-1.65436E-24
 -1       808 7.40337E-05 3.67842E-07 3.30872E-24
 -1       809 7.38918E-05 4.33051E-07 0.00000E+00
 -1       810 7.37496E-05 4.98754E-07 0.00000E+00
 -1       811 7.36047E-05 5.71591E-07-1.65436E-24
 -1       812 7.34546E-05 6.58193E-07 0.00000E+00
 -1       813 7.32968E-05 7.65179E-07 8.27181E-25
 -1       814 7.31289E-05 8.99173E-07 3.30872E-24
 -1       815 7.29484E-05 1.06679E-06-8.27181E-25
 -1       816 7.27528E-05 1.27464E-06 3.30872E-24
 -1       817 7.25396E-05 1.52933E-06 0.00000E+00
 -1       818 7.23065E-05 1.83747E-06-1.65436E-24
 -1       819 7.20509E-05 2.20563E-06-1.65436E-24
 -1       820 7.17707E-05 2.64036E-06-8.27181E-25
 -1       821 7.56836E-05 2.92369E-06 8.27181E-25
 -1       822 7.55699E-05 3.64104E-06 0.00000E+00
 -1       823 7.54564E-05 4.49468E-06 0.00000E+00
 -1       824 7.53417E-05 5.46931E-06 0.00000E+00
 -1       825 7.52268E-05 6.54932E-06 0.00000E+00
 -1       826 7.51116E-05 7.71881E-06 0.00000E+00
 -1       827 7.49963E-05 8.96161E-06 0.00000E+00
 -1       828 7.48809E-05 1.02614E-05-1.65436E-24
 -1       829 7.47654E-05 1.16018E-05 3.30872E-24
 -1       830 7.46499E-05 1.29661E-05-1.65436E-24
 -1       831 7.45345E-05 1.43377E-05 0.00000E+00
 -1       832 7.44192E-05 1.56999E-05-1.65436E-24
 -1       833 7.43041E-05 1.70361E-05 3.30872E-24
 -1       834 7.41901E-05 1.83297E-05 0.00000E+00
 -1       835 7.40759E-05 1.95643E-05 0.00000E+00
 -1       836 7.52001E-05 2.48809E-06-3.30872E-24
 -1       837 7.44930E-05 2.62245E-06 0.00000E+00
 -1       838 7.37176E-05 2.75662E-06 0.00000E+00
 -1       839 7.29223E-05 2.89018E-06 8.27181E-25
 -1       840 7.21553E-05 3.02351E-06 0.00000E+00
 -1       856 7.38929E-05 2.19413E-05-8.27181E-25
 -1       857 7.38126E-05 2.33332E-05-8.27181E-25
 -1       858 7.37322E-05 2.48726E-05 1.65436E-24
 -1       859 7.36508E-05 2.65327E-05-8.27181E-25
 -1       860 7.35692E-05 2.82868E-05 0.00000E+00
 -1       861 7.34873E-05 3.01080E-05-1.65436E-24
 -1       862 7.34053E-05 3.19694E-05-3.30872E-24
 -1       863 7.33232E-05 3.38441E-05 1.65436E-24
 -1       864 7.32412E-05 3.57050E-05-3.30872E-24
 -1       865 7.31592E-05 3.75254E-05 0.00000E+00
 -1       866 7.30774E-05 3.92782E-05 0.00000E+00
 -1       867 7.29957E-05 4.09367E-05-1.65436E-24
 -1       868 7.29143E-05 4.24739E-05 0.00000E+00
 -1       869 7.28333E-05 4.38632E-05 0.00000E+00
 -1       870 7.27525E-05 4.50780E-05 0.00000E+00
 -1       871 7.30626E-05 2.07139E-05 0.00000E+00
 -1       872 7.23049E-05 2.07022E-05 0.00000E+00
 -1       873 7.16329E-05 2.06901E-05-8.27181E-25
 -1       874 7.09840E-05 2.06774E-05 0.00000E+00
 -1       875 7.02952E-05 2.06640E-05-1.65436E-24
 -1       876 7.36629E-05 2.19518E-05 3.30872E-24
 -1       877 7.33255E-05 2.32798E-05 1.65436E-24
 -1       878 7.29557E-05 2.46943E-05 0.00000E+00
 -1       879 7.25583E-05 2.61838E-05-1.65436E-24
 -1       880 7.21372E-05 2.77365E-05 0.00000E+00
 -1       881 7.16967E-05 2.93409E-05 0.00000E+00
 -1       882 7.12411E-05 3.09855E-05-3.30872E-24
 -1       883 7.07748E-05 3.26587E-05 0.00000E+00
 -1       884 7.03020E-05 3.43490E-05 0.00000E+00
 -1       885 6.98271E-05 3.60450E-05-1.65436E-24
 -1       886 6.93543E-05 3.77351E-05-3.30872E-24
 -1       887 6.88880E-05 3.94078E-05 0.00000E+00
 -1       888 6.84322E-05 4.10516E-05 3.30872E-24
 -1       889 6.79909E-05 4.26547E-05-1.65436E-24
 -1       890 6.75688E-05 4.42058E-05 1.65436E-24
 -1       891 7.18537E-05 4.60255E-05 0.00000E+00
 -1       892 7.10801E-05 4.59582E-05 8.27181E-25
 -1       893 7.02884E-05 4.58910E-05 0.00000E+00
 -1       894 6.94144E-05 4.58238E-05 0.00000E+00
 -1       895 6.83940E-05 4.57565E-05-8.27181E-25
 -1       956 7.13450E-05 3.84510E-06 0.00000E+00
 -1       957 7.12231E-05 4.65348E-06 0.00000E+00
 -1       958 7.11007E-05 5.56125E-06-1.65436E-24
 -1       959 7.09780E-05 6.55582E-06 1.65436E-24
 -1       960 7.08551E-05 7.62459E-06 1.65436E-24
 -1       961 7.07322E-05 8.75488E-06 0.00000E+00
 -1       962 7.06091E-05 9.93398E-06 3.30872E-24
 -1       963 7.04860E-05 1.11492E-05-1.65436E-24
 -1       964 7.03629E-05 1.23879E-05-3.30872E-24
 -1       965 7.02398E-05 1.36372E-05 0.00000E+00
 -1       966 7.01166E-05 1.48845E-05-3.30872E-24
 -1       967 6.99936E-05 1.61171E-05 0.00000E+00
 -1       968 6.98706E-05 1.73223E-05 3.30872E-24
 -1       969 6.97478E-05 1.84874E-05 1.65436E-24
 -1       970 6.96254E-05 1.95998E-05 0.00000E+00
 -1       971 6.93612E-05 2.17174E-05 0.00000E+00
 -1       972 6.92150E-05 2.29333E-05 0.00000E+00
 -1       973 6.90686E-05 2.42783E-05 0.00000E+00
 -1       974 6.89217E-05 2.57354E-05-1.65436E-24
 -1       975 6.87746E-05 2.72874E-05 3.30872E-24
 -1       976 6.86273E-05 2.89171E-05 1.65436E-24
 -1       977 6.84800E-05 3.06072E-05 0.00000E+00
 -1       978 6.83325E-05 3.23406E-05 0.00000E+00
 -1       979 6.81850E-05 3.40999E-05 3.30872E-24
 -1       980 6.80375E-05 3.58679E-05-1.65436E-24
 -1       981 6.78901E-05 3.76273E-05 0.00000E+00
 -1       982 6.77428E-05 3.93608E-05 0.00000E+00
 -1       983 6.75958E-05 4.10511E-05 0.00000E+00
 -1       984 6.74495E-05 4.26811E-05 1.65436E-24
 -1       985 6.73037E-05 4.42333E-05-3.30872E-24
 -3
    1PSTEP                         6           3           1          
  100CL  103 7.50000E-01         409                     0    3           1
 -4  STRESS      6    1
 -5  SXX         1    4    1    1
 -5  SYY         1    4    2    2
 -5  SZZ         1    4    3    3
 -5  SXY         1    4    1    2
 -5  SYZ         1    4    2    3
 -5  SZX         1    4    3    1
 -1         1-3.11436E+06-1.36300E+06-7.06942E+05-1.68403E+06-1.89175E-10-8.41101E-09
 -1         2 2.59841E+03-5.10922E+05 9.33790E+03-1.01304E+04-4.80537E-09 2.25808E-08
 -1         3-8.42782E+01-1.09947E+06 2.78157E+02-5.15030E+02 2.40611E-10 7.54517E-09
 -1         5-1.83126E+01 4.13710E+05 1.16488E+01 7.30668E-01 1.97681E-10-1.83954E-08
 -1         8-1.59320E+06-6.16540E+05-1.68781E+05-9.05841E+05-1.45519E-10 3.34694E-09
 -1         9-2.01725E+06-6.95332E+05-2.58769E+05-6.48494E+05 2.89583E-10-6.44359E-09
 -1        10-9.72462E+02-1.14968E+06-1.86195E+03-3.52176E+03-4.49609E-09-1.08674E-08
 -1        12-1.35751E+01 4.13734E+05 3.78148E+02 4.96835E+00 2.63299E-10 2.78578E-09
 -1        15 2.96988E+03 1.61122E+03 9.29269E+03 6.78934E+00-9.72022E-11 3.64726E-09
 -1        16-4.48667E+06-1.43797E+06-6.84897E+05-1.46042E+06-1.64922E-09 4.24916E-09
 -1        17-7.89024E+05-6.04557E+05-1.25293E+05-5.40687E+05-8.05012E-09 2.35741E-09
 -1        18 3.20089E+04 7.11012E+03-1.68249E+04-1.02066E+05 1.94632E-10 1.47975E-09
 -1        19 1.24628E+05 1.48848E+05-9.59944E+02 1.49933E+04-3.94721E-10 1.59343E-09
 -1        20 6.38986E+04-1.84496E+05-3.49604E+04 5.80302E+04-2.98921E-10 3.05045E-09
 -1        21-9.07065E+01-3.60661E+05-1.43960E+03-2.56012E+02 3.98400E-09 2.77942E-09
 -1        24-3.26304E+06-1.17285E+06-3.83478E+05-1.51679E+06-6.86850E-09-7.95505E-09
 -1        25 2.89311E+04 4.17703E+04 2.77812E+04-4.43461E+05 1.40608E-09-9.68794E-10
 -1        26-2.33492E+04 1.05781E+05-6.38454E+03-2.39070E+04 3.20142E-11-1.43894E-09
 -1        27-3.66107E+04-1.10336E+05-5.07562E+04 7.92974E+04-1.04440E-10 2.39076E-09
 -1        28-1.76755E+03-1.10052E+05 3.70959E+03 4.01608E+04 5.05884E-09 2.73706E-09
 -1        32-9.95329E+05-1.01335E+05 3.11581E+05-1.38878E+06-9.89530E-10-3.17868E-10
 -1        33-1.47625E+05 9.81304E+04 3.17656E+04-4.17045E+04 2.16384E-10-2.27010E-09
 -1        34-2.39785E+05-3.25975E+04-4.47866E+03 7.59450E+04-4.26392E-10 3.68073E-09
 -1        35-2.90276E+04-4.05064E+04-2.08333E+03 6.61213E+04 5.59436E-09-6.09361E-09
 -1        51 2.55292E+04-4.94321E+05 4.98096E+04-1.33040E+06-2.91038E-11-5.51518E-09
 -1        52 1.55096E+04-4.95197E+05 3.35063E+04-1.49397E+06-4.00178E-10-6.98492E-10
 -1        53 1.32071E+04-5.12767E+05 3.02984E+04-1.32637E+06-4.72937E-10 8.67294E-09
 -1        54 3.31534E+04-5.11348E+05 5.06918E+04-1.49811E+06-5.96629E-10 1.46101E-08
 -1        55 6.89030E+04-5.30007E+05 9.34794E+04-1.32547E+06-2.18279E-10 6.09725E-09
 -1        56-5.92633E+06-6.35904E+05-4.97331E+05-2.27396E+06 2.04454E-09-1.05065E-08
 -1        57-6.08642E+06-1.14188E+06-3.37618E+05-2.29663E+06 4.72937E-10-5.67888E-09
 -1        58-6.04423E+06-7.80622E+05-1.16661E+05-2.21912E+06-2.50657E-09-3.54339E-09
 -1        59-5.95247E+06-9.69941E+05-7.04497E+04-2.35872E+06-1.33900E-09 5.16593E-10
 -1        60-6.05999E+06-8.03530E+05-2.72152E+04-2.21361E+06-7.30324E-10 4.39013E-09
 -1        61-5.95111E+06-9.23918E+05-1.52633E+04-2.34148E+06-4.94310E-10 8.04113E-09
 -1        62-6.04441E+06-8.26742E+05-8.03181E+03-2.23581E+06-3.21961E-10 2.56455E-09
 -1        63-5.99554E+06-8.70405E+05-5.36862E+03-2.28271E+06 2.53885E-09-5.84350E-10
 -1        64-6.01417E+06-8.57910E+05-7.92318E+03-2.27139E+06-1.23782E-09-7.01220E-10
 -1        65-6.05777E+06-8.14388E+05-1.38633E+04-2.21532E+06-3.31647E-09 4.17640E-09
 -1        66-5.98263E+06-8.82535E+05-2.55749E+04-2.30348E+06 2.74804E-09-5.32600E-09
 -1        67-6.11800E+06-7.99689E+05-6.51430E+04-2.16702E+06 3.86808E-09-4.97948E-09
 -1        68-5.95570E+06-8.72059E+05-1.07929E+05-2.32071E+06 7.78527E-10-2.23008E-09
 -1        69-6.22684E+06-9.76805E+05-3.12951E+05-2.13175E+06-6.95036E-09 4.96220E-09
 -1        70-5.87518E+06-7.08665E+05-4.60331E+05-2.33793E+06-2.72121E-09-6.11180E-09
 -1        86-1.38935E+03-5.36732E+05 4.91688E+03 5.06472E+03-3.22643E-10 9.28935E-09
 -1        87 6.62773E+03-5.16695E+05 1.52713E+04-1.64749E+04-2.11503E-09 8.23638E-09
 -1        88-5.19202E+03-5.31136E+05 2.08435E+04 1.14112E+04-3.99996E-09 6.28233E-09
 -1        89 4.01678E+04-5.05974E+05 5.71282E+04-2.08957E+04-1.50067E-10 6.02267E-09
 -1        90-3.47858E+04-5.47560E+05 7.87695E+04 9.48702E+03-4.91491E-09 1.06667E-10
 -1       121-1.57973E+02-1.10001E+06 2.43096E+02 2.57313E+02-1.24203E-09-1.97906E-09
 -1       122 2.14808E+01-1.09942E+06 6.01058E+02-1.02701E+03-3.08188E-09 3.47791E-09
 -1       123-2.35505E+02-1.10008E+06 9.37754E+02 7.68517E+02-3.30925E-09 2.23736E-10
 -1       124 1.20879E+03-1.09874E+06 2.50534E+03-2.15645E+03-6.73595E-09 7.32689E-09
 -1       125-1.05914E+03-1.10071E+06 3.74755E+03 1.38651E+03-5.48152E-09 2.03454E-09
 -1       191-1.96074E+01 4.13743E+05 1.34228E+01-3.69003E-01 2.76033E-10-2.07910E-08
 -1       192-1.93911E+01 4.13710E+05 2.46863E+01 2.25921E+00 3.61827E-10-1.25469E-08
 -1       193-2.24699E+01 4.13742E+05 4.54206E+01-1.91394E+00 3.92037E-10-1.37161E-08
 -1       194-2.28595E+01 4.13714E+05 9.34251E+01 5.07421E+00 2.27146E-10-5.47107E-09
 -1       195-2.79687E+01 4.13739E+05 1.82248E+02-3.21719E+00 6.67896E-10-3.20688E-09
 -1       251-1.28811E+06-4.94588E+04-3.04459E+04 6.71603E+04-1.43791E-09 3.02498E-09
 -1       252-6.29392E+05 3.97122E+04 9.35985E+04-1.99203E+05 6.33007E-09-3.27800E-08
 -1       253-9.91936E+05 1.36266E+04 6.96527E+03 9.99467E+04-8.81710E-09 1.91917E-08
 -1       254-4.61621E+05 1.60253E+04 1.06044E+05-1.37574E+05-9.00593E-09 1.84912E-09
 -1       255-1.44961E+06-3.26023E+04-9.67363E+04 5.47177E+03-9.11677E-09 7.23503E-09
 -1       256-3.38340E+05 2.42839E+04 1.27974E+05 7.60982E+04-9.84414E-09 8.68999E-09
 -1       257-1.11107E+06 1.15173E+03-2.75704E+04-1.13182E+05 1.66438E-09-1.49623E-08
 -1       258-6.90235E+05 2.75517E+03 5.41354E+04 1.94380E+05 1.70532E-09 1.49328E-08
 -1       259-1.10936E+06 1.32340E+03-2.71521E+04-1.13332E+05 1.89311E-08-3.57473E-08
 -1       260-3.39594E+05 2.42617E+04 1.27875E+05 7.67270E+04 3.61092E-09 7.37873E-09
 -1       261-1.45010E+06-3.27122E+04-9.65369E+04 4.99279E+03 2.90038E-09-6.76096E-10
 -1       262-4.59935E+05 1.65022E+04 1.07111E+05-1.37008E+05-2.02454E-08-4.00451E-09
 -1       263-9.93077E+05 1.32074E+04 7.95496E+03 9.98606E+04 1.60201E-08 1.19044E-08
 -1       264-6.29109E+05 4.19683E+04 9.67079E+04-1.99467E+05 7.89993E-08-2.00794E-08
 -1       265-1.28728E+06-5.12635E+04-2.54340E+04 6.75104E+04 2.54086E-08 1.28766E-08
 -1       266-5.25195E+04-2.43331E+04 1.21649E+05-1.40850E+02 1.89175E-10 2.57322E-09
 -1       267 6.08364E+04 2.84155E+04 8.62116E+04 1.62010E+02 1.39153E-10-8.74515E-09
 -1       268-8.26313E+03-4.05882E+03 3.19379E+04-2.10092E+01 1.36424E-10-2.33261E-09
 -1       269 9.75449E+03 4.86572E+03 2.08489E+04 2.44295E+01 3.50155E-11 8.73184E-09
 -1       270-1.48403E+03-8.05578E+02 1.00210E+04-3.39029E+00-3.66072E-11 1.28014E-08
 -1       271-6.18505E+06-7.48470E+05-4.99673E+05-2.41087E+06-3.63798E-11-3.23053E-09
 -1       272-6.39315E+06-1.11566E+06-3.25784E+05-2.37637E+06 8.12179E-10-3.63798E-10
 -1       273-6.28554E+06-8.78647E+05-1.17850E+05-2.38046E+06-4.47471E-10-4.72937E-09
 -1       274-6.27232E+06-9.62228E+05-6.70305E+04-2.42140E+06 9.61791E-11-6.21822E-09
 -1       275-6.30387E+06-8.88896E+05-2.74328E+04-2.37074E+06 1.99134E-09 1.60071E-10
 -1       276-6.24911E+06-9.51859E+05-1.48252E+04-2.43649E+06 1.58980E-09 7.53062E-09
 -1       277-6.30907E+06-8.87149E+05-7.29702E+03-2.36633E+06 1.20622E-09-1.15119E-09
 -1       278-6.24393E+06-9.53442E+05-5.62667E+03-2.44144E+06-2.73985E-11 3.18119E-09
 -1       279-6.30934E+06-8.86963E+05-6.35667E+03-2.36607E+06 3.00156E-09 4.39695E-09
 -1       280-6.24792E+06-9.52165E+05-1.21678E+04-2.43759E+06-1.15870E-09 2.68710E-09
 -1       281-6.30485E+06-8.88701E+05-2.21737E+04-2.36996E+06-6.42558E-10 1.20090E-08
 -1       282-6.26774E+06-9.59227E+05-5.39570E+04-2.42390E+06 8.46967E-10 1.03464E-08
 -1       283-6.28915E+06-8.81482E+05-9.48390E+04-2.37890E+06 1.52932E-09-2.56114E-09
 -1       284-6.36717E+06-1.08019E+06-2.62000E+05-2.38477E+06-2.77078E-09-5.90080E-09
 -1       285-6.20691E+06-7.78338E+05-4.02086E+05-2.40504E+06-3.47063E-09 7.43603E-09
 -1       301 4.21128E+04-2.46792E+04 1.53761E+05-2.68966E+04-1.88447E-09-8.45830E-11
 -1       302 1.90133E+04 9.19075E+03 1.03641E+05-3.50322E+04 3.29965E-09 8.70673E-09
 -1       303 2.68475E+03-1.25165E+04 9.22068E+04-2.71172E+04-1.51704E-09 1.93563E-09
 -1       304 3.23619E+04 2.07656E+04 1.48841E+05-3.49626E+04 3.11411E-09 2.87491E-09
 -1       305 7.46823E+04-3.61595E+04 2.58935E+05-2.67619E+04-1.42609E-09 1.18221E-08
 -1       306-3.72047E+06-4.59661E+05-2.47278E+05-1.44350E+06 1.57161E-09 8.73115E-10
 -1       307-3.79361E+06-6.80894E+05-1.62569E+05-1.45783E+06 3.58762E-09 1.07848E-08
 -1       308-3.77420E+06-5.24407E+05-5.84382E+04-1.42346E+06-1.93268E-11-1.63709E-10
 -1       309-3.72880E+06-6.06713E+05-3.35766E+04-1.48768E+06-1.67802E-10 3.74757E-09
 -1       310-3.78546E+06-5.28300E+05-1.36978E+04-1.41619E+06-2.23690E-09-9.05857E-10
 -1       311-3.71516E+06-6.03010E+05-7.56463E+03-1.49862E+06-6.95763E-11-9.43987E-09
 -1       312-3.78857E+06-5.26978E+05-3.90222E+03-1.41333E+06 1.25874E-09-3.10592E-10
 -1       313-3.71294E+06-6.03430E+05-3.46731E+03-1.50084E+06 3.41311E-09 8.97535E-09
 -1       314-3.78788E+06-5.27687E+05-4.46312E+03-1.41414E+06 4.65661E-10-1.86446E-10
 -1       315-3.71772E+06-6.00718E+05-9.05710E+03-1.49522E+06-1.30194E-09-4.41605E-09
 -1       316-3.78326E+06-5.30115E+05-1.67347E+04-1.41854E+06-1.23327E-09 1.42700E-09
 -1       317-3.73520E+06-6.04528E+05-4.10246E+04-1.48104E+06-1.40062E-10 4.01997E-10
 -1       318-3.76951E+06-5.25247E+05-7.14986E+04-1.42734E+06 1.70689E-09-1.27329E-09
 -1       319-3.81399E+06-6.96186E+05-1.98916E+05-1.44589E+06-2.49247E-09 6.44650E-09
 -1       320-3.70456E+06-4.45012E+05-3.02403E+05-1.45080E+06 2.80852E-09 5.68980E-09
 -1       336 1.11121E+03-1.19905E+06-7.35255E+03 2.13254E+03-1.18855E-08-9.57516E-09
 -1       337-2.90838E+03-1.20123E+06-8.63409E+03-5.15301E+03-8.45057E-09-1.30094E-08
 -1       338 9.57827E+02-1.19911E+06-1.12822E+04 3.01366E+03-1.47588E-08-4.96493E-09
 -1       339-1.26830E+04-1.20707E+06-2.54751E+04-6.87157E+03-1.07107E-08 8.37645E-09
 -1       340 9.30441E+03-1.19335E+06-3.88613E+04 3.83908E+03-1.81190E-08 3.85262E-09
 -1       406 1.48224E+01 4.13722E+05 7.46018E+02-1.83573E+00 9.33028E-10 4.43833E-09
 -1       407 2.46767E+02 4.13865E+05 1.58658E+03-1.04686E+01 9.68328E-11 3.91401E-09
 -1       408 8.02815E+02 4.13607E+05 3.16798E+03 1.27751E+01 8.92214E-10-9.05857E-10
 -1       409 3.41345E+03 4.14877E+05 7.13273E+03-1.37673E+02-3.95630E-11-1.71713E-09
 -1       410 9.83170E+03 4.12705E+05 1.45606E+04 1.34515E+02 1.20053E-09 2.26009E-09
 -1       521-7.07634E+06-8.65858E+05-4.87324E+05-2.74589E+06 9.60426E-10-6.69388E-09
 -1       522-7.27994E+06-1.24854E+06-3.21283E+05-2.71115E+06 2.86764E-09-3.13594E-09
 -1       523-7.18191E+06-9.95151E+05-1.14862E+05-2.70684E+06 7.97627E-10-1.01863E-10
 -1       524-7.15075E+06-1.10105E+06-6.62587E+04-2.76844E+06-8.49241E-10-2.60479E-09
 -1       525-7.20415E+06-1.00318E+06-2.67746E+04-2.69251E+06-1.09821E-09-1.24601E-09
 -1       526-7.12346E+06-1.09310E+06-1.47563E+04-2.78871E+06 3.16686E-09-5.26870E-09
 -1       527-7.20974E+06-1.00134E+06-7.34573E+03-2.68758E+06-2.87392E-09-8.99729E-09
 -1       528-7.12077E+06-1.09172E+06-6.10636E+03-2.79033E+06-8.37190E-10-4.74324E-09
 -1       529-7.20686E+06-1.00440E+06-7.40842E+03-2.69097E+06-3.90810E-09 8.17636E-10
 -1       530-7.13359E+06-1.08212E+06-1.46217E+04-2.77536E+06-1.18780E-09-2.52112E-09
 -1       531-7.19610E+06-1.01162E+06-2.68421E+04-2.70189E+06 2.36560E-09 2.87400E-10
 -1       532-7.16939E+06-1.08130E+06-6.59049E+04-2.74517E+06 1.94677E-09 4.54747E-11
 -1       533-7.17040E+06-1.00704E+06-1.14515E+05-2.72007E+06 4.18049E-09-2.42289E-09
 -1       534-7.30344E+06-1.22357E+06-3.19980E+05-2.68368E+06-8.87667E-10-5.20231E-10
 -1       535-7.06411E+06-8.79032E+05-4.85319E+05-2.75995E+06 3.11411E-09-8.78936E-09
 -1       536-3.19097E+04-2.42534E+04 6.78697E+04-1.49474E+02 1.89357E-09 7.87986E-09
 -1       537-1.54983E+03 2.78278E+04 4.64921E+04-5.25911E+04-8.58108E-09-1.07229E-09
 -1       538-2.07596E+04-3.37345E+03 1.75152E+04-7.28223E+01 1.19780E-09-1.71713E-09
 -1       539-1.51811E+04 3.41590E+03 1.06292E+04-5.27157E+04 4.55475E-09 1.69530E-09
 -1       540-1.90914E+04-5.39449E+02 4.38467E+03-2.46241E+01 3.12866E-10-4.94992E-10
 -1       541-1.77591E+04 4.20878E+02 2.51988E+03-5.27893E+04-2.34013E-09-2.24509E-09
 -1       542-1.87798E+04-1.02520E+02 1.03869E+03-1.74655E+00-2.50611E-09-4.88615E-09
 -1       543-1.85482E+04 1.43426E+02 5.12712E+02-5.28258E+04-4.33602E-10 3.98427E-09
 -1       544-1.86905E+04-1.91327E+00 6.80731E+01 1.15496E+01-4.10409E-10 4.41537E-09
 -1       545-1.88763E+04 8.16221E+01-3.09607E+02-5.28426E+04-3.31511E-10-3.76247E-09
 -1       546-1.86294E+04 8.16771E+01-7.64025E+02 1.53467E+01 1.28676E-09-4.01360E-09
 -1       547-1.91712E+04-5.33646E+02-1.91127E+03-5.28349E+04-4.33329E-09-9.96249E-09
 -1       548-1.83624E+04 5.62960E+02-3.30207E+03 3.73378E+00-1.48702E-09 4.99540E-10
 -1       549-2.11745E+04-5.19453E+03-8.57274E+03-5.27617E+04-3.04681E-09 5.83896E-10
 -1       550-1.63820E+04 4.33654E+03-1.27901E+04-5.80675E+01 6.45741E-11 3.70528E-09
 -1       551 1.87393E+04-5.36167E+05 3.29561E+04-8.68613E+05-1.50758E-08-5.24597E-09
 -1       552 2.36175E+04-5.36733E+05 3.65691E+04-1.11837E+06-1.57816E-08 9.06584E-09
 -1       553 1.73480E+04-5.41820E+05 5.33550E+04-8.66554E+05-1.90194E-08 2.68119E-09
 -1       554 4.62715E+04-5.20110E+05 1.09678E+05-1.11866E+06-1.61817E-08-1.00226E-09
 -1       555 7.33227E+04-5.57753E+05 2.03211E+05-8.67746E+05-1.81171E-08-8.49104E-09
 -1       556-3.96842E+04-1.71810E+05 5.09843E+04-2.47125E+05-2.37924E-09 4.84579E-09
 -1       557 1.89235E+04-2.21587E+05 2.66240E+04-2.94397E+05-3.78350E-10-2.34877E-09
 -1       558-4.05807E+04-1.79548E+05 1.07231E+04-2.41103E+05 2.40107E-09-1.82445E-09
 -1       559 1.03714E+04-2.28344E+05 5.45586E+03-2.98367E+05-2.08092E-09 2.10093E-09
 -1       560-4.27489E+04-1.78183E+05 2.22273E+03-2.42433E+05-5.60249E-10-5.19867E-09
 -1       561 7.26539E+03-2.27497E+05 1.18693E+03-3.00399E+05 1.74623E-10-7.76799E-09
 -1       562-4.44471E+04-1.77067E+05 4.19913E+02-2.43626E+05-2.42289E-09-7.46900E-09
 -1       563 5.36631E+03-2.26684E+05 2.33832E+02-3.01649E+05-1.32968E-09 4.09364E-09
 -1       564-4.54830E+04-1.76403E+05-1.81268E+01-2.44347E+05-8.00355E-10 2.72667E-09
 -1       565 4.39774E+03-2.26275E+05-1.95634E+02-3.02272E+05-4.59841E-09 7.75071E-09
 -1       566-4.58155E+04-1.76168E+05-5.70293E+02-2.44589E+05-3.77349E-09 6.90670E-09
 -1       567 4.24304E+03-2.26289E+05-1.32741E+03-3.02250E+05-3.65026E-09 3.07227E-09
 -1       568-4.53567E+04-1.76471E+05-2.82961E+03-2.44346E+05 3.29601E-09 9.47693E-09
 -1       569 2.97168E+03-2.27640E+05-6.66824E+03-3.00853E+05-1.78989E-09 1.31658E-08
 -1       570-4.28891E+04-1.80368E+05-1.31745E+04-2.42842E+05 2.73212E-09 1.04023E-08
 -1       571 2.82524E+05 1.16208E+04 1.72449E+04-6.91307E+04 1.21327E-09 3.67891E-10
 -1       572 2.85089E+05 4.03345E+03 8.44940E+03-7.57777E+04 6.98492E-10-2.34286E-09
 -1       573 2.83541E+05 9.54362E+02 3.75350E+03-6.89473E+04 7.15772E-10-1.10731E-09
 -1       574 2.83844E+05 3.06445E+02 1.88067E+03-7.59788E+04-3.28100E-10-2.17733E-09
 -1       575 2.83648E+05 3.80344E+01 8.85832E+02-6.89236E+04 8.64475E-10 1.28148E-09
 -1       576 2.83671E+05 8.03120E+00 4.49968E+02-7.60056E+04 1.59866E-09-3.92174E-09
 -1       577 2.83664E+05-1.02912E+01 2.19415E+02-6.89204E+04 1.14960E-09 8.05630E-09
 -1       578 2.83656E+05-8.14120E+00 1.15258E+02-7.60089E+04 2.41926E-10 5.48971E-09
 -1       579 2.83688E+05-1.63658E+01 6.19410E+01-6.89202E+04-1.00954E-10-1.73532E-09
 -1       580 2.83689E+05-2.37128E+01 4.41142E+01-7.60053E+04-1.60071E-09 7.71252E-10
 -1       581 2.83734E+05-3.81633E+01 4.34567E+01-6.89241E+04 1.80989E-10 5.95082E-09
 -1       582 2.83758E+05-4.60766E+01 7.23263E+01-7.59651E+04 2.98314E-10 4.92810E-09
 -1       583 2.83799E+05-4.57237E+01 1.28660E+02-6.89604E+04 8.97126E-09-2.33968E-10
 -1       584 2.83888E+05 3.86605E+01 2.87748E+02-7.56582E+04 1.66001E-08 8.82210E-11
 -1       585 2.83846E+05 2.79370E+02 5.76777E+02-6.92312E+04 1.10686E-08 5.55337E-09
 -1       586-6.02064E+01 1.18723E+05 4.01126E+02-2.11570E+05 2.02363E-11-1.13068E-08
 -1       587 4.69533E+02 1.18793E+05 2.05981E+03-2.36058E+05-2.01180E-09-2.17182E-08
 -1       588 1.15940E+03 1.18446E+05 4.64179E+03-2.11361E+05-9.09495E-12-7.92511E-09
 -1       589 4.78452E+03 1.20506E+05 1.07047E+04-2.35976E+05-1.78261E-09-2.43745E-09
 -1       590 1.37408E+04 1.17160E+05 2.18111E+04-2.11651E+05 1.09139E-10-3.75894E-09
 -1       591-1.21532E+05-3.43590E+04-2.61245E+04-5.83359E+04 5.37739E-10 1.36151E-08
 -1       592-1.23530E+05-3.54984E+04-1.34450E+04-6.52475E+04-1.00742E-08-2.54345E-08
 -1       593-1.23303E+05-2.88567E+04-5.68969E+03-6.14038E+04-6.95763E-10-5.62977E-09
 -1       594-1.20366E+05-3.22438E+04-2.80513E+03-6.54048E+04 1.30012E-09-7.54289E-09
 -1       595-1.23464E+05-2.87404E+04-1.29515E+03-6.15170E+04-3.54180E-09-1.42428E-08
 -1       596-1.20159E+05-3.21272E+04-6.55370E+02-6.53738E+04-1.55387E-09-1.08298E-09
 -1       597-1.23488E+05-2.87612E+04-3.54047E+02-6.15179E+04-3.18713E-09-7.14965E-09
 -1       598-1.20138E+05-3.21266E+04-2.78071E+02-6.53646E+04-4.19050E-10-6.16637E-10
 -1       599-1.23486E+05-2.87630E+04-3.47181E+02-6.15165E+04-4.51587E-09 1.03682E-09
 -1       600-1.20154E+05-3.21295E+04-6.37179E+02-6.53685E+04-8.12418E-09-3.41856E-09
 -1       601-1.23456E+05-2.87460E+04-1.25566E+03-6.15128E+04-1.54751E-09 8.77071E-09
 -1       602-1.20351E+05-3.22421E+04-2.71776E+03-6.53909E+04 3.51065E-09 1.40972E-10
 -1       603-1.23294E+05-2.88647E+04-5.51152E+03-6.14029E+04 2.82398E-10 2.44472E-09
 -1       604-1.23438E+05-3.53665E+04-1.30211E+04-6.52004E+04-8.66385E-09 3.83534E-09
 -1       605-1.21546E+05-3.42194E+04-2.53005E+04-5.84580E+04-1.35014E-09 3.10683E-09
 -1       606 8.28171E+04-1.19188E+04-2.08183E+04 3.37442E+04-4.82942E-09-2.93767E-09
 -1       607 7.93056E+04-3.86332E+03-1.03374E+04 3.76737E+04-7.93989E-10-3.30510E-09
 -1       608 8.12967E+04-6.82070E+02-4.62559E+03 3.34835E+04 3.72893E-09-4.26894E-09
 -1       609 8.08796E+04-1.66504E+02-2.33296E+03 3.79588E+04-5.97538E-10 3.28055E-09
 -1       610 8.10972E+04 4.16806E+01-1.11314E+03 3.34539E+04-7.17046E-09 4.89081E-09
 -1       611 8.10091E+04 6.83953E+01-5.60783E+02 3.79902E+04-1.21045E-08 8.77208E-10
 -1       612 8.10374E+04 7.13647E+01-2.68190E+02 3.34511E+04-4.82032E-09-2.82853E-09
 -1       613 8.09971E+04 8.51749E+01-1.21303E+02 3.79934E+04-7.39101E-09-5.29735E-09
 -1       614 8.10025E+04 7.68464E+01-3.24418E+01 3.34504E+04-2.09184E-09-7.52198E-09
 -1       615 8.09759E+04 9.58131E+01 4.21770E+01 3.79935E+04 9.63246E-09-1.13687E-09
 -1       616 8.09761E+04 8.77281E+01 1.34264E+02 3.34509E+04-3.67527E-09 1.04501E-09
 -1       617 8.09801E+04 1.34455E+02 3.10402E+02 3.79922E+04-3.82806E-09 1.51113E-09
 -1       618 8.09398E+04 1.91053E+02 6.27349E+02 3.34513E+04-3.20870E-09 4.22915E-11
 -1       619 8.11908E+04 6.42614E+02 1.41097E+03 3.79888E+04-1.17052E-09 1.52704E-09
 -1       620 8.07309E+04 1.72887E+03 2.84381E+03 3.34510E+04 1.45212E-09-2.85399E-09
 -1       621 7.48898E+02 3.02990E+05 3.37212E+03-1.65615E+04-2.71763E-09 4.42807E-09
 -1       622 4.05687E+02 3.03708E+05 3.49656E+03-2.13169E+04-8.93579E-11 2.29312E-09
 -1       623 1.49922E+02 3.03105E+05 5.02813E+03-1.65550E+04-2.74804E-09 3.11707E-09
 -1       624 2.40546E+03 3.05446E+05 1.02718E+04-2.12659E+04 1.33696E-10-5.87079E-10
 -1       625 5.62092E+03 3.01263E+05 1.91175E+04-1.66097E+04-2.11276E-09 3.27873E-10
 -1       626 2.23789E+05 6.72250E+04 1.20593E+03 1.30549E+05-3.98541E-09-5.78802E-09
 -1       627 2.19674E+05 7.10749E+04 5.81201E+02 1.35568E+05-1.47429E-09 4.65639E-09
 -1       628 2.23920E+05 6.65054E+04 2.43883E+02 1.30547E+05 7.98536E-09 1.74805E-09
 -1       629 2.19296E+05 7.11079E+04 1.24548E+02 1.35798E+05 1.16761E-08 9.84107E-09
 -1       630 2.23899E+05 6.64821E+04 6.21630E+01 1.30512E+05 6.86487E-09 2.55471E-09
 -1       631 2.19221E+05 7.11330E+04 4.65922E+01 1.35791E+05 4.05180E-10-2.59405E-09
 -1       632 2.23869E+05 6.64959E+04 5.42125E+01 1.30492E+05-3.55521E-09-2.55341E-10
 -1       633 2.19195E+05 7.11444E+04 9.64482E+01 1.35775E+05 1.55705E-09 5.89353E-09
 -1       634 2.23846E+05 6.64973E+04 1.87493E+02 1.30481E+05 2.33013E-09 4.85670E-10
 -1       635 2.19202E+05 7.11483E+04 4.00047E+02 1.35774E+05-3.97597E-09-1.74623E-10
 -1       636 2.23824E+05 6.64977E+04 8.17636E+02 1.30474E+05-4.84920E-09-1.28603E-09
 -1       637 2.19374E+05 7.12926E+04 1.80481E+03 1.35765E+05-5.84618E-09-3.40833E-09
 -1       638 2.23762E+05 6.69377E+04 3.71525E+03 1.30272E+05-5.92786E-09-3.93084E-09
 -1       639 2.21299E+05 7.41202E+04 8.79836E+03 1.35167E+05-4.96357E-09-1.01577E-08
 -1       640 2.23589E+05 7.52938E+04 1.83177E+04 1.26720E+05 6.99401E-10 3.20370E-09
 -1       656 2.20861E+04-6.29374E+05-6.56950E+04 7.87909E+02-9.05857E-10 7.27778E-09
 -1       657-2.95698E+04-6.56480E+05-5.19166E+04 4.65672E+04-6.37237E-09-4.35921E-09
 -1       658 5.91707E+03-6.37834E+05-3.31112E+04 5.02091E+02-1.25954E-09 6.64443E-09
 -1       659-3.12627E+04-6.57412E+05-5.44251E+04 4.67626E+04-9.03492E-09 5.26195E-09
 -1       660 2.37248E+04-6.28489E+05-7.01565E+04 5.93025E+02-2.65572E-09 2.51430E-09
 -1       661 2.73285E+05 3.46096E+04 2.28727E+04 1.06620E+05 3.26736E-09-4.03361E-09
 -1       662 2.79588E+05 5.12841E+04 1.44350E+04 1.08655E+05-2.58194E-09 4.64024E-09
 -1       663 2.77227E+05 3.98256E+04 5.40216E+03 1.06059E+05 5.86397E-10 1.15915E-09
 -1       664 2.75053E+05 4.45145E+04 2.97562E+03 1.09638E+05-8.74702E-09-8.41783E-09
 -1       665 2.77680E+05 4.03850E+04 1.26889E+03 1.06012E+05-1.15467E-08-2.20209E-09
 -1       666 2.74529E+05 4.38107E+04 6.92758E+02 1.09727E+05-3.51349E-09 4.99138E-09
 -1       667 2.77739E+05 4.04402E+04 3.93177E+02 1.06004E+05 1.16518E-09-9.66907E-10
 -1       668 2.74469E+05 4.37626E+04 3.81620E+02 1.09749E+05-8.62909E-09-4.51860E-09
 -1       669 2.77743E+05 4.04253E+04 5.46031E+02 1.05994E+05-1.03819E-09-6.09020E-10
 -1       670 2.74553E+05 4.39027E+04 1.11768E+03 1.09769E+05 1.08961E-08-1.75163E-09
 -1       671 2.77662E+05 4.03068E+04 2.12700E+03 1.05984E+05 2.10059E-09-2.71393E-09
 -1       672 2.75414E+05 4.51372E+04 5.04281E+03 1.09668E+05-1.04501E-09 4.71118E-09
 -1       673 2.76909E+05 3.93365E+04 9.16964E+03 1.06044E+05-5.97197E-10-8.30732E-09
 -1       674 2.83102E+05 5.66648E+04 2.45232E+04 1.08032E+05 9.29731E-10-1.17780E-10
 -1       675 2.70220E+05 3.04649E+04 3.88573E+04 1.06990E+05-5.92581E-09-8.36735E-10
 -1       676 4.46500E+01-3.60520E+05-1.72631E+03 1.28008E+02 1.22282E-08-2.24357E-09
 -1       677-5.31078E+02-3.60980E+05-3.18434E+03-2.55712E+02 9.72710E-09 1.35125E-09
 -1       678 3.77654E+02-3.60201E+05-5.57467E+03 1.27614E+02 7.08383E-09 3.10158E-09
 -1       679-5.98950E+03-3.64419E+05-1.33845E+04-2.54835E+02 5.84782E-09-5.79201E-09
 -1       680 3.95984E+03-3.57083E+05-2.12828E+04 1.25802E+02 8.12997E-09-3.50204E-09
 -1       771-2.74962E+06-5.26248E+05-7.08576E+04-1.18212E+06-1.46974E-09-4.23461E-09
 -1       772-2.73309E+06-5.48722E+05-3.61955E+04-1.22333E+06-5.71163E-09-2.60479E-09
 -1       773-2.75717E+06-5.09357E+05-1.57886E+04-1.18988E+06-6.56291E-09 4.36194E-09
 -1       774-2.72502E+06-5.41116E+05-7.65080E+03-1.22737E+06-5.39876E-09 1.60071E-09
 -1       775-2.75954E+06-5.07649E+05-3.83177E+03-1.19075E+06-1.15760E-08 3.60342E-09
 -1       776-2.72565E+06-5.40732E+05-1.83330E+03-1.22940E+06-1.84809E-08 1.08066E-08
 -1       777-2.76121E+06-5.06606E+05-1.14149E+03-1.19131E+06-9.21864E-09 8.01083E-09
 -1       778-2.72660E+06-5.40571E+05-7.09604E+02-1.23101E+06-1.71349E-09-1.07775E-09
 -1       779-2.76246E+06-5.05763E+05-8.86804E+02-1.19175E+06 1.09721E-08-8.55835E-10
 -1       780-2.72742E+06-5.40456E+05-1.37708E+03-1.23221E+06 2.40398E-08-1.99339E-09
 -1       781-2.76325E+06-5.05132E+05-2.70947E+03-1.19205E+06 8.10178E-09-3.59660E-09
 -1       782-2.72833E+06-5.40618E+05-5.77844E+03-1.23300E+06-3.55794E-09-3.51884E-09
 -1       783-2.76336E+06-5.05078E+05-1.17439E+04-1.19198E+06 5.56611E-10-3.87263E-09
 -1       784-2.73514E+06-5.47259E+05-2.77862E+04-1.23286E+06-5.57338E-09-4.09636E-09
 -1       785-2.75967E+06-5.16496E+05-5.40438E+04-1.18578E+06 8.37190E-10 3.67436E-10
 -1       786 2.31619E+05-1.01215E+04 2.90490E+04 2.59690E+01 3.85853E-10 2.40107E-10
 -1       787 2.43280E+05 1.20545E+04 1.96917E+04-3.17067E+03-3.76815E-10-5.21800E-09
 -1       788 2.36292E+05-1.32846E+03 7.54850E+03 1.28383E+01-2.13760E-10-2.53158E-09
 -1       789 2.37947E+05 1.57112E+03 4.47517E+03-3.15036E+03-2.98371E-10 6.11254E-09
 -1       790 2.36953E+05-1.74384E+02 1.92862E+03 5.75223E+00 1.62224E-10 4.42492E-09
 -1       791 2.37189E+05 2.04437E+02 1.07816E+03-3.14394E+03-5.35161E-10-4.82814E-09
 -1       792 2.37051E+05-2.39648E+01 5.27390E+02 6.42791E+00 1.00210E-09 8.04874E-10
 -1       793 2.37082E+05 3.54638E+01 3.51191E+02-3.15332E+03-1.15455E-09-2.58861E-09
 -1       794 2.37060E+05-1.17721E+01 3.02956E+02 1.51255E+01 2.43745E-10 1.48101E-09
 -1       795 2.37108E+05 7.95337E+01 4.62391E+02-3.17884E+03-2.04921E-10 3.93220E-09
 -1       796 2.37025E+05-6.68541E+01 7.56775E+02 3.19480E+01-2.37776E-10 4.40679E-10
 -1       797 2.37396E+05 5.94709E+02 1.71075E+03-3.21967E+03 9.31948E-11 3.69482E-09
 -1       798 2.36775E+05-5.04628E+02 2.86848E+03 5.59595E+01-7.05825E-10 3.07909E-09
 -1       799 2.39421E+05 4.56970E+03 7.47201E+03-3.27258E+03-1.33275E-09-3.77406E-09
 -1       800 2.35002E+05-3.84018E+03 1.10164E+04 8.47603E+01 3.62547E-10 5.64751E-09
 -1       801-2.83526E+04 2.36863E+05 2.96494E+04-3.83723E+03-1.14451E-08-8.12724E-09
 -1       802 7.39123E+04 2.66650E+05 6.56882E+04-1.58457E+06-2.88546E-08-1.29985E-08
 -1       803-9.34068E+03 2.52646E+05 7.77323E+04-5.29184E+03-1.35587E-08 1.23077E-08
 -1       804 1.57033E+05 3.18221E+05 1.91092E+05-1.58478E+06-3.09810E-08 2.58642E-08
 -1       805-1.11400E+05 1.91493E+05 2.50990E+05-3.72300E+03-3.20142E-09 1.09940E-08
 -1       806-2.41698E+05-6.29958E+04-2.07947E+04-1.11771E+05 6.08679E-10 2.10184E-09
 -1       807-2.41687E+05-5.90769E+04-9.98622E+03-1.18437E+05-4.35409E-09-1.34285E-08
 -1       808-2.41858E+05-5.35603E+04-4.21703E+03-1.15886E+05-1.16938E-09-6.04302E-09
 -1       809-2.39597E+05-5.57846E+04-2.04833E+03-1.19045E+05 1.11152E-09-7.81370E-09
 -1       810-2.41929E+05-5.30617E+04-9.30516E+02-1.16127E+05-5.48994E-10 3.27418E-11
 -1       811-2.39411E+05-5.56131E+04-4.60801E+02-1.19046E+05-8.62883E-10 5.83691E-09
 -1       812-2.41943E+05-5.30672E+04-2.29085E+02-1.16131E+05 3.04090E-09 6.94217E-09
 -1       813-2.39384E+05-5.56155E+04-1.44242E+02-1.19033E+05-1.82035E-09-1.44928E-08
 -1       814-2.41936E+05-5.30772E+04-1.34876E+02-1.16124E+05 4.30919E-09 9.06266E-09
 -1       815-2.39382E+05-5.56221E+04-2.11208E+02-1.19024E+05-6.56200E-10 1.30235E-08
 -1       816-2.41915E+05-5.30857E+04-3.96144E+02-1.16115E+05-1.14323E-09 1.22782E-11
 -1       817-2.39454E+05-5.56879E+04-8.55750E+02-1.18997E+05 1.38243E-10-4.28258E-09
 -1       818-2.41860E+05-5.33143E+04-1.75595E+03-1.16018E+05 1.74623E-10 4.53838E-09
 -1       819-2.40414E+05-5.69513E+04-4.15058E+03-1.18604E+05-1.88811E-09-6.21458E-09
 -1       820-2.41675E+05-5.73355E+04-8.64233E+03-1.14410E+05 2.70120E-10-5.06134E-09
 -1       821-3.20547E+05 1.38310E+04-3.96933E+04-1.92531E+02-3.25781E-09 6.08816E-09
 -1       822-3.36460E+05-1.64720E+04-2.69087E+04 5.15868E+03-1.94183E-09 5.20913E-09
 -1       823-3.26930E+05 1.81293E+03-1.03204E+04-2.86098E+02 3.13185E-09 3.63525E-09
 -1       824-3.29184E+05-2.13909E+03-6.12456E+03 5.31835E+03-1.80421E-10-1.20770E-09
 -1       825-3.27830E+05 2.36885E+02-2.65982E+03-3.52531E+02-5.67854E-09-6.93603E-10
 -1       826-3.28160E+05-2.70239E+02-1.52286E+03 5.43065E+03-1.10946E-08-4.19254E-09
 -1       827-3.27959E+05 3.42062E+01-8.19617E+02-3.98495E+02-5.80025E-09-7.16511E-11
 -1       828-3.28035E+05-5.63463E+01-6.88836E+02 5.50237E+03-8.72724E-09 1.94806E-09
 -1       829-3.27959E+05 3.41964E+01-8.10695E+02-4.24268E+02 4.21750E-10-3.34791E-09
 -1       830-3.28165E+05-2.62801E+02-1.50023E+03 5.53269E+03 4.24533E-09-7.56242E-09
 -1       831-3.27831E+05 2.34160E+02-2.61415E+03-4.28812E+02-2.63380E-09-8.55334E-09
 -1       832-3.29180E+05-2.09686E+03-6.02112E+03 5.52133E+03-3.66163E-09-2.67084E-09
 -1       833-3.26945E+05 1.78395E+03-1.01408E+04-4.12797E+02-1.37325E-09-2.81125E-09
 -1       834-3.36338E+05-1.61812E+04-2.64472E+04 5.46921E+03-2.77956E-09-2.49292E-09
 -1       835-3.20672E+05 1.35962E+04-3.90062E+04-3.75931E+02 1.52255E-09-2.27556E-09
 -1       836-9.13177E+02 3.85141E+05 2.87468E+04-2.95976E+04-3.74712E-10 1.88493E-09
 -1       837 5.79294E+03 3.93746E+05 2.24072E+04-5.55609E+04-1.65204E-09 9.61791E-09
 -1       838-3.38642E+02 3.87938E+05 2.06681E+04-2.95117E+04-5.61158E-10 6.94376E-09
 -1       839 1.14060E+04 3.98110E+05 3.65301E+04-5.55783E+04-1.64027E-09 9.52241E-10
 -1       840-1.92668E+03 3.80745E+05 5.79299E+04-2.95772E+04-7.96717E-10-1.75987E-10
 -1       856-2.24719E+05 7.10469E+03-3.08674E+04 4.06872E+03-5.96447E-09 4.76939E-09
 -1       857-2.35837E+05-9.64403E+03-1.97587E+04 1.67079E+04-7.25674E-09-4.77530E-09
 -1       858-2.29378E+05 7.35910E+02-7.99867E+03 3.99471E+03-8.34757E-09 4.46562E-10
 -1       859-2.30688E+05-9.01525E+02-4.45924E+03 1.68043E+04-2.21030E-09-5.99243E-09
 -1       860-2.29909E+05 9.08508E+01-2.02734E+03 3.97044E+03-7.71479E-10-1.48361E-09
 -1       861-2.30111E+05-3.35757E+01-1.07986E+03 1.68370E+04-5.02064E-09 1.24760E-09
 -1       862-2.29979E+05 2.47222E+01-5.40895E+02 3.96171E+03 9.72182E-09 8.38781E-10
 -1       863-2.30039E+05 4.95385E+01-3.35268E+02 1.68429E+04 2.11124E-08-6.70184E-10
 -1       864-2.29986E+05 1.81220E+01-2.74591E+02 3.96455E+03 8.76912E-09 1.52028E-10
 -1       865-2.30039E+05 2.83484E+01-3.77083E+02 1.68244E+04 1.02193E-08 3.11923E-09
 -1       866-2.29965E+05 3.27964E+01-6.29666E+02 3.98018E+03 1.66688E-09-5.25674E-09
 -1       867-2.30188E+05-2.35446E+02-1.33218E+03 1.67795E+04-1.49089E-09-2.69382E-09
 -1       868-2.29804E+05 2.16780E+02-2.37701E+03 4.00963E+03 3.07955E-09 2.78874E-09
 -1       869-2.31681E+05-2.83105E+03-5.84527E+03 1.66626E+04-2.08638E-09-7.48912E-11
 -1       870-2.28421E+05 2.08989E+03-9.14051E+03 4.09757E+03 2.04773E-09 6.66205E-10
 -1       871-4.65752E+03-3.26084E+04-1.32998E+04 1.28712E+05-5.13501E-09 2.83853E-09
 -1       872-1.94511E+03-3.55230E+04-4.97612E+03 1.64251E+05-3.45062E-09 2.03363E-09
 -1       873-1.17842E+02-3.42922E+04 1.75428E+03 1.28433E+05-3.83579E-09-1.47611E-09
 -1       874 2.47472E+03-3.18357E+04 9.78101E+03 1.64321E+05-3.58432E-09-2.95540E-09
 -1       875 6.48021E+03-3.64311E+04 2.11152E+04 1.28659E+05-7.07587E-09 9.13133E-10
 -1       876 3.48707E+05 5.42669E+04 2.71909E+04 1.38943E+05-1.72702E-09 9.18590E-10
 -1       877 3.52983E+05 6.49034E+04 1.54679E+04 1.44357E+05 1.48975E-09-6.65932E-09
 -1       878 3.52169E+05 5.52975E+04 6.27568E+03 1.39925E+05 7.92852E-10 7.10315E-10
 -1       879 3.48690E+05 5.99173E+04 3.19401E+03 1.44735E+05-2.53658E-09-6.93433E-09
 -1       880 3.52436E+05 5.54282E+04 1.45217E+03 1.39994E+05 1.25351E-09 2.71200E-09
 -1       881 3.48360E+05 5.96065E+04 7.56670E+02 1.44708E+05-1.67324E-09 6.24277E-09
 -1       882 3.52460E+05 5.54547E+04 4.37342E+02 1.40003E+05-2.16710E-09 1.53406E-09
 -1       883 3.48334E+05 5.95844E+04 4.02361E+02 1.44692E+05-2.98769E-09 4.65946E-10
 -1       884 3.52454E+05 5.54554E+04 5.75586E+02 1.40004E+05 1.86617E-10 2.92181E-09
 -1       885 3.48388E+05 5.96113E+04 1.12370E+03 1.44701E+05 1.20214E-09 5.18105E-09
 -1       886 3.52404E+05 5.54233E+04 2.23055E+03 1.39995E+05-1.11027E-09-2.45814E-09
 -1       887 3.48904E+05 6.00859E+04 4.94358E+03 1.44724E+05 7.31490E-10-4.76848E-09
 -1       888 3.51976E+05 5.52288E+04 9.73118E+03 1.39889E+05-3.65179E-09-5.52063E-09
 -1       889 3.55525E+05 6.78543E+04 2.39913E+04 1.44165E+05 5.37455E-11 2.87628E-09
 -1       890 3.46636E+05 5.35994E+04 4.21805E+04 1.38320E+05 7.27323E-09 2.77578E-09
 -1       891 3.34765E+02-1.91454E+05-6.44921E+03 3.37192E+04 3.18414E-09-3.82238E-09
 -1       892-1.49063E+03-1.93392E+05-5.06422E+03 6.79498E+04 2.40448E-09-1.27631E-09
 -1       893 5.85589E+01-1.92089E+05-4.62013E+03 3.36680E+04 1.48816E-09 1.45292E-09
 -1       894-2.84139E+03-1.94298E+05-8.20362E+03 6.78414E+04-2.43472E-09 4.54747E-13
 -1       895 6.98089E+02-1.90396E+05-1.28675E+04 3.38255E+04-3.57295E-09 3.37786E-09
 -1       956-3.48703E+05-6.09912E+03-1.45867E+04 3.56239E+04-1.07266E-08-4.28145E-09
 -1       957-3.51538E+05-1.99133E+03-7.45083E+03 4.24800E+04-1.21290E-08 3.00270E-09
 -1       958-3.49994E+05-1.60287E+02-3.35695E+03 3.54015E+04-1.44064E-09-3.29692E-09
 -1       959-3.50245E+05 6.47281E+00-1.71100E+03 4.27214E+04-4.07090E-09-6.73845E-09
 -1       960-3.50133E+05 8.33771E+01-8.31906E+02 3.53789E+04-5.92900E-09 2.88765E-10
 -1       961-3.50169E+05 9.69974E+01-4.35841E+02 4.27472E+04-1.18380E-08 1.31422E-09
 -1       962-3.50172E+05 8.78152E+01-2.40437E+02 3.53752E+04-6.14318E-09-5.58794E-09
 -1       963-3.50177E+05 1.05807E+02-1.76475E+02 4.27521E+04-7.59633E-09 6.24777E-09
 -1       964-3.50185E+05 9.36965E+01-1.94481E+02 3.53739E+04 9.16316E-11-5.81167E-10
 -1       965-3.50192E+05 1.10991E+02-3.19652E+02 4.27522E+04 6.78250E-09 1.59662E-09
 -1       966-3.50175E+05 1.00598E+02-5.91293E+02 3.53751E+04-2.15778E-09 9.23137E-11
 -1       967-3.50264E+05 5.68195E+01-1.20871E+03 4.27378E+04-6.49379E-10 4.63388E-09
 -1       968-3.50090E+05-6.31368E+01-2.36625E+03 3.53886E+04-1.83763E-09 1.45201E-09
 -1       969-3.51188E+05-1.34557E+03-5.25350E+03 4.25878E+04 1.09048E-09-3.33972E-09
 -1       970-3.49187E+05-4.24762E+03-1.02831E+04 3.55301E+04 3.47700E-09-3.65071E-09
 -1       971-4.15490E+05-1.68322E+02-1.60513E+04 1.22037E+04-7.25595E-09-3.65617E-10
 -1       972-4.20085E+05-2.77778E+03-9.27377E+03 2.13106E+04-5.87352E-09-9.95624E-09
 -1       973-4.17552E+05 5.62278E+01-4.04725E+03 1.20664E+04-4.12183E-09-3.63639E-09
 -1       974-4.17922E+05-9.30197E+01-2.12573E+03 2.14668E+04 1.91721E-09 3.27054E-09
 -1       975-4.17723E+05 4.45409E+01-1.04051E+03 1.20449E+04 5.20231E-10 1.32843E-09
 -1       976-4.17773E+05 6.03833E+01-5.80526E+02 2.14976E+04-3.65253E-09-1.64005E-09
 -1       977-4.17751E+05 4.40449E+01-3.83331E+02 1.20353E+04 6.67387E-09-4.23847E-09
 -1       978-4.17773E+05 7.36480E+01-3.98092E+02 2.15112E+04 1.74592E-08-3.75201E-09
 -1       979-4.17752E+05 5.09730E+01-5.96544E+02 1.20312E+04 4.60676E-09-4.25678E-09
 -1       980-4.17821E+05 6.21776E+01-1.12895E+03 2.15135E+04 8.41919E-09-5.45242E-09
 -1       981-4.17710E+05 7.16448E+01-2.16575E+03 1.20329E+04-7.54198E-09-2.70771E-09
 -1       982-4.18187E+05-2.42968E+02-4.51826E+03 2.15016E+04-1.07452E-08 5.95776E-10
 -1       983-4.17369E+05 1.19709E+02-8.63435E+03 1.20437E+04 5.78893E-10-8.38600E-09
 -1       984-4.22874E+05-5.96007E+03-1.98304E+04 2.14021E+04-6.61225E-09-4.46880E-09
 -1       985-4.12987E+05-3.32603E+02-3.43149E+04 1.21402E+04 7.35872E-09-1.36424E-10
 -3
    1PSTEP                         7           4           1          
  100CL  104 8.12500E-01         409                     0    4           1
 -4  DISP        4    1
 -5  D1          1    2    1    0
 -5  D2          1    2    2    0
 -5  D3          1    2    3    0
 -5  ALL         1    2    0    0    1ALL
 -1         1 1.60005E-04 0.00000E+00 0.00000E+00
 -1         2 1.60072E-04 1.17993E-29-6.61744E-24
 -1         3 1.26448E-04-1.02233E-27 1.32349E-23
 -1         5 8.97128E-05-2.20101E-26-6.61744E-24
 -1         8 1.29860E-04-1.31391E-06 0.00000E+00
 -1         9 1.12641E-04-1.35984E-06 0.00000E+00
 -1        10 1.16304E-04-2.51323E-06 6.61744E-24
 -1        12 8.87560E-05 9.40129E-07 3.30872E-24
 -1        15 9.59781E-05-1.44326E-06 4.13590E-25
 -1        16 8.01483E-05-1.59139E-06 0.00000E+00
 -1        17 8.43745E-05-5.31356E-06 0.00000E+00
 -1        18 8.41737E-05-1.03112E-07 0.00000E+00
 -1        19 8.58847E-05 1.87438E-06 0.00000E+00
 -1        20 8.63669E-05 2.38410E-05 0.00000E+00
 -1        21 8.46627E-05 5.06880E-05 3.30872E-24
 -1        24 2.52621E-05-6.86582E-06 0.00000E+00
 -1        25 8.07110E-05 1.58621E-07 0.00000E+00
 -1        26 8.21406E-05 2.55573E-06 0.00000E+00
 -1        27 8.01643E-05 2.24191E-05 0.00000E+00
 -1        28 7.87598E-05 4.98725E-05 0.00000E+00
 -1        32 0.00000E+00 0.00000E+00 0.00000E+00
 -1        33 7.74633E-05 3.41217E-06 0.00000E+00
 -1        34 7.53393E-05 2.23364E-05 0.00000E+00
 -1        35 7.28015E-05 4.94380E-05 0.00000E+00
 -1        51 1.57865E-04-2.16243E-07 0.00000E+00
 -1        52 1.54158E-04-4.26625E-07 0.00000E+00
 -1        53 1.49186E-04-6.38555E-07 0.00000E+00
 -1        54 1.43266E-04-8.54604E-07 0.00000E+00
 -1        55 1.36718E-04-1.07657E-06 1.19941E-23
 -1        56 1.58220E-04-2.85741E-06-5.29396E-23
 -1        57 1.57700E-04-9.40698E-06 0.00000E+00
 -1        58 1.58180E-04-1.86617E-05 0.00000E+00
 -1        59 1.59213E-04-2.94808E-05 5.29396E-23
 -1        60 1.60289E-04-4.04178E-05 0.00000E+00
 -1        61 1.60876E-04-5.00243E-05 0.00000E+00
 -1        62 1.60534E-04-5.71019E-05 0.00000E+00
 -1        63 1.58879E-04-6.06347E-05 5.29396E-23
 -1        64 1.55766E-04-6.02727E-05 0.00000E+00
 -1        65 1.51151E-04-5.59425E-05 5.29396E-23
 -1        66 1.45273E-04-4.83121E-05 0.00000E+00
 -1        67 1.38473E-04-3.82801E-05 0.00000E+00
 -1        68 1.31264E-04-2.71930E-05-5.29396E-23
 -1        69 1.24211E-04-1.64642E-05 0.00000E+00
 -1        70 1.17817E-04-7.45447E-06 0.00000E+00
 -1        86 1.57743E-04-1.91736E-07 0.00000E+00
 -1        87 1.50774E-04-4.04666E-07 3.30872E-24
 -1        88 1.40874E-04-6.40449E-07 6.61744E-24
 -1        89 1.29775E-04-8.91050E-07 3.30872E-24
 -1        90 1.19644E-04-1.13120E-06-1.32349E-23
 -1       121 1.26163E-04-4.16920E-07-1.32349E-23
 -1       122 1.25311E-04-8.34160E-07 0.00000E+00
 -1       123 1.23893E-04-1.25203E-06 0.00000E+00
 -1       124 1.21915E-04-1.67092E-06-6.61744E-24
 -1       125 1.19382E-04-2.09098E-06-1.32349E-23
 -1       191 8.96862E-05 1.56710E-07-6.61744E-24
 -1       192 8.96065E-05 3.13415E-07-3.30872E-24
 -1       193 8.94736E-05 4.70116E-07 1.32349E-23
 -1       194 8.92876E-05 6.26806E-07-3.30872E-24
 -1       195 8.90484E-05 7.83479E-07 0.00000E+00
 -1       251 1.29444E-04-9.37858E-06-1.32349E-23
 -1       252 1.28476E-04-4.45714E-05 6.61744E-24
 -1       253 1.27195E-04-8.87103E-05-1.32349E-23
 -1       254 1.26271E-04-1.23481E-04 0.00000E+00
 -1       255 1.25798E-04-1.36537E-04-1.32349E-23
 -1       256 1.25203E-04-1.15885E-04-6.61744E-24
 -1       257 1.23766E-04-6.84365E-05 1.32349E-23
 -1       258 1.21258E-04-1.53749E-06-6.61744E-24
 -1       259 1.18747E-04 6.54154E-05-1.32349E-23
 -1       260 1.17303E-04 1.13023E-04 0.00000E+00
 -1       261 1.16704E-04 1.33878E-04 0.00000E+00
 -1       262 1.16233E-04 1.21008E-04 0.00000E+00
 -1       263 1.15313E-04 8.63529E-05 0.00000E+00
 -1       264 1.14031E-04 4.22030E-05 0.00000E+00
 -1       265 1.13059E-04 6.89574E-06 0.00000E+00
 -1       266 1.24213E-04-1.35419E-06 6.61744E-24
 -1       267 1.18566E-04-1.37346E-06 0.00000E+00
 -1       268 1.12919E-04-1.39409E-06 0.00000E+00
 -1       269 1.07272E-04-1.41074E-06 4.13590E-25
 -1       270 1.01625E-04-1.42732E-06-8.27181E-25
 -1       271 1.25349E-04 2.66273E-06-5.29396E-23
 -1       272 1.21248E-04 5.27847E-06-2.64698E-23
 -1       273 1.17633E-04 6.62218E-06-1.05879E-22
 -1       274 1.14445E-04 6.79047E-06-5.29396E-23
 -1       275 1.11635E-04 5.94729E-06 0.00000E+00
 -1       276 1.09127E-04 4.29115E-06 5.29396E-23
 -1       277 1.06833E-04 2.06057E-06 1.05879E-22
 -1       278 1.04656E-04-4.83775E-07 0.00000E+00
 -1       279 1.02493E-04-3.06615E-06-1.05879E-22
 -1       280 1.00241E-04-5.40921E-06 0.00000E+00
 -1       281 9.78012E-05-7.24738E-06 1.05879E-22
 -1       282 9.50821E-05-8.33468E-06 0.00000E+00
 -1       283 9.20033E-05-8.46165E-06 1.05879E-22
 -1       284 8.85102E-05-7.45255E-06 0.00000E+00
 -1       285 8.45416E-05-5.19485E-06 5.29396E-23
 -1       301 1.07191E-04-1.40896E-06 0.00000E+00
 -1       302 1.01737E-04-1.43559E-06 3.30872E-24
 -1       303 9.62920E-05-1.46022E-06 0.00000E+00
 -1       304 9.08698E-05-1.48674E-06 0.00000E+00
 -1       305 8.54841E-05-1.51852E-06 0.00000E+00
 -1       306 1.09363E-04 2.53579E-06 0.00000E+00
 -1       307 1.06707E-04 4.65187E-06 0.00000E+00
 -1       308 1.04658E-04 5.16681E-06 0.00000E+00
 -1       309 1.03125E-04 4.28276E-06 0.00000E+00
 -1       310 1.02017E-04 2.26101E-06 0.00000E+00
 -1       311 1.01224E-04-6.08244E-07 0.00000E+00
 -1       312 1.00627E-04-4.00169E-06 5.29396E-23
 -1       313 1.00098E-04-7.58190E-06 0.00000E+00
 -1       314 9.95105E-05-1.10040E-05 0.00000E+00
 -1       315 9.87377E-05-1.39274E-05 0.00000E+00
 -1       316 9.76595E-05-1.60313E-05-5.29396E-23
 -1       317 9.61648E-05-1.70169E-05 0.00000E+00
 -1       318 9.41551E-05-1.66289E-05 0.00000E+00
 -1       319 9.15549E-05-1.46470E-05 2.64698E-23
 -1       320 8.82899E-05-1.09184E-05 0.00000E+00
 -1       336 1.12612E-04-2.97344E-06 0.00000E+00
 -1       337 1.08241E-04-3.43691E-06-6.61744E-24
 -1       338 1.03209E-04-3.90320E-06 1.32349E-23
 -1       339 9.75377E-05-4.37187E-06 0.00000E+00
 -1       340 9.12504E-05-4.84420E-06 0.00000E+00
 -1       406 8.84104E-05 1.09674E-06 0.00000E+00
 -1       407 8.80115E-05 1.25328E-06 0.00000E+00
 -1       408 8.75595E-05 1.40970E-06 0.00000E+00
 -1       409 8.70542E-05 1.56578E-06 0.00000E+00
 -1       410 8.64958E-05 1.72119E-06-6.61744E-24
 -1       521 7.54545E-05 1.69969E-06-5.29396E-23
 -1       522 7.13100E-05 3.26697E-06 0.00000E+00
 -1       523 6.77789E-05 3.22113E-06 1.05879E-22
 -1       524 6.47787E-05 1.71625E-06 0.00000E+00
 -1       525 6.22219E-05-9.76504E-07-1.05879E-22
 -1       526 5.99826E-05-4.52880E-06-5.29396E-23
 -1       527 5.79169E-05-8.54842E-06-1.05879E-22
 -1       528 5.58699E-05-1.26194E-05 5.29396E-23
 -1       529 5.36856E-05-1.63216E-05-1.05879E-22
 -1       530 5.12151E-05-1.92546E-05 0.00000E+00
 -1       531 4.83287E-05-2.10741E-05 1.05879E-22
 -1       532 4.49203E-05-2.14939E-05 0.00000E+00
 -1       533 4.09164E-05-2.03305E-05-1.05879E-22
 -1       534 3.62903E-05-1.74785E-05-5.29396E-23
 -1       535 3.10276E-05-1.29658E-05 5.29396E-23
 -1       536 8.43325E-05 1.02480E-06 0.00000E+00
 -1       537 8.43105E-05 5.81856E-06 0.00000E+00
 -1       538 8.42936E-05 9.22603E-06 0.00000E+00
 -1       539 8.42820E-05 1.14061E-05 0.00000E+00
 -1       540 8.42723E-05 1.25179E-05-8.27181E-25
 -1       541 8.42636E-05 1.27208E-05 0.00000E+00
 -1       542 8.42549E-05 1.21742E-05 0.00000E+00
 -1       543 8.42458E-05 1.10378E-05 0.00000E+00
 -1       544 8.42362E-05 9.47147E-06 0.00000E+00
 -1       545 8.42263E-05 7.63492E-06 0.00000E+00
 -1       546 8.42161E-05 5.68813E-06 2.06795E-25
 -1       547 8.42061E-05 3.79104E-06 0.00000E+00
 -1       548 8.41965E-05 2.10353E-06 5.16988E-26
 -1       549 8.41878E-05 7.85494E-07 0.00000E+00
 -1       550 8.41795E-05-3.23681E-09 0.00000E+00
 -1       551 7.56578E-05-5.55688E-06 3.30872E-24
 -1       552 6.58545E-05-5.80516E-06 4.13590E-25
 -1       553 5.54355E-05-6.05928E-06 0.00000E+00
 -1       554 4.48791E-05-6.31784E-06 0.00000E+00
 -1       555 3.46637E-05-6.57838E-06 0.00000E+00
 -1       556 8.19445E-05 8.11001E-07 0.00000E+00
 -1       557 8.00713E-05 5.50367E-06 0.00000E+00
 -1       558 7.86932E-05 8.89646E-06 0.00000E+00
 -1       559 7.77540E-05 1.11324E-05 0.00000E+00
 -1       560 7.71978E-05 1.23544E-05 0.00000E+00
 -1       561 7.69691E-05 1.27064E-05 0.00000E+00
 -1       562 7.70130E-05 1.23325E-05 0.00000E+00
 -1       563 7.72748E-05 1.13770E-05 0.00000E+00
 -1       564 7.77001E-05 9.98469E-06 0.00000E+00
 -1       565 7.82347E-05 8.30007E-06 0.00000E+00
 -1       566 7.88244E-05 6.46796E-06 0.00000E+00
 -1       567 7.94151E-05 4.63320E-06-1.44757E-24
 -1       568 7.99528E-05 2.94056E-06 1.65436E-24
 -1       569 8.03836E-05 1.53467E-06 0.00000E+00
 -1       570 8.06534E-05 5.60123E-07 0.00000E+00
 -1       571 8.42771E-05 8.60305E-08 1.65436E-24
 -1       572 8.43831E-05 2.06312E-07-8.27181E-25
 -1       573 8.44899E-05 2.70012E-07-1.65436E-24
 -1       574 8.45970E-05 2.90055E-07 1.65436E-24
 -1       575 8.47043E-05 2.79418E-07 3.30872E-24
 -1       576 8.48116E-05 2.51167E-07 1.65436E-24
 -1       577 8.49190E-05 2.18374E-07 0.00000E+00
 -1       578 8.50264E-05 1.94121E-07 0.00000E+00
 -1       579 8.51337E-05 1.91493E-07 0.00000E+00
 -1       580 8.52411E-05 2.23574E-07 0.00000E+00
 -1       581 8.53485E-05 3.03449E-07 6.61744E-24
 -1       582 8.54558E-05 4.44188E-07 0.00000E+00
 -1       583 8.55632E-05 6.58852E-07 6.61744E-24
 -1       584 8.56704E-05 9.60368E-07-6.61744E-24
 -1       585 8.57777E-05 1.36159E-06 0.00000E+00
 -1       586 8.36297E-05-5.81456E-08 0.00000E+00
 -1       587 8.30115E-05-1.33548E-08 0.00000E+00
 -1       588 8.23646E-05 3.12553E-08 0.00000E+00
 -1       589 8.17350E-05 7.54119E-08-4.13590E-25
 -1       590 8.11688E-05 1.18676E-07 0.00000E+00
 -1       591 8.40290E-05 1.25083E-07 0.00000E+00
 -1       592 8.38995E-05 2.98616E-07-8.27181E-25
 -1       593 8.37858E-05 4.28376E-07-3.30872E-24
 -1       594 8.36842E-05 5.24076E-07 8.27181E-25
 -1       595 8.35917E-05 5.95507E-07 0.00000E+00
 -1       596 8.35045E-05 6.52382E-07 0.00000E+00
 -1       597 8.34191E-05 7.04407E-07 0.00000E+00
 -1       598 8.33318E-05 7.61282E-07 0.00000E+00
 -1       599 8.32391E-05 8.32701E-07 0.00000E+00
 -1       600 8.31373E-05 9.28358E-07 8.27181E-25
 -1       601 8.30228E-05 1.05795E-06-8.27181E-25
 -1       602 8.28921E-05 1.23117E-06-4.13590E-25
 -1       603 8.27415E-05 1.45772E-06-8.27181E-25
 -1       604 8.25677E-05 1.74737E-06 1.03398E-25
 -1       605 8.23672E-05 2.10982E-06 0.00000E+00
 -1       606 8.59198E-05 2.60733E-06 6.61744E-24
 -1       607 8.59516E-05 3.46363E-06 0.00000E+00
 -1       608 8.59825E-05 4.43597E-06 0.00000E+00
 -1       609 8.60129E-05 5.51614E-06 1.65436E-24
 -1       610 8.60431E-05 6.69588E-06 3.30872E-24
 -1       611 8.60730E-05 7.96677E-06 0.00000E+00
 -1       612 8.61029E-05 9.32041E-06 0.00000E+00
 -1       613 8.61326E-05 1.07484E-05 0.00000E+00
 -1       614 8.61622E-05 1.22424E-05 0.00000E+00
 -1       615 8.61917E-05 1.37939E-05 0.00000E+00
 -1       616 8.62212E-05 1.53946E-05 1.65436E-24
 -1       617 8.62506E-05 1.70360E-05 8.27181E-25
 -1       618 8.62799E-05 1.87097E-05 0.00000E+00
 -1       619 8.63091E-05 2.04074E-05 0.00000E+00
 -1       620 8.63382E-05 2.21206E-05-8.27181E-25
 -1       621 8.52286E-05 1.98850E-06 0.00000E+00
 -1       622 8.45733E-05 2.10297E-06-1.65436E-24
 -1       623 8.39279E-05 2.21738E-06 0.00000E+00
 -1       624 8.33014E-05 2.33150E-06 0.00000E+00
 -1       625 8.27027E-05 2.44518E-06-1.65436E-24
 -1       626 8.57134E-05 2.66361E-06 0.00000E+00
 -1       627 8.54951E-05 3.57861E-06 0.00000E+00
 -1       628 8.52341E-05 4.60743E-06 6.61744E-24
 -1       629 8.49351E-05 5.73713E-06 0.00000E+00
 -1       630 8.46031E-05 6.95478E-06 0.00000E+00
 -1       631 8.42429E-05 8.24731E-06-3.30872E-24
 -1       632 8.38594E-05 9.60166E-06-6.61744E-24
 -1       633 8.34576E-05 1.10048E-05-1.65436E-24
 -1       634 8.30423E-05 1.24437E-05-3.30872E-24
 -1       635 8.26185E-05 1.39052E-05 1.65436E-24
 -1       636 8.21910E-05 1.53764E-05 3.30872E-24
 -1       637 8.17647E-05 1.68441E-05 1.65436E-24
 -1       638 8.13445E-05 1.82954E-05-3.30872E-24
 -1       639 8.09351E-05 1.97171E-05 8.27181E-25
 -1       640 8.05409E-05 2.10961E-05-1.65436E-24
 -1       656 8.48988E-05 2.36100E-05 3.30872E-24
 -1       657 8.37905E-05 2.33690E-05-3.30872E-24
 -1       658 8.29031E-05 2.31290E-05 0.00000E+00
 -1       659 8.20965E-05 2.28892E-05 3.30872E-24
 -1       660 8.12303E-05 2.26486E-05-3.30872E-24
 -1       661 8.58383E-05 2.55974E-05 1.65436E-24
 -1       662 8.53003E-05 2.73919E-05 1.65436E-24
 -1       663 8.47528E-05 2.92113E-05 0.00000E+00
 -1       664 8.42008E-05 3.10444E-05-1.65436E-24
 -1       665 8.36481E-05 3.28795E-05 0.00000E+00
 -1       666 8.30992E-05 3.47050E-05 0.00000E+00
 -1       667 8.25582E-05 3.65094E-05-3.30872E-24
 -1       668 8.20296E-05 3.82812E-05 0.00000E+00
 -1       669 8.15176E-05 4.00088E-05 3.30872E-24
 -1       670 8.10267E-05 4.16805E-05-1.65436E-24
 -1       671 8.05611E-05 4.32847E-05 0.00000E+00
 -1       672 8.01252E-05 4.48095E-05 0.00000E+00
 -1       673 7.97235E-05 4.62430E-05 3.30872E-24
 -1       674 7.93597E-05 4.75730E-05 0.00000E+00
 -1       675 7.90394E-05 4.87878E-05 0.00000E+00
 -1       676 8.36736E-05 5.05511E-05 3.30872E-24
 -1       677 8.26854E-05 5.04142E-05 0.00000E+00
 -1       678 8.16991E-05 5.02775E-05-3.30872E-24
 -1       679 8.07154E-05 5.01412E-05 1.65436E-24
 -1       680 7.97353E-05 5.00050E-05-3.30872E-24
 -1       771 2.13208E-05-1.61627E-07 5.29396E-23
 -1       772 1.78528E-05 5.26814E-06 2.64698E-23
 -1       773 1.48361E-05 9.50877E-06 0.00000E+00
 -1       774 1.22351E-05 1.26512E-05 0.00000E+00
 -1       775 1.00146E-05 1.47877E-05 5.29396E-23
 -1       776 8.13774E-06 1.60133E-05 0.00000E+00
 -1       777 6.56769E-06 1.64241E-05 5.29396E-23
 -1       778 5.26689E-06 1.61185E-05 2.64698E-23
 -1       779 4.19766E-06 1.51955E-05-5.29396E-23
 -1       780 3.32192E-06 1.37559E-05 0.00000E+00
 -1       781 2.60157E-06 1.19010E-05 0.00000E+00
 -1       782 1.99828E-06 9.73323E-06 0.00000E+00
 -1       783 1.47370E-06 7.35550E-06-5.29396E-23
 -1       784 9.89937E-07 4.87134E-06 0.00000E+00
 -1       785 5.08658E-07 2.38432E-06 0.00000E+00
 -1       786 8.07951E-05 3.21428E-07-8.27181E-25
 -1       787 8.08843E-05 4.37500E-07 0.00000E+00
 -1       788 8.09732E-05 5.16562E-07-1.65436E-24
 -1       789 8.10630E-05 5.68283E-07 0.00000E+00
 -1       790 8.11529E-05 6.02264E-07 3.30872E-24
 -1       791 8.12430E-05 6.28077E-07 1.65436E-24
 -1       792 8.13330E-05 6.55275E-07-3.30872E-24
 -1       793 8.14232E-05 6.93412E-07 0.00000E+00
 -1       794 8.15133E-05 7.52070E-07 0.00000E+00
 -1       795 8.16034E-05 8.40865E-07 0.00000E+00
 -1       796 8.16935E-05 9.69485E-07 0.00000E+00
 -1       797 8.17835E-05 1.14769E-06 0.00000E+00
 -1       798 8.18735E-05 1.38536E-06 3.30872E-24
 -1       799 8.19631E-05 1.69247E-06-1.65436E-24
 -1       800 8.20528E-05 2.07917E-06 0.00000E+00
 -1       801 7.44518E-05 2.20177E-07 0.00000E+00
 -1       802 5.89384E-05 1.93922E-07 0.00000E+00
 -1       803 3.89562E-05 9.76687E-08 0.00000E+00
 -1       804 1.92847E-05 1.01409E-10 0.00000E+00
 -1       805 4.70309E-06-1.98191E-08 0.00000E+00
 -1       806 8.05472E-05 2.70635E-07 3.30872E-24
 -1       807 8.03877E-05 3.60423E-07 0.00000E+00
 -1       808 8.02327E-05 4.35947E-07-3.30872E-24
 -1       809 8.00798E-05 5.04517E-07-1.65436E-24
 -1       810 7.99267E-05 5.73412E-07 3.30872E-24
 -1       811 7.97706E-05 6.49850E-07 0.00000E+00
 -1       812 7.96090E-05 7.41044E-07 0.00000E+00
 -1       813 7.94392E-05 8.54193E-07 1.65436E-24
 -1       814 7.92584E-05 9.96499E-07-1.65436E-24
 -1       815 7.90639E-05 1.17516E-06-8.27181E-25
 -1       816 7.88532E-05 1.39735E-06 1.65436E-24
 -1       817 7.86234E-05 1.67028E-06 8.27181E-25
 -1       818 7.83719E-05 2.00112E-06 0.00000E+00
 -1       819 7.80962E-05 2.39701E-06 8.27181E-25
 -1       820 7.77938E-05 2.86508E-06 0.00000E+00
 -1       821 8.20243E-05 3.16676E-06 0.00000E+00
 -1       822 8.19011E-05 3.94144E-06 1.65436E-24
 -1       823 8.17781E-05 4.86369E-06 0.00000E+00
 -1       824 8.16537E-05 5.91705E-06 1.65436E-24
 -1       825 8.15292E-05 7.08463E-06 3.30872E-24
 -1       826 8.14043E-05 8.34928E-06 1.65436E-24
 -1       827 8.12792E-05 9.69350E-06 0.00000E+00
 -1       828 8.11541E-05 1.10996E-05-1.65436E-24
 -1       829 8.10288E-05 1.25498E-05 0.00000E+00
 -1       830 8.09036E-05 1.40259E-05-1.65436E-24
 -1       831 8.07784E-05 1.55101E-05-3.30872E-24
 -1       832 8.06535E-05 1.69841E-05-1.65436E-24
 -1       833 8.05286E-05 1.84299E-05 0.00000E+00
 -1       834 8.04051E-05 1.98295E-05 1.65436E-24
 -1       835 8.02813E-05 2.11652E-05 0.00000E+00
 -1       836 8.15023E-05 2.69717E-06 3.30872E-24
 -1       837 8.07376E-05 2.84275E-06-1.65436E-24
 -1       838 7.98989E-05 2.98814E-06-3.30872E-24
 -1       839 7.90386E-05 3.13284E-06-1.65436E-24
 -1       840 7.82093E-05 3.27731E-06 8.27181E-25
 -1       856 8.00828E-05 2.37366E-05 8.27181E-25
 -1       857 7.99957E-05 2.52425E-05 0.00000E+00
 -1       858 7.99085E-05 2.69082E-05-1.65436E-24
 -1       859 7.98202E-05 2.87047E-05 1.65436E-24
 -1       860 7.97316E-05 3.06031E-05 0.00000E+00
 -1       861 7.96428E-05 3.25742E-05 0.00000E+00
 -1       862 7.95538E-05 3.45889E-05 0.00000E+00
 -1       863 7.94647E-05 3.66180E-05 0.00000E+00
 -1       864 7.93757E-05 3.86322E-05 3.30872E-24
 -1       865 7.92867E-05 4.06025E-05 0.00000E+00
 -1       866 7.91979E-05 4.24996E-05 0.00000E+00
 -1       867 7.91094E-05 4.42944E-05 0.00000E+00
 -1       868 7.90210E-05 4.59580E-05 0.00000E+00
 -1       869 7.89332E-05 4.74613E-05 0.00000E+00
 -1       870 7.88456E-05 4.87757E-05 0.00000E+00
 -1       871 7.91852E-05 2.24087E-05 0.00000E+00
 -1       872 7.83661E-05 2.23960E-05 0.00000E+00
 -1       873 7.76399E-05 2.23828E-05 0.00000E+00
 -1       874 7.69385E-05 2.23690E-05-4.13590E-25
 -1       875 7.61941E-05 2.23546E-05-4.13590E-25
 -1       876 7.98343E-05 2.37480E-05 0.00000E+00
 -1       877 7.94693E-05 2.51848E-05 0.00000E+00
 -1       878 7.90693E-05 2.67154E-05 0.00000E+00
 -1       879 7.86393E-05 2.83272E-05 0.00000E+00
 -1       880 7.81837E-05 3.00075E-05 6.61744E-24
 -1       881 7.77070E-05 3.17438E-05 0.00000E+00
 -1       882 7.72141E-05 3.35236E-05 6.61744E-24
 -1       883 7.67094E-05 3.53344E-05 0.00000E+00
 -1       884 7.61978E-05 3.71638E-05 3.30872E-24
 -1       885 7.56838E-05 3.89992E-05-1.65436E-24
 -1       886 7.51722E-05 4.08283E-05-3.30872E-24
 -1       887 7.46675E-05 4.26385E-05 0.00000E+00
 -1       888 7.41743E-05 4.44175E-05 0.00000E+00
 -1       889 7.36968E-05 4.61524E-05-1.65436E-24
 -1       890 7.32401E-05 4.78309E-05 1.65436E-24
 -1       891 7.78735E-05 4.98005E-05 1.65436E-24
 -1       892 7.70371E-05 4.97276E-05 0.00000E+00
 -1       893 7.61812E-05 4.96548E-05 0.00000E+00
 -1       894 7.52363E-05 4.95820E-05 0.00000E+00
 -1       895 7.41327E-05 4.95091E-05-8.27181E-25
 -1       956 7.73337E-05 4.16478E-06 3.30872E-24
 -1       957 7.72016E-05 5.03800E-06 1.65436E-24
 -1       958 7.70690E-05 6.01897E-06-3.30872E-24
 -1       959 7.69360E-05 7.09407E-06-1.65436E-24
 -1       960 7.68029E-05 8.24964E-06 0.00000E+00
 -1       961 7.66696E-05 9.47193E-06 0.00000E+00
 -1       962 7.65363E-05 1.07472E-05-3.30872E-24
 -1       963 7.64029E-05 1.20616E-05 1.65436E-24
 -1       964 7.62694E-05 1.34015E-05 0.00000E+00
 -1       965 7.61360E-05 1.47530E-05 0.00000E+00
 -1       966 7.60026E-05 1.61024E-05 0.00000E+00
 -1       967 7.58692E-05 1.74359E-05 0.00000E+00
 -1       968 7.57359E-05 1.87397E-05 6.61744E-24
 -1       969 7.56029E-05 2.00001E-05-3.30872E-24
 -1       970 7.54702E-05 2.12034E-05 3.30872E-24
 -1       971 7.51839E-05 2.34938E-05 0.00000E+00
 -1       972 7.50255E-05 2.48092E-05 0.00000E+00
 -1       973 7.48668E-05 2.62646E-05 0.00000E+00
 -1       974 7.47076E-05 2.78412E-05-1.65436E-24
 -1       975 7.45482E-05 2.95207E-05 3.30872E-24
 -1       976 7.43885E-05 3.12844E-05-1.65436E-24
 -1       977 7.42287E-05 3.31136E-05-3.30872E-24
 -1       978 7.40689E-05 3.49896E-05 1.65436E-24
 -1       979 7.39089E-05 3.68937E-05-6.61744E-24
 -1       980 7.37490E-05 3.88073E-05 0.00000E+00
 -1       981 7.35892E-05 4.07115E-05-6.61744E-24
 -1       982 7.34296E-05 4.25876E-05-3.30872E-24
 -1       983 7.32702E-05 4.44170E-05-3.30872E-24
 -1       984 7.31116E-05 4.61809E-05-1.65436E-24
 -1       985 7.29535E-05 4.78607E-05 3.30872E-24
 -3
    1PSTEP                         8           4           1          
  100CL  104 8.12500E-01         409                     0    4           1
 -4  STRESS      6    1
 -5  SXX         1    4    1    1
 -5  SYY         1    4    2    2
 -5  SZZ         1    4    3    3
 -5  SXY         1    4    1    2
 -5  SYZ         1    4    2    3
 -5  SZX         1    4    3    1
 -1         1-3.35420E+06-1.48226E+06-7.64669E+05-1.83370E+06-8.00355E-11 1.33587E-08
 -1         2 3.01587E+03-5.15046E+05 1.09821E+04-1.17046E+04-5.42227E-09 1.67069E-08
 -1         3-1.02935E+02-1.19075E+06 3.02750E+02-6.08508E+02 3.38229E-10 1.38971E-09
 -1         5-2.12487E+01 4.48507E+05 1.26358E+01 9.06612E-01 9.58956E-11-5.57357E-08
 -1         8-1.70001E+06-6.61518E+05-1.76229E+05-9.81918E+05 1.81899E-10 1.19326E-09
 -1         9-2.16074E+06-7.32892E+05-2.72648E+05-6.94137E+05 1.12050E-10-7.07223E-09
 -1        10-1.05858E+03-1.24513E+06-2.01869E+03-4.15798E+03-4.65070E-09-3.23455E-08
 -1        12-1.61208E+01 4.48534E+05 4.10252E+02 6.06444E+00 2.79002E-10 6.08361E-09
 -1        15 3.22046E+03 1.74717E+03 1.00767E+04 7.98722E+00-3.60018E-09-6.61531E-07
 -1        16-4.86943E+06-1.55770E+06-7.43421E+05-1.58019E+06-2.09548E-09 6.96552E-09
 -1        17-8.54195E+05-6.53941E+05-1.35888E+05-5.84089E+05-8.95670E-09-2.05473E-09
 -1        18 3.36589E+04 7.50906E+03-1.84469E+04-1.10715E+05 1.89857E-10-4.44379E-09
 -1        19 1.35033E+05 1.61356E+05-1.04075E+03 1.62178E+04-4.65661E-10-3.06318E-09
 -1        20 6.92424E+04-1.99859E+05-3.78766E+04 6.28841E+04 6.30583E-10-3.58705E-09
 -1        21-9.81445E+01-3.90714E+05-1.55968E+03-3.00371E+02 4.22455E-09 2.12194E-08
 -1        24-3.53874E+06-1.26892E+06-4.16245E+05-1.63976E+06-6.63082E-09-7.08193E-09
 -1        25 3.20625E+04 4.79607E+04 3.03411E+04-4.80783E+05 1.50503E-09-7.48041E-09
 -1        26-2.51436E+04 1.14694E+05-6.87651E+03-2.60049E+04-3.03407E-10 3.91469E-10
 -1        27-3.97127E+04-1.19526E+05-5.49916E+04 8.58970E+04-1.51491E-09 2.43745E-09
 -1        28-1.90857E+03-1.19202E+05 4.01828E+03 4.35168E+04 5.87897E-09-3.65018E-09
 -1        32-1.07753E+06-1.02505E+05 3.38124E+05-1.50556E+06-9.96806E-10-5.52518E-11
 -1        33-1.59847E+05 1.06333E+05 3.44139E+04-4.52964E+04 2.55075E-10 8.72509E-10
 -1        34-2.59751E+05-3.53045E+04-4.85521E+03 8.22368E+04-3.13772E-09-5.83517E-10
 -1        35-3.14648E+04-4.38559E+04-2.25893E+03 7.16362E+04 9.14609E-09-7.96596E-09
 -1        51 2.70538E+04-5.34037E+05 5.32249E+04-1.44264E+06-2.03727E-10 2.75031E-09
 -1        52 1.71758E+04-5.35994E+05 3.60468E+04-1.62001E+06 4.36557E-10-1.06229E-09
 -1        53 1.50427E+04-5.56023E+05 3.27113E+04-1.43824E+06-3.05590E-10 2.10857E-08
 -1        54 3.73205E+04-5.55257E+05 5.49534E+04-1.62450E+06-1.04774E-09 5.50062E-09
 -1        55 7.60989E+04-5.75763E+05 1.01365E+05-1.43722E+06 7.27596E-11-4.05271E-09
 -1        56-6.42059E+06-6.78744E+05-5.38976E+05-2.44776E+06-5.09317E-11-2.32831E-10
 -1        57-6.54291E+06-1.26794E+06-3.64364E+05-2.52265E+06-1.24419E-09-9.22591E-09
 -1        58-6.55976E+06-8.20134E+05-1.26256E+05-2.37108E+06-1.96451E-09 1.43846E-08
 -1        59-6.38778E+06-1.09630E+06-7.59881E+04-2.60867E+06-1.32150E-09-3.63798E-10
 -1        60-6.57694E+06-8.44576E+05-2.94729E+04-2.36474E+06 2.60206E-09-9.96806E-09
 -1        61-6.39599E+06-1.03335E+06-1.57930E+04-2.57254E+06 3.72211E-09 7.83643E-09
 -1        62-6.54879E+06-8.84221E+05-9.64408E+03-2.40555E+06-3.45608E-10-2.72848E-11
 -1        63-6.47336E+06-9.41649E+05-4.43105E+03-2.46729E+06-5.38512E-09-9.69658E-09
 -1        64-6.49623E+06-9.38499E+05-9.72656E+03-2.46755E+06-2.69210E-09-4.42924E-09
 -1        65-6.57974E+06-8.44814E+05-1.40394E+04-2.35498E+06 9.24319E-09-8.23411E-09
 -1        66-6.44407E+06-9.79989E+05-2.79263E+04-2.51900E+06 7.39692E-09-8.10905E-09
 -1        67-6.66764E+06-8.11228E+05-7.02610E+04-2.28606E+06 1.01346E-08-5.45333E-09
 -1        68-6.41229E+06-9.70055E+05-1.16675E+05-2.53915E+06 4.05089E-09-2.11730E-09
 -1        69-6.77118E+06-1.01489E+06-3.38075E+05-2.26039E+06-7.33235E-09-1.58616E-09
 -1        70-6.34131E+06-7.80406E+05-4.98917E+05-2.54319E+06-6.83940E-10-5.55883E-09
 -1        86-1.62991E+03-5.47986E+05 5.20787E+03 5.85138E+03-3.26963E-10-6.43604E-09
 -1        87 7.41310E+03-5.22928E+05 1.73052E+04-1.89544E+04-2.34536E-09 2.95259E-09
 -1        88-5.77276E+03-5.40374E+05 2.32677E+04 1.31022E+04-4.58385E-09-2.47860E-09
 -1        89 4.48960E+04-5.11515E+05 6.39323E+04-2.38374E+04 6.00267E-11-1.49607E-09
 -1        90-3.89377E+04-5.59533E+05 8.77551E+04 1.07363E+04-5.44242E-09 2.89481E-09
 -1       121-1.87104E+02-1.19137E+06 2.55602E+02 3.03992E+02-1.41299E-09 9.01309E-09
 -1       122 1.25258E+01-1.19069E+06 6.52366E+02-1.21316E+03-3.52006E-09 7.86531E-09
 -1       123-2.70315E+02-1.19145E+06 1.00814E+03 9.07629E+02-3.59034E-09-1.63709E-10
 -1       124 1.30114E+03-1.18997E+06 2.71437E+03-2.53511E+03-7.01573E-09 4.19004E-09
 -1       125-1.16095E+03-1.19214E+06 4.05142E+03 1.62553E+03-5.94264E-09 1.11504E-09
 -1       191-2.27218E+01 4.48543E+05 1.44899E+01-4.57871E-01 2.67484E-10-1.00808E-08
 -1       192-2.24204E+01 4.48508E+05 2.67806E+01 2.67347E+00 4.68768E-10 4.04543E-09
 -1       193-2.58303E+01 4.48542E+05 4.92051E+01-2.24500E+00 4.85510E-10-3.62979E-09
 -1       194-2.61878E+01 4.48512E+05 1.01357E+02 5.94670E+00 3.00599E-10-8.61291E-09
 -1       195-3.18012E+01 4.48539E+05 1.97650E+02-3.77159E+00 7.56287E-10-7.99355E-09
 -1       251-1.34211E+06-5.87923E+04-3.05810E+04 7.32407E+04-2.46473E-09 6.53563E-09
 -1       252-5.82870E+05 4.80394E+04 1.10783E+05-2.15620E+05-9.72366E-09-1.47556E-08
 -1       253-1.00102E+06 1.52283E+04 9.10924E+03 1.07796E+05 5.69116E-09 1.30285E-08
 -1       254-3.94675E+05 1.85588E+04 1.21866E+05-1.48163E+05 9.69430E-09-2.13269E-08
 -1       255-1.52315E+06-3.71631E+04-1.10121E+05 5.71048E+03 1.82445E-09-8.02220E-09
 -1       256-2.52449E+05 2.78633E+04 1.46680E+05 8.33401E+04 1.28857E-08 8.98490E-09
 -1       257-1.13846E+06 1.05358E+03-3.17921E+04-1.23038E+05 5.02223E-09-2.83660E-08
 -1       258-6.52533E+05 3.71707E+03 6.26908E+04 2.11605E+05 1.31747E-09 2.69433E-08
 -1       259-1.13640E+06 1.26171E+03-3.13035E+04-1.23197E+05 1.62413E-08-3.19280E-08
 -1       260-2.53976E+05 2.78218E+04 1.46515E+05 8.40495E+04-6.16274E-09 1.92113E-08
 -1       261-1.52373E+06-3.72816E+04-1.09954E+05 5.16003E+03-8.49013E-09-1.63338E-08
 -1       262-3.92700E+05 1.90402E+04 1.22959E+05-1.47520E+05-1.49298E-08-1.13450E-08
 -1       263-1.00236E+06 1.48027E+04 9.99712E+03 1.07705E+05 1.67227E-08 1.68766E-08
 -1       264-5.82769E+05 5.01728E+04 1.13705E+05-2.15918E+05 7.19662E-08-3.03662E-08
 -1       265-1.34090E+06-6.04616E+04-2.57254E+04 7.36308E+04 2.65577E-08 8.37099E-09
 -1       266-5.69500E+04-2.63842E+04 1.31919E+05-1.65708E+02-5.19503E-09-9.56243E-07
 -1       267 6.59691E+04 3.08132E+04 9.34859E+04 1.90593E+02-1.04119E-08-1.90166E-06
 -1       268-8.96026E+03-4.40118E+03 3.46329E+04-2.47164E+01-8.35098E-09-1.54404E-06
 -1       269 1.05775E+04 5.27629E+03 2.26080E+04 2.87397E+01-6.36487E-09-1.16253E-06
 -1       270-1.60924E+03-8.73544E+02 1.08665E+04-3.98848E+00-4.92582E-09-9.09830E-07
 -1       271-6.71255E+06-8.13749E+05-5.42641E+05-2.61869E+06-9.45874E-11-7.97445E-09
 -1       272-6.94221E+06-1.20893E+06-3.53823E+05-2.57686E+06 1.50885E-09 3.34694E-09
 -1       273-6.82244E+06-9.54452E+05-1.27975E+05-2.58478E+06-1.74077E-09-6.51198E-09
 -1       274-6.80949E+06-1.04367E+06-7.27663E+04-2.62742E+06-1.17825E-09-9.50968E-09
 -1       275-6.84302E+06-9.64884E+05-2.97876E+04-2.57342E+06 4.32919E-10-8.67112E-09
 -1       276-6.78323E+06-1.03351E+06-1.60842E+04-2.64514E+06 6.33918E-10 5.89353E-10
 -1       277-6.84909E+06-9.62534E+05-7.91782E+03-2.56814E+06-1.02182E-09-2.74713E-09
 -1       278-6.77717E+06-1.03570E+06-6.10270E+03-2.65110E+06 2.64561E-09 1.05440E-08
 -1       279-6.84943E+06-9.62280E+05-6.89704E+03-2.56780E+06-1.36197E-10 1.17211E-08
 -1       280-6.78176E+06-1.03403E+06-1.32045E+04-2.64656E+06-2.56728E-09-4.26735E-09
 -1       281-6.84422E+06-9.64525E+05-2.40828E+04-2.57242E+06 1.75714E-09-4.29827E-09
 -1       282-6.80420E+06-1.04075E+06-5.85899E+04-2.63053E+06 3.02862E-10-1.13832E-08
 -1       283-6.82654E+06-9.57327E+05-1.03019E+05-2.58286E+06-3.01134E-09-2.72121E-09
 -1       284-6.91360E+06-1.17085E+06-2.84629E+05-2.58644E+06-2.63753E-10 8.81118E-09
 -1       285-6.73648E+06-8.45956E+05-4.36806E+05-2.61212E+06-2.67028E-09 1.36206E-08
 -1       301 4.54916E+04-2.55134E+04 1.66163E+05-2.65310E+04-2.57569E-09 2.76665E-09
 -1       302 2.05394E+04 1.10864E+04 1.12099E+05-3.46387E+04 2.88082E-09 1.39198E-08
 -1       303 2.90409E+03-1.23840E+04 9.98932E+04-2.68017E+04-2.42471E-09 2.45109E-09
 -1       304 3.51059E+04 2.37199E+04 1.61428E+05-3.45531E+04 3.26872E-09 4.22551E-09
 -1       305 8.10401E+04-3.80343E+04 2.80957E+05-2.63772E+04-1.74623E-09 1.59284E-08
 -1       306-4.02325E+06-4.97877E+05-2.67798E+05-1.56219E+06 3.08137E-09-6.97037E-09
 -1       307-4.10436E+06-7.35231E+05-1.76014E+05-1.57509E+06 1.62333E-09 1.57888E-08
 -1       308-4.08210E+06-5.67292E+05-6.32994E+04-1.53969E+06 1.06274E-09 4.07454E-10
 -1       309-4.03305E+06-6.56093E+05-3.63351E+04-1.60887E+06-7.09406E-10 2.52567E-09
 -1       310-4.09480E+06-5.70958E+05-1.48377E+04-1.53122E+06-1.21236E-09 5.02587E-09
 -1       311-4.01764E+06-6.52828E+05-8.18156E+03-1.62167E+06 6.84167E-10 3.25122E-09
 -1       312-4.09840E+06-5.69266E+05-4.21987E+03-1.52784E+06 8.84938E-10 8.40055E-09
 -1       313-4.01512E+06-6.53433E+05-3.74686E+03-1.62428E+06 2.76879E-09 1.00181E-08
 -1       314-4.09756E+06-5.70128E+05-4.82847E+03-1.52882E+06-3.35194E-09 6.50653E-09
 -1       315-4.02069E+06-6.50018E+05-9.78268E+03-1.61757E+06-4.27599E-09-1.52068E-09
 -1       316-4.09218E+06-5.73187E+05-1.81174E+04-1.53404E+06 1.13141E-09 5.43332E-09
 -1       317-4.04051E+06-6.53117E+05-4.43471E+04-1.60095E+06 1.97724E-09-9.82254E-11
 -1       318-4.07668E+06-5.68583E+05-7.73679E+04-1.54429E+06 1.64505E-09-2.99406E-09
 -1       319-4.12708E+06-7.50912E+05-2.15150E+05-1.56133E+06-7.26573E-09 6.28643E-09
 -1       320-4.00569E+06-4.82513E+05-3.27143E+05-1.57051E+06 1.40790E-09 1.39698E-09
 -1       336 1.18670E+03-1.29864E+06-7.97930E+03 2.52883E+03-1.29701E-08 6.57019E-09
 -1       337-3.15129E+03-1.30097E+06-9.36413E+03-6.08736E+03-9.41975E-09 2.11003E-09
 -1       338 1.02657E+03-1.29870E+06-1.22531E+04 3.55000E+03-1.68293E-08-1.12777E-09
 -1       339-1.37583E+04-1.30734E+06-2.76573E+04-8.07359E+03-1.22195E-08 3.83079E-09
 -1       340 1.00938E+04-1.29246E+06-4.21995E+04 4.50103E+03-2.00325E-08 1.37070E-08
 -1       406 1.46191E+01 4.48520E+05 8.09276E+02-2.39677E+00 9.47580E-10-1.06320E-09
 -1       407 2.66325E+02 4.48676E+05 1.72125E+03-1.03751E+01 1.94802E-10-9.13360E-09
 -1       408 8.69519E+02 4.48396E+05 3.43677E+03 1.33168E+01 1.13914E-09-7.86713E-10
 -1       409 3.70183E+03 4.49773E+05 7.73796E+03-1.47448E+02 1.95087E-10 4.48426E-09
 -1       410 1.06648E+04 4.47416E+05 1.57960E+04 1.45390E+02 1.31149E-09 3.90628E-09
 -1       521-7.67000E+06-9.39990E+05-5.28370E+05-2.97838E+06 3.20142E-10-7.10133E-09
 -1       522-7.89414E+06-1.35135E+06-3.48329E+05-2.93639E+06 2.92130E-09-4.82396E-09
 -1       523-7.78589E+06-1.07878E+06-1.24533E+05-2.93435E+06-5.78439E-10-5.31145E-10
 -1       524-7.75151E+06-1.19395E+06-7.17944E+04-3.00155E+06 1.56251E-09 8.85393E-09
 -1       525-7.81112E+06-1.08631E+06-2.90199E+04-2.91748E+06-3.95539E-09 1.70985E-09
 -1       526-7.72057E+06-1.18682E+06-1.59794E+04-3.02539E+06-1.33241E-09-3.13526E-09
 -1       527-7.81754E+06-1.08391E+06-7.95093E+03-2.91169E+06-4.07675E-09-5.51711E-09
 -1       528-7.71781E+06-1.18514E+06-6.60582E+03-3.02693E+06-7.24867E-10-1.06859E-08
 -1       529-7.81388E+06-1.08782E+06-8.04133E+03-2.91601E+06-6.60111E-09-7.73434E-09
 -1       530-7.73337E+06-1.17291E+06-1.58247E+04-3.00844E+06-3.07500E-09-8.36735E-11
 -1       531-7.80094E+06-1.09699E+06-2.91427E+04-2.92936E+06-1.19144E-09-8.11269E-10
 -1       532-7.77497E+06-1.16919E+06-7.14362E+04-2.97237E+06 1.87356E-09-2.36469E-10
 -1       533-7.77152E+06-1.09357E+06-1.24225E+05-2.95084E+06 9.12223E-10-8.08359E-09
 -1       534-7.92334E+06-1.32086E+06-3.47104E+05-2.90270E+06-3.01588E-09 3.01952E-10
 -1       535-7.65502E+06-9.55746E+05-5.26422E+05-2.99544E+06 3.62343E-09-4.71482E-09
 -1       536-3.82654E+04-2.61592E+04 7.30396E+04-1.84964E+02 1.82263E-09-3.46336E-09
 -1       537-5.29476E+03 2.99140E+04 5.00808E+04-5.69053E+04-8.12361E-09 5.74710E-09
 -1       538-2.62437E+04-3.65676E+03 1.88383E+04-9.27812E+01-4.65661E-10 4.53929E-09
 -1       539-2.00767E+04 3.65069E+03 1.14576E+04-5.70608E+04 3.16186E-09 5.46834E-10
 -1       540-2.44365E+04-5.93609E+02 4.71019E+03-3.00560E+01 7.35781E-10-5.44833E-09
 -1       541-2.29289E+04 4.47134E+02 2.71917E+03-5.71591E+04-1.98270E-09 4.00883E-09
 -1       542-2.40932E+04-1.15350E+02 1.11266E+03 2.34242E+00 4.99313E-10-5.37625E-10
 -1       543-2.38289E+04 1.62669E+02 5.51073E+02-5.72107E+04-4.32919E-10-5.41661E-09
 -1       544-2.39924E+04-2.29689E+00 6.61082E+01 2.11373E+01 4.49290E-10 9.26087E-09
 -1       545-2.42071E+04 1.00538E+02-3.47593E+02-5.72344E+04 9.06141E-10 8.54476E-09
 -1       546-2.39241E+04 9.09959E+01-8.49097E+02 2.64034E+01 1.77181E-10-5.07021E-09
 -1       547-2.45316E+04-5.81906E+02-2.11983E+03-5.72252E+04-2.06830E-09-8.95045E-09
 -1       548-2.36294E+04 6.23107E+02-3.66291E+03 1.17429E+01-2.62571E-09-4.28577E-09
 -1       549-2.67320E+04-5.75432E+03-9.50343E+03-5.71385E+04-1.91721E-09 3.43562E-09
 -1       550-2.14378E+04 4.80251E+03-1.41867E+04-6.05278E+01-6.29370E-10-4.98039E-09
 -1       551 2.13077E+04-5.80314E+05 3.55691E+04-9.39156E+05-1.72113E-08-1.07320E-08
 -1       552 2.73324E+04-5.81659E+05 3.96332E+04-1.20930E+06-1.81535E-08 9.24410E-09
 -1       553 2.02077E+04-5.87036E+05 5.78356E+04-9.36906E+05-2.15659E-08 4.07817E-09
 -1       554 5.19971E+04-5.63834E+05 1.18908E+05-1.20961E+06-1.75787E-08-2.92312E-09
 -1       555 8.06837E+04-6.03997E+05 2.20216E+05-9.38164E+05-1.92740E-08-1.13941E-08
 -1       556-4.16121E+04-1.86403E+05 5.50183E+04-2.66895E+05-2.98314E-09 3.55067E-09
 -1       557 2.19207E+04-2.40164E+05 2.87655E+04-3.18067E+05-1.60071E-09-2.24054E-09
 -1       558-4.28514E+04-1.94609E+05 1.15364E+04-2.60549E+05 1.97906E-09 2.14641E-09
 -1       559 1.23322E+04-2.47353E+05 5.88662E+03-3.22592E+05-3.55067E-09-6.12727E-09
 -1       560-4.54155E+04-1.92998E+05 2.37265E+03-2.62142E+05-1.07684E-09-7.05950E-09
 -1       561 8.71893E+03-2.46329E+05 1.27906E+03-3.24959E+05 3.14321E-09 1.28102E-09
 -1       562-4.74120E+04-1.91693E+05 4.42081E+02-2.63543E+05-1.89175E-09-1.03093E-08
 -1       563 6.49339E+03-2.45375E+05 2.54345E+02-3.26424E+05-2.35013E-09 4.36557E-10
 -1       564-4.86298E+04-1.90915E+05-2.02674E+01-2.64389E+05-1.99361E-09 1.07157E-08
 -1       565 5.35821E+03-2.44895E+05-2.07235E+02-3.27156E+05-1.51704E-09 4.96948E-09
 -1       566-4.90233E+04-1.90640E+05-6.13816E+02-2.64675E+05 4.94765E-10 6.27188E-09
 -1       567 5.18834E+03-2.44908E+05-1.43186E+03-3.27134E+05-3.84171E-09-3.44880E-09
 -1       568-4.84972E+04-1.90986E+05-3.06263E+03-2.64391E+05-1.69166E-10-5.18412E-09
 -1       569 3.89742E+03-2.46402E+05-7.21406E+03-3.25569E+05-3.63798E-09-1.80808E-09
 -1       570-4.57398E+04-1.95254E+05-1.42734E+04-2.62705E+05 2.90311E-09 7.56154E-09
 -1       571 3.06048E+05 1.25929E+04 1.86923E+04-7.50224E+04 3.91083E-10 4.48472E-09
 -1       572 3.08826E+05 4.36979E+03 9.15879E+03-8.22351E+04-8.10815E-10 5.84168E-09
 -1       573 3.07146E+05 1.03320E+03 4.06865E+03-7.48228E+04 9.92259E-10 4.01633E-09
 -1       574 3.07473E+05 3.31999E+02 2.03872E+03-8.24534E+04-8.48559E-10-1.45519E-10
 -1       575 3.07258E+05 4.15154E+01 9.60288E+02-7.47971E+04 6.28006E-10-3.98722E-09
 -1       576 3.07283E+05 9.48419E+00 4.87854E+02-8.24824E+04-2.50566E-10-1.14214E-08
 -1       577 3.07275E+05-1.05999E+01 2.37880E+02-7.47937E+04 5.33419E-10 7.13953E-10
 -1       578 3.07268E+05-8.47786E+00 1.24957E+02-8.24861E+04-1.18780E-09 6.96127E-09
 -1       579 3.07303E+05-1.83042E+01 6.69986E+01-7.47934E+04-1.33969E-09-3.71801E-09
 -1       580 3.07307E+05-2.72186E+01 4.75320E+01-8.24822E+04-2.46018E-10 6.38465E-10
 -1       581 3.07357E+05-4.44907E+01 4.62723E+01-7.47975E+04 1.32241E-09 6.71753E-09
 -1       582 3.07387E+05-5.49562E+01 7.67991E+01-8.24388E+04 3.09592E-09-2.51748E-09
 -1       583 3.07434E+05-5.73068E+01 1.35763E+02-7.48368E+04 1.21618E-08-3.43198E-09
 -1       584 3.07536E+05 2.93814E+01 3.03950E+02-8.21062E+04 1.80826E-08-1.05811E-08
 -1       585 3.07495E+05 2.81534E+02 6.08215E+02-7.51304E+04 1.04719E-08-1.74259E-09
 -1       586-2.15055E+01 1.28881E+05 4.75644E+02-2.29477E+05 8.59472E-11-1.24146E-09
 -1       587 5.41576E+02 1.28955E+05 2.25067E+03-2.56035E+05-2.19370E-09-8.79936E-11
 -1       588 1.27764E+03 1.28577E+05 5.03256E+03-2.29249E+05-1.45519E-11-2.35787E-09
 -1       589 5.20011E+03 1.30811E+05 1.15886E+04-2.55947E+05-1.90448E-09 6.18911E-09
 -1       590 1.48817E+04 1.27202E+05 2.36018E+04-2.29564E+05 8.68567E-11 1.98270E-10
 -1       591-1.32005E+05-3.73058E+04-2.83293E+04-6.33612E+04-4.91991E-09-9.40599E-09
 -1       592-1.34168E+05-3.85456E+04-1.45797E+04-7.08610E+04-6.42785E-09-9.75592E-09
 -1       593-1.33927E+05-3.13389E+04-6.16988E+03-6.66884E+04 1.92813E-10-2.69597E-09
 -1       594-1.30737E+05-3.50161E+04-3.04184E+03-7.10323E+04 2.01362E-09 3.70505E-10
 -1       595-1.34102E+05-3.12125E+04-1.40444E+03-6.68114E+04-1.09503E-09 3.23388E-09
 -1       596-1.30514E+05-3.48896E+04-7.10668E+02-7.09989E+04-1.08889E-09 4.04839E-10
 -1       597-1.34128E+05-3.12350E+04-3.83949E+02-6.68124E+04-3.70700E-09-1.16358E-08
 -1       598-1.30490E+05-3.48890E+04-3.01609E+02-7.09889E+04-4.60039E-09-7.89146E-09
 -1       599-1.34125E+05-3.12371E+04-3.76680E+02-6.68108E+04-5.59248E-09-4.73437E-09
 -1       600-1.30507E+05-3.48922E+04-6.91363E+02-7.09926E+04-8.02902E-09 6.38124E-10
 -1       601-1.34092E+05-3.12190E+04-1.36255E+03-6.68064E+04-4.98721E-09 8.22774E-09
 -1       602-1.30720E+05-3.50147E+04-2.94902E+03-7.10163E+04 1.07730E-09-2.09138E-09
 -1       603-1.33916E+05-3.13484E+04-5.98066E+03-6.66868E+04 3.72438E-09 1.16779E-08
 -1       604-1.34069E+05-3.84053E+04-1.41292E+04-7.08086E+04-1.08048E-09 2.81761E-09
 -1       605-1.32018E+05-3.71589E+04-2.74537E+04-6.34904E+04 2.41698E-09-6.54836E-11
 -1       606 8.97620E+04-1.29183E+04-2.25626E+04 3.65688E+04-5.16411E-09-4.68481E-09
 -1       607 8.59558E+04-4.18665E+03-1.12034E+04 4.08265E+04-7.95808E-10 5.11864E-09
 -1       608 8.81103E+04-7.38913E+02-5.01348E+03 3.62862E+04 3.87990E-09 1.69348E-09
 -1       609 8.76565E+04-1.77821E+02-2.52843E+03 4.11351E+04-4.05544E-09-9.38599E-10
 -1       610 8.78900E+04 4.78962E+01-1.20669E+03 3.62541E+04-7.20502E-09-4.91673E-09
 -1       611 8.77926E+04 7.90969E+01-6.07812E+02 4.11689E+04-1.19389E-08-8.37326E-09
 -1       612 8.78218E+04 8.21706E+01-2.90865E+02 3.62512E+04-5.24415E-09-1.05902E-08
 -1       613 8.77761E+04 9.92182E+01-1.31502E+02 4.11724E+04-8.66567E-09-6.86214E-10
 -1       614 8.77813E+04 8.97924E+01-3.52950E+01 3.62504E+04-2.81580E-09-1.41881E-09
 -1       615 8.77504E+04 1.12246E+02 4.56668E+01 4.11724E+04 6.59884E-09-1.44760E-08
 -1       616 8.77506E+04 1.02837E+02 1.45381E+02 3.62510E+04-5.25506E-09 9.13587E-10
 -1       617 8.77531E+04 1.55170E+02 3.36246E+02 4.11710E+04-2.23258E-09 9.58153E-09
 -1       618 8.77100E+04 2.15589E+02 6.79549E+02 3.62514E+04-3.41561E-09 1.34423E-09
 -1       619 8.79802E+04 7.06241E+02 1.52840E+03 4.11671E+04 1.34219E-09-4.15639E-09
 -1       620 8.74830E+04 1.88178E+03 3.08045E+03 3.62509E+04-2.33740E-10-3.38059E-09
 -1       621 8.18014E+02 3.28513E+05 3.67126E+03-1.79609E+04-2.90754E-09 5.68275E-09
 -1       622 4.43837E+02 3.29294E+05 3.79962E+03-2.31139E+04 4.77485E-11 4.71346E-09
 -1       623 1.64208E+02 3.28639E+05 5.45662E+03-1.79539E+04-2.69574E-09-4.07181E-09
 -1       624 2.61074E+03 3.31178E+05 1.11420E+04-2.30587E+04 2.10093E-10 1.17507E-08
 -1       625 6.09755E+03 3.26641E+05 2.07347E+04-1.80128E+04-2.58115E-09 4.40059E-09
 -1       626 2.42398E+05 7.28318E+04 1.29023E+03 1.41438E+05-2.25191E-09-1.68620E-09
 -1       627 2.37937E+05 7.70095E+04 6.22199E+02 1.46872E+05-1.65892E-09 5.13683E-09
 -1       628 2.42535E+05 7.20610E+04 2.60757E+02 1.41431E+05 8.38554E-09 5.71799E-09
 -1       629 2.37524E+05 7.70494E+04 1.33449E+02 1.47116E+05 6.00267E-09 3.42993E-10
 -1       630 2.42509E+05 7.20383E+04 6.65112E+01 1.41391E+05 5.48062E-09 3.57886E-10
 -1       631 2.37439E+05 7.70783E+04 5.01845E+01 1.47106E+05 1.39653E-09-3.16061E-09
 -1       632 2.42473E+05 7.20549E+04 5.85398E+01 1.41366E+05-3.10865E-09-4.85670E-10
 -1       633 2.37408E+05 7.70916E+04 1.04472E+02 1.47088E+05 7.50924E-09 5.96560E-09
 -1       634 2.42446E+05 7.20572E+04 2.03115E+02 1.41354E+05 1.54705E-09-2.97337E-09
 -1       635 2.37415E+05 7.70963E+04 4.33439E+02 1.47085E+05-8.18545E-09 1.80080E-09
 -1       636 2.42422E+05 7.20579E+04 8.85808E+02 1.41346E+05-4.08568E-09 6.78256E-09
 -1       637 2.37601E+05 7.72525E+04 1.95526E+03 1.47076E+05-6.39966E-09-7.10133E-09
 -1       638 2.42356E+05 7.25341E+04 4.02478E+03 1.41128E+05-2.02499E-09-2.17096E-09
 -1       639 2.39688E+05 8.03151E+04 9.53130E+03 1.46428E+05 2.50270E-09 1.15197E-08
 -1       640 2.42171E+05 8.15849E+04 1.98434E+04 1.37280E+05-6.82121E-12 7.85803E-10
 -1       656 2.39278E+04-6.81860E+05-7.11782E+04 9.19506E+02-9.64064E-10-9.08176E-09
 -1       657-3.20458E+04-7.11213E+05-5.62474E+04 5.04835E+04-6.41558E-09-1.16656E-08
 -1       658 6.41097E+03-6.91024E+05-3.58719E+04 5.86197E+02-1.86719E-09 4.36432E-09
 -1       659-3.38763E+04-7.12227E+05-5.89620E+04 5.07120E+04-8.20364E-09-8.07682E-09
 -1       660 2.57027E+04-6.80900E+05-7.60040E+04 6.91600E+02-1.56069E-09-1.70508E-09
 -1       661 2.96118E+05 3.75331E+04 2.47841E+04 1.15570E+05 4.66662E-09-1.89266E-09
 -1       662 3.02953E+05 5.55963E+04 1.56412E+04 1.17768E+05-5.61977E-09-1.46429E-09
 -1       663 3.00389E+05 4.31852E+04 5.85368E+03 1.14962E+05-9.29333E-10 2.61139E-09
 -1       664 2.98038E+05 4.82609E+04 3.22433E+03 1.18833E+05-6.04376E-09 5.14248E-09
 -1       665 3.00880E+05 4.37914E+04 1.37497E+03 1.14911E+05-1.50636E-08-7.48025E-09
 -1       666 2.97471E+05 4.74987E+04 7.50678E+02 1.18929E+05-1.24085E-08-7.22940E-09
 -1       667 3.00945E+05 4.38508E+04 4.26034E+02 1.14903E+05 3.58745E-09 6.29029E-10
 -1       668 2.97405E+05 4.74477E+04 4.13530E+02 1.18954E+05-1.46383E-09-3.11269E-09
 -1       669 3.00949E+05 4.38337E+04 5.91608E+02 1.14891E+05 7.65760E-09 6.65409E-10
 -1       670 2.97494E+05 4.76015E+04 1.21108E+03 1.18979E+05 1.44456E-08-3.26776E-09
 -1       671 3.00863E+05 4.37040E+04 2.30457E+03 1.14878E+05 1.00670E-09-5.94059E-09
 -1       672 2.98424E+05 4.89417E+04 5.46402E+03 1.18873E+05 5.12364E-09 6.24027E-10
 -1       673 3.00049E+05 4.26509E+04 9.93527E+03 1.14941E+05 6.13360E-09-4.92491E-09
 -1       674 3.06752E+05 6.14349E+04 2.65710E+04 1.17104E+05-8.11781E-10-9.48239E-09
 -1       675 2.92803E+05 3.30366E+04 4.21020E+04 1.15964E+05-3.23053E-09-4.23461E-09
 -1       676 4.83874E+01-3.90562E+05-1.87031E+03 1.50188E+02 9.79810E-09 1.10435E-08
 -1       677-5.75281E+02-3.91060E+05-3.45000E+03-2.99977E+02 5.03701E-09-1.39281E-10
 -1       678 4.09196E+02-3.90217E+05-6.03977E+03 1.49683E+02 1.05922E-08 2.19650E-09
 -1       679-6.48933E+03-3.94786E+05-1.45014E+04-2.98822E+02 2.56205E-09 8.26184E-10
 -1       680 4.29048E+03-3.86838E+05-2.30587E+04 1.47476E+02 3.97449E-09-1.60428E-09
 -1       771-2.97779E+06-5.70525E+05-7.68937E+04-1.28032E+06 1.60799E-09 3.71074E-09
 -1       772-2.96003E+06-5.94546E+05-3.92577E+04-1.32463E+06-5.46424E-09-3.88900E-09
 -1       773-2.98612E+06-5.52128E+05-1.71670E+04-1.28878E+06-6.78119E-09 2.61571E-09
 -1       774-2.95140E+06-5.86306E+05-8.30838E+03-1.32921E+06-7.76345E-09 4.45107E-09
 -1       775-2.98885E+06-5.50160E+05-4.18957E+03-1.28979E+06-1.00990E-08-4.80213E-09
 -1       776-2.95218E+06-5.85879E+05-1.99705E+03-1.33160E+06-1.22636E-08-3.78350E-10
 -1       777-2.99081E+06-5.48930E+05-1.25970E+03-1.29045E+06-5.18776E-09 4.22006E-09
 -1       778-2.95331E+06-5.85691E+05-7.74017E+02-1.33349E+06-2.32831E-10-1.60071E-09
 -1       779-2.99228E+06-5.47936E+05-9.72447E+02-1.29097E+06 3.52156E-09 2.88583E-09
 -1       780-2.95427E+06-5.85555E+05-1.49387E+03-1.33491E+06 3.25599E-09-6.27563E-09
 -1       781-2.99322E+06-5.47195E+05-2.94090E+03-1.29132E+06 2.31012E-09 6.72480E-09
 -1       782-2.95531E+06-5.85721E+05-6.26444E+03-1.33583E+06-6.03177E-09-3.44153E-09
 -1       783-2.99338E+06-5.47108E+05-1.27347E+04-1.29126E+06-1.70803E-09-3.37241E-09
 -1       784-2.96271E+06-5.92922E+05-3.01339E+04-1.33571E+06-8.40373E-09-3.65253E-09
 -1       785-2.98938E+06-5.59488E+05-5.86153E+04-1.28454E+06 5.37511E-09 1.28603E-08
 -1       786 2.52017E+05-1.09830E+04 3.15224E+04 3.06255E+01 9.97829E-10 9.19499E-09
 -1       787 2.64671E+05 1.30806E+04 2.13683E+04-3.44962E+03-5.53626E-10-2.69324E-09
 -1       788 2.57088E+05-1.44156E+03 8.19126E+03 1.47475E+01 3.37536E-10-1.13232E-09
 -1       789 2.58883E+05 1.70484E+03 4.85627E+03-3.42514E+03 2.63697E-10-9.08028E-09
 -1       790 2.57805E+05-1.89228E+02 2.09294E+03 6.25480E+00-3.87388E-10-3.33728E-09
 -1       791 2.58061E+05 2.21845E+02 1.17015E+03-3.41735E+03 4.68781E-11-1.77792E-10
 -1       792 2.57911E+05-2.60112E+01 5.72623E+02 6.96805E+00 5.95925E-10 2.95501E-09
 -1       793 2.57945E+05 3.85343E+01 3.81771E+02-3.42827E+03 8.15703E-11 6.02454E-09
 -1       794 2.57921E+05-1.28433E+01 3.30005E+02 1.71653E+01-3.56494E-10 3.17971E-09
 -1       795 2.57974E+05 8.67735E+01 5.04529E+02-3.45827E+03-2.75534E-10 7.70058E-10
 -1       796 2.57883E+05-7.30305E+01 8.26177E+02 3.69734E+01 3.31625E-10-3.68107E-09
 -1       797 2.58288E+05 6.49283E+02 1.86807E+03-3.50651E+03-2.08104E-09-6.23965E-09
 -1       798 2.57610E+05-5.51106E+02 3.13227E+03 6.54046E+01 2.77510E-10 2.81716E-10
 -1       799 2.60500E+05 4.98980E+03 8.15939E+03-3.56959E+03-1.67813E-09 9.23148E-09
 -1       800 2.55673E+05-4.19350E+03 1.20297E+04 9.99347E+01 2.82512E-10 5.92627E-09
 -1       801-3.23217E+04 2.59837E+05 3.11907E+04-4.43259E+03-1.24664E-08-1.19544E-08
 -1       802 8.45453E+04 2.93030E+05 7.20321E+04-1.71812E+06-3.12175E-08-7.03767E-09
 -1       803-9.75682E+03 2.78534E+05 8.45681E+04-6.23910E+03-1.50249E-08 1.98072E-08
 -1       804 1.74416E+05 3.49684E+05 2.07953E+05-1.71839E+06-3.34257E-08 2.69374E-08
 -1       805-1.22518E+05 2.10488E+05 2.70804E+05-4.28795E+03-3.60887E-09 1.27184E-08
 -1       806-2.61692E+05-6.83279E+04-2.25714E+04-1.21129E+05 2.34036E-09-2.55477E-09
 -1       807-2.61676E+05-6.40787E+04-1.08394E+04-1.28371E+05-5.57520E-10-1.70604E-08
 -1       808-2.61866E+05-5.80859E+04-4.57726E+03-1.25596E+05 1.79375E-09-1.74794E-10
 -1       809-2.59407E+05-6.05055E+04-2.22328E+03-1.29031E+05-6.45173E-11-3.78668E-09
 -1       810-2.61943E+05-5.75446E+04-1.00997E+03-1.25858E+05-9.67702E-10 7.21911E-10
 -1       811-2.59205E+05-6.03194E+04-5.00114E+02-1.29032E+05-1.23453E-09 5.12046E-09
 -1       812-2.61958E+05-5.75508E+04-2.48606E+02-1.25862E+05-1.41608E-09 3.13867E-09
 -1       813-2.59175E+05-6.03222E+04-1.56457E+02-1.29017E+05 3.12957E-09 5.09363E-09
 -1       814-2.61951E+05-5.75620E+04-1.46247E+02-1.25854E+05 2.22826E-11-2.15459E-09
 -1       815-2.59172E+05-6.03297E+04-2.28856E+02-1.29007E+05 7.74435E-10 3.52907E-09
 -1       816-2.61926E+05-5.75720E+04-4.29273E+02-1.25843E+05-1.30331E-09-1.28648E-09
 -1       817-2.59249E+05-6.04016E+04-9.27119E+02-1.28976E+05-5.05679E-10-3.55521E-09
 -1       818-2.61865E+05-5.78205E+04-1.90255E+03-1.25737E+05-1.55796E-09 2.93949E-09
 -1       819-2.60287E+05-6.17708E+04-4.49680E+03-1.28549E+05-9.69067E-10 2.53203E-09
 -1       820-2.61663E+05-6.21777E+04-9.36352E+03-1.23994E+05 8.75843E-10-1.58434E-09
 -1       821-3.47368E+05 1.49883E+04-4.30148E+04-2.26435E+02-3.20824E-09 5.94810E-10
 -1       822-3.64610E+05-1.78503E+04-2.91603E+04 5.52852E+03-1.37783E-09 8.80709E-09
 -1       823-3.54284E+05 1.96438E+03-1.11841E+04-3.35248E+02 2.93448E-09 8.62428E-09
 -1       824-3.56726E+05-2.31739E+03-6.63684E+03 5.71493E+03-6.14818E-10 1.94086E-09
 -1       825-3.55259E+05 2.56505E+02-2.88242E+03-4.13231E+02-5.86488E-09 1.06468E-09
 -1       826-3.55617E+05-2.91838E+02-1.65016E+03 5.84686E+03-1.16202E-08-6.90920E-09
 -1       827-3.55399E+05 3.69267E+01-8.88181E+02-4.67291E+02-5.57469E-09-2.48937E-09
 -1       828-3.55482E+05-5.98440E+01-7.46361E+02 5.93120E+03-9.48756E-09-1.16762E-09
 -1       829-3.55399E+05 3.69491E+01-8.78391E+02-4.97603E+02 1.13633E-09 1.31722E-09
 -1       830-3.55624E+05-2.83455E+02-1.62548E+03 5.96690E+03 3.69869E-09 8.13066E-09
 -1       831-3.55260E+05 2.53624E+02-2.83239E+03-5.02990E+02-4.15515E-09-6.40568E-09
 -1       832-3.56723E+05-2.27075E+03-6.52387E+03 5.95366E+03-2.12997E-09-9.81311E-09
 -1       833-3.54301E+05 1.93285E+03-1.09876E+04-4.84226E+02 5.20572E-10-4.54565E-09
 -1       834-3.64479E+05-1.75317E+04-2.86559E+04 5.89299E+03-2.09769E-09-1.14146E-08
 -1       835-3.47503E+05 1.47318E+04-4.22635E+04-4.41427E+02 3.09251E-09-8.42738E-09
 -1       836-9.87511E+02 4.17394E+05 3.11528E+04-3.22242E+04-3.92902E-10 8.66476E-09
 -1       837 6.28486E+03 4.26715E+05 2.42818E+04-6.04727E+04-1.50158E-09 4.60614E-09
 -1       838-3.62779E+02 4.20422E+05 2.23952E+04-3.21318E+04-6.45741E-10 5.01905E-09
 -1       839 1.23654E+04 4.31440E+05 3.95799E+04-6.04907E+04-1.75714E-09-3.86996E-09
 -1       840-2.08366E+03 4.12630E+05 6.27653E+04-3.22026E+04-8.40373E-10-2.60661E-09
 -1       856-2.43468E+05 7.69615E+03-3.34393E+04 4.37693E+03-5.37693E-09 9.93350E-09
 -1       857-2.55513E+05-1.04440E+04-2.14046E+04 1.80586E+04-6.50107E-09-1.55433E-09
 -1       858-2.48516E+05 7.97656E+02-8.66523E+03 4.29413E+03-6.13318E-09-2.10548E-10
 -1       859-2.49938E+05-9.72048E+02-4.83059E+03 1.81674E+04-7.93193E-10-1.43526E-08
 -1       860-2.49092E+05 9.94395E+01-2.19626E+03 4.26599E+03 1.30285E-09-3.93311E-09
 -1       861-2.49314E+05-3.11344E+01-1.16975E+03 1.82054E+04-3.50292E-09 1.06479E-09
 -1       862-2.49167E+05 2.80547E+01-5.85924E+02 4.25573E+03 1.03431E-08-6.45866E-09
 -1       863-2.49236E+05 5.90355E+01-3.63182E+02 1.82123E+04 2.11625E-08 4.50649E-09
 -1       864-2.49175E+05 2.08210E+01-2.97534E+02 4.25907E+03 1.04974E-08-3.89073E-09
 -1       865-2.49235E+05 3.56720E+01-4.08582E+02 1.81907E+04 1.04546E-08-5.34789E-09
 -1       866-2.49151E+05 3.63068E+01-6.82583E+02 4.27735E+03-2.55568E-10-1.48903E-09
 -1       867-2.49395E+05-2.51129E+02-1.44371E+03 1.81384E+04-4.39866E-09 7.08362E-09
 -1       868-2.48976E+05 2.34958E+02-2.57672E+03 4.31164E+03 2.57342E-09 1.47588E-09
 -1       869-2.51009E+05-3.06554E+03-6.33504E+03 1.80061E+04-5.80553E-09-6.61146E-09
 -1       870-2.47477E+05 2.26392E+03-9.90775E+03 4.41023E+03 4.85261E-09-2.64299E-09
 -1       871-5.06913E+03-3.53223E+04-1.44105E+04 1.39407E+05-7.27960E-09 2.44654E-09
 -1       872-2.12765E+03-3.84828E+04-5.39085E+03 1.77899E+05-5.62250E-09-5.00449E-09
 -1       873-1.42333E+02-3.71599E+04 1.89966E+03 1.39105E+05-6.94763E-09 7.14863E-10
 -1       874 2.66241E+03-3.44937E+04 1.05942E+04 1.77974E+05-3.88354E-09 4.31555E-10
 -1       875 7.00001E+03-3.94702E+04 2.28687E+04 1.39351E+05-8.02356E-09 1.31513E-09
 -1       876 3.77694E+05 5.88197E+04 2.94552E+04 1.50548E+05 4.08704E-10-8.43102E-09
 -1       877 3.82320E+05 7.03486E+04 1.67561E+04 1.56417E+05 3.90855E-09-1.45510E-08
 -1       878 3.81443E+05 5.99373E+04 6.79826E+03 1.51612E+05-3.81533E-10-8.66066E-09
 -1       879 3.77670E+05 6.49463E+04 3.46009E+03 1.56824E+05-3.67618E-09-4.12854E-09
 -1       880 3.81732E+05 6.00799E+04 1.57308E+03 1.51688E+05 6.13909E-11 3.24530E-09
 -1       881 3.77313E+05 6.46088E+04 8.19730E+02 1.56793E+05-4.33261E-10 7.45337E-09
 -1       882 3.81757E+05 6.01092E+04 4.73770E+02 1.51697E+05 2.39061E-09-1.44283E-10
 -1       883 3.77286E+05 6.45844E+04 4.35900E+02 1.56776E+05 3.95573E-10 3.20864E-09
 -1       884 3.81749E+05 6.01104E+04 6.23541E+02 1.51698E+05 1.24578E-09-1.82069E-09
 -1       885 3.77343E+05 6.46135E+04 1.21729E+03 1.56785E+05 3.18886E-09-1.90823E-09
 -1       886 3.81696E+05 6.00755E+04 2.41628E+03 1.51689E+05-1.76385E-10-8.42147E-09
 -1       887 3.77903E+05 6.51278E+04 5.35514E+03 1.56811E+05 5.69059E-10-7.35236E-09
 -1       888 3.81233E+05 5.98643E+04 1.05412E+04 1.51573E+05-2.48858E-09-1.05410E-09
 -1       889 3.85074E+05 7.35430E+04 2.59880E+04 1.56206E+05 7.66666E-09 4.64797E-09
 -1       890 3.75449E+05 5.80986E+04 4.56914E+04 1.49873E+05 1.38198E-08 3.69073E-09
 -1       891 3.57910E+02-2.07381E+05-6.98689E+03 3.65600E+04 5.73709E-09 1.18143E-09
 -1       892-1.62374E+03-2.09476E+05-5.48587E+03 7.36615E+04 2.24850E-09 6.56337E-09
 -1       893 5.80531E+01-2.08068E+05-5.00492E+03 3.65047E+04 2.72212E-09 1.54068E-09
 -1       894-3.08996E+03-2.10450E+05-8.88631E+03 7.35428E+04 5.83896E-10-3.67754E-09
 -1       895 7.45448E+02-2.06229E+05-1.39405E+04 3.66764E+04 4.49290E-10 4.50837E-09
 -1       956-3.77707E+05-6.60871E+03-1.58078E+04 3.85759E+04-1.04556E-08-3.87217E-09
 -1       957-3.80780E+05-2.15486E+03-8.07430E+03 4.60043E+04-1.07830E-08 3.46563E-09
 -1       958-3.79110E+05-1.70798E+02-3.63814E+03 3.83343E+04-2.18643E-09 2.18870E-09
 -1       959-3.79384E+05 1.26319E+01-1.85415E+03 4.62666E+04-6.56291E-09 3.18528E-09
 -1       960-3.79264E+05 9.55110E+01-9.01639E+02 3.83094E+04-8.16362E-09-1.92813E-09
 -1       961-3.79305E+05 1.12706E+02-4.72262E+02 4.62950E+04-9.88803E-09 6.07952E-09
 -1       962-3.79309E+05 1.01846E+02-2.60544E+02 3.83052E+04-4.38695E-09 1.58298E-09
 -1       963-3.79316E+05 1.23430E+02-1.91129E+02 4.63006E+04-7.17773E-09 5.21231E-09
 -1       964-3.79324E+05 1.08959E+02-2.10615E+02 3.83036E+04-4.80213E-10-3.59114E-09
 -1       965-3.79333E+05 1.29408E+02-3.46143E+02 4.63008E+04 5.76716E-09-3.19733E-09
 -1       966-3.79313E+05 1.16389E+02-6.40380E+02 3.83050E+04-2.93699E-09 4.09273E-11
 -1       967-3.79410E+05 7.02794E+01-1.30908E+03 4.62851E+04-1.34810E-09-3.25144E-09
 -1       968-3.79219E+05-6.17682E+01-2.56292E+03 3.83197E+04-3.30692E-09-2.96518E-09
 -1       969-3.80409E+05-1.44986E+03-5.69009E+03 4.61224E+04-1.52431E-09-3.44778E-09
 -1       970-3.78239E+05-4.59528E+03-1.11380E+04 3.84735E+04 3.39332E-09-4.91127E-10
 -1       971-4.50079E+05-1.82428E+02-1.73896E+04 1.31656E+04-6.99765E-09-1.78352E-09
 -1       972-4.55057E+05-3.00619E+03-1.00465E+04 2.30227E+04-5.47061E-09-2.25191E-09
 -1       973-4.52314E+05 6.22527E+01-4.38485E+03 1.30151E+04-1.37425E-09-5.63887E-10
 -1       974-4.52717E+05-9.61667E+01-2.30282E+03 2.31950E+04 5.87056E-09-5.22732E-10
 -1       975-4.52502E+05 5.07788E+01-1.12736E+03 1.29903E+04 5.26325E-09-4.75791E-09
 -1       976-4.52558E+05 7.11632E+01-6.28847E+02 2.32306E+04-2.28647E-09-4.44504E-09
 -1       977-4.52533E+05 5.10102E+01-4.15275E+02 1.29791E+04 5.50676E-09-1.19485E-08
 -1       978-4.52560E+05 8.61757E+01-4.31176E+02 2.32465E+04 1.72816E-08-1.07427E-08
 -1       979-4.52534E+05 5.88466E+01-6.46151E+02 1.29743E+04 8.00196E-09-1.23417E-08
 -1       980-4.52611E+05 7.38781E+01-1.22286E+03 2.32494E+04 1.00601E-08-5.18577E-09
 -1       981-4.52488E+05 8.11295E+01-2.34599E+03 1.29762E+04 2.84376E-09-4.71768E-09
 -1       982-4.53007E+05-2.57077E+02-4.89435E+03 2.32357E+04 1.09451E-08-5.37457E-09
 -1       983-4.52119E+05 1.32662E+02-9.35327E+03 1.29886E+04 1.04465E-08-6.92353E-09
 -1       984-4.58083E+05-6.45125E+03-2.14816E+04 2.31264E+04-2.25373E-09 1.70803E-09
 -1       985-4.47371E+05-3.57883E+02-3.71723E+04 1.30947E+04 2.79169E-09-6.44286E-09
 -3
    1PSTEP                         9           5           1          
  100CL  105 8.75000E-01         409                     0    5           1
 -4  DISP        4    1
 -5  D1          1    2    1    0
 -5  D2          1    2    2    0
 -5  D3          1    2    3    0
 -5  ALL         1    2    0    0    1ALL
 -1         1 1.72889E-04 0.00000E+00 0.00000E+00
 -1         2 1.73066E-04-5.42386E-30-6.61744E-24
 -1         3 1.36129E-04 4.99310E-28-1.32349E-23
 -1         5 9.64670E-05-2.98868E-27-6.61744E-24
 -1         8 1.40295E-04-1.42834E-06 0.00000E+00
 -1         9 1.21051E-04-1.41702E-06 0.00000E+00
 -1        10 1.25159E-04-2.70170E-06-6.61744E-24
 -1        12 9.54394E-05 1.01309E-06-3.30872E-24
 -1        15 1.03653E-04-1.57629E-06-4.13590E-25
 -1        16 8.64682E-05-1.66632E-06 0.00000E+00
 -1        17 9.07454E-05-5.71819E-06 0.00000E+00
 -1        18 9.05133E-05-7.46929E-08 0.00000E+00
 -1        19 9.23556E-05 2.01981E-06 0.00000E+00
 -1        20 9.28738E-05 2.56484E-05 0.00000E+00
 -1        21 9.10450E-05 5.45361E-05-3.30872E-24
 -1        24 2.72206E-05-7.40631E-06 0.00000E+00
 -1        25 8.67889E-05 2.07636E-07 0.00000E+00
 -1        26 8.83341E-05 2.75411E-06 0.00000E+00
 -1        27 8.62043E-05 2.41168E-05 0.00000E+00
 -1        28 8.46897E-05 5.36575E-05 0.00000E+00
 -1        32 0.00000E+00 0.00000E+00 0.00000E+00
 -1        33 8.33048E-05 3.67674E-06 0.00000E+00
 -1        34 8.10168E-05 2.40274E-05 0.00000E+00
 -1        35 7.82820E-05 5.31895E-05 0.00000E+00
 -1        51 1.70575E-04-2.34417E-07 0.00000E+00
 -1        52 1.66567E-04-4.62769E-07 0.00000E+00
 -1        53 1.61191E-04-6.93088E-07 0.00000E+00
 -1        54 1.54791E-04-9.28169E-07 0.00000E+00
 -1        55 1.47710E-04-1.16987E-06-8.27181E-24
 -1        56 1.71525E-04-4.53336E-06-5.29396E-23
 -1        57 1.72544E-04-1.58536E-05 2.64698E-23
 -1        58 1.75377E-04-3.21716E-05 0.00000E+00
 -1        59 1.79212E-04-5.13503E-05 0.00000E+00
 -1        60 1.83094E-04-7.06653E-05-1.05879E-22
 -1        61 1.86049E-04-8.73885E-05 0.00000E+00
 -1        62 1.87271E-04-9.93145E-05 0.00000E+00
 -1        63 1.86062E-04-1.04612E-04 0.00000E+00
 -1        64 1.82182E-04-1.02778E-04-1.05879E-22
 -1        65 1.75595E-04-9.38544E-05 5.29396E-23
 -1        66 1.66816E-04-7.92906E-05 1.05879E-22
 -1        67 1.56553E-04-6.09536E-05 0.00000E+00
 -1        68 1.45829E-04-4.14554E-05-1.05879E-22
 -1        69 1.35731E-04-2.34861E-05 0.00000E+00
 -1        70 1.27174E-04-9.45163E-06-5.29396E-23
 -1        86 1.70496E-04-1.94609E-07-6.61744E-24
 -1        87 1.62806E-04-4.14974E-07 0.00000E+00
 -1        88 1.51899E-04-6.62971E-07-6.61744E-24
 -1        89 1.39705E-04-9.28251E-07 3.30872E-24
 -1        90 1.28625E-04-1.18051E-06 1.32349E-23
 -1       121 1.35821E-04-4.48019E-07 0.00000E+00
 -1       122 1.34899E-04-8.96412E-07-6.61744E-24
 -1       123 1.33365E-04-1.34554E-06 1.32349E-23
 -1       124 1.31225E-04-1.79585E-06 0.00000E+00
 -1       125 1.28486E-04-2.24753E-06 0.00000E+00
 -1       191 9.64385E-05 1.68874E-07-6.61744E-24
 -1       192 9.63529E-05 3.37742E-07 3.30872E-24
 -1       193 9.62102E-05 5.06605E-07 0.00000E+00
 -1       194 9.60104E-05 6.75455E-07 0.00000E+00
 -1       195 9.57535E-05 8.44287E-07 0.00000E+00
 -1       251 1.39864E-04-1.01595E-05 1.32349E-23
 -1       252 1.38786E-04-4.82413E-05 0.00000E+00
 -1       253 1.37343E-04-9.59735E-05 0.00000E+00
 -1       254 1.36320E-04-1.33513E-04-6.61744E-24
 -1       255 1.35824E-04-1.47588E-04 1.32349E-23
 -1       256 1.35185E-04-1.25315E-04 0.00000E+00
 -1       257 1.33563E-04-7.40661E-05 0.00000E+00
 -1       258 1.30684E-04-1.69727E-06 6.61744E-24
 -1       259 1.27799E-04 7.07447E-05-1.32349E-23
 -1       260 1.26166E-04 1.22209E-04 0.00000E+00
 -1       261 1.25522E-04 1.44760E-04 0.00000E+00
 -1       262 1.25029E-04 1.30940E-04 0.00000E+00
 -1       263 1.24012E-04 9.35569E-05-1.32349E-23
 -1       264 1.22567E-04 4.58091E-05-6.61744E-24
 -1       265 1.21484E-04 7.57170E-06 0.00000E+00
 -1       266 1.34188E-04-1.47324E-06-6.61744E-24
 -1       267 1.28081E-04-1.49542E-06 1.65436E-24
 -1       268 1.21974E-04-1.51907E-06 1.65436E-24
 -1       269 1.15867E-04-1.53843E-06 0.00000E+00
 -1       270 1.09760E-04-1.55770E-06-8.27181E-25
 -1       271 1.35405E-04 2.89392E-06 0.00000E+00
 -1       272 1.30947E-04 5.77649E-06 0.00000E+00
 -1       273 1.27009E-04 7.29701E-06-1.05879E-22
 -1       274 1.23533E-04 7.54530E-06 0.00000E+00
 -1       275 1.20471E-04 6.68897E-06 1.05879E-22
 -1       276 1.17742E-04 4.93702E-06 0.00000E+00
 -1       277 1.15251E-04 2.54602E-06 0.00000E+00
 -1       278 1.12892E-04-2.00756E-07 5.29396E-23
 -1       279 1.10554E-04-3.00153E-06 0.00000E+00
 -1       280 1.08122E-04-5.55211E-06 0.00000E+00
 -1       281 1.05489E-04-7.56160E-06 1.05879E-22
 -1       282 1.02555E-04-8.76187E-06-5.29396E-23
 -1       283 9.92335E-05-8.92728E-06-1.05879E-22
 -1       284 9.54669E-05-7.87194E-06-5.29396E-23
 -1       285 9.11918E-05-5.48261E-06 5.29396E-23
 -1       301 1.15229E-04-1.46982E-06 0.00000E+00
 -1       302 1.09415E-04-1.49851E-06-3.30872E-24
 -1       303 1.03620E-04-1.52501E-06 6.61744E-24
 -1       304 9.78554E-05-1.55354E-06 0.00000E+00
 -1       305 9.21343E-05-1.58773E-06-1.32349E-23
 -1       306 1.17536E-04 2.75449E-06-2.64698E-23
 -1       307 1.14688E-04 5.02197E-06 2.64698E-23
 -1       308 1.12492E-04 5.56766E-06 5.29396E-23
 -1       309 1.10854E-04 4.60284E-06-2.64698E-23
 -1       310 1.09676E-04 2.40676E-06 0.00000E+00
 -1       311 1.08839E-04-7.07595E-07 2.64698E-23
 -1       312 1.08213E-04-4.38876E-06 5.29396E-23
 -1       313 1.07660E-04-8.26886E-06 0.00000E+00
 -1       314 1.07041E-04-1.19715E-05 5.29396E-23
 -1       315 1.06219E-04-1.51258E-05 0.00000E+00
 -1       316 1.05063E-04-1.73834E-05 0.00000E+00
 -1       317 1.03453E-04-1.84225E-05-2.64698E-23
 -1       318 1.01284E-04-1.79720E-05 0.00000E+00
 -1       319 9.84774E-05-1.58014E-05 0.00000E+00
 -1       320 9.49576E-05-1.17583E-05-2.64698E-23
 -1       336 1.21170E-04-3.19684E-06 0.00000E+00
 -1       337 1.16451E-04-3.69571E-06-6.61744E-24
 -1       338 1.11023E-04-4.19786E-06 0.00000E+00
 -1       339 1.04910E-04-4.70282E-06 6.61744E-24
 -1       340 9.81404E-05-5.21199E-06-1.32349E-23
 -1       406 9.50683E-05 1.18186E-06-6.61744E-24
 -1       407 9.46399E-05 1.35054E-06-3.30872E-24
 -1       408 9.41544E-05 1.51909E-06 0.00000E+00
 -1       409 9.36117E-05 1.68727E-06-3.30872E-24
 -1       410 9.30119E-05 1.85474E-06 0.00000E+00
 -1       521 8.14296E-05 1.80838E-06 0.00000E+00
 -1       522 7.69811E-05 3.43105E-06 5.29396E-23
 -1       523 7.31973E-05 3.30606E-06 0.00000E+00
 -1       524 6.99917E-05 1.59223E-06 5.29396E-23
 -1       525 6.72688E-05-1.41519E-06-1.05879E-22
 -1       526 6.48894E-05-5.35317E-06 0.00000E+00
 -1       527 6.26930E-05-9.78422E-06 1.05879E-22
 -1       528 6.05066E-05-1.42437E-05-5.29396E-23
 -1       529 5.81570E-05-1.82644E-05 1.05879E-22
 -1       530 5.54798E-05-2.14042E-05 0.00000E+00
 -1       531 5.23345E-05-2.32905E-05 0.00000E+00
 -1       532 4.86087E-05-2.36211E-05-5.29396E-23
 -1       533 4.42300E-05-2.22171E-05-1.05879E-22
 -1       534 3.91796E-05-1.89924E-05 5.29396E-23
 -1       535 3.34561E-05-1.40148E-05 5.29396E-23
 -1       536 9.06979E-05 1.09526E-06 0.00000E+00
 -1       537 9.06726E-05 6.24977E-06-1.65436E-24
 -1       538 9.06532E-05 9.91519E-06 1.65436E-24
 -1       539 9.06398E-05 1.22620E-05 0.00000E+00
 -1       540 9.06285E-05 1.34611E-05 0.00000E+00
 -1       541 9.06184E-05 1.36833E-05 0.00000E+00
 -1       542 9.06082E-05 1.31001E-05 0.00000E+00
 -1       543 9.05976E-05 1.18829E-05 0.00000E+00
 -1       544 9.05865E-05 1.02032E-05 0.00000E+00
 -1       545 9.05748E-05 8.23287E-06-2.06795E-25
 -1       546 9.05630E-05 6.14361E-06 0.00000E+00
 -1       547 9.05513E-05 4.10724E-06-5.16988E-26
 -1       548 9.05401E-05 2.29554E-06-2.58494E-26
 -1       549 9.05299E-05 8.80249E-07 0.00000E+00
 -1       550 9.05202E-05 3.30521E-08 0.00000E+00
 -1       551 8.13794E-05-5.98223E-06 0.00000E+00
 -1       552 7.08466E-05-6.25227E-06 2.89513E-24
 -1       553 5.96518E-05-6.52900E-06 1.32349E-23
 -1       554 4.83082E-05-6.81064E-06 6.61744E-24
 -1       555 3.73287E-05-7.09421E-06 2.64698E-23
 -1       556 8.81317E-05 8.64924E-07 0.00000E+00
 -1       557 8.61168E-05 5.91011E-06 0.00000E+00
 -1       558 8.46343E-05 9.55903E-06 0.00000E+00
 -1       559 8.36236E-05 1.19652E-05 0.00000E+00
 -1       560 8.30244E-05 1.32821E-05 0.00000E+00
 -1       561 8.27773E-05 1.36642E-05 6.61744E-24
 -1       562 8.28232E-05 1.32663E-05 0.00000E+00
 -1       563 8.31032E-05 1.22434E-05 0.00000E+00
 -1       564 8.35589E-05 1.07508E-05 0.00000E+00
 -1       565 8.41321E-05 8.94393E-06 0.00000E+00
 -1       566 8.47646E-05 6.97830E-06 0.00000E+00
 -1       567 8.53984E-05 5.00948E-06 1.44757E-24
 -1       568 8.59753E-05 3.19298E-06 0.00000E+00
 -1       569 8.64376E-05 1.68415E-06 0.00000E+00
 -1       570 8.67271E-05 6.38302E-07 0.00000E+00
 -1       571 9.06246E-05 1.27285E-07 2.89513E-24
 -1       572 9.07387E-05 2.54950E-07 4.13590E-25
 -1       573 9.08537E-05 3.21543E-07 0.00000E+00
 -1       574 9.09691E-05 3.41004E-07 0.00000E+00
 -1       575 9.10846E-05 3.27327E-07-3.30872E-24
 -1       576 9.12001E-05 2.94605E-07 0.00000E+00
 -1       577 9.13158E-05 2.56932E-07 3.30872E-24
 -1       578 9.14314E-05 2.28419E-07 0.00000E+00
 -1       579 9.15470E-05 2.23176E-07 0.00000E+00
 -1       580 9.16626E-05 2.55314E-07 0.00000E+00
 -1       581 9.17782E-05 3.38943E-07-6.61744E-24
 -1       582 9.18938E-05 4.88161E-07-6.61744E-24
 -1       583 9.20094E-05 7.17051E-07 0.00000E+00
 -1       584 9.21249E-05 1.03956E-06 3.30872E-24
 -1       585 9.22403E-05 1.46954E-06 6.61744E-24
 -1       586 8.99287E-05-2.61971E-08 0.00000E+00
 -1       587 8.92641E-05 2.21129E-08-8.27181E-25
 -1       588 8.85683E-05 7.02290E-08 8.27181E-25
 -1       589 8.78909E-05 1.17859E-07 0.00000E+00
 -1       590 8.72816E-05 1.64531E-07 0.00000E+00
 -1       591 9.03579E-05 1.69363E-07 0.00000E+00
 -1       592 9.02190E-05 3.54396E-07-8.27181E-25
 -1       593 9.00970E-05 4.92152E-07 0.00000E+00
 -1       594 8.99884E-05 5.93114E-07 0.00000E+00
 -1       595 8.98893E-05 6.67843E-07 0.00000E+00
 -1       596 8.97961E-05 7.26820E-07 8.27181E-25
 -1       597 8.97048E-05 7.80520E-07-1.65436E-24
 -1       598 8.96116E-05 8.39406E-07 0.00000E+00
 -1       599 8.95125E-05 9.13940E-07 0.00000E+00
 -1       600 8.94036E-05 1.01458E-06-8.27181E-25
 -1       601 8.92810E-05 1.15179E-06 0.00000E+00
 -1       602 8.91409E-05 1.33603E-06-4.13590E-25
 -1       603 8.89794E-05 1.57778E-06 0.00000E+00
 -1       604 8.87929E-05 1.88755E-06 0.00000E+00
 -1       605 8.85776E-05 2.27582E-06 4.13590E-25
 -1       606 9.23934E-05 2.80735E-06 0.00000E+00
 -1       607 9.24277E-05 3.72774E-06 0.00000E+00
 -1       608 9.24609E-05 4.77313E-06 0.00000E+00
 -1       609 9.24936E-05 5.93463E-06-3.30872E-24
 -1       610 9.25260E-05 7.20337E-06 3.30872E-24
 -1       611 9.25582E-05 8.57028E-06 0.00000E+00
 -1       612 9.25903E-05 1.00263E-05 0.00000E+00
 -1       613 9.26222E-05 1.15625E-05 0.00000E+00
 -1       614 9.26541E-05 1.31696E-05 0.00000E+00
 -1       615 9.26858E-05 1.48388E-05 0.00000E+00
 -1       616 9.27174E-05 1.65608E-05 0.00000E+00
 -1       617 9.27490E-05 1.83268E-05 0.00000E+00
 -1       618 9.27805E-05 2.01276E-05 1.65436E-24
 -1       619 9.28118E-05 2.19541E-05 0.00000E+00
 -1       620 9.28431E-05 2.37974E-05 8.27181E-25
 -1       621 9.16508E-05 2.14279E-06 0.00000E+00
 -1       622 9.09469E-05 2.26615E-06 0.00000E+00
 -1       623 9.02536E-05 2.38945E-06 0.00000E+00
 -1       624 8.95806E-05 2.51244E-06 0.00000E+00
 -1       625 8.89376E-05 2.63496E-06 1.65436E-24
 -1       626 9.21718E-05 2.86794E-06 0.00000E+00
 -1       627 9.19373E-05 3.85152E-06 0.00000E+00
 -1       628 9.16568E-05 4.95768E-06-6.61744E-24
 -1       629 9.13355E-05 6.17247E-06 0.00000E+00
 -1       630 9.09785E-05 7.48198E-06 0.00000E+00
 -1       631 9.05912E-05 8.87214E-06 0.00000E+00
 -1       632 9.01787E-05 1.03289E-05 0.00000E+00
 -1       633 8.97466E-05 1.18382E-05 0.00000E+00
 -1       634 8.92999E-05 1.33859E-05 3.30872E-24
 -1       635 8.88440E-05 1.49581E-05-1.65436E-24
 -1       636 8.83842E-05 1.65407E-05 0.00000E+00
 -1       637 8.79257E-05 1.81196E-05 0.00000E+00
 -1       638 8.74737E-05 1.96808E-05 0.00000E+00
 -1       639 8.70333E-05 2.12102E-05-8.27181E-25
 -1       640 8.66093E-05 2.26936E-05-1.65436E-24
 -1       656 9.12945E-05 2.53995E-05 0.00000E+00
 -1       657 9.01026E-05 2.51400E-05 3.30872E-24
 -1       658 8.91486E-05 2.48814E-05 0.00000E+00
 -1       659 8.82818E-05 2.46231E-05 0.00000E+00
 -1       660 8.73507E-05 2.43640E-05 3.30872E-24
 -1       661 9.23052E-05 2.75382E-05-3.30872E-24
 -1       662 9.17264E-05 2.94689E-05-1.65436E-24
 -1       663 9.11373E-05 3.14265E-05 3.30872E-24
 -1       664 9.05434E-05 3.33987E-05 0.00000E+00
 -1       665 8.99488E-05 3.53731E-05-3.30872E-24
 -1       666 8.93583E-05 3.73373E-05-1.65436E-24
 -1       667 8.87763E-05 3.92787E-05 0.00000E+00
 -1       668 8.82075E-05 4.11852E-05 0.00000E+00
 -1       669 8.76566E-05 4.30440E-05 0.00000E+00
 -1       670 8.71284E-05 4.48429E-05-1.65436E-24
 -1       671 8.66274E-05 4.65690E-05 3.30872E-24
 -1       672 8.61585E-05 4.82098E-05 0.00000E+00
 -1       673 8.57264E-05 4.97524E-05 0.00000E+00
 -1       674 8.53349E-05 5.11835E-05 0.00000E+00
 -1       675 8.49903E-05 5.24906E-05 8.27181E-25
 -1       676 8.99797E-05 5.43886E-05-3.30872E-24
 -1       677 8.89154E-05 5.42412E-05-1.65436E-24
 -1       678 8.78532E-05 5.40938E-05 3.30872E-24
 -1       679 8.67942E-05 5.39471E-05-1.65436E-24
 -1       680 8.57393E-05 5.38003E-05 0.00000E+00
 -1       771 2.29760E-05-1.93000E-07 0.00000E+00
 -1       772 1.92403E-05 5.65179E-06 0.00000E+00
 -1       773 1.59901E-05 1.02188E-05 0.00000E+00
 -1       774 1.31874E-05 1.36050E-05 0.00000E+00
 -1       775 1.07943E-05 1.59091E-05 0.00000E+00
 -1       776 8.77129E-06 1.72326E-05 0.00000E+00
 -1       777 7.07879E-06 1.76789E-05 0.00000E+00
 -1       778 5.67641E-06 1.73532E-05 0.00000E+00
 -1       779 4.52364E-06 1.63621E-05 0.00000E+00
 -1       780 3.57947E-06 1.48139E-05 2.64698E-23
 -1       781 2.80288E-06 1.28178E-05 5.29396E-23
 -1       782 2.15258E-06 1.04840E-05-2.64698E-23
 -1       783 1.58725E-06 7.92355E-06 5.29396E-23
 -1       784 1.06606E-06 5.24791E-06-2.64698E-23
 -1       785 5.47704E-07 2.56879E-06-2.64698E-23
 -1       786 8.68798E-05 3.82552E-07 8.27181E-25
 -1       787 8.69762E-05 5.06660E-07 0.00000E+00
 -1       788 8.70723E-05 5.90493E-07 0.00000E+00
 -1       789 8.71694E-05 6.44520E-07-1.65436E-24
 -1       790 8.72665E-05 6.79128E-07-3.30872E-24
 -1       791 8.73639E-05 7.04673E-07-1.65436E-24
 -1       792 8.74612E-05 7.31483E-07-3.30872E-24
 -1       793 8.75586E-05 7.69891E-07 0.00000E+00
 -1       794 8.76560E-05 8.30261E-07 0.00000E+00
 -1       795 8.77534E-05 9.22995E-07 0.00000E+00
 -1       796 8.78508E-05 1.05858E-06-3.30872E-24
 -1       797 8.79481E-05 1.24759E-06 0.00000E+00
 -1       798 8.80454E-05 1.50073E-06 0.00000E+00
 -1       799 8.81423E-05 1.82882E-06 0.00000E+00
 -1       800 8.82392E-05 2.24289E-06 1.65436E-24
 -1       801 8.00571E-05 2.74055E-07 0.00000E+00
 -1       802 6.33744E-05 2.38745E-07 0.00000E+00
 -1       803 4.18870E-05 1.22578E-07 0.00000E+00
 -1       804 2.07344E-05 5.46884E-09-3.30872E-24
 -1       805 5.05517E-06-2.20188E-08-1.32349E-23
 -1       806 8.66126E-05 3.27803E-07 0.00000E+00
 -1       807 8.64412E-05 4.23645E-07-1.65436E-24
 -1       808 8.62748E-05 5.03770E-07 3.30872E-24
 -1       809 8.61107E-05 5.76084E-07 1.65436E-24
 -1       810 8.59465E-05 6.48462E-07 0.00000E+00
 -1       811 8.57793E-05 7.28714E-07-1.65436E-24
 -1       812 8.56061E-05 8.24640E-07-3.30872E-24
 -1       813 8.54242E-05 9.44031E-07 0.00000E+00
 -1       814 8.52305E-05 1.09468E-06-3.30872E-24
 -1       815 8.50221E-05 1.28436E-06 0.00000E+00
 -1       816 8.47962E-05 1.52086E-06-3.30872E-24
 -1       817 8.45499E-05 1.81194E-06-8.27181E-25
 -1       818 8.42801E-05 2.16539E-06 1.65436E-24
 -1       819 8.39843E-05 2.58891E-06 4.13590E-25
 -1       820 8.36597E-05 3.09023E-06-3.30872E-24
 -1       821 8.82089E-05 3.41019E-06 0.00000E+00
 -1       822 8.80761E-05 4.24228E-06 0.00000E+00
 -1       823 8.79435E-05 5.23321E-06 0.00000E+00
 -1       824 8.78096E-05 6.36535E-06 0.00000E+00
 -1       825 8.76753E-05 7.62058E-06 0.00000E+00
 -1       826 8.75407E-05 8.98046E-06 0.00000E+00
 -1       827 8.74060E-05 1.04262E-05 3.30872E-24
 -1       828 8.72711E-05 1.19387E-05-1.65436E-24
 -1       829 8.71361E-05 1.34988E-05 0.00000E+00
 -1       830 8.70011E-05 1.50869E-05 1.65436E-24
 -1       831 8.68662E-05 1.66838E-05 3.30872E-24
 -1       832 8.67315E-05 1.82697E-05-1.65436E-24
 -1       833 8.65970E-05 1.98253E-05 0.00000E+00
 -1       834 8.64638E-05 2.13311E-05 0.00000E+00
 -1       835 8.63303E-05 2.27680E-05 0.00000E+00
 -1       836 8.76481E-05 2.90648E-06 3.30872E-24
 -1       837 8.68256E-05 3.06331E-06-1.65436E-24
 -1       838 8.59233E-05 3.21994E-06-3.30872E-24
 -1       839 8.49979E-05 3.37582E-06 0.00000E+00
 -1       840 8.41062E-05 3.53146E-06 8.27181E-25
 -1       856 8.61165E-05 2.55339E-05 8.27181E-25
 -1       857 8.60226E-05 2.71541E-05-8.27181E-25
 -1       858 8.59285E-05 2.89462E-05 1.65436E-24
 -1       859 8.58333E-05 3.08793E-05 1.65436E-24
 -1       860 8.57377E-05 3.29222E-05 0.00000E+00
 -1       861 8.56419E-05 3.50433E-05-1.65436E-24
 -1       862 8.55459E-05 3.72114E-05 0.00000E+00
 -1       863 8.54498E-05 3.93950E-05 1.65436E-24
 -1       864 8.53537E-05 4.15627E-05 0.00000E+00
 -1       865 8.52578E-05 4.36830E-05 0.00000E+00
 -1       866 8.51620E-05 4.57245E-05 0.00000E+00
 -1       867 8.50665E-05 4.76559E-05 0.00000E+00
 -1       868 8.49713E-05 4.94460E-05 0.00000E+00
 -1       869 8.48766E-05 5.10636E-05 0.00000E+00
 -1       870 8.47821E-05 5.24776E-05-3.30872E-24
 -1       871 8.51514E-05 2.41055E-05 0.00000E+00
 -1       872 8.42707E-05 2.40917E-05 8.27181E-25
 -1       873 8.34900E-05 2.40776E-05 0.00000E+00
 -1       874 8.27362E-05 2.40627E-05 0.00000E+00
 -1       875 8.19359E-05 2.40471E-05-8.27181E-25
 -1       876 8.58494E-05 2.55463E-05 0.00000E+00
 -1       877 8.54568E-05 2.70921E-05 1.65436E-24
 -1       878 8.50264E-05 2.87389E-05 6.61744E-24
 -1       879 8.45638E-05 3.04732E-05 0.00000E+00
 -1       880 8.40736E-05 3.22813E-05-6.61744E-24
 -1       881 8.35607E-05 3.41496E-05-3.30872E-24
 -1       882 8.30302E-05 3.60648E-05-6.61744E-24
 -1       883 8.24872E-05 3.80134E-05 0.00000E+00
 -1       884 8.19366E-05 3.99819E-05 0.00000E+00
 -1       885 8.13835E-05 4.19570E-05 0.00000E+00
 -1       886 8.08329E-05 4.39253E-05 0.00000E+00
 -1       887 8.02898E-05 4.58732E-05 0.00000E+00
 -1       888 7.97592E-05 4.77874E-05 3.30872E-24
 -1       889 7.92453E-05 4.96542E-05-1.65436E-24
 -1       890 7.87539E-05 5.14603E-05 0.00000E+00
 -1       891 8.37365E-05 5.35800E-05 0.00000E+00
 -1       892 8.28372E-05 5.35015E-05 0.00000E+00
 -1       893 8.19170E-05 5.34230E-05 1.65436E-24
 -1       894 8.09009E-05 5.33446E-05 0.00000E+00
 -1       895 7.97141E-05 5.32661E-05-1.65436E-24
 -1       956 8.31652E-05 4.48480E-06-1.65436E-24
 -1       957 8.30229E-05 5.42284E-06 8.27181E-25
 -1       958 8.28801E-05 6.47705E-06 3.30872E-24
 -1       959 8.27369E-05 7.63272E-06 0.00000E+00
 -1       960 8.25934E-05 8.87515E-06 0.00000E+00
 -1       961 8.24499E-05 1.01895E-05-1.65436E-24
 -1       962 8.23062E-05 1.15610E-05 0.00000E+00
 -1       963 8.21625E-05 1.29748E-05 1.65436E-24
 -1       964 8.20188E-05 1.44160E-05 3.30872E-24
 -1       965 8.18750E-05 1.58698E-05 1.65436E-24
 -1       966 8.17313E-05 1.73214E-05 3.30872E-24
 -1       967 8.15876E-05 1.87559E-05 3.30872E-24
 -1       968 8.14440E-05 2.01585E-05 0.00000E+00
 -1       969 8.13007E-05 2.15144E-05 0.00000E+00
 -1       970 8.11578E-05 2.28088E-05 6.61744E-24
 -1       971 8.08493E-05 2.52724E-05 0.00000E+00
 -1       972 8.06787E-05 2.66875E-05-1.65436E-24
 -1       973 8.05078E-05 2.82532E-05-3.30872E-24
 -1       974 8.03362E-05 2.99496E-05 1.65436E-24
 -1       975 8.01644E-05 3.17568E-05 3.30872E-24
 -1       976 7.99924E-05 3.36546E-05 0.00000E+00
 -1       977 7.98202E-05 3.56230E-05 6.61744E-24
 -1       978 7.96479E-05 3.76418E-05-3.30872E-24
 -1       979 7.94755E-05 3.96909E-05 0.00000E+00
 -1       980 7.93032E-05 4.17502E-05 3.30872E-24
 -1       981 7.91309E-05 4.37994E-05 0.00000E+00
 -1       982 7.89589E-05 4.58183E-05-3.30872E-24
 -1       983 7.87871E-05 4.77869E-05 6.61744E-24
 -1       984 7.86162E-05 4.96850E-05-1.65436E-24
 -1       985 7.84459E-05 5.14924E-05-3.30872E-24
 -3
    1PSTEP                        10           5           1          
  100CL  105 8.75000E-01         409                     0    5           1
 -4  STRESS      6    1
 -5  SXX         1    4    1    1
 -5  SYY         1    4    2    2
 -5  SZZ         1    4    3    3
 -5  SXY         1    4    1    2
 -5  SYZ         1    4    2    3
 -5  SZX         1    4    3    1
 -1         1-3.54842E+06-1.60517E+06-8.15472E+05-1.99297E+06-4.36557E-11-1.42318E-08
 -1         2 3.41885E+03-5.16303E+05 1.25730E+04-1.30764E+04-6.07653E-09-8.83233E-10
 -1         3-1.22946E+02-1.27941E+06 3.26847E+02-7.07158E+02 3.24238E-10-2.27192E-09
 -1         5-2.44086E+01 4.83336E+05 1.36241E+01 1.10019E+00 2.39136E-10-4.19968E-08
 -1         8-1.80486E+06-7.06479E+05-1.82486E+05-1.06153E+06 5.52973E-10 1.17143E-08
 -1         9-2.29042E+06-7.58242E+05-2.83149E+05-7.28930E+05 1.00408E-10 2.79397E-10
 -1        10-1.14246E+03-1.33785E+06-2.17214E+03-4.82802E+03-5.20140E-09 1.56539E-08
 -1        12-1.88925E+01 4.83365E+05 4.42412E+02 7.26527E+00 5.26533E-10 2.54659E-11
 -1        15 3.48008E+03 1.88803E+03 1.08891E+04 9.33415E+00-3.99609E-10 1.00645E-08
 -1        16-5.26332E+06-1.68041E+06-8.03775E+05-1.70184E+06-1.78989E-09 1.59101E-09
 -1        17-9.16702E+05-7.01447E+05-1.46041E+05-6.25660E+05-8.87812E-09 1.59198E-09
 -1        18 3.56320E+04 7.98151E+03-2.00000E+04-1.19270E+05 2.12822E-10-6.04632E-09
 -1        19 1.45439E+05 1.73879E+05-1.12120E+03 1.74427E+04-5.20959E-10 7.49569E-09
 -1        20 7.45894E+04-2.15219E+05-4.07931E+04 6.77409E+04 4.18974E-09-5.17260E-09
 -1        21-1.05551E+02-4.20768E+05-1.67977E+03-3.48403E+02-3.46697E-09 7.50911E-09
 -1        24-3.81925E+06-1.36529E+06-4.49943E+05-1.76183E+06-7.77557E-09-8.76995E-09
 -1        25 3.53038E+04 5.51310E+04 3.30487E+04-5.17258E+05 1.60944E-09 4.85743E-09
 -1        26-2.69305E+04 1.23630E+05-7.36870E+03-2.81146E+04-2.84490E-10-6.87256E-09
 -1        27-4.28180E+04-1.28715E+05-5.92264E+04 9.24951E+04-9.01006E-10 3.92235E-09
 -1        28-2.04859E+03-1.28349E+05 4.32689E+03 4.68744E+04 1.06531E-08-2.66596E-09
 -1        32-1.15956E+06-1.01268E+05 3.65004E+05-1.62048E+06-1.36788E-09 8.52651E-11
 -1        33-1.72049E+05 1.14554E+05 3.70655E+04-4.89094E+04-1.61814E-11-2.23311E-09
 -1        34-2.79716E+05-3.80106E+04-5.23227E+03 8.85237E+04-2.56410E-09 2.75190E-09
 -1        35-3.39050E+04-4.72014E+04-2.43483E+03 7.71520E+04 5.48112E-09-3.05469E-09
 -1        51 2.82282E+04-5.74750E+05 5.61272E+04-1.55920E+06-1.45519E-10 7.62520E-09
 -1        52 1.88647E+04-5.78080E+05 3.83828E+04-1.75091E+06 1.01863E-10-1.58325E-08
 -1        53 1.70485E+04-6.00778E+05 3.50787E+04-1.55442E+06-4.36557E-10-2.66300E-09
 -1        54 4.18673E+04-6.00831E+05 5.93166E+04-1.75574E+06-5.23869E-10-1.41808E-08
 -1        55 8.37942E+04-6.23295E+05 1.09522E+05-1.55325E+06 9.31323E-10-2.48110E-09
 -1        56-6.89958E+06-7.07568E+05-5.80599E+05-2.59234E+06-2.82307E-09-7.01402E-09
 -1        57-6.90182E+06-1.43033E+06-3.86367E+05-2.78868E+06-1.65801E-09-1.52941E-08
 -1        58-7.07114E+06-8.21934E+05-1.35377E+05-2.46833E+06-4.27099E-09 5.04951E-09
 -1        59-6.71962E+06-1.27949E+06-8.04452E+04-2.92750E+06-2.47746E-09-7.94898E-09
 -1        60-7.08937E+06-8.47687E+05-3.17623E+04-2.46122E+06-8.34916E-10-1.11704E-08
 -1        61-6.74520E+06-1.18113E+06-1.39988E+04-2.84341E+06 6.70843E-09-1.51476E-08
 -1        62-7.03660E+06-9.25772E+05-1.42153E+04-2.54637E+06 5.02041E-10 4.59568E-09
 -1        63-6.89036E+06-1.00396E+06 6.03198E+02-2.62908E+06 7.29051E-09-1.19708E-08
 -1        64-6.93386E+06-1.03202E+06-1.47803E+04-2.66777E+06 2.11367E-09 1.18926E-08
 -1        65-7.10133E+06-8.16006E+05-1.15645E+04-2.42151E+06 1.21827E-08 1.92317E-08
 -1        66-6.83273E+06-1.10879E+06-3.06201E+04-2.75895E+06 9.65520E-09-1.21800E-08
 -1        67-7.25202E+06-7.41445E+05-7.43606E+04-2.31635E+06 1.03082E-08-1.56369E-08
 -1        68-6.79472E+06-1.09929E+06-1.24756E+05-2.78151E+06 7.39237E-09-3.27418E-10
 -1        69-7.31854E+06-9.91368E+05-3.59093E+05-2.31872E+06-4.35648E-09-1.23109E-08
 -1        70-6.76267E+06-8.66312E+05-5.37610E+05-2.75154E+06-2.31375E-09-6.86850E-09
 -1        86-1.85948E+03-5.56194E+05 5.47836E+03 6.53692E+03-3.87899E-10-1.29216E-09
 -1        87 8.17703E+03-5.26236E+05 1.92641E+04-2.11080E+04-2.70370E-09-6.14199E-09
 -1        88-6.31506E+03-5.46601E+05 2.55915E+04 1.45698E+04-5.03496E-09 2.36062E-09
 -1        89 4.94334E+04-5.14174E+05 7.04523E+04-2.64003E+04-1.18234E-11-6.84108E-09
 -1        90-4.29100E+04-5.68417E+05 9.63455E+04 1.18317E+04-6.07542E-09-2.28101E-09
 -1       121-2.18001E+02-1.28012E+06 2.66465E+02 3.53247E+02-1.44485E-09-2.58842E-09
 -1       122 2.16353E+00-1.27935E+06 7.02364E+02-1.40954E+03-3.68055E-09-4.90218E-10
 -1       123-3.06541E+02-1.28021E+06 1.07521E+03 1.05435E+03-3.89355E-09 3.16868E-09
 -1       124 1.38984E+03-1.27858E+06 2.91734E+03-2.93344E+03-7.84837E-09-2.94676E-09
 -1       125-1.26191E+03-1.28095E+06 4.34506E+03 1.87654E+03-6.57155E-09 2.14459E-09
 -1       191-2.60711E+01 4.83374E+05 1.55473E+01-5.55692E-01 3.12789E-10-1.07739E-08
 -1       192-2.56740E+01 4.83337E+05 2.88783E+01 3.12285E+00 4.22959E-10 7.46877E-09
 -1       193-2.94267E+01 4.83373E+05 5.29848E+01-2.60308E+00 5.44741E-10-7.59428E-09
 -1       194-2.97419E+01 4.83341E+05 1.09302E+02 6.88948E+00 2.86407E-10-1.66765E-08
 -1       195-3.58718E+01 4.83370E+05 2.13068E+02-4.37109E+00 8.96364E-10-1.07648E-08
 -1       251-1.41139E+06-6.98531E+04-3.34909E+04 8.11682E+04-8.23547E-10-2.54295E-09
 -1       252-5.21199E+05 5.76772E+04 1.31469E+05-2.36448E+05-2.89083E-09-2.50848E-08
 -1       253-1.01235E+06 1.74608E+04 1.11182E+04 1.17594E+05-3.51292E-10 2.18424E-08
 -1       254-3.05634E+05 2.16585E+04 1.42247E+05-1.61272E+05-6.73936E-10-2.05525E-08
 -1       255-1.61863E+06-4.30693E+04-1.27850E+05 5.89894E+03 5.12773E-09-1.02182E-08
 -1       256-1.38193E+05 3.25634E+04 1.71241E+05 9.28009E+04-3.63116E-10 1.08525E-08
 -1       257-1.17415E+06 8.19422E+02-3.75475E+04-1.35629E+05 1.88720E-09-2.51679E-08
 -1       258-6.01281E+05 5.15440E+03 7.40585E+04 2.33712E+05-1.38211E-09 2.55650E-08
 -1       259-1.17111E+06 1.13198E+03-3.68679E+04-1.35829E+05 1.67333E-08-2.94560E-08
 -1       260-1.40496E+05 3.24585E+04 1.70872E+05 9.37726E+04 1.46961E-08 2.67755E-09
 -1       261-1.61944E+06-4.32062E+04-1.27816E+05 5.12762E+03-1.93995E-09-3.20938E-09
 -1       262-3.02855E+05 2.21052E+04 1.43316E+05-1.60389E+05-1.90339E-08 7.69251E-09
 -1       263-1.01423E+06 1.70579E+04 1.15560E+04 1.17483E+05 2.08058E-08 9.04674E-09
 -1       264-5.21743E+05 5.91530E+04 1.33424E+05-2.36843E+05 8.13588E-08-2.39406E-08
 -1       265-1.40900E+06-7.08711E+04-2.97022E+04 8.16761E+04 3.10747E-08 8.57108E-09
 -1       266-6.15406E+04-2.85092E+04 1.42560E+05-1.93662E+02-1.45519E-11-6.47947E-09
 -1       267 7.12874E+04 3.32976E+04 1.01023E+05 2.22733E+02 9.64064E-11-2.33817E-09
 -1       268-9.68258E+03-4.75590E+03 3.74255E+04-2.88851E+01 5.63887E-11-1.01909E-08
 -1       269 1.14302E+04 5.70170E+03 2.44307E+04 3.35862E+01-9.09495E-12 4.47777E-09
 -1       270-1.73898E+03-9.43970E+02 1.17426E+04-4.66110E+00-1.79625E-10 6.51518E-10
 -1       271-7.25983E+06-8.81754E+05-5.87269E+05-2.83473E+06 6.18456E-10-7.47968E-09
 -1       272-7.51317E+06-1.30480E+06-3.82959E+05-2.78385E+06-1.43791E-09-8.16362E-09
 -1       273-7.37952E+06-1.03337E+06-1.38490E+05-2.79712E+06 2.48929E-09 1.66619E-09
 -1       274-7.36789E+06-1.12740E+06-7.87209E+04-2.84032E+06 2.24554E-09-5.16593E-10
 -1       275-7.40257E+06-1.04388E+06-3.22349E+04-2.78395E+06-2.59661E-09 1.23291E-08
 -1       276-7.33824E+06-1.11768E+06-1.73893E+04-2.86104E+06 1.05047E-09 2.05109E-08
 -1       277-7.40966E+06-1.04079E+06-8.56361E+03-2.77762E+06-2.46519E-09-6.85782E-09
 -1       278-7.33108E+06-1.12070E+06-6.59734E+03-2.86829E+06 2.24759E-09-9.16225E-09
 -1       279-7.41016E+06-1.04037E+06-7.45913E+03-2.77710E+06-2.24463E-09 1.01154E-08
 -1       280-7.33620E+06-1.11874E+06-1.42873E+04-2.86318E+06-3.35581E-09 1.00817E-09
 -1       281-7.40423E+06-1.04311E+06-2.60745E+04-2.78245E+06 1.77943E-09 9.11314E-09
 -1       282-7.36133E+06-1.12514E+06-6.34325E+04-2.84474E+06 3.54703E-09 4.25644E-09
 -1       283-7.38448E+06-1.03593E+06-1.11565E+05-2.79445E+06 7.68978E-10-1.67347E-10
 -1       284-7.48119E+06-1.26480E+06-3.08294E+05-2.79546E+06 1.39153E-09-5.66070E-09
 -1       285-7.28624E+06-9.15945E+05-4.73101E+05-2.82697E+06-3.87081E-09-5.52973E-10
 -1       301 4.86465E+04-2.50439E+04 1.77957E+05-2.32672E+04-2.19006E-09 7.34951E-09
 -1       302 2.19419E+04 1.41630E+04 1.20298E+05-3.05300E+04 4.01178E-09 7.84780E-10
 -1       303 3.08725E+03-1.10138E+04 1.07584E+05-2.36008E+04-2.33558E-09-4.16458E-09
 -1       304 3.78830E+04 2.79914E+04 1.74287E+05-3.04155E+04 3.19415E-09-4.68549E-09
 -1       305 8.75577E+04-3.87391E+04 3.03610E+05-2.31072E+04-1.41154E-09 7.03540E-09
 -1       306-4.31389E+06-5.34545E+05-2.87769E+05-1.67624E+06 4.51109E-10 5.90808E-09
 -1       307-4.40306E+06-7.87277E+05-1.89098E+05-1.68740E+06 1.53420E-10-7.52152E-09
 -1       308-4.37780E+06-6.08442E+05-6.80320E+04-1.65128E+06 1.21599E-09-2.95404E-09
 -1       309-4.32532E+06-7.03430E+05-3.90174E+04-1.72513E+06 6.38465E-10 4.58294E-09
 -1       310-4.39195E+06-6.11832E+05-1.59470E+04-1.64157E+06-2.17187E-09 4.14184E-09
 -1       311-4.30813E+06-7.00658E+05-8.78059E+03-1.73984E+06 6.95081E-10-1.25518E-08
 -1       312-4.39605E+06-6.09760E+05-4.52725E+03-1.63766E+06 7.56245E-10-6.75760E-09
 -1       313-4.30532E+06-7.01432E+05-4.01586E+03-1.74280E+06 5.65808E-09 3.63571E-09
 -1       314-4.39504E+06-6.10803E+05-5.18057E+03-1.63884E+06-2.40789E-09-8.37417E-09
 -1       315-4.31173E+06-6.97237E+05-1.04765E+04-1.73492E+06-5.23278E-09-7.04949E-09
 -1       316-4.38885E+06-6.14550E+05-1.94481E+04-1.64495E+06-1.19780E-09-2.68301E-09
 -1       317-4.33396E+06-6.99477E+05-4.75309E+04-1.71574E+06 2.00635E-09 1.62254E-08
 -1       318-4.37158E+06-6.10304E+05-8.30045E+04-1.65671E+06-2.78237E-09 1.57524E-09
 -1       319-4.42820E+06-8.02966E+05-2.30727E+05-1.67161E+06-7.12225E-09-4.46380E-09
 -1       320-4.29469E+06-5.18719E+05-3.50884E+05-1.68568E+06 8.58563E-10-1.33878E-09
 -1       336 1.25781E+03-1.39538E+06-8.59204E+03 2.94682E+03-1.40230E-08-5.57520E-09
 -1       337-3.38691E+03-1.39786E+06-1.00790E+04-7.07028E+03-9.95288E-09-1.68438E-09
 -1       338 1.09290E+03-1.39545E+06-1.32076E+04 4.11303E+03-1.77538E-08 9.95715E-09
 -1       339-1.48123E+04-1.40475E+06-2.98035E+04-9.33244E+03-1.27125E-08-6.17183E-09
 -1       340 1.08703E+04-1.38872E+06-4.54839E+04 5.19289E+03-2.09420E-08 8.02356E-09
 -1       406 1.41826E+01 4.83350E+05 8.72630E+02-3.02017E+00 1.17194E-09-8.36735E-10
 -1       407 2.85695E+02 4.83518E+05 1.85615E+03-1.01454E+01 3.16049E-10-7.03221E-09
 -1       408 9.36106E+02 4.83216E+05 3.70599E+03 1.37893E+01 1.29876E-09-7.54062E-09
 -1       409 3.99049E+03 4.84701E+05 8.34417E+03-1.57067E+02 3.04681E-11-1.08439E-08
 -1       410 1.14992E+04 4.82159E+05 1.70334E+04 1.56310E+02 1.18780E-09-2.19188E-10
 -1       521-8.27551E+06-1.01546E+06-5.70155E+05-3.21531E+06 7.34872E-10-6.95582E-09
 -1       522-8.52070E+06-1.45594E+06-3.75869E+05-3.16580E+06 7.62157E-10-5.82440E-09
 -1       523-8.40206E+06-1.16382E+06-1.34374E+05-3.16605E+06-2.16733E-09 4.68572E-09
 -1       524-8.36418E+06-1.28864E+06-7.74268E+04-3.23922E+06 2.22099E-09-1.90721E-09
 -1       525-8.43039E+06-1.17075E+06-3.13010E+04-3.14651E+06-3.54567E-09-1.83718E-09
 -1       526-8.32952E+06-1.28232E+06-1.72232E+04-3.26669E+06 1.26420E-09-3.47427E-10
 -1       527-8.43758E+06-1.16788E+06-8.56580E+03-3.13994E+06-4.21835E-09-3.33341E-09
 -1       528-8.32698E+06-1.28003E+06-7.11272E+03-3.26776E+06-1.44610E-09-5.85760E-09
 -1       529-8.43289E+06-1.17289E+06-8.69634E+03-3.14549E+06-1.62800E-09-3.98813E-09
 -1       530-8.34584E+06-1.26457E+06-1.70531E+04-3.24504E+06-3.60524E-09-7.31097E-09
 -1       531-8.41742E+06-1.18436E+06-3.15138E+04-3.16165E+06 9.22228E-10 3.12139E-09
 -1       532-8.39389E+06-1.25741E+06-7.71142E+04-3.20241E+06-2.72030E-09-2.83399E-09
 -1       533-8.38397E+06-1.18230E+06-1.34196E+05-3.18674E+06 5.28462E-09-1.03028E-08
 -1       534-8.55725E+06-1.41859E+06-3.74988E+05-3.12426E+06 3.54066E-09 3.63434E-09
 -1       535-8.25704E+06-1.03430E+06-5.68638E+05-3.23612E+06 5.34055E-09-4.45289E-09
 -1       536-4.33302E+04-2.80375E+04 7.81182E+04-2.16252E+02 3.38150E-09-1.14160E-08
 -1       537-7.76375E+03 3.19598E+04 5.36109E+04-6.10765E+04-5.04770E-09-3.56886E-09
 -1       538-3.04499E+04-3.93781E+03 2.01370E+04-1.10952E+02-1.85537E-10-2.77851E-09
 -1       539-2.36878E+04 3.87868E+03 1.22734E+04-6.12593E+04 4.56203E-09 4.40923E-09
 -1       540-2.85049E+04-6.48163E+02 5.02923E+03-3.50831E+01 1.37970E-09 5.45015E-10
 -1       541-2.68177E+04 4.72333E+02 2.91599E+03-6.13802E+04-1.28421E-09 3.33853E-09
 -1       542-2.81297E+04-1.28476E+02 1.18534E+03 5.93024E+00-1.46019E-09-2.87457E-09
 -1       543-2.78317E+04 1.82548E+02 5.89810E+02-6.14455E+04 1.05410E-09 9.20636E-10
 -1       544-2.80171E+04-2.79140E+00 6.55788E+01 2.97076E+01 3.62661E-10 5.46908E-09
 -1       545-2.82612E+04 1.21324E+02-3.81728E+02-6.14754E+04 9.46443E-11-4.34630E-09
 -1       546-2.79419E+04 9.96983E+01-9.26952E+02 3.63121E+01 1.27272E-10 1.04365E-09
 -1       547-2.86120E+04-6.23172E+02-2.31141E+03-6.14648E+04-2.75088E-09-6.70377E-09
 -1       548-2.76223E+04 6.78075E+02-3.99526E+03 1.88783E+01-3.35331E-09-7.00356E-09
 -1       549-3.09869E+04-6.26783E+03-1.03591E+04-6.13657E+04-1.85355E-09 1.62208E-09
 -1       550-2.52375E+04 5.22938E+03-1.54737E+04-6.30944E+01 6.23913E-10-6.07542E-09
 -1       551 2.39283E+04-6.22795E+05 3.81262E+04-1.00676E+06-1.81171E-08-8.51287E-10
 -1       552 3.11631E+04-6.24982E+05 4.26949E+04-1.29645E+06-1.93540E-08 9.52787E-09
 -1       553 2.31687E+04-6.30641E+05 6.23593E+04-1.00432E+06-2.23008E-08 9.52423E-09
 -1       554 5.78868E+04-6.05947E+05 1.28259E+05-1.29678E+06-1.90121E-08 9.74978E-10
 -1       555 8.82080E+04-6.48639E+05 2.37458E+05-1.00563E+06-2.04527E-08-9.03674E-09
 -1       556-4.37037E+04-2.00620E+05 5.88445E+04-2.86046E+05-3.48518E-09 4.19095E-09
 -1       557 2.45887E+04-2.58207E+05 3.08027E+04-3.40990E+05-7.27596E-10 3.46881E-09
 -1       558-4.53147E+04-2.09245E+05 1.23019E+04-2.79418E+05 3.34694E-09 5.71163E-09
 -1       559 1.39573E+04-2.65790E+05 6.29504E+03-3.46083E+05-6.69388E-09-1.04956E-09
 -1       560-4.82926E+04-2.07378E+05 2.51047E+03-2.81288E+05-4.22006E-09-6.25005E-09
 -1       561 9.81864E+03-2.64579E+05 1.36611E+03-3.48800E+05-1.10449E-08-1.09212E-08
 -1       562-5.05999E+04-2.05876E+05 4.61165E+02-2.82906E+05-3.78350E-10 6.36101E-09
 -1       563 7.25362E+03-2.63479E+05 2.73922E+02-3.50489E+05-1.65892E-09 4.88239E-09
 -1       564-5.20070E+04-2.04979E+05-2.28927E+01-2.83883E+05-2.21917E-09 2.32467E-09
 -1       565 5.94538E+03-2.62924E+05-2.18672E+02-3.51332E+05-4.07726E-09-4.66389E-09
 -1       566-5.24640E+04-2.04663E+05-6.57103E+02-2.84212E+05-8.21183E-09-1.62800E-09
 -1       567 5.76073E+03-2.62937E+05-1.53582E+03-3.51311E+05-5.32873E-09 1.17616E-08
 -1       568-5.18681E+04-2.05053E+05-3.29541E+03-2.83887E+05 2.52294E-09 1.03282E-08
 -1       569 4.45945E+03-2.64579E+05-7.75890E+03-3.49576E+05-2.11730E-09 2.42653E-09
 -1       570-4.88151E+04-2.09696E+05-1.53720E+04-2.82012E+05 4.18368E-09 5.63432E-09
 -1       571 3.29563E+05 1.35600E+04 2.01332E+04-8.09107E+04 9.81345E-10 1.98997E-09
 -1       572 3.32554E+05 4.70425E+03 9.86505E+03-8.86888E+04 2.69210E-10-1.73923E-08
 -1       573 3.30741E+05 1.11145E+03 4.38240E+03-8.06949E+04 9.91349E-10 1.79534E-09
 -1       574 3.31091E+05 3.57386E+02 2.19608E+03-8.89242E+04 3.45608E-11-5.20049E-09
 -1       575 3.30859E+05 4.50045E+01 1.03443E+03-8.06672E+04-1.49157E-10 7.09133E-09
 -1       576 3.30885E+05 1.10318E+01 5.25590E+02-8.89555E+04-3.00702E-10-2.13731E-10
 -1       577 3.30877E+05-1.08397E+01 2.56270E+02-8.06635E+04-3.37650E-10 3.40606E-09
 -1       578 3.30870E+05-8.78148E+00 1.34619E+02-8.89595E+04 3.65844E-10 4.41560E-09
 -1       579 3.30909E+05-2.03477E+01 7.20143E+01-8.06632E+04-4.01087E-10-7.04040E-09
 -1       580 3.30916E+05-3.09783E+01 5.08959E+01-8.89555E+04-1.34605E-09-1.51849E-08
 -1       581 3.30972E+05-5.13170E+01 4.89553E+01-8.06676E+04-8.24002E-10-5.00313E-09
 -1       582 3.31008E+05-6.46270E+01 8.10243E+01-8.89088E+04-3.73802E-10-3.03862E-09
 -1       583 3.31062E+05-7.00987E+01 1.42298E+02-8.07098E+04-8.77117E-09 8.36189E-09
 -1       584 3.31176E+05 1.81576E+01 3.18933E+02-8.85505E+04-2.23226E-08-8.04289E-09
 -1       585 3.31137E+05 2.80411E+02 6.37050E+02-8.10262E+04-1.19253E-08-1.06247E-08
 -1       586 1.67340E+01 1.39048E+05 5.44815E+02-2.47182E+05 3.93356E-11-5.99084E-09
 -1       587 6.15850E+02 1.39123E+05 2.43745E+03-2.75787E+05-2.36287E-09-1.23500E-08
 -1       588 1.39791E+03 1.38714E+05 5.41827E+03-2.46936E+05-2.72848E-11 5.40149E-09
 -1       589 5.61496E+03 1.41120E+05 1.24627E+04-2.75693E+05-2.08274E-09 1.31731E-08
 -1       590 1.60128E+04 1.37252E+05 2.53730E+04-2.47274E+05 9.86802E-11 6.29188E-09
 -1       591-1.42488E+05-4.02557E+04-3.05398E+04-6.83899E+04 2.14823E-09 1.00626E-08
 -1       592-1.44816E+05-4.15955E+04-1.57174E+04-7.64787E+04-1.51977E-09 3.25599E-09
 -1       593-1.44560E+05-3.38230E+04-6.65132E+03-7.19772E+04-4.01315E-10 8.98626E-09
 -1       594-1.41118E+05-3.77905E+04-3.27917E+03-7.66640E+04 1.20644E-09 3.84603E-10
 -1       595-1.44749E+05-3.36865E+04-1.51402E+03-7.21100E+04-3.17459E-09-9.07372E-09
 -1       596-1.40877E+05-3.76540E+04-7.66103E+02-7.66283E+04 7.45786E-11-1.10826E-08
 -1       597-1.44777E+05-3.37106E+04-4.13922E+02-7.21111E+04 4.17278E-09 1.75521E-09
 -1       598-1.40852E+05-3.76534E+04-3.25195E+02-7.66175E+04 3.79293E-09-8.22524E-09
 -1       599-1.44774E+05-3.37131E+04-4.06240E+02-7.21092E+04 2.33558E-09 2.71120E-09
 -1       600-1.40870E+05-3.76570E+04-7.45651E+02-7.66211E+04-1.53523E-09 2.17518E-08
 -1       601-1.44738E+05-3.36939E+04-1.46966E+03-7.21042E+04-2.53749E-10 1.63436E-09
 -1       602-1.41099E+05-3.77894E+04-3.18074E+03-7.66458E+04 2.02249E-09-1.49544E-09
 -1       603-1.44547E+05-3.38341E+04-6.45071E+03-7.19748E+04-1.95041E-09-7.76708E-10
 -1       604-1.44710E+05-4.14468E+04-1.52395E+04-7.64209E+04-8.54698E-09 1.18234E-10
 -1       605-1.42499E+05-4.01014E+04-2.96111E+04-6.85262E+04-1.57115E-09-7.16955E-09
 -1       606 9.67135E+04-1.39184E+04-2.43078E+04 3.93954E+04-5.30235E-09 1.28330E-09
 -1       607 9.26124E+04-4.51007E+03-1.20698E+04 4.39817E+04-5.46606E-10-1.95087E-10
 -1       608 9.49298E+04-7.95729E+02-5.40161E+03 3.90910E+04 3.81078E-09-2.00953E-09
 -1       609 9.44392E+04-1.88727E+02-2.72400E+03 4.43136E+04-2.14004E-09 5.25415E-09
 -1       610 9.46882E+04 5.45445E+01-1.30033E+03 3.90564E+04-5.24233E-09-2.43153E-09
 -1       611 9.45811E+04 9.05810E+01-6.54872E+02 4.43499E+04-1.32886E-08-9.52423E-09
 -1       612 9.46110E+04 9.37356E+01-3.13583E+02 3.90533E+04-9.67339E-09 1.55705E-09
 -1       613 9.45597E+04 1.14344E+02-1.41711E+02 4.43535E+04-9.00582E-09 4.06044E-09
 -1       614 9.45644E+04 1.03758E+02-3.81698E+01 3.90525E+04-3.17414E-10 4.10228E-09
 -1       615 9.45291E+04 1.29994E+02 4.91535E+01 4.43534E+04 7.41420E-09 2.00271E-09
 -1       616 9.45292E+04 1.19158E+02 1.56488E+02 3.90531E+04-7.80801E-09-3.64571E-09
 -1       617 9.45299E+04 1.77363E+02 3.62086E+02 4.43519E+04 2.91493E-10 2.44790E-09
 -1       618 9.44840E+04 2.41463E+02 7.31734E+02 3.90536E+04 1.21008E-09 4.92946E-09
 -1       619 9.47732E+04 7.71432E+02 1.64580E+03 4.43477E+04 3.77054E-09 9.00263E-09
 -1       620 9.42389E+04 2.03605E+03 3.31703E+03 3.90527E+04 2.63708E-09 4.40559E-09
 -1       621 8.88689E+02 3.54089E+05 3.97488E+03-1.93655E+04-3.30058E-09 1.24777E-09
 -1       622 4.82881E+02 3.54935E+05 4.10524E+03-2.49167E+04 1.49839E-10 4.26553E-10
 -1       623 1.78784E+02 3.54227E+05 5.88666E+03-1.93579E+04-3.09183E-09-1.80262E-09
 -1       624 2.81660E+03 3.56965E+05 1.20139E+04-2.48574E+04 1.85764E-10-1.95769E-10
 -1       625 6.57505E+03 3.52075E+05 2.23543E+04-1.94210E+04-2.72848E-09-2.57251E-09
 -1       626 2.60997E+05 7.84387E+04 1.37206E+03 1.52328E+05-2.87127E-09 7.14863E-09
 -1       627 2.56189E+05 8.29453E+04 6.62060E+02 1.58175E+05-8.36735E-11 7.09224E-09
 -1       628 2.61139E+05 7.76182E+04 2.77102E+02 1.52314E+05 9.45511E-09 3.13639E-09
 -1       629 2.55740E+05 8.29929E+04 1.42124E+02 1.58434E+05 6.69479E-09-1.59908E-08
 -1       630 2.61106E+05 7.75965E+04 7.07317E+01 1.52268E+05 5.22050E-09-7.00578E-09
 -1       631 2.55644E+05 8.30258E+04 5.37318E+01 1.58420E+05 5.02223E-09-3.93703E-09
 -1       632 2.61065E+05 7.76160E+04 6.28370E+01 1.52239E+05-2.36832E-09 7.34872E-10
 -1       633 2.55609E+05 8.30412E+04 1.12492E+02 1.58398E+05 2.94312E-09-1.04183E-09
 -1       634 2.61034E+05 7.76195E+04 2.18732E+02 1.52225E+05 4.74120E-09-2.57751E-09
 -1       635 2.55614E+05 8.30467E+04 4.66831E+02 1.58395E+05-5.12682E-09-7.26686E-10
 -1       636 2.61007E+05 7.76205E+04 9.53968E+02 1.52216E+05-6.74129E-09-8.85029E-09
 -1       637 2.55815E+05 8.32149E+04 2.10566E+03 1.58384E+05-1.13289E-09-2.16269E-08
 -1       638 2.60937E+05 7.81329E+04 4.33421E+03 1.51982E+05-3.33557E-10-1.82927E-08
 -1       639 2.58065E+05 8.65122E+04 1.02640E+04 1.57689E+05 7.72161E-10 5.60067E-09
 -1       640 2.60740E+05 8.78778E+04 2.13686E+04 1.47838E+05 1.68802E-09 1.17489E-08
 -1       656 2.57696E+04-7.34350E+05-7.66628E+04 1.06135E+03-2.18279E-09-5.19458E-09
 -1       657-3.45236E+04-7.65949E+05-6.05789E+04 5.44050E+04-1.24237E-08 8.11553E-09
 -1       658 6.90498E+03-7.44218E+05-3.86327E+04 6.76902E+02-1.51624E-09 1.09289E-08
 -1       659-3.64911E+04-7.67045E+05-6.34991E+04 5.46692E+04-6.56973E-09 4.10665E-10
 -1       660 2.76806E+04-7.33317E+05-8.18514E+04 7.97843E+02-3.91810E-09-1.88766E-09
 -1       661 3.18960E+05 4.04628E+04 2.66964E+04 1.24530E+05 4.84761E-09-7.72343E-09
 -1       662 3.26327E+05 5.99145E+04 1.68480E+04 1.26889E+05-4.07675E-09 1.08516E-08
 -1       663 3.23561E+05 4.65512E+04 6.30540E+03 1.23875E+05-8.24173E-10 1.04831E-08
 -1       664 3.21034E+05 5.20130E+04 3.47316E+03 1.28036E+05-1.35706E-08-9.39042E-09
 -1       665 3.24090E+05 4.72041E+04 1.48110E+03 1.23821E+05-8.51850E-09-6.42979E-09
 -1       666 3.20422E+05 5.11924E+04 8.08627E+02 1.28141E+05-6.79893E-09 3.83656E-09
 -1       667 3.24159E+05 4.72677E+04 4.58904E+02 1.23811E+05 6.46139E-09 9.48373E-09
 -1       668 3.20350E+05 5.11387E+04 4.45458E+02 1.28169E+05-5.80104E-09-4.67290E-09
 -1       669 3.24165E+05 4.72484E+04 6.37197E+02 1.23797E+05-4.95277E-09-7.50788E-10
 -1       670 3.20444E+05 5.13064E+04 1.30453E+03 1.28199E+05 1.70740E-08-2.08473E-09
 -1       671 3.24073E+05 4.71072E+04 2.48218E+03 1.23782E+05-1.39835E-11 4.61341E-10
 -1       672 3.21444E+05 5.27529E+04 5.88539E+03 1.28088E+05-7.44126E-09 1.64505E-10
 -1       673 3.23199E+05 4.59710E+04 1.07011E+04 1.23848E+05-4.32470E-09-3.24326E-09
 -1       674 3.30410E+05 6.62126E+04 2.86194E+04 1.26188E+05-5.26748E-09-5.78893E-09
 -1       675 3.15396E+05 3.56136E+04 4.53478E+04 1.24948E+05-1.42109E-09-9.21318E-09
 -1       676 5.21284E+01-4.20603E+05-2.01433E+03 1.74204E+02 8.90412E-09 1.12749E-08
 -1       677-6.19463E+02-4.21140E+05-3.71571E+03-3.47897E+02 1.39059E-08 1.06561E-08
 -1       678 4.40750E+02-4.20232E+05-6.50496E+03 1.73570E+02 1.04760E-08 4.87353E-09
 -1       679-6.98926E+03-4.25154E+05-1.56185E+04-3.46411E+02 7.88805E-09-1.47641E-08
 -1       680 4.62122E+03-4.16593E+05-2.48350E+04 1.70916E+02 6.32099E-09-2.83023E-10
 -1       771-3.20626E+06-6.14539E+05-8.28865E+04-1.37819E+06-4.14730E-09-1.02154E-08
 -1       772-3.18737E+06-6.39981E+05-4.22963E+04-1.42545E+06-6.46833E-09-5.35692E-09
 -1       773-3.21537E+06-5.94643E+05-1.85388E+04-1.38736E+06-1.73168E-09 1.03028E-08
 -1       774-3.17819E+06-6.31115E+05-8.96202E+03-1.43059E+06-6.00994E-09 2.39561E-09
 -1       775-3.21848E+06-5.92408E+05-4.54817E+03-1.38850E+06-1.90630E-09-1.27693E-09
 -1       776-3.17914E+06-6.30649E+05-2.16062E+03-1.43335E+06 4.12547E-09-2.52840E-09
 -1       777-3.22074E+06-5.90980E+05-1.37959E+03-1.38926E+06-7.42148E-10 2.38833E-09
 -1       778-3.18044E+06-6.30435E+05-8.38948E+02-1.43554E+06-6.19184E-09 6.47651E-09
 -1       779-3.22244E+06-5.89827E+05-1.05960E+03-1.38986E+06-2.35741E-09 4.60386E-09
 -1       780-3.18155E+06-6.30276E+05-1.61193E+03-1.43718E+06 4.51109E-10 2.43097E-09
 -1       781-3.22353E+06-5.88972E+05-3.17515E+03-1.39027E+06-3.05954E-09 1.49157E-10
 -1       782-3.18272E+06-6.30448E+05-6.75592E+03-1.43825E+06-5.51699E-09-3.83670E-09
 -1       783-3.22375E+06-5.88848E+05-1.37370E+04-1.39023E+06-5.83896E-10-3.85080E-09
 -1       784-3.19072E+06-6.38215E+05-3.25093E+04-1.43814E+06-8.60018E-09-4.05453E-09
 -1       785-3.21944E+06-6.02202E+05-6.32414E+04-1.38297E+06-2.78533E-09-4.67480E-09
 -1       786 2.72434E+05-1.18393E+04 3.39805E+04 3.58331E+01 6.09873E-10-6.89397E-10
 -1       787 2.86074E+05 1.41003E+04 2.30344E+04-3.73435E+03-6.00153E-10-1.75896E-09
 -1       788 2.77900E+05-1.55394E+03 8.83006E+03 1.68830E+01 5.42343E-10-1.52568E-09
 -1       789 2.79836E+05 1.83772E+03 5.23502E+03-3.70518E+03-8.15206E-11 4.68992E-09
 -1       790 2.78673E+05-2.03979E+02 2.25625E+03 6.80289E+00-4.87184E-10 3.39480E-09
 -1       791 2.78949E+05 2.39144E+02 1.26157E+03-3.69581E+03 6.37307E-10 5.35374E-09
 -1       792 2.78787E+05-2.80447E+01 6.17599E+02 7.51208E+00-1.17666E-10 4.07758E-09
 -1       793 2.78825E+05 4.15869E+01 4.12206E+02-3.70831E+03-5.87193E-11-2.03665E-09
 -1       794 2.78799E+05-1.39128E+01 3.56967E+02 1.93050E+01-7.43796E-11-2.51742E-09
 -1       795 2.78856E+05 9.39915E+01 5.46587E+02-3.74313E+03 1.22128E-09 8.87325E-09
 -1       796 2.78757E+05-7.92030E+01 8.95468E+02 4.23359E+01 2.48008E-10 4.97155E-09
 -1       797 2.79197E+05 7.03755E+02 2.02517E+03-3.79940E+03 2.16255E-09-2.36491E-09
 -1       798 2.78461E+05-5.97529E+02 3.39569E+03 7.55713E+01 1.38454E-09-9.84687E-09
 -1       799 2.81595E+05 5.40926E+03 8.84582E+03-3.87358E+03-3.15504E-09 4.35625E-09
 -1       800 2.76362E+05-4.54635E+03 1.30415E+04 1.16376E+02 1.42495E-09 4.58385E-09
 -1       801-3.65378E+04 2.86131E+05 3.29158E+04-5.10079E+03-1.31949E-08-5.66070E-09
 -1       802 9.57402E+04 3.22929E+05 7.86723E+04-1.84827E+06-3.32802E-08-9.72796E-09
 -1       803-1.01569E+04 3.07931E+05 9.15671E+04-7.32283E+03-1.57997E-08 2.06337E-08
 -1       804 1.92336E+05 3.84732E+05 2.25105E+05-1.84861E+06-3.63107E-08 2.90311E-08
 -1       805-1.33895E+05 2.32792E+05 2.90765E+05-4.91844E+03-3.73984E-09 1.39698E-08
 -1       806-2.81659E+05-7.36928E+04-2.43664E+04-1.30511E+05 7.86713E-10-6.02631E-09
 -1       807-2.81637E+05-6.91109E+04-1.17014E+04-1.38334E+05-4.57931E-10-1.40074E-08
 -1       808-2.81848E+05-6.26358E+04-4.94122E+03-1.35333E+05-2.10605E-09-4.67594E-10
 -1       809-2.79188E+05-6.52539E+04-2.40002E+03-1.39048E+05-4.25644E-10-1.14414E-09
 -1       810-2.81932E+05-6.20513E+04-1.09024E+03-1.35615E+05-2.57194E-09 5.84714E-09
 -1       811-2.78969E+05-6.50532E+04-5.39821E+02-1.39050E+05-1.18689E-09 6.67114E-10
 -1       812-2.81948E+05-6.20582E+04-2.68312E+02-1.35619E+05-2.73303E-10-7.64749E-09
 -1       813-2.78936E+05-6.50565E+04-1.68766E+02-1.39033E+05 7.94898E-10-1.00954E-10
 -1       814-2.81938E+05-6.20708E+04-1.57677E+02-1.35611E+05-1.65528E-10-3.38332E-09
 -1       815-2.78932E+05-6.50650E+04-2.46554E+02-1.39021E+05 1.52431E-09 8.94261E-09
 -1       816-2.81910E+05-6.20822E+04-4.62490E+02-1.35598E+05-1.34605E-10-2.43017E-09
 -1       817-2.79013E+05-6.51429E+04-9.98643E+02-1.38986E+05-9.82254E-10 9.79162E-09
 -1       818-2.81843E+05-6.23509E+04-2.04948E+03-1.35483E+05-7.05768E-10 3.29783E-09
 -1       819-2.80130E+05-6.66181E+04-4.84379E+03-1.38524E+05-1.67574E-09-5.58612E-09
 -1       820-2.81623E+05-6.70449E+04-1.00863E+04-1.33604E+05-2.93676E-09-9.79435E-09
 -1       821-3.74174E+05 1.61461E+04-4.63380E+04-2.63120E+02-3.80714E-09-7.65795E-10
 -1       822-3.92746E+05-1.92291E+04-3.14129E+04 5.88852E+03-1.17382E-09-5.79348E-09
 -1       823-3.81624E+05 2.11585E+03-1.20482E+04-3.88302E+02 2.79647E-09 2.16460E-09
 -1       824-3.84254E+05-2.49568E+03-7.14933E+03 6.10371E+03-5.90944E-10-4.78826E-09
 -1       825-3.82675E+05 2.76097E+02-3.10514E+03-4.78759E+02-7.30859E-09-1.07900E-09
 -1       826-3.83061E+05-3.13300E+02-1.77749E+03 6.25685E+03-1.34038E-08 7.76330E-09
 -1       827-3.82826E+05 3.96183E+01-9.56765E+02-5.41578E+02-6.48294E-09 9.21659E-10
 -1       828-3.82916E+05-6.31598E+01-8.03876E+02 6.35486E+03-1.21624E-08-1.86925E-09
 -1       829-3.82825E+05 3.96756E+01-9.46059E+02-5.76806E+02 3.55811E-10 6.22484E-09
 -1       830-3.83069E+05-3.03900E+02-1.75066E+03 6.39641E+03 4.62421E-09-2.08311E-09
 -1       831-3.82676E+05 2.73054E+02-3.05050E+03-5.83114E+02-2.74534E-09-6.07179E-09
 -1       832-3.84252E+05-2.44435E+03-7.02634E+03 6.38114E+03-4.52746E-09-1.53489E-09
 -1       833-3.81642E+05 2.08165E+03-1.18339E+04-5.61385E+02 2.05745E-09-7.31688E-09
 -1       834-3.92606E+05-1.88813E+04-3.08634E+04 6.31127E+03-3.86532E-09-9.56970E-09
 -1       835-3.74321E+05 1.58668E+04-4.55189E+04-5.12216E+02 4.94492E-09-4.13820E-09
 -1       836-1.06166E+03 4.49731E+05 3.35640E+04-3.48712E+04-3.72893E-10-7.94353E-09
 -1       837 6.77899E+03 4.59769E+05 2.61602E+04-6.54197E+04-1.72531E-09 5.58862E-09
 -1       838-3.86281E+02 4.52991E+05 2.41253E+04-3.47724E+04-7.93079E-10-1.22452E-09
 -1       839 1.33274E+04 4.64856E+05 4.26341E+04-6.54383E+04-2.12822E-09-4.46090E-09
 -1       840-2.24026E+03 4.44600E+05 6.76074E+04-3.48486E+04-8.91305E-10 6.86214E-10
 -1       856-2.62220E+05 8.28748E+03-3.60111E+04 4.68035E+03-5.33737E-09-1.72076E-09
 -1       857-2.75192E+05-1.12433E+04-2.30502E+04 1.94029E+04-5.46879E-09-2.04818E-09
 -1       858-2.67657E+05 8.59456E+02-9.33176E+03 4.58835E+03-9.22637E-09-6.11044E-09
 -1       859-2.69191E+05-1.04187E+03-5.20187E+03 1.95247E+04-8.29118E-10-1.37984E-08
 -1       860-2.68277E+05 1.08175E+02-2.36517E+03 4.55606E+03 6.88397E-09-1.44283E-08
 -1       861-2.68520E+05-2.78914E+01-1.25962E+03 1.95685E+04-5.45788E-09-1.17237E-08
 -1       862-2.68359E+05 3.15729E+01-6.30943E+02 4.54414E+03 1.10744E-08-6.33020E-09
 -1       863-2.68437E+05 6.93545E+01-3.91091E+02 1.95764E+04 2.19321E-08 2.08354E-09
 -1       864-2.68367E+05 2.36933E+01-3.20484E+02 4.54803E+03 9.06516E-09-4.97320E-09
 -1       865-2.68435E+05 4.37542E+01-4.40092E+02 1.95515E+04 1.33791E-08-3.95715E-10
 -1       866-2.68341E+05 3.99281E+01-7.35569E+02 4.56915E+03-3.38559E-10 2.58746E-09
 -1       867-2.68605E+05-2.66213E+02-1.55532E+03 1.94911E+04-4.72346E-09 3.14039E-09
 -1       868-2.68152E+05 2.53147E+02-2.77667E+03 4.60865E+03 5.93036E-09 1.19053E-09
 -1       869-2.70341E+05-3.29981E+03-6.82521E+03 1.93425E+04-2.64663E-10-4.92767E-09
 -1       870-2.66536E+05 2.43793E+03-1.06758E+04 4.71841E+03 8.25139E-09-5.34419E-09
 -1       871-5.48442E+03-3.80378E+04-1.55216E+04 1.50097E+05-8.12361E-09 3.31966E-09
 -1       872-2.31341E+03-4.14448E+04-5.80567E+03 1.91541E+05-4.69936E-09-8.11633E-09
 -1       873-1.69125E+02-4.00311E+04 2.04485E+03 1.49773E+05-5.86579E-09-9.30868E-10
 -1       874 2.84717E+03-3.71546E+04 1.14070E+04 1.91622E+05-4.26917E-09 6.32008E-09
 -1       875 7.51661E+03-4.25119E+04 2.46211E+04 1.50038E+05-4.94219E-09 2.03909E-09
 -1       876 4.06669E+05 6.33772E+04 3.17194E+04 1.62156E+05-2.17881E-09-5.24778E-09
 -1       877 4.11646E+05 7.57994E+04 1.80443E+04 1.68483E+05 8.65975E-09-1.33548E-08
 -1       878 4.10705E+05 6.45821E+04 7.32081E+03 1.63303E+05 1.11850E-08-1.19603E-08
 -1       879 4.06638E+05 6.99809E+04 3.72616E+03 1.68919E+05 1.78825E-08-8.67965E-09
 -1       880 4.11015E+05 6.47368E+04 1.69398E+03 1.63385E+05 1.15003E-08 6.48356E-10
 -1       881 4.06254E+05 6.96166E+04 8.82793E+02 1.68883E+05 5.71515E-09-8.84484E-11
 -1       882 4.11041E+05 6.47690E+04 5.10197E+02 1.63395E+05 6.45741E-09 8.82920E-10
 -1       883 4.06225E+05 6.95899E+04 4.69442E+02 1.68864E+05 4.41725E-09-4.54145E-09
 -1       884 4.11033E+05 6.47705E+04 6.71494E+02 1.63396E+05 3.21205E-09-5.25858E-10
 -1       885 4.06287E+05 6.96211E+04 1.31088E+03 1.68873E+05 2.70838E-09-1.17439E-10
 -1       886 4.10976E+05 6.47328E+04 2.60198E+03 1.63386E+05-5.90109E-09-1.04551E-08
 -1       887 4.06890E+05 7.01751E+04 5.76664E+03 1.68902E+05-4.12206E-09-2.98860E-09
 -1       888 4.10478E+05 6.45049E+04 1.13511E+04 1.63262E+05 1.09259E-09 1.98725E-09
 -1       889 4.14612E+05 7.92370E+04 2.79844E+04 1.68252E+05-3.52742E-10 1.09758E-08
 -1       890 4.04250E+05 6.26029E+04 4.92016E+04 1.61430E+05 7.34235E-09 7.64703E-09
 -1       891 3.80302E+02-2.23304E+05-7.52460E+03 3.94058E+04 3.70505E-09-5.79348E-10
 -1       892-1.75825E+03-2.25555E+05-5.90747E+03 7.93810E+04-2.61571E-09 5.71436E-09
 -1       893 5.67019E+01-2.24043E+05-5.38967E+03 3.93463E+04 3.09956E-09 2.25555E-10
 -1       894-3.34038E+03-2.26596E+05-9.56885E+03 7.92518E+04 3.73075E-09-8.18727E-09
 -1       895 7.91121E+02-2.22056E+05-1.50135E+04 3.95323E+04-1.51340E-09-1.81990E-09
 -1       956-4.06702E+05-7.11871E+03-1.70303E+04 4.15270E+04-2.12276E-09 1.33787E-09
 -1       957-4.10014E+05-2.31811E+03-8.69840E+03 4.95283E+04 4.11728E-09 6.75300E-10
 -1       958-4.08218E+05-1.80888E+02-3.91965E+03 4.12660E+04 6.31007E-09-4.50518E-09
 -1       959-4.08516E+05 1.96513E+01-1.99745E+03 4.98115E+04-1.86901E-09 7.70342E-10
 -1       960-4.08388E+05 1.08442E+02-9.71462E+02 4.12389E+04-5.58066E-09 1.59707E-09
 -1       961-4.08435E+05 1.29597E+02-5.08713E+02 4.98426E+04-1.27457E-08-3.37695E-09
 -1       962-4.08438E+05 1.16916E+02-2.80669E+02 4.12341E+04-3.94448E-09 3.28828E-09
 -1       963-4.08449E+05 1.42424E+02-2.05777E+02 4.98490E+04-8.27436E-09 1.70849E-09
 -1       964-4.08456E+05 1.25382E+02-2.26738E+02 4.12323E+04-3.76281E-09-2.89492E-09
 -1       965-4.08468E+05 1.49256E+02-3.72609E+02 4.98493E+04 7.53796E-09 9.11677E-09
 -1       966-4.08444E+05 1.33337E+02-6.89433E+02 4.12338E+04-4.39445E-09-1.40062E-09
 -1       967-4.08549E+05 8.51061E+01-1.40938E+03 4.98323E+04 1.69371E-09 9.60699E-09
 -1       968-4.08342E+05-5.93594E+01-2.75948E+03 4.12498E+04 6.62112E-10-2.44768E-09
 -1       969-4.09623E+05-1.55292E+03-6.12646E+03 4.96569E+04 2.21735E-09-1.05621E-08
 -1       970-4.07284E+05-4.94191E+03-1.19925E+04 4.14160E+04 4.22096E-09 1.56797E-09
 -1       971-4.84663E+05-1.96551E+02-1.87278E+04 1.41190E+04-8.59472E-09 1.99225E-09
 -1       972-4.90024E+05-3.23411E+03-1.08191E+04 2.47249E+04-4.01224E-09 6.68479E-10
 -1       973-4.87072E+05 6.84724E+01-4.72248E+03 1.39548E+04-6.10089E-09-2.46041E-09
 -1       974-4.87508E+05-9.86148E+01-2.47990E+03 2.49138E+04-5.68798E-09-2.86718E-10
 -1       975-4.87275E+05 5.73928E+01-1.21424E+03 1.39267E+04-3.23644E-09-7.56495E-09
 -1       976-4.87339E+05 8.28184E+01-6.77156E+02 2.49545E+04-4.66912E-09-8.29277E-09
 -1       977-4.87310E+05 5.84697E+01-4.47218E+02 1.39136E+04 9.56902E-09-4.88546E-09
 -1       978-4.87342E+05 9.96787E+01-4.64246E+02 2.49730E+04 2.21506E-08-5.03144E-09
 -1       979-4.87311E+05 6.72654E+01-6.95740E+02 1.39080E+04 9.23751E-09-6.08441E-09
 -1       980-4.87398E+05 8.65738E+01-1.31674E+03 2.49763E+04 1.11478E-08-8.56807E-09
 -1       981-4.87262E+05 9.11422E+01-2.52621E+03 1.39103E+04 5.55860E-09-1.93926E-09
 -1       982-4.87823E+05-2.70250E+02-5.27038E+03 2.49607E+04-6.40398E-10 3.69386E-09
 -1       983-4.86864E+05 1.46061E+02-1.00721E+04 1.39243E+04 7.78937E-09-3.85671E-09
 -1       984-4.93287E+05-6.94160E+03-2.31326E+04 2.48415E+04-7.45558E-10-3.58159E-09
 -1       985-4.81750E+05-3.82800E+02-4.00294E+04 1.40403E+04 8.92351E-09-1.14960E-08
 -3
    1PSTEP                        11           6           1          
  100CL  106 9.68750E-01         409                     0    6           1
 -4  DISP        4    1
 -5  D1          1    2    1    0
 -5  D2          1    2    2    0
 -5  D3          1    2    3    0
 -5  ALL         1    2    0    0    1ALL
 -1         1 1.94799E-04 0.00000E+00 0.00000E+00
 -1         2 1.80818E-04 1.27479E-30 0.00000E+00
 -1         3 1.47588E-04-3.52516E-28-1.32349E-23
 -1         5 1.04943E-04-3.84582E-27 6.61744E-24
 -1         8 1.57882E-04-1.63007E-06 0.00000E+00
 -1         9 1.30995E-04-1.37215E-06 0.00000E+00
 -1        10 1.35688E-04-2.92615E-06 6.61744E-24
 -1        12 1.03803E-04 1.12224E-06 0.00000E+00
 -1        15 1.16353E-04-1.81386E-06-4.13590E-25
 -1        16 9.67659E-05-1.61995E-06 0.00000E+00
 -1        17 9.85139E-05-6.20001E-06 0.00000E+00
 -1        18 9.83429E-05-1.13360E-07 0.00000E+00
 -1        19 1.00382E-04 2.23734E-06 0.00000E+00
 -1        20 1.00954E-04 2.84250E-05 0.00000E+00
 -1        21 9.89401E-05 6.04411E-05 6.61744E-24
 -1        24 3.00973E-05-8.04435E-06 0.00000E+00
 -1        25 9.42067E-05 1.99256E-07 0.00000E+00
 -1        26 9.59175E-05 3.05138E-06 0.00000E+00
 -1        27 9.35587E-05 2.67286E-05 0.00000E+00
 -1        28 9.18784E-05 5.94680E-05 0.00000E+00
 -1        32 0.00000E+00 0.00000E+00 0.00000E+00
 -1        33 9.03364E-05 4.07461E-06 0.00000E+00
 -1        34 8.78020E-05 2.66293E-05 0.00000E+00
 -1        35 8.47714E-05 5.89495E-05 0.00000E+00
 -1        51 1.92180E-04-2.65678E-07 0.00000E+00
 -1        52 1.87642E-04-5.25517E-07 0.00000E+00
 -1        53 1.81554E-04-7.88296E-07 0.00000E+00
 -1        54 1.74305E-04-1.05715E-06 0.00000E+00
 -1        55 1.66284E-04-1.33399E-06-8.27181E-24
 -1        56 1.95291E-04-1.01290E-05 5.29396E-23
 -1        57 2.01871E-04-3.76981E-05 2.64698E-23
 -1        58 2.12853E-04-7.81549E-05 1.05879E-22
 -1        59 2.26206E-04-1.25883E-04 0.00000E+00
 -1        60 2.39582E-04-1.73681E-04-1.05879E-22
 -1        61 2.50609E-04-2.14350E-04-5.29396E-23
 -1        62 2.57283E-04-2.42239E-04 0.00000E+00
 -1        63 2.57791E-04-2.52785E-04-5.29396E-23
 -1        64 2.51478E-04-2.45126E-04 0.00000E+00
 -1        65 2.38227E-04-2.19876E-04-5.29396E-23
 -1        66 2.19508E-04-1.81306E-04 0.00000E+00
 -1        67 1.97384E-04-1.34696E-04 0.00000E+00
 -1        68 1.74782E-04-8.69659E-05 0.00000E+00
 -1        69 1.54705E-04-4.51102E-05 0.00000E+00
 -1        70 1.39476E-04-1.49527E-05 5.29396E-23
 -1        86 1.78389E-04-1.89726E-07 6.61744E-24
 -1        87 1.71124E-04-4.02543E-07 3.30872E-24
 -1        88 1.60781E-04-6.40417E-07 0.00000E+00
 -1        89 1.49148E-04-8.95218E-07 0.00000E+00
 -1        90 1.38472E-04-1.13900E-06-1.32349E-23
 -1       121 1.47254E-04-4.85046E-07 0.00000E+00
 -1       122 1.46252E-04-9.70531E-07-6.61744E-24
 -1       123 1.44587E-04-1.45688E-06 0.00000E+00
 -1       124 1.42265E-04-1.94461E-06-6.61744E-24
 -1       125 1.39295E-04-2.43396E-06 0.00000E+00
 -1       191 1.04911E-04 1.87071E-07 0.00000E+00
 -1       192 1.04816E-04 3.74135E-07-3.30872E-24
 -1       193 1.04658E-04 5.61192E-07 0.00000E+00
 -1       194 1.04436E-04 7.48235E-07 9.92617E-24
 -1       195 1.04151E-04 9.35255E-07 0.00000E+00
 -1       251 1.57394E-04-1.30696E-05 0.00000E+00
 -1       252 1.55894E-04-6.07967E-05 0.00000E+00
 -1       253 1.53840E-04-1.20194E-04 0.00000E+00
 -1       254 1.52458E-04-1.66472E-04 6.61744E-24
 -1       255 1.51880E-04-1.83605E-04 0.00000E+00
 -1       256 1.51081E-04-1.56079E-04 0.00000E+00
 -1       257 1.48767E-04-9.26009E-05 0.00000E+00
 -1       258 1.44484E-04-2.51264E-06 6.61744E-24
 -1       259 1.40179E-04 8.78338E-05 0.00000E+00
 -1       260 1.37820E-04 1.52080E-04 6.61744E-24
 -1       261 1.36994E-04 1.80597E-04 1.32349E-23
 -1       262 1.36430E-04 1.64387E-04 0.00000E+00
 -1       263 1.35073E-04 1.18682E-04 1.32349E-23
 -1       264 1.33016E-04 5.92327E-05 6.61744E-24
 -1       265 1.31491E-04 1.09608E-05 0.00000E+00
 -1       266 1.50961E-04-1.68357E-06 0.00000E+00
 -1       267 1.44039E-04-1.71141E-06-3.30872E-24
 -1       268 1.37118E-04-1.74090E-06 3.30872E-24
 -1       269 1.30196E-04-1.76554E-06 0.00000E+00
 -1       270 1.23274E-04-1.79009E-06 0.00000E+00
 -1       271 1.52299E-04 3.37124E-06 0.00000E+00
 -1       272 1.47142E-04 6.90871E-06 5.29396E-23
 -1       273 1.42534E-04 9.01288E-06-1.05879E-22
 -1       274 1.38429E-04 9.73120E-06-5.29396E-23
 -1       275 1.34791E-04 9.20583E-06-1.05879E-22
 -1       276 1.31543E-04 7.63254E-06 5.29396E-23
 -1       277 1.28590E-04 5.26979E-06 1.05879E-22
 -1       278 1.25821E-04 2.41367E-06 0.00000E+00
 -1       279 1.23114E-04-6.10754E-07 0.00000E+00
 -1       280 1.20346E-04-3.47010E-06 5.29396E-23
 -1       281 1.17396E-04-5.84108E-06 0.00000E+00
 -1       282 1.14154E-04-7.42358E-06 5.29396E-23
 -1       283 1.10522E-04-7.96448E-06 1.05879E-22
 -1       284 1.06437E-04-7.25593E-06 0.00000E+00
 -1       285 1.01828E-04-5.17415E-06-5.29396E-23
 -1       301 1.25154E-04-1.42495E-06 0.00000E+00
 -1       302 1.19362E-04-1.45188E-06 0.00000E+00
 -1       303 1.13623E-04-1.47641E-06 0.00000E+00
 -1       304 1.07941E-04-1.50328E-06 0.00000E+00
 -1       305 1.02321E-04-1.53654E-06 0.00000E+00
 -1       306 1.27348E-04 2.77146E-06-5.29396E-23
 -1       307 1.24392E-04 4.93330E-06 0.00000E+00
 -1       308 1.22114E-04 5.30170E-06-5.29396E-23
 -1       309 1.20417E-04 4.09836E-06-2.64698E-23
 -1       310 1.19196E-04 1.62064E-06-5.29396E-23
 -1       311 1.18324E-04-1.79649E-06 0.00000E+00
 -1       312 1.17660E-04-5.77579E-06-5.29396E-23
 -1       313 1.17058E-04-9.92258E-06-2.64698E-23
 -1       314 1.16368E-04-1.38344E-05 0.00000E+00
 -1       315 1.15445E-04-1.71165E-05 2.64698E-23
 -1       316 1.14151E-04-1.94021E-05 0.00000E+00
 -1       317 1.12360E-04-2.03559E-05-2.64698E-23
 -1       318 1.09966E-04-1.97021E-05 0.00000E+00
 -1       319 1.06892E-04-1.72124E-05 0.00000E+00
 -1       320 1.03063E-04-1.27471E-05-2.64698E-23
 -1       336 1.31367E-04-3.46289E-06 0.00000E+00
 -1       337 1.26259E-04-4.00394E-06 6.61744E-24
 -1       338 1.20389E-04-4.54881E-06-1.32349E-23
 -1       339 1.13786E-04-5.09699E-06 0.00000E+00
 -1       340 1.06482E-04-5.65001E-06 1.32349E-23
 -1       406 1.03391E-04 1.30919E-06 0.00000E+00
 -1       407 1.02916E-04 1.49604E-06-3.30872E-24
 -1       408 1.02377E-04 1.68273E-06 0.00000E+00
 -1       409 1.01775E-04 1.86902E-06 0.00000E+00
 -1       410 1.01110E-04 2.05451E-06 6.61744E-24
 -1       521 9.13769E-05 1.55112E-06 0.00000E+00
 -1       522 8.66076E-05 2.75432E-06 0.00000E+00
 -1       523 8.25432E-05 2.10302E-06 0.00000E+00
 -1       524 7.90857E-05-2.21351E-07-5.29396E-23
 -1       525 7.61239E-05-3.87670E-06 0.00000E+00
 -1       526 7.34974E-05-8.44237E-06 0.00000E+00
 -1       527 7.10219E-05-1.34158E-05 0.00000E+00
 -1       528 6.85012E-05-1.82694E-05 0.00000E+00
 -1       529 6.57436E-05-2.24857E-05 1.05879E-22
 -1       530 6.25717E-05-2.55883E-05-5.29396E-23
 -1       531 5.88422E-05-2.71992E-05 0.00000E+00
 -1       532 5.44493E-05-2.70353E-05-5.29396E-23
 -1       533 4.93395E-05-2.49706E-05-1.05879E-22
 -1       534 4.35241E-05-2.09940E-05 0.00000E+00
 -1       535 3.70374E-05-1.52755E-05 0.00000E+00
 -1       536 9.84660E-05 1.13479E-06 6.61744E-24
 -1       537 9.84429E-05 6.68151E-06 0.00000E+00
 -1       538 9.84267E-05 1.06238E-05 0.00000E+00
 -1       539 9.84172E-05 1.31461E-05 0.00000E+00
 -1       540 9.84103E-05 1.44327E-05 8.27181E-25
 -1       541 9.84046E-05 1.46681E-05 2.06795E-25
 -1       542 9.83990E-05 1.40372E-05-4.13590E-25
 -1       543 9.83927E-05 1.27248E-05 0.00000E+00
 -1       544 9.83859E-05 1.09157E-05 0.00000E+00
 -1       545 9.83784E-05 8.79496E-06 0.00000E+00
 -1       546 9.83708E-05 6.54760E-06 0.00000E+00
 -1       547 9.83633E-05 4.35867E-06-1.93870E-26
 -1       548 9.83564E-05 2.41314E-06 0.00000E+00
 -1       549 9.83505E-05 8.96028E-07-2.06795E-25
 -1       550 9.83453E-05-7.69992E-09 0.00000E+00
 -1       551 8.84337E-05-6.48738E-06 6.61744E-24
 -1       552 7.70966E-05-6.78202E-06 2.48154E-24
 -1       553 6.50445E-05-7.08443E-06 0.00000E+00
 -1       554 5.28280E-05-7.39245E-06 0.00000E+00
 -1       555 4.09975E-05-7.70255E-06 0.00000E+00
 -1       556 9.56963E-05 8.85885E-07 0.00000E+00
 -1       557 9.35243E-05 6.31543E-06 1.32349E-23
 -1       558 9.19262E-05 1.02413E-05 0.00000E+00
 -1       559 9.08367E-05 1.28289E-05 0.00000E+00
 -1       560 9.01904E-05 1.42435E-05 0.00000E+00
 -1       561 8.99233E-05 1.46519E-05 0.00000E+00
 -1       562 8.99715E-05 1.42208E-05 0.00000E+00
 -1       563 9.02715E-05 1.31174E-05 0.00000E+00
 -1       564 9.07603E-05 1.15093E-05 0.00000E+00
 -1       565 9.13752E-05 9.56391E-06 0.00000E+00
 -1       566 9.20533E-05 7.44909E-06 3.30872E-24
 -1       567 9.27321E-05 5.33260E-06-1.65436E-24
 -1       568 9.33490E-05 3.38217E-06 1.65436E-24
 -1       569 9.38416E-05 1.76537E-06-1.65436E-24
 -1       570 9.41472E-05 6.49681E-07 0.00000E+00
 -1       571 9.84662E-05 1.12178E-07-2.48154E-24
 -1       572 9.85925E-05 2.55500E-07-1.24077E-24
 -1       573 9.87197E-05 3.31258E-07-1.65436E-24
 -1       574 9.88474E-05 3.54874E-07 8.27181E-25
 -1       575 9.89753E-05 3.41831E-07-3.30872E-24
 -1       576 9.91032E-05 3.07718E-07-1.65436E-24
 -1       577 9.92311E-05 2.68130E-07 0.00000E+00
 -1       578 9.93591E-05 2.38677E-07 0.00000E+00
 -1       579 9.94870E-05 2.34968E-07-6.61744E-24
 -1       580 9.96150E-05 2.72616E-07 0.00000E+00
 -1       581 9.97429E-05 3.67232E-07 6.61744E-24
 -1       582 9.98709E-05 5.34410E-07 0.00000E+00
 -1       583 9.99988E-05 7.89736E-07 6.61744E-24
 -1       584 1.00127E-04 1.14864E-06 0.00000E+00
 -1       585 1.00254E-04 1.62645E-06 6.61744E-24
 -1       586 9.76961E-05-5.96622E-08 3.30872E-24
 -1       587 9.69603E-05-6.18107E-09 0.00000E+00
 -1       588 9.61891E-05 4.70830E-08-1.65436E-24
 -1       589 9.54370E-05 9.98119E-08 0.00000E+00
 -1       590 9.47584E-05 1.51491E-07 0.00000E+00
 -1       591 9.81702E-05 1.58688E-07 0.00000E+00
 -1       592 9.80156E-05 3.65416E-07-8.27181E-25
 -1       593 9.78799E-05 5.19829E-07-1.65436E-24
 -1       594 9.77588E-05 6.33533E-07 0.00000E+00
 -1       595 9.76485E-05 7.18221E-07 0.00000E+00
 -1       596 9.75445E-05 7.85499E-07-8.27181E-25
 -1       597 9.74426E-05 8.46962E-07 1.65436E-24
 -1       598 9.73386E-05 9.14195E-07 0.00000E+00
 -1       599 9.72281E-05 9.98783E-07 0.00000E+00
 -1       600 9.71067E-05 1.11231E-06 8.27181E-25
 -1       601 9.69702E-05 1.26634E-06 1.65436E-24
 -1       602 9.68142E-05 1.47248E-06 0.00000E+00
 -1       603 9.66345E-05 1.74231E-06-8.27181E-25
 -1       604 9.64272E-05 2.08749E-06 6.20385E-25
 -1       605 9.61880E-05 2.51959E-06 0.00000E+00
 -1       606 1.00424E-04 3.11087E-06 0.00000E+00
 -1       607 1.00462E-04 4.13151E-06 0.00000E+00
 -1       608 1.00498E-04 5.29055E-06 0.00000E+00
 -1       609 1.00535E-04 6.57818E-06 0.00000E+00
 -1       610 1.00570E-04 7.98453E-06 0.00000E+00
 -1       611 1.00606E-04 9.49961E-06 0.00000E+00
 -1       612 1.00641E-04 1.11134E-05 0.00000E+00
 -1       613 1.00677E-04 1.28158E-05-1.65436E-24
 -1       614 1.00712E-04 1.45969E-05 0.00000E+00
 -1       615 1.00747E-04 1.64466E-05 0.00000E+00
 -1       616 1.00782E-04 1.83550E-05 0.00000E+00
 -1       617 1.00816E-04 2.03119E-05 0.00000E+00
 -1       618 1.00851E-04 2.23073E-05 0.00000E+00
 -1       619 1.00886E-04 2.43314E-05 0.00000E+00
 -1       620 1.00920E-04 2.63739E-05 0.00000E+00
 -1       621 9.95999E-05 2.37367E-06 3.30872E-24
 -1       622 9.88188E-05 2.51042E-06 1.65436E-24
 -1       623 9.80493E-05 2.64711E-06 0.00000E+00
 -1       624 9.73021E-05 2.78346E-06 1.65436E-24
 -1       625 9.65880E-05 2.91928E-06 3.30872E-24
 -1       626 1.00178E-04 3.17791E-06-6.61744E-24
 -1       627 9.99174E-05 4.26846E-06 0.00000E+00
 -1       628 9.96061E-05 5.49471E-06 0.00000E+00
 -1       629 9.92496E-05 6.84125E-06 0.00000E+00
 -1       630 9.88536E-05 8.29265E-06 0.00000E+00
 -1       631 9.84241E-05 9.83334E-06 0.00000E+00
 -1       632 9.79667E-05 1.14478E-05 0.00000E+00
 -1       633 9.74874E-05 1.31204E-05 0.00000E+00
 -1       634 9.69921E-05 1.48356E-05-6.61744E-24
 -1       635 9.64865E-05 1.65779E-05 0.00000E+00
 -1       636 9.59766E-05 1.83317E-05-3.30872E-24
 -1       637 9.54681E-05 2.00816E-05 0.00000E+00
 -1       638 9.49668E-05 2.18117E-05 0.00000E+00
 -1       639 9.44784E-05 2.35068E-05-8.27181E-25
 -1       640 9.40081E-05 2.51511E-05 1.65436E-24
 -1       656 9.92035E-05 2.81493E-05 0.00000E+00
 -1       657 9.78820E-05 2.78618E-05 3.30872E-24
 -1       658 9.68240E-05 2.75755E-05-6.61744E-24
 -1       659 9.58625E-05 2.72894E-05 0.00000E+00
 -1       660 9.48298E-05 2.70024E-05 0.00000E+00
 -1       661 1.00323E-04 3.05189E-05 0.00000E+00
 -1       662 9.96819E-05 3.26582E-05 0.00000E+00
 -1       663 9.90289E-05 3.48270E-05 0.00000E+00
 -1       664 9.83706E-05 3.70122E-05 1.65436E-24
 -1       665 9.77116E-05 3.91997E-05 0.00000E+00
 -1       666 9.70569E-05 4.13759E-05 0.00000E+00
 -1       667 9.64117E-05 4.35271E-05 0.00000E+00
 -1       668 9.57812E-05 4.56397E-05 0.00000E+00
 -1       669 9.51704E-05 4.76997E-05 0.00000E+00
 -1       670 9.45846E-05 4.96934E-05-1.65436E-24
 -1       671 9.40290E-05 5.16068E-05 3.30872E-24
 -1       672 9.35088E-05 5.34258E-05 1.65436E-24
 -1       673 9.30293E-05 5.51362E-05 0.00000E+00
 -1       674 9.25948E-05 5.67234E-05 0.00000E+00
 -1       675 9.22123E-05 5.81733E-05 0.00000E+00
 -1       676 9.77556E-05 6.02777E-05-6.61744E-24
 -1       677 9.65725E-05 6.01144E-05 0.00000E+00
 -1       678 9.53919E-05 5.99512E-05 3.30872E-24
 -1       679 9.42152E-05 5.97887E-05 0.00000E+00
 -1       680 9.30436E-05 5.96261E-05-3.30872E-24
 -1       771 2.54730E-05-2.66352E-07 0.00000E+00
 -1       772 2.13966E-05 6.03991E-06-2.64698E-23
 -1       773 1.78435E-05 1.09708E-05 0.00000E+00
 -1       774 1.47728E-05 1.46297E-05 0.00000E+00
 -1       775 1.21441E-05 1.71220E-05 0.00000E+00
 -1       776 9.91496E-06 1.85566E-05 2.64698E-23
 -1       777 8.04268E-06 1.90442E-05 0.00000E+00
 -1       778 6.48376E-06 1.86982E-05 0.00000E+00
 -1       779 5.19451E-06 1.76335E-05 0.00000E+00
 -1       780 4.13066E-06 1.59667E-05 2.64698E-23
 -1       781 3.24787E-06 1.38159E-05 0.00000E+00
 -1       782 2.50150E-06 1.13003E-05 2.64698E-23
 -1       783 1.84689E-06 8.53986E-06 0.00000E+00
 -1       784 1.23986E-06 5.65533E-06 0.00000E+00
 -1       785 6.35723E-07 2.76760E-06 0.00000E+00
 -1       786 9.43074E-05 4.01671E-07-8.27181E-25
 -1       787 9.44141E-05 5.46103E-07 8.27181E-25
 -1       788 9.45205E-05 6.44413E-07-3.30872E-24
 -1       789 9.46280E-05 7.08379E-07 0.00000E+00
 -1       790 9.47356E-05 7.49679E-07-3.30872E-24
 -1       791 9.48433E-05 7.79944E-07 0.00000E+00
 -1       792 9.49511E-05 8.10774E-07-3.30872E-24
 -1       793 9.50590E-05 8.53770E-07 0.00000E+00
 -1       794 9.51668E-05 9.20568E-07 0.00000E+00
 -1       795 9.52747E-05 1.02285E-06 0.00000E+00
 -1       796 9.53825E-05 1.17241E-06 0.00000E+00
 -1       797 9.54902E-05 1.38113E-06 1.65436E-24
 -1       798 9.55979E-05 1.66108E-06-3.30872E-24
 -1       799 9.57052E-05 2.02443E-06 0.00000E+00
 -1       800 9.58125E-05 2.48366E-06 3.30872E-24
 -1       801 8.68927E-05 2.83986E-07 0.00000E+00
 -1       802 6.87908E-05 2.49266E-07-8.27181E-25
 -1       803 4.54803E-05 1.19476E-07 0.00000E+00
 -1       804 2.25301E-05-1.09422E-08-3.30872E-24
 -1       805 5.50846E-06-3.61241E-08 0.00000E+00
 -1       806 9.40083E-05 3.40929E-07 3.30872E-24
 -1       807 9.38159E-05 4.54302E-07 1.65436E-24
 -1       808 9.36293E-05 5.49014E-07 0.00000E+00
 -1       809 9.34459E-05 6.33927E-07-1.65436E-24
 -1       810 9.32627E-05 7.17867E-07 0.00000E+00
 -1       811 9.30765E-05 8.09588E-07 0.00000E+00
 -1       812 9.28840E-05 9.17837E-07 0.00000E+00
 -1       813 9.26820E-05 1.05135E-06 1.65436E-24
 -1       814 9.24673E-05 1.21885E-06 0.00000E+00
 -1       815 9.22366E-05 1.42908E-06 1.65436E-24
 -1       816 9.19865E-05 1.69074E-06 0.00000E+00
 -1       817 9.17139E-05 2.01256E-06 8.27181E-25
 -1       818 9.14156E-05 2.40324E-06-1.65436E-24
 -1       819 9.10883E-05 2.87143E-06 8.27181E-25
 -1       820 9.07291E-05 3.42579E-06 1.65436E-24
 -1       821 9.57789E-05 3.77968E-06 1.65436E-24
 -1       822 9.56319E-05 4.70233E-06 1.65436E-24
 -1       823 9.54852E-05 5.80055E-06 0.00000E+00
 -1       824 9.53368E-05 7.05500E-06 1.65436E-24
 -1       825 9.51882E-05 8.44577E-06 3.30872E-24
 -1       826 9.50391E-05 9.95253E-06-1.65436E-24
 -1       827 9.48898E-05 1.15545E-05-3.30872E-24
 -1       828 9.47404E-05 1.32305E-05 1.65436E-24
 -1       829 9.45909E-05 1.49594E-05 0.00000E+00
 -1       830 9.44414E-05 1.67196E-05 0.00000E+00
 -1       831 9.42919E-05 1.84894E-05 3.30872E-24
 -1       832 9.41427E-05 2.02472E-05 1.65436E-24
 -1       833 9.39937E-05 2.19714E-05 0.00000E+00
 -1       834 9.38461E-05 2.36406E-05 0.00000E+00
 -1       835 9.36983E-05 2.52333E-05 0.00000E+00
 -1       836 9.51553E-05 3.22037E-06-3.30872E-24
 -1       837 9.42419E-05 3.39431E-06 1.65436E-24
 -1       838 9.32401E-05 3.56800E-06 0.00000E+00
 -1       839 9.22132E-05 3.74087E-06 0.00000E+00
 -1       840 9.12243E-05 3.91347E-06 1.65436E-24
 -1       856 9.34614E-05 2.82995E-05 8.27181E-25
 -1       857 9.33573E-05 3.00951E-05 8.27181E-25
 -1       858 9.32529E-05 3.20812E-05 0.00000E+00
 -1       859 9.31473E-05 3.42233E-05-1.65436E-24
 -1       860 9.30412E-05 3.64869E-05 0.00000E+00
 -1       861 9.29348E-05 3.88373E-05 0.00000E+00
 -1       862 9.28282E-05 4.12398E-05 0.00000E+00
 -1       863 9.27216E-05 4.36594E-05 0.00000E+00
 -1       864 9.26150E-05 4.60615E-05-3.30872E-24
 -1       865 9.25085E-05 4.84111E-05 0.00000E+00
 -1       866 9.24022E-05 5.06735E-05 0.00000E+00
 -1       867 9.22962E-05 5.28140E-05 1.65436E-24
 -1       868 9.21905E-05 5.47980E-05 3.30872E-24
 -1       869 9.20855E-05 5.65912E-05 0.00000E+00
 -1       870 9.19808E-05 5.81591E-05 0.00000E+00
 -1       871 9.23910E-05 2.67160E-05 0.00000E+00
 -1       872 9.14137E-05 2.67007E-05 0.00000E+00
 -1       873 9.05472E-05 2.66850E-05 0.00000E+00
 -1       874 8.97103E-05 2.66684E-05-4.13590E-25
 -1       875 8.88219E-05 2.66511E-05 0.00000E+00
 -1       876 9.31649E-05 2.83133E-05 0.00000E+00
 -1       877 9.27293E-05 3.00269E-05 3.30872E-24
 -1       878 9.22518E-05 3.18522E-05 0.00000E+00
 -1       879 9.17386E-05 3.37744E-05-3.30872E-24
 -1       880 9.11948E-05 3.57783E-05-6.61744E-24
 -1       881 9.06259E-05 3.78490E-05 0.00000E+00
 -1       882 9.00375E-05 3.99715E-05-6.61744E-24
 -1       883 8.94353E-05 4.21309E-05 0.00000E+00
 -1       884 8.88246E-05 4.43124E-05 6.61744E-24
 -1       885 8.82112E-05 4.65012E-05 0.00000E+00
 -1       886 8.76006E-05 4.86824E-05-6.61744E-24
 -1       887 8.69983E-05 5.08411E-05 0.00000E+00
 -1       888 8.64098E-05 5.29624E-05 0.00000E+00
 -1       889 8.58398E-05 5.50313E-05-1.65436E-24
 -1       890 8.52948E-05 5.70330E-05 0.00000E+00
 -1       891 9.08206E-05 5.93821E-05 0.00000E+00
 -1       892 8.98226E-05 5.92952E-05 0.00000E+00
 -1       893 8.88017E-05 5.92083E-05 0.00000E+00
 -1       894 8.76748E-05 5.91214E-05 8.27181E-25
 -1       895 8.63588E-05 5.90343E-05 8.27181E-25
 -1       956 9.01818E-05 4.96932E-06 1.65436E-24
 -1       957 9.00243E-05 6.00820E-06 8.27181E-25
 -1       958 8.98661E-05 7.17593E-06-1.65436E-24
 -1       959 8.97075E-05 8.45623E-06 0.00000E+00
 -1       960 8.95486E-05 9.83281E-06 0.00000E+00
 -1       961 8.93896E-05 1.12893E-05-3.30872E-24
 -1       962 8.92305E-05 1.28091E-05 0.00000E+00
 -1       963 8.90712E-05 1.43760E-05 1.65436E-24
 -1       964 8.89120E-05 1.59733E-05 3.30872E-24
 -1       965 8.87527E-05 1.75848E-05 0.00000E+00
 -1       966 8.85935E-05 1.91939E-05 0.00000E+00
 -1       967 8.84343E-05 2.07842E-05 3.30872E-24
 -1       968 8.82753E-05 2.23391E-05 0.00000E+00
 -1       969 8.81165E-05 2.38425E-05-3.30872E-24
 -1       970 8.79582E-05 2.52778E-05 0.00000E+00
 -1       971 8.76166E-05 2.80098E-05-3.30872E-24
 -1       972 8.74276E-05 2.95785E-05 0.00000E+00
 -1       973 8.72382E-05 3.13141E-05-6.61744E-24
 -1       974 8.70481E-05 3.31943E-05 0.00000E+00
 -1       975 8.68577E-05 3.51972E-05 0.00000E+00
 -1       976 8.66670E-05 3.73004E-05 0.00000E+00
 -1       977 8.64762E-05 3.94818E-05-6.61744E-24
 -1       978 8.62852E-05 4.17191E-05 0.00000E+00
 -1       979 8.60941E-05 4.39900E-05-6.61744E-24
 -1       980 8.59031E-05 4.62720E-05 0.00000E+00
 -1       981 8.57121E-05 4.85429E-05 6.61744E-24
 -1       982 8.55214E-05 5.07803E-05 3.30872E-24
 -1       983 8.53310E-05 5.29619E-05-6.61744E-24
 -1       984 8.51417E-05 5.50654E-05-3.30872E-24
 -1       985 8.49529E-05 5.70685E-05 3.30872E-24
 -3
    1PSTEP                        12           6           1          
  100CL  106 9.68750E-01         409                     0    6           1
 -4  STRESS      6    1
 -5  SXX         1    4    1    1
 -5  SYY         1    4    2    2
 -5  SZZ         1    4    3    3
 -5  SXY         1    4    1    2
 -5  SYZ         1    4    2    3
 -5  SZX         1    4    3    1
 -1         1-3.54831E+06-1.76349E+06-8.38857E+05-2.23976E+06-3.34694E-10-2.76777E-08
 -1         2 3.55148E+03-5.06096E+05 1.27999E+04-1.20526E+04-5.65819E-09-1.03641E-08
 -1         3-1.47409E+02-1.38495E+06 3.55310E+02-8.30487E+02 2.89276E-10-3.23962E-09
 -1         5-2.98576E+01 5.35447E+05 1.50969E+01 1.43031E+00 2.51046E-11-1.48848E-08
 -1         8-1.93416E+06-7.70359E+05-1.80004E+05-1.20850E+06 5.23869E-10 4.33647E-09
 -1         9-2.34082E+06-7.26960E+05-2.70344E+05-7.28891E+05 3.37604E-10-8.06758E-09
 -1        10-1.24193E+03-1.44823E+06-2.36453E+03-5.66354E+03-5.76620E-09 4.42893E-09
 -1        12-2.37706E+01 5.35479E+05 4.90374E+02 9.30633E+00 4.71829E-10 4.35102E-09
 -1        15 3.93256E+03 2.13354E+03 1.23050E+04 1.19550E+01 8.99831E-11 8.77315E-09
 -1        16-5.94025E+06-1.89271E+06-9.08368E+05-1.90884E+06-2.57084E-09 1.13893E-08
 -1        17-9.83141E+05-7.54129E+05-1.56394E+05-6.70955E+05-9.84583E-09-5.82077E-10
 -1        18 4.34884E+04 9.74769E+03-2.12807E+04-1.30891E+05 1.90084E-10 5.21777E-09
 -1        19 1.61034E+05 1.92671E+05-1.23737E+03 1.93220E+04-4.46016E-10-3.00424E-09
 -1        20 8.26136E+04-2.38253E+05-4.51682E+04 7.50310E+04 1.38274E-09 7.49424E-10
 -1        21-1.16586E+02-4.65847E+05-1.85995E+03-4.28858E+02 5.40494E-09-4.68161E-09
 -1        24-4.28466E+06-1.51593E+06-5.09204E+05-1.94096E+06-7.77072E-09-8.07146E-09
 -1        25 4.02946E+04 7.23613E+04 3.83212E+04-5.62418E+05 1.73677E-09-1.45374E-09
 -1        26-2.97507E+04 1.37148E+05-8.16750E+03-3.12529E+04-2.19734E-10-3.12582E-09
 -1        27-4.74379E+04-1.42483E+05-6.55658E+04 1.02388E+05-7.67614E-10-4.48502E-09
 -1        28-2.25625E+03-1.42063E+05 4.78975E+03 5.19131E+04 6.85804E-09-1.93335E-10
 -1        32-1.28186E+06-8.44584E+04 4.08059E+05-1.77135E+06-1.32422E-09 1.02318E-11
 -1        33-1.90270E+05 1.27032E+05 4.10762E+04-5.43852E+04 2.00392E-10 1.27390E-09
 -1        34-3.09664E+05-4.20722E+04-5.79864E+03 9.79512E+04-3.91310E-10-9.39265E-09
 -1        35-3.75718E+04-5.22116E+04-2.69928E+03 8.54279E+04 5.72475E-09-7.69190E-09
 -1        51 2.78996E+04-6.44433E+05 5.73048E+04-1.76401E+06 0.00000E+00-2.03727E-10
 -1        52 2.12737E+04-6.51188E+05 4.05841E+04-1.98092E+06 9.60426E-10 2.92493E-09
 -1        53 2.07285E+04-6.78646E+05 3.83719E+04-1.75854E+06-5.38421E-10-1.02154E-08
 -1        54 5.03632E+04-6.80546E+05 6.65473E+04-1.98636E+06-9.74978E-10-4.58385E-10
 -1        55 9.78282E+04-7.06518E+05 1.23604E+05-1.75710E+06 1.45519E-10 1.40717E-08
 -1        56-7.47805E+06-7.07889E+05-6.48629E+05-2.66268E+06-1.17871E-09-1.28348E-08
 -1        57-6.90781E+06-1.75470E+06-3.82273E+05-3.27766E+06-4.55748E-09 2.18279E-08
 -1        58-7.69129E+06-6.81902E+05-1.46114E+05-2.36494E+06 1.40699E-09-1.41154E-09
 -1        59-6.73692E+06-1.70438E+06-7.83994E+04-3.62421E+06 5.86624E-09 6.09361E-09
 -1        60-7.70877E+06-7.09483E+05-3.62258E+04-2.35886E+06-4.67844E-09-1.67415E-09
 -1        61-6.75006E+06-1.49491E+06 9.31963E+03-3.33063E+06-1.97724E-09-9.20136E-09
 -1        62-7.61704E+06-9.34543E+05-4.75442E+04-2.61755E+06-1.16997E-08-4.20914E-09
 -1        63-7.06020E+06-1.02472E+06 4.32651E+04-2.69421E+06 1.05356E-08-2.54604E-08
 -1        64-7.33709E+06-1.22295E+06-4.94913E+04-2.94681E+06-1.77388E-08 9.52059E-09
 -1        65-7.71200E+06-5.12854E+05 1.33790E+04-2.19789E+06 1.13941E-08 3.56522E-10
 -1        66-7.02177E+06-1.40584E+06-3.64516E+04-3.15290E+06-9.34597E-09-2.23154E-08
 -1        67-8.13788E+06-2.97930E+05-7.23260E+04-2.02340E+06 3.53230E-08-4.49409E-08
 -1        68-6.97495E+06-1.39414E+06-1.34051E+05-3.17348E+06 2.89365E-08 1.05501E-10
 -1        69-7.95914E+06-6.92356E+05-3.56558E+05-2.10519E+06-1.15979E-08 2.33267E-08
 -1        70-7.15368E+06-1.04923E+06-6.04113E+05-3.02960E+06-7.90169E-09-2.15368E-09
 -1        86-1.90925E+03-5.42126E+05 6.59060E+03 6.02524E+03-3.47654E-10-5.39092E-09
 -1        87 8.96409E+03-5.14312E+05 2.07566E+04-1.95534E+04-2.34490E-09 1.59235E-08
 -1        88-7.05526E+03-5.34210E+05 2.82438E+04 1.35270E+04-4.78576E-09 5.02428E-09
 -1        89 5.44371E+04-4.99927E+05 7.74667E+04-2.47466E+04-5.45697E-11-1.00473E-08
 -1        90-4.71828E+04-5.56655E+05 1.06736E+05 1.12207E+04-5.57338E-09 8.14123E-09
 -1       121-2.55678E+02-1.38577E+06 2.78599E+02 4.14819E+02-1.54593E-09 2.77214E-09
 -1       122-1.05934E+01-1.38488E+06 7.61329E+02-1.65495E+03-3.95833E-09 1.06083E-08
 -1       123-3.50369E+02-1.38586E+06 1.15355E+03 1.23765E+03-4.22688E-09 7.45240E-09
 -1       124 1.49560E+03-1.38406E+06 3.15669E+03-3.42941E+03-8.57449E-09-3.96540E-09
 -1       125-1.38241E+03-1.38667E+06 4.68992E+03 2.18840E+03-7.05131E-09 1.41918E-08
 -1       191-3.18391E+01 5.35488E+05 1.70854E+01-7.22685E-01 3.06541E-10-2.91766E-09
 -1       192-3.12638E+01 5.35448E+05 3.20057E+01 3.88122E+00 5.69214E-10 7.60247E-09
 -1       193-3.55651E+01 5.35488E+05 5.85832E+01-3.20659E+00 5.47010E-10 7.42511E-09
 -1       194-3.57829E+01 5.35453E+05 1.21151E+02 8.47601E+00 2.97691E-10 1.67056E-08
 -1       195-4.27211E+01 5.35484E+05 2.36024E+02-5.38133E+00 9.19457E-10 1.06720E-08
 -1       251-1.65316E+06-1.01606E+05-6.35780E+04 1.10244E+05 1.15597E-09 1.42099E-08
 -1       252-2.92669E+05 8.37811E+04 1.93638E+05-3.08458E+05 6.85000E-09-2.22244E-08
 -1       253-1.05192E+06 2.63554E+04 1.23760E+04 1.50244E+05-3.44698E-09 1.05993E-08
 -1       254 2.73912E+04 3.13502E+04 2.14038E+05-2.04066E+05-5.69435E-09-7.11884E-09
 -1       255-1.96038E+06-6.38957E+04-1.93597E+05 5.65650E+03 1.51731E-08-5.88307E-09
 -1       256 2.90076E+05 4.99021E+04 2.61301E+05 1.27783E+05 6.40921E-09-7.83393E-09
 -1       257-1.30576E+06-1.15494E+03-6.05343E+04-1.79944E+05-6.00267E-11-2.54192E-08
 -1       258-4.01992E+05 1.21327E+04 1.16810E+05 3.12272E+05 5.16238E-09 3.09565E-08
 -1       259-1.29221E+06 2.71780E+02-5.77578E+04-1.80433E+05 2.26119E-08-4.47723E-08
 -1       260 2.79182E+05 4.91414E+04 2.58815E+05 1.31324E+05 4.78394E-10 2.23968E-08
 -1       261-1.96337E+06-6.42391E+04-1.94662E+05 2.60468E+03-9.17771E-09-3.55521E-09
 -1       262 3.89665E+04 3.17439E+04 2.15502E+05-2.00753E+05-1.95068E-08 3.83989E-09
 -1       263-1.06010E+06 2.58848E+04 8.96480E+03 1.49986E+05 2.28442E-08 1.89684E-08
 -1       264-2.98610E+05 8.02901E+04 1.88217E+05-3.09817E+05 1.00551E-07-2.26210E-08
 -1       265-1.63923E+06-9.74157E+04-6.72282E+04 1.11866E+05 3.88272E-08 1.78079E-08
 -1       266-6.95407E+04-3.22120E+04 1.61109E+05-2.48059E+02 8.00355E-11-1.01488E-08
 -1       267 8.05559E+04 3.76277E+04 1.14159E+05 2.85270E+02 5.82077E-11-1.03131E-08
 -1       268-1.09414E+04-5.37407E+03 4.22924E+04-3.69966E+01-2.00089E-11-7.79924E-09
 -1       269 1.29163E+04 6.44313E+03 2.76073E+04 4.30162E+01-9.41327E-11-1.52744E-09
 -1       270-1.96507E+03-1.06671E+03 1.32695E+04-5.96987E+00-9.64064E-11 9.86502E-09
 -1       271-8.21886E+06-1.00184E+06-6.65635E+05-3.21486E+06-2.31375E-09-8.23638E-09
 -1       272-8.52154E+06-1.46667E+06-4.34212E+05-3.13981E+06 1.59253E-09-1.14960E-08
 -1       273-8.35528E+06-1.17328E+06-1.56937E+05-3.17135E+06 1.77351E-10-9.14588E-09
 -1       274-8.35435E+06-1.26746E+06-8.91864E+04-3.20594E+06 6.22094E-10-8.07631E-10
 -1       275-8.38270E+06-1.18393E+06-3.65425E+04-3.15492E+06 1.27875E-09 5.78802E-09
 -1       276-8.31797E+06-1.25914E+06-1.96762E+04-3.23252E+06-1.79944E-09-1.70985E-10
 -1       277-8.39214E+06-1.17898E+06-9.71414E+03-3.14613E+06-2.62389E-09 1.10049E-10
 -1       278-8.30756E+06-1.26502E+06-7.46989E+03-3.24369E+06-6.59838E-10 9.69229E-09
 -1       279-8.39377E+06-1.17740E+06-8.44720E+03-3.14432E+06-1.56348E-09 8.30278E-09
 -1       280-8.31195E+06-1.26434E+06-1.62232E+04-3.23980E+06-3.52316E-09-7.89805E-09
 -1       281-8.38755E+06-1.17996E+06-2.95766E+04-3.14981E+06 1.92813E-10 3.76531E-09
 -1       282-8.34010E+06-1.27214E+06-7.20708E+04-3.21945E+06 3.61115E-09 9.10040E-09
 -1       283-8.36511E+06-1.17180E+06-1.26709E+05-3.16348E+06-1.37788E-09 7.91624E-09
 -1       284-8.47676E+06-1.43072E+06-3.50454E+05-3.16307E+06-1.40244E-09-2.11367E-09
 -1       285-8.25317E+06-1.03558E+06-5.37638E+05-3.20088E+06-4.22006E-09 7.50879E-09
 -1       301 5.16665E+04-1.91782E+04 1.90609E+05-7.56310E+03-1.87720E-09-4.63433E-09
 -1       302 2.32092E+04 2.28771E+04 1.30404E+05-1.04556E+04 3.73257E-09-1.36897E-08
 -1       303 3.20788E+03-4.35013E+03 1.19061E+05-8.00002E+03-2.55386E-09-4.07726E-09
 -1       304 4.24626E+04 3.95693E+04 1.95604E+05-1.02526E+04 2.62844E-09 8.64384E-09
 -1       305 9.86761E+04-3.57175E+04 3.42378E+05-7.45562E+03-1.71713E-09 1.34137E-08
 -1       306-4.63267E+06-5.73338E+05-3.10770E+05-1.80015E+06-4.80213E-10 6.51926E-09
 -1       307-4.73107E+06-8.44246E+05-2.04225E+05-1.80983E+06 3.83375E-09 1.08375E-08
 -1       308-4.70207E+06-6.52791E+05-7.34597E+04-1.77275E+06 5.07043E-10 2.64117E-09
 -1       309-4.64653E+06-7.54254E+05-4.21306E+04-1.85129E+06 2.69529E-09 3.69255E-09
 -1       310-4.71755E+06-6.56228E+05-1.72081E+04-1.76201E+06-1.03319E-09 7.97718E-09
 -1       311-4.62782E+06-7.51419E+05-9.47762E+03-1.86738E+06-1.45405E-09 1.44724E-08
 -1       312-4.72193E+06-6.54045E+05-4.87534E+03-1.75784E+06 8.40146E-10 6.15307E-09
 -1       313-4.62510E+06-7.51865E+05-4.31512E+03-1.87009E+06 1.37777E-09-8.61519E-09
 -1       314-4.72052E+06-6.55541E+05-5.57425E+03-1.75951E+06-2.09820E-09-9.85574E-09
 -1       315-4.63282E+06-7.46414E+05-1.12266E+04-1.86042E+06-3.51247E-09-5.72709E-09
 -1       316-4.71327E+06-6.60207E+05-2.08998E+04-1.76679E+06 1.57343E-10-7.55608E-09
 -1       317-4.65795E+06-7.47479E+05-5.09867E+04-1.83824E+06 2.92175E-09 5.05679E-10
 -1       318-4.69400E+06-6.56392E+05-8.91139E+04-1.78024E+06-1.11049E-09 1.10958E-09
 -1       319-4.76064E+06-8.57161E+05-2.47649E+05-1.78933E+06-4.80850E-09 2.47746E-09
 -1       320-4.61077E+06-5.58697E+05-3.76619E+05-1.81210E+06 8.91305E-10-3.55067E-09
 -1       336 1.34337E+03-1.51055E+06-9.34047E+03 3.46911E+03-1.48216E-08 7.73798E-09
 -1       337-3.67399E+03-1.51320E+06-1.09726E+04-8.29432E+03-1.11434E-08-6.36555E-09
 -1       338 1.18027E+03-1.51062E+06-1.44193E+04 4.81237E+03-1.96774E-08 4.91127E-11
 -1       339-1.61578E+04-1.52077E+06-3.25479E+04-1.08915E+04-1.35547E-08 1.41881E-10
 -1       340 1.18683E+04-1.50327E+06-4.96863E+04 6.04761E+03-2.29975E-08 1.11795E-08
 -1       406 1.27499E+01 5.35462E+05 9.67075E+02-4.09163E+00 1.22145E-09-7.91806E-09
 -1       407 3.13839E+02 5.35648E+05 2.05732E+03-9.60033E+00 1.19371E-10-1.25510E-09
 -1       408 1.03464E+03 5.35313E+05 4.10742E+03 1.44433E+01 1.36879E-09 9.40418E-10
 -1       409 4.42026E+03 5.36960E+05 9.24816E+03-1.72092E+02-5.77529E-11-6.41285E-09
 -1       410 1.27427E+04 5.34141E+05 1.88785E+04 1.73655E+02 1.55342E-09 1.22145E-09
 -1       521-9.30339E+06-1.13980E+06-6.40562E+05-3.61245E+06-7.13044E-10-1.13505E-08
 -1       522-9.57990E+06-1.63423E+06-4.22376E+05-3.55574E+06 7.23048E-10-1.18089E-08
 -1       523-9.44682E+06-1.30535E+06-1.50889E+05-3.55553E+06-8.27640E-10-2.24099E-09
 -1       524-9.40230E+06-1.44774E+06-8.69598E+04-3.64033E+06 2.31739E-09-2.07365E-09
 -1       525-9.47904E+06-1.31271E+06-3.50989E+04-3.53304E+06-1.55705E-09 7.27596E-11
 -1       526-9.36395E+06-1.43999E+06-1.93366E+04-3.67048E+06-6.97810E-10-5.14774E-10
 -1       527-9.48607E+06-1.31058E+06-9.61449E+03-3.52687E+06-2.70302E-09-2.44654E-09
 -1       528-9.36421E+06-1.43397E+06-7.97685E+03-3.66745E+06-3.90946E-09 2.76032E-10
 -1       529-9.47843E+06-1.31873E+06-9.86981E+03-3.53592E+06-4.22642E-09-4.94038E-09
 -1       530-9.39048E+06-1.41131E+06-1.92087E+04-3.63555E+06-3.44517E-09-5.75619E-09
 -1       531-9.45811E+06-1.33457E+06-3.56728E+04-3.55745E+06-1.75442E-09 7.31234E-10
 -1       532-9.44998E+06-1.39837E+06-8.71436E+04-3.58210E+06-1.68802E-09 1.38607E-09
 -1       533-9.41826E+06-1.33405E+06-1.51660E+05-3.58801E+06 5.91808E-09-4.67116E-09
 -1       534-9.63745E+06-1.57898E+06-4.24176E+05-3.49231E+06 4.02724E-09-1.17871E-09
 -1       535-9.27485E+06-1.16611E+06-6.42863E+05-3.64363E+06 6.27188E-09-1.14669E-08
 -1       536-3.19078E+04-3.07279E+04 8.54642E+04-1.44759E+02 3.48155E-09 5.56611E-09
 -1       537 7.28149E+03 3.49326E+04 5.86963E+04-6.59887E+04-7.74526E-09-2.78305E-10
 -1       538-1.77942E+04-4.33187E+03 2.20213E+04-7.88163E+01 1.63345E-09 4.09545E-09
 -1       539-1.02500E+04 4.22056E+03 1.34455E+04-6.61080E+04 7.00084E-09 6.12590E-09
 -1       540-1.56546E+04-7.20523E+02 5.49655E+03-2.82856E+01-1.06411E-09-1.74623E-10
 -1       541-1.37471E+04 5.12630E+02 3.19999E+03-6.61862E+04 1.30558E-09-3.52020E-09
 -1       542-1.52371E+04-1.44810E+02 1.29895E+03-5.65673E+00-1.89766E-09 4.11580E-09
 -1       543-1.49009E+04 2.09421E+02 6.58012E+02-6.62227E+04-4.09500E-10-2.59865E-09
 -1       544-1.51108E+04-4.19590E+00 9.11204E+01 7.58201E+00 1.38630E-09 2.50770E-09
 -1       545-1.53854E+04 1.55296E+02-3.74565E+02-6.62392E+04-1.27739E-09 9.87689E-09
 -1       546-1.50316E+04 1.02632E+02-9.36380E+02 1.14707E+01 1.65142E-09-4.69447E-09
 -1       547-1.57330E+04-6.05336E+02-2.34760E+03-6.62305E+04-4.15196E-09-2.77851E-09
 -1       548-1.47109E+04 6.86384E+02-4.06831E+03-1.36006E+00-3.19596E-09-5.50222E-09
 -1       549-1.80844E+04-6.36441E+03-1.05353E+04-6.61448E+04-2.24827E-09-2.21826E-09
 -1       550-1.22964E+04 5.30366E+03-1.57647E+04-7.46743E+01 9.64974E-10-1.29821E-08
 -1       551 2.70025E+04-6.69542E+05 4.15649E+04-1.07971E+06-2.01544E-08 6.98492E-10
 -1       552 3.56841E+04-6.72622E+05 4.72440E+04-1.39052E+06-2.03581E-08 1.17943E-08
 -1       553 2.66936E+04-6.78784E+05 6.95560E+04-1.07705E+06-2.35741E-08 3.31602E-09
 -1       554 6.58175E+04-6.51394E+05 1.43447E+05-1.39086E+06-1.95287E-08 1.20781E-09
 -1       555 9.94433E+04-6.98832E+05 2.65723E+05-1.07839E+06-2.12458E-08-8.85484E-09
 -1       556-5.05334E+04-2.17584E+05 6.26845E+04-3.09412E+05-2.27010E-09 3.68163E-09
 -1       557 2.30791E+04-2.79462E+05 3.28609E+04-3.68704E+05-4.07454E-10-7.96717E-09
 -1       558-5.26352E+04-2.26561E+05 1.30575E+04-3.02550E+05 4.93310E-09-6.62112E-10
 -1       559 1.12724E+04-2.87412E+05 6.70499E+03-3.74477E+05 1.86265E-09 2.77760E-09
 -1       560-5.61174E+04-2.24381E+05 2.63977E+03-3.04758E+05 4.67116E-09 7.32871E-09
 -1       561 6.50736E+03-2.85973E+05 1.45277E+03-3.77614E+05 6.90852E-09 1.06365E-08
 -1       562-5.87993E+04-2.22643E+05 4.75950E+02-3.06636E+05 1.80444E-09-1.03660E-08
 -1       563 3.53745E+03-2.84698E+05 2.92104E+02-3.79572E+05-1.78989E-09-2.23486E-09
 -1       564-6.04320E+04-2.21604E+05-3.07307E+01-3.07767E+05-6.47560E-09 2.96222E-09
 -1       565 2.02685E+03-2.84057E+05-2.40693E+02-3.80547E+05-1.33223E-08-3.04135E-09
 -1       566-6.09597E+04-2.21242E+05-7.25186E+02-3.08146E+05-1.28985E-08-8.99672E-09
 -1       567 1.83118E+03-2.84075E+05-1.69540E+03-3.80520E+05-3.69619E-09 3.77258E-09
 -1       568-6.02696E+04-2.21692E+05-3.64620E+03-3.07764E+05 1.85537E-09 3.21597E-09
 -1       569 4.93325E+02-2.85941E+05-8.57982E+03-3.78572E+05-4.88944E-09 8.84393E-09
 -1       570-5.68313E+04-2.26856E+05-1.70171E+04-3.05614E+05-3.49246E-10 2.35377E-09
 -1       571 3.64780E+05 1.49528E+04 2.22109E+04-8.95172E+04 3.11957E-10 3.59660E-09
 -1       572 3.68076E+05 5.18494E+03 1.08835E+04-9.81221E+04 1.18143E-09-1.19398E-08
 -1       573 3.66071E+05 1.22308E+03 4.83485E+03-8.92777E+04 9.75888E-10 5.01495E-09
 -1       574 3.66455E+05 3.93010E+02 2.42306E+03-9.83823E+04-1.54478E-09-3.69710E-09
 -1       575 3.66197E+05 4.92620E+01 1.14137E+03-8.92471E+04 9.74524E-10-3.25508E-09
 -1       576 3.66224E+05 1.25251E+01 5.80046E+02-9.84168E+04 5.05963E-10-1.04947E-08
 -1       577 3.66216E+05-1.19316E+01 2.82813E+02-8.92431E+04 7.03722E-10 3.14321E-09
 -1       578 3.66209E+05-1.01543E+01 1.48581E+02-9.84213E+04 2.88992E-10 2.81216E-09
 -1       579 3.66255E+05-2.44557E+01 7.92429E+01-8.92427E+04-7.73070E-11 5.40786E-09
 -1       580 3.66266E+05-3.79844E+01 5.57456E+01-9.84170E+04 8.22183E-10-5.06316E-09
 -1       581 3.66332E+05-6.31854E+01 5.27327E+01-8.92473E+04 1.81899E-12 3.71710E-09
 -1       582 3.66378E+05-8.12673E+01 8.69847E+01-9.83657E+04-2.74031E-09 9.79435E-09
 -1       583 3.66443E+05-9.19124E+01 1.51288E+02-8.92939E+04 8.30187E-09 4.06226E-09
 -1       584 3.66577E+05-2.41056E+00 3.39694E+02-9.79696E+04 1.76951E-08-2.06819E-09
 -1       585 3.66540E+05 2.73215E+02 6.76659E+02-8.96436E+04 1.13614E-08 2.94676E-10
 -1       586 8.04542E+00 1.53987E+05 5.32339E+02-2.71206E+05-1.18234E-11-2.61025E-09
 -1       587 7.05678E+02 1.54044E+05 2.64656E+03-3.02585E+05-2.60297E-09-8.49013E-09
 -1       588 1.57047E+03 1.53601E+05 5.93749E+03-2.70934E+05-6.91216E-11-9.09949E-10
 -1       589 6.20708E+03 1.56246E+05 1.36818E+04-3.02487E+05-2.41198E-09-7.61520E-09
 -1       590 1.76133E+04 1.52016E+05 2.78617E+04-2.71302E+05 8.82210E-11 7.45786E-10
 -1       591-1.57804E+05-4.45929E+04-3.38758E+04-7.57310E+04-2.66027E-10-3.78168E-09
 -1       592-1.60394E+05-4.60712E+04-1.74343E+04-8.46946E+04 3.99996E-09 1.37802E-08
 -1       593-1.60103E+05-3.74576E+04-7.37789E+03-7.97113E+04-1.43200E-09-5.79530E-09
 -1       594-1.56293E+05-4.18500E+04-3.63730E+03-8.49008E+04 2.38651E-09 8.30690E-09
 -1       595-1.60313E+05-3.73057E+04-1.67935E+03-7.98589E+04-9.35415E-10-2.45075E-09
 -1       596-1.56026E+05-4.16984E+04-8.49707E+02-8.48616E+04-1.70417E-10-1.73600E-10
 -1       597-1.60344E+05-3.73324E+04-4.59047E+02-7.98603E+04-2.95678E-09-1.69664E-08
 -1       598-1.55998E+05-4.16979E+04-3.60565E+02-8.48494E+04-1.80421E-10 2.88037E-09
 -1       599-1.60340E+05-3.73354E+04-4.50397E+02-7.98580E+04-3.44471E-10 6.70161E-09
 -1       600-1.56018E+05-4.17021E+04-8.26596E+02-8.48527E+04-2.81011E-09-4.55020E-09
 -1       601-1.60300E+05-3.73148E+04-1.62930E+03-7.98520E+04-4.47653E-09-8.28004E-09
 -1       602-1.56270E+05-4.18493E+04-3.52603E+03-8.48789E+04 1.85901E-09 3.79418E-09
 -1       603-1.60086E+05-3.74712E+04-7.15119E+03-7.97076E+04-2.94131E-09 5.38876E-09
 -1       604-1.60270E+05-4.59045E+04-1.68939E+04-8.46280E+04-1.55933E-08 6.00767E-09
 -1       605-1.57815E+05-4.44190E+04-3.28258E+04-7.58830E+04-9.86984E-09 6.29279E-09
 -1       606 1.07152E+05-1.54161E+04-2.69215E+04 4.36408E+04-7.03221E-09-4.54747E-11
 -1       607 1.02608E+05-4.99395E+03-1.33673E+04 4.87201E+04-9.16771E-10-1.55524E-09
 -1       608 1.05169E+05-8.80385E+02-5.98300E+03 4.33035E+04 4.50746E-09 5.88852E-09
 -1       609 1.04622E+05-2.03889E+02-3.01690E+03 4.90870E+04-4.92582E-09 2.50338E-09
 -1       610 1.04894E+05 6.56536E+01-1.44065E+03 4.32652E+04-1.03810E-08-2.97405E-10
 -1       611 1.04772E+05 1.09646E+02-7.25362E+02 4.91270E+04-1.83563E-08-4.03861E-09
 -1       612 1.04802E+05 1.12832E+02-3.47663E+02 4.32617E+04-1.56142E-08-7.15954E-09
 -1       613 1.04742E+05 1.39436E+02-1.57005E+02 4.91308E+04-2.43735E-08-7.18819E-09
 -1       614 1.04746E+05 1.26947E+02-4.25031E+01 4.32609E+04-1.08066E-08-1.37616E-08
 -1       615 1.04703E+05 1.59458E+02 5.43869E+01 4.91306E+04 6.42649E-09-1.24137E-08
 -1       616 1.04703E+05 1.46249E+02 1.73130E+02 4.32616E+04-6.60748E-09-5.00950E-09
 -1       617 1.04701E+05 2.13803E+02 4.00837E+02 4.91287E+04 1.47793E-09 6.97037E-09
 -1       618 1.04651E+05 2.83118E+02 8.09981E+02 4.32621E+04-9.21318E-10 8.50378E-11
 -1       619 1.04968E+05 8.72525E+02 1.82185E+03 4.91240E+04-4.54952E-09 8.99036E-09
 -1       620 1.04378E+05 2.27033E+03 3.67177E+03 4.32608E+04 9.55197E-10 7.58064E-09
 -1       621 1.00160E+03 3.92625E+05 4.45084E+03-2.15004E+04-3.62331E-09 6.16947E-09
 -1       622 5.44937E+02 3.93571E+05 4.57355E+03-2.76548E+04-1.48020E-10 1.59770E-08
 -1       623 2.01398E+02 3.92783E+05 6.53428E+03-2.14918E+04-3.38832E-09 9.41805E-09
 -1       624 3.12505E+03 3.95817E+05 1.33188E+04-2.75897E+04 2.11912E-10-4.64388E-09
 -1       625 7.28893E+03 3.90398E+05 2.47745E+04-2.15608E+04-2.96859E-09-7.18910E-09
 -1       626 2.88839E+05 8.68479E+04 1.49193E+03 1.68651E+05-2.09548E-09-8.09450E-09
 -1       627 2.83510E+05 9.18495E+04 7.20573E+02 1.75118E+05 4.55657E-10 5.77893E-09
 -1       628 2.88988E+05 8.59544E+04 3.00990E+02 1.68626E+05 1.04392E-08 8.16362E-09
 -1       629 2.83006E+05 9.19094E+04 1.54887E+02 1.75398E+05 6.94945E-09-1.25283E-10
 -1       630 2.88944E+05 8.59349E+04 7.69003E+01 1.68570E+05 5.75528E-09-1.62265E-09
 -1       631 2.82894E+05 9.19488E+04 5.90036E+01 1.75377E+05 2.21189E-09-4.41392E-09
 -1       632 2.88893E+05 8.59593E+04 6.92363E+01 1.68536E+05-1.26402E-08 8.58597E-09
 -1       633 2.82850E+05 9.19677E+04 1.24506E+02 1.75350E+05-8.14953E-09 2.40319E-08
 -1       634 2.88855E+05 8.59648E+04 2.42118E+02 1.68518E+05 5.62341E-09 3.20611E-08
 -1       635 2.82854E+05 9.19746E+04 5.16847E+02 1.75344E+05-5.48516E-09-9.98034E-09
 -1       636 2.88825E+05 8.59663E+04 1.05604E+03 1.68507E+05-1.79267E-08 1.42154E-09
 -1       637 2.83077E+05 9.21607E+04 2.33088E+03 1.75333E+05-2.01521E-08 1.43164E-08
 -1       638 2.88749E+05 8.65327E+04 4.79752E+03 1.68249E+05-1.31058E-08 1.05229E-09
 -1       639 2.85569E+05 9.58093E+04 1.13611E+04 1.74565E+05 1.45519E-11-3.79441E-09
 -1       640 2.88536E+05 9.73166E+04 2.36520E+04 1.63663E+05-3.24690E-09 4.77803E-09
 -1       656 2.85323E+04-8.13086E+05-8.48909E+04 1.29656E+03-6.76664E-10 6.76710E-09
 -1       657-3.82436E+04-8.48047E+05-6.70763E+04 6.02968E+04-9.37462E-09 7.95853E-09
 -1       658 7.64609E+03-8.24010E+05-4.27735E+04 8.28526E+02-3.57250E-09 1.14508E-08
 -1       659-4.04155E+04-8.49269E+05-7.03039E+04 6.06194E+04-1.24101E-08-9.71909E-10
 -1       660 3.06472E+04-8.11942E+05-9.06211E+04 9.74804E+02-3.93993E-09-1.32593E-08
 -1       661 3.53235E+05 4.48692E+04 2.95660E+04 1.37988E+05 7.70297E-09 9.42237E-10
 -1       662 3.61401E+05 6.64033E+04 1.86588E+04 1.40588E+05-1.10180E-09 3.94925E-09
 -1       663 3.58329E+05 5.16124E+04 6.98327E+03 1.37263E+05 2.33047E-09 2.82580E-09
 -1       664 3.55539E+05 5.76524E+04 3.84655E+03 1.41858E+05-1.00564E-08-1.43280E-08
 -1       665 3.58915E+05 5.23356E+04 1.64036E+03 1.37203E+05-1.26983E-08-1.49923E-08
 -1       666 3.54861E+05 5.67443E+04 8.95592E+02 1.41974E+05-6.50346E-09 3.47438E-09
 -1       667 3.58993E+05 5.24052E+04 5.08230E+02 1.37192E+05 1.31243E-08 3.45889E-09
 -1       668 3.54779E+05 5.66868E+04 4.93375E+02 1.42009E+05-3.26622E-09-1.03314E-08
 -1       669 3.59000E+05 5.23823E+04 7.05596E+02 1.37175E+05 4.61330E-09 3.39207E-09
 -1       670 3.54881E+05 5.68760E+04 1.44474E+03 1.42046E+05 1.83149E-08 5.42940E-09
 -1       671 3.58901E+05 5.22236E+04 2.74868E+03 1.37156E+05 3.64889E-09-1.82013E-09
 -1       672 3.55984E+05 5.84826E+04 6.51764E+03 1.41930E+05 5.27189E-09 1.19257E-10
 -1       673 3.57936E+05 5.09621E+04 1.18502E+04 1.37226E+05 3.73171E-09-1.49885E-09
 -1       674 3.65907E+05 7.33933E+04 3.16929E+04 1.39833E+05 2.99474E-09-1.34769E-08
 -1       675 3.49299E+05 3.94891E+04 5.02177E+04 1.38440E+05 3.03953E-09-4.72937E-11
 -1       676 5.77476E+01-4.65665E+05-2.23040E+03 2.14432E+02 1.45760E-08 1.45583E-09
 -1       677-6.85682E+02-4.66260E+05-4.11437E+03-4.28145E+02 1.08898E-08 6.62337E-09
 -1       678 4.88104E+02-4.65253E+05-7.20291E+03 2.13562E+02 8.27322E-09 2.68908E-09
 -1       679-7.73933E+03-4.70704E+05-1.72947E+04-4.26046E+02 7.75344E-09-2.40668E-10
 -1       680 5.11753E+03-4.61225E+05-2.75001E+04 2.10120E+02 9.16043E-09-8.15042E-09
 -1       771-3.55353E+06-6.77155E+05-9.12393E+04-1.52197E+06 2.25555E-09 4.74392E-09
 -1       772-3.53384E+06-7.03876E+05-4.65421E+04-1.57252E+06-5.79894E-09-4.61478E-09
 -1       773-3.56363E+06-6.55226E+05-2.04362E+04-1.53213E+06-5.95173E-09 5.58430E-09
 -1       774-3.52382E+06-6.94139E+05-9.87084E+03-1.57834E+06-6.46105E-09 4.07454E-09
 -1       775-3.56721E+06-6.52655E+05-5.03584E+03-1.53340E+06-3.31784E-09-7.71252E-10
 -1       776-3.52492E+06-6.93651E+05-2.38682E+03-1.58158E+06 6.83940E-09 1.22673E-08
 -1       777-3.56983E+06-6.50980E+05-1.54087E+03-1.53427E+06 1.30240E-09 2.89583E-09
 -1       778-3.52642E+06-6.93429E+05-9.33122E+02-1.58416E+06-3.21234E-09-1.26374E-09
 -1       779-3.57182E+06-6.49626E+05-1.18747E+03-1.53496E+06 2.61934E-10 3.39060E-09
 -1       780-3.52769E+06-6.93260E+05-1.79911E+03-1.58609E+06 4.58385E-09 2.41926E-09
 -1       781-3.57311E+06-6.48625E+05-3.54744E+03-1.53543E+06-1.52795E-09-5.03860E-10
 -1       782-3.52902E+06-6.93455E+05-7.54472E+03-1.58735E+06-4.27826E-09-4.91264E-09
 -1       783-3.57339E+06-6.48462E+05-1.53446E+04-1.53539E+06-9.33142E-10-4.11819E-09
 -1       784-3.53797E+06-7.02144E+05-3.63206E+04-1.58725E+06-8.86394E-09-4.53656E-09
 -1       785-3.56858E+06-6.63373E+05-7.06606E+04-1.52728E+06-2.72848E-11 5.45697E-10
 -1       786 3.01668E+05-1.30402E+04 3.74282E+04 4.67578E+01 1.18064E-10 8.31278E-10
 -1       787 3.16692E+05 1.55304E+04 2.53714E+04-4.19936E+03-5.67070E-10-4.38922E-09
 -1       788 3.07688E+05-1.71159E+03 9.72603E+03 2.22781E+01-3.24604E-10-2.06455E-09
 -1       789 3.09820E+05 2.02403E+03 5.76626E+03-4.16163E+03-2.30379E-10 8.57472E-09
 -1       790 3.08540E+05-2.24669E+02 2.48527E+03 9.19214E+00 6.47987E-10 3.47745E-09
 -1       791 3.08843E+05 2.63355E+02 1.38970E+03-4.14892E+03-1.00980E-09-2.93974E-09
 -1       792 3.08666E+05-3.08877E+01 6.80464E+02 9.56874E+00-9.31237E-11 3.95579E-09
 -1       793 3.08706E+05 4.57746E+01 4.54418E+02-4.16344E+03 9.42919E-10 5.03817E-10
 -1       794 3.08678E+05-1.53705E+01 3.93876E+02 2.37145E+01-1.22779E-09-6.27168E-10
 -1       795 3.08742E+05 1.03662E+02 6.03594E+02-4.20570E+03 1.19269E-09-2.76543E-10
 -1       796 3.08632E+05-8.75456E+01 9.89022E+02 5.18339E+01 6.25391E-10-4.23694E-09
 -1       797 3.09118E+05 7.77065E+02 2.23710E+03-4.27483E+03-2.50159E-09 5.00430E-09
 -1       798 3.08304E+05-6.60168E+02 3.75085E+03 9.28313E+01-5.11193E-10-9.76115E-09
 -1       799 3.11769E+05 5.97459E+03 9.77140E+03-4.36706E+03-1.82871E-09-7.12021E-10
 -1       800 3.05985E+05-5.02219E+03 1.44057E+04 1.43911E+02 7.71934E-11-9.21955E-09
 -1       801-4.31761E+04 3.56059E+05 3.87791E+04-6.45868E+03-1.48011E-08-7.20320E-09
 -1       802 1.12049E+05 3.99029E+05 9.05192E+04-2.00504E+06-3.59032E-08-7.94716E-09
 -1       803-1.11225E+04 3.82231E+05 1.03279E+05-9.62556E+03-1.69312E-08 1.88325E-08
 -1       804 2.18744E+05 4.68082E+05 2.52559E+05-2.00551E+06-3.82097E-08 3.23453E-08
 -1       805-1.51066E+05 2.96892E+05 3.23879E+05-6.18044E+03-3.82715E-09 1.43336E-08
 -1       806-3.11538E+05-8.19692E+04-2.71915E+04-1.44762E+05-1.79693E-09-1.25201E-08
 -1       807-3.11502E+05-7.68678E+04-1.30580E+04-1.53506E+05-9.50195E-10 7.90692E-10
 -1       808-3.11751E+05-6.96285E+04-5.51399E+03-1.50142E+05-1.28125E-09-7.19331E-09
 -1       809-3.08767E+05-7.25652E+04-2.67813E+03-1.54305E+05-7.37714E-10-8.43397E-09
 -1       810-3.11845E+05-6.89760E+04-1.21653E+03-1.50457E+05-1.07968E-09-1.76442E-09
 -1       811-3.08523E+05-7.23414E+04-6.02249E+02-1.54307E+05-7.61020E-10-3.07682E-09
 -1       812-3.11862E+05-6.89838E+04-2.99218E+02-1.50461E+05-2.43290E-10-2.26601E-09
 -1       813-3.08486E+05-7.23455E+04-1.87939E+02-1.54288E+05 1.31649E-10 2.36469E-11
 -1       814-3.11851E+05-6.89986E+04-1.75272E+02-1.50451E+05-1.64619E-10-5.44969E-09
 -1       815-3.08479E+05-7.23556E+04-2.73571E+02-1.54273E+05-1.58980E-09 1.03018E-08
 -1       816-3.11818E+05-6.90125E+04-5.13084E+02-1.50436E+05-1.04319E-09-7.68887E-09
 -1       817-3.08567E+05-7.24430E+04-1.10749E+03-1.54233E+05 2.32831E-10-4.78258E-09
 -1       818-3.11740E+05-6.93120E+04-2.27310E+03-1.50307E+05 2.08547E-09-4.27281E-09
 -1       819-3.09802E+05-7.40800E+04-5.37180E+03-1.53718E+05-3.76531E-10 5.85260E-09
 -1       820-3.11493E+05-7.45187E+04-1.11863E+04-1.48221E+05 3.87263E-09 9.75342E-09
 -1       821-4.14076E+05 1.78817E+04-5.13197E+04-3.24960E+02-4.28486E-09-6.22094E-10
 -1       822-4.34642E+05-2.12961E+04-3.47897E+04 6.40474E+03-1.24390E-09 3.04362E-09
 -1       823-4.22327E+05 2.34285E+03-1.33435E+04-4.76560E+02 3.63332E-09-2.82762E-09
 -1       824-4.25238E+05-2.76272E+03-7.91753E+03 6.66654E+03-2.15584E-09 1.02636E-09
 -1       825-4.23490E+05 3.05392E+02-3.43899E+03-5.87307E+02-7.03778E-09-4.50268E-09
 -1       826-4.23918E+05-3.45155E+02-1.96828E+03 6.85422E+03-1.37711E-08-1.26451E-09
 -1       827-4.23657E+05 4.35873E+01-1.05947E+03-6.64411E+02-7.50521E-09-1.34975E-09
 -1       828-4.23759E+05-6.77312E+01-8.89850E+02 6.97454E+03-1.29253E-08 6.14928E-09
 -1       829-4.23656E+05 4.36870E+01-1.04706E+03-7.07667E+02 5.32111E-10 8.10471E-09
 -1       830-4.23928E+05-3.33964E+02-1.93735E+03 7.02563E+03 3.55028E-09 2.89992E-09
 -1       831-4.23490E+05 3.01972E+02-3.37573E+03-7.15494E+02-3.32116E-09-2.09661E-09
 -1       832-4.25238E+05-2.70281E+03-7.77552E+03 7.00710E+03-2.64606E-09-4.25496E-09
 -1       833-4.22347E+05 2.30348E+03-1.30957E+04-6.88955E+02 1.05206E-09-2.97587E-09
 -1       834-4.34481E+05-2.08934E+04-3.41548E+04 6.92240E+03-5.83441E-10-7.48469E-09
 -1       835-4.14246E+05 1.75592E+04-5.03729E+04-6.29519E+02 4.24529E-09-1.64073E-09
 -1       836-1.17314E+03 4.98892E+05 3.72201E+04-3.88285E+04-6.53017E-10 2.77396E-09
 -1       837 7.53056E+03 5.10016E+05 2.90066E+04-7.28076E+04-1.52522E-09 5.56383E-10
 -1       838-4.20486E+02 5.02504E+05 2.67439E+04-3.87207E+04-8.12179E-10 8.86121E-09
 -1       839 1.47845E+04 5.15648E+05 4.72537E+04-7.28265E+04-2.06637E-09 8.45728E-09
 -1       840-2.47582E+03 4.93207E+05 7.49296E+04-3.88046E+04-8.98581E-10 1.24237E-09
 -1       856-2.90346E+05 9.17399E+03-3.98671E+04 5.12533E+03-6.14773E-09-9.86802E-09
 -1       857-3.04706E+05-1.24407E+04-2.55175E+04 2.14059E+04-4.39286E-09-7.96354E-09
 -1       858-2.96365E+05 9.52258E+02-1.03312E+04 5.01878E+03-9.87347E-09-7.45331E-09
 -1       859-2.98068E+05-1.14507E+03-5.75851E+03 2.15484E+04 5.11477E-10-9.61927E-09
 -1       860-2.97052E+05 1.21581E+02-2.61843E+03 4.97972E+03-4.30714E-09-9.93327E-09
 -1       861-2.97329E+05-2.13608E+01-1.39435E+03 2.16016E+04-1.06931E-08-1.25212E-08
 -1       862-2.97143E+05 3.72304E+01-6.98432E+02 4.96509E+03 1.15801E-08-7.78073E-10
 -1       863-2.97237E+05 8.65348E+01-4.32927E+02 2.16114E+04 2.20985E-08 5.70196E-09
 -1       864-2.97152E+05 2.83590E+01-3.54907E+02 4.96987E+03 1.81317E-08 6.61407E-09
 -1       865-2.97233E+05 5.74618E+01-4.87346E+02 2.15809E+04 1.54323E-08 7.07934E-09
 -1       866-2.97123E+05 4.55995E+01-8.15119E+02 4.99564E+03-5.91172E-11-7.96966E-09
 -1       867-2.97418E+05-2.87529E+02-1.72275E+03 2.15074E+04 5.70253E-10 2.48951E-09
 -1       868-2.96912E+05 2.80467E+02-3.07685E+03 5.04364E+03 1.12827E-08-2.47155E-10
 -1       869-2.99334E+05-3.65040E+03-7.56068E+03 2.13328E+04-1.29899E-09-6.57735E-10
 -1       870-2.95121E+05 2.69875E+03-1.18287E+04 5.17109E+03 5.18548E-09-1.05501E-10
 -1       871-6.11589E+03-4.21292E+04-1.71904E+04 1.66128E+05-9.70431E-09-9.21318E-09
 -1       872-2.59984E+03-4.59067E+04-6.42874E+03 2.12000E+05-8.01992E-09-1.38571E-08
 -1       873-2.14911E+02-4.43602E+04 2.26188E+03 1.65771E+05-7.85167E-09 1.09139E-09
 -1       874 3.11712E+03-4.11664E+04 1.26250E+04 2.12089E+05-3.61888E-09-2.93676E-09
 -1       875 8.28404E+03-4.70945E+04 2.72471E+04 1.66066E+05-6.17001E-09-1.10958E-09
 -1       876 4.50114E+05 7.02244E+04 3.51163E+04 1.79579E+05 1.31240E-09-2.93585E-09
 -1       877 4.55613E+05 8.39887E+04 1.99768E+04 1.86593E+05 1.24035E-08-1.79853E-09
 -1       878 4.54579E+05 7.15605E+04 8.10474E+03 1.80850E+05-2.14868E-09-3.30419E-09
 -1       879 4.50070E+05 7.75454E+04 4.12535E+03 1.87071E+05-8.05835E-09-6.93478E-09
 -1       880 4.54921E+05 7.17336E+04 1.87536E+03 1.80942E+05 1.09776E-09-1.32104E-09
 -1       881 4.49646E+05 7.71408E+04 9.77413E+02 1.87029E+05 6.81689E-09 3.11593E-09
 -1       882 4.54948E+05 7.17704E+04 5.64845E+02 1.80953E+05 4.37217E-09 4.09767E-09
 -1       883 4.49613E+05 7.71103E+04 5.19764E+02 1.87006E+05 3.46449E-09 2.15251E-08
 -1       884 4.54938E+05 7.17725E+04 7.43429E+02 1.80955E+05 2.88367E-09 6.97889E-09
 -1       885 4.49682E+05 7.71447E+04 1.45126E+03 1.87016E+05 1.10735E-09 3.04925E-09
 -1       886 4.54875E+05 7.17306E+04 2.88052E+03 1.80944E+05-5.40388E-09-1.89752E-08
 -1       887 4.50349E+05 7.77585E+04 6.38383E+03 1.87049E+05 1.89215E-09-2.38879E-09
 -1       888 4.54325E+05 7.14775E+04 1.25658E+04 1.80805E+05-2.56281E-09-1.93813E-09
 -1       889 4.58897E+05 8.77902E+04 3.09783E+04 1.86331E+05-6.36580E-09-5.67115E-09
 -1       890 4.47433E+05 6.93708E+04 5.44661E+04 1.78777E+05 1.51858E-08 2.91402E-09
 -1       891 4.12143E+02-2.47181E+05-8.33142E+03 4.36854E+04 7.81938E-09-5.86829E-09
 -1       892-1.96337E+03-2.49665E+05-6.53986E+03 8.79777E+04 6.82076E-09-2.03456E-08
 -1       893 5.27536E+01-2.47998E+05-5.96679E+03 4.36197E+04 1.10686E-09-1.08803E-08
 -1       894-3.72018E+03-2.50803E+05-1.05925E+04 8.78323E+04-2.03818E-09-4.48472E-09
 -1       895 8.56134E+02-2.45789E+05-1.66233E+04 4.38274E+04-1.12141E-09 4.65479E-09
 -1       956-4.50187E+05-7.88572E+03-1.88700E+04 4.59636E+04-3.33421E-09-4.53474E-09
 -1       957-4.53859E+05-2.56257E+03-9.63756E+03 5.48274E+04 9.28867E-09-9.36416E-09
 -1       958-4.51874E+05-1.94984E+02-4.34337E+03 4.56732E+04 1.24983E-08 2.45745E-09
 -1       959-4.52208E+05 3.21791E+01-2.21308E+03 5.51425E+04-2.04727E-09 3.91492E-09
 -1       960-4.52068E+05 1.29678E+02-1.07657E+03 4.56425E+04-6.97946E-09-3.04499E-09
 -1       961-4.52125E+05 1.57584E+02-5.63545E+02 5.51779E+04-1.42209E-08-6.36510E-09
 -1       962-4.52128E+05 1.41843E+02-3.10941E+02 4.56369E+04-6.11180E-09-4.34466E-09
 -1       963-4.52144E+05 1.73946E+02-2.27763E+02 5.51854E+04-9.58767E-09 7.80437E-09
 -1       964-4.52150E+05 1.52580E+02-2.50912E+02 4.56347E+04-1.04819E-10-8.86303E-10
 -1       965-4.52166E+05 1.82189E+02-4.12262E+02 5.51859E+04 1.03408E-08-7.24776E-09
 -1       966-4.52137E+05 1.61325E+02-7.62939E+02 4.56363E+04-4.67958E-09-4.82851E-09
 -1       967-4.52255E+05 1.10390E+02-1.55970E+03 5.51669E+04-3.16709E-09 1.43332E-08
 -1       968-4.52021E+05-5.33960E+01-3.05410E+03 4.56543E+04 9.80435E-10 1.42700E-09
 -1       969-4.53439E+05-1.70466E+03-6.78046E+03 5.49722E+04-1.40426E-09-1.06151E-08
 -1       970-4.50847E+05-5.45947E+03-1.32732E+04 4.58393E+04 4.15457E-09 2.96495E-10
 -1       971-5.36533E+05-2.17650E+02-2.07346E+04 1.55308E+04-5.94628E-09-1.09912E-09
 -1       972-5.42470E+05-3.57481E+03-1.19777E+04 2.72572E+04-4.93083E-09-1.02009E-08
 -1       973-5.39203E+05 7.82768E+01-5.22886E+03 1.53456E+04-4.14821E-09-4.38604E-09
 -1       974-5.39689E+05-1.00770E+02-2.74541E+03 2.74717E+04 4.24188E-09 5.58066E-09
 -1       975-5.39431E+05 6.81282E+01-1.34455E+03 1.53119E+04 1.56979E-09-5.69230E-09
 -1       976-5.39506E+05 1.02145E+02-7.49584E+02 2.75208E+04-5.75460E-09-2.11617E-09
 -1       977-5.39471E+05 7.06942E+01-4.95124E+02 1.52959E+04 5.63523E-09-9.78162E-10
 -1       978-5.39512E+05 1.21964E+02-5.13821E+02 2.75435E+04 2.16461E-08-1.60887E-08
 -1       979-5.39473E+05 8.10242E+01-7.70097E+02 1.52891E+04 6.99487E-09-1.20748E-08
 -1       980-5.39574E+05 1.07686E+02-1.45751E+03 2.75476E+04 1.52493E-08-6.69968E-09
 -1       981-5.39419E+05 1.07260E+02-2.79648E+03 1.52918E+04-4.06044E-09-2.60093E-09
 -1       982-5.40044E+05-2.88057E+02-5.83433E+03 2.75290E+04-2.75486E-09-3.40015E-09
 -1       983-5.38976E+05 1.67103E+02-1.11502E+04 1.53085E+04 1.03610E-08-5.22550E-09
 -1       984-5.46090E+05-7.67542E+03-2.56089E+04 2.73943E+04-9.56561E-10-3.45608E-10
 -1       985-5.33314E+05-4.19389E+02-4.43147E+04 1.54397E+04 5.81531E-09-1.38607E-09
 -3
    1PSTEP                        13           7           1          
  100CL  107 1.000000000         409                     0    7           1
 -4  DISP        4    1
 -5  D1          1    2    1    0
 -5  D2          1    2    2    0
 -5  D3          1    2    3    0
 -5  ALL         1    2    0    0    1ALL
 -1         1 2.02925E-04 0.00000E+00 0.00000E+00
 -1         2 1.79485E-04-2.46534E-32 0.00000E+00
 -1         3 1.50284E-04 2.45011E-28-1.32349E-23
 -1         5 1.07168E-04 2.12508E-27 0.00000E+00
 -1         8 1.64374E-04-1.70637E-06 0.00000E+00
 -1         9 1.33343E-04-1.31608E-06 0.00000E+00
 -1        10 1.38191E-04-2.97978E-06-6.61744E-24
 -1        12 1.05988E-04 1.15849E-06 6.61744E-24
 -1        15 1.20991E-04-1.90473E-06 8.27181E-25
 -1        16 1.00497E-04-1.55560E-06 0.00000E+00
 -1        17 1.00453E-04-6.31475E-06 0.00000E+00
 -1        18 1.00343E-04-1.57961E-07 0.00000E+00
 -1        19 1.02448E-04 2.30955E-06 0.00000E+00
 -1        20 1.03037E-04 2.93758E-05 0.00000E+00
 -1        21 1.00962E-04 6.24608E-05-6.61744E-24
 -1        24 3.10329E-05-8.19265E-06 0.00000E+00
 -1        25 9.60622E-05 1.64501E-07 0.00000E+00
 -1        26 9.78250E-05 3.15026E-06 0.00000E+00
 -1        27 9.53905E-05 2.76245E-05 0.00000E+00
 -1        28 9.36547E-05 6.14561E-05 0.00000E+00
 -1        32 0.00000E+00 0.00000E+00 0.00000E+00
 -1        33 9.20508E-05 4.20747E-06 0.00000E+00
 -1        34 8.94343E-05 2.75218E-05 0.00000E+00
 -1        35 8.63048E-05 6.09207E-05 0.00000E+00
 -1        51 2.00191E-04-2.77289E-07 0.00000E+00
 -1        52 1.95453E-04-5.48978E-07 0.00000E+00
 -1        53 1.89096E-04-8.24044E-07 0.00000E+00
 -1        54 1.81525E-04-1.10573E-06 6.61744E-24
 -1        55 1.73149E-04-1.39596E-06-9.09899E-24
 -1        56 2.04144E-04-1.22388E-05 0.00000E+00
 -1        57 2.12799E-04-4.59667E-05-2.64698E-23
 -1        58 2.26754E-04-9.55826E-05 0.00000E+00
 -1        59 2.43535E-04-1.54134E-04 0.00000E+00
 -1        60 2.60320E-04-2.12696E-04 0.00000E+00
 -1        61 2.74263E-04-2.62350E-04 0.00000E+00
 -1        62 2.82921E-04-2.96143E-04 0.00000E+00
 -1        63 2.84046E-04-3.08496E-04-5.29396E-23
 -1        64 2.76771E-04-2.98452E-04 1.05879E-22
 -1        65 2.60906E-04-2.66892E-04 0.00000E+00
 -1        66 2.38273E-04-2.19182E-04 0.00000E+00
 -1        67 2.11480E-04-1.61908E-04 0.00000E+00
 -1        68 1.84236E-04-1.03607E-04 1.05879E-22
 -1        69 1.60326E-04-5.28759E-05 0.00000E+00
 -1        70 1.42613E-04-1.68051E-05 0.00000E+00
 -1        86 1.77263E-04-1.85114E-07 0.00000E+00
 -1        87 1.70616E-04-3.89655E-07 3.30872E-24
 -1        88 1.61123E-04-6.15467E-07 0.00000E+00
 -1        89 1.50388E-04-8.56716E-07-3.30872E-24
 -1        90 1.40450E-04-1.08917E-06-1.32349E-23
 -1       121 1.49944E-04-4.93902E-07-1.32349E-23
 -1       122 1.48927E-04-9.88258E-07-6.61744E-24
 -1       123 1.47234E-04-1.48351E-06 0.00000E+00
 -1       124 1.44875E-04-1.98018E-06 0.00000E+00
 -1       125 1.41856E-04-2.47852E-06-1.32349E-23
 -1       191 1.07135E-04 1.93113E-07 0.00000E+00
 -1       192 1.07037E-04 3.86219E-07 3.30872E-24
 -1       193 1.06873E-04 5.79317E-07 0.00000E+00
 -1       194 1.06643E-04 7.72400E-07 3.30872E-24
 -1       195 1.06349E-04 9.65459E-07-6.61744E-24
 -1       251 1.63854E-04-1.44762E-05 0.00000E+00
 -1       252 1.62121E-04-6.67552E-05 6.61744E-24
 -1       253 1.59737E-04-1.31609E-04 0.00000E+00
 -1       254 1.58163E-04-1.81918E-04 0.00000E+00
 -1       255 1.57542E-04-2.00444E-04 1.32349E-23
 -1       256 1.56659E-04-1.70518E-04-6.61744E-24
 -1       257 1.53976E-04-1.01392E-04-1.32349E-23
 -1       258 1.48931E-04-3.03193E-06 0.00000E+00
 -1       259 1.43853E-04 9.57096E-05-1.32349E-23
 -1       260 1.41096E-04 1.65970E-04-6.61744E-24
 -1       261 1.40168E-04 1.97365E-04 0.00000E+00
 -1       262 1.39571E-04 1.80215E-04 0.00000E+00
 -1       263 1.38037E-04 1.30765E-04 0.00000E+00
 -1       264 1.35647E-04 6.58399E-05 0.00000E+00
 -1       265 1.33876E-04 1.27622E-05 0.00000E+00
 -1       266 1.57144E-04-1.76329E-06 0.00000E+00
 -1       267 1.49913E-04-1.79343E-06-3.30872E-24
 -1       268 1.42683E-04-1.82530E-06 3.30872E-24
 -1       269 1.35452E-04-1.85211E-06 8.27181E-25
 -1       270 1.28221E-04-1.87883E-06-8.27181E-25
 -1       271 1.58520E-04 3.57500E-06-5.29396E-23
 -1       272 1.53075E-04 7.42267E-06 5.29396E-23
 -1       273 1.48180E-04 9.84019E-06 0.00000E+00
 -1       274 1.43796E-04 1.08484E-05 0.00000E+00
 -1       275 1.39896E-04 1.05686E-05 0.00000E+00
 -1       276 1.36408E-04 9.17991E-06 0.00000E+00
 -1       277 1.33243E-04 6.93098E-06 0.00000E+00
 -1       278 1.30289E-04 4.11312E-06 0.00000E+00
 -1       279 1.27426E-04 1.05256E-06 1.05879E-22
 -1       280 1.24527E-04-1.91200E-06-5.29396E-23
 -1       281 1.21469E-04-4.44817E-06 1.05879E-22
 -1       282 1.18137E-04-6.24473E-06 0.00000E+00
 -1       283 1.14430E-04-7.03653E-06 0.00000E+00
 -1       284 1.10279E-04-6.60378E-06 5.29396E-23
 -1       285 1.05611E-04-4.81302E-06 0.00000E+00
 -1       301 1.27703E-04-1.36724E-06 0.00000E+00
 -1       302 1.22127E-04-1.39220E-06 3.30872E-24
 -1       303 1.16618E-04-1.41473E-06 6.61744E-24
 -1       304 1.11176E-04-1.43978E-06 0.00000E+00
 -1       305 1.05802E-04-1.47152E-06 0.00000E+00
 -1       306 1.29739E-04 2.64062E-06 0.00000E+00
 -1       307 1.26817E-04 4.63159E-06-2.64698E-23
 -1       308 1.24568E-04 4.84835E-06-5.29396E-23
 -1       309 1.22890E-04 3.51552E-06 2.64698E-23
 -1       310 1.21678E-04 9.33491E-07-5.29396E-23
 -1       311 1.20804E-04-2.56005E-06 2.64698E-23
 -1       312 1.20127E-04-6.58584E-06 0.00000E+00
 -1       313 1.19501E-04-1.07479E-05 2.64698E-23
 -1       314 1.18776E-04-1.46438E-05-5.29396E-23
 -1       315 1.17806E-04-1.78797E-05 2.64698E-23
 -1       316 1.16455E-04-2.00919E-05-5.29396E-23
 -1       317 1.14599E-04-2.09492E-05 2.64698E-23
 -1       318 1.12132E-04-2.01818E-05 0.00000E+00
 -1       319 1.08981E-04-1.75685E-05 0.00000E+00
 -1       320 1.05076E-04-1.29784E-05 0.00000E+00
 -1       336 1.33802E-04-3.52645E-06 1.32349E-23
 -1       337 1.28614E-04-4.07754E-06 6.61744E-24
 -1       338 1.22653E-04-4.63257E-06 1.32349E-23
 -1       339 1.15950E-04-5.19101E-06 6.61744E-24
 -1       340 1.08537E-04-5.75441E-06-1.32349E-23
 -1       406 1.05562E-04 1.35146E-06 6.61744E-24
 -1       407 1.05070E-04 1.54434E-06-3.30872E-24
 -1       408 1.04513E-04 1.73706E-06-6.61744E-24
 -1       409 1.03890E-04 1.92936E-06-3.30872E-24
 -1       410 1.03201E-04 2.12083E-06 0.00000E+00
 -1       521 9.50527E-05 1.30241E-06-1.05879E-22
 -1       522 9.02298E-05 2.17169E-06 5.29396E-23
 -1       523 8.61141E-05 1.17981E-06-1.05879E-22
 -1       524 8.25999E-05-1.47430E-06 0.00000E+00
 -1       525 7.95684E-05-5.42544E-06 1.05879E-22
 -1       526 7.68501E-05-1.02289E-05 5.29396E-23
 -1       527 7.42530E-05-1.53599E-05-1.05879E-22
 -1       528 7.15744E-05-2.02730E-05 0.00000E+00
 -1       529 6.86193E-05-2.44426E-05 1.05879E-22
 -1       530 6.52102E-05-2.73925E-05 5.29396E-23
 -1       531 6.12088E-05-2.87590E-05 1.05879E-22
 -1       532 5.65180E-05-2.82829E-05 0.00000E+00
 -1       533 5.10979E-05-2.58753E-05 0.00000E+00
 -1       534 4.49771E-05-2.15683E-05 0.00000E+00
 -1       535 3.82080E-05-1.55819E-05 1.05879E-22
 -1       536 1.00408E-04 1.12423E-06 6.61744E-24
 -1       537 1.00388E-04 6.74736E-06 1.65436E-24
 -1       538 1.00376E-04 1.07417E-05 0.00000E+00
 -1       539 1.00370E-04 1.32950E-05-4.13590E-25
 -1       540 1.00367E-04 1.45947E-05 0.00000E+00
 -1       541 1.00366E-04 1.48285E-05 0.00000E+00
 -1       542 1.00364E-04 1.41840E-05 0.00000E+00
 -1       543 1.00362E-04 1.28491E-05 0.00000E+00
 -1       544 1.00359E-04 1.10114E-05 0.00000E+00
 -1       545 1.00355E-04 8.85866E-06 0.00000E+00
 -1       546 1.00351E-04 6.57870E-06 2.58494E-26
 -1       547 1.00348E-04 4.35930E-06-1.03398E-25
 -1       548 1.00345E-04 2.38818E-06 2.06795E-25
 -1       549 1.00343E-04 8.53116E-07 0.00000E+00
 -1       550 1.00342E-04-5.81093E-08 0.00000E+00
 -1       551 9.02291E-05-6.60692E-06-3.30872E-24
 -1       552 7.87292E-05-6.90662E-06-4.34270E-24
 -1       553 6.65025E-05-7.21437E-06-6.61744E-24
 -1       554 5.41067E-05-7.52796E-06-6.61744E-24
 -1       555 4.20997E-05-7.84379E-06 0.00000E+00
 -1       556 9.75936E-05 8.71465E-07 0.00000E+00
 -1       557 9.53895E-05 6.37655E-06 1.32349E-23
 -1       558 9.37680E-05 1.03556E-05 0.00000E+00
 -1       559 9.26625E-05 1.29765E-05 1.32349E-23
 -1       560 9.20069E-05 1.44074E-05 0.00000E+00
 -1       561 9.17360E-05 1.48174E-05 0.00000E+00
 -1       562 9.17847E-05 1.43760E-05 0.00000E+00
 -1       563 9.20888E-05 1.32531E-05 0.00000E+00
 -1       564 9.25843E-05 1.16189E-05 0.00000E+00
 -1       565 9.32071E-05 9.64341E-06 0.00000E+00
 -1       566 9.38938E-05 7.49722E-06 3.30872E-24
 -1       567 9.45805E-05 5.35074E-06 0.00000E+00
 -1       568 9.52039E-05 3.37437E-06-1.65436E-24
 -1       569 9.57005E-05 1.73834E-06 1.65436E-24
 -1       570 9.60066E-05 6.12801E-07 0.00000E+00
 -1       571 1.00470E-04 7.70974E-08 2.48154E-24
 -1       572 1.00601E-04 2.27417E-07-1.24077E-24
 -1       573 1.00732E-04 3.08104E-07 1.65436E-24
 -1       574 1.00864E-04 3.35059E-07 8.27181E-25
 -1       575 1.00996E-04 3.24248E-07-3.30872E-24
 -1       576 1.01128E-04 2.91742E-07-1.65436E-24
 -1       577 1.01260E-04 2.53620E-07-3.30872E-24
 -1       578 1.01392E-04 2.25978E-07-3.30872E-24
 -1       579 1.01524E-04 2.24909E-07 0.00000E+00
 -1       580 1.01656E-04 2.66509E-07 0.00000E+00
 -1       581 1.01788E-04 3.66875E-07 0.00000E+00
 -1       582 1.01920E-04 5.42087E-07 0.00000E+00
 -1       583 1.02052E-04 8.08211E-07 0.00000E+00
 -1       584 1.02184E-04 1.18116E-06 3.30872E-24
 -1       585 1.02316E-04 1.67674E-06 6.61744E-24
 -1       586 9.96748E-05-1.02567E-07 3.30872E-24
 -1       587 9.89146E-05-4.74063E-08 1.65436E-24
 -1       588 9.81175E-05 7.52842E-09-8.27181E-25
 -1       589 9.73394E-05 6.19120E-08 4.13590E-25
 -1       590 9.66361E-05 1.15217E-07 0.00000E+00
 -1       591 1.00164E-04 1.25046E-07 0.00000E+00
 -1       592 1.00004E-04 3.40730E-07-1.65436E-24
 -1       593 9.98628E-05 5.02508E-07 0.00000E+00
 -1       594 9.97369E-05 6.22347E-07 0.00000E+00
 -1       595 9.96221E-05 7.12308E-07 1.65436E-24
 -1       596 9.95139E-05 7.84357E-07-8.27181E-25
 -1       597 9.94078E-05 8.50455E-07 0.00000E+00
 -1       598 9.92995E-05 9.22549E-07-8.27181E-25
 -1       599 9.91845E-05 1.01259E-06-1.65436E-24
 -1       600 9.90582E-05 1.13251E-06-8.27181E-25
 -1       601 9.89163E-05 1.29426E-06 0.00000E+00
 -1       602 9.87544E-05 1.50978E-06 0.00000E+00
 -1       603 9.85680E-05 1.79103E-06-8.27181E-25
 -1       604 9.83530E-05 2.15003E-06-4.13590E-25
 -1       605 9.81051E-05 2.59872E-06 0.00000E+00
 -1       606 1.02491E-04 3.21334E-06 0.00000E+00
 -1       607 1.02530E-04 4.26899E-06 0.00000E+00
 -1       608 1.02568E-04 5.46751E-06 0.00000E+00
 -1       609 1.02605E-04 6.79878E-06 0.00000E+00
 -1       610 1.02642E-04 8.25261E-06 0.00000E+00
 -1       611 1.02679E-04 9.81867E-06 0.00000E+00
 -1       612 1.02715E-04 1.14866E-05-3.30872E-24
 -1       613 1.02751E-04 1.32461E-05-1.65436E-24
 -1       614 1.02788E-04 1.50868E-05 0.00000E+00
 -1       615 1.02824E-04 1.69983E-05-1.65436E-24
 -1       616 1.02860E-04 1.89703E-05 0.00000E+00
 -1       617 1.02895E-04 2.09925E-05 0.00000E+00
 -1       618 1.02931E-04 2.30545E-05 0.00000E+00
 -1       619 1.02967E-04 2.51459E-05 0.00000E+00
 -1       620 1.03002E-04 2.72565E-05 0.00000E+00
 -1       621 1.01638E-04 2.45035E-06 0.00000E+00
 -1       622 1.00830E-04 2.59157E-06 1.65436E-24
 -1       623 1.00033E-04 2.73274E-06 3.30872E-24
 -1       624 9.92592E-05 2.87356E-06 1.65436E-24
 -1       625 9.85196E-05 3.01383E-06-3.30872E-24
 -1       626 1.02236E-04 3.28253E-06-6.61744E-24
 -1       627 1.01966E-04 4.41032E-06-6.61744E-24
 -1       628 1.01644E-04 5.67820E-06-6.61744E-24
 -1       629 1.01275E-04 7.07024E-06 0.00000E+00
 -1       630 1.00866E-04 8.57054E-06 0.00000E+00
 -1       631 1.00421E-04 1.01630E-05 0.00000E+00
 -1       632 9.99485E-05 1.18316E-05 0.00000E+00
 -1       633 9.94529E-05 1.35602E-05 0.00000E+00
 -1       634 9.89407E-05 1.53329E-05 0.00000E+00
 -1       635 9.84180E-05 1.71335E-05 0.00000E+00
 -1       636 9.78907E-05 1.89460E-05 3.30872E-24
 -1       637 9.73650E-05 2.07544E-05 0.00000E+00
 -1       638 9.68467E-05 2.25426E-05 0.00000E+00
 -1       639 9.63416E-05 2.42944E-05-8.27181E-25
 -1       640 9.58552E-05 2.59939E-05 0.00000E+00
 -1       656 1.01228E-04 2.90912E-05 3.30872E-24
 -1       657 9.98619E-05 2.87944E-05 0.00000E+00
 -1       658 9.87676E-05 2.84988E-05 0.00000E+00
 -1       659 9.77729E-05 2.82035E-05-3.30872E-24
 -1       660 9.67048E-05 2.79072E-05 0.00000E+00
 -1       661 1.02386E-04 3.15395E-05-3.30872E-24
 -1       662 1.01722E-04 3.37498E-05 1.65436E-24
 -1       663 1.01048E-04 3.59907E-05 3.30872E-24
 -1       664 1.00367E-04 3.82484E-05-1.65436E-24
 -1       665 9.96861E-05 4.05086E-05 0.00000E+00
 -1       666 9.90095E-05 4.27571E-05 0.00000E+00
 -1       667 9.83426E-05 4.49798E-05 3.30872E-24
 -1       668 9.76908E-05 4.71627E-05 1.65436E-24
 -1       669 9.70595E-05 4.92913E-05 3.30872E-24
 -1       670 9.64539E-05 5.13516E-05 0.00000E+00
 -1       671 9.58795E-05 5.33291E-05 0.00000E+00
 -1       672 9.53415E-05 5.52091E-05 0.00000E+00
 -1       673 9.48456E-05 5.69772E-05 3.30872E-24
 -1       674 9.43962E-05 5.86180E-05 0.00000E+00
 -1       675 9.40003E-05 6.01172E-05-1.65436E-24
 -1       676 9.97364E-05 6.22921E-05-6.61744E-24
 -1       677 9.85119E-05 6.21235E-05-3.30872E-24
 -1       678 9.72900E-05 6.19550E-05 3.30872E-24
 -1       679 9.60723E-05 6.17872E-05 0.00000E+00
 -1       680 9.48601E-05 6.16194E-05 0.00000E+00
 -1       771 2.63096E-05-2.98950E-07-5.29396E-23
 -1       772 2.21419E-05 6.10228E-06-5.29396E-23
 -1       773 1.85052E-05 1.11084E-05 0.00000E+00
 -1       774 1.53580E-05 1.48240E-05 0.00000E+00
 -1       775 1.26594E-05 1.73558E-05-5.29396E-23
 -1       776 1.03665E-05 1.88140E-05-2.64698E-23
 -1       777 8.43578E-06 1.93109E-05 0.00000E+00
 -1       778 6.82324E-06 1.89616E-05 2.64698E-23
 -1       779 5.48449E-06 1.78825E-05-5.29396E-23
 -1       780 4.37456E-06 1.61923E-05 0.00000E+00
 -1       781 3.44843E-06 1.40107E-05-5.29396E-23
 -1       782 2.66073E-06 1.14590E-05 2.64698E-23
 -1       783 1.96607E-06 8.65901E-06-5.29396E-23
 -1       784 1.31958E-06 5.73349E-06-2.64698E-23
 -1       785 6.75833E-07 2.80535E-06 0.00000E+00
 -1       786 9.61660E-05 3.79528E-07 8.27181E-25
 -1       787 9.62759E-05 5.33814E-07 0.00000E+00
 -1       788 9.63856E-05 6.39702E-07 0.00000E+00
 -1       789 9.64964E-05 7.09446E-07-1.65436E-24
 -1       790 9.66072E-05 7.55189E-07 0.00000E+00
 -1       791 9.67182E-05 7.89026E-07 0.00000E+00
 -1       792 9.68293E-05 8.23014E-07 0.00000E+00
 -1       793 9.69404E-05 8.69212E-07 0.00000E+00
 -1       794 9.70515E-05 9.39716E-07 0.00000E+00
 -1       795 9.71627E-05 1.04667E-06 0.00000E+00
 -1       796 9.72737E-05 1.20233E-06 0.00000E+00
 -1       797 9.73848E-05 1.41906E-06 1.65436E-24
 -1       798 9.74957E-05 1.70940E-06 0.00000E+00
 -1       799 9.76062E-05 2.08604E-06 0.00000E+00
 -1       800 9.77168E-05 2.56195E-06 0.00000E+00
 -1       801 8.86000E-05 2.59366E-07 0.00000E+00
 -1       802 7.01469E-05 2.30411E-07 0.00000E+00
 -1       803 4.63865E-05 1.02696E-07 0.00000E+00
 -1       804 2.29912E-05-2.56569E-08 3.30872E-24
 -1       805 5.63251E-06-4.47501E-08 2.64698E-23
 -1       806 9.58552E-05 3.16767E-07 0.00000E+00
 -1       807 9.56546E-05 4.39128E-07 0.00000E+00
 -1       808 9.54602E-05 5.41584E-07 0.00000E+00
 -1       809 9.52693E-05 6.33337E-07 1.65436E-24
 -1       810 9.50789E-05 7.23547E-07 0.00000E+00
 -1       811 9.48855E-05 8.21307E-07 0.00000E+00
 -1       812 9.46858E-05 9.35698E-07 3.30872E-24
 -1       813 9.44764E-05 1.07579E-06 0.00000E+00
 -1       814 9.42540E-05 1.25064E-06 3.30872E-24
 -1       815 9.40152E-05 1.46933E-06 0.00000E+00
 -1       816 9.37565E-05 1.74089E-06 3.30872E-24
 -1       817 9.34746E-05 2.07437E-06-1.65436E-24
 -1       818 9.31662E-05 2.47883E-06 1.65436E-24
 -1       819 9.28279E-05 2.96324E-06 0.00000E+00
 -1       820 9.24567E-05 3.53658E-06-1.65436E-24
 -1       821 9.76820E-05 3.90442E-06 0.00000E+00
 -1       822 9.75303E-05 4.85899E-06 0.00000E+00
 -1       823 9.73789E-05 5.99465E-06 3.30872E-24
 -1       824 9.72258E-05 7.29151E-06 1.65436E-24
 -1       825 9.70723E-05 8.72905E-06 0.00000E+00
 -1       826 9.69185E-05 1.02863E-05 0.00000E+00
 -1       827 9.67644E-05 1.19419E-05 0.00000E+00
 -1       828 9.66102E-05 1.36740E-05 0.00000E+00
 -1       829 9.64559E-05 1.54607E-05 0.00000E+00
 -1       830 9.63015E-05 1.72797E-05 0.00000E+00
 -1       831 9.61472E-05 1.91087E-05-3.30872E-24
 -1       832 9.59932E-05 2.09254E-05 1.65436E-24
 -1       833 9.58394E-05 2.27074E-05 3.30872E-24
 -1       834 9.56871E-05 2.44325E-05 0.00000E+00
 -1       835 9.55345E-05 2.60788E-05 0.00000E+00
 -1       836 9.70357E-05 3.32487E-06-3.30872E-24
 -1       837 9.60903E-05 3.50458E-06-1.65436E-24
 -1       838 9.50539E-05 3.68403E-06 0.00000E+00
 -1       839 9.39917E-05 3.86265E-06-1.65436E-24
 -1       840 9.29690E-05 4.04098E-06-8.27181E-25
 -1       856 9.52899E-05 2.92483E-05-8.27181E-25
 -1       857 9.51824E-05 3.11040E-05 0.00000E+00
 -1       858 9.50746E-05 3.31563E-05 3.30872E-24
 -1       859 9.49655E-05 3.53697E-05-1.65436E-24
 -1       860 9.48559E-05 3.77086E-05 0.00000E+00
 -1       861 9.47460E-05 4.01370E-05-1.65436E-24
 -1       862 9.46359E-05 4.26192E-05 0.00000E+00
 -1       863 9.45257E-05 4.51191E-05 1.65436E-24
 -1       864 9.44155E-05 4.76009E-05 3.30872E-24
 -1       865 9.43055E-05 5.00286E-05 0.00000E+00
 -1       866 9.41957E-05 5.23662E-05 3.30872E-24
 -1       867 9.40862E-05 5.45781E-05-1.65436E-24
 -1       868 9.39770E-05 5.66284E-05 3.30872E-24
 -1       869 9.38686E-05 5.84817E-05-1.65436E-24
 -1       870 9.37605E-05 6.01026E-05 0.00000E+00
 -1       871 9.41828E-05 2.76115E-05 0.00000E+00
 -1       872 9.31718E-05 2.75957E-05 0.00000E+00
 -1       873 9.22750E-05 2.75794E-05-8.27181E-25
 -1       874 9.14087E-05 2.75623E-05-2.06795E-25
 -1       875 9.04894E-05 2.75444E-05 8.27181E-25
 -1       876 9.49830E-05 2.92626E-05-3.30872E-24
 -1       877 9.45325E-05 3.10337E-05 0.00000E+00
 -1       878 9.40387E-05 3.29201E-05 0.00000E+00
 -1       879 9.35080E-05 3.49066E-05-3.30872E-24
 -1       880 9.29457E-05 3.69774E-05 0.00000E+00
 -1       881 9.23575E-05 3.91172E-05 0.00000E+00
 -1       882 9.17492E-05 4.13104E-05-6.61744E-24
 -1       883 9.11266E-05 4.35417E-05-3.30872E-24
 -1       884 9.04953E-05 4.57958E-05 0.00000E+00
 -1       885 8.98612E-05 4.80575E-05 0.00000E+00
 -1       886 8.92300E-05 5.03112E-05 0.00000E+00
 -1       887 8.86073E-05 5.25418E-05 0.00000E+00
 -1       888 8.79988E-05 5.47339E-05-6.61744E-24
 -1       889 8.74095E-05 5.68717E-05 0.00000E+00
 -1       890 8.68460E-05 5.89402E-05 1.65436E-24
 -1       891 9.25604E-05 6.13675E-05 3.30872E-24
 -1       892 9.15279E-05 6.12777E-05 1.65436E-24
 -1       893 9.04718E-05 6.11880E-05 0.00000E+00
 -1       894 8.93063E-05 6.10983E-05-8.27181E-25
 -1       895 8.79456E-05 6.10084E-05-8.27181E-25
 -1       956 9.18913E-05 5.13247E-06-3.30872E-24
 -1       957 9.17287E-05 6.20639E-06-1.65436E-24
 -1       958 9.15654E-05 7.41344E-06 6.61744E-24
 -1       959 9.14016E-05 8.73677E-06-1.65436E-24
 -1       960 9.12376E-05 1.01596E-05 0.00000E+00
 -1       961 9.10734E-05 1.16649E-05 3.30872E-24
 -1       962 9.09091E-05 1.32358E-05 0.00000E+00
 -1       963 9.07447E-05 1.48553E-05 1.65436E-24
 -1       964 9.05803E-05 1.65063E-05 0.00000E+00
 -1       965 9.04159E-05 1.81719E-05 0.00000E+00
 -1       966 9.02514E-05 1.98351E-05 6.61744E-24
 -1       967 9.00871E-05 2.14789E-05-3.30872E-24
 -1       968 8.99229E-05 2.30864E-05 6.61744E-24
 -1       969 8.97590E-05 2.46405E-05 3.30872E-24
 -1       970 8.95955E-05 2.61244E-05-6.61744E-24
 -1       971 8.92428E-05 2.89491E-05 6.61744E-24
 -1       972 8.90477E-05 3.05708E-05-1.65436E-24
 -1       973 8.88521E-05 3.23645E-05 0.00000E+00
 -1       974 8.86559E-05 3.43077E-05 3.30872E-24
 -1       975 8.84592E-05 3.63774E-05-6.61744E-24
 -1       976 8.82623E-05 3.85507E-05 0.00000E+00
 -1       977 8.80653E-05 4.08048E-05-6.61744E-24
 -1       978 8.78680E-05 4.31165E-05-3.30872E-24
 -1       979 8.76707E-05 4.54629E-05-6.61744E-24
 -1       980 8.74735E-05 4.78208E-05-3.30872E-24
 -1       981 8.72763E-05 5.01672E-05-6.61744E-24
 -1       982 8.70793E-05 5.24791E-05-3.30872E-24
 -1       983 8.68827E-05 5.47333E-05-6.61744E-24
 -1       984 8.66872E-05 5.69069E-05 0.00000E+00
 -1       985 8.64922E-05 5.89769E-05 0.00000E+00
 -3
    1PSTEP                        14           7           1          
  100CL  107 1.000000000         409                     0    7           1
 -4  STRESS      6    1
 -5  SXX         1    4    1    1
 -5  SYY         1    4    2    2
 -5  SZZ         1    4    3    3
 -5  SXY         1    4    1    2
 -5  SYZ         1    4    2    3
 -5  SZX         1    4    3    1
 -1         1-3.46802E+06-1.79706E+06-8.30267E+05-2.31145E+06 8.44011E-10 1.27766E-08
 -1         2 3.45788E+03-4.98311E+05 1.22427E+04-1.07758E+04-5.16854E-09-1.72392E-08
 -1         3-1.52692E+02-1.41020E+06 3.61907E+02-8.59360E+02 2.94168E-10-6.38283E-09
 -1         5-3.19173E+01 5.52751E+05 1.55833E+01 1.55239E+00 2.60850E-10 2.02381E-08
 -1         8-1.96604E+06-7.89758E+05-1.74938E+05-1.26585E+06 1.14233E-09 1.05647E-08
 -1         9-2.30494E+06-6.98838E+05-2.56514E+05-7.18036E+05-8.20728E-10-1.50758E-09
 -1        10-1.26547E+03-1.47463E+06-2.41494E+03-5.85869E+03-5.75346E-09 4.75598E-09
 -1        12-2.56441E+01 5.52784E+05 5.06228E+02 1.00595E+01 4.63082E-10 1.08475E-08
 -1        15 4.10181E+03 2.22537E+03 1.28346E+04 1.30261E+01-2.52385E-10 2.66132E-08
 -1        16-6.19325E+06-1.97345E+06-9.47739E+05-1.98748E+06-2.92979E-09 9.91470E-09
 -1        17-9.95406E+05-7.64982E+05-1.58064E+05-6.79928E+05-1.04075E-08-4.81377E-09
 -1        18 4.79371E+04 1.07300E+04-2.13157E+04-1.34319E+05 1.94632E-10 1.49157E-10
 -1        19 1.66225E+05 1.98931E+05-1.27453E+03 1.99652E+04-6.43195E-10-6.44359E-09
 -1        20 8.52885E+04-2.45928E+05-4.66266E+04 7.74623E+04-5.55095E-10-3.33603E-09
 -1        21-1.20241E+02-4.80874E+05-1.92002E+03-4.58202E+02 4.35544E-09-1.18006E-08
 -1        24-4.45584E+06-1.56843E+06-5.32094E+05-1.99937E+06-7.59610E-09-8.93488E-09
 -1        25 4.19641E+04 8.02954E+04 4.05032E+04-5.73996E+05 1.72167E-09-1.94268E-09
 -1        26-3.07499E+04 1.41689E+05-8.45789E+03-3.22841E+04-1.30967E-11 4.72075E-09
 -1        27-4.89616E+04-1.47067E+05-6.76740E+04 1.05685E+05-1.08685E-09 7.03343E-10
 -1        28-2.32473E+03-1.46633E+05 4.94403E+03 5.35932E+04 6.41421E-09-6.21546E-09
 -1        32-1.32240E+06-7.38601E+04 4.23369E+05-1.81381E+06-1.67347E-09-2.81943E-11
 -1        33-1.96318E+05 1.31243E+05 4.24250E+04-5.62249E+04-9.34506E-11-4.82881E-09
 -1        34-3.19648E+05-4.34271E+04-5.98764E+03 1.01094E+05-1.35204E-09-5.46091E-09
 -1        35-3.87960E+04-5.38795E+04-2.78759E+03 8.81875E+04 1.07348E-08-1.32786E-08
 -1        51 2.71490E+04-6.70088E+05 5.67318E+04-1.84111E+06-2.32831E-10 1.74623E-10
 -1        52 2.20495E+04-6.78421E+05 4.09226E+04-2.06752E+06 8.00355E-10 2.44472E-09
 -1        53 2.21754E+04-7.07723E+05 3.93875E+04-1.83539E+06 1.60071E-10 1.37079E-08
 -1        54 5.37338E+04-7.10447E+05 6.91573E+04-2.07319E+06-7.71252E-10-1.66619E-09
 -1        55 1.03285E+05-7.37768E+05 1.28839E+05-1.83383E+06-2.91038E-11-2.91038E-11
 -1        56-7.62185E+06-7.07328E+05-6.74235E+05-2.65535E+06-8.13088E-10 5.15138E-09
 -1        57-6.78535E+06-1.84851E+06-3.69121E+05-3.42551E+06 5.31691E-09-1.28421E-09
 -1        58-7.82798E+06-6.19791E+05-1.48867E+05-2.28622E+06 2.59934E-09 5.74801E-10
 -1        59-6.65421E+06-1.83545E+06-7.48587E+04-3.86242E+06 1.55524E-08 3.60251E-09
 -1        60-7.84500E+06-6.48196E+05-3.82556E+04-2.28151E+06 2.08529E-08-3.53248E-08
 -1        61-6.62991E+06-1.58838E+06 2.42416E+04-3.47357E+06 3.41752E-08-2.01171E-08
 -1        62-7.75825E+06-9.34093E+05-6.78387E+04-2.61318E+06-1.33150E-09 1.15033E-08
 -1        63-6.97470E+06-1.00817E+06 6.93009E+04-2.65969E+06 2.57860E-08-2.47383E-09
 -1        64-7.40888E+06-1.29261E+06-6.99936E+04-3.02225E+06-7.62520E-09 1.98997E-09
 -1        65-7.82800E+06-3.68686E+05 2.84865E+04-2.06941E+06 4.19204E-08-9.55515E-09
 -1        66-6.99317E+06-1.50998E+06-3.87139E+04-3.26377E+06 3.47427E-08-1.44864E-08
 -1        67-8.38413E+06-1.00362E+05-6.89635E+04-1.88778E+06 4.15812E-08-3.00533E-08
 -1        68-6.94599E+06-1.49677E+06-1.36820E+05-3.28221E+06 1.55414E-08 5.01677E-09
 -1        69-8.07488E+06-5.50280E+05-3.44333E+05-1.98519E+06-1.15833E-08 3.55431E-09
 -1        70-7.22800E+06-1.11695E+06-6.30588E+05-3.10040E+06-9.31323E-09 7.56700E-10
 -1        86-1.84036E+03-5.28879E+05 7.16520E+03 5.38711E+03-3.08546E-10-1.05913E-08
 -1        87 9.11549E+03-5.04573E+05 2.08221E+04-1.75675E+04-2.29011E-09 2.15325E-08
 -1        88-7.27750E+03-5.22863E+05 2.88802E+04 1.21795E+04-4.36194E-09-6.30288E-09
 -1        89 5.55669E+04-4.88937E+05 7.89908E+04-2.24676E+04-2.91038E-11-1.44930E-08
 -1        90-4.81118E+04-5.44635E+05 1.09424E+05 1.02890E+04-5.29690E-09 5.29349E-09
 -1       121-2.63914E+02-1.41104E+06 2.81706E+02 4.29234E+02-1.59733E-09 5.77711E-09
 -1       122-1.30767E+01-1.41013E+06 7.75076E+02-1.71238E+03-4.16776E-09 1.19717E-08
 -1       123-3.60071E+02-1.41114E+06 1.17214E+03 1.28054E+03-4.29259E-09 1.30040E-08
 -1       124 1.52145E+03-1.40929E+06 3.21281E+03-3.54505E+03-8.27617E-09 3.71074E-09
 -1       125-1.41042E+03-1.41196E+06 4.77073E+03 2.26097E+03-6.96218E-09-2.53385E-09
 -1       191-3.40170E+01 5.52794E+05 1.75802E+01-7.84497E-01 3.61265E-10-4.30191E-09
 -1       192-3.33703E+01 5.52752E+05 3.30390E+01 4.15997E+00 4.55788E-10-8.22183E-09
 -1       193-3.78661E+01 5.52793E+05 6.04202E+01-3.42838E+00 6.43674E-10 1.32459E-08
 -1       194-3.80396E+01 5.52757E+05 1.25068E+02 9.05824E+00 4.36771E-10-1.27329E-11
 -1       195-4.52581E+01 5.52789E+05 2.43598E+02-5.75257E+00 9.82496E-10-5.29326E-10
 -1       251-1.78215E+06-1.17398E+05-8.27204E+04 1.25697E+05-2.50202E-09 1.78225E-08
 -1       252-1.69628E+05 9.67564E+04 2.25182E+05-3.45130E+05-4.35307E-10-2.00343E-08
 -1       253-1.07437E+06 3.10187E+04 1.19643E+04 1.66437E+05 2.60206E-09 3.33221E-08
 -1       254 2.03219E+05 3.60949E+04 2.51494E+05-2.24973E+05 9.46511E-09-1.24928E-08
 -1       255-2.13972E+06-7.45275E+04-2.28218E+05 5.27540E+03 5.96538E-09-1.39648E-08
 -1       256 5.18695E+05 5.92466E+04 3.09296E+05 1.46812E+05 1.33696E-08 2.24827E-09
 -1       257-1.37924E+06-2.88034E+03-7.36044E+04-2.03171E+05 1.59835E-08-2.40543E-08
 -1       258-2.92110E+05 1.70099E+04 1.40496E+05 3.53692E+05 4.77735E-09 4.40787E-08
 -1       259-1.35730E+06-5.67839E+02-6.91297E+04-2.03708E+05 2.56910E-08-4.10705E-08
 -1       260 5.00643E+05 5.79628E+04 3.05130E+05 1.52119E+05 6.78961E-09 2.34195E-08
 -1       261-2.14415E+06-7.50264E+04-2.29959E+05 5.03557E+02-7.71979E-09-1.94186E-08
 -1       262 2.21856E+05 3.66023E+04 2.53601E+05-2.19903E+05-2.98069E-08 1.16597E-09
 -1       263-1.08793E+06 3.03252E+04 5.96240E+03 1.66144E+05 2.48920E-08 3.66026E-08
 -1       264-1.78868E+05 9.03976E+04 2.15461E+05-3.47194E+05 1.11803E-07-2.86600E-08
 -1       265-1.75964E+06-1.09982E+05-9.02719E+04 1.28063E+05 4.35202E-08 1.47702E-08
 -1       266-7.25332E+04-3.35969E+04 1.68049E+05-2.70294E+02 7.27596E-12-4.61256E-09
 -1       267 8.40229E+04 3.92475E+04 1.19073E+05 3.10829E+02 7.27596E-12-9.23691E-10
 -1       268-1.14123E+04-5.60529E+03 4.41130E+04-4.03119E+01 1.58252E-10-2.12084E-09
 -1       269 1.34722E+04 6.72048E+03 2.87955E+04 4.68704E+01 7.59428E-11-3.63839E-09
 -1       270-2.04965E+03-1.11262E+03 1.38406E+04-6.50479E+00-3.04681E-11 1.44845E-08
 -1       271-8.57894E+06-1.04732E+06-6.95111E+05-3.35821E+06 1.65892E-09-8.73115E-11
 -1       272-8.90283E+06-1.52543E+06-4.53522E+05-3.27128E+06-2.30830E-09-7.90897E-09
 -1       273-8.72141E+06-1.22650E+06-1.63868E+05-3.31276E+06-1.99179E-09-1.99725E-08
 -1       274-8.72752E+06-1.31777E+06-9.31262E+04-3.34069E+06-5.38876E-10-7.83075E-09
 -1       275-8.75050E+06-1.23722E+06-3.81669E+04-3.29509E+06 2.93767E-10 3.53793E-09
 -1       276-8.68830E+06-1.31022E+06-2.05337E+04-3.36970E+06-3.18778E-10 8.99627E-09
 -1       277-8.76104E+06-1.23135E+06-1.01546E+04-3.28513E+06-4.04543E-09-4.34284E-10
 -1       278-8.67609E+06-1.31777E+06-7.79678E+03-3.38304E+06 2.53112E-09 7.02362E-09
 -1       279-8.76347E+06-1.22894E+06-8.81825E+03-3.28240E+06-1.26809E-09 2.56023E-10
 -1       280-8.67949E+06-1.31836E+06-1.69554E+04-3.38057E+06 9.08244E-10-1.20676E-08
 -1       281-8.75756E+06-1.23100E+06-3.08829E+04-3.28746E+06-3.95175E-10 2.60661E-09
 -1       282-8.70802E+06-1.32749E+06-7.53329E+04-3.36047E+06 1.84627E-09-9.05311E-09
 -1       283-8.73450E+06-1.22207E+06-1.32396E+05-3.30133E+06-1.00954E-10 8.22183E-10
 -1       284-8.85034E+06-1.49390E+06-3.66359E+05-3.30217E+06 5.81167E-10 6.07542E-09
 -1       285-8.61770E+06-1.07944E+06-5.61952E+05-3.34023E+06-5.65342E-09 1.46101E-08
 -1       301 5.21426E+04-1.65622E+04 1.93155E+05-1.23998E+03-2.07365E-09 7.10861E-09
 -1       302 2.34022E+04 2.60791E+04 1.33040E+05-2.34546E+03 3.24326E-09-3.16959E-10
 -1       303 3.23394E+03-1.65280E+03 1.22850E+05-1.69952E+03-2.43381E-09 1.62381E-08
 -1       304 4.41654E+04 4.40704E+04 2.03343E+05-2.10911E+03 3.15777E-09 1.23182E-08
 -1       305 1.02842E+05-3.44021E+04 3.56811E+05-1.16256E+03-1.07684E-09 1.41340E-08
 -1       306-4.69684E+06-5.80374E+05-3.15690E+05-1.82429E+06 1.44064E-09-2.69210E-09
 -1       307-4.79696E+06-8.55653E+05-2.07493E+05-1.83421E+06 1.32036E-09 2.97950E-09
 -1       308-4.76719E+06-6.61263E+05-7.46074E+04-1.79663E+06 5.80712E-10 1.07648E-08
 -1       309-4.71137E+06-7.63888E+05-4.28109E+04-1.87593E+06 1.66210E-09 1.93368E-08
 -1       310-4.78275E+06-6.64944E+05-1.74691E+04-1.78591E+06-1.71076E-09-8.27004E-09
 -1       311-4.69266E+06-7.60644E+05-9.63147E+03-1.89182E+06 3.17232E-09-5.13478E-09
 -1       312-4.78701E+06-6.62935E+05-4.94836E+03-1.78191E+06 2.60866E-09 1.26170E-08
 -1       313-4.69022E+06-7.60721E+05-4.37598E+03-1.89408E+06 5.48744E-09 1.13591E-08
 -1       314-4.78539E+06-6.64658E+05-5.65686E+03-1.78383E+06-9.06311E-10 4.40923E-09
 -1       315-4.69837E+06-7.54833E+05-1.13724E+04-1.88385E+06-4.26644E-09 6.12272E-09
 -1       316-4.77787E+06-6.69561E+05-2.11854E+04-1.79139E+06-3.22962E-09 2.47019E-09
 -1       317-4.72415E+06-7.55620E+05-5.16647E+04-1.86106E+06 5.05861E-09 8.34552E-09
 -1       318-4.75822E+06-6.65797E+05-9.03002E+04-1.80516E+06 5.55929E-10 9.65156E-09
 -1       319-4.82845E+06-8.66629E+05-2.50966E+05-1.81140E+06-5.08953E-09 1.05319E-08
 -1       320-4.67385E+06-5.66786E+05-3.81628E+05-1.83746E+06 2.50657E-09-1.67347E-09
 -1       336 1.36532E+03-1.53809E+06-9.52730E+03 3.59140E+03-1.53527E-08-8.06722E-09
 -1       337-3.74626E+03-1.54080E+06-1.12053E+04-8.57994E+03-1.07599E-08-1.38944E-08
 -1       338 1.20562E+03-1.53816E+06-1.47421E+04 4.97516E+03-1.90657E-08-4.76211E-09
 -1       339-1.65214E+04-1.54855E+06-3.32882E+04-1.12534E+04-1.34150E-08 7.90260E-09
 -1       340 1.21400E+04-1.53064E+06-5.08207E+04 6.24558E+03-2.35632E-08 1.13305E-08
 -1       406 1.20020E+01 5.52766E+05 9.98280E+02-4.48972E+00 1.40523E-09 9.08949E-09
 -1       407 3.22881E+02 5.52959E+05 2.12382E+03-9.36782E+00 3.11559E-10 1.50058E-08
 -1       408 1.06693E+03 5.52613E+05 4.24009E+03 1.46540E+01 1.71030E-09 9.12041E-09
 -1       409 4.56206E+03 5.54313E+05 9.54694E+03-1.77367E+02-2.04636E-12-1.03828E-08
 -1       410 1.31535E+04 5.51402E+05 1.94883E+04 1.79808E+02 1.55160E-09-8.94033E-10
 -1       521-9.68948E+06-1.18493E+06-6.66919E+05-3.75957E+06 2.18279E-10-1.34751E-08
 -1       522-9.97529E+06-1.70220E+06-4.39815E+05-3.70314E+06 3.46790E-09-1.03028E-08
 -1       523-9.83884E+06-1.35732E+06-1.57046E+05-3.70020E+06-4.43833E-10-5.08589E-09
 -1       524-9.79079E+06-1.50753E+06-9.05424E+04-3.79082E+06-1.25237E-09-2.08092E-09
 -1       525-9.87192E+06-1.36544E+06-3.65040E+04-3.67727E+06-1.72895E-09-2.84854E-09
 -1       526-9.75219E+06-1.49798E+06-2.01322E+04-3.82045E+06 2.91800E-09-7.83984E-10
 -1       527-9.87824E+06-1.36429E+06-1.00151E+04-3.67203E+06-7.85985E-09-3.64085E-09
 -1       528-9.75461E+06-1.48937E+06-8.30040E+03-3.81440E+06-4.53701E-09-2.32649E-09
 -1       529-9.86894E+06-1.37419E+06-1.03349E+04-3.68302E+06-1.43973E-09-5.85078E-09
 -1       530-9.78445E+06-1.46324E+06-2.00397E+04-3.77823E+06-1.55342E-09-7.82438E-09
 -1       531-9.84658E+06-1.39184E+06-3.72739E+04-3.70679E+06 3.69073E-09-1.72622E-09
 -1       532-9.84838E+06-1.44824E+06-9.10348E+04-3.72093E+06-3.58523E-09-2.45927E-09
 -1       533-9.80457E+06-1.39154E+06-1.58379E+05-3.73908E+06 7.06314E-09-1.03901E-08
 -1       534-1.00441E+07-1.63749E+06-4.43230E+05-3.62799E+06 4.78940E-09-7.85803E-09
 -1       535-9.65559E+06-1.21507E+06-6.71540E+05-3.79621E+06 7.81438E-09-1.47265E-08
 -1       536-2.10067E+04-3.15840E+04 8.78390E+04-7.30820E+01 3.32875E-09-3.85626E-09
 -1       537 1.92859E+04 3.59006E+04 6.03295E+04-6.71494E+04-6.74072E-09-9.57516E-09
 -1       538-6.49884E+03-4.45289E+03 2.26333E+04-4.40788E+01 1.53887E-09 1.33605E-09
 -1       539 1.25802E+03 4.33727E+03 1.38203E+04-6.72052E+04 2.80943E-09 3.61592E-09
 -1       540-4.29900E+03-7.40596E+02 5.65037E+03-2.03217E+01-4.78394E-10 7.53062E-10
 -1       541-2.33999E+03 5.27538E+02 3.29105E+03-6.72379E+04-8.93124E-10 6.35043E-09
 -1       542-3.86975E+03-1.48748E+02 1.33918E+03-1.65486E+01-3.23780E-10 5.85055E-09
 -1       543-3.52606E+03 2.16917E+02 6.84600E+02-6.72447E+04-1.75282E-09-1.32218E-09
 -1       544-3.74041E+03-4.87338E+00 1.09596E+02-1.41123E+01 1.85219E-09 3.31875E-09
 -1       545-4.01964E+03 1.66904E+02-3.50374E+02-6.72477E+04-2.04722E-09-1.41722E-09
 -1       546-3.66244E+03 9.98052E+01-8.99463E+02-1.29900E+01 9.45022E-10 2.58706E-09
 -1       547-4.35024E+03-5.70382E+02-2.26596E+03-6.72414E+04-2.72018E-09-6.69047E-10
 -1       548-3.35478E+03 6.61567E+02-3.93383E+03-2.06507E+01-3.70892E-09 2.95177E-09
 -1       549-6.58899E+03-6.14565E+03-1.01810E+04-6.71732E+04-1.80239E-09 4.75211E-09
 -1       550-1.02711E+03 5.11765E+03-1.52495E+04-8.15895E+01 2.65572E-10-4.59295E-10
 -1       551 2.76559E+04-6.78968E+05 4.25760E+04-1.09378E+06-2.04891E-08-5.71890E-09
 -1       552 3.66419E+04-6.82168E+05 4.87445E+04-1.40866E+06-2.18715E-08 1.82481E-08
 -1       553 2.74513E+04-6.88536E+05 7.21031E+04-1.09108E+06-2.42580E-08 9.58426E-09
 -1       554 6.80215E+04-6.60062E+05 1.48928E+05-1.40901E+06-1.99216E-08 4.80759E-09
 -1       555 1.03096E+05-7.09464E+05 2.76016E+05-1.09240E+06-2.19588E-08-7.98173E-09
 -1       556-5.42297E+04-2.21642E+05 6.32861E+04-3.15307E+05-4.80213E-10 7.20320E-09
 -1       557 2.04938E+04-2.84436E+05 3.31886E+04-3.75578E+05-3.47063E-09-7.58155E-09
 -1       558-5.64556E+04-2.30647E+05 1.31712E+04-3.08426E+05 9.69158E-09 2.79397E-09
 -1       559 8.45548E+03-2.92435E+05 6.76934E+03-3.81502E+05 1.49885E-08 3.23053E-09
 -1       560-6.00511E+04-2.28396E+05 2.65682E+03-3.10710E+05 6.09725E-09-2.87946E-09
 -1       561 3.55501E+03-2.90946E+05 1.46611E+03-3.84732E+05-2.85218E-09-8.03220E-09
 -1       562-6.28155E+04-2.26607E+05 4.76636E+02-3.12644E+05-2.85945E-09-1.42381E-09
 -1       563 4.98070E+02-2.89633E+05 2.94056E+02-3.86748E+05-2.22644E-09-1.38634E-08
 -1       564-6.44962E+04-2.25538E+05-3.47006E+01-3.13808E+05 2.53931E-09-1.03864E-09
 -1       565-1.05387E+03-2.88974E+05-2.50074E+02-3.87751E+05 1.09358E-08 5.70435E-09
 -1       566-6.50365E+04-2.25166E+05-7.49272E+02-3.14196E+05 2.82671E-09 8.74206E-09
 -1       567-1.24868E+03-2.88997E+05-1.75031E+03-3.87720E+05-5.27507E-09 1.13359E-08
 -1       568-6.43203E+04-2.25633E+05-3.76397E+03-3.13798E+05 3.61615E-09 7.43603E-09
 -1       569-2.61109E+03-2.90937E+05-8.85551E+03-3.85719E+05-2.75031E-09 1.55160E-09
 -1       570-6.07791E+04-2.30955E+05-1.75648E+04-3.11563E+05-9.02219E-10 4.92764E-09
 -1       571 3.76499E+05 1.53956E+04 2.28725E+04-9.22966E+04-1.31877E-10-1.78625E-09
 -1       572 3.79892E+05 5.33743E+03 1.12078E+04-1.01169E+05-1.41154E-09-1.92813E-10
 -1       573 3.77826E+05 1.25815E+03 4.97895E+03-9.20495E+04-1.97360E-10 3.45608E-09
 -1       574 3.78221E+05 4.03917E+02 2.49535E+03-1.01437E+05-2.76032E-10 3.56795E-09
 -1       575 3.77954E+05 5.02486E+01 1.17543E+03-9.20179E+04 3.60160E-10-2.67755E-09
 -1       576 3.77982E+05 1.26176E+01 5.97400E+02-1.01472E+05-2.30648E-09-2.44927E-09
 -1       577 3.77973E+05-1.26529E+01 2.91274E+02-9.20138E+04-1.93904E-09 1.11522E-08
 -1       578 3.77967E+05-1.10391E+01 1.53039E+02-1.01477E+05-1.90585E-09-2.52749E-09
 -1       579 3.78015E+05-2.62608E+01 8.15516E+01-9.20134E+04 1.23509E-09-1.19053E-09
 -1       580 3.78027E+05-4.08489E+01 5.73066E+01-1.01473E+05 2.06819E-09 1.07329E-08
 -1       581 3.78097E+05-6.77031E+01 5.39435E+01-9.20181E+04-7.59792E-09 2.90675E-09
 -1       582 3.78147E+05-8.74978E+01 8.89180E+01-1.01420E+05-1.70194E-08-4.23006E-09
 -1       583 3.78215E+05-9.99339E+01 1.54175E+02-9.20660E+04-8.62747E-09-5.21959E-09
 -1       584 3.78356E+05-1.02132E+01 3.46395E+02-1.01012E+05-4.48108E-09 1.04556E-08
 -1       585 3.78321E+05 2.69650E+02 6.89387E+02-9.24266E+04-2.85945E-09-5.88261E-09
 -1       586-2.08444E+01 1.58840E+05 4.83762E+02-2.78282E+05 9.09495E-12 8.46376E-09
 -1       587 7.26470E+02 1.58884E+05 2.68947E+03-3.10475E+05-2.76668E-09-1.25631E-08
 -1       588 1.62441E+03 1.58434E+05 6.08888E+03-2.78001E+05-5.45697E-11-5.64432E-09
 -1       589 6.39315E+03 1.61150E+05 1.40553E+04-3.10378E+05-2.41926E-09-2.47201E-09
 -1       590 1.81128E+04 1.56808E+05 2.86320E+04-2.78377E+05 1.06866E-10 3.59978E-09
 -1       591-1.62741E+05-4.60023E+04-3.49936E+04-7.80958E+04-2.04977E-09-1.82445E-09
 -1       592-1.65424E+05-4.75224E+04-1.80096E+04-8.73470E+04-3.63434E-09 5.44583E-09
 -1       593-1.65117E+05-3.86316E+04-7.62133E+03-8.22079E+04 2.17551E-09 1.83718E-09
 -1       594-1.61188E+05-4.31616E+04-3.75730E+03-8.75601E+04 7.01220E-10-7.90490E-09
 -1       595-1.65333E+05-3.84746E+04-1.73474E+03-8.23605E+04 8.23093E-11-3.64935E-11
 -1       596-1.60913E+05-4.30049E+04-8.77699E+02-8.75197E+04 8.62883E-11 6.41967E-09
 -1       597-1.65366E+05-3.85022E+04-4.74127E+02-8.23620E+04 2.72186E-09 5.26120E-09
 -1       598-1.60884E+05-4.30044E+04-3.72329E+02-8.75070E+04-6.72230E-10-7.53448E-09
 -1       599-1.65362E+05-3.85054E+04-4.65018E+02-8.23595E+04-1.95064E-09-3.52316E-09
 -1       600-1.60904E+05-4.30088E+04-8.53339E+02-8.75102E+04-8.89031E-10 2.06819E-09
 -1       601-1.65320E+05-3.84844E+04-1.68202E+03-8.23531E+04-1.60071E-10 1.79352E-09
 -1       602-1.61164E+05-4.31609E+04-3.64002E+03-8.75369E+04 1.98952E-09 1.34969E-09
 -1       603-1.65099E+05-3.86461E+04-7.38245E+03-8.22038E+04-6.91398E-09 1.30694E-09
 -1       604-1.65293E+05-4.73475E+04-1.74401E+04-8.72774E+04-1.04787E-08 4.60659E-10
 -1       605-1.62754E+05-4.58185E+04-3.38871E+04-7.82549E+04-2.84672E-09 1.18380E-08
 -1       606 1.10633E+05-1.59141E+04-2.77907E+04 4.50575E+04-6.20821E-09-5.33510E-09
 -1       607 1.05943E+05-5.15466E+03-1.37987E+04 5.03012E+04-6.92125E-10 9.70658E-10
 -1       608 1.08584E+05-9.08360E+02-6.17636E+03 4.47091E+04 5.40422E-09 7.25777E-10
 -1       609 1.08019E+05-2.08546E+02-3.11430E+03 5.06798E+04-1.68711E-09 5.04065E-09
 -1       610 1.08298E+05 6.97202E+01-1.48734E+03 4.46696E+04-8.28550E-09 3.41788E-09
 -1       611 1.08170E+05 1.16560E+02-7.48806E+02 5.07210E+04-1.64500E-08 2.85581E-10
 -1       612 1.08201E+05 1.19725E+02-3.59012E+02 4.46661E+04 4.72937E-10-8.36008E-09
 -1       613 1.08137E+05 1.48511E+02-1.62092E+02 5.07248E+04 1.01682E-08-2.87582E-09
 -1       614 1.08141E+05 1.35336E+02-4.39500E+01 4.46652E+04 9.48421E-09-7.30734E-09
 -1       615 1.08096E+05 1.70107E+02 5.61340E+01 5.07245E+04 1.31945E-08-6.08998E-09
 -1       616 1.08096E+05 1.56036E+02 1.78674E+02 4.46660E+04-1.77806E-09-1.61435E-09
 -1       617 1.08092E+05 2.26860E+02 4.13754E+02 5.07226E+04-1.25510E-10 2.58933E-09
 -1       618 1.08041E+05 2.97823E+02 8.36058E+02 4.46665E+04-8.61746E-10-2.51657E-09
 -1       619 1.08367E+05 9.07177E+02 1.88052E+03 5.07176E+04-5.94127E-10-8.92851E-09
 -1       620 1.07759E+05 2.34927E+03 3.78999E+03 4.46649E+04 6.21640E-10-9.31732E-09
 -1       621 1.04139E+03 4.05515E+05 4.61579E+03-2.22216E+04-3.63613E-09 8.88417E-09
 -1       622 5.66708E+02 4.06496E+05 4.73250E+03-2.85792E+04 1.91562E-10 1.63823E-08
 -1       623 2.09167E+02 4.05680E+05 6.75049E+03-2.22126E+04-3.53248E-09 1.38773E-08
 -1       624 3.22753E+03 4.08813E+05 1.37518E+04-2.85123E+04 6.13909E-12 6.29211E-09
 -1       625 7.52560E+03 4.03219E+05 2.55765E+04-2.22835E+04-3.04590E-09 4.25052E-09
 -1       626 2.98101E+05 8.96509E+04 1.53170E+03 1.74089E+05-5.06679E-09-1.39698E-09
 -1       627 2.92599E+05 9.48178E+04 7.40016E+02 1.80762E+05-2.72848E-10 5.43014E-09
 -1       628 2.98252E+05 8.87333E+04 3.08902E+02 1.74059E+05 2.00143E-08 2.86582E-08
 -1       629 2.92076E+05 9.48820E+04 1.59132E+02 1.81048E+05 8.68022E-09 2.99792E-10
 -1       630 2.98204E+05 8.87146E+04 7.89389E+01 1.74000E+05 3.81260E-09-5.88011E-09
 -1       631 2.91957E+05 9.49236E+04 6.07599E+01 1.81025E+05 2.93039E-09 7.93298E-09
 -1       632 2.98149E+05 8.87408E+04 7.13619E+01 1.73963E+05-1.29403E-08 9.94987E-09
 -1       633 2.91911E+05 9.49438E+04 1.28508E+02 1.80996E+05-2.24463E-08 8.05994E-09
 -1       634 2.98110E+05 8.87470E+04 2.49901E+02 1.73944E+05-7.16045E-09-4.76439E-09
 -1       635 2.91914E+05 9.49513E+04 5.33492E+02 1.80990E+05-1.05961E-08-1.51585E-08
 -1       636 2.98078E+05 8.87488E+04 1.09000E+03 1.73933E+05-1.75319E-08 8.66339E-09
 -1       637 2.92144E+05 9.51433E+04 2.40581E+03 1.80978E+05-2.63304E-08-1.06356E-08
 -1       638 2.98000E+05 8.93331E+04 4.95164E+03 1.73667E+05-9.77434E-09 3.30419E-09
 -1       639 2.94718E+05 9.89086E+04 1.17260E+04 1.80186E+05-2.53203E-09 2.06583E-08
 -1       640 2.97781E+05 1.00462E+05 2.44116E+04 1.68934E+05-5.72527E-10 1.44250E-08
 -1       656 2.94531E+04-8.39330E+05-8.76337E+04 1.38154E+03-1.27693E-09-5.05861E-09
 -1       657-3.94845E+04-8.75411E+05-6.92421E+04 6.22633E+04-8.57699E-09-2.56057E-09
 -1       658 7.89314E+03-8.50605E+05-4.41537E+04 8.83807E+02-3.36024E-09 3.80737E-09
 -1       659-4.17242E+04-8.76675E+05-7.25718E+04 6.26066E+04-1.24301E-08-6.02600E-09
 -1       660 3.16359E+04-8.38148E+05-9.35439E+04 1.03908E+03-5.30417E-09-2.09889E-09
 -1       661 3.64660E+05 4.63412E+04 3.05227E+04 1.42478E+05 2.25464E-09-2.36287E-09
 -1       662 3.73094E+05 6.85691E+04 1.92626E+04 1.45158E+05-2.34758E-09-3.26008E-09
 -1       663 3.69919E+05 5.33027E+04 7.20926E+03 1.41730E+05 3.63798E-11-2.25191E-09
 -1       664 3.67042E+05 5.95350E+04 3.97104E+03 1.46469E+05-1.51393E-08-7.21741E-10
 -1       665 3.70524E+05 5.40492E+04 1.69346E+03 1.41668E+05-1.88657E-08-9.01730E-09
 -1       666 3.66342E+05 5.85977E+04 9.24587E+02 1.46589E+05-7.50060E-09-6.99649E-09
 -1       667 3.70605E+05 5.41209E+04 5.24675E+02 1.41656E+05 6.19400E-09-4.67355E-09
 -1       668 3.66257E+05 5.85391E+04 5.09351E+02 1.46626E+05-8.97472E-09-9.25093E-09
 -1       669 3.70613E+05 5.40966E+04 7.28397E+02 1.41639E+05-1.94780E-09-1.33286E-09
 -1       670 3.66361E+05 5.87356E+04 1.49149E+03 1.46665E+05 1.68281E-08-3.16362E-09
 -1       671 3.70511E+05 5.39320E+04 2.83752E+03 1.41618E+05 2.92118E-09 4.68594E-09
 -1       672 3.67498E+05 6.03958E+04 6.72843E+03 1.46548E+05-7.09463E-10-8.80959E-10
 -1       673 3.69516E+05 5.26287E+04 1.22333E+04 1.41689E+05-3.29322E-09-3.84989E-09
 -1       674 3.77741E+05 7.57904E+04 3.27175E+04 1.44386E+05-3.55465E-09-4.77075E-09
 -1       675 3.60601E+05 4.07836E+04 5.18412E+04 1.42941E+05 4.00041E-09-1.20053E-10
 -1       676 5.96230E+01-4.80686E+05-2.30243E+03 2.29104E+02 9.14019E-09 5.34774E-09
 -1       677-7.07736E+02-4.81300E+05-4.24727E+03-4.57408E+02 1.44958E-08 5.03255E-09
 -1       678 5.03895E+02-4.80261E+05-7.43560E+03 2.28142E+02 1.28553E-08 5.73870E-09
 -1       679-7.98939E+03-4.85888E+05-1.78535E+04-4.55069E+02 6.34464E-09 4.93846E-09
 -1       680 5.28302E+03-4.76102E+05-2.83887E+04 2.24403E+02 8.48013E-09-1.24176E-08
 -1       771-3.67098E+06-6.96773E+05-9.37847E+04-1.56883E+06-3.51429E-09-8.10542E-09
 -1       772-3.65135E+06-7.23631E+05-4.78411E+04-1.62008E+06-5.32600E-09-3.89991E-09
 -1       773-3.68134E+06-6.74250E+05-2.10066E+04-1.57928E+06-4.54020E-09 5.80621E-09
 -1       774-3.64104E+06-7.13628E+05-1.01465E+04-1.62606E+06-8.28732E-09 3.29601E-09
 -1       775-3.68503E+06-6.71598E+05-5.17770E+03-1.58057E+06-2.27010E-09-5.23869E-10
 -1       776-3.64215E+06-7.13147E+05-2.45451E+03-1.62942E+06 7.46513E-09 4.85670E-09
 -1       777-3.68774E+06-6.69864E+05-1.58639E+03-1.58146E+06 3.95812E-09 2.05910E-09
 -1       778-3.64368E+06-7.12935E+05-9.62967E+02-1.63209E+06-2.18279E-10-1.97088E-09
 -1       779-3.68979E+06-6.68462E+05-1.22827E+03-1.58216E+06 5.22414E-09 8.50378E-09
 -1       780-3.64497E+06-7.12771E+05-1.86500E+03-1.63410E+06 5.67888E-09 2.25032E-09
 -1       781-3.69113E+06-6.67425E+05-3.67873E+03-1.58264E+06-1.99361E-09-4.84761E-10
 -1       782-3.64635E+06-7.12981E+05-7.82607E+03-1.63540E+06-6.33554E-09-4.57476E-09
 -1       783-3.69141E+06-6.67256E+05-1.59175E+04-1.58259E+06-6.83940E-10-4.24734E-09
 -1       784-3.65562E+06-7.22003E+05-3.76791E+04-1.63531E+06-8.57108E-09-4.85670E-09
 -1       785-3.68643E+06-6.82721E+05-7.33039E+04-1.57418E+06 4.77485E-11 6.58474E-10
 -1       786 3.10846E+05-1.34093E+04 3.84879E+04 5.15923E+01 1.13380E-09-4.76393E-09
 -1       787 3.26296E+05 1.59698E+04 2.60897E+04-4.36720E+03-5.88315E-10 3.84898E-09
 -1       788 3.17038E+05-1.76005E+03 1.00014E+04 2.49757E+01 2.18677E-10-1.27102E-09
 -1       789 3.19230E+05 2.08126E+03 5.92953E+03-4.32610E+03-9.06354E-10 1.44983E-08
 -1       790 3.17913E+05-2.31028E+02 2.55563E+03 1.06779E+01 5.58160E-10 1.62163E-09
 -1       791 3.18225E+05 2.70772E+02 1.42903E+03-4.31194E+03-1.16126E-09-8.66081E-09
 -1       792 3.18042E+05-3.17574E+01 6.99683E+02 1.08170E+01 3.76588E-12-9.89047E-10
 -1       793 3.18084E+05 4.70184E+01 4.67171E+02-4.32696E+03-7.60565E-11 9.78240E-10
 -1       794 3.18055E+05-1.57985E+01 4.04800E+02 2.56988E+01 1.95882E-10-9.88635E-10
 -1       795 3.18121E+05 1.06427E+02 6.20195E+02-4.37169E+03-8.63906E-10-3.01281E-09
 -1       796 3.18008E+05-8.99619E+01 1.01609E+03 5.55469E+01-1.15278E-10-1.11862E-09
 -1       797 3.18508E+05 7.98175E+02 2.29833E+03-4.44524E+03-8.46171E-10-1.36080E-08
 -1       798 3.17671E+05-6.78271E+02 3.85339E+03 9.92458E+01 6.19991E-10 1.21872E-10
 -1       799 3.21231E+05 6.13772E+03 1.00386E+04-4.54381E+03-3.68848E-09 1.59315E-08
 -1       800 3.15289E+05-5.15960E+03 1.47995E+04 1.53944E+02 6.55746E-10 6.25550E-09
 -1       801-4.54119E+04 3.90221E+05 4.19716E+04-7.03551E+03-1.46174E-08-1.36060E-08
 -1       802 1.17059E+05 4.35474E+05 9.51022E+04-2.04330E+06-3.75803E-08-1.49885E-08
 -1       803-1.15969E+04 4.17658E+05 1.07603E+05-1.06288E+04-1.77242E-08 2.06608E-08
 -1       804 2.27135E+05 5.06722E+05 2.62282E+05-2.04383E+06-3.98359E-08 3.31638E-08
 -1       805-1.56722E+05 3.29181E+05 3.36130E+05-6.71214E+03-4.54020E-09 1.55414E-08
 -1       806-3.21479E+05-8.48065E+04-2.81785E+04-1.49575E+05 1.20986E-09 4.79849E-09
 -1       807-3.21438E+05-7.95247E+04-1.35320E+04-1.58642E+05 6.91671E-10 2.21462E-09
 -1       808-3.21701E+05-7.20170E+04-5.71412E+03-1.55150E+05-2.31239E-09-9.04060E-09
 -1       809-3.18603E+05-7.50667E+04-2.77529E+03-1.59472E+05 2.64959E-09-8.81846E-09
 -1       810-3.21799E+05-7.13405E+04-1.26065E+03-1.55476E+05-1.14937E-10 1.85241E-09
 -1       811-3.18350E+05-7.48349E+04-6.24041E+02-1.59474E+05-2.85490E-09-2.02931E-09
 -1       812-3.21816E+05-7.13486E+04-3.09982E+02-1.55480E+05 9.88348E-09-5.19867E-09
 -1       813-3.18311E+05-7.48392E+04-1.94575E+02-1.59453E+05 2.29620E-08 6.67433E-09
 -1       814-3.21804E+05-7.13642E+04-1.81292E+02-1.55470E+05 8.35007E-09-2.93767E-09
 -1       815-3.18303E+05-7.48499E+04-2.82743E+02-1.59438E+05-1.04183E-09-8.18454E-09
 -1       816-3.21769E+05-7.13789E+04-5.30221E+02-1.55454E+05 5.80258E-10-5.54337E-09
 -1       817-3.18393E+05-7.49406E+04-1.14433E+03-1.59395E+05 1.11140E-09 1.06538E-08
 -1       818-3.21688E+05-7.16889E+04-2.34879E+03-1.55319E+05 8.76753E-10 8.63656E-09
 -1       819-3.19668E+05-7.66324E+04-5.55050E+03-1.58862E+05-6.45332E-09 1.07611E-08
 -1       820-3.21432E+05-7.70692E+04-1.15586E+04-1.53164E+05 4.32919E-10 1.63163E-08
 -1       821-4.27258E+05 1.84595E+04-5.29783E+04-3.47683E+02-4.03702E-09-1.61162E-09
 -1       822-4.48488E+05-2.19842E+04-3.59139E+04 6.56984E+03-1.38698E-09-2.16005E-10
 -1       823-4.35776E+05 2.41840E+03-1.37748E+04-5.08544E+02 3.59341E-09 5.74619E-09
 -1       824-4.38781E+05-2.85156E+03-8.17326E+03 6.84802E+03-8.60780E-10-9.85347E-09
 -1       825-4.36976E+05 3.15123E+02-3.55013E+03-6.26448E+02-8.23468E-09-5.35852E-09
 -1       826-4.37419E+05-3.55669E+02-2.03177E+03 7.04790E+03-1.30150E-08-7.25996E-09
 -1       827-4.37149E+05 4.48891E+01-1.09363E+03-7.08601E+02-9.38013E-09-6.88246E-09
 -1       828-4.37255E+05-6.91378E+01-9.18390E+02 7.17610E+03-1.00379E-08-5.02680E-09
 -1       829-4.37148E+05 4.49986E+01-1.08053E+03-7.54698E+02-5.73948E-10 3.27560E-09
 -1       830-4.37430E+05-3.43796E+02-1.99918E+03 7.23057E+03 6.63218E-09-3.40827E-09
 -1       831-4.36977E+05 3.11529E+02-3.48341E+03-7.63067E+02-5.87717E-09 7.75799E-10
 -1       832-4.38781E+05-2.78826E+03-8.02356E+03 7.21091E+03-4.46207E-10-2.82273E-09
 -1       833-4.35797E+05 2.37690E+03-1.35134E+04-7.34834E+02-7.19808E-10-7.61247E-10
 -1       834-4.48320E+05-2.15594E+04-3.52446E+04 7.12100E+03-9.63183E-10-6.00994E-09
 -1       835-4.27438E+05 1.81195E+04-5.19799E+04-6.71804E+02 5.07566E-09 1.46974E-09
 -1       836-1.21040E+03 5.15506E+05 3.84523E+04-4.01347E+04-4.49290E-10-2.83853E-09
 -1       837 7.78452E+03 5.26996E+05 2.99654E+04-7.52434E+04-2.29466E-09 4.27281E-09
 -1       838-4.31615E+02 5.19237E+05 2.76250E+04-4.00240E+04-9.23137E-10-9.17908E-10
 -1       839 1.52750E+04 5.32811E+05 4.88069E+04-7.52623E+04-2.29284E-09-5.71083E-09
 -1       840-2.55466E+03 5.09635E+05 7.73912E+04-4.01105E+04-1.12777E-09-6.08861E-09
 -1       856-2.99717E+05 9.46931E+03-4.11518E+04 5.27073E+03-3.47427E-09-5.00586E-09
 -1       857-3.14541E+05-1.28392E+04-2.63395E+04 2.20697E+04-1.50180E-09 1.07248E-08
 -1       858-3.05931E+05 9.83219E+02-1.06641E+04 5.15913E+03-7.35918E-09 4.78713E-09
 -1       859-3.07691E+05-1.17904E+03-5.94394E+03 2.22195E+04 2.95699E-10 5.29781E-09
 -1       860-3.06640E+05 1.26136E+02-2.70281E+03 5.11767E+03 1.80648E-09-7.41284E-09
 -1       861-3.06929E+05-1.87104E+01-1.43923E+03 2.22760E+04-6.07952E-09-5.87761E-09
 -1       862-3.06734E+05 3.92230E+01-7.20912E+02 5.10207E+03 7.28346E-09-3.94124E-09
 -1       863-3.06834E+05 9.27442E+01-4.46862E+02 2.22864E+04 2.81905E-08-9.40940E-09
 -1       864-3.06743E+05 3.00149E+01-3.66376E+02 5.10717E+03 1.06475E-08-7.15698E-09
 -1       865-3.06830E+05 6.24829E+01-5.03085E+02 2.22540E+04 7.85451E-09-5.90617E-09
 -1       866-3.06713E+05 4.75588E+01-8.41638E+02 5.13459E+03-2.75600E-09 7.10607E-10
 -1       867-3.07018E+05-2.94249E+02-1.77853E+03 2.21759E+04-2.37446E-09-8.53171E-09
 -1       868-3.06496E+05 2.89583E+02-3.17691E+03 5.18561E+03-3.76076E-10-4.80259E-09
 -1       869-3.08995E+05-3.76693E+03-7.80573E+03 2.19922E+04 8.46285E-10-2.04454E-09
 -1       870-3.04646E+05 2.78559E+03-1.22129E+04 5.31921E+03 4.48972E-09-8.82210E-10
 -1       871-6.32894E+03-4.34989E+04-1.77474E+04 1.71473E+05-9.34051E-09 5.21868E-09
 -1       872-2.69772E+03-4.74001E+04-6.63675E+03 2.18820E+05-8.54016E-09 4.69299E-10
 -1       873-2.31901E+02-4.58102E+04 2.33398E+03 1.71104E+05-7.97809E-09-2.15459E-09
 -1       874 3.20488E+03-4.25102E+04 1.30306E+04 2.18913E+05-1.88629E-09-3.63366E-09
 -1       875 8.53763E+03-4.86285E+04 2.81217E+04 1.71410E+05-6.21367E-09 4.79940E-09
 -1       876 4.64591E+05 7.25101E+04 3.62488E+04 1.85390E+05-5.79803E-10-7.62520E-09
 -1       877 4.70264E+05 8.67224E+04 2.06211E+04 1.92633E+05 9.22955E-09-5.47107E-09
 -1       878 4.69200E+05 7.38900E+04 8.36610E+03 1.86703E+05 2.99906E-09 2.44472E-09
 -1       879 4.64543E+05 8.00707E+04 4.25845E+03 1.93126E+05 1.36856E-09-1.38043E-08
 -1       880 4.69551E+05 7.40693E+04 1.93583E+03 1.86797E+05 3.91265E-09-7.06223E-10
 -1       881 4.64105E+05 7.96526E+04 1.00896E+03 1.93081E+05-5.00222E-10-2.79078E-09
 -1       882 4.69580E+05 7.41078E+04 5.83065E+02 1.86810E+05 5.94400E-09 3.80885E-09
 -1       883 4.64072E+05 7.96209E+04 5.36542E+02 1.93057E+05-2.43546E-09 2.91810E-09
 -1       884 4.69569E+05 7.41101E+04 7.67410E+02 1.86812E+05 4.80190E-09-7.69319E-10
 -1       885 4.64143E+05 7.96563E+04 1.49805E+03 1.93067E+05 8.71307E-09-4.11211E-09
 -1       886 4.69504E+05 7.40668E+04 2.97337E+03 1.86800E+05 1.93540E-09-1.43420E-08
 -1       887 4.64831E+05 8.02900E+04 6.58955E+03 1.93101E+05 1.78306E-09-5.13478E-09
 -1       888 4.68936E+05 7.38053E+04 1.29707E+04 1.86657E+05 3.48672E-09-5.24506E-09
 -1       889 4.73654E+05 9.06450E+04 3.19763E+04 1.92361E+05 7.69694E-09 6.24505E-09
 -1       890 4.61823E+05 7.16302E+04 5.62209E+04 1.84562E+05 1.39544E-08-2.82671E-09
 -1       891 4.22230E+02-2.55139E+05-8.60047E+03 4.51152E+04 2.13731E-11 7.16545E-09
 -1       892-2.03277E+03-2.57699E+05-6.75069E+03 9.08484E+04-2.85763E-09 3.62002E-09
 -1       893 5.08633E+01-2.55981E+05-6.15918E+03 4.50474E+04 6.35146E-09 1.17052E-09
 -1       894-3.84802E+03-2.58870E+05-1.09336E+04 9.06975E+04 1.53477E-09 3.71165E-09
 -1       895 8.76812E+02-2.53698E+05-1.71600E+04 4.52624E+04 1.14642E-09 6.48743E-09
 -1       956-4.64682E+05-8.14200E+03-1.94852E+04 4.74459E+04-4.44197E-09-2.22826E-09
 -1       957-4.68474E+05-2.64392E+03-9.95157E+03 5.65983E+04 6.14091E-09-1.84627E-10
 -1       958-4.66426E+05-1.99351E+02-4.48506E+03 4.71456E+04 9.81709E-09-1.34696E-09
 -1       959-4.66773E+05 3.69616E+01-2.28518E+03 5.69241E+04-5.26597E-10 9.86302E-09
 -1       960-4.66629E+05 1.37310E+02-1.11172E+03 4.71137E+04-5.20231E-09-8.90213E-09
 -1       961-4.66689E+05 1.67701E+02-5.81873E+02 5.69609E+04-1.40444E-08 1.97269E-09
 -1       962-4.66693E+05 1.50837E+02-3.21059E+02 4.71077E+04-5.56793E-09 3.02180E-09
 -1       963-4.66710E+05 1.85345E+02-2.35098E+02 5.69689E+04-1.04892E-08 1.77442E-09
 -1       964-4.66716E+05 1.62399E+02-2.58969E+02 4.71054E+04-9.47693E-10-1.57115E-09
 -1       965-4.66734E+05 1.94095E+02-4.25469E+02 5.69695E+04 8.42429E-09 2.10412E-09
 -1       966-4.66702E+05 1.71409E+02-7.87424E+02 4.71071E+04-4.76439E-09-6.89806E-09
 -1       967-4.66825E+05 1.19716E+02-1.60977E+03 5.69497E+04 1.14255E-09 1.51340E-09
 -1       968-4.66582E+05-5.07112E+01-3.15225E+03 4.71258E+04 2.80124E-10 3.51201E-09
 -1       969-4.68045E+05-1.75441E+03-6.99834E+03 5.67487E+04-3.13048E-09 2.08479E-09
 -1       970-4.65369E+05-5.63129E+03-1.37000E+04 4.73171E+04-1.33696E-10 1.32604E-09
 -1       971-5.53823E+05-2.24640E+02-2.14034E+04 1.59961E+04-8.57290E-09-3.79259E-09
 -1       972-5.59952E+05-3.68803E+03-1.23638E+04 2.80953E+04-8.46421E-09-8.82392E-09
 -1       973-5.56581E+05 8.16910E+01-5.39763E+03 1.58038E+04-5.63068E-09-3.83989E-09
 -1       974-5.57084E+05-1.01047E+02-2.83388E+03 2.83186E+04-5.76620E-10-1.55251E-09
 -1       975-5.56817E+05 7.19430E+01-1.38798E+03 1.57682E+04-2.72939E-09-1.60912E-09
 -1       976-5.56896E+05 1.09115E+02-7.73717E+02 2.83706E+04-6.05178E-09-4.95265E-09
 -1       977-5.56858E+05 7.50644E+01-5.11090E+02 1.57511E+04 7.03585E-09-5.65751E-09
 -1       978-5.56903E+05 1.29971E+02-5.30340E+02 2.83948E+04 2.53752E-08 2.02738E-09
 -1       979-5.56861E+05 8.59312E+01-7.94877E+02 1.57438E+04 1.02645E-08-6.21048E-09
 -1       980-5.56967E+05 1.15311E+02-1.50443E+03 2.83992E+04 7.22468E-09-1.05089E-08
 -1       981-5.56805E+05 1.12944E+02-2.88657E+03 1.57467E+04-4.30191E-10-2.95864E-09
 -1       982-5.57452E+05-2.93436E+02-6.02232E+03 2.83795E+04 7.81029E-10 6.81240E-10
 -1       983-5.56348E+05 1.74389E+02-1.15096E+04 1.57644E+04 2.23145E-09-8.92624E-09
 -1       984-5.63691E+05-7.91956E+03-2.64344E+04 2.82396E+04-9.92827E-09-5.51699E-09
 -1       985-5.50502E+05-4.31358E+02-4.57432E+04 1.59007E+04 6.34100E-09-5.30054E-09
 -3
 9999
