
 stresses (elem, integ.pnt.,sxx,syy,szz,sxy,sxz,syz) for set ELALL and time  0.2500000E+00

         1   1  7.487904E+05  2.742091E+06  7.115017E+05 -5.038236E+05  3.540055E+04  2.648061E+05
         1   2  6.049446E+05  2.340117E+06  4.824678E+05 -4.611069E+05  1.171522E+05  1.203073E+05
         1   3  4.997222E+05  1.967030E+06  3.569928E+05 -4.831029E+05  1.357354E+05 -2.407251E+04
         1   4  3.136849E+04 -1.716825E+05  3.366597E+04 -4.806781E+05  3.563843E+04  2.217641E+04
         1   5  9.832882E+03 -1.740378E+05  1.786050E+04 -4.483404E+05  1.173265E+05  1.320585E+04
         1   6  3.528323E+03 -1.710520E+05  1.176240E+04 -4.807133E+05  1.357331E+05  4.252975E+03
         1   7 -6.866190E+05 -3.077515E+06 -6.445221E+05 -4.576371E+05  3.585919E+04 -2.193264E+05
         1   8 -5.856332E+05 -2.682055E+06 -4.469678E+05 -4.356230E+05  1.174970E+05 -9.347446E+04
         1   9 -4.928962E+05 -2.304604E+06 -3.335898E+05 -4.783290E+05  1.357311E+05  3.248458E+04
         1  10  7.487703E+05  2.742015E+06  7.113681E+05 -5.038312E+05 -1.700872E-09 -1.010407E-09
         1  11  6.049260E+05  2.340098E+06  4.824149E+05 -4.611183E+05  6.479254E-10 -2.985421E-09
         1  12  4.997022E+05  1.967024E+06  3.569571E+05 -4.831002E+05 -2.908223E-09 -5.095781E-09
         1  13  3.136699E+04 -1.716834E+05  3.366265E+04 -4.806787E+05 -7.164876E-11 -8.393047E-12
         1  14  9.818053E+03 -1.740417E+05  1.783430E+04 -4.483416E+05  1.664133E-09  6.553793E-12
         1  15  3.508536E+03 -1.710569E+05  1.172774E+04 -4.807138E+05  3.857560E-11 -5.382105E-11
         1  16 -6.866334E+05 -3.077567E+06 -6.446153E+05 -4.576308E+05 -1.699677E-09  1.033617E-09
         1  17 -5.856503E+05 -2.682068E+06 -4.470102E+05 -4.356141E+05  5.939412E-10  2.952425E-09
         1  18 -4.929163E+05 -2.304610E+06 -3.336265E+05 -4.783326E+05 -4.534297E-10  4.911832E-09
         1  19  7.487904E+05  2.742091E+06  7.115017E+05 -5.038236E+05 -3.540055E+04 -2.648061E+05
         1  20  6.049446E+05  2.340117E+06  4.824678E+05 -4.611069E+05 -1.171522E+05 -1.203073E+05
         1  21  4.997222E+05  1.967030E+06  3.569928E+05 -4.831029E+05 -1.357354E+05  2.407251E+04
         1  22  3.136849E+04 -1.716825E+05  3.366597E+04 -4.806781E+05 -3.563843E+04 -2.217641E+04
         1  23  9.832882E+03 -1.740378E+05  1.786050E+04 -4.483404E+05 -1.173265E+05 -1.320585E+04
         1  24  3.528323E+03 -1.710520E+05  1.176240E+04 -4.807133E+05 -1.357331E+05 -4.252975E+03
         1  25 -6.866190E+05 -3.077515E+06 -6.445221E+05 -4.576371E+05 -3.585919E+04  2.193264E+05
         1  26 -5.856332E+05 -2.682055E+06 -4.469678E+05 -4.356230E+05 -1.174970E+05  9.347446E+04
         1  27 -4.928962E+05 -2.304604E+06 -3.335898E+05 -4.783290E+05 -1.357311E+05 -3.248458E+04
         2   1  4.407821E+05  1.719937E+06  3.083279E+05 -4.853915E+05  1.256017E+05 -2.640467E+04
         2   2  3.480820E+05  1.330625E+06  2.352495E+05 -4.485727E+05  1.083729E+05 -4.769482E+04
         2   3  2.617235E+05  9.457887E+05  1.775860E+05 -4.810107E+05  8.362522E+04 -6.900015E+04
         2   4  3.230245E+03 -1.717154E+05  1.046130E+04 -4.817256E+05  1.255861E+05  2.508957E+03
         2   5  2.736452E+03 -1.722893E+05  1.036067E+04 -4.470912E+05  1.083094E+05 -2.681691E+03
         2   6  5.805167E+03 -1.713235E+05  1.451532E+04 -4.817233E+05  8.350427E+04 -7.899971E+03
         2   7 -4.344981E+05 -2.059807E+06 -2.874905E+05 -4.780685E+05  1.255708E+05  3.133792E+04
         2   8 -3.427148E+05 -1.672935E+06 -2.145645E+05 -4.456116E+05  1.082459E+05  4.222702E+04
         2   9 -2.501688E+05 -1.287171E+06 -1.485626E+05 -4.824335E+05  8.338303E+04  5.309497E+04
         2  10  4.407650E+05  1.719932E+06  3.082970E+05 -4.853888E+05 -2.742476E-09 -1.557428E-08
         2  11  3.480688E+05  1.330620E+06  2.352231E+05 -4.485685E+05 -3.464393E-09 -1.587923E-08
         2  12  2.617147E+05  9.457818E+05  1.775640E+05 -4.810060E+05 -5.241769E-09 -1.386349E-08
         2  13  3.213308E+03 -1.717196E+05  1.043165E+04 -4.817259E+05 -5.027279E-10 -4.698282E-11
         2  14  2.723855E+03 -1.722925E+05  1.033862E+04 -4.470909E+05  6.271581E-09 -1.494884E-11
         2  15  5.797665E+03 -1.713254E+05  1.450210E+04 -4.817227E+05  1.362770E-08  2.156805E-11
         2  16 -4.345153E+05 -2.059812E+06 -2.875220E+05 -4.780717E+05 -1.709648E-09  1.546848E-08
         2  17 -3.427278E+05 -1.672940E+06 -2.145899E+05 -4.456153E+05 -1.109368E-09  1.589742E-08
         2  18 -2.501771E+05 -1.287176E+06 -1.485809E+05 -4.824370E+05 -4.909969E-09  1.396471E-08
         2  19  4.407821E+05  1.719937E+06  3.083279E+05 -4.853915E+05 -1.256017E+05  2.640467E+04
         2  20  3.480820E+05  1.330625E+06  2.352495E+05 -4.485727E+05 -1.083729E+05  4.769482E+04
         2  21  2.617235E+05  9.457887E+05  1.775860E+05 -4.810107E+05 -8.362522E+04  6.900015E+04
         2  22  3.230245E+03 -1.717154E+05  1.046130E+04 -4.817256E+05 -1.255861E+05 -2.508957E+03
         2  23  2.736452E+03 -1.722893E+05  1.036067E+04 -4.470912E+05 -1.083094E+05  2.681691E+03
         2  24  5.805167E+03 -1.713235E+05  1.451532E+04 -4.817233E+05 -8.350427E+04  7.899971E+03
         2  25 -4.344981E+05 -2.059807E+06 -2.874905E+05 -4.780685E+05 -1.255708E+05 -3.133792E+04
         2  26 -3.427148E+05 -1.672935E+06 -2.145645E+05 -4.456116E+05 -1.082459E+05 -4.222702E+04
         2  27 -2.501688E+05 -1.287171E+06 -1.485626E+05 -4.824335E+05 -8.338303E+04 -5.309497E+04
         3   1  2.070689E+05  7.047296E+05  1.441735E+05 -4.828825E+05  6.669546E+04 -7.154727E+04
         3   2  1.311132E+05  3.135326E+05  1.008267E+05 -4.283350E+05  3.794053E+04 -8.846698E+04
         3   3  8.209605E+04 -6.878686E+04  7.516554E+04 -4.435505E+05  8.813049E+03 -1.053863E+05
         3   4  7.045512E+03 -1.696697E+05  1.815885E+04 -4.818394E+05  6.656346E+04 -1.039019E+04
         3   5  1.986940E+04 -1.738903E+05  3.146345E+04 -4.469128E+05  3.780043E+04 -2.652630E+04
         3   6  5.950408E+04 -1.695370E+05  6.189723E+04 -4.817399E+05  8.665826E+03 -4.267100E+04
         3   7 -1.930108E+05 -1.043290E+06 -1.078537E+05 -4.807971E+05  6.643155E+04  5.068449E+04
         3   8 -9.138170E+04 -6.610639E+05 -3.788862E+04 -4.654752E+05  3.765654E+04  3.536787E+04
         3   9  3.691931E+04 -2.702652E+05  4.864443E+04 -5.199228E+05  8.510869E+03  2.003460E+04
         3  10  2.070627E+05  7.047230E+05  1.441555E+05 -4.828787E+05 -5.332211E-09  9.889248E-09
         3  11  1.311095E+05  3.135238E+05  1.008093E+05 -4.283323E+05 -3.883806E-09  1.412526E-08
         3  12  8.209298E+04 -6.879881E+04  7.514452E+04 -4.435498E+05 -8.367934E-10  1.538449E-08
         3  13  7.040726E+03 -1.696710E+05  1.815032E+04 -4.818388E+05  1.241327E-08  2.487912E-11
         3  14  1.986768E+04 -1.738914E+05  3.145945E+04 -4.469120E+05  8.911436E-09 -5.887197E-11
         3  15  5.950352E+04 -1.695390E+05  6.189367E+04 -4.817396E+05  1.207543E-09 -2.226552E-11
         3  16 -1.930162E+05 -1.043294E+06 -1.078669E+05 -4.807998E+05 -7.018065E-09 -9.791718E-09
         3  17 -9.138356E+04 -6.610656E+05 -3.789364E+04 -4.654763E+05 -4.585615E-09 -1.415867E-08
         3  18  3.691913E+04 -2.702657E+05  4.864354E+04 -5.199230E+05 -8.865075E-11 -1.536192E-08
         3  19  2.070689E+05  7.047296E+05  1.441735E+05 -4.828825E+05 -6.669546E+04  7.154727E+04
         3  20  1.311132E+05  3.135326E+05  1.008267E+05 -4.283350E+05 -3.794053E+04  8.846698E+04
         3  21  8.209605E+04 -6.878686E+04  7.516554E+04 -4.435505E+05 -8.813049E+03  1.053863E+05
         3  22  7.045512E+03 -1.696697E+05  1.815885E+04 -4.818394E+05 -6.656346E+04  1.039019E+04
         3  23  1.986940E+04 -1.738903E+05  3.146345E+04 -4.469128E+05 -3.780043E+04  2.652630E+04
         3  24  5.950408E+04 -1.695370E+05  6.189723E+04 -4.817399E+05 -8.665826E+03  4.267100E+04
         3  25 -1.930108E+05 -1.043290E+06 -1.078537E+05 -4.807971E+05 -6.643155E+04 -5.068449E+04
         3  26 -9.138170E+04 -6.610639E+05 -3.788862E+04 -4.654752E+05 -3.765654E+04 -3.536787E+04
         3  27  3.691931E+04 -2.702652E+05  4.864443E+04 -5.199228E+05 -8.510869E+03 -2.003460E+04
         4   1 -2.077648E+06 -6.135138E+05 -4.179536E+05 -7.065912E+05 -2.505339E+05 -9.333484E+04
         4   2 -1.998807E+06 -2.496745E+05 -1.825752E+05 -7.774474E+05 -1.614066E+05 -5.887129E+04
         4   3 -2.071312E+06 -2.847865E+05 -1.211632E+05 -7.553779E+05 -7.178523E+04 -2.572312E+04
         4   4 -2.024523E+06 -5.511503E+05 -3.948865E+05 -6.486521E+05 -2.501943E+05 -9.322905E+04
         4   5 -1.929164E+06 -2.124504E+05 -1.613853E+05 -7.472634E+05 -1.613580E+05 -5.885670E+04
         4   6 -1.985074E+06 -2.726213E+05 -1.016065E+05 -7.529562E+05 -7.202496E+04 -2.580999E+04
         4   7 -1.971391E+06 -4.887742E+05 -3.718188E+05 -5.907064E+05 -2.498547E+05 -9.312319E+04
         4   8 -1.859515E+06 -1.752244E+05 -1.401960E+05 -7.170759E+05 -1.613095E+05 -5.884210E+04
         4   9 -1.898829E+06 -2.604559E+05 -8.204991E+04 -7.505349E+05 -7.226473E+04 -2.589685E+04
         4  10 -2.077718E+06 -6.135401E+05 -4.180885E+05 -7.066101E+05 -4.914740E-10 -1.887717E-10
         4  11 -1.998836E+06 -2.496852E+05 -1.826309E+05 -7.774550E+05  6.214965E-10 -2.186580E-10
         4  12 -2.071318E+06 -2.847886E+05 -1.211741E+05 -7.553794E+05  8.951430E-10 -1.966910E-10
         4  13 -2.024593E+06 -5.511765E+05 -3.950209E+05 -6.486710E+05 -1.080419E-09 -1.345515E-10
         4  14 -1.929193E+06 -2.124612E+05 -1.614410E+05 -7.472711E+05  8.484224E-11 -2.627724E-10
         4  15 -1.985080E+06 -2.726234E+05 -1.016175E+05 -7.529577E+05  1.403585E-09  8.366211E-11
         4  16 -1.971460E+06 -4.888003E+05 -3.719529E+05 -5.907251E+05 -5.251763E-10 -2.493172E-10
         4  17 -1.859544E+06 -1.752352E+05 -1.402516E+05 -7.170836E+05 -4.366433E-10 -1.379812E-10
         4  18 -1.898834E+06 -2.604581E+05 -8.206102E+04 -7.505364E+05  4.318426E-10  5.262006E-10
         4  19 -2.077648E+06 -6.135138E+05 -4.179536E+05 -7.065912E+05  2.505339E+05  9.333484E+04
         4  20 -1.998807E+06 -2.496745E+05 -1.825752E+05 -7.774474E+05  1.614066E+05  5.887129E+04
         4  21 -2.071312E+06 -2.847865E+05 -1.211632E+05 -7.553779E+05  7.178523E+04  2.572312E+04
         4  22 -2.024523E+06 -5.511503E+05 -3.948865E+05 -6.486521E+05  2.501943E+05  9.322905E+04
         4  23 -1.929164E+06 -2.124504E+05 -1.613853E+05 -7.472634E+05  1.613580E+05  5.885670E+04
         4  24 -1.985074E+06 -2.726213E+05 -1.016065E+05 -7.529562E+05  7.202496E+04  2.580999E+04
         4  25 -1.971391E+06 -4.887742E+05 -3.718188E+05 -5.907064E+05  2.498547E+05  9.312319E+04
         4  26 -1.859515E+06 -1.752244E+05 -1.401960E+05 -7.170759E+05  1.613095E+05  5.884210E+04
         4  27 -1.898829E+06 -2.604559E+05 -8.204991E+04 -7.505349E+05  7.226473E+04  2.589685E+04
         5   1 -2.007755E+06 -3.382731E+05 -9.464182E+04 -7.435332E+05 -5.660633E+04 -2.043634E+04
         5   2 -1.993193E+06 -2.792638E+05 -4.687582E+04 -7.471473E+05 -3.636386E+04 -1.299222E+04
         5   3 -1.993270E+06 -2.860593E+05 -2.962975E+04 -7.470555E+05 -1.604441E+04 -5.751917E+03
         5   4 -1.971681E+06 -3.188426E+05 -8.362618E+04 -7.277453E+05 -5.661305E+04 -2.043953E+04
         5   5 -1.961526E+06 -2.659033E+05 -3.794050E+04 -7.370949E+05 -3.641521E+04 -1.301156E+04
         5   6 -1.966001E+06 -2.787579E+05 -2.273779E+04 -7.427388E+05 -1.614057E+04 -5.787833E+03
         5   7 -1.935605E+06 -2.994116E+05 -7.261066E+04 -7.119564E+05 -5.661976E+04 -2.044272E+04
         5   8 -1.929859E+06 -2.525427E+05 -2.900529E+04 -7.270419E+05 -3.646657E+04 -1.303090E+04
         5   9 -1.938731E+06 -2.714566E+05 -1.584588E+04 -7.384220E+05 -1.623673E+04 -5.823751E+03
         5  10 -2.007758E+06 -3.382744E+05 -9.464865E+04 -7.435342E+05  8.494790E-10 -1.918632E-10
         5  11 -1.993194E+06 -2.792643E+05 -4.687864E+04 -7.471477E+05 -1.614495E-10  6.338162E-10
         5  12 -1.993271E+06 -2.860594E+05 -2.963030E+04 -7.470555E+05 -8.860647E-10  5.400935E-10
         5  13 -1.971684E+06 -3.188439E+05 -8.363301E+04 -7.277462E+05  2.152678E-09  3.901828E-10
         5  14 -1.961528E+06 -2.659038E+05 -3.794332E+04 -7.370952E+05  1.565030E-09  1.559864E-11
         5  15 -1.966002E+06 -2.787580E+05 -2.273834E+04 -7.427389E+05 -9.059492E-10  4.135217E-10
         5  16 -1.935609E+06 -2.994130E+05 -7.261749E+04 -7.119573E+05  7.611259E-10  6.787525E-10
         5  17 -1.929860E+06 -2.525432E+05 -2.900812E+04 -7.270423E+05 -2.518908E-09 -2.242550E-12
         5  18 -1.938732E+06 -2.714567E+05 -1.584645E+04 -7.384221E+05  5.179234E-10 -3.425440E-10
         5  19 -2.007755E+06 -3.382731E+05 -9.464182E+04 -7.435332E+05  5.660633E+04  2.043634E+04
         5  20 -1.993193E+06 -2.792638E+05 -4.687582E+04 -7.471473E+05  3.636386E+04  1.299222E+04
         5  21 -1.993270E+06 -2.860593E+05 -2.962975E+04 -7.470555E+05  1.604441E+04  5.751917E+03
         5  22 -1.971681E+06 -3.188426E+05 -8.362618E+04 -7.277453E+05  5.661305E+04  2.043953E+04
         5  23 -1.961526E+06 -2.659033E+05 -3.794050E+04 -7.370949E+05  3.641521E+04  1.301156E+04
         5  24 -1.966001E+06 -2.787579E+05 -2.273779E+04 -7.427388E+05  1.614057E+04  5.787833E+03
         5  25 -1.935605E+06 -2.994116E+05 -7.261066E+04 -7.119564E+05  5.661976E+04  2.044272E+04
         5  26 -1.929859E+06 -2.525427E+05 -2.900529E+04 -7.270419E+05  3.646657E+04  1.303090E+04
         5  27 -1.938731E+06 -2.714566E+05 -1.584588E+04 -7.384220E+05  1.623673E+04  5.823751E+03
         6   1 -1.953617E+06 -2.822140E+05 -1.543785E+04 -7.370747E+05 -1.261704E+04 -4.714372E+03
         6   2 -1.948759E+06 -2.671790E+05 -4.085121E+03 -7.310961E+05 -7.911125E+03 -3.281640E+03
         6   3 -1.938123E+06 -2.697506E+05  1.616728E+03 -7.339687E+05 -3.203275E+03 -1.853995E+03
         6   4 -1.963900E+06 -2.853218E+05 -1.812295E+04 -7.390638E+05 -1.268105E+04 -4.738363E+03
         6   5 -1.966384E+06 -2.736601E+05 -8.871109E+03 -7.357066E+05 -7.976345E+03 -3.306072E+03
         6   6 -1.963088E+06 -2.796048E+05 -5.269169E+03 -7.412005E+05 -3.269768E+03 -1.878900E+03
         6   7 -1.974183E+06 -2.884296E+05 -2.080806E+04 -7.410530E+05 -1.274506E+04 -4.762355E+03
         6   8 -1.984008E+06 -2.801412E+05 -1.365714E+04 -7.403169E+05 -8.041563E+03 -3.330502E+03
         6   9 -1.988053E+06 -2.894589E+05 -1.215514E+04 -7.484321E+05 -3.336258E+03 -1.903805E+03
         6  10 -1.953617E+06 -2.822140E+05 -1.543819E+04 -7.370748E+05 -1.680156E-09  2.841930E-10
         6  11 -1.948759E+06 -2.671790E+05 -4.085259E+03 -7.310961E+05 -1.337858E-09  3.506019E-10
         6  12 -1.938123E+06 -2.697506E+05  1.616703E+03 -7.339688E+05 -9.701217E-10 -2.874034E-10
         6  13 -1.963900E+06 -2.853218E+05 -1.812329E+04 -7.390639E+05  8.113674E-10  3.480023E-10
         6  14 -1.966384E+06 -2.736601E+05 -8.871250E+03 -7.357066E+05 -1.813431E-09  8.034891E-10
         6  15 -1.963088E+06 -2.796048E+05 -5.269196E+03 -7.412005E+05 -2.197411E-09 -7.741500E-10
         6  16 -1.974184E+06 -2.884297E+05 -2.080841E+04 -7.410530E+05  1.380224E-09  4.687531E-10
         6  17 -1.984008E+06 -2.801412E+05 -1.365728E+04 -7.403170E+05 -1.949863E-10 -1.562457E-10
         6  18 -1.988053E+06 -2.894589E+05 -1.215516E+04 -7.484321E+05 -1.623992E-09 -1.825170E-10
         6  19 -1.953617E+06 -2.822140E+05 -1.543785E+04 -7.370747E+05  1.261704E+04  4.714372E+03
         6  20 -1.948759E+06 -2.671790E+05 -4.085121E+03 -7.310961E+05  7.911125E+03  3.281640E+03
         6  21 -1.938123E+06 -2.697506E+05  1.616728E+03 -7.339687E+05  3.203275E+03  1.853995E+03
         6  22 -1.963900E+06 -2.853218E+05 -1.812295E+04 -7.390638E+05  1.268105E+04  4.738363E+03
         6  23 -1.966384E+06 -2.736601E+05 -8.871109E+03 -7.357066E+05  7.976345E+03  3.306072E+03
         6  24 -1.963088E+06 -2.796048E+05 -5.269169E+03 -7.412005E+05  3.269768E+03  1.878900E+03
         6  25 -1.974183E+06 -2.884296E+05 -2.080806E+04 -7.410530E+05  1.274506E+04  4.762355E+03
         6  26 -1.984008E+06 -2.801412E+05 -1.365714E+04 -7.403169E+05  8.041563E+03  3.330502E+03
         6  27 -1.988053E+06 -2.894589E+05 -1.215514E+04 -7.484321E+05  3.336258E+03  1.903805E+03
         7   1 -1.904966E+06 -2.584146E+05  1.168892E+04 -7.246961E+05 -2.346609E+03 -1.740541E+03
         7   2 -1.902013E+06 -2.507098E+05  1.526464E+04 -7.183786E+05 -1.011494E+03 -1.569861E+03
         7   3 -1.891515E+06 -2.524937E+05  1.757518E+04 -7.211340E+05  3.014587E+02 -1.339726E+03
         7   4 -1.963038E+06 -2.802197E+05 -4.196844E+03 -7.403451E+05 -2.417820E+03 -1.767224E+03
         7   5 -1.966759E+06 -2.751232E+05 -2.434863E+03 -7.359396E+05 -1.069499E+03 -1.591606E+03
         7   6 -1.962937E+06 -2.795181E+05 -1.948660E+03 -7.406071E+05  2.566481E+02 -1.356534E+03
         7   7 -2.021106E+06 -3.020247E+05 -2.008287E+04 -7.559927E+05 -2.489024E+03 -1.793904E+03
         7   8 -2.031501E+06 -2.995364E+05 -2.013474E+04 -7.534989E+05 -1.127496E+03 -1.613348E+03
         7   9 -2.034355E+06 -3.065421E+05 -2.147299E+04 -7.600782E+05  2.118432E+02 -1.373340E+03
         7  10 -1.904966E+06 -2.584146E+05  1.168890E+04 -7.246961E+05 -9.874724E-10 -1.975248E-10
         7  11 -1.902013E+06 -2.507098E+05  1.526464E+04 -7.183786E+05 -2.379442E-09  1.437561E-09
         7  12 -1.891515E+06 -2.524937E+05  1.757518E+04 -7.211340E+05  8.199082E-10  2.069321E-11
         7  13 -1.963038E+06 -2.802197E+05 -4.196861E+03 -7.403451E+05 -3.242115E-09 -3.693034E-10
         7  14 -1.966759E+06 -2.751232E+05 -2.434870E+03 -7.359396E+05 -1.708590E-09  5.403261E-10
         7  15 -1.962937E+06 -2.795181E+05 -1.948664E+03 -7.406071E+05 -7.288825E-10 -3.747282E-10
         7  16 -2.021106E+06 -3.020247E+05 -2.008289E+04 -7.559927E+05  1.358348E-10 -5.432097E-10
         7  17 -2.031501E+06 -2.995364E+05 -2.013474E+04 -7.534989E+05 -2.508865E-10  7.395871E-10
         7  18 -2.034355E+06 -3.065421E+05 -2.147299E+04 -7.600782E+05 -7.402598E-10 -7.319276E-10
         7  19 -1.904966E+06 -2.584146E+05  1.168892E+04 -7.246961E+05  2.346609E+03  1.740541E+03
         7  20 -1.902013E+06 -2.507098E+05  1.526464E+04 -7.183786E+05  1.011494E+03  1.569861E+03
         7  21 -1.891515E+06 -2.524937E+05  1.757518E+04 -7.211340E+05 -3.014587E+02  1.339726E+03
         7  22 -1.963038E+06 -2.802197E+05 -4.196844E+03 -7.403451E+05  2.417820E+03  1.767224E+03
         7  23 -1.966759E+06 -2.751232E+05 -2.434863E+03 -7.359396E+05  1.069499E+03  1.591606E+03
         7  24 -1.962937E+06 -2.795181E+05 -1.948660E+03 -7.406071E+05 -2.566481E+02  1.356534E+03
         7  25 -2.021106E+06 -3.020247E+05 -2.008287E+04 -7.559927E+05  2.489024E+03  1.793904E+03
         7  26 -2.031501E+06 -2.995364E+05 -2.013474E+04 -7.534989E+05  1.127496E+03  1.613348E+03
         7  27 -2.034355E+06 -3.065421E+05 -2.147299E+04 -7.600782E+05 -2.118432E+02  1.373340E+03
         8   1 -1.866278E+06 -2.423370E+05  2.466811E+04 -7.136260E+05  6.924226E+02 -1.354062E+03
         8   2 -1.864289E+06 -2.374037E+05  2.552751E+04 -7.090788E+05  1.930606E+03 -1.150160E+03
         8   3 -1.857212E+06 -2.393308E+05  2.520892E+04 -7.106968E+05  3.130993E+03 -8.452322E+02
         8   4 -1.963489E+06 -2.789585E+05 -1.923772E+03 -7.399527E+05  6.299404E+02 -1.377506E+03
         8   5 -1.966076E+06 -2.758453E+05 -2.309421E+03 -7.367504E+05  1.890579E+03 -1.165195E+03
         8   6 -1.963580E+06 -2.795971E+05 -3.891028E+03 -7.397134E+05  3.113412E+03 -8.518546E+02
         8   7 -2.060691E+06 -3.155795E+05 -2.851648E+04 -7.662756E+05  5.674690E+02 -1.400945E+03
         8   8 -2.067853E+06 -3.142864E+05 -3.014729E+04 -7.644180E+05  1.850560E+03 -1.180228E+03
         8   9 -2.069936E+06 -3.198628E+05 -3.299205E+04 -7.687255E+05  3.095834E+03 -8.584759E+02
         8  10 -1.866278E+06 -2.423370E+05  2.466811E+04 -7.136260E+05 -1.579715E-09 -4.394078E-10
         8  11 -1.864289E+06 -2.374037E+05  2.552750E+04 -7.090788E+05  5.121797E-10  4.323803E-10
         8  12 -1.857212E+06 -2.393308E+05  2.520890E+04 -7.106968E+05  1.986055E-09  6.560403E-10
         8  13 -1.963489E+06 -2.789585E+05 -1.923777E+03 -7.399527E+05  1.207910E-09 -7.105612E-10
         8  14 -1.966076E+06 -2.758453E+05 -2.309430E+03 -7.367504E+05 -7.842108E-10 -3.240283E-10
         8  15 -1.963580E+06 -2.795971E+05 -3.891047E+03 -7.397134E+05  7.153205E-10 -7.119808E-10
         8  16 -2.060691E+06 -3.155795E+05 -2.851649E+04 -7.662756E+05  1.462511E-09 -7.764735E-10
         8  17 -2.067853E+06 -3.142864E+05 -3.014730E+04 -7.644180E+05  1.803350E-09  1.145427E-09
         8  18 -2.069936E+06 -3.198628E+05 -3.299207E+04 -7.687255E+05 -4.024775E-10  5.646959E-10
         8  19 -1.866278E+06 -2.423370E+05  2.466811E+04 -7.136260E+05 -6.924226E+02  1.354062E+03
         8  20 -1.864289E+06 -2.374037E+05  2.552751E+04 -7.090788E+05 -1.930606E+03  1.150160E+03
         8  21 -1.857212E+06 -2.393308E+05  2.520892E+04 -7.106968E+05 -3.130993E+03  8.452322E+02
         8  22 -1.963489E+06 -2.789585E+05 -1.923772E+03 -7.399527E+05 -6.299404E+02  1.377506E+03
         8  23 -1.966076E+06 -2.758453E+05 -2.309421E+03 -7.367504E+05 -1.890579E+03  1.165195E+03
         8  24 -1.963580E+06 -2.795971E+05 -3.891028E+03 -7.397134E+05 -3.113412E+03  8.518546E+02
         8  25 -2.060691E+06 -3.155795E+05 -2.851648E+04 -7.662756E+05 -5.674690E+02  1.400945E+03
         8  26 -2.067853E+06 -3.142864E+05 -3.014729E+04 -7.644180E+05 -1.850560E+03  1.180228E+03
         8  27 -2.069936E+06 -3.198628E+05 -3.299205E+04 -7.687255E+05 -3.095834E+03  8.584759E+02
         9   1 -1.843381E+06 -2.326078E+05  2.823675E+04 -7.067703E+05  3.913477E+03 -6.455642E+02
         9   2 -1.841835E+06 -2.293019E+05  2.540967E+04 -7.044894E+05  8.157214E+03  7.998214E+02
         9   3 -1.841372E+06 -2.356559E+05  1.743624E+04 -7.028656E+05  1.234766E+04  2.387080E+03
         9   4 -1.964639E+06 -2.780039E+05 -4.861492E+03 -7.393217E+05  3.868104E+03 -6.626228E+02
         9   5 -1.964469E+06 -2.757924E+05 -8.162533E+03 -7.380098E+05  8.142838E+03  7.943880E+02
         9   6 -1.965388E+06 -2.832480E+05 -1.663531E+04 -7.373551E+05  1.236426E+04  2.393270E+03
         9   7 -2.085882E+06 -3.233993E+05 -3.796106E+04 -7.718673E+05  3.822740E+03 -6.796778E+02
         9   8 -2.087087E+06 -3.222820E+05 -4.173608E+04 -7.715242E+05  8.128465E+03  7.889558E+02
         9   9 -2.089389E+06 -3.308390E+05 -5.070823E+04 -7.718382E+05  1.238086E+04  2.399459E+03
         9  10 -1.843381E+06 -2.326078E+05  2.823672E+04 -7.067703E+05  8.379165E-10  2.631379E-10
         9  11 -1.841835E+06 -2.293019E+05  2.540954E+04 -7.044894E+05  4.469032E-10  2.903498E-10
         9  12 -1.841373E+06 -2.356560E+05  1.743594E+04 -7.028657E+05  1.631844E-09  4.943750E-11
         9  13 -1.964639E+06 -2.780039E+05 -4.861521E+03 -7.393217E+05  1.246640E-09 -8.015774E-10
         9  14 -1.964469E+06 -2.757924E+05 -8.162659E+03 -7.380098E+05 -6.414069E-10 -5.186900E-10
         9  15 -1.965388E+06 -2.832481E+05 -1.663561E+04 -7.373551E+05 -9.187035E-10  1.784464E-10
         9  16 -2.085882E+06 -3.233993E+05 -3.796109E+04 -7.718673E+05 -7.831650E-10  7.372334E-10
         9  17 -2.087088E+06 -3.222821E+05 -4.173620E+04 -7.715242E+05 -3.157530E-09  3.076769E-10
         9  18 -2.089389E+06 -3.308391E+05 -5.070853E+04 -7.718382E+05 -2.127953E-09  2.427108E-10
         9  19 -1.843381E+06 -2.326078E+05  2.823675E+04 -7.067703E+05 -3.913477E+03  6.455642E+02
         9  20 -1.841835E+06 -2.293019E+05  2.540967E+04 -7.044894E+05 -8.157214E+03 -7.998214E+02
         9  21 -1.841372E+06 -2.356559E+05  1.743624E+04 -7.028656E+05 -1.234766E+04 -2.387080E+03
         9  22 -1.964639E+06 -2.780039E+05 -4.861492E+03 -7.393217E+05 -3.868104E+03  6.626228E+02
         9  23 -1.964469E+06 -2.757924E+05 -8.162533E+03 -7.380098E+05 -8.142838E+03 -7.943880E+02
         9  24 -1.965388E+06 -2.832480E+05 -1.663531E+04 -7.373551E+05 -1.236426E+04 -2.393270E+03
         9  25 -2.085882E+06 -3.233993E+05 -3.796106E+04 -7.718673E+05 -3.822740E+03  6.796778E+02
         9  26 -2.087087E+06 -3.222820E+05 -4.173608E+04 -7.715242E+05 -8.128465E+03 -7.889558E+02
         9  27 -2.089389E+06 -3.308390E+05 -5.070823E+04 -7.718382E+05 -1.238086E+04 -2.399459E+03
        10   1 -1.840459E+06 -2.309277E+05  1.350899E+04 -7.078941E+05  1.551282E+04  3.543163E+03
        10   2 -1.835651E+06 -2.217195E+05 -8.196974E+02 -7.054854E+05  3.394560E+04  1.045208E+04
        10   3 -1.854271E+06 -2.627395E+05 -4.304768E+04 -6.880635E+05  5.226982E+04  1.764985E+04
        10   4 -1.968106E+06 -2.764344E+05 -2.086772E+04 -7.398231E+05  1.547419E+04  3.528689E+03
        10   5 -1.959010E+06 -2.696784E+05 -3.482454E+04 -7.404291E+05  3.396812E+04  1.046043E+04
        10   6 -1.973358E+06 -3.131693E+05 -7.673344E+04 -7.260209E+05  5.235360E+04  1.768080E+04
        10   7 -2.095738E+06 -3.219408E+05 -5.524591E+04 -7.717463E+05  1.543556E+04  3.514218E+03
        10   8 -2.082354E+06 -3.176363E+05 -6.883082E+04 -7.753664E+05  3.399063E+04  1.046877E+04
        10   9 -2.092431E+06 -3.635972E+05 -1.104206E+05 -7.639714E+05  5.243737E+04  1.771173E+04
        10  10 -1.840459E+06 -2.309278E+05  1.350851E+04 -7.078942E+05  2.774336E-10  4.901649E-10
        10  11 -1.835652E+06 -2.217199E+05 -8.220761E+02 -7.054857E+05  1.457680E-09 -4.237041E-10
        10  12 -1.854274E+06 -2.627406E+05 -4.305342E+04 -6.880643E+05  8.873448E-10  1.263130E-10
        10  13 -1.968107E+06 -2.764345E+05 -2.086819E+04 -7.398231E+05 -9.683036E-10  3.868137E-10
        10  14 -1.959011E+06 -2.696789E+05 -3.482693E+04 -7.404294E+05 -1.689245E-09  4.831388E-10
        10  15 -1.973361E+06 -3.131703E+05 -7.673920E+04 -7.260217E+05  2.989809E-09  7.961105E-10
        10  16 -2.095739E+06 -3.219408E+05 -5.524638E+04 -7.717464E+05 -1.358830E-09  9.399034E-11
        10  17 -2.082355E+06 -3.176367E+05 -6.883320E+04 -7.753667E+05  5.962020E-11  3.193881E-10
        10  18 -2.092434E+06 -3.635983E+05 -1.104263E+05 -7.639722E+05  1.500706E-09 -2.113821E-10
        10  19 -1.840459E+06 -2.309277E+05  1.350899E+04 -7.078941E+05 -1.551282E+04 -3.543163E+03
        10  20 -1.835651E+06 -2.217195E+05 -8.196974E+02 -7.054854E+05 -3.394560E+04 -1.045208E+04
        10  21 -1.854271E+06 -2.627395E+05 -4.304768E+04 -6.880635E+05 -5.226982E+04 -1.764985E+04
        10  22 -1.968106E+06 -2.764344E+05 -2.086772E+04 -7.398231E+05 -1.547419E+04 -3.528689E+03
        10  23 -1.959010E+06 -2.696784E+05 -3.482454E+04 -7.404291E+05 -3.396812E+04 -1.046043E+04
        10  24 -1.973358E+06 -3.131693E+05 -7.673344E+04 -7.260209E+05 -5.235360E+04 -1.768080E+04
        10  25 -2.095738E+06 -3.219408E+05 -5.524591E+04 -7.717463E+05 -1.543556E+04 -3.514218E+03
        10  26 -2.082354E+06 -3.176363E+05 -6.883082E+04 -7.753664E+05 -3.399063E+04 -1.046877E+04
        10  27 -2.092431E+06 -3.635972E+05 -1.104206E+05 -7.639714E+05 -5.243737E+04 -1.771173E+04
        11   1 -1.861940E+06 -2.422238E+05 -6.302514E+04 -7.341557E+05  6.655299E+04  2.290553E+04
        11   2 -1.829858E+06 -1.736932E+05 -1.190656E+05 -7.131040E+05  1.480611E+05  5.362598E+04
        11   3 -1.948822E+06 -4.587193E+05 -3.342690E+05 -5.926701E+05  2.290809E+05  8.564682E+04
        11   4 -1.986027E+06 -2.703994E+05 -9.323704E+04 -7.487418E+05  6.640463E+04  2.285216E+04
        11   5 -1.928719E+06 -2.212024E+05 -1.480965E+05 -7.504082E+05  1.481908E+05  5.367176E+04
        11   6 -2.022536E+06 -5.256550E+05 -3.623592E+05 -6.526837E+05  2.294921E+05  8.578363E+04
        11   7 -2.110099E+06 -2.985755E+05 -1.234498E+05 -7.633264E+05  6.625630E+04  2.279879E+04
        11   8 -2.027569E+06 -2.687091E+05 -1.771283E+05 -7.877063E+05  1.483203E+05  5.371751E+04
        11   9 -2.096241E+06 -5.925782E+05 -3.904493E+05 -7.126880E+05  2.299031E+05  8.592035E+04
        11  10 -1.861945E+06 -2.422255E+05 -6.303448E+04 -7.341570E+05  8.654065E-10 -3.663791E-10
        11  11 -1.829882E+06 -1.737022E+05 -1.191123E+05 -7.131104E+05  1.407081E-09 -5.748948E-10
        11  12 -1.948881E+06 -4.587413E+05 -3.343818E+05 -5.926859E+05 -5.088009E-11 -2.335042E-10
        11  13 -1.986032E+06 -2.704012E+05 -9.324635E+04 -7.487431E+05  1.436086E-09  6.830846E-10
        11  14 -1.928743E+06 -2.212115E+05 -1.481434E+05 -7.504146E+05 -1.709499E-09  1.494135E-09
        11  15 -2.022595E+06 -5.256771E+05 -3.624724E+05 -6.526996E+05 -6.005434E-10 -4.226475E-10
        11  16 -2.110103E+06 -2.985773E+05 -1.234591E+05 -7.633276E+05  2.601838E-09  5.777255E-11
        11  17 -2.027594E+06 -2.687181E+05 -1.771753E+05 -7.877128E+05  8.137311E-10  5.769620E-10
        11  18 -2.096300E+06 -5.926004E+05 -3.905629E+05 -7.127040E+05  2.306173E-10  2.971265E-10
        11  19 -1.861940E+06 -2.422238E+05 -6.302514E+04 -7.341557E+05 -6.655299E+04 -2.290553E+04
        11  20 -1.829858E+06 -1.736932E+05 -1.190656E+05 -7.131040E+05 -1.480611E+05 -5.362598E+04
        11  21 -1.948822E+06 -4.587193E+05 -3.342690E+05 -5.926701E+05 -2.290809E+05 -8.564682E+04
        11  22 -1.986027E+06 -2.703994E+05 -9.323704E+04 -7.487418E+05 -6.640463E+04 -2.285216E+04
        11  23 -1.928719E+06 -2.212024E+05 -1.480965E+05 -7.504082E+05 -1.481908E+05 -5.367176E+04
        11  24 -2.022536E+06 -5.256550E+05 -3.623592E+05 -6.526837E+05 -2.294921E+05 -8.578363E+04
        11  25 -2.110099E+06 -2.985755E+05 -1.234498E+05 -7.633264E+05 -6.625630E+04 -2.279879E+04
        11  26 -2.027569E+06 -2.687091E+05 -1.771283E+05 -7.877063E+05 -1.483203E+05 -5.371751E+04
        11  27 -2.096241E+06 -5.925782E+05 -3.904493E+05 -7.126880E+05 -2.299031E+05 -8.592035E+04
        12   1  2.186680E+04 -2.817293E+05  2.258832E+04 -5.238326E+02  2.660128E+02 -7.426178E+01
        12   2  2.159288E+04 -2.826146E+05  2.253999E+04  5.904357E+02  2.864293E+02 -5.127428E+02
        12   3  2.215335E+04 -2.823095E+05  2.317093E+04 -5.760074E+02  2.197433E+02 -9.513190E+02
        12   4  6.097402E+01 -3.689282E+05  7.891557E+02 -5.070019E+02  2.660156E+02 -7.732037E+01
        12   5 -1.402999E+02 -3.695233E+05  8.140018E+02  6.336673E+02  2.864309E+02 -5.115685E+02
        12   6  4.920852E+02 -3.689289E+05  1.515210E+03 -5.063936E+02  2.197385E+02 -9.459121E+02
        12   7 -2.174542E+04 -4.561201E+05 -2.101058E+04 -4.901733E+02  2.660184E+02 -8.037852E+01
        12   8 -2.187405E+04 -4.564252E+05 -2.091256E+04  6.768941E+02  2.864326E+02 -5.103944E+02
        12   9 -2.116975E+04 -4.555414E+05 -2.014108E+04 -4.367873E+02  2.197336E+02 -9.405058E+02
        12  10  2.186680E+04 -2.817293E+05  2.258832E+04 -5.238326E+02 -1.394133E-09  9.555636E-11
        12  11  2.159288E+04 -2.826146E+05  2.253999E+04  5.904358E+02 -1.610890E-10 -1.779493E-10
        12  12  2.215335E+04 -2.823095E+05  2.317093E+04 -5.760073E+02  1.064173E-10 -3.325138E-10
        12  13  6.097394E+01 -3.689282E+05  7.891556E+02 -5.070019E+02 -5.300284E-10 -8.351469E-11
        12  14 -1.403001E+02 -3.695233E+05  8.140011E+02  6.336674E+02  6.158100E-10 -5.853685E-12
        12  15  4.920849E+02 -3.689289E+05  1.515208E+03 -5.063934E+02  5.330252E-10 -7.653116E-10
        12  16 -2.174542E+04 -4.561201E+05 -2.101058E+04 -4.901733E+02 -3.207304E-10 -1.168533E-10
        12  17 -2.187405E+04 -4.564252E+05 -2.091256E+04  6.768942E+02 -4.547766E-10  2.679374E-10
        12  18 -2.116975E+04 -4.555414E+05 -2.014108E+04 -4.367872E+02  9.033343E-10  8.037836E-11
        12  19  2.186680E+04 -2.817293E+05  2.258832E+04 -5.238326E+02 -2.660128E+02  7.426178E+01
        12  20  2.159288E+04 -2.826146E+05  2.253999E+04  5.904357E+02 -2.864293E+02  5.127428E+02
        12  21  2.215335E+04 -2.823095E+05  2.317093E+04 -5.760074E+02 -2.197433E+02  9.513190E+02
        12  22  6.097402E+01 -3.689282E+05  7.891557E+02 -5.070019E+02 -2.660156E+02  7.732037E+01
        12  23 -1.402999E+02 -3.695233E+05  8.140018E+02  6.336673E+02 -2.864309E+02  5.115685E+02
        12  24  4.920852E+02 -3.689289E+05  1.515210E+03 -5.063936E+02 -2.197385E+02  9.459121E+02
        12  25 -2.174542E+04 -4.561201E+05 -2.101058E+04 -4.901733E+02 -2.660184E+02  8.037852E+01
        12  26 -2.187405E+04 -4.564252E+05 -2.091256E+04  6.768941E+02 -2.864326E+02  5.103944E+02
        12  27 -2.116975E+04 -4.555414E+05 -2.014108E+04 -4.367873E+02 -2.197336E+02  9.405058E+02
        13   1  1.027946E+04 -3.273401E+05  1.216160E+04 -1.347086E+03  1.757521E+02 -1.253823E+03
        13   2  9.492639E+03 -3.287802E+05  1.295373E+04  1.532900E+03  1.357037E+02 -2.704491E+03
        13   3  1.298896E+04 -3.287802E+05  1.579752E+04 -1.212445E+03  7.557283E+01 -4.155221E+03
        13   4 -1.065414E+02 -3.688714E+05  1.780159E+03 -1.252073E+03  1.757503E+02 -1.252223E+03
        13   5 -7.133268E+02 -3.695916E+05  2.751068E+03  1.563649E+03  1.356997E+02 -2.701843E+03
        13   6  2.963000E+03 -3.688717E+05  5.772995E+03 -1.245983E+03  7.556632E+01 -4.151528E+03
        13   7 -1.049268E+04 -4.104012E+05 -8.601407E+03 -1.157067E+03  1.757486E+02 -1.250623E+03
        13   8 -1.091942E+04 -4.104014E+05 -7.451721E+03  1.594397E+03  1.356957E+02 -2.699196E+03
        13   9 -7.063086E+03 -4.089617E+05 -4.251654E+03 -1.279517E+03  7.555982E+01 -4.147836E+03
        13  10  1.027946E+04 -3.273401E+05  1.216159E+04 -1.347086E+03  1.857909E-09 -7.150955E-11
        13  11  9.492637E+03 -3.287802E+05  1.295372E+04  1.532900E+03  1.600383E-09 -5.417811E-10
        13  12  1.298896E+04 -3.287802E+05  1.579749E+04 -1.212445E+03  3.573017E-10 -6.143770E-10
        13  13 -1.065418E+02 -3.688714E+05  1.780156E+03 -1.252073E+03  2.143589E-10 -8.283520E-10
        13  14 -7.133288E+02 -3.695916E+05  2.751054E+03  1.563649E+03  3.088923E-09  2.930450E-11
        13  15  2.962995E+03 -3.688717E+05  5.772962E+03 -1.245983E+03 -1.446228E-09 -1.202229E-09
        13  16 -1.049268E+04 -4.104012E+05 -8.601410E+03 -1.157067E+03  7.810304E-10  2.836823E-11
        13  17 -1.091942E+04 -4.104014E+05 -7.451735E+03  1.594397E+03  2.643067E-09  7.950134E-10
        13  18 -7.063090E+03 -4.089617E+05 -4.251686E+03 -1.279517E+03  1.740669E-09  1.618150E-10
        13  19  1.027946E+04 -3.273401E+05  1.216160E+04 -1.347086E+03 -1.757521E+02  1.253823E+03
        13  20  9.492639E+03 -3.287802E+05  1.295373E+04  1.532900E+03 -1.357037E+02  2.704491E+03
        13  21  1.298896E+04 -3.287802E+05  1.579752E+04 -1.212445E+03 -7.557283E+01  4.155221E+03
        13  22 -1.065414E+02 -3.688714E+05  1.780159E+03 -1.252073E+03 -1.757503E+02  1.252223E+03
        13  23 -7.133268E+02 -3.695916E+05  2.751068E+03  1.563649E+03 -1.356997E+02  2.701843E+03
        13  24  2.963000E+03 -3.688717E+05  5.772995E+03 -1.245983E+03 -7.556632E+01  4.151528E+03
        13  25 -1.049268E+04 -4.104012E+05 -8.601407E+03 -1.157067E+03 -1.757486E+02  1.250623E+03
        13  26 -1.091942E+04 -4.104014E+05 -7.451721E+03  1.594397E+03 -1.356957E+02  2.699196E+03
        13  27 -7.063086E+03 -4.089617E+05 -4.251654E+03 -1.279517E+03 -7.555982E+01  4.147836E+03
        14   1 -7.129798E+03 -3.936512E+05  4.046758E+02 -1.612617E+03 -2.624578E+00 -5.318883E+03
        14   2 -1.128156E+04 -3.982390E+05  3.778620E+03  1.858955E+03 -8.994663E+01 -1.106442E+04
        14   3  1.191893E+04 -3.951776E+05  1.774538E+04 -6.376467E+02 -1.968886E+01 -1.680956E+04
        14   4 -5.888712E+02 -3.674923E+05  6.946444E+03 -1.338027E+03 -2.644245E+00 -5.310511E+03
        14   5 -4.547560E+03 -3.713151E+05  1.050916E+04  1.662576E+03 -8.994460E+01 -1.106383E+04
        14   6  1.884673E+04 -3.674878E+05  2.466976E+04 -1.304975E+03 -1.965942E+01 -1.681675E+04
        14   7  5.952004E+03 -3.413327E+05  1.348816E+04 -1.063425E+03 -2.663903E+00 -5.302139E+03
        14   8  2.186389E+03 -3.443906E+05  1.723964E+04  1.466188E+03 -8.994256E+01 -1.106324E+04
        14   9  2.577447E+04 -3.397972E+05  3.159408E+04 -1.972332E+03 -1.962997E+01 -1.682395E+04
        14  10 -7.129806E+03 -3.936513E+05  4.046226E+02 -1.612617E+03 -1.113788E-09 -6.946319E-11
        14  11 -1.128160E+04 -3.982392E+05  3.778389E+03  1.858955E+03  1.442916E-09 -6.266449E-10
        14  12  1.191885E+04 -3.951779E+05  1.774485E+04 -6.376469E+02 -6.347997E-10 -4.845092E-10
        14  13 -5.888788E+02 -3.674923E+05  6.946391E+03 -1.338027E+03  1.600327E-09 -1.035423E-09
        14  14 -4.547593E+03 -3.713153E+05  1.050893E+04  1.662575E+03  7.363888E-10  7.779746E-12
        14  15  1.884665E+04 -3.674881E+05  2.466923E+04 -1.304975E+03 -5.522290E-10 -1.001316E-09
        14  16  5.951997E+03 -3.413327E+05  1.348811E+04 -1.063425E+03  1.073027E-10  1.220015E-10
        14  17  2.186356E+03 -3.443907E+05  1.723941E+04  1.466188E+03 -8.036272E-10  8.290305E-10
        14  18  2.577439E+04 -3.397975E+05  3.159355E+04 -1.972333E+03 -1.386068E-09  1.654625E-10
        14  19 -7.129798E+03 -3.936512E+05  4.046758E+02 -1.612617E+03  2.624578E+00  5.318883E+03
        14  20 -1.128156E+04 -3.982390E+05  3.778620E+03  1.858955E+03  8.994663E+01  1.106442E+04
        14  21  1.191893E+04 -3.951776E+05  1.774538E+04 -6.376467E+02  1.968886E+01  1.680956E+04
        14  22 -5.888712E+02 -3.674923E+05  6.946444E+03 -1.338027E+03  2.644245E+00  5.310511E+03
        14  23 -4.547560E+03 -3.713151E+05  1.050916E+04  1.662576E+03  8.994460E+01  1.106383E+04
        14  24  1.884673E+04 -3.674878E+05  2.466976E+04 -1.304975E+03  1.965942E+01  1.681675E+04
        14  25  5.952004E+03 -3.413327E+05  1.348816E+04 -1.063425E+03  2.663903E+00  5.302139E+03
        14  26  2.186389E+03 -3.443906E+05  1.723964E+04  1.466188E+03  8.994256E+01  1.106324E+04
        14  27  2.577447E+04 -3.397972E+05  3.159408E+04 -1.972332E+03  1.962997E+01  1.682395E+04
        15   1  5.724824E+04 -1.371763E+05  5.487858E+04 -3.069776E+01  8.217371E+03 -2.617840E+00
        15   2  5.720490E+04 -1.373549E+05  5.485704E+04  1.098893E+00  8.213271E+03 -6.890998E+01
        15   3  5.719964E+04 -1.374692E+05  5.489804E+04 -6.696971E+01  8.182485E+03 -1.352129E+02
        15   4 -8.334213E+00 -3.686052E+05  8.722065E+01 -2.219406E+01  8.217577E+03 -7.937400E+00
        15   5 -1.503430E+01 -3.686360E+05  1.010964E+02  2.774258E+01  8.213475E+03 -5.884298E+01
        15   6  1.367544E+01 -3.686052E+05  1.668252E+02 -2.218759E+01  8.182683E+03 -1.097591E+02
        15   7 -5.726875E+04 -5.999849E+05 -5.470786E+04 -1.369311E+01  8.217783E+03 -1.325499E+01
        15   8 -5.723881E+04 -5.998679E+05 -5.465857E+04  5.437821E+01  8.213679E+03 -4.877970E+01
        15   9 -5.717612E+04 -5.996920E+05 -5.456810E+04  2.258116E+01  8.182880E+03 -8.431472E+01
        15  10  5.724817E+04 -1.371763E+05  5.487845E+04 -3.069774E+01 -3.483305E-09 -3.768504E-09
        15  11  5.720483E+04 -1.373549E+05  5.485692E+04  1.099349E+00 -2.072399E-10 -6.836268E-10
        15  12  5.719956E+04 -1.374692E+05  5.489791E+04 -6.696882E+01 -2.523526E-11  2.814229E-10
        15  13 -8.406714E+00 -3.686052E+05  8.709377E+01 -2.219401E+01  1.396197E-09  2.851200E-11
        15  14 -1.510673E+01 -3.686360E+05  1.009696E+02  2.774297E+01  2.491208E-09  1.445898E-11
        15  15  1.360355E+01 -3.686052E+05  1.666993E+02 -2.218687E+01 -4.444947E-10  1.016846E-10
        15  16 -5.726883E+04 -5.999849E+05 -5.470799E+04 -1.369302E+01 -3.975969E-09  3.799729E-09
        15  17 -5.723888E+04 -5.998679E+05 -5.465869E+04  5.437854E+01  8.185331E-10  3.462592E-10
        15  18 -5.717619E+04 -5.996920E+05 -5.456823E+04  2.258172E+01  8.153062E-10 -4.085118E-10
        15  19  5.724824E+04 -1.371763E+05  5.487858E+04 -3.069776E+01 -8.217371E+03  2.617840E+00
        15  20  5.720490E+04 -1.373549E+05  5.485704E+04  1.098893E+00 -8.213271E+03  6.890998E+01
        15  21  5.719964E+04 -1.374692E+05  5.489804E+04 -6.696971E+01 -8.182485E+03  1.352129E+02
        15  22 -8.334213E+00 -3.686052E+05  8.722065E+01 -2.219406E+01 -8.217577E+03  7.937400E+00
        15  23 -1.503430E+01 -3.686360E+05  1.010964E+02  2.774258E+01 -8.213475E+03  5.884298E+01
        15  24  1.367544E+01 -3.686052E+05  1.668252E+02 -2.218759E+01 -8.182683E+03  1.097591E+02
        15  25 -5.726875E+04 -5.999849E+05 -5.470786E+04 -1.369311E+01 -8.217783E+03  1.325499E+01
        15  26 -5.723881E+04 -5.998679E+05 -5.465857E+04  5.437821E+01 -8.213679E+03  4.877970E+01
        15  27 -5.717612E+04 -5.996920E+05 -5.456810E+04  2.258116E+01 -8.182880E+03  8.431472E+01
        16   1  5.707551E+04 -1.377940E+05  5.483906E+04 -1.624909E+02  8.218360E+03 -7.177327E+01
        16   2  5.694466E+04 -1.383205E+05  5.486721E+04  2.174832E+01  8.177796E+03 -4.322427E+02
        16   3  5.714625E+04 -1.386715E+05  5.522290E+04 -9.296605E+01  7.808706E+03 -7.929202E+02
        16   4 -2.208577E+01 -3.685871E+05  2.070104E+02 -6.647385E+01  8.218591E+03 -1.429020E+02
        16   5 -4.214204E+01 -3.686584E+05  3.337193E+02  8.307600E+01  8.177945E+03 -3.141024E+02
        16   6  2.374401E+02 -3.685870E+05  6.565319E+02 -6.633471E+01  7.808718E+03 -4.855111E+02
        16   7 -5.712351E+04 -5.993313E+05 -5.442873E+04  2.951161E+01  8.218821E+03 -2.140044E+02
        16   8 -5.703275E+04 -5.989475E+05 -5.420346E+04  1.443865E+02  8.178093E+03 -1.960057E+02
        16   9 -5.667518E+04 -5.984540E+05 -5.391352E+04 -3.970613E+01  7.808730E+03 -1.782153E+02
        16  10  5.707544E+04 -1.377940E+05  5.483893E+04 -1.624905E+02  6.315497E-10 -6.237527E-09
        16  11  5.694459E+04 -1.383205E+05  5.486709E+04  2.175117E+01  2.472292E-09 -1.138562E-09
        16  12  5.714619E+04 -1.386715E+05  5.522278E+04 -9.296106E+01 -2.174948E-10  5.273641E-09
        16  13 -2.215830E+01 -3.685871E+05  2.068835E+02 -6.647290E+01  9.845560E-10  1.831448E-10
        16  14 -4.221387E+01 -3.686584E+05  3.335934E+02  8.307807E+01  1.635206E-09  2.592922E-11
        16  15  2.373746E+02 -3.685870E+05  6.564169E+02 -6.633165E+01 -2.007548E-10  2.060666E-10
        16  16 -5.712358E+04 -5.993313E+05 -5.442886E+04  2.951303E+01  1.363902E-10  6.442993E-09
        16  17 -5.703282E+04 -5.989475E+05 -5.420359E+04  1.443878E+02 -3.063574E-10  1.421926E-10
        16  18 -5.667524E+04 -5.984540E+05 -5.391363E+04 -3.970501E+01 -9.693655E-10 -5.453199E-09
        16  19  5.707551E+04 -1.377940E+05  5.483906E+04 -1.624909E+02 -8.218360E+03  7.177327E+01
        16  20  5.694466E+04 -1.383205E+05  5.486721E+04  2.174832E+01 -8.177796E+03  4.322427E+02
        16  21  5.714625E+04 -1.386715E+05  5.522290E+04 -9.296605E+01 -7.808706E+03  7.929202E+02
        16  22 -2.208577E+01 -3.685871E+05  2.070104E+02 -6.647385E+01 -8.218591E+03  1.429020E+02
        16  23 -4.214204E+01 -3.686584E+05  3.337193E+02  8.307600E+01 -8.177945E+03  3.141024E+02
        16  24  2.374401E+02 -3.685870E+05  6.565319E+02 -6.633471E+01 -7.808718E+03  4.855111E+02
        16  25 -5.712351E+04 -5.993313E+05 -5.442873E+04  2.951161E+01 -8.218821E+03  2.140044E+02
        16  26 -5.703275E+04 -5.989475E+05 -5.420346E+04  1.443865E+02 -8.178093E+03  1.960057E+02
        16  27 -5.667518E+04 -5.984540E+05 -5.391352E+04 -3.970613E+01 -7.808730E+03  1.782153E+02
        17   1  5.655087E+04 -1.391414E+05  5.495517E+04 -6.164809E+02  8.478778E+03  6.277335E+02
        17   2  5.617452E+04 -1.405302E+05  5.534881E+04  3.180621E+02  8.074618E+03 -3.004757E+03
        17   3  5.939508E+04 -1.405030E+05  5.901618E+04  6.213088E+02  2.568035E+03 -6.641909E+03
        17   4 -1.484540E+02 -3.684174E+05  8.001819E+02 -1.409594E+02  8.479809E+03 -6.072272E+02
        17   5 -3.201937E+02 -3.688701E+05  1.275483E+03  1.758589E+02  8.073485E+03 -1.300778E+03
        17   6  2.595272E+03 -3.684168E+05  2.983420E+03 -1.386451E+02  2.563909E+03 -1.999030E+03
        17   7 -5.685155E+04 -5.976450E+05 -5.335844E+04  3.343934E+02  8.480837E+03 -1.841734E+03
        17   8 -5.681865E+04 -5.971620E+05 -5.280146E+04  3.371755E+01  8.072350E+03  4.025768E+02
        17   9 -5.420838E+04 -5.962833E+05 -5.305308E+04 -8.983088E+02  2.559772E+03  2.642146E+03
        17  10  5.655080E+04 -1.391414E+05  5.495504E+04 -6.164852E+02 -1.835720E-09  1.066642E-09
        17  11  5.617444E+04 -1.405302E+05  5.534867E+04  3.180817E+02 -1.140486E-09 -1.254731E-09
        17  12  5.939506E+04 -1.405030E+05  5.901608E+04  6.213225E+02 -2.508799E-10 -3.686212E-10
        17  13 -1.485313E+02 -3.684174E+05  8.000461E+02 -1.409553E+02 -2.075382E-09  3.852876E-10
        17  14 -3.202642E+02 -3.688701E+05  1.275358E+03  1.758674E+02 -1.314631E-09 -9.020222E-12
        17  15  2.595264E+03 -3.684168E+05  2.983400E+03 -1.386409E+02 -6.793339E-10  3.148280E-10
        17  16 -5.685162E+04 -5.976451E+05 -5.335858E+04  3.344060E+02 -2.632303E-09 -6.697469E-10
        17  17 -5.681872E+04 -5.971621E+05 -5.280158E+04  3.371493E+01 -1.894631E-09 -4.726388E-10
        17  18 -5.420839E+04 -5.962833E+05 -5.305311E+04 -8.983142E+02 -5.546361E-10  2.860940E-11
        17  19  5.655087E+04 -1.391414E+05  5.495517E+04 -6.164809E+02 -8.478778E+03 -6.277335E+02
        17  20  5.617452E+04 -1.405302E+05  5.534881E+04  3.180621E+02 -8.074618E+03  3.004757E+03
        17  21  5.939508E+04 -1.405030E+05  5.901618E+04  6.213088E+02 -2.568035E+03  6.641909E+03
        17  22 -1.484540E+02 -3.684174E+05  8.001819E+02 -1.409594E+02 -8.479809E+03  6.072272E+02
        17  23 -3.201937E+02 -3.688701E+05  1.275483E+03  1.758589E+02 -8.073485E+03  1.300778E+03
        17  24  2.595272E+03 -3.684168E+05  2.983420E+03 -1.386451E+02 -2.563909E+03  1.999030E+03
        17  25 -5.685155E+04 -5.976450E+05 -5.335844E+04  3.343934E+02 -8.480837E+03  1.841734E+03
        17  26 -5.681865E+04 -5.971620E+05 -5.280146E+04  3.371755E+01 -8.072350E+03 -4.025768E+02
        17  27 -5.420838E+04 -5.962833E+05 -5.305308E+04 -8.983088E+02 -2.559772E+03 -2.642146E+03
        18   1  2.170469E+04  2.334936E+05  1.219001E+04 -3.451236E-01  7.616498E+03 -2.487686E-01
        18   2  2.170491E+04  2.334948E+05  1.219121E+04 -1.668489E+00  7.616530E+03 -2.481760E+00
        18   3  2.170519E+04  2.334969E+05  1.219403E+04 -3.075878E+00  7.616562E+03 -4.714785E+00
        18   4 -2.191957E+00  1.371244E+05  3.734217E+00 -1.865985E-02  7.616622E+03 -3.295424E-01
        18   5 -2.375379E+00  1.371240E+05  4.566703E+00  2.334223E-02  7.616655E+03 -2.558444E+00
        18   6 -2.503680E+00  1.371244E+05  7.023305E+00 -1.863825E-02  7.616687E+03 -4.787378E+00
        18   7 -2.170945E+04  4.076488E+04 -1.218257E+04  3.077588E-01  7.616747E+03 -4.103043E-01
        18   8 -2.171004E+04  4.076281E+04 -1.218210E+04  1.714934E+00  7.616780E+03 -2.635116E+00
        18   9 -2.171058E+04  4.076154E+04 -1.218002E+04  3.038168E+00  7.616812E+03 -4.859961E+00
        18  10  2.170463E+04  2.334935E+05  1.218990E+04 -3.451220E-01  3.307785E-10  8.698733E-10
        18  11  2.170485E+04  2.334948E+05  1.219110E+04 -1.668474E+00  3.631786E-10 -7.339692E-10
        18  12  2.170513E+04  2.334969E+05  1.219392E+04 -3.075849E+00 -2.102678E-10 -2.359697E-09
        18  13 -2.254257E+00  1.371244E+05  3.625192E+00 -1.865785E-02 -1.033128E-09  4.637913E-12
        18  14 -2.437679E+00  1.371240E+05  4.457677E+00  2.335792E-02 -5.779896E-10 -3.543662E-11
        18  15 -2.565981E+00  1.371244E+05  6.914279E+00 -1.860890E-02 -1.780266E-10  3.653246E-11
        18  16 -2.170951E+04  4.076486E+04 -1.218268E+04  3.077613E-01  5.862786E-11 -8.695813E-10
        18  17 -2.171010E+04  4.076279E+04 -1.218221E+04  1.714951E+00  3.354429E-10  7.184678E-10
        18  18 -2.171064E+04  4.076152E+04 -1.218013E+04  3.038198E+00  2.749908E-10  2.362462E-09
        18  19  2.170469E+04  2.334936E+05  1.219001E+04 -3.451236E-01 -7.616498E+03  2.487686E-01
        18  20  2.170491E+04  2.334948E+05  1.219121E+04 -1.668489E+00 -7.616530E+03  2.481760E+00
        18  21  2.170519E+04  2.334969E+05  1.219403E+04 -3.075878E+00 -7.616562E+03  4.714785E+00
        18  22 -2.191957E+00  1.371244E+05  3.734217E+00 -1.865987E-02 -7.616622E+03  3.295424E-01
        18  23 -2.375379E+00  1.371240E+05  4.566703E+00  2.334223E-02 -7.616655E+03  2.558444E+00
        18  24 -2.503680E+00  1.371244E+05  7.023305E+00 -1.863825E-02 -7.616687E+03  4.787378E+00
        18  25 -2.170945E+04  4.076488E+04 -1.218257E+04  3.077588E-01 -7.616747E+03  4.103043E-01
        18  26 -2.171004E+04  4.076281E+04 -1.218210E+04  1.714934E+00 -7.616780E+03  2.635116E+00
        18  27 -2.171058E+04  4.076154E+04 -1.218002E+04  3.038168E+00 -7.616812E+03  4.859961E+00
        19   1  2.170553E+04  2.334991E+05  1.219641E+04 -3.693198E+00  7.616617E+03 -6.030910E+00
        19   2  2.170614E+04  2.335031E+05  1.220404E+04 -6.114501E+00  7.616429E+03 -1.476165E+01
        19   3  2.170717E+04  2.335089E+05  1.221762E+04 -7.795922E+00  7.615703E+03 -2.349241E+01
        19   4 -2.659167E+00  1.371246E+05  8.977854E+00  1.644451E-01  7.616742E+03 -6.223198E+00
        19   5 -3.313814E+00  1.371238E+05  1.510938E+01 -2.055076E-01  7.616553E+03 -1.366202E+01
        19   6 -3.770688E+00  1.371246E+05  2.629204E+01  1.644269E-01  7.615828E+03 -2.110087E+01
        19   7 -2.171122E+04  4.075966E+04 -1.217849E+04  4.021541E+00  7.616867E+03 -6.415457E+00
        19   8 -2.171314E+04  4.075408E+04 -1.217385E+04  5.702632E+00  7.616678E+03 -1.256255E+01
        19   9 -2.171509E+04  4.074980E+04 -1.216506E+04  8.123616E+00  7.615952E+03 -1.870968E+01
        19  10  2.170547E+04  2.334991E+05  1.219630E+04 -3.693161E+00  5.430473E-10  7.097548E-10
        19  11  2.170607E+04  2.335031E+05  1.220393E+04 -6.114410E+00  3.663040E-10 -7.629916E-10
        19  12  2.170710E+04  2.335089E+05  1.221751E+04 -7.795778E+00 -2.536484E-10 -2.368287E-09
        19  13 -2.721469E+00  1.371246E+05  8.868826E+00  1.644833E-01  1.334582E-09  3.143897E-11
        19  14 -3.376112E+00  1.371238E+05  1.500036E+01 -2.054238E-01 -3.466670E-11 -1.048569E-10
        19  15 -3.832975E+00  1.371246E+05  2.618304E+01  1.645563E-01  7.660604E-11  7.634966E-11
        19  16 -2.171129E+04  4.075964E+04 -1.217859E+04  4.021581E+00 -2.694767E-10 -7.698451E-10
        19  17 -2.171320E+04  4.075407E+04 -1.217396E+04  5.702709E+00  1.411984E-09  7.120846E-10
        19  18 -2.171515E+04  4.074979E+04 -1.216517E+04  8.123731E+00 -7.284899E-11  2.417650E-09
        19  19  2.170553E+04  2.334991E+05  1.219641E+04 -3.693198E+00 -7.616617E+03  6.030910E+00
        19  20  2.170614E+04  2.335031E+05  1.220404E+04 -6.114501E+00 -7.616429E+03  1.476165E+01
        19  21  2.170717E+04  2.335089E+05  1.221762E+04 -7.795922E+00 -7.615703E+03  2.349241E+01
        19  22 -2.659167E+00  1.371246E+05  8.977854E+00  1.644451E-01 -7.616742E+03  6.223198E+00
        19  23 -3.313814E+00  1.371238E+05  1.510938E+01 -2.055076E-01 -7.616553E+03  1.366202E+01
        19  24 -3.770688E+00  1.371246E+05  2.629204E+01  1.644269E-01 -7.615828E+03  2.110087E+01
        19  25 -2.171122E+04  4.075966E+04 -1.217849E+04  4.021541E+00 -7.616867E+03  6.415457E+00
        19  26 -2.171314E+04  4.075408E+04 -1.217385E+04  5.702632E+00 -7.616678E+03  1.256255E+01
        19  27 -2.171509E+04  4.074980E+04 -1.216506E+04  8.123616E+00 -7.615952E+03  1.870968E+01
        20   1  2.170798E+04  2.335142E+05  1.222773E+04 -9.289438E+00  7.615271E+03 -2.917822E+01
        20   2  2.170992E+04  2.335189E+05  1.226038E+04 -1.297933E+01  7.611905E+03 -6.993793E+01
        20   3  2.171673E+04  2.335306E+05  1.232093E+04 -1.540807E+01  7.603962E+03 -1.106975E+02
        20   4 -4.191448E+00  1.371254E+05  3.462736E+01  2.801879E-01  7.615395E+03 -2.658487E+01
        20   5 -5.117527E+00  1.371228E+05  6.019831E+01 -3.503240E-01  7.612029E+03 -5.634970E+01
        20   6 -3.089786E+00  1.371254E+05  1.060421E+02  2.802679E-01  7.604085E+03 -8.611458E+01
        20   7 -2.171674E+04  4.074619E+04 -1.215851E+04  9.848409E+00  7.615520E+03 -2.399191E+01
        20   8 -2.172054E+04  4.073638E+04 -1.214001E+04  1.227681E+01  7.612153E+03 -4.276347E+01
        20   9 -2.172328E+04  4.072977E+04 -1.210888E+04  1.596626E+01  7.604207E+03 -6.153524E+01
        20  10  2.170792E+04  2.335141E+05  1.222762E+04 -9.289259E+00  8.608674E-10 -6.858601E-08
        20  11  2.170986E+04  2.335188E+05  1.226027E+04 -1.297890E+01  1.514289E-09 -7.300759E-10
        20  12  2.171666E+04  2.335306E+05  1.232082E+04 -1.540739E+01  1.047644E-09  6.734153E-08
        20  13 -4.253728E+00  1.371254E+05  3.451837E+01  2.803511E-01  3.040353E-10  5.936586E-11
        20  14 -5.179752E+00  1.371228E+05  6.008941E+01 -3.499786E-01  7.106963E-10 -1.801773E-10
        20  15 -3.151883E+00  1.371254E+05  1.059334E+02  2.807951E-01  2.231988E-09  1.029024E-10
        20  16 -2.171681E+04  4.074618E+04 -1.215862E+04  9.848556E+00  1.655920E-09  6.849437E-08
        20  17 -2.172060E+04  4.073637E+04 -1.214012E+04  1.227707E+01  2.151581E-09  6.718146E-10
        20  18 -2.172335E+04  4.072976E+04 -1.210899E+04  1.596663E+01  1.173464E-09 -6.729324E-08
        20  19  2.170798E+04  2.335142E+05  1.222773E+04 -9.289438E+00 -7.615271E+03  2.917822E+01
        20  20  2.170992E+04  2.335189E+05  1.226038E+04 -1.297933E+01 -7.611905E+03  6.993793E+01
        20  21  2.171673E+04  2.335306E+05  1.232093E+04 -1.540807E+01 -7.603962E+03  1.106975E+02
        20  22 -4.191448E+00  1.371254E+05  3.462736E+01  2.801881E-01 -7.615395E+03  2.658487E+01
        20  23 -5.117527E+00  1.371228E+05  6.019831E+01 -3.503241E-01 -7.612029E+03  5.634970E+01
        20  24 -3.089786E+00  1.371254E+05  1.060421E+02  2.802676E-01 -7.604085E+03  8.611458E+01
        20  25 -2.171674E+04  4.074619E+04 -1.215851E+04  9.848409E+00 -7.615520E+03  2.399191E+01
        20  26 -2.172054E+04  4.073638E+04 -1.214001E+04  1.227681E+01 -7.612153E+03  4.276347E+01
        20  27 -2.172328E+04  4.072977E+04 -1.210888E+04  1.596626E+01 -7.604207E+03  6.153524E+01
        21   1 -5.444012E+05  1.079446E+04 -5.625822E+03  7.594330E+03 -4.687947E+04 -4.973185E+02
        21   2 -5.420161E+05  7.395514E+04  3.178271E+04 -8.409828E+03 -3.084084E+04 -1.084449E+03
        21   3 -5.533525E+05  6.214605E+04  4.142780E+04  1.069877E+04 -1.480713E+04 -4.017393E+02
        21   4 -7.947543E+05 -5.182986E+04 -6.824740E+04  8.963094E+03 -4.692682E+04 -4.975647E+02
        21   5 -7.878785E+05  1.245225E+04 -2.969767E+04 -8.653763E+03 -3.083298E+04 -1.084466E+03
        21   6 -7.947435E+05  1.737872E+03 -1.895827E+04  8.842994E+03 -1.474396E+04 -4.013936E+02
        21   7 -1.045051E+06 -1.144589E+05 -1.308737E+05  1.033127E+04 -4.697414E+04 -4.978111E+02
        21   8 -1.033686E+06 -4.905520E+04 -9.118262E+04 -8.897653E+03 -3.082513E+04 -1.084482E+03
        21   9 -1.036082E+06 -5.867470E+04 -7.934875E+04  6.987873E+03 -1.468081E+04 -4.010482E+02
        21  10 -5.444036E+05  1.079387E+04 -5.629956E+03  7.594311E+03 -5.373218E-10  2.049996E-09
        21  11 -5.420171E+05  7.395488E+04  3.178092E+04 -8.409855E+03  3.457945E-11  1.867268E-09
        21  12 -5.533527E+05  6.214599E+04  4.142739E+04  1.069876E+04 -4.565350E-10 -1.115536E-08
        21  13 -7.947567E+05 -5.183045E+04 -6.825155E+04  8.963075E+03  2.738352E-10  4.983112E-11
        21  14 -7.878796E+05  1.245199E+04 -2.969946E+04 -8.653790E+03 -4.963133E-12  1.579889E-10
        21  15 -7.947437E+05  1.737814E+03 -1.895868E+04  8.842989E+03  1.349453E-09 -4.899301E-10
        21  16 -1.045053E+06 -1.144595E+05 -1.308779E+05  1.033126E+04  9.167988E-10 -1.872329E-09
        21  17 -1.033687E+06 -4.905546E+04 -9.118441E+04 -8.897680E+03 -5.505070E-10 -2.038013E-09
        21  18 -1.036082E+06 -5.867476E+04 -7.934916E+04  6.987868E+03  1.048769E-09  1.081636E-08
        21  19 -5.444012E+05  1.079446E+04 -5.625822E+03  7.594330E+03  4.687947E+04  4.973185E+02
        21  20 -5.420161E+05  7.395514E+04  3.178271E+04 -8.409828E+03  3.084084E+04  1.084449E+03
        21  21 -5.533525E+05  6.214605E+04  4.142780E+04  1.069877E+04  1.480713E+04  4.017393E+02
        21  22 -7.947543E+05 -5.182986E+04 -6.824740E+04  8.963094E+03  4.692682E+04  4.975647E+02
        21  23 -7.878785E+05  1.245225E+04 -2.969767E+04 -8.653763E+03  3.083298E+04  1.084466E+03
        21  24 -7.947435E+05  1.737872E+03 -1.895827E+04  8.842994E+03  1.474396E+04  4.013936E+02
        21  25 -1.045051E+06 -1.144589E+05 -1.308737E+05  1.033127E+04  4.697414E+04  4.978111E+02
        21  26 -1.033686E+06 -4.905520E+04 -9.118262E+04 -8.897653E+03  3.082513E+04  1.084482E+03
        21  27 -1.036082E+06 -5.867470E+04 -7.934875E+04  6.987873E+03  1.468081E+04  4.010482E+02
        22   1 -9.898448E+05 -5.770944E+04 -6.541051E+04  8.376818E+03 -1.168983E+04  1.990404E+02
        22   2 -9.951330E+05 -4.873717E+04 -5.862998E+04 -1.000688E+04 -7.639446E+03  6.458161E+02
        22   3 -9.994233E+05 -5.245308E+04 -5.672145E+04  9.186438E+03 -3.587279E+03  8.321304E+02
        22   4 -7.914619E+05 -8.056400E+03 -1.577130E+04  9.471969E+03 -1.166580E+04  1.991577E+02
        22   5 -7.919536E+05  2.107930E+03 -7.804508E+03 -9.337181E+03 -7.626775E+03  6.458527E+02
        22   6 -7.914432E+05 -4.109543E+02 -4.700441E+03  9.429915E+03 -3.585939E+03  8.321175E+02
        22   7 -5.930433E+05  4.159367E+04  3.386492E+04  1.056742E+04 -1.164175E+04  1.992751E+02
        22   8 -5.887366E+05  5.294991E+04  4.301784E+04 -8.667301E+03 -7.614100E+03  6.458894E+02
        22   9 -5.834238E+05  5.162790E+04  4.731730E+04  9.673446E+03 -3.584599E+03  8.321047E+02
        22  10 -9.898450E+05 -5.770948E+04 -6.541076E+04  8.376820E+03 -1.986617E-09  3.956464E-09
        22  11 -9.951331E+05 -4.873719E+04 -5.863009E+04 -1.000688E+04 -1.070086E-09  1.746635E-08
        22  12 -9.994233E+05 -5.245309E+04 -5.672148E+04  9.186440E+03  1.386562E-09 -6.434437E-08
        22  13 -7.914620E+05 -8.056437E+03 -1.577156E+04  9.471971E+03  7.130232E-10 -6.408621E-10
        22  14 -7.919536E+05  2.107914E+03 -7.804618E+03 -9.337177E+03  4.555517E-11  1.515272E-09
        22  15 -7.914432E+05 -4.109585E+02 -4.700466E+03  9.429917E+03 -5.036918E-11  7.384609E-11
        22  16 -5.930434E+05  4.159363E+04  3.386467E+04  1.056743E+04 -2.436284E-10 -3.177127E-09
        22  17 -5.887367E+05  5.294990E+04  4.301773E+04 -8.667297E+03  2.734742E-11 -1.397939E-08
        22  18 -5.834238E+05  5.162790E+04  4.731728E+04  9.673449E+03 -1.370801E-09  6.701869E-08
        22  19 -9.898448E+05 -5.770944E+04 -6.541051E+04  8.376818E+03  1.168983E+04 -1.990404E+02
        22  20 -9.951330E+05 -4.873717E+04 -5.862998E+04 -1.000688E+04  7.639446E+03 -6.458161E+02
        22  21 -9.994233E+05 -5.245308E+04 -5.672145E+04  9.186438E+03  3.587279E+03 -8.321304E+02
        22  22 -7.914619E+05 -8.056400E+03 -1.577130E+04  9.471969E+03  1.166580E+04 -1.991577E+02
        22  23 -7.919536E+05  2.107930E+03 -7.804508E+03 -9.337181E+03  7.626775E+03 -6.458527E+02
        22  24 -7.914432E+05 -4.109543E+02 -4.700441E+03  9.429915E+03  3.585939E+03 -8.321175E+02
        22  25 -5.930433E+05  4.159367E+04  3.386492E+04  1.056742E+04  1.164175E+04 -1.992751E+02
        22  26 -5.887366E+05  5.294991E+04  4.301784E+04 -8.667301E+03  7.614100E+03 -6.458894E+02
        22  27 -5.834238E+05  5.162790E+04  4.731730E+04  9.673446E+03  3.584599E+03 -8.321047E+02
        23   1 -1.227849E+06 -1.109586E+05 -1.130143E+05  7.085279E+02 -3.143237E+03  1.106021E+03
        23   2 -1.239958E+06 -1.106448E+05 -1.138104E+05  1.184285E+03 -1.863258E+03  1.515768E+03
        23   3 -1.228100E+06 -1.097791E+05 -1.104944E+05  2.757203E+03 -5.842946E+02  1.117108E+03
        23   4 -7.863927E+05 -4.743545E+02 -2.558859E+03  1.335609E+03 -3.105840E+03  1.106029E+03
        23   5 -7.983788E+05 -1.316305E+02 -3.335406E+03  7.882931E+02 -1.863831E+03  1.515701E+03
        23   6 -7.863822E+05  7.768319E+02  2.760635E+01  1.338122E+03 -6.228357E+02  1.117213E+03
        23   7 -3.447597E+05  1.099952E+05  1.078819E+05  1.963067E+03 -3.068417E+03  1.106038E+03
        23   8 -3.566227E+05  1.103668E+05  1.071248E+05  3.920726E+02 -1.864404E+03  1.515634E+03
        23   9 -3.444869E+05  1.113180E+05  1.105349E+05 -8.179313E+01 -6.614042E+02  1.117318E+03
        23  10 -1.227849E+06 -1.109586E+05 -1.130143E+05  7.085307E+02 -2.620063E-09  1.751316E-08
        23  11 -1.239958E+06 -1.106448E+05 -1.138104E+05  1.184287E+03 -2.164381E-09  9.194525E-08
        23  12 -1.228100E+06 -1.097791E+05 -1.104944E+05  2.757204E+03  1.182719E-08 -3.867504E-07
        23  13 -7.863928E+05 -4.743585E+02 -2.558879E+03  1.335611E+03  1.312350E-09 -5.817759E-10
        23  14 -7.983788E+05 -1.316339E+02 -3.335416E+03  7.882954E+02 -2.144729E-09 -4.460412E-10
        23  15 -7.863822E+05  7.768305E+02  2.760329E+01  1.338123E+03 -6.133068E-10 -1.723893E-09
        23  16 -3.447597E+05  1.099952E+05  1.078818E+05  1.963069E+03  6.530268E-10 -1.703972E-08
        23  17 -3.566227E+05  1.103668E+05  1.071248E+05  3.920749E+02  3.972369E-09 -9.118120E-08
        23  18 -3.444869E+05  1.113180E+05  1.105349E+05 -8.179253E+01 -1.148005E-08  3.820906E-07
        23  19 -1.227849E+06 -1.109586E+05 -1.130143E+05  7.085279E+02  3.143237E+03 -1.106021E+03
        23  20 -1.239958E+06 -1.106448E+05 -1.138104E+05  1.184285E+03  1.863258E+03 -1.515768E+03
        23  21 -1.228100E+06 -1.097791E+05 -1.104944E+05  2.757203E+03  5.842946E+02 -1.117108E+03
        23  22 -7.863927E+05 -4.743545E+02 -2.558859E+03  1.335609E+03  3.105840E+03 -1.106029E+03
        23  23 -7.983788E+05 -1.316305E+02 -3.335406E+03  7.882931E+02  1.863831E+03 -1.515701E+03
        23  24 -7.863822E+05  7.768321E+02  2.760639E+01  1.338122E+03  6.228357E+02 -1.117213E+03
        23  25 -3.447597E+05  1.099952E+05  1.078819E+05  1.963067E+03  3.068417E+03 -1.106038E+03
        23  26 -3.566227E+05  1.103668E+05  1.071248E+05  3.920726E+02  1.864404E+03 -1.515634E+03
        23  27 -3.444869E+05  1.113180E+05  1.105349E+05 -8.179312E+01  6.614042E+02 -1.117318E+03
        24   1 -1.018719E+06 -5.786324E+04 -5.796305E+04 -6.175771E+03 -7.352703E+02  8.941552E+02
        24   2 -1.016687E+06 -5.579539E+04 -5.680083E+04  1.232642E+04 -3.477962E+02  7.699413E+02
        24   3 -1.009399E+06 -5.468308E+04 -5.501930E+04 -5.637673E+03  3.596109E+01  2.305906E+02
        24   4 -7.904856E+05 -7.473573E+02 -8.735154E+02 -7.014316E+03 -7.313612E+02  8.941141E+02
        24   5 -7.931103E+05  1.598723E+02 -8.720243E+02  1.122021E+04 -3.636701E+02  7.700294E+02
        24   6 -7.904745E+05  1.162301E+02 -2.372312E+02 -7.010756E+03  3.015100E-01  2.308731E+02
        24   7 -5.622046E+05  5.636459E+04  5.621208E+04 -7.853107E+03 -7.274507E+02  8.940730E+02
        24   8 -5.694880E+05  5.611136E+04  5.505300E+04  1.011366E+04 -3.795495E+02  7.701175E+02
        24   9 -5.715062E+05  5.491192E+04  5.454121E+04 -8.384236E+03 -3.537041E+01  2.311558E+02
        24  10 -1.018719E+06 -5.786324E+04 -5.796305E+04 -6.175773E+03 -1.051589E-05 -1.337106E-06
        24  11 -1.016687E+06 -5.579539E+04 -5.680083E+04  1.232641E+04 -4.686846E-05 -2.205922E-06
        24  12 -1.009399E+06 -5.468308E+04 -5.501930E+04 -5.637693E+03 -8.327274E-05 -6.486924E-07
        24  13 -7.904856E+05 -7.473582E+02 -8.735181E+02 -7.014315E+03 -2.645575E-05  2.412120E-07
        24  14 -7.931103E+05  1.598719E+02 -8.720258E+02  1.122021E+04 -1.173628E-04  1.189820E-06
        24  15 -7.904745E+05  1.162300E+02 -2.372314E+02 -7.010756E+03 -2.082726E-04  2.306704E-06
        24  16 -5.622046E+05  5.636458E+04  5.621208E+04 -7.853104E+03 -1.064848E-05  1.278038E-06
        24  17 -5.694880E+05  5.611136E+04  5.505299E+04  1.011368E+04 -4.702674E-05  2.182448E-06
        24  18 -5.715062E+05  5.491192E+04  5.454121E+04 -8.384216E+03 -8.335948E-05  9.985274E-07
        24  19 -1.018719E+06 -5.786324E+04 -5.796305E+04 -6.175776E+03  7.352703E+02 -8.941552E+02
        24  20 -1.016687E+06 -5.579539E+04 -5.680083E+04  1.232640E+04  3.477961E+02 -7.699413E+02
        24  21 -1.009399E+06 -5.468308E+04 -5.501930E+04 -5.637713E+03 -3.596126E+01 -2.305906E+02
        24  22 -7.904856E+05 -7.473572E+02 -8.735157E+02 -7.014316E+03  7.313612E+02 -8.941141E+02
        24  23 -7.931103E+05  1.598728E+02 -8.720246E+02  1.122021E+04  3.636698E+02 -7.700294E+02
        24  24 -7.904745E+05  1.162300E+02 -2.372315E+02 -7.010756E+03 -3.019266E-01 -2.308731E+02
        24  25 -5.622046E+05  5.636459E+04  5.621208E+04 -7.853102E+03  7.274506E+02 -8.940730E+02
        24  26 -5.694880E+05  5.611136E+04  5.505300E+04  1.011369E+04  3.795494E+02 -7.701175E+02
        24  27 -5.715062E+05  5.491192E+04  5.454121E+04 -8.384196E+03  3.537025E+01 -2.311558E+02
        25   1 -5.690234E+05  5.553178E+04  5.516769E+04 -8.367551E+03  1.191194E+00 -2.382089E+02
        25   2 -5.670937E+05  5.671361E+04  5.568402E+04  1.006659E+04  3.312375E+02 -7.781509E+02
        25   3 -5.597470E+05  5.699275E+04  5.689556E+04 -7.826002E+03  6.650391E+02 -8.986194E+02
        25   4 -7.904411E+05  1.232930E+02 -2.232706E+02 -6.980112E+03 -3.463182E+01 -2.379254E+02
        25   5 -7.931526E+05  1.525996E+02 -8.502854E+02  1.118193E+04  3.154243E+02 -7.780639E+02
        25   6 -7.904520E+05 -7.255155E+02 -7.962449E+02 -6.983588E+03  6.692337E+02 -8.986622E+02
        25   7 -1.011814E+06 -5.528890E+04 -5.561794E+04 -5.593079E+03 -7.044179E+01 -2.376420E+02
        25   8 -1.019165E+06 -5.641227E+04 -5.738845E+04  1.229694E+04  2.996170E+02 -7.779769E+02
        25   9 -1.021109E+06 -5.844781E+04 -5.849208E+04 -6.141425E+03  6.734267E+02 -8.987050E+02
        25  10 -5.690234E+05  5.553179E+04  5.516769E+04 -8.367571E+03 -8.336072E-05  9.981368E-07
        25  11 -5.670937E+05  5.671361E+04  5.568401E+04  1.006657E+04 -4.702980E-05  2.180684E-06
        25  12 -5.597470E+05  5.699275E+04  5.689556E+04 -7.826004E+03 -1.065050E-05  1.277092E-06
        25  13 -7.904411E+05  1.232930E+02 -2.232705E+02 -6.980112E+03 -2.082767E-04  2.306554E-06
        25  14 -7.931526E+05  1.525987E+02 -8.502866E+02  1.118193E+04 -1.173649E-04  1.185796E-06
        25  15 -7.904520E+05 -7.255165E+02 -7.962471E+02 -6.983588E+03 -2.645359E-05  2.407139E-07
        25  16 -1.011814E+06 -5.528890E+04 -5.561794E+04 -5.593059E+03 -8.327092E-05 -6.495096E-07
        25  17 -1.019165E+06 -5.641228E+04 -5.738845E+04  1.229695E+04 -4.686936E-05 -2.208858E-06
        25  18 -1.021109E+06 -5.844781E+04 -5.849208E+04 -6.141422E+03 -1.051443E-05 -1.339853E-06
        25  19 -5.690234E+05  5.553179E+04  5.516769E+04 -8.367591E+03 -1.191361E+00  2.382089E+02
        25  20 -5.670937E+05  5.671361E+04  5.568402E+04  1.006656E+04 -3.312376E+02  7.781509E+02
        25  21 -5.597470E+05  5.699275E+04  5.689556E+04 -7.826007E+03 -6.650391E+02  8.986194E+02
        25  22 -7.904411E+05  1.232931E+02 -2.232702E+02 -6.980112E+03  3.463140E+01  2.379254E+02
        25  23 -7.931526E+05  1.525991E+02 -8.502852E+02  1.118193E+04 -3.154246E+02  7.780639E+02
        25  24 -7.904520E+05 -7.255156E+02 -7.962446E+02 -6.983588E+03 -6.692337E+02  8.986622E+02
        25  25 -1.011814E+06 -5.528891E+04 -5.561794E+04 -5.593039E+03  7.044162E+01  2.376420E+02
        25  26 -1.019165E+06 -5.641228E+04 -5.738845E+04  1.229696E+04 -2.996171E+02  7.779769E+02
        25  27 -1.021109E+06 -5.844781E+04 -5.849208E+04 -6.141420E+03 -6.734267E+02  8.987050E+02
        26   1 -3.445109E+05  1.113006E+05  1.106165E+05 -7.596374E+00  5.831959E+02 -1.119237E+03
        26   2 -3.567204E+05  1.103201E+05  1.072599E+05  3.303355E+02  1.705875E+03 -1.515064E+03
        26   3 -3.448916E+05  1.100698E+05  1.081586E+05  2.031508E+03  2.829484E+03 -1.103660E+03
        26   4 -7.863732E+05  7.678244E+02  1.175510E+02  1.397248E+03  5.447833E+02 -1.119134E+03
        26   5 -7.983897E+05 -1.565810E+02 -3.178647E+03  7.142753E+02  1.705476E+03 -1.515131E+03
        26   6 -7.863841E+05 -3.646414E+02 -2.247051E+03  1.394644E+03  2.867099E+03 -1.103649E+03
        26   7 -1.228058E+06 -1.097797E+05 -1.103961E+05  2.801266E+03  5.063980E+02 -1.119032E+03
        26   8 -1.239882E+06 -1.106480E+05 -1.136319E+05  1.097994E+03  1.705077E+03 -1.515198E+03
        26   9 -1.227700E+06 -1.108138E+05 -1.126674E+05  7.581612E+02  2.904686E+03 -1.103639E+03
        26  10 -3.445109E+05  1.113006E+05  1.106165E+05 -7.595850E+00 -1.258903E-08  3.812671E-07
        26  11 -3.567204E+05  1.103201E+05  1.072599E+05  3.303376E+02  1.588510E-09 -9.216515E-08
        26  12 -3.448916E+05  1.100698E+05  1.081586E+05  2.031511E+03  1.934933E-09 -1.617811E-08
        26  13 -7.863732E+05  7.678229E+02  1.175480E+02  1.397248E+03  4.406221E-10 -3.562020E-09
        26  14 -7.983897E+05 -1.565842E+02 -3.178657E+03  7.142774E+02 -2.226456E-09 -8.384770E-10
        26  15 -7.863841E+05 -3.646449E+02 -2.247069E+03  1.394646E+03  1.641049E-09  8.117667E-10
        26  16 -1.228058E+06 -1.097797E+05 -1.103961E+05  2.801267E+03  1.245292E-08 -3.876657E-07
        26  17 -1.239882E+06 -1.106480E+05 -1.136319E+05  1.097996E+03 -2.685911E-09  8.980685E-08
        26  18 -1.227700E+06 -1.108138E+05 -1.126674E+05  7.581638E+02 -1.318721E-09  1.711355E-08
        26  19 -3.445109E+05  1.113006E+05  1.106165E+05 -7.596378E+00 -5.831959E+02  1.119237E+03
        26  20 -3.567204E+05  1.103201E+05  1.072599E+05  3.303355E+02 -1.705875E+03  1.515064E+03
        26  21 -3.448916E+05  1.100698E+05  1.081586E+05  2.031508E+03 -2.829484E+03  1.103660E+03
        26  22 -7.863732E+05  7.678242E+02  1.175509E+02  1.397248E+03 -5.447833E+02  1.119134E+03
        26  23 -7.983897E+05 -1.565810E+02 -3.178647E+03  7.142753E+02 -1.705476E+03  1.515131E+03
        26  24 -7.863841E+05 -3.646414E+02 -2.247051E+03  1.394644E+03 -2.867099E+03  1.103649E+03
        26  25 -1.228058E+06 -1.097797E+05 -1.103961E+05  2.801266E+03 -5.063980E+02  1.119032E+03
        26  26 -1.239882E+06 -1.106480E+05 -1.136319E+05  1.097994E+03 -1.705077E+03  1.515198E+03
        26  27 -1.227700E+06 -1.108138E+05 -1.126674E+05  7.581612E+02 -2.904686E+03  1.103639E+03
        27   1 -5.859002E+05  5.097472E+04  4.707101E+04  9.712577E+03  3.283398E+03 -8.275822E+02
        27   2 -5.913011E+05  5.215942E+04  4.301765E+04 -8.710897E+03  6.984078E+03 -6.395834E+02
        27   3 -5.955411E+05  4.162677E+04  3.453961E+04  1.055948E+04  1.068299E+04 -1.972533E+02
        27   4 -7.914086E+05 -4.361280E+02 -4.318775E+03  9.457339E+03  3.285085E+03 -8.275939E+02
        27   5 -7.919962E+05  1.948299E+03 -7.174079E+03 -9.370743E+03  6.996916E+03 -6.395454E+02
        27   6 -7.914267E+05 -7.389311E+03 -1.446308E+04  9.495778E+03  1.070701E+04 -1.971349E+02
        27   7 -9.968787E+05 -5.185017E+04 -5.571176E+04  9.202158E+03  3.286771E+03 -8.276056E+02
        27   8 -9.926548E+05 -4.826587E+04 -5.736886E+04 -1.003041E+04  7.009749E+03 -6.395074E+02
        27   9 -9.872775E+05 -5.640829E+04 -6.346868E+04  8.432369E+03  1.073102E+04 -1.970166E+02
        27  10 -5.859002E+05  5.097472E+04  4.707099E+04  9.712580E+03 -8.717189E-10  6.586243E-08
        27  11 -5.913012E+05  5.215941E+04  4.301756E+04 -8.710893E+03  9.372585E-10 -1.481281E-08
        27  12 -5.955412E+05  4.162674E+04  3.453939E+04  1.055948E+04 -2.911673E-10 -2.971542E-09
        27  13 -7.914086E+05 -4.361317E+02 -4.318797E+03  9.457341E+03 -6.614077E-10 -7.511395E-10
        27  14 -7.919963E+05  1.948285E+03 -7.174172E+03 -9.370740E+03 -5.695505E-10 -2.947632E-10
        27  15 -7.914268E+05 -7.389342E+03 -1.446330E+04  9.495780E+03 -1.961756E-10 -5.326725E-11
        27  16 -9.968787E+05 -5.185017E+04 -5.571178E+04  9.202160E+03  2.712443E-10 -6.624076E-08
        27  17 -9.926548E+05 -4.826588E+04 -5.736895E+04 -1.003041E+04  4.467684E-10  1.102958E-08
        27  18 -9.872776E+05 -5.640833E+04 -6.346890E+04  8.432371E+03  5.217240E-10  2.779154E-09
        27  19 -5.859002E+05  5.097472E+04  4.707101E+04  9.712577E+03 -3.283398E+03  8.275822E+02
        27  20 -5.913011E+05  5.215942E+04  4.301765E+04 -8.710897E+03 -6.984078E+03  6.395834E+02
        27  21 -5.955411E+05  4.162677E+04  3.453961E+04  1.055948E+04 -1.068299E+04  1.972533E+02
        27  22 -7.914086E+05 -4.361281E+02 -4.318775E+03  9.457339E+03 -3.285085E+03  8.275939E+02
        27  23 -7.919962E+05  1.948299E+03 -7.174079E+03 -9.370743E+03 -6.996916E+03  6.395454E+02
        27  24 -7.914267E+05 -7.389311E+03 -1.446308E+04  9.495778E+03 -1.070701E+04  1.971349E+02
        27  25 -9.968787E+05 -5.185017E+04 -5.571176E+04  9.202158E+03 -3.286771E+03  8.276056E+02
        27  26 -9.926548E+05 -4.826587E+04 -5.736886E+04 -1.003041E+04 -7.009749E+03  6.395074E+02
        27  27 -9.872775E+05 -5.640829E+04 -6.346868E+04  8.432369E+03 -1.073102E+04  1.970166E+02
        28   1 -1.038007E+06 -5.938538E+04 -7.833738E+04  7.022553E+03  1.345772E+04  4.017953E+02
        28   2 -1.036543E+06 -5.068664E+04 -8.936493E+04 -8.894539E+03  2.828481E+04  1.082871E+03
        28   3 -1.046947E+06 -1.107093E+05 -1.257866E+05  1.014830E+04  4.311679E+04  4.907561E+02
        28   4 -7.943233E+05  1.613247E+03 -1.736033E+04  8.813450E+03  1.352087E+04  4.021367E+02
        28   5 -7.884038E+05  1.140484E+04 -2.729653E+04 -8.611878E+03  2.829210E+04  1.082855E+03
        28   6 -7.943323E+05 -4.749926E+04 -6.258014E+04  8.921849E+03  4.306834E+04  4.905300E+02
        28   7 -5.505858E+05  6.260739E+04  4.361223E+04  1.060498E+04  1.358404E+04  4.024783E+02
        28   8 -5.402084E+05  7.349166E+04  3.476722E+04 -8.329154E+03  2.829940E+04  1.082839E+03
        28   9 -5.416601E+05  1.570593E+04  6.214812E+02  7.694869E+03  4.301986E+04  4.903041E+02
        28  10 -1.038007E+06 -5.938543E+04 -7.833772E+04  7.022548E+03  2.828176E-10  1.357975E-08
        28  11 -1.036544E+06 -5.068685E+04 -8.936644E+04 -8.894564E+03 -1.367407E-10 -1.171296E-09
        28  12 -1.046949E+06 -1.107098E+05 -1.257901E+05  1.014828E+04 -1.374352E-10 -2.369676E-09
        28  13 -7.943235E+05  1.613198E+03 -1.736068E+04  8.813446E+03  6.838750E-10  1.783345E-09
        28  14 -7.884046E+05  1.140463E+04 -2.729804E+04 -8.611902E+03 -2.128316E-09  2.107112E-10
        28  15 -7.943343E+05 -4.749975E+04 -6.258363E+04  8.921832E+03 -8.205657E-10  2.288615E-10
        28  16 -5.505860E+05  6.260734E+04  4.361188E+04  1.060498E+04 -1.632034E-10 -9.580751E-09
        28  17 -5.402092E+05  7.349145E+04  3.476571E+04 -8.329179E+03 -5.671418E-10  4.117101E-09
        28  18 -5.416621E+05  1.570543E+04  6.179999E+02  7.694852E+03  3.783880E-10  1.935778E-09
        28  19 -1.038007E+06 -5.938538E+04 -7.833738E+04  7.022553E+03 -1.345772E+04 -4.017953E+02
        28  20 -1.036543E+06 -5.068664E+04 -8.936493E+04 -8.894539E+03 -2.828481E+04 -1.082871E+03
        28  21 -1.046947E+06 -1.107093E+05 -1.257866E+05  1.014830E+04 -4.311679E+04 -4.907561E+02
        28  22 -7.943233E+05  1.613247E+03 -1.736033E+04  8.813450E+03 -1.352087E+04 -4.021367E+02
        28  23 -7.884038E+05  1.140484E+04 -2.729653E+04 -8.611878E+03 -2.829210E+04 -1.082855E+03
        28  24 -7.943323E+05 -4.749926E+04 -6.258014E+04  8.921849E+03 -4.306834E+04 -4.905300E+02
        28  25 -5.505858E+05  6.260739E+04  4.361223E+04  1.060498E+04 -1.358404E+04 -4.024783E+02
        28  26 -5.402084E+05  7.349166E+04  3.476722E+04 -8.329154E+03 -2.829940E+04 -1.082839E+03
        28  27 -5.416601E+05  1.570593E+04  6.214812E+02  7.694869E+03 -4.301986E+04 -4.903041E+02
        29   1  7.302207E+04  6.526812E+03  9.563225E+04 -2.341528E+03 -1.097553E+02  6.522208E+04
        29   2 -1.761061E+04 -8.167553E+03  4.077095E+04 -6.312730E+02 -7.207971E+01  4.290883E+04
        29   3 -2.272831E+03  6.537364E+03  2.693164E+04  1.207525E+03 -3.453535E+01  2.059508E+04
        29   4  7.301383E+04  6.535043E+03  9.563225E+04  1.116077E+02 -1.094976E+02  6.522208E+04
        29   5 -1.761268E+04 -8.165487E+03  4.077095E+04 -1.586039E+01 -7.203717E+01  4.290883E+04
        29   6 -2.268730E+03  6.533258E+03  2.693164E+04 -1.477719E+01 -3.457590E+01  2.059508E+04
        29   7  7.300560E+04  6.543286E+03  9.563225E+04  2.564744E+03 -1.092399E+02  6.522208E+04
        29   8 -1.761474E+04 -8.163420E+03  4.077095E+04  5.995523E+02 -7.199464E+01  4.290883E+04
        29   9 -2.264623E+03  6.529156E+03  2.693164E+04 -1.237079E+03 -3.461644E+01  2.059508E+04
        29  10  7.302093E+04  6.522245E+03  9.562426E+04 -2.341522E+03 -5.496515E-10 -1.751642E-11
        29  11 -1.761111E+04 -8.169530E+03  4.076749E+04 -6.312705E+02 -2.175844E-09  4.737102E-11
        29  12 -2.272945E+03  6.536908E+03  2.693084E+04  1.207526E+03  3.239703E-10  1.821160E-11
        29  13  7.301268E+04  6.530475E+03  9.562426E+04  1.116135E+02 -1.605145E-09 -1.275083E-12
        29  14 -1.761317E+04 -8.167464E+03  4.076749E+04 -1.585790E+01 -1.274118E-09  8.471716E-12
        29  15 -2.268843E+03  6.532803E+03  2.693084E+04 -1.477662E+01  3.726269E-10  3.096379E-11
        29  16  7.300446E+04  6.538718E+03  9.562426E+04  2.564749E+03 -1.088272E-09  3.423442E-11
        29  17 -1.761524E+04 -8.165397E+03  4.076749E+04  5.995547E+02 -5.817349E-10 -6.444619E-11
        29  18 -2.264737E+03  6.528700E+03  2.693084E+04 -1.237079E+03  4.036454E-10 -1.827741E-11
        29  19  7.302207E+04  6.526812E+03  9.563225E+04 -2.341528E+03  1.097553E+02 -6.522208E+04
        29  20 -1.761061E+04 -8.167553E+03  4.077095E+04 -6.312730E+02  7.207971E+01 -4.290883E+04
        29  21 -2.272831E+03  6.537364E+03  2.693164E+04  1.207525E+03  3.453535E+01 -2.059508E+04
        29  22  7.301383E+04  6.535043E+03  9.563225E+04  1.116077E+02  1.094976E+02 -6.522208E+04
        29  23 -1.761268E+04 -8.165487E+03  4.077095E+04 -1.586039E+01  7.203717E+01 -4.290883E+04
        29  24 -2.268730E+03  6.533258E+03  2.693164E+04 -1.477719E+01  3.457590E+01 -2.059508E+04
        29  25  7.300560E+04  6.543286E+03  9.563225E+04  2.564744E+03  1.092399E+02 -6.522208E+04
        29  26 -1.761474E+04 -8.163420E+03  4.077095E+04  5.995523E+02  7.199464E+01 -4.290883E+04
        29  27 -2.264623E+03  6.529156E+03  2.693164E+04 -1.237079E+03  3.461644E+01 -2.059508E+04
        30   1  1.143524E+04  1.088002E+03  2.234868E+04 -3.516006E+02 -2.705729E+01  1.611093E+04
        30   2 -2.770614E+03 -1.361611E+03  1.070760E+04 -8.886139E+01 -1.759548E+01  1.047985E+04
        30   3 -3.057930E+02  1.089761E+03  6.900441E+03  1.936371E+02 -8.138810E+00  4.848781E+03
        30   4  1.143400E+04  1.089241E+03  2.234868E+04  1.736728E+01 -2.704771E+01  1.611093E+04
        30   5 -2.770904E+03 -1.361321E+03  1.070760E+04 -2.366476E+00 -1.759402E+01  1.047985E+04
        30   6 -3.051350E+02  1.089103E+03  6.900441E+03 -2.340713E+00 -8.140340E+00  4.848781E+03
        30   7  1.143276E+04  1.090480E+03  2.234868E+04  3.863351E+02 -2.703814E+01  1.611093E+04
        30   8 -2.771195E+03 -1.361030E+03  1.070760E+04  8.412843E+01 -1.759256E+01  1.047985E+04
        30   9 -3.044769E+02  1.088445E+03  6.900441E+03 -1.983185E+02 -8.141871E+00  4.848781E+03
        30  10  1.143517E+04  1.087724E+03  2.234819E+04 -3.516002E+02 -1.080149E-09 -1.316966E-10
        30  11 -2.770643E+03 -1.361729E+03  1.070739E+04 -8.886124E+01 -2.090549E-09  1.551833E-11
        30  12 -3.057993E+02  1.089736E+03  6.900396E+03  1.936371E+02  2.219914E-10  2.453865E-11
        30  13  1.143393E+04  1.088962E+03  2.234819E+04  1.736763E+01  8.778676E-10 -7.053192E-12
        30  14 -2.770934E+03 -1.361439E+03  1.070739E+04 -2.366328E+00 -9.558796E-10  3.449733E-12
        30  15 -3.051413E+02  1.089078E+03  6.900396E+03 -2.340681E+00 -1.091513E-09  8.883282E-12
        30  16  1.143270E+04  1.090201E+03  2.234819E+04  3.863355E+02  1.528537E-10  1.409376E-10
        30  17 -2.771224E+03 -1.361148E+03  1.070739E+04  8.412858E+01  7.592835E-10 -1.504815E-11
        30  18 -3.044832E+02  1.088420E+03  6.900396E+03 -1.983185E+02 -9.043101E-10 -3.248622E-11
        30  19  1.143524E+04  1.088002E+03  2.234868E+04 -3.516006E+02  2.705729E+01 -1.611093E+04
        30  20 -2.770614E+03 -1.361611E+03  1.070760E+04 -8.886139E+01  1.759548E+01 -1.047985E+04
        30  21 -3.057930E+02  1.089761E+03  6.900441E+03  1.936371E+02  8.138810E+00 -4.848781E+03
        30  22  1.143400E+04  1.089241E+03  2.234868E+04  1.736728E+01  2.704771E+01 -1.611093E+04
        30  23 -2.770904E+03 -1.361321E+03  1.070760E+04 -2.366476E+00  1.759402E+01 -1.047985E+04
        30  24 -3.051350E+02  1.089103E+03  6.900441E+03 -2.340713E+00  8.140340E+00 -4.848781E+03
        30  25  1.143276E+04  1.090480E+03  2.234868E+04  3.863351E+02  2.703814E+01 -1.611093E+04
        30  26 -2.771195E+03 -1.361030E+03  1.070760E+04  8.412843E+01  1.759256E+01 -1.047985E+04
        30  27 -3.044769E+02  1.088445E+03  6.900441E+03 -1.983185E+02  8.141871E+00 -4.848781E+03
        31   1  1.774814E+03  2.159191E+02  5.689537E+03 -5.581874E+01 -6.220591E+00  3.705078E+03
        31   2 -4.975982E+02 -2.701629E+02  3.359959E+03 -1.031067E+01 -3.331017E+00  1.984096E+03
        31   3  2.235523E+02  2.162342E+02  2.899197E+03  3.858978E+01 -4.417576E-01  2.631420E+02
        31   4  1.774618E+03  2.161153E+02  5.689537E+03  2.616488E+00 -6.220242E+00  3.705078E+03
        31   5 -4.976315E+02 -2.701295E+02  3.359959E+03 -3.819411E-01 -3.330985E+00  1.984096E+03
        31   6  2.236818E+02  2.161047E+02  2.899197E+03  1.272090E-02 -4.417740E-01  2.631420E+02
        31   7  1.774422E+03  2.163115E+02  5.689537E+03  6.105172E+01 -6.219894E+00  3.705078E+03
        31   8 -4.976649E+02 -2.700962E+02  3.359959E+03  9.546790E+00 -3.330954E+00  1.984096E+03
        31   9  2.238114E+02  2.159751E+02  2.899197E+03 -3.856434E+01 -4.417903E-01  2.631420E+02
        31  10  1.774810E+03  2.159044E+02  5.689511E+03 -5.581872E+01 -7.700890E-10 -4.161618E-11
        31  11 -4.975992E+02 -2.701671E+02  3.359951E+03 -1.031067E+01 -2.113322E-09  8.452145E-12
        31  12  2.235523E+02  2.162341E+02  2.899197E+03  3.858978E+01  1.168417E-09 -4.037712E-12
        31  13  1.774614E+03  2.161006E+02  5.689511E+03  2.616506E+00 -1.380537E-09 -9.376554E-12
        31  14 -4.976326E+02 -2.701338E+02  3.359951E+03 -3.819358E-01 -3.390465E-09 -6.357714E-12
        31  15  2.236818E+02  2.161046E+02  2.899197E+03  1.272100E-02  1.229155E-09 -9.512985E-12
        31  16  1.774418E+03  2.162968E+02  5.689511E+03  6.105174E+01 -2.116477E-09  5.172480E-11
        31  17 -4.976659E+02 -2.701004E+02  3.359951E+03  9.546795E+00 -2.440257E-09 -3.290086E-11
        31  18  2.238113E+02  2.159751E+02  2.899197E+03 -3.856434E+01 -1.249765E-10 -2.162186E-11
        31  19  1.774814E+03  2.159191E+02  5.689537E+03 -5.581874E+01  6.220591E+00 -3.705078E+03
        31  20 -4.975982E+02 -2.701629E+02  3.359959E+03 -1.031067E+01  3.331017E+00 -1.984096E+03
        31  21  2.235523E+02  2.162342E+02  2.899197E+03  3.858978E+01  4.417576E-01 -2.631420E+02
        31  22  1.774618E+03  2.161153E+02  5.689537E+03  2.616488E+00  6.220242E+00 -3.705078E+03
        31  23 -4.976315E+02 -2.701295E+02  3.359959E+03 -3.819411E-01  3.330985E+00 -1.984096E+03
        31  24  2.236818E+02  2.161047E+02  2.899197E+03  1.272091E-02  4.417740E-01 -2.631420E+02
        31  25  1.774422E+03  2.163115E+02  5.689537E+03  6.105172E+01  6.219894E+00 -3.705078E+03
        31  26 -4.976649E+02 -2.700962E+02  3.359959E+03  9.546790E+00  3.330954E+00 -1.984096E+03
        31  27  2.238114E+02  2.159751E+02  2.899197E+03 -3.856434E+01  4.417904E-01 -2.631420E+02
        32   1 -2.513902E+06 -7.992297E+05 -5.152703E+05 -8.786135E+05 -2.572854E+05 -9.214065E+04
        32   2 -2.440424E+06 -4.147416E+05 -2.743008E+05 -9.207246E+05 -1.667847E+05 -4.860176E+04
        32   3 -2.502732E+06 -4.170987E+05 -2.048096E+05 -8.848247E+05 -7.270841E+04 -1.454218E+04
        32   4 -2.130073E+06 -5.799833E+05 -3.955581E+05 -6.982738E+05 -2.521462E+05 -9.024294E+04
        32   5 -2.042153E+06 -2.440134E+05 -1.638099E+05 -7.910543E+05 -1.654212E+05 -4.809598E+04
        32   6 -2.089178E+06 -2.940048E+05 -1.004572E+05 -8.058530E+05 -7.511966E+04 -1.544477E+04
        32   7 -1.746088E+06 -3.606613E+05 -2.758601E+05 -5.178150E+05 -2.470035E+05 -8.834234E+04
        32   8 -1.643727E+06 -7.326249E+04 -5.333393E+04 -6.613041E+05 -1.640568E+05 -4.758971E+04
        32   9 -1.675456E+06 -1.709137E+05  3.882691E+03 -7.268405E+05 -7.753268E+04 -1.634771E+04
        32  10 -2.513975E+06 -7.992567E+05 -5.154113E+05 -8.786326E+05 -2.010622E-10  4.941009E-11
        32  11 -2.440455E+06 -4.147517E+05 -2.743577E+05 -9.207312E+05 -9.494983E-10  1.826370E-10
        32  12 -2.502738E+06 -4.171003E+05 -2.048200E+05 -8.848256E+05 -7.161682E-10  1.701317E-11
        32  13 -2.130143E+06 -5.800092E+05 -3.956934E+05 -6.982922E+05  2.567752E-09  1.324468E-10
        32  14 -2.042183E+06 -2.440233E+05 -1.638659E+05 -7.910607E+05 -4.185584E-09  2.243458E-10
        32  15 -2.089184E+06 -2.940066E+05 -1.004683E+05 -8.058539E+05 -2.445791E-09  9.785687E-11
        32  16 -1.746156E+06 -3.606861E+05 -2.759898E+05 -5.178326E+05 -3.688294E-13  2.221583E-10
        32  17 -1.643757E+06 -7.327218E+04 -5.338894E+04 -6.613104E+05  1.290286E-09  2.854974E-10
        32  18 -1.675462E+06 -1.709156E+05  3.870856E+03 -7.268415E+05 -4.760496E-10 -1.100585E-10
        32  19 -2.513902E+06 -7.992297E+05 -5.152703E+05 -8.786135E+05  2.572854E+05  9.214065E+04
        32  20 -2.440424E+06 -4.147416E+05 -2.743008E+05 -9.207246E+05  1.667847E+05  4.860176E+04
        32  21 -2.502732E+06 -4.170987E+05 -2.048096E+05 -8.848247E+05  7.270841E+04  1.454218E+04
        32  22 -2.130073E+06 -5.799833E+05 -3.955581E+05 -6.982738E+05  2.521462E+05  9.024294E+04
        32  23 -2.042153E+06 -2.440134E+05 -1.638099E+05 -7.910543E+05  1.654212E+05  4.809598E+04
        32  24 -2.089178E+06 -2.940048E+05 -1.004572E+05 -8.058530E+05  7.511966E+04  1.544477E+04
        32  25 -1.746088E+06 -3.606613E+05 -2.758601E+05 -5.178150E+05  2.470035E+05  8.834234E+04
        32  26 -1.643727E+06 -7.326249E+04 -5.333393E+04 -6.613041E+05  1.640568E+05  4.758971E+04
        32  27 -1.675456E+06 -1.709137E+05  3.882691E+03 -7.268405E+05  7.753268E+04  1.634771E+04
        33   1 -2.411942E+06 -4.728453E+05 -1.739516E+05 -8.825296E+05 -5.991119E+04 -1.201773E+04
        33   2 -2.385150E+06 -4.079803E+05 -1.226005E+05 -8.703089E+05 -3.919678E+04 -4.538678E+03
        33   3 -2.358133E+06 -4.075585E+05 -9.883491E+04 -8.692905E+05 -1.811222E+04  1.956477E+03
        33   4 -2.075502E+06 -3.376883E+05 -8.206462E+04 -7.823606E+05 -5.984268E+04 -1.199335E+04
        33   5 -2.073204E+06 -2.883226E+05 -3.865436E+04 -7.832049E+05 -3.951436E+04 -4.658453E+03
        33   6 -2.070595E+06 -3.033086E+05 -2.251102E+04 -7.952535E+05 -1.881683E+04  1.691950E+03
        33   7 -1.738953E+06 -2.025207E+05  9.811866E+03 -6.821413E+05 -5.977411E+04 -1.196894E+04
        33   8 -1.761164E+06 -1.686582E+05  4.528311E+04 -6.960610E+05 -3.983211E+04 -4.778294E+03
        33   9 -1.782976E+06 -1.990551E+05  5.380592E+04 -7.211860E+05 -1.952181E+04  1.427301E+03
        33  10 -2.411946E+06 -4.728464E+05 -1.739587E+05 -8.825302E+05 -8.612037E-10  8.607025E-11
        33  11 -2.385152E+06 -4.079808E+05 -1.226034E+05 -8.703090E+05  6.028478E-10  4.537585E-10
        33  12 -2.358133E+06 -4.075586E+05 -9.883553E+04 -8.692905E+05  1.176276E-09  8.160599E-10
        33  13 -2.075506E+06 -3.376894E+05 -8.207164E+04 -7.823612E+05 -2.120199E-09 -1.979181E-11
        33  14 -2.073206E+06 -2.883231E+05 -3.865735E+04 -7.832051E+05  1.780086E-09  3.302870E-10
        33  15 -2.070595E+06 -3.033087E+05 -2.251169E+04 -7.952535E+05  1.938823E-09  9.423284E-10
        33  16 -1.738957E+06 -2.025218E+05  9.804860E+03 -6.821419E+05  1.551419E-09 -1.265951E-10
        33  17 -1.761166E+06 -1.686587E+05  4.528007E+04 -6.960612E+05  2.833035E-09  1.380073E-10
        33  18 -1.782977E+06 -1.990552E+05  5.380520E+04 -7.211860E+05  7.545131E-10  1.352220E-09
        33  19 -2.411942E+06 -4.728453E+05 -1.739516E+05 -8.825296E+05  5.991119E+04  1.201773E+04
        33  20 -2.385150E+06 -4.079803E+05 -1.226005E+05 -8.703089E+05  3.919678E+04  4.538678E+03
        33  21 -2.358133E+06 -4.075585E+05 -9.883491E+04 -8.692905E+05  1.811222E+04 -1.956477E+03
        33  22 -2.075502E+06 -3.376883E+05 -8.206462E+04 -7.823606E+05  5.984268E+04  1.199335E+04
        33  23 -2.073204E+06 -2.883226E+05 -3.865436E+04 -7.832049E+05  3.951436E+04  4.658453E+03
        33  24 -2.070595E+06 -3.033086E+05 -2.251102E+04 -7.952535E+05  1.881683E+04 -1.691950E+03
        33  25 -1.738953E+06 -2.025207E+05  9.811866E+03 -6.821413E+05  5.977411E+04  1.196894E+04
        33  26 -1.761164E+06 -1.686582E+05  4.528311E+04 -6.960610E+05  3.983211E+04  4.778294E+03
        33  27 -1.782976E+06 -1.990551E+05  5.380592E+04 -7.211860E+05  1.952181E+04 -1.427301E+03
        34   1 -2.297300E+06 -3.960007E+05 -7.909094E+04 -8.560739E+05 -1.475867E+04  2.216242E+03
        34   2 -2.274675E+06 -3.674968E+05 -6.177878E+04 -8.354270E+05 -9.643505E+03  2.738237E+03
        34   3 -2.232628E+06 -3.663862E+05 -4.939002E+04 -8.387078E+05 -4.475244E+03  3.117121E+03
        34   4 -2.068295E+06 -3.089193E+05 -1.769112E+04 -7.928889E+05 -1.522675E+04  2.040458E+03
        34   5 -2.077717E+06 -2.931758E+05 -9.008575E+03 -7.816928E+05 -1.016758E+04  2.541625E+03
        34   6 -2.067707E+06 -3.048126E+05 -5.203280E+03 -7.944242E+05 -5.055587E+03  2.899594E+03
        34   7 -1.839239E+06 -2.218346E+05  4.370406E+04 -7.296828E+05 -1.569503E+04  1.864602E+03
        34   8 -1.880722E+06 -2.188526E+05  4.375815E+04 -7.279433E+05 -1.069184E+04  2.344945E+03
        34   9 -1.902760E+06 -2.432377E+05  3.898096E+04 -7.501302E+05 -5.636099E+03  2.682006E+03
        34  10 -2.297301E+06 -3.960007E+05 -7.909136E+04 -8.560739E+05  1.696053E-09  1.144410E-09
        34  11 -2.274675E+06 -3.674968E+05 -6.177897E+04 -8.354270E+05  1.376952E-09  2.108490E-12
        34  12 -2.232628E+06 -3.663862E+05 -4.939008E+04 -8.387078E+05  1.690250E-09  7.029489E-12
        34  13 -2.068295E+06 -3.089194E+05 -1.769157E+04 -7.928889E+05  1.235858E-09  9.067705E-10
        34  14 -2.077717E+06 -2.931758E+05 -9.008781E+03 -7.816928E+05  4.590137E-10  9.403248E-11
        34  15 -2.067707E+06 -3.048126E+05 -5.203344E+03 -7.944242E+05 -4.362436E-11 -1.880305E-10
        34  16 -1.839239E+06 -2.218347E+05  4.370359E+04 -7.296827E+05 -6.070595E-11  7.405777E-10
        34  17 -1.880722E+06 -2.188527E+05  4.375792E+04 -7.279433E+05  5.427956E-10 -6.992359E-11
        34  18 -1.902760E+06 -2.432377E+05  3.898089E+04 -7.501301E+05 -2.724371E-10 -6.024468E-10
        34  19 -2.297300E+06 -3.960007E+05 -7.909094E+04 -8.560739E+05  1.475867E+04 -2.216242E+03
        34  20 -2.274675E+06 -3.674968E+05 -6.177878E+04 -8.354270E+05  9.643505E+03 -2.738237E+03
        34  21 -2.232628E+06 -3.663862E+05 -4.939002E+04 -8.387078E+05  4.475244E+03 -3.117121E+03
        34  22 -2.068295E+06 -3.089193E+05 -1.769112E+04 -7.928889E+05  1.522675E+04 -2.040458E+03
        34  23 -2.077717E+06 -2.931758E+05 -9.008575E+03 -7.816928E+05  1.016758E+04 -2.541625E+03
        34  24 -2.067707E+06 -3.048126E+05 -5.203280E+03 -7.944242E+05  5.055587E+03 -2.899594E+03
        34  25 -1.839239E+06 -2.218346E+05  4.370406E+04 -7.296828E+05  1.569503E+04 -1.864602E+03
        34  26 -1.880722E+06 -2.188526E+05  4.375815E+04 -7.279433E+05  1.069184E+04 -2.344945E+03
        34  27 -1.902760E+06 -2.432377E+05  3.898096E+04 -7.501302E+05  5.636099E+03 -2.682006E+03
        35   1 -2.171783E+06 -3.450973E+05 -3.197669E+04 -8.229033E+05 -3.427256E+03  2.568734E+03
        35   2 -2.148770E+06 -3.199089E+05 -2.120849E+04 -8.002953E+05 -1.678629E+03  1.632124E+03
        35   3 -2.102946E+06 -3.186674E+05 -1.154388E+04 -8.042053E+05  8.036893E+01  6.672669E+02
        35   4 -2.067181E+06 -3.056790E+05 -4.084053E+03 -7.943872E+05 -3.984753E+03  2.359850E+03
        35   5 -2.078555E+06 -2.934847E+05 -2.410509E+03 -7.812107E+05 -2.247326E+03  1.419101E+03
        35   6 -2.067116E+06 -3.052351E+05 -1.831636E+03 -7.945526E+05 -4.996112E+02  4.500849E+02
        35   7 -1.962568E+06 -2.662600E+05  2.380774E+04 -7.658666E+05 -4.542356E+03  2.150926E+03
        35   8 -2.008334E+06 -2.670603E+05  1.638701E+04 -7.621242E+05 -2.816092E+03  1.206052E+03
        35   9 -2.031286E+06 -2.918028E+05  7.880430E+03 -7.848993E+05 -1.079624E+03  2.328905E+02
        35  10 -2.171783E+06 -3.450973E+05 -3.197673E+04 -8.229033E+05 -5.243177E-10  3.493449E-10
        35  11 -2.148770E+06 -3.199089E+05 -2.120850E+04 -8.002953E+05 -6.217090E-10  1.157096E-09
        35  12 -2.102946E+06 -3.186674E+05 -1.154388E+04 -8.042053E+05  1.722979E-09  1.003747E-09
        35  13 -2.067181E+06 -3.056791E+05 -4.084093E+03 -7.943872E+05 -6.311269E-11  1.699479E-10
        35  14 -2.078555E+06 -2.934847E+05 -2.410522E+03 -7.812107E+05  8.786808E-10  1.205978E-09
        35  15 -2.067116E+06 -3.052351E+05 -1.831637E+03 -7.945526E+05  3.455666E-09  1.192125E-09
        35  16 -1.962568E+06 -2.662600E+05  2.380769E+04 -7.658666E+05 -3.199297E-10  4.087554E-10
        35  17 -2.008334E+06 -2.670603E+05  1.638699E+04 -7.621242E+05 -1.135127E-09  6.353114E-10
        35  18 -2.031286E+06 -2.918028E+05  7.880427E+03 -7.848993E+05  2.270731E-09  1.095531E-09
        35  19 -2.171783E+06 -3.450973E+05 -3.197669E+04 -8.229033E+05  3.427256E+03 -2.568734E+03
        35  20 -2.148770E+06 -3.199089E+05 -2.120849E+04 -8.002953E+05  1.678629E+03 -1.632124E+03
        35  21 -2.102946E+06 -3.186674E+05 -1.154388E+04 -8.042053E+05 -8.036893E+01 -6.672669E+02
        35  22 -2.067181E+06 -3.056790E+05 -4.084053E+03 -7.943872E+05  3.984753E+03 -2.359850E+03
        35  23 -2.078555E+06 -2.934847E+05 -2.410509E+03 -7.812107E+05  2.247326E+03 -1.419101E+03
        35  24 -2.067116E+06 -3.052351E+05 -1.831636E+03 -7.945526E+05  4.996112E+02 -4.500849E+02
        35  25 -1.962568E+06 -2.662600E+05  2.380774E+04 -7.658666E+05  4.542356E+03 -2.150926E+03
        35  26 -2.008334E+06 -2.670603E+05  1.638701E+04 -7.621242E+05  2.816092E+03 -1.206052E+03
        35  27 -2.031286E+06 -2.918028E+05  7.880430E+03 -7.848993E+05  1.079624E+03 -2.328905E+02
        36   1 -2.041153E+06 -2.955329E+05  5.289791E+03 -7.875768E+05  6.926940E+02 -6.056725E+01
        36   2 -2.018161E+06 -2.707477E+05  1.407014E+04 -7.647683E+05  2.276098E+03 -1.093102E+03
        36   3 -1.972242E+06 -2.698460E+05  2.190849E+04 -7.685612E+05  3.849967E+03 -2.099231E+03
        36   4 -2.067097E+06 -3.052589E+05 -1.778273E+03 -7.945573E+05  1.123692E+02 -2.778739E+02
        36   5 -2.078583E+06 -2.934862E+05 -2.104809E+03 -7.811928E+05  1.706291E+03 -1.306529E+03
        36   6 -2.067145E+06 -3.055995E+05 -3.381606E+03 -7.944303E+05  3.290613E+03 -2.308796E+03
        36   7 -2.093040E+06 -3.149849E+05 -8.846417E+03 -8.015376E+05 -4.679305E+02 -4.951713E+02
        36   8 -2.139002E+06 -3.162247E+05 -1.828017E+04 -7.976159E+05  1.136541E+03 -1.519934E+03
        36   9 -2.162041E+06 -3.413527E+05 -2.867269E+04 -8.202959E+05  2.731349E+03 -2.518328E+03
        36  10 -2.041153E+06 -2.955329E+05  5.289790E+03 -7.875768E+05  2.380796E-09  1.271655E-09
        36  11 -2.018161E+06 -2.707477E+05  1.407013E+04 -7.647683E+05  1.548669E-09  7.163156E-10
        36  12 -1.972242E+06 -2.698460E+05  2.190846E+04 -7.685612E+05  9.996714E-10 -1.180292E-10
        36  13 -2.067097E+06 -3.052589E+05 -1.778273E+03 -7.945573E+05  1.786688E-09  7.473763E-10
        36  14 -2.078583E+06 -2.934862E+05 -2.104818E+03 -7.811928E+05  2.545650E-09  3.210873E-10
        36  15 -2.067145E+06 -3.055995E+05 -3.381636E+03 -7.944303E+05  1.462927E-09  3.088844E-10
        36  16 -2.093040E+06 -3.149849E+05 -8.846418E+03 -8.015376E+05  2.874802E-09  1.174476E-10
        36  17 -2.139002E+06 -3.162247E+05 -1.828018E+04 -7.976159E+05  4.763311E-10  1.271656E-10
        36  18 -2.162041E+06 -3.413527E+05 -2.867272E+04 -8.202959E+05  5.479692E-10  4.941937E-10
        36  19 -2.041153E+06 -2.955329E+05  5.289791E+03 -7.875768E+05 -6.926940E+02  6.056725E+01
        36  20 -2.018161E+06 -2.707477E+05  1.407014E+04 -7.647683E+05 -2.276098E+03  1.093102E+03
        36  21 -1.972242E+06 -2.698460E+05  2.190849E+04 -7.685612E+05 -3.849967E+03  2.099231E+03
        36  22 -2.067097E+06 -3.052589E+05 -1.778273E+03 -7.945573E+05 -1.123692E+02  2.778739E+02
        36  23 -2.078583E+06 -2.934862E+05 -2.104809E+03 -7.811928E+05 -1.706291E+03  1.306529E+03
        36  24 -2.067145E+06 -3.055995E+05 -3.381606E+03 -7.944303E+05 -3.290613E+03  2.308796E+03
        36  25 -2.093040E+06 -3.149849E+05 -8.846417E+03 -8.015376E+05  4.679305E+02  4.951713E+02
        36  26 -2.139002E+06 -3.162247E+05 -1.828017E+04 -7.976159E+05 -1.136541E+03  1.519934E+03
        36  27 -2.162041E+06 -3.413527E+05 -2.867269E+04 -8.202959E+05 -2.731349E+03  2.518328E+03
        37   1 -1.912303E+06 -2.468225E+05  3.736024E+04 -7.526441E+05  4.809380E+03 -2.683214E+03
        37   2 -1.890217E+06 -2.225156E+05  4.296150E+04 -7.304608E+05  8.995134E+03 -2.679407E+03
        37   3 -1.848067E+06 -2.246721E+05  4.465898E+04 -7.326113E+05  1.313013E+04 -2.537699E+03
        37   4 -2.067605E+06 -3.048673E+05 -4.261760E+03 -7.944184E+05  4.227586E+03 -2.901263E+03
        37   5 -2.077867E+06 -2.932859E+05 -7.297115E+03 -7.816322E+05  8.467785E+03 -2.877213E+03
        37   6 -2.068079E+06 -3.081799E+05 -1.428029E+04 -7.931801E+05  1.265702E+04 -2.715322E+03
        37   7 -2.222882E+06 -3.629103E+05 -4.588559E+04 -8.361831E+05  3.645957E+03 -3.119252E+03
        37   8 -2.265483E+06 -3.640539E+05 -5.755862E+04 -8.327894E+05  7.940614E+03 -3.074952E+03
        37   9 -2.288044E+06 -3.916846E+05 -7.322377E+04 -8.537295E+05  1.218409E+04 -2.892874E+03
        37  10 -1.912303E+06 -2.468225E+05  3.736019E+04 -7.526440E+05  1.510742E-09  5.284981E-10
        37  11 -1.890217E+06 -2.225156E+05  4.296133E+04 -7.304608E+05  2.405768E-09  7.055198E-10
        37  12 -1.848068E+06 -2.246722E+05  4.465864E+04 -7.326112E+05  3.665168E-10  4.887818E-11
        37  13 -2.067605E+06 -3.048673E+05 -4.261809E+03 -7.944184E+05  2.065729E-09  3.671804E-10
        37  14 -2.077868E+06 -2.932859E+05 -7.297265E+03 -7.816322E+05  2.280133E-09  2.786327E-10
        37  15 -2.068079E+06 -3.081800E+05 -1.428061E+04 -7.931801E+05  4.879155E-10  4.702583E-10
        37  16 -2.222882E+06 -3.629103E+05 -4.588564E+04 -8.361831E+05  5.485504E-10  7.669462E-10
        37  17 -2.265483E+06 -3.640539E+05 -5.755876E+04 -8.327894E+05  1.149083E-09  7.479177E-10
        37  18 -2.288044E+06 -3.916846E+05 -7.322407E+04 -8.537295E+05  9.317221E-10  8.597459E-10
        37  19 -1.912303E+06 -2.468225E+05  3.736024E+04 -7.526441E+05 -4.809380E+03  2.683214E+03
        37  20 -1.890217E+06 -2.225156E+05  4.296150E+04 -7.304608E+05 -8.995134E+03  2.679407E+03
        37  21 -1.848067E+06 -2.246721E+05  4.465898E+04 -7.326113E+05 -1.313013E+04  2.537699E+03
        37  22 -2.067605E+06 -3.048673E+05 -4.261760E+03 -7.944184E+05 -4.227586E+03  2.901263E+03
        37  23 -2.077867E+06 -2.932859E+05 -7.297115E+03 -7.816322E+05 -8.467785E+03  2.877213E+03
        37  24 -2.068079E+06 -3.081799E+05 -1.428029E+04 -7.931801E+05 -1.265702E+04  2.715322E+03
        37  25 -2.222882E+06 -3.629103E+05 -4.588559E+04 -8.361831E+05 -3.645957E+03  3.119252E+03
        37  26 -2.265483E+06 -3.640539E+05 -5.755862E+04 -8.327894E+05 -7.940614E+03  3.074952E+03
        37  27 -2.288044E+06 -3.916846E+05 -7.322377E+04 -8.537295E+05 -1.218409E+04  2.892874E+03
        38   1 -1.791636E+06 -2.020061E+05  5.583937E+04 -7.226214E+05  1.632582E+04 -2.343473E+03
        38   2 -1.770131E+06 -1.732710E+05  5.053804E+04 -6.984535E+05  3.272522E+04  2.377824E+03
        38   3 -1.744273E+06 -2.003150E+05  2.357284E+04 -6.878973E+05  4.876265E+04  8.068499E+03
        38   4 -2.070016E+06 -3.035664E+05 -1.815854E+04 -7.949823E+05  1.561961E+04 -2.608579E+03
        38   5 -2.074129E+06 -2.894909E+05 -3.116594E+04 -7.829804E+05  3.240206E+04  2.256043E+03
        38   6 -2.073972E+06 -3.312835E+05 -6.615026E+04 -7.845901E+05  4.882171E+04  8.089677E+03
        38   7 -2.348323E+06 -4.051235E+05 -9.216335E+04 -8.673147E+05  1.491375E+04 -2.873564E+03
        38   8 -2.378038E+06 -4.057047E+05 -1.128782E+05 -8.674696E+05  3.207907E+04  2.134328E+03
        38   9 -2.403567E+06 -4.622423E+05 -1.558832E+05 -8.812354E+05  4.888073E+04  8.110838E+03
        38  10 -1.791636E+06 -2.020062E+05  5.583886E+04 -7.226213E+05 -8.593923E-10 -2.327253E-11
        38  11 -1.770132E+06 -1.732713E+05  5.053602E+04 -6.984536E+05 -7.559245E-10 -5.203596E-10
        38  12 -1.744275E+06 -2.003157E+05  2.356823E+04 -6.878976E+05  5.839221E-10  4.690886E-11
        38  13 -2.070017E+06 -3.035665E+05 -1.815901E+04 -7.949823E+05 -6.375413E-11 -6.230359E-11
        38  14 -2.074130E+06 -2.894912E+05 -3.116793E+04 -7.829804E+05 -1.295531E-09 -7.378417E-10
        38  15 -2.073975E+06 -3.312842E+05 -6.615488E+04 -7.845905E+05  1.183558E-09 -1.235680E-10
        38  16 -2.348324E+06 -4.051236E+05 -9.216378E+04 -8.673147E+05 -4.823760E-10 -3.466282E-10
        38  17 -2.378039E+06 -4.057050E+05 -1.128802E+05 -8.674697E+05 -8.833577E-10 -8.535359E-10
        38  18 -2.403569E+06 -4.622430E+05 -1.558879E+05 -8.812357E+05  2.084865E-09  1.767115E-10
        38  19 -1.791636E+06 -2.020061E+05  5.583937E+04 -7.226214E+05 -1.632582E+04  2.343473E+03
        38  20 -1.770131E+06 -1.732710E+05  5.053804E+04 -6.984535E+05 -3.272522E+04 -2.377824E+03
        38  21 -1.744273E+06 -2.003150E+05  2.357284E+04 -6.878973E+05 -4.876265E+04 -8.068499E+03
        38  22 -2.070016E+06 -3.035664E+05 -1.815854E+04 -7.949823E+05 -1.561961E+04  2.608579E+03
        38  23 -2.074129E+06 -2.894909E+05 -3.116594E+04 -7.829804E+05 -3.240206E+04 -2.256043E+03
        38  24 -2.073972E+06 -3.312835E+05 -6.615026E+04 -7.845901E+05 -4.882171E+04 -8.089677E+03
        38  25 -2.348323E+06 -4.051235E+05 -9.216335E+04 -8.673147E+05 -1.491375E+04  2.873564E+03
        38  26 -2.378038E+06 -4.057047E+05 -1.128782E+05 -8.674696E+05 -3.207907E+04 -2.134328E+03
        38  27 -2.403567E+06 -4.622423E+05 -1.558832E+05 -8.812354E+05 -4.888073E+04 -8.110838E+03
        39   1 -1.683406E+06 -1.709945E+05  2.139528E+04 -7.210805E+05  6.366822E+04  1.138414E+04
        39   2 -1.654520E+06 -8.869555E+04 -2.341631E+04 -6.649320E+05  1.328154E+05  3.605329E+04
        39   3 -1.730129E+06 -3.200130E+05 -2.009185E+05 -5.498364E+05  1.984420E+05  7.008734E+04
        39   4 -2.085129E+06 -2.959373E+05 -8.097389E+04 -8.033653E+05  6.128050E+04  1.048920E+04
        39   5 -2.048947E+06 -2.539524E+05 -1.320489E+05 -7.895029E+05  1.341595E+05  3.655417E+04
        39   6 -2.118081E+06 -5.264520E+05 -3.188467E+05 -7.166741E+05  2.035171E+05  7.197501E+04
        39   7 -2.486695E+06 -4.208815E+05 -1.833554E+05 -8.856074E+05  5.889448E+04  9.594642E+03
        39   8 -2.443221E+06 -4.191889E+05 -2.406954E+05 -9.139981E+05  1.355027E+05  3.705459E+04
        39   9 -2.505876E+06 -7.328303E+05 -4.367887E+05 -8.834015E+05  2.085887E+05  7.386010E+04
        39  10 -1.683410E+06 -1.709957E+05  2.138740E+04 -7.210811E+05  1.004039E-09  8.689637E-10
        39  11 -1.654539E+06 -8.870171E+04 -2.345202E+04 -6.649359E+05  1.384851E-10  6.051667E-10
        39  12 -1.730173E+06 -3.200289E+05 -2.010020E+05 -5.498477E+05  2.949040E-10  1.530779E-10
        39  13 -2.085133E+06 -2.959385E+05 -8.098118E+04 -8.033658E+05  1.685035E-10  8.505416E-10
        39  14 -2.048966E+06 -2.539587E+05 -1.320853E+05 -7.895069E+05 -2.563957E-09  1.557405E-09
        39  15 -2.118127E+06 -5.264687E+05 -3.189346E+05 -7.166859E+05 -1.957834E-10  1.746828E-10
        39  16 -2.486698E+06 -4.208825E+05 -1.833621E+05 -8.856079E+05  2.159499E-09  6.883314E-10
        39  17 -2.443241E+06 -4.191953E+05 -2.407326E+05 -9.140022E+05 -1.350524E-09  1.193271E-09
        39  18 -2.505924E+06 -7.328480E+05 -4.368811E+05 -8.834140E+05 -5.278683E-10 -9.022862E-11
        39  19 -1.683406E+06 -1.709945E+05  2.139528E+04 -7.210805E+05 -6.366822E+04 -1.138414E+04
        39  20 -1.654520E+06 -8.869555E+04 -2.341631E+04 -6.649320E+05 -1.328154E+05 -3.605329E+04
        39  21 -1.730129E+06 -3.200130E+05 -2.009185E+05 -5.498364E+05 -1.984420E+05 -7.008734E+04
        39  22 -2.085129E+06 -2.959373E+05 -8.097389E+04 -8.033653E+05 -6.128050E+04 -1.048920E+04
        39  23 -2.048947E+06 -2.539524E+05 -1.320489E+05 -7.895029E+05 -1.341595E+05 -3.655417E+04
        39  24 -2.118081E+06 -5.264520E+05 -3.188467E+05 -7.166741E+05 -2.035171E+05 -7.197501E+04
        39  25 -2.486695E+06 -4.208815E+05 -1.833554E+05 -8.856074E+05 -5.889448E+04 -9.594642E+03
        39  26 -2.443221E+06 -4.191889E+05 -2.406954E+05 -9.139981E+05 -1.355027E+05 -3.705459E+04
        39  27 -2.505876E+06 -7.328303E+05 -4.367887E+05 -8.834015E+05 -2.085887E+05 -7.386010E+04
        40   1  9.929634E+04  3.623702E+04  1.115550E+05 -6.705565E+04  2.009176E+02  6.831007E+04
        40   2  1.950626E+04  1.146306E+04  5.686933E+04 -3.449742E+04  7.040353E+02  3.975210E+04
        40   3  1.457125E+03  5.828082E+03  3.621047E+04 -5.859688E+03  1.982821E+02  1.119269E+04
        40   4  9.005795E+04 -5.156728E+01  1.027395E+05 -1.342408E+04  2.091025E+02  6.693373E+04
        40   5  1.431530E+04 -9.495104E+03  5.233451E+04 -1.153897E+04  7.053825E+02  3.982596E+04
        40   6  5.983317E+01 -5.199230E+01  3.495020E+04 -1.357319E+04  1.955972E+02  1.271605E+04
        40   7  8.083027E+04 -3.633278E+04  9.392544E+04  4.020434E+04  2.170500E+02  6.555747E+04
        40   8  9.126282E+03 -3.045172E+04  4.779995E+04  1.141869E+04  7.067353E+02  3.989982E+04
        40   9 -1.337236E+03 -5.931902E+03  3.368997E+04 -2.128663E+04  1.928744E+02  1.423940E+04
        40  10  9.929509E+04  3.623201E+04  1.115462E+05 -6.705567E+04  5.272755E-10  1.442249E-09
        40  11  1.950584E+04  1.146136E+04  5.686636E+04 -3.449744E+04  9.684614E-10 -1.529596E-09
        40  12  1.457092E+03  5.827948E+03  3.621024E+04 -5.859690E+03 -4.615077E-11 -1.543031E-09
        40  13  9.005675E+04 -5.637780E+01  1.027311E+05 -1.342409E+04  1.244674E-09  3.987592E-10
        40  14  1.431487E+04 -9.496807E+03  5.233153E+04 -1.153900E+04  5.989620E-10  2.713745E-12
        40  15  5.978972E+01 -5.216594E+01  3.494990E+04 -1.357320E+04  1.155718E-09  3.514177E-10
        40  16  8.082912E+04 -3.633739E+04  9.391736E+04  4.020433E+04  5.651532E-10 -1.662815E-09
        40  17  9.125854E+03 -3.045343E+04  4.779696E+04  1.141866E+04  1.911524E-09  1.266578E-09
        40  18 -1.337291E+03 -5.932119E+03  3.368959E+04 -2.128663E+04  1.377319E-09  1.465701E-09
        40  19  9.929634E+04  3.623702E+04  1.115550E+05 -6.705565E+04 -2.009176E+02 -6.831007E+04
        40  20  1.950626E+04  1.146306E+04  5.686933E+04 -3.449742E+04 -7.040353E+02 -3.975210E+04
        40  21  1.457125E+03  5.828082E+03  3.621047E+04 -5.859688E+03 -1.982821E+02 -1.119269E+04
        40  22  9.005795E+04 -5.156728E+01  1.027395E+05 -1.342408E+04 -2.091025E+02 -6.693373E+04
        40  23  1.431530E+04 -9.495104E+03  5.233451E+04 -1.153897E+04 -7.053825E+02 -3.982596E+04
        40  24  5.983317E+01 -5.199230E+01  3.495020E+04 -1.357319E+04 -1.955972E+02 -1.271605E+04
        40  25  8.083027E+04 -3.633278E+04  9.392544E+04  4.020434E+04 -2.170500E+02 -6.555747E+04
        40  26  9.126282E+03 -3.045172E+04  4.779995E+04  1.141869E+04 -7.067353E+02 -3.989982E+04
        40  27 -1.337236E+03 -5.931902E+03  3.368997E+04 -2.128663E+04 -1.928744E+02 -1.423940E+04
        41   1  2.221341E+03 -7.954588E+03  3.080583E+04 -1.597273E+04 -4.233392E+02  6.141160E+03
        41   2 -3.863456E+03 -2.515213E+04  2.707962E+04 -1.138204E+04 -1.313481E+03 -9.120258E+03
        41   3 -2.559823E+03 -3.853125E+04  3.513345E+04 -1.082660E+04 -2.134607E+03 -2.438127E+04
        41   4  3.273309E+03 -3.396883E+03  3.155605E+04 -1.357380E+04 -4.256021E+02  7.509517E+03
        41   5  8.475723E+02 -5.314534E+03  3.079349E+04 -1.155408E+04 -1.315588E+03 -7.851801E+03
        41   6  5.827441E+03 -3.396832E+03  4.188012E+04 -1.356952E+04 -2.136434E+03 -2.321308E+04
        41   7  4.325299E+03  1.160858E+03  3.230629E+04 -1.117485E+04 -4.278544E+02  8.877884E+03
        41   8  5.558579E+03  1.452345E+04  3.450735E+04 -1.172612E+04 -1.317696E+03 -6.583304E+03
        41   9  1.421466E+04  3.173879E+04  4.862673E+04 -1.631261E+04 -2.138271E+03 -2.204481E+04
        41  10  2.221331E+03 -7.954628E+03  3.080576E+04 -1.597272E+04 -6.655080E-11  8.194011E-10
        41  11 -3.863480E+03 -2.515222E+04  2.707946E+04 -1.138205E+04 -4.392646E-10 -1.244103E-09
        41  12 -2.559987E+03 -3.853189E+04  3.513233E+04 -1.082664E+04 -2.569107E-10 -2.817069E-10
        41  13  3.273294E+03 -3.396944E+03  3.155595E+04 -1.357380E+04  3.793006E-10  4.661589E-10
        41  14  8.475539E+02 -5.314601E+03  3.079337E+04 -1.155409E+04 -2.154094E-10 -1.148178E-10
        41  15  5.827292E+03 -3.397411E+03  4.187910E+04 -1.356956E+04  5.244411E-10  2.228315E-10
        41  16  4.325277E+03  1.160773E+03  3.230614E+04 -1.117485E+04  8.926344E-10 -1.063585E-09
        41  17  5.558566E+03  1.452340E+04  3.450726E+04 -1.172613E+04  5.524548E-10  9.557576E-10
        41  18  1.421453E+04  3.173827E+04  4.862581E+04 -1.631264E+04  7.003671E-10  1.114957E-10
        41  19  2.221341E+03 -7.954588E+03  3.080583E+04 -1.597273E+04  4.233392E+02 -6.141160E+03
        41  20 -3.863456E+03 -2.515213E+04  2.707962E+04 -1.138204E+04  1.313481E+03  9.120258E+03
        41  21 -2.559823E+03 -3.853125E+04  3.513345E+04 -1.082660E+04  2.134607E+03  2.438127E+04
        41  22  3.273309E+03 -3.396883E+03  3.155605E+04 -1.357380E+04  4.256021E+02 -7.509517E+03
        41  23  8.475723E+02 -5.314534E+03  3.079349E+04 -1.155408E+04  1.315588E+03  7.851801E+03
        41  24  5.827441E+03 -3.396832E+03  4.188012E+04 -1.356952E+04  2.136434E+03  2.321308E+04
        41  25  4.325299E+03  1.160858E+03  3.230629E+04 -1.117485E+04  4.278544E+02 -8.877884E+03
        41  26  5.558579E+03  1.452345E+04  3.450735E+04 -1.172612E+04  1.317696E+03  6.583304E+03
        41  27  1.421466E+04  3.173879E+04  4.862673E+04 -1.631261E+04  2.138271E+03  2.204481E+04
        42   1 -1.081826E+04 -4.276625E+04  4.215534E+04 -2.724723E+04 -2.743444E+03 -3.178421E+04
        42   2  9.805409E+03 -7.365891E+04  7.293910E+04  2.731350E+04 -2.738304E+03 -7.327183E+04
        42   3  1.349184E+05 -7.303328E+04  1.568613E+05  7.806402E+04 -7.611180E+02 -1.147543E+05
        42   4  7.969619E+00  2.863075E+03  5.092921E+04 -1.356443E+04 -2.746629E+03 -3.027755E+04
        42   5  2.455780E+04 -1.313806E+04  8.542556E+04 -1.153289E+04 -2.731494E+03 -7.461837E+04
        42   6  1.540760E+05  2.864138E+03  1.750369E+05 -1.331193E+04 -7.373796E+02 -1.189552E+05
        42   7  1.083478E+04  4.849481E+04  5.970309E+04  1.194092E+02 -2.749746E+03 -2.877078E+04
        42   8  3.931562E+04  4.738950E+04  9.791263E+04 -5.038314E+04 -2.724515E+03 -7.596504E+04
        42   9  1.732646E+05  7.878478E+04  1.932167E+05 -1.046991E+05 -7.124066E+02 -1.231567E+05
        42  10 -1.081854E+04 -4.276733E+04  4.215343E+04 -2.724730E+04 -1.023447E-10  4.054421E-10
        42  11  9.803960E+03 -7.366468E+04  7.292899E+04  2.731334E+04  6.687485E-10 -1.460326E-09
        42  12  1.349149E+05 -7.304742E+04  1.568365E+05  7.806395E+04 -5.984631E-12  2.256760E-12
        42  13  7.715429E+00  2.862089E+03  5.092747E+04 -1.356449E+04 -7.125283E-10  4.741065E-10
        42  14  2.455630E+04 -1.314404E+04  8.541508E+04 -1.153306E+04 -3.099186E-10  4.883577E-11
        42  15  1.540722E+05  2.848944E+03  1.750103E+05 -1.331200E+04  3.273379E-10  3.601605E-10
        42  16  1.083455E+04  4.849392E+04  5.970152E+04  1.193455E+02 -9.352541E-10 -6.429621E-10
        42  17  3.931406E+04  4.738330E+04  9.790177E+04 -5.038330E+04 -3.137081E-10  1.274213E-09
        42  18  1.732605E+05  7.876850E+04  1.931882E+05 -1.046992E+05  9.888503E-10 -1.039783E-10
        42  19 -1.081826E+04 -4.276625E+04  4.215534E+04 -2.724723E+04  2.743444E+03  3.178421E+04
        42  20  9.805409E+03 -7.365891E+04  7.293910E+04  2.731350E+04  2.738304E+03  7.327183E+04
        42  21  1.349184E+05 -7.303328E+04  1.568613E+05  7.806402E+04  7.611180E+02  1.147543E+05
        42  22  7.969619E+00  2.863075E+03  5.092921E+04 -1.356443E+04  2.746629E+03  3.027755E+04
        42  23  2.455780E+04 -1.313806E+04  8.542556E+04 -1.153289E+04  2.731494E+03  7.461837E+04
        42  24  1.540760E+05  2.864138E+03  1.750369E+05 -1.331193E+04  7.373796E+02  1.189552E+05
        42  25  1.083478E+04  4.849481E+04  5.970309E+04  1.194092E+02  2.749746E+03  2.877078E+04
        42  26  3.931562E+04  4.738950E+04  9.791263E+04 -5.038314E+04  2.724515E+03  7.596504E+04
        42  27  1.732646E+05  7.878478E+04  1.932167E+05 -1.046991E+05  7.124066E+02  1.231567E+05
        43   1 -1.748640E+06 -5.357535E+05 -3.307775E+05 -6.033801E+05 -1.334664E+05 -4.555082E+04
        43   2 -1.699730E+06 -3.285707E+05 -2.028009E+05 -6.154680E+05 -8.749629E+04 -1.902881E+04
        43   3 -1.707985E+06 -3.341537E+05 -1.638326E+05 -6.017089E+05 -3.791393E+04 -2.095263E+03
        43   4 -1.299307E+06 -3.319234E+05 -2.009926E+05 -4.462465E+05 -1.289212E+05 -4.384791E+04
        43   5 -1.260807E+06 -1.537769E+05 -8.298584E+04 -4.863094E+05 -8.635917E+04 -1.860324E+04
        43   6 -1.278743E+06 -1.876377E+05 -5.123141E+04 -5.005400E+05 -4.018711E+04 -2.948917E+03
        43   7 -8.497794E+05 -1.280563E+05 -7.122838E+04 -2.890025E+05 -1.243724E+05 -4.214301E+04
        43   8 -8.216997E+05  2.103352E+04  3.681124E+04 -3.570667E+05 -8.522114E+04 -1.817729E+04
        43   9 -8.493238E+05 -4.111869E+04  6.135443E+04 -3.993117E+05 -4.246201E+04 -3.803078E+03
        43  10 -1.748660E+06 -5.357606E+05 -3.308150E+05 -6.033850E+05 -7.148135E-10  8.828504E-11
        43  11 -1.699738E+06 -3.285731E+05 -2.028161E+05 -6.154693E+05 -3.455498E-10 -4.450186E-10
        43  12 -1.707987E+06 -3.341541E+05 -1.638354E+05 -6.017089E+05 -1.857023E-09  5.105172E-10
        43  13 -1.299325E+06 -3.319299E+05 -2.010275E+05 -4.462510E+05  1.040572E-09 -8.118210E-10
        43  14 -1.260815E+06 -1.537793E+05 -8.300054E+04 -4.863107E+05 -1.281040E-09 -7.349766E-10
        43  15 -1.278745E+06 -1.876381E+05 -5.123446E+04 -5.005401E+05  7.075179E-10  2.061624E-10
        43  16 -8.497965E+05 -1.280623E+05 -7.126083E+04 -2.890067E+05  1.226419E-10  1.941177E-10
        43  17 -8.217076E+05  2.103121E+04  3.679695E+04 -3.570679E+05  5.850004E-10  1.426578E-10
        43  18 -8.493257E+05 -4.111919E+04  6.135101E+04 -3.993119E+05  1.257318E-09  4.190582E-10
        43  19 -1.748640E+06 -5.357535E+05 -3.307775E+05 -6.033801E+05  1.334664E+05  4.555082E+04
        43  20 -1.699730E+06 -3.285707E+05 -2.028009E+05 -6.154680E+05  8.749629E+04  1.902881E+04
        43  21 -1.707985E+06 -3.341537E+05 -1.638326E+05 -6.017089E+05  3.791393E+04  2.095263E+03
        43  22 -1.299307E+06 -3.319234E+05 -2.009926E+05 -4.462465E+05  1.289212E+05  4.384791E+04
        43  23 -1.260807E+06 -1.537769E+05 -8.298584E+04 -4.863094E+05  8.635917E+04  1.860324E+04
        43  24 -1.278743E+06 -1.876377E+05 -5.123141E+04 -5.005400E+05  4.018711E+04  2.948917E+03
        43  25 -8.497794E+05 -1.280563E+05 -7.122838E+04 -2.890025E+05  1.243724E+05  4.214301E+04
        43  26 -8.216997E+05  2.103352E+04  3.681124E+04 -3.570667E+05  8.522114E+04  1.817729E+04
        43  27 -8.493238E+05 -4.111869E+04  6.135443E+04 -3.993117E+05  4.246201E+04  3.803078E+03
        44   1 -1.624139E+06 -3.475518E+05 -1.378307E+05 -5.888765E+05 -3.198759E+04 -2.273185E+03
        44   2 -1.600216E+06 -2.999361E+05 -1.067579E+05 -5.704091E+05 -2.121841E+04  1.471310E+03
        44   3 -1.562517E+06 -3.008207E+05 -9.025258E+04 -5.733479E+05 -1.004559E+04  4.139716E+03
        44   4 -1.271527E+06 -2.105874E+05 -4.195586E+04 -4.887298E+05 -3.190047E+04 -2.241104E+03
        44   5 -1.277154E+06 -1.772158E+05 -1.958891E+04 -4.814627E+05 -2.151155E+04  1.360940E+03
        44   6 -1.268926E+06 -1.922603E+05 -1.148116E+04 -4.956024E+05 -1.071968E+04  3.886820E+03
        44   7 -9.187954E+05 -7.361336E+04  5.390798E+04 -3.885308E+05 -3.181329E+04 -2.209000E+03
        44   8 -9.539917E+05 -5.448879E+04  6.757088E+04 -3.924742E+05 -2.180486E+04  1.250506E+03
        44   9 -9.752522E+05 -8.369559E+04  6.728269E+04 -4.178241E+05 -1.139412E+04  3.633799E+03
        44  10 -1.624140E+06 -3.475521E+05 -1.378327E+05 -5.888765E+05 -1.295736E-09  5.528417E-10
        44  11 -1.600217E+06 -2.999362E+05 -1.067588E+05 -5.704091E+05 -6.496275E-10 -2.330008E-10
        44  12 -1.562517E+06 -3.008208E+05 -9.025281E+04 -5.733478E+05  3.505117E-10 -8.507415E-10
        44  13 -1.271528E+06 -2.105876E+05 -4.195779E+04 -4.887299E+05 -7.592757E-12  3.282591E-10
        44  14 -1.277155E+06 -1.772159E+05 -1.958979E+04 -4.814627E+05  5.310319E-10 -3.303084E-10
        44  15 -1.268926E+06 -1.922603E+05 -1.148140E+04 -4.956023E+05 -1.453563E-09 -6.304501E-10
        44  16 -9.187965E+05 -7.361364E+04  5.390607E+04 -3.885309E+05 -3.389471E-10 -3.521937E-11
        44  17 -9.539922E+05 -5.448892E+04  6.756998E+04 -3.924742E+05  1.903131E-10 -4.778340E-12
        44  18 -9.752523E+05 -8.369564E+04  6.728243E+04 -4.178240E+05 -8.559677E-10 -2.167730E-10
        44  19 -1.624139E+06 -3.475518E+05 -1.378307E+05 -5.888765E+05  3.198759E+04  2.273185E+03
        44  20 -1.600216E+06 -2.999361E+05 -1.067579E+05 -5.704091E+05  2.121841E+04 -1.471310E+03
        44  21 -1.562517E+06 -3.008207E+05 -9.025258E+04 -5.733479E+05  1.004559E+04 -4.139716E+03
        44  22 -1.271527E+06 -2.105874E+05 -4.195586E+04 -4.887298E+05  3.190047E+04  2.241104E+03
        44  23 -1.277154E+06 -1.772158E+05 -1.958891E+04 -4.814627E+05  2.151155E+04 -1.360940E+03
        44  24 -1.268926E+06 -1.922603E+05 -1.148116E+04 -4.956024E+05  1.071968E+04 -3.886820E+03
        44  25 -9.187954E+05 -7.361336E+04  5.390798E+04 -3.885308E+05  3.181329E+04  2.209000E+03
        44  26 -9.539917E+05 -5.448879E+04  6.757088E+04 -3.924742E+05  2.180486E+04 -1.250506E+03
        44  27 -9.752522E+05 -8.369559E+04  6.728269E+04 -4.178241E+05  1.139412E+04 -3.633799E+03
        45   1 -1.490056E+06 -2.796710E+05 -6.894900E+04 -5.554257E+05 -8.278392E+03  3.749342E+03
        45   2 -1.468143E+06 -2.507577E+05 -5.532395E+04 -5.316455E+05 -5.406724E+03  3.409314E+03
        45   3 -1.421596E+06 -2.509784E+05 -4.431744E+04 -5.369820E+05 -2.479755E+03  2.919725E+03
        45   4 -1.267579E+06 -1.954933E+05 -9.070280E+03 -4.944904E+05 -8.698689E+03  3.591693E+03
        45   5 -1.279735E+06 -1.797681E+05 -4.593016E+03 -4.803673E+05 -5.879818E+03  3.232034E+03
        45   6 -1.267249E+06 -1.931657E+05 -2.691557E+03 -4.953609E+05 -3.005795E+03  2.722784E+03
        45   7 -1.045054E+06 -1.113127E+05  5.080392E+04 -4.335355E+05 -9.119151E+03  3.433982E+03
        45   8 -1.091293E+06 -1.087766E+05  4.613477E+04 -4.290750E+05 -6.353071E+03  3.054696E+03
        45   9 -1.112878E+06 -1.353515E+05  3.893229E+04 -4.537304E+05 -3.531981E+03  2.525789E+03
        45  10 -1.490056E+06 -2.796710E+05 -6.894915E+04 -5.554257E+05 -4.839675E-10 -7.099128E-10
        45  11 -1.468143E+06 -2.507577E+05 -5.532403E+04 -5.316455E+05 -5.159212E-10 -3.511052E-10
        45  12 -1.421596E+06 -2.509784E+05 -4.431746E+04 -5.369820E+05  6.219065E-10 -3.093715E-10
        45  13 -1.267579E+06 -1.954933E+05 -9.070447E+03 -4.944904E+05 -1.111342E-09 -6.543676E-10
        45  14 -1.279736E+06 -1.797682E+05 -4.593101E+03 -4.803673E+05 -3.945509E-10 -5.489287E-11
        45  15 -1.267249E+06 -1.931657E+05 -2.691588E+03 -4.953609E+05  8.229020E-10 -3.448520E-11
        45  16 -1.045054E+06 -1.113128E+05  5.080374E+04 -4.335355E+05 -1.459454E-09 -4.816666E-10
        45  17 -1.091293E+06 -1.087766E+05  4.613468E+04 -4.290749E+05  1.844392E-09  3.208416E-11
        45  18 -1.112878E+06 -1.353515E+05  3.893226E+04 -4.537304E+05  1.679591E-09  2.680456E-10
        45  19 -1.490056E+06 -2.796710E+05 -6.894900E+04 -5.554257E+05  8.278392E+03 -3.749342E+03
        45  20 -1.468143E+06 -2.507577E+05 -5.532395E+04 -5.316455E+05  5.406724E+03 -3.409314E+03
        45  21 -1.421596E+06 -2.509784E+05 -4.431744E+04 -5.369820E+05  2.479755E+03 -2.919725E+03
        45  22 -1.267579E+06 -1.954933E+05 -9.070280E+03 -4.944904E+05  8.698689E+03 -3.591693E+03
        45  23 -1.279735E+06 -1.797681E+05 -4.593016E+03 -4.803673E+05  5.879818E+03 -3.232034E+03
        45  24 -1.267249E+06 -1.931657E+05 -2.691557E+03 -4.953609E+05  3.005795E+03 -2.722784E+03
        45  25 -1.045054E+06 -1.113127E+05  5.080392E+04 -4.335355E+05  9.119151E+03 -3.433982E+03
        45  26 -1.091293E+06 -1.087766E+05  4.613477E+04 -4.290750E+05  6.353071E+03 -3.054696E+03
        45  27 -1.112878E+06 -1.353515E+05  3.893229E+04 -4.537304E+05  3.531981E+03 -2.525789E+03
        46   1 -1.347737E+06 -2.241261E+05 -2.376958E+04 -5.173830E+05 -1.798724E+03  2.222775E+03
        46   2 -1.325548E+06 -1.969499E+05 -1.351891E+04 -4.923332E+05 -6.002620E+02  1.079919E+03
        46   3 -1.276720E+06 -1.971330E+05 -3.895534E+03 -4.980937E+05  6.058755E+02 -8.399268E+01
        46   4 -1.266931E+06 -1.937076E+05 -2.145719E+03 -4.953851E+05 -2.296014E+03  2.036669E+03
        46   5 -1.280233E+06 -1.799031E+05 -1.323238E+03 -4.800268E+05 -1.105023E+03  8.910537E+02
        46   6 -1.266895E+06 -1.934562E+05 -1.121926E+03 -4.954790E+05  9.359355E+01 -2.756255E+02
        46   7 -1.186119E+06 -1.632887E+05  1.947759E+04 -4.733845E+05 -2.793375E+03  1.850537E+03
        46   8 -1.234916E+06 -1.628563E+05  1.087221E+04 -4.677197E+05 -1.609823E+03  7.021741E+02
        46   9 -1.257070E+06 -1.897794E+05  1.651651E+03 -4.928642E+05 -4.186932E+02 -4.672600E+02
        46  10 -1.347737E+06 -2.241261E+05 -2.376959E+04 -5.173830E+05  1.359128E-09 -3.127609E-10
        46  11 -1.325548E+06 -1.969499E+05 -1.351891E+04 -4.923332E+05 -1.415436E-09 -1.132797E-09
        46  12 -1.276720E+06 -1.971330E+05 -3.895534E+03 -4.980937E+05 -6.585948E-10 -7.904382E-10
        46  13 -1.266931E+06 -1.937076E+05 -2.145737E+03 -4.953850E+05  5.612782E-10 -3.170790E-10
        46  14 -1.280233E+06 -1.799031E+05 -1.323242E+03 -4.800268E+05 -1.993151E-09 -2.225034E-09
        46  15 -1.266895E+06 -1.934562E+05 -1.121926E+03 -4.954790E+05 -1.168433E-09 -1.120861E-09
        46  16 -1.186119E+06 -1.632887E+05  1.947757E+04 -4.733845E+05 -1.251095E-09  3.455241E-10
        46  17 -1.234916E+06 -1.628563E+05  1.087220E+04 -4.677197E+05 -1.295395E-09 -1.231756E-09
        46  18 -1.257070E+06 -1.897794E+05  1.651650E+03 -4.928642E+05  1.002273E-09 -7.991224E-10
        46  19 -1.347737E+06 -2.241261E+05 -2.376958E+04 -5.173830E+05  1.798724E+03 -2.222775E+03
        46  20 -1.325548E+06 -1.969499E+05 -1.351891E+04 -4.923332E+05  6.002620E+02 -1.079919E+03
        46  21 -1.276720E+06 -1.971330E+05 -3.895534E+03 -4.980937E+05 -6.058755E+02  8.399268E+01
        46  22 -1.266931E+06 -1.937076E+05 -2.145719E+03 -4.953851E+05  2.296014E+03 -2.036669E+03
        46  23 -1.280233E+06 -1.799031E+05 -1.323238E+03 -4.800268E+05  1.105023E+03 -8.910537E+02
        46  24 -1.266895E+06 -1.934562E+05 -1.121926E+03 -4.954790E+05 -9.359355E+01  2.756255E+02
        46  25 -1.186119E+06 -1.632887E+05  1.947759E+04 -4.733845E+05  2.793375E+03 -1.850537E+03
        46  26 -1.234916E+06 -1.628563E+05  1.087221E+04 -4.677197E+05  1.609823E+03 -7.021741E+02
        46  27 -1.257070E+06 -1.897794E+05  1.651651E+03 -4.928642E+05  4.186932E+02  4.672600E+02
        47   1 -1.202356E+06 -1.691381E+05  1.635588E+04 -4.779617E+05  1.106363E+03 -8.472832E+02
        47   2 -1.180380E+06 -1.424143E+05  2.534586E+04 -4.529948E+05  2.384752E+03 -1.978979E+03
        47   3 -1.131985E+06 -1.429147E+05  3.363904E+04 -4.585706E+05  3.650456E+03 -3.075258E+03
        47   4 -1.266942E+06 -1.933977E+05 -1.152241E+03 -4.954313E+05  5.930672E+02 -1.039313E+03
        47   5 -1.280174E+06 -1.799524E+05 -1.509303E+03 -4.800965E+05  1.884001E+03 -2.166407E+03
        47   6 -1.266990E+06 -1.937343E+05 -2.573195E+03 -4.953056E+05  3.162200E+03 -3.258094E+03
        47   7 -1.331524E+06 -2.176573E+05 -1.866086E+04 -5.128995E+05  7.982651E+01 -1.231322E+03
        47   8 -1.379958E+06 -2.174900E+05 -2.836551E+04 -5.071945E+05  1.383335E+03 -2.353803E+03
        47   9 -1.401978E+06 -2.445531E+05 -3.878721E+04 -5.320336E+05  2.674058E+03 -3.440887E+03
        47  10 -1.202356E+06 -1.691381E+05  1.635588E+04 -4.779617E+05 -4.466764E-10 -3.208564E-12
        47  11 -1.180380E+06 -1.424144E+05  2.534584E+04 -4.529948E+05 -1.953197E-09  6.354473E-10
        47  12 -1.131985E+06 -1.429147E+05  3.363899E+04 -4.585706E+05  1.152445E-09  7.056066E-10
        47  13 -1.266942E+06 -1.933977E+05 -1.152244E+03 -4.954313E+05 -3.789791E-10 -7.053682E-10
        47  14 -1.280174E+06 -1.799524E+05 -1.509319E+03 -4.800965E+05  2.114132E-09  1.460530E-09
        47  15 -1.266990E+06 -1.937343E+05 -2.573234E+03 -4.953056E+05  1.982312E-09  7.868889E-10
        47  16 -1.331524E+06 -2.176573E+05 -1.866086E+04 -5.128995E+05  7.261555E-10  6.661216E-12
        47  17 -1.379958E+06 -2.174900E+05 -2.836552E+04 -5.071945E+05 -2.090662E-10  4.564764E-10
        47  18 -1.401978E+06 -2.445532E+05 -3.878725E+04 -5.320336E+05 -8.319132E-11  7.353966E-10
        47  19 -1.202356E+06 -1.691381E+05  1.635588E+04 -4.779617E+05 -1.106363E+03  8.472832E+02
        47  20 -1.180380E+06 -1.424143E+05  2.534586E+04 -4.529948E+05 -2.384752E+03  1.978979E+03
        47  21 -1.131985E+06 -1.429147E+05  3.363904E+04 -4.585706E+05 -3.650456E+03  3.075258E+03
        47  22 -1.266942E+06 -1.933977E+05 -1.152241E+03 -4.954313E+05 -5.930672E+02  1.039313E+03
        47  23 -1.280174E+06 -1.799524E+05 -1.509303E+03 -4.800965E+05 -1.884001E+03  2.166407E+03
        47  24 -1.266990E+06 -1.937343E+05 -2.573195E+03 -4.953056E+05 -3.162200E+03  3.258094E+03
        47  25 -1.331524E+06 -2.176573E+05 -1.866086E+04 -5.128995E+05 -7.982651E+01  1.231322E+03
        47  26 -1.379958E+06 -2.174900E+05 -2.836551E+04 -5.071945E+05 -1.383335E+03  2.353803E+03
        47  27 -1.401978E+06 -2.445531E+05 -3.878721E+04 -5.320336E+05 -2.674058E+03  3.440887E+03
        48   1 -1.060009E+06 -1.152933E+05  5.262651E+04 -4.392310E+05  4.469710E+03 -3.706451E+03
        48   2 -1.038898E+06 -8.916878E+04  5.914726E+04 -4.150576E+05  7.804014E+03 -4.012376E+03
        48   3 -9.940303E+05 -9.225296E+04  6.256240E+04 -4.191032E+05  1.107592E+04 -4.148482E+03
        48   4 -1.267429E+06 -1.930185E+05 -3.261276E+03 -4.952269E+05  3.949270E+03 -3.901445E+03
        48   5 -1.279504E+06 -1.798408E+05 -5.627219E+03 -4.805808E+05  7.343352E+03 -4.185176E+03
        48   6 -1.267836E+06 -1.958849E+05 -1.114708E+04 -4.941541E+05  1.067488E+04 -4.299118E+03
        48   7 -1.474806E+06 -2.707407E+05 -5.915242E+04 -5.512056E+05  3.429025E+03 -4.096366E+03
        48   8 -1.520054E+06 -2.705092E+05 -7.040668E+04 -5.460809E+05  6.882888E+03 -4.357903E+03
        48   9 -1.541570E+06 -2.995126E+05 -8.486347E+04 -5.691753E+05  1.027403E+04 -4.449680E+03
        48  10 -1.060009E+06 -1.152933E+05  5.262644E+04 -4.392310E+05  1.104015E-09  6.283800E-10
        48  11 -1.038898E+06 -8.916881E+04  5.914712E+04 -4.150576E+05 -4.827035E-10  6.477910E-11
        48  12 -9.940305E+05 -9.225301E+04  6.256214E+04 -4.191031E+05 -8.621955E-10  2.136000E-10
        48  13 -1.267429E+06 -1.930185E+05 -3.261334E+03 -4.952269E+05  9.182984E-10  4.892990E-10
        48  14 -1.279504E+06 -1.798408E+05 -5.627354E+03 -4.805808E+05 -1.763309E-09 -2.937286E-10
        48  15 -1.267836E+06 -1.958849E+05 -1.114733E+04 -4.941540E+05 -7.156441E-10 -2.471594E-10
        48  16 -1.474807E+06 -2.707407E+05 -5.915247E+04 -5.512056E+05 -1.164337E-10  3.395992E-10
        48  17 -1.520054E+06 -2.705093E+05 -7.040680E+04 -5.460809E+05 -4.369102E-11 -7.443071E-10
        48  18 -1.541570E+06 -2.995127E+05 -8.486371E+04 -5.691753E+05 -9.658322E-10 -4.578467E-10
        48  19 -1.060009E+06 -1.152933E+05  5.262651E+04 -4.392310E+05 -4.469710E+03  3.706451E+03
        48  20 -1.038898E+06 -8.916878E+04  5.914726E+04 -4.150576E+05 -7.804014E+03  4.012376E+03
        48  21 -9.940303E+05 -9.225296E+04  6.256240E+04 -4.191032E+05 -1.107592E+04  4.148482E+03
        48  22 -1.267429E+06 -1.930185E+05 -3.261276E+03 -4.952269E+05 -3.949270E+03  3.901445E+03
        48  23 -1.279504E+06 -1.798408E+05 -5.627219E+03 -4.805808E+05 -7.343352E+03  4.185176E+03
        48  24 -1.267836E+06 -1.958849E+05 -1.114708E+04 -4.941541E+05 -1.067488E+04  4.299118E+03
        48  25 -1.474806E+06 -2.707407E+05 -5.915242E+04 -5.512056E+05 -3.429025E+03  4.096366E+03
        48  26 -1.520054E+06 -2.705092E+05 -7.040668E+04 -5.460809E+05 -6.882888E+03  4.357903E+03
        48  27 -1.541570E+06 -2.995126E+05 -8.486347E+04 -5.691753E+05 -1.027403E+04  4.449680E+03
        49   1 -9.263654E+05 -6.514571E+04  7.786681E+04 -4.047242E+05  1.375008E+04 -4.181930E+03
        49   2 -9.055761E+05 -3.570562E+04  7.592771E+04 -3.796320E+05  2.648473E+04 -8.712164E+02
        49   3 -8.741943E+05 -5.920477E+04  5.677712E+04 -3.733579E+05  3.878364E+04  3.604236E+03
        49   4 -1.269483E+06 -1.919247E+05 -1.411950E+04 -4.955435E+05  1.307503E+04 -4.435472E+03
        49   5 -1.276338E+06 -1.766780E+05 -2.410226E+04 -4.819038E+05  2.622045E+04 -9.709833E+02
        49   6 -1.272689E+06 -2.144647E+05 -5.163064E+04 -4.870821E+05  3.892939E+04  3.658163E+03
        49   7 -1.612487E+06 -3.186981E+05 -1.061162E+05 -5.863181E+05  1.240038E+04 -4.688867E+03
        49   8 -1.646966E+06 -3.176416E+05 -1.241444E+05 -5.841201E+05  2.595634E+04 -1.070685E+03
        49   9 -1.671029E+06 -3.697122E+05 -1.600525E+05 -6.007393E+05  3.907503E+04  3.712046E+03
        49  10 -9.263656E+05 -6.514578E+04  7.786642E+04 -4.047241E+05  2.543060E-09  1.498624E-09
        49  11 -9.055768E+05 -3.570581E+04  7.592639E+04 -3.796320E+05  1.333381E-09  1.024051E-09
        49  12 -8.741959E+05 -5.920519E+04  5.677427E+04 -3.733580E+05 -1.024589E-09 -1.248961E-09
        49  13 -1.269483E+06 -1.919248E+05 -1.411986E+04 -4.955435E+05  5.169908E-11  3.288530E-10
        49  14 -1.276338E+06 -1.766782E+05 -2.410355E+04 -4.819037E+05  1.621943E-09  6.771365E-10
        49  15 -1.272690E+06 -2.144651E+05 -5.163352E+04 -4.870822E+05 -4.685651E-10  4.710641E-10
        49  16 -1.612487E+06 -3.186981E+05 -1.061165E+05 -5.863181E+05 -1.870266E-09 -3.199499E-10
        49  17 -1.646967E+06 -3.176418E+05 -1.241456E+05 -5.841201E+05  7.412928E-10  9.690522E-10
        49  18 -1.671031E+06 -3.697126E+05 -1.600554E+05 -6.007394E+05  1.030543E-10  5.830486E-10
        49  19 -9.263654E+05 -6.514571E+04  7.786681E+04 -4.047242E+05 -1.375008E+04  4.181930E+03
        49  20 -9.055761E+05 -3.570562E+04  7.592771E+04 -3.796320E+05 -2.648473E+04  8.712164E+02
        49  21 -8.741943E+05 -5.920477E+04  5.677712E+04 -3.733579E+05 -3.878364E+04 -3.604236E+03
        49  22 -1.269483E+06 -1.919247E+05 -1.411950E+04 -4.955435E+05 -1.307503E+04  4.435472E+03
        49  23 -1.276338E+06 -1.766780E+05 -2.410226E+04 -4.819038E+05 -2.622045E+04  9.709833E+02
        49  24 -1.272689E+06 -2.144647E+05 -5.163064E+04 -4.870821E+05 -3.892939E+04 -3.658163E+03
        49  25 -1.612487E+06 -3.186981E+05 -1.061162E+05 -5.863181E+05 -1.240038E+04  4.688867E+03
        49  26 -1.646966E+06 -3.176416E+05 -1.241444E+05 -5.841201E+05 -2.595634E+04  1.070685E+03
        49  27 -1.671029E+06 -3.697122E+05 -1.600525E+05 -6.007393E+05 -3.907503E+04 -3.712046E+03
        50   1 -8.062891E+05 -2.597546E+04  6.117154E+04 -3.915154E+05  5.136608E+04  5.851121E+03
        50   2 -7.773491E+05  4.438260E+04  2.882703E+04 -3.453185E+05  1.043683E+05  2.415495E+04
        50   3 -8.233713E+05 -1.390955E+05 -1.067059E+05 -2.601919E+05  1.534827E+05  5.278419E+04
        50   4 -1.281490E+06 -1.863199E+05 -6.305107E+04 -5.017221E+05  4.897036E+04  4.950985E+03
        50   5 -1.256292E+06 -1.477286E+05 -1.021210E+05 -4.877550E+05  1.056383E+05  2.463027E+04
        50   6 -1.306855E+06 -3.638196E+05 -2.473525E+05 -4.348419E+05  1.584162E+05  5.463209E+04
        50   7 -1.756476E+06 -3.466620E+05 -1.872927E+05 -6.118580E+05  4.657665E+04  4.051418E+03
        50   8 -1.735013E+06 -3.398180E+05 -2.330899E+05 -6.300892E+05  1.069072E+05  2.510511E+04
        50   9 -1.790107E+06 -5.884923E+05 -3.880212E+05 -6.093565E+05  1.633453E+05  5.647752E+04
        50  10 -8.062919E+05 -2.597621E+04  6.116651E+04 -3.915157E+05 -5.927754E-10 -1.395199E-09
        50  11 -7.773610E+05  4.437904E+04  2.880543E+04 -3.453205E+05  4.087055E-09 -7.493311E-10
        50  12 -8.233974E+05 -1.391048E+05 -1.067555E+05 -2.601984E+05  1.115767E-09 -5.728940E-10
        50  13 -1.281493E+06 -1.863205E+05 -6.305564E+04 -5.017223E+05 -8.507076E-10  2.983664E-10
        50  14 -1.256304E+06 -1.477323E+05 -1.021432E+05 -4.877571E+05  2.492379E-10  2.093170E-09
        50  15 -1.306883E+06 -3.638295E+05 -2.474053E+05 -4.348489E+05  7.523673E-10  2.771780E-10
        50  16 -1.756478E+06 -3.466626E+05 -1.872968E+05 -6.118581E+05  3.575389E-11 -2.917182E-10
        50  17 -1.735025E+06 -3.398217E+05 -2.331126E+05 -6.300914E+05 -1.545721E-10  8.408764E-10
        50  18 -1.790137E+06 -5.885030E+05 -3.880775E+05 -6.093639E+05  1.830167E-09 -1.234930E-09
        50  19 -8.062891E+05 -2.597546E+04  6.117154E+04 -3.915154E+05 -5.136608E+04 -5.851121E+03
        50  20 -7.773491E+05  4.438260E+04  2.882703E+04 -3.453185E+05 -1.043683E+05 -2.415495E+04
        50  21 -8.233713E+05 -1.390955E+05 -1.067059E+05 -2.601919E+05 -1.534827E+05 -5.278419E+04
        50  22 -1.281490E+06 -1.863199E+05 -6.305107E+04 -5.017221E+05 -4.897036E+04 -4.950985E+03
        50  23 -1.256292E+06 -1.477286E+05 -1.021210E+05 -4.877550E+05 -1.056383E+05 -2.463027E+04
        50  24 -1.306855E+06 -3.638196E+05 -2.473525E+05 -4.348419E+05 -1.584162E+05 -5.463209E+04
        50  25 -1.756476E+06 -3.466620E+05 -1.872927E+05 -6.118580E+05 -4.657665E+04 -4.051418E+03
        50  26 -1.735013E+06 -3.398180E+05 -2.330899E+05 -6.300892E+05 -1.069072E+05 -2.510511E+04
        50  27 -1.790107E+06 -5.884923E+05 -3.880212E+05 -6.093565E+05 -1.633453E+05 -5.647752E+04
        51   1  6.437555E+04 -1.324152E+05  6.240609E+04  6.398438E+02  2.862533E+03  2.643648E+03
        51   2  6.692043E+04 -1.334444E+05  6.162778E+04  2.465590E+02  8.924707E+03  8.291753E+02
        51   3  6.614828E+04 -1.349940E+05  6.122086E+04 -8.648899E+02  9.122976E+03 -9.910321E+02
        51   4 -2.932516E+03 -4.023675E+05 -4.115871E+03 -1.616997E+02  2.867277E+03 -2.102897E+03
        51   5  4.170383E+02 -4.018380E+05 -2.421512E+03  1.988499E+02  8.926842E+03 -8.219796E+02
        51   6 -8.880958E+01 -4.023669E+05 -2.506353E+03 -1.587493E+02  9.121371E+03  4.532454E+02
        51   7 -7.024600E+04 -6.722534E+05 -7.064314E+04 -9.628778E+02  2.872034E+03 -6.847380E+03
        51   8 -6.609156E+04 -6.701655E+05 -6.647587E+04  1.511802E+02  8.928977E+03 -2.472424E+03
        51   9 -6.633106E+04 -6.696741E+05 -6.623858E+04  5.471067E+02  9.119769E+03  1.896904E+03
        51  10  6.437554E+04 -1.324152E+05  6.240606E+04  6.398377E+02  1.536057E-10  2.796327E-09
        51  11  6.692035E+04 -1.334444E+05  6.162763E+04  2.465531E+02  2.630679E-09  4.550190E-09
        51  12  6.614819E+04 -1.349940E+05  6.122070E+04 -8.648826E+02 -4.608778E-10  4.051960E-09
        51  13 -2.932526E+03 -4.023675E+05 -4.115894E+03 -1.616948E+02 -8.729758E-10 -5.255731E-12
        51  14  4.169526E+02 -4.018380E+05 -2.421663E+03  1.988558E+02  8.245038E-10 -5.808197E-10
        51  15 -8.889896E+01 -4.023669E+05 -2.506510E+03 -1.587526E+02 -4.907016E-09 -4.174889E-10
        51  16 -7.024602E+04 -6.722534E+05 -7.064324E+04 -9.628619E+02 -2.724192E-10 -3.070014E-09
        51  17 -6.609165E+04 -6.701655E+05 -6.647603E+04  1.511980E+02  1.749889E-09 -4.904602E-09
        51  18 -6.633115E+04 -6.696742E+05 -6.623874E+04  5.470928E+02  5.523263E-11 -3.574184E-09
        51  19  6.437555E+04 -1.324152E+05  6.240609E+04  6.398438E+02 -2.862533E+03 -2.643648E+03
        51  20  6.692043E+04 -1.334444E+05  6.162778E+04  2.465590E+02 -8.924707E+03 -8.291753E+02
        51  21  6.614828E+04 -1.349940E+05  6.122086E+04 -8.648899E+02 -9.122976E+03  9.910321E+02
        51  22 -2.932516E+03 -4.023675E+05 -4.115871E+03 -1.616997E+02 -2.867277E+03  2.102897E+03
        51  23  4.170383E+02 -4.018380E+05 -2.421512E+03  1.988499E+02 -8.926842E+03  8.219796E+02
        51  24 -8.880958E+01 -4.023669E+05 -2.506353E+03 -1.587493E+02 -9.121371E+03 -4.532454E+02
        51  25 -7.024600E+04 -6.722534E+05 -7.064314E+04 -9.628778E+02 -2.872034E+03  6.847380E+03
        51  26 -6.609156E+04 -6.701655E+05 -6.647587E+04  1.511802E+02 -8.928977E+03  2.472424E+03
        51  27 -6.633106E+04 -6.696741E+05 -6.623858E+04  5.471067E+02 -9.119769E+03 -1.896904E+03
        52   1  6.563010E+04 -1.368621E+05  6.077749E+04 -1.100274E+02  8.327778E+03  1.305810E+03
        52   2  6.572675E+04 -1.380632E+05  5.928965E+04 -1.249669E+02  8.672749E+03  2.772250E+03
        52   3  6.268237E+04 -1.401736E+05  5.607618E+04 -1.321845E+03  8.211764E+03  4.237418E+03
        52   4 -1.872846E+02 -4.023500E+05 -2.750143E+03 -2.617759E+02  8.328560E+03  9.096316E+02
        52   5  3.543593E+02 -4.018585E+05 -3.695771E+03  3.274634E+02  8.672951E+03  2.800867E+03
        52   6 -2.319556E+03 -4.023505E+05 -6.662668E+03 -2.652692E+02  8.211236E+03  4.690833E+03
        52   7 -6.600978E+04 -6.677733E+05 -6.628275E+04 -4.134370E+02  8.329343E+03  5.136221E+02
        52   8 -6.502307E+04 -6.655899E+05 -6.668609E+04  7.797248E+02  8.673153E+03  2.829472E+03
        52   9 -6.732646E+04 -6.644643E+05 -6.940637E+04  7.908851E+02  8.210709E+03  5.144057E+03
        52  10  6.563003E+04 -1.368621E+05  6.077735E+04 -1.100361E+02 -4.239950E-10 -4.396487E-09
        52  11  6.572667E+04 -1.380632E+05  5.928949E+04 -1.249863E+02  1.215441E-09 -4.958239E-09
        52  12  6.268229E+04 -1.401737E+05  5.607602E+04 -1.321873E+03  1.022105E-09 -3.913278E-10
        52  13 -1.873593E+02 -4.023500E+05 -2.750275E+03 -2.617820E+02 -5.394692E-09  1.843047E-11
        52  14  3.542765E+02 -4.018585E+05 -3.695927E+03  3.274438E+02 -2.043602E-09 -7.842730E-10
        52  15 -2.319634E+03 -4.023505E+05 -6.662836E+03 -2.653002E+02 -1.440006E-09 -5.869295E-10
        52  16 -6.600986E+04 -6.677734E+05 -6.628288E+04 -4.134404E+02  2.648533E-10  3.970592E-09
        52  17 -6.502315E+04 -6.655900E+05 -6.668624E+04  7.797051E+02  2.132671E-09  4.513043E-09
        52  18 -6.732654E+04 -6.644644E+05 -6.940655E+04  7.908511E+02 -3.998825E-10  8.703473E-10
        52  19  6.563010E+04 -1.368621E+05  6.077749E+04 -1.100274E+02 -8.327778E+03 -1.305810E+03
        52  20  6.572675E+04 -1.380632E+05  5.928965E+04 -1.249669E+02 -8.672749E+03 -2.772250E+03
        52  21  6.268237E+04 -1.401736E+05  5.607618E+04 -1.321845E+03 -8.211764E+03 -4.237418E+03
        52  22 -1.872846E+02 -4.023500E+05 -2.750143E+03 -2.617759E+02 -8.328560E+03 -9.096316E+02
        52  23  3.543593E+02 -4.018585E+05 -3.695771E+03  3.274634E+02 -8.672951E+03 -2.800867E+03
        52  24 -2.319556E+03 -4.023505E+05 -6.662668E+03 -2.652692E+02 -8.211236E+03 -4.690833E+03
        52  25 -6.600978E+04 -6.677733E+05 -6.628275E+04 -4.134370E+02 -8.329343E+03 -5.136221E+02
        52  26 -6.502307E+04 -6.655899E+05 -6.668609E+04  7.797248E+02 -8.673153E+03 -2.829472E+03
        52  27 -6.732646E+04 -6.644643E+05 -6.940637E+04  7.908851E+02 -8.210709E+03 -5.144057E+03
        53   1  6.551741E+04 -1.440218E+05  5.385765E+04  2.406704E+03  8.866007E+03  7.236617E+03
        53   2  6.692157E+04 -1.424018E+05  4.870991E+04 -2.107927E+03  8.542297E+03  1.120031E+04
        53   3  4.089520E+04 -1.480956E+05  3.413635E+04 -8.291123E+03  2.701304E+03  1.515248E+04
        53   4  1.160112E+03 -4.038688E+05 -8.068661E+03 -3.563866E+02  8.868506E+03  5.945748E+03
        53   5  3.090850E+03 -3.999599E+05 -1.275703E+04  4.539121E+02  8.539466E+03  1.281978E+04
        53   6 -2.292052E+04 -4.038734E+05 -2.889588E+04 -4.045599E+02  2.692194E+03  1.968222E+04
        53   7 -6.320203E+04 -6.636537E+05 -6.999970E+04 -3.118288E+03  8.871016E+03  4.655417E+03
        53   8 -6.074464E+04 -6.574572E+05 -7.422862E+04  3.014712E+03  8.536647E+03  1.443859E+04
        53   9 -8.674089E+04 -6.595915E+05 -9.193284E+04  7.478779E+03  2.683198E+03  2.421009E+04
        53  10  6.551731E+04 -1.440219E+05  5.385741E+04  2.406652E+03 -5.854383E-10  6.107282E-09
        53  11  6.692145E+04 -1.424020E+05  4.870953E+04 -2.108004E+03  1.274532E-09 -2.524043E-10
        53  12  4.089513E+04 -1.480959E+05  3.413591E+04 -8.291156E+03 -2.247703E-10 -4.216397E-09
        53  13  1.160018E+03 -4.038688E+05 -8.068876E+03 -3.564291E+02 -9.726687E-10 -3.996137E-11
        53  14  3.090727E+03 -3.999601E+05 -1.275747E+04  4.538240E+02 -7.247185E-10 -1.088198E-09
        53  15 -2.292063E+04 -4.038738E+05 -2.889662E+04 -4.046026E+02 -5.277427E-10 -7.328980E-10
        53  16 -6.320212E+04 -6.636538E+05 -6.999989E+04 -3.118321E+03 -3.610084E-11 -6.562226E-09
        53  17 -6.074478E+04 -6.574574E+05 -7.422915E+04  3.014613E+03  2.536540E-10 -2.992571E-10
        53  18 -8.674106E+04 -6.595921E+05 -9.193396E+04  7.478726E+03 -4.313166E-10  4.937969E-09
        53  19  6.551741E+04 -1.440218E+05  5.385765E+04  2.406704E+03 -8.866007E+03 -7.236617E+03
        53  20  6.692157E+04 -1.424018E+05  4.870991E+04 -2.107927E+03 -8.542297E+03 -1.120031E+04
        53  21  4.089520E+04 -1.480956E+05  3.413635E+04 -8.291123E+03 -2.701304E+03 -1.515248E+04
        53  22  1.160112E+03 -4.038688E+05 -8.068661E+03 -3.563866E+02 -8.868506E+03 -5.945748E+03
        53  23  3.090850E+03 -3.999599E+05 -1.275703E+04  4.539121E+02 -8.539466E+03 -1.281978E+04
        53  24 -2.292052E+04 -4.038734E+05 -2.889588E+04 -4.045599E+02 -2.692194E+03 -1.968222E+04
        53  25 -6.320203E+04 -6.636537E+05 -6.999970E+04 -3.118288E+03 -8.871016E+03 -4.655417E+03
        53  26 -6.074464E+04 -6.574572E+05 -7.422862E+04  3.014712E+03 -8.536647E+03 -1.443859E+04
        53  27 -8.674089E+04 -6.595915E+05 -9.193284E+04  7.478779E+03 -2.683198E+03 -2.421009E+04
        54   1  2.172107E+04  2.335436E+05  1.236501E+04 -2.131444E+01  7.598961E+03 -1.350225E+02
        54   2  2.174257E+04  2.335356E+05  1.251661E+04 -9.008753E+00  7.570436E+03 -3.399948E+02
        54   3  2.181367E+04  2.335671E+05  1.281418E+04  1.809074E+00  7.507442E+03 -5.449752E+02
        54   4 -2.444529E+00  1.371299E+05  1.401598E+02 -3.314391E-01  7.599082E+03 -1.078588E+02
        54   5  8.987885E+00  1.371173E+05  2.460133E+02  4.153640E-01  7.570548E+03 -2.300596E+02
        54   6  5.565664E+01  1.371299E+05  4.403763E+02 -3.258658E-01  7.507541E+03 -3.522673E+02
        54   7 -2.172634E+04  4.072569E+04 -1.208472E+04  2.064837E+01  7.599204E+03 -8.069901E+01
        54   8 -2.172498E+04  4.070849E+04 -1.202462E+04  9.838200E+00  7.570659E+03 -1.201407E+02
        54   9 -2.170274E+04  4.070215E+04 -1.193347E+04 -2.460175E+00  7.507639E+03 -1.595880E+02
        54  10  2.172101E+04  2.335436E+05  1.236490E+04 -2.131361E+01  1.301008E-09 -6.633565E-08
        54  11  2.174251E+04  2.335355E+05  1.251650E+04 -9.006680E+00  2.204539E-09  7.691306E-10
        54  12  2.181361E+04  2.335671E+05  1.281407E+04  1.812368E+00  7.684280E-10  6.875635E-08
        54  13 -2.506545E+00  1.371299E+05  1.400512E+02 -3.307789E-01  1.537525E-09  1.180006E-10
        54  14  8.926322E+00  1.371172E+05  2.459055E+02  4.167666E-01  1.029305E-09 -2.651488E-10
        54  15  5.559608E+01  1.371298E+05  4.402702E+02 -3.237360E-01  2.281834E-09  1.421620E-10
        54  16 -2.172641E+04  4.072567E+04 -1.208483E+04  2.064886E+01  1.551991E-09  6.617776E-08
        54  17 -2.172504E+04  4.070848E+04 -1.202473E+04  9.838932E+00  5.603677E-10 -8.722592E-10
        54  18 -2.170280E+04  4.070213E+04 -1.193358E+04 -2.459210E+00  3.036368E-10 -6.869226E-08
        54  19  2.172107E+04  2.335436E+05  1.236501E+04 -2.131444E+01 -7.598961E+03  1.350225E+02
        54  20  2.174257E+04  2.335356E+05  1.251661E+04 -9.008753E+00 -7.570436E+03  3.399948E+02
        54  21  2.181367E+04  2.335671E+05  1.281418E+04  1.809074E+00 -7.507442E+03  5.449752E+02
        54  22 -2.444529E+00  1.371299E+05  1.401598E+02 -3.314389E-01 -7.599082E+03  1.078588E+02
        54  23  8.987885E+00  1.371173E+05  2.460133E+02  4.153640E-01 -7.570548E+03  2.300596E+02
        54  24  5.565664E+01  1.371299E+05  4.403763E+02 -3.258659E-01 -7.507541E+03  3.522673E+02
        54  25 -2.172634E+04  4.072569E+04 -1.208472E+04  2.064837E+01 -7.599204E+03  8.069901E+01
        54  26 -2.172498E+04  4.070849E+04 -1.202462E+04  9.838200E+00 -7.570659E+03  1.201407E+02
        54  27 -2.170274E+04  4.070215E+04 -1.193347E+04 -2.460175E+00 -7.507639E+03  1.595880E+02
        55   1  2.185747E+04  2.336236E+05  1.302741E+04 -2.634135E+01  7.467664E+03 -6.511350E+02
        55   2  2.210412E+04  2.335067E+05  1.381611E+04  2.314681E+02  7.251364E+03 -1.788167E+03
        55   3  2.282461E+04  2.336567E+05  1.546345E+04  4.694971E+02  6.779490E+03 -2.925246E+03
        55   4  8.041432E+01  1.371599E+05  5.848217E+02 -4.399390E+00  7.467757E+03 -4.382298E+02
        55   5  2.686511E+02  1.370796E+05  1.044443E+03  5.538934E+00  7.251361E+03 -9.616168E+02
        55   6  8.242520E+02  1.371598E+05  1.936728E+03 -4.303668E+00  6.779371E+03 -1.485050E+03
        55   7 -2.169703E+04  4.070577E+04 -1.185782E+04  1.753929E+01  7.467850E+03 -2.253561E+02
        55   8 -2.156721E+04  4.066209E+04 -1.172729E+04 -2.203532E+02  7.251357E+03 -1.351892E+02
        55   9 -2.117652E+04  4.067238E+04 -1.159011E+04 -4.780273E+02  6.779250E+03 -4.506828E+01
        55  10  2.185741E+04  2.336236E+05  1.302731E+04 -2.633743E+01  1.332167E-10  2.246520E-09
        55  11  2.210407E+04  2.335067E+05  1.381600E+04  2.314785E+02 -4.467848E-10  2.011794E-09
        55  12  2.282456E+04  2.336567E+05  1.546335E+04  4.695131E+02 -1.275708E-09  2.985082E-09
        55  13  8.035438E+01  1.371599E+05  5.847165E+02 -4.396755E+00  1.746282E-09  1.203915E-10
        55  14  2.685944E+02  1.370796E+05  1.044342E+03  5.544550E+00  9.174483E-10 -3.197075E-10
        55  15  8.242020E+02  1.371598E+05  1.936638E+03 -4.295561E+00 -1.560982E-10  2.302368E-10
        55  16 -2.169709E+04  4.070576E+04 -1.185792E+04  1.754065E+01  9.849627E-11 -2.478329E-09
        55  17 -2.156727E+04  4.066208E+04 -1.172739E+04 -2.203524E+02  6.113778E-11 -2.125195E-09
        55  18 -2.117657E+04  4.067237E+04 -1.159019E+04 -4.780270E+02 -1.395205E-10 -2.924599E-09
        55  19  2.185747E+04  2.336236E+05  1.302741E+04 -2.634135E+01 -7.467664E+03  6.511350E+02
        55  20  2.210412E+04  2.335067E+05  1.381611E+04  2.314681E+02 -7.251364E+03  1.788167E+03
        55  21  2.282461E+04  2.336567E+05  1.546345E+04  4.694971E+02 -6.779490E+03  2.925246E+03
        55  22  8.041432E+01  1.371599E+05  5.848217E+02 -4.399390E+00 -7.467757E+03  4.382298E+02
        55  23  2.686511E+02  1.370796E+05  1.044443E+03  5.538934E+00 -7.251361E+03  9.616168E+02
        55  24  8.242520E+02  1.371598E+05  1.936728E+03 -4.303668E+00 -6.779371E+03  1.485050E+03
        55  25 -2.169703E+04  4.070577E+04 -1.185782E+04  1.753929E+01 -7.467850E+03  2.253561E+02
        55  26 -2.156721E+04  4.066209E+04 -1.172729E+04 -2.203532E+02 -7.251357E+03  1.351892E+02
        55  27 -2.117652E+04  4.067238E+04 -1.159011E+04 -4.780273E+02 -6.779250E+03  4.506828E+01
        56   1  2.326451E+04  2.340398E+05  1.662625E+04  2.998183E+02  6.481487E+03 -3.413593E+03
        56   2  2.578529E+04  2.330642E+05  2.125161E+04  3.269188E+03  4.874616E+03 -1.039951E+04
        56   3  3.272805E+04  2.341038E+05  3.152956E+04  6.078077E+03  1.376658E+03 -1.738579E+04
        56   4  1.134465E+03  1.373969E+05  2.597251E+03 -3.565635E+01  6.481326E+03 -1.822953E+03
        56   5  3.244340E+03  1.367830E+05  4.800439E+03  4.521149E+01  4.873649E+03 -4.268734E+03
        56   6  8.988470E+03  1.373964E+05  9.504211E+03 -3.438442E+01  1.374816E+03 -6.714881E+03
        56   7 -2.099601E+04  4.076349E+04 -1.143189E+04 -3.710762E+02  6.481163E+03 -2.325504E+02
        56   8 -1.929704E+04  4.051103E+04 -1.165090E+04 -3.178249E+03  4.872619E+03  1.861126E+03
        56   9 -1.475155E+04  4.069801E+04 -1.252129E+04 -6.145886E+03  1.372764E+03  3.954378E+03
        56  10  2.326446E+04  2.340398E+05  1.662615E+04  2.998361E+02 -1.251201E-09  7.172613E-08
        56  11  2.578523E+04  2.330641E+05  2.125137E+04  3.269229E+03 -1.168934E-09  2.260095E-09
        56  12  3.272796E+04  2.341035E+05  3.152898E+04  6.078097E+03  2.317824E-10 -6.606290E-08
        56  13  1.134419E+03  1.373969E+05  2.597166E+03 -3.564683E+01 -2.369419E-09  2.126466E-10
        56  14  3.244310E+03  1.367830E+05  4.800360E+03  4.522825E+01  3.818524E-12 -3.789910E-10
        56  15  8.988456E+03  1.373964E+05  9.504123E+03 -3.437699E+01 -3.432432E-10  2.632333E-10
        56  16 -2.099605E+04  4.076348E+04 -1.143197E+04 -3.710750E+02 -6.931245E-10 -7.194482E-08
        56  17 -1.929707E+04  4.051102E+04 -1.165095E+04 -3.178256E+03 -1.223195E-09 -2.343845E-09
        56  18 -1.475156E+04  4.069800E+04 -1.252133E+04 -6.145890E+03  1.180006E-10  6.612541E-08
        56  19  2.326451E+04  2.340398E+05  1.662625E+04  2.998183E+02 -6.481487E+03  3.413593E+03
        56  20  2.578529E+04  2.330642E+05  2.125161E+04  3.269188E+03 -4.874616E+03  1.039951E+04
        56  21  3.272805E+04  2.341038E+05  3.152956E+04  6.078077E+03 -1.376658E+03  1.738579E+04
        56  22  1.134465E+03  1.373969E+05  2.597251E+03 -3.565635E+01 -6.481326E+03  1.822953E+03
        56  23  3.244340E+03  1.367830E+05  4.800439E+03  4.521149E+01 -4.873649E+03  4.268734E+03
        56  24  8.988470E+03  1.373964E+05  9.504211E+03 -3.438442E+01 -1.374816E+03  6.714881E+03
        56  25 -2.099601E+04  4.076349E+04 -1.143189E+04 -3.710762E+02 -6.481163E+03  2.325504E+02
        56  26 -1.929704E+04  4.051103E+04 -1.165090E+04 -3.178249E+03 -4.872619E+03 -1.861126E+03
        56  27 -1.475155E+04  4.069801E+04 -1.252129E+04 -6.145886E+03 -1.372764E+03 -3.954378E+03
        57   1 -2.829692E+06 -8.337497E+05 -5.122429E+05 -9.893215E+05 -2.528788E+05 -9.077883E+04
        57   2 -2.753666E+06 -4.549931E+05 -2.742418E+05 -1.034407E+06 -1.640724E+05 -4.861024E+04
        57   3 -2.811807E+06 -4.659726E+05 -2.066109E+05 -1.003009E+06 -7.187195E+04 -1.545050E+04
        57   4 -2.433079E+06 -6.180293E+05 -3.904312E+05 -8.141595E+05 -2.486406E+05 -8.921601E+04
        57   5 -2.346301E+06 -2.833810E+05 -1.610802E+05 -9.050912E+05 -1.630121E+05 -4.821772E+04
        57   6 -2.392963E+06 -3.376949E+05 -9.948751E+04 -9.195686E+05 -7.398896E+04 -1.624241E+04
        57   7 -2.036306E+06 -4.022430E+05 -2.686355E+05 -6.388805E+05 -2.443993E+05 -8.765092E+04
        57   8 -1.938776E+06 -1.117481E+05 -4.793457E+04 -7.756953E+05 -1.619509E+05 -4.782482E+04
        57   9 -1.973950E+06 -2.094194E+05  7.622362E+03 -8.360839E+05 -7.610753E+04 -1.703465E+04
        57  10 -2.829763E+06 -8.337758E+05 -5.123793E+05 -9.893401E+05 -3.453274E-10  2.391219E-10
        57  11 -2.753696E+06 -4.550029E+05 -2.742971E+05 -1.034413E+06  1.243756E-09  6.395930E-10
        57  12 -2.811812E+06 -4.659742E+05 -2.066211E+05 -1.003010E+06  1.633441E-09  6.012673E-10
        57  13 -2.433148E+06 -6.180545E+05 -3.905629E+05 -8.141774E+05  1.779684E-09 -3.321280E-10
        57  14 -2.346330E+06 -2.833907E+05 -1.611348E+05 -9.050975E+05  3.432409E-09  2.574452E-10
        57  15 -2.392969E+06 -3.376966E+05 -9.949834E+04 -9.195696E+05  2.758765E-09  8.593908E-10
        57  16 -2.036372E+06 -4.022674E+05 -2.687627E+05 -6.388978E+05  1.951750E-10  8.321648E-10
        57  17 -1.938804E+06 -1.117577E+05 -4.798835E+04 -7.757015E+05  1.930295E-09  8.447491E-10
        57  18 -1.973956E+06 -2.094213E+05  7.610890E+03 -8.360849E+05  2.037899E-09  1.139446E-09
        57  19 -2.829692E+06 -8.337497E+05 -5.122429E+05 -9.893215E+05  2.528788E+05  9.077883E+04
        57  20 -2.753666E+06 -4.549931E+05 -2.742418E+05 -1.034407E+06  1.640724E+05  4.861024E+04
        57  21 -2.811807E+06 -4.659726E+05 -2.066109E+05 -1.003009E+06  7.187195E+04  1.545050E+04
        57  22 -2.433079E+06 -6.180293E+05 -3.904312E+05 -8.141595E+05  2.486406E+05  8.921601E+04
        57  23 -2.346301E+06 -2.833810E+05 -1.610802E+05 -9.050912E+05  1.630121E+05  4.821772E+04
        57  24 -2.392963E+06 -3.376949E+05 -9.948751E+04 -9.195686E+05  7.398896E+04  1.624241E+04
        57  25 -2.036306E+06 -4.022430E+05 -2.686355E+05 -6.388805E+05  2.443993E+05  8.765092E+04
        57  26 -1.938776E+06 -1.117481E+05 -4.793457E+04 -7.756953E+05  1.619509E+05  4.782482E+04
        57  27 -1.973950E+06 -2.094194E+05  7.622362E+03 -8.360839E+05  7.610753E+04  1.703465E+04
        58   1 -2.713731E+06 -5.162042E+05 -1.733595E+05 -9.955528E+05 -5.880464E+04 -1.275025E+04
        58   2 -2.686541E+06 -4.474654E+05 -1.215538E+05 -9.818196E+05 -3.838977E+04 -5.358255E+03
        58   3 -2.656541E+06 -4.491912E+05 -9.781892E+04 -9.825651E+05 -1.757343E+04  9.664528E+02
        58   4 -2.379055E+06 -3.821210E+05 -8.145681E+04 -8.964591E+05 -5.872134E+04 -1.272022E+04
        58   5 -2.377964E+06 -3.291547E+05 -3.798665E+04 -8.958806E+05 -3.867839E+04 -5.467019E+03
        58   6 -2.373980E+06 -3.465637E+05 -2.227961E+04 -9.097825E+05 -1.823504E+04  7.183034E+02
        58   7 -2.044270E+06 -2.480270E+05  1.043578E+04 -7.973155E+05 -5.863798E+04 -1.269016E+04
        58   8 -2.069294E+06 -2.108376E+05  4.557208E+04 -8.099026E+05 -3.896717E+04 -5.575843E+03
        58   9 -2.091342E+06 -2.439330E+05  5.325275E+04 -8.369707E+05 -1.889698E+04  4.700405E+02
        58  10 -2.713735E+06 -5.162054E+05 -1.733663E+05 -9.955534E+05  1.469378E-09  6.158703E-10
        58  11 -2.686543E+06 -4.474658E+05 -1.215567E+05 -9.818198E+05  1.213121E-09 -5.050291E-10
        58  12 -2.656542E+06 -4.491913E+05 -9.781951E+04 -9.825651E+05 -9.960865E-10 -6.391568E-10
        58  13 -2.379059E+06 -3.821221E+05 -8.146362E+04 -8.964597E+05  1.535310E-09  4.823042E-10
        58  14 -2.377965E+06 -3.291552E+05 -3.798952E+04 -8.958808E+05 -1.057364E-09 -4.068703E-10
        58  15 -2.373980E+06 -3.465638E+05 -2.228023E+04 -9.097825E+05 -6.161930E-10 -3.791377E-10
        58  16 -2.044274E+06 -2.480281E+05  1.042899E+04 -7.973161E+05  7.231496E-10  3.163519E-10
        58  17 -2.069296E+06 -2.108380E+05  4.556916E+04 -8.099027E+05 -2.380999E-10 -3.644801E-10
        58  18 -2.091342E+06 -2.439331E+05  5.325208E+04 -8.369707E+05  4.761514E-10 -2.146853E-10
        58  19 -2.713731E+06 -5.162042E+05 -1.733595E+05 -9.955528E+05  5.880464E+04  1.275025E+04
        58  20 -2.686541E+06 -4.474654E+05 -1.215538E+05 -9.818196E+05  3.838977E+04  5.358255E+03
        58  21 -2.656541E+06 -4.491912E+05 -9.781892E+04 -9.825651E+05  1.757343E+04 -9.664528E+02
        58  22 -2.379055E+06 -3.821210E+05 -8.145681E+04 -8.964591E+05  5.872134E+04  1.272022E+04
        58  23 -2.377964E+06 -3.291547E+05 -3.798665E+04 -8.958806E+05  3.867839E+04  5.467019E+03
        58  24 -2.373980E+06 -3.465637E+05 -2.227961E+04 -9.097825E+05  1.823504E+04 -7.183034E+02
        58  25 -2.044270E+06 -2.480270E+05  1.043578E+04 -7.973155E+05  5.863798E+04  1.269016E+04
        58  26 -2.069294E+06 -2.108376E+05  4.557208E+04 -8.099026E+05  3.896717E+04  5.575843E+03
        58  27 -2.091342E+06 -2.439330E+05  5.325275E+04 -8.369707E+05  1.889698E+04 -4.700405E+02
        59   1 -2.581620E+06 -4.328032E+05 -7.432272E+04 -9.655435E+05 -1.422575E+04  1.183697E+03
        59   2 -2.558740E+06 -4.006304E+05 -5.629243E+04 -9.417998E+05 -9.146701E+03  1.657123E+03
        59   3 -2.512141E+06 -4.010018E+05 -4.332382E+04 -9.470388E+05 -4.002672E+03  1.955801E+03
        59   4 -2.371404E+06 -3.527465E+05 -1.758445E+04 -9.075295E+05 -1.464660E+04  1.025815E+03
        59   5 -2.382949E+06 -3.342383E+05 -8.875988E+03 -8.938761E+05 -9.628613E+03  1.476514E+03
        59   6 -2.370763E+06 -3.482608E+05 -5.179168E+03 -9.092054E+05 -4.545932E+03  1.752377E+03
        59   7 -2.161145E+06 -2.726872E+05  3.914975E+04 -8.494979E+05 -1.506760E+04  8.678732E+02
        59   8 -2.207127E+06 -2.678445E+05  3.853770E+04 -8.459400E+05 -1.011068E+04  1.295848E+03
        59   9 -2.229364E+06 -2.955186E+05  3.296378E+04 -8.713642E+05 -5.089331E+03  1.548904E+03
        59  10 -2.581620E+06 -4.328032E+05 -7.432311E+04 -9.655435E+05  9.854957E-11  1.987921E-10
        59  11 -2.558740E+06 -4.006304E+05 -5.629259E+04 -9.417998E+05  7.739547E-10 -8.776279E-10
        59  12 -2.512141E+06 -4.010018E+05 -4.332386E+04 -9.470387E+05 -4.600951E-09 -2.035962E-09
        59  13 -2.371404E+06 -3.527466E+05 -1.758486E+04 -9.075295E+05 -2.825926E-10 -2.844006E-10
        59  14 -2.382949E+06 -3.342384E+05 -8.876167E+03 -8.938760E+05 -6.550231E-10 -4.274589E-10
        59  15 -2.370763E+06 -3.482608E+05 -5.179213E+03 -9.092054E+05 -6.642465E-09 -1.866382E-09
        59  16 -2.161146E+06 -2.726872E+05  3.914932E+04 -8.494978E+05  7.934396E-11 -5.920440E-11
        59  17 -2.207127E+06 -2.678445E+05  3.853751E+04 -8.459400E+05 -1.010551E-09  6.743372E-11
        59  18 -2.229364E+06 -2.955186E+05  3.296373E+04 -8.713642E+05 -6.184122E-09 -2.011699E-09
        59  19 -2.581620E+06 -4.328032E+05 -7.432272E+04 -9.655435E+05  1.422575E+04 -1.183697E+03
        59  20 -2.558740E+06 -4.006304E+05 -5.629243E+04 -9.417998E+05  9.146701E+03 -1.657123E+03
        59  21 -2.512141E+06 -4.010018E+05 -4.332382E+04 -9.470388E+05  4.002672E+03 -1.955801E+03
        59  22 -2.371404E+06 -3.527465E+05 -1.758445E+04 -9.075295E+05  1.464660E+04 -1.025815E+03
        59  23 -2.382949E+06 -3.342383E+05 -8.875988E+03 -8.938761E+05  9.628613E+03 -1.476514E+03
        59  24 -2.370763E+06 -3.482608E+05 -5.179168E+03 -9.092054E+05  4.545932E+03 -1.752377E+03
        59  25 -2.161145E+06 -2.726872E+05  3.914975E+04 -8.494979E+05  1.506760E+04 -8.678732E+02
        59  26 -2.207127E+06 -2.678445E+05  3.853770E+04 -8.459400E+05  1.011068E+04 -1.295848E+03
        59  27 -2.229364E+06 -2.955186E+05  3.296378E+04 -8.713642E+05  5.089331E+03 -1.548904E+03
        60   1 -2.435337E+06 -3.738398E+05 -2.153801E+04 -9.269654E+05 -2.945572E+03  1.365342E+03
        60   2 -2.412232E+06 -3.452781E+05 -1.009902E+04 -9.010167E+05 -1.155719E+03  3.859777E+02
        60   3 -2.361675E+06 -3.455216E+05  1.760098E+02 -9.069823E+05  6.421822E+02 -6.151269E+02
        60   4 -2.370185E+06 -3.492418E+05 -4.098567E+03 -9.091774E+05 -3.460231E+03  1.172692E+03
        60   5 -2.383876E+06 -3.345943E+05 -2.456062E+03 -8.933118E+05 -1.678053E+03  1.904780E+02
        60   6 -2.370115E+06 -3.487503E+05 -1.971119E+03 -9.093607E+05  1.120892E+02 -8.135013E+02
        60   7 -2.305030E+06 -3.246436E+05  1.334051E+04 -8.913878E+05 -3.974949E+03  9.800201E+02
        60   8 -2.355520E+06 -3.239104E+05  5.186819E+03 -8.856066E+05 -2.200412E+03 -5.031333E+00
        60   9 -2.378555E+06 -3.519789E+05 -4.118248E+03 -9.117391E+05 -4.179947E+02 -1.011872E+03
        60  10 -2.435337E+06 -3.738398E+05 -2.153803E+04 -9.269654E+05 -5.022461E-09 -1.799616E-09
        60  11 -2.412232E+06 -3.452781E+05 -1.009902E+04 -9.010167E+05 -8.575884E-10  4.229357E-10
        60  12 -2.361675E+06 -3.455216E+05  1.760083E+02 -9.069823E+05 -4.122006E-11  6.560916E-10
        60  13 -2.370185E+06 -3.492418E+05 -4.098592E+03 -9.091774E+05 -6.319963E-09 -1.543325E-09
        60  14 -2.383876E+06 -3.345943E+05 -2.456067E+03 -8.933118E+05 -2.089985E-09 -1.282335E-09
        60  15 -2.370115E+06 -3.487503E+05 -1.971121E+03 -9.093607E+05 -1.454383E-09  3.798460E-11
        60  16 -2.305030E+06 -3.246436E+05  1.334048E+04 -8.913878E+05 -4.338174E-09 -6.606657E-10
        60  17 -2.355520E+06 -3.239104E+05  5.186810E+03 -8.856066E+05  8.430247E-10 -3.830219E-10
        60  18 -2.378555E+06 -3.519789E+05 -4.118250E+03 -9.117391E+05  8.539260E-11 -4.429529E-10
        60  19 -2.435337E+06 -3.738398E+05 -2.153801E+04 -9.269654E+05  2.945572E+03 -1.365342E+03
        60  20 -2.412232E+06 -3.452781E+05 -1.009902E+04 -9.010167E+05  1.155719E+03 -3.859777E+02
        60  21 -2.361675E+06 -3.455216E+05  1.760098E+02 -9.069823E+05 -6.421822E+02  6.151269E+02
        60  22 -2.370185E+06 -3.492418E+05 -4.098567E+03 -9.091774E+05  3.460231E+03 -1.172692E+03
        60  23 -2.383876E+06 -3.345943E+05 -2.456062E+03 -8.933118E+05  1.678053E+03 -1.904780E+02
        60  24 -2.370115E+06 -3.487503E+05 -1.971119E+03 -9.093607E+05 -1.120892E+02  8.135013E+02
        60  25 -2.305030E+06 -3.246436E+05  1.334051E+04 -8.913878E+05  3.974949E+03 -9.800201E+02
        60  26 -2.355520E+06 -3.239104E+05  5.186819E+03 -8.856066E+05  2.200412E+03  5.031333E+00
        60  27 -2.378555E+06 -3.519789E+05 -4.118248E+03 -9.117391E+05  4.179947E+02  1.011872E+03
        61   1 -2.284762E+06 -3.164676E+05  2.120013E+04 -8.860754E+05  1.293363E+03 -1.359042E+03
        61   2 -2.262299E+06 -2.890628E+05  3.027160E+04 -8.605560E+05  3.050094E+03 -2.358849E+03
        61   3 -2.213003E+06 -2.897851E+05  3.821688E+04 -8.661702E+05  4.783685E+03 -3.294987E+03
        61   4 -2.370256E+06 -3.485988E+05 -1.966477E+03 -9.091893E+05  7.609465E+02 -1.558319E+03
        61   5 -2.383706E+06 -3.347855E+05 -2.446343E+03 -8.935276E+05  2.540211E+03 -2.549800E+03
        61   6 -2.370329E+06 -3.491046E+05 -4.070558E+03 -9.090008E+05  4.296251E+03 -3.477631E+03
        61   7 -2.455743E+06 -3.807297E+05 -2.513379E+04 -9.323004E+05  2.286101E+02 -1.757565E+03
        61   8 -2.505098E+06 -3.805074E+05 -3.516564E+04 -9.264934E+05  2.030437E+03 -2.740711E+03
        61   9 -2.527631E+06 -4.084227E+05 -4.636019E+04 -9.518216E+05  3.808955E+03 -3.660225E+03
        61  10 -2.284762E+06 -3.164676E+05  2.120013E+04 -8.860754E+05 -7.107684E-10  4.061301E-10
        61  11 -2.262299E+06 -2.890628E+05  3.027158E+04 -8.605559E+05 -6.992509E-10 -3.519172E-10
        61  12 -2.213003E+06 -2.897851E+05  3.821682E+04 -8.661702E+05  1.083234E-09  1.308494E-09
        61  13 -2.370256E+06 -3.485988E+05 -1.966483E+03 -9.091893E+05 -1.618562E-09 -5.126365E-10
        61  14 -2.383706E+06 -3.347855E+05 -2.446367E+03 -8.935276E+05  1.004753E-10  1.209226E-09
        61  15 -2.370329E+06 -3.491046E+05 -4.070615E+03 -9.090008E+05  1.547603E-09  1.274422E-09
        61  16 -2.455743E+06 -3.807297E+05 -2.513380E+04 -9.323004E+05 -1.252184E-09 -1.078254E-09
        61  17 -2.505098E+06 -3.805074E+05 -3.516566E+04 -9.264934E+05  1.624083E-09  5.197246E-10
        61  18 -2.527631E+06 -4.084227E+05 -4.636025E+04 -9.518215E+05  1.493625E-09  6.704667E-10
        61  19 -2.284762E+06 -3.164676E+05  2.120013E+04 -8.860754E+05 -1.293363E+03  1.359042E+03
        61  20 -2.262299E+06 -2.890628E+05  3.027160E+04 -8.605560E+05 -3.050094E+03  2.358849E+03
        61  21 -2.213003E+06 -2.897851E+05  3.821688E+04 -8.661702E+05 -4.783685E+03  3.294987E+03
        61  22 -2.370256E+06 -3.485988E+05 -1.966477E+03 -9.091893E+05 -7.609465E+02  1.558319E+03
        61  23 -2.383706E+06 -3.347855E+05 -2.446343E+03 -8.935276E+05 -2.540211E+03  2.549800E+03
        61  24 -2.370329E+06 -3.491046E+05 -4.070558E+03 -9.090008E+05 -4.296251E+03  3.477631E+03
        61  25 -2.455743E+06 -3.807297E+05 -2.513379E+04 -9.323004E+05 -2.286101E+02  1.757565E+03
        61  26 -2.505098E+06 -3.805074E+05 -3.516564E+04 -9.264934E+05 -2.030437E+03  2.740711E+03
        61  27 -2.527631E+06 -4.084227E+05 -4.636019E+04 -9.518216E+05 -3.808955E+03  3.660225E+03
        62   1 -2.141254E+06 -2.617257E+05  5.686026E+04 -8.467775E+05  5.883356E+03 -3.824021E+03
        62   2 -2.120685E+06 -2.359790E+05  6.176807E+04 -8.231590E+05  1.082421E+04 -3.504913E+03
        62   3 -2.078196E+06 -2.407512E+05  6.178486E+04 -8.262587E+05  1.568322E+04 -2.963789E+03
        62   4 -2.371178E+06 -3.478377E+05 -5.137649E+03 -9.086983E+05  5.361043E+03 -4.019854E+03
        62   5 -2.382449E+06 -3.348006E+05 -8.814318E+03 -8.945042E+05  1.037952E+04 -3.671875E+03
        62   6 -2.371817E+06 -3.523002E+05 -1.744530E+04 -9.070292E+05  1.531589E+04 -3.101935E+03
        62   7 -2.601050E+06 -4.339466E+05 -6.714013E+04 -9.705983E+05  4.838944E+03 -4.215607E+03
        62   8 -2.644146E+06 -4.336181E+05 -7.940280E+04 -9.658222E+05  9.935030E+03 -3.838759E+03
        62   9 -2.665356E+06 -4.638440E+05 -9.668330E+04 -9.877653E+05  1.494874E+04 -3.240009E+03
        62  10 -2.141254E+06 -2.617258E+05  5.686017E+04 -8.467775E+05  3.146875E-09  1.708414E-09
        62  11 -2.120685E+06 -2.359791E+05  6.176782E+04 -8.231590E+05  1.299752E-09  1.832584E-10
        62  12 -2.078196E+06 -2.407512E+05  6.178438E+04 -8.262587E+05 -6.896189E-10 -3.035982E-10
        62  13 -2.371178E+06 -3.478377E+05 -5.137734E+03 -9.086983E+05  2.839521E-09  1.281575E-09
        62  14 -2.382449E+06 -3.348006E+05 -8.814546E+03 -8.945042E+05  1.298022E-09  2.598812E-10
        62  15 -2.371817E+06 -3.523002E+05 -1.744576E+04 -9.070292E+05  3.868586E-10 -2.781044E-10
        62  16 -2.601050E+06 -4.339466E+05 -6.714021E+04 -9.705983E+05  1.434854E-09  9.921346E-10
        62  17 -2.644147E+06 -4.336181E+05 -7.940301E+04 -9.658222E+05 -3.107493E-10  6.364919E-10
        62  18 -2.665356E+06 -4.638441E+05 -9.668374E+04 -9.877653E+05 -2.677003E-11  2.750428E-10
        62  19 -2.141254E+06 -2.617257E+05  5.686026E+04 -8.467775E+05 -5.883356E+03  3.824021E+03
        62  20 -2.120685E+06 -2.359790E+05  6.176807E+04 -8.231590E+05 -1.082421E+04  3.504913E+03
        62  21 -2.078196E+06 -2.407512E+05  6.178486E+04 -8.262587E+05 -1.568322E+04  2.963789E+03
        62  22 -2.371178E+06 -3.478377E+05 -5.137649E+03 -9.086983E+05 -5.361043E+03  4.019854E+03
        62  23 -2.382449E+06 -3.348006E+05 -8.814318E+03 -8.945042E+05 -1.037952E+04  3.671875E+03
        62  24 -2.371817E+06 -3.523002E+05 -1.744530E+04 -9.070292E+05 -1.531589E+04  3.101935E+03
        62  25 -2.601050E+06 -4.339466E+05 -6.714013E+04 -9.705983E+05 -4.838944E+03  4.215607E+03
        62  26 -2.644146E+06 -4.336181E+05 -7.940280E+04 -9.658222E+05 -9.935030E+03  3.838759E+03
        62  27 -2.665356E+06 -4.638440E+05 -9.668330E+04 -9.877653E+05 -1.494874E+04  3.240009E+03
        63   1 -2.015654E+06 -2.143737E+05  7.401448E+04 -8.152526E+05  1.948542E+04 -2.498729E+03
        63   2 -1.996249E+06 -1.843895E+05  6.536183E+04 -7.910864E+05  3.930468E+04  3.627304E+03
        63   3 -1.976669E+06 -2.212071E+05  2.953056E+04 -7.778983E+05  5.867964E+04  1.093969E+04
        63   4 -2.374625E+06 -3.459067E+05 -2.210151E+04 -9.089720E+05  1.885267E+04 -2.736540E+03
        63   5 -2.377190E+06 -3.300869E+05 -3.769736E+04 -8.968654E+05  3.908527E+04  3.544212E+03
        63   6 -2.379675E+06 -3.811707E+05 -8.081360E+04 -8.957358E+05  5.887266E+04  1.101091E+04
        63   7 -2.733471E+06 -4.774341E+05 -1.182288E+05 -1.002643E+06  1.822032E+04 -2.974211E+03
        63   8 -2.757990E+06 -4.757746E+05 -1.407694E+05 -1.002585E+06  3.886600E+04  3.461174E+03
        63   9 -2.782523E+06 -5.411197E+05 -1.911724E+05 -1.013502E+06  5.906552E+04  1.108208E+04
        63  10 -2.015655E+06 -2.143738E+05  7.401375E+04 -8.152526E+05  6.460197E-11 -1.842501E-10
        63  11 -1.996250E+06 -1.843900E+05  6.535889E+04 -7.910865E+05 -5.283222E-12 -6.626095E-10
        63  12 -1.976673E+06 -2.212082E+05  2.952384E+04 -7.778988E+05  7.037630E-10  3.090392E-10
        63  13 -2.374625E+06 -3.459068E+05 -2.210219E+04 -9.089720E+05 -2.971365E-10  3.099846E-11
        63  14 -2.377191E+06 -3.300874E+05 -3.770027E+04 -8.968655E+05  1.306540E-09 -2.289131E-10
        63  15 -2.379679E+06 -3.811718E+05 -8.082037E+04 -8.957363E+05 -5.113026E-10  1.227859E-10
        63  16 -2.733471E+06 -4.774342E+05 -1.182294E+05 -1.002643E+06 -2.121517E-10  1.762716E-10
        63  17 -2.757992E+06 -4.757750E+05 -1.407723E+05 -1.002585E+06  2.970515E-10  1.522759E-10
        63  18 -2.782527E+06 -5.411208E+05 -1.911792E+05 -1.013503E+06 -4.659218E-11 -4.055072E-10
        63  19 -2.015654E+06 -2.143737E+05  7.401448E+04 -8.152526E+05 -1.948542E+04  2.498729E+03
        63  20 -1.996249E+06 -1.843895E+05  6.536183E+04 -7.910864E+05 -3.930468E+04 -3.627304E+03
        63  21 -1.976669E+06 -2.212071E+05  2.953056E+04 -7.778983E+05 -5.867964E+04 -1.093969E+04
        63  22 -2.374625E+06 -3.459067E+05 -2.210151E+04 -9.089720E+05 -1.885267E+04  2.736540E+03
        63  23 -2.377190E+06 -3.300869E+05 -3.769736E+04 -8.968654E+05 -3.908527E+04 -3.544212E+03
        63  24 -2.379675E+06 -3.811707E+05 -8.081360E+04 -8.957358E+05 -5.887266E+04 -1.101091E+04
        63  25 -2.733471E+06 -4.774341E+05 -1.182288E+05 -1.002643E+06 -1.822032E+04  2.974211E+03
        63  26 -2.757990E+06 -4.757746E+05 -1.407694E+05 -1.002585E+06 -3.886600E+04 -3.461174E+03
        63  27 -2.782523E+06 -5.411197E+05 -1.911724E+05 -1.013502E+06 -5.906552E+04 -1.108208E+04
        64   1 -1.916432E+06 -1.862738E+05  2.414681E+04 -8.186282E+05  7.623441E+04  1.531996E+04
        64   2 -1.884820E+06 -9.312754E+04 -3.234715E+04 -7.623315E+05  1.610117E+05  4.596587E+04
        64   3 -1.988682E+06 -3.810041E+05 -2.524032E+05 -6.256031E+05  2.420772E+05  8.646909E+04
        64   4 -2.393661E+06 -3.369149E+05 -9.870456E+04 -9.184546E+05  7.402554E+04  1.449198E+04
        64   5 -2.345495E+06 -2.849513E+05 -1.598251E+05 -9.063161E+05  1.622712E+05  4.643432E+04
        64   6 -2.433606E+06 -6.148807E+05 -3.873612E+05 -8.137165E+05  2.468055E+05  8.822198E+04
        64   7 -2.870670E+06 -4.875579E+05 -2.215742E+05 -1.018219E+06  7.181851E+04  1.366442E+04
        64   8 -2.805964E+06 -4.767494E+05 -2.873226E+05 -1.050199E+06  1.635297E+05  4.690227E+04
        64   9 -2.878326E+06 -8.486825E+05 -5.223378E+05 -1.001689E+06  2.515299E+05  8.997216E+04
        64  10 -1.916439E+06 -1.862757E+05  2.413541E+04 -8.186291E+05  3.191789E-10 -4.971108E-10
        64  11 -1.884848E+06 -9.313681E+04 -3.240002E+04 -7.623375E+05  1.022775E-09 -2.570380E-09
        64  12 -1.988747E+06 -3.810280E+05 -2.525279E+05 -6.256200E+05  5.444518E-10 -1.712706E-09
        64  13 -2.393667E+06 -3.369166E+05 -9.871530E+04 -9.184555E+05  2.728214E-10  4.073662E-10
        64  14 -2.345524E+06 -2.849607E+05 -1.598788E+05 -9.063222E+05  2.706747E-09  1.059555E-09
        64  15 -2.433674E+06 -6.149055E+05 -3.874908E+05 -8.137341E+05  1.228449E-10 -1.563141E-10
        64  16 -2.870676E+06 -4.875595E+05 -2.215843E+05 -1.018220E+06 -1.354899E-09 -6.861774E-10
        64  17 -2.805994E+06 -4.767590E+05 -2.873773E+05 -1.050205E+06 -5.785890E-10  2.825867E-10
        64  18 -2.878397E+06 -8.487084E+05 -5.224726E+05 -1.001707E+06 -7.233458E-11 -2.023583E-10
        64  19 -1.916432E+06 -1.862738E+05  2.414681E+04 -8.186282E+05 -7.623441E+04 -1.531996E+04
        64  20 -1.884820E+06 -9.312754E+04 -3.234715E+04 -7.623315E+05 -1.610117E+05 -4.596587E+04
        64  21 -1.988682E+06 -3.810041E+05 -2.524032E+05 -6.256031E+05 -2.420772E+05 -8.646909E+04
        64  22 -2.393661E+06 -3.369149E+05 -9.870456E+04 -9.184546E+05 -7.402554E+04 -1.449198E+04
        64  23 -2.345495E+06 -2.849513E+05 -1.598251E+05 -9.063161E+05 -1.622712E+05 -4.643432E+04
        64  24 -2.433606E+06 -6.148807E+05 -3.873612E+05 -8.137165E+05 -2.468055E+05 -8.822198E+04
        64  25 -2.870670E+06 -4.875579E+05 -2.215742E+05 -1.018219E+06 -7.181851E+04 -1.366442E+04
        64  26 -2.805964E+06 -4.767494E+05 -2.873226E+05 -1.050199E+06 -1.635297E+05 -4.690227E+04
        64  27 -2.878326E+06 -8.486825E+05 -5.223378E+05 -1.001689E+06 -2.515299E+05 -8.997216E+04
        65   1 -4.077138E+05 -6.034122E+04 -4.746246E+04 -1.736805E+03  3.447716E+04  3.182922E+03
        65   2 -3.967046E+05 -1.065443E+05 -7.275959E+04  2.063683E+03  2.390611E+04  9.254149E+03
        65   3 -3.695053E+05 -9.542319E+04 -7.674801E+04 -1.536001E+04  1.334787E+04  8.206831E+03
        65   4  5.896295E+03  4.290238E+04  5.527287E+04 -1.068231E+04  3.773561E+04  3.188718E+03
        65   5 -2.402079E+03 -8.357324E+03  2.382119E+04 -2.794627E+01  2.476642E+04  9.255080E+03
        65   6  5.895720E+03 -1.895908E+03  1.533366E+04 -1.059681E+04  1.181043E+04  8.204653E+03
        65   7  4.196619E+05  1.461335E+05  1.579955E+05 -1.963385E+04  4.099623E+04  3.194418E+03
        65   8  3.920422E+05  8.981819E+04  1.203906E+05 -2.120965E+03  2.562728E+04  9.256005E+03
        65   9  3.814252E+05  9.162100E+04  1.074050E+05 -5.830758E+03  1.027206E+04  8.202451E+03
        65  10 -4.077151E+05 -6.034155E+04 -4.746471E+04 -1.736893E+03  5.465214E-11  6.978088E-10
        65  11 -3.967053E+05 -1.065446E+05 -7.276082E+04  2.063505E+03  8.973055E-10 -6.691421E-10
        65  12 -3.695055E+05 -9.542331E+04 -7.674847E+04 -1.536010E+04 -6.474830E-10 -1.916390E-10
        65  13  5.894763E+03  4.290199E+04  5.527017E+04 -1.068240E+04  5.393116E-10  2.518233E-10
        65  14 -2.402761E+03 -8.357581E+03  2.381987E+04 -2.813086E+01 -5.298871E-10 -2.209479E-09
        65  15  5.895553E+03 -1.896017E+03  1.533327E+04 -1.059689E+04  1.112804E-09 -1.909900E-11
        65  16  4.196601E+05  1.461330E+05  1.579923E+05 -1.963395E+04 -5.322672E-11 -2.437605E-10
        65  17  3.920414E+05  8.981792E+04  1.203892E+05 -2.121156E+03 -7.233985E-10 -4.210613E-10
        65  18  3.814250E+05  9.162090E+04  1.074047E+05 -5.830825E+03  3.243565E-10 -6.282872E-10
        65  19 -4.077138E+05 -6.034122E+04 -4.746246E+04 -1.736805E+03 -3.447716E+04 -3.182922E+03
        65  20 -3.967046E+05 -1.065443E+05 -7.275959E+04  2.063683E+03 -2.390611E+04 -9.254149E+03
        65  21 -3.695053E+05 -9.542319E+04 -7.674801E+04 -1.536001E+04 -1.334787E+04 -8.206831E+03
        65  22  5.896295E+03  4.290238E+04  5.527287E+04 -1.068231E+04 -3.773561E+04 -3.188718E+03
        65  23 -2.402079E+03 -8.357324E+03  2.382119E+04 -2.794627E+01 -2.476642E+04 -9.255080E+03
        65  24  5.895720E+03 -1.895908E+03  1.533366E+04 -1.059681E+04 -1.181043E+04 -8.204653E+03
        65  25  4.196619E+05  1.461335E+05  1.579955E+05 -1.963385E+04 -4.099623E+04 -3.194418E+03
        65  26  3.920422E+05  8.981819E+04  1.203906E+05 -2.120965E+03 -2.562728E+04 -9.256005E+03
        65  27  3.814252E+05  9.162100E+04  1.074050E+05 -5.830758E+03 -1.027206E+04 -8.202451E+03
        66   1 -3.289266E+05 -7.711212E+04 -6.886750E+04 -9.746526E+03  9.182720E+03  6.732929E+03
        66   2 -3.111867E+05 -7.900171E+04 -7.052114E+04  8.256079E+01  6.239802E+03  6.800919E+03
        66   3 -2.909064E+05 -7.342448E+04 -6.833216E+04 -1.132938E+04  3.297085E+03  6.079829E+03
        66   4  2.791927E+03  5.536790E+03  1.260687E+04 -1.063104E+04  9.342516E+03  6.732855E+03
        66   5  1.499217E+03 -1.113267E+03  6.178100E+03 -7.885059E+00  6.133057E+03  6.800610E+03
        66   6  2.791907E+03 -2.521587E+02  3.775684E+03 -1.062507E+04  2.923894E+03  6.079453E+03
        66   7  3.346107E+05  8.817753E+04  9.407315E+04 -1.151605E+04  9.502396E+03  6.732781E+03
        66   8  3.142742E+05  7.676793E+04  8.287016E+04 -9.839465E+01  6.026257E+03  6.800301E+03
        66   9  2.965688E+05  7.291376E+04  7.587719E+04 -9.920448E+03  2.550526E+03  6.079075E+03
        66  10 -3.289267E+05 -7.711219E+04 -6.886775E+04 -9.746576E+03  2.655557E-10 -7.696179E-10
        66  11 -3.111867E+05 -7.900177E+04 -7.052130E+04  8.252661E+01  1.240012E-10  5.013503E-10
        66  12 -2.909064E+05 -7.342452E+04 -6.833225E+04 -1.132939E+04  1.357084E-10 -5.764110E-10
        66  13  2.791821E+03  5.536718E+03  1.260662E+04 -1.063109E+04 -2.383436E-10 -2.603367E-10
        66  14  1.499164E+03 -1.113327E+03  6.177943E+03 -7.918649E+00 -2.702479E-10 -2.621785E-10
        66  15  2.791888E+03 -2.522007E+02  3.775598E+03 -1.062509E+04  2.509502E-10 -7.733643E-10
        66  16  3.346106E+05  8.817746E+04  9.407290E+04 -1.151610E+04  1.110244E-10  4.181693E-10
        66  17  3.142741E+05  7.676787E+04  8.287001E+04 -9.842764E+01 -1.718048E-09 -1.023777E-09
        66  18  2.965687E+05  7.291372E+04  7.587711E+04 -9.920461E+03 -3.858498E-10 -1.959520E-10
        66  19 -3.289266E+05 -7.711212E+04 -6.886750E+04 -9.746526E+03 -9.182720E+03 -6.732929E+03
        66  20 -3.111867E+05 -7.900171E+04 -7.052114E+04  8.256079E+01 -6.239802E+03 -6.800919E+03
        66  21 -2.909064E+05 -7.342448E+04 -6.833216E+04 -1.132938E+04 -3.297085E+03 -6.079829E+03
        66  22  2.791927E+03  5.536790E+03  1.260687E+04 -1.063104E+04 -9.342516E+03 -6.732855E+03
        66  23  1.499217E+03 -1.113267E+03  6.178100E+03 -7.885059E+00 -6.133057E+03 -6.800610E+03
        66  24  2.791907E+03 -2.521587E+02  3.775684E+03 -1.062507E+04 -2.923894E+03 -6.079453E+03
        66  25  3.346107E+05  8.817753E+04  9.407315E+04 -1.151605E+04 -9.502396E+03 -6.732781E+03
        66  26  3.142742E+05  7.676793E+04  8.287016E+04 -9.839465E+01 -6.026257E+03 -6.800301E+03
        66  27  2.965688E+05  7.291376E+04  7.587719E+04 -9.920448E+03 -2.550526E+03 -6.079075E+03
        67   1 -2.476610E+05 -6.157282E+04 -5.830845E+04 -1.057640E+04  2.503154E+03  5.564769E+03
        67   2 -2.289109E+05 -5.769470E+04 -5.510891E+04 -1.396219E+01  1.739793E+03  4.968359E+03
        67   3 -2.096747E+05 -5.285053E+04 -5.114100E+04 -1.070179E+04  9.759787E+02  4.284611E+03
        67   4  2.333809E+03  6.916412E+02  2.982352E+03 -1.062913E+04  2.318212E+03  5.564554E+03
        67   5  2.088612E+03 -1.542573E+02  1.562087E+03 -4.118080E+00  1.525224E+03  4.968201E+03
        67   6  2.333815E+03 -2.920122E+01  9.305001E+02 -1.062888E+04  7.318075E+02  4.284526E+03
        67   7  2.523855E+05  6.295147E+04  6.426857E+04 -1.068189E+04  2.133194E+03  5.564339E+03
        67   8  2.331367E+05  5.738223E+04  5.822916E+04  5.727494E+00  1.310576E+03  4.968043E+03
        67   9  2.143833E+05  5.278879E+04  5.299869E+04 -1.055595E+04  4.875531E+02  4.284441E+03
        67  10 -2.476610E+05 -6.157285E+04 -5.830852E+04 -1.057641E+04  6.463765E-10  2.651285E-11
        67  11 -2.289109E+05 -5.769473E+04 -5.510896E+04 -1.396915E+01  5.668158E-10  1.873228E-10
        67  12 -2.096747E+05 -5.285055E+04 -5.114103E+04 -1.070180E+04  3.680208E-10  1.082445E-11
        67  13  2.333795E+03  6.916065E+02  2.982284E+03 -1.062914E+04 -9.682718E-10 -3.401099E-10
        67  14  2.088603E+03 -1.542845E+02  1.562037E+03 -4.124183E+00 -5.381708E-10  2.000268E-10
        67  15  2.333809E+03 -2.922107E+01  9.304646E+02 -1.062888E+04 -5.468090E-10  1.209008E-11
        67  16  2.523855E+05  6.295143E+04  6.426850E+04 -1.068190E+04 -3.607532E-11 -4.426154E-10
        67  17  2.331367E+05  5.738220E+04  5.822911E+04  5.722251E+00 -1.276511E-09  3.329972E-11
        67  18  2.143833E+05  5.278877E+04  5.299866E+04 -1.055595E+04  1.657941E-10 -2.642218E-11
        67  19 -2.476610E+05 -6.157282E+04 -5.830845E+04 -1.057640E+04 -2.503154E+03 -5.564769E+03
        67  20 -2.289109E+05 -5.769470E+04 -5.510891E+04 -1.396219E+01 -1.739793E+03 -4.968359E+03
        67  21 -2.096747E+05 -5.285053E+04 -5.114100E+04 -1.070179E+04 -9.759787E+02 -4.284611E+03
        67  22  2.333809E+03  6.916412E+02  2.982352E+03 -1.062913E+04 -2.318212E+03 -5.564554E+03
        67  23  2.088612E+03 -1.542573E+02  1.562087E+03 -4.118080E+00 -1.525224E+03 -4.968201E+03
        67  24  2.333815E+03 -2.920122E+01  9.305001E+02 -1.062888E+04 -7.318075E+02 -4.284526E+03
        67  25  2.523855E+05  6.295147E+04  6.426857E+04 -1.068189E+04 -2.133194E+03 -5.564339E+03
        67  26  2.331367E+05  5.738223E+04  5.822916E+04  5.727494E+00 -1.310576E+03 -4.968043E+03
        67  27  2.143833E+05  5.278879E+04  5.299869E+04 -1.055595E+04 -4.875531E+02 -4.284441E+03
        68   1 -1.660541E+05 -4.182950E+04 -4.051953E+04 -1.060253E+04  8.063341E+02  3.875957E+03
        68   2 -1.471115E+05 -3.721398E+04 -3.625243E+04  2.179091E+01  6.195686E+02  3.205948E+03
        68   3 -1.280688E+05 -3.246775E+04 -3.182232E+04 -1.059817E+04  4.325043E+02  2.526865E+03
        68   4  2.252323E+03  8.169444E+01  7.133415E+02 -1.062765E+04  5.828759E+02  3.875920E+03
        68   5  2.202219E+03 -2.254089E+01  3.779283E+02 -5.673976E+00  3.930124E+02  3.205958E+03
        68   6  2.252328E+03  4.481731E+00  2.076609E+02 -1.062766E+04  2.028558E+02  2.526924E+03
        68   7  1.705845E+05  4.199079E+04  4.194413E+04 -1.065277E+04  3.593572E+02  3.875882E+03
        68   8  1.515362E+05  3.716724E+04  3.700665E+04 -3.314417E+01  1.664018E+02  3.205967E+03
        68   9  1.325890E+05  3.247545E+04  3.223640E+04 -1.065716E+04 -2.684084E+01  2.526982E+03
        68  10 -1.660541E+05 -4.182952E+04 -4.051955E+04 -1.060253E+04 -8.173502E-10 -1.154549E-10
        68  11 -1.471115E+05 -3.721399E+04 -3.625245E+04  2.178931E+01 -1.324526E-09  3.233179E-10
        68  12 -1.280688E+05 -3.246775E+04 -3.182234E+04 -1.059817E+04 -9.933509E-10  3.340945E-10
        68  13  2.252319E+03  8.167821E+01  7.133127E+02 -1.062765E+04 -3.058290E-11  1.618584E-10
        68  14  2.202216E+03 -2.255196E+01  3.779087E+02 -5.674991E+00  3.862231E-13 -2.257746E-10
        68  15  2.252326E+03  4.474863E+00  2.076488E+02 -1.062766E+04 -2.018449E-09 -2.348459E-10
        68  16  1.705845E+05  4.199077E+04  4.194410E+04 -1.065277E+04  8.487337E-10 -4.316734E-10
        68  17  1.515362E+05  3.716723E+04  3.700663E+04 -3.314460E+01 -1.602510E-09 -1.981725E-10
        68  18  1.325890E+05  3.247544E+04  3.223638E+04 -1.065716E+04 -2.675503E-10 -1.831467E-10
        68  19 -1.660541E+05 -4.182950E+04 -4.051953E+04 -1.060253E+04 -8.063341E+02 -3.875957E+03
        68  20 -1.471115E+05 -3.721398E+04 -3.625243E+04  2.179091E+01 -6.195686E+02 -3.205948E+03
        68  21 -1.280688E+05 -3.246775E+04 -3.182232E+04 -1.059817E+04 -4.325043E+02 -2.526865E+03
        68  22  2.252323E+03  8.169444E+01  7.133415E+02 -1.062765E+04 -5.828759E+02 -3.875920E+03
        68  23  2.202219E+03 -2.254089E+01  3.779283E+02 -5.673976E+00 -3.930124E+02 -3.205958E+03
        68  24  2.252328E+03  4.481731E+00  2.076609E+02 -1.062766E+04 -2.028558E+02 -2.526924E+03
        68  25  1.705845E+05  4.199079E+04  4.194413E+04 -1.065277E+04 -3.593572E+02 -3.875882E+03
        68  26  1.515362E+05  3.716724E+04  3.700665E+04 -3.314417E+01 -1.664018E+02 -3.205967E+03
        68  27  1.325890E+05  3.247545E+04  3.223640E+04 -1.065716E+04  2.684084E+01 -2.526982E+03
        69   1 -8.439303E+04 -2.154848E+04 -2.104874E+04 -1.060004E+04  3.991919E+02  2.129428E+03
        69   2 -6.539582E+04 -1.684492E+04 -1.655045E+04  1.796643E+01  3.776061E+02  1.451109E+03
        69   3 -4.640753E+04 -1.212721E+04 -1.203790E+04 -1.060503E+04  3.558899E+02  7.766114E+02
        69   4  2.230990E+03  1.544485E+01  1.424943E+02 -1.062696E+04  1.706660E+02  2.129514E+03
        69   5  2.235588E+03  9.650894E-02  4.057818E+01 -6.536100E+00  1.503590E+02  1.451215E+03
        69   6  2.230992E+03 -1.223053E+00 -4.786446E+01 -1.062697E+04  1.299221E+02  7.767389E+02
        69   7  8.886185E+04  2.157882E+04  2.133318E+04 -1.065388E+04 -5.789164E+01  2.129600E+03
        69   8  6.987116E+04  1.684478E+04  1.663127E+04 -3.104077E+01 -7.691286E+01  1.451322E+03
        69   9  5.087167E+04  1.212459E+04  1.194199E+04 -1.064891E+04 -9.606333E+01  7.768664E+02
        69  10 -8.439304E+04 -2.154849E+04 -2.104875E+04 -1.060004E+04 -4.305651E-10 -9.208685E-11
        69  11 -6.539582E+04 -1.684493E+04 -1.655046E+04  1.796599E+01  3.605859E-11 -3.776302E-10
        69  12 -4.640753E+04 -1.212721E+04 -1.203790E+04 -1.060503E+04 -1.091994E-10  2.608660E-11
        69  13  2.230989E+03  1.543998E+01  1.424857E+02 -1.062696E+04 -1.182793E-10  5.569377E-10
        69  14  2.235588E+03  9.424137E-02  4.057418E+01 -6.536276E+00  5.377320E-10  3.050076E-10
        69  15  2.230992E+03 -1.223706E+00 -4.786562E+01 -1.062697E+04 -1.133981E-09 -7.415746E-10
        69  16  8.886185E+04  2.157881E+04  2.133317E+04 -1.065388E+04 -2.146565E-10  1.032858E-10
        69  17  6.987116E+04  1.684478E+04  1.663127E+04 -3.104068E+01 -7.760567E-10  1.608417E-10
        69  18  5.087167E+04  1.212459E+04  1.194199E+04 -1.064891E+04  3.438473E-10  1.283219E-10
        69  19 -8.439303E+04 -2.154848E+04 -2.104874E+04 -1.060004E+04 -3.991919E+02 -2.129428E+03
        69  20 -6.539582E+04 -1.684492E+04 -1.655045E+04  1.796643E+01 -3.776061E+02 -1.451109E+03
        69  21 -4.640753E+04 -1.212721E+04 -1.203790E+04 -1.060503E+04 -3.558899E+02 -7.766114E+02
        69  22  2.230990E+03  1.544485E+01  1.424943E+02 -1.062696E+04 -1.706660E+02 -2.129514E+03
        69  23  2.235588E+03  9.650896E-02  4.057818E+01 -6.536100E+00 -1.503590E+02 -1.451215E+03
        69  24  2.230992E+03 -1.223053E+00 -4.786446E+01 -1.062697E+04 -1.299221E+02 -7.767389E+02
        69  25  8.886185E+04  2.157882E+04  2.133318E+04 -1.065388E+04  5.789164E+01 -2.129600E+03
        69  26  6.987116E+04  1.684478E+04  1.663127E+04 -3.104077E+01  7.691286E+01 -1.451322E+03
        69  27  5.087167E+04  1.212459E+04  1.194199E+04 -1.064891E+04  9.606333E+01 -7.768664E+02
        70   1 -2.722825E+03 -1.201982E+03 -1.246130E+03 -1.063775E+04  3.783952E+02  3.746150E+02
        70   2  1.630621E+04  3.520978E+03  3.239751E+03 -9.423103E+00  4.681227E+02 -3.064983E+02
        70   3  3.526449E+04  8.123946E+03  7.631010E+03 -1.062159E+04  5.579058E+02 -9.437720E+02
        70   4  2.217341E+03  1.664353E+01 -9.308805E+01 -1.062687E+04  1.421924E+02  3.747555E+02
        70   5  2.254306E+03  2.143866E+01 -2.061986E+02 -6.638536E+00  2.466425E+02 -3.063716E+02
        70   6  2.217341E+03 -9.636246E+01 -4.242096E+02 -1.062693E+04  3.511458E+02 -9.436573E+02
        70   7  7.157530E+03  1.235267E+03  1.059953E+03 -1.061599E+04 -9.401230E+01  3.748959E+02
        70   8 -1.179742E+04 -3.478115E+03 -3.652163E+03 -3.854007E+00  2.516740E+01 -3.062448E+02
        70   9 -3.082881E+04 -8.316751E+03 -8.479508E+03 -1.063227E+04  1.443968E+02 -9.435427E+02
        70  10 -2.722825E+03 -1.201982E+03 -1.246131E+03 -1.063775E+04  9.473024E-11  7.159893E-10
        70  11  1.630621E+04  3.520978E+03  3.239751E+03 -9.422987E+00  1.980685E-10 -2.602765E-10
        70  12  3.526449E+04  8.123944E+03  7.631007E+03 -1.062159E+04 -8.578322E-10  4.108357E-10
        70  13  2.217341E+03  1.664337E+01 -9.308835E+01 -1.062687E+04 -1.768845E-09 -3.321708E-10
        70  14  2.254306E+03  2.143855E+01 -2.061989E+02 -6.638475E+00 -5.375126E-10 -9.964941E-10
        70  15  2.217341E+03 -9.636345E+01 -4.242115E+02 -1.062693E+04 -3.196844E-10  4.379590E-10
        70  16  7.157530E+03  1.235267E+03  1.059952E+03 -1.061599E+04 -7.887960E-10  6.294380E-10
        70  17 -1.179742E+04 -3.478115E+03 -3.652163E+03 -3.854001E+00  6.504636E-10 -9.422966E-10
        70  18 -3.082881E+04 -8.316752E+03 -8.479510E+03 -1.063227E+04  5.995970E-10 -2.641779E-10
        70  19 -2.722825E+03 -1.201982E+03 -1.246130E+03 -1.063775E+04 -3.783952E+02 -3.746150E+02
        70  20  1.630621E+04  3.520978E+03  3.239751E+03 -9.423103E+00 -4.681227E+02  3.064983E+02
        70  21  3.526449E+04  8.123946E+03  7.631010E+03 -1.062159E+04 -5.579058E+02  9.437720E+02
        70  22  2.217341E+03  1.664353E+01 -9.308805E+01 -1.062687E+04 -1.421924E+02 -3.747555E+02
        70  23  2.254306E+03  2.143866E+01 -2.061986E+02 -6.638536E+00 -2.466425E+02  3.063716E+02
        70  24  2.217341E+03 -9.636246E+01 -4.242096E+02 -1.062693E+04 -3.511458E+02  9.436573E+02
        70  25  7.157530E+03  1.235267E+03  1.059953E+03 -1.061599E+04  9.401230E+01 -3.748959E+02
        70  26 -1.179742E+04 -3.478115E+03 -3.652163E+03 -3.854007E+00 -2.516740E+01  3.062448E+02
        70  27 -3.082881E+04 -8.316751E+03 -8.479508E+03 -1.063227E+04 -1.443968E+02  9.435427E+02
        71   1  7.890717E+04  1.917232E+04  1.833921E+04 -1.074535E+04  7.382025E+02 -1.398680E+03
        71   2  9.806202E+04  2.399979E+04  2.256835E+04  2.244517E+00  1.074573E+03 -2.097031E+03
        71   3  1.169065E+05  2.776086E+04  2.631164E+04 -1.048581E+04  1.411281E+03 -2.399021E+03
        71   4  2.158073E+03  4.702078E+01 -5.412859E+02 -1.062574E+04  4.369525E+02 -1.398528E+03
        71   5  2.325003E+03  1.587388E+02 -9.058462E+02 -7.971927E+00  9.064497E+02 -2.096977E+03
        71   6  2.158072E+03 -8.191274E+02 -1.848740E+03 -1.062607E+04  1.376275E+03 -2.399037E+03
        71   7 -7.458566E+04 -1.907872E+04 -1.942222E+04 -1.050614E+04  1.357396E+02 -1.398376E+03
        71   8 -9.340367E+04 -2.368299E+04 -2.438071E+04 -1.818586E+01  7.383525E+02 -2.096923E+03
        71   9 -1.125784E+05 -2.940009E+04 -3.001008E+04 -1.076630E+04  1.341275E+03 -2.399053E+03
        71  10  7.890717E+04  1.917232E+04  1.833921E+04 -1.074535E+04 -8.489524E-10 -2.648442E-10
        71  11  9.806202E+04  2.399979E+04  2.256834E+04  2.246331E+00 -5.105325E-10 -1.661513E-10
        71  12  1.169065E+05  2.776085E+04  2.631162E+04 -1.048581E+04 -1.426503E-10 -1.951103E-10
        71  13  2.158073E+03  4.701863E+01 -5.412899E+02 -1.062574E+04  3.985762E-10  2.699865E-10
        71  14  2.325001E+03  1.587338E+02 -9.058560E+02 -7.970396E+00  5.388283E-10 -8.001871E-11
        71  15  2.158069E+03 -8.191341E+02 -1.848754E+03 -1.062607E+04 -5.812881E-10 -3.399212E-11
        71  16 -7.458566E+04 -1.907872E+04 -1.942222E+04 -1.050614E+04  9.801251E-10  3.493421E-10
        71  17 -9.340367E+04 -2.368300E+04 -2.438072E+04 -1.818462E+01  3.048182E-10  4.920224E-10
        71  18 -1.125784E+05 -2.940010E+04 -3.001010E+04 -1.076630E+04  4.970782E-11 -1.995257E-10
        71  19  7.890717E+04  1.917232E+04  1.833921E+04 -1.074535E+04 -7.382025E+02  1.398680E+03
        71  20  9.806202E+04  2.399979E+04  2.256835E+04  2.244517E+00 -1.074573E+03  2.097031E+03
        71  21  1.169065E+05  2.776086E+04  2.631164E+04 -1.048581E+04 -1.411281E+03  2.399021E+03
        71  22  2.158073E+03  4.702078E+01 -5.412859E+02 -1.062574E+04 -4.369525E+02  1.398528E+03
        71  23  2.325003E+03  1.587388E+02 -9.058462E+02 -7.971927E+00 -9.064497E+02  2.096977E+03
        71  24  2.158072E+03 -8.191274E+02 -1.848740E+03 -1.062607E+04 -1.376275E+03  2.399037E+03
        71  25 -7.458566E+04 -1.907872E+04 -1.942222E+04 -1.050614E+04 -1.357396E+02  1.398376E+03
        71  26 -9.340367E+04 -2.368299E+04 -2.438071E+04 -1.818586E+01 -7.383525E+02  2.096923E+03
        71  27 -1.125784E+05 -2.940009E+04 -3.001008E+04 -1.076630E+04 -1.341275E+03  2.399053E+03
        72   1  1.601786E+05  3.974501E+04  3.663719E+04 -1.129888E+04  2.623703E+03 -3.331911E+03
        72   2  1.802542E+05  4.537220E+04  3.991617E+04  3.397271E+02  3.330373E+03 -4.183973E+03
        72   3  1.982486E+05  4.275089E+04  4.068780E+04 -9.205188E+03  4.037304E+03 -1.462751E+03
        72   4  1.719592E+03  2.793678E+02 -2.245160E+03 -1.061418E+04  1.736645E+03 -3.331699E+03
        72   5  2.864682E+03  1.212893E+03 -3.511191E+03 -2.224574E+01  3.643774E+03 -4.184092E+03
        72   6  1.719602E+03 -6.311659E+03 -8.118697E+03 -1.061422E+04  5.551121E+03 -1.462757E+03
        72   7 -1.567166E+05 -3.918814E+04 -4.112935E+04 -9.929656E+03  8.498121E+02 -3.331489E+03
        72   8 -1.744961E+05 -4.294874E+04 -4.694086E+04 -3.841140E+02  3.957085E+03 -4.184212E+03
        72   9 -1.947744E+05 -5.537710E+04 -5.692807E+04 -1.202281E+04  7.064459E+03 -1.462769E+03
        72  10  1.601786E+05  3.974500E+04  3.663716E+04 -1.129888E+04  2.992451E-10  7.205809E-12
        72  11  1.802541E+05  4.537218E+04  3.991612E+04  3.397383E+02 -6.418011E-10  3.304382E-10
        72  12  1.982486E+05  4.275088E+04  4.068777E+04 -9.205183E+03 -9.675716E-11  1.687772E-10
        72  13  1.719586E+03  2.793551E+02 -2.245187E+03 -1.061418E+04 -6.133025E-10  4.615943E-10
        72  14  2.864664E+03  1.212871E+03 -3.511249E+03 -2.223346E+01 -3.725068E-13  1.630762E-10
        72  15  1.719568E+03 -6.311670E+03 -8.118759E+03 -1.061422E+04 -1.715183E-10  7.794473E-11
        72  16 -1.567166E+05 -3.918815E+04 -4.112937E+04 -9.929653E+03  1.389288E-10 -1.727851E-10
        72  17 -1.744962E+05 -4.294876E+04 -4.694092E+04 -3.841007E+02 -1.545004E-09  1.134646E-10
        72  18 -1.947744E+05 -5.537711E+04 -5.692817E+04 -1.202281E+04 -4.447512E-10  6.269954E-11
        72  19  1.601786E+05  3.974501E+04  3.663719E+04 -1.129888E+04 -2.623703E+03  3.331911E+03
        72  20  1.802542E+05  4.537220E+04  3.991617E+04  3.397271E+02 -3.330373E+03  4.183973E+03
        72  21  1.982486E+05  4.275089E+04  4.068780E+04 -9.205188E+03 -4.037304E+03  1.462751E+03
        72  22  1.719592E+03  2.793678E+02 -2.245160E+03 -1.061418E+04 -1.736645E+03  3.331699E+03
        72  23  2.864682E+03  1.212893E+03 -3.511191E+03 -2.224574E+01 -3.643774E+03  4.184092E+03
        72  24  1.719602E+03 -6.311659E+03 -8.118697E+03 -1.061422E+04 -5.551121E+03  1.462757E+03
        72  25 -1.567166E+05 -3.918814E+04 -4.112935E+04 -9.929656E+03 -8.498121E+02  3.331489E+03
        72  26 -1.744961E+05 -4.294874E+04 -4.694086E+04 -3.841140E+02 -3.957085E+03  4.184212E+03
        72  27 -1.947744E+05 -5.537710E+04 -5.692807E+04 -1.202281E+04 -7.064459E+03  1.462769E+03
        73   1  4.073853E+05  1.394815E+06  3.947919E+05 -3.576982E+05  1.783483E+04  9.011255E+04
        73   2  2.885678E+05  9.978274E+05  2.559924E+05 -3.014405E+05  5.340666E+04  2.459949E+04
        73   3  1.916780E+05  6.145892E+05  1.652198E+05 -3.457532E+05  4.756003E+04 -4.096382E+04
        73   4  1.723940E+04 -1.802293E+05  1.825905E+04 -3.449165E+05  1.806289E+04  9.194091E+03
        73   5  3.820284E+03 -1.817171E+05  1.138731E+04 -2.946494E+05  5.347756E+04  3.454435E+03
        73   6  1.995623E+03 -1.799373E+05  1.110412E+04 -3.449601E+05  4.743913E+04 -2.377003E+03
        73   7 -3.730822E+05 -1.752988E+06 -3.584242E+05 -3.321653E+05  1.828797E+04 -7.152034E+04
        73   8 -2.810152E+05 -1.359944E+06 -2.332919E+05 -2.878702E+05  5.354808E+04 -1.765118E+04
        73   9 -1.877236E+05 -9.738546E+05 -1.430357E+05 -3.441673E+05  4.731823E+04  3.616157E+04
        73  10  4.073828E+05  1.394806E+06  3.947761E+05 -3.576995E+05  5.129230E-10  6.130813E-10
        73  11  2.885646E+05  9.978260E+05  2.559859E+05 -3.014416E+05  5.070257E-10 -1.149800E-09
        73  12  1.916751E+05  6.145868E+05  1.652124E+05 -3.457517E+05 -1.208655E-10 -2.675131E-09
        73  13  1.723903E+04 -1.802295E+05  1.825828E+04 -3.449167E+05  9.886550E-10  1.225677E-09
        73  14  3.817210E+03 -1.817179E+05  1.138192E+04 -2.946496E+05  6.190772E-10 -2.440448E-09
        73  15  1.993205E+03 -1.799379E+05  1.109988E+04 -3.449600E+05 -1.685313E-10  9.755349E-10
        73  16 -3.730839E+05 -1.752994E+06 -3.584344E+05 -3.321642E+05  2.485974E-10 -5.608862E-10
        73  17 -2.810184E+05 -1.359945E+06 -2.332979E+05 -2.878694E+05  3.753219E-09  1.649627E-09
        73  18 -1.877264E+05 -9.738566E+05 -1.430424E+05 -3.441687E+05 -1.831140E-09  1.534104E-09
        73  19  4.073853E+05  1.394815E+06  3.947919E+05 -3.576982E+05 -1.783483E+04 -9.011255E+04
        73  20  2.885678E+05  9.978274E+05  2.559924E+05 -3.014405E+05 -5.340666E+04 -2.459949E+04
        73  21  1.916780E+05  6.145892E+05  1.652198E+05 -3.457532E+05 -4.756003E+04  4.096382E+04
        73  22  1.723940E+04 -1.802293E+05  1.825905E+04 -3.449165E+05 -1.806289E+04 -9.194091E+03
        73  23  3.820284E+03 -1.817171E+05  1.138731E+04 -2.946494E+05 -5.347756E+04 -3.454435E+03
        73  24  1.995623E+03 -1.799373E+05  1.110412E+04 -3.449601E+05 -4.743913E+04  2.377003E+03
        73  25 -3.730822E+05 -1.752988E+06 -3.584242E+05 -3.321653E+05 -1.828797E+04  7.152034E+04
        73  26 -2.810152E+05 -1.359944E+06 -2.332919E+05 -2.878702E+05 -5.354808E+04  1.765118E+04
        73  27 -1.877236E+05 -9.738546E+05 -1.430357E+05 -3.441673E+05 -4.731823E+04 -3.616157E+04
        74   1  1.287434E+05  3.485018E+05  1.149559E+05 -3.479339E+05  3.162993E+04 -3.602185E+04
        74   2  3.525766E+04 -4.211614E+04  4.369740E+04 -2.940823E+05  9.458777E+03 -4.559498E+04
        74   3 -5.329242E+04 -4.307964E+05 -2.028273E+04 -3.431631E+05 -1.319402E+04 -5.516660E+04
        74   4  2.471192E+03 -1.802233E+05  1.232622E+04 -3.454786E+05  3.152618E+04 -4.387486E+03
        74   5  2.268546E+03 -1.810391E+05  1.768491E+04 -2.940051E+05  9.351167E+03 -1.327463E+04
        74   6  6.889256E+03 -1.801869E+05  2.984416E+04 -3.454640E+05 -1.330586E+04 -2.216596E+04
        74   7 -1.238171E+05 -7.086777E+05 -9.031285E+04 -3.430252E+05  3.142262E+04  2.722055E+04
        74   8 -3.072112E+04 -3.199412E+05 -8.324482E+03 -2.939279E+05  9.243551E+03  1.903867E+04
        74   9  6.706767E+04  7.048494E+04  7.997197E+04 -3.477657E+05 -1.341793E+04  1.084775E+04
        74  10  1.287419E+05  3.485001E+05  1.149516E+05 -3.479329E+05  5.374930E-11  1.475618E-09
        74  11  3.525701E+04 -4.211839E+04  4.369333E+04 -2.940820E+05  3.377925E-10 -1.259995E-09
        74  12 -5.329343E+04 -4.307997E+05 -2.028878E+04 -3.431637E+05  1.609016E-10 -2.640401E-09
        74  13  2.470120E+03 -1.802235E+05  1.232432E+04 -3.454785E+05 -8.767665E-10  1.619190E-09
        74  14  2.268405E+03 -1.810393E+05  1.768442E+04 -2.940050E+05 -2.664394E-09 -3.038258E-09
        74  15  6.888933E+03 -1.801875E+05  2.984290E+04 -3.454642E+05 -6.995834E-10  9.536801E-10
        74  16 -1.238184E+05 -7.086788E+05 -9.031610E+04 -3.430259E+05 -1.278269E-09 -1.366466E-09
        74  17 -3.072131E+04 -3.199416E+05 -8.325325E+03 -2.939280E+05 -1.064064E-09  1.124618E-09
        74  18  6.706745E+04  7.048476E+04  7.997141E+04 -3.477656E+05  6.093307E-10  1.187659E-09
        74  19  1.287434E+05  3.485018E+05  1.149559E+05 -3.479339E+05 -3.162993E+04  3.602185E+04
        74  20  3.525766E+04 -4.211614E+04  4.369740E+04 -2.940823E+05 -9.458777E+03  4.559498E+04
        74  21 -5.329242E+04 -4.307964E+05 -2.028273E+04 -3.431631E+05  1.319402E+04  5.516660E+04
        74  22  2.471192E+03 -1.802233E+05  1.232622E+04 -3.454786E+05 -3.152618E+04  4.387486E+03
        74  23  2.268546E+03 -1.810391E+05  1.768491E+04 -2.940051E+05 -9.351167E+03  1.327463E+04
        74  24  6.889256E+03 -1.801869E+05  2.984416E+04 -3.454640E+05  1.330586E+04  2.216596E+04
        74  25 -1.238171E+05 -7.086777E+05 -9.031285E+04 -3.430252E+05 -3.142262E+04 -2.722055E+04
        74  26 -3.072112E+04 -3.199412E+05 -8.324482E+03 -2.939279E+05 -9.243551E+03 -1.903867E+04
        74  27  6.706767E+04  7.048494E+04  7.997197E+04 -3.477657E+05  1.341793E+04 -1.084775E+04
        75   1 -1.214308E+05 -6.909019E+05 -6.329736E+04 -3.550909E+05 -2.913358E+04 -6.596025E+04
        75   2 -1.969793E+05 -1.088721E+06 -1.214447E+05 -2.613100E+05 -3.874131E+04 -5.119320E+04
        75   3 -1.958161E+05 -1.469613E+06 -1.701590E+05 -2.684632E+05 -1.370480E+04 -3.634964E+04
        75   4  2.029949E+03 -1.749571E+05  3.820943E+04 -3.450748E+05 -2.926255E+04 -2.732782E+04
        75   5  2.137874E+04 -1.877563E+05  6.753636E+04 -2.944418E+05 -3.869932E+04 -6.242187E+04
        75   6  1.260336E+05 -1.751690E+05  1.409085E+05 -3.447079E+05 -1.351682E+04 -9.743126E+04
        75   7  1.254759E+05  3.412463E+05  1.397090E+05 -3.350500E+05 -2.939022E+04  1.133606E+04
        75   8  2.396886E+05  7.139787E+05  2.564732E+05 -3.276217E+05 -3.865617E+04 -7.366654E+04
        75   9  4.477844E+05  1.120831E+06  4.518738E+05 -4.211109E+05 -1.331406E+04 -1.586398E+05
        75  10 -1.214329E+05 -6.909068E+05 -6.330715E+04 -3.550924E+05  1.167528E-09  1.344658E-09
        75  11 -1.969816E+05 -1.088724E+06 -1.214525E+05 -2.613116E+05  2.099462E-09 -7.892944E-10
        75  12 -1.958166E+05 -1.469614E+06 -1.701618E+05 -2.684636E+05  8.374080E-11 -2.395021E-09
        75  13  2.028828E+03 -1.749582E+05  3.820641E+04 -3.450755E+05  1.072926E-09  1.467038E-09
        75  14  2.137608E+04 -1.877609E+05  6.752622E+04 -2.944437E+05 -2.258700E-09 -2.942338E-09
        75  15  1.260309E+05 -1.751793E+05  1.408904E+05 -3.447089E+05  2.757118E-10  8.070927E-10
        75  16  1.254749E+05  3.412459E+05  1.397071E+05 -3.350497E+05 -4.588964E-10 -1.253970E-09
        75  17  2.396855E+05  7.139725E+05  2.564602E+05 -3.276240E+05  1.899482E-09  6.274254E-10
        75  18  4.477775E+05  1.120804E+06  4.518263E+05 -4.211126E+05  9.088875E-10  1.008081E-09
        75  19 -1.214308E+05 -6.909019E+05 -6.329736E+04 -3.550909E+05  2.913358E+04  6.596025E+04
        75  20 -1.969793E+05 -1.088721E+06 -1.214447E+05 -2.613100E+05  3.874131E+04  5.119320E+04
        75  21 -1.958161E+05 -1.469613E+06 -1.701590E+05 -2.684632E+05  1.370480E+04  3.634964E+04
        75  22  2.029949E+03 -1.749571E+05  3.820943E+04 -3.450748E+05  2.926255E+04  2.732782E+04
        75  23  2.137874E+04 -1.877563E+05  6.753636E+04 -2.944418E+05  3.869932E+04  6.242187E+04
        75  24  1.260336E+05 -1.751690E+05  1.409085E+05 -3.447079E+05  1.351682E+04  9.743126E+04
        75  25  1.254759E+05  3.412463E+05  1.397090E+05 -3.350500E+05  2.939022E+04 -1.133606E+04
        75  26  2.396886E+05  7.139787E+05  2.564732E+05 -3.276217E+05  3.865617E+04  7.366654E+04
        75  27  4.477844E+05  1.120831E+06  4.518738E+05 -4.211109E+05  1.331406E+04  1.586398E+05
        76   1 -1.435012E+06 -5.608120E+05 -3.312073E+05 -4.787273E+05 -7.673842E+04 -3.951628E+03
        76   2 -1.339516E+06 -5.380018E+05 -2.740449E+05 -4.433066E+05 -5.226122E+04  6.236812E+04
        76   3 -1.225806E+06 -5.210432E+05 -2.453624E+05 -4.345724E+05 -1.301985E+04  8.960036E+04
        76   4 -1.547907E+03 -3.926570E+04  3.905961E+04 -1.042492E+05  1.686064E+04  3.134527E+04
        76   5 -1.799836E+04 -5.681581E+04  1.766270E+04 -8.513912E+04 -1.125191E+04  7.780362E+04
        76   6 -5.812658E+03 -6.980352E+04  9.525370E+03 -9.271481E+04 -2.462458E+04  8.521557E+04
        76   7  1.433894E+06  4.823711E+05  4.091851E+05  2.709923E+05  1.106951E+05  6.672411E+04
        76   8  1.305279E+06  4.244928E+05  3.092679E+05  2.737215E+05  2.985178E+04  9.327349E+04
        76   9  1.215720E+06  3.815726E+05  2.643373E+05  2.497689E+05 -3.625408E+04  8.082132E+04
        76  10 -1.435018E+06 -5.608136E+05 -3.312184E+05 -4.787275E+05 -1.687841E-09  7.488443E-11
        76  11 -1.339520E+06 -5.380067E+05 -2.740573E+05 -4.433039E+05 -4.696815E-10  4.309420E-10
        76  12 -1.225808E+06 -5.210519E+05 -2.453778E+05 -4.345714E+05  9.853645E-10  3.370727E-11
        76  13 -1.548476E+03 -3.926683E+04  3.905723E+04 -1.042496E+05 -6.026302E-10  1.725255E-10
        76  14 -1.800013E+04 -5.682234E+04  1.765109E+04 -8.513842E+04 -8.107537E-10 -3.140784E-09
        76  15 -5.815258E+03 -6.981148E+04  9.510585E+03 -9.271312E+04 -3.263454E-10 -5.250140E-10
        76  16  1.433879E+06  4.823631E+05  4.091538E+05  2.709864E+05  1.034189E-10 -2.861469E-10
        76  17  1.305275E+06  4.244832E+05  3.092499E+05  2.737192E+05 -7.147912E-11  1.087593E-09
        76  18  1.215717E+06  3.815652E+05  2.643226E+05  2.497713E+05 -1.729178E-09 -1.346084E-09
        76  19 -1.435012E+06 -5.608120E+05 -3.312073E+05 -4.787273E+05  7.673842E+04  3.951628E+03
        76  20 -1.339516E+06 -5.380018E+05 -2.740449E+05 -4.433066E+05  5.226122E+04 -6.236812E+04
        76  21 -1.225806E+06 -5.210432E+05 -2.453624E+05 -4.345724E+05  1.301985E+04 -8.960036E+04
        76  22 -1.547907E+03 -3.926570E+04  3.905961E+04 -1.042492E+05 -1.686064E+04 -3.134527E+04
        76  23 -1.799836E+04 -5.681581E+04  1.766270E+04 -8.513912E+04  1.125191E+04 -7.780362E+04
        76  24 -5.812658E+03 -6.980352E+04  9.525370E+03 -9.271481E+04  2.462458E+04 -8.521557E+04
        76  25  1.433894E+06  4.823711E+05  4.091851E+05  2.709923E+05 -1.106951E+05 -6.672411E+04
        76  26  1.305279E+06  4.244928E+05  3.092679E+05  2.737215E+05 -2.985178E+04 -9.327349E+04
        76  27  1.215720E+06  3.815726E+05  2.643373E+05  2.497689E+05  3.625408E+04 -8.082132E+04
        77   1 -1.160090E+06 -4.919325E+05 -2.332381E+05 -4.137700E+05 -2.058661E+04  8.128582E+04
        77   2 -1.072086E+06 -4.463632E+05 -2.132453E+05 -3.750451E+05 -1.778176E+04  7.808520E+04
        77   3 -9.637689E+05 -4.204759E+05 -1.941156E+05 -3.593854E+05 -1.405658E+04  7.241901E+04
        77   4 -6.599328E+03 -6.883737E+04  7.299598E+03 -9.423227E+04 -2.393359E+04  8.001143E+04
        77   5 -1.711311E+04 -5.982696E+04  3.826040E+03 -8.249566E+04 -2.444867E+04  7.556574E+04
        77   6 -6.669617E+03 -6.983899E+04  2.120407E+03 -9.382474E+04 -2.404449E+04  6.865670E+04
        77   7  1.148254E+06  3.543687E+05  2.477657E+05  2.258529E+05 -2.728730E+04  7.873454E+04
        77   8  1.038998E+06  3.268020E+05  2.208385E+05  2.105116E+05 -3.112779E+04  7.304171E+04
        77   9  9.513634E+05  2.808731E+05  1.983076E+05  1.721120E+05 -3.404893E+04  6.488819E+04
        77  10 -1.160093E+06 -4.919397E+05 -2.332513E+05 -4.137686E+05 -6.349962E-11 -1.434320E-10
        77  11 -1.072088E+06 -4.463698E+05 -2.132573E+05 -3.750440E+05 -3.157462E-10 -1.326878E-10
        77  12 -9.637705E+05 -4.204815E+05 -1.941259E+05 -3.593846E+05  6.714449E-11  1.722423E-10
        77  13 -6.601661E+03 -6.884440E+04  7.286492E+03 -9.423073E+04 -1.025534E-09 -4.240942E-10
        77  14 -1.711528E+04 -5.983325E+04  3.814186E+03 -8.249417E+04 -1.051405E-09 -9.286830E-10
        77  15 -6.671503E+03 -6.984421E+04  2.110463E+03 -9.382341E+04 -1.900493E-10  3.917645E-10
        77  16  1.148252E+06  3.543618E+05  2.477527E+05  2.258546E+05 -3.805218E-10 -5.858746E-10
        77  17  1.038995E+06  3.267960E+05  2.208266E+05  2.105134E+05  8.733510E-10 -5.539575E-11
        77  18  9.513610E+05  2.808683E+05  1.982975E+05  1.721138E+05  4.518588E-10  3.566326E-10
        77  19 -1.160090E+06 -4.919325E+05 -2.332381E+05 -4.137700E+05  2.058661E+04 -8.128582E+04
        77  20 -1.072086E+06 -4.463632E+05 -2.132453E+05 -3.750451E+05  1.778176E+04 -7.808520E+04
        77  21 -9.637689E+05 -4.204759E+05 -1.941156E+05 -3.593854E+05  1.405658E+04 -7.241901E+04
        77  22 -6.599328E+03 -6.883737E+04  7.299598E+03 -9.423227E+04  2.393359E+04 -8.001143E+04
        77  23 -1.711311E+04 -5.982696E+04  3.826040E+03 -8.249566E+04  2.444867E+04 -7.556574E+04
        77  24 -6.669617E+03 -6.983899E+04  2.120407E+03 -9.382474E+04  2.404449E+04 -6.865670E+04
        77  25  1.148254E+06  3.543687E+05  2.477657E+05  2.258529E+05  2.728730E+04 -7.873454E+04
        77  26  1.038998E+06  3.268020E+05  2.208385E+05  2.105116E+05  3.112779E+04 -7.304171E+04
        77  27  9.513634E+05  2.808731E+05  1.983076E+05  1.721120E+05  3.404893E+04 -6.488819E+04
        78   1 -8.961435E+05 -3.953033E+05 -1.802059E+05 -3.405140E+05 -1.325242E+04  6.780813E+04
        78   2 -8.082379E+05 -3.491696E+05 -1.609379E+05 -3.016723E+05 -1.078863E+04  6.061505E+04
        78   3 -6.999594E+05 -3.231954E+05 -1.414723E+05 -2.859048E+05 -8.271984E+03  5.326366E+04
        78   4 -6.728936E+03 -6.978701E+04  1.587370E+03 -9.392827E+04 -2.272319E+04  6.424294E+04
        78   5 -1.689322E+04 -5.966609E+04  8.510230E+02 -8.240137E+04 -2.047245E+04  5.697398E+04
        78   6 -6.656906E+03 -6.966270E+04  4.789433E+02 -9.395111E+04 -1.816888E+04  4.954687E+04
        78   7  8.835062E+05  2.557995E+05  1.833427E+05  1.529858E+05 -3.220865E+04  6.067224E+04
        78   8  7.750986E+05  2.298919E+05  1.626093E+05  1.371286E+05 -3.016961E+04  5.332791E+04
        78   9  6.871398E+05  1.839107E+05  1.424060E+05  9.820053E+04 -2.807768E+04  4.582561E+04
        78  10 -8.961449E+05 -3.953083E+05 -1.802149E+05 -3.405133E+05  2.822875E-10 -1.376786E-10
        78  11 -8.082390E+05 -3.491736E+05 -1.609451E+05 -3.016718E+05 -5.914499E-10 -4.785831E-10
        78  12 -6.999603E+05 -3.231984E+05 -1.414777E+05 -2.859044E+05 -8.259967E-10 -4.911596E-10
        78  13 -6.730598E+03 -6.979158E+04  1.578644E+03 -9.392710E+04  6.936898E-10 -7.675668E-10
        78  14 -1.689454E+04 -5.966968E+04  8.441357E+02 -8.240043E+04  7.025313E-11 -6.431199E-10
        78  15 -6.657920E+03 -6.966543E+04  4.737099E+02 -9.395038E+04 -1.390537E-09  2.370219E-10
        78  16  8.835041E+05  2.557952E+05  1.833338E+05  1.529874E+05 -1.170684E-10 -5.883984E-10
        78  17  7.750969E+05  2.298886E+05  1.626023E+05  1.371299E+05  8.578672E-10 -7.770704E-11
        78  18  6.871384E+05  1.839083E+05  1.424006E+05  9.820157E+04  1.897782E-09  1.365421E-09
        78  19 -8.961435E+05 -3.953033E+05 -1.802059E+05 -3.405140E+05  1.325242E+04 -6.780813E+04
        78  20 -8.082379E+05 -3.491696E+05 -1.609379E+05 -3.016723E+05  1.078863E+04 -6.061505E+04
        78  21 -6.999594E+05 -3.231954E+05 -1.414723E+05 -2.859048E+05  8.271984E+03 -5.326366E+04
        78  22 -6.728936E+03 -6.978701E+04  1.587370E+03 -9.392827E+04  2.272319E+04 -6.424294E+04
        78  23 -1.689322E+04 -5.966609E+04  8.510230E+02 -8.240137E+04  2.047245E+04 -5.697398E+04
        78  24 -6.656906E+03 -6.966270E+04  4.789433E+02 -9.395111E+04  1.816888E+04 -4.954687E+04
        78  25  8.835062E+05  2.557995E+05  1.833427E+05  1.529858E+05  3.220865E+04 -6.067224E+04
        78  26  7.750986E+05  2.298919E+05  1.626093E+05  1.371286E+05  3.016961E+04 -5.332791E+04
        78  27  6.871398E+05  1.839107E+05  1.424060E+05  9.820053E+04  2.807768E+04 -4.582561E+04
        79   1 -6.321698E+05 -2.982412E+05 -1.271478E+05 -2.671474E+05 -6.766841E+03  4.894965E+04
        79   2 -5.440827E+05 -2.521955E+05 -1.075261E+05 -2.283402E+05 -4.091123E+03  4.159111E+04
        79   3 -4.357199E+05 -2.263283E+05 -8.783108E+04 -2.126613E+05 -1.415489E+03  3.422085E+04
        79   4 -6.661781E+03 -6.964366E+04  3.531253E+02 -9.396654E+04 -1.663355E+04  4.524630E+04
        79   5 -1.677213E+04 -5.950349E+04  1.811800E+02 -8.241324E+04 -1.397349E+04  3.788471E+04
        79   6 -6.614291E+03 -6.953916E+04  9.395726E+01 -9.399140E+04 -1.131349E+04  3.051140E+04
        79   7  6.192438E+05  1.589853E+05  1.278333E+05  7.937418E+04 -2.651089E+04  4.153897E+04
        79   8  5.108244E+05  1.332120E+05  1.078747E+05  6.362816E+04 -2.386488E+04  3.417492E+04
        79   9  4.226839E+05  8.726679E+04  8.801087E+04  2.475513E+04 -2.121893E+04  2.679916E+04
        79  10 -6.321705E+05 -2.982438E+05 -1.271524E+05 -2.671472E+05  6.529743E-10  2.069580E-10
        79  11 -5.440832E+05 -2.521973E+05 -1.075294E+05 -2.283401E+05 -3.278283E-10 -1.805272E-11
        79  12 -4.357202E+05 -2.263296E+05 -8.783328E+04 -2.126613E+05  9.631742E-10 -4.552399E-10
        79  13 -6.662627E+03 -6.964594E+04  3.487583E+02 -9.396594E+04  2.887694E-10  7.182456E-10
        79  14 -1.677272E+04 -5.950509E+04  1.781161E+02 -8.241281E+04  5.232870E-10  3.610624E-10
        79  15 -6.614679E+03 -6.954020E+04  9.196737E+01 -9.399112E+04 -5.482660E-10 -1.167691E-10
        79  16  6.192426E+05  1.589832E+05  1.278288E+05  7.937506E+04  4.852025E-11  8.620504E-10
        79  17  5.108235E+05  1.332106E+05  1.078714E+05  6.362882E+04 -2.406808E-10  2.766251E-10
        79  18  4.226832E+05  8.726590E+04  8.800867E+04  2.475559E+04 -8.533961E-10 -4.531182E-10
        79  19 -6.321698E+05 -2.982412E+05 -1.271478E+05 -2.671474E+05  6.766841E+03 -4.894965E+04
        79  20 -5.440827E+05 -2.521955E+05 -1.075261E+05 -2.283402E+05  4.091123E+03 -4.159111E+04
        79  21 -4.357199E+05 -2.263283E+05 -8.783108E+04 -2.126613E+05  1.415489E+03 -3.422085E+04
        79  22 -6.661781E+03 -6.964366E+04  3.531253E+02 -9.396654E+04  1.663355E+04 -4.524630E+04
        79  23 -1.677213E+04 -5.950349E+04  1.811800E+02 -8.241324E+04  1.397349E+04 -3.788471E+04
        79  24 -6.614291E+03 -6.953916E+04  9.395726E+01 -9.399140E+04  1.131349E+04 -3.051140E+04
        79  25  6.192438E+05  1.589853E+05  1.278333E+05  7.937418E+04  2.651089E+04 -4.153897E+04
        79  26  5.108244E+05  1.332120E+05  1.078747E+05  6.362816E+04  2.386488E+04 -3.417492E+04
        79  27  4.226839E+05  8.726679E+04  8.801087E+04  2.475513E+04  2.121893E+04 -2.679916E+04
        80   1 -3.678510E+05 -2.014152E+05 -7.341360E+04 -1.939294E+05  1.738943E+02  2.993994E+04
        80   2 -2.796501E+05 -1.554342E+05 -5.368918E+04 -1.551405E+05  2.923029E+03  2.259514E+04
        80   3 -1.712317E+05 -1.296361E+05 -3.395796E+04 -1.395103E+05  5.668862E+03  1.525295E+04
        80   4 -6.613654E+03 -6.952809E+04  5.743561E+01 -9.399743E+04 -9.724748E+03  2.623151E+04
        80   5 -1.670443E+04 -5.941018E+04 -2.311475E+00 -8.242255E+04 -6.972297E+03  1.888935E+04
        80   6 -6.588814E+03 -6.947596E+04 -5.831055E+01 -9.400932E+04 -4.223160E+03  1.154984E+04
        80   7  3.547580E+05  6.237010E+04  7.352228E+04  5.988227E+03 -1.962958E+04  2.252075E+04
        80   8  2.463114E+05  3.661936E+04  5.368115E+04 -9.676385E+03 -1.687209E+04  1.518188E+04
        80   9  1.580807E+05 -9.313948E+03  3.383998E+04 -4.849749E+04 -1.411793E+04  7.845698E+03
        80  10 -3.678513E+05 -2.014162E+05 -7.341529E+04 -1.939294E+05  1.108772E-09 -5.957039E-10
        80  11 -2.796503E+05 -1.554348E+05 -5.369016E+04 -1.551406E+05  4.964038E-10 -5.118431E-10
        80  12 -1.712318E+05 -1.296364E+05 -3.395845E+04 -1.395104E+05 -1.567665E-09  1.872093E-10
        80  13 -6.613940E+03 -6.952886E+04  5.596488E+01 -9.399722E+04  2.970722E-10 -7.615865E-10
        80  14 -1.670458E+04 -5.941058E+04 -3.073312E+00 -8.242244E+04 -1.167287E-09 -4.499523E-10
        80  15 -6.588869E+03 -6.947611E+04 -5.859473E+01 -9.400928E+04 -1.043701E-09  7.034788E-10
        80  16  3.547574E+05  6.236945E+04  7.352061E+04  5.988583E+03  3.102104E-10 -4.415081E-10
        80  17  2.463110E+05  3.661903E+04  5.368018E+04 -9.676179E+03 -1.925950E-10 -2.865726E-10
        80  18  1.580805E+05 -9.314067E+03  3.383949E+04 -4.849740E+04  4.866574E-10  7.388622E-10
        80  19 -3.678510E+05 -2.014152E+05 -7.341360E+04 -1.939294E+05 -1.738943E+02 -2.993994E+04
        80  20 -2.796501E+05 -1.554342E+05 -5.368918E+04 -1.551405E+05 -2.923029E+03 -2.259514E+04
        80  21 -1.712317E+05 -1.296361E+05 -3.395796E+04 -1.395103E+05 -5.668862E+03 -1.525295E+04
        80  22 -6.613654E+03 -6.952809E+04  5.743561E+01 -9.399743E+04  9.724748E+03 -2.623151E+04
        80  23 -1.670443E+04 -5.941018E+04 -2.311475E+00 -8.242255E+04  6.972297E+03 -1.888935E+04
        80  24 -6.588814E+03 -6.947596E+04 -5.831055E+01 -9.400932E+04  4.223160E+03 -1.154984E+04
        80  25  3.547580E+05  6.237010E+04  7.352228E+04  5.988227E+03  1.962958E+04 -2.252075E+04
        80  26  2.463114E+05  3.661936E+04  5.368115E+04 -9.676385E+03  1.687209E+04 -1.518188E+04
        80  27  1.580807E+05 -9.313948E+03  3.383998E+04 -4.849749E+04  1.411793E+04 -7.845698E+03
        81   1 -1.033136E+05 -1.047403E+05 -1.953857E+04 -1.207843E+05  7.298057E+03  1.098613E+04
        81   2 -1.506226E+04 -5.879283E+04  1.683218E+02 -8.199597E+04  1.004192E+04  3.674207E+03
        81   3  9.338842E+04 -3.302124E+04  1.987328E+04 -6.637399E+04  1.275926E+04 -3.567037E+03
        81   4 -6.593086E+03 -6.947188E+04 -9.535990E+01 -9.401259E+04 -2.609666E+03  7.277558E+03
        81   5 -1.667747E+04 -5.937629E+04 -2.002802E+02 -8.242603E+04  2.286335E+02  9.372215E-01
        81   6 -6.593486E+03 -6.947722E+04 -3.828057E+02 -9.401045E+04  3.040391E+03 -7.204967E+03
        81   7  9.013810E+04 -3.420227E+04  1.934803E+04 -6.723679E+04 -1.251913E+04  3.568337E+03
        81   8 -1.829246E+04 -5.995967E+04 -5.684716E+02 -8.285602E+04 -9.584670E+03 -3.672338E+03
        81   9 -1.065649E+05 -1.059323E+05 -2.063900E+04 -1.216428E+05 -6.676802E+03 -1.084227E+04
        81  10 -1.033137E+05 -1.047405E+05 -1.953890E+04 -1.207843E+05  1.925881E-10  5.609549E-10
        81  11 -1.506237E+04 -5.879287E+04  1.681069E+02 -8.199600E+04  1.180264E-10  9.351759E-11
        81  12  9.338824E+04 -3.302130E+04  1.987295E+04 -6.637396E+04 -1.370863E-09 -5.834540E-10
        81  13 -6.593107E+03 -6.947194E+04 -9.547222E+01 -9.401258E+04 -4.153062E-10  8.384752E-10
        81  14 -1.667747E+04 -5.937629E+04 -2.002803E+02 -8.242603E+04 -4.079831E-10  1.258788E-09
        81  15 -6.593509E+03 -6.947728E+04 -3.829206E+02 -9.401043E+04 -5.949814E-10 -6.073108E-10
        81  16  9.013792E+04 -3.420232E+04  1.934772E+04 -6.723675E+04 -9.679655E-10  1.104166E-09
        81  17 -1.829257E+04 -5.995971E+04 -5.686696E+02 -8.285605E+04  1.109550E-09  8.070329E-10
        81  18 -1.065650E+05 -1.059324E+05 -2.063930E+04 -1.216428E+05  1.400837E-09  7.009458E-10
        81  19 -1.033136E+05 -1.047403E+05 -1.953857E+04 -1.207843E+05 -7.298057E+03 -1.098613E+04
        81  20 -1.506226E+04 -5.879283E+04  1.683218E+02 -8.199597E+04 -1.004192E+04 -3.674207E+03
        81  21  9.338842E+04 -3.302124E+04  1.987328E+04 -6.637399E+04 -1.275926E+04  3.567037E+03
        81  22 -6.593086E+03 -6.947188E+04 -9.535990E+01 -9.401259E+04  2.609666E+03 -7.277558E+03
        81  23 -1.667747E+04 -5.937629E+04 -2.002802E+02 -8.242603E+04 -2.286335E+02 -9.372215E-01
        81  24 -6.593486E+03 -6.947722E+04 -3.828057E+02 -9.401045E+04 -3.040391E+03  7.204967E+03
        81  25  9.013810E+04 -3.420227E+04  1.934803E+04 -6.723679E+04  1.251913E+04 -3.568337E+03
        81  26 -1.829246E+04 -5.995967E+04 -5.684716E+02 -8.285602E+04  9.584670E+03  3.672338E+03
        81  27 -1.065649E+05 -1.059323E+05 -2.063900E+04 -1.216428E+05  6.676802E+03  1.084227E+04
        82   1  1.613630E+05 -8.124062E+03  3.419547E+04 -4.765837E+04  1.467523E+04 -7.741612E+03
        82   2  2.495086E+05  3.786384E+04  5.402970E+04 -8.836213E+03  1.619182E+04 -1.495108E+04
        82   3  3.579622E+05  6.377110E+04  7.464617E+04  6.925895E+03  1.728895E+04 -2.103643E+04
        82   4 -6.627211E+03 -6.945805E+04 -5.131460E+02 -9.401131E+04  4.718168E+03 -1.146912E+04
        82   5 -1.665859E+04 -5.943661E+04 -9.472540E+02 -8.241928E+04  7.749757E+03 -1.811274E+04
        82   6 -6.691254E+03 -6.979693E+04 -1.798545E+03 -9.389164E+04  1.036197E+04 -2.363191E+04
        82   7 -1.745870E+05 -1.307891E+05 -3.522246E+04 -1.403523E+05 -5.235925E+03 -1.519551E+04
        82   8 -2.827531E+05 -1.567311E+05 -5.592763E+04 -1.559733E+05 -6.884107E+02 -2.127294E+04
        82   9 -3.712117E+05 -2.033551E+05 -7.825109E+04 -1.946554E+05  3.439320E+03 -2.622578E+04
        82  10  1.613628E+05 -8.124184E+03  3.419495E+04 -4.765828E+04 -2.345371E-08 -9.714898E-09
        82  11  2.495083E+05  3.786353E+04  5.402879E+04 -8.836018E+03  2.451151E-09 -1.040200E-09
        82  12  3.579617E+05  6.377055E+04  7.464478E+04  6.926188E+03  2.737314E-08  7.766287E-09
        82  13 -6.627270E+03 -6.945820E+04 -5.134350E+02 -9.401127E+04  1.328395E-09 -1.050554E-09
        82  14 -1.665874E+04 -5.943698E+04 -9.479833E+02 -8.241917E+04  2.678836E-09 -1.088623E-09
        82  15 -6.691519E+03 -6.979756E+04 -1.799796E+03 -9.389144E+04  1.199468E-09 -7.567803E-10
        82  16 -1.745871E+05 -1.307894E+05 -3.522294E+04 -1.403524E+05  2.460769E-08  8.488953E-09
        82  17 -2.827532E+05 -1.567316E+05 -5.592848E+04 -1.559733E+05  8.830287E-10 -1.229599E-09
        82  18 -3.712119E+05 -2.033558E+05 -7.825240E+04 -1.946554E+05 -2.534749E-08 -9.316515E-09
        82  19  1.613630E+05 -8.124062E+03  3.419547E+04 -4.765837E+04 -1.467523E+04  7.741612E+03
        82  20  2.495086E+05  3.786384E+04  5.402970E+04 -8.836213E+03 -1.619182E+04  1.495108E+04
        82  21  3.579622E+05  6.377110E+04  7.464617E+04  6.925895E+03 -1.728895E+04  2.103643E+04
        82  22 -6.627211E+03 -6.945805E+04 -5.131460E+02 -9.401131E+04 -4.718168E+03  1.146912E+04
        82  23 -1.665859E+04 -5.943661E+04 -9.472540E+02 -8.241928E+04 -7.749757E+03  1.811274E+04
        82  24 -6.691254E+03 -6.979693E+04 -1.798545E+03 -9.389164E+04 -1.036197E+04  2.363191E+04
        82  25 -1.745870E+05 -1.307891E+05 -3.522246E+04 -1.403523E+05  5.235925E+03  1.519551E+04
        82  26 -2.827531E+05 -1.567311E+05 -5.592763E+04 -1.559733E+05  6.884107E+02  2.127294E+04
        82  27 -3.712117E+05 -2.033551E+05 -7.825109E+04 -1.946554E+05 -3.439320E+03  2.622578E+04
        83   1  4.267831E+05  8.874742E+04  8.851455E+04  2.510734E+04  2.303072E+04 -2.403043E+04
        83   2  5.123562E+05  1.359177E+05  1.140409E+05  6.526805E+04  9.081850E+02 -3.119635E+04
        83   3  6.197538E+05  1.629208E+05  1.553961E+05  8.460787E+04 -2.790660E+04 -2.052989E+04
        83   4 -7.148659E+03 -6.932506E+04 -2.343785E+03 -9.395520E+04  1.232394E+04 -2.804269E+04
        83   5 -1.622579E+04 -6.063504E+04 -4.376911E+03 -8.213545E+04  1.426682E+04 -2.619307E+04
        83   6 -8.250326E+03 -7.687958E+04 -9.635022E+03 -9.114223E+04  9.518765E+03 -6.501943E+03
        83   7 -4.408901E+05 -2.273833E+05 -9.321242E+04 -2.129419E+05  1.625160E+03 -3.205199E+04
        83   8 -5.445191E+05 -2.571623E+05 -1.228098E+05 -2.294216E+05  2.761297E+04 -2.119456E+04
        83   9 -6.358505E+05 -3.166435E+05 -1.746886E+05 -2.667246E+05  4.690152E+04  7.509364E+03
        83  10  4.267824E+05  8.874666E+04  8.851247E+04  2.510778E+04  3.018858E-09 -3.217885E-10
        83  11  5.123559E+05  1.359166E+05  1.140391E+05  6.526807E+04  1.606745E-09 -1.585555E-11
        83  12  6.197528E+05  1.629201E+05  1.553939E+05  8.460740E+04 -5.892256E-10  4.709683E-11
        83  13 -7.149033E+03 -6.932595E+04 -2.345548E+03 -9.395492E+04  1.434532E-11  6.344501E-11
        83  14 -1.622619E+04 -6.063583E+04 -4.378583E+03 -8.213515E+04  4.337813E-11  1.581080E-10
        83  15 -8.250435E+03 -7.687965E+04 -9.635272E+03 -9.114218E+04 -1.221987E-09  2.535654E-11
        83  16 -4.408903E+05 -2.273844E+05 -9.321436E+04 -2.129418E+05 -3.261167E-09 -3.038592E-10
        83  17 -5.445201E+05 -2.571629E+05 -1.228121E+05 -2.294212E+05 -9.153955E-10  3.384425E-11
        83  18 -6.358529E+05 -3.166442E+05 -1.746928E+05 -2.667249E+05 -5.582327E-10 -1.321358E-10
        83  19  4.267831E+05  8.874742E+04  8.851455E+04  2.510734E+04 -2.303072E+04  2.403043E+04
        83  20  5.123562E+05  1.359177E+05  1.140409E+05  6.526805E+04 -9.081850E+02  3.119635E+04
        83  21  6.197538E+05  1.629208E+05  1.553961E+05  8.460787E+04  2.790660E+04  2.052989E+04
        83  22 -7.148659E+03 -6.932506E+04 -2.343785E+03 -9.395520E+04 -1.232394E+04  2.804269E+04
        83  23 -1.622579E+04 -6.063504E+04 -4.376911E+03 -8.213545E+04 -1.426682E+04  2.619307E+04
        83  24 -8.250326E+03 -7.687958E+04 -9.635022E+03 -9.114223E+04 -9.518765E+03  6.501943E+03
        83  25 -4.408901E+05 -2.273833E+05 -9.321242E+04 -2.129419E+05 -1.625160E+03  3.205199E+04
        83  26 -5.445191E+05 -2.571623E+05 -1.228098E+05 -2.294216E+05 -2.761297E+04  2.119456E+04
        83  27 -6.358505E+05 -3.166435E+05 -1.746886E+05 -2.667246E+05 -4.690152E+04 -7.509364E+03
        84   1 -4.324703E+04 -2.331593E+04 -2.065442E+04 -1.671234E+04 -4.496141E+03  1.634791E+03
        84   2 -2.602223E+04 -2.448835E+04 -1.582795E+04 -1.887660E+04 -6.751151E+02  5.441631E+03
        84   3 -8.501706E+03 -2.249507E+04 -1.269769E+04 -2.359975E+04  3.146369E+03  6.440829E+03
        84   4  9.493913E+04  1.071766E+04  1.133619E+04 -2.401222E+04  8.009259E+03  1.635409E+03
        84   5  9.420767E+04  3.867140E+03  5.725745E+03 -2.273270E+04  5.092253E+03  5.441732E+03
        84   6  9.494095E+04  1.351628E+03  3.098000E+03 -2.401192E+04  2.175509E+03  6.440707E+03
        84   7  2.331434E+05  4.475019E+04  4.332613E+04 -3.131374E+04  2.051742E+04  1.635733E+03
        84   8  2.144518E+05  3.222190E+04  2.727901E+04 -2.658956E+04  1.086071E+04  5.441762E+03
        84   9  1.983943E+05  2.519782E+04  1.889347E+04 -2.442417E+04  1.204493E+03  6.440587E+03
        84  10 -4.324705E+04 -2.331594E+04 -2.065446E+04 -1.671234E+04  1.125475E-09 -1.497403E-10
        84  11 -2.602224E+04 -2.448838E+04 -1.582800E+04 -1.887660E+04  9.990286E-10 -3.968127E-10
        84  12 -8.501727E+03 -2.249512E+04 -1.269779E+04 -2.359977E+04 -7.414171E-10 -2.509199E-10
        84  13  9.493906E+04  1.071764E+04  1.133606E+04 -2.401223E+04  5.692384E-10 -3.911914E-11
        84  14  9.420764E+04  3.867101E+03  5.725640E+03 -2.273272E+04  4.399862E-11 -2.014998E-10
        84  15  9.494093E+04  1.351583E+03  3.097913E+03 -2.401193E+04  3.062172E-11 -7.633700E-11
        84  16  2.331429E+05  4.475007E+04  4.332533E+04 -3.131377E+04 -4.793035E-10  3.195962E-11
        84  17  2.144516E+05  3.222184E+04  2.727874E+04 -2.658960E+04 -5.015806E-11  1.017418E-11
        84  18  1.983943E+05  2.519777E+04  1.889339E+04 -2.442417E+04  3.572610E-10  2.241899E-10
        84  19 -4.324703E+04 -2.331593E+04 -2.065442E+04 -1.671234E+04  4.496141E+03 -1.634791E+03
        84  20 -2.602223E+04 -2.448835E+04 -1.582795E+04 -1.887660E+04  6.751151E+02 -5.441631E+03
        84  21 -8.501706E+03 -2.249507E+04 -1.269769E+04 -2.359975E+04 -3.146369E+03 -6.440829E+03
        84  22  9.493913E+04  1.071766E+04  1.133619E+04 -2.401222E+04 -8.009259E+03 -1.635409E+03
        84  23  9.420767E+04  3.867140E+03  5.725745E+03 -2.273270E+04 -5.092253E+03 -5.441732E+03
        84  24  9.494095E+04  1.351628E+03  3.098000E+03 -2.401192E+04 -2.175509E+03 -6.440707E+03
        84  25  2.331434E+05  4.475019E+04  4.332613E+04 -3.131374E+04 -2.051742E+04 -1.635733E+03
        84  26  2.144518E+05  3.222190E+04  2.727901E+04 -2.658956E+04 -1.086071E+04 -5.441762E+03
        84  27  1.983943E+05  2.519782E+04  1.889347E+04 -2.442417E+04 -1.204493E+03 -6.440587E+03
        85   1  2.117673E+03 -2.025312E+04 -1.133091E+04 -2.348131E+04  2.966728E+03  6.075452E+03
        85   2  1.945392E+04 -1.677176E+04 -9.111362E+03 -2.239298E+04  3.253322E+03  5.388020E+03
        85   3  3.682379E+04 -1.301055E+04 -7.008252E+03 -2.407316E+04  3.539905E+03  4.321086E+03
        85   4  9.465836E+04  9.822470E+02  2.310142E+03 -2.405858E+04  1.772487E+03  6.075350E+03
        85   5  9.456313E+04  3.205982E+02  1.245933E+03 -2.267434E+04  1.148182E+03  5.387951E+03
        85   6  9.465931E+04  9.690885E+01  6.977728E+02 -2.405858E+04  5.238583E+02  4.321076E+03
        85   7  1.872077E+05  2.221721E+04  1.595104E+04 -2.463594E+04  5.780748E+02  6.075250E+03
        85   8  1.696781E+05  1.741271E+04  1.160318E+04 -2.295574E+04 -9.572016E+02  5.387885E+03
        85   9  1.524983E+05  1.320423E+04  8.403804E+03 -2.404400E+04 -2.492456E+03  4.321066E+03
        85  10  2.117654E+03 -2.025316E+04 -1.133099E+04 -2.348133E+04 -1.550989E-09  1.687984E-10
        85  11  1.945390E+04 -1.677179E+04 -9.111437E+03 -2.239299E+04  6.097922E-10  5.403422E-10
        85  12  3.682377E+04 -1.301058E+04 -7.008310E+03 -2.407317E+04  9.105097E-10 -7.261766E-12
        85  13  9.465835E+04  9.822065E+02  2.310066E+03 -2.405859E+04 -5.013123E-10  3.874189E-10
        85  14  9.456312E+04  3.205666E+02  1.245876E+03 -2.267434E+04 -2.140366E-10  7.039662E-10
        85  15  9.465930E+04  9.688873E+01  6.977372E+02 -2.405858E+04  3.013733E-10  1.184659E-10
        85  16  1.872077E+05  2.221717E+04  1.595097E+04 -2.463595E+04  1.300681E-09  5.307594E-10
        85  17  1.696781E+05  1.741268E+04  1.160313E+04 -2.295573E+04  7.431405E-10  8.318700E-10
        85  18  1.524983E+05  1.320421E+04  8.403758E+03 -2.404400E+04 -9.520381E-11  2.630518E-10
        85  19  2.117673E+03 -2.025312E+04 -1.133091E+04 -2.348131E+04 -2.966728E+03 -6.075452E+03
        85  20  1.945392E+04 -1.677176E+04 -9.111362E+03 -2.239298E+04 -3.253322E+03 -5.388020E+03
        85  21  3.682379E+04 -1.301055E+04 -7.008252E+03 -2.407316E+04 -3.539905E+03 -4.321086E+03
        85  22  9.465836E+04  9.822470E+02  2.310142E+03 -2.405858E+04 -1.772487E+03 -6.075350E+03
        85  23  9.456313E+04  3.205982E+02  1.245933E+03 -2.267434E+04 -1.148182E+03 -5.387951E+03
        85  24  9.465931E+04  9.690885E+01  6.977728E+02 -2.405858E+04 -5.238583E+02 -4.321076E+03
        85  25  1.872077E+05  2.221721E+04  1.595104E+04 -2.463594E+04 -5.780748E+02 -6.075250E+03
        85  26  1.696781E+05  1.741271E+04  1.160318E+04 -2.295574E+04  9.572016E+02 -5.387885E+03
        85  27  1.524983E+05  1.320423E+04  8.403804E+03 -2.404400E+04  2.492456E+03 -4.321066E+03
        86   1  4.751498E+04 -1.059216E+04 -5.669076E+03 -2.405119E+04  3.467480E+03  3.572172E+03
        86   2  6.486064E+04 -6.712117E+03 -3.583964E+03 -2.266767E+04  3.444222E+03  2.277439E+03
        86   3  8.221477E+04 -2.811644E+03 -1.478575E+03 -2.408079E+04  3.420944E+03  9.315962E+02
        86   4  9.462359E+04  6.772600E+01  5.255031E+02 -2.406484E+04  4.212638E+02  3.572188E+03
        86   5  9.460891E+04  1.255543E+01  2.938133E+02 -2.266653E+04  2.753048E+02  2.277482E+03
        86   6  9.462396E+04 -8.111204E-01  1.676487E+02 -2.406484E+04  1.293296E+02  9.316675E+02
        86   7  1.417345E+05  1.072752E+04  6.720102E+03 -2.407849E+04 -2.625173E+03  3.572204E+03
        86   8  1.243581E+05  6.737196E+03  4.171623E+03 -2.266538E+04 -2.893757E+03  2.277525E+03
        86   9  1.070333E+05  2.810021E+03  1.813912E+03 -2.404889E+04 -3.162348E+03  9.317387E+02
        86  10  4.751496E+04 -1.059218E+04 -5.669122E+03 -2.405120E+04 -6.319740E-10 -3.389305E-10
        86  11  6.486062E+04 -6.712126E+03 -3.583996E+03 -2.266768E+04  1.363792E-10 -3.487262E-10
        86  12  8.221476E+04 -2.811648E+03 -1.478599E+03 -2.408079E+04  1.282280E-11 -3.196829E-10
        86  13  9.462359E+04  6.771224E+01  5.254788E+02 -2.406484E+04  5.032995E-10 -3.355558E-10
        86  14  9.460891E+04  1.254984E+01  2.938035E+02 -2.266653E+04  2.731696E-10 -5.514125E-10
        86  15  9.462396E+04 -8.120571E-01  1.676470E+02 -2.406484E+04  7.214279E-11 -3.743177E-10
        86  16  1.417345E+05  1.072751E+04  6.720065E+03 -2.407848E+04  3.218521E-10 -3.275479E-10
        86  17  1.243581E+05  6.737188E+03  4.171597E+03 -2.266538E+04  1.424334E-10 -7.660839E-10
        86  18  1.070333E+05  2.810017E+03  1.813891E+03 -2.404889E+04  3.101173E-10 -4.390247E-10
        86  19  4.751498E+04 -1.059216E+04 -5.669076E+03 -2.405119E+04 -3.467480E+03 -3.572172E+03
        86  20  6.486064E+04 -6.712117E+03 -3.583964E+03 -2.266767E+04 -3.444222E+03 -2.277439E+03
        86  21  8.221477E+04 -2.811644E+03 -1.478575E+03 -2.408079E+04 -3.420944E+03 -9.315962E+02
        86  22  9.462359E+04  6.772600E+01  5.255031E+02 -2.406484E+04 -4.212638E+02 -3.572188E+03
        86  23  9.460891E+04  1.255543E+01  2.938133E+02 -2.266653E+04 -2.753048E+02 -2.277482E+03
        86  24  9.462396E+04 -8.111204E-01  1.676487E+02 -2.406484E+04 -1.293296E+02 -9.316675E+02
        86  25  1.417345E+05  1.072752E+04  6.720102E+03 -2.407849E+04  2.625173E+03 -3.572204E+03
        86  26  1.243581E+05  6.737196E+03  4.171623E+03 -2.266538E+04  2.893757E+03 -2.277525E+03
        86  27  1.070333E+05  2.810021E+03  1.813912E+03 -2.404889E+04  3.162348E+03 -9.317387E+02
        87   1  9.291332E+04 -3.868468E+02 -9.431985E+01 -2.407603E+04  3.398865E+03  1.310589E+02
        87   2  1.102613E+05  3.517895E+03  2.038902E+03 -2.267326E+04  3.376156E+03 -1.244698E+03
        87   3  1.276132E+05  7.423707E+03  4.187312E+03 -2.407088E+04  3.353457E+03 -2.625955E+03
        87   4  9.461865E+04 -1.541262E+00  1.270472E+02 -2.406568E+04  1.032596E+02  1.311339E+02
        87   5  9.461569E+04 -4.084935E+00  7.269448E+01 -2.266548E+04  6.728019E+01 -1.244637E+03
        87   6  9.461847E+04 -3.320560E+00  4.262903E+01 -2.406568E+04  3.131168E+01 -2.625907E+03
        87   7  9.632401E+04  3.837700E+02  3.484550E+02 -2.405533E+04 -3.192354E+03  1.312089E+02
        87   8  7.897040E+04 -3.526069E+03 -1.893473E+03 -2.265770E+04 -3.241516E+03 -1.244575E+03
        87   9  6.162485E+04 -7.430387E+03 -4.102015E+03 -2.406047E+04 -3.290666E+03 -2.625860E+03
        87  10  9.291331E+04 -3.868500E+02 -9.434159E+01 -2.407603E+04  6.966711E-10 -2.720637E-10
        87  11  1.102613E+05  3.517890E+03  2.038878E+03 -2.267326E+04  2.146809E-09 -2.249072E-10
        87  12  1.276132E+05  7.423697E+03  4.187278E+03 -2.407088E+04 -4.952660E-12 -3.026865E-10
        87  13  9.461865E+04 -1.541283E+00  1.270471E+02 -2.406568E+04 -4.203131E-12 -1.333947E-10
        87  14  9.461569E+04 -4.086600E+00  7.269156E+01 -2.266548E+04 -8.223299E-10  9.086318E-11
        87  15  9.461847E+04 -3.327965E+00  4.261607E+01 -2.406568E+04 -6.329201E-10 -2.508082E-12
        87  16  9.632400E+04  3.837673E+02  3.484358E+02 -2.405533E+04  4.005304E-10  3.251022E-12
        87  17  7.897039E+04 -3.526073E+03 -1.893496E+03 -2.265771E+04  8.986766E-11  3.996360E-10
        87  18  6.162484E+04 -7.430397E+03 -4.102048E+03 -2.406048E+04  1.236243E-10  2.953403E-10
        87  19  9.291332E+04 -3.868468E+02 -9.431985E+01 -2.407603E+04 -3.398865E+03 -1.310589E+02
        87  20  1.102613E+05  3.517895E+03  2.038902E+03 -2.267326E+04 -3.376156E+03  1.244698E+03
        87  21  1.276132E+05  7.423707E+03  4.187312E+03 -2.407088E+04 -3.353457E+03  2.625955E+03
        87  22  9.461865E+04 -1.541262E+00  1.270472E+02 -2.406568E+04 -1.032596E+02 -1.311339E+02
        87  23  9.461569E+04 -4.084935E+00  7.269448E+01 -2.266548E+04 -6.728019E+01  1.244637E+03
        87  24  9.461847E+04 -3.320560E+00  4.262903E+01 -2.406568E+04 -3.131168E+01  2.625907E+03
        87  25  9.632401E+04  3.837700E+02  3.484550E+02 -2.405533E+04  3.192354E+03 -1.312089E+02
        87  26  7.897040E+04 -3.526069E+03 -1.893473E+03 -2.265770E+04  3.241516E+03  1.244575E+03
        87  27  6.162485E+04 -7.430387E+03 -4.102015E+03 -2.406047E+04  3.290666E+03  2.625860E+03
        88   1  1.383139E+05  9.847036E+03  5.593233E+03 -2.406951E+04  3.346383E+03 -3.432036E+03
        88   2  1.556623E+05  1.375257E+04  7.762897E+03 -2.266742E+04  3.312910E+03 -4.811077E+03
        88   3  1.730169E+05  1.766226E+04  9.955536E+03 -2.406566E+04  3.279478E+03 -6.180446E+03
        88   4  9.461746E+04 -3.092352E+00  3.306125E+01 -2.406567E+04  2.446410E+01 -3.432009E+03
        88   5  9.461616E+04 -3.262011E+00  2.085409E+01 -2.266550E+04  1.416422E+01 -4.811105E+03
        88   6  9.461673E+04 -3.297498E+00  1.550230E+01 -2.406567E+04  3.907355E+00 -6.180528E+03
        88   7  5.092300E+04 -9.853293E+03 -5.527076E+03 -2.406183E+04 -3.297233E+03 -3.431982E+03
        88   8  3.357388E+04 -1.375924E+04 -7.721160E+03 -2.266357E+04 -3.284273E+03 -4.811132E+03
        88   9  1.622292E+04 -1.766910E+04 -9.924512E+03 -2.406568E+04 -3.271270E+03 -6.180611E+03
        88  10  1.383139E+05  9.847021E+03  5.593189E+03 -2.406950E+04  4.538692E-11 -1.336128E-10
        88  11  1.556623E+05  1.375255E+04  7.762833E+03 -2.266741E+04  1.041397E-09  3.802926E-10
        88  12  1.730168E+05  1.766222E+04  9.955444E+03 -2.406564E+04 -8.752986E-11  5.141889E-10
        88  13  9.461745E+04 -3.105001E+00  3.303911E+01 -2.406567E+04  7.679999E-11 -5.339717E-11
        88  14  9.461615E+04 -3.286868E+00  2.081059E+01 -2.266550E+04 -7.330157E-10  6.555298E-11
        88  15  9.461672E+04 -3.338519E+00  1.543052E+01 -2.406567E+04  3.486104E-10  1.591925E-10
        88  16  5.092298E+04 -9.853309E+03 -5.527118E+03 -2.406184E+04  1.966427E-10  1.633580E-11
        88  17  3.357386E+04 -1.375927E+04 -7.721224E+03 -2.266358E+04 -6.454277E-10 -2.943482E-10
        88  18  1.622289E+04 -1.766915E+04 -9.924604E+03 -2.406569E+04 -4.756014E-10 -2.191320E-10
        88  19  1.383139E+05  9.847036E+03  5.593233E+03 -2.406951E+04 -3.346383E+03  3.432036E+03
        88  20  1.556623E+05  1.375257E+04  7.762897E+03 -2.266742E+04 -3.312910E+03  4.811077E+03
        88  21  1.730169E+05  1.766226E+04  9.955536E+03 -2.406566E+04 -3.279478E+03  6.180446E+03
        88  22  9.461746E+04 -3.092352E+00  3.306125E+01 -2.406567E+04 -2.446410E+01  3.432009E+03
        88  23  9.461616E+04 -3.262011E+00  2.085409E+01 -2.266550E+04 -1.416422E+01  4.811105E+03
        88  24  9.461673E+04 -3.297498E+00  1.550230E+01 -2.406567E+04 -3.907355E+00  6.180528E+03
        88  25  5.092300E+04 -9.853293E+03 -5.527076E+03 -2.406183E+04  3.297233E+03  3.431982E+03
        88  26  3.357388E+04 -1.375924E+04 -7.721160E+03 -2.266357E+04  3.284273E+03  4.811132E+03
        88  27  1.622292E+04 -1.766910E+04 -9.924512E+03 -2.406568E+04  3.271270E+03  6.180611E+03
        89   1  1.837243E+05  2.008941E+04  1.138679E+04 -2.406346E+04  3.270722E+03 -6.976751E+03
        89   2  2.010609E+05  2.400926E+04  1.365542E+04 -2.266445E+04  3.074032E+03 -8.299404E+03
        89   3  2.184330E+05  2.796329E+04  1.606087E+04 -2.406058E+04  2.877407E+03 -9.543478E+03
        89   4  9.461654E+04 -3.623308E+00  1.468914E+01 -2.406452E+04  1.213544E+00 -6.976878E+03
        89   5  9.461464E+04 -4.091918E+00  1.636855E+01 -2.266693E+04 -6.851697E+00 -8.299619E+03
        89   6  9.461527E+04 -3.042389E+00  2.397311E+01 -2.406452E+04 -1.485011E+01 -9.543775E+03
        89   7  5.516991E+03 -2.009698E+04 -1.135741E+04 -2.406557E+04 -3.267849E+03 -6.977004E+03
        89   8 -1.182004E+04 -2.401790E+04 -1.362270E+04 -2.266942E+04 -3.087233E+03 -8.299835E+03
        89   9 -2.918671E+04 -2.797000E+04 -1.601298E+04 -2.406846E+04 -2.906558E+03 -9.544073E+03
        89  10  1.837242E+05  2.008936E+04  1.138668E+04 -2.406344E+04 -6.607938E-10  5.202124E-10
        89  11  2.010609E+05  2.400918E+04  1.365527E+04 -2.266443E+04  3.544239E-10  2.268125E-10
        89  12  2.184329E+05  2.796319E+04  1.606069E+04 -2.406056E+04  7.198332E-10 -1.243403E-10
        89  13  9.461653E+04 -3.675581E+00  1.459766E+01 -2.406452E+04 -3.170008E-12  2.812877E-10
        89  14  9.461462E+04 -4.165890E+00  1.623910E+01 -2.266693E+04 -2.616422E-11  2.538695E-10
        89  15  9.461525E+04 -3.140202E+00  2.380194E+01 -2.406452E+04  1.059254E-09 -2.015040E-10
        89  16  5.516967E+03 -2.009703E+04 -1.135752E+04 -2.406559E+04  4.486102E-10  3.247120E-11
        89  17 -1.182007E+04 -2.401798E+04 -1.362284E+04 -2.266944E+04  9.745655E-11  2.235045E-10
        89  18 -2.918674E+04 -2.797010E+04 -1.601316E+04 -2.406848E+04 -3.537361E-10 -1.965673E-10
        89  19  1.837243E+05  2.008941E+04  1.138679E+04 -2.406346E+04 -3.270722E+03  6.976751E+03
        89  20  2.010609E+05  2.400926E+04  1.365542E+04 -2.266445E+04 -3.074032E+03  8.299404E+03
        89  21  2.184330E+05  2.796329E+04  1.606087E+04 -2.406058E+04 -2.877407E+03  9.543478E+03
        89  22  9.461654E+04 -3.623308E+00  1.468914E+01 -2.406452E+04 -1.213544E+00  6.976878E+03
        89  23  9.461464E+04 -4.091918E+00  1.636855E+01 -2.266693E+04  6.851697E+00  8.299619E+03
        89  24  9.461527E+04 -3.042389E+00  2.397311E+01 -2.406452E+04  1.485011E+01  9.543775E+03
        89  25  5.516991E+03 -2.009698E+04 -1.135741E+04 -2.406557E+04  3.267849E+03  6.977004E+03
        89  26 -1.182004E+04 -2.401790E+04 -1.362270E+04 -2.266942E+04  3.087233E+03  8.299835E+03
        89  27 -2.918671E+04 -2.797000E+04 -1.601298E+04 -2.406846E+04  2.906558E+03  9.544073E+03
        90   1  2.291802E+05  3.042548E+04  1.763292E+04 -2.404819E+04  2.826674E+03 -1.026038E+04
        90   2  2.464151E+05  3.446257E+04  2.056600E+04 -2.268154E+04  1.402167E+03 -1.115461E+04
        90   3  2.639032E+05  3.876034E+04  2.449200E+04 -2.406584E+04 -2.239607E+01 -1.146621E+04
        90   4  9.461638E+04 -2.613936E+00  3.040751E+01 -2.405470E+04 -1.937791E+01 -1.026073E+04
        90   5  9.461057E+04  4.932786E+00  5.170139E+01 -2.267921E+04 -4.511375E+01 -1.115499E+04
        90   6  9.461459E+04  3.034858E+01  9.473686E+01 -2.405470E+04 -7.084770E+01 -1.146653E+04
        90   7 -3.992888E+04 -3.043147E+04 -1.757219E+04 -2.406121E+04 -2.864842E+03 -1.026109E+04
        90   8 -5.717052E+04 -3.445369E+04 -2.046280E+04 -2.267687E+04 -1.492057E+03 -1.115536E+04
        90   9 -7.464511E+04 -3.870095E+04 -2.430298E+04 -2.404356E+04 -1.192867E+02 -1.146685E+04
        90  10  2.291801E+05  3.042537E+04  1.763271E+04 -2.404816E+04 -7.342002E-10 -2.212316E-10
        90  11  2.464151E+05  3.446243E+04  2.056576E+04 -2.268153E+04  8.163428E-10 -3.046850E-10
        90  12  2.639032E+05  3.876020E+04  2.449175E+04 -2.406584E+04  1.279799E-09 -8.497305E-10
        90  13  9.461635E+04 -2.726996E+00  3.020965E+01 -2.405470E+04 -5.458472E-10 -2.962370E-10
        90  14  9.461053E+04  4.799160E+00  5.146754E+01 -2.267921E+04 -1.064178E-09 -2.479959E-10
        90  15  9.461456E+04  3.020738E+01  9.448976E+01 -2.405470E+04 -1.392288E-09 -6.513655E-10
        90  16 -3.992891E+04 -3.043158E+04 -1.757241E+04 -2.406124E+04  8.160771E-10 -3.238799E-10
        90  17 -5.717055E+04 -3.445383E+04 -2.046304E+04 -2.267688E+04 -1.942787E-09  3.027970E-11
        90  18 -7.464514E+04 -3.870109E+04 -2.430322E+04 -2.404356E+04 -6.006504E-10 -3.996904E-10
        90  19  2.291802E+05  3.042548E+04  1.763292E+04 -2.404819E+04 -2.826674E+03  1.026038E+04
        90  20  2.464151E+05  3.446257E+04  2.056600E+04 -2.268154E+04 -1.402167E+03  1.115461E+04
        90  21  2.639032E+05  3.876034E+04  2.449200E+04 -2.406584E+04  2.239607E+01  1.146621E+04
        90  22  9.461638E+04 -2.613936E+00  3.040751E+01 -2.405470E+04  1.937791E+01  1.026073E+04
        90  23  9.461057E+04  4.932786E+00  5.170139E+01 -2.267921E+04  4.511375E+01  1.115499E+04
        90  24  9.461459E+04  3.034858E+01  9.473686E+01 -2.405470E+04  7.084770E+01  1.146653E+04
        90  25 -3.992888E+04 -3.043147E+04 -1.757219E+04 -2.406121E+04  2.864842E+03  1.026109E+04
        90  26 -5.717052E+04 -3.445369E+04 -2.046280E+04 -2.267687E+04  1.492057E+03  1.115536E+04
        90  27 -7.464511E+04 -3.870095E+04 -2.430298E+04 -2.404356E+04  1.192867E+02  1.146685E+04
        91   1  2.749306E+05  4.148775E+04  2.707721E+04 -2.398489E+04 -3.818566E+02 -1.159427E+04
        91   2  2.913933E+05  4.642405E+04  3.486586E+04 -2.290801E+04 -1.084936E+04 -9.317454E+03
        91   3  3.097153E+05  5.333529E+04  4.996167E+04 -2.425970E+04 -2.131820E+04 -2.730245E+03
        91   4  9.462575E+04  4.457967E+01  1.267793E+02 -2.398304E+04 -8.738776E+01 -1.159457E+04
        91   5  9.459308E+04  1.464984E+02  2.332187E+02 -2.276880E+04 -2.056652E+02 -9.316412E+03
        91   6  9.462354E+04  4.273475E+02  4.618139E+02 -2.398308E+04 -3.249048E+02 -2.727236E+03
        91   7 -8.564648E+04 -4.140013E+04 -2.682428E+04 -2.398119E+04  2.069991E+02 -1.159487E+04
        91   8 -1.021690E+05 -4.613310E+04 -3.440041E+04 -2.262963E+04  1.043476E+04 -9.315365E+03
        91   9 -1.204245E+05 -5.248359E+04 -4.903945E+04 -2.370655E+04  2.066118E+04 -2.724207E+03
        91  10  2.749306E+05  4.148761E+04  2.707695E+04 -2.398489E+04 -1.692881E-10 -1.024751E-09
        91  11  2.913931E+05  4.642392E+04  3.486548E+04 -2.290809E+04  2.003932E-10 -8.483521E-10
        91  12  3.097149E+05  5.333516E+04  4.996081E+04 -2.425975E+04 -2.910024E-10 -2.083406E-10
        91  13  9.462572E+04  4.443530E+01  1.265266E+02 -2.398304E+04 -6.397871E-10 -1.183699E-09
        91  14  9.459306E+04  1.464052E+02  2.330555E+02 -2.276880E+04 -9.518079E-10  4.097955E-11
        91  15  9.462354E+04  4.273395E+02  4.617997E+02 -2.398308E+04 -1.332444E-09 -1.849551E-11
        91  16 -8.564651E+04 -4.140027E+04 -2.682453E+04 -2.398119E+04  4.683959E-10 -5.092230E-10
        91  17 -1.021692E+05 -4.613323E+04 -3.440077E+04 -2.262955E+04  2.830494E-10  1.748766E-10
        91  18 -1.204250E+05 -5.248372E+04 -4.904027E+04 -2.370651E+04 -1.394768E-10 -1.158022E-10
        91  19  2.749306E+05  4.148775E+04  2.707721E+04 -2.398489E+04  3.818566E+02  1.159427E+04
        91  20  2.913933E+05  4.642405E+04  3.486586E+04 -2.290801E+04  1.084936E+04  9.317454E+03
        91  21  3.097153E+05  5.333529E+04  4.996167E+04 -2.425970E+04  2.131820E+04  2.730245E+03
        91  22  9.462575E+04  4.457967E+01  1.267793E+02 -2.398304E+04  8.738776E+01  1.159457E+04
        91  23  9.459308E+04  1.464984E+02  2.332187E+02 -2.276880E+04  2.056652E+02  9.316412E+03
        91  24  9.462354E+04  4.273475E+02  4.618139E+02 -2.398308E+04  3.249048E+02  2.727236E+03
        91  25 -8.564648E+04 -4.140013E+04 -2.682428E+04 -2.398119E+04 -2.069991E+02  1.159487E+04
        91  26 -1.021690E+05 -4.613310E+04 -3.440041E+04 -2.262963E+04 -1.043476E+04  9.315365E+03
        91  27 -1.204245E+05 -5.248359E+04 -4.903945E+04 -2.370655E+04 -2.066118E+04  2.724207E+03
        92   1  4.376457E+04  2.175687E+05  4.198764E+04 -7.450028E+04  1.525978E+03  9.781846E+03
        92   2  2.869114E+04  1.591337E+05  2.392590E+04 -6.981142E+04  4.239005E+03  9.813706E+02
        92   3  1.498122E+04  1.021864E+05  1.193260E+04 -7.476622E+04  3.016977E+03 -7.818668E+03
        92   4 -4.498039E+02  3.890727E+04 -4.505735E+02 -7.475238E+04  1.528289E+03 -6.632059E+02
        92   5 -1.243747E+02  3.892926E+04  3.842416E+01 -6.993042E+04  4.239454E+03 -6.781726E+02
        92   6  4.010695E+01  3.891185E+04  4.963441E+02 -7.475228E+04  3.015209E+03 -6.933962E+02
        92   7 -4.466642E+04 -1.397246E+05 -4.289061E+04 -7.500440E+04  1.530608E+03 -1.110527E+04
        92   8 -2.894077E+04 -8.126140E+04 -2.384976E+04 -7.004940E+04  4.239905E+03 -2.337401E+03
        92   9 -1.490120E+04 -2.435874E+04 -1.093988E+04 -7.473834E+04  3.013442E+03  6.431169E+03
        92  10  4.376455E+04  2.175686E+05  4.198746E+04 -7.450029E+04  6.681187E-10 -1.086491E-09
        92  11  2.869113E+04  1.591337E+05  2.392586E+04 -6.981142E+04  2.024850E-10 -8.656869E-10
        92  12  1.498119E+04  1.021864E+05  1.193247E+04 -7.476620E+04 -7.651112E-10 -1.331686E-09
        92  13 -4.498065E+02  3.890727E+04 -4.505787E+02 -7.475238E+04  4.450391E-10 -6.712505E-12
        92  14 -1.243941E+02  3.892925E+04  3.838952E+01 -6.993042E+04  5.351885E-10 -7.145023E-11
        92  15  4.009706E+01  3.891184E+04  4.963261E+02 -7.475228E+04 -9.096156E-10  1.720685E-11
        92  16 -4.466646E+04 -1.397248E+05 -4.289084E+04 -7.500439E+04  1.251671E-10  1.185658E-09
        92  17 -2.894080E+04 -8.126142E+04 -2.384980E+04 -7.004939E+04 -5.096043E-10  9.333439E-10
        92  18 -1.490122E+04 -2.435879E+04 -1.093997E+04 -7.473835E+04 -1.171144E-09  1.241025E-09
        92  19  4.376457E+04  2.175687E+05  4.198764E+04 -7.450028E+04 -1.525978E+03 -9.781846E+03
        92  20  2.869114E+04  1.591337E+05  2.392590E+04 -6.981142E+04 -4.239005E+03 -9.813706E+02
        92  21  1.498122E+04  1.021864E+05  1.193260E+04 -7.476622E+04 -3.016977E+03  7.818668E+03
        92  22 -4.498039E+02  3.890727E+04 -4.505735E+02 -7.475238E+04 -1.528289E+03  6.632059E+02
        92  23 -1.243747E+02  3.892926E+04  3.842416E+01 -6.993042E+04 -4.239454E+03  6.781726E+02
        92  24  4.010695E+01  3.891185E+04  4.963441E+02 -7.475228E+04 -3.015209E+03  6.933962E+02
        92  25 -4.466642E+04 -1.397246E+05 -4.289061E+04 -7.500440E+04 -1.530608E+03  1.110527E+04
        92  26 -2.894077E+04 -8.126140E+04 -2.384976E+04 -7.004940E+04 -4.239905E+03  2.337401E+03
        92  27 -1.490120E+04 -2.435874E+04 -1.093988E+04 -7.473834E+04 -3.013442E+03 -6.431169E+03
        93   1  6.565440E+03  6.606666E+04  6.132907E+03 -7.484747E+04  9.708248E+02 -8.045573E+03
        93   2 -6.662494E+03  8.318282E+03 -2.901659E+03 -6.957702E+04 -2.195392E+03 -8.466970E+03
        93   3 -1.943550E+04 -4.926047E+04 -1.154901E+04 -7.419571E+04 -5.204889E+03 -8.888259E+03
        93   4  7.362084E+01  3.897164E+04  7.671995E+02 -7.480680E+04  9.689772E+02 -8.031414E+02
        93   5  3.336333E+02  3.885753E+04  1.539636E+03 -6.986215E+04 -2.197082E+03 -1.574706E+03
        93   6  1.109452E+03  3.897042E+04  2.942263E+03 -7.480657E+04 -5.206428E+03 -2.346199E+03
        93   7 -6.418215E+03  1.187744E+04 -4.598347E+03 -7.476612E+04  9.671304E+02  6.438981E+03
        93   8  7.329743E+03  6.939781E+04  5.981095E+03 -7.014729E+04 -2.198778E+03  5.317882E+03
        93   9  2.165402E+04  1.272091E+05  1.743347E+04 -7.541752E+04 -5.207980E+03  4.196758E+03
        93  10  6.565422E+03  6.606659E+04  6.132783E+03 -7.484746E+04 -1.150362E-09 -2.176154E-09
        93  11 -6.662518E+03  8.318204E+03 -2.901803E+03 -6.957704E+04 -2.585803E-10 -1.427116E-09
        93  12 -1.943555E+04 -4.926056E+04 -1.154921E+04 -7.419575E+04  7.550868E-10 -1.377240E-09
        93  13  7.361966E+01  3.897164E+04  7.671965E+02 -7.480679E+04 -1.446335E-09 -1.087266E-12
        93  14  3.336275E+02  3.885752E+04  1.539622E+03 -6.986215E+04 -1.208669E-09 -7.711348E-11
        93  15  1.109421E+03  3.897041E+04  2.942202E+03 -7.480658E+04 -3.198353E-10  2.497266E-11
        93  16 -6.418227E+03  1.187739E+04 -4.598427E+03 -7.476613E+04 -7.730189E-11  2.315150E-09
        93  17  7.329730E+03  6.939778E+04  5.981032E+03 -7.014728E+04 -1.079896E-09  1.450399E-09
        93  18  2.165399E+04  1.272091E+05  1.743338E+04 -7.541751E+04 -8.298507E-10  1.305146E-09
        93  19  6.565440E+03  6.606666E+04  6.132907E+03 -7.484747E+04 -9.708248E+02  8.045573E+03
        93  20 -6.662494E+03  8.318282E+03 -2.901659E+03 -6.957702E+04  2.195392E+03  8.466970E+03
        93  21 -1.943550E+04 -4.926047E+04 -1.154901E+04 -7.419571E+04  5.204889E+03  8.888259E+03
        93  22  7.362084E+01  3.897164E+04  7.671995E+02 -7.480680E+04 -9.689772E+02  8.031414E+02
        93  23  3.336333E+02  3.885753E+04  1.539636E+03 -6.986215E+04  2.197082E+03  1.574706E+03
        93  24  1.109452E+03  3.897042E+04  2.942263E+03 -7.480657E+04  5.206428E+03  2.346199E+03
        93  25 -6.418215E+03  1.187744E+04 -4.598347E+03 -7.476612E+04 -9.671304E+02 -6.438981E+03
        93  26  7.329743E+03  6.939781E+04  5.981095E+03 -7.014729E+04  2.198778E+03 -5.317882E+03
        93  27  2.165402E+04  1.272091E+05  1.743347E+04 -7.541752E+04  5.207980E+03 -4.196758E+03
        94   1 -2.759851E+04 -8.511558E+04 -1.683824E+04 -7.448138E+04 -7.102701E+03 -9.232991E+03
        94   2 -3.856032E+04 -1.427980E+05 -2.725361E+04 -6.520185E+04 -7.360741E+03 -1.373967E+03
        94   3 -4.550093E+04 -2.004936E+05 -4.178069E+04 -6.546432E+04 -2.417101E+03  6.484396E+03
        94   4  1.457220E+03  3.936249E+04  3.957743E+03 -7.472938E+04 -7.104087E+03 -2.857773E+03
        94   5  4.595027E+03  3.836010E+04  7.342575E+03 -6.995759E+04 -7.359455E+03 -6.607181E+03
        94   6  1.376857E+04  3.935534E+04  1.467697E+04 -7.472717E+04 -2.413959E+03 -1.035637E+04
        94   7  3.051216E+04  1.638559E+05  2.475340E+04 -7.497743E+04 -7.105478E+03  3.518682E+03
        94   8  4.774854E+04  2.195499E+05  4.193739E+04 -7.471474E+04 -7.358089E+03 -1.184189E+04
        94   9  7.303445E+04  2.792580E+05  7.113179E+04 -8.399362E+04 -2.410316E+03 -2.720360E+04
        94  10 -2.759859E+04 -8.511568E+04 -1.683849E+04 -7.448144E+04  2.862903E-10 -6.786696E-08
        94  11 -3.856037E+04 -1.427980E+05 -2.725371E+04 -6.520186E+04  1.669395E-09 -1.445168E-09
        94  12 -4.550095E+04 -2.004936E+05 -4.178078E+04 -6.546430E+04  1.272682E-09  6.443677E-08
        94  13  1.457164E+03  3.936247E+04  3.957633E+03 -7.472940E+04  1.059068E-09 -2.558160E-13
        94  14  4.594957E+03  3.836003E+04  7.342392E+03 -6.995763E+04  3.117134E-12 -5.187812E-11
        94  15  1.376854E+04  3.935523E+04  1.467676E+04 -7.472719E+04 -9.798959E-10  5.818819E-12
        94  16  3.051211E+04  1.638559E+05  2.475328E+04 -7.497741E+04 -1.406026E-10  6.804569E-08
        94  17  4.774844E+04  2.195497E+05  4.193702E+04 -7.471481E+04  1.492013E-09  1.533922E-09
        94  18  7.303424E+04  2.792572E+05  7.113039E+04 -8.399367E+04 -1.572117E-10 -6.448247E-08
        94  19 -2.759851E+04 -8.511558E+04 -1.683824E+04 -7.448138E+04  7.102701E+03  9.232991E+03
        94  20 -3.856032E+04 -1.427980E+05 -2.725361E+04 -6.520185E+04  7.360741E+03  1.373967E+03
        94  21 -4.550093E+04 -2.004936E+05 -4.178069E+04 -6.546432E+04  2.417101E+03 -6.484396E+03
        94  22  1.457220E+03  3.936249E+04  3.957743E+03 -7.472938E+04  7.104087E+03  2.857773E+03
        94  23  4.595027E+03  3.836010E+04  7.342575E+03 -6.995759E+04  7.359455E+03  6.607181E+03
        94  24  1.376857E+04  3.935534E+04  1.467697E+04 -7.472717E+04  2.413959E+03  1.035637E+04
        94  25  3.051216E+04  1.638559E+05  2.475340E+04 -7.497743E+04  7.105478E+03 -3.518682E+03
        94  26  4.774854E+04  2.195499E+05  4.193739E+04 -7.471474E+04  7.358089E+03  1.184189E+04
        94  27  7.303445E+04  2.792580E+05  7.113179E+04 -8.399362E+04  2.410316E+03  2.720360E+04
        95   1 -8.985906E+04 -5.132777E+04 -3.306350E+04 -3.750420E+04 -1.589550E+04 -5.069061E+03
        95   2 -8.412500E+04 -3.119241E+04 -1.910928E+04 -3.499890E+04 -9.967622E+03 -8.819786E+02
        95   3 -8.228161E+04 -2.378948E+04 -1.316654E+04 -3.116171E+04 -3.476608E+03  1.804304E+03
        95   4 -4.247715E+04 -2.485422E+04 -1.904379E+04 -1.559970E+04 -1.256347E+04 -3.819521E+03
        95   5 -3.968609E+04 -1.125294E+04 -8.639840E+03 -1.905443E+04 -8.658749E+03 -3.911358E+02
        95   6 -4.038469E+04 -9.983051E+03 -4.644337E+03 -2.117751E+04 -4.190943E+03  1.536372E+03
        95   7  4.906511E+03  1.620067E+03 -5.024448E+03  6.306274E+03 -9.231209E+03 -2.569778E+03
        95   8  4.754652E+03  8.686879E+03  1.829411E+03 -3.108878E+03 -7.349782E+03  9.976155E+01
        95   9  1.514236E+03  3.823513E+03  3.877837E+03 -1.119268E+04 -4.905335E+03  1.268424E+03
        95  10 -8.985934E+04 -5.132787E+04 -3.306402E+04 -3.750427E+04 -5.791713E-10 -6.257751E-11
        95  11 -8.412511E+04 -3.119244E+04 -1.910946E+04 -3.499891E+04 -8.428290E-10 -1.847372E-10
        95  12 -8.228163E+04 -2.378948E+04 -1.316657E+04 -3.116170E+04 -4.916961E-10  1.976180E-10
        95  13 -4.247732E+04 -2.485428E+04 -1.904412E+04 -1.559974E+04  3.984248E-11 -3.683396E-11
        95  14 -3.968617E+04 -1.125296E+04 -8.639982E+03 -1.905443E+04 -1.022635E-09 -2.641991E-10
        95  15 -4.038471E+04 -9.983059E+03 -4.644374E+03 -2.117751E+04  9.641453E-10 -6.870431E-10
        95  16  4.906418E+03  1.620037E+03 -5.024621E+03  6.306255E+03  6.218779E-10 -2.497141E-11
        95  17  4.754594E+03  8.686864E+03  1.829310E+03 -3.108877E+03  8.019828E-11 -3.435367E-10
        95  18  1.514210E+03  3.823505E+03  3.877788E+03 -1.119268E+04 -7.132540E-10 -1.349213E-09
        95  19 -8.985906E+04 -5.132777E+04 -3.306350E+04 -3.750420E+04  1.589550E+04  5.069061E+03
        95  20 -8.412500E+04 -3.119241E+04 -1.910928E+04 -3.499890E+04  9.967622E+03  8.819786E+02
        95  21 -8.228161E+04 -2.378948E+04 -1.316654E+04 -3.116171E+04  3.476608E+03 -1.804304E+03
        95  22 -4.247715E+04 -2.485422E+04 -1.904379E+04 -1.559970E+04  1.256347E+04  3.819521E+03
        95  23 -3.968609E+04 -1.125294E+04 -8.639840E+03 -1.905443E+04  8.658749E+03  3.911358E+02
        95  24 -4.038469E+04 -9.983051E+03 -4.644337E+03 -2.117751E+04  4.190943E+03 -1.536372E+03
        95  25  4.906511E+03  1.620067E+03 -5.024448E+03  6.306274E+03  9.231209E+03  2.569778E+03
        95  26  4.754652E+03  8.686879E+03  1.829411E+03 -3.108878E+03  7.349782E+03 -9.976155E+01
        95  27  1.514236E+03  3.823513E+03  3.877837E+03 -1.119268E+04  4.905335E+03 -1.268424E+03
        96   1 -7.593702E+04 -2.405185E+04 -1.114379E+04 -3.086384E+04 -3.141184E+03  1.588758E+03
        96   2 -7.007546E+04 -2.037496E+04 -8.028096E+03 -2.835778E+04 -1.938647E+03  1.650444E+03
        96   3 -6.322429E+04 -1.852976E+04 -5.846916E+03 -2.727716E+04 -7.006633E+02  1.617598E+03
        96   4 -3.980301E+04 -1.062574E+04 -3.562689E+03 -2.067179E+04 -3.537714E+03  1.440021E+03
        96   5 -4.026976E+04 -9.433477E+03 -1.881648E+03 -2.006744E+04 -2.462573E+03  1.453937E+03
        96   6 -3.972166E+04 -1.004768E+04 -1.034162E+03 -2.088857E+04 -1.351990E+03  1.373319E+03
        96   7 -3.667939E+03  2.800386E+03  4.018264E+03 -1.047927E+04 -3.934267E+03  1.291275E+03
        96   8 -1.046316E+04  1.508078E+03  4.264753E+03 -1.177674E+04 -2.986527E+03  1.257419E+03
        96   9 -1.621828E+04 -1.565493E+03  3.778616E+03 -1.449972E+04 -2.003348E+03  1.129028E+03
        96  10 -7.593703E+04 -2.405186E+04 -1.114381E+04 -3.086384E+04 -1.568613E-09 -3.693667E-10
        96  11 -7.007547E+04 -2.037496E+04 -8.028108E+03 -2.835778E+04  6.400870E-09  2.649596E-09
        96  12 -6.322429E+04 -1.852976E+04 -5.846922E+03 -2.727716E+04  7.654835E-09  2.107701E-09
        96  13 -3.980302E+04 -1.062575E+04 -3.562716E+03 -2.067179E+04  3.045327E-09  6.745013E-10
        96  14 -4.026977E+04 -9.433481E+03 -1.881664E+03 -2.006744E+04  8.037195E-09  2.503250E-09
        96  15 -3.972166E+04 -1.004768E+04 -1.034169E+03 -2.088857E+04  3.623487E-09  1.424454E-09
        96  16 -3.667956E+03  2.800380E+03  4.018232E+03 -1.047926E+04  6.350224E-09  1.361084E-09
        96  17 -1.046317E+04  1.508074E+03  4.264734E+03 -1.177674E+04  6.549219E-09  2.581541E-09
        96  18 -1.621829E+04 -1.565496E+03  3.778606E+03 -1.449971E+04 -1.667415E-09  7.245972E-10
        96  19 -7.593702E+04 -2.405185E+04 -1.114379E+04 -3.086384E+04  3.141184E+03 -1.588758E+03
        96  20 -7.007546E+04 -2.037496E+04 -8.028096E+03 -2.835778E+04  1.938647E+03 -1.650444E+03
        96  21 -6.322429E+04 -1.852976E+04 -5.846916E+03 -2.727716E+04  7.006633E+02 -1.617598E+03
        96  22 -3.980301E+04 -1.062574E+04 -3.562689E+03 -2.067179E+04  3.537714E+03 -1.440021E+03
        96  23 -4.026976E+04 -9.433477E+03 -1.881648E+03 -2.006744E+04  2.462573E+03 -1.453937E+03
        96  24 -3.972166E+04 -1.004768E+04 -1.034162E+03 -2.088857E+04  1.351990E+03 -1.373319E+03
        96  25 -3.667939E+03  2.800386E+03  4.018264E+03 -1.047927E+04  3.934267E+03 -1.291275E+03
        96  26 -1.046316E+04  1.508078E+03  4.264753E+03 -1.177674E+04  2.986527E+03 -1.257419E+03
        96  27 -1.621828E+04 -1.565493E+03  3.778616E+03 -1.449972E+04  2.003348E+03 -1.129028E+03
        97   1 -5.868326E+04 -1.698527E+04 -4.647333E+03 -2.608964E+04 -4.699049E+02  1.384081E+03
        97   2 -5.289308E+04 -1.396709E+04 -2.995314E+03 -2.356046E+04 -7.150965E+01  9.959547E+02
        97   3 -4.581955E+04 -1.229523E+04 -1.513925E+03 -2.254867E+04  3.291092E+02  6.018609E+02
        97   4 -3.967963E+04 -1.007369E+04 -7.788517E+02 -2.086071E+04 -1.101246E+03  1.147301E+03
        97   5 -4.032125E+04 -9.395597E+03 -4.283493E+02 -2.010416E+04 -7.108850E+02  7.561663E+02
        97   6 -3.967797E+04 -1.006223E+04 -2.420985E+02 -2.086498E+04 -3.183041E+02  3.590641E+02
        97   7 -2.067564E+04 -3.162074E+03  3.089612E+03 -1.563164E+04 -1.732608E+03  9.105128E+02
        97   8 -2.774932E+04 -4.824116E+03  2.138595E+03 -1.664780E+04 -1.350272E+03  5.163737E+02
        97   9 -3.353639E+04 -7.829239E+03  1.029714E+03 -1.918130E+04 -9.657192E+02  1.162666E+02
        97  10 -5.868326E+04 -1.698528E+04 -4.647337E+03 -2.608963E+04 -4.618402E-10 -2.321950E-10
        97  11 -5.289308E+04 -1.396709E+04 -2.995316E+03 -2.356046E+04 -4.975143E-11  2.096066E-10
        97  12 -4.581955E+04 -1.229523E+04 -1.513925E+03 -2.254867E+04 -3.273627E-11 -7.616555E-11
        97  13 -3.967964E+04 -1.007369E+04 -7.788564E+02 -2.086071E+04  9.455546E-10  4.598494E-10
        97  14 -4.032125E+04 -9.395598E+03 -4.283513E+02 -2.010416E+04  3.216688E-10  6.596166E-10
        97  15 -3.967797E+04 -1.006223E+04 -2.420989E+02 -2.086498E+04 -1.443188E-09  4.728759E-10
        97  16 -2.067564E+04 -3.162075E+03  3.089604E+03 -1.563164E+04  8.755535E-11  1.285677E-09
        97  17 -2.774932E+04 -4.824116E+03  2.138591E+03 -1.664780E+04  5.629880E-10  1.034762E-09
        97  18 -3.353639E+04 -7.829239E+03  1.029712E+03 -1.918130E+04 -1.442301E-09  1.071953E-09
        97  19 -5.868326E+04 -1.698527E+04 -4.647333E+03 -2.608964E+04  4.699049E+02 -1.384081E+03
        97  20 -5.289308E+04 -1.396709E+04 -2.995314E+03 -2.356046E+04  7.150965E+01 -9.959547E+02
        97  21 -4.581955E+04 -1.229523E+04 -1.513925E+03 -2.254867E+04 -3.291092E+02 -6.018609E+02
        97  22 -3.967963E+04 -1.007369E+04 -7.788517E+02 -2.086071E+04  1.101246E+03 -1.147301E+03
        97  23 -4.032125E+04 -9.395597E+03 -4.283493E+02 -2.010416E+04  7.108850E+02 -7.561663E+02
        97  24 -3.967797E+04 -1.006223E+04 -2.420985E+02 -2.086498E+04  3.183041E+02 -3.590641E+02
        97  25 -2.067564E+04 -3.162074E+03  3.089612E+03 -1.563164E+04  1.732608E+03 -9.105128E+02
        97  26 -2.774932E+04 -4.824116E+03  2.138595E+03 -1.664780E+04  1.350272E+03 -5.163737E+02
        97  27 -3.353639E+04 -7.829239E+03  1.029714E+03 -1.918130E+04  9.657192E+02 -1.162666E+02
        98   1 -4.137301E+04 -1.067127E+04 -5.136365E+02 -2.132417E+04  4.682672E+02  3.353085E+02
        98   2 -3.560139E+04 -7.669472E+03  8.489149E+02 -1.878959E+04  7.067878E+02 -1.221034E+02
        98   3 -2.851710E+04 -5.990338E+03  2.167599E+03 -1.777046E+04  9.454325E+02 -5.798454E+02
        98   4 -3.967262E+04 -1.006299E+04 -1.864573E+02 -2.086245E+04 -1.778949E+02  9.298180E+01
        98   5 -4.032905E+04 -9.402613E+03 -1.170382E+02 -2.010434E+04  6.017255E+01 -3.646035E+02
        98   6 -3.967289E+04 -1.006488E+04 -9.117152E+01 -2.086174E+04  2.983628E+02 -8.225181E+02
        98   7 -3.797222E+04 -9.454701E+03  1.407274E+02 -2.040072E+04 -8.240640E+02 -1.493476E+02
        98   8 -4.505670E+04 -1.113576E+04 -1.082996E+03 -2.141908E+04 -5.864401E+02 -6.071025E+02
        98   9 -5.082855E+04 -1.413941E+04 -2.349947E+03 -2.395296E+04 -3.486946E+02 -1.065186E+03
        98  10 -4.137301E+04 -1.067127E+04 -5.136371E+02 -2.132417E+04 -1.598358E-09 -2.471953E-10
        98  11 -3.560139E+04 -7.669472E+03  8.489139E+02 -1.878959E+04 -3.519771E-09  3.398691E-10
        98  12 -2.851710E+04 -5.990338E+03  2.167597E+03 -1.777046E+04 -3.554533E-09  3.327090E-10
        98  13 -3.967262E+04 -1.006299E+04 -1.864574E+02 -2.086245E+04 -6.761053E-10  4.122714E-10
        98  14 -4.032905E+04 -9.402613E+03 -1.170385E+02 -2.010434E+04  3.711314E-10  5.681288E-10
        98  15 -3.967289E+04 -1.006488E+04 -9.117296E+01 -2.086174E+04  2.684014E-10  9.967817E-10
        98  16 -3.797222E+04 -9.454702E+03  1.407261E+02 -2.040072E+04 -8.230153E-10  1.047181E-09
        98  17 -4.505670E+04 -1.113576E+04 -1.082997E+03 -2.141908E+04  1.882487E-09  9.003131E-10
        98  18 -5.082855E+04 -1.413941E+04 -2.349950E+03 -2.395296E+04  2.927259E-09  1.665724E-09
        98  19 -4.137301E+04 -1.067127E+04 -5.136365E+02 -2.132417E+04 -4.682672E+02 -3.353085E+02
        98  20 -3.560139E+04 -7.669472E+03  8.489149E+02 -1.878959E+04 -7.067878E+02  1.221034E+02
        98  21 -2.851710E+04 -5.990338E+03  2.167599E+03 -1.777046E+04 -9.454325E+02  5.798454E+02
        98  22 -3.967262E+04 -1.006299E+04 -1.864573E+02 -2.086245E+04  1.778949E+02 -9.298180E+01
        98  23 -4.032905E+04 -9.402613E+03 -1.170382E+02 -2.010434E+04 -6.017255E+01  3.646035E+02
        98  24 -3.967289E+04 -1.006488E+04 -9.117152E+01 -2.086174E+04 -2.983628E+02  8.225181E+02
        98  25 -3.797222E+04 -9.454701E+03  1.407274E+02 -2.040072E+04  8.240640E+02  1.493476E+02
        98  26 -4.505670E+04 -1.113576E+04 -1.082996E+03 -2.141908E+04  5.864401E+02  6.071025E+02
        98  27 -5.082855E+04 -1.413941E+04 -2.349947E+03 -2.395296E+04  3.486946E+02  1.065186E+03
        99   1 -2.407936E+04 -4.363034E+03  3.112613E+03 -1.654539E+04  1.065432E+03 -8.534898E+02
        99   2 -1.830809E+04 -1.359632E+03  4.381733E+03 -1.401137E+04  1.301512E+03 -1.312090E+03
        99   3 -1.122403E+04  3.213162E+02  5.608848E+03 -1.299271E+04  1.537388E+03 -1.770135E+03
        99   4 -3.967297E+04 -1.006490E+04 -9.070333E+01 -2.086172E+04  4.183335E+02 -1.096175E+03
        99   5 -4.032917E+04 -9.402894E+03 -1.143315E+02 -2.010431E+04  6.551562E+02 -1.554504E+03
        99   6 -3.967277E+04 -1.006347E+04 -1.805464E+02 -2.086226E+04  8.917759E+02 -2.012279E+03
        99   7 -5.526620E+04 -1.576671E+04 -3.293997E+03 -2.517792E+04 -2.287420E+02 -1.338852E+03
        99   8 -6.234975E+04 -1.744611E+04 -4.610419E+03 -2.619706E+04  8.825356E+00 -1.796908E+03
        99   9 -6.812090E+04 -2.044826E+04 -5.970041E+03 -2.873154E+04  2.461904E+02 -2.254412E+03
        99  10 -2.407936E+04 -4.363035E+03  3.112610E+03 -1.654539E+04 -2.214360E-09  1.479318E-12
        99  11 -1.830809E+04 -1.359634E+03  4.381726E+03 -1.401137E+04 -1.138640E-08 -4.347513E-09
        99  12 -1.122404E+04  3.213122E+02  5.608838E+03 -1.299271E+04 -2.672041E-08 -9.311674E-09
        99  13 -3.967297E+04 -1.006491E+04 -9.070591E+01 -2.086172E+04  1.847935E-09  5.129799E-10
        99  14 -4.032917E+04 -9.402896E+03 -1.143368E+02 -2.010431E+04  3.346838E-09 -3.771697E-09
        99  15 -3.967277E+04 -1.006347E+04 -1.805555E+02 -2.086226E+04 -3.885275E-09 -1.108189E-08
        99  16 -5.526620E+04 -1.576671E+04 -3.294001E+03 -2.517792E+04  4.323676E-09  3.208259E-09
        99  17 -6.234975E+04 -1.744612E+04 -4.610425E+03 -2.619706E+04  1.173844E-08  6.849449E-09
        99  18 -6.812090E+04 -2.044827E+04 -5.970051E+03 -2.873154E+04  8.328728E-09  4.436339E-09
        99  19 -2.407936E+04 -4.363034E+03  3.112613E+03 -1.654539E+04 -1.065432E+03  8.534898E+02
        99  20 -1.830809E+04 -1.359632E+03  4.381733E+03 -1.401137E+04 -1.301512E+03  1.312090E+03
        99  21 -1.122403E+04  3.213162E+02  5.608848E+03 -1.299271E+04 -1.537388E+03  1.770135E+03
        99  22 -3.967297E+04 -1.006490E+04 -9.070333E+01 -2.086172E+04 -4.183335E+02  1.096175E+03
        99  23 -4.032917E+04 -9.402894E+03 -1.143315E+02 -2.010431E+04 -6.551562E+02  1.554504E+03
        99  24 -3.967277E+04 -1.006347E+04 -1.805464E+02 -2.086226E+04 -8.917759E+02  2.012279E+03
        99  25 -5.526620E+04 -1.576671E+04 -3.293997E+03 -2.517792E+04  2.287420E+02  1.338852E+03
        99  26 -6.234975E+04 -1.744611E+04 -4.610419E+03 -2.619706E+04 -8.825356E+00  1.796908E+03
        99  27 -6.812090E+04 -2.044826E+04 -5.970041E+03 -2.873154E+04 -2.461904E+02  2.254412E+03
       100   1 -6.789095E+03  1.946680E+03  6.499843E+03 -1.177304E+04  1.678468E+03 -2.035947E+03
       100   2 -1.004418E+03  4.951507E+03  7.616805E+03 -9.239787E+03  2.051036E+03 -2.438901E+03
       100   3  6.068097E+03  6.614873E+03  8.584634E+03 -8.223394E+03  2.420302E+03 -2.833016E+03
       100   4 -3.967814E+04 -1.006278E+04 -2.339763E+02 -2.086467E+04  1.031031E+03 -2.278782E+03
       100   5 -4.032182E+04 -9.396554E+03 -4.130989E+02 -2.010416E+04  1.415502E+03 -2.677284E+03
       100   6 -3.968002E+04 -1.007416E+04 -7.507808E+02 -2.086053E+04  1.796668E+03 -3.066948E+03
       100   7 -7.256606E+04 -2.207215E+04 -6.967847E+03 -2.995586E+04  3.836309E+02 -2.521603E+03
       100   8 -7.963747E+04 -2.374442E+04 -8.443034E+03 -3.096786E+04  7.800140E+02 -2.915651E+03
       100   9 -8.542562E+04 -2.676287E+04 -1.008620E+04 -3.349671E+04  1.173087E+03 -3.300860E+03
       100  10 -6.789099E+03  1.946675E+03  6.499830E+03 -1.177303E+04  8.658721E-09  4.690643E-09
       100  11 -1.004424E+03  4.951500E+03  7.616786E+03 -9.239783E+03  1.146504E-08  6.946369E-09
       100  12  6.068089E+03  6.614863E+03  8.584608E+03 -8.223388E+03  2.116978E-09  3.786518E-09
       100  13 -3.967814E+04 -1.006279E+04 -2.339881E+02 -2.086467E+04 -4.255704E-09 -1.124533E-08
       100  14 -4.032182E+04 -9.396562E+03 -4.131161E+02 -2.010416E+04  1.241412E-09 -3.700025E-09
       100  15 -3.968003E+04 -1.007417E+04 -7.508046E+02 -2.086053E+04  1.209986E-09  9.354439E-10
       100  16 -7.256606E+04 -2.207215E+04 -6.967859E+03 -2.995586E+04 -2.613016E-08 -9.672208E-09
       100  17 -7.963747E+04 -2.374443E+04 -8.443052E+03 -3.096786E+04 -1.146539E-08 -4.529811E-09
       100  18 -8.542563E+04 -2.676288E+04 -1.008622E+04 -3.349671E+04 -1.899959E-09  7.909699E-10
       100  19 -6.789095E+03  1.946680E+03  6.499843E+03 -1.177304E+04 -1.678468E+03  2.035947E+03
       100  20 -1.004418E+03  4.951507E+03  7.616805E+03 -9.239787E+03 -2.051036E+03  2.438901E+03
       100  21  6.068097E+03  6.614873E+03  8.584634E+03 -8.223394E+03 -2.420302E+03  2.833016E+03
       100  22 -3.967814E+04 -1.006278E+04 -2.339763E+02 -2.086467E+04 -1.031031E+03  2.278782E+03
       100  23 -4.032182E+04 -9.396554E+03 -4.130989E+02 -2.010416E+04 -1.415502E+03  2.677284E+03
       100  24 -3.968002E+04 -1.007416E+04 -7.507808E+02 -2.086053E+04 -1.796668E+03  3.066948E+03
       100  25 -7.256606E+04 -2.207215E+04 -6.967847E+03 -2.995586E+04 -3.836309E+02  2.521603E+03
       100  26 -7.963747E+04 -2.374442E+04 -8.443034E+03 -3.096786E+04 -7.800140E+02  2.915651E+03
       100  27 -8.542562E+04 -2.676287E+04 -1.008620E+04 -3.349671E+04 -1.173087E+03  3.300860E+03
       101   1  1.052463E+04  8.213519E+03  9.282600E+03 -7.086681E+03  2.695582E+03 -3.050408E+03
       101   2  1.627380E+04  1.128443E+04  9.818893E+03 -4.375367E+03  3.575280E+03 -3.193251E+03
       101   3  2.308336E+04  1.260707E+04  9.701336E+03 -3.089026E+03  4.402561E+03 -3.196228E+03
       101   4 -3.972084E+04 -1.004851E+04 -9.966751E+02 -2.088653E+04  2.042393E+03 -3.295435E+03
       101   5 -4.027167E+04 -9.434299E+03 -1.813257E+03 -2.006956E+04  3.110575E+03 -3.367600E+03
       101   6 -3.979961E+04 -1.060580E+04 -3.433090E+03 -2.067766E+04  4.126330E+03 -3.299893E+03
       101   7 -8.996412E+04 -2.831050E+04 -1.127619E+04 -3.468547E+04  1.389257E+03 -3.540443E+03
       101   8 -9.681409E+04 -3.015284E+04 -1.344564E+04 -3.576250E+04  2.645914E+03 -3.541932E+03
       101   9 -1.026785E+05 -3.381834E+04 -1.656773E+04 -3.826465E+04  3.850128E+03 -3.403547E+03
       101  10  1.052462E+04  8.213507E+03  9.282569E+03 -7.086675E+03  2.756446E-09  3.143446E-09
       101  11  1.627378E+04  1.128441E+04  9.818850E+03 -4.375358E+03  1.674489E-09  1.605415E-09
       101  12  2.308334E+04  1.260706E+04  9.701281E+03 -3.089014E+03  8.218947E-11  7.218250E-10
       101  13 -3.972084E+04 -1.004853E+04 -9.967033E+02 -2.088653E+04 -1.641693E-11  1.605214E-09
       101  14 -4.027168E+04 -9.434314E+03 -1.813297E+03 -2.006955E+04 -2.085189E-09  7.264936E-10
       101  15 -3.979963E+04 -1.060582E+04 -3.433143E+03 -2.067765E+04 -9.503173E-10  6.430129E-10
       101  16 -8.996413E+04 -2.831051E+04 -1.127622E+04 -3.468546E+04 -4.644285E-09  3.007644E-10
       101  17 -9.681410E+04 -3.015286E+04 -1.344567E+04 -3.576249E+04 -2.320848E-09  2.002371E-10
       101  18 -1.026786E+05 -3.381836E+04 -1.656778E+04 -3.826464E+04 -1.178326E-09  4.713078E-10
       101  19  1.052463E+04  8.213519E+03  9.282600E+03 -7.086681E+03 -2.695582E+03  3.050408E+03
       101  20  1.627380E+04  1.128443E+04  9.818893E+03 -4.375367E+03 -3.575280E+03  3.193251E+03
       101  21  2.308336E+04  1.260707E+04  9.701336E+03 -3.089026E+03 -4.402561E+03  3.196228E+03
       101  22 -3.972084E+04 -1.004851E+04 -9.966751E+02 -2.088653E+04 -2.042393E+03  3.295435E+03
       101  23 -4.027167E+04 -9.434299E+03 -1.813257E+03 -2.006956E+04 -3.110575E+03  3.367600E+03
       101  24 -3.979961E+04 -1.060580E+04 -3.433090E+03 -2.067766E+04 -4.126330E+03  3.299893E+03
       101  25 -8.996412E+04 -2.831050E+04 -1.127619E+04 -3.468547E+04 -1.389257E+03  3.540443E+03
       101  26 -9.681409E+04 -3.015284E+04 -1.344564E+04 -3.576250E+04 -2.645914E+03  3.541932E+03
       101  27 -1.026785E+05 -3.381834E+04 -1.656773E+04 -3.826465E+04 -3.850128E+03  3.403547E+03
       102   1  2.825969E+04  1.366884E+04  9.598196E+03 -3.714258E+03  5.509912E+03 -3.132989E+03
       102   2  3.152846E+04  1.847734E+04  8.008638E+03  4.098809E+03  6.692785E+03 -2.054173E+03
       102   3  3.203943E+04  1.198526E+04  2.615290E+03  1.318184E+04  7.042775E+03  1.244829E+03
       102   4 -4.036741E+04 -9.979277E+03 -4.475343E+03 -2.115655E+04  4.763461E+03 -3.413043E+03
       102   5 -3.970064E+04 -1.119673E+04 -8.325432E+03 -1.910406E+04  8.939545E+03 -1.211399E+03
       102   6 -4.238497E+04 -2.430844E+04 -1.835079E+04 -1.578171E+04  1.228267E+04  3.210491E+03
       102   7 -1.089896E+05 -3.362710E+04 -1.854910E+04 -3.859710E+04  4.017100E+03 -3.693066E+03
       102   8 -1.109237E+05 -4.086965E+04 -2.465958E+04 -4.230408E+04  1.118600E+04 -3.687696E+02
       102   9 -1.168021E+05 -6.059977E+04 -3.931678E+04 -4.474111E+04  1.752178E+04  5.175675E+03
       102  10  2.825966E+04  1.366882E+04  9.598120E+03 -3.714245E+03  2.826689E-10  8.934093E-10
       102  11  3.152841E+04  1.847733E+04  8.008546E+03  4.098820E+03  2.385373E-10  5.795698E-10
       102  12  3.203937E+04  1.198525E+04  2.615194E+03  1.318183E+04  5.549705E-10  5.837294E-10
       102  13 -4.036744E+04 -9.979295E+03 -4.475408E+03 -2.115654E+04  8.413424E-10  6.637092E-10
       102  14 -3.970073E+04 -1.119675E+04 -8.325585E+03 -1.910405E+04  1.060153E-09  1.040421E-09
       102  15 -4.238513E+04 -2.430849E+04 -1.835109E+04 -1.578175E+04  1.796853E-10  5.552933E-10
       102  16 -1.089896E+05 -3.362712E+04 -1.854915E+04 -3.859708E+04 -1.387393E-09  6.990378E-10
       102  17 -1.109239E+05 -4.086968E+04 -2.465981E+04 -4.230408E+04 -7.989354E-10  8.167562E-10
       102  18 -1.168025E+05 -6.059989E+04 -3.931741E+04 -4.474119E+04 -1.400562E-09 -3.619063E-11
       102  19  2.825969E+04  1.366884E+04  9.598196E+03 -3.714258E+03 -5.509912E+03  3.132989E+03
       102  20  3.152846E+04  1.847734E+04  8.008638E+03  4.098809E+03 -6.692785E+03  2.054173E+03
       102  21  3.203943E+04  1.198526E+04  2.615290E+03  1.318184E+04 -7.042775E+03 -1.244829E+03
       102  22 -4.036741E+04 -9.979277E+03 -4.475343E+03 -2.115655E+04 -4.763461E+03  3.413043E+03
       102  23 -3.970064E+04 -1.119673E+04 -8.325432E+03 -1.910406E+04 -8.939545E+03  1.211399E+03
       102  24 -4.238497E+04 -2.430844E+04 -1.835079E+04 -1.578171E+04 -1.228267E+04 -3.210491E+03
       102  25 -1.089896E+05 -3.362710E+04 -1.854910E+04 -3.859710E+04 -4.017100E+03  3.693066E+03
       102  26 -1.109237E+05 -4.086965E+04 -2.465958E+04 -4.230408E+04 -1.118600E+04  3.687696E+02
       102  27 -1.168021E+05 -6.059977E+04 -3.931678E+04 -4.474111E+04 -1.752178E+04 -5.175675E+03
       103   1  2.286306E+05  3.686192E+04  3.280987E+04  3.449595E+03  9.086664E+03 -2.808604E+03
       103   2  2.189566E+05  4.127712E+04  2.780335E+04  7.000838E+03  3.576070E+03 -9.669602E+03
       103   3  2.088744E+05  4.118114E+04  2.525721E+04  1.201988E+04 -1.935082E+03 -1.219586E+04
       103   4  2.647739E+04 -1.290034E+04 -1.389965E+04  1.195346E+04 -9.765698E+03 -2.812717E+03
       103   5  2.746803E+04 -3.956291E+03 -6.915586E+03  1.121796E+04 -6.222859E+03 -9.672276E+03
       103   6  2.647840E+04 -1.095855E+03 -3.757464E+03  1.195029E+04 -2.680786E+03 -1.219641E+04
       103   7 -1.756371E+05 -6.266500E+04 -6.061051E+04  2.045453E+04 -2.861197E+04 -2.817348E+03
       103   8 -1.639846E+05 -4.919165E+04 -4.163560E+04  1.543374E+04 -1.601885E+04 -9.675084E+03
       103   9 -1.558845E+05 -4.337451E+04 -3.277299E+04  1.188072E+04 -3.426279E+03 -1.219695E+04
       103  10  2.286305E+05  3.686189E+04  3.280970E+04  3.449616E+03 -1.834030E-10  3.369994E-11
       103  11  2.189566E+05  4.127702E+04  2.780315E+04  7.000866E+03 -3.177941E-10 -2.572631E-10
       103  12  2.088743E+05  4.118098E+04  2.525692E+04  1.201987E+04 -4.072966E-10 -2.733987E-10
       103  13  2.647729E+04 -1.290038E+04 -1.389984E+04  1.195344E+04  6.399033E-11  1.149677E-10
       103  14  2.746796E+04 -3.956402E+03 -6.915834E+03  1.121791E+04  1.121186E-12 -4.266184E-10
       103  15  2.647835E+04 -1.096016E+03 -3.757757E+03  1.195026E+04  4.723616E-10 -5.911726E-11
       103  16 -1.756380E+05 -6.266523E+04 -6.061206E+04  2.045447E+04 -6.542182E-10 -1.552072E-10
       103  17 -1.639849E+05 -4.919182E+04 -4.163626E+04  1.543361E+04 -1.476239E-10 -1.251653E-09
       103  18 -1.558846E+05 -4.337468E+04 -3.277329E+04  1.188068E+04 -2.983577E-11 -9.745324E-10
       103  19  2.286306E+05  3.686192E+04  3.280987E+04  3.449595E+03 -9.086664E+03  2.808604E+03
       103  20  2.189566E+05  4.127712E+04  2.780335E+04  7.000838E+03 -3.576070E+03  9.669602E+03
       103  21  2.088744E+05  4.118114E+04  2.525721E+04  1.201988E+04  1.935082E+03  1.219586E+04
       103  22  2.647739E+04 -1.290034E+04 -1.389965E+04  1.195346E+04  9.765698E+03  2.812717E+03
       103  23  2.746803E+04 -3.956291E+03 -6.915586E+03  1.121796E+04  6.222859E+03  9.672276E+03
       103  24  2.647840E+04 -1.095855E+03 -3.757464E+03  1.195029E+04  2.680786E+03  1.219641E+04
       103  25 -1.756371E+05 -6.266500E+04 -6.061051E+04  2.045453E+04  2.861197E+04  2.817348E+03
       103  26 -1.639846E+05 -4.919165E+04 -4.163560E+04  1.543374E+04  1.601885E+04  9.675084E+03
       103  27 -1.558845E+05 -4.337451E+04 -3.277299E+04  1.188072E+04  3.426279E+03  1.219695E+04
       104   1  2.028181E+05  3.976959E+04  2.451554E+04  1.159853E+04 -1.432463E+03 -1.224381E+04
       104   2  1.929899E+05  3.791143E+04  2.316675E+04  1.097465E+04 -1.722996E+03 -1.235529E+04
       104   3  1.831288E+05  3.576785E+04  2.193600E+04  1.212855E+04 -2.013719E+03 -1.195972E+04
       104   4  2.687071E+04 -8.822227E+02 -2.821931E+03  1.201939E+04 -2.194158E+03 -1.224437E+04
       104   5  2.697960E+04 -2.265941E+02 -1.535670E+03  1.113034E+04 -1.425841E+03 -1.235552E+04
       104   6  2.687177E+04 -4.020114E+01 -8.666031E+02  1.201910E+04 -6.577012E+02 -1.195956E+04
       104   7 -1.490458E+05 -4.153554E+04 -3.016012E+04  1.244012E+04 -2.955645E+03 -1.224492E+04
       104   8 -1.390031E+05 -3.836591E+04 -2.623861E+04  1.128598E+04 -1.128762E+03 -1.235575E+04
       104   9 -1.293607E+05 -3.584938E+04 -2.366962E+04  1.190968E+04  6.979893E+02 -1.195939E+04
       104  10  2.028181E+05  3.976942E+04  2.451526E+04  1.159851E+04 -1.926994E-09 -4.055466E-10
       104  11  1.929899E+05  3.791126E+04  2.316646E+04  1.097463E+04 -1.833716E-09  3.677758E-10
       104  12  1.831288E+05  3.576769E+04  2.193573E+04  1.212853E+04  4.229896E-10 -1.812579E-10
       104  13  2.687066E+04 -8.823850E+02 -2.822222E+03  1.201937E+04 -4.652987E-10 -3.066706E-10
       104  14  2.697956E+04 -2.267586E+02 -1.535961E+03  1.113032E+04 -2.708584E-10  8.433192E-11
       104  15  2.687174E+04 -4.035485E+01 -8.668727E+02  1.201910E+04  1.310285E-11 -4.359067E-10
       104  16 -1.490459E+05 -4.153571E+04 -3.016042E+04  1.244009E+04  4.996731E-10  3.395041E-11
       104  17 -1.390031E+05 -3.836607E+04 -2.623890E+04  1.128597E+04  3.295625E-10  3.478555E-10
       104  18 -1.293607E+05 -3.584953E+04 -2.366989E+04  1.190969E+04 -6.544317E-10  3.127318E-10
       104  19  2.028181E+05  3.976959E+04  2.451554E+04  1.159853E+04  1.432463E+03  1.224381E+04
       104  20  1.929899E+05  3.791143E+04  2.316675E+04  1.097465E+04  1.722996E+03  1.235529E+04
       104  21  1.831288E+05  3.576785E+04  2.193600E+04  1.212855E+04  2.013719E+03  1.195972E+04
       104  22  2.687071E+04 -8.822227E+02 -2.821931E+03  1.201939E+04  2.194158E+03  1.224437E+04
       104  23  2.697960E+04 -2.265941E+02 -1.535670E+03  1.113034E+04  1.425841E+03  1.235552E+04
       104  24  2.687177E+04 -4.020114E+01 -8.666031E+02  1.201910E+04  6.577012E+02  1.195956E+04
       104  25 -1.490458E+05 -4.153554E+04 -3.016012E+04  1.244012E+04  2.955645E+03  1.224492E+04
       104  26 -1.390031E+05 -3.836591E+04 -2.623861E+04  1.128598E+04  1.128762E+03  1.235575E+04
       104  27 -1.293607E+05 -3.584938E+04 -2.366962E+04  1.190968E+04 -6.979893E+02  1.195939E+04
       105   1  1.769619E+05  3.433304E+04  2.113486E+04  1.208531E+04 -1.881720E+03 -1.156315E+04
       105   2  1.671276E+05  3.209379E+04  1.988031E+04  1.118037E+04 -1.822671E+03 -1.088519E+04
       105   3  1.572826E+05  2.984326E+04  1.858447E+04  1.208846E+04 -1.763704E+03 -1.014794E+04
       105   4  2.691313E+04 -3.104630E+01 -6.550561E+02  1.202696E+04 -5.276592E+02 -1.156295E+04
       105   5  2.692971E+04  7.591230E+00 -3.690104E+02  1.112042E+04 -3.448436E+02 -1.088488E+04
       105   6  2.691406E+04  1.345311E+01 -2.102252E+02  1.202694E+04 -1.621098E+02 -1.014751E+04
       105   7 -1.231129E+05 -3.439616E+04 -2.244533E+04  1.196862E+04  8.260886E+02 -1.156274E+04
       105   8 -1.132483E+05 -3.207951E+04 -2.061864E+04  1.106049E+04  1.132664E+03 -1.088456E+04
       105   9 -1.034374E+05 -2.981713E+04 -1.900517E+04  1.196543E+04  1.439163E+03 -1.014709E+04
       105  10  1.769619E+05  3.433289E+04  2.113460E+04  1.208529E+04 -8.944736E-10 -4.507818E-11
       105  11  1.671276E+05  3.209366E+04  1.988008E+04  1.118036E+04 -4.040838E-10  1.999827E-10
       105  12  1.572826E+05  2.984315E+04  1.858427E+04  1.208845E+04  5.995777E-10 -3.872359E-10
       105  13  2.691309E+04 -3.118995E+01 -6.553079E+02  1.202695E+04  7.003549E-11 -5.449816E-10
       105  14  2.692968E+04  7.463969E+00 -3.692333E+02  1.112042E+04  8.060549E-10  5.296242E-10
       105  15  2.691403E+04  1.334252E+01 -2.104188E+02  1.202694E+04  6.159243E-10  4.880694E-10
       105  16 -1.231130E+05 -3.439631E+04 -2.244558E+04  1.196862E+04  1.184081E-09  4.987958E-10
       105  17 -1.132484E+05 -3.207964E+04 -2.061886E+04  1.106050E+04  5.474106E-10  5.453206E-10
       105  18 -1.034374E+05 -2.981724E+04 -1.900537E+04  1.196544E+04 -4.039525E-10 -1.255025E-11
       105  19  1.769619E+05  3.433304E+04  2.113486E+04  1.208531E+04  1.881720E+03  1.156315E+04
       105  20  1.671276E+05  3.209379E+04  1.988031E+04  1.118037E+04  1.822671E+03  1.088519E+04
       105  21  1.572826E+05  2.984326E+04  1.858447E+04  1.208846E+04  1.763704E+03  1.014794E+04
       105  22  2.691313E+04 -3.104630E+01 -6.550561E+02  1.202696E+04  5.276592E+02  1.156295E+04
       105  23  2.692971E+04  7.591230E+00 -3.690104E+02  1.112042E+04  3.448436E+02  1.088488E+04
       105  24  2.691406E+04  1.345311E+01 -2.102252E+02  1.202694E+04  1.621098E+02  1.014751E+04
       105  25 -1.231129E+05 -3.439616E+04 -2.244533E+04  1.196862E+04 -8.260886E+02  1.156274E+04
       105  26 -1.132483E+05 -3.207951E+04 -2.061864E+04  1.106049E+04 -1.132664E+03  1.088456E+04
       105  27 -1.034374E+05 -2.981713E+04 -1.900517E+04  1.196543E+04 -1.439163E+03  1.014709E+04
       106   1  1.511093E+05  2.841970E+04  1.770126E+04  1.208137E+04 -1.730520E+03 -9.699435E+03
       106   2  1.412734E+05  2.616918E+04  1.635884E+04  1.116707E+04 -1.701390E+03 -8.929224E+03
       106   3  1.314335E+05  2.392089E+04  1.499779E+04  1.206935E+04 -1.672315E+03 -8.152106E+03
       106   4  2.692004E+04  1.249585E+01 -1.585877E+02  1.202773E+04 -1.292037E+02 -9.698973E+03
       106   5  2.692376E+04  1.205723E+01 -8.853716E+01  1.111943E+04 -8.567911E+01 -8.928701E+03
       106   6  2.692080E+04  1.131613E+01 -4.717650E+01  1.202773E+04 -4.221036E+01 -8.151521E+03
       106   7 -9.725369E+04 -2.839541E+04 -1.801866E+04  1.197410E+04  1.471806E+03 -9.698512E+03
       106   8 -8.741265E+04 -2.614566E+04 -1.653611E+04  1.107180E+04  1.529747E+03 -8.928179E+03
       106   9 -7.758086E+04 -2.389875E+04 -1.509230E+04  1.198612E+04  1.587632E+03 -8.150936E+03
       106  10  1.511093E+05  2.841960E+04  1.770107E+04  1.208136E+04 -2.854262E-10 -4.410788E-10
       106  11  1.412734E+05  2.616909E+04  1.635869E+04  1.116706E+04 -8.263443E-10  7.718358E-10
       106  12  1.314335E+05  2.392082E+04  1.499766E+04  1.206934E+04  2.284806E-10  8.144360E-10
       106  13  2.692001E+04  1.239483E+01 -1.587645E+02  1.202773E+04  1.039364E-10 -6.448349E-11
       106  14  2.692374E+04  1.197162E+01 -8.868699E+01  1.111943E+04 -1.057998E-09  1.090000E-09
       106  15  2.692078E+04  1.124478E+01 -4.730138E+01  1.202773E+04  1.641277E-10 -4.376095E-11
       106  16 -9.725371E+04 -2.839551E+04 -1.801884E+04  1.197411E+04  2.607964E-10  3.579808E-11
       106  17 -8.741268E+04 -2.614575E+04 -1.653626E+04  1.107181E+04 -5.323818E-11  4.074913E-10
       106  18 -7.758088E+04 -2.389883E+04 -1.509243E+04  1.198613E+04  7.712711E-11 -6.081812E-11
       106  19  1.511093E+05  2.841970E+04  1.770126E+04  1.208137E+04  1.730520E+03  9.699435E+03
       106  20  1.412734E+05  2.616918E+04  1.635884E+04  1.116707E+04  1.701390E+03  8.929224E+03
       106  21  1.314335E+05  2.392089E+04  1.499779E+04  1.206935E+04  1.672315E+03  8.152106E+03
       106  22  2.692004E+04  1.249585E+01 -1.585877E+02  1.202773E+04  1.292037E+02  9.698973E+03
       106  23  2.692376E+04  1.205723E+01 -8.853716E+01  1.111943E+04  8.567911E+01  8.928701E+03
       106  24  2.692080E+04  1.131613E+01 -4.717650E+01  1.202773E+04  4.221036E+01  8.151521E+03
       106  25 -9.725369E+04 -2.839541E+04 -1.801866E+04  1.197410E+04 -1.471806E+03  9.698512E+03
       106  26 -8.741265E+04 -2.614566E+04 -1.653611E+04  1.107180E+04 -1.529747E+03  8.928179E+03
       106  27 -7.758086E+04 -2.389875E+04 -1.509230E+04  1.198612E+04 -1.587632E+03  8.150936E+03
       107   1  1.252594E+05  2.250049E+04  1.408649E+04  1.206702E+04 -1.665138E+03 -7.697571E+03
       107   2  1.154233E+05  2.025247E+04  1.271144E+04  1.115469E+04 -1.661803E+03 -6.916672E+03
       107   3  1.055859E+05  1.800672E+04  1.133431E+04  1.206008E+04 -1.658510E+03 -6.135054E+03
       107   4  2.692216E+04  1.096723E+01 -3.273911E+01  1.202799E+04 -3.511216E+01 -7.696956E+03
       107   5  2.692326E+04  9.569259E+00 -1.041541E+01  1.111912E+04 -3.027869E+01 -6.916013E+03
       107   6  2.692275E+04  1.021997E+01  8.820650E+00  1.202799E+04 -2.548628E+01 -6.134351E+03
       107   7 -7.140528E+04 -2.247899E+04 -1.415211E+04  1.198896E+04  1.594666E+03 -7.696342E+03
       107   8 -6.156890E+04 -2.023369E+04 -1.273239E+04  1.108355E+04  1.601023E+03 -6.915354E+03
       107   9 -5.173414E+04 -1.798657E+04 -1.131676E+04  1.199589E+04  1.607339E+03 -6.133649E+03
       107  10  1.252594E+05  2.250042E+04  1.408637E+04  1.206701E+04  2.829514E-09 -1.494864E-10
       107  11  1.154233E+05  2.025242E+04  1.271135E+04  1.115468E+04  3.812212E-10 -6.558067E-10
       107  12  1.055859E+05  1.800668E+04  1.133424E+04  1.206008E+04 -2.590877E-09  1.557865E-10
       107  13  2.692215E+04  1.090362E+01 -3.285045E+01  1.202799E+04  1.379020E-10  7.049045E-10
       107  14  2.692325E+04  9.517895E+00 -1.050529E+01  1.111911E+04 -7.986506E-10 -4.825025E-11
       107  15  2.692274E+04  1.017957E+01  8.749933E+00  1.202799E+04  4.553444E-10  1.540885E-10
       107  16 -7.140530E+04 -2.247906E+04 -1.415222E+04  1.198897E+04 -2.325135E-09  2.465839E-10
       107  17 -6.156892E+04 -2.023374E+04 -1.273248E+04  1.108356E+04 -3.301926E-10 -5.790218E-10
       107  18 -5.173416E+04 -1.798661E+04 -1.131683E+04  1.199590E+04  2.277809E-09 -9.780497E-11
       107  19  1.252594E+05  2.250049E+04  1.408649E+04  1.206702E+04  1.665138E+03  7.697571E+03
       107  20  1.154233E+05  2.025247E+04  1.271144E+04  1.115469E+04  1.661803E+03  6.916672E+03
       107  21  1.055859E+05  1.800672E+04  1.133431E+04  1.206008E+04  1.658510E+03  6.135054E+03
       107  22  2.692216E+04  1.096723E+01 -3.273911E+01  1.202799E+04  3.511216E+01  7.696956E+03
       107  23  2.692326E+04  9.569259E+00 -1.041541E+01  1.111912E+04  3.027869E+01  6.916013E+03
       107  24  2.692275E+04  1.021997E+01  8.820650E+00  1.202799E+04  2.548628E+01  6.134351E+03
       107  25 -7.140528E+04 -2.247899E+04 -1.415211E+04  1.198896E+04 -1.594666E+03  7.696342E+03
       107  26 -6.156890E+04 -2.023369E+04 -1.273239E+04  1.108355E+04 -1.601023E+03  6.915354E+03
       107  27 -5.173414E+04 -1.798657E+04 -1.131676E+04  1.199589E+04 -1.607339E+03  6.133649E+03
       108   1  9.941272E+04  1.658699E+04  1.041986E+04  1.205875E+04 -1.661121E+03 -5.679902E+03
       108   2  8.957544E+04  1.434062E+04  9.049709E+03  1.114619E+04 -1.682730E+03 -4.898175E+03
       108   3  7.974076E+04  1.210063E+04  7.694648E+03  1.205092E+04 -1.704367E+03 -4.116937E+03
       108   4  2.692389E+04  1.012298E+01  1.901706E+01  1.202789E+04 -2.813769E+01 -5.679177E+03
       108   5  2.692275E+04  9.976661E+00  4.493613E+01  1.111924E+04 -5.077725E+01 -4.897420E+03
       108   6  2.692430E+04  1.639031E+01  8.665279E+01  1.202788E+04 -7.344548E+01 -4.116152E+03
       108   7 -4.555964E+04 -1.656698E+04 -1.038189E+04  1.199703E+04  1.604663E+03 -5.678453E+03
       108   8 -3.572596E+04 -1.432084E+04 -8.959887E+03  1.109229E+04  1.581017E+03 -4.896665E+03
       108   9 -2.588933E+04 -1.206797E+04 -7.521376E+03  1.200486E+04  1.557343E+03 -4.115366E+03
       108  10  9.941271E+04  1.658695E+04  1.041979E+04  1.205875E+04 -9.646430E-11  1.316935E-09
       108  11  8.957543E+04  1.434059E+04  9.049658E+03  1.114618E+04 -4.697503E-10  6.952747E-10
       108  12  7.974075E+04  1.210061E+04  7.694611E+03  1.205091E+04 -2.230073E-09  4.731274E-10
       108  13  2.692388E+04  1.008835E+01  1.895645E+01  1.202789E+04  6.641510E-10  7.880496E-10
       108  14  2.692275E+04  9.950904E+00  4.489105E+01  1.111924E+04 -8.081942E-10  4.115691E-10
       108  15  2.692430E+04  1.637212E+01  8.662094E+01  1.202788E+04 -1.291183E-10  6.511231E-10
       108  16 -4.555965E+04 -1.656701E+04 -1.038196E+04  1.199703E+04  6.362371E-10  7.371051E-10
       108  17 -3.572597E+04 -1.432087E+04 -8.959937E+03  1.109229E+04 -1.199444E-10 -9.798851E-10
       108  18 -2.588934E+04 -1.206799E+04 -7.521412E+03  1.200486E+04  3.647134E-11 -1.410151E-10
       108  19  9.941272E+04  1.658699E+04  1.041986E+04  1.205875E+04  1.661121E+03  5.679902E+03
       108  20  8.957544E+04  1.434062E+04  9.049709E+03  1.114619E+04  1.682730E+03  4.898175E+03
       108  21  7.974076E+04  1.210063E+04  7.694648E+03  1.205092E+04  1.704367E+03  4.116937E+03
       108  22  2.692389E+04  1.012298E+01  1.901706E+01  1.202789E+04  2.813769E+01  5.679177E+03
       108  23  2.692275E+04  9.976661E+00  4.493613E+01  1.111924E+04  5.077725E+01  4.897420E+03
       108  24  2.692430E+04  1.639031E+01  8.665279E+01  1.202788E+04  7.344548E+01  4.116152E+03
       108  25 -4.555964E+04 -1.656698E+04 -1.038189E+04  1.199703E+04 -1.604663E+03  5.678453E+03
       108  26 -3.572596E+04 -1.432084E+04 -8.959887E+03  1.109229E+04 -1.581017E+03  4.896665E+03
       108  27 -2.588933E+04 -1.206797E+04 -7.521376E+03  1.200486E+04 -1.557343E+03  4.115366E+03
       109   1  7.357254E+04  1.068222E+04  6.799251E+03  1.205548E+04 -1.721914E+03 -3.662225E+03
       109   2  6.372389E+04  8.459994E+03  5.491992E+03  1.110707E+04 -1.816853E+03 -2.883685E+03
       109   3  5.390186E+04  6.302503E+03  4.262102E+03  1.197534E+04 -1.911804E+03 -2.109989E+03
       109   4  2.693007E+04  1.770545E+01  1.164641E+02  1.202776E+04 -9.099925E+01 -3.661425E+03
       109   5  2.691613E+04  4.232012E+01  2.092879E+02  1.111938E+04 -1.960701E+02 -2.882872E+03
       109   6  2.693032E+04  1.333959E+02  3.864650E+02  1.202770E+04 -3.011540E+02 -2.109163E+03
       109   7 -1.971019E+04 -1.064691E+04 -6.566346E+03  1.200003E+04  1.539798E+03 -3.660625E+03
       109   8 -9.890251E+03 -8.375414E+03 -5.073427E+03  1.113170E+04  1.424621E+03 -2.882060E+03
       109   9 -4.048274E+01 -6.035743E+03 -3.489174E+03  1.208006E+04  1.309429E+03 -2.108337E+03
       109  10  7.357253E+04  1.068221E+04  6.799220E+03  1.205548E+04 -4.906113E-10  1.233703E-09
       109  11  6.372388E+04  8.459984E+03  5.491970E+03  1.110706E+04 -7.883322E-10 -7.165309E-11
       109  12  5.390185E+04  6.302497E+03  4.262087E+03  1.197533E+04  6.804303E-10  4.611828E-10
       109  13  2.693007E+04  1.769106E+01  1.164389E+02  1.202776E+04  6.684410E-10  7.948873E-10
       109  14  2.691613E+04  4.231119E+01  2.092722E+02  1.111938E+04 -1.346690E-09  4.019091E-10
       109  15  2.693032E+04  1.333911E+02  3.864565E+02  1.202770E+04  1.696432E-09 -4.471020E-10
       109  16 -1.971020E+04 -1.064692E+04 -6.566375E+03  1.200004E+04  7.740845E-10  2.899502E-10
       109  17 -9.890255E+03 -8.375424E+03 -5.073447E+03  1.113170E+04 -7.783969E-11 -4.422468E-10
       109  18 -4.048578E+01 -6.035748E+03 -3.489185E+03  1.208006E+04 -8.086109E-10 -1.602304E-09
       109  19  7.357254E+04  1.068222E+04  6.799251E+03  1.205548E+04  1.721914E+03  3.662225E+03
       109  20  6.372389E+04  8.459994E+03  5.491992E+03  1.110707E+04  1.816853E+03  2.883685E+03
       109  21  5.390186E+04  6.302503E+03  4.262102E+03  1.197534E+04  1.911804E+03  2.109989E+03
       109  22  2.693007E+04  1.770545E+01  1.164641E+02  1.202776E+04  9.099925E+01  3.661425E+03
       109  23  2.691613E+04  4.232012E+01  2.092879E+02  1.111938E+04  1.960701E+02  2.882872E+03
       109  24  2.693032E+04  1.333959E+02  3.864650E+02  1.202770E+04  3.011540E+02  2.109163E+03
       109  25 -1.971019E+04 -1.064691E+04 -6.566346E+03  1.200003E+04 -1.539798E+03  3.660625E+03
       109  26 -9.890251E+03 -8.375414E+03 -5.073427E+03  1.113170E+04 -1.424621E+03  2.882060E+03
       109  27 -4.048274E+01 -6.035743E+03 -3.489174E+03  1.208006E+04 -1.309429E+03  2.108337E+03
       110   1  4.777954E+04  4.910422E+03  3.459127E+03  1.203971E+04 -1.978818E+03 -1.659548E+03
       110   2  3.781726E+04  3.048667E+03  2.456380E+03  1.054052E+04 -2.378354E+03 -9.090731E+02
       110   3  2.811019E+04  2.009033E+03  1.918543E+03  1.085496E+04 -2.777877E+03 -2.000483E+02
       110   4  2.698419E+04  1.627095E+02  5.150567E+02  1.202709E+04 -3.680361E+02 -1.658715E+03
       110   5  2.684907E+04  5.542922E+02  9.486641E+02  1.111986E+04 -8.541216E+02 -9.082825E+02
       110   6  2.698424E+04  1.783068E+03  1.907320E+03  1.202626E+04 -1.340199E+03 -1.993008E+02
       110   7  6.189275E+03 -4.585021E+03 -2.429010E+03  1.201447E+04  1.242694E+03 -1.657883E+03
       110   8  1.588101E+04 -1.940085E+03 -5.590444E+02  1.169920E+04  6.700854E+02 -9.074890E+02
       110   9  2.585829E+04  1.557108E+03  1.896105E+03  1.319756E+04  9.747621E+01 -1.985479E+02
       110  10  4.777954E+04  4.910418E+03  3.459115E+03  1.203970E+04 -7.578610E-10  5.672190E-11
       110  11  3.781725E+04  3.048664E+03  2.456368E+03  1.054052E+04  6.683340E-10 -3.899309E-10
       110  12  2.811019E+04  2.009031E+03  1.918528E+03  1.085496E+04  3.655372E-10 -5.953732E-11
       110  13  2.698419E+04  1.627065E+02  5.150513E+02  1.202709E+04  6.923796E-10  2.726164E-10
       110  14  2.684907E+04  5.542912E+02  9.486612E+02  1.111986E+04  2.504606E-10 -1.386935E-09
       110  15  2.698424E+04  1.783067E+03  1.907316E+03  1.202626E+04  5.698373E-10  4.657697E-10
       110  16  6.189272E+03 -4.585024E+03 -2.429018E+03  1.201447E+04  1.045117E-09 -7.663466E-11
       110  17  1.588101E+04 -1.940086E+03 -5.590468E+02  1.169920E+04 -1.780794E-09 -1.410866E-10
       110  18  2.585829E+04  1.557108E+03  1.896105E+03  1.319756E+04 -1.495302E-10 -2.297325E-10
       110  19  4.777954E+04  4.910422E+03  3.459127E+03  1.203971E+04  1.978818E+03  1.659548E+03
       110  20  3.781726E+04  3.048667E+03  2.456380E+03  1.054052E+04  2.378354E+03  9.090731E+02
       110  21  2.811019E+04  2.009033E+03  1.918543E+03  1.085496E+04  2.777877E+03  2.000483E+02
       110  22  2.698419E+04  1.627095E+02  5.150567E+02  1.202709E+04  3.680361E+02  1.658715E+03
       110  23  2.684907E+04  5.542922E+02  9.486641E+02  1.111986E+04  8.541216E+02  9.082825E+02
       110  24  2.698424E+04  1.783068E+03  1.907320E+03  1.202626E+04  1.340199E+03  1.993008E+02
       110  25  6.189275E+03 -4.585021E+03 -2.429010E+03  1.201447E+04 -1.242694E+03  1.657883E+03
       110  26  1.588101E+04 -1.940085E+03 -5.590444E+02  1.169920E+04 -6.700854E+02  9.074890E+02
       110  27  2.585829E+04  1.557108E+03  1.896105E+03  1.319756E+04 -9.747621E+01  1.985479E+02
       111   1  3.082510E+03  1.068564E+05  3.341960E+03 -7.327502E+03 -1.552742E+01  7.534641E+02
       111   2  5.370467E+01  9.945477E+04  1.052499E+03 -5.875598E+03 -2.031809E+02 -1.021226E+02
       111   3 -1.895325E+03  9.243347E+04 -4.102950E+02 -6.320502E+03 -5.999815E+02 -9.577515E+02
       111   4  1.487638E+03  1.004896E+05  1.735932E+03 -6.421165E+03 -1.555084E+01  8.733640E+02
       111   5  2.330676E+02  1.003255E+05  1.079625E+03 -5.472907E+03 -2.032666E+02  3.189876E+02
       111   6  6.015739E+00  1.004896E+05  1.040869E+03 -6.421459E+03 -6.001280E+02 -2.354359E+02
       111   7 -1.072327E+02  9.412277E+04  1.299012E+02 -5.514838E+03 -1.557391E+01  9.932626E+02
       111   8  4.124311E+02  1.011963E+05  1.106751E+03 -5.070216E+03 -2.033518E+02  7.400984E+02
       111   9  1.907353E+03  1.085459E+05  2.492033E+03 -6.522417E+03 -6.002747E+02  4.868889E+02
       111  10  3.082509E+03  1.068564E+05  3.341959E+03 -7.327502E+03 -1.592008E-10  1.869538E-09
       111  11  5.370463E+01  9.945477E+04  1.052499E+03 -5.875598E+03  3.717711E-10  4.468127E-10
       111  12 -1.895325E+03  9.243347E+04 -4.102974E+02 -6.320503E+03 -5.400034E-10  7.383189E-10
       111  13  1.487638E+03  1.004896E+05  1.735931E+03 -6.421165E+03  1.517429E-09 -1.848250E-10
       111  14  2.330675E+02  1.003255E+05  1.079624E+03 -5.472907E+03  1.379423E-09 -4.202413E-10
       111  15  6.015337E+00  1.004896E+05  1.040869E+03 -6.421459E+03  6.074890E-10  7.266522E-12
       111  16 -1.072329E+02  9.412277E+04  1.298994E+02 -5.514838E+03  3.778237E-10 -1.653024E-09
       111  17  4.124309E+02  1.011963E+05  1.106750E+03 -5.070216E+03  1.155100E-09 -1.036616E-09
       111  18  1.907353E+03  1.085459E+05  2.492032E+03 -6.522417E+03  4.209626E-10 -5.862427E-10
       111  19  3.082510E+03  1.068564E+05  3.341960E+03 -7.327502E+03  1.552742E+01 -7.534641E+02
       111  20  5.370467E+01  9.945477E+04  1.052499E+03 -5.875598E+03  2.031809E+02  1.021226E+02
       111  21 -1.895325E+03  9.243347E+04 -4.102950E+02 -6.320502E+03  5.999815E+02  9.577515E+02
       111  22  1.487638E+03  1.004896E+05  1.735932E+03 -6.421165E+03  1.555084E+01 -8.733640E+02
       111  23  2.330676E+02  1.003255E+05  1.079625E+03 -5.472907E+03  2.032666E+02 -3.189876E+02
       111  24  6.015739E+00  1.004896E+05  1.040869E+03 -6.421459E+03  6.001280E+02  2.354359E+02
       111  25 -1.072327E+02  9.412277E+04  1.299012E+02 -5.514838E+03  1.557391E+01 -9.932626E+02
       111  26  4.124311E+02  1.011963E+05  1.106751E+03 -5.070216E+03  2.033518E+02 -7.400984E+02
       111  27  1.907353E+03  1.085459E+05  2.492033E+03 -6.522417E+03  6.002747E+02 -4.868889E+02
       112   1 -3.026279E+03  8.751230E+04 -1.239843E+03 -6.534964E+03 -8.990365E+02 -1.117175E+03
       112   2 -4.739086E+03  8.020685E+04 -2.119264E+03 -5.444515E+03 -1.349367E+03 -1.840592E+03
       112   3 -6.071925E+03  7.308979E+04 -2.432981E+03 -6.258910E+03 -1.729426E+03 -2.563981E+03
       112   4  4.224507E+01  1.004624E+05  1.154276E+03 -6.423208E+03 -8.991769E+02 -4.178352E+02
       112   5  4.548367E+01  1.003594E+05  1.652990E+03 -5.470748E+03 -1.349481E+03 -1.242480E+03
       112   6  4.462551E+02  1.004623E+05  2.787680E+03 -6.423127E+03 -1.729515E+03 -2.067105E+03
       112   7  3.110760E+03  1.134128E+05  3.548389E+03 -6.311449E+03 -8.993170E+02  2.815183E+02
       112   8  4.830030E+03  1.205124E+05  5.425227E+03 -5.496982E+03 -1.349596E+03 -6.443490E+02
       112   9  6.964391E+03  1.278355E+05  8.008308E+03 -6.587351E+03 -1.729605E+03 -1.570207E+03
       112  10 -3.026280E+03  8.751230E+04 -1.239847E+03 -6.534965E+03 -1.029889E-09  2.732858E-08
       112  11 -4.739089E+03  8.020685E+04 -2.119274E+03 -5.444517E+03 -2.219316E-09  6.714749E-10
       112  12 -6.071930E+03  7.308978E+04 -2.432999E+03 -6.258913E+03 -1.342281E-09 -2.404550E-08
       112  13  4.224415E+01  1.004624E+05  1.154274E+03 -6.423208E+03 -7.176167E-10 -1.877531E-10
       112  14  4.548130E+01  1.003594E+05  1.652983E+03 -5.470749E+03 -1.288750E-09 -3.796887E-10
       112  15  4.462507E+02  1.004623E+05  2.787667E+03 -6.423130E+03 -3.010391E-09 -2.690189E-11
       112  16  3.110759E+03  1.134128E+05  3.548388E+03 -6.311449E+03 -2.144028E-10 -2.709198E-08
       112  17  4.830028E+03  1.205124E+05  5.425223E+03 -5.496983E+03  2.457529E-10 -1.317697E-09
       112  18  6.964387E+03  1.278355E+05  8.008298E+03 -6.587354E+03 -1.883879E-09  2.419086E-08
       112  19 -3.026279E+03  8.751230E+04 -1.239843E+03 -6.534964E+03  8.990365E+02  1.117175E+03
       112  20 -4.739086E+03  8.020685E+04 -2.119264E+03 -5.444515E+03  1.349367E+03  1.840592E+03
       112  21 -6.071925E+03  7.308979E+04 -2.432981E+03 -6.258910E+03  1.729426E+03  2.563981E+03
       112  22  4.224507E+01  1.004624E+05  1.154276E+03 -6.423208E+03  8.991769E+02  4.178352E+02
       112  23  4.548367E+01  1.003594E+05  1.652990E+03 -5.470748E+03  1.349481E+03  1.242480E+03
       112  24  4.462551E+02  1.004623E+05  2.787680E+03 -6.423127E+03  1.729515E+03  2.067105E+03
       112  25  3.110760E+03  1.134128E+05  3.548389E+03 -6.311449E+03  8.993170E+02 -2.815183E+02
       112  26  4.830030E+03  1.205124E+05  5.425227E+03 -5.496982E+03  1.349596E+03  6.443490E+02
       112  27  6.964391E+03  1.278355E+05  8.008308E+03 -6.587351E+03  1.729605E+03  1.570207E+03
       113   1 -7.698724E+03  6.864451E+04 -2.612060E+03 -7.455491E+03 -2.020361E+03 -3.250460E+03
       113   2 -7.632667E+03  6.037086E+04 -1.736430E+03 -2.574568E+03 -1.911773E+03 -4.805197E+03
       113   3  4.092763E+01  5.420118E+04  2.053182E+03  4.720938E+02 -6.044951E+02 -6.359689E+03
       113   4 -2.392759E+00  1.009506E+05  3.568910E+03 -6.407793E+03 -2.020492E+03 -2.543427E+03
       113   5  1.853566E+03  9.974859E+04  6.314287E+03 -5.489663E+03 -1.911556E+03 -5.824597E+03
       113   6  1.161640E+04  1.009499E+05  1.317226E+04 -6.405699E+03 -6.039449E+02 -9.105525E+03
       113   7  7.693882E+03  1.332577E+05  9.749835E+03 -5.360040E+03 -2.020621E+03 -1.836358E+03
       113   8  1.133974E+04  1.391278E+05  1.436493E+04 -8.404947E+03 -1.911330E+03 -6.844061E+03
       113   9  2.319190E+04  1.477007E+05  2.429124E+04 -1.328401E+04 -6.033338E+02 -1.185157E+04
       113  10 -7.698732E+03  6.864450E+04 -2.612088E+03 -7.455496E+03 -1.174580E-09  2.707845E-08
       113  11 -7.632677E+03  6.037083E+04 -1.736481E+03 -2.574576E+03 -1.322357E-09  8.334715E-10
       113  12  4.091638E+01  5.420113E+04  2.053106E+03  4.720907E+02 -3.304289E-10 -2.434379E-08
       113  13 -2.398879E+00  1.009506E+05  3.568890E+03 -6.407797E+03 -1.183286E-09 -1.845977E-10
       113  14  1.853553E+03  9.974855E+04  6.314216E+03 -5.489672E+03 -1.574785E-09 -3.478003E-10
       113  15  1.161638E+04  1.009498E+05  1.317210E+04 -6.405704E+03  1.322580E-10 -2.647883E-11
       113  16  7.693877E+03  1.332577E+05  9.749821E+03 -5.360043E+03 -2.119428E-09 -2.686287E-08
       113  17  1.133972E+04  1.391278E+05  1.436484E+04 -8.404957E+03 -3.988151E-10 -1.367422E-09
       113  18  2.319186E+04  1.477005E+05  2.429097E+04 -1.328402E+04 -2.559414E-10  2.449172E-08
       113  19 -7.698724E+03  6.864451E+04 -2.612060E+03 -7.455491E+03  2.020361E+03  3.250460E+03
       113  20 -7.632667E+03  6.037086E+04 -1.736430E+03 -2.574568E+03  1.911773E+03  4.805197E+03
       113  21  4.092763E+01  5.420118E+04  2.053182E+03  4.720938E+02  6.044951E+02  6.359689E+03
       113  22 -2.392759E+00  1.009506E+05  3.568910E+03 -6.407793E+03  2.020492E+03  2.543427E+03
       113  23  1.853566E+03  9.974859E+04  6.314287E+03 -5.489663E+03  1.911556E+03  5.824597E+03
       113  24  1.161640E+04  1.009499E+05  1.317226E+04 -6.405699E+03  6.039449E+02  9.105525E+03
       113  25  7.693882E+03  1.332577E+05  9.749835E+03 -5.360040E+03  2.020621E+03  1.836358E+03
       113  26  1.133974E+04  1.391278E+05  1.436493E+04 -8.404947E+03  1.911330E+03  6.844061E+03
       113  27  2.319190E+04  1.477007E+05  2.429124E+04 -1.328401E+04  6.033338E+02  1.185157E+04
       114   1  2.552603E+05  9.204060E+04  4.710586E+04  9.431096E+04  1.832054E+04  3.859464E+03
       114   2  2.419353E+05  8.360881E+04  3.354298E+04  9.016774E+04  1.187241E+04 -5.730236E+03
       114   3  2.288787E+05  7.888588E+04  2.705209E+04  8.777171E+04  3.797755E+03 -1.098347E+04
       114   4  7.399543E+04  2.374917E+04  9.302244E+02  4.421702E+04  1.598432E+03 -2.415959E+03
       114   5  7.466266E+04  2.239103E+04  4.410494E+02  4.347659E+04  3.729145E+03 -8.786624E+03
       114   6  7.389963E+04  2.304363E+04  2.303184E+02  4.448339E+04  4.232655E+03 -1.082057E+04
       114   7 -1.072290E+05 -4.453685E+04 -4.524474E+04 -5.861365E+03 -1.511763E+04 -8.689078E+03
       114   8 -9.257701E+04 -3.882272E+04 -3.266084E+04 -3.201821E+03 -4.411579E+03 -1.184205E+04
       114   9 -8.105361E+04 -3.279612E+04 -2.659205E+04  1.205277E+03  4.667439E+03 -1.065771E+04
       114  10  2.552599E+05  9.204050E+04  4.710520E+04  9.431091E+04 -3.706188E-08 -1.177897E-08
       114  11  2.419351E+05  8.360873E+04  3.354265E+04  9.016780E+04 -1.162291E-08  2.078099E-09
       114  12  2.288787E+05  7.888574E+04  2.705184E+04  8.777174E+04  2.362701E-08  1.740241E-08
       114  13  7.399543E+04  2.374916E+04  9.302086E+02  4.421702E+04 -3.827521E-10 -2.865714E-09
       114  14  7.466263E+04  2.239094E+04  4.408782E+02  4.347662E+04  5.876092E-10 -1.416894E-08
       114  15  7.389958E+04  2.304350E+04  2.300647E+02  4.448343E+04  9.590307E-09 -2.314120E-08
       114  16 -1.072293E+05 -4.453699E+04 -4.524531E+04 -5.861470E+03  3.285447E-08  1.477264E-08
       114  17 -9.257707E+04 -3.882288E+04 -3.266114E+04 -3.201863E+03  5.141873E-09  9.552801E-09
       114  18 -8.105366E+04 -3.279624E+04 -2.659230E+04  1.205317E+03 -1.997292E-08  5.031077E-09
       114  19  2.552603E+05  9.204060E+04  4.710586E+04  9.431096E+04 -1.832054E+04 -3.859464E+03
       114  20  2.419353E+05  8.360881E+04  3.354298E+04  9.016774E+04 -1.187241E+04  5.730236E+03
       114  21  2.288787E+05  7.888588E+04  2.705209E+04  8.777171E+04 -3.797755E+03  1.098347E+04
       114  22  7.399543E+04  2.374917E+04  9.302244E+02  4.421702E+04 -1.598432E+03  2.415959E+03
       114  23  7.466266E+04  2.239103E+04  4.410494E+02  4.347659E+04 -3.729145E+03  8.786624E+03
       114  24  7.389963E+04  2.304363E+04  2.303184E+02  4.448339E+04 -4.232655E+03  1.082057E+04
       114  25 -1.072290E+05 -4.453685E+04 -4.524474E+04 -5.861365E+03  1.511763E+04  8.689078E+03
       114  26 -9.257701E+04 -3.882272E+04 -3.266084E+04 -3.201821E+03  4.411579E+03  1.184205E+04
       114  27 -8.105361E+04 -3.279612E+04 -2.659205E+04  1.205277E+03 -4.667439E+03  1.065771E+04
       115   1  2.201960E+05  7.577816E+04  2.500236E+04  8.549396E+04  3.931384E+03 -1.064253E+04
       115   2  2.078985E+05  6.990652E+04  2.174259E+04  8.081832E+04  2.875839E+03 -1.067808E+04
       115   3  1.939608E+05  6.607409E+04  1.923049E+04  7.823662E+04  1.651056E+03 -1.026292E+04
       115   4  7.382509E+04  2.308407E+04  1.718937E+02  4.453336E+04  4.111012E+03 -1.057541E+04
       115   5  7.473081E+04  2.213174E+04  9.004194E+01  4.349441E+04  3.947091E+03 -1.027623E+04
       115   6  7.381993E+04  2.304219E+04  4.980403E+01  4.454940E+04  3.613912E+03 -9.526298E+03
       115   7 -7.252485E+04 -2.960856E+04 -2.465963E+04  3.581308E+03  4.290597E+03 -1.050831E+04
       115   8 -5.841876E+04 -2.564154E+04 -2.156311E+04  6.177778E+03  5.018107E+03 -9.874481E+03
       115   9 -4.630547E+04 -1.998824E+04 -1.913116E+04  1.086830E+04  5.576367E+03 -8.789825E+03
       115  10  2.201960E+05  7.577803E+04  2.500212E+04  8.549400E+04 -1.292135E-07 -4.213113E-08
       115  11  2.078985E+05  6.990640E+04  2.174236E+04  8.081834E+04 -3.690400E-09  8.111295E-10
       115  12  1.939607E+05  6.607397E+04  1.923029E+04  7.823663E+04  1.420594E-07  5.562043E-08
       115  13  7.382504E+04  2.308394E+04  1.716518E+02  4.453339E+04  4.526217E-09 -2.780583E-08
       115  14  7.473076E+04  2.213163E+04  8.981421E+01  4.349444E+04 -1.273286E-08 -2.542911E-08
       115  15  7.381989E+04  2.304208E+04  4.960894E+01  4.454943E+04 -6.629618E-09 -8.488777E-09
       115  16 -7.252490E+04 -2.960868E+04 -2.465988E+04  3.581344E+03  1.220274E-07  5.686987E-08
       115  17 -5.841881E+04 -2.564165E+04 -2.156335E+04  6.177818E+03 -3.020783E-08 -9.179682E-09
       115  18 -4.630553E+04 -1.998834E+04 -1.913136E+04  1.086833E+04 -1.546208E-07 -6.273068E-08
       115  19  2.201960E+05  7.577816E+04  2.500236E+04  8.549396E+04 -3.931384E+03  1.064253E+04
       115  20  2.078985E+05  6.990652E+04  2.174259E+04  8.081832E+04 -2.875839E+03  1.067808E+04
       115  21  1.939608E+05  6.607409E+04  1.923049E+04  7.823662E+04 -1.651056E+03  1.026292E+04
       115  22  7.382509E+04  2.308407E+04  1.718937E+02  4.453336E+04 -4.111012E+03  1.057541E+04
       115  23  7.473081E+04  2.213174E+04  9.004194E+01  4.349441E+04 -3.947091E+03  1.027623E+04
       115  24  7.381993E+04  2.304219E+04  4.980403E+01  4.454940E+04 -3.613912E+03  9.526298E+03
       115  25 -7.252485E+04 -2.960856E+04 -2.465963E+04  3.581308E+03 -4.290597E+03  1.050831E+04
       115  26 -5.841876E+04 -2.564154E+04 -2.156311E+04  6.177778E+03 -5.018107E+03  9.874481E+03
       115  27 -4.630547E+04 -1.998824E+04 -1.913116E+04  1.086830E+04 -5.576367E+03  8.789825E+03
       116   1  1.856292E+05  6.308463E+04  1.778813E+04  7.591855E+04  1.449259E+03 -9.664787E+03
       116   2  1.734473E+05  5.745149E+04  1.562401E+04  7.118568E+04  9.693037E+02 -8.701598E+03
       116   3  1.594301E+05  5.369514E+04  1.354217E+04  6.857718E+04  4.717461E+02 -7.691684E+03
       116   4  7.381253E+04  2.304729E+04  3.789648E+01  4.455394E+04  3.385386E+03 -8.938145E+03
       116   5  7.474035E+04  2.211812E+04  2.276987E+01  4.349204E+04  2.997858E+03 -7.940180E+03
       116   6  7.381408E+04  2.304747E+04  1.665088E+01  4.455453E+04  2.592722E+03 -6.895482E+03
       116   7 -3.798938E+04 -1.698826E+04 -1.771220E+04  1.319498E+04  5.321122E+03 -8.211650E+03
       116   8 -2.395615E+04 -1.321424E+04 -1.557863E+04  1.580253E+04  5.026072E+03 -7.178891E+03
       116   9 -1.179503E+04 -7.599808E+03 -1.350925E+04  2.053473E+04  4.713411E+03 -6.099388E+03
       116  10  1.856291E+05  6.308453E+04  1.778795E+04  7.591856E+04  6.671258E-09  6.357339E-09
       116  11  1.734473E+05  5.745140E+04  1.562387E+04  7.118569E+04  5.092994E-09  6.738897E-09
       116  12  1.594301E+05  5.369508E+04  1.354206E+04  6.857719E+04  6.819283E-09  6.253081E-09
       116  13  7.381250E+04  2.304720E+04  3.772481E+01  4.455396E+04 -4.909905E-10  4.914426E-10
       116  14  7.474032E+04  2.211804E+04  2.263450E+01  4.349206E+04  3.736300E-10  3.281409E-09
       116  15  7.381406E+04  2.304742E+04  1.654889E+01  4.455455E+04  6.172123E-11  3.314016E-09
       116  16 -3.798943E+04 -1.698834E+04 -1.771238E+04  1.319501E+04 -5.753387E-09 -5.268983E-09
       116  17 -2.395619E+04 -1.321430E+04 -1.557878E+04  1.580256E+04 -5.604969E-09  4.968054E-10
       116  18 -1.179506E+04 -7.599854E+03 -1.350936E+04  2.053475E+04 -7.792512E-09  7.466264E-10
       116  19  1.856292E+05  6.308463E+04  1.778813E+04  7.591855E+04 -1.449259E+03  9.664787E+03
       116  20  1.734473E+05  5.745149E+04  1.562401E+04  7.118568E+04 -9.693037E+02  8.701598E+03
       116  21  1.594301E+05  5.369514E+04  1.354217E+04  6.857718E+04 -4.717461E+02  7.691684E+03
       116  22  7.381253E+04  2.304729E+04  3.789648E+01  4.455394E+04 -3.385386E+03  8.938145E+03
       116  23  7.474035E+04  2.211812E+04  2.276987E+01  4.349204E+04 -2.997858E+03  7.940180E+03
       116  24  7.381408E+04  2.304747E+04  1.665088E+01  4.455453E+04 -2.592722E+03  6.895482E+03
       116  25 -3.798938E+04 -1.698826E+04 -1.771220E+04  1.319498E+04 -5.321122E+03  8.211650E+03
       116  26 -2.395615E+04 -1.321424E+04 -1.557863E+04  1.580253E+04 -5.026072E+03  7.178891E+03
       116  27 -1.179503E+04 -7.599808E+03 -1.350925E+04  2.053473E+04 -4.713411E+03  6.099388E+03
       117   1  1.511364E+05  5.071795E+04  1.216934E+04  6.625595E+04  2.371870E+02 -7.066188E+03
       117   2  1.389706E+05  4.510758E+04  1.013042E+04  6.151800E+04 -1.838588E+02 -5.999907E+03
       117   3  1.249493E+05  4.135747E+04  8.105382E+03  5.890669E+04 -6.066475E+02 -4.929068E+03
       117   4  7.381339E+04  2.304820E+04  1.577316E+01  4.455470E+04  2.355266E+03 -6.271030E+03
       117   5  7.474239E+04  2.211928E+04  1.845122E+01  4.349144E+04  1.943207E+03 -5.201322E+03
       117   6  7.381396E+04  2.304877E+04  2.785769E+01  4.455470E+04  1.529406E+03 -4.127059E+03
       117   7 -3.503190E+03 -4.620911E+03 -1.213787E+04  2.285600E+04  4.473065E+03 -5.475978E+03
       117   8  1.051903E+04 -8.684411E+02 -1.009346E+04  2.546673E+04  4.070028E+03 -4.402829E+03
       117   9  2.268205E+04  4.740580E+03 -8.049525E+03  3.020399E+04  3.665249E+03 -3.325129E+03
       117  10  1.511364E+05  5.071790E+04  1.216925E+04  6.625596E+04  5.770954E-09  4.773944E-09
       117  11  1.389706E+05  4.510754E+04  1.013035E+04  6.151800E+04  4.054470E-09  3.604636E-09
       117  12  1.249493E+05  4.135744E+04  8.105335E+03  5.890669E+04  3.375116E-09  1.995925E-09
       117  13  7.381337E+04  2.304816E+04  1.568884E+01  4.455471E+04 -3.925435E-10  2.901514E-09
       117  14  7.474237E+04  2.211925E+04  1.839328E+01  4.349145E+04  2.309317E-10  2.008182E-09
       117  15  7.381395E+04  2.304875E+04  2.782129E+01  4.455470E+04  9.665611E-12  1.125104E-09
       117  16 -3.503219E+03 -4.620948E+03 -1.213797E+04  2.285602E+04 -7.638982E-09  7.658199E-10
       117  17  1.051900E+04 -8.684663E+02 -1.009353E+04  2.546675E+04 -4.467056E-09  8.092170E-10
       117  18  2.268204E+04  4.740564E+03 -8.049571E+03  3.020400E+04 -3.275751E-09 -8.591120E-11
       117  19  1.511364E+05  5.071795E+04  1.216934E+04  6.625595E+04 -2.371870E+02  7.066188E+03
       117  20  1.389706E+05  4.510758E+04  1.013042E+04  6.151800E+04  1.838588E+02  5.999907E+03
       117  21  1.249493E+05  4.135747E+04  8.105382E+03  5.890669E+04  6.066475E+02  4.929068E+03
       117  22  7.381339E+04  2.304820E+04  1.577316E+01  4.455470E+04 -2.355266E+03  6.271030E+03
       117  23  7.474239E+04  2.211928E+04  1.845122E+01  4.349144E+04 -1.943207E+03  5.201322E+03
       117  24  7.381396E+04  2.304877E+04  2.785769E+01  4.455470E+04 -1.529406E+03  4.127059E+03
       117  25 -3.503190E+03 -4.620911E+03 -1.213787E+04  2.285600E+04 -4.473065E+03  5.475978E+03
       117  26  1.051903E+04 -8.684411E+02 -1.009346E+04  2.546673E+04 -4.070028E+03  4.402829E+03
       117  27  2.268205E+04  4.740580E+03 -8.049525E+03  3.020399E+04 -3.665249E+03  3.325129E+03
       118   1  1.166604E+05  3.838121E+04  6.746954E+03  5.658598E+04 -8.477969E+02 -4.302210E+03
       118   2  1.044952E+05  3.277261E+04  4.741352E+03  5.184959E+04 -1.280196E+03 -3.233583E+03
       118   3  9.047499E+04  2.902349E+04  2.756067E+03  4.924053E+04 -1.711885E+03 -2.166888E+03
       118   4  7.381510E+04  2.304888E+04  3.583913E+01  4.455520E+04  1.287982E+03 -3.500280E+03
       118   5  7.474211E+04  2.211799E+04  6.253669E+01  4.349181E+04  8.517576E+02 -2.433058E+03
       118   6  7.381500E+04  2.304744E+04  1.126657E+02  4.455579E+04  4.162436E+02 -1.367772E+03
       118   7  3.097127E+04  7.716558E+03 -6.675430E+03  3.252507E+04  3.423631E+03 -2.698399E+03
       118   8  4.498979E+04  1.146339E+04 -4.616326E+03  3.513437E+04  2.983616E+03 -1.632569E+03
       118   9  5.715530E+04  1.707141E+04 -2.530723E+03  3.987116E+04  2.544313E+03 -5.686785E+02
       118  10  1.166604E+05  3.838119E+04  6.746918E+03  5.658598E+04  1.832423E-09  1.720187E-09
       118  11  1.044952E+05  3.277260E+04  4.741329E+03  5.184958E+04 -7.762487E-10  2.380823E-09
       118  12  9.047499E+04  2.902349E+04  2.756052E+03  4.924053E+04 -7.800378E-10  4.308851E-09
       118  13  7.381510E+04  2.304887E+04  3.581298E+01  4.455520E+04 -7.949009E-10  1.738642E-09
       118  14  7.474210E+04  2.211798E+04  6.252420E+01  4.349182E+04 -1.776867E-09 -1.097534E-09
       118  15  7.381500E+04  2.304743E+04  1.126619E+02  4.455579E+04 -2.054949E-09  2.525953E-09
       118  16  3.097125E+04  7.716547E+03 -6.675466E+03  3.252507E+04 -2.948281E-09 -5.705940E-10
       118  17  4.498978E+04  1.146338E+04 -4.616347E+03  3.513438E+04 -7.840026E-10 -9.815925E-10
       118  18  5.715529E+04  1.707140E+04 -2.530736E+03  3.987116E+04  2.601728E-11 -4.402875E-09
       118  19  1.166604E+05  3.838121E+04  6.746954E+03  5.658598E+04  8.477969E+02  4.302210E+03
       118  20  1.044952E+05  3.277261E+04  4.741352E+03  5.184959E+04  1.280196E+03  3.233583E+03
       118  21  9.047499E+04  2.902349E+04  2.756067E+03  4.924053E+04  1.711885E+03  2.166888E+03
       118  22  7.381510E+04  2.304888E+04  3.583913E+01  4.455520E+04 -1.287982E+03  3.500280E+03
       118  23  7.474211E+04  2.211799E+04  6.253669E+01  4.349181E+04 -8.517576E+02  2.433058E+03
       118  24  7.381500E+04  2.304744E+04  1.126657E+02  4.455579E+04 -4.162436E+02  1.367772E+03
       118  25  3.097127E+04  7.716558E+03 -6.675430E+03  3.252507E+04 -3.423631E+03  2.698399E+03
       118  26  4.498979E+04  1.146339E+04 -4.616326E+03  3.513437E+04 -2.983616E+03  1.632569E+03
       118  27  5.715530E+04  1.707141E+04 -2.530723E+03  3.987116E+04 -2.544313E+03  5.686785E+02
       119   1  8.218754E+04  2.604916E+04  1.425137E+03  4.692491E+04 -1.970332E+03 -1.548177E+03
       119   2  7.001821E+04  2.043785E+04 -5.040061E+02  4.218440E+04 -2.460916E+03 -5.170046E+02
       119   3  5.600974E+04  1.670163E+04 -2.361385E+03  3.956874E+04 -2.942848E+03  4.911813E+02
       119   4  7.381947E+04  2.304658E+04  1.500830E+02  4.455753E+04  1.590976E+02 -7.485685E+02
       119   5  7.473645E+04  2.211751E+04  2.724147E+02  4.349028E+04 -3.769790E+02  2.655141E+02
       119   6  7.382304E+04  2.307246E+04  5.025005E+02  4.454778E+04 -9.044082E+02  1.256615E+03
       119   7  6.545158E+04  2.004404E+04 -1.124926E+03  4.219022E+04  2.288473E+03  5.101922E+01
       119   8  7.945473E+04  2.379717E+04  1.048854E+03  4.479618E+04  1.706975E+03  1.048039E+03
       119   9  9.163690E+04  2.944342E+04  3.366454E+03  4.952700E+04  1.134116E+03  2.022081E+03
       119  10  8.218754E+04  2.604915E+04  1.425125E+03  4.692490E+04  1.950626E-08  1.443471E-08
       119  11  7.001820E+04  2.043785E+04 -5.040179E+02  4.218440E+04 -3.162806E-09  4.681599E-09
       119  12  5.600973E+04  1.670162E+04 -2.361402E+03  3.956874E+04 -2.796012E-08 -1.345015E-08
       119  13  7.381947E+04  2.304657E+04  1.500819E+02  4.455753E+04  5.065443E-09  3.631528E-09
       119  14  7.473645E+04  2.211751E+04  2.724143E+02  4.349028E+04  1.862733E-08  1.107398E-08
       119  15  7.382304E+04  2.307246E+04  5.024959E+02  4.454778E+04  2.617852E-08  1.645962E-08
       119  16  6.545158E+04  2.004404E+04 -1.124936E+03  4.219022E+04 -1.349169E-08 -1.174886E-08
       119  17  7.945473E+04  2.379717E+04  1.048846E+03  4.479618E+04  2.080813E-08 -1.616814E-09
       119  18  9.163689E+04  2.944341E+04  3.366444E+03  4.952700E+04  4.373196E-08  1.152406E-08
       119  19  8.218754E+04  2.604916E+04  1.425137E+03  4.692491E+04  1.970332E+03  1.548177E+03
       119  20  7.001821E+04  2.043785E+04 -5.040061E+02  4.218440E+04  2.460916E+03  5.170046E+02
       119  21  5.600974E+04  1.670163E+04 -2.361385E+03  3.956874E+04  2.942848E+03 -4.911813E+02
       119  22  7.381947E+04  2.304658E+04  1.500830E+02  4.455753E+04 -1.590976E+02  7.485685E+02
       119  23  7.473645E+04  2.211751E+04  2.724147E+02  4.349028E+04  3.769790E+02 -2.655141E+02
       119  24  7.382304E+04  2.307246E+04  5.025005E+02  4.454778E+04  9.044082E+02 -1.256615E+03
       119  25  6.545158E+04  2.004404E+04 -1.124926E+03  4.219022E+04 -2.288473E+03 -5.101922E+01
       119  26  7.945473E+04  2.379717E+04  1.048854E+03  4.479618E+04 -1.706975E+03 -1.048039E+03
       119  27  9.163690E+04  2.944342E+04  3.366454E+03  4.952700E+04 -1.134116E+03 -2.022081E+03
       120   1  4.771160E+04  1.375071E+04 -3.589195E+03  3.729228E+04 -3.276200E+03  1.062239E+03
       120   2  3.564970E+04  8.093632E+03 -5.268266E+03  3.234402E+04 -3.810783E+03  1.918717E+03
       120   3  2.187912E+04  4.583510E+03 -6.726602E+03  2.943605E+04 -4.262144E+03  2.553664E+03
       120   4  7.385867E+04  2.307512E+04  6.716423E+02  4.455714E+04 -1.224705E+03  1.832567E+03
       120   5  7.471292E+04  2.226526E+04  1.238622E+03  4.342172E+04 -2.197479E+03  2.524474E+03
       120   6  7.394503E+04  2.368906E+04  2.373411E+03  4.432652E+04 -3.087034E+03  2.994858E+03
       120   7  1.000065E+05  3.239961E+04  4.932479E+03  5.182227E+04  8.268810E+02  2.602929E+03
       120   8  1.137775E+05  3.643695E+04  7.745417E+03  5.450002E+04 -5.840771E+02  3.130269E+03
       120   9  1.260132E+05  4.279467E+04  1.147318E+04  5.921799E+04 -1.911832E+03  3.436088E+03
       120  10  4.771159E+04  1.375071E+04 -3.589217E+03  3.729229E+04  4.676407E-08  8.850852E-09
       120  11  3.564969E+04  8.093624E+03 -5.268301E+03  3.234402E+04  1.946304E-08 -2.500026E-09
       120  12  2.187910E+04  4.583498E+03 -6.726648E+03  2.943606E+04 -1.265006E-08 -1.210925E-08
       120  13  7.385867E+04  2.307512E+04  6.716332E+02  4.455714E+04  2.463256E-08  1.613715E-08
       120  14  7.471291E+04  2.226525E+04  1.238601E+03  4.342173E+04  1.624705E-08  1.149043E-08
       120  15  7.394501E+04  2.368905E+04  2.373376E+03  4.432653E+04  2.934789E-09  3.872888E-09
       120  16  1.000065E+05  3.239960E+04  4.932465E+03  5.182227E+04 -3.168403E-08 -1.171465E-08
       120  17  1.137775E+05  3.643694E+04  7.745398E+03  5.450002E+04 -4.250496E-09  5.096765E-09
       120  18  1.260132E+05  4.279465E+04  1.147315E+04  5.921800E+04  2.411427E-08  1.571163E-08
       120  19  4.771160E+04  1.375071E+04 -3.589195E+03  3.729228E+04  3.276200E+03 -1.062239E+03
       120  20  3.564970E+04  8.093632E+03 -5.268266E+03  3.234402E+04  3.810783E+03 -1.918717E+03
       120  21  2.187912E+04  4.583510E+03 -6.726602E+03  2.943605E+04  4.262144E+03 -2.553664E+03
       120  22  7.385867E+04  2.307512E+04  6.716423E+02  4.455714E+04  1.224705E+03 -1.832567E+03
       120  23  7.471292E+04  2.226526E+04  1.238622E+03  4.342172E+04  2.197479E+03 -2.524474E+03
       120  24  7.394503E+04  2.368906E+04  2.373411E+03  4.432652E+04  3.087034E+03 -2.994858E+03
       120  25  1.000065E+05  3.239961E+04  4.932479E+03  5.182227E+04 -8.268810E+02 -2.602929E+03
       120  26  1.137775E+05  3.643695E+04  7.745417E+03  5.450002E+04  5.840771E+02 -3.130269E+03
       120  27  1.260132E+05  4.279467E+04  1.147318E+04  5.921799E+04  1.911832E+03 -3.436088E+03
       121   1  1.345924E+04  2.000370E+03 -7.588042E+03  2.759616E+04 -4.912941E+03  2.817206E+03
       121   2  3.622044E+03 -4.303648E+03 -8.781746E+03  1.899600E+04 -3.708696E+03  2.804054E+03
       121   3 -6.313102E+03 -4.192246E+03 -9.461451E+03  1.105282E+04 -1.704397E+03  6.597917E+02
       121   4  7.432743E+04  2.380248E+04  3.184035E+03  4.439482E+04 -3.612532E+03  3.305432E+03
       121   5  7.464641E+04  2.505408E+04  6.107741E+03  4.223521E+04 -6.622800E+03  1.709854E+03
       121   6  7.570197E+04  3.355557E+04  1.288401E+04  4.073288E+04 -8.833168E+03 -2.016704E+03
       121   7  1.352006E+05  4.560533E+04  1.395629E+04  6.119529E+04 -2.311964E+03  3.793717E+03
       121   8  1.456758E+05  5.441256E+04  2.099694E+04  6.547695E+04 -9.537253E+03  6.154836E+02
       121   9  1.577220E+05  7.130403E+04  3.522854E+04  7.041619E+04 -1.596280E+04 -4.693727E+03
       121  10  1.345921E+04  2.000355E+03 -7.588102E+03  2.759617E+04  5.383214E-09 -1.335660E-09
       121  11  3.622028E+03 -4.303660E+03 -8.781786E+03  1.899601E+04 -2.089820E-09 -1.084423E-09
       121  12 -6.313105E+03 -4.192247E+03 -9.461457E+03  1.105282E+04 -2.996827E-09 -8.355972E-10
       121  13  7.432741E+04  2.380247E+04  3.183990E+03  4.439483E+04 -2.208580E-09  2.245167E-09
       121  14  7.464636E+04  2.505406E+04  6.107653E+03  4.223522E+04 -3.776843E-09 -3.807544E-10
       121  15  7.570189E+04  3.355554E+04  1.288386E+04  4.073287E+04 -1.876921E-09  1.720090E-10
       121  16  1.352006E+05  4.560531E+04  1.395625E+04  6.119530E+04 -1.697438E-09  3.116498E-09
       121  17  1.456757E+05  5.441253E+04  2.099676E+04  6.547696E+04 -5.975523E-10  1.786239E-10
       121  18  1.577217E+05  7.130394E+04  3.522802E+04  7.041613E+04  1.559085E-09  1.925274E-10
       121  19  1.345924E+04  2.000370E+03 -7.588042E+03  2.759616E+04  4.912941E+03 -2.817206E+03
       121  20  3.622044E+03 -4.303648E+03 -8.781746E+03  1.899600E+04  3.708696E+03 -2.804054E+03
       121  21 -6.313102E+03 -4.192246E+03 -9.461451E+03  1.105282E+04  1.704397E+03 -6.597917E+02
       121  22  7.432743E+04  2.380248E+04  3.184035E+03  4.439482E+04  3.612532E+03 -3.305432E+03
       121  23  7.464641E+04  2.505408E+04  6.107741E+03  4.223521E+04  6.622800E+03 -1.709854E+03
       121  24  7.570197E+04  3.355557E+04  1.288401E+04  4.073288E+04  8.833168E+03  2.016704E+03
       121  25  1.352006E+05  4.560533E+04  1.395629E+04  6.119529E+04  2.311964E+03 -3.793717E+03
       121  26  1.456758E+05  5.441256E+04  2.099694E+04  6.547695E+04  9.537253E+03 -6.154836E+02
       121  27  1.577220E+05  7.130403E+04  3.522854E+04  7.041619E+04  1.596280E+04  4.693727E+03
       122   1 -6.428740E+04 -3.247909E+05 -7.517120E+04  1.769708E+04 -7.770634E+02 -3.250291E+04
       122   2 -1.541177E+04 -3.011249E+05 -4.426396E+04  2.347259E+03 -2.172937E+03 -1.995760E+04
       122   3 -1.775846E+04 -2.918615E+05 -3.432561E+04  5.341977E+03 -1.504531E+03 -7.410993E+03
       122   4 -3.731482E+04 -2.168352E+05 -4.834474E+04  9.261980E+03 -7.769879E+02 -3.169273E+04
       122   5  7.359456E+03 -2.096930E+05 -2.187578E+04  9.828387E+01 -2.172891E+03 -1.983896E+04
       122   6  9.355053E+02 -2.168315E+05 -1.589282E+04  9.279287E+03 -1.504397E+03 -7.984224E+03
       122   7 -1.034284E+04 -1.088688E+05 -2.151912E+04  8.254087E+02 -7.769346E+02 -3.088242E+04
       122   8  3.013008E+04 -1.182535E+05  5.118011E+02 -2.151022E+03 -2.172845E+03 -1.972029E+04
       122   9  1.962911E+04 -1.417963E+05  2.539558E+03  1.321707E+04 -1.504270E+03 -8.557525E+03
       122  10 -6.428769E+04 -3.247920E+05 -7.517319E+04  1.769706E+04 -2.964645E-11  3.076555E-10
       122  11 -1.541188E+04 -3.011253E+05 -4.426472E+04  2.347224E+03 -9.083350E-10 -7.420575E-10
       122  12 -1.775848E+04 -2.918616E+05 -3.432572E+04  5.341968E+03  6.799619E-10 -4.567511E-10
       122  13 -3.731509E+04 -2.168363E+05 -4.834663E+04  9.261960E+03 -1.926185E-10  1.479035E-10
       122  14  7.359345E+03 -2.096934E+05 -2.187653E+04  9.824915E+01 -9.810651E-11  3.512839E-10
       122  15  9.354858E+02 -2.168316E+05 -1.589295E+04  9.279278E+03 -1.396417E-10  2.169306E-10
       122  16 -1.034310E+04 -1.088698E+05 -2.152092E+04  8.253894E+02  2.442742E-10  2.834197E-10
       122  17  3.012997E+04 -1.182540E+05  5.110613E+02 -2.151057E+03  1.064988E-09  9.924032E-11
       122  18  1.962909E+04 -1.417964E+05  2.539416E+03  1.321706E+04  2.243744E-10  6.103269E-10
       122  19 -6.428740E+04 -3.247909E+05 -7.517120E+04  1.769708E+04  7.770634E+02  3.250291E+04
       122  20 -1.541177E+04 -3.011249E+05 -4.426396E+04  2.347259E+03  2.172937E+03  1.995760E+04
       122  21 -1.775846E+04 -2.918615E+05 -3.432561E+04  5.341977E+03  1.504531E+03  7.410993E+03
       122  22 -3.731482E+04 -2.168352E+05 -4.834474E+04  9.261980E+03  7.769879E+02  3.169273E+04
       122  23  7.359456E+03 -2.096930E+05 -2.187578E+04  9.828387E+01  2.172891E+03  1.983896E+04
       122  24  9.355053E+02 -2.168315E+05 -1.589282E+04  9.279287E+03  1.504397E+03  7.984224E+03
       122  25 -1.034284E+04 -1.088688E+05 -2.151912E+04  8.254087E+02  7.769346E+02  3.088242E+04
       122  26  3.013008E+04 -1.182535E+05  5.118011E+02 -2.151022E+03  2.172845E+03  1.972029E+04
       122  27  1.962911E+04 -1.417963E+05  2.539558E+03  1.321707E+04  1.504270E+03  8.557525E+03
       123   1 -1.386779E+04 -2.516108E+05 -2.338070E+04  1.088249E+04 -8.255370E+02 -5.198941E+03
       123   2 -3.134026E+03 -2.329995E+05 -1.605906E+04  4.613054E+01 -4.479313E+02  5.543886E+02
       123   3 -6.015679E+03 -2.185284E+05 -1.588528E+04  7.699669E+03  4.348506E+00  6.307861E+03
       123   4 -4.641948E+03 -2.145767E+05 -1.430037E+04  9.305818E+03 -8.254901E+02 -5.313938E+03
       123   5  1.970342E+03 -2.125087E+05 -1.103302E+04  6.089309E+01 -4.478946E+02  4.145369E+02
       123   6 -5.028198E+03 -2.145767E+05 -1.489604E+04  9.305867E+03  4.402677E+00  6.143002E+03
       123   7  4.583796E+03 -1.775413E+05 -5.220133E+03  7.729056E+03 -8.254425E+02 -5.428940E+03
       123   8  7.074680E+03 -1.920175E+05 -6.007010E+03  7.565615E+01 -4.478579E+02  2.746806E+02
       123   9 -4.040709E+03 -2.106250E+05 -1.390680E+04  1.091207E+04  4.455995E+00  5.978142E+03
       123  10 -1.386779E+04 -2.516108E+05 -2.338075E+04  1.088248E+04 -2.598850E-10 -2.341261E-10
       123  11 -3.134027E+03 -2.329995E+05 -1.605906E+04  4.613074E+01 -7.344315E-10  4.191572E-10
       123  12 -6.015690E+03 -2.185285E+05 -1.588536E+04  7.699669E+03 -5.619387E-10  9.816673E-10
       123  13 -4.641957E+03 -2.145767E+05 -1.430042E+04  9.305814E+03  4.237419E-11  1.238026E-10
       123  14  1.970342E+03 -2.125087E+05 -1.103302E+04  6.089323E+01  1.179537E-09  3.539741E-10
       123  15 -5.028209E+03 -2.145768E+05 -1.489611E+04  9.305867E+03  9.558242E-10  6.872841E-11
       123  16  4.583788E+03 -1.775413E+05 -5.220189E+03  7.729052E+03 -1.071300E-09  5.906630E-10
       123  17  7.074680E+03 -1.920175E+05 -6.007010E+03  7.565624E+01 -1.583505E-09 -4.621128E-10
       123  18 -4.040719E+03 -2.106250E+05 -1.390687E+04  1.091207E+04 -9.943220E-10 -8.151497E-10
       123  19 -1.386779E+04 -2.516108E+05 -2.338070E+04  1.088249E+04  8.255370E+02  5.198941E+03
       123  20 -3.134026E+03 -2.329995E+05 -1.605906E+04  4.613054E+01  4.479313E+02 -5.543886E+02
       123  21 -6.015679E+03 -2.185284E+05 -1.588528E+04  7.699669E+03 -4.348506E+00 -6.307861E+03
       123  22 -4.641948E+03 -2.145767E+05 -1.430037E+04  9.305818E+03  8.254901E+02  5.313938E+03
       123  23  1.970342E+03 -2.125087E+05 -1.103302E+04  6.089309E+01  4.478946E+02 -4.145369E+02
       123  24 -5.028198E+03 -2.145767E+05 -1.489604E+04  9.305867E+03 -4.402677E+00 -6.143002E+03
       123  25  4.583796E+03 -1.775413E+05 -5.220133E+03  7.729056E+03  8.254425E+02  5.428940E+03
       123  26  7.074680E+03 -1.920175E+05 -6.007010E+03  7.565615E+01  4.478579E+02 -2.746806E+02
       123  27 -4.040709E+03 -2.106250E+05 -1.390680E+04  1.091207E+04 -4.455995E+00 -5.978142E+03
       124   1  9.611172E+03 -1.829484E+05 -8.326272E+03  1.353177E+04  5.952740E+02  9.385883E+03
       124   2  2.050759E+04 -1.587901E+05 -1.099749E+04 -2.332126E+03  1.226412E+03  2.159683E+04
       124   3 -2.339470E+04 -1.499019E+05 -3.531487E+04  2.371584E+02  4.682310E+02  3.380759E+04
       124   4  1.107877E+03 -2.170687E+05 -1.672707E+04  9.297907E+03  5.953181E+02  8.939038E+03
       124   5  7.906196E+03 -2.093944E+05 -2.338191E+04  7.449395E+01  1.226497E+03  2.161571E+04
       124   6 -4.017765E+04 -2.170727E+05 -5.200780E+04  9.284359E+03  4.685670E+02  3.429184E+04
       124   7 -7.395437E+03 -2.511879E+05 -2.512795E+04  5.064273E+03  5.953683E+02  8.492218E+03
       124   8 -4.695362E+03 -2.599962E+05 -3.576651E+04  2.480917E+03  1.226581E+03  2.163458E+04
       124   9 -5.696063E+04 -2.842392E+05 -6.870103E+04  1.833058E+04  4.689172E+02  3.477604E+04
       124  10  9.611148E+03 -1.829485E+05 -8.326438E+03  1.353177E+04 -9.313271E-10 -1.297369E-09
       124  11  2.050746E+04 -1.587906E+05 -1.099837E+04 -2.332147E+03 -1.201128E-09 -6.991143E-10
       124  12 -2.339501E+04 -1.499032E+05 -3.531701E+04  2.371456E+02 -5.396234E-10  5.085250E-10
       124  13  1.107855E+03 -2.170688E+05 -1.672723E+04  9.297903E+03  1.341108E-09  1.884404E-11
       124  14  7.906069E+03 -2.093949E+05 -2.338279E+04  7.447260E+01  5.768197E-10  3.256874E-10
       124  15 -4.017797E+04 -2.170740E+05 -5.201001E+04  9.284346E+03  3.119618E-10  2.685793E-10
       124  16 -7.395457E+03 -2.511880E+05 -2.512809E+04  5.064269E+03 -7.114649E-10  1.399235E-09
       124  17 -4.695490E+03 -2.599968E+05 -3.576739E+04  2.480896E+03 -8.211759E-10  5.149602E-10
       124  18 -5.696096E+04 -2.842405E+05 -6.870330E+04  1.833057E+04 -4.939759E-10 -6.837503E-10
       124  19  9.611172E+03 -1.829484E+05 -8.326272E+03  1.353177E+04 -5.952740E+02 -9.385883E+03
       124  20  2.050759E+04 -1.587901E+05 -1.099749E+04 -2.332126E+03 -1.226412E+03 -2.159683E+04
       124  21 -2.339470E+04 -1.499019E+05 -3.531487E+04  2.371584E+02 -4.682310E+02 -3.380759E+04
       124  22  1.107877E+03 -2.170687E+05 -1.672707E+04  9.297907E+03 -5.953181E+02 -8.939038E+03
       124  23  7.906196E+03 -2.093944E+05 -2.338191E+04  7.449395E+01 -1.226497E+03 -2.161571E+04
       124  24 -4.017765E+04 -2.170727E+05 -5.200780E+04  9.284359E+03 -4.685670E+02 -3.429184E+04
       124  25 -7.395437E+03 -2.511879E+05 -2.512795E+04  5.064273E+03 -5.953683E+02 -8.492218E+03
       124  26 -4.695362E+03 -2.599962E+05 -3.576651E+04  2.480917E+03 -1.226581E+03 -2.163458E+04
       124  27 -5.696063E+04 -2.842392E+05 -6.870103E+04  1.833058E+04 -4.689172E+02 -3.477604E+04
       125   1  1.070749E+05  3.583011E+04  2.240741E+04  3.926020E+04  1.187536E+04  4.272459E+03
       125   2  1.031058E+05  1.722635E+04  1.102593E+04  3.995957E+04  7.626547E+03  2.327442E+03
       125   3  1.045059E+05  1.620947E+04  7.346803E+03  3.796990E+04  3.226572E+03  7.849553E+02
       125   4  9.455487E+04  2.690050E+04  1.817862E+04  3.152203E+04  1.161299E+04  4.173812E+03
       125   5  9.094755E+04  1.143856E+04  7.610535E+03  3.537906E+04  7.572308E+03  2.307051E+03
       125   6  9.266839E+04  1.352241E+04  4.580067E+03  3.654702E+04  3.380440E+03  8.427586E+02
       125   7  8.203514E+04  1.797115E+04  1.394987E+04  2.378412E+04  1.135062E+04  4.075173E+03
       125   8  7.878948E+04  5.650816E+03  4.195136E+03  3.079864E+04  7.518070E+03  2.286661E+03
       125   9  8.083092E+04  1.083534E+04  1.813312E+03  3.512416E+04  3.534305E+03  9.005619E+02
       125  10  1.070748E+05  3.583005E+04  2.240711E+04  3.926016E+04 -1.738789E-10  1.509430E-10
       125  11  1.031057E+05  1.722633E+04  1.102581E+04  3.995956E+04  1.000564E-09  9.286625E-10
       125  12  1.045059E+05  1.620947E+04  7.346782E+03  3.796989E+04  2.871628E-10  1.449123E-10
       125  13  9.455472E+04  2.690044E+04  1.817834E+04  3.152199E+04  4.745939E-10 -1.040123E-09
       125  14  9.094749E+04  1.143854E+04  7.610417E+03  3.537904E+04  6.076278E-10 -1.230494E-09
       125  15  9.266837E+04  1.352241E+04  4.580044E+03  3.654702E+04  5.168364E-11 -4.065704E-10
       125  16  8.203500E+04  1.797109E+04  1.394959E+04  2.378408E+04 -8.740104E-10  2.216175E-10
       125  17  7.878942E+04  5.650795E+03  4.195020E+03  3.079863E+04 -7.505174E-10  1.327130E-09
       125  18  8.083091E+04  1.083533E+04  1.813287E+03  3.512415E+04 -1.612872E-09 -3.246729E-10
       125  19  1.070749E+05  3.583011E+04  2.240741E+04  3.926020E+04 -1.187536E+04 -4.272459E+03
       125  20  1.031058E+05  1.722635E+04  1.102593E+04  3.995957E+04 -7.626547E+03 -2.327442E+03
       125  21  1.045059E+05  1.620947E+04  7.346803E+03  3.796990E+04 -3.226572E+03 -7.849553E+02
       125  22  9.455487E+04  2.690050E+04  1.817862E+04  3.152203E+04 -1.161299E+04 -4.173812E+03
       125  23  9.094755E+04  1.143856E+04  7.610535E+03  3.537906E+04 -7.572308E+03 -2.307051E+03
       125  24  9.266839E+04  1.352241E+04  4.580067E+03  3.654702E+04 -3.380440E+03 -8.427586E+02
       125  25  8.203514E+04  1.797115E+04  1.394987E+04  2.378412E+04 -1.135062E+04 -4.075173E+03
       125  26  7.878948E+04  5.650816E+03  4.195136E+03  3.079864E+04 -7.518070E+03 -2.286661E+03
       125  27  8.083092E+04  1.083534E+04  1.813312E+03  3.512416E+04 -3.534305E+03 -9.005619E+02
       126   1  9.907263E+04  1.839218E+04  5.628490E+03  3.779754E+04  2.655127E+03  7.097690E+02
       126   2  9.697091E+04  1.504365E+04  3.050859E+03  3.658175E+04  1.676415E+03  4.362831E+02
       126   3  9.430727E+04  1.471405E+04  1.640297E+03  3.646430E+04  6.867370E+02  1.920307E+02
       126   4  9.207494E+04  1.537102E+04  3.717780E+03  3.548153E+04  2.690194E+03  7.229384E+02
       126   5  9.226023E+04  1.317393E+04  1.797368E+03  3.519123E+04  1.726601E+03  4.551327E+02
       126   6  9.188060E+04  1.399277E+04  1.032056E+03  3.599926E+04  7.520380E+02  2.165586E+02
       126   7  8.507729E+04  1.234988E+04  1.807065E+03  3.316555E+04  2.725262E+03  7.361075E+02
       126   8  8.754958E+04  1.130422E+04  5.438766E+02  3.380073E+04  1.776786E+03  4.739821E+02
       126   9  8.945395E+04  1.327150E+04  4.238171E+02  3.553423E+04  8.173385E+02  2.410864E+02
       126  10  9.907262E+04  1.839218E+04  5.628476E+03  3.779754E+04  3.754930E-11 -6.660741E-11
       126  11  9.697090E+04  1.504365E+04  3.050853E+03  3.658175E+04 -1.039935E-09  3.427736E-10
       126  12  9.430727E+04  1.471405E+04  1.640296E+03  3.646430E+04 -5.254093E-10  7.175422E-10
       126  13  9.207493E+04  1.537102E+04  3.717765E+03  3.548153E+04  3.272371E-10  3.435743E-10
       126  14  9.226022E+04  1.317393E+04  1.797362E+03  3.519123E+04  1.421269E-11 -2.420147E-09
       126  15  9.188060E+04  1.399277E+04  1.032055E+03  3.599926E+04 -4.496044E-10  1.069193E-09
       126  16  8.507729E+04  1.234987E+04  1.807050E+03  3.316555E+04 -6.890502E-10 -1.282623E-09
       126  17  8.754957E+04  1.130422E+04  5.438702E+02  3.380073E+04  7.173827E-10  1.005053E-09
       126  18  8.945395E+04  1.327150E+04  4.238157E+02  3.553423E+04 -7.632554E-10  5.660894E-10
       126  19  9.907263E+04  1.839218E+04  5.628490E+03  3.779754E+04 -2.655127E+03 -7.097690E+02
       126  20  9.697091E+04  1.504365E+04  3.050859E+03  3.658175E+04 -1.676415E+03 -4.362831E+02
       126  21  9.430727E+04  1.471405E+04  1.640297E+03  3.646430E+04 -6.867370E+02 -1.920307E+02
       126  22  9.207494E+04  1.537102E+04  3.717780E+03  3.548153E+04 -2.690194E+03 -7.229384E+02
       126  23  9.226023E+04  1.317393E+04  1.797368E+03  3.519123E+04 -1.726601E+03 -4.551327E+02
       126  24  9.188060E+04  1.399277E+04  1.032056E+03  3.599926E+04 -7.520380E+02 -2.165586E+02
       126  25  8.507729E+04  1.234988E+04  1.807065E+03  3.316555E+04 -2.725262E+03 -7.361075E+02
       126  26  8.754958E+04  1.130422E+04  5.438766E+02  3.380073E+04 -1.776786E+03 -4.739821E+02
       126  27  8.945395E+04  1.327150E+04  4.238171E+02  3.553423E+04 -8.173385E+02 -2.410864E+02
       127   1  9.080015E+04  1.383004E+04  5.372606E+02  3.564328E+04  5.210655E+02  2.094647E+02
       127   2  8.892549E+04  1.205594E+04 -4.904736E+02  3.422845E+04  2.643899E+02  2.393762E+02
       127   3  8.582383E+04  1.178016E+04 -1.310595E+03  3.428688E+04  6.909805E+00  2.714252E+02
       127   4  9.180726E+04  1.417886E+04  8.039804E+02  3.588599E+04  5.777386E+02  2.307516E+02
       127   5  9.241101E+04  1.336005E+04  4.221263E+02  3.517556E+04  3.221684E+02  2.610782E+02
       127   6  9.178759E+04  1.403936E+04  2.470239E+02  3.593839E+04  6.579323E+01  2.935421E+02
       127   7  9.281437E+04  1.452767E+04  1.070701E+03  3.612870E+04  6.344120E+02  2.520386E+02
       127   8  9.589656E+04  1.466416E+04  1.334727E+03  3.612267E+04  3.799474E+02  2.827805E+02
       127   9  9.775139E+04  1.629856E+04  1.804640E+03  3.758993E+04  1.246773E+02  3.156593E+02
       127  10  9.080015E+04  1.383004E+04  5.372600E+02  3.564328E+04  8.655746E-10 -2.489663E-10
       127  11  8.892549E+04  1.205594E+04 -4.904739E+02  3.422845E+04  1.173374E-09 -1.497337E-09
       127  12  8.582383E+04  1.178016E+04 -1.310595E+03  3.428688E+04  8.719218E-10  1.771871E-11
       127  13  9.180726E+04  1.417886E+04  8.039796E+02  3.588599E+04  8.061439E-10  4.342158E-10
       127  14  9.241101E+04  1.336005E+04  4.221260E+02  3.517556E+04  7.025177E-10 -1.192176E-10
       127  15  9.178759E+04  1.403936E+04  2.470237E+02  3.593839E+04  7.835785E-10  7.538339E-10
       127  16  9.281437E+04  1.452767E+04  1.070700E+03  3.612870E+04 -1.324267E-09  5.531766E-10
       127  17  9.589656E+04  1.466416E+04  1.334726E+03  3.612267E+04 -6.128342E-10  2.428616E-09
       127  18  9.775139E+04  1.629856E+04  1.804640E+03  3.758993E+04 -2.590834E-10  2.631685E-09
       127  19  9.080015E+04  1.383004E+04  5.372606E+02  3.564328E+04 -5.210655E+02 -2.094647E+02
       127  20  8.892549E+04  1.205594E+04 -4.904736E+02  3.422845E+04 -2.643899E+02 -2.393762E+02
       127  21  8.582383E+04  1.178016E+04 -1.310595E+03  3.428688E+04 -6.909805E+00 -2.714252E+02
       127  22  9.180726E+04  1.417886E+04  8.039804E+02  3.588599E+04 -5.777386E+02 -2.307516E+02
       127  23  9.241101E+04  1.336005E+04  4.221263E+02  3.517556E+04 -3.221684E+02 -2.610782E+02
       127  24  9.178759E+04  1.403936E+04  2.470239E+02  3.593839E+04 -6.579323E+01 -2.935421E+02
       127  25  9.281437E+04  1.452767E+04  1.070701E+03  3.612870E+04 -6.344120E+02 -2.520386E+02
       127  26  9.589656E+04  1.466416E+04  1.334727E+03  3.612267E+04 -3.799474E+02 -2.827805E+02
       127  27  9.775139E+04  1.629856E+04  1.804640E+03  3.758993E+04 -1.246773E+02 -3.156593E+02
       128   1  8.252408E+04  1.058296E+04 -2.237540E+03  3.340204E+04 -5.375188E+01  3.239992E+02
       128   2  8.067636E+04  8.966198E+03 -2.949413E+03  3.196413E+04 -1.618350E+02  4.121976E+02
       128   3  7.752276E+04  8.693957E+03 -3.606724E+03  3.203634E+04 -2.699949E+02  5.006146E+02
       128   4  9.177748E+04  1.405754E+04  1.966651E+02  3.592693E+04  4.537698E+00  3.458926E+02
       128   5  9.242958E+04  1.337946E+04  1.308408E+02  3.517406E+04 -1.034338E+02  4.341319E+02
       128   6  9.177580E+04  1.404587E+04  1.194924E+02  3.593130E+04 -2.114827E+02  5.225900E+02
       128   7  1.010309E+05  1.753212E+04  2.630856E+03  3.845184E+04  6.282806E+01  3.677863E+02
       128   8  1.041829E+05  1.779274E+04  3.211083E+03  3.838404E+04 -4.503143E+01  4.560668E+02
       128   9  1.060291E+05  1.939782E+04  3.845703E+03  3.982634E+04 -1.529688E+02  5.445660E+02
       128  10  8.252408E+04  1.058296E+04 -2.237541E+03  3.340204E+04  1.054758E-09 -6.922247E-10
       128  11  8.067636E+04  8.966197E+03 -2.949414E+03  3.196413E+04 -1.655421E-10 -1.838413E-09
       128  12  7.752276E+04  8.693957E+03 -3.606725E+03  3.203634E+04  1.747846E-10  4.525542E-10
       128  13  9.177748E+04  1.405754E+04  1.966649E+02  3.592693E+04 -5.670416E-10  8.978666E-11
       128  14  9.242958E+04  1.337946E+04  1.308404E+02  3.517406E+04 -5.248205E-10 -1.190473E-09
       128  15  9.177580E+04  1.404587E+04  1.194918E+02  3.593130E+04  3.824940E-10 -1.323743E-09
       128  16  1.010309E+05  1.753212E+04  2.630856E+03  3.845184E+04 -5.399780E-10  1.329074E-09
       128  17  1.041829E+05  1.779274E+04  3.211083E+03  3.838404E+04  1.537664E-10  5.571631E-10
       128  18  1.060291E+05  1.939782E+04  3.845702E+03  3.982634E+04  6.859405E-10 -5.480971E-10
       128  19  8.252408E+04  1.058296E+04 -2.237540E+03  3.340204E+04  5.375188E+01 -3.239992E+02
       128  20  8.067636E+04  8.966198E+03 -2.949413E+03  3.196413E+04  1.618350E+02 -4.121976E+02
       128  21  7.752276E+04  8.693957E+03 -3.606724E+03  3.203634E+04  2.699949E+02 -5.006146E+02
       128  22  9.177748E+04  1.405754E+04  1.966651E+02  3.592693E+04 -4.537698E+00 -3.458926E+02
       128  23  9.242958E+04  1.337946E+04  1.308408E+02  3.517406E+04  1.034338E+02 -4.341319E+02
       128  24  9.177580E+04  1.404587E+04  1.194924E+02  3.593130E+04  2.114827E+02 -5.225900E+02
       128  25  1.010309E+05  1.753212E+04  2.630856E+03  3.845184E+04 -6.282806E+01 -3.677863E+02
       128  26  1.041829E+05  1.779274E+04  3.211083E+03  3.838404E+04  4.503143E+01 -4.560668E+02
       128  27  1.060291E+05  1.939782E+04  3.845703E+03  3.982634E+04  1.529688E+02 -5.445660E+02
       129   1  7.423921E+04  7.463527E+03 -4.476125E+03  3.114899E+04 -3.154125E+02  5.588206E+02
       129   2  7.238580E+04  5.852657E+03 -5.070519E+03  2.970091E+04 -4.490446E+02  6.378828E+02
       129   3  6.923124E+04  5.601505E+03 -5.588248E+03  2.976554E+04 -5.825705E+02  7.166876E+02
       129   4  9.177633E+04  1.404569E+04  1.285782E+02  3.593320E+04 -2.567934E+02  5.808354E+02
       129   5  9.242843E+04  1.337666E+04  1.818596E+02  3.517278E+04 -3.905630E+02  6.598445E+02
       129   6  9.177938E+04  1.406737E+04  3.119088E+02  3.592506E+04 -5.242267E+02  7.385960E+02
       129   7  1.093137E+05  2.062787E+04  4.733254E+03  4.071754E+04 -1.981725E+02  6.028508E+02
       129   8  1.124714E+05  2.090068E+04  5.434195E+03  4.064480E+04 -3.320795E+02  6.818069E+02
       129   9  1.143279E+05  2.253325E+04  6.212003E+03  4.208476E+04 -4.658808E+02  7.605051E+02
       129  10  7.423921E+04  7.463527E+03 -4.476126E+03  3.114899E+04  7.811430E-10  7.705198E-10
       129  11  7.238580E+04  5.852657E+03 -5.070520E+03  2.970091E+04  1.610803E-09 -2.461587E-09
       129  12  6.923124E+04  5.601504E+03 -5.588249E+03  2.976554E+04 -2.143397E-10 -6.851007E-10
       129  13  9.177633E+04  1.404569E+04  1.285775E+02  3.593320E+04  8.719209E-10  2.505769E-09
       129  14  9.242843E+04  1.337666E+04  1.818585E+02  3.517278E+04  8.040900E-10 -7.937894E-10
       129  15  9.177938E+04  1.406737E+04  3.119072E+02  3.592506E+04 -5.589187E-10 -8.061556E-10
       129  16  1.093137E+05  2.062787E+04  4.733254E+03  4.071754E+04  8.288053E-11  2.476807E-11
       129  17  1.124714E+05  2.090068E+04  5.434194E+03  4.064480E+04 -3.156026E-10 -1.510615E-10
       129  18  1.143279E+05  2.253324E+04  6.212002E+03  4.208476E+04 -1.450137E-09 -1.012398E-09
       129  19  7.423921E+04  7.463527E+03 -4.476125E+03  3.114899E+04  3.154125E+02 -5.588206E+02
       129  20  7.238580E+04  5.852657E+03 -5.070519E+03  2.970091E+04  4.490446E+02 -6.378828E+02
       129  21  6.923124E+04  5.601505E+03 -5.588248E+03  2.976554E+04  5.825705E+02 -7.166876E+02
       129  22  9.177633E+04  1.404569E+04  1.285782E+02  3.593320E+04  2.567934E+02 -5.808354E+02
       129  23  9.242843E+04  1.337666E+04  1.818596E+02  3.517278E+04  3.905630E+02 -6.598445E+02
       129  24  9.177938E+04  1.406737E+04  3.119088E+02  3.592506E+04  5.242267E+02 -7.385960E+02
       129  25  1.093137E+05  2.062787E+04  4.733254E+03  4.071754E+04  1.981725E+02 -6.028508E+02
       129  26  1.124714E+05  2.090068E+04  5.434195E+03  4.064480E+04  3.320795E+02 -6.818069E+02
       129  27  1.143279E+05  2.253325E+04  6.212003E+03  4.208476E+04  4.658808E+02 -7.605051E+02
       130   1  6.592704E+04  4.361450E+03 -6.378494E+03  2.892214E+04 -6.682968E+02  7.609167E+02
       130   2  6.404356E+04  2.687784E+03 -6.723909E+03  2.742267E+04 -1.067006E+03  7.407187E+02
       130   3  6.098783E+04  2.646070E+03 -6.723509E+03  2.738338E+04 -1.463502E+03  7.146368E+02
       130   4  9.179543E+04  1.403832E+04  4.031706E+02  3.594704E+04 -6.081047E+02  7.835180E+02
       130   5  9.239793E+04  1.334050E+04  7.082405E+02  3.517244E+04 -1.009871E+03  7.621701E+02
       130   6  9.182880E+04  1.427525E+04  1.361549E+03  3.585805E+04 -1.409425E+03  7.349380E+02
       130   7  1.176646E+05  2.371527E+04  7.184800E+03  4.297222E+04 -5.479098E+02  8.061203E+02
       130   8  1.207531E+05  2.399328E+04  8.140334E+03  4.292254E+04 -9.527326E+02  7.836226E+02
       130   9  1.226707E+05  2.590449E+04  9.446526E+03  4.433310E+04 -1.355345E+03  7.552402E+02
       130  10  6.592704E+04  4.361449E+03 -6.378496E+03  2.892214E+04  4.134717E-09  2.346969E-09
       130  11  6.404356E+04  2.687783E+03 -6.723912E+03  2.742267E+04 -2.166039E-09  9.836109E-12
       130  12  6.098783E+04  2.646069E+03 -6.723514E+03  2.738338E+04 -1.042971E-08 -4.195350E-09
       130  13  9.179543E+04  1.403832E+04  4.031688E+02  3.594704E+04 -1.142848E-09  1.080930E-09
       130  14  9.239793E+04  1.334050E+04  7.082375E+02  3.517244E+04  1.722536E-09  9.796592E-10
       130  15  9.182880E+04  1.427525E+04  1.361544E+03  3.585805E+04 -7.456885E-10 -4.894744E-09
       130  16  1.176646E+05  2.371527E+04  7.184798E+03  4.297222E+04 -4.442258E-09 -3.233090E-10
       130  17  1.207531E+05  2.399328E+04  8.140331E+03  4.292254E+04  6.309168E-09  4.296111E-09
       130  18  1.226707E+05  2.590449E+04  9.446522E+03  4.433310E+04  6.627904E-09  2.340543E-09
       130  19  6.592704E+04  4.361450E+03 -6.378494E+03  2.892214E+04  6.682968E+02 -7.609167E+02
       130  20  6.404356E+04  2.687784E+03 -6.723909E+03  2.742267E+04  1.067006E+03 -7.407187E+02
       130  21  6.098783E+04  2.646070E+03 -6.723509E+03  2.738338E+04  1.463502E+03 -7.146368E+02
       130  22  9.179543E+04  1.403832E+04  4.031706E+02  3.594704E+04  6.081047E+02 -7.835180E+02
       130  23  9.239793E+04  1.334050E+04  7.082405E+02  3.517244E+04  1.009871E+03 -7.621701E+02
       130  24  9.182880E+04  1.427525E+04  1.361549E+03  3.585805E+04  1.409425E+03 -7.349380E+02
       130  25  1.176646E+05  2.371527E+04  7.184800E+03  4.297222E+04  5.479098E+02 -8.061203E+02
       130  26  1.207531E+05  2.399328E+04  8.140334E+03  4.292254E+04  9.527326E+02 -7.836226E+02
       130  27  1.226707E+05  2.590449E+04  9.446526E+03  4.433310E+04  1.355345E+03 -7.552402E+02
       131   1  5.752924E+04  1.361852E+03 -7.215935E+03  2.698990E+04 -1.768710E+03  6.892784E+02
       131   2  5.555054E+04 -8.858944E+02 -6.568412E+03  2.503036E+04 -3.351251E+03  2.216900E+02
       131   3  5.351235E+04  1.078138E+03 -3.991825E+03  2.390272E+04 -4.902382E+03 -3.295254E+02
       131   4  9.195242E+04  1.396062E+04  1.750606E+03  3.605244E+04 -1.689786E+03  7.189086E+02
       131   5  9.214287E+04  1.302183E+04  3.052837E+03  3.519669E+04 -3.315644E+03  2.350514E+02
       131   6  9.228236E+04  1.630326E+04  6.318355E+03  3.517281E+04 -4.910104E+03 -3.324374E+02
       131   7  1.263766E+05  2.655941E+04  1.071702E+04  4.511541E+04 -1.610858E+03  7.485403E+02
       131   8  1.287365E+05  2.692965E+04  1.267397E+04  4.536356E+04 -3.280035E+03  2.484136E+02
       131   9  1.310539E+05  3.152855E+04  1.662844E+04  4.644358E+04 -4.917827E+03 -3.353496E+02
       131  10  5.752923E+04  1.361850E+03 -7.215942E+03  2.698990E+04  1.509672E-09  2.129623E-09
       131  11  5.555053E+04 -8.858974E+02 -6.568433E+03  2.503036E+04  4.356354E-09  3.882141E-09
       131  12  5.351232E+04  1.078132E+03 -3.991870E+03  2.390272E+04 -2.616309E-10  1.179309E-09
       131  13  9.195241E+04  1.396062E+04  1.750600E+03  3.605244E+04 -2.493796E-09 -5.971767E-09
       131  14  9.214286E+04  1.302183E+04  3.052816E+03  3.519669E+04  5.048776E-10 -2.640157E-09
       131  15  9.228233E+04  1.630325E+04  6.318310E+03  3.517281E+04 -1.462594E-09  3.326551E-10
       131  16  1.263766E+05  2.655941E+04  1.071701E+04  4.511541E+04 -6.574375E-09 -2.946105E-09
       131  17  1.287365E+05  2.692965E+04  1.267395E+04  4.536356E+04 -4.897893E-09 -2.352973E-09
       131  18  1.310539E+05  3.152854E+04  1.662839E+04  4.644358E+04 -2.938151E-09 -6.854513E-10
       131  19  5.752924E+04  1.361852E+03 -7.215935E+03  2.698990E+04  1.768710E+03 -6.892784E+02
       131  20  5.555054E+04 -8.858944E+02 -6.568412E+03  2.503036E+04  3.351251E+03 -2.216900E+02
       131  21  5.351235E+04  1.078138E+03 -3.991825E+03  2.390272E+04  4.902382E+03  3.295254E+02
       131  22  9.195242E+04  1.396062E+04  1.750606E+03  3.605244E+04  1.689786E+03 -7.189086E+02
       131  23  9.214287E+04  1.302183E+04  3.052837E+03  3.519669E+04  3.315644E+03 -2.350514E+02
       131  24  9.228236E+04  1.630326E+04  6.318355E+03  3.517281E+04  4.910104E+03  3.324374E+02
       131  25  1.263766E+05  2.655941E+04  1.071702E+04  4.511541E+04  1.610858E+03 -7.485403E+02
       131  26  1.287365E+05  2.692965E+04  1.267397E+04  4.536356E+04  3.280035E+03 -2.484136E+02
       131  27  1.310539E+05  3.152855E+04  1.662844E+04  4.644358E+04  4.917827E+03  3.353496E+02
       132   1  4.853100E+04 -6.528382E+02 -3.357188E+03  2.783888E+04 -6.424448E+03 -6.398746E+02
       132   2  4.631936E+04 -8.365143E+03  1.127975E+03  2.147661E+04 -1.291641E+04 -2.999427E+03
       132   3  5.395851E+04  1.272354E+04  1.795395E+04  9.508166E+03 -1.897505E+04 -6.513255E+03
       132   4  9.329276E+04  1.315999E+04  7.784493E+03  3.698240E+04 -6.091264E+03 -5.147663E+02
       132   5  8.991032E+04  1.007258E+04  1.293557E+04  3.551682E+04 -1.318042E+04 -3.098591E+03
       132   6  9.649600E+04  3.590301E+04  3.089981E+04  2.844542E+04 -1.983622E+04 -6.836758E+03
       132   7  1.380565E+05  2.697283E+04  1.892605E+04  4.612646E+04 -5.758054E+03 -3.896520E+02
       132   8  1.335029E+05  2.851047E+04  2.474293E+04  4.955790E+04 -1.344444E+04 -3.197765E+03
       132   9  1.390349E+05  5.908300E+04  4.384535E+04  4.738381E+04 -2.069744E+04 -7.160305E+03
       132  10  4.853096E+04 -6.528497E+02 -3.357266E+03  2.783887E+04  7.900157E-11  2.051296E-09
       132  11  4.631918E+04 -8.365198E+03  1.127644E+03  2.147658E+04  8.183719E-10  1.594693E-09
       132  12  5.395811E+04  1.272340E+04  1.795320E+04  9.508067E+03  7.548722E-10 -5.969235E-11
       132  13  9.329272E+04  1.315998E+04  7.784422E+03  3.698239E+04 -9.492266E-10  1.093392E-09
       132  14  8.991013E+04  1.007252E+04  1.293522E+04  3.551679E+04  1.369543E-09  1.234920E-09
       132  15  9.649556E+04  3.590285E+04  3.089899E+04  2.844531E+04  1.502637E-10  7.068633E-10
       132  16  1.380565E+05  2.697282E+04  1.892598E+04  4.612645E+04 -3.262981E-09 -1.143923E-09
       132  17  1.335027E+05  2.851041E+04  2.474257E+04  4.955787E+04  8.257380E-10  1.079799E-09
       132  18  1.390344E+05  5.908283E+04  4.384445E+04  4.738369E+04  6.269396E-10 -1.000171E-10
       132  19  4.853100E+04 -6.528382E+02 -3.357188E+03  2.783888E+04  6.424448E+03  6.398746E+02
       132  20  4.631936E+04 -8.365143E+03  1.127975E+03  2.147661E+04  1.291641E+04  2.999427E+03
       132  21  5.395851E+04  1.272354E+04  1.795395E+04  9.508166E+03  1.897505E+04  6.513255E+03
       132  22  9.329276E+04  1.315999E+04  7.784493E+03  3.698240E+04  6.091264E+03  5.147663E+02
       132  23  8.991032E+04  1.007258E+04  1.293557E+04  3.551682E+04  1.318042E+04  3.098591E+03
       132  24  9.649600E+04  3.590301E+04  3.089981E+04  2.844542E+04  1.983622E+04  6.836758E+03
       132  25  1.380565E+05  2.697283E+04  1.892605E+04  4.612646E+04  5.758054E+03  3.896520E+02
       132  26  1.335029E+05  2.851047E+04  2.474293E+04  4.955790E+04  1.344444E+04  3.197765E+03
       132  27  1.390349E+05  5.908300E+04  4.384535E+04  4.738381E+04  2.069744E+04  7.160305E+03
       133   1 -1.311362E+01 -1.202517E+05 -4.798108E+02  5.619814E+00 -2.633516E+00  4.102064E+01
       133   2 -1.750720E+01 -1.203023E+05 -6.057908E+02  1.335708E+01 -5.135300E+00  3.268344E+02
       133   3 -1.481251E+02 -1.204218E+05 -9.494376E+02 -3.022604E+01 -8.887879E+00  6.126519E+02
       133   4 -1.826392E+00 -1.202057E+05 -4.693855E+02 -1.139679E+01 -2.633845E+00  4.213913E+01
       133   5  1.485140E+01 -1.201712E+05 -5.750695E+02  1.424967E+01 -5.135855E+00  3.287333E+02
       133   6 -9.483028E+01 -1.202057E+05 -8.989621E+02 -1.142401E+01 -8.888645E+00  6.153313E+02
       133   7  9.460837E+00 -1.201598E+05 -4.589603E+02 -2.841340E+01 -2.634174E+00  4.325762E+01
       133   8  4.720999E+01 -1.200402E+05 -5.443483E+02  1.514225E+01 -5.136411E+00  3.306322E+02
       133   9 -4.153548E+01 -1.199897E+05 -8.484865E+02  7.378031E+00 -8.889410E+00  6.180107E+02
       133  10 -1.311362E+01 -1.202517E+05 -4.798108E+02  5.619814E+00  1.915458E-09  4.258604E-09
       133  11 -1.750723E+01 -1.203023E+05 -6.057910E+02  1.335709E+01  6.458284E-10  3.982092E-10
       133  12 -1.481252E+02 -1.204218E+05 -9.494383E+02 -3.022604E+01  1.606210E-09 -2.575633E-09
       133  13 -1.826392E+00 -1.202057E+05 -4.693855E+02 -1.139679E+01 -1.858891E-10  1.000844E-09
       133  14  1.485137E+01 -1.201712E+05 -5.750697E+02  1.424967E+01 -3.998326E-09 -3.198646E-10
       133  15 -9.483038E+01 -1.202057E+05 -8.989628E+02 -1.142400E+01 -2.167744E-09 -7.429921E-10
       133  16  9.460837E+00 -1.201598E+05 -4.589603E+02 -2.841340E+01  2.176386E-09 -1.658944E-09
       133  17  4.720996E+01 -1.200402E+05 -5.443485E+02  1.514225E+01 -1.007479E-10 -9.101663E-11
       133  18 -4.153559E+01 -1.199897E+05 -8.484872E+02  7.378036E+00  1.451176E-09  3.040572E-09
       133  19 -1.311362E+01 -1.202517E+05 -4.798108E+02  5.619814E+00  2.633516E+00 -4.102064E+01
       133  20 -1.750720E+01 -1.203023E+05 -6.057908E+02  1.335708E+01  5.135300E+00 -3.268344E+02
       133  21 -1.481251E+02 -1.204218E+05 -9.494376E+02 -3.022604E+01  8.887879E+00 -6.126519E+02
       133  22 -1.826392E+00 -1.202057E+05 -4.693855E+02 -1.139679E+01  2.633845E+00 -4.213913E+01
       133  23  1.485140E+01 -1.201712E+05 -5.750695E+02  1.424967E+01  5.135855E+00 -3.287333E+02
       133  24 -9.483028E+01 -1.202057E+05 -8.989621E+02 -1.142401E+01  8.888645E+00 -6.153313E+02
       133  25  9.460837E+00 -1.201598E+05 -4.589603E+02 -2.841340E+01  2.634174E+00 -4.325762E+01
       133  26  4.720999E+01 -1.200402E+05 -5.443483E+02  1.514225E+01  5.136411E+00 -3.306322E+02
       133  27 -4.153548E+01 -1.199897E+05 -8.484865E+02  7.378031E+00  8.889410E+00 -6.180107E+02
       134   1 -1.438830E+01 -1.205986E+05 -1.195971E+03  1.662796E+02 -1.149515E+01  7.911022E+02
       134   2  2.875766E+01 -1.204580E+05 -1.948949E+03 -7.721914E+01 -1.544761E+01  1.735726E+03
       134   3 -1.242250E+03 -1.207689E+05 -3.645549E+03 -3.722256E+02 -1.842590E+01  2.680348E+03
       134   4  6.181008E+01 -1.202907E+05 -1.123537E+03 -1.134272E+01 -1.149613E+01  7.936999E+02
       134   5  1.257237E+02 -1.200650E+05 -1.856785E+03  1.423776E+01 -1.544793E+01  1.737716E+03
       134   6 -1.124410E+03 -1.202908E+05 -3.533232E+03 -1.168942E+01 -1.842474E+01  2.681731E+03
       134   7  1.380086E+02 -1.199828E+05 -1.051103E+03 -1.889651E+02 -1.149712E+01  7.962976E+02
       134   8  2.226898E+02 -1.196721E+05 -1.764620E+03  1.056947E+02 -1.544826E+01  1.739705E+03
       134   9 -1.006570E+03 -1.198128E+05 -3.420915E+03  3.488470E+02 -1.842359E+01  2.683113E+03
       134  10 -1.438847E+01 -1.205986E+05 -1.195972E+03  1.662796E+02  2.281489E-09  4.336326E-09
       134  11  2.875685E+01 -1.204580E+05 -1.948955E+03 -7.721912E+01  2.542383E-09  1.571557E-09
       134  12 -1.242252E+03 -1.207689E+05 -3.645563E+03 -3.722255E+02  1.125191E-10 -2.694458E-09
       134  13  6.180992E+01 -1.202907E+05 -1.123538E+03 -1.134271E+01 -2.896273E-09 -8.982762E-10
       134  14  1.257229E+02 -1.200650E+05 -1.856790E+03  1.423778E+01 -1.586983E-09 -8.244911E-11
       134  15 -1.124412E+03 -1.202908E+05 -3.533246E+03 -1.168938E+01 -1.245517E-09 -5.407006E-10
       134  16  1.380084E+02 -1.199828E+05 -1.051104E+03 -1.889651E+02  1.657974E-09 -3.879408E-09
       134  17  2.226890E+02 -1.196721E+05 -1.764626E+03  1.056947E+02  3.919894E-10 -1.428225E-09
       134  18 -1.006572E+03 -1.198128E+05 -3.420928E+03  3.488470E+02  4.963929E-10  2.777853E-09
       134  19 -1.438830E+01 -1.205986E+05 -1.195971E+03  1.662796E+02  1.149515E+01 -7.911022E+02
       134  20  2.875766E+01 -1.204580E+05 -1.948949E+03 -7.721914E+01  1.544761E+01 -1.735726E+03
       134  21 -1.242250E+03 -1.207689E+05 -3.645549E+03 -3.722256E+02  1.842590E+01 -2.680348E+03
       134  22  6.181008E+01 -1.202907E+05 -1.123537E+03 -1.134272E+01  1.149613E+01 -7.936999E+02
       134  23  1.257237E+02 -1.200650E+05 -1.856785E+03  1.423776E+01  1.544793E+01 -1.737716E+03
       134  24 -1.124410E+03 -1.202908E+05 -3.533232E+03 -1.168942E+01  1.842474E+01 -2.681731E+03
       134  25  1.380086E+02 -1.199828E+05 -1.051103E+03 -1.889651E+02  1.149712E+01 -7.962976E+02
       134  26  2.226898E+02 -1.196721E+05 -1.764620E+03  1.056947E+02  1.544826E+01 -1.739705E+03
       134  27 -1.006570E+03 -1.198128E+05 -3.420915E+03  3.488470E+02  1.842359E+01 -2.683113E+03
       135   1  5.600607E+02 -1.216906E+05 -4.487271E+03  1.835002E+03 -2.321228E+01  3.333017E+03
       135   2  1.157750E+03 -1.196811E+05 -7.241810E+03 -1.444396E+03 -2.637638E+01  7.149154E+03
       135   3 -1.302989E+04 -1.218651E+05 -1.617748E+04 -4.777404E+03 -1.139663E+01  1.096524E+04
       135   4  7.018135E+02 -1.211218E+05 -4.353822E+03 -1.076472E+01 -2.322422E+01  3.339954E+03
       135   5  1.318398E+03 -1.190264E+05 -7.088196E+03  1.409671E+01 -2.635829E+01  7.144749E+03
       135   6 -1.284841E+04 -1.211226E+05 -1.599583E+04 -1.471538E+01 -1.130790E+01  1.094950E+04
       135   7  8.435790E+02 -1.205530E+05 -4.220370E+03 -1.856533E+03 -2.323619E+01  3.346891E+03
       135   8  1.479054E+03 -1.183717E+05 -6.934581E+03  1.472591E+03 -2.634023E+01  7.140345E+03
       135   9 -1.266685E+04 -1.203801E+05 -1.581416E+04  4.747979E+03 -1.121941E+01  1.093375E+04
       135  10  5.600577E+02 -1.216906E+05 -4.487292E+03  1.835002E+03 -9.837163E-11  9.397851E-11
       135  11  1.157737E+03 -1.196811E+05 -7.241906E+03 -1.444395E+03  2.693792E-10  2.397311E-10
       135  12 -1.302992E+04 -1.218652E+05 -1.617771E+04 -4.777404E+03 -3.083925E-10  2.300121E-10
       135  13  7.018105E+02 -1.211218E+05 -4.353843E+03 -1.076465E+01 -1.636886E-10 -8.863243E-10
       135  14  1.318384E+03 -1.190264E+05 -7.088292E+03  1.409686E+01 -1.242540E-09 -6.248845E-10
       135  15 -1.284844E+04 -1.211227E+05 -1.599605E+04 -1.471528E+01  4.707515E-10 -3.624935E-10
       135  16  8.435760E+02 -1.205530E+05 -4.220391E+03 -1.856533E+03  7.310008E-10  4.931968E-10
       135  17  1.479040E+03 -1.183718E+05 -6.934677E+03  1.472591E+03 -1.848452E-10 -1.258941E-10
       135  18 -1.266688E+04 -1.203802E+05 -1.581439E+04  4.747979E+03 -9.778238E-11 -7.671049E-11
       135  19  5.600607E+02 -1.216906E+05 -4.487271E+03  1.835002E+03  2.321228E+01 -3.333017E+03
       135  20  1.157750E+03 -1.196811E+05 -7.241810E+03 -1.444396E+03  2.637638E+01 -7.149154E+03
       135  21 -1.302989E+04 -1.218651E+05 -1.617748E+04 -4.777404E+03  1.139663E+01 -1.096524E+04
       135  22  7.018135E+02 -1.211218E+05 -4.353822E+03 -1.076472E+01  2.322422E+01 -3.339954E+03
       135  23  1.318398E+03 -1.190264E+05 -7.088196E+03  1.409671E+01  2.635829E+01 -7.144749E+03
       135  24 -1.284841E+04 -1.211226E+05 -1.599583E+04 -1.471538E+01  1.130790E+01 -1.094950E+04
       135  25  8.435790E+02 -1.205530E+05 -4.220370E+03 -1.856533E+03  2.323619E+01 -3.346891E+03
       135  26  1.479054E+03 -1.183717E+05 -6.934581E+03  1.472591E+03  2.634023E+01 -7.140345E+03
       135  27 -1.266685E+04 -1.203801E+05 -1.581416E+04  4.747979E+03  1.121941E+01 -1.093375E+04
       136   1 -2.140530E+06 -6.973014E+05 -3.729801E+05 -7.487779E+05 -1.231122E+05 -2.433340E+04
       136   2 -2.077231E+06 -6.124750E+05 -2.811391E+05 -7.258176E+05 -8.228875E+04  4.220466E+04
       136   3 -2.023615E+06 -5.780275E+05 -2.425853E+05 -7.088069E+05 -2.866711E+04  7.489292E+04
       136   4 -9.229790E+05 -2.151216E+05 -5.112748E+04 -3.908891E+05 -4.023193E+04  6.941860E+03
       136   5 -9.198134E+05 -1.745752E+05 -2.323375E+04 -3.953979E+05 -4.487647E+04  5.630056E+04
       136   6 -9.172644E+05 -1.753354E+05 -1.246407E+04 -4.058660E+05 -3.674301E+04  7.183584E+04
       136   7  2.960044E+05  2.671892E+05  2.706185E+05 -3.235248E+04  4.282529E+04  3.829177E+04
       136   8  2.389587E+05  2.634459E+05  2.345917E+05 -6.440607E+04 -7.388698E+03  7.042640E+04
       136   9  1.903545E+05  2.274585E+05  2.175955E+05 -1.024251E+05 -4.483457E+04  6.877302E+04
       136  10 -2.140546E+06 -6.973061E+05 -3.730098E+05 -7.487803E+05 -1.330627E-09 -5.535033E-12
       136  11 -2.077238E+06 -6.124787E+05 -2.811552E+05 -7.258148E+05 -1.502253E-09  1.050263E-09
       136  12 -2.023617E+06 -5.780337E+05 -2.425974E+05 -7.088052E+05  2.807616E-09  5.462056E-10
       136  13 -9.229807E+05 -2.151221E+05 -5.113062E+04 -3.908889E+05  9.537670E-10  4.619578E-10
       136  14 -9.198164E+05 -1.745792E+05 -2.324349E+04 -3.953959E+05 -3.844750E-11 -2.786535E-09
       136  15 -9.172672E+05 -1.753413E+05 -1.247630E+04 -4.058639E+05 -4.955932E-10 -3.106296E-10
       136  16  2.960021E+05  2.671871E+05  2.706123E+05 -3.235380E+04  9.124344E-10  2.235861E-10
       136  17  2.389573E+05  2.634406E+05  2.345823E+05 -6.440565E+04  2.167137E-10  1.911647E-09
       136  18  1.903511E+05  2.274529E+05  2.175828E+05 -1.024226E+05 -3.261222E-09 -1.241758E-09
       136  19 -2.140530E+06 -6.973014E+05 -3.729801E+05 -7.487779E+05  1.231122E+05  2.433340E+04
       136  20 -2.077231E+06 -6.124750E+05 -2.811391E+05 -7.258176E+05  8.228875E+04 -4.220466E+04
       136  21 -2.023615E+06 -5.780275E+05 -2.425853E+05 -7.088069E+05  2.866711E+04 -7.489292E+04
       136  22 -9.229790E+05 -2.151216E+05 -5.112748E+04 -3.908891E+05  4.023193E+04 -6.941860E+03
       136  23 -9.198134E+05 -1.745752E+05 -2.323375E+04 -3.953979E+05  4.487647E+04 -5.630056E+04
       136  24 -9.172644E+05 -1.753354E+05 -1.246407E+04 -4.058660E+05  3.674301E+04 -7.183584E+04
       136  25  2.960044E+05  2.671892E+05  2.706185E+05 -3.235248E+04 -4.282529E+04 -3.829177E+04
       136  26  2.389587E+05  2.634459E+05  2.345917E+05 -6.440607E+04  7.388698E+03 -7.042640E+04
       136  27  1.903545E+05  2.274585E+05  2.175955E+05 -1.024251E+05  4.483457E+04 -6.877302E+04
       137   1 -1.972113E+06 -5.663350E+05 -2.301593E+05 -6.987231E+05 -3.310631E+04  6.946073E+04
       137   2 -1.912953E+06 -5.330643E+05 -2.092343E+05 -6.729347E+05 -2.699071E+04  6.973464E+04
       137   3 -1.841536E+06 -5.150507E+05 -1.927920E+05 -6.621885E+05 -2.006853E+04  6.785660E+04
       137   4 -9.153831E+05 -1.773494E+05 -9.565165E+03 -4.048836E+05 -3.405413E+04  6.909077E+04
       137   5 -9.216548E+05 -1.691778E+05 -5.075436E+03 -3.976652E+05 -3.082587E+04  6.827936E+04
       137   6 -9.151002E+05 -1.756862E+05 -2.771732E+03 -4.054884E+05 -2.679235E+04  6.531763E+04
       137   7  1.424923E+05  2.117311E+05  2.109688E+05 -1.105813E+05 -3.500371E+04  6.872018E+04
       137   8  7.065013E+04  1.947912E+05  1.990312E+05 -1.219900E+05 -3.466763E+04  6.682161E+04
       137   9  1.221205E+04  1.637483E+05  1.872025E+05 -1.484360E+05 -3.352695E+04  6.277462E+04
       137  10 -1.972115E+06 -5.663405E+05 -2.301704E+05 -6.987213E+05 -2.411661E-09 -2.500090E-10
       137  11 -1.912955E+06 -5.330697E+05 -2.092448E+05 -6.729332E+05 -1.767396E-09  5.786298E-10
       137  12 -1.841538E+06 -5.150557E+05 -1.928015E+05 -6.621874E+05  6.979445E-11  1.135958E-09
       137  13 -9.153857E+05 -1.773548E+05 -9.576309E+03 -4.048817E+05 -1.389253E-10 -4.437586E-11
       137  14 -9.216571E+05 -1.691830E+05 -5.085977E+03 -3.976635E+05  5.927932E-10 -3.144863E-10
       137  15 -9.151021E+05 -1.756910E+05 -2.781094E+03 -4.054870E+05 -9.784426E-10  1.205267E-09
       137  16  1.424897E+05  2.117257E+05  2.109576E+05 -1.105794E+05  1.120901E-09  1.368027E-09
       137  17  7.064764E+04  1.947861E+05  1.990205E+05 -1.219881E+05 -1.994430E-10  1.408754E-09
       137  18  1.220979E+04  1.637438E+05  1.871930E+05 -1.484343E+05 -1.338483E-09  1.164401E-09
       137  19 -1.972113E+06 -5.663350E+05 -2.301593E+05 -6.987231E+05  3.310631E+04 -6.946073E+04
       137  20 -1.912953E+06 -5.330643E+05 -2.092343E+05 -6.729347E+05  2.699071E+04 -6.973464E+04
       137  21 -1.841536E+06 -5.150507E+05 -1.927920E+05 -6.621885E+05  2.006853E+04 -6.785660E+04
       137  22 -9.153831E+05 -1.773494E+05 -9.565165E+03 -4.048836E+05  3.405413E+04 -6.909077E+04
       137  23 -9.216548E+05 -1.691778E+05 -5.075436E+03 -3.976652E+05  3.082587E+04 -6.827936E+04
       137  24 -9.151002E+05 -1.756862E+05 -2.771732E+03 -4.054884E+05  2.679235E+04 -6.531763E+04
       137  25  1.424923E+05  2.117311E+05  2.109688E+05 -1.105813E+05  3.500371E+04 -6.872018E+04
       137  26  7.065013E+04  1.947912E+05  1.990312E+05 -1.219900E+05  3.466763E+04 -6.682161E+04
       137  27  1.221205E+04  1.637483E+05  1.872025E+05 -1.484360E+05  3.352695E+04 -6.277462E+04
       138   1 -1.795628E+06 -4.984549E+05 -1.823888E+05 -6.496624E+05 -1.901170E+04  6.494069E+04
       138   2 -1.736222E+06 -4.671644E+05 -1.678799E+05 -6.234137E+05 -1.643462E+04  6.047771E+04
       138   3 -1.663145E+06 -4.496097E+05 -1.539391E+05 -6.127599E+05 -1.380453E+04  5.586191E+04
       138   4 -9.149375E+05 -1.757913E+05 -2.092031E+03 -4.054836E+05 -2.530860E+04  6.256416E+04
       138   5 -9.217604E+05 -1.688775E+05 -1.164331E+03 -3.977022E+05 -2.293557E+04  5.802733E+04
       138   6 -9.148799E+05 -1.756586E+05 -6.434053E+02 -4.055163E+05 -2.050968E+04  5.333777E+04
       138   7 -3.344095E+04  1.469412E+05  1.781672E+05 -1.609822E+05 -3.161519E+04  6.018400E+04
       138   8 -1.066124E+05  1.294672E+05  1.655184E+05 -1.717158E+05 -2.944576E+04  5.557349E+04
       138   9 -1.660378E+05  9.834018E+04  1.526238E+05 -1.980416E+05 -2.722355E+04  5.081037E+04
       138  10 -1.795630E+06 -4.984595E+05 -1.823974E+05 -6.496614E+05  3.590940E-09  1.636188E-09
       138  11 -1.736223E+06 -4.671684E+05 -1.678873E+05 -6.234129E+05 -8.511965E-09 -3.195463E-09
       138  12 -1.663146E+06 -4.496131E+05 -1.539453E+05 -6.127593E+05 -1.996928E-08 -8.821868E-09
       138  13 -9.149392E+05 -1.757956E+05 -2.100586E+03 -4.054823E+05  6.394697E-10 -2.401462E-10
       138  14 -9.217619E+05 -1.688813E+05 -1.171643E+03 -3.977012E+05  1.722485E-10  1.665238E-10
       138  15 -9.148811E+05 -1.756618E+05 -6.495388E+02 -4.055155E+05 -3.739283E-09 -2.267482E-09
       138  16 -3.344300E+04  1.469371E+05  1.781585E+05 -1.609806E+05 -3.043577E-09 -7.271413E-10
       138  17 -1.066142E+05  1.294636E+05  1.655110E+05 -1.717145E+05  7.330972E-09  3.107747E-09
       138  18 -1.660393E+05  9.833721E+04  1.526176E+05 -1.980405E+05  1.345544E-08  4.113357E-09
       138  19 -1.795628E+06 -4.984549E+05 -1.823888E+05 -6.496624E+05  1.901170E+04 -6.494069E+04
       138  20 -1.736222E+06 -4.671644E+05 -1.678799E+05 -6.234137E+05  1.643462E+04 -6.047771E+04
       138  21 -1.663145E+06 -4.496097E+05 -1.539391E+05 -6.127599E+05  1.380453E+04 -5.586191E+04
       138  22 -9.149375E+05 -1.757913E+05 -2.092031E+03 -4.054836E+05  2.530860E+04 -6.256416E+04
       138  23 -9.217604E+05 -1.688775E+05 -1.164331E+03 -3.977022E+05  2.293557E+04 -5.802733E+04
       138  24 -9.148799E+05 -1.756586E+05 -6.434053E+02 -4.055163E+05  2.050968E+04 -5.333777E+04
       138  25 -3.344095E+04  1.469412E+05  1.781672E+05 -1.609822E+05  3.161519E+04 -6.018400E+04
       138  26 -1.066124E+05  1.294672E+05  1.655184E+05 -1.717158E+05  2.944576E+04 -5.557349E+04
       138  27 -1.660378E+05  9.834018E+04  1.526238E+05 -1.980416E+05  2.722355E+04 -5.081037E+04
       139   1 -1.617090E+06 -4.326716E+05 -1.439690E+05 -6.000366E+05 -1.262675E+04  5.298909E+04
       139   2 -1.557122E+06 -4.012402E+05 -1.302742E+05 -5.735708E+05 -1.056531E+04  4.806974E+04
       139   3 -1.483313E+06 -3.835749E+05 -1.166943E+05 -5.628636E+05 -8.498835E+03  4.312729E+04
       139   4 -9.148335E+05 -1.756731E+05 -4.955365E+02 -4.055461E+05 -1.932286E+04  5.046993E+04
       139   5 -9.217362E+05 -1.687551E+05 -3.130566E+02 -3.976746E+05 -1.729187E+04  4.554148E+04
       139   6 -9.147966E+05 -1.755972E+05 -2.217931E+02 -4.055631E+05 -1.525586E+04  4.058992E+04
       139   7 -2.120742E+05  8.136525E+04  1.429515E+05 -2.108535E+05 -2.602708E+04  4.794774E+04
       139   8 -2.859343E+05  6.376423E+04  1.296276E+05 -2.216119E+05 -2.402584E+04  4.301044E+04
       139   9 -3.459430E+05  3.240953E+04  1.162355E+05 -2.481282E+05 -2.201961E+04  3.805003E+04
       139  10 -1.617091E+06 -4.326746E+05 -1.439746E+05 -6.000361E+05  1.280898E-08  3.977761E-09
       139  11 -1.557123E+06 -4.012427E+05 -1.302788E+05 -5.735704E+05  7.281436E-09  2.948006E-09
       139  12 -1.483314E+06 -3.835769E+05 -1.166979E+05 -5.628633E+05 -3.643591E-09 -8.922394E-10
       139  13 -9.148346E+05 -1.756760E+05 -5.010220E+02 -4.055453E+05 -3.676963E-09 -2.087402E-09
       139  14 -9.217370E+05 -1.687574E+05 -3.175137E+02 -3.976740E+05  1.334990E-10  3.087125E-11
       139  15 -9.147973E+05 -1.755990E+05 -2.253247E+02 -4.055626E+05  7.449857E-10  9.040319E-10
       139  16 -2.120755E+05  8.136260E+04  1.429459E+05 -2.108525E+05 -1.943883E-08 -8.350995E-09
       139  17 -2.859354E+05  6.376209E+04  1.296231E+05 -2.216111E+05 -6.810755E-09 -3.070279E-09
       139  18 -3.459439E+05  3.240784E+04  1.162319E+05 -2.481275E+05  4.315433E-09  1.918760E-09
       139  19 -1.617090E+06 -4.326716E+05 -1.439690E+05 -6.000366E+05  1.262675E+04 -5.298909E+04
       139  20 -1.557122E+06 -4.012402E+05 -1.302742E+05 -5.735708E+05  1.056531E+04 -4.806974E+04
       139  21 -1.483313E+06 -3.835749E+05 -1.166943E+05 -5.628636E+05  8.498835E+03 -4.312729E+04
       139  22 -9.148335E+05 -1.756731E+05 -4.955365E+02 -4.055461E+05  1.932286E+04 -5.046993E+04
       139  23 -9.217362E+05 -1.687551E+05 -3.130566E+02 -3.976746E+05  1.729187E+04 -4.554148E+04
       139  24 -9.147966E+05 -1.755972E+05 -2.217931E+02 -4.055631E+05  1.525586E+04 -4.058992E+04
       139  25 -2.120742E+05  8.136525E+04  1.429515E+05 -2.108535E+05  2.602708E+04 -4.794774E+04
       139  26 -2.859343E+05  6.376423E+04  1.296276E+05 -2.216119E+05  2.402584E+04 -4.301044E+04
       139  27 -3.459430E+05  3.240953E+04  1.162355E+05 -2.481282E+05  2.201961E+04 -3.805003E+04
       140   1 -1.436896E+06 -3.665195E+05 -1.067892E+05 -5.500585E+05 -7.351528E+03  4.021933E+04
       140   2 -1.376460E+06 -3.349306E+05 -9.324726E+04 -5.234470E+05 -5.319131E+03  3.523668E+04
       140   3 -1.302134E+06 -3.171938E+05 -7.979849E+04 -5.127178E+05 -3.285653E+03  3.024403E+04
       140   4 -9.147727E+05 -1.756057E+05 -2.157195E+02 -4.055894E+05 -1.412151E+04  3.767829E+04
       140   5 -9.217017E+05 -1.686504E+05 -2.611724E+02 -3.976547E+05 -1.210219E+04  3.269241E+04
       140   6 -9.147427E+05 -1.755441E+05 -3.898238E+02 -4.056032E+05 -1.008181E+04  2.769655E+04
       140   7 -3.923686E+05  1.533118E+04  1.063441E+05 -2.610079E+05 -2.089763E+04  3.513496E+04
       140   8 -4.667319E+05 -2.353434E+03  9.271402E+04 -2.717777E+05 -1.889058E+04  3.014615E+04
       140   9 -5.272003E+05 -3.388301E+04  7.901045E+04 -2.984276E+05 -1.688249E+04  2.514738E+04
       140  10 -1.436897E+06 -3.665212E+05 -1.067924E+05 -5.500583E+05  1.163619E-09  8.007922E-10
       140  11 -1.376461E+06 -3.349319E+05 -9.324965E+04 -5.234468E+05  2.060856E-10 -3.753739E-10
       140  12 -1.302134E+06 -3.171948E+05 -7.980022E+04 -5.127177E+05 -1.458165E-09 -8.177450E-10
       140  13 -9.147733E+05 -1.756073E+05 -2.187605E+02 -4.055890E+05 -7.426630E-11  3.368157E-10
       140  14 -9.217021E+05 -1.686516E+05 -2.634550E+02 -3.976544E+05  6.763496E-11 -4.343660E-10
       140  15 -9.147430E+05 -1.755450E+05 -3.914555E+02 -4.056029E+05  1.384487E-10  1.301950E-10
       140  16 -3.923694E+05  1.532974E+04  1.063409E+05 -2.610073E+05 -1.127530E-09 -5.853074E-11
       140  17 -4.667325E+05 -2.354505E+03  9.271164E+04 -2.717773E+05 -3.669558E-10 -6.772578E-10
       140  18 -5.272007E+05 -3.388377E+04  7.900873E+04 -2.984272E+05  7.565188E-10  3.402815E-10
       140  19 -1.436896E+06 -3.665195E+05 -1.067892E+05 -5.500585E+05  7.351528E+03 -4.021933E+04
       140  20 -1.376460E+06 -3.349306E+05 -9.324726E+04 -5.234470E+05  5.319131E+03 -3.523668E+04
       140  21 -1.302134E+06 -3.171938E+05 -7.979849E+04 -5.127178E+05  3.285653E+03 -3.024403E+04
       140  22 -9.147727E+05 -1.756057E+05 -2.157195E+02 -4.055894E+05  1.412151E+04 -3.767829E+04
       140  23 -9.217017E+05 -1.686504E+05 -2.611724E+02 -3.976547E+05  1.210219E+04 -3.269241E+04
       140  24 -9.147427E+05 -1.755441E+05 -3.898238E+02 -4.056032E+05  1.008181E+04 -2.769655E+04
       140  25 -3.923686E+05  1.533118E+04  1.063441E+05 -2.610079E+05  2.089763E+04 -3.513496E+04
       140  26 -4.667319E+05 -2.353434E+03  9.271402E+04 -2.717777E+05  1.889058E+04 -3.014615E+04
       140  27 -5.272003E+05 -3.388301E+04  7.901045E+04 -2.984276E+05  1.688249E+04 -2.514738E+04
       141   1 -1.255435E+06 -3.000601E+05 -6.995675E+04 -4.998621E+05 -2.095108E+03  2.733381E+04
       141   2 -1.194650E+06 -2.683641E+05 -5.668729E+04 -4.731498E+05  2.225913E+02  2.243971E+04
       141   3 -1.119996E+06 -2.506257E+05 -4.373897E+04 -4.624107E+05  2.533818E+03  1.755880E+04
       141   4 -9.147410E+05 -1.755496E+05 -5.047639E+02 -4.056284E+05 -8.904991E+03  2.478199E+04
       141   5 -9.216626E+05 -1.685629E+05 -8.872010E+02 -3.976403E+05 -6.569451E+03  1.989556E+04
       141   6 -9.147262E+05 -1.755380E+05 -1.605679E+03 -4.056271E+05 -4.240440E+03  1.502231E+04
       141   7 -5.739243E+05 -5.102823E+04  6.894230E+04 -3.113461E+05 -1.571895E+04  2.222865E+04
       141   8 -6.485976E+05 -6.875498E+04  5.490960E+04 -3.220997E+05 -1.336474E+04  1.735019E+04
       141   9 -7.094133E+05 -1.004467E+05  4.052565E+04 -3.488261E+05 -1.101711E+04  1.248492E+04
       141  10 -1.255436E+06 -3.000609E+05 -6.995817E+04 -4.998620E+05  1.213773E-10  3.891757E-11
       141  11 -1.194650E+06 -2.683646E+05 -5.668824E+04 -4.731498E+05 -1.622462E-11 -5.361578E-10
       141  12 -1.119996E+06 -2.506260E+05 -4.373956E+04 -4.624107E+05 -4.382728E-10 -6.207141E-10
       141  13 -9.147412E+05 -1.755503E+05 -5.060664E+02 -4.056282E+05 -2.608105E-11  2.234542E-10
       141  14 -9.216627E+05 -1.685634E+05 -8.880256E+02 -3.976402E+05  5.207350E-10  9.499792E-10
       141  15 -9.147263E+05 -1.755382E+05 -1.606137E+03 -4.056270E+05 -3.423369E-10 -8.665682E-10
       141  16 -5.739247E+05 -5.102883E+04  6.894091E+04 -3.113459E+05 -4.610922E-10  4.493967E-10
       141  17 -6.485978E+05 -6.875535E+04  5.490870E+04 -3.220996E+05 -2.020867E-10  3.741619E-10
       141  18 -7.094134E+05 -1.004469E+05  4.052513E+04 -3.488260E+05  8.430810E-10  7.214573E-10
       141  19 -1.255435E+06 -3.000601E+05 -6.995675E+04 -4.998621E+05  2.095108E+03 -2.733381E+04
       141  20 -1.194650E+06 -2.683641E+05 -5.668729E+04 -4.731498E+05 -2.225913E+02 -2.243971E+04
       141  21 -1.119996E+06 -2.506257E+05 -4.373897E+04 -4.624107E+05 -2.533818E+03 -1.755880E+04
       141  22 -9.147410E+05 -1.755496E+05 -5.047639E+02 -4.056284E+05  8.904991E+03 -2.478199E+04
       141  23 -9.216626E+05 -1.685629E+05 -8.872010E+02 -3.976403E+05  6.569451E+03 -1.989556E+04
       141  24 -9.147262E+05 -1.755380E+05 -1.605679E+03 -4.056271E+05  4.240440E+03 -1.502231E+04
       141  25 -5.739243E+05 -5.102823E+04  6.894230E+04 -3.113461E+05  1.571895E+04 -2.222865E+04
       141  26 -6.485976E+05 -6.875498E+04  5.490960E+04 -3.220997E+05  1.336474E+04 -1.735019E+04
       141  27 -7.094133E+05 -1.004467E+05  4.052565E+04 -3.488261E+05  1.101711E+04 -1.248492E+04
       142   1 -1.073088E+06 -2.335020E+05 -3.427993E+04 -4.496918E+05  4.011293E+03  1.474081E+04
       142   2 -1.012207E+06 -2.016167E+05 -2.222078E+04 -4.225435E+05  7.395081E+03  1.038622E+04
       142   3 -9.379311E+05 -1.845896E+05 -1.155282E+04 -4.112151E+05  1.066288E+04  6.340328E+03
       142   4 -9.148068E+05 -1.754860E+05 -2.132766E+03 -4.056923E+05 -2.833927E+03  1.217817E+04
       142   5 -9.215426E+05 -1.686063E+05 -3.881221E+03 -3.975599E+05  9.653943E+02  7.979448E+03
       142   6 -9.149702E+05 -1.766675E+05 -7.350488E+03 -4.052491E+05  4.648579E+03  4.089332E+03
       142   7 -7.565012E+05 -1.174682E+05  3.001300E+04 -3.616828E+05 -9.680974E+03  9.614837E+03
       142   8 -8.308696E+05 -1.355951E+05  1.445811E+04 -3.725728E+05 -5.465303E+03  5.572301E+03
       142   9 -8.920085E+05 -1.687452E+05 -3.147975E+03 -3.992829E+05 -1.366008E+03  1.838240E+03
       142  10 -1.073088E+06 -2.335022E+05 -3.428037E+04 -4.496918E+05 -8.342464E-10 -7.291730E-10
       142  11 -1.012207E+06 -2.016168E+05 -2.222109E+04 -4.225436E+05  4.349659E-10  3.665707E-10
       142  12 -9.379312E+05 -1.845897E+05 -1.155311E+04 -4.112152E+05  1.062035E-09 -7.975116E-11
       142  13 -9.148068E+05 -1.754861E+05 -2.133060E+03 -4.056923E+05 -1.990235E-10 -1.123889E-10
       142  14 -9.215426E+05 -1.686063E+05 -3.881342E+03 -3.975599E+05  9.450661E-11 -1.065159E-09
       142  15 -9.149702E+05 -1.766675E+05 -7.350560E+03 -4.052492E+05  2.400735E-10 -5.207485E-10
       142  16 -7.565013E+05 -1.174684E+05  3.001265E+04 -3.616827E+05  5.285297E-10  3.254831E-10
       142  17 -8.308696E+05 -1.355951E+05  1.445799E+04 -3.725728E+05 -1.732813E-10  4.165528E-11
       142  18 -8.920085E+05 -1.687453E+05 -3.147985E+03 -3.992829E+05 -4.350026E-10 -1.022102E-09
       142  19 -1.073088E+06 -2.335020E+05 -3.427993E+04 -4.496918E+05 -4.011293E+03 -1.474081E+04
       142  20 -1.012207E+06 -2.016167E+05 -2.222078E+04 -4.225435E+05 -7.395081E+03 -1.038622E+04
       142  21 -9.379311E+05 -1.845896E+05 -1.155282E+04 -4.112151E+05 -1.066288E+04 -6.340328E+03
       142  22 -9.148068E+05 -1.754860E+05 -2.132766E+03 -4.056923E+05  2.833927E+03 -1.217817E+04
       142  23 -9.215426E+05 -1.686063E+05 -3.881221E+03 -3.975599E+05 -9.653943E+02 -7.979448E+03
       142  24 -9.149702E+05 -1.766675E+05 -7.350488E+03 -4.052491E+05 -4.648579E+03 -4.089332E+03
       142  25 -7.565012E+05 -1.174682E+05  3.001300E+04 -3.616828E+05  9.680974E+03 -9.614837E+03
       142  26 -8.308696E+05 -1.355951E+05  1.445811E+04 -3.725728E+05  5.465303E+03 -5.572301E+03
       142  27 -8.920085E+05 -1.687452E+05 -3.147975E+03 -3.992829E+05  1.366008E+03 -1.838240E+03
       143   1 -8.894196E+05 -1.685846E+05 -3.799063E+03 -4.022455E+05  1.395625E+04  4.127473E+03
       143   2 -8.338375E+05 -1.330056E+05  3.774917E+03 -3.641785E+05  1.772925E+04  2.380279E+03
       143   3 -7.730002E+05 -1.327090E+05  3.390838E+03 -3.361552E+05  1.965148E+04  5.577087E+03
       143   4 -9.161887E+05 -1.753200E+05 -9.582909E+03 -4.062718E+05  6.894455E+03  1.484517E+03
       143   5 -9.203169E+05 -1.723814E+05 -1.783268E+04 -3.955015E+05  1.732424E+04  2.228384E+03
       143   6 -9.205169E+05 -2.060493E+05 -3.932064E+04 -3.947784E+05  2.590270E+04  7.916277E+03
       143   7 -9.429571E+05 -1.820553E+05 -1.536661E+04 -4.102979E+05 -1.670426E+02 -1.158418E+03
       143   8 -1.006787E+06 -2.117550E+05 -3.944051E+04 -4.268197E+05  1.691930E+04  2.076525E+03
       143   9 -1.068007E+06 -2.793807E+05 -8.203263E+04 -4.533855E+05  3.215209E+04  1.025433E+04
       143  10 -8.894198E+05 -1.685847E+05 -3.799462E+03 -4.022455E+05 -8.300302E-12 -1.380046E-09
       143  11 -8.338378E+05 -1.330057E+05  3.774314E+03 -3.641785E+05  2.839176E-11 -8.245341E-10
       143  12 -7.730006E+05 -1.327091E+05  3.390053E+03 -3.361553E+05 -6.182285E-10 -1.474082E-09
       143  13 -9.161888E+05 -1.753200E+05 -9.583003E+03 -4.062718E+05  8.522548E-10 -1.804477E-10
       143  14 -9.203172E+05 -1.723815E+05 -1.783326E+04 -3.955015E+05  3.539297E-10  1.303513E-10
       143  15 -9.205177E+05 -2.060495E+05 -3.932202E+04 -3.947785E+05  5.824087E-10 -7.357692E-11
       143  16 -9.429571E+05 -1.820553E+05 -1.536661E+04 -4.102979E+05  7.790938E-10 -4.422639E-10
       143  17 -1.006788E+06 -2.117550E+05 -3.944106E+04 -4.268198E+05  8.640521E-11 -5.665753E-11
       143  18 -1.068008E+06 -2.793811E+05 -8.203478E+04 -4.533858E+05  2.493219E-10 -5.183283E-10
       143  19 -8.894196E+05 -1.685846E+05 -3.799063E+03 -4.022455E+05 -1.395625E+04 -4.127473E+03
       143  20 -8.338375E+05 -1.330056E+05  3.774917E+03 -3.641785E+05 -1.772925E+04 -2.380279E+03
       143  21 -7.730002E+05 -1.327090E+05  3.390838E+03 -3.361552E+05 -1.965148E+04 -5.577087E+03
       143  22 -9.161887E+05 -1.753200E+05 -9.582909E+03 -4.062718E+05 -6.894455E+03 -1.484517E+03
       143  23 -9.203169E+05 -1.723814E+05 -1.783268E+04 -3.955015E+05 -1.732424E+04 -2.228384E+03
       143  24 -9.205169E+05 -2.060493E+05 -3.932064E+04 -3.947784E+05 -2.590270E+04 -7.916277E+03
       143  25 -9.429571E+05 -1.820553E+05 -1.536661E+04 -4.102979E+05  1.670426E+02  1.158418E+03
       143  26 -1.006787E+06 -2.117550E+05 -3.944051E+04 -4.268197E+05 -1.691930E+04 -2.076525E+03
       143  27 -1.068007E+06 -2.793807E+05 -8.203263E+04 -4.533855E+05 -3.215209E+04 -1.025433E+04
       144   1  6.566002E+04  1.417753E+04  1.913278E+04  3.220709E+03  1.504224E+04  9.159377E+01
       144   2  6.354121E+04 -6.085690E+03  6.856914E+03  1.034879E+03  9.916749E+03  2.609083E+02
       144   3  6.787118E+04 -3.224858E+03  3.699008E+03 -2.381535E+03  4.791170E+03  2.105752E+02
       144   4  7.782853E+04  1.721488E+04  2.215470E+04 -6.135681E+02  1.513636E+04  9.150585E+01
       144   5  7.459811E+04 -3.333183E+03  9.563922E+03  2.177271E+00  9.936955E+03  2.608924E+02
       144   6  7.782915E+04 -7.446248E+02  6.142293E+03 -6.126271E+02  4.737471E+03  2.105868E+02
       144   7  8.999721E+04  2.025228E+04  2.517662E+04 -4.447920E+03  1.523049E+04  9.141677E+01
       144   8  8.565513E+04 -5.806810E+02  1.227092E+04 -1.030543E+03  9.957162E+03  2.608765E+02
       144   9  8.778721E+04  1.735612E+03  8.585571E+03  1.156309E+03  4.683771E+03  2.105981E+02
       144  10  6.565977E+04  1.417747E+04  1.913236E+04  3.220707E+03 -5.364494E-11  1.781309E-11
       144  11  6.354111E+04 -6.085716E+03  6.856729E+03  1.034877E+03 -7.678001E-10  1.608190E-10
       144  12  6.787116E+04 -3.224864E+03  3.698965E+03 -2.381536E+03  5.920562E-10 -8.808251E-11
       144  13  7.782828E+04  1.721482E+04  2.215427E+04 -6.135692E+02  5.948880E-10  9.432059E-11
       144  14  7.459801E+04 -3.333209E+03  9.563736E+03  2.175183E+00 -4.997467E-10  1.234449E-10
       144  15  7.782912E+04 -7.446309E+02  6.142250E+03 -6.126279E+02 -2.972063E-10 -5.699339E-11
       144  16  8.999696E+04  2.025222E+04  2.517619E+04 -4.447921E+03  3.350065E-10  7.572239E-11
       144  17  8.565502E+04 -5.807077E+02  1.227073E+04 -1.030545E+03 -3.883074E-10  1.097180E-10
       144  18  8.778718E+04  1.735606E+03  8.585530E+03  1.156308E+03 -7.461313E-10  1.015999E-10
       144  19  6.566002E+04  1.417753E+04  1.913278E+04  3.220709E+03 -1.504224E+04 -9.159377E+01
       144  20  6.354121E+04 -6.085690E+03  6.856914E+03  1.034879E+03 -9.916749E+03 -2.609083E+02
       144  21  6.787118E+04 -3.224858E+03  3.699008E+03 -2.381535E+03 -4.791170E+03 -2.105752E+02
       144  22  7.782853E+04  1.721488E+04  2.215470E+04 -6.135681E+02 -1.513636E+04 -9.150585E+01
       144  23  7.459811E+04 -3.333183E+03  9.563922E+03  2.177271E+00 -9.936955E+03 -2.608924E+02
       144  24  7.782915E+04 -7.446248E+02  6.142293E+03 -6.126271E+02 -4.737471E+03 -2.105868E+02
       144  25  8.999721E+04  2.025228E+04  2.517662E+04 -4.447920E+03 -1.523049E+04 -9.141677E+01
       144  26  8.565513E+04 -5.806810E+02  1.227092E+04 -1.030543E+03 -9.957162E+03 -2.608765E+02
       144  27  8.778721E+04  1.735612E+03  8.585571E+03  1.156309E+03 -4.683771E+03 -2.105981E+02
       145   1  6.917054E+04  3.892747E+02  3.230025E+03 -1.463445E+02  3.750611E+03  1.545871E+02
       145   2  6.980796E+04 -2.013498E+03  9.333403E+02  1.151696E+02  2.469286E+03  1.384537E+02
       145   3  7.136682E+04 -1.398444E+03  2.252881E+02 -8.506848E+02  1.187961E+03  9.801762E+01
       145   4  7.659819E+04  2.239243E+03  5.052986E+03 -6.122552E+02  3.749315E+03  1.545841E+02
       145   5  7.613683E+04 -4.374700E+02  2.485153E+03  1.462007E+00  2.459810E+03  1.384530E+02
       145   6  7.659831E+04 -9.495450E+01  1.511619E+03 -6.121879E+02  1.170306E+03  9.801770E+01
       145   7  8.402589E+04  4.089207E+03  6.875943E+03 -1.078171E+03  3.748020E+03  1.545812E+02
       145   8  8.246573E+04  1.138555E+03  4.036962E+03 -1.122468E+02  2.450334E+03  1.384522E+02
       145   9  8.182982E+04  1.208533E+03  2.797947E+03 -3.736889E+02  1.152651E+03  9.801777E+01
       145  10  6.917053E+04  3.892709E+02  3.229998E+03 -1.463449E+02 -3.352763E-10 -9.926011E-11
       145  11  6.980795E+04 -2.013499E+03  9.333288E+02  1.151693E+02 -1.709731E-09  4.704686E-11
       145  12  7.136682E+04 -1.398444E+03  2.252855E+02 -8.506849E+02 -1.189602E-09 -2.018885E-10
       145  13  7.659818E+04  2.239239E+03  5.052959E+03 -6.122557E+02  5.820493E-10  2.065721E-11
       145  14  7.613682E+04 -4.374716E+02  2.485141E+03  1.461733E+00 -1.567647E-09  7.132414E-11
       145  15  7.659831E+04 -9.495487E+01  1.511616E+03 -6.121880E+02 -1.504827E-09 -1.343735E-10
       145  16  8.402588E+04  4.089203E+03  6.875916E+03 -1.078172E+03 -7.630336E-10  4.525679E-11
       145  17  8.246572E+04  1.138553E+03  4.036951E+03 -1.122470E+02 -6.786321E-10  5.376630E-11
       145  18  8.182982E+04  1.208533E+03  2.797944E+03 -3.736890E+02 -5.250302E-10 -1.633062E-11
       145  19  6.917054E+04  3.892747E+02  3.230025E+03 -1.463445E+02 -3.750611E+03 -1.545871E+02
       145  20  6.980796E+04 -2.013498E+03  9.333403E+02  1.151696E+02 -2.469286E+03 -1.384537E+02
       145  21  7.136682E+04 -1.398444E+03  2.252881E+02 -8.506848E+02 -1.187961E+03 -9.801762E+01
       145  22  7.659819E+04  2.239243E+03  5.052986E+03 -6.122552E+02 -3.749315E+03 -1.545841E+02
       145  23  7.613683E+04 -4.374700E+02  2.485153E+03  1.462007E+00 -2.459810E+03 -1.384530E+02
       145  24  7.659831E+04 -9.495450E+01  1.511619E+03 -6.121879E+02 -1.170306E+03 -9.801770E+01
       145  25  8.402589E+04  4.089207E+03  6.875943E+03 -1.078171E+03 -3.748020E+03 -1.545812E+02
       145  26  8.246573E+04  1.138555E+03  4.036962E+03 -1.122468E+02 -2.450334E+03 -1.384522E+02
       145  27  8.182982E+04  1.208533E+03  2.797947E+03 -3.736889E+02 -1.152651E+03 -9.801777E+01
       146   1  7.371504E+04 -3.853961E+02  5.359317E+02 -5.598105E+02  9.400558E+02  7.153901E+01
       146   2  7.474076E+04 -4.592683E+02  2.389930E+02  1.039885E+01  6.194114E+02  3.492342E+01
       146   3  7.590623E+04 -1.413126E+02  2.487494E+02 -6.445094E+02  2.987712E+02 -4.371122E+00
       146   4  7.642431E+04  2.887341E+02  1.197547E+03 -6.117121E+02  9.282059E+02  7.153872E+01
       146   5  7.635437E+04 -5.742950E+01  6.347221E+02  8.493210E-01  6.066600E+02  3.492321E+01
       146   6  7.642433E+04 -1.160532E+01  3.792214E+02 -6.117073E+02  2.851189E+02 -4.371288E+00
       146   7  7.913359E+04  9.628638E+02  1.859161E+03 -6.636139E+02  9.163559E+02  7.153843E+01
       146   8  7.796797E+04  3.444092E+02  1.030451E+03 -8.700235E+00  5.939086E+02  3.492300E+01
       146   9  7.694243E+04  1.181019E+02  5.096934E+02 -5.789051E+02  2.714666E+02 -4.371455E+00
       146  10  7.371504E+04 -3.853963E+02  5.359301E+02 -5.598106E+02 -1.176423E-09 -1.738716E-10
       146  11  7.474076E+04 -4.592685E+02  2.389923E+02  1.039883E+01 -4.866295E-10  1.453454E-10
       146  12  7.590623E+04 -1.413126E+02  2.487492E+02 -6.445094E+02  4.266064E-10  5.162076E-11
       146  13  7.642431E+04  2.887339E+02  1.197545E+03 -6.117122E+02 -5.523993E-10 -1.281890E-10
       146  14  7.635437E+04 -5.742960E+01  6.347214E+02  8.493040E-01 -1.073728E-09  6.981575E-11
       146  15  7.642433E+04 -1.160534E+01  3.792212E+02 -6.117073E+02 -3.212681E-10  6.394637E-11
       146  16  7.913359E+04  9.628636E+02  1.859160E+03 -6.636140E+02 -4.840897E-10 -7.517396E-11
       146  17  7.796797E+04  3.444091E+02  1.030450E+03 -8.700252E+00 -4.137910E-10 -9.117221E-11
       146  18  7.694243E+04  1.181019E+02  5.096932E+02 -5.789051E+02 -2.565253E-10  1.363970E-10
       146  19  7.371504E+04 -3.853961E+02  5.359317E+02 -5.598105E+02 -9.400558E+02 -7.153901E+01
       146  20  7.474076E+04 -4.592683E+02  2.389930E+02  1.039885E+01 -6.194114E+02 -3.492342E+01
       146  21  7.590623E+04 -1.413126E+02  2.487494E+02 -6.445094E+02 -2.987712E+02  4.371122E+00
       146  22  7.642431E+04  2.887341E+02  1.197547E+03 -6.117121E+02 -9.282059E+02 -7.153872E+01
       146  23  7.635437E+04 -5.742950E+01  6.347221E+02  8.493210E-01 -6.066600E+02 -3.492321E+01
       146  24  7.642433E+04 -1.160532E+01  3.792214E+02 -6.117073E+02 -2.851189E+02  4.371288E+00
       146  25  7.913359E+04  9.628638E+02  1.859161E+03 -6.636139E+02 -9.163559E+02 -7.153843E+01
       146  26  7.796797E+04  3.444092E+02  1.030451E+03 -8.700235E+00 -5.939086E+02 -3.492300E+01
       146  27  7.694243E+04  1.181019E+02  5.096934E+02 -5.789051E+02 -2.714666E+02  4.371455E+00
       147   1  7.840072E+04  5.358014E+02  7.917451E+02 -6.070399E+02  2.372637E+02 -2.757141E+01
       147   2  7.948449E+04  7.636618E+02  9.327602E+02  1.056119E+00  1.509077E+02 -6.645926E+01
       147   3  8.059272E+04  1.044001E+03  1.143131E+03 -6.164546E+02  6.455063E+01 -1.056275E+02
       147   4  7.639867E+04  3.653913E+01  2.973085E+02 -6.118178E+02  2.242431E+02 -2.757160E+01
       147   5  7.638645E+04 -7.874860E+00  1.728544E+02  9.859189E-01  1.377930E+02 -6.645951E+01
       147   6  7.639868E+04  2.026762E-01  1.178173E+02 -6.118173E+02  5.134201E+01 -1.056278E+02
       147   7  7.439663E+04 -4.627234E+02 -1.971283E+02 -6.165958E+02  2.112225E+02 -2.757178E+01
       147   8  7.328841E+04 -7.794123E+02 -5.870522E+02  9.157190E-01  1.246784E+02 -6.645975E+01
       147   9  7.220465E+04 -1.043597E+03 -9.074978E+02 -6.071801E+02  3.813347E+01 -1.056281E+02
       147  10  7.840072E+04  5.358014E+02  7.917450E+02 -6.070399E+02 -2.167072E-10 -1.748876E-11
       147  11  7.948449E+04  7.636618E+02  9.327601E+02  1.056127E+00 -3.487101E-11  3.652172E-11
       147  12  8.059272E+04  1.044001E+03  1.143131E+03 -6.164546E+02 -1.296743E-10 -3.300755E-12
       147  13  7.639867E+04  3.653912E+01  2.973084E+02 -6.118178E+02  1.081945E-09  1.856630E-11
       147  14  7.638645E+04 -7.874870E+00  1.728543E+02  9.859263E-01 -2.782505E-10 -5.322314E-11
       147  15  7.639868E+04  2.026635E-01  1.178172E+02 -6.118173E+02 -3.278125E-11  1.130195E-10
       147  16  7.439663E+04 -4.627234E+02 -1.971284E+02 -6.165958E+02 -4.127647E-11  6.281551E-11
       147  17  7.328841E+04 -7.794123E+02 -5.870522E+02  9.157256E-01 -1.073829E-09 -1.776324E-10
       147  18  7.220465E+04 -1.043597E+03 -9.074978E+02 -6.071801E+02 -1.047228E-10  1.653747E-10
       147  19  7.840072E+04  5.358014E+02  7.917451E+02 -6.070399E+02 -2.372637E+02  2.757141E+01
       147  20  7.948449E+04  7.636618E+02  9.327602E+02  1.056119E+00 -1.509077E+02  6.645926E+01
       147  21  8.059272E+04  1.044001E+03  1.143131E+03 -6.164546E+02 -6.455063E+01  1.056275E+02
       147  22  7.639867E+04  3.653913E+01  2.973085E+02 -6.118178E+02 -2.242431E+02  2.757160E+01
       147  23  7.638645E+04 -7.874860E+00  1.728544E+02  9.859189E-01 -1.377930E+02  6.645951E+01
       147  24  7.639868E+04  2.026762E-01  1.178173E+02 -6.118173E+02 -5.134201E+01  1.056278E+02
       147  25  7.439663E+04 -4.627234E+02 -1.971283E+02 -6.165958E+02 -2.112225E+02  2.757178E+01
       147  26  7.328841E+04 -7.794123E+02 -5.870522E+02  9.157189E-01 -1.246784E+02  6.645975E+01
       147  27  7.220465E+04 -1.043597E+03 -9.074978E+02 -6.071801E+02 -3.813347E+01  1.056281E+02
       148   1  8.311429E+04  1.677751E+03  1.755309E+03 -6.107865E+02  4.456820E+01 -1.285752E+02
       148   2  8.420706E+04  1.943112E+03  2.014197E+03  1.833317E+00 -3.857472E+00 -1.678211E+02
       148   3  8.531248E+04  2.232840E+03  2.310751E+03 -6.146865E+02 -5.228236E+01 -2.066548E+02
       148   4  7.639604E+04  3.962735E+00  1.040214E+02 -6.126027E+02  3.131111E+01 -1.285756E+02
       148   5  7.638973E+04 -3.704839E+00  9.674916E+01  1.967436E+00 -1.697553E+01 -1.678217E+02
       148   6  7.639604E+04  1.297198E+01  1.270471E+02 -6.126030E+02 -6.526130E+01 -2.066555E+02
       148   7  6.967783E+04 -1.669829E+03 -1.547269E+03 -6.144188E+02  1.805417E+01 -1.285759E+02
       148   8  6.857245E+04 -1.950526E+03 -1.820703E+03  2.101553E+00 -3.009342E+01 -1.678222E+02
       148   9  6.747967E+04 -2.206902E+03 -2.056663E+03 -6.105196E+02 -7.824006E+01 -2.066561E+02
       148  10  8.311429E+04  1.677751E+03  1.755309E+03 -6.107865E+02  9.186134E-10 -7.488092E-11
       148  11  8.420706E+04  1.943112E+03  2.014197E+03  1.833316E+00 -7.096542E-10 -3.946314E-11
       148  12  8.531248E+04  2.232840E+03  2.310751E+03 -6.146865E+02 -8.745184E-10  2.472888E-10
       148  13  7.639604E+04  3.962717E+00  1.040214E+02 -6.126027E+02  6.678216E-11  7.702672E-11
       148  14  7.638973E+04 -3.704870E+00  9.674911E+01  1.967434E+00  6.341479E-11 -5.973337E-11
       148  15  7.639604E+04  1.297193E+01  1.270470E+02 -6.126030E+02 -8.653577E-10  2.852710E-10
       148  16  6.967783E+04 -1.669829E+03 -1.547269E+03 -6.144188E+02 -3.753033E-10  1.392633E-10
       148  17  6.857245E+04 -1.950526E+03 -1.820703E+03  2.101549E+00  3.134206E-10 -1.959836E-10
       148  18  6.747967E+04 -2.206902E+03 -2.056663E+03 -6.105196E+02  5.405607E-10  2.770754E-10
       148  19  8.311429E+04  1.677751E+03  1.755309E+03 -6.107865E+02 -4.456820E+01  1.285752E+02
       148  20  8.420706E+04  1.943112E+03  2.014197E+03  1.833317E+00  3.857472E+00  1.678211E+02
       148  21  8.531248E+04  2.232840E+03  2.310751E+03 -6.146865E+02  5.228236E+01  2.066548E+02
       148  22  7.639604E+04  3.962735E+00  1.040214E+02 -6.126027E+02 -3.131111E+01  1.285756E+02
       148  23  7.638973E+04 -3.704839E+00  9.674916E+01  1.967436E+00  1.697553E+01  1.678217E+02
       148  24  7.639604E+04  1.297198E+01  1.270471E+02 -6.126030E+02  6.526130E+01  2.066555E+02
       148  25  6.967783E+04 -1.669829E+03 -1.547269E+03 -6.144188E+02 -1.805417E+01  1.285759E+02
       148  26  6.857245E+04 -1.950526E+03 -1.820703E+03  2.101553E+00  3.009342E+01  1.678222E+02
       148  27  6.747967E+04 -2.206902E+03 -2.056663E+03 -6.105196E+02  7.824006E+01  2.066561E+02
       149   1  8.785576E+04  2.848644E+03  2.963955E+03 -6.020260E+02 -7.624196E+01 -2.303185E+02
       149   2  8.893465E+04  3.106004E+03  3.316871E+03  7.520883E-01 -1.979613E+02 -2.699887E+02
       149   3  9.006545E+04  3.505440E+03  3.784654E+03 -6.322209E+02 -3.196779E+02 -3.048779E+02
       149   4  7.640469E+04 -3.784371E+00  1.518328E+02 -6.140701E+02 -9.037304E+01 -2.303194E+02
       149   5  7.637887E+04 -2.083985E+01  2.372732E+02  3.803011E+00 -2.104836E+02 -2.699897E+02
       149   6  7.640469E+04  1.039072E+02  4.364696E+02 -6.140768E+02 -3.305912E+02 -3.048790E+02
       149   7  6.495375E+04 -2.856222E+03 -2.660299E+03 -6.261139E+02 -1.045039E+02 -2.303202E+02
       149   8  6.382323E+04 -3.147695E+03 -2.842336E+03  6.853870E+00 -2.230056E+02 -2.699907E+02
       149   9  6.274409E+04 -3.297639E+03 -2.911728E+03 -5.959330E+02 -3.415042E+02 -3.048802E+02
       149  10  8.785576E+04  2.848644E+03  2.963955E+03 -6.020260E+02 -2.604392E-10  1.712180E-10
       149  11  8.893465E+04  3.106004E+03  3.316870E+03  7.520452E-01 -7.498461E-10 -3.313071E-10
       149  12  9.006545E+04  3.505439E+03  3.784653E+03 -6.322210E+02 -6.490185E-10  3.071266E-10
       149  13  7.640469E+04 -3.784430E+00  1.518327E+02 -6.140701E+02  5.594752E-10  2.290219E-10
       149  14  7.637887E+04 -2.083994E+01  2.372730E+02  3.802965E+00 -2.811915E-10 -2.429447E-10
       149  15  7.640469E+04  1.039071E+02  4.364692E+02 -6.140768E+02  1.471487E-09  1.627647E-10
       149  16  6.495375E+04 -2.856222E+03 -2.660299E+03 -6.261139E+02  7.860148E-10  2.455773E-10
       149  17  6.382323E+04 -3.147695E+03 -2.842336E+03  6.853822E+00 -2.949172E-10 -2.293956E-10
       149  18  6.274409E+04 -3.297639E+03 -2.911729E+03 -5.959331E+02  4.224921E-10  1.008940E-10
       149  19  8.785576E+04  2.848644E+03  2.963955E+03 -6.020260E+02  7.624196E+01  2.303185E+02
       149  20  8.893465E+04  3.106004E+03  3.316871E+03  7.520882E-01  1.979613E+02  2.699887E+02
       149  21  9.006545E+04  3.505440E+03  3.784654E+03 -6.322209E+02  3.196779E+02  3.048779E+02
       149  22  7.640469E+04 -3.784371E+00  1.518328E+02 -6.140701E+02  9.037304E+01  2.303194E+02
       149  23  7.637887E+04 -2.083985E+01  2.372732E+02  3.803011E+00  2.104836E+02  2.699897E+02
       149  24  7.640469E+04  1.039072E+02  4.364696E+02 -6.140768E+02  3.305912E+02  3.048790E+02
       149  25  6.495375E+04 -2.856222E+03 -2.660299E+03 -6.261139E+02  1.045039E+02  2.303202E+02
       149  26  6.382323E+04 -3.147695E+03 -2.842336E+03  6.853870E+00  2.230056E+02  2.699907E+02
       149  27  6.274409E+04 -3.297639E+03 -2.911728E+03 -5.959330E+02  3.415042E+02  3.048802E+02
       150   1  9.267907E+04  4.003657E+03  4.527831E+03 -5.291972E+02 -3.971086E+02 -3.346569E+02
       150   2  9.362503E+04  4.156520E+03  5.145937E+03 -3.375900E+01 -8.777200E+02 -3.765724E+02
       150   3  9.490721E+04  5.399865E+03  6.349738E+03 -7.825412E+02 -1.358342E+03 -3.741186E+02
       150   4  7.646733E+04 -3.427092E+01  5.484759E+02 -6.159277E+02 -4.186289E+02 -3.346590E+02
       150   5  7.630050E+04 -1.577208E+02  8.975771E+02  6.140518E+00 -8.843192E+02 -3.765737E+02
       150   6  7.646729E+04  8.067336E+02  1.822019E+03 -6.160117E+02 -1.350019E+03 -3.741188E+02
       150   7  6.025583E+04 -4.072218E+03 -3.430898E+03 -7.026559E+02 -4.401488E+02 -3.346610E+02
       150   8  5.897624E+04 -4.471984E+03 -3.350805E+03  4.603892E+01 -8.909183E+02 -3.765750E+02
       150   9  5.802768E+04 -3.786423E+03 -2.705724E+03 -4.494872E+02 -1.341696E+03 -3.741190E+02
       150  10  9.267907E+04  4.003657E+03  4.527830E+03 -5.291973E+02  5.504877E-10  2.724402E-10
       150  11  9.362503E+04  4.156520E+03  5.145935E+03 -3.375927E+01  3.441898E-10 -3.932036E-10
       150  12  9.490721E+04  5.399865E+03  6.349734E+03 -7.825416E+02 -4.980672E-10 -9.192132E-11
       150  13  7.646733E+04 -3.427109E+01  5.484754E+02 -6.159278E+02  1.118566E-09  1.682921E-10
       150  14  7.630050E+04 -1.577212E+02  8.975754E+02  6.140249E+00 -2.452928E-10 -3.280046E-10
       150  15  7.646729E+04  8.067330E+02  1.822016E+03 -6.160121E+02 -3.830708E-10 -1.185604E-10
       150  16  6.025583E+04 -4.072219E+03 -3.430899E+03 -7.026560E+02 -2.763800E-10  1.121084E-10
       150  17  5.897624E+04 -4.471985E+03 -3.350806E+03  4.603865E+01 -7.022745E-10 -1.678343E-11
       150  18  5.802767E+04 -3.786424E+03 -2.705727E+03 -4.494876E+02  6.877829E-10 -6.261921E-11
       150  19  9.267907E+04  4.003657E+03  4.527831E+03 -5.291972E+02  3.971086E+02  3.346569E+02
       150  20  9.362503E+04  4.156520E+03  5.145937E+03 -3.375900E+01  8.777200E+02  3.765724E+02
       150  21  9.490721E+04  5.399865E+03  6.349738E+03 -7.825412E+02  1.358342E+03  3.741186E+02
       150  22  7.646733E+04 -3.427092E+01  5.484759E+02 -6.159277E+02  4.186289E+02  3.346590E+02
       150  23  7.630050E+04 -1.577208E+02  8.975771E+02  6.140518E+00  8.843192E+02  3.765737E+02
       150  24  7.646729E+04  8.067336E+02  1.822019E+03 -6.160117E+02  1.350019E+03  3.741188E+02
       150  25  6.025583E+04 -4.072218E+03 -3.430898E+03 -7.026559E+02  4.401488E+02  3.346610E+02
       150  26  5.897624E+04 -4.471984E+03 -3.350805E+03  4.603892E+01  8.909183E+02  3.765750E+02
       150  27  5.802768E+04 -3.786423E+03 -2.705724E+03 -4.494872E+02  1.341696E+03  3.741190E+02
       151   1  9.792412E+04  4.964460E+03  7.366946E+03  2.179913E+01 -1.618792E+03 -4.579010E+02
       151   2  9.787663E+04  4.308163E+03  8.865587E+03 -3.620215E+02 -3.627644E+03 -5.177688E+02
       151   3  1.001824E+05  1.201240E+04  1.376240E+04 -1.997511E+03 -5.636558E+03 -1.759109E+02
       151   4  7.691092E+04 -2.684819E+02  2.214256E+03 -6.173069E+02 -1.706290E+03 -4.579102E+02
       151   5  7.574587E+04 -1.201236E+03  3.446624E+03  8.044451E+00 -3.580089E+03 -5.177658E+02
       151   6  7.691068E+04  6.203258E+03  7.983471E+03 -6.182723E+02 -5.453946E+03 -1.758959E+02
       151   7  5.589813E+04 -5.501455E+03 -2.938466E+03 -1.256391E+03 -1.793784E+03 -4.579193E+02
       151   8  5.361556E+04 -6.710671E+03 -1.972375E+03  3.780971E+02 -3.532535E+03 -5.177628E+02
       151   9  5.363949E+04  3.940795E+02  2.204503E+03  7.609146E+02 -5.271340E+03 -1.758800E+02
       151  10  9.792412E+04  4.964459E+03  7.366940E+03  2.179853E+01  7.101638E-11 -2.805563E-11
       151  11  9.787662E+04  4.308159E+03  8.865562E+03 -3.620230E+02  4.879865E-10 -4.329282E-10
       151  12  1.001823E+05  1.201239E+04  1.376234E+04 -1.997512E+03  2.014159E-10 -1.440381E-10
       151  13  7.691092E+04 -2.684829E+02  2.214250E+03 -6.173075E+02 -1.094681E-09 -4.638355E-10
       151  14  7.574586E+04 -1.201240E+03  3.446599E+03  8.042958E+00  6.564147E-10  2.211154E-10
       151  15  7.691065E+04  6.203250E+03  7.983415E+03 -6.182731E+02 -4.505693E-10 -5.621653E-11
       151  16  5.589813E+04 -5.501456E+03 -2.938473E+03 -1.256392E+03  4.602063E-10 -8.561420E-11
       151  17  5.361554E+04 -6.710674E+03 -1.972399E+03  3.780957E+02 -1.724772E-09  1.264813E-10
       151  18  5.363946E+04  3.940720E+02  2.204451E+03  7.609138E+02 -7.581591E-11 -1.995138E-10
       151  19  9.792412E+04  4.964460E+03  7.366946E+03  2.179913E+01  1.618792E+03  4.579010E+02
       151  20  9.787663E+04  4.308163E+03  8.865587E+03 -3.620215E+02  3.627644E+03  5.177688E+02
       151  21  1.001824E+05  1.201240E+04  1.376240E+04 -1.997511E+03  5.636558E+03  1.759109E+02
       151  22  7.691092E+04 -2.684819E+02  2.214256E+03 -6.173069E+02  1.706290E+03  4.579102E+02
       151  23  7.574587E+04 -1.201236E+03  3.446624E+03  8.044451E+00  3.580089E+03  5.177658E+02
       151  24  7.691068E+04  6.203258E+03  7.983471E+03 -6.182723E+02  5.453946E+03  1.758959E+02
       151  25  5.589813E+04 -5.501455E+03 -2.938466E+03 -1.256391E+03  1.793784E+03  4.579193E+02
       151  26  5.361556E+04 -6.710671E+03 -1.972375E+03  3.780971E+02  3.532535E+03  5.177628E+02
       151  27  5.363949E+04  3.940795E+02  2.204503E+03  7.609146E+02  5.271340E+03  1.758800E+02
       152   1  7.434618E+05  2.993579E+06  7.459657E+05 -3.226873E+05  2.106552E+04  3.127379E+04
       152   2  5.791675E+05  2.416387E+06  5.868192E+05 -6.978260E+03  5.643477E+04  5.048722E+03
       152   3  4.501921E+05  1.860871E+06  4.553609E+05 -3.214687E+05  3.428759E+04 -2.133780E+04
       152   4  1.603442E+04  7.485104E+04  2.224722E+04 -3.158336E+05  2.110117E+04  9.637462E+03
       152   5 -5.154956E+03  6.583353E+04  1.240223E+04 -6.571600E+02  5.645557E+04  2.845286E+03
       152   6  5.675920E+03  7.485430E+04  1.684731E+04 -3.158288E+05  3.419797E+04 -4.132367E+03
       152   7 -7.120302E+05 -2.836166E+06 -7.021049E+05 -3.090076E+05  2.113646E+04 -1.189768E+04
       152   8 -5.898854E+05 -2.279697E+06 -5.624179E+05  5.644045E+03  5.647638E+04  6.501340E+02
       152   9 -4.390767E+05 -1.708263E+06 -4.218997E+05 -3.102004E+05  3.410853E+04  1.302378E+04
       152  10  7.434610E+05  2.993578E+06  7.459630E+05 -3.226879E+05  1.439198E-09 -1.638841E-09
       152  11  5.791641E+05  2.416386E+06  5.868131E+05 -6.978489E+03 -2.629158E-11 -5.391463E-09
       152  12  4.501907E+05  1.860870E+06  4.553579E+05 -3.214681E+05  1.306309E-10  9.118953E-09
       152  13  1.603392E+04  7.485082E+04  2.224620E+04 -3.158338E+05  4.749212E-10 -1.446118E-11
       152  14 -5.158380E+03  6.583267E+04  1.239623E+04 -6.572893E+02  4.893307E-10 -1.770306E-09
       152  15  5.674660E+03  7.485397E+04  1.684508E+04 -3.158287E+05  1.261782E-09 -7.043824E-10
       152  16 -7.120307E+05 -2.836166E+06 -7.021060E+05 -3.090074E+05  6.316444E-10  1.609188E-09
       152  17 -5.898888E+05 -2.279698E+06 -5.624239E+05  5.644015E+03  2.965578E-09  9.214854E-09
       152  18 -4.390780E+05 -1.708264E+06 -4.219022E+05 -3.102007E+05  1.819533E-09 -6.767217E-09
       152  19  7.434618E+05  2.993579E+06  7.459657E+05 -3.226873E+05 -2.106552E+04 -3.127379E+04
       152  20  5.791675E+05  2.416387E+06  5.868192E+05 -6.978260E+03 -5.643477E+04 -5.048722E+03
       152  21  4.501921E+05  1.860871E+06  4.553609E+05 -3.214687E+05 -3.428759E+04  2.133780E+04
       152  22  1.603442E+04  7.485104E+04  2.224722E+04 -3.158336E+05 -2.110117E+04 -9.637462E+03
       152  23 -5.154956E+03  6.583353E+04  1.240223E+04 -6.571600E+02 -5.645557E+04 -2.845286E+03
       152  24  5.675920E+03  7.485430E+04  1.684731E+04 -3.158288E+05 -3.419797E+04  4.132367E+03
       152  25 -7.120302E+05 -2.836166E+06 -7.021049E+05 -3.090076E+05 -2.113646E+04  1.189768E+04
       152  26 -5.898854E+05 -2.279697E+06 -5.624179E+05  5.644045E+03 -5.647638E+04 -6.501340E+02
       152  27 -4.390767E+05 -1.708263E+06 -4.218997E+05 -3.102004E+05 -3.410853E+04 -1.302378E+04
       153   1  1.251484E+05  5.590795E+05  1.368902E+05 -3.203005E+05  1.271514E+04 -1.234826E+04
       153   2 -2.318257E+04 -5.765453E+03  6.090067E+03  5.935035E+02 -1.537782E+03 -2.524222E+04
       153   3 -1.368328E+05 -5.688467E+05 -1.095448E+05 -3.087951E+05 -1.549782E+04 -3.811950E+04
       153   4  3.951468E+03  7.209878E+04  1.794678E+04 -3.158479E+05  1.268570E+04 -7.482232E+03
       153   5 -3.959967E+03  7.135906E+04  2.500450E+04 -6.567403E+02 -1.565596E+03 -2.047811E+04
       153   6  2.284472E+04  7.209886E+04  4.731171E+04 -3.157386E+05 -1.552459E+04 -3.346884E+04
       153   7 -1.172629E+05 -4.146658E+05 -1.010138E+05 -3.113985E+05  1.265632E+04 -2.620008E+03
       153   8  1.526221E+04  1.484890E+05  4.391858E+04 -1.907132E+03 -1.593429E+03 -1.571340E+04
       153   9  1.824919E+05  7.134190E+05  2.041383E+05 -3.226886E+05 -1.555145E+04 -2.881337E+04
       153  10  1.251482E+05  5.590793E+05  1.368896E+05 -3.203004E+05 -1.970484E-09 -1.716927E-09
       153  11 -2.318274E+04 -5.766138E+03  6.088865E+03  5.934722E+02  1.975005E-09 -1.258413E-08
       153  12 -1.368334E+05 -5.688483E+05 -1.095480E+05 -3.087956E+05 -1.369270E-09  9.492038E-09
       153  13  3.951280E+03  7.209868E+04  1.794638E+04 -3.158478E+05 -3.978694E-10 -2.095297E-11
       153  14 -3.960082E+03  7.135861E+04  2.500371E+04 -6.567662E+02  3.717445E-09 -3.169554E-09
       153  15  2.284416E+04  7.209759E+04  4.730915E+04 -3.157390E+05  6.077901E-09 -7.588262E-10
       153  16 -1.172631E+05 -4.146659E+05 -1.010141E+05 -3.113984E+05  7.999070E-10  1.683139E-09
       153  17  1.526214E+04  1.484888E+05  4.391812E+04 -1.907152E+03 -5.011708E-09  1.882626E-08
       153  18  1.824914E+05  7.134181E+05  2.041363E+05 -3.226889E+05  3.580272E-10 -6.534078E-09
       153  19  1.251484E+05  5.590795E+05  1.368902E+05 -3.203005E+05 -1.271514E+04  1.234826E+04
       153  20 -2.318257E+04 -5.765453E+03  6.090067E+03  5.935035E+02  1.537782E+03  2.524222E+04
       153  21 -1.368328E+05 -5.688467E+05 -1.095448E+05 -3.087951E+05  1.549782E+04  3.811950E+04
       153  22  3.951468E+03  7.209878E+04  1.794678E+04 -3.158479E+05 -1.268570E+04  7.482232E+03
       153  23 -3.959967E+03  7.135906E+04  2.500450E+04 -6.567404E+02  1.565596E+03  2.047811E+04
       153  24  2.284472E+04  7.209886E+04  4.731171E+04 -3.157386E+05  1.552459E+04  3.346884E+04
       153  25 -1.172629E+05 -4.146658E+05 -1.010138E+05 -3.113985E+05 -1.265632E+04  2.620008E+03
       153  26  1.526221E+04  1.484890E+05  4.391858E+04 -1.907132E+03  1.593429E+03  1.571340E+04
       153  27  1.824919E+05  7.134190E+05  2.041383E+05 -3.226886E+05  1.555145E+04  2.881337E+04
       154   1 -4.858570E+05 -1.850265E+06 -4.184542E+05 -3.240696E+05 -3.727395E+04 -6.059382E+04
       154   2 -6.555177E+05 -2.448936E+06 -5.260298E+05  1.387325E+04 -5.979796E+04 -8.777998E+04
       154   3 -6.096014E+05 -2.978164E+06 -5.596498E+05 -2.788722E+05 -2.220714E+04 -1.147724E+05
       154   4 -2.868567E+03  8.681644E+04  5.806753E+04 -3.159581E+05 -3.736207E+04 -4.303663E+04
       154   5 -3.225787E+04  5.060059E+04  8.662386E+04 -6.235029E+02 -5.977324E+04 -9.052741E+04
       154   6  1.570335E+05  8.681382E+04  2.030183E+05 -3.158009E+05 -2.217403E+04 -1.378505E+05
       154   7  4.798413E+05  2.027320E+06  5.343140E+05 -3.078157E+05 -3.744959E+04 -2.542445E+04
       154   8  5.905390E+05  2.555842E+06  6.988197E+05 -1.517486E+04 -5.974846E+04 -9.328531E+04
       154   9  9.229667E+05  3.160345E+06  9.649846E+05 -3.529089E+05 -2.213830E+04 -1.610415E+05
       154  10 -4.858594E+05 -1.850269E+06 -4.184637E+05 -3.240714E+05 -4.659295E-10  5.177829E-10
       154  11 -6.555236E+05 -2.448945E+06 -5.260511E+05  1.386902E+04 -1.133102E-09 -7.261594E-09
       154  12 -6.096055E+05 -2.978178E+06 -5.596756E+05 -2.788743E+05 -6.074305E-10 -9.704519E-10
       154  13 -2.870565E+03  8.681408E+04  5.806143E+04 -3.159594E+05 -2.861702E-09 -6.951827E-11
       154  14 -3.226391E+04  5.059083E+04  8.660175E+04 -6.278603E+02 -1.263284E-09 -1.552004E-09
       154  15  1.570279E+05  8.679328E+04  2.029816E+05 -3.158034E+05 -1.438714E-09 -1.754995E-11
       154  16  4.798396E+05  2.027319E+06  5.343101E+05 -3.078165E+05  2.747308E-09 -5.724622E-10
       154  17  5.905328E+05  2.555832E+06  6.987967E+05 -1.517934E+04 -3.388068E-09  1.012246E-08
       154  18  9.229592E+05  3.160317E+06  9.649352E+05 -3.529118E+05 -2.456375E-09  1.187001E-09
       154  19 -4.858570E+05 -1.850265E+06 -4.184542E+05 -3.240696E+05  3.727395E+04  6.059382E+04
       154  20 -6.555177E+05 -2.448936E+06 -5.260298E+05  1.387325E+04  5.979796E+04  8.777998E+04
       154  21 -6.096014E+05 -2.978164E+06 -5.596498E+05 -2.788722E+05  2.220714E+04  1.147724E+05
       154  22 -2.868567E+03  8.681644E+04  5.806753E+04 -3.159581E+05  3.736207E+04  4.303663E+04
       154  23 -3.225787E+04  5.060059E+04  8.662386E+04 -6.235029E+02  5.977324E+04  9.052741E+04
       154  24  1.570335E+05  8.681382E+04  2.030183E+05 -3.158009E+05  2.217403E+04  1.378505E+05
       154  25  4.798413E+05  2.027320E+06  5.343140E+05 -3.078157E+05  3.744959E+04  2.542445E+04
       154  26  5.905390E+05  2.555842E+06  6.988197E+05 -1.517486E+04  5.974846E+04  9.328531E+04
       154  27  9.229667E+05  3.160345E+06  9.649846E+05 -3.529089E+05  2.213830E+04  1.610415E+05
       155   1 -1.084031E+05 -4.730404E+04 -2.253106E+04 -5.004311E+04 -1.181228E+04 -4.007970E+03
       155   2 -1.025140E+05 -3.249169E+04 -1.188201E+04 -4.706872E+04 -7.008917E+03 -1.335841E+03
       155   3 -9.875185E+04 -2.508626E+04 -6.768648E+03 -4.368903E+04 -1.910122E+03  5.489047E+02
       155   4 -8.259595E+04 -2.978618E+04 -1.438677E+04 -3.489552E+04 -9.524640E+03 -3.150173E+03
       155   5 -8.092024E+04 -2.078955E+04 -6.819889E+03 -3.714111E+04 -6.278181E+03 -1.061838E+03
       155   6 -8.106299E+04 -1.889140E+04 -3.555210E+03 -3.898151E+04 -2.736299E+03  2.390529E+02
       155   7 -5.678848E+04 -1.226804E+04 -6.242680E+03 -1.974754E+04 -7.236949E+03 -2.292282E+03
       155   8 -5.932606E+04 -9.087250E+03 -1.757829E+03 -2.721318E+04 -5.547424E+03 -7.878158E+02
       155   9 -6.337366E+04 -1.269647E+04 -3.417434E+02 -3.427384E+04 -3.562506E+03 -7.080989E+01
       155  10 -1.084033E+05 -4.730409E+04 -2.253135E+04 -5.004314E+04 -1.779570E-09 -3.244436E-10
       155  11 -1.025141E+05 -3.249170E+04 -1.188211E+04 -4.706873E+04 -2.445524E-09  4.587560E-12
       155  12 -9.875186E+04 -2.508626E+04 -6.768655E+03 -4.368902E+04 -1.157551E-09 -3.574268E-10
       155  13 -8.259605E+04 -2.978622E+04 -1.438695E+04 -3.489555E+04  4.648828E-10  3.220322E-10
       155  14 -8.092028E+04 -2.078956E+04 -6.819965E+03 -3.714111E+04 -5.643723E-10  1.016193E-09
       155  15 -8.106300E+04 -1.889140E+04 -3.555224E+03 -3.898151E+04  4.409448E-10  1.486730E-09
       155  16 -5.678854E+04 -1.226806E+04 -6.242788E+03 -1.974755E+04  1.589941E-09  8.756633E-10
       155  17 -5.932609E+04 -9.087259E+03 -1.757888E+03 -2.721319E+04  1.303522E-09  2.083287E-09
       155  18 -6.337367E+04 -1.269647E+04 -3.417673E+02 -3.427384E+04  5.774873E-10  3.351219E-09
       155  19 -1.084031E+05 -4.730404E+04 -2.253106E+04 -5.004311E+04  1.181228E+04  4.007970E+03
       155  20 -1.025140E+05 -3.249169E+04 -1.188201E+04 -4.706872E+04  7.008917E+03  1.335841E+03
       155  21 -9.875185E+04 -2.508626E+04 -6.768648E+03 -4.368903E+04  1.910122E+03 -5.489047E+02
       155  22 -8.259595E+04 -2.978618E+04 -1.438677E+04 -3.489552E+04  9.524640E+03  3.150173E+03
       155  23 -8.092024E+04 -2.078955E+04 -6.819889E+03 -3.714111E+04  6.278181E+03  1.061838E+03
       155  24 -8.106299E+04 -1.889140E+04 -3.555210E+03 -3.898151E+04  2.736299E+03 -2.390529E+02
       155  25 -5.678848E+04 -1.226804E+04 -6.242680E+03 -1.974754E+04  7.236949E+03  2.292282E+03
       155  26 -5.932606E+04 -9.087250E+03 -1.757829E+03 -2.721318E+04  5.547424E+03  7.878158E+02
       155  27 -6.337366E+04 -1.269647E+04 -3.417434E+02 -3.427384E+04  3.562506E+03  7.080989E+01
       156   1 -9.346969E+04 -2.374604E+04 -5.025135E+03 -4.283542E+04 -1.456613E+03  4.153230E+02
       156   2 -8.697357E+04 -2.001221E+04 -2.472327E+03 -4.031997E+04 -4.336325E+02  3.024179E+02
       156   3 -7.977725E+04 -1.772458E+04 -6.816959E+02 -3.884898E+04  6.200462E+02  1.076535E+02
       156   4 -8.065337E+04 -1.874618E+04 -2.650023E+03 -3.888430E+04 -2.236460E+03  1.228482E+02
       156   5 -8.097118E+04 -1.769577E+04 -1.383168E+03 -3.849082E+04 -1.375334E+03 -5.075392E+01
       156   6 -8.055673E+04 -1.805950E+04 -7.502462E+02 -3.914181E+04 -4.835091E+02 -3.062186E+02
       156   7 -6.783701E+04 -1.374636E+04 -2.749571E+02 -3.493315E+04 -3.016315E+03 -1.696309E+02
       156   8 -7.496875E+04 -1.537933E+04 -2.940058E+02 -3.666166E+04 -2.317045E+03 -4.039299E+02
       156   9 -8.133621E+04 -1.839442E+04 -8.187939E+02 -3.943464E+04 -1.587075E+03 -7.200944E+02
       156  10 -9.346969E+04 -2.374604E+04 -5.025139E+03 -4.283541E+04  5.692532E-08  2.006760E-08
       156  11 -8.697357E+04 -2.001221E+04 -2.472328E+03 -4.031997E+04 -2.685984E-08 -1.226427E-08
       156  12 -7.977725E+04 -1.772458E+04 -6.816966E+02 -3.884898E+04 -1.241250E-07 -4.496966E-08
       156  13 -8.065337E+04 -1.874618E+04 -2.650033E+03 -3.888430E+04  1.167536E-09  8.287333E-10
       156  14 -8.097118E+04 -1.769577E+04 -1.383171E+03 -3.849082E+04 -3.384951E-09 -6.343948E-09
       156  15 -8.055673E+04 -1.805950E+04 -7.502468E+02 -3.914181E+04 -2.158297E-08 -2.067232E-08
       156  16 -6.783702E+04 -1.374636E+04 -2.749742E+02 -3.493315E+04 -5.464484E-08 -1.393087E-08
       156  17 -7.496876E+04 -1.537934E+04 -2.940162E+02 -3.666166E+04  2.437885E-08  1.944315E-08
       156  18 -8.133622E+04 -1.839442E+04 -8.187996E+02 -3.943464E+04  8.564472E-08  3.866579E-08
       156  19 -9.346969E+04 -2.374604E+04 -5.025135E+03 -4.283542E+04  1.456613E+03 -4.153230E+02
       156  20 -8.697357E+04 -2.001221E+04 -2.472327E+03 -4.031997E+04  4.336325E+02 -3.024179E+02
       156  21 -7.977725E+04 -1.772458E+04 -6.816959E+02 -3.884898E+04 -6.200462E+02 -1.076535E+02
       156  22 -8.065337E+04 -1.874618E+04 -2.650023E+03 -3.888430E+04  2.236460E+03 -1.228482E+02
       156  23 -8.097118E+04 -1.769577E+04 -1.383168E+03 -3.849082E+04  1.375334E+03  5.075392E+01
       156  24 -8.055673E+04 -1.805950E+04 -7.502462E+02 -3.914181E+04  4.835091E+02  3.062186E+02
       156  25 -6.783701E+04 -1.374636E+04 -2.749571E+02 -3.493315E+04  3.016315E+03  1.696309E+02
       156  26 -7.496875E+04 -1.537933E+04 -2.940058E+02 -3.666166E+04  2.317045E+03  4.039299E+02
       156  27 -8.133621E+04 -1.839442E+04 -8.187939E+02 -3.943464E+04  1.587075E+03  7.200944E+02
       157   1 -7.529632E+04 -1.617284E+04  2.437241E+02 -3.764611E+04  8.398099E+02 -1.831631E+02
       157   2 -6.881808E+04 -1.316288E+04  1.599195E+03 -3.513808E+04  1.219086E+03 -6.795777E+02
       157   3 -6.138752E+04 -1.117177E+04  2.820650E+03 -3.375944E+04  1.601534E+03 -1.184463E+03
       157   4 -8.051885E+04 -1.805458E+04 -5.616105E+02 -3.912930E+04 -2.589284E+02 -5.952306E+02
       157   5 -8.099468E+04 -1.753233E+04 -3.053083E+02 -3.857006E+04  1.036000E+02 -1.097931E+03
       157   6 -8.051491E+04 -1.802560E+04 -1.697489E+02 -3.914023E+04  4.692978E+02 -1.609101E+03
       157   7 -8.574134E+04 -1.993632E+04 -1.366940E+03 -4.061248E+04 -1.357656E+03 -1.007294E+03
       157   8 -9.317104E+04 -2.190174E+04 -2.209787E+03 -4.200195E+04 -1.011856E+03 -1.516272E+03
       157   9 -9.964167E+04 -2.487931E+04 -3.160085E+03 -4.452080E+04 -6.628886E+02 -2.033719E+03
       157  10 -7.529632E+04 -1.617284E+04  2.437227E+02 -3.764611E+04  2.533364E-08  1.473449E-08
       157  11 -6.881808E+04 -1.316289E+04  1.599191E+03 -3.513808E+04  2.128128E-08  1.514487E-08
       157  12 -6.138752E+04 -1.117177E+04  2.820643E+03 -3.375944E+04  7.374418E-10  5.563707E-09
       157  13 -8.051885E+04 -1.805458E+04 -5.616112E+02 -3.912930E+04 -2.469053E-08 -2.212755E-08
       157  14 -8.099468E+04 -1.753233E+04 -3.053106E+02 -3.857006E+04 -5.738538E-09 -1.030911E-08
       157  15 -8.051491E+04 -1.802561E+04 -1.697541E+02 -3.914023E+04 -7.095029E-10 -1.886187E-09
       157  16 -8.574135E+04 -1.993632E+04 -1.366945E+03 -4.061248E+04 -6.579538E-08 -2.396180E-08
       157  17 -9.317104E+04 -2.190174E+04 -2.209794E+03 -4.200196E+04 -2.748647E-08 -1.605045E-08
       157  18 -9.964167E+04 -2.487931E+04 -3.160094E+03 -4.452080E+04  6.817870E-10 -4.879527E-09
       157  19 -7.529632E+04 -1.617284E+04  2.437241E+02 -3.764611E+04 -8.398099E+02  1.831631E+02
       157  20 -6.881808E+04 -1.316288E+04  1.599195E+03 -3.513808E+04 -1.219086E+03  6.795777E+02
       157  21 -6.138752E+04 -1.117177E+04  2.820650E+03 -3.375944E+04 -1.601534E+03  1.184463E+03
       157  22 -8.051885E+04 -1.805458E+04 -5.616105E+02 -3.912930E+04  2.589284E+02  5.952306E+02
       157  23 -8.099468E+04 -1.753233E+04 -3.053083E+02 -3.857006E+04 -1.036000E+02  1.097931E+03
       157  24 -8.051491E+04 -1.802560E+04 -1.697489E+02 -3.914023E+04 -4.692978E+02  1.609101E+03
       157  25 -8.574134E+04 -1.993632E+04 -1.366940E+03 -4.061248E+04  1.357656E+03  1.007294E+03
       157  26 -9.317104E+04 -2.190174E+04 -2.209787E+03 -4.200195E+04  1.011856E+03  1.516272E+03
       157  27 -9.964167E+04 -2.487931E+04 -3.160085E+03 -4.452080E+04  6.628886E+02  2.033719E+03
       158   1 -5.697697E+04 -9.596727E+03  3.587936E+03 -3.253031E+04  1.750643E+03 -1.508959E+03
       158   2 -5.051347E+04 -6.622993E+03  4.721300E+03 -3.001796E+04  2.003944E+03 -2.067106E+03
       158   3 -4.306941E+04 -4.637200E+03  5.825707E+03 -2.863649E+04  2.257456E+03 -2.625788E+03
       158   4 -8.051024E+04 -1.802639E+04 -1.287114E+02 -3.913793E+04  6.189348E+02 -1.933405E+03
       158   5 -8.100078E+04 -1.753364E+04 -7.521227E+01 -3.857205E+04  8.711596E+02 -2.491972E+03
       158   6 -8.051076E+04 -1.802871E+04 -4.987440E+01 -3.913714E+04  1.123594E+03 -3.051073E+03
       158   7 -1.040432E+05 -2.645610E+04 -3.845441E+03 -4.574538E+04 -5.127408E+02 -2.357838E+03
       158   8 -1.114873E+05 -2.844426E+04 -4.871788E+03 -4.712580E+04 -2.615728E+02 -2.916818E+03
       158   9 -1.179506E+05 -3.142007E+04 -5.925479E+03 -4.963721E+04 -1.019671E+01 -3.476331E+03
       158  10 -5.697697E+04 -9.596730E+03  3.587926E+03 -3.253031E+04 -2.130103E-09  2.325472E-09
       158  11 -5.051348E+04 -6.622999E+03  4.721284E+03 -3.001796E+04  8.173428E-09  3.765584E-09
       158  12 -4.306942E+04 -4.637209E+03  5.825684E+03 -2.863648E+04  1.019347E-08  2.998247E-09
       158  13 -8.051024E+04 -1.802639E+04 -1.287192E+02 -3.913792E+04  2.367917E-09  1.127528E-09
       158  14 -8.100079E+04 -1.753364E+04 -7.522537E+01 -3.857205E+04  6.985565E-09  3.029126E-09
       158  15 -8.051076E+04 -1.802872E+04 -4.989426E+01 -3.913714E+04  1.811848E-09  1.640329E-09
       158  16 -1.040432E+05 -2.645611E+04 -3.845452E+03 -4.574538E+04  6.843059E-09 -4.449306E-11
       158  17 -1.114873E+05 -2.844427E+04 -4.871804E+03 -4.712580E+04  4.418401E-09  2.423088E-09
       158  18 -1.179506E+05 -3.142008E+04 -5.925502E+03 -4.963721E+04 -5.365435E-09  2.587353E-10
       158  19 -5.697697E+04 -9.596727E+03  3.587936E+03 -3.253031E+04 -1.750643E+03  1.508959E+03
       158  20 -5.051347E+04 -6.622993E+03  4.721300E+03 -3.001796E+04 -2.003944E+03  2.067106E+03
       158  21 -4.306941E+04 -4.637200E+03  5.825707E+03 -2.863649E+04 -2.257456E+03  2.625788E+03
       158  22 -8.051024E+04 -1.802639E+04 -1.287114E+02 -3.913793E+04 -6.189348E+02  1.933405E+03
       158  23 -8.100078E+04 -1.753364E+04 -7.521227E+01 -3.857205E+04 -8.711596E+02  2.491972E+03
       158  24 -8.051076E+04 -1.802871E+04 -4.987440E+01 -3.913714E+04 -1.123594E+03  3.051073E+03
       158  25 -1.040432E+05 -2.645610E+04 -3.845441E+03 -4.574538E+04  5.127408E+02  2.357838E+03
       158  26 -1.114873E+05 -2.844426E+04 -4.871788E+03 -4.712580E+04  2.615728E+02  2.916818E+03
       158  27 -1.179506E+05 -3.142007E+04 -5.925479E+03 -4.963721E+04  1.019671E+01  3.476331E+03
       159   1 -3.866757E+04 -3.058795E+03  6.556598E+03 -2.740576E+04  2.390639E+03 -2.956678E+03
       159   2 -3.220809E+04 -8.415658E+01  7.636620E+03 -2.489314E+04  2.621599E+03 -3.522490E+03
       159   3 -2.476487E+04  1.904895E+03  8.704554E+03 -2.351070E+04  2.851470E+03 -4.085361E+03
       159   4 -8.051062E+04 -1.802901E+04 -4.442883E+01 -3.913685E+04  1.256709E+03 -3.381997E+03
       159   5 -8.100193E+04 -1.753603E+04 -4.459865E+01 -3.857163E+04  1.493471E+03 -3.945654E+03
       159   6 -8.051067E+04 -1.802975E+04 -6.143706E+01 -3.913655E+04  1.729144E+03 -4.506373E+03
       159   7 -1.223513E+05 -3.299886E+04 -6.645348E+03 -5.086708E+04  1.228726E+02 -3.807282E+03
       159   8 -1.297932E+05 -3.498766E+04 -7.725854E+03 -5.224911E+04  3.654360E+02 -4.368783E+03
       159   9 -1.362538E+05 -3.796431E+04 -8.827656E+03 -5.476126E+04  6.069125E+02 -4.927350E+03
       159  10 -3.866757E+04 -3.058806E+03  6.556570E+03 -2.740575E+04  8.560894E-10  1.726288E-11
       159  11 -3.220810E+04 -8.417174E+01  7.636584E+03 -2.489313E+04  4.018670E-11  9.806890E-10
       159  12 -2.476488E+04  1.904875E+03  8.704507E+03 -2.351069E+04  5.288568E-10  9.917341E-10
       159  13 -8.051063E+04 -1.802902E+04 -4.445329E+01 -3.913685E+04 -2.346280E-10  6.595513E-10
       159  14 -8.100194E+04 -1.753605E+04 -4.463209E+01 -3.857163E+04 -2.319140E-10  6.301555E-10
       159  15 -8.051068E+04 -1.802977E+04 -6.148084E+01 -3.913655E+04 -1.769196E-09  1.612757E-10
       159  16 -1.223513E+05 -3.299887E+04 -6.645375E+03 -5.086708E+04 -2.281197E-09  1.278131E-09
       159  17 -1.297932E+05 -3.498768E+04 -7.725890E+03 -5.224911E+04 -1.482750E-09  5.745530E-10
       159  18 -1.362538E+05 -3.796433E+04 -8.827702E+03 -5.476126E+04 -1.785787E-09 -4.970714E-10
       159  19 -3.866757E+04 -3.058795E+03  6.556598E+03 -2.740576E+04 -2.390639E+03  2.956678E+03
       159  20 -3.220809E+04 -8.415658E+01  7.636620E+03 -2.489314E+04 -2.621599E+03  3.522490E+03
       159  21 -2.476487E+04  1.904895E+03  8.704554E+03 -2.351070E+04 -2.851470E+03  4.085361E+03
       159  22 -8.051062E+04 -1.802901E+04 -4.442883E+01 -3.913685E+04 -1.256709E+03  3.381997E+03
       159  23 -8.100193E+04 -1.753603E+04 -4.459865E+01 -3.857163E+04 -1.493471E+03  3.945654E+03
       159  24 -8.051067E+04 -1.802975E+04 -6.143706E+01 -3.913655E+04 -1.729144E+03  4.506373E+03
       159  25 -1.223513E+05 -3.299886E+04 -6.645348E+03 -5.086708E+04 -1.228726E+02  3.807282E+03
       159  26 -1.297932E+05 -3.498766E+04 -7.725854E+03 -5.224911E+04 -3.654360E+02  4.368783E+03
       159  27 -1.362538E+05 -3.796431E+04 -8.827656E+03 -5.476126E+04 -6.069125E+02  4.927350E+03
       160   1 -2.036409E+04  3.483990E+03  9.417861E+03 -2.228168E+04  2.988883E+03 -4.412113E+03
       160   2 -1.390732E+04  6.461605E+03  1.046789E+04 -1.976937E+04  3.205921E+03 -4.962686E+03
       160   3 -6.468241E+03  8.453554E+03  1.151067E+04 -1.838443E+04  3.412229E+03 -5.484606E+03
       160   4 -8.051310E+04 -1.802937E+04 -7.699844E+01 -3.913705E+04  1.864975E+03 -4.833735E+03
       160   5 -8.099988E+04 -1.753762E+04 -1.318044E+02 -3.857095E+04  2.138663E+03 -5.363087E+03
       160   6 -8.051557E+04 -1.804278E+04 -2.387282E+02 -3.913227E+04  2.401618E+03 -5.863784E+03
       160   7 -1.406582E+05 -3.954235E+04 -9.571911E+03 -5.599088E+04  7.411831E+02 -5.255314E+03
       160   8 -1.480872E+05 -4.153622E+04 -1.073146E+04 -5.737051E+04  1.071533E+03 -5.763441E+03
       160   9 -1.545561E+05 -4.453822E+04 -1.198797E+04 -5.987755E+04  1.391148E+03 -6.242911E+03
       160  10 -2.036410E+04  3.483967E+03  9.417808E+03 -2.228167E+04 -1.482601E-10  3.600011E-10
       160  11 -1.390734E+04  6.461576E+03  1.046782E+04 -1.976936E+04 -4.122921E-10  1.113074E-10
       160  12 -6.468261E+03  8.453519E+03  1.151059E+04 -1.838442E+04 -4.316130E-10  2.735827E-10
       160  13 -8.051311E+04 -1.802940E+04 -7.704888E+01 -3.913704E+04 -5.872639E-10 -6.906906E-12
       160  14 -8.099989E+04 -1.753765E+04 -1.318670E+02 -3.857094E+04 -6.431831E-10  1.496988E-10
       160  15 -8.051559E+04 -1.804282E+04 -2.388036E+02 -3.913226E+04  1.028087E-10  4.468274E-10
       160  16 -1.406582E+05 -3.954238E+04 -9.571964E+03 -5.599087E+04 -6.837791E-10 -3.521126E-10
       160  17 -1.480872E+05 -4.153626E+04 -1.073152E+04 -5.737051E+04  4.103037E-10 -1.469295E-10
       160  18 -1.545561E+05 -4.453826E+04 -1.198805E+04 -5.987754E+04  5.671673E-10  7.415144E-10
       160  19 -2.036409E+04  3.483990E+03  9.417861E+03 -2.228168E+04 -2.988883E+03  4.412113E+03
       160  20 -1.390732E+04  6.461605E+03  1.046789E+04 -1.976937E+04 -3.205921E+03  4.962686E+03
       160  21 -6.468241E+03  8.453554E+03  1.151067E+04 -1.838443E+04 -3.412229E+03  5.484606E+03
       160  22 -8.051310E+04 -1.802937E+04 -7.699844E+01 -3.913705E+04 -1.864975E+03  4.833735E+03
       160  23 -8.099988E+04 -1.753762E+04 -1.318044E+02 -3.857095E+04 -2.138663E+03  5.363087E+03
       160  24 -8.051557E+04 -1.804278E+04 -2.387282E+02 -3.913227E+04 -2.401618E+03  5.863784E+03
       160  25 -1.406582E+05 -3.954235E+04 -9.571911E+03 -5.599088E+04 -7.411831E+02  5.255314E+03
       160  26 -1.480872E+05 -4.153622E+04 -1.073146E+04 -5.737051E+04 -1.071533E+03  5.763441E+03
       160  27 -1.545561E+05 -4.453822E+04 -1.198797E+04 -5.987755E+04 -1.391148E+03  6.242911E+03
       161   1 -2.056395E+03  1.003007E+04  1.219548E+04 -1.717035E+04  3.587932E+03 -5.772576E+03
       161   2  4.328637E+03  1.304126E+04  1.327462E+04 -1.458323E+04  3.481972E+03 -6.247641E+03
       161   3  1.168602E+04  1.500883E+04  1.451715E+04 -1.307224E+04  3.272818E+03 -6.447603E+03
       161   4 -8.053399E+04 -1.804204E+04 -3.177603E+02 -3.913392E+04  2.561268E+03 -6.157795E+03
       161   5 -8.098698E+04 -1.761163E+04 -5.843507E+02 -3.854141E+04  2.999301E+03 -6.428823E+03
       161   6 -8.057554E+04 -1.833270E+04 -1.118553E+03 -3.902517E+04  3.334145E+03 -6.424718E+03
       161   7 -1.590059E+05 -4.611387E+04 -1.283137E+04 -6.109514E+04  1.534729E+03 -6.542968E+03
       161   8 -1.662953E+05 -4.826398E+04 -1.444362E+04 -6.249665E+04  2.516698E+03 -6.609979E+03
       161   9 -1.728281E+05 -5.167339E+04 -1.675449E+04 -6.497449E+04  3.395463E+03 -6.401836E+03
       161  10 -2.056417E+03  1.003003E+04  1.219539E+04 -1.717034E+04  5.968171E-10  6.937507E-10
       161  11  4.328614E+03  1.304121E+04  1.327452E+04 -1.458321E+04  8.419500E-12  3.101295E-10
       161  12  1.168599E+04  1.500879E+04  1.451705E+04 -1.307223E+04 -8.513199E-10  9.545196E-10
       161  13 -8.053400E+04 -1.804208E+04 -3.178439E+02 -3.913391E+04  3.225254E-10  4.898819E-10
       161  14 -8.098700E+04 -1.761168E+04 -5.844453E+02 -3.854140E+04  6.067493E-10  1.425467E-10
       161  15 -8.057557E+04 -1.833275E+04 -1.118652E+03 -3.902515E+04  1.137116E-10  2.035160E-10
       161  16 -1.590059E+05 -4.611392E+04 -1.283146E+04 -6.109513E+04 -7.021999E-10  3.651053E-10
       161  17 -1.662954E+05 -4.826402E+04 -1.444372E+04 -6.249664E+04  7.567747E-11  1.274083E-10
       161  18 -1.728281E+05 -5.167343E+04 -1.675459E+04 -6.497447E+04  1.101655E-09 -5.171991E-10
       161  19 -2.056395E+03  1.003007E+04  1.219548E+04 -1.717035E+04 -3.587932E+03  5.772576E+03
       161  20  4.328637E+03  1.304126E+04  1.327462E+04 -1.458323E+04 -3.481972E+03  6.247641E+03
       161  21  1.168602E+04  1.500883E+04  1.451715E+04 -1.307224E+04 -3.272818E+03  6.447603E+03
       161  22 -8.053399E+04 -1.804204E+04 -3.177603E+02 -3.913392E+04 -2.561268E+03  6.157795E+03
       161  23 -8.098698E+04 -1.761163E+04 -5.843507E+02 -3.854141E+04 -2.999301E+03  6.428823E+03
       161  24 -8.057554E+04 -1.833270E+04 -1.118553E+03 -3.902517E+04 -3.334145E+03  6.424718E+03
       161  25 -1.590059E+05 -4.611387E+04 -1.283137E+04 -6.109514E+04 -1.534729E+03  6.542968E+03
       161  26 -1.662953E+05 -4.826398E+04 -1.444362E+04 -6.249665E+04 -2.516698E+03  6.609979E+03
       161  27 -1.728281E+05 -5.167339E+04 -1.675449E+04 -6.497449E+04 -3.395463E+03  6.401836E+03
       162   1  1.623147E+04  1.649557E+04  1.524034E+04 -1.203269E+04  3.636766E+03 -6.431067E+03
       162   2  2.139518E+04  1.993813E+04  1.753007E+04 -7.941474E+03 -5.821474E+02 -6.559331E+03
       162   3  2.726395E+04  2.098684E+04  2.214883E+04 -4.177921E+03 -5.793814E+03 -4.042239E+03
       162   4 -8.077508E+04 -1.836764E+04 -1.500369E+03 -3.903582E+04  3.542437E+03 -6.466584E+03
       162   5 -8.093374E+04 -1.895065E+04 -2.877885E+03 -3.801010E+04  4.554995E+03 -4.632048E+03
       162   6 -8.142359E+04 -2.296389E+04 -6.070761E+03 -3.731220E+04  4.574858E+03 -1.519207E+02
       162   7 -1.777715E+05 -5.322987E+04 -1.824129E+04 -6.603496E+04  3.448124E+03 -6.502096E+03
       162   8 -1.832500E+05 -5.783755E+04 -2.328574E+04 -6.807353E+04  9.691145E+03 -2.705170E+03
       162   9 -1.900959E+05 -6.691183E+04 -3.428993E+04 -7.043994E+04  1.494123E+04  3.737394E+03
       162  10  1.623145E+04  1.649552E+04  1.524024E+04 -1.203267E+04 -2.808542E-09  2.019045E-10
       162  11  2.139517E+04  1.993808E+04  1.752999E+04 -7.941477E+03  7.724800E-09  3.058666E-09
       162  12  2.726391E+04  2.098681E+04  2.214873E+04 -4.177940E+03  9.015494E-09  3.249544E-09
       162  13 -8.077511E+04 -1.836769E+04 -1.500471E+03 -3.903580E+04  2.794086E-09  1.092090E-09
       162  14 -8.093377E+04 -1.895068E+04 -2.877965E+03 -3.801008E+04  7.289642E-09  3.623990E-09
       162  15 -8.142361E+04 -2.296390E+04 -6.070800E+03 -3.731220E+04  2.256754E-09  1.394104E-09
       162  16 -1.777715E+05 -5.322992E+04 -1.824139E+04 -6.603495E+04  8.510733E-09  2.670389E-09
       162  17 -1.832501E+05 -5.783758E+04 -2.328593E+04 -6.807351E+04  7.605384E-09  3.234030E-09
       162  18 -1.900962E+05 -6.691191E+04 -3.429037E+04 -7.043998E+04 -3.112973E-09 -9.727488E-10
       162  19  1.623147E+04  1.649557E+04  1.524034E+04 -1.203269E+04 -3.636766E+03  6.431067E+03
       162  20  2.139518E+04  1.993813E+04  1.753007E+04 -7.941474E+03  5.821474E+02  6.559331E+03
       162  21  2.726395E+04  2.098684E+04  2.214883E+04 -4.177921E+03  5.793814E+03  4.042239E+03
       162  22 -8.077508E+04 -1.836764E+04 -1.500369E+03 -3.903582E+04 -3.542437E+03  6.466584E+03
       162  23 -8.093374E+04 -1.895065E+04 -2.877885E+03 -3.801010E+04 -4.554995E+03  4.632048E+03
       162  24 -8.142359E+04 -2.296389E+04 -6.070761E+03 -3.731220E+04 -4.574858E+03  1.519207E+02
       162  25 -1.777715E+05 -5.322987E+04 -1.824129E+04 -6.603496E+04 -3.448124E+03  6.502096E+03
       162  26 -1.832500E+05 -5.783755E+04 -2.328574E+04 -6.807353E+04 -9.691145E+03  2.705170E+03
       162  27 -1.900959E+05 -6.691183E+04 -3.428993E+04 -7.043994E+04 -1.494123E+04 -3.737394E+03
       163   1 -6.696568E+04 -1.275007E+04 -1.962163E+04 -4.176506E+03 -2.053864E+04 -3.353496E+02
       163   2 -6.456263E+04  1.506389E+04 -2.903756E+03 -1.437598E+03 -1.361887E+04 -9.851293E+02
       163   3 -7.102739E+04  1.099741E+04  1.339771E+03  3.551993E+03 -6.699386E+03 -8.744948E+02
       163   4 -1.110494E+05 -2.375540E+04 -3.057067E+04  1.108746E+03 -2.088403E+04 -3.355862E+02
       163   5 -1.065924E+05  4.599203E+03 -1.319721E+04 -1.887398E+01 -1.370926E+04 -9.851839E+02
       163   6 -1.110482E+05  1.027877E+03 -8.475838E+03  1.104242E+03 -6.534751E+03 -8.744310E+02
       163   7 -1.551313E+05 -3.476077E+04 -4.151984E+04  6.393623E+03 -2.122940E+04 -3.358287E+02
       163   8 -1.486206E+05 -5.865604E+03 -2.349079E+04  1.399754E+03 -1.379964E+04 -9.852389E+02
       163   9 -1.510675E+05 -8.941753E+03 -1.829156E+04 -1.343351E+03 -6.370127E+03 -8.743685E+02
       163  10 -6.696613E+04 -1.275018E+04 -1.962242E+04 -4.176512E+03 -4.254875E-10  1.126436E-10
       163  11 -6.456283E+04  1.506384E+04 -2.904107E+03 -1.437609E+03 -1.503673E-09 -1.075683E-10
       163  12 -7.102744E+04  1.099740E+04  1.339685E+03  3.551988E+03 -4.180724E-10 -5.136098E-10
       163  13 -1.110499E+05 -2.375551E+04 -3.057149E+04  1.108741E+03  5.383866E-11  3.586129E-10
       163  14 -1.065926E+05  4.599152E+03 -1.319757E+04 -1.888486E+01  3.255326E-10  2.634399E-10
       163  15 -1.110482E+05  1.027865E+03 -8.475920E+03  1.104238E+03  1.435889E-09 -2.470757E-11
       163  16 -1.551318E+05 -3.476089E+04 -4.152068E+04  6.393618E+03  3.783700E-10  2.985447E-10
       163  17 -1.486208E+05 -5.865656E+03 -2.349115E+04  1.399743E+03  8.969823E-10 -5.781965E-11
       163  18 -1.510676E+05 -8.941765E+03 -1.829164E+04 -1.343355E+03  1.577119E-10 -7.541158E-10
       163  19 -6.696568E+04 -1.275007E+04 -1.962163E+04 -4.176506E+03  2.053864E+04  3.353496E+02
       163  20 -6.456263E+04  1.506389E+04 -2.903756E+03 -1.437598E+03  1.361887E+04  9.851293E+02
       163  21 -7.102739E+04  1.099741E+04  1.339771E+03  3.551993E+03  6.699386E+03  8.744948E+02
       163  22 -1.110494E+05 -2.375540E+04 -3.057067E+04  1.108746E+03  2.088403E+04  3.355862E+02
       163  23 -1.065924E+05  4.599203E+03 -1.319721E+04 -1.887398E+01  1.370926E+04  9.851839E+02
       163  24 -1.110482E+05  1.027877E+03 -8.475838E+03  1.104242E+03  6.534751E+03  8.744310E+02
       163  25 -1.551313E+05 -3.476077E+04 -4.151984E+04  6.393623E+03  2.122940E+04  3.358287E+02
       163  26 -1.486206E+05 -5.865604E+03 -2.349079E+04  1.399754E+03  1.379964E+04  9.852389E+02
       163  27 -1.510675E+05 -8.941753E+03 -1.829156E+04 -1.343351E+03  6.370127E+03  8.743685E+02
       164   1 -7.401862E+04  5.712234E+03  1.703917E+03  4.802923E+02 -5.154891E+03 -7.175783E+02
       164   2 -7.543828E+04  8.891557E+03  4.730545E+03 -1.814456E+02 -3.403187E+03 -7.242704E+02
       164   3 -7.812505E+04  7.910800E+03  5.576843E+03  1.452132E+03 -1.651490E+03 -6.460443E+02
       164   4 -1.093505E+05 -3.089862E+03 -6.973203E+03  1.116316E+03 -5.171363E+03 -7.175907E+02
       164   5 -1.087143E+05  6.034684E+02 -3.431079E+03 -3.178631E+01 -3.391220E+03 -7.242702E+02
       164   6 -1.093503E+05  1.316645E+02 -2.089118E+03  1.115428E+03 -1.611078E+03 -6.460322E+02
       164   7 -1.446812E+05 -1.189205E+04 -1.565041E+04  1.752304E+03 -5.187834E+03 -7.176031E+02
       164   8 -1.419894E+05 -7.684702E+03 -1.159278E+04  1.178649E+02 -3.379254E+03 -7.242700E+02
       164   9 -1.405746E+05 -7.647543E+03 -9.755150E+03  7.787422E+02 -1.570669E+03 -6.460201E+02
       164  10 -7.401865E+04  5.712226E+03  1.703866E+03  4.802893E+02 -6.699669E-10 -9.109046E-10
       164  11 -7.543829E+04  8.891553E+03  4.730522E+03 -1.814476E+02  1.876173E-10  2.555987E-11
       164  12 -7.812505E+04  7.910798E+03  5.576837E+03  1.452131E+03  7.925602E-10  3.659487E-10
       164  13 -1.093505E+05 -3.089870E+03 -6.973254E+03  1.116313E+03 -9.372512E-10 -7.390377E-10
       164  14 -1.087143E+05  6.034647E+02 -3.431102E+03 -3.178828E+01 -4.584666E-10 -2.217232E-10
       164  15 -1.093503E+05  1.316633E+02 -2.089123E+03  1.115428E+03  4.160797E-10 -1.825761E-10
       164  16 -1.446812E+05 -1.189206E+04 -1.565047E+04  1.752301E+03  6.033271E-10 -4.212901E-10
       164  17 -1.419894E+05 -7.684706E+03 -1.159281E+04  1.178629E+02  5.146387E-10 -1.844608E-10
       164  18 -1.405746E+05 -7.647544E+03 -9.755156E+03  7.787413E+02  9.976467E-10  3.002937E-10
       164  19 -7.401862E+04  5.712234E+03  1.703917E+03  4.802923E+02  5.154891E+03  7.175783E+02
       164  20 -7.543828E+04  8.891557E+03  4.730545E+03 -1.814456E+02  3.403187E+03  7.242704E+02
       164  21 -7.812505E+04  7.910800E+03  5.576843E+03  1.452132E+03  1.651490E+03  6.460443E+02
       164  22 -1.093505E+05 -3.089862E+03 -6.973203E+03  1.116316E+03  5.171363E+03  7.175907E+02
       164  23 -1.087143E+05  6.034684E+02 -3.431079E+03 -3.178631E+01  3.391220E+03  7.242702E+02
       164  24 -1.093503E+05  1.316645E+02 -2.089118E+03  1.115428E+03  1.611078E+03  6.460322E+02
       164  25 -1.446812E+05 -1.189205E+04 -1.565041E+04  1.752304E+03  5.187834E+03  7.176031E+02
       164  26 -1.419894E+05 -7.684702E+03 -1.159278E+04  1.178649E+02  3.379254E+03  7.242700E+02
       164  27 -1.405746E+05 -7.647543E+03 -9.755150E+03  7.787422E+02  1.570669E+03  6.460201E+02
       165   1 -8.263766E+04  6.195136E+03  4.832826E+03  1.056745E+03 -1.296650E+03 -5.902823E+02
       165   2 -8.461707E+04  6.156052E+03  5.100776E+03 -4.591685E+01 -8.521420E+02 -5.250509E+02
       165   3 -8.678983E+04  5.577587E+03  4.944329E+03  1.173255E+03 -4.076441E+02 -4.500213E+02
       165   4 -1.091106E+05 -3.979358E+02 -1.657075E+03  1.121720E+03 -1.276395E+03 -5.902771E+02
       165   5 -1.090136E+05  7.923054E+01 -8.842255E+02 -3.927181E+01 -8.286128E+02 -5.250436E+02
       165   6 -1.091106E+05  1.643505E+01 -5.380611E+02  1.121576E+03 -3.808387E+02 -4.500119E+02
       165   7 -1.355829E+05 -6.991060E+03 -8.147027E+03  1.186693E+03 -1.256142E+03 -5.902719E+02
       165   8 -1.334096E+05 -5.997635E+03 -6.869271E+03 -3.262708E+01 -8.050845E+02 -5.250363E+02
       165   9 -1.314309E+05 -5.544754E+03 -6.020488E+03  1.069898E+03 -3.540343E+02 -4.500025E+02
       165  10 -8.263766E+04  6.195135E+03  4.832823E+03  1.056744E+03 -4.576818E-10  7.745890E-10
       165  11 -8.461707E+04  6.156051E+03  5.100774E+03 -4.591722E+01 -4.125808E-10  6.324991E-10
       165  12 -8.678983E+04  5.577587E+03  4.944328E+03  1.173255E+03 -1.419533E-10  6.975842E-11
       165  13 -1.091106E+05 -3.979366E+02 -1.657079E+03  1.121720E+03  2.637233E-10 -3.721819E-11
       165  14 -1.090136E+05  7.923006E+01 -8.842273E+02 -3.927216E+01  3.658311E-10  8.760521E-10
       165  15 -1.091106E+05  1.643480E+01 -5.380617E+02  1.121576E+03  1.304383E-10  8.698298E-10
       165  16 -1.355829E+05 -6.991060E+03 -8.147031E+03  1.186692E+03  6.647054E-10  6.442875E-10
       165  17 -1.334096E+05 -5.997636E+03 -6.869273E+03 -3.262742E+01 -8.808611E-10  8.080643E-10
       165  18 -1.314309E+05 -5.544754E+03 -6.020488E+03  1.069898E+03  2.569311E-10  5.219258E-10
       165  19 -8.263766E+04  6.195136E+03  4.832826E+03  1.056745E+03  1.296650E+03  5.902823E+02
       165  20 -8.461707E+04  6.156052E+03  5.100776E+03 -4.591685E+01  8.521420E+02  5.250509E+02
       165  21 -8.678983E+04  5.577587E+03  4.944329E+03  1.173255E+03  4.076441E+02  4.500213E+02
       165  22 -1.091106E+05 -3.979358E+02 -1.657075E+03  1.121720E+03  1.276395E+03  5.902771E+02
       165  23 -1.090136E+05  7.923054E+01 -8.842255E+02 -3.927181E+01  8.286128E+02  5.250436E+02
       165  24 -1.091106E+05  1.643505E+01 -5.380611E+02  1.121576E+03  3.808387E+02  4.500119E+02
       165  25 -1.355829E+05 -6.991060E+03 -8.147027E+03  1.186693E+03  1.256142E+03  5.902719E+02
       165  26 -1.334096E+05 -5.997635E+03 -6.869271E+03 -3.262708E+01  8.050845E+02  5.250363E+02
       165  27 -1.314309E+05 -5.544754E+03 -6.020488E+03  1.069898E+03  3.540343E+02  4.500025E+02
       166   1 -9.155293E+04  4.313965E+03  3.862826E+03  1.123663E+03 -3.183183E+02 -4.051657E+02
       166   2 -9.362604E+04  3.855255E+03  3.513057E+03 -3.986597E+01 -1.825701E+02 -3.314519E+02
       166   3 -9.573760E+04  3.320561E+03  3.055533E+03  1.136404E+03 -4.682824E+01 -2.564746E+02
       166   4 -1.090760E+05 -4.955774E+01 -4.298189E+02  1.125629E+03 -2.937779E+02 -4.051567E+02
       166   5 -1.090567E+05  1.165394E+01 -2.725521E+02 -4.428150E+01 -1.576089E+02 -3.314422E+02
       166   6 -1.090760E+05 -3.200479E+00 -2.233409E+02  1.125611E+03 -2.144565E+01 -2.564641E+02
       166   7 -1.265988E+05 -4.413103E+03 -4.722487E+03  1.127595E+03 -2.692383E+02 -4.051476E+02
       166   8 -1.244872E+05 -3.831965E+03 -4.058178E+03 -4.869695E+01 -1.326483E+02 -3.314324E+02
       166   9 -1.224142E+05 -3.326975E+03 -3.502228E+03  1.114818E+03  3.936385E+00 -2.564537E+02
       166  10 -9.155293E+04  4.313965E+03  3.862826E+03  1.123663E+03  3.255087E-10 -1.064659E-10
       166  11 -9.362604E+04  3.855255E+03  3.513056E+03 -3.986602E+01  1.143327E-10  1.234058E-09
       166  12 -9.573760E+04  3.320560E+03  3.055533E+03  1.136404E+03  4.981658E-10  4.436060E-10
       166  13 -1.090760E+05 -4.955794E+01 -4.298194E+02  1.125629E+03  2.142899E-10  3.101286E-10
       166  14 -1.090567E+05  1.165381E+01 -2.725524E+02 -4.428155E+01 -2.388622E-10  9.498650E-10
       166  15 -1.090760E+05 -3.200550E+00 -2.233410E+02  1.125611E+03 -2.991606E-10 -2.403911E-10
       166  16 -1.265988E+05 -4.413103E+03 -4.722487E+03  1.127595E+03 -3.681121E-10  2.656106E-10
       166  17 -1.244872E+05 -3.831965E+03 -4.058179E+03 -4.869698E+01 -1.496272E-09 -2.983381E-10
       166  18 -1.224142E+05 -3.326975E+03 -3.502228E+03  1.114818E+03  4.385357E-11 -3.261222E-10
       166  19 -9.155293E+04  4.313965E+03  3.862826E+03  1.123663E+03  3.183183E+02  4.051657E+02
       166  20 -9.362604E+04  3.855255E+03  3.513057E+03 -3.986597E+01  1.825701E+02  3.314519E+02
       166  21 -9.573760E+04  3.320561E+03  3.055533E+03  1.136404E+03  4.682824E+01  2.564746E+02
       166  22 -1.090760E+05 -4.955774E+01 -4.298189E+02  1.125629E+03  2.937779E+02  4.051567E+02
       166  23 -1.090567E+05  1.165394E+01 -2.725521E+02 -4.428150E+01  1.576089E+02  3.314422E+02
       166  24 -1.090760E+05 -3.200479E+00 -2.233409E+02  1.125611E+03  2.144565E+01  2.564641E+02
       166  25 -1.265988E+05 -4.413103E+03 -4.722487E+03  1.127595E+03  2.692383E+02  4.051476E+02
       166  26 -1.244872E+05 -3.831965E+03 -4.058178E+03 -4.869695E+01  1.326483E+02  3.314324E+02
       166  27 -1.224142E+05 -3.326975E+03 -3.502228E+03  1.114818E+03 -3.936385E+00  2.564537E+02
       167   1 -1.005644E+05  2.115459E+03  1.858757E+03  1.124247E+03 -6.418440E+00 -2.125443E+02
       167   2 -1.026460E+05  1.608378E+03  1.302853E+03 -4.469425E+01  1.285307E+02 -1.375243E+02
       167   3 -1.047664E+05  1.026278E+03  6.398073E+02  1.136461E+03  2.634802E+02 -6.282906E+01
       167   4 -1.090760E+05 -3.391627E+00 -2.229031E+02  1.127898E+03  1.881995E+01 -2.125336E+02
       167   5 -1.090566E+05  1.155125E+01 -2.698961E+02 -4.714098E+01  1.536588E+02 -1.375134E+02
       167   6 -1.090760E+05 -4.849960E+01 -4.239476E+02  1.127918E+03  2.884985E+02 -6.281799E+01
       167   7 -1.175876E+05 -2.122247E+03 -2.304568E+03  1.131549E+03  4.405800E+01 -2.125229E+02
       167   8 -1.154672E+05 -1.585279E+03 -1.842649E+03 -4.958768E+01  1.787867E+02 -1.375025E+02
       167   9 -1.133856E+05 -1.123278E+03 -1.487704E+03  1.119375E+03  3.135166E+02 -6.280692E+01
       167  10 -1.005644E+05  2.115459E+03  1.858757E+03  1.124247E+03 -4.530869E-10 -1.183559E-10
       167  11 -1.026460E+05  1.608378E+03  1.302853E+03 -4.469423E+01 -8.655419E-10  3.307305E-10
       167  12 -1.047664E+05  1.026278E+03  6.398072E+02  1.136461E+03 -5.136623E-10 -7.986687E-10
       167  13 -1.090760E+05 -3.391675E+00 -2.229032E+02  1.127898E+03  1.523338E-10  9.735937E-10
       167  14 -1.090566E+05  1.155122E+01 -2.698962E+02 -4.714096E+01 -7.300232E-10  6.964766E-10
       167  15 -1.090760E+05 -4.849963E+01 -4.239478E+02  1.127918E+03 -1.237993E-09 -6.624869E-10
       167  16 -1.175876E+05 -2.122247E+03 -2.304568E+03  1.131549E+03 -4.370101E-10  5.194954E-10
       167  17 -1.154672E+05 -1.585279E+03 -1.842649E+03 -4.958766E+01 -3.202509E-10  6.161082E-11
       167  18 -1.133856E+05 -1.123278E+03 -1.487704E+03  1.119375E+03 -6.585937E-11 -6.803079E-10
       167  19 -1.005644E+05  2.115459E+03  1.858757E+03  1.124247E+03  6.418440E+00  2.125443E+02
       167  20 -1.026460E+05  1.608378E+03  1.302853E+03 -4.469425E+01 -1.285307E+02  1.375243E+02
       167  21 -1.047664E+05  1.026278E+03  6.398073E+02  1.136461E+03 -2.634802E+02  6.282906E+01
       167  22 -1.090760E+05 -3.391627E+00 -2.229031E+02  1.127898E+03 -1.881995E+01  2.125336E+02
       167  23 -1.090566E+05  1.155125E+01 -2.698961E+02 -4.714098E+01 -1.536588E+02  1.375134E+02
       167  24 -1.090760E+05 -4.849960E+01 -4.239476E+02  1.127918E+03 -2.884985E+02  6.281799E+01
       167  25 -1.175876E+05 -2.122247E+03 -2.304568E+03  1.131549E+03 -4.405800E+01  2.125229E+02
       167  26 -1.154672E+05 -1.585279E+03 -1.842649E+03 -4.958768E+01 -1.787867E+02  1.375025E+02
       167  27 -1.133856E+05 -1.123278E+03 -1.487704E+03  1.119375E+03 -3.135166E+02  6.280692E+01
       168   1 -1.096394E+05 -1.168747E+02 -6.666370E+02  1.083633E+03  3.481477E+02 -1.823097E+01
       168   2 -1.116456E+05 -5.774107E+02 -1.515960E+03 -3.534727E+01  7.906568E+02  5.738060E+01
       168   3 -1.138448E+05 -1.569284E+03 -2.786787E+03  1.197466E+03  1.233167E+03  1.278950E+02
       168   4 -1.091102E+05  1.628922E+01 -5.302951E+02  1.128222E+03  3.743408E+02 -1.821929E+01
       168   5 -1.090139E+05  7.809289E+01 -8.704257E+02 -4.758540E+01  8.151392E+02  5.739138E+01
       168   6 -1.091103E+05 -3.911421E+02 -1.630869E+03  1.128401E+03  1.255940E+03  1.279048E+02
       168   7 -1.085810E+05  1.494531E+02 -3.939532E+02  1.172810E+03  4.005339E+02 -1.820762E+01
       168   8 -1.063821E+05  7.335959E+02 -2.248916E+02 -5.982357E+01  8.396216E+02  5.740215E+01
       168   9 -1.043757E+05  7.869985E+02 -4.749527E+02  1.059335E+03  1.278713E+03  1.279146E+02
       168  10 -1.096394E+05 -1.168747E+02 -6.666372E+02  1.083633E+03 -1.366995E-09 -1.302051E-10
       168  11 -1.116456E+05 -5.774109E+02 -1.515961E+03 -3.534731E+01 -1.207839E-10  1.392050E-10
       168  12 -1.138448E+05 -1.569285E+03 -2.786790E+03  1.197466E+03  1.094132E-09  3.021385E-10
       168  13 -1.091102E+05  1.628918E+01 -5.302954E+02  1.128222E+03  7.725546E-10 -4.735338E-10
       168  14 -1.090139E+05  7.809270E+01 -8.704269E+02 -4.758543E+01 -9.597740E-10  4.934044E-10
       168  15 -1.091103E+05 -3.911426E+02 -1.630872E+03  1.128401E+03 -1.715640E-10  3.494158E-10
       168  16 -1.085810E+05  1.494531E+02 -3.939535E+02  1.172810E+03  9.830081E-10  1.994977E-10
       168  17 -1.063821E+05  7.335957E+02 -2.248930E+02 -5.982361E+01  4.167640E-10 -1.094969E-09
       168  18 -1.043757E+05  7.869981E+02 -4.749558E+02  1.059335E+03 -6.492406E-10 -2.773592E-10
       168  19 -1.096394E+05 -1.168747E+02 -6.666370E+02  1.083633E+03 -3.481477E+02  1.823097E+01
       168  20 -1.116456E+05 -5.774107E+02 -1.515960E+03 -3.534727E+01 -7.906568E+02 -5.738060E+01
       168  21 -1.138448E+05 -1.569284E+03 -2.786787E+03  1.197466E+03 -1.233167E+03 -1.278950E+02
       168  22 -1.091102E+05  1.628922E+01 -5.302951E+02  1.128222E+03 -3.743408E+02  1.821929E+01
       168  23 -1.090139E+05  7.809289E+01 -8.704257E+02 -4.758540E+01 -8.151392E+02 -5.739138E+01
       168  24 -1.091103E+05 -3.911421E+02 -1.630869E+03  1.128401E+03 -1.255940E+03 -1.279048E+02
       168  25 -1.085810E+05  1.494531E+02 -3.939532E+02  1.172810E+03 -4.005339E+02  1.820762E+01
       168  26 -1.063821E+05  7.335959E+02 -2.248916E+02 -5.982357E+01 -8.396216E+02 -5.740215E+01
       168  27 -1.043757E+05  7.869985E+02 -4.749527E+02  1.059335E+03 -1.278713E+03 -1.279146E+02
       169   1 -1.189144E+05 -2.255024E+03 -4.409498E+03  7.997019E+02  1.551669E+03  1.786306E+02
       169   2 -1.203833E+05 -2.311088E+03 -6.236768E+03  1.051531E+02  3.318734E+03  2.566365E+02
       169   3 -1.231097E+05 -6.467965E+03 -1.024028E+04  1.756330E+03  5.085787E+03  2.887698E+02
       169   4 -1.093463E+05  1.298805E+02 -2.056016E+03  1.126497E+03  1.585341E+03  1.786460E+02
       169   5 -1.087189E+05  5.940353E+02 -3.376175E+03 -4.570863E+01  3.337024E+03  2.566431E+02
       169   6 -1.093465E+05 -3.039916E+03 -6.861870E+03  1.127818E+03  5.088701E+03  2.887655E+02
       169   7 -9.977805E+04  2.514779E+03  2.974585E+02  1.453296E+03  1.619015E+03  1.786613E+02
       169   8 -9.705450E+04  3.499149E+03 -5.155910E+02 -1.965732E+02  3.355315E+03  2.566498E+02
       169   9 -9.558314E+04  3.881195E+02 -3.483470E+03  4.992916E+02  5.091615E+03  2.887611E+02
       169  10 -1.189144E+05 -2.255025E+03 -4.409502E+03  7.997017E+02  6.477095E-10  6.634383E-10
       169  11 -1.203833E+05 -2.311091E+03 -6.236789E+03  1.051524E+02  1.642744E-09  1.270463E-10
       169  12 -1.231097E+05 -6.467972E+03 -1.024033E+04  1.756329E+03  2.765420E-09  2.116623E-10
       169  13 -1.093463E+05  1.298798E+02 -2.056021E+03  1.126496E+03  2.313458E-10  3.699535E-10
       169  14 -1.087190E+05  5.940322E+02 -3.376196E+03 -4.570932E+01  3.835473E-10  1.355694E-09
       169  15 -1.093465E+05 -3.039923E+03 -6.861919E+03  1.127816E+03  9.884465E-10  1.591129E-09
       169  16 -9.977805E+04  2.514778E+03  2.974535E+02  1.453296E+03 -7.314796E-10 -3.067198E-10
       169  17 -9.705452E+04  3.499146E+03 -5.156123E+02 -1.965739E+02 -1.783738E-09 -1.118238E-09
       169  18 -9.558316E+04  3.881125E+02 -3.483519E+03  4.992904E+02 -2.524132E-09 -1.194555E-09
       169  19 -1.189144E+05 -2.255024E+03 -4.409498E+03  7.997019E+02 -1.551669E+03 -1.786306E+02
       169  20 -1.203833E+05 -2.311088E+03 -6.236768E+03  1.051531E+02 -3.318734E+03 -2.566365E+02
       169  21 -1.231097E+05 -6.467965E+03 -1.024028E+04  1.756330E+03 -5.085787E+03 -2.887698E+02
       169  22 -1.093463E+05  1.298805E+02 -2.056016E+03  1.126497E+03 -1.585341E+03 -1.786460E+02
       169  23 -1.087189E+05  5.940353E+02 -3.376175E+03 -4.570863E+01 -3.337024E+03 -2.566431E+02
       169  24 -1.093465E+05 -3.039916E+03 -6.861870E+03  1.127818E+03 -5.088701E+03 -2.887655E+02
       169  25 -9.977805E+04  2.514779E+03  2.974585E+02  1.453296E+03 -1.619015E+03 -1.786613E+02
       169  26 -9.705450E+04  3.499149E+03 -5.155910E+02 -1.965732E+02 -3.355315E+03 -2.566498E+02
       169  27 -9.558314E+04  3.881195E+02 -3.483470E+03  4.992916E+02 -5.091615E+03 -2.887611E+02
       170   1 -1.295902E+05 -3.617165E+03 -1.289912E+04 -1.286129E+03  6.329304E+03  3.946123E+02
       170   2 -1.272822E+05 -6.148672E+02 -1.804289E+04  1.356199E+03  1.352724E+04  4.919643E+02
       170   3 -1.337731E+05 -2.905254E+04 -3.573360E+04  6.329568E+03  2.072543E+04  1.774362E+02
       170   4 -1.110173E+05  1.011960E+03 -8.340529E+03  1.120634E+03  6.430351E+03  3.946772E+02
       170   5 -1.066306E+05  4.526047E+03 -1.298602E+04 -4.032861E+01  1.349010E+04  4.919183E+02
       170   6 -1.110185E+05 -2.337532E+04 -3.008217E+04  1.129726E+03  2.055012E+04  1.771972E+02
       170   7 -9.244405E+04  5.641082E+03 -3.781963E+03  3.527469E+03  6.531401E+03  3.947428E+02
       170   8 -8.597857E+04  9.666936E+03 -7.929186E+03 -1.436903E+03  1.345295E+04  4.918725E+02
       170   9 -8.826335E+04 -1.769804E+04 -2.443077E+04 -4.070306E+03  2.037480E+04  1.769611E+02
       170  10 -1.295902E+05 -3.617176E+03 -1.289919E+04 -1.286131E+03 -2.197748E-09 -1.331564E-10
       170  11 -1.272823E+05 -6.149166E+02 -1.804323E+04  1.356194E+03 -2.565356E-09 -7.275953E-10
       170  12 -1.337735E+05 -2.905265E+04 -3.573441E+04  6.329565E+03 -3.884248E-10 -2.891725E-11
       170  13 -1.110173E+05  1.011949E+03 -8.340607E+03  1.120632E+03  1.436181E-10  2.633216E-09
       170  14 -1.066308E+05  4.525998E+03 -1.298636E+04 -4.033396E+01  1.258303E-09 -3.431814E-10
       170  15 -1.110189E+05 -2.337543E+04 -3.008297E+04  1.129723E+03  2.464131E-10  6.976086E-10
       170  16 -9.244410E+04  5.641070E+03 -3.782043E+03  3.527466E+03  1.265659E-09 -3.913296E-13
       170  17 -8.597876E+04  9.666887E+03 -7.929526E+03 -1.436908E+03  1.283963E-09 -6.800045E-10
       170  18 -8.826380E+04 -1.769815E+04 -2.443155E+04 -4.070309E+03  1.105607E-09 -4.553408E-10
       170  19 -1.295902E+05 -3.617165E+03 -1.289912E+04 -1.286129E+03 -6.329304E+03 -3.946123E+02
       170  20 -1.272822E+05 -6.148672E+02 -1.804289E+04  1.356199E+03 -1.352724E+04 -4.919643E+02
       170  21 -1.337731E+05 -2.905254E+04 -3.573360E+04  6.329568E+03 -2.072543E+04 -1.774362E+02
       170  22 -1.110173E+05  1.011960E+03 -8.340529E+03  1.120634E+03 -6.430351E+03 -3.946772E+02
       170  23 -1.066306E+05  4.526047E+03 -1.298602E+04 -4.032861E+01 -1.349010E+04 -4.919183E+02
       170  24 -1.110185E+05 -2.337532E+04 -3.008217E+04  1.129726E+03 -2.055012E+04 -1.771972E+02
       170  25 -9.244405E+04  5.641082E+03 -3.781963E+03  3.527469E+03 -6.531401E+03 -3.947428E+02
       170  26 -8.597857E+04  9.666936E+03 -7.929186E+03 -1.436903E+03 -1.345295E+04 -4.918725E+02
       170  27 -8.826335E+04 -1.769804E+04 -2.443077E+04 -4.070306E+03 -2.037480E+04 -1.769611E+02
       171   1  4.156728E+04  2.338298E+05  4.448761E+04 -2.183390E+04  1.184864E+03  1.534301E+04
       171   2  1.935172E+04  2.081643E+05  2.766945E+04 -1.202279E+04  3.431710E+03  7.840456E+03
       171   3  1.329166E+04  1.875114E+05  1.977303E+04 -1.220862E+04  2.832703E+03  3.375325E+02
       171   4  1.581056E+04  1.302605E+05  1.926835E+04 -1.447387E+04  1.185676E+03  1.217166E+04
       171   5 -3.085313E+02  1.279684E+05  9.555455E+03 -9.477116E+03  3.431929E+03  7.129303E+03
       171   6 -6.979000E+02  1.302626E+05  7.057156E+03 -1.447725E+04  2.832282E+03  2.086319E+03
       171   7 -9.946742E+03  2.670119E+04 -5.951625E+03 -7.115066E+03  1.186412E+03  9.000836E+03
       171   8 -1.996920E+04  4.777848E+04 -8.558949E+03 -6.931775E+03  3.432143E+03  6.418241E+03
       171   9 -1.468766E+04  7.301679E+04 -5.658910E+03 -1.674566E+04  2.831847E+03  3.834946E+03
       171  10  4.156722E+04  2.338296E+05  4.448716E+04 -2.183391E+04 -1.140620E-10 -4.262632E-10
       171  11  1.935169E+04  2.081642E+05  2.766931E+04 -1.202281E+04  8.356100E-10 -9.484647E-10
       171  12  1.329165E+04  1.875114E+05  1.977302E+04 -1.220862E+04 -1.157428E-09 -3.357403E-10
       171  13  1.581052E+04  1.302604E+05  1.926807E+04 -1.447388E+04 -5.404331E-10  1.078326E-10
       171  14 -3.085576E+02  1.279683E+05  9.555337E+03 -9.477136E+03  8.540425E-10  2.361017E-10
       171  15 -6.979098E+02  1.302626E+05  7.057133E+03 -1.447725E+04 -5.654237E-10  2.528354E-10
       171  16 -9.946765E+03  2.670110E+04 -5.951780E+03 -7.115075E+03 -6.544223E-10  4.833228E-10
       171  17 -1.996923E+04  4.777843E+04 -8.559048E+03 -6.931793E+03  1.386605E-10  4.184771E-10
       171  18 -1.468767E+04  7.301677E+04 -5.658952E+03 -1.674567E+04 -5.056459E-10 -2.049366E-10
       171  19  4.156728E+04  2.338298E+05  4.448761E+04 -2.183390E+04 -1.184864E+03 -1.534301E+04
       171  20  1.935172E+04  2.081643E+05  2.766945E+04 -1.202279E+04 -3.431710E+03 -7.840456E+03
       171  21  1.329166E+04  1.875114E+05  1.977303E+04 -1.220862E+04 -2.832703E+03 -3.375325E+02
       171  22  1.581056E+04  1.302605E+05  1.926835E+04 -1.447387E+04 -1.185676E+03 -1.217166E+04
       171  23 -3.085313E+02  1.279684E+05  9.555455E+03 -9.477116E+03 -3.431929E+03 -7.129303E+03
       171  24 -6.979000E+02  1.302626E+05  7.057156E+03 -1.447725E+04 -2.832282E+03 -2.086319E+03
       171  25 -9.946742E+03  2.670119E+04 -5.951625E+03 -7.115066E+03 -1.186412E+03 -9.000836E+03
       171  26 -1.996920E+04  4.777848E+04 -8.558949E+03 -6.931775E+03 -3.432143E+03 -6.418241E+03
       171  27 -1.468766E+04  7.301679E+04 -5.658910E+03 -1.674566E+04 -2.831847E+03 -3.834946E+03
       172   1  1.003894E+04  1.671914E+05  1.510012E+04 -1.521485E+04  1.811807E+03  2.315098E+01
       172   2  3.433840E+03  1.434601E+05  1.010921E+04 -9.361163E+03  7.208326E+02 -3.464625E+03
       172   3 -1.061885E+02  1.209436E+05  8.153499E+03 -1.361477E+04 -4.028220E+02 -6.952311E+03
       172   4  8.241345E+02  1.295124E+05  6.701037E+03 -1.450089E+04  1.811572E+03  9.525495E+02
       172   5 -1.226441E+02  1.289077E+05  6.876649E+03 -9.447099E+03  7.205835E+02 -2.506905E+03
       172   6  1.990792E+03  1.295124E+05  1.006786E+04 -1.450059E+04 -4.030789E+02 -5.966395E+03
       172   7 -8.390762E+03  9.183469E+04 -1.698134E+03 -1.378698E+04  1.811340E+03  1.881892E+03
       172   8 -3.679142E+03  1.143556E+05  3.644080E+03 -9.533033E+03  7.203342E+02 -1.549206E+03
       172   9  4.087771E+03  1.380814E+05  1.198222E+04 -1.538641E+04 -4.033386E+02 -4.980465E+03
       172  10  1.003893E+04  1.671914E+05  1.510012E+04 -1.521485E+04 -3.320217E-10  5.038453E-10
       172  11  3.433837E+03  1.434600E+05  1.010919E+04 -9.361161E+03  6.528677E-10 -8.235997E-10
       172  12 -1.062016E+02  1.209435E+05  8.153408E+03 -1.361478E+04 -7.989128E-10 -4.071757E-10
       172  13  8.241307E+02  1.295124E+05  6.701029E+03 -1.450089E+04 -3.038830E-10  2.042658E-10
       172  14 -1.226463E+02  1.289077E+05  6.876637E+03 -9.447097E+03 -1.063855E-09  2.247605E-10
       172  15  1.990782E+03  1.295124E+05  1.006779E+04 -1.450059E+04 -6.239283E-10  2.481397E-10
       172  16 -8.390766E+03  9.183468E+04 -1.698147E+03 -1.378698E+04 -8.323443E-10 -3.782647E-10
       172  17 -3.679144E+03  1.143555E+05  3.644074E+03 -9.533032E+03 -8.615224E-10  2.210262E-10
       172  18  4.087765E+03  1.380814E+05  1.198217E+04 -1.538641E+04 -7.991977E-10 -7.596606E-11
       172  19  1.003894E+04  1.671914E+05  1.510012E+04 -1.521485E+04 -1.811807E+03 -2.315098E+01
       172  20  3.433840E+03  1.434601E+05  1.010921E+04 -9.361163E+03 -7.208326E+02  3.464625E+03
       172  21 -1.061885E+02  1.209436E+05  8.153499E+03 -1.361477E+04  4.028220E+02  6.952311E+03
       172  22  8.241345E+02  1.295124E+05  6.701037E+03 -1.450089E+04 -1.811572E+03 -9.525495E+02
       172  23 -1.226441E+02  1.289077E+05  6.876649E+03 -9.447099E+03 -7.205835E+02  2.506905E+03
       172  24  1.990792E+03  1.295124E+05  1.006786E+04 -1.450059E+04  4.030789E+02  5.966395E+03
       172  25 -8.390762E+03  9.183469E+04 -1.698134E+03 -1.378698E+04 -1.811340E+03 -1.881892E+03
       172  26 -3.679142E+03  1.143556E+05  3.644080E+03 -9.533033E+03 -7.203342E+02  1.549206E+03
       172  27  4.087771E+03  1.380814E+05  1.198222E+04 -1.538641E+04  4.033386E+02  4.980465E+03
       173   1 -8.585166E+03  1.033106E+05  5.760686E+03 -1.949643E+04 -1.356140E+03 -9.320855E+03
       173   2 -1.318990E+04  7.540332E+04  7.709356E+03 -4.012498E+03 -2.124349E+03 -1.772257E+04
       173   3  1.596646E+04  5.702699E+04  2.356724E+04  1.448509E+03 -7.816367E+02 -2.612332E+04
       173   4 -1.711967E+03  1.314318E+05  1.202510E+04 -1.448420E+04 -1.356632E+03 -7.743577E+03
       173   5 -6.514258E+02  1.265077E+05  1.928726E+04 -9.468759E+03 -2.124120E+03 -1.797031E+04
       173   6  3.448491E+04  1.314290E+05  4.172470E+04 -1.447576E+04 -7.804817E+02 -2.819639E+04
       173   7  5.161274E+03  1.595538E+05  1.828948E+04 -9.471744E+03 -1.357099E+03 -6.166228E+03
       173   8  1.188698E+04  1.776145E+05  3.086500E+04 -1.492547E+04 -2.123887E+03 -1.821807E+04
       173   9  5.300391E+04  2.058367E+05  5.988192E+04 -3.040193E+04 -7.792205E+02 -3.026970E+04
       173  10 -8.585191E+03  1.033105E+05  5.760519E+03 -1.949644E+04 -3.185221E-10 -1.164397E-10
       173  11 -1.318999E+04  7.540298E+04  7.708757E+03 -4.012529E+03  1.531515E-10 -9.214089E-10
       173  12  1.596628E+04  5.702626E+04  2.356595E+04  1.448493E+03 -1.006987E-09 -6.218502E-10
       173  13 -1.711985E+03  1.314317E+05  1.202498E+04 -1.448421E+04 -5.199441E-10  3.136237E-10
       173  14 -6.515174E+02  1.265073E+05  1.928664E+04 -9.468790E+03 -6.997687E-10  2.530980E-10
       173  15  3.448470E+04  1.314282E+05  4.172321E+04 -1.447577E+04  9.245817E-10  2.665731E-10
       173  16  5.161261E+03  1.595537E+05  1.828940E+04 -9.471751E+03  2.144341E-10  2.495185E-10
       173  17  1.188689E+04  1.776142E+05  3.086437E+04 -1.492550E+04  8.869223E-10  2.825494E-10
       173  18  5.300367E+04  2.058357E+05  5.988020E+04 -3.040195E+04  7.482512E-10  2.354315E-10
       173  19 -8.585166E+03  1.033106E+05  5.760686E+03 -1.949643E+04  1.356140E+03  9.320855E+03
       173  20 -1.318990E+04  7.540332E+04  7.709356E+03 -4.012498E+03  2.124349E+03  1.772257E+04
       173  21  1.596646E+04  5.702699E+04  2.356724E+04  1.448509E+03  7.816367E+02  2.612332E+04
       173  22 -1.711967E+03  1.314318E+05  1.202510E+04 -1.448420E+04  1.356632E+03  7.743577E+03
       173  23 -6.514258E+02  1.265077E+05  1.928726E+04 -9.468759E+03  2.124120E+03  1.797031E+04
       173  24  3.448491E+04  1.314290E+05  4.172470E+04 -1.447576E+04  7.804817E+02  2.819639E+04
       173  25  5.161274E+03  1.595538E+05  1.828948E+04 -9.471744E+03  1.357099E+03  6.166228E+03
       173  26  1.188698E+04  1.776145E+05  3.086500E+04 -1.492547E+04  2.123887E+03  1.821807E+04
       173  27  5.300391E+04  2.058367E+05  5.988192E+04 -3.040193E+04  7.792205E+02  3.026970E+04
       174   1  8.260205E+03  2.875498E+03 -2.150934E+03 -2.300586E+03 -1.446774E+04 -9.048316E+02
       174   2  3.786475E+03  2.183566E+04  8.401492E+03 -4.064001E+02 -1.002793E+04 -2.704301E+03
       174   3 -6.809185E+03  1.861687E+04  1.051955E+04  6.557799E+03 -5.588985E+03 -2.504265E+03
       174   4 -7.801483E+04 -1.862360E+04 -2.339614E+04  3.971946E+03 -1.601229E+04 -9.055764E+02
       174   5 -7.485718E+04  2.370078E+03 -1.028947E+04  1.432997E+03 -1.046946E+04 -2.704541E+03
       174   6 -7.801390E+04  9.916979E+02 -6.384049E+03  3.964128E+03 -4.927416E+03 -2.503951E+03
       174   7 -1.642830E+05 -4.012309E+04 -4.464187E+04  1.024360E+04 -1.755663E+04 -9.063525E+02
       174   8 -1.534951E+05 -1.709593E+04 -2.898086E+04  3.272160E+03 -1.091093E+04 -2.704783E+03
       174   9 -1.492139E+05 -1.663381E+04 -2.328799E+04  1.370756E+03 -4.265923E+03 -2.503643E+03
       174  10  8.259980E+03  2.875441E+03 -2.151329E+03 -2.300597E+03 -1.597207E-09  3.607538E-10
       174  11  3.786365E+03  2.183562E+04  8.401289E+03 -4.064219E+02 -9.420207E-10  1.786968E-09
       174  12 -6.809220E+03  1.861685E+04  1.051948E+04  6.557787E+03  1.514462E-10  9.481258E-10
       174  13 -7.801511E+04 -1.862367E+04 -2.339662E+04  3.971934E+03  2.544669E-10 -3.652840E-10
       174  14 -7.485730E+04  2.370040E+03 -1.028969E+04  1.432975E+03  1.328056E-10 -6.389636E-10
       174  15 -7.801393E+04  9.916846E+02 -6.384107E+03  3.964118E+03  3.932215E-10 -8.532655E-11
       174  16 -1.642833E+05 -4.012318E+04 -4.464245E+04  1.024359E+04  6.379441E-10  2.049816E-10
       174  17 -1.534953E+05 -1.709597E+04 -2.898110E+04  3.272136E+03 -3.574275E-10  1.502602E-09
       174  18 -1.492140E+05 -1.663382E+04 -2.328804E+04  1.370748E+03  2.217983E-10 -4.292982E-10
       174  19  8.260205E+03  2.875498E+03 -2.150934E+03 -2.300586E+03  1.446774E+04  9.048316E+02
       174  20  3.786475E+03  2.183566E+04  8.401492E+03 -4.064001E+02  1.002793E+04  2.704301E+03
       174  21 -6.809185E+03  1.861687E+04  1.051955E+04  6.557799E+03  5.588985E+03  2.504265E+03
       174  22 -7.801483E+04 -1.862360E+04 -2.339614E+04  3.971946E+03  1.601229E+04  9.055764E+02
       174  23 -7.485718E+04  2.370078E+03 -1.028947E+04  1.432997E+03  1.046946E+04  2.704541E+03
       174  24 -7.801390E+04  9.916979E+02 -6.384049E+03  3.964128E+03  4.927416E+03  2.503951E+03
       174  25 -1.642830E+05 -4.012309E+04 -4.464187E+04  1.024360E+04  1.755663E+04  9.063525E+02
       174  26 -1.534951E+05 -1.709593E+04 -2.898086E+04  3.272160E+03  1.091093E+04  2.704783E+03
       174  27 -1.492139E+05 -1.663381E+04 -2.328799E+04  1.370756E+03  4.265923E+03  2.503643E+03
       175   1 -1.475983E+04  1.353610E+04  9.575943E+03  3.456624E+03 -4.009259E+03 -2.043411E+03
       175   2 -2.193055E+04  1.373004E+04  1.028441E+04  1.298017E+03 -2.721015E+03 -1.863927E+03
       175   3 -2.982152E+04  1.172843E+04  9.604550E+03  4.271125E+03 -1.432903E+03 -1.550452E+03
       175   4 -7.677350E+04 -1.820691E+03 -5.194476E+03  3.980937E+03 -3.947253E+03 -2.043398E+03
       175   5 -7.640670E+04  2.443274E+02 -2.665981E+03  1.414579E+03 -2.585173E+03 -1.863868E+03
       175   6 -7.677322E+04  1.008370E+02 -1.577220E+03  3.979974E+03 -1.223209E+03 -1.550344E+03
       175   7 -1.387836E+05 -1.717776E+04 -1.996516E+04  4.505198E+03 -3.885253E+03 -2.043384E+03
       175   8 -1.308801E+05 -1.324160E+04 -1.561658E+04  1.531131E+03 -2.449342E+03 -1.863810E+03
       175   9 -1.237229E+05 -1.152692E+04 -1.275914E+04  3.688846E+03 -1.013531E+03 -1.550236E+03
       175  10 -1.475985E+04  1.353609E+04  9.575905E+03  3.456617E+03  6.531909E-11 -6.431522E-10
       175  11 -2.193056E+04  1.373003E+04  1.028439E+04  1.298013E+03  2.503776E-10 -4.948774E-11
       175  12 -2.982152E+04  1.172843E+04  9.604541E+03  4.271123E+03  7.663715E-10  1.910990E-09
       175  13 -7.677352E+04 -1.820700E+03 -5.194513E+03  3.980931E+03  7.442577E-10  1.302718E-09
       175  14 -7.640671E+04  2.443219E+02 -2.666000E+03  1.414576E+03 -1.027041E-10 -3.186506E-09
       175  15 -7.677322E+04  1.008340E+02 -1.577227E+03  3.979973E+03 -7.630332E-10  1.445962E-09
       175  16 -1.387837E+05 -1.717776E+04 -1.996520E+04  4.505192E+03 -1.286690E-10 -1.601143E-09
       175  17 -1.308801E+05 -1.324160E+04 -1.561660E+04  1.531127E+03 -1.111908E-10 -5.694150E-10
       175  18 -1.237229E+05 -1.152692E+04 -1.275915E+04  3.688844E+03 -3.994179E-11  4.688755E-10
       175  19 -1.475983E+04  1.353610E+04  9.575943E+03  3.456624E+03  4.009259E+03  2.043411E+03
       175  20 -2.193055E+04  1.373004E+04  1.028441E+04  1.298017E+03  2.721015E+03  1.863927E+03
       175  21 -2.982152E+04  1.172843E+04  9.604550E+03  4.271125E+03  1.432903E+03  1.550452E+03
       175  22 -7.677350E+04 -1.820691E+03 -5.194476E+03  3.980937E+03  3.947253E+03  2.043398E+03
       175  23 -7.640670E+04  2.443274E+02 -2.665981E+03  1.414579E+03  2.585173E+03  1.863868E+03
       175  24 -7.677322E+04  1.008370E+02 -1.577220E+03  3.979974E+03  1.223209E+03  1.550344E+03
       175  25 -1.387836E+05 -1.717776E+04 -1.996516E+04  4.505198E+03  3.885253E+03  2.043384E+03
       175  26 -1.308801E+05 -1.324160E+04 -1.561658E+04  1.531131E+03  2.449342E+03  1.863810E+03
       175  27 -1.237229E+05 -1.152692E+04 -1.275914E+04  3.688846E+03  1.013531E+03  1.550236E+03
       176   1 -3.887757E+04  9.172122E+03  7.725938E+03  3.964035E+03 -1.145200E+03 -1.345082E+03
       176   2 -4.636686E+04  7.507576E+03  6.507230E+03  1.422106E+03 -8.121529E+02 -1.033088E+03
       176   3 -5.395893E+04  5.631769E+03  5.017433E+03  4.024165E+03 -4.791285E+02 -7.120078E+02
       176   4 -7.663308E+04 -1.706761E+02 -1.230370E+03  3.983067E+03 -9.755620E+02 -1.344992E+03
       176   5 -7.658123E+04  2.769244E+01 -6.757733E+02  1.411013E+03 -6.375185E+02 -1.032990E+03
       176   6 -7.663296E+04  1.395624E+01 -3.957176E+02  3.982962E+03 -2.994939E+02 -7.119024E+02
       176   7 -1.143873E+05 -9.513577E+03 -1.018678E+04  4.002098E+03 -8.059340E+02 -1.344902E+03
       176   8 -1.067948E+05 -7.452257E+03 -7.858841E+03  1.399920E+03 -4.628925E+02 -1.032893E+03
       176   9 -9.930653E+04 -5.603894E+03 -5.808905E+03  3.941760E+03 -1.198658E+02 -7.117970E+02
       176  10 -3.887757E+04  9.172120E+03  7.725932E+03  3.964033E+03  1.208210E-09 -5.363487E-11
       176  11 -4.636687E+04  7.507575E+03  6.507227E+03  1.422105E+03 -8.091610E-10 -4.853937E-10
       176  12 -5.395893E+04  5.631769E+03  5.017432E+03  4.024165E+03 -8.987005E-10 -1.215505E-10
       176  13 -7.663308E+04 -1.706783E+02 -1.230375E+03  3.983066E+03  8.374139E-10  1.817466E-11
       176  14 -7.658123E+04  2.769118E+01 -6.757761E+02  1.411012E+03 -1.587224E-09 -1.551358E-09
       176  15 -7.663296E+04  1.395567E+01 -3.957187E+02  3.982961E+03  3.614895E-12 -4.312266E-10
       176  16 -1.143873E+05 -9.513579E+03 -1.018678E+04  4.002097E+03 -1.645740E-09 -1.272480E-09
       176  17 -1.067948E+05 -7.452258E+03 -7.858843E+03  1.399920E+03 -9.109597E-10 -4.939837E-11
       176  18 -9.930653E+04 -5.603894E+03 -5.808906E+03  3.941760E+03  4.342024E-10  1.968123E-09
       176  19 -3.887757E+04  9.172122E+03  7.725938E+03  3.964035E+03  1.145200E+03  1.345082E+03
       176  20 -4.636686E+04  7.507576E+03  6.507230E+03  1.422106E+03  8.121529E+02  1.033088E+03
       176  21 -5.395893E+04  5.631769E+03  5.017433E+03  4.024165E+03  4.791285E+02  7.120078E+02
       176  22 -7.663308E+04 -1.706761E+02 -1.230370E+03  3.983067E+03  9.755620E+02  1.344992E+03
       176  23 -7.658123E+04  2.769244E+01 -6.757733E+02  1.411013E+03  6.375185E+02  1.032990E+03
       176  24 -7.663296E+04  1.395624E+01 -3.957176E+02  3.982962E+03  2.994939E+02  7.119024E+02
       176  25 -1.143873E+05 -9.513577E+03 -1.018678E+04  4.002098E+03  8.059340E+02  1.344902E+03
       176  26 -1.067948E+05 -7.452257E+03 -7.858841E+03  1.399920E+03  4.628925E+02  1.032893E+03
       176  27 -9.930653E+04 -5.603894E+03 -5.808905E+03  3.941760E+03  1.198658E+02  7.117970E+02
       177   1 -6.314668E+04  3.318657E+03  2.873199E+03  3.990956E+03 -4.136298E+02 -5.236026E+02
       177   2 -7.068081E+04  1.471189E+03  1.227619E+03  1.415183E+03 -3.245921E+02 -2.026032E+02
       177   3 -7.823811E+04 -3.919562E+02 -4.815190E+02  3.986760E+03 -2.355596E+02  1.189749E+02
       177   4 -7.661502E+04 -1.108031E+01 -3.060697E+02  3.983746E+03 -2.366395E+02 -5.234968E+02
       177   5 -7.660338E+04  4.968334E+00 -1.804052E+02  1.410064E+03 -1.472852E+02 -2.024964E+02
       177   6 -7.661500E+04  5.288077E+00 -1.185172E+02  3.983736E+03 -5.793496E+01  1.190830E+02
       177   7 -9.008321E+04 -3.340830E+03 -3.485351E+03  3.976535E+03 -5.965300E+01 -5.233910E+02
       177   8 -8.252592E+04 -1.461255E+03 -1.588432E+03  1.404946E+03  3.002009E+01 -2.023896E+02
       177   9 -7.499190E+04  4.025322E+02  2.444846E+02  3.980712E+03  1.196902E+02  1.191910E+02
       177  10 -6.314668E+04  3.318656E+03  2.873198E+03  3.990956E+03 -1.387916E-10 -9.863714E-10
       177  11 -7.068081E+04  1.471189E+03  1.227619E+03  1.415183E+03 -2.018862E-09  3.354267E-10
       177  12 -7.823811E+04 -3.919562E+02 -4.815191E+02  3.986760E+03 -1.378958E-09 -6.459453E-10
       177  13 -7.661502E+04 -1.108062E+01 -3.060703E+02  3.983746E+03  3.226027E-10  8.059843E-10
       177  14 -7.660338E+04  4.968285E+00 -1.804053E+02  1.410064E+03  5.575396E-11 -1.872879E-09
       177  15 -7.661500E+04  5.288061E+00 -1.185172E+02  3.983736E+03  2.100888E-10 -9.278335E-10
       177  16 -9.008321E+04 -3.340831E+03 -3.485351E+03  3.976535E+03 -8.503971E-10  1.038691E-09
       177  17 -8.252592E+04 -1.461255E+03 -1.588432E+03  1.404946E+03 -4.199442E-11  1.269430E-09
       177  18 -7.499190E+04  4.025321E+02  2.444846E+02  3.980712E+03  6.986339E-10  2.801492E-10
       177  19 -6.314668E+04  3.318657E+03  2.873199E+03  3.990956E+03  4.136298E+02  5.236026E+02
       177  20 -7.068081E+04  1.471189E+03  1.227619E+03  1.415183E+03  3.245921E+02  2.026032E+02
       177  21 -7.823811E+04 -3.919562E+02 -4.815190E+02  3.986760E+03  2.355596E+02 -1.189749E+02
       177  22 -7.661502E+04 -1.108031E+01 -3.060697E+02  3.983746E+03  2.366395E+02  5.234968E+02
       177  23 -7.660338E+04  4.968334E+00 -1.804052E+02  1.410064E+03  1.472852E+02  2.024964E+02
       177  24 -7.661500E+04  5.288077E+00 -1.185172E+02  3.983736E+03  5.793496E+01 -1.190830E+02
       177  25 -9.008321E+04 -3.340830E+03 -3.485351E+03  3.976535E+03  5.965300E+01  5.233910E+02
       177  26 -8.252592E+04 -1.461255E+03 -1.588432E+03  1.404946E+03 -3.002009E+01  2.023896E+02
       177  27 -7.499190E+04  4.025322E+02  2.444846E+02  3.980712E+03 -1.196902E+02 -1.191910E+02
       178   1 -8.744346E+04 -2.681957E+03 -2.699868E+03  3.978655E+03 -2.157661E+02  3.063432E+02
       178   2 -9.498036E+04 -4.545889E+03 -4.459710E+03  1.402372E+03 -1.702676E+02  6.278515E+02
       178   3 -1.025309E+05 -6.412137E+03 -6.251320E+03  3.972426E+03 -1.247581E+02  9.486329E+02
       178   4 -7.661292E+04  3.904293E+00 -1.021216E+02  3.983510E+03 -3.812689E+01  3.064506E+02
       178   5 -7.660608E+04  2.994852E+00 -9.136640E+01  1.410348E+03  6.969110E+00  6.279556E+02
       178   6 -7.661297E+04 -1.841245E-01 -1.121258E+02  3.983513E+03  5.207655E+01  9.487339E+02
       178   7 -6.578226E+04  2.689757E+03  2.495617E+03  3.988366E+03  1.395154E+02  3.065580E+02
       178   8 -5.823149E+04  4.551855E+03  4.276954E+03  1.418324E+03  1.842110E+02  6.280597E+02
       178   9 -5.069444E+04  6.411721E+03  6.027022E+03  3.994600E+03  2.289186E+02  9.488349E+02
       178  10 -8.744346E+04 -2.681957E+03 -2.699869E+03  3.978655E+03 -3.816619E-10 -3.037354E-10
       178  11 -9.498036E+04 -4.545890E+03 -4.459711E+03  1.402372E+03  3.558204E-10 -1.387754E-09
       178  12 -1.025309E+05 -6.412138E+03 -6.251322E+03  3.972426E+03 -1.380080E-09 -1.501608E-09
       178  13 -7.661292E+04  3.904192E+00 -1.021218E+02  3.983510E+03  2.648660E-10  4.258221E-10
       178  14 -7.660608E+04  2.994428E+00 -9.136714E+01  1.410348E+03  2.698098E-10 -9.724534E-10
       178  15 -7.661297E+04 -1.850917E-01 -1.121275E+02  3.983513E+03 -1.496856E-10 -1.018935E-09
       178  16 -6.578226E+04  2.689756E+03  2.495617E+03  3.988366E+03  6.645470E-10  1.980205E-10
       178  17 -5.823149E+04  4.551854E+03  4.276953E+03  1.418324E+03 -8.963367E-10 -3.202724E-09
       178  18 -5.069444E+04  6.411720E+03  6.027020E+03  3.994600E+03  1.059512E-10 -1.243070E-09
       178  19 -8.744346E+04 -2.681957E+03 -2.699868E+03  3.978655E+03  2.157661E+02 -3.063432E+02
       178  20 -9.498036E+04 -4.545889E+03 -4.459710E+03  1.402372E+03  1.702676E+02 -6.278515E+02
       178  21 -1.025309E+05 -6.412137E+03 -6.251320E+03  3.972426E+03  1.247581E+02 -9.486329E+02
       178  22 -7.661292E+04  3.904293E+00 -1.021216E+02  3.983510E+03  3.812689E+01 -3.064506E+02
       178  23 -7.660608E+04  2.994852E+00 -9.136640E+01  1.410348E+03 -6.969110E+00 -6.279556E+02
       178  24 -7.661297E+04 -1.841245E-01 -1.121258E+02  3.983513E+03 -5.207655E+01 -9.487339E+02
       178  25 -6.578226E+04  2.689757E+03  2.495617E+03  3.988366E+03 -1.395154E+02 -3.065580E+02
       178  26 -5.823149E+04  4.551855E+03  4.276954E+03  1.418324E+03 -1.842110E+02 -6.280597E+02
       178  27 -5.069444E+04  6.411721E+03  6.027022E+03  3.994600E+03 -2.289186E+02 -9.488349E+02
       179   1 -1.117364E+05 -8.691725E+03 -8.505136E+03  3.957945E+03 -1.058286E+02  1.137095E+03
       179   2 -1.192544E+05 -1.055081E+04 -1.034939E+04  1.395533E+03  4.074755E+00  1.457794E+03
       179   3 -1.268070E+05 -1.246965E+04 -1.228134E+04  3.972556E+03  1.140109E+02  1.768134E+03
       179   4 -7.661754E+04  7.218770E+00 -1.331427E+02  3.981966E+03  7.399851E+01  1.137194E+03
       179   5 -7.660082E+04  8.997402E+00 -2.087033E+02  1.412273E+03  1.781908E+02  1.457884E+03
       179   6 -7.661768E+04 -4.794777E+01 -3.679566E+02  3.981995E+03  2.824171E+02  1.768213E+03
       179   7 -4.149753E+04  8.706074E+03  8.238764E+03  4.005987E+03  2.538357E+02  1.137294E+03
       179   8 -3.394556E+04  1.056868E+04  9.931859E+03  1.429015E+03  3.523188E+02  1.457973E+03
       179   9 -2.642602E+04  1.237358E+04  1.154526E+04  3.991435E+03  4.508369E+02  1.768293E+03
       179  10 -1.117364E+05 -8.691727E+03 -8.505139E+03  3.957945E+03 -1.279359E-09 -2.400768E-10
       179  11 -1.192544E+05 -1.055082E+04 -1.034940E+04  1.395533E+03 -1.506252E-09 -9.673465E-10
       179  12 -1.268070E+05 -1.246966E+04 -1.228135E+04  3.972556E+03 -1.406750E-10 -1.242888E-11
       179  13 -7.661754E+04  7.217380E+00 -1.331452E+02  3.981965E+03 -2.321668E-10 -1.070676E-10
       179  14 -7.660082E+04  8.995112E+00 -2.087074E+02  1.412273E+03 -5.390057E-10  1.247415E-09
       179  15 -7.661768E+04 -4.795115E+01 -3.679627E+02  3.981995E+03  5.055712E-10  1.788092E-09
       179  16 -4.149753E+04  8.706072E+03  8.238762E+03  4.005987E+03  4.867084E-10  1.486056E-09
       179  17 -3.394556E+04  1.056868E+04  9.931855E+03  1.429015E+03  2.301412E-10  3.393293E-10
       179  18 -2.642602E+04  1.237357E+04  1.154525E+04  3.991434E+03  5.315640E-12  2.111277E-09
       179  19 -1.117364E+05 -8.691725E+03 -8.505136E+03  3.957945E+03  1.058286E+02 -1.137095E+03
       179  20 -1.192544E+05 -1.055081E+04 -1.034939E+04  1.395533E+03 -4.074755E+00 -1.457794E+03
       179  21 -1.268070E+05 -1.246965E+04 -1.228134E+04  3.972556E+03 -1.140109E+02 -1.768134E+03
       179  22 -7.661754E+04  7.218770E+00 -1.331427E+02  3.981966E+03 -7.399851E+01 -1.137194E+03
       179  23 -7.660082E+04  8.997402E+00 -2.087033E+02  1.412273E+03 -1.781908E+02 -1.457884E+03
       179  24 -7.661768E+04 -4.794777E+01 -3.679566E+02  3.981995E+03 -2.824171E+02 -1.768213E+03
       179  25 -4.149753E+04  8.706074E+03  8.238764E+03  4.005987E+03 -2.538357E+02 -1.137294E+03
       179  26 -3.394556E+04  1.056868E+04  9.931859E+03  1.429015E+03 -3.523188E+02 -1.457973E+03
       179  27 -2.642602E+04  1.237358E+04  1.154526E+04  3.991435E+03 -4.508369E+02 -1.768293E+03
       180   1 -1.360347E+05 -1.467174E+04 -1.460457E+04  3.875876E+03  1.422652E+02  1.975691E+03
       180   2 -1.434405E+05 -1.648800E+04 -1.669082E+04  1.433166E+03  6.286895E+02  2.287308E+03
       180   3 -1.510769E+05 -1.896601E+04 -1.925967E+04  4.115869E+03  1.115215E+03  2.446712E+03
       180   4 -7.665849E+04  3.221927E+01 -4.686867E+02  3.978776E+03  3.561399E+02  1.975788E+03
       180   5 -7.655060E+04  7.215177E+01 -7.881459E+02  1.416215E+03  7.585962E+02  2.287353E+03
       180   6 -7.665874E+04 -5.350337E+02 -1.531852E+03  3.979034E+03  1.161159E+03  2.446712E+03
       180   7 -1.727907E+04  1.473593E+04  1.366695E+04  4.081686E+03  5.700349E+02  1.975885E+03
       180   8 -9.656618E+03  1.663198E+04  1.511422E+04  1.399262E+03  8.885168E+02  2.287398E+03
       180   9 -2.235534E+03  1.789554E+04  1.619558E+04  3.842181E+03  1.207109E+03  2.446712E+03
       180  10 -1.360347E+05 -1.467175E+04 -1.460458E+04  3.875875E+03 -1.686473E-10  1.651382E-09
       180  11 -1.434405E+05 -1.648801E+04 -1.669083E+04  1.433165E+03 -5.420661E-09  2.459962E-09
       180  12 -1.510769E+05 -1.896601E+04 -1.925969E+04  4.115867E+03 -6.277994E-09 -1.051826E-09
       180  13 -7.665849E+04  3.221504E+01 -4.686943E+02  3.978776E+03 -2.107044E-10 -3.155365E-10
       180  14 -7.655060E+04  7.214600E+01 -7.881568E+02  1.416214E+03  4.543919E-10 -9.222557E-10
       180  15 -7.665874E+04 -5.350405E+02 -1.531866E+03  3.979031E+03 -1.319747E-09 -4.219700E-09
       180  16 -1.727907E+04  1.473592E+04  1.366694E+04  4.081685E+03  2.393562E-10  3.321211E-10
       180  17 -9.656620E+03  1.663198E+04  1.511420E+04  1.399260E+03  4.758169E-09 -2.312644E-09
       180  18 -2.235537E+03  1.789553E+04  1.619557E+04  3.842178E+03  5.417226E-09  3.785140E-12
       180  19 -1.360347E+05 -1.467174E+04 -1.460457E+04  3.875876E+03 -1.422652E+02 -1.975691E+03
       180  20 -1.434405E+05 -1.648800E+04 -1.669082E+04  1.433166E+03 -6.286895E+02 -2.287308E+03
       180  21 -1.510769E+05 -1.896601E+04 -1.925967E+04  4.115869E+03 -1.115215E+03 -2.446712E+03
       180  22 -7.665849E+04  3.221927E+01 -4.686867E+02  3.978776E+03 -3.561399E+02 -1.975788E+03
       180  23 -7.655060E+04  7.215177E+01 -7.881459E+02  1.416215E+03 -7.585962E+02 -2.287353E+03
       180  24 -7.665874E+04 -5.350337E+02 -1.531852E+03  3.979034E+03 -1.161159E+03 -2.446712E+03
       180  25 -1.727907E+04  1.473593E+04  1.366695E+04  4.081686E+03 -5.700349E+02 -1.975885E+03
       180  26 -9.656618E+03  1.663198E+04  1.511422E+04  1.399262E+03 -8.885168E+02 -2.287398E+03
       180  27 -2.235534E+03  1.789554E+04  1.619558E+04  3.842181E+03 -1.207109E+03 -2.446712E+03
       181   1 -1.606234E+05 -2.039835E+04 -2.172704E+04  3.178851E+03  7.229834E+02  2.943678E+03
       181   2 -1.671078E+05 -2.183363E+04 -2.466617E+04  1.961959E+03  3.609843E+03  3.126052E+03
       181   3 -1.756665E+05 -3.007462E+04 -3.118588E+04  5.795345E+03  6.497354E+03  1.036848E+03
       181   4 -7.702361E+04  2.936688E+02 -1.881854E+03  3.961559E+03  1.449959E+03  2.943953E+03
       181   5 -7.609566E+04  6.975071E+02 -3.032970E+03  1.437386E+03  3.083389E+03  3.125828E+03
       181   6 -7.702412E+04 -5.486212E+03 -6.893833E+03  3.963485E+03  4.717529E+03  1.036260E+03
       181   7  6.582579E+03  2.098519E+04  1.796285E+04  4.744371E+03  2.177033E+03  2.944230E+03
       181   8  1.492413E+04  2.322805E+04  1.859965E+04  9.127344E+02  2.556858E+03  3.125605E+03
       181   9  2.162713E+04  1.910148E+04  1.739751E+04  2.131332E+03  2.937421E+03  1.035682E+03
       181  10 -1.606234E+05 -2.039836E+04 -2.172706E+04  3.178849E+03  5.254970E-09 -1.291560E-10
       181  11 -1.671079E+05 -2.183365E+04 -2.466621E+04  1.961950E+03  4.393450E-09  1.374917E-09
       181  12 -1.756665E+05 -3.007463E+04 -3.118596E+04  5.795340E+03  2.382725E-09  2.189067E-09
       181  13 -7.702362E+04  2.936589E+02 -1.881875E+03  3.961555E+03 -3.237358E-10 -4.039278E-09
       181  14 -7.609567E+04  6.974940E+02 -3.033007E+03  1.437378E+03 -1.078206E-09 -7.792859E-10
       181  15 -7.702414E+04 -5.486220E+03 -6.893877E+03  3.963481E+03  3.911031E-10  2.737438E-10
       181  16  6.582572E+03  2.098518E+04  1.796282E+04  4.744366E+03 -6.498045E-09  1.497569E-09
       181  17  1.492412E+04  2.322804E+04  1.859962E+04  9.127280E+02 -6.495613E-09  2.112546E-09
       181  18  2.162712E+04  1.910148E+04  1.739749E+04  2.131330E+03 -2.595463E-09  3.731427E-10
       181  19 -1.606234E+05 -2.039835E+04 -2.172704E+04  3.178851E+03 -7.229834E+02 -2.943678E+03
       181  20 -1.671078E+05 -2.183363E+04 -2.466617E+04  1.961959E+03 -3.609843E+03 -3.126052E+03
       181  21 -1.756665E+05 -3.007462E+04 -3.118588E+04  5.795345E+03 -6.497354E+03 -1.036848E+03
       181  22 -7.702361E+04  2.936688E+02 -1.881854E+03  3.961559E+03 -1.449959E+03 -2.943953E+03
       181  23 -7.609566E+04  6.975071E+02 -3.032970E+03  1.437386E+03 -3.083389E+03 -3.125828E+03
       181  24 -7.702412E+04 -5.486212E+03 -6.893833E+03  3.963485E+03 -4.717529E+03 -1.036260E+03
       181  25  6.582579E+03  2.098519E+04  1.796285E+04  4.744371E+03 -2.177033E+03 -2.944230E+03
       181  26  1.492413E+04  2.322805E+04  1.859965E+04  9.127344E+02 -2.556858E+03 -3.125605E+03
       181  27  2.162713E+04  1.910148E+04  1.739751E+04  2.131332E+03 -2.937421E+03 -1.035682E+03
       182   1 -6.638347E+04 -2.440674E+05 -6.538544E+04  5.527851E+04 -2.685667E+03 -1.947902E+04
       182   2 -4.391787E+04 -1.866942E+05 -4.073845E+04  4.520138E+04 -8.014178E+03 -8.283207E+03
       182   3 -2.886905E+04 -1.326147E+05 -2.523494E+04  4.925074E+04 -7.267315E+03  2.915957E+03
       182   4 -8.812650E+03 -1.178346E+04 -9.869511E+03  5.004041E+04 -2.688700E+03 -7.240053E+03
       182   5 -1.491801E+03 -1.090404E+04 -4.425698E+03  4.297824E+04 -8.014762E+03 -4.934774E+03
       182   6 -4.270425E+01 -1.177715E+04 -1.949150E+03  5.004265E+04 -7.266123E+03 -2.627344E+03
       182   7  4.875445E+04  2.205503E+05  4.564319E+04  4.480035E+04 -2.691940E+03  5.003475E+03
       182   8  4.093234E+04  1.649154E+05  3.188543E+04  4.075446E+04 -8.015369E+03 -1.585409E+03
       182   9  2.878279E+04  1.090745E+05  2.133608E+04  5.083472E+04 -7.264946E+03 -8.171699E+03
       182  10 -6.638358E+04 -2.440678E+05 -6.538617E+04  5.527847E+04  3.542556E-10  1.747346E-09
       182  11 -4.391796E+04 -1.866943E+05 -4.073870E+04  4.520132E+04  5.406206E-10  5.501555E-10
       182  12 -2.886911E+04 -1.326147E+05 -2.523505E+04  4.925076E+04  4.460337E-10 -1.815496E-09
       182  13 -8.812672E+03 -1.178351E+04 -9.869623E+03  5.004040E+04 -4.416042E-11  4.887100E-10
       182  14 -1.491877E+03 -1.090408E+04 -4.425865E+03  4.297820E+04  1.652828E-09 -4.783379E-10
       182  15 -4.276279E+01 -1.177717E+04 -1.949262E+03  5.004263E+04  3.866731E-11  4.675816E-10
       182  16  4.875443E+04  2.205503E+05  4.564313E+04  4.480036E+04  6.254839E-10 -2.061590E-09
       182  17  4.093227E+04  1.649154E+05  3.188530E+04  4.075445E+04  5.709440E-10 -1.756908E-10
       182  18  2.878272E+04  1.090744E+05  2.133585E+04  5.083467E+04  8.366735E-10  1.739264E-09
       182  19 -6.638347E+04 -2.440674E+05 -6.538544E+04  5.527851E+04  2.685667E+03  1.947902E+04
       182  20 -4.391787E+04 -1.866942E+05 -4.073845E+04  4.520138E+04  8.014178E+03  8.283207E+03
       182  21 -2.886905E+04 -1.326147E+05 -2.523494E+04  4.925074E+04  7.267315E+03 -2.915957E+03
       182  22 -8.812650E+03 -1.178346E+04 -9.869511E+03  5.004041E+04  2.688700E+03  7.240053E+03
       182  23 -1.491801E+03 -1.090404E+04 -4.425698E+03  4.297824E+04  8.014762E+03  4.934774E+03
       182  24 -4.270425E+01 -1.177715E+04 -1.949150E+03  5.004265E+04  7.266123E+03  2.627344E+03
       182  25  4.875445E+04  2.205503E+05  4.564319E+04  4.480035E+04  2.691940E+03 -5.003475E+03
       182  26  4.093234E+04  1.649154E+05  3.188543E+04  4.075446E+04  8.015369E+03  1.585409E+03
       182  27  2.878279E+04  1.090745E+05  2.133608E+04  5.083472E+04  7.264946E+03  8.171699E+03
       183   1 -2.018954E+04 -9.440425E+04 -1.707595E+04  5.013822E+04 -5.005955E+03  2.135878E+03
       183   2 -6.486000E+03 -3.874777E+04 -4.491837E+03  4.294173E+04 -1.843268E+03  1.986398E+03
       183   3  7.326038E+03  1.696844E+04  8.218891E+03  5.021867E+04  1.416625E+03  1.836855E+03
       183   4 -3.833580E+02 -1.136807E+04 -1.086514E+03  5.011924E+04 -5.005076E+03 -2.422806E+03
       183   5 -2.218710E+00 -1.140834E+04  5.867085E+02  4.288262E+04 -1.842411E+03 -2.714718E+03
       183   6  5.123444E+02 -1.136707E+04  2.485594E+03  5.011940E+04  1.417450E+03 -3.006682E+03
       183   7  1.942242E+04  7.167480E+04  1.490268E+04  5.010025E+04 -5.004197E+03 -6.982086E+03
       183   8  6.481531E+03  1.593185E+04  5.665305E+03  4.282351E+04 -1.841554E+03 -7.416037E+03
       183   9 -6.301386E+03 -3.970175E+04 -3.247657E+03  5.002013E+04  1.418276E+03 -7.850002E+03
       183  10 -2.018957E+04 -9.440427E+04 -1.707601E+04  5.013823E+04  2.093125E-10  3.054042E-10
       183  11 -6.486005E+03 -3.874777E+04 -4.491851E+03  4.294173E+04  1.172164E-09  9.121027E-10
       183  12  7.326035E+03  1.696843E+04  8.218881E+03  5.021867E+04 -1.014424E-09  5.268259E-11
       183  13 -3.833865E+02 -1.136808E+04 -1.086572E+03  5.011923E+04 -2.965688E-11  4.367829E-10
       183  14 -2.224333E+00 -1.140835E+04  5.866882E+02  4.288262E+04 -1.079272E-09 -5.559873E-10
       183  15  5.123398E+02 -1.136708E+04  2.485573E+03  5.011940E+04 -1.242839E-10  3.278019E-10
       183  16  1.942238E+04  7.167474E+04  1.490254E+04  5.010022E+04  2.374882E-10 -3.915464E-10
       183  17  6.481513E+03  1.593179E+04  5.665195E+03  4.282350E+04  7.670500E-10 -6.996615E-10
       183  18 -6.301405E+03 -3.970182E+04 -3.247777E+03  5.002014E+04  1.000616E-09 -1.465030E-10
       183  19 -2.018954E+04 -9.440425E+04 -1.707595E+04  5.013822E+04  5.005955E+03 -2.135878E+03
       183  20 -6.486000E+03 -3.874777E+04 -4.491837E+03  4.294173E+04  1.843268E+03 -1.986398E+03
       183  21  7.326038E+03  1.696844E+04  8.218891E+03  5.021867E+04 -1.416625E+03 -1.836855E+03
       183  22 -3.833580E+02 -1.136807E+04 -1.086514E+03  5.011924E+04  5.005076E+03  2.422806E+03
       183  23 -2.218710E+00 -1.140834E+04  5.867085E+02  4.288262E+04  1.842411E+03  2.714718E+03
       183  24  5.123444E+02 -1.136707E+04  2.485594E+03  5.011940E+04 -1.417450E+03  3.006682E+03
       183  25  1.942242E+04  7.167480E+04  1.490268E+04  5.010025E+04  5.004197E+03  6.982086E+03
       183  26  6.481531E+03  1.593185E+04  5.665305E+03  4.282351E+04  1.841554E+03  7.416037E+03
       183  27 -6.301386E+03 -3.970175E+04 -3.247657E+03  5.002013E+04 -1.418276E+03  7.850002E+03
       184   1  1.582575E+04  5.531112E+04  1.658761E+04  4.884338E+04  3.693825E+03  2.139414E+03
       184   2  3.153185E+04  1.090669E+05  3.245640E+04  4.631821E+04  5.141276E+03 -8.464721E+03
       184   3  5.743638E+04  1.667673E+05  5.778003E+04  5.800905E+04  1.851804E+03 -1.907114E+04
       184   4  7.771332E+00 -1.077715E+04  3.586928E+03  5.006152E+04  3.694839E+03 -3.444428E+03
       184   5  2.211284E+03 -1.214894E+04  7.053428E+03  4.295516E+04  5.141120E+03 -7.112313E+03
       184   6  1.341060E+04 -1.078139E+04  1.515931E+04  5.006462E+04  1.850213E+03 -1.078159E+04
       184   7 -1.581045E+04 -7.686116E+04 -9.413846E+03  5.127953E+04  3.695830E+03 -9.027688E+03
       184   8 -2.711019E+04 -1.333509E+05 -1.835035E+04  3.959277E+04  5.140950E+03 -5.760164E+03
       184   9 -3.061719E+04 -1.883009E+05 -2.746336E+04  4.212247E+04  1.848411E+03 -2.494407E+03
       184  10  1.582574E+04  5.531111E+04  1.658757E+04  4.884337E+04  5.604171E-11  6.423246E-10
       184  11  3.153181E+04  1.090668E+05  3.245621E+04  4.631825E+04  3.129947E-10  4.566042E-10
       184  12  5.743628E+04  1.667669E+05  5.777934E+04  5.800908E+04  6.354555E-10 -5.890662E-10
       184  13  7.753486E+00 -1.077716E+04  3.586880E+03  5.006153E+04  1.358763E-10  5.562072E-10
       184  14  2.211242E+03 -1.214900E+04  7.053283E+03  4.295519E+04  2.650119E-10 -6.096642E-10
       184  15  1.341057E+04 -1.078151E+04  1.515909E+04  5.006464E+04  1.320138E-09  2.662734E-10
       184  16 -1.581049E+04 -7.686125E+04 -9.414025E+03  5.127956E+04  8.655746E-10 -1.121458E-09
       184  17 -2.711022E+04 -1.333509E+05 -1.835046E+04  3.959279E+04 -1.637621E-10 -3.395823E-10
       184  18 -3.061719E+04 -1.883009E+05 -2.746337E+04  4.212247E+04  1.725518E-10  6.482664E-10
       184  19  1.582575E+04  5.531112E+04  1.658761E+04  4.884338E+04 -3.693825E+03 -2.139414E+03
       184  20  3.153185E+04  1.090669E+05  3.245640E+04  4.631821E+04 -5.141276E+03  8.464721E+03
       184  21  5.743638E+04  1.667673E+05  5.778003E+04  5.800905E+04 -1.851804E+03  1.907114E+04
       184  22  7.771332E+00 -1.077715E+04  3.586928E+03  5.006152E+04 -3.694839E+03  3.444428E+03
       184  23  2.211284E+03 -1.214894E+04  7.053428E+03  4.295516E+04 -5.141120E+03  7.112313E+03
       184  24  1.341060E+04 -1.078139E+04  1.515931E+04  5.006462E+04 -1.850213E+03  1.078159E+04
       184  25 -1.581045E+04 -7.686116E+04 -9.413846E+03  5.127953E+04 -3.695830E+03  9.027688E+03
       184  26 -2.711019E+04 -1.333509E+05 -1.835035E+04  3.959277E+04 -5.140950E+03  5.760164E+03
       184  27 -3.061719E+04 -1.883009E+05 -2.746336E+04  4.212247E+04 -1.848411E+03  2.494407E+03
       185   1  1.833830E+05  6.578499E+04  3.917894E+04  6.696426E+04  1.639084E+04  5.041721E+03
       185   2  1.778024E+05  4.337803E+04  2.450144E+04  6.567526E+04  1.060179E+04  4.817204E+02
       185   3  1.774580E+05  3.849249E+04  1.906190E+04  6.222696E+04  4.081252E+03 -2.129461E+03
       185   4  1.199824E+05  3.463278E+04  2.088051E+04  4.215050E+04  1.370213E+04  4.032045E+03
       185   5  1.164021E+05  1.801105E+04  9.066916E+03  4.624536E+04  9.621875E+03  1.137299E+02
       185   6  1.177201E+05  1.857324E+04  5.138493E+03  4.818085E+04  4.809981E+03 -1.855850E+03
       185   7  5.658675E+04  3.482222E+03  2.582024E+03  1.733971E+04  1.101377E+04  3.022577E+03
       185   8  5.500577E+04 -7.355316E+03 -6.367826E+03  2.681738E+04  8.642066E+03 -2.542096E+02
       185   9  5.798542E+04 -1.346069E+03 -8.785270E+03  3.413578E+04  5.538638E+03 -1.582259E+03
       185  10  1.833827E+05  6.578489E+04  3.917839E+04  6.696419E+04 -1.075011E-09 -3.558732E-10
       185  11  1.778023E+05  4.337800E+04  2.450123E+04  6.567526E+04 -3.251214E-10  2.179167E-09
       185  12  1.774579E+05  3.849248E+04  1.906186E+04  6.222697E+04 -1.196121E-10  4.915547E-10
       185  13  1.199822E+05  3.463271E+04  2.088013E+04  4.215046E+04 -6.458567E-10  1.761878E-10
       185  14  1.164020E+05  1.801103E+04  9.066742E+03  4.624536E+04 -6.450236E-10  9.581920E-10
       185  15  1.177201E+05  1.857323E+04  5.138443E+03  4.818085E+04  4.257434E-12  2.595317E-09
       185  16  5.658661E+04  3.482180E+03  2.581779E+03  1.733969E+04  6.894439E-10 -2.725405E-10
       185  17  5.500569E+04 -7.355336E+03 -6.367967E+03  2.681738E+04 -1.082573E-09  4.277535E-10
       185  18  5.798539E+04 -1.346080E+03 -8.785333E+03  3.413579E+04 -6.305810E-10  1.417741E-09
       185  19  1.833830E+05  6.578499E+04  3.917894E+04  6.696426E+04 -1.639084E+04 -5.041721E+03
       185  20  1.778024E+05  4.337803E+04  2.450144E+04  6.567526E+04 -1.060179E+04 -4.817204E+02
       185  21  1.774580E+05  3.849249E+04  1.906190E+04  6.222696E+04 -4.081252E+03  2.129461E+03
       185  22  1.199824E+05  3.463278E+04  2.088051E+04  4.215050E+04 -1.370213E+04 -4.032045E+03
       185  23  1.164021E+05  1.801105E+04  9.066916E+03  4.624536E+04 -9.621875E+03 -1.137299E+02
       185  24  1.177201E+05  1.857324E+04  5.138493E+03  4.818085E+04 -4.809981E+03  1.855850E+03
       185  25  5.658675E+04  3.482222E+03  2.582024E+03  1.733971E+04 -1.101377E+04 -3.022577E+03
       185  26  5.500577E+04 -7.355316E+03 -6.367826E+03  2.681738E+04 -8.642066E+03  2.542096E+02
       185  27  5.798542E+04 -1.346069E+03 -8.785270E+03  3.413578E+04 -5.538638E+03  1.582259E+03
       186   1  1.704382E+05  4.030072E+04  1.700534E+04  6.222950E+04  3.871935E+03 -1.786946E+03
       186   2  1.658556E+05  3.638683E+04  1.371240E+04  5.991735E+04  2.654500E+03 -2.005382E+03
       186   3  1.601327E+05  3.509077E+04  1.152680E+04  5.928667E+04  1.404460E+03 -2.136979E+03
       186   4  1.170496E+05  2.012062E+04  4.068753E+03  4.723669E+04  4.017095E+03 -1.732463E+03
       186   5  1.175616E+05  1.835220E+04  2.092822E+03  4.657141E+04  2.875869E+03 -1.922273E+03
       186   6  1.169181E+05  1.918655E+04  1.163938E+03  4.758755E+04  1.702028E+03 -2.025245E+03
       186   7  6.366379E+04 -5.926029E+01 -8.868047E+03  3.224506E+04  4.162241E+03 -1.677985E+03
       186   8  6.926991E+04  3.177833E+02 -9.526891E+03  3.322645E+04  3.097218E+03 -1.839172E+03
       186   9  7.370552E+04  3.282528E+03 -9.199000E+03  3.588923E+04  1.999573E+03 -1.913521E+03
       186  10  1.704382E+05  4.030071E+04  1.700531E+04  6.222951E+04 -2.097401E-11  8.138892E-10
       186  11  1.658556E+05  3.638682E+04  1.371238E+04  5.991736E+04 -5.735626E-09 -3.154914E-09
       186  12  1.601327E+05  3.509077E+04  1.152679E+04  5.928667E+04 -1.230009E-08 -2.954591E-09
       186  13  1.170496E+05  2.012061E+04  4.068717E+03  4.723670E+04 -2.285086E-10  4.912024E-10
       186  14  1.175615E+05  1.835219E+04  2.092799E+03  4.657141E+04  1.104763E-09 -4.539204E-10
       186  15  1.169181E+05  1.918654E+04  1.163924E+03  4.758755E+04 -2.899102E-09 -4.936480E-09
       186  16  6.366377E+04 -5.926796E+01 -8.868085E+03  3.224507E+04 -1.461681E-09  9.799765E-10
       186  17  6.926990E+04  3.177771E+02 -9.526916E+03  3.322645E+04  4.874071E-09  1.739005E-09
       186  18  7.370552E+04  3.282523E+03 -9.199015E+03  3.588923E+04  5.684936E-09  2.872444E-09
       186  19  1.704382E+05  4.030072E+04  1.700534E+04  6.222950E+04 -3.871935E+03  1.786946E+03
       186  20  1.658556E+05  3.638683E+04  1.371240E+04  5.991735E+04 -2.654500E+03  2.005382E+03
       186  21  1.601327E+05  3.509077E+04  1.152680E+04  5.928667E+04 -1.404460E+03  2.136979E+03
       186  22  1.170496E+05  2.012062E+04  4.068753E+03  4.723669E+04 -4.017095E+03  1.732463E+03
       186  23  1.175616E+05  1.835220E+04  2.092822E+03  4.657141E+04 -2.875869E+03  1.922273E+03
       186  24  1.169181E+05  1.918655E+04  1.163938E+03  4.758755E+04 -1.702028E+03  2.025245E+03
       186  25  6.366379E+04 -5.926029E+01 -8.868047E+03  3.224506E+04 -4.162241E+03  1.677985E+03
       186  26  6.926991E+04  3.177833E+02 -9.526891E+03  3.322645E+04 -3.097218E+03  1.839172E+03
       186  27  7.370552E+04  3.282528E+03 -9.199000E+03  3.588923E+04 -1.999573E+03  1.913521E+03
       187   1  1.555595E+05  3.364993E+04  1.016090E+04  5.814897E+04  1.194182E+03 -1.996413E+03
       187   2  1.511032E+05  3.081784E+04  8.513324E+03  5.577041E+04  8.316665E+02 -1.777190E+03
       187   3  1.450531E+05  2.969544E+04  7.063961E+03  5.527247E+04  4.677389E+02 -1.554255E+03
       187   4  1.168608E+05  1.927229E+04  8.861212E+02  4.752513E+04  1.465531E+03 -1.894520E+03
       187   5  1.176546E+05  1.839345E+04  4.843606E+02  4.659395E+04  1.106290E+03 -1.674061E+03
       187   6  1.168540E+05  1.922369E+04  2.782608E+02  4.754341E+04  7.456348E+02 -1.449889E+03
       187   7  7.816345E+04  4.894678E+03 -8.388823E+03  3.690183E+04  1.736863E+03 -1.792634E+03
       187   8  8.420710E+04  5.969103E+03 -7.544709E+03  3.741791E+04  1.380898E+03 -1.570937E+03
       187   9  8.865577E+04  8.751990E+03 -6.507498E+03  3.981466E+04  1.023517E+03 -1.345528E+03
       187  10  1.555595E+05  3.364992E+04  1.016089E+04  5.814897E+04  4.496227E-09  3.414090E-09
       187  11  1.511032E+05  3.081784E+04  8.513317E+03  5.577041E+04  9.127097E-09  3.306215E-09
       187  12  1.450531E+05  2.969543E+04  7.063956E+03  5.527247E+04  1.804753E-09  2.566577E-09
       187  13  1.168608E+05  1.927228E+04  8.861104E+02  4.752513E+04 -9.794167E-10 -4.327379E-09
       187  14  1.176546E+05  1.839345E+04  4.843530E+02  4.659395E+04  3.580882E-09 -2.807743E-09
       187  15  1.168540E+05  1.922368E+04  2.782558E+02  4.754341E+04 -2.903320E-09  1.566991E-10
       187  16  7.816345E+04  4.894674E+03 -8.388834E+03  3.690183E+04 -8.533368E-09 -3.117449E-09
       187  17  8.420710E+04  5.969100E+03 -7.544717E+03  3.741791E+04 -3.051236E-09 -6.165292E-11
       187  18  8.865577E+04  8.751987E+03 -6.507504E+03  3.981466E+04 -3.916346E-09 -8.414740E-10
       187  19  1.555595E+05  3.364993E+04  1.016090E+04  5.814897E+04 -1.194182E+03  1.996413E+03
       187  20  1.511032E+05  3.081784E+04  8.513324E+03  5.577041E+04 -8.316665E+02  1.777190E+03
       187  21  1.450531E+05  2.969544E+04  7.063961E+03  5.527247E+04 -4.677389E+02  1.554255E+03
       187  22  1.168608E+05  1.927229E+04  8.861212E+02  4.752513E+04 -1.465531E+03  1.894520E+03
       187  23  1.176546E+05  1.839345E+04  4.843606E+02  4.659395E+04 -1.106290E+03  1.674061E+03
       187  24  1.168540E+05  1.922369E+04  2.782608E+02  4.754341E+04 -7.456348E+02  1.449889E+03
       187  25  7.816345E+04  4.894678E+03 -8.388823E+03  3.690183E+04 -1.736863E+03  1.792634E+03
       187  26  8.420710E+04  5.969103E+03 -7.544709E+03  3.741791E+04 -1.380898E+03  1.570937E+03
       187  27  8.865577E+04  8.751990E+03 -6.507498E+03  3.981466E+04 -1.023517E+03  1.345528E+03
       188   1  1.406476E+05  2.806698E+04  5.913005E+03  5.407156E+04  3.587777E+02 -1.384945E+03
       188   2  1.362157E+05  2.529514E+04  4.599214E+03  5.168948E+04  1.675159E+02 -1.096613E+03
       188   3  1.301488E+05  2.417442E+04  3.340462E+03  5.119189E+04 -2.377960E+01 -8.082030E+02
       188   4  1.168473E+05  1.922703E+04  2.180945E+02  4.753819E+04  6.354225E+02 -1.281046E+03
       188   5  1.176648E+05  1.840071E+04  1.458303E+02  4.659625E+04  4.442318E+02 -9.926837E+02
       188   6  1.168472E+05  1.922550E+04  1.285510E+02  4.753881E+04  2.530059E+02 -7.042430E+02
       188   7  9.304768E+04  1.038717E+04 -5.476824E+03  4.100507E+04  9.120544E+02 -1.177151E+03
       188   8  9.911423E+04  1.150630E+04 -4.307578E+03  4.150316E+04  7.209386E+02 -8.887577E+02
       188   9  1.035457E+05  1.427656E+04 -3.083392E+03  4.388579E+04  5.297864E+02 -6.002848E+02
       188  10  1.406476E+05  2.806698E+04  5.913001E+03  5.407156E+04 -2.568318E-09  9.135195E-10
       188  11  1.362157E+05  2.529514E+04  4.599212E+03  5.168948E+04  5.044620E-10  1.812665E-09
       188  12  1.301488E+05  2.417442E+04  3.340461E+03  5.119189E+04  1.033103E-09 -8.379069E-10
       188  13  1.168473E+05  1.922703E+04  2.180906E+02  4.753819E+04 -2.865098E-09  7.307028E-10
       188  14  1.176648E+05  1.840071E+04  1.458281E+02  4.659625E+04  1.518484E-09  1.348307E-09
       188  15  1.168472E+05  1.922550E+04  1.285500E+02  4.753881E+04  1.041591E-09 -2.260473E-09
       188  16  9.304768E+04  1.038717E+04 -5.476828E+03  4.100507E+04 -2.745297E-09 -5.694208E-10
       188  17  9.911423E+04  1.150630E+04 -4.307581E+03  4.150316E+04  2.286101E-10 -7.450119E-10
       188  18  1.035457E+05  1.427656E+04 -3.083393E+03  4.388579E+04 -2.111220E-09 -7.769063E-10
       188  19  1.406476E+05  2.806698E+04  5.913005E+03  5.407156E+04 -3.587777E+02  1.384945E+03
       188  20  1.362157E+05  2.529514E+04  4.599214E+03  5.168948E+04 -1.675159E+02  1.096613E+03
       188  21  1.301488E+05  2.417442E+04  3.340462E+03  5.119189E+04  2.377960E+01  8.082030E+02
       188  22  1.168473E+05  1.922703E+04  2.180945E+02  4.753819E+04 -6.354225E+02  1.281046E+03
       188  23  1.176648E+05  1.840071E+04  1.458303E+02  4.659625E+04 -4.442318E+02  9.926837E+02
       188  24  1.168472E+05  1.922550E+04  1.285510E+02  4.753881E+04 -2.530059E+02  7.042430E+02
       188  25  9.304768E+04  1.038717E+04 -5.476824E+03  4.100507E+04 -9.120544E+02  1.177151E+03
       188  26  9.911423E+04  1.150630E+04 -4.307578E+03  4.150316E+04 -7.209386E+02  8.887577E+02
       188  27  1.035457E+05  1.427656E+04 -3.083392E+03  4.388579E+04 -5.297864E+02  6.002848E+02
       189   1  1.257607E+05  2.253788E+04  2.258607E+03  4.999046E+04 -1.148087E+02 -6.327165E+02
       189   2  1.213293E+05  1.976886E+04  1.072954E+03  4.760923E+04 -3.288486E+02 -3.529621E+02
       189   3  1.152675E+05  1.865225E+04 -4.023812E+01  4.711203E+04 -5.428389E+02 -7.332310E+01
       189   4  1.168482E+05  1.922539E+04  1.367939E+02  4.753885E+04  1.619046E+02 -5.287818E+02
       189   5  1.176636E+05  1.840032E+04  1.918744E+02  4.659643E+04 -5.224028E+01 -2.490664E+02
       189   6  1.168485E+05  1.922767E+04  3.194906E+02  4.753800E+04 -2.663362E+02  3.053308E+01
       189   7  1.079357E+05  1.591290E+04 -1.985024E+03  4.508727E+04  4.386136E+02 -4.248488E+02
       189   8  1.139978E+05  1.703179E+04 -6.892033E+02  4.558362E+04  2.243655E+02 -1.451716E+02
       189   9  1.184295E+05  1.980309E+04  6.792172E+02  4.796397E+04  1.016582E+01  1.343890E+02
       189  10  1.257607E+05  2.253788E+04  2.258606E+03  4.999046E+04  3.411070E-10 -1.624616E-09
       189  11  1.213293E+05  1.976886E+04  1.072954E+03  4.760923E+04  2.331634E-09  1.906613E-09
       189  12  1.152675E+05  1.865225E+04 -4.023869E+01  4.711203E+04  9.709447E-10 -6.276849E-10
       189  13  1.168482E+05  1.922539E+04  1.367933E+02  4.753885E+04  7.113348E-10 -7.442196E-10
       189  14  1.176636E+05  1.840032E+04  1.918743E+02  4.659643E+04  1.032666E-09 -1.900668E-09
       189  15  1.168485E+05  1.922767E+04  3.194904E+02  4.753800E+04  9.402230E-10  6.561102E-10
       189  16  1.079357E+05  1.591290E+04 -1.985025E+03  4.508727E+04 -9.516329E-10 -1.361352E-09
       189  17  1.139978E+05  1.703179E+04 -6.892035E+02  4.558362E+04  3.920852E-10 -1.559716E-09
       189  18  1.184295E+05  1.980309E+04  6.792171E+02  4.796397E+04  9.909680E-10 -2.423983E-09
       189  19  1.257607E+05  2.253788E+04  2.258607E+03  4.999046E+04  1.148087E+02  6.327165E+02
       189  20  1.213293E+05  1.976886E+04  1.072954E+03  4.760923E+04  3.288486E+02  3.529621E+02
       189  21  1.152675E+05  1.865225E+04 -4.023812E+01  4.711203E+04  5.428389E+02  7.332310E+01
       189  22  1.168482E+05  1.922539E+04  1.367939E+02  4.753885E+04 -1.619046E+02  5.287818E+02
       189  23  1.176636E+05  1.840032E+04  1.918744E+02  4.659643E+04  5.224028E+01  2.490664E+02
       189  24  1.168485E+05  1.922767E+04  3.194906E+02  4.753800E+04  2.663362E+02 -3.053308E+01
       189  25  1.079357E+05  1.591290E+04 -1.985024E+03  4.508727E+04 -4.386136E+02  4.248488E+02
       189  26  1.139978E+05  1.703179E+04 -6.892033E+02  4.558362E+04 -2.243655E+02  1.451716E+02
       189  27  1.184295E+05  1.980309E+04  6.792172E+02  4.796397E+04 -1.016582E+01 -1.343890E+02
       190   1  1.108800E+05  1.701975E+04 -1.032184E+03  4.592903E+04 -6.736319E+02  8.746595E+01
       190   2  1.064273E+05  1.423550E+04 -1.947232E+03  4.352932E+04 -1.161770E+03  2.636301E+02
       190   3  1.004109E+05  1.319092E+04 -2.563459E+03  4.300485E+04 -1.648920E+03  4.371709E+02
       190   4  1.168599E+05  1.922203E+04  4.176005E+02  4.754549E+04 -3.963226E+02  1.916246E+02
       190   5  1.176468E+05  1.838983E+04  7.438348E+02  4.659361E+04 -8.867665E+02  3.669211E+02
       190   6  1.168705E+05  1.929780E+04  1.370744E+03  4.751700E+04 -1.376224E+03  5.395930E+02
       190   7  1.228399E+05  2.142433E+04  1.867391E+03  4.916198E+04 -1.190088E+02  2.957849E+02
       190   8  1.288665E+05  2.254419E+04  3.434901E+03  4.965797E+04 -6.117564E+02  4.702145E+02
       190   9  1.333305E+05  2.540471E+04  5.304928E+03  5.202927E+04 -1.103520E+03  6.420182E+02
       190  10  1.108800E+05  1.701975E+04 -1.032185E+03  4.592903E+04  1.972463E-10 -2.416922E-09
       190  11  1.064273E+05  1.423550E+04 -1.947235E+03  4.352932E+04 -2.823816E-09  3.772427E-10
       190  12  1.004109E+05  1.319092E+04 -2.563465E+03  4.300485E+04 -6.078482E-09 -2.011740E-09
       190  13  1.168599E+05  1.922203E+04  4.176002E+02  4.754549E+04 -1.553000E-09 -1.064202E-09
       190  14  1.176468E+05  1.838983E+04  7.438331E+02  4.659361E+04 -4.221917E-09 -1.991341E-09
       190  15  1.168705E+05  1.929780E+04  1.370739E+03  4.751700E+04 -4.661843E-09 -1.599038E-09
       190  16  1.228399E+05  2.142433E+04  1.867391E+03  4.916198E+04 -1.628144E-09 -1.679781E-09
       190  17  1.288665E+05  2.254419E+04  3.434900E+03  4.965797E+04 -2.259928E-09 -2.996507E-10
       190  18  1.333305E+05  2.540470E+04  5.304925E+03  5.202927E+04 -2.670807E-09  5.494977E-10
       190  19  1.108800E+05  1.701975E+04 -1.032184E+03  4.592903E+04  6.736319E+02 -8.746595E+01
       190  20  1.064273E+05  1.423550E+04 -1.947232E+03  4.352932E+04  1.161770E+03 -2.636301E+02
       190  21  1.004109E+05  1.319092E+04 -2.563459E+03  4.300485E+04  1.648920E+03 -4.371709E+02
       190  22  1.168599E+05  1.922203E+04  4.176005E+02  4.754549E+04  3.963226E+02 -1.916246E+02
       190  23  1.176468E+05  1.838983E+04  7.438348E+02  4.659361E+04  8.867665E+02 -3.669211E+02
       190  24  1.168705E+05  1.929780E+04  1.370744E+03  4.751700E+04  1.376224E+03 -5.395930E+02
       190  25  1.228399E+05  2.142433E+04  1.867391E+03  4.916198E+04  1.190088E+02 -2.957849E+02
       190  26  1.288665E+05  2.254419E+04  3.434901E+03  4.965797E+04  6.117564E+02 -4.702145E+02
       190  27  1.333305E+05  2.540471E+04  5.304928E+03  5.202927E+04  1.103520E+03 -6.420182E+02
       191   1  9.593184E+04  1.159800E+04 -3.218395E+03  4.210166E+04 -1.992236E+03  5.243835E+02
       191   2  9.150440E+04  8.534839E+03 -3.025759E+03  3.928945E+04 -3.701498E+03  2.268512E+02
       191   3  8.618581E+04  8.588919E+03 -1.250110E+03  3.804355E+04 -5.388396E+03 -1.301504E+02
       191   4  1.169599E+05  1.916490E+04  1.802994E+03  4.761405E+04 -1.701619E+03  6.335348E+02
       191   5  1.175024E+05  1.832607E+04  3.245726E+03  4.655857E+04 -3.463080E+03  3.163898E+02
       191   6  1.171641E+05  2.061473E+04  6.312760E+03  4.706937E+04 -5.202199E+03 -6.023311E+01
       191   7  1.379883E+05  2.673178E+04  6.824323E+03  5.312657E+04 -1.410992E+03  7.426893E+02
       191   8  1.435012E+05  2.811734E+04  9.517162E+03  5.382798E+04 -3.224651E+03  4.059326E+02
       191   9  1.481435E+05  3.264070E+04  1.387560E+04  5.609566E+04 -5.015992E+03  9.688676E+00
       191  10  9.593183E+04  1.159800E+04 -3.218403E+03  4.210166E+04 -3.740141E-09 -3.936858E-10
       191  11  9.150439E+04  8.534835E+03 -3.025785E+03  3.928945E+04  1.669046E-10  5.523530E-10
       191  12  8.618578E+04  8.588911E+03 -1.250164E+03  3.804355E+04  2.304312E-09 -1.565745E-09
       191  13  1.169599E+05  1.916490E+04  1.802988E+03  4.761405E+04 -3.127666E-09 -1.192302E-09
       191  14  1.175024E+05  1.832606E+04  3.245703E+03  4.655857E+04 -8.696945E-10 -1.143148E-09
       191  15  1.171641E+05  2.061473E+04  6.312709E+03  4.706937E+04  7.736911E-10  1.913118E-10
       191  16  1.379883E+05  2.673178E+04  6.824318E+03  5.312658E+04 -2.106099E-09 -1.301563E-09
       191  17  1.435011E+05  2.811734E+04  9.517142E+03  5.382798E+04  5.301195E-10 -4.444342E-11
       191  18  1.481435E+05  3.264069E+04  1.387555E+04  5.609566E+04 -8.366488E-11 -6.371336E-10
       191  19  9.593184E+04  1.159800E+04 -3.218395E+03  4.210166E+04  1.992236E+03 -5.243835E+02
       191  20  9.150440E+04  8.534839E+03 -3.025759E+03  3.928945E+04  3.701498E+03 -2.268512E+02
       191  21  8.618581E+04  8.588919E+03 -1.250110E+03  3.804355E+04  5.388396E+03  1.301504E+02
       191  22  1.169599E+05  1.916490E+04  1.802994E+03  4.761405E+04  1.701619E+03 -6.335348E+02
       191  23  1.175024E+05  1.832607E+04  3.245726E+03  4.655857E+04  3.463080E+03 -3.163898E+02
       191  24  1.171641E+05  2.061473E+04  6.312760E+03  4.706937E+04  5.202199E+03  6.023311E+01
       191  25  1.379883E+05  2.673178E+04  6.824323E+03  5.312657E+04  1.410992E+03 -7.426893E+02
       191  26  1.435012E+05  2.811734E+04  9.517162E+03  5.382798E+04  3.224651E+03 -4.059326E+02
       191  27  1.481435E+05  3.264070E+04  1.387560E+04  5.609566E+04  5.015992E+03 -9.688676E+00
       192   1  7.984404E+04  7.511303E+03 -6.076831E+02  4.167535E+04 -6.919555E+03 -3.511549E+02
       192   2  7.760957E+04 -2.954600E+02  4.064698E+03  3.156902E+04 -1.330022E+04 -2.745592E+03
       192   3  8.360897E+04  1.746797E+04  2.004674E+04  1.712334E+04 -1.918005E+04 -6.473559E+03
       192   4  1.181935E+05  1.822488E+04  7.972936E+03  4.854677E+04 -6.333959E+03 -1.311925E+02
       192   5  1.157175E+05  1.778371E+04  1.406922E+04  4.603727E+04 -1.388410E+04 -2.964974E+03
       192   6  1.217060E+05  4.314294E+04  3.240097E+04  3.918877E+04 -2.093336E+04 -7.132395E+03
       192   7  1.565445E+05  2.893846E+04  1.655350E+04  5.541852E+04 -5.748323E+03  8.877706E+01
       192   8  1.538266E+05  3.586311E+04  2.407353E+04  6.050631E+04 -1.446801E+04 -3.184378E+03
       192   9  1.598041E+05  6.881878E+04  4.475486E+04  6.125530E+04 -2.268675E+04 -7.791343E+03
       192  10  7.984399E+04  7.511290E+03 -6.077733E+02  4.167535E+04  6.717016E-10 -1.591712E-09
       192  11  7.760938E+04 -2.955155E+02  4.064351E+03  3.156899E+04 -9.036902E-10 -1.142902E-10
       192  12  8.360857E+04  1.746782E+04  2.004597E+04  1.712324E+04 -1.089632E-09 -9.244927E-10
       192  13  1.181934E+05  1.822487E+04  7.972861E+03  4.854677E+04 -5.254747E-10 -2.265394E-09
       192  14  1.157173E+05  1.778365E+04  1.406884E+04  4.603724E+04 -2.940275E-10  3.837598E-10
       192  15  1.217056E+05  4.314277E+04  3.240006E+04  3.918864E+04  1.925725E-10 -1.896422E-09
       192  16  1.565445E+05  2.893846E+04  1.655344E+04  5.541852E+04 -8.341735E-10 -1.088519E-09
       192  17  1.538263E+05  3.586304E+04  2.407311E+04  6.050627E+04 -4.818076E-10 -1.434157E-10
       192  18  1.598035E+05  6.881857E+04  4.475378E+04  6.125516E+04 -1.918315E-10 -2.582244E-10
       192  19  7.984404E+04  7.511303E+03 -6.076831E+02  4.167535E+04  6.919555E+03  3.511549E+02
       192  20  7.760957E+04 -2.954600E+02  4.064698E+03  3.156902E+04  1.330022E+04  2.745592E+03
       192  21  8.360897E+04  1.746797E+04  2.004674E+04  1.712334E+04  1.918005E+04  6.473559E+03
       192  22  1.181935E+05  1.822488E+04  7.972936E+03  4.854677E+04  6.333959E+03  1.311925E+02
       192  23  1.157175E+05  1.778371E+04  1.406922E+04  4.603727E+04  1.388410E+04  2.964974E+03
       192  24  1.217060E+05  4.314294E+04  3.240097E+04  3.918877E+04  2.093336E+04  7.132395E+03
       192  25  1.565445E+05  2.893846E+04  1.655350E+04  5.541852E+04  5.748323E+03 -8.877706E+01
       192  26  1.538266E+05  3.586311E+04  2.407353E+04  6.050631E+04  1.446801E+04  3.184378E+03
       192  27  1.598041E+05  6.881878E+04  4.475486E+04  6.125530E+04  2.268675E+04  7.791343E+03
       193   1 -1.843330E+04 -1.241033E+05 -1.900681E+04  1.957605E+04 -5.169153E+02 -3.990643E+03
       193   2 -7.251102E+03 -9.385916E+04 -9.041058E+03  1.170497E+04 -1.134161E+03 -1.384183E+03
       193   3  1.743123E+01 -6.492199E+04 -1.749136E+03  1.745167E+04  5.074792E+01  1.222927E+03
       193   4 -3.562185E+03 -6.440935E+04 -4.356638E+03  1.797049E+04 -5.172182E+02 -2.752545E+03
       193   5  1.234914E+02 -6.388267E+04 -2.148890E+03  1.116208E+04 -1.134098E+03 -1.616332E+03
       193   6  1.508628E+02 -6.440875E+04 -1.593774E+03  1.797147E+04  5.114585E+01 -4.796155E+02
       193   7  1.130868E+04 -4.712188E+03  1.029328E+04  1.636478E+04 -5.175274E+02 -1.514329E+03
       193   8  7.498023E+03 -3.390534E+04  4.743219E+03  1.061917E+04 -1.134035E+03 -1.848493E+03
       193   9  2.842970E+02 -6.389549E+04 -1.438401E+03  1.849127E+04  5.154093E+01 -2.182160E+03
       193  10 -1.843330E+04 -1.241033E+05 -1.900684E+04  1.957605E+04  1.176231E-09 -6.273829E-09
       193  11 -7.251103E+03 -9.385917E+04 -9.041064E+03  1.170497E+04  6.165990E-10  6.609942E-10
       193  12  1.743083E+01 -6.492199E+04 -1.749139E+03  1.745166E+04 -8.415120E-10  7.997538E-09
       193  13 -3.562187E+03 -6.440936E+04 -4.356653E+03  1.797049E+04  2.407577E-10 -5.287671E-10
       193  14  1.234893E+02 -6.388267E+04 -2.148897E+03  1.116208E+04  6.757395E-10  2.958768E-10
       193  15  1.508628E+02 -6.440875E+04 -1.593774E+03  1.797147E+04  6.931939E-10 -3.395942E-10
       193  16  1.130867E+04 -4.712190E+03  1.029328E+04  1.636478E+04  6.311908E-10  5.743669E-09
       193  17  7.498020E+03 -3.390535E+04  4.743210E+03  1.061917E+04  1.185569E-09 -5.694958E-10
       193  18  2.842957E+02 -6.389550E+04 -1.438410E+03  1.849127E+04 -3.495401E-10 -7.441894E-09
       193  19 -1.843330E+04 -1.241033E+05 -1.900681E+04  1.957605E+04  5.169153E+02  3.990643E+03
       193  20 -7.251102E+03 -9.385916E+04 -9.041058E+03  1.170497E+04  1.134161E+03  1.384183E+03
       193  21  1.743123E+01 -6.492199E+04 -1.749136E+03  1.745167E+04 -5.074792E+01 -1.222927E+03
       193  22 -3.562185E+03 -6.440935E+04 -4.356638E+03  1.797049E+04  5.172182E+02  2.752545E+03
       193  23  1.234914E+02 -6.388267E+04 -2.148890E+03  1.116208E+04  1.134098E+03  1.616332E+03
       193  24  1.508628E+02 -6.440875E+04 -1.593774E+03  1.797147E+04 -5.114585E+01  4.796155E+02
       193  25  1.130868E+04 -4.712188E+03  1.029328E+04  1.636478E+04  5.175274E+02  1.514329E+03
       193  26  7.498023E+03 -3.390534E+04  4.743219E+03  1.061917E+04  1.134035E+03  1.848493E+03
       193  27  2.842970E+02 -6.389549E+04 -1.438401E+03  1.849127E+04 -5.154093E+01  2.182160E+03
       194   1  6.018969E+03 -3.883193E+04  4.214941E+03  1.814862E+04  1.173770E+03  9.953189E+02
       194   2  1.350010E+04 -9.125313E+03  1.082007E+04  1.111174E+04  2.603302E+03  1.670114E+03
       194   3  2.023720E+04  2.031953E+04  1.680224E+04  1.775568E+04  3.908029E+03  2.345015E+03
       194   4 -2.078841E+02 -6.423726E+04 -1.513044E+03  1.798523E+04  1.174060E+03 -2.221887E+02
       194   5  3.313530E+01 -6.409758E+04 -1.540307E+03  1.114474E+04  2.603611E+03  5.543685E+02
       194   6 -4.875250E+02 -6.423819E+04 -2.261205E+03  1.798515E+04  3.908349E+03  1.331001E+03
       194   7 -6.434781E+03 -8.964198E+04 -7.241065E+03  1.782184E+04  1.174351E+03 -1.439647E+03
       194   8 -1.343404E+04 -1.190670E+05 -1.390087E+04  1.117773E+04  2.603919E+03 -5.612789E+02
       194   9 -2.121274E+04 -1.487893E+05 -2.132510E+04  1.821458E+04  3.908667E+03  3.171242E+02
       194  10  6.018968E+03 -3.883193E+04  4.214937E+03  1.814861E+04 -7.661657E-10  1.048397E-09
       194  11  1.350009E+04 -9.125318E+03  1.082005E+04  1.111174E+04  5.136014E-12 -8.589667E-10
       194  12  2.023719E+04  2.031952E+04  1.680220E+04  1.775568E+04 -1.109050E-09 -4.868897E-10
       194  13 -2.078856E+02 -6.423726E+04 -1.513047E+03  1.798523E+04 -4.583305E-10 -6.538124E-13
       194  14  3.312793E+01 -6.409758E+04 -1.540320E+03  1.114474E+04 -8.465652E-10 -7.547888E-11
       194  15 -4.875419E+02 -6.423819E+04 -2.261237E+03  1.798514E+04 -1.340326E-09 -9.408494E-10
       194  16 -6.434783E+03 -8.964199E+04 -7.241072E+03  1.782184E+04 -4.691658E-10 -2.179921E-09
       194  17 -1.343404E+04 -1.190670E+05 -1.390088E+04  1.117773E+04 -9.277757E-10  2.566889E-11
       194  18 -2.121276E+04 -1.487893E+05 -2.132513E+04  1.821458E+04 -7.300810E-10  1.426477E-10
       194  19  6.018969E+03 -3.883193E+04  4.214941E+03  1.814862E+04 -1.173770E+03 -9.953189E+02
       194  20  1.350010E+04 -9.125313E+03  1.082007E+04  1.111174E+04 -2.603302E+03 -1.670114E+03
       194  21  2.023720E+04  2.031953E+04  1.680224E+04  1.775568E+04 -3.908029E+03 -2.345015E+03
       194  22 -2.078841E+02 -6.423726E+04 -1.513044E+03  1.798523E+04 -1.174060E+03  2.221887E+02
       194  23  3.313530E+01 -6.409758E+04 -1.540307E+03  1.114474E+04 -2.603611E+03 -5.543685E+02
       194  24 -4.875250E+02 -6.423819E+04 -2.261205E+03  1.798515E+04 -3.908349E+03 -1.331001E+03
       194  25 -6.434781E+03 -8.964198E+04 -7.241065E+03  1.782184E+04 -1.174351E+03  1.439647E+03
       194  26 -1.343404E+04 -1.190670E+05 -1.390087E+04  1.117773E+04 -2.603919E+03  5.612789E+02
       194  27 -2.121274E+04 -1.487893E+05 -2.132510E+04  1.821458E+04 -3.908667E+03 -3.171242E+02
       195   1  2.744640E+04  4.585238E+04  2.212326E+04  1.904418E+04  5.300099E+03  4.098663E+03
       195   2  3.458406E+04  7.624978E+04  2.751829E+04  1.001495E+04  5.924049E+03  2.662850E+03
       195   3  3.456049E+04  1.050658E+05  3.206214E+04  1.448309E+04  1.997159E+03  1.225169E+03
       195   4  3.792817E+02 -6.467192E+04 -2.691524E+03  1.794531E+04  5.300864E+03  1.732653E+03
       195   5  2.606468E+02 -6.355972E+04 -4.286233E+03  1.119498E+04  5.923669E+03  4.010352E+03
       195   6 -7.664678E+03 -6.467447E+04 -9.311218E+03  1.794227E+04  1.995166E+03  6.286185E+03
       195   7 -2.668866E+04 -1.751848E+05 -2.750706E+04  1.684663E+04  5.301638E+03 -6.329407E+02
       195   8 -3.406411E+04 -2.033511E+05 -3.609202E+04  1.237474E+04  5.923294E+03  5.357553E+03
       195   9 -4.989192E+04 -2.343884E+05 -5.068656E+04  2.140050E+04  1.993229E+03  1.134582E+04
       195  10  2.744636E+04  4.585236E+04  2.212317E+04  1.904416E+04  5.945522E-10  4.897495E-10
       195  11  3.458402E+04  7.624977E+04  2.751821E+04  1.001494E+04  2.016553E-10 -2.627115E-11
       195  12  3.456049E+04  1.050658E+05  3.206213E+04  1.448309E+04  4.429282E-10  5.334853E-10
       195  13  3.792507E+02 -6.467193E+04 -2.691583E+03  1.794530E+04  8.450880E-10 -2.827163E-10
       195  14  2.606048E+02 -6.355975E+04 -4.286329E+03  1.119496E+04  7.574304E-10 -2.500363E-10
       195  15 -7.664693E+03 -6.467451E+04 -9.311300E+03  1.794226E+04  5.192532E-10  4.188881E-10
       195  16 -2.668869E+04 -1.751848E+05 -2.750711E+04  1.684663E+04  5.946273E-10 -1.407167E-09
       195  17 -3.406416E+04 -2.033511E+05 -3.609214E+04  1.237472E+04  3.070734E-10 -9.660004E-12
       195  18 -4.989195E+04 -2.343886E+05 -5.068681E+04  2.140048E+04  9.575979E-10  3.092695E-10
       195  19  2.744640E+04  4.585238E+04  2.212326E+04  1.904418E+04 -5.300099E+03 -4.098663E+03
       195  20  3.458406E+04  7.624978E+04  2.751829E+04  1.001495E+04 -5.924049E+03 -2.662850E+03
       195  21  3.456049E+04  1.050658E+05  3.206214E+04  1.448309E+04 -1.997159E+03 -1.225169E+03
       195  22  3.792817E+02 -6.467192E+04 -2.691524E+03  1.794531E+04 -5.300864E+03 -1.732653E+03
       195  23  2.606468E+02 -6.355972E+04 -4.286233E+03  1.119498E+04 -5.923669E+03 -4.010352E+03
       195  24 -7.664678E+03 -6.467447E+04 -9.311218E+03  1.794227E+04 -1.995166E+03 -6.286185E+03
       195  25 -2.668866E+04 -1.751848E+05 -2.750706E+04  1.684663E+04 -5.301638E+03  6.329407E+02
       195  26 -3.406411E+04 -2.033511E+05 -3.609202E+04  1.237474E+04 -5.923294E+03 -5.357553E+03
       195  27 -4.989192E+04 -2.343884E+05 -5.068656E+04  2.140050E+04 -1.993229E+03 -1.134582E+04
       196   1  4.875665E+04  3.197850E+04  2.895128E+04  7.638252E+03  5.637702E+03 -2.315420E+03
       196   2  3.590323E+04  3.432489E+04  2.464102E+04  9.376920E+03  1.433544E+03 -7.736643E+03
       196   3  2.258214E+04  3.260535E+04  2.205232E+04  1.377041E+04 -2.771203E+03 -9.221772E+03
       196   4 -1.171966E+05 -8.994084E+03 -9.967791E+03  1.324548E+04 -6.951715E+03 -2.318308E+03
       196   5 -1.163793E+05 -2.029019E+03 -4.847636E+03  1.191687E+04 -4.448400E+03 -7.738302E+03
       196   6 -1.171949E+05 -2.950479E+02 -2.664241E+03  1.324317E+04 -1.945852E+03 -9.221717E+03
       196   7 -2.831241E+05 -4.996842E+04 -4.888813E+04  1.885119E+04 -1.953779E+04 -2.321425E+03
       196   8 -2.686395E+05 -3.838426E+04 -3.433725E+04  1.445619E+04 -1.032893E+04 -7.740009E+03
       196   9 -2.569528E+05 -3.319652E+04 -2.738152E+04  1.271606E+04 -1.120682E+03 -9.221664E+03
       196  10  4.875662E+04  3.197848E+04  2.895121E+04  7.638263E+03  1.218426E-09 -3.110737E-10
       196  11  3.590321E+04  3.432482E+04  2.464091E+04  9.376929E+03  1.029788E-09 -9.691957E-10
       196  12  2.258211E+04  3.260526E+04  2.205215E+04  1.377038E+04 -3.502160E-10 -5.663731E-10
       196  13 -1.171967E+05 -8.994103E+03 -9.967892E+03  1.324546E+04 -3.627554E-11 -1.131638E-10
       196  14 -1.163794E+05 -2.029088E+03 -4.847785E+03  1.191685E+04  6.810920E-10 -1.014560E-09
       196  15 -1.171949E+05 -2.951402E+02 -2.664407E+03  1.324316E+04  7.714985E-10 -2.997434E-10
       196  16 -2.831245E+05 -4.996853E+04 -4.888886E+04  1.885115E+04 -6.313953E-10 -3.005007E-10
       196  17 -2.686396E+05 -3.838436E+04 -3.433756E+04  1.445612E+04 -6.853573E-10 -1.709866E-09
       196  18 -2.569528E+05 -3.319661E+04 -2.738168E+04  1.271605E+04  8.417167E-10 -1.158208E-09
       196  19  4.875665E+04  3.197850E+04  2.895128E+04  7.638252E+03 -5.637702E+03  2.315420E+03
       196  20  3.590323E+04  3.432489E+04  2.464102E+04  9.376920E+03 -1.433544E+03  7.736643E+03
       196  21  2.258214E+04  3.260535E+04  2.205232E+04  1.377041E+04  2.771203E+03  9.221772E+03
       196  22 -1.171966E+05 -8.994084E+03 -9.967791E+03  1.324548E+04  6.951715E+03  2.318308E+03
       196  23 -1.163793E+05 -2.029019E+03 -4.847636E+03  1.191687E+04  4.448400E+03  7.738302E+03
       196  24 -1.171949E+05 -2.950479E+02 -2.664241E+03  1.324317E+04  1.945852E+03  9.221717E+03
       196  25 -2.831241E+05 -4.996842E+04 -4.888813E+04  1.885119E+04  1.953779E+04  2.321425E+03
       196  26 -2.686395E+05 -3.838426E+04 -3.433725E+04  1.445619E+04  1.032893E+04  7.740009E+03
       196  27 -2.569528E+05 -3.319652E+04 -2.738152E+04  1.271606E+04  1.120682E+03  9.221664E+03
       197   1  1.422476E+04  3.039650E+04  2.091787E+04  1.316155E+04 -2.001415E+03 -8.860489E+03
       197   2  1.180577E+03  2.756065E+04  1.901059E+04  1.182145E+04 -2.053506E+03 -8.446063E+03
       197   3 -1.190097E+04  2.455111E+04  1.709365E+04  1.339532E+04 -2.105764E+03 -7.674453E+03
       197   4 -1.168634E+05 -4.113873E+02 -2.027005E+03  1.330104E+04 -1.599274E+03 -8.860535E+03
       197   5 -1.167913E+05 -6.028517E+01 -1.115111E+03  1.184397E+04 -1.042804E+03 -8.445885E+03
       197   6 -1.168623E+05  1.149354E+01 -6.355091E+02  1.330090E+04 -4.864927E+02 -7.674017E+03
       197   7 -2.479347E+05 -3.122021E+04 -2.497250E+04  1.344050E+04 -1.197215E+03 -8.860581E+03
       197   8 -2.347496E+05 -2.768196E+04 -2.124127E+04  1.186648E+04 -3.228754E+01 -8.445707E+03
       197   9 -2.218128E+05 -2.452870E+04 -1.836501E+04  1.320649E+04  1.132514E+03 -7.673581E+03
       197  10  1.422473E+04  3.039641E+04  2.091772E+04  1.316153E+04 -3.572017E-10 -3.315259E-10
       197  11  1.180553E+03  2.756057E+04  1.901045E+04  1.182144E+04 -6.129612E-10  6.557913E-10
       197  12 -1.190099E+04  2.455105E+04  1.709353E+04  1.339531E+04  8.830592E-10  6.152085E-10
       197  13 -1.168634E+05 -4.114723E+02 -2.027157E+03  1.330103E+04  5.279782E-10 -3.006950E-10
       197  14 -1.167914E+05 -6.036206E+01 -1.115247E+03  1.184396E+04 -1.236681E-09  4.676629E-10
       197  15 -1.168623E+05  1.143024E+01 -6.356202E+02  1.330089E+04  6.142670E-10 -2.806467E-10
       197  16 -2.479347E+05 -3.122029E+04 -2.497265E+04  1.344049E+04  8.416683E-10  2.416115E-10
       197  17 -2.347496E+05 -2.768204E+04 -2.124140E+04  1.186648E+04  4.063352E-10  9.061037E-10
       197  18 -2.218128E+05 -2.452877E+04 -1.836512E+04  1.320650E+04 -8.127306E-10  1.260880E-10
       197  19  1.422476E+04  3.039650E+04  2.091787E+04  1.316155E+04  2.001415E+03  8.860489E+03
       197  20  1.180577E+03  2.756065E+04  1.901059E+04  1.182145E+04  2.053506E+03  8.446063E+03
       197  21 -1.190097E+04  2.455111E+04  1.709365E+04  1.339532E+04  2.105764E+03  7.674453E+03
       197  22 -1.168634E+05 -4.113873E+02 -2.027005E+03  1.330104E+04  1.599274E+03  8.860535E+03
       197  23 -1.167913E+05 -6.028517E+01 -1.115111E+03  1.184397E+04  1.042804E+03  8.445885E+03
       197  24 -1.168623E+05  1.149354E+01 -6.355091E+02  1.330090E+04  4.864927E+02  7.674017E+03
       197  25 -2.479347E+05 -3.122021E+04 -2.497250E+04  1.344050E+04  1.197215E+03  8.860581E+03
       197  26 -2.347496E+05 -2.768196E+04 -2.124127E+04  1.186648E+04  3.228754E+01  8.445707E+03
       197  27 -2.218128E+05 -2.452870E+04 -1.836501E+04  1.320649E+04 -1.132514E+03  7.673581E+03
       198   1 -2.038577E+04  2.253851E+04  1.573981E+04  1.335642E+04 -1.970098E+03 -7.114153E+03
       198   2 -3.344484E+04  1.949254E+04  1.372612E+04  1.187913E+04 -1.889012E+03 -6.170038E+03
       198   3 -4.651686E+04  1.644360E+04  1.165840E+04  1.333979E+04 -1.807997E+03 -5.193429E+03
       198   4 -1.168353E+05  2.604660E+00 -4.828929E+02  1.330624E+04 -3.890486E+02 -7.113696E+03
       198   5 -1.168235E+05  1.494488E+01 -2.761711E+02  1.183726E+04 -2.526299E+02 -6.169514E+03
       198   6 -1.168345E+05  1.471130E+01 -1.619269E+02  1.330624E+04 -1.162804E+02 -5.192835E+03
       198   7 -2.132756E+05 -2.253379E+04 -1.670588E+04  1.325608E+04  1.191763E+03 -7.113240E+03
       198   8 -2.001953E+05 -1.946301E+04 -1.427867E+04  1.179539E+04  1.383540E+03 -6.168990E+03
       198   9 -1.871473E+05 -1.641444E+04 -1.198240E+04  1.327269E+04  1.575251E+03 -5.192241E+03
       198  10 -2.038579E+04  2.253845E+04  1.573971E+04  1.335641E+04 -6.588192E-10  6.953103E-10
       198  11 -3.344486E+04  1.949250E+04  1.372605E+04  1.187913E+04  2.925002E-10  1.070704E-10
       198  12 -4.651687E+04  1.644357E+04  1.165835E+04  1.333978E+04  1.088435E-09 -8.407683E-10
       198  13 -1.168353E+05  2.550282E+00 -4.829883E+02  1.330624E+04 -4.561451E-10 -4.354736E-10
       198  14 -1.168235E+05  1.490399E+01 -2.762427E+02  1.183726E+04 -1.851076E-10  6.638614E-10
       198  15 -1.168345E+05  1.468234E+01 -1.619776E+02  1.330624E+04  6.761246E-10  1.132952E-10
       198  16 -2.132756E+05 -2.253384E+04 -1.670598E+04  1.325608E+04  6.462646E-10  2.848823E-10
       198  17 -2.001954E+05 -1.946305E+04 -1.427875E+04  1.179540E+04 -1.519643E-10  8.246682E-10
       198  18 -1.871473E+05 -1.641447E+04 -1.198246E+04  1.327270E+04 -1.969858E-09 -3.141690E-10
       198  19 -2.038577E+04  2.253851E+04  1.573981E+04  1.335642E+04  1.970098E+03  7.114153E+03
       198  20 -3.344484E+04  1.949254E+04  1.372612E+04  1.187913E+04  1.889012E+03  6.170038E+03
       198  21 -4.651686E+04  1.644360E+04  1.165840E+04  1.333979E+04  1.807997E+03  5.193429E+03
       198  22 -1.168353E+05  2.604660E+00 -4.828929E+02  1.330624E+04  3.890486E+02  7.113696E+03
       198  23 -1.168235E+05  1.494488E+01 -2.761711E+02  1.183726E+04  2.526299E+02  6.169514E+03
       198  24 -1.168345E+05  1.471130E+01 -1.619269E+02  1.330624E+04  1.162804E+02  5.192835E+03
       198  25 -2.132756E+05 -2.253379E+04 -1.670588E+04  1.325608E+04 -1.191763E+03  7.113240E+03
       198  26 -2.001953E+05 -1.946301E+04 -1.427867E+04  1.179539E+04 -1.383540E+03  6.168990E+03
       198  27 -1.871473E+05 -1.641444E+04 -1.198240E+04  1.327269E+04 -1.575251E+03  5.192241E+03
       199   1 -5.501133E+04  1.444639E+04  1.021176E+04  1.333413E+04 -1.778874E+03 -4.614915E+03
       199   2 -6.807701E+04  1.139772E+04  8.090801E+03  1.185634E+04 -1.744561E+03 -3.622591E+03
       199   3 -8.114871E+04  8.351505E+03  5.947452E+03  1.331916E+04 -1.710284E+03 -2.627419E+03
       199   4 -1.168309E+05  1.378901E+01 -1.257173E+02  1.330683E+04 -9.049221E+01 -4.614299E+03
       199   5 -1.168270E+05  1.254334E+01 -7.993507E+01  1.183652E+04 -5.135723E+01 -3.621944E+03
       199   6 -1.168304E+05  1.287561E+01 -5.996332E+01  1.330683E+04 -1.225858E+01 -2.626741E+03
       199   7 -1.786466E+05 -1.441901E+04 -1.046330E+04  1.327954E+04  1.597727E+03 -4.613683E+03
       199   8 -1.655747E+05 -1.137275E+04 -8.250734E+03  1.181670E+04  1.641718E+03 -3.621297E+03
       199   9 -1.525109E+05 -8.325819E+03 -6.067408E+03  1.329450E+04  1.685673E+03 -2.626062E+03
       199  10 -5.501134E+04  1.444636E+04  1.021171E+04  1.333413E+04  8.710371E-10 -1.104939E-09
       199  11 -6.807702E+04  1.139770E+04  8.090770E+03  1.185633E+04  1.457223E-09  1.940343E-10
       199  12 -8.114871E+04  8.351497E+03  5.947433E+03  1.331916E+04  5.106357E-10  1.190847E-09
       199  13 -1.168309E+05  1.376614E+01 -1.257573E+02  1.330683E+04 -7.670558E-13 -7.958786E-10
       199  14 -1.168270E+05  1.252925E+01 -7.995972E+01  1.183652E+04 -8.264872E-10  1.248407E-10
       199  15 -1.168304E+05  1.286820E+01 -5.997628E+01  1.330683E+04  8.036156E-11  2.951204E-10
       199  16 -1.786466E+05 -1.441903E+04 -1.046334E+04  1.327954E+04 -1.965021E-09 -1.027053E-09
       199  17 -1.655747E+05 -1.137277E+04 -8.250764E+03  1.181670E+04  2.374735E-10 -9.424992E-10
       199  18 -1.525109E+05 -8.325828E+03 -6.067426E+03  1.329451E+04  2.879969E-10 -6.350471E-11
       199  19 -5.501133E+04  1.444639E+04  1.021176E+04  1.333413E+04  1.778874E+03  4.614915E+03
       199  20 -6.807701E+04  1.139772E+04  8.090801E+03  1.185634E+04  1.744561E+03  3.622591E+03
       199  21 -8.114871E+04  8.351505E+03  5.947452E+03  1.331916E+04  1.710284E+03  2.627419E+03
       199  22 -1.168309E+05  1.378901E+01 -1.257173E+02  1.330683E+04  9.049221E+01  4.614299E+03
       199  23 -1.168270E+05  1.254334E+01 -7.993507E+01  1.183652E+04  5.135723E+01  3.621944E+03
       199  24 -1.168304E+05  1.287561E+01 -5.996332E+01  1.330683E+04  1.225858E+01  2.626741E+03
       199  25 -1.786466E+05 -1.441901E+04 -1.046330E+04  1.327954E+04 -1.597727E+03  4.613683E+03
       199  26 -1.655747E+05 -1.137275E+04 -8.250734E+03  1.181670E+04 -1.641718E+03  3.621297E+03
       199  27 -1.525109E+05 -8.325819E+03 -6.067408E+03  1.329450E+04 -1.685673E+03  2.626062E+03
       200   1 -8.964697E+04  6.355468E+03  4.469017E+03  1.331568E+04 -1.699789E+03 -2.047230E+03
       200   2 -1.027136E+05  3.308263E+03  2.298094E+03  1.183773E+04 -1.665391E+03 -1.051426E+03
       200   3 -1.157872E+05  2.623474E+02  1.042329E+02  1.330118E+04 -1.631003E+03 -5.719238E+01
       200   4 -1.168302E+05  1.294116E+01 -5.721582E+01  1.330701E+04 -1.826842E+00 -2.046541E+03
       200   5 -1.168268E+05  1.263600E+01 -6.500647E+01  1.183630E+04  2.989213E+01 -1.050730E+03
       200   6 -1.168301E+05  1.414335E+01 -9.382418E+01  1.330701E+04  6.160211E+01 -5.648842E+01
       200   7 -1.440127E+05 -6.329623E+03 -4.583460E+03  1.329833E+04  1.696064E+03 -2.045851E+03
       200   8 -1.309399E+05 -3.283000E+03 -2.428103E+03  1.183488E+04  1.725138E+03 -1.050033E+03
       200   9 -1.178729E+05 -2.340592E+02 -2.918706E+02  1.331283E+04  1.754204E+03 -5.578442E+01
       200  10 -8.964697E+04  6.355463E+03  4.469003E+03  1.331568E+04  2.988100E-08  1.494526E-09
       200  11 -1.027136E+05  3.308261E+03  2.298087E+03  1.183773E+04  6.427009E-10  1.917893E-09
       200  12 -1.157872E+05  2.623467E+02  1.042279E+02  1.330118E+04 -2.856919E-08  1.038256E-09
       200  13 -1.168302E+05  1.293666E+01 -5.722369E+01  1.330701E+04  9.951087E-10  2.395038E-09
       200  14 -1.168268E+05  1.263481E+01 -6.500855E+01  1.183630E+04 -1.055711E-09  2.237456E-09
       200  15 -1.168301E+05  1.414335E+01 -9.382420E+01  1.330701E+04  1.507008E-10  8.781533E-10
       200  16 -1.440127E+05 -6.329628E+03 -4.583473E+03  1.329834E+04 -3.021622E-08  1.550725E-09
       200  17 -1.309399E+05 -3.283002E+03 -2.428110E+03  1.183488E+04 -6.098572E-10  1.709670E-09
       200  18 -1.178729E+05 -2.340600E+02 -2.918764E+02  1.331283E+04  2.872925E-08  7.928431E-10
       200  19 -8.964697E+04  6.355468E+03  4.469017E+03  1.331568E+04  1.699789E+03  2.047230E+03
       200  20 -1.027136E+05  3.308263E+03  2.298094E+03  1.183773E+04  1.665391E+03  1.051426E+03
       200  21 -1.157872E+05  2.623474E+02  1.042329E+02  1.330118E+04  1.631003E+03  5.719238E+01
       200  22 -1.168302E+05  1.294116E+01 -5.721582E+01  1.330701E+04  1.826842E+00  2.046541E+03
       200  23 -1.168268E+05  1.263600E+01 -6.500647E+01  1.183630E+04 -2.989213E+01  1.050730E+03
       200  24 -1.168301E+05  1.414335E+01 -9.382418E+01  1.330701E+04 -6.160211E+01  5.648842E+01
       200  25 -1.440127E+05 -6.329623E+03 -4.583460E+03  1.329833E+04 -1.696064E+03  2.045851E+03
       200  26 -1.309399E+05 -3.283000E+03 -2.428103E+03  1.183488E+04 -1.725138E+03  1.050033E+03
       200  27 -1.178729E+05 -2.340592E+02 -2.918706E+02  1.331283E+04 -1.754204E+03  5.578442E+01
       201   1 -1.242889E+05 -1.733410E+03 -1.402648E+03  1.329522E+04 -1.614213E+03  5.221589E+02
       201   2 -1.373471E+05 -4.782049E+03 -3.656894E+03  1.181709E+04 -1.482035E+03  1.506736E+03
       201   3 -1.504287E+05 -7.844888E+03 -6.001575E+03  1.327898E+04 -1.349837E+03  2.470892E+03
       201   4 -1.168325E+05  1.496062E+01 -1.183012E+02  1.330669E+04  8.053809E+01  5.228626E+02
       201   5 -1.168238E+05  1.508893E+01 -1.975422E+02  1.183669E+04  1.779105E+02  1.507414E+03
       201   6 -1.168327E+05  7.066698E+00 -3.430458E+02  1.330670E+04  2.753051E+02  2.471543E+03
       201   7 -1.093760E+05  1.763330E+03  1.166054E+03  1.331817E+04  1.775309E+03  5.235664E+02
       201   8 -9.630015E+04  4.812206E+03  3.261807E+03  1.185629E+04  1.837909E+03  1.508091E+03
       201   9 -8.323561E+04  7.858964E+03  5.315457E+03  1.333442E+04  1.900532E+03  2.472195E+03
       201  10 -1.242889E+05 -1.733411E+03 -1.402653E+03  1.329522E+04 -9.068807E-10  1.121740E-09
       201  11 -1.373471E+05 -4.782052E+03 -3.656903E+03  1.181709E+04 -1.374906E-09  3.647135E-10
       201  12 -1.504287E+05 -7.844895E+03 -6.001590E+03  1.327898E+04 -1.350024E-09  5.878677E-11
       201  13 -1.168325E+05  1.496032E+01 -1.183018E+02  1.330669E+04  1.075733E-09  3.629885E-10
       201  14 -1.168238E+05  1.508648E+01 -1.975465E+02  1.183669E+04 -2.087261E-10 -1.023709E-10
       201  15 -1.168327E+05  7.060119E+00 -3.430574E+02  1.330670E+04  1.214720E-09  4.464186E-11
       201  16 -1.093760E+05  1.763329E+03  1.166048E+03  1.331817E+04  1.335052E-09  3.946882E-10
       201  17 -9.630015E+04  4.812202E+03  3.261796E+03  1.185629E+04  1.671568E-09 -1.640276E-09
       201  18 -8.323561E+04  7.858956E+03  5.315439E+03  1.333442E+04  1.687629E-09 -7.045113E-10
       201  19 -1.242889E+05 -1.733410E+03 -1.402648E+03  1.329522E+04  1.614213E+03 -5.221589E+02
       201  20 -1.373471E+05 -4.782049E+03 -3.656894E+03  1.181709E+04  1.482035E+03 -1.506736E+03
       201  21 -1.504287E+05 -7.844888E+03 -6.001575E+03  1.327898E+04  1.349837E+03 -2.470892E+03
       201  22 -1.168325E+05  1.496062E+01 -1.183012E+02  1.330669E+04 -8.053809E+01 -5.228626E+02
       201  23 -1.168238E+05  1.508893E+01 -1.975422E+02  1.183669E+04 -1.779105E+02 -1.507414E+03
       201  24 -1.168327E+05  7.066698E+00 -3.430458E+02  1.330670E+04 -2.753051E+02 -2.471543E+03
       201  25 -1.093760E+05  1.763330E+03  1.166054E+03  1.331817E+04 -1.775309E+03 -5.235664E+02
       201  26 -9.630015E+04  4.812206E+03  3.261807E+03  1.185629E+04 -1.837909E+03 -1.508091E+03
       201  27 -8.323561E+04  7.858964E+03  5.315457E+03  1.333442E+04 -1.900532E+03 -2.472195E+03
       202   1 -1.589564E+05 -9.840000E+03 -7.606826E+03  1.324283E+04 -1.304899E+03  3.038856E+03
       202   2 -1.719409E+05 -1.296064E+04 -1.025643E+04  1.186051E+04 -5.274407E+02  3.894648E+03
       202   3 -1.850947E+05 -1.634486E+04 -1.347883E+04  1.340333E+04  2.501051E+02  4.525278E+03
       202   4 -1.168518E+05  1.350268E+01 -4.508205E+02  1.330337E+04  3.443680E+02  3.039504E+03
       202   5 -1.168006E+05 -3.744796E+01 -7.898970E+02  1.184087E+04  7.382403E+02  3.895115E+03
       202   6 -1.168523E+05 -2.854127E+02 -1.435379E+03  1.330349E+04  1.132221E+03  4.525573E+03
       202   7 -7.474549E+04  9.866913E+03  6.705138E+03  1.336392E+04  1.993744E+03  3.040152E+03
       202   8 -6.165722E+04  1.288558E+04  8.676538E+03  1.182122E+04  2.004030E+03  3.895581E+03
       202   9 -4.860534E+04  1.577378E+04  1.060790E+04  1.320365E+04  2.014431E+03  4.525867E+03
       202  10 -1.589564E+05 -9.840011E+03 -7.606847E+03  1.324284E+04 -6.146702E-10  5.785914E-10
       202  11 -1.719409E+05 -1.296065E+04 -1.025646E+04  1.186051E+04 -1.123802E-09  1.148073E-10
       202  12 -1.850947E+05 -1.634489E+04 -1.347887E+04  1.340333E+04 -4.747553E-10  4.668291E-10
       202  13 -1.168518E+05  1.349273E+01 -4.508381E+02  1.330337E+04 -5.332389E-10  2.341540E-10
       202  14 -1.168006E+05 -3.746440E+01 -7.899265E+02  1.184086E+04  6.084646E-10 -2.474133E-10
       202  15 -1.168523E+05 -2.854350E+02 -1.435420E+03  1.330349E+04  1.344312E-09 -3.028349E-10
       202  16 -7.474550E+04  9.866902E+03  6.705113E+03  1.336391E+04  1.429935E-12 -2.377596E-10
       202  17 -6.165723E+04  1.288556E+04  8.676502E+03  1.182122E+04  9.701376E-10 -6.393951E-10
       202  18 -4.860535E+04  1.577376E+04  1.060786E+04  1.320364E+04 -2.149341E-10 -9.912889E-10
       202  19 -1.589564E+05 -9.840000E+03 -7.606826E+03  1.324283E+04  1.304899E+03 -3.038856E+03
       202  20 -1.719409E+05 -1.296064E+04 -1.025643E+04  1.186051E+04  5.274407E+02 -3.894648E+03
       202  21 -1.850947E+05 -1.634486E+04 -1.347883E+04  1.340333E+04 -2.501051E+02 -4.525278E+03
       202  22 -1.168518E+05  1.350268E+01 -4.508205E+02  1.330337E+04 -3.443680E+02 -3.039504E+03
       202  23 -1.168006E+05 -3.744796E+01 -7.898970E+02  1.184087E+04 -7.382403E+02 -3.895115E+03
       202  24 -1.168523E+05 -2.854127E+02 -1.435379E+03  1.330349E+04 -1.132221E+03 -4.525573E+03
       202  25 -7.474549E+04  9.866913E+03  6.705138E+03  1.336392E+04 -1.993744E+03 -3.040152E+03
       202  26 -6.165722E+04  1.288558E+04  8.676538E+03  1.182122E+04 -2.004030E+03 -3.895581E+03
       202  27 -4.860534E+04  1.577378E+04  1.060790E+04  1.320365E+04 -2.014431E+03 -4.525867E+03
       203   1 -1.939498E+05 -1.832024E+04 -1.559479E+04  1.289311E+04  2.286744E+02  4.967690E+03
       203   2 -2.060894E+05 -2.285237E+04 -2.094870E+04  1.368175E+04  6.227790E+03  4.403384E+03
       203   3 -2.201215E+05 -3.182257E+04 -3.131882E+04  1.723283E+04  1.222762E+04  1.357370E+03
       203   4 -1.170870E+05 -2.029326E+02 -1.886490E+03  1.326704E+04  1.377537E+03  4.968069E+03
       203   5 -1.165085E+05 -1.431084E+03 -3.432134E+03  1.188693E+04  3.149121E+03  4.402207E+03
       203   6 -1.170881E+05 -6.362831E+03 -7.057364E+03  1.326926E+04  4.921508E+03  1.354761E+03
       203   7 -4.021843E+04  1.791405E+04  1.182160E+04  1.364102E+04  2.526537E+03  4.968449E+03
       203   8 -2.691989E+04  1.998973E+04  1.408408E+04  1.009184E+04  7.001774E+01  4.401049E+03
       203   9 -1.404484E+04  1.909624E+04  1.720357E+04  9.305031E+03 -2.385808E+03  1.352246E+03
       203  10 -1.939498E+05 -1.832026E+04 -1.559484E+04  1.289311E+04 -4.880469E-10  6.829428E-10
       203  11 -2.060894E+05 -2.285240E+04 -2.094881E+04  1.368173E+04  1.201421E-10  5.402158E-11
       203  12 -2.201216E+05 -3.182262E+04 -3.131910E+04  1.723282E+04  5.289728E-11 -1.790049E-10
       203  13 -1.170870E+05 -2.029596E+02 -1.886540E+03  1.326704E+04  4.507097E-10  6.515998E-10
       203  14 -1.165085E+05 -1.431108E+03 -3.432189E+03  1.188692E+04 -3.677079E-10 -3.404345E-10
       203  15 -1.170881E+05 -6.362840E+03 -7.057413E+03  1.326926E+04 -4.477324E-10  2.790808E-10
       203  16 -4.021844E+04  1.791402E+04  1.182154E+04  1.364101E+04  9.251341E-10  4.109016E-10
       203  17 -2.691990E+04  1.998971E+04  1.408405E+04  1.009184E+04  1.394186E-09  4.947896E-11
       203  18 -1.404484E+04  1.909624E+04  1.720355E+04  9.305034E+03  1.471143E-10 -1.467941E-11
       203  19 -1.939498E+05 -1.832024E+04 -1.559479E+04  1.289311E+04 -2.286744E+02 -4.967690E+03
       203  20 -2.060894E+05 -2.285237E+04 -2.094870E+04  1.368175E+04 -6.227790E+03 -4.403384E+03
       203  21 -2.201215E+05 -3.182257E+04 -3.131882E+04  1.723283E+04 -1.222762E+04 -1.357370E+03
       203  22 -1.170870E+05 -2.029326E+02 -1.886490E+03  1.326704E+04 -1.377537E+03 -4.968069E+03
       203  23 -1.165085E+05 -1.431084E+03 -3.432134E+03  1.188693E+04 -3.149121E+03 -4.402207E+03
       203  24 -1.170881E+05 -6.362831E+03 -7.057364E+03  1.326926E+04 -4.921508E+03 -1.354761E+03
       203  25 -4.021843E+04  1.791405E+04  1.182160E+04  1.364102E+04 -2.526537E+03 -4.968449E+03
       203  26 -2.691989E+04  1.998973E+04  1.408408E+04  1.009184E+04 -7.001774E+01 -4.401049E+03
       203  27 -1.404484E+04  1.909624E+04  1.720357E+04  9.305031E+03  2.385808E+03 -1.352246E+03
       204   1 -1.900129E+04  2.025448E+04  1.754121E+04  1.328592E+03 -3.308618E+03 -1.610392E+03
       204   2 -2.727204E+04  2.715201E+04  1.937545E+04  2.572546E+03 -3.437321E+03 -5.099010E+03
       204   3 -3.769509E+04  2.536879E+04  1.912436E+04  7.438405E+03 -3.567070E+03 -5.424250E+03
       204   4 -1.399171E+05 -9.777014E+03 -1.170884E+04  6.017589E+03 -8.053191E+03 -1.612045E+03
       204   5 -1.385830E+05 -5.534987E+01 -5.348049E+03  4.204729E+03 -5.221436E+03 -5.099752E+03
       204   6 -1.399158E+05  4.706556E+02 -3.129070E+03  6.013836E+03 -2.390713E+03 -5.423825E+03
       204   7 -2.608194E+05 -3.980949E+04 -4.095985E+04  1.070567E+04 -1.279684E+04 -1.613769E+03
       204   8 -2.498824E+05 -2.726354E+04 -3.007230E+04  5.836616E+03 -7.005234E+03 -5.100503E+03
       204   9 -2.421267E+05 -2.442817E+04 -2.538313E+04  4.589503E+03 -1.214548E+03 -5.423404E+03
       204  10 -1.900130E+04  2.025448E+04  1.754119E+04  1.328588E+03  6.164359E-09 -2.630783E-10
       204  11 -2.727206E+04  2.715198E+04  1.937537E+04  2.572532E+03 -2.384853E-09 -1.002806E-09
       204  12 -3.769511E+04  2.536876E+04  1.912429E+04  7.438389E+03 -1.063407E-08 -3.135079E-09
       204  13 -1.399172E+05 -9.777034E+03 -1.170897E+04  6.017579E+03 -4.402921E-10 -5.809506E-11
       204  14 -1.385830E+05 -5.538512E+01 -5.348149E+03  4.204708E+03  7.919900E-11  1.710125E-09
       204  15 -1.399158E+05  4.706225E+02 -3.129136E+03  6.013825E+03 -1.106497E-10  5.007121E-09
       204  16 -2.608196E+05 -3.980953E+04 -4.096016E+04  1.070565E+04 -5.869225E-09 -1.383570E-10
       204  17 -2.498824E+05 -2.726358E+04 -3.007244E+04  5.836587E+03  2.031776E-09 -1.004123E-09
       204  18 -2.421267E+05 -2.442820E+04 -2.538318E+04  4.589498E+03  1.079914E-08 -3.716282E-09
       204  19 -1.900129E+04  2.025448E+04  1.754121E+04  1.328592E+03  3.308618E+03  1.610392E+03
       204  20 -2.727204E+04  2.715201E+04  1.937545E+04  2.572546E+03  3.437321E+03  5.099010E+03
       204  21 -3.769509E+04  2.536879E+04  1.912436E+04  7.438405E+03  3.567070E+03  5.424250E+03
       204  22 -1.399171E+05 -9.777014E+03 -1.170884E+04  6.017589E+03  8.053191E+03  1.612045E+03
       204  23 -1.385830E+05 -5.534987E+01 -5.348049E+03  4.204729E+03  5.221436E+03  5.099752E+03
       204  24 -1.399158E+05  4.706556E+02 -3.129070E+03  6.013836E+03  2.390713E+03  5.423825E+03
       204  25 -2.608194E+05 -3.980949E+04 -4.095985E+04  1.070567E+04  1.279684E+04  1.613769E+03
       204  26 -2.498824E+05 -2.726354E+04 -3.007230E+04  5.836616E+03  7.005234E+03  5.100503E+03
       204  27 -2.421267E+05 -2.442817E+04 -2.538313E+04  4.589503E+03  1.214548E+03  5.423404E+03
       205   1 -4.473346E+04  2.255749E+04  1.822488E+04  5.898440E+03 -2.216564E+03 -4.847057E+03
       205   2 -5.397184E+04  2.079328E+04  1.724136E+04  4.152336E+03 -1.673890E+03 -4.490040E+03
       205   3 -6.340412E+04  1.854249E+04  1.578254E+04  6.173653E+03 -1.131346E+03 -3.990386E+03
       205   4 -1.393712E+05 -5.134951E+02 -2.483806E+03  6.047267E+03 -1.949178E+03 -4.846997E+03
       205   5 -1.392623E+05  1.560181E+01 -1.347837E+03  4.163414E+03 -1.273099E+03 -4.489902E+03
       205   6 -1.393707E+05  3.488810E+01 -7.799184E+02  6.047018E+03 -5.971445E+02 -3.990163E+03
       205   7 -2.340006E+05 -2.358508E+04 -2.319303E+04  6.196070E+03 -1.681832E+03 -4.846937E+03
       205   8 -2.245459E+05 -2.076256E+04 -1.993747E+04  4.174490E+03 -8.723625E+02 -4.489765E+03
       205   9 -2.153318E+05 -1.847310E+04 -1.734273E+04  5.920398E+03 -6.300710E+01 -3.989940E+03
       205  10 -4.473347E+04  2.255747E+04  1.822482E+04  5.898432E+03  1.032226E-08 -3.266344E-09
       205  11 -5.397185E+04  2.079326E+04  1.724132E+04  4.152330E+03  2.886956E-09 -4.620110E-10
       205  12 -6.340412E+04  1.854248E+04  1.578251E+04  6.173650E+03 -7.738075E-09  7.327762E-10
       205  13 -1.393712E+05 -5.135213E+02 -2.483858E+03  6.047260E+03  4.325250E-10  6.345133E-09
       205  14 -1.392623E+05  1.557973E+01 -1.347878E+03  4.163410E+03  4.241478E-10  1.084884E-09
       205  15 -1.393707E+05  3.487091E+01 -7.799490E+02  6.047016E+03 -1.553369E-09  2.082565E-09
       205  16 -2.340006E+05 -2.358511E+04 -2.319308E+04  6.196064E+03 -9.811050E-09 -4.335911E-09
       205  17 -2.245459E+05 -2.076258E+04 -1.993751E+04  4.174487E+03 -1.564448E-09 -2.257665E-09
       205  18 -2.153318E+05 -1.847312E+04 -1.734276E+04  5.920398E+03  7.369620E-09 -4.689229E-11
       205  19 -4.473346E+04  2.255749E+04  1.822488E+04  5.898440E+03  2.216564E+03  4.847057E+03
       205  20 -5.397184E+04  2.079328E+04  1.724136E+04  4.152336E+03  1.673890E+03  4.490040E+03
       205  21 -6.340412E+04  1.854249E+04  1.578254E+04  6.173653E+03  1.131346E+03  3.990386E+03
       205  22 -1.393712E+05 -5.134951E+02 -2.483806E+03  6.047267E+03  1.949178E+03  4.846997E+03
       205  23 -1.392623E+05  1.560181E+01 -1.347837E+03  4.163414E+03  1.273099E+03  4.489902E+03
       205  24 -1.393707E+05  3.488810E+01 -7.799184E+02  6.047018E+03  5.971445E+02  3.990163E+03
       205  25 -2.340006E+05 -2.358508E+04 -2.319303E+04  6.196070E+03  1.681832E+03  4.846937E+03
       205  26 -2.245459E+05 -2.076256E+04 -1.993747E+04  4.174490E+03  8.723625E+02  4.489765E+03
       205  27 -2.153318E+05 -1.847310E+04 -1.734273E+04  5.920398E+03  6.300710E+01  3.989940E+03
       206   1 -7.088820E+04  1.664840E+04  1.427957E+04  6.086021E+03 -9.692991E+02 -3.665034E+03
       206   2 -8.022097E+04  1.440143E+04  1.251877E+04  4.192712E+03 -8.041204E+02 -3.134330E+03
       206   3 -8.958504E+04  1.213014E+04  1.064345E+04  6.080262E+03 -6.389845E+02 -2.596987E+03
       206   4 -1.393293E+05 -1.725130E+01 -5.996050E+02  6.050074E+03 -4.757543E+02 -3.664818E+03
       206   5 -1.393130E+05  8.564548E+00 -3.462931E+02  4.159627E+03 -3.043785E+02 -3.134094E+03
       206   6 -1.393290E+05  9.021800E+00 -2.117762E+02  6.050060E+03 -1.330430E+02 -2.596731E+03
       206   7 -2.077660E+05 -1.668322E+04 -1.547906E+04  6.014131E+03  1.773678E+01 -3.664601E+03
       206   8 -1.984017E+05 -1.438453E+04 -1.321157E+04  4.126545E+03  1.953165E+02 -3.133858E+03
       206   9 -1.890706E+05 -1.211226E+04 -1.106716E+04  6.019861E+03  3.728586E+02 -2.596474E+03
       206  10 -7.088821E+04  1.664839E+04  1.427954E+04  6.086018E+03 -1.743734E-09 -1.369876E-09
       206  11 -8.022097E+04  1.440142E+04  1.251875E+04  4.192710E+03 -9.170053E-10 -1.627920E-09
       206  12 -8.958504E+04  1.213013E+04  1.064344E+04  6.080260E+03 -1.858902E-09 -5.986304E-10
       206  13 -1.393293E+05 -1.726578E+01 -5.996307E+02  6.050073E+03 -1.900032E-12 -6.916302E-10
       206  14 -1.393130E+05  8.553976E+00 -3.463117E+02  4.159627E+03  4.566424E-10 -1.672815E-09
       206  15 -1.393290E+05  9.014555E+00 -2.117889E+02  6.050060E+03  3.683395E-10 -7.184239E-10
       206  16 -2.077661E+05 -1.668323E+04 -1.547908E+04  6.014131E+03  1.304435E-09 -8.412930E-10
       206  17 -1.984017E+05 -1.438454E+04 -1.321158E+04  4.126546E+03 -2.141570E-10 -2.559637E-10
       206  18 -1.890706E+05 -1.211226E+04 -1.106717E+04  6.019862E+03  1.756289E-09  1.025278E-09
       206  19 -7.088820E+04  1.664840E+04  1.427957E+04  6.086021E+03  9.692991E+02  3.665034E+03
       206  20 -8.022097E+04  1.440143E+04  1.251877E+04  4.192712E+03  8.041204E+02  3.134330E+03
       206  21 -8.958504E+04  1.213014E+04  1.064345E+04  6.080262E+03  6.389845E+02  2.596987E+03
       206  22 -1.393293E+05 -1.725130E+01 -5.996050E+02  6.050074E+03  4.757543E+02  3.664818E+03
       206  23 -1.393130E+05  8.564548E+00 -3.462931E+02  4.159627E+03  3.043785E+02  3.134094E+03
       206  24 -1.393290E+05  9.021800E+00 -2.117762E+02  6.050060E+03  1.330430E+02  2.596731E+03
       206  25 -2.077660E+05 -1.668322E+04 -1.547906E+04  6.014131E+03 -1.773678E+01  3.664601E+03
       206  26 -1.984017E+05 -1.438453E+04 -1.321157E+04  4.126545E+03 -1.953165E+02  3.133858E+03
       206  27 -1.890706E+05 -1.211226E+04 -1.106716E+04  6.019861E+03 -3.728586E+02  2.596474E+03
       207   1 -9.711232E+04  1.028297E+04  8.992045E+03  6.072913E+03 -6.028659E+02 -2.282610E+03
       207   2 -1.064640E+05  8.008564E+03  7.024619E+03  4.173935E+03 -5.404078E+02 -1.743564E+03
       207   3 -1.158281E+05  5.736222E+03  5.015896E+03  6.059501E+03 -4.779730E+02 -1.204106E+03
       207   4 -1.393244E+05  6.696666E+00 -1.715998E+02  6.050882E+03 -9.859954E+01 -2.282347E+03
       207   5 -1.393181E+05  6.377080E+00 -1.277188E+02  4.158603E+03 -3.576365E+01 -1.743290E+03
       207   6 -1.393242E+05  8.056040E+00 -1.253974E+02  6.050881E+03  2.704986E+01 -1.203823E+03
       207   7 -1.815349E+05 -1.026969E+04 -9.335350E+03  6.028852E+03  4.056330E+02 -2.282083E+03
       207   8 -1.721711E+05 -7.995882E+03 -7.280121E+03  4.143273E+03  4.688541E+02 -1.743017E+03
       207   9 -1.628199E+05 -5.720147E+03 -5.266723E+03  6.042262E+03  5.320539E+02 -1.203540E+03
       207  10 -9.711232E+04  1.028296E+04  8.992035E+03  6.072912E+03 -1.054357E-09 -1.390458E-09
       207  11 -1.064640E+05  8.008561E+03  7.024613E+03  4.173934E+03  1.286911E-10  4.156817E-11
       207  12 -1.158281E+05  5.736220E+03  5.015893E+03  6.059500E+03 -1.919927E-09 -4.923358E-11
       207  13 -1.393244E+05  6.691070E+00 -1.716096E+02  6.050881E+03 -5.428107E-10  5.733227E-12
       207  14 -1.393181E+05  6.373816E+00 -1.277246E+02  4.158603E+03 -2.113677E-11 -1.092567E-09
       207  15 -1.393242E+05  8.054484E+00 -1.254002E+02  6.050881E+03 -3.950251E-11 -6.150936E-10
       207  16 -1.815349E+05 -1.026970E+04 -9.335360E+03  6.028853E+03 -1.879228E-10  1.479002E-10
       207  17 -1.721711E+05 -7.995885E+03 -7.280127E+03  4.143273E+03  9.907776E-11  1.945275E-09
       207  18 -1.628199E+05 -5.720148E+03 -5.266727E+03  6.042262E+03  1.608670E-09  3.668090E-10
       207  19 -9.711232E+04  1.028297E+04  8.992045E+03  6.072913E+03  6.028659E+02  2.282610E+03
       207  20 -1.064640E+05  8.008564E+03  7.024619E+03  4.173935E+03  5.404078E+02  1.743564E+03
       207  21 -1.158281E+05  5.736222E+03  5.015896E+03  6.059501E+03  4.779730E+02  1.204106E+03
       207  22 -1.393244E+05  6.696666E+00 -1.715998E+02  6.050882E+03  9.859954E+01  2.282347E+03
       207  23 -1.393181E+05  6.377080E+00 -1.277188E+02  4.158603E+03  3.576365E+01  1.743290E+03
       207  24 -1.393242E+05  8.056040E+00 -1.253974E+02  6.050881E+03 -2.704986E+01  1.203823E+03
       207  25 -1.815349E+05 -1.026969E+04 -9.335350E+03  6.028852E+03 -4.056330E+02  2.282083E+03
       207  26 -1.721711E+05 -7.995882E+03 -7.280121E+03  4.143273E+03 -4.688541E+02  1.743017E+03
       207  27 -1.628199E+05 -5.720147E+03 -5.266723E+03  6.042262E+03 -5.320539E+02  1.203540E+03
       208   1 -1.233661E+05  3.890032E+03  3.309577E+03  6.055464E+03 -4.542519E+02 -8.899960E+02
       208   2 -1.327189E+05  1.614740E+03  1.237148E+03  4.153831E+03 -3.559970E+02 -3.503362E+02
       208   3 -1.420897E+05 -6.603898E+02 -9.004598E+02  6.038320E+03 -2.577495E+02  1.891695E+02
       208   4 -1.393254E+05  8.058231E+00 -1.386502E+02  6.051229E+03  5.081614E+01 -8.897092E+02
       208   5 -1.393164E+05  7.817324E+00 -1.990926E+02  4.158168E+03  1.489187E+02 -3.500478E+02
       208   6 -1.393254E+05  7.734526E+00 -3.246419E+02  6.051230E+03  2.470154E+02  1.894600E+02
       208   7 -1.552845E+05 -3.873932E+03 -3.586892E+03  6.046994E+03  5.558713E+02 -8.894223E+02
       208   8 -1.459137E+05 -1.599108E+03 -1.635334E+03  4.162504E+03  6.538291E+02 -3.497593E+02
       208   9 -1.365611E+05  6.758585E+02  2.511765E+02  6.064140E+03  7.517824E+02  1.897504E+02
       208  10 -1.233661E+05  3.890031E+03  3.309575E+03  6.055464E+03 -7.753701E-10  5.144767E-10
       208  11 -1.327189E+05  1.614740E+03  1.237147E+03  4.153831E+03  6.103716E-10 -2.357814E-10
       208  12 -1.420897E+05 -6.603899E+02 -9.004600E+02  6.038320E+03 -4.970050E-10 -8.815351E-10
       208  13 -1.393254E+05  8.057380E+00 -1.386517E+02  6.051229E+03  9.843710E-10  1.937198E-09
       208  14 -1.393164E+05  7.817187E+00 -1.990928E+02  4.158168E+03 -1.175120E-10 -7.370621E-10
       208  15 -1.393254E+05  7.734471E+00 -3.246421E+02  6.051229E+03 -1.242121E-11 -1.037947E-09
       208  16 -1.552845E+05 -3.873933E+03 -3.586894E+03  6.046995E+03  9.946538E-10  1.788934E-10
       208  17 -1.459137E+05 -1.599108E+03 -1.635335E+03  4.162504E+03  1.805299E-10 -2.381568E-09
       208  18 -1.365611E+05  6.758583E+02  2.511754E+02  6.064139E+03  9.003591E-10 -1.040434E-09
       208  19 -1.233661E+05  3.890032E+03  3.309577E+03  6.055464E+03  4.542519E+02  8.899960E+02
       208  20 -1.327189E+05  1.614740E+03  1.237148E+03  4.153831E+03  3.559970E+02  3.503362E+02
       208  21 -1.420897E+05 -6.603898E+02 -9.004598E+02  6.038320E+03  2.577495E+02 -1.891695E+02
       208  22 -1.393254E+05  8.058231E+00 -1.386502E+02  6.051229E+03 -5.081614E+01  8.897092E+02
       208  23 -1.393164E+05  7.817324E+00 -1.990926E+02  4.158168E+03 -1.489187E+02  3.500478E+02
       208  24 -1.393254E+05  7.734526E+00 -3.246419E+02  6.051230E+03 -2.470154E+02 -1.894600E+02
       208  25 -1.552845E+05 -3.873932E+03 -3.586892E+03  6.046994E+03 -5.558713E+02  8.894223E+02
       208  26 -1.459137E+05 -1.599108E+03 -1.635334E+03  4.162504E+03 -6.538291E+02  3.497593E+02
       208  27 -1.365611E+05  6.758585E+02  2.511765E+02  6.064140E+03 -7.517824E+02 -1.897504E+02
       209   1 -1.496385E+05 -2.501948E+03 -2.690086E+03  6.023602E+03 -1.918718E+02  5.036829E+02
       209   2 -1.589652E+05 -4.774396E+03 -5.003687E+03  4.127297E+03  1.700355E+02  1.042352E+03
       209   3 -1.683592E+05 -7.106146E+03 -7.569037E+03  6.016280E+03  5.319583E+02  1.576558E+03
       209   4 -1.393361E+05  1.269182E+01 -4.210739E+02  6.051032E+03  3.141242E+02  5.039729E+02
       209   5 -1.393030E+05  1.499972E+01 -7.224179E+02  4.158408E+03  6.718667E+02  1.042634E+03
       209   6 -1.393363E+05 -4.122603E+01 -1.272570E+03  6.051064E+03  1.029630E+03  1.576833E+03
       209   7 -1.290337E+05  2.527325E+03  1.847933E+03  6.078463E+03  8.201285E+02  5.042629E+02
       209   8 -1.196404E+05  4.804370E+03  3.558829E+03  4.189519E+03  1.173714E+03  1.042915E+03
       209   9 -1.103126E+05  7.023638E+03  5.023847E+03  6.085849E+03  1.527325E+03  1.577107E+03
       209  10 -1.496385E+05 -2.501948E+03 -2.690087E+03  6.023602E+03 -2.039723E-09 -4.973930E-10
       209  11 -1.589652E+05 -4.774397E+03 -5.003689E+03  4.127297E+03 -4.824137E-10 -1.638933E-09
       209  12 -1.683592E+05 -7.106148E+03 -7.569042E+03  6.016279E+03  1.171805E-09 -4.997234E-10
       209  13 -1.393361E+05  1.269152E+01 -4.210745E+02  6.051032E+03  4.330892E-12 -4.939892E-10
       209  14 -1.393030E+05  1.499843E+01 -7.224208E+02  4.158407E+03  6.881232E-10  5.569679E-10
       209  15 -1.393363E+05 -4.122899E+01 -1.272577E+03  6.051062E+03  3.054504E-10  1.302865E-10
       209  16 -1.290337E+05  2.527324E+03  1.847931E+03  6.078462E+03  1.958828E-09  1.380583E-09
       209  17 -1.196404E+05  4.804369E+03  3.558824E+03  4.189518E+03  1.354982E-09 -1.656098E-10
       209  18 -1.103126E+05  7.023635E+03  5.023838E+03  6.085847E+03 -5.897943E-10  1.075168E-09
       209  19 -1.496385E+05 -2.501948E+03 -2.690086E+03  6.023602E+03  1.918718E+02 -5.036829E+02
       209  20 -1.589652E+05 -4.774396E+03 -5.003687E+03  4.127297E+03 -1.700355E+02 -1.042352E+03
       209  21 -1.683592E+05 -7.106146E+03 -7.569037E+03  6.016280E+03 -5.319583E+02 -1.576558E+03
       209  22 -1.393361E+05  1.269182E+01 -4.210739E+02  6.051032E+03 -3.141242E+02 -5.039729E+02
       209  23 -1.393030E+05  1.499972E+01 -7.224179E+02  4.158408E+03 -6.718667E+02 -1.042634E+03
       209  24 -1.393363E+05 -4.122603E+01 -1.272570E+03  6.051064E+03 -1.029630E+03 -1.576833E+03
       209  25 -1.290337E+05  2.527325E+03  1.847933E+03  6.078463E+03 -8.201285E+02 -5.042629E+02
       209  26 -1.196404E+05  4.804370E+03  3.558829E+03  4.189519E+03 -1.173714E+03 -1.042915E+03
       209  27 -1.103126E+05  7.023638E+03  5.023847E+03  6.085849E+03 -1.527325E+03 -1.577107E+03
       210   1 -1.759846E+05 -8.839921E+03 -9.645883E+03  5.822215E+03  7.623042E+02  1.898782E+03
       210   2 -1.850983E+05 -1.115220E+04 -1.288865E+04  4.227613E+03  2.297845E+03  2.412382E+03
       210   3 -1.946941E+05 -1.457544E+04 -1.741011E+04  6.411768E+03  3.833440E+03  2.828375E+03
       210   4 -1.394252E+05  7.048773E+01 -1.661158E+03  6.049428E+03  1.287860E+03  1.899066E+03
       210   5 -1.391923E+05  3.243990E+01 -2.879337E+03  4.160370E+03  2.732156E+03  2.412602E+03
       210   6 -1.394257E+05 -1.100660E+03 -5.312759E+03  6.050057E+03  4.176529E+03  2.828535E+03
       210   7 -1.028646E+05  8.980808E+03  6.323488E+03  6.276653E+03  1.813446E+03  1.899350E+03
       210   8 -9.328439E+04  1.121694E+04  7.129849E+03  4.093122E+03  3.166498E+03  2.412823E+03
       210   9 -8.415439E+04  1.237391E+04  6.784410E+03  5.688314E+03  4.519648E+03  2.828694E+03
       210  10 -1.759846E+05 -8.839925E+03 -9.645891E+03  5.822214E+03  2.429451E-09 -5.991689E-10
       210  11 -1.850983E+05 -1.115221E+04 -1.288867E+04  4.227609E+03  7.065661E-10  9.642888E-10
       210  12 -1.946941E+05 -1.457545E+04 -1.741016E+04  6.411759E+03 -5.759017E-10 -5.726614E-10
       210  13 -1.394252E+05  7.048341E+01 -1.661168E+03  6.049426E+03  9.842378E-11 -2.019849E-09
       210  14 -1.391924E+05  3.243164E+01 -2.879362E+03  4.160365E+03 -7.727055E-12  8.491864E-10
       210  15 -1.394257E+05 -1.100674E+03 -5.312807E+03  6.050048E+03 -9.116463E-10 -5.453513E-11
       210  16 -1.028646E+05  8.980803E+03  6.323475E+03  6.276651E+03 -1.578208E-09 -6.354927E-10
       210  17 -9.328440E+04  1.121693E+04  7.129819E+03  4.093116E+03 -1.200719E-09 -2.848797E-09
       210  18 -8.415441E+04  1.237390E+04  6.784356E+03  5.688303E+03  9.893001E-10  6.981771E-11
       210  19 -1.759846E+05 -8.839921E+03 -9.645883E+03  5.822215E+03 -7.623042E+02 -1.898782E+03
       210  20 -1.850983E+05 -1.115220E+04 -1.288865E+04  4.227613E+03 -2.297845E+03 -2.412382E+03
       210  21 -1.946941E+05 -1.457544E+04 -1.741011E+04  6.411768E+03 -3.833440E+03 -2.828375E+03
       210  22 -1.394252E+05  7.048773E+01 -1.661158E+03  6.049428E+03 -1.287860E+03 -1.899066E+03
       210  23 -1.391923E+05  3.243990E+01 -2.879337E+03  4.160370E+03 -2.732156E+03 -2.412602E+03
       210  24 -1.394257E+05 -1.100660E+03 -5.312759E+03  6.050057E+03 -4.176529E+03 -2.828535E+03
       210  25 -1.028646E+05  8.980808E+03  6.323488E+03  6.276653E+03 -1.813446E+03 -1.899350E+03
       210  26 -9.328439E+04  1.121694E+04  7.129849E+03  4.093122E+03 -3.166498E+03 -2.412823E+03
       210  27 -8.415439E+04  1.237391E+04  6.784410E+03  5.688314E+03 -4.519648E+03 -2.828694E+03
       211   1 -2.034356E+05 -1.430719E+04 -2.038581E+04  3.020726E+03  4.155926E+03  3.322785E+03
       211   2 -2.097726E+05 -1.772667E+04 -2.746255E+04  7.722077E+03  1.223858E+04  3.275207E+03
       211   3 -2.221748E+05 -4.118427E+04 -4.481268E+04  1.610775E+04  2.032197E+04  1.061782E+03
       211   4 -1.405916E+05  1.006004E+03 -6.694427E+03  6.026070E+03  5.121299E+03  3.323276E+03
       211   5 -1.377360E+05 -1.167409E+02 -1.144278E+04  4.189101E+03  1.117771E+04  3.274590E+03
       211   6 -1.405934E+05 -2.092467E+04 -2.505646E+04  6.036669E+03  1.723504E+04  1.059999E+03
       211   7 -7.774379E+04  1.631897E+04  6.996724E+03  9.031722E+03  6.086768E+03  3.323777E+03
       211   8 -6.569450E+04  1.749289E+04  4.576686E+03  6.557105E+02  1.011673E+04  3.273986E+03
       211   9 -5.900567E+04 -6.651583E+02 -5.300626E+03 -4.035743E+03  1.414771E+04  1.058317E+03
       211  10 -2.034357E+05 -1.430721E+04 -2.038586E+04  3.020715E+03  1.742117E-09 -6.839457E-10
       211  11 -2.097727E+05 -1.772673E+04 -2.746285E+04  7.722045E+03  1.729731E-09 -6.903042E-10
       211  12 -2.221753E+05 -4.118439E+04 -4.481346E+04  1.610774E+04  1.200281E-09  9.905609E-10
       211  13 -1.405916E+05  1.005985E+03 -6.694497E+03  6.026056E+03 -5.406857E-10  2.582110E-10
       211  14 -1.377361E+05 -1.167860E+02 -1.144303E+04  4.189072E+03  6.676530E-10  5.123376E-11
       211  15 -1.405937E+05 -2.092475E+04 -2.505702E+04  6.036655E+03 -4.969499E-10  1.064894E-10
       211  16 -7.774383E+04  1.631895E+04  6.996634E+03  9.031705E+03 -1.986789E-09  5.455098E-10
       211  17 -6.569461E+04  1.749285E+04  4.576473E+03  6.556838E+02 -1.731868E-09  1.328170E-09
       211  18 -5.900588E+04 -6.652132E+02 -5.301004E+03 -4.035755E+03 -1.512299E-10 -1.677512E-10
       211  19 -2.034356E+05 -1.430719E+04 -2.038581E+04  3.020726E+03 -4.155926E+03 -3.322785E+03
       211  20 -2.097726E+05 -1.772667E+04 -2.746255E+04  7.722077E+03 -1.223858E+04 -3.275207E+03
       211  21 -2.221748E+05 -4.118427E+04 -4.481268E+04  1.610775E+04 -2.032197E+04 -1.061782E+03
       211  22 -1.405916E+05  1.006004E+03 -6.694427E+03  6.026070E+03 -5.121299E+03 -3.323276E+03
       211  23 -1.377360E+05 -1.167409E+02 -1.144278E+04  4.189101E+03 -1.117771E+04 -3.274590E+03
       211  24 -1.405934E+05 -2.092467E+04 -2.505646E+04  6.036669E+03 -1.723504E+04 -1.059999E+03
       211  25 -7.774379E+04  1.631897E+04  6.996724E+03  9.031722E+03 -6.086768E+03 -3.323777E+03
       211  26 -6.569450E+04  1.749289E+04  4.576686E+03  6.557105E+02 -1.011673E+04 -3.273986E+03
       211  27 -5.900567E+04 -6.651583E+02 -5.300626E+03 -4.035743E+03 -1.414771E+04 -1.058317E+03

 stresses (elem, integ.pnt.,sxx,syy,szz,sxy,sxz,syz) for set ELALL and time  0.5000000E+00

         1   1  1.485458E+06  5.438665E+06  1.411132E+06 -1.002934E+06  6.975334E+04  5.262981E+05
         1   2  1.200089E+06  4.640028E+06  9.569595E+05 -9.182651E+05  2.321337E+05  2.392980E+05
         1   3  9.925133E+05  3.899851E+06  7.084106E+05 -9.619351E+05  2.693936E+05 -4.722992E+04
         1   4  6.236198E+04 -3.497441E+05  6.644439E+04 -9.527945E+05  7.069102E+04  4.368357E+04
         1   5  1.937248E+04 -3.542946E+05  3.518218E+04 -8.886987E+05  2.328207E+05  2.630368E+04
         1   6  7.905608E+03 -3.472629E+05  2.334953E+04 -9.529342E+05  2.693847E+05  8.993621E+03
         1   7 -1.362960E+06 -6.106890E+06 -1.279630E+06 -9.030882E+05  7.155833E+04 -4.344937E+05
         1   8 -1.162739E+06 -5.324444E+06 -8.874654E+05 -8.593458E+05  2.334915E+05 -1.850320E+05
         1   9 -9.776108E+05 -4.576536E+06 -6.621914E+05 -9.439709E+05  2.693773E+05  6.484780E+04
         1  10  1.485379E+06  5.438368E+06  1.410606E+06 -1.002963E+06 -1.596848E-09 -3.827304E-09
         1  11  1.200015E+06  4.639952E+06  9.567510E+05 -9.183097E+05  1.327786E-09 -1.832353E-09
         1  12  9.924348E+05  3.899829E+06  7.082702E+05 -9.619249E+05 -9.891688E-10 -2.077354E-10
         1  13  6.235610E+04 -3.497475E+05  6.643139E+04 -9.527970E+05 -5.397807E-10 -1.653854E-11
         1  14  1.931409E+04 -3.543099E+05  3.507899E+04 -8.887037E+05  1.764876E-09  3.620467E-12
         1  15  7.827670E+03 -3.472825E+05  2.321302E+04 -9.529362E+05  2.163187E-09 -1.088224E-10
         1  16 -1.363017E+06 -6.107096E+06 -1.279998E+06 -9.030631E+05 -1.646376E-09  3.752733E-09
         1  17 -1.162806E+06 -5.324495E+06 -8.876324E+05 -8.593109E+05  1.395425E-10  1.764348E-09
         1  18 -9.776899E+05 -4.576560E+06 -6.623358E+05 -9.439851E+05 -5.481332E-10  2.583868E-11
         1  19  1.485458E+06  5.438665E+06  1.411132E+06 -1.002934E+06 -6.975334E+04 -5.262981E+05
         1  20  1.200089E+06  4.640028E+06  9.569595E+05 -9.182651E+05 -2.321337E+05 -2.392980E+05
         1  21  9.925133E+05  3.899851E+06  7.084106E+05 -9.619351E+05 -2.693936E+05  4.722992E+04
         1  22  6.236198E+04 -3.497441E+05  6.644439E+04 -9.527945E+05 -7.069102E+04 -4.368357E+04
         1  23  1.937248E+04 -3.542946E+05  3.518218E+04 -8.886987E+05 -2.328207E+05 -2.630368E+04
         1  24  7.905608E+03 -3.472629E+05  2.334953E+04 -9.529342E+05 -2.693847E+05 -8.993621E+03
         1  25 -1.362960E+06 -6.106890E+06 -1.279630E+06 -9.030882E+05 -7.155833E+04  4.344937E+05
         1  26 -1.162739E+06 -5.324444E+06 -8.874654E+05 -8.593458E+05 -2.334915E+05  1.850320E+05
         1  27 -9.776108E+05 -4.576536E+06 -6.621914E+05 -9.439709E+05 -2.693773E+05 -6.484780E+04
         2   1  8.761777E+05  3.409014E+06  6.118824E+05 -9.664690E+05  2.493280E+05 -5.192367E+04
         2   2  6.928674E+05  2.635955E+06  4.669337E+05 -8.929282E+05  2.152680E+05 -9.420458E+04
         2   3  5.226153E+05  1.872129E+06  3.526540E+05 -9.567434E+05  1.663040E+05 -1.365452E+05
         2   4  7.828342E+03 -3.484279E+05  2.074015E+04 -9.549469E+05  2.492666E+05  5.473247E+03
         2   5  7.380001E+03 -3.492198E+05  2.051957E+04 -8.862439E+05  2.150177E+05 -4.818331E+03
         2   6  1.449888E+04 -3.468844E+05  2.883350E+04 -9.549350E+05  1.658276E+05 -1.521873E+04
         2   7 -8.612161E+05 -4.091841E+06 -5.707377E+05 -9.434755E+05  2.492071E+05  6.253699E+04
         2   8 -6.785237E+05 -3.325451E+06 -4.260379E+05 -8.795789E+05  2.147684E+05  8.415675E+04
         2   9 -4.938371E+05 -2.560912E+06 -2.950153E+05 -9.531248E+05  1.653506E+05  1.056932E+05
         2  10  8.761102E+05  3.408995E+06  6.117606E+05 -9.664586E+05 -1.815245E-09 -6.241874E-08
         2  11  6.928153E+05  2.635933E+06  4.668302E+05 -8.929119E+05  4.555448E-09 -1.191105E-09
         2  12  5.225806E+05  1.872101E+06  3.525673E+05 -9.567252E+05 -2.035115E-09  6.072326E-08
         2  13  7.761623E+03 -3.484446E+05  2.062334E+04 -9.549480E+05  1.383488E-09 -1.173312E-10
         2  14  7.330361E+03 -3.492322E+05  2.043267E+04 -8.862431E+05  2.005246E-09 -9.383345E-11
         2  15  1.446930E+04 -3.468921E+05  2.878142E+04 -9.549330E+05  4.954867E-11 -7.308680E-11
         2  16 -8.612839E+05 -4.091862E+06 -5.708619E+05 -9.434881E+05  2.046059E-09  6.188864E-08
         2  17 -6.785752E+05 -3.325471E+06 -4.261381E+05 -8.795935E+05  5.032482E-09  9.522351E-10
         2  18 -4.938695E+05 -2.560932E+06 -2.950879E+05 -9.531389E+05 -4.966079E-10 -6.055328E-08
         2  19  8.761777E+05  3.409014E+06  6.118824E+05 -9.664690E+05 -2.493280E+05  5.192367E+04
         2  20  6.928674E+05  2.635955E+06  4.669337E+05 -8.929282E+05 -2.152680E+05  9.420458E+04
         2  21  5.226153E+05  1.872129E+06  3.526540E+05 -9.567434E+05 -1.663040E+05  1.365452E+05
         2  22  7.828342E+03 -3.484279E+05  2.074015E+04 -9.549469E+05 -2.492666E+05 -5.473247E+03
         2  23  7.380001E+03 -3.492198E+05  2.051957E+04 -8.862439E+05 -2.150177E+05  4.818331E+03
         2  24  1.449888E+04 -3.468844E+05  2.883350E+04 -9.549350E+05 -1.658276E+05  1.521873E+04
         2  25 -8.612161E+05 -4.091841E+06 -5.707377E+05 -9.434755E+05 -2.492071E+05 -6.253699E+04
         2  26 -6.785237E+05 -3.325451E+06 -4.260379E+05 -8.795789E+05 -2.147684E+05 -8.415675E+04
         2  27 -4.938371E+05 -2.560912E+06 -2.950153E+05 -9.531248E+05 -1.653506E+05 -1.056932E+05
         3   1  4.144926E+05  1.393563E+06  2.863494E+05 -9.598229E+05  1.327463E+05 -1.416560E+05
         3   2  2.636799E+05  6.174651E+05  2.003442E+05 -8.504304E+05  7.576129E+04 -1.753472E+05
         3   3  1.667446E+05 -1.410245E+05  1.494860E+05 -8.794020E+05  1.800400E+04 -2.090373E+05
         3   4  1.723600E+04 -3.435151E+05  3.603556E+04 -9.551727E+05  1.322264E+05 -2.023281E+04
         3   5  4.271393E+04 -3.515938E+05  6.237608E+04 -8.858130E+05  7.520912E+04 -5.232118E+04
         3   6  1.218266E+05 -3.429911E+05  1.227060E+05 -9.547801E+05  1.742347E+04 -8.444399E+04
         3   7 -3.801506E+05 -2.077519E+06 -2.142703E+05 -9.505307E+05  1.317073E+05  1.008656E+05
         3   8 -1.782812E+05 -1.319668E+06 -7.554800E+04 -9.211366E+05  7.464234E+04  7.052120E+04
         3   9  7.693682E+04 -5.448702E+05  9.598715E+04 -1.030133E+06  1.681254E+04  4.011070E+04
         3  10  4.144684E+05  1.393536E+06  2.862788E+05 -9.598078E+05 -9.068646E-10 -1.480364E-09
         3  11  2.636655E+05  6.174306E+05  2.002758E+05 -8.504197E+05 -1.565109E-09  1.199273E-10
         3  12  1.667325E+05 -1.410716E+05  1.494033E+05 -8.793990E+05 -7.841408E-10  2.287283E-09
         3  13  1.721713E+04 -3.435203E+05  3.600196E+04 -9.551706E+05  4.980026E-11 -7.604048E-11
         3  14  4.270713E+04 -3.515982E+05  6.236033E+04 -8.858099E+05  2.390107E-09 -1.895191E-10
         3  15  1.218244E+05 -3.429988E+05  1.226920E+05 -9.547789E+05 -2.788700E-09 -3.587567E-11
         3  16 -3.801720E+05 -2.077534E+06 -2.143222E+05 -9.505414E+05  2.040485E-09  1.550371E-09
         3  17 -1.782886E+05 -1.319675E+06 -7.556787E+04 -9.211408E+05  1.162042E-09 -4.266972E-10
         3  18  7.693608E+04 -5.448720E+05  9.598359E+04 -1.030133E+06 -4.676969E-10 -2.352156E-09
         3  19  4.144926E+05  1.393563E+06  2.863494E+05 -9.598229E+05 -1.327463E+05  1.416560E+05
         3  20  2.636799E+05  6.174651E+05  2.003442E+05 -8.504304E+05 -7.576129E+04  1.753472E+05
         3  21  1.667446E+05 -1.410245E+05  1.494860E+05 -8.794020E+05 -1.800400E+04  2.090373E+05
         3  22  1.723600E+04 -3.435151E+05  3.603556E+04 -9.551727E+05 -1.322264E+05  2.023281E+04
         3  23  4.271393E+04 -3.515938E+05  6.237608E+04 -8.858130E+05 -7.520912E+04  5.232118E+04
         3  24  1.218266E+05 -3.429911E+05  1.227060E+05 -9.547801E+05 -1.742347E+04  8.444399E+04
         3  25 -3.801506E+05 -2.077519E+06 -2.142703E+05 -9.505307E+05 -1.317073E+05 -1.008656E+05
         3  26 -1.782812E+05 -1.319668E+06 -7.554800E+04 -9.211366E+05 -7.464234E+04 -7.052120E+04
         3  27  7.693682E+04 -5.448702E+05  9.598715E+04 -1.030133E+06 -1.681254E+04 -4.011070E+04
         4   1 -4.349721E+06 -1.299634E+06 -8.876702E+05 -1.472800E+06 -5.115773E+05 -1.895992E+05
         4   2 -4.185786E+06 -5.500643E+05 -4.048130E+05 -1.611465E+06 -3.298782E+05 -1.177014E+05
         4   3 -4.323449E+06 -6.233416E+05 -2.778011E+05 -1.568940E+06 -1.464089E+05 -5.052278E+04
         4   4 -4.117498E+06 -1.125607E+06 -8.063398E+05 -1.321210E+06 -5.104381E+05 -1.892622E+05
         4   5 -3.926283E+06 -4.297842E+05 -3.293416E+05 -1.518179E+06 -3.297419E+05 -1.176655E+05
         4   6 -4.036335E+06 -5.564204E+05 -2.072801E+05 -1.534002E+06 -1.472664E+05 -5.083120E+04
         4   7 -3.885204E+06 -9.515102E+05 -7.250127E+05 -1.169554E+06 -5.092985E+05 -1.889246E+05
         4   8 -3.666714E+06 -3.094899E+05 -2.538769E+05 -1.424855E+06 -3.296055E+05 -1.176295E+05
         4   9 -3.749138E+06 -4.895016E+05 -1.367640E+05 -1.499054E+06 -1.481243E+05 -5.113964E+04
         4  10 -4.350013E+06 -1.299744E+06 -8.882340E+05 -1.472878E+06  5.141655E-10 -9.281259E-10
         4  11 -4.185907E+06 -5.501087E+05 -4.050453E+05 -1.611497E+06 -5.329805E-10 -5.643484E-10
         4  12 -4.323473E+06 -6.233502E+05 -2.778465E+05 -1.568946E+06  1.856717E-09 -7.844801E-10
         4  13 -4.117789E+06 -1.125716E+06 -8.069009E+05 -1.321288E+06  1.556552E-09 -1.320129E-10
         4  14 -3.926404E+06 -4.298287E+05 -3.295737E+05 -1.518211E+06 -1.317374E-09 -7.125516E-10
         4  15 -4.036359E+06 -5.564290E+05 -2.073261E+05 -1.534008E+06 -5.699826E-10 -1.647292E-09
         4  16 -3.885494E+06 -9.516190E+05 -7.255710E+05 -1.169632E+06  3.498574E-10  3.968876E-10
         4  17 -3.666835E+06 -3.095343E+05 -2.541087E+05 -1.424886E+06  4.355696E-10 -4.592631E-10
         4  18 -3.749163E+06 -4.895104E+05 -1.368105E+05 -1.499060E+06 -1.681962E-09 -9.961324E-10
         4  19 -4.349721E+06 -1.299634E+06 -8.876702E+05 -1.472800E+06  5.115773E+05  1.895992E+05
         4  20 -4.185786E+06 -5.500643E+05 -4.048130E+05 -1.611465E+06  3.298782E+05  1.177014E+05
         4  21 -4.323449E+06 -6.233416E+05 -2.778011E+05 -1.568940E+06  1.464089E+05  5.052278E+04
         4  22 -4.117498E+06 -1.125607E+06 -8.063398E+05 -1.321210E+06  5.104381E+05  1.892622E+05
         4  23 -3.926283E+06 -4.297842E+05 -3.293416E+05 -1.518179E+06  3.297419E+05  1.176655E+05
         4  24 -4.036335E+06 -5.564204E+05 -2.072801E+05 -1.534002E+06  1.472664E+05  5.083120E+04
         4  25 -3.885204E+06 -9.515102E+05 -7.250127E+05 -1.169554E+06  5.092985E+05  1.889246E+05
         4  26 -3.666714E+06 -3.094899E+05 -2.538769E+05 -1.424855E+06  3.296055E+05  1.176295E+05
         4  27 -3.749138E+06 -4.895016E+05 -1.367640E+05 -1.499054E+06  1.481243E+05  5.113964E+04
         5   1 -4.144367E+06 -7.165868E+05 -2.105652E+05 -1.534296E+06 -1.156742E+05 -4.042184E+04
         5   2 -4.109186E+06 -5.825535E+05 -1.092854E+05 -1.528396E+06 -7.426392E+04 -2.547928E+04
         5   3 -4.087365E+06 -5.995667E+05 -7.041840E+04 -1.534038E+06 -3.255259E+04 -1.133435E+04
         5   4 -4.007108E+06 -6.529657E+05 -1.706130E+05 -1.484942E+06 -1.157064E+05 -4.043672E+04
         5   5 -3.994615E+06 -5.364693E+05 -7.733803E+04 -1.494442E+06 -7.446586E+04 -2.555517E+04
         5   6 -3.995438E+06 -5.709709E+05 -4.632899E+04 -1.515486E+06 -3.292592E+04 -1.147331E+04
         5   7 -3.869831E+06 -5.893405E+05 -1.306627E+05 -1.435578E+06 -1.157387E+05 -4.045161E+04
         5   8 -3.880032E+06 -4.903838E+05 -4.539199E+04 -1.460483E+06 -7.466783E+04 -2.563107E+04
         5   9 -3.903504E+06 -5.423753E+05 -2.224031E+04 -1.496931E+06 -3.329931E+04 -1.161229E+04
         5  10 -4.144382E+06 -7.165922E+05 -2.105936E+05 -1.534299E+06  2.346305E-09 -1.149177E-09
         5  11 -4.109192E+06 -5.825557E+05 -1.092970E+05 -1.528398E+06  6.048514E-10  6.228849E-10
         5  12 -4.087366E+06 -5.995672E+05 -7.042065E+04 -1.534038E+06 -4.664075E-10 -1.299497E-09
         5  13 -4.007123E+06 -6.529711E+05 -1.706414E+05 -1.484946E+06  3.932934E-10 -1.104772E-09
         5  14 -3.994621E+06 -5.364715E+05 -7.734976E+04 -1.494444E+06  2.132560E-09 -1.003188E-10
         5  15 -3.995439E+06 -5.709714E+05 -4.633129E+04 -1.515486E+06 -6.313656E-10 -8.933230E-10
         5  16 -3.869845E+06 -5.893459E+05 -1.306912E+05 -1.435582E+06  1.095099E-09 -1.700777E-09
         5  17 -3.880038E+06 -4.903861E+05 -4.540379E+04 -1.460485E+06 -6.252921E-10 -2.557750E-10
         5  18 -3.903505E+06 -5.423758E+05 -2.224266E+04 -1.496932E+06  4.010682E-11 -1.273852E-09
         5  19 -4.144367E+06 -7.165868E+05 -2.105652E+05 -1.534296E+06  1.156742E+05  4.042184E+04
         5  20 -4.109186E+06 -5.825535E+05 -1.092854E+05 -1.528396E+06  7.426392E+04  2.547928E+04
         5  21 -4.087365E+06 -5.995667E+05 -7.041840E+04 -1.534038E+06  3.255259E+04  1.133435E+04
         5  22 -4.007108E+06 -6.529657E+05 -1.706130E+05 -1.484942E+06  1.157064E+05  4.043672E+04
         5  23 -3.994615E+06 -5.364693E+05 -7.733803E+04 -1.494442E+06  7.446586E+04  2.555517E+04
         5  24 -3.995438E+06 -5.709709E+05 -4.632899E+04 -1.515486E+06  3.292592E+04  1.147331E+04
         5  25 -3.869831E+06 -5.893405E+05 -1.306627E+05 -1.435578E+06  1.157387E+05  4.045161E+04
         5  26 -3.880032E+06 -4.903838E+05 -4.539199E+04 -1.460483E+06  7.466783E+04  2.563107E+04
         5  27 -3.903504E+06 -5.423753E+05 -2.224031E+04 -1.496931E+06  3.329931E+04  1.161229E+04
         6   1 -3.940418E+06 -5.670544E+05 -2.327794E+04 -1.496157E+06 -2.547150E+04 -9.672598E+03
         6   2 -3.924873E+06 -5.223715E+05  3.734132E+03 -1.470145E+06 -1.570623E+04 -7.330998E+03
         6   3 -3.880301E+06 -5.308901E+05  1.922371E+04 -1.482099E+06 -5.969141E+03 -4.911481E+03
         6   4 -3.991000E+06 -5.845580E+05 -3.692694E+04 -1.508183E+06 -2.573381E+04 -9.770592E+03
         6   5 -4.004677E+06 -5.521216E+05 -1.805900E+04 -1.491368E+06 -1.595186E+04 -7.422746E+03
         6   6 -3.989330E+06 -5.728915E+05 -1.072694E+04 -1.512520E+06 -6.198576E+03 -4.997205E+03
         6   7 -4.041579E+06 -6.020617E+05 -5.057621E+04 -1.520209E+06 -2.599611E+04 -9.868579E+03
         6   8 -4.084475E+06 -5.818715E+05 -3.985275E+04 -1.512590E+06 -1.619745E+04 -7.514481E+03
         6   9 -4.098348E+06 -6.148920E+05 -4.067873E+04 -1.542936E+06 -6.427967E+03 -5.082911E+03
         6  10 -3.940418E+06 -5.670547E+05 -2.327934E+04 -1.496157E+06 -1.256473E-09 -8.782834E-10
         6  11 -3.924874E+06 -5.223716E+05  3.733563E+03 -1.470145E+06 -5.140044E-09  7.186002E-10
         6  12 -3.880301E+06 -5.308902E+05  1.922360E+04 -1.482099E+06 -2.531919E-09 -1.143595E-10
         6  13 -3.991000E+06 -5.845583E+05 -3.692838E+04 -1.508184E+06 -1.986278E-09 -1.248776E-09
         6  14 -4.004677E+06 -5.521218E+05 -1.805958E+04 -1.491368E+06 -4.922926E-09  5.121032E-11
         6  15 -3.989330E+06 -5.728915E+05 -1.072706E+04 -1.512520E+06  5.767542E-09 -4.120149E-10
         6  16 -4.041580E+06 -6.020619E+05 -5.057768E+04 -1.520210E+06  1.169000E-09 -1.154187E-09
         6  17 -4.084475E+06 -5.818716E+05 -3.985336E+04 -1.512590E+06  1.643670E-09  2.327102E-10
         6  18 -4.098348E+06 -6.148921E+05 -4.067885E+04 -1.542936E+06 -7.542841E-11 -1.102724E-10
         6  19 -3.940418E+06 -5.670544E+05 -2.327794E+04 -1.496157E+06  2.547150E+04  9.672598E+03
         6  20 -3.924873E+06 -5.223715E+05  3.734132E+03 -1.470145E+06  1.570623E+04  7.330998E+03
         6  21 -3.880301E+06 -5.308901E+05  1.922371E+04 -1.482099E+06  5.969141E+03  4.911481E+03
         6  22 -3.991000E+06 -5.845580E+05 -3.692694E+04 -1.508183E+06  2.573381E+04  9.770592E+03
         6  23 -4.004677E+06 -5.521216E+05 -1.805900E+04 -1.491368E+06  1.595186E+04  7.422746E+03
         6  24 -3.989330E+06 -5.728915E+05 -1.072694E+04 -1.512520E+06  6.198576E+03  4.997205E+03
         6  25 -4.041579E+06 -6.020617E+05 -5.057621E+04 -1.520209E+06  2.599611E+04  9.868579E+03
         6  26 -4.084475E+06 -5.818715E+05 -3.985275E+04 -1.512590E+06  1.619745E+04  7.514481E+03
         6  27 -4.098348E+06 -6.148920E+05 -4.067873E+04 -1.542936E+06  6.427967E+03  5.082911E+03
         7   1 -3.762029E+06 -4.862595E+05  5.423649E+04 -1.447091E+06 -4.071126E+03 -4.984676E+03
         7   2 -3.753141E+06 -4.628710E+05  6.357506E+04 -1.426623E+06 -1.257356E+03 -5.119023E+03
         7   3 -3.719051E+06 -4.682406E+05  7.046695E+04 -1.435467E+06  1.384046E+03 -4.789692E+03
         7   4 -3.990890E+06 -5.723816E+05 -8.522214E+03 -1.508769E+06 -4.353902E+03 -5.090445E+03
         7   5 -4.003378E+06 -5.573024E+05 -4.976873E+03 -1.494367E+06 -1.437407E+03 -5.186523E+03
         7   6 -3.990686E+06 -5.710030E+05 -3.960684E+03 -1.509279E+06  1.306599E+03 -4.818865E+03
         7   7 -4.219700E+06 -6.585007E+05 -7.128555E+04 -1.570426E+06 -4.636561E+03 -5.196171E+03
         7   8 -4.253555E+06 -6.517302E+05 -7.353447E+04 -1.562086E+06 -1.617378E+03 -5.253992E+03
         7   9 -4.262250E+06 -6.737613E+05 -7.839512E+04 -1.583061E+06  1.229189E+03 -4.848024E+03
         7  10 -3.762029E+06 -4.862595E+05  5.423641E+04 -1.447091E+06 -1.404897E-09 -4.494943E-10
         7  11 -3.753141E+06 -4.628710E+05  6.357501E+04 -1.426623E+06 -1.358283E-09  1.089693E-09
         7  12 -3.719051E+06 -4.682406E+05  7.046690E+04 -1.435467E+06  1.283855E-09 -1.276898E-09
         7  13 -3.990890E+06 -5.723816E+05 -8.522299E+03 -1.508769E+06  3.806462E-11 -4.477836E-10
         7  14 -4.003378E+06 -5.573024E+05 -4.976928E+03 -1.494367E+06  3.378231E-10  8.711720E-10
         7  15 -3.990686E+06 -5.710030E+05 -3.960731E+03 -1.509279E+06  5.854570E-10  3.604217E-10
         7  16 -4.219700E+06 -6.585007E+05 -7.128565E+04 -1.570426E+06  6.934256E-10 -1.367323E-09
         7  17 -4.253555E+06 -6.517302E+05 -7.353453E+04 -1.562086E+06 -2.947998E-09  8.079367E-11
         7  18 -4.262250E+06 -6.737613E+05 -7.839517E+04 -1.583061E+06  1.941062E-09 -1.210207E-09
         7  19 -3.762029E+06 -4.862595E+05  5.423649E+04 -1.447091E+06  4.071126E+03  4.984676E+03
         7  20 -3.753141E+06 -4.628710E+05  6.357506E+04 -1.426623E+06  1.257356E+03  5.119023E+03
         7  21 -3.719051E+06 -4.682406E+05  7.046695E+04 -1.435467E+06 -1.384046E+03  4.789692E+03
         7  22 -3.990890E+06 -5.723816E+05 -8.522214E+03 -1.508769E+06  4.353902E+03  5.090445E+03
         7  23 -4.003378E+06 -5.573024E+05 -4.976873E+03 -1.494367E+06  1.437407E+03  5.186523E+03
         7  24 -3.990686E+06 -5.710030E+05 -3.960684E+03 -1.509279E+06 -1.306599E+03  4.818865E+03
         7  25 -4.219700E+06 -6.585007E+05 -7.128555E+04 -1.570426E+06  4.636561E+03  5.196171E+03
         7  26 -4.253555E+06 -6.517302E+05 -7.353447E+04 -1.562086E+06  1.617378E+03  5.253992E+03
         7  27 -4.262250E+06 -6.737613E+05 -7.839512E+04 -1.583061E+06 -1.229189E+03  4.848024E+03
         8   1 -3.658895E+06 -4.400554E+05  8.818818E+04 -1.413551E+06  2.281625E+03 -4.868433E+03
         8   2 -3.656514E+06 -4.331786E+05  8.894853E+04 -1.407416E+06  4.755979E+03 -4.573524E+03
         8   3 -3.647083E+06 -4.362214E+05  8.751414E+04 -1.409142E+06  6.988621E+03 -3.633746E+03
         8   4 -3.994737E+06 -5.668416E+05 -3.893526E+03 -1.504510E+06  2.085497E+03 -4.942176E+03
         8   5 -3.998343E+06 -5.625310E+05 -4.761110E+03 -1.500330E+06  4.702777E+03 -4.593748E+03
         8   6 -3.994929E+06 -5.681696E+05 -7.938240E+03 -1.504012E+06  7.078260E+03 -3.600288E+03
         8   7 -4.330471E+06 -6.936213E+05 -9.598542E+04 -1.595424E+06  1.889486E+03 -5.015875E+03
         8   8 -4.340060E+06 -6.918767E+05 -9.848143E+04 -1.593198E+06  4.649608E+03 -4.613959E+03
         8   9 -4.342659E+06 -7.001109E+05 -1.034018E+05 -1.598834E+06  7.167844E+03 -3.566851E+03
         8  10 -3.658895E+06 -4.400554E+05  8.818813E+04 -1.413551E+06 -5.139840E-10 -2.236332E-09
         8  11 -3.656514E+06 -4.331787E+05  8.894845E+04 -1.407416E+06 -1.416102E-09 -6.328900E-10
         8  12 -3.647083E+06 -4.362215E+05  8.751402E+04 -1.409142E+06  4.658399E-10  1.024835E-09
         8  13 -3.994737E+06 -5.668416E+05 -3.893580E+03 -1.504510E+06  7.589906E-10 -3.807447E-10
         8  14 -3.998343E+06 -5.625310E+05 -4.761191E+03 -1.500330E+06  1.688764E-09 -1.411601E-10
         8  15 -3.994929E+06 -5.681696E+05 -7.938359E+03 -1.504012E+06 -2.595492E-09 -1.531351E-10
         8  16 -4.330471E+06 -6.936213E+05 -9.598548E+04 -1.595424E+06  2.236391E-09 -1.479217E-09
         8  17 -4.340060E+06 -6.918767E+05 -9.848151E+04 -1.593198E+06 -3.496910E-09  1.279516E-09
         8  18 -4.342659E+06 -7.001109E+05 -1.034019E+05 -1.598834E+06 -1.545702E-09  7.027601E-10
         8  19 -3.658895E+06 -4.400554E+05  8.818818E+04 -1.413551E+06 -2.281625E+03  4.868433E+03
         8  20 -3.656514E+06 -4.331786E+05  8.894853E+04 -1.407416E+06 -4.755979E+03  4.573524E+03
         8  21 -3.647083E+06 -4.362214E+05  8.751414E+04 -1.409142E+06 -6.988621E+03  3.633746E+03
         8  22 -3.994737E+06 -5.668416E+05 -3.893526E+03 -1.504510E+06 -2.085497E+03  4.942176E+03
         8  23 -3.998343E+06 -5.625310E+05 -4.761110E+03 -1.500330E+06 -4.702777E+03  4.593748E+03
         8  24 -3.994929E+06 -5.681696E+05 -7.938240E+03 -1.504012E+06 -7.078260E+03  3.600288E+03
         8  25 -4.330471E+06 -6.936213E+05 -9.598542E+04 -1.595424E+06 -1.889486E+03  5.015875E+03
         8  26 -4.340060E+06 -6.918767E+05 -9.848143E+04 -1.593198E+06 -4.649608E+03  4.613959E+03
         8  27 -4.342659E+06 -7.001109E+05 -1.034018E+05 -1.598834E+06 -7.167844E+03  3.566851E+03
         9   1 -3.662970E+06 -4.348358E+05  8.240291E+04 -1.408677E+06  8.563739E+03 -2.963299E+03
         9   2 -3.665886E+06 -4.426263E+05  7.252134E+04 -1.418320E+06  1.704653E+04  3.663655E+02
         9   3 -3.688604E+06 -4.521123E+05  5.223160E+04 -1.408595E+06  2.530033E+04  4.300941E+03
         9   4 -4.000243E+06 -5.617999E+05 -9.937402E+03 -1.499670E+06  8.520313E+03 -2.979871E+03
         9   5 -3.991111E+06 -5.662999E+05 -1.675813E+04 -1.507339E+06  1.713404E+04  3.991162E+02
         9   6 -4.001812E+06 -5.725264E+05 -3.409543E+04 -1.495639E+06  2.551888E+04  4.383190E+03
         9   7 -4.337406E+06 -6.887578E+05 -1.022881E+05 -1.590618E+06  8.476912E+03 -2.996434E+03
         9   8 -4.316235E+06 -6.899672E+05 -1.060472E+05 -1.596316E+06  1.722149E+04  4.318468E+02
         9   9 -4.314926E+06 -6.929340E+05 -1.204314E+05 -1.582643E+06  2.573731E+04  4.465390E+03
         9  10 -3.662970E+06 -4.348359E+05  8.240275E+04 -1.408677E+06  1.488556E-09 -1.057780E-09
         9  11 -3.665886E+06 -4.426264E+05  7.252079E+04 -1.418320E+06 -3.622316E-09 -6.273848E-10
         9  12 -3.688604E+06 -4.521125E+05  5.223035E+04 -1.408595E+06  1.087585E-09 -7.183327E-11
         9  13 -4.000243E+06 -5.617999E+05 -9.937555E+03 -1.499670E+06  2.970434E-10 -7.934777E-10
         9  14 -3.991112E+06 -5.663000E+05 -1.675868E+04 -1.507339E+06  6.560503E-10 -1.174046E-09
         9  15 -4.001813E+06 -5.725266E+05 -3.409670E+04 -1.495639E+06 -1.894104E-09  3.868571E-10
         9  16 -4.337406E+06 -6.887579E+05 -1.022882E+05 -1.590618E+06 -2.313310E-09 -8.718972E-11
         9  17 -4.316235E+06 -6.899673E+05 -1.060478E+05 -1.596316E+06 -3.239598E-09 -1.230032E-09
         9  18 -4.314926E+06 -6.929342E+05 -1.204327E+05 -1.582644E+06 -2.350447E-09  1.253647E-09
         9  19 -3.662970E+06 -4.348358E+05  8.240291E+04 -1.408677E+06 -8.563739E+03  2.963299E+03
         9  20 -3.665886E+06 -4.426263E+05  7.252134E+04 -1.418320E+06 -1.704653E+04 -3.663655E+02
         9  21 -3.688604E+06 -4.521123E+05  5.223160E+04 -1.408595E+06 -2.530033E+04 -4.300941E+03
         9  22 -4.000243E+06 -5.617999E+05 -9.937402E+03 -1.499670E+06 -8.520313E+03  2.979871E+03
         9  23 -3.991111E+06 -5.662999E+05 -1.675813E+04 -1.507339E+06 -1.713404E+04 -3.991162E+02
         9  24 -4.001812E+06 -5.725264E+05 -3.409543E+04 -1.495639E+06 -2.551888E+04 -4.383190E+03
         9  25 -4.337406E+06 -6.887578E+05 -1.022881E+05 -1.590618E+06 -8.476912E+03  2.996434E+03
         9  26 -4.316235E+06 -6.899672E+05 -1.060472E+05 -1.596316E+06 -1.722149E+04 -4.318468E+02
         9  27 -4.314926E+06 -6.929340E+05 -1.204314E+05 -1.582643E+06 -2.573731E+04 -4.465390E+03
        10   1 -3.773938E+06 -4.727881E+05  2.064885E+04 -1.439903E+06  3.153117E+04  7.220292E+03
        10   2 -3.772729E+06 -4.757848E+05 -1.478084E+04 -1.456455E+06  6.907711E+04  2.229111E+04
        10   3 -3.846935E+06 -5.548725E+05 -1.076328E+05 -1.411256E+06  1.065124E+05  3.764711E+04
        10   4 -4.009468E+06 -5.565721E+05 -4.280914E+04 -1.498480E+06  3.166465E+04  7.270942E+03
        10   5 -3.977253E+06 -5.562134E+05 -7.146097E+04 -1.515136E+06  6.926234E+04  2.236069E+04
        10   6 -4.020478E+06 -6.319763E+05 -1.575893E+05 -1.470037E+06  1.067514E+05  3.773516E+04
        10   7 -4.244945E+06 -6.403546E+05 -1.062721E+05 -1.557037E+06  3.179807E+04  7.321572E+03
        10   8 -4.181738E+06 -6.366388E+05 -1.281450E+05 -1.573800E+06  6.944750E+04  2.243025E+04
        10   9 -4.193991E+06 -7.090752E+05 -2.075488E+05 -1.528801E+06  1.069904E+05  3.782317E+04
        10  10 -3.773939E+06 -4.727885E+05  2.064687E+04 -1.439903E+06  6.549197E-10  3.551574E-10
        10  11 -3.772734E+06 -4.757866E+05 -1.479081E+04 -1.456457E+06  1.273907E-09 -3.586103E-09
        10  12 -3.846947E+06 -5.548771E+05 -1.076570E+05 -1.411260E+06 -4.716546E-09 -8.182900E-10
        10  13 -4.009469E+06 -5.565724E+05 -4.281114E+04 -1.498480E+06 -3.842432E-12  2.793682E-10
        10  14 -3.977259E+06 -5.562152E+05 -7.147100E+04 -1.515138E+06 -2.642650E-09 -7.299855E-10
        10  15 -4.020490E+06 -6.319810E+05 -1.576136E+05 -1.470040E+06  3.328449E-10 -1.401277E-09
        10  16 -4.244946E+06 -6.403550E+05 -1.062741E+05 -1.557037E+06 -1.157015E-09  1.551546E-09
        10  17 -4.181743E+06 -6.366406E+05 -1.281551E+05 -1.573801E+06 -2.470641E-09  6.765509E-10
        10  18 -4.194004E+06 -7.090798E+05 -2.075731E+05 -1.528804E+06  1.021218E-09 -1.399527E-09
        10  19 -3.773938E+06 -4.727881E+05  2.064885E+04 -1.439903E+06 -3.153117E+04 -7.220292E+03
        10  20 -3.772729E+06 -4.757848E+05 -1.478084E+04 -1.456455E+06 -6.907711E+04 -2.229111E+04
        10  21 -3.846935E+06 -5.548725E+05 -1.076328E+05 -1.411256E+06 -1.065124E+05 -3.764711E+04
        10  22 -4.009468E+06 -5.565721E+05 -4.280914E+04 -1.498480E+06 -3.166465E+04 -7.270942E+03
        10  23 -3.977253E+06 -5.562134E+05 -7.146097E+04 -1.515136E+06 -6.926234E+04 -2.236069E+04
        10  24 -4.020478E+06 -6.319763E+05 -1.575893E+05 -1.470037E+06 -1.067514E+05 -3.773516E+04
        10  25 -4.244945E+06 -6.403546E+05 -1.062721E+05 -1.557037E+06 -3.179807E+04 -7.321572E+03
        10  26 -4.181738E+06 -6.366388E+05 -1.281450E+05 -1.573800E+06 -6.944750E+04 -2.243025E+04
        10  27 -4.193991E+06 -7.090752E+05 -2.075488E+05 -1.528801E+06 -1.069904E+05 -3.782317E+04
        11   1 -3.964974E+06 -5.520552E+05 -1.769900E+05 -1.534136E+06  1.347373E+05  4.933259E+04
        11   2 -3.907617E+06 -4.329157E+05 -2.980268E+05 -1.512530E+06  3.023310E+05  1.142224E+05
        11   3 -4.189171E+06 -1.013582E+06 -7.472234E+05 -1.255355E+06  4.702473E+05  1.782532E+05
        11   4 -4.046264E+06 -5.442268E+05 -1.915088E+05 -1.516969E+06  1.351047E+05  4.948222E+04
        11   5 -3.914983E+06 -4.565324E+05 -3.042111E+05 -1.535726E+06  3.025014E+05  1.142741E+05
        11   6 -4.122586E+06 -1.068618E+06 -7.449128E+05 -1.318897E+06  4.702432E+05  1.781749E+05
        11   7 -4.127545E+06 -5.363946E+05 -2.060268E+05 -1.499805E+06  1.354720E+05  4.963189E+04
        11   8 -3.922347E+06 -4.801465E+05 -3.103952E+05 -1.558921E+06  3.026718E+05  1.143259E+05
        11   9 -4.055983E+06 -1.123627E+06 -7.425981E+05 -1.382443E+06  4.702390E+05  1.780967E+05
        11  10 -3.964995E+06 -5.520627E+05 -1.770290E+05 -1.534141E+06 -2.064588E-09 -1.450039E-09
        11  11 -3.907720E+06 -4.329545E+05 -2.982245E+05 -1.512558E+06  1.389256E-09 -3.532576E-10
        11  12 -4.189418E+06 -1.013676E+06 -7.477022E+05 -1.255423E+06  3.506108E-11 -1.158677E-10
        11  13 -4.046285E+06 -5.442344E+05 -1.915480E+05 -1.516974E+06 -1.989250E-09 -4.844384E-10
        11  14 -3.915085E+06 -4.565713E+05 -3.044091E+05 -1.535754E+06 -2.895966E-09  2.535194E-09
        11  15 -4.122834E+06 -1.068712E+06 -7.453915E+05 -1.318965E+06 -2.017610E-09 -8.355179E-10
        11  16 -4.127565E+06 -5.364022E+05 -2.060662E+05 -1.499810E+06  4.163262E-10 -9.094482E-10
        11  17 -3.922449E+06 -4.801855E+05 -3.105934E+05 -1.558949E+06  1.192075E-09  1.939616E-09
        11  18 -4.056230E+06 -1.123721E+06 -7.430767E+05 -1.382511E+06 -1.521663E-09  9.255955E-10
        11  19 -3.964974E+06 -5.520552E+05 -1.769900E+05 -1.534136E+06 -1.347373E+05 -4.933259E+04
        11  20 -3.907617E+06 -4.329157E+05 -2.980268E+05 -1.512530E+06 -3.023310E+05 -1.142224E+05
        11  21 -4.189171E+06 -1.013582E+06 -7.472234E+05 -1.255355E+06 -4.702473E+05 -1.782532E+05
        11  22 -4.046264E+06 -5.442268E+05 -1.915088E+05 -1.516969E+06 -1.351047E+05 -4.948222E+04
        11  23 -3.914983E+06 -4.565324E+05 -3.042111E+05 -1.535726E+06 -3.025014E+05 -1.142741E+05
        11  24 -4.122586E+06 -1.068618E+06 -7.449128E+05 -1.318897E+06 -4.702432E+05 -1.781749E+05
        11  25 -4.127545E+06 -5.363946E+05 -2.060268E+05 -1.499805E+06 -1.354720E+05 -4.963189E+04
        11  26 -3.922347E+06 -4.801465E+05 -3.103952E+05 -1.558921E+06 -3.026718E+05 -1.143259E+05
        11  27 -4.055983E+06 -1.123627E+06 -7.425981E+05 -1.382443E+06 -4.702390E+05 -1.780967E+05
        12   1  6.547520E+04 -2.184245E+05  6.858041E+04 -2.080904E+03  7.912192E+02 -3.475100E+02
        12   2  6.429247E+04 -2.242592E+05  6.793323E+04  2.073453E+03  8.688690E+02 -2.070509E+03
        12   3  6.683233E+04 -2.206967E+05  7.098850E+04 -2.663802E+03  6.307080E+02 -3.794505E+03
        12   4  2.660110E+02 -4.791834E+05  3.391140E+03 -1.978265E+03  7.912454E+02 -3.586709E+02
        12   5 -6.340629E+02 -4.838843E+05  3.029223E+03  2.471699E+03  8.688819E+02 -2.065888E+03
        12   6  2.185041E+03 -4.791922E+05  6.359213E+03 -1.970169E+03  6.306477E+02 -3.774105E+03
        12   7 -6.494831E+04 -7.398807E+05 -6.180327E+04 -1.875663E+03  7.912715E+02 -3.698270E+02
        12   8 -6.556568E+04 -7.434483E+05 -6.187987E+04  2.869810E+03  8.688948E+02 -2.061268E+03
        12   9 -6.246729E+04 -7.376272E+05 -5.827512E+04 -1.276767E+03  6.305875E+02 -3.753713E+03
        12  10  6.547520E+04 -2.184245E+05  6.858041E+04 -2.080903E+03 -5.720591E-09  2.472241E-10
        12  11  6.429246E+04 -2.242592E+05  6.793322E+04  2.073454E+03 -1.699667E-09 -6.343073E-10
        12  12  6.683232E+04 -2.206967E+05  7.098847E+04 -2.663800E+03  8.039241E-10 -5.861293E-10
        12  13  2.660103E+02 -4.791834E+05  3.391139E+03 -1.978265E+03 -9.507659E-10 -2.354339E-10
        12  14 -6.340649E+02 -4.838843E+05  3.029214E+03  2.471700E+03  7.602092E-10 -3.366769E-12
        12  15  2.185036E+03 -4.791922E+05  6.359185E+03 -1.970167E+03 -4.566641E-10 -2.273283E-09
        12  16 -6.494831E+04 -7.398807E+05 -6.180327E+04 -1.875663E+03 -8.843872E-10 -2.596803E-10
        12  17 -6.556569E+04 -7.434483E+05 -6.187988E+04  2.869812E+03  1.171862E-09  9.017783E-10
        12  18 -6.246730E+04 -7.376272E+05 -5.827515E+04 -1.276765E+03 -1.091897E-09 -2.017695E-10
        12  19  6.547520E+04 -2.184245E+05  6.858041E+04 -2.080904E+03 -7.912192E+02  3.475100E+02
        12  20  6.429247E+04 -2.242592E+05  6.793323E+04  2.073453E+03 -8.688690E+02  2.070509E+03
        12  21  6.683233E+04 -2.206967E+05  7.098850E+04 -2.663802E+03 -6.307080E+02  3.794505E+03
        12  22  2.660110E+02 -4.791834E+05  3.391140E+03 -1.978265E+03 -7.912454E+02  3.586709E+02
        12  23 -6.340629E+02 -4.838843E+05  3.029223E+03  2.471699E+03 -8.688819E+02  2.065888E+03
        12  24  2.185041E+03 -4.791922E+05  6.359213E+03 -1.970169E+03 -6.306477E+02  3.774105E+03
        12  25 -6.494831E+04 -7.398807E+05 -6.180327E+04 -1.875663E+03 -7.912715E+02  3.698270E+02
        12  26 -6.556568E+04 -7.434483E+05 -6.187987E+04  2.869810E+03 -8.688948E+02  2.061268E+03
        12  27 -6.246729E+04 -7.376272E+05 -5.827512E+04 -1.276767E+03 -6.305875E+02  3.753713E+03
        13   1  2.126853E+04 -3.926015E+05  2.898739E+04 -5.076404E+03  4.611676E+02 -5.065049E+03
        13   2  1.835826E+04 -3.980678E+05  3.230967E+04  5.514377E+03  3.225395E+02 -1.091691E+04
        13   3  3.247103E+04 -3.978853E+05  4.382520E+04 -4.496991E+03  1.664255E+02 -1.676904E+04
        13   4 -5.939541E+02 -4.800060E+05  7.138854E+03 -4.600966E+03  4.611351E+02 -5.057108E+03
        13   5 -2.842169E+03 -4.828320E+05  1.111670E+04  5.733996E+03  3.224969E+02 -1.090743E+04
        13   6  1.193356E+04 -4.800090E+05  2.328746E+04 -4.533364E+03  1.663762E+02 -1.675806E+04
        13   7 -2.245702E+04 -5.674035E+05 -1.471026E+04 -4.125587E+03  4.611026E+02 -5.049167E+03
        13   8 -2.404315E+04 -5.675898E+05 -1.007682E+04  5.953593E+03  3.224542E+02 -1.089795E+04
        13   9 -8.604418E+03 -5.621266E+05  2.749215E+03 -4.569723E+03  1.663269E+02 -1.674707E+04
        13  10  2.126853E+04 -3.926015E+05  2.898734E+04 -5.076402E+03  1.909579E-09 -2.531965E-11
        13  11  1.835823E+04 -3.980679E+05  3.230944E+04  5.514380E+03 -5.379822E-09 -1.859548E-09
        13  12  3.247096E+04 -3.978856E+05  4.382467E+04 -4.496989E+03 -5.312852E-09 -1.207166E-09
        13  13 -5.939612E+02 -4.800060E+05  7.138806E+03 -4.600964E+03  1.197311E-10 -2.394999E-09
        13  14 -2.842201E+03 -4.828322E+05  1.111647E+04  5.733999E+03  1.651342E-09  3.236584E-11
        13  15  1.193349E+04 -4.800093E+05  2.328693E+04 -4.533362E+03 -2.054251E-09 -3.311054E-09
        13  16 -2.245703E+04 -5.674036E+05 -1.471031E+04 -4.125586E+03  2.478040E-11 -8.855253E-13
        13  17 -2.404318E+04 -5.675899E+05 -1.007704E+04  5.953596E+03  1.775718E-09  2.571740E-09
        13  18 -8.604494E+03 -5.621269E+05  2.748688E+03 -4.569721E+03 -1.450538E-10  1.550357E-12
        13  19  2.126853E+04 -3.926015E+05  2.898739E+04 -5.076404E+03 -4.611676E+02  5.065049E+03
        13  20  1.835826E+04 -3.980678E+05  3.230967E+04  5.514377E+03 -3.225395E+02  1.091691E+04
        13  21  3.247103E+04 -3.978853E+05  4.382520E+04 -4.496991E+03 -1.664255E+02  1.676904E+04
        13  22 -5.939541E+02 -4.800060E+05  7.138854E+03 -4.600966E+03 -4.611351E+02  5.057108E+03
        13  23 -2.842169E+03 -4.828320E+05  1.111670E+04  5.733996E+03 -3.224969E+02  1.090743E+04
        13  24  1.193356E+04 -4.800090E+05  2.328746E+04 -4.533364E+03 -1.663762E+02  1.675806E+04
        13  25 -2.245702E+04 -5.674035E+05 -1.471026E+04 -4.125587E+03 -4.611026E+02  5.049167E+03
        13  26 -2.404315E+04 -5.675898E+05 -1.007682E+04  5.953593E+03 -3.224542E+02  1.089795E+04
        13  27 -8.604418E+03 -5.621266E+05  2.749215E+03 -4.569723E+03 -1.663269E+02  1.674707E+04
        14   1 -3.846958E+04 -6.186015E+05 -8.025260E+03 -4.872073E+03 -1.055973E+02 -2.149295E+04
        14   2 -5.523825E+04 -6.375530E+05  5.517602E+03  6.267366E+03 -3.783178E+02 -4.466021E+04
        14   3  3.887154E+04 -6.233003E+05  6.236856E+04 -9.705634E+02  5.129262E+00 -6.782400E+04
        14   4 -2.285368E+03 -4.738959E+05  2.816340E+04 -4.188579E+03 -1.058049E+02 -2.146168E+04
        14   5 -1.844057E+04 -4.904811E+05  4.229219E+04  5.139057E+03 -3.782409E+02 -4.466524E+04
        14   6  7.627531E+04 -4.738625E+05  9.974706E+04 -3.910439E+03  5.556015E+00 -6.786542E+04
        14   7  3.389727E+04 -3.291713E+05  6.435049E+04 -3.504900E+03 -1.060125E+02 -2.143041E+04
        14   8  1.835547E+04 -3.433896E+05  7.906515E+04  4.010502E+03 -3.781639E+02 -4.467027E+04
        14   9  1.136774E+05 -3.244045E+05  1.371239E+05 -6.851006E+03  5.983079E+00 -6.790685E+04
        14  10 -3.846971E+04 -6.186020E+05 -8.026129E+03 -4.872075E+03 -4.536910E-09  4.041962E-10
        14  11 -5.523879E+04 -6.375552E+05  5.513850E+03  6.267352E+03 -3.099653E-09 -1.487041E-09
        14  12  3.887030E+04 -6.233053E+05  6.235991E+04 -9.705631E+02 -1.796841E-09 -1.194706E-09
        14  13 -2.285491E+03 -4.738964E+05  2.816254E+04 -4.188581E+03 -5.512730E-09 -2.873078E-09
        14  14 -1.844111E+04 -4.904833E+05  4.228844E+04  5.139043E+03 -1.720335E-09 -2.845043E-12
        14  15  7.627407E+04 -4.738675E+05  9.973840E+04 -3.910439E+03 -7.639286E-10 -2.107357E-09
        14  16  3.389715E+04 -3.291718E+05  6.434962E+04 -3.504902E+03 -2.139723E-09 -3.415397E-10
        14  17  1.835493E+04 -3.433917E+05  7.906140E+04  4.010488E+03  4.531571E-09  2.077144E-09
        14  18  1.136762E+05 -3.244094E+05  1.371152E+05 -6.851005E+03 -1.006107E-09  5.157695E-10
        14  19 -3.846958E+04 -6.186015E+05 -8.025260E+03 -4.872073E+03  1.055973E+02  2.149295E+04
        14  20 -5.523825E+04 -6.375530E+05  5.517602E+03  6.267366E+03  3.783178E+02  4.466021E+04
        14  21  3.887154E+04 -6.233003E+05  6.236856E+04 -9.705634E+02 -5.129262E+00  6.782400E+04
        14  22 -2.285368E+03 -4.738959E+05  2.816340E+04 -4.188579E+03  1.058049E+02  2.146168E+04
        14  23 -1.844057E+04 -4.904811E+05  4.229219E+04  5.139057E+03  3.782409E+02  4.466524E+04
        14  24  7.627531E+04 -4.738625E+05  9.974706E+04 -3.910439E+03 -5.556015E+00  6.786542E+04
        14  25  3.389727E+04 -3.291713E+05  6.435049E+04 -3.504900E+03  1.060125E+02  2.143041E+04
        14  26  1.835547E+04 -3.433896E+05  7.906515E+04  4.010502E+03  3.781639E+02  4.467027E+04
        14  27  1.136774E+05 -3.244045E+05  1.371239E+05 -6.851006E+03 -5.983079E+00  6.790685E+04
        15   1  1.175569E+05 -2.585754E+05  1.127074E+05 -1.164299E+02  1.687439E+04 -7.462947E+00
        15   2  1.173885E+05 -2.592933E+05  1.125789E+05 -2.287648E+00  1.685783E+04 -1.420306E+02
        15   3  1.173081E+05 -2.597777E+05  1.126015E+05 -2.896504E+02  1.677747E+04 -2.766559E+02
        15   4 -3.680118E+01 -7.337607E+05  1.760066E+02 -8.923353E+01  1.687526E+04 -1.627570E+01
        15   5 -5.532865E+01 -7.338741E+05  1.924362E+02  1.115434E+02  1.685869E+04 -1.140367E+02
        15   6  7.658330E+00 -7.337605E+05  3.343958E+02 -8.920039E+01  1.677830E+04 -2.118548E+02
        15   7 -1.176467E+05 -1.208738E+06 -1.123710E+05 -6.205435E+01  1.687613E+04 -2.508174E+01
        15   8 -1.175154E+05 -1.208248E+06 -1.122097E+05  2.253035E+02  1.685955E+04 -8.606400E+01
        15   9 -1.173089E+05 -1.207537E+06 -1.119483E+05  1.111251E+02  1.677912E+04 -1.471030E+02
        15  10  1.175566E+05 -2.585755E+05  1.127068E+05 -1.164298E+02  4.561458E-09 -2.438258E-10
        15  11  1.173882E+05 -2.592934E+05  1.125784E+05 -2.285720E+00  9.173390E-11 -6.557060E-10
        15  12  1.173078E+05 -2.597778E+05  1.126010E+05 -2.896466E+02  1.374363E-09  1.575375E-10
        15  13 -3.710687E+01 -7.337608E+05  1.754717E+02 -8.923331E+01  2.446224E-09  5.597977E-11
        15  14 -5.563375E+01 -7.338742E+05  1.919023E+02  1.115450E+02 -6.378286E-10  4.163083E-12
        15  15  7.356128E+00 -7.337606E+05  3.338668E+02 -8.919753E+01  2.142913E-09  1.941473E-10
        15  16 -1.176470E+05 -1.208738E+06 -1.123716E+05 -6.205400E+01 -8.336583E-10  3.270948E-10
        15  17 -1.175157E+05 -1.208248E+06 -1.122102E+05  2.253047E+02  1.806524E-09 -4.832853E-11
        15  18 -1.173092E+05 -1.207537E+06 -1.119488E+05  1.111270E+02  1.443382E-09 -3.282964E-10
        15  19  1.175569E+05 -2.585754E+05  1.127074E+05 -1.164299E+02 -1.687439E+04  7.462947E+00
        15  20  1.173885E+05 -2.592933E+05  1.125789E+05 -2.287649E+00 -1.685783E+04  1.420306E+02
        15  21  1.173081E+05 -2.597777E+05  1.126015E+05 -2.896504E+02 -1.677747E+04  2.766559E+02
        15  22 -3.680118E+01 -7.337607E+05  1.760066E+02 -8.923353E+01 -1.687526E+04  1.627570E+01
        15  23 -5.532865E+01 -7.338741E+05  1.924362E+02  1.115434E+02 -1.685869E+04  1.140367E+02
        15  24  7.658330E+00 -7.337605E+05  3.343958E+02 -8.920039E+01 -1.677830E+04  2.118548E+02
        15  25 -1.176467E+05 -1.208738E+06 -1.123710E+05 -6.205435E+01 -1.687613E+04  2.508174E+01
        15  26 -1.175154E+05 -1.208248E+06 -1.122097E+05  2.253035E+02 -1.685955E+04  8.606400E+01
        15  27 -1.173089E+05 -1.207537E+06 -1.119483E+05  1.111251E+02 -1.677912E+04  1.471030E+02
        16   1  1.168812E+05 -2.611484E+05  1.123084E+05 -5.890946E+02  1.683430E+04 -1.525935E+02
        16   2  1.163867E+05 -2.631726E+05  1.121352E+05  3.192532E+01  1.671803E+04 -8.770471E+02
        16   3  1.165679E+05 -2.647453E+05  1.126430E+05 -5.473594E+02  1.592953E+04 -1.602405E+03
        16   4 -6.353538E+01 -7.337252E+05  4.141359E+02 -2.668989E+02  1.683526E+04 -2.787336E+02
        16   5 -1.086708E+02 -7.339171E+05  6.553071E+02  3.335696E+02  1.671863E+04 -6.158160E+02
        16   6  4.549063E+02 -7.337246E+05  1.308493E+03 -2.663233E+02  1.592955E+04 -9.538042E+02
        16   7 -1.170244E+05 -1.206097E+06 -1.114956E+05  5.508688E+01  1.683621E+04 -4.047781E+02
        16   8 -1.166199E+05 -1.204458E+06 -1.108400E+05  6.350326E+02  1.671924E+04 -3.547819E+02
        16   9 -1.156739E+05 -1.202502E+06 -1.100414E+05  1.456033E+01  1.592957E+04 -3.056913E+02
        16  10  1.168809E+05 -2.611484E+05  1.123078E+05 -5.890925E+02  1.669450E-09 -4.425174E-10
        16  11  1.163864E+05 -2.631727E+05  1.121347E+05  3.193712E+01 -6.560235E-10 -2.152742E-09
        16  12  1.165676E+05 -2.647454E+05  1.126425E+05 -5.473389E+02 -2.416408E-09 -1.677266E-09
        16  13 -6.383965E+01 -7.337253E+05  4.136034E+02 -2.668951E+02  1.168014E-09  4.287508E-10
        16  14 -1.089710E+02 -7.339172E+05  6.547813E+02  3.335779E+02 -3.206082E-09  1.616826E-11
        16  15  4.546336E+02 -7.337246E+05  1.308015E+03 -2.663111E+02 -4.264295E-09  4.383964E-10
        16  16 -1.170247E+05 -1.206097E+06 -1.114961E+05  5.509237E+01  2.772716E-09  8.550627E-10
        16  17 -1.166202E+05 -1.204458E+06 -1.108405E+05  6.350374E+02  1.422842E-09  1.575645E-10
        16  18 -1.156742E+05 -1.202502E+06 -1.100418E+05  1.456426E+01 -2.635197E-09  1.327612E-09
        16  19  1.168812E+05 -2.611484E+05  1.123084E+05 -5.890946E+02 -1.683430E+04  1.525935E+02
        16  20  1.163867E+05 -2.631726E+05  1.121352E+05  3.192532E+01 -1.671803E+04  8.770471E+02
        16  21  1.165679E+05 -2.647453E+05  1.126430E+05 -5.473594E+02 -1.592953E+04  1.602405E+03
        16  22 -6.353538E+01 -7.337252E+05  4.141359E+02 -2.668989E+02 -1.683526E+04  2.787336E+02
        16  23 -1.086708E+02 -7.339171E+05  6.553071E+02  3.335696E+02 -1.671863E+04  6.158160E+02
        16  24  4.549063E+02 -7.337246E+05  1.308493E+03 -2.663233E+02 -1.592955E+04  9.538042E+02
        16  25 -1.170244E+05 -1.206097E+06 -1.114956E+05  5.508688E+01 -1.683621E+04  4.047781E+02
        16  26 -1.166199E+05 -1.204458E+06 -1.108400E+05  6.350326E+02 -1.671924E+04  3.547819E+02
        16  27 -1.156739E+05 -1.202502E+06 -1.100414E+05  1.456033E+01 -1.592957E+04  3.056913E+02
        17   1  1.150258E+05 -2.671210E+05  1.117551E+05 -1.696123E+03  1.724798E+04  1.260939E+03
        17   2  1.138902E+05 -2.714642E+05  1.121705E+05  6.219636E+02  1.637836E+04 -6.045570E+03
        17   3  1.199411E+05 -2.728832E+05  1.191778E+05  6.832178E+02  5.212810E+03 -1.337143E+04
        17   4 -3.130133E+02 -7.333886E+05  1.593932E+03 -5.042545E+02  1.725220E+04 -1.196258E+03
        17   5 -6.610024E+02 -7.343348E+05  2.529117E+03  6.289569E+02  1.637362E+04 -2.572487E+03
        17   6  5.149964E+03 -7.333859E+05  5.937403E+03 -4.948322E+02  5.195729E+03 -3.968159E+03
        17   7 -1.156674E+05 -1.199456E+06 -1.085823E+05  6.867808E+02  1.725641E+04 -3.651618E+03
        17   8 -1.152276E+05 -1.197008E+06 -1.071271E+05  6.360232E+02  1.636888E+04  8.980203E+02
        17   9 -1.096569E+05 -1.193695E+06 -1.073183E+05 -1.671918E+03  5.178605E+03  5.428148E+03
        17  10  1.150254E+05 -2.671211E+05  1.117546E+05 -1.696140E+03 -4.920557E-09  2.277596E-09
        17  11  1.138899E+05 -2.714643E+05  1.121699E+05  6.220433E+02  2.928911E-09 -2.554722E-09
        17  12  1.199410E+05 -2.728834E+05  1.191774E+05  6.832740E+02 -5.040929E-09 -3.213134E-09
        17  13 -3.133332E+02 -7.333886E+05  1.593371E+03 -5.042379E+02 -3.345165E-09  7.953444E-10
        17  14 -6.612919E+02 -7.343349E+05  2.528601E+03  6.289909E+02  3.018773E-09  5.185276E-11
        17  15  5.149931E+03 -7.333860E+05  5.937323E+03 -4.948156E+02 -3.095731E-09  5.670093E-10
        17  16 -1.156677E+05 -1.199456E+06 -1.085829E+05  6.868315E+02 -2.874721E-09 -1.483618E-09
        17  17 -1.152279E+05 -1.197008E+06 -1.071276E+05  6.360114E+02 -1.407567E-09 -9.186736E-10
        17  18 -1.096569E+05 -1.193695E+06 -1.073184E+05 -1.671940E+03 -2.511137E-09  2.602223E-09
        17  19  1.150258E+05 -2.671210E+05  1.117551E+05 -1.696123E+03 -1.724798E+04 -1.260939E+03
        17  20  1.138902E+05 -2.714642E+05  1.121705E+05  6.219636E+02 -1.637836E+04  6.045570E+03
        17  21  1.199411E+05 -2.728832E+05  1.191778E+05  6.832178E+02 -5.212810E+03  1.337143E+04
        17  22 -3.130133E+02 -7.333886E+05  1.593932E+03 -5.042545E+02 -1.725220E+04  1.196258E+03
        17  23 -6.610024E+02 -7.343348E+05  2.529117E+03  6.289569E+02 -1.637362E+04  2.572487E+03
        17  24  5.149964E+03 -7.333859E+05  5.937403E+03 -4.948322E+02 -5.195729E+03  3.968159E+03
        17  25 -1.156674E+05 -1.199456E+06 -1.085823E+05  6.867808E+02 -1.725641E+04  3.651618E+03
        17  26 -1.152276E+05 -1.197008E+06 -1.071271E+05  6.360232E+02 -1.636888E+04 -8.980203E+02
        17  27 -1.096569E+05 -1.193695E+06 -1.073183E+05 -1.671918E+03 -5.178605E+03 -5.428148E+03
        18   1  4.287046E+04  4.654013E+05  2.407889E+04 -1.072610E+00  1.504538E+04 -2.919685E-01
        18   2  4.287156E+04  4.654066E+05  2.408174E+04 -5.786117E+00  1.504561E+04 -4.138312E+00
        18   3  4.287291E+04  4.654144E+05  2.408778E+04 -1.013982E+01  1.504603E+04 -7.984683E+00
        18   4 -7.748306E+00  2.749990E+05  7.335781E+00  8.000793E-02  1.504587E+04 -6.227031E-01
        18   5 -8.229043E+00  2.749977E+05  8.894399E+00 -9.989444E-02  1.504610E+04 -4.914637E+00
        18   6 -8.376681E+00  2.749990E+05  1.395186E+01  8.015980E-02  1.504651E+04 -9.206604E+00
        18   7 -4.288743E+04  8.463391E+04 -2.406434E+04  1.232318E+00  1.504635E+04 -9.533412E-01
        18   8 -4.288949E+04  8.462602E+04 -2.406407E+04  5.584779E+00  1.504658E+04 -5.690735E+00
        18   9 -4.289114E+04  8.462080E+04 -2.405999E+04  1.029735E+01  1.504700E+04 -1.042817E+01
        18  10  4.287022E+04  4.654012E+05  2.407847E+04 -1.072607E+00 -2.486289E-10  4.953070E-09
        18  11  4.287131E+04  4.654065E+05  2.408132E+04 -5.786067E+00  2.865403E-09 -2.279035E-10
        18  12  4.287267E+04  4.654143E+05  2.408735E+04 -1.013973E+01  1.180347E-09 -5.031869E-09
        18  13 -7.991428E+00  2.749989E+05  6.910318E+00  8.001543E-02 -1.905304E-09  1.829736E-12
        18  14 -8.472172E+00  2.749976E+05  8.468922E+00 -9.983490E-02 -1.705664E-09 -6.776299E-11
        18  15 -8.619824E+00  2.749989E+05  1.352636E+01  8.027133E-02  3.192779E-09  7.636372E-11
        18  16 -4.288768E+04  8.463385E+04 -2.406476E+04  1.232330E+00 -8.013237E-10 -4.956598E-09
        18  17 -4.288974E+04  8.462596E+04 -2.406449E+04  5.584848E+00 -2.040214E-09  2.069530E-10
        18  18 -4.289138E+04  8.462074E+04 -2.406041E+04  1.029748E+01 -2.152611E-09  5.072124E-09
        18  19  4.287046E+04  4.654013E+05  2.407889E+04 -1.072610E+00 -1.504538E+04  2.919685E-01
        18  20  4.287156E+04  4.654066E+05  2.408174E+04 -5.786117E+00 -1.504561E+04  4.138312E+00
        18  21  4.287291E+04  4.654144E+05  2.408778E+04 -1.013982E+01 -1.504603E+04  7.984683E+00
        18  22 -7.748306E+00  2.749990E+05  7.335781E+00  8.000790E-02 -1.504587E+04  6.227031E-01
        18  23 -8.229043E+00  2.749977E+05  8.894399E+00 -9.989445E-02 -1.504610E+04  4.914637E+00
        18  24 -8.376681E+00  2.749990E+05  1.395186E+01  8.015976E-02 -1.504651E+04  9.206604E+00
        18  25 -4.288743E+04  8.463391E+04 -2.406434E+04  1.232318E+00 -1.504635E+04  9.533412E-01
        18  26 -4.288949E+04  8.462602E+04 -2.406407E+04  5.584779E+00 -1.504658E+04  5.690735E+00
        18  27 -4.289114E+04  8.462080E+04 -2.405999E+04  1.029735E+01 -1.504700E+04  1.042817E+01
        19   1  4.287448E+04  4.654228E+05  2.409308E+04 -1.214687E+01  1.504644E+04 -1.021427E+01
        19   2  4.287778E+04  4.654401E+05  2.410963E+04 -1.958178E+01  1.504675E+04 -2.709151E+01
        19   3  4.288207E+04  4.654618E+05  2.413804E+04 -2.397756E+01  1.504619E+04 -4.396875E+01
        19   4 -8.690189E+00  2.749993E+05  1.788354E+01  6.755627E-01  1.504693E+04 -1.201458E+01
        19   5 -1.011984E+01  2.749973E+05  3.010079E+01 -8.440382E-01  1.504724E+04 -2.678659E+01
        19   6 -1.092952E+01  2.749993E+05  5.270963E+01  6.755562E-01  1.504668E+04 -4.155860E+01
        19   7 -4.289334E+04  8.461307E+04 -2.405742E+04  1.349449E+01  1.504741E+04 -1.381437E+01
        19   8 -4.289950E+04  8.459173E+04 -2.404955E+04  1.788852E+01  1.504773E+04 -2.648175E+01
        19   9 -4.290541E+04  8.457406E+04 -2.403274E+04  2.532179E+01  1.504717E+04 -3.914915E+01
        19  10  4.287424E+04  4.654227E+05  2.409265E+04 -1.214674E+01  3.564321E-10 -3.789143E-10
        19  11  4.287754E+04  4.654400E+05  2.410921E+04 -1.958146E+01  2.077598E-09  8.554768E-11
        19  12  4.288183E+04  4.654617E+05  2.413762E+04 -2.397703E+01  2.112167E-09  1.054432E-09
        19  13 -8.933345E+00  2.749992E+05  1.745802E+01  6.757083E-01 -1.825199E-09  7.870970E-11
        19  14 -1.036301E+01  2.749972E+05  2.967525E+01 -8.437137E-01 -1.148671E-09 -2.345806E-10
        19  15 -1.117267E+01  2.749992E+05  5.228412E+01  6.760598E-01  2.711494E-09  1.372926E-10
        19  16 -4.289358E+04  8.461301E+04 -2.405785E+04  1.349466E+01 -2.341364E-09  2.777307E-10
        19  17 -4.289974E+04  8.459167E+04 -2.404997E+04  1.788884E+01  3.915311E-10 -1.925255E-10
        19  18 -4.290565E+04  8.457400E+04 -2.403316E+04  2.532227E+01  4.519086E-10 -1.005171E-09
        19  19  4.287448E+04  4.654228E+05  2.409308E+04 -1.214687E+01 -1.504644E+04  1.021427E+01
        19  20  4.287778E+04  4.654401E+05  2.410963E+04 -1.958178E+01 -1.504675E+04  2.709151E+01
        19  21  4.288207E+04  4.654618E+05  2.413804E+04 -2.397756E+01 -1.504619E+04  4.396875E+01
        19  22 -8.690189E+00  2.749993E+05  1.788354E+01  6.755627E-01 -1.504693E+04  1.201458E+01
        19  23 -1.011984E+01  2.749973E+05  3.010079E+01 -8.440382E-01 -1.504724E+04  2.678659E+01
        19  24 -1.092952E+01  2.749993E+05  5.270963E+01  6.755562E-01 -1.504668E+04  4.155860E+01
        19  25 -4.289334E+04  8.461307E+04 -2.405742E+04  1.349449E+01 -1.504741E+04  1.381437E+01
        19  26 -4.289950E+04  8.459173E+04 -2.404955E+04  1.788852E+01 -1.504773E+04  2.648175E+01
        19  27 -4.290541E+04  8.457406E+04 -2.403274E+04  2.532179E+01 -1.504717E+04  3.914915E+01
        20   1  4.288549E+04  4.654801E+05  2.415939E+04 -2.774677E+01  1.504594E+04 -5.497983E+01
        20   2  4.289289E+04  4.655052E+05  2.422690E+04 -3.825123E+01  1.504050E+04 -1.359772E+02
        20   3  4.291015E+04  4.655451E+05  2.435020E+04 -4.363565E+01  1.502618E+04 -2.169751E+02
        20   4 -1.177708E+01  2.750009E+05  6.947541E+01  1.137694E+00  1.504643E+04 -5.251016E+01
        20   5 -1.375223E+01  2.749953E+05  1.207905E+02 -1.422075E+00  1.504098E+04 -1.121896E+02
        20   6 -9.563225E+00  2.750009E+05  2.131099E+02  1.138077E+00  1.502666E+04 -1.718699E+02
        20   7 -4.291052E+04  8.455891E+04 -2.402055E+04  3.001405E+01  1.504692E+04 -5.004121E+01
        20   8 -4.292187E+04  8.452262E+04 -2.398543E+04  3.539663E+01  1.504146E+04 -8.840891E+01
        20   9 -4.293075E+04  8.449390E+04 -2.392410E+04  4.589902E+01  1.502714E+04 -1.267778E+02
        20  10  4.288525E+04  4.654801E+05  2.415896E+04 -2.774611E+01  9.533641E-10 -6.954333E-08
        20  11  4.289265E+04  4.655051E+05  2.422647E+04 -3.824958E+01  8.956050E-10  2.952093E-10
        20  12  4.290990E+04  4.655451E+05  2.434977E+04 -4.363303E+01  3.513646E-09  7.074344E-08
        20  13 -1.202022E+01  2.750008E+05  6.904990E+01  1.138330E+00  2.533955E-09  1.296410E-10
        20  14 -1.399520E+01  2.749952E+05  1.203653E+02 -1.420716E+00  3.059948E-09 -3.434240E-10
        20  15 -9.805734E+00  2.750008E+05  2.126854E+02  1.140157E+00  3.803126E-09  2.147164E-10
        20  16 -4.291077E+04  8.455885E+04 -2.402098E+04  3.001465E+01  1.466073E-09  6.930069E-08
        20  17 -4.292211E+04  8.452256E+04 -2.398586E+04  3.539770E+01  8.341511E-10 -4.161736E-10
        20  18 -4.293100E+04  8.449384E+04 -2.392453E+04  4.590055E+01  2.029930E-09 -7.064712E-08
        20  19  4.288549E+04  4.654801E+05  2.415939E+04 -2.774677E+01 -1.504594E+04  5.497983E+01
        20  20  4.289289E+04  4.655052E+05  2.422690E+04 -3.825123E+01 -1.504050E+04  1.359772E+02
        20  21  4.291015E+04  4.655451E+05  2.435020E+04 -4.363565E+01 -1.502618E+04  2.169751E+02
        20  22 -1.177708E+01  2.750009E+05  6.947541E+01  1.137694E+00 -1.504643E+04  5.251016E+01
        20  23 -1.375223E+01  2.749953E+05  1.207905E+02 -1.422075E+00 -1.504098E+04  1.121896E+02
        20  24 -9.563225E+00  2.750009E+05  2.131099E+02  1.138077E+00 -1.502666E+04  1.718699E+02
        20  25 -4.291052E+04  8.455891E+04 -2.402055E+04  3.001405E+01 -1.504692E+04  5.004121E+01
        20  26 -4.292187E+04  8.452262E+04 -2.398543E+04  3.539663E+01 -1.504146E+04  8.840891E+01
        20  27 -4.293075E+04  8.449390E+04 -2.392410E+04  4.589902E+01 -1.502714E+04  1.267778E+02
        21   1 -2.881015E+06 -4.783890E+05 -4.874491E+05 -4.689734E+04 -9.620212E+03  3.062049E+03
        21   2 -3.117233E+06 -5.208657E+05 -5.394900E+05  6.260667E+04 -2.614683E+03  7.840701E+03
        21   3 -2.837495E+06 -4.856186E+05 -4.767513E+05 -6.099865E+03  4.276271E+03  3.522454E+03
        21   4 -8.368296E+05  3.373874E+04  2.460450E+04 -4.685467E+04 -9.194668E+03  3.061191E+03
        21   5 -1.095992E+06 -1.403123E+04 -3.311480E+04  4.244939E+04 -2.605360E+03  7.838981E+03
        21   6 -8.382537E+05  1.659151E+04  2.428152E+04 -4.642717E+04  3.869285E+03  3.532305E+03
        21   7  1.211155E+06  5.455498E+05  5.363414E+05 -4.681126E+04 -8.767678E+03  3.060335E+03
        21   8  9.289653E+05  4.924941E+05  4.729506E+05  2.223836E+04 -2.595994E+03  7.837264E+03
        21   9  1.164622E+06  5.185013E+05  5.250111E+05 -8.686109E+04  3.460967E+03  3.542193E+03
        21  10 -2.881016E+06 -4.783890E+05 -4.874493E+05 -4.689732E+04 -1.631247E-09  8.003888E-10
        21  11 -3.117233E+06 -5.208658E+05 -5.394901E+05  6.260669E+04  1.968032E-09  4.282046E-10
        21  12 -2.837495E+06 -4.856187E+05 -4.767513E+05 -6.099877E+03 -1.570150E-09 -5.857162E-10
        21  13 -8.368297E+05  3.373871E+04  2.460432E+04 -4.685465E+04  4.255943E-09  1.942402E-10
        21  14 -1.095992E+06 -1.403130E+04 -3.311493E+04  4.244941E+04  5.392087E-09  3.831713E-10
        21  15 -8.382538E+05  1.659150E+04  2.428147E+04 -4.642718E+04  3.027865E-09  9.199339E-10
        21  16  1.211155E+06  5.455497E+05  5.363412E+05 -4.681123E+04 -4.579814E-10  4.581241E-10
        21  17  9.289653E+05  4.924940E+05  4.729505E+05  2.223837E+04  5.710609E-10 -1.923226E-10
        21  18  1.164622E+06  5.185013E+05  5.250111E+05 -8.686110E+04  1.737604E-09  2.016624E-09
        21  19 -2.881015E+06 -4.783890E+05 -4.874491E+05 -4.689734E+04  9.620212E+03 -3.062049E+03
        21  20 -3.117233E+06 -5.208657E+05 -5.394900E+05  6.260667E+04  2.614683E+03 -7.840701E+03
        21  21 -2.837495E+06 -4.856186E+05 -4.767513E+05 -6.099865E+03 -4.276271E+03 -3.522454E+03
        21  22 -8.368296E+05  3.373874E+04  2.460450E+04 -4.685467E+04  9.194668E+03 -3.061191E+03
        21  23 -1.095992E+06 -1.403123E+04 -3.311480E+04  4.244939E+04  2.605360E+03 -7.838981E+03
        21  24 -8.382537E+05  1.659151E+04  2.428152E+04 -4.642717E+04 -3.869285E+03 -3.532305E+03
        21  25  1.211155E+06  5.455498E+05  5.363414E+05 -4.681126E+04  8.767678E+03 -3.060335E+03
        21  26  9.289653E+05  4.924941E+05  4.729506E+05  2.223836E+04  2.595994E+03 -7.837264E+03
        21  27  1.164622E+06  5.185013E+05  5.250111E+05 -8.686109E+04 -3.460967E+03 -3.542193E+03
        22   1 -2.909564E+05  1.553042E+05  1.610258E+05 -8.115621E+04 -1.575461E+03  1.404524E+01
        22   2 -2.717196E+05  1.803372E+05  1.705122E+05  5.393619E+04 -5.005159E+02 -2.250470E+03
        22   3 -2.228160E+05  1.547147E+05  1.750981E+05 -7.530798E+04  6.080024E+02 -3.843524E+03
        22   4 -9.455300E+05 -9.038288E+03 -2.841228E+03 -6.584990E+04 -1.697419E+03  1.752112E+01
        22   5 -9.599653E+05  7.814075E+03 -1.663558E+03  6.620510E+04 -5.913433E+02 -2.248439E+03
        22   6 -9.447945E+05 -2.605843E+04 -5.425044E+03 -6.609509E+04  5.482547E+02 -3.842619E+03
        22   7 -1.599715E+06 -1.734128E+05 -1.667407E+05 -5.055696E+04 -1.819249E+03  2.099279E+01
        22   8 -1.647781E+06 -1.647447E+05 -1.738752E+05  7.846296E+04 -6.820697E+02 -2.246411E+03
        22   9 -1.666300E+06 -2.068708E+05 -1.859876E+05 -5.689056E+04  4.885762E+02 -3.841715E+03
        22  10 -2.909564E+05  1.553042E+05  1.610257E+05 -8.115621E+04 -6.099338E-09 -1.294820E-09
        22  11 -2.717196E+05  1.803372E+05  1.705122E+05  5.393619E+04 -4.895070E-09 -4.363061E-09
        22  12 -2.228160E+05  1.547147E+05  1.750981E+05 -7.530798E+04 -4.225450E-09 -5.147005E-09
        22  13 -9.455300E+05 -9.038289E+03 -2.841234E+03 -6.584990E+04 -1.714081E-09  2.833754E-10
        22  14 -9.599653E+05  7.814070E+03 -1.663568E+03  6.620510E+04 -4.029196E-11 -6.725522E-09
        22  15 -9.447945E+05 -2.605845E+04 -5.425073E+03 -6.609509E+04 -1.420204E-09 -9.132235E-09
        22  16 -1.599715E+06 -1.734128E+05 -1.667407E+05 -5.055696E+04  7.935686E-09 -7.581094E-10
        22  17 -1.647781E+06 -1.647447E+05 -1.738752E+05  7.846296E+04  4.699829E-09 -6.972978E-09
        22  18 -1.666300E+06 -2.068708E+05 -1.859877E+05 -5.689056E+04  1.208471E-09 -9.091611E-09
        22  19 -2.909564E+05  1.553042E+05  1.610258E+05 -8.115621E+04  1.575461E+03 -1.404524E+01
        22  20 -2.717196E+05  1.803372E+05  1.705122E+05  5.393619E+04  5.005159E+02  2.250470E+03
        22  21 -2.228160E+05  1.547147E+05  1.750981E+05 -7.530798E+04 -6.080024E+02  3.843524E+03
        22  22 -9.455300E+05 -9.038288E+03 -2.841228E+03 -6.584990E+04  1.697419E+03 -1.752112E+01
        22  23 -9.599653E+05  7.814075E+03 -1.663558E+03  6.620510E+04  5.913433E+02  2.248439E+03
        22  24 -9.447945E+05 -2.605843E+04 -5.425044E+03 -6.609509E+04 -5.482547E+02  3.842619E+03
        22  25 -1.599715E+06 -1.734128E+05 -1.667407E+05 -5.055696E+04  1.819249E+03 -2.099279E+01
        22  26 -1.647781E+06 -1.647447E+05 -1.738752E+05  7.846296E+04  6.820697E+02  2.246411E+03
        22  27 -1.666300E+06 -2.068708E+05 -1.859876E+05 -5.689056E+04 -4.885762E+02  3.841715E+03
        23   1  1.777349E+06  6.669478E+05  6.786296E+05 -4.428660E+04 -7.872000E+03 -5.847715E+03
        23   2  1.371988E+06  6.230982E+05  5.914015E+05  8.746152E+03 -5.890166E+01 -8.819554E+03
        23   3  1.788248E+06  6.618632E+05  6.798878E+05  2.118183E+04  7.751965E+03 -6.427703E+03
        23   4 -7.708851E+05  2.983880E+04  4.209840E+04 -1.567364E+04 -8.115983E+03 -5.845914E+03
        23   5 -1.180562E+06 -1.485241E+04 -4.632591E+04  4.195845E+03 -7.344846E+01 -8.821858E+03
        23   6 -7.704389E+05  2.175750E+04  4.068957E+04 -1.654298E+04  7.966761E+03 -6.425473E+03
        23   7 -3.313240E+06 -6.077588E+05 -5.949229E+05  1.284235E+04 -8.358911E+03 -5.844134E+03
        23   8 -3.727210E+06 -6.532951E+05 -6.845454E+05 -3.392365E+02 -8.793486E+01 -8.824169E+03
        23   9 -3.323198E+06 -6.188400E+05 -5.990028E+05 -5.413972E+04  8.180620E+03 -6.423267E+03
        23  10  1.777349E+06  6.669477E+05  6.786295E+05 -4.428664E+04 -4.015082E-09  2.671357E-09
        23  11  1.371988E+06  6.230982E+05  5.914014E+05  8.746152E+03  1.037860E-10 -7.891706E-10
        23  12  1.788248E+06  6.618632E+05  6.798876E+05  2.118187E+04 -1.124671E-12 -1.456383E-09
        23  13 -7.708852E+05  2.983875E+04  4.209821E+04 -1.567368E+04 -3.954829E-09 -1.350979E-09
        23  14 -1.180562E+06 -1.485249E+04 -4.632606E+04  4.195845E+03  2.151319E-09  6.626747E-10
        23  15 -7.704390E+05  2.175743E+04  4.068938E+04 -1.654294E+04 -1.213651E-10 -4.805072E-10
        23  16 -3.313240E+06 -6.077589E+05 -5.949231E+05  1.284231E+04  5.399357E-11 -3.650244E-09
        23  17 -3.727210E+06 -6.532952E+05 -6.845455E+05 -3.392372E+02 -8.227639E-10  7.994043E-10
        23  18 -3.323198E+06 -6.188400E+05 -5.990030E+05 -5.413967E+04 -1.986818E-10  1.229720E-09
        23  19  1.777349E+06  6.669478E+05  6.786296E+05 -4.428660E+04  7.872000E+03  5.847715E+03
        23  20  1.371988E+06  6.230982E+05  5.914015E+05  8.746152E+03  5.890166E+01  8.819554E+03
        23  21  1.788248E+06  6.618632E+05  6.798878E+05  2.118183E+04 -7.751965E+03  6.427703E+03
        23  22 -7.708851E+05  2.983880E+04  4.209840E+04 -1.567364E+04  8.115983E+03  5.845914E+03
        23  23 -1.180562E+06 -1.485241E+04 -4.632591E+04  4.195845E+03  7.344846E+01  8.821858E+03
        23  24 -7.704389E+05  2.175750E+04  4.068957E+04 -1.654298E+04 -7.966761E+03  6.425473E+03
        23  25 -3.313240E+06 -6.077588E+05 -5.949229E+05  1.284235E+04  8.358911E+03  5.844134E+03
        23  26 -3.727210E+06 -6.532951E+05 -6.845454E+05 -3.392365E+02  8.793486E+01  8.824169E+03
        23  27 -3.323198E+06 -6.188400E+05 -5.990028E+05 -5.413972E+04 -8.180620E+03  6.423267E+03
        24   1  5.648127E+05  3.502808E+05  3.722504E+05  7.234364E+04 -2.717754E+03 -5.471346E+03
        24   2  4.195516E+05  3.615676E+05  3.464646E+05 -3.540905E+04 -1.409385E+02 -4.994031E+03
        24   3  5.037443E+05  3.572456E+05  3.618301E+05  9.330149E+04  2.293247E+03 -1.468345E+03
        24   4 -9.004691E+05 -1.684756E+04  5.899850E+03  4.577877E+04 -2.766572E+03 -5.473418E+03
        24   5 -1.015670E+06  1.080905E+03 -1.260465E+04 -7.274430E+04 -4.874681E+01 -4.991540E+03
        24   6 -9.017933E+05  3.081984E+03  9.898413E+03  4.522706E+04  2.526469E+03 -1.458304E+03
        24   7 -2.363804E+06 -3.841370E+05 -3.606130E+05  1.926394E+04 -2.815268E+03 -5.475489E+03
        24   8 -2.449023E+06 -3.595593E+05 -3.718298E+05 -1.100093E+05  4.323220E+01 -4.989057E+03
        24   9 -2.305539E+06 -3.512273E+05 -3.421830E+05 -2.758170E+03  2.759156E+03 -1.448288E+03
        24  10  5.648127E+05  3.502807E+05  3.722503E+05  7.234363E+04 -3.531405E-10 -4.522517E-09
        24  11  4.195516E+05  3.615676E+05  3.464645E+05 -3.540905E+04  2.328121E-09 -3.292379E-09
        24  12  5.037443E+05  3.572456E+05  3.618301E+05  9.330149E+04 -9.204997E-10  2.895744E-09
        24  13 -9.004691E+05 -1.684759E+04  5.899779E+03  4.577875E+04 -8.203751E-10 -2.688309E-09
        24  14 -1.015670E+06  1.080878E+03 -1.260470E+04 -7.274430E+04 -1.684017E-09 -1.229504E-08
        24  15 -9.017933E+05  3.081980E+03  9.898397E+03  4.522706E+04  2.348438E-09 -6.346309E-09
        24  16 -2.363804E+06 -3.841371E+05 -3.606131E+05  1.926393E+04 -2.783476E-09 -2.961355E-09
        24  17 -2.449023E+06 -3.595594E+05 -3.718298E+05 -1.100093E+05 -5.059081E-09 -5.593474E-09
        24  18 -2.305539E+06 -3.512273E+05 -3.421830E+05 -2.758166E+03 -1.624367E-09  2.183361E-09
        24  19  5.648127E+05  3.502808E+05  3.722504E+05  7.234364E+04  2.717754E+03  5.471346E+03
        24  20  4.195516E+05  3.615676E+05  3.464646E+05 -3.540905E+04  1.409385E+02  4.994031E+03
        24  21  5.037443E+05  3.572456E+05  3.618301E+05  9.330149E+04 -2.293247E+03  1.468345E+03
        24  22 -9.004691E+05 -1.684756E+04  5.899850E+03  4.577877E+04  2.766572E+03  5.473418E+03
        24  23 -1.015670E+06  1.080905E+03 -1.260465E+04 -7.274430E+04  4.874681E+01  4.991540E+03
        24  24 -9.017933E+05  3.081984E+03  9.898413E+03  4.522706E+04 -2.526469E+03  1.458304E+03
        24  25 -2.363804E+06 -3.841370E+05 -3.606130E+05  1.926394E+04  2.815268E+03  5.475489E+03
        24  26 -2.449023E+06 -3.595593E+05 -3.718298E+05 -1.100093E+05 -4.323220E+01  4.989057E+03
        24  27 -2.305539E+06 -3.512273E+05 -3.421830E+05 -2.758170E+03 -2.759156E+03  1.448288E+03
        25   1 -2.298960E+06 -3.496052E+05 -3.405358E+05 -2.436056E+03 -2.787813E+03  1.425633E+03
        25   2 -2.441203E+06 -3.577131E+05 -3.698545E+05 -1.100003E+05 -1.210867E+02  4.961706E+03
        25   3 -2.357404E+06 -3.824760E+05 -3.588952E+05  1.937638E+04  2.687768E+03  5.459382E+03
        25   4 -9.023801E+05  2.896566E+03  9.748051E+03  4.532404E+04 -2.555658E+03  1.435632E+03
        25   5 -1.014926E+06  1.150282E+03 -1.240360E+04 -7.285754E+04 -2.900205E+01  4.964205E+03
        25   6 -9.010596E+05 -1.693621E+04  5.866182E+03  4.587155E+04  2.639813E+03  5.457332E+03
        25   7  4.959738E+05  3.552542E+05  3.598837E+05  9.317247E+04 -2.322974E+03  1.445657E+03
        25   8  4.132012E+05  3.598616E+05  3.448929E+05 -3.564509E+04  6.329459E+01  4.966713E+03
        25   9  5.572124E+05  3.484440E+05  3.704668E+05  7.241649E+04  2.591739E+03  5.455280E+03
        25  10 -2.298960E+06 -3.496052E+05 -3.405358E+05 -2.436053E+03  1.740775E-09  4.727655E-09
        25  11 -2.441203E+06 -3.577131E+05 -3.698546E+05 -1.100003E+05 -9.334094E-10  2.046903E-09
        25  12 -2.357404E+06 -3.824760E+05 -3.588953E+05  1.937637E+04  2.003833E-09 -2.631867E-09
        25  13 -9.023802E+05  2.896562E+03  9.748035E+03  4.532404E+04  3.809598E-09 -8.288462E-09
        25  14 -1.014926E+06  1.150256E+03 -1.240364E+04 -7.285753E+04  1.232261E-09 -4.275226E-09
        25  15 -9.010596E+05 -1.693624E+04  5.866113E+03  4.587154E+04  3.092720E-09 -7.804472E-09
        25  16  4.959738E+05  3.552542E+05  3.598836E+05  9.317247E+04 -6.761014E-09  6.817295E-09
        25  17  4.132012E+05  3.598616E+05  3.448929E+05 -3.564509E+04  5.103165E-10 -1.516094E-09
        25  18  5.572124E+05  3.484439E+05  3.704667E+05  7.241648E+04 -2.793990E-09  7.149639E-09
        25  19 -2.298960E+06 -3.496052E+05 -3.405358E+05 -2.436056E+03  2.787813E+03 -1.425633E+03
        25  20 -2.441203E+06 -3.577131E+05 -3.698545E+05 -1.100003E+05  1.210867E+02 -4.961706E+03
        25  21 -2.357404E+06 -3.824760E+05 -3.588952E+05  1.937638E+04 -2.687768E+03 -5.459382E+03
        25  22 -9.023801E+05  2.896566E+03  9.748051E+03  4.532404E+04  2.555658E+03 -1.435632E+03
        25  23 -1.014926E+06  1.150282E+03 -1.240360E+04 -7.285754E+04  2.900205E+01 -4.964205E+03
        25  24 -9.010596E+05 -1.693621E+04  5.866182E+03  4.587155E+04 -2.639813E+03 -5.457332E+03
        25  25  4.959738E+05  3.552542E+05  3.598837E+05  9.317247E+04  2.322974E+03 -1.445657E+03
        25  26  4.132012E+05  3.598616E+05  3.448929E+05 -3.564509E+04 -6.329459E+01 -4.966713E+03
        25  27  5.572124E+05  3.484440E+05  3.704668E+05  7.241649E+04 -2.591739E+03 -5.455280E+03
        26   1 -3.324205E+06 -6.190383E+05 -5.990975E+05 -5.415446E+04 -8.313119E+03  6.415785E+03
        26   2 -3.728660E+06 -6.536676E+05 -6.846432E+05 -8.163906E+02 -1.664138E+02  8.827717E+03
        26   3 -3.314255E+06 -6.079055E+05 -5.946910E+05  1.288387E+04  7.983155E+03  5.860227E+03
        26   4 -7.702488E+05  2.187051E+04  4.089755E+04 -1.632727E+04 -8.099086E+03  6.418018E+03
        26   5 -1.180807E+06 -1.492094E+04 -4.612097E+04  3.921820E+03 -1.810806E+02  8.825402E+03
        26   6 -7.706857E+05  2.998989E+04  4.263323E+04 -1.545413E+04  7.739699E+03  5.861988E+03
        26   7  1.789641E+06  6.622871E+05  6.803980E+05  2.162883E+04 -7.884114E+03  6.420275E+03
        26   8  1.372953E+06  6.233332E+05  5.919088E+05  8.675944E+03 -1.958068E+02  8.823094E+03
        26   9  1.778768E+06  6.673961E+05  6.794669E+05 -4.388855E+04  7.495188E+03  5.863770E+03
        26  10 -3.324205E+06 -6.190383E+05 -5.990977E+05 -5.415442E+04  2.046134E-09  1.366282E-09
        26  11 -3.728660E+06 -6.536677E+05 -6.846433E+05 -8.163894E+02 -2.518268E-09  2.339571E-09
        26  12 -3.314255E+06 -6.079055E+05 -5.946911E+05  1.288383E+04 -1.464318E-09 -6.215271E-09
        26  13 -7.702489E+05  2.187045E+04  4.089735E+04 -1.632723E+04  2.347487E-09  7.138747E-09
        26  14 -1.180808E+06 -1.492102E+04 -4.612111E+04  3.921821E+03 -3.344168E-09  6.875051E-10
        26  15 -7.706857E+05  2.998983E+04  4.263305E+04 -1.545416E+04  2.417684E-09 -8.047080E-09
        26  16  1.789641E+06  6.622871E+05  6.803978E+05  2.162887E+04 -5.658480E-09  4.580921E-09
        26  17  1.372953E+06  6.233331E+05  5.919087E+05  8.675945E+03  7.367972E-10 -2.169456E-09
        26  18  1.778768E+06  6.673961E+05  6.794667E+05 -4.388859E+04  3.596189E-10 -4.055751E-10
        26  19 -3.324205E+06 -6.190383E+05 -5.990975E+05 -5.415446E+04  8.313119E+03 -6.415785E+03
        26  20 -3.728660E+06 -6.536676E+05 -6.846432E+05 -8.163906E+02  1.664138E+02 -8.827717E+03
        26  21 -3.314255E+06 -6.079055E+05 -5.946910E+05  1.288387E+04 -7.983155E+03 -5.860227E+03
        26  22 -7.702488E+05  2.187051E+04  4.089755E+04 -1.632727E+04  8.099086E+03 -6.418018E+03
        26  23 -1.180807E+06 -1.492094E+04 -4.612097E+04  3.921820E+03  1.810806E+02 -8.825402E+03
        26  24 -7.706857E+05  2.998989E+04  4.263323E+04 -1.545413E+04 -7.739699E+03 -5.861988E+03
        26  25  1.789641E+06  6.622871E+05  6.803980E+05  2.162883E+04  7.884114E+03 -6.420275E+03
        26  26  1.372953E+06  6.233332E+05  5.919088E+05  8.675944E+03  1.958068E+02 -8.823094E+03
        26  27  1.778768E+06  6.673961E+05  6.794669E+05 -4.388855E+04 -7.495188E+03 -5.863770E+03
        27   1 -1.674090E+06 -2.089454E+05 -1.873489E+05 -5.675064E+04 -9.903710E+02  3.869541E+03
        27   2 -1.656604E+06 -1.671266E+05 -1.750300E+05  7.852638E+04 -3.324330E+02  2.299668E+03
        27   3 -1.607601E+06 -1.742661E+05 -1.666056E+05 -5.032286E+04  2.914979E+02  4.460790E+01
        27   4 -9.443548E+05 -2.606999E+04 -4.725317E+03 -6.604972E+04 -1.049404E+03  3.870422E+03
        27   5 -9.605144E+05  7.507612E+03 -7.461231E+02  6.614331E+04 -4.236292E+02  2.301702E+03
        27   6 -9.450970E+05 -7.803332E+03 -6.223574E+02 -6.577159E+04  1.681108E+02  4.812866E+01
        27   7 -2.141362E+05  1.567653E+05  1.778579E+05 -7.535735E+04 -1.108505E+03  3.871304E+03
        27   8 -2.639842E+05  1.821054E+05  1.735010E+05  5.374894E+04 -5.149277E+02  2.303737E+03
        27   9 -2.821940E+05  1.586266E+05  1.653276E+05 -8.123398E+04  4.459159E+01  5.165369E+01
        27  10 -1.674090E+06 -2.089455E+05 -1.873489E+05 -5.675064E+04 -3.110045E-09  1.263113E-09
        27  11 -1.656604E+06 -1.671266E+05 -1.750300E+05  7.852638E+04 -1.015270E-09  1.386763E-09
        27  12 -1.607601E+06 -1.742661E+05 -1.666056E+05 -5.032286E+04 -1.409346E-09 -4.385470E-09
        27  13 -9.443548E+05 -2.607000E+04 -4.725347E+03 -6.604972E+04 -2.435597E-09  5.999840E-09
        27  14 -9.605144E+05  7.507606E+03 -7.461334E+02  6.614331E+04  7.695419E-09  8.556259E-09
        27  15 -9.450970E+05 -7.803332E+03 -6.223575E+02 -6.577159E+04 -3.367130E-09 -1.976868E-09
        27  16 -2.141362E+05  1.567653E+05  1.778579E+05 -7.535735E+04  3.456208E-09  3.366917E-09
        27  17 -2.639842E+05  1.821053E+05  1.735010E+05  5.374894E+04  6.348165E-09  2.845507E-08
        27  18 -2.821940E+05  1.586266E+05  1.653276E+05 -8.123398E+04  1.157509E-09 -1.308343E-09
        27  19 -1.674090E+06 -2.089454E+05 -1.873489E+05 -5.675064E+04  9.903710E+02 -3.869541E+03
        27  20 -1.656604E+06 -1.671266E+05 -1.750300E+05  7.852638E+04  3.324330E+02 -2.299668E+03
        27  21 -1.607601E+06 -1.742661E+05 -1.666056E+05 -5.032286E+04 -2.914979E+02 -4.460790E+01
        27  22 -9.443548E+05 -2.606999E+04 -4.725317E+03 -6.604972E+04  1.049404E+03 -3.870422E+03
        27  23 -9.605144E+05  7.507612E+03 -7.461231E+02  6.614331E+04  4.236292E+02 -2.301702E+03
        27  24 -9.450970E+05 -7.803332E+03 -6.223574E+02 -6.577159E+04 -1.681108E+02 -4.812866E+01
        27  25 -2.141362E+05  1.567653E+05  1.778579E+05 -7.535735E+04  1.108505E+03 -3.871304E+03
        27  26 -2.639842E+05  1.821054E+05  1.735010E+05  5.374894E+04  5.149277E+02 -2.303737E+03
        27  27 -2.821940E+05  1.586266E+05  1.653276E+05 -8.123398E+04 -4.459159E+01 -5.165369E+01
        28   1  1.159089E+06  5.167522E+05  5.260309E+05 -8.690718E+04 -5.406692E+03 -3.472219E+03
        28   2  9.236103E+05  4.895659E+05  4.756581E+05  2.232257E+04 -1.503663E+03 -7.764084E+03
        28   3  1.205917E+06  5.510148E+05  5.439834E+05 -4.740709E+04  2.513041E+03 -3.051412E+03
        28   4 -8.382616E+05  1.622763E+04  2.668158E+04 -4.662604E+04 -5.811589E+03 -3.462396E+03
        28   5 -1.095974E+06 -1.562349E+04 -2.906649E+04  4.266455E+04 -1.487932E+03 -7.765879E+03
        28   6 -8.368317E+05  4.051171E+04  3.355505E+04 -4.703648E+04  2.949426E+03 -3.052311E+03
        28   7 -2.831998E+06 -4.845956E+05 -4.729692E+05 -6.450758E+03 -6.215160E+03 -3.452612E+03
        28   8 -3.111862E+06 -5.211204E+05 -5.340992E+05  6.295253E+04 -1.472246E+03 -7.767678E+03
        28   9 -2.875801E+06 -4.703065E+05 -4.771884E+05 -4.666638E+04  3.384364E+03 -3.053212E+03
        28  10  1.159089E+06  5.167521E+05  5.260308E+05 -8.690719E+04 -4.663686E-09 -1.729717E-08
        28  11  9.236102E+05  4.895658E+05  4.756580E+05  2.232256E+04 -1.285807E-09 -2.442635E-10
        28  12  1.205917E+06  5.510148E+05  5.439834E+05 -4.740708E+04  1.055797E-09 -2.388515E-09
        28  13 -8.382616E+05  1.622761E+04  2.668149E+04 -4.662606E+04 -4.853622E-09 -1.100800E-08
        28  14 -1.095974E+06 -1.562356E+04 -2.906661E+04  4.266454E+04  4.169028E-11  3.339921E-10
        28  15 -8.368317E+05  4.051170E+04  3.355501E+04 -4.703648E+04  1.036911E-09  8.331836E-10
        28  16 -2.831998E+06 -4.845956E+05 -4.729693E+05 -6.450776E+03  7.321964E-09 -1.089183E-08
        28  17 -3.111862E+06 -5.211204E+05 -5.340993E+05  6.295253E+04  2.033662E-09 -5.323564E-09
        28  18 -2.875801E+06 -4.703065E+05 -4.771884E+05 -4.666637E+04 -4.239655E-10  2.154903E-09
        28  19  1.159089E+06  5.167522E+05  5.260309E+05 -8.690718E+04  5.406692E+03  3.472219E+03
        28  20  9.236103E+05  4.895659E+05  4.756581E+05  2.232257E+04  1.503663E+03  7.764084E+03
        28  21  1.205917E+06  5.510148E+05  5.439834E+05 -4.740709E+04 -2.513041E+03  3.051412E+03
        28  22 -8.382616E+05  1.622763E+04  2.668158E+04 -4.662604E+04  5.811589E+03  3.462396E+03
        28  23 -1.095974E+06 -1.562349E+04 -2.906649E+04  4.266455E+04  1.487932E+03  7.765879E+03
        28  24 -8.368317E+05  4.051171E+04  3.355505E+04 -4.703648E+04 -2.949426E+03  3.052311E+03
        28  25 -2.831998E+06 -4.845956E+05 -4.729692E+05 -6.450758E+03  6.215160E+03  3.452612E+03
        28  26 -3.111862E+06 -5.211204E+05 -5.340992E+05  6.295253E+04  1.472246E+03  7.767678E+03
        28  27 -2.875801E+06 -4.703065E+05 -4.771884E+05 -4.666638E+04 -3.384364E+03  3.053212E+03
        29   1  1.453528E+05  1.297911E+04  1.903574E+05 -4.441469E+03 -4.336361E+02  1.298114E+05
        29   2 -3.504623E+04 -1.625875E+04  8.115603E+04 -1.287462E+03 -2.847835E+02  8.540218E+04
        29   3 -4.531354E+03  1.301995E+04  5.360503E+04  2.374350E+03 -1.364498E+02  4.099161E+04
        29   4  1.453202E+05  1.301162E+04  1.903574E+05  4.409422E+02 -4.326152E+02  1.298114E+05
        29   5 -3.505440E+04 -1.625059E+04  8.115603E+04 -6.266708E+01 -2.846150E+02  8.540218E+04
        29   6 -4.515150E+03  1.300373E+04  5.360503E+04 -5.838483E+01 -1.366104E+02  4.099161E+04
        29   7  1.452877E+05  1.304419E+04  1.903574E+05  5.323354E+03 -4.315943E+02  1.298114E+05
        29   8 -3.506256E+04 -1.624242E+04  8.115603E+04  1.162128E+03 -2.844465E+02  8.540218E+04
        29   9 -4.498924E+03  1.298752E+04  5.360503E+04 -2.491119E+03 -1.367710E+02  4.099161E+04
        29  10  1.453483E+05  1.296102E+04  1.903258E+05 -4.441424E+03 -3.363521E-10  2.651969E-10
        29  11 -3.504819E+04 -1.626658E+04  8.114233E+04 -1.287443E+03 -8.971034E-10  9.029768E-11
        29  12 -4.531805E+03  1.301815E+04  5.360187E+04  2.374354E+03  1.807184E-09 -3.670044E-10
        29  13  1.453157E+05  1.299353E+04  1.903257E+05  4.409874E+02  9.885040E-10  5.337816E-11
        29  14 -3.505636E+04 -1.625842E+04  8.114233E+04 -6.264751E+01  3.590443E-09  3.954179E-12
        29  15 -4.515601E+03  1.300193E+04  5.360187E+04 -5.838032E+01  8.170467E-10  1.248831E-11
        29  16  1.452832E+05  1.302610E+04  1.903258E+05  5.323399E+03 -3.348279E-10 -2.419928E-10
        29  17 -3.506452E+04 -1.625026E+04  8.114233E+04  1.162148E+03  7.405196E-09 -1.003737E-10
        29  18 -4.499375E+03  1.298572E+04  5.360187E+04 -2.491115E+03  1.154935E-09  3.004839E-10
        29  19  1.453528E+05  1.297911E+04  1.903574E+05 -4.441469E+03  4.336361E+02 -1.298114E+05
        29  20 -3.504623E+04 -1.625875E+04  8.115603E+04 -1.287462E+03  2.847835E+02 -8.540218E+04
        29  21 -4.531354E+03  1.301995E+04  5.360503E+04  2.374350E+03  1.364498E+02 -4.099161E+04
        29  22  1.453202E+05  1.301162E+04  1.903574E+05  4.409422E+02  4.326152E+02 -1.298114E+05
        29  23 -3.505440E+04 -1.625059E+04  8.115603E+04 -6.266708E+01  2.846150E+02 -8.540218E+04
        29  24 -4.515150E+03  1.300373E+04  5.360503E+04 -5.838483E+01  1.366104E+02 -4.099161E+04
        29  25  1.452877E+05  1.304419E+04  1.903574E+05  5.323354E+03  4.315943E+02 -1.298114E+05
        29  26 -3.506256E+04 -1.624242E+04  8.115603E+04  1.162128E+03  2.844465E+02 -8.540218E+04
        29  27 -4.498924E+03  1.298752E+04  5.360503E+04 -2.491119E+03  1.367710E+02 -4.099161E+04
        30   1  2.276219E+04  2.163468E+03  4.448238E+04 -6.657377E+02 -1.069021E+02  3.206588E+04
        30   2 -5.513819E+03 -2.710561E+03  2.131214E+04 -1.814995E+02 -6.951888E+01  2.085825E+04
        30   3 -6.098873E+02  2.170289E+03  1.373427E+04  3.808060E+02 -3.215616E+01  9.650666E+03
        30   4  2.275729E+04  2.168363E+03  4.448238E+04  6.861632E+01 -1.068641E+02  3.206588E+04
        30   5 -5.514967E+03 -2.709414E+03  2.131214E+04 -9.350012E+00 -6.951310E+01  2.085825E+04
        30   6 -6.072878E+02  2.167689E+03  1.373427E+04 -9.248109E+00 -3.216223E+01  9.650666E+03
        30   7  2.275240E+04  2.173258E+03  4.448238E+04  8.029703E+02 -1.068262E+02  3.206588E+04
        30   8 -5.516114E+03 -2.708266E+03  2.131214E+04  1.627995E+02 -6.950732E+01  2.085825E+04
        30   9 -6.046876E+02  2.165089E+03  1.373427E+04 -3.993022E+02 -3.216829E+01  9.650666E+03
        30  10  2.276191E+04  2.162364E+03  4.448045E+04 -6.657349E+02  3.001968E-10 -1.468341E-10
        30  11 -5.513936E+03 -2.711028E+03  2.131133E+04 -1.814983E+02 -7.818133E-10  2.883915E-11
        30  12 -6.099123E+02  2.170189E+03  1.373410E+04  3.808062E+02  3.348907E-10  4.423438E-11
        30  13  2.275702E+04  2.167258E+03  4.448045E+04  6.861908E+01  1.769572E-09  2.509976E-11
        30  14 -5.515084E+03 -2.709881E+03  2.131133E+04 -9.348844E+00  8.111057E-10 -4.957806E-12
        30  15 -6.073128E+02  2.167589E+03  1.373410E+04 -9.247859E+00 -1.098741E-09  4.744952E-12
        30  16  2.275212E+04  2.172154E+03  4.448045E+04  8.029731E+02 -3.020853E-09  1.562373E-10
        30  17 -5.516231E+03 -2.708733E+03  2.131133E+04  1.628007E+02 -2.352520E-09 -8.037770E-11
        30  18 -6.047126E+02  2.164989E+03  1.373410E+04 -3.993020E+02 -2.850719E-09 -9.492504E-11
        30  19  2.276219E+04  2.163468E+03  4.448238E+04 -6.657377E+02  1.069021E+02 -3.206588E+04
        30  20 -5.513819E+03 -2.710561E+03  2.131214E+04 -1.814995E+02  6.951888E+01 -2.085825E+04
        30  21 -6.098873E+02  2.170289E+03  1.373427E+04  3.808060E+02  3.215616E+01 -9.650666E+03
        30  22  2.275729E+04  2.168363E+03  4.448238E+04  6.861632E+01  1.068641E+02 -3.206588E+04
        30  23 -5.514967E+03 -2.709414E+03  2.131214E+04 -9.350012E+00  6.951310E+01 -2.085825E+04
        30  24 -6.072878E+02  2.167689E+03  1.373427E+04 -9.248109E+00  3.216223E+01 -9.650666E+03
        30  25  2.275240E+04  2.173258E+03  4.448238E+04  8.029703E+02  1.068262E+02 -3.206588E+04
        30  26 -5.516114E+03 -2.708266E+03  2.131214E+04  1.627995E+02  6.950732E+01 -2.085825E+04
        30  27 -6.046876E+02  2.165089E+03  1.373427E+04 -3.993022E+02  3.216829E+01 -9.650666E+03
        31   1  3.532830E+03  4.294053E+02  1.132412E+04 -1.059660E+02 -2.457727E+01  7.374292E+03
        31   2 -9.903156E+02 -5.377806E+02  6.687446E+03 -2.127018E+01 -1.316069E+01  3.948987E+03
        31   3  4.446893E+02  4.306331E+02  5.770363E+03  7.683014E+01 -1.745369E+00  5.237386E+02
        31   4  3.532055E+03  4.301805E+02  1.132412E+04  1.033756E+01 -2.457588E+01  7.374292E+03
        31   5 -9.904474E+02 -5.376489E+02  6.687446E+03 -1.509032E+00 -1.316056E+01  3.948987E+03
        31   6  4.452011E+02  4.301214E+02  5.770363E+03  5.025586E-02 -1.745434E+00  5.237386E+02
        31   7  3.531280E+03  4.309557E+02  1.132412E+04  1.266411E+02 -2.457450E+01  7.374292E+03
        31   8 -9.905791E+02 -5.375172E+02  6.687446E+03  1.825211E+01 -1.316044E+01  3.948987E+03
        31   9  4.457129E+02  4.296096E+02  5.770363E+03 -7.672963E+01 -1.745499E+00  5.237386E+02
        31  10  3.532815E+03  4.293469E+02  1.132402E+04 -1.059659E+02 -5.538450E-10  1.239868E-11
        31  11 -9.903198E+02 -5.377974E+02  6.687417E+03 -2.127014E+01 -3.378990E-09 -6.082994E-11
        31  12  4.446892E+02  4.306328E+02  5.770363E+03  7.683014E+01 -1.283542E-09 -3.450191E-10
        31  13  3.532040E+03  4.301221E+02  1.132402E+04  1.033770E+01 -2.350081E-09 -6.488309E-12
        31  14 -9.904515E+02 -5.376657E+02  6.687417E+03 -1.508991E+00 -4.102655E-09 -1.377671E-12
        31  15  4.452010E+02  4.301211E+02  5.770363E+03  5.025659E-02 -4.410901E-09  1.441048E-11
        31  16  3.531265E+03  4.308973E+02  1.132402E+04  1.266413E+02 -2.707805E-09 -8.047512E-12
        31  17 -9.905833E+02 -5.375340E+02  6.687417E+03  1.825216E+01 -3.020329E-09  4.770013E-11
        31  18  4.457128E+02  4.296093E+02  5.770363E+03 -7.672963E+01 -5.920470E-09  2.975040E-10
        31  19  3.532830E+03  4.294053E+02  1.132412E+04 -1.059660E+02  2.457727E+01 -7.374292E+03
        31  20 -9.903156E+02 -5.377806E+02  6.687446E+03 -2.127018E+01  1.316069E+01 -3.948987E+03
        31  21  4.446893E+02  4.306331E+02  5.770363E+03  7.683014E+01  1.745369E+00 -5.237386E+02
        31  22  3.532055E+03  4.301805E+02  1.132412E+04  1.033756E+01  2.457588E+01 -7.374292E+03
        31  23 -9.904474E+02 -5.376489E+02  6.687446E+03 -1.509032E+00  1.316056E+01 -3.948987E+03
        31  24  4.452011E+02  4.301214E+02  5.770363E+03  5.025584E-02  1.745434E+00 -5.237386E+02
        31  25  3.531280E+03  4.309557E+02  1.132412E+04  1.266411E+02  2.457450E+01 -7.374292E+03
        31  26 -9.905791E+02 -5.375172E+02  6.687446E+03  1.825211E+01  1.316044E+01 -3.948987E+03
        31  27  4.457129E+02  4.296096E+02  5.770363E+03 -7.672963E+01  1.745499E+00 -5.237386E+02
        32   1 -4.988823E+06 -1.581035E+06 -1.020725E+06 -1.743272E+06 -5.177570E+05 -1.869671E+05
        32   2 -4.852147E+06 -8.174627E+05 -5.389634E+05 -1.841899E+06 -3.355316E+05 -1.000829E+05
        32   3 -5.003144E+06 -8.229248E+05 -4.035263E+05 -1.767286E+06 -1.466943E+05 -3.064499E+04
        32   4 -4.292040E+06 -1.166183E+06 -7.995333E+05 -1.400226E+06 -5.083452E+05 -1.835615E+05
        32   5 -4.107055E+06 -4.937416E+05 -3.309136E+05 -1.595795E+06 -3.329651E+05 -9.914311E+04
        32   6 -4.208042E+06 -5.884674E+05 -2.028577E+05 -1.618233E+06 -1.509622E+05 -3.223766E+04
        32   7 -3.594727E+06 -7.510411E+05 -5.783873E+05 -1.056760E+06 -4.989214E+05 -1.801455E+05
        32   8 -3.361417E+06 -1.699350E+05 -1.229161E+05 -1.349404E+06 -3.303950E+05 -9.820147E+04
        32   9 -3.412320E+06 -3.540215E+05 -2.235295E+03 -1.469033E+06 -1.552360E+05 -3.383145E+04
        32  10 -4.989122E+06 -1.581146E+06 -1.021300E+06 -1.743350E+06  2.311238E-09 -5.380642E-10
        32  11 -4.852272E+06 -8.175041E+05 -5.391959E+05 -1.841926E+06 -4.099297E-09 -1.588934E-09
        32  12 -5.003167E+06 -8.229316E+05 -4.035688E+05 -1.767289E+06 -1.360181E-10  1.532325E-10
        32  13 -4.292328E+06 -1.166289E+06 -8.000865E+05 -1.400302E+06  3.219711E-09 -5.104538E-10
        32  14 -4.107177E+06 -4.937822E+05 -3.311422E+05 -1.595822E+06 -1.343230E-09 -1.010831E-09
        32  15 -4.208067E+06 -5.884747E+05 -2.029028E+05 -1.618237E+06 -4.759818E-09  1.294158E-10
        32  16 -3.595004E+06 -7.511435E+05 -5.789194E+05 -1.056833E+06 -6.242355E-10 -2.780085E-10
        32  17 -3.361537E+06 -1.699750E+05 -1.231408E+05 -1.349430E+06  3.639491E-10 -3.885883E-10
        32  18 -3.412346E+06 -3.540293E+05 -2.283031E+03 -1.469038E+06 -1.774305E-09 -1.553071E-10
        32  19 -4.988823E+06 -1.581035E+06 -1.020725E+06 -1.743272E+06  5.177570E+05  1.869671E+05
        32  20 -4.852147E+06 -8.174627E+05 -5.389634E+05 -1.841899E+06  3.355316E+05  1.000829E+05
        32  21 -5.003144E+06 -8.229248E+05 -4.035263E+05 -1.767286E+06  1.466943E+05  3.064499E+04
        32  22 -4.292040E+06 -1.166183E+06 -7.995333E+05 -1.400226E+06  5.083452E+05  1.835615E+05
        32  23 -4.107055E+06 -4.937416E+05 -3.309136E+05 -1.595795E+06  3.329651E+05  9.914311E+04
        32  24 -4.208042E+06 -5.884674E+05 -2.028577E+05 -1.618233E+06  1.509622E+05  3.223766E+04
        32  25 -3.594727E+06 -7.510411E+05 -5.783873E+05 -1.056760E+06  4.989214E+05  1.801455E+05
        32  26 -3.361417E+06 -1.699350E+05 -1.229161E+05 -1.349404E+06  3.303950E+05  9.820147E+04
        32  27 -3.412320E+06 -3.540215E+05 -2.235295E+03 -1.469033E+06  1.552360E+05  3.383145E+04
        33   1 -4.842792E+06 -9.460683E+05 -3.476504E+05 -1.770497E+06 -1.206572E+05 -2.471227E+04
        33   2 -4.794969E+06 -8.213390E+05 -2.463274E+05 -1.751913E+06 -7.902097E+04 -9.301813E+03
        33   3 -4.752578E+06 -8.207112E+05 -2.007178E+05 -1.748669E+06 -3.662912E+04  4.106488E+03
        33   4 -4.179162E+06 -6.782134E+05 -1.657150E+05 -1.572331E+06 -1.204394E+05 -2.463574E+04
        33   5 -4.171499E+06 -5.814778E+05 -7.801992E+04 -1.577708E+06 -7.956545E+04 -9.508714E+03
        33   6 -4.169078E+06 -6.086318E+05 -4.538333E+04 -1.598433E+06 -3.793916E+04  3.613909E+03
        33   7 -3.515105E+06 -4.103157E+05  1.617959E+04 -1.373966E+06 -1.202212E+05 -2.455907E+04
        33   8 -3.547652E+06 -3.415896E+05  9.025275E+04 -1.403342E+06 -8.011051E+04 -9.715837E+03
        33   9 -3.585248E+06 -3.965381E+05  1.099220E+05 -1.448070E+06 -3.925056E+04  3.120866E+03
        33  10 -4.842808E+06 -9.460730E+05 -3.476791E+05 -1.770500E+06 -6.608290E-10  1.198964E-09
        33  11 -4.794976E+06 -8.213408E+05 -2.463394E+05 -1.751914E+06 -2.603527E-09 -3.282613E-10
        33  12 -4.752579E+06 -8.207116E+05 -2.007204E+05 -1.748669E+06 -1.120204E-09 -4.416715E-10
        33  13 -4.179178E+06 -6.782179E+05 -1.657436E+05 -1.572333E+06 -6.600073E-09  1.404799E-10
        33  14 -4.171506E+06 -5.814796E+05 -7.803208E+04 -1.577709E+06  2.827724E-09 -7.814289E-10
        33  15 -4.169080E+06 -6.086322E+05 -4.538607E+04 -1.598432E+06  2.804389E-10 -5.501165E-10
        33  16 -3.515120E+06 -4.103202E+05  1.615112E+04 -1.373969E+06 -1.811416E-09 -3.823826E-10
        33  17 -3.547659E+06 -3.415915E+05  9.024044E+04 -1.403343E+06 -6.187434E-09 -4.302576E-10
        33  18 -3.585249E+06 -3.965385E+05  1.099190E+05 -1.448070E+06 -5.128327E-09  4.227460E-10
        33  19 -4.842792E+06 -9.460683E+05 -3.476504E+05 -1.770497E+06  1.206572E+05  2.471227E+04
        33  20 -4.794969E+06 -8.213390E+05 -2.463274E+05 -1.751913E+06  7.902097E+04  9.301813E+03
        33  21 -4.752578E+06 -8.207112E+05 -2.007178E+05 -1.748669E+06  3.662912E+04 -4.106488E+03
        33  22 -4.179162E+06 -6.782134E+05 -1.657150E+05 -1.572331E+06  1.204394E+05  2.463574E+04
        33  23 -4.171499E+06 -5.814778E+05 -7.801992E+04 -1.577708E+06  7.956545E+04  9.508714E+03
        33  24 -4.169078E+06 -6.086318E+05 -4.538333E+04 -1.598433E+06  3.793916E+04 -3.613909E+03
        33  25 -3.515105E+06 -4.103157E+05  1.617959E+04 -1.373966E+06  1.202212E+05  2.455907E+04
        33  26 -3.547652E+06 -3.415896E+05  9.025275E+04 -1.403342E+06  8.011051E+04  9.715837E+03
        33  27 -3.585248E+06 -3.965381E+05  1.099220E+05 -1.448070E+06  3.925056E+04 -3.120866E+03
        34   1 -4.637363E+06 -8.017077E+05 -1.631439E+05 -1.725608E+06 -2.989180E+04  4.781339E+03
        34   2 -4.592916E+06 -7.451663E+05 -1.285769E+05 -1.684980E+06 -1.958895E+04  5.960309E+03
        34   3 -4.510150E+06 -7.428999E+05 -1.039557E+05 -1.691407E+06 -9.138129E+03  6.738753E+03
        34   4 -4.163351E+06 -6.211399E+05 -3.567670E+04 -1.594954E+06 -3.077165E+04  4.450260E+03
        34   5 -4.181915E+06 -5.898332E+05 -1.816339E+04 -1.572988E+06 -2.062262E+04  5.572219E+03
        34   6 -4.162129E+06 -6.127633E+05 -1.046658E+04 -1.598076E+06 -1.032675E+04  6.293345E+03
        34   7 -3.689122E+06 -4.405577E+05  9.177052E+04 -1.464208E+06 -3.165223E+04  4.118899E+03
        34   8 -3.770750E+06 -4.344901E+05  9.223500E+04 -1.460928E+06 -2.165705E+04  5.183845E+03
        34   9 -3.813992E+06 -4.826205E+05  8.301164E+04 -1.504699E+06 -1.151610E+04  5.847667E+03
        34  10 -4.637364E+06 -8.017080E+05 -1.631456E+05 -1.725608E+06  7.422413E-10 -5.501290E-10
        34  11 -4.592916E+06 -7.451665E+05 -1.285777E+05 -1.684980E+06  2.009874E-10 -4.047399E-10
        34  12 -4.510150E+06 -7.429000E+05 -1.039560E+05 -1.691407E+06  2.712897E-10 -1.276162E-09
        34  13 -4.163352E+06 -6.211402E+05 -3.567853E+04 -1.594954E+06 -2.365555E-09 -4.343520E-10
        34  14 -4.181915E+06 -5.898333E+05 -1.816425E+04 -1.572988E+06  4.181041E-09 -9.046037E-10
        34  15 -4.162129E+06 -6.127634E+05 -1.046685E+04 -1.598076E+06 -4.429035E-09 -1.465462E-09
        34  16 -3.689123E+06 -4.405580E+05  9.176859E+04 -1.464208E+06 -3.107835E-09 -1.535277E-10
        34  17 -3.770750E+06 -4.344903E+05  9.223406E+04 -1.460928E+06  1.841247E-09 -8.133926E-10
        34  18 -3.813992E+06 -4.826205E+05  8.301132E+04 -1.504699E+06 -2.640387E-09 -1.336466E-09
        34  19 -4.637363E+06 -8.017077E+05 -1.631439E+05 -1.725608E+06  2.989180E+04 -4.781339E+03
        34  20 -4.592916E+06 -7.451663E+05 -1.285769E+05 -1.684980E+06  1.958895E+04 -5.960309E+03
        34  21 -4.510150E+06 -7.428999E+05 -1.039557E+05 -1.691407E+06  9.138129E+03 -6.738753E+03
        34  22 -4.163351E+06 -6.211399E+05 -3.567670E+04 -1.594954E+06  3.077165E+04 -4.450260E+03
        34  23 -4.181915E+06 -5.898332E+05 -1.816339E+04 -1.572988E+06  2.062262E+04 -5.572219E+03
        34  24 -4.162129E+06 -6.127633E+05 -1.046658E+04 -1.598076E+06  1.032675E+04 -6.293345E+03
        34  25 -3.689122E+06 -4.405577E+05  9.177052E+04 -1.464208E+06  3.165223E+04 -4.118899E+03
        34  26 -3.770750E+06 -4.344901E+05  9.223500E+04 -1.460928E+06  2.165705E+04 -5.183845E+03
        34  27 -3.813992E+06 -4.826205E+05  8.301164E+04 -1.504699E+06  1.151610E+04 -5.847667E+03
        35   1 -4.384631E+06 -6.997314E+05 -6.816206E+04 -1.659726E+06 -7.016366E+03  5.595317E+03
        35   2 -4.336478E+06 -6.469473E+05 -4.568030E+04 -1.612355E+06 -3.449087E+03  3.623996E+03
        35   3 -4.240467E+06 -6.443176E+05 -2.543913E+04 -1.620634E+06  1.561656E+02  1.548454E+03
        35   4 -4.160464E+06 -6.151700E+05 -8.223659E+03 -1.598736E+06 -8.162714E+03  5.166100E+03
        35   5 -4.184323E+06 -5.896329E+05 -4.846850E+03 -1.571082E+06 -4.636494E+03  3.179674E+03
        35   6 -4.160325E+06 -6.142414E+05 -3.677301E+03 -1.599080E+06 -1.072645E+03  1.088943E+03
        35   7 -3.936247E+06 -5.306054E+05  5.171057E+04 -1.537727E+06 -9.309523E+03  4.736710E+03
        35   8 -4.032147E+06 -5.323172E+05  3.598450E+04 -1.529801E+06 -5.824220E+03  2.735233E+03
        35   9 -4.080177E+06 -5.841650E+05  1.808381E+04 -1.577524E+06 -2.301623E+03  6.293703E+02
        35  10 -4.384631E+06 -6.997314E+05 -6.816221E+04 -1.659726E+06 -1.339491E-09 -1.361418E-09
        35  11 -4.336478E+06 -6.469473E+05 -4.568035E+04 -1.612355E+06 -5.037016E-09 -2.982185E-10
        35  12 -4.240467E+06 -6.443176E+05 -2.543913E+04 -1.620634E+06  1.735825E-09  2.492020E-10
        35  13 -4.160464E+06 -6.151701E+05 -8.223834E+03 -1.598736E+06 -2.027196E-09 -1.161271E-09
        35  14 -4.184324E+06 -5.896329E+05 -4.846909E+03 -1.571082E+06  3.766310E-10  6.360961E-10
        35  15 -4.160325E+06 -6.142414E+05 -3.677305E+03 -1.599080E+06  9.717850E-10  8.132692E-10
        35  16 -3.936247E+06 -5.306054E+05  5.171036E+04 -1.537727E+06 -1.606373E-09 -6.029511E-10
        35  17 -4.032147E+06 -5.323172E+05  3.598442E+04 -1.529801E+06  3.417934E-09  1.373660E-10
        35  18 -4.080177E+06 -5.841650E+05  1.808380E+04 -1.577524E+06  5.866477E-10  2.539723E-10
        35  19 -4.384631E+06 -6.997314E+05 -6.816206E+04 -1.659726E+06  7.016366E+03 -5.595317E+03
        35  20 -4.336478E+06 -6.469473E+05 -4.568030E+04 -1.612355E+06  3.449087E+03 -3.623996E+03
        35  21 -4.240467E+06 -6.443176E+05 -2.543913E+04 -1.620634E+06 -1.561656E+02 -1.548454E+03
        35  22 -4.160464E+06 -6.151700E+05 -8.223659E+03 -1.598736E+06  8.162714E+03 -5.166100E+03
        35  23 -4.184323E+06 -5.896329E+05 -4.846850E+03 -1.571082E+06  4.636494E+03 -3.179674E+03
        35  24 -4.160325E+06 -6.142414E+05 -3.677301E+03 -1.599080E+06  1.072645E+03 -1.088943E+03
        35  25 -3.936247E+06 -5.306054E+05  5.171057E+04 -1.537727E+06  9.309523E+03 -4.736710E+03
        35  26 -4.032147E+06 -5.323172E+05  3.598450E+04 -1.529801E+06  5.824220E+03 -2.735233E+03
        35  27 -4.080177E+06 -5.841650E+05  1.808381E+04 -1.577524E+06  2.301623E+03 -6.293703E+02
        36   1 -4.109460E+06 -5.952828E+05  1.031807E+04 -1.585513E+06  1.420643E+03 -1.552217E+01
        36   2 -4.061158E+06 -5.431538E+05  2.884998E+04 -1.537546E+06  4.639105E+03 -2.245749E+03
        36   3 -3.964589E+06 -5.412256E+05  4.549375E+04 -1.545615E+06  7.825661E+03 -4.386707E+03
        36   4 -4.160247E+06 -6.143319E+05 -3.569947E+03 -1.599137E+06  1.910975E+02 -4.752840E+02
        36   5 -4.184427E+06 -5.895829E+05 -4.225666E+03 -1.570986E+06  3.444914E+03 -2.692534E+03
        36   6 -4.160352E+06 -6.150429E+05 -6.797412E+03 -1.598873E+06  6.666551E+03 -4.820588E+03
        36   7 -4.211031E+06 -6.333809E+05 -1.745824E+04 -1.612760E+06 -1.038340E+03 -9.350061E+02
        36   8 -4.307682E+06 -6.360114E+05 -3.730283E+04 -1.604420E+06  2.250979E+03 -3.139223E+03
        36   9 -4.356079E+06 -6.888585E+05 -5.909235E+04 -1.652117E+06  5.507836E+03 -5.254321E+03
        36  10 -4.109460E+06 -5.952828E+05  1.031807E+04 -1.585513E+06  1.560574E-09 -1.653871E-10
        36  11 -4.061158E+06 -5.431539E+05  2.884993E+04 -1.537546E+06  4.715900E-10  4.507218E-10
        36  12 -3.964589E+06 -5.412256E+05  4.549360E+04 -1.545615E+06 -6.831034E-10 -8.310941E-13
        36  13 -4.160247E+06 -6.143319E+05 -3.569947E+03 -1.599137E+06 -1.355184E-10  3.164131E-10
        36  14 -4.184427E+06 -5.895829E+05 -4.225701E+03 -1.570986E+06  9.451432E-10 -3.048901E-10
        36  15 -4.160352E+06 -6.150429E+05 -6.797539E+03 -1.598873E+06  5.667178E-10 -5.998616E-10
        36  16 -4.211031E+06 -6.333809E+05 -1.745824E+04 -1.612760E+06 -3.613043E-10  7.814989E-10
        36  17 -4.307682E+06 -6.360114E+05 -3.730286E+04 -1.604420E+06 -2.705770E-10 -5.010003E-10
        36  18 -4.356079E+06 -6.888585E+05 -5.909246E+04 -1.652117E+06 -1.933551E-10 -1.775085E-09
        36  19 -4.109460E+06 -5.952828E+05  1.031807E+04 -1.585513E+06 -1.420643E+03  1.552217E+01
        36  20 -4.061158E+06 -5.431538E+05  2.884998E+04 -1.537546E+06 -4.639105E+03  2.245749E+03
        36  21 -3.964589E+06 -5.412256E+05  4.549375E+04 -1.545615E+06 -7.825661E+03  4.386707E+03
        36  22 -4.160247E+06 -6.143319E+05 -3.569947E+03 -1.599137E+06 -1.910975E+02  4.752840E+02
        36  23 -4.184427E+06 -5.895829E+05 -4.225666E+03 -1.570986E+06 -3.444914E+03  2.692534E+03
        36  24 -4.160352E+06 -6.150429E+05 -6.797412E+03 -1.598873E+06 -6.666551E+03  4.820588E+03
        36  25 -4.211031E+06 -6.333809E+05 -1.745824E+04 -1.612760E+06  1.038340E+03  9.350061E+02
        36  26 -4.307682E+06 -6.360114E+05 -3.730283E+04 -1.604420E+06 -2.250979E+03  3.139223E+03
        36  27 -4.356079E+06 -6.888585E+05 -5.909235E+04 -1.652117E+06 -5.507836E+03  5.254321E+03
        37   1 -3.841037E+06 -4.929621E+05  7.761970E+04 -1.512055E+06  9.765375E+03 -5.618035E+03
        37   2 -3.797156E+06 -4.444404E+05  8.872920E+04 -1.467781E+06  1.815324E+04 -5.657539E+03
        37   3 -3.713133E+06 -4.488024E+05  9.203026E+04 -1.472006E+06  2.640247E+04 -5.316512E+03
        37   4 -4.161808E+06 -6.129884E+05 -8.556275E+03 -1.598202E+06  8.564631E+03 -6.067835E+03
        37   5 -4.182353E+06 -5.899058E+05 -1.468512E+04 -1.572693E+06  1.710068E+04 -6.052517E+03
        37   6 -4.162793E+06 -6.197419E+05 -2.874400E+04 -1.595685E+06  2.549723E+04 -5.656884E+03
        37   7 -4.482476E+06 -7.330082E+05 -9.474075E+04 -1.684308E+06  7.364581E+03 -6.517379E+03
        37   8 -4.567405E+06 -7.353619E+05 -1.181122E+05 -1.677545E+06  1.604884E+04 -6.447223E+03
        37   9 -4.612256E+06 -7.906686E+05 -1.495361E+05 -1.719282E+06  2.459271E+04 -5.996980E+03
        37  10 -3.841037E+06 -4.929622E+05  7.761946E+04 -1.512055E+06 -1.069149E-09 -1.117875E-09
        37  11 -3.797156E+06 -4.444405E+05  8.872852E+04 -1.467781E+06  1.188350E-09 -2.020094E-10
        37  12 -3.713134E+06 -4.488026E+05  9.202889E+04 -1.472006E+06  2.110946E-10  5.305961E-11
        37  13 -4.161808E+06 -6.129884E+05 -8.556482E+03 -1.598202E+06 -6.238936E-10 -7.681007E-10
        37  14 -4.182354E+06 -5.899059E+05 -1.468574E+04 -1.572693E+06  1.149910E-09 -1.142317E-09
        37  15 -4.162794E+06 -6.197422E+05 -2.874529E+04 -1.595685E+06  3.018755E-09  3.115418E-11
        37  16 -4.482476E+06 -7.330083E+05 -9.474093E+04 -1.684308E+06 -8.251635E-10 -9.172596E-10
        37  17 -4.567406E+06 -7.353620E+05 -1.181127E+05 -1.677545E+06 -1.262003E-11 -2.581241E-10
        37  18 -4.612257E+06 -7.906688E+05 -1.495373E+05 -1.719282E+06  1.635457E-09 -6.392119E-11
        37  19 -3.841037E+06 -4.929621E+05  7.761970E+04 -1.512055E+06 -9.765375E+03  5.618035E+03
        37  20 -3.797156E+06 -4.444404E+05  8.872920E+04 -1.467781E+06 -1.815324E+04  5.657539E+03
        37  21 -3.713133E+06 -4.488024E+05  9.203026E+04 -1.472006E+06 -2.640247E+04  5.316512E+03
        37  22 -4.161808E+06 -6.129884E+05 -8.556275E+03 -1.598202E+06 -8.564631E+03  6.067835E+03
        37  23 -4.182353E+06 -5.899058E+05 -1.468512E+04 -1.572693E+06 -1.710068E+04  6.052517E+03
        37  24 -4.162793E+06 -6.197419E+05 -2.874400E+04 -1.595685E+06 -2.549723E+04  5.656884E+03
        37  25 -4.482476E+06 -7.330082E+05 -9.474075E+04 -1.684308E+06 -7.364581E+03  6.517379E+03
        37  26 -4.567405E+06 -7.353619E+05 -1.181122E+05 -1.677545E+06 -1.604884E+04  6.447223E+03
        37  27 -4.612256E+06 -7.906686E+05 -1.495361E+05 -1.719282E+06 -2.459271E+04  5.996980E+03
        38   1 -3.607074E+06 -4.044126E+05  1.128593E+05 -1.452425E+06  3.273316E+04 -4.837747E+03
        38   2 -3.569290E+06 -3.520123E+05  1.000624E+05 -1.408860E+06  6.566065E+04  4.926499E+03
        38   3 -3.527708E+06 -4.068119E+05  4.362493E+04 -1.386494E+06  9.785316E+04  1.666239E+04
        38   4 -4.167723E+06 -6.093281E+05 -3.653637E+04 -1.598086E+06  3.140273E+04 -5.337848E+03
        38   5 -4.173586E+06 -5.836304E+05 -6.279036E+04 -1.576988E+06  6.509150E+04  4.710721E+03
        38   6 -4.175836E+06 -6.653349E+05 -1.333261E+05 -1.577088E+06  9.804243E+04  1.672959E+04
        38   7 -4.728070E+06 -8.142304E+05 -1.859598E+05 -1.743630E+06  3.007361E+04 -5.837491E+03
        38   8 -4.777529E+06 -8.152241E+05 -2.256759E+05 -1.744966E+06  6.452294E+04  4.495169E+03
        38   9 -4.823556E+06 -9.238197E+05 -3.103154E+05 -1.767495E+06  9.823144E+04  1.679669E+04
        38  10 -3.607075E+06 -4.044129E+05  1.128573E+05 -1.452425E+06 -5.106585E-10  9.440901E-10
        38  11 -3.569294E+06 -3.520135E+05  1.000542E+05 -1.408860E+06 -3.298377E-10 -1.279529E-10
        38  12 -3.527718E+06 -4.068148E+05  4.360630E+04 -1.386496E+06 -1.592146E-09 -7.940495E-11
        38  13 -4.167724E+06 -6.093283E+05 -3.653829E+04 -1.598086E+06  2.150668E-09  4.229617E-10
        38  14 -4.173591E+06 -5.836315E+05 -6.279842E+04 -1.576988E+06  2.290276E-09 -1.048661E-10
        38  15 -4.175846E+06 -6.653378E+05 -1.333448E+05 -1.577089E+06  1.742974E-09 -4.416680E-10
        38  16 -4.728071E+06 -8.142307E+05 -1.859616E+05 -1.743630E+06 -8.245836E-10 -2.218845E-10
        38  17 -4.777534E+06 -8.152252E+05 -2.256839E+05 -1.744966E+06  1.057829E-09 -5.161966E-11
        38  18 -4.823566E+06 -9.238226E+05 -3.103343E+05 -1.767497E+06  1.813488E-09  2.844110E-10
        38  19 -3.607074E+06 -4.044126E+05  1.128593E+05 -1.452425E+06 -3.273316E+04  4.837747E+03
        38  20 -3.569290E+06 -3.520123E+05  1.000624E+05 -1.408860E+06 -6.566065E+04 -4.926499E+03
        38  21 -3.527708E+06 -4.068119E+05  4.362493E+04 -1.386494E+06 -9.785316E+04 -1.666239E+04
        38  22 -4.167723E+06 -6.093281E+05 -3.653637E+04 -1.598086E+06 -3.140273E+04  5.337848E+03
        38  23 -4.173586E+06 -5.836304E+05 -6.279036E+04 -1.576988E+06 -6.509150E+04 -4.710721E+03
        38  24 -4.175836E+06 -6.653349E+05 -1.333261E+05 -1.577088E+06 -9.804243E+04 -1.672959E+04
        38  25 -4.728070E+06 -8.142304E+05 -1.859598E+05 -1.743630E+06 -3.007361E+04  5.837491E+03
        38  26 -4.777529E+06 -8.152241E+05 -2.256759E+05 -1.744966E+06 -6.452294E+04 -4.495169E+03
        38  27 -4.823556E+06 -9.238197E+05 -3.103154E+05 -1.767495E+06 -9.823144E+04 -1.679669E+04
        39   1 -3.427960E+06 -3.543064E+05  3.348023E+04 -1.457539E+06  1.271193E+05  2.373138E+04
        39   2 -3.381817E+06 -2.005094E+05 -6.156850E+04 -1.355992E+06  2.669111E+05  7.457112E+04
        39   3 -3.558429E+06 -6.674553E+05 -4.248978E+05 -1.121441E+06  4.001681E+05  1.427390E+05
        39   4 -4.199587E+06 -5.926000E+05 -1.632040E+05 -1.613396E+06  1.228672E+05  2.213972E+04
        39   5 -4.121143E+06 -5.137229E+05 -2.662752E+05 -1.592291E+06  2.694545E+05  7.551177E+04
        39   6 -4.267110E+06 -1.057423E+06 -6.432960E+05 -1.438100E+06  4.095088E+05  1.461750E+05
        39   7 -4.970635E+06 -8.308999E+05 -3.599337E+05 -1.769098E+06  1.186208E+05  2.054932E+04
        39   8 -4.859930E+06 -8.268620E+05 -4.710319E+05 -1.828319E+06  2.719944E+05  7.645073E+04
        39   9 -4.975259E+06 -1.447164E+06 -8.617410E+05 -1.754373E+06  4.188375E+05  1.496019E+05
        39  10 -3.427977E+06 -3.543113E+05  3.344860E+04 -1.457542E+06 -2.777563E-09  1.668445E-10
        39  11 -3.381896E+06 -2.005347E+05 -6.171375E+04 -1.356008E+06 -3.181274E-09  1.156357E-10
        39  12 -3.558608E+06 -6.675206E+05 -4.252392E+05 -1.121487E+06  6.772741E-10 -3.842654E-10
        39  13 -4.199604E+06 -5.926047E+05 -1.632335E+05 -1.613398E+06 -3.069998E-10  5.779830E-10
        39  14 -4.121223E+06 -5.137488E+05 -2.664234E+05 -1.592307E+06 -5.035935E-09  2.123345E-09
        39  15 -4.267297E+06 -1.057491E+06 -6.436540E+05 -1.438149E+06 -2.394437E-09 -1.590037E-10
        39  16 -4.970651E+06 -8.309041E+05 -3.599612E+05 -1.769100E+06 -2.126522E-09 -2.634352E-10
        39  17 -4.860012E+06 -8.268884E+05 -4.711832E+05 -1.828336E+06 -4.361622E-09  6.450535E-10
        39  18 -4.975455E+06 -1.447236E+06 -8.621161E+05 -1.754424E+06 -9.655479E-10 -2.750497E-10
        39  19 -3.427960E+06 -3.543064E+05  3.348023E+04 -1.457539E+06 -1.271193E+05 -2.373138E+04
        39  20 -3.381817E+06 -2.005094E+05 -6.156850E+04 -1.355992E+06 -2.669111E+05 -7.457112E+04
        39  21 -3.558429E+06 -6.674553E+05 -4.248978E+05 -1.121441E+06 -4.001681E+05 -1.427390E+05
        39  22 -4.199587E+06 -5.926000E+05 -1.632040E+05 -1.613396E+06 -1.228672E+05 -2.213972E+04
        39  23 -4.121143E+06 -5.137229E+05 -2.662752E+05 -1.592291E+06 -2.694545E+05 -7.551177E+04
        39  24 -4.267110E+06 -1.057423E+06 -6.432960E+05 -1.438100E+06 -4.095088E+05 -1.461750E+05
        39  25 -4.970635E+06 -8.308999E+05 -3.599337E+05 -1.769098E+06 -1.186208E+05 -2.054932E+04
        39  26 -4.859930E+06 -8.268620E+05 -4.710319E+05 -1.828319E+06 -2.719944E+05 -7.645073E+04
        39  27 -4.975259E+06 -1.447164E+06 -8.617410E+05 -1.754373E+06 -4.188375E+05 -1.496019E+05
        40   1  1.947411E+05  6.629299E+04  2.185674E+05 -1.301019E+05  1.207542E+02  1.342330E+05
        40   2  3.782810E+04  1.976730E+04  1.115133E+05 -6.638870E+04  1.129307E+03  7.809519E+04
        40   3  2.586559E+03  1.091716E+04  7.142249E+04 -9.729631E+03  2.942431E+02  2.195290E+04
        40   4  1.775484E+05  5.791756E+02  2.025139E+05 -2.432484E+04  1.516945E+02  1.317407E+05
        40   5  2.826877E+04 -1.802886E+04  1.032943E+05 -2.108775E+04  1.134505E+03  7.824728E+04
        40   6  1.932777E+02  5.765843E+02  6.920474E+04 -2.489959E+04  2.845784E+02  2.474684E+04
        40   7  1.603973E+05 -6.510672E+04  1.864661E+05  8.144096E+04  1.817880E+02  1.292486E+05
        40   8  1.871704E+04 -5.581929E+04  9.507632E+04  2.421039E+04  1.139725E+03  7.839936E+04
        40   9 -2.199140E+03 -9.763376E+03  6.698715E+04 -4.006929E+04  2.747772E+02  2.754074E+04
        40  10  1.947363E+05  6.627365E+04  2.185335E+05 -1.301019E+05  2.017790E-09 -9.898611E-09
        40  11  3.782646E+04  1.976076E+04  1.115018E+05 -6.638877E+04  5.046729E-09 -6.620018E-09
        40  12  2.586430E+03  1.091664E+04  7.142158E+04 -9.729636E+03  3.175177E-09  2.900099E-09
        40  13  1.775437E+05  5.605414E+02  2.024813E+05 -2.432485E+04 -3.755046E-10  8.882744E-10
        40  14  2.826712E+04 -1.803543E+04  1.032828E+05 -2.108782E+04 -2.212336E-09  6.447157E-11
        40  15  1.931132E+02  5.759267E+02  6.920359E+04 -2.489959E+04 -3.049947E-09  5.924004E-10
        40  16  1.603928E+05 -6.512466E+04  1.864347E+05  8.144094E+04  3.370036E-10  9.621654E-09
        40  17  1.871539E+04 -5.582589E+04  9.506476E+04  2.421032E+04  3.951590E-09  6.463877E-09
        40  18 -2.199344E+03 -9.764191E+03  6.698572E+04 -4.006929E+04  2.540782E-09 -3.178053E-09
        40  19  1.947411E+05  6.629299E+04  2.185674E+05 -1.301019E+05 -1.207542E+02 -1.342330E+05
        40  20  3.782810E+04  1.976730E+04  1.115133E+05 -6.638870E+04 -1.129307E+03 -7.809519E+04
        40  21  2.586559E+03  1.091716E+04  7.142249E+04 -9.729631E+03 -2.942431E+02 -2.195290E+04
        40  22  1.775484E+05  5.791756E+02  2.025139E+05 -2.432484E+04 -1.516945E+02 -1.317407E+05
        40  23  2.826877E+04 -1.802886E+04  1.032943E+05 -2.108775E+04 -1.134505E+03 -7.824728E+04
        40  24  1.932777E+02  5.765843E+02  6.920474E+04 -2.489959E+04 -2.845784E+02 -2.474684E+04
        40  25  1.603973E+05 -6.510672E+04  1.864661E+05  8.144096E+04 -1.817880E+02 -1.292486E+05
        40  26  1.871704E+04 -5.581929E+04  9.507632E+04  2.421039E+04 -1.139725E+03 -7.839936E+04
        40  27 -2.199140E+03 -9.763376E+03  6.698715E+04 -4.006929E+04 -2.747772E+02 -2.754074E+04
        41   1  4.482666E+03 -1.486871E+04  6.116448E+04 -2.964723E+04 -8.289338E+02  1.190394E+04
        41   2 -7.007544E+03 -4.669745E+04  5.458655E+04 -2.077983E+04 -2.409586E+03 -1.858662E+04
        41   3 -3.720644E+03 -7.091845E+04  7.154367E+04 -1.930217E+04 -3.862291E+03 -4.907577E+04
        41   4  6.513748E+03 -5.996096E+03  6.263439E+04 -2.487852E+04 -8.370486E+02  1.441617E+04
        41   5  1.753033E+03 -9.815194E+03  6.149181E+04 -2.117514E+04 -2.417139E+03 -1.626063E+04
        41   6  1.180111E+04 -5.995720E+03  8.401274E+04 -2.486121E+04 -3.868782E+03 -4.693732E+04
        41   7  8.544916E+03  2.876657E+03  6.410434E+04 -2.010973E+04 -8.451247E+02  1.692842E+04
        41   8  1.051353E+04  2.706839E+04  6.839703E+04 -2.157047E+04 -2.424694E+03 -1.393450E+04
        41   9  2.732274E+04  5.893114E+04  9.648166E+04 -3.042084E+04 -3.875312E+03 -4.479864E+04
        41  10  4.482627E+03 -1.486886E+04  6.116421E+04 -2.964723E+04  2.697560E-09  1.927712E-08
        41  11 -7.007643E+03 -4.669782E+04  5.458589E+04 -2.077986E+04  3.633031E-09  4.228965E-11
        41  12 -3.721307E+03 -7.092104E+04  7.153911E+04 -1.930233E+04  6.256784E-11 -1.276841E-08
        41  13  6.513692E+03 -5.996320E+03  6.263400E+04 -2.487851E+04 -3.909250E-09  8.052063E-10
        41  14  1.752955E+03 -9.815479E+03  6.149130E+04 -2.117517E+04 -4.555501E-09 -4.963651E-11
        41  15  1.180051E+04 -5.998089E+03  8.400857E+04 -2.486136E+04  4.362031E-10  6.072526E-10
        41  16  8.544839E+03  2.876349E+03  6.410380E+04 -2.010972E+04  2.067437E-09 -1.981137E-08
        41  17  1.051348E+04  2.706818E+04  6.839665E+04 -2.157050E+04  2.468553E-10 -3.006196E-10
        41  18  2.732218E+04  5.892899E+04  9.647786E+04 -3.042098E+04 -9.502538E-10  1.265458E-08
        41  19  4.482666E+03 -1.486871E+04  6.116448E+04 -2.964723E+04  8.289338E+02 -1.190394E+04
        41  20 -7.007544E+03 -4.669745E+04  5.458655E+04 -2.077983E+04  2.409586E+03  1.858662E+04
        41  21 -3.720644E+03 -7.091845E+04  7.154367E+04 -1.930217E+04  3.862291E+03  4.907577E+04
        41  22  6.513748E+03 -5.996096E+03  6.263439E+04 -2.487852E+04  8.370486E+02 -1.441617E+04
        41  23  1.753033E+03 -9.815194E+03  6.149181E+04 -2.117514E+04  2.417139E+03  1.626063E+04
        41  24  1.180111E+04 -5.995720E+03  8.401274E+04 -2.486121E+04  3.868782E+03  4.693732E+04
        41  25  8.544916E+03  2.876657E+03  6.410434E+04 -2.010973E+04  8.451247E+02 -1.692842E+04
        41  26  1.051353E+04  2.706839E+04  6.839703E+04 -2.157047E+04  2.424694E+03  1.393450E+04
        41  27  2.732274E+04  5.893114E+04  9.648166E+04 -3.042084E+04  3.875312E+03  4.479864E+04
        42   1 -1.979473E+04 -7.767075E+04  8.610663E+04 -5.234327E+04 -4.951474E+03 -6.387588E+04
        42   2  2.203274E+04 -1.368046E+05  1.488243E+05  5.724120E+04 -4.803500E+03 -1.477950E+05
        42   3  2.742487E+05 -1.324336E+05  3.187983E+05  1.600867E+05 -1.044512E+03 -2.316965E+05
        42   4  8.568374E+01  6.614155E+03  1.022940E+05 -2.489409E+04 -4.963209E+03 -6.111608E+04
        42   5  4.947398E+04 -2.557140E+04  1.718270E+05 -2.102567E+04 -4.776838E+03 -1.502887E+05
        42   6  3.100990E+05  6.620239E+03  3.522466E+05 -2.389980E+04 -9.511675E+02 -2.394480E+05
        42   7  1.996853E+04  9.090755E+04  1.184815E+05  2.558896E+03 -4.974698E+03 -5.835592E+04
        42   8  7.693740E+04  8.568665E+04  1.948324E+05 -9.930683E+04 -4.749551E+03 -1.527827E+05
        42   9  3.460749E+05  1.457644E+05  3.857118E+05 -2.079278E+05 -8.532445E+02 -2.472012E+05
        42  10 -1.979585E+04 -7.767513E+04  8.609891E+04 -5.234352E+04 -1.539324E-09  2.214664E-09
        42  11  2.202685E+04 -1.368281E+05  1.487832E+05  5.724063E+04  2.740878E-09 -2.272163E-09
        42  12  2.742343E+05 -1.324913E+05  3.186974E+05  1.600865E+05 -9.364288E-10 -1.389446E-09
        42  13  8.465467E+01  6.610138E+03  1.022870E+05 -2.489434E+04 -2.171914E-09  8.330152E-10
        42  14  4.946789E+04 -2.559565E+04  1.717846E+05 -2.102625E+04 -3.409042E-11  1.427996E-11
        42  15  3.100836E+05  6.558686E+03  3.521389E+05 -2.389998E+04  7.523011E-10  5.688507E-10
        42  16  1.996759E+04  9.090388E+04  1.184751E+05  2.558662E+03 -1.517728E-09 -2.714864E-09
        42  17  7.693111E+04  8.566159E+04  1.947885E+05 -9.930741E+04  1.276782E-09  1.923350E-09
        42  18  3.460585E+05  1.456988E+05  3.855970E+05 -2.079280E+05  1.144457E-09  1.086777E-09
        42  19 -1.979473E+04 -7.767075E+04  8.610663E+04 -5.234327E+04  4.951474E+03  6.387588E+04
        42  20  2.203274E+04 -1.368046E+05  1.488243E+05  5.724120E+04  4.803500E+03  1.477950E+05
        42  21  2.742487E+05 -1.324336E+05  3.187983E+05  1.600867E+05  1.044512E+03  2.316965E+05
        42  22  8.568374E+01  6.614155E+03  1.022940E+05 -2.489409E+04  4.963209E+03  6.111608E+04
        42  23  4.947398E+04 -2.557140E+04  1.718270E+05 -2.102567E+04  4.776838E+03  1.502887E+05
        42  24  3.100990E+05  6.620239E+03  3.522466E+05 -2.389980E+04  9.511675E+02  2.394480E+05
        42  25  1.996853E+04  9.090755E+04  1.184815E+05  2.558896E+03  4.974698E+03  5.835592E+04
        42  26  7.693740E+04  8.568665E+04  1.948324E+05 -9.930683E+04  4.749551E+03  1.527827E+05
        42  27  3.460749E+05  1.457644E+05  3.857118E+05 -2.079278E+05  8.532445E+02  2.472012E+05
        43   1 -3.446726E+06 -1.054378E+06 -6.521651E+05 -1.187513E+06 -2.648008E+05 -9.092687E+04
        43   2 -3.356352E+06 -6.503153E+05 -4.005834E+05 -1.219476E+06 -1.736619E+05 -3.825169E+04
        43   3 -3.387187E+06 -6.611050E+05 -3.258120E+05 -1.190113E+06 -7.547827E+04 -4.194198E+03
        43   4 -2.576461E+06 -6.563406E+05 -3.997616E+05 -8.807606E+05 -2.560295E+05 -8.764502E+04
        43   5 -2.495910E+06 -3.063341E+05 -1.650802E+05 -9.655269E+05 -1.714331E+05 -3.741936E+04
        43   6 -2.535062E+06 -3.695585E+05 -1.018102E+05 -9.890251E+05 -7.979908E+04 -5.818932E+03
        43   7 -1.705458E+06 -2.581574E+05 -1.474342E+05 -5.735857E+05 -2.472445E+05 -8.435552E+04
        43   8 -1.634753E+06  3.771379E+04  7.035429E+04 -7.112513E+05 -1.692008E+05 -3.658552E+04
        43   9 -1.682236E+06 -7.800018E+04  1.221307E+05 -7.877016E+05 -8.412639E+04 -7.445577E+03
        43  10 -3.446804E+06 -1.054406E+06 -6.523133E+05 -1.187533E+06 -2.122546E-09  3.434625E-10
        43  11 -3.356385E+06 -6.503251E+05 -4.006432E+05 -1.219481E+06 -1.844551E-09 -6.375162E-10
        43  12 -3.387193E+06 -6.611065E+05 -3.258228E+05 -1.190113E+06 -3.099013E-09 -1.684122E-10
        43  13 -2.576534E+06 -6.563666E+05 -3.998999E+05 -8.807787E+05 -1.123637E-10 -1.461056E-09
        43  14 -2.495942E+06 -3.063435E+05 -1.651383E+05 -9.655321E+05 -2.505036E-09 -1.535551E-09
        43  15 -2.535069E+06 -3.695602E+05 -1.018223E+05 -9.890255E+05 -2.219327E-09 -6.112615E-10
        43  16 -1.705525E+06 -2.581815E+05 -1.475628E+05 -5.736026E+05 -1.374502E-09  6.425792E-10
        43  17 -1.634784E+06  3.770464E+04  7.029780E+04 -7.112563E+05  4.627776E-09 -7.495129E-11
        43  18 -1.682244E+06 -7.800215E+04  1.221173E+05 -7.877021E+05 -1.142209E-09 -3.088490E-10
        43  19 -3.446726E+06 -1.054378E+06 -6.521651E+05 -1.187513E+06  2.648008E+05  9.092687E+04
        43  20 -3.356352E+06 -6.503153E+05 -4.005834E+05 -1.219476E+06  1.736619E+05  3.825169E+04
        43  21 -3.387187E+06 -6.611050E+05 -3.258120E+05 -1.190113E+06  7.547827E+04  4.194198E+03
        43  22 -2.576461E+06 -6.563406E+05 -3.997616E+05 -8.807606E+05  2.560295E+05  8.764502E+04
        43  23 -2.495910E+06 -3.063341E+05 -1.650802E+05 -9.655269E+05  1.714331E+05  3.741936E+04
        43  24 -2.535062E+06 -3.695585E+05 -1.018102E+05 -9.890251E+05  7.979908E+04  5.818932E+03
        43  25 -1.705458E+06 -2.581574E+05 -1.474342E+05 -5.735857E+05  2.472445E+05  8.435552E+04
        43  26 -1.634753E+06  3.771379E+04  7.035429E+04 -7.112513E+05  1.692008E+05  3.658552E+04
        43  27 -1.682236E+06 -7.800018E+04  1.221307E+05 -7.877016E+05  8.412639E+04  7.445577E+03
        44   1 -3.232780E+06 -6.939738E+05 -2.776960E+05 -1.169537E+06 -6.367307E+04 -4.233834E+03
        44   2 -3.187426E+06 -6.013140E+05 -2.166998E+05 -1.134878E+06 -4.230454E+04  3.359478E+03
        44   3 -3.116352E+06 -6.028502E+05 -1.845896E+05 -1.140060E+06 -2.009926E+04  8.721201E+03
        44   4 -2.519548E+06 -4.165312E+05 -8.339293E+04 -9.670122E+05 -6.345941E+04 -4.156076E+03
        44   5 -2.529875E+06 -3.512464E+05 -3.896338E+04 -9.539452E+05 -4.286635E+04  3.147011E+03
        44   6 -2.514313E+06 -3.799673E+05 -2.277664E+04 -9.807224E+05 -2.143913E+04  8.218327E+03
        44   7 -1.805822E+06 -1.390499E+05  1.108644E+05 -7.642738E+05 -6.324544E+04 -4.078193E+03
        44   8 -1.871906E+06 -1.011514E+05  1.387346E+05 -7.728385E+05 -4.342881E+04  2.934302E+03
        44   9 -1.911924E+06 -1.570666E+05  1.390044E+05 -8.212460E+05 -2.278042E+04  7.714940E+03
        44  10 -3.232785E+06 -6.939749E+05 -2.777037E+05 -1.169537E+06  1.166459E-09  1.656751E-09
        44  11 -3.187428E+06 -6.013145E+05 -2.167032E+05 -1.134878E+06  1.079642E-09  1.292861E-09
        44  12 -3.116353E+06 -6.028504E+05 -1.845905E+05 -1.140060E+06 -2.723345E-09 -6.801935E-10
        44  13 -2.519552E+06 -4.165323E+05 -8.340057E+04 -9.670124E+05  5.429417E-10  5.163637E-10
        44  14 -2.529877E+06 -3.512469E+05 -3.896686E+04 -9.539451E+05 -3.503066E-09  1.557775E-09
        44  15 -2.514313E+06 -3.799675E+05 -2.277763E+04 -9.807223E+05  9.992810E-10  1.492720E-10
        44  16 -1.805827E+06 -1.390510E+05  1.108568E+05 -7.642740E+05 -2.635920E-09 -3.080139E-10
        44  17 -1.871908E+06 -1.011519E+05  1.387310E+05 -7.728384E+05 -4.040709E-10  1.949329E-09
        44  18 -1.911925E+06 -1.570668E+05  1.390033E+05 -8.212459E+05  1.780639E-09  8.443130E-10
        44  19 -3.232780E+06 -6.939738E+05 -2.776960E+05 -1.169537E+06  6.367307E+04  4.233834E+03
        44  20 -3.187426E+06 -6.013140E+05 -2.166998E+05 -1.134878E+06  4.230454E+04 -3.359478E+03
        44  21 -3.116352E+06 -6.028502E+05 -1.845896E+05 -1.140060E+06  2.009926E+04 -8.721201E+03
        44  22 -2.519548E+06 -4.165312E+05 -8.339293E+04 -9.670122E+05  6.345941E+04  4.156076E+03
        44  23 -2.529875E+06 -3.512464E+05 -3.896338E+04 -9.539452E+05  4.286635E+04 -3.147011E+03
        44  24 -2.514313E+06 -3.799673E+05 -2.277664E+04 -9.807224E+05  2.143913E+04 -8.218327E+03
        44  25 -1.805822E+06 -1.390499E+05  1.108644E+05 -7.642738E+05  6.324544E+04  4.078193E+03
        44  26 -1.871906E+06 -1.011514E+05  1.387346E+05 -7.728385E+05  4.342881E+04 -2.934302E+03
        44  27 -1.911924E+06 -1.570666E+05  1.390044E+05 -8.212460E+05  2.278042E+04 -7.714940E+03
        45   1 -2.971035E+06 -5.615249E+05 -1.420742E+05 -1.105386E+06 -1.659516E+04  7.940854E+03
        45   2 -2.926056E+06 -5.020960E+05 -1.143045E+05 -1.056350E+06 -1.084235E+04  7.218184E+03
        45   3 -2.830070E+06 -5.024389E+05 -9.172748E+04 -1.067381E+06 -4.948871E+03  6.111195E+03
        45   4 -2.510804E+06 -3.873572E+05 -1.801545E+04 -9.795697E+05 -1.743619E+04  7.625332E+03
        45   5 -2.535982E+06 -3.551269E+05 -9.129627E+03 -9.504161E+05 -1.181742E+04  6.853140E+03
        45   6 -2.510129E+06 -3.826373E+05 -5.326507E+03 -9.813295E+05 -6.058605E+03  5.696527E+03
        45   7 -2.050369E+06 -2.131770E+05  1.060242E+05 -8.536695E+05 -1.827791E+04  7.309552E+03
        45   8 -2.145760E+06 -2.081490E+05  9.603168E+04 -8.444221E+05 -1.279316E+04  6.487843E+03
        45   9 -2.190090E+06 -2.628299E+05  8.106553E+04 -8.952375E+05 -7.168972E+03  5.281626E+03
        45  10 -2.971036E+06 -5.615251E+05 -1.420748E+05 -1.105386E+06 -1.682508E-10 -1.565098E-09
        45  11 -2.926057E+06 -5.020960E+05 -1.143048E+05 -1.056350E+06  3.057224E-09 -3.862363E-10
        45  12 -2.830070E+06 -5.024389E+05 -9.172759E+04 -1.067381E+06 -1.727922E-09 -4.449922E-10
        45  13 -2.510804E+06 -3.873573E+05 -1.801613E+04 -9.795696E+05  3.011132E-09 -1.046178E-09
        45  14 -2.535982E+06 -3.551270E+05 -9.129978E+03 -9.504161E+05  1.409276E-09 -2.466458E-10
        45  15 -2.510129E+06 -3.826374E+05 -5.326636E+03 -9.813295E+05 -2.685056E-10  3.396948E-10
        45  16 -2.050370E+06 -2.131771E+05  1.060235E+05 -8.536694E+05  3.594884E-09 -5.945313E-10
        45  17 -2.145761E+06 -2.081491E+05  9.603129E+04 -8.444220E+05  5.984006E-10  2.098999E-10
        45  18 -2.190090E+06 -2.628300E+05  8.106538E+04 -8.952375E+05  1.509407E-09  1.223034E-09
        45  19 -2.971035E+06 -5.615249E+05 -1.420742E+05 -1.105386E+06  1.659516E+04 -7.940854E+03
        45  20 -2.926056E+06 -5.020960E+05 -1.143045E+05 -1.056350E+06  1.084235E+04 -7.218184E+03
        45  21 -2.830070E+06 -5.024389E+05 -9.172748E+04 -1.067381E+06  4.948871E+03 -6.111195E+03
        45  22 -2.510804E+06 -3.873572E+05 -1.801545E+04 -9.795697E+05  1.743619E+04 -7.625332E+03
        45  23 -2.535982E+06 -3.551269E+05 -9.129627E+03 -9.504161E+05  1.181742E+04 -6.853140E+03
        45  24 -2.510129E+06 -3.826373E+05 -5.326507E+03 -9.813295E+05  6.058605E+03 -5.696527E+03
        45  25 -2.050369E+06 -2.131770E+05  1.060242E+05 -8.536695E+05  1.827791E+04 -7.309552E+03
        45  26 -2.145760E+06 -2.081490E+05  9.603168E+04 -8.444221E+05  1.279316E+04 -6.487843E+03
        45  27 -2.190090E+06 -2.628299E+05  8.106553E+04 -8.952375E+05  7.168972E+03 -5.281626E+03
        46   1 -2.673992E+06 -4.461829E+05 -4.842128E+04 -1.026619E+06 -3.565766E+03  4.615464E+03
        46   2 -2.626762E+06 -3.884395E+05 -2.669423E+04 -9.733158E+05 -1.116184E+03  2.160156E+03
        46   3 -2.522898E+06 -3.888006E+05 -6.225909E+03 -9.856940E+05  1.355600E+03 -3.567389E+02
        46   4 -2.509125E+06 -3.841562E+05 -4.258183E+03 -9.818632E+05 -4.614675E+03  4.223842E+03
        46   5 -2.537404E+06 -3.548456E+05 -2.618425E+03 -9.491188E+05 -2.186835E+03  1.760567E+03
        46   6 -2.509050E+06 -3.836342E+05 -2.219326E+03 -9.820571E+05  2.630093E+02 -7.643299E+02
        46   7 -2.344231E+06 -3.221279E+05  3.990258E+04 -9.370965E+05 -5.663892E+03  3.832104E+03
        46   8 -2.448037E+06 -3.212513E+05  2.145659E+04 -9.249188E+05 -3.257652E+03  1.360917E+03
        46   9 -2.495202E+06 -3.784679E+05  1.787213E+03 -9.784201E+05 -8.295997E+02 -1.171927E+03
        46  10 -2.673992E+06 -4.461829E+05 -4.842135E+04 -1.026619E+06  1.657100E-09  3.580172E-10
        46  11 -2.626762E+06 -3.884395E+05 -2.669424E+04 -9.733158E+05  2.568269E-09  5.535045E-10
        46  12 -2.522898E+06 -3.888006E+05 -6.225913E+03 -9.856940E+05  4.579990E-10 -1.020607E-10
        46  13 -2.509125E+06 -3.841563E+05 -4.258257E+03 -9.818631E+05 -1.909046E-09  7.870194E-10
        46  14 -2.537404E+06 -3.548456E+05 -2.618440E+03 -9.491188E+05  6.389054E-10 -2.240168E-09
        46  15 -2.509050E+06 -3.836342E+05 -2.219327E+03 -9.820571E+05  2.138899E-09 -8.213152E-10
        46  16 -2.344231E+06 -3.221279E+05  3.990249E+04 -9.370965E+05  6.963462E-10  2.024948E-09
        46  17 -2.448037E+06 -3.212513E+05  2.145657E+04 -9.249188E+05  1.874990E-09 -1.395469E-10
        46  18 -2.495202E+06 -3.784679E+05  1.787209E+03 -9.784201E+05 -3.234514E-10 -2.730152E-10
        46  19 -2.673992E+06 -4.461829E+05 -4.842128E+04 -1.026619E+06  3.565766E+03 -4.615464E+03
        46  20 -2.626762E+06 -3.884395E+05 -2.669423E+04 -9.733158E+05  1.116184E+03 -2.160156E+03
        46  21 -2.522898E+06 -3.888006E+05 -6.225909E+03 -9.856940E+05 -1.355600E+03  3.567389E+02
        46  22 -2.509125E+06 -3.841562E+05 -4.258183E+03 -9.818632E+05  4.614675E+03 -4.223842E+03
        46  23 -2.537404E+06 -3.548456E+05 -2.618425E+03 -9.491188E+05  2.186835E+03 -1.760567E+03
        46  24 -2.509050E+06 -3.836342E+05 -2.219326E+03 -9.820571E+05 -2.630093E+02  7.643299E+02
        46  25 -2.344231E+06 -3.221279E+05  3.990258E+04 -9.370965E+05  5.663892E+03 -3.832104E+03
        46  26 -2.448037E+06 -3.212513E+05  2.145659E+04 -9.249188E+05  3.257652E+03 -1.360917E+03
        46  27 -2.495202E+06 -3.784679E+05  1.787213E+03 -9.784201E+05  8.295997E+02  1.171927E+03
        47   1 -2.364439E+06 -3.290272E+05  3.700950E+04 -9.427549E+05  2.394431E+03 -2.003006E+03
        47   2 -2.318152E+06 -2.727771E+05  5.601058E+04 -8.901272E+05  4.976937E+03 -4.453382E+03
        47   3 -2.216158E+06 -2.737811E+05  7.365343E+04 -9.019601E+05  7.515391E+03 -6.779048E+03
        47   4 -2.509256E+06 -3.833835E+05 -2.273441E+03 -9.818139E+05  1.298148E+03 -2.412067E+03
        47   5 -2.537154E+06 -3.551122E+05 -2.986341E+03 -9.494470E+05  3.924630E+03 -4.846446E+03
        47   6 -2.509360E+06 -3.841065E+05 -5.092508E+03 -9.815452E+05  6.506848E+03 -7.156142E+03
        47   7 -2.654054E+06 -4.377389E+05 -4.155853E+04 -1.020865E+06  2.021399E+02 -2.821026E+03
        47   8 -2.756112E+06 -4.374450E+05 -6.198787E+04 -1.008748E+06  2.872725E+03 -5.239359E+03
        47   9 -2.802481E+06 -4.944274E+05 -8.384643E+04 -1.061097E+06  5.498826E+03 -7.533042E+03
        47  10 -2.364439E+06 -3.290273E+05  3.700948E+04 -9.427549E+05 -8.108780E-10  1.700876E-10
        47  11 -2.318152E+06 -2.727771E+05  5.601050E+04 -8.901272E+05 -2.503410E-09 -1.355743E-10
        47  12 -2.216158E+06 -2.737812E+05  7.365323E+04 -9.019601E+05 -1.596289E-09  4.152551E-10
        47  13 -2.509256E+06 -3.833835E+05 -2.273455E+03 -9.818139E+05 -2.755598E-09 -1.343537E-09
        47  14 -2.537154E+06 -3.551122E+05 -2.986414E+03 -9.494469E+05 -4.227645E-09  1.606309E-09
        47  15 -2.509360E+06 -3.841065E+05 -5.092683E+03 -9.815451E+05 -1.278693E-09  5.244278E-10
        47  16 -2.654054E+06 -4.377390E+05 -4.155854E+04 -1.020865E+06 -2.097698E-09 -1.709910E-11
        47  17 -2.756112E+06 -4.374450E+05 -6.198794E+04 -1.008748E+06 -2.445709E-09  1.908908E-10
        47  18 -2.802481E+06 -4.944274E+05 -8.384659E+04 -1.061097E+06 -2.891528E-09  6.825492E-10
        47  19 -2.364439E+06 -3.290272E+05  3.700950E+04 -9.427549E+05 -2.394431E+03  2.003006E+03
        47  20 -2.318152E+06 -2.727771E+05  5.601058E+04 -8.901272E+05 -4.976937E+03  4.453382E+03
        47  21 -2.216158E+06 -2.737811E+05  7.365343E+04 -9.019601E+05 -7.515391E+03  6.779048E+03
        47  22 -2.509256E+06 -3.833835E+05 -2.273441E+03 -9.818139E+05 -1.298148E+03  2.412067E+03
        47  23 -2.537154E+06 -3.551122E+05 -2.986341E+03 -9.494470E+05 -3.924630E+03  4.846446E+03
        47  24 -2.509360E+06 -3.841065E+05 -5.092508E+03 -9.815452E+05 -6.506848E+03  7.156142E+03
        47  25 -2.654054E+06 -4.377389E+05 -4.155853E+04 -1.020865E+06 -2.021399E+02  2.821026E+03
        47  26 -2.756112E+06 -4.374450E+05 -6.198787E+04 -1.008748E+06 -2.872725E+03  5.239359E+03
        47  27 -2.802481E+06 -4.944274E+05 -8.384643E+04 -1.061097E+06 -5.498826E+03  7.533042E+03
        48   1 -2.067882E+06 -2.160046E+05  1.130486E+05 -8.612509E+05  9.164997E+03 -8.105835E+03
        48   2 -2.025983E+06 -1.638367E+05  1.260723E+05 -8.129196E+05  1.575820E+04 -8.805415E+03
        48   3 -1.936265E+06 -1.698899E+05  1.330486E+05 -8.208968E+05  2.218732E+04 -9.052784E+03
        48   4 -2.510826E+06 -3.819917E+05 -6.430826E+03 -9.806229E+05  8.086433E+03 -8.509589E+03
        48   5 -2.535132E+06 -3.557588E+05 -1.116077E+04 -9.513851E+05  1.483680E+04 -9.151233E+03
        48   6 -2.511656E+06 -3.877848E+05 -2.206679E+04 -9.784592E+05  2.142241E+04 -9.340733E+03
        48   7 -2.953577E+06 -5.479668E+05 -1.259267E+05 -1.099917E+06  7.008725E+03 -8.913026E+03
        48   8 -3.044029E+06 -5.476655E+05 -1.484166E+05 -1.089748E+06  1.391624E+04 -9.496740E+03
        48   9 -3.086729E+06 -6.056603E+05 -1.772122E+05 -1.135890E+06  2.065827E+04 -9.628390E+03
        48  10 -2.067882E+06 -2.160047E+05  1.130483E+05 -8.612509E+05  7.349800E-10  1.274344E-09
        48  11 -2.025983E+06 -1.638368E+05  1.260717E+05 -8.129195E+05 -2.495269E-09  2.335521E-09
        48  12 -1.936265E+06 -1.698901E+05  1.330476E+05 -8.208966E+05  9.803534E-10  1.430576E-09
        48  13 -2.510826E+06 -3.819918E+05 -6.431085E+03 -9.806229E+05 -1.055373E-10  1.169337E-10
        48  14 -2.535132E+06 -3.557590E+05 -1.116134E+04 -9.513850E+05  9.547501E-10  1.369954E-10
        48  15 -2.511656E+06 -3.877850E+05 -2.206782E+04 -9.784591E+05 -1.245140E-09  5.905646E-10
        48  16 -2.953577E+06 -5.479669E+05 -1.259269E+05 -1.099917E+06  9.877361E-11 -1.682455E-10
        48  17 -3.044030E+06 -5.476656E+05 -1.484172E+05 -1.089748E+06 -9.962182E-10 -1.058204E-09
        48  18 -3.086730E+06 -6.056605E+05 -1.772132E+05 -1.135890E+06  3.257530E-11 -3.166086E-10
        48  19 -2.067882E+06 -2.160046E+05  1.130486E+05 -8.612509E+05 -9.164997E+03  8.105835E+03
        48  20 -2.025983E+06 -1.638367E+05  1.260723E+05 -8.129196E+05 -1.575820E+04  8.805415E+03
        48  21 -1.936265E+06 -1.698899E+05  1.330486E+05 -8.208968E+05 -2.218732E+04  9.052784E+03
        48  22 -2.510826E+06 -3.819917E+05 -6.430826E+03 -9.806229E+05 -8.086433E+03  8.509589E+03
        48  23 -2.535132E+06 -3.557588E+05 -1.116077E+04 -9.513851E+05 -1.483680E+04  9.151233E+03
        48  24 -2.511656E+06 -3.877848E+05 -2.206679E+04 -9.784592E+05 -2.142241E+04  9.340733E+03
        48  25 -2.953577E+06 -5.479668E+05 -1.259267E+05 -1.099917E+06 -7.008725E+03  8.913026E+03
        48  26 -3.044029E+06 -5.476655E+05 -1.484166E+05 -1.089748E+06 -1.391624E+04  9.496740E+03
        48  27 -3.086729E+06 -6.056603E+05 -1.772122E+05 -1.135890E+06 -2.065827E+04  9.628390E+03
        49   1 -1.808177E+06 -1.167754E+05  1.621103E+05 -7.924105E+05  2.743180E+04 -9.061646E+03
        49   2 -1.771357E+06 -6.292798E+04  1.565576E+05 -7.469054E+05  5.257986E+04 -2.328245E+03
        49   3 -1.717397E+06 -1.092897E+05  1.170699E+05 -7.331131E+05  7.683303E+04  6.800529E+03
        49   4 -2.515945E+06 -3.787661E+05 -2.792230E+04 -9.799259E+05  2.613460E+04 -9.549835E+03
        49   5 -2.527639E+06 -3.509462E+05 -4.779430E+04 -9.556530E+05  5.211156E+04 -2.506551E+03
        49   6 -2.522387E+06 -4.235515E+05 -1.022933E+05 -9.630923E+05  7.719096E+04  6.931967E+03
        49   7 -3.223232E+06 -6.407323E+05 -2.179991E+05 -1.167250E+06  2.483901E+04 -1.003744E+04
        49   8 -3.283368E+06 -6.389278E+05 -2.521971E+05 -1.164170E+06  5.164385E+04 -2.684629E+03
        49   9 -3.326750E+06 -7.377628E+05 -3.217148E+05 -1.192797E+06  7.754833E+04  7.063174E+03
        49  10 -1.808178E+06 -1.167757E+05  1.621088E+05 -7.924103E+05  5.448893E-09  1.200007E-09
        49  11 -1.771360E+06 -6.292873E+04  1.565524E+05 -7.469053E+05  7.930306E-10  1.055762E-09
        49  12 -1.717403E+06 -1.092913E+05  1.170587E+05 -7.331136E+05 -8.140519E-10 -1.675842E-09
        49  13 -2.515946E+06 -3.787664E+05 -2.792376E+04 -9.799257E+05  2.706591E-09  8.564583E-10
        49  14 -2.527642E+06 -3.509469E+05 -4.779943E+04 -9.556529E+05  4.204267E-09  6.946046E-10
        49  15 -2.522393E+06 -4.235532E+05 -1.023046E+05 -9.630928E+05  1.142901E-09  1.914628E-09
        49  16 -3.223232E+06 -6.407326E+05 -2.180005E+05 -1.167250E+06 -3.242298E-10 -1.551903E-10
        49  17 -3.283371E+06 -6.389285E+05 -2.522022E+05 -1.164169E+06  3.014205E-09  7.998496E-10
        49  18 -3.326756E+06 -7.377645E+05 -3.217263E+05 -1.192798E+06  3.568785E-09  1.446353E-09
        49  19 -1.808177E+06 -1.167754E+05  1.621103E+05 -7.924105E+05 -2.743180E+04  9.061646E+03
        49  20 -1.771357E+06 -6.292798E+04  1.565576E+05 -7.469054E+05 -5.257986E+04  2.328245E+03
        49  21 -1.717397E+06 -1.092897E+05  1.170699E+05 -7.331131E+05 -7.683303E+04 -6.800529E+03
        49  22 -2.515945E+06 -3.787661E+05 -2.792230E+04 -9.799259E+05 -2.613460E+04  9.549835E+03
        49  23 -2.527639E+06 -3.509462E+05 -4.779430E+04 -9.556530E+05 -5.211156E+04  2.506551E+03
        49  24 -2.522387E+06 -4.235515E+05 -1.022933E+05 -9.630923E+05 -7.719096E+04 -6.931967E+03
        49  25 -3.223232E+06 -6.407323E+05 -2.179991E+05 -1.167250E+06 -2.483901E+04  1.003744E+04
        49  26 -3.283368E+06 -6.389278E+05 -2.521971E+05 -1.164170E+06 -5.164385E+04  2.684629E+03
        49  27 -3.326750E+06 -7.377628E+05 -3.217148E+05 -1.192797E+06 -7.754833E+04 -7.063174E+03
        50   1 -1.605047E+06 -4.975344E+04  1.201749E+05 -7.729630E+05  1.013400E+05  1.156990E+04
        50   2 -1.557798E+06  7.889140E+04  5.200899E+04 -6.918396E+05  2.064760E+05  4.870158E+04
        50   3 -1.669694E+06 -2.839007E+05 -2.207402E+05 -5.199258E+05  3.041427E+05  1.055740E+05
        50   4 -2.541114E+06 -3.663146E+05 -1.249068E+05 -9.905238E+05  9.689261E+04  9.895498E+03
        50   5 -2.486231E+06 -2.954402E+05 -2.024865E+05 -9.694094E+05  2.089469E+05  4.962458E+04
        50   6 -2.592148E+06 -7.178301E+05 -4.903941E+05 -8.574345E+05  3.135258E+05  1.090832E+05
        50   7 -3.476339E+06 -6.828656E+05 -3.700618E+05 -1.207808E+06  9.245248E+04  8.223174E+03
        50   8 -3.413830E+06 -6.696876E+05 -4.570608E+05 -1.246592E+06  2.114134E+05  5.054571E+04
        50   9 -3.513757E+06 -1.151566E+06 -7.601304E+05 -1.194442E+06  3.228932E+05  1.125831E+05
        50  10 -1.605058E+06 -4.975635E+04  1.201553E+05 -7.729640E+05 -8.544859E-10 -2.520007E-09
        50  11 -1.557844E+06  7.887735E+04  5.192416E+04 -6.918477E+05  7.948439E-10 -3.208419E-09
        50  12 -1.669796E+06 -2.839376E+05 -2.209355E+05 -5.199517E+05 -1.505705E-09 -2.610888E-09
        50  13 -2.541124E+06 -3.663173E+05 -1.249247E+05 -9.905245E+05 -8.041151E-10  3.745424E-10
        50  14 -2.486279E+06 -2.954546E+05 -2.025735E+05 -9.694178E+05 -3.559622E-09  2.694715E-09
        50  15 -2.592257E+06 -7.178695E+05 -4.906022E+05 -8.574621E+05 -1.988436E-10 -3.437196E-10
        50  16 -3.476348E+06 -6.828680E+05 -3.700781E+05 -1.207808E+06  1.706830E-09 -8.324289E-10
        50  17 -3.413879E+06 -6.697024E+05 -4.571501E+05 -1.246600E+06 -1.799430E-09  5.801545E-11
        50  18 -3.513873E+06 -1.151608E+06 -7.603516E+05 -1.194472E+06  1.786536E-09 -2.684823E-09
        50  19 -1.605047E+06 -4.975344E+04  1.201749E+05 -7.729630E+05 -1.013400E+05 -1.156990E+04
        50  20 -1.557798E+06  7.889140E+04  5.200899E+04 -6.918396E+05 -2.064760E+05 -4.870158E+04
        50  21 -1.669694E+06 -2.839007E+05 -2.207402E+05 -5.199258E+05 -3.041427E+05 -1.055740E+05
        50  22 -2.541114E+06 -3.663146E+05 -1.249068E+05 -9.905238E+05 -9.689261E+04 -9.895498E+03
        50  23 -2.486231E+06 -2.954402E+05 -2.024865E+05 -9.694094E+05 -2.089469E+05 -4.962458E+04
        50  24 -2.592148E+06 -7.178301E+05 -4.903941E+05 -8.574345E+05 -3.135258E+05 -1.090832E+05
        50  25 -3.476339E+06 -6.828656E+05 -3.700618E+05 -1.207808E+06 -9.245248E+04 -8.223174E+03
        50  26 -3.413830E+06 -6.696876E+05 -4.570608E+05 -1.246592E+06 -2.114134E+05 -5.054571E+04
        50  27 -3.513757E+06 -1.151566E+06 -7.601304E+05 -1.194442E+06 -3.228932E+05 -1.125831E+05
        51   1  1.295291E+05 -2.581152E+05  1.256096E+05  4.510100E+02  5.739868E+03  5.341765E+03
        51   2  1.339473E+05 -2.627767E+05  1.233844E+05  5.129500E+02  1.786908E+04  1.672644E+03
        51   3  1.318011E+05 -2.683209E+05  1.219825E+05 -2.661504E+03  1.816543E+04 -2.020124E+03
        51   4 -5.857140E+03 -8.009676E+05 -8.201753E+03 -7.277577E+02  5.759291E+03 -4.176897E+03
        51   5  7.994766E+02 -7.999815E+05 -4.849159E+03  8.964622E+02  1.787769E+04 -1.601179E+03
        51   6 -1.964381E+02 -8.009647E+05 -5.013891E+03 -7.157774E+02  1.815866E+04  9.509483E+02
        51   7 -1.412653E+05 -1.343552E+06 -1.420345E+05 -1.905359E+03  5.778759E+03 -1.368724E+04
        51   8 -1.323693E+05 -1.336921E+06 -1.331030E+05  1.279793E+03  1.788630E+04 -4.872180E+03
        51   9 -1.322145E+05 -1.333348E+06 -1.320302E+05  1.228442E+03  1.815191E+04  3.919482E+03
        51  10  1.295290E+05 -2.581153E+05  1.256094E+05  4.509853E+02 -3.013085E-09  3.090229E-09
        51  11  1.339470E+05 -2.627768E+05  1.233838E+05  5.129259E+02  2.882497E-09 -9.268428E-10
        51  12  1.318008E+05 -2.683210E+05  1.219819E+05 -2.661475E+03  9.236933E-10 -1.760619E-09
        51  13 -5.857180E+03 -8.009676E+05 -8.201848E+03 -7.277383E+02 -7.765505E-09  1.201291E-11
        51  14  7.991329E+02 -7.999816E+05 -4.849765E+03  8.964853E+02  6.767170E-10 -1.236130E-09
        51  15 -1.967923E+02 -8.009648E+05 -5.014512E+03 -7.157913E+02  3.483181E-10 -8.939791E-10
        51  16 -1.412653E+05 -1.343552E+06 -1.420349E+05 -1.905295E+03 -2.247911E-09 -3.728349E-09
        51  17 -1.323696E+05 -1.336921E+06 -1.331036E+05  1.279863E+03  4.313073E-09  1.515696E-10
        51  18 -1.322149E+05 -1.333348E+06 -1.320308E+05  1.228384E+03  3.051744E-10  2.653753E-09
        51  19  1.295291E+05 -2.581152E+05  1.256096E+05  4.510100E+02 -5.739868E+03 -5.341765E+03
        51  20  1.339473E+05 -2.627767E+05  1.233844E+05  5.129500E+02 -1.786908E+04 -1.672644E+03
        51  21  1.318011E+05 -2.683209E+05  1.219825E+05 -2.661504E+03 -1.816543E+04  2.020124E+03
        51  22 -5.857140E+03 -8.009676E+05 -8.201753E+03 -7.277577E+02 -5.759291E+03  4.176897E+03
        51  23  7.994766E+02 -7.999815E+05 -4.849159E+03  8.964622E+02 -1.787769E+04  1.601179E+03
        51  24 -1.964381E+02 -8.009647E+05 -5.013891E+03 -7.157774E+02 -1.815866E+04 -9.509483E+02
        51  25 -1.412653E+05 -1.343552E+06 -1.420345E+05 -1.905359E+03 -5.778759E+03  1.368724E+04
        51  26 -1.323693E+05 -1.336921E+06 -1.331030E+05  1.279793E+03 -1.788630E+04  4.872180E+03
        51  27 -1.322145E+05 -1.333348E+06 -1.320302E+05  1.228442E+03 -1.815191E+04 -3.919482E+03
        52   1  1.298313E+05 -2.758307E+05  1.201772E+05 -1.299334E+03  1.647788E+04  2.581718E+03
        52   2  1.291842E+05 -2.816411E+05  1.163753E+05 -1.872757E+02  1.703908E+04  5.546212E+03
        52   3  1.222650E+05 -2.891668E+05  1.091266E+05 -3.835511E+03  1.601033E+04  8.505487E+03
        52   4 -3.856044E+02 -8.009389E+05 -5.508321E+03 -1.054272E+03  1.648083E+04  1.860497E+03
        52   5  6.833112E+02 -8.000084E+05 -7.430081E+03  1.318927E+03  1.703967E+04  5.661517E+03
        52   6 -4.668241E+03 -8.009402E+05 -1.338198E+04 -1.068430E+03  1.600799E+04  9.457346E+03
        52   7 -1.306225E+05 -1.325794E+06 -1.312133E+05 -8.092415E+02  1.648377E+04  1.139883E+03
        52   8 -1.278371E+05 -1.318129E+06 -1.312543E+05  2.824055E+03  1.704027E+04  5.776725E+03
        52   9 -1.316205E+05 -1.312473E+06 -1.359091E+05  1.696562E+03  1.600566E+04  1.040842E+04
        52  10  1.298310E+05 -2.758308E+05  1.201767E+05 -1.299368E+03  1.568114E-09  2.179037E-09
        52  11  1.291839E+05 -2.816412E+05  1.163746E+05 -1.873518E+02  1.463157E-09 -5.288595E-10
        52  12  1.222647E+05 -2.891669E+05  1.091260E+05 -3.835621E+03 -3.261918E-09  4.570225E-10
        52  13 -3.858969E+02 -8.009390E+05 -5.508838E+03 -1.054296E+03  1.966708E-09  1.661412E-10
        52  14  6.829909E+02 -8.000085E+05 -7.430687E+03  1.318849E+03 -1.156028E-09 -1.691333E-09
        52  15 -4.668540E+03 -8.009403E+05 -1.338263E+04 -1.068552E+03 -2.346281E-09 -1.074432E-09
        52  16 -1.306228E+05 -1.325794E+06 -1.312139E+05 -8.092566E+02  8.174395E-10 -3.026507E-09
        52  17 -1.278374E+05 -1.318129E+06 -1.312550E+05  2.823976E+03 -2.177376E-09 -2.494609E-10
        52  18 -1.316208E+05 -1.312473E+06 -1.359098E+05  1.696427E+03  4.147461E-10  7.057913E-10
        52  19  1.298313E+05 -2.758307E+05  1.201772E+05 -1.299334E+03 -1.647788E+04 -2.581718E+03
        52  20  1.291842E+05 -2.816411E+05  1.163753E+05 -1.872757E+02 -1.703908E+04 -5.546212E+03
        52  21  1.222650E+05 -2.891668E+05  1.091266E+05 -3.835511E+03 -1.601033E+04 -8.505487E+03
        52  22 -3.856044E+02 -8.009389E+05 -5.508321E+03 -1.054272E+03 -1.648083E+04 -1.860497E+03
        52  23  6.833112E+02 -8.000084E+05 -7.430081E+03  1.318927E+03 -1.703967E+04 -5.661517E+03
        52  24 -4.668241E+03 -8.009402E+05 -1.338198E+04 -1.068430E+03 -1.600799E+04 -9.457346E+03
        52  25 -1.306225E+05 -1.325794E+06 -1.312133E+05 -8.092415E+02 -1.648377E+04 -1.139883E+03
        52  26 -1.278371E+05 -1.318129E+06 -1.312543E+05  2.824055E+03 -1.704027E+04 -5.776725E+03
        52  27 -1.316205E+05 -1.312473E+06 -1.359091E+05  1.696562E+03 -1.600566E+04 -1.040842E+04
        53   1  1.267521E+05 -3.016582E+05  1.035324E+05  3.548887E+03  1.713113E+04  1.433182E+04
        53   2  1.285814E+05 -3.025786E+05  9.219198E+04 -4.102168E+03  1.632938E+04  2.264810E+04
        53   3  7.528651E+04 -3.181741E+05  6.169473E+04 -1.810429E+04  5.089441E+03  3.092071E+04
        53   4  2.324691E+03 -8.039953E+05 -1.621088E+04 -1.353297E+03  1.714031E+04  1.197794E+04
        53   5  6.187489E+03 -7.961830E+05 -2.564946E+04  1.725774E+03  1.631829E+04  2.579471E+04
        53   6 -4.605323E+04 -8.040133E+05 -5.807854E+04 -1.547110E+03  5.054676E+03  3.956765E+04
        53   7 -1.221209E+05 -1.306101E+06 -1.359718E+05 -6.251289E+03  1.714954E+04  9.625956E+03
        53   8 -1.162240E+05 -1.289564E+06 -1.435080E+05  7.549273E+03  1.630726E+04  2.893882E+04
        53   9 -1.674096E+05 -1.289637E+06 -1.778689E+05  1.499730E+04  5.020359E+03  4.820782E+04
        53  10  1.267518E+05 -3.016585E+05  1.035314E+05  3.548689E+03 -5.163890E-09  6.546824E-09
        53  11  1.285810E+05 -3.025792E+05  9.219052E+04 -4.102466E+03 -2.510962E-09 -9.876139E-10
        53  12  7.528623E+04 -3.181752E+05  6.169288E+04 -1.810441E+04 -9.690788E-10 -3.909822E-09
        53  13  2.324337E+03 -8.039955E+05 -1.621171E+04 -1.353463E+03 -2.136002E-09 -1.753248E-10
        53  14  6.187024E+03 -7.961838E+05 -2.565121E+04  1.725435E+03 -3.498748E-09 -2.216334E-09
        53  15 -4.605368E+04 -8.040150E+05 -5.808154E+04 -1.547272E+03 -2.100759E-10 -1.549458E-09
        53  16 -1.221212E+05 -1.306101E+06 -1.359726E+05 -6.251422E+03  8.537826E-10 -7.534441E-09
        53  17 -1.162245E+05 -1.289565E+06 -1.435101E+05  7.548893E+03  1.605235E-09 -1.234942E-10
        53  18 -1.674103E+05 -1.289639E+06 -1.778733E+05  1.499711E+04 -4.024659E-10  5.291871E-09
        53  19  1.267521E+05 -3.016582E+05  1.035324E+05  3.548887E+03 -1.713113E+04 -1.433182E+04
        53  20  1.285814E+05 -3.025786E+05  9.219198E+04 -4.102168E+03 -1.632938E+04 -2.264810E+04
        53  21  7.528651E+04 -3.181741E+05  6.169473E+04 -1.810429E+04 -5.089441E+03 -3.092071E+04
        53  22  2.324691E+03 -8.039953E+05 -1.621088E+04 -1.353297E+03 -1.714031E+04 -1.197794E+04
        53  23  6.187489E+03 -7.961830E+05 -2.564946E+04  1.725774E+03 -1.631829E+04 -2.579471E+04
        53  24 -4.605323E+04 -8.040133E+05 -5.807854E+04 -1.547110E+03 -5.054676E+03 -3.956765E+04
        53  25 -1.221209E+05 -1.306101E+06 -1.359718E+05 -6.251289E+03 -1.714954E+04 -9.625956E+03
        53  26 -1.162240E+05 -1.289564E+06 -1.435080E+05  7.549273E+03 -1.630726E+04 -2.893882E+04
        53  27 -1.674096E+05 -1.289637E+06 -1.778689E+05  1.499730E+04 -5.020359E+03 -4.820782E+04
        54   1  4.292150E+04  4.655831E+05  2.444012E+04 -5.625964E+01  1.501719E+04 -2.654117E+02
        54   2  4.296947E+04  4.655891E+05  2.474643E+04 -3.514462E+01  1.496251E+04 -6.744141E+02
        54   3  4.311687E+04  4.656751E+05  2.534435E+04 -1.329333E+01  1.483982E+04 -1.083443E+03
        54   4 -8.264898E+00  2.750099E+05  2.817294E+02  1.607589E-01  1.501767E+04 -2.155302E+02
        54   5  1.462463E+01  2.749840E+05  4.945011E+02 -1.961429E-01  1.496295E+04 -4.611266E+02
        54   6  1.086133E+02  2.750098E+05  8.854984E+02  1.829729E-01  1.484021E+04 -7.067465E+02
        54   7 -4.293951E+04  8.447392E+04 -2.387678E+04  5.656475E+01  1.501815E+04 -1.656632E+02
        54   8 -4.294170E+04  8.441617E+04 -2.375757E+04  3.474305E+01  1.496339E+04 -2.479014E+02
        54   9 -4.290114E+04  8.438177E+04 -2.357352E+04  1.365712E+01  1.484059E+04 -3.301604E+02
        54  10  4.292126E+04  4.655830E+05  2.443969E+04 -5.625644E+01  1.228907E-09 -1.758796E-09
        54  11  4.296923E+04  4.655890E+05  2.474601E+04 -3.513650E+01  1.468642E-09 -1.968068E-09
        54  12  4.311663E+04  4.656750E+05  2.534394E+04 -1.328038E+01 -1.573060E-09 -8.234548E-10
        54  13 -8.507122E+00  2.750098E+05  2.813055E+02  1.633654E-01  1.175561E-09  2.016266E-10
        54  14  1.438412E+01  2.749839E+05  4.940800E+02 -1.905866E-01  1.990288E-10 -5.320178E-10
        54  15  1.083767E+02  2.750098E+05  8.850836E+02  1.914191E-01  2.585031E-09  2.890389E-10
        54  16 -4.293976E+04  8.447386E+04 -2.387720E+04  5.656675E+01 -9.402926E-10  1.453885E-09
        54  17 -4.294195E+04  8.441611E+04 -2.375799E+04  3.474604E+01 -2.613859E-09  1.813527E-09
        54  18 -4.290138E+04  8.438171E+04 -2.357393E+04  1.366106E+01  2.322313E-11  8.930455E-10
        54  19  4.292150E+04  4.655831E+05  2.444012E+04 -5.625964E+01 -1.501719E+04  2.654117E+02
        54  20  4.296947E+04  4.655891E+05  2.474643E+04 -3.514462E+01 -1.496251E+04  6.744141E+02
        54  21  4.311687E+04  4.656751E+05  2.534435E+04 -1.329333E+01 -1.483982E+04  1.083443E+03
        54  22 -8.264898E+00  2.750099E+05  2.817294E+02  1.607588E-01 -1.501767E+04  2.155302E+02
        54  23  1.462463E+01  2.749840E+05  4.945011E+02 -1.961429E-01 -1.496295E+04  4.611266E+02
        54  24  1.086133E+02  2.750098E+05  8.854984E+02  1.829730E-01 -1.484021E+04  7.067465E+02
        54  25 -4.293951E+04  8.447392E+04 -2.387678E+04  5.656475E+01 -1.501815E+04  1.656632E+02
        54  26 -4.294170E+04  8.441617E+04 -2.375757E+04  3.474305E+01 -1.496339E+04  2.479014E+02
        54  27 -4.290114E+04  8.438177E+04 -2.357352E+04  1.365712E+01 -1.484059E+04  3.301604E+02
        55   1  4.320802E+04  4.658039E+05  2.577309E+04 -7.053802E+01  1.476234E+04 -1.295968E+03
        55   2  4.370861E+04  4.655988E+05  2.735226E+04  4.437238E+02  1.433691E+04 -3.562537E+03
        55   3  4.515879E+04  4.659279E+05  3.064419E+04  9.236476E+02  1.340603E+04 -5.829291E+03
        55   4  1.584246E+02  2.750702E+05  1.175992E+03 -7.645235E+00  1.476271E+04 -8.795852E+02
        55   5  5.369441E+02  2.749083E+05  2.100170E+03  9.715040E+00  1.433690E+04 -1.932038E+03
        55   6  1.654532E+03  2.750700E+05  3.894598E+03 -7.264789E+00  1.340557E+04 -2.984672E+03
        55   7 -4.289268E+04  8.437387E+04 -2.342129E+04  5.522961E+01  1.476307E+04 -4.633241E+02
        55   8 -4.263626E+04  8.425486E+04 -2.315218E+04 -4.241517E+02  1.433688E+04 -3.020162E+02
        55   9 -4.185134E+04  8.424888E+04 -2.285544E+04 -9.378759E+02  1.340509E+04 -1.408874E+02
        55  10  4.320779E+04  4.658038E+05  2.577268E+04 -7.052261E+01 -1.713385E-09 -3.136777E-09
        55  11  4.370838E+04  4.655988E+05  2.735185E+04  4.437649E+02 -3.446552E-10 -1.604146E-09
        55  12  4.515859E+04  4.659279E+05  3.064379E+04  9.237105E+02 -4.863447E-10  9.359743E-10
        55  13  1.581903E+02  2.750702E+05  1.175581E+03 -7.634778E+00  4.379705E-10  2.538999E-10
        55  14  5.367223E+02  2.749082E+05  2.099776E+03  9.737346E+00 -4.071578E-09 -6.657368E-10
        55  15  1.654337E+03  2.750699E+05  3.894243E+03 -7.232569E+00 -9.359866E-10  3.782995E-10
        55  16 -4.289291E+04  8.437381E+04 -2.342170E+04  5.523512E+01 -1.252417E-09  2.607718E-09
        55  17 -4.263648E+04  8.425481E+04 -2.315257E+04 -4.241482E+02  6.845931E-10  1.376411E-09
        55  18 -4.185154E+04  8.424884E+04 -2.285578E+04 -9.378744E+02  1.057145E-09 -8.060166E-10
        55  19  4.320802E+04  4.658039E+05  2.577309E+04 -7.053802E+01 -1.476234E+04  1.295968E+03
        55  20  4.370861E+04  4.655988E+05  2.735226E+04  4.437238E+02 -1.433691E+04  3.562537E+03
        55  21  4.515879E+04  4.659279E+05  3.064419E+04  9.236476E+02 -1.340603E+04  5.829291E+03
        55  22  1.584246E+02  2.750702E+05  1.175992E+03 -7.645235E+00 -1.476271E+04  8.795852E+02
        55  23  5.369441E+02  2.749083E+05  2.100170E+03  9.715040E+00 -1.433690E+04  1.932038E+03
        55  24  1.654532E+03  2.750700E+05  3.894598E+03 -7.264789E+00 -1.340557E+04  2.984672E+03
        55  25 -4.289268E+04  8.437387E+04 -2.342129E+04  5.522961E+01 -1.476307E+04  4.633241E+02
        55  26 -4.263626E+04  8.425486E+04 -2.315218E+04 -4.241517E+02 -1.433688E+04  3.020162E+02
        55  27 -4.185134E+04  8.424888E+04 -2.285544E+04 -9.378759E+02 -1.340509E+04  1.408874E+02
        56   1  4.604401E+04  4.667133E+05  3.296899E+04  5.828209E+02  1.281803E+04 -6.806666E+03
        56   2  5.110617E+04  4.647996E+05  4.219636E+04  6.549313E+03  9.643918E+03 -2.070940E+04
        56   3  6.503471E+04  4.669128E+05  6.268740E+04  1.220512E+04  2.728892E+03 -3.461370E+04
        56   4  2.278558E+03  2.755467E+05  5.222875E+03 -6.903600E+01  1.281740E+04 -3.664333E+03
        56   5  6.521703E+03  2.743113E+05  9.652994E+03  8.884335E+01  9.640146E+03 -8.582823E+03
        56   6  1.807343E+04  2.755446E+05  1.911124E+04 -6.398150E+01  2.721708E+03 -1.350281E+04
        56   7 -4.148856E+04  8.441689E+04 -2.252380E+04 -7.206810E+02  1.281677E+04 -5.229252E+02
        56   8 -3.806445E+04  8.385909E+04 -2.289100E+04 -6.369580E+03  9.636120E+03  3.540152E+03
        56   9 -2.888956E+04  8.421158E+04 -2.446554E+04 -1.232927E+04  2.713690E+03  7.601637E+03
        56  10  4.604382E+04  4.667132E+05  3.296860E+04  5.828911E+02  2.040429E-10 -7.072907E-08
        56  11  5.110595E+04  4.647991E+05  4.219538E+04  6.549474E+03  2.535859E-11 -2.624808E-09
        56  12  6.503438E+04  4.669115E+05  6.268513E+04  1.220520E+04 -6.021741E-10  6.688417E-08
        56  13  2.278378E+03  2.755466E+05  5.222541E+03 -6.899817E+01 -2.623474E-09  3.480795E-10
        56  14  6.521583E+03  2.743112E+05  9.652681E+03  8.890998E+01  4.911041E-10 -7.188873E-10
        56  15  1.807338E+04  2.755444E+05  1.911089E+04 -6.395191E+01 -3.592995E-10  5.183011E-10
        56  16 -4.148874E+04  8.441685E+04 -2.252411E+04 -7.206756E+02 -3.970014E-10  7.017790E-08
        56  17 -3.806456E+04  8.385905E+04 -2.289120E+04 -6.369607E+03 -3.461524E-10  2.325272E-09
        56  18 -2.888959E+04  8.421151E+04 -2.446566E+04 -1.232928E+04  3.417970E-10 -6.676362E-08
        56  19  4.604401E+04  4.667133E+05  3.296899E+04  5.828209E+02 -1.281803E+04  6.806666E+03
        56  20  5.110617E+04  4.647996E+05  4.219636E+04  6.549313E+03 -9.643918E+03  2.070940E+04
        56  21  6.503471E+04  4.669128E+05  6.268740E+04  1.220512E+04 -2.728892E+03  3.461370E+04
        56  22  2.278558E+03  2.755467E+05  5.222875E+03 -6.903600E+01 -1.281740E+04  3.664333E+03
        56  23  6.521703E+03  2.743113E+05  9.652994E+03  8.884335E+01 -9.640146E+03  8.582823E+03
        56  24  1.807343E+04  2.755446E+05  1.911124E+04 -6.398150E+01 -2.721708E+03  1.350281E+04
        56  25 -4.148856E+04  8.441689E+04 -2.252380E+04 -7.206810E+02 -1.281677E+04  5.229252E+02
        56  26 -3.806445E+04  8.385909E+04 -2.289100E+04 -6.369580E+03 -9.636120E+03 -3.540152E+03
        56  27 -2.888956E+04  8.421158E+04 -2.446554E+04 -1.232927E+04 -2.713690E+03 -7.601637E+03
        57   1 -5.650779E+06 -1.658880E+06 -1.020660E+06 -1.971958E+06 -5.072450E+05 -1.831129E+05
        57   2 -5.509083E+06 -9.111110E+05 -5.467695E+05 -2.077214E+06 -3.291477E+05 -9.842598E+04
        57   3 -5.652253E+06 -9.330938E+05 -4.157704E+05 -2.010841E+06 -1.445012E+05 -3.105316E+04
        57   4 -4.893642E+06 -1.238677E+06 -7.858100E+05 -1.630582E+06 -4.991779E+05 -1.801973E+05
        57   5 -4.710945E+06 -5.726888E+05 -3.240142E+05 -1.822637E+06 -3.270725E+05 -9.766857E+04
        57   6 -4.811557E+06 -6.747010E+05 -2.000010E+05 -1.843176E+06 -1.484093E+05 -3.251008E+04
        57   7 -4.135905E+06 -8.182123E+05 -5.510172E+05 -1.288763E+06 -4.910996E+05 -1.772729E+05
        57   8 -3.912185E+06 -2.341832E+05 -1.013199E+05 -1.567746E+06 -3.249941E+05 -9.690963E+04
        57   9 -3.970172E+06 -4.163173E+05  1.571377E+04 -1.675330E+06 -1.523232E+05 -3.396823E+04
        57  10 -5.651066E+06 -1.658987E+06 -1.021212E+06 -1.972033E+06 -6.768210E-10  1.326805E-10
        57  11 -5.509203E+06 -9.111510E+05 -5.469936E+05 -2.077240E+06 -3.322603E-10 -1.070574E-09
        57  12 -5.652276E+06 -9.331005E+05 -4.158119E+05 -2.010844E+06 -2.080204E-09  2.421040E-10
        57  13 -4.893920E+06 -1.238779E+06 -7.863440E+05 -1.630655E+06  3.636193E-09 -1.349658E-09
        57  14 -4.711063E+06 -5.727282E+05 -3.242351E+05 -1.822663E+06  2.337416E-09 -1.577252E-09
        57  15 -4.811581E+06 -6.747082E+05 -2.000447E+05 -1.843179E+06 -1.989636E-10 -1.342621E-10
        57  16 -4.136174E+06 -8.183116E+05 -5.515333E+05 -1.288834E+06 -1.021905E-09  6.580547E-10
        57  17 -3.912302E+06 -2.342219E+05 -1.015376E+05 -1.567772E+06  2.888653E-09 -1.988714E-10
        57  18 -3.970197E+06 -4.163249E+05  1.566766E+04 -1.675334E+06 -6.822329E-10  1.601711E-10
        57  19 -5.650779E+06 -1.658880E+06 -1.020660E+06 -1.971958E+06  5.072450E+05  1.831129E+05
        57  20 -5.509083E+06 -9.111110E+05 -5.467695E+05 -2.077214E+06  3.291477E+05  9.842598E+04
        57  21 -5.652253E+06 -9.330938E+05 -4.157704E+05 -2.010841E+06  1.445012E+05  3.105316E+04
        57  22 -4.893642E+06 -1.238677E+06 -7.858100E+05 -1.630582E+06  4.991779E+05  1.801973E+05
        57  23 -4.710945E+06 -5.726888E+05 -3.240142E+05 -1.822637E+06  3.270725E+05  9.766857E+04
        57  24 -4.811557E+06 -6.747010E+05 -2.000010E+05 -1.843176E+06  1.484093E+05  3.251008E+04
        57  25 -4.135905E+06 -8.182123E+05 -5.510172E+05 -1.288763E+06  4.910996E+05  1.772729E+05
        57  26 -3.912185E+06 -2.341832E+05 -1.013199E+05 -1.567746E+06  3.249941E+05  9.690963E+04
        57  27 -3.970172E+06 -4.163173E+05  1.571377E+04 -1.675330E+06  1.523232E+05  3.396823E+04
        58   1 -5.476886E+06 -1.045492E+06 -3.553244E+05 -2.004795E+06 -1.182274E+05 -2.505933E+04
        58   2 -5.425505E+06 -9.105758E+05 -2.523628E+05 -1.980603E+06 -7.729563E+04 -9.948492E+03
        58   3 -5.371641E+06 -9.138473E+05 -2.058591E+05 -1.981150E+06 -3.548541E+04  2.829949E+03
        58   4 -4.781361E+06 -7.665840E+05 -1.637546E+05 -1.799411E+06 -1.179903E+05 -2.497535E+04
        58   5 -4.777509E+06 -6.617475E+05 -7.633717E+04 -1.800461E+06 -7.784717E+04 -1.015754E+04
        58   6 -4.770978E+06 -6.948745E+05 -4.469804E+04 -1.826256E+06 -3.682955E+04  2.325736E+03
        58   7 -4.085363E+06 -4.876308E+05  2.777091E+04 -1.593812E+06 -1.177528E+05 -2.489120E+04
        58   8 -4.129105E+06 -4.128907E+05  9.965071E+04 -1.620146E+06 -7.839931E+04 -1.036683E+04
        58   9 -4.169965E+06 -4.758870E+05  1.164312E+05 -1.671229E+06 -3.817512E+04  1.821030E+03
        58  10 -5.476902E+06 -1.045496E+06 -3.553521E+05 -2.004797E+06 -2.099228E-09  2.790697E-10
        58  11 -5.425512E+06 -9.105776E+05 -2.523743E+05 -1.980604E+06  7.308806E-10 -1.204271E-09
        58  12 -5.371642E+06 -9.138477E+05 -2.058615E+05 -1.981149E+06 -5.274404E-09 -2.634599E-09
        58  13 -4.781376E+06 -7.665885E+05 -1.637821E+05 -1.799414E+06  8.627395E-10 -5.523398E-11
        58  14 -4.777516E+06 -6.617492E+05 -7.634884E+04 -1.800462E+06 -1.827653E-09 -9.824706E-10
        58  15 -4.770979E+06 -6.948749E+05 -4.470062E+04 -1.826256E+06 -5.538811E-09 -2.665734E-09
        58  16 -4.085379E+06 -4.876352E+05  2.774349E+04 -1.593815E+06  3.192918E-10 -2.337088E-10
        58  17 -4.129111E+06 -4.128924E+05  9.963887E+04 -1.620147E+06  7.689004E-10 -6.294368E-10
        58  18 -4.169967E+06 -4.758874E+05  1.164285E+05 -1.671229E+06 -6.403545E-09 -2.194456E-09
        58  19 -5.476886E+06 -1.045492E+06 -3.553244E+05 -2.004795E+06  1.182274E+05  2.505933E+04
        58  20 -5.425505E+06 -9.105758E+05 -2.523628E+05 -1.980603E+06  7.729563E+04  9.948492E+03
        58  21 -5.371641E+06 -9.138473E+05 -2.058591E+05 -1.981150E+06  3.548541E+04 -2.829949E+03
        58  22 -4.781361E+06 -7.665840E+05 -1.637546E+05 -1.799411E+06  1.179903E+05  2.497535E+04
        58  23 -4.777509E+06 -6.617475E+05 -7.633717E+04 -1.800461E+06  7.784717E+04  1.015754E+04
        58  24 -4.770978E+06 -6.948745E+05 -4.469804E+04 -1.826256E+06  3.682955E+04 -2.325736E+03
        58  25 -4.085363E+06 -4.876308E+05  2.777091E+04 -1.593812E+06  1.177528E+05  2.489120E+04
        58  26 -4.129105E+06 -4.128907E+05  9.965071E+04 -1.620146E+06  7.839931E+04  1.036683E+04
        58  27 -4.169965E+06 -4.758870E+05  1.164312E+05 -1.671229E+06  3.817512E+04 -1.821030E+03
        59   1 -5.216664E+06 -8.815815E+05 -1.577923E+05 -1.948262E+06 -2.877170E+04  3.234520E+03
        59   2 -5.167303E+06 -8.124941E+05 -1.199826E+05 -1.896523E+06 -1.848116E+04  4.055505E+03
        59   3 -5.065798E+06 -8.131588E+05 -9.236487E+04 -1.908038E+06 -8.000002E+03  4.360559E+03
        59   4 -4.764122E+06 -7.091399E+05 -3.529958E+04 -1.823763E+06 -2.964138E+04  2.908162E+03
        59   5 -4.789547E+06 -6.697183E+05 -1.781066E+04 -1.793835E+06 -1.952830E+04  3.663440E+03
        59   6 -4.762796E+06 -7.000062E+05 -1.036558E+04 -1.827161E+06 -9.225883E+03  3.902448E+03
        59   7 -4.311382E+06 -5.366858E+05  8.717451E+04 -1.699182E+06 -3.051175E+04  2.581539E+03
        59   8 -4.411653E+06 -5.269342E+05  8.434847E+04 -1.691090E+06 -2.057614E+04  3.271111E+03
        59   9 -4.459705E+06 -5.868486E+05  7.162567E+04 -1.746248E+06 -1.045243E+04  3.444095E+03
        59  10 -5.216665E+06 -8.815817E+05 -1.577939E+05 -1.948262E+06 -5.132778E-09 -2.724652E-09
        59  11 -5.167303E+06 -8.124942E+05 -1.199833E+05 -1.896523E+06 -1.554300E-09 -7.530522E-10
        59  12 -5.065798E+06 -8.131588E+05 -9.236503E+04 -1.908038E+06 -5.882013E-10 -1.039193E-09
        59  13 -4.764123E+06 -7.091402E+05 -3.530126E+04 -1.823763E+06 -6.520617E-09 -2.841783E-09
        59  14 -4.789548E+06 -6.697184E+05 -1.781141E+04 -1.793835E+06 -1.938728E-09 -5.593800E-10
        59  15 -4.762796E+06 -7.000062E+05 -1.036577E+04 -1.827161E+06 -1.441414E-09 -8.827426E-11
        59  16 -4.311383E+06 -5.366861E+05  8.717274E+04 -1.699182E+06 -4.970276E-09 -2.051786E-09
        59  17 -4.411654E+06 -5.269343E+05  8.434765E+04 -1.691090E+06  1.048173E-09 -6.866659E-10
        59  18 -4.459705E+06 -5.868486E+05  7.162544E+04 -1.746248E+06 -1.618542E-09  6.477125E-10
        59  19 -5.216664E+06 -8.815815E+05 -1.577923E+05 -1.948262E+06  2.877170E+04 -3.234520E+03
        59  20 -5.167303E+06 -8.124941E+05 -1.199826E+05 -1.896523E+06  1.848116E+04 -4.055505E+03
        59  21 -5.065798E+06 -8.131588E+05 -9.236487E+04 -1.908038E+06  8.000002E+03 -4.360559E+03
        59  22 -4.764122E+06 -7.091399E+05 -3.529958E+04 -1.823763E+06  2.964138E+04 -2.908162E+03
        59  23 -4.789547E+06 -6.697183E+05 -1.781066E+04 -1.793835E+06  1.952830E+04 -3.663440E+03
        59  24 -4.762796E+06 -7.000062E+05 -1.036558E+04 -1.827161E+06  9.225883E+03 -3.902448E+03
        59  25 -4.311382E+06 -5.366858E+05  8.717451E+04 -1.699182E+06  3.051175E+04 -2.581539E+03
        59  26 -4.411653E+06 -5.269342E+05  8.434847E+04 -1.691090E+06  2.057614E+04 -3.271111E+03
        59  27 -4.459705E+06 -5.868486E+05  7.162567E+04 -1.746248E+06  1.045243E+04 -3.444095E+03
        60   1 -4.892066E+06 -7.522361E+05 -4.336825E+04 -1.863620E+06 -5.809701E+03  2.941570E+03
        60   2 -4.839455E+06 -6.873164E+05 -1.767852E+04 -1.804440E+06 -2.081688E+03  5.921663E+02
        60   3 -4.724197E+06 -6.878295E+05  5.656057E+03 -1.818220E+06  1.668103E+03 -1.816092E+03
        60   4 -4.760964E+06 -7.027228E+05 -8.214879E+03 -1.827938E+06 -6.972469E+03  2.507357E+03
        60   5 -4.792213E+06 -6.695079E+05 -4.912351E+03 -1.791643E+06 -3.265047E+03  1.503470E+02
        60   6 -4.760817E+06 -7.017211E+05 -3.947334E+03 -1.828309E+06  4.637670E+02 -2.265628E+03
        60   7 -4.629846E+06 -6.532084E+05  2.693698E+04 -1.792250E+06 -8.135508E+03  2.073043E+03
        60   8 -4.744968E+06 -6.516992E+05  7.853609E+03 -1.778844E+06 -4.448504E+03 -2.915091E+02
        60   9 -4.797436E+06 -7.156126E+05 -1.355081E+04 -1.838398E+06 -7.404882E+02 -2.715134E+03
        60  10 -4.892066E+06 -7.522361E+05 -4.336833E+04 -1.863620E+06  3.586555E-10  2.773058E-10
        60  11 -4.839455E+06 -6.873164E+05 -1.767853E+04 -1.804440E+06 -1.296195E-09  1.035116E-09
        60  12 -4.724197E+06 -6.878295E+05  5.656045E+03 -1.818220E+06 -7.024217E-11  9.131570E-10
        60  13 -4.760964E+06 -7.027228E+05 -8.214983E+03 -1.827938E+06 -2.424385E-09  4.362847E-10
        60  14 -4.792213E+06 -6.695079E+05 -4.912371E+03 -1.791643E+06 -1.775102E-09 -1.880674E-09
        60  15 -4.760817E+06 -7.017211E+05 -3.947344E+03 -1.828309E+06 -9.617913E-10  7.018441E-13
        60  16 -4.629846E+06 -6.532084E+05  2.693684E+04 -1.792250E+06 -1.452384E-09  1.839804E-09
        60  17 -4.744969E+06 -6.516992E+05  7.853571E+03 -1.778844E+06 -4.015767E-10 -2.244279E-10
        60  18 -4.797436E+06 -7.156127E+05 -1.355083E+04 -1.838398E+06 -5.312832E-10 -1.164618E-09
        60  19 -4.892066E+06 -7.522361E+05 -4.336825E+04 -1.863620E+06  5.809701E+03 -2.941570E+03
        60  20 -4.839455E+06 -6.873164E+05 -1.767852E+04 -1.804440E+06  2.081688E+03 -5.921663E+02
        60  21 -4.724197E+06 -6.878295E+05  5.656057E+03 -1.818220E+06 -1.668103E+03  1.816092E+03
        60  22 -4.760964E+06 -7.027228E+05 -8.214879E+03 -1.827938E+06  6.972469E+03 -2.507357E+03
        60  23 -4.792213E+06 -6.695079E+05 -4.912351E+03 -1.791643E+06  3.265047E+03 -1.503470E+02
        60  24 -4.760817E+06 -7.017211E+05 -3.947334E+03 -1.828309E+06 -4.637670E+02  2.265628E+03
        60  25 -4.629846E+06 -6.532084E+05  2.693698E+04 -1.792250E+06  8.135508E+03 -2.073043E+03
        60  26 -4.744968E+06 -6.516992E+05  7.853609E+03 -1.778844E+06  4.448504E+03  2.915091E+02
        60  27 -4.797436E+06 -7.156126E+05 -1.355081E+04 -1.838398E+06  7.404882E+02  2.715134E+03
        61   1 -4.549846E+06 -6.213050E+05  5.355666E+04 -1.770325E+06  3.065581E+03 -3.555335E+03
        61   2 -4.500434E+06 -5.609107E+05  7.367392E+04 -1.714016E+06  6.664950E+03 -5.929721E+03
        61   3 -4.391636E+06 -5.623771E+05  9.158783E+04 -1.726509E+06  1.016575E+04 -8.030875E+03
        61   4 -4.761558E+06 -7.009134E+05 -3.928660E+03 -1.827399E+06  1.850872E+03 -4.008944E+03
        61   5 -4.791320E+06 -6.705227E+05 -4.911659E+03 -1.792792E+06  5.546492E+03 -6.347965E+03
        61   6 -4.761721E+06 -7.020156E+05 -8.175402E+03 -1.826991E+06  9.143182E+03 -8.413794E+03
        61   7 -4.973227E+06 -7.805195E+05 -6.141813E+04 -1.884456E+06  6.366180E+02 -4.462383E+03
        61   8 -5.082124E+06 -7.801300E+05 -8.350489E+04 -1.871534E+06  4.428614E+03 -6.765993E+03
        61   9 -5.131673E+06 -8.416462E+05 -1.079508E+05 -1.927419E+06  8.121284E+03 -8.796459E+03
        61  10 -4.549846E+06 -6.213050E+05  5.355662E+04 -1.770325E+06  9.066830E-10  1.065562E-09
        61  11 -4.500434E+06 -5.609107E+05  7.367377E+04 -1.714016E+06 -9.616942E-10 -1.834918E-09
        61  12 -4.391636E+06 -5.623772E+05  9.158751E+04 -1.726509E+06 -7.542119E-10  1.405461E-09
        61  13 -4.761558E+06 -7.009134E+05 -3.928697E+03 -1.827399E+06 -5.543275E-10 -8.732619E-10
        61  14 -4.791320E+06 -6.705227E+05 -4.911792E+03 -1.792792E+06  9.561615E-10  1.940064E-09
        61  15 -4.761721E+06 -7.020157E+05 -8.175692E+03 -1.826991E+06 -1.183178E-09  9.927024E-10
        61  16 -4.973227E+06 -7.805195E+05 -6.141817E+04 -1.884456E+06 -2.676440E-09 -2.022973E-09
        61  17 -5.082124E+06 -7.801300E+05 -8.350502E+04 -1.871534E+06  4.249990E-10  5.565351E-10
        61  18 -5.131673E+06 -8.416463E+05 -1.079511E+05 -1.927419E+06 -9.179268E-10 -3.008154E-10
        61  19 -4.549846E+06 -6.213050E+05  5.355666E+04 -1.770325E+06 -3.065581E+03  3.555335E+03
        61  20 -4.500434E+06 -5.609107E+05  7.367392E+04 -1.714016E+06 -6.664950E+03  5.929721E+03
        61  21 -4.391636E+06 -5.623771E+05  9.158783E+04 -1.726509E+06 -1.016575E+04  8.030875E+03
        61  22 -4.761558E+06 -7.009134E+05 -3.928660E+03 -1.827399E+06 -1.850872E+03  4.008944E+03
        61  23 -4.791320E+06 -6.705227E+05 -4.911659E+03 -1.792792E+06 -5.546492E+03  6.347965E+03
        61  24 -4.761721E+06 -7.020156E+05 -8.175402E+03 -1.826991E+06 -9.143182E+03  8.413794E+03
        61  25 -4.973227E+06 -7.805195E+05 -6.141813E+04 -1.884456E+06 -6.366180E+02  4.462383E+03
        61  26 -5.082124E+06 -7.801300E+05 -8.350489E+04 -1.871534E+06 -4.428614E+03  6.765993E+03
        61  27 -5.131673E+06 -8.416462E+05 -1.079508E+05 -1.927419E+06 -8.121284E+03  8.796459E+03
        62   1 -4.242080E+06 -5.016669E+05  1.310676E+05 -1.683885E+06  1.240878E+04 -9.180641E+03
        62   2 -4.202659E+06 -4.516745E+05  1.402216E+05 -1.638041E+06  2.226851E+04 -8.602332E+03
        62   3 -4.120469E+06 -4.611813E+05  1.397002E+05 -1.643685E+06  3.187154E+04 -7.323598E+03
        62   4 -4.764942E+06 -6.978223E+05 -1.029130E+04 -1.824539E+06  1.130378E+04 -9.595007E+03
        62   5 -4.786965E+06 -6.726035E+05 -1.775348E+04 -1.797091E+06  2.140509E+04 -8.927198E+03
        62   6 -4.766274E+06 -7.069434E+05 -3.509075E+04 -1.821136E+06  3.124865E+04 -7.559044E+03
        62   7 -5.287538E+06 -8.939623E+05 -1.516743E+05 -1.965085E+06  1.019981E+04 -1.000899E+04
        62   8 -5.370939E+06 -8.935124E+05 -1.757591E+05 -1.956005E+06  2.054258E+04 -9.251729E+03
        62   9 -5.411676E+06 -9.526800E+05 -2.099196E+05 -1.998418E+06  3.062646E+04 -7.794222E+03
        62  10 -4.242080E+06 -5.016670E+05  1.310671E+05 -1.683885E+06  1.656258E-09  2.305760E-09
        62  11 -4.202660E+06 -4.516747E+05  1.402205E+05 -1.638041E+06 -2.446384E-10 -4.579794E-10
        62  12 -4.120470E+06 -4.611817E+05  1.396982E+05 -1.643685E+06 -1.729731E-09  1.209357E-09
        62  13 -4.764942E+06 -6.978224E+05 -1.029171E+04 -1.824539E+06 -9.381604E-11  1.224080E-09
        62  14 -4.786965E+06 -6.726037E+05 -1.775449E+04 -1.797091E+06  1.398205E-09 -2.414153E-10
        62  15 -4.766275E+06 -7.069437E+05 -3.509270E+04 -1.821135E+06  6.338708E-10 -3.558665E-10
        62  16 -5.287538E+06 -8.939624E+05 -1.516747E+05 -1.965085E+06 -3.940489E-10 -7.035214E-12
        62  17 -5.370940E+06 -8.935126E+05 -1.757601E+05 -1.956005E+06 -2.225466E-10  3.008521E-10
        62  18 -5.411677E+06 -9.526803E+05 -2.099214E+05 -1.998418E+06  9.353330E-10 -2.972456E-10
        62  19 -4.242080E+06 -5.016669E+05  1.310676E+05 -1.683885E+06 -1.240878E+04  9.180641E+03
        62  20 -4.202659E+06 -4.516745E+05  1.402216E+05 -1.638041E+06 -2.226851E+04  8.602332E+03
        62  21 -4.120469E+06 -4.611813E+05  1.397002E+05 -1.643685E+06 -3.187154E+04  7.323598E+03
        62  22 -4.764942E+06 -6.978223E+05 -1.029130E+04 -1.824539E+06 -1.130378E+04  9.595007E+03
        62  23 -4.786965E+06 -6.726035E+05 -1.775348E+04 -1.797091E+06 -2.140509E+04  8.927198E+03
        62  24 -4.766274E+06 -7.069434E+05 -3.509075E+04 -1.821136E+06 -3.124865E+04  7.559044E+03
        62  25 -5.287538E+06 -8.939623E+05 -1.516743E+05 -1.965085E+06 -1.019981E+04  1.000899E+04
        62  26 -5.370939E+06 -8.935124E+05 -1.757591E+05 -1.956005E+06 -2.054258E+04  9.251729E+03
        62  27 -5.411676E+06 -9.526800E+05 -2.099196E+05 -1.998418E+06 -3.062646E+04  7.794222E+03
        63   1 -4.015620E+06 -4.125533E+05  1.593251E+05 -1.623830E+06  3.935582E+04 -6.162681E+03
        63   2 -3.987485E+06 -3.645224E+05  1.373721E+05 -1.586802E+06  7.904202E+04  6.707832E+03
        63   3 -3.970846E+06 -4.384883E+05  6.078036E+04 -1.557125E+06  1.178023E+05  2.204622E+04
        63   4 -4.774221E+06 -6.916329E+05 -4.443785E+04 -1.822345E+06  3.824287E+04 -6.582421E+03
        63   5 -4.773561E+06 -6.661069E+05 -7.595353E+04 -1.805293E+06  7.876161E+04  6.599479E+03
        63   6 -4.784612E+06 -7.628246E+05 -1.628266E+05 -1.795584E+06  1.183519E+05  2.224810E+04
        63   7 -5.532265E+06 -9.706865E+05 -2.482516E+05 -2.020643E+06  3.713140E+04 -7.001639E+03
        63   8 -5.559036E+06 -9.676501E+05 -2.893346E+05 -2.023530E+06  7.848155E+04  6.491255E+03
        63   9 -5.597733E+06 -1.087102E+06 -3.864942E+05 -2.033751E+06  1.189006E+05  2.244961E+04
        63  10 -4.015622E+06 -4.125538E+05  1.593221E+05 -1.623830E+06  1.418854E-09  5.522509E-10
        63  11 -3.987492E+06 -3.645241E+05  1.373602E+05 -1.586803E+06  2.323845E-09 -3.801454E-10
        63  12 -3.970861E+06 -4.384926E+05  6.075317E+04 -1.557127E+06 -1.890567E-09 -1.032876E-09
        63  13 -4.774222E+06 -6.916333E+05 -4.444070E+04 -1.822345E+06 -3.393646E-10 -4.798215E-11
        63  14 -4.773567E+06 -6.661087E+05 -7.596536E+04 -1.805293E+06  5.210350E-09 -9.257887E-10
        63  15 -4.784627E+06 -7.628289E+05 -1.628541E+05 -1.795586E+06 -6.519736E-10  5.685908E-10
        63  16 -5.532266E+06 -9.706870E+05 -2.482543E+05 -2.020643E+06  1.570069E-10 -4.441224E-10
        63  17 -5.559043E+06 -9.676518E+05 -2.893464E+05 -2.023530E+06  2.600629E-09 -3.388745E-10
        63  18 -5.597748E+06 -1.087106E+06 -3.865220E+05 -2.033753E+06  2.830293E-09  3.498317E-10
        63  19 -4.015620E+06 -4.125533E+05  1.593251E+05 -1.623830E+06 -3.935582E+04  6.162681E+03
        63  20 -3.987485E+06 -3.645224E+05  1.373721E+05 -1.586802E+06 -7.904202E+04 -6.707832E+03
        63  21 -3.970846E+06 -4.384883E+05  6.078036E+04 -1.557125E+06 -1.178023E+05 -2.204622E+04
        63  22 -4.774221E+06 -6.916329E+05 -4.443785E+04 -1.822345E+06 -3.824287E+04  6.582421E+03
        63  23 -4.773561E+06 -6.661069E+05 -7.595353E+04 -1.805293E+06 -7.876161E+04 -6.599479E+03
        63  24 -4.784612E+06 -7.628246E+05 -1.628266E+05 -1.795584E+06 -1.183519E+05 -2.224810E+04
        63  25 -5.532265E+06 -9.706865E+05 -2.482516E+05 -2.020643E+06 -3.713140E+04  7.001639E+03
        63  26 -5.559036E+06 -9.676501E+05 -2.893346E+05 -2.023530E+06 -7.848155E+04 -6.491255E+03
        63  27 -5.597733E+06 -1.087102E+06 -3.864942E+05 -2.033751E+06 -1.189006E+05 -2.244961E+04
        64   1 -3.902434E+06 -3.845145E+05  3.624689E+04 -1.649844E+06  1.520035E+05  3.164070E+04
        64   2 -3.859483E+06 -2.207022E+05 -8.634872E+04 -1.559459E+06  3.232427E+05  9.536696E+04
        64   3 -4.114831E+06 -8.003935E+05 -5.396740E+05 -1.277741E+06  4.878582E+05  1.765704E+05
        64   4 -4.815213E+06 -6.709853E+05 -1.988971E+05 -1.838567E+06  1.483960E+05  3.029123E+04
        64   5 -4.706385E+06 -5.783495E+05 -3.222357E+05 -1.828249E+06  3.256382E+05  9.624967E+04
        64   6 -4.897469E+06 -1.231079E+06 -7.814453E+05 -1.626472E+06  4.962698E+05  1.796370E+05
        64   7 -5.727186E+06 -9.574636E+05 -4.341071E+05 -2.027066E+06  1.447943E+05  2.894307E+04
        64   8 -5.552585E+06 -9.359038E+05 -5.581900E+05 -2.096687E+06  3.280299E+05  9.713051E+04
        64   9 -5.679462E+06 -1.661492E+06 -1.023275E+06 -1.974734E+06  5.046692E+05  1.826944E+05
        64  10 -3.902459E+06 -3.845218E+05  3.620126E+04 -1.649848E+06  1.205303E-09 -4.402094E-10
        64  11 -3.859598E+06 -2.207403E+05 -8.656372E+04 -1.559484E+06  3.129212E-09 -5.297420E-09
        64  12 -4.115097E+06 -8.004917E+05 -5.401836E+05 -1.277811E+06  8.243890E-10 -3.779731E-09
        64  13 -4.815237E+06 -6.709923E+05 -1.989405E+05 -1.838570E+06  1.336756E-09  5.962364E-10
        64  14 -4.706502E+06 -5.783883E+05 -3.224543E+05 -1.828274E+06  5.708305E-09  1.916251E-09
        64  15 -4.897744E+06 -1.231181E+06 -7.819734E+05 -1.626544E+06  2.332319E-10 -5.685564E-10
        64  16 -5.727209E+06 -9.574702E+05 -4.341485E+05 -2.027070E+06 -2.212552E-09 -4.128621E-10
        64  17 -5.552704E+06 -9.359433E+05 -5.584122E+05 -2.096713E+06 -1.420902E-09  3.401717E-10
        64  18 -5.679746E+06 -1.661597E+06 -1.023822E+06 -1.974809E+06 -6.507610E-10 -4.722472E-10
        64  19 -3.902434E+06 -3.845145E+05  3.624689E+04 -1.649844E+06 -1.520035E+05 -3.164070E+04
        64  20 -3.859483E+06 -2.207022E+05 -8.634872E+04 -1.559459E+06 -3.232427E+05 -9.536696E+04
        64  21 -4.114831E+06 -8.003935E+05 -5.396740E+05 -1.277741E+06 -4.878582E+05 -1.765704E+05
        64  22 -4.815213E+06 -6.709853E+05 -1.988971E+05 -1.838567E+06 -1.483960E+05 -3.029123E+04
        64  23 -4.706385E+06 -5.783495E+05 -3.222357E+05 -1.828249E+06 -3.256382E+05 -9.624967E+04
        64  24 -4.897469E+06 -1.231079E+06 -7.814453E+05 -1.626472E+06 -4.962698E+05 -1.796370E+05
        64  25 -5.727186E+06 -9.574636E+05 -4.341071E+05 -2.027066E+06 -1.447943E+05 -2.894307E+04
        64  26 -5.552585E+06 -9.359038E+05 -5.581900E+05 -2.096687E+06 -3.280299E+05 -9.713051E+04
        64  27 -5.679462E+06 -1.661492E+06 -1.023275E+06 -1.974734E+06 -5.046692E+05 -1.826944E+05
        65   1 -8.193183E+05 -1.218384E+05 -9.662822E+04 -5.169913E+03  6.715449E+04  6.470013E+03
        65   2 -7.976268E+05 -2.119807E+05 -1.459216E+05  3.044315E+03  4.660493E+04  1.850607E+04
        65   3 -7.433442E+05 -1.901221E+05 -1.534576E+05 -3.107289E+04  2.610641E+04  1.638159E+04
        65   4  4.304954E+03  8.371717E+04  1.079801E+05 -2.138811E+04  7.366523E+04  6.493252E+03
        65   5 -1.238753E+04 -1.640994E+04  4.645905E+04 -5.742966E+01  4.833337E+04  1.850985E+04
        65   6  4.301799E+03 -3.781313E+03  2.997785E+04 -2.105434E+04  2.305402E+04  1.637292E+04
        65   7  8.285452E+05  2.892230E+05  3.125381E+05 -3.762846E+04  8.018456E+04  6.516136E+03
        65   8  7.734140E+05  1.791152E+05  2.387945E+05 -3.163568E+03  5.006396E+04  1.851361E+04
        65   9  7.524573E+05  1.825184E+05  2.133724E+05 -1.102401E+04  1.999794E+04  1.636415E+04
        65  10 -8.193232E+05 -1.218397E+05 -9.663678E+04 -5.170263E+03  1.807390E-09  1.264472E-09
        65  11 -7.976292E+05 -2.119817E+05 -1.459263E+05  3.043620E+03  2.599975E-09 -1.673312E-09
        65  12 -7.433450E+05 -1.901226E+05 -1.534594E+05 -3.107324E+04 -1.499178E-09 -2.637780E-10
        65  13  4.299116E+03  8.371567E+04  1.079698E+05 -2.138850E+04  2.153957E-09  3.546724E-10
        65  14 -1.239013E+04 -1.641094E+04  4.645402E+04 -5.815015E+01  1.633204E-11 -4.551722E-09
        65  15  4.301156E+03 -3.781743E+03  2.997635E+04 -2.105465E+04  2.378342E-09 -1.970548E-10
        65  16  8.285383E+05  2.892212E+05  3.125259E+05 -3.762888E+04 -1.672032E-10 -3.483934E-10
        65  17  7.734112E+05  1.791141E+05  2.387892E+05 -3.164314E+03 -1.718449E-09 -8.782456E-10
        65  18  7.524568E+05  1.825180E+05  2.133711E+05 -1.102427E+04  2.876724E-10 -1.504689E-09
        65  19 -8.193183E+05 -1.218384E+05 -9.662822E+04 -5.169913E+03 -6.715449E+04 -6.470013E+03
        65  20 -7.976268E+05 -2.119807E+05 -1.459216E+05  3.044315E+03 -4.660493E+04 -1.850607E+04
        65  21 -7.433442E+05 -1.901221E+05 -1.534576E+05 -3.107289E+04 -2.610641E+04 -1.638159E+04
        65  22  4.304954E+03  8.371717E+04  1.079801E+05 -2.138811E+04 -7.366523E+04 -6.493252E+03
        65  23 -1.238753E+04 -1.640994E+04  4.645905E+04 -5.742966E+01 -4.833337E+04 -1.850985E+04
        65  24  4.301799E+03 -3.781313E+03  2.997785E+04 -2.105434E+04 -2.305402E+04 -1.637292E+04
        65  25  8.285452E+05  2.892230E+05  3.125381E+05 -3.762846E+04 -8.018456E+04 -6.516136E+03
        65  26  7.734140E+05  1.791152E+05  2.387945E+05 -3.163568E+03 -5.006396E+04 -1.851361E+04
        65  27  7.524573E+05  1.825184E+05  2.133724E+05 -1.102401E+04 -1.999794E+04 -1.636415E+04
        66   1 -6.627492E+05 -1.539853E+05 -1.377294E+05 -1.999110E+04  1.790265E+04  1.343537E+04
        66   2 -6.277351E+05 -1.574591E+05 -1.408380E+05 -2.420375E+02  1.217756E+04  1.356421E+04
        66   3 -5.871848E+05 -1.463886E+05 -1.363449E+05 -2.273080E+04  6.453206E+03  1.212395E+04
        66   4 -1.827943E+03  1.071525E+04  2.463327E+04 -2.115257E+04  1.822661E+04  1.343509E+04
        66   5 -4.639874E+03 -2.218971E+03  1.203147E+04 -2.338467E+01  1.196884E+04  1.356299E+04
        66   6 -1.828098E+03 -5.238192E+02  7.395985E+03 -2.112931E+04  5.712162E+03  1.212245E+04
        66   7  6.594912E+05  1.753834E+05  1.869638E+05 -2.231549E+04  1.855090E+04  1.343482E+04
        66   8  6.188091E+05  1.529924E+05  1.648725E+05  1.953442E+02  1.175990E+04  1.356176E+04
        66   9  5.838407E+05  1.453155E+05  1.511117E+05 -1.952639E+04  4.970419E+03  1.212094E+04
        66  10 -6.627495E+05 -1.539856E+05 -1.377304E+05 -1.999130E+04 -1.935555E-09 -1.555670E-09
        66  11 -6.277353E+05 -1.574594E+05 -1.408387E+05 -2.421706E+02  6.441824E-10  8.186055E-10
        66  12 -5.871849E+05 -1.463888E+05 -1.363453E+05 -2.273086E+04  9.168407E-11 -4.894573E-10
        66  13 -1.828348E+03  1.071496E+04  2.463231E+04 -2.115277E+04  6.022677E-10 -8.002882E-10
        66  14 -4.640077E+03 -2.219207E+03  1.203085E+04 -2.351541E+01 -1.078353E-09 -1.089156E-09
        66  15 -1.828172E+03 -5.239857E+02  7.395648E+03 -2.112937E+04  1.047004E-09 -9.186446E-10
        66  16  6.594908E+05  1.753831E+05  1.869628E+05 -2.231569E+04  5.353501E-10  3.358002E-10
        66  17  6.188089E+05  1.529922E+05  1.648719E+05  1.952158E+02 -8.645450E-10 -2.375328E-09
        66  18  5.838406E+05  1.453154E+05  1.511114E+05 -1.952644E+04 -6.064071E-11  1.977795E-10
        66  19 -6.627492E+05 -1.539853E+05 -1.377294E+05 -1.999110E+04 -1.790265E+04 -1.343537E+04
        66  20 -6.277351E+05 -1.574591E+05 -1.408380E+05 -2.420375E+02 -1.217756E+04 -1.356421E+04
        66  21 -5.871848E+05 -1.463886E+05 -1.363449E+05 -2.273080E+04 -6.453206E+03 -1.212395E+04
        66  22 -1.827943E+03  1.071525E+04  2.463327E+04 -2.115257E+04 -1.822661E+04 -1.343509E+04
        66  23 -4.639874E+03 -2.218971E+03  1.203147E+04 -2.338467E+01 -1.196884E+04 -1.356299E+04
        66  24 -1.828098E+03 -5.238192E+02  7.395985E+03 -2.112931E+04 -5.712162E+03 -1.212245E+04
        66  25  6.594912E+05  1.753834E+05  1.869638E+05 -2.231549E+04 -1.855090E+04 -1.343482E+04
        66  26  6.188091E+05  1.529924E+05  1.648725E+05  1.953442E+02 -1.175990E+04 -1.356176E+04
        66  27  5.838407E+05  1.453155E+05  1.511117E+05 -1.952639E+04 -4.970419E+03 -1.212094E+04
        67   1 -5.012485E+05 -1.228790E+05 -1.164003E+05 -2.119990E+04  4.889846E+03  1.109786E+04
        67   2 -4.640983E+05 -1.150988E+05 -1.100076E+05 -1.006600E+02  3.406582E+03  9.910803E+03
        67   3 -4.257089E+05 -1.054446E+05 -1.020619E+05 -2.127025E+04  1.921551E+03  8.549895E+03
        67   4 -2.771069E+03  1.292666E+03  5.829802E+03 -2.114401E+04  4.523243E+03  1.109700E+04
        67   5 -3.394674E+03 -3.238967E+02  3.032913E+03 -1.008545E+01  2.980480E+03  9.910172E+03
        67   6 -2.771058E+03 -5.688590E+01  1.829544E+03 -2.114304E+04  1.436038E+03  8.549550E+03
        67   7  4.959327E+05  1.254459E+05  1.280417E+05 -2.108811E+04  4.156346E+03  1.109614E+04
        67   8  4.575023E+05  1.144352E+05  1.160579E+05  8.053847E+01  2.554062E+03  9.909542E+03
        67   9  4.203297E+05  1.053176E+05  1.057078E+05 -2.101573E+04  9.501954E+02  8.549206E+03
        67  10 -5.012485E+05 -1.228791E+05 -1.164006E+05 -2.119994E+04  7.264902E-10  4.942853E-10
        67  11 -4.640983E+05 -1.150989E+05 -1.100078E+05 -1.006872E+02  2.013677E-10 -2.289586E-10
        67  12 -4.257090E+05 -1.054447E+05 -1.020620E+05 -2.127026E+04 -2.721828E-09 -9.683424E-10
        67  13 -2.771124E+03  1.292528E+03  5.829532E+03 -2.114405E+04 -8.572160E-10 -1.777910E-10
        67  14 -3.394710E+03 -3.240046E+02  3.032712E+03 -1.010924E+01  1.076350E-09 -1.962819E-10
        67  15 -2.771080E+03 -5.696495E+01  1.829403E+03 -2.114305E+04  1.874892E-09 -2.424697E-11
        67  16  4.959327E+05  1.254458E+05  1.280414E+05 -2.108815E+04 -4.396769E-11 -4.472125E-10
        67  17  4.575022E+05  1.144351E+05  1.160577E+05  8.051810E+01 -1.348470E-09 -6.964204E-10
        67  18  4.203297E+05  1.053175E+05  1.057077E+05 -2.101574E+04  8.302695E-10  2.887298E-10
        67  19 -5.012485E+05 -1.228790E+05 -1.164003E+05 -2.119990E+04 -4.889846E+03 -1.109786E+04
        67  20 -4.640983E+05 -1.150988E+05 -1.100076E+05 -1.006600E+02 -3.406582E+03 -9.910803E+03
        67  21 -4.257089E+05 -1.054446E+05 -1.020619E+05 -2.127025E+04 -1.921551E+03 -8.549895E+03
        67  22 -2.771069E+03  1.292666E+03  5.829802E+03 -2.114401E+04 -4.523243E+03 -1.109700E+04
        67  23 -3.394674E+03 -3.238967E+02  3.032913E+03 -1.008545E+01 -2.980480E+03 -9.910172E+03
        67  24 -2.771058E+03 -5.688590E+01  1.829544E+03 -2.114304E+04 -1.436038E+03 -8.549550E+03
        67  25  4.959327E+05  1.254459E+05  1.280417E+05 -2.108811E+04 -4.156346E+03 -1.109614E+04
        67  26  4.575023E+05  1.144352E+05  1.160579E+05  8.053847E+01 -2.554062E+03 -9.909542E+03
        67  27  4.203297E+05  1.053176E+05  1.057078E+05 -2.101573E+04 -9.501954E+02 -8.549206E+03
        68   1 -3.389729E+05 -8.354157E+04 -8.093417E+04 -2.106906E+04  1.586265E+03  7.736651E+03
        68   2 -3.013302E+05 -7.434172E+04 -7.243997E+04  9.945831E+01  1.225140E+03  6.403500E+03
        68   3 -2.634001E+05 -6.487142E+04 -6.360794E+04 -2.100475E+04  8.628284E+02  5.052075E+03
        68   4 -2.963663E+03  1.395878E+02  1.392935E+03 -2.114429E+04  1.141952E+03  7.736496E+03
        68   5 -3.107301E+03 -5.240455E+01  7.285445E+02 -8.570322E+00  7.744966E+02  6.403532E+03
        68   6 -2.963647E+03  2.721176E+01  4.063521E+02 -2.114431E+04  4.058761E+02  5.052302E+03
        68   7  3.331484E+05  8.381238E+04  8.371177E+04 -2.121955E+04  6.973995E+02  7.736341E+03
        68   8  2.951966E+05  7.423031E+04  7.389053E+04 -1.166407E+02  3.236371E+02  6.403565E+03
        68   9  2.575345E+05  6.492080E+04  6.441565E+04 -2.128392E+04 -5.126759E+01  5.052530E+03
        68  10 -3.389729E+05 -8.354164E+04 -8.093429E+04 -2.106907E+04 -4.647380E-10 -9.131451E-10
        68  11 -3.013302E+05 -7.434176E+04 -7.244005E+04  9.945199E+01  8.946460E-11  3.775895E-10
        68  12 -2.634001E+05 -6.487145E+04 -6.360798E+04 -2.100475E+04  1.297524E-09  1.274725E-10
        68  13 -2.963680E+03  1.395232E+02  1.392820E+03 -2.114430E+04  2.098492E-09  3.720406E-10
        68  14 -3.107313E+03 -5.244874E+01  7.284664E+02 -8.574316E+00 -1.390517E-12 -3.518256E-11
        68  15 -2.963654E+03  2.718431E+01  4.063038E+02 -2.114431E+04 -1.610519E-09  1.154053E-09
        68  16  3.331484E+05  8.381232E+04  8.371166E+04 -2.121956E+04  5.275565E-10 -1.847417E-10
        68  17  2.951966E+05  7.423026E+04  7.389045E+04 -1.166423E+02 -3.784523E-09 -1.202314E-09
        68  18  2.575345E+05  6.492077E+04  6.441560E+04 -2.128392E+04 -1.476836E-09 -1.311062E-09
        68  19 -3.389729E+05 -8.354157E+04 -8.093417E+04 -2.106906E+04 -1.586265E+03 -7.736651E+03
        68  20 -3.013302E+05 -7.434172E+04 -7.243997E+04  9.945831E+01 -1.225140E+03 -6.403500E+03
        68  21 -2.634001E+05 -6.487142E+04 -6.360794E+04 -2.100475E+04 -8.628284E+02 -5.052075E+03
        68  22 -2.963663E+03  1.395878E+02  1.392935E+03 -2.114429E+04 -1.141952E+03 -7.736496E+03
        68  23 -3.107301E+03 -5.240455E+01  7.285445E+02 -8.570322E+00 -7.744966E+02 -6.403532E+03
        68  24 -2.963647E+03  2.721176E+01  4.063521E+02 -2.114431E+04 -4.058761E+02 -5.052302E+03
        68  25  3.331484E+05  8.381238E+04  8.371177E+04 -2.121955E+04 -6.973995E+02 -7.736341E+03
        68  26  2.951966E+05  7.423031E+04  7.389053E+04 -1.166407E+02 -3.236371E+02 -6.403565E+03
        68  27  2.575345E+05  6.492080E+04  6.441565E+04 -2.128392E+04  5.126759E+01 -5.052530E+03
        69   1 -1.765091E+05 -4.315202E+04 -4.217323E+04 -2.103557E+04  7.972110E+02  4.261077E+03
        69   2 -1.386913E+05 -3.379703E+04 -3.322213E+04  9.139730E+01  7.612663E+02  2.911089E+03
        69   3 -1.009133E+05 -2.438560E+04 -2.424629E+04 -2.105688E+04  7.248001E+02  1.568550E+03
        69   4 -3.024761E+03  3.740998E+01  2.702964E+02 -2.114501E+04  3.424989E+02  4.261413E+03
        69   5 -3.004250E+03  3.409450E-01  6.557246E+01 -7.679645E+00  3.090346E+02  2.911506E+03
        69   6 -3.024753E+03  1.952231E+01 -1.159115E+02 -2.114503E+04  2.750511E+02  1.569052E+03
        69   7  1.704870E+05  4.322462E+04  4.271162E+04 -2.125446E+04 -1.123400E+02  4.261750E+03
        69   8  1.326995E+05  3.379635E+04  3.335192E+04 -1.067741E+02 -1.432957E+02  2.911924E+03
        69   9  9.487246E+04  2.442393E+04  2.401376E+04 -2.123319E+04 -1.747688E+02  1.569555E+03
        69  10 -1.765091E+05 -4.315204E+04 -4.217326E+04 -2.103558E+04 -2.238664E-09 -4.775674E-10
        69  11 -1.386913E+05 -3.379704E+04 -3.322214E+04  9.139552E+01 -1.671588E-09 -3.651545E-10
        69  12 -1.009133E+05 -2.438560E+04 -2.424629E+04 -2.105688E+04 -1.397618E-09 -3.772487E-10
        69  13 -3.024766E+03  3.739045E+01  2.702621E+02 -2.114501E+04  8.422350E-10  2.896981E-09
        69  14 -3.004253E+03  3.318167E-01  6.555635E+01 -7.680370E+00 -5.381023E-10  2.269124E-09
        69  15 -3.024754E+03  1.951965E+01 -1.159162E+02 -2.114503E+04 -1.457764E-09 -2.054880E-09
        69  16  1.704870E+05  4.322460E+04  4.271159E+04 -2.125446E+04  3.636443E-09 -2.851212E-10
        69  17  1.326995E+05  3.379634E+04  3.335190E+04 -1.067737E+02  4.647527E-10  2.387662E-10
        69  18  9.487246E+04  2.442393E+04  2.401375E+04 -2.123319E+04  1.390109E-09 -8.312438E-10
        69  19 -1.765091E+05 -4.315202E+04 -4.217323E+04 -2.103557E+04 -7.972110E+02 -4.261077E+03
        69  20 -1.386913E+05 -3.379703E+04 -3.322213E+04  9.139730E+01 -7.612663E+02 -2.911089E+03
        69  21 -1.009133E+05 -2.438560E+04 -2.424629E+04 -2.105688E+04 -7.248001E+02 -1.568550E+03
        69  22 -3.024761E+03  3.740998E+01  2.702964E+02 -2.114501E+04 -3.424989E+02 -4.261413E+03
        69  23 -3.004250E+03  3.409450E-01  6.557246E+01 -7.679645E+00 -3.090346E+02 -2.911506E+03
        69  24 -3.024753E+03  1.952231E+01 -1.159115E+02 -2.114503E+04 -2.750511E+02 -1.569052E+03
        69  25  1.704870E+05  4.322462E+04  4.271162E+04 -2.125446E+04  1.123400E+02 -4.261750E+03
        69  26  1.326995E+05  3.379635E+04  3.335192E+04 -1.067741E+02  1.432957E+02 -2.911924E+03
        69  27  9.487246E+04  2.442393E+04  2.401376E+04 -2.123319E+04  1.747688E+02 -1.569555E+03
        70   1 -1.397392E+04 -2.639716E+03 -2.773752E+03 -2.116539E+04  7.732107E+02  7.684015E+02
        70   2  2.393020E+04  6.743888E+03  6.137962E+03 -2.283497E+01  9.739655E+02 -5.873551E+02
        70   3  6.163531E+04  1.589807E+04  1.483696E+04 -2.115663E+04  1.174935E+03 -1.856081E+03
        70   4 -3.058439E+03  5.545088E+01 -2.131566E+02 -2.114532E+04  3.031310E+02  7.689557E+02
        70   5 -2.955458E+03  4.819823E+01 -4.551278E+02 -7.222521E+00  5.331009E+02 -5.868543E+02
        70   6 -3.058442E+03 -1.936053E+02 -9.301754E+02 -2.114560E+04  7.632738E+02 -1.855627E+03
        70   7  7.857153E+03  2.750610E+03  2.347431E+03 -2.112524E+04 -1.669570E+02  7.695099E+02
        70   8 -2.984045E+04 -6.647545E+03 -7.048270E+03  8.389439E+00  9.225535E+01 -5.863536E+02
        70   9 -6.774838E+04 -1.628558E+04 -1.669761E+04 -2.113456E+04  3.516554E+02 -1.855174E+03
        70  10 -1.397392E+04 -2.639717E+03 -2.773754E+03 -2.116539E+04 -2.516571E-09  8.117203E-10
        70  11  2.393019E+04  6.743887E+03  6.137960E+03 -2.283451E+01 -2.621948E-09 -4.183843E-10
        70  12  6.163531E+04  1.589806E+04  1.483695E+04 -2.115663E+04 -5.367793E-10 -2.066137E-10
        70  13 -3.058440E+03  5.545022E+01 -2.131579E+02 -2.114532E+04 -2.461528E-09 -1.571897E-09
        70  14 -2.955459E+03  4.819779E+01 -4.551289E+02 -7.222269E+00 -2.395363E-12 -1.712943E-09
        70  15 -3.058443E+03 -1.936091E+02 -9.301830E+02 -2.114560E+04 -3.637890E-10  4.200885E-10
        70  16  7.857152E+03  2.750609E+03  2.347430E+03 -2.112524E+04  5.647761E-11  2.348671E-10
        70  17 -2.984045E+04 -6.647545E+03 -7.048271E+03  8.389483E+00  2.791262E-10 -1.473708E-09
        70  18 -6.774838E+04 -1.628559E+04 -1.669762E+04 -2.113456E+04  3.529018E-10 -3.131756E-10
        70  19 -1.397392E+04 -2.639716E+03 -2.773752E+03 -2.116539E+04 -7.732107E+02 -7.684015E+02
        70  20  2.393020E+04  6.743888E+03  6.137962E+03 -2.283497E+01 -9.739655E+02  5.873551E+02
        70  21  6.163531E+04  1.589807E+04  1.483696E+04 -2.115663E+04 -1.174935E+03  1.856081E+03
        70  22 -3.058439E+03  5.545088E+01 -2.131566E+02 -2.114532E+04 -3.031310E+02 -7.689557E+02
        70  23 -2.955458E+03  4.819823E+01 -4.551278E+02 -7.222521E+00 -5.331009E+02  5.868543E+02
        70  24 -3.058442E+03 -1.936053E+02 -9.301754E+02 -2.114560E+04 -7.632738E+02  1.855627E+03
        70  25  7.857153E+03  2.750610E+03  2.347431E+03 -2.112524E+04  1.669570E+02 -7.695099E+02
        70  26 -2.984045E+04 -6.647545E+03 -7.048270E+03  8.389439E+00 -9.225535E+01  5.863536E+02
        70  27 -6.774838E+04 -1.628558E+04 -1.669761E+04 -2.113456E+04 -3.516554E+02  1.855174E+03
        71   1  1.484985E+05  3.792014E+04  3.613031E+04 -2.145909E+04  1.549553E+03 -2.761348E+03
        71   2  1.866518E+05  4.752455E+04  4.447203E+04 -4.379158E+01  2.311610E+03 -4.151347E+03
        71   3  2.241292E+05  5.482490E+04  5.174043E+04 -2.089065E+04  3.075008E+03 -4.754318E+03
        71   4 -3.179344E+03  1.240782E+02 -1.182280E+03 -2.114190E+04  9.502551E+02 -2.760746E+03
        71   5 -2.817620E+03  3.440646E+02 -1.982433E+03 -1.113909E+01  1.976527E+03 -4.151131E+03
        71   6 -3.179357E+03 -1.786207E+03 -4.039580E+03 -2.114336E+04  3.004093E+03 -4.754379E+03
        71   7 -1.548362E+05 -3.767369E+04 -3.849656E+04 -2.082478E+04  3.511032E+02 -2.760144E+03
        71   8 -1.922544E+05 -4.683908E+04 -4.843953E+04  2.151067E+01  1.641546E+03 -4.150915E+03
        71   9 -2.304409E+05 -5.840114E+04 -5.982338E+04 -2.139596E+04  2.933205E+03 -4.754441E+03
        71  10  1.484985E+05  3.792013E+04  3.613029E+04 -2.145909E+04 -1.811655E-09 -1.053034E-09
        71  11  1.866518E+05  4.752453E+04  4.447199E+04 -4.378386E+01 -1.875266E-09  9.797307E-10
        71  12  2.241292E+05  5.482487E+04  5.174037E+04 -2.089064E+04  8.701908E-10 -3.541316E-10
        71  13 -3.179347E+03  1.240697E+02 -1.182296E+03 -2.114190E+04 -1.355550E-09  4.012474E-10
        71  14 -2.817629E+03  3.440450E+02 -1.982473E+03 -1.113248E+01 -1.615254E-09  7.138053E-10
        71  15 -3.179373E+03 -1.786233E+03 -4.039639E+03 -2.114334E+04  3.211605E-10 -2.767214E-11
        71  16 -1.548362E+05 -3.767370E+04 -3.849657E+04 -2.082478E+04  9.940587E-10  7.303519E-10
        71  17 -1.922544E+05 -4.683910E+04 -4.843956E+04  2.151616E+01  3.910390E-10  1.319456E-09
        71  18 -2.304409E+05 -5.840117E+04 -5.982344E+04 -2.139595E+04  1.434512E-09 -3.251514E-10
        71  19  1.484985E+05  3.792014E+04  3.613031E+04 -2.145909E+04 -1.549553E+03  2.761348E+03
        71  20  1.866518E+05  4.752455E+04  4.447203E+04 -4.379158E+01 -2.311610E+03  4.151347E+03
        71  21  2.241292E+05  5.482490E+04  5.174043E+04 -2.089065E+04 -3.075008E+03  4.754318E+03
        71  22 -3.179344E+03  1.240782E+02 -1.182280E+03 -2.114190E+04 -9.502551E+02  2.760746E+03
        71  23 -2.817620E+03  3.440646E+02 -1.982433E+03 -1.113909E+01 -1.976527E+03  4.151131E+03
        71  24 -3.179357E+03 -1.786207E+03 -4.039580E+03 -2.114336E+04 -3.004093E+03  4.754379E+03
        71  25 -1.548362E+05 -3.767369E+04 -3.849656E+04 -2.082478E+04 -3.511032E+02  2.760144E+03
        71  26 -1.922544E+05 -4.683908E+04 -4.843953E+04  2.151067E+01 -1.641546E+03  4.150915E+03
        71  27 -2.304409E+05 -5.840114E+04 -5.982338E+04 -2.139596E+04 -2.933205E+03  4.754441E+03
        72   1  3.101856E+05  7.889549E+04  7.221758E+04 -2.267591E+04  5.551960E+03 -6.608593E+03
        72   2  3.502873E+05  9.024388E+04  7.847576E+04  7.179036E+02  7.338838E+03 -8.302476E+03
        72   3  3.859401E+05  8.357494E+04  7.912489E+04 -1.803258E+04  9.126808E+03 -2.902508E+03
        72   4 -4.114732E+03  6.217725E+02 -4.898652E+03 -2.111583E+04  3.789237E+03 -6.607750E+03
        72   5 -1.681614E+03  2.633946E+03 -7.682348E+03 -4.300017E+01  7.958770E+03 -8.302949E+03
        72   6 -4.114735E+03 -1.379016E+04 -1.773199E+04 -2.111605E+04  1.212924E+04 -2.902546E+03
        72   7 -3.183251E+05 -7.765926E+04 -8.202212E+04 -1.955652E+04  2.027405E+03 -6.606915E+03
        72   8 -3.535377E+05 -8.498515E+04 -9.384951E+04 -8.034646E+02  8.578351E+03 -8.303424E+03
        72   9 -3.940315E+05 -1.111666E+05 -1.146002E+05 -2.419758E+04  1.512978E+04 -2.902614E+03
        72  10  3.101856E+05  7.889543E+04  7.221744E+04 -2.267588E+04  1.103894E-09 -7.912319E-10
        72  11  3.502872E+05  9.024379E+04  7.847553E+04  7.179527E+02  5.388408E-10  2.053210E-10
        72  12  3.859400E+05  8.357491E+04  7.912471E+04 -1.803256E+04  7.247930E-10  2.283682E-10
        72  13 -4.114759E+03  6.217218E+02 -4.898761E+03 -2.111581E+04  2.006373E-09  4.600234E-10
        72  14 -1.681701E+03  2.633855E+03 -7.682597E+03 -4.294695E+01 -2.692673E-09  1.579670E-11
        72  15 -4.114896E+03 -1.379021E+04 -1.773229E+04 -2.111603E+04  1.137292E-09  8.270988E-11
        72  16 -3.183252E+05 -7.765931E+04 -8.202221E+04 -1.955651E+04  1.386265E-09 -4.597163E-10
        72  17 -3.535378E+05 -8.498524E+04 -9.384978E+04 -8.034072E+02  4.740363E-10  4.185413E-11
        72  18 -3.940317E+05 -1.111667E+05 -1.146007E+05 -2.419755E+04 -1.131500E-09  6.540679E-11
        72  19  3.101856E+05  7.889549E+04  7.221758E+04 -2.267591E+04 -5.551960E+03  6.608593E+03
        72  20  3.502873E+05  9.024388E+04  7.847576E+04  7.179036E+02 -7.338838E+03  8.302476E+03
        72  21  3.859401E+05  8.357494E+04  7.912489E+04 -1.803258E+04 -9.126808E+03  2.902508E+03
        72  22 -4.114732E+03  6.217725E+02 -4.898652E+03 -2.111583E+04 -3.789237E+03  6.607750E+03
        72  23 -1.681614E+03  2.633946E+03 -7.682348E+03 -4.300017E+01 -7.958770E+03  8.302949E+03
        72  24 -4.114735E+03 -1.379016E+04 -1.773199E+04 -2.111605E+04 -1.212924E+04  2.902546E+03
        72  25 -3.183251E+05 -7.765926E+04 -8.202212E+04 -1.955652E+04 -2.027405E+03  6.606915E+03
        72  26 -3.535377E+05 -8.498515E+04 -9.384951E+04 -8.034646E+02 -8.578351E+03  8.303424E+03
        72  27 -3.940315E+05 -1.111666E+05 -1.146002E+05 -2.419758E+04 -1.512978E+04  2.902614E+03
        73   1  8.127014E+05  2.771754E+06  7.843000E+05 -7.141047E+05  3.498763E+04  1.793873E+05
        73   2  5.768513E+05  1.984766E+06  5.090951E+05 -6.013412E+05  1.061728E+05  4.929307E+04
        73   3  3.859387E+05  1.224918E+06  3.294037E+05 -6.878044E+05  9.511453E+04 -8.099966E+04
        73   4  3.722759E+04 -3.604988E+05  3.604064E+04 -6.823792E+05  3.589341E+04  1.816670E+04
        73   5  1.028804E+04 -3.629579E+05  2.253727E+04 -5.828374E+05  1.064552E+05  7.020306E+03
        73   6  7.806593E+03 -3.593479E+05  2.222167E+04 -6.825500E+05  9.463684E+04 -4.490153E+03
        73   7 -7.389395E+05 -3.483723E+06 -7.128126E+05 -6.507973E+05  3.678543E+04 -1.422469E+05
        73   8 -5.566232E+05 -2.705465E+06 -4.643142E+05 -5.643948E+05  1.067357E+05 -3.509574E+04
        73   9 -3.704722E+05 -1.941193E+06 -2.850564E+05 -6.773044E+05  9.415970E+04  7.182878E+04
        73  10  8.126915E+05  2.771719E+06  7.842375E+05 -7.141098E+05  1.104042E-09  4.416853E-09
        73  11  5.768385E+05  1.984761E+06  5.090693E+05 -6.013454E+05  1.562539E-09 -5.716294E-10
        73  12  3.859272E+05  1.224909E+06  3.293744E+05 -6.877982E+05  9.258625E-10 -4.879101E-09
        73  13  3.722612E+04 -3.604995E+05  3.603760E+04 -6.823798E+05  3.717536E-09  2.376499E-09
        73  14  1.027586E+04 -3.629610E+05  2.251588E+04 -5.828380E+05  4.158570E-10 -4.995178E-09
        73  15  7.796973E+03 -3.593503E+05  2.220481E+04 -6.825497E+05  2.496913E-09  1.784286E-09
        73  16 -7.389464E+05 -3.483746E+06 -7.128534E+05 -6.507931E+05  2.266222E-09 -4.251002E-09
        73  17 -5.566358E+05 -2.705469E+06 -4.643379E+05 -5.643918E+05  6.928143E-09  1.452125E-09
        73  18 -3.704831E+05 -1.941201E+06 -2.850829E+05 -6.773098E+05 -1.197253E-09  2.285118E-09
        73  19  8.127014E+05  2.771754E+06  7.843000E+05 -7.141047E+05 -3.498763E+04 -1.793873E+05
        73  20  5.768513E+05  1.984766E+06  5.090951E+05 -6.013412E+05 -1.061728E+05 -4.929307E+04
        73  21  3.859387E+05  1.224918E+06  3.294037E+05 -6.878044E+05 -9.511453E+04  8.099966E+04
        73  22  3.722759E+04 -3.604988E+05  3.604064E+04 -6.823792E+05 -3.589341E+04 -1.816670E+04
        73  23  1.028804E+04 -3.629579E+05  2.253727E+04 -5.828374E+05 -1.064552E+05 -7.020306E+03
        73  24  7.806593E+03 -3.593479E+05  2.222167E+04 -6.825500E+05 -9.463684E+04  4.490153E+03
        73  25 -7.389395E+05 -3.483723E+06 -7.128126E+05 -6.507973E+05 -3.678543E+04  1.422469E+05
        73  26 -5.566232E+05 -2.705465E+06 -4.643142E+05 -5.643948E+05 -1.067357E+05  3.509574E+04
        73  27 -3.704722E+05 -1.941193E+06 -2.850564E+05 -6.773044E+05 -9.415970E+04 -7.182878E+04
        74   1  2.614130E+05  6.972424E+05  2.298296E+05 -6.909643E+05  6.352218E+04 -7.131343E+04
        74   2  7.561395E+04 -7.653488E+04  8.875826E+04 -5.823917E+05  1.966156E+04 -9.065580E+04
        74   3 -9.916701E+04 -8.471908E+05 -3.770935E+04 -6.778096E+05 -2.517952E+04 -1.099925E+05
        74   4  8.932255E+03 -3.599126E+05  2.469009E+04 -6.835829E+05  6.311257E+04 -8.640793E+03
        74   5  8.056753E+03 -3.609838E+05  3.548557E+04 -5.815588E+05  1.923634E+04 -2.660076E+04
        74   6  1.798624E+04 -3.597649E+05  5.991926E+04 -6.835237E+05 -2.562179E+04 -4.457771E+04
        74   7 -2.436131E+05 -1.415986E+06 -1.804873E+05 -6.762121E+05  6.270404E+04  5.392760E+04
        74   8 -5.950292E+04 -6.453457E+05 -1.777519E+04 -5.807262E+05  1.881117E+04  3.742567E+04
        74   9  1.351272E+05  1.278972E+05  1.575520E+05 -6.892420E+05 -2.606506E+04  2.088746E+04
        74  10  2.614074E+05  6.972359E+05  2.298125E+05 -6.909606E+05  1.372762E-09  6.645441E-09
        74  11  7.561133E+04 -7.654381E+04  8.874210E+04 -5.823903E+05  2.826373E-09  1.317373E-08
        74  12 -9.917095E+04 -8.472040E+05 -3.773332E+04 -6.778119E+05  3.597107E-10  1.896558E-08
        74  13  8.927960E+03 -3.599138E+05  2.468247E+04 -6.835825E+05 -1.265605E-09  2.850282E-09
        74  14  8.056166E+03 -3.609847E+05  3.548355E+04 -5.815584E+05 -8.206472E-09 -6.272609E-09
        74  15  1.798500E+04 -3.597673E+05  5.991428E+04 -6.835247E+05 -8.405680E-09  2.087834E-09
        74  16 -2.436181E+05 -1.415990E+06 -1.805002E+05 -6.762149E+05 -1.974370E-10 -7.026650E-09
        74  17 -5.950368E+04 -6.453473E+05 -1.777849E+04 -5.807267E+05 -6.431300E-10 -1.394606E-08
        74  18  1.351264E+05  1.278966E+05  1.575499E+05 -6.892416E+05  2.838398E-09 -2.131673E-08
        74  19  2.614130E+05  6.972424E+05  2.298296E+05 -6.909643E+05 -6.352218E+04  7.131343E+04
        74  20  7.561395E+04 -7.653488E+04  8.875826E+04 -5.823917E+05 -1.966156E+04  9.065580E+04
        74  21 -9.916701E+04 -8.471908E+05 -3.770935E+04 -6.778096E+05  2.517952E+04  1.099925E+05
        74  22  8.932255E+03 -3.599126E+05  2.469009E+04 -6.835829E+05 -6.311257E+04  8.640793E+03
        74  23  8.056753E+03 -3.609838E+05  3.548557E+04 -5.815588E+05 -1.923634E+04  2.660076E+04
        74  24  1.798624E+04 -3.597649E+05  5.991926E+04 -6.835237E+05  2.562179E+04  4.457771E+04
        74  25 -2.436131E+05 -1.415986E+06 -1.804873E+05 -6.762121E+05 -6.270404E+04 -5.392760E+04
        74  26 -5.950292E+04 -6.453457E+05 -1.777519E+04 -5.807262E+05 -1.881117E+04 -3.742567E+04
        74  27  1.351272E+05  1.278972E+05  1.575520E+05 -6.892420E+05  2.606506E+04 -2.088746E+04
        75   1 -2.343043E+05 -1.362470E+06 -1.227600E+05 -7.005400E+05 -5.670274E+04 -1.315545E+05
        75   2 -3.851231E+05 -2.149977E+06 -2.373083E+05 -5.119048E+05 -7.598408E+04 -1.034663E+05
        75   3 -3.802478E+05 -2.903544E+06 -3.317403E+05 -5.231011E+05 -2.680351E+04 -7.507344E+04
        75   4  8.125250E+03 -3.492616E+05  7.671696E+04 -6.828209E+05 -5.721247E+04 -5.506478E+04
        75   5  4.595582E+04 -3.748105E+05  1.354718E+05 -5.822396E+05 -7.581969E+04 -1.254599E+05
        75   6  2.563336E+05 -3.500845E+05  2.826816E+05 -6.813517E+05 -2.606225E+04 -1.955215E+05
        75   7  2.504973E+05  6.649459E+05  2.761662E+05 -6.650703E+05 -5.771732E+04  2.154735E+04
        75   8  4.768489E+05  1.403352E+06  5.080795E+05 -6.527737E+05 -7.565059E+04 -1.475152E+05
        75   9  8.925352E+05  2.209443E+06  8.967051E+05 -8.402468E+05 -2.526120E+04 -3.164636E+05
        75  10 -2.343124E+05 -1.362490E+06 -1.227986E+05 -7.005460E+05  2.652897E-09 -2.021098E-08
        75  11 -3.851322E+05 -2.149990E+06 -2.373394E+05 -5.119111E+05  4.380369E-09 -1.576771E-08
        75  12 -3.802501E+05 -2.903551E+06 -3.317523E+05 -5.231027E+05  6.991160E-10 -6.298317E-09
        75  13  8.120916E+03 -3.492657E+05  7.670509E+04 -6.828235E+05 -6.863816E-09  3.139788E-09
        75  14  4.594541E+04 -3.748290E+05  1.354313E+05 -5.822473E+05 -8.961915E-09 -5.528792E-09
        75  15  2.563226E+05 -3.501257E+05  2.826085E+05 -6.813559E+05 -2.370055E-10  1.490474E-09
        75  16  2.504936E+05  6.649445E+05  2.761591E+05 -6.650693E+05 -6.580704E-10  2.097730E-08
        75  17  4.768370E+05  1.403327E+06  5.080279E+05 -6.527827E+05  3.434866E-09  1.626949E-08
        75  18  8.925078E+05  2.209336E+06  8.965163E+05 -8.402532E+05  2.206507E-09  3.682478E-09
        75  19 -2.343043E+05 -1.362470E+06 -1.227600E+05 -7.005400E+05  5.670274E+04  1.315545E+05
        75  20 -3.851231E+05 -2.149977E+06 -2.373083E+05 -5.119048E+05  7.598408E+04  1.034663E+05
        75  21 -3.802478E+05 -2.903544E+06 -3.317403E+05 -5.231011E+05  2.680351E+04  7.507344E+04
        75  22  8.125250E+03 -3.492616E+05  7.671696E+04 -6.828209E+05  5.721247E+04  5.506478E+04
        75  23  4.595582E+04 -3.748105E+05  1.354718E+05 -5.822396E+05  7.581969E+04  1.254599E+05
        75  24  2.563336E+05 -3.500845E+05  2.826816E+05 -6.813517E+05  2.606225E+04  1.955215E+05
        75  25  2.504973E+05  6.649459E+05  2.761662E+05 -6.650703E+05  5.771732E+04 -2.154735E+04
        75  26  4.768489E+05  1.403352E+06  5.080795E+05 -6.527737E+05  7.565059E+04  1.475152E+05
        75  27  8.925352E+05  2.209443E+06  8.967051E+05 -8.402468E+05  2.526120E+04  3.164636E+05
        76   1 -2.853024E+06 -1.120861E+06 -6.604797E+05 -9.553486E+05 -1.531602E+05 -8.263107E+03
        76   2 -2.664388E+06 -1.074961E+06 -5.464688E+05 -8.844131E+05 -1.045506E+05  1.240405E+05
        76   3 -2.438701E+06 -1.040485E+06 -4.891627E+05 -8.663137E+05 -2.631997E+04  1.784850E+05
        76   4 -2.687887E+03 -7.933920E+04  7.718664E+04 -2.068790E+05  3.299319E+04  6.232808E+04
        76   5 -3.575408E+04 -1.141907E+05  3.479308E+04 -1.689660E+05 -2.292974E+04  1.548755E+05
        76   6 -1.104281E+04 -1.397624E+05  1.882554E+04 -1.838815E+05 -4.932895E+04  1.697254E+05
        76   7  2.855553E+06  9.625784E+05  8.143105E+05  5.446516E+05  2.200845E+05  1.332479E+05
        76   8  2.599872E+06  8.470808E+05  6.156530E+05  5.492475E+05  5.906607E+04  1.858480E+05
        76   9  2.422695E+06  7.614977E+05  5.265050E+05  5.010367E+05 -7.243578E+04  1.609284E+05
        76  10 -2.853049E+06 -1.120867E+06 -6.605242E+05 -9.553496E+05 -6.078049E-09  7.482805E-10
        76  11 -2.664404E+06 -1.074980E+06 -5.465183E+05 -8.844026E+05 -4.322000E-09  3.992322E-09
        76  12 -2.438710E+06 -1.040519E+06 -4.892239E+05 -8.663099E+05  7.321972E-09  3.575899E-09
        76  13 -2.690100E+03 -7.934367E+04  7.717729E+04 -2.068807E+05 -2.320726E-10  7.264531E-10
        76  14 -3.576108E+04 -1.142166E+05  3.474701E+04 -1.689631E+05  3.679021E-09 -4.591745E-09
        76  15 -1.105315E+04 -1.397940E+05  1.876684E+04 -1.838747E+05  1.521933E-08  2.573733E-09
        76  16  2.855496E+06  9.625464E+05  8.141867E+05  5.446280E+05  3.773617E-09 -4.926657E-10
        76  17  2.599859E+06  8.470429E+05  6.155816E+05  5.492386E+05  7.419047E-09  2.596158E-09
        76  18  2.422682E+06  7.614685E+05  5.264465E+05  5.010461E+05  6.942821E-09  1.197976E-09
        76  19 -2.853024E+06 -1.120861E+06 -6.604797E+05 -9.553486E+05  1.531602E+05  8.263107E+03
        76  20 -2.664388E+06 -1.074961E+06 -5.464688E+05 -8.844131E+05  1.045506E+05 -1.240405E+05
        76  21 -2.438701E+06 -1.040485E+06 -4.891627E+05 -8.663137E+05  2.631997E+04 -1.784850E+05
        76  22 -2.687887E+03 -7.933920E+04  7.718664E+04 -2.068790E+05 -3.299319E+04 -6.232808E+04
        76  23 -3.575408E+04 -1.141907E+05  3.479308E+04 -1.689660E+05  2.292974E+04 -1.548755E+05
        76  24 -1.104281E+04 -1.397624E+05  1.882554E+04 -1.838815E+05  4.932895E+04 -1.697254E+05
        76  25  2.855553E+06  9.625784E+05  8.143105E+05  5.446516E+05 -2.200845E+05 -1.332479E+05
        76  26  2.599872E+06  8.470808E+05  6.156530E+05  5.492475E+05 -5.906607E+04 -1.858480E+05
        76  27  2.422695E+06  7.614977E+05  5.265050E+05  5.010367E+05  7.243578E+04 -1.609284E+05
        77   1 -2.308523E+06 -9.822347E+05 -4.650412E+05 -8.247365E+05 -4.133156E+04  1.619343E+05
        77   2 -2.134297E+06 -8.910605E+05 -4.252557E+05 -7.474912E+05 -3.566397E+04  1.556126E+05
        77   3 -1.919161E+06 -8.389769E+05 -3.871132E+05 -7.159200E+05 -2.816804E+04  1.443712E+05
        77   4 -1.258220E+04 -1.377711E+05  1.441115E+04 -1.869410E+05 -4.793061E+04  1.593831E+05
        77   5 -3.364464E+04 -1.196920E+05  7.502171E+03 -1.637369E+05 -4.887870E+04  1.505800E+05
        77   6 -1.253285E+04 -1.393863E+05  4.196057E+03 -1.862104E+05 -4.800277E+04  1.368660E+05
        77   7  2.288765E+06  7.071385E+05  4.935795E+05  4.530347E+05 -5.455625E+04  1.568221E+05
        77   8  2.071537E+06  6.520515E+05  4.400287E+05  4.218426E+05 -6.214182E+04  1.455294E+05
        77   9  1.897820E+06  5.605112E+05  3.953154E+05  3.450009E+05 -6.790316E+04  1.293361E+05
        77  10 -2.308532E+06 -9.822633E+05 -4.650937E+05 -8.247311E+05  1.166718E-08  3.786027E-09
        77  11 -2.134305E+06 -8.910868E+05 -4.253036E+05 -7.474867E+05  8.147104E-09 -7.853824E-10
        77  12 -1.919167E+06 -8.389995E+05 -3.871539E+05 -7.159168E+05  2.094951E-09 -9.764619E-10
        77  13 -1.259149E+04 -1.377990E+05  1.435910E+04 -1.869348E+05  1.089806E-08  2.319030E-09
        77  14 -3.365329E+04 -1.197170E+05  7.455074E+03 -1.637310E+05  9.588106E-10 -1.199522E-09
        77  15 -1.254035E+04 -1.394070E+05  4.156527E+03 -1.862051E+05 -4.731007E-10  5.759302E-10
        77  16  2.288756E+06  7.071113E+05  4.935277E+05  4.530416E+05  1.446707E-09  1.288503E-09
        77  17  2.071527E+06  6.520277E+05  4.399816E+05  4.218499E+05 -2.309282E-09  1.635456E-09
        77  18  1.897811E+06  5.604920E+05  3.952753E+05  3.450079E+05  1.268379E-09  1.963516E-09
        77  19 -2.308523E+06 -9.822347E+05 -4.650412E+05 -8.247365E+05  4.133156E+04 -1.619343E+05
        77  20 -2.134297E+06 -8.910605E+05 -4.252557E+05 -7.474912E+05  3.566397E+04 -1.556126E+05
        77  21 -1.919161E+06 -8.389769E+05 -3.871132E+05 -7.159200E+05  2.816804E+04 -1.443712E+05
        77  22 -1.258220E+04 -1.377711E+05  1.441115E+04 -1.869410E+05  4.793061E+04 -1.593831E+05
        77  23 -3.364464E+04 -1.196920E+05  7.502171E+03 -1.637369E+05  4.887870E+04 -1.505800E+05
        77  24 -1.253285E+04 -1.393863E+05  4.196057E+03 -1.862104E+05  4.800277E+04 -1.368660E+05
        77  25  2.288765E+06  7.071385E+05  4.935795E+05  4.530347E+05  5.455625E+04 -1.568221E+05
        77  26  2.071537E+06  6.520515E+05  4.400287E+05  4.218426E+05  6.214182E+04 -1.455294E+05
        77  27  1.897820E+06  5.605112E+05  3.953154E+05  3.450009E+05  6.790316E+04 -1.293361E+05
        78   1 -1.784908E+06 -7.887039E+05 -3.594401E+05 -6.782820E+05 -2.654719E+04  1.351999E+05
        78   2 -1.610444E+06 -6.965934E+05 -3.211036E+05 -6.009128E+05 -2.160013E+04  1.208978E+05
        78   3 -1.395158E+06 -6.445525E+05 -2.823211E+05 -5.693552E+05 -1.655803E+04  1.062737E+05
        78   4 -1.263673E+04 -1.392317E+05  3.130249E+03 -1.864426E+05 -4.536005E+04  1.280906E+05
        78   5 -3.292030E+04 -1.189706E+05  1.652029E+03 -1.635870E+05 -4.084539E+04  1.136423E+05
        78   6 -1.234856E+04 -1.386929E+05  9.551097E+02 -1.865521E+05 -3.623575E+04  9.887265E+04
        78   7  1.762883E+06  5.105154E+05  3.655455E+05  3.066999E+05 -6.423105E+04  1.209595E+05
        78   8  1.547171E+06  4.588672E+05  3.242837E+05  2.747683E+05 -6.014348E+04  1.063670E+05
        78   9  1.372428E+06  3.673291E+05  2.841349E+05  1.970393E+05 -5.596073E+04  9.145387E+04
        78  10 -1.784914E+06 -7.887237E+05 -3.594758E+05 -6.782791E+05  3.648910E-09 -6.420055E-10
        78  11 -1.610448E+06 -6.966092E+05 -3.211319E+05 -6.009107E+05 -3.243964E-09 -1.901967E-09
        78  12 -1.395161E+06 -6.445647E+05 -2.823428E+05 -5.693538E+05 -1.147962E-09 -1.167318E-09
        78  13 -1.264334E+04 -1.392499E+05  3.095552E+03 -1.864379E+05 -2.821145E-09 -1.209863E-09
        78  14 -3.292556E+04 -1.189849E+05  1.624627E+03 -1.635833E+05 -2.812622E-09 -1.850923E-09
        78  15 -1.235259E+04 -1.387037E+05  9.342730E+02 -1.865492E+05 -3.856890E-09  8.755594E-10
        78  16  1.762874E+06  5.104985E+05  3.655103E+05  3.067062E+05 -2.484507E-09 -1.022439E-09
        78  17  1.547164E+06  4.588541E+05  3.242557E+05  2.747734E+05 -2.339154E-10 -2.236950E-10
        78  18  1.372422E+06  3.673193E+05  2.841133E+05  1.970434E+05  6.920005E-09  3.017448E-09
        78  19 -1.784908E+06 -7.887039E+05 -3.594401E+05 -6.782820E+05  2.654719E+04 -1.351999E+05
        78  20 -1.610444E+06 -6.965934E+05 -3.211036E+05 -6.009128E+05  2.160013E+04 -1.208978E+05
        78  21 -1.395158E+06 -6.445525E+05 -2.823211E+05 -5.693552E+05  1.655803E+04 -1.062737E+05
        78  22 -1.263673E+04 -1.392317E+05  3.130249E+03 -1.864426E+05  4.536005E+04 -1.280906E+05
        78  23 -3.292030E+04 -1.189706E+05  1.652029E+03 -1.635870E+05  4.084539E+04 -1.136423E+05
        78  24 -1.234856E+04 -1.386929E+05  9.551097E+02 -1.865521E+05  3.623575E+04 -9.887265E+04
        78  25  1.762883E+06  5.105154E+05  3.655455E+05  3.066999E+05  6.423105E+04 -1.209595E+05
        78  26  1.547171E+06  4.588672E+05  3.242837E+05  2.747683E+05  6.014348E+04 -1.063670E+05
        78  27  1.372428E+06  3.673291E+05  2.841349E+05  1.970393E+05  5.596073E+04 -9.145387E+04
        79   1 -1.260386E+06 -5.948033E+05 -2.538135E+05 -5.320180E+05 -1.355460E+04  9.768679E+04
        79   2 -1.085237E+06 -5.030214E+05 -2.147553E+05 -4.547863E+05 -8.212928E+03  8.304077E+04
        79   3 -8.696122E+05 -4.513636E+05 -1.755271E+05 -4.235621E+05 -2.878426E+03  6.836699E+04
        79   4 -1.234864E+04 -1.386186E+05  6.976663E+02 -1.866014E+05 -3.317718E+04  9.031479E+04
        79   5 -3.247301E+04 -1.183581E+05  3.488753E+02 -1.636381E+05 -2.787241E+04  7.566611E+04
        79   6 -1.215733E+04 -1.382152E+05  1.957202E+02 -1.866937E+05 -2.257478E+04  6.098974E+04
        79   7  1.237282E+06  3.176950E+05  2.551287E+05  1.594545E+05 -5.284212E+04  8.292693E+04
        79   8  1.021432E+06  2.663991E+05  2.153982E+05  1.279664E+05 -4.756780E+04  6.827801E+04
        79   9  8.460602E+05  1.749977E+05  1.758842E+05  5.047865E+04 -4.230057E+04  5.360148E+04
        79  10 -1.260389E+06 -5.948136E+05 -2.538317E+05 -5.320169E+05  7.187663E-09  1.913261E-09
        79  11 -1.085239E+06 -5.030288E+05 -2.147684E+05 -4.547858E+05 -1.701445E-09 -7.252475E-10
        79  12 -8.696134E+05 -4.513686E+05 -1.755359E+05 -4.235619E+05 -3.596331E-09 -2.886469E-10
        79  13 -1.235201E+04 -1.386276E+05  6.802708E+02 -1.865990E+05 -4.660259E-09  1.176779E-09
        79  14 -3.247538E+04 -1.183644E+05  3.366571E+02 -1.636364E+05 -5.424772E-09 -1.231460E-09
        79  15 -1.215888E+04 -1.382193E+05  1.877729E+02 -1.866926E+05 -6.776701E-10 -5.988711E-10
        79  16  1.237278E+06  3.176869E+05  2.551105E+05  1.594581E+05 -1.709528E-09 -3.198604E-10
        79  17  1.021428E+06  2.663935E+05  2.153852E+05  1.279690E+05 -1.060367E-09 -1.626493E-09
        79  18  8.460575E+05  1.749941E+05  1.758755E+05  5.048048E+04 -3.953774E-10 -1.420374E-09
        79  19 -1.260386E+06 -5.948033E+05 -2.538135E+05 -5.320180E+05  1.355460E+04 -9.768679E+04
        79  20 -1.085237E+06 -5.030214E+05 -2.147553E+05 -4.547863E+05  8.212928E+03 -8.304077E+04
        79  21 -8.696122E+05 -4.513636E+05 -1.755271E+05 -4.235621E+05  2.878426E+03 -6.836699E+04
        79  22 -1.234864E+04 -1.386186E+05  6.976663E+02 -1.866014E+05  3.317718E+04 -9.031479E+04
        79  23 -3.247301E+04 -1.183581E+05  3.488753E+02 -1.636381E+05  2.787241E+04 -7.566611E+04
        79  24 -1.215733E+04 -1.382152E+05  1.957202E+02 -1.866937E+05  2.257478E+04 -6.098974E+04
        79  25  1.237282E+06  3.176950E+05  2.551287E+05  1.594545E+05  5.284212E+04 -8.292693E+04
        79  26  1.021432E+06  2.663991E+05  2.153982E+05  1.279664E+05  4.756780E+04 -6.827801E+04
        79  27  8.460602E+05  1.749977E+05  1.758842E+05  5.047865E+04  4.230057E+04 -5.360148E+04
        80   1 -7.345439E+05 -4.017588E+05 -1.468254E+05 -3.863179E+05  2.853441E+02  5.984193E+04
        80   2 -5.589625E+05 -3.102164E+05 -1.075516E+05 -3.091526E+05  5.757255E+03  4.521581E+04
        80   3 -3.431128E+05 -2.588160E+05 -6.825799E+04 -2.781074E+05  1.121910E+04  3.059262E+04
        80   4 -1.215037E+04 -1.381712E+05  1.181797E+02 -1.867169E+05 -1.941565E+04  5.246797E+04
        80   5 -3.221406E+04 -1.179984E+05 -1.771803E+00 -1.636731E+05 -1.394080E+04  3.784851E+04
        80   6 -1.205234E+04 -1.379693E+05 -1.062305E+02 -1.867620E+05 -8.476061E+03  2.323211E+04
        80   7  7.107805E+05  1.254606E+05  1.470370E+05  1.309874E+04 -3.914129E+04  4.508478E+04
        80   8  4.948180E+05  7.424248E+04  1.075350E+05 -1.808016E+04 -3.365675E+04  3.047452E+04
        80   9  3.191186E+05 -1.711427E+04  6.804075E+04 -9.537230E+04 -2.818237E+04  1.586742E+04
        80  10 -7.345449E+05 -4.017626E+05 -1.468321E+05 -3.863179E+05 -1.592051E-10  1.029418E-09
        80  11 -5.589630E+05 -3.102186E+05 -1.075555E+05 -3.091528E+05  5.708374E-09  1.521022E-09
        80  12 -3.431132E+05 -2.588170E+05 -6.825999E+04 -2.781077E+05  8.266854E-09 -1.984251E-10
        80  13 -1.215151E+04 -1.381743E+05  1.122985E+02 -1.867161E+05  4.298863E-09  4.816829E-10
        80  14 -3.221466E+04 -1.179999E+05 -4.828776E+00 -1.636727E+05  5.562171E-09  1.246336E-09
        80  15 -1.205256E+04 -1.379699E+05 -1.073797E+02 -1.867619E+05  3.651293E-09 -5.164304E-11
        80  16  7.107783E+05  1.254580E+05  1.470303E+05  1.310016E+04  3.976993E-09  3.724847E-10
        80  17  4.948166E+05  7.424118E+04  1.075311E+05 -1.807934E+04  7.980959E-09  1.379975E-09
        80  18  3.191177E+05 -1.711475E+04  6.803878E+04 -9.537194E+04 -1.616733E-09 -1.039373E-09
        80  19 -7.345439E+05 -4.017588E+05 -1.468254E+05 -3.863179E+05 -2.853441E+02 -5.984193E+04
        80  20 -5.589625E+05 -3.102164E+05 -1.075516E+05 -3.091526E+05 -5.757255E+03 -4.521581E+04
        80  21 -3.431128E+05 -2.588160E+05 -6.825799E+04 -2.781074E+05 -1.121910E+04 -3.059262E+04
        80  22 -1.215037E+04 -1.381712E+05  1.181797E+02 -1.867169E+05  1.941565E+04 -5.246797E+04
        80  23 -3.221406E+04 -1.179984E+05 -1.771803E+00 -1.636731E+05  1.394080E+04 -3.784851E+04
        80  24 -1.205234E+04 -1.379693E+05 -1.062305E+02 -1.867620E+05  8.476061E+03 -2.323211E+04
        80  25  7.107805E+05  1.254606E+05  1.470370E+05  1.309874E+04  3.914129E+04 -4.508478E+04
        80  26  4.948180E+05  7.424248E+04  1.075350E+05 -1.808016E+04  3.365675E+04 -3.047452E+04
        80  27  3.191186E+05 -1.711427E+04  6.804075E+04 -9.537230E+04  2.818237E+04 -1.586742E+04
        81   1 -2.078607E+05 -2.092828E+05 -3.954693E+04 -2.408853E+05  1.445790E+04  2.209419E+04
        81   2 -3.209000E+04 -1.178743E+05 -3.079065E+02 -1.637106E+05  1.991230E+04  7.531797E+03
        81   3  1.838809E+05 -6.659597E+04  3.892748E+04 -1.326882E+05  2.531408E+04 -6.890318E+03
        81   4 -1.205895E+04 -1.379538E+05 -1.816809E+02 -1.867723E+05 -5.270349E+03  1.472300E+04
        81   5 -3.211864E+04 -1.178723E+05 -3.913079E+02 -1.636856E+05  3.698863E+02  2.299311E+02
        81   6 -1.205940E+04 -1.379636E+05 -7.538853E+02 -1.867683E+05  5.957454E+03 -1.412273E+04
        81   7  1.837848E+05 -6.662071E+04  3.918380E+04 -1.326429E+05 -2.500543E+04  7.349241E+03
        81   8 -3.214643E+04 -1.178701E+05 -4.730731E+02 -1.636604E+05 -1.917261E+04 -7.071966E+03
        81   9 -2.079594E+05 -2.093278E+05 -4.043558E+04 -2.408324E+05 -1.339262E+04 -2.135269E+04
        81  10 -2.078611E+05 -2.092834E+05 -3.954824E+04 -2.408856E+05  3.658126E-09 -2.697425E-09
        81  11 -3.209044E+04 -1.178744E+05 -3.087585E+02 -1.637108E+05  1.733627E-09 -1.419781E-09
        81  12  1.838802E+05 -6.659619E+04  3.892619E+04 -1.326881E+05 -2.316966E-10  9.240981E-10
        81  13 -1.205904E+04 -1.379541E+05 -1.821404E+02 -1.867722E+05 -7.243049E-10 -1.724857E-09
        81  14 -3.211864E+04 -1.178723E+05 -3.913083E+02 -1.636856E+05 -2.785431E-09  5.250632E-10
        81  15 -1.205949E+04 -1.379639E+05 -7.543267E+02 -1.867682E+05  4.342259E-09  1.579565E-09
        81  16  1.837841E+05 -6.662094E+04  3.918252E+04 -1.326427E+05 -3.952388E-09 -1.115664E-09
        81  17 -3.214684E+04 -1.178702E+05 -4.738581E+02 -1.636605E+05 -8.195741E-12 -1.398193E-09
        81  18 -2.079597E+05 -2.093283E+05 -4.043677E+04 -2.408327E+05  7.434748E-09  5.015063E-09
        81  19 -2.078607E+05 -2.092828E+05 -3.954693E+04 -2.408853E+05 -1.445790E+04 -2.209419E+04
        81  20 -3.209000E+04 -1.178743E+05 -3.079065E+02 -1.637106E+05 -1.991230E+04 -7.531797E+03
        81  21  1.838809E+05 -6.659597E+04  3.892748E+04 -1.326882E+05 -2.531408E+04  6.890318E+03
        81  22 -1.205895E+04 -1.379538E+05 -1.816809E+02 -1.867723E+05  5.270349E+03 -1.472300E+04
        81  23 -3.211864E+04 -1.178723E+05 -3.913079E+02 -1.636856E+05 -3.698863E+02 -2.299311E+02
        81  24 -1.205940E+04 -1.379636E+05 -7.538853E+02 -1.867683E+05 -5.957454E+03  1.412273E+04
        81  25  1.837848E+05 -6.662071E+04  3.918380E+04 -1.326429E+05  2.500543E+04 -7.349241E+03
        81  26 -3.214643E+04 -1.178701E+05 -4.730731E+02 -1.636604E+05  1.917261E+04  7.071966E+03
        81  27 -2.079594E+05 -2.093278E+05 -4.043558E+04 -2.408324E+05  1.339262E+04  2.135269E+04
        82   1  3.192778E+05 -1.707177E+04  6.744649E+04 -9.546464E+04  2.912133E+04 -1.520470E+04
        82   2  4.948106E+05  7.439281E+04  1.069243E+05 -1.817302E+04  3.214084E+04 -2.955806E+04
        82   3  7.107891E+05  1.259237E+05  1.479615E+05  1.319549E+04  3.433101E+04 -4.167735E+04
        82   4 -1.212822E+04 -1.379330E+05 -1.011733E+03 -1.867662E+05  9.290999E+03 -2.261575E+04
        82   5 -3.212191E+04 -1.180486E+05 -1.883024E+03 -1.636672E+05  1.532009E+04 -3.584954E+04
        82   6 -1.230260E+04 -1.386989E+05 -3.576645E+03 -1.865092E+05  2.052011E+04 -4.684792E+04
        82   7 -3.434184E+05 -2.587839E+05 -6.947333E+04 -2.780219E+05 -1.052780E+04 -3.002250E+04
        82   8 -5.587695E+05 -3.104668E+05 -1.107038E+05 -3.090475E+05 -1.485326E+03 -4.213528E+04
        82   9 -7.348660E+05 -4.032807E+05 -1.551440E+05 -3.860013E+05  6.726409E+03 -5.201206E+04
        82  10  3.192769E+05 -1.707225E+04  6.744446E+04 -9.546428E+04  3.326753E-08  1.320249E-08
        82  11  4.948092E+05  7.439160E+04  1.069208E+05 -1.817226E+04  3.211491E-09  1.461777E-09
        82  12  7.107873E+05  1.259216E+05  1.479560E+05  1.319665E+04 -2.286955E-08 -1.057700E-08
        82  13 -1.212845E+04 -1.379336E+05 -1.012856E+03 -1.867660E+05  3.304389E-09  2.586585E-09
        82  14 -3.212250E+04 -1.180501E+05 -1.885879E+03 -1.636668E+05 -1.533702E-09  8.510180E-10
        82  15 -1.230364E+04 -1.387014E+05 -3.581560E+03 -1.865084E+05 -1.084242E-09 -6.625083E-10
        82  16 -3.434188E+05 -2.587849E+05 -6.947523E+04 -2.780222E+05 -2.640407E-08 -6.425731E-09
        82  17 -5.587700E+05 -3.104687E+05 -1.107071E+05 -3.090476E+05 -5.748112E-09  1.288116E-11
        82  18 -7.348668E+05 -4.032836E+05 -1.551492E+05 -3.860010E+05  2.147527E-08  9.100639E-09
        82  19  3.192778E+05 -1.707177E+04  6.744649E+04 -9.546464E+04 -2.912133E+04  1.520470E+04
        82  20  4.948106E+05  7.439281E+04  1.069243E+05 -1.817302E+04 -3.214084E+04  2.955806E+04
        82  21  7.107891E+05  1.259237E+05  1.479615E+05  1.319549E+04 -3.433101E+04  4.167735E+04
        82  22 -1.212822E+04 -1.379330E+05 -1.011733E+03 -1.867662E+05 -9.290999E+03  2.261575E+04
        82  23 -3.212191E+04 -1.180486E+05 -1.883024E+03 -1.636672E+05 -1.532009E+04  3.584954E+04
        82  24 -1.230260E+04 -1.386989E+05 -3.576645E+03 -1.865092E+05 -2.052011E+04  4.684792E+04
        82  25 -3.434184E+05 -2.587839E+05 -6.947333E+04 -2.780219E+05  1.052780E+04  3.002250E+04
        82  26 -5.587695E+05 -3.104668E+05 -1.107038E+05 -3.090475E+05  1.485326E+03  4.213528E+04
        82  27 -7.348660E+05 -4.032807E+05 -1.551440E+05 -3.860013E+05 -6.726409E+03  5.201206E+04
        83   1  8.478415E+05  1.756231E+05  1.755742E+05  4.942269E+04  4.574010E+04 -4.764671E+04
        83   2  1.018136E+06  2.694426E+05  2.263170E+05  1.294297E+05  1.825018E+03 -6.189287E+04
        83   3  1.231995E+06  3.232314E+05  3.085184E+05  1.679962E+05 -5.538540E+04 -4.073823E+04
        83   4 -1.321553E+04 -1.377876E+05 -4.657387E+03 -1.866210E+05  2.441869E+04 -5.563112E+04
        83   5 -3.138472E+04 -1.205880E+05 -8.729220E+03 -1.630949E+05  2.832129E+04 -5.198125E+04
        83   6 -1.548287E+04 -1.528939E+05 -1.918527E+04 -1.810294E+05  1.893321E+04 -1.289413E+04
        83   7 -8.735194E+05 -4.511407E+05 -1.849284E+05 -4.223654E+05  3.129001E+03 -6.360379E+04
        83   8 -1.079782E+06 -5.105235E+05 -2.438385E+05 -4.551612E+05  5.476883E+04 -4.208829E+04
        83   9 -1.261406E+06 -6.288900E+05 -3.469877E+05 -5.294041E+05  9.308608E+04  1.488521E+04
        83  10  8.478386E+05  1.756201E+05  1.755660E+05  4.942444E+04  2.438975E-09 -2.253929E-09
        83  11  1.018135E+06  2.694385E+05  2.263098E+05  1.294297E+05  7.699512E-10 -2.235577E-09
        83  12  1.231992E+06  3.232288E+05  3.085095E+05  1.679944E+05 -4.137028E-09 -1.366569E-09
        83  13 -1.321700E+04 -1.377911E+05 -4.664323E+03 -1.866199E+05  1.282760E-09 -3.895183E-10
        83  14 -3.138631E+04 -1.205911E+05 -8.735804E+03 -1.630937E+05  1.104463E-09 -1.138137E-09
        83  15 -1.548330E+04 -1.528942E+05 -1.918626E+04 -1.810292E+05  5.768728E-10 -5.380061E-10
        83  16 -8.735205E+05 -4.511451E+05 -1.849360E+05 -4.223652E+05 -2.575726E-09 -1.436667E-11
        83  17 -1.079785E+06 -5.105262E+05 -2.438475E+05 -4.551593E+05  1.030073E-09 -6.300261E-10
        83  18 -1.261415E+06 -6.288926E+05 -3.470044E+05 -5.294053E+05  3.142060E-09  2.971002E-11
        83  19  8.478415E+05  1.756231E+05  1.755742E+05  4.942269E+04 -4.574010E+04  4.764671E+04
        83  20  1.018136E+06  2.694426E+05  2.263170E+05  1.294297E+05 -1.825018E+03  6.189287E+04
        83  21  1.231995E+06  3.232314E+05  3.085184E+05  1.679962E+05  5.538540E+04  4.073823E+04
        83  22 -1.321553E+04 -1.377876E+05 -4.657387E+03 -1.866210E+05 -2.441869E+04  5.563112E+04
        83  23 -3.138472E+04 -1.205880E+05 -8.729220E+03 -1.630949E+05 -2.832129E+04  5.198125E+04
        83  24 -1.548287E+04 -1.528939E+05 -1.918527E+04 -1.810294E+05 -1.893321E+04  1.289413E+04
        83  25 -8.735194E+05 -4.511407E+05 -1.849284E+05 -4.223654E+05 -3.129001E+03  6.360379E+04
        83  26 -1.079782E+06 -5.105235E+05 -2.438385E+05 -4.551612E+05 -5.476883E+04  4.208829E+04
        83  27 -1.261406E+06 -6.288900E+05 -3.469877E+05 -5.294041E+05 -9.308608E+04 -1.488521E+04
        84   1 -8.909035E+04 -4.722123E+04 -4.185129E+04 -3.372082E+04 -9.207181E+03  3.300339E+03
        84   2 -5.440366E+04 -4.950629E+04 -3.203938E+04 -3.804119E+04 -1.454086E+03  1.098948E+04
        84   3 -1.913786E+04 -4.546431E+04 -2.569334E+04 -4.751290E+04  6.300728E+03  1.301283E+04
        84   4  1.898037E+05  2.146285E+04  2.270926E+04 -4.833588E+04  1.604512E+04  3.302722E+03
        84   5  1.883389E+05  7.739380E+03  1.147031E+04 -4.575986E+04  1.020143E+04  1.098984E+04
        84   6  1.898111E+05  2.701630E+03  6.206610E+03 -4.833477E+04  4.358873E+03  1.301235E+04
        84   7  4.687715E+05  9.014261E+04  8.726713E+04 -6.295756E+04  4.130868E+04  3.303916E+03
        84   8  4.311394E+05  6.498207E+04  5.497829E+04 -5.348164E+04  2.186138E+04  1.098990E+04
        84   9  3.988037E+05  5.086548E+04  3.810564E+04 -4.915693E+04  2.416391E+03  1.301187E+04
        84  10 -8.909045E+04 -4.722126E+04 -4.185147E+04 -3.372080E+04  8.331638E-10 -1.316357E-11
        84  11 -5.440370E+04 -4.950642E+04 -3.203962E+04 -3.804117E+04  1.503879E-09  1.980533E-10
        84  12 -1.913795E+04 -4.546450E+04 -2.569374E+04 -4.751297E+04 -2.530490E-09  7.816120E-10
        84  13  1.898034E+05  2.146277E+04  2.270876E+04 -4.833593E+04 -1.008310E-09  1.774209E-10
        84  14  1.883388E+05  7.739223E+03  1.146989E+04 -4.575995E+04 -2.607460E-09  4.035817E-10
        84  15  1.898110E+05  2.701444E+03  6.206256E+03 -4.833482E+04 -1.286336E-09  6.868540E-10
        84  16  4.687697E+05  9.014214E+04  8.726390E+04 -6.295767E+04 -8.359015E-11  2.848112E-10
        84  17  4.311388E+05  6.498182E+04  5.497717E+04 -5.348183E+04 -6.813200E-10  6.433427E-10
        84  18  3.988037E+05  5.086529E+04  3.810531E+04 -4.915695E+04 -3.959337E-11  8.155093E-10
        84  19 -8.909035E+04 -4.722123E+04 -4.185129E+04 -3.372082E+04  9.207181E+03 -3.300339E+03
        84  20 -5.440366E+04 -4.950629E+04 -3.203938E+04 -3.804119E+04  1.454086E+03 -1.098948E+04
        84  21 -1.913786E+04 -4.546431E+04 -2.569334E+04 -4.751290E+04 -6.300728E+03 -1.301283E+04
        84  22  1.898037E+05  2.146285E+04  2.270926E+04 -4.833588E+04 -1.604512E+04 -3.302722E+03
        84  23  1.883389E+05  7.739380E+03  1.147031E+04 -4.575986E+04 -1.020143E+04 -1.098984E+04
        84  24  1.898111E+05  2.701630E+03  6.206610E+03 -4.833477E+04 -4.358873E+03 -1.301235E+04
        84  25  4.687715E+05  9.014261E+04  8.726713E+04 -6.295756E+04 -4.130868E+04 -3.303916E+03
        84  26  4.311394E+05  6.498207E+04  5.497829E+04 -5.348164E+04 -2.186138E+04 -1.098990E+04
        84  27  3.988037E+05  5.086548E+04  3.810564E+04 -4.915693E+04 -2.416391E+03 -1.301187E+04
        85   1  2.243270E+03 -4.094562E+04 -2.293060E+04 -4.727482E+04  5.944159E+03  1.227956E+04
        85   2  3.714220E+04 -3.392854E+04 -1.844693E+04 -4.507989E+04  6.531788E+03  1.089931E+04
        85   3  7.210808E+04 -2.635306E+04 -1.420548E+04 -4.845791E+04  7.119366E+03  8.753258E+03
        85   4  1.892454E+05  1.962653E+03  4.628174E+03 -4.842873E+04  3.551305E+03  1.227916E+04
        85   5  1.890550E+05  6.388503E+02  2.496137E+03 -4.564233E+04  2.300630E+03  1.089905E+04
        85   6  1.892493E+05  1.924921E+02  1.398128E+03 -4.842874E+04  1.049873E+03  8.753250E+03
        85   7  3.762828E+05  4.486930E+04  3.218635E+04 -4.958301E+04  1.157760E+03  1.227876E+04
        85   8  3.409913E+05  3.520524E+04  2.343901E+04 -4.620491E+04 -1.931517E+03  1.089880E+04
        85   9  3.064046E+05  2.673748E+04  1.700176E+04 -4.839956E+04 -5.020711E+03  8.753242E+03
        85  10  2.243191E+03 -4.094579E+04 -2.293095E+04 -4.727487E+04 -1.853320E-09  1.003321E-09
        85  11  3.714213E+04 -3.392868E+04 -1.844723E+04 -4.507995E+04 -8.070524E-10  5.141104E-10
        85  12  7.210801E+04 -2.635315E+04 -1.420572E+04 -4.845796E+04 -2.348217E-09 -3.599778E-10
        85  13  1.892454E+05  1.962488E+03  4.627867E+03 -4.842877E+04 -2.079811E-09  9.593774E-10
        85  14  1.890550E+05  6.387213E+02  2.495904E+03 -4.564235E+04 -4.288026E-10  6.417884E-10
        85  15  1.892493E+05  1.924095E+02  1.397982E+03 -4.842875E+04 -1.290629E-09 -2.613174E-11
        85  16  3.762828E+05  4.486914E+04  3.218606E+04 -4.958302E+04  2.767762E-10  7.821752E-10
        85  17  3.409913E+05  3.520511E+04  2.343878E+04 -4.620489E+04  5.559189E-10  7.016619E-10
        85  18  3.064045E+05  2.673739E+04  1.700157E+04 -4.839953E+04 -5.538348E-11  3.271895E-10
        85  19  2.243270E+03 -4.094562E+04 -2.293060E+04 -4.727482E+04 -5.944159E+03 -1.227956E+04
        85  20  3.714220E+04 -3.392854E+04 -1.844693E+04 -4.507989E+04 -6.531788E+03 -1.089931E+04
        85  21  7.210808E+04 -2.635306E+04 -1.420548E+04 -4.845791E+04 -7.119366E+03 -8.753258E+03
        85  22  1.892454E+05  1.962653E+03  4.628174E+03 -4.842873E+04 -3.551305E+03 -1.227916E+04
        85  23  1.890550E+05  6.388503E+02  2.496137E+03 -4.564233E+04 -2.300630E+03 -1.089905E+04
        85  24  1.892493E+05  1.924921E+02  1.398128E+03 -4.842874E+04 -1.049873E+03 -8.753250E+03
        85  25  3.762828E+05  4.486930E+04  3.218635E+04 -4.958301E+04 -1.157760E+03 -1.227876E+04
        85  26  3.409913E+05  3.520524E+04  2.343901E+04 -4.620491E+04  1.931517E+03 -1.089880E+04
        85  27  3.064046E+05  2.673748E+04  1.700176E+04 -4.839956E+04  5.020711E+03 -8.753242E+03
        86   1  9.362925E+04 -2.148417E+04 -1.150789E+04 -4.841371E+04  6.974638E+03  7.246093E+03
        86   2  1.285449E+05 -1.367294E+04 -7.308147E+03 -4.562873E+04  6.929849E+03  4.640502E+03
        86   3  1.634784E+05 -5.821176E+03 -3.068893E+03 -4.847296E+04  6.884982E+03  1.931795E+03
        86   4  1.891780E+05  1.347193E+02  1.052964E+03 -4.844128E+04  8.442735E+02  7.246190E+03
        86   5  1.891487E+05  2.502270E+01  5.887423E+02 -4.562669E+04  5.518053E+02  4.640713E+03
        86   6  1.891795E+05 -1.001593E+00  3.360259E+02 -4.844129E+04  2.592654E+02  1.932123E+03
        86   7  2.847362E+05  2.175324E+04  1.361390E+04 -4.846885E+04 -5.286989E+03  7.246288E+03
        86   8  2.497564E+05  1.372285E+04  8.485763E+03 -4.562465E+04 -5.826831E+03  4.640924E+03
        86   9  2.148814E+05  5.819169E+03  3.741105E+03 -4.840961E+04 -6.366713E+03  1.932449E+03
        86  10  9.362918E+04 -2.148424E+04 -1.150808E+04 -4.841375E+04 -1.327730E-09 -5.925626E-10
        86  11  1.285449E+05 -1.367297E+04 -7.308278E+03 -4.562875E+04  6.803144E-10 -1.307502E-10
        86  12  1.634783E+05 -5.821193E+03 -3.068989E+03 -4.847297E+04 -1.522552E-09  7.033585E-10
        86  13  1.891780E+05  1.346627E+02  1.052864E+03 -4.844128E+04 -6.617732E-11 -4.230016E-10
        86  14  1.891487E+05  2.499949E+01  5.887013E+02 -4.562669E+04  5.435136E-10 -4.985156E-10
        86  15  1.891795E+05 -1.005620E+00  3.360187E+02 -4.844129E+04 -1.356610E-10  2.784567E-10
        86  16  2.847361E+05  2.175318E+04  1.361375E+04 -4.846881E+04  6.915367E-10 -2.403033E-10
        86  17  2.497564E+05  1.372282E+04  8.485658E+03 -4.562463E+04 -6.576542E-10 -8.544712E-10
        86  18  2.148813E+05  5.819154E+03  3.741022E+03 -4.840960E+04  1.558784E-09 -1.845285E-10
        86  19  9.362925E+04 -2.148417E+04 -1.150789E+04 -4.841371E+04 -6.974638E+03 -7.246093E+03
        86  20  1.285449E+05 -1.367294E+04 -7.308147E+03 -4.562873E+04 -6.929849E+03 -4.640502E+03
        86  21  1.634784E+05 -5.821176E+03 -3.068893E+03 -4.847296E+04 -6.884982E+03 -1.931795E+03
        86  22  1.891780E+05  1.347193E+02  1.052964E+03 -4.844128E+04 -8.442735E+02 -7.246190E+03
        86  23  1.891487E+05  2.502270E+01  5.887423E+02 -4.562669E+04 -5.518053E+02 -4.640713E+03
        86  24  1.891795E+05 -1.001593E+00  3.360259E+02 -4.844129E+04 -2.592654E+02 -1.932123E+03
        86  25  2.847362E+05  2.175324E+04  1.361390E+04 -4.846885E+04  5.286989E+03 -7.246288E+03
        86  26  2.497564E+05  1.372285E+04  8.485763E+03 -4.562465E+04  5.826831E+03 -4.640924E+03
        86  27  2.148814E+05  5.819169E+03  3.741105E+03 -4.840961E+04  6.366713E+03 -1.932449E+03
        87   1  1.850139E+05 -9.406146E+02 -2.824071E+02 -4.846372E+04  6.840790E+03  3.205386E+02
        87   2  2.199348E+05  6.918351E+03  4.011711E+03 -4.564038E+04  6.795627E+03 -2.448454E+03
        87   3  2.548647E+05  1.477930E+04  8.336109E+03 -4.845375E+04  6.750507E+03 -5.228579E+03
        87   4  1.891689E+05 -2.360489E+00  2.546579E+02 -4.844296E+04  2.069744E+02  3.208816E+02
        87   5  1.891626E+05 -7.816599E+00  1.456507E+02 -4.562460E+04  1.348528E+02 -2.448164E+03
        87   6  1.891682E+05 -6.741012E+00  8.534796E+01 -4.844297E+04  6.277536E+01 -5.228345E+03
        87   7  1.933241E+05  9.359165E+02  7.918881E+02 -4.842221E+04 -6.426884E+03  3.212243E+02
        87   8  1.583915E+05 -6.933999E+03 -3.720245E+03 -4.560882E+04 -6.525608E+03 -2.447875E+03
        87   9  1.234762E+05 -1.479293E+04 -8.165256E+03 -4.843218E+04 -6.624284E+03 -5.228112E+03
        87  10  1.850138E+05 -9.406272E+02 -2.824952E+02 -4.846373E+04  1.225122E-09  7.965920E-10
        87  11  2.199347E+05  6.918333E+03  4.011613E+03 -4.564036E+04  1.769436E-09 -1.397015E-10
        87  12  2.548646E+05  1.477925E+04  8.335972E+03 -4.845372E+04 -1.807981E-10 -1.346125E-09
        87  13  1.891689E+05 -2.360611E+00  2.546576E+02 -4.844296E+04  8.378434E-12  6.340263E-10
        87  14  1.891626E+05 -7.823041E+00  1.456394E+02 -4.562460E+04 -5.684330E-10  2.319359E-10
        87  15  1.891682E+05 -6.770369E+00  8.529658E+01 -4.844297E+04 -1.808798E-09 -8.671568E-10
        87  16  1.933240E+05  9.359053E+02  7.918104E+02 -4.842220E+04  9.723103E-10  4.765582E-10
        87  17  1.583915E+05 -6.934017E+03 -3.720336E+03 -4.560883E+04 -2.551430E-10  5.779052E-10
        87  18  1.234761E+05 -1.479297E+04 -8.165390E+03 -4.843221E+04  1.488553E-10 -3.802271E-10
        87  19  1.850139E+05 -9.406146E+02 -2.824071E+02 -4.846372E+04 -6.840790E+03 -3.205386E+02
        87  20  2.199348E+05  6.918351E+03  4.011711E+03 -4.564038E+04 -6.795627E+03  2.448454E+03
        87  21  2.548647E+05  1.477930E+04  8.336109E+03 -4.845375E+04 -6.750507E+03  5.228579E+03
        87  22  1.891689E+05 -2.360489E+00  2.546579E+02 -4.844296E+04 -2.069744E+02 -3.208816E+02
        87  23  1.891626E+05 -7.816599E+00  1.456507E+02 -4.562460E+04 -1.348528E+02  2.448164E+03
        87  24  1.891682E+05 -6.741012E+00  8.534796E+01 -4.844297E+04 -6.277536E+01  5.228345E+03
        87  25  1.933241E+05  9.359165E+02  7.918881E+02 -4.842221E+04  6.426884E+03 -3.212243E+02
        87  26  1.583915E+05 -6.933999E+03 -3.720245E+03 -4.560882E+04  6.525608E+03  2.447875E+03
        87  27  1.234762E+05 -1.479293E+04 -8.165256E+03 -4.843218E+04  6.624284E+03  5.228112E+03
        88   1  2.764056E+05  1.965632E+04  1.116586E+04 -4.845113E+04  6.736485E+03 -6.851024E+03
        88   2  3.113300E+05  2.751598E+04  1.553283E+04 -4.562796E+04  6.669787E+03 -9.626739E+03
        88   3  3.462684E+05  3.538376E+04  1.994581E+04 -4.844165E+04  6.603258E+03 -1.238310E+04
        88   4  1.891660E+05 -6.796556E+00  6.612235E+01 -4.844301E+04  4.905545E+01 -6.850872E+03
        88   5  1.891622E+05 -8.698265E+00  4.131337E+01 -4.562455E+04  2.864263E+01 -9.626807E+03
        88   6  1.891630E+05 -1.050215E+01  3.025765E+01 -4.844301E+04  8.403226E+00 -1.238339E+04
        88   7  1.019342E+05 -1.967020E+04 -1.103348E+04 -4.843489E+04 -6.637481E+03 -6.850720E+03
        88   8  6.700977E+04 -2.753396E+04 -1.545009E+04 -4.562114E+04 -6.611259E+03 -9.626876E+03
        88   9  3.208311E+04 -3.540575E+04 -1.988522E+04 -4.844437E+04 -6.584865E+03 -1.238368E+04
        88  10  2.764055E+05  1.965625E+04  1.116569E+04 -4.845109E+04 -2.855915E-09 -1.187280E-09
        88  11  3.113299E+05  2.751587E+04  1.553258E+04 -4.562791E+04  1.706771E-09  8.739962E-11
        88  12  3.462683E+05  3.538358E+04  1.994544E+04 -4.844158E+04  9.324831E-10  3.488273E-10
        88  13  1.891659E+05 -6.846961E+00  6.603413E+01 -4.844301E+04  2.290885E-09 -8.915411E-10
        88  14  1.891622E+05 -8.797791E+00  4.113920E+01 -4.562455E+04  6.829788E-10 -5.593485E-12
        88  15  1.891630E+05 -1.066683E+01  2.996945E+01 -4.844301E+04  4.341046E-10 -2.519002E-11
        88  16  1.019342E+05 -1.967026E+04 -1.103365E+04 -4.843492E+04  2.247702E-09 -5.943711E-10
        88  17  6.700970E+04 -2.753407E+04 -1.545035E+04 -4.562119E+04 -1.987099E-09 -1.766740E-10
        88  18  3.208302E+04 -3.540592E+04 -1.988559E+04 -4.844443E+04 -1.528885E-09 -4.368080E-10
        88  19  2.764056E+05  1.965632E+04  1.116586E+04 -4.845113E+04 -6.736485E+03  6.851024E+03
        88  20  3.113300E+05  2.751598E+04  1.553283E+04 -4.562796E+04 -6.669787E+03  9.626739E+03
        88  21  3.462684E+05  3.538376E+04  1.994581E+04 -4.844165E+04 -6.603258E+03  1.238310E+04
        88  22  1.891660E+05 -6.796556E+00  6.612235E+01 -4.844301E+04 -4.905545E+01  6.850872E+03
        88  23  1.891622E+05 -8.698265E+00  4.131337E+01 -4.562455E+04 -2.864263E+01  9.626807E+03
        88  24  1.891630E+05 -1.050215E+01  3.025765E+01 -4.844301E+04 -8.403226E+00  1.238339E+04
        88  25  1.019342E+05 -1.967020E+04 -1.103348E+04 -4.843489E+04  6.637481E+03  6.850720E+03
        88  26  6.700977E+04 -2.753396E+04 -1.545009E+04 -4.562114E+04  6.611259E+03  9.626876E+03
        88  27  3.208311E+04 -3.540575E+04 -1.988522E+04 -4.844437E+04  6.584865E+03  1.238368E+04
        89   1  3.678253E+05  4.026819E+04  2.282646E+04 -4.843650E+04  6.586137E+03 -1.398599E+04
        89   2  4.027307E+05  4.815621E+04  2.739202E+04 -4.561681E+04  6.192343E+03 -1.664857E+04
        89   3  4.377095E+05  5.611234E+04  3.223200E+04 -4.842416E+04  5.798805E+03 -1.915336E+04
        89   4  1.891622E+05 -1.229320E+01  2.838650E+01 -4.844084E+04  3.215028E+00 -1.398645E+04
        89   5  1.891562E+05 -1.603301E+01  3.062544E+01 -4.562726E+04 -1.177618E+01 -1.664940E+04
        89   6  1.891571E+05 -1.722524E+01  4.442148E+01 -4.844084E+04 -2.649675E+01 -1.915452E+04
        89   7  1.053196E+04 -4.029406E+04 -2.276966E+04 -4.844517E+04 -6.577906E+03 -1.398692E+04
        89   8 -2.437155E+04 -4.819013E+04 -2.733082E+04 -4.563771E+04 -6.213866E+03 -1.665023E+04
        89   9 -5.933210E+04 -5.614934E+04 -3.214336E+04 -4.845751E+04 -5.849580E+03 -1.915568E+04
        89  10  3.678252E+05  4.026797E+04  2.282601E+04 -4.843642E+04  9.865126E-10  2.660863E-10
        89  11  4.027306E+05  4.815590E+04  2.739142E+04 -4.561673E+04  2.024327E-09 -2.501278E-10
        89  12  4.377094E+05  5.611193E+04  3.223125E+04 -4.842407E+04 -1.031232E-10 -7.198590E-10
        89  13  1.891621E+05 -1.250329E+01  2.801886E+01 -4.844084E+04 -1.087560E-09 -1.529728E-10
        89  14  1.891561E+05 -1.633070E+01  3.010447E+01 -4.562726E+04 -1.668594E-09 -2.575839E-10
        89  15  1.891570E+05 -1.761926E+01  4.373195E+01 -4.844084E+04  9.256940E-10 -4.563396E-10
        89  16  1.053186E+04 -4.029429E+04 -2.277010E+04 -4.844525E+04  7.330265E-10 -5.887669E-10
        89  17 -2.437167E+04 -4.819044E+04 -2.733141E+04 -4.563780E+04  4.974242E-10 -3.287084E-10
        89  18 -5.933223E+04 -5.614974E+04 -3.214412E+04 -4.845760E+04  1.538061E-09 -3.041307E-11
        89  19  3.678253E+05  4.026819E+04  2.282646E+04 -4.843650E+04 -6.586137E+03  1.398599E+04
        89  20  4.027307E+05  4.815621E+04  2.739202E+04 -4.561681E+04 -6.192343E+03  1.664857E+04
        89  21  4.377095E+05  5.611234E+04  3.223200E+04 -4.842416E+04 -5.798805E+03  1.915336E+04
        89  22  1.891622E+05 -1.229320E+01  2.838650E+01 -4.844084E+04 -3.215028E+00  1.398645E+04
        89  23  1.891562E+05 -1.603301E+01  3.062544E+01 -4.562726E+04  1.177618E+01  1.664940E+04
        89  24  1.891571E+05 -1.722524E+01  4.442148E+01 -4.844084E+04  2.649675E+01  1.915452E+04
        89  25  1.053196E+04 -4.029406E+04 -2.276966E+04 -4.844517E+04  6.577906E+03  1.398692E+04
        89  26 -2.437155E+04 -4.819013E+04 -2.733082E+04 -4.563771E+04  6.213866E+03  1.665023E+04
        89  27 -5.933210E+04 -5.614934E+04 -3.214336E+04 -4.845751E+04  5.849580E+03  1.915568E+04
        90   1  4.593501E+05  6.106711E+04  3.539518E+04 -4.839702E+04  5.697984E+03 -2.059682E+04
        90   2  4.940577E+05  6.918981E+04  4.129391E+04 -4.563687E+04  2.839531E+03 -2.239882E+04
        90   3  5.292771E+05  7.783339E+04  4.918507E+04 -4.841588E+04 -1.910153E+01 -2.303009E+04
        90   4  1.891584E+05 -1.826499E+01  5.622526E+01 -4.842132E+04 -3.474227E+01 -2.059822E+04
        90   5  1.891436E+05 -8.152752E+00  9.474529E+01 -4.565166E+04 -8.155431E+01 -2.240031E+04
        90   6  1.891512E+05  3.493508E+01  1.740578E+02 -4.842133E+04 -1.283499E+02 -2.303136E+04
        90   7 -8.095861E+04 -6.110668E+04 -3.528307E+04 -4.844560E+04 -5.765094E+03 -2.059962E+04
        90   8 -1.156758E+05 -6.921012E+04 -4.110526E+04 -4.566644E+04 -3.001272E+03 -2.240180E+04
        90   9 -1.508580E+05 -7.776881E+04 -4.883877E+04 -4.842677E+04 -2.375409E+02 -2.303264E+04
        90  10  4.593500E+05  6.106664E+04  3.539432E+04 -4.839693E+04 -2.682840E-08 -6.747640E-11
        90  11  4.940575E+05  6.918927E+04  4.129295E+04 -4.563682E+04  9.656508E-09  3.006715E-09
        90  12  5.292770E+05  7.783282E+04  4.918407E+04 -4.841588E+04  4.390077E-08  6.195478E-09
        90  13  1.891583E+05 -1.872064E+01  5.542787E+01 -4.842132E+04 -2.550018E-12 -2.009736E-09
        90  14  1.891435E+05 -8.691620E+00  9.380226E+01 -4.565166E+04 -1.049039E-09 -6.894457E-09
        90  15  1.891511E+05  3.436542E+01  1.730609E+02 -4.842133E+04  4.984369E-11 -1.137685E-08
        90  16 -8.095876E+04 -6.110715E+04 -3.528393E+04 -4.844570E+04  2.643570E-08  5.755402E-10
        90  17 -1.156760E+05 -6.921066E+04 -4.110622E+04 -4.566649E+04 -9.748646E-09  3.331268E-09
        90  18 -1.508581E+05 -7.776938E+04 -4.883976E+04 -4.842677E+04 -4.083676E-08  6.136658E-09
        90  19  4.593501E+05  6.106711E+04  3.539518E+04 -4.839702E+04 -5.697984E+03  2.059682E+04
        90  20  4.940577E+05  6.918981E+04  4.129391E+04 -4.563687E+04 -2.839531E+03  2.239882E+04
        90  21  5.292771E+05  7.783339E+04  4.918507E+04 -4.841588E+04  1.910153E+01  2.303009E+04
        90  22  1.891584E+05 -1.826499E+01  5.622526E+01 -4.842132E+04  3.474227E+01  2.059822E+04
        90  23  1.891436E+05 -8.152752E+00  9.474529E+01 -4.565166E+04  8.155431E+01  2.240031E+04
        90  24  1.891512E+05  3.493508E+01  1.740578E+02 -4.842133E+04  1.283499E+02  2.303136E+04
        90  25 -8.095861E+04 -6.110668E+04 -3.528307E+04 -4.844560E+04  5.765094E+03  2.059962E+04
        90  26 -1.156758E+05 -6.921012E+04 -4.110526E+04 -4.566644E+04  3.001272E+03  2.240180E+04
        90  27 -1.508580E+05 -7.776881E+04 -4.883877E+04 -4.842677E+04  2.375409E+02  2.303264E+04
        91   1  5.514843E+05  8.331970E+04  5.438101E+04 -4.824950E+04 -7.388797E+02 -2.329036E+04
        91   2  5.846506E+05  9.323725E+04  7.002504E+04 -4.604907E+04 -2.176023E+04 -1.872197E+04
        91   3  6.215506E+05  1.070978E+05  1.003351E+05 -4.874140E+04 -4.278694E+04 -5.491753E+03
        91   4  1.891709E+05  5.917604E+01  2.331122E+02 -4.827758E+04 -1.587929E+02 -2.329158E+04
        91   5  1.891047E+05  2.448890E+02  4.276492E+02 -4.583138E+04 -3.744695E+02 -1.871790E+04
        91   6  1.891620E+05  7.643634E+02  8.477437E+02 -4.827773E+04 -5.939763E+02 -5.479873E+03
        91   7 -1.730108E+05 -8.320754E+04 -5.391732E+04 -4.830565E+04  4.209693E+02 -2.329280E+04
        91   8 -2.062874E+05 -9.275577E+04 -6.917372E+04 -4.561384E+04  2.099808E+04 -1.871382E+04
        91   9 -2.430499E+05 -1.055811E+05 -9.864530E+04 -4.781439E+04  4.156986E+04 -5.467927E+03
        91  10  5.514842E+05  8.331911E+04  5.437999E+04 -4.824951E+04  2.795518E-08  6.383261E-09
        91  11  5.846500E+05  9.323674E+04  7.002349E+04 -4.604940E+04 -6.352785E-09  3.335922E-09
        91  12  6.215486E+05  1.070972E+05  1.003316E+05 -4.874159E+04 -4.011452E-08  7.734555E-10
        91  13  1.891708E+05  5.859343E+01  2.320926E+02 -4.827758E+04 -1.924555E-10 -1.187563E-08
        91  14  1.891046E+05  2.445127E+02  4.269905E+02 -4.583139E+04  2.526559E-10 -5.105647E-09
        91  15  1.891620E+05  7.643310E+02  8.476866E+02 -4.827774E+04  3.167019E-11 -1.161536E-09
        91  16 -1.730109E+05 -8.320812E+04 -5.391834E+04 -4.830564E+04 -2.567578E-08  6.471620E-09
        91  17 -2.062879E+05 -9.275626E+04 -6.917521E+04 -4.561352E+04  5.980454E-09  4.715618E-09
        91  18 -2.430518E+05 -1.055816E+05 -9.864860E+04 -4.781421E+04  4.017083E-08  8.158324E-10
        91  19  5.514843E+05  8.331970E+04  5.438101E+04 -4.824950E+04  7.388797E+02  2.329036E+04
        91  20  5.846506E+05  9.323725E+04  7.002504E+04 -4.604907E+04  2.176023E+04  1.872197E+04
        91  21  6.215506E+05  1.070978E+05  1.003351E+05 -4.874140E+04  4.278694E+04  5.491753E+03
        91  22  1.891709E+05  5.917604E+01  2.331122E+02 -4.827758E+04  1.587929E+02  2.329158E+04
        91  23  1.891047E+05  2.448890E+02  4.276492E+02 -4.583138E+04  3.744695E+02  1.871790E+04
        91  24  1.891620E+05  7.643634E+02  8.477437E+02 -4.827773E+04  5.939763E+02  5.479873E+03
        91  25 -1.730108E+05 -8.320754E+04 -5.391732E+04 -4.830565E+04 -4.209693E+02  2.329280E+04
        91  26 -2.062874E+05 -9.275577E+04 -6.917372E+04 -4.561384E+04 -2.099808E+04  1.871382E+04
        91  27 -2.430499E+05 -1.055811E+05 -9.864530E+04 -4.781439E+04 -4.156986E+04  5.467927E+03
        92   1  8.858303E+04  4.391712E+05  8.494629E+04 -1.496593E+05  3.089949E+03  2.000615E+04
        92   2  5.819755E+04  3.218939E+05  4.848936E+04 -1.401797E+05  8.619534E+03  2.196768E+03
        92   3  3.065249E+04  2.076512E+05  2.432971E+04 -1.500446E+05  6.208243E+03 -1.561053E+04
        92   4 -6.796496E+02  7.840685E+04 -7.152305E+02 -1.499932E+05  3.099266E+03 -1.190439E+03
        92   5 -1.453425E+02  7.844279E+04  1.676627E+02 -1.403205E+05  8.621399E+03 -1.265569E+03
        92   6  1.534309E+02  7.842545E+04  1.038281E+03 -1.499928E+05  6.201202E+03 -1.341705E+03
        92   7 -8.995146E+04 -2.822371E+05 -8.638414E+04 -1.503268E+05  3.108610E+03 -2.237478E+04
        92   8 -5.849184E+04 -1.649517E+05 -4.815693E+04 -1.404612E+05  8.623266E+03 -4.726577E+03
        92   9 -3.034645E+04 -5.078359E+04 -2.225303E+04 -1.499411E+05  6.194162E+03  1.292423E+04
        92  10  8.858292E+04  4.391708E+05  8.494552E+04 -1.496593E+05  3.964870E-10  4.819479E-10
        92  11  5.819747E+04  3.218939E+05  4.848921E+04 -1.401798E+05 -7.738775E-10 -3.665279E-08
        92  12  3.065238E+04  2.076509E+05  2.432918E+04 -1.500445E+05 -3.125234E-09 -6.990203E-08
        92  13 -6.796603E+02  7.840685E+04 -7.152512E+02 -1.499932E+05  3.183483E-09 -2.095514E-11
        92  14 -1.454227E+02  7.844277E+04  1.675200E+02 -1.403205E+05  6.875025E-09 -1.556490E-10
        92  15  1.533891E+02  7.842543E+04  1.038205E+03 -1.499928E+05  1.458908E-08  9.597824E-12
        92  16 -8.995160E+04 -2.822377E+05 -8.638510E+04 -1.503268E+05 -6.839688E-10 -2.938809E-10
        92  17 -5.849193E+04 -1.649517E+05 -4.815711E+04 -1.404612E+05 -6.207268E-10  3.675529E-08
        92  18 -3.034654E+04 -5.078378E+04 -2.225342E+04 -1.499412E+05 -5.151033E-09  6.968925E-08
        92  19  8.858303E+04  4.391712E+05  8.494629E+04 -1.496593E+05 -3.089949E+03 -2.000615E+04
        92  20  5.819755E+04  3.218939E+05  4.848936E+04 -1.401797E+05 -8.619534E+03 -2.196768E+03
        92  21  3.065249E+04  2.076512E+05  2.432971E+04 -1.500446E+05 -6.208243E+03  1.561053E+04
        92  22 -6.796496E+02  7.840685E+04 -7.152305E+02 -1.499932E+05 -3.099266E+03  1.190439E+03
        92  23 -1.453425E+02  7.844279E+04  1.676627E+02 -1.403205E+05 -8.621399E+03  1.265569E+03
        92  24  1.534309E+02  7.842545E+04  1.038281E+03 -1.499928E+05 -6.201202E+03  1.341705E+03
        92  25 -8.995146E+04 -2.822371E+05 -8.638414E+04 -1.503268E+05 -3.108610E+03  2.237478E+04
        92  26 -5.849184E+04 -1.649517E+05 -4.815693E+04 -1.404612E+05 -8.623266E+03  4.726577E+03
        92  27 -3.034645E+04 -5.078359E+04 -2.225303E+04 -1.499411E+05 -6.194162E+03 -1.292423E+04
        93   1  1.376298E+04  1.351703E+05  1.266812E+04 -1.502005E+05  2.108875E+03 -1.607338E+04
        93   2 -1.279826E+04  1.930389E+04 -5.497863E+03 -1.396100E+05 -4.237466E+03 -1.694229E+04
        93   3 -3.843829E+04 -9.621479E+04 -2.287128E+04 -1.488602E+05 -1.028094E+04 -1.781077E+04
        93   4  2.175909E+02  7.854011E+04  1.564467E+03 -1.501030E+05  2.101505E+03 -1.568065E+03
        93   5  7.196451E+02  7.831193E+04  3.083264E+03 -1.401823E+05 -4.244226E+03 -3.114451E+03
        93   6  2.260847E+03  7.853537E+04  5.864299E+03 -1.501021E+05 -1.028712E+04 -4.660561E+03
        93   7 -1.332788E+04  2.191345E+04 -9.538549E+03 -1.500056E+05  2.094140E+03  1.293596E+04
        93   8  1.423749E+04  1.373239E+05  1.166505E+04 -1.407547E+05 -4.251010E+03  1.071464E+04
        93   9  4.295851E+04  2.533161E+05  3.459964E+04 -1.513444E+05 -1.029335E+04  8.493222E+03
        93  10  1.376291E+04  1.351700E+05  1.266762E+04 -1.502005E+05 -3.019306E-09  7.736714E-09
        93  11 -1.279835E+04  1.930358E+04 -5.498436E+03 -1.396100E+05  2.266648E-09  4.142093E-08
        93  12 -3.843849E+04 -9.621516E+04 -2.287207E+04 -1.488604E+05 -1.050282E-09  7.050131E-08
        93  13  2.175855E+02  7.854010E+04  1.564454E+03 -1.501030E+05  1.470216E-08 -1.510823E-11
        93  14  7.196232E+02  7.831191E+04  3.083212E+03 -1.401823E+05  1.034437E-08 -1.523620E-10
        93  15  2.260728E+03  7.853532E+04  5.864059E+03 -1.501022E+05  2.415407E-09  3.407495E-11
        93  16 -1.332793E+04  2.191326E+04 -9.538872E+03 -1.500056E+05 -3.019989E-09 -7.509266E-09
        93  17  1.423744E+04  1.373238E+05  1.166480E+04 -1.407547E+05 -1.494037E-09 -4.132767E-08
        93  18  4.295838E+04  2.533160E+05  3.459930E+04 -1.513444E+05  1.155055E-09 -7.069112E-08
        93  19  1.376298E+04  1.351703E+05  1.266812E+04 -1.502005E+05 -2.108875E+03  1.607338E+04
        93  20 -1.279826E+04  1.930389E+04 -5.497863E+03 -1.396100E+05  4.237466E+03  1.694229E+04
        93  21 -3.843829E+04 -9.621479E+04 -2.287128E+04 -1.488602E+05  1.028094E+04  1.781077E+04
        93  22  2.175909E+02  7.854011E+04  1.564467E+03 -1.501030E+05 -2.101505E+03  1.568065E+03
        93  23  7.196451E+02  7.831193E+04  3.083264E+03 -1.401823E+05  4.244226E+03  3.114451E+03
        93  24  2.260847E+03  7.853537E+04  5.864299E+03 -1.501021E+05  1.028712E+04  4.660561E+03
        93  25 -1.332788E+04  2.191345E+04 -9.538549E+03 -1.500056E+05 -2.094140E+03 -1.293596E+04
        93  26  1.423749E+04  1.373239E+05  1.166505E+04 -1.407547E+05  4.251010E+03 -1.071464E+04
        93  27  4.295851E+04  2.533161E+05  3.459964E+04 -1.513444E+05  1.029335E+04 -8.493222E+03
        94   1 -5.482371E+04 -1.681521E+05 -3.349498E+04 -1.494183E+05 -1.409395E+04 -1.849775E+04
        94   2 -7.688199E+04 -2.838686E+05 -5.440824E+04 -1.308630E+05 -1.465142E+04 -2.770811E+03
        94   3 -9.094559E+04 -3.996168E+05 -8.356398E+04 -1.314571E+05 -4.818743E+03  1.295369E+04
        94   4  2.948210E+03  7.931325E+04  7.881286E+03 -1.499483E+05 -1.409952E+04 -5.681329E+03
        94   5  9.174640E+03  7.731035E+04  1.460698E+04 -1.403704E+05 -1.464633E+04 -1.313825E+04
        94   6  2.741801E+04  7.928464E+04  2.919005E+04 -1.499396E+05 -4.806259E+03 -2.059441E+04
        94   7  6.071702E+04  3.268394E+05  4.925628E+04 -1.504786E+05 -1.410510E+04  7.140035E+03
        94   8  9.522398E+04  4.386155E+05  8.361672E+04 -1.498835E+05 -1.464093E+04 -2.351157E+04
        94   9  1.457671E+05  5.584003E+05  1.419327E+05 -1.684363E+05 -4.791784E+03 -5.416825E+04
        94  10 -5.482402E+04 -1.681526E+05 -3.349600E+04 -1.494185E+05 -1.599226E-09  7.232576E-08
        94  11 -7.688223E+04 -2.838687E+05 -5.440866E+04 -1.308630E+05 -2.665695E-09  4.897230E-09
        94  12 -9.094566E+04 -3.996170E+05 -8.356434E+04 -1.314571E+05 -7.080472E-10 -6.201088E-08
        94  13  2.947987E+03  7.931316E+04  7.880852E+03 -1.499484E+05 -1.607065E-09 -1.264569E-11
        94  14  9.174364E+03  7.731011E+04  1.460625E+04 -1.403706E+05 -3.417199E-10 -9.927144E-11
        94  15  2.741787E+04  7.928418E+04  2.918921E+04 -1.499397E+05  9.337298E-10  1.976823E-11
        94  16  6.071680E+04  3.268393E+05  4.925581E+04 -1.504785E+05  1.442605E-09 -7.203648E-08
        94  17  9.522360E+04  4.386148E+05  8.361528E+04 -1.498838E+05 -1.398832E-09 -4.708541E-09
        94  18  1.457663E+05  5.583972E+05  1.419272E+05 -1.684366E+05 -9.061514E-10  6.202512E-08
        94  19 -5.482371E+04 -1.681521E+05 -3.349498E+04 -1.494183E+05  1.409395E+04  1.849775E+04
        94  20 -7.688199E+04 -2.838686E+05 -5.440824E+04 -1.308630E+05  1.465142E+04  2.770811E+03
        94  21 -9.094559E+04 -3.996168E+05 -8.356398E+04 -1.314571E+05  4.818743E+03 -1.295369E+04
        94  22  2.948210E+03  7.931325E+04  7.881286E+03 -1.499483E+05  1.409952E+04  5.681329E+03
        94  23  9.174640E+03  7.731035E+04  1.460698E+04 -1.403704E+05  1.464633E+04  1.313825E+04
        94  24  2.741801E+04  7.928464E+04  2.919005E+04 -1.499396E+05  4.806259E+03  2.059441E+04
        94  25  6.071702E+04  3.268394E+05  4.925628E+04 -1.504786E+05  1.410510E+04 -7.140035E+03
        94  26  9.522398E+04  4.386155E+05  8.361672E+04 -1.498835E+05  1.464093E+04  2.351157E+04
        94  27  1.457671E+05  5.584003E+05  1.419327E+05 -1.684363E+05  4.791784E+03  5.416825E+04
        95   1 -1.817143E+05 -1.034820E+05 -6.660111E+04 -7.575961E+04 -3.197296E+04 -1.018697E+04
        95   2 -1.701501E+05 -6.301939E+04 -3.853732E+04 -7.071312E+04 -2.005219E+04 -1.738954E+03
        95   3 -1.663948E+05 -4.813828E+04 -2.658446E+04 -6.300146E+04 -6.991734E+03  3.673151E+03
        95   4 -8.577525E+04 -5.001571E+04 -3.823865E+04 -3.155653E+04 -2.523029E+04 -7.658413E+03
        95   5 -8.017462E+04 -2.270103E+04 -1.734810E+04 -3.848938E+04 -1.740123E+04 -7.447975E+02
        95   6 -8.157112E+04 -2.015591E+04 -9.325337E+03 -4.275785E+04 -8.432751E+03  3.132553E+03
        95   7  1.017234E+04  3.454409E+03 -9.877237E+03  1.265323E+04 -1.848658E+04 -5.128989E+03
        95   8  9.808796E+03  1.761897E+04  3.840489E+03 -6.261096E+03 -1.474987E+04  2.495877E+02
        95   9  3.260344E+03  7.826891E+03  7.933553E+03 -2.251173E+04 -9.873988E+03  2.591891E+03
        95  10 -1.817154E+05 -1.034824E+05 -6.660322E+04 -7.575987E+04  1.779232E-09  1.859709E-10
        95  11 -1.701505E+05 -6.301950E+04 -3.853809E+04 -7.071315E+04 -1.449534E-09 -1.572558E-10
        95  12 -1.663948E+05 -4.813831E+04 -2.658458E+04 -6.300144E+04 -1.785257E-09 -4.043497E-10
        95  13 -8.577595E+04 -5.001594E+04 -3.823996E+04 -3.155669E+04 -9.749127E-10 -1.742501E-10
        95  14 -8.017495E+04 -2.270111E+04 -1.734867E+04 -3.848939E+04  1.706074E-09 -4.617489E-10
        95  15 -8.157119E+04 -2.015594E+04 -9.325489E+03 -4.275783E+04 -1.584643E-09 -5.064188E-10
        95  16  1.017197E+04  3.454289E+03 -9.877928E+03  1.265316E+04 -5.626601E-10 -5.167735E-10
        95  17  9.808563E+03  1.761892E+04  3.840080E+03 -6.261093E+03 -1.459202E-09 -7.805148E-10
        95  18  3.260238E+03  7.826857E+03  7.933358E+03 -2.251171E+04 -1.139099E-10 -1.799946E-10
        95  19 -1.817143E+05 -1.034820E+05 -6.660111E+04 -7.575961E+04  3.197296E+04  1.018697E+04
        95  20 -1.701501E+05 -6.301939E+04 -3.853732E+04 -7.071312E+04  2.005219E+04  1.738954E+03
        95  21 -1.663948E+05 -4.813828E+04 -2.658446E+04 -6.300146E+04  6.991734E+03 -3.673151E+03
        95  22 -8.577525E+04 -5.001571E+04 -3.823865E+04 -3.155653E+04  2.523029E+04  7.658413E+03
        95  23 -8.017462E+04 -2.270103E+04 -1.734810E+04 -3.848938E+04  1.740123E+04  7.447975E+02
        95  24 -8.157112E+04 -2.015591E+04 -9.325337E+03 -4.275785E+04  8.432751E+03 -3.132553E+03
        95  25  1.017234E+04  3.454409E+03 -9.877237E+03  1.265323E+04  1.848658E+04  5.128989E+03
        95  26  9.808796E+03  1.761897E+04  3.840489E+03 -6.261096E+03  1.474987E+04 -2.495877E+02
        95  27  3.260344E+03  7.826891E+03  7.933553E+03 -2.251173E+04  9.873988E+03 -2.591891E+03
        96   1 -1.536175E+05 -4.865093E+04 -2.251497E+04 -6.239238E+04 -6.322063E+03  3.235865E+03
        96   2 -1.417994E+05 -4.124067E+04 -1.624552E+04 -5.733866E+04 -3.904866E+03  3.358417E+03
        96   3 -1.279826E+05 -3.752023E+04 -1.185402E+04 -5.515969E+04 -1.415931E+03  3.289683E+03
        96   4 -8.040290E+04 -2.144658E+04 -7.153532E+03 -4.174275E+04 -7.120206E+03  2.936413E+03
        96   5 -8.134585E+04 -1.904650E+04 -3.778148E+03 -4.052304E+04 -4.960660E+03  2.962357E+03
        96   6 -8.023909E+04 -2.028516E+04 -2.076411E+03 -4.217820E+04 -2.729410E+03  2.797008E+03
        96   7 -7.183418E+03  5.758038E+03  8.207456E+03 -2.109101E+04 -7.918444E+03  2.636924E+03
        96   8 -2.088857E+04  3.147984E+03  8.689035E+03 -2.370591E+04 -6.016565E+03  2.566255E+03
        96   9 -3.249285E+04 -3.049769E+03  7.701188E+03 -2.919568E+04 -4.043009E+03  2.304290E+03
        96  10 -1.536175E+05 -4.865095E+04 -2.251506E+04 -6.239237E+04 -9.890147E-10 -4.204760E-10
        96  11 -1.417994E+05 -4.124068E+04 -1.624557E+04 -5.733865E+04 -2.805334E-09  4.529110E-10
        96  12 -1.279826E+05 -3.752024E+04 -1.185404E+04 -5.515969E+04  2.599220E-09  4.411528E-10
        96  13 -8.040296E+04 -2.144660E+04 -7.153643E+03 -4.174273E+04 -2.219610E-09  3.910300E-10
        96  14 -8.134588E+04 -1.904651E+04 -3.778211E+03 -4.052303E+04 -2.330009E-09  4.047515E-10
        96  15 -8.023910E+04 -2.028517E+04 -2.076440E+03 -4.217819E+04  9.354689E-10  3.601183E-10
        96  16 -7.183487E+03  5.758014E+03  8.207325E+03 -2.109099E+04 -1.360308E-10  5.288751E-10
        96  17 -2.088861E+04  3.147968E+03  8.688955E+03 -2.370590E+04 -8.450539E-10  7.697019E-10
        96  18 -3.249287E+04 -3.049779E+03  7.701147E+03 -2.919567E+04 -2.848905E-09  2.190153E-10
        96  19 -1.536175E+05 -4.865093E+04 -2.251497E+04 -6.239238E+04  6.322063E+03 -3.235865E+03
        96  20 -1.417994E+05 -4.124067E+04 -1.624552E+04 -5.733866E+04  3.904866E+03 -3.358417E+03
        96  21 -1.279826E+05 -3.752023E+04 -1.185402E+04 -5.515969E+04  1.415931E+03 -3.289683E+03
        96  22 -8.040290E+04 -2.144658E+04 -7.153532E+03 -4.174275E+04  7.120206E+03 -2.936413E+03
        96  23 -8.134585E+04 -1.904650E+04 -3.778148E+03 -4.052304E+04  4.960660E+03 -2.962357E+03
        96  24 -8.023909E+04 -2.028516E+04 -2.076411E+03 -4.217820E+04  2.729410E+03 -2.797008E+03
        96  25 -7.183418E+03  5.758038E+03  8.207456E+03 -2.109101E+04  7.918444E+03 -2.636924E+03
        96  26 -2.088857E+04  3.147984E+03  8.689035E+03 -2.370591E+04  6.016565E+03 -2.566255E+03
        96  27 -3.249285E+04 -3.049769E+03  7.701188E+03 -2.919568E+04  4.043009E+03 -2.304290E+03
        97   1 -1.188259E+05 -3.440445E+04 -9.436979E+03 -5.276450E+04 -9.519202E+02  2.818211E+03
        97   2 -1.071494E+05 -2.831694E+04 -6.108173E+03 -4.766370E+04 -1.502749E+02  2.034802E+03
        97   3 -9.288396E+04 -2.494470E+04 -3.122083E+03 -4.562290E+04  6.558701E+02  1.239296E+03
        97   4 -8.015460E+04 -2.033738E+04 -1.563802E+03 -4.212238E+04 -2.225021E+03  2.340698E+03
        97   5 -8.144884E+04 -1.896970E+04 -8.600488E+02 -4.059669E+04 -1.439653E+03  1.551203E+03
        97   6 -8.015108E+04 -2.031403E+04 -4.860805E+02 -4.213102E+04 -6.497974E+02  7.496084E+02
        97   7 -4.148174E+04 -6.270181E+03  6.309302E+03 -3.147964E+04 -3.498207E+03  1.863153E+03
        97   8 -5.574771E+04 -9.622448E+03  4.388019E+03 -3.352943E+04 -2.729083E+03  1.067584E+03
        97   9 -6.741813E+04 -1.568339E+04  2.149892E+03 -3.863910E+04 -1.955483E+03  2.599144E+02
        97  10 -1.188259E+05 -3.440446E+04 -9.436996E+03 -5.276450E+04  2.159807E-09  7.519589E-11
        97  11 -1.071494E+05 -2.831695E+04 -6.108181E+03 -4.766370E+04  1.902985E-09 -6.300280E-11
        97  12 -9.288396E+04 -2.494471E+04 -3.122087E+03 -4.562290E+04 -6.922968E-10  1.668334E-10
        97  13 -8.015461E+04 -2.033738E+04 -1.563822E+03 -4.212237E+04  1.162900E-09 -1.586872E-10
        97  14 -8.144885E+04 -1.896971E+04 -8.600572E+02 -4.059669E+04 -2.025964E-09 -3.966305E-10
        97  15 -8.015108E+04 -2.031403E+04 -4.860823E+02 -4.213102E+04 -2.725062E-09 -7.772244E-10
        97  16 -4.148175E+04 -6.270188E+03  6.309273E+03 -3.147964E+04  5.168403E-10 -1.377475E-10
        97  17 -5.574772E+04 -9.622451E+03  4.388003E+03 -3.352943E+04 -1.365553E-09 -8.619189E-10
        97  18 -6.741814E+04 -1.568339E+04  2.149885E+03 -3.863910E+04 -1.006103E-09 -1.594081E-09
        97  19 -1.188259E+05 -3.440445E+04 -9.436979E+03 -5.276450E+04  9.519202E+02 -2.818211E+03
        97  20 -1.071494E+05 -2.831694E+04 -6.108173E+03 -4.766370E+04  1.502749E+02 -2.034802E+03
        97  21 -9.288396E+04 -2.494470E+04 -3.122083E+03 -4.562290E+04 -6.558701E+02 -1.239296E+03
        97  22 -8.015460E+04 -2.033738E+04 -1.563802E+03 -4.212238E+04  2.225021E+03 -2.340698E+03
        97  23 -8.144884E+04 -1.896970E+04 -8.600488E+02 -4.059669E+04  1.439653E+03 -1.551203E+03
        97  24 -8.015108E+04 -2.031403E+04 -4.860805E+02 -4.213102E+04  6.497974E+02 -7.496084E+02
        97  25 -4.148174E+04 -6.270181E+03  6.309302E+03 -3.147964E+04  3.498207E+03 -1.863153E+03
        97  26 -5.574771E+04 -9.622448E+03  4.388019E+03 -3.352943E+04  2.729083E+03 -1.067584E+03
        97  27 -6.741813E+04 -1.568339E+04  2.149892E+03 -3.863910E+04  1.955483E+03 -2.599144E+02
        98   1 -8.391617E+04 -2.166920E+04 -1.105059E+03 -4.315327E+04  9.362258E+02  7.015680E+02
        98   2 -7.227641E+04 -1.561474E+04  1.642402E+03 -3.804141E+04  1.416811E+03 -2.211571E+02
        98   3 -5.798882E+04 -1.222807E+04  4.301757E+03 -3.598577E+04  1.897650E+03 -1.144539E+03
        98   4 -8.014033E+04 -2.031556E+04 -3.743808E+02 -4.212595E+04 -3.669253E+02  2.128280E+02
        98   5 -8.146441E+04 -1.898364E+04 -2.350510E+02 -4.059703E+04  1.127501E+02 -7.102484E+02
        98   6 -8.014092E+04 -2.031946E+04 -1.831950E+02 -4.212451E+04  5.926747E+02 -1.633980E+03
        98   7 -7.636445E+04 -1.896191E+04  3.563124E+02 -4.109863E+04 -1.670095E+03 -2.759190E+02
        98   8 -9.065235E+04 -2.235254E+04 -2.112512E+03 -4.315263E+04 -1.191296E+03 -1.199334E+03
        98   9 -1.022925E+05 -2.841082E+04 -4.668166E+03 -4.826304E+04 -7.122507E+02 -2.123403E+03
        98  10 -8.391617E+04 -2.166920E+04 -1.105061E+03 -4.315327E+04  1.641783E-10 -1.656936E-10
        98  11 -7.227642E+04 -1.561474E+04  1.642398E+03 -3.804141E+04  1.475914E-10 -8.816523E-10
        98  12 -5.798883E+04 -1.222807E+04  4.301747E+03 -3.598577E+04  2.120060E-09 -5.031199E-10
        98  13 -8.014033E+04 -2.031556E+04 -3.743811E+02 -4.212595E+04  2.966569E-10 -8.999296E-10
        98  14 -8.146441E+04 -1.898364E+04 -2.350520E+02 -4.059703E+04  4.930793E-10 -1.384714E-09
        98  15 -8.014092E+04 -2.031947E+04 -1.832007E+02 -4.212450E+04  1.525096E-09 -1.837676E-09
        98  16 -7.636445E+04 -1.896191E+04  3.563070E+02 -4.109863E+04 -6.446994E-10 -1.677985E-09
        98  17 -9.065236E+04 -2.235254E+04 -2.112517E+03 -4.315264E+04 -2.031102E-09 -1.698076E-09
        98  18 -1.022925E+05 -2.841082E+04 -4.668175E+03 -4.826304E+04 -6.583028E-10 -3.146958E-09
        98  19 -8.391617E+04 -2.166920E+04 -1.105059E+03 -4.315327E+04 -9.362258E+02 -7.015680E+02
        98  20 -7.227641E+04 -1.561474E+04  1.642402E+03 -3.804141E+04 -1.416811E+03  2.211571E+02
        98  21 -5.798882E+04 -1.222807E+04  4.301757E+03 -3.598577E+04 -1.897650E+03  1.144539E+03
        98  22 -8.014033E+04 -2.031556E+04 -3.743808E+02 -4.212595E+04  3.669253E+02 -2.128280E+02
        98  23 -8.146441E+04 -1.898364E+04 -2.350510E+02 -4.059703E+04 -1.127501E+02  7.102484E+02
        98  24 -8.014092E+04 -2.031946E+04 -1.831950E+02 -4.212451E+04 -5.926747E+02  1.633980E+03
        98  25 -7.636445E+04 -1.896191E+04  3.563124E+02 -4.109863E+04  1.670095E+03  2.759190E+02
        98  26 -9.065235E+04 -2.235254E+04 -2.112512E+03 -4.315263E+04  1.191296E+03  1.199334E+03
        98  27 -1.022925E+05 -2.841082E+04 -4.668166E+03 -4.826304E+04  7.122507E+02  2.123403E+03
        99   1 -4.903891E+04 -8.945904E+03  6.207709E+03 -3.351485E+04  2.139540E+03 -1.696480E+03
        99   2 -3.740092E+04 -2.888712E+03  8.767149E+03 -2.840421E+04  2.615339E+03 -2.621476E+03
        99   3 -2.311487E+04  5.013357E+02  1.124219E+04 -2.634929E+04  3.090734E+03 -3.545303E+03
        99   4 -8.014114E+04 -2.031953E+04 -1.823042E+02 -4.212440E+04  8.345367E+02 -2.185942E+03
        99   5 -8.146486E+04 -1.898463E+04 -2.299836E+02 -4.059701E+04  1.311881E+03 -3.110387E+03
        99   6 -8.014101E+04 -2.031717E+04 -3.632806E+02 -4.212538E+04  1.788822E+03 -4.033667E+03
        99   7 -1.112421E+05 -3.169297E+04 -6.572294E+03 -5.073349E+04 -4.703867E+02 -2.675374E+03
        99   8 -1.255268E+05 -3.508039E+04 -9.227208E+03 -5.278902E+04  8.522649E+00 -3.599262E+03
        99   9 -1.371643E+05 -4.113557E+04 -1.196903E+04 -5.790025E+04  4.870283E+02 -4.521987E+03
        99  10 -4.903892E+04 -8.945908E+03  6.207695E+03 -3.351485E+04  2.059473E-09  7.249767E-11
        99  11 -3.740093E+04 -2.888721E+03  8.767124E+03 -2.840421E+04  1.343881E-08  5.660624E-09
        99  12 -2.311489E+04  5.013196E+02  1.124214E+04 -2.634928E+04  2.536767E-08  8.855477E-09
        99  13 -8.014114E+04 -2.031953E+04 -1.823144E+02 -4.212440E+04  4.684103E-10 -1.021580E-09
        99  14 -8.146487E+04 -1.898464E+04 -2.300050E+02 -4.059701E+04  3.578065E-09  3.650115E-09
        99  15 -8.014102E+04 -2.031719E+04 -3.633172E+02 -4.212537E+04  4.790052E-09  1.064766E-08
        99  16 -1.112421E+05 -3.169298E+04 -6.572307E+03 -5.073349E+04 -1.078773E-09 -4.343417E-09
        99  17 -1.255268E+05 -3.508040E+04 -9.227233E+03 -5.278902E+04 -1.277932E-08 -7.834612E-09
        99  18 -1.371643E+05 -4.113559E+04 -1.196907E+04 -5.790025E+04 -1.386764E-08 -5.379400E-09
        99  19 -4.903891E+04 -8.945904E+03  6.207709E+03 -3.351485E+04 -2.139540E+03  1.696480E+03
        99  20 -3.740092E+04 -2.888712E+03  8.767149E+03 -2.840421E+04 -2.615339E+03  2.621476E+03
        99  21 -2.311487E+04  5.013357E+02  1.124219E+04 -2.634929E+04 -3.090734E+03  3.545303E+03
        99  22 -8.014114E+04 -2.031953E+04 -1.823042E+02 -4.212440E+04 -8.345367E+02  2.185942E+03
        99  23 -8.146486E+04 -1.898463E+04 -2.299836E+02 -4.059701E+04 -1.311881E+03  3.110387E+03
        99  24 -8.014101E+04 -2.031717E+04 -3.632806E+02 -4.212538E+04 -1.788822E+03  4.033667E+03
        99  25 -1.112421E+05 -3.169297E+04 -6.572294E+03 -5.073349E+04  4.703867E+02  2.675374E+03
        99  26 -1.255268E+05 -3.508039E+04 -9.227208E+03 -5.278902E+04 -8.522649E+00  3.599262E+03
        99  27 -1.371643E+05 -4.113557E+04 -1.196903E+04 -5.790025E+04 -4.870283E+02  4.521987E+03
       100   1 -1.417185E+04  3.779360E+03  1.303923E+04 -2.388917E+04  3.375025E+03 -4.081397E+03
       100   2 -2.509558E+03  9.838561E+03  1.529193E+04 -1.878046E+04  4.125524E+03 -4.894193E+03
       100   3  1.175062E+04  1.319287E+04  1.724472E+04 -1.672970E+04  4.869391E+03 -5.689113E+03
       100   4 -8.015194E+04 -2.031581E+04 -4.707993E+02 -4.213006E+04  2.069510E+03 -4.571140E+03
       100   5 -8.145061E+04 -1.897289E+04 -8.314253E+02 -4.059676E+04  2.844037E+03 -5.374977E+03
       100   6 -8.015623E+04 -2.033968E+04 -1.511012E+03 -4.212152E+04  3.611921E+03 -6.160938E+03
       100   7 -1.461275E+05 -4.441060E+04 -1.398104E+04 -6.036916E+04  7.641446E+02 -5.060828E+03
       100   8 -1.603849E+05 -4.778370E+04 -1.695500E+04 -6.241042E+04  1.562731E+03 -5.855694E+03
       100   9 -1.720537E+05 -5.387123E+04 -2.026696E+04 -6.750968E+04  2.354660E+03 -6.632686E+03
       100  10 -1.417186E+04  3.779339E+03  1.303918E+04 -2.388916E+04 -1.321015E-08 -6.812512E-09
       100  11 -2.509583E+03  9.838531E+03  1.529186E+04 -1.878045E+04 -8.058783E-09 -7.019712E-09
       100  12  1.175059E+04  1.319283E+04  1.724461E+04 -1.672968E+04  5.089012E-10 -3.726104E-09
       100  13 -8.015195E+04 -2.031583E+04 -4.708467E+02 -4.213006E+04  3.947398E-09  1.064969E-08
       100  14 -8.145062E+04 -1.897293E+04 -8.314948E+02 -4.059675E+04  1.420416E-09  4.097527E-09
       100  15 -8.015625E+04 -2.033972E+04 -1.511108E+03 -4.212150E+04  2.496737E-09 -1.582262E-09
       100  16 -1.461275E+05 -4.441063E+04 -1.398109E+04 -6.036916E+04  2.474303E-08  1.069634E-08
       100  17 -1.603849E+05 -4.778374E+04 -1.695507E+04 -6.241041E+04  1.535896E-08  5.245323E-09
       100  18 -1.720537E+05 -5.387128E+04 -2.026705E+04 -6.750966E+04  4.149937E-10 -7.593852E-10
       100  19 -1.417185E+04  3.779360E+03  1.303923E+04 -2.388917E+04 -3.375025E+03  4.081397E+03
       100  20 -2.509558E+03  9.838561E+03  1.529193E+04 -1.878046E+04 -4.125524E+03  4.894193E+03
       100  21  1.175062E+04  1.319287E+04  1.724472E+04 -1.672970E+04 -4.869391E+03  5.689113E+03
       100  22 -8.015194E+04 -2.031581E+04 -4.707993E+02 -4.213006E+04 -2.069510E+03  4.571140E+03
       100  23 -8.145061E+04 -1.897289E+04 -8.314253E+02 -4.059676E+04 -2.844037E+03  5.374977E+03
       100  24 -8.015623E+04 -2.033968E+04 -1.511012E+03 -4.212152E+04 -3.611921E+03  6.160938E+03
       100  25 -1.461275E+05 -4.441060E+04 -1.398104E+04 -6.036916E+04 -7.641446E+02  5.060828E+03
       100  26 -1.603849E+05 -4.778370E+04 -1.695500E+04 -6.241042E+04 -1.562731E+03  5.855694E+03
       100  27 -1.720537E+05 -5.387123E+04 -2.026696E+04 -6.750968E+04 -2.354660E+03  6.632686E+03
       101   1  2.073482E+04  1.641667E+04  1.865284E+04 -1.443659E+04  5.423702E+03 -6.127608E+03
       101   2  3.232132E+04  2.260768E+04  1.973595E+04 -8.970205E+03  7.195027E+03 -6.416480E+03
       101   3  4.604799E+04  2.527591E+04  1.950338E+04 -6.375597E+03  8.860879E+03 -6.423813E+03
       101   4 -8.023857E+04 -2.028811E+04 -2.005865E+03 -4.217360E+04  4.106862E+03 -6.621745E+03
       101   5 -8.135053E+04 -1.905044E+04 -3.649560E+03 -4.052722E+04  6.257411E+03 -6.768420E+03
       101   6 -8.039792E+04 -2.141103E+04 -6.909643E+03 -4.175287E+04  8.302444E+03 -6.633538E+03
       101   7 -1.812023E+05 -5.699236E+04 -2.266531E+04 -6.990668E+04  2.790242E+03 -7.115801E+03
       101   8 -1.950096E+05 -6.070765E+04 -2.703587E+04 -7.207903E+04  5.319976E+03 -7.120291E+03
       101   9 -2.068275E+05 -6.809659E+04 -3.332354E+04 -7.712349E+04  7.744132E+03 -6.843215E+03
       101  10  2.073478E+04  1.641662E+04  1.865272E+04 -1.443656E+04  4.193419E-10 -3.886668E-09
       101  11  3.232126E+04  2.260763E+04  1.973578E+04 -8.970168E+03  1.136297E-09 -3.501263E-09
       101  12  4.604789E+04  2.527585E+04  1.950316E+04 -6.375551E+03 -9.542012E-09 -3.733669E-09
       101  13 -8.023860E+04 -2.028816E+04 -2.005979E+03 -4.217358E+04  1.852024E-09 -2.552379E-09
       101  14 -8.135058E+04 -1.905050E+04 -3.649719E+03 -4.052718E+04 -1.266703E-09 -2.441701E-09
       101  15 -8.039801E+04 -2.141110E+04 -6.909856E+03 -4.175282E+04 -1.219147E-08 -2.597261E-09
       101  16 -1.812023E+05 -5.699241E+04 -2.266542E+04 -6.990666E+04 -4.151104E-10 -6.928458E-10
       101  17 -1.950096E+05 -6.070771E+04 -2.703602E+04 -7.207900E+04 -4.699757E-09 -7.643483E-10
       101  18 -2.068276E+05 -6.809666E+04 -3.332374E+04 -7.712345E+04 -9.191404E-09 -1.695202E-09
       101  19  2.073482E+04  1.641667E+04  1.865284E+04 -1.443659E+04 -5.423702E+03  6.127608E+03
       101  20  3.232132E+04  2.260768E+04  1.973595E+04 -8.970205E+03 -7.195027E+03  6.416480E+03
       101  21  4.604799E+04  2.527591E+04  1.950338E+04 -6.375597E+03 -8.860879E+03  6.423813E+03
       101  22 -8.023857E+04 -2.028811E+04 -2.005865E+03 -4.217360E+04 -4.106862E+03  6.621745E+03
       101  23 -8.135053E+04 -1.905044E+04 -3.649560E+03 -4.052722E+04 -6.257411E+03  6.768420E+03
       101  24 -8.039792E+04 -2.141103E+04 -6.909643E+03 -4.175287E+04 -8.302444E+03  6.633538E+03
       101  25 -1.812023E+05 -5.699236E+04 -2.266531E+04 -6.990668E+04 -2.790242E+03  7.115801E+03
       101  26 -1.950096E+05 -6.070765E+04 -2.703587E+04 -7.207903E+04 -5.319976E+03  7.120291E+03
       101  27 -2.068275E+05 -6.809659E+04 -3.332354E+04 -7.712349E+04 -7.744132E+03  6.843215E+03
       102   1  5.647850E+04  2.741790E+04  1.929856E+04 -7.628487E+03  1.108958E+04 -6.297234E+03
       102   2  6.306459E+04  3.710684E+04  1.610099E+04  8.103489E+03  1.347333E+04 -4.126463E+03
       102   3  6.410513E+04  2.405196E+04  5.247057E+03  2.639067E+04  1.418058E+04  2.511396E+03
       102   4 -8.154074E+04 -2.015021E+04 -9.007272E+03 -4.271655E+04  9.585003E+03 -6.861981E+03
       102   5 -8.020289E+04 -2.259909E+04 -1.675655E+04 -3.858396E+04  1.799062E+04 -2.431540E+03
       102   6 -8.560540E+04 -4.898804E+04 -3.693430E+04 -3.189617E+04  2.471942E+04  6.466296E+03
       102   7 -2.195403E+05 -6.771722E+04 -3.731402E+04 -7.779762E+04  8.080785E+03 -7.426611E+03
       102   8 -2.234477E+05 -8.230103E+04 -4.961486E+04 -8.526040E+04  2.250673E+04 -7.371864E+02
       102   9 -2.352898E+05 -1.220200E+05 -7.911625E+04 -9.016744E+04  3.525526E+04  1.041935E+04
       102  10  5.647835E+04  2.741783E+04  1.929825E+04 -7.628431E+03 -9.758828E-09 -2.647316E-09
       102  11  6.306439E+04  3.710678E+04  1.610062E+04  8.103534E+03 -1.222390E-08 -2.812594E-09
       102  12  6.410491E+04  2.405190E+04  5.246667E+03  2.639064E+04 -6.873084E-09 -1.835570E-09
       102  13 -8.154085E+04 -2.015028E+04 -9.007534E+03 -4.271650E+04 -1.393523E-08 -3.532118E-09
       102  14 -8.020324E+04 -2.259918E+04 -1.675717E+04 -3.858392E+04 -1.133593E-08 -2.915058E-09
       102  15 -8.560607E+04 -4.898825E+04 -3.693552E+04 -3.189630E+04 -3.016968E-09 -5.327625E-10
       102  16 -2.195404E+05 -6.771729E+04 -3.731425E+04 -7.779757E+04 -1.184264E-08 -3.927318E-09
       102  17 -2.234483E+05 -8.230116E+04 -4.961581E+04 -8.526039E+04 -5.564441E-09 -4.274186E-09
       102  18 -2.352912E+05 -1.220204E+05 -7.911879E+04 -9.016773E+04  2.264684E-09 -1.987558E-10
       102  19  5.647850E+04  2.741790E+04  1.929856E+04 -7.628487E+03 -1.108958E+04  6.297234E+03
       102  20  6.306459E+04  3.710684E+04  1.610099E+04  8.103489E+03 -1.347333E+04  4.126463E+03
       102  21  6.410513E+04  2.405196E+04  5.247057E+03  2.639067E+04 -1.418058E+04 -2.511396E+03
       102  22 -8.154074E+04 -2.015021E+04 -9.007272E+03 -4.271655E+04 -9.585003E+03  6.861981E+03
       102  23 -8.020289E+04 -2.259909E+04 -1.675655E+04 -3.858396E+04 -1.799062E+04  2.431540E+03
       102  24 -8.560540E+04 -4.898804E+04 -3.693430E+04 -3.189617E+04 -2.471942E+04 -6.466296E+03
       102  25 -2.195403E+05 -6.771722E+04 -3.731402E+04 -7.779762E+04 -8.080785E+03  7.426611E+03
       102  26 -2.234477E+05 -8.230103E+04 -4.961486E+04 -8.526040E+04 -2.250673E+04  7.371864E+02
       102  27 -2.352898E+05 -1.220200E+05 -7.911625E+04 -9.016744E+04 -3.525526E+04 -1.041935E+04
       103   1  4.575115E+05  7.372029E+04  6.561180E+04  6.981489E+03  1.816098E+04 -5.615265E+03
       103   2  4.381406E+05  8.256758E+04  5.560810E+04  1.409414E+04  7.145500E+03 -1.934342E+04
       103   3  4.179548E+05  8.238566E+04  5.052083E+04  2.414631E+04 -3.872332E+03 -2.439988E+04
       103   4  5.299954E+04 -2.583146E+04 -2.783971E+04  2.394482E+04 -1.956096E+04 -5.631554E+03
       103   5  5.498210E+04 -7.923963E+03 -1.385226E+04  2.246877E+04 -1.246024E+04 -1.935403E+04
       103   6  5.300358E+04 -2.193444E+03 -7.526052E+03  2.393224E+04 -5.362442E+03 -2.440205E+04
       103   7 -3.513576E+05 -1.253928E+05 -1.212966E+05  4.089700E+04 -5.725852E+04 -5.649910E+03
       103   8 -3.280327E+05 -9.842327E+04 -8.331694E+04  3.083808E+04 -3.205422E+04 -1.936518E+04
       103   9 -3.118152E+05 -8.677919E+04 -6.557634E+04  2.371828E+04 -6.851708E+03 -2.440423E+04
       103  10  4.575112E+05  7.372017E+04  6.561112E+04  6.981571E+03  2.755428E-09  7.692870E-11
       103  11  4.381405E+05  8.256716E+04  5.560730E+04  1.409425E+04  2.837713E-10 -4.123409E-10
       103  12  4.179546E+05  8.238502E+04  5.051968E+04  2.414623E+04 -1.173507E-10 -5.336045E-10
       103  13  5.299912E+04 -2.583159E+04 -2.784049E+04  2.394473E+04  1.205867E-09  2.254363E-11
       103  14  5.498183E+04 -7.924407E+03 -1.385325E+04  2.246858E+04  3.331685E-13 -9.509620E-10
       103  15  5.300339E+04 -2.194091E+03 -7.527225E+03  2.393213E+04  1.467508E-09  9.718466E-11
       103  16 -3.513611E+05 -1.253937E+05 -1.213029E+05  4.089674E+04 -6.424340E-10 -5.103484E-10
       103  17 -3.280339E+05 -9.842395E+04 -8.331958E+04  3.083758E+04 -3.639955E-09 -2.842428E-09
       103  18 -3.118154E+05 -8.677985E+04 -6.557755E+04  2.371815E+04  1.810331E-09 -1.657328E-09
       103  19  4.575115E+05  7.372029E+04  6.561180E+04  6.981489E+03 -1.816098E+04  5.615265E+03
       103  20  4.381406E+05  8.256758E+04  5.560810E+04  1.409414E+04 -7.145500E+03  1.934342E+04
       103  21  4.179548E+05  8.238566E+04  5.052083E+04  2.414631E+04  3.872332E+03  2.439988E+04
       103  22  5.299954E+04 -2.583146E+04 -2.783971E+04  2.394482E+04  1.956096E+04  5.631554E+03
       103  23  5.498210E+04 -7.923963E+03 -1.385226E+04  2.246877E+04  1.246024E+04  1.935403E+04
       103  24  5.300358E+04 -2.193444E+03 -7.526052E+03  2.393224E+04  5.362442E+03  2.440205E+04
       103  25 -3.513576E+05 -1.253928E+05 -1.212966E+05  4.089700E+04  5.725852E+04  5.649910E+03
       103  26 -3.280327E+05 -9.842327E+04 -8.331694E+04  3.083808E+04  3.205422E+04  1.936518E+04
       103  27 -3.118152E+05 -8.677919E+04 -6.557634E+04  2.371828E+04  6.851708E+03  2.440423E+04
       104   1  4.058327E+05  7.956176E+04  4.903834E+04  2.330385E+04 -2.865109E+03 -2.449526E+04
       104   2  3.861606E+05  7.584531E+04  4.634168E+04  2.205709E+04 -3.443823E+03 -2.471813E+04
       104   3  3.664244E+05  7.156025E+04  4.388072E+04  2.436812E+04 -4.023281E+03 -2.392667E+04
       104   4  5.378946E+04 -1.764408E+03 -5.652416E+03  2.407050E+04 -4.387636E+03 -2.449747E+04
       104   5  5.400760E+04 -4.508686E+02 -3.076603E+03  2.229097E+04 -2.847957E+03 -2.471905E+04
       104   6  5.379372E+04 -7.374194E+01 -1.735975E+03  2.406937E+04 -1.309003E+03 -2.392601E+04
       104   7 -2.981301E+05 -8.309663E+04 -6.034604E+04  2.483669E+04 -5.909332E+03 -2.449970E+04
       104   8 -2.780346E+05 -7.675223E+04 -5.249697E+04  2.252471E+04 -2.252395E+03 -2.471997E+04
       104   9 -2.587385E+05 -7.171225E+04 -4.735429E+04  2.377075E+04  1.403965E+03 -2.392536E+04
       104  10  4.058326E+05  7.956111E+04  4.903719E+04  2.330379E+04 -2.711851E-09 -7.668133E-10
       104  11  3.861605E+05  7.584465E+04  4.634051E+04  2.205702E+04 -7.209453E-10  9.328562E-10
       104  12  3.664242E+05  7.155964E+04  4.387961E+04  2.436804E+04  6.761766E-10  6.265008E-10
       104  13  5.378927E+04 -1.765058E+03 -5.653580E+03  2.407042E+04 -9.286933E-10 -1.141550E-10
       104  14  5.400742E+04 -4.515269E+02 -3.077767E+03  2.229092E+04  1.076604E-09  8.179245E-10
       104  15  5.379357E+04 -7.435713E+01 -1.737054E+03  2.406934E+04  1.903316E-09 -1.755978E-10
       104  16 -2.981303E+05 -8.309728E+04 -6.034723E+04  2.483657E+04  3.091863E-09  7.672264E-10
       104  17 -2.780348E+05 -7.675289E+04 -5.249813E+04  2.252467E+04 -6.741954E-10  1.790972E-09
       104  18 -2.587387E+05 -7.171287E+04 -4.735537E+04  2.377078E+04 -1.028118E-09  1.047858E-09
       104  19  4.058327E+05  7.956176E+04  4.903834E+04  2.330385E+04  2.865109E+03  2.449526E+04
       104  20  3.861606E+05  7.584531E+04  4.634168E+04  2.205709E+04  3.443823E+03  2.471813E+04
       104  21  3.664244E+05  7.156025E+04  4.388072E+04  2.436812E+04  4.023281E+03  2.392667E+04
       104  22  5.378946E+04 -1.764408E+03 -5.652416E+03  2.407050E+04  4.387636E+03  2.449747E+04
       104  23  5.400760E+04 -4.508686E+02 -3.076603E+03  2.229097E+04  2.847957E+03  2.471905E+04
       104  24  5.379372E+04 -7.374194E+01 -1.735975E+03  2.406937E+04  1.309003E+03  2.392601E+04
       104  25 -2.981301E+05 -8.309663E+04 -6.034604E+04  2.483669E+04  5.909332E+03  2.449970E+04
       104  26 -2.780346E+05 -7.675223E+04 -5.249697E+04  2.252471E+04  2.252395E+03  2.471997E+04
       104  27 -2.587385E+05 -7.171225E+04 -4.735429E+04  2.377075E+04 -1.403965E+03  2.392536E+04
       105   1  3.540823E+05  6.869030E+04  4.227800E+04  2.428117E+04 -3.758785E+03 -2.313307E+04
       105   2  3.344020E+05  6.421049E+04  3.976819E+04  2.246950E+04 -3.640010E+03 -2.177653E+04
       105   3  3.147008E+05  5.971123E+04  3.717607E+04  2.428555E+04 -3.521565E+03 -2.030146E+04
       105   4  5.387688E+04 -5.429300E+01 -1.312334E+03  2.408500E+04 -1.048617E+03 -2.313226E+04
       105   5  5.391086E+04  2.358648E+01 -7.397013E+02  2.227106E+04 -6.824202E+02 -2.177530E+04
       105   6  5.388061E+04  3.905532E+01 -4.212522E+02  2.408492E+04 -3.165506E+02 -2.029978E+04
       105   7 -2.462377E+05 -6.880303E+04 -4.490412E+04  2.388891E+04  1.660296E+03 -2.313146E+04
       105   8 -2.265009E+05 -6.416692E+04 -4.124881E+04  2.207269E+04  2.273890E+03 -2.177407E+04
       105   9 -2.068709E+05 -5.963623E+04 -3.801960E+04  2.388437E+04  2.887175E+03 -2.029809E+04
       105  10  3.540822E+05  6.868972E+04  4.227697E+04  2.428110E+04 -1.101945E-09  8.827560E-10
       105  11  3.344018E+05  6.420998E+04  3.976727E+04  2.246944E+04 -2.104442E-09  9.155452E-10
       105  12  3.147007E+05  5.971079E+04  3.717527E+04  2.428549E+04  9.397795E-10  1.606571E-10
       105  13  5.387674E+04 -5.486791E+01 -1.313342E+03  2.408498E+04 -2.012045E-09 -8.735176E-10
       105  14  5.391073E+04  2.307717E+01 -7.405933E+02  2.227105E+04 -1.077497E-09  6.510894E-10
       105  15  5.388050E+04  3.861278E+01 -4.220268E+02  2.408491E+04  1.354393E-09  1.544878E-09
       105  16 -2.462378E+05 -6.880361E+04 -4.490513E+04  2.388894E+04  1.137352E-09  6.641689E-10
       105  17 -2.265010E+05 -6.416743E+04 -4.124971E+04  2.207273E+04 -1.920458E-09  4.512254E-10
       105  18 -2.068710E+05 -5.963667E+04 -3.802039E+04  2.388442E+04  9.214395E-10  3.162195E-10
       105  19  3.540823E+05  6.869030E+04  4.227800E+04  2.428117E+04  3.758785E+03  2.313307E+04
       105  20  3.344020E+05  6.421049E+04  3.976819E+04  2.246950E+04  3.640010E+03  2.177653E+04
       105  21  3.147008E+05  5.971123E+04  3.717607E+04  2.428555E+04  3.521565E+03  2.030146E+04
       105  22  5.387688E+04 -5.429300E+01 -1.312334E+03  2.408500E+04  1.048617E+03  2.313226E+04
       105  23  5.391086E+04  2.358648E+01 -7.397013E+02  2.227106E+04  6.824202E+02  2.177530E+04
       105  24  5.388061E+04  3.905532E+01 -4.212522E+02  2.408492E+04  3.165506E+02  2.029978E+04
       105  25 -2.462377E+05 -6.880303E+04 -4.490412E+04  2.388891E+04 -1.660296E+03  2.313146E+04
       105  26 -2.265009E+05 -6.416692E+04 -4.124881E+04  2.207269E+04 -2.273890E+03  2.177407E+04
       105  27 -2.068709E+05 -5.963623E+04 -3.801960E+04  2.388437E+04 -2.887175E+03  2.029809E+04
       106   1  3.023477E+05  5.686399E+04  3.540906E+04  2.426956E+04 -3.455178E+03 -1.940414E+04
       106   2  2.826673E+05  5.236157E+04  3.272337E+04  2.243711E+04 -3.396917E+03 -1.786324E+04
       106   3  2.629782E+05  4.786695E+04  3.000071E+04  2.423907E+04 -3.338879E+03 -1.630857E+04
       106   4  5.389288E+04  3.806749E+01 -3.178715E+02  2.408642E+04 -2.508507E+02 -1.940231E+04
       106   5  5.390159E+04  3.726282E+01 -1.777451E+02  2.226918E+04 -1.639484E+02 -1.786116E+04
       106   6  5.389594E+04  3.920167E+01 -9.461104E+01  2.408642E+04 -7.726821E+01 -1.630624E+04
       106   7 -1.944996E+05 -5.679066E+04 -3.604572E+04  2.390333E+04  2.952249E+03 -1.940048E+04
       106   8 -1.748112E+05 -5.228943E+04 -3.307963E+04  2.210129E+04  3.067879E+03 -1.785908E+04
       106   9 -1.551422E+05 -4.779053E+04 -3.019057E+04  2.393381E+04  3.183291E+03 -1.630392E+04
       106  10  3.023476E+05  5.686358E+04  3.540833E+04  2.426951E+04  1.414882E-09  3.592172E-10
       106  11  2.826672E+05  5.236123E+04  3.272275E+04  2.243706E+04 -4.416909E-10  2.535864E-09
       106  12  2.629781E+05  4.786666E+04  3.000019E+04  2.423902E+04  2.760658E-09  5.117279E-10
       106  13  5.389278E+04  3.766322E+01 -3.185790E+02  2.408641E+04  1.283797E-09  4.683487E-10
       106  14  5.390150E+04  3.692024E+01 -1.783447E+02  2.226917E+04  3.270138E-09  2.462384E-09
       106  15  5.389587E+04  3.891614E+01 -9.511073E+01  2.408641E+04  5.850363E-10 -3.431841E-10
       106  16 -1.944997E+05 -5.679107E+04 -3.604644E+04  2.390338E+04  2.311046E-09  3.984092E-10
       106  17 -1.748113E+05 -5.228977E+04 -3.308025E+04  2.210134E+04 -5.139343E-10  1.255191E-10
       106  18 -1.551422E+05 -4.779082E+04 -3.019109E+04  2.393385E+04 -4.146072E-10 -1.451048E-10
       106  19  3.023477E+05  5.686399E+04  3.540906E+04  2.426956E+04  3.455178E+03  1.940414E+04
       106  20  2.826673E+05  5.236157E+04  3.272337E+04  2.243711E+04  3.396917E+03  1.786324E+04
       106  21  2.629782E+05  4.786695E+04  3.000071E+04  2.423907E+04  3.338879E+03  1.630857E+04
       106  22  5.389288E+04  3.806749E+01 -3.178715E+02  2.408642E+04  2.508507E+02  1.940231E+04
       106  23  5.390159E+04  3.726282E+01 -1.777451E+02  2.226918E+04  1.639484E+02  1.786116E+04
       106  24  5.389594E+04  3.920167E+01 -9.461104E+01  2.408642E+04  7.726821E+01  1.630624E+04
       106  25 -1.944996E+05 -5.679066E+04 -3.604572E+04  2.390333E+04 -2.952249E+03  1.940048E+04
       106  26 -1.748112E+05 -5.228943E+04 -3.307963E+04  2.210129E+04 -3.067879E+03  1.785908E+04
       106  27 -1.551422E+05 -4.779053E+04 -3.019057E+04  2.393381E+04 -3.183291E+03  1.630392E+04
       107   1  2.506250E+05  4.502611E+04  2.817762E+04  2.423146E+04 -3.324708E+03 -1.539928E+04
       107   2  2.309470E+05  4.052865E+04  2.542683E+04  2.240130E+04 -3.318373E+03 -1.383714E+04
       107   3  2.112644E+05  3.603916E+04  2.267208E+04  2.420754E+04 -3.312202E+03 -1.227360E+04
       107   4  5.389891E+04  3.924392E+01 -6.573163E+01  2.408685E+04 -6.335610E+01 -1.539683E+04
       107   5  5.390271E+04  3.606906E+01 -2.113298E+01  2.226863E+04 -5.414172E+01 -1.383452E+04
       107   6  5.390128E+04  4.045797E+01  1.755807E+01  2.408686E+04 -4.509174E+01 -1.227081E+04
       107   7 -1.427880E+05 -4.494938E+04 -2.830963E+04  2.394229E+04  3.197007E+03 -1.539439E+04
       107   8 -1.231099E+05 -4.045793E+04 -2.546954E+04  2.213599E+04  3.209198E+03 -1.383190E+04
       107   9 -1.034369E+05 -3.595937E+04 -2.263731E+04  2.396620E+04  3.221226E+03 -1.226801E+04
       107  10  2.506249E+05  4.502586E+04  2.817715E+04  2.423142E+04  2.521298E-09 -1.186055E-09
       107  11  2.309470E+05  4.052844E+04  2.542645E+04  2.240127E+04  1.749077E-09 -7.354023E-10
       107  12  2.112644E+05  3.603899E+04  2.267178E+04  2.420751E+04 -2.556735E-09 -2.609139E-10
       107  13  5.389885E+04  3.898935E+01 -6.617714E+01  2.408685E+04 -8.120822E-10  1.656036E-09
       107  14  5.390266E+04  3.586353E+01 -2.149266E+01  2.226863E+04  2.710710E-09 -3.353639E-10
       107  15  5.390124E+04  4.029628E+01  1.727510E+01  2.408685E+04  2.402968E-10 -1.065314E-09
       107  16 -1.427881E+05 -4.494964E+04 -2.831010E+04  2.394233E+04 -2.593070E-09  8.831119E-10
       107  17 -1.231100E+05 -4.045814E+04 -2.546992E+04  2.213603E+04 -5.727605E-10 -8.202416E-10
       107  18 -1.034369E+05 -3.595953E+04 -2.263761E+04  2.396623E+04  2.677093E-09 -1.504958E-09
       107  19  2.506250E+05  4.502611E+04  2.817762E+04  2.423146E+04  3.324708E+03  1.539928E+04
       107  20  2.309470E+05  4.052865E+04  2.542683E+04  2.240130E+04  3.318373E+03  1.383714E+04
       107  21  2.112644E+05  3.603916E+04  2.267208E+04  2.420754E+04  3.312202E+03  1.227360E+04
       107  22  5.389891E+04  3.924392E+01 -6.573163E+01  2.408685E+04  6.335610E+01  1.539683E+04
       107  23  5.390271E+04  3.606906E+01 -2.113298E+01  2.226863E+04  5.414172E+01  1.383452E+04
       107  24  5.390128E+04  4.045797E+01  1.755807E+01  2.408686E+04  4.509174E+01  1.227081E+04
       107  25 -1.427880E+05 -4.494938E+04 -2.830963E+04  2.394229E+04 -3.197007E+03  1.539439E+04
       107  26 -1.231099E+05 -4.045793E+04 -2.546954E+04  2.213599E+04 -3.209198E+03  1.383190E+04
       107  27 -1.034369E+05 -3.595937E+04 -2.263731E+04  2.396620E+04 -3.221226E+03  1.226801E+04
       108   1  1.989143E+05  3.319967E+04  2.084279E+04  2.420105E+04 -3.317723E+03 -1.136315E+04
       108   2  1.792360E+05  2.870534E+04  1.810197E+04  2.236921E+04 -3.361468E+03 -9.799458E+03
       108   3  1.595602E+05  2.422729E+04  1.539142E+04  2.417263E+04 -3.405328E+03 -8.236781E+03
       108   4  5.390372E+04  4.081580E+01  3.793185E+01  2.408660E+04 -5.077095E+01 -1.136026E+04
       108   5  5.390327E+04  3.970762E+01  8.972279E+01  2.226894E+04 -9.666700E+01 -9.796451E+03
       108   6  5.390539E+04  5.526561E+01  1.732457E+02  2.408659E+04 -1.426778E+02 -8.233653E+03
       108   7 -9.108563E+04 -3.311899E+04 -2.076720E+04  2.397218E+04  3.215450E+03 -1.135737E+04
       108   8 -7.141353E+04 -2.862664E+04 -1.792273E+04  2.216870E+04  3.167504E+03 -9.793445E+03
       108   9 -5.173810E+04 -2.411726E+04 -1.504507E+04  2.400056E+04  3.119441E+03 -8.230525E+03
       108  10  1.989143E+05  3.319953E+04  2.084252E+04  2.420102E+04 -3.065315E-09  1.411832E-09
       108  11  1.792359E+05  2.870523E+04  1.810177E+04  2.236918E+04 -4.210815E-11  6.048575E-10
       108  12  1.595601E+05  2.422721E+04  1.539127E+04  2.417261E+04 -4.595361E-10 -3.941122E-10
       108  13  5.390369E+04  4.067721E+01  3.768932E+01  2.408660E+04  2.400825E-09 -1.130484E-10
       108  14  5.390324E+04  3.960456E+01  8.954242E+01  2.226894E+04 -1.075986E-09  4.726470E-10
       108  15  5.390538E+04  5.519280E+01  1.731183E+02  2.408659E+04  9.471120E-10  5.792790E-10
       108  16 -9.108567E+04 -3.311914E+04 -2.076746E+04  2.397221E+04  1.990067E-09  3.885932E-10
       108  17 -7.141357E+04 -2.862674E+04 -1.792293E+04  2.216872E+04  1.552621E-09 -2.465592E-09
       108  18 -5.173813E+04 -2.411734E+04 -1.504521E+04  2.400059E+04 -4.272713E-10 -1.108406E-11
       108  19  1.989143E+05  3.319967E+04  2.084279E+04  2.420105E+04  3.317723E+03  1.136315E+04
       108  20  1.792360E+05  2.870534E+04  1.810197E+04  2.236921E+04  3.361468E+03  9.799458E+03
       108  21  1.595602E+05  2.422729E+04  1.539142E+04  2.417263E+04  3.405328E+03  8.236781E+03
       108  22  5.390372E+04  4.081580E+01  3.793185E+01  2.408660E+04  5.077095E+01  1.136026E+04
       108  23  5.390327E+04  3.970762E+01  8.972279E+01  2.226894E+04  9.666700E+01  9.796451E+03
       108  24  5.390539E+04  5.526561E+01  1.732457E+02  2.408659E+04  1.426778E+02  8.233653E+03
       108  25 -9.108563E+04 -3.311899E+04 -2.076720E+04  2.397218E+04 -3.215450E+03  1.135737E+04
       108  26 -7.141353E+04 -2.862664E+04 -1.792273E+04  2.216870E+04 -3.167504E+03  9.793445E+03
       108  27 -5.173810E+04 -2.411726E+04 -1.504507E+04  2.400056E+04 -3.119441E+03  8.230525E+03
       109   1  1.472209E+05  2.139044E+04  1.360033E+04  2.417732E+04 -3.440791E+03 -7.327253E+03
       109   2  1.275214E+05  1.694404E+04  1.098536E+04  2.227294E+04 -3.631272E+03 -5.770065E+03
       109   3  1.078719E+05  1.263066E+04  8.525099E+03  2.400245E+04 -3.821803E+03 -4.222581E+03
       109   4  5.391705E+04  5.825841E+01  2.328310E+02  2.408630E+04 -1.782091E+02 -7.324066E+03
       109   5  5.389107E+04  1.062305E+02  4.183892E+02  2.226924E+04 -3.890085E+02 -5.766827E+03
       109   6  5.391802E+04  2.906757E+02  7.726461E+02  2.408607E+04 -5.998634E+02 -4.219293E+03
       109   7 -3.937801E+04 -2.127431E+04 -1.313476E+04  2.399530E+04  3.083904E+03 -7.320881E+03
       109   8 -1.973372E+04 -1.673182E+04 -1.014863E+04  2.226553E+04  2.852887E+03 -5.763589E+03
       109   9 -3.290324E+01 -1.204943E+04 -6.979813E+03  2.416969E+04  2.621808E+03 -4.216004E+03
       109  10  1.472209E+05  2.139038E+04  1.360020E+04  2.417730E+04 -2.808443E-10  6.985079E-10
       109  11  1.275213E+05  1.694400E+04  1.098527E+04  2.227293E+04  3.809404E-09 -3.555368E-10
       109  12  1.078719E+05  1.263063E+04  8.525038E+03  2.400244E+04  4.357898E-09  1.875168E-09
       109  13  5.391703E+04  5.820080E+01  2.327301E+02  2.408630E+04  2.570952E-10  8.369087E-10
       109  14  5.389106E+04  1.061948E+02  4.183264E+02  2.226923E+04 -1.078420E-09  6.537350E-10
       109  15  5.391802E+04  2.906565E+02  7.726120E+02  2.408607E+04  4.214991E-10 -4.148179E-10
       109  16 -3.937804E+04 -2.127437E+04 -1.313487E+04  2.399532E+04  8.406663E-10  8.381047E-10
       109  17 -1.973374E+04 -1.673186E+04 -1.014870E+04  2.226554E+04 -4.297008E-10 -3.605129E-10
       109  18 -3.291539E+01 -1.204945E+04 -6.979859E+03  2.416969E+04 -4.149385E-09 -2.930870E-09
       109  19  1.472209E+05  2.139044E+04  1.360033E+04  2.417732E+04  3.440791E+03  7.327253E+03
       109  20  1.275214E+05  1.694404E+04  1.098536E+04  2.227294E+04  3.631272E+03  5.770065E+03
       109  21  1.078719E+05  1.263066E+04  8.525099E+03  2.400245E+04  3.821803E+03  4.222581E+03
       109  22  5.391705E+04  5.825841E+01  2.328310E+02  2.408630E+04  1.782091E+02  7.324066E+03
       109  23  5.389107E+04  1.062305E+02  4.183892E+02  2.226924E+04  3.890085E+02  5.766827E+03
       109  24  5.391802E+04  2.906757E+02  7.726461E+02  2.408607E+04  5.998634E+02  4.219293E+03
       109  25 -3.937801E+04 -2.127431E+04 -1.313476E+04  2.399530E+04 -3.083904E+03  7.320881E+03
       109  26 -1.973372E+04 -1.673182E+04 -1.014863E+04  2.226553E+04 -2.852887E+03  5.763589E+03
       109  27 -3.290324E+01 -1.204943E+04 -6.979813E+03  2.416969E+04 -2.621808E+03  4.216004E+03
       110   1  9.562496E+04  9.846445E+03  6.918822E+03  2.412635E+04 -3.956207E+03 -3.321661E+03
       110   2  7.570022E+04  6.119219E+03  4.912649E+03  2.112000E+04 -4.755650E+03 -1.820912E+03
       110   3  5.628234E+04  4.039128E+03  3.835879E+03  2.174083E+04 -5.555024E+03 -4.030446E+02
       110   4  5.402577E+04  3.494571E+02  1.029710E+03  2.408486E+04 -7.340396E+02 -3.318345E+03
       110   5  5.375748E+04  1.130654E+03  1.896534E+03  2.226964E+04 -1.706567E+03 -1.817763E+03
       110   6  5.402598E+04  3.589136E+03  3.813007E+03  2.408157E+04 -2.679047E+03 -4.000668E+02
       110   7  1.242836E+04 -9.147603E+03 -4.859386E+03  2.404338E+04  2.487921E+03 -3.315028E+03
       110   8  3.181526E+04 -3.857922E+03 -1.119550E+03  2.341923E+04  1.342414E+03 -1.814602E+03
       110   9  5.176966E+04  3.139168E+03  3.790170E+03  2.642230E+04  1.969196E+02 -3.970673E+02
       110  10  9.562494E+04  9.846429E+03  6.918771E+03  2.412634E+04  1.091271E-09  1.438870E-09
       110  11  7.570019E+04  6.119210E+03  4.912600E+03  2.112000E+04  1.578076E-09 -1.096397E-09
       110  12  5.628230E+04  4.039120E+03  3.835820E+03  2.174083E+04  1.372236E-09 -2.023857E-10
       110  13  5.402577E+04  3.494451E+02  1.029688E+03  2.408486E+04  3.064235E-10  2.271465E-09
       110  14  5.375748E+04  1.130650E+03  1.896523E+03  2.226963E+04  5.006124E-10 -1.937722E-09
       110  15  5.402597E+04  3.589134E+03  3.812993E+03  2.408157E+04 -3.478521E-10  1.059429E-09
       110  16  1.242835E+04 -9.147617E+03 -4.859419E+03  2.404338E+04  1.102832E-09 -3.984698E-11
       110  17  3.181526E+04 -3.857926E+03 -1.119560E+03  2.341923E+04  1.308901E-09  1.214133E-09
       110  18  5.176966E+04  3.139168E+03  3.790170E+03  2.642230E+04 -1.146921E-09 -1.905205E-10
       110  19  9.562496E+04  9.846445E+03  6.918822E+03  2.412635E+04  3.956207E+03  3.321661E+03
       110  20  7.570022E+04  6.119219E+03  4.912649E+03  2.112000E+04  4.755650E+03  1.820912E+03
       110  21  5.628234E+04  4.039128E+03  3.835879E+03  2.174083E+04  5.555024E+03  4.030446E+02
       110  22  5.402577E+04  3.494571E+02  1.029710E+03  2.408486E+04  7.340396E+02  3.318345E+03
       110  23  5.375748E+04  1.130654E+03  1.896534E+03  2.226964E+04  1.706567E+03  1.817763E+03
       110  24  5.402598E+04  3.589136E+03  3.813007E+03  2.408157E+04  2.679047E+03  4.000668E+02
       110  25  1.242836E+04 -9.147603E+03 -4.859386E+03  2.404338E+04 -2.487921E+03  3.315028E+03
       110  26  3.181526E+04 -3.857922E+03 -1.119550E+03  2.341923E+04 -1.342414E+03  1.814602E+03
       110  27  5.176966E+04  3.139168E+03  3.790170E+03  2.642230E+04 -1.969196E+02  3.970673E+02
       111   1  6.248703E+03  2.143884E+05  6.772979E+03 -1.475288E+04 -3.160759E+01  1.565229E+03
       111   2  1.212467E+02  1.995658E+05  2.147523E+03 -1.181897E+04 -4.073235E+02 -1.694939E+02
       111   3 -3.791576E+03  1.855190E+05 -7.960571E+02 -1.268138E+04 -1.201318E+03 -1.904358E+03
       111   4  3.059028E+03  2.016574E+05  3.561587E+03 -1.289133E+04 -3.170033E+01  1.806162E+03
       111   5  4.829554E+02  2.013219E+05  2.204353E+03 -1.099378E+04 -4.076628E+02  6.739134E+02
       111   6  1.701443E+01  2.016576E+05  2.110789E+03 -1.289252E+04 -1.201898E+03 -4.585053E+02
       111   7 -1.306457E+02  1.889266E+05  3.501851E+02 -1.102983E+04 -3.179163E+01  2.047089E+03
       111   8  8.446671E+02  2.030780E+05  2.261186E+03 -1.016859E+04 -4.079999E+02  1.517323E+03
       111   9  3.825591E+03  2.177965E+05  5.017633E+03 -1.310368E+04 -1.202479E+03  9.873835E+02
       111  10  6.248702E+03  2.143884E+05  6.772974E+03 -1.475288E+04  4.922708E-10  2.626027E-09
       111  11  1.212465E+02  1.995658E+05  2.147522E+03 -1.181897E+04  1.940442E-09  7.651527E-10
       111  12 -3.791578E+03  1.855190E+05 -7.960666E+02 -1.268138E+04  4.522288E-10  1.515715E-09
       111  13  3.059027E+03  2.016574E+05  3.561581E+03 -1.289133E+04  6.211336E-10 -4.173311E-10
       111  14  4.829551E+02  2.013219E+05  2.204351E+03 -1.099378E+04 -7.958622E-11 -8.471974E-10
       111  15  1.701282E+01  2.016576E+05  2.110786E+03 -1.289252E+04  4.625259E-09 -3.270957E-11
       111  16 -1.306468E+02  1.889266E+05  3.501773E+02 -1.102983E+04  1.036760E-09 -2.198863E-09
       111  17  8.446663E+02  2.030780E+05  2.261181E+03 -1.016859E+04  4.155683E-12 -2.043180E-09
       111  18  3.825589E+03  2.177965E+05  5.017628E+03 -1.310368E+04  1.901065E-09 -1.177306E-09
       111  19  6.248703E+03  2.143884E+05  6.772979E+03 -1.475288E+04  3.160759E+01 -1.565229E+03
       111  20  1.212467E+02  1.995658E+05  2.147523E+03 -1.181897E+04  4.073235E+02  1.694939E+02
       111  21 -3.791576E+03  1.855190E+05 -7.960571E+02 -1.268138E+04  1.201318E+03  1.904358E+03
       111  22  3.059028E+03  2.016574E+05  3.561587E+03 -1.289133E+04  3.170033E+01 -1.806162E+03
       111  23  4.829554E+02  2.013219E+05  2.204353E+03 -1.099378E+04  4.076628E+02 -6.739134E+02
       111  24  1.701443E+01  2.016576E+05  2.110789E+03 -1.289252E+04  1.201898E+03  4.585053E+02
       111  25 -1.306457E+02  1.889266E+05  3.501851E+02 -1.102983E+04  3.179163E+01 -2.047089E+03
       111  26  8.446671E+02  2.030780E+05  2.261186E+03 -1.016859E+04  4.079999E+02 -1.517323E+03
       111  27  3.825591E+03  2.177965E+05  5.017633E+03 -1.310368E+04  1.202479E+03 -9.873835E+02
       112   1 -6.052170E+03  1.756654E+05 -2.460038E+03 -1.311759E+04 -1.799816E+03 -2.227662E+03
       112   2 -9.483969E+03  1.610403E+05 -4.223701E+03 -1.093113E+04 -2.700938E+03 -3.685945E+03
       112   3 -1.214897E+04  1.467937E+05 -4.847303E+03 -1.255762E+04 -3.461401E+03 -5.144116E+03
       112   4  9.228580E+01  2.016002E+05  2.334050E+03 -1.289608E+04 -1.800372E+03 -8.276942E+02
       112   5  9.555479E+01  2.013932E+05  3.328965E+03 -1.098945E+04 -2.701391E+03 -2.488676E+03
       112   6  9.007694E+02  2.015996E+05  5.604603E+03 -1.289575E+04 -3.461754E+03 -4.149579E+03
       112   7  6.236705E+03  2.275356E+05  7.128117E+03 -1.267456E+04 -1.800926E+03  5.723310E+02
       112   8  9.674985E+03  2.417477E+05  1.088157E+04 -1.104778E+04 -2.701843E+03 -1.291331E+03
       112   9  1.395034E+04  2.564084E+05  1.605638E+04 -1.323392E+04 -3.462109E+03 -3.154956E+03
       112  10 -6.052175E+03  1.756654E+05 -2.460054E+03 -1.311759E+04  1.248845E-09  2.494661E-08
       112  11 -9.483980E+03  1.610403E+05 -4.223740E+03 -1.093114E+04  5.209611E-10 -1.053460E-09
       112  12 -1.214899E+04  1.467936E+05 -4.847376E+03 -1.255763E+04 -9.060233E-10 -2.427499E-08
       112  13  9.228213E+01  2.016002E+05  2.334042E+03 -1.289608E+04  4.558438E-09 -4.479363E-10
       112  14  9.554529E+01  2.013932E+05  3.328940E+03 -1.098946E+04  2.916232E-09 -8.503814E-10
       112  15  9.007519E+02  2.015996E+05  5.604548E+03 -1.289577E+04 -2.822629E-09 -9.300490E-11
       112  16  6.236701E+03  2.275356E+05  7.128110E+03 -1.267456E+04  1.801288E-09 -2.444663E-08
       112  17  9.674977E+03  2.417477E+05  1.088155E+04 -1.104778E+04  1.412701E-09 -1.313757E-10
       112  18  1.395032E+04  2.564084E+05  1.605634E+04 -1.323393E+04  3.728641E-10  2.450968E-08
       112  19 -6.052170E+03  1.756654E+05 -2.460038E+03 -1.311759E+04  1.799816E+03  2.227662E+03
       112  20 -9.483969E+03  1.610403E+05 -4.223701E+03 -1.093113E+04  2.700938E+03  3.685945E+03
       112  21 -1.214897E+04  1.467937E+05 -4.847303E+03 -1.255762E+04  3.461401E+03  5.144116E+03
       112  22  9.228580E+01  2.016002E+05  2.334050E+03 -1.289608E+04  1.800372E+03  8.276942E+02
       112  23  9.555479E+01  2.013932E+05  3.328965E+03 -1.098945E+04  2.701391E+03  2.488676E+03
       112  24  9.007694E+02  2.015996E+05  5.604603E+03 -1.289575E+04  3.461754E+03  4.149579E+03
       112  25  6.236705E+03  2.275356E+05  7.128117E+03 -1.267456E+04  1.800926E+03 -5.723310E+02
       112  26  9.674985E+03  2.417477E+05  1.088157E+04 -1.104778E+04  2.701843E+03  1.291331E+03
       112  27  1.395034E+04  2.564084E+05  1.605638E+04 -1.323392E+04  3.462109E+03  3.154956E+03
       113   1 -1.540762E+04  1.378966E+05 -5.201534E+03 -1.496104E+04 -4.043518E+03 -6.522648E+03
       113   2 -1.526700E+04  1.213245E+05 -3.432340E+03 -5.159374E+03 -3.825629E+03 -9.657960E+03
       113   3  1.590023E+02  1.089803E+05  4.198944E+03  9.711654E+02 -1.208150E+03 -1.279235E+04
       113   4 -3.436102E-01  2.025804E+05  7.172734E+03 -1.286566E+04 -4.044037E+03 -5.107356E+03
       113   5  3.726925E+03  2.001655E+05  1.268567E+04 -1.102607E+04 -3.824770E+03 -1.169935E+04
       113   6  2.333819E+04  2.025774E+05  2.646002E+04 -1.285735E+04 -1.205969E+03 -1.829047E+04
       113   7  1.540670E+04  2.672681E+05  1.954682E+04 -1.077005E+04 -4.044547E+03 -3.691920E+03
       113   8  2.272059E+04  2.790125E+05  2.880338E+04 -1.689353E+04 -3.823871E+03 -1.374099E+04
       113   9  4.651748E+04  2.961829E+05  4.872071E+04 -2.668796E+04 -1.203543E+03 -2.378943E+04
       113  10 -1.540764E+04  1.378966E+05 -5.201645E+03 -1.496106E+04 -5.540434E-10  2.686646E-08
       113  11 -1.526704E+04  1.213244E+05 -3.432543E+03 -5.159404E+03 -1.037018E-09 -2.379637E-10
       113  12  1.589569E+02  1.089802E+05  4.198634E+03  9.711530E+02 -8.166678E-10 -2.512810E-08
       113  13 -3.681739E-01  2.025803E+05  7.172654E+03 -1.286567E+04  1.037117E-09 -3.957073E-10
       113  14  3.726873E+03  2.001654E+05  1.268538E+04 -1.102611E+04 -2.603963E-09 -7.021973E-10
       113  15  2.333810E+04  2.025770E+05  2.645939E+04 -1.285737E+04 -7.024090E-10 -6.915940E-11
       113  16  1.540668E+04  2.672681E+05  1.954676E+04 -1.077007E+04 -8.205879E-10 -2.648719E-08
       113  17  2.272052E+04  2.790123E+05  2.880300E+04 -1.689358E+04 -5.276927E-10 -9.074560E-10
       113  18  4.651732E+04  2.961823E+05  4.871964E+04 -2.668799E+04  6.033449E-10  2.537088E-08
       113  19 -1.540762E+04  1.378966E+05 -5.201534E+03 -1.496104E+04  4.043518E+03  6.522648E+03
       113  20 -1.526700E+04  1.213245E+05 -3.432340E+03 -5.159374E+03  3.825629E+03  9.657960E+03
       113  21  1.590023E+02  1.089803E+05  4.198944E+03  9.711654E+02  1.208150E+03  1.279235E+04
       113  22 -3.436102E-01  2.025804E+05  7.172734E+03 -1.286566E+04  4.044037E+03  5.107356E+03
       113  23  3.726925E+03  2.001655E+05  1.268567E+04 -1.102607E+04  3.824770E+03  1.169935E+04
       113  24  2.333819E+04  2.025774E+05  2.646002E+04 -1.285735E+04  1.205969E+03  1.829047E+04
       113  25  1.540670E+04  2.672681E+05  1.954682E+04 -1.077005E+04  4.044547E+03  3.691920E+03
       113  26  2.272059E+04  2.790125E+05  2.880338E+04 -1.689353E+04  3.823871E+03  1.374099E+04
       113  27  4.651748E+04  2.961829E+05  4.872071E+04 -2.668796E+04  1.203543E+03  2.378943E+04
       114   1  5.104429E+05  1.840857E+05  9.413989E+04  1.886974E+05  3.659793E+04  7.711588E+03
       114   2  4.837756E+05  1.672747E+05  6.705216E+04  1.804105E+05  2.372083E+04 -1.146477E+04
       114   3  4.576341E+05  1.578573E+05  5.408688E+04  1.756258E+05  7.590172E+03 -2.196956E+04
       114   4  1.478320E+05  4.746669E+04  1.782522E+03  8.845468E+04  3.146032E+03 -4.850900E+03
       114   5  1.491773E+05  4.479083E+04  8.444215E+02  8.696011E+04  7.430911E+03 -1.758406E+04
       114   6  1.476511E+05  4.611265E+04  4.415332E+02  8.896773E+04  8.459876E+03 -2.164416E+04
       114   7 -2.146327E+05 -8.913648E+04 -9.057643E+04 -1.173007E+04 -3.028308E+04 -1.740470E+04
       114   8 -1.852970E+05 -7.767980E+04 -6.536529E+04 -6.441364E+03 -8.849224E+03 -2.369964E+04
       114   9 -1.622293E+05 -6.562227E+04 -5.320641E+04  2.350255E+03  9.329116E+03 -2.131894E+04
       114  10  5.104415E+05  1.840852E+05  9.413726E+04  1.886972E+05  1.116730E-07  4.261360E-08
       114  11  4.837749E+05  1.672744E+05  6.705086E+04  1.804107E+05  1.313323E-08  4.084983E-09
       114  12  4.576339E+05  1.578567E+05  5.408587E+04  1.756259E+05 -1.013589E-07 -4.327436E-08
       114  13  1.478320E+05  4.746666E+04  1.782459E+03  8.845469E+04  3.695482E-09  3.211995E-09
       114  14  1.491771E+05  4.479049E+04  8.437366E+02  8.696022E+04  1.383969E-08  4.969616E-09
       114  15  1.476509E+05  4.611212E+04  4.405183E+02  8.896788E+04  3.974742E-09  1.629347E-09
       114  16 -2.146338E+05 -8.913705E+04 -9.057872E+04 -1.173050E+04 -1.024516E-07 -3.647592E-08
       114  17 -1.852972E+05 -7.768043E+04 -6.536649E+04 -6.441533E+03  1.646811E-08  6.864034E-09
       114  18 -1.622295E+05 -6.562278E+04 -5.320743E+04  2.350416E+03  1.164134E-07  4.366795E-08
       114  19  5.104429E+05  1.840857E+05  9.413989E+04  1.886974E+05 -3.659793E+04 -7.711588E+03
       114  20  4.837756E+05  1.672747E+05  6.705216E+04  1.804105E+05 -2.372083E+04  1.146477E+04
       114  21  4.576341E+05  1.578573E+05  5.408688E+04  1.756258E+05 -7.590172E+03  2.196956E+04
       114  22  1.478320E+05  4.746669E+04  1.782522E+03  8.845468E+04 -3.146032E+03  4.850900E+03
       114  23  1.491773E+05  4.479083E+04  8.444215E+02  8.696011E+04 -7.430911E+03  1.758406E+04
       114  24  1.476511E+05  4.611265E+04  4.415332E+02  8.896773E+04 -8.459876E+03  2.164416E+04
       114  25 -2.146327E+05 -8.913648E+04 -9.057643E+04 -1.173007E+04  3.028308E+04  1.740470E+04
       114  26 -1.852970E+05 -7.767980E+04 -6.536529E+04 -6.441364E+03  8.849224E+03  2.369964E+04
       114  27 -1.622293E+05 -6.562227E+04 -5.320641E+04  2.350255E+03 -9.329116E+03  2.131894E+04
       115   1  4.402688E+05  1.516409E+05  4.999188E+04  1.710656E+05  7.859732E+03 -2.128686E+04
       115   2  4.156729E+05  1.399018E+05  4.347941E+04  1.617119E+05  5.752997E+03 -2.135748E+04
       115   3  3.877968E+05  1.322423E+05  3.845944E+04  1.565448E+05  3.307533E+03 -2.052710E+04
       115   4  1.475050E+05  4.619552E+04  3.293606E+02  8.906740E+04  8.218616E+03 -2.115325E+04
       115   5  1.493183E+05  4.429481E+04  1.721041E+02  8.698898E+04  7.895022E+03 -2.055375E+04
       115   6  1.474984E+05  4.612093E+04  9.555931E+01  8.909714E+04  7.232573E+03 -1.905303E+04
       115   7 -1.451713E+05 -5.924268E+04 -4.933643E+04  7.104392E+03  8.577324E+03 -2.101971E+04
       115   8 -1.169621E+05 -5.130556E+04 -4.313717E+04  1.229566E+04  1.003609E+04 -1.975037E+04
       115   9 -9.273816E+04 -3.999449E+04 -3.826941E+04  2.167392E+04  1.115601E+04 -1.757956E+04
       115  10  4.402687E+05  1.516404E+05  4.999091E+04  1.710657E+05 -4.031653E-09 -6.847580E-09
       115  11  4.156728E+05  1.399013E+05  4.347849E+04  1.617120E+05 -1.664412E-09 -3.860615E-09
       115  12  3.877967E+05  1.322418E+05  3.845863E+04  1.565449E+05 -4.257423E-09 -1.303096E-09
       115  13  1.475048E+05  4.619502E+04  3.283927E+02  8.906754E+04  2.729218E-09 -3.104406E-09
       115  14  1.493181E+05  4.429434E+04  1.711930E+02  8.698911E+04 -6.194381E-10 -5.183246E-09
       115  15  1.474982E+05  4.612052E+04  9.477876E+01  8.909725E+04  6.688274E-10 -2.192791E-09
       115  16 -1.451715E+05 -5.924318E+04 -4.933740E+04  7.104537E+03  6.144316E-09  1.617574E-09
       115  17 -1.169623E+05 -5.130600E+04 -4.313809E+04  1.229582E+04  3.197535E-09 -4.261020E-10
       115  18 -9.273838E+04 -3.999485E+04 -3.827022E+04  2.167408E+04  3.332572E-09 -1.614844E-09
       115  19  4.402688E+05  1.516409E+05  4.999188E+04  1.710656E+05 -7.859732E+03  2.128686E+04
       115  20  4.156729E+05  1.399018E+05  4.347941E+04  1.617119E+05 -5.752997E+03  2.135748E+04
       115  21  3.877968E+05  1.322423E+05  3.845944E+04  1.565448E+05 -3.307533E+03  2.052710E+04
       115  22  1.475050E+05  4.619552E+04  3.293606E+02  8.906740E+04 -8.218616E+03  2.115325E+04
       115  23  1.493183E+05  4.429481E+04  1.721041E+02  8.698898E+04 -7.895022E+03  2.055375E+04
       115  24  1.474984E+05  4.612093E+04  9.555931E+01  8.909714E+04 -7.232573E+03  1.905303E+04
       115  25 -1.451713E+05 -5.924268E+04 -4.933643E+04  7.104392E+03 -8.577324E+03  2.101971E+04
       115  26 -1.169621E+05 -5.130556E+04 -4.313717E+04  1.229566E+04 -1.003609E+04  1.975037E+04
       115  27 -9.273816E+04 -3.999449E+04 -3.826941E+04  2.167392E+04 -1.115601E+04  1.757956E+04
       116   1  3.711380E+05  1.262639E+05  3.557659E+04  1.519060E+05  2.904740E+03 -1.933107E+04
       116   2  3.467846E+05  1.149992E+05  3.125156E+04  1.424388E+05  1.946002E+03 -1.740548E+04
       116   3  3.187610E+05  1.074899E+05  2.709064E+04  1.372168E+05  9.519613E+02 -1.538669E+04
       116   4  1.474845E+05  4.613215E+04  7.266389E+01  8.910567E+04  6.775906E+03 -1.787703E+04
       116   5  1.493413E+05  4.427518E+04  4.361053E+01  8.698327E+04  6.001579E+03 -1.588182E+04
       116   6  1.474901E+05  4.613721E+04  3.243924E+01  8.910590E+04  5.191929E+03 -1.379339E+04
       116   7 -7.611255E+04 -3.399343E+04 -3.543142E+04  2.632732E+04  1.064555E+04 -1.642356E+04
       116   8 -4.806008E+04 -2.644474E+04 -3.116497E+04  3.154429E+04  1.005579E+04 -1.435867E+04
       116   9 -2.375115E+04 -1.521315E+04 -2.702676E+04  4.100696E+04  9.430707E+03 -1.220053E+04
       116  10  3.711378E+05  1.262635E+05  3.557587E+04  1.519060E+05 -2.918796E-09 -7.772438E-11
       116  11  3.467845E+05  1.149989E+05  3.125098E+04  1.424389E+05 -1.869811E-09 -8.228652E-10
       116  12  3.187609E+05  1.074896E+05  2.709019E+04  1.372168E+05 -3.003888E-10 -2.670787E-09
       116  13  1.474844E+05  4.613179E+04  7.197698E+01  8.910577E+04 -5.421627E-10 -5.286055E-10
       116  14  1.493412E+05  4.427490E+04  4.306880E+01  8.698335E+04  1.871904E-10 -9.707787E-10
       116  15  1.474900E+05  4.613700E+04  3.203102E+01  8.910596E+04 -6.293331E-09 -2.704461E-09
       116  16 -7.611274E+04 -3.399375E+04 -3.543214E+04  2.632746E+04  3.489457E-09 -7.398807E-10
       116  17 -4.806024E+04 -2.644499E+04 -3.116555E+04  3.154441E+04  8.089207E-10  7.036952E-10
       116  18 -2.375128E+04 -1.521333E+04 -2.702721E+04  4.100705E+04 -8.120142E-09 -1.898191E-09
       116  19  3.711380E+05  1.262639E+05  3.557659E+04  1.519060E+05 -2.904740E+03  1.933107E+04
       116  20  3.467846E+05  1.149992E+05  3.125156E+04  1.424388E+05 -1.946002E+03  1.740548E+04
       116  21  3.187610E+05  1.074899E+05  2.709064E+04  1.372168E+05 -9.519613E+02  1.538669E+04
       116  22  1.474845E+05  4.613215E+04  7.266389E+01  8.910567E+04 -6.775906E+03  1.787703E+04
       116  23  1.493413E+05  4.427518E+04  4.361053E+01  8.698327E+04 -6.001579E+03  1.588182E+04
       116  24  1.474901E+05  4.613721E+04  3.243924E+01  8.910590E+04 -5.191929E+03  1.379339E+04
       116  25 -7.611255E+04 -3.399343E+04 -3.543142E+04  2.632732E+04 -1.064555E+04  1.642356E+04
       116  26 -4.806008E+04 -2.644474E+04 -3.116497E+04  3.154429E+04 -1.005579E+04  1.435867E+04
       116  27 -2.375115E+04 -1.521315E+04 -2.702676E+04  4.100696E+04 -9.430707E+03  1.220053E+04
       117   1  3.021837E+05  1.015364E+05  2.434684E+04  1.325720E+05  4.831168E+02 -1.413648E+04
       117   2  2.778704E+05  9.031716E+04  2.027210E+04  1.230958E+05 -3.586742E+02 -1.200545E+04
       117   3  2.498464E+05  8.281963E+04  1.622502E+04  1.178676E+05 -1.204000E+03 -9.865479E+03
       117   4  1.474893E+05  4.613936E+04  3.085420E+01  8.910582E+04  4.716972E+03 -1.254530E+04
       117   5  1.493482E+05  4.428240E+04  3.645074E+01  8.698162E+04  3.892817E+03 -1.040743E+04
       117   6  1.474921E+05  4.614348E+04  5.560810E+01  8.910522E+04  3.065127E+03 -8.260616E+03
       117   7 -7.179201E+03 -9.255130E+03 -2.428546E+04  4.564981E+04  8.949710E+03 -1.095455E+04
       117   8  2.084461E+04 -1.750325E+03 -2.019919E+04  5.087474E+04  8.143351E+03 -8.809768E+03
       117   9  4.515031E+04  9.468903E+03 -1.611357E+04  6.034763E+04  7.333460E+03 -6.656051E+03
       117  10  3.021836E+05  1.015362E+05  2.434647E+04  1.325720E+05 -5.840759E-09 -4.384019E-09
       117  11  2.778703E+05  9.031701E+04  2.027182E+04  1.230957E+05 -8.651724E-09 -1.813560E-09
       117  12  2.498463E+05  8.281952E+04  1.622483E+04  1.178676E+05 -6.593263E-09 -1.808636E-09
       117  13  1.474893E+05  4.613918E+04  3.051660E+01  8.910587E+04 -7.923494E-09 -2.993614E-09
       117  14  1.493481E+05  4.428228E+04  3.621870E+01  8.698165E+04 -8.436118E-09 -2.521463E-09
       117  15  1.474920E+05  4.614340E+04  5.546220E+01  8.910524E+04 -2.729025E-09 -8.748177E-10
       117  16 -7.179319E+03 -9.255281E+03 -2.428584E+04  4.564989E+04 -8.950383E-09 -2.276692E-09
       117  17  2.084452E+04 -1.750426E+03 -2.019946E+04  5.087480E+04 -3.771630E-09 -2.137693E-09
       117  18  4.515024E+04  9.468841E+03 -1.611376E+04  6.034767E+04  5.065230E-09 -5.389463E-10
       117  19  3.021837E+05  1.015364E+05  2.434684E+04  1.325720E+05 -4.831168E+02  1.413648E+04
       117  20  2.778704E+05  9.031716E+04  2.027210E+04  1.230958E+05  3.586742E+02  1.200545E+04
       117  21  2.498464E+05  8.281963E+04  1.622502E+04  1.178676E+05  1.204000E+03  9.865479E+03
       117  22  1.474893E+05  4.613936E+04  3.085420E+01  8.910582E+04 -4.716972E+03  1.254530E+04
       117  23  1.493482E+05  4.428240E+04  3.645074E+01  8.698162E+04 -3.892817E+03  1.040743E+04
       117  24  1.474921E+05  4.614348E+04  5.560810E+01  8.910522E+04 -3.065127E+03  8.260616E+03
       117  25 -7.179201E+03 -9.255130E+03 -2.428546E+04  4.564981E+04 -8.949710E+03  1.095455E+04
       117  26  2.084461E+04 -1.750325E+03 -2.019919E+04  5.087474E+04 -8.143351E+03  8.809768E+03
       117  27  4.515031E+04  9.468903E+03 -1.611357E+04  6.034763E+04 -7.333460E+03  6.656051E+03
       118   1  2.332825E+05  7.686805E+04  1.351033E+04  1.132243E+05 -1.686250E+03 -8.612841E+03
       118   2  2.089754E+05  6.565213E+04  9.502491E+03  1.037519E+05 -2.551107E+03 -6.477549E+03
       118   3  1.809582E+05  5.815590E+04  5.535249E+03  9.852828E+04 -3.414564E+03 -4.346194E+03
       118   4  1.474947E+05  4.614410E+04  7.159297E+01  8.910598E+04  2.582129E+03 -7.008164E+03
       118   5  1.493493E+05  4.428264E+04  1.250396E+02  8.698212E+04  1.709449E+03 -4.875700E+03
       118   6  1.474952E+05  4.614259E+04  2.254042E+02  8.910688E+04  8.381679E+02 -2.747180E+03
       118   7  6.171379E+04  1.542055E+04 -1.336748E+04  6.499054E+04  6.849935E+03 -5.403702E+03
       118   8  8.972665E+04  2.291339E+04 -9.252499E+03  7.021374E+04  5.969597E+03 -3.274004E+03
       118   9  1.140335E+05  3.412941E+04 -5.084388E+03  7.968596E+04  5.090659E+03 -1.148257E+03
       118  10  2.332825E+05  7.686797E+04  1.351019E+04  1.132243E+05 -1.544045E-09  6.022730E-10
       118  11  2.089754E+05  6.565208E+04  9.502400E+03  1.037519E+05 -1.548701E-09  7.037734E-10
       118  12  1.809582E+05  5.815588E+04  5.535192E+03  9.852827E+04  2.994108E-09 -4.284232E-10
       118  13  1.474947E+05  4.614405E+04  7.148813E+01  8.910600E+04 -5.190625E-11  1.427179E-09
       118  14  1.493493E+05  4.428261E+04  1.249895E+02  8.698213E+04 -1.161897E-09 -3.416138E-09
       118  15  1.474952E+05  4.614258E+04  2.253887E+02  8.910688E+04  4.169318E-09  4.375997E-09
       118  16  6.171373E+04  1.542051E+04 -1.336762E+04  6.499057E+04 -8.328858E-10 -1.868436E-09
       118  17  8.972661E+04  2.291337E+04 -9.252586E+03  7.021375E+04  2.937762E-09  1.243513E-10
       118  18  1.140334E+05  3.412940E+04 -5.084439E+03  7.968597E+04  9.382790E-09 -2.864965E-10
       118  19  2.332825E+05  7.686805E+04  1.351033E+04  1.132243E+05  1.686250E+03  8.612841E+03
       118  20  2.089754E+05  6.565213E+04  9.502491E+03  1.037519E+05  2.551107E+03  6.477549E+03
       118  21  1.809582E+05  5.815590E+04  5.535249E+03  9.852828E+04  3.414564E+03  4.346194E+03
       118  22  1.474947E+05  4.614410E+04  7.159297E+01  8.910598E+04 -2.582129E+03  7.008164E+03
       118  23  1.493493E+05  4.428264E+04  1.250396E+02  8.698212E+04 -1.709449E+03  4.875700E+03
       118  24  1.474952E+05  4.614259E+04  2.254042E+02  8.910688E+04 -8.381679E+02  2.747180E+03
       118  25  6.171379E+04  1.542055E+04 -1.336748E+04  6.499054E+04 -6.849935E+03  5.403702E+03
       118  26  8.972665E+04  2.291339E+04 -9.252499E+03  7.021374E+04 -5.969597E+03  3.274004E+03
       118  27  1.140335E+05  3.412941E+04 -5.084388E+03  7.968596E+04 -5.090659E+03  1.148257E+03
       119   1  1.643993E+05  5.220808E+04  2.875752E+03  9.389553E+04 -3.931548E+03 -3.109995E+03
       119   2  1.400856E+05  4.098616E+04 -9.791253E+02  8.441554E+04 -4.913074E+03 -1.049808E+03
       119   3  1.120936E+05  3.351504E+04 -4.690342E+03  7.917906E+04 -5.877295E+03  9.644938E+02
       119   4  1.475043E+05  4.614098E+04  3.002395E+02  8.911031E+04  3.237032E+02 -1.510013E+03
       119   5  1.493384E+05  4.428245E+04  5.448733E+02  8.697898E+04 -7.486994E+02  5.159827E+02
       119   6  1.475113E+05  4.619254E+04  1.005030E+03  8.909081E+04 -1.803812E+03  2.496101E+03
       119   7  1.306098E+05  4.007400E+04 -2.275145E+03  8.432528E+04  4.578784E+03  8.990414E+01
       119   8  1.585913E+05  4.757875E+04  2.068944E+03  8.954246E+04  3.415741E+03  2.081797E+03
       119   9  1.829308E+05  5.887033E+04  6.700561E+03  9.900320E+04  2.269963E+03  4.027817E+03
       119  10  1.643992E+05  5.220807E+04  2.875704E+03  9.389552E+04  1.089799E-08  3.593521E-09
       119  11  1.400856E+05  4.098615E+04 -9.791727E+02  8.441553E+04  2.352522E-09  1.061055E-09
       119  12  1.120935E+05  3.351503E+04 -4.690409E+03  7.917907E+04 -1.894712E-09  3.308361E-09
       119  13  1.475043E+05  4.614098E+04  3.002350E+02  8.911031E+04  8.177496E-09  6.304253E-10
       119  14  1.493384E+05  4.428244E+04  5.448717E+02  8.697898E+04  4.990792E-09  4.833152E-10
       119  15  1.475113E+05  4.619253E+04  1.005012E+03  8.909081E+04  9.768627E-09  4.425639E-09
       119  16  1.306098E+05  4.007400E+04 -2.275184E+03  8.432528E+04  9.756399E-10 -2.137099E-09
       119  17  1.585913E+05  4.757875E+04  2.068914E+03  8.954246E+04  3.673544E-09  2.436182E-11
       119  18  1.829308E+05  5.887031E+04  6.700520E+03  9.900319E+04  1.251183E-08  6.504126E-09
       119  19  1.643993E+05  5.220808E+04  2.875752E+03  9.389553E+04  3.931548E+03  3.109995E+03
       119  20  1.400856E+05  4.098616E+04 -9.791253E+02  8.441554E+04  4.913074E+03  1.049808E+03
       119  21  1.120936E+05  3.351504E+04 -4.690342E+03  7.917906E+04  5.877295E+03 -9.644938E+02
       119  22  1.475043E+05  4.614098E+04  3.002395E+02  8.911031E+04 -3.237032E+02  1.510013E+03
       119  23  1.493384E+05  4.428245E+04  5.448733E+02  8.697898E+04  7.486994E+02 -5.159827E+02
       119  24  1.475113E+05  4.619254E+04  1.005030E+03  8.909081E+04  1.803812E+03 -2.496101E+03
       119  25  1.306098E+05  4.007400E+04 -2.275145E+03  8.432528E+04 -4.578784E+03 -8.990414E+01
       119  26  1.585913E+05  4.757875E+04  2.068944E+03  8.954246E+04 -3.415741E+03 -2.081797E+03
       119  27  1.829308E+05  5.887033E+04  6.700561E+03  9.900320E+04 -2.269963E+03 -4.027817E+03
       120   1  9.551335E+04  2.761393E+04 -7.143579E+03  7.462504E+04 -6.544135E+03  2.105392E+03
       120   2  7.141334E+04  1.629919E+04 -1.049823E+04  6.472992E+04 -7.614897E+03  3.816282E+03
       120   3  4.389636E+04  9.279447E+03 -1.341024E+04  5.890957E+04 -8.519285E+03  5.084986E+03
       120   4  1.475824E+05  4.619771E+04  1.343300E+03  8.910967E+04 -2.444569E+03  3.646769E+03
       120   5  1.492907E+05  4.457654E+04  2.477027E+03  8.684178E+04 -4.390164E+03  5.028612E+03
       120   6  1.477544E+05  4.742340E+04  4.746291E+03  8.864830E+04 -6.169405E+03  5.968296E+03
       120   7  1.996543E+05  6.478177E+04  9.830185E+03  1.035954E+05  1.655359E+03  5.188280E+03
       120   8  2.271740E+05  7.285436E+04  1.545204E+04  1.089561E+05 -1.165022E+03  6.241099E+03
       120   9  2.516226E+05  8.556805E+04  2.290217E+04  1.183914E+05 -3.819133E+03  6.851759E+03
       120  10  9.551330E+04  2.761391E+04 -7.143668E+03  7.462506E+04  6.770381E-08  2.841604E-08
       120  11  7.141327E+04  1.629915E+04 -1.049836E+04  6.472995E+04  1.582748E-08  8.338526E-09
       120  12  4.389628E+04  9.279400E+03 -1.341042E+04  5.890961E+04 -4.703719E-08 -1.846391E-08
       120  13  1.475824E+05  4.619769E+04  1.343264E+03  8.910968E+04  1.533828E-08  7.738421E-09
       120  14  1.492906E+05  4.457650E+04  2.476943E+03  8.684179E+04  1.309840E-08  9.619782E-09
       120  15  1.477543E+05  4.742336E+04  4.746153E+03  8.864833E+04  3.201690E-09  2.135393E-09
       120  16  1.996543E+05  6.478174E+04  9.830129E+03  1.035954E+05 -4.455226E-08 -1.291962E-08
       120  17  2.271740E+05  7.285431E+04  1.545197E+04  1.089561E+05  6.503802E-09  1.051164E-08
       120  18  2.516226E+05  8.556799E+04  2.290206E+04  1.183914E+05  5.268345E-08  2.501580E-08
       120  19  9.551335E+04  2.761393E+04 -7.143579E+03  7.462504E+04  6.544135E+03 -2.105392E+03
       120  20  7.141334E+04  1.629919E+04 -1.049823E+04  6.472992E+04  7.614897E+03 -3.816282E+03
       120  21  4.389636E+04  9.279447E+03 -1.341024E+04  5.890957E+04  8.519285E+03 -5.084986E+03
       120  22  1.475824E+05  4.619771E+04  1.343300E+03  8.910967E+04  2.444569E+03 -3.646769E+03
       120  23  1.492907E+05  4.457654E+04  2.477027E+03  8.684178E+04  4.390164E+03 -5.028612E+03
       120  24  1.477544E+05  4.742340E+04  4.746291E+03  8.864830E+04  6.169405E+03 -5.968296E+03
       120  25  1.996543E+05  6.478177E+04  9.830185E+03  1.035954E+05 -1.655359E+03 -5.188280E+03
       120  26  2.271740E+05  7.285436E+04  1.545204E+04  1.089561E+05  1.165022E+03 -6.241099E+03
       120  27  2.516226E+05  8.556805E+04  2.290217E+04  1.183914E+05  3.819133E+03 -6.851759E+03
       121   1  2.707068E+04  4.114559E+03 -1.513035E+04  5.522870E+04 -9.820485E+03  5.611402E+03
       121   2  7.420126E+03 -8.500594E+03 -1.750988E+04  3.803152E+04 -7.426205E+03  5.584903E+03
       121   3 -1.242180E+04 -8.282565E+03 -1.885090E+04  2.214230E+04 -3.433112E+03  1.304115E+03
       121   4  1.485185E+05  4.765009E+04  6.367371E+03  8.878546E+04 -7.220593E+03  6.588645E+03
       121   5  1.491576E+05  5.014865E+04  1.221354E+04  8.446641E+04 -1.324002E+04  3.399125E+03
       121   6  1.512705E+05  6.714543E+04  2.576340E+04  8.145579E+04 -1.766104E+04 -4.044136E+03
       121   7  2.699840E+05  9.118777E+04  2.786522E+04  1.223489E+05 -4.620115E+03  7.566104E+03
       121   8  2.909155E+05  1.088011E+05  4.193594E+04  1.309116E+05 -1.905524E+04  1.212657E+03
       121   9  3.149863E+05  1.425778E+05  7.037509E+04  1.407836E+05 -3.189273E+04 -9.394616E+03
       121  10  2.707057E+04  4.114499E+03 -1.513059E+04  5.522874E+04 -3.409400E-09 -1.092578E-09
       121  11  7.420058E+03 -8.500643E+03 -1.751004E+04  3.803156E+04 -2.852582E-09  1.019773E-12
       121  12 -1.242181E+04 -8.282570E+03 -1.885092E+04  2.214230E+04  1.080112E-09 -1.256466E-10
       121  13  1.485185E+05  4.765003E+04  6.367191E+03  8.878549E+04  3.292205E-10  2.792286E-09
       121  14  1.491574E+05  5.014859E+04  1.221319E+04  8.446645E+04 -3.110460E-09  7.267607E-10
       121  15  1.512702E+05  6.714532E+04  2.576278E+04  8.145573E+04 -8.538660E-11  1.073598E-09
       121  16  2.699840E+05  9.118770E+04  2.786507E+04  1.223489E+05  1.416444E-09  1.953238E-09
       121  17  2.909151E+05  1.088010E+05  4.193525E+04  1.309116E+05  1.240097E-09  1.897004E-09
       121  18  3.149852E+05  1.425774E+05  7.037302E+04  1.407833E+05  9.601949E-10 -5.824141E-10
       121  19  2.707068E+04  4.114559E+03 -1.513035E+04  5.522870E+04  9.820485E+03 -5.611402E+03
       121  20  7.420126E+03 -8.500594E+03 -1.750988E+04  3.803152E+04  7.426205E+03 -5.584903E+03
       121  21 -1.242180E+04 -8.282565E+03 -1.885090E+04  2.214230E+04  3.433112E+03 -1.304115E+03
       121  22  1.485185E+05  4.765009E+04  6.367371E+03  8.878546E+04  7.220593E+03 -6.588645E+03
       121  23  1.491576E+05  5.014865E+04  1.221354E+04  8.446641E+04  1.324002E+04 -3.399125E+03
       121  24  1.512705E+05  6.714543E+04  2.576340E+04  8.145579E+04  1.766104E+04  4.044136E+03
       121  25  2.699840E+05  9.118777E+04  2.786522E+04  1.223489E+05  4.620115E+03 -7.566104E+03
       121  26  2.909155E+05  1.088011E+05  4.193594E+04  1.309116E+05  1.905524E+04 -1.212657E+03
       121  27  3.149863E+05  1.425778E+05  7.037509E+04  1.407836E+05  3.189273E+04  9.394616E+03
       122   1 -1.286107E+05 -6.494248E+05 -1.503510E+05  3.552754E+04 -1.524738E+03 -6.502620E+04
       122   2 -3.081412E+04 -6.022666E+05 -8.854135E+04  4.914615E+03 -4.330112E+03 -3.993003E+04
       122   3 -3.554610E+04 -5.838635E+05 -6.868555E+04  1.080449E+04 -3.006328E+03 -1.482902E+04
       122   4 -7.468965E+04 -4.337557E+05 -9.673721E+04  1.857986E+04 -1.524421E+03 -6.341240E+04
       122   5  1.472278E+04 -4.194945E+05 -4.377330E+04  3.627091E+02 -4.329923E+03 -3.969535E+04
       122   6  1.862320E+03 -4.337408E+05 -3.179485E+04  1.864880E+04 -3.005797E+03 -1.597485E+04
       122   7 -2.077099E+04 -2.180437E+05 -4.312673E+04  1.626299E+03 -1.524193E+03 -6.179804E+04
       122   8  6.025728E+04 -2.366920E+05  9.923174E+02 -4.190535E+03 -4.329738E+03 -3.946061E+04
       122   9  3.926930E+04 -2.835974E+05  5.094231E+03  2.649501E+04 -3.005295E+03 -1.712097E+04
       122  10 -1.286119E+05 -6.494293E+05 -1.503590E+05  3.552746E+04 -1.229035E-09  5.256556E-10
       122  11 -3.081457E+04 -6.022683E+05 -8.854438E+04  4.914475E+03 -2.845873E-09  1.705927E-09
       122  12 -3.554617E+04 -5.838638E+05 -6.868598E+04  1.080446E+04  3.382239E-09  3.599756E-09
       122  13 -7.469074E+04 -4.337600E+05 -9.674477E+04  1.857978E+04  5.285796E-11  3.038676E-10
       122  14  1.472234E+04 -4.194962E+05 -4.377629E+04  3.625707E+02  1.481376E-09  1.102911E-09
       122  15  1.862242E+03 -4.337411E+05 -3.179535E+04  1.864876E+04 -2.191052E-09  6.295733E-10
       122  16 -2.077202E+04 -2.180478E+05 -4.313392E+04  1.626223E+03  9.210623E-10  6.324895E-10
       122  17  6.025684E+04 -2.366936E+05  9.893548E+02 -4.190672E+03  3.022192E-09 -2.245172E-09
       122  18  3.926921E+04 -2.835977E+05  5.093663E+03  2.649497E+04  3.170337E-09 -3.276139E-09
       122  19 -1.286107E+05 -6.494248E+05 -1.503510E+05  3.552754E+04  1.524738E+03  6.502620E+04
       122  20 -3.081412E+04 -6.022666E+05 -8.854135E+04  4.914615E+03  4.330112E+03  3.993003E+04
       122  21 -3.554610E+04 -5.838635E+05 -6.868555E+04  1.080449E+04  3.006328E+03  1.482902E+04
       122  22 -7.468965E+04 -4.337557E+05 -9.673721E+04  1.857986E+04  1.524421E+03  6.341240E+04
       122  23  1.472278E+04 -4.194945E+05 -4.377330E+04  3.627091E+02  4.329923E+03  3.969535E+04
       122  24  1.862320E+03 -4.337408E+05 -3.179485E+04  1.864880E+04  3.005797E+03  1.597485E+04
       122  25 -2.077099E+04 -2.180437E+05 -4.312673E+04  1.626299E+03  1.524193E+03  6.179804E+04
       122  26  6.025728E+04 -2.366920E+05  9.923174E+02 -4.190535E+03  4.329738E+03  3.946061E+04
       122  27  3.926930E+04 -2.835974E+05  5.094231E+03  2.649501E+04  3.005295E+03  1.712097E+04
       123   1 -2.778187E+04 -5.033888E+05 -4.679641E+04  2.191156E+04 -1.650915E+03 -1.040304E+04
       123   2 -6.279202E+03 -4.661358E+05 -3.213475E+04  2.078209E+02 -8.973723E+02  1.104869E+03
       123   3 -1.204244E+04 -4.371467E+05 -3.177514E+04  1.553036E+04  6.385592E+00  1.261335E+04
       123   4 -9.302877E+03 -4.292387E+05 -2.861043E+04  1.874219E+04 -1.650728E+03 -1.063364E+04
       123   5  3.942834E+03 -4.251109E+05 -2.206951E+04  2.291491E+02 -8.972265E+02  8.247352E+02
       123   6 -1.006770E+04 -4.292389E+05 -2.979533E+04  1.874240E+04  6.601076E+00  1.228307E+04
       123   7  9.175750E+03 -3.550835E+05 -1.042486E+04  1.557245E+04 -1.650538E+03 -1.086427E+04
       123   8  1.416475E+04 -3.840844E+05 -1.200440E+04  2.504789E+02 -8.970808E+02  5.445827E+02
       123   9 -8.092930E+03 -4.213309E+05 -2.781551E+04  2.195447E+04  6.813138E+00  1.195280E+04
       123  10 -2.778191E+04 -5.033889E+05 -4.679661E+04  2.191154E+04  1.914601E-09 -2.246551E-09
       123  11 -6.279203E+03 -4.661358E+05 -3.213475E+04  2.078216E+02 -7.115350E-10 -2.919964E-09
       123  12 -1.204248E+04 -4.371469E+05 -3.177544E+04  1.553036E+04 -1.781864E-10 -6.130126E-10
       123  13 -9.302910E+03 -4.292388E+05 -2.861065E+04  1.874218E+04 -2.363470E-09  2.448201E-11
       123  14  3.942833E+03 -4.251109E+05 -2.206952E+04  2.291497E+02 -3.905734E-09  3.510884E-11
       123  15 -1.006774E+04 -4.292390E+05 -2.979561E+04  1.874240E+04 -3.112104E-09  5.232171E-10
       123  16  9.175716E+03 -3.550836E+05 -1.042508E+04  1.557244E+04  1.366130E-09  3.217868E-09
       123  17  1.416475E+04 -3.840844E+05 -1.200440E+04  2.504793E+02 -8.425166E-10  2.637572E-09
       123  18 -8.092968E+03 -4.213311E+05 -2.781578E+04  2.195447E+04  7.544237E-10  3.619701E-10
       123  19 -2.778187E+04 -5.033888E+05 -4.679641E+04  2.191156E+04  1.650915E+03  1.040304E+04
       123  20 -6.279202E+03 -4.661358E+05 -3.213475E+04  2.078209E+02  8.973723E+02 -1.104869E+03
       123  21 -1.204244E+04 -4.371467E+05 -3.177514E+04  1.553036E+04 -6.385592E+00 -1.261335E+04
       123  22 -9.302877E+03 -4.292387E+05 -2.861043E+04  1.874219E+04  1.650728E+03  1.063364E+04
       123  23  3.942834E+03 -4.251109E+05 -2.206951E+04  2.291491E+02  8.972265E+02 -8.247352E+02
       123  24 -1.006770E+04 -4.292389E+05 -2.979533E+04  1.874240E+04 -6.601076E+00 -1.228307E+04
       123  25  9.175750E+03 -3.550835E+05 -1.042486E+04  1.557245E+04  1.650538E+03  1.086427E+04
       123  26  1.416475E+04 -3.840844E+05 -1.200440E+04  2.504789E+02  8.970808E+02 -5.445827E+02
       123  27 -8.092930E+03 -4.213309E+05 -2.781551E+04  2.195447E+04 -6.813138E+00 -1.195280E+04
       124   1  1.924418E+04 -3.658492E+05 -1.662019E+04  2.717442E+04  1.188519E+03  1.876963E+04
       124   2  4.105401E+04 -3.175663E+05 -2.196556E+04 -4.561545E+03  2.443823E+03  4.319389E+04
       124   3 -4.676926E+04 -2.997933E+05 -7.060684E+04  5.375150E+02  9.147977E+02  6.761774E+04
       124   4  2.206474E+03 -4.342193E+05 -3.345657E+04  1.871838E+04  1.188692E+03  1.787462E+04
       124   5  1.581461E+04 -4.188878E+05 -4.676795E+04  2.736559E+02  2.444161E+03  4.323002E+04
       124   6 -8.038260E+04 -4.342353E+05 -1.040280E+05  1.866453E+04  9.161480E+02  6.858368E+04
       124   7 -1.483131E+04 -5.025851E+05 -5.029325E+04  1.026328E+04  1.188889E+03  1.697970E+04
       124   8 -9.425471E+03 -5.201999E+05 -7.157109E+04  5.108068E+03  2.444501E+03  4.326614E+04
       124   9 -1.139961E+05 -5.686602E+05 -1.374503E+05  3.678762E+04  9.175551E+02  6.954940E+04
       124  10  1.924409E+04 -3.658496E+05 -1.662086E+04  2.717440E+04  1.714173E-09 -5.106925E-10
       124  11  4.105350E+04 -3.175683E+05 -2.196908E+04 -4.561630E+03 -2.709243E-09 -1.441806E-10
       124  12 -4.677049E+04 -2.997982E+05 -7.061544E+04  5.374652E+02 -1.786706E-09  5.470645E-10
       124  13  2.206386E+03 -4.342197E+05 -3.345717E+04  1.871837E+04 -1.902423E-10  3.063478E-10
       124  14  1.581410E+04 -4.188898E+05 -4.677148E+04  2.735708E+02 -1.615705E-10  3.774015E-10
       124  15 -8.038387E+04 -4.342403E+05 -1.040368E+05  1.866448E+04 -1.091992E-09  1.403285E-09
       124  16 -1.483139E+04 -5.025854E+05 -5.029379E+04  1.026326E+04 -5.037481E-10  1.384747E-09
       124  17 -9.425980E+03 -5.202019E+05 -7.157462E+04  5.107982E+03 -2.453815E-09 -7.600411E-10
       124  18 -1.139974E+05 -5.686654E+05 -1.374594E+05  3.678757E+04 -7.543624E-10 -6.739050E-10
       124  19  1.924418E+04 -3.658492E+05 -1.662019E+04  2.717442E+04 -1.188519E+03 -1.876963E+04
       124  20  4.105401E+04 -3.175663E+05 -2.196556E+04 -4.561545E+03 -2.443823E+03 -4.319389E+04
       124  21 -4.676926E+04 -2.997933E+05 -7.060684E+04  5.375150E+02 -9.147977E+02 -6.761774E+04
       124  22  2.206474E+03 -4.342193E+05 -3.345657E+04  1.871838E+04 -1.188692E+03 -1.787462E+04
       124  23  1.581461E+04 -4.188878E+05 -4.676795E+04  2.736559E+02 -2.444161E+03 -4.323002E+04
       124  24 -8.038260E+04 -4.342353E+05 -1.040280E+05  1.866453E+04 -9.161480E+02 -6.858368E+04
       124  25 -1.483131E+04 -5.025851E+05 -5.029325E+04  1.026328E+04 -1.188889E+03 -1.697970E+04
       124  26 -9.425471E+03 -5.201999E+05 -7.157109E+04  5.108068E+03 -2.444501E+03 -4.326614E+04
       124  27 -1.139961E+05 -5.686602E+05 -1.374503E+05  3.678762E+04 -9.175551E+02 -6.954940E+04
       125   1  2.141590E+05  7.173825E+04  4.480795E+04  7.862820E+04  2.376436E+04  8.565504E+03
       125   2  2.062335E+05  3.451939E+04  2.203552E+04  8.005725E+04  1.526225E+04  4.671722E+03
       125   3  2.090733E+05  3.248226E+04  1.467791E+04  7.607616E+04  6.458815E+03  1.579224E+03
       125   4  1.892708E+05  5.390786E+04  3.638692E+04  6.317696E+04  2.324166E+04  8.368482E+03
       125   5  1.820365E+05  2.297424E+04  1.523395E+04  7.091716E+04  1.515404E+04  4.630942E+03
       125   6  1.854860E+05  2.714085E+04  9.167994E+03  7.324710E+04  6.765029E+03  1.694463E+03
       125   7  1.643835E+05  3.607833E+04  2.796592E+04  4.772658E+04  2.271900E+04  8.171488E+03
       125   8  1.578402E+05  1.142927E+04  8.432358E+03  6.177744E+04  1.504585E+04  4.590165E+03
       125   9  1.618991E+05  2.179940E+04  3.658028E+03  7.041810E+04  7.071231E+03  1.809701E+03
       125  10  2.141584E+05  7.173802E+04  4.480675E+04  7.862804E+04 -1.937830E-09 -1.955929E-10
       125  11  2.062333E+05  3.451930E+04  2.203504E+04  8.005719E+04  4.524677E-10  1.775087E-10
       125  12  2.090732E+05  3.248225E+04  1.467782E+04  7.607615E+04 -3.360804E-10 -8.458957E-10
       125  13  1.892702E+05  5.390764E+04  3.638577E+04  6.317680E+04 -2.177983E-09 -2.075655E-09
       125  14  1.820363E+05  2.297416E+04  1.523348E+04  7.091710E+04 -1.122710E-09 -3.260268E-09
       125  15  1.854859E+05  2.714083E+04  9.167903E+03  7.324709E+04 -1.454246E-09 -1.244002E-09
       125  16  1.643829E+05  3.607812E+04  2.796482E+04  4.772643E+04 -2.085290E-09  1.373332E-10
       125  17  1.578399E+05  1.142919E+04  8.431893E+03  6.177738E+04 -5.100302E-11  2.065059E-09
       125  18  1.618990E+05  2.179938E+04  3.657928E+03  7.041809E+04 -3.411367E-09 -1.691392E-09
       125  19  2.141590E+05  7.173825E+04  4.480795E+04  7.862820E+04 -2.376436E+04 -8.565504E+03
       125  20  2.062335E+05  3.451939E+04  2.203552E+04  8.005725E+04 -1.526225E+04 -4.671722E+03
       125  21  2.090733E+05  3.248226E+04  1.467791E+04  7.607616E+04 -6.458815E+03 -1.579224E+03
       125  22  1.892708E+05  5.390786E+04  3.638692E+04  6.317696E+04 -2.324166E+04 -8.368482E+03
       125  23  1.820365E+05  2.297424E+04  1.523395E+04  7.091716E+04 -1.515404E+04 -4.630942E+03
       125  24  1.854860E+05  2.714085E+04  9.167994E+03  7.324710E+04 -6.765029E+03 -1.694463E+03
       125  25  1.643835E+05  3.607833E+04  2.796592E+04  4.772658E+04 -2.271900E+04 -8.171488E+03
       125  26  1.578402E+05  1.142927E+04  8.432358E+03  6.177744E+04 -1.504585E+04 -4.590165E+03
       125  27  1.618991E+05  2.179940E+04  3.658028E+03  7.041810E+04 -7.071231E+03 -1.809701E+03
       126   1  1.982395E+05  3.686566E+04  1.124939E+04  7.573358E+04  5.314214E+03  1.426249E+03
       126   2  1.940599E+05  3.018247E+04  6.098854E+03  7.332057E+04  3.355890E+03  8.766076E+02
       126   3  1.887710E+05  2.952621E+04  3.284128E+03  7.308193E+04  1.375732E+03  3.850995E+02
       126   4  1.843010E+05  3.083776E+04  7.441930E+03  7.111073E+04  5.383852E+03  1.452438E+03
       126   5  1.846637E+05  2.644856E+04  3.597961E+03  7.054234E+04  3.455615E+03  9.141232E+02
       126   6  1.839111E+05  2.808033E+04  2.066009E+03  7.214828E+04  1.505530E+03  4.339325E+02
       126   7  1.703627E+05  2.480988E+04  3.634451E+03  6.648799E+04  5.453489E+03  1.478626E+03
       126   8  1.752676E+05  2.271465E+04  1.097065E+03  6.776415E+04  3.555337E+03  9.516380E+02
       126   9  1.790514E+05  2.663446E+04  8.478925E+02  7.121465E+04  1.635326E+03  4.827651E+02
       126  10  1.982395E+05  3.686565E+04  1.124934E+04  7.573357E+04  2.493990E-10 -6.625170E-10
       126  11  1.940599E+05  3.018247E+04  6.098831E+03  7.332057E+04 -1.263483E-10  1.705111E-09
       126  12  1.887710E+05  2.952621E+04  3.284124E+03  7.308193E+04  3.420312E-10  4.493988E-10
       126  13  1.843009E+05  3.083775E+04  7.441872E+03  7.111073E+04 -1.123241E-10  4.061067E-10
       126  14  1.846637E+05  2.644855E+04  3.597937E+03  7.054234E+04  6.341129E-10 -3.908420E-09
       126  15  1.839111E+05  2.808033E+04  2.066004E+03  7.214828E+04 -1.524490E-09  2.140950E-09
       126  16  1.703626E+05  2.480987E+04  3.634391E+03  6.648798E+04 -9.285172E-10 -3.249803E-09
       126  17  1.752676E+05  2.271465E+04  1.097039E+03  6.776415E+04 -3.832529E-10  1.371096E-09
       126  18  1.790514E+05  2.663446E+04  8.478871E+02  7.121465E+04 -3.374348E-09  2.861924E-10
       126  19  1.982395E+05  3.686566E+04  1.124939E+04  7.573358E+04 -5.314214E+03 -1.426249E+03
       126  20  1.940599E+05  3.018247E+04  6.098854E+03  7.332057E+04 -3.355890E+03 -8.766076E+02
       126  21  1.887710E+05  2.952621E+04  3.284128E+03  7.308193E+04 -1.375732E+03 -3.850995E+02
       126  22  1.843010E+05  3.083776E+04  7.441930E+03  7.111073E+04 -5.383852E+03 -1.452438E+03
       126  23  1.846637E+05  2.644856E+04  3.597961E+03  7.054234E+04 -3.455615E+03 -9.141232E+02
       126  24  1.839111E+05  2.808033E+04  2.066009E+03  7.214828E+04 -1.505530E+03 -4.339325E+02
       126  25  1.703627E+05  2.480988E+04  3.634451E+03  6.648799E+04 -5.453489E+03 -1.478626E+03
       126  26  1.752676E+05  2.271465E+04  1.097065E+03  6.776415E+04 -3.555337E+03 -9.516380E+02
       126  27  1.790514E+05  2.663446E+04  8.478925E+02  7.121465E+04 -1.635326E+03 -4.827651E+02
       127   1  1.817991E+05  2.777253E+04  1.088804E+03  7.144826E+04  1.044319E+03  4.187831E+02
       127   2  1.780746E+05  2.424049E+04 -9.594440E+02  6.863587E+04  5.310094E+02  4.767865E+02
       127   3  1.719093E+05  2.369235E+04 -2.592114E+03  6.874874E+04  1.607757E+01  5.391054E+02
       127   4  1.837646E+05  2.845246E+04  1.609442E+03  7.192120E+04  1.156936E+03  4.611515E+02
       127   5  1.849655E+05  2.682114E+04  8.450654E+02  7.051108E+04  6.458576E+02  5.199936E+02
       127   6  1.837252E+05  2.817331E+04  4.945296E+02  7.202625E+04  1.331537E+02  5.831498E+02
       127   7  1.857302E+05  2.913240E+04  2.130081E+03  7.239415E+04  1.269554E+03  5.035201E+02
       127   8  1.918565E+05  2.940180E+04  2.649574E+03  7.238631E+04  7.607075E+02  5.632012E+02
       127   9  1.955412E+05  3.265428E+04  3.581162E+03  7.530381E+04  2.502323E+02  6.271952E+02
       127  10  1.817991E+05  2.777253E+04  1.088802E+03  7.144826E+04  1.330343E-10 -1.665340E-09
       127  11  1.780746E+05  2.424049E+04 -9.594449E+02  6.863587E+04  9.028095E-10 -3.981783E-09
       127  12  1.719093E+05  2.369235E+04 -2.592115E+03  6.874874E+04  2.401373E-10 -9.121172E-10
       127  13  1.837646E+05  2.845246E+04  1.609439E+03  7.192120E+04 -3.474174E-09  1.193812E-09
       127  14  1.849655E+05  2.682114E+04  8.450641E+02  7.051107E+04 -7.780824E-10  1.299577E-10
       127  15  1.837252E+05  2.817331E+04  4.945289E+02  7.202625E+04  1.088243E-09  4.796942E-10
       127  16  1.857302E+05  2.913240E+04  2.130078E+03  7.239415E+04 -2.633264E-09  1.479230E-09
       127  17  1.918565E+05  2.940180E+04  2.649572E+03  7.238631E+04 -1.741175E-09  4.857084E-09
       127  18  1.955412E+05  3.265428E+04  3.581161E+03  7.530381E+04  1.407563E-09  4.383735E-09
       127  19  1.817991E+05  2.777253E+04  1.088804E+03  7.144826E+04 -1.044319E+03 -4.187831E+02
       127  20  1.780746E+05  2.424049E+04 -9.594440E+02  6.863587E+04 -5.310094E+02 -4.767865E+02
       127  21  1.719093E+05  2.369235E+04 -2.592114E+03  6.874874E+04 -1.607757E+01 -5.391054E+02
       127  22  1.837646E+05  2.845246E+04  1.609442E+03  7.192120E+04 -1.156936E+03 -4.611515E+02
       127  23  1.849655E+05  2.682114E+04  8.450654E+02  7.051108E+04 -6.458576E+02 -5.199936E+02
       127  24  1.837252E+05  2.817331E+04  4.945296E+02  7.202625E+04 -1.331537E+02 -5.831498E+02
       127  25  1.857302E+05  2.913240E+04  2.130081E+03  7.239415E+04 -1.269554E+03 -5.035201E+02
       127  26  1.918565E+05  2.940180E+04  2.649574E+03  7.238631E+04 -7.607075E+02 -5.632012E+02
       127  27  1.955412E+05  3.265428E+04  3.581162E+03  7.530381E+04 -2.502323E+02 -6.271952E+02
       128   1  1.653480E+05  2.131109E+04 -4.435950E+03  6.698783E+04 -1.051346E+02  6.433888E+02
       128   2  1.616724E+05  1.808980E+04 -5.853703E+03  6.412544E+04 -3.211757E+02  8.184259E+02
       128   3  1.553949E+05  1.754812E+04 -7.162102E+03  6.426631E+04 -5.374337E+02  9.940877E+02
       128   4  1.837042E+05  2.821048E+04  3.937386E+02  7.200415E+04  1.078874E+01  6.869979E+02
       128   5  1.850035E+05  2.685894E+04  2.619191E+02  7.050695E+04 -2.049353E+02  8.621508E+02
       128   6  1.837008E+05  2.818693E+04  2.392056E+02  7.201298E+04 -4.208778E+02  1.037928E+03
       128   7  2.020607E+05  3.510987E+04  5.223384E+03  7.702059E+04  1.267155E+02  7.306083E+02
       128   8  2.083351E+05  3.562811E+04  6.377495E+03  7.688868E+04 -8.869001E+01  9.058775E+02
       128   9  2.120076E+05  3.882581E+04  7.640468E+03  7.975998E+04 -3.043157E+02  1.081771E+03
       128  10  1.653480E+05  2.131109E+04 -4.435951E+03  6.698783E+04  2.953913E-10 -2.059387E-09
       128  11  1.616724E+05  1.808980E+04 -5.853704E+03  6.412544E+04  9.193781E-10 -3.799468E-09
       128  12  1.553949E+05  1.754812E+04 -7.162104E+03  6.426631E+04 -6.380165E-11 -4.173014E-10
       128  13  1.837042E+05  2.821048E+04  3.937377E+02  7.200415E+04 -9.112582E-10 -1.000612E-09
       128  14  1.850035E+05  2.685894E+04  2.619176E+02  7.050695E+04 -9.431756E-10 -4.273673E-09
       128  15  1.837008E+05  2.818693E+04  2.392032E+02  7.201298E+04 -2.109086E-09 -3.536874E-09
       128  16  2.020607E+05  3.510987E+04  5.223383E+03  7.702059E+04 -4.065000E-10  2.154285E-09
       128  17  2.083351E+05  3.562811E+04  6.377493E+03  7.688868E+04  1.705918E-09  1.459334E-09
       128  18  2.120076E+05  3.882581E+04  7.640466E+03  7.975999E+04  1.071065E-09 -3.912035E-10
       128  19  1.653480E+05  2.131109E+04 -4.435950E+03  6.698783E+04  1.051346E+02 -6.433888E+02
       128  20  1.616724E+05  1.808980E+04 -5.853703E+03  6.412544E+04  3.211757E+02 -8.184259E+02
       128  21  1.553949E+05  1.754812E+04 -7.162102E+03  6.426631E+04  5.374337E+02 -9.940877E+02
       128  22  1.837042E+05  2.821048E+04  3.937386E+02  7.200415E+04 -1.078874E+01 -6.869979E+02
       128  23  1.850035E+05  2.685894E+04  2.619191E+02  7.050695E+04  2.049353E+02 -8.621508E+02
       128  24  1.837008E+05  2.818693E+04  2.392056E+02  7.201298E+04  4.208778E+02 -1.037928E+03
       128  25  2.020607E+05  3.510987E+04  5.223384E+03  7.702059E+04 -1.267155E+02 -7.306083E+02
       128  26  2.083351E+05  3.562811E+04  6.377495E+03  7.688868E+04  8.869001E+01 -9.058775E+02
       128  27  2.120076E+05  3.882581E+04  7.640468E+03  7.975998E+04  3.043157E+02 -1.081771E+03
       129   1  1.488520E+05  1.509638E+04 -8.894261E+03  6.249793E+04 -6.282584E+02  1.109924E+03
       129   2  1.451544E+05  1.187830E+04 -1.008050E+04  5.960748E+04 -8.956632E+02  1.267199E+03
       129   3  1.388578E+05  1.137749E+04 -1.111297E+04  5.973406E+04 -1.162964E+03  1.424280E+03
       129   4  1.837004E+05  2.818825E+04  2.574373E+02  7.201865E+04 -5.114269E+02  1.153866E+03
       129   5  1.850029E+05  2.685112E+04  3.639470E+02  7.050205E+04 -7.789477E+02  1.311091E+03
       129   6  1.837064E+05  2.823125E+04  6.243015E+02  7.200245E+04 -1.046366E+03  1.468122E+03
       129   7  2.185499E+05  4.128019E+04  9.409031E+03  8.153986E+04 -3.945882E+02  1.197810E+03
       129   8  2.248529E+05  4.182400E+04  1.080824E+04  8.139723E+04 -6.622241E+02  1.354986E+03
       129   9  2.285569E+05  4.508508E+04  1.236137E+04  8.427161E+04 -9.297584E+02  1.511967E+03
       129  10  1.488520E+05  1.509638E+04 -8.894264E+03  6.249793E+04 -2.460527E-10 -1.620488E-10
       129  11  1.451544E+05  1.187830E+04 -1.008051E+04  5.960748E+04  3.868269E-09 -4.163141E-09
       129  12  1.388578E+05  1.137749E+04 -1.111298E+04  5.973406E+04 -3.398153E-10 -2.379380E-09
       129  13  1.837004E+05  2.818825E+04  2.574343E+02  7.201865E+04  2.096857E-09  1.893288E-09
       129  14  1.850029E+05  2.685111E+04  3.639426E+02  7.050205E+04  1.078791E-09 -8.013059E-10
       129  15  1.837064E+05  2.823125E+04  6.242954E+02  7.200246E+04  1.987361E-09 -9.048081E-10
       129  16  2.185499E+05  4.128019E+04  9.409028E+03  8.153986E+04  1.094198E-09 -4.195891E-10
       129  17  2.248529E+05  4.182400E+04  1.080824E+04  8.139723E+04 -1.017482E-09 -1.252139E-09
       129  18  2.285569E+05  4.508508E+04  1.236136E+04  8.427161E+04  2.531003E-09 -3.719455E-10
       129  19  1.488520E+05  1.509638E+04 -8.894261E+03  6.249793E+04  6.282584E+02 -1.109924E+03
       129  20  1.451544E+05  1.187830E+04 -1.008050E+04  5.960748E+04  8.956632E+02 -1.267199E+03
       129  21  1.388578E+05  1.137749E+04 -1.111297E+04  5.973406E+04  1.162964E+03 -1.424280E+03
       129  22  1.837004E+05  2.818825E+04  2.574373E+02  7.201865E+04  5.114269E+02 -1.153866E+03
       129  23  1.850029E+05  2.685112E+04  3.639470E+02  7.050205E+04  7.789477E+02 -1.311091E+03
       129  24  1.837064E+05  2.823125E+04  6.243015E+02  7.200245E+04  1.046366E+03 -1.468122E+03
       129  25  2.185499E+05  4.128019E+04  9.409031E+03  8.153986E+04  3.945882E+02 -1.197810E+03
       129  26  2.248529E+05  4.182400E+04  1.080824E+04  8.139723E+04  6.622241E+02 -1.354986E+03
       129  27  2.285569E+05  4.508508E+04  1.236137E+04  8.427161E+04  9.297584E+02 -1.511967E+03
       130   1  1.322499E+05  8.899159E+03 -1.269274E+04  5.804870E+04 -1.334667E+03  1.512550E+03
       130   2  1.284758E+05  5.542311E+03 -1.338622E+04  5.504364E+04 -2.132859E+03  1.471813E+03
       130   3  1.223510E+05  5.458437E+03 -1.338705E+04  5.496357E+04 -2.926771E+03  1.419766E+03
       130   4  1.837362E+05  2.817573E+04  8.070355E+02  7.204931E+04 -1.214276E+03  1.557813E+03
       130   5  1.849444E+05  2.677536E+04  1.417347E+03  7.049776E+04 -2.018380E+03  1.514846E+03
       130   6  1.838030E+05  2.864914E+04  2.724974E+03  7.187122E+04 -2.818210E+03  1.460565E+03
       130   7  2.352253E+05  4.745253E+04  1.430663E+04  8.605100E+04 -1.093873E+03  1.603081E+03
       130   8  2.414161E+05  4.800864E+04  1.622067E+04  8.595316E+04 -1.903890E+03  1.557883E+03
       130   9  2.452586E+05  5.184009E+04  1.883668E+04  8.878038E+04 -2.709638E+03  1.501369E+03
       130  10  1.322499E+05  8.899156E+03 -1.269275E+04  5.804870E+04  6.144017E-10 -2.813611E-10
       130  11  1.284758E+05  5.542307E+03 -1.338623E+04  5.504365E+04 -7.443944E-10 -2.400616E-11
       130  12  1.223510E+05  5.458433E+03 -1.338707E+04  5.496357E+04 -2.246798E-09 -9.862151E-10
       130  13  1.837362E+05  2.817573E+04  8.070281E+02  7.204931E+04  2.010600E-09 -6.936623E-10
       130  14  1.849444E+05  2.677536E+04  1.417335E+03  7.049776E+04  1.259806E-10  1.353840E-09
       130  15  1.838030E+05  2.864913E+04  2.724955E+03  7.187122E+04 -2.247083E-09 -1.701046E-09
       130  16  2.352253E+05  4.745252E+04  1.430662E+04  8.605101E+04 -1.255345E-09  7.669175E-10
       130  17  2.414161E+05  4.800864E+04  1.622066E+04  8.595316E+04 -2.848996E-10  1.233003E-09
       130  18  2.452586E+05  5.184008E+04  1.883666E+04  8.878038E+04 -1.598459E-09 -1.592086E-09
       130  19  1.322499E+05  8.899159E+03 -1.269274E+04  5.804870E+04  1.334667E+03 -1.512550E+03
       130  20  1.284758E+05  5.542311E+03 -1.338622E+04  5.504364E+04  2.132859E+03 -1.471813E+03
       130  21  1.223510E+05  5.458437E+03 -1.338705E+04  5.496357E+04  2.926771E+03 -1.419766E+03
       130  22  1.837362E+05  2.817573E+04  8.070355E+02  7.204931E+04  1.214276E+03 -1.557813E+03
       130  23  1.849444E+05  2.677536E+04  1.417347E+03  7.049776E+04  2.018380E+03 -1.514846E+03
       130  24  1.838030E+05  2.864914E+04  2.724974E+03  7.187122E+04  2.818210E+03 -1.460565E+03
       130  25  2.352253E+05  4.745253E+04  1.430663E+04  8.605100E+04  1.093873E+03 -1.603081E+03
       130  26  2.414161E+05  4.800864E+04  1.622067E+04  8.595316E+04  1.903890E+03 -1.557883E+03
       130  27  2.452586E+05  5.184009E+04  1.883668E+04  8.878038E+04  2.709638E+03 -1.501369E+03
       131   1  1.154003E+05  2.881674E+03 -1.437933E+04  5.417112E+04 -3.538043E+03  1.369229E+03
       131   2  1.114143E+05 -1.642319E+03 -1.309320E+04  5.022978E+04 -6.705425E+03  4.335273E+02
       131   3  1.072918E+05  2.283234E+03 -7.945825E+03  4.797282E+04 -9.810062E+03 -6.689609E+02
       131   4  1.840470E+05  2.802336E+04  3.503714E+03  7.226443E+04 -3.379602E+03  1.428779E+03
       131   5  1.844373E+05  2.613315E+04  6.109424E+03  7.054142E+04 -6.633571E+03  4.605080E+02
       131   6  1.847081E+05  3.270911E+04  1.264461E+04  7.050275E+04 -9.824831E+03 -6.745640E+02
       131   7  2.526980E+05  5.316520E+04  2.138631E+04  9.035946E+04 -3.221143E+03  1.488335E+03
       131   8  2.574654E+05  5.390898E+04  2.531159E+04  9.085523E+04 -6.561708E+03  4.874924E+02
       131   9  2.621303E+05  6.313559E+04  3.323458E+04  9.303534E+04 -9.839602E+03 -6.801679E+02
       131  10  1.154003E+05  2.881669E+03 -1.437936E+04  5.417112E+04 -5.260575E-09  7.818429E-10
       131  11  1.114142E+05 -1.642331E+03 -1.309328E+04  5.022978E+04 -2.590459E-09  9.387840E-10
       131  12  1.072917E+05  2.283208E+03 -7.946006E+03  4.797281E+04  2.976728E-09  9.609331E-10
       131  13  1.840470E+05  2.802335E+04  3.503689E+03  7.226443E+04 -5.035064E-10 -2.340783E-09
       131  14  1.844372E+05  2.613314E+04  6.109341E+03  7.054142E+04 -2.043586E-09 -1.560471E-09
       131  15  1.847079E+05  3.270908E+04  1.264443E+04  7.050275E+04 -2.573258E-09  1.539130E-10
       131  16  2.526980E+05  5.316519E+04  2.138629E+04  9.035946E+04  3.011434E-09  6.339717E-10
       131  17  2.574654E+05  5.390897E+04  2.531151E+04  9.085523E+04 -1.376632E-09 -2.287625E-09
       131  18  2.621302E+05  6.313556E+04  3.323440E+04  9.303533E+04 -6.632833E-09 -2.968655E-09
       131  19  1.154003E+05  2.881674E+03 -1.437933E+04  5.417112E+04  3.538043E+03 -1.369229E+03
       131  20  1.114143E+05 -1.642319E+03 -1.309320E+04  5.022978E+04  6.705425E+03 -4.335273E+02
       131  21  1.072918E+05  2.283234E+03 -7.945825E+03  4.797282E+04  9.810062E+03  6.689609E+02
       131  22  1.840470E+05  2.802336E+04  3.503714E+03  7.226443E+04  3.379602E+03 -1.428779E+03
       131  23  1.844373E+05  2.613315E+04  6.109424E+03  7.054142E+04  6.633571E+03 -4.605080E+02
       131  24  1.847081E+05  3.270911E+04  1.264461E+04  7.050275E+04  9.824831E+03  6.745640E+02
       131  25  2.526980E+05  5.316520E+04  2.138631E+04  9.035946E+04  3.221143E+03 -1.488335E+03
       131  26  2.574654E+05  5.390898E+04  2.531159E+04  9.085523E+04  6.561708E+03 -4.874924E+02
       131  27  2.621303E+05  6.313559E+04  3.323458E+04  9.303534E+04  9.839602E+03  6.801679E+02
       132   1  9.724581E+04 -1.194989E+03 -6.693373E+03  5.583472E+04 -1.285765E+04 -1.289837E+03
       132   2  9.277089E+04 -1.668332E+04  2.262920E+03  4.306502E+04 -2.584746E+04 -6.012243E+03
       132   3  1.079826E+05  2.549773E+04  3.591573E+04  1.910972E+04 -3.796902E+04 -1.304507E+04
       132   4  1.867239E+05  2.642613E+04  1.557882E+04  7.413201E+04 -1.218951E+04 -1.038629E+03
       132   5  1.799731E+05  2.022600E+04  2.588672E+04  7.117598E+04 -2.637579E+04 -6.211012E+03
       132   6  1.931423E+05  7.192672E+04  6.183616E+04  5.703547E+04 -3.969378E+04 -1.369413E+04
       132   7  2.762099E+05  5.404724E+04  3.785047E+04  9.243144E+04 -1.152126E+04 -7.873961E+02
       132   8  2.671823E+05  5.713619E+04  4.950972E+04  9.929057E+04 -2.690419E+04 -6.409819E+03
       132   9  2.783086E+05  1.183584E+05  8.775562E+04  9.496627E+04 -4.141877E+04 -1.434338E+04
       132  10  9.724563E+04 -1.195036E+03 -6.693687E+03  5.583470E+04  4.625587E-09  3.210350E-09
       132  11  9.277016E+04 -1.668354E+04  2.261597E+03  4.306489E+04  4.358770E-09  8.646938E-10
       132  12  1.079810E+05  2.549716E+04  3.591270E+04  1.910932E+04  9.144928E-10  1.054461E-09
       132  13  1.867237E+05  2.642609E+04  1.557854E+04  7.413200E+04 -1.609597E-09  1.950028E-09
       132  14  1.799723E+05  2.022577E+04  2.588534E+04  7.117585E+04  1.527094E-09 -2.159290E-10
       132  15  1.931405E+05  7.192610E+04  6.183285E+04  5.703504E+04  9.797471E-10 -5.886067E-10
       132  16  2.762098E+05  5.404721E+04  3.785022E+04  9.243143E+04 -5.564887E-09 -2.935830E-09
       132  17  2.671815E+05  5.713596E+04  4.950828E+04  9.929043E+04 -1.616864E-09 -1.034891E-09
       132  18  2.783067E+05  1.183577E+05  8.775201E+04  9.496579E+04  3.145240E-09 -3.235806E-10
       132  19  9.724581E+04 -1.194989E+03 -6.693373E+03  5.583472E+04  1.285765E+04  1.289837E+03
       132  20  9.277089E+04 -1.668332E+04  2.262920E+03  4.306502E+04  2.584746E+04  6.012243E+03
       132  21  1.079826E+05  2.549773E+04  3.591573E+04  1.910972E+04  3.796902E+04  1.304507E+04
       132  22  1.867239E+05  2.642613E+04  1.557882E+04  7.413201E+04  1.218951E+04  1.038629E+03
       132  23  1.799731E+05  2.022600E+04  2.588672E+04  7.117598E+04  2.637579E+04  6.211012E+03
       132  24  1.931423E+05  7.192672E+04  6.183616E+04  5.703547E+04  3.969378E+04  1.369413E+04
       132  25  2.762099E+05  5.404724E+04  3.785047E+04  9.243144E+04  1.152126E+04  7.873961E+02
       132  26  2.671823E+05  5.713619E+04  4.950972E+04  9.929057E+04  2.690419E+04  6.409819E+03
       132  27  2.783086E+05  1.183584E+05  8.775562E+04  9.496627E+04  4.141877E+04  1.434338E+04
       133   1 -4.869210E+01 -2.405914E+05 -9.807236E+02 -1.145071E+01 -1.052872E+01  7.981686E+01
       133   2 -9.964455E+01 -2.408625E+05 -1.273307E+03  5.534772E+01 -2.052959E+01  6.500281E+02
       133   3 -4.027412E+02 -2.412713E+05 -2.000327E+03 -8.301149E+01 -3.552900E+01  1.220244E+03
       133   4 -3.555141E+00 -2.404077E+05 -9.390332E+02 -4.555970E+01 -1.053134E+01  8.428832E+01
       133   5  2.973135E+01 -2.403386E+05 -1.150477E+03  5.696442E+01 -2.053403E+01  6.576181E+02
       133   6 -1.896665E+02 -2.404077E+05 -1.798523E+03 -4.566856E+01 -3.553519E+01  1.230953E+03
       133   7  4.158182E+01 -2.402239E+05 -8.973427E+02 -7.966871E+01 -1.053396E+01  8.875979E+01
       133   8  1.591072E+02 -2.398147E+05 -1.027648E+03  5.858113E+01 -2.053846E+01  6.652081E+02
       133   9  2.340818E+01 -2.395441E+05 -1.596720E+03 -8.325572E+00 -3.554137E+01  1.241662E+03
       133  10 -4.869210E+01 -2.405914E+05 -9.807236E+02 -1.145071E+01 -4.802083E-10 -6.428562E-09
       133  11 -9.964466E+01 -2.408625E+05 -1.273308E+03  5.534773E+01  2.641304E-09  2.498847E-09
       133  12 -4.027416E+02 -2.412713E+05 -2.000330E+03 -8.301146E+01 -1.843661E-09  8.422211E-09
       133  13 -3.555143E+00 -2.404077E+05 -9.390332E+02 -4.555970E+01 -3.781398E-10  9.173205E-10
       133  14  2.973123E+01 -2.403386E+05 -1.150478E+03  5.696443E+01  3.039042E-09  9.701503E-10
       133  15 -1.896669E+02 -2.404077E+05 -1.798526E+03 -4.566852E+01  3.002207E-09  3.521613E-10
       133  16  4.158182E+01 -2.402239E+05 -8.973428E+02 -7.966871E+01 -5.038230E-10  9.473037E-09
       133  17  1.591071E+02 -2.398147E+05 -1.027649E+03  5.858114E+01 -2.081194E-09 -1.895625E-09
       133  18  2.340776E+01 -2.395441E+05 -1.596723E+03 -8.325536E+00 -7.100114E-10 -7.888855E-09
       133  19 -4.869210E+01 -2.405914E+05 -9.807236E+02 -1.145071E+01  1.052872E+01 -7.981686E+01
       133  20 -9.964455E+01 -2.408625E+05 -1.273307E+03  5.534772E+01  2.052959E+01 -6.500281E+02
       133  21 -4.027412E+02 -2.412713E+05 -2.000327E+03 -8.301149E+01  3.552900E+01 -1.220244E+03
       133  22 -3.555141E+00 -2.404077E+05 -9.390332E+02 -4.555970E+01  1.053134E+01 -8.428832E+01
       133  23  2.973135E+01 -2.403386E+05 -1.150477E+03  5.696442E+01  2.053403E+01 -6.576181E+02
       133  24 -1.896665E+02 -2.404077E+05 -1.798523E+03 -4.566856E+01  3.553519E+01 -1.230953E+03
       133  25  4.158182E+01 -2.402239E+05 -8.973427E+02 -7.966871E+01  1.053396E+01 -8.875979E+01
       133  26  1.591072E+02 -2.398147E+05 -1.027648E+03  5.858113E+01  2.053846E+01 -6.652081E+02
       133  27  2.340818E+01 -2.395441E+05 -1.596720E+03 -8.325572E+00  3.554137E+01 -1.241662E+03
       134   1 -1.808324E+02 -2.418085E+05 -2.537405E+03  3.104933E+02 -4.594833E+01  1.577391E+03
       134   2 -1.359340E+02 -2.416964E+05 -4.083275E+03 -1.256218E+02 -6.173615E+01  3.468469E+03
       134   3 -2.720777E+03 -2.424884E+05 -7.518161E+03 -7.674117E+02 -7.362521E+01  5.359545E+03
       134   4  1.237810E+02 -2.405778E+05 -2.247840E+03 -4.529233E+01 -4.595529E+01  1.587768E+03
       134   5  2.516098E+02 -2.401262E+05 -3.714923E+03  5.685272E+01 -6.173976E+01  3.476417E+03
       134   6 -2.249878E+03 -2.405782E+05 -7.069329E+03 -4.667697E+01 -7.362218E+01  5.365064E+03
       134   7  4.283948E+02 -2.393471E+05 -1.958276E+03 -4.010786E+02 -4.596227E+01  1.598146E+03
       134   8  6.391536E+02 -2.385559E+05 -3.346571E+03  2.393277E+02 -6.174336E+01  3.484364E+03
       134   9 -1.778978E+03 -2.386680E+05 -6.620497E+03  6.740600E+02 -7.361914E+01  5.370583E+03
       134  10 -1.808331E+02 -2.418085E+05 -2.537409E+03  3.104933E+02 -3.572029E-09  3.266661E-11
       134  11 -1.359372E+02 -2.416964E+05 -4.083298E+03 -1.256216E+02 -5.669024E-10  3.667115E-09
       134  12 -2.720785E+03 -2.424885E+05 -7.518215E+03 -7.674114E+02 -2.663423E-09  3.630735E-09
       134  13  1.237803E+02 -2.405778E+05 -2.247845E+03 -4.529227E+01  1.132756E-09 -1.256289E-09
       134  14  2.516066E+02 -2.401262E+05 -3.714946E+03  5.685289E+01 -1.024864E-09 -7.058036E-10
       134  15 -2.249886E+03 -2.405783E+05 -7.069383E+03 -4.667665E+01 -2.707163E-09 -2.144463E-09
       134  16  4.283942E+02 -2.393471E+05 -1.958280E+03 -4.010786E+02 -1.073737E-09  6.062572E-10
       134  17  6.391503E+02 -2.385560E+05 -3.346593E+03  2.393279E+02 -8.459025E-10 -3.118887E-09
       134  18 -1.778985E+03 -2.386681E+05 -6.620551E+03  6.740603E+02 -1.029885E-09 -3.144243E-09
       134  19 -1.808324E+02 -2.418085E+05 -2.537405E+03  3.104933E+02  4.594833E+01 -1.577391E+03
       134  20 -1.359340E+02 -2.416964E+05 -4.083275E+03 -1.256218E+02  6.173615E+01 -3.468469E+03
       134  21 -2.720777E+03 -2.424884E+05 -7.518161E+03 -7.674117E+02  7.362521E+01 -5.359545E+03
       134  22  1.237810E+02 -2.405778E+05 -2.247840E+03 -4.529233E+01  4.595529E+01 -1.587768E+03
       134  23  2.516098E+02 -2.401262E+05 -3.714923E+03  5.685272E+01  6.173976E+01 -3.476417E+03
       134  24 -2.249878E+03 -2.405782E+05 -7.069329E+03 -4.667697E+01  7.362218E+01 -5.365064E+03
       134  25  4.283948E+02 -2.393471E+05 -1.958276E+03 -4.010786E+02  4.596227E+01 -1.598146E+03
       134  26  6.391536E+02 -2.385559E+05 -3.346571E+03  2.393277E+02  6.174336E+01 -3.484364E+03
       134  27 -1.778978E+03 -2.386680E+05 -6.620497E+03  6.740600E+02  7.361914E+01 -5.370583E+03
       135   1  8.380504E+02 -2.445128E+05 -9.244355E+03  3.650716E+03 -9.271930E+01  6.654204E+03
       135   2  1.996747E+03 -2.406625E+05 -1.479581E+04 -2.860926E+03 -1.053323E+02  1.431210E+04
       135   3 -2.643340E+04 -2.452079E+05 -3.273144E+04 -9.586240E+03 -4.549371E+01  2.196994E+04
       135   4  1.404365E+03 -2.422407E+05 -8.711205E+03 -4.288321E+01 -9.277500E+01  6.681891E+03
       135   5  2.638331E+03 -2.380483E+05 -1.418232E+04  5.615966E+01 -1.052548E+02  1.429452E+04
       135   6 -2.570878E+04 -2.422439E+05 -3.200616E+04 -5.862127E+01 -4.511991E+01  2.190709E+04
       135   7  1.970731E+03 -2.399686E+05 -8.178048E+03 -3.736496E+03 -9.283103E+01  6.709578E+03
       135   8  3.279947E+03 -2.354342E+05 -1.356883E+04  2.973258E+03 -1.051774E+02  1.427694E+04
       135   9 -2.498383E+04 -2.392796E+05 -3.128083E+04  9.469043E+03 -4.474805E+01  2.184424E+04
       135  10  8.380385E+02 -2.445129E+05 -9.244439E+03  3.650716E+03 -1.229742E-09 -3.444252E-09
       135  11  1.996692E+03 -2.406627E+05 -1.479619E+04 -2.860925E+03  1.475409E-09  3.039340E-09
       135  12 -2.643353E+04 -2.452084E+05 -3.273235E+04 -9.586240E+03 -5.116809E-10  6.848874E-09
       135  13  1.404353E+03 -2.422408E+05 -8.711289E+03 -4.288271E+01 -2.434382E-09 -1.773076E-09
       135  14  2.638276E+03 -2.380486E+05 -1.418270E+04  5.616087E+01  4.374942E-09 -2.599732E-09
       135  15 -2.570891E+04 -2.422444E+05 -3.200706E+04 -5.862048E+01  3.060957E-10 -9.933526E-10
       135  16  1.970719E+03 -2.399686E+05 -8.178132E+03 -3.736495E+03  9.724243E-10  3.527069E-09
       135  17  3.279892E+03 -2.354344E+05 -1.356921E+04  2.973259E+03  2.901937E-10 -3.225484E-09
       135  18 -2.498395E+04 -2.392801E+05 -3.128173E+04  9.469044E+03  1.528780E-09 -5.579221E-09
       135  19  8.380505E+02 -2.445128E+05 -9.244355E+03  3.650716E+03  9.271930E+01 -6.654204E+03
       135  20  1.996747E+03 -2.406625E+05 -1.479581E+04 -2.860926E+03  1.053323E+02 -1.431210E+04
       135  21 -2.643340E+04 -2.452079E+05 -3.273144E+04 -9.586240E+03  4.549371E+01 -2.196994E+04
       135  22  1.404365E+03 -2.422407E+05 -8.711205E+03 -4.288321E+01  9.277500E+01 -6.681891E+03
       135  23  2.638331E+03 -2.380483E+05 -1.418232E+04  5.615966E+01  1.052548E+02 -1.429452E+04
       135  24 -2.570878E+04 -2.422439E+05 -3.200616E+04 -5.862127E+01  4.511991E+01 -2.190709E+04
       135  25  1.970731E+03 -2.399686E+05 -8.178048E+03 -3.736496E+03  9.283103E+01 -6.709578E+03
       135  26  3.279947E+03 -2.354342E+05 -1.356883E+04  2.973258E+03  1.051774E+02 -1.427694E+04
       135  27 -2.498383E+04 -2.392796E+05 -3.128083E+04  9.469043E+03  4.474805E+01 -2.184424E+04
       136   1 -4.257333E+06 -1.390857E+06 -7.417760E+05 -1.493289E+06 -2.449744E+05 -4.896516E+04
       136   2 -4.136186E+06 -1.223410E+06 -5.597712E+05 -1.449255E+06 -1.642256E+05  8.369670E+04
       136   3 -4.034821E+06 -1.155351E+06 -4.838183E+05 -1.415662E+06 -5.784198E+04  1.491079E+05
       136   4 -1.846582E+06 -4.305104E+05 -1.025046E+05 -7.809010E+05 -8.058972E+04  1.345578E+04
       136   5 -1.839891E+06 -3.501276E+05 -4.665197E+04 -7.906750E+05 -8.983510E+04  1.118585E+05
       136   6 -1.834914E+06 -3.510364E+05 -2.497986E+04 -8.109256E+05 -7.352584E+04  1.431135E+05
       136   7  5.698616E+05  5.303878E+05  5.363622E+05 -6.592945E+04  8.449678E+04  7.617472E+04
       136   8  4.617707E+05  5.236497E+05  4.661551E+05 -1.298176E+05 -1.514501E+04  1.401399E+05
       136   9  3.700013E+05  4.536797E+05  4.336065E+05 -2.042012E+05 -8.927021E+04  1.370968E+05
       136  10 -4.257399E+06 -1.390876E+06 -7.418942E+05 -1.493299E+06 -2.279673E-08 -8.408303E-09
       136  11 -4.136217E+06 -1.223425E+06 -5.598352E+05 -1.449244E+06 -6.160639E-09 -5.006162E-10
       136  12 -4.034831E+06 -1.155376E+06 -4.838663E+05 -1.415655E+06  2.463394E-08  8.708839E-09
       136  13 -1.846589E+06 -4.305123E+05 -1.025172E+05 -7.809001E+05 -8.988779E-11 -2.346272E-10
       136  14 -1.839903E+06 -3.501432E+05 -4.669062E+04 -7.906669E+05 -6.141212E-09 -8.676348E-09
       136  15 -1.834925E+06 -3.510598E+05 -2.502846E+04 -8.109171E+05 -3.128903E-09 -1.892717E-09
       136  16  5.698524E+05  5.303796E+05  5.363379E+05 -6.593463E+04  1.866989E-08  6.508182E-09
       136  17  4.617651E+05  5.236286E+05  4.661178E+05 -1.298159E+05 -6.074762E-09  3.144578E-10
       136  18  3.699877E+05  4.536574E+05  4.335563E+05 -2.041913E+05 -3.013199E-08 -1.270628E-08
       136  19 -4.257333E+06 -1.390857E+06 -7.417760E+05 -1.493289E+06  2.449744E+05  4.896516E+04
       136  20 -4.136186E+06 -1.223410E+06 -5.597712E+05 -1.449255E+06  1.642256E+05 -8.369670E+04
       136  21 -4.034821E+06 -1.155351E+06 -4.838183E+05 -1.415662E+06  5.784198E+04 -1.491079E+05
       136  22 -1.846582E+06 -4.305104E+05 -1.025046E+05 -7.809010E+05  8.058972E+04 -1.345578E+04
       136  23 -1.839891E+06 -3.501276E+05 -4.665197E+04 -7.906750E+05  8.983510E+04 -1.118585E+05
       136  24 -1.834914E+06 -3.510364E+05 -2.497986E+04 -8.109256E+05  7.352584E+04 -1.431135E+05
       136  25  5.698616E+05  5.303878E+05  5.363622E+05 -6.592945E+04 -8.449678E+04 -7.617472E+04
       136  26  4.617707E+05  5.236497E+05  4.661551E+05 -1.298176E+05  1.514501E+04 -1.401399E+05
       136  27  3.700013E+05  4.536797E+05  4.336065E+05 -2.042012E+05  8.927021E+04 -1.370968E+05
       137   1 -3.935037E+06 -1.132808E+06 -4.595650E+05 -1.396125E+06 -6.660195E+04  1.384685E+05
       137   2 -3.820477E+06 -1.067405E+06 -4.184231E+05 -1.345666E+06 -5.441322E+04  1.392626E+05
       137   3 -3.681652E+06 -1.031778E+06 -3.861731E+05 -1.324328E+06 -4.060665E+04  1.357401E+05
       137   4 -1.831077E+06 -3.550891E+05 -1.917961E+04 -8.090575E+05 -6.820401E+04  1.378106E+05
       137   5 -1.843434E+06 -3.390086E+05 -1.022231E+04 -7.951262E+05 -6.177888E+04  1.364327E+05
       137   6 -1.830390E+06 -3.515427E+05 -5.552758E+03 -8.103155E+05 -5.374117E+04  1.307446E+05
       137   7  2.774402E+05  4.230132E+05  4.209660E+05 -2.201406E+05 -6.981200E+04  1.371506E+05
       137   8  1.376353E+05  3.897237E+05  3.977720E+05 -2.429589E+05 -6.916998E+04  1.335932E+05
       137   9  2.439646E+04  3.289817E+05  3.748868E+05 -2.948828E+05 -6.691806E+04  1.257333E+05
       137  10 -3.935047E+06 -1.132830E+06 -4.596093E+05 -1.396118E+06 -4.637276E-09  6.561435E-10
       137  11 -3.820486E+06 -1.067426E+06 -4.184650E+05 -1.345660E+06 -2.370982E-09  1.987150E-09
       137  12 -3.681659E+06 -1.031798E+06 -3.862108E+05 -1.324324E+06  1.989887E-09  1.493542E-09
       137  13 -1.831087E+06 -3.551107E+05 -1.922400E+04 -8.090499E+05 -2.155820E-10  4.318661E-10
       137  14 -1.843443E+06 -3.390296E+05 -1.026442E+04 -7.951194E+05  1.472100E-09  5.442510E-10
       137  15 -1.830397E+06 -3.515618E+05 -5.590270E+03 -8.103099E+05 -1.398472E-09  2.893472E-09
       137  16  2.774300E+05  4.229917E+05  4.209215E+05 -2.201329E+05  1.481261E-09  2.031555E-09
       137  17  1.376254E+05  3.897033E+05  3.977295E+05 -2.429515E+05 -1.636119E-09  3.644741E-09
       137  18  2.438742E+04  3.289635E+05  3.748488E+05 -2.948761E+05 -4.624100E-09  3.030044E-09
       137  19 -3.935037E+06 -1.132808E+06 -4.595650E+05 -1.396125E+06  6.660195E+04 -1.384685E+05
       137  20 -3.820477E+06 -1.067405E+06 -4.184231E+05 -1.345666E+06  5.441322E+04 -1.392626E+05
       137  21 -3.681652E+06 -1.031778E+06 -3.861731E+05 -1.324328E+06  4.060665E+04 -1.357401E+05
       137  22 -1.831077E+06 -3.550891E+05 -1.917961E+04 -8.090575E+05  6.820401E+04 -1.378106E+05
       137  23 -1.843434E+06 -3.390086E+05 -1.022231E+04 -7.951262E+05  6.177888E+04 -1.364327E+05
       137  24 -1.830390E+06 -3.515427E+05 -5.552758E+03 -8.103155E+05  5.374117E+04 -1.307446E+05
       137  25  2.774402E+05  4.230132E+05  4.209660E+05 -2.201406E+05  6.981200E+04 -1.371506E+05
       137  26  1.376353E+05  3.897237E+05  3.977720E+05 -2.429589E+05  6.916998E+04 -1.335932E+05
       137  27  2.439646E+04  3.289817E+05  3.748868E+05 -2.948828E+05  6.691806E+04 -1.257333E+05
       138   1 -3.591812E+06 -9.990994E+05 -3.657273E+05 -1.299722E+06 -3.846679E+04  1.300399E+05
       138   2 -3.475216E+06 -9.370778E+05 -3.370752E+05 -1.247854E+06 -3.328908E+04  1.212911E+05
       138   3 -3.331370E+06 -9.021134E+05 -3.095313E+05 -1.226624E+06 -2.800014E+04  1.122007E+05
       138   4 -1.829990E+06 -3.517847E+05 -4.199245E+03 -8.103965E+05 -5.080252E+04  1.253531E+05
       138   5 -1.843540E+06 -3.380692E+05 -2.368196E+03 -7.951308E+05 -4.607698E+04  1.164453E+05
       138   6 -1.829774E+06 -3.513184E+05 -1.287248E+03 -8.105058E+05 -4.124080E+04  1.071963E+05
       138   7 -6.494795E+04  2.958033E+05  3.571736E+05 -3.197765E+05 -6.317629E+04  1.206521E+05
       138   8 -2.091077E+05  2.611708E+05  3.322045E+05 -3.413008E+05 -5.890135E+04  1.115858E+05
       138   9 -3.258503E+05  1.996696E+05  3.068414E+05 -3.934531E+05 -5.451612E+04  1.021788E+05
       138  10 -3.591818E+06 -9.991180E+05 -3.657619E+05 -1.299718E+06 -8.688396E-09 -2.987063E-09
       138  11 -3.475222E+06 -9.370938E+05 -3.371049E+05 -1.247850E+06 -1.104655E-08  1.257133E-09
       138  12 -3.331374E+06 -9.021272E+05 -3.095564E+05 -1.226621E+06  8.957915E-09  8.009470E-09
       138  13 -1.829997E+06 -3.518023E+05 -4.233588E+03 -8.103914E+05 -3.090985E-09 -3.240692E-09
       138  14 -1.843546E+06 -3.380843E+05 -2.397636E+03 -7.951265E+05 -4.712819E-09 -5.554217E-09
       138  15 -1.829779E+06 -3.513312E+05 -1.312013E+03 -8.105023E+05  9.002262E-09 -3.621710E-09
       138  16 -6.495613E+04  2.957866E+05  3.571388E+05 -3.197703E+05 -3.233486E-11  1.390812E-09
       138  17 -2.091148E+05  2.611565E+05  3.321746E+05 -3.412956E+05 -6.454157E-09 -1.433836E-09
       138  18 -3.258563E+05  1.996576E+05  3.068162E+05 -3.934486E+05  2.079663E-09  1.856357E-09
       138  19 -3.591812E+06 -9.990994E+05 -3.657273E+05 -1.299722E+06  3.846679E+04 -1.300399E+05
       138  20 -3.475216E+06 -9.370778E+05 -3.370752E+05 -1.247854E+06  3.328908E+04 -1.212911E+05
       138  21 -3.331370E+06 -9.021134E+05 -3.095313E+05 -1.226624E+06  2.800014E+04 -1.122007E+05
       138  22 -1.829990E+06 -3.517847E+05 -4.199245E+03 -8.103965E+05  5.080252E+04 -1.253531E+05
       138  23 -1.843540E+06 -3.380692E+05 -2.368196E+03 -7.951308E+05  4.607698E+04 -1.164453E+05
       138  24 -1.829774E+06 -3.513184E+05 -1.287248E+03 -8.105058E+05  4.124080E+04 -1.071963E+05
       138  25 -6.494795E+04  2.958033E+05  3.571736E+05 -3.197765E+05  6.317629E+04 -1.206521E+05
       138  26 -2.091077E+05  2.611708E+05  3.322045E+05 -3.413008E+05  5.890135E+04 -1.115858E+05
       138  27 -3.258503E+05  1.996696E+05  3.068414E+05 -3.934531E+05  5.451612E+04 -1.021788E+05
       139   1 -3.240232E+06 -8.684673E+05 -2.897526E+05 -1.201422E+06 -2.561767E+04  1.065204E+05
       139   2 -3.121250E+06 -8.057221E+05 -2.624777E+05 -1.148726E+06 -2.145849E+04  9.675970E+04
       139   3 -2.974549E+06 -7.703448E+05 -2.354221E+05 -1.127334E+06 -1.728515E+04  8.692295E+04
       139   4 -1.829621E+06 -3.513728E+05 -9.977307E+02 -8.106396E+05 -3.887946E+04  1.015143E+05
       139   5 -1.843403E+06 -3.375417E+05 -6.483283E+02 -7.950206E+05 -3.481986E+04  9.172553E+04
       139   6 -1.829466E+06 -3.510581E+05 -4.413159E+02 -8.107093E+05 -3.074621E+04  8.186071E+04
       139   7 -4.169664E+05  1.658878E+05  2.876530E+05 -4.190358E+05 -5.217374E+04  9.649612E+04
       139   8 -5.638701E+05  1.307777E+05  2.610980E+05 -4.406391E+05 -4.821096E+04  8.668023E+04
       139   9 -6.830221E+05  6.834312E+04  2.344752E+05 -4.935401E+05 -4.423421E+04  7.678840E+04
       139  10 -3.240236E+06 -8.684797E+05 -2.897751E+05 -1.201420E+06 -3.355734E-10  2.960500E-09
       139  11 -3.121253E+06 -8.057323E+05 -2.624961E+05 -1.148725E+06  1.393496E-09 -2.963419E-10
       139  12 -2.974551E+06 -7.703530E+05 -2.354369E+05 -1.127333E+06  6.703897E-09  2.451673E-09
       139  13 -1.829625E+06 -3.513843E+05 -1.019914E+03 -8.106364E+05  1.196896E-08 -2.527846E-09
       139  14 -1.843406E+06 -3.375511E+05 -6.663989E+02 -7.950180E+05  2.302918E-09 -4.079744E-09
       139  15 -1.829469E+06 -3.510655E+05 -4.556704E+02 -8.107073E+05 -1.076426E-10 -6.918254E-10
       139  16 -4.169718E+05  1.658771E+05  2.876304E+05 -4.190318E+05  1.712043E-08  9.366243E-09
       139  17 -5.638746E+05  1.307691E+05  2.610795E+05 -4.406357E+05 -1.270229E-09  3.344136E-09
       139  18 -6.830258E+05  6.833627E+04  2.344604E+05 -4.935373E+05 -9.464528E-09 -1.642081E-09
       139  19 -3.240232E+06 -8.684673E+05 -2.897526E+05 -1.201422E+06  2.561767E+04 -1.065204E+05
       139  20 -3.121250E+06 -8.057221E+05 -2.624777E+05 -1.148726E+06  2.145849E+04 -9.675970E+04
       139  21 -2.974549E+06 -7.703448E+05 -2.354221E+05 -1.127334E+06  1.728515E+04 -8.692295E+04
       139  22 -1.829621E+06 -3.513728E+05 -9.977307E+02 -8.106396E+05  3.887946E+04 -1.015143E+05
       139  23 -1.843403E+06 -3.375417E+05 -6.483283E+02 -7.950206E+05  3.481986E+04 -9.172553E+04
       139  24 -1.829466E+06 -3.510581E+05 -4.413159E+02 -8.107093E+05  3.074621E+04 -8.186071E+04
       139  25 -4.169664E+05  1.658878E+05  2.876530E+05 -4.190358E+05  5.217374E+04 -9.649612E+04
       139  26 -5.638701E+05  1.307777E+05  2.610980E+05 -4.406391E+05  4.821096E+04 -8.668023E+04
       139  27 -6.830221E+05  6.834312E+04  2.344752E+05 -4.935401E+05  4.423421E+04 -7.678840E+04
       140   1 -2.881897E+06 -7.362414E+05 -2.156164E+05 -1.101805E+06 -1.496079E+04  8.112118E+04
       140   2 -2.761016E+06 -6.728571E+05 -1.884603E+05 -1.048519E+06 -1.085512E+04  7.115442E+04
       140   3 -2.612224E+06 -6.372004E+05 -1.614917E+05 -1.027040E+06 -6.744406E+03  6.114602E+04
       140   4 -1.829373E+06 -3.510937E+05 -4.343349E+02 -8.108183E+05 -2.847735E+04  7.604298E+04
       140   5 -1.843264E+06 -3.371145E+05 -5.333870E+02 -7.949396E+05 -2.442623E+04  6.606254E+04
       140   6 -1.829254E+06 -3.508509E+05 -7.782408E+02 -8.108721E+05 -2.037018E+04  5.604052E+04
       140   7 -7.757059E+05  3.414810E+04  2.146919E+05 -5.193738E+05 -4.201865E+04  7.095552E+04
       140   8 -9.246463E+05 -1.302043E+03  1.873501E+05 -5.410135E+05 -3.801895E+04  6.096257E+04
       140   9 -1.045658E+06 -6.445208E+04  1.599026E+05 -5.944527E+05 -3.401440E+04  5.092812E+04
       140  10 -2.881899E+06 -7.362485E+05 -2.156292E+05 -1.101804E+06  2.540400E-09  1.354010E-09
       140  11 -2.761018E+06 -6.728626E+05 -1.884700E+05 -1.048518E+06  8.536907E-10 -4.092693E-10
       140  12 -2.612225E+06 -6.372044E+05 -1.614988E+05 -1.027040E+06 -1.495612E-09 -1.172204E-09
       140  13 -1.829375E+06 -3.511001E+05 -4.467127E+02 -8.108166E+05 -5.095375E-13  4.036135E-11
       140  14 -1.843266E+06 -3.371194E+05 -5.426999E+02 -7.949383E+05  2.431922E-11 -3.241614E-10
       140  15 -1.829255E+06 -3.508544E+05 -7.849154E+02 -8.108712E+05  1.604711E-10  7.711552E-10
       140  16 -7.757091E+05  3.414223E+04  2.146791E+05 -5.193714E+05 -2.449290E-09 -6.817618E-10
       140  17 -9.246488E+05 -1.306416E+03  1.873404E+05 -5.410116E+05 -1.599174E-09 -1.363036E-09
       140  18 -1.045660E+06 -6.445517E+04  1.598956E+05 -5.944513E+05  1.113998E-10  1.910008E-10
       140  19 -2.881897E+06 -7.362414E+05 -2.156164E+05 -1.101805E+06  1.496079E+04 -8.112118E+04
       140  20 -2.761016E+06 -6.728571E+05 -1.884603E+05 -1.048519E+06  1.085512E+04 -7.115442E+04
       140  21 -2.612224E+06 -6.372004E+05 -1.614917E+05 -1.027040E+06  6.744406E+03 -6.114602E+04
       140  22 -1.829373E+06 -3.510937E+05 -4.343349E+02 -8.108183E+05  2.847735E+04 -7.604298E+04
       140  23 -1.843264E+06 -3.371145E+05 -5.333870E+02 -7.949396E+05  2.442623E+04 -6.606254E+04
       140  24 -1.829254E+06 -3.508509E+05 -7.782408E+02 -8.108721E+05  2.037018E+04 -5.604052E+04
       140  25 -7.757059E+05  3.414810E+04  2.146919E+05 -5.193738E+05  4.201865E+04 -7.095552E+04
       140  26 -9.246463E+05 -1.302043E+03  1.873501E+05 -5.410135E+05  3.801895E+04 -6.096257E+04
       140  27 -1.045658E+06 -6.445208E+04  1.599026E+05 -5.944527E+05  3.401440E+04 -5.092812E+04
       141   1 -2.518437E+06 -6.027791E+05 -1.416998E+05 -1.001286E+06 -4.333948E+03  5.530225E+04
       141   2 -2.396203E+06 -5.389724E+05 -1.149681E+05 -9.475934E+05  3.442458E+02  4.545732E+04
       141   3 -2.246040E+06 -5.032298E+05 -8.888757E+04 -9.260627E+05  5.011338E+03  3.562553E+04
       141   4 -1.829220E+06 -3.508740E+05 -1.012650E+03 -8.109608E+05 -1.800721E+04  5.018227E+04
       141   5 -1.843137E+06 -3.367913E+05 -1.783607E+03 -7.948834E+05 -1.331088E+04  4.034817E+04
       141   6 -1.829155E+06 -3.507778E+05 -3.222118E+03 -8.109743E+05 -8.625876E+03  3.052719E+04
       141   7 -1.139506E+06 -9.892650E+04  1.396527E+05 -6.204381E+05 -3.169696E+04  4.505612E+04
       141   8 -1.289754E+06 -1.345834E+05  1.113867E+05 -6.420466E+05 -2.697919E+04  3.523408E+04
       141   9 -1.412090E+06 -1.983111E+05  8.243517E+04 -6.958142E+05 -2.227297E+04  2.542515E+04
       141  10 -2.518438E+06 -6.027824E+05 -1.417056E+05 -1.001286E+06  6.355991E-10 -7.715794E-11
       141  11 -2.396203E+06 -5.389746E+05 -1.149720E+05 -9.475935E+05  9.401102E-11 -7.072027E-10
       141  12 -2.246041E+06 -5.032311E+05 -8.889000E+04 -9.260628E+05 -8.787090E-10 -1.003758E-09
       141  13 -1.829221E+06 -3.508768E+05 -1.017986E+03 -8.109601E+05 -7.855707E-11  7.389675E-10
       141  14 -1.843138E+06 -3.367931E+05 -1.786996E+03 -7.948830E+05  9.383839E-10  1.772564E-09
       141  15 -1.829155E+06 -3.507788E+05 -3.224007E+03 -8.109741E+05 -6.996008E-10 -1.172367E-09
       141  16 -1.139508E+06 -9.892895E+04  1.396470E+05 -6.204370E+05 -1.347579E-09  8.970921E-10
       141  17 -1.289755E+06 -1.345850E+05  1.113830E+05 -6.420458E+05 -5.343522E-10  9.888197E-10
       141  18 -1.412090E+06 -1.983119E+05  8.243303E+04 -6.958137E+05  1.622478E-09  2.040042E-09
       141  19 -2.518437E+06 -6.027791E+05 -1.416998E+05 -1.001286E+06  4.333948E+03 -5.530225E+04
       141  20 -2.396203E+06 -5.389724E+05 -1.149681E+05 -9.475934E+05 -3.442458E+02 -4.545732E+04
       141  21 -2.246040E+06 -5.032298E+05 -8.888757E+04 -9.260627E+05 -5.011338E+03 -3.562553E+04
       141  22 -1.829220E+06 -3.508740E+05 -1.012650E+03 -8.109608E+05  1.800721E+04 -5.018227E+04
       141  23 -1.843137E+06 -3.367913E+05 -1.783607E+03 -7.948834E+05  1.331088E+04 -4.034817E+04
       141  24 -1.829155E+06 -3.507778E+05 -3.222118E+03 -8.109743E+05  8.625876E+03 -3.052719E+04
       141  25 -1.139506E+06 -9.892650E+04  1.396527E+05 -6.204381E+05  3.169696E+04 -4.505612E+04
       141  26 -1.289754E+06 -1.345834E+05  1.113867E+05 -6.420466E+05  2.697919E+04 -3.523408E+04
       141  27 -1.412090E+06 -1.983111E+05  8.243517E+04 -6.958142E+05  2.227297E+04 -2.542515E+04
       142   1 -2.151488E+06 -4.687285E+05 -6.979655E+04 -9.004987E+05  7.993348E+03  2.994263E+04
       142   2 -2.028727E+06 -4.044504E+05 -4.544232E+04 -8.458193E+05  1.481492E+04  2.114946E+04
       142   3 -1.878957E+06 -3.701116E+05 -2.389489E+04 -8.230803E+05  2.140579E+04  1.296935E+04
       142   4 -1.829302E+06 -3.506790E+05 -4.283566E+03 -8.111247E+05 -5.796271E+03  2.478902E+04
       142   5 -1.842873E+06 -3.368036E+05 -7.800317E+03 -7.947089E+05  1.849154E+03  1.630500E+04
       142   6 -1.829620E+06 -3.530326E+05 -1.477851E+04 -8.102411E+05  9.263224E+03  8.433677E+03
       142   7 -1.507010E+06 -2.326213E+05  6.122432E+04 -7.217082E+05 -1.959350E+04  1.963254E+04
       142   8 -1.656983E+06 -2.691539E+05  2.984069E+04 -7.435842E+05 -1.112079E+04  1.145898E+04
       142   9 -1.780280E+06 -3.359532E+05 -5.661489E+03 -7.974008E+05 -2.880470E+03  3.897624E+03
       142  10 -2.151489E+06 -4.687295E+05 -6.979836E+04 -9.004989E+05 -9.482172E-10 -1.360946E-09
       142  11 -2.028727E+06 -4.044510E+05 -4.544358E+04 -8.458195E+05  1.297642E-09  1.061614E-09
       142  12 -1.878958E+06 -3.701119E+05 -2.389607E+04 -8.230805E+05  2.410843E-09  6.175076E-11
       142  13 -1.829302E+06 -3.506796E+05 -4.284783E+03 -8.111246E+05 -4.859043E-10  1.662252E-10
       142  14 -1.842873E+06 -3.368039E+05 -7.800823E+03 -7.947089E+05  4.515695E-11 -1.857058E-09
       142  15 -1.829620E+06 -3.530327E+05 -1.477881E+04 -8.102412E+05  3.353771E-10 -8.613327E-10
       142  16 -1.507010E+06 -2.326218E+05  6.122288E+04 -7.217079E+05  3.007954E-10  7.401141E-10
       142  17 -1.656983E+06 -2.691540E+05  2.984021E+04 -7.435841E+05 -8.957054E-10 -4.873975E-12
       142  18 -1.780280E+06 -3.359532E+05 -5.661534E+03 -7.974007E+05 -1.191345E-09 -1.631215E-09
       142  19 -2.151488E+06 -4.687285E+05 -6.979655E+04 -9.004987E+05 -7.993348E+03 -2.994263E+04
       142  20 -2.028727E+06 -4.044504E+05 -4.544232E+04 -8.458193E+05 -1.481492E+04 -2.114946E+04
       142  21 -1.878957E+06 -3.701116E+05 -2.389489E+04 -8.230803E+05 -2.140579E+04 -1.296935E+04
       142  22 -1.829302E+06 -3.506790E+05 -4.283566E+03 -8.111247E+05  5.796271E+03 -2.478902E+04
       142  23 -1.842873E+06 -3.368036E+05 -7.800317E+03 -7.947089E+05 -1.849154E+03 -1.630500E+04
       142  24 -1.829620E+06 -3.530326E+05 -1.477851E+04 -8.102411E+05 -9.263224E+03 -8.433677E+03
       142  25 -1.507010E+06 -2.326213E+05  6.122432E+04 -7.217082E+05  1.959350E+04 -1.963254E+04
       142  26 -1.656983E+06 -2.691539E+05  2.984069E+04 -7.435842E+05  1.112079E+04 -1.145898E+04
       142  27 -1.780280E+06 -3.359532E+05 -5.661489E+03 -7.974008E+05  2.880470E+03 -3.897624E+03
       143   1 -1.781070E+06 -3.378086E+05 -8.211873E+03 -8.050173E+05  2.802374E+04  8.486532E+03
       143   2 -1.668914E+06 -2.661581E+05  7.086819E+03 -7.283600E+05  3.570197E+04  4.935657E+03
       143   3 -1.546135E+06 -2.655729E+05  6.314076E+03 -6.720329E+05  3.967839E+04  1.129106E+04
       143   4 -1.832072E+06 -3.503155E+05 -1.926906E+04 -8.122971E+05  1.378122E+04  3.166865E+03
       143   5 -1.840411E+06 -3.443939E+05 -3.587027E+04 -7.905818E+05  3.477886E+04  4.589582E+03
       143   6 -1.840799E+06 -4.121988E+05 -7.912202E+04 -7.892102E+05  5.207256E+04  1.591884E+04
       143   7 -1.883072E+06 -3.628223E+05 -3.032556E+04 -8.195764E+05 -4.600778E+02 -2.152721E+03
       143   8 -2.011875E+06 -4.226219E+05 -7.882889E+04 -8.527856E+05  3.385603E+04  4.243670E+03
       143   9 -2.135365E+06 -5.587933E+05 -1.645629E+05 -9.063268E+05  6.445989E+04  2.054225E+04
       143  10 -1.781070E+06 -3.378089E+05 -8.213490E+03 -8.050175E+05  3.183260E-10 -2.572173E-09
       143  11 -1.668915E+06 -2.661585E+05  7.084370E+03 -7.283601E+05  2.363503E-10 -1.455763E-09
       143  12 -1.546137E+06 -2.655735E+05  6.310868E+03 -6.720332E+05 -1.137956E-09 -2.753700E-09
       143  13 -1.832072E+06 -3.503156E+05 -1.926944E+04 -8.122971E+05  1.640661E-09 -1.853814E-10
       143  14 -1.840412E+06 -3.443943E+05 -3.587259E+04 -7.905820E+05  6.467792E-10  4.001413E-10
       143  15 -1.840802E+06 -4.121998E+05 -7.912761E+04 -7.892108E+05  1.129149E-09 -1.825064E-10
       143  16 -1.883072E+06 -3.628223E+05 -3.032557E+04 -8.195764E+05  1.060733E-09 -6.764924E-10
       143  17 -2.011877E+06 -4.226222E+05 -7.883109E+04 -8.527857E+05 -1.961803E-10  5.586530E-11
       143  18 -2.135369E+06 -5.587949E+05 -1.645715E+05 -9.063279E+05  2.535955E-10 -1.118035E-09
       143  19 -1.781070E+06 -3.378086E+05 -8.211873E+03 -8.050173E+05 -2.802374E+04 -8.486532E+03
       143  20 -1.668914E+06 -2.661581E+05  7.086819E+03 -7.283600E+05 -3.570197E+04 -4.935657E+03
       143  21 -1.546135E+06 -2.655729E+05  6.314076E+03 -6.720329E+05 -3.967839E+04 -1.129106E+04
       143  22 -1.832072E+06 -3.503155E+05 -1.926906E+04 -8.122971E+05 -1.378122E+04 -3.166865E+03
       143  23 -1.840411E+06 -3.443939E+05 -3.587027E+04 -7.905818E+05 -3.477886E+04 -4.589582E+03
       143  24 -1.840799E+06 -4.121988E+05 -7.912202E+04 -7.892102E+05 -5.207256E+04 -1.591884E+04
       143  25 -1.883072E+06 -3.628223E+05 -3.032556E+04 -8.195764E+05  4.600778E+02  2.152721E+03
       143  26 -2.011875E+06 -4.226219E+05 -7.882889E+04 -8.527856E+05 -3.385603E+04 -4.243670E+03
       143  27 -2.135365E+06 -5.587933E+05 -1.645629E+05 -9.063268E+05 -6.445989E+04 -2.054225E+04
       144   1  1.330472E+05  2.833762E+04  3.830315E+04  6.460163E+03  3.024388E+04  1.910989E+02
       144   2  1.288250E+05 -1.239938E+04  1.362952E+04  2.087103E+03  1.994097E+04  5.407272E+02
       144   3  1.375705E+05 -6.638012E+03  7.288110E+03 -4.803633E+03  9.637873E+03  4.371488E+02
       144   4  1.582078E+05  3.461632E+04  4.455077E+04 -1.249574E+03  3.043884E+04  1.907435E+02
       144   5  1.517123E+05 -6.702467E+03  1.923243E+04  1.108909E+01  1.998319E+04  5.406628E+02
       144   6  1.582103E+05 -1.497429E+03  1.235182E+04 -1.245867E+03  9.527385E+03  4.371959E+02
       144   7  1.833691E+05  4.089519E+04  5.079837E+04 -8.959624E+03  3.063381E+04  1.903833E+02
       144   8  1.746001E+05 -1.005574E+03  2.483531E+04 -2.065002E+03  2.002541E+04  5.405982E+02
       144   9  1.788506E+05  3.643171E+03  1.741550E+04  2.312017E+03  9.416894E+03  4.372417E+02
       144  10  1.330462E+05  2.833737E+04  3.830143E+04  6.460159E+03 -4.710964E-10 -1.693992E-10
       144  11  1.288246E+05 -1.239949E+04  1.362878E+04  2.087094E+03  5.106455E-10 -5.514387E-11
       144  12  1.375704E+05 -6.638037E+03  7.287935E+03 -4.803636E+03  6.576225E-10  2.423873E-10
       144  13  1.582068E+05  3.461607E+04  4.454903E+04 -1.249579E+03  1.136743E-10  1.156076E-12
       144  14  1.517119E+05 -6.702575E+03  1.923168E+04  1.108039E+01 -9.998565E-10 -3.362345E-11
       144  15  1.582102E+05 -1.497453E+03  1.235165E+04 -1.245871E+03  2.147167E-10  3.620068E-10
       144  16  1.833681E+05  4.089494E+04  5.079661E+04 -8.959629E+03 -5.782743E-10 -1.350055E-11
       144  17  1.745997E+05 -1.005682E+03  2.483455E+04 -2.065010E+03 -1.473958E-09  1.130728E-11
       144  18  1.788505E+05  3.643147E+03  1.741533E+04  2.312013E+03  2.447557E-10  7.103848E-10
       144  19  1.330472E+05  2.833762E+04  3.830315E+04  6.460163E+03 -3.024388E+04 -1.910989E+02
       144  20  1.288250E+05 -1.239938E+04  1.362952E+04  2.087103E+03 -1.994097E+04 -5.407272E+02
       144  21  1.375705E+05 -6.638012E+03  7.288110E+03 -4.803633E+03 -9.637873E+03 -4.371488E+02
       144  22  1.582078E+05  3.461632E+04  4.455077E+04 -1.249574E+03 -3.043884E+04 -1.907435E+02
       144  23  1.517123E+05 -6.702467E+03  1.923243E+04  1.108909E+01 -1.998319E+04 -5.406628E+02
       144  24  1.582103E+05 -1.497429E+03  1.235182E+04 -1.245867E+03 -9.527385E+03 -4.371959E+02
       144  25  1.833691E+05  4.089519E+04  5.079837E+04 -8.959624E+03 -3.063381E+04 -1.903833E+02
       144  26  1.746001E+05 -1.005574E+03  2.483531E+04 -2.065002E+03 -2.002541E+04 -5.405982E+02
       144  27  1.788506E+05  3.643171E+03  1.741550E+04  2.312017E+03 -9.416894E+03 -4.372417E+02
       145   1  1.402530E+05  6.470247E+02  6.361873E+03 -3.060430E+02  7.542377E+03  3.220546E+02
       145   2  1.415609E+05 -4.177944E+03  1.750048E+03  2.345598E+02  4.965991E+03  2.897590E+02
       145   3  1.447220E+05 -2.934763E+03  3.325089E+02 -1.722135E+03  2.389600E+03  2.074581E+02
       145   4  1.557347E+05  4.502610E+03  1.016127E+04 -1.242658E+03  7.540100E+03  3.220425E+02
       145   5  1.548069E+05 -8.796802E+02  4.997656E+03  6.113377E+00  4.946849E+03  2.897559E+02
       145   6  1.557352E+05 -1.909687E+02  3.039977E+03 -1.242406E+03  2.353601E+03  2.074586E+02
       145   7  1.712166E+05  8.358180E+03  1.396065E+04 -2.179297E+03  7.537823E+03  3.220305E+02
       145   8  1.680531E+05  2.418571E+03  8.245250E+03 -2.223379E+02  4.927706E+03  2.897529E+02
       145   9  1.667484E+05  2.552817E+03  5.747436E+03 -7.626688E+02  2.317601E+03  2.074590E+02
       145  10  1.402529E+05  6.470094E+02  6.361766E+03 -3.060449E+02 -1.314575E-09  2.835266E-10
       145  11  1.415609E+05 -4.177951E+03  1.750001E+03  2.345586E+02  1.192564E-10  4.009146E-11
       145  12  1.447220E+05 -2.934764E+03  3.324981E+02 -1.722135E+03 -1.843314E-10 -8.266688E-11
       145  13  1.557346E+05  4.502594E+03  1.016116E+04 -1.242660E+03  1.174602E-09  4.513568E-10
       145  14  1.548069E+05 -8.796869E+02  4.997609E+03  6.112223E+00 -2.058116E-09 -1.546926E-10
       145  15  1.557352E+05 -1.909703E+02  3.039966E+03 -1.242406E+03 -2.741727E-09 -7.773504E-11
       145  16  1.712166E+05  8.358165E+03  1.396054E+04 -2.179299E+03 -1.412666E-09  4.466653E-10
       145  17  1.680531E+05  2.418565E+03  8.245205E+03 -2.223391E+02 -1.124350E-09 -4.145531E-10
       145  18  1.667484E+05  2.552816E+03  5.747426E+03 -7.626691E+02 -2.043058E-09  2.633105E-11
       145  19  1.402530E+05  6.470247E+02  6.361873E+03 -3.060430E+02 -7.542377E+03 -3.220546E+02
       145  20  1.415609E+05 -4.177944E+03  1.750048E+03  2.345598E+02 -4.965991E+03 -2.897590E+02
       145  21  1.447220E+05 -2.934763E+03  3.325089E+02 -1.722135E+03 -2.389600E+03 -2.074581E+02
       145  22  1.557347E+05  4.502610E+03  1.016127E+04 -1.242658E+03 -7.540100E+03 -3.220425E+02
       145  23  1.548069E+05 -8.796802E+02  4.997656E+03  6.113377E+00 -4.946849E+03 -2.897559E+02
       145  24  1.557352E+05 -1.909687E+02  3.039977E+03 -1.242406E+03 -2.353601E+03 -2.074586E+02
       145  25  1.712166E+05  8.358180E+03  1.396065E+04 -2.179297E+03 -7.537823E+03 -3.220305E+02
       145  26  1.680531E+05  2.418571E+03  8.245250E+03 -2.223379E+02 -4.927706E+03 -2.897529E+02
       145  27  1.667484E+05  2.552817E+03  5.747436E+03 -7.626688E+02 -2.317601E+03 -2.074590E+02
       146   1  1.494958E+05 -8.848331E+02  9.698785E+02 -1.135849E+03  1.890709E+03  1.535473E+02
       146   2  1.515793E+05 -1.028154E+03  3.778464E+02  2.241296E+01  1.245799E+03  7.926584E+01
       146   3  1.539439E+05 -3.836639E+02  4.025817E+02 -1.306115E+03  6.008956E+02 -4.970758E-01
       146   4  1.553852E+05  5.805350E+02  2.408389E+03 -1.240161E+03  1.866683E+03  1.535463E+02
       146   5  1.552445E+05 -1.154771E+02  1.276658E+03  3.242343E+00  1.219925E+03  7.926513E+01
       146   6  1.553853E+05 -2.335181E+01  7.629800E+02 -1.240144E+03  5.731760E+02 -4.975883E-01
       146   7  1.612746E+05  2.045901E+03  3.846898E+03 -1.344473E+03  1.842657E+03  1.535452E+02
       146   8  1.589098E+05  7.971991E+02  2.175469E+03 -1.592839E+01  1.194051E+03  7.926441E+01
       146   9  1.568267E+05  3.369601E+02  1.123378E+03 -1.174174E+03  5.454564E+02 -4.981067E-01
       146  10  1.494958E+05 -8.848341E+02  9.698717E+02 -1.135849E+03 -1.116794E-09 -8.455907E-11
       146  11  1.515793E+05 -1.028155E+03  3.778435E+02  2.241289E+01 -1.669008E-09 -2.023394E-11
       146  12  1.539439E+05 -3.836640E+02  4.025810E+02 -1.306115E+03 -4.283223E-10  1.195395E-11
       146  13  1.553852E+05  5.805340E+02  2.408383E+03 -1.240161E+03  1.035103E-09  1.318399E-10
       146  14  1.552445E+05 -1.154775E+02  1.276655E+03  3.242265E+00 -2.146882E-09  1.130452E-10
       146  15  1.553853E+05 -2.335190E+01  7.629794E+02 -1.240144E+03 -1.988969E-09 -1.340340E-10
       146  16  1.612746E+05  2.045900E+03  3.846891E+03 -1.344473E+03 -5.895563E-10  3.597681E-10
       146  17  1.589098E+05  7.971988E+02  2.175466E+03 -1.592847E+01 -1.337277E-10  1.436260E-10
       146  18  1.568267E+05  3.369600E+02  1.123378E+03 -1.174174E+03  8.886492E-11 -2.000605E-10
       146  19  1.494958E+05 -8.848331E+02  9.698785E+02 -1.135849E+03 -1.890709E+03 -1.535473E+02
       146  20  1.515793E+05 -1.028154E+03  3.778464E+02  2.241296E+01 -1.245799E+03 -7.926584E+01
       146  21  1.539439E+05 -3.836639E+02  4.025817E+02 -1.306115E+03 -6.008956E+02  4.970758E-01
       146  22  1.553852E+05  5.805350E+02  2.408389E+03 -1.240161E+03 -1.866683E+03 -1.535463E+02
       146  23  1.552445E+05 -1.154771E+02  1.276658E+03  3.242343E+00 -1.219925E+03 -7.926513E+01
       146  24  1.553853E+05 -2.335181E+01  7.629800E+02 -1.240144E+03 -5.731760E+02  4.975883E-01
       146  25  1.612746E+05  2.045901E+03  3.846898E+03 -1.344473E+03 -1.842657E+03 -1.535452E+02
       146  26  1.589098E+05  7.971991E+02  2.175469E+03 -1.592839E+01 -1.194051E+03 -7.926441E+01
       146  27  1.568267E+05  3.369601E+02  1.123378E+03 -1.174174E+03 -5.454564E+02  4.981067E-01
       147   1  1.590065E+05  9.893992E+02  1.505974E+03 -1.230848E+03  4.770844E+02 -4.757669E+01
       147   2  1.612071E+05  1.452864E+03  1.794956E+03  3.850956E+00  3.030663E+02 -1.264971E+02
       147   3  1.634570E+05  2.021874E+03  2.223658E+03 -1.249725E+03  1.290465E+02 -2.060726E+02
       147   4  1.553337E+05  7.344798E+01  5.983510E+02 -1.240481E+03  4.506711E+02 -4.757728E+01
       147   5  1.553091E+05 -1.585067E+01  3.483800E+02  3.657920E+00  2.764335E+02 -1.264980E+02
       147   6  1.553337E+05  4.259184E-01  2.382732E+02 -1.240479E+03  1.021948E+02 -2.060736E+02
       147   7  1.516610E+05 -8.425042E+02 -3.092729E+02 -1.250114E+03  4.242580E+02 -4.757787E+01
       147   8  1.494111E+05 -1.484568E+03 -1.098199E+03  3.464885E+00  2.498010E+02 -1.264988E+02
       147   9  1.472105E+05 -2.021027E+03 -1.747117E+03 -1.231234E+03  7.534340E+01 -2.060746E+02
       147  10  1.590065E+05  9.893991E+02  1.505974E+03 -1.230848E+03  2.156941E-09 -5.972049E-11
       147  11  1.612071E+05  1.452864E+03  1.794956E+03  3.850987E+00 -1.433044E-09 -1.384767E-10
       147  12  1.634570E+05  2.021874E+03  2.223658E+03 -1.249725E+03 -1.818978E-09 -3.628845E-11
       147  13  1.553337E+05  7.344793E+01  5.983506E+02 -1.240481E+03  1.085159E-11 -1.831035E-10
       147  14  1.553091E+05 -1.585071E+01  3.483798E+02  3.657948E+00  1.593316E-09 -1.419244E-10
       147  15  1.553337E+05  4.258700E-01  2.382731E+02 -1.240479E+03 -8.664458E-10  8.261978E-11
       147  16  1.516610E+05 -8.425043E+02 -3.092733E+02 -1.250113E+03  2.416463E-11 -3.084265E-10
       147  17  1.494111E+05 -1.484568E+03 -1.098199E+03  3.464911E+00 -1.861064E-09 -1.779035E-10
       147  18  1.472105E+05 -2.021027E+03 -1.747117E+03 -1.231234E+03  1.482279E-09  1.217359E-10
       147  19  1.590065E+05  9.893992E+02  1.505974E+03 -1.230848E+03 -4.770844E+02  4.757669E+01
       147  20  1.612071E+05  1.452864E+03  1.794956E+03  3.850956E+00 -3.030663E+02  1.264971E+02
       147  21  1.634570E+05  2.021874E+03  2.223658E+03 -1.249725E+03 -1.290465E+02  2.060726E+02
       147  22  1.553337E+05  7.344798E+01  5.983510E+02 -1.240481E+03 -4.506711E+02  4.757728E+01
       147  23  1.553091E+05 -1.585067E+01  3.483800E+02  3.657920E+00 -2.764335E+02  1.264980E+02
       147  24  1.553337E+05  4.259184E-01  2.382732E+02 -1.240479E+03 -1.021948E+02  2.060736E+02
       147  25  1.516610E+05 -8.425042E+02 -3.092729E+02 -1.250114E+03 -4.242580E+02  4.757787E+01
       147  26  1.494111E+05 -1.484568E+03 -1.098199E+03  3.464885E+00 -2.498010E+02  1.264988E+02
       147  27  1.472105E+05 -2.021027E+03 -1.747117E+03 -1.231234E+03 -7.534340E+01  2.060746E+02
       148   1  1.685818E+05  3.309561E+03  3.468379E+03 -1.239706E+03  8.855630E+01 -2.526939E+02
       148   2  1.708063E+05  3.849849E+03  3.996800E+03  7.539659E+00 -1.025287E+01 -3.325052E+02
       148   3  1.730571E+05  4.439921E+03  4.602174E+03 -1.247459E+03 -1.090589E+02 -4.116819E+02
       148   4  1.553286E+05  7.910393E+00  2.109505E+02 -1.243584E+03  6.162795E+01 -2.526952E+02
       148   5  1.553155E+05 -7.609967E+00  1.975293E+02  7.538772E+00 -3.696596E+01 -3.325071E+02
       148   6  1.553286E+05  2.661741E+01  2.609130E+02 -1.243586E+03 -1.355564E+02 -4.116844E+02
       148   7  1.420755E+05 -3.293754E+03 -3.046491E+03 -1.247463E+03  3.470018E+01 -2.526966E+02
       148   8  1.398248E+05 -3.865087E+03 -3.601759E+03  7.537882E+00 -6.367839E+01 -3.325090E+02
       148   9  1.376003E+05 -4.386709E+03 -4.080371E+03 -1.239713E+03 -1.620531E+02 -4.116869E+02
       148  10  1.685818E+05  3.309561E+03  3.468379E+03 -1.239706E+03 -1.220726E-09  7.827471E-11
       148  11  1.708063E+05  3.849849E+03  3.996800E+03  7.539656E+00 -7.228281E-10  9.344464E-11
       148  12  1.730571E+05  4.439921E+03  4.602173E+03 -1.247459E+03 -2.090965E-09 -2.164461E-10
       148  13  1.553286E+05  7.910324E+00  2.109504E+02 -1.243584E+03 -9.473478E-10  3.328192E-10
       148  14  1.553155E+05 -7.610086E+00  1.975291E+02  7.538762E+00 -1.486648E-09  3.640666E-10
       148  15  1.553286E+05  2.661723E+01  2.609127E+02 -1.243586E+03 -1.859179E-09 -1.966296E-10
       148  16  1.420755E+05 -3.293754E+03 -3.046491E+03 -1.247463E+03  1.769234E-09  3.851567E-10
       148  17  1.398248E+05 -3.865087E+03 -3.601759E+03  7.537865E+00  1.547681E-09  3.766858E-10
       148  18  1.376003E+05 -4.386710E+03 -4.080371E+03 -1.239713E+03  1.399505E-10 -2.607583E-10
       148  19  1.685818E+05  3.309561E+03  3.468379E+03 -1.239706E+03 -8.855630E+01  2.526939E+02
       148  20  1.708063E+05  3.849849E+03  3.996800E+03  7.539659E+00  1.025287E+01  3.325052E+02
       148  21  1.730571E+05  4.439921E+03  4.602174E+03 -1.247459E+03  1.090589E+02  4.116819E+02
       148  22  1.553286E+05  7.910393E+00  2.109505E+02 -1.243584E+03 -6.162795E+01  2.526952E+02
       148  23  1.553155E+05 -7.609967E+00  1.975293E+02  7.538772E+00  3.696596E+01  3.325071E+02
       148  24  1.553286E+05  2.661741E+01  2.609130E+02 -1.243586E+03  1.355564E+02  4.116844E+02
       148  25  1.420755E+05 -3.293754E+03 -3.046491E+03 -1.247463E+03 -3.470018E+01  2.526966E+02
       148  26  1.398248E+05 -3.865087E+03 -3.601759E+03  7.537882E+00  6.367839E+01  3.325090E+02
       148  27  1.376003E+05 -4.386709E+03 -4.080371E+03 -1.239713E+03  1.620531E+02  4.116869E+02
       149   1  1.782467E+05  5.695927E+03  5.935714E+03 -1.224085E+03 -1.583805E+02 -4.599460E+02
       149   2  1.804538E+05  6.222355E+03  6.659649E+03  9.496980E+00 -4.090634E+02 -5.409887E+02
       149   3  1.827689E+05  7.041535E+03  7.620392E+03 -1.285763E+03 -6.597388E+02 -6.126377E+02
       149   4  1.553466E+05 -7.916419E+00  3.123637E+02 -1.249488E+03 -1.871840E+02 -4.599493E+02
       149   5  1.552928E+05 -4.304032E+01  4.889200E+02  1.492356E+01 -4.347008E+02 -5.409927E+02
       149   6  1.553465E+05  2.140538E+02  9.001014E+02 -1.249514E+03 -6.822094E+02 -6.126422E+02
       149   7  1.324469E+05 -5.711798E+03 -5.311025E+03 -1.274890E+03 -2.159863E+02 -4.599526E+02
       149   8  1.301324E+05 -6.308482E+03 -5.681855E+03  2.034991E+01 -4.603372E+02 -5.409966E+02
       149   9  1.279249E+05 -6.613483E+03 -5.820244E+03 -1.213266E+03 -7.046789E+02 -6.126467E+02
       149  10  1.782467E+05  5.695926E+03  5.935713E+03 -1.224085E+03 -1.247674E-09 -3.560867E-11
       149  11  1.804538E+05  6.222354E+03  6.659648E+03  9.496802E+00 -2.950312E-09 -2.158767E-11
       149  12  1.827689E+05  7.041534E+03  7.620390E+03 -1.285764E+03  4.305004E-10  1.029915E-10
       149  13  1.553466E+05 -7.916656E+00  3.123633E+02 -1.249488E+03  2.200738E-09 -2.442358E-10
       149  14  1.552928E+05 -4.304068E+01  4.889191E+02  1.492337E+01 -1.644352E-09  5.255171E-11
       149  15  1.553465E+05  2.140533E+02  9.000998E+02 -1.249514E+03  1.999728E-09  2.492987E-10
       149  16  1.324469E+05 -5.711799E+03 -5.311025E+03 -1.274890E+03  1.749316E-09 -4.603119E-10
       149  17  1.301324E+05 -6.308483E+03 -5.681856E+03  2.034971E+01 -2.909310E-09  2.004941E-11
       149  18  1.279249E+05 -6.613483E+03 -5.820246E+03 -1.213267E+03  7.383169E-10  5.892088E-10
       149  19  1.782467E+05  5.695927E+03  5.935714E+03 -1.224085E+03  1.583805E+02  4.599460E+02
       149  20  1.804538E+05  6.222355E+03  6.659649E+03  9.496980E+00  4.090634E+02  5.409887E+02
       149  21  1.827689E+05  7.041535E+03  7.620392E+03 -1.285763E+03  6.597388E+02  6.126377E+02
       149  22  1.553466E+05 -7.916419E+00  3.123637E+02 -1.249488E+03  1.871840E+02  4.599493E+02
       149  23  1.552928E+05 -4.304032E+01  4.889200E+02  1.492356E+01  4.347008E+02  5.409927E+02
       149  24  1.553465E+05  2.140538E+02  9.001014E+02 -1.249514E+03  6.822094E+02  6.126422E+02
       149  25  1.324469E+05 -5.711798E+03 -5.311025E+03 -1.274890E+03  2.159863E+02  4.599526E+02
       149  26  1.301324E+05 -6.308482E+03 -5.681855E+03  2.034991E+01  4.603372E+02  5.409966E+02
       149  27  1.279249E+05 -6.613483E+03 -5.820244E+03 -1.213266E+03  7.046789E+02  6.126467E+02
       150   1  1.881368E+05  8.063360E+03  9.147592E+03 -1.077175E+03 -8.197997E+02 -6.736658E+02
       150   2  1.900865E+05  8.378524E+03  1.042239E+04 -5.506234E+01 -1.810600E+03 -7.599192E+02
       150   3  1.927316E+05  1.094252E+04  1.290516E+04 -1.598785E+03 -2.801429E+03 -7.563573E+02
       150   4  1.554759E+05 -7.087809E+01  1.131279E+03 -1.257612E+03 -8.638010E+02 -6.736739E+02
       150   5  1.551308E+05 -3.254534E+02  1.851328E+03  2.513990E+01 -1.824369E+03 -7.599245E+02
       150   6  1.554757E+05  1.663616E+03  3.758393E+03 -1.257948E+03 -2.784961E+03 -7.563584E+02
       150   7  1.228160E+05 -8.205196E+03 -6.885113E+03 -1.438040E+03 -9.078001E+02 -6.736819E+02
       150   8  1.201762E+05 -9.029521E+03 -6.719827E+03  1.053376E+02 -1.838137E+03 -7.599298E+02
       150   9  1.182212E+05 -7.615388E+03 -5.388476E+03 -9.171304E+02 -2.768494E+03 -7.563596E+02
       150  10  1.881368E+05  8.063360E+03  9.147590E+03 -1.077175E+03  6.363872E-10 -2.016271E-11
       150  11  1.900865E+05  8.378522E+03  1.042239E+04 -5.506345E+01 -1.953195E-09 -2.958142E-10
       150  12  1.927316E+05  1.094252E+04  1.290514E+04 -1.598787E+03  4.468101E-10 -7.690676E-10
       150  13  1.554759E+05 -7.087877E+01  1.131276E+03 -1.257612E+03  7.315620E-11  2.293232E-10
       150  14  1.551308E+05 -3.254549E+02  1.851320E+03  2.513879E+01  1.661705E-09 -1.348514E-10
       150  15  1.554757E+05  1.663614E+03  3.758377E+03 -1.257949E+03 -9.496675E-11 -6.479998E-10
       150  16  1.228160E+05 -8.205196E+03 -6.885116E+03 -1.438040E+03 -1.154839E-09  5.377798E-10
       150  17  1.201762E+05 -9.029523E+03 -6.719834E+03  1.053365E+02  7.007739E-10  3.699827E-10
       150  18  1.182211E+05 -7.615391E+03 -5.388491E+03 -9.171321E+02  2.019167E-09 -4.280791E-10
       150  19  1.881368E+05  8.063360E+03  9.147592E+03 -1.077175E+03  8.197997E+02  6.736658E+02
       150  20  1.900865E+05  8.378524E+03  1.042239E+04 -5.506234E+01  1.810600E+03  7.599192E+02
       150  21  1.927316E+05  1.094252E+04  1.290516E+04 -1.598785E+03  2.801429E+03  7.563573E+02
       150  22  1.554759E+05 -7.087809E+01  1.131279E+03 -1.257612E+03  8.638010E+02  6.736739E+02
       150  23  1.551308E+05 -3.254534E+02  1.851328E+03  2.513990E+01  1.824369E+03  7.599245E+02
       150  24  1.554757E+05  1.663616E+03  3.758393E+03 -1.257948E+03  2.784961E+03  7.563584E+02
       150  25  1.228160E+05 -8.205196E+03 -6.885113E+03 -1.438040E+03  9.078001E+02  6.736819E+02
       150  26  1.201762E+05 -9.029521E+03 -6.719827E+03  1.053376E+02  1.838137E+03  7.599298E+02
       150  27  1.182212E+05 -7.615388E+03 -5.388476E+03 -9.171304E+02  2.768494E+03  7.563596E+02
       151   1  1.989774E+05  1.005046E+04  1.500934E+04  5.566975E+01 -3.341436E+03 -9.278017E+02
       151   2  1.989011E+05  8.702074E+03  1.810604E+04 -7.226971E+02 -7.481391E+03 -1.051865E+03
       151   3  2.036811E+05  2.459768E+04  2.820979E+04 -4.110082E+03 -1.162159E+04 -3.590132E+02
       151   4  1.563912E+05 -5.541524E+02  4.567563E+03 -1.266088E+03 -3.519925E+03 -9.278381E+02
       151   5  1.539862E+05 -2.478016E+03  7.109326E+03  3.646178E+01 -7.385091E+03 -1.051854E+03
       151   6  1.563901E+05  1.279507E+04  1.646770E+04 -1.270004E+03 -1.125049E+04 -3.589563E+02
       151   7  1.138066E+05 -1.115890E+04 -5.874342E+03 -2.587754E+03 -3.698402E+03 -9.278737E+02
       151   8  1.090731E+05 -1.365825E+04 -3.887534E+03  7.955655E+02 -7.288799E+03 -1.051842E+03
       151   9  1.091012E+05  9.923275E+02  4.725458E+03  1.569858E+03 -1.087941E+04 -3.588960E+02
       151  10  1.989774E+05  1.005046E+04  1.500931E+04  5.566726E+01  2.460945E-10 -7.563474E-10
       151  11  1.989011E+05  8.702057E+03  1.810593E+04 -7.227034E+02 -1.309517E-09 -4.613175E-10
       151  12  2.036810E+05  2.459765E+04  2.820954E+04 -4.110086E+03  3.769961E-10 -5.615327E-11
       151  13  1.563911E+05 -5.541567E+02  4.567538E+03 -1.266090E+03 -1.126491E-09 -1.406054E-09
       151  14  1.539861E+05 -2.478032E+03  7.109221E+03  3.645552E+01  2.369747E-10  6.634782E-10
       151  15  1.563900E+05  1.279504E+04  1.646747E+04 -1.270007E+03 -1.443933E-09  1.155849E-10
       151  16  1.138065E+05 -1.115890E+04 -5.874369E+03 -2.587757E+03 -7.966838E-10 -5.881629E-10
       151  17  1.090730E+05 -1.365827E+04 -3.887636E+03  7.955593E+02 -3.317578E-09  4.392660E-10
       151  18  1.091011E+05  9.922956E+02  4.725235E+03  1.569855E+03 -1.004112E-09 -2.207024E-10
       151  19  1.989774E+05  1.005046E+04  1.500934E+04  5.566975E+01  3.341436E+03  9.278017E+02
       151  20  1.989011E+05  8.702074E+03  1.810604E+04 -7.226971E+02  7.481391E+03  1.051865E+03
       151  21  2.036811E+05  2.459768E+04  2.820979E+04 -4.110082E+03  1.162159E+04  3.590132E+02
       151  22  1.563912E+05 -5.541524E+02  4.567563E+03 -1.266088E+03  3.519925E+03  9.278381E+02
       151  23  1.539862E+05 -2.478016E+03  7.109326E+03  3.646178E+01  7.385091E+03  1.051854E+03
       151  24  1.563901E+05  1.279507E+04  1.646770E+04 -1.270004E+03  1.125049E+04  3.589563E+02
       151  25  1.138066E+05 -1.115890E+04 -5.874342E+03 -2.587754E+03  3.698402E+03  9.278737E+02
       151  26  1.090731E+05 -1.365825E+04 -3.887534E+03  7.955655E+02  7.288799E+03  1.051842E+03
       151  27  1.091012E+05  9.923275E+02  4.725458E+03  1.569858E+03  1.087941E+04  3.588960E+02
       152   1  1.486475E+06  6.003318E+06  1.492399E+06 -6.522041E+05  4.198871E+04  6.364178E+04
       152   2  1.153540E+06  4.834867E+06  1.170692E+06 -2.534482E+04  1.126802E+05  1.141713E+04
       152   3  9.064972E+05  3.732431E+06  9.115656E+05 -6.588806E+05  6.869189E+04 -4.144966E+04
       152   4  3.343619E+04  1.625089E+05  4.681623E+04 -6.323396E+05  4.213141E+04  2.025889E+04
       152   5 -1.357903E+04  1.334816E+05  2.347925E+04 -1.797923E+03  1.127632E+05  6.997538E+03
       152   6  1.877205E+04  1.625227E+05  3.604824E+04 -6.322561E+05  6.833334E+04 -7.003760E+03
       152   7 -1.422147E+06 -5.647504E+06 -1.401297E+06 -6.126253E+05  4.227224E+04 -2.271991E+04
       152   8 -1.182326E+06 -4.547855E+06 -1.125343E+06  2.160333E+04  1.128464E+05  2.611008E+03
       152   9 -8.698952E+05 -3.395825E+06 -8.403996E+05 -6.057466E+05  6.797665E+04  2.724542E+04
       152  10  1.486473E+06  6.003313E+06  1.492388E+06 -6.522063E+05  4.945253E-10 -3.654477E-09
       152  11  1.153526E+06  4.834864E+06  1.170668E+06 -2.534585E+04  5.190822E-10 -1.130060E-08
       152  12  9.064917E+05  3.732428E+06  9.115535E+05 -6.588783E+05  9.755099E-10  1.796450E-08
       152  13  3.343417E+04  1.625080E+05  4.681212E+04 -6.323403E+05  7.226349E-10  6.187622E-12
       152  14 -1.359270E+04  1.334781E+05  2.345526E+04 -1.798558E+03  1.249974E-09 -3.421726E-09
       152  15  1.876702E+04  1.625214E+05  3.603937E+04 -6.322557E+05  8.570931E-10 -1.389875E-09
       152  16 -1.422149E+06 -5.647506E+06 -1.401301E+06 -6.126245E+05 -3.324296E-11  3.670733E-09
       152  17 -1.182339E+06 -4.547859E+06 -1.125367E+06  2.160309E+04  4.299509E-09  1.903488E-08
       152  18 -8.699004E+05 -3.395827E+06 -8.404097E+05 -6.057481E+05  1.112889E-09 -1.321999E-08
       152  19  1.486475E+06  6.003318E+06  1.492399E+06 -6.522041E+05 -4.198871E+04 -6.364178E+04
       152  20  1.153540E+06  4.834867E+06  1.170692E+06 -2.534482E+04 -1.126802E+05 -1.141713E+04
       152  21  9.064972E+05  3.732431E+06  9.115656E+05 -6.588806E+05 -6.869189E+04  4.144966E+04
       152  22  3.343619E+04  1.625089E+05  4.681623E+04 -6.323396E+05 -4.213141E+04 -2.025889E+04
       152  23 -1.357903E+04  1.334816E+05  2.347925E+04 -1.797923E+03 -1.127632E+05 -6.997538E+03
       152  24  1.877205E+04  1.625227E+05  3.604824E+04 -6.322561E+05 -6.833334E+04  7.003760E+03
       152  25 -1.422147E+06 -5.647504E+06 -1.401297E+06 -6.126253E+05 -4.227224E+04  2.271991E+04
       152  26 -1.182326E+06 -4.547855E+06 -1.125343E+06  2.160333E+04 -1.128464E+05 -2.611008E+03
       152  27 -8.698952E+05 -3.395825E+06 -8.403996E+05 -6.057466E+05 -6.797665E+04 -2.724542E+04
       153   1  2.553720E+05  1.122236E+06  2.736033E+05 -6.444953E+05  2.551403E+04 -2.419023E+04
       153   2 -4.583938E+04  1.394824E+03  1.288709E+04  7.995481E+02 -2.806528E+03 -5.049708E+04
       153   3 -2.687698E+05 -1.130702E+06 -2.187101E+05 -6.126402E+05 -3.051150E+04 -7.673617E+04
       153   4  1.349214E+04  1.505459E+05  3.633824E+04 -6.319110E+05  2.539645E+04 -1.445848E+04
       153   5 -7.078154E+03  1.567577E+05  5.099398E+04 -2.350437E+03 -2.917443E+03 -4.098603E+04
       153   6  5.074159E+04  1.505484E+05  9.497637E+04 -6.314800E+05 -3.061784E+04 -6.749263E+04
       153   7 -2.284571E+05 -8.202846E+05 -2.009952E+05 -6.193434E+05  2.527917E+04 -4.741905E+03
       153   8  3.168135E+04  3.121427E+05  8.909943E+04 -5.501150E+03 -3.028441E+03 -3.147260E+04
       153   9  3.701322E+05  1.433297E+06  4.085431E+05 -6.503535E+05 -3.072463E+04 -5.822991E+04
       153  10  2.553711E+05  1.122236E+06  2.736009E+05 -6.444948E+05 -3.611327E-09 -2.892162E-09
       153  11 -4.584007E+04  1.392084E+03  1.288228E+04  7.994340E+02  2.763460E-09 -2.451287E-08
       153  12 -2.687724E+05 -1.130709E+06 -2.187230E+05 -6.126421E+05 -2.634047E-09  1.903521E-08
       153  13  1.349139E+04  1.505455E+05  3.633664E+04 -6.319107E+05 -4.730795E-10 -6.042271E-11
       153  14 -7.078614E+03  1.567559E+05  5.099080E+04 -2.350533E+03  7.055126E-09 -6.323165E-09
       153  15  5.073936E+04  1.505432E+05  9.496604E+04 -6.314816E+05  1.214069E-08 -1.440225E-09
       153  16 -2.284578E+05 -8.202848E+05 -2.009965E+05 -6.193433E+05  1.232118E-11  2.780508E-09
       153  17  3.168108E+04  3.121416E+05  8.909756E+04 -5.501227E+03 -9.818487E-09  3.706343E-08
       153  18  3.701303E+05  1.433293E+06  4.085350E+05 -6.503550E+05  1.696762E-09 -1.307085E-08
       153  19  2.553720E+05  1.122236E+06  2.736033E+05 -6.444953E+05 -2.551403E+04  2.419023E+04
       153  20 -4.583938E+04  1.394824E+03  1.288709E+04  7.995481E+02  2.806528E+03  5.049708E+04
       153  21 -2.687698E+05 -1.130702E+06 -2.187101E+05 -6.126402E+05  3.051150E+04  7.673617E+04
       153  22  1.349214E+04  1.505459E+05  3.633824E+04 -6.319110E+05 -2.539645E+04  1.445848E+04
       153  23 -7.078154E+03  1.567577E+05  5.099398E+04 -2.350437E+03  2.917443E+03  4.098603E+04
       153  24  5.074159E+04  1.505484E+05  9.497637E+04 -6.314800E+05  3.061784E+04  6.749263E+04
       153  25 -2.284571E+05 -8.202846E+05 -2.009952E+05 -6.193434E+05 -2.527917E+04  4.741905E+03
       153  26  3.168135E+04  3.121427E+05  8.909943E+04 -5.501150E+03  3.028441E+03  3.147260E+04
       153  27  3.701322E+05  1.433297E+06  4.085431E+05 -6.503535E+05  3.072463E+04  5.822991E+04
       154   1 -9.637885E+05 -3.680647E+06 -8.338021E+05 -6.330471E+05 -7.383704E+04 -1.223145E+05
       154   2 -1.314847E+06 -4.889823E+06 -1.053602E+06  3.747171E+04 -1.190334E+05 -1.764545E+05
       154   3 -1.218744E+06 -5.932280E+06 -1.116908E+06 -5.544836E+05 -4.422102E+04 -2.298265E+05
       154   4  1.555492E+03  1.872901E+05  1.186664E+05 -6.328006E+05 -7.418676E+04 -8.741328E+04
       154   5 -6.821768E+04  1.013911E+05  1.715748E+05 -1.629009E+03 -1.189327E+05 -1.822993E+05
       154   6  3.146367E+05  1.872771E+05  4.084054E+05 -6.322444E+05 -4.408817E+04 -2.765227E+05
       154   7  9.657863E+05  4.068893E+06  1.070036E+06 -6.325094E+05 -7.453533E+04 -5.229265E+04
       154   8  1.176562E+06  5.115405E+06  1.394922E+06 -4.101423E+04 -1.188318E+05 -1.881866E+05
       154   9  1.845214E+06  6.341027E+06  1.930915E+06 -7.107469E+05 -4.394457E+04 -3.236714E+05
       154  10 -9.637984E+05 -3.680665E+06 -8.338407E+05 -6.330544E+05 -5.764177E-10  9.233956E-10
       154  11 -1.314870E+06 -4.889860E+06 -1.053687E+06  3.745474E+04 -2.551098E-09 -1.455254E-08
       154  12 -1.218761E+06 -5.932338E+06 -1.117012E+06 -5.544918E+05 -1.069620E-09 -2.001370E-09
       154  13  1.547521E+03  1.872804E+05  1.186416E+05 -6.328058E+05 -5.322208E-09 -8.131840E-11
       154  14 -6.824179E+04  1.013517E+05  1.714858E+05 -1.646467E+03 -2.723702E-09 -3.090399E-09
       154  15  3.146141E+05  1.871945E+05  4.082580E+05 -6.322542E+05 -2.916475E-09 -1.045271E-10
       154  16  9.657796E+05  4.068889E+06  1.070020E+06 -6.325125E+05  5.853496E-09 -1.160616E-09
       154  17  1.176538E+06  5.115363E+06  1.394829E+06 -4.103218E+04 -6.506767E-09  2.029193E-08
       154  18  1.845184E+06  6.340915E+06  1.930717E+06 -7.107584E+05 -4.816170E-09  2.321099E-09
       154  19 -9.637885E+05 -3.680647E+06 -8.338021E+05 -6.330471E+05  7.383704E+04  1.223145E+05
       154  20 -1.314847E+06 -4.889823E+06 -1.053602E+06  3.747171E+04  1.190334E+05  1.764545E+05
       154  21 -1.218744E+06 -5.932280E+06 -1.116908E+06 -5.544836E+05  4.422102E+04  2.298265E+05
       154  22  1.555492E+03  1.872901E+05  1.186664E+05 -6.328006E+05  7.418676E+04  8.741328E+04
       154  23 -6.821768E+04  1.013911E+05  1.715748E+05 -1.629009E+03  1.189327E+05  1.822993E+05
       154  24  3.146367E+05  1.872771E+05  4.084054E+05 -6.322444E+05  4.408817E+04  2.765227E+05
       154  25  9.657863E+05  4.068893E+06  1.070036E+06 -6.325094E+05  7.453533E+04  5.229265E+04
       154  26  1.176562E+06  5.115405E+06  1.394922E+06 -4.101423E+04  1.188318E+05  1.881866E+05
       154  27  1.845214E+06  6.341027E+06  1.930915E+06 -7.107469E+05  4.394457E+04  3.236714E+05
       155   1 -2.199340E+05 -9.642385E+04 -4.621901E+04 -1.012625E+05 -2.413662E+04 -8.148812E+03
       155   2 -2.079307E+05 -6.645942E+04 -2.453632E+04 -9.523415E+04 -1.434835E+04 -2.593167E+03
       155   3 -2.002351E+05 -5.147753E+04 -1.413363E+04 -8.840070E+04 -3.937004E+03  1.302658E+03
       155   4 -1.648585E+05 -5.995421E+04 -2.902331E+04 -6.988187E+04 -1.923041E+04 -6.309277E+03
       155   5 -1.614826E+05 -4.179860E+04 -1.375780E+04 -7.440593E+04 -1.272368E+04 -1.984011E+03
       155   6 -1.617639E+05 -3.797520E+04 -7.171783E+03 -7.812529E+04 -5.594016E+03  6.811405E+02
       155   7 -1.097804E+05 -2.348258E+04 -1.182810E+04 -3.849874E+04 -1.432384E+04 -4.469287E+03
       155   8 -1.150324E+05 -1.713694E+04 -2.979476E+03 -5.357616E+04 -1.109890E+04 -1.374759E+03
       155   9 -1.232908E+05 -2.447263E+04 -2.098939E+02 -6.784922E+04 -7.251150E+03  5.958017E+01
       155  10 -2.199346E+05 -9.642408E+04 -4.622023E+04 -1.012626E+05 -2.903741E-09  9.748809E-10
       155  11 -2.079310E+05 -6.645948E+04 -2.453672E+04 -9.523418E+04 -1.064863E-08 -5.303068E-10
       155  12 -2.002351E+05 -5.147754E+04 -1.413366E+04 -8.840069E+04 -5.851407E-09 -1.919802E-09
       155  13 -1.648589E+05 -5.995435E+04 -2.902408E+04 -6.988196E+04 -4.124133E-09 -4.996390E-10
       155  14 -1.614828E+05 -4.179865E+04 -1.375811E+04 -7.440595E+04 -6.260596E-09 -6.951413E-10
       155  15 -1.617639E+05 -3.797520E+04 -7.171842E+03 -7.812529E+04  7.537730E-09  2.297344E-09
       155  16 -1.097806E+05 -2.348265E+04 -1.182852E+04 -3.849879E+04 -5.962537E-09 -2.161873E-09
       155  17 -1.150325E+05 -1.713698E+04 -2.979711E+03 -5.357617E+04 -2.887330E-10 -7.512719E-10
       155  18 -1.232908E+05 -2.447264E+04 -2.099927E+02 -6.784922E+04  1.395053E-08  6.542055E-09
       155  19 -2.199340E+05 -9.642385E+04 -4.621901E+04 -1.012625E+05  2.413662E+04  8.148812E+03
       155  20 -2.079307E+05 -6.645942E+04 -2.453632E+04 -9.523415E+04  1.434835E+04  2.593167E+03
       155  21 -2.002351E+05 -5.147753E+04 -1.413363E+04 -8.840070E+04  3.937004E+03 -1.302658E+03
       155  22 -1.648585E+05 -5.995421E+04 -2.902331E+04 -6.988187E+04  1.923041E+04  6.309277E+03
       155  23 -1.614826E+05 -4.179860E+04 -1.375780E+04 -7.440593E+04  1.272368E+04  1.984011E+03
       155  24 -1.617639E+05 -3.797520E+04 -7.171783E+03 -7.812529E+04  5.594016E+03 -6.811405E+02
       155  25 -1.097804E+05 -2.348258E+04 -1.182810E+04 -3.849874E+04  1.432384E+04  4.469287E+03
       155  26 -1.150324E+05 -1.713694E+04 -2.979476E+03 -5.357616E+04  1.109890E+04  1.374759E+03
       155  27 -1.232908E+05 -2.447263E+04 -2.098939E+02 -6.784922E+04  7.251150E+03 -5.958017E+01
       156   1 -1.895031E+05 -4.874582E+04 -1.059434E+04 -8.665917E+04 -3.026797E+03  1.032261E+03
       156   2 -1.762929E+05 -4.116123E+04 -5.408014E+03 -8.154531E+04 -9.498272E+02  8.132217E+02
       156   3 -1.616570E+05 -3.651273E+04 -1.770895E+03 -7.855606E+04  1.191883E+03  4.216244E+02
       156   4 -1.609366E+05 -3.768312E+04 -5.345764E+03 -7.793011E+04 -4.586088E+03  4.474032E+02
       156   5 -1.615855E+05 -3.555618E+04 -2.790119E+03 -7.712752E+04 -2.850249E+03  1.004330E+02
       156   6 -1.607414E+05 -3.629773E+04 -1.513328E+03 -7.844961E+04 -1.049691E+03 -4.191101E+02
       156   7 -1.323695E+05 -2.662044E+04 -9.729549E+01 -6.920076E+04 -6.145438E+03 -1.374809E+02
       156   8 -1.468779E+05 -2.995110E+04 -1.722162E+02 -7.270962E+04 -4.750719E+03 -6.123761E+02
       156   9 -1.598257E+05 -3.608273E+04 -1.255736E+03 -7.834315E+04 -3.291293E+03 -1.259854E+03
       156  10 -1.895032E+05 -4.874582E+04 -1.059436E+04 -8.665917E+04 -3.999763E-08 -1.871065E-08
       156  11 -1.762929E+05 -4.116123E+04 -5.408017E+03 -8.154531E+04 -1.161716E-08 -9.144427E-09
       156  12 -1.616570E+05 -3.651273E+04 -1.770898E+03 -7.855606E+04  3.967519E-08  1.401558E-08
       156  13 -1.609366E+05 -3.768312E+04 -5.345804E+03 -7.793011E+04  6.086743E-09 -5.077547E-10
       156  14 -1.615855E+05 -3.555618E+04 -2.790135E+03 -7.712752E+04 -1.140470E-08 -8.079121E-09
       156  15 -1.607414E+05 -3.629774E+04 -1.513330E+03 -7.844961E+04 -4.588136E-09 -4.683023E-09
       156  16 -1.323695E+05 -2.662045E+04 -9.736651E+01 -6.920076E+04  4.182983E-08  1.773782E-08
       156  17 -1.468780E+05 -2.995111E+04 -1.722594E+02 -7.270963E+04 -1.769748E-08 -6.736336E-09
       156  18 -1.598257E+05 -3.608273E+04 -1.255759E+03 -7.834315E+04 -5.508686E-08 -2.328570E-08
       156  19 -1.895031E+05 -4.874582E+04 -1.059434E+04 -8.665917E+04  3.026797E+03 -1.032261E+03
       156  20 -1.762929E+05 -4.116123E+04 -5.408014E+03 -8.154531E+04  9.498272E+02 -8.132217E+02
       156  21 -1.616570E+05 -3.651273E+04 -1.770895E+03 -7.855606E+04 -1.191883E+03 -4.216244E+02
       156  22 -1.609366E+05 -3.768312E+04 -5.345764E+03 -7.793011E+04  4.586088E+03 -4.474032E+02
       156  23 -1.615855E+05 -3.555618E+04 -2.790119E+03 -7.712752E+04  2.850249E+03 -1.004330E+02
       156  24 -1.607414E+05 -3.629773E+04 -1.513328E+03 -7.844961E+04  1.049691E+03  4.191101E+02
       156  25 -1.323695E+05 -2.662044E+04 -9.729549E+01 -6.920076E+04  6.145438E+03  1.374809E+02
       156  26 -1.468779E+05 -2.995110E+04 -1.722162E+02 -7.270962E+04  4.750719E+03  6.123761E+02
       156  27 -1.598257E+05 -3.608273E+04 -1.255736E+03 -7.834315E+04  3.291293E+03  1.259854E+03
       157   1 -1.525460E+05 -3.335624E+04  1.089286E+02 -7.610953E+04  1.636553E+03 -1.700370E+02
       157   2 -1.393736E+05 -2.723528E+04  2.862853E+03 -7.100943E+04  2.406145E+03 -1.178960E+03
       157   3 -1.242641E+05 -2.318606E+04  5.345296E+03 -6.820573E+04  3.182430E+03 -2.205710E+03
       157   4 -1.606649E+05 -3.628791E+04 -1.132805E+03 -7.842445E+04 -5.948625E+02 -1.006966E+03
       157   5 -1.616330E+05 -3.522644E+04 -6.157949E+02 -7.728720E+04  1.394636E+02 -2.029134E+03
       157   6 -1.606571E+05 -3.622972E+04 -3.423200E+02 -7.844643E+04  8.804719E+02 -3.069131E+03
       157   7 -1.687837E+05 -3.921957E+04 -2.374517E+03 -8.073934E+04 -2.826247E+03 -1.843883E+03
       157   8 -1.838916E+05 -4.321748E+04 -4.094391E+03 -8.356472E+04 -2.127119E+03 -2.879270E+03
       157   9 -1.970481E+05 -4.927307E+04 -6.029815E+03 -8.868644E+04 -1.421317E+03 -3.932487E+03
       157  10 -1.525460E+05 -3.335624E+04  1.089235E+02 -7.610953E+04 -1.484611E-10  8.624202E-10
       157  11 -1.393737E+05 -2.723529E+04  2.862840E+03 -7.100943E+04 -5.671273E-09 -1.044169E-09
       157  12 -1.242641E+05 -2.318606E+04  5.345268E+03 -6.820572E+04 -5.358911E-09  7.787365E-10
       157  13 -1.606649E+05 -3.628791E+04 -1.132807E+03 -7.842445E+04 -1.562035E-09 -2.094121E-09
       157  14 -1.616330E+05 -3.522644E+04 -6.158027E+02 -7.728720E+04 -4.584456E-09 -2.357705E-09
       157  15 -1.606571E+05 -3.622973E+04 -3.423392E+02 -7.844643E+04 -5.172541E-09 -7.603446E-10
       157  16 -1.687837E+05 -3.921957E+04 -2.374538E+03 -8.073934E+04 -5.053422E-09 -4.999911E-09
       157  17 -1.838916E+05 -4.321749E+04 -4.094415E+03 -8.356473E+04 -5.329540E-09 -3.693400E-09
       157  18 -1.970481E+05 -4.927308E+04 -6.029848E+03 -8.868645E+04  6.840634E-10 -2.264276E-09
       157  19 -1.525460E+05 -3.335624E+04  1.089286E+02 -7.610953E+04 -1.636553E+03  1.700370E+02
       157  20 -1.393736E+05 -2.723528E+04  2.862853E+03 -7.100943E+04 -2.406145E+03  1.178960E+03
       157  21 -1.242641E+05 -2.318606E+04  5.345296E+03 -6.820573E+04 -3.182430E+03  2.205710E+03
       157  22 -1.606649E+05 -3.628791E+04 -1.132805E+03 -7.842445E+04  5.948625E+02  1.006966E+03
       157  23 -1.616330E+05 -3.522644E+04 -6.157949E+02 -7.728720E+04 -1.394636E+02  2.029134E+03
       157  24 -1.606571E+05 -3.622972E+04 -3.423200E+02 -7.844643E+04 -8.804719E+02  3.069131E+03
       157  25 -1.687837E+05 -3.921957E+04 -2.374517E+03 -8.073934E+04  2.826247E+03  1.843883E+03
       157  26 -1.838916E+05 -4.321748E+04 -4.094391E+03 -8.356472E+04  2.127119E+03  2.879270E+03
       157  27 -1.970481E+05 -4.927307E+04 -6.029815E+03 -8.868644E+04  1.421317E+03  3.932487E+03
       158   1 -1.152960E+05 -1.998292E+04  6.905117E+03 -6.570612E+04  3.485132E+03 -2.865707E+03
       158   2 -1.021550E+05 -1.393594E+04  9.209004E+03 -6.059733E+04  3.999578E+03 -4.000760E+03
       158   3 -8.701961E+04 -9.897929E+03  1.145454E+04 -5.778767E+04  4.514481E+03 -5.136903E+03
       158   4 -1.606477E+05 -3.623139E+04 -2.595259E+02 -7.844173E+04  1.184345E+03 -3.728711E+03
       158   5 -1.616456E+05 -3.522973E+04 -1.516058E+02 -7.729117E+04  1.696570E+03 -4.864657E+03
       158   6 -1.606492E+05 -3.623680E+04 -1.003966E+02 -7.843999E+04  2.209249E+03 -6.001692E+03
       158   7 -2.059978E+05 -5.247985E+04 -7.424334E+03 -9.117660E+04 -1.116291E+03 -4.591657E+03
       158   8 -2.211328E+05 -5.652328E+04 -9.512358E+03 -9.398361E+04 -6.062179E+02 -5.728472E+03
       158   9 -2.342729E+05 -6.257512E+04 -1.165541E+04 -9.909001E+04 -9.569434E+01 -6.866372E+03
       158  10 -1.152960E+05 -1.998293E+04  6.905079E+03 -6.570611E+04 -3.159335E-09  2.075834E-09
       158  11 -1.021550E+05 -1.393596E+04  9.208944E+03 -6.059732E+04  8.766400E-09  4.942977E-09
       158  12 -8.701964E+04 -9.897963E+03  1.145445E+04 -5.778765E+04  7.604057E-09  3.158143E-09
       158  13 -1.606477E+05 -3.623140E+04 -2.595547E+02 -7.844172E+04  2.772210E-09  1.587788E-09
       158  14 -1.616456E+05 -3.522975E+04 -1.516557E+02 -7.729117E+04  8.129968E-09  3.933015E-09
       158  15 -1.606492E+05 -3.623684E+04 -1.004734E+02 -7.843998E+04  3.835398E-09  2.066430E-09
       158  16 -2.059978E+05 -5.247987E+04 -7.424375E+03 -9.117661E+04  9.755044E-09  1.108399E-09
       158  17 -2.211328E+05 -5.652332E+04 -9.512420E+03 -9.398362E+04  6.898037E-09  3.072394E-09
       158  18 -2.342729E+05 -6.257517E+04 -1.165550E+04 -9.909001E+04 -9.459082E-09  9.195389E-10
       158  19 -1.152960E+05 -1.998292E+04  6.905117E+03 -6.570612E+04 -3.485132E+03  2.865707E+03
       158  20 -1.021550E+05 -1.393594E+04  9.209004E+03 -6.059733E+04 -3.999578E+03  4.000760E+03
       158  21 -8.701961E+04 -9.897929E+03  1.145454E+04 -5.778767E+04 -4.514481E+03  5.136903E+03
       158  22 -1.606477E+05 -3.623139E+04 -2.595259E+02 -7.844173E+04 -1.184345E+03  3.728711E+03
       158  23 -1.616456E+05 -3.522973E+04 -1.516058E+02 -7.729117E+04 -1.696570E+03  4.864657E+03
       158  24 -1.606492E+05 -3.623680E+04 -1.003966E+02 -7.843999E+04 -2.209249E+03  6.001692E+03
       158  25 -2.059978E+05 -5.247985E+04 -7.424334E+03 -9.117660E+04  1.116291E+03  4.591657E+03
       158  26 -2.211328E+05 -5.652328E+04 -9.512358E+03 -9.398361E+04  6.062179E+02  5.728472E+03
       158  27 -2.342729E+05 -6.257512E+04 -1.165541E+04 -9.909001E+04  9.569434E+01  6.866372E+03
       159   1 -7.807047E+04 -6.688368E+03  1.294068E+04 -5.528482E+04  4.785016E+03 -5.809759E+03
       159   2 -6.494062E+04 -6.405647E+02  1.513644E+04 -5.017588E+04  5.254063E+03 -6.960303E+03
       159   3 -4.980988E+04  3.403468E+03  1.730822E+04 -4.736407E+04  5.720924E+03 -8.104831E+03
       159   4 -1.606491E+05 -3.623755E+04 -8.933285E+01 -7.843925E+04  2.479777E+03 -6.674591E+03
       159   5 -1.616486E+05 -3.523589E+04 -8.955126E+01 -7.729026E+04  2.960662E+03 -7.820780E+03
       159   6 -1.606498E+05 -3.624028E+04 -1.230899E+02 -7.843839E+04  3.439363E+03 -8.960959E+03
       159   7 -2.432194E+05 -6.578567E+04 -1.311919E+04 -1.015905E+05  1.748889E+02 -7.539291E+03
       159   8 -2.583466E+05 -6.983025E+04 -1.531568E+04 -1.044007E+05  6.676386E+02 -8.681115E+03
       159   9 -2.714778E+05 -7.588323E+04 -1.755495E+04 -1.095078E+05  1.158207E+03 -9.816936E+03
       159  10 -7.807050E+04 -6.688410E+03  1.294058E+04 -5.528480E+04 -1.315794E-09 -6.651484E-10
       159  11 -6.494067E+04 -6.406241E+02  1.513630E+04 -5.017585E+04 -9.682682E-09 -2.140620E-09
       159  12 -4.980993E+04  3.403389E+03  1.730804E+04 -4.736404E+04 -6.459952E-09 -2.098302E-09
       159  13 -1.606491E+05 -3.623760E+04 -8.942811E+01 -7.843923E+04 -2.187586E-09 -1.755459E-10
       159  14 -1.616487E+05 -3.523596E+04 -8.968266E+01 -7.729024E+04 -6.598212E-09 -1.653179E-09
       159  15 -1.606499E+05 -3.624037E+04 -1.232630E+02 -7.843837E+04 -2.879560E-09 -9.794836E-10
       159  16 -2.432194E+05 -6.578573E+04 -1.311929E+04 -1.015905E+05 -1.143062E-08  2.457711E-10
       159  17 -2.583466E+05 -6.983033E+04 -1.531583E+04 -1.044007E+05 -6.823485E-09 -7.061029E-10
       159  18 -2.714779E+05 -7.588333E+04 -1.755513E+04 -1.095078E+05  2.290407E-09  4.157606E-10
       159  19 -7.807047E+04 -6.688368E+03  1.294068E+04 -5.528482E+04 -4.785016E+03  5.809759E+03
       159  20 -6.494062E+04 -6.405647E+02  1.513644E+04 -5.017588E+04 -5.254063E+03  6.960303E+03
       159  21 -4.980988E+04  3.403468E+03  1.730822E+04 -4.736407E+04 -5.720924E+03  8.104831E+03
       159  22 -1.606491E+05 -3.623755E+04 -8.933285E+01 -7.843925E+04 -2.479777E+03  6.674591E+03
       159  23 -1.616486E+05 -3.523589E+04 -8.955126E+01 -7.729026E+04 -2.960662E+03  7.820780E+03
       159  24 -1.606498E+05 -3.624028E+04 -1.230899E+02 -7.843839E+04 -3.439363E+03  8.960959E+03
       159  25 -2.432194E+05 -6.578567E+04 -1.311919E+04 -1.015905E+05 -1.748889E+02  7.539291E+03
       159  26 -2.583466E+05 -6.983025E+04 -1.531568E+04 -1.044007E+05 -6.676386E+02  8.681115E+03
       159  27 -2.714778E+05 -7.588323E+04 -1.755495E+04 -1.095078E+05 -1.158207E+03  9.816936E+03
       160   1 -4.086525E+04  6.613911E+03  1.875873E+04 -4.486474E+04  5.999776E+03 -8.769252E+03
       160   2 -2.774539E+04  1.266635E+04  2.089379E+04 -3.975715E+04  6.440217E+03 -9.889037E+03
       160   3 -1.262747E+04  1.671560E+04  2.301518E+04 -3.694018E+04  6.859087E+03 -1.095108E+04
       160   4 -1.606550E+05 -3.623973E+04 -1.541674E+02 -7.843915E+04  3.715221E+03 -9.626568E+03
       160   5 -1.616456E+05 -3.524106E+04 -2.639182E+02 -7.728882E+04  4.269791E+03 -1.070365E+04
       160   6 -1.606608E+05 -3.626826E+04 -4.777451E+02 -7.842926E+04  4.802782E+03 -1.172298E+04
       160   7 -2.804292E+05 -7.909186E+04 -1.906729E+04 -1.120075E+05  1.431134E+03 -1.048371E+04
       160   8 -2.955256E+05 -8.314629E+04 -2.142170E+04 -1.148127E+05  2.099872E+03 -1.151808E+04
       160   9 -3.086689E+05 -8.924918E+04 -2.397057E+04 -1.199086E+05  2.747021E+03 -1.249469E+04
       160  10 -4.086531E+04  6.613818E+03  1.875852E+04 -4.486470E+04 -1.355320E-09 -6.817819E-10
       160  11 -2.774546E+04  1.266624E+04  2.089353E+04 -3.975710E+04 -5.007726E-10 -9.624664E-10
       160  12 -1.262755E+04  1.671546E+04  2.301486E+04 -3.694012E+04 -1.156560E-09  4.640865E-11
       160  13 -1.606550E+05 -3.623983E+04 -1.543675E+02 -7.843912E+04 -5.530625E-11 -1.708474E-10
       160  14 -1.616456E+05 -3.524119E+04 -2.641677E+02 -7.728878E+04  4.652880E-09  1.750435E-10
       160  15 -1.606609E+05 -3.626841E+04 -4.780467E+02 -7.842922E+04 -4.552240E-10  2.832649E-10
       160  16 -2.804292E+05 -7.909198E+04 -1.906750E+04 -1.120074E+05 -2.258740E-10  4.116080E-10
       160  17 -2.955257E+05 -8.314643E+04 -2.142196E+04 -1.148126E+05 -2.428422E-09  7.038486E-10
       160  18 -3.086689E+05 -8.924935E+04 -2.397087E+04 -1.199085E+05  2.058317E-09  8.832731E-10
       160  19 -4.086525E+04  6.613911E+03  1.875873E+04 -4.486474E+04 -5.999776E+03  8.769252E+03
       160  20 -2.774539E+04  1.266635E+04  2.089379E+04 -3.975715E+04 -6.440217E+03  9.889037E+03
       160  21 -1.262747E+04  1.671560E+04  2.301518E+04 -3.694018E+04 -6.859087E+03  1.095108E+04
       160  22 -1.606550E+05 -3.623973E+04 -1.541674E+02 -7.843915E+04 -3.715221E+03  9.626568E+03
       160  23 -1.616456E+05 -3.524106E+04 -2.639182E+02 -7.728882E+04 -4.269791E+03  1.070365E+04
       160  24 -1.606608E+05 -3.626826E+04 -4.777451E+02 -7.842926E+04 -4.802782E+03  1.172298E+04
       160  25 -2.804292E+05 -7.909186E+04 -1.906729E+04 -1.120075E+05 -1.431134E+03  1.048371E+04
       160  26 -2.955256E+05 -8.314629E+04 -2.142170E+04 -1.148127E+05 -2.099872E+03  1.151808E+04
       160  27 -3.086689E+05 -8.924918E+04 -2.397057E+04 -1.199086E+05 -2.747021E+03  1.249469E+04
       161   1 -3.663916E+03  1.992033E+04  2.440848E+04 -3.447089E+04  7.214503E+03 -1.153742E+04
       161   2  9.306118E+03  2.603843E+04  2.660300E+04 -2.921507E+04  7.003414E+03 -1.250585E+04
       161   3  2.425496E+04  3.003943E+04  2.912908E+04 -2.614607E+04  6.584789E+03 -1.292112E+04
       161   4 -1.606981E+05 -3.626700E+04 -6.358337E+02 -7.843222E+04  5.126151E+03 -1.232143E+04
       161   5 -1.616211E+05 -3.539170E+04 -1.169454E+03 -7.722967E+04  6.008836E+03 -1.287954E+04
       161   6 -1.607825E+05 -3.685045E+04 -2.238209E+03 -7.821426E+04  6.683984E+03 -1.288438E+04
       161   7 -3.177076E+05 -9.245251E+04 -2.568112E+04 -1.223836E+05  3.038334E+03 -1.310524E+04
       161   8 -3.325181E+05 -9.681921E+04 -2.894283E+04 -1.252321E+05  5.014542E+03 -1.325312E+04
       161   9 -3.457835E+05 -1.037369E+05 -3.360644E+04 -1.302679E+05  6.783148E+03 -1.284766E+04
       161  10 -3.664008E+03  1.992017E+04  2.440813E+04 -3.447083E+04 -4.033736E-10  8.528909E-10
       161  11  9.306024E+03  2.603825E+04  2.660262E+04 -2.921500E+04 -3.970858E-11 -1.850878E-10
       161  12  2.425487E+04  3.003923E+04  2.912869E+04 -2.614600E+04  1.121093E-10 -1.121548E-09
       161  13 -1.606981E+05 -3.626717E+04 -6.361684E+02 -7.843217E+04 -2.001899E-10  2.148057E-10
       161  14 -1.616212E+05 -3.539188E+04 -1.169833E+03 -7.722961E+04 -7.551154E-10 -3.455186E-10
       161  15 -1.607825E+05 -3.685064E+04 -2.238605E+03 -7.821419E+04  9.092159E-10 -3.600421E-11
       161  16 -3.177077E+05 -9.245270E+04 -2.568146E+04 -1.223836E+05 -4.317176E-10 -2.786274E-10
       161  17 -3.325182E+05 -9.681941E+04 -2.894321E+04 -1.252321E+05 -5.190659E-10 -1.411967E-10
       161  18 -3.457836E+05 -1.037371E+05 -3.360683E+04 -1.302678E+05  7.680129E-10  1.024995E-09
       161  19 -3.663916E+03  1.992033E+04  2.440848E+04 -3.447089E+04 -7.214503E+03  1.153742E+04
       161  20  9.306118E+03  2.603843E+04  2.660300E+04 -2.921507E+04 -7.003414E+03  1.250585E+04
       161  21  2.425496E+04  3.003943E+04  2.912908E+04 -2.614607E+04 -6.584789E+03  1.292112E+04
       161  22 -1.606981E+05 -3.626700E+04 -6.358337E+02 -7.843222E+04 -5.126151E+03  1.232143E+04
       161  23 -1.616211E+05 -3.539170E+04 -1.169454E+03 -7.722967E+04 -6.008836E+03  1.287954E+04
       161  24 -1.607825E+05 -3.685045E+04 -2.238209E+03 -7.821426E+04 -6.683984E+03  1.288438E+04
       161  25 -3.177076E+05 -9.245251E+04 -2.568112E+04 -1.223836E+05 -3.038334E+03  1.310524E+04
       161  26 -3.325181E+05 -9.681921E+04 -2.894283E+04 -1.252321E+05 -5.014542E+03  1.325312E+04
       161  27 -3.457835E+05 -1.037369E+05 -3.360644E+04 -1.302679E+05 -6.783148E+03  1.284766E+04
       162   1  3.348291E+04  3.306494E+04  3.060165E+04 -2.402570E+04  7.317434E+03 -1.289546E+04
       162   2  4.399882E+04  4.004680E+04  3.523880E+04 -1.576682E+04 -1.173306E+03 -1.317170E+04
       162   3  5.596609E+04  4.222319E+04  4.457624E+04 -8.194221E+03 -1.166106E+04 -8.130246E+03
       162   4 -1.611824E+05 -3.692031E+04 -3.002126E+03 -7.823492E+04  7.103748E+03 -1.297617E+04
       162   5 -1.615162E+05 -3.807316E+04 -5.758903E+03 -7.616702E+04  9.129831E+03 -9.304655E+03
       162   6 -1.624824E+05 -4.611561E+04 -1.214784E+04 -7.478570E+04  9.158933E+03 -3.144368E+02
       162   7 -3.558071E+05 -1.069017E+05 -3.660689E+04 -1.324282E+05  6.890133E+03 -1.305686E+04
       162   8 -3.669837E+05 -1.161870E+05 -4.675718E+04 -1.365473E+05  1.942914E+04 -5.439186E+03
       162   9 -3.808763E+05 -1.344460E+05 -6.887214E+04 -1.413528E+05  2.997028E+04  7.497565E+03
       162  10  3.348281E+04  3.306475E+04  3.060124E+04 -2.402562E+04  2.901070E-09 -3.121245E-10
       162  11  4.399877E+04  4.004662E+04  3.523847E+04 -1.576683E+04 -4.858641E-09 -3.553150E-09
       162  12  5.596593E+04  4.222309E+04  4.457586E+04 -8.194297E+03 -7.836848E-09 -2.958479E-09
       162  13 -1.611825E+05 -3.692050E+04 -3.002537E+03 -7.823484E+04 -3.007086E-09 -1.561119E-09
       162  14 -1.615163E+05 -3.807328E+04 -5.759222E+03 -7.616696E+04 -6.573969E-09 -1.523174E-09
       162  15 -1.624825E+05 -4.611563E+04 -1.214799E+04 -7.478570E+04 -3.621610E-09 -6.187693E-10
       162  16 -3.558072E+05 -1.069019E+05 -3.660730E+04 -1.324281E+05 -9.767210E-09 -1.515955E-09
       162  17 -3.669841E+05 -1.161871E+05 -4.675794E+04 -1.365472E+05 -8.663399E-09 -1.443610E-09
       162  18 -3.808773E+05 -1.344463E+05 -6.887393E+04 -1.413530E+05 -9.554399E-10  5.909818E-10
       162  19  3.348291E+04  3.306494E+04  3.060165E+04 -2.402570E+04 -7.317434E+03  1.289546E+04
       162  20  4.399882E+04  4.004680E+04  3.523880E+04 -1.576682E+04  1.173306E+03  1.317170E+04
       162  21  5.596609E+04  4.222319E+04  4.457624E+04 -8.194221E+03  1.166106E+04  8.130246E+03
       162  22 -1.611824E+05 -3.692031E+04 -3.002126E+03 -7.823492E+04 -7.103748E+03  1.297617E+04
       162  23 -1.615162E+05 -3.807316E+04 -5.758903E+03 -7.616702E+04 -9.129831E+03  9.304655E+03
       162  24 -1.624824E+05 -4.611561E+04 -1.214784E+04 -7.478570E+04 -9.158933E+03  3.144368E+02
       162  25 -3.558071E+05 -1.069017E+05 -3.660689E+04 -1.324282E+05 -6.890133E+03  1.305686E+04
       162  26 -3.669837E+05 -1.161870E+05 -4.675718E+04 -1.365473E+05 -1.942914E+04  5.439186E+03
       162  27 -3.808763E+05 -1.344460E+05 -6.887214E+04 -1.413528E+05 -2.997028E+04 -7.497565E+03
       163   1 -1.347111E+05 -2.569580E+04 -3.945107E+04 -8.466752E+03 -4.113324E+04 -6.736495E+02
       163   2 -1.297653E+05  3.003969E+04 -5.937251E+03 -2.911475E+03 -2.727132E+04 -1.966360E+03
       163   3 -1.425713E+05  2.193586E+04  2.595071E+03  7.003861E+03 -1.341033E+04 -1.747422E+03
       163   4 -2.223477E+05 -4.757186E+04 -6.121869E+04  2.105558E+03 -4.181880E+04 -6.745925E+02
       163   5 -2.134242E+05  9.209635E+03 -2.642781E+04 -8.341931E+01 -2.745095E+04 -1.966577E+03
       163   6 -2.223428E+05  2.059111E+03 -1.697235E+04  2.087763E+03 -1.308395E+04 -1.747170E+03
       163   7 -3.099772E+05 -6.944808E+04 -8.298683E+04  1.267637E+04 -4.250426E+04 -6.755590E+02
       163   8 -2.970766E+05 -1.162091E+04 -4.691887E+04  2.744254E+03 -2.763056E+04 -1.966796E+03
       163   9 -3.021085E+05 -1.781802E+04 -3.654023E+04 -2.827704E+03 -1.275760E+04 -1.746923E+03
       163  10 -1.347129E+05 -2.569625E+04 -3.945425E+04 -8.466774E+03  1.623845E-09  5.196877E-11
       163  11 -1.297661E+05  3.003948E+04 -5.938656E+03 -2.911519E+03 -1.300666E-09 -4.077626E-10
       163  12 -1.425715E+05  2.193581E+04  2.594727E+03  7.003843E+03  1.578465E-09 -5.064359E-10
       163  13 -2.223496E+05 -4.757233E+04 -6.122198E+04  2.105535E+03 -9.770549E-10  3.026762E-10
       163  14 -2.134250E+05  9.209428E+03 -2.642923E+04 -8.346280E+01 -4.259908E-10 -6.546095E-11
       163  15 -2.223430E+05  2.059061E+03 -1.697268E+04  2.087744E+03  4.311351E-11  5.826518E-10
       163  16 -3.099791E+05 -6.944857E+04 -8.299023E+04  1.267635E+04 -1.040229E-10  5.063107E-11
       163  17 -2.970775E+05 -1.162112E+04 -4.692031E+04  2.744210E+03 -2.334927E-09 -1.013622E-09
       163  18 -3.021087E+05 -1.781806E+04 -3.654054E+04 -2.827722E+03 -9.575002E-10 -4.885703E-10
       163  19 -1.347111E+05 -2.569580E+04 -3.945107E+04 -8.466752E+03  4.113324E+04  6.736495E+02
       163  20 -1.297653E+05  3.003969E+04 -5.937251E+03 -2.911475E+03  2.727132E+04  1.966360E+03
       163  21 -1.425713E+05  2.193586E+04  2.595071E+03  7.003861E+03  1.341033E+04  1.747422E+03
       163  22 -2.223477E+05 -4.757186E+04 -6.121869E+04  2.105558E+03  4.181880E+04  6.745925E+02
       163  23 -2.134242E+05  9.209635E+03 -2.642781E+04 -8.341931E+01  2.745095E+04  1.966577E+03
       163  24 -2.223428E+05  2.059111E+03 -1.697235E+04  2.087763E+03  1.308395E+04  1.747170E+03
       163  25 -3.099772E+05 -6.944808E+04 -8.298683E+04  1.267637E+04  4.250426E+04  6.755590E+02
       163  26 -2.970766E+05 -1.162091E+04 -4.691887E+04  2.744254E+03  2.763056E+04  1.966796E+03
       163  27 -3.021085E+05 -1.781802E+04 -3.654023E+04 -2.827704E+03  1.275760E+04  1.746923E+03
       164   1 -1.483191E+05  1.140823E+04  3.382935E+03  8.703247E+02 -1.032101E+04 -1.436783E+03
       164   2 -1.510870E+05  1.779369E+04  9.462038E+03 -4.128569E+02 -6.813146E+03 -1.451381E+03
       164   3 -1.563894E+05  1.585113E+04  1.117596E+04  2.816170E+03 -3.305363E+03 -1.296038E+03
       164   4 -2.189442E+05 -6.187309E+03 -1.396354E+04  2.130130E+03 -1.035429E+04 -1.436833E+03
       164   5 -2.176715E+05  1.207992E+03 -6.870782E+03 -1.277450E+02 -6.789697E+03 -1.451380E+03
       164   6 -2.189433E+05  2.649468E+02 -4.182940E+03  2.126610E+03 -3.225167E+03 -1.295991E+03
       164   7 -2.895648E+05 -2.378322E+04 -3.131038E+04  3.389791E+03 -1.038756E+04 -1.436882E+03
       164   8 -2.842519E+05 -1.537803E+04 -2.320393E+04  1.573357E+02 -6.766251E+03 -1.451380E+03
       164   9 -2.814937E+05 -1.532152E+04 -1.954213E+04  1.437120E+03 -3.144978E+03 -1.295944E+03
       164  10 -1.483193E+05  1.140820E+04  3.382731E+03  8.703127E+02 -2.263185E-10 -1.254072E-09
       164  11 -1.510871E+05  1.779367E+04  9.461947E+03 -4.128649E+02 -1.182160E-09  9.720557E-11
       164  12 -1.563894E+05  1.585112E+04  1.117594E+04  2.816166E+03 -1.442441E-09  1.361011E-09
       164  13 -2.189444E+05 -6.187340E+03 -1.396375E+04  2.130118E+03  1.369999E-09 -6.062730E-10
       164  14 -2.176716E+05  1.207977E+03 -6.870872E+03 -1.277529E+02  6.972047E-10 -6.957053E-10
       164  15 -2.189433E+05  2.649422E+02 -4.182963E+03  2.126607E+03 -5.166556E-10  6.635953E-11
       164  16 -2.895649E+05 -2.378325E+04 -3.131059E+04  3.389779E+03 -9.931645E-10  1.532272E-10
       164  17 -2.842520E+05 -1.537805E+04 -2.320402E+04  1.573278E+02  7.024013E-10 -7.840293E-10
       164  18 -2.814937E+05 -1.532153E+04 -1.954215E+04  1.437117E+03  3.332395E-09  8.521388E-10
       164  19 -1.483191E+05  1.140823E+04  3.382935E+03  8.703247E+02  1.032101E+04  1.436783E+03
       164  20 -1.510870E+05  1.779369E+04  9.462038E+03 -4.128569E+02  6.813146E+03  1.451381E+03
       164  21 -1.563894E+05  1.585113E+04  1.117596E+04  2.816170E+03  3.305363E+03  1.296038E+03
       164  22 -2.189442E+05 -6.187309E+03 -1.396354E+04  2.130130E+03  1.035429E+04  1.436833E+03
       164  23 -2.176715E+05  1.207992E+03 -6.870782E+03 -1.277450E+02  6.789697E+03  1.451380E+03
       164  24 -2.189433E+05  2.649468E+02 -4.182940E+03  2.126610E+03  3.225167E+03  1.295991E+03
       164  25 -2.895648E+05 -2.378322E+04 -3.131038E+04  3.389791E+03  1.038756E+04  1.436882E+03
       164  26 -2.842519E+05 -1.537803E+04 -2.320393E+04  1.573357E+02  6.766251E+03  1.451380E+03
       164  27 -2.814937E+05 -1.532152E+04 -1.954213E+04  1.437120E+03  3.144978E+03  1.295944E+03
       165   1 -1.653094E+05  1.244354E+04  9.714517E+03  2.034818E+03 -2.595206E+03 -1.185429E+03
       165   2 -1.692436E+05  1.237128E+04  1.025776E+04 -1.573777E+02 -1.705422E+03 -1.055913E+03
       165   3 -1.735653E+05  1.122223E+04  9.951911E+03  2.267449E+03 -8.156789E+02 -9.060008E+02
       165   4 -2.184641E+05 -7.959238E+02 -3.318002E+03  2.151482E+03 -2.555181E+03 -1.185409E+03
       165   5 -2.182696E+05  1.583342E+02 -1.770650E+03 -1.573285E+02 -1.658615E+03 -1.055884E+03
       165   6 -2.184639E+05  3.457916E+01 -1.077145E+03  2.150907E+03 -7.620831E+02 -9.059635E+02
       165   7 -2.716162E+05 -1.403560E+04 -1.635073E+04  2.268136E+03 -2.515160E+03 -1.185388E+03
       165   8 -2.672935E+05 -1.205479E+04 -1.379923E+04 -1.572797E+02 -1.611811E+03 -1.055855E+03
       165   9 -2.633606E+05 -1.115322E+04 -1.210635E+04  2.034373E+03 -7.084911E+02 -9.059263E+02
       165  10 -1.653094E+05  1.244354E+04  9.714501E+03  2.034816E+03 -1.868318E-09  1.947703E-09
       165  11 -1.692436E+05  1.237128E+04  1.025775E+04 -1.573792E+02 -2.196437E-09  8.123847E-10
       165  12 -1.735653E+05  1.122223E+04  9.951908E+03  2.267449E+03  3.454248E-10  4.916280E-10
       165  13 -2.184641E+05 -7.959271E+02 -3.318017E+03  2.151480E+03  5.243578E-10  7.275842E-11
       165  14 -2.182697E+05  1.583323E+02 -1.770658E+03 -1.573299E+02 -3.446388E-10  9.813895E-10
       165  15 -2.184639E+05  3.457813E+01 -1.077148E+03  2.150907E+03  2.390207E-09  2.433295E-09
       165  16 -2.716162E+05 -1.403560E+04 -1.635074E+04  2.268134E+03  6.811085E-10  1.453601E-09
       165  17 -2.672935E+05 -1.205479E+04 -1.379924E+04 -1.572811E+02  1.498741E-10  9.545702E-10
       165  18 -2.633606E+05 -1.115322E+04 -1.210635E+04  2.034373E+03  2.237473E-09  1.579544E-09
       165  19 -1.653094E+05  1.244354E+04  9.714517E+03  2.034818E+03  2.595206E+03  1.185429E+03
       165  20 -1.692436E+05  1.237128E+04  1.025776E+04 -1.573777E+02  1.705422E+03  1.055913E+03
       165  21 -1.735653E+05  1.122223E+04  9.951911E+03  2.267449E+03  8.156789E+02  9.060008E+02
       165  22 -2.184641E+05 -7.959238E+02 -3.318002E+03  2.151482E+03  2.555181E+03  1.185409E+03
       165  23 -2.182696E+05  1.583342E+02 -1.770650E+03 -1.573285E+02  1.658615E+03  1.055884E+03
       165  24 -2.184639E+05  3.457916E+01 -1.077145E+03  2.150907E+03  7.620831E+02  9.059635E+02
       165  25 -2.716162E+05 -1.403560E+04 -1.635073E+04  2.268136E+03  2.515160E+03  1.185388E+03
       165  26 -2.672935E+05 -1.205479E+04 -1.379923E+04 -1.572797E+02  1.611811E+03  1.055855E+03
       165  27 -2.633606E+05 -1.115322E+04 -1.210635E+04  2.034373E+03  7.084911E+02  9.059263E+02
       166   1 -1.830793E+05  8.697377E+03  7.791872E+03  2.173799E+03 -6.368525E+02 -8.163207E+02
       166   2 -1.872329E+05  7.776188E+03  7.090366E+03 -1.591832E+02 -3.653317E+02 -6.687874E+02
       166   3 -1.914661E+05  6.706622E+03  6.173475E+03  2.197470E+03 -9.383268E+01 -5.181552E+02
       166   4 -2.183950E+05 -9.779363E+01 -8.605393E+02  2.167287E+03 -5.878627E+02 -8.162849E+02
       166   5 -2.183551E+05  2.313868E+01 -5.456856E+02 -1.775757E+02 -3.153150E+02 -6.687486E+02
       166   6 -2.183950E+05 -4.504347E+00 -4.469528E+02  2.167213E+03 -4.278724E+01 -5.181133E+02
       166   7 -2.537096E+05 -8.893056E+03 -9.513042E+03  2.160775E+03 -5.388758E+02 -8.162491E+02
       166   8 -2.494764E+05 -7.729983E+03 -8.181808E+03 -1.959674E+02 -2.653008E+02 -6.687098E+02
       166   9 -2.453232E+05 -6.715685E+03 -7.067434E+03  2.136957E+03  8.255997E+00 -5.180714E+02
       166  10 -1.830793E+05  8.697376E+03  7.791870E+03  2.173799E+03 -1.311860E-09  1.439415E-10
       166  11 -1.872329E+05  7.776188E+03  7.090365E+03 -1.591834E+02 -1.098540E-09  1.532718E-09
       166  12 -1.914661E+05  6.706622E+03  6.173475E+03  2.197470E+03  8.516300E-10  1.469649E-09
       166  13 -2.183950E+05 -9.779444E+01 -8.605412E+02  2.167287E+03 -6.556366E-10  1.020399E-09
       166  14 -2.183551E+05  2.313817E+01 -5.456866E+02 -1.775758E+02  1.676933E-09  1.044705E-09
       166  15 -2.183950E+05 -4.504636E+00 -4.469533E+02  2.167213E+03 -8.595393E-10 -2.433074E-10
       166  16 -2.537096E+05 -8.893057E+03 -9.513044E+03  2.160774E+03 -9.221518E-10  1.288262E-09
       166  17 -2.494764E+05 -7.729983E+03 -8.181809E+03 -1.959675E+02  7.591130E-10 -6.054878E-10
       166  18 -2.453232E+05 -6.715685E+03 -7.067435E+03  2.136957E+03  5.114668E-10 -8.898929E-10
       166  19 -1.830793E+05  8.697377E+03  7.791872E+03  2.173799E+03  6.368525E+02  8.163207E+02
       166  20 -1.872329E+05  7.776188E+03  7.090366E+03 -1.591832E+02  3.653317E+02  6.687874E+02
       166  21 -1.914661E+05  6.706622E+03  6.173475E+03  2.197470E+03  9.383268E+01  5.181552E+02
       166  22 -2.183950E+05 -9.779363E+01 -8.605393E+02  2.167287E+03  5.878627E+02  8.162849E+02
       166  23 -2.183551E+05  2.313868E+01 -5.456856E+02 -1.775757E+02  3.153150E+02  6.687486E+02
       166  24 -2.183950E+05 -4.504347E+00 -4.469528E+02  2.167213E+03  4.278724E+01  5.181133E+02
       166  25 -2.537096E+05 -8.893056E+03 -9.513042E+03  2.160775E+03  5.388758E+02  8.162491E+02
       166  26 -2.494764E+05 -7.729983E+03 -8.181808E+03 -1.959674E+02  2.653008E+02  6.687098E+02
       166  27 -2.453232E+05 -6.715685E+03 -7.067434E+03  2.136957E+03 -8.255997E+00  5.180714E+02
       167   1 -2.011663E+05  4.284393E+03  3.768096E+03  2.174584E+03 -1.295926E+01 -4.297991E+02
       167   2 -2.053545E+05  3.261565E+03  2.649645E+03 -1.797899E+02  2.569285E+02 -2.788334E+02
       167   3 -2.096242E+05  2.092591E+03  1.316839E+03  2.196460E+03  5.268130E+02 -1.282717E+02
       167   4 -2.183952E+05 -5.017193E+00 -4.461144E+02  2.176318E+03  3.774207E+01 -4.297563E+02
       167   5 -2.183545E+05  2.299755E+01 -5.400794E+02 -1.889573E+02  3.074891E+02 -2.787898E+02
       167   6 -2.183953E+05 -9.509382E+01 -8.482866E+02  2.176398E+03  5.772348E+02 -1.282273E+02
       167   7 -2.356239E+05 -4.294450E+03 -4.660347E+03  2.178052E+03  8.844200E+01 -4.297134E+02
       167   8 -2.313544E+05 -3.215582E+03 -3.729816E+03 -1.981246E+02  3.580487E+02 -2.787462E+02
       167   9 -2.271662E+05 -2.282784E+03 -3.013418E+03  2.156336E+03  6.276559E+02 -1.281829E+02
       167  10 -2.011663E+05  4.284393E+03  3.768096E+03  2.174584E+03  2.178080E-09  6.983794E-10
       167  11 -2.053545E+05  3.261565E+03  2.649645E+03 -1.797899E+02 -1.028408E-09  5.434459E-10
       167  12 -2.096242E+05  2.092591E+03  1.316839E+03  2.196461E+03 -2.406888E-09 -1.701868E-09
       167  13 -2.183952E+05 -5.017392E+00 -4.461148E+02  2.176318E+03  1.394144E-09  2.697359E-09
       167  14 -2.183545E+05  2.299745E+01 -5.400797E+02 -1.889573E+02  1.234358E-09  1.404814E-09
       167  15 -2.183953E+05 -9.509393E+01 -8.482872E+02  2.176398E+03  1.019652E-09 -1.991240E-09
       167  16 -2.356239E+05 -4.294450E+03 -4.660347E+03  2.178052E+03 -2.345091E-09  1.442623E-09
       167  17 -2.313544E+05 -3.215583E+03 -3.729817E+03 -1.981245E+02 -5.287458E-10  5.410338E-10
       167  18 -2.271662E+05 -2.282784E+03 -3.013419E+03  2.156336E+03  3.660115E-10 -1.956076E-09
       167  19 -2.011663E+05  4.284393E+03  3.768096E+03  2.174584E+03  1.295926E+01  4.297991E+02
       167  20 -2.053545E+05  3.261565E+03  2.649645E+03 -1.797899E+02 -2.569285E+02  2.788334E+02
       167  21 -2.096242E+05  2.092591E+03  1.316839E+03  2.196460E+03 -5.268130E+02  1.282717E+02
       167  22 -2.183952E+05 -5.017193E+00 -4.461144E+02  2.176318E+03 -3.774207E+01  4.297563E+02
       167  23 -2.183545E+05  2.299755E+01 -5.400794E+02 -1.889573E+02 -3.074891E+02  2.787898E+02
       167  24 -2.183953E+05 -9.509382E+01 -8.482866E+02  2.176398E+03 -5.772348E+02  1.282273E+02
       167  25 -2.356239E+05 -4.294450E+03 -4.660347E+03  2.178052E+03 -8.844200E+01  4.297134E+02
       167  26 -2.313544E+05 -3.215582E+03 -3.729816E+03 -1.981246E+02 -3.580487E+02  2.787462E+02
       167  27 -2.271662E+05 -2.282784E+03 -3.013418E+03  2.156336E+03 -6.276559E+02  1.281829E+02
       168   1 -2.194413E+05 -2.118107E+02 -1.314095E+03  2.088197E+03  6.961757E+02 -3.831101E+01
       168   2 -2.234818E+05 -1.142368E+03 -3.020482E+03 -1.680821E+02  1.581543E+03  1.143929E+02
       168   3 -2.279128E+05 -3.132260E+03 -5.570426E+03  2.313586E+03  2.466914E+03  2.567979E+02
       168   4 -2.184638E+05  3.454367E+01 -1.061086E+03  2.177731E+03  7.489404E+02 -3.826417E+01
       168   5 -2.182689E+05  1.561803E+02 -1.741664E+03 -1.908841E+02  1.630855E+03  1.144361E+02
       168   6 -2.184639E+05 -7.809104E+02 -3.263392E+03  2.178446E+03  2.512779E+03  2.568373E+02
       168   7 -2.174862E+05  2.808980E+02 -8.080772E+02  2.267266E+03  8.017052E+02 -3.821732E+01
       168   8 -2.130560E+05  1.454726E+03 -4.628493E+02 -2.136862E+02  1.680167E+03  1.144793E+02
       168   9 -2.090150E+05  1.570433E+03 -9.563650E+02  2.043304E+03  2.558645E+03  2.568766E+02
       168  10 -2.194413E+05 -2.118108E+02 -1.314096E+03  2.088197E+03 -1.826554E-09  3.120684E-11
       168  11 -2.234818E+05 -1.142369E+03 -3.020486E+03 -1.680823E+02  8.531041E-10  1.013738E-09
       168  12 -2.279128E+05 -3.132262E+03 -5.570438E+03  2.313585E+03  1.236806E-09 -3.317901E-10
       168  13 -2.184638E+05  3.454352E+01 -1.061087E+03  2.177732E+03  4.791288E-10 -1.166009E-09
       168  14 -2.182689E+05  1.561795E+02 -1.741670E+03 -1.908842E+02  2.348174E-10  1.391053E-09
       168  15 -2.184639E+05 -7.809122E+02 -3.263404E+03  2.178445E+03  5.192945E-11  6.912806E-10
       168  16 -2.174862E+05  2.808978E+02 -8.080784E+02  2.267266E+03  2.145838E-09 -2.190139E-10
       168  17 -2.130560E+05  1.454726E+03 -4.628546E+02 -2.136864E+02 -2.584841E-10 -1.599822E-09
       168  18 -2.090150E+05  1.570431E+03 -9.563774E+02  2.043303E+03 -5.645437E-10 -1.465379E-10
       168  19 -2.194413E+05 -2.118107E+02 -1.314095E+03  2.088197E+03 -6.961757E+02  3.831101E+01
       168  20 -2.234818E+05 -1.142368E+03 -3.020482E+03 -1.680821E+02 -1.581543E+03 -1.143929E+02
       168  21 -2.279128E+05 -3.132260E+03 -5.570426E+03  2.313586E+03 -2.466914E+03 -2.567979E+02
       168  22 -2.184638E+05  3.454367E+01 -1.061086E+03  2.177731E+03 -7.489404E+02  3.826417E+01
       168  23 -2.182689E+05  1.561803E+02 -1.741664E+03 -1.908841E+02 -1.630855E+03 -1.144361E+02
       168  24 -2.184639E+05 -7.809104E+02 -3.263392E+03  2.178446E+03 -2.512779E+03 -2.568373E+02
       168  25 -2.174862E+05  2.808980E+02 -8.080772E+02  2.267266E+03 -8.017052E+02  3.821732E+01
       168  26 -2.130560E+05  1.454726E+03 -4.628493E+02 -2.136862E+02 -1.680167E+03 -1.144793E+02
       168  27 -2.090150E+05  1.570433E+03 -9.563650E+02  2.043304E+03 -2.558645E+03 -2.568766E+02
       169   1 -2.381128E+05 -4.519358E+03 -8.831793E+03  1.510897E+03  3.104066E+03  3.591482E+02
       169   2 -2.410674E+05 -4.636839E+03 -1.249238E+04  1.108192E+02  6.640004E+03  5.174702E+02
       169   3 -2.465421E+05 -1.295736E+04 -2.050820E+04  3.425477E+03  1.017594E+04  5.834734E+02
       169   4 -2.189360E+05  2.618639E+02 -4.114077E+03  2.171070E+03  3.171800E+03  3.592096E+02
       169   5 -2.176791E+05  1.188683E+03 -6.755898E+03 -1.836710E+02  6.676842E+03  5.174968E+02
       169   6 -2.189369E+05 -6.082018E+03 -1.373138E+04  2.176333E+03  1.018191E+04  5.834559E+02
       169   7 -1.997590E+05  5.043060E+03  6.036128E+02  2.831264E+03  3.239536E+03  3.592711E+02
       169   8 -1.942904E+05  7.014165E+03 -1.019459E+03 -4.781723E+02  6.713682E+03  5.175234E+02
       169   9 -1.913311E+05  7.932772E+02 -6.954616E+03  9.271332E+02  1.018788E+04  5.834384E+02
       169  10 -2.381128E+05 -4.519361E+03 -8.831812E+03  1.510896E+03 -4.071355E-10  1.317988E-09
       169  11 -2.410674E+05 -4.636851E+03 -1.249246E+04  1.108164E+02 -1.539326E-10  1.669258E-09
       169  12 -2.465422E+05 -1.295739E+04 -2.050839E+04  3.425473E+03  1.899779E-09  1.374248E-09
       169  13 -2.189361E+05  2.618611E+02 -4.114096E+03  2.171069E+03 -6.164917E-10  5.276331E-10
       169  14 -2.176792E+05  1.188671E+03 -6.755983E+03 -1.836737E+02 -1.389787E-09  1.843025E-09
       169  15 -2.189371E+05 -6.082047E+03 -1.373157E+04  2.176328E+03  1.852940E-09 -1.074926E-10
       169  16 -1.997590E+05  5.043057E+03  6.035928E+02  2.831263E+03  7.947520E-10  1.214076E-10
       169  17 -1.942904E+05  7.014153E+03 -1.019544E+03 -4.781751E+02 -1.307660E-10  2.484582E-10
       169  18 -1.913312E+05  7.932489E+02 -6.954812E+03  9.271284E+02 -2.940770E-10 -1.800555E-09
       169  19 -2.381128E+05 -4.519358E+03 -8.831793E+03  1.510897E+03 -3.104066E+03 -3.591482E+02
       169  20 -2.410674E+05 -4.636839E+03 -1.249238E+04  1.108192E+02 -6.640004E+03 -5.174702E+02
       169  21 -2.465421E+05 -1.295736E+04 -2.050820E+04  3.425477E+03 -1.017594E+04 -5.834734E+02
       169  22 -2.189360E+05  2.618639E+02 -4.114077E+03  2.171070E+03 -3.171800E+03 -3.592096E+02
       169  23 -2.176791E+05  1.188683E+03 -6.755898E+03 -1.836710E+02 -6.676842E+03 -5.174968E+02
       169  24 -2.189369E+05 -6.082018E+03 -1.373138E+04  2.176333E+03 -1.018191E+04 -5.834559E+02
       169  25 -1.997590E+05  5.043060E+03  6.036128E+02  2.831264E+03 -3.239536E+03 -3.592711E+02
       169  26 -1.942904E+05  7.014165E+03 -1.019459E+03 -4.781723E+02 -6.713682E+03 -5.175234E+02
       169  27 -1.913311E+05  7.932772E+02 -6.954616E+03  9.271332E+02 -1.018788E+04 -5.834384E+02
       170   1 -2.595175E+05 -7.260347E+03 -2.583224E+04 -2.676497E+03  1.266374E+04  7.963539E+02
       170   2 -2.548932E+05 -1.245043E+03 -3.612304E+04  2.616560E+03  2.706772E+04  9.965658E+02
       170   3 -2.678805E+05 -5.814624E+04 -7.152385E+04  1.257899E+04  4.147250E+04  3.711041E+02
       170   4 -2.222797E+05  2.026898E+03 -1.669026E+04  2.150670E+03  1.286630E+04  7.966129E+02
       170   5 -2.135010E+05  9.057608E+03 -2.598665E+04 -1.659289E+02  2.699367E+04  9.963822E+02
       170   6 -2.222846E+05 -4.677808E+04 -6.019969E+04  2.186861E+03  4.112193E+04  3.701487E+02
       170   7 -1.850407E+05  1.131413E+04 -7.548368E+03  6.978126E+03  1.306888E+04  7.968751E+02
       170   8 -1.721072E+05  1.936016E+04 -1.585039E+04 -2.948604E+03  2.691961E+04  9.961992E+02
       170   9 -1.766866E+05 -3.540967E+04 -4.887563E+04 -8.206030E+03  4.077133E+04  3.692050E+02
       170  10 -2.595177E+05 -7.260390E+03 -2.583254E+04 -2.676505E+03  5.309722E-10  1.114158E-10
       170  11 -2.548940E+05 -1.245240E+03 -3.612442E+04  2.616538E+03 -1.473021E-09 -5.094048E-10
       170  12 -2.678823E+05 -5.814670E+04 -7.152708E+04  1.257898E+04  2.588629E-10  1.208472E-10
       170  13 -2.222799E+05  2.026853E+03 -1.669057E+04  2.150662E+03  2.812033E-10  1.327415E-09
       170  14 -2.135018E+05  9.057411E+03 -2.598803E+04 -1.659506E+02 -1.773084E-10 -1.015606E-09
       170  15 -2.222864E+05 -4.677853E+04 -6.020287E+04  2.186849E+03 -1.932855E-09  1.159371E-09
       170  16 -1.850409E+05  1.131408E+04 -7.548690E+03  6.978118E+03  8.260513E-10  4.928133E-10
       170  17 -1.721080E+05  1.935996E+04 -1.585175E+04 -2.948625E+03  7.924964E-10 -1.577474E-11
       170  18 -1.766884E+05 -3.541012E+04 -4.887875E+04 -8.206042E+03  6.989853E-10  4.798786E-12
       170  19 -2.595175E+05 -7.260347E+03 -2.583224E+04 -2.676497E+03 -1.266374E+04 -7.963539E+02
       170  20 -2.548932E+05 -1.245043E+03 -3.612304E+04  2.616560E+03 -2.706772E+04 -9.965658E+02
       170  21 -2.678805E+05 -5.814624E+04 -7.152385E+04  1.257899E+04 -4.147250E+04 -3.711041E+02
       170  22 -2.222797E+05  2.026898E+03 -1.669026E+04  2.150670E+03 -1.286630E+04 -7.966129E+02
       170  23 -2.135010E+05  9.057608E+03 -2.598665E+04 -1.659289E+02 -2.699367E+04 -9.963822E+02
       170  24 -2.222846E+05 -4.677808E+04 -6.019969E+04  2.186861E+03 -4.112193E+04 -3.701487E+02
       170  25 -1.850407E+05  1.131413E+04 -7.548368E+03  6.978126E+03 -1.306888E+04 -7.968751E+02
       170  26 -1.721072E+05  1.936016E+04 -1.585039E+04 -2.948604E+03 -2.691961E+04 -9.961992E+02
       170  27 -1.766866E+05 -3.540967E+04 -4.887563E+04 -8.206030E+03 -4.077133E+04 -3.692050E+02
       171   1  8.383305E+04  4.706686E+05  8.965777E+04 -4.427909E+04  2.390142E+03  3.080326E+04
       171   2  3.913687E+04  4.185158E+05  5.576159E+04 -2.446469E+04  6.931862E+03  1.571903E+04
       171   3  2.682092E+04  3.764106E+05  3.977439E+04 -2.499143E+04  5.710625E+03  6.335740E+02
       171   4  3.168077E+04  2.609452E+05  3.859804E+04 -2.950201E+04  2.393399E+03  2.438676E+04
       171   5 -6.121261E+02  2.563571E+05  1.913986E+04 -1.933834E+04  6.932740E+03  1.428739E+04
       171   6 -1.384941E+03  2.609535E+05  1.413419E+04 -2.951544E+04  5.708922E+03  4.185654E+03
       171   7 -2.047390E+04  5.126254E+04 -1.246461E+04 -1.472993E+04  2.396351E+03  1.797242E+04
       171   8 -4.036283E+04  9.422286E+04 -1.748355E+04 -1.421334E+04  6.933596E+03  1.285612E+04
       171   9 -2.959162E+04  1.455088E+05 -1.150678E+04 -3.403860E+04  5.707167E+03  7.737080E+03
       171  10  8.383279E+04  4.706676E+05  8.965598E+04 -4.427915E+04 -1.391170E-09 -1.047673E-09
       171  11  3.913676E+04  4.185155E+05  5.576104E+04 -2.446477E+04  1.148221E-10 -1.578341E-09
       171  12  2.682089E+04  3.764106E+05  3.977433E+04 -2.499143E+04 -1.913652E-09  4.232722E-10
       171  13  3.168061E+04  2.609446E+05  3.859691E+04 -2.950206E+04 -2.248108E-09  3.075667E-10
       171  14 -6.122325E+02  2.563568E+05  1.913938E+04 -1.933842E+04 -2.532949E-09  4.847975E-10
       171  15 -1.384981E+03  2.609534E+05  1.413410E+04 -2.951546E+04 -1.136590E-09  4.944651E-10
       171  16 -2.047400E+04  5.126219E+04 -1.246523E+04 -1.472996E+04 -1.395413E-09  1.231682E-09
       171  17 -4.036293E+04  9.422266E+04 -1.748395E+04 -1.421341E+04  1.141876E-09  5.443838E-10
       171  18 -2.959167E+04  1.455087E+05 -1.150695E+04 -3.403863E+04 -1.537792E-09 -1.415859E-09
       171  19  8.383305E+04  4.706686E+05  8.965777E+04 -4.427909E+04 -2.390142E+03 -3.080326E+04
       171  20  3.913687E+04  4.185158E+05  5.576159E+04 -2.446469E+04 -6.931862E+03 -1.571903E+04
       171  21  2.682092E+04  3.764106E+05  3.977439E+04 -2.499143E+04 -5.710625E+03 -6.335740E+02
       171  22  3.168077E+04  2.609452E+05  3.859804E+04 -2.950201E+04 -2.393399E+03 -2.438676E+04
       171  23 -6.121261E+02  2.563571E+05  1.913986E+04 -1.933834E+04 -6.932740E+03 -1.428739E+04
       171  24 -1.384941E+03  2.609535E+05  1.413419E+04 -2.951544E+04 -5.708922E+03 -4.185654E+03
       171  25 -2.047390E+04  5.126254E+04 -1.246461E+04 -1.472993E+04 -2.396351E+03 -1.797242E+04
       171  26 -4.036283E+04  9.422286E+04 -1.748355E+04 -1.421334E+04 -6.933596E+03 -1.285612E+04
       171  27 -2.959162E+04  1.455088E+05 -1.150678E+04 -3.403860E+04 -5.707167E+03 -7.737080E+03
       172   1  2.016197E+04  3.350919E+05  3.027814E+04 -3.100368E+04  3.636446E+03  2.157275E+01
       172   2  6.752201E+03  2.868414E+05  2.011822E+04 -1.911413E+04  1.418153E+03 -6.960532E+03
       172   3 -5.135289E+02  2.410136E+05  1.603286E+04 -2.778236E+04 -8.641539E+02 -1.394227E+04
       172   4  1.664945E+03  2.594492E+05  1.341912E+04 -2.956012E+04  3.635495E+03  1.914190E+03
       172   5 -2.356380E+02  2.582439E+05  1.376675E+04 -1.928065E+04  1.417144E+03 -5.012267E+03
       172   6  3.998419E+03  2.594495E+05  2.015055E+04 -2.955890E+04 -8.651931E+02 -1.193887E+04
       172   7 -1.683246E+04  1.838119E+05 -3.440239E+03 -2.811674E+04  3.634552E+03  3.806580E+03
       172   8 -7.223530E+03  2.296471E+05  7.415246E+03 -1.944717E+04  1.416134E+03 -3.064090E+03
       172   9  8.510358E+03  2.778856E+05  2.426822E+04 -3.133549E+04 -8.662437E+02 -9.935409E+03
       172  10  2.016196E+04  3.350919E+05  3.027812E+04 -3.100368E+04  1.557726E-09  9.158432E-10
       172  11  6.752186E+03  2.868414E+05  2.011812E+04 -1.911412E+04  1.425880E-09 -1.135133E-09
       172  12 -5.135819E+02  2.410134E+05  1.603249E+04 -2.778237E+04 -8.789125E-10 -6.727172E-10
       172  13  1.664930E+03  2.594492E+05  1.341909E+04 -2.956013E+04 -5.467335E-10  5.420934E-10
       172  14 -2.356469E+02  2.582439E+05  1.376670E+04 -1.928065E+04 -2.277303E-09  4.248893E-10
       172  15  3.998380E+03  2.594493E+05  2.015028E+04 -2.955891E+04 -4.043728E-10  5.064785E-10
       172  16 -1.683248E+04  1.838119E+05 -3.440291E+03 -2.811675E+04  5.396716E-10 -6.514029E-10
       172  17 -7.223535E+03  2.296471E+05  7.415224E+03 -1.944717E+04 -1.594973E-09  3.881825E-11
       172  18  8.510331E+03  2.778855E+05  2.426804E+04 -3.133550E+04 -8.183755E-10 -2.221440E-10
       172  19  2.016197E+04  3.350919E+05  3.027814E+04 -3.100368E+04 -3.636446E+03 -2.157275E+01
       172  20  6.752201E+03  2.868414E+05  2.011822E+04 -1.911413E+04 -1.418153E+03  6.960532E+03
       172  21 -5.135289E+02  2.410136E+05  1.603286E+04 -2.778236E+04  8.641539E+02  1.394227E+04
       172  22  1.664945E+03  2.594492E+05  1.341912E+04 -2.956012E+04 -3.635495E+03 -1.914190E+03
       172  23 -2.356380E+02  2.582439E+05  1.376675E+04 -1.928065E+04 -1.417144E+03  5.012267E+03
       172  24  3.998419E+03  2.594495E+05  2.015055E+04 -2.955890E+04  8.651931E+02  1.193887E+04
       172  25 -1.683246E+04  1.838119E+05 -3.440239E+03 -2.811674E+04 -3.634552E+03 -3.806580E+03
       172  26 -7.223530E+03  2.296471E+05  7.415246E+03 -1.944717E+04 -1.416134E+03  3.064090E+03
       172  27  8.510358E+03  2.778856E+05  2.426822E+04 -3.133549E+04  8.662437E+02  9.935409E+03
       173   1 -1.762962E+04  2.050803E+05  1.110360E+04 -3.954745E+04 -2.803992E+03 -1.871083E+04
       173   2 -2.704948E+04  1.484789E+05  1.482208E+04 -8.384402E+03 -4.357563E+03 -3.544148E+04
       173   3  3.108623E+04  1.109312E+05  4.631791E+04  2.397695E+03 -1.593364E+03 -5.216851E+04
       173   4 -3.410565E+03  2.632909E+05  2.406670E+04 -2.952904E+04 -2.805984E+03 -1.549691E+04
       173   5 -1.294454E+03  2.534387E+05  3.859785E+04 -1.932265E+04 -4.356635E+03 -3.596289E+04
       173   6  6.901714E+04  2.632797E+05  8.349523E+04 -2.949557E+04 -1.588715E+03 -5.642656E+04
       173   7  1.080865E+04  3.215050E+05  3.702967E+04 -1.950967E+04 -2.807872E+03 -1.228268E+04
       173   8  2.446027E+04  3.584089E+05  6.237297E+04 -3.026277E+04 -4.355689E+03 -3.648439E+04
       173   9  1.069502E+05  4.156515E+05  1.206715E+05 -6.139667E+04 -1.583628E+03 -6.068565E+04
       173  10 -1.762973E+04  2.050799E+05  1.110292E+04 -3.954749E+04 -6.494213E-10  9.055621E-10
       173  11 -2.704984E+04  1.484775E+05  1.481968E+04 -8.384526E+03  1.660943E-09 -1.597099E-09
       173  12  3.108550E+04  1.109283E+05  4.631279E+04  2.397628E+03  8.199876E-10 -1.477781E-09
       173  13 -3.410638E+03  2.632907E+05  2.406623E+04 -2.952907E+04 -5.000399E-10  6.924657E-10
       173  14 -1.294821E+03  2.534373E+05  3.859538E+04 -1.932278E+04  2.225184E-10  4.485559E-10
       173  15  6.901628E+04  2.632762E+05  8.348924E+04 -2.949564E+04  3.069497E-10  4.926745E-10
       173  16  1.080860E+04  3.215048E+05  3.702938E+04 -1.950970E+04  4.341691E-10 -6.598187E-10
       173  17  2.445989E+04  3.584075E+05  6.237043E+04 -3.026290E+04  1.781148E-09  5.601346E-10
       173  18  1.069492E+05  4.156476E+05  1.206645E+05 -6.139675E+04 -1.104925E-10  7.048412E-10
       173  19 -1.762962E+04  2.050803E+05  1.110360E+04 -3.954745E+04  2.803992E+03  1.871083E+04
       173  20 -2.704948E+04  1.484789E+05  1.482208E+04 -8.384402E+03  4.357563E+03  3.544148E+04
       173  21  3.108623E+04  1.109312E+05  4.631791E+04  2.397695E+03  1.593364E+03  5.216851E+04
       173  22 -3.410565E+03  2.632909E+05  2.406670E+04 -2.952904E+04  2.805984E+03  1.549691E+04
       173  23 -1.294454E+03  2.534387E+05  3.859785E+04 -1.932265E+04  4.356635E+03  3.596289E+04
       173  24  6.901714E+04  2.632797E+05  8.349523E+04 -2.949557E+04  1.588715E+03  5.642656E+04
       173  25  1.080865E+04  3.215050E+05  3.702967E+04 -1.950967E+04  2.807872E+03  1.228268E+04
       173  26  2.446027E+04  3.584089E+05  6.237297E+04 -3.026277E+04  4.355689E+03  3.648439E+04
       173  27  1.069502E+05  4.156515E+05  1.206715E+05 -6.139667E+04  1.583628E+03  6.068565E+04
       174   1  1.631739E+04  5.713427E+03 -4.332905E+03 -4.635058E+03 -2.893430E+04 -1.819108E+03
       174   2  7.422720E+03  4.364536E+04  1.678349E+04 -8.395658E+02 -2.005135E+04 -5.414131E+03
       174   3 -1.370959E+04  3.723818E+04  2.103542E+04  1.306483E+04 -1.117182E+04 -5.012895E+03
       174   4 -1.560867E+05 -3.723851E+04 -4.678667E+04  7.859517E+03 -3.201925E+04 -1.822071E+03
       174   5 -1.497729E+05  4.739364E+03 -2.057733E+04  2.789381E+03 -2.093315E+04 -5.415086E+03
       174   6 -1.560830E+05  1.989183E+03 -1.276596E+04  7.828414E+03 -9.850201E+03 -5.011647E+03
       174   7 -3.284634E+05 -8.019206E+04 -8.924252E+04  2.035061E+04 -3.510334E+04 -1.825159E+03
       174   8 -3.069458E+05 -3.416837E+04 -5.793987E+04  6.417400E+03 -2.181473E+04 -5.416050E+03
       174   9 -2.984377E+05 -3.326117E+04 -4.656873E+04  2.593204E+03 -8.528887E+03 -5.010421E+03
       174  10  1.631649E+04  5.713199E+03 -4.334485E+03 -4.635100E+03 -1.798932E-09  5.117296E-10
       174  11  7.422281E+03  4.364523E+04  1.678268E+04 -8.396533E+02 -2.891621E-09  2.727016E-09
       174  12 -1.370973E+04  3.723812E+04  2.103513E+04  1.306478E+04 -1.358950E-09  1.513896E-09
       174  13 -1.560878E+05 -3.723879E+04 -4.678861E+04  7.859470E+03 -5.721322E-10 -9.273178E-10
       174  14 -1.497734E+05  4.739215E+03 -2.057821E+04  2.789290E+03 -1.889110E-09 -2.376686E-09
       174  15 -1.560831E+05  1.989130E+03 -1.276619E+04  7.828375E+03  7.872271E-10  1.715757E-11
       174  16 -3.284648E+05 -8.019239E+04 -8.924484E+04  2.035056E+04  2.037046E-09  3.396379E-10
       174  17 -3.069464E+05 -3.416853E+04 -5.794082E+04  6.417305E+03 -5.139344E-10  2.212397E-09
       174  18 -2.984378E+05 -3.326122E+04 -4.656892E+04  2.593170E+03  7.588368E-10  4.714982E-10
       174  19  1.631739E+04  5.713427E+03 -4.332905E+03 -4.635058E+03  2.893430E+04  1.819108E+03
       174  20  7.422720E+03  4.364536E+04  1.678349E+04 -8.395658E+02  2.005135E+04  5.414131E+03
       174  21 -1.370959E+04  3.723818E+04  2.103542E+04  1.306483E+04  1.117182E+04  5.012895E+03
       174  22 -1.560867E+05 -3.723851E+04 -4.678667E+04  7.859517E+03  3.201925E+04  1.822071E+03
       174  23 -1.497729E+05  4.739364E+03 -2.057733E+04  2.789381E+03  2.093315E+04  5.415086E+03
       174  24 -1.560830E+05  1.989183E+03 -1.276596E+04  7.828414E+03  9.850201E+03  5.011647E+03
       174  25 -3.284634E+05 -8.019206E+04 -8.924252E+04  2.035061E+04  3.510334E+04  1.825159E+03
       174  26 -3.069458E+05 -3.416837E+04 -5.793987E+04  6.417400E+03  2.181473E+04  5.416050E+03
       174  27 -2.984377E+05 -3.326117E+04 -4.656873E+04  2.593204E+03  8.528887E+03  5.010421E+03
       175   1 -2.955861E+04  2.708310E+04  1.915890E+04  6.868051E+03 -8.014671E+03 -4.091387E+03
       175   2 -4.387355E+04  2.747316E+04  2.058052E+04  2.554460E+03 -5.438594E+03 -3.732309E+03
       175   3 -5.963339E+04  2.348355E+04  1.922710E+04  8.488692E+03 -2.863003E+03 -3.104906E+03
       175   4 -1.536040E+05 -3.635205E+03 -1.038752E+04  7.871613E+03 -7.890862E+03 -4.091335E+03
       175   5 -1.528678E+05  4.902243E+02 -5.331543E+03  2.745710E+03 -5.167175E+03 -3.732075E+03
       175   6 -1.536029E+05  2.098542E+02 -3.153603E+03  7.867774E+03 -2.443914E+03 -3.104476E+03
       175   7 -2.776353E+05 -3.435462E+04 -3.993501E+04  8.874969E+03 -7.767078E+03 -4.091283E+03
       175   8 -2.618511E+05 -2.649357E+04 -3.124444E+04  2.936923E+03 -4.895803E+03 -3.731841E+03
       175   9 -2.475642E+05 -2.306448E+04 -2.553493E+04  7.246949E+03 -2.024888E+03 -3.104047E+03
       175  10 -2.955868E+04  2.708307E+04  1.915875E+04  6.868025E+03 -6.504687E-10 -1.015312E-09
       175  11 -4.387359E+04  2.747314E+04  2.058044E+04  2.554444E+03 -6.866733E-10 -1.593024E-10
       175  12 -5.963340E+04  2.348354E+04  1.922707E+04  8.488685E+03  2.571774E-09  2.240956E-09
       175  13 -1.536041E+05 -3.635239E+03 -1.038767E+04  7.871587E+03  1.475156E-09  3.412223E-09
       175  14 -1.528678E+05  4.902022E+02 -5.331620E+03  2.745694E+03 -2.035271E-10 -6.419196E-09
       175  15 -1.536029E+05  2.098423E+02 -3.153632E+03  7.867768E+03 -3.245247E-10  1.815866E-09
       175  16 -2.776353E+05 -3.435465E+04 -3.993516E+04  8.874944E+03  5.359222E-10 -1.701417E-09
       175  17 -2.618512E+05 -2.649359E+04 -3.124451E+04  2.936909E+03 -1.455487E-09 -1.545045E-09
       175  18 -2.475642E+05 -2.306449E+04 -2.553495E+04  7.246944E+03 -1.052383E-09 -6.072930E-10
       175  19 -2.955861E+04  2.708310E+04  1.915890E+04  6.868051E+03  8.014671E+03  4.091387E+03
       175  20 -4.387355E+04  2.747316E+04  2.058052E+04  2.554460E+03  5.438594E+03  3.732309E+03
       175  21 -5.963339E+04  2.348355E+04  1.922710E+04  8.488692E+03  2.863003E+03  3.104906E+03
       175  22 -1.536040E+05 -3.635205E+03 -1.038752E+04  7.871613E+03  7.890862E+03  4.091335E+03
       175  23 -1.528678E+05  4.902243E+02 -5.331543E+03  2.745710E+03  5.167175E+03  3.732075E+03
       175  24 -1.536029E+05  2.098542E+02 -3.153603E+03  7.867774E+03  2.443914E+03  3.104476E+03
       175  25 -2.776353E+05 -3.435462E+04 -3.993501E+04  8.874969E+03  7.767078E+03  4.091283E+03
       175  26 -2.618511E+05 -2.649357E+04 -3.124444E+04  2.936923E+03  4.895803E+03  3.731841E+03
       175  27 -2.475642E+05 -2.306448E+04 -2.553493E+04  7.246949E+03  2.024888E+03  3.104047E+03
       176   1 -7.773374E+04  1.837279E+04  1.547218E+04  7.871590E+03 -2.288189E+03 -2.694163E+03
       176   2 -9.270624E+04  1.503873E+04  1.303455E+04  2.782202E+03 -1.622666E+03 -2.069974E+03
       176   3 -1.078941E+05  1.129378E+04  1.005522E+04  7.980382E+03 -9.572450E+02 -1.427340E+03
       176   4 -1.533234E+05 -3.334194E+02 -2.460301E+03  7.878066E+03 -1.949025E+03 -2.693804E+03
       176   5 -1.532146E+05  5.820689E+01 -1.351351E+03  2.734040E+03 -1.273398E+03 -2.069586E+03
       176   6 -1.533229E+05  3.722842E+01 -7.911158E+02  7.877644E+03 -5.978576E+02 -1.426920E+03
       176   7 -2.289078E+05 -1.904004E+04 -2.039318E+04  7.884539E+03 -1.609903E+03 -2.693446E+03
       176   8 -2.137195E+05 -1.492258E+04 -1.573751E+04  2.685881E+03 -9.241645E+02 -2.069197E+03
       176   9 -1.987498E+05 -1.121948E+04 -1.163759E+04  7.774913E+03 -2.384963E+02 -1.426500E+03
       176  10 -7.773375E+04  1.837278E+04  1.547216E+04  7.871585E+03  5.128227E-11 -2.474671E-09
       176  11 -9.270624E+04  1.503873E+04  1.303454E+04  2.782200E+03 -2.160269E-09 -2.444351E-09
       176  12 -1.078941E+05  1.129378E+04  1.005521E+04  7.980381E+03 -6.394375E-10 -1.239730E-09
       176  13 -1.533234E+05 -3.334282E+02 -2.460322E+03  7.878061E+03  5.889031E-10 -1.514378E-09
       176  14 -1.532146E+05  5.820186E+01 -1.351362E+03  2.734038E+03 -1.557723E-09 -2.410784E-09
       176  15 -1.533229E+05  3.722614E+01 -7.911202E+02  7.877644E+03  5.480585E-10 -6.633808E-10
       176  16 -2.289078E+05 -1.904005E+04 -2.039320E+04  7.884536E+03 -9.163837E-10 -3.026555E-09
       176  17 -2.137195E+05 -1.492259E+04 -1.573752E+04  2.685880E+03 -1.544183E-09  7.384263E-10
       176  18 -1.987498E+05 -1.121948E+04 -1.163760E+04  7.774913E+03  3.198889E-10  3.294098E-09
       176  19 -7.773374E+04  1.837279E+04  1.547218E+04  7.871590E+03  2.288189E+03  2.694163E+03
       176  20 -9.270624E+04  1.503873E+04  1.303455E+04  2.782202E+03  1.622666E+03  2.069974E+03
       176  21 -1.078941E+05  1.129378E+04  1.005522E+04  7.980382E+03  9.572450E+02  1.427340E+03
       176  22 -1.533234E+05 -3.334194E+02 -2.460301E+03  7.878066E+03  1.949025E+03  2.693804E+03
       176  23 -1.532146E+05  5.820689E+01 -1.351351E+03  2.734040E+03  1.273398E+03  2.069586E+03
       176  24 -1.533229E+05  3.722842E+01 -7.911158E+02  7.877644E+03  5.978576E+02  1.426920E+03
       176  25 -2.289078E+05 -1.904004E+04 -2.039318E+04  7.884539E+03  1.609903E+03  2.693446E+03
       176  26 -2.137195E+05 -1.492258E+04 -1.573751E+04  2.685881E+03  9.241645E+02  2.069197E+03
       176  27 -1.987498E+05 -1.121948E+04 -1.163759E+04  7.774913E+03  2.384963E+02  1.426500E+03
       177   1 -1.262785E+05  6.664897E+03  5.764187E+03  7.907314E+03 -8.265927E+02 -1.050276E+03
       177   2 -1.413496E+05  2.961638E+03  2.470633E+03  2.745788E+03 -6.489824E+02 -4.077907E+02
       177   3 -1.564790E+05 -7.610275E+02 -9.500709E+02  7.885483E+03 -4.713929E+02  2.359059E+02
       177   4 -1.532874E+05 -1.297768E+01 -6.119867E+02  7.880826E+03 -4.724396E+02 -1.049855E+03
       177   5 -1.532579E+05  1.328377E+01 -3.606820E+02  2.730189E+03 -2.941723E+02 -4.073646E+02
       177   6 -1.532873E+05  2.003770E+01 -2.369783E+02  7.880786E+03 -1.159215E+02  2.363370E+02
       177   7 -1.802955E+05 -6.690905E+03 -6.988211E+03  7.854338E+03 -1.183019E+02 -1.049433E+03
       177   8 -1.651662E+05 -2.935081E+03 -3.192007E+03  2.714590E+03  6.063105E+01 -4.069385E+02
       177   9 -1.500955E+05  8.011023E+02  4.761142E+02  7.876088E+03  2.395518E+02  2.367681E+02
       177  10 -1.262785E+05  6.664896E+03  5.764184E+03  7.907314E+03  4.249176E-09 -1.563478E-09
       177  11 -1.413496E+05  2.961638E+03  2.470632E+03  2.745788E+03 -5.288533E-10  1.981985E-09
       177  12 -1.564790E+05 -7.610277E+02 -9.500714E+02  7.885484E+03 -6.877727E-09 -8.700831E-10
       177  13 -1.532874E+05 -1.297893E+01 -6.119892E+02  7.880826E+03  2.793242E-09  1.742148E-09
       177  14 -1.532579E+05  1.328357E+01 -3.606825E+02  2.730189E+03  3.350540E-09 -8.083713E-10
       177  15 -1.532873E+05  2.003763E+01 -2.369784E+02  7.880786E+03  6.979782E-10 -1.384803E-09
       177  16 -1.802955E+05 -6.690906E+03 -6.988213E+03  7.854338E+03 -5.133047E-09  1.669410E-09
       177  17 -1.651662E+05 -2.935081E+03 -3.192007E+03  2.714590E+03 -1.153463E-09  5.065273E-09
       177  18 -1.500955E+05  8.011022E+02  4.761140E+02  7.876088E+03  6.991401E-09  2.984621E-10
       177  19 -1.262785E+05  6.664897E+03  5.764187E+03  7.907314E+03  8.265927E+02  1.050276E+03
       177  20 -1.413496E+05  2.961638E+03  2.470633E+03  2.745788E+03  6.489824E+02  4.077907E+02
       177  21 -1.564790E+05 -7.610275E+02 -9.500709E+02  7.885483E+03  4.713929E+02 -2.359059E+02
       177  22 -1.532874E+05 -1.297768E+01 -6.119867E+02  7.880826E+03  4.724396E+02  1.049855E+03
       177  23 -1.532579E+05  1.328377E+01 -3.606820E+02  2.730189E+03  2.941723E+02  4.073646E+02
       177  24 -1.532873E+05  2.003770E+01 -2.369783E+02  7.880786E+03  1.159215E+02 -2.363370E+02
       177  25 -1.802955E+05 -6.690905E+03 -6.988211E+03  7.854338E+03  1.183019E+02  1.049433E+03
       177  26 -1.651662E+05 -2.935081E+03 -3.192007E+03  2.714590E+03 -6.063105E+01  4.069385E+02
       177  27 -1.500955E+05  8.011023E+02  4.761142E+02  7.876088E+03 -2.395518E+02 -2.367681E+02
       178   1 -1.749020E+05 -5.344510E+03 -5.390189E+03  7.860245E+03 -4.320362E+02  6.109369E+02
       178   2 -1.899752E+05 -9.080351E+03 -8.911561E+03  2.699274E+03 -3.412879E+02  1.254359E+03
       178   3 -2.050870E+05 -1.280905E+04 -1.249653E+04  7.835123E+03 -2.504946E+02  1.896157E+03
       178   4 -1.532830E+05  1.731955E+01 -2.041770E+02  7.879807E+03 -7.655800E+01  6.113653E+02
       178   5 -1.532636E+05  9.162277E+00 -1.828288E+02  2.731421E+03  1.329125E+01  1.254774E+03
       178   6 -1.532832E+05  8.262174E+00 -2.244950E+02  7.879817E+03  1.031878E+02  1.896559E+03
       178   7 -1.316635E+05  5.379115E+03  4.981802E+03  7.899369E+03  2.789325E+02  6.117938E+02
       178   8 -1.165508E+05  9.098579E+03  8.545810E+03  2.763569E+03  3.678913E+02  1.255189E+03
       178   9 -1.014770E+05  1.282538E+04  1.204735E+04  7.924514E+03  4.568994E+02  1.896962E+03
       178  10 -1.749020E+05 -5.344511E+03 -5.390190E+03  7.860246E+03 -5.237961E-09 -6.724061E-10
       178  11 -1.899752E+05 -9.080353E+03 -8.911565E+03  2.699274E+03 -5.357583E-10 -1.758703E-09
       178  12 -2.050870E+05 -1.280905E+04 -1.249654E+04  7.835123E+03  1.500780E-09  2.990885E-10
       178  13 -1.532830E+05  1.731915E+01 -2.041778E+02  7.879807E+03 -5.376928E-10  1.595621E-09
       178  14 -1.532636E+05  9.160586E+00 -1.828318E+02  2.731421E+03 -9.717641E-13 -4.570157E-09
       178  15 -1.532832E+05  8.258309E+00 -2.245018E+02  7.879817E+03  6.539073E-10 -3.594602E-09
       178  16 -1.316635E+05  5.379115E+03  4.981801E+03  7.899369E+03  6.336788E-09 -2.139310E-10
       178  17 -1.165508E+05  9.098577E+03  8.545807E+03  2.763569E+03 -8.161702E-10 -5.407087E-09
       178  18 -1.014770E+05  1.282538E+04  1.204735E+04  7.924514E+03 -6.126484E-10 -2.666243E-09
       178  19 -1.749020E+05 -5.344510E+03 -5.390189E+03  7.860245E+03  4.320362E+02 -6.109369E+02
       178  20 -1.899752E+05 -9.080351E+03 -8.911561E+03  2.699274E+03  3.412879E+02 -1.254359E+03
       178  21 -2.050870E+05 -1.280905E+04 -1.249653E+04  7.835123E+03  2.504946E+02 -1.896157E+03
       178  22 -1.532830E+05  1.731955E+01 -2.041770E+02  7.879807E+03  7.655800E+01 -6.113653E+02
       178  23 -1.532636E+05  9.162277E+00 -1.828288E+02  2.731421E+03 -1.329125E+01 -1.254774E+03
       178  24 -1.532832E+05  8.262174E+00 -2.244950E+02  7.879817E+03 -1.031878E+02 -1.896559E+03
       178  25 -1.316635E+05  5.379115E+03  4.981802E+03  7.899369E+03 -2.789325E+02 -6.117938E+02
       178  26 -1.165508E+05  9.098579E+03  8.545810E+03  2.763569E+03 -3.678913E+02 -1.255189E+03
       178  27 -1.014770E+05  1.282538E+04  1.204735E+04  7.924514E+03 -4.568994E+02 -1.896962E+03
       179   1 -2.234968E+05 -1.736839E+04 -1.700442E+04  7.795691E+03 -2.127369E+02  2.273113E+03
       179   2 -2.385164E+05 -2.109047E+04 -2.069110E+04  2.670218E+03  7.277706E+00  2.914366E+03
       179   3 -2.536130E+05 -2.492115E+04 -2.455293E+04  7.816015E+03  2.274203E+02  3.534539E+03
       179   4 -1.532918E+05  2.332213E+01 -2.664108E+02  7.874084E+03  1.468217E+02  2.273509E+03
       179   5 -1.532546E+05  2.031520E+01 -4.182592E+02  2.738552E+03  3.552283E+02  2.914721E+03
       179   6 -1.532924E+05 -8.917546E+01 -7.370990E+02  7.874205E+03  5.637679E+02  3.534855E+03
       179   7 -8.308239E+04  1.741467E+04  1.647125E+04  7.952484E+03  5.064208E+02  2.273906E+03
       179   8 -6.798621E+04  2.113058E+04  1.985408E+04  2.806894E+03  7.032264E+02  2.915077E+03
       179   9 -5.296256E+04  2.474207E+04  2.307803E+04  7.932401E+03  9.001696E+02  3.535172E+03
       179  10 -2.234968E+05 -1.736839E+04 -1.700443E+04  7.795692E+03 -7.931985E-09  1.577120E-09
       179  11 -2.385164E+05 -2.109048E+04 -2.069112E+04  2.670218E+03 -1.934845E-09 -7.195669E-10
       179  12 -2.536130E+05 -2.492116E+04 -2.455295E+04  7.816015E+03  3.262902E-09 -7.371363E-10
       179  13 -1.532918E+05  2.331658E+01 -2.664205E+02  7.874083E+03  1.682806E-09 -3.261403E-09
       179  14 -1.532546E+05  2.030605E+01 -4.182754E+02  2.738551E+03 -1.620449E-09  1.154999E-09
       179  15 -1.532924E+05 -8.918896E+01 -7.371231E+02  7.874203E+03 -1.289045E-09  2.169510E-09
       179  16 -8.308240E+04  1.741467E+04  1.647124E+04  7.952483E+03  7.418215E-09  2.331832E-09
       179  17 -6.798621E+04  2.113057E+04  1.985406E+04  2.806893E+03  4.555384E-10  1.265314E-11
       179  18 -5.296256E+04  2.474206E+04  2.307800E+04  7.932398E+03 -6.172425E-09  2.648513E-09
       179  19 -2.234968E+05 -1.736839E+04 -1.700442E+04  7.795691E+03  2.127369E+02 -2.273113E+03
       179  20 -2.385164E+05 -2.109047E+04 -2.069110E+04  2.670218E+03 -7.277706E+00 -2.914366E+03
       179  21 -2.536130E+05 -2.492115E+04 -2.455293E+04  7.816015E+03 -2.274203E+02 -3.534539E+03
       179  22 -1.532918E+05  2.332213E+01 -2.664108E+02  7.874084E+03 -1.468217E+02 -2.273509E+03
       179  23 -1.532546E+05  2.031520E+01 -4.182592E+02  2.738552E+03 -3.552283E+02 -2.914721E+03
       179  24 -1.532924E+05 -8.917546E+01 -7.370990E+02  7.874205E+03 -5.637679E+02 -3.534855E+03
       179  25 -8.308239E+04  1.741467E+04  1.647125E+04  7.952484E+03 -5.064208E+02 -2.273906E+03
       179  26 -6.798621E+04  2.113058E+04  1.985408E+04  2.806894E+03 -7.032264E+02 -2.915077E+03
       179  27 -5.296256E+04  2.474207E+04  2.307803E+04  7.932401E+03 -9.001696E+02 -3.535172E+03
       180   1 -2.720366E+05 -2.931795E+04 -2.919264E+04  7.611366E+03  2.842436E+02  3.949002E+03
       180   2 -2.868038E+05 -3.294633E+04 -3.335743E+04  2.739494E+03  1.258266E+03  4.571249E+03
       180   3 -3.020338E+05 -3.789022E+04 -3.848714E+04  8.090018E+03  2.232691E+03  4.889073E+03
       180   4 -1.533732E+05  7.180798E+01 -9.385435E+02  7.862932E+03  7.111505E+02  3.949387E+03
       180   5 -1.531568E+05  1.452583E+02 -1.579642E+03  2.752314E+03  1.517348E+03  4.571428E+03
       180   6 -1.533742E+05 -1.067470E+03 -3.068930E+03  7.863961E+03  2.323972E+03  4.889074E+03
       180   7 -3.469685E+04  2.946055E+04  2.731456E+04  8.114543E+03  1.138139E+03  3.949773E+03
       180   8 -1.949341E+04  3.323556E+04  3.019690E+04  2.765132E+03  1.776485E+03  4.571606E+03
       180   9 -4.694257E+03  3.575368E+04  3.234773E+04  7.637846E+03  2.415273E+03  4.889074E+03
       180  10 -2.720366E+05 -2.931796E+04 -2.919267E+04  7.611365E+03  1.960101E-09  9.783989E-11
       180  11 -2.868038E+05 -3.294635E+04 -3.335747E+04  2.739489E+03  1.601182E-09  2.224081E-09
       180  12 -3.020338E+05 -3.789024E+04 -3.848720E+04  8.090010E+03  6.483083E-09 -1.434864E-09
       180  13 -1.533732E+05  7.179109E+01 -9.385737E+02  7.862930E+03 -2.572503E-09 -2.469070E-09
       180  14 -1.531568E+05  1.452352E+02 -1.579686E+03  2.752308E+03  3.712084E-10  2.046757E-09
       180  15 -1.533742E+05 -1.067497E+03 -3.068985E+03  7.863952E+03  5.552692E-11  1.131096E-09
       180  16 -3.469686E+04  2.946053E+04  2.731453E+04  8.114540E+03 -1.274145E-09 -1.447601E-09
       180  17 -1.949342E+04  3.323553E+04  3.019685E+04  2.765126E+03 -3.729314E-09 -3.929113E-09
       180  18 -4.694270E+03  3.575365E+04  3.234768E+04  7.637836E+03 -5.616928E-09  9.557510E-10
       180  19 -2.720366E+05 -2.931795E+04 -2.919264E+04  7.611366E+03 -2.842436E+02 -3.949002E+03
       180  20 -2.868038E+05 -3.294633E+04 -3.335743E+04  2.739494E+03 -1.258266E+03 -4.571249E+03
       180  21 -3.020338E+05 -3.789022E+04 -3.848714E+04  8.090018E+03 -2.232691E+03 -4.889073E+03
       180  22 -1.533732E+05  7.180798E+01 -9.385435E+02  7.862932E+03 -7.111505E+02 -3.949387E+03
       180  23 -1.531568E+05  1.452583E+02 -1.579642E+03  2.752314E+03 -1.517348E+03 -4.571428E+03
       180  24 -1.533742E+05 -1.067470E+03 -3.068930E+03  7.863961E+03 -2.323972E+03 -4.889074E+03
       180  25 -3.469685E+04  2.946055E+04  2.731456E+04  8.114543E+03 -1.138139E+03 -3.949773E+03
       180  26 -1.949341E+04  3.323556E+04  3.019690E+04  2.765132E+03 -1.776485E+03 -4.571606E+03
       180  27 -4.694257E+03  3.575368E+04  3.234773E+04  7.637846E+03 -2.415273E+03 -4.889074E+03
       181   1 -3.210479E+05 -4.073522E+04 -4.340528E+04  6.202084E+03  1.452101E+03  5.879706E+03
       181   2 -3.339317E+05 -4.358723E+04 -4.926902E+04  3.805129E+03  7.226029E+03  6.243876E+03
       181   3 -3.509605E+05 -6.006174E+04 -6.229623E+04  1.145246E+04  1.300263E+04  2.073926E+03
       181   4 -1.541036E+05  5.929104E+02 -3.769712E+03  7.821267E+03  2.901940E+03  5.880798E+03
       181   5 -1.522496E+05  1.395639E+03 -6.078116E+03  2.802996E+03  6.174971E+03  6.242984E+03
       181   6 -1.541056E+05 -1.098773E+04 -1.381160E+04  7.828947E+03  9.450869E+03  2.071591E+03
       181   7  1.286633E+04  4.191904E+04  3.586392E+04  9.440882E+03  4.352167E+03  5.881896E+03
       181   8  2.946273E+04  4.637614E+04  3.711048E+04  1.800563E+03  5.123606E+03  6.242097E+03
       181   9  4.278461E+04  3.808344E+04  3.467023E+04  4.204279E+03  5.897984E+03  2.069297E+03
       181  10 -3.210479E+05 -4.073526E+04 -4.340535E+04  6.202078E+03 -1.974347E-09 -1.775900E-09
       181  11 -3.339317E+05 -4.358729E+04 -4.926919E+04  3.805093E+03 -3.159909E-09 -3.434205E-09
       181  12 -3.509607E+05 -6.006179E+04 -6.229656E+04  1.145244E+04  2.232152E-09  1.383201E-09
       181  13 -1.541036E+05  5.928710E+02 -3.769793E+03  7.821253E+03 -6.338837E-10  6.419211E-10
       181  14 -1.522497E+05  1.395587E+03 -6.078261E+03  2.802965E+03  1.078969E-09  3.212050E-10
       181  15 -1.541057E+05 -1.098776E+04 -1.381177E+04  7.828931E+03 -5.686880E-10  9.174592E-10
       181  16  1.286630E+04  4.191900E+04  3.586382E+04  9.440862E+03  2.185405E-09  1.477255E-09
       181  17  2.946269E+04  4.637609E+04  3.711036E+04  1.800537E+03  3.099993E-10  1.780932E-09
       181  18  4.278457E+04  3.808343E+04  3.467016E+04  4.204269E+03 -1.390379E-09 -5.340413E-10
       181  19 -3.210479E+05 -4.073522E+04 -4.340528E+04  6.202084E+03 -1.452101E+03 -5.879706E+03
       181  20 -3.339317E+05 -4.358723E+04 -4.926902E+04  3.805129E+03 -7.226029E+03 -6.243876E+03
       181  21 -3.509605E+05 -6.006174E+04 -6.229623E+04  1.145246E+04 -1.300263E+04 -2.073926E+03
       181  22 -1.541036E+05  5.929104E+02 -3.769712E+03  7.821267E+03 -2.901940E+03 -5.880798E+03
       181  23 -1.522496E+05  1.395639E+03 -6.078116E+03  2.802996E+03 -6.174971E+03 -6.242984E+03
       181  24 -1.541056E+05 -1.098773E+04 -1.381160E+04  7.828947E+03 -9.450869E+03 -2.071591E+03
       181  25  1.286633E+04  4.191904E+04  3.586392E+04  9.440882E+03 -4.352167E+03 -5.881896E+03
       181  26  2.946273E+04  4.637614E+04  3.711048E+04  1.800563E+03 -5.123606E+03 -6.242097E+03
       181  27  4.278461E+04  3.808344E+04  3.467023E+04  4.204279E+03 -5.897984E+03 -2.069297E+03
       182   1 -1.327139E+05 -4.875738E+05 -1.306524E+05  1.105595E+05 -5.355028E+03 -3.892414E+04
       182   2 -8.779205E+04 -3.729631E+05 -8.139370E+04  9.039574E+04 -1.600478E+04 -1.655804E+04
       182   3 -5.771038E+04 -2.649035E+05 -5.040779E+04  9.845597E+04 -1.451571E+04  5.821073E+03
       182   4 -1.769412E+04 -2.359994E+04 -1.974401E+04  9.999020E+04 -5.367045E+03 -1.448357E+04
       182   5 -3.039598E+03 -2.184937E+04 -8.854856E+03  8.588251E+04 -1.600708E+04 -9.873607E+03
       182   6 -1.360533E+02 -2.357477E+04 -3.898662E+03  9.999908E+04 -1.451099E+04 -5.255165E+03
       182   7  9.731078E+04  4.405729E+05  9.115154E+04  8.941301E+04 -5.379891E+03  9.975202E+03
       182   8  8.170515E+04  3.293815E+05  6.367750E+04  8.136669E+04 -1.600948E+04 -3.185459E+03
       182   9  5.743489E+04  2.178102E+05  4.260823E+04  1.015428E+05 -1.450633E+04 -1.633561E+04
       182  10 -1.327143E+05 -4.875754E+05 -1.306553E+05  1.105593E+05 -1.806346E-10  2.747841E-08
       182  11 -8.779240E+04 -3.729635E+05 -8.139470E+04  9.039552E+04  1.736194E-10 -2.337190E-10
       182  12 -5.771062E+04 -2.649035E+05 -5.040825E+04  9.845604E+04 -1.849103E-09 -3.137995E-08
       182  13 -1.769421E+04 -2.360017E+04 -1.974446E+04  9.999014E+04  1.148632E-10  1.512284E-09
       182  14 -3.039899E+03 -2.184954E+04 -8.855521E+03  8.588238E+04 -3.252361E-09 -9.384962E-10
       182  15 -1.362868E+02 -2.357486E+04 -3.899110E+03  9.999902E+04  1.632453E-09  1.403194E-09
       182  16  9.731072E+04  4.405728E+05  9.115130E+04  8.941305E+04 -1.467559E-10 -2.851266E-08
       182  17  8.170487E+04  3.293814E+05  6.367700E+04  8.136665E+04 -3.053629E-10  9.287555E-10
       182  18  5.743459E+04  2.178099E+05  4.260733E+04  1.015426E+05  1.252379E-10  3.178256E-08
       182  19 -1.327139E+05 -4.875738E+05 -1.306524E+05  1.105595E+05  5.355028E+03  3.892414E+04
       182  20 -8.779205E+04 -3.729631E+05 -8.139370E+04  9.039574E+04  1.600478E+04  1.655804E+04
       182  21 -5.771038E+04 -2.649035E+05 -5.040779E+04  9.845597E+04  1.451571E+04 -5.821073E+03
       182  22 -1.769412E+04 -2.359994E+04 -1.974401E+04  9.999020E+04  5.367045E+03  1.448357E+04
       182  23 -3.039598E+03 -2.184937E+04 -8.854856E+03  8.588251E+04  1.600708E+04  9.873607E+03
       182  24 -1.360533E+02 -2.357477E+04 -3.898662E+03  9.999908E+04  1.451099E+04  5.255165E+03
       182  25  9.731078E+04  4.405729E+05  9.115154E+04  8.941301E+04  5.379891E+03 -9.975202E+03
       182  26  8.170515E+04  3.293815E+05  6.367750E+04  8.136669E+04  1.600948E+04  3.185459E+03
       182  27  5.743489E+04  2.178102E+05  4.260823E+04  1.015428E+05  1.450633E+04  1.633561E+04
       183   1 -4.036383E+04 -1.885582E+05 -3.410326E+04  1.002171E+05 -9.996473E+03  4.263828E+03
       183   2 -1.297104E+04 -7.736001E+04 -8.955765E+03  8.581897E+04 -3.676419E+03  3.966606E+03
       183   3  1.462339E+04  3.397949E+04  1.644425E+04  1.003415E+05  2.837355E+03  3.669129E+03
       183   4 -8.134113E+02 -2.275652E+04 -2.173984E+03  1.001519E+05 -9.992995E+03 -4.845617E+03
       183   5 -4.167834E+01 -2.284405E+04  1.171335E+03  8.569196E+04 -3.673031E+03 -5.426940E+03
       183   6  9.817964E+02 -2.275252E+04  4.967013E+03  1.001526E+05  2.840614E+03 -6.008469E+03
       183   7  3.873542E+04  1.430718E+05  2.975433E+04  1.000867E+05 -9.989515E+03 -1.395744E+04
       183   8  1.288756E+04  3.167497E+04  1.129864E+04  8.556494E+04 -3.669639E+03 -1.482129E+04
       183   9 -1.265994E+04 -7.948127E+04 -6.510039E+03  9.996358E+04  2.843879E+03 -1.568520E+04
       183  10 -4.036394E+04 -1.885583E+05 -3.410348E+04  1.002171E+05  9.298294E-12  4.209437E-11
       183  11 -1.297106E+04 -7.736004E+04 -8.955820E+03  8.581898E+04  1.180050E-09 -8.251924E-11
       183  12  1.462338E+04  3.397947E+04  1.644421E+04  1.003415E+05  8.493559E-10 -3.034003E-09
       183  13 -8.135249E+02 -2.275657E+04 -2.174216E+03  1.001519E+05 -1.005510E-09  2.210330E-09
       183  14 -4.170073E+01 -2.284409E+04  1.171254E+03  8.569195E+04  1.519468E-09 -4.308641E-10
       183  15  9.817781E+02 -2.275256E+04  4.966930E+03  1.001526E+05  1.213124E-09  1.110833E-10
       183  16  3.873526E+04  1.430716E+05  2.975378E+04  1.000866E+05  6.921217E-11  3.271875E-10
       183  17  1.288749E+04  3.167473E+04  1.129820E+04  8.556490E+04 -4.352942E-10  3.020887E-10
       183  18 -1.266002E+04 -7.948154E+04 -6.510517E+03  9.996362E+04  3.019614E-10  2.943256E-09
       183  19 -4.036383E+04 -1.885582E+05 -3.410326E+04  1.002171E+05  9.996473E+03 -4.263828E+03
       183  20 -1.297104E+04 -7.736001E+04 -8.955765E+03  8.581897E+04  3.676419E+03 -3.966606E+03
       183  21  1.462339E+04  3.397949E+04  1.644425E+04  1.003415E+05 -2.837355E+03 -3.669129E+03
       183  22 -8.134113E+02 -2.275652E+04 -2.173984E+03  1.001519E+05  9.992995E+03  4.845617E+03
       183  23 -4.167834E+01 -2.284405E+04  1.171335E+03  8.569196E+04  3.673031E+03  5.426940E+03
       183  24  9.817964E+02 -2.275252E+04  4.967013E+03  1.001526E+05 -2.840614E+03  6.008469E+03
       183  25  3.873542E+04  1.430718E+05  2.975433E+04  1.000867E+05  9.989515E+03  1.395744E+04
       183  26  1.288756E+04  3.167497E+04  1.129864E+04  8.556494E+04  3.669639E+03  1.482129E+04
       183  27 -1.265994E+04 -7.948127E+04 -6.510039E+03  9.996358E+04 -2.843879E+03  1.568520E+04
       184   1  3.160627E+04  1.105971E+05  3.316692E+04  9.758205E+04  7.387336E+03  4.274447E+03
       184   2  6.298438E+04  2.180077E+05  6.487475E+04  9.251722E+04  1.028214E+04 -1.691793E+04
       184   3  1.147302E+05  3.333276E+05  1.154779E+05  1.158628E+05  3.709867E+03 -3.811972E+04
       184   4 -2.840499E+01 -2.157369E+04  7.168107E+03  1.000365E+05  7.391345E+03 -6.882865E+03
       184   5  4.373152E+03 -2.433039E+04  1.409328E+04  8.583782E+04  1.028153E+04 -1.420996E+04
       184   6  2.674117E+04 -2.159061E+04  3.029015E+04  1.000487E+05  3.703565E+03 -2.154271E+04
       184   7 -3.166405E+04 -1.537274E+05 -1.883109E+04  1.024903E+05  7.395267E+03 -1.803785E+04
       184   8 -5.424167E+04 -2.666129E+05 -3.669140E+04  7.916108E+04  1.028086E+04 -1.150302E+04
       184   9 -6.125590E+04 -3.763924E+05 -5.490537E+04  8.424378E+04  3.696418E+03 -4.975121E+03
       184  10  3.160621E+04  1.105970E+05  3.316678E+04  9.758203E+04 -3.092978E-10 -1.199761E-09
       184  11  6.298419E+04  2.180074E+05  6.487401E+04  9.251736E+04 -1.281517E-09  5.850854E-10
       184  12  1.147298E+05  3.333261E+05  1.154751E+05  1.158629E+05 -1.840529E-09 -9.068955E-10
       184  13 -2.847638E+01 -2.157375E+04  7.167915E+03  1.000365E+05  1.465632E-09  1.906934E-09
       184  14  4.372984E+03 -2.433063E+04  1.409271E+04  8.583794E+04 -3.062061E-10 -1.482360E-09
       184  15  2.674103E+04 -2.159111E+04  3.028925E+04  1.000488E+05 -6.024703E-10  1.259417E-10
       184  16 -3.166420E+04 -1.537278E+05 -1.883180E+04  1.024904E+05  1.305496E-09  6.551517E-10
       184  17 -5.424181E+04 -2.666131E+05 -3.669184E+04  7.916117E+04  2.338982E-09  5.893588E-10
       184  18 -6.125592E+04 -3.763924E+05 -5.490544E+04  8.424379E+04  1.409422E-09  5.670315E-10
       184  19  3.160627E+04  1.105971E+05  3.316692E+04  9.758205E+04 -7.387336E+03 -4.274447E+03
       184  20  6.298438E+04  2.180077E+05  6.487475E+04  9.251722E+04 -1.028214E+04  1.691793E+04
       184  21  1.147302E+05  3.333276E+05  1.154779E+05  1.158628E+05 -3.709867E+03  3.811972E+04
       184  22 -2.840499E+01 -2.157369E+04  7.168107E+03  1.000365E+05 -7.391345E+03  6.882865E+03
       184  23  4.373152E+03 -2.433039E+04  1.409328E+04  8.583782E+04 -1.028153E+04  1.420996E+04
       184  24  2.674117E+04 -2.159061E+04  3.029015E+04  1.000487E+05 -3.703565E+03  2.154271E+04
       184  25 -3.166405E+04 -1.537274E+05 -1.883109E+04  1.024903E+05 -7.395267E+03  1.803785E+04
       184  26 -5.424167E+04 -2.666129E+05 -3.669140E+04  7.916108E+04 -1.028086E+04  1.150302E+04
       184  27 -6.125590E+04 -3.763924E+05 -5.490537E+04  8.424378E+04 -3.696418E+03  4.975121E+03
       185   1  3.667895E+05  1.317653E+05  7.840820E+04  1.340877E+05  3.278527E+04  1.009587E+04
       185   2  3.555811E+05  8.692758E+04  4.904005E+04  1.314959E+05  2.120723E+04  9.649119E+02
       185   3  3.548304E+05  7.714106E+04  3.814828E+04  1.245996E+05  8.162756E+03 -4.263092E+03
       185   4  2.397780E+05  6.933726E+04  4.175228E+04  8.436613E+04  2.739893E+04  8.070387E+03
       185   5  2.326219E+05  3.609785E+04  1.813029E+04  9.255343E+04  1.924480E+04  2.269197E+02
       185   6  2.352477E+05  3.723521E+04  1.027545E+04  9.643572E+04  9.623791E+03 -3.713857E+03
       185   7  1.127848E+05  6.914868E+03  5.095556E+03  3.465564E+04  2.201388E+04  6.045712E+03
       185   8  1.096782E+05 -1.472961E+04 -1.278051E+04  5.361849E+04  1.728280E+04 -5.108706E+02
       185   9  1.156783E+05 -2.670581E+03 -1.759858E+04  6.827629E+04  1.108453E+04 -3.164705E+03
       185  10  3.667883E+05  1.317649E+05  7.840599E+04  1.340875E+05 -6.754505E-11 -5.100504E-10
       185  11  3.555807E+05  8.692745E+04  4.903921E+04  1.314959E+05  4.785387E-09  3.099284E-09
       185  12  3.548303E+05  7.714102E+04  3.814812E+04  1.245996E+05  2.711866E-09 -1.446396E-10
       185  13  2.397772E+05  6.933699E+04  4.175074E+04  8.436595E+04  8.128439E-10  4.346616E-10
       185  14  2.326215E+05  3.609775E+04  1.812959E+04  9.255343E+04  5.407697E-10  5.529757E-10
       185  15  2.352476E+05  3.723517E+04  1.027525E+04  9.643575E+04 -4.890773E-10  2.021916E-09
       185  16  1.127842E+05  6.914698E+03  5.094577E+03  3.465553E+04  1.416294E-09 -3.001015E-10
       185  17  1.096778E+05 -1.472969E+04 -1.278107E+04  5.361850E+04 -9.819903E-10 -1.403500E-10
       185  18  1.156782E+05 -2.670625E+03 -1.759882E+04  6.827632E+04 -3.107343E-09 -1.617947E-09
       185  19  3.667895E+05  1.317653E+05  7.840820E+04  1.340877E+05 -3.278527E+04 -1.009587E+04
       185  20  3.555811E+05  8.692758E+04  4.904005E+04  1.314959E+05 -2.120723E+04 -9.649119E+02
       185  21  3.548304E+05  7.714106E+04  3.814828E+04  1.245996E+05 -8.162756E+03  4.263092E+03
       185  22  2.397780E+05  6.933726E+04  4.175228E+04  8.436613E+04 -2.739893E+04 -8.070387E+03
       185  23  2.326219E+05  3.609785E+04  1.813029E+04  9.255343E+04 -1.924480E+04 -2.269197E+02
       185  24  2.352477E+05  3.723521E+04  1.027545E+04  9.643572E+04 -9.623791E+03  3.713857E+03
       185  25  1.127848E+05  6.914868E+03  5.095556E+03  3.465564E+04 -2.201388E+04 -6.045712E+03
       185  26  1.096782E+05 -1.472961E+04 -1.278051E+04  5.361849E+04 -1.728280E+04  5.108706E+02
       185  27  1.156783E+05 -2.670581E+03 -1.759858E+04  6.827629E+04 -1.108453E+04  3.164705E+03
       186   1  3.407557E+05  8.074237E+04  3.402733E+04  1.245857E+05  7.745482E+03 -3.575183E+03
       186   2  3.315652E+05  7.289574E+04  2.743471E+04  1.199466E+05  5.310391E+03 -4.011283E+03
       186   3  3.200828E+05  7.029754E+04  2.305662E+04  1.186790E+05  2.810072E+03 -4.273942E+03
       186   4  2.339098E+05  4.032587E+04  8.136228E+03  9.454377E+04  8.037078E+03 -3.465643E+03
       186   5  2.349394E+05  3.678373E+04  4.184961E+03  9.320902E+04  5.754414E+03 -3.844393E+03
       186   6  2.336470E+05  3.846002E+04  2.327763E+03  9.524581E+04  3.406481E+03 -4.049707E+03
       186   7  1.270752E+05 -8.972937E+01 -1.775571E+04  6.450654E+04  8.328621E+03 -3.356124E+03
       186   8  1.383232E+05  6.725066E+02 -1.906540E+04  6.647534E+04  6.198361E+03 -3.677532E+03
       186   9  1.472190E+05  6.623149E+03 -1.840152E+04  7.181567E+04  4.002797E+03 -3.825507E+03
       186  10  3.407556E+05  8.074234E+04  3.402719E+04  1.245858E+05  2.030274E-10  2.608625E-10
       186  11  3.315652E+05  7.289571E+04  2.743463E+04  1.199466E+05  4.998695E-09  1.704942E-09
       186  12  3.200828E+05  7.029752E+04  2.305657E+04  1.186790E+05  4.819124E-09  3.610943E-09
       186  13  2.339097E+05  4.032584E+04  8.136084E+03  9.454379E+04  9.302737E-11 -1.057707E-09
       186  14  2.349394E+05  3.678371E+04  4.184871E+03  9.320904E+04  6.574489E-09  5.681697E-09
       186  15  2.336470E+05  3.846000E+04  2.327710E+03  9.524582E+04  2.931407E-09  2.461139E-09
       186  16  1.270752E+05 -8.976009E+01 -1.775586E+04  6.450656E+04  1.728476E-09 -8.922436E-10
       186  17  1.383231E+05  6.724818E+02 -1.906550E+04  6.647535E+04  3.105753E-09 -1.998746E-10
       186  18  1.472190E+05  6.623129E+03 -1.840157E+04  7.181568E+04  5.032031E-09  4.337699E-09
       186  19  3.407557E+05  8.074237E+04  3.402733E+04  1.245857E+05 -7.745482E+03  3.575183E+03
       186  20  3.315652E+05  7.289574E+04  2.743471E+04  1.199466E+05 -5.310391E+03  4.011283E+03
       186  21  3.200828E+05  7.029754E+04  2.305662E+04  1.186790E+05 -2.810072E+03  4.273942E+03
       186  22  2.339098E+05  4.032587E+04  8.136228E+03  9.454377E+04 -8.037078E+03  3.465643E+03
       186  23  2.349394E+05  3.678373E+04  4.184961E+03  9.320902E+04 -5.754414E+03  3.844393E+03
       186  24  2.336470E+05  3.846002E+04  2.327763E+03  9.524581E+04 -3.406481E+03  4.049707E+03
       186  25  1.270752E+05 -8.972937E+01 -1.775571E+04  6.450654E+04 -8.328621E+03  3.356124E+03
       186  26  1.383232E+05  6.725066E+02 -1.906540E+04  6.647534E+04 -6.198361E+03  3.677532E+03
       186  27  1.472190E+05  6.623149E+03 -1.840152E+04  7.181567E+04 -4.002797E+03  3.825507E+03
       187   1  3.109214E+05  6.740637E+04  2.032082E+04  1.163944E+05  2.389477E+03 -3.992122E+03
       187   2  3.020006E+05  6.173161E+04  1.702292E+04  1.116296E+05  1.664192E+03 -3.553032E+03
       187   3  2.898853E+05  5.948403E+04  1.412140E+04  1.106277E+05  9.361668E+02 -3.106829E+03
       187   4  2.335338E+05  3.863005E+04  1.772108E+03  9.511932E+04  2.933053E+03 -3.787736E+03
       187   5  2.351250E+05  3.686888E+04  9.686033E+02  9.325603E+04  2.214074E+03 -3.346245E+03
       187   6  2.335205E+05  3.853372E+04  5.565831E+02  9.515572E+04  1.492347E+03 -2.897644E+03
       187   7  1.561516E+05  9.854010E+03 -1.677715E+04  7.384655E+04  3.476558E+03 -3.583376E+03
       187   8  1.682536E+05  1.200639E+04 -1.508609E+04  7.488422E+04  2.763893E+03 -3.139481E+03
       187   9  1.771589E+05  1.758363E+04 -1.300847E+04  7.968496E+04  2.048473E+03 -2.688479E+03
       187  10  3.109214E+05  6.740635E+04  2.032078E+04  1.163944E+05  7.296063E-09  2.884286E-09
       187  11  3.020006E+05  6.173160E+04  1.702289E+04  1.116296E+05  1.634320E-09 -2.040807E-09
       187  12  2.898853E+05  5.948402E+04  1.412138E+04  1.106278E+05 -3.783451E-09 -6.562556E-10
       187  13  2.335337E+05  3.863004E+04  1.772065E+03  9.511933E+04  2.544173E-09  1.572395E-09
       187  14  2.351250E+05  3.686887E+04  9.685731E+02  9.325604E+04 -6.141685E-10 -3.274783E-09
       187  15  2.335205E+05  3.853371E+04  5.565631E+02  9.515572E+04 -3.092374E-09 -1.326388E-09
       187  16  1.561516E+05  9.853993E+03 -1.677719E+04  7.384656E+04 -5.316257E-09  7.808272E-10
       187  17  1.682535E+05  1.200638E+04 -1.508612E+04  7.488423E+04 -3.950525E-09  1.694712E-09
       187  18  1.771589E+05  1.758362E+04 -1.300849E+04  7.968496E+04  2.946863E-09  8.400471E-10
       187  19  3.109214E+05  6.740637E+04  2.032082E+04  1.163944E+05 -2.389477E+03  3.992122E+03
       187  20  3.020006E+05  6.173161E+04  1.702292E+04  1.116296E+05 -1.664192E+03  3.553032E+03
       187  21  2.898853E+05  5.948403E+04  1.412140E+04  1.106277E+05 -9.361668E+02  3.106829E+03
       187  22  2.335338E+05  3.863005E+04  1.772108E+03  9.511932E+04 -2.933053E+03  3.787736E+03
       187  23  2.351250E+05  3.686888E+04  9.686033E+02  9.325603E+04 -2.214074E+03  3.346245E+03
       187  24  2.335205E+05  3.853372E+04  5.565831E+02  9.515572E+04 -1.492347E+03  2.897644E+03
       187  25  1.561516E+05  9.854010E+03 -1.677715E+04  7.384655E+04 -3.476558E+03  3.583376E+03
       187  26  1.682536E+05  1.200639E+04 -1.508609E+04  7.488422E+04 -2.763893E+03  3.139481E+03
       187  27  1.771589E+05  1.758363E+04 -1.300847E+04  7.968496E+04 -2.048473E+03  2.688479E+03
       188   1  2.810724E+05  5.622246E+04  1.181860E+04  1.082207E+05  7.181920E+02 -2.768066E+03
       188   2  2.722113E+05  5.067373E+04  9.190993E+03  1.034540E+05  3.354790E+02 -2.191419E+03
       188   3  2.600762E+05  4.843140E+04  6.673397E+03  1.024533E+05 -4.725259E+01 -1.614794E+03
       188   4  2.335078E+05  3.853959E+04  4.362022E+02  9.514429E+04  1.271662E+03 -2.559887E+03
       188   5  2.351449E+05  3.688506E+04  2.916599E+02  9.326181E+04  8.889402E+02 -1.983229E+03
       188   6  2.335078E+05  3.853696E+04  2.571421E+02  9.514543E+04  5.061960E+02 -1.406592E+03
       188   7  1.859458E+05  2.085698E+04 -1.094629E+04  8.206884E+04  1.825083E+03 -2.351727E+03
       188   8  1.980798E+05  2.309649E+04 -8.607772E+03  8.307022E+04  1.442366E+03 -1.775053E+03
       188   9  2.069400E+05  2.864252E+04 -6.159201E+03  8.783782E+04  1.059622E+03 -1.198398E+03
       188  10  2.810724E+05  5.622245E+04  1.181858E+04  1.082207E+05 -2.874135E-09 -8.888901E-10
       188  11  2.722113E+05  5.067372E+04  9.190983E+03  1.034540E+05  2.115186E-09  6.046386E-10
       188  12  2.600762E+05  4.843140E+04  6.673393E+03  1.024533E+05  1.802281E-09 -1.673498E-09
       188  13  2.335078E+05  3.853959E+04  4.361869E+02  9.514429E+04 -3.702984E-09  6.623361E-10
       188  14  2.351449E+05  3.688506E+04  2.916510E+02  9.326181E+04  2.075870E-09  1.400140E-09
       188  15  2.335078E+05  3.853696E+04  2.571379E+02  9.514543E+04 -1.226089E-09 -7.023086E-09
       188  16  1.859458E+05  2.085698E+04 -1.094631E+04  8.206884E+04  6.165915E-10  8.251305E-10
       188  17  1.980798E+05  2.309649E+04 -8.607782E+03  8.307022E+04  3.883872E-09  1.087486E-09
       188  18  2.069400E+05  2.864252E+04 -6.159206E+03  8.783782E+04  3.701434E-09  2.014234E-09
       188  19  2.810724E+05  5.622246E+04  1.181860E+04  1.082207E+05 -7.181920E+02  2.768066E+03
       188  20  2.722113E+05  5.067373E+04  9.190993E+03  1.034540E+05 -3.354790E+02  2.191419E+03
       188  21  2.600762E+05  4.843140E+04  6.673397E+03  1.024533E+05  4.725259E+01  1.614794E+03
       188  22  2.335078E+05  3.853959E+04  4.362022E+02  9.514429E+04 -1.271662E+03  2.559887E+03
       188  23  2.351449E+05  3.688506E+04  2.916599E+02  9.326181E+04 -8.889402E+02  1.983229E+03
       188  24  2.335078E+05  3.853696E+04  2.571421E+02  9.514543E+04 -5.061960E+02  1.406592E+03
       188  25  1.859458E+05  2.085698E+04 -1.094629E+04  8.206884E+04 -1.825083E+03  2.351727E+03
       188  26  1.980798E+05  2.309649E+04 -8.607772E+03  8.307022E+04 -1.442366E+03  1.775053E+03
       188  27  2.069400E+05  2.864252E+04 -6.159201E+03  8.783782E+04 -1.059622E+03  1.198398E+03
       189   1  2.513051E+05  4.515657E+04  4.510553E+03  1.000476E+05 -2.293780E+02 -1.264000E+03
       189   2  2.424497E+05  3.961576E+04  2.140345E+03  9.528474E+04 -6.576221E+02 -7.049477E+02
       189   3  2.303307E+05  3.738239E+04 -8.500819E+01  9.428513E+04 -1.085755E+03 -1.461624E+02
       189   4  2.335101E+05  3.853640E+04  2.735969E+02  9.514508E+04  3.238368E+02 -1.055879E+03
       189   5  2.351422E+05  3.688500E+04  3.837285E+02  9.326265E+04 -1.046504E+02 -4.969159E+02
       189   6  2.335108E+05  3.854104E+04  6.388930E+02  9.514335E+04 -5.330296E+02  6.177877E+01
       189   7  2.157154E+05  3.191625E+04 -3.963380E+03  9.024273E+04  8.770342E+02 -8.477651E+02
       189   8  2.278349E+05  3.415424E+04 -1.372885E+03  9.124059E+04  4.483127E+02 -2.888875E+02
       189   9  2.366908E+05  3.969969E+04  1.362790E+03  9.600158E+04  1.969630E+01  2.697200E+02
       189  10  2.513051E+05  4.515657E+04  4.510550E+03  1.000476E+05  4.142240E-09 -6.846954E-10
       189  11  2.424497E+05  3.961576E+04  2.140343E+03  9.528474E+04 -5.208428E-09  2.134688E-09
       189  12  2.303307E+05  3.738239E+04 -8.501045E+01  9.428513E+04 -1.065770E-08 -1.768184E-09
       189  13  2.335101E+05  3.853640E+04  2.735946E+02  9.514508E+04 -2.014114E-09 -5.089540E-09
       189  14  2.351422E+05  3.688500E+04  3.837281E+02  9.326265E+04 -6.938362E-09 -7.600539E-09
       189  15  2.335108E+05  3.854104E+04  6.388924E+02  9.514335E+04 -3.859363E-09 -1.398001E-09
       189  16  2.157154E+05  3.191625E+04 -3.963383E+03  9.024273E+04 -4.662197E-09 -3.869394E-09
       189  17  2.278349E+05  3.415424E+04 -1.372886E+03  9.124059E+04 -3.060639E-09 -4.872353E-09
       189  18  2.366908E+05  3.969969E+04  1.362790E+03  9.600158E+04  4.497187E-09 -4.891498E-09
       189  19  2.513051E+05  4.515657E+04  4.510553E+03  1.000476E+05  2.293780E+02  1.264000E+03
       189  20  2.424497E+05  3.961576E+04  2.140345E+03  9.528474E+04  6.576221E+02  7.049477E+02
       189  21  2.303307E+05  3.738239E+04 -8.500819E+01  9.428513E+04  1.085755E+03  1.461624E+02
       189  22  2.335101E+05  3.853640E+04  2.735969E+02  9.514508E+04 -3.238368E+02  1.055879E+03
       189  23  2.351422E+05  3.688500E+04  3.837285E+02  9.326265E+04  1.046504E+02  4.969159E+02
       189  24  2.335108E+05  3.854104E+04  6.388930E+02  9.514335E+04  5.330296E+02 -6.177877E+01
       189  25  2.157154E+05  3.191625E+04 -3.963380E+03  9.024273E+04 -8.770342E+02  8.477651E+02
       189  26  2.278349E+05  3.415424E+04 -1.372885E+03  9.124059E+04 -4.483127E+02  2.888875E+02
       189  27  2.366908E+05  3.969969E+04  1.362790E+03  9.600158E+04 -1.969630E+01 -2.697200E+02
       190   1  2.215617E+05  3.411663E+04 -2.067707E+03  9.191720E+04 -1.347479E+03  1.751004E+02
       190   2  2.126622E+05  2.854431E+04 -3.897356E+03  8.711678E+04 -2.323796E+03  5.267381E+02
       190   3  2.006322E+05  2.645440E+04 -5.129499E+03  8.606269E+04 -3.298154E+03  8.732347E+02
       190   4  2.335334E+05  3.852991E+04  8.350710E+02  9.515850E+04 -7.931122E+02  3.836569E+02
       190   5  2.351087E+05  3.686377E+04  1.487328E+03  9.325684E+04 -1.773969E+03  7.335787E+02
       190   6  2.335545E+05  3.868102E+04  2.740729E+03  9.510153E+04 -2.752876E+03  1.078355E+03
       190   7  2.455053E+05  4.294323E+04  3.737857E+03  9.839987E+04 -2.387314E+02  5.922187E+02
       190   8  2.575558E+05  4.518329E+04  6.871992E+03  9.939711E+04 -1.224118E+03  9.404281E+02
       190   9  2.664779E+05  5.090771E+04  1.061088E+04  1.041408E+05 -2.207567E+03  1.283487E+03
       190  10  2.215617E+05  3.411663E+04 -2.067711E+03  9.191720E+04  2.732700E-09  1.223620E-10
       190  11  2.126622E+05  2.854431E+04 -3.897366E+03  8.711679E+04 -2.311202E-09  4.488356E-09
       190  12  2.006322E+05  2.645440E+04 -5.129521E+03  8.606270E+04 -9.111747E-09 -4.483014E-09
       190  13  2.335334E+05  3.852991E+04  8.350695E+02  9.515850E+04 -5.811237E-10 -1.528521E-09
       190  14  2.351087E+05  3.686377E+04  1.487321E+03  9.325684E+04  4.931690E-10 -3.672839E-10
       190  15  2.335545E+05  3.868102E+04  2.740712E+03  9.510153E+04 -3.791512E-09 -3.568911E-09
       190  16  2.455053E+05  4.294322E+04  3.737856E+03  9.839987E+04 -5.915552E-09 -4.434238E-09
       190  17  2.575558E+05  4.518329E+04  6.871988E+03  9.939711E+04  1.940327E-09  4.352145E-09
       190  18  2.664779E+05  5.090771E+04  1.061087E+04  1.041408E+05  2.069670E-09  4.525757E-09
       190  19  2.215617E+05  3.411663E+04 -2.067707E+03  9.191720E+04  1.347479E+03 -1.751004E+02
       190  20  2.126622E+05  2.854431E+04 -3.897356E+03  8.711678E+04  2.323796E+03 -5.267381E+02
       190  21  2.006322E+05  2.645440E+04 -5.129499E+03  8.606269E+04  3.298154E+03 -8.732347E+02
       190  22  2.335334E+05  3.852991E+04  8.350710E+02  9.515850E+04  7.931122E+02 -3.836569E+02
       190  23  2.351087E+05  3.686377E+04  1.487328E+03  9.325684E+04  1.773969E+03 -7.335787E+02
       190  24  2.335545E+05  3.868102E+04  2.740729E+03  9.510153E+04  2.752876E+03 -1.078355E+03
       190  25  2.455053E+05  4.294323E+04  3.737857E+03  9.839987E+04  2.387314E+02 -5.922187E+02
       190  26  2.575558E+05  4.518329E+04  6.871992E+03  9.939711E+04  1.224118E+03 -9.404281E+02
       190  27  2.664779E+05  5.090771E+04  1.061088E+04  1.041408E+05  2.207567E+03 -1.283487E+03
       191   1  1.916750E+05  2.326739E+04 -6.439429E+03  8.425358E+04 -3.984982E+03  1.047297E+03
       191   2  1.828191E+05  1.713232E+04 -6.056692E+03  7.862527E+04 -7.402355E+03  4.510901E+02
       191   3  1.721756E+05  1.723550E+04 -2.509130E+03  7.612837E+04 -1.077497E+04 -2.638318E+02
       191   4  2.337325E+05  3.841614E+04  3.604999E+03  9.529645E+04 -3.403710E+03  1.265950E+03
       191   5  2.348204E+05  3.673505E+04  6.489355E+03  9.318579E+04 -6.925453E+03  6.304541E+02
       191   6  2.341411E+05  4.131260E+04  1.262098E+04  9.420641E+04 -1.040251E+04 -1.237870E+02
       191   7  2.757915E+05  5.356491E+04  1.364924E+04  1.063399E+05 -2.822397E+03  1.484618E+03
       191   8  2.868243E+05  5.633799E+04  1.903520E+04  1.077474E+05 -6.448507E+03  8.098349E+02
       191   9  2.961108E+05  6.539019E+04  2.775088E+04  1.122862E+05 -1.003001E+04  1.627521E+01
       191  10  1.916750E+05  2.326739E+04 -6.439461E+03  8.425358E+04  7.181819E-09  4.023341E-09
       191  11  1.828190E+05  1.713231E+04 -6.056796E+03  7.862528E+04  1.749574E-09  1.339841E-09
       191  12  1.721755E+05  1.723547E+04 -2.509348E+03  7.612837E+04 -9.260909E-09 -4.056549E-09
       191  13  2.337325E+05  3.841614E+04  3.604975E+03  9.529645E+04 -6.916099E-09 -5.686726E-09
       191  14  2.348203E+05  3.673504E+04  6.489264E+03  9.318579E+04 -1.837880E-09 -4.068562E-09
       191  15  2.341410E+05  4.131257E+04  1.262078E+04  9.420641E+04 -2.807988E-09 -5.660469E-10
       191  16  2.757915E+05  5.356490E+04  1.364922E+04  1.063399E+05 -1.263479E-08 -5.383325E-09
       191  17  2.868243E+05  5.633797E+04  1.903512E+04  1.077474E+05 -2.448366E-09 -3.969352E-10
       191  18  2.961107E+05  6.539016E+04  2.775070E+04  1.122862E+05  3.775703E-09  2.292075E-09
       191  19  1.916750E+05  2.326739E+04 -6.439429E+03  8.425358E+04  3.984982E+03 -1.047297E+03
       191  20  1.828191E+05  1.713232E+04 -6.056692E+03  7.862527E+04  7.402355E+03 -4.510901E+02
       191  21  1.721756E+05  1.723550E+04 -2.509130E+03  7.612837E+04  1.077497E+04  2.638318E+02
       191  22  2.337325E+05  3.841614E+04  3.604999E+03  9.529645E+04  3.403710E+03 -1.265950E+03
       191  23  2.348204E+05  3.673505E+04  6.489355E+03  9.318579E+04  6.925453E+03 -6.304541E+02
       191  24  2.341411E+05  4.131260E+04  1.262098E+04  9.420641E+04  1.040251E+04  1.237870E+02
       191  25  2.757915E+05  5.356491E+04  1.364924E+04  1.063399E+05  2.822397E+03 -1.484618E+03
       191  26  2.868243E+05  5.633799E+04  1.903520E+04  1.077474E+05  6.448507E+03 -8.098349E+02
       191  27  2.961108E+05  6.539019E+04  2.775088E+04  1.122862E+05  1.003001E+04 -1.627521E+01
       192   1  1.594755E+05  1.508536E+04 -1.227494E+03  8.338177E+04 -1.383768E+04 -7.069563E+02
       192   2  1.550037E+05 -5.551811E+02  8.106828E+03  6.316985E+04 -2.658913E+04 -5.497958E+03
       192   3  1.669933E+05  3.492406E+04  4.004895E+04  3.427672E+04 -3.833715E+04 -1.295652E+04
       192   4  2.361956E+05  3.653922E+04  1.594019E+04  9.716460E+04 -1.266582E+04 -2.660600E+02
       192   5  2.312528E+05  3.564822E+04  2.812797E+04  9.214023E+04 -2.775806E+04 -5.938017E+03
       192   6  2.432316E+05  8.633533E+04  6.477558E+04  7.843561E+04 -4.184685E+04 -1.427806E+04
       192   7  3.129217E+05  5.799306E+04  3.310760E+04  1.109488E+05 -1.149380E+04  1.748633E+02
       192   8  3.075073E+05  7.185287E+04  4.814845E+04  1.211140E+05 -2.892715E+04 -6.378168E+03
       192   9  3.194755E+05  1.377511E+05  8.950135E+04  1.225998E+05 -4.535696E+04 -1.560008E+04
       192  10  1.594753E+05  1.508531E+04 -1.227855E+03  8.338176E+04  4.887967E-09  2.342933E-09
       192  11  1.550029E+05 -5.554032E+02  8.105443E+03  6.316974E+04  4.750807E-09  2.096920E-10
       192  12  1.669916E+05  3.492348E+04  4.004587E+04  3.427632E+04 -2.081419E-09 -2.892151E-09
       192  13  2.361954E+05  3.653918E+04  1.593989E+04  9.716460E+04 -4.527795E-09 -2.981219E-09
       192  14  2.312520E+05  3.564798E+04  2.812645E+04  9.214010E+04 -3.013088E-10  1.411040E-09
       192  15  2.432297E+05  8.633464E+04  6.477191E+04  7.843513E+04  1.652802E-09 -2.206637E-09
       192  16  3.129216E+05  5.799303E+04  3.310735E+04  1.109488E+05 -1.002254E-08 -4.072193E-09
       192  17  3.075063E+05  7.185261E+04  4.814681E+04  1.211138E+05 -3.967008E-09  2.924552E-10
       192  18  3.194732E+05  1.377502E+05  8.949703E+04  1.225993E+05  1.063168E-09  9.091685E-12
       192  19  1.594755E+05  1.508536E+04 -1.227494E+03  8.338177E+04  1.383768E+04  7.069563E+02
       192  20  1.550037E+05 -5.551811E+02  8.106828E+03  6.316985E+04  2.658913E+04  5.497958E+03
       192  21  1.669933E+05  3.492406E+04  4.004895E+04  3.427672E+04  3.833715E+04  1.295652E+04
       192  22  2.361956E+05  3.653922E+04  1.594019E+04  9.716460E+04  1.266582E+04  2.660600E+02
       192  23  2.312528E+05  3.564822E+04  2.812797E+04  9.214023E+04  2.775806E+04  5.938017E+03
       192  24  2.432316E+05  8.633533E+04  6.477558E+04  7.843561E+04  4.184685E+04  1.427806E+04
       192  25  3.129217E+05  5.799306E+04  3.310760E+04  1.109488E+05  1.149380E+04 -1.748633E+02
       192  26  3.075073E+05  7.185287E+04  4.814845E+04  1.211140E+05  2.892715E+04  6.378168E+03
       192  27  3.194755E+05  1.377511E+05  8.950135E+04  1.225998E+05  4.535696E+04  1.560008E+04
       193   1 -3.707342E+04 -2.488586E+05 -3.819579E+04  3.927900E+04 -1.040609E+03 -8.004600E+03
       193   2 -1.466532E+04 -1.882621E+05 -1.822244E+04  2.349921E+04 -2.293796E+03 -2.776122E+03
       193   3 -1.035176E+02 -1.302655E+05 -3.608807E+03  3.500816E+04  7.723002E+01  2.454878E+03
       193   4 -7.145765E+03 -1.287469E+05 -8.715381E+03  3.604409E+04 -1.041822E+03 -5.506727E+03
       193   5  2.352797E+02 -1.277006E+05 -4.298329E+03  2.240163E+04 -2.293549E+03 -3.234366E+03
       193   6  2.838984E+02 -1.287444E+05 -3.187128E+03  3.604798E+04  7.881298E+01 -9.600259E+02
       193   7  2.278086E+04 -8.621907E+03  2.076400E+04  3.280855E+04 -1.043062E+03 -3.008372E+03
       193   8  1.513563E+04 -6.713566E+04  9.625544E+03  2.130394E+04 -2.293300E+03 -3.692653E+03
       193   9  6.713246E+02 -1.272233E+05 -2.765405E+03  3.708780E+04  8.038450E+01 -4.374938E+03
       193  10 -3.707344E+04 -2.488587E+05 -3.819591E+04  3.927899E+04  2.274493E-09  8.340322E-09
       193  11 -1.466533E+04 -1.882622E+05 -1.822247E+04  2.349920E+04 -4.514912E-10 -1.153443E-09
       193  12 -1.035192E+02 -1.302655E+05 -3.608818E+03  3.500816E+04 -1.632029E-09 -1.143663E-08
       193  13 -7.145775E+03 -1.287469E+05 -8.715440E+03  3.604409E+04 -6.730055E-10  2.278113E-11
       193  14  2.352712E+02 -1.277006E+05 -4.298358E+03  2.240162E+04  4.797820E-10 -1.826293E-09
       193  15  2.838982E+02 -1.287444E+05 -3.187130E+03  3.604798E+04 -2.002757E-09  2.004431E-10
       193  16  2.278086E+04 -8.621917E+03  2.076398E+04  3.280855E+04  1.179970E-10 -9.651549E-09
       193  17  1.513562E+04 -6.713568E+04  9.625508E+03  2.130393E+04 -1.994075E-09  2.290483E-09
       193  18  6.713194E+02 -1.272233E+05 -2.765441E+03  3.708780E+04 -1.735162E-09  1.144177E-08
       193  19 -3.707342E+04 -2.488586E+05 -3.819579E+04  3.927900E+04  1.040609E+03  8.004600E+03
       193  20 -1.466532E+04 -1.882621E+05 -1.822244E+04  2.349921E+04  2.293796E+03  2.776122E+03
       193  21 -1.035176E+02 -1.302655E+05 -3.608807E+03  3.500816E+04 -7.723002E+01 -2.454878E+03
       193  22 -7.145765E+03 -1.287469E+05 -8.715381E+03  3.604409E+04  1.041822E+03  5.506727E+03
       193  23  2.352797E+02 -1.277006E+05 -4.298329E+03  2.240163E+04  2.293549E+03  3.234366E+03
       193  24  2.838984E+02 -1.287444E+05 -3.187128E+03  3.604798E+04 -7.881298E+01  9.600259E+02
       193  25  2.278086E+04 -8.621907E+03  2.076400E+04  3.280855E+04  1.043062E+03  3.008372E+03
       193  26  1.513563E+04 -6.713566E+04  9.625544E+03  2.130394E+04  2.293300E+03  3.692653E+03
       193  27  6.713246E+02 -1.272233E+05 -2.765405E+03  3.708780E+04 -8.038450E+01  4.374938E+03
       194   1  1.192583E+04 -7.797678E+04  8.344274E+03  3.639328E+04  2.329255E+03  1.994063E+03
       194   2  2.692198E+04 -1.845742E+04  2.158121E+04  2.227876E+04  5.193164E+03  3.344407E+03
       194   3  4.041433E+04  4.055837E+04  3.357248E+04  3.557950E+04  7.807890E+03  4.695180E+03
       194   4 -4.337026E+02 -1.284011E+05 -3.025262E+03  3.607509E+04  2.330408E+03 -4.449143E+02
       194   5  5.313743E+01 -1.281319E+05 -3.079794E+03  2.236713E+04  5.194392E+03  1.108452E+03
       194   6 -9.990137E+02 -1.284048E+05 -4.521006E+03  3.607478E+04  7.809162E+03  2.662123E+03
       194   7 -1.279341E+04 -1.788231E+05 -1.439494E+04  3.575693E+04  2.331563E+03 -2.883696E+03
       194   8 -2.681653E+04 -2.377951E+05 -2.774154E+04  2.245550E+04  5.195618E+03 -1.127112E+03
       194   9 -4.241432E+04 -2.973415E+05 -4.261631E+04  3.656994E+04  7.810430E+03  6.296131E+02
       194  10  1.192583E+04 -7.797679E+04  8.344256E+03  3.639328E+04 -5.268304E-10 -7.823084E-11
       194  11  2.692195E+04 -1.845744E+04  2.158114E+04  2.227874E+04  1.752116E-09 -1.724676E-09
       194  12  4.041426E+04  4.055833E+04  3.357233E+04  3.557947E+04 -2.920246E-09 -3.407434E-09
       194  13 -4.337084E+02 -1.284011E+05 -3.025272E+03  3.607509E+04 -4.467216E-10 -2.351002E-12
       194  14  5.310813E+01 -1.281319E+05 -3.079847E+03  2.236713E+04  1.932133E-09  1.193044E-09
       194  15 -9.990811E+02 -1.284049E+05 -4.521134E+03  3.607477E+04  1.195633E-09 -6.616598E-10
       194  16 -1.279342E+04 -1.788231E+05 -1.439496E+04  3.575693E+04 -1.537454E-09 -1.643779E-09
       194  17 -2.681656E+04 -2.377951E+05 -2.774160E+04  2.245550E+04  1.509908E-09  5.942590E-10
       194  18 -4.241438E+04 -2.973415E+05 -4.261642E+04  3.656993E+04 -1.425771E-10  3.852760E-09
       194  19  1.192583E+04 -7.797678E+04  8.344274E+03  3.639328E+04 -2.329255E+03 -1.994063E+03
       194  20  2.692198E+04 -1.845742E+04  2.158121E+04  2.227876E+04 -5.193164E+03 -3.344407E+03
       194  21  4.041433E+04  4.055837E+04  3.357248E+04  3.557950E+04 -7.807890E+03 -4.695180E+03
       194  22 -4.337026E+02 -1.284011E+05 -3.025262E+03  3.607509E+04 -2.330408E+03  4.449143E+02
       194  23  5.313743E+01 -1.281319E+05 -3.079794E+03  2.236713E+04 -5.194392E+03 -1.108452E+03
       194  24 -9.990137E+02 -1.284048E+05 -4.521006E+03  3.607478E+04 -7.809162E+03 -2.662123E+03
       194  25 -1.279341E+04 -1.788231E+05 -1.439494E+04  3.575693E+04 -2.331563E+03  2.883696E+03
       194  26 -2.681653E+04 -2.377951E+05 -2.774154E+04  2.245550E+04 -5.195618E+03  1.127112E+03
       194  27 -4.241432E+04 -2.973415E+05 -4.261631E+04  3.656994E+04 -7.810430E+03 -6.296131E+02
       195   1  5.485341E+04  9.172856E+04  4.423808E+04  3.813974E+04  1.059489E+04  8.203755E+03
       195   2  6.915533E+04  1.525937E+05  5.504651E+04  2.003563E+04  1.184775E+04  5.328689E+03
       195   3  6.913188E+04  2.103405E+05  6.416295E+04  2.896375E+04  3.994362E+03  2.446141E+03
       195   4  7.328271E+02 -1.292695E+05 -5.380473E+03  3.599335E+04  1.059794E+04  3.465607E+03
       195   5  4.967679E+02 -1.270682E+05 -8.572058E+03  2.247067E+04  1.184625E+04  8.021305E+03
       195   6 -1.535796E+04 -1.292798E+05 -1.861719E+04  3.598126E+04  3.986430E+03  1.256964E+04
       195   7 -5.339106E+04 -3.502221E+05 -5.500204E+04  3.384773E+04  1.060101E+04 -1.270872E+03
       195   8 -6.816718E+04 -4.066576E+05 -7.219567E+04  2.490461E+04  1.184476E+04  1.071272E+04
       195   9 -9.985608E+04 -4.687945E+05 -1.014053E+05  4.299495E+04  3.978726E+03  2.268761E+04
       195  10  5.485327E+04  9.172846E+04  4.423774E+04  3.813967E+04 -1.684538E-09  2.982971E-09
       195  11  6.915517E+04  1.525936E+05  5.504619E+04  2.003558E+04  2.893892E-09  2.048841E-09
       195  12  6.913186E+04  2.103405E+05  6.416290E+04  2.896374E+04  1.686552E-09  3.524455E-10
       195  13  7.327032E+02 -1.292696E+05 -5.380707E+03  3.599332E+04 -6.451839E-10  5.175568E-10
       195  14  4.965999E+02 -1.270684E+05 -8.572442E+03  2.247059E+04  2.406195E-10  1.381677E-09
       195  15 -1.535802E+04 -1.292799E+05 -1.861751E+04  3.598122E+04  1.972284E-09  8.385967E-10
       195  16 -5.339118E+04 -3.502221E+05 -5.500225E+04  3.384774E+04  4.607879E-10 -4.543526E-09
       195  17 -6.816736E+04 -4.066577E+05 -7.219615E+04  2.490451E+04  6.868562E-10 -2.370438E-10
       195  18 -9.985623E+04 -4.687951E+05 -1.014063E+05  4.299488E+04  2.311840E-09  2.308413E-09
       195  19  5.485341E+04  9.172856E+04  4.423808E+04  3.813974E+04 -1.059489E+04 -8.203755E+03
       195  20  6.915533E+04  1.525937E+05  5.504651E+04  2.003563E+04 -1.184775E+04 -5.328689E+03
       195  21  6.913188E+04  2.103405E+05  6.416295E+04  2.896375E+04 -3.994362E+03 -2.446141E+03
       195  22  7.328271E+02 -1.292695E+05 -5.380473E+03  3.599335E+04 -1.059794E+04 -3.465607E+03
       195  23  4.967679E+02 -1.270682E+05 -8.572058E+03  2.247067E+04 -1.184625E+04 -8.021305E+03
       195  24 -1.535796E+04 -1.292798E+05 -1.861719E+04  3.598126E+04 -3.986430E+03 -1.256964E+04
       195  25 -5.339106E+04 -3.502221E+05 -5.500204E+04  3.384773E+04 -1.060101E+04  1.270872E+03
       195  26 -6.816718E+04 -4.066576E+05 -7.219567E+04  2.490461E+04 -1.184476E+04 -1.071272E+04
       195  27 -9.985608E+04 -4.687945E+05 -1.014053E+05  4.299495E+04 -3.978726E+03 -2.268761E+04
       196   1  9.857696E+04  6.418049E+04  5.810630E+04  1.528484E+04  1.133965E+04 -4.643249E+03
       196   2  7.284749E+04  6.887499E+04  4.945268E+04  1.876541E+04  2.901117E+03 -1.552346E+04
       196   3  4.618987E+04  6.544044E+04  4.426443E+04  2.755869E+04 -5.539861E+03 -1.850860E+04
       196   4 -2.343024E+05 -1.800127E+04 -1.996016E+04  2.645382E+04 -1.391910E+04 -4.654688E+03
       196   5 -2.326657E+05 -4.058447E+03 -9.707698E+03  2.379278E+04 -8.903134E+03 -1.553005E+04
       196   6 -2.342954E+05 -5.831882E+02 -5.334711E+03  2.644469E+04 -3.890125E+03 -1.850839E+04
       196   7 -5.670781E+05 -1.001901E+05 -9.803173E+04  3.761677E+04 -3.916440E+04 -4.667040E+03
       196   8 -5.380888E+05 -7.699728E+04 -6.887192E+04  2.881761E+04 -2.070171E+04 -1.553684E+04
       196   9 -5.147037E+05 -6.661113E+04 -5.493674E+04  2.533120E+04 -2.241113E+03 -1.850820E+04
       196  10  9.857681E+04  6.418043E+04  5.810601E+04  1.528489E+04  1.485162E-09 -2.640830E-10
       196  11  7.284742E+04  6.887473E+04  4.945221E+04  1.876544E+04 -1.505202E-08 -9.890083E-10
       196  12  4.618975E+04  6.544006E+04  4.426372E+04  2.755860E+04 -2.637758E-08 -3.063136E-10
       196  13 -2.343026E+05 -1.800135E+04 -1.996057E+04  2.645377E+04 -8.082534E-11 -8.497486E-10
       196  14 -2.326658E+05 -4.058727E+03 -9.708301E+03  2.379267E+04  8.252060E-10 -5.388279E-09
       196  15 -2.342955E+05 -5.835600E+02 -5.335383E+03  2.644463E+04  1.790842E-09 -7.861154E-09
       196  16 -5.670797E+05 -1.001905E+05 -9.803466E+04  3.761662E+04 -1.374831E-09  1.573137E-10
       196  17 -5.380893E+05 -7.699765E+04 -6.887318E+04  2.881735E+04  1.465072E-08 -1.196934E-09
       196  18 -5.147038E+05 -6.661150E+04 -5.493739E+04  2.533117E+04  2.975931E-08 -3.248051E-10
       196  19  9.857696E+04  6.418049E+04  5.810630E+04  1.528484E+04 -1.133965E+04  4.643249E+03
       196  20  7.284749E+04  6.887499E+04  4.945268E+04  1.876541E+04 -2.901117E+03  1.552346E+04
       196  21  4.618987E+04  6.544044E+04  4.426443E+04  2.755869E+04  5.539861E+03  1.850860E+04
       196  22 -2.343024E+05 -1.800127E+04 -1.996016E+04  2.645382E+04  1.391910E+04  4.654688E+03
       196  23 -2.326657E+05 -4.058447E+03 -9.707698E+03  2.379278E+04  8.903134E+03  1.553005E+04
       196  24 -2.342954E+05 -5.831882E+02 -5.334711E+03  2.644469E+04  3.890125E+03  1.850839E+04
       196  25 -5.670781E+05 -1.001901E+05 -9.803173E+04  3.761677E+04  3.916440E+04  4.667040E+03
       196  26 -5.380888E+05 -7.699728E+04 -6.887192E+04  2.881761E+04  2.070171E+04  1.553684E+04
       196  27 -5.147037E+05 -6.661113E+04 -5.493674E+04  2.533120E+04  2.241113E+03  1.850820E+04
       197   1  2.945850E+04  6.101852E+04  4.199245E+04  2.634013E+04 -3.997357E+03 -1.778564E+04
       197   2  3.339132E+03  5.533972E+04  3.817068E+04  2.365446E+04 -4.103957E+03 -1.695794E+04
       197   3 -2.285451E+04  4.931789E+04  3.433207E+04  2.680350E+04 -4.211225E+03 -1.541353E+04
       197   4 -2.336316E+05 -8.149117E+02 -4.058861E+03  2.656182E+04 -3.196453E+03 -1.778584E+04
       197   5 -2.334861E+05 -1.117831E+02 -2.233168E+03  2.364411E+04 -2.082112E+03 -1.695724E+04
       197   6 -2.336273E+05  3.634342E+01 -1.272366E+03  2.656126E+04 -9.684244E+02 -1.541180E+04
       197   7 -4.966539E+05 -6.265211E+04 -5.011265E+04  2.678340E+04 -2.395878E+03 -1.778604E+04
       197   8 -4.702561E+05 -5.556626E+04 -4.263886E+04  2.363375E+04 -6.101459E+01 -1.695655E+04
       197   9 -4.443562E+05 -4.924754E+04 -3.687819E+04  2.631909E+04  2.273311E+03 -1.541008E+04
       197  10  2.945840E+04  6.101818E+04  4.199183E+04  2.634007E+04  5.560385E-08 -6.353598E-11
       197  11  3.339036E+03  5.533940E+04  3.817011E+04  2.365440E+04  1.563035E-08  1.680021E-09
       197  12 -2.285459E+04  4.931763E+04  3.433159E+04  2.680345E+04 -2.523602E-08  2.132038E-09
       197  13 -2.336317E+05 -8.152541E+02 -4.059475E+03  2.656177E+04  1.075762E-09 -8.018177E-09
       197  14 -2.334862E+05 -1.120930E+02 -2.233716E+03  2.364408E+04  2.917757E-09 -3.375997E-09
       197  15 -2.336273E+05  3.608814E+01 -1.272814E+03  2.656125E+04  1.765504E-09 -2.649506E-10
       197  16 -4.966539E+05 -6.265245E+04 -5.011325E+04  2.678336E+04 -5.459668E-08  1.645050E-09
       197  17 -4.702562E+05 -5.556657E+04 -4.263940E+04  2.363375E+04 -1.387607E-08  2.259477E-09
       197  18 -4.443563E+05 -4.924780E+04 -3.687864E+04  2.631912E+04  2.570889E-08  1.518314E-09
       197  19  2.945850E+04  6.101852E+04  4.199245E+04  2.634013E+04  3.997357E+03  1.778564E+04
       197  20  3.339132E+03  5.533972E+04  3.817068E+04  2.365446E+04  4.103957E+03  1.695794E+04
       197  21 -2.285451E+04  4.931789E+04  3.433207E+04  2.680350E+04  4.211225E+03  1.541353E+04
       197  22 -2.336316E+05 -8.149117E+02 -4.058861E+03  2.656182E+04  3.196453E+03  1.778584E+04
       197  23 -2.334861E+05 -1.117831E+02 -2.233168E+03  2.364411E+04  2.082112E+03  1.695724E+04
       197  24 -2.336273E+05  3.634342E+01 -1.272366E+03  2.656126E+04  9.684244E+02  1.541180E+04
       197  25 -4.966539E+05 -6.265211E+04 -5.011265E+04  2.678340E+04  2.395878E+03  1.778604E+04
       197  26 -4.702561E+05 -5.556626E+04 -4.263886E+04  2.363375E+04  6.101459E+01  1.695655E+04
       197  27 -4.443562E+05 -4.924754E+04 -3.687819E+04  2.631909E+04 -2.273311E+03  1.541008E+04
       198   1 -3.984885E+04  4.528757E+04  3.162010E+04  2.672336E+04 -3.940153E+03 -1.429131E+04
       198   2 -6.600743E+04  3.918509E+04  2.758543E+04  2.375899E+04 -3.778820E+03 -1.240025E+04
       198   3 -9.219390E+04  3.308111E+04  2.344338E+04  2.667994E+04 -3.617772E+03 -1.044378E+04
       198   4 -2.335729E+05  1.946190E+01 -9.668715E+02  2.657257E+04 -7.736620E+02 -1.428950E+04
       198   5 -2.335474E+05  4.374453E+01 -5.530813E+02  2.362986E+04 -5.010061E+02 -1.239817E+04
       198   6 -2.335699E+05  4.719822E+01 -3.240640E+02  2.657255E+04 -2.286280E+02 -1.044142E+04
       198   7 -4.272599E+05 -4.525061E+04 -3.355499E+04  2.642183E+04  2.391873E+03 -1.428769E+04
       198   8 -4.010597E+05 -3.909907E+04 -2.869243E+04  2.350075E+04  2.775952E+03 -1.239609E+04
       198   9 -3.749262E+05 -3.298775E+04 -2.409209E+04  2.646518E+04  3.159770E+03 -1.043906E+04
       198  10 -3.984892E+04  4.528734E+04  3.161968E+04  2.672331E+04  2.011525E-09  2.369997E-09
       198  11 -6.600749E+04  3.918492E+04  2.758511E+04  2.375895E+04 -1.747742E-10  1.118361E-09
       198  12 -9.219394E+04  3.308098E+04  2.344315E+04  2.667991E+04 -8.570895E-10  5.807917E-10
       198  13 -2.335729E+05  1.924250E+01 -9.672563E+02  2.657256E+04 -9.001347E-10 -4.337775E-11
       198  14 -2.335475E+05  4.357942E+01 -5.533706E+02  2.362985E+04 -3.060205E-09  1.099552E-09
       198  15 -2.335700E+05  4.708114E+01 -3.242690E+02  2.657255E+04  8.127072E-10  2.016452E-09
       198  16 -4.272599E+05 -4.525083E+04 -3.355538E+04  2.642186E+04 -3.096254E-09  1.322547E-09
       198  17 -4.010598E+05 -3.909924E+04 -2.869274E+04  2.350078E+04  9.902415E-10  1.495289E-09
       198  18 -3.749263E+05 -3.298787E+04 -2.409232E+04  2.646521E+04 -1.205660E-09  9.985899E-10
       198  19 -3.984885E+04  4.528757E+04  3.162010E+04  2.672336E+04  3.940153E+03  1.429131E+04
       198  20 -6.600743E+04  3.918509E+04  2.758543E+04  2.375899E+04  3.778820E+03  1.240025E+04
       198  21 -9.219390E+04  3.308111E+04  2.344338E+04  2.667994E+04  3.617772E+03  1.044378E+04
       198  22 -2.335729E+05  1.946190E+01 -9.668715E+02  2.657257E+04  7.736620E+02  1.428950E+04
       198  23 -2.335474E+05  4.374453E+01 -5.530813E+02  2.362986E+04  5.010061E+02  1.239817E+04
       198  24 -2.335699E+05  4.719822E+01 -3.240640E+02  2.657255E+04  2.286280E+02  1.044142E+04
       198  25 -4.272599E+05 -4.525061E+04 -3.355499E+04  2.642183E+04 -2.391873E+03  1.428769E+04
       198  26 -4.010597E+05 -3.909907E+04 -2.869243E+04  2.350075E+04 -2.775952E+03  1.239609E+04
       198  27 -3.749262E+05 -3.298775E+04 -2.409209E+04  2.646518E+04 -3.159770E+03  1.043906E+04
       199   1 -1.092132E+05  2.907988E+04  2.054457E+04  2.666472E+04 -3.560141E+03 -9.284678E+03
       199   2 -1.353912E+05  2.296946E+04  1.629419E+04  2.369654E+04 -3.492413E+03 -7.296316E+03
       199   3 -1.615846E+05  1.686849E+04  1.199932E+04  2.662076E+04 -3.424833E+03 -5.302089E+03
       199   4 -2.335625E+05  4.595150E+01 -2.516134E+02  2.657412E+04 -1.774324E+02 -9.282227E+03
       199   5 -2.335525E+05  4.224319E+01 -1.599662E+02  2.362790E+04 -9.982129E+01 -7.293739E+03
       199   6 -2.335607E+05  4.619024E+01 -1.198225E+02  2.657412E+04 -2.235562E+01 -5.299387E+03
       199   7 -3.578964E+05 -2.898878E+04 -2.104823E+04  2.648354E+04  3.204621E+03 -9.279776E+03
       199   8 -3.317042E+05 -2.288547E+04 -1.661438E+04  2.355926E+04  3.292252E+03 -7.291164E+03
       199   9 -3.055317E+05 -1.677637E+04 -1.223909E+04  2.652749E+04  3.379740E+03 -5.296686E+03
       199  10 -1.092132E+05  2.907978E+04  2.054438E+04  2.666469E+04  2.142114E-09  9.115473E-10
       199  11 -1.353912E+05  2.296940E+04  1.629407E+04  2.369652E+04  2.878396E-09  2.860322E-09
       199  12 -1.615846E+05  1.686846E+04  1.199925E+04  2.662075E+04  1.150930E-09  1.914230E-09
       199  13 -2.335625E+05  4.585898E+01 -2.517753E+02  2.657412E+04 -2.150142E-09  8.483870E-10
       199  14 -2.335525E+05  4.218607E+01 -1.600662E+02  2.362790E+04 -5.746586E-10  2.582853E-09
       199  15 -2.335607E+05  4.616009E+01 -1.198753E+02  2.657412E+04  9.513992E-10  9.622920E-10
       199  16 -3.578965E+05 -2.898887E+04 -2.104841E+04  2.648357E+04 -3.251479E-09  6.516885E-10
       199  17 -3.317042E+05 -2.288553E+04 -1.661450E+04  2.355928E+04 -1.111059E-09  3.137206E-10
       199  18 -3.055317E+05 -1.677641E+04 -1.223916E+04  2.652750E+04 -1.646804E-10  6.490576E-10
       199  19 -1.092132E+05  2.907988E+04  2.054457E+04  2.666472E+04  3.560141E+03  9.284678E+03
       199  20 -1.353912E+05  2.296946E+04  1.629419E+04  2.369654E+04  3.492413E+03  7.296316E+03
       199  21 -1.615846E+05  1.686849E+04  1.199932E+04  2.662076E+04  3.424833E+03  5.302089E+03
       199  22 -2.335625E+05  4.595150E+01 -2.516134E+02  2.657412E+04  1.774324E+02  9.282227E+03
       199  23 -2.335525E+05  4.224319E+01 -1.599662E+02  2.362790E+04  9.982129E+01  7.293739E+03
       199  24 -2.335607E+05  4.619024E+01 -1.198225E+02  2.657412E+04  2.235562E+01  5.299387E+03
       199  25 -3.578964E+05 -2.898878E+04 -2.104823E+04  2.648354E+04 -3.204621E+03  9.279776E+03
       199  26 -3.317042E+05 -2.288547E+04 -1.661438E+04  2.355926E+04 -3.292252E+03  7.291164E+03
       199  27 -3.055317E+05 -1.677637E+04 -1.223909E+04  2.652749E+04 -3.379740E+03  5.296686E+03
       200   1 -1.786146E+05  1.286843E+04  9.036273E+03  2.660887E+04 -3.404439E+03 -4.139373E+03
       200   2 -2.047971E+05  6.759307E+03  4.685396E+03  2.363903E+04 -3.336558E+03 -2.143656E+03
       200   3 -2.309977E+05  6.573381E+02  2.887494E+02  2.656400E+04 -3.268718E+03 -1.510302E+02
       200   4 -2.335602E+05  4.660843E+01 -1.143201E+02  2.657465E+04 -1.978640E+00 -4.136625E+03
       200   5 -2.335511E+05  4.401363E+01 -1.298462E+02  2.362724E+04  6.059169E+01 -2.140879E+03
       200   6 -2.335597E+05  4.962292E+01 -1.873638E+02  2.657465E+04  1.231242E+02 -1.482229E+02
       200   7 -2.885027E+05 -1.277536E+04 -9.264962E+03  2.654043E+04  3.400191E+03 -4.133879E+03
       200   8 -2.623044E+05 -6.671316E+03 -4.945070E+03  2.361545E+04  3.457590E+03 -2.138103E+03
       200   9 -2.361215E+05 -5.580864E+02 -6.634341E+02  2.658530E+04  3.514953E+03 -1.454155E+02
       200  10 -1.786146E+05  1.286841E+04  9.036219E+03  2.660886E+04  4.351811E-09  6.284122E-10
       200  11 -2.047971E+05  6.759299E+03  4.685366E+03  2.363902E+04  1.395636E-09 -6.724312E-10
       200  12 -2.309978E+05  6.573352E+02  2.887293E+02  2.656400E+04 -1.975686E-09 -1.369017E-09
       200  13 -2.335602E+05  4.659005E+01 -1.143522E+02  2.657465E+04  1.975476E-09  2.433962E-09
       200  14 -2.335511E+05  4.400871E+01 -1.298548E+02  2.362724E+04 -1.041367E-09  5.272031E-10
       200  15 -2.335597E+05  4.962289E+01 -1.873639E+02  2.657465E+04  4.291585E-10 -9.743038E-10
       200  16 -2.885027E+05 -1.277539E+04 -9.265016E+03  2.654044E+04 -3.949836E-09  1.579984E-09
       200  17 -2.623044E+05 -6.671325E+03 -4.945102E+03  2.361545E+04 -1.350783E-09 -6.717302E-10
       200  18 -2.361216E+05 -5.580898E+02 -6.634573E+02  2.658530E+04  3.508157E-09 -6.489325E-10
       200  19 -1.786146E+05  1.286843E+04  9.036273E+03  2.660887E+04  3.404439E+03  4.139373E+03
       200  20 -2.047971E+05  6.759307E+03  4.685396E+03  2.363903E+04  3.336558E+03  2.143656E+03
       200  21 -2.309977E+05  6.573381E+02  2.887494E+02  2.656400E+04  3.268718E+03  1.510302E+02
       200  22 -2.335602E+05  4.660843E+01 -1.143201E+02  2.657465E+04  1.978640E+00  4.136625E+03
       200  23 -2.335511E+05  4.401363E+01 -1.298462E+02  2.362724E+04 -6.059169E+01  2.140879E+03
       200  24 -2.335597E+05  4.962292E+01 -1.873638E+02  2.657465E+04 -1.231242E+02  1.482229E+02
       200  25 -2.885027E+05 -1.277536E+04 -9.264962E+03  2.654043E+04 -3.400191E+03  4.133879E+03
       200  26 -2.623044E+05 -6.671316E+03 -4.945070E+03  2.361545E+04 -3.457590E+03  2.138103E+03
       200  27 -2.361215E+05 -5.580864E+02 -6.634341E+02  2.658530E+04 -3.514953E+03  1.454155E+02
       201   1 -2.480352E+05 -3.342762E+03 -2.731345E+03  2.654671E+04 -3.235645E+03  1.010117E+03
       201   2 -2.742000E+05 -9.455432E+03 -7.248714E+03  2.357663E+04 -2.972229E+03  2.983549E+03
       201   3 -3.004156E+05 -1.559194E+04 -1.194685E+04  2.649854E+04 -2.708736E+03  4.916097E+03
       201   4 -2.335646E+05  5.123036E+01 -2.362607E+02  2.657401E+04  1.604554E+02  1.012924E+03
       201   5 -2.335452E+05  4.877981E+01 -3.946324E+02  2.362804E+04  3.541754E+02  2.986249E+03
       201   6 -2.335653E+05  3.462174E+01 -6.853669E+02  2.657402E+04  5.479833E+02  4.918694E+03
       201   7 -2.190937E+05  3.445218E+03  2.258860E+03  2.660130E+04  3.556633E+03  1.015731E+03
       201   8 -1.928888E+05  9.552911E+03  6.459438E+03  2.367944E+04  3.680791E+03  2.988951E+03
       201   9 -1.667106E+05  1.566096E+04  1.057601E+04  2.664951E+04  3.805042E+03  4.921292E+03
       201  10 -2.480352E+05 -3.342766E+03 -2.731367E+03  2.654671E+04 -1.315059E-09 -9.910097E-11
       201  11 -2.742000E+05 -9.455444E+03 -7.248748E+03  2.357664E+04  1.402580E-09  2.282794E-10
       201  12 -3.004156E+05 -1.559197E+04 -1.194691E+04  2.649855E+04 -2.230235E-09  4.209561E-10
       201  13 -2.335646E+05  5.122925E+01 -2.362627E+02  2.657401E+04  1.068620E-09  6.794508E-11
       201  14 -2.335452E+05  4.877020E+01 -3.946494E+02  2.362803E+04 -2.032822E-09  2.969043E-10
       201  15 -2.335653E+05  3.459568E+01 -6.854130E+02  2.657402E+04 -5.444113E-10  9.137236E-10
       201  16 -2.190937E+05  3.445213E+03  2.258834E+03  2.660130E+04  5.737355E-10  1.136023E-09
       201  17 -1.928888E+05  9.552897E+03  6.459396E+03  2.367943E+04  1.073094E-09 -2.090704E-09
       201  18 -1.667106E+05  1.566093E+04  1.057594E+04  2.664950E+04  2.294578E-09  1.050451E-10
       201  19 -2.480352E+05 -3.342762E+03 -2.731345E+03  2.654671E+04  3.235645E+03 -1.010117E+03
       201  20 -2.742000E+05 -9.455432E+03 -7.248714E+03  2.357663E+04  2.972229E+03 -2.983549E+03
       201  21 -3.004156E+05 -1.559194E+04 -1.194685E+04  2.649854E+04  2.708736E+03 -4.916097E+03
       201  22 -2.335646E+05  5.123036E+01 -2.362607E+02  2.657401E+04 -1.604554E+02 -1.012924E+03
       201  23 -2.335452E+05  4.877981E+01 -3.946324E+02  2.362804E+04 -3.541754E+02 -2.986249E+03
       201  24 -2.335653E+05  3.462174E+01 -6.853669E+02  2.657402E+04 -5.479833E+02 -4.918694E+03
       201  25 -2.190937E+05  3.445218E+03  2.258860E+03  2.660130E+04 -3.556633E+03 -1.015731E+03
       201  26 -1.928888E+05  9.552911E+03  6.459438E+03  2.367944E+04 -3.680791E+03 -2.988951E+03
       201  27 -1.667106E+05  1.566096E+04  1.057601E+04  2.664951E+04 -3.805042E+03 -4.921292E+03
       202   1 -3.175029E+05 -1.959080E+04 -1.516326E+04  2.642107E+04 -2.619297E+03  6.054434E+03
       202   2 -3.435164E+05 -2.584689E+04 -2.047017E+04  2.364402E+04 -1.065924E+03  7.770682E+03
       202   3 -3.698714E+05 -3.262533E+04 -2.692202E+04  2.672838E+04  4.878191E+02  9.036590E+03
       202   4 -2.336036E+05  4.714152E+01 -9.006944E+02  2.656715E+04  6.854947E+02  6.057018E+03
       202   5 -2.334999E+05 -5.800632E+01 -1.578415E+03  2.363671E+04  1.471878E+03  7.772543E+03
       202   6 -2.336056E+05 -5.522996E+02 -2.868277E+03  2.656762E+04  2.258706E+03  9.037769E+03
       202   7 -1.496972E+05  1.968472E+04  1.336168E+04  2.671324E+04  3.990719E+03  6.059603E+03
       202   8 -1.234715E+05  2.573024E+04  1.731295E+04  2.362940E+04  4.010117E+03  7.774404E+03
       202   9 -9.732169E+04  3.151971E+04  2.118479E+04  2.640682E+04  4.029971E+03  9.038946E+03
       202  10 -3.175029E+05 -1.959084E+04 -1.516334E+04  2.642108E+04 -2.242720E-09  1.304542E-09
       202  11 -3.435164E+05 -2.584696E+04 -2.047028E+04  2.364403E+04 -4.615824E-10  3.998365E-10
       202  12 -3.698714E+05 -3.262541E+04 -2.692217E+04  2.672837E+04 -9.570072E-10  1.597776E-09
       202  13 -2.336036E+05  4.710200E+01 -9.007642E+02  2.656714E+04  1.641272E-12  6.242784E-10
       202  14 -2.334999E+05 -5.807177E+01 -1.578532E+03  2.363670E+04 -9.372093E-10  4.786606E-10
       202  15 -2.336057E+05 -5.523886E+02 -2.868440E+03  2.656760E+04 -1.225075E-09  2.401136E-10
       202  16 -1.496973E+05  1.968467E+04  1.336158E+04  2.671322E+04  1.563626E-09  2.253107E-10
       202  17 -1.234716E+05  2.573017E+04  1.731281E+04  2.362937E+04 -1.464937E-09 -9.482574E-11
       202  18 -9.732173E+04  3.151962E+04  2.118461E+04  2.640679E+04 -1.721589E-09 -1.553759E-09
       202  19 -3.175029E+05 -1.959080E+04 -1.516326E+04  2.642107E+04  2.619297E+03 -6.054434E+03
       202  20 -3.435164E+05 -2.584689E+04 -2.047017E+04  2.364402E+04  1.065924E+03 -7.770682E+03
       202  21 -3.698714E+05 -3.262533E+04 -2.692202E+04  2.672838E+04 -4.878191E+02 -9.036590E+03
       202  22 -2.336036E+05  4.714152E+01 -9.006944E+02  2.656715E+04 -6.854947E+02 -6.057018E+03
       202  23 -2.334999E+05 -5.800632E+01 -1.578415E+03  2.363671E+04 -1.471878E+03 -7.772543E+03
       202  24 -2.336056E+05 -5.522996E+02 -2.868277E+03  2.656762E+04 -2.258706E+03 -9.037769E+03
       202  25 -1.496972E+05  1.968472E+04  1.336168E+04  2.671324E+04 -3.990719E+03 -6.059603E+03
       202  26 -1.234715E+05  2.573024E+04  1.731295E+04  2.362940E+04 -4.010117E+03 -7.774404E+03
       202  27 -9.732169E+04  3.151971E+04  2.118479E+04  2.640682E+04 -4.029971E+03 -9.038946E+03
       203   1 -3.876078E+05 -3.658485E+04 -3.115841E+04  2.570416E+04  4.443965E+02  9.923679E+03
       203   2 -4.119281E+05 -4.565687E+04 -4.186978E+04  2.726862E+04  1.243647E+04  8.803818E+03
       203   3 -4.400331E+05 -6.359401E+04 -6.260880E+04  3.436872E+04  2.443120E+04  2.721364E+03
       203   4 -2.340746E+05 -3.881187E+02 -3.769687E+03  2.649409E+04  2.748484E+03  9.925190E+03
       203   5 -2.329188E+05 -2.845590E+03 -6.858873E+03  2.373063E+04  6.289482E+03  8.799145E+03
       203   6 -2.340791E+05 -1.269894E+04 -1.410364E+04  2.650290E+04  9.833616E+03  2.710994E+03
       203   7 -8.051841E+04  3.580731E+04  2.361817E+04  2.728421E+04  5.053124E+03  9.926707E+03
       203   8 -5.387860E+04  3.996383E+04  2.815064E+04  2.019159E+04  1.407567E+02  8.794543E+03
       203   9 -2.808541E+04  3.819346E+04  3.439944E+04  1.863445E+04 -4.768784E+03  2.700996E+03
       203  10 -3.876079E+05 -3.658496E+04 -3.115860E+04  2.570416E+04 -4.311531E-10  1.481930E-09
       203  11 -4.119283E+05 -4.565699E+04 -4.187021E+04  2.726853E+04  9.238515E-11 -2.025999E-10
       203  12 -4.400337E+05 -6.359418E+04 -6.260994E+04  3.436867E+04  7.523796E-10 -4.348944E-10
       203  13 -2.340747E+05 -3.882265E+02 -3.769887E+03  2.649407E+04  9.074053E-10  1.413727E-09
       203  14 -2.329188E+05 -2.845684E+03 -6.859093E+03  2.373059E+04  8.822092E-10 -1.251514E-09
       203  15 -2.340792E+05 -1.269897E+04 -1.410383E+04  2.650288E+04  3.273306E-10  1.628817E-09
       203  16 -8.051847E+04  3.580720E+04  2.361793E+04  2.728417E+04  7.790230E-10  8.066594E-10
       203  17 -5.387862E+04  3.996375E+04  2.815050E+04  2.019159E+04  1.317665E-09  3.983296E-10
       203  18 -2.808544E+04  3.819344E+04  3.439939E+04  1.863446E+04  6.738600E-10  5.303464E-11
       203  19 -3.876078E+05 -3.658485E+04 -3.115841E+04  2.570416E+04 -4.443965E+02 -9.923679E+03
       203  20 -4.119281E+05 -4.565687E+04 -4.186978E+04  2.726862E+04 -1.243647E+04 -8.803818E+03
       203  21 -4.400331E+05 -6.359401E+04 -6.260880E+04  3.436872E+04 -2.443120E+04 -2.721364E+03
       203  22 -2.340746E+05 -3.881187E+02 -3.769687E+03  2.649409E+04 -2.748484E+03 -9.925190E+03
       203  23 -2.329188E+05 -2.845590E+03 -6.858873E+03  2.373063E+04 -6.289482E+03 -8.799145E+03
       203  24 -2.340791E+05 -1.269894E+04 -1.410364E+04  2.650290E+04 -9.833616E+03 -2.710994E+03
       203  25 -8.051841E+04  3.580731E+04  2.361817E+04  2.728421E+04 -5.053124E+03 -9.926707E+03
       203  26 -5.387860E+04  3.996383E+04  2.815064E+04  2.019159E+04 -1.407567E+02 -8.794543E+03
       203  27 -2.808541E+04  3.819346E+04  3.439944E+04  1.863445E+04  4.768784E+03 -2.700996E+03
       204   1 -3.817904E+04  4.045355E+04  3.502806E+04  2.572983E+03 -6.622604E+03 -3.220740E+03
       204   2 -5.464803E+04  5.426621E+04  3.871666E+04  5.070482E+03 -6.871207E+03 -1.019456E+04
       204   3 -7.541768E+04  5.072830E+04  3.823381E+04  1.478453E+04 -7.123964E+03 -1.084740E+04
       204   4 -2.797699E+05 -1.954703E+04 -2.341677E+04  1.188831E+04 -1.610342E+04 -3.227306E+03
       204   5 -2.771023E+05 -1.092580E+02 -1.069646E+04  8.272451E+03 -1.043742E+04 -1.019751E+04
       204   6 -2.797647E+05  9.473654E+02 -6.257448E+03  1.187338E+04 -4.775516E+03 -1.084571E+04
       204   7 -5.213070E+05 -7.955150E+04 -8.186540E+04  2.120000E+04 -2.558056E+04 -3.234159E+03
       204   8 -4.995103E+05 -5.448802E+04 -6.011260E+04  1.147325E+04 -1.400236E+04 -1.020050E+04
       204   9 -4.840725E+05 -4.883631E+04 -5.075119E+04  8.963198E+03 -2.427832E+03 -1.084404E+04
       204  10 -3.817909E+04  4.045353E+04  3.502796E+04  2.572966E+03 -8.327266E-09  9.057153E-10
       204  11 -5.464811E+04  5.426608E+04  3.871638E+04  5.070425E+03  5.324805E-09  4.248615E-09
       204  12 -7.541777E+04  5.072816E+04  3.823349E+04  1.478446E+04  1.122897E-08  5.092879E-09
       204  13 -2.797702E+05 -1.954711E+04 -2.341727E+04  1.188827E+04  2.035294E-10 -1.370232E-09
       204  14 -2.771024E+05 -1.093989E+02 -1.069686E+04  8.272365E+03  1.769247E-09 -4.582101E-09
       204  15 -2.797648E+05  9.472330E+02 -6.257712E+03  1.187334E+04 -1.024213E-09 -5.115942E-09
       204  16 -5.213077E+05 -7.955169E+04 -8.186665E+04  2.119993E+04  8.340281E-09  1.036161E-09
       204  17 -4.995106E+05 -5.448819E+04 -6.011317E+04  1.147314E+04 -4.426652E-09  3.680252E-09
       204  18 -4.840726E+05 -4.883644E+04 -5.075142E+04  8.963177E+03 -1.074682E-08  3.669976E-09
       204  19 -3.817904E+04  4.045355E+04  3.502806E+04  2.572983E+03  6.622604E+03  3.220740E+03
       204  20 -5.464803E+04  5.426621E+04  3.871666E+04  5.070482E+03  6.871207E+03  1.019456E+04
       204  21 -7.541768E+04  5.072830E+04  3.823381E+04  1.478453E+04  7.123964E+03  1.084740E+04
       204  22 -2.797699E+05 -1.954703E+04 -2.341677E+04  1.188831E+04  1.610342E+04  3.227306E+03
       204  23 -2.771023E+05 -1.092580E+02 -1.069646E+04  8.272451E+03  1.043742E+04  1.019751E+04
       204  24 -2.797647E+05  9.473654E+02 -6.257448E+03  1.187338E+04  4.775516E+03  1.084571E+04
       204  25 -5.213070E+05 -7.955150E+04 -8.186540E+04  2.120000E+04  2.558056E+04  3.234159E+03
       204  26 -4.995103E+05 -5.448802E+04 -6.011260E+04  1.147325E+04  1.400236E+04  1.020050E+04
       204  27 -4.840725E+05 -4.883631E+04 -5.075119E+04  8.963198E+03  2.427832E+03  1.084404E+04
       205   1 -8.944891E+04  4.511430E+04  3.644387E+04  1.170778E+04 -4.426119E+03 -9.694282E+03
       205   2 -1.078870E+05  4.159271E+04  3.448416E+04  8.220184E+03 -3.341184E+03 -8.981933E+03
       205   3 -1.267143E+05  3.710559E+04  3.157525E+04  1.225251E+04 -2.256750E+03 -7.983891E+03
       205   4 -2.786764E+05 -1.020267E+03 -4.967202E+03  1.194515E+04 -3.893178E+03 -9.694045E+03
       205   5 -2.784571E+05  3.562996E+01 -2.695822E+03  8.184625E+03 -2.541241E+03 -8.981389E+03
       205   6 -2.786742E+05  7.940785E+01 -1.559407E+03  1.194416E+04 -1.189777E+03 -7.983003E+03
       205   7 -4.678703E+05 -4.715723E+04 -4.638044E+04  1.218244E+04 -3.360398E+03 -9.693809E+03
       205   8 -4.490000E+05 -4.152338E+04 -3.987755E+04  8.149070E+03 -1.741515E+03 -8.980845E+03
       205   9 -4.306124E+05 -3.694831E+04 -3.469545E+04  1.163588E+04 -1.230616E+02 -7.982116E+03
       205  10 -8.944896E+04  4.511420E+04  3.644366E+04  1.170774E+04 -1.010595E-08  3.189587E-09
       205  11 -1.078870E+05  4.159262E+04  3.448399E+04  8.220160E+03  8.681302E-11  3.182905E-09
       205  12 -1.267143E+05  3.710552E+04  3.157512E+04  1.225250E+04  7.554275E-09  2.559448E-09
       205  13 -2.786764E+05 -1.020372E+03 -4.967407E+03  1.194512E+04  1.957107E-09 -2.742307E-09
       205  14 -2.784571E+05  3.554162E+01 -2.695985E+03  8.184607E+03  3.536323E-09 -7.337663E-09
       205  15 -2.786742E+05  7.933904E+01 -1.559529E+03  1.194415E+04  3.921665E-10  2.424825E-09
       205  16 -4.678703E+05 -4.715733E+04 -4.638064E+04  1.218242E+04  1.112733E-08  1.373608E-09
       205  17 -4.490000E+05 -4.152347E+04 -3.987771E+04  8.149058E+03 -1.470051E-10  4.826075E-10
       205  18 -4.306124E+05 -3.694838E+04 -3.469556E+04  1.163588E+04 -7.897809E-09  2.231051E-09
       205  19 -8.944891E+04  4.511430E+04  3.644387E+04  1.170778E+04  4.426119E+03  9.694282E+03
       205  20 -1.078870E+05  4.159271E+04  3.448416E+04  8.220184E+03  3.341184E+03  8.981933E+03
       205  21 -1.267143E+05  3.710559E+04  3.157525E+04  1.225251E+04  2.256750E+03  7.983891E+03
       205  22 -2.786764E+05 -1.020267E+03 -4.967202E+03  1.194515E+04  3.893178E+03  9.694045E+03
       205  23 -2.784571E+05  3.562996E+01 -2.695822E+03  8.184625E+03  2.541241E+03  8.981389E+03
       205  24 -2.786742E+05  7.940785E+01 -1.559407E+03  1.194416E+04  1.189777E+03  7.983003E+03
       205  25 -4.678703E+05 -4.715723E+04 -4.638044E+04  1.218244E+04  3.360398E+03  9.693809E+03
       205  26 -4.490000E+05 -4.152338E+04 -3.987755E+04  8.149070E+03  1.741515E+03  8.980845E+03
       205  27 -4.306124E+05 -3.694831E+04 -3.469545E+04  1.163588E+04  1.230616E+02  7.982116E+03
       206   1 -1.416668E+05  3.332104E+04  2.857233E+04  1.207571E+04 -1.933630E+03 -7.333751E+03
       206   2 -1.603213E+05  2.882580E+04  2.505177E+04  8.285243E+03 -1.604150E+03 -6.272838E+03
       206   3 -1.790433E+05  2.428989E+04  2.130301E+04  1.205344E+04 -1.274847E+03 -5.198176E+03
       206   4 -2.785918E+05 -2.466609E+01 -1.198997E+03  1.195305E+04 -9.473887E+02 -7.332891E+03
       206   5 -2.785562E+05  2.408970E+01 -6.926193E+02  8.173644E+03 -6.051167E+02 -6.271898E+03
       206   6 -2.785904E+05  3.004229E+01 -4.232804E+02  1.195299E+04 -2.630118E+02 -5.197154E+03
       206   7 -4.154992E+05 -3.337162E+04 -3.097145E+04  1.183041E+04  3.863777E+01 -7.332030E+03
       206   8 -3.967779E+05 -2.877855E+04 -2.643784E+04  8.062063E+03  3.937285E+02 -6.270958E+03
       206   9 -3.781282E+05 -2.423047E+04 -2.215016E+04  1.185256E+04  7.486628E+02 -5.196132E+03
       206  10 -1.416668E+05  3.332098E+04  2.857222E+04  1.207570E+04  2.410426E-09 -1.190659E-09
       206  11 -1.603213E+05  2.882575E+04  2.505169E+04  8.285235E+03  4.049495E-09 -1.698561E-11
       206  12 -1.790433E+05  2.428986E+04  2.130295E+04  1.205343E+04  1.235899E-09  2.369824E-11
       206  13 -2.785918E+05 -2.472406E+01 -1.199100E+03  1.195304E+04 -4.896331E-12  4.438538E-10
       206  14 -2.785562E+05  2.404736E+01 -6.926939E+02  8.173641E+03  9.111126E-10  2.584057E-11
       206  15 -2.785904E+05  3.001327E+01 -4.233312E+02  1.195299E+04 -6.739982E-11 -2.309582E-10
       206  16 -4.154992E+05 -3.337168E+04 -3.097155E+04  1.183041E+04 -3.817979E-09 -6.712504E-10
       206  17 -3.967780E+05 -2.877859E+04 -2.643792E+04  8.062065E+03 -2.541998E-09  3.176859E-09
       206  18 -3.781282E+05 -2.423050E+04 -2.215021E+04  1.185256E+04 -2.246502E-10  3.805242E-09
       206  19 -1.416668E+05  3.332104E+04  2.857233E+04  1.207571E+04  1.933630E+03  7.333751E+03
       206  20 -1.603213E+05  2.882580E+04  2.505177E+04  8.285243E+03  1.604150E+03  6.272838E+03
       206  21 -1.790433E+05  2.428989E+04  2.130301E+04  1.205344E+04  1.274847E+03  5.198176E+03
       206  22 -2.785918E+05 -2.466609E+01 -1.198997E+03  1.195305E+04  9.473887E+02  7.332891E+03
       206  23 -2.785562E+05  2.408970E+01 -6.926193E+02  8.173644E+03  6.051167E+02  6.271898E+03
       206  24 -2.785904E+05  3.004229E+01 -4.232804E+02  1.195299E+04  2.630118E+02  5.197154E+03
       206  25 -4.154992E+05 -3.337162E+04 -3.097145E+04  1.183041E+04 -3.863777E+01  7.332030E+03
       206  26 -3.967779E+05 -2.877855E+04 -2.643784E+04  8.062063E+03 -3.937285E+02  6.270958E+03
       206  27 -3.781282E+05 -2.423047E+04 -2.215016E+04  1.185256E+04 -7.486628E+02  5.196132E+03
       207   1 -1.941016E+05  2.059440E+04  1.799888E+04  1.203478E+04 -1.203320E+03 -4.569246E+03
       207   2 -2.128115E+05  1.603899E+04  1.406118E+04  8.227311E+03 -1.079256E+03 -3.490536E+03
       207   3 -2.315534E+05  1.149598E+04  1.004124E+04  1.199360E+04 -9.552849E+02 -2.410738E+03
       207   4 -2.785815E+05  2.551253E+01 -3.430524E+02  1.195635E+04 -1.945088E+02 -4.568194E+03
       207   5 -2.785649E+05  2.135067E+01 -2.553362E+02  8.169449E+03 -6.945371E+01 -3.489446E+03
       207   6 -2.785807E+05  2.944113E+01 -2.505592E+02  1.195635E+04  5.551151E+01 -2.409608E+03
       207   7 -3.630547E+05 -2.054385E+04 -1.868541E+04  1.187794E+04  8.141672E+02 -4.567142E+03
       207   8 -3.443141E+05 -1.599657E+04 -1.457211E+04  8.111593E+03  9.402428E+02 -3.488356E+03
       207   9 -3.256060E+05 -1.143724E+04 -1.054248E+04  1.191911E+04  1.066232E+03 -2.408478E+03
       207  10 -1.941016E+05  2.059438E+04  1.799884E+04  1.203478E+04 -1.582039E-11 -2.296980E-09
       207  11 -2.128115E+05  1.603897E+04  1.406116E+04  8.227308E+03 -6.838974E-10  1.269067E-09
       207  12 -2.315534E+05  1.149597E+04  1.004122E+04  1.199360E+04 -4.694544E-09  1.315228E-09
       207  13 -2.785815E+05  2.549011E+01 -3.430917E+02  1.195635E+04  3.270482E-12  8.835520E-10
       207  14 -2.785649E+05  2.133760E+01 -2.553591E+02  8.169449E+03 -2.196581E-09 -2.675681E-09
       207  15 -2.785807E+05  2.943490E+01 -2.505701E+02  1.195635E+04  1.258059E-09 -1.708315E-10
       207  16 -3.630547E+05 -2.054387E+04 -1.868545E+04  1.187794E+04 -3.550123E-09  1.576993E-09
       207  17 -3.443141E+05 -1.599658E+04 -1.457214E+04  8.111595E+03 -1.282608E-09  2.703739E-09
       207  18 -3.256060E+05 -1.143725E+04 -1.054250E+04  1.191911E+04  4.869479E-09  1.473565E-09
       207  19 -1.941016E+05  2.059440E+04  1.799888E+04  1.203478E+04  1.203320E+03  4.569246E+03
       207  20 -2.128115E+05  1.603899E+04  1.406118E+04  8.227311E+03  1.079256E+03  3.490536E+03
       207  21 -2.315534E+05  1.149598E+04  1.004124E+04  1.199360E+04  9.552849E+02  2.410738E+03
       207  22 -2.785815E+05  2.551253E+01 -3.430524E+02  1.195635E+04  1.945088E+02  4.568194E+03
       207  23 -2.785649E+05  2.135067E+01 -2.553362E+02  8.169449E+03  6.945371E+01  3.489446E+03
       207  24 -2.785807E+05  2.944113E+01 -2.505592E+02  1.195635E+04 -5.551151E+01  2.409608E+03
       207  25 -3.630547E+05 -2.054385E+04 -1.868541E+04  1.187794E+04 -8.141672E+02  4.567142E+03
       207  26 -3.443141E+05 -1.599657E+04 -1.457211E+04  8.111593E+03 -9.402428E+02  3.488356E+03
       207  27 -3.256060E+05 -1.143724E+04 -1.054248E+04  1.191911E+04 -1.066232E+03  2.408478E+03
       208   1 -2.466438E+05  7.799666E+03  6.624891E+03  1.197984E+04 -9.083873E+02 -1.781883E+03
       208   2 -2.653634E+05  3.239902E+03  2.475574E+03  8.164616E+03 -7.126623E+02 -7.013103E+02
       208   3 -2.841270E+05 -1.311136E+03 -1.804034E+03  1.192964E+04 -5.169636E+02  3.790094E+02
       208   4 -2.785832E+05  2.949725E+01 -2.770981E+02  1.195778E+04  1.026359E+02 -1.780738E+03
       208   5 -2.785608E+05  2.493367E+01 -3.979234E+02  8.167658E+03  2.980993E+02 -7.001592E+02
       208   6 -2.785830E+05  2.909118E+01 -6.489216E+02  1.195778E+04  4.935423E+02  3.801685E+02
       208   7 -3.105216E+05 -7.740738E+03 -7.179144E+03  1.193573E+04  1.113608E+03 -1.779594E+03
       208   8 -2.917581E+05 -3.190046E+03 -3.271427E+03  8.170700E+03  1.308840E+03 -6.990081E+02
       208   9 -2.730391E+05  1.369317E+03  5.061927E+02  1.198593E+04  1.504057E+03  3.813277E+02
       208  10 -2.466438E+05  7.799662E+03  6.624884E+03  1.197983E+04  7.233158E-10  1.141015E-09
       208  11 -2.653634E+05  3.239901E+03  2.475572E+03  8.164616E+03  1.198588E-09 -1.105941E-09
       208  12 -2.841270E+05 -1.311136E+03 -1.804035E+03  1.192964E+04 -3.648153E-09 -1.097880E-09
       208  13 -2.785832E+05  2.949384E+01 -2.771041E+02  1.195778E+04  8.815122E-10  3.980594E-09
       208  14 -2.785608E+05  2.493312E+01 -3.979245E+02  8.167658E+03 -1.313036E-09 -1.707107E-09
       208  15 -2.785830E+05  2.909096E+01 -6.489224E+02  1.195778E+04  3.913018E-10 -3.654563E-10
       208  16 -3.105216E+05 -7.740742E+03 -7.179152E+03  1.193573E+04 -8.300871E-10  1.143607E-09
       208  17 -2.917581E+05 -3.190047E+03 -3.271431E+03  8.170701E+03  3.869716E-10 -4.330069E-09
       208  18 -2.730391E+05  1.369316E+03  5.061882E+02  1.198593E+04  3.634572E-09 -1.252507E-09
       208  19 -2.466438E+05  7.799666E+03  6.624891E+03  1.197984E+04  9.083873E+02  1.781883E+03
       208  20 -2.653634E+05  3.239902E+03  2.475574E+03  8.164616E+03  7.126623E+02  7.013103E+02
       208  21 -2.841270E+05 -1.311136E+03 -1.804034E+03  1.192964E+04  5.169636E+02 -3.790094E+02
       208  22 -2.785832E+05  2.949725E+01 -2.770981E+02  1.195778E+04 -1.026359E+02  1.780738E+03
       208  23 -2.785608E+05  2.493367E+01 -3.979234E+02  8.167658E+03 -2.980993E+02  7.001592E+02
       208  24 -2.785830E+05  2.909118E+01 -6.489216E+02  1.195778E+04 -4.935423E+02 -3.801685E+02
       208  25 -3.105216E+05 -7.740738E+03 -7.179144E+03  1.193573E+04 -1.113608E+03  1.779594E+03
       208  26 -2.917581E+05 -3.190046E+03 -3.271427E+03  8.170700E+03 -1.308840E+03  6.990081E+02
       208  27 -2.730391E+05  1.369317E+03  5.061927E+02  1.198593E+04 -1.504057E+03 -3.813277E+02
       209   1 -2.992406E+05 -4.998845E+03 -5.387394E+03  1.189337E+04 -3.856159E+02  1.008821E+03
       209   2 -3.179051E+05 -9.552724E+03 -1.001835E+04  8.089634E+03  3.373943E+02  2.087670E+03
       209   3 -3.367121E+05 -1.421688E+04 -1.515275E+04  1.186340E+04  1.060456E+03  3.157435E+03
       209   4 -2.786045E+05  3.898783E+01 -8.416990E+02  1.195713E+04  6.273021E+02  1.009978E+03
       209   5 -2.785344E+05  3.906224E+01 -1.444244E+03  8.168452E+03  1.341849E+03  2.088795E+03
       209   6 -2.786051E+05 -6.956678E+01 -2.544234E+03  1.195725E+04  2.056468E+03  3.158528E+03
       209   7 -2.579681E+05  5.076793E+03  3.703974E+03  1.202088E+04  1.640253E+03  1.011135E+03
       209   8 -2.391621E+05  9.630746E+03  7.129770E+03  8.247275E+03  2.346366E+03  2.089919E+03
       209   9 -2.204950E+05  1.407752E+04  1.006408E+04  1.205111E+04  3.052572E+03  3.159622E+03
       209  10 -2.992406E+05 -4.998846E+03 -5.387396E+03  1.189337E+04 -3.328258E-09  1.743668E-09
       209  11 -3.179051E+05 -9.552728E+03 -1.001836E+04  8.089634E+03  2.098061E-09 -8.635514E-10
       209  12 -3.367121E+05 -1.421689E+04 -1.515277E+04  1.186340E+04 -4.927483E-10 -1.009643E-09
       209  13 -2.786045E+05  3.898663E+01 -8.417016E+02  1.195713E+04  1.062891E-09 -4.247384E-10
       209  14 -2.785344E+05  3.905707E+01 -1.444256E+03  8.168450E+03  3.006978E-10  1.076884E-09
       209  15 -2.786051E+05 -6.957863E+01 -2.544261E+03  1.195725E+04  1.985873E-10  2.813366E-10
       209  16 -2.579681E+05  5.076791E+03  3.703967E+03  1.202088E+04  4.224890E-09  2.783939E-09
       209  17 -2.391622E+05  9.630740E+03  7.129751E+03  8.247271E+03 -3.542284E-10 -1.168719E-09
       209  18 -2.204950E+05  1.407751E+04  1.006404E+04  1.205110E+04  1.382782E-09  1.875148E-09
       209  19 -2.992406E+05 -4.998845E+03 -5.387394E+03  1.189337E+04  3.856159E+02 -1.008821E+03
       209  20 -3.179051E+05 -9.552724E+03 -1.001835E+04  8.089634E+03 -3.373943E+02 -2.087670E+03
       209  21 -3.367121E+05 -1.421688E+04 -1.515275E+04  1.186340E+04 -1.060456E+03 -3.157435E+03
       209  22 -2.786045E+05  3.898783E+01 -8.416990E+02  1.195713E+04 -6.273021E+02 -1.009978E+03
       209  23 -2.785344E+05  3.906224E+01 -1.444244E+03  8.168452E+03 -1.341849E+03 -2.088795E+03
       209  24 -2.786051E+05 -6.956678E+01 -2.544234E+03  1.195725E+04 -2.056468E+03 -3.158528E+03
       209  25 -2.579681E+05  5.076793E+03  3.703974E+03  1.202088E+04 -1.640253E+03 -1.011135E+03
       209  26 -2.391621E+05  9.630746E+03  7.129770E+03  8.247275E+03 -2.346366E+03 -2.089919E+03
       209  27 -2.204950E+05  1.407752E+04  1.006408E+04  1.205111E+04 -3.052572E+03 -3.159622E+03
       210   1 -3.519714E+05 -1.768793E+04 -1.930887E+04  1.146781E+04  1.520743E+03  3.802581E+03
       210   2 -3.701976E+05 -2.231782E+04 -2.579493E+04  8.271605E+03  4.590535E+03  4.831846E+03
       210   3 -3.893943E+05 -2.916141E+04 -3.483798E+04  1.263499E+04  7.660545E+03  5.665433E+03
       210   4 -2.787828E+05  1.537476E+02 -3.321099E+03  1.195254E+04  2.572313E+03  3.803713E+03
       210   5 -2.783143E+05  7.280680E+01 -5.757046E+03  8.174020E+03  5.459411E+03  4.832725E+03
       210   6 -2.787846E+05 -2.189856E+03 -1.062275E+04  1.195505E+04  8.346817E+03  5.666067E+03
       210   7 -2.055893E+05  1.799507E+04  1.266636E+04  1.243732E+04  3.624005E+03  3.804847E+03
       210   8 -1.864230E+05  2.246287E+04  1.428033E+04  8.076418E+03  6.328413E+03  4.833604E+03
       210   9 -1.681634E+05  2.478088E+04  1.359173E+04  1.127497E+04  9.033210E+03  5.666701E+03
       210  10 -3.519714E+05 -1.768795E+04 -1.930890E+04  1.146781E+04 -1.440012E-08 -1.928592E-09
       210  11 -3.701976E+05 -2.231785E+04 -2.579501E+04  8.271587E+03  1.523199E-09 -1.107934E-09
       210  12 -3.893943E+05 -2.916146E+04 -3.483815E+04  1.263496E+04  2.062323E-08 -1.557844E-09
       210  13 -2.787829E+05  1.537303E+02 -3.321139E+03  1.195253E+04 -1.969727E-09 -5.306551E-09
       210  14 -2.783143E+05  7.277372E+01 -5.757145E+03  8.173999E+03 -1.103012E-09 -2.156140E-09
       210  15 -2.787846E+05 -2.189910E+03 -1.062295E+04  1.195501E+04  1.545111E-09 -8.405656E-10
       210  16 -2.055893E+05  1.799505E+04  1.266630E+04  1.243731E+04  1.337082E-08 -3.606638E-09
       210  17 -1.864231E+05  2.246284E+04  1.428021E+04  8.076393E+03 -3.343238E-09 -7.770084E-09
       210  18 -1.681635E+05  2.478083E+04  1.359152E+04  1.127493E+04 -1.845926E-08 -5.725107E-10
       210  19 -3.519714E+05 -1.768793E+04 -1.930887E+04  1.146781E+04 -1.520743E+03 -3.802581E+03
       210  20 -3.701976E+05 -2.231782E+04 -2.579493E+04  8.271605E+03 -4.590535E+03 -4.831846E+03
       210  21 -3.893943E+05 -2.916141E+04 -3.483798E+04  1.263499E+04 -7.660545E+03 -5.665433E+03
       210  22 -2.787828E+05  1.537476E+02 -3.321099E+03  1.195254E+04 -2.572313E+03 -3.803713E+03
       210  23 -2.783143E+05  7.280680E+01 -5.757046E+03  8.174020E+03 -5.459411E+03 -4.832725E+03
       210  24 -2.787846E+05 -2.189856E+03 -1.062275E+04  1.195505E+04 -8.346817E+03 -5.666067E+03
       210  25 -2.055893E+05  1.799507E+04  1.266636E+04  1.243732E+04 -3.624005E+03 -3.804847E+03
       210  26 -1.864230E+05  2.246287E+04  1.428033E+04  8.076418E+03 -6.328413E+03 -4.833604E+03
       210  27 -1.681634E+05  2.478088E+04  1.359173E+04  1.127497E+04 -9.033210E+03 -5.666701E+03
       211   1 -4.068632E+05 -2.863198E+04 -4.078795E+04  5.844607E+03  8.304262E+03  6.654469E+03
       211   2 -4.195264E+05 -3.545683E+04 -5.493523E+04  1.524640E+04  2.446672E+04  6.566184E+03
       211   3 -4.443236E+05 -8.234499E+04 -8.962760E+04  3.202058E+04  4.063234E+04  2.144100E+03
       211   4 -2.811153E+05  2.022563E+03 -1.338529E+04  1.190145E+04  1.023505E+04  6.656427E+03
       211   5 -2.754049E+05 -2.267709E+02 -2.288033E+04  8.236028E+03  2.234507E+04  6.563726E+03
       211   6 -2.811227E+05 -4.183118E+04 -5.010242E+04  1.194366E+04  3.445892E+04  2.136996E+03
       211   7 -1.553524E+05  3.267620E+04  1.401645E+04  1.795952E+04  1.216622E+04  6.658423E+03
       211   8 -1.312639E+05  3.500207E+04  9.173316E+03  1.224005E+03  2.022294E+04  6.561316E+03
       211   9 -1.178964E+05 -1.317771E+03 -1.057880E+04 -8.138576E+03  2.828387E+04  2.130293E+03
       211  10 -4.068633E+05 -2.863205E+04 -4.078816E+04  5.844563E+03  2.395412E-08  1.499978E-09
       211  11 -4.195271E+05 -3.545703E+04 -5.493644E+04  1.524627E+04  3.844757E-09  3.222727E-09
       211  12 -4.443254E+05 -8.234544E+04 -8.963071E+04  3.202051E+04 -1.266873E-08  3.302370E-09
       211  13 -2.811154E+05  2.022487E+03 -1.338557E+04  1.190139E+04  1.081038E-09  6.740508E-10
       211  14 -2.754055E+05 -2.269513E+02 -2.288135E+04  8.235910E+03 -8.057025E-10  3.756701E-09
       211  15 -2.811239E+05 -4.183150E+04 -5.010466E+04  1.194360E+04 -1.395262E-09  1.415547E-09
       211  16 -1.553526E+05  3.267611E+04  1.401609E+04  1.795946E+04 -2.281856E-08  1.502242E-09
       211  17 -1.312644E+05  3.500191E+04  9.172466E+03  1.223898E+03 -5.168920E-09  4.282100E-09
       211  18 -1.178973E+05 -1.317991E+03 -1.058031E+04 -8.138624E+03  1.383139E-08  6.226694E-10
       211  19 -4.068632E+05 -2.863198E+04 -4.078795E+04  5.844607E+03 -8.304262E+03 -6.654469E+03
       211  20 -4.195264E+05 -3.545683E+04 -5.493523E+04  1.524640E+04 -2.446672E+04 -6.566184E+03
       211  21 -4.443236E+05 -8.234499E+04 -8.962760E+04  3.202058E+04 -4.063234E+04 -2.144100E+03
       211  22 -2.811153E+05  2.022563E+03 -1.338529E+04  1.190145E+04 -1.023505E+04 -6.656427E+03
       211  23 -2.754049E+05 -2.267709E+02 -2.288033E+04  8.236028E+03 -2.234507E+04 -6.563726E+03
       211  24 -2.811227E+05 -4.183118E+04 -5.010242E+04  1.194366E+04 -3.445892E+04 -2.136996E+03
       211  25 -1.553524E+05  3.267620E+04  1.401645E+04  1.795952E+04 -1.216622E+04 -6.658423E+03
       211  26 -1.312639E+05  3.500207E+04  9.173316E+03  1.224005E+03 -2.022294E+04 -6.561316E+03
       211  27 -1.178964E+05 -1.317771E+03 -1.057880E+04 -8.138576E+03 -2.828387E+04 -2.130293E+03

 stresses (elem, integ.pnt.,sxx,syy,szz,sxy,sxz,syz) for set ELALL and time  0.7500000E+00

         1   1  2.223357E+06  8.150095E+06  2.111331E+06 -1.505966E+06  1.037916E+05  7.884461E+05
         1   2  1.797251E+06  6.952321E+06  1.432331E+06 -1.379916E+06  3.473682E+05  3.585295E+05
         1   3  1.488554E+06  5.843578E+06  1.061070E+06 -1.446012E+06  4.037965E+05 -7.032657E+04
         1   4  9.165897E+04 -5.333976E+05  9.692116E+04 -1.425798E+06  1.058971E+05  6.349468E+04
         1   5  2.819178E+04 -5.398849E+05  5.128218E+04 -1.329886E+06  3.489112E+05  3.862044E+04
         1   6  1.301597E+04 -5.278305E+05  3.443547E+04 -1.426107E+06  4.037769E+05  1.390314E+04
         1   7 -2.045038E+06 -9.146700E+06 -1.920603E+06 -1.346631E+06  1.078411E+05 -6.514928E+05
         1   8 -1.744000E+06 -7.977804E+06 -1.331721E+06 -1.280373E+06  3.504169E+05 -2.775628E+05
         1   9 -1.464564E+06 -6.859158E+06 -9.932766E+05 -1.406326E+06  4.037622E+05  9.730460E+04
         1  10  2.223181E+06  8.149431E+06  2.110157E+06 -1.506032E+06 -1.475846E-09  4.416375E-09
         1  11  1.797087E+06  6.952151E+06  1.431864E+06 -1.380016E+06  2.273370E-10 -9.784084E-10
         1  12  1.488378E+06  5.843529E+06  1.060754E+06 -1.445989E+06 -3.845017E-09 -7.219212E-09
         1  13  9.164583E+04 -5.334049E+05  9.689244E+04 -1.425803E+06  6.871981E-10  1.003927E-10
         1  14  2.806065E+04 -5.399192E+05  5.105053E+04 -1.329897E+06  3.420712E-09  7.927476E-11
         1  15  1.284088E+04 -5.278745E+05  3.412875E+04 -1.426112E+06 -1.795378E-09  8.973514E-11
         1  16 -2.045166E+06 -9.147164E+06 -1.921433E+06 -1.346574E+06 -4.082566E-10 -4.409486E-09
         1  17 -1.744153E+06 -7.977920E+06 -1.332097E+06 -1.280294E+06 -1.997968E-09  1.118490E-09
         1  18 -1.464741E+06 -6.859212E+06 -9.936012E+05 -1.406358E+06 -6.654654E-10  7.036320E-09
         1  19  2.223357E+06  8.150095E+06  2.111331E+06 -1.505966E+06 -1.037916E+05 -7.884461E+05
         1  20  1.797251E+06  6.952321E+06  1.432331E+06 -1.379916E+06 -3.473682E+05 -3.585295E+05
         1  21  1.488554E+06  5.843578E+06  1.061070E+06 -1.446012E+06 -4.037965E+05  7.032657E+04
         1  22  9.165897E+04 -5.333976E+05  9.692116E+04 -1.425798E+06 -1.058971E+05 -6.349468E+04
         1  23  2.819178E+04 -5.398849E+05  5.128218E+04 -1.329886E+06 -3.489112E+05 -3.862044E+04
         1  24  1.301597E+04 -5.278305E+05  3.443547E+04 -1.426107E+06 -4.037769E+05 -1.390314E+04
         1  25 -2.045038E+06 -9.146700E+06 -1.920603E+06 -1.346631E+06 -1.078411E+05  6.514928E+05
         1  26 -1.744000E+06 -7.977804E+06 -1.331721E+06 -1.280373E+06 -3.504169E+05  2.775628E+05
         1  27 -1.464564E+06 -6.859158E+06 -9.932766E+05 -1.406326E+06 -4.037622E+05 -9.730460E+04
         2   1  1.315246E+06  5.107535E+06  9.166565E+05 -1.452728E+06  3.738059E+05 -7.738437E+04
         2   2  1.041694E+06  3.948643E+06  6.997978E+05 -1.341875E+06  3.229786E+05 -1.406898E+05
         2   3  7.883556E+05  2.804090E+06  5.289336E+05 -1.436682E+06  2.498372E+05 -2.041295E+05
         2   4  1.371232E+04 -5.292899E+05  3.062720E+04 -1.429128E+06  3.736686E+05  8.611658E+03
         2   5  1.394416E+04 -5.299382E+05  3.046319E+04 -1.326238E+06  3.224167E+05 -6.684236E+03
         2   6  2.619340E+04 -5.258236E+05  4.313340E+04 -1.429094E+06  2.487673E+05 -2.222454E+04
         2   7 -1.289383E+06 -6.134591E+06 -8.561564E+05 -1.405677E+06  3.735367E+05  9.386034E+04
         2   8 -1.014742E+06 -4.988414E+06 -6.391939E+05 -1.310671E+06  3.218587E+05  1.263981E+05
         2   9 -7.364631E+05 -3.844520E+06 -4.427310E+05 -1.421520E+06  2.476978E+05  1.587488E+05
         2  10  1.315094E+06  5.107491E+06  9.163831E+05 -1.452705E+06 -8.129430E-10  7.777805E-09
         2  11  1.041577E+06  3.948594E+06  6.995653E+05 -1.341839E+06  5.056591E-09  4.293887E-09
         2  12  7.882777E+05  2.804029E+06  5.287390E+05 -1.436641E+06  2.643268E-09  4.348328E-10
         2  13  1.356240E+04 -5.293274E+05  3.036471E+04 -1.429131E+06 -4.773925E-10  1.874583E-10
         2  14  1.383257E+04 -5.299661E+05  3.026783E+04 -1.326237E+06 -1.613414E-09  1.329986E-10
         2  15  2.612686E+04 -5.258407E+05  4.301627E+04 -1.429090E+06  1.160168E-09  3.268655E-10
         2  16 -1.289536E+06 -6.134638E+06 -8.564356E+05 -1.405705E+06  3.446230E-10 -7.611697E-09
         2  17 -1.014858E+06 -4.988459E+06 -6.394192E+05 -1.310704E+06  8.810108E-09 -4.300761E-09
         2  18 -7.365359E+05 -3.844564E+06 -4.428943E+05 -1.421552E+06 -4.147408E-11 -5.417968E-10
         2  19  1.315246E+06  5.107535E+06  9.166565E+05 -1.452728E+06 -3.738059E+05  7.738437E+04
         2  20  1.041694E+06  3.948643E+06  6.997978E+05 -1.341875E+06 -3.229786E+05  1.406898E+05
         2  21  7.883556E+05  2.804090E+06  5.289336E+05 -1.436682E+06 -2.498372E+05  2.041295E+05
         2  22  1.371232E+04 -5.292899E+05  3.062720E+04 -1.429128E+06 -3.736686E+05 -8.611658E+03
         2  23  1.394416E+04 -5.299382E+05  3.046319E+04 -1.326238E+06 -3.224167E+05  6.684236E+03
         2  24  2.619340E+04 -5.258236E+05  4.313340E+04 -1.429094E+06 -2.487673E+05  2.222454E+04
         2  25 -1.289383E+06 -6.134591E+06 -8.561564E+05 -1.405677E+06 -3.735367E+05 -9.386034E+04
         2  26 -1.014742E+06 -4.988414E+06 -6.391939E+05 -1.310671E+06 -3.218587E+05 -1.263981E+05
         2  27 -7.364631E+05 -3.844520E+06 -4.427310E+05 -1.421520E+06 -2.476978E+05 -1.587488E+05
         3   1  6.268810E+05  2.086840E+06  4.296471E+05 -1.440335E+06  1.996156E+05 -2.118558E+05
         3   2  4.008428E+05  9.244366E+05  3.009338E+05 -1.274696E+06  1.143264E+05 -2.626053E+05
         3   3  2.562011E+05 -2.115761E+05  2.250313E+05 -1.316236E+06  2.778320E+04 -3.133534E+05
         3   4  3.071355E+04 -5.206352E+05  5.391961E+04 -1.429461E+06  1.984482E+05 -2.982999E+04
         3   5  6.895349E+04 -5.322936E+05  9.335626E+04 -1.325473E+06  1.130849E+05 -7.800497E+04
         3   6  1.882248E+05 -5.194539E+05  1.837187E+05 -1.428577E+06  2.647647E+04 -1.262582E+05
         3   7 -5.657467E+05 -3.121188E+06 -3.217905E+05 -1.418617E+06  1.972836E+05  1.514657E+05
         3   8 -2.630024E+05 -1.986799E+06 -1.141225E+05 -1.376120E+06  1.118112E+05  1.061815E+05
         3   9  1.203115E+05 -8.271320E+05  1.425438E+05 -1.540860E+06  2.510154E+04  6.074844E+04
         3  10  6.268263E+05  2.086781E+06  4.294887E+05 -1.440301E+06  2.063788E-09 -5.643984E-09
         3  11  4.008104E+05  9.243592E+05  3.007801E+05 -1.274672E+06 -2.396170E-09 -1.948350E-09
         3  12  2.561739E+05 -2.116818E+05  2.248454E+05 -1.316229E+06 -2.289244E-10  2.284201E-09
         3  13  3.067106E+04 -5.206467E+05  5.384402E+04 -1.429456E+06  4.015930E-09  3.437093E-10
         3  14  6.893816E+04 -5.323035E+05  9.332089E+04 -1.325466E+06  8.135642E-09  2.665839E-10
         3  15  1.882198E+05 -5.194712E+05  1.836874E+05 -1.428574E+06  6.322457E-09  7.480564E-11
         3  16 -5.657947E+05 -3.121223E+06 -3.219073E+05 -1.418641E+06 -5.540126E-10  6.414213E-09
         3  17 -2.630189E+05 -1.986815E+06 -1.141674E+05 -1.376129E+06 -1.773448E-09  2.214011E-09
         3  18  1.203098E+05 -8.271362E+05  1.425357E+05 -1.540861E+06  1.216009E-09 -2.307528E-09
         3  19  6.268810E+05  2.086840E+06  4.296471E+05 -1.440335E+06 -1.996156E+05  2.118558E+05
         3  20  4.008428E+05  9.244366E+05  3.009338E+05 -1.274696E+06 -1.143264E+05  2.626053E+05
         3  21  2.562011E+05 -2.115761E+05  2.250313E+05 -1.316236E+06 -2.778320E+04  3.133534E+05
         3  22  3.071355E+04 -5.206352E+05  5.391961E+04 -1.429461E+06 -1.984482E+05  2.982999E+04
         3  23  6.895349E+04 -5.322936E+05  9.335626E+04 -1.325473E+06 -1.130849E+05  7.800497E+04
         3  24  1.882248E+05 -5.194539E+05  1.837187E+05 -1.428577E+06 -2.647647E+04  1.262582E+05
         3  25 -5.657467E+05 -3.121188E+06 -3.217905E+05 -1.418617E+06 -1.972836E+05 -1.514657E+05
         3  26 -2.630024E+05 -1.986799E+06 -1.141225E+05 -1.376120E+06 -1.118112E+05 -1.061815E+05
         3  27  1.203115E+05 -8.271320E+05  1.425438E+05 -1.540860E+06 -2.510154E+04 -6.074844E+04
         4   1 -7.280042E+06 -2.249789E+06 -1.544798E+06 -2.428330E+06 -7.760766E+05 -2.819404E+05
         4   2 -7.021617E+06 -1.082169E+06 -8.045842E+05 -2.603805E+06 -5.026754E+05 -1.637136E+05
         4   3 -7.170798E+06 -1.199472E+06 -6.029011E+05 -2.552274E+06 -2.220026E+05 -6.491258E+04
         4   4 -6.191842E+06 -1.707900E+06 -1.217590E+06 -2.000559E+06 -7.717989E+05 -2.805462E+05
         4   5 -5.927245E+06 -6.360664E+05 -4.976691E+05 -2.274374E+06 -5.022780E+05 -1.636028E+05
         4   6 -6.068653E+06 -8.470934E+05 -3.124239E+05 -2.321418E+06 -2.254890E+05 -6.617865E+04
         4   7 -5.102446E+06 -1.165660E+06 -8.905019E+05 -1.572017E+06 -7.675118E+05 -2.791458E+05
         4   8 -4.831708E+06 -1.898414E+05 -1.908682E+05 -1.944394E+06 -5.018791E+05 -1.634912E+05
         4   9 -4.965330E+06 -4.947234E+05 -2.204641E+04 -2.090225E+06 -2.289819E+05 -6.744630E+04
         4  10 -7.280717E+06 -2.250040E+06 -1.546097E+06 -2.428508E+06  6.068238E-10 -3.602985E-12
         4  11 -7.021898E+06 -1.082267E+06 -8.051163E+05 -2.603872E+06 -3.396017E-10  1.448916E-09
         4  12 -7.170853E+06 -1.199490E+06 -6.030030E+05 -2.552286E+06  1.681382E-09 -9.153588E-10
         4  13 -6.192509E+06 -1.708147E+06 -1.218872E+06 -2.000735E+06 -4.294654E-09  6.972945E-10
         4  14 -5.927525E+06 -6.361641E+05 -4.981994E+05 -2.274441E+06  1.457694E-09  1.162805E-09
         4  15 -6.068709E+06 -8.471120E+05 -3.125289E+05 -2.321430E+06  6.144284E-10  6.333099E-10
         4  16 -5.103104E+06 -1.165904E+06 -8.917667E+05 -1.572190E+06 -5.264167E-09  8.421398E-10
         4  17 -4.831988E+06 -1.899388E+05 -1.913966E+05 -1.944460E+06 -1.757570E-09  2.296072E-09
         4  18 -4.965388E+06 -4.947425E+05 -2.215450E+04 -2.090238E+06  1.729155E-09  1.921435E-09
         4  19 -7.280042E+06 -2.249789E+06 -1.544798E+06 -2.428330E+06  7.760766E+05  2.819404E+05
         4  20 -7.021617E+06 -1.082169E+06 -8.045842E+05 -2.603805E+06  5.026754E+05  1.637136E+05
         4  21 -7.170798E+06 -1.199472E+06 -6.029011E+05 -2.552274E+06  2.220026E+05  6.491258E+04
         4  22 -6.191842E+06 -1.707900E+06 -1.217590E+06 -2.000559E+06  7.717989E+05  2.805462E+05
         4  23 -5.927245E+06 -6.360664E+05 -4.976691E+05 -2.274374E+06  5.022780E+05  1.636028E+05
         4  24 -6.068653E+06 -8.470934E+05 -3.124239E+05 -2.321418E+06  2.254890E+05  6.617865E+04
         4  25 -5.102446E+06 -1.165660E+06 -8.905019E+05 -1.572017E+06  7.675118E+05  2.791458E+05
         4  26 -4.831708E+06 -1.898414E+05 -1.908682E+05 -1.944394E+06  5.018791E+05  1.634912E+05
         4  27 -4.965330E+06 -4.947234E+05 -2.204641E+04 -2.090225E+06  2.289819E+05  6.744630E+04
         5   1 -6.605699E+06 -1.247160E+06 -4.235957E+05 -2.440332E+06 -1.767337E+05 -5.366165E+04
         5   2 -6.519753E+06 -9.631529E+05 -2.478356E+05 -2.350596E+06 -1.132821E+05 -3.249446E+04
         5   3 -6.353701E+06 -1.007214E+06 -1.666637E+05 -2.395052E+06 -4.851802E+04 -1.485932E+04
         5   4 -6.012735E+06 -1.006909E+06 -2.574949E+05 -2.263225E+06 -1.769015E+05 -5.373083E+04
         5   5 -6.044132E+06 -7.805971E+05 -1.166599E+05 -2.219089E+06 -1.141780E+05 -3.282643E+04
         5   6 -5.995229E+06 -8.821096E+05 -6.975419E+04 -2.309154E+06 -5.015551E+04 -1.546110E+04
         5   7 -5.419429E+06 -7.666235E+05 -9.142754E+04 -2.085957E+06 -1.770694E+05 -5.380006E+04
         5   8 -5.568292E+06 -5.980268E+05  1.449466E+04 -2.087489E+06 -1.150745E+05 -3.315869E+04
         5   9 -5.636634E+06 -7.570032E+05  2.714374E+04 -2.223213E+06 -5.179404E+04 -1.606320E+04
         5  10 -6.605734E+06 -1.247172E+06 -4.236606E+05 -2.440340E+06  3.902674E-09 -2.439788E-09
         5  11 -6.519767E+06 -9.631576E+05 -2.478620E+05 -2.350599E+06  1.049695E-09 -9.457577E-10
         5  12 -6.353704E+06 -1.007215E+06 -1.666686E+05 -2.395053E+06 -3.448763E-09 -1.421633E-09
         5  13 -6.012769E+06 -1.006921E+06 -2.575599E+05 -2.263232E+06  4.433276E-09 -5.169840E-10
         5  14 -6.044146E+06 -7.806018E+05 -1.166867E+05 -2.219092E+06  5.204417E-09 -2.470098E-09
         5  15 -5.995232E+06 -8.821105E+05 -6.975943E+04 -2.309155E+06  4.180447E-09 -2.169867E-09
         5  16 -5.419463E+06 -7.666352E+05 -9.149255E+04 -2.085965E+06  1.670177E-09 -8.956973E-10
         5  17 -5.568307E+06 -5.980316E+05  1.446743E+04 -2.087492E+06 -2.471165E-09 -5.955037E-09
         5  18 -5.636637E+06 -7.570042E+05  2.713815E+04 -2.223214E+06  5.582136E-09 -1.483206E-09
         5  19 -6.605699E+06 -1.247160E+06 -4.235957E+05 -2.440332E+06  1.767337E+05  5.366165E+04
         5  20 -6.519753E+06 -9.631529E+05 -2.478356E+05 -2.350596E+06  1.132821E+05  3.249446E+04
         5  21 -6.353701E+06 -1.007214E+06 -1.666637E+05 -2.395052E+06  4.851802E+04  1.485932E+04
         5  22 -6.012735E+06 -1.006909E+06 -2.574949E+05 -2.263225E+06  1.769015E+05  5.373083E+04
         5  23 -6.044132E+06 -7.805971E+05 -1.166599E+05 -2.219089E+06  1.141780E+05  3.282643E+04
         5  24 -5.995229E+06 -8.821096E+05 -6.975419E+04 -2.309154E+06  5.015551E+04  1.546110E+04
         5  25 -5.419429E+06 -7.666235E+05 -9.142754E+04 -2.085957E+06  1.770694E+05  5.380006E+04
         5  26 -5.568292E+06 -5.980268E+05  1.449466E+04 -2.087489E+06  1.150745E+05  3.315869E+04
         5  27 -5.636634E+06 -7.570032E+05  2.714374E+04 -2.223213E+06  5.179404E+04  1.606320E+04
         6   1 -5.729641E+06 -8.090881E+05  1.513476E+04 -2.232731E+06 -3.719720E+04 -1.510642E+04
         6   2 -5.672132E+06 -6.587857E+05  7.889624E+04 -2.110578E+06 -2.138765E+04 -1.507744E+04
         6   3 -5.468417E+06 -6.910073E+05  1.254014E+05 -2.165504E+06 -5.860138E+03 -1.424983E+04
         6   4 -5.987965E+06 -9.033670E+05 -5.561034E+04 -2.298965E+06 -3.840717E+04 -1.555183E+04
         6   5 -6.059814E+06 -8.034943E+05 -2.720279E+04 -2.213550E+06 -2.242533E+04 -1.546038E+04
         6   6 -5.985501E+06 -8.861961E+05 -1.618975E+04 -2.305226E+06 -6.728846E+03 -1.457130E+04
         6   7 -6.246226E+06 -9.976436E+05 -1.263617E+05 -2.365174E+06 -3.961658E+04 -1.599705E+04
         6   8 -6.447352E+06 -9.481957E+05 -1.333158E+05 -2.316463E+06 -2.346229E+04 -1.584306E+04
         6   9 -6.502328E+06 -1.081370E+06 -1.578055E+05 -2.444843E+06 -7.596749E+03 -1.489247E+04
         6  10 -5.729643E+06 -8.090887E+05  1.513170E+04 -2.232732E+06 -5.066364E-09 -2.015495E-09
         6  11 -5.672133E+06 -6.587860E+05  7.889494E+04 -2.110578E+06 -4.048944E-09 -8.500146E-10
         6  12 -5.468417E+06 -6.910076E+05  1.254009E+05 -2.165504E+06 -3.717774E-09  3.129451E-09
         6  13 -5.987967E+06 -9.033677E+05 -5.561360E+04 -2.298965E+06  5.487286E-09 -1.085185E-09
         6  14 -6.059815E+06 -8.034947E+05 -2.720420E+04 -2.213550E+06  3.009060E-09 -1.339439E-09
         6  15 -5.985501E+06 -8.861963E+05 -1.619024E+04 -2.305226E+06 -3.878084E-10  2.097296E-09
         6  16 -6.246228E+06 -9.976443E+05 -1.263652E+05 -2.365174E+06  8.468091E-09 -8.483673E-10
         6  17 -6.447352E+06 -9.481961E+05 -1.333173E+05 -2.316464E+06  4.746401E-09  1.939427E-10
         6  18 -6.502328E+06 -1.081370E+06 -1.578061E+05 -2.444843E+06  1.938101E-09  6.779389E-10
         6  19 -5.729641E+06 -8.090881E+05  1.513476E+04 -2.232731E+06  3.719720E+04  1.510642E+04
         6  20 -5.672132E+06 -6.587857E+05  7.889624E+04 -2.110578E+06  2.138765E+04  1.507744E+04
         6  21 -5.468417E+06 -6.910073E+05  1.254014E+05 -2.165504E+06  5.860138E+03  1.424983E+04
         6  22 -5.987965E+06 -9.033670E+05 -5.561034E+04 -2.298965E+06  3.840717E+04  1.555183E+04
         6  23 -6.059814E+06 -8.034943E+05 -2.720279E+04 -2.213550E+06  2.242533E+04  1.546038E+04
         6  24 -5.985501E+06 -8.861961E+05 -1.618975E+04 -2.305226E+06  6.728846E+03  1.457130E+04
         6  25 -6.246226E+06 -9.976436E+05 -1.263617E+05 -2.365174E+06  3.961658E+04  1.599705E+04
         6  26 -6.447352E+06 -9.481957E+05 -1.333158E+05 -2.316463E+06  2.346229E+04  1.584306E+04
         6  27 -6.502328E+06 -1.081370E+06 -1.578055E+05 -2.444843E+06  7.596749E+03  1.489247E+04
         7   1 -4.999545E+06 -4.983717E+05  2.616166E+05 -2.018322E+06 -2.123852E+03 -1.612117E+04
         7   2 -4.974103E+06 -4.235456E+05  2.857071E+05 -1.947839E+06  2.673687E+03 -1.905293E+04
         7   3 -4.855034E+06 -4.395287E+05  3.080474E+05 -1.976465E+06  6.400223E+03 -1.906688E+04
         7   4 -5.998416E+06 -8.728925E+05 -1.244531E+04 -2.285407E+06 -3.361872E+03 -1.658107E+04
         7   5 -6.045031E+06 -8.267524E+05 -7.944301E+03 -2.236072E+06  2.080845E+03 -1.927590E+04
         7   6 -5.998154E+06 -8.715711E+05 -5.711995E+03 -2.285860E+06  6.451243E+03 -1.905062E+04
         7   7 -6.996323E+06 -1.247360E+06 -2.865979E+05 -2.552102E+06 -4.597670E+03 -1.704015E+04
         7   8 -7.114851E+06 -1.229897E+06 -3.017005E+05 -2.523854E+06  1.489146E+03 -1.949845E+04
         7   9 -7.140014E+06 -1.303541E+06 -3.195915E+05 -2.594738E+06  6.502163E+03 -1.903440E+04
         7  10 -4.999545E+06 -4.983720E+05  2.616161E+05 -2.018322E+06 -8.577641E-10  4.288721E-09
         7  11 -4.974103E+06 -4.235459E+05  2.857064E+05 -1.947839E+06  2.463579E-09  3.937158E-09
         7  12 -4.855034E+06 -4.395291E+05  3.080466E+05 -1.976465E+06  1.326370E-10  5.047544E-10
         7  13 -5.998416E+06 -8.728928E+05 -1.244585E+04 -2.285407E+06  3.515582E-09  3.184100E-09
         7  14 -6.045031E+06 -8.267528E+05 -7.945006E+03 -2.236072E+06 -1.423169E-09  5.191171E-10
         7  15 -5.998154E+06 -8.715715E+05 -5.712753E+03 -2.285860E+06 -2.099749E-09 -2.589566E-11
         7  16 -6.996323E+06 -1.247361E+06 -2.865985E+05 -2.552102E+06  4.838939E-10 -2.020669E-10
         7  17 -7.114851E+06 -1.229897E+06 -3.017012E+05 -2.523854E+06 -9.046725E-09 -8.140207E-10
         7  18 -7.140014E+06 -1.303541E+06 -3.195922E+05 -2.594738E+06  9.157008E-10  1.500982E-10
         7  19 -4.999545E+06 -4.983717E+05  2.616166E+05 -2.018322E+06  2.123852E+03  1.612117E+04
         7  20 -4.974103E+06 -4.235456E+05  2.857071E+05 -1.947839E+06 -2.673687E+03  1.905293E+04
         7  21 -4.855034E+06 -4.395287E+05  3.080474E+05 -1.976465E+06 -6.400223E+03  1.906688E+04
         7  22 -5.998416E+06 -8.728925E+05 -1.244531E+04 -2.285407E+06  3.361872E+03  1.658107E+04
         7  23 -6.045031E+06 -8.267524E+05 -7.944301E+03 -2.236072E+06 -2.080845E+03  1.927590E+04
         7  24 -5.998154E+06 -8.715711E+05 -5.711995E+03 -2.285860E+06 -6.451243E+03  1.905062E+04
         7  25 -6.996323E+06 -1.247360E+06 -2.865979E+05 -2.552102E+06  4.597670E+03  1.704015E+04
         7  26 -7.114851E+06 -1.229897E+06 -3.017005E+05 -2.523854E+06 -1.489146E+03  1.949845E+04
         7  27 -7.140014E+06 -1.303541E+06 -3.195915E+05 -2.594738E+06 -6.502163E+03  1.903440E+04
         8   1 -4.750157E+06 -3.654304E+05  3.439702E+05 -1.912709E+06  8.162066E+03 -1.927014E+04
         8   2 -4.763014E+06 -3.822513E+05  3.363467E+05 -1.930361E+06  1.156796E+04 -1.917453E+04
         8   3 -4.790181E+06 -3.778951E+05  3.279731E+05 -1.918501E+06  1.368024E+04 -1.565987E+04
         8   4 -6.022232E+06 -8.465756E+05 -5.451325E+03 -2.257364E+06  7.549565E+03 -1.950309E+04
         8   5 -6.015130E+06 -8.579431E+05 -7.803079E+03 -2.271803E+06  1.171239E+04 -1.912343E+04
         8   6 -6.022510E+06 -8.482952E+05 -1.151498E+04 -2.256727E+06  1.458046E+04 -1.532134E+04
         8   7 -7.292742E+06 -1.327629E+06 -3.550210E+05 -2.601378E+06  6.938461E+03 -1.973553E+04
         8   8 -7.265732E+06 -1.333544E+06 -3.520970E+05 -2.612619E+06  1.185650E+04 -1.907247E+04
         8   9 -7.253373E+06 -1.318605E+06 -3.511437E+05 -2.594342E+06  1.547867E+04 -1.498358E+04
         8  10 -4.750157E+06 -3.654308E+05  3.439694E+05 -1.912709E+06  2.886817E-09 -1.057650E-09
         8  11 -4.763015E+06 -3.822517E+05  3.363457E+05 -1.930361E+06  4.735499E-09  1.424387E-10
         8  12 -4.790181E+06 -3.778954E+05  3.279722E+05 -1.918501E+06  6.376350E-11 -1.480651E-09
         8  13 -6.022232E+06 -8.465760E+05 -5.452144E+03 -2.257364E+06  1.784616E-10 -8.219281E-11
         8  14 -6.015131E+06 -8.579435E+05 -7.804021E+03 -2.271803E+06 -3.310009E-09 -2.040156E-09
         8  15 -6.022510E+06 -8.482955E+05 -1.151582E+04 -2.256727E+06  5.260543E-09 -1.781146E-09
         8  16 -7.292742E+06 -1.327630E+06 -3.550219E+05 -2.601378E+06 -1.871612E-09  5.239686E-10
         8  17 -7.265732E+06 -1.333544E+06 -3.520980E+05 -2.612619E+06  5.992369E-09  1.407497E-09
         8  18 -7.253374E+06 -1.318605E+06 -3.511446E+05 -2.594342E+06 -1.122642E-09 -4.064594E-09
         8  19 -4.750157E+06 -3.654304E+05  3.439702E+05 -1.912709E+06 -8.162066E+03  1.927014E+04
         8  20 -4.763014E+06 -3.822513E+05  3.363467E+05 -1.930361E+06 -1.156796E+04  1.917453E+04
         8  21 -4.790181E+06 -3.778951E+05  3.279731E+05 -1.918501E+06 -1.368024E+04  1.565987E+04
         8  22 -6.022232E+06 -8.465756E+05 -5.451325E+03 -2.257364E+06 -7.549565E+03  1.950309E+04
         8  23 -6.015130E+06 -8.579431E+05 -7.803079E+03 -2.271803E+06 -1.171239E+04  1.912343E+04
         8  24 -6.022510E+06 -8.482952E+05 -1.151498E+04 -2.256727E+06 -1.458046E+04  1.532134E+04
         8  25 -7.292742E+06 -1.327629E+06 -3.550210E+05 -2.601378E+06 -6.938461E+03  1.973553E+04
         8  26 -7.265732E+06 -1.333544E+06 -3.520970E+05 -2.612619E+06 -1.185650E+04  1.907247E+04
         8  27 -7.253373E+06 -1.318605E+06 -3.511437E+05 -2.594342E+06 -1.547867E+04  1.498358E+04
         9   1 -5.095451E+06 -4.614106E+05  2.467356E+05 -1.972736E+06  1.568834E+04 -1.296083E+04
         9   2 -5.134121E+06 -5.569335E+05  2.084564E+05 -2.069054E+06  2.734191E+04 -5.550142E+03
         9   3 -5.303767E+06 -5.500865E+05  1.553797E+05 -2.018376E+06  3.816871E+04  3.978940E+03
         9   4 -6.047267E+06 -8.237417E+05 -1.492157E+04 -2.233005E+06  1.602175E+04 -1.283601E+04
         9   5 -5.982918E+06 -8.825302E+05 -2.551904E+04 -2.303611E+06  2.813168E+04 -5.250123E+03
         9   6 -6.049674E+06 -8.390518E+05 -5.129374E+04 -2.227209E+06  3.941657E+04  4.456349E+03
         9   7 -6.998206E+06 -1.186020E+06 -2.766621E+05 -2.492912E+06  1.635459E+04 -1.271141E+04
         9   8 -6.831016E+06 -1.208082E+06 -2.595609E+05 -2.537876E+06  2.892022E+04 -4.950574E+03
         9   9 -6.795042E+06 -1.127979E+06 -2.580188E+05 -2.435812E+06  4.066274E+04  4.933095E+03
         9  10 -5.095452E+06 -4.614108E+05  2.467349E+05 -1.972736E+06  3.196629E-09 -2.275581E-09
         9  11 -5.134122E+06 -5.569337E+05  2.084549E+05 -2.069054E+06  4.076421E-09 -2.937345E-09
         9  12 -5.303768E+06 -5.500869E+05  1.553769E+05 -2.018376E+06  7.394415E-09 -4.949559E-09
         9  13 -6.047267E+06 -8.237420E+05 -1.492236E+04 -2.233005E+06  1.736667E-09 -3.171158E-09
         9  14 -5.982918E+06 -8.825304E+05 -2.552059E+04 -2.303611E+06 -1.462460E-08 -7.435367E-10
         9  15 -6.049676E+06 -8.390522E+05 -5.129672E+04 -2.227209E+06 -1.055320E-08 -2.556859E-09
         9  16 -6.998206E+06 -1.186020E+06 -2.766629E+05 -2.492912E+06  1.370023E-09 -4.411404E-09
         9  17 -6.831017E+06 -1.208082E+06 -2.595626E+05 -2.537876E+06 -5.180266E-09 -3.947674E-09
         9  18 -6.795044E+06 -1.127980E+06 -2.580220E+05 -2.435812E+06 -5.163071E-09 -4.936636E-09
         9  19 -5.095451E+06 -4.614106E+05  2.467356E+05 -1.972736E+06 -1.568834E+04  1.296083E+04
         9  20 -5.134121E+06 -5.569335E+05  2.084564E+05 -2.069054E+06 -2.734191E+04  5.550142E+03
         9  21 -5.303767E+06 -5.500865E+05  1.553797E+05 -2.018376E+06 -3.816871E+04 -3.978940E+03
         9  22 -6.047267E+06 -8.237417E+05 -1.492157E+04 -2.233005E+06 -1.602175E+04  1.283601E+04
         9  23 -5.982918E+06 -8.825302E+05 -2.551904E+04 -2.303611E+06 -2.813168E+04  5.250123E+03
         9  24 -6.049674E+06 -8.390518E+05 -5.129374E+04 -2.227209E+06 -3.941657E+04 -4.456349E+03
         9  25 -6.998206E+06 -1.186020E+06 -2.766621E+05 -2.492912E+06 -1.635459E+04  1.271141E+04
         9  26 -6.831016E+06 -1.208082E+06 -2.595609E+05 -2.537876E+06 -2.892022E+04  4.950574E+03
         9  27 -6.795042E+06 -1.127979E+06 -2.580188E+05 -2.435812E+06 -4.066274E+04 -4.933095E+03
        10   1 -5.870830E+06 -7.450971E+05 -1.304785E+04 -2.182005E+06  4.621612E+04  1.116009E+04
        10   2 -5.905719E+06 -8.487810E+05 -9.336423E+04 -2.302708E+06  1.017312E+05  3.835136E+04
        10   3 -6.179372E+06 -9.450097E+05 -2.613534E+05 -2.193452E+06  1.578603E+05  6.389589E+04
        10   4 -6.066137E+06 -8.113536E+05 -6.475733E+04 -2.227370E+06  4.753630E+04  1.166760E+04
        10   5 -5.955415E+06 -8.720193E+05 -1.079416E+05 -2.320607E+06  1.026817E+05  3.871546E+04
        10   6 -6.083392E+06 -9.251545E+05 -2.384940E+05 -2.183882E+06  1.584563E+05  6.411933E+04
        10   7 -6.261406E+06 -8.776097E+05 -1.164701E+05 -2.272722E+06  4.885602E+04  1.217498E+04
        10   8 -6.005108E+06 -8.952571E+05 -1.225192E+05 -2.338504E+06  1.036322E+05  3.907952E+04
        10   9 -5.987403E+06 -9.052995E+05 -2.156350E+05 -2.174312E+06  1.590523E+05  6.434276E+04
        10  10 -5.870833E+06 -7.450978E+05 -1.305214E+04 -2.182006E+06  2.019802E-09 -3.527133E-09
        10  11 -5.905730E+06 -8.487854E+05 -9.338669E+04 -2.302712E+06 -4.684587E-09 -7.243882E-09
        10  12 -6.179400E+06 -9.450209E+05 -2.614085E+05 -2.193461E+06 -6.189352E-09 -1.453213E-09
        10  13 -6.066139E+06 -8.113543E+05 -6.476188E+04 -2.227370E+06 -2.800400E-09 -3.757459E-09
        10  14 -5.955427E+06 -8.720238E+05 -1.079645E+05 -2.320610E+06 -1.545556E-09 -1.308261E-09
        10  15 -6.083420E+06 -9.251658E+05 -2.385495E+05 -2.183891E+06  2.171240E-09 -1.970449E-09
        10  16 -6.261409E+06 -8.776105E+05 -1.164749E+05 -2.272723E+06 -5.513767E-09 -1.848669E-09
        10  17 -6.005121E+06 -8.952617E+05 -1.225425E+05 -2.338507E+06  2.724040E-09 -2.803597E-09
        10  18 -5.987431E+06 -9.053109E+05 -2.156910E+05 -2.174320E+06  6.828369E-09 -3.801905E-09
        10  19 -5.870830E+06 -7.450971E+05 -1.304785E+04 -2.182005E+06 -4.621612E+04 -1.116009E+04
        10  20 -5.905719E+06 -8.487810E+05 -9.336423E+04 -2.302708E+06 -1.017312E+05 -3.835136E+04
        10  21 -6.179372E+06 -9.450097E+05 -2.613534E+05 -2.193452E+06 -1.578603E+05 -6.389589E+04
        10  22 -6.066137E+06 -8.113536E+05 -6.475733E+04 -2.227370E+06 -4.753630E+04 -1.166760E+04
        10  23 -5.955415E+06 -8.720193E+05 -1.079416E+05 -2.320607E+06 -1.026817E+05 -3.871546E+04
        10  24 -6.083392E+06 -9.251545E+05 -2.384940E+05 -2.183882E+06 -1.584563E+05 -6.411933E+04
        10  25 -6.261406E+06 -8.776097E+05 -1.164701E+05 -2.272722E+06 -4.885602E+04 -1.217498E+04
        10  26 -6.005108E+06 -8.952571E+05 -1.225192E+05 -2.338504E+06 -1.036322E+05 -3.907952E+04
        10  27 -5.987403E+06 -9.052995E+05 -2.156350E+05 -2.174312E+06 -1.590523E+05 -6.434276E+04
        11   1 -6.727528E+06 -1.099503E+06 -4.722217E+05 -2.497334E+06  1.963755E+05  8.476942E+04
        11   2 -6.666193E+06 -9.801607E+05 -6.721515E+05 -2.524320E+06  4.509841E+05  1.890828E+05
        11   3 -7.193271E+06 -1.844171E+06 -1.371336E+06 -2.107609E+06  7.115809E+05  2.776250E+05
        11   4 -6.110317E+06 -8.027704E+05 -2.895312E+05 -2.266965E+06  1.995915E+05  8.602667E+04
        11   5 -5.875604E+06 -7.087142E+05 -4.606552E+05 -2.338042E+06  4.510045E+05  1.890598E+05
        11   6 -6.228129E+06 -1.596508E+06 -1.127939E+06 -1.965534E+06  7.084847E+05  2.762677E+05
        11   7 -5.492726E+06 -5.059448E+05 -1.068790E+05 -2.036364E+06  2.028109E+05  8.728599E+04
        11   8 -5.084411E+06 -4.372588E+05 -2.492131E+05 -2.151560E+06  4.510245E+05  1.890367E+05
        11   9 -5.262067E+06 -1.348875E+06 -8.846058E+05 -1.823316E+06  7.053822E+05  2.749098E+05
        11  10 -6.727572E+06 -1.099521E+06 -4.723088E+05 -2.497348E+06 -6.665037E-10 -2.265071E-09
        11  11 -6.666423E+06 -9.802549E+05 -6.726065E+05 -2.524390E+06  2.487202E-09 -1.286597E-09
        11  12 -7.193841E+06 -1.844393E+06 -1.372446E+06 -2.107769E+06  1.070312E-10 -3.275470E-10
        11  13 -6.110362E+06 -8.027893E+05 -2.896210E+05 -2.266979E+06 -1.781063E-09 -1.003771E-09
        11  14 -5.875834E+06 -7.088082E+05 -4.611096E+05 -2.338111E+06 -3.608750E-10  5.573653E-09
        11  15 -6.228694E+06 -1.596727E+06 -1.129038E+06 -1.965693E+06 -3.371282E-09 -1.288855E-09
        11  16 -5.492772E+06 -5.059642E+05 -1.069715E+05 -2.036379E+06  3.855914E-09 -2.345907E-09
        11  17 -5.084641E+06 -4.373528E+05 -2.496669E+05 -2.151629E+06 -2.122996E-09  4.406452E-09
        11  18 -5.262626E+06 -1.349092E+06 -8.856933E+05 -1.823473E+06 -3.241460E-10  1.459828E-09
        11  19 -6.727528E+06 -1.099503E+06 -4.722217E+05 -2.497334E+06 -1.963755E+05 -8.476942E+04
        11  20 -6.666193E+06 -9.801607E+05 -6.721515E+05 -2.524320E+06 -4.509841E+05 -1.890828E+05
        11  21 -7.193271E+06 -1.844171E+06 -1.371336E+06 -2.107609E+06 -7.115809E+05 -2.776250E+05
        11  22 -6.110317E+06 -8.027704E+05 -2.895312E+05 -2.266965E+06 -1.995915E+05 -8.602667E+04
        11  23 -5.875604E+06 -7.087142E+05 -4.606552E+05 -2.338042E+06 -4.510045E+05 -1.890598E+05
        11  24 -6.228129E+06 -1.596508E+06 -1.127939E+06 -1.965534E+06 -7.084847E+05 -2.762677E+05
        11  25 -5.492726E+06 -5.059448E+05 -1.068790E+05 -2.036364E+06 -2.028109E+05 -8.728599E+04
        11  26 -5.084411E+06 -4.372588E+05 -2.492131E+05 -2.151560E+06 -4.510245E+05 -1.890367E+05
        11  27 -5.262067E+06 -1.348875E+06 -8.846058E+05 -1.823316E+06 -7.053822E+05 -2.749098E+05
        12   1  1.219186E+05 -3.606868E+04  1.282725E+05 -4.348428E+03  1.469772E+03 -7.844836E+02
        12   2  1.194159E+05 -5.385260E+04  1.256757E+05  3.670580E+03  1.630738E+03 -3.880842E+03
        12   3  1.248989E+05 -4.072220E+04  1.327977E+05 -6.519251E+03  1.169091E+03 -6.980852E+03
        12   4  5.542752E+02 -5.214236E+05  6.945438E+03 -4.055820E+03  1.469864E+03 -8.065868E+02
        12   5 -1.374683E+03 -5.368817E+05  4.931194E+03  5.065385E+03  1.630778E+03 -3.870964E+03
        12   6  4.670090E+03 -5.214419E+05  1.261452E+04 -4.023079E+03  1.168854E+03 -6.939005E+03
        12   7 -1.208278E+05 -1.006565E+06 -1.143994E+05 -3.763392E+03  1.469956E+03 -8.286724E+02
        12   8 -1.221829E+05 -1.019699E+06 -1.158309E+05  6.459312E+03  1.630818E+03 -3.861093E+03
        12   9 -1.155762E+05 -1.001952E+06 -1.075861E+05 -1.528475E+03  1.168616E+03 -6.897188E+03
        12  10  1.219186E+05 -3.606868E+04  1.282725E+05 -4.348427E+03  1.072491E-09  4.034722E-11
        12  11  1.194159E+05 -5.385262E+04  1.256757E+05  3.670585E+03 -1.868385E-09 -1.223191E-09
        12  12  1.248989E+05 -4.072226E+04  1.327976E+05 -6.519244E+03  4.591477E-10 -1.321911E-09
        12  13  5.542727E+02 -5.214236E+05  6.945433E+03 -4.055819E+03  4.703685E-09 -4.759777E-10
        12  14 -1.374690E+03 -5.368818E+05  4.931161E+03  5.065390E+03 -4.345375E-09  5.342834E-12
        12  15  4.670076E+03 -5.214419E+05  1.261443E+04 -4.023073E+03  5.211847E-09 -4.188030E-09
        12  16 -1.208278E+05 -1.006565E+06 -1.143994E+05 -3.763391E+03 -2.540840E-11 -4.756837E-11
        12  17 -1.221829E+05 -1.019699E+06 -1.158310E+05  6.459317E+03 -1.512479E-09  1.761407E-09
        12  18 -1.155762E+05 -1.001952E+06 -1.075862E+05 -1.528469E+03 -2.743032E-09 -7.884880E-11
        12  19  1.219186E+05 -3.606868E+04  1.282725E+05 -4.348428E+03 -1.469772E+03  7.844836E+02
        12  20  1.194159E+05 -5.385260E+04  1.256757E+05  3.670580E+03 -1.630738E+03  3.880842E+03
        12  21  1.248989E+05 -4.072220E+04  1.327977E+05 -6.519251E+03 -1.169091E+03  6.980852E+03
        12  22  5.542752E+02 -5.214236E+05  6.945438E+03 -4.055820E+03 -1.469864E+03  8.065868E+02
        12  23 -1.374683E+03 -5.368817E+05  4.931194E+03  5.065385E+03 -1.630778E+03  3.870964E+03
        12  24  4.670090E+03 -5.214419E+05  1.261452E+04 -4.023079E+03 -1.168854E+03  6.939005E+03
        12  25 -1.208278E+05 -1.006565E+06 -1.143994E+05 -3.763392E+03 -1.469956E+03  8.286724E+02
        12  26 -1.221829E+05 -1.019699E+06 -1.158309E+05  6.459312E+03 -1.630818E+03  3.861093E+03
        12  27 -1.155762E+05 -1.001952E+06 -1.075861E+05 -1.528475E+03 -1.168616E+03  6.897188E+03
        13   1  3.230488E+04 -3.906041E+05  4.708131E+04 -1.032742E+04  8.336541E+02 -9.496532E+03
        13   2  2.734744E+04 -4.010478E+05  5.336604E+04  1.071812E+04  5.908120E+02 -2.044616E+04
        13   3  5.348325E+04 -4.011251E+05  7.478863E+04 -9.183437E+03  3.556152E+02 -3.139631E+04
        13   4 -1.554570E+03 -5.259330E+05  1.325297E+04 -9.177355E+03  8.335176E+02 -9.479057E+03
        13   5 -5.191099E+03 -5.311225E+05  2.084265E+04  1.141113E+04  5.906527E+02 -2.042706E+04
        13   6  2.226855E+04 -5.259446E+05  4.357110E+04 -8.948012E+03  3.554487E+02 -3.137567E+04
        13   7 -3.541540E+04 -6.612453E+05 -2.057675E+04 -8.027505E+03  8.333810E+02 -9.461586E+03
        13   8 -3.773092E+04 -6.611819E+05 -1.168202E+04  1.210403E+04  5.904934E+02 -2.040795E+04
        13   9 -8.947336E+03 -6.507499E+05  1.235240E+04 -8.712599E+03  3.552821E+02 -3.135502E+04
        13  10  3.230485E+04 -3.906042E+05  4.708114E+04 -1.032742E+04  3.758402E-09 -3.821583E-10
        13  11  2.734733E+04 -4.010482E+05  5.336526E+04  1.071813E+04 -1.533943E-09 -3.013918E-09
        13  12  5.348299E+04 -4.011262E+05  7.478677E+04 -9.183428E+03 -3.866491E-09 -1.944052E-09
        13  13 -1.554595E+03 -5.259331E+05  1.325280E+04 -9.177349E+03 -3.903110E-10 -4.339605E-09
        13  14 -5.191212E+03 -5.311230E+05  2.084187E+04  1.141114E+04 -3.076669E-09  3.202866E-11
        13  15  2.226828E+04 -5.259456E+05  4.356925E+04 -8.948003E+03 -4.267647E-09 -5.902725E-09
        13  16 -3.541542E+04 -6.612454E+05 -2.057692E+04 -8.027499E+03 -4.321684E-09  3.453812E-10
        13  17 -3.773103E+04 -6.611824E+05 -1.168280E+04  1.210404E+04 -5.530563E-09  4.221975E-09
        13  18 -8.947600E+03 -6.507509E+05  1.235055E+04 -8.712590E+03 -4.661966E-09 -2.440818E-11
        13  19  3.230488E+04 -3.906041E+05  4.708131E+04 -1.032742E+04 -8.336541E+02  9.496532E+03
        13  20  2.734744E+04 -4.010478E+05  5.336604E+04  1.071812E+04 -5.908120E+02  2.044616E+04
        13  21  5.348325E+04 -4.011251E+05  7.478863E+04 -9.183437E+03 -3.556152E+02  3.139631E+04
        13  22 -1.554570E+03 -5.259330E+05  1.325297E+04 -9.177355E+03 -8.335176E+02  9.479057E+03
        13  23 -5.191099E+03 -5.311225E+05  2.084265E+04  1.141113E+04 -5.906527E+02  2.042706E+04
        13  24  2.226855E+04 -5.259446E+05  4.357110E+04 -8.948012E+03 -3.554487E+02  3.137567E+04
        13  25 -3.541540E+04 -6.612453E+05 -2.057675E+04 -8.027505E+03 -8.333810E+02  9.461586E+03
        13  26 -3.773092E+04 -6.611819E+05 -1.168202E+04  1.210403E+04 -5.904934E+02  2.040795E+04
        13  27 -8.947336E+03 -6.507499E+05  1.235240E+04 -8.712599E+03 -3.552821E+02  3.135502E+04
        14   1 -8.231893E+04 -8.260557E+05 -2.521552E+04 -7.969474E+03 -1.523283E+02 -4.032450E+04
        14   2 -1.142827E+05 -8.652393E+05 -6.760878E+02  1.245446E+04 -6.131330E+02 -8.362157E+04
        14   3  6.281056E+04 -8.347121E+05  1.067122E+05 -9.531248E+02  1.977534E+02 -1.269083E+05
        14   4 -3.979441E+03 -5.128055E+05  5.313223E+04 -7.833363E+03 -1.530099E+02 -4.026651E+04
        14   5 -3.478137E+04 -5.476159E+05  7.875995E+04  9.488017E+03 -6.127647E+02 -8.364405E+04
        14   6  1.434338E+05 -5.127267E+05  1.872634E+05 -7.021320E+03  1.993023E+02 -1.270115E+05
        14   7  7.435263E+04 -1.994663E+05  1.314726E+05 -7.696974E+03 -1.536914E+02 -4.020850E+04
        14   8  4.471234E+04 -2.299010E+05  1.581884E+05  6.520226E+03 -6.123963E+02 -8.366653E+04
        14   9  2.240493E+05 -1.906471E+05  2.678066E+05 -1.309254E+04  2.008525E+02 -1.271148E+05
        14  10 -8.231936E+04 -8.260575E+05 -2.521858E+04 -7.969479E+03 -3.450322E-09  4.855541E-10
        14  11 -1.142846E+05 -8.652468E+05 -6.892464E+02  1.245442E+04  3.553680E-10 -2.378353E-09
        14  12  6.280623E+04 -8.347295E+05  1.066819E+05 -9.531046E+02  8.196084E-11 -1.968839E-09
        14  13 -3.979877E+03 -5.128073E+05  5.312918E+04 -7.833368E+03 -2.614413E-09 -5.054635E-09
        14  14 -3.478325E+04 -5.476234E+05  7.874679E+04  9.487976E+03  3.419160E-09 -7.437572E-12
        14  15  1.434295E+05 -5.127440E+05  1.872330E+05 -7.021300E+03  1.046881E-09 -3.319096E-09
        14  16  7.435220E+04 -1.994680E+05  1.314695E+05 -7.696979E+03 -1.790823E-09 -5.080596E-10
        14  17  4.471045E+04 -2.299085E+05  1.581752E+05  6.520185E+03  7.654299E-10  3.336567E-09
        14  18  2.240450E+05 -1.906645E+05  2.677763E+05 -1.309252E+04 -1.926975E-09  8.820264E-10
        14  19 -8.231893E+04 -8.260557E+05 -2.521552E+04 -7.969474E+03  1.523283E+02  4.032450E+04
        14  20 -1.142827E+05 -8.652393E+05 -6.760878E+02  1.245446E+04  6.131330E+02  8.362157E+04
        14  21  6.281056E+04 -8.347121E+05  1.067122E+05 -9.531248E+02 -1.977534E+02  1.269083E+05
        14  22 -3.979441E+03 -5.128055E+05  5.313223E+04 -7.833363E+03  1.530099E+02  4.026651E+04
        14  23 -3.478137E+04 -5.476159E+05  7.875995E+04  9.488017E+03  6.127647E+02  8.364405E+04
        14  24  1.434338E+05 -5.127267E+05  1.872634E+05 -7.021320E+03 -1.993023E+02  1.270115E+05
        14  25  7.435263E+04 -1.994663E+05  1.314726E+05 -7.696974E+03  1.536914E+02  4.020850E+04
        14  26  4.471234E+04 -2.299010E+05  1.581884E+05  6.520226E+03  6.123963E+02  8.366653E+04
        14  27  2.240493E+05 -1.906471E+05  2.678066E+05 -1.309254E+04 -2.008525E+02  1.271148E+05
        15   1  1.820132E+05 -3.644312E+05  1.745324E+05 -2.644074E+02  2.612748E+04 -1.483303E+01
        15   2  1.816287E+05 -3.660934E+05  1.742015E+05 -1.636648E+01  2.608917E+04 -2.203905E+02
        15   3  1.813973E+05 -3.672263E+05  1.741419E+05 -6.952744E+02  2.593813E+04 -4.261191E+02
        15   4 -8.955254E+01 -1.100106E+06  2.678614E+02 -2.060199E+02  2.612956E+04 -2.519636E+01
        15   5 -1.261430E+02 -1.100365E+06  2.734823E+02  2.575322E+02  2.609122E+04 -1.656721E+02
        15   6 -2.112458E+01 -1.100106E+06  5.052986E+02 -2.059250E+02  2.594008E+04 -3.063186E+02
        15   7 -1.822312E+05 -1.835283E+06 -1.740343E+05 -1.476880E+02  2.613165E+04 -3.554746E+01
        15   8 -1.819198E+05 -1.834140E+06 -1.736920E+05  5.311664E+02  2.609328E+04 -1.110181E+02
        15   9 -1.814781E+05 -1.832491E+06 -1.731687E+05  2.829522E+02  2.594204E+04 -1.866587E+02
        15  10  1.820125E+05 -3.644314E+05  1.745311E+05 -2.644071E+02  2.123702E-09 -2.433246E-09
        15  11  1.816280E+05 -3.660935E+05  1.742002E+05 -1.636185E+01 -2.164830E-09 -6.858524E-10
        15  12  1.813965E+05 -3.672265E+05  1.741406E+05 -6.952655E+02 -1.777223E-09  3.321918E-09
        15  13 -9.028532E+01 -1.100106E+06  2.665790E+02 -2.060194E+02 -2.110848E-09  8.999369E-11
        15  14 -1.268736E+02 -1.100365E+06  2.722037E+02  2.575357E+02 -3.049179E-09  4.233708E-11
        15  15 -2.184679E+01 -1.100106E+06  5.040346E+02 -2.059186E+02  2.094827E-10  3.459602E-10
        15  16 -1.822320E+05 -1.835283E+06 -1.740356E+05 -1.476872E+02  1.082862E-09  2.466139E-09
        15  17 -1.819205E+05 -1.834140E+06 -1.736933E+05  5.311688E+02 -2.136129E-09 -3.766927E-10
        15  18 -1.814789E+05 -1.832491E+06 -1.731699E+05  2.829561E+02 -4.089764E-09 -3.564267E-09
        15  19  1.820132E+05 -3.644312E+05  1.745324E+05 -2.644074E+02 -2.612748E+04  1.483303E+01
        15  20  1.816287E+05 -3.660934E+05  1.742015E+05 -1.636648E+01 -2.608917E+04  2.203905E+02
        15  21  1.813973E+05 -3.672263E+05  1.741419E+05 -6.952744E+02 -2.593813E+04  4.261191E+02
        15  22 -8.955254E+01 -1.100106E+06  2.678614E+02 -2.060199E+02 -2.612956E+04  2.519636E+01
        15  23 -1.261430E+02 -1.100365E+06  2.734823E+02  2.575322E+02 -2.609122E+04  1.656721E+02
        15  24 -2.112458E+01 -1.100106E+06  5.052986E+02 -2.059250E+02 -2.594008E+04  3.063186E+02
        15  25 -1.822312E+05 -1.835283E+06 -1.740343E+05 -1.476880E+02 -2.613165E+04  3.554746E+01
        15  26 -1.819198E+05 -1.834140E+06 -1.736920E+05  5.311664E+02 -2.609328E+04  1.110181E+02
        15  27 -1.814781E+05 -1.832491E+06 -1.731687E+05  2.829522E+02 -2.594204E+04  1.866587E+02
        16   1  1.804692E+05 -3.704428E+05  1.734205E+05 -1.320337E+03  2.599998E+04 -2.437036E+02
        16   2  1.793530E+05 -3.750414E+05  1.727936E+05  1.488122E+01  2.576883E+04 -1.340675E+03
        16   3  1.792756E+05 -3.787937E+05  1.732358E+05 -1.417278E+03  2.450058E+04 -2.439876E+03
        16   4 -1.278848E+02 -1.100054E+06  6.242494E+02 -6.153598E+02  2.600222E+04 -4.081114E+02
        16   5 -2.044152E+02 -1.100425E+06  9.674194E+02  7.691079E+02  2.577021E+04 -9.073221E+02
        16   6  6.544576E+02 -1.100052E+06  1.964656E+03 -6.140034E+02  2.450055E+04 -1.408769E+03
        16   7 -1.807633E+05 -1.829176E+06 -1.722090E+05  8.891928E+01  2.600446E+04 -5.723266E+02
        16   8 -1.797996E+05 -1.825324E+06 -1.708954E+05  1.522627E+03  2.577159E+04 -4.744723E+02
        16   9 -1.780041E+05 -1.820833E+06 -1.693428E+05  1.885558E+02  2.450053E+04 -3.788535E+02
        16  10  1.804685E+05 -3.704430E+05  1.734192E+05 -1.320332E+03 -2.943708E-09 -7.386053E-10
        16  11  1.793522E+05 -3.750416E+05  1.727924E+05  1.490904E+01 -5.347283E-09 -3.685685E-09
        16  12  1.792749E+05 -3.787939E+05  1.732346E+05 -1.417230E+03 -3.736926E-09 -1.937391E-09
        16  13 -1.286105E+02 -1.100055E+06  6.229792E+02 -6.153512E+02 -1.766514E-09  6.056783E-10
        16  14 -2.051281E+02 -1.100425E+06  9.661706E+02  7.691268E+02 -1.915625E-09  1.279988E-10
        16  15  6.538129E+02 -1.100053E+06  1.963524E+03 -6.139756E+02 -1.469901E-09  6.563681E-10
        16  16 -1.807640E+05 -1.829177E+06 -1.722103E+05  8.893127E+01 -8.192807E-10  1.326832E-09
        16  17 -1.798003E+05 -1.825324E+06 -1.708966E+05  1.522637E+03  1.333867E-09  5.099914E-10
        16  18 -1.780048E+05 -1.820833E+06 -1.693439E+05  1.885633E+02  8.263347E-11  1.431814E-09
        16  19  1.804692E+05 -3.704428E+05  1.734205E+05 -1.320337E+03 -2.599998E+04  2.437036E+02
        16  20  1.793530E+05 -3.750414E+05  1.727936E+05  1.488122E+01 -2.576883E+04  1.340675E+03
        16  21  1.792756E+05 -3.787937E+05  1.732358E+05 -1.417278E+03 -2.450058E+04  2.439876E+03
        16  22 -1.278848E+02 -1.100054E+06  6.242494E+02 -6.153598E+02 -2.600222E+04  4.081114E+02
        16  23 -2.044152E+02 -1.100425E+06  9.674194E+02  7.691079E+02 -2.577021E+04  9.073221E+02
        16  24  6.544576E+02 -1.100052E+06  1.964656E+03 -6.140034E+02 -2.450055E+04  1.408769E+03
        16  25 -1.807633E+05 -1.829176E+06 -1.722090E+05  8.891928E+01 -2.600446E+04  5.723266E+02
        16  26 -1.797996E+05 -1.825324E+06 -1.708954E+05  1.522627E+03 -2.577159E+04  4.744723E+02
        16  27 -1.780041E+05 -1.820833E+06 -1.693428E+05  1.885558E+02 -2.450053E+04  3.788535E+02
        17   1  1.763935E+05 -3.846567E+05  1.713373E+05 -3.307299E+03  2.645296E+04  1.910263E+03
        17   2  1.740751E+05 -3.936786E+05  1.713741E+05  8.981510E+02  2.504545E+04 -9.166305E+03
        17   3  1.825794E+05 -3.981505E+05  1.814157E+05  1.286633E+02  7.977730E+03 -2.028836E+04
        17   4 -4.964785E+02 -1.099553E+06  2.391423E+03 -1.111867E+03  2.646275E+04 -1.772612E+03
        17   5 -1.029285E+03 -1.101042E+06  3.775949E+03  1.386753E+03  2.503419E+04 -3.829115E+03
        17   6  7.699378E+03 -1.099546E+06  8.899958E+03 -1.090075E+03  7.937528E+03 -5.931293E+03
        17   7 -1.774231E+05 -1.813978E+06 -1.665898E+05  1.081267E+03  2.647252E+04 -5.451266E+03
        17   8 -1.761696E+05 -1.807945E+06 -1.638569E+05  1.875077E+03  2.502293E+04  1.502023E+03
        17   9 -1.672172E+05 -1.800493E+06 -1.636513E+05 -2.307115E+03  7.897247E+03  8.409572E+03
        17  10  1.763928E+05 -3.846569E+05  1.713360E+05 -3.307340E+03 -3.049576E-09  1.159355E-09
        17  11  1.740744E+05 -3.936788E+05  1.713728E+05  8.983359E+02 -1.669922E-09 -5.408352E-09
        17  12  1.825792E+05 -3.981509E+05  1.814148E+05  1.287937E+02 -2.335345E-09 -4.545785E-09
        17  13 -4.972309E+02 -1.099553E+06  2.390101E+03 -1.111829E+03  2.171941E-10  1.151845E-09
        17  14 -1.029961E+03 -1.101042E+06  3.774745E+03  1.386830E+03  1.235464E-09  3.934755E-11
        17  15  7.699301E+03 -1.099546E+06  8.899774E+03 -1.090037E+03 -5.852786E-09  1.024174E-09
        17  16 -1.774239E+05 -1.813978E+06 -1.665912E+05  1.081383E+03 -2.087671E-09  1.180425E-10
        17  17 -1.761703E+05 -1.807945E+06 -1.638581E+05  1.875047E+03  1.622393E-09  1.777554E-10
        17  18 -1.672173E+05 -1.800493E+06 -1.636515E+05 -2.307169E+03 -3.728793E-09  3.644856E-09
        17  19  1.763935E+05 -3.846567E+05  1.713373E+05 -3.307299E+03 -2.645296E+04 -1.910263E+03
        17  20  1.740751E+05 -3.936786E+05  1.713741E+05  8.981510E+02 -2.504545E+04  9.166305E+03
        17  21  1.825794E+05 -3.981505E+05  1.814157E+05  1.286633E+02 -7.977730E+03  2.028836E+04
        17  22 -4.964785E+02 -1.099553E+06  2.391423E+03 -1.111867E+03 -2.646275E+04  1.772612E+03
        17  23 -1.029285E+03 -1.101042E+06  3.775949E+03  1.386753E+03 -2.503419E+04  3.829115E+03
        17  24  7.699378E+03 -1.099546E+06  8.899958E+03 -1.090075E+03 -7.937528E+03  5.931293E+03
        17  25 -1.774231E+05 -1.813978E+06 -1.665898E+05  1.081267E+03 -2.647252E+04  5.451266E+03
        17  26 -1.761696E+05 -1.807945E+06 -1.638569E+05  1.875077E+03 -2.502293E+04 -1.502023E+03
        17  27 -1.672172E+05 -1.800493E+06 -1.636513E+05 -2.307115E+03 -7.897247E+03 -8.409572E+03
        18   1  6.343389E+04  6.954713E+05  3.563090E+04 -2.144041E+00  2.226428E+04 -1.389768E-01
        18   2  6.343649E+04  6.954834E+05  3.563584E+04 -1.215484E+01  2.226487E+04 -5.011230E+00
        18   3  6.343967E+04  6.955004E+05  3.564545E+04 -2.085098E+01  2.226601E+04 -9.883419E+00
        18   4 -1.638436E+01  4.136566E+05  1.082216E+01  2.922771E-01  2.226535E+04 -8.831606E-01
        18   5 -1.726725E+01  4.136539E+05  1.301091E+01 -3.649923E-01  2.226594E+04 -7.090062E+00
        18   6 -1.733577E+01  4.136566E+05  2.080486E+01  2.927534E-01  2.226708E+04 -1.329692E+01
        18   7 -6.346989E+04  1.319233E+05 -3.560951E+04  2.727640E+00  2.226641E+04 -1.627023E+00
        18   8 -6.347426E+04  1.319060E+05 -3.561007E+04  1.142015E+01  2.226700E+04 -9.167998E+00
        18   9 -6.347758E+04  1.318942E+05 -3.560409E+04  2.142803E+01  2.226815E+04 -1.670895E+01
        18  10  6.343336E+04  6.954712E+05  3.562997E+04 -2.144039E+00 -5.856764E-09  5.454077E-08
        18  11  6.343596E+04  6.954832E+05  3.563491E+04 -1.215475E+01 -7.999662E-09  2.156017E-08
        18  12  6.343914E+04  6.955003E+05  3.564452E+04 -2.085080E+01 -7.449018E-09 -1.192848E-08
        18  13 -1.691681E+01  4.136564E+05  9.890373E+00  2.922929E-01  1.185872E-08  2.904849E-11
        18  14 -1.779973E+01  4.136538E+05  1.207907E+01 -3.648652E-01  8.693622E-09 -9.672901E-11
        18  15 -1.786830E+01  4.136564E+05  1.987293E+01  2.929919E-01  1.287339E-08  9.471527E-11
        18  16 -6.347042E+04  1.319231E+05 -3.561044E+04  2.727669E+00 -5.324020E-09 -5.454245E-08
        18  17 -6.347479E+04  1.319058E+05 -3.561100E+04  1.142032E+01 -5.944277E-09 -2.159304E-08
        18  18 -6.347811E+04  1.318940E+05 -3.560502E+04  2.142833E+01 -8.144559E-09  1.193801E-08
        18  19  6.343389E+04  6.954713E+05  3.563090E+04 -2.144041E+00 -2.226428E+04  1.389770E-01
        18  20  6.343649E+04  6.954834E+05  3.563584E+04 -1.215484E+01 -2.226487E+04  5.011230E+00
        18  21  6.343967E+04  6.955004E+05  3.564545E+04 -2.085098E+01 -2.226601E+04  9.883419E+00
        18  22 -1.638436E+01  4.136566E+05  1.082216E+01  2.922770E-01 -2.226535E+04  8.831606E-01
        18  23 -1.726725E+01  4.136539E+05  1.301091E+01 -3.649923E-01 -2.226594E+04  7.090062E+00
        18  24 -1.733577E+01  4.136566E+05  2.080486E+01  2.927535E-01 -2.226708E+04  1.329692E+01
        18  25 -6.346989E+04  1.319233E+05 -3.560951E+04  2.727640E+00 -2.226641E+04  1.627023E+00
        18  26 -6.347426E+04  1.319060E+05 -3.561007E+04  1.142015E+01 -2.226700E+04  9.167998E+00
        18  27 -6.347758E+04  1.318942E+05 -3.560409E+04  2.142803E+01 -2.226815E+04  1.670895E+01
        19   1  6.344334E+04  6.955188E+05  3.565420E+04 -2.494453E+01  2.226707E+04 -1.264277E+01
        19   2  6.345136E+04  6.955583E+05  3.568094E+04 -3.980969E+01  2.226856E+04 -3.711303E+01
        19   3  6.346105E+04  6.956057E+05  3.572539E+04 -4.783028E+01  2.226903E+04 -6.158313E+01
        19   4 -1.781061E+01  4.136570E+05  2.673733E+01  1.521643E+00  2.226814E+04 -1.742114E+01
        19   5 -2.012799E+01  4.136533E+05  4.500762E+01 -1.900666E+00  2.226963E+04 -3.944117E+01
        19   6 -2.119852E+01  4.136570E+05  7.928222E+01  1.521765E+00  2.227010E+04 -6.146103E+01
        19   7 -6.348219E+04  1.318768E+05 -3.560097E+04  2.797724E+01  2.226921E+04 -2.219744E+01
        19   8 -6.349485E+04  1.318298E+05 -3.559118E+04  3.599303E+01  2.227070E+04 -4.176830E+01
        19   9 -6.350668E+04  1.317899E+05 -3.556708E+04  5.085374E+01  2.227117E+04 -6.133899E+01
        19  10  6.344280E+04  6.955187E+05  3.565326E+04 -2.494431E+01 -5.257138E-09  1.444111E-08
        19  11  6.345082E+04  6.955582E+05  3.568001E+04 -3.980902E+01 -8.767008E-09  1.887643E-08
        19  12  6.346051E+04  6.956055E+05  3.572446E+04 -4.782918E+01 -3.533505E-09  2.241015E-08
        19  13 -1.834319E+01  4.136569E+05  2.580531E+01  1.521955E+00  8.689412E-09  1.150051E-10
        19  14 -2.066064E+01  4.136532E+05  4.407547E+01 -1.899959E+00 -6.784709E-10 -3.219112E-10
        19  15 -2.173120E+01  4.136569E+05  7.835003E+01  1.522867E+00  9.632628E-10  2.178329E-10
        19  16 -6.348272E+04  1.318766E+05 -3.560191E+04  2.797763E+01 -9.586262E-09 -1.463212E-08
        19  17 -6.349538E+04  1.318297E+05 -3.559211E+04  3.599378E+01 -5.100299E-09 -1.907026E-08
        19  18 -6.350721E+04  1.317898E+05 -3.556801E+04  5.085484E+01 -3.693671E-09 -2.234254E-08
        19  19  6.344334E+04  6.955188E+05  3.565420E+04 -2.494453E+01 -2.226707E+04  1.264277E+01
        19  20  6.345136E+04  6.955583E+05  3.568094E+04 -3.980969E+01 -2.226856E+04  3.711303E+01
        19  21  6.346105E+04  6.956057E+05  3.572539E+04 -4.783028E+01 -2.226903E+04  6.158313E+01
        19  22 -1.781061E+01  4.136570E+05  2.673733E+01  1.521643E+00 -2.226814E+04  1.742114E+01
        19  23 -2.012799E+01  4.136533E+05  4.500762E+01 -1.900666E+00 -2.226963E+04  3.944117E+01
        19  24 -2.119852E+01  4.136570E+05  7.928222E+01  1.521765E+00 -2.227010E+04  6.146103E+01
        19  25 -6.348219E+04  1.318768E+05 -3.560097E+04  2.797724E+01 -2.226921E+04  2.219744E+01
        19  26 -6.349485E+04  1.318298E+05 -3.559118E+04  3.599303E+01 -2.227070E+04  4.176830E+01
        19  27 -6.350668E+04  1.317899E+05 -3.556708E+04  5.085374E+01 -2.227117E+04  6.133899E+01
        20   1  6.346879E+04  6.956448E+05  3.575905E+04 -5.458344E+01  2.226956E+04 -7.757877E+01
        20   2  6.348504E+04  6.957053E+05  3.586357E+04 -7.483807E+01  2.226329E+04 -1.983040E+02
        20   3  6.351626E+04  6.957895E+05  3.605173E+04 -8.360437E+01  2.224414E+04 -3.190311E+02
        20   4 -2.248053E+01  4.136594E+05  1.045781E+02  2.553125E+00  2.227063E+04 -7.787348E+01
        20   5 -2.562136E+01  4.136502E+05  1.818338E+02 -3.190488E+00  2.226435E+04 -1.676495E+02
        20   6 -1.914999E+01  4.136594E+05  3.212755E+02  2.554117E+00  2.224519E+04 -2.574278E+02
        20   7 -6.351699E+04  1.317556E+05 -3.555015E+04  5.966631E+01  2.227170E+04 -7.816806E+01
        20   8 -6.353952E+04  1.316768E+05 -3.550016E+04  6.842751E+01  2.226541E+04 -1.370082E+02
        20   9 -6.355781E+04  1.316109E+05 -3.540944E+04  8.867681E+01  2.224624E+04 -1.958510E+02
        20  10  6.346826E+04  6.956447E+05  3.575812E+04 -5.458205E+01 -1.434937E-09  7.416056E-09
        20  11  6.348451E+04  6.957052E+05  3.586264E+04 -7.483451E+01  8.357139E-10  5.739193E-09
        20  12  6.351573E+04  6.957894E+05  3.605080E+04 -8.359866E+01  7.428040E-11  5.081824E-09
        20  13 -2.301323E+01  4.136593E+05  1.036459E+02  2.554521E+00 -2.542699E-09  2.263500E-10
        20  14 -2.615376E+01  4.136501E+05  1.809021E+02 -3.187482E+00 -6.149765E-09 -4.886490E-10
        20  15 -1.968150E+01  4.136593E+05  3.203453E+02  2.558728E+00 -1.068377E-09  3.431155E-10
        20  16 -6.351752E+04  1.317555E+05 -3.555108E+04  5.966772E+01 -1.425072E-09 -7.708655E-09
        20  17 -6.354005E+04  1.316766E+05 -3.550109E+04  6.842996E+01 -8.762880E-10 -5.918356E-09
        20  18 -6.355834E+04  1.316108E+05 -3.541037E+04  8.868032E+01 -1.154647E-09 -4.962945E-09
        20  19  6.346879E+04  6.956448E+05  3.575905E+04 -5.458344E+01 -2.226956E+04  7.757877E+01
        20  20  6.348504E+04  6.957053E+05  3.586357E+04 -7.483807E+01 -2.226329E+04  1.983040E+02
        20  21  6.351626E+04  6.957895E+05  3.605173E+04 -8.360437E+01 -2.224414E+04  3.190311E+02
        20  22 -2.248053E+01  4.136594E+05  1.045781E+02  2.553125E+00 -2.227063E+04  7.787348E+01
        20  23 -2.562136E+01  4.136502E+05  1.818338E+02 -3.190488E+00 -2.226435E+04  1.676495E+02
        20  24 -1.914999E+01  4.136594E+05  3.212755E+02  2.554117E+00 -2.224519E+04  2.574278E+02
        20  25 -6.351699E+04  1.317556E+05 -3.555015E+04  5.966631E+01 -2.227170E+04  7.816806E+01
        20  26 -6.353952E+04  1.316768E+05 -3.550016E+04  6.842751E+01 -2.226541E+04  1.370082E+02
        20  27 -6.355781E+04  1.316109E+05 -3.540944E+04  8.867681E+01 -2.224624E+04  1.958510E+02
        21   1 -3.732464E+06 -6.071528E+05 -6.033953E+05 -7.142427E+04  4.682658E+04  4.483049E+03
        21   2 -4.275711E+06 -7.975930E+05 -7.774063E+05  1.116372E+05  3.869343E+04  1.077414E+04
        21   3 -3.665776E+06 -7.089325E+05 -6.586382E+05  1.385397E+04  3.034512E+04  4.194201E+03
        21   4 -7.152320E+05  1.490635E+05  1.527051E+05 -7.371201E+04  4.759259E+04  4.481104E+03
        21   5 -1.294804E+06 -4.890073E+04 -2.988685E+04  6.730478E+04  3.880634E+04  1.076840E+04
        21   6 -7.184164E+05  3.398618E+04  8.075670E+04 -7.246952E+04  2.980597E+04  4.213205E+03
        21   7  2.310283E+06  9.045895E+05  9.081152E+05 -7.600907E+04  4.836189E+04  4.479160E+03
        21   8  1.694197E+06  6.991199E+05  7.169577E+05  2.279710E+04  3.891943E+04  1.076267E+04
        21   9  2.236851E+06  7.762579E+05  8.194915E+05 -1.591288E+05  2.926397E+04  4.232328E+03
        21  10 -3.732466E+06 -6.071534E+05 -6.033995E+05 -7.142444E+04 -9.646186E-10 -1.637150E-10
        21  11 -4.275713E+06 -7.975935E+05 -7.774093E+05  1.116369E+05 -8.746807E-10  1.797094E-09
        21  12 -3.665777E+06 -7.089328E+05 -6.586400E+05  1.385387E+04 -4.861831E-09 -1.427011E-09
        21  13 -7.152345E+05  1.490629E+05  1.527008E+05 -7.371218E+04  2.122535E-09 -4.639927E-10
        21  14 -1.294805E+06 -4.890126E+04 -2.988991E+04  6.730444E+04 -2.198973E-09 -1.168282E-09
        21  15 -7.184174E+05  3.398592E+04  8.075500E+04 -7.246962E+04 -1.839469E-09  3.319094E-09
        21  16  2.310280E+06  9.045889E+05  9.081108E+05 -7.600925E+04  3.204563E-09  1.372676E-10
        21  17  1.694195E+06  6.991194E+05  7.169546E+05  2.279676E+04 -4.814055E-09 -1.011347E-09
        21  18  2.236850E+06  7.762576E+05  8.194899E+05 -1.591289E+05  3.099435E-09  3.227303E-09
        21  19 -3.732464E+06 -6.071528E+05 -6.033953E+05 -7.142427E+04 -4.682658E+04 -4.483049E+03
        21  20 -4.275711E+06 -7.975930E+05 -7.774063E+05  1.116372E+05 -3.869343E+04 -1.077414E+04
        21  21 -3.665776E+06 -7.089325E+05 -6.586382E+05  1.385397E+04 -3.034512E+04 -4.194201E+03
        21  22 -7.152320E+05  1.490635E+05  1.527051E+05 -7.371201E+04 -4.759259E+04 -4.481104E+03
        21  23 -1.294804E+06 -4.890073E+04 -2.988685E+04  6.730478E+04 -3.880634E+04 -1.076840E+04
        21  24 -7.184164E+05  3.398618E+04  8.075670E+04 -7.246952E+04 -2.980597E+04 -4.213205E+03
        21  25  2.310283E+06  9.045895E+05  9.081152E+05 -7.600907E+04 -4.836189E+04 -4.479160E+03
        21  26  1.694197E+06  6.991199E+05  7.169577E+05  2.279710E+04 -3.891943E+04 -1.076267E+04
        21  27  2.236851E+06  7.762579E+05  8.194915E+05 -1.591288E+05 -2.926397E+04 -4.232328E+03
        22   1  2.266923E+04  2.392351E+05  2.624522E+05 -1.324776E+05  1.319657E+04 -6.344393E+02
        22   2  3.747323E+04  2.725048E+05  2.648244E+05  7.308902E+04  9.836124E+03 -3.747698E+03
        22   3  1.258890E+05  2.153631E+05  2.658656E+05 -1.208360E+05  6.550177E+03 -5.850532E+03
        22   4 -9.567868E+05 -7.620752E+03  1.710492E+04 -9.916899E+04  1.300185E+04 -6.262092E+02
        22   5 -9.926906E+05  1.369274E+04  7.031814E+03  9.997567E+04  9.694178E+03 -3.743037E+03
        22   6 -9.551660E+05 -5.560819E+04 -4.455281E+03 -1.004137E+05  6.461293E+03 -5.848604E+03
        22   7 -1.935372E+06 -2.545474E+05 -2.283151E+05 -6.590381E+04  1.280744E+04 -6.179928E+02
        22   8 -2.021891E+06 -2.451984E+05 -2.508411E+05  1.268261E+05  9.552456E+03 -3.738385E+03
        22   9 -2.035161E+06 -3.266672E+05 -2.748645E+05 -8.001910E+04  6.372555E+03 -5.846681E+03
        22  10  2.266904E+04  2.392351E+05  2.624519E+05 -1.324776E+05 -6.828260E-09  1.212595E-10
        22  11  3.747312E+04  2.725047E+05  2.648242E+05  7.308905E+04 -1.099323E-09 -3.948559E-09
        22  12  1.258890E+05  2.153631E+05  2.658655E+05 -1.208360E+05 -4.233471E-09 -1.398626E-09
        22  13 -9.567870E+05 -7.620798E+03  1.710460E+04 -9.916899E+04 -7.779111E-09  9.482422E-10
        22  14 -9.926907E+05  1.369270E+04  7.031611E+03  9.997570E+04  1.946725E-09 -6.102282E-09
        22  15 -9.551661E+05 -5.560824E+04 -4.455424E+03 -1.004136E+05  2.212100E-10 -8.326961E-09
        22  16 -1.935373E+06 -2.545475E+05 -2.283154E+05 -6.590380E+04  6.338105E-09  6.634334E-10
        22  17 -2.021892E+06 -2.451984E+05 -2.508413E+05  1.268261E+05  4.042849E-09 -6.954603E-09
        22  18 -2.035161E+06 -3.266673E+05 -2.748647E+05 -8.001907E+04 -4.349216E-09 -8.130545E-09
        22  19  2.266923E+04  2.392351E+05  2.624522E+05 -1.324776E+05 -1.319657E+04  6.344393E+02
        22  20  3.747323E+04  2.725048E+05  2.648244E+05  7.308902E+04 -9.836124E+03  3.747698E+03
        22  21  1.258890E+05  2.153631E+05  2.658656E+05 -1.208360E+05 -6.550177E+03  5.850532E+03
        22  22 -9.567868E+05 -7.620752E+03  1.710492E+04 -9.916899E+04 -1.300185E+04  6.262092E+02
        22  23 -9.926906E+05  1.369274E+04  7.031814E+03  9.997567E+04 -9.694178E+03  3.743037E+03
        22  24 -9.551660E+05 -5.560819E+04 -4.455281E+03 -1.004137E+05 -6.461293E+03  5.848604E+03
        22  25 -1.935372E+06 -2.545474E+05 -2.283151E+05 -6.590381E+04 -1.280744E+04  6.179928E+02
        22  26 -2.021891E+06 -2.451984E+05 -2.508411E+05  1.268261E+05 -9.552456E+03  3.738385E+03
        22  27 -2.035161E+06 -3.266672E+05 -2.748645E+05 -8.001910E+04 -6.372555E+03  5.846681E+03
        23   1  3.136262E+06  9.958230E+05  1.024352E+06 -8.308350E+04 -1.282934E+04 -8.456305E+03
        23   2  2.267669E+06  8.995795E+05  8.351176E+05  1.522191E+04  2.564336E+03 -1.285656E+04
        23   3  3.152433E+06  9.810384E+05  1.021474E+06  5.572056E+04  1.795495E+04 -9.141196E+03
        23   4 -5.866449E+05  6.500981E+04  9.508922E+04 -2.213421E+04 -1.316803E+04 -8.452870E+03
        23   5 -1.460036E+06 -3.173129E+04 -9.586139E+04  5.431902E+03  2.535017E+03 -1.286149E+04
        23   6 -5.856618E+05  4.521259E+04  8.820955E+04 -2.483662E+04  1.823474E+04 -9.137439E+03
        23   7 -4.297019E+06 -8.668416E+05 -8.352179E+05  3.851371E+04 -1.350451E+04 -8.449500E+03
        23   8 -5.175161E+06 -9.640910E+05 -1.027889E+06 -4.310289E+03  2.505839E+03 -1.286645E+04
        23   9 -4.311120E+06 -8.916556E+05 -8.461091E+05 -1.049947E+05  1.851258E+04 -9.133755E+03
        23  10  3.136262E+06  9.958229E+05  1.024351E+06 -8.308358E+04 -8.745272E-09  4.140362E-09
        23  11  2.267669E+06  8.995793E+05  8.351172E+05  1.522194E+04 -2.938102E-09  1.877800E-09
        23  12  3.152433E+06  9.810382E+05  1.021474E+06  5.572070E+04  1.694349E-09  2.174582E-09
        23  13 -5.866452E+05  6.500968E+04  9.508876E+04 -2.213430E+04 -2.727815E-09  1.010861E-09
        23  14 -1.460036E+06 -3.173147E+04 -9.586171E+04  5.431928E+03 -1.075536E-09 -5.609973E-09
        23  15 -5.856622E+05  4.521241E+04  8.820876E+04 -2.483649E+04  1.302697E-09  3.622946E-09
        23  16 -4.297020E+06 -8.668417E+05 -8.352183E+05  3.851362E+04  4.597656E-09  3.874721E-11
        23  17 -5.175161E+06 -9.640912E+05 -1.027890E+06 -4.310263E+03  2.148112E-09  1.851218E-09
        23  18 -4.311121E+06 -8.916558E+05 -8.461099E+05 -1.049946E+05 -5.989303E-10 -9.018113E-10
        23  19  3.136262E+06  9.958230E+05  1.024352E+06 -8.308350E+04  1.282934E+04  8.456305E+03
        23  20  2.267669E+06  8.995795E+05  8.351176E+05  1.522191E+04 -2.564336E+03  1.285656E+04
        23  21  3.152433E+06  9.810384E+05  1.021474E+06  5.572056E+04 -1.795495E+04  9.141196E+03
        23  22 -5.866449E+05  6.500981E+04  9.508922E+04 -2.213421E+04  1.316803E+04  8.452870E+03
        23  23 -1.460036E+06 -3.173129E+04 -9.586139E+04  5.431902E+03 -2.535017E+03  1.286149E+04
        23  24 -5.856618E+05  4.521259E+04  8.820955E+04 -2.483662E+04 -1.823474E+04  9.137439E+03
        23  25 -4.297019E+06 -8.668416E+05 -8.352179E+05  3.851371E+04  1.350451E+04  8.449500E+03
        23  26 -5.175161E+06 -9.640910E+05 -1.027889E+06 -4.310289E+03 -2.505839E+03  1.286645E+04
        23  27 -4.311120E+06 -8.916556E+05 -8.461091E+05 -1.049947E+05 -1.851258E+04  9.133755E+03
        24   1  1.325595E+06  5.138506E+05  5.611898E+05  1.305785E+05 -5.066338E+03 -8.183618E+03
        24   2  1.022625E+06  5.408539E+05  5.077849E+05 -3.155174E+04  3.100691E+02 -7.436149E+03
        24   3  1.230340E+06  5.388911E+05  5.472606E+05  1.763729E+05  5.366304E+03 -2.005807E+03
        24   4 -8.582652E+05 -3.442612E+04  1.517144E+04  7.254449E+04 -5.139735E+03 -8.188200E+03
        24   5 -1.114473E+06  1.430566E+03 -2.728136E+04 -1.133709E+05  4.452246E+02 -7.430821E+03
        24   6 -8.611924E+05  7.319738E+03  2.285322E+04  7.083369E+04  5.710059E+03 -1.983989E+03
        24   7 -3.037804E+06 -5.830579E+05 -5.312075E+05  1.467340E+04 -5.212846E+03 -8.192776E+03
        24   8 -3.247428E+06 -5.383274E+05 -5.626940E+05 -1.949607E+05  5.799145E+02 -7.425522E+03
        24   9 -2.948755E+06 -5.245645E+05 -5.018867E+05 -3.441389E+04  6.052629E+03 -1.962254E+03
        24  10  1.325595E+06  5.138505E+05  5.611896E+05  1.305785E+05  7.757840E-09 -3.646984E-09
        24  11  1.022625E+06  5.408538E+05  5.077848E+05 -3.155173E+04  1.225541E-09 -4.901345E-09
        24  12  1.230340E+06  5.388911E+05  5.472605E+05  1.763729E+05  2.268025E-09  6.727773E-09
        24  13 -8.582653E+05 -3.442620E+04  1.517126E+04  7.254446E+04  5.019906E-09  1.340973E-09
        24  14 -1.114473E+06  1.430507E+03 -2.728147E+04 -1.133709E+05 -3.294385E-09 -2.072189E-08
        24  15 -8.611924E+05  7.319725E+03  2.285315E+04  7.083370E+04  8.817519E-09 -8.869048E-09
        24  16 -3.037804E+06 -5.830580E+05 -5.312077E+05  1.467337E+04 -8.937076E-09 -4.865740E-09
        24  17 -3.247428E+06 -5.383275E+05 -5.626941E+05 -1.949607E+05 -2.012796E-09 -9.868101E-09
        24  18 -2.948755E+06 -5.245645E+05 -5.018867E+05 -3.441388E+04 -2.212206E-09  3.838969E-09
        24  19  1.325595E+06  5.138506E+05  5.611898E+05  1.305785E+05  5.066338E+03  8.183618E+03
        24  20  1.022625E+06  5.408539E+05  5.077849E+05 -3.155174E+04 -3.100691E+02  7.436149E+03
        24  21  1.230340E+06  5.388911E+05  5.472606E+05  1.763729E+05 -5.366304E+03  2.005807E+03
        24  22 -8.582652E+05 -3.442612E+04  1.517144E+04  7.254449E+04  5.139735E+03  8.188200E+03
        24  23 -1.114473E+06  1.430566E+03 -2.728136E+04 -1.133709E+05 -4.452246E+02  7.430821E+03
        24  24 -8.611924E+05  7.319738E+03  2.285322E+04  7.083369E+04 -5.710059E+03  1.983989E+03
        24  25 -3.037804E+06 -5.830579E+05 -5.312075E+05  1.467340E+04  5.212846E+03  8.192776E+03
        24  26 -3.247428E+06 -5.383274E+05 -5.626940E+05 -1.949607E+05 -5.799145E+02  7.425522E+03
        24  27 -2.948755E+06 -5.245645E+05 -5.018867E+05 -3.441389E+04 -6.052629E+03  1.962254E+03
        25   1 -2.938887E+06 -5.221337E+05 -4.994216E+05 -3.375337E+04 -6.059223E+03  1.928059E+03
        25   2 -3.234570E+06 -5.353606E+05 -5.594884E+05 -1.948284E+05 -6.729739E+02  7.381967E+03
        25   3 -3.028196E+06 -5.805439E+05 -5.286593E+05  1.484115E+04  5.032229E+03  8.166091E+03
        25   4 -8.625700E+05  6.890409E+03  2.249107E+04  7.097377E+04 -5.717419E+03  1.949761E+03
        25   5 -1.112727E+06  1.599309E+03 -2.686604E+04 -1.135190E+05 -5.381375E+02  7.387303E+03
        25   6 -8.596507E+05 -3.466006E+04  1.496486E+04  7.267096E+04  4.960170E+03  8.161557E+03
        25   7  1.217674E+06  5.356051E+05  5.440747E+05  1.759896E+05 -5.374437E+03  1.971545E+03
        25   8  1.013216E+06  5.382281E+05  5.054136E+05 -3.198231E+04 -4.028371E+02  7.392667E+03
        25   9  1.313173E+06  5.108724E+05  5.582321E+05  1.306627E+05  4.887831E+03  8.157019E+03
        25  10 -2.938887E+06 -5.221337E+05 -4.994216E+05 -3.375336E+04  6.461655E-09  9.129997E-09
        25  11 -3.234571E+06 -5.353607E+05 -5.594885E+05 -1.948284E+05  2.633026E-09 -3.045269E-10
        25  12 -3.028196E+06 -5.805440E+05 -5.286595E+05  1.484112E+04 -1.023681E-09 -1.105495E-08
        25  13 -8.625700E+05  6.890396E+03  2.249100E+04  7.097378E+04  1.078283E-08 -9.947675E-09
        25  14 -1.112727E+06  1.599250E+03 -2.686615E+04 -1.135190E+05  2.386882E-09 -6.680856E-09
        25  15 -8.596508E+05 -3.466014E+04  1.496469E+04  7.267092E+04  6.869132E-09 -6.587151E-09
        25  16  1.217674E+06  5.356051E+05  5.440747E+05  1.759896E+05 -1.090258E-08  1.109025E-08
        25  17  1.013216E+06  5.382281E+05  5.054135E+05 -3.198231E+04 -4.453110E-09 -6.682680E-10
        25  18  1.313173E+06  5.108723E+05  5.582319E+05  1.306627E+05 -2.889177E-09  8.061176E-09
        25  19 -2.938887E+06 -5.221337E+05 -4.994216E+05 -3.375337E+04  6.059223E+03 -1.928059E+03
        25  20 -3.234570E+06 -5.353606E+05 -5.594884E+05 -1.948284E+05  6.729739E+02 -7.381967E+03
        25  21 -3.028196E+06 -5.805439E+05 -5.286593E+05  1.484115E+04 -5.032229E+03 -8.166091E+03
        25  22 -8.625700E+05  6.890409E+03  2.249107E+04  7.097377E+04  5.717419E+03 -1.949761E+03
        25  23 -1.112727E+06  1.599309E+03 -2.686604E+04 -1.135190E+05  5.381375E+02 -7.387303E+03
        25  24 -8.596507E+05 -3.466006E+04  1.496486E+04  7.267096E+04 -4.960170E+03 -8.161557E+03
        25  25  1.217674E+06  5.356051E+05  5.440747E+05  1.759896E+05  5.374437E+03 -1.971545E+03
        25  26  1.013216E+06  5.382281E+05  5.054136E+05 -3.198231E+04  4.028371E+02 -7.392667E+03
        25  27  1.313173E+06  5.108724E+05  5.582321E+05  1.306627E+05 -4.887831E+03 -8.157019E+03
        26   1 -4.312451E+06 -8.918594E+05 -8.462393E+05 -1.051512E+05 -1.867660E+04  9.119256E+03
        26   2 -5.177426E+06 -9.646476E+05 -1.028133E+06 -5.258491E+03 -2.808585E+03  1.287098E+04
        26   3 -4.298415E+06 -8.671244E+05 -8.349993E+05  3.848503E+04  1.306418E+04  8.476223E+03
        26   4 -5.852718E+05  4.547761E+04  8.851887E+04 -2.446371E+04 -1.839859E+04  9.122994E+03
        26   5 -1.460541E+06 -3.184036E+04 -9.566117E+04  4.950992E+03 -2.838129E+03  1.286602E+04
        26   6 -5.862338E+05  6.515739E+04  9.575603E+04 -2.175291E+04  1.272680E+04  8.479554E+03
        26   7  3.154556E+06  9.817715E+05  1.022222E+06  5.662563E+04 -1.811863E+04  9.126806E+03
        26   8  2.268936E+06  8.999169E+05  8.357607E+05  1.521061E+04 -2.867810E+03  1.286107E+04
        26   9  3.138492E+06  9.963999E+05  1.025466E+06 -8.229036E+04  1.238721E+04  8.482950E+03
        26  10 -4.312452E+06 -8.918596E+05 -8.462402E+05 -1.051511E+05  8.454273E-10  3.934704E-10
        26  11 -5.177426E+06 -9.646477E+05 -1.028133E+06 -5.258462E+03  5.665497E-09  6.981033E-09
        26  12 -4.298415E+06 -8.671246E+05 -8.349998E+05  3.848494E+04 -2.679915E-10 -5.652850E-09
        26  13 -5.852722E+05  4.547743E+04  8.851808E+04 -2.446358E+04  3.450674E-09  1.048429E-08
        26  14 -1.460541E+06 -3.184054E+04 -9.566149E+04  4.951022E+03 -5.523483E-09  5.040032E-09
        26  15 -5.862340E+05  6.515726E+04  9.575559E+04 -2.175300E+04 -6.530812E-09 -8.638971E-09
        26  16  3.154556E+06  9.817713E+05  1.022222E+06  5.662576E+04 -7.103025E-09  3.055646E-09
        26  17  2.268936E+06  8.999167E+05  8.357603E+05  1.521064E+04 -5.930938E-09  1.026753E-09
        26  18  3.138492E+06  9.963998E+05  1.025465E+06 -8.229044E+04 -2.981354E-09  1.597704E-09
        26  19 -4.312451E+06 -8.918594E+05 -8.462393E+05 -1.051512E+05  1.867660E+04 -9.119256E+03
        26  20 -5.177426E+06 -9.646476E+05 -1.028133E+06 -5.258491E+03  2.808585E+03 -1.287098E+04
        26  21 -4.298415E+06 -8.671244E+05 -8.349993E+05  3.848503E+04 -1.306418E+04 -8.476223E+03
        26  22 -5.852718E+05  4.547761E+04  8.851887E+04 -2.446371E+04  1.839859E+04 -9.122994E+03
        26  23 -1.460541E+06 -3.184036E+04 -9.566117E+04  4.950992E+03  2.838129E+03 -1.286602E+04
        26  24 -5.862338E+05  6.515739E+04  9.575603E+04 -2.175291E+04 -1.272680E+04 -8.479554E+03
        26  25  3.154556E+06  9.817715E+05  1.022222E+06  5.662563E+04  1.811863E+04 -9.126806E+03
        26  26  2.268936E+06  8.999169E+05  8.357607E+05  1.521061E+04  2.867810E+03 -1.286107E+04
        26  27  3.138492E+06  9.963999E+05  1.025466E+06 -8.229036E+04 -1.238721E+04 -8.482950E+03
        27   1 -2.047420E+06 -3.299564E+05 -2.772439E+05 -7.975679E+04 -6.988822E+03  5.892367E+03
        27   2 -2.036308E+06 -2.489487E+05 -2.531723E+05  1.270448E+05 -1.076281E+04  3.827029E+03
        27   3 -1.947782E+06 -2.562699E+05 -2.288921E+05 -6.536975E+04 -1.461321E+04  7.295167E+02
        27   4 -9.542357E+05 -5.558772E+04 -3.529798E+03 -1.003495E+05 -7.076640E+03  5.894239E+03
        27   5 -9.938523E+05  1.327527E+04  8.023136E+03  9.989037E+04 -1.090551E+04  3.831700E+03
        27   6 -9.558731E+05 -5.984235E+03  1.986890E+04 -9.904460E+04 -1.481045E+04  7.378618E+02
        27   7  1.400346E+05  2.186911E+05  2.700938E+05 -1.209706E+05 -7.164604E+03  5.896115E+03
        27   8  4.959075E+04  2.754181E+05  2.691361E+05  7.269884E+04 -1.104843E+04  3.836378E+03
        27   9  3.693021E+04  2.442287E+05  2.685551E+05 -1.327640E+05 -1.500799E+04  7.462210E+02
        27  10 -2.047420E+06 -3.299565E+05 -2.772441E+05 -7.975675E+04 -5.488470E-09  1.344573E-09
        27  11 -2.036308E+06 -2.489488E+05 -2.531725E+05  1.270448E+05 -4.410063E-09  4.844954E-09
        27  12 -1.947782E+06 -2.562699E+05 -2.288925E+05 -6.536974E+04 -2.020817E-10 -5.095092E-09
        27  13 -9.542357E+05 -5.558777E+04 -3.529958E+03 -1.003494E+05 -7.785834E-09  1.236284E-08
        27  14 -9.938525E+05  1.327522E+04  8.022885E+03  9.989040E+04  3.669000E-09  1.128235E-08
        27  15 -9.558733E+05 -5.984295E+03  1.986849E+04 -9.904459E+04 -4.657230E-09  2.126269E-09
        27  16  1.400345E+05  2.186911E+05  2.700936E+05 -1.209706E+05  4.455747E-09  7.704330E-09
        27  17  4.959061E+04  2.754181E+05  2.691359E+05  7.269887E+04  9.426778E-09  3.666458E-08
        27  18  3.692997E+04  2.442286E+05  2.685547E+05 -1.327640E+05  1.532591E-09 -9.484719E-10
        27  19 -2.047420E+06 -3.299564E+05 -2.772439E+05 -7.975679E+04  6.988822E+03 -5.892367E+03
        27  20 -2.036308E+06 -2.489487E+05 -2.531723E+05  1.270448E+05  1.076281E+04 -3.827029E+03
        27  21 -1.947782E+06 -2.562699E+05 -2.288921E+05 -6.536975E+04  1.461321E+04 -7.295167E+02
        27  22 -9.542357E+05 -5.558772E+04 -3.529798E+03 -1.003495E+05  7.076640E+03 -5.894239E+03
        27  23 -9.938523E+05  1.327527E+04  8.023136E+03  9.989037E+04  1.090551E+04 -3.831700E+03
        27  24 -9.558731E+05 -5.984235E+03  1.986890E+04 -9.904460E+04  1.481045E+04 -7.378618E+02
        27  25  1.400346E+05  2.186911E+05  2.700938E+05 -1.209706E+05  7.164604E+03 -5.896115E+03
        27  26  4.959075E+04  2.754181E+05  2.691361E+05  7.269884E+04  1.104843E+04 -3.836378E+03
        27  27  3.693021E+04  2.442287E+05  2.685551E+05 -1.327640E+05  1.500799E+04 -7.462210E+02
        28   1  2.227698E+06  7.735453E+05  8.200719E+05 -1.592510E+05 -3.156016E+04 -4.112089E+03
        28   2  1.686843E+06  6.952756E+05  7.199159E+05  2.290565E+04 -4.381513E+04 -1.063303E+04
        28   3  2.301597E+06  9.104758E+05  9.166212E+05 -7.698370E+04 -5.586022E+04 -4.454669E+03
        28   4 -7.190997E+05  3.339269E+04  8.344963E+04 -7.280410E+04 -3.209648E+04 -4.093127E+03
        28   5 -1.293934E+06 -5.070866E+04 -2.487888E+04  6.765532E+04 -4.369105E+04 -1.063898E+04
        28   6 -7.159048E+05  1.569474E+05  1.632107E+05 -7.399157E+04 -5.507446E+04 -4.456795E+03
        28   7 -3.658035E+06 -7.074033E+05 -6.538290E+05  1.330885E+04 -3.262998E+04 -4.074282E+03
        28   8 -4.266662E+06 -7.973607E+05 -7.703448E+05  1.122292E+05 -4.356715E+04 -1.064495E+04
        28   9 -3.725167E+06 -5.972676E+05 -5.908865E+05 -7.101173E+04 -5.429197E+04 -4.458922E+03
        28  10  2.227697E+06  7.735450E+05  8.200700E+05 -1.592511E+05 -3.423435E-09 -2.381890E-08
        28  11  1.686841E+06  6.952749E+05  7.199121E+05  2.290527E+04  5.700638E-09 -2.099309E-09
        28  12  2.301593E+06  9.104749E+05  9.166153E+05 -7.698390E+04  2.269145E-09 -6.275660E-10
        28  13 -7.191008E+05  3.339239E+04  8.344766E+04 -7.280420E+04 -3.467237E-09 -1.277596E-08
        28  14 -1.293936E+06 -5.070930E+04 -2.488269E+04  6.765495E+04 -4.255948E-09  5.787800E-10
        28  15 -7.159081E+05  1.569466E+05  1.632049E+05 -7.399177E+04 -3.227688E-10  8.206546E-10
        28  16 -3.658036E+06 -7.074036E+05 -6.538310E+05  1.330875E+04  5.810493E-09 -1.370200E-08
        28  17 -4.266664E+06 -7.973614E+05 -7.703486E+05  1.122288E+05 -6.010454E-09 -1.061140E-08
        28  18 -3.725170E+06 -5.972684E+05 -5.908921E+05 -7.101192E+04  9.651668E-11  1.419209E-09
        28  19  2.227698E+06  7.735453E+05  8.200719E+05 -1.592510E+05  3.156016E+04  4.112089E+03
        28  20  1.686843E+06  6.952756E+05  7.199159E+05  2.290565E+04  4.381513E+04  1.063303E+04
        28  21  2.301597E+06  9.104758E+05  9.166212E+05 -7.698370E+04  5.586022E+04  4.454669E+03
        28  22 -7.190997E+05  3.339269E+04  8.344963E+04 -7.280410E+04  3.209648E+04  4.093127E+03
        28  23 -1.293934E+06 -5.070866E+04 -2.487888E+04  6.765532E+04  4.369105E+04  1.063898E+04
        28  24 -7.159048E+05  1.569474E+05  1.632107E+05 -7.399157E+04  5.507446E+04  4.456795E+03
        28  25 -3.658035E+06 -7.074033E+05 -6.538290E+05  1.330885E+04  3.262998E+04  4.074282E+03
        28  26 -4.266662E+06 -7.973607E+05 -7.703448E+05  1.122292E+05  4.356715E+04  1.064495E+04
        28  27 -3.725167E+06 -5.972676E+05 -5.908865E+05 -7.101173E+04  5.429197E+04  4.458922E+03
        29   1  2.178153E+05  1.943155E+04  2.852549E+05 -6.324827E+03 -9.742165E+02  1.945036E+05
        29   2 -5.250544E+04 -2.436596E+04  1.216154E+05 -1.975872E+03 -6.398076E+02  1.279640E+05
        29   3 -6.801126E+03  1.952146E+04  8.032414E+04  3.513880E+03 -3.065612E+02  6.142187E+04
        29   4  2.177421E+05  1.950460E+04  2.852548E+05  9.906072E+02 -9.719245E+02  1.945037E+05
        29   5 -5.252379E+04 -2.434763E+04  1.216154E+05 -1.407983E+02 -6.394293E+02  1.279640E+05
        29   6 -6.764721E+03  1.948502E+04  8.032414E+04 -1.311718E+02 -3.069218E+02  6.142187E+04
        29   7  2.176691E+05  1.957777E+04  2.852549E+05  8.306041E+03 -9.696325E+02  1.945037E+05
        29   8 -5.254212E+04 -2.432928E+04  1.216154E+05  1.694276E+03 -6.390510E+02  1.279640E+05
        29   9 -6.728267E+03  1.944860E+04  8.032414E+04 -3.776223E+03 -3.072825E+02  6.142187E+04
        29  10  2.178052E+05  1.939093E+04  2.851838E+05 -6.324674E+03  3.712742E-09  4.001745E-12
        29  11 -5.250984E+04 -2.438354E+04  1.215847E+05 -1.975806E+03  2.148546E-09 -2.846622E-10
        29  12 -6.802138E+03  1.951741E+04  8.031705E+04  3.513895E+03 -3.134072E-09 -4.047076E-10
        29  13  2.177320E+05  1.946399E+04  2.851837E+05  9.907594E+02 -1.942096E-09 -3.264092E-11
        29  14 -5.252819E+04 -2.436521E+04  1.215847E+05 -1.407324E+02  6.657824E-09  1.178473E-11
        29  15 -6.765734E+03  1.948097E+04  8.031705E+04 -1.311566E+02  3.086637E-09  3.298509E-11
        29  16  2.176590E+05  1.953716E+04  2.851838E+05  8.306193E+03  4.818166E-10  7.317072E-11
        29  17 -5.254652E+04 -2.434686E+04  1.215847E+05  1.694341E+03 -1.284779E-09  3.289666E-10
        29  18 -6.729280E+03  1.944455E+04  8.031705E+04 -3.776208E+03  2.181713E-09  3.373672E-10
        29  19  2.178153E+05  1.943155E+04  2.852549E+05 -6.324827E+03  9.742165E+02 -1.945036E+05
        29  20 -5.250544E+04 -2.436596E+04  1.216154E+05 -1.975872E+03  6.398076E+02 -1.279640E+05
        29  21 -6.801126E+03  1.952146E+04  8.032414E+04  3.513880E+03  3.065612E+02 -6.142187E+04
        29  22  2.177421E+05  1.950460E+04  2.852548E+05  9.906072E+02  9.719245E+02 -1.945037E+05
        29  23 -5.252379E+04 -2.434763E+04  1.216154E+05 -1.407983E+02  6.394293E+02 -1.279640E+05
        29  24 -6.764721E+03  1.948502E+04  8.032414E+04 -1.311718E+02  3.069218E+02 -6.142187E+04
        29  25  2.176691E+05  1.957777E+04  2.852549E+05  8.306041E+03  9.696325E+02 -1.945037E+05
        29  26 -5.254212E+04 -2.432928E+04  1.216154E+05  1.694276E+03  6.390510E+02 -1.279640E+05
        29  27 -6.728267E+03  1.944860E+04  8.032414E+04 -3.776223E+03  3.072825E+02 -6.142187E+04
        30   1  3.410975E+04  3.238835E+03  6.665336E+04 -9.461565E+02 -2.401713E+02  4.804656E+04
        30   2 -8.260860E+03 -4.062245E+03  3.193449E+04 -2.789437E+02 -1.561845E+02  3.125339E+04
        30   3 -9.157194E+02  3.253866E+03  2.057939E+04  5.636570E+02 -7.224395E+01  1.446034E+04
        30   4  3.409875E+04  3.249830E+03  6.665336E+04  1.541543E+02 -2.400861E+02  4.804656E+04
        30   5 -8.263438E+03 -4.059667E+03  3.193449E+04 -2.100655E+01 -1.561716E+02  3.125339E+04
        30   6 -9.098791E+02  3.248025E+03  2.057939E+04 -2.077735E+01 -7.225756E+01  1.446034E+04
        30   7  3.408775E+04  3.260828E+03  6.665336E+04  1.254465E+03 -2.400010E+02  4.804656E+04
        30   8 -8.266016E+03 -4.057089E+03  3.193449E+04  2.369306E+02 -1.561586E+02  3.125339E+04
        30   9 -9.040375E+02  3.242185E+03  2.057939E+04 -6.052117E+02 -7.227117E+01  1.446034E+04
        30  10  3.410913E+04  3.236356E+03  6.664903E+04 -9.461472E+02 -1.290722E-10  1.821387E-10
        30  11 -8.261123E+03 -4.063294E+03  3.193265E+04 -2.789398E+02  4.378043E-09  1.387496E-10
        30  12 -9.157755E+02  3.253642E+03  2.057899E+04  5.636579E+02 -3.203253E-10 -1.625118E-10
        30  13  3.409813E+04  3.247351E+03  6.664903E+04  1.541635E+02  2.580437E-10  9.969298E-11
        30  14 -8.263701E+03 -4.060716E+03  3.193265E+04 -2.100262E+01  1.483191E-09  6.127974E-12
        30  15 -9.099352E+02  3.247801E+03  2.057899E+04 -2.077650E+01 -2.109951E-09  1.178001E-11
        30  16  3.408713E+04  3.258349E+03  6.664903E+04  1.254474E+03 -3.964028E-09 -9.612537E-11
        30  17 -8.266278E+03 -4.058138E+03  3.193265E+04  2.369345E+02  2.122982E-09 -1.496024E-10
        30  18 -9.040937E+02  3.241960E+03  2.057899E+04 -6.052109E+02 -2.535327E-10  1.860489E-10
        30  19  3.410975E+04  3.238835E+03  6.665336E+04 -9.461565E+02  2.401713E+02 -4.804656E+04
        30  20 -8.260860E+03 -4.062245E+03  3.193449E+04 -2.789437E+02  1.561845E+02 -3.125339E+04
        30  21 -9.157194E+02  3.253866E+03  2.057939E+04  5.636570E+02  7.224395E+01 -1.446034E+04
        30  22  3.409875E+04  3.249830E+03  6.665336E+04  1.541543E+02  2.400861E+02 -4.804656E+04
        30  23 -8.263438E+03 -4.059667E+03  3.193449E+04 -2.100655E+01  1.561716E+02 -3.125339E+04
        30  24 -9.098791E+02  3.248025E+03  2.057939E+04 -2.077735E+01  7.225756E+01 -1.446034E+04
        30  25  3.408775E+04  3.260828E+03  6.665336E+04  1.254465E+03  2.400010E+02 -4.804656E+04
        30  26 -8.266016E+03 -4.057089E+03  3.193449E+04  2.369306E+02  1.561586E+02 -3.125339E+04
        30  27 -9.040375E+02  3.242185E+03  2.057939E+04 -6.052117E+02  7.227117E+01 -1.446034E+04
        31   1  5.294056E+03  6.429190E+02  1.696796E+04 -1.510379E+02 -5.521652E+01  1.104943E+04
        31   2 -1.483764E+03 -8.059068E+02  1.002039E+04 -3.299924E+01 -2.956746E+01  5.917049E+03
        31   3  6.659325E+02  6.456391E+02  8.646220E+03  1.151555E+02 -3.921246E+00  7.847575E+02
        31   4  5.292315E+03  6.446605E+02  1.696796E+04  2.322466E+01 -5.521341E+01  1.104943E+04
        31   5 -1.484060E+03 -8.056108E+02  1.002039E+04 -3.390261E+00 -2.956718E+01  5.917049E+03
        31   6  6.670822E+02  6.444893E+02  8.646220E+03  1.128983E-01 -3.921392E+00  7.847575E+02
        31   7  5.290573E+03  6.464022E+02  1.696796E+04  1.974873E+02 -5.521031E+01  1.104943E+04
        31   8 -1.484356E+03 -8.053149E+02  1.002039E+04  2.621872E+01 -2.956690E+01  5.917049E+03
        31   9  6.682320E+02  6.433396E+02  8.646220E+03 -1.149297E+02 -3.921537E+00  7.847575E+02
        31  10  5.294023E+03  6.427879E+02  1.696773E+04 -1.510375E+02 -5.519846E-09  4.772518E-11
        31  11 -1.483774E+03 -8.059444E+02  1.002032E+04 -3.299910E+01 -6.107014E-09  1.107180E-10
        31  12  6.659323E+02  6.456384E+02  8.646219E+03  1.151555E+02  1.323664E-09 -3.190301E-10
        31  13  5.292282E+03  6.445294E+02  1.696773E+04  2.322515E+01 -3.306218E-09 -4.704240E-11
        31  14 -1.484070E+03 -8.056484E+02  1.002032E+04 -3.390120E+00 -5.584908E-09 -9.709739E-11
        31  15  6.670821E+02  6.444887E+02  8.646219E+03  1.129008E-01  1.711237E-09 -3.266345E-11
        31  16  5.290540E+03  6.462711E+02  1.696773E+04  1.974878E+02 -2.221322E-09 -1.768351E-11
        31  17 -1.484366E+03 -8.053525E+02  1.002032E+04  2.621886E+01 -3.616431E-09 -1.534433E-10
        31  18  6.682318E+02  6.433389E+02  8.646219E+03 -1.149297E+02 -3.540539E-09  2.798337E-10
        31  19  5.294056E+03  6.429190E+02  1.696796E+04 -1.510379E+02  5.521652E+01 -1.104943E+04
        31  20 -1.483764E+03 -8.059068E+02  1.002039E+04 -3.299924E+01  2.956746E+01 -5.917049E+03
        31  21  6.659325E+02  6.456391E+02  8.646220E+03  1.151555E+02  3.921246E+00 -7.847575E+02
        31  22  5.292315E+03  6.446605E+02  1.696796E+04  2.322466E+01  5.521341E+01 -1.104943E+04
        31  23 -1.484060E+03 -8.056108E+02  1.002039E+04 -3.390261E+00  2.956718E+01 -5.917049E+03
        31  24  6.670822E+02  6.444893E+02  8.646220E+03  1.128983E-01  3.921392E+00 -7.847575E+02
        31  25  5.290573E+03  6.464022E+02  1.696796E+04  1.974873E+02  5.521031E+01 -1.104943E+04
        31  26 -1.484356E+03 -8.053149E+02  1.002039E+04  2.621872E+01  2.956690E+01 -5.917049E+03
        31  27  6.682320E+02  6.433396E+02  8.646220E+03 -1.149297E+02  3.921537E+00 -7.847575E+02
        32   1 -7.434436E+06 -2.348851E+06 -1.518253E+06 -2.596520E+06 -7.797375E+05 -2.836965E+05
        32   2 -7.244711E+06 -1.214308E+06 -7.974713E+05 -2.765396E+06 -5.052354E+05 -1.534982E+05
        32   3 -7.509521E+06 -1.223637E+06 -6.000701E+05 -2.649703E+06 -2.214998E+05 -4.756892E+04
        32   4 -6.476425E+06 -1.755612E+06 -1.208853E+06 -2.103905E+06 -7.666624E+05 -2.790820E+05
        32   5 -6.185923E+06 -7.486999E+05 -5.000157E+05 -2.411302E+06 -5.015447E+05 -1.521660E+05
        32   6 -6.347381E+06 -8.827096E+05 -3.064239E+05 -2.434368E+06 -2.271532E+05 -4.966898E+04
        32   7 -5.517384E+06 -1.161748E+06 -8.995365E+05 -1.610444E+06 -7.535643E+05 -2.744461E+05
        32   8 -5.126026E+06 -2.829088E+05 -2.026667E+05 -2.056617E+06 -4.978463E+05 -1.508298E+05
        32   9 -5.183909E+06 -5.418084E+05 -1.287655E+04 -2.218724E+06 -2.328180E+05 -5.177111E+04
        32  10 -7.435118E+06 -2.349105E+06 -1.519565E+06 -2.596700E+06 -9.163898E-10 -1.416532E-10
        32  11 -7.244994E+06 -1.214404E+06 -7.980024E+05 -2.765459E+06 -7.246951E-09 -2.591216E-12
        32  12 -7.509575E+06 -1.223653E+06 -6.001679E+05 -2.649711E+06  5.859370E-09 -1.373340E-10
        32  13 -6.477083E+06 -1.755857E+06 -1.210119E+06 -2.104079E+06  3.645465E-09 -9.628518E-11
        32  14 -6.186202E+06 -7.487936E+05 -5.005379E+05 -2.411364E+06  7.476833E-10 -5.462771E-10
        32  15 -6.347437E+06 -8.827264E+05 -3.065267E+05 -2.434377E+06  6.635178E-09 -4.465200E-10
        32  16 -5.518018E+06 -1.161984E+06 -9.007570E+05 -1.610612E+06 -6.797591E-10 -6.372132E-11
        32  17 -5.126300E+06 -2.830008E+05 -2.031802E+05 -2.056677E+06 -2.979255E-09 -2.780590E-10
        32  18 -5.183969E+06 -5.418260E+05 -1.298447E+04 -2.218733E+06 -6.903018E-10 -5.206806E-10
        32  19 -7.434436E+06 -2.348851E+06 -1.518253E+06 -2.596520E+06  7.797375E+05  2.836965E+05
        32  20 -7.244711E+06 -1.214308E+06 -7.974713E+05 -2.765396E+06  5.052354E+05  1.534982E+05
        32  21 -7.509521E+06 -1.223637E+06 -6.000701E+05 -2.649703E+06  2.214998E+05  4.756892E+04
        32  22 -6.476425E+06 -1.755612E+06 -1.208853E+06 -2.103905E+06  7.666624E+05  2.790820E+05
        32  23 -6.185923E+06 -7.486999E+05 -5.000157E+05 -2.411302E+06  5.015447E+05  1.521660E+05
        32  24 -6.347381E+06 -8.827096E+05 -3.064239E+05 -2.434368E+06  2.271532E+05  4.966898E+04
        32  25 -5.517384E+06 -1.161748E+06 -8.995365E+05 -1.610444E+06  7.535643E+05  2.744461E+05
        32  26 -5.126026E+06 -2.829088E+05 -2.026667E+05 -2.056617E+06  4.978463E+05  1.508298E+05
        32  27 -5.183909E+06 -5.418084E+05 -1.287655E+04 -2.218724E+06  2.328180E+05  5.177111E+04
        33   1 -7.300996E+06 -1.425302E+06 -5.251934E+05 -2.666078E+06 -1.819808E+05 -3.747436E+04
        33   2 -7.237686E+06 -1.245801E+06 -3.755187E+05 -2.646654E+06 -1.193659E+05 -1.369533E+04
        33   3 -7.190893E+06 -1.245143E+06 -3.100139E+05 -2.640017E+06 -5.557216E+04  6.969679E+03
        33   4 -6.301828E+06 -1.020547E+06 -2.503024E+05 -2.367302E+06 -1.815137E+05 -3.731059E+04
        33   5 -6.285980E+06 -8.786585E+05 -1.177991E+05 -2.380660E+06 -1.200497E+05 -1.395795E+04
        33   6 -6.286330E+06 -9.152444E+05 -6.843801E+04 -2.406823E+06 -5.741301E+04  6.276097E+03
        33   7 -5.301685E+06 -6.156935E+05  2.449559E+04 -2.068072E+06 -1.810456E+05 -3.714635E+04
        33   8 -5.333391E+06 -5.114525E+05  1.398388E+05 -2.114290E+06 -1.207346E+05 -1.422096E+04
        33   9 -5.380970E+06 -5.853110E+05  1.730669E+05 -2.173325E+06 -5.925681E+04  5.581507E+03
        33  10 -7.301032E+06 -1.425313E+06 -5.252591E+05 -2.666084E+06  1.314298E-10 -1.428045E-09
        33  11 -7.237701E+06 -1.245805E+06 -3.755462E+05 -2.646655E+06 -1.771678E-09 -1.246393E-09
        33  12 -7.190896E+06 -1.245144E+06 -3.100198E+05 -2.640017E+06  4.931487E-09 -5.487375E-10
        33  13 -6.301864E+06 -1.020558E+06 -2.503676E+05 -2.367308E+06  1.724870E-09 -7.812692E-10
        33  14 -6.285996E+06 -8.786626E+05 -1.178269E+05 -2.380662E+06  2.751217E-09 -1.462413E-09
        33  15 -6.286334E+06 -9.152453E+05 -6.844433E+04 -2.406823E+06  9.918159E-10 -5.603130E-10
        33  16 -5.301721E+06 -6.157039E+05  2.443078E+04 -2.068077E+06 -2.301112E-10 -3.225028E-10
        33  17 -5.333406E+06 -5.114567E+05  1.398107E+05 -2.114291E+06 -3.301607E-09 -1.715399E-09
        33  18 -5.380974E+06 -5.853120E+05  1.730602E+05 -2.173324E+06 -6.896263E-09 -1.268656E-09
        33  19 -7.300996E+06 -1.425302E+06 -5.251934E+05 -2.666078E+06  1.819808E+05  3.747436E+04
        33  20 -7.237686E+06 -1.245801E+06 -3.755187E+05 -2.646654E+06  1.193659E+05  1.369533E+04
        33  21 -7.190893E+06 -1.245143E+06 -3.100139E+05 -2.640017E+06  5.557216E+04 -6.969679E+03
        33  22 -6.301828E+06 -1.020547E+06 -2.503024E+05 -2.367302E+06  1.815137E+05  3.731059E+04
        33  23 -6.285980E+06 -8.786585E+05 -1.177991E+05 -2.380660E+06  1.200497E+05  1.395795E+04
        33  24 -6.286330E+06 -9.152444E+05 -6.843801E+04 -2.406823E+06  5.741301E+04 -6.276097E+03
        33  25 -5.301685E+06 -6.156935E+05  2.449559E+04 -2.068072E+06  1.810456E+05  3.714635E+04
        33  26 -5.333391E+06 -5.114525E+05  1.398388E+05 -2.114290E+06  1.207346E+05  1.422096E+04
        33  27 -5.380970E+06 -5.853110E+05  1.730669E+05 -2.173325E+06  5.925681E+04 -5.581507E+03
        34   1 -7.025885E+06 -1.222281E+06 -2.561069E+05 -2.610209E+06 -4.544670E+04  8.175137E+03
        34   2 -6.959364E+06 -1.136982E+06 -2.039642E+05 -2.549132E+06 -2.988655E+04  1.008712E+04
        34   3 -6.834901E+06 -1.133411E+06 -1.668404E+05 -2.558739E+06 -1.402954E+04  1.119304E+04
        34   4 -6.275862E+06 -9.360921E+05 -5.381460E+04 -2.403728E+06 -4.669775E+04  7.703121E+03
        34   5 -6.303912E+06 -8.888730E+05 -2.740050E+04 -2.370763E+06 -3.144338E+04  9.502006E+03
        34   6 -6.273961E+06 -9.233030E+05 -1.574481E+04 -2.408482E+06 -1.589474E+04  1.049425E+04
        34   7 -5.525290E+06 -6.498670E+05  1.484274E+05 -2.197017E+06 -4.795044E+04  7.230473E+03
        34   8 -5.648042E+06 -6.407384E+05  1.491247E+05 -2.192223E+06 -3.300202E+04  8.916215E+03
        34   9 -5.712716E+06 -7.131781E+05  1.353224E+05 -2.258101E+06 -1.776180E+04  9.794776E+03
        34  10 -7.025888E+06 -1.222282E+06 -2.561110E+05 -2.610208E+06 -1.602002E-09  6.292997E-10
        34  11 -6.959365E+06 -1.136983E+06 -2.039661E+05 -2.549132E+06  7.098002E-09  1.576089E-09
        34  12 -6.834902E+06 -1.133412E+06 -1.668410E+05 -2.558739E+06  7.820887E-09  6.814801E-10
        34  13 -6.275864E+06 -9.360928E+05 -5.381884E+04 -2.403727E+06 -3.007765E-10 -4.296893E-10
        34  14 -6.303913E+06 -8.888733E+05 -2.740254E+04 -2.370763E+06  4.991150E-09  5.669698E-10
        34  15 -6.273961E+06 -9.233032E+05 -1.574549E+04 -2.408481E+06 -1.961507E-10  3.385145E-10
        34  16 -5.525292E+06 -6.498677E+05  1.484229E+05 -2.197017E+06 -1.093437E-09 -3.919977E-10
        34  17 -5.648043E+06 -6.407388E+05  1.491225E+05 -2.192223E+06  3.963218E-09 -3.209486E-10
        34  18 -5.712716E+06 -7.131782E+05  1.353217E+05 -2.258101E+06 -3.001056E-09  1.385530E-10
        34  19 -7.025885E+06 -1.222281E+06 -2.561069E+05 -2.610209E+06  4.544670E+04 -8.175137E+03
        34  20 -6.959364E+06 -1.136982E+06 -2.039642E+05 -2.549132E+06  2.988655E+04 -1.008712E+04
        34  21 -6.834901E+06 -1.133411E+06 -1.668404E+05 -2.558739E+06  1.402954E+04 -1.119304E+04
        34  22 -6.275862E+06 -9.360921E+05 -5.381460E+04 -2.403728E+06  4.669775E+04 -7.703121E+03
        34  23 -6.303912E+06 -8.888730E+05 -2.740050E+04 -2.370763E+06  3.144338E+04 -9.502006E+03
        34  24 -6.273961E+06 -9.233030E+05 -1.574481E+04 -2.408482E+06  1.589474E+04 -1.049425E+04
        34  25 -5.525290E+06 -6.498670E+05  1.484274E+05 -2.197017E+06  4.795044E+04 -7.230473E+03
        34  26 -5.648042E+06 -6.407384E+05  1.491247E+05 -2.192223E+06  3.300202E+04 -8.916215E+03
        34  27 -5.712716E+06 -7.131781E+05  1.353224E+05 -2.258101E+06  1.776180E+04 -9.794776E+03
        35   1 -6.636479E+06 -1.066329E+06 -1.105407E+05 -2.510169E+06 -1.079321E+04  9.345717E+03
        35   2 -6.559179E+06 -9.815006E+05 -7.464764E+04 -2.433999E+06 -5.299644E+03  6.131662E+03
        35   3 -6.404806E+06 -9.772126E+05 -4.216061E+04 -2.447460E+06  2.821864E+02  2.673863E+03
        35   4 -6.270385E+06 -9.280988E+05 -1.238745E+04 -2.410781E+06 -1.259996E+04  8.669744E+03
        35   5 -6.308809E+06 -8.871069E+05 -7.291719E+03 -2.366233E+06 -7.201987E+03  5.420647E+03
        35   6 -6.270159E+06 -9.266346E+05 -5.523695E+03 -2.411320E+06 -1.716589E+03  1.927617E+03
        35   7 -5.904159E+06 -7.898600E+05  8.575437E+04 -2.311340E+06 -1.440789E+04  7.993324E+03
        35   8 -6.058378E+06 -7.927097E+05  6.005854E+04 -2.298443E+06 -9.105178E+03  4.709314E+03
        35   9 -6.135496E+06 -8.760559E+05  3.111135E+04 -2.375172E+06 -3.715833E+03  1.181199E+03
        35  10 -6.636479E+06 -1.066329E+06 -1.105411E+05 -2.510169E+06  7.244359E-09  8.951892E-10
        35  11 -6.559179E+06 -9.815006E+05 -7.464776E+04 -2.433999E+06 -1.955501E-09  1.445736E-09
        35  12 -6.404806E+06 -9.772126E+05 -4.216062E+04 -2.447460E+06 -2.214736E-10  1.456952E-09
        35  13 -6.270385E+06 -9.280989E+05 -1.238789E+04 -2.410781E+06  8.060590E-09  1.186984E-09
        35  14 -6.308809E+06 -8.871069E+05 -7.291872E+03 -2.366233E+06  1.717542E-09  2.590504E-09
        35  15 -6.270159E+06 -9.266346E+05 -5.523708E+03 -2.411320E+06 -6.563445E-10  4.784663E-10
        35  16 -5.904159E+06 -7.898601E+05  8.575386E+04 -2.311340E+06  1.342920E-09  2.325842E-09
        35  17 -6.058379E+06 -7.927097E+05  6.005834E+04 -2.298443E+06  2.537851E-09  3.155496E-09
        35  18 -6.135496E+06 -8.760559E+05  3.111132E+04 -2.375172E+06 -1.716329E-10 -1.207794E-09
        35  19 -6.636479E+06 -1.066329E+06 -1.105407E+05 -2.510169E+06  1.079321E+04 -9.345717E+03
        35  20 -6.559179E+06 -9.815006E+05 -7.464764E+04 -2.433999E+06  5.299644E+03 -6.131662E+03
        35  21 -6.404806E+06 -9.772126E+05 -4.216061E+04 -2.447460E+06 -2.821864E+02 -2.673863E+03
        35  22 -6.270385E+06 -9.280988E+05 -1.238745E+04 -2.410781E+06  1.259996E+04 -8.669744E+03
        35  23 -6.308809E+06 -8.871069E+05 -7.291719E+03 -2.366233E+06  7.201987E+03 -5.420647E+03
        35  24 -6.270159E+06 -9.266346E+05 -5.523695E+03 -2.411320E+06  1.716589E+03 -1.927617E+03
        35  25 -5.904159E+06 -7.898600E+05  8.575437E+04 -2.311340E+06  1.440789E+04 -7.993324E+03
        35  26 -6.058378E+06 -7.927097E+05  6.005854E+04 -2.298443E+06  9.105178E+03 -4.709314E+03
        35  27 -6.135496E+06 -8.760559E+05  3.111135E+04 -2.375172E+06  3.715833E+03 -1.181199E+03
        36   1 -6.191555E+06 -8.974326E+05  1.614864E+04 -2.390529E+06  2.265089E+03  8.647150E+01
        36   2 -6.113629E+06 -8.132562E+05  4.620671E+04 -2.313065E+06  7.208984E+03 -3.637547E+03
        36   3 -5.957651E+06 -8.100593E+05  7.343282E+04 -2.326264E+06  1.208264E+04 -7.163537E+03
        36   4 -6.269961E+06 -9.268592E+05 -5.363879E+03 -2.411504E+06  2.650279E+02 -6.601831E+02
        36   5 -6.309059E+06 -8.869200E+05 -6.352946E+03 -2.365963E+06  5.287010E+03 -4.355669E+03
        36   6 -6.270132E+06 -9.279791E+05 -1.023571E+04 -2.411092E+06  1.023808E+04 -7.853288E+03
        36   7 -6.348362E+06 -9.562856E+05 -2.687701E+04 -2.432477E+06 -1.734759E+03 -1.406737E+03
        36   8 -6.504453E+06 -9.605820E+05 -5.891627E+04 -2.418846E+06  3.365697E+03 -5.073543E+03
        36   9 -6.582520E+06 -1.045894E+06 -9.391350E+04 -2.495882E+06  8.394543E+03 -8.542659E+03
        36  10 -6.191555E+06 -8.974326E+05  1.614863E+04 -2.390529E+06  7.987569E-09  3.043169E-09
        36  11 -6.113629E+06 -8.132562E+05  4.620659E+04 -2.313065E+06  2.891495E-09  2.819840E-09
        36  12 -5.957651E+06 -8.100594E+05  7.343245E+04 -2.326264E+06 -5.409026E-09 -1.764122E-09
        36  13 -6.269961E+06 -9.268592E+05 -5.363880E+03 -2.411504E+06  1.468920E-09  1.199488E-10
        36  14 -6.309059E+06 -8.869201E+05 -6.353034E+03 -2.365963E+06  5.421784E-09  2.294203E-09
        36  15 -6.270132E+06 -9.279792E+05 -1.023602E+04 -2.411092E+06  1.832156E-09  1.265561E-09
        36  16 -6.348362E+06 -9.562856E+05 -2.687702E+04 -2.432477E+06 -7.112164E-09 -2.727808E-09
        36  17 -6.504453E+06 -9.605821E+05 -5.891634E+04 -2.418846E+06  4.485050E-09  2.545988E-09
        36  18 -6.582520E+06 -1.045894E+06 -9.391377E+04 -2.495882E+06  5.230923E-09  4.271359E-09
        36  19 -6.191555E+06 -8.974326E+05  1.614864E+04 -2.390529E+06 -2.265089E+03 -8.647150E+01
        36  20 -6.113629E+06 -8.132562E+05  4.620671E+04 -2.313065E+06 -7.208984E+03  3.637547E+03
        36  21 -5.957651E+06 -8.100593E+05  7.343282E+04 -2.326264E+06 -1.208264E+04  7.163537E+03
        36  22 -6.269961E+06 -9.268592E+05 -5.363879E+03 -2.411504E+06 -2.650279E+02  6.601831E+02
        36  23 -6.309059E+06 -8.869200E+05 -6.352946E+03 -2.365963E+06 -5.287010E+03  4.355669E+03
        36  24 -6.270132E+06 -9.279791E+05 -1.023571E+04 -2.411092E+06 -1.023808E+04  7.853288E+03
        36  25 -6.348362E+06 -9.562856E+05 -2.687701E+04 -2.432477E+06  1.734759E+03  1.406737E+03
        36  26 -6.504453E+06 -9.605820E+05 -5.891627E+04 -2.418846E+06 -3.365697E+03  5.073543E+03
        36  27 -6.582520E+06 -1.045894E+06 -9.391350E+04 -2.495882E+06 -8.394543E+03  8.542659E+03
        37   1 -5.762120E+06 -7.323787E+05  1.247849E+05 -2.271879E+06  1.504618E+04 -9.173775E+03
        37   2 -5.695384E+06 -6.582324E+05  1.418650E+05 -2.204206E+06  2.766749E+04 -9.411437E+03
        37   3 -5.566916E+06 -6.647355E+05  1.472698E+05 -2.210652E+06  4.001408E+04 -8.890063E+03
        37   4 -6.273246E+06 -9.238727E+05 -1.286539E+04 -2.408950E+06  1.314341E+04 -9.886156E+03
        37   5 -6.304843E+06 -8.886750E+05 -2.214632E+04 -2.369969E+06  2.605756E+04 -1.001590E+04
        37   6 -6.274780E+06 -9.341991E+05 -4.334518E+04 -2.405115E+06  3.869496E+04 -9.387006E+03
        37   7 -6.784114E+06 -1.115351E+06 -1.505379E+05 -2.545918E+06  1.124239E+04 -1.059789E+04
        37   8 -6.913939E+06 -1.119095E+06 -1.861901E+05 -2.535583E+06  2.444938E+04 -1.061971E+04
        37   9 -6.982156E+06 -1.203631E+06 -2.340047E+05 -2.599374E+06  3.737749E+04 -9.883320E+03
        37  10 -5.762120E+06 -7.323788E+05  1.247843E+05 -2.271879E+06  6.932206E-10 -1.537815E-09
        37  11 -5.695385E+06 -6.582327E+05  1.418634E+05 -2.204206E+06 -3.817473E-09 -1.164409E-09
        37  12 -5.566918E+06 -6.647360E+05  1.472666E+05 -2.210652E+06 -3.103762E-09 -1.560401E-10
        37  13 -6.273246E+06 -9.238729E+05 -1.286590E+04 -2.408950E+06 -4.029604E-09 -4.646856E-10
        37  14 -6.304844E+06 -8.886753E+05 -2.214780E+04 -2.369969E+06 -1.952303E-09 -2.217948E-09
        37  15 -6.274782E+06 -9.341996E+05 -4.334818E+04 -2.405114E+06 -1.767375E-09 -6.696167E-10
        37  16 -6.784114E+06 -1.115351E+06 -1.505384E+05 -2.545918E+06 -1.808368E-10  6.704123E-10
        37  17 -6.913939E+06 -1.119095E+06 -1.861914E+05 -2.535583E+06  2.956004E-10 -1.709756E-09
        37  18 -6.982157E+06 -1.203631E+06 -2.340075E+05 -2.599373E+06 -1.673016E-09  1.232559E-09
        37  19 -5.762120E+06 -7.323787E+05  1.247849E+05 -2.271879E+06 -1.504618E+04  9.173775E+03
        37  20 -5.695384E+06 -6.582324E+05  1.418650E+05 -2.204206E+06 -2.766749E+04  9.411437E+03
        37  21 -5.566916E+06 -6.647355E+05  1.472698E+05 -2.210652E+06 -4.001408E+04  8.890063E+03
        37  22 -6.273246E+06 -9.238727E+05 -1.286539E+04 -2.408950E+06 -1.314341E+04  9.886156E+03
        37  23 -6.304843E+06 -8.886750E+05 -2.214632E+04 -2.369969E+06 -2.605756E+04  1.001590E+04
        37  24 -6.274780E+06 -9.341991E+05 -4.334518E+04 -2.405115E+06 -3.869496E+04  9.387006E+03
        37  25 -6.784114E+06 -1.115351E+06 -1.505379E+05 -2.545918E+06 -1.124239E+04  1.059789E+04
        37  26 -6.913939E+06 -1.119095E+06 -1.861901E+05 -2.535583E+06 -2.444938E+04  1.061971E+04
        37  27 -6.982156E+06 -1.203631E+06 -2.340047E+05 -2.599374E+06 -3.737749E+04  9.883320E+03
        38   1 -5.415665E+06 -5.984022E+05  1.769190E+05 -2.180926E+06  4.943772E+04 -8.076162E+03
        38   2 -5.366277E+06 -5.268104E+05  1.546819E+05 -2.122162E+06  9.896289E+04  6.978691E+03
        38   3 -5.317861E+06 -6.099043E+05  6.662435E+04 -2.086844E+06  1.473403E+05  2.511332E+04
        38   4 -6.283943E+06 -9.166228E+05 -5.507561E+04 -2.406688E+06  4.752985E+04 -8.794534E+03
        38   5 -6.289535E+06 -8.814872E+05 -9.478507E+04 -2.379075E+06  9.821729E+04  6.693743E+03
        38   6 -6.296403E+06 -1.001385E+06 -2.013230E+05 -2.374905E+06  1.477513E+05  2.525915E+04
        38   7 -7.151490E+06 -1.234811E+06 -2.871369E+05 -2.632168E+06  4.562489E+04 -9.511889E+03
        38   8 -7.211963E+06 -1.236107E+06 -3.443289E+05 -2.635638E+06  9.747283E+04  6.409232E+03
        38   9 -7.274012E+06 -1.392778E+06 -4.693584E+05 -2.662540E+06  1.481615E+05  2.540459E+04
        38  10 -5.415667E+06 -5.984030E+05  1.769143E+05 -2.180925E+06  6.895174E-12  1.271185E-11
        38  11 -5.366288E+06 -5.268131E+05  1.546632E+05 -2.122162E+06 -2.392455E-09  8.426877E-10
        38  12 -5.317884E+06 -6.099109E+05  6.658197E+04 -2.086847E+06 -5.155351E-09 -1.437010E-09
        38  13 -6.283945E+06 -9.166235E+05 -5.508003E+04 -2.406688E+06  3.062978E-10  4.129293E-10
        38  14 -6.289545E+06 -8.814898E+05 -9.480348E+04 -2.379076E+06 -4.059048E-09  1.706211E-10
        38  15 -6.296427E+06 -1.001392E+06 -2.013657E+05 -2.374908E+06 -1.081661E-08 -1.239504E-09
        38  16 -7.151492E+06 -1.234812E+06 -2.871410E+05 -2.632167E+06 -4.159607E-11  6.256052E-12
        38  17 -7.211973E+06 -1.236109E+06 -3.443470E+05 -2.635639E+06 -3.639498E-09  8.163336E-10
        38  18 -7.274036E+06 -1.392785E+06 -4.694014E+05 -2.662543E+06 -1.028299E-09 -8.339910E-10
        38  19 -5.415665E+06 -5.984022E+05  1.769190E+05 -2.180926E+06 -4.943772E+04  8.076162E+03
        38  20 -5.366277E+06 -5.268104E+05  1.546819E+05 -2.122162E+06 -9.896289E+04 -6.978691E+03
        38  21 -5.317861E+06 -6.099043E+05  6.662435E+04 -2.086844E+06 -1.473403E+05 -2.511332E+04
        38  22 -6.283943E+06 -9.166228E+05 -5.507561E+04 -2.406688E+06 -4.752985E+04  8.794534E+03
        38  23 -6.289535E+06 -8.814872E+05 -9.478507E+04 -2.379075E+06 -9.821729E+04 -6.693743E+03
        38  24 -6.296403E+06 -1.001385E+06 -2.013230E+05 -2.374905E+06 -1.477513E+05 -2.525915E+04
        38  25 -7.151490E+06 -1.234811E+06 -2.871369E+05 -2.632168E+06 -4.562489E+04  9.511889E+03
        38  26 -7.211963E+06 -1.236107E+06 -3.443289E+05 -2.635638E+06 -9.747283E+04 -6.409232E+03
        38  27 -7.274012E+06 -1.392778E+06 -4.693584E+05 -2.662540E+06 -1.481615E+05 -2.540459E+04
        39   1 -5.200502E+06 -5.401146E+05  4.291453E+04 -2.200041E+06  1.905568E+05  3.632851E+04
        39   2 -5.148155E+06 -3.253990E+05 -1.074742E+05 -2.063562E+06  4.020536E+05  1.146547E+05
        39   3 -5.449998E+06 -1.031530E+06 -6.641109E+05 -1.705705E+06  6.043066E+05  2.173926E+05
        39   4 -6.334230E+06 -8.893002E+05 -2.464542E+05 -2.427428E+06  1.848429E+05  3.419402E+04
        39   5 -6.207690E+06 -7.785042E+05 -4.022729E+05 -2.405432E+06  4.057510E+05  1.160112E+05
        39   6 -6.437878E+06 -1.591474E+06 -9.724081E+05 -2.161866E+06  6.174304E+05  2.221563E+05
        39   7 -7.466700E+06 -1.238500E+06 -5.359214E+05 -2.654482E+06  1.791403E+05  3.206197E+04
        39   8 -7.266116E+06 -1.231450E+06 -6.971758E+05 -2.746737E+06  4.094407E+05  1.173640E+05
        39   9 -7.424712E+06 -2.150930E+06 -1.280797E+06 -2.617241E+06  6.305303E+05  2.269009E+05
        39  10 -5.200541E+06 -5.401259E+05  4.284314E+04 -2.200047E+06 -7.752665E-09 -4.174446E-10
        39  11 -5.148333E+06 -3.254572E+05 -1.078059E+05 -2.063599E+06  5.434334E-11  2.211795E-09
        39  12 -5.450406E+06 -1.031680E+06 -6.648935E+05 -1.705811E+06  9.792579E-10  5.617479E-10
        39  13 -6.334267E+06 -8.893108E+05 -2.465213E+05 -2.427433E+06 -4.736942E-09 -1.715732E-10
        39  14 -6.207872E+06 -7.785637E+05 -4.026114E+05 -2.405470E+06 -2.217121E-09  4.403502E-09
        39  15 -6.438305E+06 -1.591631E+06 -9.732267E+05 -2.161977E+06  1.065082E-09  2.512688E-10
        39  16 -7.466735E+06 -1.238510E+06 -5.359844E+05 -2.654487E+06  3.736025E-09 -7.102694E-10
        39  17 -7.266302E+06 -1.231511E+06 -6.975213E+05 -2.746776E+06 -1.909365E-09  1.776848E-09
        39  18 -7.425157E+06 -2.151095E+06 -1.281652E+06 -2.617357E+06 -4.830705E-10 -4.828172E-10
        39  19 -5.200502E+06 -5.401146E+05  4.291453E+04 -2.200041E+06 -1.905568E+05 -3.632851E+04
        39  20 -5.148155E+06 -3.253990E+05 -1.074742E+05 -2.063562E+06 -4.020536E+05 -1.146547E+05
        39  21 -5.449998E+06 -1.031530E+06 -6.641109E+05 -1.705705E+06 -6.043066E+05 -2.173926E+05
        39  22 -6.334230E+06 -8.893002E+05 -2.464542E+05 -2.427428E+06 -1.848429E+05 -3.419402E+04
        39  23 -6.207690E+06 -7.785042E+05 -4.022729E+05 -2.405432E+06 -4.057510E+05 -1.160112E+05
        39  24 -6.437878E+06 -1.591474E+06 -9.724081E+05 -2.161866E+06 -6.174304E+05 -2.221563E+05
        39  25 -7.466700E+06 -1.238500E+06 -5.359214E+05 -2.654482E+06 -1.791403E+05 -3.206197E+04
        39  26 -7.266116E+06 -1.231450E+06 -6.971758E+05 -2.746737E+06 -4.094407E+05 -1.173640E+05
        39  27 -7.424712E+06 -2.150930E+06 -1.280797E+06 -2.617241E+06 -6.305303E+05 -2.269009E+05
        40   1  2.824517E+05  6.925045E+04  3.176306E+05 -1.879278E+05 -5.325628E+02  1.976635E+05
        40   2  5.047209E+04  6.219655E+03  1.607972E+05 -9.422769E+04  3.014822E+02  1.152833E+05
        40   3 -7.787120E+02 -9.985686E+02  1.027761E+05 -9.346400E+03 -8.134953E+02  3.289653E+04
        40   4  2.640267E+05  2.956732E+03  3.011286E+05 -3.065649E+04 -4.730081E+02  1.956953E+05
        40   5  4.208111E+04 -2.470765E+04  1.537237E+05 -2.689056E+04  3.100228E+02  1.160953E+05
        40   6  3.587891E+02  2.948456E+03  1.032039E+05 -3.193204E+04 -8.321604E+02  3.648409E+04
        40   7  2.456943E+05 -6.328000E+04  2.846396E+05  1.265978E+05 -4.144455E+02  1.937272E+05
        40   8  3.370708E+04 -5.562436E+04  1.466525E+05  4.044313E+04  3.187400E+02  1.169072E+05
        40   9  1.498213E+03  6.896619E+03  1.036321E+05 -5.451784E+04 -8.510865E+02  4.007168E+04
        40  10  2.824412E+05  6.920851E+04  3.175572E+05 -1.879277E+05  1.695373E-09  1.693590E-08
        40  11  5.046852E+04  6.205386E+03  1.607722E+05 -9.422772E+04  8.099268E-09 -1.055971E-08
        40  12 -7.790032E+02 -9.997308E+02  1.027740E+05 -9.346378E+03  3.169701E-09 -2.915929E-08
        40  13  2.640165E+05  2.915618E+03  3.010566E+05 -3.065642E+04  1.483779E-09  1.225110E-09
        40  14  4.207749E+04 -2.472212E+04  1.536983E+05 -2.689059E+04 -5.402383E-10 -5.088647E-12
        40  15  3.584310E+02  2.947027E+03  1.032014E+05 -3.193202E+04 -8.054540E-09  9.108251E-10
        40  16  2.456842E+05 -6.332030E+04  2.845690E+05  1.265979E+05  7.876780E-10 -1.752746E-08
        40  17  3.370341E+04 -5.563903E+04  1.466268E+05  4.044310E+04  2.474535E-09  9.780990E-09
        40  18  1.497781E+03  6.894895E+03  1.036291E+05 -5.451782E+04  2.703378E-09  2.893113E-08
        40  19  2.824517E+05  6.925045E+04  3.176306E+05 -1.879278E+05  5.325628E+02 -1.976635E+05
        40  20  5.047209E+04  6.219655E+03  1.607972E+05 -9.422769E+04 -3.014822E+02 -1.152833E+05
        40  21 -7.787120E+02 -9.985686E+02  1.027761E+05 -9.346400E+03  8.134953E+02 -3.289653E+04
        40  22  2.640267E+05  2.956732E+03  3.011286E+05 -3.065649E+04  4.730081E+02 -1.956953E+05
        40  23  4.208111E+04 -2.470765E+04  1.537237E+05 -2.689056E+04 -3.100228E+02 -1.160953E+05
        40  24  3.587891E+02  2.948456E+03  1.032039E+05 -3.193204E+04  8.321604E+02 -3.648409E+04
        40  25  2.456943E+05 -6.328000E+04  2.846396E+05  1.265978E+05  4.144455E+02 -1.937272E+05
        40  26  3.370708E+04 -5.562436E+04  1.466525E+05  4.044313E+04 -3.187400E+02 -1.169072E+05
        40  27  1.498213E+03  6.896619E+03  1.036321E+05 -5.451784E+04  8.510865E+02 -4.007168E+04
        41   1  3.060857E+03 -3.548221E+04  8.840256E+04 -3.892607E+04 -2.225319E+03  1.775102E+04
        41   2 -1.264792E+04 -7.705925E+04  8.011484E+04 -2.641187E+04 -4.186605E+03 -2.791897E+04
        41   3 -6.189385E+03 -1.072553E+05  1.070854E+05 -2.334739E+04 -5.924570E+03 -7.358606E+04
        41   4  9.742834E+03 -6.804842E+03  9.354973E+04 -3.186000E+04 -2.241200E+03  2.105764E+04
        41   5  2.684037E+03 -1.252175E+04  9.219852E+04 -2.711567E+04 -4.200998E+03 -2.493911E+04
        41   6  1.784761E+04 -6.803901E+03  1.263302E+05 -3.182047E+04 -5.936355E+03 -7.093549E+04
        41   7  1.642496E+04  2.187346E+04  9.869693E+04 -2.479360E+04 -2.257005E+03  2.436441E+04
        41   8  1.801576E+04  5.201980E+04  1.042821E+05 -2.781954E+04 -4.215397E+03 -2.195896E+04
        41   9  4.188428E+04  9.365734E+04  1.455746E+05 -4.029495E+04 -5.948210E+03 -6.828450E+04
        41  10  3.060767E+03 -3.548255E+04  8.840196E+04 -3.892604E+04  3.121668E-09  2.385487E-08
        41  11 -1.264815E+04 -7.706010E+04  8.011335E+04 -2.641196E+04  7.957096E-09 -1.215646E-09
        41  12 -6.190877E+03 -1.072611E+05  1.070751E+05 -2.334774E+04 -2.500875E-10 -1.764305E-08
        41  13  9.742710E+03 -6.805320E+03  9.354888E+04 -3.185996E+04 -5.157925E-09  1.374001E-09
        41  14  2.683851E+03 -1.252243E+04  9.219732E+04 -2.711575E+04 -2.678749E-09  1.679686E-11
        41  15  1.784623E+04 -6.809313E+03  1.263207E+05 -3.182081E+04  1.909933E-09  1.002172E-09
        41  16  1.642480E+04  2.187282E+04  9.869581E+04 -2.479355E+04  8.954288E-10 -2.452879E-08
        41  17  1.801561E+04  5.201927E+04  1.042811E+05 -2.781961E+04  1.167134E-09  7.818055E-10
        41  18  4.188299E+04  9.365232E+04  1.455658E+05 -4.029527E+04 -1.469693E-09  1.735222E-08
        41  19  3.060857E+03 -3.548221E+04  8.840256E+04 -3.892607E+04  2.225319E+03 -1.775102E+04
        41  20 -1.264792E+04 -7.705925E+04  8.011484E+04 -2.641187E+04  4.186605E+03  2.791897E+04
        41  21 -6.189385E+03 -1.072553E+05  1.070854E+05 -2.334739E+04  5.924570E+03  7.358606E+04
        41  22  9.742834E+03 -6.804842E+03  9.354973E+04 -3.186000E+04  2.241200E+03 -2.105764E+04
        41  23  2.684037E+03 -1.252175E+04  9.219852E+04 -2.711567E+04  4.200998E+03  2.493911E+04
        41  24  1.784761E+04 -6.803901E+03  1.263302E+05 -3.182047E+04  5.936355E+03  7.093549E+04
        41  25  1.642496E+04  2.187346E+04  9.869693E+04 -2.479360E+04  2.257005E+03 -2.436441E+04
        41  26  1.801576E+04  5.201980E+04  1.042821E+05 -2.781954E+04  4.215397E+03  2.195896E+04
        41  27  4.188428E+04  9.365734E+04  1.455746E+05 -4.029495E+04  5.948210E+03  6.828450E+04
        42   1 -2.922766E+04 -1.132769E+05  1.299257E+05 -7.314656E+04 -7.267954E+03 -9.578778E+04
        42   2  3.480414E+04 -1.955880E+05  2.258806E+05  9.133108E+04 -6.622175E+03 -2.227349E+05
        42   3  4.159682E+05 -1.821113E+05  4.838257E+05  2.476499E+05 -9.576454E+02 -3.496465E+05
        42   4  1.932598E+02  1.220801E+04  1.539430E+05 -3.193308E+04 -7.291261E+03 -9.226364E+04
        42   5  7.458913E+04 -3.627160E+04  2.588238E+05 -2.673208E+04 -6.561556E+03 -2.265584E+05
        42   6  4.672509E+05  1.222560E+04  5.307583E+05 -2.970096E+04 -7.485425E+02 -3.608263E+05
        42   7  2.961970E+04  1.377119E+05  1.779606E+05  9.288927E+03 -7.314097E+03 -8.873879E+04
        42   8  1.144247E+05  1.230986E+05  2.917732E+05 -1.448262E+05 -6.499495E+03 -2.303828E+05
        42   9  5.188194E+05  2.067620E+05  5.777298E+05 -3.071396E+05 -5.294989E+02 -3.720095E+05
        42  10 -2.923018E+04 -1.132868E+05  1.299084E+05 -7.314712E+04 -1.637499E-09 -2.598444E-08
        42  11  3.479077E+04 -1.956413E+05  2.257873E+05  9.132989E+04  5.205066E-09 -6.917767E-09
        42  12  4.159354E+05 -1.822426E+05  4.835959E+05  2.476496E+05  1.197685E-09  2.054136E-08
        42  13  1.909179E+02  1.219886E+04  1.539269E+05 -3.193362E+04  5.379137E-10  1.141096E-09
        42  14  7.457530E+04 -3.632672E+04  2.587273E+05 -2.673327E+04  3.712466E-09 -1.546286E-10
        42  15  4.672159E+05  1.208585E+04  5.305136E+05 -2.970118E+04  4.111156E-09  8.546078E-10
        42  16  2.961753E+04  1.377034E+05  1.779457E+05  9.288404E+03  1.892773E-09  2.519085E-08
        42  17  1.144104E+05  1.230417E+05  2.916734E+05 -1.448274E+05  2.812309E-10  6.251946E-09
        42  18  5.187823E+05  2.066135E+05  5.774698E+05 -3.071398E+05  2.677927E-09 -2.098417E-08
        42  19 -2.922766E+04 -1.132769E+05  1.299257E+05 -7.314656E+04  7.267954E+03  9.578778E+04
        42  20  3.480414E+04 -1.955880E+05  2.258806E+05  9.133108E+04  6.622175E+03  2.227349E+05
        42  21  4.159682E+05 -1.821113E+05  4.838257E+05  2.476499E+05  9.576454E+02  3.496465E+05
        42  22  1.932598E+02  1.220801E+04  1.539430E+05 -3.193308E+04  7.291261E+03  9.226364E+04
        42  23  7.458913E+04 -3.627160E+04  2.588238E+05 -2.673208E+04  6.561556E+03  2.265584E+05
        42  24  4.672509E+05  1.222560E+04  5.307583E+05 -2.970096E+04  7.485425E+02  3.608263E+05
        42  25  2.961970E+04  1.377119E+05  1.779606E+05  9.288927E+03  7.314097E+03  8.873879E+04
        42  26  1.144247E+05  1.230986E+05  2.917732E+05 -1.448262E+05  6.499495E+03  2.303828E+05
        42  27  5.188194E+05  2.067620E+05  5.777298E+05 -3.071396E+05  5.294989E+02  3.720095E+05
        43   1 -5.123875E+06 -1.565004E+06 -9.700029E+05 -1.762046E+06 -3.956626E+05 -1.366383E+05
        43   2 -4.999014E+06 -9.722880E+05 -5.977646E+05 -1.822039E+06 -2.596235E+05 -5.770538E+04
        43   3 -5.067316E+06 -9.879895E+05 -4.900092E+05 -1.775040E+06 -1.131972E+05 -6.105374E+03
        43   4 -3.848446E+06 -9.772462E+05 -5.986455E+05 -1.309353E+06 -3.828513E+05 -1.318518E+05
        43   5 -3.721665E+06 -4.597868E+05 -2.472493E+05 -1.444053E+06 -2.563079E+05 -5.646975E+04
        43   6 -3.785702E+06 -5.481424E+05 -1.523399E+05 -1.471889E+06 -1.193890E+05 -8.436946E+03
        43   7 -2.571422E+06 -3.891631E+05 -2.274511E+05 -8.557403E+05 -3.700102E+05 -1.270486E+05
        43   8 -2.442734E+06  5.286466E+04  1.031145E+05 -1.065342E+06 -2.529842E+05 -5.523067E+04
        43   9 -2.502498E+06 -1.082676E+05  1.851911E+05 -1.168201E+06 -1.255947E+05 -1.077264E+04
        43  10 -5.124050E+06 -1.565067E+06 -9.703353E+05 -1.762090E+06 -6.720767E-10  6.798360E-10
        43  11 -4.999088E+06 -9.723099E+05 -5.978987E+05 -1.822051E+06  5.563380E-09 -7.539134E-10
        43  12 -5.067330E+06 -9.879930E+05 -4.900335E+05 -1.775040E+06  2.911819E-10  1.438913E-09
        43  13 -3.848609E+06 -9.773046E+05 -5.989557E+05 -1.309394E+06 -1.532522E-10 -2.487630E-09
        43  14 -3.721737E+06 -4.598080E+05 -2.473796E+05 -1.444065E+06  4.299783E-09 -2.237678E-09
        43  15 -3.785717E+06 -5.481464E+05 -1.523670E+05 -1.471890E+06  6.902118E-09  1.854462E-09
        43  16 -2.571573E+06 -3.892174E+05 -2.277401E+05 -8.557783E+05 -1.064800E-09  2.183198E-10
        43  17 -2.442804E+06  5.284409E+04  1.029879E+05 -1.065353E+06 -2.861546E-09 -4.919902E-10
        43  18 -2.502515E+06 -1.082720E+05  1.851611E+05 -1.168202E+06  3.881086E-10  3.163982E-09
        43  19 -5.123875E+06 -1.565004E+06 -9.700029E+05 -1.762046E+06  3.956626E+05  1.366383E+05
        43  20 -4.999014E+06 -9.722880E+05 -5.977646E+05 -1.822039E+06  2.596235E+05  5.770538E+04
        43  21 -5.067316E+06 -9.879895E+05 -4.900092E+05 -1.775040E+06  1.131972E+05  6.105374E+03
        43  22 -3.848446E+06 -9.772462E+05 -5.986455E+05 -1.309353E+06  3.828513E+05  1.318518E+05
        43  23 -3.721665E+06 -4.597868E+05 -2.472493E+05 -1.444053E+06  2.563079E+05  5.646975E+04
        43  24 -3.785702E+06 -5.481424E+05 -1.523399E+05 -1.471889E+06  1.193890E+05  8.436946E+03
        43  25 -2.571422E+06 -3.891631E+05 -2.274511E+05 -8.557403E+05  3.700102E+05  1.270486E+05
        43  26 -2.442734E+06  5.286466E+04  1.031145E+05 -1.065342E+06  2.529842E+05  5.523067E+04
        43  27 -2.502498E+06 -1.082676E+05  1.851911E+05 -1.168201E+06  1.255947E+05  1.077264E+04
        44   1 -4.855232E+06 -1.046862E+06 -4.235598E+05 -1.751866E+06 -9.552118E+04 -5.713729E+03
        44   2 -4.790760E+06 -9.112133E+05 -3.334532E+05 -1.703093E+06 -6.359335E+04  5.905048E+03
        44   3 -4.690216E+06 -9.131355E+05 -2.864464E+05 -1.709800E+06 -3.035033E+04  1.401496E+04
        44   4 -3.760636E+06 -6.205148E+05 -1.247949E+05 -1.441189E+06 -9.512974E+04 -5.572338E+03
        44   5 -3.774847E+06 -5.244350E+05 -5.836409E+04 -1.423740E+06 -6.440138E+04  5.597830E+03
        44   6 -3.752705E+06 -5.656024E+05 -3.401626E+04 -1.461779E+06 -3.236339E+04  1.325900E+04
        44   7 -2.664876E+06 -1.940769E+05  1.738614E+05 -1.130006E+06 -9.473742E+04 -5.430582E+03
        44   8 -2.757933E+06 -1.375916E+05  2.166326E+05 -1.143971E+06 -6.521080E+04  5.290082E+03
        44   9 -2.814345E+06 -2.180264E+05  2.183359E+05 -1.213420E+06 -3.437979E+04  1.250184E+04
        44  10 -4.855242E+06 -1.046864E+06 -4.235772E+05 -1.751866E+06  4.318150E-10  2.772091E-09
        44  11 -4.790765E+06 -9.112144E+05 -3.334609E+05 -1.703092E+06 -1.255130E-09 -1.779694E-09
        44  12 -4.690217E+06 -9.131359E+05 -2.864485E+05 -1.709800E+06 -2.460588E-09 -1.926173E-09
        44  13 -3.760646E+06 -6.205173E+05 -1.248121E+05 -1.441189E+06  1.624598E-09  2.115904E-09
        44  14 -3.774851E+06 -5.244362E+05 -5.837198E+04 -1.423740E+06  2.244782E-09 -6.003276E-10
        44  15 -3.752707E+06 -5.656029E+05 -3.401856E+04 -1.461778E+06  1.691100E-09 -1.116242E-09
        44  16 -2.664886E+06 -1.940794E+05  1.738444E+05 -1.130006E+06  4.233600E-09  1.915740E-09
        44  17 -2.757938E+06 -1.375928E+05  2.166246E+05 -1.143971E+06 -8.816931E-10 -4.689614E-10
        44  18 -2.814346E+06 -2.180269E+05  2.183334E+05 -1.213420E+06  2.204040E-09  2.200252E-11
        44  19 -4.855232E+06 -1.046862E+06 -4.235598E+05 -1.751866E+06  9.552118E+04  5.713729E+03
        44  20 -4.790760E+06 -9.112133E+05 -3.334532E+05 -1.703093E+06  6.359335E+04 -5.905048E+03
        44  21 -4.690216E+06 -9.131355E+05 -2.864464E+05 -1.709800E+06  3.035033E+04 -1.401496E+04
        44  22 -3.760636E+06 -6.205148E+05 -1.247949E+05 -1.441189E+06  9.512974E+04  5.572338E+03
        44  23 -3.774847E+06 -5.244350E+05 -5.836409E+04 -1.423740E+06  6.440138E+04 -5.597830E+03
        44  24 -3.752705E+06 -5.656024E+05 -3.401626E+04 -1.461779E+06  3.236339E+04 -1.325900E+04
        44  25 -2.664876E+06 -1.940769E+05  1.738614E+05 -1.130006E+06  9.473742E+04  5.430582E+03
        44  26 -2.757933E+06 -1.375916E+05  2.166326E+05 -1.143971E+06  6.521080E+04 -5.290082E+03
        44  27 -2.814345E+06 -2.180264E+05  2.183359E+05 -1.213420E+06  3.437979E+04 -1.250184E+04
        45   1 -4.470069E+06 -8.522293E+05 -2.223891E+05 -1.659292E+06 -2.512102E+04  1.282936E+04
        45   2 -4.400251E+06 -7.598474E+05 -1.796238E+05 -1.582783E+06 -1.643077E+04  1.166282E+04
        45   3 -4.250477E+06 -7.601830E+05 -1.445998E+05 -1.600032E+06 -7.478524E+03  9.774263E+03
        45   4 -3.746099E+06 -5.782310E+05 -2.694047E+04 -1.461785E+06 -2.639186E+04  1.235244E+04
        45   5 -3.785577E+06 -5.282912E+05 -1.366924E+04 -1.416249E+06 -1.795112E+04  1.109419E+04
        45   6 -3.745059E+06 -5.710079E+05 -7.932167E+03 -1.464470E+06 -9.249925E+03  9.113769E+03
        45   7 -3.021624E+06 -3.042018E+05  1.684610E+05 -1.264069E+06 -2.766432E+04  1.187490E+04
        45   8 -3.170537E+06 -2.967133E+05  1.522516E+05 -1.249565E+06 -1.947314E+04  1.052494E+04
        45   9 -3.239393E+06 -3.818186E+05  1.287129E+05 -1.328807E+06 -1.102292E+04  8.452686E+03
        45  10 -4.470069E+06 -8.522297E+05 -2.223906E+05 -1.659291E+06 -2.593944E-09 -3.435871E-10
        45  11 -4.400251E+06 -7.598476E+05 -1.796246E+05 -1.582783E+06  1.821872E-09 -1.656572E-09
        45  12 -4.250477E+06 -7.601831E+05 -1.446000E+05 -1.600032E+06 -4.142221E-09 -1.276647E-09
        45  13 -3.746100E+06 -5.782314E+05 -2.694207E+04 -1.461785E+06 -2.357398E-09 -1.305138E-09
        45  14 -3.785577E+06 -5.282914E+05 -1.367008E+04 -1.416249E+06 -3.897224E-09 -6.711242E-10
        45  15 -3.745059E+06 -5.710080E+05 -7.932483E+03 -1.464469E+06 -4.889055E-09 -9.390646E-10
        45  16 -3.021625E+06 -3.042021E+05  1.684592E+05 -1.264069E+06  1.720187E-09 -8.327615E-10
        45  17 -3.170537E+06 -2.967135E+05  1.522507E+05 -1.249565E+06  5.159130E-11 -8.555684E-10
        45  18 -3.239393E+06 -3.818188E+05  1.287125E+05 -1.328807E+06 -5.252329E-09 -9.340206E-10
        45  19 -4.470069E+06 -8.522293E+05 -2.223891E+05 -1.659292E+06  2.512102E+04 -1.282936E+04
        45  20 -4.400251E+06 -7.598474E+05 -1.796238E+05 -1.582783E+06  1.643077E+04 -1.166282E+04
        45  21 -4.250477E+06 -7.601830E+05 -1.445998E+05 -1.600032E+06  7.478524E+03 -9.774263E+03
        45  22 -3.746099E+06 -5.782310E+05 -2.694047E+04 -1.461785E+06  2.639186E+04 -1.235244E+04
        45  23 -3.785577E+06 -5.282912E+05 -1.366924E+04 -1.416249E+06  1.795112E+04 -1.109419E+04
        45  24 -3.745059E+06 -5.710079E+05 -7.932167E+03 -1.464470E+06  9.249925E+03 -9.113769E+03
        45  25 -3.021624E+06 -3.042018E+05  1.684610E+05 -1.264069E+06  2.766432E+04 -1.187490E+04
        45  26 -3.170537E+06 -2.967133E+05  1.522516E+05 -1.249565E+06  1.947314E+04 -1.052494E+04
        45  27 -3.239393E+06 -3.818186E+05  1.287129E+05 -1.328807E+06  1.102292E+04 -8.452686E+03
        46   1 -4.000946E+06 -6.710051E+05 -7.554463E+04 -1.535899E+06 -5.357623E+03  7.345548E+03
        46   2 -3.924895E+06 -5.782228E+05 -4.071318E+04 -1.450112E+06 -1.575945E+03  3.355403E+03
        46   3 -3.757800E+06 -5.787556E+05 -7.786845E+03 -1.470242E+06  2.249927E+03 -7.585132E+02
        46   4 -3.742946E+06 -5.740145E+05 -6.363232E+03 -1.466079E+06 -7.031759E+03  6.722128E+03
        46   5 -3.788405E+06 -5.269523E+05 -3.900206E+03 -1.413271E+06 -3.293614E+03  2.716142E+03
        46   6 -3.742828E+06 -5.731949E+05 -3.305731E+03 -1.466382E+06  4.882505E+02 -1.413700E+03
        46   7 -3.484882E+06 -4.770199E+05  6.281239E+04 -1.396233E+06 -8.706665E+03  6.098420E+03
        46   8 -3.651898E+06 -4.756809E+05  3.291099E+04 -1.376422E+06 -5.011695E+03  2.076727E+03
        46   9 -3.727855E+06 -5.676342E+05  1.175341E+03 -1.462522E+06 -1.273459E+03 -2.068898E+03
        46  10 -4.000946E+06 -6.710052E+05 -7.554479E+04 -1.535899E+06  6.959522E-10  9.982565E-10
        46  11 -3.924895E+06 -5.782229E+05 -4.071321E+04 -1.450112E+06 -1.035865E-09  1.454105E-09
        46  12 -3.757800E+06 -5.787556E+05 -7.786855E+03 -1.470242E+06 -2.277698E-09 -5.379990E-10
        46  13 -3.742946E+06 -5.740146E+05 -6.363410E+03 -1.466079E+06 -4.234919E-09  3.619765E-10
        46  14 -3.788405E+06 -5.269523E+05 -3.900240E+03 -1.413271E+06  1.896920E-09 -3.294788E-09
        46  15 -3.742828E+06 -5.731949E+05 -3.305735E+03 -1.466382E+06  2.946519E-09 -1.185748E-09
        46  16 -3.484882E+06 -4.770200E+05  6.281217E+04 -1.396233E+06 -4.768140E-09  4.454478E-10
        46  17 -3.651898E+06 -4.756809E+05  3.291094E+04 -1.376422E+06  1.035199E-09  9.623534E-10
        46  18 -3.727855E+06 -5.676343E+05  1.175330E+03 -1.462522E+06  3.509014E-09 -5.680754E-10
        46  19 -4.000946E+06 -6.710051E+05 -7.554463E+04 -1.535899E+06  5.357623E+03 -7.345548E+03
        46  20 -3.924895E+06 -5.782228E+05 -4.071318E+04 -1.450112E+06  1.575945E+03 -3.355403E+03
        46  21 -3.757800E+06 -5.787556E+05 -7.786845E+03 -1.470242E+06 -2.249927E+03  7.585132E+02
        46  22 -3.742946E+06 -5.740145E+05 -6.363232E+03 -1.466079E+06  7.031759E+03 -6.722128E+03
        46  23 -3.788405E+06 -5.269523E+05 -3.900206E+03 -1.413271E+06  3.293614E+03 -2.716142E+03
        46  24 -3.742828E+06 -5.731949E+05 -3.305731E+03 -1.466382E+06 -4.882505E+02  1.413700E+03
        46  25 -3.484882E+06 -4.770199E+05  6.281239E+04 -1.396233E+06  8.706665E+03 -6.098420E+03
        46  26 -3.651898E+06 -4.756809E+05  3.291099E+04 -1.376422E+06  5.011695E+03 -2.076727E+03
        46  27 -3.727855E+06 -5.676342E+05  1.175341E+03 -1.462522E+06  1.273459E+03  2.068898E+03
        47   1 -3.502530E+06 -4.822679E+05  6.199553E+04 -1.401000E+06  3.879455E+03 -3.441978E+03
        47   2 -3.428862E+06 -3.928146E+05  9.233596E+04 -1.317168E+06  7.816378E+03 -7.449121E+03
        47   3 -3.266431E+06 -3.943282E+05  1.206934E+05 -1.336140E+06  1.165484E+04 -1.117469E+04
        47   4 -3.743342E+06 -5.725702E+05 -3.375132E+03 -1.465741E+06  2.109336E+03 -4.100567E+03
        47   5 -3.787795E+06 -5.276655E+05 -4.452612E+03 -1.414115E+06  6.145250E+03 -8.071945E+03
        47   6 -3.743515E+06 -5.737537E+05 -7.591861E+03 -1.465304E+06  1.008220E+04 -1.176179E+04
        47   7 -3.984100E+06 -6.628699E+05 -6.875145E+04 -1.530461E+06  3.399633E+02 -4.758879E+03
        47   8 -4.146605E+06 -6.625099E+05 -1.012532E+05 -1.511012E+06  4.475179E+03 -8.694376E+03
        47   9 -4.220382E+06 -7.531670E+05 -1.358979E+05 -1.594378E+06  8.510886E+03 -1.234839E+04
        47  10 -3.502530E+06 -4.822679E+05  6.199548E+04 -1.401000E+06 -2.311464E-09  2.896909E-12
        47  11 -3.428862E+06 -3.928147E+05  9.233574E+04 -1.317168E+06 -8.515567E-09  1.201729E-09
        47  12 -3.266431E+06 -3.943284E+05  1.206929E+05 -1.336140E+06 -1.539754E-09  1.703593E-09
        47  13 -3.743342E+06 -5.725702E+05 -3.375172E+03 -1.465741E+06 -1.287167E-09 -1.864840E-09
        47  14 -3.787795E+06 -5.276655E+05 -4.452805E+03 -1.414115E+06  5.689583E-10  5.060043E-09
        47  15 -3.743515E+06 -5.737539E+05 -7.592312E+03 -1.465304E+06 -9.871689E-10  2.303518E-09
        47  16 -3.984100E+06 -6.628699E+05 -6.875149E+04 -1.530461E+06  3.559104E-09  4.098224E-10
        47  17 -4.146605E+06 -6.625100E+05 -1.012534E+05 -1.511012E+06 -3.545209E-10  2.665909E-09
        47  18 -4.220382E+06 -7.531672E+05 -1.358983E+05 -1.594378E+06 -7.141001E-09  2.526866E-09
        47  19 -3.502530E+06 -4.822679E+05  6.199553E+04 -1.401000E+06 -3.879455E+03  3.441978E+03
        47  20 -3.428862E+06 -3.928146E+05  9.233596E+04 -1.317168E+06 -7.816378E+03  7.449121E+03
        47  21 -3.266431E+06 -3.943282E+05  1.206934E+05 -1.336140E+06 -1.165484E+04  1.117469E+04
        47  22 -3.743342E+06 -5.725702E+05 -3.375132E+03 -1.465741E+06 -2.109336E+03  4.100567E+03
        47  23 -3.787795E+06 -5.276655E+05 -4.452612E+03 -1.414115E+06 -6.145250E+03  8.071945E+03
        47  24 -3.743515E+06 -5.737537E+05 -7.591861E+03 -1.465304E+06 -1.008220E+04  1.176179E+04
        47  25 -3.984100E+06 -6.628699E+05 -6.875145E+04 -1.530461E+06 -3.399633E+02  4.758879E+03
        47  26 -4.146605E+06 -6.625099E+05 -1.012532E+05 -1.511012E+06 -4.475179E+03  8.694376E+03
        47  27 -4.220382E+06 -7.531670E+05 -1.358979E+05 -1.594378E+06 -8.510886E+03  1.234839E+04
        48   1 -3.035881E+06 -3.030551E+05  1.823970E+05 -1.271402E+06  1.415928E+04 -1.327951E+04
        48   2 -2.973371E+06 -2.246292E+05  2.019542E+05 -1.198638E+06  2.397927E+04 -1.447290E+04
        48   3 -2.838272E+06 -2.335321E+05  2.126847E+05 -1.210422E+06  3.348671E+04 -1.479752E+04
        48   4 -3.746709E+06 -5.694082E+05 -9.544958E+03 -1.462611E+06  1.247198E+04 -1.391062E+04
        48   5 -3.783606E+06 -5.301202E+05 -1.668603E+04 -1.418688E+06  2.259131E+04 -1.499430E+04
        48   6 -3.747987E+06 -5.782376E+05 -3.290096E+04 -1.459320E+06  3.239647E+04 -1.520920E+04
        48   7 -4.457043E+06 -8.357315E+05 -2.015304E+05 -1.653622E+06  1.078682E+04 -1.454094E+04
        48   8 -4.593204E+06 -8.355725E+05 -2.353843E+05 -1.638477E+06  2.120533E+04 -1.551494E+04
        48   9 -4.656904E+06 -9.228940E+05 -2.785614E+05 -1.707889E+06  3.130796E+04 -1.562022E+04
        48  10 -3.035881E+06 -3.030553E+05  1.823962E+05 -1.271402E+06  2.023379E-09  1.969108E-09
        48  11 -2.973372E+06 -2.246296E+05  2.019528E+05 -1.198638E+06  1.335281E-09  9.177074E-10
        48  12 -2.838274E+06 -2.335326E+05  2.126822E+05 -1.210421E+06  6.194667E-09  5.898205E-10
        48  13 -3.746709E+06 -5.694084E+05 -9.545613E+03 -1.462611E+06 -2.611611E-09  1.538953E-09
        48  14 -3.783606E+06 -5.301206E+05 -1.668741E+04 -1.418687E+06 -1.316470E-09  4.382101E-10
        48  15 -3.747988E+06 -5.782381E+05 -3.290337E+04 -1.459320E+06 -2.256107E-09 -8.969236E-10
        48  16 -4.457044E+06 -8.357318E+05 -2.015310E+05 -1.653622E+06 -1.760512E-09  1.849860E-09
        48  17 -4.593204E+06 -8.355728E+05 -2.353856E+05 -1.638476E+06 -4.867461E-09 -6.599707E-10
        48  18 -4.656905E+06 -9.228945E+05 -2.785637E+05 -1.707888E+06 -1.904189E-09 -1.907447E-09
        48  19 -3.035881E+06 -3.030551E+05  1.823970E+05 -1.271402E+06 -1.415928E+04  1.327951E+04
        48  20 -2.973371E+06 -2.246292E+05  2.019542E+05 -1.198638E+06 -2.397927E+04  1.447290E+04
        48  21 -2.838272E+06 -2.335321E+05  2.126847E+05 -1.210422E+06 -3.348671E+04  1.479752E+04
        48  22 -3.746709E+06 -5.694082E+05 -9.544958E+03 -1.462611E+06 -1.247198E+04  1.391062E+04
        48  23 -3.783606E+06 -5.301202E+05 -1.668603E+04 -1.418688E+06 -2.259131E+04  1.499430E+04
        48  24 -3.747987E+06 -5.782376E+05 -3.290096E+04 -1.459320E+06 -3.239647E+04  1.520920E+04
        48  25 -4.457043E+06 -8.357315E+05 -2.015304E+05 -1.653622E+06 -1.078682E+04  1.454094E+04
        48  26 -4.593204E+06 -8.355725E+05 -2.353843E+05 -1.638477E+06 -2.120533E+04  1.551494E+04
        48  27 -4.656904E+06 -9.228940E+05 -2.785614E+05 -1.707889E+06 -3.130796E+04  1.562022E+04
        49   1 -2.657328E+06 -1.554139E+05  2.538596E+05 -1.168020E+06  4.122396E+04 -1.471027E+04
        49   2 -2.609539E+06 -8.242482E+04  2.427550E+05 -1.107030E+06  7.862414E+04 -4.368602E+03
        49   3 -2.542489E+06 -1.512368E+05  1.812900E+05 -1.084227E+06  1.146389E+05  9.681636E+03
        49   4 -3.756071E+06 -5.628861E+05 -4.159155E+04 -1.459422E+06  3.935722E+04 -1.541461E+04
        49   5 -3.770413E+06 -5.252933E+05 -7.140333E+04 -1.427722E+06  7.801683E+04 -4.602530E+03
        49   6 -3.765816E+06 -6.298698E+05 -1.526542E+05 -1.434206E+06  1.152857E+05  9.918203E+03
        49   7 -4.853648E+06 -9.702987E+05 -3.371495E+05 -1.750361E+06  3.749408E+04 -1.611765E+04
        49   8 -4.929983E+06 -9.680753E+05 -3.856822E+05 -1.747868E+06  7.741067E+04 -4.836026E+03
        49   9 -4.987693E+06 -1.108386E+06 -4.867340E+05 -1.783550E+06  1.159308E+05  1.015411E+04
        49  10 -2.657330E+06 -1.554146E+05  2.538560E+05 -1.168020E+06  1.322404E-09  1.493224E-10
        49  11 -2.609546E+06 -8.242651E+04  2.427433E+05 -1.107029E+06 -1.261064E-10  1.957565E-09
        49  12 -2.542503E+06 -1.512405E+05  1.812650E+05 -1.084228E+06  3.614658E-09 -1.397017E-09
        49  13 -3.756073E+06 -5.628868E+05 -4.159491E+04 -1.459422E+06 -3.381173E-09  5.298906E-10
        49  14 -3.770419E+06 -5.252950E+05 -7.141487E+04 -1.427721E+06 -2.247358E-09  1.095412E-09
        49  15 -3.765831E+06 -6.298735E+05 -1.526795E+05 -1.434207E+06 -2.498091E-10  2.155847E-09
        49  16 -4.853650E+06 -9.702994E+05 -3.371526E+05 -1.750361E+06 -7.235724E-10  6.025195E-10
        49  17 -4.929989E+06 -9.680769E+05 -3.856936E+05 -1.747868E+06  1.734886E-09  2.454945E-09
        49  18 -4.987707E+06 -1.108389E+06 -4.867597E+05 -1.783551E+06 -1.085433E-09  7.756032E-10
        49  19 -2.657328E+06 -1.554139E+05  2.538596E+05 -1.168020E+06 -4.122396E+04  1.471027E+04
        49  20 -2.609539E+06 -8.242482E+04  2.427550E+05 -1.107030E+06 -7.862414E+04  4.368602E+03
        49  21 -2.542489E+06 -1.512368E+05  1.812900E+05 -1.084227E+06 -1.146389E+05 -9.681636E+03
        49  22 -3.756071E+06 -5.628861E+05 -4.159155E+04 -1.459422E+06 -3.935722E+04  1.541461E+04
        49  23 -3.770413E+06 -5.252933E+05 -7.140333E+04 -1.427722E+06 -7.801683E+04  4.602530E+03
        49  24 -3.765816E+06 -6.298698E+05 -1.526542E+05 -1.434206E+06 -1.152857E+05 -9.918203E+03
        49  25 -4.853648E+06 -9.702987E+05 -3.371495E+05 -1.750361E+06 -3.749408E+04  1.611765E+04
        49  26 -4.929983E+06 -9.680753E+05 -3.856822E+05 -1.747868E+06 -7.741067E+04  4.836026E+03
        49  27 -4.987693E+06 -1.108386E+06 -4.867340E+05 -1.783550E+06 -1.159308E+05 -1.015411E+04
        50   1 -2.410352E+06 -7.276443E+04  1.768776E+05 -1.150173E+06  1.505366E+05  1.731159E+04
        50   2 -2.355224E+06  1.024377E+05  6.883577E+04 -1.045303E+06  3.076395E+05  7.408721E+04
        50   3 -2.554500E+06 -4.379031E+05 -3.448238E+05 -7.838870E+05  4.539875E+05  1.591279E+05
        50   4 -3.795756E+06 -5.422786E+05 -1.864050E+05 -1.472827E+06  1.443843E+05  1.499042E+04
        50   5 -3.705947E+06 -4.451789E+05 -3.024132E+05 -1.451440E+06  3.112598E+05  7.543732E+04
        50   6 -3.873091E+06 -1.066545E+06 -7.323509E+05 -1.273343E+06  4.673747E+05  1.641241E+05
        50   7 -5.179310E+06 -1.011769E+06 -5.498484E+05 -1.794871E+06  1.382468E+05  1.267349E+04
        50   8 -5.054897E+06 -9.926126E+05 -6.738302E+05 -1.856750E+06  3.148708E+05  7.678330E+04
        50   9 -5.189950E+06 -1.694771E+06 -1.120048E+06 -1.761754E+06  4.807295E+05  1.691010E+05
        50  10 -2.410377E+06 -7.277087E+04  1.768343E+05 -1.150175E+06  3.462031E-09 -3.490447E-09
        50  11 -2.355328E+06  1.024062E+05  6.864676E+04 -1.045321E+06  4.063661E-09 -2.879802E-09
        50  12 -2.554729E+06 -4.379860E+05 -3.452607E+05 -7.839453E+05 -2.321315E-09 -3.058836E-09
        50  13 -3.795779E+06 -5.422845E+05 -1.864449E+05 -1.472828E+06  1.043997E-09  9.500940E-10
        50  14 -3.706053E+06 -4.452113E+05 -3.026073E+05 -1.451459E+06  4.677127E-10  5.733322E-09
        50  15 -3.873334E+06 -1.066634E+06 -7.328153E+05 -1.273405E+06  1.233100E-09  4.110523E-10
        50  16 -5.179330E+06 -1.011774E+06 -5.498849E+05 -1.794872E+06  2.315186E-09 -1.556853E-09
        50  17 -5.055005E+06 -9.926459E+05 -6.740295E+05 -1.856769E+06  3.569586E-11  2.232636E-09
        50  18 -5.190208E+06 -1.694865E+06 -1.120541E+06 -1.761820E+06  4.074647E-09 -3.628008E-09
        50  19 -2.410352E+06 -7.276443E+04  1.768776E+05 -1.150173E+06 -1.505366E+05 -1.731159E+04
        50  20 -2.355224E+06  1.024377E+05  6.883577E+04 -1.045303E+06 -3.076395E+05 -7.408721E+04
        50  21 -2.554500E+06 -4.379031E+05 -3.448238E+05 -7.838870E+05 -4.539875E+05 -1.591279E+05
        50  22 -3.795756E+06 -5.422786E+05 -1.864050E+05 -1.472827E+06 -1.443843E+05 -1.499042E+04
        50  23 -3.705947E+06 -4.451789E+05 -3.024132E+05 -1.451440E+06 -3.112598E+05 -7.543732E+04
        50  24 -3.873091E+06 -1.066545E+06 -7.323509E+05 -1.273343E+06 -4.673747E+05 -1.641241E+05
        50  25 -5.179310E+06 -1.011769E+06 -5.498484E+05 -1.794871E+06 -1.382468E+05 -1.267349E+04
        50  26 -5.054897E+06 -9.926126E+05 -6.738302E+05 -1.856750E+06 -3.148708E+05 -7.678330E+04
        50  27 -5.189950E+06 -1.694771E+06 -1.120048E+06 -1.761754E+06 -4.807295E+05 -1.691010E+05
        51   1  1.964456E+05 -3.780911E+05  1.905645E+05 -6.389729E+02  8.673545E+03  8.138483E+03
        51   2  2.020444E+05 -3.891906E+05  1.861617E+05  7.957390E+02  2.696171E+04  2.544010E+03
        51   3  1.978774E+05 -4.013898E+05  1.831275E+05 -5.470732E+03  2.725185E+04 -3.105966E+03
        51   4 -8.807662E+03 -1.200869E+06 -1.230967E+04 -1.731099E+03  8.718736E+03 -6.247570E+03
        51   5  1.150844E+03 -1.199488E+06 -7.313927E+03  2.133523E+03  2.698144E+04 -2.345561E+03
        51   6 -3.141143E+02 -1.200861E+06 -7.553310E+03 -1.703453E+03  2.723564E+04  1.500953E+03
        51   7 -2.141114E+05 -2.023030E+06 -2.152332E+05 -2.821300E+03  8.764007E+03 -2.061457E+04
        51   8 -1.997903E+05 -2.009183E+06 -2.008357E+05  3.470082E+03  2.700116E+04 -7.228774E+03
        51   9 -1.985519E+05 -1.999746E+06 -1.982790E+05  2.059534E+03  2.721948E+04  6.101962E+03
        51  10  1.964455E+05 -3.780912E+05  1.905642E+05 -6.390297E+02 -5.081163E-09  2.220895E-09
        51  11  2.020437E+05 -3.891908E+05  1.861603E+05  7.956838E+02  1.444992E-09  2.835032E-09
        51  12  1.978766E+05 -4.013900E+05  1.831261E+05 -5.470664E+03 -5.492411E-10  4.601837E-09
        51  13 -8.807754E+03 -1.200869E+06 -1.230988E+04 -1.731055E+03 -6.875903E-09  5.828699E-12
        51  14  1.150061E+03 -1.199488E+06 -7.315305E+03  2.133574E+03  9.537841E-10 -1.852542E-09
        51  15 -3.149110E+02 -1.200861E+06 -7.554708E+03 -1.703486E+03  1.807246E-09 -1.255197E-09
        51  16 -2.141116E+05 -2.023031E+06 -2.152341E+05 -2.821155E+03 -2.339940E-09 -3.173296E-09
        51  17 -1.997911E+05 -2.009183E+06 -2.008372E+05  3.470239E+03  4.900270E-09 -4.012545E-09
        51  18 -1.985527E+05 -1.999746E+06 -1.982805E+05  2.059400E+03  7.227481E-10 -3.280500E-09
        51  19  1.964456E+05 -3.780911E+05  1.905645E+05 -6.389729E+02 -8.673545E+03 -8.138483E+03
        51  20  2.020444E+05 -3.891906E+05  1.861617E+05  7.957390E+02 -2.696171E+04 -2.544010E+03
        51  21  1.978774E+05 -4.013898E+05  1.831275E+05 -5.470732E+03 -2.725185E+04  3.105966E+03
        51  22 -8.807662E+03 -1.200869E+06 -1.230967E+04 -1.731099E+03 -8.718736E+03  6.247570E+03
        51  23  1.150844E+03 -1.199488E+06 -7.313927E+03  2.133523E+03 -2.698144E+04  2.345561E+03
        51  24 -3.141143E+02 -1.200861E+06 -7.553310E+03 -1.703453E+03 -2.723564E+04 -1.500953E+03
        51  25 -2.141114E+05 -2.023030E+06 -2.152332E+05 -2.821300E+03 -8.764007E+03  2.061457E+04
        51  26 -1.997903E+05 -2.009183E+06 -2.008357E+05  3.470082E+03 -2.700116E+04  7.228774E+03
        51  27 -1.985519E+05 -1.999746E+06 -1.982790E+05  2.059534E+03 -2.721948E+04 -6.101962E+03
        52   1  1.934509E+05 -4.186006E+05  1.789726E+05 -3.625679E+03  2.455674E+04  3.841959E+03
        52   2  1.911665E+05 -4.326154E+05  1.719681E+05 -1.593105E+02  2.520255E+04  8.353685E+03
        52   3  1.794737E+05 -4.490945E+05  1.597766E+05 -7.578672E+03  2.348684E+04  1.285327E+04
        52   4 -5.876237E+02 -1.200839E+06 -8.309421E+03 -2.410783E+03  2.456298E+04  2.865524E+03
        52   5  9.929889E+02 -1.199497E+06 -1.124784E+04  3.016254E+03  2.520339E+04  8.617483E+03
        52   6 -7.057176E+03 -1.200840E+06 -2.024020E+04 -2.443331E+03  2.348100E+04  1.435740E+04
        52   7 -1.946706E+05 -1.982515E+06 -1.956348E+05 -1.196827E+03  2.456922E+04  1.890313E+03
        52   8 -1.892232E+05 -1.965839E+06 -1.945053E+05  6.188508E+03  2.520423E+04  8.880952E+03
        52   9 -1.936290E+05 -1.952067E+06 -2.002970E+05  2.686427E+03  2.347518E+04  1.585970E+04
        52  10  1.934503E+05 -4.186008E+05  1.789715E+05 -3.625755E+03 -3.115562E-09 -4.353066E-09
        52  11  1.911658E+05 -4.326156E+05  1.719668E+05 -1.594801E+02  2.366078E-09 -1.019569E-08
        52  12  1.794731E+05 -4.490948E+05  1.597752E+05 -7.578915E+03 -8.381364E-10 -4.753712E-09
        52  13 -5.882735E+02 -1.200839E+06 -8.310570E+03 -2.410840E+03 -1.760452E-09  2.099874E-10
        52  14  9.922872E+02 -1.199498E+06 -1.124918E+04  3.016079E+03  5.672113E-09 -2.276101E-09
        52  15 -7.057823E+03 -1.200840E+06 -2.024162E+04 -2.443603E+03  6.180303E-09 -1.668063E-09
        52  16 -1.946713E+05 -1.982515E+06 -1.956359E+05 -1.196864E+03 -2.267562E-09  3.133024E-09
        52  17 -1.892239E+05 -1.965839E+06 -1.945066E+05  6.188328E+03 -3.461523E-09  8.764347E-09
        52  18 -1.936297E+05 -1.952067E+06 -2.002985E+05  2.686126E+03  1.566902E-09  6.381063E-09
        52  19  1.934509E+05 -4.186006E+05  1.789726E+05 -3.625679E+03 -2.455674E+04 -3.841959E+03
        52  20  1.911665E+05 -4.326154E+05  1.719681E+05 -1.593105E+02 -2.520255E+04 -8.353685E+03
        52  21  1.794737E+05 -4.490945E+05  1.597766E+05 -7.578672E+03 -2.348684E+04 -1.285327E+04
        52  22 -5.876237E+02 -1.200839E+06 -8.309421E+03 -2.410783E+03 -2.456298E+04 -2.865524E+03
        52  23  9.929889E+02 -1.199497E+06 -1.124784E+04  3.016254E+03 -2.520339E+04 -8.617483E+03
        52  24 -7.057176E+03 -1.200840E+06 -2.024020E+04 -2.443331E+03 -2.348100E+04 -1.435740E+04
        52  25 -1.946706E+05 -1.982515E+06 -1.956348E+05 -1.196827E+03 -2.456922E+04 -1.890313E+03
        52  26 -1.892232E+05 -1.965839E+06 -1.945053E+05  6.188508E+03 -2.520423E+04 -8.880952E+03
        52  27 -1.936290E+05 -1.952067E+06 -2.002970E+05  2.686427E+03 -2.347518E+04 -1.585970E+04
        53   1  1.844076E+05 -4.752977E+05  1.495668E+05  3.470509E+03  2.488807E+04  2.136637E+04
        53   2  1.856588E+05 -4.829971E+05  1.308981E+05 -5.917543E+03  2.344186E+04  3.448084E+04
        53   3  1.035135E+05 -5.129408E+05  8.290433E+04 -2.947069E+04  7.183876E+03  4.750155E+04
        53   4  3.526173E+03 -1.205474E+06 -2.452750E+04 -3.015034E+03  2.490705E+04  1.816933E+04
        53   5  9.334327E+03 -1.193682E+06 -3.883214E+04  3.847422E+03  2.341723E+04  3.908041E+04
        53   6 -6.966080E+04 -1.205514E+06 -8.790627E+04 -3.457618E+03  7.108789E+03  5.989757E+04
        53   7 -1.773936E+05 -1.935161E+06 -1.986592E+05 -9.492247E+03  2.492611E+04  1.497603E+04
        53   8 -1.670264E+05 -1.903902E+06 -2.085979E+05  1.360182E+04  2.339273E+04  4.367471E+04
        53   9 -2.428685E+05 -1.897650E+06 -2.587516E+05  2.252704E+04  7.034701E+03  7.227975E+04
        53  10  1.844068E+05 -4.752984E+05  1.495648E+05  3.470081E+03 -7.742607E-10  3.098884E-09
        53  11  1.856579E+05 -4.829985E+05  1.308948E+05 -5.918194E+03 -1.053828E-09  3.160838E-09
        53  12  1.035128E+05 -5.129433E+05  8.289999E+04 -2.947097E+04 -5.094056E-09  4.704367E-09
        53  13  3.525418E+03 -1.205475E+06 -2.452929E+04 -3.015398E+03  4.463018E-09 -7.673873E-11
        53  14  9.333328E+03 -1.193684E+06 -3.883605E+04  3.846685E+03  9.766161E-10 -3.067234E-09
        53  15 -6.966182E+04 -1.205518E+06 -8.791312E+04 -3.457961E+03 -1.193508E-09 -2.258775E-09
        53  16 -1.773943E+05 -1.935161E+06 -1.986608E+05 -9.492547E+03  2.399773E-09 -4.707046E-09
        53  17 -1.670275E+05 -1.903905E+06 -2.086025E+05  1.360099E+04  1.480523E-09 -5.003400E-09
        53  18 -2.428700E+05 -1.897655E+06 -2.587615E+05  2.252663E+04  3.777452E-09 -2.648771E-09
        53  19  1.844076E+05 -4.752977E+05  1.495668E+05  3.470509E+03 -2.488807E+04 -2.136637E+04
        53  20  1.856588E+05 -4.829971E+05  1.308981E+05 -5.917543E+03 -2.344186E+04 -3.448084E+04
        53  21  1.035135E+05 -5.129408E+05  8.290433E+04 -2.947069E+04 -7.183876E+03 -4.750155E+04
        53  22  3.526173E+03 -1.205474E+06 -2.452750E+04 -3.015034E+03 -2.490705E+04 -1.816933E+04
        53  23  9.334327E+03 -1.193682E+06 -3.883214E+04  3.847422E+03 -2.341723E+04 -3.908041E+04
        53  24 -6.966080E+04 -1.205514E+06 -8.790627E+04 -3.457618E+03 -7.108789E+03 -5.989757E+04
        53  25 -1.773936E+05 -1.935161E+06 -1.986592E+05 -9.492247E+03 -2.492611E+04 -1.497603E+04
        53  26 -1.670264E+05 -1.903902E+06 -2.085979E+05  1.360182E+04 -2.339273E+04 -4.367471E+04
        53  27 -2.428685E+05 -1.897650E+06 -2.587516E+05  2.252704E+04 -7.034701E+03 -7.227975E+04
        54   1  6.353718E+04  6.958639E+05  3.618919E+04 -1.036854E+02  2.223217E+04 -3.913865E+02
        54   2  6.361640E+04  6.959053E+05  3.665316E+04 -7.705448E+01  2.215374E+04 -1.003318E+03
        54   3  6.384509E+04  6.960680E+05  3.755390E+04 -4.386399E+01  2.197478E+04 -1.615301E+03
        54   4 -1.719258E+01  4.136729E+05  4.247993E+02  1.451876E+00  2.223322E+04 -3.231943E+02
        54   5  1.719052E+01  4.136332E+05  7.456200E+02 -1.802926E+00  2.215470E+04 -6.934626E+02
        54   6  1.591591E+02  4.136728E+05  1.335617E+03  1.501619E+00  2.197563E+04 -1.063779E+03
        54   7 -6.357482E+04  1.315636E+05 -3.533986E+04  1.065448E+02  2.223427E+04 -2.550315E+02
        54   8 -6.358528E+04  1.314428E+05 -3.516222E+04  7.341913E+01  2.215566E+04 -3.837412E+02
        54   9 -6.353006E+04  1.313593E+05 -3.488303E+04  4.685269E+01  2.197647E+04 -5.124953E+02
        54  10  6.353665E+04  6.958638E+05  3.618826E+04 -1.036784E+02 -1.292478E-09  5.005942E-09
        54  11  6.361588E+04  6.959052E+05  3.665223E+04 -7.703658E+01  2.074193E-09  1.279781E-09
        54  12  6.384457E+04  6.960678E+05  3.755299E+04 -4.383542E+01 -8.194424E-10 -5.730501E-10
        54  13 -1.772352E+01  4.136728E+05  4.238700E+02  1.457662E+00 -2.982939E-09  2.808018E-10
        54  14  1.666322E+01  4.136331E+05  7.446965E+02 -1.790554E+00 -1.049800E-09 -7.612471E-10
        54  15  1.586401E+02  4.136727E+05  1.334707E+03  1.520444E+00  1.269081E-09  4.412351E-10
        54  16 -6.357535E+04  1.315635E+05 -3.534079E+04  1.065493E+02 -7.633249E-10 -5.486777E-09
        54  17 -6.358581E+04  1.314426E+05 -3.516314E+04  7.342598E+01 -6.925640E-10 -1.527883E-09
        54  18 -6.353058E+04  1.313592E+05 -3.488394E+04  4.686176E+01 -3.583513E-09  7.291356E-10
        54  19  6.353718E+04  6.958639E+05  3.618919E+04 -1.036854E+02 -2.223217E+04  3.913865E+02
        54  20  6.361640E+04  6.959053E+05  3.665316E+04 -7.705448E+01 -2.215374E+04  1.003318E+03
        54  21  6.384509E+04  6.960680E+05  3.755390E+04 -4.386399E+01 -2.197478E+04  1.615301E+03
        54  22 -1.719258E+01  4.136729E+05  4.247993E+02  1.451876E+00 -2.223322E+04  3.231943E+02
        54  23  1.719052E+01  4.136332E+05  7.456200E+02 -1.802926E+00 -2.215470E+04  6.934626E+02
        54  24  1.591591E+02  4.136728E+05  1.335617E+03  1.501619E+00 -2.197563E+04  1.063779E+03
        54  25 -6.357482E+04  1.315636E+05 -3.533986E+04  1.065448E+02 -2.223427E+04  2.550315E+02
        54  26 -6.358528E+04  1.314428E+05 -3.516222E+04  7.341913E+01 -2.215566E+04  3.837412E+02
        54  27 -6.353006E+04  1.313593E+05 -3.488303E+04  4.685269E+01 -2.197647E+04  5.124953E+02
        55   1  6.398697E+04  6.962842E+05  3.820023E+04 -1.310775E+02  2.186175E+04 -1.934397E+03
        55   2  6.474850E+04  6.960189E+05  4.057078E+04  6.385807E+02  2.123491E+04 -5.321435E+03
        55   3  6.693717E+04  6.965551E+05  4.550260E+04  1.364475E+03  1.985924E+04 -8.708882E+03
        55   4  2.343297E+02  4.137640E+05  1.773840E+03 -9.757048E+00  2.186255E+04 -1.324460E+03
        55   5  8.052795E+02  4.135189E+05  3.167764E+03  1.255179E+01  2.123489E+04 -2.911951E+03
        55   6  2.491509E+03  4.137633E+05  5.874658E+03 -8.907385E+00  1.985823E+04 -4.499839E+03
        55   7 -6.352161E+04  1.313254E+05 -3.465295E+04  1.115130E+02  2.186336E+04 -7.147864E+02
        55   8 -6.314132E+04  1.311002E+05 -3.423582E+04 -6.131710E+02  2.123487E+04 -5.035110E+02
        55   9 -6.195769E+04  1.310525E+05 -3.375425E+04 -1.381629E+03  1.985720E+04 -2.926280E+02
        55  10  6.398645E+04  6.962841E+05  3.819933E+04 -1.310434E+02  5.010126E-10  3.548463E-09
        55  11  6.474801E+04  6.960188E+05  4.056988E+04  6.386717E+02  4.154257E-09 -2.062466E-09
        55  12  6.693672E+04  6.965549E+05  4.550172E+04  1.364615E+03  3.526724E-10 -5.554337E-09
        55  13  2.338159E+02  4.137638E+05  1.772939E+03 -9.733731E+00  2.110038E-09  3.901132E-10
        55  14  8.047929E+02  4.135187E+05  3.166901E+03  1.260158E+01  4.392909E-10 -9.480801E-10
        55  15  2.491080E+03  4.137632E+05  5.873879E+03 -8.835429E+00 -2.993926E-10  5.205079E-10
        55  16 -6.352213E+04  1.313252E+05 -3.465385E+04  1.115256E+02 -1.212408E-09 -4.217288E-09
        55  17 -6.314180E+04  1.311001E+05 -3.423667E+04 -6.131624E+02 -2.398073E-09  1.699659E-09
        55  18 -6.195812E+04  1.310524E+05 -3.375500E+04 -1.381624E+03  1.578366E-09  5.707001E-09
        55  19  6.398697E+04  6.962842E+05  3.820023E+04 -1.310775E+02 -2.186175E+04  1.934397E+03
        55  20  6.474850E+04  6.960189E+05  4.057078E+04  6.385807E+02 -2.123491E+04  5.321435E+03
        55  21  6.693717E+04  6.965551E+05  4.550260E+04  1.364475E+03 -1.985924E+04  8.708882E+03
        55  22  2.343297E+02  4.137640E+05  1.773840E+03 -9.757048E+00 -2.186255E+04  1.324460E+03
        55  23  8.052795E+02  4.135189E+05  3.167764E+03  1.255179E+01 -2.123489E+04  2.911951E+03
        55  24  2.491509E+03  4.137633E+05  5.874658E+03 -8.907385E+00 -1.985823E+04  4.499839E+03
        55  25 -6.352161E+04  1.313254E+05 -3.465295E+04  1.115130E+02 -2.186336E+04  7.147864E+02
        55  26 -6.314132E+04  1.311002E+05 -3.423582E+04 -6.131710E+02 -2.123487E+04  5.035110E+02
        55  27 -6.195769E+04  1.310525E+05 -3.375425E+04 -1.381629E+03 -1.985720E+04  2.926280E+02
        56   1  6.827273E+04  6.977611E+05  4.898735E+04  8.511223E+02  1.899011E+04 -1.017569E+04
        56   2  7.589650E+04  6.949463E+05  6.278703E+04  9.843895E+03  1.429303E+04 -3.091356E+04
        56   3  9.685293E+04  6.981651E+05  9.341176E+04  1.838634E+04  4.052191E+03 -5.165504E+04
        56   4  3.433102E+03  4.144823E+05  7.878275E+03 -1.000750E+02  1.898874E+04 -5.525293E+03
        56   5  9.833997E+03  4.126176E+05  1.456026E+04  1.307860E+02  1.428477E+04 -1.294472E+04
        56   6  2.725971E+04  4.144775E+05  2.882618E+04 -8.878810E+01  4.036471E+03 -2.036749E+04
        56   7 -6.141020E+04  1.312844E+05 -3.323204E+04 -1.050811E+03  1.898735E+04 -8.769299E+02
        56   8 -5.623221E+04  1.303681E+05 -3.366790E+04 -9.577761E+03  1.427595E+04  5.016206E+03
        56   9 -4.233726E+04  1.308674E+05 -3.576077E+04 -1.855539E+04  4.018888E+03  1.090590E+04
        56  10  6.827231E+04  6.977609E+05  4.898648E+04  8.512779E+02 -1.195261E-09  5.319199E-09
        56  11  7.589602E+04  6.949452E+05  6.278486E+04  9.844251E+03 -1.168227E-09  6.590388E-10
        56  12  9.685220E+04  6.981622E+05  9.340672E+04  1.838650E+04  5.895056E-10 -1.819774E-09
        56  13  3.432706E+03  4.144822E+05  7.877540E+03 -9.999047E+01 -5.667697E-09  5.275717E-10
        56  14  9.833733E+03  4.126174E+05  1.455956E+04  1.309349E+02 -5.041732E-09 -1.027986E-09
        56  15  2.725958E+04  4.144771E+05  2.882537E+04 -8.872190E+01 -5.891129E-10  7.099844E-10
        56  16 -6.141058E+04  1.312843E+05 -3.323271E+04 -1.050798E+03 -1.755886E-09 -6.122685E-09
        56  17 -5.623244E+04  1.303681E+05 -3.366833E+04 -9.577819E+03 -1.857621E-09 -9.602707E-10
        56  18 -4.233731E+04  1.308673E+05 -3.576102E+04 -1.855543E+04  1.162929E-09  1.977958E-09
        56  19  6.827273E+04  6.977611E+05  4.898735E+04  8.511223E+02 -1.899011E+04  1.017569E+04
        56  20  7.589650E+04  6.949463E+05  6.278703E+04  9.843895E+03 -1.429303E+04  3.091356E+04
        56  21  9.685293E+04  6.981651E+05  9.341176E+04  1.838634E+04 -4.052191E+03  5.165504E+04
        56  22  3.433102E+03  4.144823E+05  7.878275E+03 -1.000750E+02 -1.898874E+04  5.525293E+03
        56  23  9.833997E+03  4.126176E+05  1.456026E+04  1.307860E+02 -1.428477E+04  1.294472E+04
        56  24  2.725971E+04  4.144775E+05  2.882618E+04 -8.878810E+01 -4.036471E+03  2.036749E+04
        56  25 -6.141020E+04  1.312844E+05 -3.323204E+04 -1.050811E+03 -1.898735E+04  8.769299E+02
        56  26 -5.623221E+04  1.303681E+05 -3.366790E+04 -9.577761E+03 -1.427595E+04 -5.016206E+03
        56  27 -4.233726E+04  1.308674E+05 -3.576077E+04 -1.855539E+04 -4.018888E+03 -1.090590E+04
        57   1 -8.466696E+06 -2.477804E+06 -1.527785E+06 -2.947047E+06 -7.615419E+05 -2.762435E+05
        57   2 -8.270491E+06 -1.374232E+06 -8.219812E+05 -3.127714E+06 -4.943271E+05 -1.484809E+05
        57   3 -8.526098E+06 -1.407173E+06 -6.326101E+05 -3.022890E+06 -2.175107E+05 -4.602123E+04
        57   4 -7.364856E+06 -1.857227E+06 -1.183267E+06 -2.443407E+06 -7.498442E+05 -2.721074E+05
        57   5 -7.077394E+06 -8.660759E+05 -4.876219E+05 -2.746403E+06 -4.912176E+05 -1.473621E+05
        57   6 -7.239230E+06 -1.008470E+06 -3.008140E+05 -2.764166E+06 -2.229557E+05 -4.804276E+04
        57   7 -6.261730E+06 -1.236069E+06 -8.388702E+05 -1.938804E+06 -7.381225E+05 -2.679521E+05
        57   8 -5.882898E+06 -3.577299E+05 -1.533993E+05 -2.364384E+06 -4.881006E+05 -1.462397E+05
        57   9 -5.950741E+06 -6.097868E+05  3.085248E+04 -2.505011E+06 -2.284128E+05 -5.006693E+04
        57  10 -8.467347E+06 -2.478045E+06 -1.529038E+06 -2.947218E+06 -1.779448E-09  1.938123E-10
        57  11 -8.270763E+06 -1.374322E+06 -8.224896E+05 -3.127774E+06  1.808792E-09 -9.972742E-11
        57  12 -8.526150E+06 -1.407189E+06 -6.327044E+05 -3.022898E+06 -5.479175E-10  7.988275E-10
        57  13 -7.365486E+06 -1.857461E+06 -1.184479E+06 -2.443572E+06  2.259658E-09 -1.832094E-09
        57  14 -7.077661E+06 -8.661653E+05 -4.881228E+05 -2.746462E+06  7.353615E-09 -1.835863E-09
        57  15 -7.239285E+06 -1.008486E+06 -3.009130E+05 -2.764175E+06  8.059852E-10 -3.422361E-11
        57  16 -6.262340E+06 -1.236295E+06 -8.400419E+05 -1.938964E+06 -3.258860E-09  8.091488E-10
        57  17 -5.883162E+06 -3.578179E+05 -1.538927E+05 -2.364442E+06  3.444829E-09  6.022634E-10
        57  18 -5.950798E+06 -6.098037E+05  3.074859E+04 -2.505020E+06 -3.328462E-09  1.376026E-09
        57  19 -8.466696E+06 -2.477804E+06 -1.527785E+06 -2.947047E+06  7.615419E+05  2.762435E+05
        57  20 -8.270491E+06 -1.374232E+06 -8.219812E+05 -3.127714E+06  4.943271E+05  1.484809E+05
        57  21 -8.526098E+06 -1.407173E+06 -6.326101E+05 -3.022890E+06  2.175107E+05  4.602123E+04
        57  22 -7.364856E+06 -1.857227E+06 -1.183267E+06 -2.443407E+06  7.498442E+05  2.721074E+05
        57  23 -7.077394E+06 -8.660759E+05 -4.876219E+05 -2.746403E+06  4.912176E+05  1.473621E+05
        57  24 -7.239230E+06 -1.008470E+06 -3.008140E+05 -2.764166E+06  2.229557E+05  4.804276E+04
        57  25 -6.261730E+06 -1.236069E+06 -8.388702E+05 -1.938804E+06  7.381225E+05  2.679521E+05
        57  26 -5.882898E+06 -3.577299E+05 -1.533993E+05 -2.364384E+06  4.881006E+05  1.462397E+05
        57  27 -5.950741E+06 -6.097868E+05  3.085248E+04 -2.505011E+06  2.284128E+05  5.006693E+04
        58   1 -8.294622E+06 -1.593734E+06 -5.513571E+05 -3.027558E+06 -1.780771E+05 -3.625015E+04
        58   2 -8.221533E+06 -1.394634E+06 -3.979113E+05 -2.995247E+06 -1.166425E+05 -1.310827E+04
        58   3 -8.148114E+06 -1.399163E+06 -3.293817E+05 -2.994768E+06 -5.373555E+04  6.125914E+03
        58   4 -7.190041E+06 -1.150867E+06 -2.462813E+05 -2.702775E+06 -1.775985E+05 -3.608216E+04
        58   5 -7.182439E+06 -9.951648E+05 -1.147963E+05 -2.707081E+06 -1.174482E+05 -1.341582E+04
        58   6 -7.174155E+06 -1.042672E+06 -6.707842E+04 -2.743236E+06 -5.583396E+04  5.338655E+03
        58   7 -6.084264E+06 -7.078873E+05  5.868145E+04 -2.377447E+06 -1.771188E+05 -3.591365E+04
        58   8 -6.142292E+06 -5.956229E+05  1.682208E+05 -2.418469E+06 -1.182553E+05 -1.372390E+04
        58   9 -6.199273E+06 -6.861416E+05  1.951407E+05 -2.491349E+06 -5.793598E+04  4.550147E+03
        58  10 -8.294657E+06 -1.593744E+06 -5.514201E+05 -3.027563E+06  8.184776E-10  1.094644E-09
        58  11 -8.221548E+06 -1.394638E+06 -3.979376E+05 -2.995249E+06  1.350230E-09 -8.550498E-10
        58  12 -8.148117E+06 -1.399163E+06 -3.293873E+05 -2.994768E+06 -1.917087E-09 -2.770750E-09
        58  13 -7.190075E+06 -1.150877E+06 -2.463438E+05 -2.702780E+06 -2.167897E-09  3.454666E-10
        58  14 -7.182454E+06 -9.951688E+05 -1.148229E+05 -2.707082E+06  2.506369E-09 -2.153487E-10
        58  15 -7.174158E+06 -1.042673E+06 -6.708439E+04 -2.743236E+06 -9.452058E-10 -2.078800E-09
        58  16 -6.084298E+06 -7.078972E+05  5.861940E+04 -2.377452E+06 -2.830476E-09  9.239324E-10
        58  17 -6.142307E+06 -5.956269E+05  1.681939E+05 -2.418470E+06 -3.090087E-09 -4.887883E-11
        58  18 -6.199277E+06 -6.861425E+05  1.951343E+05 -2.491349E+06 -4.730622E-09 -1.292298E-09
        58  19 -8.294622E+06 -1.593734E+06 -5.513571E+05 -3.027558E+06  1.780771E+05  3.625015E+04
        58  20 -8.221533E+06 -1.394634E+06 -3.979113E+05 -2.995247E+06  1.166425E+05  1.310827E+04
        58  21 -8.148114E+06 -1.399163E+06 -3.293817E+05 -2.994768E+06  5.373555E+04 -6.125914E+03
        58  22 -7.190041E+06 -1.150867E+06 -2.462813E+05 -2.702775E+06  1.775985E+05  3.608216E+04
        58  23 -7.182439E+06 -9.951648E+05 -1.147963E+05 -2.707081E+06  1.174482E+05  1.341582E+04
        58  24 -7.174155E+06 -1.042672E+06 -6.707842E+04 -2.743236E+06  5.583396E+04 -5.338655E+03
        58  25 -6.084264E+06 -7.078873E+05  5.868145E+04 -2.377447E+06  1.771188E+05  3.591365E+04
        58  26 -6.142292E+06 -5.956229E+05  1.682208E+05 -2.418469E+06  1.182553E+05  1.372390E+04
        58  27 -6.199273E+06 -6.861416E+05  1.951407E+05 -2.491349E+06  5.793598E+04 -4.550147E+03
        59   1 -7.901742E+06 -1.349739E+06 -2.541045E+05 -2.946172E+06 -4.364973E+04  6.600151E+03
        59   2 -7.819853E+06 -1.235965E+06 -1.937348E+05 -2.859308E+06 -2.798161E+04  7.504417E+03
        59   3 -7.649530E+06 -1.236788E+06 -1.487093E+05 -2.878845E+06 -1.191902E+04  7.333618E+03
        59   4 -7.160879E+06 -1.067378E+06 -5.301429E+04 -2.743117E+06 -4.503505E+04  6.080240E+03
        59   5 -7.204101E+06 -1.003145E+06 -2.674556E+04 -2.692500E+06 -2.973264E+04  6.849762E+03
        59   6 -7.158824E+06 -1.053418E+06 -1.551166E+04 -2.748286E+06 -1.403908E+04  6.543503E+03
        59   7 -6.419483E+06 -7.849828E+05  1.480259E+05 -2.539840E+06 -4.642218E+04  5.559640E+03
        59   8 -6.587979E+06 -7.703037E+05  1.402095E+05 -2.525541E+06 -3.148560E+04  6.194388E+03
        59   9 -6.667883E+06 -8.700356E+05  1.176646E+05 -2.617632E+06 -1.616100E+04  5.752708E+03
        59  10 -7.901744E+06 -1.349739E+06 -2.541082E+05 -2.946172E+06 -9.903805E-10 -1.902395E-09
        59  11 -7.819854E+06 -1.235965E+06 -1.937364E+05 -2.859307E+06  1.172297E-09 -1.557652E-09
        59  12 -7.649530E+06 -1.236788E+06 -1.487097E+05 -2.878845E+06 -2.001729E-10 -2.218003E-10
        59  13 -7.160881E+06 -1.067378E+06 -5.301820E+04 -2.743117E+06 -3.283497E-09 -2.169537E-09
        59  14 -7.204102E+06 -1.003145E+06 -2.674732E+04 -2.692500E+06  4.682835E-09  4.350913E-10
        59  15 -7.158824E+06 -1.053418E+06 -1.551212E+04 -2.748286E+06  1.082509E-09  4.337465E-10
        59  16 -6.419486E+06 -7.849834E+05  1.480218E+05 -2.539840E+06 -4.340162E-09 -1.409651E-09
        59  17 -6.587980E+06 -7.703040E+05  1.402076E+05 -2.525541E+06  3.859322E-09  1.543587E-09
        59  18 -6.667884E+06 -8.700357E+05  1.176640E+05 -2.617632E+06  1.042268E-09  3.005826E-09
        59  19 -7.901742E+06 -1.349739E+06 -2.541045E+05 -2.946172E+06  4.364973E+04 -6.600151E+03
        59  20 -7.819853E+06 -1.235965E+06 -1.937348E+05 -2.859308E+06  2.798161E+04 -7.504417E+03
        59  21 -7.649530E+06 -1.236788E+06 -1.487093E+05 -2.878845E+06  1.191902E+04 -7.333618E+03
        59  22 -7.160879E+06 -1.067378E+06 -5.301429E+04 -2.743117E+06  4.503505E+04 -6.080240E+03
        59  23 -7.204101E+06 -1.003145E+06 -2.674556E+04 -2.692500E+06  2.973264E+04 -6.849762E+03
        59  24 -7.158824E+06 -1.053418E+06 -1.551166E+04 -2.748286E+06  1.403908E+04 -6.543503E+03
        59  25 -6.419483E+06 -7.849828E+05  1.480259E+05 -2.539840E+06  4.642218E+04 -5.559640E+03
        59  26 -6.587979E+06 -7.703037E+05  1.402095E+05 -2.525541E+06  3.148560E+04 -6.194388E+03
        59  27 -6.667883E+06 -8.700356E+05  1.176646E+05 -2.617632E+06  1.616100E+04 -5.752708E+03
        60   1 -7.348413E+06 -1.131783E+06 -6.424067E+04 -2.803297E+06 -8.483355E+03  4.721419E+03
        60   2 -7.256942E+06 -1.019222E+06 -2.022816E+04 -2.700285E+06 -2.619000E+03  4.098832E+02
        60   3 -7.056425E+06 -1.020043E+06  2.021562E+04 -2.724615E+06  3.277823E+03 -3.988800E+03
        60   4 -7.154983E+06 -1.058734E+06 -1.231748E+04 -2.750840E+06 -1.049923E+04  3.971013E+03
        60   5 -7.209386E+06 -1.001288E+06 -7.344648E+03 -2.687444E+06 -4.665051E+03 -3.516300E+02
        60   6 -7.154757E+06 -1.057218E+06 -5.913224E+03 -2.751398E+06  1.200587E+03 -4.761701E+03
        60   7 -6.961516E+06 -9.856820E+05  3.960241E+04 -2.698369E+06 -1.251579E+04  3.220345E+03
        60   8 -7.161828E+06 -9.833536E+05  5.538666E+03 -2.674603E+06 -6.711273E+03 -1.113207E+03
        60   9 -7.253080E+06 -1.094391E+06 -3.204283E+04 -2.778176E+06 -8.762793E+02 -5.534461E+03
        60  10 -7.348413E+06 -1.131783E+06 -6.424085E+04 -2.803297E+06  1.190592E-09 -4.205849E-11
        60  11 -7.256942E+06 -1.019222E+06 -2.022817E+04 -2.700285E+06 -2.020253E-09  2.698615E-09
        60  12 -7.056425E+06 -1.020043E+06  2.021557E+04 -2.724615E+06 -1.288496E-09  3.218169E-09
        60  13 -7.154983E+06 -1.058734E+06 -1.231771E+04 -2.750840E+06  1.991538E-09  1.197291E-09
        60  14 -7.209386E+06 -1.001288E+06 -7.344689E+03 -2.687444E+06 -1.785269E-10 -2.514032E-09
        60  15 -7.154757E+06 -1.057218E+06 -5.913269E+03 -2.751398E+06  1.920919E-09  9.953470E-10
        60  16 -6.961516E+06 -9.856821E+05  3.960210E+04 -2.698369E+06 -9.696732E-10  4.864344E-09
        60  17 -7.161828E+06 -9.833536E+05  5.538578E+03 -2.674603E+06  3.343450E-09  1.004640E-09
        60  18 -7.253080E+06 -1.094391E+06 -3.204289E+04 -2.778176E+06  4.166060E-09  1.348049E-09
        60  19 -7.348413E+06 -1.131783E+06 -6.424067E+04 -2.803297E+06  8.483355E+03 -4.721419E+03
        60  20 -7.256942E+06 -1.019222E+06 -2.022816E+04 -2.700285E+06  2.619000E+03 -4.098832E+02
        60  21 -7.056425E+06 -1.020043E+06  2.021562E+04 -2.724615E+06 -3.277823E+03  3.988800E+03
        60  22 -7.154983E+06 -1.058734E+06 -1.231748E+04 -2.750840E+06  1.049923E+04 -3.971013E+03
        60  23 -7.209386E+06 -1.001288E+06 -7.344648E+03 -2.687444E+06  4.665051E+03  3.516300E+02
        60  24 -7.154757E+06 -1.057218E+06 -5.913224E+03 -2.751398E+06 -1.200587E+03  4.761701E+03
        60  25 -6.961516E+06 -9.856820E+05  3.960241E+04 -2.698369E+06  1.251579E+04 -3.220345E+03
        60  26 -7.161828E+06 -9.833536E+05  5.538666E+03 -2.674603E+06  6.711273E+03  1.113207E+03
        60  27 -7.253080E+06 -1.094391E+06 -3.204283E+04 -2.778176E+06  8.762793E+02  5.534461E+03
        61   1 -6.756423E+06 -9.041463E+05  1.031113E+05 -2.641032E+06  5.550516E+03 -7.072960E+03
        61   2 -6.674463E+06 -8.037159E+05  1.367579E+05 -2.547229E+06  1.108192E+04 -1.133390E+04
        61   3 -6.493179E+06 -8.059076E+05  1.672515E+05 -2.568160E+06  1.635454E+04 -1.487271E+04
        61   4 -7.156967E+06 -1.054777E+06 -5.856399E+03 -2.748643E+06  3.444972E+03 -7.857099E+03
        61   5 -7.206736E+06 -1.004361E+06 -7.386473E+03 -2.690927E+06  9.229832E+03 -1.202544E+04
        61   6 -7.157247E+06 -1.056628E+06 -1.227340E+04 -2.747961E+06  1.475497E+04 -1.547159E+04
        61   7 -7.557355E+06 -1.205398E+06 -1.148388E+05 -2.856190E+06  1.340933E+03 -8.640681E+03
        61   8 -7.738734E+06 -1.204989E+06 -1.515565E+05 -2.834514E+06  7.379508E+03 -1.271632E+04
        61   9 -7.820886E+06 -1.307322E+06 -1.918379E+05 -2.927587E+06  1.315729E+04 -1.606975E+04
        61  10 -6.756423E+06 -9.041464E+05  1.031111E+05 -2.641032E+06  1.364101E-09  1.562343E-09
        61  11 -6.674464E+06 -8.037161E+05  1.367574E+05 -2.547229E+06  3.211565E-10 -2.959494E-09
        61  12 -6.493179E+06 -8.059079E+05  1.672506E+05 -2.568159E+06 -1.087793E-09  2.589659E-09
        61  13 -7.156967E+06 -1.054777E+06 -5.856536E+03 -2.748643E+06  3.484474E-09 -7.932872E-10
        61  14 -7.206736E+06 -1.004361E+06 -7.386904E+03 -2.690927E+06  2.766548E-09  3.499204E-09
        61  15 -7.157247E+06 -1.056628E+06 -1.227426E+04 -2.747961E+06 -1.075334E-09  1.699030E-09
        61  16 -7.557355E+06 -1.205398E+06 -1.148390E+05 -2.856190E+06 -6.222619E-10 -2.466248E-09
        61  17 -7.738734E+06 -1.204989E+06 -1.515569E+05 -2.834514E+06  1.300483E-09  3.691481E-10
        61  18 -7.820886E+06 -1.307322E+06 -1.918387E+05 -2.927587E+06 -5.753968E-10  7.308320E-10
        61  19 -6.756423E+06 -9.041463E+05  1.031113E+05 -2.641032E+06 -5.550516E+03  7.072960E+03
        61  20 -6.674463E+06 -8.037159E+05  1.367579E+05 -2.547229E+06 -1.108192E+04  1.133390E+04
        61  21 -6.493179E+06 -8.059076E+05  1.672515E+05 -2.568160E+06 -1.635454E+04  1.487271E+04
        61  22 -7.156967E+06 -1.054777E+06 -5.856399E+03 -2.748643E+06 -3.444972E+03  7.857099E+03
        61  23 -7.206736E+06 -1.004361E+06 -7.386473E+03 -2.690927E+06 -9.229832E+03  1.202544E+04
        61  24 -7.157247E+06 -1.056628E+06 -1.227340E+04 -2.747961E+06 -1.475497E+04  1.547159E+04
        61  25 -7.557355E+06 -1.205398E+06 -1.148388E+05 -2.856190E+06 -1.340933E+03  8.640681E+03
        61  26 -7.738734E+06 -1.204989E+06 -1.515565E+05 -2.834514E+06 -7.379508E+03  1.271632E+04
        61  27 -7.820886E+06 -1.307322E+06 -1.918379E+05 -2.927587E+06 -1.315729E+04  1.606975E+04
        62   1 -6.261102E+06 -7.073044E+05  2.296451E+05 -2.497630E+06  1.977489E+04 -1.673127E+04
        62   2 -6.206572E+06 -6.366657E+05  2.416037E+05 -2.432888E+06  3.444271E+04 -1.592192E+04
        62   3 -6.091147E+06 -6.506543E+05  2.393957E+05 -2.439903E+06  4.854739E+04 -1.357408E+04
        62   4 -7.165118E+06 -1.047031E+06 -1.539346E+04 -2.740562E+06  1.802811E+04 -1.738687E+04
        62   5 -7.196540E+06 -1.011617E+06 -2.676867E+04 -2.702084E+06  3.322217E+04 -1.638299E+04
        62   6 -7.167191E+06 -1.060964E+06 -5.274940E+04 -2.735374E+06  4.785065E+04 -1.384031E+04
        62   7 -8.068338E+06 -1.386711E+06 -2.605051E+05 -2.983171E+06  1.628415E+04 -1.804142E+04
        62   8 -8.185556E+06 -1.386509E+06 -2.952294E+05 -2.970888E+06  3.200377E+04 -1.684327E+04
        62   9 -8.242112E+06 -1.471202E+06 -3.449999E+05 -3.030376E+06  4.715521E+04 -1.410605E+04
        62  10 -6.261102E+06 -7.073048E+05  2.296439E+05 -2.497630E+06 -7.261829E-10  3.529786E-09
        62  11 -6.206573E+06 -6.366663E+05  2.416009E+05 -2.432887E+06  9.029210E-10 -6.076005E-11
        62  12 -6.091149E+06 -6.506551E+05  2.393909E+05 -2.439903E+06 -1.354677E-09  5.022750E-10
        62  13 -7.165118E+06 -1.047031E+06 -1.539464E+04 -2.740562E+06  2.154202E-11  3.262923E-09
        62  14 -7.196542E+06 -1.011617E+06 -2.677126E+04 -2.702084E+06  3.333076E-09 -1.483023E-10
        62  15 -7.167194E+06 -1.060965E+06 -5.275409E+04 -2.735373E+06 -1.002682E-09 -1.633236E-11
        62  16 -8.068338E+06 -1.386712E+06 -2.605062E+05 -2.983171E+06  3.096357E-09  2.478181E-09
        62  17 -8.185557E+06 -1.386510E+06 -2.952318E+05 -2.970888E+06  5.455900E-10  5.650840E-10
        62  18 -8.242114E+06 -1.471203E+06 -3.450045E+05 -3.030375E+06  1.042659E-09 -6.205240E-10
        62  19 -6.261102E+06 -7.073044E+05  2.296451E+05 -2.497630E+06 -1.977489E+04  1.673127E+04
        62  20 -6.206572E+06 -6.366657E+05  2.416037E+05 -2.432888E+06 -3.444271E+04  1.592192E+04
        62  21 -6.091147E+06 -6.506543E+05  2.393957E+05 -2.439903E+06 -4.854739E+04  1.357408E+04
        62  22 -7.165118E+06 -1.047031E+06 -1.539346E+04 -2.740562E+06 -1.802811E+04  1.738687E+04
        62  23 -7.196540E+06 -1.011617E+06 -2.676867E+04 -2.702084E+06 -3.322217E+04  1.638299E+04
        62  24 -7.167191E+06 -1.060964E+06 -5.274940E+04 -2.735374E+06 -4.785065E+04  1.384031E+04
        62  25 -8.068338E+06 -1.386711E+06 -2.605051E+05 -2.983171E+06 -1.628415E+04  1.804142E+04
        62  26 -8.185556E+06 -1.386509E+06 -2.952294E+05 -2.970888E+06 -3.200377E+04  1.684327E+04
        62  27 -8.242112E+06 -1.471202E+06 -3.449999E+05 -3.030376E+06 -4.715521E+04  1.410605E+04
        63   1 -5.975592E+06 -5.873450E+05  2.586545E+05 -2.415413E+06  5.949404E+04 -1.136510E+04
        63   2 -5.953407E+06 -5.381832E+05  2.171509E+05 -2.381409E+06  1.188236E+05  9.045652E+03
        63   3 -5.970853E+06 -6.490549E+05  9.358292E+04 -2.331044E+06  1.767083E+05  3.328147E+04
        63   4 -7.183269E+06 -1.033672E+06 -6.679563E+04 -2.732459E+06  5.813575E+04 -1.188045E+04
        63   5 -7.171257E+06 -1.007077E+06 -1.144194E+05 -2.720442E+06  1.187135E+05  8.997590E+03
        63   6 -7.199243E+06 -1.140951E+06 -2.452329E+05 -2.692040E+06  1.778438E+05  3.369940E+04
        63   7 -8.389530E+06 -1.479932E+06 -3.923755E+05 -3.048949E+06  5.678031E+04 -1.239480E+04
        63   8 -8.387663E+06 -1.475871E+06 -4.461242E+05 -3.058862E+06  1.186035E+05  8.949536E+03
        63   9 -8.426159E+06 -1.632709E+06 -5.841884E+05 -3.052366E+06  1.789765E+05  3.411613E+04
        63  10 -5.975596E+06 -5.873461E+05  2.586476E+05 -2.415413E+06  2.362587E-09 -9.297435E-10
        63  11 -5.953422E+06 -5.381871E+05  2.171240E+05 -2.381410E+06  1.827672E-10 -9.422696E-10
        63  12 -5.970887E+06 -6.490646E+05  9.352151E+04 -2.331049E+06  1.234205E-09 -8.591457E-10
        63  13 -7.183273E+06 -1.033673E+06 -6.680230E+04 -2.732458E+06 -2.855848E-09  7.482055E-10
        63  14 -7.171272E+06 -1.007081E+06 -1.144464E+05 -2.720442E+06  4.270674E-09 -5.955656E-10
        63  15 -7.199278E+06 -1.140961E+06 -2.452953E+05 -2.692045E+06 -2.904823E-09  2.238003E-09
        63  16 -8.389533E+06 -1.479933E+06 -3.923819E+05 -3.048948E+06  1.941048E-10 -1.299161E-09
        63  17 -8.387678E+06 -1.475875E+06 -4.461512E+05 -3.058862E+06  3.352382E-09 -1.441358E-09
        63  18 -8.426194E+06 -1.632720E+06 -5.842517E+05 -3.052371E+06  2.940825E-10 -1.201497E-09
        63  19 -5.975592E+06 -5.873450E+05  2.586545E+05 -2.415413E+06 -5.949404E+04  1.136510E+04
        63  20 -5.953407E+06 -5.381832E+05  2.171509E+05 -2.381409E+06 -1.188236E+05 -9.045652E+03
        63  21 -5.970853E+06 -6.490549E+05  9.358292E+04 -2.331044E+06 -1.767083E+05 -3.328147E+04
        63  22 -7.183269E+06 -1.033672E+06 -6.679563E+04 -2.732459E+06 -5.813575E+04  1.188045E+04
        63  23 -7.171257E+06 -1.007077E+06 -1.144194E+05 -2.720442E+06 -1.187135E+05 -8.997590E+03
        63  24 -7.199243E+06 -1.140951E+06 -2.452329E+05 -2.692040E+06 -1.778438E+05 -3.369940E+04
        63  25 -8.389530E+06 -1.479932E+06 -3.923755E+05 -3.048949E+06 -5.678031E+04  1.239480E+04
        63  26 -8.387663E+06 -1.475871E+06 -4.461242E+05 -3.058862E+06 -1.186035E+05 -8.949536E+03
        63  27 -8.426159E+06 -1.632709E+06 -5.841884E+05 -3.052366E+06 -1.789765E+05 -3.411613E+04
        64   1 -5.960369E+06 -5.980990E+05  3.227469E+04 -2.490819E+06  2.262531E+05  4.908232E+04
        64   2 -5.928750E+06 -3.907358E+05 -1.666522E+05 -2.392475E+06  4.848526E+05  1.483678E+05
        64   3 -6.389028E+06 -1.263483E+06 -8.658751E+05 -1.958497E+06  7.349740E+05  2.698112E+05
        64   4 -7.248859E+06 -9.989622E+05 -2.996524E+05 -2.752998E+06  2.222737E+05  4.760335E+04
        64   5 -7.065062E+06 -8.792392E+05 -4.856242E+05 -2.760414E+06  4.882728E+05  1.496158E+05
        64   6 -7.375485E+06 -1.842437E+06 -1.178514E+06 -2.431905E+06  7.458519E+05  2.736783E+05
        64   7 -8.535729E+06 -1.399843E+06 -6.317104E+05 -3.014741E+06  2.183030E+05  4.612630E+04
        64   8 -8.200103E+06 -1.367560E+06 -8.047189E+05 -3.127700E+06  4.916854E+05  1.508599E+05
        64   9 -8.360883E+06 -2.420848E+06 -1.491244E+06 -2.904489E+06  7.567096E+05  2.775285E+05
        64  10 -5.960425E+06 -5.981155E+05  3.217286E+04 -2.490828E+06  3.422966E-10 -1.919700E-09
        64  11 -5.929010E+06 -3.908236E+05 -1.671408E+05 -2.392533E+06  4.666511E-10 -7.751686E-09
        64  12 -6.389633E+06 -1.263708E+06 -8.670401E+05 -1.958658E+06  5.202786E-10 -5.931758E-09
        64  13 -7.248913E+06 -9.989782E+05 -2.997508E+05 -2.753007E+06 -8.070316E-11  2.854796E-09
        64  14 -7.065327E+06 -8.793286E+05 -4.861208E+05 -2.760473E+06  7.803120E-09  2.710214E-09
        64  15 -7.376110E+06 -1.842671E+06 -1.179716E+06 -2.432071E+06  3.821467E-10 -1.058812E-09
        64  16 -8.535782E+06 -1.399859E+06 -6.318054E+05 -3.014750E+06 -5.109533E-09 -2.436670E-09
        64  17 -8.200372E+06 -1.367650E+06 -8.052237E+05 -3.127761E+06 -3.628636E-09 -3.592276E-10
        64  18 -8.361527E+06 -2.421088E+06 -1.492484E+06 -2.904660E+06 -2.376582E-09 -1.562065E-09
        64  19 -5.960369E+06 -5.980990E+05  3.227469E+04 -2.490819E+06 -2.262531E+05 -4.908232E+04
        64  20 -5.928750E+06 -3.907358E+05 -1.666522E+05 -2.392475E+06 -4.848526E+05 -1.483678E+05
        64  21 -6.389028E+06 -1.263483E+06 -8.658751E+05 -1.958497E+06 -7.349740E+05 -2.698112E+05
        64  22 -7.248859E+06 -9.989622E+05 -2.996524E+05 -2.752998E+06 -2.222737E+05 -4.760335E+04
        64  23 -7.065062E+06 -8.792392E+05 -4.856242E+05 -2.760414E+06 -4.882728E+05 -1.496158E+05
        64  24 -7.375485E+06 -1.842437E+06 -1.178514E+06 -2.431905E+06 -7.458519E+05 -2.736783E+05
        64  25 -8.535729E+06 -1.399843E+06 -6.317104E+05 -3.014741E+06 -2.183030E+05 -4.612630E+04
        64  26 -8.200103E+06 -1.367560E+06 -8.047189E+05 -3.127700E+06 -4.916854E+05 -1.508599E+05
        64  27 -8.360883E+06 -2.420848E+06 -1.491244E+06 -2.904489E+06 -7.567096E+05 -2.775285E+05
        65   1 -1.242740E+06 -1.856885E+05 -1.486600E+05 -1.039835E+04  9.803994E+04  9.890797E+03
        65   2 -1.210642E+06 -3.175431E+05 -2.206539E+05  2.864580E+03  6.811538E+04  2.786538E+04
        65   3 -1.129315E+06 -2.853028E+05 -2.312913E+05 -4.725760E+04  3.830621E+04  2.462934E+04
        65   4 -7.768864E+03  1.224974E+05  1.581910E+05 -3.219920E+04  1.078346E+05  9.943709E+03
        65   5 -3.296823E+04 -2.416973E+04  6.794225E+04 -1.427142E+02  7.073024E+04  2.787409E+04
        65   6 -7.778032E+03 -5.660158E+03  4.395181E+04 -3.146269E+04  3.374447E+04  2.460976E+04
        65   7  1.228590E+06  4.305711E+05  4.649287E+05 -5.404554E+04  1.176485E+05  9.995883E+03
        65   8  1.145970E+06  2.691009E+05  3.564369E+05 -3.157289E+03  7.334996E+04  2.788277E+04
        65   9  1.114906E+06  2.738898E+05  3.191027E+05 -1.564021E+04  2.917445E+04  2.458995E+04
        65  10 -1.242751E+06 -1.856912E+05 -1.486783E+05 -1.039913E+04  1.882731E-09  1.756991E-09
        65  11 -1.210647E+06 -3.175452E+05 -2.206641E+05  2.863051E+03  2.693760E-09 -2.384622E-09
        65  12 -1.129316E+06 -2.853038E+05 -2.312952E+05 -4.725837E+04 -2.674660E-09 -5.714670E-10
        65  13 -7.781376E+03  1.224942E+05  1.581689E+05 -3.220006E+04 -5.168585E-10  5.547144E-10
        65  14 -3.297381E+04 -2.417190E+04  6.793139E+04 -1.443019E+02 -1.040335E-09 -6.768697E-09
        65  15 -7.779417E+03 -5.661114E+03  4.394854E+04 -3.146335E+04  3.310142E-09 -3.193614E-10
        65  16  1.228575E+06  4.305673E+05  4.649025E+05 -5.404648E+04  2.967112E-09 -7.613837E-10
        65  17  1.145965E+06  2.690986E+05  3.564253E+05 -3.158935E+03 -1.751925E-09 -1.471879E-09
        65  18  1.114905E+06  2.738890E+05  3.190999E+05 -1.564078E+04 -1.561854E-09 -1.913345E-09
        65  19 -1.242740E+06 -1.856885E+05 -1.486600E+05 -1.039835E+04 -9.803994E+04 -9.890797E+03
        65  20 -1.210642E+06 -3.175431E+05 -2.206539E+05  2.864580E+03 -6.811538E+04 -2.786538E+04
        65  21 -1.129315E+06 -2.853028E+05 -2.312913E+05 -4.725760E+04 -3.830621E+04 -2.462934E+04
        65  22 -7.768864E+03  1.224974E+05  1.581910E+05 -3.219920E+04 -1.078346E+05 -9.943709E+03
        65  23 -3.296823E+04 -2.416973E+04  6.794225E+04 -1.427142E+02 -7.073024E+04 -2.787409E+04
        65  24 -7.778032E+03 -5.660158E+03  4.395181E+04 -3.146269E+04 -3.374447E+04 -2.460976E+04
        65  25  1.228590E+06  4.305711E+05  4.649287E+05 -5.404554E+04 -1.176485E+05 -9.995883E+03
        65  26  1.145970E+06  2.691009E+05  3.564369E+05 -3.157289E+03 -7.334996E+04 -2.788277E+04
        65  27  1.114906E+06  2.738898E+05  3.191027E+05 -1.564021E+04 -2.917445E+04 -2.458995E+04
        66   1 -1.009005E+06 -2.317510E+05 -2.076883E+05 -3.086373E+04  2.616764E+04  2.019800E+04
        66   2 -9.570388E+05 -2.364718E+05 -2.120232E+05 -1.017423E+03  1.782087E+04  2.038511E+04
        66   3 -8.960704E+05 -2.199527E+05 -2.050760E+05 -3.432992E+04  9.475797E+03  1.822124E+04
        66   4 -1.685926E+04  1.554074E+04  3.609517E+04 -3.167510E+04  2.666296E+04  2.019743E+04
        66   5 -2.142480E+04 -3.319580E+03  1.756691E+04 -7.310112E+01  1.751432E+04  2.038236E+04
        66   6 -1.685981E+04 -8.167577E+02  1.086581E+04 -3.162382E+04  8.368149E+03  1.821784E+04
        66   7  9.761837E+05  2.627593E+05  2.798062E+05 -3.248849E+04  2.715904E+04  2.019686E+04
        66   8  9.149871E+05  2.297677E+05  2.470927E+05  8.721565E+02  1.720729E+04  2.037962E+04
        66   9  8.630551E+05  2.182618E+05  2.267508E+05 -2.891414E+04  7.258926E+03  1.821443E+04
        66  10 -1.009006E+06 -2.317516E+05 -2.076904E+05 -3.086416E+04 -1.142213E-09 -1.802276E-09
        66  11 -9.570393E+05 -2.364724E+05 -2.120246E+05 -1.017716E+03 -2.000321E-09  2.549605E-09
        66  12 -8.960706E+05 -2.199531E+05 -2.050768E+05 -3.433006E+04 -4.031545E-09 -1.700602E-09
        66  13 -1.686014E+04  1.554011E+04  3.609306E+04 -3.167554E+04 -1.240416E-09 -6.416839E-10
        66  14 -2.142524E+04 -3.320109E+03  1.756555E+04 -7.338862E+01 -1.065578E-09  2.744914E-10
        66  15 -1.685997E+04 -8.171329E+02  1.086506E+04 -3.162394E+04  1.725644E-09 -1.261316E-09
        66  16  9.761828E+05  2.627587E+05  2.798041E+05 -3.248893E+04  1.212091E-09  9.272408E-10
        66  17  9.149867E+05  2.297672E+05  2.470914E+05  8.718742E+02  2.504461E-09 -2.813136E-09
        66  18  8.630550E+05  2.182614E+05  2.267500E+05 -2.891425E+04  4.824786E-09  7.329741E-10
        66  19 -1.009005E+06 -2.317510E+05 -2.076883E+05 -3.086373E+04 -2.616764E+04 -2.019800E+04
        66  20 -9.570388E+05 -2.364718E+05 -2.120232E+05 -1.017423E+03 -1.782087E+04 -2.038511E+04
        66  21 -8.960704E+05 -2.199527E+05 -2.050760E+05 -3.432992E+04 -9.475797E+03 -1.822124E+04
        66  22 -1.685926E+04  1.554074E+04  3.609517E+04 -3.167510E+04 -2.666296E+04 -2.019743E+04
        66  23 -2.142480E+04 -3.319580E+03  1.756691E+04 -7.310112E+01 -1.751432E+04 -2.038236E+04
        66  24 -1.685981E+04 -8.167577E+02  1.086581E+04 -3.162382E+04 -8.368149E+03 -1.821784E+04
        66  25  9.761837E+05  2.627593E+05  2.798062E+05 -3.248849E+04 -2.715904E+04 -2.019686E+04
        66  26  9.149871E+05  2.297677E+05  2.470927E+05  8.721565E+02 -1.720729E+04 -2.037962E+04
        66  27  8.630551E+05  2.182618E+05  2.267508E+05 -2.891414E+04 -7.258926E+03 -1.821443E+04
        67   1 -7.675681E+05 -1.848700E+05 -1.752075E+05 -3.200877E+04  7.164318E+03  1.668286E+04
        67   2 -7.121573E+05 -1.731097E+05 -1.655779E+05 -2.746442E+02  5.004695E+03  1.490485E+04
        67   3 -6.544768E+05 -1.586259E+05 -1.535921E+05 -3.183804E+04  2.841123E+03  1.286502E+04
        67   4 -1.831539E+04  1.802221E+03  8.546100E+03 -3.167186E+04  6.617614E+03  1.668092E+04
        67   5 -1.945587E+04 -5.098524E+02  4.413566E+03 -2.421183E+01  4.367644E+03  1.490342E+04
        67   6 -1.831539E+04 -8.403626E+01  2.698149E+03 -3.166971E+04  2.113920E+03  1.286423E+04
        67   7  7.314490E+05  1.884328E+05  1.922585E+05 -3.133468E+04  6.070247E+03  1.667898E+04
        67   8  6.736827E+05  1.720543E+05  1.743698E+05  2.264377E+02  3.729882E+03  1.490198E+04
        67   9  6.182147E+05  1.584278E+05  1.589587E+05 -3.150119E+04  1.385973E+03  1.286344E+04
        67  10 -7.675682E+05 -1.848703E+05 -1.752081E+05 -3.200887E+04 -5.059872E-10 -5.921922E-10
        67  11 -7.121574E+05 -1.731099E+05 -1.655784E+05 -2.747043E+02 -3.528910E-10 -3.724298E-10
        67  12 -6.544769E+05 -1.586261E+05 -1.535925E+05 -3.183807E+04 -3.038318E-09 -8.488460E-11
        67  13 -1.831551E+04  1.801910E+03  8.545495E+03 -3.167195E+04  3.378557E-10 -9.062793E-10
        67  14 -1.945595E+04 -5.100961E+02  4.413113E+03 -2.426426E+01 -1.080423E-09 -3.308225E-10
        67  15 -1.831544E+04 -8.421517E+01  2.697829E+03 -3.166974E+04 -5.198042E-12 -2.279524E-10
        67  16  7.314488E+05  1.884325E+05  1.922579E+05 -3.133476E+04  2.342218E-09 -3.732251E-10
        67  17  6.736827E+05  1.720541E+05  1.743694E+05  2.263930E+02 -9.575749E-10 -7.001117E-10
        67  18  6.182147E+05  1.584276E+05  1.589584E+05 -3.150121E+04  5.009647E-10 -2.560398E-10
        67  19 -7.675681E+05 -1.848700E+05 -1.752075E+05 -3.200877E+04 -7.164318E+03 -1.668286E+04
        67  20 -7.121573E+05 -1.731097E+05 -1.655779E+05 -2.746442E+02 -5.004695E+03 -1.490485E+04
        67  21 -6.544768E+05 -1.586259E+05 -1.535921E+05 -3.183804E+04 -2.841123E+03 -1.286502E+04
        67  22 -1.831539E+04  1.802221E+03  8.546100E+03 -3.167186E+04 -6.617614E+03 -1.668092E+04
        67  23 -1.945587E+04 -5.098524E+02  4.413566E+03 -2.421183E+01 -4.367644E+03 -1.490342E+04
        67  24 -1.831539E+04 -8.403626E+01  2.698149E+03 -3.166971E+04 -2.113920E+03 -1.286423E+04
        67  25  7.314490E+05  1.884328E+05  1.922585E+05 -3.133468E+04 -6.070247E+03 -1.667898E+04
        67  26  6.736827E+05  1.720543E+05  1.743698E+05  2.264377E+02 -3.729882E+03 -1.490198E+04
        67  27  6.182147E+05  1.584278E+05  1.589587E+05 -3.150119E+04 -1.385973E+03 -1.286344E+04
        68   1 -5.245760E+05 -1.258409E+05 -1.219359E+05 -3.154160E+04  2.343641E+03  1.164602E+04
        68   2 -4.682181E+05 -1.120222E+05 -1.091924E+05  2.389140E+02  1.821274E+03  9.647801E+03
        68   3 -4.112918E+05 -9.778513E+04 -9.592383E+04 -3.135817E+04  1.296228E+03  7.621069E+03
        68   4 -1.864953E+04  1.724901E+02  2.039152E+03 -3.168838E+04  1.678283E+03  1.164565E+04
        68   5 -1.893309E+04 -9.002661E+01  1.050932E+03 -1.006507E+00  1.145918E+03  9.647859E+03
        68   6 -1.864950E+04  6.773305E+01  5.946805E+02 -3.168838E+04  6.109219E+02  7.621569E+03
        68   7  4.875102E+05  1.261669E+05  1.259954E+05 -3.183526E+04  1.012384E+03  1.164529E+04
        68   8  4.305358E+05  1.118272E+05  1.112794E+05 -2.410667E+02  4.700742E+02  9.647917E+03
        68   9  3.741332E+05  9.790914E+04  9.710185E+04 -3.201876E+04 -7.481758E+01  7.622069E+03
        68  10 -5.245760E+05 -1.258411E+05 -1.219362E+05 -3.154163E+04 -3.096556E-09 -1.964755E-10
        68  11 -4.682181E+05 -1.120223E+05 -1.091926E+05  2.388998E+02 -1.440195E-09 -4.957478E-10
        68  12 -4.112918E+05 -9.778519E+04 -9.592395E+04 -3.135817E+04 -1.065137E-09 -1.304651E-10
        68  13 -1.864957E+04  1.723437E+02  2.038892E+03 -3.168840E+04  2.077904E-09  6.112634E-12
        68  14 -1.893311E+04 -9.012691E+01  1.050755E+03 -1.015411E+00 -2.159021E-09 -2.253238E-10
        68  15 -1.864952E+04  6.767057E+01  5.945707E+02 -3.168839E+04 -5.219876E-10  9.657261E-10
        68  16  4.875102E+05  1.261668E+05  1.259952E+05 -3.183527E+04 -3.907073E-11 -9.356623E-10
        68  17  4.305357E+05  1.118271E+05  1.112793E+05 -2.410703E+02 -1.802915E-09 -1.239702E-09
        68  18  3.741332E+05  9.790907E+04  9.710174E+04 -3.201876E+04  2.011496E-09 -4.788758E-10
        68  19 -5.245760E+05 -1.258409E+05 -1.219359E+05 -3.154160E+04 -2.343641E+03 -1.164602E+04
        68  20 -4.682181E+05 -1.120222E+05 -1.091924E+05  2.389140E+02 -1.821274E+03 -9.647801E+03
        68  21 -4.112918E+05 -9.778513E+04 -9.592383E+04 -3.135817E+04 -1.296228E+03 -7.621069E+03
        68  22 -1.864953E+04  1.724901E+02  2.039152E+03 -3.168838E+04 -1.678283E+03 -1.164565E+04
        68  23 -1.893309E+04 -9.002661E+01  1.050932E+03 -1.006507E+00 -1.145918E+03 -9.647859E+03
        68  24 -1.864950E+04  6.773305E+01  5.946805E+02 -3.168838E+04 -6.109219E+02 -7.621569E+03
        68  25  4.875102E+05  1.261669E+05  1.259954E+05 -3.183526E+04 -1.012384E+03 -1.164529E+04
        68  26  4.305358E+05  1.118272E+05  1.112794E+05 -2.410667E+02 -4.700742E+02 -9.647917E+03
        68  27  3.741332E+05  9.790914E+04  9.710185E+04 -3.201876E+04  7.481758E+01 -7.622069E+03
        69   1 -2.810105E+05 -6.522551E+04 -6.378299E+04 -3.145081E+04  1.199519E+03  6.434540E+03
        69   2 -2.242628E+05 -5.119917E+04 -5.035693E+04  2.373186E+02  1.158678E+03  4.409500E+03
        69   3 -1.676065E+05 -3.704756E+04 -3.690088E+04 -3.149826E+04  1.116651E+03  2.395021E+03
        69   4 -1.876963E+04  6.526296E+01  3.811337E+02 -3.169896E+04  5.176606E+02  6.435286E+03
        69   5 -1.872259E+04  7.590502E-01  7.069974E+01  1.223242E+01  4.803186E+02  4.410431E+03
        69   6 -1.876961E+04  6.136492E+01 -2.117831E+02 -3.169898E+04  4.417949E+02  2.396146E+03
        69   7  2.435339E+05  6.535095E+04  6.454023E+04 -3.194719E+04 -1.644858E+02  6.436033E+03
        69   8  1.868561E+05  5.119755E+04  5.049523E+04 -2.129140E+02 -1.982650E+02  4.411362E+03
        69   9  1.300874E+05  3.716864E+04  3.647568E+04 -3.189973E+04 -2.332232E+02  2.397271E+03
        69  10 -2.810105E+05 -6.522556E+04 -6.378307E+04 -3.145082E+04 -1.749898E-09 -6.098387E-10
        69  11 -2.242628E+05 -5.119919E+04 -5.035696E+04  2.373145E+02  8.138359E-10 -1.112245E-09
        69  12 -1.676065E+05 -3.704756E+04 -3.690089E+04 -3.149826E+04  1.219723E-09 -8.601636E-10
        69  13 -1.876964E+04  6.521842E+01  3.810554E+02 -3.169896E+04  1.813838E-09  3.235132E-09
        69  14 -1.872260E+04  7.381005E-01  7.066275E+01  1.223071E+01  2.158986E-09  1.386919E-09
        69  15 -1.876961E+04  6.135870E+01 -2.117942E+02 -3.169898E+04  7.041558E-10 -2.525894E-09
        69  16  2.435339E+05  6.535091E+04  6.454015E+04 -3.194719E+04  8.950429E-10  6.123094E-11
        69  17  1.868561E+05  5.119753E+04  5.049519E+04 -2.129133E+02  4.755231E-10 -6.374032E-10
        69  18  1.300874E+05  3.716863E+04  3.647567E+04 -3.189973E+04 -9.669323E-10 -3.820848E-10
        69  19 -2.810105E+05 -6.522551E+04 -6.378299E+04 -3.145081E+04 -1.199519E+03 -6.434540E+03
        69  20 -2.242628E+05 -5.119917E+04 -5.035693E+04  2.373186E+02 -1.158678E+03 -4.409500E+03
        69  21 -1.676065E+05 -3.704756E+04 -3.690088E+04 -3.149826E+04 -1.116651E+03 -2.395021E+03
        69  22 -1.876963E+04  6.526296E+01  3.811337E+02 -3.169896E+04 -5.176606E+02 -6.435286E+03
        69  23 -1.872259E+04  7.590502E-01  7.069974E+01  1.223242E+01 -4.803186E+02 -4.410431E+03
        69  24 -1.876961E+04  6.136492E+01 -2.117831E+02 -3.169898E+04 -4.417949E+02 -2.396146E+03
        69  25  2.435339E+05  6.535095E+04  6.454023E+04 -3.194719E+04  1.644858E+02 -6.436033E+03
        69  26  1.868561E+05  5.119755E+04  5.049523E+04 -2.129140E+02  1.982650E+02 -4.411362E+03
        69  27  1.300874E+05  3.716864E+04  3.647568E+04 -3.189973E+04  2.332232E+02 -2.397271E+03
        70   1 -3.716984E+04 -4.415770E+03 -4.693435E+03 -3.172841E+04  1.196061E+03  1.194313E+03
        70   2  1.975081E+04  9.640579E+03  8.648306E+03 -2.056184E+01  1.537571E+03 -8.401722E+02
        70   3  7.628232E+04  2.335823E+04  2.162752E+04 -3.174872E+04  1.879555E+03 -2.744464E+03
        70   4 -1.883088E+04  1.166040E+02 -3.702986E+02 -3.170179E+04  4.908067E+02  1.195555E+03
        70   5 -1.863060E+04  8.184268E+01 -7.638238E+02  1.598227E+01  8.760014E+02 -8.390478E+02
        70   6 -1.883089E+04 -2.992126E+02 -1.550260E+03 -3.170250E+04  1.261639E+03 -2.743444E+03
        70   7 -4.915999E+02  4.648955E+03  3.952817E+03 -3.167517E+04 -2.144678E+02  1.196798E+03
        70   8 -5.701067E+04 -9.477002E+03 -1.017606E+04  5.252469E+01  2.144723E+02 -8.379235E+02
        70   9 -1.139358E+05 -2.395732E+04 -2.472870E+04 -3.165627E+04  6.438163E+02 -2.742424E+03
        70  10 -3.716984E+04 -4.415772E+03 -4.693440E+03 -3.172841E+04  3.033683E-09  1.855282E-09
        70  11  1.975081E+04  9.640577E+03  8.648300E+03 -2.056080E+01  1.966649E-09 -5.708844E-10
        70  12  7.628232E+04  2.335822E+04  2.162750E+04 -3.174872E+04 -1.087537E-09 -1.669279E-10
        70  13 -1.883088E+04  1.166024E+02 -3.703017E+02 -3.170179E+04 -2.617765E-09 -1.425788E-09
        70  14 -1.863060E+04  8.184172E+01 -7.638266E+02  1.598287E+01  1.065129E-09 -2.708267E-09
        70  15 -1.883089E+04 -2.992211E+02 -1.550278E+03 -3.170249E+04 -8.785974E-10  1.228428E-10
        70  16 -4.916004E+02  4.648953E+03  3.952814E+03 -3.167517E+04 -2.941964E-09  1.865653E-09
        70  17 -5.701067E+04 -9.477003E+03 -1.017606E+04  5.252483E+01 -3.198988E-09 -2.548688E-09
        70  18 -1.139358E+05 -2.395733E+04 -2.472872E+04 -3.165627E+04  1.144523E-09 -1.681832E-09
        70  19 -3.716984E+04 -4.415770E+03 -4.693435E+03 -3.172841E+04 -1.196061E+03 -1.194313E+03
        70  20  1.975081E+04  9.640579E+03  8.648306E+03 -2.056184E+01 -1.537571E+03  8.401722E+02
        70  21  7.628232E+04  2.335823E+04  2.162752E+04 -3.174872E+04 -1.879555E+03  2.744464E+03
        70  22 -1.883088E+04  1.166040E+02 -3.702986E+02 -3.170179E+04 -4.908067E+02 -1.195555E+03
        70  23 -1.863060E+04  8.184268E+01 -7.638238E+02  1.598227E+01 -8.760014E+02  8.390478E+02
        70  24 -1.883089E+04 -2.992126E+02 -1.550260E+03 -3.170250E+04 -1.261639E+03  2.743444E+03
        70  25 -4.915999E+02  4.648955E+03  3.952817E+03 -3.167517E+04  2.144678E+02 -1.196798E+03
        70  26 -5.701067E+04 -9.477002E+03 -1.017606E+04  5.252469E+01 -2.144723E+02  8.379235E+02
        70  27 -1.139358E+05 -2.395732E+04 -2.472870E+04 -3.165627E+04 -6.438163E+02  2.742424E+03
        71   1  2.066063E+05  5.645673E+04  5.354017E+04 -3.229007E+04  2.470322E+03 -4.102427E+03
        71   2  2.638961E+05  7.086653E+04  6.591973E+04 -1.207421E+02  3.780454E+03 -6.188004E+03
        71   3  3.200624E+05  8.148218E+04  7.649465E+04 -3.134564E+04  5.093604E+03 -7.095995E+03
        71   4 -1.902070E+04  2.339467E+02 -1.963952E+03 -3.169181E+04  1.571713E+03 -4.101073E+03
        71   5 -1.842289E+04  5.679509E+02 -3.296991E+03  4.391090E+00  3.276933E+03 -6.187515E+03
        71   6 -1.902076E+04 -2.961603E+03 -6.709532E+03 -3.169547E+04  4.985051E+03 -7.096129E+03
        71   7 -2.446014E+05 -5.599262E+04 -5.747183E+04 -3.109376E+04  6.734296E+02 -4.099720E+03
        71   8 -3.006693E+05 -6.973653E+04 -7.251955E+04  1.294914E+02  2.773639E+03 -6.187026E+03
        71   9 -3.579993E+05 -8.741392E+04 -8.992216E+04 -3.204508E+04  4.876557E+03 -7.096262E+03
        71  10  2.066063E+05  5.645671E+04  5.354013E+04 -3.229006E+04 -4.154711E-09 -1.492203E-09
        71  11  2.638960E+05  7.086648E+04  6.591963E+04 -1.207233E+02 -9.097446E-10  1.367377E-09
        71  12  3.200624E+05  8.148212E+04  7.649451E+04 -3.134561E+04  2.402645E-09 -9.045666E-10
        71  13 -1.902071E+04  2.339280E+02 -1.963988E+03 -3.169181E+04  1.738657E-09  2.988906E-10
        71  14 -1.842291E+04  5.679069E+02 -3.297084E+03  4.407419E+00  2.153163E-09  1.296387E-09
        71  15 -1.902081E+04 -2.961664E+03 -6.709673E+03 -3.169544E+04  2.501377E-09 -3.150488E-10
        71  16 -2.446014E+05 -5.599264E+04 -5.747186E+04 -3.109375E+04  2.654523E-09  5.228116E-10
        71  17 -3.006693E+05 -6.973658E+04 -7.251964E+04  1.295053E+02 -5.053880E-10  2.527502E-09
        71  18 -3.579994E+05 -8.741398E+04 -8.992230E+04 -3.204505E+04 -2.511588E-09 -7.480661E-10
        71  19  2.066063E+05  5.645673E+04  5.354017E+04 -3.229007E+04 -2.470322E+03  4.102427E+03
        71  20  2.638961E+05  7.086653E+04  6.591973E+04 -1.207421E+02 -3.780454E+03  6.188004E+03
        71  21  3.200624E+05  8.148218E+04  7.649465E+04 -3.134564E+04 -5.093604E+03  7.095995E+03
        71  22 -1.902070E+04  2.339467E+02 -1.963952E+03 -3.169181E+04 -1.571713E+03  4.101073E+03
        71  23 -1.842289E+04  5.679509E+02 -3.296991E+03  4.391090E+00 -3.276933E+03  6.187515E+03
        71  24 -1.902076E+04 -2.961603E+03 -6.709532E+03 -3.169547E+04 -4.985051E+03  7.096129E+03
        71  25 -2.446014E+05 -5.599262E+04 -5.747183E+04 -3.109376E+04 -6.734296E+02  4.099720E+03
        71  26 -3.006693E+05 -6.973653E+04 -7.251955E+04  1.294914E+02 -2.773639E+03  6.187026E+03
        71  27 -3.579993E+05 -8.741392E+04 -8.992216E+04 -3.204508E+04 -4.876557E+03  7.096262E+03
        72   1  4.489994E+05  1.179771E+05  1.070720E+05 -3.431507E+04  8.924973E+03 -9.872673E+03
        72   2  5.094148E+05  1.352719E+05  1.159766E+05  1.165065E+03  1.229118E+04 -1.240969E+04
        72   3  5.625526E+05  1.226366E+05  1.153383E+05 -2.651539E+04  1.565998E+04 -4.338106E+03
        72   4 -2.054484E+04  1.047737E+03 -8.127039E+03 -3.164013E+04  6.286157E+03 -9.870765E+03
        72   5 -1.659214E+04  4.353737E+03 -1.277263E+04 -5.839760E+01  1.321429E+04 -1.241075E+04
        72   6 -2.054500E+04 -2.290218E+04 -2.944069E+04 -3.164084E+04  2.014461E+04 -4.338245E+03
        72   7 -4.898884E+05 -1.158980E+05 -1.233423E+05 -2.896716E+04  3.649330E+03 -9.868878E+03
        72   8 -5.423471E+05 -1.265849E+05 -1.415421E+05 -1.280798E+03  1.413662E+04 -1.241182E+04
        72   9 -6.033341E+05 -1.684664E+05 -1.742450E+05 -3.676148E+04  2.462504E+04 -4.338457E+03
        72  10  4.489993E+05  1.179770E+05  1.070717E+05 -3.431500E+04  2.198224E-09 -1.415492E-09
        72  11  5.094146E+05  1.352717E+05  1.159760E+05  1.165188E+03  4.279242E-11  4.847227E-10
        72  12  5.625524E+05  1.226365E+05  1.153378E+05 -2.651533E+04  1.938300E-09  4.376158E-10
        72  13 -2.054491E+04  1.047622E+03 -8.127296E+03 -3.164008E+04 -2.161324E-10  2.502841E-10
        72  14 -1.659237E+04  4.353525E+03 -1.277324E+04 -5.826552E+01 -4.842629E-13  1.143312E-10
        72  15 -2.054544E+04 -2.290231E+04 -2.944149E+04 -3.164077E+04  4.129076E-09  2.232999E-10
        72  16 -4.898884E+05 -1.158981E+05 -1.233425E+05 -2.896714E+04 -1.972623E-09 -1.341848E-09
        72  17 -5.423473E+05 -1.265851E+05 -1.415428E+05 -1.280656E+03  1.309788E-10  5.195449E-11
        72  18 -6.033347E+05 -1.684665E+05 -1.742462E+05 -3.676140E+04 -2.316746E-09  1.737070E-10
        72  19  4.489994E+05  1.179771E+05  1.070720E+05 -3.431507E+04 -8.924973E+03  9.872673E+03
        72  20  5.094148E+05  1.352719E+05  1.159766E+05  1.165065E+03 -1.229118E+04  1.240969E+04
        72  21  5.625526E+05  1.226366E+05  1.153383E+05 -2.651539E+04 -1.565998E+04  4.338106E+03
        72  22 -2.054484E+04  1.047737E+03 -8.127039E+03 -3.164013E+04 -6.286157E+03  9.870765E+03
        72  23 -1.659214E+04  4.353737E+03 -1.277263E+04 -5.839760E+01 -1.321429E+04  1.241075E+04
        72  24 -2.054500E+04 -2.290218E+04 -2.944069E+04 -3.164084E+04 -2.014461E+04  4.338245E+03
        72  25 -4.898884E+05 -1.158980E+05 -1.233423E+05 -2.896716E+04 -3.649330E+03  9.868878E+03
        72  26 -5.423471E+05 -1.265849E+05 -1.415421E+05 -1.280798E+03 -1.413662E+04  1.241182E+04
        72  27 -6.033341E+05 -1.684664E+05 -1.742450E+05 -3.676148E+04 -2.462504E+04  4.338457E+03
        73   1  1.221379E+06  4.149276E+06  1.173725E+06 -1.073920E+06  5.169313E+04  2.690445E+05
        73   2  8.687539E+05  2.974084E+06  7.626610E+05 -9.036838E+05  1.590163E+05  7.447578E+04
        73   3  5.854057E+05  1.839223E+06  4.946586E+05 -1.030732E+06  1.433109E+05 -1.205414E+05
        73   4  6.012366E+04 -5.433684E+05  5.350832E+04 -1.016896E+06  5.373554E+04  2.705030E+04
        73   5  1.943211E+04 -5.462958E+05  3.351308E+04 -8.684133E+05  1.596548E+05  1.080132E+04
        73   6  1.744032E+04 -5.407942E+05  3.336347E+04 -1.017276E+06  1.422395E+05 -6.267822E+03
        73   7 -1.102684E+06 -5.215771E+06 -1.068039E+06 -9.602458E+05  5.574270E+04 -2.131325E+05
        73   8 -8.306708E+05 -4.054953E+06 -6.962944E+05 -8.333127E+05  1.602882E+05 -5.251962E+04
        73   9 -5.508559E+05 -2.915349E+06 -4.281491E+05 -1.003855E+06  1.411706E+05  1.075785E+05
        73  10  1.221357E+06  4.149198E+06  1.173585E+06 -1.073931E+06  1.265419E-09  1.757964E-09
        73  11  8.687253E+05  2.974071E+06  7.626031E+05 -9.036933E+05  6.009200E-10 -5.363776E-09
        73  12  5.853798E+05  1.839202E+06  4.945929E+05 -1.030718E+06 -3.747027E-09 -1.277292E-08
        73  13  6.012036E+04 -5.433700E+05  5.350151E+04 -1.016897E+06  2.950932E-09  3.749962E-09
        73  14  1.940471E+04 -5.463027E+05  3.346497E+04 -8.684147E+05 -2.299220E-09 -8.353894E-09
        73  15  1.741860E+04 -5.407996E+05  3.332539E+04 -1.017275E+06 -3.613837E-10  3.045763E-09
        73  16 -1.102700E+06 -5.215821E+06 -1.068131E+06 -9.602363E+05  2.910907E-09 -1.646969E-09
        73  17 -8.306991E+05 -4.054962E+06 -6.963478E+05 -8.333059E+05  7.299157E-09  7.096034E-09
        73  18 -5.508805E+05 -2.915367E+06 -4.282085E+05 -1.003867E+06 -7.280532E-09  8.673456E-09
        73  19  1.221379E+06  4.149276E+06  1.173725E+06 -1.073920E+06 -5.169313E+04 -2.690445E+05
        73  20  8.687539E+05  2.974084E+06  7.626610E+05 -9.036838E+05 -1.590163E+05 -7.447578E+04
        73  21  5.854057E+05  1.839223E+06  4.946586E+05 -1.030732E+06 -1.433109E+05  1.205414E+05
        73  22  6.012366E+04 -5.433684E+05  5.350832E+04 -1.016896E+06 -5.373554E+04 -2.705030E+04
        73  23  1.943211E+04 -5.462958E+05  3.351308E+04 -8.684133E+05 -1.596548E+05 -1.080132E+04
        73  24  1.744032E+04 -5.407942E+05  3.336347E+04 -1.017276E+06 -1.422395E+05  6.267822E+03
        73  25 -1.102684E+06 -5.215771E+06 -1.068039E+06 -9.602458E+05 -5.574270E+04  2.131325E+05
        73  26 -8.306708E+05 -4.054953E+06 -6.962944E+05 -8.333127E+05 -1.602882E+05  5.251962E+04
        73  27 -5.508559E+05 -2.915349E+06 -4.281491E+05 -1.003855E+06 -1.411706E+05 -1.075785E+05
        74   1  3.997984E+05  1.050969E+06  3.460306E+05 -1.033682E+06  9.611551E+04 -1.062149E+05
        74   2  1.216116E+05 -1.036063E+05  1.355357E+05 -8.688405E+05  3.075859E+04 -1.355039E+05
        74   3 -1.383302E+05 -1.254650E+06 -5.299812E+04 -1.008518E+06 -3.610247E+04 -1.647809E+05
        74   4  1.939889E+04 -5.416386E+05  3.708030E+04 -1.018824E+06  9.519760E+04 -1.268734E+04
        74   5  1.737442E+04 -5.423929E+05  5.334043E+04 -8.665002E+05  2.980478E+04 -3.987530E+04
        74   6  3.329009E+04 -5.412983E+05  9.009034E+04 -1.018689E+06 -3.709527E+04 -6.710242E+04
        74   7 -3.611471E+05 -2.131793E+06 -2.719566E+05 -1.003997E+06  9.428276E+04  8.060600E+04
        74   8 -8.686898E+04 -9.809736E+05 -2.882883E+04 -8.641612E+05  2.885128E+04  5.568737E+04
        74   9  2.048844E+05  1.725602E+05  2.331889E+05 -1.028870E+06 -3.809059E+04  3.068632E+04
        74  10  3.997855E+05  1.050954E+06  3.459921E+05 -1.033673E+06 -3.348078E-09  2.077334E-10
        74  11  1.216057E+05 -1.036262E+05  1.354995E+05 -8.688371E+05  7.407960E-10 -1.893688E-08
        74  12 -1.383389E+05 -1.254679E+06 -5.305174E+04 -1.008523E+06  1.739088E-09 -3.151537E-08
        74  13  1.938912E+04 -5.416412E+05  3.706298E+04 -1.018823E+06 -3.670667E-09  4.849635E-09
        74  14  1.737304E+04 -5.423948E+05  5.333578E+04 -8.664992E+05 -6.749945E-09 -9.543694E-09
        74  15  3.328739E+04 -5.413035E+05  9.007927E+04 -1.018691E+06  7.395750E-09  2.618861E-09
        74  16 -3.611584E+05 -2.131802E+06 -2.719856E+05 -1.004003E+06 -5.963618E-09  1.044827E-10
        74  17 -8.687071E+04 -9.809771E+05 -2.883624E+04 -8.641624E+05 -8.268171E-09  1.808425E-08
        74  18  2.048826E+05  1.725588E+05  2.331844E+05 -1.028869E+06 -8.120864E-10  2.696596E-08
        74  19  3.997984E+05  1.050969E+06  3.460306E+05 -1.033682E+06 -9.611551E+04  1.062149E+05
        74  20  1.216116E+05 -1.036063E+05  1.355357E+05 -8.688405E+05 -3.075859E+04  1.355039E+05
        74  21 -1.383302E+05 -1.254650E+06 -5.299812E+04 -1.008518E+06  3.610247E+04  1.647809E+05
        74  22  1.939889E+04 -5.416386E+05  3.708030E+04 -1.018824E+06 -9.519760E+04  1.268734E+04
        74  23  1.737442E+04 -5.423929E+05  5.334043E+04 -8.665002E+05 -2.980478E+04  3.987530E+04
        74  24  3.329009E+04 -5.412983E+05  9.009034E+04 -1.018689E+06  3.709527E+04  6.710242E+04
        74  25 -3.611471E+05 -2.131793E+06 -2.719566E+05 -1.003997E+06 -9.428276E+04 -8.060600E+04
        74  26 -8.686898E+04 -9.809736E+05 -2.882883E+04 -8.641612E+05 -2.885128E+04 -5.568737E+04
        74  27  2.048844E+05  1.725602E+05  2.331889E+05 -1.028870E+06  3.809059E+04 -3.068632E+04
        75   1 -3.401372E+05 -2.023686E+06 -1.798267E+05 -1.040848E+06 -8.306219E+04 -1.971359E+05
        75   2 -5.673060E+05 -3.197729E+06 -3.503241E+05 -7.558211E+05 -1.122083E+05 -1.563601E+05
        75   3 -5.580664E+05 -4.321006E+06 -4.894404E+05 -7.688005E+05 -3.945799E+04 -1.148972E+05
        75   4  1.831560E+04 -5.255053E+05  1.153408E+05 -1.017745E+06 -8.420567E+04 -8.305468E+04
        75   5  7.366612E+04 -5.636669E+05  2.034736E+05 -8.672373E+05 -1.118434E+05 -1.887872E+05
        75   6  3.903131E+05 -5.273184E+05  4.246129E+05 -1.014426E+06 -3.779979E+04 -2.937721E+05
        75   7  3.766423E+05  9.748609E+05  4.104486E+05 -9.945775E+05 -8.533897E+04  3.129686E+04
        75   8  7.142316E+05  2.076999E+06  7.568911E+05 -9.791168E+05 -1.114679E+05 -2.213489E+05
        75   9  1.337864E+06  3.279786E+06  1.337785E+06 -1.261528E+06 -3.600539E+04 -4.737375E+05
        75  10 -3.401551E+05 -2.023730E+06 -1.799131E+05 -1.040861E+06  3.449209E-09  7.865247E-10
        75  11 -5.673262E+05 -3.197759E+06 -3.503940E+05 -7.558352E+05  5.860219E-09  1.085827E-08
        75  12 -5.580716E+05 -4.321020E+06 -4.894683E+05 -7.688042E+05  5.995779E-10  1.828845E-08
        75  13  1.830612E+04 -5.255146E+05  1.153144E+05 -1.017750E+06  1.156290E-08  4.034874E-09
        75  14  7.364307E+04 -5.637086E+05  2.033829E+05 -8.672544E+05 -2.793340E-09 -9.204690E-09
        75  15  3.902883E+05 -5.274115E+05  4.244478E+05 -1.014435E+06  2.460446E-09  2.580233E-09
        75  16  3.766342E+05  9.748579E+05  4.104331E+05 -9.945754E+05 -2.335736E-09 -3.880965E-10
        75  17  7.142051E+05  2.076943E+06  7.567758E+05 -9.791367E+05  4.105292E-09 -1.010828E-08
        75  18  1.337803E+06  3.279545E+06  1.337363E+06 -1.261541E+06  2.193750E-09 -2.230836E-08
        75  19 -3.401372E+05 -2.023686E+06 -1.798267E+05 -1.040848E+06  8.306219E+04  1.971359E+05
        75  20 -5.673060E+05 -3.197729E+06 -3.503241E+05 -7.558211E+05  1.122083E+05  1.563601E+05
        75  21 -5.580664E+05 -4.321006E+06 -4.894404E+05 -7.688005E+05  3.945799E+04  1.148972E+05
        75  22  1.831560E+04 -5.255053E+05  1.153408E+05 -1.017745E+06  8.420567E+04  8.305468E+04
        75  23  7.366612E+04 -5.636669E+05  2.034736E+05 -8.672373E+05  1.118434E+05  1.887872E+05
        75  24  3.903131E+05 -5.273184E+05  4.246129E+05 -1.014426E+06  3.779979E+04  2.937721E+05
        75  25  3.766423E+05  9.748609E+05  4.104486E+05 -9.945775E+05  8.533897E+04 -3.129686E+04
        75  26  7.142316E+05  2.076999E+06  7.568911E+05 -9.791168E+05  1.114679E+05  2.213489E+05
        75  27  1.337864E+06  3.279786E+06  1.337785E+06 -1.261528E+06  3.600539E+04  4.737375E+05
        76   1 -4.273015E+06 -1.687662E+06 -9.922589E+05 -1.436139E+06 -2.302497E+05 -1.296901E+04
        76   2 -3.992357E+06 -1.618205E+06 -8.210055E+05 -1.329135E+06 -1.575523E+05  1.858905E+05
        76   3 -3.654915E+06 -1.565463E+06 -7.347767E+05 -1.300942E+06 -4.007751E+04  2.678995E+05
        76   4 -2.730107E+03 -1.205344E+05  1.150320E+05 -3.090214E+05  4.869950E+04  9.340653E+04
        76   5 -5.282305E+04 -1.727689E+05  5.168429E+04 -2.523328E+05 -3.514988E+04  2.323059E+05
        76   6 -1.507414E+04 -2.107020E+05  2.805907E+04 -2.744359E+05 -7.444208E+04  2.547168E+05
        76   7  4.285383E+06  1.447531E+06  1.221115E+06  8.250372E+05  3.297636E+05  2.005279E+05
        76   8  3.902458E+06  1.273824E+06  9.234717E+05  8.307300E+05  8.809756E+04  2.790325E+05
        76   9  3.638435E+06  1.145278E+06  7.901929E+05  7.576857E+05 -1.090264E+05  2.414500E+05
        76  10 -4.273072E+06 -1.687677E+06 -9.923595E+05 -1.436141E+06 -3.476681E-09  3.621216E-10
        76  11 -3.992393E+06 -1.618249E+06 -8.211171E+05 -1.329111E+06 -1.809116E-09  2.235889E-09
        76  12 -3.654936E+06 -1.565540E+06 -7.349146E+05 -1.300934E+06  2.611956E-09  1.440955E-09
        76  13 -2.734999E+03 -1.205444E+05  1.150112E+05 -3.090250E+05 -7.478106E-10  5.850504E-10
        76  14 -5.283886E+04 -1.728271E+05  5.158055E+04 -2.523263E+05 -1.798897E-09 -9.230406E-09
        76  15 -1.509750E+04 -2.107731E+05  2.792673E+04 -2.744207E+05  1.351451E-09 -6.306279E-10
        76  16  4.285256E+06  1.447459E+06  1.220837E+06  8.249842E+05  2.542549E-09 -1.049140E-09
        76  17  3.902429E+06  1.273738E+06  9.233112E+05  8.307103E+05  5.655860E-10  3.072257E-09
        76  18  3.638407E+06  1.145212E+06  7.900610E+05  7.577068E+05 -4.644887E-09 -3.577155E-09
        76  19 -4.273015E+06 -1.687662E+06 -9.922589E+05 -1.436139E+06  2.302497E+05  1.296901E+04
        76  20 -3.992357E+06 -1.618205E+06 -8.210055E+05 -1.329135E+06  1.575523E+05 -1.858905E+05
        76  21 -3.654915E+06 -1.565463E+06 -7.347767E+05 -1.300942E+06  4.007751E+04 -2.678995E+05
        76  22 -2.730107E+03 -1.205344E+05  1.150320E+05 -3.090214E+05 -4.869950E+04 -9.340653E+04
        76  23 -5.282305E+04 -1.727689E+05  5.168429E+04 -2.523328E+05  3.514988E+04 -2.323059E+05
        76  24 -1.507414E+04 -2.107020E+05  2.805907E+04 -2.744359E+05  7.444208E+04 -2.547168E+05
        76  25  4.285383E+06  1.447531E+06  1.221115E+06  8.250372E+05 -3.297636E+05 -2.005279E+05
        76  26  3.902458E+06  1.273824E+06  9.234717E+05  8.307300E+05 -8.809756E+04 -2.790325E+05
        76  27  3.638435E+06  1.145278E+06  7.901929E+05  7.576857E+05  1.090264E+05 -2.414500E+05
        77   1 -3.460690E+06 -1.477644E+06 -6.986356E+05 -1.238339E+06 -6.251976E+04  2.430783E+05
        77   2 -3.200894E+06 -1.340232E+06 -6.390082E+05 -1.122272E+06 -5.390015E+04  2.336749E+05
        77   3 -2.879031E+06 -1.261298E+06 -5.817254E+05 -1.074328E+06 -4.254374E+04  2.168751E+05
        77   4 -1.734617E+04 -2.076092E+05  2.145606E+04 -2.790867E+05 -7.231457E+04  2.392328E+05
        77   5 -4.913338E+04 -1.802893E+05  1.109122E+04 -2.445333E+05 -7.362753E+04  2.261031E+05
        77   6 -1.698727E+04 -2.094648E+05  6.262136E+03 -2.781111E+05 -7.221347E+04  2.055968E+05
        77   7  3.438178E+06  1.063444E+06  7.409074E+05  6.850949E+05 -8.216895E+04  2.353653E+05
        77   8  3.112845E+06  9.805094E+05  6.606705E+05  6.373337E+05 -9.346369E+04  2.184907E+05
        77   9  2.853472E+06  8.430698E+05  5.938240E+05  5.215031E+05 -1.020311E+05  1.942631E+05
        77  10 -3.460710E+06 -1.477709E+06 -6.987540E+05 -1.238326E+06  1.434565E-09  1.532496E-09
        77  11 -3.200912E+06 -1.340291E+06 -6.391163E+05 -1.122262E+06  1.850535E-09 -2.029973E-09
        77  12 -2.879045E+06 -1.261349E+06 -5.818172E+05 -1.074320E+06 -2.169927E-09 -2.414583E-10
        77  13 -1.736714E+04 -2.076720E+05  2.133868E+04 -2.790727E+05 -3.631434E-09 -1.052040E-09
        77  14 -4.915292E+04 -1.803457E+05  1.098497E+04 -2.445199E+05 -2.692228E-09 -4.369529E-09
        77  15 -1.700421E+04 -2.095116E+05  6.172909E+03 -2.780992E+05  2.880952E-09  1.432626E-09
        77  16  3.438156E+06  1.063382E+06  7.407906E+05  6.851105E+05 -3.215485E-09 -3.191126E-09
        77  17  3.112823E+06  9.804558E+05  6.605643E+05  6.373501E+05  2.607265E-09 -8.501780E-10
        77  18  2.853451E+06  8.430265E+05  5.937335E+05  5.215190E+05  5.374569E-09  2.681014E-09
        77  19 -3.460690E+06 -1.477644E+06 -6.986356E+05 -1.238339E+06  6.251976E+04 -2.430783E+05
        77  20 -3.200894E+06 -1.340232E+06 -6.390082E+05 -1.122272E+06  5.390015E+04 -2.336749E+05
        77  21 -2.879031E+06 -1.261298E+06 -5.817254E+05 -1.074328E+06  4.254374E+04 -2.168751E+05
        77  22 -1.734617E+04 -2.076092E+05  2.145606E+04 -2.790867E+05  7.231457E+04 -2.392328E+05
        77  23 -4.913338E+04 -1.802893E+05  1.109122E+04 -2.445333E+05  7.362753E+04 -2.261031E+05
        77  24 -1.698727E+04 -2.094648E+05  6.262136E+03 -2.781111E+05  7.221347E+04 -2.055968E+05
        77  25  3.438178E+06  1.063444E+06  7.409074E+05  6.850949E+05  8.216895E+04 -2.353653E+05
        77  26  3.112845E+06  9.805094E+05  6.606705E+05  6.373337E+05  9.346369E+04 -2.184907E+05
        77  27  2.853472E+06  8.430698E+05  5.938240E+05  5.215031E+05  1.020311E+05 -1.942631E+05
        78   1 -2.678278E+06 -1.185665E+06 -5.402565E+05 -1.017780E+06 -4.008438E+04  2.031336E+05
        78   2 -2.417470E+06 -1.047129E+06 -4.828038E+05 -9.016902E+05 -3.260334E+04  1.817130E+05
        78   3 -2.095046E+06 -9.685850E+05 -4.246014E+05 -8.541092E+05 -2.499509E+04  1.597992E+05
        78   4 -1.712190E+04 -2.091558E+05  4.654866E+03 -2.784991E+05 -6.823281E+04  1.924544E+05
        78   5 -4.761410E+04 -1.786024E+05  2.416511E+03 -2.443654E+05 -6.141265E+04  1.708219E+05
        78   6 -1.647092E+04 -2.079074E+05  1.436467E+03 -2.787599E+05 -5.446546E+04  1.486977E+05
        78   7  2.651354E+06  7.679730E+05  5.492129E+05  4.637247E+05 -9.651203E+04  1.817261E+05
        78   8  2.328037E+06  6.904095E+05  4.873555E+05  4.152861E+05 -9.034095E+04  1.598863E+05
        78   9  2.066552E+06  5.531376E+05  4.272562E+05  2.983723E+05 -8.404238E+04  1.375563E+05
        78  10 -2.678290E+06 -1.185710E+06 -5.403371E+05 -1.017773E+06  1.209150E-09  1.488782E-09
        78  11 -2.417480E+06 -1.047165E+06 -4.828679E+05 -9.016854E+05 -3.450996E-09 -3.496354E-10
        78  12 -2.095053E+06 -9.686126E+05 -4.246505E+05 -8.541060E+05 -3.238991E-09 -1.019352E-09
        78  13 -1.713684E+04 -2.091968E+05  4.576520E+03 -2.784885E+05 -2.184735E-09 -4.762203E-10
        78  14 -4.762598E+04 -1.786347E+05  2.354594E+03 -2.443570E+05 -1.426328E-09 -1.252556E-09
        78  15 -1.648003E+04 -2.079320E+05  1.389346E+03 -2.787534E+05 -2.411630E-09  8.344186E-10
        78  16  2.651335E+06  7.679350E+05  5.491333E+05  4.637388E+05 -6.239169E-10 -1.708905E-10
        78  17  2.328022E+06  6.903799E+05  4.872921E+05  4.152977E+05 -3.238258E-09  1.032216E-09
        78  18  2.066539E+06  5.531154E+05  4.272073E+05  2.983816E+05  9.993640E-10  2.403491E-09
        78  19 -2.678278E+06 -1.185665E+06 -5.402565E+05 -1.017780E+06  4.008438E+04 -2.031336E+05
        78  20 -2.417470E+06 -1.047129E+06 -4.828038E+05 -9.016902E+05  3.260334E+04 -1.817130E+05
        78  21 -2.095046E+06 -9.685850E+05 -4.246014E+05 -8.541092E+05  2.499509E+04 -1.597992E+05
        78  22 -1.712190E+04 -2.091558E+05  4.654866E+03 -2.784991E+05  6.823281E+04 -1.924544E+05
        78  23 -4.761410E+04 -1.786024E+05  2.416511E+03 -2.443654E+05  6.141265E+04 -1.708219E+05
        78  24 -1.647092E+04 -2.079074E+05  1.436467E+03 -2.787599E+05  5.446546E+04 -1.486977E+05
        78  25  2.651354E+06  7.679730E+05  5.492129E+05  4.637247E+05  9.651203E+04 -1.817261E+05
        78  26  2.328037E+06  6.904095E+05  4.873555E+05  4.152861E+05  9.034095E+04 -1.598863E+05
        78  27  2.066552E+06  5.531376E+05  4.272562E+05  2.983723E+05  8.404238E+04 -1.375563E+05
        79   1 -1.893225E+06 -8.938733E+05 -3.818667E+05 -7.981238E+05 -2.048079E+04  1.469244E+05
        79   2 -1.630906E+06 -7.560631E+05 -3.233044E+05 -6.823457E+05 -1.244813E+04  1.249667E+05
        79   3 -1.307717E+06 -6.783513E+05 -2.644492E+05 -6.355022E+05 -4.436859E+03  1.029606E+05
        79   4 -1.645661E+04 -2.077407E+05  1.039424E+03 -2.788618E+05 -4.987588E+04  1.358701E+05
        79   5 -4.663101E+04 -1.772466E+05  5.058209E+02 -2.444836E+05 -4.190715E+04  1.139135E+05
        79   6 -1.602297E+04 -2.068394E+05  3.071725E+02 -2.790653E+05 -3.395977E+04  9.190889E+04
        79   7  1.863925E+06  4.786863E+05  3.837664E+05  2.418490E+05 -7.936659E+04  1.247799E+05
        79   8  1.540227E+06  4.017824E+05  3.241916E+05  1.944120E+05 -7.144721E+04  1.028301E+05
        79   9  1.277398E+06  2.648166E+05  2.649842E+05  7.805986E+04 -6.354909E+04  8.083236E+04
        79  10 -1.893231E+06 -8.938966E+05 -3.819081E+05 -7.981214E+05  1.665937E-09  1.373117E-09
        79  11 -1.630910E+06 -7.560799E+05 -3.233340E+05 -6.823444E+05 -1.233795E-08 -2.417378E-09
        79  12 -1.307720E+06 -6.783627E+05 -2.644692E+05 -6.355018E+05 -4.545131E-09 -1.581132E-09
        79  13 -1.646423E+04 -2.077612E+05  1.000061E+03 -2.788564E+05 -4.435778E-09  4.717552E-10
        79  14 -4.663638E+04 -1.772610E+05  4.781383E+02 -2.444797E+05 -5.541906E-09 -1.957387E-09
        79  15 -1.602648E+04 -2.068488E+05  2.891330E+02 -2.790628E+05  4.645588E-09  3.203738E-10
        79  16  1.863914E+06  4.786679E+05  3.837253E+05  2.418570E+05 -8.025138E-09 -1.643859E-09
        79  17  1.540219E+06  4.017697E+05  3.241622E+05  1.944179E+05 -5.717628E-09 -2.868622E-09
        79  18  1.277392E+06  2.648085E+05  2.649644E+05  7.806400E+04  3.763029E-09 -6.211084E-10
        79  19 -1.893225E+06 -8.938733E+05 -3.818667E+05 -7.981238E+05  2.048079E+04 -1.469244E+05
        79  20 -1.630906E+06 -7.560631E+05 -3.233044E+05 -6.823457E+05  1.244813E+04 -1.249667E+05
        79  21 -1.307717E+06 -6.783513E+05 -2.644492E+05 -6.355022E+05  4.436859E+03 -1.029606E+05
        79  22 -1.645661E+04 -2.077407E+05  1.039424E+03 -2.788618E+05  4.987588E+04 -1.358701E+05
        79  23 -4.663101E+04 -1.772466E+05  5.058209E+02 -2.444836E+05  4.190715E+04 -1.139135E+05
        79  24 -1.602297E+04 -2.068394E+05  3.071725E+02 -2.790653E+05  3.395977E+04 -9.190889E+04
        79  25  1.863925E+06  4.786863E+05  3.837664E+05  2.418490E+05  7.936659E+04 -1.247799E+05
        79  26  1.540227E+06  4.017824E+05  3.241916E+05  1.944120E+05  7.144721E+04 -1.028301E+05
        79  27  1.277398E+06  2.648166E+05  2.649842E+05  7.805986E+04  6.354909E+04 -8.083236E+04
        80   1 -1.105243E+06 -6.039516E+05 -2.214101E+05 -5.797214E+05  3.068939E+02  9.017270E+04
        80   2 -8.419641E+05 -4.666690E+05 -1.625067E+05 -4.640893E+05  8.510743E+03  6.823362E+04
        80   3 -5.182690E+05 -3.895250E+05 -1.035635E+05 -4.176401E+05  1.669415E+04  4.629549E+04
        80   4 -1.600395E+04 -2.067399E+05  1.835214E+02 -2.791168E+05 -2.922802E+04  7.912787E+04
        80   5 -4.605367E+04 -1.764425E+05  2.170246E+00 -2.445613E+05 -2.102531E+04  5.720095E+04
        80   6 -1.578268E+04 -2.062870E+05 -1.432351E+02 -2.792174E+05 -1.284313E+04  3.527524E+04
        80   7  1.074458E+06  1.905722E+05  2.217209E+05  2.197550E+04 -5.881869E+04  6.806220E+04
        80   8  7.505063E+05  1.138364E+05  1.624816E+05 -2.477386E+04 -5.060199E+04  4.615311E+04
        80   9  4.869604E+05 -2.302884E+04  1.032665E+05 -1.406919E+05 -4.240590E+04  2.424548E+04
        80  10 -1.105246E+06 -6.039603E+05 -2.214254E+05 -5.797215E+05  4.090711E-09  1.666557E-09
        80  11 -8.419655E+05 -4.666741E+05 -1.625156E+05 -4.640898E+05  7.465375E-09 -2.116636E-10
        80  12 -5.182699E+05 -3.895274E+05 -1.035681E+05 -4.176408E+05  4.001058E-09 -1.716653E-09
        80  13 -1.600655E+04 -2.067469E+05  1.701514E+02 -2.791150E+05  1.293381E-08  8.868230E-10
        80  14 -4.605503E+04 -1.764462E+05 -4.808414E+00 -2.445603E+05  4.568151E-09  9.053578E-10
        80  15 -1.578319E+04 -2.062884E+05 -1.458832E+02 -2.792170E+05  2.685608E-09 -1.461221E-09
        80  16  1.074453E+06  1.905663E+05  2.217057E+05  2.197872E+04  5.471539E-09  8.351954E-10
        80  17  7.505030E+05  1.138334E+05  1.624727E+05 -2.477198E+04 -2.554227E-09  1.662302E-09
        80  18  4.869583E+05 -2.302995E+04  1.032621E+05 -1.406911E+05 -9.676454E-09 -2.214484E-09
        80  19 -1.105243E+06 -6.039516E+05 -2.214101E+05 -5.797214E+05 -3.068939E+02 -9.017270E+04
        80  20 -8.419641E+05 -4.666690E+05 -1.625067E+05 -4.640893E+05 -8.510743E+03 -6.823362E+04
        80  21 -5.182690E+05 -3.895250E+05 -1.035635E+05 -4.176401E+05 -1.669415E+04 -4.629549E+04
        80  22 -1.600395E+04 -2.067399E+05  1.835214E+02 -2.791168E+05  2.922802E+04 -7.912787E+04
        80  23 -4.605367E+04 -1.764425E+05  2.170246E+00 -2.445613E+05  2.102531E+04 -5.720095E+04
        80  24 -1.578268E+04 -2.062870E+05 -1.432351E+02 -2.792174E+05  1.284313E+04 -3.527524E+04
        80  25  1.074458E+06  1.905722E+05  2.217209E+05  2.197550E+04  5.881869E+04 -6.806220E+04
        80  26  7.505063E+05  1.138364E+05  1.624816E+05 -2.477386E+04  5.060199E+04 -4.615311E+04
        80  27  4.869604E+05 -2.302884E+04  1.032665E+05 -1.406919E+05  4.240590E+04 -2.424548E+04
        81   1 -3.153898E+05 -3.152899E+05 -6.050172E+04 -3.619097E+05  2.154384E+04  3.354536E+04
        81   2 -5.169084E+04 -1.783105E+05 -1.649127E+03 -2.462491E+05  2.970987E+04  1.169882E+04
        81   3  2.722726E+05 -1.014555E+05  5.719925E+04 -1.998457E+05  3.779723E+04 -9.938162E+03
        81   4 -1.578965E+04 -2.062523E+05 -2.586616E+02 -2.792386E+05 -8.045792E+03  2.250942E+04
        81   5 -4.584572E+04 -1.761626E+05 -5.728987E+02 -2.445887E+05  3.954463E+02  7.654260E+02
        81   6 -1.578862E+04 -2.062632E+05 -1.113113E+03 -2.792334E+05  8.757921E+03 -2.076876E+04
        81   7  2.839074E+05 -9.720545E+04  5.998443E+04 -1.965294E+05 -3.765099E+04  1.146767E+04
        81   8 -3.999864E+04 -1.740139E+05  5.070158E+02 -2.429277E+05 -2.891940E+04 -1.016813E+04
        81   9 -3.037628E+05 -3.110634E+05 -5.942602E+04 -3.585867E+05 -2.026694E+04 -3.159397E+04
        81  10 -3.153906E+05 -3.152912E+05 -6.050471E+04 -3.619103E+05 -4.026658E-10 -5.129790E-09
        81  11 -5.169182E+04 -1.783109E+05 -1.651044E+03 -2.462494E+05  4.721242E-09 -2.582362E-09
        81  12  2.722710E+05 -1.014560E+05  5.719638E+04 -1.998454E+05  2.930697E-09 -7.345421E-10
        81  13 -1.578985E+04 -2.062528E+05 -2.597353E+02 -2.792384E+05 -1.729856E-09 -2.510491E-09
        81  14 -4.584572E+04 -1.761626E+05 -5.729001E+02 -2.445887E+05 -3.580544E-09  1.270903E-09
        81  15 -1.578882E+04 -2.062637E+05 -1.114068E+03 -2.792333E+05 -6.414944E-09 -1.436377E-09
        81  16  2.839058E+05 -9.720598E+04  5.998152E+04 -1.965291E+05 -5.906471E-09  2.660929E-10
        81  17 -3.999957E+04 -1.740143E+05  5.052493E+02 -2.429280E+05 -5.521419E-09 -2.453963E-10
        81  18 -3.037635E+05 -3.110645E+05 -5.942867E+04 -3.585872E+05 -5.653944E-09  1.465043E-09
        81  19 -3.153898E+05 -3.152899E+05 -6.050172E+04 -3.619097E+05 -2.154384E+04 -3.354536E+04
        81  20 -5.169084E+04 -1.783105E+05 -1.649127E+03 -2.462491E+05 -2.970987E+04 -1.169882E+04
        81  21  2.722726E+05 -1.014555E+05  5.719925E+04 -1.998457E+05 -3.779723E+04  9.938162E+03
        81  22 -1.578965E+04 -2.062523E+05 -2.586616E+02 -2.792386E+05  8.045792E+03 -2.250942E+04
        81  23 -4.584572E+04 -1.761626E+05 -5.728987E+02 -2.445887E+05 -3.954463E+02 -7.654260E+02
        81  24 -1.578862E+04 -2.062632E+05 -1.113113E+03 -2.792334E+05 -8.757921E+03  2.076876E+04
        81  25  2.839074E+05 -9.720545E+04  5.998443E+04 -1.965294E+05  3.765099E+04 -1.146767E+04
        81  26 -3.999864E+04 -1.740139E+05  5.070158E+02 -2.429277E+05  2.891940E+04  1.016813E+04
        81  27 -3.037628E+05 -3.110634E+05 -5.942602E+04 -3.585867E+05  2.026694E+04  3.159397E+04
        82   1  4.754191E+05 -2.725201E+04  9.997662E+04 -1.440799E+05  4.349456E+04 -2.241211E+04
        82   2  7.387237E+05  1.097733E+05  1.591692E+05 -2.817118E+04  4.801971E+04 -4.393939E+04
        82   3  1.062705E+06  1.869816E+05  2.207061E+05  1.884876E+04  5.131038E+04 -6.212418E+04
        82   4 -1.589394E+04 -2.062285E+05 -1.495769E+03 -2.792246E+05  1.374598E+04 -3.351090E+04
        82   5 -4.591049E+04 -1.765086E+05 -2.807345E+03 -2.445541E+05  2.277186E+04 -5.337059E+04
        82   6 -1.622432E+04 -2.075086E+05 -5.334709E+03 -2.788128E+05  3.056389E+04 -6.988478E+04
        82   7 -5.069542E+05 -3.851830E+05 -1.029760E+05 -4.142693E+05 -1.597708E+04 -4.460018E+04
        82   8 -8.299133E+05 -4.627390E+05 -1.648135E+05 -4.606848E+05 -2.441705E+03 -6.278898E+04
        82   9 -1.093974E+06 -6.019065E+05 -2.314394E+05 -5.760008E+05  9.856022E+03 -7.763094E+04
        82  10  4.754169E+05 -2.725306E+04  9.997213E+04 -1.440791E+05  2.240383E-08  8.668967E-09
        82  11  7.387207E+05  1.097706E+05  1.591613E+05 -2.816948E+04  3.454736E-09  4.310781E-09
        82  12  1.062701E+06  1.869768E+05  2.206939E+05  1.885132E+04 -1.819187E-08 -7.144727E-09
        82  13 -1.589444E+04 -2.062297E+05 -1.498234E+03 -2.792242E+05 -4.528242E-09 -2.474913E-10
        82  14 -4.591181E+04 -1.765118E+05 -2.813671E+03 -2.445531E+05  2.403923E-09  2.389686E-09
        82  15 -1.622663E+04 -2.075141E+05 -5.345640E+03 -2.788111E+05  4.056287E-09  6.114771E-10
        82  16 -5.069550E+05 -3.851852E+05 -1.029802E+05 -4.142698E+05 -2.593177E-08 -6.383042E-09
        82  17 -8.299143E+05 -4.627433E+05 -1.648209E+05 -4.606850E+05  2.142793E-09  3.089203E-10
        82  18 -1.093976E+06 -6.019130E+05 -2.314509E+05 -5.760001E+05  2.368128E-08  7.988598E-09
        82  19  4.754191E+05 -2.725201E+04  9.997662E+04 -1.440799E+05 -4.349456E+04  2.241211E+04
        82  20  7.387237E+05  1.097733E+05  1.591692E+05 -2.817118E+04 -4.801971E+04  4.393939E+04
        82  21  1.062705E+06  1.869816E+05  2.207061E+05  1.884876E+04 -5.131038E+04  6.212418E+04
        82  22 -1.589394E+04 -2.062285E+05 -1.495769E+03 -2.792246E+05 -1.374598E+04  3.351090E+04
        82  23 -4.591049E+04 -1.765086E+05 -2.807345E+03 -2.445541E+05 -2.277186E+04  5.337059E+04
        82  24 -1.622432E+04 -2.075086E+05 -5.334709E+03 -2.788128E+05 -3.056389E+04  6.988478E+04
        82  25 -5.069542E+05 -3.851830E+05 -1.029760E+05 -4.142693E+05  1.597708E+04  4.460018E+04
        82  26 -8.299133E+05 -4.627390E+05 -1.648135E+05 -4.606848E+05  2.441705E+03  6.278898E+04
        82  27 -1.093974E+06 -6.019065E+05 -2.314394E+05 -5.760008E+05 -9.856022E+03  7.763094E+04
        83   1  1.268287E+06  2.614770E+05  2.621258E+05  7.323208E+04  6.837682E+04 -7.109235E+04
        83   2  1.523581E+06  4.020237E+05  3.381193E+05  1.932569E+05  2.728519E+03 -9.243576E+04
        83   3  1.844403E+06  4.827780E+05  4.612156E+05  2.511332E+05 -8.280444E+04 -6.087230E+04
        83   4 -1.759276E+04 -2.061881E+05 -6.941429E+03 -2.789558E+05  3.639553E+04 -8.306009E+04
        83   5 -4.499439E+04 -1.805333E+05 -1.305801E+04 -2.436911E+05  4.227559E+04 -7.766043E+04
        83   6 -2.109018E+04 -2.288467E+05 -2.865372E+04 -2.706189E+05  2.828106E+04 -1.927207E+04
        83   7 -1.301791E+06 -6.737243E+05 -2.760957E+05 -6.304761E+05  4.485320E+03 -9.500157E+04
        83   8 -1.611072E+06 -7.628822E+05 -3.643790E+05 -6.796194E+05  8.171427E+04 -6.292659E+04
        83   9 -1.883135E+06 -9.401938E+05 -5.187517E+05 -7.909245E+05  1.389981E+05  2.218421E+04
        83  10  1.268281E+06  2.614703E+05  2.621075E+05  7.323599E+04  1.493928E-09 -1.928401E-09
        83  11  1.523579E+06  4.020146E+05  3.381032E+05  1.932571E+05  4.698121E-09  1.468196E-09
        83  12  1.844395E+06  4.827722E+05  4.611958E+05  2.511292E+05  3.763790E-09  1.737074E-09
        83  13 -1.759604E+04 -2.061959E+05 -6.956881E+03 -2.789534E+05  3.931728E-09  1.422390E-09
        83  14 -4.499792E+04 -1.805402E+05 -1.307270E+04 -2.436885E+05  9.205283E-09  2.371498E-09
        83  15 -2.109114E+04 -2.288473E+05 -2.865592E+04 -2.706184E+05  3.776554E-09  7.602744E-10
        83  16 -1.301793E+06 -6.737340E+05 -2.761127E+05 -6.304758E+05  7.723847E-09  2.664793E-09
        83  17 -1.611080E+06 -7.628882E+05 -3.643990E+05 -6.796152E+05  9.055244E-09  2.325813E-09
        83  18 -1.883156E+06 -9.401995E+05 -5.187890E+05 -7.909270E+05  2.906081E-10 -6.158223E-10
        83  19  1.268287E+06  2.614770E+05  2.621258E+05  7.323208E+04 -6.837682E+04  7.109235E+04
        83  20  1.523581E+06  4.020237E+05  3.381193E+05  1.932569E+05 -2.728519E+03  9.243576E+04
        83  21  1.844403E+06  4.827780E+05  4.612156E+05  2.511332E+05  8.280444E+04  6.087230E+04
        83  22 -1.759276E+04 -2.061881E+05 -6.941429E+03 -2.789558E+05 -3.639553E+04  8.306009E+04
        83  23 -4.499439E+04 -1.805333E+05 -1.305801E+04 -2.436911E+05 -4.227559E+04  7.766043E+04
        83  24 -2.109018E+04 -2.288467E+05 -2.865372E+04 -2.706189E+05 -2.828106E+04  1.927207E+04
        83  25 -1.301791E+06 -6.737243E+05 -2.760957E+05 -6.304761E+05 -4.485320E+03  9.500157E+04
        83  26 -1.611072E+06 -7.628822E+05 -3.643790E+05 -6.796194E+05 -8.171427E+04  6.292659E+04
        83  27 -1.883135E+06 -9.401938E+05 -5.187517E+05 -7.909245E+05 -1.389981E+05 -2.218421E+04
        84   1 -1.378359E+05 -7.176875E+04 -6.363754E+04 -5.104938E+04 -1.414516E+04  5.000570E+03
        84   2 -8.542170E+04 -7.511139E+04 -4.867154E+04 -5.752344E+04 -2.340331E+03  1.665677E+04
        84   3 -3.215657E+04 -6.896273E+04 -3.901829E+04 -7.177904E+04  9.468282E+03  1.973219E+04
        84   4  2.845998E+05  3.225991E+04  3.414442E+04 -7.301256E+04  2.412537E+04  5.005707E+03
        84   5  2.823982E+05  1.162573E+04  1.724642E+04 -6.912110E+04  1.533893E+04  1.665742E+04
        84   6  2.846166E+05  4.053543E+03  9.332726E+03 -7.301029E+04  6.555060E+03  1.973110E+04
        84   7  7.072046E+05  1.362786E+05  1.319202E+05 -9.499080E+04  6.242174E+04  5.008135E+03
        84   8  6.503510E+05  9.835600E+04  8.316043E+04 -8.072582E+04  3.302836E+04  1.665741E+04
        84   9  6.014902E+05  7.706500E+04  5.768163E+04 -7.424219E+04  3.640409E+03  1.973003E+04
        84  10 -1.378362E+05 -7.176883E+04 -6.363796E+04 -5.104932E+04  1.659862E-09  4.040516E-10
        84  11 -8.542178E+04 -7.511168E+04 -4.867207E+04 -5.752341E+04  3.882000E-09  9.786871E-10
        84  12 -3.215677E+04 -6.896317E+04 -3.901919E+04 -7.177919E+04 -5.946872E-10  3.209736E-10
        84  13  2.845992E+05  3.225972E+04  3.414328E+04 -7.301266E+04 -2.073297E-09  4.930779E-10
        84  14  2.823979E+05  1.162537E+04  1.724545E+04 -6.912130E+04  1.203766E-09  1.098429E-09
        84  15  2.846164E+05  4.053114E+03  9.331913E+03 -7.301039E+04  2.841942E-09  9.435809E-10
        84  16  7.072004E+05  1.362776E+05  1.319128E+05 -9.499106E+04  2.821991E-10  4.772090E-10
        84  17  6.503497E+05  9.835541E+04  8.315786E+04 -8.072626E+04 -2.508386E-09  1.272708E-09
        84  18  6.014900E+05  7.706458E+04  5.768087E+04 -7.424224E+04  9.756698E-10  1.882563E-09
        84  19 -1.378359E+05 -7.176875E+04 -6.363754E+04 -5.104938E+04  1.414516E+04 -5.000570E+03
        84  20 -8.542170E+04 -7.511139E+04 -4.867154E+04 -5.752344E+04  2.340331E+03 -1.665677E+04
        84  21 -3.215657E+04 -6.896273E+04 -3.901829E+04 -7.177904E+04 -9.468282E+03 -1.973219E+04
        84  22  2.845998E+05  3.225991E+04  3.414442E+04 -7.301256E+04 -2.412537E+04 -5.005707E+03
        84  23  2.823982E+05  1.162573E+04  1.724642E+04 -6.912110E+04 -1.533893E+04 -1.665742E+04
        84  24  2.846166E+05  4.053543E+03  9.332726E+03 -7.301029E+04 -6.555060E+03 -1.973110E+04
        84  25  7.072046E+05  1.362786E+05  1.319202E+05 -9.499080E+04 -6.242174E+04 -5.008135E+03
        84  26  6.503510E+05  9.835600E+04  8.316043E+04 -8.072582E+04 -3.302836E+04 -1.665741E+04
        84  27  6.014902E+05  7.706500E+04  5.768163E+04 -7.424219E+04 -3.640409E+03 -1.973003E+04
        85   1  1.463403E+02 -6.212882E+04 -3.482815E+04 -7.141988E+04  8.937097E+03  1.862816E+04
        85   2  5.286324E+04 -5.151603E+04 -2.803202E+04 -6.809864E+04  9.840849E+03  1.654894E+04
        85   3  1.056802E+05 -4.006682E+04 -2.161351E+04 -7.319528E+04  1.074447E+04  1.330998E+04
        85   4  2.837668E+05  2.943993E+03  6.959236E+03 -7.315229E+04  5.340515E+03  1.862726E+04
        85   5  2.834811E+05  9.561042E+02  3.753378E+03 -6.894351E+04  3.460011E+03  1.654841E+04
        85   6  2.837756E+05  2.877587E+02  2.102625E+03 -7.315233E+04  1.579309E+03  1.331004E+04
        85   7  5.674682E+05  6.801307E+04  4.874523E+04 -7.488552E+04  1.742357E+03  1.862638E+04
        85   8  5.141530E+05  5.342593E+04  3.553833E+04 -6.978871E+04 -2.923091E+03  1.654789E+04
        85   9  4.619036E+05  4.064103E+04  2.581882E+04 -7.310936E+04 -7.588360E+03  1.331010E+04
        85  10  1.461613E+02 -6.212921E+04 -3.482895E+04 -7.142002E+04 -1.127871E-09  3.194249E-10
        85  11  5.286307E+04 -5.151635E+04 -2.803271E+04 -6.809877E+04  3.586912E-09  7.093611E-10
        85  12  1.056800E+05 -4.006704E+04 -2.161406E+04 -7.319540E+04 -1.469684E-10 -8.525025E-11
        85  13  2.837667E+05  2.943613E+03  6.958530E+03 -7.315237E+04  2.247727E-09  1.098721E-09
        85  14  2.834810E+05  9.558069E+02  3.752841E+03 -6.894356E+04  1.247871E-09  8.427554E-10
        85  15  2.837756E+05  2.875678E+02  2.102288E+03 -7.315235E+04  2.062889E-09 -6.624672E-12
        85  16  5.674681E+05  6.801270E+04  4.874458E+04 -7.488554E+04  1.709823E-09  1.693413E-09
        85  17  5.141530E+05  5.342563E+04  3.553779E+04 -6.978867E+04  2.099750E-09  9.085986E-10
        85  18  4.619035E+05  4.064082E+04  2.581838E+04 -7.310928E+04 -5.365329E-11  1.063243E-10
        85  19  1.463403E+02 -6.212882E+04 -3.482815E+04 -7.141988E+04 -8.937097E+03 -1.862816E+04
        85  20  5.286324E+04 -5.151603E+04 -2.803202E+04 -6.809864E+04 -9.840849E+03 -1.654894E+04
        85  21  1.056802E+05 -4.006682E+04 -2.161351E+04 -7.319528E+04 -1.074447E+04 -1.330998E+04
        85  22  2.837668E+05  2.943993E+03  6.959236E+03 -7.315229E+04 -5.340515E+03 -1.862726E+04
        85  23  2.834811E+05  9.561042E+02  3.753378E+03 -6.894351E+04 -3.460011E+03 -1.654841E+04
        85  24  2.837756E+05  2.877587E+02  2.102625E+03 -7.315233E+04 -1.579309E+03 -1.331004E+04
        85  25  5.674682E+05  6.801307E+04  4.874523E+04 -7.488552E+04 -1.742357E+03 -1.862638E+04
        85  26  5.141530E+05  5.342593E+04  3.553833E+04 -6.978871E+04  2.923091E+03 -1.654789E+04
        85  27  4.619036E+05  4.064103E+04  2.581882E+04 -7.310936E+04  7.588360E+03 -1.331010E+04
        86   1  1.381879E+05 -3.271126E+04 -1.753608E+04 -7.312868E+04  1.052739E+04  1.103402E+04
        86   2  1.909268E+05 -2.091125E+04 -1.118877E+04 -6.892224E+04  1.046272E+04  7.099345E+03
        86   3  2.436936E+05 -9.050788E+03 -4.783708E+03 -7.321817E+04  1.039787E+04  3.008540E+03
        86   4  2.836688E+05  2.019694E+02  1.583556E+03 -7.317118E+04  1.270050E+03  1.103432E+04
        86   5  2.836251E+05  3.827951E+01  8.854428E+02 -6.892004E+04  8.301733E+02  7.099913E+03
        86   6  2.836723E+05  3.955517E-01  5.055113E+02 -7.317120E+04  3.901255E+02  3.009380E+03
        86   7  4.291716E+05  3.311435E+04  2.070337E+04 -7.321369E+04 -7.989352E+03  1.103462E+04
        86   8  3.763325E+05  2.098750E+04  1.295996E+04 -6.891784E+04 -8.803743E+03  7.100480E+03
        86   9  3.236528E+05  9.051565E+03  5.795095E+03 -7.312422E+04 -9.618236E+03  3.010218E+03
        86  10  1.381877E+05 -3.271142E+04 -1.753652E+04 -7.312877E+04 -2.928069E-09  1.915448E-10
        86  11  1.909267E+05 -2.091133E+04 -1.118907E+04 -6.892230E+04  2.071874E-09  1.557828E-09
        86  12  2.436935E+05 -9.050827E+03 -4.783928E+03 -7.321820E+04 -3.002132E-09  1.258686E-09
        86  13  2.836688E+05  2.018382E+02  1.583324E+03 -7.317119E+04  2.034937E-09  6.889361E-12
        86  14  2.836251E+05  3.822518E+01  8.853468E+02 -6.892004E+04 -3.225140E-09  9.115380E-10
        86  15  2.836723E+05  3.857844E-01  5.054940E+02 -7.317120E+04  1.150961E-09  1.574098E-09
        86  16  4.291715E+05  3.311421E+04  2.070302E+04 -7.321362E+04  2.234908E-09 -1.746553E-10
        86  17  3.763324E+05  2.098742E+04  1.295972E+04 -6.891779E+04  2.683899E-09  2.931791E-10
        86  18  3.236527E+05  9.051530E+03  5.794904E+03 -7.312420E+04 -2.760379E-10  1.800981E-09
        86  19  1.381879E+05 -3.271126E+04 -1.753608E+04 -7.312868E+04 -1.052739E+04 -1.103402E+04
        86  20  1.909268E+05 -2.091125E+04 -1.118877E+04 -6.892224E+04 -1.046272E+04 -7.099345E+03
        86  21  2.436936E+05 -9.050788E+03 -4.783708E+03 -7.321817E+04 -1.039787E+04 -3.008540E+03
        86  22  2.836688E+05  2.019694E+02  1.583556E+03 -7.317118E+04 -1.270050E+03 -1.103432E+04
        86  23  2.836251E+05  3.827951E+01  8.854428E+02 -6.892004E+04 -8.301733E+02 -7.099913E+03
        86  24  2.836723E+05  3.955517E-01  5.055113E+02 -7.317120E+04 -3.901255E+02 -3.009380E+03
        86  25  4.291716E+05  3.311435E+04  2.070337E+04 -7.321369E+04  7.989352E+03 -1.103462E+04
        86  26  3.763325E+05  2.098750E+04  1.295996E+04 -6.891784E+04  8.803743E+03 -7.100480E+03
        86  27  3.236528E+05  9.051565E+03  5.795095E+03 -7.312422E+04  9.618236E+03 -3.010218E+03
        87   1  2.762222E+05 -1.679450E+03 -5.747368E+02 -7.320492E+04  1.033147E+04  5.750572E+02
        87   2  3.289699E+05  1.018966E+04  5.911462E+03 -6.894115E+04  1.026403E+04 -3.606925E+03
        87   3  3.817326E+05  2.206159E+04  1.244298E+04 -7.319100E+04  1.019669E+04 -7.805818E+03
        87   4  2.836564E+05 -1.471834E+00  3.831205E+02 -7.317372E+04  3.113861E+02  5.759353E+02
        87   5  2.836465E+05 -1.025412E+01  2.190340E+02 -6.891690E+04  2.028491E+02 -3.606164E+03
        87   6  2.836548E+05 -9.249247E+00  1.282551E+02 -7.317373E+04  9.441096E+01 -7.805182E+03
        87   7  2.910910E+05  1.676558E+03  1.341355E+03 -7.314253E+04 -9.708812E+03  5.768123E+02
        87   8  2.383255E+05 -1.021019E+04 -5.473019E+03 -6.889265E+04 -9.857636E+03 -3.605404E+03
        87   9  1.855872E+05 -2.208043E+04 -1.218611E+04 -7.315646E+04 -1.000635E+04 -7.804546E+03
        87  10  2.762220E+05 -1.679479E+03 -5.749379E+02 -7.320493E+04  4.598797E-10  7.730249E-10
        87  11  3.289698E+05  1.018961E+04  5.911240E+03 -6.894112E+04  1.345571E-09  4.811509E-10
        87  12  3.817324E+05  2.206150E+04  1.244267E+04 -7.319093E+04 -1.518633E-09  2.364881E-10
        87  13  2.836564E+05 -1.472217E+00  3.831197E+02 -7.317372E+04 -2.162738E-09  1.580368E-09
        87  14  2.836465E+05 -1.026809E+01  2.190095E+02 -6.891690E+04  3.185118E-09  1.199773E-09
        87  15  2.836548E+05 -9.314676E+00  1.281406E+02 -7.317373E+04 -1.507322E-09  5.244043E-10
        87  16  2.910909E+05  1.676532E+03  1.341177E+03 -7.314252E+04 -3.865670E-10  2.387056E-09
        87  17  2.383253E+05 -1.021023E+04 -5.473226E+03 -6.889268E+04 -2.564888E-09  1.900731E-09
        87  18  1.855871E+05 -2.208052E+04 -1.218641E+04 -7.315653E+04 -4.954164E-10  8.546906E-10
        87  19  2.762222E+05 -1.679450E+03 -5.747368E+02 -7.320492E+04 -1.033147E+04 -5.750572E+02
        87  20  3.289699E+05  1.018966E+04  5.911462E+03 -6.894115E+04 -1.026403E+04  3.606925E+03
        87  21  3.817326E+05  2.206159E+04  1.244298E+04 -7.319100E+04 -1.019669E+04  7.805818E+03
        87  22  2.836564E+05 -1.471834E+00  3.831205E+02 -7.317372E+04 -3.113861E+02 -5.759353E+02
        87  23  2.836465E+05 -1.025412E+01  2.190340E+02 -6.891690E+04 -2.028491E+02  3.606164E+03
        87  24  2.836548E+05 -9.249247E+00  1.282551E+02 -7.317373E+04 -9.441096E+01  7.805182E+03
        87  25  2.910910E+05  1.676558E+03  1.341355E+03 -7.314253E+04  9.708812E+03 -5.768123E+02
        87  26  2.383255E+05 -1.021019E+04 -5.473019E+03 -6.889265E+04  9.857636E+03  3.605404E+03
        87  27  1.855872E+05 -2.208043E+04 -1.218611E+04 -7.315646E+04  1.000635E+04  7.804546E+03
        88   1  4.142710E+05  2.942667E+04  1.671678E+04 -7.318744E+04  1.017581E+04 -1.025624E+04
        88   2  4.670280E+05  4.129543E+04  2.331229E+04 -6.892215E+04  1.007607E+04 -1.444855E+04
        88   3  5.198080E+05  5.317618E+04  2.997692E+04 -7.317109E+04  9.976702E+03 -1.861180E+04
        88   4  2.836512E+05 -1.010528E+01  9.925897E+01 -7.317389E+04  7.376039E+01 -1.025579E+04
        88   5  2.836438E+05 -1.539242E+01  6.141891E+01 -6.891670E+04  4.337191E+01 -1.444860E+04
        88   6  2.836445E+05 -2.068067E+01  4.428779E+01 -7.317389E+04  1.337687E+01 -1.861235E+04
        88   7  1.530491E+05 -2.944753E+04 -1.651795E+04 -7.316034E+04 -1.002627E+04 -1.025534E+04
        88   8  1.002943E+05 -4.132754E+04 -2.318919E+04 -6.891126E+04 -9.986506E+03 -1.444865E+04
        88   9  4.753844E+04 -5.321977E+04 -2.988816E+04 -7.317668E+04 -9.946348E+03 -1.861290E+04
        88  10  4.142709E+05  2.942653E+04  1.671639E+04 -7.318735E+04 -1.213273E-09  5.982259E-10
        88  11  4.670278E+05  4.129518E+04  2.331171E+04 -6.892204E+04 -1.758759E-09  8.016141E-10
        88  12  5.198078E+05  5.317578E+04  2.997608E+04 -7.317094E+04  3.335241E-10 -9.254016E-10
        88  13  2.836512E+05 -1.021824E+01  9.906127E+01 -7.317389E+04  2.388609E-09  3.224358E-10
        88  14  2.836438E+05 -1.561662E+01  6.102655E+01 -6.891670E+04  3.450826E-09 -5.543745E-11
        88  15  2.836444E+05 -2.105272E+01  4.363671E+01 -7.317389E+04 -1.582071E-09 -1.310526E-09
        88  16  1.530489E+05 -2.944767E+04 -1.651833E+04 -7.316042E+04  1.661831E-09  7.344630E-11
        88  17  1.002942E+05 -4.132779E+04 -2.318977E+04 -6.891137E+04  1.324505E-10 -9.974598E-10
        88  18  4.753825E+04 -5.322017E+04 -2.988899E+04 -7.317683E+04 -2.716050E-09 -1.749557E-09
        88  19  4.142710E+05  2.942667E+04  1.671678E+04 -7.318744E+04 -1.017581E+04  1.025624E+04
        88  20  4.670280E+05  4.129543E+04  2.331229E+04 -6.892215E+04 -1.007607E+04  1.444855E+04
        88  21  5.198080E+05  5.317618E+04  2.997692E+04 -7.317109E+04 -9.976702E+03  1.861180E+04
        88  22  2.836512E+05 -1.010528E+01  9.925897E+01 -7.317389E+04 -7.376039E+01  1.025579E+04
        88  23  2.836438E+05 -1.539242E+01  6.141891E+01 -6.891670E+04 -4.337191E+01  1.444860E+04
        88  24  2.836445E+05 -2.068067E+01  4.428779E+01 -7.317389E+04 -1.337687E+01  1.861235E+04
        88  25  1.530491E+05 -2.944753E+04 -1.651795E+04 -7.316034E+04  1.002627E+04  1.025534E+04
        88  26  1.002943E+05 -4.132754E+04 -2.318919E+04 -6.891126E+04  9.986506E+03  1.444865E+04
        88  27  4.753844E+04 -5.321977E+04 -2.988816E+04 -7.317668E+04  9.946348E+03  1.861290E+04
        89   1  5.523744E+05  6.055201E+04  3.432746E+04 -7.316239E+04  9.951583E+03 -2.103286E+04
        89   2  6.051095E+05  7.246287E+04  4.122193E+04 -6.889825E+04  9.360012E+03 -2.505486E+04
        89   3  6.579589E+05  8.447566E+04  4.852940E+04 -7.313442E+04  8.769021E+03 -2.883911E+04
        89   4  2.836426E+05 -2.510882E+01  4.110699E+01 -7.317082E+04  5.874109E+00 -2.103381E+04
        89   5  2.836302E+05 -3.506621E+01  4.276351E+01 -6.892054E+04 -1.492597E+01 -2.505664E+04
        89   6  2.836309E+05 -4.183216E+01  6.132342E+01 -7.317082E+04 -3.510846E+01 -2.884166E+04
        89   7  1.498503E+04 -6.060514E+04 -3.424516E+04 -7.317925E+04 -9.935743E+03 -2.103476E+04
        89   8 -3.774312E+04 -7.253721E+04 -4.113653E+04 -6.894281E+04 -9.385250E+03 -2.505842E+04
        89   9 -9.055353E+04 -8.456511E+04 -4.840722E+04 -7.320720E+04 -8.834190E+03 -2.884421E+04
        89  10  5.523742E+05  6.055151E+04  3.432644E+04 -7.316222E+04 -3.518419E-09 -1.041344E-09
        89  11  6.051093E+05  7.246217E+04  4.122059E+04 -6.889806E+04 -4.710002E-10  1.824249E-10
        89  12  6.579586E+05  8.447475E+04  4.852769E+04 -7.313421E+04  1.257292E-09  7.432792E-10
        89  13  2.836425E+05 -2.558397E+01  4.027548E+01 -7.317082E+04 -2.149833E-09 -1.073937E-09
        89  14  2.836300E+05 -3.574049E+01  4.158353E+01 -6.892054E+04 -9.774724E-09  4.863507E-10
        89  15  2.836307E+05 -4.272553E+01  5.976002E+01 -7.317082E+04  1.306029E-09  6.834848E-10
        89  16  1.498481E+04 -6.060564E+04 -3.424618E+04 -7.317942E+04  6.895458E-09 -1.125062E-09
        89  17 -3.774338E+04 -7.253791E+04 -4.113787E+04 -6.894300E+04  1.431164E-09  6.554110E-10
        89  18 -9.055384E+04 -8.456603E+04 -4.840893E+04 -7.320741E+04  1.839072E-09  8.193942E-10
        89  19  5.523744E+05  6.055201E+04  3.432746E+04 -7.316239E+04 -9.951583E+03  2.103286E+04
        89  20  6.051095E+05  7.246287E+04  4.122193E+04 -6.889825E+04 -9.360012E+03  2.505486E+04
        89  21  6.579589E+05  8.447566E+04  4.852940E+04 -7.313442E+04 -8.769021E+03  2.883911E+04
        89  22  2.836426E+05 -2.510882E+01  4.110699E+01 -7.317082E+04 -5.874109E+00  2.103381E+04
        89  23  2.836302E+05 -3.506621E+01  4.276351E+01 -6.892054E+04  1.492598E+01  2.505664E+04
        89  24  2.836309E+05 -4.183216E+01  6.132342E+01 -7.317082E+04  3.510846E+01  2.884166E+04
        89  25  1.498503E+04 -6.060514E+04 -3.424516E+04 -7.317925E+04  9.935743E+03  2.103476E+04
        89  26 -3.774312E+04 -7.253721E+04 -4.113653E+04 -6.894281E+04  9.385250E+03  2.505842E+04
        89  27 -9.055353E+04 -8.456511E+04 -4.840722E+04 -7.320720E+04  8.834190E+03  2.884421E+04
        90   1  6.906570E+05  9.195739E+04  5.330530E+04 -7.309030E+04  8.618696E+03 -3.102000E+04
        90   2  7.431037E+05  1.042207E+05  6.220677E+04 -6.890756E+04  4.315082E+03 -3.374496E+04
        90   3  7.963269E+05  1.172650E+05  7.410799E+04 -7.309404E+04  1.111041E+01 -3.470484E+04
        90   4  2.836316E+05 -4.629759E+01  7.742300E+01 -7.314172E+04 -4.626917E+01 -3.102310E+04
        90   5  2.836046E+05 -3.879715E+01  1.290549E+02 -6.895692E+04 -1.094678E+02 -3.374829E+04
        90   6  2.836152E+05  1.411257E+01  2.378332E+02 -7.314173E+04 -1.726090E+02 -3.470773E+04
        90   7 -1.232243E+05 -9.205689E+04 -5.315122E+04 -7.319309E+04 -8.705830E+03 -3.102619E+04
        90   8 -1.756797E+05 -1.043074E+05 -6.195057E+04 -6.900624E+04 -4.530896E+03 -3.375163E+04
        90   9 -2.288313E+05 -1.172487E+05 -7.363645E+04 -7.318938E+04 -3.561832E+02 -3.471062E+04
        90  10  6.906567E+05  9.195634E+04  5.330335E+04 -7.309008E+04 -6.303485E-10  1.086115E-09
        90  11  7.431034E+05  1.042195E+05  6.220459E+04 -6.890744E+04 -3.699663E-08  2.331288E-09
        90  12  7.963266E+05  1.172637E+05  7.410573E+04 -7.309404E+04 -6.946847E-08  3.257214E-09
        90  13  2.836314E+05 -4.733121E+01  7.561416E+01 -7.314172E+04  2.540398E-11 -1.298502E-09
        90  14  2.836043E+05 -4.002035E+01  1.269143E+02 -6.895692E+04 -1.039194E-09 -7.459675E-09
        90  15  2.836149E+05  1.281883E+01  2.355691E+02 -7.314173E+04  4.161702E-11 -1.339175E-08
        90  16 -1.232247E+05 -9.205795E+04 -5.315317E+04 -7.319331E+04  3.004252E-09  8.419923E-10
        90  17 -1.756800E+05 -1.043086E+05 -6.195275E+04 -6.900636E+04  3.468005E-08  3.034792E-09
        90  18 -2.288317E+05 -1.172500E+05 -7.363871E+04 -7.318939E+04  7.003061E-08  5.137937E-09
        90  19  6.906570E+05  9.195739E+04  5.330530E+04 -7.309030E+04 -8.618696E+03  3.102000E+04
        90  20  7.431037E+05  1.042207E+05  6.220677E+04 -6.890756E+04 -4.315082E+03  3.374496E+04
        90  21  7.963269E+05  1.172650E+05  7.410799E+04 -7.309404E+04 -1.111041E+01  3.470484E+04
        90  22  2.836316E+05 -4.629759E+01  7.742300E+01 -7.314172E+04  4.626917E+01  3.102310E+04
        90  23  2.836046E+05 -3.879715E+01  1.290549E+02 -6.895692E+04  1.094678E+02  3.374829E+04
        90  24  2.836152E+05  1.411257E+01  2.378332E+02 -7.314173E+04  1.726090E+02  3.470773E+04
        90  25 -1.232243E+05 -9.205689E+04 -5.315122E+04 -7.319309E+04  8.705830E+03  3.102619E+04
        90  26 -1.756797E+05 -1.043074E+05 -6.195057E+04 -6.900624E+04  4.530896E+03  3.375163E+04
        90  27 -2.288313E+05 -1.172487E+05 -7.363645E+04 -7.318938E+04  3.561832E+02  3.471062E+04
        91   1  8.298847E+05  1.255459E+05  8.194398E+04 -7.283769E+04 -1.070265E+03 -3.510196E+04
        91   2  8.800235E+05  1.404972E+05  1.055206E+05 -6.946478E+04 -3.274496E+04 -2.822466E+04
        91   3  9.357877E+05  1.613547E+05  1.511830E+05 -7.348859E+04 -6.443172E+04 -8.287577E+03
        91   4  2.836409E+05  4.404810E+01  3.188311E+02 -7.292539E+04 -2.142994E+02 -3.510474E+04
        91   5  2.835400E+05  2.951653E+02  5.829446E+02 -6.922742E+04 -5.062286E+02 -2.821575E+04
        91   6  2.836205E+05  1.010786E+03  1.157132E+03 -7.292570E+04 -8.067306E+02 -8.261238E+03
        91   7 -2.623037E+05 -1.254719E+05 -8.131208E+04 -7.301301E+04  6.409444E+02 -3.510753E+04
        91   8 -3.125937E+05 -1.399257E+05 -1.043638E+05 -6.899030E+04  3.170248E+04 -2.820682E+04
        91   9 -3.681449E+05 -1.593607E+05 -1.488816E+05 -7.236342E+04  6.275204E+04 -8.234772E+03
        91  10  8.298844E+05  1.255446E+05  8.194166E+04 -7.283772E+04  1.362874E-07  3.878887E-09
        91  11  8.800222E+05  1.404960E+05  1.055171E+05 -6.946553E+04  3.715377E-08  3.167305E-09
        91  12  9.357832E+05  1.613535E+05  1.511750E+05 -7.348902E+04 -6.600376E-08  1.068919E-09
        91  13  2.836405E+05  4.272458E+01  3.165149E+02 -7.292540E+04  1.853654E-09 -1.415658E-08
        91  14  2.835398E+05  2.943103E+02  5.814479E+02 -6.922743E+04  2.531959E-09 -5.176073E-09
        91  15  2.836205E+05  1.010712E+03  1.157002E+03 -7.292571E+04 -7.373673E-10 -1.106379E-09
        91  16 -2.623040E+05 -1.254732E+05 -8.131439E+04 -7.301300E+04 -1.350359E-07  5.105576E-09
        91  17 -3.125949E+05 -1.399268E+05 -1.043672E+05 -6.898958E+04 -3.699733E-08  3.902891E-09
        91  18 -3.681491E+05 -1.593618E+05 -1.488892E+05 -7.236300E+04  6.613266E-08  4.124789E-10
        91  19  8.298847E+05  1.255459E+05  8.194398E+04 -7.283769E+04  1.070265E+03  3.510196E+04
        91  20  8.800235E+05  1.404972E+05  1.055206E+05 -6.946478E+04  3.274496E+04  2.822466E+04
        91  21  9.357877E+05  1.613547E+05  1.511830E+05 -7.348859E+04  6.443172E+04  8.287577E+03
        91  22  2.836409E+05  4.404810E+01  3.188311E+02 -7.292539E+04  2.142994E+02  3.510474E+04
        91  23  2.835400E+05  2.951653E+02  5.829446E+02 -6.922742E+04  5.062286E+02  2.821575E+04
        91  24  2.836205E+05  1.010786E+03  1.157132E+03 -7.292570E+04  8.067306E+02  8.261238E+03
        91  25 -2.623037E+05 -1.254719E+05 -8.131208E+04 -7.301301E+04 -6.409444E+02  3.510753E+04
        91  26 -3.125937E+05 -1.399257E+05 -1.043638E+05 -6.899030E+04 -3.170248E+04  2.820682E+04
        91  27 -3.681449E+05 -1.593607E+05 -1.488816E+05 -7.236342E+04 -6.275204E+04  8.234772E+03
        92   1  1.345893E+05  6.652740E+05  1.290131E+05 -2.259169E+05  4.691626E+03  3.069406E+04
        92   2  8.855188E+04  4.884206E+05  7.373908E+04 -2.115065E+05  1.313488E+04  3.635765E+03
        92   3  4.696411E+04  3.162173E+05  3.717669E+04 -2.262530E+05  9.551045E+03 -2.341745E+04
        92   4 -6.565810E+02  1.185591E+05 -7.576430E+02 -2.261388E+05  4.712758E+03 -1.557241E+03
        92   5 -5.231730E+01  1.185985E+05  4.068405E+02 -2.115594E+05  1.313921E+04 -1.747441E+03
        92   6  3.433607E+02  1.186017E+05  1.637869E+03 -2.261382E+05  9.535225E+03 -1.939845E+03
        92   7 -1.359234E+05 -4.278794E+05 -1.305453E+05 -2.263605E+05  4.733927E+03 -3.378030E+04
        92   8 -8.866483E+04 -2.510929E+05 -7.293206E+04 -2.116123E+05  1.314353E+04 -7.127508E+03
        92   9 -4.627932E+04 -7.897494E+04 -3.390073E+04 -2.260234E+05  9.519411E+03  1.953112E+04
        92  10  1.345890E+05  6.652730E+05  1.290113E+05 -2.259170E+05 -5.243163E-10 -1.384989E-08
        92  11  8.855169E+04  4.884206E+05  7.373873E+04 -2.115066E+05 -2.960142E-09 -1.687468E-08
        92  12  4.696387E+04  3.162167E+05  3.717549E+04 -2.262528E+05 -3.490719E-09 -1.833630E-08
        92  13 -6.566055E+02  1.185591E+05 -7.576893E+02 -2.261388E+05  6.831579E-10 -2.809922E-11
        92  14 -5.250350E+01  1.185984E+05  4.065104E+02 -2.115594E+05  8.795452E-09 -2.227184E-10
        92  15  3.432621E+02  1.186016E+05  1.637691E+03 -2.261382E+05  1.353238E-08  3.073046E-11
        92  16 -1.359237E+05 -4.278806E+05 -1.305475E+05 -2.263604E+05 -1.354804E-11  1.412354E-08
        92  17 -8.866503E+04 -2.510930E+05 -7.293248E+04 -2.116122E+05 -2.841145E-09  1.702519E-08
        92  18 -4.627952E+04 -7.897538E+04 -3.390162E+04 -2.260236E+05 -5.702291E-09  1.805270E-08
        92  19  1.345893E+05  6.652740E+05  1.290131E+05 -2.259169E+05 -4.691626E+03 -3.069406E+04
        92  20  8.855188E+04  4.884206E+05  7.373908E+04 -2.115065E+05 -1.313488E+04 -3.635765E+03
        92  21  4.696411E+04  3.162173E+05  3.717669E+04 -2.262530E+05 -9.551045E+03  2.341745E+04
        92  22 -6.565810E+02  1.185591E+05 -7.576430E+02 -2.261388E+05 -4.712758E+03  1.557241E+03
        92  23 -5.231730E+01  1.185985E+05  4.068405E+02 -2.115594E+05 -1.313921E+04  1.747441E+03
        92  24  3.433607E+02  1.186017E+05  1.637869E+03 -2.261382E+05 -9.535225E+03  1.939845E+03
        92  25 -1.359234E+05 -4.278794E+05 -1.305453E+05 -2.263605E+05 -4.733927E+03  3.378030E+04
        92  26 -8.866483E+04 -2.510929E+05 -7.293206E+04 -2.116123E+05 -1.314353E+04  7.127508E+03
        92  27 -4.627932E+04 -7.897494E+04 -3.390073E+04 -2.260234E+05 -9.519411E+03 -1.953112E+04
        93   1  2.149587E+04  2.069321E+05  1.955779E+04 -2.264781E+05  3.378589E+03 -2.412720E+04
        93   2 -1.857948E+04  3.225656E+04 -7.889609E+03 -2.104884E+05 -6.180896E+03 -2.546576E+04
        93   3 -5.725445E+04 -1.418844E+05 -3.412314E+04 -2.244087E+05 -1.529805E+04 -2.680336E+04
        93   4  4.346703E+02  1.187655E+05  2.402181E+03 -2.263053E+05  3.362016E+03 -2.291428E+03
        93   5  1.159857E+03  1.184226E+05  4.640356E+03 -2.113496E+05 -6.196132E+03 -4.620630E+03
        93   6  3.458157E+03  1.187551E+05  8.778548E+03 -2.263034E+05 -1.531201E+04 -6.949227E+03
        93   7 -2.062673E+04  3.060740E+04 -1.475200E+04 -2.261325E+05  3.345453E+03  1.954131E+04
        93   8  2.089909E+04  2.045970E+05  1.717183E+04 -2.122109E+05 -6.211423E+03  1.622727E+04
        93   9  6.416749E+04  3.794626E+05  5.167973E+04 -2.281989E+05 -1.532608E+04  1.291296E+04
        93  10  2.149570E+04  2.069315E+05  1.955667E+04 -2.264781E+05 -2.792188E-09 -1.108782E-07
        93  11 -1.857969E+04  3.225585E+04 -7.890900E+03 -2.104885E+05  1.206450E-09  1.686929E-08
        93  12 -5.725489E+04 -1.418852E+05 -3.412493E+04 -2.244090E+05  2.086569E-09  1.409447E-07
        93  13  4.346567E+02  1.187655E+05  2.402150E+03 -2.263053E+05  1.589720E-08 -6.491032E-13
        93  14  1.159810E+03  1.184226E+05  4.640243E+03 -2.113496E+05  1.142387E-08 -2.503880E-10
        93  15  3.457893E+03  1.187549E+05  8.778017E+03 -2.263035E+05 -4.366024E-10  4.870978E-11
        93  16 -2.062685E+04  3.060699E+04 -1.475274E+04 -2.261326E+05 -2.426752E-09  1.112648E-07
        93  17  2.089897E+04  2.045967E+05  1.717126E+04 -2.122108E+05 -2.712674E-09 -1.678706E-08
        93  18  6.416719E+04  3.794624E+05  5.167898E+04 -2.281987E+05 -1.904562E-09 -1.412379E-07
        93  19  2.149587E+04  2.069321E+05  1.955779E+04 -2.264781E+05 -3.378589E+03  2.412720E+04
        93  20 -1.857948E+04  3.225656E+04 -7.889609E+03 -2.104884E+05  6.180896E+03  2.546576E+04
        93  21 -5.725445E+04 -1.418844E+05 -3.412314E+04 -2.244087E+05  1.529805E+04  2.680336E+04
        93  22  4.346703E+02  1.187655E+05  2.402181E+03 -2.263053E+05 -3.362016E+03  2.291428E+03
        93  23  1.159857E+03  1.184226E+05  4.640356E+03 -2.113496E+05  6.196132E+03  4.620630E+03
        93  24  3.458157E+03  1.187551E+05  8.778548E+03 -2.263034E+05  1.531201E+04  6.949227E+03
        93  25 -2.062673E+04  3.060740E+04 -1.475200E+04 -2.261325E+05 -3.345453E+03 -1.954131E+04
        93  26  2.089909E+04  2.045970E+05  1.717183E+04 -2.122109E+05  6.211423E+03 -1.622727E+04
        93  27  6.416749E+04  3.794626E+05  5.167973E+04 -2.281989E+05  1.532608E+04 -1.291296E+04
        94   1 -8.196854E+04 -2.503325E+05 -5.016102E+04 -2.252265E+05 -2.105278E+04 -2.783082E+04
        94   2 -1.153281E+05 -4.247518E+05 -8.173382E+04 -1.973576E+05 -2.194316E+04 -4.148449E+03
        94   3 -1.367622E+05 -5.992350E+05 -1.257489E+05 -1.983633E+05 -7.226972E+03  1.952848E+04
        94   4  4.478047E+03  1.199137E+05  1.178596E+04 -2.260729E+05 -2.106536E+04 -8.478932E+03
        94   5  1.375439E+04  1.169085E+05  2.181925E+04 -2.116285E+05 -2.193181E+04 -1.961474E+04
        94   6  4.099525E+04  1.198490E+05  4.358989E+04 -2.260534E+05 -7.199015E+03 -3.074901E+04
        94   7  9.091767E+04  4.902959E+05  7.373010E+04 -2.269198E+05 -2.107799E+04  1.088412E+04
        94   8  1.428204E+05  6.588524E+05  1.253600E+05 -2.259120E+05 -2.191976E+04 -3.509421E+04
        94   9  2.187199E+05  8.394161E+05  2.129030E+05 -2.537756E+05 -7.166595E+03 -8.108442E+04
        94  10 -8.196922E+04 -2.503334E+05 -5.016331E+04 -2.252269E+05  7.564831E-10  9.753185E-09
        94  11 -1.153286E+05 -4.247520E+05 -8.173476E+04 -1.973577E+05 -1.872790E-09  5.669726E-09
        94  12 -1.367623E+05 -5.992354E+05 -1.257497E+05 -1.983632E+05  1.081846E-09  1.184385E-09
        94  13  4.477551E+03  1.199135E+05  1.178499E+04 -2.260730E+05 -3.070123E-09 -5.500766E-12
        94  14  1.375377E+04  1.169079E+05  2.181763E+04 -2.116288E+05 -1.479885E-09 -1.439375E-10
        94  15  4.099494E+04  1.198480E+05  4.358802E+04 -2.260536E+05  2.821297E-10  2.696354E-11
        94  16  9.091717E+04  4.902957E+05  7.372904E+04 -2.269196E+05 -1.230112E-09 -9.275046E-09
        94  17  1.428196E+05  6.588510E+05  1.253568E+05 -2.259126E+05 -2.360984E-10 -5.410189E-09
        94  18  2.187181E+05  8.394091E+05  2.128905E+05 -2.537761E+05 -1.188677E-09 -1.238129E-09
        94  19 -8.196854E+04 -2.503325E+05 -5.016102E+04 -2.252265E+05  2.105278E+04  2.783082E+04
        94  20 -1.153281E+05 -4.247518E+05 -8.173382E+04 -1.973576E+05  2.194316E+04  4.148449E+03
        94  21 -1.367622E+05 -5.992350E+05 -1.257489E+05 -1.983633E+05  7.226972E+03 -1.952848E+04
        94  22  4.478047E+03  1.199137E+05  1.178596E+04 -2.260729E+05  2.106536E+04  8.478932E+03
        94  23  1.375439E+04  1.169085E+05  2.181925E+04 -2.116285E+05  2.193181E+04  1.961474E+04
        94  24  4.099525E+04  1.198490E+05  4.358989E+04 -2.260534E+05  7.199015E+03  3.074901E+04
        94  25  9.091767E+04  4.902959E+05  7.373010E+04 -2.269198E+05  2.107799E+04 -1.088412E+04
        94  26  1.428204E+05  6.588524E+05  1.253600E+05 -2.259120E+05  2.191976E+04  3.509421E+04
        94  27  2.187199E+05  8.394161E+05  2.129030E+05 -2.537756E+05  7.166595E+03  8.108442E+04
        95   1 -2.757869E+05 -1.565303E+05 -1.006467E+05 -1.148433E+05 -4.824005E+04 -1.535384E+04
        95   2 -2.582855E+05 -9.554559E+04 -5.831186E+04 -1.072155E+05 -3.025881E+04 -2.564425E+03
        95   3 -2.525368E+05 -7.310912E+04 -4.027832E+04 -9.559092E+04 -1.054644E+04  5.615636E+03
        95   4 -1.299690E+05 -7.549937E+04 -5.758057E+04 -4.790989E+04 -3.799872E+04 -1.151332E+04
        95   5 -1.215421E+05 -3.436076E+04 -2.612297E+04 -5.834201E+04 -2.622852E+04 -1.052991E+03
        95   6 -1.236344E+05 -3.053643E+04 -1.404201E+04 -6.477902E+04 -1.272782E+04  4.797143E+03
        95   7  1.586978E+04  5.540769E+03 -1.451653E+04  1.903937E+04 -2.775492E+04 -7.670769E+03
        95   8  1.522001E+04  2.682796E+04  6.064578E+03 -9.457980E+03 -2.219729E+04  4.589728E+02
        95   9  5.285510E+03  1.203710E+04  1.219367E+04 -3.396140E+04 -1.490970E+04  3.978504E+03
        95  10 -2.757894E+05 -1.565311E+05 -1.006515E+05 -1.148439E+05  2.553920E-09 -1.323949E-09
        95  11 -2.582865E+05 -9.554584E+04 -5.831359E+04 -1.072155E+05  1.082127E-08 -1.467383E-09
        95  12 -2.525369E+05 -7.310919E+04 -4.027859E+04 -9.559088E+04 -1.646484E-09 -5.311425E-09
        95  13 -1.299705E+05 -7.549990E+04 -5.758353E+04 -4.791024E+04  4.042117E-09  1.029112E-09
        95  14 -1.215428E+05 -3.436095E+04 -2.612426E+04 -5.834203E+04  4.089966E-09  3.899082E-10
        95  15 -1.236346E+05 -3.053650E+04 -1.404236E+04 -6.477897E+04 -1.976069E-08 -7.015436E-09
        95  16  1.586894E+04  5.540499E+03 -1.451809E+04  1.903920E+04  6.496117E-09  3.382897E-09
        95  17  1.521948E+04  2.682783E+04  6.063651E+03 -9.457971E+03 -5.580027E-10  2.233323E-09
        95  18  5.285267E+03  1.203703E+04  1.219322E+04 -3.396135E+04 -2.678938E-08 -8.118260E-09
        95  19 -2.757869E+05 -1.565303E+05 -1.006467E+05 -1.148433E+05  4.824005E+04  1.535384E+04
        95  20 -2.582855E+05 -9.554559E+04 -5.831186E+04 -1.072155E+05  3.025881E+04  2.564425E+03
        95  21 -2.525368E+05 -7.310912E+04 -4.027832E+04 -9.559092E+04  1.054644E+04 -5.615636E+03
        95  22 -1.299690E+05 -7.549937E+04 -5.758057E+04 -4.790989E+04  3.799872E+04  1.151332E+04
        95  23 -1.215421E+05 -3.436076E+04 -2.612297E+04 -5.834201E+04  2.622852E+04  1.052991E+03
        95  24 -1.236344E+05 -3.053643E+04 -1.404201E+04 -6.477902E+04  1.272782E+04 -4.797143E+03
        95  25  1.586978E+04  5.540769E+03 -1.451653E+04  1.903937E+04  2.775492E+04  7.670769E+03
        95  26  1.522001E+04  2.682796E+04  6.064578E+03 -9.457980E+03  2.219729E+04 -4.589728E+02
        95  27  5.285510E+03  1.203710E+04  1.219367E+04 -3.396140E+04  1.490970E+04 -3.978504E+03
        96   1 -2.332310E+05 -7.385662E+04 -3.413665E+04 -9.465502E+04 -9.544456E+03  4.949498E+03
        96   2 -2.153511E+05 -6.265127E+04 -2.467306E+04 -8.700757E+04 -5.900154E+03  5.131641E+03
        96   3 -1.944417E+05 -5.702255E+04 -1.803986E+04 -8.371082E+04 -2.146882E+03  5.023267E+03
        96   4 -1.218749E+05 -3.248032E+04 -1.077177E+04 -6.325107E+04 -1.074978E+04  4.497172E+03
        96   5 -1.233047E+05 -2.885580E+04 -5.689100E+03 -6.140362E+04 -7.496585E+03  4.532680E+03
        96   6 -1.216275E+05 -3.073028E+04 -3.126524E+03 -6.390703E+04 -4.134512E+03  4.277653E+03
        96   7 -1.050702E+04  8.896776E+03  1.259220E+04 -3.184215E+04 -1.195533E+04  4.044760E+03
        96   8 -3.124956E+04  4.940402E+03  1.329443E+04 -3.579616E+04 -9.093272E+03  3.933623E+03
        96   9 -4.880730E+04 -4.437393E+03  1.178671E+04 -4.410097E+04 -6.122409E+03  3.531942E+03
        96  10 -2.332311E+05 -7.385667E+04 -3.413686E+04 -9.465498E+04 -2.791517E-08 -1.164564E-08
        96  11 -2.153512E+05 -6.265131E+04 -2.467317E+04 -8.700755E+04 -1.036331E-08  5.531135E-10
        96  12 -1.944417E+05 -5.702257E+04 -1.803991E+04 -8.371081E+04  3.002219E-10  1.769124E-09
        96  13 -1.218750E+05 -3.248037E+04 -1.077203E+04 -6.325103E+04 -2.135223E-08 -6.845942E-09
        96  14 -1.233047E+05 -2.885584E+04 -5.689244E+03 -6.140359E+04 -7.288581E-09 -9.399863E-10
        96  15 -1.216275E+05 -3.073031E+04 -3.126591E+03 -6.390702E+04  2.180083E-09  1.421561E-09
        96  16 -1.050718E+04  8.896720E+03  1.259190E+04 -3.184211E+04 -8.189355E-09 -3.007110E-09
        96  17 -3.124965E+04  4.940363E+03  1.329424E+04 -3.579613E+04  4.828143E-09 -1.829533E-09
        96  18 -4.880734E+04 -4.437416E+03  1.178662E+04 -4.410095E+04  3.166136E-09  9.985948E-10
        96  19 -2.332310E+05 -7.385662E+04 -3.413665E+04 -9.465502E+04  9.544456E+03 -4.949498E+03
        96  20 -2.153511E+05 -6.265127E+04 -2.467306E+04 -8.700757E+04  5.900154E+03 -5.131641E+03
        96  21 -1.944417E+05 -5.702255E+04 -1.803986E+04 -8.371082E+04  2.146882E+03 -5.023267E+03
        96  22 -1.218749E+05 -3.248032E+04 -1.077177E+04 -6.325107E+04  1.074978E+04 -4.497172E+03
        96  23 -1.233047E+05 -2.885580E+04 -5.689100E+03 -6.140362E+04  7.496585E+03 -4.532680E+03
        96  24 -1.216275E+05 -3.073028E+04 -3.126524E+03 -6.390703E+04  4.134512E+03 -4.277653E+03
        96  25 -1.050702E+04  8.896776E+03  1.259220E+04 -3.184215E+04  1.195533E+04 -4.044760E+03
        96  26 -3.124956E+04  4.940402E+03  1.329443E+04 -3.579616E+04  9.093272E+03 -3.933623E+03
        96  27 -4.880730E+04 -4.437393E+03  1.178671E+04 -4.410097E+04  6.122409E+03 -3.531942E+03
        97   1 -1.805868E+05 -5.230576E+04 -1.438585E+04 -8.008567E+04 -1.447022E+03  4.308864E+03
        97   2 -1.629173E+05 -4.309245E+04 -9.353206E+03 -7.236629E+04 -2.369819E+02  3.122159E+03
        97   3 -1.413288E+05 -3.798828E+04 -4.836806E+03 -6.927753E+04  9.798918E+02  1.917045E+03
        97   4 -1.215001E+05 -3.080892E+04 -2.354686E+03 -6.382318E+04 -3.373422E+03  3.586256E+03
        97   5 -1.234592E+05 -2.873899E+04 -1.295009E+03 -6.151440E+04 -2.188135E+03  2.390309E+03
        97   6 -1.214945E+05 -3.077325E+04 -7.318977E+02 -6.383631E+04 -9.960412E+02  1.175949E+03
        97   7 -6.240987E+04 -9.311792E+03  9.676314E+03 -4.755928E+04 -5.300019E+03  2.863575E+03
        97   8 -8.399954E+04 -1.438547E+04  6.763079E+03 -5.066191E+04 -4.139414E+03  1.658412E+03
        97   9 -1.016601E+05 -2.355824E+04  3.372963E+03 -5.839497E+04 -2.972026E+03  4.348328E+02
        97  10 -1.805868E+05 -5.230578E+04 -1.438589E+04 -8.008567E+04 -1.719282E-09  2.248050E-10
        97  11 -1.629173E+05 -4.309246E+04 -9.353225E+03 -7.236629E+04 -1.190818E-08 -3.759716E-09
        97  12 -1.413288E+05 -3.798828E+04 -4.836815E+03 -6.927753E+04 -7.144420E-09 -3.963576E-09
        97  13 -1.215001E+05 -3.080893E+04 -2.354731E+03 -6.382317E+04 -4.048888E-09 -6.119817E-10
        97  14 -1.234592E+05 -2.873900E+04 -1.295029E+03 -6.151439E+04 -6.451992E-09 -3.331763E-09
        97  15 -1.214945E+05 -3.077325E+04 -7.319021E+02 -6.383631E+04 -3.201083E-09 -2.603011E-09
        97  16 -6.240991E+04 -9.311808E+03  9.676246E+03 -4.755926E+04 -5.064657E-09 -1.111224E-09
        97  17 -8.399956E+04 -1.438548E+04  6.763042E+03 -5.066191E+04 -8.238643E-09 -3.086746E-09
        97  18 -1.016601E+05 -2.355824E+04  3.372946E+03 -5.839497E+04 -3.446882E-11 -1.109361E-09
        97  19 -1.805868E+05 -5.230576E+04 -1.438585E+04 -8.008567E+04  1.447022E+03 -4.308864E+03
        97  20 -1.629173E+05 -4.309245E+04 -9.353206E+03 -7.236629E+04  2.369819E+02 -3.122159E+03
        97  21 -1.413288E+05 -3.798828E+04 -4.836806E+03 -6.927753E+04 -9.798918E+02 -1.917045E+03
        97  22 -1.215001E+05 -3.080892E+04 -2.354686E+03 -6.382318E+04  3.373422E+03 -3.586256E+03
        97  23 -1.234592E+05 -2.873899E+04 -1.295009E+03 -6.151440E+04  2.188135E+03 -2.390309E+03
        97  24 -1.214945E+05 -3.077325E+04 -7.318977E+02 -6.383631E+04  9.960412E+02 -1.175949E+03
        97  25 -6.240987E+04 -9.311792E+03  9.676314E+03 -4.755928E+04  5.300019E+03 -2.863575E+03
        97  26 -8.399954E+04 -1.438547E+04  6.763079E+03 -5.066191E+04  4.139414E+03 -1.658412E+03
        97  27 -1.016601E+05 -2.355824E+04  3.372963E+03 -5.839497E+04  2.972026E+03 -4.348328E+02
        98   1 -1.277570E+05 -3.303074E+04 -1.784898E+03 -6.553997E+04  1.403662E+03  1.103007E+03
        98   2 -1.101421E+05 -2.386741E+04  2.372155E+03 -5.780359E+04  2.130171E+03 -2.938067E+02
        98   3 -8.851932E+04 -1.874178E+04  6.396495E+03 -5.469234E+04  2.857067E+03 -1.691601E+03
        98   4 -1.214783E+05 -3.077555E+04 -5.637374E+02 -6.382872E+04 -5.684751E+02  3.633428E+02
        98   5 -1.234825E+05 -2.875973E+04 -3.540280E+02 -6.151490E+04  1.566610E+02 -1.034006E+03
        98   6 -1.214793E+05 -3.078157E+04 -2.760797E+02 -6.382651E+04  8.821766E+02 -2.432334E+03
        98   7 -1.151996E+05 -2.852033E+04  6.574525E+02 -6.211745E+04 -2.540649E+03 -3.763353E+02
        98   8 -1.368227E+05 -3.365205E+04 -3.080219E+03 -6.522614E+04 -1.816811E+03 -1.774191E+03
        98   9 -1.544381E+05 -4.282128E+04 -6.948694E+03 -7.296022E+04 -1.092602E+03 -3.173024E+03
        98  10 -1.277570E+05 -3.303074E+04 -1.784904E+03 -6.553997E+04 -2.516109E-09 -1.425279E-09
        98  11 -1.101421E+05 -2.386741E+04  2.372147E+03 -5.780359E+04 -1.132200E-08 -2.624450E-09
        98  12 -8.851933E+04 -1.874178E+04  6.396474E+03 -5.469234E+04 -4.938120E-09 -1.925722E-10
        98  13 -1.214783E+05 -3.077555E+04 -5.637383E+02 -6.382872E+04 -3.537235E-09 -2.376153E-09
        98  14 -1.234825E+05 -2.875973E+04 -3.540301E+02 -6.151490E+04 -5.300486E-09 -3.361617E-09
        98  15 -1.214793E+05 -3.078158E+04 -2.760922E+02 -6.382650E+04 -2.490586E-09 -1.543246E-09
        98  16 -1.151996E+05 -2.852033E+04  6.574401E+02 -6.211745E+04 -5.058336E-09 -3.351945E-09
        98  17 -1.368227E+05 -3.365206E+04 -3.080231E+03 -6.522615E+04 -3.296567E-09 -3.885779E-09
        98  18 -1.544381E+05 -4.282129E+04 -6.948715E+03 -7.296023E+04  9.291809E-10 -2.787987E-09
        98  19 -1.277570E+05 -3.303074E+04 -1.784898E+03 -6.553997E+04 -1.403662E+03 -1.103007E+03
        98  20 -1.101421E+05 -2.386741E+04  2.372155E+03 -5.780359E+04 -2.130171E+03  2.938067E+02
        98  21 -8.851932E+04 -1.874178E+04  6.396495E+03 -5.469234E+04 -2.857067E+03  1.691601E+03
        98  22 -1.214783E+05 -3.077555E+04 -5.637374E+02 -6.382872E+04  5.684751E+02 -3.633428E+02
        98  23 -1.234825E+05 -2.875973E+04 -3.540280E+02 -6.151490E+04 -1.566610E+02  1.034006E+03
        98  24 -1.214793E+05 -3.078157E+04 -2.760797E+02 -6.382651E+04 -8.821766E+02  2.432334E+03
        98  25 -1.151996E+05 -2.852033E+04  6.574525E+02 -6.211745E+04  2.540649E+03  3.763353E+02
        98  26 -1.368227E+05 -3.365205E+04 -3.080219E+03 -6.522614E+04  1.816811E+03  1.774191E+03
        98  27 -1.544381E+05 -4.282128E+04 -6.948694E+03 -7.296022E+04  1.092602E+03  3.173024E+03
        99   1 -7.497473E+04 -1.377428E+04  9.281017E+03 -5.095263E+04  3.222929E+03 -2.527000E+03
        99   2 -5.736406E+04 -4.607566E+03  1.315429E+04 -4.321823E+04  3.942423E+03 -3.927053E+03
        99   3 -3.574524E+04  5.227351E+02  1.690035E+04 -4.010768E+04  4.661320E+03 -5.325261E+03
        99   4 -1.214797E+05 -3.078167E+04 -2.748224E+02 -6.382624E+04  1.248037E+03 -3.267756E+03
        99   5 -1.234835E+05 -2.876187E+04 -3.470063E+02 -6.151490E+04  1.969945E+03 -4.666971E+03
        99   6 -1.214799E+05 -3.077894E+04 -5.483015E+02 -6.382754E+04  2.691250E+03 -6.064349E+03
        99   7 -1.679821E+05 -4.778875E+04 -9.830657E+03 -7.669887E+04 -7.266796E+02 -4.008446E+03
        99   8 -1.895984E+05 -5.291580E+04 -1.384851E+04 -7.980978E+04 -2.308388E+00 -5.406806E+03
        99   9 -2.072077E+05 -6.208024E+04 -1.799749E+04 -8.754455E+04  7.214586E+02 -6.803334E+03
        99  10 -7.497475E+04 -1.377429E+04  9.280985E+03 -5.095262E+04  1.051195E-08  5.326605E-09
        99  11 -5.736408E+04 -4.607587E+03  1.315423E+04 -4.321822E+04  1.814526E-09 -9.431137E-11
        99  12 -3.574527E+04  5.226989E+02  1.690026E+04 -4.010766E+04 -1.464169E-08 -6.219744E-09
        99  13 -1.214797E+05 -3.078169E+04 -2.748454E+02 -6.382624E+04  3.069225E-09  5.205864E-10
        99  14 -1.234835E+05 -2.876189E+04 -3.470545E+02 -6.151490E+04  5.641866E-09  3.930106E-09
        99  15 -1.214800E+05 -3.077898E+04 -5.483842E+02 -6.382752E+04  8.606463E-09  7.628691E-09
        99  16 -1.679821E+05 -4.778877E+04 -9.830688E+03 -7.669887E+04 -4.836408E-09 -6.616170E-09
        99  17 -1.895984E+05 -5.291583E+04 -1.384857E+04 -7.980978E+04  4.005502E-09 -1.533025E-09
        99  18 -2.072077E+05 -6.208029E+04 -1.799758E+04 -8.754455E+04  1.540962E-08  3.525395E-09
        99  19 -7.497473E+04 -1.377428E+04  9.281017E+03 -5.095263E+04 -3.222929E+03  2.527000E+03
        99  20 -5.736406E+04 -4.607566E+03  1.315429E+04 -4.321823E+04 -3.942423E+03  3.927053E+03
        99  21 -3.574524E+04  5.227351E+02  1.690035E+04 -4.010768E+04 -4.661320E+03  5.325261E+03
        99  22 -1.214797E+05 -3.078167E+04 -2.748224E+02 -6.382624E+04 -1.248037E+03  3.267756E+03
        99  23 -1.234835E+05 -2.876187E+04 -3.470063E+02 -6.151490E+04 -1.969945E+03  4.666971E+03
        99  24 -1.214799E+05 -3.077894E+04 -5.483015E+02 -6.382754E+04 -2.691250E+03  6.064349E+03
        99  25 -1.679821E+05 -4.778875E+04 -9.830657E+03 -7.669887E+04  7.266796E+02  4.008446E+03
        99  26 -1.895984E+05 -5.291580E+04 -1.384851E+04 -7.980978E+04  2.308388E+00  5.406806E+03
        99  27 -2.072077E+05 -6.208024E+04 -1.799749E+04 -8.754455E+04 -7.214586E+02  6.803334E+03
       100   1 -2.221293E+04  5.483613E+03  1.962017E+04 -3.638421E+04  5.091155E+03 -6.136609E+03
       100   2 -4.569689E+03  1.465204E+04  2.302961E+04 -2.865330E+04  6.225370E+03 -7.366959E+03
       100   3  1.700603E+04  1.972783E+04  2.598661E+04 -2.554844E+04  7.349592E+03 -8.570184E+03
       100   4 -1.214966E+05 -3.077691E+04 -7.106024E+02 -6.383436E+04  3.115753E+03 -6.877759E+03
       100   5 -1.234627E+05 -2.874570E+04 -1.255230E+03 -6.151461E+04  4.286361E+03 -8.094580E+03
       100   6 -1.215039E+05 -3.081444E+04 -2.281153E+03 -6.382114E+04  5.446950E+03 -9.284279E+03
       100   7 -2.207702E+05 -6.703659E+04 -2.104186E+04 -9.128045E+04  1.140690E+03 -7.618782E+03
       100   8 -2.423408E+05 -7.214207E+04 -2.554063E+04 -9.436999E+04  2.347759E+03 -8.822050E+03
       100   9 -2.599929E+05 -8.135467E+04 -3.054956E+04 -1.020857E+05  3.544780E+03 -9.998198E+03
       100  10 -2.221297E+04  5.483566E+03  1.962005E+04 -3.638418E+04  2.013406E-08  4.042058E-09
       100  11 -4.569745E+03  1.465197E+04  2.302943E+04 -2.865327E+04  1.483268E-08  1.160782E-09
       100  12  1.700596E+04  1.972773E+04  2.598637E+04 -2.554839E+04 -1.239695E-09 -2.552332E-09
       100  13 -1.214966E+05 -3.077696E+04 -7.107095E+02 -6.383434E+04  9.138527E-09  8.329998E-09
       100  14 -1.234628E+05 -2.874578E+04 -1.255387E+03 -6.151459E+04  1.233783E-08  6.987182E-09
       100  15 -1.215039E+05 -3.081454E+04 -2.281371E+03 -6.382110E+04  3.168120E-09  3.309646E-09
       100  16 -2.207702E+05 -6.703665E+04 -2.104197E+04 -9.128044E+04 -1.066351E-08 -4.800561E-09
       100  17 -2.423408E+05 -7.214215E+04 -2.554079E+04 -9.436997E+04  8.336781E-09  2.853636E-09
       100  18 -2.599930E+05 -8.135478E+04 -3.054977E+04 -1.020856E+05  6.814206E-09  8.160030E-09
       100  19 -2.221293E+04  5.483613E+03  1.962017E+04 -3.638421E+04 -5.091155E+03  6.136609E+03
       100  20 -4.569689E+03  1.465204E+04  2.302961E+04 -2.865330E+04 -6.225370E+03  7.366959E+03
       100  21  1.700603E+04  1.972783E+04  2.598661E+04 -2.554844E+04 -7.349592E+03  8.570184E+03
       100  22 -1.214966E+05 -3.077691E+04 -7.106024E+02 -6.383436E+04 -3.115753E+03  6.877759E+03
       100  23 -1.234627E+05 -2.874570E+04 -1.255230E+03 -6.151461E+04 -4.286361E+03  8.094580E+03
       100  24 -1.215039E+05 -3.081444E+04 -2.281153E+03 -6.382114E+04 -5.446950E+03  9.284279E+03
       100  25 -2.207702E+05 -6.703659E+04 -2.104186E+04 -9.128045E+04 -1.140690E+03  7.618782E+03
       100  26 -2.423408E+05 -7.214207E+04 -2.554063E+04 -9.436999E+04 -2.347759E+03  8.822050E+03
       100  27 -2.599929E+05 -8.135467E+04 -3.054956E+04 -1.020857E+05 -3.544780E+03  9.998198E+03
       101   1  3.059700E+04  2.460616E+04  2.811862E+04 -2.207713E+04  8.186985E+03 -9.233955E+03
       101   2  4.811919E+04  3.397176E+04  2.976091E+04 -1.380734E+04  1.086249E+04 -9.672703E+03
       101   3  6.888287E+04  3.801126E+04  2.941741E+04 -9.880600E+03  1.337877E+04 -9.686256E+03
       101   4 -1.216285E+05 -3.073663E+04 -3.028178E+03 -6.389937E+04  6.194867E+03 -9.981713E+03
       101   5 -1.233130E+05 -2.886521E+04 -5.510030E+03 -6.140976E+04  9.442822E+03 -1.020582E+04
       101   6 -1.218703E+05 -3.243395E+04 -1.043178E+04 -6.326368E+04  1.253145E+04 -1.000470E+04
       101   7 -2.738314E+05 -8.607799E+04 -3.417648E+04 -1.057125E+05  4.203257E+03 -1.072928E+04
       101   8 -2.947157E+05 -9.169994E+04 -4.078268E+04 -1.090003E+05  8.023567E+03 -1.073879E+04
       101   9 -3.125863E+05 -1.028760E+05 -5.028295E+04 -1.166316E+05  1.168441E+04 -1.032304E+04
       101  10  3.059690E+04  2.460605E+04  2.811833E+04 -2.207707E+04  8.614769E-09  2.763243E-09
       101  11  4.811904E+04  3.397163E+04  2.976051E+04 -1.380726E+04 -1.579515E-08 -8.684998E-09
       101  12  6.888266E+04  3.801111E+04  2.941690E+04 -9.880495E+03 -4.375360E-08 -1.934127E-08
       101  13 -1.216285E+05 -3.073674E+04 -3.028438E+03 -6.389932E+04 -1.926802E-09  1.908079E-09
       101  14 -1.233131E+05 -2.886534E+04 -5.510394E+03 -6.140969E+04 -7.083409E-09 -1.111225E-09
       101  15 -1.218705E+05 -3.243410E+04 -1.043227E+04 -6.326358E+04 -1.792145E-08 -5.738350E-09
       101  16 -2.738314E+05 -8.607812E+04 -3.417673E+04 -1.057125E+05 -1.345187E-08  1.746664E-09
       101  17 -2.947158E+05 -9.170008E+04 -4.078302E+04 -1.090002E+05  8.571834E-09  7.506234E-09
       101  18 -3.125865E+05 -1.028762E+05 -5.028341E+04 -1.166315E+05  2.579516E-08  7.540049E-09
       101  19  3.059700E+04  2.460616E+04  2.811862E+04 -2.207713E+04 -8.186985E+03  9.233955E+03
       101  20  4.811919E+04  3.397176E+04  2.976091E+04 -1.380734E+04 -1.086249E+04  9.672703E+03
       101  21  6.888287E+04  3.801126E+04  2.941741E+04 -9.880600E+03 -1.337877E+04  9.686256E+03
       101  22 -1.216285E+05 -3.073663E+04 -3.028178E+03 -6.389937E+04 -6.194867E+03  9.981713E+03
       101  23 -1.233130E+05 -2.886521E+04 -5.510030E+03 -6.140976E+04 -9.442822E+03  1.020582E+04
       101  24 -1.218703E+05 -3.243395E+04 -1.043178E+04 -6.326368E+04 -1.253145E+04  1.000470E+04
       101  25 -2.738314E+05 -8.607799E+04 -3.417648E+04 -1.057125E+05 -4.203257E+03  1.072928E+04
       101  26 -2.947157E+05 -9.169994E+04 -4.078268E+04 -1.090003E+05 -8.023567E+03  1.073879E+04
       101  27 -3.125863E+05 -1.028760E+05 -5.028295E+04 -1.166316E+05 -1.168441E+04  1.032304E+04
       102   1  8.465365E+04  4.125452E+04  2.911337E+04 -1.176255E+04  1.674391E+04 -9.496449E+03
       102   2  9.461405E+04  5.590197E+04  2.429031E+04  1.200178E+04  2.034557E+04 -6.220506E+03
       102   3  9.621136E+04  3.621171E+04  7.908556E+03  3.962094E+04  2.141542E+04  3.798809E+03
       102   4 -1.235957E+05 -3.053064E+04 -1.359855E+04 -6.471831E+04  1.446825E+04 -1.035100E+04
       102   5 -1.215828E+05 -3.422506E+04 -2.529851E+04 -5.847597E+04  2.715945E+04 -3.663243E+03
       102   6 -1.297382E+05 -7.406570E+04 -5.576191E+04 -4.837851E+04  3.731809E+04  9.768638E+03
       102   7 -3.318005E+05 -1.023133E+05 -5.631261E+04 -1.176582E+05  1.219341E+04 -1.120529E+04
       102   8 -3.377293E+05 -1.243435E+05 -7.488946E+04 -1.289290E+05  3.397068E+04 -1.107261E+03
       102   9 -3.556308E+05 -1.843259E+05 -1.194345E+05 -1.363434E+05  5.321411E+04  1.573432E+04
       102  10  8.465332E+04  4.125435E+04  2.911268E+04 -1.176242E+04  2.268261E-08  7.439828E-09
       102  11  9.461359E+04  5.590182E+04  2.428946E+04  1.200188E+04  1.243431E-08  5.102172E-09
       102  12  9.621087E+04  3.621157E+04  7.907667E+03  3.962088E+04 -1.124001E-08 -1.757685E-09
       102  13 -1.235960E+05 -3.053081E+04 -1.359915E+04 -6.471819E+04 -1.402845E-08 -6.289981E-09
       102  14 -1.215836E+05 -3.422527E+04 -2.529992E+04 -5.847589E+04 -8.491202E-09 -7.696430E-10
       102  15 -1.297397E+05 -7.406618E+04 -5.576471E+04 -4.837880E+04  5.607654E-10  8.228685E-10
       102  16 -3.318007E+05 -1.023135E+05 -5.631313E+04 -1.176581E+05 -4.186401E-08 -1.921084E-08
       102  17 -3.377305E+05 -1.243438E+05 -7.489163E+04 -1.289290E+05 -1.316610E-08 -8.845058E-09
       102  18 -3.556339E+05 -1.843270E+05 -1.194403E+05 -1.363441E+05  1.002182E-08  2.073472E-09
       102  19  8.465365E+04  4.125452E+04  2.911337E+04 -1.176255E+04 -1.674391E+04  9.496449E+03
       102  20  9.461405E+04  5.590197E+04  2.429031E+04  1.200178E+04 -2.034557E+04  6.220506E+03
       102  21  9.621136E+04  3.621171E+04  7.908556E+03  3.962094E+04 -2.141542E+04 -3.798809E+03
       102  22 -1.235957E+05 -3.053064E+04 -1.359855E+04 -6.471831E+04 -1.446825E+04  1.035100E+04
       102  23 -1.215828E+05 -3.422506E+04 -2.529851E+04 -5.847597E+04 -2.715945E+04  3.663243E+03
       102  24 -1.297382E+05 -7.406570E+04 -5.576191E+04 -4.837851E+04 -3.731809E+04 -9.768638E+03
       102  25 -3.318005E+05 -1.023133E+05 -5.631261E+04 -1.176582E+05 -1.219341E+04  1.120529E+04
       102  26 -3.377293E+05 -1.243435E+05 -7.488946E+04 -1.289290E+05 -3.397068E+04  1.107261E+03
       102  27 -3.556308E+05 -1.843259E+05 -1.194345E+05 -1.363434E+05 -5.321411E+04 -1.573432E+04
       103   1  6.866497E+05  1.105750E+05  9.840551E+04  1.059223E+04  2.722222E+04 -8.420221E+03
       103   2  6.575588E+05  1.238722E+05  8.341447E+04  2.127720E+04  1.070764E+04 -2.902184E+04
       103   3  6.272474E+05  1.236145E+05  7.579131E+04  3.637730E+04 -5.812268E+03 -3.661243E+04
       103   4  7.956672E+04 -3.879538E+04 -4.182203E+04  3.597398E+04 -2.938713E+04 -8.456474E+03
       103   5  8.254261E+04 -1.190387E+04 -2.081093E+04  3.375243E+04 -1.871312E+04 -2.904551E+04
       103   6  7.957583E+04 -3.293259E+03 -1.130626E+04  3.594590E+04 -8.045500E+03 -3.661731E+04
       103   7 -5.271675E+05 -1.881874E+05 -1.820618E+05  6.133069E+04 -8.594159E+04 -8.497372E+03
       103   8 -4.921499E+05 -1.476974E+05 -1.250461E+05  4.621573E+04 -4.810739E+04 -2.907038E+04
       103   9 -4.677976E+05 -1.302160E+05 -9.841151E+04  3.551483E+04 -1.027683E+04 -3.662218E+04
       103  10  6.866489E+05  1.105747E+05  9.840399E+04  1.059242E+04  2.739479E-09 -3.030592E-10
       103  11  6.575584E+05  1.238712E+05  8.341267E+04  2.127745E+04  1.302687E-09 -1.466362E-09
       103  12  6.272470E+05  1.236131E+05  7.578873E+04  3.637713E+04  8.810969E-11 -2.652517E-10
       103  13  7.956577E+04 -3.879569E+04 -4.182379E+04  3.597378E+04 -1.950074E-09  3.796855E-10
       103  14  8.254201E+04 -1.190487E+04 -2.081317E+04  3.375199E+04 -1.080697E-09 -1.093596E-09
       103  15  7.957540E+04 -3.294717E+03 -1.130890E+04  3.594567E+04  3.286787E-09  3.237057E-10
       103  16 -5.271755E+05 -1.881895E+05 -1.820758E+05  6.133010E+04 -1.724741E-09 -3.742178E-11
       103  17 -4.921526E+05 -1.476989E+05 -1.250520E+05  4.621461E+04  9.229426E-10 -2.562749E-09
       103  18 -4.677981E+05 -1.302174E+05 -9.841423E+04  3.551453E+04  1.036254E-09 -2.547561E-09
       103  19  6.866497E+05  1.105750E+05  9.840551E+04  1.059223E+04 -2.722222E+04  8.420221E+03
       103  20  6.575588E+05  1.238722E+05  8.341447E+04  2.127720E+04 -1.070764E+04  2.902184E+04
       103  21  6.272474E+05  1.236145E+05  7.579131E+04  3.637730E+04  5.812268E+03  3.661243E+04
       103  22  7.956672E+04 -3.879538E+04 -4.182203E+04  3.597398E+04  2.938713E+04  8.456474E+03
       103  23  8.254261E+04 -1.190387E+04 -2.081093E+04  3.375243E+04  1.871312E+04  2.904551E+04
       103  24  7.957583E+04 -3.293259E+03 -1.130626E+04  3.594590E+04  8.045500E+03  3.661731E+04
       103  25 -5.271675E+05 -1.881874E+05 -1.820618E+05  6.133069E+04  8.594159E+04  8.497372E+03
       103  26 -4.921499E+05 -1.476974E+05 -1.250461E+05  4.621573E+04  4.810739E+04  2.907038E+04
       103  27 -4.677976E+05 -1.302160E+05 -9.841151E+04  3.551483E+04  1.027683E+04  3.662218E+04
       104   1  6.090499E+05  1.193775E+05  7.356890E+04  3.511401E+04 -4.298390E+03 -3.675472E+04
       104   2  5.795178E+05  1.138026E+05  6.952539E+04  3.324549E+04 -5.162866E+03 -3.708887E+04
       104   3  5.498922E+05  1.073781E+05  6.583476E+04  3.671707E+04 -6.028998E+03 -3.590120E+04
       104   4  8.075660E+04 -2.647019E+03 -8.491828E+03  3.615341E+04 -6.580904E+03 -3.675969E+04
       104   5  8.108432E+04 -6.731702E+02 -4.623004E+03  3.348194E+04 -4.266715E+03 -3.709095E+04
       104   6  8.076620E+04 -1.009630E+02 -2.608231E+03  3.615086E+04 -1.954167E+03 -3.589974E+04
       104   7 -4.472583E+05 -1.246851E+05 -9.055902E+04  3.719182E+04 -8.861548E+03 -3.676468E+04
       104   8 -4.170997E+05 -1.151606E+05 -7.877608E+04  3.371813E+04 -3.371253E+03 -3.709303E+04
       104   9 -3.881381E+05 -1.075902E+05 -7.105488E+04  3.558504E+04  2.117716E+03 -3.589830E+04
       104  10  6.090496E+05  1.193760E+05  7.356632E+04  3.511389E+04  4.577305E-10 -8.086688E-10
       104  11  5.795174E+05  1.138011E+05  6.952276E+04  3.324534E+04 -2.703932E-09  1.005858E-09
       104  12  5.498918E+05  1.073767E+05  6.583227E+04  3.671689E+04 -4.164747E-09  1.364406E-09
       104  13  8.075619E+04 -2.648482E+03 -8.494449E+03  3.615321E+04  2.050592E-10 -9.613537E-10
       104  14  8.108393E+04 -6.746524E+02 -4.625623E+03  3.348181E+04 -3.231025E-09  2.867549E-10
       104  15  8.076585E+04 -1.023480E+02 -2.610660E+03  3.615080E+04  1.178980E-09 -4.537423E-10
       104  16 -4.472587E+05 -1.246866E+05 -9.056171E+04  3.719155E+04  1.434269E-09 -3.444433E-10
       104  17 -4.171000E+05 -1.151621E+05 -7.877869E+04  3.371803E+04 -1.413126E-09  3.969456E-10
       104  18 -3.881384E+05 -1.075916E+05 -7.105731E+04  3.558510E+04  2.779061E-09  8.866546E-10
       104  19  6.090499E+05  1.193775E+05  7.356890E+04  3.511401E+04  4.298390E+03  3.675472E+04
       104  20  5.795178E+05  1.138026E+05  6.952539E+04  3.324549E+04  5.162866E+03  3.708887E+04
       104  21  5.498922E+05  1.073781E+05  6.583476E+04  3.671707E+04  6.028998E+03  3.590120E+04
       104  22  8.075660E+04 -2.647019E+03 -8.491828E+03  3.615341E+04  6.580904E+03  3.675969E+04
       104  23  8.108432E+04 -6.731702E+02 -4.623004E+03  3.348194E+04  4.266715E+03  3.709095E+04
       104  24  8.076620E+04 -1.009630E+02 -2.608231E+03  3.615086E+04  1.954167E+03  3.589974E+04
       104  25 -4.472583E+05 -1.246851E+05 -9.055902E+04  3.719182E+04  8.861548E+03  3.676468E+04
       104  26 -4.170997E+05 -1.151606E+05 -7.877608E+04  3.371813E+04  3.371253E+03  3.709303E+04
       104  27 -3.881381E+05 -1.075902E+05 -7.105488E+04  3.558504E+04 -2.117716E+03  3.589830E+04
       105   1  5.313665E+05  1.030726E+05  6.343005E+04  3.658598E+04 -5.631480E+03 -3.471011E+04
       105   2  5.018280E+05  9.635091E+04  5.966424E+04  3.386588E+04 -5.452270E+03 -3.267436E+04
       105   3  4.722590E+05  8.960463E+04  5.577537E+04  3.658988E+04 -5.273805E+03 -3.046087E+04
       105   4  8.089164E+04 -7.007729E+01 -1.971920E+03  3.617418E+04 -1.563111E+03 -3.470832E+04
       105   5  8.094377E+04  4.768340E+01 -1.112122E+03  3.345193E+04 -1.012933E+03 -3.267162E+04
       105   6  8.090003E+04  7.648430E+01 -6.331090E+02  3.617401E+04 -4.634904E+02 -3.045711E+04
       105   7 -3.693786E+05 -1.032221E+05 -6.737716E+04  3.576263E+04  2.502432E+03 -3.470653E+04
       105   8 -3.397617E+05 -9.626364E+04 -6.189122E+04  3.303822E+04  3.423524E+03 -3.266888E+04
       105   9 -3.103043E+05 -8.945864E+04 -5.704391E+04  3.575836E+04  4.343922E+03 -3.045335E+04
       105  10  5.313661E+05  1.030713E+05  6.342772E+04  3.658583E+04  6.325329E-10  1.322720E-09
       105  11  5.018277E+05  9.634976E+04  5.966217E+04  3.386574E+04 -5.864846E-10 -3.511081E-11
       105  12  4.722587E+05  8.960362E+04  5.577358E+04  3.658975E+04  2.618710E-09 -5.205013E-10
       105  13  8.089131E+04 -7.137159E+01 -1.974189E+03  3.617413E+04  2.124031E-10 -1.030290E-09
       105  14  8.094349E+04  4.653685E+01 -1.114130E+03  3.345191E+04 -3.231446E-09  4.071720E-10
       105  15  8.089978E+04  7.548809E+01 -6.348527E+02  3.617399E+04  1.627779E-09  1.249099E-09
       105  16 -3.693790E+05 -1.032234E+05 -6.737943E+04  3.576270E+04  8.899186E-13  1.514219E-09
       105  17 -3.397620E+05 -9.626479E+04 -6.189325E+04  3.303831E+04 -2.359288E-09  7.423685E-10
       105  18 -3.103046E+05 -8.945965E+04 -5.704569E+04  3.575846E+04  9.214185E-10 -8.486558E-10
       105  19  5.313665E+05  1.030726E+05  6.343005E+04  3.658598E+04  5.631480E+03  3.471011E+04
       105  20  5.018280E+05  9.635091E+04  5.966424E+04  3.386588E+04  5.452270E+03  3.267436E+04
       105  21  4.722590E+05  8.960463E+04  5.577537E+04  3.658988E+04  5.273805E+03  3.046087E+04
       105  22  8.089164E+04 -7.007729E+01 -1.971920E+03  3.617418E+04  1.563111E+03  3.470832E+04
       105  23  8.094377E+04  4.768340E+01 -1.112122E+03  3.345193E+04  1.012933E+03  3.267162E+04
       105  24  8.090003E+04  7.648430E+01 -6.331090E+02  3.617401E+04  4.634904E+02  3.045711E+04
       105  25 -3.693786E+05 -1.032221E+05 -6.737716E+04  3.576263E+04 -2.502432E+03  3.470653E+04
       105  26 -3.397617E+05 -9.626364E+04 -6.189122E+04  3.303822E+04 -3.423524E+03  3.266888E+04
       105  27 -3.103043E+05 -8.945864E+04 -5.704391E+04  3.575836E+04 -4.343922E+03  3.045335E+04
       106   1  4.537194E+05  8.533352E+04  5.312396E+04  3.656327E+04 -5.174182E+03 -2.911440E+04
       106   2  4.241856E+05  7.857781E+04  4.909410E+04  3.380890E+04 -5.086774E+03 -2.680229E+04
       106   3  3.946377E+05  7.183870E+04  4.500924E+04  3.650806E+04 -4.999867E+03 -2.446962E+04
       106   4  8.091891E+04  7.639397E+01 -4.778726E+02  3.617612E+04 -3.650981E+02 -2.911031E+04
       106   5  8.093383E+04  7.532436E+01 -2.676365E+02  3.344926E+04 -2.349478E+02 -2.679765E+04
       106   6  8.092580E+04  8.334142E+01 -1.423108E+02  3.617611E+04 -1.052962E+02 -2.446442E+04
       106   7 -2.917412E+05 -8.518706E+04 -5.408176E+04  3.578917E+04  4.441223E+03 -2.910622E+04
       106   8 -2.621990E+05 -7.843252E+04 -4.963110E+04  3.308980E+04  4.614311E+03 -2.679301E+04
       106   9 -2.326868E+05 -7.167650E+04 -4.529530E+04  3.584431E+04  4.786907E+03 -2.445922E+04
       106  10  4.537191E+05  8.533260E+04  5.312231E+04  3.656314E+04 -5.909635E-10  7.322331E-10
       106  11  4.241854E+05  7.857703E+04  4.909270E+04  3.380879E+04  9.968027E-10  4.568737E-09
       106  12  3.946375E+05  7.183805E+04  4.500807E+04  3.650796E+04 -3.020899E-09  3.460785E-09
       106  13  8.091869E+04  7.548393E+01 -4.794654E+02  3.617611E+04  3.068417E-10  1.856691E-10
       106  14  8.093364E+04  7.455319E+01 -2.689861E+02  3.344926E+04  2.212835E-09  3.677827E-09
       106  15  8.092564E+04  8.269870E+01 -1.434356E+02  3.617611E+04 -2.067220E-09  1.515829E-09
       106  16 -2.917414E+05 -8.518797E+04 -5.408339E+04  3.578927E+04 -5.600154E-10 -6.908966E-10
       106  17 -2.621992E+05 -7.843330E+04 -4.963249E+04  3.308990E+04  5.212841E-10  9.025195E-10
       106  18 -2.326869E+05 -7.167715E+04 -4.529647E+04  3.584440E+04  1.109993E-09  1.297569E-09
       106  19  4.537194E+05  8.533352E+04  5.312396E+04  3.656327E+04  5.174182E+03  2.911440E+04
       106  20  4.241856E+05  7.857781E+04  4.909410E+04  3.380890E+04  5.086774E+03  2.680229E+04
       106  21  3.946377E+05  7.183870E+04  4.500924E+04  3.650806E+04  4.999867E+03  2.446962E+04
       106  22  8.091891E+04  7.639397E+01 -4.778726E+02  3.617612E+04  3.650981E+02  2.911031E+04
       106  23  8.093383E+04  7.532436E+01 -2.676365E+02  3.344926E+04  2.349478E+02  2.679765E+04
       106  24  8.092580E+04  8.334142E+01 -1.423108E+02  3.617611E+04  1.052962E+02  2.446442E+04
       106  25 -2.917412E+05 -8.518706E+04 -5.408176E+04  3.578917E+04 -4.441223E+03  2.910622E+04
       106  26 -2.621990E+05 -7.843252E+04 -4.963110E+04  3.308980E+04 -4.614311E+03  2.679301E+04
       106  27 -2.326868E+05 -7.167650E+04 -4.529530E+04  3.584431E+04 -4.786907E+03  2.445922E+04
       107   1  3.761002E+05  6.757736E+04  4.227382E+04  3.649230E+04 -4.978878E+03 -2.310534E+04
       107   2  3.465742E+05  6.082896E+04  3.814657E+04  3.373891E+04 -4.969861E+03 -2.076159E+04
       107   3  3.170385E+05  5.409764E+04  3.401366E+04  3.644156E+04 -4.961215E+03 -1.841582E+04
       107   4  8.093062E+04  8.451575E+01 -9.898321E+01  3.617666E+04 -8.484674E+01 -2.309988E+04
       107   5  8.093870E+04  7.921266E+01 -3.215647E+01  3.344858E+04 -7.169095E+01 -2.075573E+04
       107   6  8.093595E+04  9.040322E+01  2.620957E+01  3.617666E+04 -5.890522E+01 -1.840955E+04
       107   7 -2.141509E+05 -6.741228E+04 -4.247303E+04  3.586115E+04  4.806958E+03 -2.309441E+04
       107   8 -1.846255E+05 -6.067374E+04 -3.821188E+04  3.315835E+04  4.824474E+03 -2.074986E+04
       107   9 -1.551103E+05 -5.391937E+04 -3.396202E+04  3.591185E+04  4.841620E+03 -1.840329E+04
       107  10  3.761000E+05  6.757678E+04  4.227277E+04  3.649221E+04  4.212515E-09  2.941748E-10
       107  11  3.465740E+05  6.082849E+04  3.814571E+04  3.373883E+04  8.814340E-11 -5.180645E-10
       107  12  3.170384E+05  5.409727E+04  3.401297E+04  3.644149E+04 -5.272094E-09 -3.428889E-10
       107  13  8.093048E+04  8.394272E+01 -9.998600E+01  3.617666E+04 -1.746919E-09  3.857787E-09
       107  14  8.093858E+04  7.875004E+01 -3.296607E+01  3.344858E+04  2.962315E-11  1.928260E-10
       107  15  8.093586E+04  9.003927E+01  2.557266E+01  3.617666E+04 -1.466109E-09 -2.694478E-10
       107  16 -2.141511E+05 -6.741286E+04 -4.247407E+04  3.586124E+04 -4.874063E-09  2.468200E-09
       107  17 -1.846256E+05 -6.067421E+04 -3.821273E+04  3.315843E+04 -2.143474E-10 -1.134300E-09
       107  18 -1.551104E+05 -5.391974E+04 -3.396270E+04  3.591192E+04  7.574810E-09 -6.382820E-10
       107  19  3.761002E+05  6.757736E+04  4.227382E+04  3.649230E+04  4.978878E+03  2.310534E+04
       107  20  3.465742E+05  6.082896E+04  3.814657E+04  3.373891E+04  4.969861E+03  2.076159E+04
       107  21  3.170385E+05  5.409764E+04  3.401366E+04  3.644156E+04  4.961215E+03  1.841582E+04
       107  22  8.093062E+04  8.451575E+01 -9.898321E+01  3.617666E+04  8.484674E+01  2.309988E+04
       107  23  8.093870E+04  7.921266E+01 -3.215647E+01  3.344858E+04  7.169095E+01  2.075573E+04
       107  24  8.093595E+04  9.040322E+01  2.620957E+01  3.617666E+04  5.890522E+01  1.840955E+04
       107  25 -2.141509E+05 -6.741228E+04 -4.247303E+04  3.586115E+04 -4.806958E+03  2.309441E+04
       107  26 -1.846255E+05 -6.067374E+04 -3.821188E+04  3.315835E+04 -4.824474E+03  2.074986E+04
       107  27 -1.551103E+05 -5.391937E+04 -3.396202E+04  3.591185E+04 -4.841620E+03  1.840329E+04
       108   1  2.985075E+05  4.983836E+04  3.126912E+04  3.642615E+04 -4.969938E+03 -1.704988E+04
       108   2  2.689839E+05  4.309441E+04  2.715708E+04  3.366839E+04 -5.036336E+03 -1.470398E+04
       108   3  2.394603E+05  3.638013E+04  2.309057E+04  3.636462E+04 -5.102989E+03 -1.235964E+04
       108   4  8.093988E+04  9.176818E+01  5.674174E+01  3.617620E+04 -6.798161E+01 -1.704342E+04
       108   5  8.094190E+04  8.890970E+01  1.343569E+02  3.344915E+04 -1.377383E+02 -1.469725E+04
       108   6  8.094365E+04  1.163175E+02  2.597744E+02  3.617617E+04 -2.077531E+02 -1.235263E+04
       108   7 -1.365798E+05 -4.965696E+04 -3.115626E+04  3.592633E+04  4.832330E+03 -1.703697E+04
       108   8 -1.070643E+05 -4.291819E+04 -2.688882E+04  3.322996E+04  4.759439E+03 -1.469052E+04
       108   9 -7.754760E+04 -3.614863E+04 -2.257132E+04  3.598777E+04  4.686287E+03 -1.234563E+04
       108  10  2.985074E+05  4.983804E+04  3.126852E+04  3.642608E+04 -5.929720E-10  3.410694E-09
       108  11  2.689838E+05  4.309417E+04  2.715662E+04  3.366833E+04 -1.818604E-09  1.847110E-09
       108  12  2.394602E+05  3.637995E+04  2.309023E+04  3.636457E+04 -3.168123E-09 -2.950016E-10
       108  13  8.093980E+04  9.145625E+01  5.619585E+01  3.617620E+04  2.523940E-09  6.168857E-10
       108  14  8.094185E+04  8.867773E+01  1.339509E+02  3.344914E+04  1.075643E-09  8.496131E-10
       108  15  8.094361E+04  1.161536E+02  2.594875E+02  3.617617E+04  1.283088E-09 -1.083615E-09
       108  16 -1.365799E+05 -4.965728E+04 -3.115685E+04  3.592639E+04  2.766973E-09  1.893369E-09
       108  17 -1.070644E+05 -4.291843E+04 -2.688927E+04  3.323001E+04  1.252330E-09 -4.517615E-09
       108  18 -7.754766E+04 -3.614879E+04 -2.257165E+04  3.598781E+04  1.501037E-09 -2.929018E-09
       108  19  2.985075E+05  4.983836E+04  3.126912E+04  3.642615E+04  4.969938E+03  1.704988E+04
       108  20  2.689839E+05  4.309441E+04  2.715708E+04  3.366839E+04  5.036336E+03  1.470398E+04
       108  21  2.394603E+05  3.638013E+04  2.309057E+04  3.636462E+04  5.102989E+03  1.235964E+04
       108  22  8.093988E+04  9.176818E+01  5.674174E+01  3.617620E+04  6.798161E+01  1.704342E+04
       108  23  8.094190E+04  8.890970E+01  1.343569E+02  3.344915E+04  1.377383E+02  1.469725E+04
       108  24  8.094365E+04  1.163175E+02  2.597744E+02  3.617617E+04  2.077531E+02  1.235263E+04
       108  25 -1.365798E+05 -4.965696E+04 -3.115626E+04  3.592633E+04 -4.832330E+03  1.703697E+04
       108  26 -1.070643E+05 -4.291819E+04 -2.688882E+04  3.322996E+04 -4.759439E+03  1.469052E+04
       108  27 -7.754760E+04 -3.614863E+04 -2.257132E+04  3.598777E+04 -4.686287E+03  1.234563E+04
       109   1  2.209470E+05  3.212474E+04  2.040344E+04  3.636504E+04 -5.156730E+03 -1.099518E+04
       109   2  1.913940E+05  2.545219E+04  1.648027E+04  3.349725E+04 -5.443339E+03 -8.659206E+03
       109   3  1.619114E+05  1.898439E+04  1.278911E+04  3.608110E+04 -5.730064E+03 -6.337819E+03
       109   4  8.096130E+04  1.213507E+02  3.490950E+02  3.617569E+04 -2.616783E+02 -1.098804E+04
       109   5  8.092517E+04  1.914486E+02  6.272942E+02  3.344959E+04 -5.788479E+02 -8.651954E+03
       109   6  8.096349E+04  4.715268E+02  1.158526E+03  3.617517E+04 -8.961446E+02 -6.330454E+03
       109   7 -5.900457E+04 -3.188292E+04 -1.970545E+04  3.598638E+04  4.632317E+03 -1.098091E+04
       109   8 -2.953125E+04 -2.506983E+04 -1.522578E+04  3.340194E+04  4.284815E+03 -8.644703E+03
       109   9  2.222060E+01 -1.804162E+04 -1.047207E+04  3.626923E+04  3.937172E+03 -6.323087E+03
       109  10  2.209469E+05  3.212460E+04  2.040316E+04  3.636499E+04 -6.587585E-08  1.859064E-10
       109  11  1.913939E+05  2.545210E+04  1.648008E+04  3.349721E+04  8.408271E-10 -3.011099E-09
       109  12  1.619114E+05  1.898434E+04  1.278897E+04  3.608107E+04  6.744885E-08  1.178013E-09
       109  13  8.096127E+04  1.212210E+02  3.488680E+02  3.617569E+04  2.533492E-09 -1.061018E-09
       109  14  8.092515E+04  1.913681E+02  6.271529E+02  3.344959E+04  1.040969E-09 -1.607536E-09
       109  15  8.096348E+04  4.714835E+02  1.158449E+03  3.617517E+04  2.362478E-09 -1.532843E-09
       109  16 -5.900462E+04 -3.188305E+04 -1.970572E+04  3.598642E+04  6.964154E-08 -1.640208E-09
       109  17 -2.953129E+04 -2.506992E+04 -1.522596E+04  3.340197E+04  1.147361E-10 -2.610719E-09
       109  18  2.219321E+01 -1.804167E+04 -1.047217E+04  3.626925E+04 -6.799416E-08 -4.706615E-09
       109  19  2.209470E+05  3.212474E+04  2.040344E+04  3.636504E+04  5.156730E+03  1.099518E+04
       109  20  1.913940E+05  2.545219E+04  1.648027E+04  3.349725E+04  5.443339E+03  8.659206E+03
       109  21  1.619114E+05  1.898439E+04  1.278911E+04  3.608110E+04  5.730064E+03  6.337819E+03
       109  22  8.096130E+04  1.213507E+02  3.490950E+02  3.617569E+04  2.616783E+02  1.098804E+04
       109  23  8.092517E+04  1.914486E+02  6.272942E+02  3.344959E+04  5.788479E+02  8.651954E+03
       109  24  8.096349E+04  4.715268E+02  1.158526E+03  3.617517E+04  8.961446E+02  6.330454E+03
       109  25 -5.900457E+04 -3.188292E+04 -1.970545E+04  3.598638E+04 -4.632317E+03  1.098091E+04
       109  26 -2.953125E+04 -2.506983E+04 -1.522578E+04  3.340194E+04 -4.284815E+03  8.644703E+03
       109  27  2.222060E+01 -1.804162E+04 -1.047207E+04  3.626923E+04 -3.937172E+03  6.323087E+03
       110   1  1.435374E+05  1.480795E+04  1.037917E+04  3.625976E+04 -5.932224E+03 -4.986367E+03
       110   2  1.136496E+05  9.211485E+03  7.368829E+03  3.173839E+04 -7.131913E+03 -2.735515E+03
       110   3  8.451692E+04  6.089970E+03  5.751945E+03  3.265773E+04 -8.331436E+03 -6.089543E+02
       110   4  8.112513E+04  5.599291E+02  1.543937E+03  3.617337E+04 -1.098017E+03 -4.978938E+03
       110   5  8.072560E+04  1.728780E+03  2.843568E+03  3.344935E+04 -2.557309E+03 -2.728459E+03
       110   6  8.112561E+04  5.417815E+03  5.716975E+03  3.616600E+04 -4.016486E+03 -6.022836E+02
       110   7  1.871690E+04 -1.368825E+04 -7.291258E+03  3.608699E+04  3.735724E+03 -4.971510E+03
       110   8  4.780271E+04 -5.753951E+03 -1.681625E+03  3.516022E+04  2.017064E+03 -2.721379E+03
       110   9  7.773438E+04  4.745715E+03  5.682081E+03  3.967425E+04  2.984429E+02 -5.955640E+02
       110  10  1.435373E+05  1.480791E+04  1.037905E+04  3.625973E+04  6.346802E-08  2.400533E-09
       110  11  1.136496E+05  9.211463E+03  7.368719E+03  3.173837E+04  4.760175E-10 -3.105808E-10
       110  12  8.451684E+04  6.089951E+03  5.751814E+03  3.265773E+04 -6.194713E-08 -3.299013E-10
       110  13  8.112512E+04  5.599022E+02  1.543888E+03  3.617337E+04  4.715595E-10  3.008843E-09
       110  14  8.072559E+04  1.728770E+03  2.843541E+03  3.344935E+04  3.212532E-09 -1.224749E-09
       110  15  8.112559E+04  5.417810E+03  5.716944E+03  3.616600E+04 -3.195145E-09  2.933884E-09
       110  16  1.871688E+04 -1.368828E+04 -7.291330E+03  3.608701E+04 -6.337913E-08  3.331388E-10
       110  17  4.780270E+04 -5.753960E+03 -1.681646E+03  3.516023E+04 -4.693755E-09  2.003972E-09
       110  18  7.773438E+04  4.745715E+03  5.682080E+03  3.967425E+04  6.015823E-08  8.820352E-10
       110  19  1.435374E+05  1.480795E+04  1.037917E+04  3.625976E+04  5.932224E+03  4.986367E+03
       110  20  1.136496E+05  9.211485E+03  7.368829E+03  3.173839E+04  7.131913E+03  2.735515E+03
       110  21  8.451692E+04  6.089970E+03  5.751945E+03  3.265773E+04  8.331436E+03  6.089543E+02
       110  22  8.112513E+04  5.599291E+02  1.543937E+03  3.617337E+04  1.098017E+03  4.978938E+03
       110  23  8.072560E+04  1.728780E+03  2.843568E+03  3.344935E+04  2.557309E+03  2.728459E+03
       110  24  8.112561E+04  5.417815E+03  5.716975E+03  3.616600E+04  4.016486E+03  6.022836E+02
       110  25  1.871690E+04 -1.368825E+04 -7.291258E+03  3.608699E+04 -3.735724E+03  4.971510E+03
       110  26  4.780271E+04 -5.753951E+03 -1.681625E+03  3.516022E+04 -2.017064E+03  2.721379E+03
       110  27  7.773438E+04  4.745715E+03  5.682081E+03  3.967425E+04 -2.984429E+02  5.955640E+02
       111   1  9.480940E+03  3.225279E+05  1.027559E+04 -2.227129E+04 -4.905716E+01  2.428062E+03
       111   2  1.893667E+02  3.002669E+05  3.272401E+03 -1.782699E+04 -6.151434E+02 -2.062862E+02
       111   3 -5.700999E+03  2.791910E+05 -1.167985E+03 -1.908095E+04 -1.807318E+03 -2.840926E+03
       111   4  4.709617E+03  3.034887E+05  5.472012E+03 -1.940834E+04 -4.926576E+01  2.794838E+03
       111   5  7.488272E+02  3.029747E+05  3.371924E+03 -1.656058E+04 -6.158996E+02  1.062399E+03
       111   6  3.283402E+01  3.034892E+05  3.208674E+03 -1.941105E+04 -1.808608E+03 -6.704066E+02
       111   7 -6.170312E+01  2.844498E+05  6.684144E+02 -1.654548E+04 -4.947097E+01  3.161603E+03
       111   8  1.308295E+03  3.056824E+05  3.471454E+03 -1.529417E+04 -6.166506E+02  2.331089E+03
       111   9  5.766637E+03  3.277880E+05  7.585329E+03 -1.974116E+04 -1.809900E+03  1.500196E+03
       111  10  9.480938E+03  3.225279E+05  1.027558E+04 -2.227129E+04 -1.217759E-09  8.637438E-09
       111  11  1.893663E+02  3.002669E+05  3.272400E+03 -1.782699E+04  2.800489E-09 -5.041355E-09
       111  12 -5.701005E+03  2.791910E+05 -1.168006E+03 -1.908096E+04 -6.516848E-10 -1.531906E-08
       111  13  4.709615E+03  3.034887E+05  5.471998E+03 -1.940834E+04  4.361662E-09 -5.899391E-10
       111  14  7.488265E+02  3.029747E+05  3.371921E+03 -1.656058E+04 -7.710371E-10 -1.371441E-09
       111  15  3.283038E+01  3.034892E+05  3.208667E+03 -1.941105E+04 -4.801441E-09 -1.159560E-10
       111  16 -6.170581E+01  2.844498E+05  6.683956E+02 -1.654548E+04  4.074213E-10 -8.001664E-09
       111  17  1.308293E+03  3.056824E+05  3.471443E+03 -1.529416E+04  2.432197E-09  3.113595E-09
       111  18  5.766633E+03  3.277880E+05  7.585318E+03 -1.974116E+04  1.743663E-09  1.563216E-08
       111  19  9.480940E+03  3.225279E+05  1.027559E+04 -2.227129E+04  4.905716E+01 -2.428062E+03
       111  20  1.893667E+02  3.002669E+05  3.272401E+03 -1.782699E+04  6.151434E+02  2.062862E+02
       111  21 -5.700999E+03  2.791910E+05 -1.167985E+03 -1.908095E+04  1.807318E+03  2.840926E+03
       111  22  4.709617E+03  3.034887E+05  5.472012E+03 -1.940834E+04  4.926576E+01 -2.794838E+03
       111  23  7.488272E+02  3.029747E+05  3.371924E+03 -1.656058E+04  6.158996E+02 -1.062399E+03
       111  24  3.283402E+01  3.034892E+05  3.208674E+03 -1.941105E+04  1.808608E+03  6.704066E+02
       111  25 -6.170312E+01  2.844498E+05  6.684144E+02 -1.654548E+04  4.947097E+01 -3.161603E+03
       111  26  1.308295E+03  3.056824E+05  3.471454E+03 -1.529417E+04  6.166506E+02 -2.331089E+03
       111  27  5.766637E+03  3.277880E+05  7.585329E+03 -1.974116E+04  1.809900E+03 -1.500196E+03
       112   1 -9.089903E+03  2.643948E+05 -3.670727E+03 -1.974580E+04 -2.705610E+03 -3.332689E+03
       112   2 -1.424639E+04  2.424369E+05 -6.322440E+03 -1.645800E+04 -4.058012E+03 -5.537042E+03
       112   3 -1.824250E+04  2.210492E+05 -7.251252E+03 -1.889422E+04 -5.199080E+03 -7.741145E+03
       112   4  1.497793E+02  3.033987E+05  3.538627E+03 -1.941644E+04 -2.706845E+03 -1.230647E+03
       112   5  1.500720E+02  3.030868E+05  5.027944E+03 -1.655410E+04 -4.059018E+03 -3.739661E+03
       112   6  1.363549E+03  3.033974E+05  8.451502E+03 -1.941573E+04 -5.199864E+03 -6.248500E+03
       112   7  9.389377E+03  3.424041E+05  1.074793E+04 -1.908706E+04 -2.708079E+03  8.715241E+02
       112   8  1.454633E+04  3.637402E+05  1.637818E+04 -1.665020E+04 -4.060024E+03 -1.942109E+03
       112   9  2.096921E+04  3.857521E+05  2.415396E+04 -1.993730E+04 -5.200651E+03 -4.755661E+03
       112  10 -9.089914E+03  2.643948E+05 -3.670762E+03 -1.974581E+04  1.778815E-10  2.037964E-08
       112  11 -1.424642E+04  2.424369E+05 -6.322528E+03 -1.645802E+04 -2.255212E-09  1.854024E-09
       112  12 -1.824255E+04  2.210491E+05 -7.251415E+03 -1.889426E+04  1.566390E-09 -1.377595E-08
       112  13  1.497711E+02  3.033987E+05  3.538610E+03 -1.941644E+04 -4.555649E-09 -6.478903E-10
       112  14  1.500505E+02  3.030868E+05  5.027887E+03 -1.655411E+04 -2.847729E-09 -1.326297E-09
       112  15  1.363510E+03  3.033973E+05  8.451378E+03 -1.941575E+04 -3.913711E-10 -1.093560E-10
       112  16  9.389369E+03  3.424041E+05  1.074792E+04 -1.908706E+04  6.115409E-09 -1.972456E-08
       112  17  1.454631E+04  3.637402E+05  1.637814E+04 -1.665021E+04  4.585613E-09 -3.693028E-09
       112  18  2.096917E+04  3.857520E+05  2.415386E+04 -1.993732E+04 -3.663546E-10  1.417138E-08
       112  19 -9.089903E+03  2.643948E+05 -3.670727E+03 -1.974580E+04  2.705610E+03  3.332689E+03
       112  20 -1.424639E+04  2.424369E+05 -6.322440E+03 -1.645800E+04  4.058012E+03  5.537042E+03
       112  21 -1.824250E+04  2.210492E+05 -7.251252E+03 -1.889422E+04  5.199080E+03  7.741145E+03
       112  22  1.497793E+02  3.033987E+05  3.538627E+03 -1.941644E+04  2.706845E+03  1.230647E+03
       112  23  1.500720E+02  3.030868E+05  5.027944E+03 -1.655410E+04  4.059018E+03  3.739661E+03
       112  24  1.363549E+03  3.033974E+05  8.451502E+03 -1.941573E+04  5.199864E+03  6.248500E+03
       112  25  9.389377E+03  3.424041E+05  1.074793E+04 -1.908706E+04  2.708079E+03 -8.715241E+02
       112  26  1.454633E+04  3.637402E+05  1.637818E+04 -1.665020E+04  4.060024E+03  1.942109E+03
       112  27  2.096921E+04  3.857521E+05  2.415396E+04 -1.993730E+04  5.200651E+03  4.755661E+03
       113   1 -2.313807E+04  2.076949E+05 -7.776191E+03 -2.251521E+04 -6.072580E+03 -9.817646E+03
       113   2 -2.291339E+04  1.828000E+05 -5.094611E+03 -7.751743E+03 -5.744057E+03 -1.455900E+04
       113   3  3.475391E+02  1.642778E+05  6.431736E+03  1.501416E+03 -1.811741E+03 -1.929833E+04
       113   4  5.975201E+00  3.048749E+05  1.081260E+04 -1.937141E+04 -6.073734E+03 -7.692995E+03
       113   5  5.620651E+03  3.012359E+05  1.911646E+04 -1.660726E+04 -5.742140E+03 -1.762667E+04
       113   6  3.516965E+04  3.048681E+05  3.986834E+04 -1.935291E+04 -1.806883E+03 -2.755850E+04
       113   7  2.314950E+04  4.020640E+05  2.940098E+04 -1.622711E+04 -6.074866E+03 -5.568021E+03
       113   8  3.415411E+04  4.196853E+05  4.332687E+04 -2.546449E+04 -5.740137E+03 -2.069491E+04
       113   9  6.999200E+04  4.454776E+05  7.330405E+04 -4.021197E+04 -1.801472E+03 -3.582052E+04
       113  10 -2.313814E+04  2.076948E+05 -7.776441E+03 -2.251526E+04  1.053799E-09  4.122337E-09
       113  11 -2.291348E+04  1.827998E+05 -5.095071E+03 -7.751811E+03  2.784642E-09 -1.842557E-09
       113  12  3.474356E+02  1.642774E+05  6.431030E+03  1.501388E+03 -7.173343E-10 -5.146420E-09
       113  13  5.919701E+00  3.048748E+05  1.081242E+04 -1.937145E+04  5.334963E-09 -5.911035E-10
       113  14  5.620532E+03  3.012356E+05  1.911582E+04 -1.660734E+04  3.397703E-09 -1.004889E-09
       113  15  3.516944E+04  3.048673E+05  3.986691E+04 -1.935295E+04 -1.715438E-09 -1.691740E-10
       113  16  2.314946E+04  4.020639E+05  2.940085E+04 -1.622714E+04 -9.723112E-10 -3.542875E-09
       113  17  3.415396E+04  4.196849E+05  4.332600E+04 -2.546458E+04  3.808319E-09  1.746906E-10
       113  18  6.999165E+04  4.454762E+05  7.330163E+04 -4.021203E+04  5.579994E-10  5.376480E-09
       113  19 -2.313807E+04  2.076949E+05 -7.776191E+03 -2.251521E+04  6.072580E+03  9.817646E+03
       113  20 -2.291339E+04  1.828000E+05 -5.094611E+03 -7.751743E+03  5.744057E+03  1.455900E+04
       113  21  3.475391E+02  1.642778E+05  6.431736E+03  1.501416E+03  1.811741E+03  1.929833E+04
       113  22  5.975201E+00  3.048749E+05  1.081260E+04 -1.937141E+04  6.073734E+03  7.692995E+03
       113  23  5.620651E+03  3.012359E+05  1.911646E+04 -1.660726E+04  5.742140E+03  1.762667E+04
       113  24  3.516965E+04  3.048681E+05  3.986834E+04 -1.935291E+04  1.806883E+03  2.755850E+04
       113  25  2.314950E+04  4.020640E+05  2.940098E+04 -1.622711E+04  6.074866E+03  5.568021E+03
       113  26  3.415411E+04  4.196853E+05  4.332687E+04 -2.546449E+04  5.740137E+03  2.069491E+04
       113  27  6.999200E+04  4.454776E+05  7.330405E+04 -4.021197E+04  1.801472E+03  3.582052E+04
       114   1  7.655596E+05  2.761337E+05  1.411024E+05  2.831596E+05  5.483214E+04  1.155595E+04
       114   2  7.255323E+05  2.509967E+05  1.005280E+05  2.707285E+05  3.554516E+04 -1.720409E+04
       114   3  6.862772E+05  2.369137E+05  8.110489E+04  2.635628E+05  1.137708E+04 -3.295867E+04
       114   4  2.215153E+05  7.115129E+04  2.556118E+03  1.327141E+05  4.642282E+03 -7.305143E+03
       114   5  2.235495E+05  6.719858E+04  1.209746E+03  1.304515E+05  1.110494E+04 -2.639275E+04
       114   6  2.212601E+05  6.920630E+04  6.334506E+02  1.334539E+05  1.268148E+04 -3.247120E+04
       114   7 -3.222117E+05 -1.338000E+05 -1.359970E+05 -1.760413E+04 -4.549738E+04 -2.614708E+04
       114   8 -2.781602E+05 -1.165721E+05 -9.811454E+04 -9.717086E+03 -1.331355E+04 -3.557317E+04
       114   9 -2.435269E+05 -9.847945E+04 -7.984400E+04  3.436181E+03  1.398484E+04 -3.198411E+04
       114  10  7.655564E+05  2.761328E+05  1.410965E+05  2.831591E+05 -1.692626E-09  5.540838E-10
       114  11  7.255309E+05  2.509961E+05  1.005251E+05  2.707290E+05 -7.620560E-09 -2.251871E-09
       114  12  6.862768E+05  2.369125E+05  8.110260E+04  2.635631E+05 -2.908501E-09 -2.578713E-09
       114  13  2.215153E+05  7.115122E+04  2.555978E+03  1.327141E+05 -1.758844E-09  1.445575E-11
       114  14  2.235491E+05  6.719780E+04  1.208205E+03  1.304517E+05 -4.847931E-09 -4.087995E-09
       114  15  2.212596E+05  6.920512E+04  6.311667E+02  1.334542E+05 -2.470324E-09 -1.217960E-09
       114  16 -3.222142E+05 -1.338013E+05 -1.360021E+05 -1.760509E+04 -4.486979E-09 -1.000138E-09
       114  17 -2.781607E+05 -1.165735E+05 -9.811725E+04 -9.717467E+03 -5.645784E-09 -4.519454E-09
       114  18 -2.435274E+05 -9.848060E+04 -7.984629E+04  3.436541E+03  1.219504E-09 -3.627515E-09
       114  19  7.655596E+05  2.761337E+05  1.411024E+05  2.831596E+05 -5.483214E+04 -1.155595E+04
       114  20  7.255323E+05  2.509967E+05  1.005280E+05  2.707285E+05 -3.554516E+04  1.720409E+04
       114  21  6.862772E+05  2.369137E+05  8.110489E+04  2.635628E+05 -1.137708E+04  3.295867E+04
       114  22  2.215153E+05  7.115129E+04  2.556118E+03  1.327141E+05 -4.642282E+03  7.305143E+03
       114  23  2.235495E+05  6.719858E+04  1.209746E+03  1.304515E+05 -1.110494E+04  2.639275E+04
       114  24  2.212601E+05  6.920630E+04  6.334506E+02  1.334539E+05 -1.268148E+04  3.247120E+04
       114  25 -3.222117E+05 -1.338000E+05 -1.359970E+05 -1.760413E+04  4.549738E+04  2.614708E+04
       114  26 -2.781602E+05 -1.165721E+05 -9.811454E+04 -9.717086E+03  1.331355E+04  3.557317E+04
       114  27 -2.435269E+05 -9.847945E+04 -7.984400E+04  3.436181E+03 -1.398484E+04  3.198411E+04
       115   1  6.602293E+05  2.275878E+05  7.496910E+04  2.567154E+05  1.178491E+04 -3.193339E+04
       115   2  6.233338E+05  2.099856E+05  6.521102E+04  2.426813E+05  8.631365E+03 -3.203860E+04
       115   3  5.815184E+05  1.985043E+05  5.768743E+04  2.349254E+05  4.969344E+03 -3.079289E+04
       115   4  2.210452E+05  6.933361E+04  4.722560E+02  1.336030E+05  1.232266E+04 -3.173393E+04
       115   5  2.237680E+05  6.648852E+04  2.461105E+02  1.304845E+05  1.184369E+04 -3.083294E+04
       115   6  2.210409E+05  6.923552E+04  1.372245E+02  1.336441E+05  1.085593E+04 -2.858056E+04
       115   7 -2.179392E+05 -8.890336E+04 -7.403122E+04  1.057047E+04  1.286001E+04 -3.153461E+04
       115   8 -1.756294E+05 -7.699307E+04 -6.472289E+04  1.835471E+04  1.505384E+04 -2.962809E+04
       115   9 -1.392972E+05 -6.001984E+04 -5.741540E+04  3.241785E+04  1.673889E+04 -2.636960E+04
       115  10  6.602288E+05  2.275867E+05  7.496692E+04  2.567157E+05 -1.510502E-10 -1.173130E-09
       115  11  6.233335E+05  2.099844E+05  6.520895E+04  2.426815E+05 -2.837322E-09 -8.237055E-10
       115  12  5.815181E+05  1.985033E+05  5.768560E+04  2.349255E+05  3.691023E-10  1.674659E-09
       115  13  2.210448E+05  6.933249E+04  4.700779E+02  1.336033E+05  4.186293E-10 -2.927294E-09
       115  14  2.237676E+05  6.648747E+04  2.440601E+02  1.304848E+05  1.202412E-10 -5.777084E-09
       115  15  2.210406E+05  6.923461E+04  1.354678E+02  1.336443E+05  3.958112E-09  6.086507E-10
       115  16 -2.179396E+05 -8.890447E+04 -7.403340E+04  1.057079E+04 -2.153263E-09 -3.361174E-09
       115  17 -1.756299E+05 -7.699407E+04 -6.472497E+04  1.835507E+04  5.627471E-09 -1.316383E-09
       115  18 -1.392977E+05 -6.002066E+04 -5.741723E+04  3.241820E+04  1.272679E-08  2.078064E-09
       115  19  6.602293E+05  2.275878E+05  7.496910E+04  2.567154E+05 -1.178491E+04  3.193339E+04
       115  20  6.233338E+05  2.099856E+05  6.521102E+04  2.426813E+05 -8.631365E+03  3.203860E+04
       115  21  5.815184E+05  1.985043E+05  5.768743E+04  2.349254E+05 -4.969344E+03  3.079289E+04
       115  22  2.210452E+05  6.933361E+04  4.722560E+02  1.336030E+05 -1.232266E+04  3.173393E+04
       115  23  2.237680E+05  6.648852E+04  2.461105E+02  1.304845E+05 -1.184369E+04  3.083294E+04
       115  24  2.210409E+05  6.923552E+04  1.372245E+02  1.336441E+05 -1.085593E+04  2.858056E+04
       115  25 -2.179392E+05 -8.890336E+04 -7.403122E+04  1.057047E+04 -1.286001E+04  3.153461E+04
       115  26 -1.756294E+05 -7.699307E+04 -6.472289E+04  1.835471E+04 -1.505384E+04  2.962809E+04
       115  27 -1.392972E+05 -6.001984E+04 -5.741540E+04  3.241785E+04 -1.673889E+04  2.636960E+04
       116   1  5.565366E+05  1.895376E+05  5.336593E+04  2.279630E+05  4.366372E+03 -2.899919E+04
       116   2  5.200218E+05  1.726430E+05  4.688319E+04  2.137603E+05  2.930041E+03 -2.611196E+04
       116   3  4.780025E+05  1.613842E+05  4.064596E+04  2.059198E+05  1.440611E+03 -2.308533E+04
       116   4  2.210216E+05  6.925386E+04  1.042713E+02  1.336560E+05  1.017151E+04 -2.681702E+04
       116   5  2.238084E+05  6.647052E+04  6.250486E+01  1.304745E+05  9.011138E+03 -2.382526E+04
       116   6  2.210337E+05  6.926852E+04  4.735581E+01  1.336549E+05  7.797620E+03 -2.069404E+04
       116   7 -1.143685E+05 -5.101669E+04 -5.315828E+04  3.939796E+04  1.597327E+04 -2.463612E+04
       116   8 -7.231057E+04 -3.969272E+04 -4.675961E+04  4.722605E+04  1.508917E+04 -2.153971E+04
       116   9 -3.586689E+04 -2.284133E+04 -4.055309E+04  6.141740E+04  1.415192E+04 -1.830377E+04
       116  10  5.565364E+05  1.895367E+05  5.336432E+04  2.279631E+05  1.017628E-08  6.814114E-09
       116  11  5.200216E+05  1.726422E+05  4.688189E+04  2.137604E+05  2.098417E-10  2.165925E-09
       116  12  4.780023E+05  1.613836E+05  4.064495E+04  2.059198E+05  4.195201E-10 -6.233024E-10
       116  13  2.210213E+05  6.925306E+04  1.027252E+02  1.336563E+05  6.172165E-09  2.914523E-09
       116  14  2.238082E+05  6.646989E+04  6.128539E+01  1.304747E+05 -1.637507E-09  6.046619E-10
       116  15  2.210336E+05  6.926804E+04  4.643667E+01  1.336551E+05  1.909368E-09  2.583935E-11
       116  16 -1.143690E+05 -5.101741E+04 -5.315990E+04  3.939827E+04 -1.029845E-09 -3.459908E-10
       116  17 -7.231094E+04 -3.969328E+04 -4.676091E+04  4.722631E+04  1.384727E-09  1.711888E-09
       116  18 -3.586719E+04 -2.284174E+04 -4.055410E+04  6.141761E+04 -9.380299E-10  1.647398E-09
       116  19  5.565366E+05  1.895376E+05  5.336593E+04  2.279630E+05 -4.366372E+03  2.899919E+04
       116  20  5.200218E+05  1.726430E+05  4.688319E+04  2.137603E+05 -2.930041E+03  2.611196E+04
       116  21  4.780025E+05  1.613842E+05  4.064596E+04  2.059198E+05 -1.440611E+03  2.308533E+04
       116  22  2.210216E+05  6.925386E+04  1.042713E+02  1.336560E+05 -1.017151E+04  2.681702E+04
       116  23  2.238084E+05  6.647052E+04  6.250486E+01  1.304745E+05 -9.011138E+03  2.382526E+04
       116  24  2.210337E+05  6.926852E+04  4.735581E+01  1.336549E+05 -7.797620E+03  2.069404E+04
       116  25 -1.143685E+05 -5.101669E+04 -5.315828E+04  3.939796E+04 -1.597327E+04  2.463612E+04
       116  26 -7.231057E+04 -3.969272E+04 -4.675961E+04  4.722605E+04 -1.508917E+04  2.153971E+04
       116  27 -3.586689E+04 -2.284133E+04 -4.055309E+04  6.141740E+04 -1.415192E+04  1.830377E+04
       117   1  4.531514E+05  1.524553E+05  3.653303E+04  1.989493E+05  7.377647E+02 -2.121117E+04
       117   2  4.167087E+05  1.356288E+05  3.042555E+04  1.847344E+05 -5.244555E+02 -1.801691E+04
       117   3  3.747004E+05  1.243866E+05  2.435941E+04  1.768841E+05 -1.792051E+03 -1.480948E+04
       117   4  2.210334E+05  6.927276E+04  4.523626E+01  1.336542E+05  7.085125E+03 -1.882314E+04
       117   5  2.238230E+05  6.648868E+04  5.399505E+01  1.304713E+05  5.848851E+03 -1.561862E+04
       117   6  2.210400E+05  6.928342E+04  8.325054E+01  1.336524E+05  4.607202E+03 -1.240095E+04
       117   7 -1.102641E+04 -1.390402E+04 -3.644331E+04  6.838207E+04  1.342997E+04 -1.643605E+04
       117   8  3.097859E+04 -2.647059E+03 -3.031771E+04  7.622449E+04  1.222003E+04 -1.322114E+04
       117   9  6.740689E+04  1.418346E+04 -2.419265E+04  9.043134E+04  1.100471E+04 -9.993073E+03
       117  10  4.531513E+05  1.524548E+05  3.653219E+04  1.989493E+05  5.002692E-10 -4.145604E-10
       117  11  4.167086E+05  1.356285E+05  3.042494E+04  1.847344E+05  3.492262E-09  1.553317E-09
       117  12  3.747003E+05  1.243863E+05  2.435899E+04  1.768840E+05  5.103470E-09 -1.808545E-09
       117  13  2.210333E+05  6.927237E+04  4.447601E+01  1.336543E+05 -2.680742E-09  6.753161E-10
       117  14  2.238229E+05  6.648841E+04  5.347228E+01  1.304714E+05  1.018250E-09 -5.470248E-11
       117  15  2.210399E+05  6.928324E+04  8.292162E+01  1.336525E+05 -1.666351E-09 -1.695144E-09
       117  16 -1.102668E+04 -1.390436E+04 -3.644415E+04  6.838225E+04 -4.568887E-09  9.926533E-10
       117  17  3.097838E+04 -2.647287E+03 -3.031832E+04  7.622462E+04 -5.285278E-09  3.980457E-10
       117  18  6.740674E+04  1.418332E+04 -2.419306E+04  9.043143E+04 -2.041672E-09 -1.721963E-09
       117  19  4.531514E+05  1.524553E+05  3.653303E+04  1.989493E+05 -7.377647E+02  2.121117E+04
       117  20  4.167087E+05  1.356288E+05  3.042555E+04  1.847344E+05  5.244555E+02  1.801691E+04
       117  21  3.747004E+05  1.243866E+05  2.435941E+04  1.768841E+05  1.792051E+03  1.480948E+04
       117  22  2.210334E+05  6.927276E+04  4.523626E+01  1.336542E+05 -7.085125E+03  1.882314E+04
       117  23  2.238230E+05  6.648868E+04  5.399505E+01  1.304713E+05 -5.848851E+03  1.561862E+04
       117  24  2.210400E+05  6.928342E+04  8.325054E+01  1.336524E+05 -4.607202E+03  1.240095E+04
       117  25 -1.102641E+04 -1.390402E+04 -3.644331E+04  6.838207E+04 -1.342997E+04  1.643605E+04
       117  26  3.097859E+04 -2.647059E+03 -3.031771E+04  7.622449E+04 -1.222003E+04  1.322114E+04
       117  27  6.740689E+04  1.418346E+04 -2.419265E+04  9.043134E+04 -1.100471E+04  9.993073E+03
       118   1  3.498753E+05  1.154607E+05  2.029061E+04  1.699163E+05 -2.515344E+03 -1.293213E+04
       118   2  3.134493E+05  9.863880E+04  1.428388E+04  1.557085E+05 -3.812704E+03 -9.732119E+03
       118   3  2.714582E+05  8.739752E+04  8.338000E+03  1.478649E+05 -5.107997E+03 -6.538121E+03
       118   4  2.210444E+05  6.928495E+04  1.072620E+02  1.336532E+05  3.882489E+03 -1.052392E+04
       118   5  2.238271E+05  6.649327E+04  1.875123E+02  1.304717E+05  2.573134E+03 -7.328174E+03
       118   6  2.210463E+05  6.928477E+04  3.382237E+02  1.336541E+05  1.265846E+03 -4.138456E+03
       118   7  9.222982E+04  2.311042E+04 -2.007662E+04  9.739675E+04  1.027899E+04 -8.116204E+03
       118   8  1.342131E+05  3.434842E+04 -1.390898E+04  1.052383E+05  8.958035E+03 -4.924582E+03
       118   9  1.706372E+05  5.117231E+04 -7.661432E+03  1.194445E+05  7.639144E+03 -1.738997E+03
       118  10  3.498753E+05  1.154605E+05  2.029029E+04  1.699163E+05 -2.696127E-09 -3.938387E-09
       118  11  3.134492E+05  9.863870E+04  1.428368E+04  1.557084E+05 -3.162665E-10 -5.035772E-11
       118  12  2.714581E+05  8.739747E+04  8.337871E+03  1.478648E+05  3.333719E-09 -2.221655E-09
       118  13  2.210443E+05  6.928482E+04  1.070255E+02  1.336532E+05 -2.044667E-09  1.492695E-09
       118  14  2.238270E+05  6.649321E+04  1.873989E+02  1.304717E+05 -1.390211E-09 -4.571550E-09
       118  15  2.210463E+05  6.928475E+04  3.381885E+02  1.336541E+05 -1.028465E-09  5.088416E-09
       118  16  9.222969E+04  2.311032E+04 -2.007695E+04  9.739682E+04  1.381496E-09  7.737800E-10
       118  17  1.342130E+05  3.434837E+04 -1.390918E+04  1.052383E+05 -2.148610E-09  2.149430E-09
       118  18  1.706372E+05  5.117229E+04 -7.661547E+03  1.194445E+05 -1.831485E-09 -2.124271E-09
       118  19  3.498753E+05  1.154607E+05  2.029061E+04  1.699163E+05  2.515344E+03  1.293213E+04
       118  20  3.134493E+05  9.863880E+04  1.428388E+04  1.557085E+05  3.812704E+03  9.732119E+03
       118  21  2.714582E+05  8.739752E+04  8.338000E+03  1.478649E+05  5.107997E+03  6.538121E+03
       118  22  2.210444E+05  6.928495E+04  1.072620E+02  1.336532E+05 -3.882489E+03  1.052392E+04
       118  23  2.238271E+05  6.649327E+04  1.875123E+02  1.304717E+05 -2.573134E+03  7.328174E+03
       118  24  2.210463E+05  6.928477E+04  3.382237E+02  1.336541E+05 -1.265846E+03  4.138456E+03
       118  25  9.222982E+04  2.311042E+04 -2.007662E+04  9.739675E+04 -1.027899E+04  8.116204E+03
       118  26  1.342131E+05  3.434842E+04 -1.390898E+04  1.052383E+05 -8.958035E+03  4.924582E+03
       118  27  1.706372E+05  5.117231E+04 -7.661432E+03  1.194445E+05 -7.639144E+03  1.738997E+03
       119   1  2.466435E+05  7.847712E+04  4.352286E+03  1.409135E+05 -5.883599E+03 -4.685647E+03
       119   2  2.102102E+05  6.164536E+04 -1.424921E+03  1.266952E+05 -7.356420E+03 -1.598589E+03
       119   3  1.682594E+05  5.044076E+04 -6.986431E+03  1.188329E+05 -8.803285E+03  1.419770E+03
       119   4  2.210600E+05  6.928252E+04  4.504812E+02  1.336592E+05  4.938975E+02 -2.284556E+03
       119   5  2.238114E+05  6.649414E+04  8.173982E+02  1.304669E+05 -1.115078E+03  7.511978E+02
       119   6  2.210704E+05  6.935954E+04  1.507631E+03  1.336299E+05 -2.698125E+03  3.718262E+03
       119   7  1.954775E+05  6.008814E+04 -3.451077E+03  1.264052E+05  6.871045E+03  1.164023E+02
       119   8  2.374129E+05  7.134296E+04  3.059880E+03  1.342387E+05  5.126409E+03  3.101039E+03
       119   9  2.738850E+05  8.827887E+04  1.000196E+04  1.484284E+05  3.407654E+03  6.016987E+03
       119  10  2.466435E+05  7.847709E+04  4.352180E+03  1.409135E+05 -2.427087E-09 -1.322764E-09
       119  11  2.102102E+05  6.164535E+04 -1.425027E+03  1.266952E+05  4.995349E-10 -9.999842E-10
       119  12  1.682593E+05  5.044074E+04 -6.986581E+03  1.188329E+05 -6.979998E-09 -1.647183E-09
       119  13  2.210600E+05  6.928251E+04  4.504709E+02  1.336592E+05  1.815127E-09 -2.169701E-10
       119  14  2.238114E+05  6.649414E+04  8.173948E+02  1.304669E+05 -2.693635E-09  1.107313E-09
       119  15  2.210703E+05  6.935953E+04  1.507591E+03  1.336299E+05 -3.607645E-09 -1.677537E-11
       119  16  1.954774E+05  6.008813E+04 -3.451165E+03  1.264052E+05  2.364290E-09  1.533305E-09
       119  17  2.374129E+05  7.134295E+04  3.059813E+03  1.342387E+05 -4.403774E-09  3.316777E-09
       119  18  2.738850E+05  8.827883E+04  1.000187E+04  1.484283E+05 -2.587210E-09  2.939156E-09
       119  19  2.466435E+05  7.847712E+04  4.352286E+03  1.409135E+05  5.883599E+03  4.685647E+03
       119  20  2.102102E+05  6.164536E+04 -1.424921E+03  1.266952E+05  7.356420E+03  1.598589E+03
       119  21  1.682594E+05  5.044076E+04 -6.986431E+03  1.188329E+05  8.803285E+03 -1.419770E+03
       119  22  2.210600E+05  6.928252E+04  4.504812E+02  1.336592E+05 -4.938975E+02  2.284556E+03
       119  23  2.238114E+05  6.649414E+04  8.173982E+02  1.304669E+05  1.115078E+03 -7.511978E+02
       119  24  2.210704E+05  6.935954E+04  1.507631E+03  1.336299E+05  2.698125E+03 -3.718262E+03
       119  25  1.954775E+05  6.008814E+04 -3.451077E+03  1.264052E+05 -6.871045E+03 -1.164023E+02
       119  26  2.374129E+05  7.134296E+04  3.059880E+03  1.342387E+05 -5.126409E+03 -3.101039E+03
       119  27  2.738850E+05  8.827887E+04  1.000196E+04  1.484284E+05 -3.407654E+03 -6.016987E+03
       120   1  1.434130E+05  4.159020E+04 -1.066271E+04  1.120003E+05 -9.803748E+03  3.129297E+03
       120   2  1.072985E+05  2.461734E+04 -1.568940E+04  9.715975E+04 -1.141234E+04  5.692528E+03
       120   3  6.605916E+04  1.408858E+04 -2.005033E+04  8.842272E+04 -1.277148E+04  7.593796E+03
       120   4  2.211767E+05  6.936707E+04  2.015030E+03  1.336584E+05 -3.659508E+03  5.442417E+03
       120   5  2.237388E+05  6.693321E+04  3.715321E+03  1.302610E+05 -6.578016E+03  7.512231E+03
       120   6  2.214337E+05  7.120242E+04  7.118842E+03  1.329662E+05 -9.247125E+03  8.920141E+03
       120   7  2.989469E+05  9.714456E+04  1.469279E+04  1.553191E+05  2.485546E+03  7.755838E+03
       120   8  3.401930E+05  1.092503E+05  2.311961E+04  1.633678E+05 -1.742760E+03  9.332293E+03
       120   9  3.768321E+05  1.283182E+05  3.428682E+04  1.775196E+05 -5.721873E+03  1.024684E+04
       120  10  1.434129E+05  4.159017E+04 -1.066291E+04  1.120003E+05 -6.474209E-08 -2.555354E-08
       120  11  1.072983E+05  2.461727E+04 -1.568970E+04  9.715981E+04 -9.255434E-09  8.963628E-10
       120  12  6.605897E+04  1.408848E+04 -2.005075E+04  8.842280E+04  5.468918E-08  2.314617E-08
       120  13  2.211767E+05  6.936704E+04  2.014949E+03  1.336584E+05 -8.256162E-09 -3.480872E-10
       120  14  2.237388E+05  6.693314E+04  3.715134E+03  1.302610E+05 -2.755095E-09  3.330155E-11
       120  15  2.214336E+05  7.120231E+04  7.118531E+03  1.329662E+05  1.341136E-10 -3.413862E-09
       120  16  2.989469E+05  9.714449E+04  1.469266E+04  1.553191E+05  5.554054E-08  2.421261E-08
       120  17  3.401930E+05  1.092502E+05  2.311944E+04  1.633678E+05 -1.099412E-09 -2.207505E-09
       120  18  3.768320E+05  1.283180E+05  3.428656E+04  1.775196E+05 -6.318279E-08 -2.720123E-08
       120  19  1.434130E+05  4.159020E+04 -1.066271E+04  1.120003E+05  9.803748E+03 -3.129297E+03
       120  20  1.072985E+05  2.461734E+04 -1.568940E+04  9.715975E+04  1.141234E+04 -5.692528E+03
       120  21  6.605916E+04  1.408858E+04 -2.005033E+04  8.842272E+04  1.277148E+04 -7.593796E+03
       120  22  2.211767E+05  6.936707E+04  2.015030E+03  1.336584E+05  3.659508E+03 -5.442417E+03
       120  23  2.237388E+05  6.693321E+04  3.715321E+03  1.302610E+05  6.578016E+03 -7.512231E+03
       120  24  2.214337E+05  7.120242E+04  7.118842E+03  1.329662E+05  9.247125E+03 -8.920141E+03
       120  25  2.989469E+05  9.714456E+04  1.469279E+04  1.553191E+05 -2.485546E+03 -7.755838E+03
       120  26  3.401930E+05  1.092503E+05  2.311961E+04  1.633678E+05  1.742760E+03 -9.332293E+03
       120  27  3.768321E+05  1.283182E+05  3.428682E+04  1.775196E+05  5.721873E+03 -1.024684E+04
       121   1  4.084165E+04  6.343425E+03 -2.262628E+04  8.289988E+04 -1.472271E+04  8.382427E+03
       121   2  1.140145E+04 -1.258978E+04 -2.618346E+04  5.710852E+04 -1.115299E+04  8.342252E+03
       121   3 -1.831878E+04 -1.226925E+04 -2.816670E+04  3.327007E+04 -5.187048E+03  1.932577E+03
       121   4  2.225790E+05  7.154224E+04  9.550277E+03  1.331727E+05 -1.082422E+04  9.849470E+03
       121   5  2.235390E+05  7.528338E+04  1.831793E+04  1.266943E+05 -1.985202E+04  5.067625E+03
       121   6  2.267113E+05  1.007699E+05  3.863925E+04  1.221694E+05 -2.648433E+04 -6.082470E+03
       121   7  4.043543E+05  1.367453E+05  4.172669E+04  1.834601E+05 -6.924452E+03  1.131699E+04
       121   8  4.357230E+05  1.631639E+05  6.281711E+04  1.963033E+05 -2.855421E+04  1.791445E+03
       121   9  4.717968E+05  2.138203E+05  1.054402E+05  2.111017E+05 -4.779029E+04 -1.410261E+04
       121  10  4.084139E+04  6.343291E+03 -2.262682E+04  8.289998E+04 -8.135067E-09  2.424878E-09
       121  11  1.140130E+04 -1.258989E+04 -2.618382E+04  5.710860E+04  1.530342E-09  2.745303E-09
       121  12 -1.831881E+04 -1.226926E+04 -2.816676E+04  3.327008E+04  4.115949E-09  6.876074E-10
       121  13  2.225788E+05  7.154211E+04  9.549874E+03  1.331728E+05  5.422743E-09  1.678658E-09
       121  14  2.235386E+05  7.528324E+04  1.831714E+04  1.266944E+05  8.269641E-09  9.389931E-10
       121  15  2.267106E+05  1.007697E+05  3.863787E+04  1.221692E+05  1.613991E-09  2.275643E-09
       121  16  4.043542E+05  1.367451E+05  4.172636E+04  1.834601E+05  2.369875E-09 -4.441460E-09
       121  17  4.357221E+05  1.631637E+05  6.281557E+04  1.963033E+05  2.257765E-09  3.995669E-10
       121  18  4.717943E+05  2.138194E+05  1.054355E+05  2.111012E+05 -1.607617E-09 -3.992699E-10
       121  19  4.084165E+04  6.343425E+03 -2.262628E+04  8.289988E+04  1.472271E+04 -8.382427E+03
       121  20  1.140145E+04 -1.258978E+04 -2.618346E+04  5.710852E+04  1.115299E+04 -8.342252E+03
       121  21 -1.831878E+04 -1.226925E+04 -2.816670E+04  3.327007E+04  5.187048E+03 -1.932577E+03
       121  22  2.225790E+05  7.154224E+04  9.550277E+03  1.331727E+05  1.082422E+04 -9.849470E+03
       121  23  2.235390E+05  7.528338E+04  1.831793E+04  1.266943E+05  1.985202E+04 -5.067625E+03
       121  24  2.267113E+05  1.007699E+05  3.863925E+04  1.221694E+05  2.648433E+04  6.082470E+03
       121  25  4.043543E+05  1.367453E+05  4.172669E+04  1.834601E+05  6.924452E+03 -1.131699E+04
       121  26  4.357230E+05  1.631639E+05  6.281711E+04  1.963033E+05  2.855421E+04 -1.791445E+03
       121  27  4.717968E+05  2.138203E+05  1.054402E+05  2.111017E+05  4.779029E+04  1.410261E+04
       122   1 -1.929708E+05 -9.739069E+05 -2.255407E+05  5.348782E+04 -2.243503E+03 -9.756985E+04
       122   2 -4.620840E+04 -9.034288E+05 -1.328333E+05  7.697953E+03 -6.471911E+03 -5.991720E+04
       122   3 -5.336383E+04 -8.760091E+05 -1.030808E+05  1.638420E+04 -4.505567E+03 -2.225400E+04
       122   4 -1.121241E+05 -6.507609E+05 -1.451773E+05  2.795156E+04 -2.242757E+03 -9.515893E+04
       122   5  2.208978E+04 -6.294035E+05 -6.569252E+04  7.902602E+02 -6.471478E+03 -5.956912E+04
       122   6  2.780652E+03 -6.507274E+05 -4.770606E+04  2.810595E+04 -4.504385E+03 -2.397186E+04
       122   7 -3.128276E+04 -3.275187E+05 -6.482139E+04  2.402003E+03 -2.242211E+03 -9.274674E+04
       122   8  9.038257E+04 -3.553096E+05  1.442731E+03 -6.120472E+03 -6.471053E+03 -5.922088E+04
       122   9  5.892188E+04 -4.253990E+05  7.664993E+03  3.983197E+04 -4.503269E+03 -2.569034E+04
       122  10 -1.929734E+05 -9.739171E+05 -2.255586E+05  5.348765E+04  6.627771E-10  6.247857E-10
       122  11 -4.620941E+04 -9.034326E+05 -1.328401E+05  7.697641E+03 -8.601979E-10 -2.030234E-09
       122  12 -5.336398E+04 -8.760097E+05 -1.030817E+05  1.638412E+04 -3.404382E-10 -1.194061E-09
       122  13 -1.121265E+05 -6.507707E+05 -1.451944E+05  2.795139E+04 -1.187389E-09 -4.711598E-10
       122  14  2.208878E+04 -6.294073E+05 -6.569928E+04  7.899496E+02  7.332888E-11  1.234539E-09
       122  15  2.780475E+03 -6.507280E+05 -4.770717E+04  2.810586E+04  1.175165E-10  1.172485E-09
       122  16 -3.128508E+04 -3.275279E+05 -6.483758E+04  2.401836E+03  2.831164E-09  8.979464E-10
       122  17  9.038158E+04 -3.553134E+05  1.436058E+03 -6.120781E+03  4.403828E-09 -8.033135E-11
       122  18  5.892168E+04 -4.253997E+05  7.663714E+03  3.983188E+04 -9.844919E-10  1.474019E-09
       122  19 -1.929708E+05 -9.739069E+05 -2.255407E+05  5.348782E+04  2.243503E+03  9.756985E+04
       122  20 -4.620840E+04 -9.034288E+05 -1.328333E+05  7.697953E+03  6.471911E+03  5.991720E+04
       122  21 -5.336383E+04 -8.760091E+05 -1.030808E+05  1.638420E+04  4.505567E+03  2.225400E+04
       122  22 -1.121241E+05 -6.507609E+05 -1.451773E+05  2.795156E+04  2.242757E+03  9.515893E+04
       122  23  2.208978E+04 -6.294035E+05 -6.569252E+04  7.902602E+02  6.471478E+03  5.956912E+04
       122  24  2.780652E+03 -6.507274E+05 -4.770606E+04  2.810595E+04  4.504385E+03  2.397186E+04
       122  25 -3.128276E+04 -3.275187E+05 -6.482139E+04  2.402003E+03  2.242211E+03  9.274674E+04
       122  26  9.038257E+04 -3.553096E+05  1.442731E+03 -6.120472E+03  6.471053E+03  5.922088E+04
       122  27  5.892188E+04 -4.253990E+05  7.664993E+03  3.983197E+04  4.503269E+03  2.569034E+04
       123   1 -4.174242E+04 -7.553347E+05 -7.024744E+04  3.308447E+04 -2.476243E+03 -1.561226E+04
       123   2 -9.435644E+03 -6.994080E+05 -4.822706E+04  4.817205E+02 -1.348315E+03  1.651446E+03
       123   3 -1.807985E+04 -6.558530E+05 -4.766921E+04  2.348969E+04  6.241934E+00  1.891644E+04
       123   4 -1.398261E+04 -6.439853E+05 -4.293016E+04  2.830677E+04 -2.475823E+03 -1.595909E+04
       123   5  5.917393E+03 -6.378057E+05 -3.310945E+04  5.016256E+02 -1.347990E+03  1.230588E+03
       123   6 -1.511833E+04 -6.439858E+05 -4.469780E+04  2.830725E+04  6.723778E+00  1.842018E+04
       123   7  1.377636E+04 -5.326246E+05 -1.561378E+04  2.352821E+04 -2.475398E+03 -1.630599E+04
       123   8  2.127015E+04 -5.761998E+05 -1.799212E+04  5.215334E+02 -1.347664E+03  8.096884E+02
       123   9 -1.215673E+04 -6.321184E+05 -4.172638E+04  3.312489E+04  7.197908E+00  1.792392E+04
       123  10 -4.174249E+04 -7.553350E+05 -7.024791E+04  3.308444E+04  1.283747E-10  1.502196E-09
       123  11 -9.435647E+03 -6.994081E+05 -4.822706E+04  4.817223E+02 -1.524917E-09 -9.553630E-10
       123  12 -1.807994E+04 -6.558534E+05 -4.766989E+04  2.348969E+04  4.729722E-09 -1.772169E-09
       123  13 -1.398269E+04 -6.439856E+05 -4.293065E+04  2.830674E+04 -8.043586E-10 -1.073145E-09
       123  14  5.917391E+03 -6.378057E+05 -3.310945E+04  5.016270E+02 -6.429588E-09 -4.259299E-10
       123  15 -1.511842E+04 -6.439861E+05 -4.469844E+04  2.830725E+04  2.064980E-09  6.489695E-10
       123  16  1.377628E+04 -5.326249E+05 -1.561430E+04  2.352818E+04 -1.883509E-09 -6.885865E-10
       123  17  2.127015E+04 -5.761998E+05 -1.799212E+04  5.215343E+02 -1.351911E-09  3.317543E-11
       123  18 -1.215682E+04 -6.321187E+05 -4.172698E+04  3.312489E+04  1.908376E-09  1.872746E-09
       123  19 -4.174242E+04 -7.553347E+05 -7.024744E+04  3.308447E+04  2.476243E+03  1.561226E+04
       123  20 -9.435644E+03 -6.994080E+05 -4.822706E+04  4.817205E+02  1.348315E+03 -1.651446E+03
       123  21 -1.807985E+04 -6.558530E+05 -4.766921E+04  2.348969E+04 -6.241934E+00 -1.891644E+04
       123  22 -1.398261E+04 -6.439853E+05 -4.293016E+04  2.830677E+04  2.475823E+03  1.595909E+04
       123  23  5.917393E+03 -6.378057E+05 -3.310945E+04  5.016256E+02  1.347990E+03 -1.230588E+03
       123  24 -1.511833E+04 -6.439858E+05 -4.469780E+04  2.830725E+04 -6.723778E+00 -1.842018E+04
       123  25  1.377636E+04 -5.326246E+05 -1.561378E+04  2.352821E+04  2.475398E+03  1.630599E+04
       123  26  2.127015E+04 -5.761998E+05 -1.799212E+04  5.215334E+02  1.347664E+03 -8.096884E+02
       123  27 -1.215673E+04 -6.321184E+05 -4.172638E+04  3.312489E+04 -7.197908E+00 -1.792392E+04
       124   1  2.890043E+04 -5.486976E+05 -2.488061E+04  4.092569E+04  1.779959E+03  2.815123E+04
       124   2  6.164040E+04 -4.763223E+05 -3.290283E+04 -6.690841E+03  3.652675E+03  6.479106E+04
       124   3 -7.012200E+04 -4.496669E+05 -1.058742E+05  8.997668E+02  1.340221E+03  1.014303E+05
       124   4  3.295968E+03 -6.514512E+05 -5.018841E+04  2.825887E+04  1.780340E+03  2.680669E+04
       124   5  2.372509E+04 -6.284795E+05 -7.015806E+04  5.944124E+02  3.653439E+03  6.484283E+04
       124   6 -1.206145E+05 -6.514872E+05 -1.560603E+05  2.813853E+04  1.343274E+03  1.028754E+05
       124   7 -2.230867E+04 -7.541949E+05 -7.549689E+04  1.559415E+04  1.780776E+03  2.546236E+04
       124   8 -1.419174E+04 -7.806154E+05 -1.074150E+05  7.877880E+03  3.654206E+03  6.489459E+04
       124   9 -1.711073E+05 -8.532689E+05 -2.062491E+05  5.536844E+04  1.346455E+03  1.043200E+05
       124  10  2.890021E+04 -5.486984E+05 -2.488211E+04  4.092565E+04  3.606864E-09 -1.150373E-09
       124  11  6.163926E+04 -4.763269E+05 -3.291075E+04 -6.691032E+03 -1.189921E-09 -2.737343E-10
       124  12 -7.012477E+04 -4.496779E+05 -1.058935E+05  8.996573E+02 -1.271143E-09  6.695892E-10
       124  13  3.295771E+03 -6.514520E+05 -5.018977E+04  2.825883E+04  2.354277E-09  5.868332E-11
       124  14  2.372394E+04 -6.284840E+05 -7.016599E+04  5.942216E+02 -8.836324E-10  1.225212E-09
       124  15 -1.206174E+05 -6.514986E+05 -1.560802E+05  2.813842E+04 -1.206699E-09  3.134262E-10
       124  16 -2.230885E+04 -7.541956E+05 -7.549811E+04  1.559412E+04  1.290795E-09  1.990192E-09
       124  17 -1.419289E+04 -7.806200E+05 -1.074229E+05  7.877689E+03 -3.625346E-09 -1.249091E-09
       124  18 -1.711103E+05 -8.532806E+05 -2.062696E+05  5.536832E+04 -1.239777E-09 -1.414426E-09
       124  19  2.890043E+04 -5.486976E+05 -2.488061E+04  4.092569E+04 -1.779959E+03 -2.815123E+04
       124  20  6.164040E+04 -4.763223E+05 -3.290283E+04 -6.690841E+03 -3.652675E+03 -6.479106E+04
       124  21 -7.012200E+04 -4.496669E+05 -1.058742E+05  8.997668E+02 -1.340221E+03 -1.014303E+05
       124  22  3.295968E+03 -6.514512E+05 -5.018841E+04  2.825887E+04 -1.780340E+03 -2.680669E+04
       124  23  2.372509E+04 -6.284795E+05 -7.015806E+04  5.944124E+02 -3.653439E+03 -6.484283E+04
       124  24 -1.206145E+05 -6.514872E+05 -1.560603E+05  2.813853E+04 -1.343274E+03 -1.028754E+05
       124  25 -2.230867E+04 -7.541949E+05 -7.549689E+04  1.559415E+04 -1.780776E+03 -2.546236E+04
       124  26 -1.419174E+04 -7.806154E+05 -1.074150E+05  7.877880E+03 -3.654206E+03 -6.489459E+04
       124  27 -1.711073E+05 -8.532689E+05 -2.062491E+05  5.536844E+04 -1.346455E+03 -1.043200E+05
       125   1  3.212578E+05  1.077252E+05  6.720273E+04  1.181046E+05  3.566731E+04  1.287906E+04
       125   2  3.093882E+05  5.187935E+04  3.302951E+04  1.202932E+05  2.290731E+04  7.032720E+03
       125   3  3.137067E+05  4.881857E+04  2.199389E+04  1.143190E+05  9.696798E+03  2.382717E+03
       125   4  2.841502E+05  8.102211E+04  5.462525E+04  9.496478E+04  3.488633E+04  1.258392E+04
       125   5  2.732696E+05  3.460664E+04  2.287042E+04  1.066141E+05  2.274541E+04  6.971551E+03
       125   6  2.784554E+05  4.085496E+04  1.376388E+04  1.101002E+05  1.015386E+04  2.555028E+03
       125   7  2.470448E+05  5.432084E+04  4.204780E+04  7.182681E+04  3.410540E+04  1.228885E+04
       125   8  2.371523E+05  1.733430E+04  1.271123E+04  9.293578E+04  2.258353E+04  6.910388E+03
       125   9  2.432053E+05  3.289129E+04  5.533759E+03  1.058815E+05  1.061090E+04  2.727339E+03
       125  10  3.212564E+05  1.077247E+05  6.720003E+04  1.181042E+05 -6.497521E-09 -1.746105E-09
       125  11  3.093877E+05  5.187915E+04  3.302843E+04  1.202931E+05 -3.913146E-09  2.014261E-09
       125  12  3.137066E+05  4.881854E+04  2.199370E+04  1.143189E+05  6.279689E-09  2.870385E-09
       125  13  2.841489E+05  8.102161E+04  5.462267E+04  9.496443E+04 -1.363334E-09 -1.330776E-09
       125  14  2.732690E+05  3.460644E+04  2.286935E+04  1.066140E+05 -1.133051E-08 -2.244602E-09
       125  15  2.784553E+05  4.085493E+04  1.376367E+04  1.101002E+05 -2.978679E-09 -1.021674E-09
       125  16  2.470435E+05  5.432037E+04  4.204534E+04  7.182647E+04  3.721029E-09  1.492870E-09
       125  17  2.371518E+05  1.733412E+04  1.271019E+04  9.293566E+04 -8.974993E-09  3.468632E-09
       125  18  2.432051E+05  3.289125E+04  5.533533E+03  1.058815E+05 -8.992210E-09 -3.806156E-09
       125  19  3.212578E+05  1.077252E+05  6.720273E+04  1.181046E+05 -3.566731E+04 -1.287906E+04
       125  20  3.093882E+05  5.187935E+04  3.302951E+04  1.202932E+05 -2.290731E+04 -7.032720E+03
       125  21  3.137067E+05  4.881857E+04  2.199389E+04  1.143190E+05 -9.696798E+03 -2.382717E+03
       125  22  2.841502E+05  8.102211E+04  5.462525E+04  9.496478E+04 -3.488633E+04 -1.258392E+04
       125  23  2.732696E+05  3.460664E+04  2.287042E+04  1.066141E+05 -2.274541E+04 -6.971551E+03
       125  24  2.784554E+05  4.085496E+04  1.376388E+04  1.101002E+05 -1.015386E+04 -2.555028E+03
       125  25  2.470448E+05  5.432084E+04  4.204780E+04  7.182681E+04 -3.410540E+04 -1.228885E+04
       125  26  2.371523E+05  1.733430E+04  1.271123E+04  9.293578E+04 -2.258353E+04 -6.910388E+03
       125  27  2.432053E+05  3.289129E+04  5.533759E+03  1.058815E+05 -1.061090E+04 -2.727339E+03
       126   1  2.975046E+05  5.542054E+04  1.686311E+04  1.138083E+05  7.977329E+03  2.149380E+03
       126   2  2.912704E+05  4.541632E+04  9.144228E+03  1.102164E+05  5.038463E+03  1.320935E+03
       126   3  2.833940E+05  4.443625E+04  4.931598E+03  1.098529E+05  2.066994E+03  5.791940E+02
       126   4  2.766808E+05  4.639992E+04  1.117253E+04  1.068876E+05  8.081049E+03  2.188441E+03
       126   5  2.772131E+05  3.982348E+04  5.401818E+03  1.060531E+05  5.187090E+03  1.376935E+03
       126   6  2.760943E+05  4.226235E+04  3.101879E+03  1.084470E+05  2.260498E+03  6.521115E+02
       126   7  2.558574E+05  3.737937E+04  5.481908E+03  9.996706E+04  8.184765E+03  2.227500E+03
       126   8  2.631560E+05  3.423067E+04  1.659397E+03  1.018899E+05  5.335713E+03  1.432932E+03
       126   9  2.687946E+05  4.008845E+04  1.272163E+03  1.070412E+05  2.453998E+03  7.250283E+02
       126  10  2.975045E+05  5.542052E+04  1.686298E+04  1.138083E+05  4.102067E-09  8.415134E-11
       126  11  2.912704E+05  4.541631E+04  9.144177E+03  1.102164E+05 -2.087741E-09  3.571694E-10
       126  12  2.833940E+05  4.443625E+04  4.931590E+03  1.098529E+05 -1.406582E-09  1.372380E-09
       126  13  2.766807E+05  4.639990E+04  1.117240E+04  1.068876E+05  1.739921E-09  5.862395E-11
       126  14  2.772131E+05  3.982347E+04  5.401764E+03  1.060531E+05  9.497459E-10 -6.789666E-09
       126  15  2.760943E+05  4.226235E+04  3.101869E+03  1.084470E+05 -1.194254E-09  4.805521E-09
       126  16  2.558573E+05  3.737935E+04  5.481773E+03  9.996704E+04 -5.012786E-10 -4.994461E-09
       126  17  2.631559E+05  3.423066E+04  1.659340E+03  1.018899E+05  1.974941E-09  1.365277E-10
       126  18  2.687946E+05  4.008845E+04  1.272150E+03  1.070412E+05 -1.259681E-09  2.837692E-09
       126  19  2.975046E+05  5.542054E+04  1.686311E+04  1.138083E+05 -7.977329E+03 -2.149380E+03
       126  20  2.912704E+05  4.541632E+04  9.144228E+03  1.102164E+05 -5.038463E+03 -1.320935E+03
       126  21  2.833940E+05  4.443625E+04  4.931598E+03  1.098529E+05 -2.066994E+03 -5.791940E+02
       126  22  2.766808E+05  4.639992E+04  1.117253E+04  1.068876E+05 -8.081049E+03 -2.188441E+03
       126  23  2.772131E+05  3.982348E+04  5.401818E+03  1.060531E+05 -5.187090E+03 -1.376935E+03
       126  24  2.760943E+05  4.226235E+04  3.101879E+03  1.084470E+05 -2.260498E+03 -6.521115E+02
       126  25  2.558574E+05  3.737937E+04  5.481908E+03  9.996706E+04 -8.184765E+03 -2.227500E+03
       126  26  2.631560E+05  3.423067E+04  1.659397E+03  1.018899E+05 -5.335713E+03 -1.432932E+03
       126  27  2.687946E+05  4.008845E+04  1.272163E+03  1.070412E+05 -2.453998E+03 -7.250283E+02
       127   1  2.729991E+05  4.182707E+04  1.654568E+03  1.074149E+05  1.569764E+03  6.279580E+02
       127   2  2.674493E+05  3.655308E+04 -1.407092E+03  1.032219E+05  7.998548E+02  7.122560E+02
       127   3  2.582578E+05  3.573596E+04 -3.844855E+03  1.033854E+05  2.749181E+01  8.030862E+02
       127   4  2.758748E+05  4.282050E+04  2.416402E+03  1.081056E+05  1.737608E+03  6.912042E+02
       127   5  2.776662E+05  4.038289E+04  1.268826E+03  1.060063E+05  9.710742E+02  7.767726E+02
       127   6  2.758154E+05  4.240154E+04  7.425225E+02  1.082635E+05  2.020795E+02  8.688702E+02
       127   7  2.787504E+05  4.381393E+04  3.178238E+03  1.087963E+05  1.905453E+03  7.544508E+02
       127   8  2.878833E+05  4.421271E+04  3.944741E+03  1.087908E+05  1.142297E+03  8.412905E+02
       127   9  2.933733E+05  4.906713E+04  5.329874E+03  1.131417E+05  3.766727E+02  9.346564E+02
       127  10  2.729991E+05  4.182707E+04  1.654562E+03  1.074149E+05  5.942908E-09 -1.029820E-09
       127  11  2.674493E+05  3.655308E+04 -1.407095E+03  1.032219E+05 -4.454203E-10 -6.250670E-09
       127  12  2.582578E+05  3.573596E+04 -3.844856E+03  1.033854E+05 -3.156487E-09 -9.192640E-10
       127  13  2.758748E+05  4.282050E+04  2.416396E+03  1.081056E+05  1.294836E-09  2.290083E-09
       127  14  2.776662E+05  4.038289E+04  1.268823E+03  1.060063E+05  4.816265E-09 -3.751661E-09
       127  15  2.758154E+05  4.240154E+04  7.425210E+02  1.082635E+05  4.198084E-09  2.444361E-09
       127  16  2.787504E+05  4.381393E+04  3.178230E+03  1.087963E+05 -4.209075E-09  3.250957E-09
       127  17  2.878833E+05  4.421271E+04  3.944737E+03  1.087908E+05  5.358141E-10  8.187607E-09
       127  18  2.933733E+05  4.906713E+04  5.329872E+03  1.131417E+05  7.583687E-09  8.949201E-09
       127  19  2.729991E+05  4.182707E+04  1.654568E+03  1.074149E+05 -1.569764E+03 -6.279580E+02
       127  20  2.674493E+05  3.655308E+04 -1.407092E+03  1.032219E+05 -7.998548E+02 -7.122560E+02
       127  21  2.582578E+05  3.573596E+04 -3.844855E+03  1.033854E+05 -2.749181E+01 -8.030862E+02
       127  22  2.758748E+05  4.282050E+04  2.416402E+03  1.081056E+05 -1.737608E+03 -6.912042E+02
       127  23  2.776662E+05  4.038289E+04  1.268826E+03  1.060063E+05 -9.710742E+02 -7.767726E+02
       127  24  2.758154E+05  4.240154E+04  7.425225E+02  1.082635E+05 -2.020795E+02 -8.688702E+02
       127  25  2.787504E+05  4.381393E+04  3.178238E+03  1.087963E+05 -1.905453E+03 -7.544508E+02
       127  26  2.878833E+05  4.421271E+04  3.944741E+03  1.087908E+05 -1.142297E+03 -8.412905E+02
       127  27  2.933733E+05  4.906713E+04  5.329874E+03  1.131417E+05 -3.766727E+02 -9.346564E+02
       128   1  2.484727E+05  3.218366E+04 -6.595661E+03  1.007571E+05 -1.541611E+02  9.582255E+02
       128   2  2.429888E+05  2.736995E+04 -8.713371E+03  9.648351E+04 -4.780373E+02  1.218758E+03
       128   3  2.336167E+05  2.656161E+04 -1.066671E+04  9.668957E+04 -8.023329E+02  1.480505E+03
       128   4  2.757829E+05  4.245849E+04  5.912237E+02  1.082316E+05  1.874889E+01  1.023374E+03
       128   5  2.777245E+05  4.043807E+04  3.932386E+02  1.059985E+05 -3.045125E+02  1.284130E+03
       128   6  2.757777E+05  4.242284E+04  3.591421E+02  1.082450E+05 -6.281966E+02  1.546101E+03
       128   7  3.030938E+05  5.273334E+04  7.778022E+03  1.157064E+05  1.916667E+02  1.088525E+03
       128   8  3.124614E+05  5.350626E+04  9.499745E+03  1.155140E+05 -1.309769E+02  1.349507E+03
       128   9  3.179406E+05  5.828422E+04  1.138488E+04  1.198011E+05 -4.540468E+02  1.611702E+03
       128  10  2.484727E+05  3.218366E+04 -6.595662E+03  1.007571E+05 -4.062297E-09 -4.307568E-09
       128  11  2.429888E+05  2.736995E+04 -8.713374E+03  9.648351E+04 -9.379470E-10 -6.009091E-09
       128  12  2.336167E+05  2.656161E+04 -1.066672E+04  9.668957E+04  5.549568E-09  7.062551E-10
       128  13  2.757829E+05  4.245849E+04  5.912217E+02  1.082316E+05 -1.722488E-09  1.931972E-10
       128  14  2.777245E+05  4.043807E+04  3.932354E+02  1.059985E+05  1.290087E-09 -3.287698E-09
       128  15  2.757777E+05  4.242283E+04  3.591368E+02  1.082450E+05  4.735054E-10 -4.946653E-09
       128  16  3.030938E+05  5.273334E+04  7.778020E+03  1.157064E+05  5.634911E-09  7.514253E-09
       128  17  3.124614E+05  5.350626E+04  9.499742E+03  1.155140E+05  1.371814E-09  1.452387E-09
       128  18  3.179406E+05  5.828422E+04  1.138487E+04  1.198011E+05 -4.023277E-09 -3.758753E-09
       128  19  2.484727E+05  3.218366E+04 -6.595661E+03  1.007571E+05  1.541611E+02 -9.582255E+02
       128  20  2.429888E+05  2.736995E+04 -8.713371E+03  9.648351E+04  4.780373E+02 -1.218758E+03
       128  21  2.336167E+05  2.656161E+04 -1.066671E+04  9.668957E+04  8.023329E+02 -1.480505E+03
       128  22  2.757829E+05  4.245849E+04  5.912237E+02  1.082316E+05 -1.874889E+01 -1.023374E+03
       128  23  2.777245E+05  4.043807E+04  3.932386E+02  1.059985E+05  3.045125E+02 -1.284130E+03
       128  24  2.757777E+05  4.242284E+04  3.591421E+02  1.082450E+05  6.281966E+02 -1.546101E+03
       128  25  3.030938E+05  5.273334E+04  7.778022E+03  1.157064E+05 -1.916667E+02 -1.088525E+03
       128  26  3.124614E+05  5.350626E+04  9.499745E+03  1.155140E+05  1.309769E+02 -1.349507E+03
       128  27  3.179406E+05  5.828422E+04  1.138488E+04  1.198011E+05  4.540468E+02 -1.611702E+03
       129   1  2.238384E+05  2.289759E+04 -1.325505E+04  9.404644E+04 -9.385533E+02  1.653403E+03
       129   2  2.183056E+05  1.807599E+04 -1.503060E+04  8.971928E+04 -1.339872E+03  1.888046E+03
       129   3  2.088795E+05  1.732698E+04 -1.657485E+04  8.990518E+04 -1.741195E+03  2.122876E+03
       129   4  2.757749E+05  4.242733E+04  3.865783E+02  1.082562E+05 -7.639119E+02  1.719182E+03
       129   5  2.777261E+05  4.042304E+04  5.462686E+02  1.059877E+05 -1.165168E+03  1.953836E+03
       129   6  2.757838E+05  4.249129E+04  9.371836E+02  1.082321E+05 -1.566432E+03  2.188676E+03
       129   7  3.277140E+05  6.195723E+04  1.402798E+04  1.224671E+05 -5.892545E+02  1.784968E+03
       129   8  3.371498E+05  6.277027E+04  1.612281E+04  1.222574E+05 -9.904461E+02  2.019633E+03
       129   9  3.426922E+05  6.765580E+04  1.844878E+04  1.265607E+05 -1.391649E+03  2.254483E+03
       129  10  2.238384E+05  2.289759E+04 -1.325506E+04  9.404644E+04  9.903130E-10  1.529819E-09
       129  11  2.183056E+05  1.807598E+04 -1.503061E+04  8.971928E+04  7.261846E-09 -4.591384E-09
       129  12  2.088794E+05  1.732698E+04 -1.657487E+04  8.990518E+04  1.175500E-08 -4.563538E-09
       129  13  2.757749E+05  4.242732E+04  3.865716E+02  1.082562E+05  5.791181E-09  3.757557E-09
       129  14  2.777260E+05  4.042303E+04  5.462588E+02  1.059877E+05  2.450910E-09 -3.011361E-09
       129  15  2.757838E+05  4.249129E+04  9.371700E+02  1.082321E+05  3.325492E-09 -1.204970E-09
       129  16  3.277140E+05  6.195722E+04  1.402797E+04  1.224671E+05  1.248107E-09 -2.711020E-09
       129  17  3.371498E+05  6.277027E+04  1.612280E+04  1.222574E+05 -3.592509E-09 -3.574718E-09
       129  18  3.426922E+05  6.765580E+04  1.844877E+04  1.265607E+05 -4.867722E-09 -4.796560E-09
       129  19  2.238384E+05  2.289759E+04 -1.325505E+04  9.404644E+04  9.385533E+02 -1.653403E+03
       129  20  2.183056E+05  1.807599E+04 -1.503060E+04  8.971928E+04  1.339872E+03 -1.888046E+03
       129  21  2.088795E+05  1.732698E+04 -1.657485E+04  8.990518E+04  1.741195E+03 -2.122876E+03
       129  22  2.757749E+05  4.242733E+04  3.865783E+02  1.082562E+05  7.639119E+02 -1.719182E+03
       129  23  2.777261E+05  4.042304E+04  5.462686E+02  1.059877E+05  1.165168E+03 -1.953836E+03
       129  24  2.757838E+05  4.249129E+04  9.371836E+02  1.082321E+05  1.566432E+03 -2.188676E+03
       129  25  3.277140E+05  6.195723E+04  1.402798E+04  1.224671E+05  5.892545E+02 -1.784968E+03
       129  26  3.371498E+05  6.277027E+04  1.612281E+04  1.222574E+05  9.904461E+02 -2.019633E+03
       129  27  3.426922E+05  6.765580E+04  1.844878E+04  1.265607E+05  1.391649E+03 -2.254483E+03
       130   1  1.989685E+05  1.361218E+04 -1.894338E+04  8.737931E+04 -1.999125E+03  2.254998E+03
       130   2  1.932969E+05  8.562755E+03 -1.998753E+04  8.286265E+04 -3.197577E+03  2.193379E+03
       130   3  1.840897E+05  8.436281E+03 -1.999117E+04  8.274026E+04 -4.389828E+03  2.115472E+03
       130   4  2.758251E+05  4.241187E+04  1.211601E+03  1.083067E+05 -1.818528E+03  2.322984E+03
       130   5  2.776420E+05  4.030429E+04  2.127336E+03  1.059759E+05 -3.025549E+03  2.258120E+03
       130   6  2.759252E+05  4.312132E+04  4.090298E+03  1.080394E+05 -4.226382E+03  2.176964E+03
       130   7  3.526876E+05  7.121201E+04  2.136614E+04  1.292364E+05 -1.637906E+03  2.390980E+03
       130   8  3.619942E+05  7.204632E+04  2.424163E+04  1.290920E+05 -2.853496E+03  2.322871E+03
       130   9  3.677688E+05  7.780691E+04  2.817106E+04  1.333418E+05 -4.062910E+03  2.238467E+03
       130  10  1.989685E+05  1.361217E+04 -1.894340E+04  8.737931E+04 -1.738253E-10 -4.640535E-09
       130  11  1.932969E+05  8.562747E+03 -1.998756E+04  8.286265E+04 -4.113636E-09 -5.484572E-09
       130  12  1.840897E+05  8.436271E+03 -1.999122E+04  8.274027E+04 -1.878553E-09 -4.959086E-09
       130  13  2.758251E+05  4.241187E+04  1.211584E+03  1.083067E+05  1.407549E-09  1.308264E-09
       130  14  2.776420E+05  4.030428E+04  2.127309E+03  1.059759E+05  9.785380E-10  5.393676E-09
       130  15  2.759252E+05  4.312131E+04  4.090256E+03  1.080394E+05  1.833698E-10 -2.675600E-09
       130  16  3.526876E+05  7.121201E+04  2.136613E+04  1.292364E+05  1.921676E-09  1.101497E-09
       130  17  3.619942E+05  7.204632E+04  2.424161E+04  1.290920E+05  1.185877E-09  5.088749E-09
       130  18  3.677688E+05  7.780690E+04  2.817102E+04  1.333418E+05 -3.337336E-09 -3.891691E-09
       130  19  1.989685E+05  1.361218E+04 -1.894338E+04  8.737931E+04  1.999125E+03 -2.254998E+03
       130  20  1.932969E+05  8.562755E+03 -1.998753E+04  8.286265E+04  3.197577E+03 -2.193379E+03
       130  21  1.840897E+05  8.436281E+03 -1.999117E+04  8.274026E+04  4.389828E+03 -2.115472E+03
       130  22  2.758251E+05  4.241187E+04  1.211601E+03  1.083067E+05  1.818528E+03 -2.322984E+03
       130  23  2.776420E+05  4.030429E+04  2.127336E+03  1.059759E+05  3.025549E+03 -2.258120E+03
       130  24  2.759252E+05  4.312132E+04  4.090298E+03  1.080394E+05  4.226382E+03 -2.176964E+03
       130  25  3.526876E+05  7.121201E+04  2.136614E+04  1.292364E+05  1.637906E+03 -2.390980E+03
       130  26  3.619942E+05  7.204632E+04  2.424163E+04  1.290920E+05  2.853496E+03 -2.322871E+03
       130  27  3.677688E+05  7.780691E+04  2.817106E+04  1.333418E+05  4.062910E+03 -2.238467E+03
       131   1  1.736139E+05  4.558759E+03 -2.149062E+04  8.154343E+04 -5.308019E+03  2.039931E+03
       131   2  1.675922E+05 -2.269787E+03 -1.957467E+04  7.559819E+04 -1.006257E+04  6.355803E+02
       131   3  1.613398E+05  3.614847E+03 -1.186217E+04  7.221018E+04 -1.472312E+04 -1.018251E+03
       131   4  2.762864E+05  4.218784E+04  5.259355E+03  1.086358E+05 -5.069476E+03  2.129687E+03
       131   5  2.768858E+05  3.933366E+04  9.169818E+03  1.060341E+05 -9.953840E+03  6.764364E+02
       131   6  2.772798E+05  4.921723E+04  1.897886E+04  1.059897E+05 -1.474427E+04 -1.026326E+03
       131   7  3.789687E+05  7.981732E+04  3.200836E+04  1.357320E+05 -4.830890E+03  2.219458E+03
       131   8  3.861910E+05  8.093792E+04  3.791329E+04  1.364749E+05 -9.845084E+03  7.173007E+02
       131   9  3.932331E+05  9.482092E+04  4.981882E+04  1.397751E+05 -1.476542E+04 -1.034403E+03
       131  10  1.736139E+05  4.558747E+03 -2.149068E+04  8.154344E+04 -2.942768E-09  2.506648E-10
       131  11  1.675921E+05 -2.269815E+03 -1.957486E+04  7.559819E+04 -2.166367E-10  5.967171E-09
       131  12  1.613396E+05  3.614787E+03 -1.186258E+04  7.221016E+04  1.916676E-09  6.697922E-10
       131  13  2.762864E+05  4.218782E+04  5.259299E+03  1.086358E+05 -2.408404E-09 -5.609433E-09
       131  14  2.768857E+05  3.933363E+04  9.169631E+03  1.060341E+05  6.173312E-09 -2.061643E-09
       131  15  2.772795E+05  4.921717E+04  1.897845E+04  1.059896E+05  3.467943E-10  2.441924E-09
       131  16  3.789687E+05  7.981730E+04  3.200831E+04  1.357320E+05 -1.601112E-09 -3.718023E-09
       131  17  3.861909E+05  8.093789E+04  3.791310E+04  1.364749E+05 -2.596405E-09 -2.623800E-09
       131  18  3.932329E+05  9.482086E+04  4.981841E+04  1.397750E+05 -1.278256E-09 -7.021550E-10
       131  19  1.736139E+05  4.558759E+03 -2.149062E+04  8.154343E+04  5.308019E+03 -2.039931E+03
       131  20  1.675922E+05 -2.269787E+03 -1.957467E+04  7.559819E+04  1.006257E+04 -6.355803E+02
       131  21  1.613398E+05  3.614847E+03 -1.186217E+04  7.221018E+04  1.472312E+04  1.018251E+03
       131  22  2.762864E+05  4.218784E+04  5.259355E+03  1.086358E+05  5.069476E+03 -2.129687E+03
       131  23  2.768858E+05  3.933366E+04  9.169818E+03  1.060341E+05  9.953840E+03 -6.764364E+02
       131  24  2.772798E+05  4.921723E+04  1.897886E+04  1.059897E+05  1.474427E+04  1.026326E+03
       131  25  3.789687E+05  7.981732E+04  3.200836E+04  1.357320E+05  4.830890E+03 -2.219458E+03
       131  26  3.861910E+05  8.093792E+04  3.791329E+04  1.364749E+05  9.845084E+03 -7.173007E+02
       131  27  3.932331E+05  9.482092E+04  4.981882E+04  1.397751E+05  1.476542E+04  1.034403E+03
       132   1  1.461463E+05 -1.626809E+03 -1.000856E+04  8.398760E+04 -1.929969E+04 -1.949837E+03
       132   2  1.393567E+05 -2.495475E+04  3.404996E+03  6.476535E+04 -3.879338E+04 -9.038391E+03
       132   3  1.620745E+05  3.832298E+04  5.388588E+04  2.880465E+04 -5.698230E+04 -1.959538E+04
       132   4  2.802962E+05  3.979804E+04  2.338312E+04  1.114487E+05 -1.829483E+04 -1.571542E+03
       132   5  2.701909E+05  3.045989E+04  3.885368E+04  1.069774E+05 -3.958636E+04 -9.337205E+03
       132   6  2.899415E+05  1.080713E+05  9.280956E+04  8.577007E+04 -5.957308E+04 -2.057204E+04
       132   7  4.144637E+05  8.122283E+04  5.677354E+04  1.389145E+05 -1.728973E+04 -1.193192E+03
       132   8  4.010413E+05  8.587665E+04  7.430066E+04  1.491978E+05 -4.037951E+04 -9.636105E+03
       132   9  4.178239E+05  1.778259E+05  1.317313E+05  1.427472E+05 -6.216441E+04 -2.154914E+04
       132  10  1.461459E+05 -1.626913E+03 -1.000927E+04  8.398757E+04 -6.156310E-09 -5.512503E-10
       132  11  1.393550E+05 -2.495524E+04  3.402015E+03  6.476507E+04 -3.457469E-09  4.400169E-10
       132  12  1.620710E+05  3.832169E+04  5.387906E+04  2.880375E+04  5.256821E-09  3.526251E-10
       132  13  2.802958E+05  3.979794E+04  2.338249E+04  1.114486E+05  2.051287E-11  3.182254E-09
       132  14  2.701892E+05  3.045937E+04  3.885057E+04  1.069771E+05 -1.890916E-09 -1.946615E-09
       132  15  2.899375E+05  1.080699E+05  9.280210E+04  8.576908E+04 -7.302138E-10 -3.479892E-10
       132  16  4.144634E+05  8.122274E+04  5.677298E+04  1.389145E+05  7.183375E-09  1.371341E-09
       132  17  4.010395E+05  8.587611E+04  7.429742E+04  1.491975E+05 -3.885017E-09 -2.558792E-10
       132  18  4.178197E+05  1.778244E+05  1.317231E+05  1.427461E+05 -5.128686E-09 -3.728036E-09
       132  19  1.461463E+05 -1.626809E+03 -1.000856E+04  8.398760E+04  1.929969E+04  1.949837E+03
       132  20  1.393567E+05 -2.495475E+04  3.404996E+03  6.476535E+04  3.879338E+04  9.038391E+03
       132  21  1.620745E+05  3.832298E+04  5.388588E+04  2.880465E+04  5.698230E+04  1.959538E+04
       132  22  2.802962E+05  3.979804E+04  2.338312E+04  1.114487E+05  1.829483E+04  1.571542E+03
       132  23  2.701909E+05  3.045989E+04  3.885368E+04  1.069774E+05  3.958636E+04  9.337205E+03
       132  24  2.899415E+05  1.080713E+05  9.280956E+04  8.577007E+04  5.957308E+04  2.057204E+04
       132  25  4.144637E+05  8.122283E+04  5.677354E+04  1.389145E+05  1.728973E+04  1.193192E+03
       132  26  4.010413E+05  8.587665E+04  7.430066E+04  1.491978E+05  4.037951E+04  9.636105E+03
       132  27  4.178239E+05  1.778259E+05  1.317313E+05  1.427472E+05  6.216441E+04  2.154914E+04
       133   1 -1.065479E+02 -3.610188E+05 -1.502657E+03 -5.104043E+01 -2.366154E+01  1.163945E+02
       133   2 -2.461156E+02 -3.616794E+05 -2.002276E+03  1.260048E+02 -4.613415E+01  9.695909E+02
       133   3 -7.632669E+02 -3.625466E+05 -3.152210E+03 -1.579635E+02 -7.983543E+01  1.822789E+03
       133   4 -5.085491E+00 -3.606059E+05 -1.408941E+03 -1.023780E+02 -2.367036E+01  1.264428E+02
       133   5  4.465131E+01 -3.605021E+05 -1.726222E+03  1.280060E+02 -4.614909E+01  9.866441E+02
       133   6 -2.844086E+02 -3.606060E+05 -2.698681E+03 -1.026227E+02 -7.985633E+01  1.846848E+03
       133   7  9.637695E+01 -3.601930E+05 -1.315225E+03 -1.537156E+02 -2.367919E+01  1.364912E+02
       133   8  3.354181E+02 -3.593247E+05 -1.450168E+03  1.300073E+02 -4.616403E+01  1.003697E+03
       133   9  1.944494E+02 -3.586655E+05 -2.245151E+03 -4.728167E+01 -7.987722E+01  1.870907E+03
       133  10 -1.065479E+02 -3.610188E+05 -1.502657E+03 -5.104043E+01 -1.173658E-09  7.777135E-09
       133  11 -2.461159E+02 -3.616794E+05 -2.002277E+03  1.260048E+02 -3.198440E-09  3.536977E-09
       133  12 -7.632678E+02 -3.625466E+05 -3.152217E+03 -1.579634E+02 -2.587373E-09 -3.482415E-09
       133  13 -5.085496E+00 -3.606059E+05 -1.408941E+03 -1.023780E+02  5.413770E-09  1.385942E-09
       133  14  4.465104E+01 -3.605021E+05 -1.726223E+03  1.280061E+02 -3.106253E-10 -4.156989E-10
       133  15 -2.844095E+02 -3.606061E+05 -2.698687E+03 -1.026226E+02 -3.143799E-09 -2.430612E-09
       133  16  9.637694E+01 -3.601930E+05 -1.315225E+03 -1.537156E+02  6.829211E-09 -4.643500E-09
       133  17  3.354179E+02 -3.593247E+05 -1.450170E+03  1.300073E+02 -4.905990E-09 -2.210541E-09
       133  18  1.944484E+02 -3.586655E+05 -2.245158E+03 -4.728155E+01  1.455441E-09  3.654048E-09
       133  19 -1.065479E+02 -3.610188E+05 -1.502657E+03 -5.104043E+01  2.366154E+01 -1.163945E+02
       133  20 -2.461156E+02 -3.616794E+05 -2.002276E+03  1.260048E+02  4.613415E+01 -9.695909E+02
       133  21 -7.632669E+02 -3.625466E+05 -3.152210E+03 -1.579635E+02  7.983543E+01 -1.822789E+03
       133  22 -5.085491E+00 -3.606059E+05 -1.408941E+03 -1.023780E+02  2.367036E+01 -1.264428E+02
       133  23  4.465131E+01 -3.605021E+05 -1.726222E+03  1.280060E+02  4.614909E+01 -9.866441E+02
       133  24 -2.844086E+02 -3.606060E+05 -2.698681E+03 -1.026227E+02  7.985633E+01 -1.846848E+03
       133  25  9.637695E+01 -3.601930E+05 -1.315225E+03 -1.537156E+02  2.367919E+01 -1.364912E+02
       133  26  3.354181E+02 -3.593247E+05 -1.450168E+03  1.300073E+02  4.616403E+01 -1.003697E+03
       133  27  1.944494E+02 -3.586655E+05 -2.245151E+03 -4.728167E+01  7.987722E+01 -1.870907E+03
       134   1 -4.984987E+02 -3.636264E+05 -4.023600E+03  4.332279E+02 -1.032411E+02  2.358878E+03
       134   2 -4.929941E+02 -3.637106E+05 -6.401954E+03 -1.449328E+02 -1.386902E+02  5.198227E+03
       134   3 -4.434077E+03 -3.651525E+05 -1.161648E+04 -1.184748E+03 -1.653682E+02  8.037572E+03
       134   4  1.860121E+02 -3.608613E+05 -3.372905E+03 -1.016621E+02 -1.032635E+02  2.382182E+03
       134   5  3.776683E+02 -3.601834E+05 -5.574408E+03  1.276110E+02 -1.387034E+02  5.216070E+03
       134   6 -3.376303E+03 -3.608623E+05 -1.060828E+04 -1.047705E+02 -1.653649E+02  8.049958E+03
       134   7  8.705235E+02 -3.580961E+05 -2.722211E+03 -6.365545E+02 -1.032859E+02  2.405486E+03
       134   8  1.248330E+03 -3.566562E+05 -4.746863E+03  4.001563E+02 -1.387166E+02  5.233913E+03
       134   9 -2.318527E+03 -3.565720E+05 -9.600075E+03  9.752144E+02 -1.653616E+02  8.062344E+03
       134  10 -4.985002E+02 -3.636264E+05 -4.023611E+03  4.332281E+02 -1.667382E-09  1.453443E-09
       134  11 -4.930014E+02 -3.637107E+05 -6.402005E+03 -1.449322E+02  3.652914E-09  8.216608E-10
       134  12 -4.434094E+03 -3.651526E+05 -1.161660E+04 -1.184747E+03  7.938406E-10 -5.983599E-09
       134  13  1.860106E+02 -3.608613E+05 -3.372916E+03 -1.016619E+02  3.004735E-09 -2.943132E-09
       134  14  3.776609E+02 -3.601834E+05 -5.574459E+03  1.276115E+02 -2.546384E-09  5.657682E-10
       134  15 -3.376321E+03 -3.608624E+05 -1.060840E+04 -1.047694E+02 -4.242200E-09 -2.050431E-09
       134  16  8.705219E+02 -3.580961E+05 -2.722222E+03 -6.365543E+02  3.460194E-09 -4.970357E-10
       134  17  1.248323E+03 -3.566562E+05 -4.746915E+03  4.001569E+02  1.231371E-09  1.216455E-09
       134  18 -2.318544E+03 -3.565721E+05 -9.600197E+03  9.752155E+02 -1.999965E-10  6.700172E-09
       134  19 -4.984987E+02 -3.636264E+05 -4.023600E+03  4.332279E+02  1.032411E+02 -2.358878E+03
       134  20 -4.929941E+02 -3.637106E+05 -6.401954E+03 -1.449328E+02  1.386902E+02 -5.198227E+03
       134  21 -4.434077E+03 -3.651525E+05 -1.161648E+04 -1.184748E+03  1.653682E+02 -8.037572E+03
       134  22  1.860121E+02 -3.608613E+05 -3.372905E+03 -1.016621E+02  1.032635E+02 -2.382182E+03
       134  23  3.776683E+02 -3.601834E+05 -5.574408E+03  1.276110E+02  1.387034E+02 -5.216070E+03
       134  24 -3.376303E+03 -3.608623E+05 -1.060828E+04 -1.047705E+02  1.653649E+02 -8.049958E+03
       134  25  8.705235E+02 -3.580961E+05 -2.722211E+03 -6.365545E+02  1.032859E+02 -2.405486E+03
       134  26  1.248330E+03 -3.566562E+05 -4.746863E+03  4.001563E+02  1.387166E+02 -5.233913E+03
       134  27 -2.318527E+03 -3.565720E+05 -9.600075E+03  9.752144E+02  1.653616E+02 -8.062344E+03
       135   1  8.359682E+02 -3.684587E+05 -1.426945E+04  5.448188E+03 -2.081853E+02  9.963643E+03
       135   2  2.519477E+03 -3.629336E+05 -2.265958E+04 -4.249175E+03 -2.364479E+02  2.148869E+04
       135   3 -4.020735E+04 -3.700152E+05 -4.965871E+04 -1.442509E+04 -1.020828E+02  3.301373E+04
       135   4  2.107747E+03 -3.633568E+05 -1.307213E+04 -9.602739E+01 -2.083283E+02  1.002576E+04
       135   5  3.959803E+03 -3.570658E+05 -2.128235E+04  1.257635E+02 -2.362618E+02  2.144924E+04
       135   6 -3.858098E+04 -3.633639E+05 -4.803093E+04 -1.312689E+02 -1.012000E+02  3.287273E+04
       135   7  3.379641E+03 -3.582549E+05 -1.187480E+04 -5.640289E+03 -2.084723E+02  1.008787E+04
       135   8  5.400199E+03 -3.511980E+05 -1.990511E+04  4.500743E+03 -2.360764E+02  2.140979E+04
       135   9 -3.695385E+04 -3.567121E+05 -4.640305E+04  1.416270E+04 -1.003237E+02  3.273172E+04
       135  10  8.359414E+02 -3.684588E+05 -1.426964E+04  5.448190E+03 -7.327543E-10  5.950287E-09
       135  11  2.519353E+03 -3.629341E+05 -2.266045E+04 -4.249170E+03  3.370633E-09  8.791482E-09
       135  12 -4.020765E+04 -3.700164E+05 -4.966076E+04 -1.442509E+04  2.348173E-09  1.798669E-09
       135  13  2.107720E+03 -3.633569E+05 -1.307232E+04 -9.602570E+01  4.448947E-09 -1.847272E-09
       135  14  3.959680E+03 -3.570663E+05 -2.128321E+04  1.257676E+02 -5.997544E-11  5.479400E-10
       135  15 -3.858127E+04 -3.633650E+05 -4.803296E+04 -1.312662E+02 -9.849119E-10 -2.166555E-09
       135  16  3.379613E+03 -3.582550E+05 -1.187499E+04 -5.640287E+03  1.668594E-10 -5.012840E-09
       135  17  5.400075E+03 -3.511985E+05 -1.990597E+04  4.500747E+03 -4.293589E-09 -6.908650E-09
       135  18 -3.695414E+04 -3.567133E+05 -4.640506E+04  1.416271E+04  1.352361E-09 -4.706276E-10
       135  19  8.359682E+02 -3.684587E+05 -1.426945E+04  5.448188E+03  2.081853E+02 -9.963643E+03
       135  20  2.519477E+03 -3.629336E+05 -2.265958E+04 -4.249175E+03  2.364479E+02 -2.148869E+04
       135  21 -4.020735E+04 -3.700152E+05 -4.965871E+04 -1.442509E+04  1.020828E+02 -3.301373E+04
       135  22  2.107747E+03 -3.633568E+05 -1.307213E+04 -9.602739E+01  2.083283E+02 -1.002576E+04
       135  23  3.959803E+03 -3.570658E+05 -2.128235E+04  1.257635E+02  2.362618E+02 -2.144924E+04
       135  24 -3.858098E+04 -3.633639E+05 -4.803093E+04 -1.312689E+02  1.012000E+02 -3.287273E+04
       135  25  3.379641E+03 -3.582549E+05 -1.187480E+04 -5.640289E+03  2.084723E+02 -1.008787E+04
       135  26  5.400199E+03 -3.511980E+05 -1.990511E+04  4.500743E+03  2.360764E+02 -2.140979E+04
       135  27 -3.695385E+04 -3.567121E+05 -4.640305E+04  1.416270E+04  1.003237E+02 -3.273172E+04
       136   1 -6.368094E+06 -2.088434E+06 -1.111350E+06 -2.239291E+06 -3.670354E+05 -7.412496E+04
       136   2 -6.193684E+06 -1.839942E+06 -8.398599E+05 -2.175785E+06 -2.468106E+05  1.252010E+05
       136   3 -6.049600E+06 -1.738822E+06 -7.272481E+05 -2.125910E+06 -8.788121E+04  2.238187E+05
       136   4 -2.770060E+06 -6.468258E+05 -1.542650E+05 -1.170616E+06 -1.212724E+05  1.979405E+04
       136   5 -2.759534E+06 -5.271745E+05 -7.031728E+04 -1.186353E+06 -1.353060E+05  1.676187E+05
       136   6 -2.752192E+06 -5.276870E+05 -3.758188E+04 -1.215796E+06 -1.108145E+05  2.149654E+05
       136   7  8.407449E+05  7.960601E+05  8.019260E+05 -9.611502E+04  1.260670E+05  1.143865E+05
       136   8  6.866730E+05  7.867290E+05  6.985267E+05 -1.917758E+05 -2.312638E+04  2.103076E+05
       136   9  5.564858E+05  6.843611E+05  6.515096E+05 -3.011817E+05 -1.338808E+05  2.060632E+05
       136  10 -6.368242E+06 -2.088476E+06 -1.111616E+06 -2.239313E+06  1.987557E-08  8.929614E-09
       136  11 -6.193754E+06 -1.839975E+06 -8.400044E+05 -2.175760E+06 -5.182177E-09  2.226983E-09
       136  12 -6.049622E+06 -1.738878E+06 -7.273566E+05 -2.125895E+06 -1.728896E-08 -8.183728E-09
       136  13 -2.770076E+06 -6.468302E+05 -1.542935E+05 -1.170614E+06  2.381191E-09  1.239721E-09
       136  14 -2.759561E+06 -5.272095E+05 -7.040440E+04 -1.186335E+06 -2.549481E-09 -9.370918E-09
       136  15 -2.752217E+06 -5.277399E+05 -3.769163E+04 -1.215777E+06 -1.611800E-09 -2.141413E-09
       136  16  8.407244E+05  7.960419E+05  8.018716E+05 -9.612662E+04 -2.117265E-08 -8.281192E-09
       136  17  6.866606E+05  7.866814E+05  6.984427E+05 -1.917719E+05 -1.948051E-09  5.213609E-09
       136  18  5.564552E+05  6.843107E+05  6.513963E+05 -3.011596E+05  1.407115E-08  3.644227E-09
       136  19 -6.368094E+06 -2.088434E+06 -1.111350E+06 -2.239291E+06  3.670354E+05  7.412496E+04
       136  20 -6.193684E+06 -1.839942E+06 -8.398599E+05 -2.175785E+06  2.468106E+05 -1.252010E+05
       136  21 -6.049600E+06 -1.738822E+06 -7.272481E+05 -2.125910E+06  8.788121E+04 -2.238187E+05
       136  22 -2.770060E+06 -6.468258E+05 -1.542650E+05 -1.170616E+06  1.212724E+05 -1.979405E+04
       136  23 -2.759534E+06 -5.271745E+05 -7.031728E+04 -1.186353E+06  1.353060E+05 -1.676187E+05
       136  24 -2.752192E+06 -5.276870E+05 -3.758188E+04 -1.215796E+06  1.108145E+05 -2.149654E+05
       136  25  8.407449E+05  7.960601E+05  8.019260E+05 -9.611502E+04 -1.260670E+05 -1.143865E+05
       136  26  6.866730E+05  7.867290E+05  6.985267E+05 -1.917758E+05  2.312638E+04 -2.103076E+05
       136  27  5.564858E+05  6.843611E+05  6.515096E+05 -3.011817E+05  1.338808E+05 -2.060632E+05
       137   1 -5.904125E+06 -1.706067E+06 -6.916364E+05 -2.097389E+06 -1.009291E+05  2.081152E+05
       137   2 -5.737151E+06 -1.609249E+06 -6.307545E+05 -2.023027E+06 -8.265184E+04  2.096795E+05
       137   3 -5.533974E+06 -1.556167E+06 -5.831370E+05 -1.991102E+06 -6.192760E+04  2.047168E+05
       137   4 -2.746315E+06 -5.338171E+05 -2.886967E+04 -1.213140E+06 -1.028951E+05  2.072504E+05
       137   5 -2.764667E+06 -5.100081E+05 -1.545746E+04 -1.192903E+06 -9.329013E+04  2.055373E+05
       137   6 -2.745105E+06 -5.281724E+05 -8.351986E+03 -1.215100E+06 -8.125005E+04  1.973121E+05
       137   7  4.217952E+05  6.393140E+05  6.333541E+05 -3.246919E+05 -1.048720E+05  2.063819E+05
       137   8  2.169549E+05  5.900074E+05  5.993722E+05 -3.590706E+05 -1.039839E+05  2.013745E+05
       137   9  5.179680E+04  5.004915E+05  5.660239E+05 -4.358523E+05 -1.006668E+05  1.898720E+05
       137  10 -5.904147E+06 -1.706117E+06 -6.917367E+05 -2.097372E+06 -7.676477E-09 -2.585812E-09
       137  11 -5.737170E+06 -1.609298E+06 -6.308498E+05 -2.023013E+06 -2.390306E-09 -7.926300E-10
       137  12 -5.533990E+06 -1.556213E+06 -5.832228E+05 -1.991091E+06  3.630556E-09  1.848955E-09
       137  13 -2.746338E+06 -5.338660E+05 -2.897013E+04 -1.213123E+06 -2.249564E-10 -1.971114E-09
       137  14 -2.764687E+06 -5.100557E+05 -1.555306E+04 -1.192887E+06  3.374588E-09 -2.746097E-09
       137  15 -2.745123E+06 -5.282159E+05 -8.437420E+03 -1.215087E+06 -1.946986E-09  1.512775E-09
       137  16  4.217720E+05  6.392653E+05  6.332535E+05 -3.246745E+05  4.621244E-09  1.616868E-09
       137  17  2.169324E+05  5.899611E+05  5.992758E+05 -3.590537E+05 -1.998561E-10  1.244661E-09
       137  18  5.177628E+04  5.004502E+05  5.659372E+05 -4.358369E+05 -5.441312E-09  4.265962E-10
       137  19 -5.904125E+06 -1.706067E+06 -6.916364E+05 -2.097389E+06  1.009291E+05 -2.081152E+05
       137  20 -5.737151E+06 -1.609249E+06 -6.307545E+05 -2.023027E+06  8.265184E+04 -2.096795E+05
       137  21 -5.533974E+06 -1.556167E+06 -5.831370E+05 -1.991102E+06  6.192760E+04 -2.047168E+05
       137  22 -2.746315E+06 -5.338171E+05 -2.886967E+04 -1.213140E+06  1.028951E+05 -2.072504E+05
       137  23 -2.764667E+06 -5.100081E+05 -1.545746E+04 -1.192903E+06  9.329013E+04 -2.055373E+05
       137  24 -2.745105E+06 -5.281724E+05 -8.351986E+03 -1.215100E+06  8.125005E+04 -1.973121E+05
       137  25  4.217952E+05  6.393140E+05  6.333541E+05 -3.246919E+05  1.048720E+05 -2.063819E+05
       137  26  2.169549E+05  5.900074E+05  5.993722E+05 -3.590706E+05  1.039839E+05 -2.013745E+05
       137  27  5.179680E+04  5.004915E+05  5.660239E+05 -4.358523E+05  1.006668E+05 -1.898720E+05
       138   1 -5.401567E+06 -1.507690E+06 -5.528777E+05 -1.954686E+06 -5.866761E+04  1.963236E+05
       138   2 -5.229202E+06 -1.415056E+06 -5.102608E+05 -1.877455E+06 -5.083359E+04  1.834049E+05
       138   3 -5.015893E+06 -1.362570E+06 -4.692642E+05 -1.845565E+06 -4.282361E+04  1.699166E+05
       138   4 -2.744391E+06 -5.285867E+05 -6.328595E+03 -1.215360E+06 -7.686888E+04  1.893598E+05
       138   5 -2.764674E+06 -5.080897E+05 -3.618123E+03 -1.192802E+06 -6.978333E+04  1.761838E+05
       138   6 -2.743914E+06 -5.275831E+05 -1.934196E+03 -1.215590E+06 -6.252316E+04  1.624393E+05
       138   7 -7.987914E+04  4.511412E+05  5.398627E+05 -4.730749E+05 -9.515506E+04  1.823641E+05
       138   8 -2.938452E+05  3.994082E+05  5.027151E+05 -5.056127E+05 -8.881492E+04  1.689321E+05
       138   9 -4.665921E+05  3.078485E+05  4.651304E+05 -5.834663E+05 -8.230102E+04  1.549327E+05
       138  10 -5.401580E+06 -1.507732E+06 -5.529565E+05 -1.954676E+06  1.250189E-08  4.508480E-09
       138  11 -5.229214E+06 -1.415093E+06 -5.103287E+05 -1.877447E+06 -1.715392E-09  1.409368E-09
       138  12 -5.015903E+06 -1.362602E+06 -4.693218E+05 -1.845559E+06 -9.297511E-09 -7.630034E-09
       138  13 -2.744407E+06 -5.286268E+05 -6.406960E+03 -1.215348E+06  6.861465E-10 -9.497589E-10
       138  14 -2.764688E+06 -5.081242E+05 -3.685502E+03 -1.192793E+06 -2.696484E-10  9.827270E-09
       138  15 -2.743925E+06 -5.276124E+05 -1.991040E+03 -1.215582E+06 -1.238944E-09  1.505257E-08
       138  16 -7.989775E+04  4.511031E+05  5.397833E+05 -4.730610E+05 -1.245082E-08 -6.160089E-09
       138  17 -2.938613E+05  3.993754E+05  5.026467E+05 -5.056006E+05  3.999390E-10 -2.016136E-09
       138  18 -4.666058E+05  3.078209E+05  4.650727E+05 -5.834560E+05  1.758883E-08  1.387494E-09
       138  19 -5.401567E+06 -1.507690E+06 -5.528777E+05 -1.954686E+06  5.866761E+04 -1.963236E+05
       138  20 -5.229202E+06 -1.415056E+06 -5.102608E+05 -1.877455E+06  5.083359E+04 -1.834049E+05
       138  21 -5.015893E+06 -1.362570E+06 -4.692642E+05 -1.845565E+06  4.282361E+04 -1.699166E+05
       138  22 -2.744391E+06 -5.285867E+05 -6.328595E+03 -1.215360E+06  7.686888E+04 -1.893598E+05
       138  23 -2.764674E+06 -5.080897E+05 -3.618123E+03 -1.192802E+06  6.978333E+04 -1.761838E+05
       138  24 -2.743914E+06 -5.275831E+05 -1.934196E+03 -1.215590E+06  6.252316E+04 -1.624393E+05
       138  25 -7.987914E+04  4.511412E+05  5.398627E+05 -4.730749E+05  9.515506E+04 -1.823641E+05
       138  26 -2.938452E+05  3.994082E+05  5.027151E+05 -5.056127E+05  8.881492E+04 -1.689321E+05
       138  27 -4.665921E+05  3.078485E+05  4.651304E+05 -5.834663E+05  8.230102E+04 -1.549327E+05
       139   1 -4.880004E+06 -1.312203E+06 -4.397003E+05 -1.807945E+06 -3.919219E+04  1.614541E+05
       139   2 -4.702121E+06 -1.217797E+06 -3.987658E+05 -1.728869E+06 -3.286823E+04  1.468603E+05
       139   3 -4.482390E+06 -1.164392E+06 -3.581430E+05 -1.696649E+06 -2.651658E+04  1.321059E+05
       139   4 -2.743591E+06 -5.277041E+05 -1.508919E+03 -1.215905E+06 -5.898331E+04  1.539567E+05
       139   5 -2.764333E+06 -5.068639E+05 -1.009002E+03 -1.192552E+06 -5.286856E+04  1.393054E+05
       139   6 -2.743233E+06 -5.269792E+05 -6.590708E+02 -1.216065E+06 -4.672645E+04  1.244938E+05
       139   7 -6.024699E+05  2.571808E+05  4.364449E+05 -6.219703E+05 -7.884820E+04  1.464317E+05
       139   8 -8.226595E+05  2.043906E+05  3.965561E+05 -6.546766E+05 -7.293659E+04  1.317252E+05
       139   9 -1.000935E+06  1.106953E+05  3.566739E+05 -7.342240E+05 -6.699783E+04  1.168586E+05
       139  10 -4.880012E+06 -1.312231E+06 -4.397521E+05 -1.807940E+06 -1.162176E-08 -1.033371E-08
       139  11 -4.702127E+06 -1.217821E+06 -3.988083E+05 -1.728865E+06 -1.087062E-09 -5.811206E-09
       139  12 -4.482396E+06 -1.164411E+06 -3.581770E+05 -1.696646E+06  6.596751E-09 -6.661223E-10
       139  13 -2.743601E+06 -5.277305E+05 -1.559920E+03 -1.215898E+06 -7.736774E-10  1.452108E-08
       139  14 -2.764341E+06 -5.068855E+05 -1.050657E+03 -1.192546E+06  1.254406E-09  7.788494E-09
       139  15 -2.743240E+06 -5.269964E+05 -6.922478E+02 -1.216060E+06  1.384263E-09  1.146580E-09
       139  16 -6.024823E+05  2.571562E+05  4.363930E+05 -6.219610E+05  2.144032E-08  4.659185E-09
       139  17 -8.226698E+05  2.043706E+05  3.965135E+05 -6.546688E+05  8.954698E-09  1.892380E-09
       139  18 -1.000943E+06  1.106794E+05  3.566399E+05 -7.342177E+05 -4.631998E-09 -2.033041E-09
       139  19 -4.880004E+06 -1.312203E+06 -4.397003E+05 -1.807945E+06  3.919219E+04 -1.614541E+05
       139  20 -4.702121E+06 -1.217797E+06 -3.987658E+05 -1.728869E+06  3.286823E+04 -1.468603E+05
       139  21 -4.482390E+06 -1.164392E+06 -3.581430E+05 -1.696649E+06  2.651658E+04 -1.321059E+05
       139  22 -2.743591E+06 -5.277041E+05 -1.508919E+03 -1.215905E+06  5.898331E+04 -1.539567E+05
       139  23 -2.764333E+06 -5.068639E+05 -1.009002E+03 -1.192552E+06  5.286856E+04 -1.393054E+05
       139  24 -2.743233E+06 -5.269792E+05 -6.590708E+02 -1.216065E+06  4.672645E+04 -1.244938E+05
       139  25 -6.024699E+05  2.571808E+05  4.364449E+05 -6.219703E+05  7.884820E+04 -1.464317E+05
       139  26 -8.226595E+05  2.043906E+05  3.965561E+05 -6.546766E+05  7.293659E+04 -1.317252E+05
       139  27 -1.000935E+06  1.106953E+05  3.566739E+05 -7.342240E+05  6.699783E+04 -1.168586E+05
       140   1 -4.343009E+06 -1.112993E+06 -3.282951E+05 -1.658288E+06 -2.296745E+04  1.233821E+05
       140   2 -4.160784E+06 -1.017125E+06 -2.872482E+05 -1.577864E+06 -1.671718E+04  1.083553E+05
       140   3 -3.936278E+06 -9.630884E+05 -2.464828E+05 -1.545451E+06 -1.045496E+04  9.323225E+04
       140   4 -2.743022E+06 -5.270608E+05 -6.563945E+02 -1.216316E+06 -4.330638E+04  1.157327E+05
       140   5 -2.764014E+06 -5.058822E+05 -8.175187E+02 -1.192367E+06 -3.718211E+04  1.006742E+05
       140   6 -2.742750E+06 -5.265069E+05 -1.163819E+03 -1.216438E+06 -3.104616E+04  8.551974E+04
       140   7 -1.140387E+06  5.908912E+04  3.268528E+05 -7.732843E+05 -6.370208E+04  1.080620E+05
       140   8 -1.365232E+06  5.523958E+03  2.855131E+05 -8.060650E+05 -5.769679E+04  9.297461E+04
       140   9 -1.547759E+06 -8.980923E+04  2.440806E+05 -8.868400E+05 -5.168002E+04  7.779129E+04
       140  10 -4.343014E+06 -1.113010E+06 -3.283246E+05 -1.658286E+06 -1.898637E-08 -9.047956E-09
       140  11 -4.160787E+06 -1.017138E+06 -2.872708E+05 -1.577862E+06  1.040731E-09  5.933093E-11
       140  12 -3.936280E+06 -9.630977E+05 -2.464994E+05 -1.545450E+06  2.080212E-08  1.315349E-08
       140  13 -2.743028E+06 -5.270756E+05 -6.850448E+02 -1.216312E+06  4.429350E-10 -3.212332E-09
       140  14 -2.764018E+06 -5.058934E+05 -8.391297E+02 -1.192364E+06  1.439403E-09 -9.390278E-09
       140  15 -2.742753E+06 -5.265150E+05 -1.179350E+03 -1.216436E+06  4.093812E-09 -1.153651E-08
       140  16 -1.140395E+06  5.907551E+04  3.268233E+05 -7.732788E+05  1.921694E-08  7.155155E-09
       140  17 -1.365238E+06  5.513800E+03  2.854906E+05 -8.060607E+05 -4.064404E-09 -9.807800E-10
       140  18 -1.547764E+06 -8.981644E+04  2.440643E+05 -8.868367E+05 -2.420985E-08 -4.069579E-09
       140  19 -4.343009E+06 -1.112993E+06 -3.282951E+05 -1.658288E+06  2.296745E+04 -1.233821E+05
       140  20 -4.160784E+06 -1.017125E+06 -2.872482E+05 -1.577864E+06  1.671718E+04 -1.083553E+05
       140  21 -3.936278E+06 -9.630884E+05 -2.464828E+05 -1.545451E+06  1.045496E+04 -9.323225E+04
       140  22 -2.743022E+06 -5.270608E+05 -6.563945E+02 -1.216316E+06  4.330638E+04 -1.157327E+05
       140  23 -2.764014E+06 -5.058822E+05 -8.175187E+02 -1.192367E+06  3.718211E+04 -1.006742E+05
       140  24 -2.742750E+06 -5.265069E+05 -1.163819E+03 -1.216438E+06  3.104616E+04 -8.551974E+04
       140  25 -1.140387E+06  5.908912E+04  3.268528E+05 -7.732843E+05  6.370208E+04 -1.080620E+05
       140  26 -1.365232E+06  5.523958E+03  2.855131E+05 -8.060650E+05  5.769679E+04 -9.297461E+04
       140  27 -1.547759E+06 -8.980923E+04  2.440806E+05 -8.868400E+05  5.168002E+04 -7.779129E+04
       141   1 -3.794306E+06 -9.109627E+05 -2.164793E+05 -1.506562E+06 -6.777353E+03  8.438684E+04
       141   2 -3.609026E+06 -8.141375E+05 -1.758788E+05 -1.425210E+06  3.326506E+02  6.945575E+04
       141   3 -3.381347E+06 -7.598438E+05 -1.362664E+05 -1.392673E+06  7.428695E+03  5.452380E+04
       141   4 -2.742651E+06 -5.265599E+05 -1.521999E+03 -1.216631E+06 -2.747115E+04  7.664359E+04
       141   5 -2.763746E+06 -5.051619E+05 -2.686218E+03 -1.192240E+06 -2.036115E+04  6.172193E+04
       141   6 -2.742496E+06 -5.262979E+05 -4.842554E+03 -1.216678E+06 -1.326563E+04  4.679936E+04
       141   7 -1.689844E+06 -1.420603E+05  2.133831E+05 -9.262418E+05 -4.820300E+04  6.888612E+04
       141   8 -1.917723E+06 -1.961245E+05  1.704726E+05 -9.589744E+05 -4.108548E+04  5.397670E+04
       141   9 -2.103222E+06 -2.927175E+05  1.265620E+05 -1.040514E+06 -3.398297E+04  3.906631E+04
       141  10 -3.794308E+06 -9.109703E+05 -2.164928E+05 -1.506561E+06 -2.693622E-08 -4.141885E-09
       141  11 -3.609027E+06 -8.141427E+05 -1.758879E+05 -1.425210E+06 -5.750407E-09 -7.357326E-10
       141  12 -3.381348E+06 -7.598470E+05 -1.362721E+05 -1.392673E+06  1.623567E-08  6.289708E-09
       141  13 -2.742654E+06 -5.265664E+05 -1.534437E+03 -1.216630E+06  3.849898E-09 -1.134013E-08
       141  14 -2.763747E+06 -5.051661E+05 -2.694144E+03 -1.192239E+06  2.395998E-09 -5.111160E-09
       141  15 -2.742497E+06 -5.263003E+05 -4.846995E+03 -1.216677E+06 -1.074798E-09 -3.619965E-09
       141  16 -1.689848E+06 -1.420660E+05  2.133699E+05 -9.262392E+05  2.469224E-08  1.615874E-08
       141  17 -1.917726E+06 -1.961281E+05  1.704639E+05 -9.589726E+05  2.157646E-09  4.462196E-09
       141  18 -2.103224E+06 -2.927195E+05  1.265570E+05 -1.040513E+06 -1.635574E-08 -4.352998E-09
       141  19 -3.794306E+06 -9.109627E+05 -2.164793E+05 -1.506562E+06  6.777353E+03 -8.438684E+04
       141  20 -3.609026E+06 -8.141375E+05 -1.758788E+05 -1.425210E+06 -3.326506E+02 -6.945575E+04
       141  21 -3.381347E+06 -7.598438E+05 -1.362664E+05 -1.392673E+06 -7.428695E+03 -5.452380E+04
       141  22 -2.742651E+06 -5.265599E+05 -1.521999E+03 -1.216631E+06  2.747115E+04 -7.664359E+04
       141  23 -2.763746E+06 -5.051619E+05 -2.686218E+03 -1.192240E+06  2.036115E+04 -6.172193E+04
       141  24 -2.742496E+06 -5.262979E+05 -4.842554E+03 -1.216678E+06  1.326563E+04 -4.679936E+04
       141  25 -1.689844E+06 -1.420603E+05  2.133831E+05 -9.262418E+05  4.820300E+04 -6.888612E+04
       141  26 -1.917723E+06 -1.961245E+05  1.704726E+05 -9.589744E+05  4.108548E+04 -5.397670E+04
       141  27 -2.103222E+06 -2.927175E+05  1.265620E+05 -1.040514E+06  3.398297E+04 -3.906631E+04
       142   1 -3.237681E+06 -7.074425E+05 -1.072108E+05 -1.353940E+06  1.195978E+04  4.588248E+04
       142   2 -3.051074E+06 -6.097656E+05 -7.009960E+04 -1.270930E+06  2.228999E+04  3.248327E+04
       142   3 -2.823410E+06 -5.575439E+05 -3.722477E+04 -1.236539E+06  3.227475E+04  2.000025E+04
       142   4 -2.742693E+06 -5.261576E+05 -6.443713E+03 -1.216934E+06 -8.980497E+03  3.807023E+04
       142   5 -2.763308E+06 -5.050600E+05 -1.174162E+04 -1.191957E+06  2.578904E+03  2.513252E+04
       142   6 -2.743157E+06 -5.296653E+05 -2.225435E+04 -1.215616E+06  1.379133E+04  1.311021E+04
       142   7 -2.247455E+06 -3.448528E+05  9.431188E+04 -1.079828E+06 -2.993863E+04  3.025126E+04
       142   8 -2.475456E+06 -4.003471E+05  4.661389E+04 -1.112950E+06 -1.714204E+04  1.777812E+04
       142   9 -2.662895E+06 -5.017856E+05 -7.282540E+03 -1.194690E+06 -4.694808E+03  6.219257E+03
       142  10 -3.237682E+06 -7.074448E+05 -1.072151E+05 -1.353940E+06 -1.317259E-10 -5.086143E-11
       142  11 -3.051075E+06 -6.097668E+05 -7.010253E+04 -1.270931E+06  2.428253E-09  3.586952E-09
       142  12 -2.823411E+06 -5.575446E+05 -3.722750E+04 -1.236540E+06  4.242358E-09  1.720453E-09
       142  13 -2.742694E+06 -5.261592E+05 -6.446584E+03 -1.216934E+06 -1.022467E-09  9.859896E-10
       142  14 -2.763308E+06 -5.050606E+05 -1.174282E+04 -1.191958E+06 -2.930760E-10 -7.491624E-10
       142  15 -2.743157E+06 -5.296655E+05 -2.225503E+04 -1.215616E+06  1.469803E-10  2.931425E-10
       142  16 -2.247457E+06 -3.448540E+05  9.430848E+04 -1.079827E+06 -1.213443E-09  7.275732E-10
       142  17 -2.475456E+06 -4.003476E+05  4.661275E+04 -1.112950E+06 -2.727580E-09  1.145714E-09
       142  18 -2.662895E+06 -5.017857E+05 -7.282654E+03 -1.194690E+06 -3.194469E-09 -1.879230E-09
       142  19 -3.237681E+06 -7.074425E+05 -1.072108E+05 -1.353940E+06 -1.195978E+04 -4.588248E+04
       142  20 -3.051074E+06 -6.097656E+05 -7.009960E+04 -1.270930E+06 -2.228999E+04 -3.248327E+04
       142  21 -2.823410E+06 -5.575439E+05 -3.722477E+04 -1.236539E+06 -3.227475E+04 -2.000025E+04
       142  22 -2.742693E+06 -5.261576E+05 -6.443713E+03 -1.216934E+06  8.980497E+03 -3.807023E+04
       142  23 -2.763308E+06 -5.050600E+05 -1.174162E+04 -1.191957E+06 -2.578904E+03 -2.513252E+04
       142  24 -2.743157E+06 -5.296653E+05 -2.225435E+04 -1.215616E+06 -1.379133E+04 -1.311021E+04
       142  25 -2.247455E+06 -3.448528E+05  9.431188E+04 -1.079828E+06  2.993863E+04 -3.025126E+04
       142  26 -2.475456E+06 -4.003471E+05  4.661389E+04 -1.112950E+06  1.714204E+04 -1.777812E+04
       142  27 -2.662895E+06 -5.017856E+05 -7.282540E+03 -1.194690E+06  4.694808E+03 -6.219257E+03
       143   1 -2.674536E+06 -5.083715E+05 -1.326804E+04 -1.209041E+06  4.227424E+04  1.314504E+04
       143   2 -2.503824E+06 -3.996733E+05  1.018305E+04 -1.092899E+06  5.389415E+04  7.636361E+03
       143   3 -2.316735E+06 -3.984340E+05  9.408686E+03 -1.007896E+06  5.993957E+04  1.707293E+04
       143   4 -2.746852E+06 -5.255611E+05 -2.901990E+04 -1.218711E+06  2.062069E+04  5.074274E+03
       143   5 -2.759602E+06 -5.164892E+05 -5.404154E+04 -1.185761E+06  5.230678E+04  7.041764E+03
       143   6 -2.760028E+06 -6.189033E+05 -1.192479E+05 -1.183979E+06  7.841366E+04  2.395523E+04
       143   7 -2.819162E+06 -5.427506E+05 -4.477007E+04 -1.228381E+06 -1.030195E+03 -2.996353E+03
       143   8 -3.015310E+06 -6.332883E+05 -1.182700E+05 -1.278582E+06  5.072015E+04  6.447582E+03
       143   9 -3.203108E+06 -8.393052E+05 -2.479173E+05 -1.359927E+06  9.687269E+04  3.082783E+04
       143  10 -2.674538E+06 -5.083722E+05 -1.327175E+04 -1.209042E+06  9.625585E-10 -2.142128E-09
       143  11 -2.503827E+06 -3.996741E+05  1.017746E+04 -1.092900E+06  8.581103E-10 -1.622050E-09
       143  12 -2.316739E+06 -3.984353E+05  9.401355E+03 -1.007897E+06 -1.349945E-09 -4.027288E-09
       143  13 -2.746852E+06 -5.255613E+05 -2.902075E+04 -1.218711E+06  2.158225E-09  8.141969E-10
       143  14 -2.759605E+06 -5.164900E+05 -5.404680E+04 -1.185761E+06  8.297687E-10  1.056381E-09
       143  15 -2.760035E+06 -6.189056E+05 -1.192605E+05 -1.183980E+06  1.640691E-09 -1.475451E-10
       143  16 -2.819162E+06 -5.427506E+05 -4.477009E+04 -1.228381E+06  3.712330E-11 -5.723268E-10
       143  17 -3.015313E+06 -6.332890E+05 -1.182750E+05 -1.278583E+06 -9.932354E-10  2.956483E-10
       143  18 -3.203118E+06 -8.393088E+05 -2.479368E+05 -1.359929E+06  1.867374E-10 -1.712950E-09
       143  19 -2.674536E+06 -5.083715E+05 -1.326804E+04 -1.209041E+06 -4.227424E+04 -1.314504E+04
       143  20 -2.503824E+06 -3.996733E+05  1.018305E+04 -1.092899E+06 -5.389415E+04 -7.636361E+03
       143  21 -2.316735E+06 -3.984340E+05  9.408686E+03 -1.007896E+06 -5.993957E+04 -1.707293E+04
       143  22 -2.746852E+06 -5.255611E+05 -2.901990E+04 -1.218711E+06 -2.062069E+04 -5.074274E+03
       143  23 -2.759602E+06 -5.164892E+05 -5.404154E+04 -1.185761E+06 -5.230678E+04 -7.041764E+03
       143  24 -2.760028E+06 -6.189033E+05 -1.192479E+05 -1.183979E+06 -7.841366E+04 -2.395523E+04
       143  25 -2.819162E+06 -5.427506E+05 -4.477007E+04 -1.228381E+06  1.030195E+03  2.996353E+03
       143  26 -3.015310E+06 -6.332883E+05 -1.182700E+05 -1.278582E+06 -5.072015E+04 -6.447582E+03
       143  27 -3.203108E+06 -8.393052E+05 -2.479173E+05 -1.359927E+06 -9.687269E+04 -3.082783E+04
       144   1  2.025518E+05  4.258119E+04  5.763282E+04  9.735686E+03  4.566973E+04  2.975435E+02
       144   2  1.962253E+05 -1.892756E+04  2.038534E+04  3.160509E+03  3.011490E+04  8.367746E+02
       144   3  2.094826E+05 -1.021562E+04  1.081976E+04 -7.272752E+03  1.455976E+04  6.772879E+02
       144   4  2.414145E+05  5.227688E+04  6.728165E+04 -1.906921E+03  4.597139E+04  2.967326E+02
       144   5  2.316058E+05 -1.012191E+04  2.904590E+04  2.616489E+01  3.018070E+04  8.366276E+02
       144   6  2.414204E+05 -2.261541E+03  1.865451E+04 -1.898770E+03  1.438980E+04  6.773961E+02
       144   7  2.802790E+05  6.197298E+04  7.693044E+04 -1.355026E+04  4.627307E+04  2.959104E+02
       144   8  2.669875E+05 -1.316315E+03  3.770637E+04 -3.108359E+03  3.024651E+04  8.364800E+02
       144   9  2.733591E+05  5.692573E+03  2.648920E+04  3.475489E+03  1.421982E+04  6.775013E+02
       144  10  2.025495E+05  4.258063E+04  5.762890E+04  9.735676E+03  5.128194E-10  2.671123E-12
       144  11  1.962243E+05 -1.892780E+04  2.038364E+04  3.160489E+03 -3.950653E-10  2.560131E-10
       144  12  2.094824E+05 -1.021568E+04  1.081936E+04 -7.272760E+03 -3.389017E-10 -5.786872E-10
       144  13  2.414123E+05  5.227632E+04  6.727768E+04 -1.906932E+03 -1.987199E-09  1.464250E-10
       144  14  2.316048E+05 -1.012215E+04  2.904419E+04  2.614456E+01  2.268749E-09  6.729242E-12
       144  15  2.414201E+05 -2.261597E+03  1.865412E+04 -1.898778E+03  2.069090E-09 -3.970547E-10
       144  16  2.802767E+05  6.197240E+04  7.692642E+04 -1.355027E+04  1.672137E-09  3.643175E-12
       144  17  2.669865E+05 -1.316561E+03  3.770465E+04 -3.108379E+03  8.387221E-10 -2.189465E-10
       144  18  2.733589E+05  5.692518E+03  2.648882E+04  3.475481E+03  3.509980E-09  1.132617E-10
       144  19  2.025518E+05  4.258119E+04  5.763282E+04  9.735686E+03 -4.566973E+04 -2.975435E+02
       144  20  1.962253E+05 -1.892756E+04  2.038534E+04  3.160509E+03 -3.011490E+04 -8.367746E+02
       144  21  2.094826E+05 -1.021562E+04  1.081976E+04 -7.272752E+03 -1.455976E+04 -6.772879E+02
       144  22  2.414145E+05  5.227688E+04  6.728165E+04 -1.906921E+03 -4.597139E+04 -2.967326E+02
       144  23  2.316058E+05 -1.012191E+04  2.904590E+04  2.616489E+01 -3.018070E+04 -8.366276E+02
       144  24  2.414204E+05 -2.261541E+03  1.865451E+04 -1.898770E+03 -1.438980E+04 -6.773961E+02
       144  25  2.802790E+05  6.197298E+04  7.693044E+04 -1.355026E+04 -4.627307E+04 -2.959104E+02
       144  26  2.669875E+05 -1.316315E+03  3.770637E+04 -3.108359E+03 -3.024651E+04 -8.364800E+02
       144  27  2.733591E+05  5.692573E+03  2.648920E+04  3.475489E+03 -1.421982E+04 -6.775013E+02
       145   1  2.136184E+05  8.074941E+02  9.441345E+03 -4.756610E+02  1.139122E+04  5.003423E+02
       145   2  2.156237E+05 -6.471483E+03  2.483973E+03  3.576407E+02  7.500504E+03  4.518101E+02
       145   3  2.204279E+05 -4.586709E+03  3.503520E+02 -2.613917E+03  3.609774E+03  3.264133E+02
       145   4  2.376811E+05  6.799546E+03  1.534619E+04 -1.889799E+03  1.138822E+04  5.003149E+02
       145   5  2.362800E+05 -1.328478E+03  7.548012E+03  1.288541E+01  7.471529E+03  4.518033E+02
       145   6  2.376822E+05 -2.884220E+02  4.591474E+03 -1.889276E+03  3.554844E+03  3.264148E+02
       145   7  2.617444E+05  1.279156E+04  2.125100E+04 -3.303993E+03  1.138522E+04  5.002875E+02
       145   8  2.569368E+05  3.814496E+03  1.261202E+04 -3.318814E+02  7.442553E+03  4.517964E+02
       145   9  2.549368E+05  4.009844E+03  8.832575E+03 -1.164614E+03  3.499913E+03  3.264161E+02
       145  10  2.136182E+05  8.074590E+02  9.441101E+03 -4.756656E+02 -1.700568E-09 -6.699400E-10
       145  11  2.156236E+05 -6.471498E+03  2.483867E+03  3.576380E+02 -1.279950E-09 -3.617278E-11
       145  12  2.204279E+05 -4.586712E+03  3.503273E+02 -2.613918E+03 -6.222755E-10 -3.891603E-10
       145  13  2.376810E+05  6.799511E+03  1.534595E+04 -1.889804E+03  1.243102E-10 -2.106078E-10
       145  14  2.362800E+05 -1.328493E+03  7.547906E+03  1.288269E+01  1.223379E-09 -1.171480E-10
       145  15  2.376822E+05 -2.884255E+02  4.591451E+03 -1.889276E+03 -9.003124E-10 -3.265236E-10
       145  16  2.617443E+05  1.279153E+04  2.125076E+04 -3.303997E+03  1.135260E-09 -3.420982E-11
       145  17  2.569367E+05  3.814481E+03  1.261191E+04 -3.318841E+02  5.836438E-10 -2.864136E-10
       145  18  2.549368E+05  4.009841E+03  8.832552E+03 -1.164615E+03 -2.424371E-09 -1.514208E-10
       145  19  2.136184E+05  8.074941E+02  9.441345E+03 -4.756610E+02 -1.139122E+04 -5.003423E+02
       145  20  2.156237E+05 -6.471483E+03  2.483973E+03  3.576407E+02 -7.500504E+03 -4.518101E+02
       145  21  2.204279E+05 -4.586709E+03  3.503520E+02 -2.613917E+03 -3.609774E+03 -3.264133E+02
       145  22  2.376811E+05  6.799546E+03  1.534619E+04 -1.889799E+03 -1.138822E+04 -5.003149E+02
       145  23  2.362800E+05 -1.328478E+03  7.548012E+03  1.288541E+01 -7.471529E+03 -4.518033E+02
       145  24  2.376822E+05 -2.884220E+02  4.591474E+03 -1.889276E+03 -3.554844E+03 -3.264148E+02
       145  25  2.617444E+05  1.279156E+04  2.125100E+04 -3.303993E+03 -1.138522E+04 -5.002875E+02
       145  26  2.569368E+05  3.814496E+03  1.261202E+04 -3.318814E+02 -7.442553E+03 -4.517964E+02
       145  27  2.549368E+05  4.009844E+03  8.832575E+03 -1.164614E+03 -3.499913E+03 -3.264161E+02
       146   1  2.276925E+05 -1.477328E+03  1.326357E+03 -1.726218E+03  2.855841E+03  2.442569E+02
       146   2  2.308602E+05 -1.688499E+03  4.373836E+02  3.471375E+01  1.881661E+03  1.314256E+02
       146   3  2.344523E+05 -7.100209E+02  4.799395E+02 -1.983305E+03  9.074892E+02  1.022830E+01
       146   4  2.371536E+05  8.766353E+02  3.637599E+03 -1.883699E+03  2.819361E+03  2.442547E+02
       146   5  2.369412E+05 -1.743855E+02  1.928507E+03  5.790016E+00  1.842355E+03  1.314243E+02
       146   6  2.371538E+05 -3.526205E+01  1.152907E+03 -1.883670E+03  8.653622E+02  1.022753E+01
       146   7  2.466148E+05  3.230592E+03  5.948835E+03 -2.041183E+03  2.782880E+03  2.442526E+02
       146   8  2.430223E+05  1.339725E+03  3.419628E+03 -2.313400E+01  1.803048E+03  1.314230E+02
       146   9  2.398553E+05  6.394962E+02  1.825874E+03 -1.784035E+03  8.232351E+02  1.022674E+01
       146  10  2.276925E+05 -1.477330E+03  1.326342E+03 -1.726219E+03 -2.366625E-09 -2.909608E-10
       146  11  2.308602E+05 -1.688500E+03  4.373769E+02  3.471355E+01 -4.420374E-09  2.504457E-10
       146  12  2.344523E+05 -7.100211E+02  4.799379E+02 -1.983305E+03  1.283126E-09 -3.005621E-10
       146  13  2.371536E+05  8.766331E+02  3.637584E+03 -1.883700E+03 -2.219887E-09 -1.695903E-10
       146  14  2.369412E+05 -1.743865E+02  1.928501E+03  5.789821E+00 -1.068671E-09  1.459982E-10
       146  15  2.371538E+05 -3.526225E+01  1.152906E+03 -1.883670E+03  9.036167E-10 -3.454335E-10
       146  16  2.466148E+05  3.230590E+03  5.948820E+03 -2.041183E+03 -2.066397E-09 -1.399119E-11
       146  17  2.430223E+05  1.339725E+03  3.419622E+03 -2.313419E+01 -1.786190E-09 -1.445377E-10
       146  18  2.398553E+05  6.394961E+02  1.825873E+03 -1.784035E+03  6.054764E-10 -3.782867E-10
       146  19  2.276925E+05 -1.477328E+03  1.326357E+03 -1.726218E+03 -2.855841E+03 -2.442569E+02
       146  20  2.308602E+05 -1.688499E+03  4.373836E+02  3.471375E+01 -1.881661E+03 -1.314256E+02
       146  21  2.344523E+05 -7.100209E+02  4.799395E+02 -1.983305E+03 -9.074892E+02 -1.022830E+01
       146  22  2.371536E+05  8.766353E+02  3.637599E+03 -1.883699E+03 -2.819361E+03 -2.442547E+02
       146  23  2.369412E+05 -1.743855E+02  1.928507E+03  5.790016E+00 -1.842355E+03 -1.314243E+02
       146  24  2.371538E+05 -3.526205E+01  1.152907E+03 -1.883670E+03 -8.653622E+02 -1.022753E+01
       146  25  2.466148E+05  3.230592E+03  5.948835E+03 -2.041183E+03 -2.782880E+03 -2.442526E+02
       146  26  2.430223E+05  1.339725E+03  3.419628E+03 -2.313400E+01 -1.803048E+03 -1.314230E+02
       146  27  2.398553E+05  6.394962E+02  1.825874E+03 -1.784035E+03 -8.232351E+02 -1.022674E+01
       147   1  2.421432E+05  1.374712E+03  2.157498E+03 -1.869662E+03  7.203213E+02 -6.128387E+01
       147   2  2.454878E+05  2.079839E+03  2.599457E+03  6.784522E+00  4.569371E+02 -1.811746E+02
       147   3  2.489070E+05  2.944440E+03  3.252820E+03 -1.898129E+03  1.935505E+02 -3.021807E+02
       147   4  2.370759E+05  1.109031E+02  9.044178E+02 -1.884217E+03  6.802109E+02 -6.128481E+01
       147   5  2.370386E+05 -2.396059E+01  5.273658E+02  6.465448E+00  4.164531E+02 -1.811760E+02
       147   6  2.370760E+05  7.035984E-01  3.619656E+02 -1.884215E+03  1.526944E+02 -3.021826E+02
       147   7  2.320087E+05 -1.152907E+03 -3.486642E+02 -1.898772E+03  6.401008E+02 -6.128576E+01
       147   8  2.285895E+05 -2.127765E+03 -1.544730E+03  6.146378E+00  3.759696E+02 -1.811775E+02
       147   9  2.252451E+05 -2.943043E+03 -2.528899E+03 -1.870301E+03  1.118390E+02 -3.021845E+02
       147  10  2.421432E+05  1.374712E+03  2.157497E+03 -1.869662E+03 -6.236474E-10 -7.064098E-11
       147  11  2.454878E+05  2.079839E+03  2.599456E+03  6.784588E+00  5.493907E-10  6.445841E-10
       147  12  2.489070E+05  2.944440E+03  3.252819E+03 -1.898129E+03  3.128349E-10 -4.395945E-10
       147  13  2.370759E+05  1.109030E+02  9.044169E+02 -1.884217E+03  1.583197E-12  7.469768E-11
       147  14  2.370386E+05 -2.396067E+01  5.273654E+02  6.465509E+00 -3.579184E-11  8.681660E-10
       147  15  2.370760E+05  7.034940E-01  3.619653E+02 -1.884215E+03 -2.583029E-09 -4.048855E-10
       147  16  2.320087E+05 -1.152907E+03 -3.486650E+02 -1.898772E+03 -4.155525E-10  2.134764E-10
       147  17  2.285895E+05 -2.127765E+03 -1.544731E+03  6.146433E+00 -2.797450E-09  1.032720E-09
       147  18  2.252451E+05 -2.943043E+03 -2.528899E+03 -1.870301E+03  2.135731E-10 -4.095941E-10
       147  19  2.421432E+05  1.374712E+03  2.157498E+03 -1.869662E+03 -7.203213E+02  6.128387E+01
       147  20  2.454878E+05  2.079839E+03  2.599457E+03  6.784522E+00 -4.569371E+02  1.811746E+02
       147  21  2.489070E+05  2.944440E+03  3.252820E+03 -1.898129E+03 -1.935505E+02  3.021807E+02
       147  22  2.370759E+05  1.109031E+02  9.044178E+02 -1.884217E+03 -6.802109E+02  6.128481E+01
       147  23  2.370386E+05 -2.396059E+01  5.273658E+02  6.465448E+00 -4.164531E+02  1.811760E+02
       147  24  2.370760E+05  7.035983E-01  3.619656E+02 -1.884215E+03 -1.526944E+02  3.021826E+02
       147  25  2.320087E+05 -1.152907E+03 -3.486642E+02 -1.898772E+03 -6.401008E+02  6.128576E+01
       147  26  2.285895E+05 -2.127765E+03 -1.544730E+03  6.146378E+00 -3.759696E+02  1.811775E+02
       147  27  2.252451E+05 -2.943043E+03 -2.528899E+03 -1.870301E+03 -1.118390E+02  3.021845E+02
       148   1  2.567027E+05  4.902794E+03  5.146976E+03 -1.885085E+03  1.319216E+02 -3.730738E+02
       148   2  2.600920E+05  5.726033E+03  5.954198E+03  1.543338E+01 -1.954310E+01 -4.945552E+02
       148   3  2.635221E+05  6.625737E+03  6.879520E+03 -1.896715E+03 -1.710007E+02 -6.153764E+02
       148   4  2.370684E+05  1.188432E+01  3.213565E+02 -1.891173E+03  9.098061E+01 -3.730764E+02
       148   5  2.370480E+05 -1.173937E+01  3.029724E+02  1.516283E+01 -6.025774E+01 -4.945591E+02
       148   6  2.370684E+05  4.106496E+01  4.025363E+02 -1.891176E+03 -2.114881E+02 -6.153817E+02
       148   7  2.174344E+05 -4.879054E+03 -4.504292E+03 -1.897262E+03  5.004087E+01 -3.730790E+02
       148   8  2.140044E+05 -5.749551E+03 -5.348292E+03  1.489227E+01 -1.009709E+02 -4.945631E+02
       148   9  2.106152E+05 -6.543659E+03 -6.074499E+03 -1.885638E+03 -2.519738E+02 -6.153869E+02
       148  10  2.567027E+05  4.902794E+03  5.146976E+03 -1.885085E+03 -1.778632E-09 -2.933523E-10
       148  11  2.600920E+05  5.726033E+03  5.954197E+03  1.543338E+01  3.724148E-09  7.095259E-10
       148  12  2.635221E+05  6.625737E+03  6.879519E+03 -1.896715E+03 -3.741199E-10 -8.034275E-10
       148  13  2.370684E+05  1.188416E+01  3.213562E+02 -1.891173E+03  2.348094E-09 -4.751309E-10
       148  14  2.370480E+05 -1.173963E+01  3.029720E+02  1.516280E+01 -7.351390E-09  5.688736E-10
       148  15  2.370684E+05  4.106454E+01  4.025355E+02 -1.891176E+03 -4.876358E-10 -1.750630E-10
       148  16  2.174344E+05 -4.879055E+03 -4.504292E+03 -1.897262E+03  2.340840E-09 -7.600693E-10
       148  17  2.140044E+05 -5.749552E+03 -5.348292E+03  1.489223E+01 -2.079960E-09  2.541602E-10
       148  18  2.106152E+05 -6.543659E+03 -6.074500E+03 -1.885638E+03 -1.121716E-09  3.786448E-10
       148  19  2.567027E+05  4.902794E+03  5.146976E+03 -1.885085E+03 -1.319216E+02  3.730738E+02
       148  20  2.600920E+05  5.726033E+03  5.954198E+03  1.543338E+01  1.954310E+01  4.945552E+02
       148  21  2.635221E+05  6.625737E+03  6.879520E+03 -1.896715E+03  1.710007E+02  6.153764E+02
       148  22  2.370684E+05  1.188432E+01  3.213565E+02 -1.891173E+03 -9.098061E+01  3.730764E+02
       148  23  2.370480E+05 -1.173937E+01  3.029724E+02  1.516283E+01  6.025774E+01  4.945591E+02
       148  24  2.370684E+05  4.106496E+01  4.025363E+02 -1.891176E+03  2.114881E+02  6.153817E+02
       148  25  2.174344E+05 -4.879054E+03 -4.504292E+03 -1.897262E+03 -5.004087E+01  3.730790E+02
       148  26  2.140044E+05 -5.749551E+03 -5.348292E+03  1.489227E+01  1.009709E+02  4.945631E+02
       148  27  2.106152E+05 -6.543659E+03 -6.074499E+03 -1.885638E+03  2.519738E+02  6.153869E+02
       149   1  2.714480E+05  8.542897E+03  8.917463E+03 -1.864646E+03 -2.472806E+02 -6.890549E+02
       149   2  2.748270E+05  9.348604E+03  1.002994E+04  2.462439E+01 -6.351155E+02 -8.129700E+02
       149   3  2.783748E+05  1.060751E+04  1.150913E+04 -1.959363E+03 -1.022936E+03 -9.230752E+02
       149   4  2.370965E+05 -1.240186E+01  4.827540E+02 -1.904623E+03 -2.912257E+02 -6.890618E+02
       149   5  2.370125E+05 -6.676726E+01  7.568196E+02  3.198535E+01 -6.743980E+02 -8.129787E+02
       149   6  2.370964E+05  3.312887E+02  1.394395E+03 -1.904679E+03 -1.057554E+03 -9.230852E+02
       149   7  2.027461E+05 -8.567788E+03 -7.952042E+03 -1.944598E+03 -3.351683E+02 -6.890688E+02
       149   8  1.991992E+05 -9.482245E+03 -8.516402E+03  3.934583E+01 -7.136781E+02 -8.129873E+02
       149   9  1.958196E+05 -9.945061E+03 -8.720461E+03 -1.849999E+03 -1.092169E+03 -9.230952E+02
       149  10  2.714480E+05  8.542897E+03  8.917462E+03 -1.864646E+03 -3.145958E-10 -7.048268E-10
       149  11  2.748270E+05  9.348604E+03  1.002993E+04  2.462397E+01 -1.462817E-09  3.623709E-10
       149  12  2.783748E+05  1.060751E+04  1.150912E+04 -1.959364E+03 -5.689829E-10 -7.018694E-11
       149  13  2.370965E+05 -1.240240E+01  4.827529E+02 -1.904623E+03  5.357980E-11 -3.817428E-10
       149  14  2.370125E+05 -6.676809E+01  7.568175E+02  3.198491E+01 -4.760476E-11  2.251723E-10
       149  15  2.370964E+05  3.312875E+02  1.394391E+03 -1.904680E+03  2.649000E-09  3.339187E-10
       149  16  2.027461E+05 -8.567789E+03 -7.952043E+03 -1.944598E+03  2.653704E-10 -7.689633E-11
       149  17  1.991992E+05 -9.482246E+03 -8.516404E+03  3.934536E+01  3.459987E-10 -1.140291E-10
       149  18  1.958196E+05 -9.945062E+03 -8.720465E+03 -1.850000E+03  1.104519E-09  1.013010E-09
       149  19  2.714480E+05  8.542897E+03  8.917463E+03 -1.864646E+03  2.472806E+02  6.890549E+02
       149  20  2.748270E+05  9.348604E+03  1.002994E+04  2.462439E+01  6.351155E+02  8.129700E+02
       149  21  2.783748E+05  1.060751E+04  1.150913E+04 -1.959363E+03  1.022936E+03  9.230752E+02
       149  22  2.370965E+05 -1.240186E+01  4.827540E+02 -1.904623E+03  2.912257E+02  6.890618E+02
       149  23  2.370125E+05 -6.676726E+01  7.568196E+02  3.198535E+01  6.743980E+02  8.129787E+02
       149  24  2.370964E+05  3.312887E+02  1.394395E+03 -1.904679E+03  1.057554E+03  9.230852E+02
       149  25  2.027461E+05 -8.567788E+03 -7.952042E+03 -1.944598E+03  3.351683E+02  6.890688E+02
       149  26  1.991992E+05 -9.482245E+03 -8.516402E+03  3.934583E+01  7.136781E+02  8.129873E+02
       149  27  1.958196E+05 -9.945061E+03 -8.720461E+03 -1.849999E+03  1.092169E+03  9.230952E+02
       150   1  2.866269E+05  1.217442E+04  1.385932E+04 -1.642157E+03 -1.271558E+03 -1.016708E+03
       150   2  2.896328E+05  1.265928E+04  1.583121E+04 -6.546261E+01 -2.805844E+03 -1.149553E+03
       150   3  2.937187E+05  1.662794E+04  1.967453E+04 -2.448973E+03 -4.340183E+03 -1.146170E+03
       150   4  2.372972E+05 -1.100770E+02  1.752821E+03 -1.923728E+03 -1.338926E+03 -1.016726E+03
       150   5  2.367609E+05 -5.044678E+02  2.868477E+03  5.600415E+01 -2.827311E+03 -1.149565E+03
       150   6  2.372967E+05  2.577129E+03  5.823794E+03 -1.924481E+03 -4.315740E+03 -1.146173E+03
       150   7  1.879696E+05 -1.239475E+04 -1.035386E+04 -2.205277E+03 -1.406288E+03 -1.016744E+03
       150   8  1.838915E+05 -1.366842E+04 -1.009446E+04  1.774604E+02 -2.848776E+03 -1.149577E+03
       150   9  1.808777E+05 -1.147391E+04 -8.027176E+03 -1.400037E+03 -4.291299E+03 -1.146176E+03
       150  10  2.866269E+05  1.217442E+04  1.385931E+04 -1.642158E+03 -1.888273E-10 -5.744410E-10
       150  11  2.896328E+05  1.265927E+04  1.583120E+04 -6.546521E+01 -2.018877E-09 -3.561127E-10
       150  12  2.937187E+05  1.662793E+04  1.967449E+04 -2.448977E+03  1.513329E-09 -2.827650E-10
       150  13  2.372972E+05 -1.100786E+02  1.752815E+03 -1.923729E+03 -2.046979E-09 -1.269443E-11
       150  14  2.367609E+05 -5.044713E+02  2.868460E+03  5.600153E+01  3.297786E-09 -6.698655E-10
       150  15  2.372967E+05  2.577122E+03  5.823756E+03 -1.924485E+03  3.297756E-10 -3.174680E-10
       150  16  1.879696E+05 -1.239476E+04 -1.035386E+04 -2.205278E+03  2.143687E-10  6.844124E-10
       150  17  1.838915E+05 -1.366842E+04 -1.009448E+04  1.774578E+02 -1.065713E-09 -2.835052E-10
       150  18  1.808777E+05 -1.147392E+04 -8.027213E+03 -1.400041E+03  1.012715E-09 -1.036307E-10
       150  19  2.866269E+05  1.217442E+04  1.385932E+04 -1.642157E+03  1.271558E+03  1.016708E+03
       150  20  2.896328E+05  1.265928E+04  1.583121E+04 -6.546261E+01  2.805844E+03  1.149553E+03
       150  21  2.937187E+05  1.662794E+04  1.967453E+04 -2.448973E+03  4.340183E+03  1.146170E+03
       150  22  2.372972E+05 -1.100770E+02  1.752821E+03 -1.923728E+03  1.338926E+03  1.016726E+03
       150  23  2.367609E+05 -5.044678E+02  2.868477E+03  5.600415E+01  2.827311E+03  1.149565E+03
       150  24  2.372967E+05  2.577129E+03  5.823794E+03 -1.924481E+03  4.315740E+03  1.146173E+03
       150  25  1.879696E+05 -1.239475E+04 -1.035386E+04 -2.205277E+03  1.406288E+03  1.016744E+03
       150  26  1.838915E+05 -1.366842E+04 -1.009446E+04  1.774604E+02  2.848776E+03  1.149577E+03
       150  27  1.808777E+05 -1.147391E+04 -8.027176E+03 -1.400037E+03  4.291299E+03  1.146176E+03
       151   1  3.034015E+05  1.524746E+04  2.293674E+04  1.073745E+02 -5.181894E+03 -1.408997E+03
       151   2  3.033036E+05  1.316315E+04  2.774033E+04 -1.085511E+03 -1.159008E+04 -1.601472E+03
       151   3  3.107338E+05  3.779619E+04  4.339698E+04 -6.348206E+03 -1.799882E+04 -5.490865E+02
       151   4  2.387157E+05 -8.591702E+02  7.077764E+03 -1.945528E+03 -5.454703E+03 -1.409077E+03
       151   5  2.349864E+05 -3.840010E+03  1.101584E+04  8.490620E+01 -1.144389E+04 -1.601449E+03
       151   6  2.387133E+05  1.982532E+04  2.551694E+04 -1.954461E+03 -1.743360E+04 -5.489672E+02
       151   7  1.740337E+05 -1.696610E+04 -8.781514E+03 -3.998216E+03 -5.727483E+03 -1.409155E+03
       151   8  1.666735E+05 -2.084351E+04 -5.708981E+03  1.255194E+03 -1.129773E+04 -1.601426E+03
       151   9  1.666976E+05  1.854125E+03  7.636530E+03  2.438773E+03 -1.686845E+04 -5.488400E+02
       151  10  3.034015E+05  1.524745E+04  2.293668E+04  1.073686E+02  5.847527E-10 -3.720211E-10
       151  11  3.033035E+05  1.316311E+04  2.774007E+04 -1.085526E+03  3.847981E-09 -6.910207E-10
       151  12  3.107334E+05  3.779610E+04  4.339637E+04 -6.348214E+03 -1.575453E-10 -2.010692E-10
       151  13  2.387157E+05 -8.591803E+02  7.077704E+03 -1.945534E+03  2.068408E-09 -1.344382E-09
       151  14  2.349863E+05 -3.840048E+03  1.101559E+04  8.489144E+01  1.434527E-09  7.984383E-10
       151  15  2.387130E+05  1.982523E+04  2.551637E+04 -1.954469E+03 -2.351032E-09  4.611206E-12
       151  16  1.740337E+05 -1.696611E+04 -8.781579E+03 -3.998222E+03 -6.930908E-11 -1.288815E-10
       151  17  1.666734E+05 -2.084355E+04 -5.709226E+03  1.255179E+03 -4.726982E-09  2.374917E-10
       151  18  1.666973E+05  1.854048E+03  7.635994E+03  2.438766E+03  8.133200E-11 -5.767198E-10
       151  19  3.034015E+05  1.524746E+04  2.293674E+04  1.073745E+02  5.181894E+03  1.408997E+03
       151  20  3.033036E+05  1.316315E+04  2.774033E+04 -1.085511E+03  1.159008E+04  1.601472E+03
       151  21  3.107338E+05  3.779619E+04  4.339698E+04 -6.348206E+03  1.799882E+04  5.490865E+02
       151  22  2.387157E+05 -8.591702E+02  7.077764E+03 -1.945528E+03  5.454703E+03  1.409077E+03
       151  23  2.349864E+05 -3.840010E+03  1.101584E+04  8.490620E+01  1.144389E+04  1.601449E+03
       151  24  2.387133E+05  1.982532E+04  2.551694E+04 -1.954461E+03  1.743360E+04  5.489672E+02
       151  25  1.740337E+05 -1.696610E+04 -8.781514E+03 -3.998216E+03  5.727483E+03  1.409155E+03
       151  26  1.666735E+05 -2.084351E+04 -5.708981E+03  1.255194E+03  1.129773E+04  1.601426E+03
       151  27  1.666976E+05  1.854125E+03  7.636530E+03  2.438773E+03  1.686845E+04  5.488400E+02
       152   1  2.236506E+06  9.057660E+06  2.246504E+06 -9.923988E+05  6.300119E+04  9.673835E+04
       152   2  1.729779E+06  7.276819E+06  1.757527E+06 -5.540261E+04  1.693561E+05  1.876327E+04
       152   3  1.374303E+06  5.629509E+06  1.373163E+06 -1.016480E+06  1.035773E+05 -6.066088E+04
       152   4  5.148675E+04  2.583747E+05  7.279413E+04 -9.533409E+05  6.332473E+04  3.125121E+04
       152   5 -2.520488E+04  1.982046E+05  3.276060E+04 -3.437374E+03  1.695440E+05  1.208833E+04
       152   6  3.953918E+04  2.584088E+05  5.735659E+04 -9.530014E+05  1.027644E+05 -8.747560E+03
       152   7 -2.139289E+06 -8.471214E+06 -2.106641E+06 -9.147104E+05  6.364313E+04 -3.332132E+04
       152   8 -1.783868E+06 -6.835062E+06 -1.695646E+06  4.804802E+04  1.697322E+05  5.488128E+03
       152   9 -1.297350E+06 -5.086567E+06 -1.260552E+06 -8.899419E+05  1.019584E+05  4.272081E+04
       152  10  2.236499E+06  9.057649E+06  2.246479E+06 -9.924037E+05  3.607251E-09 -5.024155E-09
       152  11  1.729748E+06  7.276811E+06  1.757473E+06 -5.540516E+04 -3.294623E-11 -1.632729E-08
       152  12  1.374291E+06  5.629503E+06  1.373136E+06 -1.016475E+06  1.389310E-09  2.708493E-08
       152  13  5.148217E+04  2.583726E+05  7.278474E+04 -9.533425E+05 -3.541350E-10 -1.214105E-11
       152  14 -2.523579E+04  1.981967E+05  3.270630E+04 -3.439024E+03 -3.768945E-11 -5.147181E-09
       152  15  3.952782E+04  2.584059E+05  5.733661E+04 -9.530006E+05  3.587966E-10 -1.954230E-09
       152  16 -2.139294E+06 -8.471216E+06 -2.106651E+06 -9.147087E+05  1.442693E-09  5.019097E-09
       152  17 -1.783899E+06 -6.835070E+06 -1.695700E+06  4.804726E+04  8.244906E-09  2.777309E-08
       152  18 -1.297362E+06 -5.086572E+06 -1.260575E+06 -8.899454E+05  4.124491E-10 -1.996292E-08
       152  19  2.236506E+06  9.057660E+06  2.246504E+06 -9.923988E+05 -6.300119E+04 -9.673835E+04
       152  20  1.729779E+06  7.276819E+06  1.757527E+06 -5.540261E+04 -1.693561E+05 -1.876327E+04
       152  21  1.374303E+06  5.629509E+06  1.373163E+06 -1.016480E+06 -1.035773E+05  6.066088E+04
       152  22  5.148675E+04  2.583747E+05  7.279413E+04 -9.533409E+05 -6.332473E+04 -3.125121E+04
       152  23 -2.520488E+04  1.982046E+05  3.276060E+04 -3.437374E+03 -1.695440E+05 -1.208833E+04
       152  24  3.953918E+04  2.584088E+05  5.735659E+04 -9.530014E+05 -1.027644E+05  8.747560E+03
       152  25 -2.139289E+06 -8.471214E+06 -2.106641E+06 -9.147104E+05 -6.364313E+04  3.332132E+04
       152  26 -1.783868E+06 -6.835062E+06 -1.695646E+06  4.804802E+04 -1.697322E+05 -5.488128E+03
       152  27 -1.297350E+06 -5.086567E+06 -1.260552E+06 -8.899419E+05 -1.019584E+05 -4.272081E+04
       153   1  3.920157E+05  1.689632E+06  4.110745E+05 -9.762572E+05  3.852330E+04 -3.568250E+04
       153   2 -6.825784E+04  1.556458E+04  1.985992E+04  4.897238E+02 -3.833069E+03 -7.582631E+04
       153   3 -3.978002E+05 -1.698017E+06 -3.296673E+05 -9.150679E+05 -4.521638E+04 -1.158148E+05
       153   4  2.868933E+04  2.306241E+05  5.490921E+04 -9.518236E+05  3.825718E+04 -2.103078E+04
       153   5 -9.270285E+03  2.517154E+05  7.779160E+04 -5.249191E+03 -4.083681E+03 -6.153266E+04
       153   6  8.372439E+04  2.306346E+05  1.427345E+05 -9.508649E+05 -4.545572E+04 -1.019861E+05
       153   7 -3.347930E+05 -1.226446E+06 -3.014103E+05 -9.274370E+05  3.799187E+04 -6.413305E+03
       153   8  4.971331E+04  4.879174E+05  1.357200E+05 -1.099008E+04 -4.334509E+03 -4.723357E+04
       153   9  5.649758E+05  2.162681E+06  6.148647E+05 -9.867557E+05 -4.569627E+04 -8.811412E+04
       153  10  3.920138E+05  1.689630E+06  4.110693E+05 -9.762561E+05 -7.003790E-09 -4.356060E-09
       153  11 -6.825940E+04  1.555841E+04  1.984909E+04  4.894897E+02  4.155900E-09 -3.688618E-08
       153  12 -3.978060E+05 -1.698032E+06 -3.296965E+05 -9.150722E+05 -3.914821E-09  2.897594E-08
       153  13  2.868764E+04  2.306232E+05  5.490564E+04 -9.518229E+05 -2.076727E-09  4.818303E-11
       153  14 -9.271319E+03  2.517113E+05  7.778445E+04 -5.249394E+03  9.158087E-09 -9.524960E-09
       153  15  8.371937E+04  2.306229E+05  1.427110E+05 -9.508686E+05  1.818531E-08 -2.167835E-09
       153  16 -3.347945E+05 -1.226446E+06 -3.014131E+05 -9.274369E+05 -2.205790E-09  4.379818E-09
       153  17  4.971270E+04  4.879150E+05  1.357157E+05 -1.099024E+04 -1.559876E-08  5.579727E-08
       153  18  5.649715E+05  2.162673E+06  6.148462E+05 -9.867589E+05  2.058206E-09 -2.006957E-08
       153  19  3.920157E+05  1.689632E+06  4.110745E+05 -9.762572E+05 -3.852330E+04  3.568250E+04
       153  20 -6.825784E+04  1.556458E+04  1.985992E+04  4.897238E+02  3.833069E+03  7.582631E+04
       153  21 -3.978002E+05 -1.698017E+06 -3.296673E+05 -9.150679E+05  4.521638E+04  1.158148E+05
       153  22  2.868933E+04  2.306241E+05  5.490921E+04 -9.518236E+05 -3.825718E+04  2.103078E+04
       153  23 -9.270285E+03  2.517154E+05  7.779160E+04 -5.249191E+03  4.083681E+03  6.153266E+04
       153  24  8.372439E+04  2.306346E+05  1.427345E+05 -9.508649E+05  4.545572E+04  1.019861E+05
       153  25 -3.347930E+05 -1.226446E+06 -3.014103E+05 -9.274370E+05 -3.799187E+04  6.413305E+03
       153  26  4.971331E+04  4.879174E+05  1.357200E+05 -1.099008E+04  4.334509E+03  4.723357E+04
       153  27  5.649758E+05  2.162681E+06  6.148647E+05 -9.867557E+05  4.569627E+04  8.811412E+04
       154   1 -1.439417E+06 -5.517861E+06 -1.251781E+06 -9.302185E+05 -1.101038E+05 -1.852475E+05
       154   2 -1.985298E+06 -7.356271E+06 -1.590307E+06  7.093692E+04 -1.783971E+05 -2.656468E+05
       154   3 -1.837100E+06 -8.902445E+06 -1.681512E+06 -8.308289E+05 -6.630372E+04 -3.443218E+05
       154   4  1.352005E+04  2.968841E+05  1.815807E+05 -9.542622E+05 -1.108901E+05 -1.330196E+05
       154   5 -1.078543E+05  1.475165E+05  2.543890E+05 -3.016891E+03 -1.781647E+05 -2.749773E+05
       154   6  4.720895E+05  2.968487E+05  6.153220E+05 -9.531769E+05 -6.600260E+04 -4.154499E+05
       154   7  1.463937E+06  6.142564E+06  1.612455E+06 -9.783859E+05 -1.116766E+05 -8.029527E+04
       154   8  1.765404E+06  7.702953E+06  2.094941E+06 -7.776422E+04 -1.779322E+05 -2.844053E+05
       154   9  2.774931E+06  9.573628E+06  2.905804E+06 -1.077254E+06 -6.567671E+04 -4.876057E+05
       154  10 -1.439440E+06 -5.517901E+06 -1.251869E+06 -9.302350E+05  3.224599E-11  1.084902E-09
       154  11 -1.985351E+06 -7.356356E+06 -1.590501E+06  7.089857E+04 -3.989555E-09 -2.202385E-08
       154  12 -1.837137E+06 -8.902575E+06 -1.681746E+06 -8.308475E+05 -2.306425E-09 -2.857348E-09
       154  13  1.350207E+04  2.968618E+05  1.815242E+05 -9.542741E+05 -8.089297E-09  4.253328E-11
       154  14 -1.079086E+05  1.474268E+05  2.541873E+05 -3.056335E+03 -3.887229E-09 -4.780858E-09
       154  15  4.720385E+05  2.966622E+05  6.149894E+05 -9.531990E+05 -4.415287E-09 -1.080534E-10
       154  16  1.463922E+06  6.142554E+06  1.612419E+06 -9.783931E+05  8.659295E-09 -8.960462E-10
       154  17  1.765349E+06  7.702859E+06  2.094731E+06 -7.780476E+04 -9.599875E-09  3.048344E-08
       154  18  2.774863E+06  9.573375E+06  2.905356E+06 -1.077280E+06 -6.987120E-09  3.373644E-09
       154  19 -1.439417E+06 -5.517861E+06 -1.251781E+06 -9.302185E+05  1.101038E+05  1.852475E+05
       154  20 -1.985298E+06 -7.356271E+06 -1.590307E+06  7.093692E+04  1.783971E+05  2.656468E+05
       154  21 -1.837100E+06 -8.902445E+06 -1.681512E+06 -8.308289E+05  6.630372E+04  3.443218E+05
       154  22  1.352005E+04  2.968841E+05  1.815807E+05 -9.542622E+05  1.108901E+05  1.330196E+05
       154  23 -1.078543E+05  1.475165E+05  2.543890E+05 -3.016891E+03  1.781647E+05  2.749773E+05
       154  24  4.720895E+05  2.968487E+05  6.153220E+05 -9.531769E+05  6.600260E+04  4.154499E+05
       154  25  1.463937E+06  6.142564E+06  1.612455E+06 -9.783859E+05  1.116766E+05  8.029527E+04
       154  26  1.765404E+06  7.702953E+06  2.094941E+06 -7.776422E+04  1.779322E+05  2.844053E+05
       154  27  2.774931E+06  9.573628E+06  2.905804E+06 -1.077254E+06  6.567671E+04  4.876057E+05
       155   1 -3.341145E+05 -1.470996E+05 -7.089702E+04 -1.534847E+05 -3.689605E+04 -1.240193E+04
       155   2 -3.157964E+05 -1.016932E+05 -3.785177E+04 -1.443319E+05 -2.196814E+04 -3.781727E+03
       155   3 -3.040107E+05 -7.898833E+04 -2.200871E+04 -1.339808E+05 -6.061661E+03  2.232833E+03
       155   4 -2.467862E+05 -9.044527E+04 -4.386767E+04 -1.049397E+05 -2.908721E+04 -9.474310E+03
       155   5 -2.416905E+05 -6.299464E+04 -2.079385E+04 -1.117686E+05 -1.931003E+04 -2.785151E+03
       155   6 -2.421057E+05 -5.722420E+04 -1.083934E+04 -1.174000E+05 -8.554680E+03  1.297652E+03
       155   7 -1.594506E+05 -3.378564E+04 -1.683922E+04 -5.638803E+04 -2.127733E+04 -6.545545E+03
       155   8 -1.675791E+05 -2.429386E+04 -3.736320E+03 -7.920134E+04 -1.665159E+04 -1.788328E+03
       155   9 -1.801962E+05 -3.545960E+04  3.300553E+02 -1.008175E+05 -1.104798E+04  3.623711E+02
       155  10 -3.341160E+05 -1.471001E+05 -7.089987E+04 -1.534850E+05 -1.141350E-09 -1.014979E-09
       155  11 -3.157969E+05 -1.016934E+05 -3.785270E+04 -1.443320E+05  5.555478E-09 -5.097523E-10
       155  12 -3.040108E+05 -7.898834E+04 -2.200879E+04 -1.339807E+05 -1.311768E-09 -1.313607E-09
       155  13 -2.467871E+05 -9.044559E+04 -4.386943E+04 -1.049399E+05  2.010480E-09  7.452195E-10
       155  14 -2.416909E+05 -6.299475E+04 -2.079456E+04 -1.117687E+05  2.008027E-09  5.285027E-10
       155  15 -2.421058E+05 -5.722422E+04 -1.083948E+04 -1.174000E+05 -1.053127E-08 -2.717845E-09
       155  16 -1.594511E+05 -3.378581E+04 -1.684015E+04 -5.638814E+04  2.324734E-09  2.221609E-09
       155  17 -1.675794E+05 -2.429394E+04 -3.736847E+03 -7.920136E+04 -3.209944E-09  1.744058E-09
       155  18 -1.801963E+05 -3.545963E+04  3.298256E+02 -1.008175E+05 -1.313177E-08 -4.072651E-09
       155  19 -3.341145E+05 -1.470996E+05 -7.089702E+04 -1.534847E+05  3.689605E+04  1.240193E+04
       155  20 -3.157964E+05 -1.016932E+05 -3.785177E+04 -1.443319E+05  2.196814E+04  3.781727E+03
       155  21 -3.040107E+05 -7.898833E+04 -2.200871E+04 -1.339808E+05  6.061661E+03 -2.232833E+03
       155  22 -2.467862E+05 -9.044527E+04 -4.386767E+04 -1.049397E+05  2.908721E+04  9.474310E+03
       155  23 -2.416905E+05 -6.299464E+04 -2.079385E+04 -1.117686E+05  1.931003E+04  2.785151E+03
       155  24 -2.421057E+05 -5.722420E+04 -1.083934E+04 -1.174000E+05  8.554680E+03 -1.297652E+03
       155  25 -1.594506E+05 -3.378564E+04 -1.683922E+04 -5.638803E+04  2.127733E+04  6.545545E+03
       155  26 -1.675791E+05 -2.429386E+04 -3.736320E+03 -7.920134E+04  1.665159E+04  1.788328E+03
       155  27 -1.801962E+05 -3.545960E+04  3.300553E+02 -1.008175E+05  1.104798E+04 -3.623711E+02
       156   1 -2.876807E+05 -7.481917E+04 -1.662834E+04 -1.313204E+05 -4.692131E+03  1.822392E+03
       156   2 -2.675620E+05 -6.328032E+04 -8.738446E+03 -1.235342E+05 -1.534607E+03  1.502317E+03
       156   3 -2.452695E+05 -5.620591E+04 -3.205911E+03 -1.189847E+05  1.724591E+03  9.113522E+02
       156   4 -2.408541E+05 -5.678393E+04 -8.079489E+03 -1.171063E+05 -7.031659E+03  9.448050E+02
       156   5 -2.418462E+05 -5.355768E+04 -4.216817E+03 -1.158804E+05 -4.409563E+03  4.239330E+02
       156   6 -2.405587E+05 -5.468973E+04 -2.287051E+03 -1.178915E+05 -1.685858E+03 -3.678631E+02
       156   7 -1.940257E+05 -3.874860E+04  4.691618E+02 -1.028912E+05 -9.371349E+03  6.714706E+01
       156   8 -2.161296E+05 -4.383494E+04  3.048276E+02 -1.082263E+05 -7.284645E+03 -6.545041E+02
       156   9 -2.358477E+05 -5.317353E+04 -1.368128E+03 -1.167982E+05 -5.096372E+03 -1.647100E+03
       156  10 -2.876808E+05 -7.481918E+04 -1.662839E+04 -1.313204E+05 -1.189411E-08 -5.001955E-09
       156  11 -2.675620E+05 -6.328033E+04 -8.738455E+03 -1.235342E+05 -1.837865E-09 -9.884140E-10
       156  12 -2.452695E+05 -5.620591E+04 -3.205918E+03 -1.189847E+05 -5.728509E-09  1.203920E-09
       156  13 -2.408542E+05 -5.678394E+04 -8.079584E+03 -1.171063E+05 -1.184685E-08 -3.538294E-09
       156  14 -2.418462E+05 -5.355768E+04 -4.216854E+03 -1.158804E+05 -6.408456E-10 -1.306800E-09
       156  15 -2.405587E+05 -5.468974E+04 -2.287056E+03 -1.178915E+05  3.764749E-10  5.950326E-10
       156  16 -1.940258E+05 -3.874863E+04  4.689967E+02 -1.028912E+05 -4.954669E-09 -2.038450E-09
       156  17 -2.161297E+05 -4.383496E+04  3.047270E+02 -1.082263E+05  1.448571E-09 -1.261049E-09
       156  18 -2.358478E+05 -5.317354E+04 -1.368182E+03 -1.167982E+05  3.510499E-09  6.096213E-11
       156  19 -2.876807E+05 -7.481917E+04 -1.662834E+04 -1.313204E+05  4.692131E+03 -1.822392E+03
       156  20 -2.675620E+05 -6.328032E+04 -8.738446E+03 -1.235342E+05  1.534607E+03 -1.502317E+03
       156  21 -2.452695E+05 -5.620591E+04 -3.205911E+03 -1.189847E+05 -1.724591E+03 -9.113522E+02
       156  22 -2.408541E+05 -5.678393E+04 -8.079489E+03 -1.171063E+05  7.031659E+03 -9.448050E+02
       156  23 -2.418462E+05 -5.355768E+04 -4.216817E+03 -1.158804E+05  4.409563E+03 -4.239330E+02
       156  24 -2.405587E+05 -5.468973E+04 -2.287051E+03 -1.178915E+05  1.685858E+03  3.678631E+02
       156  25 -1.940257E+05 -3.874860E+04  4.691618E+02 -1.028912E+05  9.371349E+03 -6.714706E+01
       156  26 -2.161296E+05 -4.383494E+04  3.048276E+02 -1.082263E+05  7.284645E+03  6.545041E+02
       156  27 -2.358477E+05 -5.317353E+04 -1.368128E+03 -1.167982E+05  5.096372E+03  1.647100E+03
       157   1 -2.313953E+05 -5.139730E+04 -3.460255E+02 -1.152581E+05  2.398677E+03  9.825250E+00
       157   2 -2.113361E+05 -4.207515E+04  3.844421E+03 -1.074910E+05  3.568241E+03 -1.526123E+03
       157   3 -1.883258E+05 -3.590799E+04  7.623006E+03 -1.032208E+05  4.748319E+03 -3.090023E+03
       157   4 -2.404429E+05 -5.467500E+04 -1.711942E+03 -1.178536E+05 -9.958289E+02 -1.263416E+03
       157   5 -2.419179E+05 -5.305916E+04 -9.305662E+02 -1.161215E+05  1.184196E+02 -2.820152E+03
       157   6 -2.404312E+05 -5.458739E+04 -5.172184E+02 -1.178867E+05  1.243159E+03 -4.404844E+03
       157   7 -2.494904E+05 -5.795267E+04 -3.077809E+03 -1.204490E+05 -4.390281E+03 -2.536636E+03
       157   8 -2.724984E+05 -6.404299E+04 -5.705465E+03 -1.247517E+05 -3.331202E+03 -4.114104E+03
       157   9 -2.925330E+05 -7.326625E+04 -8.657262E+03 -1.325512E+05 -2.261649E+03 -5.719531E+03
       157  10 -2.313953E+05 -5.139730E+04 -3.460363E+02 -1.152581E+05 -2.847904E-09  2.174372E-09
       157  11 -2.113361E+05 -4.207516E+04  3.844393E+03 -1.074909E+05 -2.726809E-09  1.647216E-10
       157  12 -1.883258E+05 -3.590800E+04  7.622945E+03 -1.032208E+05 -2.519088E-09  3.839554E-10
       157  13 -2.404429E+05 -5.467500E+04 -1.711947E+03 -1.178536E+05 -1.895768E-10  6.129799E-10
       157  14 -2.419179E+05 -5.305917E+04 -9.305812E+02 -1.161215E+05  2.978946E-10 -3.929619E-10
       157  15 -2.404312E+05 -5.458741E+04 -5.172578E+02 -1.178867E+05  1.043647E-09 -8.722529E-10
       157  16 -2.494904E+05 -5.795268E+04 -3.077857E+03 -1.204490E+05  2.036062E-09 -8.694382E-10
       157  17 -2.724984E+05 -6.404301E+04 -5.705518E+03 -1.247517E+05  4.086894E-09 -1.014146E-09
       157  18 -2.925330E+05 -7.326629E+04 -8.657333E+03 -1.325512E+05  3.908955E-09 -2.084598E-09
       157  19 -2.313953E+05 -5.139730E+04 -3.460255E+02 -1.152581E+05 -2.398677E+03 -9.825250E+00
       157  20 -2.113361E+05 -4.207515E+04  3.844421E+03 -1.074910E+05 -3.568241E+03  1.526123E+03
       157  21 -1.883258E+05 -3.590799E+04  7.623006E+03 -1.032208E+05 -4.748319E+03  3.090023E+03
       157  22 -2.404429E+05 -5.467500E+04 -1.711942E+03 -1.178536E+05  9.958289E+02  1.263416E+03
       157  23 -2.419179E+05 -5.305916E+04 -9.305662E+02 -1.161215E+05 -1.184196E+02  2.820152E+03
       157  24 -2.404312E+05 -5.458739E+04 -5.172184E+02 -1.178867E+05 -1.243159E+03  4.404844E+03
       157  25 -2.494904E+05 -5.795267E+04 -3.077809E+03 -1.204490E+05  4.390281E+03  2.536636E+03
       157  26 -2.724984E+05 -6.404299E+04 -5.705465E+03 -1.247517E+05  3.331202E+03  4.114104E+03
       157  27 -2.925330E+05 -7.326625E+04 -8.657262E+03 -1.325512E+05  2.261649E+03  5.719531E+03
       158   1 -1.746687E+05 -3.102937E+04  9.997891E+03 -9.941384E+04  5.208595E+03 -4.095369E+03
       158   2 -1.546592E+05 -2.182030E+04  1.350545E+04 -9.163355E+04  5.991138E+03 -5.824118E+03
       158   3 -1.316116E+05 -1.567079E+04  1.692491E+04 -8.735406E+04  6.774416E+03 -7.554524E+03
       158   4 -2.404172E+05 -5.459004E+04 -3.920700E+02 -1.178795E+05  1.705347E+03 -5.409521E+03
       158   5 -2.419375E+05 -5.306507E+04 -2.289676E+02 -1.161275E+05  2.484475E+03 -7.139683E+03
       158   6 -2.404200E+05 -5.459932E+04 -1.514407E+02 -1.178766E+05  3.264332E+03 -8.871500E+03
       158   7 -3.061619E+05 -7.815054E+04 -1.078227E+04 -1.363435E+05 -1.797550E+03 -6.723541E+03
       158   8 -3.292081E+05 -8.430923E+04 -1.396361E+04 -1.406183E+05 -1.021687E+03 -8.455061E+03
       158   9 -3.492156E+05 -9.352662E+04 -1.722795E+04 -1.483942E+05 -2.451030E+02 -1.018823E+04
       158  10 -1.746688E+05 -3.102940E+04  9.997808E+03 -9.941382E+04 -5.861662E-09 -3.351588E-10
       158  11 -1.546593E+05 -2.182035E+04  1.350531E+04 -9.163352E+04  6.522431E-09  4.323989E-09
       158  12 -1.316117E+05 -1.567086E+04  1.692471E+04 -8.735402E+04  8.710838E-09  3.524176E-09
       158  13 -2.404172E+05 -5.459007E+04 -3.921305E+02 -1.178795E+05  8.423192E-09  7.193580E-10
       158  14 -2.419376E+05 -5.306512E+04 -2.290749E+02 -1.161274E+05  9.020621E-09  2.868826E-09
       158  15 -2.404200E+05 -5.459940E+04 -1.516086E+02 -1.178766E+05  3.134152E-09  2.543241E-10
       158  16 -3.061619E+05 -7.815059E+04 -1.078237E+04 -1.363435E+05  1.188759E-08  1.776571E-09
       158  17 -3.292082E+05 -8.430931E+04 -1.396375E+04 -1.406183E+05  9.701902E-09  1.646236E-09
       158  18 -3.492156E+05 -9.352673E+04 -1.722815E+04 -1.483942E+05 -7.965966E-09 -3.014327E-09
       158  19 -1.746687E+05 -3.102937E+04  9.997891E+03 -9.941384E+04 -5.208595E+03  4.095369E+03
       158  20 -1.546592E+05 -2.182030E+04  1.350545E+04 -9.163355E+04 -5.991138E+03  5.824118E+03
       158  21 -1.316116E+05 -1.567079E+04  1.692491E+04 -8.735406E+04 -6.774416E+03  7.554524E+03
       158  22 -2.404172E+05 -5.459004E+04 -3.920700E+02 -1.178795E+05 -1.705347E+03  5.409521E+03
       158  23 -2.419375E+05 -5.306507E+04 -2.289676E+02 -1.161275E+05 -2.484475E+03  7.139683E+03
       158  24 -2.404200E+05 -5.459932E+04 -1.514407E+02 -1.178766E+05 -3.264332E+03  8.871500E+03
       158  25 -3.061619E+05 -7.815054E+04 -1.078227E+04 -1.363435E+05  1.797550E+03  6.723541E+03
       158  26 -3.292081E+05 -8.430923E+04 -1.396361E+04 -1.406183E+05  1.021687E+03  8.455061E+03
       158  27 -3.492156E+05 -9.352662E+04 -1.722795E+04 -1.483942E+05  2.451030E+02  1.018823E+04
       159   1 -1.179853E+05 -1.078297E+04  1.918807E+04 -8.354214E+04  7.186010E+03 -8.579248E+03
       159   2 -9.799699E+04 -1.574120E+03  2.253143E+04 -7.576216E+04  7.899464E+03 -1.033143E+04
       159   3 -7.496074E+04  4.583702E+03  2.583916E+04 -7.147907E+04  8.609632E+03 -1.207439E+04
       159   4 -2.404201E+05 -5.460066E+04 -1.346108E+02 -1.178753E+05  3.676101E+03 -9.896250E+03
       159   5 -2.419431E+05 -5.307638E+04 -1.347820E+02 -1.161260E+05  4.407660E+03 -1.164184E+04
       159   6 -2.404223E+05 -5.460664E+04 -1.848859E+02 -1.178736E+05  5.135934E+03 -1.337821E+04
       159   7 -3.628373E+05 -9.841624E+04 -1.945712E+04 -1.522017E+05  1.669644E+02 -1.121296E+04
       159   8 -3.858669E+05 -1.045765E+05 -2.280131E+04 -1.564810E+05  9.167119E+02 -1.295192E+04
       159   9 -4.058562E+05 -1.137948E+05 -2.620989E+04 -1.642571E+05  1.663177E+03 -1.468168E+04
       159  10 -1.179854E+05 -1.078307E+04  1.918784E+04 -8.354209E+04 -1.171288E-08 -3.265872E-09
       159  11 -9.799708E+04 -1.574252E+03  2.253112E+04 -7.576209E+04  2.743144E-09  3.996505E-09
       159  12 -7.496086E+04  4.583525E+03  2.583875E+04 -7.147899E+04  1.162320E-08  3.074891E-09
       159  13 -2.404201E+05 -5.460077E+04 -1.348202E+02 -1.178753E+05  6.124925E-09  7.103506E-10
       159  14 -2.419432E+05 -5.307653E+04 -1.350732E+02 -1.161259E+05  1.167554E-08  3.904088E-09
       159  15 -2.404223E+05 -5.460684E+04 -1.852718E+02 -1.178736E+05  2.655066E-09  7.144795E-10
       159  16 -3.628373E+05 -9.841638E+04 -1.945736E+04 -1.522017E+05  1.033121E-08  4.580780E-09
       159  17 -3.858670E+05 -1.045767E+05 -2.280163E+04 -1.564810E+05  5.403298E-09  4.590052E-09
       159  18 -4.058562E+05 -1.137951E+05 -2.621030E+04 -1.642571E+05 -5.668353E-09 -1.117792E-09
       159  19 -1.179853E+05 -1.078297E+04  1.918807E+04 -8.354214E+04 -7.186010E+03  8.579248E+03
       159  20 -9.799699E+04 -1.574120E+03  2.253143E+04 -7.576216E+04 -7.899464E+03  1.033143E+04
       159  21 -7.496074E+04  4.583702E+03  2.583916E+04 -7.147907E+04 -8.609632E+03  1.207439E+04
       159  22 -2.404201E+05 -5.460066E+04 -1.346108E+02 -1.178753E+05 -3.676101E+03  9.896250E+03
       159  23 -2.419431E+05 -5.307638E+04 -1.347820E+02 -1.161260E+05 -4.407660E+03  1.164184E+04
       159  24 -2.404223E+05 -5.460664E+04 -1.848859E+02 -1.178736E+05 -5.135934E+03  1.337821E+04
       159  25 -3.628373E+05 -9.841624E+04 -1.945712E+04 -1.522017E+05 -1.669644E+02  1.121296E+04
       159  26 -3.858669E+05 -1.045765E+05 -2.280131E+04 -1.564810E+05 -9.167119E+02  1.295192E+04
       159  27 -4.058562E+05 -1.137948E+05 -2.620989E+04 -1.642571E+05 -1.663177E+03  1.468168E+04
       160   1 -6.134473E+04  9.472108E+03  2.804823E+04 -6.767254E+04  9.033490E+03 -1.308622E+04
       160   2 -4.137819E+04  1.868597E+04  3.129955E+04 -5.989563E+04  9.702888E+03 -1.479185E+04
       160   3 -1.836792E+04  2.485077E+04  3.453163E+04 -5.560451E+04  1.033976E+04 -1.641021E+04
       160   4 -2.404304E+05 -5.460614E+04 -2.314259E+02 -1.178744E+05  5.555556E+03 -1.439177E+04
       160   5 -2.419401E+05 -5.308715E+04 -3.962229E+02 -1.161237E+05  6.397374E+03 -1.603298E+04
       160   6 -2.404406E+05 -5.465154E+04 -7.168501E+02 -1.178591E+05  7.206660E+03 -1.758689E+04
       160   7 -4.194814E+05 -1.186810E+05 -2.851158E+04 -1.680626E+05  2.078685E+03 -1.569693E+04
       160   8 -4.424575E+05 -1.248556E+05 -3.209233E+04 -1.723343E+05  3.093010E+03 -1.727368E+04
       160   9 -4.624576E+05 -1.341477E+05 -3.596548E+04 -1.800919E+05  4.074779E+03 -1.876311E+04
       160  10 -6.134486E+04  9.471902E+03  2.804775E+04 -6.767244E+04 -1.366688E-09 -3.044256E-09
       160  11 -4.137835E+04  1.868571E+04  3.129896E+04 -5.989552E+04 -2.025066E-09 -2.774976E-09
       160  12 -1.836811E+04  2.485046E+04  3.453093E+04 -5.560438E+04  9.472611E-10 -1.106258E-09
       160  13 -2.404304E+05 -5.460637E+04 -2.318730E+02 -1.178743E+05 -4.071890E-09 -1.335070E-09
       160  14 -2.419402E+05 -5.308744E+04 -3.967827E+02 -1.161236E+05  2.186437E-09 -7.048731E-10
       160  15 -2.404407E+05 -5.465188E+04 -7.175288E+02 -1.178590E+05 -2.219014E-09  3.814682E-10
       160  16 -4.194815E+05 -1.186813E+05 -2.851206E+04 -1.680626E+05 -6.340731E-10  5.320087E-10
       160  17 -4.424576E+05 -1.248559E+05 -3.209291E+04 -1.723343E+05 -3.488051E-09  3.191874E-10
       160  18 -4.624577E+05 -1.341481E+05 -3.596617E+04 -1.800919E+05 -2.075354E-09  2.465845E-09
       160  19 -6.134473E+04  9.472108E+03  2.804823E+04 -6.767254E+04 -9.033490E+03  1.308622E+04
       160  20 -4.137819E+04  1.868597E+04  3.129955E+04 -5.989563E+04 -9.702888E+03  1.479185E+04
       160  21 -1.836792E+04  2.485077E+04  3.453163E+04 -5.560451E+04 -1.033976E+04  1.641021E+04
       160  22 -2.404304E+05 -5.460614E+04 -2.314259E+02 -1.178744E+05 -5.555556E+03  1.439177E+04
       160  23 -2.419401E+05 -5.308715E+04 -3.962229E+02 -1.161237E+05 -6.397374E+03  1.603298E+04
       160  24 -2.404406E+05 -5.465154E+04 -7.168501E+02 -1.178591E+05 -7.206660E+03  1.758689E+04
       160  25 -4.194814E+05 -1.186810E+05 -2.851158E+04 -1.680626E+05 -2.078685E+03  1.569693E+04
       160  26 -4.424575E+05 -1.248556E+05 -3.209233E+04 -1.723343E+05 -3.093010E+03  1.727368E+04
       160  27 -4.624576E+05 -1.341477E+05 -3.596548E+04 -1.800919E+05 -4.074779E+03  1.876311E+04
       161   1 -4.728305E+03  2.972978E+04  3.665460E+04 -5.184324E+04  1.087842E+04 -1.730418E+04
       161   2  1.500396E+04  3.903992E+04  3.999711E+04 -4.384613E+04  1.056215E+04 -1.878233E+04
       161   3  3.775218E+04  4.513320E+04  4.384424E+04 -3.917710E+04  9.932894E+03 -1.942636E+04
       161   4 -2.404971E+05 -5.465003E+04 -9.539542E+02 -1.178630E+05  7.697337E+03 -1.849904E+04
       161   5 -2.419055E+05 -5.331709E+04 -1.754833E+03 -1.160349E+05  9.030306E+03 -1.935840E+04
       161   6 -2.406255E+05 -5.552825E+04 -3.358053E+03 -1.175354E+05  1.005026E+04 -1.938341E+04
       161   7 -4.762089E+05 -1.390252E+05 -3.856432E+04 -1.838600E+05  4.517498E+03 -1.969344E+04
       161   8 -4.987458E+05 -1.456679E+05 -4.350863E+04 -1.881960E+05  7.499120E+03 -1.993422E+04
       161   9 -5.189209E+05 -1.561818E+05 -5.056246E+04 -1.958608E+05  1.016757E+04 -1.934048E+04
       161  10 -4.728513E+03  2.972942E+04  3.665382E+04 -5.184309E+04  2.918497E-09  1.200728E-09
       161  11  1.500374E+04  3.903951E+04  3.999624E+04 -4.384597E+04  5.977161E-10  6.011477E-10
       161  12  3.775198E+04  4.513277E+04  4.384335E+04 -3.917695E+04 -6.210924E-09 -3.993305E-10
       161  13 -2.404972E+05 -5.465042E+04 -9.547085E+02 -1.178629E+05 -2.622217E-09  9.456293E-10
       161  14 -2.419057E+05 -5.331751E+04 -1.755690E+03 -1.160347E+05 -2.554960E-09 -2.203652E-10
       161  15 -2.406257E+05 -5.552868E+04 -3.358949E+03 -1.175353E+05 -1.058404E-08 -1.146057E-09
       161  16 -4.762090E+05 -1.390256E+05 -3.856509E+04 -1.838599E+05 -5.350863E-09  8.648193E-10
       161  17 -4.987460E+05 -1.456683E+05 -4.350948E+04 -1.881959E+05 -5.252857E-09 -4.846065E-10
       161  18 -5.189211E+05 -1.561823E+05 -5.056335E+04 -1.958607E+05 -5.324056E-09 -1.897819E-09
       161  19 -4.728305E+03  2.972978E+04  3.665460E+04 -5.184324E+04 -1.087842E+04  1.730418E+04
       161  20  1.500396E+04  3.903992E+04  3.999711E+04 -4.384613E+04 -1.056215E+04  1.878233E+04
       161  21  3.775218E+04  4.513320E+04  4.384424E+04 -3.917710E+04 -9.932894E+03  1.942636E+04
       161  22 -2.404971E+05 -5.465003E+04 -9.539542E+02 -1.178630E+05 -7.697337E+03  1.849904E+04
       161  23 -2.419055E+05 -5.331709E+04 -1.754833E+03 -1.160349E+05 -9.030306E+03  1.935840E+04
       161  24 -2.406255E+05 -5.552825E+04 -3.358053E+03 -1.175354E+05 -1.005026E+04  1.938341E+04
       161  25 -4.762089E+05 -1.390252E+05 -3.856432E+04 -1.838600E+05 -4.517498E+03  1.969344E+04
       161  26 -4.987458E+05 -1.456679E+05 -4.350863E+04 -1.881960E+05 -7.499120E+03  1.993422E+04
       161  27 -5.189209E+05 -1.561818E+05 -5.056246E+04 -1.958608E+05 -1.016757E+04  1.934048E+04
       162   1  5.178411E+04  4.974411E+04  4.609005E+04 -3.593880E+04  1.103839E+04 -1.939791E+04
       162   2  6.781877E+04  6.035113E+04  5.312905E+04 -2.344619E+04 -1.777829E+03 -1.984018E+04
       162   3  8.608971E+04  6.372869E+04  6.728251E+04 -1.202602E+04 -1.760659E+04 -1.226599E+04
       162   4 -2.412266E+05 -5.563297E+04 -4.504043E+03 -1.175654E+05  1.068411E+04 -1.953210E+04
       162   5 -2.417506E+05 -5.734352E+04 -8.640713E+03 -1.144414E+05  1.372292E+04 -1.401998E+04
       162   6 -2.431805E+05 -6.942648E+04 -1.822628E+04 -1.123901E+05  1.374909E+04 -4.890649E+02
       162   7 -5.341457E+05 -1.610015E+05 -5.510046E+04 -1.991559E+05  1.033002E+04 -1.966622E+04
       162   8 -5.512147E+05 -1.750252E+05 -7.041252E+04 -2.053920E+05  2.921512E+04 -8.203304E+03
       162   9 -5.723320E+05 -2.025646E+05 -1.037370E+05 -2.127005E+05  4.508563E+04  1.127940E+04
       162  10  5.178388E+04  4.974367E+04  4.608912E+04 -3.593863E+04 -9.911543E-09 -1.588877E-09
       162  11  6.781866E+04  6.035071E+04  5.312831E+04 -2.344622E+04 -2.037428E-09  2.573375E-10
       162  12  8.608934E+04  6.372845E+04  6.728164E+04 -1.202619E+04  2.265519E-09  1.030648E-09
       162  13 -2.412268E+05 -5.563341E+04 -4.504974E+03 -1.175652E+05 -6.234559E-09 -1.949471E-09
       162  14 -2.417508E+05 -5.734378E+04 -8.641436E+03 -1.144412E+05 -2.950356E-09  1.529621E-09
       162  15 -2.431808E+05 -6.942653E+04 -1.822664E+04 -1.123901E+05  2.089761E-09  7.222206E-10
       162  16 -5.341459E+05 -1.610020E+05 -5.510139E+04 -1.991557E+05 -2.252913E-09 -1.935426E-10
       162  17 -5.512156E+05 -1.750255E+05 -7.041425E+04 -2.053918E+05  7.051217E-10  1.843957E-11
       162  18 -5.723342E+05 -2.025652E+05 -1.037411E+05 -2.127009E+05 -1.766860E-09 -9.615048E-10
       162  19  5.178411E+04  4.974411E+04  4.609005E+04 -3.593880E+04 -1.103839E+04  1.939791E+04
       162  20  6.781877E+04  6.035113E+04  5.312905E+04 -2.344619E+04  1.777829E+03  1.984018E+04
       162  21  8.608971E+04  6.372869E+04  6.728251E+04 -1.202602E+04  1.760659E+04  1.226599E+04
       162  22 -2.412266E+05 -5.563297E+04 -4.504043E+03 -1.175654E+05 -1.068411E+04  1.953210E+04
       162  23 -2.417506E+05 -5.734352E+04 -8.640713E+03 -1.144414E+05 -1.372292E+04  1.401998E+04
       162  24 -2.431805E+05 -6.942648E+04 -1.822628E+04 -1.123901E+05 -1.374909E+04  4.890649E+02
       162  25 -5.341457E+05 -1.610015E+05 -5.510046E+04 -1.991559E+05 -1.033002E+04  1.966622E+04
       162  26 -5.512147E+05 -1.750252E+05 -7.041252E+04 -2.053920E+05 -2.921512E+04  8.203304E+03
       162  27 -5.723320E+05 -2.025646E+05 -1.037370E+05 -2.127005E+05 -4.508563E+04 -1.127940E+04
       163   1 -2.032766E+05 -3.883658E+04 -5.948824E+04 -1.287074E+04 -6.178517E+04 -1.014652E+03
       163   2 -1.956474E+05  4.493020E+04 -9.099024E+03 -4.420689E+03 -4.095830E+04 -2.943695E+03
       163   3 -2.146708E+05  3.281770E+04  3.767791E+03  1.035656E+04 -2.013334E+04 -2.618904E+03
       163   4 -3.339444E+05 -7.145123E+04 -9.194626E+04  2.991540E+03 -6.280576E+04 -1.016765E+03
       163   5 -3.205443E+05  1.383163E+04 -3.969270E+04 -1.918680E+02 -4.122607E+04 -2.944181E+03
       163   6 -3.339333E+05  3.093588E+03 -2.549015E+04  2.952048E+03 -1.964806E+04 -2.618343E+03
       163   7 -4.645962E+05 -1.040662E+05 -1.244054E+05  1.885048E+04 -6.382614E+04 -1.018932E+03
       163   8 -4.454270E+05 -1.726804E+04 -7.028752E+04  4.036098E+03 -4.149378E+04 -2.944670E+03
       163   9 -4.531828E+05 -2.663137E+04 -5.474911E+04 -4.451036E+03 -1.916288E+04 -2.617794E+03
       163  10 -2.032807E+05 -3.883761E+04 -5.949541E+04 -1.287079E+04  9.203821E-10  1.459757E-11
       163  11 -1.956493E+05  4.492974E+04 -9.102194E+03 -4.420786E+03 -1.951335E-09 -7.140301E-10
       163  12 -2.146712E+05  3.281758E+04  3.767016E+03  1.035651E+04  3.138951E-09 -6.623707E-10
       163  13 -3.339486E+05 -7.145229E+04 -9.195368E+04  2.991489E+03  2.314529E-09  7.150671E-10
       163  14 -3.205462E+05  1.383116E+04 -3.969592E+04 -1.919658E+02  1.636865E-10  8.039017E-12
       163  15 -3.339337E+05  3.093477E+03 -2.549089E+04  2.952007E+03  4.033771E-10  3.088812E-10
       163  16 -4.646005E+05 -1.040673E+05 -1.244131E+05  1.885042E+04  1.098898E-09  5.172600E-10
       163  17 -4.454288E+05 -1.726851E+04 -7.029077E+04  4.036000E+03  1.080160E-09 -9.575623E-10
       163  18 -4.531832E+05 -2.663148E+04 -5.474981E+04 -4.451076E+03 -2.143648E-09 -2.031656E-09
       163  19 -2.032766E+05 -3.883658E+04 -5.948824E+04 -1.287074E+04  6.178517E+04  1.014652E+03
       163  20 -1.956474E+05  4.493020E+04 -9.099024E+03 -4.420689E+03  4.095830E+04  2.943695E+03
       163  21 -2.146708E+05  3.281770E+04  3.767791E+03  1.035656E+04  2.013334E+04  2.618904E+03
       163  22 -3.339444E+05 -7.145123E+04 -9.194626E+04  2.991540E+03  6.280576E+04  1.016765E+03
       163  23 -3.205443E+05  1.383163E+04 -3.969270E+04 -1.918680E+02  4.122607E+04  2.944181E+03
       163  24 -3.339333E+05  3.093588E+03 -2.549015E+04  2.952048E+03  1.964806E+04  2.618343E+03
       163  25 -4.645962E+05 -1.040662E+05 -1.244054E+05  1.885048E+04  6.382614E+04  1.018932E+03
       163  26 -4.454270E+05 -1.726804E+04 -7.028752E+04  4.036098E+03  4.149378E+04  2.944670E+03
       163  27 -4.531828E+05 -2.663137E+04 -5.474911E+04 -4.451036E+03  1.916288E+04  2.617794E+03
       164   1 -2.229388E+05  1.709067E+04  5.039518E+03  1.170902E+03 -1.549871E+04 -2.157760E+03
       164   2 -2.269830E+05  2.670955E+04  1.419734E+04 -6.929018E+02 -1.023012E+04 -2.181548E+03
       164   3 -2.348290E+05  2.382414E+04  1.680048E+04  4.093200E+03 -4.961737E+03 -1.950246E+03
       164   4 -3.288305E+05 -9.292699E+03 -2.097151E+04  3.042803E+03 -1.554914E+04 -2.157872E+03
       164   5 -3.269209E+05  1.813555E+03 -1.031935E+04 -2.861002E+02 -1.019568E+04 -2.181548E+03
       164   6 -3.288285E+05  3.996750E+02 -6.281616E+03  3.034961E+03 -4.842384E+03 -1.950141E+03
       164   7 -4.347120E+05 -3.567689E+04 -4.698335E+04  4.914383E+03 -1.559956E+04 -2.157984E+03
       164   8 -4.268497E+05 -2.308318E+04 -3.483678E+04  1.206338E+02 -1.016125E+04 -2.181548E+03
       164   9 -4.228199E+05 -2.302544E+04 -2.936436E+04  1.976882E+03 -4.723048E+03 -1.950037E+03
       164  10 -2.229391E+05  1.709060E+04  5.039057E+03  1.170875E+03  4.990421E-10 -1.493604E-09
       164  11 -2.269831E+05  2.670952E+04  1.419713E+04 -6.929198E+02 -1.920274E-09  3.921078E-10
       164  12 -2.348291E+05  2.382413E+04  1.680043E+04  4.093192E+03 -1.290989E-09  8.872791E-10
       164  13 -3.288308E+05 -9.292769E+03 -2.097197E+04  3.042776E+03  4.081703E-10 -1.382393E-09
       164  14 -3.269210E+05  1.813522E+03 -1.031956E+04 -2.861181E+02  2.358436E-10 -9.118904E-10
       164  15 -3.288285E+05  3.996646E+02 -6.281668E+03  3.034954E+03  1.586656E-09 -3.325028E-10
       164  16 -4.347123E+05 -3.567696E+04 -4.698382E+04  4.914355E+03 -1.662340E-10 -1.289917E-09
       164  17 -4.268498E+05 -2.308321E+04 -3.483698E+04  1.206160E+02  7.983353E-10 -9.018739E-10
       164  18 -4.228199E+05 -2.302545E+04 -2.936441E+04  1.976874E+03  3.621207E-09  1.602235E-09
       164  19 -2.229388E+05  1.709067E+04  5.039518E+03  1.170902E+03  1.549871E+04  2.157760E+03
       164  20 -2.269830E+05  2.670955E+04  1.419734E+04 -6.929018E+02  1.023012E+04  2.181548E+03
       164  21 -2.348290E+05  2.382414E+04  1.680048E+04  4.093200E+03  4.961737E+03  1.950246E+03
       164  22 -3.288305E+05 -9.292699E+03 -2.097151E+04  3.042803E+03  1.554914E+04  2.157872E+03
       164  23 -3.269209E+05  1.813555E+03 -1.031935E+04 -2.861002E+02  1.019568E+04  2.181548E+03
       164  24 -3.288285E+05  3.996750E+02 -6.281616E+03  3.034961E+03  4.842384E+03  1.950141E+03
       164  25 -4.347120E+05 -3.567689E+04 -4.698335E+04  4.914383E+03  1.559956E+04  2.157984E+03
       164  26 -4.268497E+05 -2.308318E+04 -3.483678E+04  1.206338E+02  1.016125E+04  2.181548E+03
       164  27 -4.228199E+05 -2.302544E+04 -2.936436E+04  1.976882E+03  4.723048E+03  1.950037E+03
       165   1 -2.480501E+05  1.874862E+04  1.464847E+04  2.935573E+03 -3.895755E+03 -1.785717E+03
       165   2 -2.539148E+05  1.864918E+04  1.547439E+04 -3.329199E+02 -2.559898E+03 -1.592882E+03
       165   3 -2.603613E+05  1.693738E+04  1.502624E+04  3.284096E+03 -1.224131E+03 -1.368235E+03
       165   4 -3.281095E+05 -1.194140E+03 -4.982895E+03  3.090839E+03 -3.836451E+03 -1.785673E+03
       165   5 -3.278174E+05  2.372249E+02 -2.659348E+03 -3.525844E+02 -2.490063E+03 -1.592819E+03
       165   6 -3.281091E+05  5.427914E+01 -1.617293E+03  3.089553E+03 -1.143753E+03 -1.368152E+03
       165   7 -4.081631E+05 -2.113738E+04 -2.461473E+04  3.246084E+03 -3.777154E+03 -1.785629E+03
       165   8 -4.017151E+05 -1.817514E+04 -2.079348E+04 -3.722479E+02 -2.420237E+03 -1.592756E+03
       165   9 -3.958527E+05 -1.682916E+04 -1.826117E+04  2.895031E+03 -1.063385E+03 -1.368069E+03
       165  10 -2.480501E+05  1.874861E+04  1.464843E+04  2.935567E+03 -7.577471E-10  2.052998E-09
       165  11 -2.539148E+05  1.864918E+04  1.547437E+04 -3.329232E+02 -1.480265E-09  1.835087E-09
       165  12 -2.603613E+05  1.693738E+04  1.502624E+04  3.284094E+03  4.121551E-09 -1.449470E-09
       165  13 -3.281095E+05 -1.194148E+03 -4.982929E+03  3.090834E+03 -1.362184E-09 -3.597089E-10
       165  14 -3.278174E+05  2.372205E+02 -2.659364E+03 -3.525876E+02 -7.893453E-10  1.632409E-09
       165  15 -3.281091E+05  5.427678E+01 -1.617299E+03  3.089552E+03  2.897347E-09  2.049578E-09
       165  16 -4.081631E+05 -2.113738E+04 -2.461476E+04  3.246078E+03  6.341639E-11  2.747840E-09
       165  17 -4.017151E+05 -1.817514E+04 -2.079350E+04 -3.722510E+02 -4.148470E-09  1.780915E-09
       165  18 -3.958527E+05 -1.682916E+04 -1.826117E+04  2.895030E+03 -1.461707E-10  1.536039E-09
       165  19 -2.480501E+05  1.874862E+04  1.464847E+04  2.935573E+03  3.895755E+03  1.785717E+03
       165  20 -2.539148E+05  1.864918E+04  1.547439E+04 -3.329199E+02  2.559898E+03  1.592882E+03
       165  21 -2.603613E+05  1.693738E+04  1.502624E+04  3.284096E+03  1.224131E+03  1.368235E+03
       165  22 -3.281095E+05 -1.194140E+03 -4.982895E+03  3.090839E+03  3.836451E+03  1.785673E+03
       165  23 -3.278174E+05  2.372249E+02 -2.659348E+03 -3.525844E+02  2.490063E+03  1.592819E+03
       165  24 -3.281091E+05  5.427914E+01 -1.617293E+03  3.089553E+03  1.143753E+03  1.368152E+03
       165  25 -4.081631E+05 -2.113738E+04 -2.461473E+04  3.246084E+03  3.777154E+03  1.785629E+03
       165  26 -4.017151E+05 -1.817514E+04 -2.079348E+04 -3.722479E+02  2.420237E+03  1.592756E+03
       165  27 -3.958527E+05 -1.682916E+04 -1.826117E+04  2.895031E+03  1.063385E+03  1.368069E+03
       166   1 -2.746150E+05  1.315349E+04  1.179043E+04  3.152198E+03 -9.556194E+02 -1.233756E+03
       166   2 -2.808573E+05  1.176590E+04  1.073504E+04 -3.565504E+02 -5.482882E+02 -1.012281E+03
       166   3 -2.872228E+05  1.016107E+04  9.356751E+03  3.185060E+03 -1.410042E+02 -7.852831E+02
       166   4 -3.280063E+05 -1.448476E+02 -1.292198E+03  3.126732E+03 -8.822677E+02 -1.233676E+03
       166   5 -3.279445E+05  3.434400E+01 -8.194383E+02 -3.985478E+02 -4.731128E+02 -1.012194E+03
       166   6 -3.280063E+05 -4.038963E+00 -6.708735E+02  3.126565E+03 -6.400095E+01 -7.851889E+02
       166   7 -3.813951E+05 -1.344340E+04 -1.437504E+04  3.101267E+03 -8.089222E+02 -1.233596E+03
       166   8 -3.750297E+05 -1.169737E+04 -1.237407E+04 -4.405426E+02 -3.979430E+02 -1.012108E+03
       166   9 -3.687883E+05 -1.016928E+04 -1.069862E+04  3.068074E+03  1.299725E+01 -7.850948E+02
       166  10 -2.746150E+05  1.315349E+04  1.179043E+04  3.152197E+03 -6.459723E-10 -1.143535E-09
       166  11 -2.808573E+05  1.176589E+04  1.073503E+04 -3.565508E+02 -8.085717E-10  4.054713E-09
       166  12 -2.872228E+05  1.016107E+04  9.356749E+03  3.185060E+03  3.892709E-10  2.041162E-09
       166  13 -3.280063E+05 -1.448494E+02 -1.292202E+03  3.126731E+03  2.793625E-09  2.273078E-10
       166  14 -3.279445E+05  3.434284E+01 -8.194407E+02 -3.985482E+02 -9.884463E-10  2.744680E-09
       166  15 -3.280063E+05 -4.039626E+00 -6.708747E+02  3.126565E+03 -3.406952E-09  2.626449E-10
       166  16 -3.813951E+05 -1.344340E+04 -1.437504E+04  3.101266E+03 -1.614245E-09  9.246091E-10
       166  17 -3.750297E+05 -1.169737E+04 -1.237408E+04 -4.405429E+02 -1.319585E-09  5.869493E-11
       166  18 -3.687883E+05 -1.016928E+04 -1.069862E+04  3.068074E+03  1.549090E-09 -4.181067E-10
       166  19 -2.746150E+05  1.315349E+04  1.179043E+04  3.152198E+03  9.556194E+02  1.233756E+03
       166  20 -2.808573E+05  1.176590E+04  1.073504E+04 -3.565504E+02  5.482882E+02  1.012281E+03
       166  21 -2.872228E+05  1.016107E+04  9.356751E+03  3.185060E+03  1.410042E+02  7.852831E+02
       166  22 -3.280063E+05 -1.448476E+02 -1.292198E+03  3.126732E+03  8.822677E+02  1.233676E+03
       166  23 -3.279445E+05  3.434400E+01 -8.194383E+02 -3.985478E+02  4.731128E+02  1.012194E+03
       166  24 -3.280063E+05 -4.038963E+00 -6.708735E+02  3.126565E+03  6.400095E+01  7.851889E+02
       166  25 -3.813951E+05 -1.344340E+04 -1.437504E+04  3.101267E+03  8.089222E+02  1.233596E+03
       166  26 -3.750297E+05 -1.169737E+04 -1.237407E+04 -4.405426E+02  3.979430E+02  1.012108E+03
       166  27 -3.687883E+05 -1.016928E+04 -1.069862E+04  3.068074E+03 -1.299725E+01  7.850948E+02
       167   1 -3.018458E+05  6.509044E+03  5.730283E+03  3.153043E+03 -1.960419E+01 -6.519821E+02
       167   2 -3.081668E+05  4.961446E+03  4.042265E+03 -4.040440E+02  3.852465E+02 -4.241028E+02
       167   3 -3.146162E+05  3.200463E+03  2.032586E+03  3.182035E+03  7.900862E+02 -1.964499E+02
       167   4 -3.280070E+05 -4.994857E+00 -6.696830E+02  3.147182E+03  5.679754E+01 -6.518859E+02
       167   5 -3.279429E+05  3.422175E+01 -8.106271E+02 -4.243187E+02  4.615604E+02 -4.240045E+02
       167   6 -3.280071E+05 -1.399077E+02 -1.273151E+03  3.147360E+03  8.663165E+02 -1.963496E+02
       167   7 -3.541676E+05 -6.519085E+03 -7.069699E+03  3.141322E+03  1.331960E+02 -6.517896E+02
       167   8 -3.477186E+05 -4.893031E+03 -5.663548E+03 -4.445928E+02  5.378720E+02 -4.239063E+02
       167   9 -3.413978E+05 -3.480291E+03 -4.578900E+03  3.112686E+03  9.425452E+02 -1.962494E+02
       167  10 -3.018458E+05  6.509044E+03  5.730282E+03  3.153043E+03 -1.042343E-09 -2.495663E-10
       167  11 -3.081668E+05  4.961445E+03  4.042265E+03 -4.040439E+02 -2.430829E-09  6.235347E-10
       167  12 -3.146162E+05  3.200462E+03  2.032585E+03  3.182035E+03 -4.345779E-09 -1.870545E-09
       167  13 -3.280070E+05 -4.995315E+00 -6.696839E+02  3.147182E+03  4.348026E-10  3.097139E-09
       167  14 -3.279429E+05  3.422150E+01 -8.106279E+02 -4.243185E+02 -1.924567E-09  9.489220E-10
       167  15 -3.280071E+05 -1.399080E+02 -1.273152E+03  3.147360E+03 -5.272500E-09 -1.678669E-09
       167  16 -3.541676E+05 -6.519085E+03 -7.069700E+03  3.141322E+03  7.745266E-10  1.911984E-09
       167  17 -3.477186E+05 -4.893031E+03 -5.663549E+03 -4.445926E+02 -3.179277E-10 -3.092810E-10
       167  18 -3.413978E+05 -3.480292E+03 -4.578902E+03  3.112687E+03 -1.156327E-09 -2.653195E-09
       167  19 -3.018458E+05  6.509044E+03  5.730283E+03  3.153043E+03  1.960419E+01  6.519821E+02
       167  20 -3.081668E+05  4.961446E+03  4.042265E+03 -4.040440E+02 -3.852465E+02  4.241028E+02
       167  21 -3.146162E+05  3.200463E+03  2.032586E+03  3.182035E+03 -7.900862E+02  1.964499E+02
       167  22 -3.280070E+05 -4.994857E+00 -6.696830E+02  3.147182E+03 -5.679754E+01  6.518859E+02
       167  23 -3.279429E+05  3.422175E+01 -8.106271E+02 -4.243187E+02 -4.615604E+02  4.240045E+02
       167  24 -3.280071E+05 -1.399077E+02 -1.273151E+03  3.147360E+03 -8.663165E+02  1.963496E+02
       167  25 -3.541676E+05 -6.519085E+03 -7.069699E+03  3.141322E+03 -1.331960E+02  6.517896E+02
       167  26 -3.477186E+05 -4.893031E+03 -5.663548E+03 -4.445928E+02 -5.378720E+02  4.239063E+02
       167  27 -3.413978E+05 -3.480291E+03 -4.578900E+03  3.112686E+03 -9.425452E+02  1.962494E+02
       168   1 -3.294524E+05 -2.842101E+02 -1.941861E+03  3.015764E+03  1.044199E+03 -6.032743E+01
       168   2 -3.355568E+05 -1.694700E+03 -4.513590E+03 -3.970895E+02  2.372919E+03  1.710042E+02
       168   3 -3.422537E+05 -4.689335E+03 -8.351625E+03  3.350443E+03  3.701649E+03  3.867303E+02
       168   4 -3.281099E+05  5.466045E+01 -1.592546E+03  3.150529E+03  1.123933E+03 -6.022177E+01
       168   5 -3.278143E+05  2.341671E+02 -2.614007E+03 -4.288615E+02  2.447428E+03  1.711017E+02
       168   6 -3.281103E+05 -1.169545E+03 -4.898122E+03  3.152130E+03  3.770945E+03  3.868191E+02
       168   7 -3.267675E+05  3.935309E+02 -1.243231E+03  3.285294E+03  1.203668E+03 -6.011607E+01
       168   8 -3.200718E+05  2.163030E+03 -7.144289E+02 -4.606340E+02  2.521937E+03  1.711992E+02
       168   9 -3.139668E+05  2.350230E+03 -1.444633E+03  2.953812E+03  3.840243E+03  3.869079E+02
       168  10 -3.294524E+05 -2.842104E+02 -1.941863E+03  3.015764E+03 -4.316468E-09  8.852851E-10
       168  11 -3.355568E+05 -1.694702E+03 -4.513601E+03 -3.970898E+02 -6.129974E-09  1.133073E-09
       168  12 -3.422537E+05 -4.689339E+03 -8.351651E+03  3.350442E+03 -1.106573E-09  1.985831E-10
       168  13 -3.281099E+05  5.466011E+01 -1.592548E+03  3.150529E+03 -1.421906E-09 -9.046369E-10
       168  14 -3.278143E+05  2.341655E+02 -2.614019E+03 -4.288618E+02  1.431829E-09  1.487908E-09
       168  15 -3.281104E+05 -1.169549E+03 -4.898149E+03  3.152129E+03  1.190858E-09 -5.671803E-10
       168  16 -3.267675E+05  3.935305E+02 -1.243233E+03  3.285294E+03  4.495756E-09  2.421201E-10
       168  17 -3.200718E+05  2.163028E+03 -7.144409E+02 -4.606343E+02  1.380206E-09 -3.021401E-09
       168  18 -3.139668E+05  2.350226E+03 -1.444661E+03  2.953811E+03  1.755360E-09 -1.582712E-09
       168  19 -3.294524E+05 -2.842101E+02 -1.941861E+03  3.015764E+03 -1.044199E+03  6.032743E+01
       168  20 -3.355568E+05 -1.694700E+03 -4.513590E+03 -3.970895E+02 -2.372919E+03 -1.710042E+02
       168  21 -3.422537E+05 -4.689335E+03 -8.351625E+03  3.350443E+03 -3.701649E+03 -3.867303E+02
       168  22 -3.281099E+05  5.466045E+01 -1.592546E+03  3.150529E+03 -1.123933E+03  6.022177E+01
       168  23 -3.278143E+05  2.341671E+02 -2.614007E+03 -4.288615E+02 -2.447428E+03 -1.711017E+02
       168  24 -3.281103E+05 -1.169545E+03 -4.898122E+03  3.152130E+03 -3.770945E+03 -3.868191E+02
       168  25 -3.267675E+05  3.935309E+02 -1.243231E+03  3.285294E+03 -1.203668E+03  6.011607E+01
       168  26 -3.200718E+05  2.163030E+03 -7.144289E+02 -4.606340E+02 -2.521937E+03 -1.711992E+02
       168  27 -3.139668E+05  2.350230E+03 -1.444633E+03  2.953812E+03 -3.840243E+03 -3.869079E+02
       169   1 -3.576491E+05 -6.794241E+03 -1.326874E+04  2.135507E+03  4.657705E+03  5.416118E+02
       169   2 -3.621078E+05 -6.978755E+03 -1.876953E+04  1.816542E+01  9.964924E+03  7.826022E+02
       169   3 -3.703547E+05 -1.947137E+04 -3.080804E+04  5.009663E+03  1.527219E+04  8.842201E+02
       169   4 -3.288187E+05  3.958802E+02 -6.174877E+03  3.135704E+03  4.759914E+03  5.417501E+02
       169   5 -3.269297E+05  1.784033E+03 -1.014032E+04 -4.128260E+02  1.002058E+04  7.826622E+02
       169   6 -3.288207E+05 -9.127459E+03 -2.061086E+04  3.147494E+03  1.528135E+04  8.841809E+02
       169   7 -2.999875E+05  7.585943E+03  9.189217E+02  4.135947E+03  4.862128E+03  5.418887E+02
       169   8 -2.917505E+05  1.054673E+04 -1.511197E+03 -8.438422E+02  1.007625E+04  7.827221E+02
       169   9 -2.872852E+05  1.216336E+03 -1.041381E+04  1.285200E+03  1.529052E+04  8.841416E+02
       169  10 -3.576492E+05 -6.794247E+03 -1.326878E+04  2.135505E+03 -3.277992E-10  2.172010E-09
       169  11 -3.621079E+05 -6.978783E+03 -1.876972E+04  1.815914E+01 -1.821973E-09  1.135855E-09
       169  12 -3.703549E+05 -1.947143E+04 -3.080848E+04  5.009652E+03 -9.751197E-10  1.358427E-09
       169  13 -3.288187E+05  3.958738E+02 -6.174920E+03  3.135702E+03  2.853065E-09  2.994320E-10
       169  14 -3.269299E+05  1.784005E+03 -1.014051E+04 -4.128323E+02 -5.038989E-09  1.642334E-09
       169  15 -3.288210E+05 -9.127523E+03 -2.061130E+04  3.147483E+03  6.831291E-10 -1.816208E-09
       169  16 -2.999876E+05  7.585937E+03  9.188767E+02  4.135944E+03  6.255463E-10 -9.396751E-11
       169  17 -2.917507E+05  1.054670E+04 -1.511389E+03 -8.438486E+02  1.943690E-10 -1.754974E-10
       169  18 -2.872855E+05  1.216272E+03 -1.041425E+04  1.285189E+03  9.686419E-10 -3.542824E-09
       169  19 -3.576491E+05 -6.794241E+03 -1.326874E+04  2.135507E+03 -4.657705E+03 -5.416118E+02
       169  20 -3.621078E+05 -6.978755E+03 -1.876953E+04  1.816542E+01 -9.964924E+03 -7.826022E+02
       169  21 -3.703547E+05 -1.947137E+04 -3.080804E+04  5.009663E+03 -1.527219E+04 -8.842201E+02
       169  22 -3.288187E+05  3.958802E+02 -6.174877E+03  3.135704E+03 -4.759914E+03 -5.417501E+02
       169  23 -3.269297E+05  1.784033E+03 -1.014032E+04 -4.128260E+02 -1.002058E+04 -7.826622E+02
       169  24 -3.288207E+05 -9.127459E+03 -2.061086E+04  3.147494E+03 -1.528135E+04 -8.841809E+02
       169  25 -2.999875E+05  7.585943E+03  9.189217E+02  4.135947E+03 -4.862128E+03 -5.418887E+02
       169  26 -2.917505E+05  1.054673E+04 -1.511197E+03 -8.438422E+02 -1.007625E+04 -7.827221E+02
       169  27 -2.872852E+05  1.216336E+03 -1.041381E+04  1.285200E+03 -1.529052E+04 -8.841416E+02
       170   1 -3.898434E+05 -1.093215E+04 -3.880502E+04 -4.169894E+03  1.900541E+04  1.205387E+03
       170   2 -3.828943E+05 -1.892306E+03 -5.424802E+04  3.782875E+03  4.062604E+04  1.513942E+03
       170   3 -4.023860E+05 -8.729285E+04 -1.073845E+05  1.875181E+04  6.224830E+04  5.808518E+02
       170   4 -3.338373E+05  3.045022E+03 -2.505203E+04  3.092035E+03  1.931003E+04  1.205969E+03
       170   5 -3.206598E+05  1.359613E+04 -3.900632E+04 -3.756108E+02  4.051530E+04  1.513529E+03
       170   6 -3.338483E+05 -7.021636E+04 -9.036279E+04  3.173033E+03  6.172241E+04  5.787033E+02
       170   7 -2.778283E+05  1.702216E+04 -1.129924E+04  1.035462E+04  1.961469E+04  1.206558E+03
       170   8 -2.584217E+05  2.908434E+04 -2.376491E+04 -4.534516E+03  4.040454E+04  1.513118E+03
       170   9 -2.653058E+05 -5.313931E+04 -7.334132E+04 -1.240747E+04  6.119647E+04  5.765814E+02
       170  10 -3.898438E+05 -1.093225E+04 -3.880570E+04 -4.169912E+03 -2.396323E-09  8.602004E-11
       170  11 -3.828961E+05 -1.892752E+03 -5.425112E+04  3.782826E+03  4.677219E-10  3.009166E-11
       170  12 -4.023902E+05 -8.729390E+04 -1.073918E+05  1.875178E+04 -8.257037E-11  3.184982E-11
       170  13 -3.338377E+05  3.044920E+03 -2.505273E+04  3.092017E+03 -1.732804E-09  1.445252E-09
       170  14 -3.206616E+05  1.359569E+04 -3.900941E+04 -3.756602E+02  3.767486E-09 -1.485042E-09
       170  15 -3.338524E+05 -7.021739E+04 -9.036995E+04  3.173004E+03 -2.234718E-09  1.411267E-09
       170  16 -2.778287E+05  1.702205E+04 -1.129996E+04  1.035460E+04  3.938740E-10 -3.415718E-10
       170  17 -2.584235E+05  2.908390E+04 -2.376798E+04 -4.534565E+03 -1.756398E-09  4.609665E-10
       170  18 -2.653098E+05 -5.314032E+04 -7.334836E+04 -1.240750E+04 -4.402646E-10  1.131151E-10
       170  19 -3.898434E+05 -1.093215E+04 -3.880502E+04 -4.169894E+03 -1.900541E+04 -1.205387E+03
       170  20 -3.828943E+05 -1.892306E+03 -5.424802E+04  3.782875E+03 -4.062604E+04 -1.513942E+03
       170  21 -4.023860E+05 -8.729285E+04 -1.073845E+05  1.875181E+04 -6.224830E+04 -5.808518E+02
       170  22 -3.338373E+05  3.045022E+03 -2.505203E+04  3.092035E+03 -1.931003E+04 -1.205969E+03
       170  23 -3.206598E+05  1.359613E+04 -3.900632E+04 -3.756108E+02 -4.051530E+04 -1.513529E+03
       170  24 -3.338483E+05 -7.021636E+04 -9.036279E+04  3.173033E+03 -6.172241E+04 -5.787033E+02
       170  25 -2.778283E+05  1.702216E+04 -1.129924E+04  1.035462E+04 -1.961469E+04 -1.206558E+03
       170  26 -2.584217E+05  2.908434E+04 -2.376491E+04 -4.534516E+03 -4.040454E+04 -1.513118E+03
       170  27 -2.653058E+05 -5.313931E+04 -7.334132E+04 -1.240747E+04 -6.119647E+04 -5.765814E+02
       171   1  1.268262E+05  7.105791E+05  1.355365E+05 -6.734614E+04  3.617826E+03  4.637847E+04
       171   2  5.938743E+04  6.310923E+05  8.429999E+04 -3.733349E+04  1.050614E+04  2.363273E+04
       171   3  4.061430E+04  5.667085E+05  6.002339E+04 -3.836455E+04  8.639039E+03  8.844758E+02
       171   4  4.760114E+04  3.919593E+05  5.797743E+04 -4.509918E+04  3.625174E+03  3.663782E+04
       171   5 -9.105574E+02  3.850727E+05  2.874753E+04 -2.959278E+04  1.050813E+04  2.146977E+04
       171   6 -2.060245E+03  3.919782E+05  2.122719E+04 -4.512915E+04  8.635170E+03  6.296518E+03
       171   7 -3.162948E+04  7.343337E+04 -1.958842E+04 -2.286363E+04  3.631827E+03  2.690216E+04
       171   8 -6.121248E+04  1.391095E+05 -2.680877E+04 -2.185516E+04  1.051006E+04  1.930766E+04
       171   9 -4.473666E+04  2.172764E+05 -1.757077E+04 -5.189181E+04  8.631183E+03  1.170705E+04
       171  10  1.268256E+05  7.105768E+05  1.355325E+05 -6.734627E+04  4.201765E-10  8.142566E-09
       171  11  5.938716E+04  6.310917E+05  8.429874E+04 -3.733369E+04  4.209053E-09 -1.441295E-09
       171  12  4.061422E+04  5.667085E+05  6.002325E+04 -3.836456E+04  5.785549E-10 -9.061593E-09
       171  13  4.760077E+04  3.919579E+05  5.797489E+04 -4.509928E+04 -8.585768E-10  4.650845E-10
       171  14 -9.107996E+02  3.850722E+05  2.874645E+04 -2.959296E+04 -8.509822E-10  5.267350E-10
       171  15 -2.060336E+03  3.919781E+05  2.122697E+04 -4.512919E+04 -4.455368E-10  7.887201E-10
       171  16 -3.162969E+04  7.343259E+04 -1.958980E+04 -2.286371E+04 -6.359269E-10 -7.814134E-09
       171  17 -6.121269E+04  1.391090E+05 -2.680968E+04 -2.185532E+04  2.109854E-09  5.912111E-11
       171  18 -4.473678E+04  2.172762E+05 -1.757117E+04 -5.189189E+04 -2.746557E-09  7.610959E-09
       171  19  1.268262E+05  7.105791E+05  1.355365E+05 -6.734614E+04 -3.617826E+03 -4.637847E+04
       171  20  5.938743E+04  6.310923E+05  8.429999E+04 -3.733349E+04 -1.050614E+04 -2.363273E+04
       171  21  4.061430E+04  5.667085E+05  6.002339E+04 -3.836455E+04 -8.639039E+03 -8.844758E+02
       171  22  4.760114E+04  3.919593E+05  5.797743E+04 -4.509918E+04 -3.625174E+03 -3.663782E+04
       171  23 -9.105574E+02  3.850727E+05  2.874753E+04 -2.959278E+04 -1.050813E+04 -2.146977E+04
       171  24 -2.060245E+03  3.919782E+05  2.122719E+04 -4.512915E+04 -8.635170E+03 -6.296518E+03
       171  25 -3.162948E+04  7.343337E+04 -1.958842E+04 -2.286363E+04 -3.631827E+03 -2.690216E+04
       171  26 -6.121248E+04  1.391095E+05 -2.680877E+04 -2.185516E+04 -1.051006E+04 -1.930766E+04
       171  27 -4.473666E+04  2.172764E+05 -1.757077E+04 -5.189181E+04 -8.631183E+03 -1.170705E+04
       172   1  3.038962E+04  5.036916E+05  4.554916E+04 -4.738062E+04  5.477986E+03 -6.556756E+00
       172   2  9.970012E+03  4.301095E+05  3.003680E+04 -2.926771E+04  2.094888E+03 -1.048796E+04
       172   3 -1.213964E+03  3.601502E+05  2.364107E+04 -4.251714E+04 -1.382344E+03 -2.096850E+04
       172   4  2.522397E+03  3.897165E+05  2.015064E+04 -4.519226E+04  5.475818E+03  2.884024E+03
       172   5 -3.385531E+02  3.879149E+05  2.066690E+04 -2.950980E+04  2.092592E+03 -7.515290E+03
       172   6  6.022467E+03  3.897170E+05  3.024334E+04 -4.518953E+04 -1.384708E+03 -1.791492E+04
       172   7 -2.534569E+04  2.757535E+05 -5.248661E+03 -4.300430E+04  5.473669E+03  5.774080E+03
       172   8 -1.064723E+04  3.457220E+05  1.129692E+04 -2.975188E+04  2.090294E+03 -4.542822E+03
       172   9  1.325887E+04  4.192845E+05  3.684559E+04 -4.786204E+04 -1.387097E+03 -1.486120E+04
       172  10  3.038959E+04  5.036916E+05  4.554911E+04 -4.738062E+04  3.126680E-09  4.325556E-11
       172  11  9.969978E+03  4.301094E+05  3.003659E+04 -2.926770E+04  2.882373E-09  3.544019E-09
       172  12 -1.214084E+03  3.601498E+05  2.364025E+04 -4.251717E+04 -3.552306E-10  7.919900E-09
       172  13  2.522362E+03  3.897165E+05  2.015057E+04 -4.519227E+04 -5.844690E-10  6.718660E-10
       172  14 -3.385729E+02  3.879149E+05  2.066679E+04 -2.950979E+04 -6.305297E-10  6.271960E-10
       172  15  6.022378E+03  3.897166E+05  3.024273E+04 -4.518955E+04 -6.203039E-09  7.912459E-10
       172  16 -2.534573E+04  2.757534E+05 -5.248779E+03 -4.300433E+04  5.125330E-10  2.751593E-10
       172  17 -1.064724E+04  3.457220E+05  1.129687E+04 -2.975187E+04 -2.312579E-09 -5.091996E-09
       172  18  1.325881E+04  4.192843E+05  3.684517E+04 -4.786206E+04 -1.676315E-09 -9.395382E-09
       172  19  3.038962E+04  5.036916E+05  4.554916E+04 -4.738062E+04 -5.477986E+03  6.556756E+00
       172  20  9.970012E+03  4.301095E+05  3.003680E+04 -2.926771E+04 -2.094888E+03  1.048796E+04
       172  21 -1.213964E+03  3.601502E+05  2.364107E+04 -4.251714E+04  1.382344E+03  2.096850E+04
       172  22  2.522397E+03  3.897165E+05  2.015064E+04 -4.519226E+04 -5.475818E+03 -2.884024E+03
       172  23 -3.385531E+02  3.879149E+05  2.066690E+04 -2.950980E+04 -2.092592E+03  7.515290E+03
       172  24  6.022467E+03  3.897170E+05  3.024334E+04 -4.518953E+04  1.384708E+03  1.791492E+04
       172  25 -2.534569E+04  2.757535E+05 -5.248661E+03 -4.300430E+04 -5.473669E+03 -5.774080E+03
       172  26 -1.064723E+04  3.457220E+05  1.129692E+04 -2.975188E+04 -2.090294E+03  4.542822E+03
       172  27  1.325887E+04  4.192845E+05  3.684559E+04 -4.786204E+04  1.387097E+03  1.486120E+04
       173   1 -2.712893E+04  3.052272E+05  1.602620E+04 -6.016450E+04 -4.342837E+03 -2.816807E+04
       173   2 -4.158127E+04  2.191207E+05  2.132646E+04 -1.312634E+04 -6.700223E+03 -5.314906E+04
       173   3  4.533475E+04  1.615784E+05  6.822369E+04  2.825931E+03 -2.435905E+03 -7.812201E+04
       173   4 -5.094581E+03  3.954825E+05  3.611925E+04 -4.514914E+04 -4.347367E+03 -2.325670E+04
       173   5 -1.928731E+03  3.807001E+05  5.792291E+04 -2.957070E+04 -6.698106E+03 -5.396977E+04
       173   6  1.035811E+05  3.954568E+05  1.252926E+05 -4.507458E+04 -2.425383E+03 -8.467780E+04
       173   7  1.694008E+04  4.857459E+05  5.621201E+04 -3.013157E+04 -4.351659E+03 -1.834462E+04
       173   8  3.772302E+04  5.423042E+05  9.451783E+04 -4.601938E+04 -6.695946E+03 -5.479068E+04
       173   9  1.618319E+05  6.293901E+05  1.823588E+05 -9.299317E+04 -2.413853E+03 -9.123605E+04
       173  10 -2.712916E+04  3.052263E+05  1.602467E+04 -6.016460E+04  2.578553E-10  3.208539E-09
       173  11 -4.158208E+04  2.191177E+05  2.132107E+04 -1.312662E+04  1.495482E-09 -8.244633E-09
       173  12  4.533311E+04  1.615718E+05  6.821221E+04  2.825778E+03  1.143022E-09 -1.240749E-08
       173  13 -5.094746E+03  3.954819E+05  3.611820E+04 -4.514922E+04 -1.941119E-09  9.111742E-10
       173  14 -1.929561E+03  3.806969E+05  5.791736E+04 -2.957099E+04 -2.004776E-09  7.142316E-10
       173  15  1.035791E+05  3.954491E+05  1.252791E+05 -4.507475E+04  1.778926E-09  7.143727E-10
       173  16  1.693997E+04  4.857455E+05  5.621135E+04 -3.013163E+04  2.951426E-09 -2.811752E-09
       173  17  3.772217E+04  5.423010E+05  9.451211E+04 -4.601967E+04  2.480333E-09  6.724622E-09
       173  18  1.618297E+05  6.293812E+05  1.823432E+05 -9.299335E+04  3.768180E-09  1.141724E-08
       173  19 -2.712893E+04  3.052272E+05  1.602620E+04 -6.016450E+04  4.342837E+03  2.816807E+04
       173  20 -4.158127E+04  2.191207E+05  2.132646E+04 -1.312634E+04  6.700223E+03  5.314906E+04
       173  21  4.533475E+04  1.615784E+05  6.822369E+04  2.825931E+03  2.435905E+03  7.812201E+04
       173  22 -5.094581E+03  3.954825E+05  3.611925E+04 -4.514914E+04  4.347367E+03  2.325670E+04
       173  23 -1.928731E+03  3.807001E+05  5.792291E+04 -2.957070E+04  6.698106E+03  5.396977E+04
       173  24  1.035811E+05  3.954568E+05  1.252926E+05 -4.507458E+04  2.425383E+03  8.467780E+04
       173  25  1.694008E+04  4.857459E+05  5.621201E+04 -3.013157E+04  4.351659E+03  1.834462E+04
       173  26  3.772302E+04  5.423042E+05  9.451783E+04 -4.601938E+04  6.695946E+03  5.479068E+04
       173  27  1.618319E+05  6.293901E+05  1.823588E+05 -9.299317E+04  2.413853E+03  9.123605E+04
       174   1  2.416674E+04  8.513006E+03 -6.546876E+03 -7.003960E+03 -4.340032E+04 -2.742621E+03
       174   2  1.090415E+04  6.542916E+04  2.514556E+04 -1.299480E+03 -3.007071E+04 -8.129339E+03
       174   3 -2.070563E+04  5.586366E+04  3.154734E+04  1.952140E+04 -1.674872E+04 -7.525799E+03
       174   4 -2.342201E+05 -5.584571E+04 -7.017252E+04  1.166346E+04 -4.802151E+04 -2.749249E+03
       174   5 -2.247515E+05  7.107811E+03 -3.086399E+04  4.070176E+03 -3.139153E+04 -8.131475E+03
       174   6 -2.342117E+05  2.992203E+03 -1.914599E+04  1.159389E+04 -1.476858E+04 -7.523008E+03
       174   7 -4.925453E+05 -1.202081E+05 -1.338028E+05  3.032308E+04 -5.264077E+04 -2.756156E+03
       174   8 -4.603562E+05 -5.121743E+04 -8.687739E+04  9.437767E+03 -3.271185E+04 -8.133633E+03
       174   9 -4.476757E+05 -4.988230E+04 -6.984246E+04  3.669108E+03 -1.278912E+04 -7.520267E+03
       174  10  2.416472E+04  8.512492E+03 -6.550430E+03 -7.004056E+03 -3.924649E-09  1.189073E-09
       174  11  1.090316E+04  6.542885E+04  2.514373E+04 -1.299677E+03 -2.605331E-09  4.863040E-09
       174  12 -2.070594E+04  5.586352E+04  3.154671E+04  1.952129E+04  2.383120E-09  4.957649E-10
       174  13 -2.342225E+05 -5.584633E+04 -7.017687E+04  1.166335E+04  7.597372E-10 -1.236641E-09
       174  14 -2.247526E+05  7.107475E+03 -3.086596E+04  4.069970E+03  3.984033E-10 -2.421450E-09
       174  15 -2.342119E+05  2.992083E+03 -1.914651E+04  1.159380E+04 -4.674730E-09  9.905793E-11
       174  16 -4.925483E+05 -1.202088E+05 -1.338080E+05  3.032297E+04  1.859266E-09  1.178386E-10
       174  17 -4.603574E+05 -5.121779E+04 -8.687952E+04  9.437553E+03 -2.503254E-09  2.456232E-09
       174  18 -4.476759E+05 -4.988241E+04 -6.984287E+04  3.669030E+03 -2.474083E-09 -1.540394E-09
       174  19  2.416674E+04  8.513006E+03 -6.546876E+03 -7.003960E+03  4.340032E+04  2.742621E+03
       174  20  1.090415E+04  6.542916E+04  2.514556E+04 -1.299480E+03  3.007071E+04  8.129339E+03
       174  21 -2.070563E+04  5.586366E+04  3.154734E+04  1.952140E+04  1.674872E+04  7.525799E+03
       174  22 -2.342201E+05 -5.584571E+04 -7.017252E+04  1.166346E+04  4.802151E+04  2.749249E+03
       174  23 -2.247515E+05  7.107811E+03 -3.086399E+04  4.070176E+03  3.139153E+04  8.131475E+03
       174  24 -2.342117E+05  2.992203E+03 -1.914599E+04  1.159389E+04  1.476858E+04  7.523008E+03
       174  25 -4.925453E+05 -1.202081E+05 -1.338028E+05  3.032308E+04  5.264077E+04  2.756156E+03
       174  26 -4.603562E+05 -5.121743E+04 -8.687739E+04  9.437767E+03  3.271185E+04  8.133633E+03
       174  27 -4.476757E+05 -4.988230E+04 -6.984246E+04  3.669108E+03  1.278912E+04  7.520267E+03
       175   1 -4.440070E+04  4.064077E+04  2.874867E+04  1.023458E+04 -1.201642E+04 -6.143868E+03
       175   2 -6.583344E+04  4.122927E+04  3.088825E+04  3.769790E+03 -8.152859E+03 -5.605104E+03
       175   3 -8.943992E+04  3.526515E+04  2.886761E+04  1.265329E+04 -4.290365E+03 -4.663339E+03
       175   4 -2.304958E+05 -5.443878E+03 -1.557933E+04  1.167300E+04 -1.183101E+04 -6.143752E+03
       175   5 -2.293877E+05  7.375219E+02 -7.996793E+03  3.994402E+03 -7.746130E+03 -5.604582E+03
       175   6 -2.304933E+05  3.267766E+02 -4.729213E+03  1.166440E+04 -3.662179E+03 -4.662376E+03
       175   7 -4.165591E+05 -5.153101E+04 -5.990976E+04  1.311098E+04 -1.164566E+04 -6.143635E+03
       175   8 -3.929173E+05 -3.975615E+04 -4.688370E+04  4.218944E+03 -7.339507E+03 -5.604059E+03
       175   9 -3.715283E+05 -3.461303E+04 -3.832742E+04  1.067573E+04 -3.034135E+03 -4.661416E+03
       175  10 -4.440087E+04  4.064069E+04  2.874833E+04  1.023452E+04 -1.750590E-10 -4.126957E-09
       175  11 -6.583352E+04  4.122922E+04  3.088806E+04  3.769753E+03  6.323766E-11 -2.992219E-10
       175  12 -8.943995E+04  3.526512E+04  2.886753E+04  1.265327E+04  2.061757E-09  2.980715E-09
       175  13 -2.304960E+05 -5.443956E+03 -1.557966E+04  1.167294E+04  6.072134E-10  1.937539E-09
       175  14 -2.293877E+05  7.374721E+02 -7.996965E+03  3.994367E+03 -5.733535E-10 -1.210248E-08
       175  15 -2.304933E+05  3.267496E+02 -4.729279E+03  1.166439E+04 -2.230172E-09  2.062025E-09
       175  16 -4.165593E+05 -5.153109E+04 -5.991008E+04  1.311092E+04  2.155051E-09 -5.769493E-09
       175  17 -3.929174E+05 -3.975620E+04 -4.688386E+04  4.218911E+03 -5.755771E-10 -3.821979E-09
       175  18 -3.715283E+05 -3.461305E+04 -3.832748E+04  1.067572E+04 -1.779381E-09 -8.434911E-10
       175  19 -4.440070E+04  4.064077E+04  2.874867E+04  1.023458E+04  1.201642E+04  6.143868E+03
       175  20 -6.583344E+04  4.122927E+04  3.088825E+04  3.769790E+03  8.152859E+03  5.605104E+03
       175  21 -8.943992E+04  3.526515E+04  2.886761E+04  1.265329E+04  4.290365E+03  4.663339E+03
       175  22 -2.304958E+05 -5.443878E+03 -1.557933E+04  1.167300E+04  1.183101E+04  6.143752E+03
       175  23 -2.293877E+05  7.375219E+02 -7.996793E+03  3.994402E+03  7.746130E+03  5.604582E+03
       175  24 -2.304933E+05  3.267766E+02 -4.729213E+03  1.166440E+04  3.662179E+03  4.662376E+03
       175  25 -4.165591E+05 -5.153101E+04 -5.990976E+04  1.311098E+04  1.164566E+04  6.143635E+03
       175  26 -3.929173E+05 -3.975615E+04 -4.688370E+04  4.218944E+03  7.339507E+03  5.604059E+03
       175  27 -3.715283E+05 -3.461303E+04 -3.832742E+04  1.067573E+04  3.034135E+03  4.661416E+03
       176   1 -1.165729E+05  2.760179E+04  2.323869E+04  1.172337E+04 -3.429019E+03 -4.047224E+03
       176   2 -1.390226E+05  2.259331E+04  1.958193E+04  4.081063E+03 -2.431573E+03 -3.110646E+03
       176   3 -1.618101E+05  1.698579E+04  1.511331E+04  1.186953E+04 -1.434367E+03 -2.145986E+03
       176   4 -2.300752E+05 -4.885021E+02 -3.689842E+03  1.168600E+04 -2.920442E+03 -4.046421E+03
       176   5 -2.299044E+05  9.135209E+01 -2.026761E+03  3.970075E+03 -1.907673E+03 -3.109775E+03
       176   6 -2.300742E+05  6.955538E+01 -1.186210E+03  1.168506E+04 -8.951065E+02 -2.145043E+03
       176   7 -3.435658E+05 -2.857972E+04 -3.061927E+04  1.164864E+04 -2.411957E+03 -4.045619E+03
       176   8 -3.207786E+05 -2.241120E+04 -2.363603E+04  3.859100E+03 -1.383848E+03 -3.108905E+03
       176   9 -2.983340E+05 -1.684702E+04 -1.748606E+04  1.150060E+04 -3.559047E+02 -2.144101E+03
       176  10 -1.165729E+05  2.760177E+04  2.323864E+04  1.172335E+04  4.750403E-09 -2.626251E-09
       176  11 -1.390226E+05  2.259330E+04  1.958191E+04  4.081057E+03 -2.870689E-09 -1.657085E-09
       176  12 -1.618101E+05  1.698579E+04  1.511330E+04  1.186953E+04 -6.773839E-09 -2.340908E-09
       176  13 -2.300752E+05 -4.885220E+02 -3.689889E+03  1.168599E+04  3.047646E-09 -5.350077E-10
       176  14 -2.299044E+05  9.134073E+01 -2.026786E+03  3.970070E+03 -3.132026E-09 -3.333368E-09
       176  15 -2.300742E+05  6.955023E+01 -1.186220E+03  1.168506E+04  1.853224E-09 -8.408969E-10
       176  16 -3.435658E+05 -2.857974E+04 -3.061931E+04  1.164864E+04 -5.763263E-09 -3.996208E-09
       176  17 -3.207786E+05 -2.241121E+04 -2.363605E+04  3.859096E+03  3.667299E-09  1.469926E-09
       176  18 -2.983340E+05 -1.684702E+04 -1.748606E+04  1.150060E+04  7.718437E-09  5.432532E-09
       176  19 -1.165729E+05  2.760179E+04  2.323869E+04  1.172337E+04  3.429019E+03  4.047224E+03
       176  20 -1.390226E+05  2.259331E+04  1.958193E+04  4.081063E+03  2.431573E+03  3.110646E+03
       176  21 -1.618101E+05  1.698579E+04  1.511331E+04  1.186953E+04  1.434367E+03  2.145986E+03
       176  22 -2.300752E+05 -4.885021E+02 -3.689842E+03  1.168600E+04  2.920442E+03  4.046421E+03
       176  23 -2.299044E+05  9.135209E+01 -2.026761E+03  3.970075E+03  1.907673E+03  3.109775E+03
       176  24 -2.300742E+05  6.955538E+01 -1.186210E+03  1.168506E+04  8.951065E+02  2.145043E+03
       176  25 -3.435658E+05 -2.857972E+04 -3.061927E+04  1.164864E+04  2.411957E+03  4.045619E+03
       176  26 -3.207786E+05 -2.241120E+04 -2.363603E+04  3.859100E+03  1.383848E+03  3.108905E+03
       176  27 -2.983340E+05 -1.684702E+04 -1.748606E+04  1.150060E+04  3.559047E+02  2.144101E+03
       177   1 -1.894002E+05  1.003842E+04  8.672894E+03  1.175005E+04 -1.238902E+03 -1.580008E+03
       177   2 -2.120110E+05  4.471066E+03  3.728942E+03  3.992817E+03 -9.731770E+02 -6.155445E+02
       177   3 -2.347277E+05 -1.107601E+03 -1.405789E+03  1.169728E+04 -7.074989E+02  3.508158E+02
       177   4 -2.300213E+05 -5.949061E+00 -9.177639E+02  1.169226E+04 -7.074113E+02 -1.579061E+03
       177   5 -2.299680E+05  2.475151E+01 -5.408388E+02  3.961353E+03 -4.406644E+02 -6.145888E+02
       177   6 -2.300211E+05  4.399720E+01 -3.553897E+02  1.169217E+04 -1.739550E+02  3.517830E+02
       177   7 -2.706410E+05 -1.005044E+04 -1.050853E+04  1.163447E+04 -1.759549E+02 -1.578115E+03
       177   8 -2.479247E+05 -4.421586E+03 -4.810641E+03  3.929891E+03  9.183300E+01 -6.136331E+02
       177   9 -2.253145E+05  1.195594E+03  6.950094E+02  1.168706E+04  3.595930E+02  3.527502E+02
       177  10 -1.894002E+05  1.003842E+04  8.672887E+03  1.175005E+04  2.950201E-09 -4.214103E-09
       177  11 -2.120110E+05  4.471065E+03  3.728940E+03  3.992816E+03 -3.278210E-09  1.636321E-09
       177  12 -2.347277E+05 -1.107601E+03 -1.405790E+03  1.169728E+04 -9.664362E-09  6.584140E-10
       177  13 -2.300213E+05 -5.951873E+00 -9.177695E+02  1.169226E+04 -3.360806E-09  1.442542E-09
       177  14 -2.299680E+05  2.475105E+01 -5.408398E+02  3.961353E+03 -1.974213E-09 -1.875186E-09
       177  15 -2.300211E+05  4.399706E+01 -3.553900E+02  1.169217E+04  2.208359E-10 -1.768377E-09
       177  16 -2.706410E+05 -1.005044E+04 -1.050854E+04  1.163447E+04 -4.572776E-09  3.286281E-09
       177  17 -2.479247E+05 -4.421586E+03 -4.810642E+03  3.929891E+03 -1.264822E-09  6.074219E-09
       177  18 -2.253145E+05  1.195594E+03  6.950089E+02  1.168706E+04  7.486017E-09  2.192916E-09
       177  19 -1.894002E+05  1.003842E+04  8.672894E+03  1.175005E+04  1.238902E+03  1.580008E+03
       177  20 -2.120110E+05  4.471066E+03  3.728942E+03  3.992817E+03  9.731770E+02  6.155445E+02
       177  21 -2.347277E+05 -1.107601E+03 -1.405789E+03  1.169728E+04  7.074989E+02 -3.508158E+02
       177  22 -2.300213E+05 -5.949061E+00 -9.177639E+02  1.169226E+04  7.074113E+02  1.579061E+03
       177  23 -2.299680E+05  2.475151E+01 -5.408388E+02  3.961353E+03  4.406644E+02  6.145888E+02
       177  24 -2.300211E+05  4.399720E+01 -3.553897E+02  1.169217E+04  1.739550E+02 -3.517830E+02
       177  25 -2.706410E+05 -1.005044E+04 -1.050853E+04  1.163447E+04  1.759549E+02  1.578115E+03
       177  26 -2.479247E+05 -4.421586E+03 -4.810641E+03  3.929891E+03 -9.183300E+01  6.136331E+02
       177  27 -2.253145E+05  1.195594E+03  6.950094E+02  1.168706E+04 -3.595930E+02 -3.527502E+02
       178   1 -2.623807E+05 -7.988119E+03 -8.071148E+03  1.164596E+04 -6.488064E+02  9.138078E+02
       178   2 -2.849897E+05 -1.360384E+04 -1.335579E+04  3.891914E+03 -5.130497E+02  1.879556E+03
       178   3 -3.076737E+05 -1.919131E+04 -1.873591E+04  1.158942E+04 -3.771903E+02  2.842612E+03
       178   4 -2.300145E+05  3.999153E+01 -3.061730E+02  1.168991E+04 -1.152856E+02  9.147688E+02
       178   5 -2.299770E+05  1.831144E+01 -2.743952E+02  3.964191E+03  1.898179E+01  1.880487E+03
       178   6 -2.300151E+05  2.508642E+01 -3.371204E+02  1.168994E+04  1.533569E+02  2.843515E+03
       178   7 -1.976474E+05  8.068026E+03  7.458729E+03  1.173387E+04  4.182629E+02  9.157298E+02
       178   8 -1.749615E+05  1.364024E+04  1.280678E+04  4.036473E+03  5.510602E+02  1.881418E+03
       178   9 -1.523509E+05  1.924105E+04  1.806125E+04  1.179047E+04  6.839701E+02  2.844418E+03
       178  10 -2.623807E+05 -7.988120E+03 -8.071150E+03  1.164596E+04 -1.738863E-09  1.190029E-09
       178  11 -2.849897E+05 -1.360384E+04 -1.335579E+04  3.891915E+03 -1.778641E-09 -2.361393E-09
       178  12 -3.076737E+05 -1.919132E+04 -1.873592E+04  1.158942E+04 -3.053584E-09 -2.691555E-09
       178  13 -2.300145E+05  3.999063E+01 -3.061746E+02  1.168991E+04  7.868685E-10  3.643672E-09
       178  14 -2.299770E+05  1.830764E+01 -2.744019E+02  3.964191E+03 -4.302898E-09 -3.691898E-09
       178  15 -2.300151E+05  2.507773E+01 -3.371356E+02  1.168994E+04  1.774957E-09 -3.946285E-09
       178  16 -1.976474E+05  8.068025E+03  7.458727E+03  1.173387E+04  2.033515E-09  6.563772E-10
       178  17 -1.749615E+05  1.364024E+04  1.280678E+04  4.036472E+03 -3.865915E-09 -9.377281E-09
       178  18 -1.523509E+05  1.924104E+04  1.806123E+04  1.179046E+04  1.820449E-09 -4.709451E-09
       178  19 -2.623807E+05 -7.988119E+03 -8.071148E+03  1.164596E+04  6.488064E+02 -9.138078E+02
       178  20 -2.849897E+05 -1.360384E+04 -1.335579E+04  3.891914E+03  5.130497E+02 -1.879556E+03
       178  21 -3.076737E+05 -1.919131E+04 -1.873591E+04  1.158942E+04  3.771903E+02 -2.842612E+03
       178  22 -2.300145E+05  3.999153E+01 -3.061730E+02  1.168991E+04  1.152856E+02 -9.147688E+02
       178  23 -2.299770E+05  1.831144E+01 -2.743952E+02  3.964191E+03 -1.898179E+01 -1.880487E+03
       178  24 -2.300151E+05  2.508642E+01 -3.371204E+02  1.168994E+04 -1.533569E+02 -2.843515E+03
       178  25 -1.976474E+05  8.068026E+03  7.458729E+03  1.173387E+04 -4.182629E+02 -9.157298E+02
       178  26 -1.749615E+05  1.364024E+04  1.280678E+04  4.036473E+03 -5.510602E+02 -1.881418E+03
       178  27 -1.523509E+05  1.924105E+04  1.806125E+04  1.179047E+04 -6.839701E+02 -2.844418E+03
       179   1 -3.352866E+05 -2.603063E+04 -2.549819E+04  1.151466E+04 -3.207007E+02  3.408100E+03
       179   2 -3.577917E+05 -3.161959E+04 -3.102552E+04  3.825513E+03  9.650956E+00  4.369767E+03
       179   3 -3.804239E+05 -3.735522E+04 -3.681521E+04  1.153198E+04  3.402886E+02  5.299274E+03
       179   4 -2.300272E+05  4.804814E+01 -3.998207E+02  1.167738E+04  2.184982E+02  3.408988E+03
       179   5 -2.299658E+05  3.377554E+01 -6.286940E+02  3.979808E+03  5.311588E+02  4.370563E+03
       179   6 -2.300285E+05 -1.239430E+02 -1.107475E+03  1.167766E+04  8.441170E+02  5.299982E+03
       179   7 -1.247576E+05  2.612592E+04  2.469777E+04  1.184012E+04  7.577881E+02  3.409876E+03
       179   8 -1.021248E+05  3.168596E+04  2.976699E+04  4.134128E+03  1.052773E+03  4.371358E+03
       179   9 -7.961228E+04  3.710571E+04  3.459868E+04  1.182336E+04  1.348067E+03  5.300691E+03
       179  10 -3.352866E+05 -2.603064E+04 -2.549821E+04  1.151467E+04 -4.905924E-09  2.678561E-10
       179  11 -3.577918E+05 -3.161961E+04 -3.102556E+04  3.825513E+03 -1.705601E-09 -3.042987E-09
       179  12 -3.804239E+05 -3.735525E+04 -3.681526E+04  1.153198E+04  1.607018E-09 -2.329532E-09
       179  13 -2.300272E+05  4.803565E+01 -3.998426E+02  1.167738E+04 -1.237477E-09  1.070231E-09
       179  14 -2.299658E+05  3.375496E+01 -6.287304E+02  3.979806E+03 -3.236448E-09  3.362637E-09
       179  15 -2.300285E+05 -1.239734E+02 -1.107529E+03  1.167765E+04  1.187341E-09  2.429335E-09
       179  16 -1.247576E+05  2.612591E+04  2.469775E+04  1.184012E+04  3.602696E-09  2.719541E-09
       179  17 -1.021249E+05  3.168594E+04  2.976695E+04  4.134124E+03  2.193927E-09 -2.602243E-09
       179  18 -7.961229E+04  3.710568E+04  3.459862E+04  1.182335E+04 -2.223658E-09  3.805131E-09
       179  19 -3.352866E+05 -2.603063E+04 -2.549819E+04  1.151466E+04  3.207007E+02 -3.408100E+03
       179  20 -3.577917E+05 -3.161959E+04 -3.102552E+04  3.825513E+03 -9.650956E+00 -4.369767E+03
       179  21 -3.804239E+05 -3.735522E+04 -3.681521E+04  1.153198E+04 -3.402886E+02 -5.299274E+03
       179  22 -2.300272E+05  4.804814E+01 -3.998207E+02  1.167738E+04 -2.184982E+02 -3.408988E+03
       179  23 -2.299658E+05  3.377554E+01 -6.286940E+02  3.979808E+03 -5.311588E+02 -4.370563E+03
       179  24 -2.300285E+05 -1.239430E+02 -1.107475E+03  1.167766E+04 -8.441170E+02 -5.299982E+03
       179  25 -1.247576E+05  2.612592E+04  2.469777E+04  1.184012E+04 -7.577881E+02 -3.409876E+03
       179  26 -1.021248E+05  3.168596E+04  2.976699E+04  4.134128E+03 -1.052773E+03 -4.371358E+03
       179  27 -7.961228E+04  3.710571E+04  3.459868E+04  1.182336E+04 -1.348067E+03 -5.300691E+03
       180   1 -4.080120E+05 -4.393942E+04 -4.376473E+04  1.120820E+04  4.260078E+02  5.919998E+03
       180   2 -4.300965E+05 -4.937571E+04 -5.000044E+04  3.920756E+03  1.888862E+03  6.851890E+03
       180   3 -4.528776E+05 -5.677358E+04 -5.768316E+04  1.192440E+04  3.352618E+03  7.327151E+03
       180   4 -2.301484E+05  1.184979E+02 -1.409634E+03  1.165350E+04  1.065110E+03  5.920859E+03
       180   5 -2.298230E+05  2.191784E+02 -2.374589E+03  4.009262E+03  2.276391E+03  6.852288E+03
       180   6 -2.301506E+05 -1.597618E+03 -4.611431E+03  1.165582E+04  3.488626E+03  7.327151E+03
       180   7 -5.225578E+04  4.417413E+04  4.094324E+04  1.209892E+04  1.704395E+03  5.921721E+03
       180   8 -2.951267E+04  4.981118E+04  4.524845E+04  4.097784E+03  2.664045E+03  6.852686E+03
       180   9 -7.378193E+03  5.357476E+04  4.845682E+04  1.138712E+04  3.624683E+03  7.327151E+03
       180  10 -4.080121E+05 -4.393946E+04 -4.376479E+04  1.120820E+04  2.148395E-09 -1.997411E-09
       180  11 -4.300965E+05 -4.937576E+04 -5.000053E+04  3.920745E+03 -6.558282E-10  2.327034E-09
       180  12 -4.528776E+05 -5.677364E+04 -5.768328E+04  1.192438E+04  6.740547E-09 -1.832857E-09
       180  13 -2.301484E+05  1.184600E+02 -1.409702E+03  1.165350E+04 -1.187472E-09 -4.227063E-09
       180  14 -2.298230E+05  2.191266E+02 -2.374687E+03  4.009250E+03 -3.483677E-09  3.340715E-09
       180  15 -2.301507E+05 -1.597679E+03 -4.611555E+03  1.165580E+04 -9.796864E-10 -1.631836E-09
       180  16 -5.225579E+04  4.417410E+04  4.094317E+04  1.209892E+04 -1.656078E-09 -5.375549E-10
       180  17 -2.951269E+04  4.981112E+04  4.524835E+04  4.097770E+03 -2.935251E-09 -7.679346E-09
       180  18 -7.378222E+03  5.357470E+04  4.845669E+04  1.138710E+04 -5.880755E-09 -6.482176E-10
       180  19 -4.080120E+05 -4.393942E+04 -4.376473E+04  1.120820E+04 -4.260078E+02 -5.919998E+03
       180  20 -4.300965E+05 -4.937571E+04 -5.000044E+04  3.920756E+03 -1.888862E+03 -6.851890E+03
       180  21 -4.528776E+05 -5.677358E+04 -5.768316E+04  1.192440E+04 -3.352618E+03 -7.327151E+03
       180  22 -2.301484E+05  1.184979E+02 -1.409634E+03  1.165350E+04 -1.065110E+03 -5.920859E+03
       180  23 -2.298230E+05  2.191784E+02 -2.374589E+03  4.009262E+03 -2.276391E+03 -6.852288E+03
       180  24 -2.301506E+05 -1.597618E+03 -4.611431E+03  1.165582E+04 -3.488626E+03 -7.327151E+03
       180  25 -5.225578E+04  4.417413E+04  4.094324E+04  1.209892E+04 -1.704395E+03 -5.921721E+03
       180  26 -2.951267E+04  4.981118E+04  4.524845E+04  4.097784E+03 -2.664045E+03 -6.852686E+03
       180  27 -7.378193E+03  5.357476E+04  4.845682E+04  1.138712E+04 -3.624683E+03 -7.327151E+03
       181   1 -4.812806E+05 -6.101150E+04 -6.503558E+04  9.071712E+03  2.187566E+03  8.808177E+03
       181   2 -5.004788E+05 -6.526158E+04 -7.380961E+04  5.531644E+03  1.084902E+04  9.353534E+03
       181   3 -5.258897E+05 -8.996318E+04 -9.333275E+04  1.697378E+04  1.951651E+04  3.111198E+03
       181   4 -2.312443E+05  8.975020E+02 -5.663824E+03  1.158019E+04  4.356182E+03  8.810612E+03
       181   5 -2.284662E+05  2.094399E+03 -9.135813E+03  4.097777E+03  9.275193E+03  9.351543E+03
       181   6 -2.312488E+05 -1.650549E+04 -2.075418E+04  1.159740E+04  1.420064E+04  3.105985E+03
       181   7  1.884944E+04  6.280203E+04  5.370359E+04  1.408966E+04  6.525667E+03  8.813064E+03
       181   8  4.361440E+04  6.944505E+04  5.553282E+04  2.663259E+03  7.700677E+03  9.349558E+03
       181   9  6.347126E+04  5.694586E+04  5.181810E+04  6.218444E+03  8.882254E+03  3.100866E+03
       181  10 -4.812806E+05 -6.101159E+04 -6.503574E+04  9.071697E+03  2.586985E-09 -6.663781E-10
       181  11 -5.004789E+05 -6.526170E+04 -7.381000E+04  5.531562E+03 -1.485558E-09  1.654093E-09
       181  12 -5.258901E+05 -8.996330E+04 -9.333349E+04  1.697373E+04 -2.585071E-09  4.244482E-09
       181  13 -2.312443E+05  8.974136E+02 -5.664006E+03  1.158016E+04  6.637947E-10  1.755646E-09
       181  14 -2.284663E+05  2.094282E+03 -9.136139E+03  4.097707E+03 -1.071720E-09  1.640115E-09
       181  15 -2.312490E+05 -1.650556E+04 -2.075458E+04  1.159736E+04 -3.166145E-10  2.694017E-09
       181  16  1.884938E+04  6.280194E+04  5.370337E+04  1.408961E+04 -3.061852E-09  1.948636E-09
       181  17  4.361431E+04  6.944494E+04  5.553255E+04  2.663201E+03  2.475132E-09  2.498144E-09
       181  18  6.347117E+04  5.694582E+04  5.181793E+04  6.218422E+03  2.595201E-09 -6.106645E-10
       181  19 -4.812806E+05 -6.101150E+04 -6.503558E+04  9.071712E+03 -2.187566E+03 -8.808177E+03
       181  20 -5.004788E+05 -6.526158E+04 -7.380961E+04  5.531644E+03 -1.084902E+04 -9.353534E+03
       181  21 -5.258897E+05 -8.996318E+04 -9.333275E+04  1.697378E+04 -1.951651E+04 -3.111198E+03
       181  22 -2.312443E+05  8.975020E+02 -5.663824E+03  1.158019E+04 -4.356182E+03 -8.810612E+03
       181  23 -2.284662E+05  2.094399E+03 -9.135813E+03  4.097777E+03 -9.275193E+03 -9.351543E+03
       181  24 -2.312488E+05 -1.650549E+04 -2.075418E+04  1.159740E+04 -1.420064E+04 -3.105985E+03
       181  25  1.884944E+04  6.280203E+04  5.370359E+04  1.408966E+04 -6.525667E+03 -8.813064E+03
       181  26  4.361440E+04  6.944505E+04  5.553282E+04  2.663259E+03 -7.700677E+03 -9.349558E+03
       181  27  6.347126E+04  5.694586E+04  5.181810E+04  6.218444E+03 -8.882254E+03 -3.100866E+03
       182   1 -1.989878E+05 -7.305133E+05 -1.957991E+05  1.658377E+05 -8.008340E+03 -5.833471E+04
       182   2 -1.316205E+05 -5.588029E+05 -1.219649E+05  1.355790E+05 -2.397184E+04 -2.482410E+04
       182   3 -8.652256E+04 -3.968648E+05 -7.551834E+04  1.476122E+05 -2.174518E+04  8.715359E+03
       182   4 -2.664217E+04 -3.544766E+04 -2.962274E+04  1.498473E+05 -8.035097E+03 -2.172999E+04
       182   5 -4.641928E+03 -3.283402E+04 -1.328711E+04  1.287110E+05 -2.397695E+04 -1.481605E+04
       182   6 -2.785632E+02 -3.539114E+04 -5.848343E+03  1.498671E+05 -2.173467E+04 -7.883228E+03
       182   7  1.456701E+05  6.600646E+05  1.365247E+05  1.338390E+05 -8.063731E+03  1.491557E+04
       182   8  1.223194E+05  4.933977E+05  9.537611E+04  1.218370E+05 -2.398228E+04 -4.799660E+03
       182   9  8.595784E+04  3.262088E+05  6.381664E+04  1.521234E+05 -2.172429E+04 -2.449126E+04
       182  10 -1.989887E+05 -7.305170E+05 -1.958056E+05  1.658373E+05  2.315351E-09  3.610134E-09
       182  11 -1.316213E+05 -5.588038E+05 -1.219671E+05  1.355785E+05  2.189078E-09  3.689192E-10
       182  12 -8.652308E+04 -3.968650E+05 -7.551937E+04  1.476124E+05 -3.320367E-09 -6.767765E-09
       182  13 -2.664236E+04 -3.544818E+04 -2.962375E+04  1.498472E+05  1.121727E-09  2.249938E-09
       182  14 -4.642604E+03 -3.283441E+04 -1.328860E+04  1.287107E+05 -1.732463E-09 -2.819598E-09
       182  15 -2.790870E+02 -3.539133E+04 -5.849348E+03  1.498670E+05 -1.248081E-09  2.023494E-09
       182  16  1.456699E+05  6.600643E+05  1.365242E+05  1.338390E+05  1.770331E-10 -4.194558E-09
       182  17  1.223188E+05  4.933975E+05  9.537499E+04  1.218369E+05 -2.980177E-09  1.370330E-10
       182  18  8.595717E+04  3.262081E+05  6.381463E+04  1.521230E+05 -9.249473E-11  6.750103E-09
       182  19 -1.989878E+05 -7.305133E+05 -1.957991E+05  1.658377E+05  8.008340E+03  5.833471E+04
       182  20 -1.316205E+05 -5.588029E+05 -1.219649E+05  1.355790E+05  2.397184E+04  2.482410E+04
       182  21 -8.652256E+04 -3.968648E+05 -7.551834E+04  1.476122E+05  2.174518E+04 -8.715359E+03
       182  22 -2.664217E+04 -3.544766E+04 -2.962274E+04  1.498473E+05  8.035097E+03  2.172999E+04
       182  23 -4.641928E+03 -3.283402E+04 -1.328711E+04  1.287110E+05  2.397695E+04  1.481605E+04
       182  24 -2.785632E+02 -3.539114E+04 -5.848343E+03  1.498671E+05  2.173467E+04  7.883228E+03
       182  25  1.456701E+05  6.600646E+05  1.365247E+05  1.338390E+05  8.063731E+03 -1.491557E+04
       182  26  1.223194E+05  4.933977E+05  9.537611E+04  1.218370E+05  2.398228E+04  4.799660E+03
       182  27  8.595784E+04  3.262088E+05  6.381664E+04  1.521234E+05  2.172429E+04  2.449126E+04
       183   1 -6.052178E+04 -2.824618E+05 -5.108205E+04  1.502335E+05 -1.497164E+04  6.383823E+03
       183   2 -1.945481E+04 -1.158387E+05 -1.339241E+04  1.286295E+05 -5.499683E+03  5.940526E+03
       183   3  2.189202E+04  5.102874E+04  2.467498E+04  1.503667E+05  4.261834E+03  5.496654E+03
       183   4 -1.288679E+03 -3.416366E+04 -3.262259E+03  1.500959E+05 -1.496391E+04 -7.268249E+03
       183   5 -1.171576E+02 -3.430524E+04  1.753967E+03  1.284262E+05 -5.492153E+03 -8.136572E+03
       183   6  1.409761E+03 -3.415470E+04  7.444317E+03  1.500973E+05  4.269072E+03 -9.005359E+03
       183   7  5.794087E+04  2.141942E+05  4.455538E+04  1.499581E+05 -1.495617E+04 -2.092566E+04
       183   8  1.922022E+04  4.723507E+04  1.690080E+04  1.282228E+05 -5.484615E+03 -2.221547E+04
       183   9 -1.907283E+04 -1.193308E+05 -9.785931E+03  1.498279E+05  4.276322E+03 -2.350542E+04
       183  10 -6.052203E+04 -2.824619E+05 -5.108255E+04  1.502336E+05 -3.479263E-09  2.010860E-09
       183  11 -1.945485E+04 -1.158387E+05 -1.339253E+04  1.286295E+05  3.290766E-11  2.407246E-09
       183  12  2.189199E+04  5.102870E+04  2.467489E+04  1.503667E+05 -1.195126E-09 -2.129891E-09
       183  13 -1.288934E+03 -3.416378E+04 -3.262779E+03  1.500958E+05 -1.772805E-09  1.145772E-09
       183  14 -1.172078E+02 -3.430532E+04  1.753786E+03  1.284261E+05 -2.689256E-10 -1.102421E-09
       183  15  1.409719E+03 -3.415479E+04  7.444130E+03  1.500973E+05 -6.569881E-10 -1.942951E-10
       183  16  5.794051E+04  2.141937E+05  4.455414E+04  1.499579E+05  1.453086E-09 -2.325225E-09
       183  17  1.922005E+04  4.723453E+04  1.689982E+04  1.282227E+05 -1.314344E-09 -1.449068E-09
       183  18 -1.907300E+04 -1.193314E+05 -9.787004E+03  1.498280E+05 -1.374756E-09  1.058815E-09
       183  19 -6.052178E+04 -2.824618E+05 -5.108205E+04  1.502335E+05  1.497164E+04 -6.383823E+03
       183  20 -1.945481E+04 -1.158387E+05 -1.339241E+04  1.286295E+05  5.499683E+03 -5.940526E+03
       183  21  2.189202E+04  5.102874E+04  2.467498E+04  1.503667E+05 -4.261834E+03 -5.496654E+03
       183  22 -1.288679E+03 -3.416366E+04 -3.262259E+03  1.500959E+05  1.496391E+04  7.268249E+03
       183  23 -1.171576E+02 -3.430524E+04  1.753967E+03  1.284262E+05  5.492153E+03  8.136572E+03
       183  24  1.409761E+03 -3.415470E+04  7.444317E+03  1.500973E+05 -4.269072E+03  9.005359E+03
       183  25  5.794087E+04  2.141942E+05  4.455538E+04  1.499581E+05  1.495617E+04  2.092566E+04
       183  26  1.922022E+04  4.723507E+04  1.690080E+04  1.282228E+05  5.484615E+03  2.221547E+04
       183  27 -1.907283E+04 -1.193308E+05 -9.785931E+03  1.498279E+05 -4.276322E+03  2.350542E+04
       184   1  4.734113E+04  1.658520E+05  4.973655E+04  1.462145E+05  1.108009E+04  6.404840E+03
       184   2  9.435657E+04  3.268143E+05  9.725311E+04  1.385963E+05  1.542203E+04 -2.535949E+04
       184   3  1.718802E+05  4.996702E+05  1.730908E+05  1.735607E+05  5.573782E+03 -5.714512E+04
       184   4 -1.071237E+02 -3.238794E+04  1.074359E+04  1.499226E+05  1.108900E+04 -1.031535E+04
       184   5  6.486856E+03 -3.654244E+04  2.111964E+04  1.286461E+05  1.542066E+04 -2.129303E+04
       184   6  3.999324E+04 -3.242595E+04  4.539265E+04  1.499500E+05  5.559753E+03 -3.228343E+04
       184   7 -4.755755E+04 -2.305896E+05 -2.825021E+04  1.536296E+05  1.109772E+04 -2.703031E+04
       184   8 -8.139094E+04 -3.997742E+05 -5.502106E+04  1.187017E+05  1.541917E+04 -1.722891E+04
       184   9 -9.191183E+04 -5.642604E+05 -8.232302E+04  1.263596E+05  5.543830E+03 -7.442931E+03
       184  10  4.734098E+04  1.658519E+05  4.973624E+04  1.462144E+05 -2.677294E-09  6.389915E-10
       184  11  9.435614E+04  3.268135E+05  9.725145E+04  1.385967E+05  6.474932E-10  1.797736E-09
       184  12  1.718793E+05  4.996667E+05  1.730847E+05  1.735609E+05  1.067234E-09 -7.529340E-11
       184  13 -1.072843E+02 -3.238809E+04  1.074316E+04  1.499227E+05 -3.240299E-09  2.175530E-09
       184  14  6.486479E+03 -3.654299E+04  2.111834E+04  1.286463E+05  9.218960E-11 -9.988965E-10
       184  15  3.999293E+04 -3.242708E+04  4.539063E+04  1.499501E+05 -6.972672E-10  9.846130E-10
       184  16 -4.755788E+04 -2.305904E+05 -2.825182E+04  1.536298E+05  1.631841E-09 -9.312672E-10
       184  17 -8.139127E+04 -3.997745E+05 -5.502206E+04  1.187019E+05  8.303847E-10 -1.389520E-09
       184  18 -9.191188E+04 -5.642605E+05 -8.232318E+04  1.263597E+05 -1.588698E-09 -2.138737E-10
       184  19  4.734113E+04  1.658520E+05  4.973655E+04  1.462145E+05 -1.108009E+04 -6.404840E+03
       184  20  9.435657E+04  3.268143E+05  9.725311E+04  1.385963E+05 -1.542203E+04  2.535949E+04
       184  21  1.718802E+05  4.996702E+05  1.730908E+05  1.735607E+05 -5.573782E+03  5.714512E+04
       184  22 -1.071237E+02 -3.238794E+04  1.074359E+04  1.499226E+05 -1.108900E+04  1.031535E+04
       184  23  6.486856E+03 -3.654244E+04  2.111964E+04  1.286461E+05 -1.542066E+04  2.129303E+04
       184  24  3.999324E+04 -3.242595E+04  4.539265E+04  1.499500E+05 -5.559753E+03  3.228343E+04
       184  25 -4.755755E+04 -2.305896E+05 -2.825021E+04  1.536296E+05 -1.109772E+04  2.703031E+04
       184  26 -8.139094E+04 -3.997742E+05 -5.502106E+04  1.187017E+05 -1.541917E+04  1.722891E+04
       184  27 -9.191183E+04 -5.642604E+05 -8.232302E+04  1.263596E+05 -5.543830E+03  7.442931E+03
       185   1  5.502184E+05  1.979383E+05  1.176871E+05  2.013678E+05  4.918313E+04  1.516214E+04
       185   2  5.333353E+05  1.306463E+05  7.361542E+04  1.974591E+05  3.181616E+04  1.449441E+03
       185   3  5.321164E+05  1.159436E+05  5.725880E+04  1.871149E+05  1.224443E+04 -6.400903E+03
       185   4  3.593865E+05  1.041119E+05  6.261500E+04  1.266450E+05  4.109026E+04  1.211478E+04
       185   5  3.486592E+05  5.425895E+04  2.718998E+04  1.389221E+05  2.886863E+04  3.394514E+02
       185   6  3.525826E+05  5.598444E+04  1.541079E+04  1.447624E+05  1.444134E+04 -5.574040E+03
       185   7  1.685944E+05  1.029745E+04  7.540642E+03  5.194662E+04  3.300024E+04  9.069203E+03
       185   8  1.640177E+05 -2.212349E+04 -1.923789E+04  8.040195E+04  2.592206E+04 -7.700853E+02
       185   9  1.730793E+05 -3.974389E+03 -2.643973E+04  1.024201E+05  1.663757E+04 -4.747370E+03
       185  10  5.502158E+05  1.979374E+05  1.176821E+05  2.013672E+05 -1.716297E-09 -1.410026E-09
       185  11  5.333342E+05  1.306461E+05  7.361352E+04  1.974591E+05  2.277515E-09  3.524857E-09
       185  12  5.321162E+05  1.159435E+05  5.725844E+04  1.871150E+05  2.107573E-09 -2.297909E-09
       185  13  3.593847E+05  1.041113E+05  6.261155E+04  1.266446E+05 -2.361534E-09  5.284411E-10
       185  14  3.486583E+05  5.425872E+04  2.718842E+04  1.389221E+05 -2.087467E-09 -1.149833E-11
       185  15  3.525823E+05  5.598435E+04  1.541034E+04  1.447625E+05 -9.312335E-09  3.428190E-09
       185  16  1.685932E+05  1.029707E+04  7.538442E+03  5.194638E+04  1.417200E-09 -1.033658E-09
       185  17  1.640170E+05 -2.212367E+04 -1.923915E+04  8.040196E+04 -1.839106E-09 -9.129846E-10
       185  18  1.730790E+05 -3.974488E+03 -2.644029E+04  1.024201E+05 -7.809173E-09 -2.496628E-09
       185  19  5.502184E+05  1.979383E+05  1.176871E+05  2.013678E+05 -4.918313E+04 -1.516214E+04
       185  20  5.333353E+05  1.306463E+05  7.361542E+04  1.974591E+05 -3.181616E+04 -1.449441E+03
       185  21  5.321164E+05  1.159436E+05  5.725880E+04  1.871149E+05 -1.224443E+04  6.400903E+03
       185  22  3.593865E+05  1.041119E+05  6.261500E+04  1.266450E+05 -4.109026E+04 -1.211478E+04
       185  23  3.486592E+05  5.425895E+04  2.718998E+04  1.389221E+05 -2.886863E+04 -3.394514E+02
       185  24  3.525826E+05  5.598444E+04  1.541079E+04  1.447624E+05 -1.444134E+04  5.574040E+03
       185  25  1.685944E+05  1.029745E+04  7.540642E+03  5.194662E+04 -3.300024E+04 -9.069203E+03
       185  26  1.640177E+05 -2.212349E+04 -1.923789E+04  8.040195E+04 -2.592206E+04  7.700853E+02
       185  27  1.730793E+05 -3.974389E+03 -2.643973E+04  1.024201E+05 -1.663757E+04  4.747370E+03
       186   1  5.109516E+05  1.213228E+05  5.106565E+04  1.870659E+05  1.162056E+04 -5.364726E+03
       186   2  4.971280E+05  1.095247E+05  4.116671E+04  1.800849E+05  7.967607E+03 -6.017700E+03
       186   3  4.798497E+05  1.056183E+05  3.458928E+04  1.781743E+05  4.216789E+03 -6.410872E+03
       186   4  3.505805E+05  6.061426E+04  1.220237E+04  1.419191E+05  1.205987E+04 -5.199557E+03
       186   5  3.521334E+05  5.529317E+04  6.276388E+03  1.399107E+05  8.635567E+03 -5.766360E+03
       186   6  3.501865E+05  5.781895E+04  3.491459E+03  1.429726E+05  5.113306E+03 -6.073374E+03
       186   7  1.902348E+05 -9.222811E+01 -2.666282E+04  9.678293E+04  1.249905E+04 -5.034436E+03
       186   8  2.071601E+05  1.063316E+03 -2.861537E+04  9.974513E+04  9.303356E+03 -5.515086E+03
       186   9  2.205406E+05  1.002091E+04 -2.760740E+04  1.077777E+05  6.009614E+03 -5.735952E+03
       186  10  5.109514E+05  1.213227E+05  5.106535E+04  1.870659E+05 -1.721774E-09 -1.285723E-09
       186  11  4.971279E+05  1.095247E+05  4.116653E+04  1.800849E+05  3.078725E-09 -1.698223E-09
       186  12  4.798496E+05  1.056183E+05  3.458917E+04  1.781744E+05  2.364004E-09  1.834868E-09
       186  13  3.505803E+05  6.061419E+04  1.220204E+04  1.419191E+05 -5.632843E-09 -2.196629E-09
       186  14  3.521333E+05  5.529312E+04  6.276185E+03  1.399107E+05  4.804928E-09  8.478789E-09
       186  15  3.501865E+05  5.781890E+04  3.491341E+03  1.429726E+05  1.328777E-09  1.285899E-09
       186  16  1.902346E+05 -9.229727E+01 -2.666316E+04  9.678298E+04 -2.585260E-09 -3.895910E-09
       186  17  2.071600E+05  1.063260E+03 -2.861559E+04  9.974517E+04  5.433789E-09 -2.308131E-09
       186  18  2.205406E+05  1.002086E+04 -2.760753E+04  1.077777E+05  3.480394E-09  3.998866E-09
       186  19  5.109516E+05  1.213228E+05  5.106565E+04  1.870659E+05 -1.162056E+04  5.364726E+03
       186  20  4.971280E+05  1.095247E+05  4.116671E+04  1.800849E+05 -7.967607E+03  6.017700E+03
       186  21  4.798497E+05  1.056183E+05  3.458928E+04  1.781743E+05 -4.216789E+03  6.410872E+03
       186  22  3.505805E+05  6.061426E+04  1.220237E+04  1.419191E+05 -1.205987E+04  5.199557E+03
       186  23  3.521334E+05  5.529317E+04  6.276388E+03  1.399107E+05 -8.635567E+03  5.766360E+03
       186  24  3.501865E+05  5.781895E+04  3.491459E+03  1.429726E+05 -5.113306E+03  6.073374E+03
       186  25  1.902348E+05 -9.222811E+01 -2.666282E+04  9.678293E+04 -1.249905E+04  5.034436E+03
       186  26  2.071601E+05  1.063316E+03 -2.861537E+04  9.974513E+04 -9.303356E+03  5.515086E+03
       186  27  2.205406E+05  1.002091E+04 -2.760740E+04  1.077777E+05 -6.009614E+03  5.735952E+03
       187   1  4.660853E+05  1.012674E+05  3.047960E+04  1.747335E+05  3.585843E+03 -5.987112E+03
       187   2  4.526918E+05  9.273950E+04  2.552868E+04  1.675749E+05  2.497542E+03 -5.327510E+03
       187   3  4.344964E+05  8.936399E+04  2.117224E+04  1.660633E+05  1.405256E+03 -4.657710E+03
       187   4  3.500187E+05  5.807182E+04  2.657947E+03  1.427804E+05  4.402517E+03 -5.679635E+03
       187   5  3.524108E+05  5.542486E+04  1.452722E+03  1.399841E+05  3.323313E+03 -5.016542E+03
       187   6  3.499993E+05  5.792864E+04  8.349632E+02  1.428348E+05  2.240106E+03 -4.343257E+03
       187   7  2.339647E+05  1.487699E+04 -2.516485E+04  1.108325E+05  5.219030E+03 -5.372219E+03
       187   8  2.521394E+05  1.811082E+04 -2.262404E+04  1.123972E+05  4.148941E+03 -4.705628E+03
       187   9  2.655093E+05  2.649379E+04 -1.950284E+04  1.196091E+05  3.074832E+03 -4.028850E+03
       187  10  4.660853E+05  1.012673E+05  3.047951E+04  1.747336E+05  5.018955E-09  2.435885E-09
       187  11  4.526918E+05  9.273946E+04  2.552861E+04  1.675749E+05  1.073884E-09 -2.013242E-09
       187  12  4.344964E+05  8.936397E+04  2.117219E+04  1.660633E+05 -3.406010E-09  1.819968E-09
       187  13  3.500186E+05  5.807178E+04  2.657850E+03  1.427804E+05 -3.464549E-10  9.820968E-10
       187  14  3.524107E+05  5.542483E+04  1.452654E+03  1.399841E+05 -1.743144E-09 -4.026870E-09
       187  15  3.499993E+05  5.792862E+04  8.349183E+02  1.428348E+05 -1.344011E-09 -2.233811E-09
       187  16  2.339647E+05  1.487695E+04 -2.516496E+04  1.108325E+05 -7.682214E-09 -1.930113E-10
       187  17  2.521394E+05  1.811080E+04 -2.262411E+04  1.123972E+05 -8.109765E-10  2.098717E-09
       187  18  2.655092E+05  2.649377E+04 -1.950289E+04  1.196091E+05  1.723751E-09  6.686029E-10
       187  19  4.660853E+05  1.012674E+05  3.047960E+04  1.747335E+05 -3.585843E+03  5.987112E+03
       187  20  4.526918E+05  9.273950E+04  2.552868E+04  1.675749E+05 -2.497542E+03  5.327510E+03
       187  21  4.344964E+05  8.936399E+04  2.117224E+04  1.660633E+05 -1.405256E+03  4.657710E+03
       187  22  3.500187E+05  5.807182E+04  2.657947E+03  1.427804E+05 -4.402517E+03  5.679635E+03
       187  23  3.524108E+05  5.542486E+04  1.452722E+03  1.399841E+05 -3.323313E+03  5.016542E+03
       187  24  3.499993E+05  5.792864E+04  8.349632E+02  1.428348E+05 -2.240106E+03  4.343257E+03
       187  25  2.339647E+05  1.487699E+04 -2.516485E+04  1.108325E+05 -5.219030E+03  5.372219E+03
       187  26  2.521394E+05  1.811082E+04 -2.262404E+04  1.123972E+05 -4.148941E+03  4.705628E+03
       187  27  2.655093E+05  2.649379E+04 -1.950284E+04  1.196091E+05 -3.074832E+03  4.028850E+03
       188   1  4.212741E+05  8.446467E+04  1.771671E+04  1.624449E+05  1.078218E+03 -4.149352E+03
       188   2  4.079864E+05  7.613412E+04  1.377529E+04  1.552910E+05  5.038705E+02 -3.284409E+03
       188   3  3.897821E+05  7.276933E+04  9.998773E+03  1.537818E+05 -7.043160E+01 -2.419766E+03
       188   4  3.499814E+05  5.793621E+04  6.543204E+02  1.428161E+05  1.908690E+03 -3.836518E+03
       188   5  3.524400E+05  5.545163E+04  4.374870E+02  1.399945E+05  1.334104E+03 -2.971632E+03
       188   6  3.499817E+05  5.793293E+04  3.857715E+02  1.428177E+05  7.595553E+02 -2.107044E+03
       188   7  2.786942E+05  3.140824E+04 -1.640834E+04  1.231895E+05  2.739053E+03 -3.523725E+03
       188   8  2.968966E+05  3.476937E+04 -1.290053E+04  1.246993E+05  2.164256E+03 -2.658885E+03
       188   9  3.101826E+05  4.309656E+04 -9.227399E+03  1.318541E+05  1.589488E+03 -1.794343E+03
       188  10  4.212741E+05  8.446466E+04  1.771668E+04  1.624450E+05 -1.739068E-10 -3.153310E-10
       188  11  4.079864E+05  7.613410E+04  1.377526E+04  1.552910E+05  3.473266E-09 -2.548500E-10
       188  12  3.897821E+05  7.276932E+04  9.998762E+03  1.537818E+05  2.148478E-09 -1.987342E-09
       188  13  3.499814E+05  5.793619E+04  6.542859E+02  1.428161E+05 -6.498504E-09 -1.024713E-11
       188  14  3.524400E+05  5.545162E+04  4.374670E+02  1.399945E+05 -2.672542E-09  2.408642E-09
       188  15  3.499817E+05  5.793292E+04  3.857621E+02  1.428177E+05 -3.517456E-09 -6.580977E-09
       188  16  2.786942E+05  3.140822E+04 -1.640837E+04  1.231895E+05 -4.521589E-09 -1.922882E-09
       188  17  2.968966E+05  3.476936E+04 -1.290056E+04  1.246993E+05 -4.172400E-09 -4.485068E-09
       188  18  3.101826E+05  4.309656E+04 -9.227409E+03  1.318541E+05 -3.973575E-09 -1.978629E-09
       188  19  4.212741E+05  8.446467E+04  1.771671E+04  1.624449E+05 -1.078218E+03  4.149352E+03
       188  20  4.079864E+05  7.613412E+04  1.377529E+04  1.552910E+05 -5.038705E+02  3.284409E+03
       188  21  3.897821E+05  7.276933E+04  9.998773E+03  1.537818E+05  7.043160E+01  2.419766E+03
       188  22  3.499814E+05  5.793621E+04  6.543204E+02  1.428161E+05 -1.908690E+03  3.836518E+03
       188  23  3.524400E+05  5.545163E+04  4.374870E+02  1.399945E+05 -1.334104E+03  2.971632E+03
       188  24  3.499817E+05  5.793293E+04  3.857715E+02  1.428177E+05 -7.595553E+02  2.107044E+03
       188  25  2.786942E+05  3.140824E+04 -1.640834E+04  1.231895E+05 -2.739053E+03  3.523725E+03
       188  26  2.968966E+05  3.476937E+04 -1.290053E+04  1.246993E+05 -2.164256E+03  2.658885E+03
       188  27  3.101826E+05  4.309656E+04 -9.227399E+03  1.318541E+05 -1.589488E+03  1.794343E+03
       189   1  3.766328E+05  6.785450E+04  6.755818E+03  1.501690E+05 -3.437172E+02 -1.893843E+03
       189   2  3.633607E+05  5.953923E+04  3.202162E+03  1.430243E+05 -9.863235E+02 -1.055949E+03
       189   3  3.451896E+05  5.618895E+04 -1.343118E+02  1.415171E+05 -1.628746E+03 -2.185093E+02
       189   4  3.499855E+05  5.793156E+04  4.104071E+02  1.428165E+05  4.857853E+02 -1.581290E+03
       189   5  3.524357E+05  5.545259E+04  5.755599E+02  1.399965E+05 -1.572349E+02 -7.435458E+02
       189   6  3.499866E+05  5.793864E+04  9.582029E+02  1.428139E+05 -8.000779E+02  9.374060E+01
       189   7  3.233390E+05  4.800867E+04 -5.935050E+03  1.354644E+05  1.315249E+03 -1.268752E+03
       189   8  3.415109E+05  5.136598E+04 -2.051040E+03  1.369688E+05  6.718357E+02 -4.311496E+02
       189   9  3.547837E+05  5.968833E+04  2.050712E+03  1.441107E+05  2.859257E+01  4.059914E+02
       189  10  3.766328E+05  6.785450E+04  6.755811E+03  1.501690E+05  1.014172E-09 -1.926018E-09
       189  11  3.633607E+05  5.953922E+04  3.202158E+03  1.430243E+05 -3.893324E-09  4.327442E-09
       189  12  3.451896E+05  5.618895E+04 -1.343169E+02  1.415171E+05 -4.133951E-09  3.874120E-11
       189  13  3.499855E+05  5.793156E+04  4.104020E+02  1.428165E+05 -2.782925E-09 -2.497316E-09
       189  14  3.524357E+05  5.545259E+04  5.755588E+02  1.399965E+05 -5.672515E-09 -7.278324E-09
       189  15  3.499866E+05  5.793864E+04  9.582017E+02  1.428139E+05  4.996427E-11 -1.366615E-09
       189  16  3.233390E+05  4.800867E+04 -5.935056E+03  1.354644E+05 -3.245959E-09 -5.106784E-09
       189  17  3.415109E+05  5.136598E+04 -2.051041E+03  1.369688E+05  2.185543E-09 -8.162597E-09
       189  18  3.547837E+05  5.968833E+04  2.050712E+03  1.441107E+05  1.933707E-09 -1.055080E-08
       189  19  3.766328E+05  6.785450E+04  6.755818E+03  1.501690E+05  3.437172E+02  1.893843E+03
       189  20  3.633607E+05  5.953923E+04  3.202162E+03  1.430243E+05  9.863235E+02  1.055949E+03
       189  21  3.451896E+05  5.618895E+04 -1.343118E+02  1.415171E+05  1.628746E+03  2.185093E+02
       189  22  3.499855E+05  5.793156E+04  4.104071E+02  1.428165E+05 -4.857853E+02  1.581290E+03
       189  23  3.524357E+05  5.545259E+04  5.755599E+02  1.399965E+05  1.572349E+02  7.435458E+02
       189  24  3.499866E+05  5.793864E+04  9.582029E+02  1.428139E+05  8.000779E+02 -9.374060E+01
       189  25  3.233390E+05  4.800867E+04 -5.935050E+03  1.354644E+05 -1.315249E+03  1.268752E+03
       189  26  3.415109E+05  5.136598E+04 -2.051040E+03  1.369688E+05 -6.718357E+02  4.311496E+02
       189  27  3.547837E+05  5.968833E+04  2.050712E+03  1.441107E+05 -2.859257E+01 -4.059914E+02
       190   1  3.320451E+05  5.128921E+04 -3.106565E+03  1.379624E+05 -2.021533E+03  2.629127E+02
       190   2  3.187047E+05  4.292510E+04 -5.850361E+03  1.307603E+05 -3.486062E+03  7.893392E+02
       190   3  3.006640E+05  3.978912E+04 -7.698110E+03  1.291716E+05 -4.947677E+03  1.308213E+03
       190   4  3.500204E+05  5.792216E+04  1.252406E+03  1.428368E+05 -1.190363E+03  5.761010E+02
       190   5  3.523856E+05  5.542040E+04  2.230469E+03  1.399875E+05 -2.661592E+03  1.099983E+03
       190   6  3.500519E+05  5.814818E+04  4.109939E+03  1.427514E+05 -4.129934E+03  1.616303E+03
       190   7  3.679961E+05  6.455517E+04  5.611382E+03  1.477115E+05 -3.591624E+02  8.893006E+02
       190   8  3.860677E+05  6.791580E+04  1.031124E+04  1.492151E+05 -1.837070E+03  1.410647E+03
       190   9  3.994421E+05  7.650742E+04  1.591782E+04  1.563322E+05 -3.312120E+03  1.924419E+03
       190  10  3.320451E+05  5.128921E+04 -3.106573E+03  1.379624E+05 -1.002418E-09 -4.151200E-09
       190  11  3.187046E+05  4.292510E+04 -5.850385E+03  1.307603E+05  7.021353E-09  8.031813E-09
       190  12  3.006640E+05  3.978912E+04 -7.698159E+03  1.291716E+05  7.146597E-09 -8.916660E-10
       190  13  3.500204E+05  5.792216E+04  1.252403E+03  1.428368E+05  4.977090E-09 -2.931704E-09
       190  14  3.523855E+05  5.542039E+04  2.230454E+03  1.399875E+05  1.025726E-08  1.445797E-09
       190  15  3.500518E+05  5.814817E+04  4.109902E+03  1.427514E+05  1.014066E-08  1.343991E-09
       190  16  3.679961E+05  6.455516E+04  5.611380E+03  1.477115E+05  6.354548E-09 -3.819093E-09
       190  17  3.860677E+05  6.791580E+04  1.031123E+04  1.492151E+05  5.805635E-09  4.267772E-09
       190  18  3.994421E+05  7.650741E+04  1.591779E+04  1.563322E+05  7.128798E-10  1.493352E-09
       190  19  3.320451E+05  5.128921E+04 -3.106565E+03  1.379624E+05  2.021533E+03 -2.629127E+02
       190  20  3.187047E+05  4.292510E+04 -5.850361E+03  1.307603E+05  3.486062E+03 -7.893392E+02
       190  21  3.006640E+05  3.978912E+04 -7.698110E+03  1.291716E+05  4.947677E+03 -1.308213E+03
       190  22  3.500204E+05  5.792216E+04  1.252406E+03  1.428368E+05  1.190363E+03 -5.761010E+02
       190  23  3.523856E+05  5.542040E+04  2.230469E+03  1.399875E+05  2.661592E+03 -1.099983E+03
       190  24  3.500519E+05  5.814818E+04  4.109939E+03  1.427514E+05  4.129934E+03 -1.616303E+03
       190  25  3.679961E+05  6.455517E+04  5.611382E+03  1.477115E+05  3.591624E+02 -8.893006E+02
       190  26  3.860677E+05  6.791580E+04  1.031124E+04  1.492151E+05  1.837070E+03 -1.410647E+03
       190  27  3.994421E+05  7.650742E+04  1.591782E+04  1.563322E+05  3.312120E+03 -1.924419E+03
       191   1  2.872295E+05  3.500687E+04 -9.663088E+03  1.264538E+05 -5.978206E+03  1.568766E+03
       191   2  2.739439E+05  2.579124E+04 -9.092792E+03  1.180056E+05 -1.110252E+04  6.727726E+02
       191   3  2.579693E+05  2.593855E+04 -3.777079E+03  1.142527E+05 -1.615965E+04 -4.009584E+02
       191   4  3.503176E+05  5.775226E+04  5.405993E+03  1.430450E+05 -5.106242E+03  1.897268E+03
       191   5  3.519535E+05  5.522551E+04  9.730847E+03  1.398795E+05 -1.038707E+04  9.422449E+02
       191   6  3.509309E+05  6.209213E+04  1.892458E+04  1.414090E+05 -1.560086E+04 -1.905788E+02
       191   7  4.134094E+05  8.049775E+04  2.047470E+04  1.596377E+05 -4.234187E+03  2.225802E+03
       191   8  4.299692E+05  8.466026E+04  2.855404E+04  1.617559E+05 -9.671522E+03  1.211755E+03
       191   9  4.439016E+05  9.824671E+04  4.162572E+04  1.685692E+05 -1.504198E+04  1.983952E+01
       191  10  2.872295E+05  3.500686E+04 -9.663160E+03  1.264538E+05  6.850017E-09  3.601242E-09
       191  11  2.739437E+05  2.579120E+04 -9.093024E+03  1.180056E+05  1.704815E-09 -1.281926E-09
       191  12  2.579690E+05  2.593848E+04 -3.777570E+03  1.142527E+05 -2.220885E-09 -3.369087E-09
       191  13  3.503176E+05  5.775225E+04  5.405937E+03  1.430450E+05  3.697577E-09 -2.787371E-09
       191  14  3.519534E+05  5.522548E+04  9.730643E+03  1.398795E+05 -1.215874E-09 -1.846485E-09
       191  15  3.509307E+05  6.209206E+04  1.892412E+04  1.414090E+05 -4.304420E-09 -6.883361E-10
       191  16  4.134093E+05  8.049774E+04  2.047466E+04  1.596377E+05 -4.152078E-09 -4.265869E-09
       191  17  4.299691E+05  8.466024E+04  2.855386E+04  1.617559E+05 -5.857128E-09  7.965196E-11
       191  18  4.439014E+05  9.824665E+04  4.162529E+04  1.685692E+05 -3.029959E-09 -1.808104E-09
       191  19  2.872295E+05  3.500687E+04 -9.663088E+03  1.264538E+05  5.978206E+03 -1.568766E+03
       191  20  2.739439E+05  2.579124E+04 -9.092792E+03  1.180056E+05  1.110252E+04 -6.727726E+02
       191  21  2.579693E+05  2.593855E+04 -3.777079E+03  1.142527E+05  1.615965E+04  4.009584E+02
       191  22  3.503176E+05  5.775226E+04  5.405993E+03  1.430450E+05  5.106242E+03 -1.897268E+03
       191  23  3.519535E+05  5.522551E+04  9.730847E+03  1.398795E+05  1.038707E+04 -9.422449E+02
       191  24  3.509309E+05  6.209213E+04  1.892458E+04  1.414090E+05  1.560086E+04  1.905788E+02
       191  25  4.134094E+05  8.049775E+04  2.047470E+04  1.596377E+05  4.234187E+03 -2.225802E+03
       191  26  4.299692E+05  8.466026E+04  2.855404E+04  1.617559E+05  9.671522E+03 -1.211755E+03
       191  27  4.439016E+05  9.824671E+04  4.162572E+04  1.685692E+05  1.504198E+04 -1.983952E+01
       192   1  2.388946E+05  2.272087E+04 -1.859462E+03  1.251174E+05 -2.075430E+04 -1.067294E+03
       192   2  2.321821E+05 -7.801002E+02  1.212630E+04  9.480075E+04 -3.986660E+04 -8.256858E+03
       192   3  2.501522E+05  5.236754E+04  6.000634E+04  5.145873E+04 -5.747112E+04 -1.944851E+04
       192   4  3.540061E+05  5.494154E+04  2.390167E+04  1.458513E+05 -1.899552E+04 -4.045020E+02
       192   5  3.466058E+05  5.359211E+04  4.217608E+04  1.383067E+05 -4.162177E+04 -8.918881E+03
       192   6  3.645762E+05  1.295756E+05  9.712344E+04  1.177388E+05 -6.274032E+04 -2.143660E+04
       192   7  4.691312E+05  8.716213E+04  4.966213E+04  1.665881E+05 -1.723637E+04  2.583504E+02
       192   8  4.610419E+05  1.079674E+05  7.222453E+04  1.818205E+05 -4.337728E+04 -9.581114E+03
       192   9  4.790139E+05  2.067945E+05  1.342390E+05  1.840314E+05 -6.801047E+04 -2.342578E+04
       192  10  2.388941E+05  2.272075E+04 -1.860273E+03  1.251174E+05  8.683617E-09  2.615058E-09
       192  11  2.321804E+05 -7.805998E+02  1.212319E+04  9.480048E+04  1.226180E-09  1.804669E-10
       192  12  2.501485E+05  5.236625E+04  5.999942E+04  5.145783E+04 -1.037525E-08 -7.656492E-09
       192  13  3.540057E+05  5.494144E+04  2.390099E+04  1.458513E+05 -6.830131E-09 -5.591343E-09
       192  14  3.466039E+05  5.359156E+04  4.217267E+04  1.383064E+05 -3.396366E-10  5.353619E-09
       192  15  3.645719E+05  1.295741E+05  9.711518E+04  1.177377E+05 -5.074639E-10 -4.860081E-09
       192  16  4.691309E+05  8.716205E+04  4.966157E+04  1.665881E+05 -1.239787E-08 -7.467294E-09
       192  17  4.610398E+05  1.079668E+05  7.222082E+04  1.818201E+05 -3.717825E-09  1.289342E-09
       192  18  4.790088E+05  2.067927E+05  1.342292E+05  1.840302E+05  8.287703E-09  2.188664E-09
       192  19  2.388946E+05  2.272087E+04 -1.859462E+03  1.251174E+05  2.075430E+04  1.067294E+03
       192  20  2.321821E+05 -7.801002E+02  1.212630E+04  9.480075E+04  3.986660E+04  8.256858E+03
       192  21  2.501522E+05  5.236754E+04  6.000634E+04  5.145873E+04  5.747112E+04  1.944851E+04
       192  22  3.540061E+05  5.494154E+04  2.390167E+04  1.458513E+05  1.899552E+04  4.045020E+02
       192  23  3.466058E+05  5.359211E+04  4.217608E+04  1.383067E+05  4.162177E+04  8.918881E+03
       192  24  3.645762E+05  1.295756E+05  9.712344E+04  1.177388E+05  6.274032E+04  2.143660E+04
       192  25  4.691312E+05  8.716213E+04  4.966213E+04  1.665881E+05  1.723637E+04 -2.583504E+02
       192  26  4.610419E+05  1.079674E+05  7.222453E+04  1.818205E+05  4.337728E+04  9.581114E+03
       192  27  4.790139E+05  2.067945E+05  1.342390E+05  1.840314E+05  6.801047E+04  2.342578E+04
       193   1 -5.591830E+04 -3.742589E+05 -5.756517E+04  5.910723E+04 -1.571034E+03 -1.204153E+04
       193   2 -2.224111E+04 -2.832028E+05 -2.754281E+04  3.538151E+04 -3.478680E+03 -4.175678E+03
       193   3 -3.613703E+02 -1.960253E+05 -5.577907E+03  5.266830E+04  7.968300E+01  3.695792E+03
       193   4 -1.075033E+04 -1.930122E+05 -1.307606E+04  5.421939E+04 -1.573766E+03 -8.262423E+03
       193   5  3.355255E+02 -1.914534E+05 -6.448242E+03  3.371741E+04 -3.478133E+03 -4.854024E+03
       193   6  3.994540E+02 -1.930066E+05 -4.780003E+03  5.422807E+04  8.322183E+01 -1.441208E+03
       193   7  3.441531E+04 -1.173542E+04  3.141071E+04  4.933011E+04 -1.576558E+03 -4.482211E+03
       193   8  2.291159E+04 -9.969622E+04  1.464577E+04  3.205306E+04 -3.477583E+03 -5.532469E+03
       193   9  1.160301E+03 -1.899878E+05 -3.981999E+03  5.578784E+04  8.673482E+01 -6.578232E+03
       193  10 -5.591835E+04 -3.742591E+05 -5.756545E+04  5.910722E+04  8.938505E-10  5.690218E-09
       193  11 -2.224113E+04 -2.832028E+05 -2.754286E+04  3.538150E+04 -4.080874E-09 -2.652241E-09
       193  12 -3.613739E+02 -1.960253E+05 -5.577932E+03  5.266830E+04 -3.854860E-09 -1.006268E-08
       193  13 -1.075035E+04 -1.930123E+05 -1.307619E+04  5.421938E+04 -1.357378E-09 -1.042363E-09
       193  14  3.355062E+02 -1.914534E+05 -6.448309E+03  3.371740E+04 -4.174057E-09  8.845294E-10
       193  15  3.994534E+02 -1.930066E+05 -4.780007E+03  5.422807E+04 -3.090556E-09  1.010241E-09
       193  16  3.441530E+04 -1.173544E+04  3.141067E+04  4.933011E+04  3.632891E-10 -7.890008E-09
       193  17  2.291156E+04 -9.969625E+04  1.464569E+04  3.205305E+04 -3.311639E-09  1.654938E-09
       193  18  1.160289E+03 -1.899879E+05 -3.982081E+03  5.578784E+04 -2.127064E-09  1.279585E-08
       193  19 -5.591830E+04 -3.742589E+05 -5.756517E+04  5.910723E+04  1.571034E+03  1.204153E+04
       193  20 -2.224111E+04 -2.832028E+05 -2.754281E+04  3.538151E+04  3.478680E+03  4.175678E+03
       193  21 -3.613703E+02 -1.960253E+05 -5.577907E+03  5.266830E+04 -7.968300E+01 -3.695792E+03
       193  22 -1.075033E+04 -1.930122E+05 -1.307606E+04  5.421939E+04  1.573766E+03  8.262423E+03
       193  23  3.355255E+02 -1.914534E+05 -6.448242E+03  3.371741E+04  3.478133E+03  4.854024E+03
       193  24  3.994540E+02 -1.930066E+05 -4.780003E+03  5.422807E+04 -8.322183E+01  1.441208E+03
       193  25  3.441531E+04 -1.173542E+04  3.141071E+04  4.933011E+04  1.576558E+03  4.482211E+03
       193  26  2.291159E+04 -9.969622E+04  1.464577E+04  3.205306E+04  3.477583E+03  5.532469E+03
       193  27  1.160301E+03 -1.899878E+05 -3.981999E+03  5.578784E+04 -8.673482E+01  6.578232E+03
       194   1  1.772194E+04 -1.174303E+05  1.238893E+04  5.473304E+04  3.466648E+03  2.996207E+03
       194   2  4.026667E+04 -2.799270E+04  3.228416E+04  3.350053E+04  7.769757E+03  5.022815E+03
       194   3  6.053236E+04  6.071917E+04  5.031130E+04  5.347102E+04  1.169972E+04  7.050392E+03
       194   4 -6.770844E+02 -1.924913E+05 -4.536606E+03  5.426817E+04  3.469221E+03 -6.681752E+02
       194   5  6.023773E+01 -1.921023E+05 -4.618424E+03  3.366595E+04  7.772500E+03  1.662218E+03
       194   6 -1.534091E+03 -1.924996E+05 -6.779372E+03  5.426748E+04  1.170257E+04  3.993298E+03
       194   7 -1.907649E+04 -2.675470E+05 -2.146245E+04  5.380335E+04  3.471801E+03 -4.332119E+03
       194   8 -4.014803E+04 -3.561869E+05 -4.152268E+04  3.383132E+04  7.775242E+03 -1.697500E+03
       194   9 -6.360493E+04 -4.456588E+05 -6.387411E+04  5.506362E+04  1.170541E+04  9.374383E+02
       194  10  1.772192E+04 -1.174303E+05  1.238889E+04  5.473303E+04 -3.179628E-09 -1.744946E-09
       194  11  4.026660E+04 -2.799274E+04  3.228400E+04  3.350050E+04 -1.584733E-09 -1.048144E-09
       194  12  6.053220E+04  6.071908E+04  5.031095E+04  5.347095E+04 -4.191706E-10 -4.486450E-09
       194  13 -6.770974E+02 -1.924913E+05 -4.536630E+03  5.426817E+04 -2.517149E-09 -2.160058E-09
       194  14  6.017212E+01 -1.921024E+05 -4.618543E+03  3.366594E+04 -1.168965E-09  2.585498E-09
       194  15 -1.534242E+03 -1.924997E+05 -6.779660E+03  5.426744E+04  2.298007E-09  1.299787E-09
       194  16 -1.907650E+04 -2.675470E+05 -2.146251E+04  5.380336E+04 -3.877417E-10 -2.837371E-10
       194  17 -4.014810E+04 -3.561869E+05 -4.152280E+04  3.383133E+04 -2.611304E-09  3.045175E-09
       194  18 -6.360508E+04 -4.456588E+05 -6.387437E+04  5.506361E+04  1.563257E-09  5.253479E-09
       194  19  1.772194E+04 -1.174303E+05  1.238893E+04  5.473304E+04 -3.466648E+03 -2.996207E+03
       194  20  4.026667E+04 -2.799270E+04  3.228416E+04  3.350053E+04 -7.769757E+03 -5.022815E+03
       194  21  6.053236E+04  6.071917E+04  5.031130E+04  5.347102E+04 -1.169972E+04 -7.050392E+03
       194  22 -6.770844E+02 -1.924913E+05 -4.536606E+03  5.426817E+04 -3.469221E+03  6.681752E+02
       194  23  6.023773E+01 -1.921023E+05 -4.618424E+03  3.366595E+04 -7.772500E+03 -1.662218E+03
       194  24 -1.534091E+03 -1.924996E+05 -6.779372E+03  5.426748E+04 -1.170257E+04 -3.993298E+03
       194  25 -1.907649E+04 -2.675470E+05 -2.146245E+04  5.380335E+04 -3.471801E+03  4.332119E+03
       194  26 -4.014803E+04 -3.561869E+05 -4.152268E+04  3.383132E+04 -7.775242E+03  1.697500E+03
       194  27 -6.360493E+04 -4.456588E+05 -6.387411E+04  5.506362E+04 -1.170541E+04 -9.374383E+02
       195   1  8.222189E+04  1.376305E+05  6.634488E+04  5.728646E+04  1.588452E+04  1.231515E+04
       195   2  1.037143E+05  2.290330E+05  8.258491E+04  3.006226E+04  1.777120E+04  7.997372E+03
       195   3  1.037146E+05  3.158246E+05  9.630255E+04  4.344234E+04  5.991643E+03  3.662807E+03
       195   4  1.061001E+03 -1.937925E+05 -8.066809E+03  5.414268E+04  1.589133E+04  5.198773E+03
       195   5  7.085451E+02 -1.905251E+05 -1.285744E+04  3.382582E+04  1.776784E+04  1.203274E+04
       195   6 -2.307947E+04 -1.938155E+05 -2.791783E+04  5.411566E+04  5.973898E+03  1.885028E+04
       195   7 -8.010733E+04 -5.251131E+05 -8.248528E+04  5.100062E+04  1.589821E+04 -1.913847E+03
       195   8 -1.023093E+05 -6.099199E+05 -1.083111E+05  3.758686E+04  1.776452E+04  1.606541E+04
       195   9 -1.498922E+05 -7.032181E+05 -1.521562E+05  6.478026E+04  5.956668E+03  3.402532E+04
       195  10  8.222158E+04  1.376303E+05  6.634413E+04  5.728630E+04  9.275933E-10 -8.233477E-09
       195  11  1.037139E+05  2.290329E+05  8.258419E+04  3.006214E+04  3.913622E-09 -6.995023E-10
       195  12  1.037146E+05  3.158246E+05  9.630246E+04  4.344232E+04  1.205846E-09  8.714943E-09
       195  13  1.060722E+03 -1.937926E+05 -8.067334E+03  5.414261E+04 -1.545625E-09  3.198491E-09
       195  14  7.081672E+02 -1.905254E+05 -1.285830E+04  3.382565E+04  1.947264E-09  1.248746E-09
       195  15 -2.307961E+04 -1.938159E+05 -2.791857E+04  5.411557E+04  3.660194E-09  1.119893E-09
       195  16 -8.010761E+04 -5.251131E+05 -8.248576E+04  5.100064E+04  3.606621E-09  7.801429E-09
       195  17 -1.023097E+05 -6.099203E+05 -1.083122E+05  3.758663E+04  1.266330E-09  4.131859E-09
       195  18 -1.498925E+05 -7.032194E+05 -1.521584E+05  6.478009E+04  1.042600E-09 -6.172712E-09
       195  19  8.222189E+04  1.376305E+05  6.634488E+04  5.728646E+04 -1.588452E+04 -1.231515E+04
       195  20  1.037143E+05  2.290330E+05  8.258491E+04  3.006226E+04 -1.777120E+04 -7.997372E+03
       195  21  1.037146E+05  3.158246E+05  9.630255E+04  4.344234E+04 -5.991643E+03 -3.662807E+03
       195  22  1.061001E+03 -1.937925E+05 -8.066809E+03  5.414268E+04 -1.589133E+04 -5.198773E+03
       195  23  7.085451E+02 -1.905251E+05 -1.285744E+04  3.382582E+04 -1.776784E+04 -1.203274E+04
       195  24 -2.307947E+04 -1.938155E+05 -2.791783E+04  5.411566E+04 -5.973898E+03 -1.885028E+04
       195  25 -8.010733E+04 -5.251131E+05 -8.248528E+04  5.100062E+04 -1.589821E+04  1.913847E+03
       195  26 -1.023093E+05 -6.099199E+05 -1.083111E+05  3.758686E+04 -1.776452E+04 -1.606541E+04
       195  27 -1.498922E+05 -7.032181E+05 -1.521562E+05  6.478026E+04 -5.956668E+03 -3.402532E+04
       196   1  1.494118E+05  9.659395E+04  8.745414E+04  2.293731E+04  1.710269E+04 -6.982820E+03
       196   2  1.107871E+05  1.036385E+05  7.442621E+04  2.816328E+04  4.401246E+03 -2.335798E+04
       196   3  7.078099E+04  9.849402E+04  6.662866E+04  4.136222E+04 -8.305689E+03 -2.785742E+04
       196   4 -3.513144E+05 -2.702098E+04 -2.997583E+04  3.962377E+04 -2.090132E+04 -7.008279E+03
       196   5 -3.488563E+05 -6.088627E+03 -1.457958E+04  3.562688E+04 -1.336374E+04 -2.337270E+04
       196   6 -3.512985E+05 -8.650212E+02 -8.011070E+03  3.960344E+04 -5.832678E+03 -2.785700E+04
       196   7 -8.518060E+05 -1.506519E+05 -1.474174E+05  5.629664E+04 -5.887486E+04 -7.035793E+03
       196   8 -8.082959E+05 -1.158280E+05 -1.035941E+05  4.308478E+04 -3.111587E+04 -2.338785E+04
       196   9 -7.732038E+05 -1.002338E+05 -8.265735E+04  3.784584E+04 -3.361299E+03 -2.785659E+04
       196  10  1.494115E+05  9.659382E+04  8.745350E+04  2.293740E+04  1.226797E-08 -9.025558E-10
       196  11  1.107869E+05  1.036379E+05  7.442515E+04  2.816336E+04 -3.755967E-09 -4.140184E-09
       196  12  7.078070E+04  9.849316E+04  6.662707E+04  4.136204E+04 -1.726839E-08 -5.697179E-09
       196  13 -3.513149E+05 -2.702115E+04 -2.997675E+04  3.962365E+04 -2.272657E-09  8.794250E-10
       196  14 -3.488567E+05 -6.089261E+03 -1.458094E+04  3.562663E+04 -3.597105E-09  1.288793E-09
       196  15 -3.512987E+05 -8.658635E+02 -8.012592E+03  3.960330E+04  7.454239E-10  4.803344E-09
       196  16 -8.518097E+05 -1.506529E+05 -1.474240E+05  5.629631E+04 -1.177729E-08 -5.529347E-10
       196  17 -8.082971E+05 -1.158288E+05 -1.035969E+05  4.308420E+04  4.509878E-09 -5.228395E-09
       196  18 -7.732040E+05 -1.002347E+05 -8.265883E+04  3.784576E+04  1.695405E-08 -5.891985E-09
       196  19  1.494118E+05  9.659395E+04  8.745414E+04  2.293731E+04 -1.710269E+04  6.982820E+03
       196  20  1.107871E+05  1.036385E+05  7.442621E+04  2.816328E+04 -4.401246E+03  2.335798E+04
       196  21  7.078099E+04  9.849402E+04  6.662866E+04  4.136222E+04  8.305689E+03  2.785742E+04
       196  22 -3.513144E+05 -2.702098E+04 -2.997583E+04  3.962377E+04  2.090132E+04  7.008279E+03
       196  23 -3.488563E+05 -6.088627E+03 -1.457958E+04  3.562688E+04  1.336374E+04  2.337270E+04
       196  24 -3.512985E+05 -8.650212E+02 -8.011070E+03  3.960344E+04  5.832678E+03  2.785700E+04
       196  25 -8.518060E+05 -1.506519E+05 -1.474174E+05  5.629664E+04  5.887486E+04  7.035793E+03
       196  26 -8.082959E+05 -1.158280E+05 -1.035941E+05  4.308478E+04  3.111587E+04  2.338785E+04
       196  27 -7.732038E+05 -1.002338E+05 -8.265735E+04  3.784584E+04  3.361299E+03  2.785659E+04
       197   1  4.566111E+04  9.185542E+04  6.321647E+04  3.953338E+04 -5.987711E+03 -2.677250E+04
       197   2  6.438680E+03  8.332737E+04  5.747362E+04  3.549722E+04 -6.151107E+03 -2.553273E+04
       197   3 -3.289434E+04  7.429126E+04  5.170919E+04  4.022262E+04 -6.316000E+03 -2.321450E+04
       197   4 -3.503016E+05 -1.211142E+03 -6.095310E+03  3.978119E+04 -4.791434E+03 -2.677297E+04
       197   5 -3.500814E+05 -1.550401E+02 -3.354037E+03  3.539963E+04 -3.117877E+03 -2.553120E+04
       197   6 -3.502919E+05  7.398894E+01 -1.910492E+03  3.977994E+04 -1.445796E+03 -2.321066E+04
       197   7 -7.461108E+05 -9.428623E+04 -7.541270E+04  4.002881E+04 -3.595896E+03 -2.677343E+04
       197   8 -7.064764E+05 -8.364420E+04 -6.418586E+04  3.530206E+04 -8.633278E+01 -2.552967E+04
       197   9 -6.675901E+05 -7.414858E+04 -5.553330E+04  3.933747E+04  3.421998E+03 -2.320682E+04
       197  10  4.566088E+04  9.185464E+04  6.321505E+04  3.953325E+04 -1.667087E-08 -5.451558E-09
       197  11  6.438464E+03  8.332666E+04  5.747232E+04  3.549710E+04 -6.288508E-10 -6.772783E-10
       197  12 -3.289453E+04  7.429067E+04  5.170810E+04  4.022250E+04  1.762601E-08 -6.734599E-10
       197  13 -3.503018E+05 -1.211918E+03 -6.096700E+03  3.978109E+04 -2.175394E-09  4.053396E-09
       197  14 -3.500815E+05 -1.557426E+02 -3.355280E+03  3.539957E+04 -2.635054E-09  3.044273E-09
       197  15 -3.502920E+05  7.340997E+01 -1.911508E+03  3.977991E+04 -1.141178E-09 -1.649712E-09
       197  16 -7.461110E+05 -9.428701E+04 -7.541407E+04  4.002873E+04  1.572936E-08 -3.213322E-09
       197  17 -7.064765E+05 -8.364490E+04 -6.418709E+04  3.530206E+04 -1.765609E-09 -1.208027E-09
       197  18 -6.675902E+05 -7.414916E+04 -5.553434E+04  3.933753E+04 -1.938594E-08 -1.157986E-09
       197  19  4.566111E+04  9.185542E+04  6.321647E+04  3.953338E+04  5.987711E+03  2.677250E+04
       197  20  6.438680E+03  8.332737E+04  5.747362E+04  3.549722E+04  6.151107E+03  2.553273E+04
       197  21 -3.289434E+04  7.429126E+04  5.170919E+04  4.022262E+04  6.316000E+03  2.321450E+04
       197  22 -3.503016E+05 -1.211142E+03 -6.095310E+03  3.978119E+04  4.791434E+03  2.677297E+04
       197  23 -3.500814E+05 -1.550401E+02 -3.354037E+03  3.539963E+04  3.117877E+03  2.553120E+04
       197  24 -3.502919E+05  7.398894E+01 -1.910492E+03  3.977994E+04  1.445796E+03  2.321066E+04
       197  25 -7.461108E+05 -9.428623E+04 -7.541270E+04  4.002881E+04  3.595896E+03  2.677343E+04
       197  26 -7.064764E+05 -8.364420E+04 -6.418586E+04  3.530206E+04  8.633278E+01  2.552967E+04
       197  27 -6.675901E+05 -7.414858E+04 -5.553330E+04  3.933747E+04 -3.421998E+03  2.320682E+04
       198   1 -5.842091E+04  6.823860E+04  4.763510E+04  4.009903E+04 -5.909800E+03 -2.152889E+04
       198   2 -9.771643E+04  5.906987E+04  4.157266E+04  3.563832E+04 -5.669047E+03 -1.868829E+04
       198   3 -1.370566E+05  4.990545E+04  3.535019E+04  4.001905E+04 -5.428936E+03 -1.574893E+04
       198   4 -3.502099E+05  5.002814E+01 -1.451877E+03  3.979785E+04 -1.153844E+03 -2.152485E+04
       198   5 -3.501688E+05  8.592052E+01 -8.307023E+02  3.537700E+04 -7.451308E+02 -1.868364E+04
       198   6 -3.502032E+05  9.697970E+01 -4.863915E+02  3.979780E+04 -3.370456E+02 -1.574364E+04
       198   7 -6.419149E+05 -6.814300E+04 -5.054145E+04  3.949679E+04  3.599950E+03 -2.152082E+04
       198   8 -6.025583E+05 -5.890136E+04 -4.323598E+04  3.511577E+04  4.176848E+03 -1.867900E+04
       198   9 -5.633049E+05 -4.971386E+04 -3.632430E+04  3.957661E+04  4.753154E+03 -1.573837E+04
       198  10 -5.842107E+04  6.823809E+04  4.763416E+04  4.009893E+04 -5.139212E-09  1.920996E-10
       198  11 -9.771656E+04  5.906949E+04  4.157195E+04  3.563824E+04 -5.485520E-10  9.006007E-10
       198  12 -1.370567E+05  4.990517E+04  3.534967E+04  4.001898E+04  9.219012E-10  4.167481E-10
       198  13 -3.502100E+05  4.953034E+01 -1.452750E+03  3.979783E+04 -1.882587E-09 -2.436452E-09
       198  14 -3.501689E+05  8.554558E+01 -8.313593E+02  3.537699E+04 -5.468837E-10  2.166618E-09
       198  15 -3.502033E+05  9.671355E+01 -4.868574E+02  3.979779E+04  1.877738E-09  2.679028E-09
       198  16 -6.419150E+05 -6.814350E+04 -5.054234E+04  3.949685E+04  2.721668E-09 -1.424437E-10
       198  17 -6.025584E+05 -5.890174E+04 -4.323667E+04  3.511583E+04  1.359092E-09  2.169758E-09
       198  18 -5.633050E+05 -4.971413E+04 -3.632481E+04  3.957667E+04 -1.701068E-09  6.535912E-10
       198  19 -5.842091E+04  6.823860E+04  4.763510E+04  4.009903E+04  5.909800E+03  2.152889E+04
       198  20 -9.771643E+04  5.906987E+04  4.157266E+04  3.563832E+04  5.669047E+03  1.868829E+04
       198  21 -1.370566E+05  4.990545E+04  3.535019E+04  4.001905E+04  5.428936E+03  1.574893E+04
       198  22 -3.502099E+05  5.002814E+01 -1.451877E+03  3.979785E+04  1.153844E+03  2.152485E+04
       198  23 -3.501688E+05  8.592052E+01 -8.307023E+02  3.537700E+04  7.451308E+02  1.868364E+04
       198  24 -3.502032E+05  9.697970E+01 -4.863915E+02  3.979780E+04  3.370456E+02  1.574364E+04
       198  25 -6.419149E+05 -6.814300E+04 -5.054145E+04  3.949679E+04 -3.599950E+03  2.152082E+04
       198  26 -6.025583E+05 -5.890136E+04 -4.323598E+04  3.511577E+04 -4.176848E+03  1.867900E+04
       198  27 -5.633049E+05 -4.971386E+04 -3.632430E+04  3.957661E+04 -4.753154E+03  1.573837E+04
       199   1 -1.626291E+05  4.389388E+04  3.099404E+04  3.999045E+04 -5.343410E+03 -1.400730E+04
       199   2 -2.019631E+05  3.470938E+04  2.460625E+04  3.551978E+04 -5.243159E+03 -1.101941E+04
       199   3 -2.413253E+05  2.554579E+04  1.815219E+04  3.990377E+04 -5.143242E+03 -8.022475E+03
       199   4 -3.501918E+05  9.602014E+01 -3.776741E+02  3.980073E+04 -2.608184E+02 -1.400181E+04
       199   5 -3.501733E+05  8.869018E+01 -2.400873E+02  3.537334E+04 -1.453798E+02 -1.101364E+04
       199   6 -3.501879E+05  9.952894E+01 -1.795716E+02  3.980072E+04 -3.027047E+01 -8.016423E+03
       199   7 -5.377196E+05 -4.370366E+04 -3.175038E+04  3.961105E+04  4.820288E+03 -1.399633E+04
       199   8 -4.983618E+05 -3.453313E+04 -2.508701E+04  3.522692E+04  4.951222E+03 -1.100788E+04
       199   9 -4.590387E+05 -2.534734E+04 -1.851161E+04  3.969769E+04  5.081834E+03 -8.010373E+03
       199  10 -1.626292E+05  4.389366E+04  3.099362E+04  3.999039E+04 -2.692639E-08 -1.002144E-10
       199  11 -2.019632E+05  3.470924E+04  2.460597E+04  3.551973E+04 -1.068406E-09  2.267158E-09
       199  12 -2.413254E+05  2.554571E+04  1.815202E+04  3.990374E+04  2.753684E-08  1.617021E-09
       199  13 -3.501918E+05  9.580963E+01 -3.780426E+02  3.980072E+04  2.252185E-12  1.351064E-10
       199  14 -3.501734E+05  8.855994E+01 -2.403153E+02  3.537334E+04 -3.022813E-09  1.930476E-09
       199  15 -3.501879E+05  9.945995E+01 -1.796923E+02  3.980072E+04 -2.470822E-09 -2.134792E-10
       199  16 -5.377197E+05 -4.370388E+04 -3.175079E+04  3.961111E+04  2.661364E-08  3.710931E-11
       199  17 -4.983619E+05 -3.453327E+04 -2.508728E+04  3.522697E+04 -1.829842E-09 -6.241115E-10
       199  18 -4.590387E+05 -2.534742E+04 -1.851178E+04  3.969773E+04 -2.695366E-08 -1.691698E-09
       199  19 -1.626291E+05  4.389388E+04  3.099404E+04  3.999045E+04  5.343410E+03  1.400730E+04
       199  20 -2.019631E+05  3.470938E+04  2.460625E+04  3.551978E+04  5.243159E+03  1.101941E+04
       199  21 -2.413253E+05  2.554579E+04  1.815219E+04  3.990377E+04  5.143242E+03  8.022475E+03
       199  22 -3.501918E+05  9.602014E+01 -3.776741E+02  3.980073E+04  2.608184E+02  1.400181E+04
       199  23 -3.501733E+05  8.869018E+01 -2.400873E+02  3.537334E+04  1.453798E+02  1.101364E+04
       199  24 -3.501879E+05  9.952894E+01 -1.795716E+02  3.980072E+04  3.027047E+01  8.016423E+03
       199  25 -5.377196E+05 -4.370366E+04 -3.175038E+04  3.961105E+04 -4.820288E+03  1.399633E+04
       199  26 -4.983618E+05 -3.453313E+04 -2.508701E+04  3.522692E+04 -4.951222E+03  1.100788E+04
       199  27 -4.590387E+05 -2.534734E+04 -1.851161E+04  3.969769E+04 -5.081834E+03  8.010373E+03
       200   1 -2.669186E+05  1.953417E+04  1.369868E+04  3.987862E+04 -5.113544E+03 -6.275023E+03
       200   2 -3.062634E+05  1.034914E+04  7.159291E+03  3.540340E+04 -5.013089E+03 -3.275508E+03
       200   3 -3.456415E+05  1.181631E+03  5.514164E+02  3.978773E+04 -4.912729E+03 -2.805534E+02
       200   4 -3.501869E+05  1.005969E+02 -1.713086E+02  3.980179E+04 -4.292929E-01 -6.268868E+03
       200   5 -3.501699E+05  9.377581E+01 -1.945167E+02  3.537200E+04  9.213432E+01 -3.269285E+03
       200   6 -3.501858E+05  1.060699E+02 -2.806157E+02  3.980179E+04  1.846102E+02 -2.742598E+02
       200   7 -4.334483E+05 -1.933333E+04 -1.404141E+04  3.972497E+04  5.112022E+03 -6.262714E+03
       200   8 -3.940744E+05 -1.016167E+04 -7.548286E+03  3.534060E+04  5.197009E+03 -3.263061E+03
       200   9 -3.547299E+05 -9.694779E+02 -1.112551E+03  3.981585E+04  5.281913E+03 -2.679660E+02
       200  10 -2.669186E+05  1.953413E+04  1.369856E+04  3.987859E+04  2.027128E-09 -1.796332E-10
       200  11 -3.062634E+05  1.034912E+04  7.159223E+03  3.540339E+04 -4.012251E-09 -6.432042E-10
       200  12 -3.456415E+05  1.181624E+03  5.513708E+02  3.978772E+04 -2.460899E-09 -4.887909E-10
       200  13 -3.501869E+05  1.005547E+02 -1.713825E+02  3.980179E+04 -2.399341E-09  1.955964E-09
       200  14 -3.501699E+05  9.376433E+01 -1.945368E+02  3.537200E+04  1.402833E-09 -3.639425E-10
       200  15 -3.501858E+05  1.060698E+02 -2.806159E+02  3.980179E+04  5.104746E-10 -8.097775E-10
       200  16 -4.334484E+05 -1.933338E+04 -1.404153E+04  3.972500E+04 -4.112157E-09  5.567506E-10
       200  17 -3.940745E+05 -1.016169E+04 -7.548357E+03  3.534062E+04  3.028833E-10 -2.946347E-10
       200  18 -3.547300E+05 -9.694854E+02 -1.112604E+03  3.981585E+04  1.331035E-09  8.061653E-11
       200  19 -2.669186E+05  1.953417E+04  1.369868E+04  3.987862E+04  5.113544E+03  6.275023E+03
       200  20 -3.062634E+05  1.034914E+04  7.159291E+03  3.540340E+04  5.013089E+03  3.275508E+03
       200  21 -3.456415E+05  1.181631E+03  5.514164E+02  3.978773E+04  4.912729E+03  2.805534E+02
       200  22 -3.501869E+05  1.005969E+02 -1.713086E+02  3.980179E+04  4.292930E-01  6.268868E+03
       200  23 -3.501699E+05  9.377581E+01 -1.945167E+02  3.537200E+04 -9.213432E+01  3.269285E+03
       200  24 -3.501858E+05  1.060699E+02 -2.806157E+02  3.980179E+04 -1.846102E+02  2.742598E+02
       200  25 -4.334483E+05 -1.933333E+04 -1.404141E+04  3.972497E+04 -5.112022E+03  6.262714E+03
       200  26 -3.940744E+05 -1.016167E+04 -7.548286E+03  3.534060E+04 -5.197009E+03  3.263061E+03
       200  27 -3.547299E+05 -9.694779E+02 -1.112551E+03  3.981585E+04 -5.281913E+03  2.679660E+02
       201   1 -3.712469E+05 -4.830962E+03 -3.987903E+03  3.975381E+04 -4.863877E+03  1.464708E+03
       201   2 -4.105639E+05 -1.402237E+04 -1.077680E+04  3.527838E+04 -4.470163E+03  4.431051E+03
       201   3 -4.499631E+05 -2.324275E+04 -1.783669E+04  3.965820E+04 -4.076276E+03  7.336014E+03
       201   4 -3.501931E+05  1.084463E+02 -3.538760E+02  3.980080E+04  2.398007E+02  1.471001E+03
       201   5 -3.501611E+05  1.007482E+02 -5.912679E+02  3.537322E+04  5.288511E+02  4.437107E+03
       201   6 -3.501948E+05  8.232111E+01 -1.026960E+03  3.980084E+04  8.180980E+02  7.341838E+03
       201   7 -3.291389E+05  5.047845E+03  3.280234E+03  3.984779E+04  5.343646E+03  1.477294E+03
       201   8 -2.897547E+05  1.422369E+04  9.594247E+03  3.546807E+04  5.528336E+03  4.443164E+03
       201   9 -2.504166E+05  2.340688E+04  1.578255E+04  3.994350E+04  5.713233E+03  7.347664E+03
       201  10 -3.712469E+05 -4.830971E+03 -3.987951E+03  3.975382E+04 -1.217551E-10  2.514388E-09
       201  11 -4.105639E+05 -1.402240E+04 -1.077688E+04  3.527840E+04  2.589964E-09  1.137588E-09
       201  12 -4.499631E+05 -2.324281E+04 -1.783682E+04  3.965822E+04 -3.744697E-10  9.564007E-10
       201  13 -3.501931E+05  1.084440E+02 -3.538801E+02  3.980080E+04 -9.775528E-12  1.200026E-09
       201  14 -3.501611E+05  1.007270E+02 -5.913054E+02  3.537322E+04 -3.850686E-09  1.358198E-09
       201  15 -3.501948E+05  8.226306E+01 -1.027063E+03  3.980083E+04  4.578075E-10  1.161485E-09
       201  16 -3.291389E+05  5.047835E+03  3.280176E+03  3.984779E+04  7.918971E-11  2.637394E-09
       201  17 -2.897548E+05  1.422366E+04  9.594152E+03  3.546805E+04  1.115608E-09 -1.368115E-09
       201  18 -2.504166E+05  2.340682E+04  1.578238E+04  3.994346E+04  5.158713E-10 -4.117181E-10
       201  19 -3.712469E+05 -4.830962E+03 -3.987903E+03  3.975381E+04  4.863877E+03 -1.464708E+03
       201  20 -4.105639E+05 -1.402237E+04 -1.077680E+04  3.527838E+04  4.470163E+03 -4.431051E+03
       201  21 -4.499631E+05 -2.324275E+04 -1.783669E+04  3.965820E+04  4.076276E+03 -7.336014E+03
       201  22 -3.501931E+05  1.084463E+02 -3.538760E+02  3.980080E+04 -2.398007E+02 -1.471001E+03
       201  23 -3.501611E+05  1.007482E+02 -5.912679E+02  3.537322E+04 -5.288511E+02 -4.437107E+03
       201  24 -3.501948E+05  8.232111E+01 -1.026960E+03  3.980084E+04 -8.180980E+02 -7.341838E+03
       201  25 -3.291389E+05  5.047845E+03  3.280234E+03  3.984779E+04 -5.343646E+03 -1.477294E+03
       201  26 -2.897547E+05  1.422369E+04  9.594247E+03  3.546807E+04 -5.528336E+03 -4.443164E+03
       201  27 -2.504166E+05  2.340688E+04  1.578255E+04  3.994350E+04 -5.713233E+03 -7.347664E+03
       202   1 -4.756402E+05 -2.925357E+04 -2.266986E+04  3.953429E+04 -3.942767E+03  9.047012E+03
       202   2 -5.147241E+05 -3.865927E+04 -3.064130E+04  3.535054E+04 -1.615057E+03  1.162817E+04
       202   3 -5.543249E+05 -4.884127E+04 -4.032916E+04  3.997490E+04  7.134991E+02  1.353382E+04
       202   4 -3.502522E+05  1.005743E+02 -1.349619E+03  3.979019E+04  1.023448E+03  9.052805E+03
       202   5 -3.500950E+05 -6.198623E+01 -2.365549E+03  3.538672E+04  2.200986E+03  1.163234E+04
       202   6 -3.502569E+05 -8.009990E+02 -4.298689E+03  3.979125E+04  3.379529E+03  1.353647E+04
       202   7 -2.248487E+05  2.945390E+04  1.997020E+04  4.004613E+04  5.990634E+03  9.058602E+03
       202   8 -1.854392E+05  3.853386E+04  2.590935E+04  3.542291E+04  6.018010E+03  1.163652E+04
       202   9 -1.461480E+05  4.723699E+04  3.173027E+04  3.960752E+04  6.046410E+03  1.353911E+04
       202  10 -4.756403E+05 -2.925366E+04 -2.267004E+04  3.953432E+04 -3.135963E-08  2.098136E-09
       202  11 -5.147241E+05 -3.865942E+04 -3.064156E+04  3.535055E+04  3.701513E-09 -3.075173E-10
       202  12 -5.543250E+05 -4.884147E+04 -4.032950E+04  3.997489E+04  2.989317E-08  2.007322E-09
       202  13 -3.502522E+05  1.004860E+02 -1.349775E+03  3.979018E+04  1.061519E-09  9.820112E-10
       202  14 -3.500950E+05 -6.213281E+01 -2.365812E+03  3.538670E+04  2.620602E-09  1.192554E-09
       202  15 -3.502569E+05 -8.011988E+02 -4.299055E+03  3.979121E+04  2.611362E-09 -6.408048E-11
       202  16 -2.248487E+05  2.945380E+04  1.996998E+04  4.004609E+04  2.981160E-08 -4.684783E-10
       202  17 -1.854393E+05  3.853370E+04  2.590902E+04  3.542285E+04 -1.512025E-09 -9.400943E-10
       202  18 -1.461481E+05  4.723679E+04  3.172986E+04  3.960745E+04 -2.923829E-08 -2.037540E-09
       202  19 -4.756402E+05 -2.925357E+04 -2.266986E+04  3.953429E+04  3.942767E+03 -9.047012E+03
       202  20 -5.147241E+05 -3.865927E+04 -3.064130E+04  3.535054E+04  1.615057E+03 -1.162817E+04
       202  21 -5.543249E+05 -4.884127E+04 -4.032916E+04  3.997490E+04 -7.134991E+02 -1.353382E+04
       202  22 -3.502522E+05  1.005743E+02 -1.349619E+03  3.979019E+04 -1.023448E+03 -9.052805E+03
       202  23 -3.500950E+05 -6.198623E+01 -2.365549E+03  3.538672E+04 -2.200986E+03 -1.163234E+04
       202  24 -3.502569E+05 -8.009990E+02 -4.298689E+03  3.979125E+04 -3.379529E+03 -1.353647E+04
       202  25 -2.248487E+05  2.945390E+04  1.997020E+04  4.004613E+04 -5.990634E+03 -9.058602E+03
       202  26 -1.854392E+05  3.853386E+04  2.590935E+04  3.542291E+04 -6.018010E+03 -1.163652E+04
       202  27 -1.461480E+05  4.723699E+04  3.173027E+04  3.960752E+04 -6.046410E+03 -1.353911E+04
       203   1 -5.809673E+05 -5.479329E+04 -4.669013E+04  3.843299E+04  6.475505E+02  1.486774E+04
       203   2 -6.175066E+05 -6.841235E+04 -6.276189E+04  4.076080E+04  1.862601E+04  1.320093E+04
       203   3 -6.597225E+05 -9.531252E+04 -9.386771E+04  5.140759E+04  3.661026E+04  4.091700E+03
       203   4 -3.509599E+05 -5.558984E+02 -5.649586E+03  3.968001E+04  4.112917E+03  1.487113E+04
       203   5 -3.492278E+05 -4.243831E+03 -1.028021E+04  3.553026E+04  9.421138E+03  1.319049E+04
       203   6 -3.509699E+05 -1.900865E+04 -2.113880E+04  3.969971E+04  1.473633E+04  4.068528E+03
       203   7 -1.209007E+05  5.367858E+04  3.538900E+04  4.092749E+04  7.579531E+03  1.487453E+04
       203   8 -8.087968E+04  5.992051E+04  4.219836E+04  3.029738E+04  2.123691E+02  1.318021E+04
       203   9 -4.212809E+04  5.728919E+04  5.158543E+04  2.798595E+04 -7.148428E+03  4.046189E+03
       203  10 -5.809674E+05 -5.479353E+04 -4.669054E+04  3.843298E+04 -7.715105E-10  2.650977E-09
       203  11 -6.175070E+05 -6.841263E+04 -6.276287E+04  4.076060E+04  2.297779E-09  4.151466E-10
       203  12 -6.597239E+05 -9.531290E+04 -9.387027E+04  5.140747E+04  1.823938E-09  3.487110E-10
       203  13 -3.509599E+05 -5.561404E+02 -5.650033E+03  3.967996E+04  8.330019E-10  3.080024E-09
       203  14 -3.492280E+05 -4.244041E+03 -1.028070E+04  3.553015E+04 -2.443226E-09 -6.405510E-10
       203  15 -3.509701E+05 -1.900872E+04 -2.113923E+04  3.969966E+04  3.903440E-09  1.797500E-09
       203  16 -1.209008E+05  5.367832E+04  3.538847E+04  4.092740E+04  1.298257E-09  1.566162E-09
       203  17 -8.087973E+04  5.992032E+04  4.219803E+04  3.029738E+04 -1.133540E-09  2.190396E-09
       203  18 -4.212815E+04  5.728916E+04  5.158531E+04  2.798597E+04 -1.953634E-09  3.169817E-10
       203  19 -5.809673E+05 -5.479329E+04 -4.669013E+04  3.843299E+04 -6.475505E+02 -1.486774E+04
       203  20 -6.175066E+05 -6.841235E+04 -6.276189E+04  4.076080E+04 -1.862601E+04 -1.320093E+04
       203  21 -6.597225E+05 -9.531252E+04 -9.386771E+04  5.140759E+04 -3.661026E+04 -4.091700E+03
       203  22 -3.509599E+05 -5.558984E+02 -5.649586E+03  3.968001E+04 -4.112917E+03 -1.487113E+04
       203  23 -3.492278E+05 -4.243831E+03 -1.028021E+04  3.553026E+04 -9.421138E+03 -1.319049E+04
       203  24 -3.509699E+05 -1.900865E+04 -2.113880E+04  3.969971E+04 -1.473633E+04 -4.068528E+03
       203  25 -1.209007E+05  5.367858E+04  3.538900E+04  4.092749E+04 -7.579531E+03 -1.487453E+04
       203  26 -8.087968E+04  5.992051E+04  4.219836E+04  3.029738E+04 -2.123691E+02 -1.318021E+04
       203  27 -4.212809E+04  5.728919E+04  5.158543E+04  2.798595E+04  7.148428E+03 -4.046189E+03
       204   1 -5.752950E+04  6.059733E+04  5.246080E+04  3.733628E+03 -9.942015E+03 -4.831026E+03
       204   2 -8.212429E+04  8.134278E+04  5.802393E+04  7.494524E+03 -1.030177E+04 -1.528667E+04
       204   3 -1.131641E+05  7.607852E+04  5.732860E+04  2.203931E+04 -1.067081E+04 -1.626946E+04
       204   4 -4.195561E+05 -2.931051E+04 -3.512392E+04  1.761410E+04 -2.415081E+04 -4.845695E+03
       204   5 -4.155557E+05 -1.620067E+02 -1.604528E+04  1.220519E+04 -1.564809E+04 -1.529327E+04
       204   6 -4.195445E+05  1.429743E+03 -9.385177E+03  1.758071E+04 -7.154522E+03 -1.626569E+04
       204   7 -7.814620E+05 -1.192271E+05 -1.227172E+05  3.148643E+04 -3.835134E+04 -4.861004E+03
       204   8 -7.488833E+05 -8.167422E+04 -9.012130E+04  1.691327E+04 -2.099156E+04 -1.529995E+04
       204   9 -7.258368E+05 -7.322519E+04 -7.610454E+04  1.312432E+04 -3.639950E+03 -1.626197E+04
       204  10 -5.752961E+04  6.059728E+04  5.246058E+04  3.733590E+03 -3.558228E-09  4.480690E-10
       204  11 -8.212447E+04  8.134250E+04  5.802330E+04  7.494397E+03  5.688366E-11  2.706716E-09
       204  12 -1.131643E+05  7.607821E+04  5.732789E+04  2.203917E+04 -7.612301E-10  7.012252E-12
       204  13 -4.195567E+05 -2.931069E+04 -3.512506E+04  1.761401E+04  3.069164E-10 -2.099538E-09
       204  14 -4.155561E+05 -1.623236E+02 -1.604618E+04  1.220500E+04  1.040995E-09 -4.968454E-09
       204  15 -4.195446E+05  1.429445E+03 -9.385770E+03  1.758062E+04 -2.080720E-09 -9.271217E-10
       204  16 -7.814636E+05 -1.192275E+05 -1.227200E+05  3.148628E+04  4.662370E-09  1.314676E-10
       204  17 -7.488838E+05 -8.167459E+04 -9.012257E+04  1.691301E+04 -3.125342E-10  3.207982E-09
       204  18 -7.258369E+05 -7.322548E+04 -7.610506E+04  1.312428E+04  7.850576E-10 -1.290664E-09
       204  19 -5.752950E+04  6.059733E+04  5.246080E+04  3.733628E+03  9.942015E+03  4.831026E+03
       204  20 -8.212429E+04  8.134278E+04  5.802393E+04  7.494524E+03  1.030177E+04  1.528667E+04
       204  21 -1.131641E+05  7.607852E+04  5.732860E+04  2.203931E+04  1.067081E+04  1.626946E+04
       204  22 -4.195561E+05 -2.931051E+04 -3.512392E+04  1.761410E+04  2.415081E+04  4.845695E+03
       204  23 -4.155557E+05 -1.620067E+02 -1.604528E+04  1.220519E+04  1.564809E+04  1.529327E+04
       204  24 -4.195445E+05  1.429743E+03 -9.385177E+03  1.758071E+04  7.154522E+03  1.626569E+04
       204  25 -7.814620E+05 -1.192271E+05 -1.227172E+05  3.148643E+04  3.835134E+04  4.861004E+03
       204  26 -7.488833E+05 -8.167422E+04 -9.012130E+04  1.691327E+04  2.099156E+04  1.529995E+04
       204  27 -7.258368E+05 -7.322519E+04 -7.610454E+04  1.312432E+04  3.639950E+03  1.626197E+04
       205   1 -1.341428E+05  6.767045E+04  5.465725E+04  1.742902E+04 -6.628761E+03 -1.454171E+04
       205   2 -1.617421E+05  6.239835E+04  5.172866E+04  1.220468E+04 -5.001961E+03 -1.347572E+04
       205   3 -1.899270E+05  5.568926E+04  4.737837E+04  1.823786E+04 -3.376275E+03 -1.198056E+04
       205   4 -4.179132E+05 -1.520709E+03 -7.450219E+03  1.769570E+04 -5.832097E+03 -1.454119E+04
       205   5 -4.175823E+05  5.975841E+01 -4.043973E+03  1.206568E+04 -3.804504E+03 -1.347451E+04
       205   6 -4.179082E+05  1.331553E+02 -2.338477E+03  1.769347E+04 -1.777957E+03 -1.197858E+04
       205   7 -7.016082E+05 -7.071724E+04 -6.956257E+04  1.796223E+04 -5.035793E+03 -1.454066E+04
       205   8 -6.733612E+05 -6.228319E+04 -5.982054E+04  1.192670E+04 -2.607533E+03 -1.347330E+04
       205   9 -6.458407E+05 -5.542641E+04 -5.205844E+04  1.714927E+04 -1.802193E+02 -1.197659E+04
       205  10 -1.341429E+05  6.767021E+04  5.465677E+04  1.742894E+04 -4.014397E-09 -6.963966E-10
       205  11 -1.617421E+05  6.239815E+04  5.172827E+04  1.220463E+04 -7.084116E-11  4.024904E-09
       205  12 -1.899271E+05  5.568910E+04  4.737808E+04  1.823783E+04 -1.343414E-09  3.194108E-09
       205  13 -4.179133E+05 -1.520945E+03 -7.450680E+03  1.769563E+04  7.725905E-10  4.282308E-09
       205  14 -4.175824E+05  5.955960E+01 -4.044341E+03  1.206563E+04 -3.043134E-09 -7.353088E-09
       205  15 -4.179083E+05  1.330004E+02 -2.338753E+03  1.769346E+04 -2.856492E-09  4.088828E-09
       205  16 -7.016082E+05 -7.071747E+04 -6.956301E+04  1.796217E+04  6.347680E-09 -3.870277E-09
       205  17 -6.733612E+05 -6.228339E+04 -5.982089E+04  1.192668E+04 -3.105693E-09  1.886746E-10
       205  18 -6.458407E+05 -5.542656E+04 -5.205871E+04  1.714927E+04 -4.438361E-10  2.094164E-09
       205  19 -1.341428E+05  6.767045E+04  5.465725E+04  1.742902E+04  6.628761E+03  1.454171E+04
       205  20 -1.617421E+05  6.239835E+04  5.172866E+04  1.220468E+04  5.001961E+03  1.347572E+04
       205  21 -1.899270E+05  5.568926E+04  4.737837E+04  1.823786E+04  3.376275E+03  1.198056E+04
       205  22 -4.179132E+05 -1.520709E+03 -7.450219E+03  1.769570E+04  5.832097E+03  1.454119E+04
       205  23 -4.175823E+05  5.975841E+01 -4.043973E+03  1.206568E+04  3.804504E+03  1.347451E+04
       205  24 -4.179082E+05  1.331553E+02 -2.338477E+03  1.769347E+04  1.777957E+03  1.197858E+04
       205  25 -7.016082E+05 -7.071724E+04 -6.956257E+04  1.796223E+04  5.035793E+03  1.454066E+04
       205  26 -6.733612E+05 -6.228319E+04 -5.982054E+04  1.192670E+04  2.607533E+03  1.347330E+04
       205  27 -6.458407E+05 -5.542641E+04 -5.205844E+04  1.714927E+04  1.802193E+02  1.197659E+04
       206   1 -2.123324E+05  5.001788E+04  4.287855E+04  1.797047E+04 -2.893049E+03 -1.100620E+04
       206   2 -2.402976E+05  4.327310E+04  3.759923E+04  1.227908E+04 -2.400134E+03 -9.415567E+03
       206   3 -2.683715E+05  3.647919E+04  3.197887E+04  1.792113E+04 -1.907622E+03 -7.803610E+03
       206   4 -4.177851E+05 -2.264089E+01 -1.798185E+03  1.771098E+04 -1.414956E+03 -1.100427E+04
       206   5 -4.177273E+05  4.623359E+01 -1.038985E+03  1.204409E+04 -9.022567E+02 -9.413463E+03
       206   6 -4.177820E+05  6.266594E+01 -6.345153E+02  1.771084E+04 -3.899379E+02 -7.801320E+03
       206   7 -6.231982E+05 -5.006597E+04 -4.647744E+04  1.745156E+04  6.265416E+01 -1.100235E+04
       206   8 -5.951275E+05 -4.318272E+04 -3.967908E+04  1.180916E+04  5.951984E+02 -9.411359E+03
       206   9 -5.671716E+05 -3.635534E+04 -3.324924E+04  1.750060E+04  1.127386E+03 -7.799031E+03
       206  10 -2.123325E+05  5.001775E+04  4.287831E+04  1.797044E+04 -1.225508E-10 -3.383822E-09
       206  11 -2.402977E+05  4.327300E+04  3.759905E+04  1.227906E+04  3.024224E-09 -2.101901E-09
       206  12 -2.683716E+05  3.647912E+04  3.197875E+04  1.792112E+04 -1.031490E-09 -1.203228E-09
       206  13 -4.177851E+05 -2.277144E+01 -1.798417E+03  1.771096E+04 -2.153398E-09  4.152958E-10
       206  14 -4.177273E+05  4.613824E+01 -1.039153E+03  1.204408E+04  5.558065E-10 -2.640767E-09
       206  15 -4.177820E+05  6.260056E+01 -6.346300E+02  1.771084E+04  1.706103E-09 -2.086062E-09
       206  16 -6.231982E+05 -5.006610E+04 -4.647767E+04  1.745156E+04 -2.785859E-09 -2.311203E-09
       206  17 -5.951275E+05 -4.318282E+04 -3.967924E+04  1.180916E+04 -3.987686E-09  2.967580E-09
       206  18 -5.671716E+05 -3.635540E+04 -3.324936E+04  1.750060E+04 -4.119141E-10  5.939973E-09
       206  19 -2.123324E+05  5.001788E+04  4.287855E+04  1.797047E+04  2.893049E+03  1.100620E+04
       206  20 -2.402976E+05  4.327310E+04  3.759923E+04  1.227908E+04  2.400134E+03  9.415567E+03
       206  21 -2.683715E+05  3.647919E+04  3.197887E+04  1.792113E+04  1.907622E+03  7.803610E+03
       206  22 -4.177851E+05 -2.264089E+01 -1.798185E+03  1.771098E+04  1.414956E+03  1.100427E+04
       206  23 -4.177273E+05  4.623359E+01 -1.038985E+03  1.204409E+04  9.022567E+02  9.413463E+03
       206  24 -4.177820E+05  6.266594E+01 -6.345153E+02  1.771084E+04  3.899379E+02  7.801320E+03
       206  25 -6.231982E+05 -5.006597E+04 -4.647744E+04  1.745156E+04 -6.265416E+01  1.100235E+04
       206  26 -5.951275E+05 -4.318272E+04 -3.967908E+04  1.180916E+04 -5.951984E+02  9.411359E+03
       206  27 -5.671716E+05 -3.635534E+04 -3.324924E+04  1.750060E+04 -1.127386E+03  7.799031E+03
       207   1 -2.909647E+05  3.093419E+04  2.702070E+04  1.788730E+04 -1.801396E+03 -6.859946E+03
       207   2 -3.190396E+05  2.409117E+04  2.110987E+04  1.216189E+04 -1.616570E+03 -5.240953E+03
       207   3 -3.471732E+05  1.727909E+04  1.507618E+04  1.780415E+04 -1.431956E+03 -3.619926E+03
       207   4 -4.177689E+05  5.605828E+01 -5.143600E+02  1.771847E+04 -2.877548E+02 -6.857589E+03
       207   5 -4.177382E+05  4.457660E+01 -3.828533E+02  1.203457E+04 -1.010902E+02 -5.238508E+03
       207   6 -4.177673E+05  6.377103E+01 -3.754848E+02  1.771846E+04  8.537122E+01 -3.617391E+03
       207   7 -5.445580E+05 -3.082314E+04 -2.805038E+04  1.754968E+04  1.225581E+03 -6.855231E+03
       207   8 -5.164276E+05 -2.400266E+04 -2.187616E+04  1.190728E+04  1.414152E+03 -5.236064E+03
       207   9 -4.883567E+05 -1.715188E+04 -1.582744E+04  1.763278E+04  1.602528E+03 -3.614857E+03
       207  10 -2.909648E+05  3.093414E+04  2.702061E+04  1.788729E+04  3.706335E-09 -3.715345E-09
       207  11 -3.190396E+05  2.409114E+04  2.110982E+04  1.216188E+04  6.809840E-10  1.108995E-09
       207  12 -3.471732E+05  1.727908E+04  1.507615E+04  1.780415E+04 -5.147985E-09 -9.467004E-10
       207  13 -4.177690E+05  5.600777E+01 -5.144485E+02  1.771847E+04 -1.070408E-09  7.380732E-10
       207  14 -4.177382E+05  4.454714E+01 -3.829049E+02  1.203457E+04 -1.409338E-09 -5.231177E-09
       207  15 -4.177673E+05  6.375698E+01 -3.755094E+02  1.771846E+04  1.698031E-09 -1.918096E-09
       207  16 -5.445580E+05 -3.082319E+04 -2.805047E+04  1.754969E+04 -6.601437E-09  2.198443E-09
       207  17 -5.164276E+05 -2.400269E+04 -2.187621E+04  1.190729E+04  3.374195E-09  3.279477E-09
       207  18 -4.883567E+05 -1.715190E+04 -1.582747E+04  1.763278E+04  5.912650E-09  2.731807E-09
       207  19 -2.909647E+05  3.093419E+04  2.702070E+04  1.788730E+04  1.801396E+03  6.859946E+03
       207  20 -3.190396E+05  2.409117E+04  2.110987E+04  1.216189E+04  1.616570E+03  5.240953E+03
       207  21 -3.471732E+05  1.727909E+04  1.507618E+04  1.780415E+04  1.431956E+03  3.619926E+03
       207  22 -4.177689E+05  5.605828E+01 -5.143600E+02  1.771847E+04  2.877548E+02  6.857589E+03
       207  23 -4.177382E+05  4.457660E+01 -3.828533E+02  1.203457E+04  1.010902E+02  5.238508E+03
       207  24 -4.177673E+05  6.377103E+01 -3.754848E+02  1.771846E+04 -8.537122E+01  3.617391E+03
       207  25 -5.445580E+05 -3.082314E+04 -2.805038E+04  1.754968E+04 -1.225581E+03  6.855231E+03
       207  26 -5.164276E+05 -2.400266E+04 -2.187616E+04  1.190728E+04 -1.414152E+03  5.236064E+03
       207  27 -4.883567E+05 -1.715188E+04 -1.582744E+04  1.763278E+04 -1.602528E+03  3.614857E+03
       208   1 -3.698302E+05  1.172869E+04  9.946076E+03  1.777504E+04 -1.362423E+03 -2.675688E+03
       208   2 -3.979306E+05  4.875267E+03  3.715384E+03  1.203433E+04 -1.070009E+03 -1.052944E+03
       208   3 -4.261093E+05 -1.952539E+03 -2.710643E+03  1.767601E+04 -7.776514E+02  5.695034E+02
       208   4 -4.177710E+05  6.393573E+01 -4.153427E+02  1.772171E+04  1.554484E+02 -2.673120E+03
       208   5 -4.177312E+05  5.100546E+01 -5.964903E+02  1.203051E+04  4.475353E+02 -1.050361E+03
       208   6 -4.177708E+05  6.368964E+01 -9.728349E+02  1.772172E+04  7.395780E+02  5.721043E+02
       208   7 -4.657097E+05 -1.160097E+04 -1.077689E+04  1.766839E+04  1.673205E+03 -2.670553E+03
       208   8 -4.375314E+05 -4.773281E+03 -4.908380E+03  1.202669E+04  1.965032E+03 -1.047779E+03
       208   9 -4.094322E+05  2.079915E+03  7.649785E+02  1.776742E+04  2.256827E+03  5.747054E+02
       208  10 -3.698302E+05  1.172868E+04  9.946059E+03  1.777503E+04  2.061837E-09  6.072801E-10
       208  11 -3.979306E+05  4.875266E+03  3.715380E+03  1.203432E+04  2.280189E-09 -2.239018E-09
       208  12 -4.261093E+05 -1.952539E+03 -2.710645E+03  1.767601E+04 -5.487731E-09 -1.644449E-09
       208  13 -4.177710E+05  6.392805E+01 -4.153561E+02  1.772171E+04 -3.129632E-10  1.814906E-09
       208  14 -4.177312E+05  5.100422E+01 -5.964928E+02  1.203051E+04  4.553837E-10 -5.311788E-09
       208  15 -4.177708E+05  6.368915E+01 -9.728366E+02  1.772171E+04 -2.696580E-11 -1.730036E-09
       208  16 -4.657097E+05 -1.160098E+04 -1.077691E+04  1.766839E+04 -1.172510E-09  1.056225E-09
       208  17 -4.375314E+05 -4.773283E+03 -4.908389E+03  1.202669E+04  1.054675E-09 -9.501592E-09
       208  18 -4.094322E+05  2.079913E+03  7.649683E+02  1.776742E+04  3.940403E-09 -3.877205E-09
       208  19 -3.698302E+05  1.172869E+04  9.946076E+03  1.777504E+04  1.362423E+03  2.675688E+03
       208  20 -3.979306E+05  4.875267E+03  3.715384E+03  1.203433E+04  1.070009E+03  1.052944E+03
       208  21 -4.261093E+05 -1.952539E+03 -2.710643E+03  1.767601E+04  7.776514E+02 -5.695034E+02
       208  22 -4.177710E+05  6.393573E+01 -4.153427E+02  1.772171E+04 -1.554484E+02  2.673120E+03
       208  23 -4.177312E+05  5.100546E+01 -5.964903E+02  1.203051E+04 -4.475353E+02  1.050361E+03
       208  24 -4.177708E+05  6.368964E+01 -9.728349E+02  1.772172E+04 -7.395780E+02 -5.721043E+02
       208  25 -4.657097E+05 -1.160097E+04 -1.077689E+04  1.766839E+04 -1.673205E+03  2.670553E+03
       208  26 -4.375314E+05 -4.773281E+03 -4.908380E+03  1.202669E+04 -1.965032E+03  1.047779E+03
       208  27 -4.094322E+05  2.079915E+03  7.649785E+02  1.776742E+04 -2.256827E+03 -5.747054E+02
       209   1 -4.488038E+05 -7.491032E+03 -8.091868E+03  1.761142E+04 -5.812391E+02  1.515400E+03
       209   2 -4.768174E+05 -1.433533E+04 -1.504395E+04  1.188919E+04  5.020705E+02  3.135944E+03
       209   3 -5.050564E+05 -2.133263E+04 -2.275111E+04  1.754365E+04  1.585489E+03  4.742620E+03
       209   4 -4.178030E+05  7.850660E+01 -1.261870E+03  1.772034E+04  9.395329E+02  1.517997E+03
       209   5 -4.176919E+05  7.184285E+01 -2.165470E+03  1.203217E+04  2.009946E+03  3.138466E+03
       209   6 -4.178043E+05 -8.540760E+01 -3.814975E+03  1.772062E+04  3.080515E+03  4.745071E+03
       209   7 -3.868013E+05  7.647982E+03  5.568079E+03  1.782925E+04  2.460380E+03  1.520594E+03
       209   8 -3.585631E+05  1.447878E+04  1.071281E+04  1.217516E+04  3.517963E+03  3.140988E+03
       209   9 -3.305450E+05  2.116131E+04  1.512072E+04  1.789762E+04  4.575748E+03  4.747523E+03
       209  10 -4.488038E+05 -7.491034E+03 -8.091873E+03  1.761142E+04  4.812501E-09  3.579998E-10
       209  11 -4.768174E+05 -1.433534E+04 -1.504397E+04  1.188919E+04  8.695921E-10 -3.000408E-09
       209  12 -5.050564E+05 -2.133266E+04 -2.275116E+04  1.754364E+04 -5.186279E-09 -6.257267E-09
       209  13 -4.178030E+05  7.850389E+01 -1.261876E+03  1.772034E+04 -2.061956E-12  8.864102E-10
       209  14 -4.176919E+05  7.183119E+01 -2.165496E+03  1.203216E+04  3.681466E-09  5.942049E-09
       209  15 -4.178043E+05 -8.543432E+01 -3.815035E+03  1.772061E+04 -1.135850E-10  5.247744E-09
       209  16 -3.868013E+05  7.647978E+03  5.568063E+03  1.782925E+04 -3.997419E-09  4.765977E-09
       209  17 -3.585632E+05  1.447877E+04  1.071277E+04  1.217515E+04 -7.875429E-10 -3.841797E-09
       209  18 -3.305450E+05  2.116128E+04  1.512063E+04  1.789760E+04  7.651819E-09 -1.743155E-09
       209  19 -4.488038E+05 -7.491032E+03 -8.091868E+03  1.761142E+04  5.812391E+02 -1.515400E+03
       209  20 -4.768174E+05 -1.433533E+04 -1.504395E+04  1.188919E+04 -5.020705E+02 -3.135944E+03
       209  21 -5.050564E+05 -2.133263E+04 -2.275111E+04  1.754365E+04 -1.585489E+03 -4.742620E+03
       209  22 -4.178030E+05  7.850660E+01 -1.261870E+03  1.772034E+04 -9.395329E+02 -1.517997E+03
       209  23 -4.176919E+05  7.184285E+01 -2.165470E+03  1.203217E+04 -2.009946E+03 -3.138466E+03
       209  24 -4.178043E+05 -8.540760E+01 -3.814975E+03  1.772062E+04 -3.080515E+03 -4.745071E+03
       209  25 -3.868013E+05  7.647982E+03  5.568079E+03  1.782925E+04 -2.460380E+03 -1.520594E+03
       209  26 -3.585631E+05  1.447878E+04  1.071281E+04  1.217516E+04 -3.517963E+03 -3.140988E+03
       209  27 -3.305450E+05  2.116131E+04  1.512072E+04  1.789762E+04 -4.575748E+03 -4.747523E+03
       210   1 -5.279582E+05 -2.654448E+04 -2.898897E+04  1.693914E+04  2.275311E+03  5.711387E+03
       210   2 -5.552958E+05 -3.349731E+04 -3.871884E+04  1.213441E+04  6.878054E+03  7.258364E+03
       210   3 -5.840985E+05 -4.375844E+04 -5.228358E+04  1.867220E+04  1.148129E+04  8.511125E+03
       210   4 -4.180706E+05  2.493875E+02 -4.979802E+03  1.771138E+04  3.853360E+03  5.713924E+03
       210   5 -4.173636E+05  1.207547E+02 -8.633090E+03  1.204299E+04  8.181753E+03  7.260334E+03
       210   6 -4.180745E+05 -3.267968E+03 -1.592991E+04  1.771700E+04  1.251084E+04  8.512547E+03
       210   7 -3.081717E+05  2.704246E+04  1.902865E+04  1.848375E+04  5.431685E+03  5.716466E+03
       210   8 -2.794137E+05  3.373756E+04  2.145152E+04  1.195154E+04  9.485737E+03  7.262303E+03
       210   9 -2.520246E+05  3.722066E+04  2.042208E+04  1.676154E+04  1.354066E+04  8.513966E+03
       210  10 -5.279582E+05 -2.654452E+04 -2.898904E+04  1.693913E+04 -4.387793E-09 -5.361971E-09
       210  11 -5.552958E+05 -3.349738E+04 -3.871902E+04  1.213437E+04  2.424594E-09  1.544855E-09
       210  12 -5.840987E+05 -4.375855E+04 -5.228396E+04  1.867212E+04  1.043076E-08 -2.251886E-09
       210  13 -4.180706E+05  2.493484E+02 -4.979891E+03  1.771136E+04  2.442462E-09 -1.547418E-09
       210  14 -4.173637E+05  1.206801E+02 -8.633315E+03  1.204294E+04 -1.119487E-09  5.366320E-09
       210  15 -4.180746E+05 -3.268088E+03 -1.593034E+04  1.771692E+04  1.360473E-09  4.735280E-10
       210  16 -3.081717E+05  2.704241E+04  1.902853E+04  1.848373E+04  4.480889E-09 -7.111618E-09
       210  17 -2.794138E+05  3.373748E+04  2.145125E+04  1.195149E+04 -3.255453E-09 -7.538711E-09
       210  18 -2.520248E+05  3.722054E+04  2.042160E+04  1.676145E+04 -9.878048E-09 -1.926793E-09
       210  19 -5.279582E+05 -2.654448E+04 -2.898897E+04  1.693914E+04 -2.275311E+03 -5.711387E+03
       210  20 -5.552958E+05 -3.349731E+04 -3.871884E+04  1.213441E+04 -6.878054E+03 -7.258364E+03
       210  21 -5.840985E+05 -4.375844E+04 -5.228358E+04  1.867220E+04 -1.148129E+04 -8.511125E+03
       210  22 -4.180706E+05  2.493875E+02 -4.979802E+03  1.771138E+04 -3.853360E+03 -5.713924E+03
       210  23 -4.173636E+05  1.207547E+02 -8.633090E+03  1.204299E+04 -8.181753E+03 -7.260334E+03
       210  24 -4.180745E+05 -3.267968E+03 -1.592991E+04  1.771700E+04 -1.251084E+04 -8.512547E+03
       210  25 -3.081717E+05  2.704246E+04  1.902865E+04  1.848375E+04 -5.431685E+03 -5.716466E+03
       210  26 -2.794137E+05  3.373756E+04  2.145152E+04  1.195154E+04 -9.485737E+03 -7.262303E+03
       210  27 -2.520246E+05  3.722066E+04  2.042208E+04  1.676154E+04 -1.354066E+04 -8.513966E+03
       211   1 -6.102808E+05 -4.297487E+04 -6.120640E+04  8.474362E+03  1.244497E+04  9.995003E+03
       211   2 -6.292596E+05 -5.319106E+04 -8.241795E+04  2.257564E+04  3.668432E+04  9.872765E+03
       211   3 -6.664440E+05 -1.234827E+05 -1.344445E+05  4.774094E+04  6.093092E+04  3.246662E+03
       211   4 -4.215688E+05  3.049256E+03 -2.007250E+04  1.762821E+04  1.534122E+04  9.999390E+03
       211   5 -4.130048E+05 -3.304267E+02 -3.431251E+04  1.214280E+04  3.350196E+04  9.867255E+03
       211   6 -4.215855E+05 -6.271963E+04 -7.513756E+04  1.772272E+04  5.167140E+04  3.230742E+03
       211   7 -2.328232E+05  4.907132E+04  2.105933E+04  2.678486E+04  1.823833E+04  1.000386E+04
       211   8 -1.967060E+05  5.252746E+04  1.379011E+04  1.706259E+03  3.031851E+04  9.861854E+03
       211   9 -1.766700E+05 -1.957464E+03 -1.583410E+04 -1.230740E+04  4.240823E+04  3.215721E+03
       211  10 -6.102810E+05 -4.297502E+04 -6.120687E+04  8.474262E+03  2.326357E-09 -3.296522E-10
       211  11 -6.292611E+05 -5.319152E+04 -8.242067E+04  2.257535E+04  4.900498E-09 -1.404441E-09
       211  12 -6.664480E+05 -1.234837E+05 -1.344515E+05  4.774078E+04  2.903627E-09  3.442256E-09
       211  13 -4.215691E+05  3.049085E+03 -2.007313E+04  1.762809E+04 -1.082506E-09  1.028228E-09
       211  14 -4.130060E+05 -3.308328E+02 -3.431480E+04  1.214253E+04 -1.772316E-09 -5.502166E-11
       211  15 -4.215884E+05 -6.272036E+04 -7.514260E+04  1.772259E+04 -1.480192E-09  1.417738E-09
       211  16 -2.328236E+05  4.907112E+04  2.105852E+04  2.678472E+04 -6.351970E-10 -2.506705E-10
       211  17 -1.967070E+05  5.252711E+04  1.378820E+04  1.706018E+03 -6.791499E-09  6.116126E-09
       211  18 -1.766720E+05 -1.957958E+03 -1.583750E+04 -1.230751E+04 -2.321570E-09  7.527134E-10
       211  19 -6.102808E+05 -4.297487E+04 -6.120640E+04  8.474362E+03 -1.244497E+04 -9.995003E+03
       211  20 -6.292596E+05 -5.319106E+04 -8.241795E+04  2.257564E+04 -3.668432E+04 -9.872765E+03
       211  21 -6.664440E+05 -1.234827E+05 -1.344445E+05  4.774094E+04 -6.093092E+04 -3.246662E+03
       211  22 -4.215688E+05  3.049256E+03 -2.007250E+04  1.762821E+04 -1.534122E+04 -9.999390E+03
       211  23 -4.130048E+05 -3.304267E+02 -3.431251E+04  1.214280E+04 -3.350196E+04 -9.867255E+03
       211  24 -4.215855E+05 -6.271963E+04 -7.513756E+04  1.772272E+04 -5.167140E+04 -3.230742E+03
       211  25 -2.328232E+05  4.907132E+04  2.105933E+04  2.678486E+04 -1.823833E+04 -1.000386E+04
       211  26 -1.967060E+05  5.252746E+04  1.379011E+04  1.706259E+03 -3.031851E+04 -9.861854E+03
       211  27 -1.766700E+05 -1.957464E+03 -1.583410E+04 -1.230740E+04 -4.240823E+04 -3.215721E+03

 stresses (elem, integ.pnt.,sxx,syy,szz,sxy,sxz,syz) for set ELALL and time  0.8125000E+00

         1   1  2.410506E+06  8.841099E+06  2.288772E+06 -1.634049E+06  1.123853E+05  8.548045E+05
         1   2  1.949067E+06  7.541615E+06  1.552954E+06 -1.497717E+06  3.766684E+05  3.886460E+05
         1   3  1.614985E+06  6.339024E+06  1.150692E+06 -1.569761E+06  4.380419E+05 -7.626524E+04
         1   4  9.842138E+04 -5.807451E+05  1.038567E+05 -1.546037E+06  1.148622E+05  6.794819E+04
         1   5  3.018698E+04 -5.876525E+05  5.495788E+04 -1.442037E+06  3.784840E+05  4.142854E+04
         1   6  1.439312E+04 -5.741961E+05  3.705253E+04 -1.546398E+06  4.380188E+05  1.509358E+04
         1   7 -2.219544E+06 -9.920005E+06 -2.084722E+06 -1.459207E+06  1.171487E+05 -7.071843E+05
         1   8 -1.892379E+06 -8.653043E+06 -1.445337E+06 -1.386973E+06  3.802555E+05 -3.014046E+05
         1   9 -1.588601E+06 -7.440250E+06 -1.077855E+06 -1.523191E+06  4.380023E+05  1.054782E+05
         1  10  2.410299E+06  8.840320E+06  2.287392E+06 -1.634126E+06 -3.880685E-09  3.059227E-09
         1  11  1.948874E+06  7.541416E+06  1.552405E+06 -1.497834E+06  7.732589E-10 -1.224156E-09
         1  12  1.614777E+06  6.338967E+06  1.150321E+06 -1.569735E+06 -1.197720E-08 -5.586252E-09
         1  13  9.840595E+04 -5.807537E+05  1.038232E+05 -1.546044E+06  4.743412E-10 -5.086763E-11
         1  14  3.003269E+04 -5.876928E+05  5.468537E+04 -1.442050E+06  1.139520E-08  1.247659E-12
         1  15  1.418708E+04 -5.742478E+05  3.669158E+04 -1.546403E+06 -3.436915E-09 -1.111669E-10
         1  16 -2.219695E+06 -9.920552E+06 -2.085701E+06 -1.459141E+06 -6.521286E-10 -2.901652E-09
         1  17 -1.892559E+06 -8.653179E+06 -1.445781E+06 -1.386881E+06 -1.582566E-09  1.027907E-09
         1  18 -1.588810E+06 -7.440314E+06 -1.078237E+06 -1.523229E+06  1.165517E-09  5.435211E-09
         1  19  2.410506E+06  8.841099E+06  2.288772E+06 -1.634049E+06 -1.123853E+05 -8.548045E+05
         1  20  1.949067E+06  7.541615E+06  1.552954E+06 -1.497717E+06 -3.766684E+05 -3.886460E+05
         1  21  1.614985E+06  6.339024E+06  1.150692E+06 -1.569761E+06 -4.380419E+05  7.626524E+04
         1  22  9.842138E+04 -5.807451E+05  1.038567E+05 -1.546037E+06 -1.148622E+05 -6.794819E+04
         1  23  3.018698E+04 -5.876525E+05  5.495788E+04 -1.442037E+06 -3.784840E+05 -4.142854E+04
         1  24  1.439312E+04 -5.741961E+05  3.705253E+04 -1.546398E+06 -4.380188E+05 -1.509358E+04
         1  25 -2.219544E+06 -9.920005E+06 -2.084722E+06 -1.459207E+06 -1.171487E+05  7.071843E+05
         1  26 -1.892379E+06 -8.653043E+06 -1.445337E+06 -1.386973E+06 -3.802555E+05  3.014046E+05
         1  27 -1.588601E+06 -7.440250E+06 -1.077855E+06 -1.523191E+06 -4.380023E+05 -1.054782E+05
         2   1  1.427287E+06  5.540501E+06  9.941467E+05 -1.577008E+06  4.055323E+05 -8.390803E+04
         2   2  1.130904E+06  4.283314E+06  7.590639E+05 -1.456596E+06  3.504578E+05 -1.525328E+05
         2   3  8.566057E+05  3.041813E+06  5.738589E+05 -1.559218E+06  2.711838E+05 -2.213157E+05
         2   4  1.538265E+04 -5.756849E+05  3.298671E+04 -1.549676E+06  4.053708E+05  9.368448E+03
         2   5  1.591035E+04 -5.762352E+05  3.290549E+04 -1.438087E+06  3.497967E+05 -7.158575E+03
         2   6  2.964183E+04 -5.716062E+05  4.673418E+04 -1.549634E+06  2.699250E+05 -2.397319E+04
         2   7 -1.398360E+06 -6.654772E+06 -9.290610E+05 -1.522529E+06  4.052162E+05  1.017658E+05
         2   8 -1.100185E+06 -5.412121E+06 -6.936325E+05 -1.419668E+06  3.491406E+05  1.371294E+05
         2   9 -7.979040E+05 -4.171820E+06 -4.804662E+05 -1.540071E+06  2.686670E+05  1.722729E+05
         2  10  1.427109E+06  5.540449E+06  9.938249E+05 -1.576981E+06 -7.613809E-09  9.748308E-09
         2  11  1.130766E+06  4.283257E+06  7.587903E+05 -1.456553E+06  2.136732E-09  3.349024E-09
         2  12  8.565139E+05  3.041741E+06  5.736298E+05 -1.559170E+06  2.621812E-09 -2.686670E-09
         2  13  1.520621E+04 -5.757291E+05  3.267779E+04 -1.549679E+06 -5.077406E-09  5.013082E-11
         2  14  1.577900E+04 -5.762681E+05  3.267556E+04 -1.438085E+06  6.637399E-09 -3.752167E-10
         2  15  2.956349E+04 -5.716263E+05  4.659630E+04 -1.549629E+06  1.480413E-09 -2.854069E-10
         2  16 -1.398539E+06 -6.654827E+06 -9.293896E+05 -1.522562E+06  5.463308E-09 -9.916571E-09
         2  17 -1.100321E+06 -5.412174E+06 -6.938976E+05 -1.419707E+06  2.547288E-09 -3.438711E-09
         2  18 -7.979897E+05 -4.171871E+06 -4.806585E+05 -1.540108E+06 -1.876853E-09  2.488267E-09
         2  19  1.427287E+06  5.540501E+06  9.941467E+05 -1.577008E+06 -4.055323E+05  8.390803E+04
         2  20  1.130904E+06  4.283314E+06  7.590639E+05 -1.456596E+06 -3.504578E+05  1.525328E+05
         2  21  8.566057E+05  3.041813E+06  5.738589E+05 -1.559218E+06 -2.711838E+05  2.213157E+05
         2  22  1.538265E+04 -5.756849E+05  3.298671E+04 -1.549676E+06 -4.053708E+05 -9.368448E+03
         2  23  1.591035E+04 -5.762352E+05  3.290549E+04 -1.438087E+06 -3.497967E+05  7.158575E+03
         2  24  2.964183E+04 -5.716062E+05  4.673418E+04 -1.549634E+06 -2.699250E+05  2.397319E+04
         2  25 -1.398360E+06 -6.654772E+06 -9.290610E+05 -1.522529E+06 -4.052162E+05 -1.017658E+05
         2  26 -1.100185E+06 -5.412121E+06 -6.936325E+05 -1.419668E+06 -3.491406E+05 -1.371294E+05
         2  27 -7.979040E+05 -4.171820E+06 -4.804662E+05 -1.540071E+06 -2.686670E+05 -1.722729E+05
         3   1  6.816038E+05  2.263773E+06  4.661906E+05 -1.562912E+06  2.167255E+05 -2.297103E+05
         3   2  4.364066E+05  1.003064E+06  3.266346E+05 -1.382770E+06  1.242380E+05 -2.848314E+05
         3   3  2.796822E+05 -2.290186E+05  2.444022E+05 -1.427312E+06  3.036108E+04 -3.399508E+05
         3   4  3.466110E+04 -5.659381E+05  5.844103E+04 -1.550034E+06  2.153518E+05 -3.224343E+04
         3   5  7.615880E+04 -5.784596E+05  1.012210E+05 -1.437223E+06  1.227767E+05 -8.451843E+04
         3   6  2.057321E+05 -5.645468E+05  1.992344E+05 -1.548994E+06  2.882252E+04 -1.368858E+05
         3   7 -6.126264E+05 -3.387498E+06 -3.492882E+05 -1.537195E+06  2.139820E+05  1.643641E+05
         3   8 -2.841676E+05 -2.157361E+06 -1.240763E+05 -1.491524E+06  1.212777E+05  1.153069E+05
         3   9  1.318559E+05 -8.998389E+05  1.542288E+05 -1.670607E+06  2.720374E+04  6.607456E+04
         3  10  6.815395E+05  2.263705E+06  4.660041E+05 -1.562872E+06 -2.208125E-09 -2.218684E-09
         3  11  4.363684E+05  1.002973E+06  3.264537E+05 -1.382742E+06 -1.671402E-09 -1.188480E-09
         3  12  2.796502E+05 -2.291429E+05  2.441833E+05 -1.427304E+06 -1.651073E-10  1.007561E-09
         3  13  3.461107E+04 -5.659516E+05  5.835204E+04 -1.550029E+06  7.957898E-10 -2.367251E-10
         3  14  7.614074E+04 -5.784712E+05  1.011794E+05 -1.437214E+06  4.014031E-09 -3.006412E-10
         3  15  2.057262E+05 -5.645671E+05  1.991976E+05 -1.548990E+06  2.510000E-09 -7.982436E-11
         3  16 -6.126830E+05 -3.387540E+06 -3.494256E+05 -1.537223E+06  1.640061E-09  2.197012E-09
         3  17 -2.841870E+05 -2.157380E+06 -1.241292E+05 -1.491535E+06 -5.165177E-10  7.204355E-10
         3  18  1.318540E+05 -8.998438E+05  1.542191E+05 -1.670608E+06 -5.995028E-10 -7.189314E-10
         3  19  6.816038E+05  2.263773E+06  4.661906E+05 -1.562912E+06 -2.167255E+05  2.297103E+05
         3  20  4.364066E+05  1.003064E+06  3.266346E+05 -1.382770E+06 -1.242380E+05  2.848314E+05
         3  21  2.796822E+05 -2.290186E+05  2.444022E+05 -1.427312E+06 -3.036108E+04  3.399508E+05
         3  22  3.466110E+04 -5.659381E+05  5.844103E+04 -1.550034E+06 -2.153518E+05  3.224343E+04
         3  23  7.615880E+04 -5.784596E+05  1.012210E+05 -1.437223E+06 -1.227767E+05  8.451843E+04
         3  24  2.057321E+05 -5.645468E+05  1.992344E+05 -1.548994E+06 -2.882252E+04  1.368858E+05
         3  25 -6.126264E+05 -3.387498E+06 -3.492882E+05 -1.537195E+06 -2.139820E+05 -1.643641E+05
         3  26 -2.841676E+05 -2.157361E+06 -1.240763E+05 -1.491524E+06 -1.212777E+05 -1.153069E+05
         3  27  1.318559E+05 -8.998389E+05  1.542288E+05 -1.670607E+06 -2.720374E+04 -6.607456E+04
         4   1 -8.496196E+06 -2.680937E+06 -1.846359E+06 -2.805484E+06 -8.431760E+05 -3.014788E+05
         4   2 -8.211760E+06 -1.388127E+06 -1.037304E+06 -2.966065E+06 -5.480753E+05 -1.651521E+05
         4   3 -8.320809E+06 -1.518629E+06 -8.098378E+05 -2.919548E+06 -2.411469E+05 -6.050826E+04
         4   4 -6.685095E+06 -1.854854E+06 -1.316511E+06 -2.172136E+06 -8.363822E+05 -2.991832E+05
         4   5 -6.423146E+06 -6.790423E+05 -5.392341E+05 -2.448873E+06 -5.474972E+05 -1.649856E+05
         4   6 -6.551971E+06 -9.229762E+05 -3.372190E+05 -2.518904E+06 -2.468149E+05 -6.256583E+04
         4   7 -4.870753E+06 -1.028135E+06 -7.869924E+05 -1.536950E+06 -8.295630E+05 -2.968734E+05
         4   8 -4.631424E+06  3.030965E+04 -4.146555E+04 -1.930287E+06 -5.469152E+05 -1.648174E+05
         4   9 -4.780105E+06 -3.273012E+05  1.351318E+05 -2.117285E+06 -2.524999E+05 -6.462816E+04
         4  10 -8.496994E+06 -2.681230E+06 -1.847889E+06 -2.805691E+06  2.393529E-09 -1.748004E-10
         4  11 -8.212094E+06 -1.388239E+06 -1.037929E+06 -2.966139E+06  1.398944E-10 -1.226070E-09
         4  12 -8.320873E+06 -1.518648E+06 -8.099558E+05 -2.919560E+06  7.314854E-10 -6.857820E-10
         4  13 -6.685877E+06 -1.855141E+06 -1.318012E+06 -2.172339E+06  3.568233E-11 -1.652634E-10
         4  14 -6.423478E+06 -6.791536E+05 -5.398560E+05 -2.448946E+06 -6.482710E-09 -1.147013E-09
         4  15 -6.552038E+06 -9.229970E+05 -3.373423E+05 -2.518916E+06  1.064103E-09 -5.173239E-10
         4  16 -4.871521E+06 -1.028417E+06 -7.884640E+05 -1.537150E+06 -4.592690E-09 -3.986103E-11
         4  17 -4.631755E+06  3.019905E+04 -4.208417E+04 -1.930360E+06 -1.184796E-10  2.100077E-10
         4  18 -4.780175E+06 -3.273230E+05  1.350030E+05 -2.117298E+06 -1.588673E-10 -1.350546E-10
         4  19 -8.496196E+06 -2.680937E+06 -1.846359E+06 -2.805484E+06  8.431760E+05  3.014788E+05
         4  20 -8.211760E+06 -1.388127E+06 -1.037304E+06 -2.966065E+06  5.480753E+05  1.651521E+05
         4  21 -8.320809E+06 -1.518629E+06 -8.098378E+05 -2.919548E+06  2.411469E+05  6.050826E+04
         4  22 -6.685095E+06 -1.854854E+06 -1.316511E+06 -2.172136E+06  8.363822E+05  2.991832E+05
         4  23 -6.423146E+06 -6.790423E+05 -5.392341E+05 -2.448873E+06  5.474972E+05  1.649856E+05
         4  24 -6.551971E+06 -9.229762E+05 -3.372190E+05 -2.518904E+06  2.468149E+05  6.256583E+04
         4  25 -4.870753E+06 -1.028135E+06 -7.869924E+05 -1.536950E+06  8.295630E+05  2.968734E+05
         4  26 -4.631424E+06  3.030965E+04 -4.146555E+04 -1.930287E+06  5.469152E+05  1.648174E+05
         4  27 -4.780105E+06 -3.273012E+05  1.351318E+05 -2.117285E+06  2.524999E+05  6.462816E+04
         5   1 -7.452819E+06 -1.490069E+06 -5.482596E+05 -2.748002E+06 -1.931607E+05 -5.180096E+04
         5   2 -7.330801E+06 -1.111939E+06 -3.381605E+05 -2.579881E+06 -1.236345E+05 -3.012404E+04
         5   3 -7.034767E+06 -1.174951E+06 -2.305071E+05 -2.660149E+06 -5.196882E+04 -1.428622E+04
         5   4 -6.482144E+06 -1.108592E+06 -2.785215E+05 -2.470517E+06 -1.934551E+05 -5.191841E+04
         5   5 -6.559938E+06 -8.201240E+05 -1.262295E+05 -2.371162E+06 -1.251228E+05 -3.066995E+04
         5   6 -6.463414E+06 -9.723791E+05 -7.529075E+04 -2.520209E+06 -5.467668E+04 -1.527013E+04
         5   7 -5.510555E+06 -7.270392E+05 -8.871760E+03 -2.192627E+06 -1.937497E+05 -5.203597E+04
         5   8 -5.788502E+06 -5.282751E+05  8.564660E+04 -2.162206E+06 -1.266130E+05 -3.121660E+04
         5   9 -5.891749E+06 -7.697992E+05  7.989604E+04 -2.380155E+06 -5.738727E+04 -1.625492E+04
         5  10 -7.452860E+06 -1.490082E+06 -5.483358E+05 -2.748010E+06  1.760954E-09 -8.113548E-10
         5  11 -7.330817E+06 -1.111944E+06 -3.381913E+05 -2.579884E+06  3.010566E-10 -1.915703E-10
         5  12 -7.034770E+06 -1.174952E+06 -2.305126E+05 -2.660150E+06  5.369975E-09  9.680631E-10
         5  13 -6.482185E+06 -1.108605E+06 -2.785978E+05 -2.470525E+06  5.307340E-09 -9.706771E-10
         5  14 -6.559956E+06 -8.201293E+05 -1.262610E+05 -2.371165E+06  7.926014E-10  1.970989E-10
         5  15 -6.463418E+06 -9.723802E+05 -7.529688E+04 -2.520209E+06 -1.594105E-09  1.542756E-10
         5  16 -5.510596E+06 -7.270524E+05 -8.948163E+03 -2.192636E+06  1.129218E-09 -1.540148E-09
         5  17 -5.788520E+06 -5.282805E+05  8.561430E+04 -2.162209E+06 -3.524412E-10 -3.624064E-09
         5  18 -5.891753E+06 -7.698004E+05  7.988928E+04 -2.380156E+06 -3.539792E-10 -3.278221E-09
         5  19 -7.452819E+06 -1.490069E+06 -5.482596E+05 -2.748002E+06  1.931607E+05  5.180096E+04
         5  20 -7.330801E+06 -1.111939E+06 -3.381605E+05 -2.579881E+06  1.236345E+05  3.012404E+04
         5  21 -7.034767E+06 -1.174951E+06 -2.305071E+05 -2.660149E+06  5.196882E+04  1.428622E+04
         5  22 -6.482144E+06 -1.108592E+06 -2.785215E+05 -2.470517E+06  1.934551E+05  5.191841E+04
         5  23 -6.559938E+06 -8.201240E+05 -1.262295E+05 -2.371162E+06  1.251228E+05  3.066995E+04
         5  24 -6.463414E+06 -9.723791E+05 -7.529075E+04 -2.520209E+06  5.467668E+04  1.527013E+04
         5  25 -5.510555E+06 -7.270392E+05 -8.871760E+03 -2.192627E+06  1.937497E+05  5.203597E+04
         5  26 -5.788502E+06 -5.282751E+05  8.564660E+04 -2.162206E+06  1.266130E+05  3.121660E+04
         5  27 -5.891749E+06 -7.697992E+05  7.989604E+04 -2.380155E+06  5.738727E+04  1.625492E+04
         6   1 -6.006812E+06 -8.317559E+05  6.287787E+04 -2.394441E+06 -3.918433E+04 -1.697256E+04
         6   2 -5.914617E+06 -5.985251E+05  1.516530E+05 -2.190225E+06 -2.115785E+04 -2.000600E+04
         6   3 -5.576495E+06 -6.498848E+05  2.219753E+05 -2.282030E+06 -3.659685E+03 -2.150672E+04
         6   4 -6.455348E+06 -9.957405E+05 -6.002862E+04 -2.509632E+06 -4.121310E+04 -1.771051E+04
         6   5 -6.576977E+06 -8.445495E+05 -2.943786E+04 -2.364770E+06 -2.285610E+04 -2.062662E+04
         6   6 -6.452775E+06 -9.780534E+05 -1.756402E+04 -2.515967E+06 -5.033426E+03 -2.201127E+04
         6   7 -6.903691E+06 -1.159718E+06 -1.829538E+05 -2.624749E+06 -4.324024E+04 -1.844790E+04
         6   8 -7.238916E+06 -1.090553E+06 -2.105691E+05 -2.539148E+06 -2.455233E+04 -2.124650E+04
         6   9 -7.328315E+06 -1.306182E+06 -2.571737E+05 -2.749605E+06 -6.405010E+03 -2.251503E+04
         6  10 -6.006813E+06 -8.317566E+05  6.287440E+04 -2.394442E+06  1.378807E-09 -4.946286E-10
         6  11 -5.914617E+06 -5.985257E+05  1.516514E+05 -2.190225E+06 -5.650865E-09  9.238190E-11
         6  12 -5.576496E+06 -6.498853E+05  2.219744E+05 -2.282030E+06  7.109140E-10 -1.504129E-09
         6  13 -6.455350E+06 -9.957413E+05 -6.003244E+04 -2.509633E+06  1.536488E-09 -2.265510E-09
         6  14 -6.576978E+06 -8.445501E+05 -2.943965E+04 -2.364771E+06  5.639116E-10 -1.775370E-09
         6  15 -6.452776E+06 -9.780539E+05 -1.756498E+04 -2.515967E+06  4.008650E-10 -8.274352E-10
         6  16 -6.903693E+06 -1.159719E+06 -1.829580E+05 -2.624749E+06  5.138530E-09 -1.888203E-09
         6  17 -7.238917E+06 -1.090554E+06 -2.105711E+05 -2.539148E+06  5.256850E-09 -4.382496E-09
         6  18 -7.328315E+06 -1.306183E+06 -2.571747E+05 -2.749605E+06 -4.141524E-09 -4.296238E-09
         6  19 -6.006812E+06 -8.317559E+05  6.287787E+04 -2.394441E+06  3.918433E+04  1.697256E+04
         6  20 -5.914617E+06 -5.985251E+05  1.516530E+05 -2.190225E+06  2.115785E+04  2.000600E+04
         6  21 -5.576495E+06 -6.498848E+05  2.219753E+05 -2.282030E+06  3.659685E+03  2.150672E+04
         6  22 -6.455348E+06 -9.957405E+05 -6.002862E+04 -2.509632E+06  4.121310E+04  1.771051E+04
         6  23 -6.576977E+06 -8.445495E+05 -2.943786E+04 -2.364770E+06  2.285610E+04  2.062662E+04
         6  24 -6.452775E+06 -9.780534E+05 -1.756402E+04 -2.515967E+06  5.033426E+03  2.201127E+04
         6  25 -6.903691E+06 -1.159718E+06 -1.829538E+05 -2.624749E+06  4.324024E+04  1.844790E+04
         6  26 -7.238916E+06 -1.090553E+06 -2.105691E+05 -2.539148E+06  2.455233E+04  2.124650E+04
         6  27 -7.328315E+06 -1.306182E+06 -2.571737E+05 -2.749605E+06  6.405010E+03  2.251503E+04
         7   1 -4.822383E+06 -3.348405E+05  4.402052E+05 -2.042263E+06  1.063691E+03 -2.504684E+04
         7   2 -4.789091E+06 -2.227561E+05  4.734041E+05 -1.934210E+06  6.784472E+03 -3.048886E+04
         7   3 -4.604018E+06 -2.448518E+05  5.078459E+05 -1.975378E+06  1.063092E+04 -3.077419E+04
         7   4 -6.475316E+06 -9.516743E+05 -1.278066E+04 -2.481069E+06 -9.738842E+02 -2.579979E+04
         7   5 -6.550970E+06 -8.843136E+05 -9.407863E+03 -2.406445E+06  5.887270E+03 -3.082773E+04
         7   6 -6.475099E+06 -9.514218E+05 -5.708319E+03 -2.481080E+06  1.087084E+04 -3.069210E+04
         7   7 -8.125612E+06 -1.568370E+06 -4.660151E+05 -2.918816E+06 -3.005414E+03 -2.655053E+04
         7   8 -8.309851E+06 -1.545706E+06 -4.925034E+05 -2.877464E+06  4.992919E+03 -3.116557E+04
         7   9 -8.342801E+06 -1.657798E+06 -5.195842E+05 -2.985397E+06  1.110997E+04 -3.061033E+04
         7  10 -4.822383E+06 -3.348412E+05  4.402041E+05 -2.042263E+06  2.730832E-09 -6.193190E-10
         7  11 -4.789091E+06 -2.227571E+05  4.734022E+05 -1.934210E+06 -6.694451E-09  1.649388E-09
         7  12 -4.604018E+06 -2.448529E+05  5.078439E+05 -1.975378E+06 -1.188221E-09  1.425415E-09
         7  13 -6.475316E+06 -9.516751E+05 -1.278192E+04 -2.481069E+06 -7.759296E-10 -3.821697E-09
         7  14 -6.550970E+06 -8.843146E+05 -9.409708E+03 -2.406445E+06  1.125582E-08  5.973155E-10
         7  15 -6.475099E+06 -9.514228E+05 -5.710304E+03 -2.481079E+06 -3.516949E-09  1.984757E-09
         7  16 -8.125612E+06 -1.568371E+06 -4.660165E+05 -2.918816E+06  4.165811E-10 -4.063064E-09
         7  17 -8.309852E+06 -1.545707E+06 -4.925052E+05 -2.877464E+06  2.773799E-10 -3.524973E-09
         7  18 -8.342801E+06 -1.657799E+06 -5.195862E+05 -2.985397E+06  9.131497E-10  9.272978E-10
         7  19 -4.822383E+06 -3.348405E+05  4.402052E+05 -2.042263E+06 -1.063691E+03  2.504684E+04
         7  20 -4.789091E+06 -2.227561E+05  4.734041E+05 -1.934210E+06 -6.784472E+03  3.048886E+04
         7  21 -4.604018E+06 -2.448518E+05  5.078459E+05 -1.975378E+06 -1.063092E+04  3.077419E+04
         7  22 -6.475316E+06 -9.516743E+05 -1.278066E+04 -2.481069E+06  9.738842E+02  2.579979E+04
         7  23 -6.550970E+06 -8.843136E+05 -9.407863E+03 -2.406445E+06 -5.887270E+03  3.082773E+04
         7  24 -6.475099E+06 -9.514218E+05 -5.708319E+03 -2.481080E+06 -1.087084E+04  3.069210E+04
         7  25 -8.125612E+06 -1.568370E+06 -4.660151E+05 -2.918816E+06  3.005414E+03  2.655053E+04
         7  26 -8.309851E+06 -1.545706E+06 -4.925034E+05 -2.877464E+06 -4.992919E+03  3.116557E+04
         7  27 -8.342801E+06 -1.657798E+06 -5.195842E+05 -2.985397E+06 -1.110997E+04  3.061033E+04
         8   1 -4.495523E+06 -1.428540E+05  5.500843E+05 -1.883392E+06  1.273554E+04 -3.100433E+04
         8   2 -4.529014E+06 -1.882593E+05  5.324835E+05 -1.929620E+06  1.619960E+04 -3.101111E+04
         8   3 -4.598266E+06 -1.729115E+05  5.178053E+05 -1.900886E+06  1.746421E+04 -2.525313E+04
         8   4 -6.516944E+06 -9.078461E+05 -5.268229E+03 -2.431433E+06  1.183750E+04 -3.134965E+04
         8   5 -6.499029E+06 -9.386445E+05 -9.429067E+03 -2.468727E+06  1.657873E+04 -3.087597E+04
         8   6 -6.517200E+06 -9.089765E+05 -1.169851E+04 -2.431046E+06  1.911739E+04 -2.462850E+04
         8   7 -8.534416E+06 -1.672607E+06 -5.609957E+05 -2.977852E+06  1.094271E+04 -3.169377E+04
         8   8 -8.465291E+06 -1.688800E+06 -5.516994E+05 -3.006276E+06  1.695652E+04 -3.074135E+04
         8   9 -8.432574E+06 -1.644814E+06 -5.415443E+05 -2.959713E+06  2.076486E+04 -2.400608E+04
         8  10 -4.495524E+06 -1.428551E+05  5.500822E+05 -1.883392E+06 -3.959858E-09 -2.053845E-10
         8  11 -4.529015E+06 -1.882604E+05  5.324812E+05 -1.929620E+06 -2.682400E-10 -3.296249E-11
         8  12 -4.598266E+06 -1.729123E+05  5.178035E+05 -1.900885E+06 -5.705075E-09  7.153384E-11
         8  13 -6.516945E+06 -9.078472E+05 -5.270332E+03 -2.431433E+06  3.461171E-09  1.281106E-09
         8  14 -6.499029E+06 -9.386455E+05 -9.431368E+03 -2.468726E+06 -6.132693E-09 -8.806629E-10
         8  15 -6.517200E+06 -9.089773E+05 -1.170034E+04 -2.431046E+06  2.508525E-09 -2.155347E-10
         8  16 -8.534417E+06 -1.672609E+06 -5.609978E+05 -2.977852E+06  2.516773E-09  7.278873E-10
         8  17 -8.465291E+06 -1.688801E+06 -5.517017E+05 -3.006276E+06  7.050936E-09  4.690543E-09
         8  18 -8.432575E+06 -1.644814E+06 -5.415462E+05 -2.959713E+06  2.255543E-09  4.121038E-09
         8  19 -4.495523E+06 -1.428540E+05  5.500843E+05 -1.883392E+06 -1.273554E+04  3.100433E+04
         8  20 -4.529014E+06 -1.882593E+05  5.324835E+05 -1.929620E+06 -1.619960E+04  3.101111E+04
         8  21 -4.598266E+06 -1.729115E+05  5.178053E+05 -1.900886E+06 -1.746421E+04  2.525313E+04
         8  22 -6.516944E+06 -9.078461E+05 -5.268229E+03 -2.431433E+06 -1.183750E+04  3.134965E+04
         8  23 -6.499029E+06 -9.386445E+05 -9.429067E+03 -2.468727E+06 -1.657873E+04  3.087597E+04
         8  24 -6.517200E+06 -9.089765E+05 -1.169851E+04 -2.431046E+06 -1.911739E+04  2.462850E+04
         8  25 -8.534416E+06 -1.672607E+06 -5.609957E+05 -2.977852E+06 -1.094271E+04  3.169377E+04
         8  26 -8.465291E+06 -1.688800E+06 -5.516994E+05 -3.006276E+06 -1.695652E+04  3.074135E+04
         8  27 -8.432574E+06 -1.644814E+06 -5.415443E+05 -2.959713E+06 -2.076486E+04  2.400608E+04
         9   1 -5.184054E+06 -3.440197E+05  3.625318E+05 -2.012659E+06  1.917794E+04 -2.082648E+04
         9   2 -5.255122E+06 -5.206035E+05  3.008558E+05 -2.187714E+06  3.079172E+04 -1.063947E+04
         9   3 -5.556420E+06 -4.940009E+05  2.240510E+05 -2.102370E+06  4.115670E+04  2.672630E+03
         9   4 -6.558846E+06 -8.708998E+05 -1.610356E+04 -2.392036E+06  1.992725E+04 -2.054327E+04
         9   5 -6.444902E+06 -9.800201E+05 -2.781598E+04 -2.519365E+06  3.221415E+04 -1.009382E+04
         9   6 -6.561417E+06 -8.861000E+05 -5.521800E+04 -2.386269E+06  4.325551E+04  3.485295E+03
         9   7 -7.931807E+06 -1.397663E+06 -3.949135E+05 -2.770648E+06  2.067468E+04 -2.026079E+04
         9   8 -7.633310E+06 -1.439344E+06 -3.566191E+05 -2.850434E+06  3.363349E+04 -9.549360E+03
         9   9 -7.565433E+06 -1.278128E+06 -3.345814E+05 -2.669745E+06  4.535047E+04  4.296442E+03
         9  10 -5.184055E+06 -3.440203E+05  3.625302E+05 -2.012659E+06  2.352301E-09  3.637653E-11
         9  11 -5.255123E+06 -5.206039E+05  3.008538E+05 -2.187714E+06  4.046910E-09  2.757542E-09
         9  12 -5.556422E+06 -4.940013E+05  2.240478E+05 -2.102370E+06  4.748555E-09 -7.147292E-11
         9  13 -6.558847E+06 -8.709003E+05 -1.610509E+04 -2.392036E+06  1.027592E-08 -3.412084E-09
         9  14 -6.444904E+06 -9.800205E+05 -2.781814E+04 -2.519364E+06 -1.779323E-09  8.872693E-10
         9  15 -6.561419E+06 -8.861005E+05 -5.522158E+04 -2.386269E+06  2.876624E-09  1.272586E-09
         9  16 -7.931808E+06 -1.397664E+06 -3.949151E+05 -2.770648E+06 -1.936642E-09 -3.524422E-10
         9  17 -7.633312E+06 -1.439344E+06 -3.566214E+05 -2.850433E+06 -1.151134E-09 -5.771091E-09
         9  18 -7.565436E+06 -1.278129E+06 -3.345854E+05 -2.669746E+06 -6.849521E-09 -4.724036E-09
         9  19 -5.184054E+06 -3.440197E+05  3.625318E+05 -2.012659E+06 -1.917794E+04  2.082648E+04
         9  20 -5.255122E+06 -5.206035E+05  3.008558E+05 -2.187714E+06 -3.079172E+04  1.063947E+04
         9  21 -5.556420E+06 -4.940009E+05  2.240510E+05 -2.102370E+06 -4.115670E+04 -2.672630E+03
         9  22 -6.558846E+06 -8.708998E+05 -1.610356E+04 -2.392036E+06 -1.992725E+04  2.054327E+04
         9  23 -6.444902E+06 -9.800201E+05 -2.781598E+04 -2.519365E+06 -3.221415E+04  1.009382E+04
         9  24 -6.561417E+06 -8.861000E+05 -5.521800E+04 -2.386269E+06 -4.325551E+04 -3.485295E+03
         9  25 -7.931807E+06 -1.397663E+06 -3.949135E+05 -2.770648E+06 -2.067468E+04  2.026079E+04
         9  26 -7.633310E+06 -1.439344E+06 -3.566191E+05 -2.850434E+06 -3.363349E+04  9.549360E+03
         9  27 -7.565433E+06 -1.278128E+06 -3.345814E+05 -2.669745E+06 -4.535047E+04 -4.296442E+03
        10   1 -6.530015E+06 -8.452002E+05 -5.855914E+04 -2.380533E+06  4.866364E+04  1.271101E+04
        10   2 -6.595531E+06 -1.036596E+06 -1.664952E+05 -2.585930E+06  1.077227E+05  4.574489E+04
        10   3 -7.019020E+06 -1.121997E+06 -3.699610E+05 -2.436389E+06  1.681919E+05  7.508379E+04
        10   4 -6.581402E+06 -8.552844E+05 -7.007013E+04 -2.385375E+06  5.103373E+04  1.363290E+04
        10   5 -6.412024E+06 -9.700138E+05 -1.166880E+05 -2.539049E+06  1.092914E+05  4.635261E+04
        10   6 -6.600453E+06 -9.785466E+05 -2.581438E+05 -2.337803E+06  1.689852E+05  7.538469E+04
        10   7 -6.632786E+06 -8.653687E+05 -8.158122E+04 -2.390217E+06  5.340360E+04  1.455480E+04
        10   8 -6.228485E+06 -9.034305E+05 -6.688382E+04 -2.492155E+06  1.108606E+05  4.696050E+04
        10   9 -6.181716E+06 -8.350933E+05 -1.463416E+05 -2.239160E+06  1.697791E+05  7.568575E+04
        10  10 -6.530017E+06 -8.452011E+05 -5.856395E+04 -2.380533E+06  5.468938E-09  2.489176E-09
        10  11 -6.595544E+06 -1.036601E+06 -1.665213E+05 -2.585934E+06 -1.752743E-09 -8.874486E-09
        10  12 -7.019053E+06 -1.122011E+06 -3.700256E+05 -2.436399E+06 -6.902064E-09  9.325424E-10
        10  13 -6.581405E+06 -8.552853E+05 -7.007543E+04 -2.385376E+06 -1.658491E-10 -3.650753E-09
        10  14 -6.412038E+06 -9.700194E+05 -1.167148E+05 -2.539053E+06  2.313293E-09 -5.161828E-10
        10  15 -6.600486E+06 -9.785605E+05 -2.582089E+05 -2.337813E+06  2.621724E-09 -3.232964E-09
        10  16 -6.632790E+06 -8.653697E+05 -8.158705E+04 -2.390218E+06 -3.310983E-09  4.127837E-09
        10  17 -6.228499E+06 -9.034362E+05 -6.691138E+04 -2.492160E+06  1.367998E-09 -1.536914E-09
        10  18 -6.181749E+06 -8.351074E+05 -1.464073E+05 -2.239170E+06  8.292486E-09 -2.729886E-09
        10  19 -6.530015E+06 -8.452002E+05 -5.855914E+04 -2.380533E+06 -4.866364E+04 -1.271101E+04
        10  20 -6.595531E+06 -1.036596E+06 -1.664952E+05 -2.585930E+06 -1.077227E+05 -4.574489E+04
        10  21 -7.019020E+06 -1.121997E+06 -3.699610E+05 -2.436389E+06 -1.681919E+05 -7.508379E+04
        10  22 -6.581402E+06 -8.552844E+05 -7.007013E+04 -2.385375E+06 -5.103373E+04 -1.363290E+04
        10  23 -6.412024E+06 -9.700138E+05 -1.166880E+05 -2.539049E+06 -1.092914E+05 -4.635261E+04
        10  24 -6.600453E+06 -9.785466E+05 -2.581438E+05 -2.337803E+06 -1.689852E+05 -7.538469E+04
        10  25 -6.632786E+06 -8.653687E+05 -8.158122E+04 -2.390217E+06 -5.340360E+04 -1.455480E+04
        10  26 -6.228485E+06 -9.034305E+05 -6.688382E+04 -2.492155E+06 -1.108606E+05 -4.696050E+04
        10  27 -6.181716E+06 -8.350933E+05 -1.463416E+05 -2.239160E+06 -1.697791E+05 -7.568575E+04
        11   1 -7.874309E+06 -1.408722E+06 -6.747497E+05 -2.855304E+06  2.066552E+05  9.992081E+04
        11   2 -7.827756E+06 -1.317807E+06 -9.022561E+05 -2.920972E+06  4.831386E+05  2.171651E+05
        11   3 -8.457173E+06 -2.241432E+06 -1.669901E+06 -2.451403E+06  7.704317E+05  3.060825E+05
        11   4 -6.615734E+06 -8.567838E+05 -3.127006E+05 -2.439860E+06  2.121564E+05  1.020748E+05
        11   5 -6.343026E+06 -7.805204E+05 -4.991867E+05 -2.543795E+06  4.829944E+05  2.170700E+05
        11   6 -6.744029E+06 -1.715891E+06 -1.220206E+06 -2.112769E+06  7.647486E+05  3.037017E+05
        11   7 -5.355604E+06 -3.046064E+05  4.919187E+04 -2.023596E+06  2.176696E+05  1.042347E+05
        11   8 -4.856160E+06 -2.431588E+05 -9.631517E+04 -2.165819E+06  4.828484E+05  2.169742E+05
        11   9 -5.028030E+06 -1.190397E+06 -7.707456E+05 -1.773397E+06  7.590449E+05  3.013167E+05
        11  10 -7.874358E+06 -1.408744E+06 -6.748502E+05 -2.855321E+06  8.339888E-10 -1.648889E-09
        11  11 -7.828023E+06 -1.317922E+06 -9.027912E+05 -2.921058E+06  4.297814E-09 -2.149429E-10
        11  12 -8.457844E+06 -2.241696E+06 -1.671212E+06 -2.451595E+06  6.702967E-10  9.423597E-10
        11  13 -6.615786E+06 -8.568073E+05 -3.128060E+05 -2.439878E+06  4.425238E-09 -9.506001E-10
        11  14 -6.343292E+06 -7.806350E+05 -4.997200E+05 -2.543880E+06  4.473369E-10  8.379776E-09
        11  15 -6.744689E+06 -1.716150E+06 -1.221493E+06 -2.112957E+06  1.975167E-09 -7.499502E-10
        11  16 -5.355658E+06 -3.046311E+05  4.908134E+04 -2.023614E+06  6.589430E-09 -1.247251E-09
        11  17 -4.856425E+06 -2.432730E+05 -9.684678E+04 -2.165904E+06  1.405603E-09  6.319569E-09
        11  18 -5.028677E+06 -1.190651E+06 -7.720105E+05 -1.773583E+06 -7.152447E-10  1.869363E-09
        11  19 -7.874309E+06 -1.408722E+06 -6.747497E+05 -2.855304E+06 -2.066552E+05 -9.992081E+04
        11  20 -7.827756E+06 -1.317807E+06 -9.022561E+05 -2.920972E+06 -4.831386E+05 -2.171651E+05
        11  21 -8.457173E+06 -2.241432E+06 -1.669901E+06 -2.451403E+06 -7.704317E+05 -3.060825E+05
        11  22 -6.615734E+06 -8.567838E+05 -3.127006E+05 -2.439860E+06 -2.121564E+05 -1.020748E+05
        11  23 -6.343026E+06 -7.805204E+05 -4.991867E+05 -2.543795E+06 -4.829944E+05 -2.170700E+05
        11  24 -6.744029E+06 -1.715891E+06 -1.220206E+06 -2.112769E+06 -7.647486E+05 -3.037017E+05
        11  25 -5.355604E+06 -3.046064E+05  4.919187E+04 -2.023596E+06 -2.176696E+05 -1.042347E+05
        11  26 -4.856160E+06 -2.431588E+05 -9.631517E+04 -2.165819E+06 -4.828484E+05 -2.169742E+05
        11  27 -5.028030E+06 -1.190397E+06 -7.707456E+05 -1.773397E+06 -7.590449E+05 -3.013167E+05
        12   1  1.383243E+05  2.219339E+04  1.456172E+05 -5.050632E+03  1.666885E+03 -9.252754E+02
        12   2  1.354136E+05 -2.326333E+02  1.421968E+05  4.053984E+03  1.853442E+03 -4.333653E+03
        12   3  1.417878E+05  1.679786E+04  1.506589E+05 -7.875846E+03  1.326629E+03 -7.746781E+03
        12   4  6.392755E+02 -5.284478E+05  7.974581E+03 -4.686640E+03  1.667003E+03 -9.506079E+02
        12   5 -1.611033E+03 -5.481858E+05  5.226346E+03  5.852372E+03  1.853492E+03 -4.322125E+03
        12   6  5.407280E+03 -5.284897E+05  1.433604E+04 -4.644145E+03  1.326315E+03 -7.698407E+03
        12   7 -1.370687E+05 -1.078814E+06 -1.296910E+05 -4.322899E+03  1.667122E+03 -9.759176E+02
        12   8 -1.386583E+05 -1.095867E+06 -1.317668E+05  7.649475E+03  1.853542E+03 -4.310605E+03
        12   9 -1.309957E+05 -1.073508E+06 -1.220093E+05 -1.414749E+03  1.326002E+03 -7.650073E+03
        12  10  1.383243E+05  2.219339E+04  1.456172E+05 -5.050631E+03 -7.080846E-10 -6.180729E-10
        12  11  1.354136E+05 -2.326544E+02  1.421968E+05  4.053990E+03  2.157181E-09 -1.159467E-09
        12  12  1.417878E+05  1.679780E+04  1.506588E+05 -7.875838E+03 -3.555070E-09 -1.608876E-09
        12  13  6.392723E+02 -5.284478E+05  7.974574E+03 -4.686638E+03 -2.124677E-09 -5.780645E-10
        12  14 -1.611042E+03 -5.481858E+05  5.226305E+03  5.852379E+03 -1.192629E-08 -2.617239E-11
        12  15  5.407263E+03 -5.284897E+05  1.433592E+04 -4.644137E+03 -1.001770E-08 -4.826027E-09
        12  16 -1.370687E+05 -1.078814E+06 -1.296910E+05 -4.322898E+03  4.115308E-09  6.463761E-10
        12  17 -1.386583E+05 -1.095867E+06 -1.317669E+05  7.649482E+03 -6.132910E-09  1.719824E-09
        12  18 -1.309957E+05 -1.073508E+06 -1.220094E+05 -1.414741E+03 -7.013315E-09 -5.176677E-11
        12  19  1.383243E+05  2.219339E+04  1.456172E+05 -5.050632E+03 -1.666885E+03  9.252754E+02
        12  20  1.354136E+05 -2.326333E+02  1.421968E+05  4.053984E+03 -1.853442E+03  4.333653E+03
        12  21  1.417878E+05  1.679786E+04  1.506589E+05 -7.875846E+03 -1.326629E+03  7.746781E+03
        12  22  6.392755E+02 -5.284478E+05  7.974581E+03 -4.686640E+03 -1.667003E+03  9.506079E+02
        12  23 -1.611033E+03 -5.481858E+05  5.226346E+03  5.852372E+03 -1.853492E+03  4.322125E+03
        12  24  5.407280E+03 -5.284897E+05  1.433604E+04 -4.644145E+03 -1.326315E+03  7.698407E+03
        12  25 -1.370687E+05 -1.078814E+06 -1.296910E+05 -4.322899E+03 -1.667122E+03  9.759176E+02
        12  26 -1.386583E+05 -1.095867E+06 -1.317668E+05  7.649475E+03 -1.853542E+03  4.310605E+03
        12  27 -1.309957E+05 -1.073508E+06 -1.220093E+05 -1.414749E+03 -1.326002E+03  7.650073E+03
        13   1  3.502162E+04 -3.869560E+05  5.165110E+04 -1.191910E+04  9.429008E+02 -1.060533E+04
        13   2  2.965913E+04 -3.987354E+05  5.867931E+04  1.223138E+04  6.734378E+02 -2.282576E+04
        13   3  5.870586E+04 -3.990391E+05  8.252481E+04 -1.062400E+04  4.217690E+02 -3.504673E+04
        13   4 -1.926741E+03 -5.346167E+05  1.474003E+04 -1.054583E+04  9.427195E+02 -1.058491E+04
        13   5 -5.771669E+03 -5.403629E+05  2.326677E+04  1.310212E+04  6.732298E+02 -2.280376E+04
        13   6  2.479618E+04 -5.346318E+05  4.861218E+04 -1.025645E+04  4.215542E+02 -3.502328E+04
        13   7 -3.887674E+04 -6.822576E+05 -2.217269E+04 -9.172839E+03  9.425381E+02 -1.056449E+04
        13   8 -4.120398E+04 -6.819721E+05 -1.214728E+04  1.397270E+04  6.730218E+02 -2.278177E+04
        13   9 -9.114897E+03 -6.702079E+05  1.469816E+04 -9.888935E+03  4.213394E+02 -3.499983E+04
        13  10  3.502158E+04 -3.869562E+05  5.165089E+04 -1.191909E+04 -1.136479E-09 -8.000716E-10
        13  11  2.965899E+04 -3.987360E+05  5.867833E+04  1.223140E+04 -5.847123E-09 -3.281070E-09
        13  12  5.870553E+04 -3.990404E+05  8.252250E+04 -1.062399E+04 -6.223553E-10 -2.485162E-09
        13  13 -1.926772E+03 -5.346168E+05  1.473982E+04 -1.054582E+04 -1.045724E-08 -4.966716E-09
        13  14 -5.771809E+03 -5.403634E+05  2.326580E+04  1.310213E+04 -1.003250E-08  3.724017E-11
        13  15  2.479585E+04 -5.346331E+05  4.860987E+04 -1.025644E+04 -8.155702E-09 -6.664196E-09
        13  16 -3.887677E+04 -6.822577E+05 -2.217291E+04 -9.172831E+03 -7.601740E-09  8.098477E-10
        13  17 -4.120412E+04 -6.819726E+05 -1.214826E+04  1.397271E+04  1.704834E-09  4.588703E-09
        13  18 -9.115226E+03 -6.702092E+05  1.469585E+04 -9.888923E+03 -7.679478E-09  1.961704E-10
        13  19  3.502162E+04 -3.869560E+05  5.165110E+04 -1.191910E+04 -9.429008E+02  1.060533E+04
        13  20  2.965913E+04 -3.987354E+05  5.867931E+04  1.223138E+04 -6.734378E+02  2.282576E+04
        13  21  5.870586E+04 -3.990391E+05  8.252481E+04 -1.062400E+04 -4.217690E+02  3.504673E+04
        13  22 -1.926741E+03 -5.346167E+05  1.474003E+04 -1.054583E+04 -9.427195E+02  1.058491E+04
        13  23 -5.771669E+03 -5.403629E+05  2.326677E+04  1.310212E+04 -6.732298E+02  2.280376E+04
        13  24  2.479618E+04 -5.346318E+05  4.861218E+04 -1.025645E+04 -4.215542E+02  3.502328E+04
        13  25 -3.887674E+04 -6.822576E+05 -2.217269E+04 -9.172839E+03 -9.425381E+02  1.056449E+04
        13  26 -4.120398E+04 -6.819721E+05 -1.214728E+04  1.397270E+04 -6.730218E+02  2.278177E+04
        13  27 -9.114897E+03 -6.702079E+05  1.469816E+04 -9.888935E+03 -4.213394E+02  3.499983E+04
        14   1 -9.547988E+04 -8.836738E+05 -3.168203E+04 -8.618123E+03 -1.526829E+02 -4.504586E+04
        14   2 -1.313875E+05 -9.289551E+05 -4.630115E+03  1.436052E+04 -6.628972E+02 -9.334540E+04
        14   3  6.662765E+04 -8.934438E+05  1.155948E+05 -9.293410E+02  2.706973E+02 -1.416321E+05
        14   4 -4.345024E+03 -5.192858E+05  5.945946E+04 -8.892236E+03 -1.535382E+02 -4.498070E+04
        14   5 -3.893152E+04 -5.596173E+05  8.774453E+04  1.073772E+04 -6.624000E+02 -9.337472E+04
        14   6  1.603518E+05 -5.191715E+05  2.092305E+05 -7.899828E+03  2.726659E+02 -1.417563E+05
        14   7  8.677980E+04 -1.547773E+05  1.505909E+05 -9.166192E+03 -1.543933E+02 -4.491548E+04
        14   8  5.351415E+04 -1.901557E+05  1.801089E+05  7.113008E+03 -6.619027E+02 -9.340405E+04
        14   9  2.540655E+05 -1.447720E+05  3.028556E+05 -1.487433E+04  2.746362E+02 -1.418806E+05
        14  10 -9.548043E+04 -8.836760E+05 -3.168585E+04 -8.618129E+03 -2.895963E-09 -5.736195E-12
        14  11 -1.313898E+05 -9.289645E+05 -4.646513E+03  1.436047E+04 -9.248448E-09 -2.690632E-09
        14  12  6.662225E+04 -8.934654E+05  1.155570E+05 -9.293102E+02 -4.394647E-09 -2.067181E-09
        14  13 -4.345568E+03 -5.192880E+05  5.945566E+04 -8.892242E+03 -8.835126E-10 -5.588255E-09
        14  14 -3.893386E+04 -5.596267E+05  8.772813E+04  1.073767E+04  6.016407E-10  1.336799E-11
        14  15  1.603464E+05 -5.191931E+05  2.091927E+05 -7.899797E+03  1.506885E-09 -3.585282E-09
        14  16  8.677926E+04 -1.547795E+05  1.505871E+05 -9.166197E+03 -4.525666E-09  8.111862E-11
        14  17  5.351181E+04 -1.901651E+05  1.800925E+05  7.112959E+03  1.164155E-08  3.859444E-09
        14  18  2.540601E+05 -1.447936E+05  3.028178E+05 -1.487430E+04 -8.728582E-10  7.501932E-10
        14  19 -9.547988E+04 -8.836738E+05 -3.168203E+04 -8.618123E+03  1.526829E+02  4.504586E+04
        14  20 -1.313875E+05 -9.289551E+05 -4.630115E+03  1.436052E+04  6.628972E+02  9.334540E+04
        14  21  6.662765E+04 -8.934438E+05  1.155948E+05 -9.293410E+02 -2.706973E+02  1.416321E+05
        14  22 -4.345024E+03 -5.192858E+05  5.945946E+04 -8.892236E+03  1.535382E+02  4.498070E+04
        14  23 -3.893152E+04 -5.596173E+05  8.774453E+04  1.073772E+04  6.624000E+02  9.337472E+04
        14  24  1.603518E+05 -5.191715E+05  2.092305E+05 -7.899828E+03 -2.726659E+02  1.417563E+05
        14  25  8.677980E+04 -1.547773E+05  1.505909E+05 -9.166192E+03  1.543933E+02  4.491548E+04
        14  26  5.351415E+04 -1.901557E+05  1.801089E+05  7.113008E+03  6.619027E+02  9.340405E+04
        14  27  2.540655E+05 -1.447720E+05  3.028556E+05 -1.487433E+04 -2.746362E+02  1.418806E+05
        15   1  1.987137E+05 -3.883357E+05  1.905544E+05 -3.117953E+02  2.852507E+04 -1.709750E+01
        15   2  1.982601E+05 -3.903012E+05  1.901570E+05 -2.234733E+01  2.847981E+04 -2.407227E+02
        15   3  1.979785E+05 -3.916416E+05  1.900664E+05 -8.280831E+02  2.830765E+04 -4.645619E+02
        15   4 -1.069824E+02 -1.191500E+06  2.912509E+02 -2.434135E+02  2.852756E+04 -2.751746E+01
        15   5 -1.491710E+02 -1.191806E+06  2.918167E+02  3.042768E+02  2.848225E+04 -1.778850E+02
        15   6 -3.223886E+01 -1.191499E+06  5.484146E+02 -2.432955E+02  2.830997E+04 -3.284661E+02
        15   7 -1.989741E+05 -1.994071E+06 -1.900168E+05 -1.751024E+02  2.853005E+04 -3.792397E+01
        15   8 -1.986046E+05 -1.992719E+06 -1.896180E+05  6.305565E+02  2.848469E+04 -1.151279E+02
        15   9 -1.980890E+05 -1.990768E+06 -1.890141E+05  3.408758E+02  2.831230E+04 -1.925446E+02
        15  10  1.987128E+05 -3.883360E+05  1.905529E+05 -3.117949E+02 -1.084308E-09 -8.046120E-09
        15  11  1.982592E+05 -3.903015E+05  1.901555E+05 -2.234181E+01  1.200900E-09 -2.016365E-09
        15  12  1.979777E+05 -3.916418E+05  1.900649E+05 -8.280725E+02  1.176838E-09  5.072806E-09
        15  13 -1.078559E+02 -1.191500E+06  2.897224E+02 -2.434129E+02  1.131509E-09  5.733302E-11
        15  14 -1.500416E+02 -1.191806E+06  2.902930E+02  3.042809E+02 -1.931235E-09  8.383681E-12
        15  15 -3.309903E+01 -1.191499E+06  5.469091E+02 -2.432880E+02  8.632565E-11  3.471631E-10
        15  16 -1.989749E+05 -1.994071E+06 -1.900183E+05 -1.751015E+02 -1.081088E-08  8.112012E-09
        15  17 -1.986055E+05 -1.992719E+06 -1.896196E+05  6.305592E+02 -6.346751E-09  8.272064E-10
        15  18 -1.980899E+05 -1.990768E+06 -1.890156E+05  3.408802E+02 -3.252803E-09 -5.326908E-09
        15  19  1.987137E+05 -3.883357E+05  1.905544E+05 -3.117953E+02 -2.852507E+04  1.709750E+01
        15  20  1.982601E+05 -3.903012E+05  1.901570E+05 -2.234733E+01 -2.847981E+04  2.407227E+02
        15  21  1.979785E+05 -3.916416E+05  1.900664E+05 -8.280831E+02 -2.830765E+04  4.645619E+02
        15  22 -1.069824E+02 -1.191500E+06  2.912509E+02 -2.434135E+02 -2.852756E+04  2.751746E+01
        15  23 -1.491710E+02 -1.191806E+06  2.918167E+02  3.042768E+02 -2.848225E+04  1.778850E+02
        15  24 -3.223886E+01 -1.191499E+06  5.484146E+02 -2.432955E+02 -2.830997E+04  3.284661E+02
        15  25 -1.989741E+05 -1.994071E+06 -1.900168E+05 -1.751024E+02 -2.853005E+04  3.792397E+01
        15  26 -1.986046E+05 -1.992719E+06 -1.896180E+05  6.305565E+02 -2.848469E+04  1.151279E+02
        15  27 -1.980890E+05 -1.990768E+06 -1.890141E+05  3.408758E+02 -2.831230E+04  1.925446E+02
        16   1  1.968925E+05 -3.954514E+05  1.892060E+05 -1.554658E+03  2.836806E+04 -2.680669E+02
        16   2  1.955785E+05 -4.008709E+05  1.884239E+05  4.356718E+00  2.810179E+04 -1.459030E+03
        16   3  1.953973E+05 -4.053252E+05  1.888134E+05 -1.705161E+03  2.670428E+04 -2.652667E+03
        16   4 -1.478760E+02 -1.191444E+06  6.770397E+02 -7.267998E+02  2.837072E+04 -4.391530E+02
        16   5 -2.333387E+02 -1.191869E+06  1.043426E+03  9.084019E+02  2.810342E+04 -9.780555E+02
        16   6  7.012657E+02 -1.191442E+06  2.128686E+03 -7.251890E+02  2.670423E+04 -1.519642E+03
        16   7 -1.972339E+05 -1.986854E+06 -1.878959E+05  1.001669E+02  2.837338E+04 -6.100204E+02
        16   8 -1.960901E+05 -1.982292E+06 -1.863806E+05  1.811521E+03  2.810505E+04 -4.976905E+02
        16   9 -1.940393E+05 -1.976990E+06 -1.845992E+05  2.538241E+02  2.670418E+04 -3.880444E+02
        16  10  1.968917E+05 -3.954517E+05  1.892045E+05 -1.554652E+03 -2.535668E-09 -6.264357E-10
        16  11  1.955776E+05 -4.008711E+05  1.884225E+05  4.389735E+00 -5.311200E-09 -3.286116E-09
        16  12  1.953965E+05 -4.053254E+05  1.888121E+05 -1.705104E+03 -5.020587E-09 -1.493221E-09
        16  13 -1.487399E+02 -1.191445E+06  6.755276E+02 -7.267898E+02 -3.477540E-09  6.098943E-10
        16  14 -2.341866E+02 -1.191869E+06  1.041941E+03  9.084240E+02 -4.122541E-09 -1.529612E-11
        16  15  7.004998E+02 -1.191442E+06  2.127342E+03 -7.251563E+02 -7.798804E-09  5.511279E-10
        16  16 -1.972347E+05 -1.986855E+06 -1.878975E+05  1.001808E+02 -2.498558E-09  1.281415E-09
        16  17 -1.960910E+05 -1.982292E+06 -1.863821E+05  1.811532E+03 -5.657079E-09 -2.274227E-10
        16  18 -1.940400E+05 -1.976991E+06 -1.846005E+05  2.538324E+02 -6.177866E-09  7.953187E-10
        16  19  1.968925E+05 -3.954514E+05  1.892060E+05 -1.554658E+03 -2.836806E+04  2.680669E+02
        16  20  1.955785E+05 -4.008709E+05  1.884239E+05  4.356718E+00 -2.810179E+04  1.459030E+03
        16  21  1.953973E+05 -4.053252E+05  1.888134E+05 -1.705161E+03 -2.670428E+04  2.652667E+03
        16  22 -1.478760E+02 -1.191444E+06  6.770397E+02 -7.267998E+02 -2.837072E+04  4.391530E+02
        16  23 -2.333387E+02 -1.191869E+06  1.043426E+03  9.084019E+02 -2.810342E+04  9.780555E+02
        16  24  7.012657E+02 -1.191442E+06  2.128686E+03 -7.251890E+02 -2.670423E+04  1.519642E+03
        16  25 -1.972339E+05 -1.986854E+06 -1.878959E+05  1.001669E+02 -2.837338E+04  6.100204E+02
        16  26 -1.960901E+05 -1.982292E+06 -1.863806E+05  1.811521E+03 -2.810505E+04  4.976905E+02
        16  27 -1.940393E+05 -1.976990E+06 -1.845992E+05  2.538241E+02 -2.670418E+04  3.880444E+02
        17   1  1.921162E+05 -4.123199E+05  1.865984E+05 -3.798671E+03  2.881162E+04  2.073984E+03
        17   2  1.894329E+05 -4.227923E+05  1.864744E+05  9.604270E+02  2.725843E+04 -9.955201E+03
        17   3  1.984858E+05 -4.282911E+05  1.972193E+05 -1.132571E+02  8.684449E+03 -2.203832E+04
        17   4 -5.451821E+02 -1.190902E+06  2.590495E+03 -1.303644E+03  2.882320E+04 -1.913812E+03
        17   5 -1.125588E+03 -1.192534E+06  4.085073E+03  1.625938E+03  2.724504E+04 -4.139220E+03
        17   6  8.333667E+03 -1.190894E+06  9.638723E+03 -1.277898E+03  8.636751E+03 -6.418790E+03
        17   7 -1.932501E+05 -1.968926E+06 -1.814593E+05  1.188550E+03  2.883476E+04 -5.896630E+03
        17   8 -1.917267E+05 -1.961731E+06 -1.783454E+05  2.290983E+03  2.723165E+04  1.669585E+03
        17   9 -1.818616E+05 -1.952966E+06 -1.779839E+05 -2.440695E+03  8.588966E+03  9.181579E+03
        17  10  1.921153E+05 -4.123201E+05  1.865968E+05 -3.798719E+03 -1.731041E-09  7.200059E-09
        17  11  1.894321E+05 -4.227926E+05  1.864729E+05  9.606455E+02  8.866816E-09 -3.731344E-09
        17  12  1.984856E+05 -4.282917E+05  1.972183E+05 -1.131030E+02 -1.350087E-08 -9.431400E-09
        17  13 -5.460747E+02 -1.190902E+06  2.588928E+03 -1.303600E+03 -1.777379E-09  1.167680E-09
        17  14 -1.126389E+03 -1.192534E+06  4.083646E+03  1.626029E+03  8.018529E-09  6.044641E-11
        17  15  8.333576E+03 -1.190894E+06  9.638506E+03 -1.277853E+03 -1.504157E-08  1.005028E-09
        17  16 -1.932510E+05 -1.968926E+06 -1.814610E+05  1.188687E+03 -2.847131E-09 -5.840118E-09
        17  17 -1.917275E+05 -1.961731E+06 -1.783468E+05  2.290946E+03  2.759378E-10 -1.943154E-09
        17  18 -1.818617E+05 -1.952966E+06 -1.779842E+05 -2.440759E+03 -1.256570E-08  8.427848E-09
        17  19  1.921162E+05 -4.123199E+05  1.865984E+05 -3.798671E+03 -2.881162E+04 -2.073984E+03
        17  20  1.894329E+05 -4.227923E+05  1.864744E+05  9.604270E+02 -2.725843E+04  9.955201E+03
        17  21  1.984858E+05 -4.282911E+05  1.972193E+05 -1.132571E+02 -8.684449E+03  2.203832E+04
        17  22 -5.451821E+02 -1.190902E+06  2.590495E+03 -1.303644E+03 -2.882320E+04  1.913812E+03
        17  23 -1.125588E+03 -1.192534E+06  4.085073E+03  1.625938E+03 -2.724504E+04  4.139220E+03
        17  24  8.333667E+03 -1.190894E+06  9.638723E+03 -1.277898E+03 -8.636751E+03  6.418790E+03
        17  25 -1.932501E+05 -1.968926E+06 -1.814593E+05  1.188550E+03 -2.883476E+04  5.896630E+03
        17  26 -1.917267E+05 -1.961731E+06 -1.783454E+05  2.290983E+03 -2.723165E+04 -1.669585E+03
        17  27 -1.818616E+05 -1.952966E+06 -1.779839E+05 -2.440695E+03 -8.588966E+03 -9.181579E+03
        18   1  6.848684E+04  7.527295E+05  3.846974E+04 -2.461715E+00  2.403836E+04 -7.103563E-02
        18   2  6.848991E+04  7.527437E+05  3.847526E+04 -1.407820E+01  2.403906E+04 -5.111346E+00
        18   3  6.849366E+04  7.527636E+05  3.848582E+04 -2.406342E+01  2.404044E+04 -1.015155E+01
        18   4 -1.899512E+01  4.484439E+05  1.167737E+01  3.626594E-01  2.403961E+04 -9.435287E-01
        18   5 -1.999399E+01  4.484409E+05  1.400968E+01 -4.528826E-01  2.404031E+04 -7.607766E+00
        18   6 -2.002844E+01  4.484439E+05  2.250794E+01  3.632563E-01  2.404169E+04 -1.427192E+01
        18   7 -6.852859E+04  1.442533E+05 -3.844667E+04  3.185840E+00  2.404085E+04 -1.815616E+00
        18   8 -6.853366E+04  1.442331E+05 -3.844753E+04  1.316657E+01  2.404155E+04 -1.010302E+01
        18   9 -6.853749E+04  1.442192E+05 -3.844110E+04  2.477940E+01  2.404293E+04 -1.839038E+01
        18  10  6.848621E+04  7.527294E+05  3.846865E+04 -2.461714E+00 -1.859425E-08 -8.672188E-08
        18  11  6.848929E+04  7.527435E+05  3.847417E+04 -1.407810E+01 -6.347273E-09  1.008016E-08
        18  12  6.849304E+04  7.527634E+05  3.848474E+04 -2.406322E+01 -2.530550E-09  1.033219E-07
        18  13 -1.961582E+01  4.484438E+05  1.059115E+01  3.626777E-01  1.795218E-08  2.435606E-11
        18  14 -2.061473E+01  4.484407E+05  1.292340E+01 -4.527355E-01  8.728321E-09 -1.191901E-10
        18  15 -2.064924E+01  4.484438E+05  2.142154E+01  3.635323E-01  5.271430E-09  1.151496E-10
        18  16 -6.852921E+04  1.442531E+05 -3.844776E+04  3.185875E+00 -1.646903E-08  8.664962E-08
        18  17 -6.853428E+04  1.442329E+05 -3.844862E+04  1.316677E+01 -5.372810E-09 -1.011573E-08
        18  18 -6.853811E+04  1.442191E+05 -3.844219E+04  2.477976E+01  4.936415E-09 -1.032446E-07
        18  19  6.848684E+04  7.527295E+05  3.846974E+04 -2.461715E+00 -2.403836E+04  7.103545E-02
        18  20  6.848991E+04  7.527437E+05  3.847526E+04 -1.407820E+01 -2.403906E+04  5.111346E+00
        18  21  6.849366E+04  7.527636E+05  3.848582E+04 -2.406342E+01 -2.404044E+04  1.015155E+01
        18  22 -1.899512E+01  4.484439E+05  1.167737E+01  3.626596E-01 -2.403961E+04  9.435287E-01
        18  23 -1.999399E+01  4.484409E+05  1.400968E+01 -4.528827E-01 -2.404031E+04  7.607766E+00
        18  24 -2.002844E+01  4.484439E+05  2.250794E+01  3.632560E-01 -2.404169E+04  1.427192E+01
        18  25 -6.852859E+04  1.442533E+05 -3.844667E+04  3.185840E+00 -2.404085E+04  1.815616E+00
        18  26 -6.853366E+04  1.442331E+05 -3.844753E+04  1.316657E+01 -2.404155E+04  1.010302E+01
        18  27 -6.853749E+04  1.442192E+05 -3.844110E+04  2.477940E+01 -2.404293E+04  1.839038E+01
        19   1  6.849798E+04  7.527851E+05  3.849551E+04 -2.877961E+01  2.404171E+04 -1.298532E+01
        19   2  6.850749E+04  7.528315E+05  3.852500E+04 -4.586168E+01  2.404359E+04 -3.927108E+01
        19   3  6.851886E+04  7.528867E+05  3.857364E+04 -5.491808E+01  2.404445E+04 -6.555659E+01
        19   4 -2.054420E+01  4.484444E+05  2.894432E+01  1.784270E+00  2.404296E+04 -1.871719E+01
        19   5 -2.310032E+01  4.484402E+05  4.872382E+01 -2.228584E+00  2.404484E+04 -4.253768E+01
        19   6 -2.422293E+01  4.484444E+05  8.595136E+01  1.784452E+00  2.404570E+04 -6.635791E+01
        19   7 -6.854284E+04  1.441988E+05 -3.843792E+04  3.233498E+01  2.404420E+04 -2.444640E+01
        19   8 -6.855746E+04  1.441440E+05 -3.842785E+04  4.138551E+01  2.404608E+04 -4.580276E+01
        19   9 -6.857107E+04  1.440972E+05 -3.840204E+04  5.846214E+01  2.404694E+04 -6.715886E+01
        19  10  6.849736E+04  7.527849E+05  3.849442E+04 -2.877936E+01 -6.030999E-10  6.745938E-09
        19  11  6.850687E+04  7.528313E+05  3.852391E+04 -4.586092E+01  1.052005E-09  1.869205E-09
        19  12  6.851823E+04  7.528866E+05  3.857256E+04 -5.491681E+01  1.829630E-10 -1.911380E-09
        19  13 -2.116507E+01  4.484443E+05  2.785780E+01  1.784633E+00 -1.736264E-09  7.438239E-11
        19  14 -2.372129E+01  4.484401E+05  4.763712E+01 -2.227760E+00 -1.103515E-09 -3.634259E-10
        19  15 -2.484394E+01  4.484443E+05  8.486458E+01  1.785737E+00 -3.862485E-09  2.429849E-10
        19  16 -6.854346E+04  1.441987E+05 -3.843900E+04  3.233546E+01  2.594945E-09 -6.933334E-09
        19  17 -6.855808E+04  1.441439E+05 -3.842893E+04  4.138639E+01 -1.509044E-10 -2.049776E-09
        19  18 -6.857170E+04  1.440971E+05 -3.840312E+04  5.846344E+01 -4.401076E-10  1.937390E-09
        19  19  6.849798E+04  7.527851E+05  3.849551E+04 -2.877961E+01 -2.404171E+04  1.298532E+01
        19  20  6.850749E+04  7.528315E+05  3.852500E+04 -4.586168E+01 -2.404359E+04  3.927108E+01
        19  21  6.851886E+04  7.528867E+05  3.857364E+04 -5.491808E+01 -2.404445E+04  6.555659E+01
        19  22 -2.054420E+01  4.484444E+05  2.894432E+01  1.784270E+00 -2.404296E+04  1.871719E+01
        19  23 -2.310032E+01  4.484402E+05  4.872382E+01 -2.228584E+00 -2.404484E+04  4.253768E+01
        19  24 -2.422293E+01  4.484444E+05  8.595136E+01  1.784452E+00 -2.404570E+04  6.635791E+01
        19  25 -6.854284E+04  1.441988E+05 -3.843792E+04  3.233498E+01 -2.404420E+04  2.444640E+01
        19  26 -6.855746E+04  1.441440E+05 -3.842785E+04  4.138551E+01 -2.404608E+04  4.580276E+01
        19  27 -6.857107E+04  1.440972E+05 -3.840204E+04  5.846214E+01 -2.404694E+04  6.715886E+01
        20   1  6.852794E+04  7.529323E+05  3.861054E+04 -6.252021E+01  2.404527E+04 -8.274716E+01
        20   2  6.854692E+04  7.530039E+05  3.872464E+04 -8.565138E+01  2.403898E+04 -2.133312E+02
        20   3  6.858217E+04  7.531016E+05  3.892934E+04 -9.531932E+01  2.401886E+04 -3.439173E+02
        20   4 -2.561490E+01  4.484470E+05  1.133954E+02  2.992125E+00  2.404651E+04 -8.413529E+01
        20   5 -2.906467E+01  4.484369E+05  1.971682E+02 -3.738850E+00  2.404021E+04 -1.814658E+02
        20   6 -2.200520E+01  4.484470E+05  3.484907E+02  2.993325E+00  2.402008E+04 -2.787989E+02
        20   7 -6.858294E+04  1.440569E+05 -3.838405E+04  6.847560E+01  2.404776E+04 -8.552277E+01
        20   8 -6.860883E+04  1.439650E+05 -3.833061E+04  7.813727E+01  2.404145E+04 -1.496152E+02
        20   9 -6.862997E+04  1.438876E+05 -3.823267E+04  1.012620E+02  2.402131E+04 -2.137108E+02
        20  10  6.852732E+04  7.529321E+05  3.860946E+04 -6.251860E+01 -1.280469E-09  3.942060E-10
        20  11  6.854630E+04  7.530038E+05  3.872356E+04 -8.564725E+01  5.042928E-09 -5.927234E-10
        20  12  6.858156E+04  7.531015E+05  3.892826E+04 -9.531267E+01 -5.336413E-10  2.906927E-11
        20  13 -2.623595E+01  4.484469E+05  1.123086E+02  2.993754E+00  1.901152E-09  2.137144E-10
        20  14 -2.968541E+01  4.484367E+05  1.960818E+02 -3.735337E+00  1.825688E-09 -5.625611E-10
        20  15 -2.262491E+01  4.484468E+05  3.474061E+02  2.998718E+00  1.094545E-09  3.380671E-10
        20  16 -6.858357E+04  1.440568E+05 -3.838514E+04  6.847725E+01  3.019235E-09 -7.636177E-10
        20  17 -6.860945E+04  1.439648E+05 -3.833170E+04  7.814016E+01  6.346527E-10  3.393265E-10
        20  18 -6.863059E+04  1.438874E+05 -3.823376E+04  1.012661E+02 -3.257108E-10  8.899141E-11
        20  19  6.852794E+04  7.529323E+05  3.861054E+04 -6.252021E+01 -2.404527E+04  8.274716E+01
        20  20  6.854692E+04  7.530039E+05  3.872464E+04 -8.565138E+01 -2.403898E+04  2.133312E+02
        20  21  6.858217E+04  7.531016E+05  3.892934E+04 -9.531932E+01 -2.401886E+04  3.439173E+02
        20  22 -2.561490E+01  4.484470E+05  1.133954E+02  2.992125E+00 -2.404651E+04  8.413529E+01
        20  23 -2.906467E+01  4.484369E+05  1.971682E+02 -3.738850E+00 -2.404021E+04  1.814658E+02
        20  24 -2.200520E+01  4.484470E+05  3.484907E+02  2.993325E+00 -2.402008E+04  2.787989E+02
        20  25 -6.858294E+04  1.440569E+05 -3.838405E+04  6.847560E+01 -2.404776E+04  8.552277E+01
        20  26 -6.860883E+04  1.439650E+05 -3.833061E+04  7.813727E+01 -2.404145E+04  1.496152E+02
        20  27 -6.862997E+04  1.438876E+05 -3.823267E+04  1.012620E+02 -2.402131E+04  2.137108E+02
        21   1 -3.917148E+06 -6.316786E+05 -6.248726E+05 -7.752504E+04  6.092742E+04  4.800407E+03
        21   2 -4.545372E+06 -8.610864E+05 -8.314767E+05  1.242883E+05  4.911110E+04  1.133895E+04
        21   3 -3.844971E+06 -7.581572E+05 -6.970022E+05  2.018868E+04  3.705815E+04  4.224517E+03
        21   4 -6.819630E+05  1.792316E+05  1.859120E+05 -8.027260E+04  6.178567E+04  4.798151E+03
        21   5 -1.349807E+06 -5.815151E+04 -2.993943E+04  7.341861E+04  4.925907E+04  1.133177E+04
        21   6 -6.856368E+05  3.891195E+04  9.576773E+04 -7.874510E+04  3.649728E+04  4.245612E+03
        21   7  2.562746E+06  9.893481E+05  9.959030E+05 -8.303241E+04  6.264773E+04  4.795897E+03
        21   8  1.855060E+06  7.440118E+05  7.708219E+05  2.233320E+04  4.940727E+04  1.132461E+04
        21   9  2.482786E+06  8.352394E+05  8.877789E+05 -1.780915E+05  3.593316E+04  4.266851E+03
        21  10 -3.917152E+06 -6.316797E+05 -6.248796E+05 -7.752527E+04 -3.232028E-09  1.001463E-09
        21  11 -4.545374E+06 -8.610872E+05 -8.314815E+05  1.242879E+05 -3.931948E-09 -3.553731E-10
        21  12 -3.844973E+06 -7.581576E+05 -6.970049E+05  2.018855E+04 -6.645588E-09 -1.254154E-09
        21  13 -6.819671E+05  1.792305E+05  1.859048E+05 -8.027284E+04 -6.025885E-11  3.110563E-10
        21  14 -1.349810E+06 -5.815230E+04 -2.994424E+04  7.341816E+04  4.299257E-09 -6.411410E-11
        21  15 -6.856382E+05  3.891157E+04  9.576519E+04 -7.874523E+04 -4.418960E-10  1.187589E-09
        21  16  2.562742E+06  9.893470E+05  9.958956E+05 -8.303265E+04  1.082549E-09  1.271242E-09
        21  17  1.855058E+06  7.440110E+05  7.708171E+05  2.233275E+04  5.915716E-09 -1.311128E-10
        21  18  2.482784E+06  8.352391E+05  8.877765E+05 -1.780916E+05  8.812378E-09  1.379719E-09
        21  19 -3.917148E+06 -6.316786E+05 -6.248726E+05 -7.752504E+04 -6.092742E+04 -4.800407E+03
        21  20 -4.545372E+06 -8.610864E+05 -8.314767E+05  1.242883E+05 -4.911110E+04 -1.133895E+04
        21  21 -3.844971E+06 -7.581572E+05 -6.970022E+05  2.018868E+04 -3.705815E+04 -4.224517E+03
        21  22 -6.819630E+05  1.792316E+05  1.859120E+05 -8.027260E+04 -6.178567E+04 -4.798151E+03
        21  23 -1.349807E+06 -5.815151E+04 -2.993943E+04  7.341861E+04 -4.925907E+04 -1.133177E+04
        21  24 -6.856368E+05  3.891195E+04  9.576773E+04 -7.874510E+04 -3.649728E+04 -4.245612E+03
        21  25  2.562746E+06  9.893481E+05  9.959030E+05 -8.303241E+04 -6.264773E+04 -4.795897E+03
        21  26  1.855060E+06  7.440118E+05  7.708219E+05  2.233320E+04 -4.940727E+04 -1.132461E+04
        21  27  2.482786E+06  8.352394E+05  8.877789E+05 -1.780915E+05 -3.593316E+04 -4.266851E+03
        22   1  9.085327E+04  2.576657E+05  2.854202E+05 -1.451141E+05  1.690087E+04 -8.494380E+02
        22   2  1.037601E+05  2.932560E+05  2.858975E+05  7.695377E+04  1.244110E+04 -4.123259E+03
        22   3  2.022420E+05  2.275179E+05  2.859284E+05 -1.319397E+05  8.067100E+03 -6.312854E+03
        22   4 -9.601581E+05 -7.504351E+03  2.210218E+04 -1.068875E+05  1.668839E+04 -8.398069E+02
        22   5 -1.001901E+06  1.530437E+04  9.185776E+03  1.078319E+05  1.228681E+04 -4.117835E+03
        22   6 -9.582923E+05 -6.346273E+04 -4.273587E+03 -1.084590E+05  7.971420E+03 -6.310642E+03
        22   7 -2.010167E+06 -2.727555E+05 -2.412996E+05 -6.871444E+04  1.647626E+04 -8.301929E+02
        22   8 -2.106452E+06 -2.627382E+05 -2.676186E+05  1.386654E+05  1.213278E+04 -4.112422E+03
        22   9 -2.117605E+06 -3.545443E+05 -2.945775E+05 -8.501258E+04  7.875907E+03 -6.308435E+03
        22  10  9.085296E+04  2.576656E+05  2.854196E+05 -1.451140E+05 -6.308457E-09 -7.417560E-10
        22  11  1.037599E+05  2.932559E+05  2.858972E+05  7.695382E+04  2.429418E-10 -2.871922E-10
        22  12  2.022419E+05  2.275178E+05  2.859282E+05 -1.319397E+05 -5.848956E-09 -3.356330E-09
        22  13 -9.601584E+05 -7.504426E+03  2.210165E+04 -1.068875E+05 -1.716175E-09  2.814442E-09
        22  14 -1.001901E+06  1.530431E+04  9.185460E+03  1.078320E+05 -4.377054E-09 -1.260135E-09
        22  15 -9.582924E+05 -6.346279E+04 -4.273782E+03 -1.084589E+05 -8.153862E-09 -2.166260E-10
        22  16 -2.010167E+06 -2.727556E+05 -2.413001E+05 -6.871443E+04  7.950588E-09 -2.936417E-09
        22  17 -2.106452E+06 -2.627382E+05 -2.676189E+05  1.386655E+05 -3.920624E-09 -7.123406E-09
        22  18 -2.117605E+06 -3.545444E+05 -2.945776E+05 -8.501254E+04 -1.857613E-09 -4.490988E-09
        22  19  9.085327E+04  2.576657E+05  2.854202E+05 -1.451141E+05 -1.690087E+04  8.494380E+02
        22  20  1.037601E+05  2.932560E+05  2.858975E+05  7.695377E+04 -1.244110E+04  4.123259E+03
        22  21  2.022420E+05  2.275179E+05  2.859284E+05 -1.319397E+05 -8.067100E+03  6.312854E+03
        22  22 -9.601581E+05 -7.504351E+03  2.210218E+04 -1.068875E+05 -1.668839E+04  8.398069E+02
        22  23 -1.001901E+06  1.530437E+04  9.185776E+03  1.078319E+05 -1.228681E+04  4.117835E+03
        22  24 -9.582923E+05 -6.346273E+04 -4.273587E+03 -1.084590E+05 -7.971420E+03  6.310642E+03
        22  25 -2.010167E+06 -2.727555E+05 -2.412996E+05 -6.871444E+04 -1.647626E+04  8.301929E+02
        22  26 -2.106452E+06 -2.627382E+05 -2.676186E+05  1.386654E+05 -1.213278E+04  4.112422E+03
        22  27 -2.117605E+06 -3.545443E+05 -2.945775E+05 -8.501258E+04 -7.875907E+03  6.308435E+03
        23   1  3.440926E+06  1.069149E+06  1.102116E+06 -9.313796E+04 -1.421679E+04 -9.009279E+03
        23   2  2.448420E+06  9.589819E+05  8.856727E+05  1.680122E+04  3.230174E+03 -1.373310E+04
        23   3  3.458318E+06  1.051638E+06  1.098114E+06  6.519148E+04  2.067436E+04 -9.699507E+03
        23   4 -5.378396E+05  7.432285E+04  1.091517E+05 -2.348426E+04 -1.457369E+04 -9.005473E+03
        23   5 -1.535067E+06 -3.616904E+04 -1.091224E+05  5.661961E+03  3.196593E+03 -1.373875E+04
        23   6 -5.367038E+05  5.126850E+04  1.008305E+05 -2.677379E+04  2.096377E+04 -9.695525E+03
        23   7 -4.502294E+06 -9.216877E+05 -8.850055E+05  4.580148E+04 -1.492807E+04 -9.001745E+03
        23   8 -5.504188E+06 -1.032518E+06 -1.105115E+06 -5.419158E+03  3.163174E+03 -1.374442E+04
        23   9 -4.517296E+06 -9.502900E+05 -8.976560E+05 -1.182523E+05  2.125097E+04 -9.691632E+03
        23  10  3.440925E+06  1.069149E+06  1.102115E+06 -9.313806E+04 -7.633132E-09  4.368741E-09
        23  11  2.448420E+06  9.589817E+05  8.856723E+05  1.680126E+04 -5.709671E-09 -1.977016E-09
        23  12  3.458317E+06  1.051638E+06  1.098113E+06  6.519164E+04  2.208280E-10  9.329906E-10
        23  13 -5.378399E+05  7.432271E+04  1.091511E+05 -2.348436E+04 -5.076632E-09  2.741028E-09
        23  14 -1.535067E+06 -3.616924E+04 -1.091228E+05  5.661996E+03  1.696977E-11 -2.202743E-09
        23  15 -5.367043E+05  5.126828E+04  1.008295E+05 -2.677363E+04  4.077868E-09 -1.113546E-09
        23  16 -4.502295E+06 -9.216879E+05 -8.850061E+05  4.580137E+04  5.779987E-09  1.895487E-09
        23  17 -5.504189E+06 -1.032518E+06 -1.105116E+06 -5.419123E+03  3.809107E-09 -1.465991E-09
        23  18 -4.517297E+06 -9.502902E+05 -8.976570E+05 -1.182521E+05  3.994112E-09  2.782626E-09
        23  19  3.440926E+06  1.069149E+06  1.102116E+06 -9.313796E+04  1.421679E+04  9.009279E+03
        23  20  2.448420E+06  9.589819E+05  8.856727E+05  1.680122E+04 -3.230174E+03  1.373310E+04
        23  21  3.458318E+06  1.051638E+06  1.098114E+06  6.519148E+04 -2.067436E+04  9.699507E+03
        23  22 -5.378396E+05  7.432285E+04  1.091517E+05 -2.348426E+04  1.457369E+04  9.005473E+03
        23  23 -1.535067E+06 -3.616904E+04 -1.091224E+05  5.661961E+03 -3.196593E+03  1.373875E+04
        23  24 -5.367038E+05  5.126850E+04  1.008305E+05 -2.677379E+04 -2.096377E+04  9.695525E+03
        23  25 -4.502294E+06 -9.216877E+05 -8.850055E+05  4.580148E+04  1.492807E+04  9.001745E+03
        23  26 -5.504188E+06 -1.032518E+06 -1.105115E+06 -5.419158E+03 -3.163174E+03  1.374442E+04
        23  27 -4.517296E+06 -9.502900E+05 -8.976560E+05 -1.182523E+05 -2.125097E+04  9.691632E+03
        24   1  1.500036E+06  5.505484E+05  6.045580E+05  1.458722E+05 -5.744899E+03 -8.802864E+03
        24   2  1.153323E+06  5.816156E+05  5.434489E+05 -2.918696E+04  4.322003E+02 -7.988234E+03
        24   3  1.396492E+06  5.808621E+05  5.899501E+05  1.985524E+05  6.238684E+03 -2.100400E+03
        24   4 -8.465022E+05 -3.889822E+04  1.785381E+04  7.920822E+04 -5.823857E+03 -8.808142E+03
        24   5 -1.142393E+06  1.373804E+03 -3.145837E+04 -1.232710E+05  5.767685E+02 -7.982150E+03
        24   6 -8.498776E+05  8.591373E+03  2.650155E+04  7.712185E+04  6.606838E+03 -2.075375E+03
        24   7 -3.188051E+06 -6.287538E+05 -5.692667E+05  1.274531E+04 -5.902481E+03 -8.813413E+03
        24   8 -3.433327E+06 -5.792524E+05 -6.067655E+05 -2.170719E+05  7.208014E+02 -7.976101E+03
        24   9 -3.091668E+06 -5.640372E+05 -5.373309E+05 -4.394822E+04  6.973623E+03 -2.050452E+03
        24  10  1.500036E+06  5.505483E+05  6.045578E+05  1.458721E+05  1.341663E-09 -9.159585E-10
        24  11  1.153323E+06  5.816155E+05  5.434488E+05 -2.918696E+04  2.180965E-11 -9.211224E-09
        24  12  1.396492E+06  5.808621E+05  5.899500E+05  1.985524E+05 -1.819928E-09  7.390101E-09
        24  13 -8.465023E+05 -3.889832E+04  1.785361E+04  7.920818E+04  5.367081E-09 -6.563441E-10
        24  14 -1.142393E+06  1.373736E+03 -3.145849E+04 -1.232710E+05 -1.068894E-09 -2.381214E-08
        24  15 -8.498777E+05  8.591356E+03  2.650146E+04  7.712186E+04 -1.270344E-09 -7.407572E-09
        24  16 -3.188051E+06 -6.287539E+05 -5.692669E+05  1.274527E+04 -3.902693E-09 -1.618173E-09
        24  17 -3.433327E+06 -5.792524E+05 -6.067656E+05 -2.170719E+05 -4.184198E-09 -6.869205E-09
        24  18 -3.091668E+06 -5.640372E+05 -5.373310E+05 -4.394821E+04 -3.469109E-09  6.668393E-09
        24  19  1.500036E+06  5.505484E+05  6.045580E+05  1.458722E+05  5.744899E+03  8.802864E+03
        24  20  1.153323E+06  5.816156E+05  5.434489E+05 -2.918696E+04 -4.322003E+02  7.988234E+03
        24  21  1.396492E+06  5.808621E+05  5.899501E+05  1.985524E+05 -6.238684E+03  2.100400E+03
        24  22 -8.465022E+05 -3.889822E+04  1.785381E+04  7.920822E+04  5.823857E+03  8.808142E+03
        24  23 -1.142393E+06  1.373804E+03 -3.145837E+04 -1.232710E+05 -5.767685E+02  7.982150E+03
        24  24 -8.498776E+05  8.591373E+03  2.650155E+04  7.712185E+04 -6.606838E+03  2.075375E+03
        24  25 -3.188051E+06 -6.287538E+05 -5.692667E+05  1.274531E+04  5.902481E+03  8.813413E+03
        24  26 -3.433327E+06 -5.792524E+05 -6.067655E+05 -2.170719E+05 -7.208014E+02  7.976101E+03
        24  27 -3.091668E+06 -5.640372E+05 -5.373309E+05 -4.394822E+04 -6.973623E+03  2.050452E+03
        25   1 -3.080745E+06 -5.613457E+05 -5.346045E+05 -4.317172E+04 -6.965738E+03  2.013168E+03
        25   2 -3.418794E+06 -5.759146E+05 -6.031572E+05 -2.168934E+05 -8.094308E+02  7.927815E+03
        25   3 -3.177411E+06 -6.259669E+05 -5.664644E+05  1.292903E+04  5.716018E+03  8.783748E+03
        25   4 -8.515351E+05  8.076352E+03  2.606343E+04  7.727487E+04 -6.599771E+03  2.038055E+03
        25   5 -1.140293E+06  1.578424E+03 -3.097345E+04 -1.234278E+05 -6.652191E+02  7.933909E+03
        25   6 -8.481688E+05 -3.918638E+04  1.757207E+04  7.934394E+04  5.638565E+03  8.778528E+03
        25   7  1.382203E+06  5.771447E+05  5.863517E+05  1.980781E+05 -6.232447E+03  2.063042E+03
        25   8  1.142937E+06  5.786913E+05  5.408148E+05 -2.968149E+04 -5.204739E+02  7.940037E+03
        25   9  1.486010E+06  5.471895E+05  6.011965E+05  1.459587E+05  5.560784E+03  8.773301E+03
        25  10 -3.080745E+06 -5.613457E+05 -5.346046E+05 -4.317171E+04  4.365795E-09  1.000944E-08
        25  11 -3.418794E+06 -5.759147E+05 -6.031574E+05 -2.168934E+05 -2.880496E-09 -2.645199E-09
        25  12 -3.177411E+06 -6.259670E+05 -5.664646E+05  1.292899E+04  2.190118E-09 -1.061740E-08
        25  13 -8.515351E+05  8.076336E+03  2.606334E+04  7.727488E+04  4.947122E-09 -1.149173E-08
        25  14 -1.140293E+06  1.578356E+03 -3.097357E+04 -1.234278E+05  1.417299E-09 -8.721116E-09
        25  15 -8.481689E+05 -3.918647E+04  1.757186E+04  7.934390E+04 -7.067346E-10 -1.147709E-08
        25  16  1.382203E+06  5.771446E+05  5.863516E+05  1.980781E+05 -1.461393E-08  1.144365E-08
        25  17  1.142937E+06  5.786912E+05  5.408147E+05 -2.968148E+04  4.539957E-10 -3.742094E-09
        25  18  1.486010E+06  5.471894E+05  6.011963E+05  1.459587E+05 -5.326936E-10  8.308089E-09
        25  19 -3.080745E+06 -5.613457E+05 -5.346045E+05 -4.317172E+04  6.965738E+03 -2.013168E+03
        25  20 -3.418794E+06 -5.759146E+05 -6.031572E+05 -2.168934E+05  8.094308E+02 -7.927815E+03
        25  21 -3.177411E+06 -6.259669E+05 -5.664644E+05  1.292903E+04 -5.716018E+03 -8.783748E+03
        25  22 -8.515351E+05  8.076352E+03  2.606343E+04  7.727487E+04  6.599771E+03 -2.038055E+03
        25  23 -1.140293E+06  1.578424E+03 -3.097345E+04 -1.234278E+05  6.652191E+02 -7.933909E+03
        25  24 -8.481688E+05 -3.918638E+04  1.757207E+04  7.934394E+04 -5.638565E+03 -8.778528E+03
        25  25  1.382203E+06  5.771447E+05  5.863517E+05  1.980781E+05  6.232447E+03 -2.063042E+03
        25  26  1.142937E+06  5.786913E+05  5.408148E+05 -2.968149E+04  5.204739E+02 -7.940037E+03
        25  27  1.486010E+06  5.471895E+05  6.011965E+05  1.459587E+05 -5.560784E+03 -8.773301E+03
        26   1 -4.518721E+06 -9.504898E+05 -8.978118E+05 -1.184583E+05 -2.141004E+04  9.675136E+03
        26   2 -5.506712E+06 -1.033128E+06 -1.105436E+06 -6.531297E+03 -3.450836E+03  1.374936E+04
        26   3 -4.503817E+06 -9.220373E+05 -8.848527E+05  4.574743E+04  1.451327E+04  9.030917E+03
        26   4 -5.362498E+05  5.158747E+04  1.011560E+05 -2.634659E+04 -2.112261E+04  9.679093E+03
        26   5 -1.535655E+06 -3.628655E+04 -1.089545E+05  5.109053E+03 -3.484566E+03  1.374367E+04
        26   6 -5.373605E+05  7.444620E+04  1.098003E+05 -2.304753E+04  1.415804E+04  9.034595E+03
        26   7  3.460665E+06  1.052475E+06  1.098919E+06  6.625539E+04 -2.083298E+04  9.683139E+03
        26   8  2.449781E+06  9.593563E+05  8.863279E+05  1.681050E+04 -3.518456E+03  1.373802E+04
        26   9  3.443421E+06  1.069744E+06  1.103259E+06 -9.220809E+04  1.380030E+04  9.038351E+03
        26  10 -4.518722E+06 -9.504901E+05 -8.978129E+05 -1.184581E+05  8.522124E-10  1.868998E-09
        26  11 -5.506712E+06 -1.033129E+06 -1.105436E+06 -6.531259E+03  9.461559E-10  6.188420E-09
        26  12 -4.503817E+06 -9.220374E+05 -8.848532E+05  4.574733E+04 -3.125781E-09 -1.138114E-08
        26  13 -5.362503E+05  5.158725E+04  1.011550E+05 -2.634643E+04  5.808512E-09  8.381514E-09
        26  14 -1.535655E+06 -3.628676E+04 -1.089549E+05  5.109091E+03  7.393283E-09  5.290526E-10
        26  15 -5.373607E+05  7.444606E+04  1.097998E+05 -2.304764E+04  4.335124E-09 -1.192296E-08
        26  16  3.460664E+06  1.052475E+06  1.098918E+06  6.625555E+04 -7.348344E-09  1.828266E-09
        26  17  2.449781E+06  9.593561E+05  8.863276E+05  1.681054E+04  3.115357E-09 -2.421939E-09
        26  18  3.443420E+06  1.069744E+06  1.103259E+06 -9.220819E+04  5.933389E-10 -9.504009E-10
        26  19 -4.518721E+06 -9.504898E+05 -8.978118E+05 -1.184583E+05  2.141004E+04 -9.675136E+03
        26  20 -5.506712E+06 -1.033128E+06 -1.105436E+06 -6.531297E+03  3.450836E+03 -1.374936E+04
        26  21 -4.503817E+06 -9.220373E+05 -8.848527E+05  4.574743E+04 -1.451327E+04 -9.030917E+03
        26  22 -5.362498E+05  5.158747E+04  1.011560E+05 -2.634659E+04  2.112261E+04 -9.679093E+03
        26  23 -1.535655E+06 -3.628655E+04 -1.089545E+05  5.109053E+03  3.484566E+03 -1.374367E+04
        26  24 -5.373605E+05  7.444620E+04  1.098003E+05 -2.304753E+04 -1.415804E+04 -9.034595E+03
        26  25  3.460665E+06  1.052475E+06  1.098919E+06  6.625539E+04  2.083298E+04 -9.683139E+03
        26  26  2.449781E+06  9.593563E+05  8.863279E+05  1.681050E+04  3.518456E+03 -1.373802E+04
        26  27  3.443421E+06  1.069744E+06  1.103259E+06 -9.220809E+04 -1.380030E+04 -9.038351E+03
        27   1 -2.131354E+06 -3.582320E+05 -2.973702E+05 -8.471020E+04 -8.471047E+03  6.357973E+03
        27   2 -2.122727E+06 -2.669137E+05 -2.704673E+05  1.389438E+05 -1.328394E+04  4.207487E+03
        27   3 -2.024082E+06 -2.748992E+05 -2.423709E+05 -6.807770E+04 -1.818506E+04  9.472408E+02
        27   4 -9.572002E+05 -6.342545E+04 -3.347118E+03 -1.083892E+05 -8.565490E+03  6.360117E+03
        27   5 -1.003264E+06  1.488082E+04  1.007565E+04  1.077416E+05 -1.343899E+04  4.212919E+03
        27   6 -9.590865E+05 -5.864746E+03  2.479008E+04 -1.067552E+05 -1.840027E+04  9.570047E+02
        27   7  2.182067E+05  2.312775E+05  2.905715E+05 -1.321033E+05 -8.660100E+03  6.362266E+03
        27   8  1.173376E+05  2.965820E+05  2.905235E+05  7.649366E+04 -1.359431E+04  4.218361E+03
        27   9  1.069400E+05  2.630862E+05  2.918649E+05 -1.454877E+05 -1.861583E+04  9.667860E+02
        27  10 -2.131354E+06 -3.582320E+05 -2.973704E+05 -8.471016E+04 -7.099649E-09 -2.224018E-09
        27  11 -2.122727E+06 -2.669138E+05 -2.704677E+05  1.389438E+05 -3.685751E-09  2.179049E-09
        27  12 -2.024082E+06 -2.748993E+05 -2.423716E+05 -6.807769E+04 -3.034547E-10 -6.761481E-09
        27  13 -9.572003E+05 -6.342551E+04 -3.347332E+03 -1.083891E+05 -5.935566E-09  1.174293E-08
        27  14 -1.003264E+06  1.488075E+04  1.007527E+04  1.077417E+05  5.915527E-09  1.161845E-08
        27  15 -9.590869E+05 -5.864838E+03  2.478944E+04 -1.067552E+05  3.516251E-09  2.211779E-09
        27  16  2.182066E+05  2.312774E+05  2.905713E+05 -1.321033E+05  8.239901E-09  4.096830E-09
        27  17  1.173373E+05  2.965819E+05  2.905232E+05  7.649370E+04  1.237262E-08  4.471500E-08
        27  18  1.069396E+05  2.630861E+05  2.918642E+05 -1.454877E+05 -2.191293E-09 -3.022066E-09
        27  19 -2.131354E+06 -3.582320E+05 -2.973702E+05 -8.471020E+04  8.471047E+03 -6.357973E+03
        27  20 -2.122727E+06 -2.669137E+05 -2.704673E+05  1.389438E+05  1.328394E+04 -4.207487E+03
        27  21 -2.024082E+06 -2.748992E+05 -2.423709E+05 -6.807770E+04  1.818506E+04 -9.472408E+02
        27  22 -9.572002E+05 -6.342545E+04 -3.347118E+03 -1.083892E+05  8.565490E+03 -6.360117E+03
        27  23 -1.003264E+06  1.488082E+04  1.007565E+04  1.077416E+05  1.343899E+04 -4.212919E+03
        27  24 -9.590865E+05 -5.864746E+03  2.479008E+04 -1.067552E+05  1.840027E+04 -9.570047E+02
        27  25  2.182067E+05  2.312775E+05  2.905715E+05 -1.321033E+05  8.660100E+03 -6.362266E+03
        27  26  1.173376E+05  2.965820E+05  2.905235E+05  7.649366E+04  1.359431E+04 -4.218361E+03
        27  27  1.069400E+05  2.630862E+05  2.918649E+05 -1.454877E+05  1.861583E+04 -9.667860E+02
        28   1  2.472425E+06  8.322521E+05  8.879175E+05 -1.782474E+05 -3.810369E+04 -4.141301E+03
        28   2  1.847209E+06  7.400866E+05  7.734047E+05  2.244909E+04 -5.406423E+04 -1.118815E+04
        28   3  2.552899E+06  9.945372E+05  1.003594E+06 -8.409947E+04 -6.979433E+04 -4.766767E+03
        28   4 -6.866232E+05  3.826671E+04  9.824302E+04 -7.911624E+04 -3.866210E+04 -4.120227E+03
        28   5 -1.348556E+06 -5.982465E+04 -2.508850E+04  7.380924E+04 -5.390497E+04 -1.119557E+04
        28   6 -6.829378E+05  1.866310E+05  1.958152E+05 -8.057653E+04 -6.891568E+04 -4.769247E+03
        28   7 -3.836637E+06 -7.564560E+05 -6.921858E+05  1.960451E+04 -3.921728E+04 -4.099297E+03
        28   8 -4.535071E+06 -8.605030E+05 -8.243532E+05  1.249531E+05 -5.374594E+04 -1.120299E+04
        28   9 -3.909302E+06 -6.220645E+05 -6.127525E+05 -7.706928E+04 -6.804084E+04 -4.771727E+03
        28  10  2.472423E+06  8.322517E+05  8.879148E+05 -1.782475E+05 -3.771917E-09 -2.802496E-08
        28  11  1.847206E+06  7.400857E+05  7.733990E+05  2.244860E+04 -5.627500E-09 -4.607678E-09
        28  12  2.552894E+06  9.945359E+05  1.003584E+06 -8.409974E+04 -7.267154E-10  9.415429E-10
        28  13 -6.866248E+05  3.826629E+04  9.824017E+04 -7.911637E+04 -1.853666E-09 -1.724144E-08
        28  14 -1.348559E+06 -5.982557E+04 -2.509421E+04  7.380875E+04  2.696874E-13 -1.188806E-09
        28  15 -6.829429E+05  1.866297E+05  1.958063E+05 -8.057679E+04 -2.696257E-09  6.273539E-10
        28  16 -3.836638E+06 -7.564564E+05 -6.921887E+05  1.960438E+04  6.931683E-09 -1.658655E-08
        28  17 -4.535074E+06 -8.605039E+05 -8.243589E+05  1.249526E+05  4.205549E-09 -9.903653E-09
        28  18 -3.909307E+06 -6.220658E+05 -6.127613E+05 -7.706954E+04  4.224200E-09  2.870918E-09
        28  19  2.472425E+06  8.322521E+05  8.879175E+05 -1.782474E+05  3.810369E+04  4.141301E+03
        28  20  1.847209E+06  7.400866E+05  7.734047E+05  2.244909E+04  5.406423E+04  1.118815E+04
        28  21  2.552899E+06  9.945372E+05  1.003594E+06 -8.409947E+04  6.979433E+04  4.766767E+03
        28  22 -6.866232E+05  3.826671E+04  9.824302E+04 -7.911624E+04  3.866210E+04  4.120227E+03
        28  23 -1.348556E+06 -5.982465E+04 -2.508850E+04  7.380924E+04  5.390497E+04  1.119557E+04
        28  24 -6.829378E+05  1.866310E+05  1.958152E+05 -8.057653E+04  6.891568E+04  4.769247E+03
        28  25 -3.836637E+06 -7.564560E+05 -6.921858E+05  1.960451E+04  3.921728E+04  4.099297E+03
        28  26 -4.535071E+06 -8.605030E+05 -8.243532E+05  1.249531E+05  5.374594E+04  1.120299E+04
        28  27 -3.909302E+06 -6.220645E+05 -6.127525E+05 -7.706928E+04  6.804084E+04  4.771727E+03
        29   1  2.361987E+05  2.106677E+04  3.093299E+05 -6.767189E+03 -1.146100E+03  2.109134E+05
        29   2 -5.693346E+04 -2.642296E+04  1.318800E+05 -2.155505E+03 -7.526929E+02  1.387603E+05
        29   3 -7.378088E+03  2.117199E+04  8.710223E+04  3.798240E+03 -3.606520E+02  6.660439E+04
        29   4  2.361126E+05  2.115272E+04  3.093299E+05  1.165376E+03 -1.143405E+03  2.109134E+05
        29   5 -5.695504E+04 -2.640139E+04  1.318800E+05 -1.656424E+02 -7.522481E+02  1.387603E+05
        29   6 -7.335261E+03  2.112912E+04  8.710223E+04 -1.543158E+02 -3.610761E+02  6.660439E+04
        29   7  2.360267E+05  2.123879E+04  3.093299E+05  9.097941E+03 -1.140710E+03  2.109134E+05
        29   8 -5.697661E+04 -2.637981E+04  1.318800E+05  1.824220E+03 -7.518033E+02  1.387603E+05
        29   9 -7.292375E+03  2.108628E+04  8.710223E+04 -4.106872E+03 -3.615001E+02  6.660438E+04
        29  10  2.361868E+05  2.101902E+04  3.092463E+05 -6.766994E+03 -8.575602E-08 -6.691059E-08
        29  11 -5.693862E+04 -2.644363E+04  1.318438E+05 -2.155421E+03 -3.867938E-07 -1.212470E-07
        29  12 -7.379280E+03  2.116723E+04  8.709389E+04  3.798260E+03 -6.754943E-07 -9.331644E-08
        29  13  2.361007E+05  2.110496E+04  3.092463E+05  1.165570E+03  1.065283E-07 -5.617457E-09
        29  14 -5.696021E+04 -2.642206E+04  1.318438E+05 -1.655584E+02  4.799996E-07 -2.503480E-08
        29  15 -7.336452E+03  2.112436E+04  8.709389E+04 -1.542965E+02  8.545331E-07 -4.439269E-08
        29  16  2.360148E+05  2.119104E+04  3.092463E+05  9.098135E+03 -8.937378E-08  6.101740E-08
        29  17 -5.698178E+04 -2.640048E+04  1.318438E+05  1.824304E+03 -3.814271E-07  9.499490E-08
        29  18 -7.293565E+03  2.108152E+04  8.709389E+04 -4.106853E+03 -6.737615E-07  4.671901E-08
        29  19  2.361987E+05  2.106677E+04  3.093299E+05 -6.767189E+03  1.146100E+03 -2.109134E+05
        29  20 -5.693346E+04 -2.642296E+04  1.318800E+05 -2.155505E+03  7.526929E+02 -1.387603E+05
        29  21 -7.378090E+03  2.117199E+04  8.710223E+04  3.798240E+03  3.606520E+02 -6.660439E+04
        29  22  2.361126E+05  2.115272E+04  3.093299E+05  1.165376E+03  1.143405E+03 -2.109134E+05
        29  23 -5.695504E+04 -2.640139E+04  1.318800E+05 -1.656424E+02  7.522481E+02 -1.387603E+05
        29  24 -7.335261E+03  2.112912E+04  8.710223E+04 -1.543158E+02  3.610761E+02 -6.660439E+04
        29  25  2.360267E+05  2.123879E+04  3.093299E+05  9.097941E+03  1.140710E+03 -2.109134E+05
        29  26 -5.697661E+04 -2.637981E+04  1.318800E+05  1.824220E+03  7.518033E+02 -1.387603E+05
        29  27 -7.292374E+03  2.108628E+04  8.710223E+04 -4.106872E+03  3.615001E+02 -6.660438E+04
        30   1  3.698856E+04  3.511342E+03  7.227758E+04 -1.011784E+03 -2.825463E+02  5.210025E+04
        30   2 -8.957585E+03 -4.405209E+03  3.462910E+04 -3.044102E+02 -1.837413E+02  3.389025E+04
        30   3 -9.934942E+02  3.528939E+03  2.231578E+04  6.092960E+02 -8.499056E+01  1.568038E+04
        30   4  3.697562E+04  3.524277E+03  7.227758E+04  1.813519E+02 -2.824462E+02  5.210025E+04
        30   5 -8.960618E+03 -4.402176E+03  3.462910E+04 -2.471297E+01 -1.837260E+02  3.389025E+04
        30   6 -9.866234E+02  3.522067E+03  2.231578E+04 -2.444326E+01 -8.500657E+01  1.568038E+04
        30   7  3.696269E+04  3.537215E+03  7.227758E+04  1.374488E+03 -2.823460E+02  5.210025E+04
        30   8 -8.963650E+03 -4.399144E+03  3.462910E+04  2.549842E+02 -1.837108E+02  3.389025E+04
        30   9 -9.797510E+02  3.515196E+03  2.231578E+04 -6.581825E+02 -8.502258E+01  1.568038E+04
        30  10  3.698783E+04  3.508427E+03  7.227248E+04 -1.011772E+03 -7.284715E-07 -9.216626E-09
        30  11 -8.957894E+03 -4.406442E+03  3.462694E+04 -3.044051E+02 -6.160678E-07  1.787954E-08
        30  12 -9.935607E+02  3.528675E+03  2.231532E+04  6.092971E+02 -5.017292E-07  2.388722E-08
        30  13  3.697489E+04  3.521362E+03  7.227248E+04  1.813638E+02  9.168434E-07 -4.828908E-08
        30  14 -8.960926E+03 -4.403410E+03  3.462694E+04 -2.470796E+01  7.742030E-07 -4.200303E-08
        30  15 -9.866894E+02  3.521803E+03  2.231532E+04 -2.444219E+01  6.263244E-07 -3.584210E-08
        30  16  3.696196E+04  3.534301E+03  7.227248E+04  1.374500E+03 -7.316526E-07 -4.126432E-08
        30  17 -8.963958E+03 -4.400377E+03  3.462694E+04  2.549892E+02 -6.146613E-07 -6.164025E-08
        30  18 -9.798166E+02  3.514932E+03  2.231532E+04 -6.581815E+02 -5.054389E-07 -6.083950E-08
        30  19  3.698856E+04  3.511342E+03  7.227758E+04 -1.011784E+03  2.825463E+02 -5.210025E+04
        30  20 -8.957586E+03 -4.405209E+03  3.462910E+04 -3.044101E+02  1.837413E+02 -3.389025E+04
        30  21 -9.934951E+02  3.528939E+03  2.231578E+04  6.092960E+02  8.499056E+01 -1.568038E+04
        30  22  3.697562E+04  3.524277E+03  7.227758E+04  1.813519E+02  2.824462E+02 -5.210025E+04
        30  23 -8.960618E+03 -4.402176E+03  3.462910E+04 -2.471297E+01  1.837260E+02 -3.389025E+04
        30  24 -9.866234E+02  3.522067E+03  2.231578E+04 -2.444326E+01  8.500657E+01 -1.568038E+04
        30  25  3.696269E+04  3.537216E+03  7.227758E+04  1.374488E+03  2.823460E+02 -5.210025E+04
        30  26 -8.963649E+03 -4.399143E+03  3.462910E+04  2.549842E+02  1.837107E+02 -3.389025E+04
        30  27 -9.797501E+02  3.515196E+03  2.231578E+04 -6.581825E+02  8.502258E+01 -1.568038E+04
        31   1  5.740873E+03  6.970332E+02  1.839963E+04 -1.616418E+02 -6.495876E+01  1.198167E+04
        31   2 -1.608922E+03 -8.739317E+02  1.086584E+04 -3.609533E+01 -3.478426E+01  6.416272E+03
        31   3  7.220149E+02  7.002218E+02  9.375730E+03  1.248808E+02 -4.613105E+00  8.509685E+02
        31   4  5.738824E+03  6.990820E+02  1.839963E+04  2.732228E+01 -6.495512E+01  1.198167E+04
        31   5 -1.609270E+03 -8.735837E+02  1.086584E+04 -3.988424E+00 -3.478393E+01  6.416272E+03
        31   6  7.233676E+02  6.988691E+02  9.375730E+03  1.328103E-01 -4.613276E+00  8.509685E+02
        31   7  5.736776E+03  7.011308E+02  1.839963E+04  2.162863E+02 -6.495147E+01  1.198167E+04
        31   8 -1.609618E+03 -8.732356E+02  1.086584E+04  2.811848E+01 -3.478360E+01  6.416272E+03
        31   9  7.247203E+02  6.975165E+02  9.375730E+03 -1.246152E+02 -4.613447E+00  8.509685E+02
        31  10  5.740834E+03  6.968790E+02  1.839936E+04 -1.616411E+02 -4.505741E-07  5.719618E-09
        31  11 -1.608934E+03 -8.739760E+02  1.086577E+04 -3.609515E+01 -3.674792E-07  1.475693E-09
        31  12  7.220145E+02  7.002210E+02  9.375729E+03  1.248808E+02 -2.918665E-07  5.504406E-08
        31  13  5.738786E+03  6.989278E+02  1.839936E+04  2.732291E+01  5.574541E-07 -3.268083E-08
        31  14 -1.609281E+03 -8.736279E+02  1.086577E+04 -3.988245E+00  4.580611E-07 -2.782076E-08
        31  15  7.233674E+02  6.988684E+02  9.375729E+03  1.328170E-01  3.581530E-07 -2.300158E-08
        31  16  5.736737E+03  7.009768E+02  1.839936E+04  2.162869E+02 -4.473725E-07 -3.904006E-08
        31  17 -1.609629E+03 -8.732797E+02  1.086577E+04  2.811866E+01 -3.658870E-07 -2.966327E-08
        31  18  7.247204E+02  6.975157E+02  9.375729E+03 -1.246152E+02 -2.960362E-07 -7.819760E-08
        31  19  5.740872E+03  6.970330E+02  1.839963E+04 -1.616417E+02  6.495876E+01 -1.198167E+04
        31  20 -1.608923E+03 -8.739319E+02  1.086584E+04 -3.609532E+01  3.478426E+01 -6.416272E+03
        31  21  7.220144E+02  7.002217E+02  9.375730E+03  1.248808E+02  4.613105E+00 -8.509685E+02
        31  22  5.738824E+03  6.990820E+02  1.839963E+04  2.732228E+01  6.495512E+01 -1.198167E+04
        31  23 -1.609270E+03 -8.735837E+02  1.086584E+04 -3.988425E+00  3.478393E+01 -6.416272E+03
        31  24  7.233676E+02  6.988691E+02  9.375730E+03  1.328172E-01  4.613276E+00 -8.509685E+02
        31  25  5.736776E+03  7.011311E+02  1.839963E+04  2.162863E+02  6.495147E+01 -1.198167E+04
        31  26 -1.609618E+03 -8.732354E+02  1.086584E+04  2.811848E+01  3.478360E+01 -6.416272E+03
        31  27  7.247208E+02  6.975166E+02  9.375730E+03 -1.246152E+02  4.613447E+00 -8.509685E+02
        32   1 -8.045628E+06 -2.539592E+06 -1.642006E+06 -2.809594E+06 -8.461256E+05 -3.084560E+05
        32   2 -7.844341E+06 -1.312935E+06 -8.612473E+05 -2.998671E+06 -5.482302E+05 -1.673680E+05
        32   3 -8.142437E+06 -1.323385E+06 -6.489371E+05 -2.872197E+06 -2.405299E+05 -5.202968E+04
        32   4 -7.032242E+06 -1.904966E+06 -1.313111E+06 -2.281954E+06 -8.322435E+05 -3.035924E+05
        32   5 -6.713575E+06 -8.140201E+05 -5.430507E+05 -2.619191E+06 -5.442697E+05 -1.659438E+05
        32   6 -6.891502E+06 -9.569530E+05 -3.327744E+05 -2.641153E+06 -2.464386E+05 -5.422119E+04
        32   7 -6.017695E+06 -1.269614E+06 -9.843083E+05 -1.753349E+06 -8.183354E+05 -2.987043E+05
        32   8 -5.581542E+06 -3.148935E+05 -2.249760E+05 -2.239030E+06 -5.403002E+05 -1.645151E+05
        32   9 -5.639021E+06 -5.905518E+05 -1.672618E+04 -2.409751E+06 -2.523602E+05 -5.641501E+04
        32  10 -8.046432E+06 -2.539891E+06 -1.643553E+06 -2.809807E+06  1.149617E-09  2.596768E-10
        32  11 -7.844675E+06 -1.313048E+06 -8.618739E+05 -2.998746E+06 -2.960236E-09  2.830928E-10
        32  12 -8.142501E+06 -1.323404E+06 -6.490526E+05 -2.872207E+06  2.290056E-09 -3.412478E-10
        32  13 -7.033018E+06 -1.905255E+06 -1.314604E+06 -2.282159E+06 -6.900456E-10  7.459508E-11
        32  14 -6.713903E+06 -8.141308E+05 -5.436668E+05 -2.619264E+06 -1.019819E-08  8.839588E-11
        32  15 -6.891568E+06 -9.569727E+05 -3.328956E+05 -2.641164E+06  3.494693E-09  1.240936E-09
        32  16 -6.018444E+06 -1.269892E+06 -9.857496E+05 -1.753547E+06 -2.951060E-10  1.005603E-10
        32  17 -5.581866E+06 -3.150023E+05 -2.255818E+05 -2.239102E+06 -1.616871E-09  7.700074E-10
        32  18 -5.639091E+06 -5.905726E+05 -1.685316E+04 -2.409763E+06  1.953282E-10  2.195315E-09
        32  19 -8.045628E+06 -2.539592E+06 -1.642006E+06 -2.809594E+06  8.461256E+05  3.084560E+05
        32  20 -7.844341E+06 -1.312935E+06 -8.612473E+05 -2.998671E+06  5.482302E+05  1.673680E+05
        32  21 -8.142437E+06 -1.323385E+06 -6.489371E+05 -2.872197E+06  2.405299E+05  5.202968E+04
        32  22 -7.032242E+06 -1.904966E+06 -1.313111E+06 -2.281954E+06  8.322435E+05  3.035924E+05
        32  23 -6.713575E+06 -8.140201E+05 -5.430507E+05 -2.619191E+06  5.442697E+05  1.659438E+05
        32  24 -6.891502E+06 -9.569530E+05 -3.327744E+05 -2.641153E+06  2.464386E+05  5.422119E+04
        32  25 -6.017695E+06 -1.269614E+06 -9.843083E+05 -1.753349E+06  8.183354E+05  2.987043E+05
        32  26 -5.581542E+06 -3.148935E+05 -2.249760E+05 -2.239030E+06  5.403002E+05  1.645151E+05
        32  27 -5.639021E+06 -5.905518E+05 -1.672618E+04 -2.409751E+06  2.523602E+05  5.641501E+04
        33   1 -7.926002E+06 -1.546986E+06 -5.704565E+05 -2.893335E+06 -1.975599E+05 -4.073680E+04
        33   2 -7.859964E+06 -1.354795E+06 -4.089511E+05 -2.874879E+06 -1.296436E+05 -1.475866E+04
        33   3 -7.814416E+06 -1.354174E+06 -3.388536E+05 -2.867142E+06 -6.043659E+04  7.812634E+03
        33   4 -6.841506E+06 -1.107250E+06 -2.718196E+05 -2.568922E+06 -1.970091E+05 -4.054353E+04
        33   5 -6.822987E+06 -9.544707E+05 -1.279148E+05 -2.585025E+06 -1.303426E+05 -1.502804E+04
        33   6 -6.824603E+06 -9.928474E+05 -7.429124E+04 -2.611867E+06 -6.239209E+04  7.075383E+03
        33   7 -5.755860E+06 -6.673971E+05  2.670758E+04 -2.243975E+06 -1.964569E+05 -4.034967E+04
        33   8 -5.784960E+06 -5.540708E+05  1.530243E+05 -2.294723E+06 -1.310427E+05 -1.529786E+04
        33   9 -5.833833E+06 -6.314790E+05  1.901859E+05 -2.356226E+06 -6.435100E+04  6.336961E+03
        33  10 -7.926045E+06 -1.546998E+06 -5.705341E+05 -2.893341E+06 -2.799880E-09  9.718747E-10
        33  11 -7.859983E+06 -1.354800E+06 -4.089835E+05 -2.874881E+06 -5.937556E-09 -7.985134E-10
        33  12 -7.814420E+06 -1.354175E+06 -3.388606E+05 -2.867142E+06  1.516869E-09 -5.265721E-10
        33  13 -6.841549E+06 -1.107262E+06 -2.718965E+05 -2.568929E+06 -9.759171E-10  6.272499E-10
        33  14 -6.823006E+06 -9.544756E+05 -1.279476E+05 -2.585026E+06 -1.325323E-09 -1.794036E-09
        33  15 -6.824607E+06 -9.928485E+05 -7.429872E+04 -2.611866E+06 -1.625448E-10 -1.309397E-09
        33  16 -5.755903E+06 -6.674094E+05  2.663120E+04 -2.243981E+06  2.676894E-09  6.018942E-10
        33  17 -5.784979E+06 -5.540757E+05  1.529913E+05 -2.294725E+06 -3.690488E-09 -1.850966E-09
        33  18 -5.833838E+06 -6.314802E+05  1.901779E+05 -2.356225E+06 -2.116404E-09 -1.901267E-09
        33  19 -7.926002E+06 -1.546986E+06 -5.704565E+05 -2.893335E+06  1.975599E+05  4.073680E+04
        33  20 -7.859964E+06 -1.354795E+06 -4.089511E+05 -2.874879E+06  1.296436E+05  1.475866E+04
        33  21 -7.814416E+06 -1.354174E+06 -3.388536E+05 -2.867142E+06  6.043659E+04 -7.812634E+03
        33  22 -6.841506E+06 -1.107250E+06 -2.718196E+05 -2.568922E+06  1.970091E+05  4.054353E+04
        33  23 -6.822987E+06 -9.544707E+05 -1.279148E+05 -2.585025E+06  1.303426E+05  1.502804E+04
        33  24 -6.824603E+06 -9.928474E+05 -7.429124E+04 -2.611867E+06  6.239209E+04 -7.075383E+03
        33  25 -5.755860E+06 -6.673971E+05  2.670758E+04 -2.243975E+06  1.964569E+05  4.034967E+04
        33  26 -5.784960E+06 -5.540708E+05  1.530243E+05 -2.294723E+06  1.310427E+05  1.529786E+04
        33  27 -5.833833E+06 -6.314790E+05  1.901859E+05 -2.356226E+06  6.435100E+04 -6.336961E+03
        34   1 -7.638234E+06 -1.331198E+06 -2.812510E+05 -2.836337E+06 -4.945709E+04  9.181809E+03
        34   2 -7.566297E+06 -1.238722E+06 -2.246940E+05 -2.770207E+06 -3.256096E+04  1.130556E+04
        34   3 -7.431523E+06 -1.234803E+06 -1.844432E+05 -2.780584E+06 -1.532023E+04  1.249301E+04
        34   4 -6.812699E+06 -1.016057E+06 -5.842039E+04 -2.609136E+06 -5.078943E+04  8.678691E+03
        34   5 -6.843112E+06 -9.648609E+05 -2.974845E+04 -2.573470E+06 -3.424760E+04  1.067145E+04
        34   6 -6.810619E+06 -1.002130E+06 -1.708007E+04 -2.614309E+06 -1.736421E+04  1.172726E+04
        34   7 -5.986499E+06 -7.008727E+05  1.643491E+05 -2.381656E+06 -5.212371E+04  8.174835E+03
        34   8 -6.119418E+06 -6.909693E+05  1.651502E+05 -2.376523E+06 -3.593640E+04  1.003653E+04
        34   9 -6.189342E+06 -7.694367E+05  1.502483E+05 -2.447884E+06 -1.941045E+04  1.096068E+04
        34  10 -7.638237E+06 -1.331199E+06 -2.812558E+05 -2.836337E+06 -3.268210E-09 -1.063512E-09
        34  11 -7.566298E+06 -1.238722E+06 -2.246963E+05 -2.770207E+06 -8.426409E-09  5.482280E-10
        34  12 -7.431524E+06 -1.234803E+06 -1.844440E+05 -2.780584E+06  1.303528E-09  1.314779E-09
        34  13 -6.812702E+06 -1.016058E+06 -5.842543E+04 -2.609135E+06 -2.119178E-09 -1.181945E-09
        34  14 -6.843113E+06 -9.648614E+05 -2.975088E+04 -2.573470E+06 -3.326518E-10 -9.319966E-12
        34  15 -6.810620E+06 -1.002130E+06 -1.708090E+04 -2.614309E+06 -6.039397E-10 -1.178356E-10
        34  16 -5.986502E+06 -7.008736E+05  1.643439E+05 -2.381656E+06 -8.827140E-10 -9.381245E-10
        34  17 -6.119419E+06 -6.909698E+05  1.651475E+05 -2.376523E+06  1.610560E-09  8.151318E-12
        34  18 -6.189342E+06 -7.694369E+05  1.502474E+05 -2.447883E+06 -2.305533E-09 -9.180037E-10
        34  19 -7.638234E+06 -1.331198E+06 -2.812510E+05 -2.836337E+06  4.945709E+04 -9.181809E+03
        34  20 -7.566297E+06 -1.238722E+06 -2.246940E+05 -2.770207E+06  3.256096E+04 -1.130556E+04
        34  21 -7.431523E+06 -1.234803E+06 -1.844432E+05 -2.780584E+06  1.532023E+04 -1.249301E+04
        34  22 -6.812699E+06 -1.016057E+06 -5.842039E+04 -2.609136E+06  5.078943E+04 -8.678691E+03
        34  23 -6.843112E+06 -9.648609E+05 -2.974845E+04 -2.573470E+06  3.424760E+04 -1.067145E+04
        34  24 -6.810619E+06 -1.002130E+06 -1.708007E+04 -2.614309E+06  1.736421E+04 -1.172726E+04
        34  25 -5.986499E+06 -7.008727E+05  1.643491E+05 -2.381656E+06  5.212371E+04 -8.174835E+03
        34  26 -6.119418E+06 -6.909693E+05  1.651502E+05 -2.376523E+06  3.593640E+04 -1.003653E+04
        34  27 -6.189342E+06 -7.694367E+05  1.502483E+05 -2.447884E+06  1.941045E+04 -1.096068E+04
        35   1 -7.213652E+06 -1.161501E+06 -1.227069E+05 -2.727706E+06 -1.179726E+04  1.045470E+04
        35   2 -7.128406E+06 -1.067922E+06 -8.317447E+04 -2.643670E+06 -5.800215E+03  6.899180E+03
        35   3 -6.958092E+06 -1.063172E+06 -4.734744E+04 -2.658562E+06  3.026599E+02  3.050965E+03
        35   4 -6.806408E+06 -1.007697E+06 -1.344336E+04 -2.617210E+06 -1.377946E+04  9.713216E+03
        35   5 -6.848818E+06 -9.624894E+05 -7.911281E+03 -2.568039E+06 -7.897092E+03  6.115694E+03
        35   6 -6.806159E+06 -1.006086E+06 -5.990480E+03 -2.617801E+06 -1.909899E+03  2.225260E+03
        35   7 -6.399001E+06 -8.538821E+05  9.580597E+04 -2.506648E+06 -1.576311E+04  8.971187E+03
        35   8 -6.569155E+06 -8.570528E+05  6.734485E+04 -2.492378E+06 -9.995013E+03  5.331818E+03
        35   9 -6.654204E+06 -9.489999E+05  3.536413E+04 -2.577031E+06 -4.123044E+03  1.399338E+03
        35  10 -7.213653E+06 -1.161501E+06 -1.227074E+05 -2.727706E+06  4.011522E-09  7.065818E-10
        35  11 -7.128406E+06 -1.067922E+06 -8.317462E+04 -2.643670E+06 -3.523602E-09 -4.547975E-10
        35  12 -6.958092E+06 -1.063172E+06 -4.734745E+04 -2.658562E+06  1.734371E-09  1.419527E-09
        35  13 -6.806409E+06 -1.007697E+06 -1.344389E+04 -2.617210E+06  3.940819E-09 -1.353765E-10
        35  14 -6.848818E+06 -9.624894E+05 -7.911469E+03 -2.568039E+06  4.675018E-09  1.298023E-09
        35  15 -6.806159E+06 -1.006086E+06 -5.990496E+03 -2.617801E+06  1.399489E-09  1.923691E-09
        35  16 -6.399001E+06 -8.538823E+05  9.580535E+04 -2.506648E+06 -1.625282E-09  2.773308E-11
        35  17 -6.569155E+06 -8.570529E+05  6.734461E+04 -2.492378E+06  3.455637E-09  9.296673E-10
        35  18 -6.654204E+06 -9.489999E+05  3.536409E+04 -2.577031E+06  5.428546E-09  2.692810E-09
        35  19 -7.213652E+06 -1.161501E+06 -1.227069E+05 -2.727706E+06  1.179726E+04 -1.045470E+04
        35  20 -7.128406E+06 -1.067922E+06 -8.317447E+04 -2.643670E+06  5.800215E+03 -6.899180E+03
        35  21 -6.958092E+06 -1.063172E+06 -4.734744E+04 -2.658562E+06 -3.026599E+02 -3.050965E+03
        35  22 -6.806408E+06 -1.007697E+06 -1.344336E+04 -2.617210E+06  1.377946E+04 -9.713216E+03
        35  23 -6.848818E+06 -9.624894E+05 -7.911281E+03 -2.568039E+06  7.897092E+03 -6.115694E+03
        35  24 -6.806159E+06 -1.006086E+06 -5.990480E+03 -2.617801E+06  1.909899E+03 -2.225260E+03
        35  25 -6.399001E+06 -8.538821E+05  9.580597E+04 -2.506648E+06  1.576311E+04 -8.971187E+03
        35  26 -6.569155E+06 -8.570528E+05  6.734485E+04 -2.492378E+06  9.995013E+03 -5.331818E+03
        35  27 -6.654204E+06 -9.489999E+05  3.536413E+04 -2.577031E+06  4.123044E+03 -1.399338E+03
        36   1 -6.721973E+06 -9.748693E+05  1.723973E+04 -2.595617E+06  2.477697E+03  1.749167E+02
        36   2 -6.635856E+06 -8.818280E+05  5.050078E+04 -2.509991E+06  7.873051E+03 -3.973976E+03
        36   3 -6.463438E+06 -8.782714E+05  8.069043E+04 -2.524631E+06  1.318626E+04 -7.890846E+03
        36   4 -6.805906E+06 -1.006372E+06 -5.818240E+03 -2.618049E+06  2.636781E+02 -6.512392E+02
        36   5 -6.849134E+06 -9.622334E+05 -6.892656E+03 -2.567686E+06  5.750431E+03 -4.766773E+03
        36   6 -6.806094E+06 -1.007602E+06 -1.111076E+04 -2.617597E+06  1.115423E+04 -8.650474E+03
        36   7 -6.889832E+06 -1.037874E+06 -2.887690E+04 -2.640478E+06 -1.950015E+03 -1.477275E+03
        36   8 -7.062370E+06 -1.042637E+06 -6.429044E+04 -2.625363E+06  3.628608E+03 -5.559271E+03
        36   9 -7.148638E+06 -1.136926E+06 -1.029230E+05 -2.710517E+06  9.123436E+03 -9.409642E+03
        36  10 -6.721973E+06 -9.748693E+05  1.723972E+04 -2.595617E+06  5.329038E-09  2.572990E-09
        36  11 -6.635856E+06 -8.818280E+05  5.050064E+04 -2.509991E+06  8.416881E-10  4.044790E-11
        36  12 -6.463438E+06 -8.782715E+05  8.068999E+04 -2.524630E+06 -7.992675E-10 -2.386253E-09
        36  13 -6.805906E+06 -1.006372E+06 -5.818241E+03 -2.618049E+06 -2.381493E-09  1.148957E-09
        36  14 -6.849134E+06 -9.622334E+05 -6.892761E+03 -2.567686E+06 -7.396185E-10 -1.096630E-09
        36  15 -6.806094E+06 -1.007602E+06 -1.111113E+04 -2.617597E+06  1.993826E-09 -1.687662E-09
        36  16 -6.889832E+06 -1.037874E+06 -2.887691E+04 -2.640478E+06 -3.062789E-10 -2.290878E-11
        36  17 -7.062370E+06 -1.042637E+06 -6.429052E+04 -2.625363E+06  2.616788E-09 -8.545529E-10
        36  18 -7.148638E+06 -1.136926E+06 -1.029234E+05 -2.710517E+06  2.664543E-09 -2.010789E-10
        36  19 -6.721973E+06 -9.748693E+05  1.723973E+04 -2.595617E+06 -2.477697E+03 -1.749167E+02
        36  20 -6.635856E+06 -8.818280E+05  5.050078E+04 -2.509991E+06 -7.873051E+03  3.973976E+03
        36  21 -6.463438E+06 -8.782714E+05  8.069043E+04 -2.524631E+06 -1.318626E+04  7.890846E+03
        36  22 -6.805906E+06 -1.006372E+06 -5.818240E+03 -2.618049E+06 -2.636781E+02  6.512392E+02
        36  23 -6.849134E+06 -9.622334E+05 -6.892656E+03 -2.567686E+06 -5.750431E+03  4.766773E+03
        36  24 -6.806094E+06 -1.007602E+06 -1.111076E+04 -2.617597E+06 -1.115423E+04  8.650474E+03
        36  25 -6.889832E+06 -1.037874E+06 -2.887690E+04 -2.640478E+06  1.950015E+03  1.477275E+03
        36  26 -7.062370E+06 -1.042637E+06 -6.429044E+04 -2.625363E+06 -3.628608E+03  5.559271E+03
        36  27 -7.148638E+06 -1.136926E+06 -1.029230E+05 -2.710517E+06 -9.123436E+03  9.409642E+03
        37   1 -6.248330E+06 -7.924663E+05  1.373246E+05 -2.464459E+06  1.641599E+04 -1.011972E+04
        37   2 -6.175651E+06 -7.116183E+05  1.559849E+05 -2.390662E+06  3.011519E+04 -1.043184E+04
        37   3 -6.035538E+06 -7.186535E+05  1.619967E+05 -2.397692E+06  4.349731E+04 -9.866683E+03
        37   4 -6.809735E+06 -1.002857E+06 -1.395978E+04 -2.614950E+06  1.432218E+04 -1.090349E+04
        37   5 -6.844250E+06 -9.644999E+05 -2.404984E+04 -2.572444E+06  2.835919E+04 -1.109124E+04
        37   6 -6.811415E+06 -1.014110E+06 -4.706869E+04 -2.610774E+06  4.207670E+04 -1.040214E+04
        37   7 -7.370829E+06 -1.213228E+06 -1.652712E+05 -2.765317E+06  1.223049E+04 -1.168649E+04
        37   8 -7.512412E+06 -1.217354E+06 -2.041237E+05 -2.754046E+06  2.660529E+04 -1.174984E+04
        37   9 -7.586704E+06 -1.309529E+06 -2.561877E+05 -2.823611E+06  4.065803E+04 -1.093685E+04
        37  10 -6.248330E+06 -7.924665E+05  1.373239E+05 -2.464459E+06 -3.479274E-10 -1.399096E-09
        37  11 -6.175652E+06 -7.116187E+05  1.559830E+05 -2.390662E+06 -3.752337E-09  1.846570E-09
        37  12 -6.035540E+06 -7.186541E+05  1.619930E+05 -2.397691E+06 -1.878792E-09 -1.132847E-09
        37  13 -6.809735E+06 -1.002857E+06 -1.396039E+04 -2.614950E+06 -3.819541E-09 -8.112832E-10
        37  14 -6.844251E+06 -9.645002E+05 -2.405160E+04 -2.572444E+06  3.205302E-10  6.162136E-10
        37  15 -6.811417E+06 -1.014111E+06 -4.707225E+04 -2.610773E+06  3.125901E-09  8.475261E-10
        37  16 -7.370830E+06 -1.213229E+06 -1.652717E+05 -2.765316E+06 -2.731061E-09  9.436874E-10
        37  17 -7.512412E+06 -1.217354E+06 -2.041253E+05 -2.754046E+06  2.421227E-09  7.375085E-10
        37  18 -7.586706E+06 -1.309530E+06 -2.561911E+05 -2.823611E+06  4.263998E-09  2.877430E-09
        37  19 -6.248330E+06 -7.924663E+05  1.373246E+05 -2.464459E+06 -1.641599E+04  1.011972E+04
        37  20 -6.175651E+06 -7.116183E+05  1.559849E+05 -2.390662E+06 -3.011519E+04  1.043184E+04
        37  21 -6.035538E+06 -7.186535E+05  1.619967E+05 -2.397692E+06 -4.349731E+04  9.866683E+03
        37  22 -6.809735E+06 -1.002857E+06 -1.395978E+04 -2.614950E+06 -1.432218E+04  1.090349E+04
        37  23 -6.844250E+06 -9.644999E+05 -2.404984E+04 -2.572444E+06 -2.835919E+04  1.109124E+04
        37  24 -6.811415E+06 -1.014110E+06 -4.706869E+04 -2.610774E+06 -4.207670E+04  1.040214E+04
        37  25 -7.370829E+06 -1.213228E+06 -1.652712E+05 -2.765317E+06 -1.223049E+04  1.168649E+04
        37  26 -7.512412E+06 -1.217354E+06 -2.041237E+05 -2.754046E+06 -2.660529E+04  1.174984E+04
        37  27 -7.586704E+06 -1.309529E+06 -2.561877E+05 -2.823611E+06 -4.065803E+04  1.093685E+04
        38   1 -5.873641E+06 -6.467526E+05  1.937226E+05 -2.365323E+06  5.369630E+04 -8.958230E+03
        38   2 -5.822098E+06 -5.710593E+05  1.687631E+05 -2.303420E+06  1.074413E+05  7.480485E+03
        38   3 -5.773455E+06 -6.614130E+05  7.232679E+04 -2.264630E+06  1.599289E+05  2.729267E+04
        38   4 -6.821855E+06 -9.944950E+05 -5.980167E+04 -2.611902E+06  5.165133E+04 -9.728576E+03
        38   5 -6.827032E+06 -9.573386E+05 -1.029558E+05 -2.583076E+06  1.066621E+05  7.182022E+03
        38   6 -6.835448E+06 -1.086618E+06 -2.186927E+05 -2.577358E+06  1.604092E+05  2.746308E+04
        38   7 -7.769198E+06 -1.342199E+06 -3.134055E+05 -2.858144E+06  4.960977E+04 -1.049773E+04
        38   8 -7.830983E+06 -1.343550E+06 -3.747658E+05 -2.862316E+06  1.058843E+05  6.884052E+03
        38   9 -7.896340E+06 -1.511720E+06 -5.098160E+05 -2.889583E+06  1.608884E+05  2.763300E+04
        38  10 -5.873644E+06 -6.467534E+05  1.937170E+05 -2.365323E+06 -4.641494E-09 -2.577978E-09
        38  11 -5.822110E+06 -5.710625E+05  1.687411E+05 -2.303420E+06 -1.882236E-09 -1.616869E-09
        38  12 -5.773483E+06 -6.614208E+05  7.227682E+04 -2.264634E+06  5.431178E-09  1.767961E-09
        38  13 -6.821858E+06 -9.944959E+05 -5.980690E+04 -2.611902E+06 -3.113103E-09 -7.112429E-10
        38  14 -6.827044E+06 -9.573417E+05 -1.029775E+05 -2.583077E+06 -7.312574E-09 -2.972985E-09
        38  15 -6.835476E+06 -1.086626E+06 -2.187431E+05 -2.577361E+06  9.888528E-10 -1.181941E-09
        38  16 -7.769200E+06 -1.342200E+06 -3.134104E+05 -2.858143E+06  3.999894E-09  1.205915E-09
        38  17 -7.830995E+06 -1.343553E+06 -3.747873E+05 -2.862317E+06 -1.580371E-09 -2.133276E-09
        38  18 -7.896368E+06 -1.511728E+06 -5.098668E+05 -2.889587E+06 -5.928055E-09 -3.161870E-09
        38  19 -5.873641E+06 -6.467526E+05  1.937226E+05 -2.365323E+06 -5.369630E+04  8.958230E+03
        38  20 -5.822098E+06 -5.710593E+05  1.687631E+05 -2.303420E+06 -1.074413E+05 -7.480485E+03
        38  21 -5.773455E+06 -6.614130E+05  7.232679E+04 -2.264630E+06 -1.599289E+05 -2.729267E+04
        38  22 -6.821855E+06 -9.944950E+05 -5.980167E+04 -2.611902E+06 -5.165133E+04  9.728576E+03
        38  23 -6.827032E+06 -9.573386E+05 -1.029558E+05 -2.583076E+06 -1.066621E+05 -7.182022E+03
        38  24 -6.835448E+06 -1.086618E+06 -2.186927E+05 -2.577358E+06 -1.604092E+05 -2.746308E+04
        38  25 -7.769198E+06 -1.342199E+06 -3.134055E+05 -2.858144E+06 -4.960977E+04  1.049773E+04
        38  26 -7.830983E+06 -1.343550E+06 -3.747658E+05 -2.862316E+06 -1.058843E+05 -6.884052E+03
        38  27 -7.896340E+06 -1.511720E+06 -5.098160E+05 -2.889583E+06 -1.608884E+05 -2.763300E+04
        39   1 -5.655119E+06 -5.882443E+05  4.425176E+04 -2.389249E+06  2.066016E+05  3.962515E+04
        39   2 -5.602906E+06 -3.597600E+05 -1.209704E+05 -2.245563E+06  4.364640E+05  1.251354E+05
        39   3 -5.940324E+06 -1.127120E+06 -7.278232E+05 -1.855856E+06  6.564630E+05  2.366636E+05
        39   4 -6.877070E+06 -9.642592E+05 -2.677243E+05 -2.633799E+06  2.005918E+05  3.738178E+04
        39   5 -6.737398E+06 -8.461532E+05 -4.370323E+05 -2.612573E+06  4.404392E+05  1.265906E+05
        39   6 -6.990120E+06 -1.727096E+06 -1.056592E+06 -2.345096E+06  6.704446E+05  2.417186E+05
        39   7 -8.097559E+06 -1.340291E+06 -5.798148E+05 -2.877965E+06  1.945947E+05  3.514116E+04
        39   8 -7.870619E+06 -1.332362E+06 -7.532142E+05 -2.978933E+06  4.444057E+05  1.280416E+05
        39   9 -8.038729E+06 -2.326506E+06 -1.385465E+06 -2.833438E+06  6.843990E+05  2.467517E+05
        39  10 -5.655166E+06 -5.882576E+05  4.416774E+04 -2.389256E+06  1.903942E-10  2.398064E-09
        39  11 -5.603116E+06 -3.598288E+05 -1.213619E+05 -2.245608E+06 -2.211043E-10  2.458267E-09
        39  12 -5.940805E+06 -1.127298E+06 -7.287480E+05 -1.855982E+06 -3.982070E-11  4.733675E-10
        39  13 -6.877114E+06 -9.642717E+05 -2.678035E+05 -2.633805E+06  1.345845E-09  1.708581E-09
        39  14 -6.737613E+06 -8.462235E+05 -4.374320E+05 -2.612619E+06 -6.406765E-09  5.938542E-09
        39  15 -6.990624E+06 -1.727282E+06 -1.057559E+06 -2.345228E+06 -5.286637E-10  7.678288E-10
        39  16 -8.097601E+06 -1.340303E+06 -5.798894E+05 -2.877970E+06  2.997533E-10  3.655186E-10
        39  17 -7.870837E+06 -1.332434E+06 -7.536220E+05 -2.978979E+06 -5.248050E-09  4.302058E-09
        39  18 -8.039255E+06 -2.326700E+06 -1.386474E+06 -2.833575E+06 -9.629040E-10  2.254526E-10
        39  19 -5.655119E+06 -5.882443E+05  4.425176E+04 -2.389249E+06 -2.066016E+05 -3.962515E+04
        39  20 -5.602906E+06 -3.597600E+05 -1.209704E+05 -2.245563E+06 -4.364640E+05 -1.251354E+05
        39  21 -5.940324E+06 -1.127120E+06 -7.278232E+05 -1.855856E+06 -6.564630E+05 -2.366636E+05
        39  22 -6.877070E+06 -9.642592E+05 -2.677243E+05 -2.633799E+06 -2.005918E+05 -3.738178E+04
        39  23 -6.737398E+06 -8.461532E+05 -4.370323E+05 -2.612573E+06 -4.404392E+05 -1.265906E+05
        39  24 -6.990120E+06 -1.727096E+06 -1.056592E+06 -2.345096E+06 -6.704446E+05 -2.417186E+05
        39  25 -8.097559E+06 -1.340291E+06 -5.798148E+05 -2.877965E+06 -1.945947E+05 -3.514116E+04
        39  26 -7.870619E+06 -1.332362E+06 -7.532142E+05 -2.978933E+06 -4.444057E+05 -1.280416E+05
        39  27 -8.038729E+06 -2.326506E+06 -1.385465E+06 -2.833438E+06 -6.843990E+05 -2.467517E+05
        40   1  2.998177E+05  5.383068E+04  3.379162E+05 -1.999246E+05 -9.439807E+02  2.121695E+05
        40   2  5.009142E+04 -1.081826E+04  1.699558E+05 -9.920895E+04 -6.286203E+02  1.239595E+05
        40   3 -4.531013E+03 -1.530642E+04  1.081978E+05 -7.128738E+03 -1.858052E+03  3.574408E+04
        40   4  2.852182E+05  4.343034E+03  3.253189E+05 -3.009211E+04 -8.816730E+02  2.113451E+05
        40   5  4.545494E+04 -2.554596E+04  1.661203E+05 -2.652617E+04 -6.213022E+02  1.253263E+05
        40   6  3.850205E+02  4.332441E+03  1.116044E+05 -3.158271E+04 -1.878151E+03  3.929738E+04
        40   7  2.707268E+05 -4.508058E+04  3.127369E+05  1.397266E+05 -8.198123E+02  2.105207E+05
        40   8  4.083830E+04 -4.026213E+04  1.622876E+05  4.615485E+04 -6.136639E+02  1.266931E+05
        40   9  5.303281E+03  2.397298E+04  1.150113E+05 -5.603749E+04 -1.898530E+03  4.285078E+04
        40  10  2.998057E+05  5.378236E+04  3.378316E+05 -1.999245E+05 -6.495219E-10  1.654699E-08
        40  11  5.008729E+04 -1.083476E+04  1.699269E+05 -9.920889E+04  7.663602E-09 -8.655848E-09
        40  12 -4.531359E+03 -1.530779E+04  1.081954E+05 -7.128685E+03  3.804267E-09 -2.480954E-08
        40  13  2.852062E+05  4.295081E+03  3.252350E+05 -3.009196E+04 -5.187467E-09  1.434649E-09
        40  14  4.545073E+04 -2.556282E+04  1.660908E+05 -2.652610E+04 -4.562316E-09 -6.728078E-11
        40  15  3.846022E+02  4.330782E+03  1.116015E+05 -3.158265E+04 -3.580174E-09  9.493181E-10
        40  16  2.707149E+05 -4.512816E+04  3.126536E+05  1.397267E+05  2.761013E-09 -1.751086E-08
        40  17  4.083399E+04 -4.027936E+04  1.622575E+05  4.615491E+04  4.268893E-09  8.008153E-09
        40  18  5.302784E+03  2.397101E+04  1.150079E+05 -5.603742E+04  4.978746E-09  2.436430E-08
        40  19  2.998177E+05  5.383068E+04  3.379162E+05 -1.999246E+05  9.439807E+02 -2.121695E+05
        40  20  5.009142E+04 -1.081826E+04  1.699558E+05 -9.920895E+04  6.286203E+02 -1.239595E+05
        40  21 -4.531013E+03 -1.530642E+04  1.081978E+05 -7.128738E+03  1.858052E+03 -3.574408E+04
        40  22  2.852182E+05  4.343034E+03  3.253189E+05 -3.009211E+04  8.816730E+02 -2.113451E+05
        40  23  4.545494E+04 -2.554596E+04  1.661203E+05 -2.652617E+04  6.213022E+02 -1.253263E+05
        40  24  3.850205E+02  4.332441E+03  1.116044E+05 -3.158271E+04  1.878151E+03 -3.929738E+04
        40  25  2.707268E+05 -4.508058E+04  3.127369E+05  1.397266E+05  8.198123E+02 -2.105207E+05
        40  26  4.083830E+04 -4.026213E+04  1.622876E+05  4.615485E+04  6.136639E+02 -1.266931E+05
        40  27  5.303281E+03  2.397298E+04  1.150113E+05 -5.603749E+04  1.898530E+03 -4.285078E+04
        41   1  1.762028E+02 -5.032141E+04  9.315129E+04 -3.907931E+04 -3.243380E+03  1.926019E+04
        41   2 -1.599660E+04 -9.194701E+04  8.498815E+04 -2.597494E+04 -5.169677E+03 -3.016725E+04
        41   3 -8.164016E+03 -1.212494E+05  1.149895E+05 -2.220351E+04 -6.820789E+03 -7.959138E+04
        41   4  1.051772E+04 -6.197012E+03  1.012169E+05 -3.148957E+04 -3.260728E+03  2.260851E+04
        41   5  2.903348E+03 -1.239139E+04  9.988394E+04 -2.680012E+04 -5.185022E+03 -2.722202E+04
        41   6  1.936214E+04 -6.195951E+03  1.369924E+05 -3.144295E+04 -6.832820E+03 -7.705195E+04
        41   7  2.085936E+04  3.792943E+04  1.092825E+05 -2.389928E+04 -3.277993E+03  2.595707E+04
        41   8  2.180294E+04  6.717037E+04  1.147795E+05 -2.762540E+04 -5.200373E+03 -2.427643E+04
        41   9  4.688783E+04  1.088704E+05  1.589947E+05 -4.068412E+04 -6.844926E+03 -7.451206E+04
        41  10  1.760919E+02 -5.032181E+04  9.315057E+04 -3.907925E+04  8.771949E-10  1.653199E-08
        41  11 -1.599687E+04 -9.194799E+04  8.498639E+04 -2.597507E+04  1.179803E-09 -1.978128E-10
        41  12 -8.165767E+03 -1.212562E+05  1.149775E+05 -2.220395E+04  1.425412E-09 -6.890400E-09
        41  13  1.051757E+04 -6.197564E+03  1.012159E+05 -3.148951E+04 -4.121449E-09  1.281401E-09
        41  14  2.903120E+03 -1.239219E+04  9.988249E+04 -2.680023E+04 -6.154538E-09 -3.513242E-11
        41  15  1.936050E+04 -6.202338E+03  1.369811E+05 -3.144337E+04  1.322516E-09  1.143069E-09
        41  16  2.085916E+04  3.792870E+04  1.092812E+05 -2.389921E+04  2.841784E-09 -1.757399E-08
        41  17  2.180275E+04  6.716973E+04  1.147783E+05 -2.762550E+04  8.848128E-10 -1.827133E-10
        41  18  4.688629E+04  1.088644E+05  1.589842E+05 -4.068453E+04 -1.268377E-09  6.667793E-09
        41  19  1.762028E+02 -5.032141E+04  9.315129E+04 -3.907931E+04  3.243380E+03 -1.926019E+04
        41  20 -1.599660E+04 -9.194701E+04  8.498815E+04 -2.597494E+04  5.169677E+03  3.016725E+04
        41  21 -8.164016E+03 -1.212494E+05  1.149895E+05 -2.220351E+04  6.820789E+03  7.959138E+04
        41  22  1.051772E+04 -6.197012E+03  1.012169E+05 -3.148957E+04  3.260728E+03 -2.260851E+04
        41  23  2.903348E+03 -1.239139E+04  9.988394E+04 -2.680012E+04  5.185022E+03  2.722202E+04
        41  24  1.936214E+04 -6.195951E+03  1.369924E+05 -3.144295E+04  6.832820E+03  7.705195E+04
        41  25  2.085936E+04  3.792943E+04  1.092825E+05 -2.389928E+04  3.277993E+03 -2.595707E+04
        41  26  2.180294E+04  6.717037E+04  1.147795E+05 -2.762540E+04  5.200373E+03  2.427643E+04
        41  27  4.688783E+04  1.088704E+05  1.589947E+05 -4.068412E+04  6.844926E+03  7.451206E+04
        42   1 -3.256072E+04 -1.254643E+05  1.402525E+05 -7.624983E+04 -8.124823E+03 -1.036569E+05
        42   2  3.761954E+04 -2.111894E+05  2.451015E+05  1.018104E+05 -7.186855E+03 -2.415381E+05
        42   3  4.519544E+05 -1.929404E+05  5.258280E+05  2.720225E+05 -9.152173E+02 -3.793791E+05
        42   4  2.039666E+02  1.443849E+04  1.669798E+05 -3.158151E+04 -8.150312E+03 -1.001820E+05
        42   5  8.093093E+04 -3.816640E+04  2.808273E+05 -2.634258E+04 -7.114597E+03 -2.458858E+05
        42   6  5.070036E+05  1.446024E+04  5.759391E+05 -2.896596E+04 -6.691107E+02 -3.915588E+05
        42   7  3.297509E+04  1.543646E+05  1.937075E+05  1.309711E+04 -8.175297E+03 -9.670637E+04
        42   8  1.243019E+05  1.349200E+05  3.165603E+05 -1.545320E+05 -7.040558E+03 -2.502347E+05
        42   9  5.623896E+05  2.220944E+05  6.260960E+05 -3.300563E+05 -4.112546E+02 -4.037426E+05
        42  10 -3.256367E+04 -1.254759E+05  1.402321E+05 -7.625050E+04 -1.358446E-09  2.880212E-08
        42  11  3.760382E+04 -2.112520E+05  2.449918E+05  1.018090E+05  5.956851E-09 -4.169388E-09
        42  12  4.519157E+05 -1.930949E+05  5.255575E+05  2.720223E+05 -4.470260E-10 -2.763459E-08
        42  13  2.012014E+02  1.442770E+04  1.669608E+05 -3.158217E+04 -1.181469E-09  1.392421E-09
        42  14  8.091465E+04 -3.823132E+04  2.807136E+05 -2.634399E+04  4.962546E-09 -6.605924E-11
        42  15  5.069624E+05  1.429567E+04  5.756510E+05 -2.896617E+04  3.488718E-09  1.019353E-09
        42  16  3.297251E+04  1.543545E+05  1.936898E+05  1.309648E+04 -2.182960E-09 -2.938589E-08
        42  17  1.242850E+05  1.348528E+05  3.164425E+05 -1.545335E+05  1.053153E-09  3.866534E-09
        42  18  5.623458E+05  2.219195E+05  6.257898E+05 -3.300564E+05  2.421080E-09  2.719935E-08
        42  19 -3.256072E+04 -1.254643E+05  1.402525E+05 -7.624983E+04  8.124823E+03  1.036569E+05
        42  20  3.761954E+04 -2.111894E+05  2.451015E+05  1.018104E+05  7.186855E+03  2.415381E+05
        42  21  4.519544E+05 -1.929404E+05  5.258280E+05  2.720225E+05  9.152173E+02  3.793791E+05
        42  22  2.039666E+02  1.443849E+04  1.669798E+05 -3.158151E+04  8.150312E+03  1.001820E+05
        42  23  8.093093E+04 -3.816640E+04  2.808273E+05 -2.634258E+04  7.114597E+03  2.458858E+05
        42  24  5.070036E+05  1.446024E+04  5.759391E+05 -2.896596E+04  6.691107E+02  3.915588E+05
        42  25  3.297509E+04  1.543646E+05  1.937075E+05  1.309711E+04  8.175297E+03  9.670637E+04
        42  26  1.243019E+05  1.349200E+05  3.165603E+05 -1.545320E+05  7.040558E+03  2.502347E+05
        42  27  5.623896E+05  2.220944E+05  6.260960E+05 -3.300563E+05  4.112546E+02  4.037426E+05
        43   1 -5.537185E+06 -1.690730E+06 -1.048607E+06 -1.903204E+06 -4.282398E+05 -1.481034E+05
        43   2 -5.404850E+06 -1.052299E+06 -6.467478E+05 -1.971528E+06 -2.810386E+05 -6.261097E+04
        43   3 -5.484951E+06 -1.069183E+06 -5.312274E+05 -1.919800E+06 -1.226353E+05 -6.564503E+03
        43   4 -4.163669E+06 -1.056544E+06 -6.482952E+05 -1.414820E+06 -4.144538E+05 -1.429548E+05
        43   5 -4.024657E+06 -4.980267E+05 -2.677663E+05 -1.562833E+06 -2.774531E+05 -6.127544E+04
        43   6 -4.095518E+06 -5.919592E+05 -1.649431E+05 -1.590945E+06 -1.292627E+05 -9.061053E+03
        43   7 -2.788300E+06 -4.219779E+05 -2.481725E+05 -9.253646E+05 -4.006332E+05 -1.377867E+05
        43   8 -2.642615E+06  5.642224E+04  1.110382E+05 -1.153289E+06 -2.738582E+05 -5.993584E+04
        43   9 -2.704216E+06 -1.147022E+05  2.011785E+05 -1.261457E+06 -1.359063E+05 -1.156239E+04
        43  10 -5.537389E+06 -1.690803E+06 -1.048997E+06 -1.903256E+06 -2.521775E-09  1.099643E-09
        43  11 -5.404936E+06 -1.052325E+06 -6.469051E+05 -1.971542E+06  7.713600E-10  4.784497E-10
        43  12 -5.484967E+06 -1.069187E+06 -5.312560E+05 -1.919801E+06 -2.703245E-11  6.214829E-10
        43  13 -4.163860E+06 -1.056613E+06 -6.486592E+05 -1.414868E+06 -1.398693E-10 -2.104191E-09
        43  14 -4.024741E+06 -4.980516E+05 -2.679191E+05 -1.562847E+06 -2.496498E-09 -1.361495E-09
        43  15 -4.095536E+06 -5.919639E+05 -1.649749E+05 -1.590946E+06  1.076626E-09 -9.236459E-11
        43  16 -2.788478E+06 -4.220417E+05 -2.485115E+05 -9.254092E+05 -5.773548E-10  1.113702E-09
        43  17 -2.642697E+06  5.639810E+04  1.108898E+05 -1.153303E+06 -2.340971E-10  7.619709E-10
        43  18 -2.704236E+06 -1.147074E+05  2.011434E+05 -1.261459E+06  3.217103E-09  1.273104E-09
        43  19 -5.537185E+06 -1.690730E+06 -1.048607E+06 -1.903204E+06  4.282398E+05  1.481034E+05
        43  20 -5.404850E+06 -1.052299E+06 -6.467478E+05 -1.971528E+06  2.810386E+05  6.261097E+04
        43  21 -5.484951E+06 -1.069183E+06 -5.312274E+05 -1.919800E+06  1.226353E+05  6.564503E+03
        43  22 -4.163669E+06 -1.056544E+06 -6.482952E+05 -1.414820E+06  4.144538E+05  1.429548E+05
        43  23 -4.024657E+06 -4.980267E+05 -2.677663E+05 -1.562833E+06  2.774531E+05  6.127544E+04
        43  24 -4.095518E+06 -5.919592E+05 -1.649431E+05 -1.590945E+06  1.292627E+05  9.061053E+03
        43  25 -2.788300E+06 -4.219779E+05 -2.481725E+05 -9.253646E+05  4.006332E+05  1.377867E+05
        43  26 -2.642615E+06  5.642224E+04  1.110382E+05 -1.153289E+06  2.738582E+05  5.993584E+04
        43  27 -2.704216E+06 -1.147022E+05  2.011785E+05 -1.261457E+06  1.359063E+05  1.156239E+04
        44   1 -5.260685E+06 -1.135647E+06 -4.608511E+05 -1.896837E+06 -1.034940E+05 -6.013662E+03
        44   2 -5.191861E+06 -9.896503E+05 -3.636297E+05 -1.844918E+06 -6.893792E+04  6.640117E+03
        44   3 -5.084673E+06 -9.916220E+05 -3.130348E+05 -1.851875E+06 -3.294002E+04  1.544702E+04
        44   4 -4.067865E+06 -6.708855E+05 -1.351209E+05 -1.558314E+06 -1.030496E+05 -5.853356E+03
        44   5 -4.082897E+06 -5.673285E+05 -6.321128E+04 -1.540029E+06 -6.980320E+04  6.310636E+03
        44   6 -4.059253E+06 -6.113788E+05 -3.681200E+04 -1.580627E+06 -3.512148E+04  1.462767E+04
        44   7 -2.873664E+06 -2.060161E+05  1.904803E+05 -1.219190E+06 -1.026041E+05 -5.692597E+03
        44   8 -2.972740E+06 -1.449292E+05  2.370970E+05 -1.234642E+06 -7.067010E+04  5.980539E+03
        44   9 -3.032816E+06 -2.310841E+05  2.393175E+05 -1.308976E+06 -3.730690E+04  1.380691E+04
        44  10 -5.260696E+06 -1.135650E+06 -4.608715E+05 -1.896838E+06 -4.521676E-10  8.967578E-10
        44  11 -5.191866E+06 -9.896516E+05 -3.636388E+05 -1.844918E+06 -1.075943E-09  3.257802E-10
        44  12 -5.084674E+06 -9.916225E+05 -3.130373E+05 -1.851875E+06 -2.244293E-09 -1.865610E-09
        44  13 -4.067877E+06 -6.708884E+05 -1.351410E+05 -1.558314E+06 -2.191718E-09  5.173427E-10
        44  14 -4.082902E+06 -5.673299E+05 -6.322057E+04 -1.540028E+06 -5.612018E-09  8.449964E-12
        44  15 -4.059254E+06 -6.113794E+05 -3.681473E+04 -1.580626E+06 -5.402073E-09 -1.858882E-09
        44  16 -2.873675E+06 -2.060190E+05  1.904604E+05 -1.219190E+06 -4.326890E-10  7.824885E-10
        44  17 -2.972745E+06 -1.449306E+05  2.370875E+05 -1.234642E+06 -4.830848E-10 -1.061507E-10
        44  18 -3.032818E+06 -2.310847E+05  2.393146E+05 -1.308975E+06 -1.675402E-09 -6.666717E-10
        44  19 -5.260685E+06 -1.135647E+06 -4.608511E+05 -1.896837E+06  1.034940E+05  6.013662E+03
        44  20 -5.191861E+06 -9.896503E+05 -3.636297E+05 -1.844918E+06  6.893792E+04 -6.640117E+03
        44  21 -5.084673E+06 -9.916220E+05 -3.130348E+05 -1.851875E+06  3.294002E+04 -1.544702E+04
        44  22 -4.067865E+06 -6.708855E+05 -1.351209E+05 -1.558314E+06  1.030496E+05  5.853356E+03
        44  23 -4.082897E+06 -5.673285E+05 -6.321128E+04 -1.540029E+06  6.980320E+04 -6.310636E+03
        44  24 -4.059253E+06 -6.113788E+05 -3.681200E+04 -1.580627E+06  3.512148E+04 -1.462767E+04
        44  25 -2.873664E+06 -2.060161E+05  1.904803E+05 -1.219190E+06  1.026041E+05  5.692597E+03
        44  26 -2.972740E+06 -1.449292E+05  2.370970E+05 -1.234642E+06  7.067010E+04 -5.980539E+03
        44  27 -3.032816E+06 -2.310841E+05  2.393175E+05 -1.308976E+06  3.730690E+04 -1.380691E+04
        45   1 -4.845619E+06 -9.259654E+05 -2.435737E+05 -1.797595E+06 -2.728232E+04  1.415914E+04
        45   2 -4.769333E+06 -8.249814E+05 -1.969347E+05 -1.713887E+06 -1.784987E+04  1.287332E+04
        45   3 -4.605460E+06 -8.252903E+05 -1.586669E+05 -1.732767E+06 -8.119098E+03  1.076370E+04
        45   4 -4.051717E+06 -6.254960E+05 -2.916447E+04 -1.581125E+06 -2.866134E+04  1.364156E+04
        45   5 -4.094964E+06 -5.709510E+05 -1.480332E+04 -1.531291E+06 -1.951303E+04  1.225145E+04
        45   6 -4.050581E+06 -6.176285E+05 -8.577171E+03 -1.584046E+06 -1.006821E+04  1.003735E+04
        45   7 -3.257206E+06 -3.249895E+05  1.851880E+05 -1.364403E+06 -3.004230E+04  1.312325E+04
        45   8 -3.420155E+06 -3.168944E+05  1.672874E+05 -1.348516E+06 -2.117817E+04  1.162882E+04
        45   9 -3.495403E+06 -4.099497E+05  1.414853E+05 -1.435205E+06 -1.201926E+04  9.310290E+03
        45  10 -4.845619E+06 -9.259659E+05 -2.435755E+05 -1.797595E+06 -1.772083E-09 -2.692218E-09
        45  11 -4.769334E+06 -8.249816E+05 -1.969356E+05 -1.713886E+06 -5.134241E-09 -2.029662E-09
        45  12 -4.605461E+06 -8.252905E+05 -1.586672E+05 -1.732767E+06 -3.424483E-09 -6.553122E-10
        45  13 -4.051718E+06 -6.254965E+05 -2.916637E+04 -1.581124E+06 -2.135687E-09 -2.292680E-09
        45  14 -4.094965E+06 -5.709512E+05 -1.480432E+04 -1.531291E+06 -1.976985E-09 -7.493496E-10
        45  15 -4.050581E+06 -6.176286E+05 -8.577551E+03 -1.584046E+06  1.488771E-09 -5.361471E-10
        45  16 -3.257207E+06 -3.249899E+05  1.851860E+05 -1.364403E+06 -7.468513E-10 -1.373550E-09
        45  17 -3.420156E+06 -3.168947E+05  1.672863E+05 -1.348516E+06  8.803966E-10  4.274013E-10
        45  18 -3.495403E+06 -4.099499E+05  1.414849E+05 -1.435205E+06  2.144683E-09 -5.510944E-10
        45  19 -4.845619E+06 -9.259654E+05 -2.435737E+05 -1.797595E+06  2.728232E+04 -1.415914E+04
        45  20 -4.769333E+06 -8.249814E+05 -1.969347E+05 -1.713887E+06  1.784987E+04 -1.287332E+04
        45  21 -4.605460E+06 -8.252903E+05 -1.586669E+05 -1.732767E+06  8.119098E+03 -1.076370E+04
        45  22 -4.051717E+06 -6.254960E+05 -2.916447E+04 -1.581125E+06  2.866134E+04 -1.364156E+04
        45  23 -4.094964E+06 -5.709510E+05 -1.480332E+04 -1.531291E+06  1.951303E+04 -1.225145E+04
        45  24 -4.050581E+06 -6.176285E+05 -8.577171E+03 -1.584046E+06  1.006821E+04 -1.003735E+04
        45  25 -3.257206E+06 -3.249895E+05  1.851880E+05 -1.364403E+06  3.004230E+04 -1.312325E+04
        45  26 -3.420155E+06 -3.168944E+05  1.672874E+05 -1.348516E+06  2.117817E+04 -1.162882E+04
        45  27 -3.495403E+06 -4.099497E+05  1.414853E+05 -1.435205E+06  1.201926E+04 -9.310290E+03
        46   1 -4.330789E+06 -7.273348E+05 -8.270231E+04 -1.662455E+06 -5.808395E+03  8.080330E+03
        46   2 -4.246928E+06 -6.250838E+05 -4.433515E+04 -1.567874E+06 -1.681416E+03  3.670982E+03
        46   3 -4.062724E+06 -6.256576E+05 -8.037024E+03 -1.590127E+06  2.496434E+03 -8.811795E+02
        46   4 -4.048122E+06 -6.210937E+05 -6.887304E+03 -1.586022E+06 -7.650479E+03  7.394845E+03
        46   5 -4.098224E+06 -5.692378E+05 -4.217496E+03 -1.527769E+06 -3.573691E+03  2.967263E+03
        46   6 -4.047991E+06 -6.201949E+05 -3.574468E+03 -1.586354E+06  5.534058E+02 -1.603230E+03
        46   7 -3.765377E+06 -5.148479E+05  6.892075E+04 -1.509558E+06 -9.493492E+03  6.709013E+03
        46   8 -3.949499E+06 -5.133908E+05  3.589806E+04 -1.487655E+06 -5.466460E+03  2.263361E+03
        46   9 -4.033259E+06 -6.147323E+05  8.880480E+02 -1.582581E+06 -1.389658E+03 -2.325292E+03
        46  10 -4.330789E+06 -7.273349E+05 -8.270250E+04 -1.662455E+06  2.204168E-09  8.430364E-10
        46  11 -4.246928E+06 -6.250838E+05 -4.433518E+04 -1.567874E+06 -1.265163E-09 -2.029407E-11
        46  12 -4.062724E+06 -6.256576E+05 -8.037037E+03 -1.590127E+06 -9.442654E-10 -6.288615E-10
        46  13 -4.048122E+06 -6.210938E+05 -6.887516E+03 -1.586022E+06 -4.432132E-09  9.864828E-11
        46  14 -4.098224E+06 -5.692378E+05 -4.217537E+03 -1.527769E+06 -4.550864E-09 -4.243233E-09
        46  15 -4.047991E+06 -6.201949E+05 -3.574474E+03 -1.586354E+06  1.418828E-09 -1.006826E-09
        46  16 -3.765377E+06 -5.148480E+05  6.892050E+04 -1.509558E+06 -9.216348E-10  6.372845E-10
        46  17 -3.949499E+06 -5.133908E+05  3.589800E+04 -1.487655E+06 -2.421314E-10  6.174590E-10
        46  18 -4.033259E+06 -6.147323E+05  8.880342E+02 -1.582581E+06  3.167345E-09  6.758006E-10
        46  19 -4.330789E+06 -7.273348E+05 -8.270231E+04 -1.662455E+06  5.808395E+03 -8.080330E+03
        46  20 -4.246928E+06 -6.250838E+05 -4.433515E+04 -1.567874E+06  1.681416E+03 -3.670982E+03
        46  21 -4.062724E+06 -6.256576E+05 -8.037024E+03 -1.590127E+06 -2.496434E+03  8.811795E+02
        46  22 -4.048122E+06 -6.210937E+05 -6.887304E+03 -1.586022E+06  7.650479E+03 -7.394845E+03
        46  23 -4.098224E+06 -5.692378E+05 -4.217496E+03 -1.527769E+06  3.573691E+03 -2.967263E+03
        46  24 -4.047991E+06 -6.201949E+05 -3.574468E+03 -1.586354E+06 -5.534058E+02  1.603230E+03
        46  25 -3.765377E+06 -5.148479E+05  6.892075E+04 -1.509558E+06  9.493492E+03 -6.709013E+03
        46  26 -3.949499E+06 -5.133908E+05  3.589806E+04 -1.487655E+06  5.466460E+03 -2.263361E+03
        46  27 -4.033259E+06 -6.147323E+05  8.880480E+02 -1.582581E+06  1.389658E+03  2.325292E+03
        47   1 -3.781236E+06 -5.192066E+05  6.894850E+04 -1.513754E+06  4.281667E+03 -3.848650E+03
        47   2 -3.700253E+06 -4.208918E+05  1.023278E+05 -1.421576E+06  8.563476E+03 -8.282838E+03
        47   3 -3.521662E+06 -4.225321E+05  1.335761E+05 -1.442470E+06  1.272917E+04 -1.238422E+04
        47   4 -4.048610E+06 -6.194427E+05 -3.645785E+03 -1.585576E+06  2.328638E+03 -4.574741E+03
        47   5 -4.097492E+06 -5.701059E+05 -4.815687E+03 -1.528791E+06  6.727378E+03 -8.966753E+03
        47   6 -4.048803E+06 -6.207550E+05 -8.209661E+03 -1.585091E+06  1.100941E+04 -1.302599E+04
        47   7 -4.315918E+06 -7.196756E+05 -7.624699E+04 -1.657370E+06  3.765250E+02 -5.300492E+03
        47   8 -4.494580E+06 -7.193120E+05 -1.119739E+05 -1.635945E+06  4.892566E+03 -9.650190E+03
        47   9 -4.575676E+06 -8.189630E+05 -1.500208E+05 -1.727603E+06  9.291245E+03 -1.366716E+04
        47  10 -3.781236E+06 -5.192066E+05  6.894843E+04 -1.513754E+06 -1.362848E-09  2.037736E-10
        47  11 -3.700253E+06 -4.208919E+05  1.023276E+05 -1.421576E+06 -6.974460E-09  2.531606E-10
        47  12 -3.521663E+06 -4.225323E+05  1.335755E+05 -1.442470E+06  1.196425E-10  1.165510E-09
        47  13 -4.048610E+06 -6.194427E+05 -3.645835E+03 -1.585576E+06 -1.386476E-09 -2.109142E-09
        47  14 -4.097492E+06 -5.701060E+05 -4.815923E+03 -1.528791E+06 -2.969830E-09  4.383155E-09
        47  15 -4.048803E+06 -6.207552E+05 -8.210207E+03 -1.585091E+06 -1.375002E-09  1.525305E-09
        47  16 -4.315918E+06 -7.196756E+05 -7.624704E+04 -1.657370E+06  4.069647E-09 -7.975164E-10
        47  17 -4.494581E+06 -7.193121E+05 -1.119741E+05 -1.635945E+06 -1.640412E-09  9.838491E-10
        47  18 -4.575676E+06 -8.189632E+05 -1.500213E+05 -1.727603E+06 -5.612171E-10  2.152707E-09
        47  19 -3.781236E+06 -5.192066E+05  6.894850E+04 -1.513754E+06 -4.281667E+03  3.848650E+03
        47  20 -3.700253E+06 -4.208918E+05  1.023278E+05 -1.421576E+06 -8.563476E+03  8.282838E+03
        47  21 -3.521662E+06 -4.225321E+05  1.335761E+05 -1.442470E+06 -1.272917E+04  1.238422E+04
        47  22 -4.048610E+06 -6.194427E+05 -3.645785E+03 -1.585576E+06 -2.328638E+03  4.574741E+03
        47  23 -4.097492E+06 -5.701059E+05 -4.815687E+03 -1.528791E+06 -6.727378E+03  8.966753E+03
        47  24 -4.048803E+06 -6.207550E+05 -8.209661E+03 -1.585091E+06 -1.100941E+04  1.302599E+04
        47  25 -4.315918E+06 -7.196756E+05 -7.624699E+04 -1.657370E+06 -3.765250E+02  5.300492E+03
        47  26 -4.494580E+06 -7.193120E+05 -1.119739E+05 -1.635945E+06 -4.892566E+03  9.650190E+03
        47  27 -4.575676E+06 -8.189630E+05 -1.500208E+05 -1.727603E+06 -9.291245E+03  1.366716E+04
        48   1 -3.269730E+06 -3.223883E+05  2.011267E+05 -1.371319E+06  1.544978E+04 -1.469555E+04
        48   2 -3.202168E+06 -2.374394E+05  2.222973E+05 -1.292473E+06  2.606567E+04 -1.602687E+04
        48   3 -3.055769E+06 -2.470249E+05  2.339815E+05 -1.305167E+06  3.632399E+04 -1.636258E+04
        48   4 -4.052549E+06 -6.157076E+05 -1.030897E+04 -1.581794E+06  1.360312E+04 -1.538614E+04
        48   5 -4.092622E+06 -5.731971E+05 -1.805865E+04 -1.534229E+06  2.456144E+04 -1.659209E+04
        48   6 -4.053942E+06 -6.253095E+05 -3.557772E+04 -1.578216E+06  3.516028E+04 -1.680240E+04
        48   7 -4.834771E+06 -9.089912E+05 -2.217976E+05 -1.792026E+06  1.175904E+04 -1.607578E+04
        48   8 -4.982308E+06 -9.089080E+05 -2.584848E+05 -1.775670E+06  2.305958E+04 -1.715643E+04
        48   9 -5.051155E+06 -1.003535E+06 -3.052270E+05 -1.850868E+06  3.399861E+04 -1.724146E+04
        48  10 -3.269730E+06 -3.223886E+05  2.011259E+05 -1.371319E+06  1.974101E-09  3.354673E-09
        48  11 -3.202169E+06 -2.374399E+05  2.222955E+05 -1.292472E+06  1.087187E-09  4.272449E-09
        48  12 -3.055771E+06 -2.470255E+05  2.339786E+05 -1.305167E+06 -3.411046E-10 -7.123576E-11
        48  13 -4.052550E+06 -6.157079E+05 -1.030976E+04 -1.581793E+06 -3.983511E-09  1.874989E-09
        48  14 -4.092623E+06 -5.731975E+05 -1.806030E+04 -1.534228E+06  1.074046E-09  4.024912E-10
        48  15 -4.053944E+06 -6.253101E+05 -3.558058E+04 -1.578216E+06  1.819773E-09 -1.862835E-10
        48  16 -4.834771E+06 -9.089915E+05 -2.217984E+05 -1.792026E+06  1.829776E-09  6.441300E-10
        48  17 -4.982309E+06 -9.089085E+05 -2.584863E+05 -1.775670E+06  3.077730E-09 -1.464574E-09
        48  18 -5.051156E+06 -1.003536E+06 -3.052297E+05 -1.850867E+06  6.675163E-09  5.433601E-10
        48  19 -3.269730E+06 -3.223883E+05  2.011267E+05 -1.371319E+06 -1.544978E+04  1.469555E+04
        48  20 -3.202168E+06 -2.374394E+05  2.222973E+05 -1.292473E+06 -2.606567E+04  1.602687E+04
        48  21 -3.055769E+06 -2.470249E+05  2.339815E+05 -1.305167E+06 -3.632399E+04  1.636258E+04
        48  22 -4.052549E+06 -6.157076E+05 -1.030897E+04 -1.581794E+06 -1.360312E+04  1.538614E+04
        48  23 -4.092622E+06 -5.731971E+05 -1.805865E+04 -1.534229E+06 -2.456144E+04  1.659209E+04
        48  24 -4.053942E+06 -6.253095E+05 -3.557772E+04 -1.578216E+06 -3.516028E+04  1.680240E+04
        48  25 -4.834771E+06 -9.089912E+05 -2.217976E+05 -1.792026E+06 -1.175904E+04  1.607578E+04
        48  26 -4.982308E+06 -9.089080E+05 -2.584848E+05 -1.775670E+06 -2.305958E+04  1.715643E+04
        48  27 -5.051155E+06 -1.003535E+06 -3.052270E+05 -1.850868E+06 -3.399861E+04  1.724146E+04
        49   1 -2.863104E+06 -1.629139E+05  2.778508E+05 -1.259374E+06  4.466674E+04 -1.623771E+04
        49   2 -2.813471E+06 -8.609450E+04  2.650267E+05 -1.195401E+06  8.508330E+04 -4.965739E+03
        49   3 -2.744833E+06 -1.604070E+05  1.978136E+05 -1.170103E+06  1.239875E+05  1.035360E+04
        49   4 -4.063166E+06 -6.081715E+05 -4.496537E+04 -1.577736E+06  4.266839E+04 -1.699226E+04
        49   5 -4.077777E+06 -5.686415E+05 -7.725508E+04 -1.544753E+06  8.445308E+04 -5.209364E+03
        49   6 -4.073742E+06 -6.806541E+05 -1.651129E+05 -1.550439E+06  1.247194E+05  1.062113E+04
        49   7 -5.261837E+06 -1.053358E+06 -3.679091E+05 -1.895546E+06  4.067425E+04 -1.774531E+04
        49   8 -5.340537E+06 -1.051086E+06 -4.196801E+05 -1.893456E+06  8.382414E+04 -5.452506E+03
        49   9 -5.400938E+06 -1.200763E+06 -5.281999E+05 -1.930023E+06  1.254492E+05  1.088784E+04
        49  10 -2.863106E+06 -1.629147E+05  2.778465E+05 -1.259373E+06 -7.752145E-10  8.755710E-10
        49  11 -2.813478E+06 -8.609648E+04  2.650130E+05 -1.195401E+06  7.952474E-10  4.296299E-09
        49  12 -2.744850E+06 -1.604112E+05  1.977844E+05 -1.170104E+06  7.747098E-09 -2.893718E-09
        49  13 -4.063168E+06 -6.081723E+05 -4.496935E+04 -1.577736E+06  2.684186E-09  1.434504E-09
        49  14 -4.077785E+06 -5.686434E+05 -7.726861E+04 -1.544752E+06  8.179091E-09  2.736668E-09
        49  15 -4.073759E+06 -6.806584E+05 -1.651426E+05 -1.550440E+06  1.143749E-09  8.811475E-10
        49  16 -5.261838E+06 -1.053359E+06 -3.679128E+05 -1.895546E+06  5.327257E-09  1.580913E-09
        49  17 -5.340545E+06 -1.051088E+06 -4.196934E+05 -1.893455E+06  2.473877E-09  1.860156E-09
        49  18 -5.400955E+06 -1.200767E+06 -5.282299E+05 -1.930025E+06 -3.193366E-09 -2.110359E-09
        49  19 -2.863104E+06 -1.629139E+05  2.778508E+05 -1.259374E+06 -4.466674E+04  1.623771E+04
        49  20 -2.813471E+06 -8.609450E+04  2.650267E+05 -1.195401E+06 -8.508330E+04  4.965739E+03
        49  21 -2.744833E+06 -1.604070E+05  1.978136E+05 -1.170103E+06 -1.239875E+05 -1.035360E+04
        49  22 -4.063166E+06 -6.081715E+05 -4.496537E+04 -1.577736E+06 -4.266839E+04  1.699226E+04
        49  23 -4.077777E+06 -5.686415E+05 -7.725508E+04 -1.544753E+06 -8.445308E+04  5.209364E+03
        49  24 -4.073742E+06 -6.806541E+05 -1.651129E+05 -1.550439E+06 -1.247194E+05 -1.062113E+04
        49  25 -5.261837E+06 -1.053358E+06 -3.679091E+05 -1.895546E+06 -4.067425E+04  1.774531E+04
        49  26 -5.340537E+06 -1.051086E+06 -4.196801E+05 -1.893456E+06 -8.382414E+04  5.452506E+03
        49  27 -5.400938E+06 -1.200763E+06 -5.281999E+05 -1.930023E+06 -1.254492E+05 -1.088784E+04
        50   1 -2.611947E+06 -7.851780E+04  1.904711E+05 -1.243315E+06  1.626249E+05  1.875161E+04
        50   2 -2.556524E+06  1.063265E+05  7.186857E+04 -1.134372E+06  3.326088E+05  8.054111E+04
        50   3 -2.781020E+06 -4.778342E+05 -3.773991E+05 -8.503101E+05  4.910743E+05  1.725566E+05
        50   4 -4.106672E+06 -5.853358E+05 -2.016239E+05 -1.591597E+06  1.561083E+05  1.629173E+04
        50   5 -4.007307E+06 -4.827090E+05 -3.271588E+05 -1.571254E+06  3.365069E+05  8.199422E+04
        50   6 -4.190636E+06 -1.152296E+06 -7.922703E+05 -1.375597E+06  5.053825E+05  1.778933E+05
        50   7 -5.599242E+06 -1.092126E+06 -5.939060E+05 -1.939167E+06  1.496087E+05  1.383670E+04
        50   8 -5.456044E+06 -1.071532E+06 -7.263804E+05 -2.007179E+06  3.403941E+05  8.344253E+04
        50   9 -5.598273E+06 -1.826275E+06 -1.207337E+06 -1.899683E+06  5.196533E+05  1.832076E+05
        50  10 -2.611975E+06 -7.852532E+04  1.904205E+05 -1.243318E+06  5.663895E-10 -7.970533E-09
        50  11 -2.556645E+06  1.062896E+05  7.164740E+04 -1.134394E+06  3.839234E-09 -4.058954E-09
        50  12 -2.781288E+06 -4.779314E+05 -3.779108E+05 -8.503786E+05  3.911102E-10 -2.350216E-09
        50  13 -4.106699E+06 -5.853427E+05 -2.016705E+05 -1.591599E+06  3.310537E-09 -1.276991E-09
        50  14 -4.007431E+06 -4.827469E+05 -3.273859E+05 -1.571276E+06 -2.339259E-09  5.302189E-09
        50  15 -4.190921E+06 -1.152399E+06 -7.928138E+05 -1.375670E+06 -1.384906E-09  6.365140E-10
        50  16 -5.599266E+06 -1.092132E+06 -5.939488E+05 -1.939169E+06  3.820276E-09 -2.115930E-09
        50  17 -5.456171E+06 -1.071571E+06 -7.266135E+05 -2.007202E+06 -4.455526E-09  1.853190E-09
        50  18 -5.598574E+06 -1.826385E+06 -1.207913E+06 -1.899761E+06  6.185915E-10 -4.566864E-09
        50  19 -2.611947E+06 -7.851780E+04  1.904711E+05 -1.243315E+06 -1.626249E+05 -1.875161E+04
        50  20 -2.556524E+06  1.063265E+05  7.186857E+04 -1.134372E+06 -3.326088E+05 -8.054111E+04
        50  21 -2.781020E+06 -4.778342E+05 -3.773991E+05 -8.503101E+05 -4.910743E+05 -1.725566E+05
        50  22 -4.106672E+06 -5.853358E+05 -2.016239E+05 -1.591597E+06 -1.561083E+05 -1.629173E+04
        50  23 -4.007307E+06 -4.827090E+05 -3.271588E+05 -1.571254E+06 -3.365069E+05 -8.199422E+04
        50  24 -4.190636E+06 -1.152296E+06 -7.922703E+05 -1.375597E+06 -5.053825E+05 -1.778933E+05
        50  25 -5.599242E+06 -1.092126E+06 -5.939060E+05 -1.939167E+06 -1.496087E+05 -1.383670E+04
        50  26 -5.456044E+06 -1.071532E+06 -7.263804E+05 -2.007179E+06 -3.403941E+05 -8.344253E+04
        50  27 -5.598273E+06 -1.826275E+06 -1.207337E+06 -1.899683E+06 -5.196533E+05 -1.832076E+05
        51   1  2.133563E+05 -4.071701E+05  2.069843E+05 -1.060306E+03  9.411448E+03  8.848476E+03
        51   2  2.191349E+05 -4.203319E+05  2.019205E+05  8.682555E+02  2.924450E+04  2.765020E+03
        51   3  2.143597E+05 -4.346263E+05  1.983749E+05 -6.335881E+03  2.951588E+04 -3.384245E+03
        51   4 -9.545804E+03 -1.300635E+06 -1.333615E+04 -2.052769E+03  9.464908E+03 -6.762238E+03
        51   5  1.233332E+03 -1.299165E+06 -7.933891E+03  2.530186E+03  2.926775E+04 -2.524711E+03
        51   6 -3.437802E+02 -1.300626E+06 -8.191311E+03 -2.020124E+03  2.949657E+04  1.646989E+03
        51   7 -2.325073E+05 -2.193373E+06 -2.337148E+05 -3.043190E+03  9.518457E+03 -2.235050E+04
        51   8 -2.167242E+05 -2.177288E+06 -2.178426E+05  4.190430E+03  2.929099E+04 -7.806981E+03
        51   9 -2.151015E+05 -2.165936E+06 -2.148102E+05  2.290330E+03  2.947731E+04  6.671231E+03
        51  10  2.133562E+05 -4.071702E+05  2.069840E+05 -1.060373E+03 -1.126622E-08  1.447832E-08
        51  11  2.191340E+05 -4.203322E+05  2.019189E+05  8.681904E+02  1.120563E-08 -6.775749E-10
        51  12  2.143587E+05 -4.346266E+05  1.983732E+05 -6.335800E+03  4.272699E-09 -9.932979E-09
        51  13 -9.545912E+03 -1.300635E+06 -1.333640E+04 -2.052717E+03 -1.851561E-08 -1.293962E-10
        51  14  1.232411E+03 -1.299165E+06 -7.935512E+03  2.530245E+03  6.883472E-10 -2.095434E-09
        51  15 -3.447147E+02 -1.300626E+06 -8.192950E+03 -2.020163E+03 -2.555917E-09 -1.270466E-09
        51  16 -2.325076E+05 -2.193374E+06 -2.337159E+05 -3.043019E+03 -1.285522E-08 -1.524198E-08
        51  17 -2.167251E+05 -2.177289E+06 -2.178443E+05  4.190615E+03  7.182141E-09 -5.763125E-10
        51  18 -2.151024E+05 -2.165936E+06 -2.148119E+05  2.290171E+03  1.456626E-09  1.149635E-08
        51  19  2.133563E+05 -4.071701E+05  2.069843E+05 -1.060306E+03 -9.411448E+03 -8.848476E+03
        51  20  2.191349E+05 -4.203319E+05  2.019205E+05  8.682555E+02 -2.924450E+04 -2.765020E+03
        51  21  2.143597E+05 -4.346263E+05  1.983749E+05 -6.335881E+03 -2.951588E+04  3.384245E+03
        51  22 -9.545804E+03 -1.300635E+06 -1.333615E+04 -2.052769E+03 -9.464908E+03  6.762238E+03
        51  23  1.233332E+03 -1.299165E+06 -7.933891E+03  2.530186E+03 -2.926775E+04  2.524711E+03
        51  24 -3.437802E+02 -1.300626E+06 -8.191311E+03 -2.020124E+03 -2.949657E+04 -1.646989E+03
        51  25 -2.325073E+05 -2.193373E+06 -2.337148E+05 -3.043190E+03 -9.518457E+03  2.235050E+04
        51  26 -2.167242E+05 -2.177288E+06 -2.178426E+05  4.190430E+03 -2.929099E+04  7.806981E+03
        51  27 -2.151015E+05 -2.165936E+06 -2.148102E+05  2.290330E+03 -2.947731E+04 -6.671231E+03
        52   1  2.091574E+05 -4.549163E+05  1.934731E+05 -4.387808E+03  2.655152E+04  4.153604E+03
        52   2  2.063197E+05 -4.715535E+05  1.855271E+05 -1.340413E+02  2.719675E+04  9.059372E+03
        52   3  1.932933E+05 -4.908379E+05  1.719561E+05 -8.703869E+03  2.529093E+04  1.395078E+04
        52   4 -6.371094E+02 -1.300606E+06 -9.014685E+03 -2.839913E+03  2.655872E+04  3.125235E+03
        52   5  1.067530E+03 -1.299164E+06 -1.221308E+04  3.553256E+03  2.719758E+04  9.370167E+03
        52   6 -7.657306E+03 -1.300607E+06 -2.197296E+04 -2.878307E+03  2.528391E+04  1.560086E+04
        52   7 -2.104836E+05 -2.145640E+06 -2.115531E+05 -1.293375E+03  2.656593E+04  2.098261E+03
        52   8 -2.042343E+05 -2.126146E+06 -2.100015E+05  7.236412E+03  2.719842E+04  9.680542E+03
        52   9 -2.086555E+05 -2.109775E+06 -2.159484E+05  2.940459E+03  2.527691E+04  1.724879E+04
        52  10  2.091566E+05 -4.549166E+05  1.934718E+05 -4.387897E+03 -2.502749E-10  1.518107E-09
        52  11  2.063189E+05 -4.715537E+05  1.855255E+05 -1.342397E+02 -3.872065E-10 -2.653386E-09
        52  12  1.932926E+05 -4.908383E+05  1.719545E+05 -8.704153E+03 -1.585279E-09 -1.724764E-09
        52  13 -6.378690E+02 -1.300607E+06 -9.016028E+03 -2.839980E+03  1.361818E-10  1.081765E-10
        52  14  1.066712E+03 -1.299165E+06 -1.221464E+04  3.553050E+03 -1.797303E-10 -2.996193E-09
        52  15 -7.658058E+03 -1.300608E+06 -2.197462E+04 -2.878625E+03 -5.691213E-09 -1.758492E-09
        52  16 -2.104843E+05 -2.145640E+06 -2.115544E+05 -1.293420E+03  2.761050E-09 -2.823679E-09
        52  17 -2.042351E+05 -2.126147E+06 -2.100031E+05  7.236199E+03  5.745205E-09  1.223519E-09
        52  18 -2.086563E+05 -2.109776E+06 -2.159502E+05  2.940107E+03 -1.617370E-09  3.329273E-09
        52  19  2.091574E+05 -4.549163E+05  1.934731E+05 -4.387808E+03 -2.655152E+04 -4.153604E+03
        52  20  2.063197E+05 -4.715535E+05  1.855271E+05 -1.340413E+02 -2.719675E+04 -9.059372E+03
        52  21  1.932933E+05 -4.908379E+05  1.719561E+05 -8.703869E+03 -2.529093E+04 -1.395078E+04
        52  22 -6.371094E+02 -1.300606E+06 -9.014685E+03 -2.839913E+03 -2.655872E+04 -3.125235E+03
        52  23  1.067530E+03 -1.299164E+06 -1.221308E+04  3.553256E+03 -2.719758E+04 -9.370167E+03
        52  24 -7.657306E+03 -1.300607E+06 -2.197296E+04 -2.878307E+03 -2.528391E+04 -1.560086E+04
        52  25 -2.104836E+05 -2.145640E+06 -2.115531E+05 -1.293375E+03 -2.656593E+04 -2.098261E+03
        52  26 -2.042343E+05 -2.126146E+06 -2.100015E+05  7.236412E+03 -2.719842E+04 -9.680542E+03
        52  27 -2.086555E+05 -2.109775E+06 -2.159484E+05  2.940459E+03 -2.527691E+04 -1.724879E+04
        53   1  1.981460E+05 -5.212715E+05  1.603970E+05  3.265880E+03  2.673172E+04  2.310972E+04
        53   2  1.990932E+05 -5.313272E+05  1.397211E+05 -6.330764E+03  2.509832E+04  3.749511E+04
        53   3  1.095016E+05 -5.655574E+05  8.711064E+04 -3.253655E+04  7.655841E+03  5.177186E+04
        53   4  3.834037E+03 -1.305643E+06 -2.662985E+04 -3.534490E+03  2.675347E+04  1.973891E+04
        53   5  1.012813E+04 -1.292841E+06 -4.216629E+04  4.510923E+03  2.506953E+04  4.244348E+04
        53   6 -7.562287E+04 -1.305690E+06 -9.544950E+04 -4.055744E+03  7.568706E+03  6.503929E+04
        53   7 -1.905222E+05 -2.089449E+06 -2.136999E+05 -1.032539E+04  2.677531E+04  1.637232E+04
        53   8 -1.788787E+05 -2.053822E+06 -2.240944E+05  1.534007E+04  2.504090E+04  4.738578E+04
        53   9 -2.607855E+05 -2.045322E+06 -2.780492E+05  2.439186E+04  7.482738E+03  7.829087E+04
        53  10  1.981451E+05 -5.212723E+05  1.603947E+05  3.265382E+03 -2.938123E-09 -1.056842E-09
        53  11  1.990922E+05 -5.313288E+05  1.397173E+05 -6.331522E+03  1.624103E-09 -9.744004E-10
        53  12  1.095008E+05 -5.655603E+05  8.710549E+04 -3.253687E+04 -2.489092E-09  3.991135E-09
        53  13  3.833164E+03 -1.305643E+06 -2.663193E+04 -3.534915E+03 -5.299575E-09 -1.763851E-10
        53  14  1.012697E+04 -1.292843E+06 -4.217086E+04  4.510066E+03 -2.307491E-09 -3.204016E-09
        53  15 -7.562407E+04 -1.305694E+06 -9.545757E+04 -4.056141E+03 -9.503470E-10 -2.267684E-09
        53  16 -1.905230E+05 -2.089449E+06 -2.137017E+05 -1.032575E+04 -5.120520E-09 -9.205513E-10
        53  17 -1.788800E+05 -2.053825E+06 -2.240998E+05  1.533912E+04 -8.061207E-10 -1.403159E-09
        53  18 -2.607872E+05 -2.045328E+06 -2.780609E+05  2.439139E+04  2.084161E-09 -1.642876E-09
        53  19  1.981460E+05 -5.212715E+05  1.603970E+05  3.265880E+03 -2.673172E+04 -2.310972E+04
        53  20  1.990932E+05 -5.313272E+05  1.397211E+05 -6.330764E+03 -2.509832E+04 -3.749511E+04
        53  21  1.095016E+05 -5.655574E+05  8.711064E+04 -3.253655E+04 -7.655841E+03 -5.177186E+04
        53  22  3.834037E+03 -1.305643E+06 -2.662985E+04 -3.534490E+03 -2.675347E+04 -1.973891E+04
        53  23  1.012813E+04 -1.292841E+06 -4.216629E+04  4.510923E+03 -2.506953E+04 -4.244348E+04
        53  24 -7.562287E+04 -1.305690E+06 -9.544950E+04 -4.055744E+03 -7.568706E+03 -6.503929E+04
        53  25 -1.905222E+05 -2.089449E+06 -2.136999E+05 -1.032539E+04 -2.677531E+04 -1.637232E+04
        53  26 -1.788787E+05 -2.053822E+06 -2.240944E+05  1.534007E+04 -2.504090E+04 -4.738578E+04
        53  27 -2.607855E+05 -2.045322E+06 -2.780492E+05  2.439186E+04 -7.482738E+03 -7.829087E+04
        54   1  6.860587E+04  7.531869E+05  3.907895E+04 -1.173730E+02  2.400630E+04 -4.222250E+02
        54   2  6.869364E+04  7.532404E+05  3.958280E+04 -8.985628E+01  2.392229E+04 -1.084743E+03
        54   3  6.894342E+04  7.534256E+05  4.055966E+04 -5.377561E+01  2.372977E+04 -1.747321E+03
        54   4 -1.988229E+01  4.484617E+05  4.608038E+02  1.896469E+00  2.400752E+04 -3.501226E+02
        54   5  1.738054E+01  4.484184E+05  8.088151E+02 -2.356291E+00  2.392341E+04 -7.517608E+02
        54   6  1.714458E+02  4.484615E+05  1.448932E+03  1.954777E+00  2.373076E+04 -1.153455E+03
        54   7 -6.864943E+04  1.438317E+05 -3.815766E+04  1.211117E+02  2.400874E+04 -2.780536E+02
        54   8 -6.866268E+04  1.436916E+05 -3.796552E+04  8.510668E+01  2.392453E+04 -4.189339E+02
        54   9 -6.860436E+04  1.435927E+05 -3.766221E+04  5.766539E+01  2.373175E+04 -5.598657E+02
        54  10  6.860525E+04  7.531867E+05  3.907787E+04 -1.173648E+02  7.584295E-10  4.759944E-09
        54  11  6.869303E+04  7.532403E+05  3.958172E+04 -8.983538E+01 -9.358396E-10  9.265593E-10
        54  12  6.894282E+04  7.534254E+05  4.055859E+04 -5.374223E+01 -4.088259E-09 -1.437887E-09
        54  13 -2.050137E+01  4.484615E+05  4.597202E+02  1.903238E+00 -4.129201E-10  3.498554E-10
        54  14  1.676568E+01  4.484182E+05  8.077382E+02 -2.341809E+00 -3.510502E-09 -7.941696E-10
        54  15  1.708406E+02  4.484614E+05  1.447871E+03  1.976819E+00  2.966310E-10  3.847883E-10
        54  16 -6.865005E+04  1.438316E+05 -3.815875E+04  1.211171E+02 -3.571679E-10 -5.249179E-09
        54  17 -6.866330E+04  1.436915E+05 -3.796659E+04  8.511475E+01 -5.871287E-09 -1.157395E-09
        54  18 -6.860497E+04  1.435926E+05 -3.766327E+04  5.767609E+01 -2.277634E-09  1.554927E-09
        54  19  6.860587E+04  7.531869E+05  3.907895E+04 -1.173730E+02 -2.400630E+04  4.222250E+02
        54  20  6.869364E+04  7.532404E+05  3.958280E+04 -8.985628E+01 -2.392229E+04  1.084743E+03
        54  21  6.894342E+04  7.534256E+05  4.055966E+04 -5.377561E+01 -2.372977E+04  1.747321E+03
        54  22 -1.988229E+01  4.484617E+05  4.608038E+02  1.896469E+00 -2.400752E+04  3.501226E+02
        54  23  1.738054E+01  4.484184E+05  8.088151E+02 -2.356291E+00 -2.392341E+04  7.517608E+02
        54  24  1.714458E+02  4.484615E+05  1.448932E+03  1.954777E+00 -2.373076E+04  1.153455E+03
        54  25 -6.864943E+04  1.438317E+05 -3.815766E+04  1.211117E+02 -2.400874E+04  2.780536E+02
        54  26 -6.866268E+04  1.436916E+05 -3.796552E+04  8.510668E+01 -2.392453E+04  4.189339E+02
        54  27 -6.860436E+04  1.435927E+05 -3.766221E+04  5.766539E+01 -2.373175E+04  5.598657E+02
        55   1  6.909849E+04  7.536661E+05  4.126072E+04 -1.486121E+02  2.360817E+04 -2.093098E+03
        55   2  6.992635E+04  7.533900E+05  4.382933E+04  6.847558E+02  2.293213E+04 -5.759010E+03
        55   3  7.230103E+04  7.539821E+05  4.917060E+04  1.472783E+03  2.144734E+04 -9.425397E+03
        55   4  2.530038E+02  4.485604E+05  1.924351E+03 -1.011275E+01  2.360911E+04 -1.436248E+03
        55   5  8.723981E+02  4.482943E+05  3.436527E+03  1.305778E+01  2.293211E+04 -3.158437E+03
        55   6  2.701829E+03  4.485596E+05  6.373155E+03 -9.117413E+00  2.144616E+04 -4.881089E+03
        55   7 -6.859634E+04  1.435500E+05 -3.741248E+04  1.283247E+02  2.361005E+04 -7.797039E+02
        55   8 -6.818549E+04  1.432936E+05 -3.695695E+04 -6.582847E+02  2.293208E+04 -5.590815E+02
        55   9 -6.690151E+04  1.432317E+05 -3.642541E+04 -1.490247E+03  2.144496E+04 -3.389167E+02
        55  10  6.909789E+04  7.536659E+05  4.125967E+04 -1.485723E+02 -2.039517E-10 -9.732363E-10
        55  11  6.992578E+04  7.533898E+05  4.382828E+04  6.848621E+02 -1.015195E-09  3.550371E-10
        55  12  7.230052E+04  7.539819E+05  4.916956E+04  1.472946E+03  9.288146E-10  3.719516E-09
        55  13  2.524046E+02  4.485603E+05  1.923300E+03 -1.008545E+01 -2.135244E-10  4.287497E-10
        55  14  8.718306E+02  4.482942E+05  3.435520E+03  1.311611E+01  1.741839E-09 -9.937344E-10
        55  15  2.701328E+03  4.485595E+05  6.372246E+03 -9.033120E+00 -5.340552E-10  5.627814E-10
        55  16 -6.859694E+04  1.435499E+05 -3.741353E+04  1.283396E+02  7.543190E-10  2.709064E-10
        55  17 -6.818606E+04  1.432935E+05 -3.695794E+04 -6.582744E+02  3.745830E-09 -7.453148E-10
        55  18 -6.690201E+04  1.432315E+05 -3.642628E+04 -1.490241E+03  2.597276E-10 -3.550722E-09
        55  19  6.909849E+04  7.536661E+05  4.126072E+04 -1.486121E+02 -2.360817E+04  2.093098E+03
        55  20  6.992635E+04  7.533900E+05  4.382933E+04  6.847558E+02 -2.293213E+04  5.759010E+03
        55  21  7.230103E+04  7.539821E+05  4.917060E+04  1.472783E+03 -2.144734E+04  9.425397E+03
        55  22  2.530038E+02  4.485604E+05  1.924351E+03 -1.011275E+01 -2.360911E+04  1.436248E+03
        55  23  8.723981E+02  4.482943E+05  3.436527E+03  1.305778E+01 -2.293211E+04  3.158437E+03
        55  24  2.701829E+03  4.485596E+05  6.373155E+03 -9.117413E+00 -2.144616E+04  4.881089E+03
        55  25 -6.859634E+04  1.435500E+05 -3.741248E+04  1.283247E+02 -2.361005E+04  7.797039E+02
        55  26 -6.818549E+04  1.432936E+05 -3.695695E+04 -6.582847E+02 -2.293208E+04  5.590815E+02
        55  27 -6.690151E+04  1.432317E+05 -3.642541E+04 -1.490247E+03 -2.144496E+04  3.389167E+02
        56   1  7.374999E+04  7.552961E+05  5.294514E+04  9.160806E+02  2.050922E+04 -1.101467E+04
        56   2  8.201742E+04  7.522616E+05  6.788392E+04  1.067003E+04  1.543786E+04 -3.344981E+04
        56   3  1.047377E+05  7.557618E+05  1.010312E+05  1.994032E+04  4.378835E+03 -5.588919E+04
        56   4  3.723400E+03  4.493396E+05  8.546796E+03 -1.074837E+02  2.050762E+04 -5.993624E+03
        56   5  1.066757E+04  4.473164E+05  1.579565E+04  1.410232E+02  1.542823E+04 -1.404272E+04
        56   6  2.957217E+04  4.493340E+05  3.127184E+04 -9.426217E+01  4.360514E+03 -2.209572E+04
        56   7 -6.630747E+04  1.434775E+05 -3.585299E+04 -1.130511E+03  2.050600E+04 -9.749500E+02
        56   8 -6.068661E+04  1.424635E+05 -3.629423E+04 -1.038264E+04  1.541794E+04  5.355154E+03
        56   9 -4.559776E+04  1.429965E+05 -3.848912E+04 -2.011887E+04  4.340010E+03  1.168125E+04
        56  10  7.374950E+04  7.552959E+05  5.294412E+04  9.162624E+02  2.459315E-10  4.989467E-09
        56  11  8.201687E+04  7.522604E+05  6.788137E+04  1.067045E+04 -9.975498E-10 -7.227649E-10
        56  12  1.047369E+05  7.557584E+05  1.010253E+05  1.994052E+04 -9.174709E-10 -4.031093E-09
        56  13  3.722939E+03  4.493395E+05  8.545938E+03 -1.073848E+02 -1.532518E-09  6.068821E-10
        56  14  1.066726E+04  4.473161E+05  1.579484E+04  1.411976E+02  6.963880E-09 -1.189294E-09
        56  15  2.957202E+04  4.493335E+05  3.127089E+04 -9.418459E+01  1.590758E-09  7.747097E-10
        56  16 -6.630792E+04  1.434774E+05 -3.585378E+04 -1.130495E+03  2.934555E-09 -5.833034E-09
        56  17 -6.068687E+04  1.424634E+05 -3.629473E+04 -1.038271E+04  2.609985E-09  3.571754E-10
        56  18 -4.559782E+04  1.429964E+05 -3.848941E+04 -2.011891E+04  4.368364E-09  4.237278E-09
        56  19  7.374999E+04  7.552961E+05  5.294514E+04  9.160806E+02 -2.050922E+04  1.101467E+04
        56  20  8.201742E+04  7.522616E+05  6.788392E+04  1.067003E+04 -1.543786E+04  3.344981E+04
        56  21  1.047377E+05  7.557618E+05  1.010312E+05  1.994032E+04 -4.378835E+03  5.588919E+04
        56  22  3.723400E+03  4.493396E+05  8.546796E+03 -1.074837E+02 -2.050762E+04  5.993624E+03
        56  23  1.066757E+04  4.473164E+05  1.579565E+04  1.410232E+02 -1.542823E+04  1.404272E+04
        56  24  2.957217E+04  4.493340E+05  3.127184E+04 -9.426217E+01 -4.360514E+03  2.209572E+04
        56  25 -6.630747E+04  1.434775E+05 -3.585299E+04 -1.130511E+03 -2.050600E+04  9.749500E+02
        56  26 -6.068661E+04  1.424635E+05 -3.629423E+04 -1.038264E+04 -1.541794E+04 -5.355154E+03
        56  27 -4.559776E+04  1.429965E+05 -3.848912E+04 -2.011887E+04 -4.340010E+03 -1.168125E+04
        57   1 -9.172512E+06 -2.682187E+06 -1.654761E+06 -3.190460E+06 -8.252578E+05 -2.996945E+05
        57   2 -8.964372E+06 -1.491530E+06 -8.914666E+05 -3.392380E+06 -5.357374E+05 -1.610437E+05
        57   3 -9.252408E+06 -1.527215E+06 -6.882514E+05 -3.277375E+06 -2.358636E+05 -4.966011E+04
        57   4 -7.986361E+06 -2.011909E+06 -1.283183E+06 -2.646677E+06 -8.126765E+05 -2.952718E+05
        57   5 -7.671271E+06 -9.402504E+05 -5.287230E+05 -2.978990E+06 -5.323658E+05 -1.598350E+05
        57   6 -7.849587E+06 -1.091621E+06 -3.261220E+05 -2.994681E+06 -2.416577E+05 -5.180871E+04
        57   7 -6.798715E+06 -1.340950E+06 -9.117458E+05 -2.101774E+06 -8.000672E+05 -2.908268E+05
        57   8 -6.376526E+06 -3.887461E+05 -1.661403E+05 -2.564767E+06 -5.289853E+05 -1.586219E+05
        57   9 -6.444836E+06 -6.560489E+05  3.585285E+04 -2.711472E+06 -2.474658E+05 -5.396037E+04
        57  10 -9.173278E+06 -2.682471E+06 -1.656234E+06 -3.190661E+06 -3.260073E-09  1.038275E-09
        57  11 -8.964691E+06 -1.491637E+06 -8.920646E+05 -3.392451E+06  6.075956E-10 -2.956008E-10
        57  12 -9.252469E+06 -1.527233E+06 -6.883624E+05 -3.277384E+06 -1.759428E-09  1.203806E-09
        57  13 -7.987102E+06 -2.012184E+06 -1.284609E+06 -2.646872E+06  4.759567E-09 -2.131653E-09
        57  14 -7.671585E+06 -9.403556E+05 -5.293120E+05 -2.979059E+06  6.558685E-09 -1.978424E-09
        57  15 -7.849651E+06 -1.091640E+06 -3.262384E+05 -2.994691E+06  2.696110E-09  8.680370E-10
        57  16 -6.799432E+06 -1.341216E+06 -9.131242E+05 -2.101963E+06 -4.407457E-09  6.101715E-10
        57  17 -6.376835E+06 -3.888497E+05 -1.667204E+05 -2.564835E+06  1.603413E-09  2.423345E-10
        57  18 -6.444903E+06 -6.560688E+05  3.573085E+04 -2.711483E+06  1.350378E-09  1.398034E-09
        57  19 -9.172512E+06 -2.682187E+06 -1.654761E+06 -3.190460E+06  8.252578E+05  2.996945E+05
        57  20 -8.964372E+06 -1.491530E+06 -8.914666E+05 -3.392380E+06  5.357374E+05  1.610437E+05
        57  21 -9.252408E+06 -1.527215E+06 -6.882514E+05 -3.277375E+06  2.358636E+05  4.966011E+04
        57  22 -7.986361E+06 -2.011909E+06 -1.283183E+06 -2.646677E+06  8.126765E+05  2.952718E+05
        57  23 -7.671271E+06 -9.402504E+05 -5.287230E+05 -2.978990E+06  5.323658E+05  1.598350E+05
        57  24 -7.849587E+06 -1.091621E+06 -3.261220E+05 -2.994681E+06  2.416577E+05  5.180871E+04
        57  25 -6.798715E+06 -1.340950E+06 -9.117458E+05 -2.101774E+06  8.000672E+05  2.908268E+05
        57  26 -6.376526E+06 -3.887461E+05 -1.661403E+05 -2.564767E+06  5.289853E+05  1.586219E+05
        57  27 -6.444836E+06 -6.560489E+05  3.585285E+04 -2.711472E+06  2.474658E+05  5.396037E+04
        58   1 -9.009909E+06 -1.734198E+06 -6.027275E+05 -3.286172E+06 -1.931411E+05 -3.887046E+04
        58   2 -8.931615E+06 -1.519112E+06 -4.366646E+05 -3.251986E+06 -1.265654E+05 -1.367318E+04
        58   3 -8.853566E+06 -1.523898E+06 -3.626529E+05 -3.251154E+06 -5.834664E+04  7.163622E+03
        58   4 -7.795159E+06 -1.247199E+06 -2.669942E+05 -2.929400E+06 -1.925904E+05 -3.867751E+04
        58   5 -7.786590E+06 -1.078807E+06 -1.244531E+05 -2.934655E+06 -1.274379E+05 -1.400688E+04
        58   6 -7.777865E+06 -1.129808E+06 -7.267853E+04 -2.973286E+06 -6.065243E+04  6.298571E+03
        58   7 -6.578962E+06 -7.600647E+05  6.860223E+04 -2.571970E+06 -1.920381E+05 -3.848389E+04
        58   8 -6.640284E+06 -6.384146E+05  1.876392E+05 -2.616784E+06 -1.283121E+05 -1.434120E+04
        58   9 -6.701038E+06 -7.356695E+05  2.171929E+05 -2.694985E+06 -6.296261E+04  5.432004E+03
        58  10 -9.009950E+06 -1.734210E+06 -6.028017E+05 -3.286178E+06 -1.420732E-09  1.803902E-09
        58  11 -8.931632E+06 -1.519117E+06 -4.366955E+05 -3.251987E+06  1.387417E-09 -1.995684E-09
        58  12 -8.853570E+06 -1.523899E+06 -3.626595E+05 -3.251154E+06 -2.801865E-09 -1.815703E-09
        58  13 -7.795199E+06 -1.247211E+06 -2.670677E+05 -2.929406E+06  3.316932E-09  6.569406E-10
        58  14 -7.786607E+06 -1.078812E+06 -1.244844E+05 -2.934657E+06 -8.398376E-09 -2.182209E-09
        58  15 -7.777869E+06 -1.129809E+06 -7.268560E+04 -2.973286E+06 -5.738474E-09 -1.812843E-09
        58  16 -6.579002E+06 -7.600764E+05  6.852929E+04 -2.571976E+06  2.675371E-09  6.289713E-10
        58  17 -6.640302E+06 -6.384193E+05  1.876075E+05 -2.616785E+06  5.863178E-10 -7.309506E-10
        58  18 -6.701042E+06 -7.356706E+05  2.171854E+05 -2.694985E+06 -3.087317E-09 -9.878480E-10
        58  19 -9.009909E+06 -1.734198E+06 -6.027275E+05 -3.286172E+06  1.931411E+05  3.887046E+04
        58  20 -8.931615E+06 -1.519112E+06 -4.366646E+05 -3.251986E+06  1.265654E+05  1.367318E+04
        58  21 -8.853566E+06 -1.523898E+06 -3.626529E+05 -3.251154E+06  5.834664E+04 -7.163622E+03
        58  22 -7.795159E+06 -1.247199E+06 -2.669942E+05 -2.929400E+06  1.925904E+05  3.867751E+04
        58  23 -7.786590E+06 -1.078807E+06 -1.244531E+05 -2.934655E+06  1.274379E+05  1.400688E+04
        58  24 -7.777865E+06 -1.129808E+06 -7.267853E+04 -2.973286E+06  6.065243E+04 -6.298571E+03
        58  25 -6.578962E+06 -7.600647E+05  6.860223E+04 -2.571970E+06  1.920381E+05  3.848389E+04
        58  26 -6.640284E+06 -6.384146E+05  1.876392E+05 -2.616784E+06  1.283121E+05  1.434120E+04
        58  27 -6.701038E+06 -7.356695E+05  2.171929E+05 -2.694985E+06  6.296261E+04 -5.432004E+03
        59   1 -8.581504E+06 -1.469654E+06 -2.798753E+05 -3.198448E+06 -4.741131E+04  7.624906E+03
        59   2 -8.490166E+06 -1.343037E+06 -2.132622E+05 -3.101263E+06 -3.036115E+04  8.487896E+03
        59   3 -8.299638E+06 -1.343874E+06 -1.632873E+05 -3.123191E+06 -1.285238E+04  8.098697E+03
        59   4 -7.762604E+06 -1.157549E+06 -5.745308E+04 -2.974232E+06 -4.894316E+04  7.050043E+03
        59   5 -7.811112E+06 -1.086275E+06 -2.898473E+04 -2.917485E+06 -3.231797E+04  7.756670E+03
        59   6 -7.760358E+06 -1.142346E+06 -1.679394E+04 -2.979853E+06 -1.523819E+04  7.210281E+03
        59   7 -6.943050E+06 -8.454024E+05  1.649079E+05 -2.749744E+06 -5.047724E+04  6.474339E+03
        59   8 -7.131609E+06 -8.294852E+05  1.552511E+05 -2.733524E+06 -3.427715E+04  7.024559E+03
        59   9 -7.220794E+06 -9.408024E+05  1.296735E+05 -2.836402E+06 -1.762631E+04  6.321023E+03
        59  10 -8.581507E+06 -1.469655E+06 -2.798796E+05 -3.198448E+06 -2.247650E-09 -2.022864E-09
        59  11 -8.490167E+06 -1.343038E+06 -2.132641E+05 -3.101263E+06 -2.428070E-09 -4.904085E-09
        59  12 -8.299638E+06 -1.343874E+06 -1.632877E+05 -3.123191E+06 -4.343204E-09 -1.471430E-09
        59  13 -7.762606E+06 -1.157550E+06 -5.745772E+04 -2.974231E+06 -4.374973E-09 -2.238036E-09
        59  14 -7.811113E+06 -1.086275E+06 -2.898682E+04 -2.917485E+06  1.257718E-09 -2.357441E-09
        59  15 -7.760358E+06 -1.142346E+06 -1.679447E+04 -2.979853E+06 -4.856974E-09 -1.805006E-09
        59  16 -6.943053E+06 -8.454031E+05  1.649030E+05 -2.749743E+06 -2.404621E-09 -9.708090E-10
        59  17 -7.131610E+06 -8.294855E+05  1.552488E+05 -2.733524E+06 -1.756375E-09 -2.181783E-09
        59  18 -7.220794E+06 -9.408025E+05  1.296728E+05 -2.836402E+06 -3.055034E-09 -1.287446E-09
        59  19 -8.581504E+06 -1.469654E+06 -2.798753E+05 -3.198448E+06  4.741131E+04 -7.624906E+03
        59  20 -8.490166E+06 -1.343037E+06 -2.132622E+05 -3.101263E+06  3.036115E+04 -8.487896E+03
        59  21 -8.299638E+06 -1.343874E+06 -1.632873E+05 -3.123191E+06  1.285238E+04 -8.098697E+03
        59  22 -7.762604E+06 -1.157549E+06 -5.745308E+04 -2.974232E+06  4.894316E+04 -7.050043E+03
        59  23 -7.811112E+06 -1.086275E+06 -2.898473E+04 -2.917485E+06  3.231797E+04 -7.756670E+03
        59  24 -7.760358E+06 -1.142346E+06 -1.679394E+04 -2.979853E+06  1.523819E+04 -7.210281E+03
        59  25 -6.943050E+06 -8.454024E+05  1.649079E+05 -2.749744E+06  5.047724E+04 -6.474339E+03
        59  26 -7.131609E+06 -8.294852E+05  1.552511E+05 -2.733524E+06  3.427715E+04 -7.024559E+03
        59  27 -7.220794E+06 -9.408024E+05  1.296735E+05 -2.836402E+06  1.762631E+04 -6.321023E+03
        60   1 -7.960598E+06 -1.225723E+06 -6.828643E+04 -3.038444E+06 -9.081505E+03  5.115055E+03
        60   2 -7.857634E+06 -1.099127E+06 -1.892174E+04 -2.922467E+06 -2.646488E+03  1.961133E+02
        60   3 -7.631917E+06 -1.100034E+06  2.656709E+04 -2.949963E+06  3.820036E+03 -4.806746E+03
        60   4 -7.755918E+06 -1.148428E+06 -1.334306E+04 -2.982984E+06 -1.135224E+04  4.270575E+03
        60   5 -7.817162E+06 -1.083859E+06 -7.949717E+03 -2.911545E+06 -4.946155E+03 -6.590168E+02
        60   6 -7.755673E+06 -1.146788E+06 -6.405171E+03 -2.983586E+06  1.490212E+03 -5.672865E+03
        60   7 -7.551196E+06 -1.071130E+06  4.159660E+04 -2.927508E+06 -1.362381E+04  3.425784E+03
        60   8 -7.776688E+06 -1.068591E+06  3.022165E+03 -2.900621E+06 -7.245986E+03 -1.514208E+03
        60   9 -7.879412E+06 -1.193541E+06 -3.937868E+04 -3.017203E+06 -8.390923E+02 -6.538788E+03
        60  10 -7.960598E+06 -1.225723E+06 -6.828663E+04 -3.038444E+06  3.315621E-10  1.451381E-09
        60  11 -7.857634E+06 -1.099127E+06 -1.892175E+04 -2.922467E+06  1.239905E-09  2.569391E-09
        60  12 -7.631917E+06 -1.100034E+06  2.656702E+04 -2.949963E+06 -1.298092E-09  2.467376E-09
        60  13 -7.755918E+06 -1.148428E+06 -1.334334E+04 -2.982984E+06 -3.517773E-09  9.393264E-10
        60  14 -7.817162E+06 -1.083859E+06 -7.949764E+03 -2.911545E+06 -1.778895E-09 -2.199665E-09
        60  15 -7.755673E+06 -1.146788E+06 -6.405236E+03 -2.983586E+06  1.818043E-09  7.367976E-10
        60  16 -7.551196E+06 -1.071130E+06  4.159623E+04 -2.927508E+06 -4.041531E-09  4.048191E-09
        60  17 -7.776688E+06 -1.068591E+06  3.022061E+03 -2.900621E+06  1.894296E-09  1.944886E-09
        60  18 -7.879412E+06 -1.193541E+06 -3.937877E+04 -3.017203E+06  2.135962E-09  8.485773E-12
        60  19 -7.960598E+06 -1.225723E+06 -6.828643E+04 -3.038444E+06  9.081505E+03 -5.115055E+03
        60  20 -7.857634E+06 -1.099127E+06 -1.892174E+04 -2.922467E+06  2.646488E+03 -1.961133E+02
        60  21 -7.631917E+06 -1.100034E+06  2.656709E+04 -2.949963E+06 -3.820036E+03  4.806746E+03
        60  22 -7.755918E+06 -1.148428E+06 -1.334306E+04 -2.982984E+06  1.135224E+04 -4.270575E+03
        60  23 -7.817162E+06 -1.083859E+06 -7.949717E+03 -2.911545E+06  4.946155E+03  6.590168E+02
        60  24 -7.755673E+06 -1.146788E+06 -6.405171E+03 -2.983586E+06 -1.490212E+03  5.672865E+03
        60  25 -7.551196E+06 -1.071130E+06  4.159660E+04 -2.927508E+06  1.362381E+04 -3.425784E+03
        60  26 -7.776688E+06 -1.068591E+06  3.022165E+03 -2.900621E+06  7.245986E+03  1.514208E+03
        60  27 -7.879412E+06 -1.193541E+06 -3.937868E+04 -3.017203E+06  8.390923E+02  6.538788E+03
        61   1 -7.295653E+06 -9.696282E+05  1.196352E+05 -2.855844E+06  6.334748E+03 -8.288459E+03
        61   2 -7.204796E+06 -8.581924E+05  1.570088E+05 -2.751706E+06  1.236004E+04 -1.310603E+04
        61   3 -7.003533E+06 -8.605515E+05  1.910268E+05 -2.774953E+06  1.806687E+04 -1.703350E+04
        61   4 -7.758480E+06 -1.143676E+06 -6.331816E+03 -2.980072E+06  3.969635E+03 -9.168632E+03
        61   5 -7.813800E+06 -1.087779E+06 -8.012702E+03 -2.915989E+06  1.030708E+04 -1.387232E+04
        61   6 -7.758796E+06 -1.145751E+06 -1.330042E+04 -2.979309E+06  1.632491E+04 -1.768577E+04
        61   7 -8.221100E+06 -1.317713E+06 -1.323185E+05 -3.104216E+06  1.606477E+03 -1.004808E+04
        61   8 -8.422445E+06 -1.317344E+06 -1.730678E+05 -3.080124E+06  8.256356E+03 -1.463778E+04
        61   9 -8.513504E+06 -1.430918E+06 -2.176790E+05 -3.183438E+06  1.458529E+04 -1.833716E+04
        61  10 -7.295653E+06 -9.696283E+05  1.196350E+05 -2.855844E+06  4.619864E-09 -1.299429E-10
        61  11 -7.204796E+06 -8.581927E+05  1.570082E+05 -2.751706E+06 -1.120918E-10 -3.800949E-09
        61  12 -7.003533E+06 -8.605519E+05  1.910257E+05 -2.774953E+06 -2.758144E-09  2.213406E-09
        61  13 -7.758480E+06 -1.143676E+06 -6.332003E+03 -2.980072E+06  5.866747E-12 -2.674858E-09
        61  14 -7.813801E+06 -1.087779E+06 -8.013262E+03 -2.915989E+06 -9.974617E-10  3.038753E-09
        61  15 -7.758797E+06 -1.145752E+06 -1.330150E+04 -2.979309E+06  1.413180E-09  4.312970E-09
        61  16 -8.221100E+06 -1.317713E+06 -1.323187E+05 -3.104216E+06 -5.225786E-09 -5.573151E-09
        61  17 -8.422445E+06 -1.317344E+06 -1.730684E+05 -3.080124E+06 -6.050461E-10 -3.156155E-09
        61  18 -8.513504E+06 -1.430918E+06 -2.176800E+05 -3.183438E+06  2.140548E-09 -5.047451E-11
        61  19 -7.295653E+06 -9.696282E+05  1.196352E+05 -2.855844E+06 -6.334748E+03  8.288459E+03
        61  20 -7.204796E+06 -8.581924E+05  1.570088E+05 -2.751706E+06 -1.236004E+04  1.310603E+04
        61  21 -7.003533E+06 -8.605515E+05  1.910268E+05 -2.774953E+06 -1.806687E+04  1.703350E+04
        61  22 -7.758480E+06 -1.143676E+06 -6.331816E+03 -2.980072E+06 -3.969635E+03  9.168632E+03
        61  23 -7.813800E+06 -1.087779E+06 -8.012702E+03 -2.915989E+06 -1.030708E+04  1.387232E+04
        61  24 -7.758796E+06 -1.145751E+06 -1.330042E+04 -2.979309E+06 -1.632491E+04  1.768577E+04
        61  25 -8.221100E+06 -1.317713E+06 -1.323185E+05 -3.104216E+06 -1.606477E+03  1.004808E+04
        61  26 -8.422445E+06 -1.317344E+06 -1.730678E+05 -3.080124E+06 -8.256356E+03  1.463778E+04
        61  27 -8.513504E+06 -1.430918E+06 -2.176790E+05 -3.183438E+06 -1.458529E+04  1.833716E+04
        62   1 -6.751400E+06 -7.519424E+05  2.591546E+05 -2.696857E+06  2.178238E+04 -1.906917E+04
        62   2 -6.694335E+06 -6.774346E+05  2.713117E+05 -2.628591E+06  3.762559E+04 -1.817553E+04
        62   3 -6.572934E+06 -6.924740E+05  2.682441E+05 -2.635571E+06  5.280252E+04 -1.546233E+04
        62   4 -7.768321E+06 -1.134271E+06 -1.666380E+04 -2.970070E+06  1.987375E+04 -1.978583E+04
        62   5 -7.801550E+06 -1.096997E+06 -2.905091E+04 -2.929621E+06  3.633831E+04 -1.866257E+04
        62   6 -7.770589E+06 -1.149431E+06 -5.718197E+04 -2.964427E+06  5.213374E+04 -1.571917E+04
        62   7 -8.784235E+06 -1.516542E+06 -2.925749E+05 -3.242876E+06  1.796859E+04 -2.050121E+04
        62   8 -8.907572E+06 -1.516488E+06 -3.295242E+05 -3.230160E+06  3.505355E+04 -1.914867E+04
        62   9 -8.966849E+06 -1.606299E+06 -3.827387E+05 -3.292703E+06  5.146632E+04 -1.597549E+04
        62  10 -6.751401E+06 -7.519429E+05  2.591530E+05 -2.696857E+06  1.492835E-09  2.934687E-09
        62  11 -6.694337E+06 -6.774353E+05  2.713084E+05 -2.628591E+06 -3.370017E-09 -3.014778E-09
        62  12 -6.572937E+06 -6.924750E+05  2.682384E+05 -2.635570E+06 -6.328769E-09 -2.766747E-09
        62  13 -7.768322E+06 -1.134272E+06 -1.666528E+04 -2.970070E+06  1.067481E-09  3.591042E-09
        62  14 -7.801552E+06 -1.096998E+06 -2.905406E+04 -2.929620E+06 -1.179363E-09 -1.079194E-09
        62  15 -7.770592E+06 -1.149432E+06 -5.718758E+04 -2.964427E+06 -2.789603E-09 -2.318231E-09
        62  16 -8.784235E+06 -1.516543E+06 -2.925763E+05 -3.242875E+06 -5.210429E-10  8.652884E-10
        62  17 -8.907573E+06 -1.516489E+06 -3.295272E+05 -3.230159E+06 -2.462745E-09 -9.520504E-10
        62  18 -8.966852E+06 -1.606300E+06 -3.827442E+05 -3.292702E+06  5.257547E-10 -9.608422E-10
        62  19 -6.751400E+06 -7.519424E+05  2.591546E+05 -2.696857E+06 -2.178238E+04  1.906917E+04
        62  20 -6.694335E+06 -6.774346E+05  2.713117E+05 -2.628591E+06 -3.762559E+04  1.817553E+04
        62  21 -6.572934E+06 -6.924740E+05  2.682441E+05 -2.635571E+06 -5.280252E+04  1.546233E+04
        62  22 -7.768321E+06 -1.134271E+06 -1.666380E+04 -2.970070E+06 -1.987375E+04  1.978583E+04
        62  23 -7.801550E+06 -1.096997E+06 -2.905091E+04 -2.929621E+06 -3.633831E+04  1.866257E+04
        62  24 -7.770589E+06 -1.149431E+06 -5.718197E+04 -2.964427E+06 -5.213374E+04  1.571917E+04
        62  25 -8.784235E+06 -1.516542E+06 -2.925749E+05 -3.242876E+06 -1.796859E+04  2.050121E+04
        62  26 -8.907572E+06 -1.516488E+06 -3.295242E+05 -3.230160E+06 -3.505355E+04  1.914867E+04
        62  27 -8.966849E+06 -1.606299E+06 -3.827387E+05 -3.292703E+06 -5.146632E+04  1.597549E+04
        63   1 -6.462503E+06 -6.276485E+05  2.854235E+05 -2.611243E+06  6.456569E+04 -1.290090E+04
        63   2 -6.444970E+06 -5.819428E+05  2.376482E+05 -2.581498E+06  1.287769E+05  9.588502E+03
        63   3 -6.477826E+06 -7.020147E+05  1.009238E+05 -2.525060E+06  1.914124E+05  3.623779E+04
        63   4 -7.789267E+06 -1.118584E+06 -7.241469E+04 -2.959869E+06  6.320511E+04 -1.341830E+04
        63   5 -7.772575E+06 -1.093618E+06 -1.241114E+05 -2.951299E+06  1.287620E+05  9.575216E+03
        63   6 -7.806680E+06 -1.234918E+06 -2.659839E+05 -2.916005E+06  1.927413E+05  3.672753E+04
        63   7 -9.114318E+06 -1.609436E+06 -4.304099E+05 -3.307823E+06  6.184765E+04 -1.393460E+04
        63   8 -9.098460E+06 -1.605174E+06 -4.860311E+05 -3.320370E+06  1.287469E+05  9.561833E+03
        63   9 -9.133807E+06 -1.767659E+06 -6.330554E+05 -3.306164E+06  1.940667E+05  3.721574E+04
        63  10 -6.462508E+06 -6.276498E+05  2.854153E+05 -2.611242E+06 -5.143492E-10 -9.534221E-10
        63  11 -6.444988E+06 -5.819474E+05  2.376165E+05 -2.581499E+06 -1.641844E-09 -7.472868E-10
        63  12 -6.477866E+06 -7.020261E+05  1.008517E+05 -2.525065E+06  6.601880E-11 -1.634231E-09
        63  13 -7.789271E+06 -1.118585E+06 -7.242261E+04 -2.959868E+06 -2.000080E-09 -1.605709E-09
        63  14 -7.772593E+06 -1.093623E+06 -1.241431E+05 -2.951300E+06  3.330593E-09 -1.466682E-09
        63  15 -7.806721E+06 -1.234929E+06 -2.660572E+05 -2.916011E+06 -1.439360E-09  2.010796E-09
        63  16 -9.114322E+06 -1.609438E+06 -4.304175E+05 -3.307822E+06  8.170563E-10 -1.226863E-09
        63  17 -9.098478E+06 -1.605178E+06 -4.860629E+05 -3.320371E+06  1.778253E-10 -2.443145E-09
        63  18 -9.133848E+06 -1.767671E+06 -6.331300E+05 -3.306170E+06  3.709743E-10 -2.337638E-09
        63  19 -6.462503E+06 -6.276485E+05  2.854235E+05 -2.611243E+06 -6.456569E+04  1.290090E+04
        63  20 -6.444970E+06 -5.819428E+05  2.376482E+05 -2.581498E+06 -1.287769E+05 -9.588502E+03
        63  21 -6.477826E+06 -7.020147E+05  1.009238E+05 -2.525060E+06 -1.914124E+05 -3.623779E+04
        63  22 -7.789267E+06 -1.118584E+06 -7.241469E+04 -2.959869E+06 -6.320511E+04  1.341830E+04
        63  23 -7.772575E+06 -1.093618E+06 -1.241114E+05 -2.951299E+06 -1.287620E+05 -9.575216E+03
        63  24 -7.806680E+06 -1.234918E+06 -2.659839E+05 -2.916005E+06 -1.927413E+05 -3.672753E+04
        63  25 -9.114318E+06 -1.609436E+06 -4.304099E+05 -3.307823E+06 -6.184765E+04  1.393460E+04
        63  26 -9.098460E+06 -1.605174E+06 -4.860311E+05 -3.320370E+06 -1.287469E+05 -9.561833E+03
        63  27 -9.133807E+06 -1.767659E+06 -6.330554E+05 -3.306164E+06 -1.940667E+05 -3.721574E+04
        64   1 -6.494966E+06 -6.565063E+05  2.682484E+04 -2.704947E+06  2.445369E+05  5.379647E+04
        64   2 -6.470155E+06 -4.431679E+05 -1.930932E+05 -2.609340E+06  5.252505E+05  1.624791E+05
        64   3 -6.991564E+06 -1.389737E+06 -9.563571E+05 -2.135920E+06  7.972636E+05  2.938298E+05
        64   4 -7.861376E+06 -1.080038E+06 -3.250450E+05 -2.981238E+06  2.406806E+05  5.236826E+04
        64   5 -7.656088E+06 -9.559859E+05 -5.267934E+05 -2.995952E+06  5.289027E+05  1.638082E+05
        64   6 -7.999476E+06 -1.994848E+06 -1.278689E+06 -2.632512E+06  8.085015E+05  2.977899E+05
        64   7 -9.225962E+06 -1.503590E+06 -6.770617E+05 -3.257041E+06  2.368332E+05  5.094200E+04
        64   8 -8.840633E+06 -1.468599E+06 -8.606280E+05 -3.381844E+06  5.325462E+05  1.651330E+05
        64   9 -9.006267E+06 -2.599343E+06 -1.601115E+06 -3.128211E+06  8.197182E+05  3.017315E+05
        64  10 -6.495031E+06 -6.565257E+05  2.670561E+04 -2.704957E+06  1.865044E-09 -2.599606E-09
        64  11 -6.470461E+06 -4.432718E+05 -1.936682E+05 -2.609410E+06  3.662869E-09 -9.187423E-09
        64  12 -6.992276E+06 -1.390004E+06 -9.577308E+05 -2.136110E+06  1.070611E-09 -6.653549E-09
        64  13 -7.861440E+06 -1.080056E+06 -3.251607E+05 -2.981248E+06  5.740295E-10  2.953094E-09
        64  14 -7.656399E+06 -9.560915E+05 -5.273779E+05 -2.996022E+06  9.381674E-09  4.690047E-09
        64  15 -8.000210E+06 -1.995123E+06 -1.280104E+06 -2.632707E+06 -5.831110E-10 -7.505185E-10
        64  16 -9.226024E+06 -1.503609E+06 -6.771738E+05 -3.257051E+06 -6.097539E-09 -3.244229E-09
        64  17 -8.840948E+06 -1.468706E+06 -8.612220E+05 -3.381916E+06 -2.758798E-09  5.436867E-10
        64  18 -9.007023E+06 -2.599627E+06 -1.602573E+06 -3.128413E+06  2.389942E-10 -1.361447E-09
        64  19 -6.494966E+06 -6.565063E+05  2.682484E+04 -2.704947E+06 -2.445369E+05 -5.379647E+04
        64  20 -6.470155E+06 -4.431679E+05 -1.930932E+05 -2.609340E+06 -5.252505E+05 -1.624791E+05
        64  21 -6.991564E+06 -1.389737E+06 -9.563571E+05 -2.135920E+06 -7.972636E+05 -2.938298E+05
        64  22 -7.861376E+06 -1.080038E+06 -3.250450E+05 -2.981238E+06 -2.406806E+05 -5.236826E+04
        64  23 -7.656088E+06 -9.559859E+05 -5.267934E+05 -2.995952E+06 -5.289027E+05 -1.638082E+05
        64  24 -7.999476E+06 -1.994848E+06 -1.278689E+06 -2.632512E+06 -8.085015E+05 -2.977899E+05
        64  25 -9.225962E+06 -1.503590E+06 -6.770617E+05 -3.257041E+06 -2.368332E+05 -5.094200E+04
        64  26 -8.840633E+06 -1.468599E+06 -8.606280E+05 -3.381844E+06 -5.325462E+05 -1.651330E+05
        64  27 -9.006267E+06 -2.599343E+06 -1.601115E+06 -3.128211E+06 -8.197182E+05 -3.017315E+05
        65   1 -1.349536E+06 -2.018724E+05 -1.619733E+05 -1.196635E+04  1.054745E+05  1.076072E+04
        65   2 -1.314918E+06 -3.438008E+05 -2.394420E+05  2.634152E+03  7.330074E+04  3.020714E+04
        65   3 -1.226883E+06 -3.090325E+05 -2.507925E+05 -5.135692E+04  4.126251E+04  2.669026E+04
        65   4 -1.216745E+04  1.318611E+05  1.703358E+05 -3.489837E+04  1.160897E+05  1.082296E+04
        65   5 -3.950690E+04 -2.606101E+04  7.312516E+04 -1.777351E+02  7.613867E+04  3.021742E+04
        65   6 -1.217879E+04 -6.128044E+03  4.733552E+04 -3.403851E+04  3.632679E+04  2.666726E+04
        65   7  1.326829E+06  4.654630E+05  5.025119E+05 -5.788248E+04  1.267276E+05  1.088436E+04
        65   8  1.237388E+06  2.915583E+05  3.855732E+05 -2.997399E+03  7.898229E+04  3.022767E+04
        65   9  1.203871E+06  2.966678E+05  3.453554E+05 -1.668747E+04  3.138136E+04  2.664401E+04
        65  10 -1.349548E+06 -2.018755E+05 -1.619945E+05 -1.196727E+04  1.032722E-09  1.858873E-09
        65  11 -1.314924E+06 -3.438032E+05 -2.394538E+05  2.632367E+03  6.794813E-10 -2.814145E-09
        65  12 -1.226885E+06 -3.090338E+05 -2.507971E+05 -5.135780E+04 -3.574288E-09 -2.194759E-10
        65  13 -1.218195E+04  1.318574E+05  1.703102E+05 -3.489938E+04  3.903715E-09  4.997256E-10
        65  14 -3.951337E+04 -2.606354E+04  7.311255E+04 -1.795879E+02  1.122563E-09 -7.738640E-09
        65  15 -1.218040E+04 -6.129162E+03  4.733171E+04 -3.403929E+04  4.611573E-09  3.461583E-10
        65  16  1.326812E+06  4.654585E+05  5.024816E+05 -5.788359E+04  3.392494E-09 -1.132481E-09
        65  17  1.237381E+06  2.915556E+05  3.855598E+05 -2.999320E+03 -5.709898E-11 -1.823000E-09
        65  18  1.203869E+06  2.966668E+05  3.453522E+05 -1.668814E+04  3.507600E-09 -1.921143E-09
        65  19 -1.349536E+06 -2.018724E+05 -1.619733E+05 -1.196635E+04 -1.054745E+05 -1.076072E+04
        65  20 -1.314918E+06 -3.438008E+05 -2.394420E+05  2.634152E+03 -7.330074E+04 -3.020714E+04
        65  21 -1.226883E+06 -3.090325E+05 -2.507925E+05 -5.135692E+04 -4.126251E+04 -2.669026E+04
        65  22 -1.216745E+04  1.318611E+05  1.703358E+05 -3.489837E+04 -1.160897E+05 -1.082296E+04
        65  23 -3.950690E+04 -2.606101E+04  7.312516E+04 -1.777351E+02 -7.613867E+04 -3.021742E+04
        65  24 -1.217879E+04 -6.128044E+03  4.733552E+04 -3.403851E+04 -3.632679E+04 -2.666726E+04
        65  25  1.326829E+06  4.654630E+05  5.025119E+05 -5.788248E+04 -1.267276E+05 -1.088436E+04
        65  26  1.237388E+06  2.915583E+05  3.855732E+05 -2.997399E+03 -7.898229E+04 -3.022767E+04
        65  27  1.203871E+06  2.966678E+05  3.453554E+05 -1.668747E+04 -3.138136E+04 -2.664401E+04
        66   1 -1.096777E+06 -2.512152E+05 -2.252368E+05 -3.366339E+04  2.815998E+04  2.188822E+04
        66   2 -1.040656E+06 -2.562016E+05 -2.298489E+05 -1.284529E+03  1.918349E+04  2.208968E+04
        66   3 -9.745951E+05 -2.383361E+05 -2.222724E+05 -3.724424E+04  1.020900E+04  1.974549E+04
        66   4 -2.198483E+04  1.669047E+04  3.886837E+04 -3.428901E+04  2.869906E+04  2.188757E+04
        66   5 -2.702445E+04 -3.593523E+03  1.889917E+04 -9.335610E+01  1.885332E+04  2.208646E+04
        66   6 -2.198552E+04 -8.932715E+02  1.170850E+04 -3.422915E+04  9.010477E+03  1.974149E+04
        66   7  1.053860E+06  2.845103E+05  3.028886E+05 -3.491662E+04  2.923903E+04  2.188692E+04
        66   8  9.875435E+05  2.489383E+05  2.675718E+05  1.099141E+03  1.852259E+04  2.208324E+04
        66   9  9.314510E+05  2.364822E+05  2.456227E+05 -3.120976E+04  7.810112E+03  1.973749E+04
        66  10 -1.096778E+06 -2.512159E+05 -2.252392E+05 -3.366389E+04 -3.449940E-09 -1.803072E-09
        66  11 -1.040656E+06 -2.562022E+05 -2.298505E+05 -1.284870E+03 -2.941456E-09  2.078877E-09
        66  12 -9.745953E+05 -2.383366E+05 -2.222733E+05 -3.724441E+04  3.330327E-10 -1.056801E-09
        66  13 -2.198584E+04  1.668974E+04  3.886592E+04 -3.428952E+04  3.131921E-09 -3.889550E-10
        66  14 -2.702497E+04 -3.594142E+03  1.889758E+04 -9.369146E+01  3.204769E-13 -1.867969E-10
        66  15 -2.198571E+04 -8.937118E+02  1.170761E+04 -3.422930E+04  3.726666E-09 -1.403498E-09
        66  16  1.053859E+06  2.845095E+05  3.028861E+05 -3.491714E+04  2.524255E-09  1.610475E-09
        66  17  9.875430E+05  2.489377E+05  2.675702E+05  1.098812E+03 -8.373631E-10 -3.598448E-09
        66  18  9.314508E+05  2.364818E+05  2.456218E+05 -3.120988E+04  2.039048E-09 -2.473339E-10
        66  19 -1.096777E+06 -2.512152E+05 -2.252368E+05 -3.366339E+04 -2.815998E+04 -2.188822E+04
        66  20 -1.040656E+06 -2.562016E+05 -2.298489E+05 -1.284529E+03 -1.918349E+04 -2.208968E+04
        66  21 -9.745951E+05 -2.383361E+05 -2.222724E+05 -3.724424E+04 -1.020900E+04 -1.974549E+04
        66  22 -2.198483E+04  1.669047E+04  3.886837E+04 -3.428901E+04 -2.869906E+04 -2.188757E+04
        66  23 -2.702445E+04 -3.593523E+03  1.889917E+04 -9.335610E+01 -1.885332E+04 -2.208646E+04
        66  24 -2.198552E+04 -8.932715E+02  1.170850E+04 -3.422915E+04 -9.010477E+03 -1.974149E+04
        66  25  1.053860E+06  2.845103E+05  3.028886E+05 -3.491662E+04 -2.923903E+04 -2.188692E+04
        66  26  9.875435E+05  2.489383E+05  2.675718E+05  1.099141E+03 -1.852259E+04 -2.208324E+04
        66  27  9.314510E+05  2.364822E+05  2.456227E+05 -3.120976E+04 -7.810112E+03 -1.973749E+04
        67   1 -8.355421E+05 -2.003915E+05 -1.899399E+05 -3.472529E+04  7.714305E+03  1.807968E+04
        67   2 -7.756164E+05 -1.876308E+05 -1.795007E+05 -3.330779E+02  5.392629E+03  1.615485E+04
        67   3 -7.131203E+05 -1.719438E+05 -1.665019E+05 -3.446523E+04  3.066326E+03  1.394599E+04
        67   4 -2.357326E+04  1.915151E+03  9.203737E+03 -3.429052E+04  7.123124E+03  1.807740E+04
        67   5 -2.486452E+04 -5.588411E+02  4.744157E+03 -2.965773E+01  4.703251E+03  1.615316E+04
        67   6 -2.357327E+04 -9.083994E+01  2.910265E+03 -3.428802E+04  2.278978E+03  1.394505E+04
        67   7  7.889966E+05  2.041729E+05  2.082990E+05 -3.385536E+04  6.531166E+03  1.807512E+04
        67   8  7.264010E+05  1.864713E+05  1.889476E+05  2.740495E+02  4.013037E+03  1.615147E+04
        67   9  6.664069E+05  1.717268E+05  1.722874E+05 -3.411060E+04  1.490755E+03  1.394412E+04
        67  10 -8.355423E+05 -2.003918E+05 -1.899406E+05 -3.472541E+04  8.737584E-10  1.427257E-09
        67  11 -7.756165E+05 -1.876311E+05 -1.795012E+05 -3.331481E+02  2.517948E-09  3.623462E-10
        67  12 -7.131203E+05 -1.719440E+05 -1.665023E+05 -3.446526E+04  5.939632E-09 -1.967933E-09
        67  13 -2.357340E+04  1.914786E+03  9.203028E+03 -3.429063E+04  3.594989E-10 -3.953463E-10
        67  14 -2.486461E+04 -5.591272E+02  4.743625E+03 -2.971891E+01 -3.238092E-09 -3.756037E-10
        67  15 -2.357332E+04 -9.105016E+01  2.909890E+03 -3.428805E+04  2.959066E-09 -9.209349E-10
        67  16  7.889964E+05  2.041725E+05  2.082983E+05 -3.385546E+04  2.589583E-09 -1.204698E-09
        67  17  7.264009E+05  1.864710E+05  1.889471E+05  2.739974E+02 -2.731117E-09 -1.154319E-09
        67  18  6.664068E+05  1.717266E+05  1.722871E+05 -3.411062E+04 -4.637341E-09  1.708888E-10
        67  19 -8.355421E+05 -2.003915E+05 -1.899399E+05 -3.472529E+04 -7.714305E+03 -1.807968E+04
        67  20 -7.756164E+05 -1.876308E+05 -1.795007E+05 -3.330779E+02 -5.392629E+03 -1.615485E+04
        67  21 -7.131203E+05 -1.719438E+05 -1.665019E+05 -3.446523E+04 -3.066326E+03 -1.394599E+04
        67  22 -2.357326E+04  1.915151E+03  9.203737E+03 -3.429052E+04 -7.123124E+03 -1.807740E+04
        67  23 -2.486452E+04 -5.588411E+02  4.744157E+03 -2.965773E+01 -4.703251E+03 -1.615316E+04
        67  24 -2.357327E+04 -9.083994E+01  2.910265E+03 -3.428802E+04 -2.278978E+03 -1.394505E+04
        67  25  7.889966E+05  2.041729E+05  2.082990E+05 -3.385536E+04 -6.531166E+03 -1.807512E+04
        67  26  7.264010E+05  1.864713E+05  1.889476E+05  2.740495E+02 -4.013037E+03 -1.615147E+04
        67  27  6.664069E+05  1.717268E+05  1.722874E+05 -3.411060E+04 -1.490755E+03 -1.394412E+04
        68   1 -5.724808E+05 -1.364534E+05 -1.322249E+05 -3.414691E+04  2.528897E+03  1.262592E+04
        68   2 -5.114662E+05 -1.214805E+05 -1.184213E+05  2.836518E+02  1.968314E+03  1.046204E+04
        68   3 -4.497982E+05 -1.060512E+05 -1.040440E+05 -3.392425E+04  1.404584E+03  8.266854E+03
        68   4 -2.394746E+04  1.767172E+02  2.195317E+03 -3.431441E+04  1.808560E+03  1.262549E+04
        68   5 -2.427340E+04 -1.006588E+02  1.127070E+03  3.163811E+00  1.236975E+03  1.046210E+04
        68   6 -2.394743E+04  8.053976E+01  6.402351E+02 -3.431439E+04  6.622983E+02  8.267437E+03
        68   7  5.248601E+05  1.367845E+05  1.365934E+05 -3.448202E+04  1.087587E+03  1.262506E+04
        68   8  4.631356E+05  1.212616E+05  1.206581E+05 -2.775013E+02  5.050619E+02  1.046216E+04
        68   9  4.020685E+05  1.061988E+05  1.053111E+05 -3.470474E+04 -8.049608E+01  8.268020E+03
        68  10 -5.724808E+05 -1.364535E+05 -1.322252E+05 -3.414694E+04 -6.370566E-10 -1.363073E-09
        68  11 -5.114662E+05 -1.214806E+05 -1.184216E+05  2.836352E+02  7.523291E-11  1.503774E-09
        68  12 -4.497983E+05 -1.060513E+05 -1.040441E+05 -3.392426E+04 -1.516883E-09  9.717610E-10
        68  13 -2.394751E+04  1.765452E+02  2.195012E+03 -3.431443E+04 -7.859930E-11 -1.708274E-10
        68  14 -2.427343E+04 -1.007768E+02  1.126861E+03  3.153388E+00 -3.235063E-09  2.317004E-10
        68  15 -2.394745E+04  8.046625E+01  6.401058E+02 -3.431439E+04 -6.237473E-09 -2.816056E-10
        68  16  5.248600E+05  1.367843E+05  1.365931E+05 -3.448203E+04 -1.950324E-09 -8.355008E-10
        68  17  4.631356E+05  1.212614E+05  1.206578E+05 -2.775056E+02 -4.143143E-09 -2.357049E-10
        68  18  4.020685E+05  1.061987E+05  1.053110E+05 -3.470474E+04  1.301922E-09 -7.184451E-10
        68  19 -5.724808E+05 -1.364534E+05 -1.322249E+05 -3.414691E+04 -2.528897E+03 -1.262592E+04
        68  20 -5.114662E+05 -1.214805E+05 -1.184213E+05  2.836518E+02 -1.968314E+03 -1.046204E+04
        68  21 -4.497982E+05 -1.060512E+05 -1.040440E+05 -3.392425E+04 -1.404584E+03 -8.266854E+03
        68  22 -2.394746E+04  1.767172E+02  2.195317E+03 -3.431441E+04 -1.808560E+03 -1.262549E+04
        68  23 -2.427340E+04 -1.006588E+02  1.127070E+03  3.163811E+00 -1.236975E+03 -1.046210E+04
        68  24 -2.394743E+04  8.053976E+01  6.402351E+02 -3.431439E+04 -6.622983E+02 -8.267437E+03
        68  25  5.248601E+05  1.367845E+05  1.365934E+05 -3.448202E+04 -1.087587E+03 -1.262506E+04
        68  26  4.631356E+05  1.212616E+05  1.206581E+05 -2.775013E+02 -5.050619E+02 -1.046216E+04
        68  27  4.020685E+05  1.061988E+05  1.053111E+05 -3.470474E+04  8.049608E+01 -8.268020E+03
        69   1 -3.086948E+05 -7.078845E+04 -6.923261E+04 -3.403789E+04  1.300265E+03  6.981610E+03
        69   2 -2.472199E+05 -5.559654E+04 -5.468949E+04  2.864530E+02  1.259527E+03  4.788085E+03
        69   3 -1.858520E+05 -4.025806E+04 -4.011575E+04 -3.409324E+04  1.217395E+03  2.605780E+03
        69   4 -2.408530E+04  7.303391E+01  4.063537E+02 -3.432936E+04  5.617480E+02  6.982482E+03
        69   5 -2.403016E+04  8.537377E-01  6.920578E+01  2.188611E+01  5.247231E+02  4.789174E+03
        69   6 -2.408528E+04  7.512165E+01 -2.394343E+02 -3.432937E+04  4.863075E+02  2.607098E+03
        69   7  2.605981E+05  7.092852E+04  7.003939E+04 -3.462093E+04 -1.771068E+02  6.983355E+03
        69   8  1.992049E+05  5.559455E+04  5.482425E+04 -2.427577E+02 -2.103446E+02  4.790265E+03
        69   9  1.377052E+05  4.040635E+04  3.963495E+04 -3.456555E+04 -2.449701E+02  2.608416E+03
        69  10 -3.086949E+05 -7.078850E+04 -6.923270E+04 -3.403790E+04 -2.298606E-09 -4.752645E-10
        69  11 -2.472199E+05 -5.559657E+04 -5.468954E+04  2.864482E+02 -2.976022E-09 -5.363373E-10
        69  12 -1.858520E+05 -4.025807E+04 -4.011576E+04 -3.409324E+04  5.520029E-10  4.828369E-10
        69  13 -2.408532E+04  7.298147E+01  4.062615E+02 -3.432936E+04 -3.636163E-10  1.921279E-09
        69  14 -2.403016E+04  8.290346E-01  6.916216E+01  2.188409E+01 -4.298769E-09  8.527939E-10
        69  15 -2.408529E+04  7.511429E+01 -2.394475E+02 -3.432937E+04 -3.431437E-09 -1.682367E-09
        69  16  2.605981E+05  7.092847E+04  7.003930E+04 -3.462093E+04  3.578621E-09  1.253539E-10
        69  17  1.992049E+05  5.559453E+04  5.482421E+04 -2.427568E+02  2.877121E-09  7.530155E-11
        69  18  1.377052E+05  4.040634E+04  3.963493E+04 -3.456555E+04  6.271240E-10  6.471533E-10
        69  19 -3.086948E+05 -7.078845E+04 -6.923261E+04 -3.403789E+04 -1.300265E+03 -6.981610E+03
        69  20 -2.472199E+05 -5.559654E+04 -5.468949E+04  2.864530E+02 -1.259527E+03 -4.788085E+03
        69  21 -1.858520E+05 -4.025806E+04 -4.011575E+04 -3.409324E+04 -1.217395E+03 -2.605780E+03
        69  22 -2.408530E+04  7.303391E+01  4.063537E+02 -3.432936E+04 -5.617480E+02 -6.982482E+03
        69  23 -2.403016E+04  8.537377E-01  6.920578E+01  2.188611E+01 -5.247231E+02 -4.789174E+03
        69  24 -2.408528E+04  7.512165E+01 -2.394343E+02 -3.432937E+04 -4.863075E+02 -2.607098E+03
        69  25  2.605981E+05  7.092852E+04  7.003939E+04 -3.462093E+04  1.771068E+02 -6.983355E+03
        69  26  1.992049E+05  5.559455E+04  5.482425E+04 -2.427577E+02  2.103446E+02 -4.790265E+03
        69  27  1.377052E+05  4.040635E+04  3.963495E+04 -3.456555E+04  2.449701E+02 -2.608416E+03
        70   1 -4.455244E+04 -4.907003E+03 -5.228128E+03 -3.436090E+04  1.305200E+03  1.305003E+03
        70   2  1.712282E+04  1.031411E+04  9.217227E+03 -1.575707E+01  1.685818E+03 -8.990384E+02
        70   3  7.835218E+04  2.517003E+04  2.325836E+04 -3.439199E+04  2.066989E+03 -2.962147E+03
        70   4 -2.415459E+04  1.352542E+02 -4.145221E+02 -3.433332E+04  5.412174E+02  1.306460E+03
        70   5 -2.392533E+04  9.118740E+01 -8.488658E+02  2.709187E+01  9.691171E+02 -8.977199E+02
        70   6 -2.415461E+04 -3.262861E+02 -1.720313E+03 -3.433416E+04  1.397532E+03 -2.960950E+03
        70   7 -3.756366E+03  5.177482E+03  4.399057E+03 -3.430573E+04 -2.227906E+02  1.307916E+03
        70   8 -6.497195E+04 -1.013186E+04 -1.091508E+04  6.993867E+01  2.524630E+02 -8.964014E+02
        70   9 -1.266518E+05 -2.582338E+04 -2.669974E+04 -3.427634E+04  7.281856E+02 -2.959753E+03
        70  10 -4.455244E+04 -4.907005E+03 -5.228134E+03 -3.436090E+04  2.433222E-09  2.130199E-09
        70  11  1.712282E+04  1.031411E+04  9.217220E+03 -1.575585E+01 -1.670081E-09 -1.332787E-09
        70  12  7.835218E+04  2.517002E+04  2.325833E+04 -3.439199E+04 -2.522544E-09  3.712806E-10
        70  13 -2.415460E+04  1.352523E+02 -4.145258E+02 -3.433332E+04  1.650793E-09 -1.413551E-09
        70  14 -2.392533E+04  9.118629E+01 -8.488690E+02  2.709257E+01 -5.401945E-09 -3.991146E-09
        70  15 -2.415462E+04 -3.262961E+02 -1.720334E+03 -3.433416E+04 -2.048033E-09  9.275583E-10
        70  16 -3.756367E+03  5.177480E+03  4.399054E+03 -3.430573E+04 -1.298798E-09  2.310629E-09
        70  17 -6.497195E+04 -1.013186E+04 -1.091508E+04  6.993885E+01 -2.857049E-09 -4.001655E-09
        70  18 -1.266518E+05 -2.582339E+04 -2.669976E+04 -3.427634E+04 -1.884356E-09 -6.361605E-10
        70  19 -4.455244E+04 -4.907003E+03 -5.228128E+03 -3.436090E+04 -1.305200E+03 -1.305003E+03
        70  20  1.712282E+04  1.031411E+04  9.217227E+03 -1.575707E+01 -1.685818E+03  8.990384E+02
        70  21  7.835218E+04  2.517003E+04  2.325836E+04 -3.439199E+04 -2.066989E+03  2.962147E+03
        70  22 -2.415459E+04  1.352542E+02 -4.145221E+02 -3.433332E+04 -5.412174E+02 -1.306460E+03
        70  23 -2.392533E+04  9.118740E+01 -8.488658E+02  2.709187E+01 -9.691171E+02  8.977199E+02
        70  24 -2.415461E+04 -3.262861E+02 -1.720313E+03 -3.433416E+04 -1.397532E+03  2.960950E+03
        70  25 -3.756366E+03  5.177482E+03  4.399057E+03 -3.430573E+04  2.227906E+02 -1.307916E+03
        70  26 -6.497195E+04 -1.013186E+04 -1.091508E+04  6.993867E+01 -2.524630E+02  8.964014E+02
        70  27 -1.266518E+05 -2.582338E+04 -2.669974E+04 -3.427634E+04 -7.281856E+02  2.959753E+03
        71   1  2.195294E+05  6.104038E+04  5.781959E+04 -3.500144E+04  2.714537E+03 -4.433138E+03
        71   2  2.816014E+05  7.664969E+04  7.119382E+04 -1.435232E+02  4.177930E+03 -6.692430E+03
        71   3  3.424273E+05  8.805985E+04  8.256170E+04 -3.395431E+04  5.644864E+03 -7.676919E+03
        71   4 -2.436244E+04  2.662426E+02 -2.177834E+03 -3.432077E+04  1.741242E+03 -4.431549E+03
        71   5 -2.370013E+04  6.289429E+02 -3.656978E+03  1.246288E+01  3.632266E+03 -6.691855E+03
        71   6 -2.436252E+04 -3.282743E+03 -7.440052E+03 -3.432517E+04  5.526688E+03 -7.677075E+03
        71   7 -2.682002E+05 -6.051232E+04 -6.217963E+04 -3.364034E+04  7.683296E+02 -4.429962E+03
        71   8 -3.289168E+05 -7.539871E+04 -7.851461E+04  1.684027E+02  3.086870E+03 -6.691280E+03
        71   9 -3.910299E+05 -9.463532E+04 -9.745168E+04 -3.469577E+04  5.408580E+03 -7.677230E+03
        71  10  2.195294E+05  6.104036E+04  5.781954E+04 -3.500143E+04  1.036660E-10 -1.011658E-09
        71  11  2.816014E+05  7.664963E+04  7.119370E+04 -1.435007E+02 -4.633241E-09  4.381778E-10
        71  12  3.424273E+05  8.805978E+04  8.256153E+04 -3.395427E+04 -2.613107E-09 -3.274807E-10
        71  13 -2.436245E+04  2.662207E+02 -2.177876E+03 -3.432076E+04 -6.910413E-09  1.349376E-09
        71  14 -2.370016E+04  6.288913E+02 -3.657087E+03  1.248246E+01 -4.310781E-09  5.008658E-10
        71  15 -2.436257E+04 -3.282814E+03 -7.440220E+03 -3.432513E+04  5.559103E-10  5.632645E-11
        71  16 -2.682002E+05 -6.051234E+04 -6.217967E+04 -3.364033E+04 -3.251234E-09  1.818850E-09
        71  17 -3.289169E+05 -7.539876E+04 -7.851471E+04  1.684193E+02 -1.412107E-09  1.982708E-09
        71  18 -3.910300E+05 -9.463539E+04 -9.745185E+04 -3.469573E+04 -1.717247E-09 -5.900578E-10
        71  19  2.195294E+05  6.104038E+04  5.781959E+04 -3.500144E+04 -2.714537E+03  4.433138E+03
        71  20  2.816014E+05  7.664969E+04  7.119382E+04 -1.435232E+02 -4.177930E+03  6.692430E+03
        71  21  3.424273E+05  8.805985E+04  8.256170E+04 -3.395431E+04 -5.644864E+03  7.676919E+03
        71  22 -2.436244E+04  2.662426E+02 -2.177834E+03 -3.432077E+04 -1.741242E+03  4.431549E+03
        71  23 -2.370013E+04  6.289429E+02 -3.656978E+03  1.246288E+01 -3.632266E+03  6.691855E+03
        71  24 -2.436252E+04 -3.282743E+03 -7.440052E+03 -3.432517E+04 -5.526688E+03  7.677075E+03
        71  25 -2.682002E+05 -6.051232E+04 -6.217963E+04 -3.364034E+04 -7.683296E+02  4.429962E+03
        71  26 -3.289168E+05 -7.539871E+04 -7.851461E+04  1.684027E+02 -3.086870E+03  6.691280E+03
        71  27 -3.910299E+05 -9.463532E+04 -9.745168E+04 -3.469577E+04 -5.408580E+03  7.677230E+03
        72   1  4.820480E+05  1.276932E+05  1.156454E+05 -3.724697E+04  9.825613E+03 -1.068326E+04
        72   2  5.475544E+05  1.464976E+05  1.251616E+05  1.285662E+03  1.365382E+04 -1.343020E+04
        72   3  6.050182E+05  1.321125E+05  1.240418E+05 -2.857691E+04  1.748510E+04 -4.694742E+03
        72   4 -2.604533E+04  1.165516E+03 -9.009613E+03 -3.426025E+04  6.968727E+03 -1.068102E+04
        72   5 -2.168373E+04  4.822643E+03 -1.416635E+04 -6.099269E+01  1.465185E+04 -1.343145E+04
        72   6 -2.604556E+04 -2.539511E+04 -3.264342E+04 -3.426116E+04  2.233756E+04 -4.694920E+03
        72   7 -5.339037E+05 -1.253813E+05 -1.336835E+05 -3.127593E+04  4.114171E+03 -1.067880E+04
        72   8 -5.906268E+05 -1.368762E+05 -1.535180E+05 -1.406380E+03  1.564896E+04 -1.343271E+04
        72   9 -6.567479E+05 -1.829324E+05 -1.893583E+05 -3.993962E+04  2.718509E+04 -4.695188E+03
        72  10  4.820479E+05  1.276931E+05  1.156450E+05 -3.724688E+04 -3.072087E-09 -5.907216E-10
        72  11  5.475541E+05  1.464973E+05  1.251609E+05  1.285810E+03  1.863005E-10 -1.025201E-10
        72  12  6.050179E+05  1.321124E+05  1.240412E+05 -2.857685E+04  2.399896E-10  7.795147E-11
        72  13 -2.604541E+04  1.165381E+03 -9.009919E+03 -3.426019E+04 -4.534125E-09  9.776691E-10
        72  14 -2.168401E+04  4.822392E+03 -1.416709E+04 -6.083419E+01  3.230613E-09 -5.666444E-10
        72  15 -2.604610E+04 -2.539526E+04 -3.264440E+04 -3.426107E+04  6.358429E-10 -1.579337E-10
        72  16 -5.339037E+05 -1.253814E+05 -1.336838E+05 -3.127589E+04 -2.109528E-09 -9.842880E-10
        72  17 -5.906271E+05 -1.368765E+05 -1.535188E+05 -1.406210E+03 -1.903974E-09 -6.913045E-10
        72  18 -6.567487E+05 -1.829326E+05 -1.893597E+05 -3.993952E+04 -7.670452E-10 -2.123999E-10
        72  19  4.820480E+05  1.276932E+05  1.156454E+05 -3.724697E+04 -9.825613E+03  1.068326E+04
        72  20  5.475544E+05  1.464976E+05  1.251616E+05  1.285662E+03 -1.365382E+04  1.343020E+04
        72  21  6.050182E+05  1.321125E+05  1.240418E+05 -2.857691E+04 -1.748510E+04  4.694742E+03
        72  22 -2.604533E+04  1.165516E+03 -9.009613E+03 -3.426025E+04 -6.968727E+03  1.068102E+04
        72  23 -2.168373E+04  4.822643E+03 -1.416635E+04 -6.099269E+01 -1.465185E+04  1.343145E+04
        72  24 -2.604556E+04 -2.539511E+04 -3.264342E+04 -3.426116E+04 -2.233756E+04  4.694920E+03
        72  25 -5.339037E+05 -1.253813E+05 -1.336835E+05 -3.127593E+04 -4.114171E+03  1.067880E+04
        72  26 -5.906268E+05 -1.368762E+05 -1.535180E+05 -1.406380E+03 -1.564896E+04  1.343271E+04
        72  27 -6.567479E+05 -1.829324E+05 -1.893583E+05 -3.993962E+04 -2.718509E+04  4.695188E+03
        73   1  1.323489E+06  4.491746E+06  1.270509E+06 -1.163815E+06  5.577631E+04  2.913926E+05
        73   2  9.418946E+05  3.220434E+06  8.257816E+05 -9.791536E+05  1.721687E+05  8.081258E+04
        73   3  6.358371E+05  1.992701E+06  5.359462E+05 -1.116033E+06  1.554023E+05 -1.302942E+05
        73   4  6.627012E+04 -5.892264E+05  5.780748E+04 -1.099501E+06  5.817354E+04  2.924173E+04
        73   5  2.211985E+04 -5.921929E+05  3.622238E+04 -9.389179E+05  1.729187E+05  1.176812E+04
        73   6  2.042710E+04 -5.862111E+05  3.615058E+04 -1.099945E+06  1.541466E+05 -6.667920E+03
        73   7 -1.192768E+06 -5.646475E+06 -1.156455E+06 -1.035641E+06  6.052817E+04 -2.307854E+05
        73   8 -8.985707E+05 -4.391072E+06 -7.541103E+05 -8.988909E+05  1.736625E+05 -5.686131E+04
        73   9 -5.953712E+05 -3.158711E+06 -4.639004E+05 -1.083904E+06  1.528942E+05  1.164576E+05
        73  10  1.323463E+06  4.491655E+06  1.270345E+06 -1.163828E+06  1.250770E-09  1.285456E-09
        73  11  9.418610E+05  3.220419E+06  8.257136E+05 -9.791648E+05 -8.036504E-10 -5.976893E-09
        73  12  6.358067E+05  1.992676E+06  5.358692E+05 -1.116016E+06  1.470600E-09 -1.287053E-08
        73  13  6.626626E+04 -5.892282E+05  5.779950E+04 -1.099502E+06  3.114467E-09  3.580997E-09
        73  14  2.208771E+04 -5.922011E+05  3.616593E+04 -9.389196E+05 -3.216086E-09 -8.070857E-09
        73  15  2.040159E+04 -5.862175E+05  3.610587E+04 -1.099944E+06  2.729290E-10  3.064768E-09
        73  16 -1.192786E+06 -5.646533E+06 -1.156562E+06 -1.035630E+06  7.273981E-10 -1.353766E-09
        73  17 -8.986039E+05 -4.391084E+06 -7.541730E+05 -8.988830E+05  6.248487E-09  7.301210E-09
        73  18 -5.954000E+05 -3.158732E+06 -4.639701E+05 -1.083918E+06 -7.829748E-09  8.535858E-09
        73  19  1.323489E+06  4.491746E+06  1.270509E+06 -1.163815E+06 -5.577631E+04 -2.913926E+05
        73  20  9.418946E+05  3.220434E+06  8.257816E+05 -9.791536E+05 -1.721687E+05 -8.081258E+04
        73  21  6.358371E+05  1.992701E+06  5.359462E+05 -1.116033E+06 -1.554023E+05  1.302942E+05
        73  22  6.627012E+04 -5.892264E+05  5.780748E+04 -1.099501E+06 -5.817354E+04 -2.924173E+04
        73  23  2.211985E+04 -5.921929E+05  3.622238E+04 -9.389179E+05 -1.729187E+05 -1.176812E+04
        73  24  2.042710E+04 -5.862111E+05  3.615058E+04 -1.099945E+06 -1.541466E+05  6.667920E+03
        73  25 -1.192768E+06 -5.646475E+06 -1.156455E+06 -1.035641E+06 -6.052817E+04  2.307854E+05
        73  26 -8.985707E+05 -4.391072E+06 -7.541103E+05 -8.988909E+05 -1.736625E+05  5.686131E+04
        73  27 -5.953712E+05 -3.158711E+06 -4.639004E+05 -1.083904E+06 -1.528942E+05 -1.164576E+05
        74   1  4.351400E+05  1.139898E+06  3.751815E+05 -1.118747E+06  1.043417E+05 -1.148332E+05
        74   2  1.339995E+05 -1.088697E+05  1.475225E+05 -9.396888E+05  3.367802E+04 -1.466397E+05
        74   3 -1.469132E+05 -1.354121E+06 -5.632818E+04 -1.090029E+06 -3.862498E+04 -1.784325E+05
        74   4  2.262095E+04 -5.871247E+05  4.018240E+04 -1.101621E+06  1.032661E+05 -1.367413E+04
        74   5  2.023879E+04 -5.877125E+05  5.781893E+04 -9.368468E+05  3.256006E+04 -4.319582E+04
        74   6  3.775778E+04 -5.867229E+05  9.766286E+04 -1.101462E+06 -3.978888E+04 -7.276375E+04
        74   7 -3.900703E+05 -2.311263E+06 -2.949187E+05 -1.084534E+06  1.021943E+05  8.721030E+04
        74   8 -9.352946E+04 -1.066310E+06 -3.185436E+04 -9.340065E+05  3.144253E+04  6.017028E+04
        74   9  2.223987E+05  1.812628E+05  2.516660E+05 -1.112908E+06 -4.095582E+04  3.303329E+04
        74  10  4.351248E+05  1.139881E+06  3.751364E+05 -1.118737E+06  1.647949E-09 -4.603233E-09
        74  11  1.339926E+05 -1.088931E+05  1.474800E+05 -9.396848E+05  4.281484E-09 -1.178047E-08
        74  12 -1.469234E+05 -1.354156E+06 -5.639100E+04 -1.090034E+06 -7.904998E-11 -1.518475E-08
        74  13  2.260945E+04 -5.871277E+05  4.016203E+04 -1.101620E+06  1.908074E-09  5.101329E-09
        74  14  2.023716E+04 -5.877148E+05  5.781344E+04 -9.368457E+05 -6.688884E-09 -9.779426E-09
        74  15  3.775465E+04 -5.867290E+05  9.764990E+04 -1.101464E+06  4.518230E-09  3.187627E-09
        74  16 -3.900836E+05 -2.311274E+06 -2.949528E+05 -1.084541E+06 -5.921516E-09  4.758885E-09
        74  17 -9.353150E+04 -1.066315E+06 -3.186305E+04 -9.340081E+05 -6.846200E-09  1.142615E-08
        74  18  2.223967E+05  1.812611E+05  2.516609E+05 -1.112907E+06 -3.952838E-09  1.053427E-08
        74  19  4.351400E+05  1.139898E+06  3.751815E+05 -1.118747E+06 -1.043417E+05  1.148332E+05
        74  20  1.339995E+05 -1.088697E+05  1.475225E+05 -9.396888E+05 -3.367802E+04  1.466397E+05
        74  21 -1.469132E+05 -1.354121E+06 -5.632818E+04 -1.090029E+06  3.862498E+04  1.784325E+05
        74  22  2.262095E+04 -5.871247E+05  4.018240E+04 -1.101621E+06 -1.032661E+05  1.367413E+04
        74  23  2.023879E+04 -5.877125E+05  5.781893E+04 -9.368468E+05 -3.256006E+04  4.319582E+04
        74  24  3.775778E+04 -5.867229E+05  9.766286E+04 -1.101462E+06  3.978888E+04  7.276375E+04
        74  25 -3.900703E+05 -2.311263E+06 -2.949187E+05 -1.084534E+06 -1.021943E+05 -8.721030E+04
        74  26 -9.352946E+04 -1.066310E+06 -3.185436E+04 -9.340065E+05 -3.144253E+04 -6.017028E+04
        74  27  2.223987E+05  1.812628E+05  2.516660E+05 -1.112908E+06  4.095582E+04 -3.303329E+04
        75   1 -3.652348E+05 -2.185939E+06 -1.934713E+05 -1.124584E+06 -8.939481E+04 -2.134809E+05
        75   2 -6.114885E+05 -3.455502E+06 -3.777198E+05 -8.152838E+05 -1.210233E+05 -1.697452E+05
        75   3 -6.008278E+05 -4.670094E+06 -5.275914E+05 -8.282539E+05 -4.252182E+04 -1.252031E+05
        75   4  2.148610E+04 -5.696020E+05  1.250348E+05 -1.100470E+06 -9.073514E+04 -9.010609E+04
        75   5  8.108372E+04 -6.109001E+05  2.205229E+05 -9.375677E+05 -1.205969E+05 -2.046988E+05
        75   6  4.244415E+05 -5.717171E+05  4.602016E+05 -1.096571E+06 -4.057969E+04 -3.184155E+05
        75   7  4.080602E+05  1.049279E+06  4.434717E+05 -1.076283E+06 -9.206377E+04  3.358427E+04
        75   8  7.731825E+05  2.241406E+06  8.183219E+05 -1.060399E+06 -1.201580E+05 -2.398091E+05
        75   9  1.448747E+06  3.542325E+06  1.446965E+06 -1.366629E+06 -3.847730E+04 -5.129007E+05
        75  10 -3.652557E+05 -2.185990E+06 -1.935725E+05 -1.124600E+06  2.940844E-09 -1.783730E-08
        75  11 -6.115120E+05 -3.455537E+06 -3.778018E+05 -8.153004E+05  4.152829E-09  2.377007E-09
        75  12 -6.008340E+05 -4.670111E+06 -5.276245E+05 -8.282582E+05  6.648023E-10  2.152220E-08
        75  13  2.147506E+04 -5.696129E+05  1.250040E+05 -1.100477E+06  9.097063E-09  4.580517E-09
        75  14  8.105680E+04 -6.109491E+05  2.204165E+05 -9.375876E+05 -1.827780E-09 -9.480705E-09
        75  15  4.244125E+05 -5.718265E+05  4.600076E+05 -1.096582E+06  2.169275E-09  2.541570E-09
        75  16  4.080508E+05  1.049276E+06  4.434537E+05 -1.076280E+06 -4.461021E-09  1.786581E-08
        75  17  7.731515E+05  2.241340E+06  8.181869E+05 -1.060422E+06  4.005453E-09 -2.616801E-09
        75  18  1.448675E+06  3.542044E+06  1.446471E+06 -1.366645E+06  3.370438E-09 -2.671204E-08
        75  19 -3.652348E+05 -2.185939E+06 -1.934713E+05 -1.124584E+06  8.939481E+04  2.134809E+05
        75  20 -6.114885E+05 -3.455502E+06 -3.777198E+05 -8.152838E+05  1.210233E+05  1.697452E+05
        75  21 -6.008278E+05 -4.670094E+06 -5.275914E+05 -8.282539E+05  4.252182E+04  1.252031E+05
        75  22  2.148610E+04 -5.696020E+05  1.250348E+05 -1.100470E+06  9.073514E+04  9.010609E+04
        75  23  8.108372E+04 -6.109001E+05  2.205229E+05 -9.375677E+05  1.205969E+05  2.046988E+05
        75  24  4.244415E+05 -5.717171E+05  4.602016E+05 -1.096571E+06  4.057969E+04  3.184155E+05
        75  25  4.080602E+05  1.049279E+06  4.434717E+05 -1.076283E+06  9.206377E+04 -3.358427E+04
        75  26  7.731825E+05  2.241406E+06  8.183219E+05 -1.060399E+06  1.201580E+05  2.398091E+05
        75  27  1.448747E+06  3.542325E+06  1.446965E+06 -1.366629E+06  3.847730E+04  5.129007E+05
        76   1 -4.626377E+06 -1.829656E+06 -1.075142E+06 -1.556346E+06 -2.495256E+05 -1.420448E+04
        76   2 -4.323014E+06 -1.754255E+06 -8.895881E+05 -1.440286E+06 -1.708444E+05  2.012908E+05
        76   3 -3.957823E+06 -1.696847E+06 -7.961183E+05 -1.409468E+06 -4.357089E+04  2.902082E+05
        76   4 -2.639579E+03 -1.309762E+05  1.243822E+05 -3.343640E+05  5.252821E+04  1.011436E+05
        76   5 -5.702817E+04 -1.875350E+05  5.583951E+04 -2.730147E+05 -3.827842E+04  2.516074E+05
        76   6 -1.595818E+04 -2.285054E+05  3.034062E+04 -2.968822E+05 -8.075134E+04  2.759180E+05
        76   7  4.642019E+06  1.568815E+06  1.322491E+06  8.957747E+05  3.570641E+05  2.173683E+05
        76   8  4.227433E+06  1.380549E+06  1.000209E+06  9.016121E+05  9.527928E+04  3.022899E+05
        76   9  3.941940E+06  1.241271E+06  8.559747E+05  8.222977E+05 -1.181895E+05  2.615292E+05
        76  10 -4.626445E+06 -1.829674E+06 -1.075260E+06 -1.556349E+06 -5.943992E-09  3.076592E-10
        76  11 -4.323056E+06 -1.754306E+06 -8.897191E+05 -1.440258E+06 -2.146446E-09  2.439486E-09
        76  12 -3.957848E+06 -1.696938E+06 -7.962802E+05 -1.409458E+06  3.215839E-09  1.446263E-09
        76  13 -2.645292E+03 -1.309879E+05  1.243578E+05 -3.343683E+05 -6.879815E-10  7.620527E-10
        76  14 -5.704673E+04 -1.876034E+05  5.571778E+04 -2.730070E+05 -1.865215E-09 -1.026876E-08
        76  15 -1.598561E+04 -2.285889E+05  3.018531E+04 -2.968642E+05  6.000647E-10 -1.970517E-09
        76  16  4.641871E+06  1.568731E+06  1.322165E+06  8.957125E+05  1.985489E-09 -8.815715E-10
        76  17  4.227399E+06  1.380448E+06  1.000020E+06  9.015890E+05  4.712094E-09  2.881309E-09
        76  18  3.941907E+06  1.241193E+06  8.558199E+05  8.223226E+05 -7.304429E-09 -6.096163E-09
        76  19 -4.626377E+06 -1.829656E+06 -1.075142E+06 -1.556346E+06  2.495256E+05  1.420448E+04
        76  20 -4.323014E+06 -1.754255E+06 -8.895881E+05 -1.440286E+06  1.708444E+05 -2.012908E+05
        76  21 -3.957823E+06 -1.696847E+06 -7.961183E+05 -1.409468E+06  4.357089E+04 -2.902082E+05
        76  22 -2.639579E+03 -1.309762E+05  1.243822E+05 -3.343640E+05 -5.252821E+04 -1.011436E+05
        76  23 -5.702817E+04 -1.875350E+05  5.583951E+04 -2.730147E+05  3.827842E+04 -2.516074E+05
        76  24 -1.595818E+04 -2.285054E+05  3.034062E+04 -2.968822E+05  8.075134E+04 -2.759180E+05
        76  25  4.642019E+06  1.568815E+06  1.322491E+06  8.957747E+05 -3.570641E+05 -2.173683E+05
        76  26  4.227433E+06  1.380549E+06  1.000209E+06  9.016121E+05 -9.527928E+04 -3.022899E+05
        76  27  3.941940E+06  1.241271E+06  8.559747E+05  8.222977E+05  1.181895E+05 -2.615292E+05
        77   1 -3.747736E+06 -1.601611E+06 -7.569840E+05 -1.341597E+06 -6.785758E+04  2.633255E+05
        77   2 -3.466766E+06 -1.452601E+06 -6.924140E+05 -1.215830E+06 -5.848926E+04  2.531620E+05
        77   3 -3.118380E+06 -1.366887E+06 -6.303512E+05 -1.163742E+06 -4.615821E+04  2.349829E+05
        77   4 -1.840875E+04 -2.251273E+05  2.319432E+04 -3.019358E+05 -7.843863E+04  2.591552E+05
        77   5 -5.289034E+04 -1.954824E+05  1.196835E+04 -2.645793E+05 -7.983070E+04  2.449546E+05
        77   6 -1.794303E+04 -2.269839E+05  6.773480E+03 -3.009118E+05 -7.827154E+04  2.227617E+05
        77   7  3.725213E+06  1.152554E+06  8.026212E+05  7.435156E+05 -8.908949E+04  2.549591E+05
        77   8  3.372979E+06  1.062644E+06  7.157404E+05  6.915210E+05 -1.012997E+05  2.366996E+05
        77   9  3.092376E+06  9.137450E+05  6.433990E+05  5.659095E+05 -1.105584E+05  2.104754E+05
        77  10 -3.747760E+06 -1.601686E+06 -7.571230E+05 -1.341583E+06  4.550406E-09  5.058372E-10
        77  11 -3.466787E+06 -1.452670E+06 -6.925409E+05 -1.215819E+06  2.344363E-09 -2.647019E-09
        77  12 -3.118397E+06 -1.366947E+06 -6.304590E+05 -1.163734E+06 -1.608807E-09 -2.834554E-10
        77  13 -1.843337E+04 -2.252011E+05  2.305656E+04 -3.019195E+05  5.194974E-09 -2.166871E-09
        77  14 -5.291328E+04 -1.955485E+05  1.184362E+04 -2.645635E+05  3.839020E-09 -4.838029E-09
        77  15 -1.796293E+04 -2.270388E+05  6.668725E+03 -3.008978E+05 -3.743792E-09  1.751710E-09
        77  16  3.725187E+06  1.152482E+06  8.024841E+05  7.435339E+05 -5.167661E-10 -4.548026E-09
        77  17  3.372953E+06  1.062581E+06  7.156158E+05  6.915403E+05 -3.348764E-10 -5.599726E-10
        77  18  3.092351E+06  9.136942E+05  6.432928E+05  5.659282E+05  5.479202E-09  3.023343E-09
        77  19 -3.747736E+06 -1.601611E+06 -7.569840E+05 -1.341597E+06  6.785758E+04 -2.633255E+05
        77  20 -3.466766E+06 -1.452601E+06 -6.924140E+05 -1.215830E+06  5.848926E+04 -2.531620E+05
        77  21 -3.118380E+06 -1.366887E+06 -6.303512E+05 -1.163742E+06  4.615821E+04 -2.349829E+05
        77  22 -1.840875E+04 -2.251273E+05  2.319432E+04 -3.019358E+05  7.843863E+04 -2.591552E+05
        77  23 -5.289034E+04 -1.954824E+05  1.196835E+04 -2.645793E+05  7.983070E+04 -2.449546E+05
        77  24 -1.794303E+04 -2.269839E+05  6.773480E+03 -3.009118E+05  7.827154E+04 -2.227617E+05
        77  25  3.725213E+06  1.152554E+06  8.026212E+05  7.435156E+05  8.908949E+04 -2.549591E+05
        77  26  3.372979E+06  1.062644E+06  7.157404E+05  6.915210E+05  1.012997E+05 -2.366996E+05
        77  27  3.092376E+06  9.137450E+05  6.433990E+05  5.659095E+05  1.105584E+05 -2.104754E+05
        78   1 -2.901111E+06 -1.284907E+06 -5.854467E+05 -1.102469E+06 -4.348677E+04  2.201035E+05
        78   2 -2.618869E+06 -1.134757E+06 -5.232331E+05 -9.767218E+05 -3.536747E+04  1.969115E+05
        78   3 -2.269785E+06 -1.049554E+06 -4.601855E+05 -9.251195E+05 -2.711455E+04  1.731826E+05
        78   4 -1.808310E+04 -2.266282E+05  5.030426E+03 -3.013427E+05 -7.395546E+04  2.085325E+05
        78   5 -5.112786E+04 -1.934918E+05  2.600460E+03 -2.644129E+05 -6.655527E+04  1.851131E+05
        78   6 -1.731885E+04 -2.251571E+05  1.556754E+03 -3.016514E+05 -5.902168E+04  1.611584E+05
        78   7  2.873537E+06  8.323784E+05  5.950921E+05  5.032404E+05 -1.045776E+05  1.969041E+05
        78   8  2.523417E+06  7.483432E+05  5.281033E+05  4.506288E+05 -9.788270E+04  1.732624E+05
        78   9  2.240371E+06  5.996714E+05  4.630428E+05  3.239110E+05 -9.105385E+04  1.490873E+05
        78  10 -2.901126E+06 -1.284960E+06 -5.855413E+05 -1.102462E+06 -1.641990E-09  1.123900E-09
        78  11 -2.618881E+06 -1.134799E+06 -5.233083E+05 -9.767162E+05  5.777682E-09  3.318283E-09
        78  12 -2.269794E+06 -1.049586E+06 -4.602433E+05 -9.251157E+05  1.908713E-08  7.363712E-09
        78  13 -1.810064E+04 -2.266764E+05  4.938437E+03 -3.013303E+05 -2.577202E-09 -1.108041E-09
        78  14 -5.114181E+04 -1.935298E+05  2.527749E+03 -2.644029E+05 -2.426086E-10 -4.368072E-10
        78  15 -1.732956E+04 -2.251859E+05  1.501407E+03 -3.016437E+05  2.878177E-09  3.192179E-09
        78  16  2.873515E+06  8.323338E+05  5.949988E+05  5.032570E+05 -6.719254E-10 -2.811564E-10
        78  17  2.523399E+06  7.483084E+05  5.280289E+05  4.506425E+05 -1.006049E-08 -3.035432E-09
        78  18  2.240356E+06  5.996453E+05  4.629855E+05  3.239220E+05 -1.148094E-08 -1.786843E-09
        78  19 -2.901111E+06 -1.284907E+06 -5.854467E+05 -1.102469E+06  4.348677E+04 -2.201035E+05
        78  20 -2.618869E+06 -1.134757E+06 -5.232331E+05 -9.767218E+05  3.536747E+04 -1.969115E+05
        78  21 -2.269785E+06 -1.049554E+06 -4.601855E+05 -9.251195E+05  2.711455E+04 -1.731826E+05
        78  22 -1.808310E+04 -2.266282E+05  5.030426E+03 -3.013427E+05  7.395546E+04 -2.085325E+05
        78  23 -5.112786E+04 -1.934918E+05  2.600460E+03 -2.644129E+05  6.655527E+04 -1.851131E+05
        78  24 -1.731885E+04 -2.251571E+05  1.556754E+03 -3.016514E+05  5.902168E+04 -1.611584E+05
        78  25  2.873537E+06  8.323784E+05  5.950921E+05  5.032404E+05  1.045776E+05 -1.969041E+05
        78  26  2.523417E+06  7.483432E+05  5.281033E+05  4.506288E+05  9.788270E+04 -1.732624E+05
        78  27  2.240371E+06  5.996714E+05  4.630428E+05  3.239110E+05  9.105385E+04 -1.490873E+05
        79   1 -2.051282E+06 -9.686088E+05 -4.139064E+05 -8.644864E+05 -2.222255E+04  1.592393E+05
        79   2 -1.767271E+06 -8.193076E+05 -3.504837E+05 -7.391043E+05 -1.351676E+04  1.354597E+05
        79   3 -1.417291E+06 -7.350758E+05 -2.867336E+05 -6.883652E+05 -4.837019E+03  1.116260E+05
        79   4 -1.729946E+04 -2.249616E+05  1.123792E+03 -3.017693E+05 -5.405013E+04  1.472671E+05
        79   5 -4.997855E+04 -1.919050E+05  5.430244E+02 -2.645521E+05 -4.541591E+04  1.234903E+05
        79   6 -1.679004E+04 -2.239050E+05  3.363262E+02 -3.020073E+05 -3.680768E+04  9.965957E+04
        79   7  2.020929E+06  5.190321E+05  4.159439E+05  2.626502E+05 -8.598999E+04  1.352529E+05
        79   8  1.670350E+06  4.357472E+05  3.514236E+05  2.112146E+05 -7.741019E+04  1.114853E+05
        79   9  1.385739E+06  2.874347E+05  2.873128E+05  8.515939E+04 -6.885629E+04  8.766401E+04
        79  10 -2.051289E+06 -9.686362E+05 -4.139550E+05 -8.644835E+05 -5.516450E-09 -4.250654E-09
        79  11 -1.767276E+06 -8.193273E+05 -3.505186E+05 -7.391029E+05 -1.381522E-08 -8.214568E-09
        79  12 -1.417294E+06 -7.350892E+05 -2.867571E+05 -6.883647E+05 -4.556160E-09 -2.951506E-09
        79  13 -1.730841E+04 -2.249856E+05  1.077552E+03 -3.017629E+05  5.186218E-09  2.725367E-09
        79  14 -4.998486E+04 -1.919220E+05  5.104944E+02 -2.645475E+05 -1.946744E-09 -2.781590E-09
        79  15 -1.679416E+04 -2.239161E+05  3.151183E+02 -3.020043E+05 -3.172362E-09 -1.517232E-09
        79  16  2.020916E+06  5.190105E+05  4.158956E+05  2.626596E+05  1.263999E-08  7.389916E-09
        79  17  1.670340E+06  4.357322E+05  3.513890E+05  2.112216E+05 -5.513503E-12  1.448912E-09
        79  18  1.385732E+06  2.874251E+05  2.872894E+05  8.516425E+04 -1.901835E-09 -1.917758E-09
        79  19 -2.051282E+06 -9.686088E+05 -4.139064E+05 -8.644864E+05  2.222255E+04 -1.592393E+05
        79  20 -1.767271E+06 -8.193076E+05 -3.504837E+05 -7.391043E+05  1.351676E+04 -1.354597E+05
        79  21 -1.417291E+06 -7.350758E+05 -2.867336E+05 -6.883652E+05  4.837019E+03 -1.116260E+05
        79  22 -1.729946E+04 -2.249616E+05  1.123792E+03 -3.017693E+05  5.405013E+04 -1.472671E+05
        79  23 -4.997855E+04 -1.919050E+05  5.430244E+02 -2.645521E+05  4.541591E+04 -1.234903E+05
        79  24 -1.679004E+04 -2.239050E+05  3.363262E+02 -3.020073E+05  3.680768E+04 -9.965957E+04
        79  25  2.020929E+06  5.190321E+05  4.159439E+05  2.626502E+05  8.598999E+04 -1.352529E+05
        79  26  1.670350E+06  4.357472E+05  3.514236E+05  2.112146E+05  7.741019E+04 -1.114853E+05
        79  27  1.385739E+06  2.874347E+05  2.873128E+05  8.515939E+04  6.885629E+04 -8.766401E+04
        80   1 -1.198025E+06 -6.544946E+05 -2.401212E+05 -6.279714E+05  3.004982E+02  9.777525E+04
        80   2 -9.128900E+05 -5.058105E+05 -1.763244E+05 -5.027603E+05  9.185149E+03  7.401288E+04
        80   3 -5.623146E+05 -4.222431E+05 -1.124818E+05 -4.524824E+05  1.804620E+04  5.025062E+04
        80   4 -1.676712E+04 -2.237882E+05  2.004071E+02 -3.020676E+05 -3.168452E+04  8.581679E+04
        80   5 -4.930195E+04 -1.909624E+05  3.578690E+00 -2.646431E+05 -2.280260E+04  6.206820E+04
        80   6 -1.650726E+04 -2.232567E+05 -1.508549E+02 -3.021855E+05 -1.394438E+04  3.832001E+04
        80   7  1.165928E+06  2.070362E+05  2.404559E+05  2.440964E+04 -6.373502E+04  7.383387E+04
        80   8  8.150511E+05  1.239476E+05  1.762970E+05 -2.622047E+04 -5.483810E+04  5.010569E+04
        80   9  5.296034E+05 -2.424666E+04  1.121678E+05 -1.517673E+05 -4.596497E+04  2.637819E+04
        80  10 -1.198027E+06 -6.545049E+05 -2.401392E+05 -6.279714E+05  3.925813E-09  7.937965E-10
        80  11 -9.128916E+05 -5.058164E+05 -1.763349E+05 -5.027609E+05  1.131680E-08  2.913489E-10
        80  12 -5.623156E+05 -4.222459E+05 -1.124872E+05 -4.524832E+05  8.665278E-09  1.324223E-09
        80  13 -1.677018E+04 -2.237964E+05  1.846829E+02 -3.020654E+05  4.660360E-09 -2.406931E-10
        80  14 -4.930355E+04 -1.909666E+05 -4.637060E+00 -2.646420E+05  3.514563E-09  6.407365E-11
        80  15 -1.650786E+04 -2.232584E+05 -1.539795E+02 -3.021850E+05  4.419111E-09  8.706331E-10
        80  16  1.165922E+06  2.070293E+05  2.404381E+05  2.441343E+04  3.571501E-09 -2.140698E-10
        80  17  8.150472E+05  1.239441E+05  1.762866E+05 -2.621826E+04  6.674975E-09  1.266362E-10
        80  18  5.296010E+05 -2.424797E+04  1.121625E+05 -1.517663E+05  1.698861E-09 -1.122047E-09
        80  19 -1.198025E+06 -6.544946E+05 -2.401212E+05 -6.279714E+05 -3.004982E+02 -9.777525E+04
        80  20 -9.128900E+05 -5.058105E+05 -1.763244E+05 -5.027603E+05 -9.185149E+03 -7.401288E+04
        80  21 -5.623146E+05 -4.222431E+05 -1.124818E+05 -4.524824E+05 -1.804620E+04 -5.025062E+04
        80  22 -1.676712E+04 -2.237882E+05  2.004071E+02 -3.020676E+05  3.168452E+04 -8.581679E+04
        80  23 -4.930195E+04 -1.909624E+05  3.578690E+00 -2.646431E+05  2.280260E+04 -6.206820E+04
        80  24 -1.650726E+04 -2.232567E+05 -1.508549E+02 -3.021855E+05  1.394438E+04 -3.832001E+04
        80  25  1.165928E+06  2.070362E+05  2.404559E+05  2.440964E+04  6.373502E+04 -7.383387E+04
        80  26  8.150511E+05  1.239476E+05  1.762970E+05 -2.622047E+04  5.483810E+04 -5.010569E+04
        80  27  5.296034E+05 -2.424666E+04  1.121678E+05 -1.517673E+05  4.596497E+04 -2.637819E+04
        81   1 -3.425744E+05 -3.418555E+05 -6.584256E+04 -3.921479E+05  2.329668E+04  3.644018E+04
        81   2 -5.694844E+04 -1.935277E+05 -2.100459E+03 -2.669024E+05  3.213727E+04  1.277725E+04
        81   3  2.939410E+05 -1.103020E+05  6.163735E+04 -2.166776E+05  4.089271E+04 -1.065896E+04
        81   4 -1.651401E+04 -2.232160E+05 -2.765132E+02 -3.022100E+05 -8.751348E+03  2.449267E+04
        81   5 -4.905893E+04 -1.906342E+05 -6.168668E+02 -2.646752E+05  3.863656E+02  9.404129E+02
        81   6 -1.651226E+04 -2.232265E+05 -1.201105E+03 -3.022048E+05  9.438820E+03 -2.238481E+04
        81   7  3.096609E+05 -1.045657E+05  6.528946E+04 -2.122271E+05 -4.081770E+04  1.253831E+04
        81   8 -4.116707E+04 -1.877398E+05  8.710498E+02 -2.624473E+05 -3.136510E+04 -1.089664E+04
        81   9 -3.268643E+05 -3.361422E+05 -6.404015E+04 -3.876920E+05 -2.199820E+04 -3.410438E+04
        81  10 -3.425754E+05 -3.418571E+05 -6.584608E+04 -3.921486E+05  2.316877E-08  8.843978E-09
        81  11 -5.694959E+04 -1.935282E+05 -2.102708E+03 -2.669027E+05  4.634661E-09  3.057381E-09
        81  12  2.939391E+05 -1.103026E+05  6.163399E+04 -2.166772E+05 -1.824716E-08 -7.561430E-09
        81  13 -1.651425E+04 -2.232167E+05 -2.777843E+02 -3.022098E+05  1.227606E-09  1.301667E-09
        81  14 -4.905893E+04 -1.906342E+05 -6.168687E+02 -2.646752E+05  5.621215E-09  5.764899E-09
        81  15 -1.651249E+04 -2.232271E+05 -1.202213E+03 -3.022046E+05 -7.854058E-10 -1.868189E-10
        81  16  3.096590E+05 -1.045663E+05  6.528603E+04 -2.122267E+05 -2.079249E-08 -5.823594E-09
        81  17 -4.116816E+04 -1.877402E+05  8.689772E+02 -2.624476E+05  5.598287E-09  3.464465E-09
        81  18 -3.268652E+05 -3.361436E+05 -6.404325E+04 -3.876926E+05  2.282661E-08  1.174211E-08
        81  19 -3.425744E+05 -3.418555E+05 -6.584256E+04 -3.921479E+05 -2.329668E+04 -3.644018E+04
        81  20 -5.694844E+04 -1.935277E+05 -2.100459E+03 -2.669024E+05 -3.213727E+04 -1.277725E+04
        81  21  2.939410E+05 -1.103020E+05  6.163735E+04 -2.166776E+05 -4.089271E+04  1.065896E+04
        81  22 -1.651401E+04 -2.232160E+05 -2.765132E+02 -3.022100E+05  8.751348E+03 -2.449267E+04
        81  23 -4.905893E+04 -1.906342E+05 -6.168668E+02 -2.646752E+05 -3.863656E+02 -9.404129E+02
        81  24 -1.651226E+04 -2.232265E+05 -1.201105E+03 -3.022048E+05 -9.438820E+03  2.238481E+04
        81  25  3.096609E+05 -1.045657E+05  6.528946E+04 -2.122271E+05  4.081770E+04 -1.253831E+04
        81  26 -4.116707E+04 -1.877398E+05  8.710498E+02 -2.624473E+05  3.136510E+04  1.089664E+04
        81  27 -3.268643E+05 -3.361422E+05 -6.404015E+04 -3.876920E+05  2.199820E+04  3.410438E+04
        82   1  5.139844E+05 -2.995384E+04  1.079695E+05 -1.562960E+05  4.705994E+04 -2.417021E+04
        82   2  7.991737E+05  1.184133E+05  1.720748E+05 -3.076199E+04  5.196031E+04 -4.748575E+04
        82   3  1.150085E+06  2.020145E+05  2.387204E+05  2.015677E+04  5.552615E+04 -6.718329E+04
        82   4 -1.662690E+04 -2.231918E+05 -1.614553E+03 -3.021937E+05  1.483817E+04 -3.618661E+04
        82   5 -4.914492E+04 -1.910305E+05 -3.036648E+03 -2.646358E+05  2.460971E+04 -5.769911E+04
        82   6 -1.700315E+04 -2.246136E+05 -5.771132E+03 -3.017406E+05  3.304745E+04 -7.559008E+04
        82   7 -5.469436E+05 -4.164044E+05 -1.112078E+05 -4.479749E+05 -1.735376E+04 -4.819190E+04
        82   8 -8.967255E+05 -5.004144E+05 -1.781826E+05 -4.982149E+05 -2.700754E+03 -6.789747E+04
        82   9 -1.182710E+06 -6.511336E+05 -2.503372E+05 -6.230838E+05  1.061401E+04 -8.397994E+04
        82  10  5.139818E+05 -2.995506E+04  1.079642E+05 -1.562950E+05  1.696154E-09 -2.197502E-09
        82  11  7.991702E+05  1.184102E+05  1.720655E+05 -3.076000E+04  4.760092E-10 -4.740578E-10
        82  12  1.150080E+06  2.020088E+05  2.387061E+05  2.015977E+04 -4.597937E-09 -1.918071E-09
        82  13 -1.662748E+04 -2.231933E+05 -1.617428E+03 -3.021932E+05 -1.965410E-09 -1.582551E-09
        82  14 -4.914647E+04 -1.910343E+05 -3.044041E+03 -2.646346E+05 -1.859527E-09 -1.188466E-09
        82  15 -1.700586E+04 -2.246200E+05 -5.783920E+03 -3.017385E+05 -9.316198E-09 -2.293666E-09
        82  16 -5.469446E+05 -4.164070E+05 -1.112127E+05 -4.479756E+05 -6.999300E-10  1.803812E-09
        82  17 -8.967267E+05 -5.004194E+05 -1.781913E+05 -4.982151E+05 -1.600144E-09 -2.456382E-09
        82  18 -1.182712E+06 -6.511412E+05 -2.503506E+05 -6.230830E+05 -5.073751E-09 -2.759810E-09
        82  19  5.139844E+05 -2.995384E+04  1.079695E+05 -1.562960E+05 -4.705994E+04  2.417021E+04
        82  20  7.991737E+05  1.184133E+05  1.720748E+05 -3.076199E+04 -5.196031E+04  4.748575E+04
        82  21  1.150085E+06  2.020145E+05  2.387204E+05  2.015677E+04 -5.552615E+04  6.718329E+04
        82  22 -1.662690E+04 -2.231918E+05 -1.614553E+03 -3.021937E+05 -1.483817E+04  3.618661E+04
        82  23 -4.914492E+04 -1.910305E+05 -3.036648E+03 -2.646358E+05 -2.460971E+04  5.769911E+04
        82  24 -1.700315E+04 -2.246136E+05 -5.771132E+03 -3.017406E+05 -3.304745E+04  7.559008E+04
        82  25 -5.469436E+05 -4.164044E+05 -1.112078E+05 -4.479749E+05  1.735376E+04  4.819190E+04
        82  26 -8.967255E+05 -5.004144E+05 -1.781826E+05 -4.982149E+05  2.700754E+03  6.789747E+04
        82  27 -1.182710E+06 -6.511336E+05 -2.503372E+05 -6.230838E+05 -1.061401E+04  8.397994E+04
        83   1  1.372754E+06  2.826864E+05  2.835821E+05  7.907045E+04  7.399861E+04 -7.690049E+04
        83   2  1.649225E+06  4.348654E+05  3.658580E+05  2.090762E+05  2.955158E+03 -1.000102E+05
        83   3  1.996717E+06  5.223471E+05  4.991270E+05  2.717724E+05 -8.961009E+04 -6.586763E+04
        83   4 -1.848526E+04 -2.231958E+05 -7.507891E+03 -3.018890E+05  3.935957E+04 -8.986046E+04
        83   5 -4.820338E+04 -1.954482E+05 -1.413652E+04 -2.636995E+05  4.573674E+04 -8.403137E+04
        83   6 -2.229997E+04 -2.477423E+05 -3.100821E+04 -2.928708E+05  3.060384E+04 -2.085403E+04
        83   7 -1.407755E+06 -7.289268E+05 -2.986997E+05 -6.820672E+05  4.803811E+03 -1.027897E+05
        83   8 -1.742709E+06 -8.255189E+05 -3.942998E+05 -7.352818E+05  8.839150E+04 -6.810105E+04
        83   9 -2.037283E+06 -1.017509E+06 -5.614125E+05 -8.558215E+05  1.503866E+05  2.399114E+04
        83  10  1.372746E+06  2.826785E+05  2.835608E+05  7.907503E+04 -7.915703E-09 -2.847090E-09
        83  11  1.649223E+06  4.348547E+05  3.658392E+05  2.090764E+05  8.690902E-09  2.159019E-09
        83  12  1.996707E+06  5.223403E+05  4.991038E+05  2.717676E+05  6.289850E-09  2.426769E-09
        83  13 -1.848909E+04 -2.232048E+05 -7.525973E+03 -3.018862E+05 -2.149331E-09  3.668453E-10
        83  14 -4.820752E+04 -1.954563E+05 -1.415372E+04 -2.636964E+05  8.098113E-09  2.433696E-09
        83  15 -2.230109E+04 -2.477431E+05 -3.101078E+04 -2.928703E+05  2.655593E-09  9.722770E-10
        83  16 -1.407758E+06 -7.289382E+05 -2.987196E+05 -6.820668E+05  5.543775E-09  1.167105E-09
        83  17 -1.742718E+06 -8.255260E+05 -3.943232E+05 -7.352770E+05  1.041424E-08  1.920114E-09
        83  18 -2.037308E+06 -1.017515E+06 -5.614563E+05 -8.558244E+05 -2.097479E-10 -9.406527E-10
        83  19  1.372754E+06  2.826864E+05  2.835821E+05  7.907045E+04 -7.399861E+04  7.690049E+04
        83  20  1.649225E+06  4.348654E+05  3.658580E+05  2.090762E+05 -2.955158E+03  1.000102E+05
        83  21  1.996717E+06  5.223471E+05  4.991270E+05  2.717724E+05  8.961009E+04  6.586763E+04
        83  22 -1.848526E+04 -2.231958E+05 -7.507891E+03 -3.018890E+05 -3.935957E+04  8.986046E+04
        83  23 -4.820338E+04 -1.954482E+05 -1.413652E+04 -2.636995E+05 -4.573674E+04  8.403137E+04
        83  24 -2.229997E+04 -2.477423E+05 -3.100821E+04 -2.928708E+05 -3.060384E+04  2.085403E+04
        83  25 -1.407755E+06 -7.289268E+05 -2.986997E+05 -6.820672E+05 -4.803811E+03  1.027897E+05
        83  26 -1.742709E+06 -8.255189E+05 -3.942998E+05 -7.352818E+05 -8.839150E+04  6.810105E+04
        83  27 -2.037283E+06 -1.017509E+06 -5.614125E+05 -8.558215E+05 -1.503866E+05 -2.399114E+04
        84   1 -1.504593E+05 -7.800378E+04 -6.917443E+04 -5.543055E+04 -1.541510E+04  5.430830E+03
        84   2 -9.357341E+04 -8.160141E+04 -5.289367E+04 -6.244209E+04 -2.578887E+03  1.809150E+04
        84   3 -3.577064E+04 -7.491696E+04 -4.239948E+04 -7.789834E+04  1.026174E+04  2.143414E+04
        84   4  3.082867E+05  3.496508E+04  3.701054E+04 -7.923454E+04  2.615069E+04  5.436793E+03
        84   5  3.059005E+05  1.259875E+04  1.869417E+04 -7.501139E+04  1.662667E+04  1.809223E+04
        84   6  3.083064E+05  4.391592E+03  1.011634E+04 -7.923193E+04  7.105670E+03  2.143287E+04
        84   7  7.672320E+05  1.479222E+05  1.431882E+05 -1.030562E+05  6.774696E+04  5.439568E+03
        84   8  7.055311E+05  1.067908E+05  9.027737E+04 -8.758901E+04  3.584423E+04  1.809218E+04
        84   9  6.525020E+05  8.369446E+04  6.262967E+04 -8.056629E+04  3.947915E+03  2.143161E+04
        84  10 -1.504596E+05 -7.800388E+04 -6.917493E+04 -5.543048E+04  7.001468E-10 -1.642159E-11
        84  11 -9.357350E+04 -8.160177E+04 -5.289430E+04 -6.244205E+04  2.937282E-10 -7.206505E-11
        84  12 -3.577088E+04 -7.491748E+04 -4.240054E+04 -7.789851E+04 -1.812777E-09 -1.060905E-10
        84  13  3.082859E+05  3.496487E+04  3.700920E+04 -7.923465E+04  1.124326E-10  3.059693E-10
        84  14  3.059001E+05  1.259833E+04  1.869304E+04 -7.501163E+04  1.371217E-10  2.809425E-10
        84  15  3.083062E+05  4.391086E+03  1.011539E+04 -7.923205E+04  1.499440E-09 -4.107158E-10
        84  16  7.672270E+05  1.479210E+05  1.431796E+05 -1.030565E+05 -3.607111E-10  5.093777E-10
        84  17  7.055297E+05  1.067901E+05  9.027434E+04 -8.758953E+04  1.354115E-09  6.879869E-10
        84  18  6.525018E+05  8.369396E+04  6.262877E+04 -8.056636E+04  3.024836E-09 -4.031783E-10
        84  19 -1.504593E+05 -7.800378E+04 -6.917443E+04 -5.543055E+04  1.541510E+04 -5.430830E+03
        84  20 -9.357341E+04 -8.160141E+04 -5.289367E+04 -6.244209E+04  2.578887E+03 -1.809150E+04
        84  21 -3.577064E+04 -7.491696E+04 -4.239948E+04 -7.789834E+04 -1.026174E+04 -2.143414E+04
        84  22  3.082867E+05  3.496508E+04  3.701054E+04 -7.923454E+04 -2.615069E+04 -5.436793E+03
        84  23  3.059005E+05  1.259875E+04  1.869417E+04 -7.501139E+04 -1.662667E+04 -1.809223E+04
        84  24  3.083064E+05  4.391592E+03  1.011634E+04 -7.923193E+04 -7.105670E+03 -2.143287E+04
        84  25  7.672320E+05  1.479222E+05  1.431882E+05 -1.030562E+05 -6.774696E+04 -5.439568E+03
        84  26  7.055311E+05  1.067908E+05  9.027737E+04 -8.758901E+04 -3.584423E+04 -1.809218E+04
        84  27  6.525020E+05  8.369446E+04  6.262967E+04 -8.056629E+04 -3.947915E+03 -2.143161E+04
        85   1 -7.133842E+02 -6.749842E+04 -3.784765E+04 -7.750873E+04  9.687321E+03  2.023700E+04
        85   2  5.649608E+04 -5.597763E+04 -3.046600E+04 -7.390293E+04  1.067247E+04  1.798214E+04
        85   3  1.138138E+05 -4.355105E+04 -2.349734E+04 -7.943228E+04  1.165747E+04  1.446790E+04
        85   4  3.073855E+05  3.189330E+03  7.543555E+03 -7.938605E+04  5.789084E+03  2.023595E+04
        85   5  3.070760E+05  1.035262E+03  4.068527E+03 -7.481867E+04  3.750712E+03  1.798152E+04
        85   6  3.073959E+05  3.115905E+02  2.279252E+03 -7.938611E+04  1.712104E+03  1.446800E+04
        85   7  6.155800E+05  7.387268E+04  5.293312E+04 -8.126434E+04  1.888992E+03  2.023492E+04
        85   8  5.577198E+05  5.804543E+04  3.860252E+04 -7.573480E+04 -3.173717E+03  1.798093E+04
        85   9  5.010164E+05  4.417269E+04  2.805592E+04 -7.933992E+04 -8.236218E+03  1.446809E+04
        85  10 -7.135950E+02 -6.749889E+04 -3.784859E+04 -7.750889E+04 -4.462214E-09  6.490058E-10
        85  11  5.649587E+04 -5.597801E+04 -3.046682E+04 -7.390308E+04  2.434172E-10  1.344505E-09
        85  12  1.138136E+05 -4.355132E+04 -2.349799E+04 -7.943242E+04  1.149085E-09 -3.425722E-10
        85  13  3.073854E+05  3.188881E+03  7.542723E+03 -7.938615E+04 -2.043663E-09  2.416382E-10
        85  14  3.070759E+05  1.034911E+03  4.067893E+03 -7.481873E+04 -1.974128E-09  1.165190E-09
        85  15  3.073959E+05  3.113649E+02  2.278853E+03 -7.938613E+04 -1.971990E-09 -9.859003E-11
        85  16  6.155798E+05  7.387224E+04  5.293234E+04 -8.126437E+04  3.458054E-09 -3.379453E-10
        85  17  5.577197E+05  5.804508E+04  3.860190E+04 -7.573475E+04  1.948481E-09  8.876053E-10
        85  18  5.010163E+05  4.417245E+04  2.805540E+04 -7.933982E+04 -4.154371E-09  1.698448E-10
        85  19 -7.133842E+02 -6.749842E+04 -3.784765E+04 -7.750873E+04 -9.687321E+03 -2.023700E+04
        85  20  5.649608E+04 -5.597763E+04 -3.046600E+04 -7.390293E+04 -1.067247E+04 -1.798214E+04
        85  21  1.138138E+05 -4.355105E+04 -2.349734E+04 -7.943228E+04 -1.165747E+04 -1.446790E+04
        85  22  3.073855E+05  3.189330E+03  7.543555E+03 -7.938605E+04 -5.789084E+03 -2.023595E+04
        85  23  3.070760E+05  1.035262E+03  4.068527E+03 -7.481867E+04 -3.750712E+03 -1.798152E+04
        85  24  3.073959E+05  3.115905E+02  2.279252E+03 -7.938611E+04 -1.712104E+03 -1.446800E+04
        85  25  6.155800E+05  7.387268E+04  5.293312E+04 -8.126434E+04 -1.888992E+03 -2.023492E+04
        85  26  5.577198E+05  5.804543E+04  3.860252E+04 -7.573480E+04  3.173717E+03 -1.798093E+04
        85  27  5.010164E+05  4.417269E+04  2.805592E+04 -7.933992E+04  8.236218E+03 -1.446809E+04
        86   1  1.490915E+05 -3.556843E+04 -1.907174E+04 -7.936007E+04  1.142230E+04  1.199816E+04
        86   2  2.063240E+05 -2.276262E+04 -1.218259E+04 -7.479531E+04  1.135294E+04  7.728507E+03
        86   3  2.635870E+05 -9.891412E+03 -5.231294E+03 -7.945727E+04  1.128336E+04  3.289313E+03
        86   4  3.072803E+05  2.188979E+02  1.716584E+03 -7.940654E+04  1.376848E+03  1.199854E+04
        86   5  3.072330E+05  4.180615E+01  9.598336E+02 -7.479324E+04  9.000063E+02  7.729201E+03
        86   6  3.072844E+05  1.098128E+00  5.480216E+02 -7.940657E+04  4.229616E+02  3.290329E+03
        86   7  4.654949E+05  3.600522E+04  2.250512E+04 -7.945302E+04 -8.671044E+03  1.199892E+04
        86   8  4.081527E+05  2.284586E+04  1.410261E+04 -7.479117E+04 -9.554543E+03  7.729894E+03
        86   9  3.509840E+05  9.893591E+03  6.327766E+03 -7.935586E+04 -1.043816E+04  3.291343E+03
        86  10  1.490913E+05 -3.556861E+04 -1.907225E+04 -7.936018E+04 -3.430810E-09 -3.747444E-10
        86  11  2.063238E+05 -2.276272E+04 -1.218295E+04 -7.479538E+04  1.058940E-09  1.193231E-09
        86  12  2.635868E+05 -9.891458E+03 -5.231553E+03 -7.945730E+04  2.505872E-09  5.341999E-10
        86  13  3.072802E+05  2.187427E+02  1.716310E+03 -7.940655E+04  2.047502E-09 -2.784464E-10
        86  14  3.072330E+05  4.174177E+01  9.597198E+02 -7.479324E+04  1.083476E-09  6.826240E-10
        86  15  3.072844E+05  1.086453E+00  5.480009E+02 -7.940657E+04  4.010275E-11  2.821521E-10
        86  16  4.654947E+05  3.600505E+04  2.250470E+04 -7.945294E+04  4.343713E-09 -1.752502E-10
        86  17  4.081526E+05  2.284577E+04  1.410233E+04 -7.479111E+04  1.658885E-10  1.788043E-10
        86  18  3.509838E+05  9.893550E+03  6.327541E+03 -7.935583E+04  1.029301E-10 -1.045481E-10
        86  19  1.490915E+05 -3.556843E+04 -1.907174E+04 -7.936007E+04 -1.142230E+04 -1.199816E+04
        86  20  2.063240E+05 -2.276262E+04 -1.218259E+04 -7.479531E+04 -1.135294E+04 -7.728507E+03
        86  21  2.635870E+05 -9.891412E+03 -5.231294E+03 -7.945727E+04 -1.128336E+04 -3.289313E+03
        86  22  3.072803E+05  2.188979E+02  1.716584E+03 -7.940654E+04 -1.376848E+03 -1.199854E+04
        86  23  3.072330E+05  4.180615E+01  9.598336E+02 -7.479324E+04 -9.000063E+02 -7.729201E+03
        86  24  3.072844E+05  1.098128E+00  5.480216E+02 -7.940657E+04 -4.229616E+02 -3.290329E+03
        86  25  4.654949E+05  3.600522E+04  2.250512E+04 -7.945302E+04  8.671044E+03 -1.199892E+04
        86  26  4.081527E+05  2.284586E+04  1.410261E+04 -7.479117E+04  9.554543E+03 -7.729894E+03
        86  27  3.509840E+05  9.893591E+03  6.327766E+03 -7.935586E+04  1.043816E+04 -3.291343E+03
        87   1  2.988870E+05 -1.892165E+03 -6.636801E+02 -7.944310E+04  1.121139E+04  6.485604E+02
        87   2  3.561294E+05  1.098780E+04  6.375190E+03 -7.481630E+04  1.113841E+04 -3.889610E+03
        87   3  4.133881E+05  2.387080E+04  1.346312E+04 -7.942839E+04  1.106555E+04 -8.446157E+03
        87   4  3.072672E+05 -8.750706E-01  4.153434E+02 -7.940930E+04  3.375779E+02  6.496220E+02
        87   5  3.072563E+05 -1.055717E+01  2.374318E+02 -7.478984E+04  2.198987E+02 -3.888686E+03
        87   6  3.072653E+05 -9.622191E+00  1.390026E+02 -7.940931E+04  1.023352E+02 -8.445379E+03
        87   7  3.156477E+05  1.890475E+03  1.494811E+03 -7.937550E+04 -1.053637E+04  6.506823E+02
        87   8  2.583860E+05 -1.100894E+04 -5.899885E+03 -7.476338E+04 -1.069780E+04 -3.887762E+03
        87   9  2.011543E+05 -2.389044E+04 -1.318469E+04 -7.939023E+04 -1.085910E+04 -8.444600E+03
        87  10  2.988869E+05 -1.892199E+03 -6.639170E+02 -7.944311E+04 -8.577797E-10  1.585665E-10
        87  11  3.561292E+05  1.098775E+04  6.374928E+03 -7.481626E+04 -2.701476E-09 -5.985153E-12
        87  12  4.133880E+05  2.387069E+04  1.346276E+04 -7.942831E+04 -9.401435E-10 -1.610938E-09
        87  13  3.072672E+05 -8.755545E-01  4.153423E+02 -7.940930E+04  2.154198E-09  1.986443E-10
        87  14  3.072563E+05 -1.057342E+01  2.374033E+02 -7.478984E+04 -2.200308E-09  5.899503E-10
        87  15  3.072653E+05 -9.698794E+00  1.388685E+02 -7.940931E+04 -1.476564E-09 -5.464534E-10
        87  16  3.156476E+05  1.890445E+03  1.494601E+03 -7.937550E+04  1.970128E-09  2.346369E-10
        87  17  2.583859E+05 -1.100899E+04 -5.900128E+03 -7.476341E+04  4.166158E-09  1.176812E-09
        87  18  2.011541E+05 -2.389055E+04 -1.318505E+04 -7.939030E+04 -2.324218E-09  5.849747E-10
        87  19  2.988870E+05 -1.892165E+03 -6.636801E+02 -7.944310E+04 -1.121139E+04 -6.485604E+02
        87  20  3.561294E+05  1.098780E+04  6.375190E+03 -7.481630E+04 -1.113841E+04  3.889610E+03
        87  21  4.133881E+05  2.387080E+04  1.346312E+04 -7.942839E+04 -1.106555E+04  8.446157E+03
        87  22  3.072672E+05 -8.750706E-01  4.153434E+02 -7.940930E+04 -3.375779E+02 -6.496220E+02
        87  23  3.072563E+05 -1.055717E+01  2.374318E+02 -7.478984E+04 -2.198987E+02  3.888686E+03
        87  24  3.072653E+05 -9.622191E+00  1.390026E+02 -7.940931E+04 -1.023352E+02  8.445379E+03
        87  25  3.156477E+05  1.890475E+03  1.494811E+03 -7.937550E+04  1.053637E+04 -6.506823E+02
        87  26  2.583860E+05 -1.100894E+04 -5.899885E+03 -7.476338E+04  1.069780E+04  3.887762E+03
        87  27  2.011543E+05 -2.389044E+04 -1.318469E+04 -7.939023E+04  1.085910E+04  8.444600E+03
        88   1  4.486994E+05  3.186301E+04  1.810096E+04 -7.942466E+04  1.104297E+04 -1.110531E+04
        88   2  5.059528E+05  4.474220E+04  2.525824E+04 -7.479574E+04  1.093499E+04 -1.565472E+04
        88   3  5.632317E+05  5.763436E+04  3.249044E+04 -7.940647E+04  1.082746E+04 -2.017266E+04
        88   4  3.072613E+05 -1.075975E+01  1.075481E+02 -7.940950E+04  7.994227E+01 -1.110475E+04
        88   5  3.072528E+05 -1.716165E+01  6.638469E+01 -7.478960E+04  4.708076E+01 -1.565475E+04
        88   6  3.072534E+05 -2.358759E+01  4.767670E+01 -7.940950E+04  1.468194E+01 -2.017328E+04
        88   7  1.658439E+05 -3.188528E+04 -1.788548E+04 -7.939435E+04 -1.088072E+04 -1.110418E+04
        88   8  1.085936E+05 -4.477808E+04 -2.512516E+04 -7.478345E+04 -1.083752E+04 -1.565478E+04
        88   9  5.134263E+04 -5.768415E+04 -3.239487E+04 -7.941254E+04 -1.079386E+04 -2.017390E+04
        88  10  4.486992E+05  3.186284E+04  1.810050E+04 -7.942456E+04 -3.280111E-09 -2.242128E-09
        88  11  5.059526E+05  4.474191E+04  2.525756E+04 -7.479560E+04  1.251635E-09 -1.599532E-09
        88  12  5.632315E+05  5.763389E+04  3.248945E+04 -7.940629E+04  9.300880E-10 -4.920843E-10
        88  13  3.072612E+05 -1.089219E+01  1.073163E+02 -7.940950E+04 -1.915203E-09 -1.278169E-09
        88  14  3.072528E+05 -1.742486E+01  6.592408E+01 -7.478959E+04 -2.998274E-09 -1.307201E-09
        88  15  3.072533E+05 -2.402466E+01  4.691183E+01 -7.940950E+04 -1.839614E-09 -7.781067E-10
        88  16  1.658437E+05 -3.188545E+04 -1.788594E+04 -7.939444E+04  3.699925E-09 -2.626303E-10
        88  17  1.085934E+05 -4.477837E+04 -2.512584E+04 -7.478359E+04  1.970303E-09 -1.063180E-09
        88  18  5.134239E+04 -5.768461E+04 -3.239585E+04 -7.941271E+04  1.224914E-09 -1.107491E-09
        88  19  4.486994E+05  3.186301E+04  1.810096E+04 -7.942466E+04 -1.104297E+04  1.110531E+04
        88  20  5.059528E+05  4.474220E+04  2.525824E+04 -7.479574E+04 -1.093499E+04  1.565472E+04
        88  21  5.632317E+05  5.763436E+04  3.249044E+04 -7.940647E+04 -1.082746E+04  2.017266E+04
        88  22  3.072613E+05 -1.075975E+01  1.075481E+02 -7.940950E+04 -7.994227E+01  1.110475E+04
        88  23  3.072528E+05 -1.716165E+01  6.638469E+01 -7.478960E+04 -4.708076E+01  1.565475E+04
        88  24  3.072534E+05 -2.358759E+01  4.767670E+01 -7.940950E+04 -1.468194E+01  2.017328E+04
        88  25  1.658439E+05 -3.188528E+04 -1.788548E+04 -7.939435E+04  1.088072E+04  1.110418E+04
        88  26  1.085936E+05 -4.477808E+04 -2.512516E+04 -7.478345E+04  1.083752E+04  1.565478E+04
        88  27  5.134263E+04 -5.768415E+04 -3.239487E+04 -7.941254E+04  1.079386E+04  2.017390E+04
        89   1  5.985743E+05  6.563811E+04  3.721150E+04 -7.939680E+04  1.080040E+04 -2.279999E+04
        89   2  6.558058E+05  7.856278E+04  4.469296E+04 -7.476800E+04  1.015930E+04 -2.716475E+04
        89   3  7.131622E+05  9.159784E+04  5.262219E+04 -7.936400E+04  9.518885E+03 -3.127166E+04
        89   4  3.072512E+05 -2.886173E+01  4.412855E+01 -7.940624E+04  6.627862E+00 -2.280108E+04
        89   5  3.072368E+05 -4.085002E+01  4.545711E+01 -7.479368E+04 -1.544781E+01 -2.716681E+04
        89   6  3.072374E+05 -4.953591E+01  6.497858E+01 -7.940624E+04 -3.679611E+01 -3.127463E+04
        89   7  1.601525E+04 -6.569925E+04 -3.712315E+04 -7.941566E+04 -1.078233E+04 -2.280217E+04
        89   8 -4.120756E+04 -7.864943E+04 -4.460219E+04 -7.481934E+04 -1.018477E+04 -2.716888E+04
        89   9 -9.851859E+04 -9.170371E+04 -5.249278E+04 -7.944843E+04 -9.586536E+03 -3.127760E+04
        89  10  5.985740E+05  6.563752E+04  3.721030E+04 -7.939660E+04  6.411075E-10  5.212865E-10
        89  11  6.558055E+05  7.856196E+04  4.469138E+04 -7.476778E+04  1.197918E-09  1.621108E-09
        89  12  7.131619E+05  9.159677E+04  5.262018E+04 -7.936376E+04 -3.070589E-09  2.692294E-09
        89  13  3.072510E+05 -2.942008E+01  4.315144E+01 -7.940624E+04 -8.425344E-12  5.819879E-11
        89  14  3.072366E+05 -4.164266E+01  4.406999E+01 -7.479368E+04  9.931967E-10  1.655298E-09
        89  15  3.072372E+05 -5.058638E+01  6.314027E+01 -7.940624E+04 -5.304140E-11  2.928763E-09
        89  16  1.601499E+04 -6.569984E+04 -3.712434E+04 -7.941586E+04  6.213799E-10 -4.205511E-10
        89  17 -4.120786E+04 -7.865025E+04 -4.460378E+04 -7.481956E+04 -2.895371E-10  1.517906E-09
        89  18 -9.851895E+04 -9.170479E+04 -5.249479E+04 -7.944867E+04  7.575926E-09  3.396952E-09
        89  19  5.985743E+05  6.563811E+04  3.721150E+04 -7.939680E+04 -1.080040E+04  2.279999E+04
        89  20  6.558058E+05  7.856278E+04  4.469296E+04 -7.476800E+04 -1.015930E+04  2.716475E+04
        89  21  7.131622E+05  9.159784E+04  5.262219E+04 -7.936400E+04 -9.518885E+03  3.127166E+04
        89  22  3.072512E+05 -2.886173E+01  4.412855E+01 -7.940624E+04 -6.627862E+00  2.280108E+04
        89  23  3.072368E+05 -4.085002E+01  4.545711E+01 -7.479368E+04  1.544781E+01  2.716681E+04
        89  24  3.072374E+05 -4.953591E+01  6.497858E+01 -7.940624E+04  3.679611E+01  3.127463E+04
        89  25  1.601525E+04 -6.569925E+04 -3.712315E+04 -7.941566E+04  1.078233E+04  2.280217E+04
        89  26 -4.120756E+04 -7.864943E+04 -4.460219E+04 -7.481934E+04  1.018477E+04  2.716888E+04
        89  27 -9.851859E+04 -9.170371E+04 -5.249278E+04 -7.944843E+04  9.586536E+03  3.127760E+04
        90   1  7.486492E+05  9.971641E+04  5.780448E+04 -7.931530E+04  9.356281E+03 -3.363853E+04
        90   2  8.055705E+05  1.130230E+05  6.746211E+04 -7.477252E+04  4.689769E+03 -3.659649E+04
        90   3  8.633354E+05  1.271755E+05  8.037246E+04 -7.931271E+04  2.284769E+01 -3.763986E+04
        90   4  3.072378E+05 -5.517101E+01  8.197955E+01 -7.937475E+04 -4.855838E+01 -3.364214E+04
        90   5  3.072072E+05 -4.915942E+01  1.362286E+02 -7.483304E+04 -1.151024E+02 -3.660040E+04
        90   6  3.072185E+05  4.951428E+00  2.512779E+02 -7.937476E+04 -1.815730E+02 -3.764327E+04
        90   7 -1.339743E+05 -9.983488E+04 -5.764142E+04 -7.943415E+04 -9.447036E+03 -3.364576E+04
        90   8 -1.909034E+05 -1.131320E+05 -6.719191E+04 -7.489350E+04 -4.916298E+03 -3.660431E+04
        90   9 -2.485865E+05 -1.271798E+05 -7.987475E+04 -7.943675E+04 -3.858184E+02 -3.764667E+04
        90  10  7.486488E+05  9.971517E+04  5.780219E+04 -7.931505E+04 -2.760214E-08  3.757465E-09
        90  11  8.055701E+05  1.130216E+05  6.745955E+04 -7.477238E+04  4.551599E-09  5.478338E-09
        90  12  8.633350E+05  1.271740E+05  8.036979E+04 -7.931271E+04  4.092184E-08  5.160961E-09
        90  13  3.072375E+05 -5.638653E+01  7.985238E+01 -7.937475E+04  2.786895E-11  1.725059E-09
        90  14  3.072069E+05 -5.059812E+01  1.337109E+02 -7.483304E+04  2.189874E-09 -4.272989E-09
        90  15  3.072181E+05  3.429571E+00  2.486146E+02 -7.937477E+04 -2.891790E-09 -1.124385E-08
        90  16 -1.339747E+05 -9.983612E+04 -5.764372E+04 -7.943440E+04  2.730325E-08  4.289039E-09
        90  17 -1.909037E+05 -1.131335E+05 -6.719447E+04 -7.489365E+04 -9.002714E-09  6.321755E-09
        90  18 -2.485869E+05 -1.271813E+05 -7.987741E+04 -7.943676E+04 -4.419096E-08  7.489628E-09
        90  19  7.486492E+05  9.971641E+04  5.780448E+04 -7.931530E+04 -9.356281E+03  3.363853E+04
        90  20  8.055705E+05  1.130230E+05  6.746211E+04 -7.477252E+04 -4.689769E+03  3.659649E+04
        90  21  8.633354E+05  1.271755E+05  8.037246E+04 -7.931271E+04 -2.284769E+01  3.763986E+04
        90  22  3.072378E+05 -5.517101E+01  8.197955E+01 -7.937475E+04  4.855838E+01  3.364214E+04
        90  23  3.072072E+05 -4.915942E+01  1.362286E+02 -7.483304E+04  1.151024E+02  3.660040E+04
        90  24  3.072185E+05  4.951428E+00  2.512779E+02 -7.937476E+04  1.815730E+02  3.764327E+04
        90  25 -1.339743E+05 -9.983488E+04 -5.764142E+04 -7.943415E+04  9.447036E+03  3.364576E+04
        90  26 -1.909034E+05 -1.131320E+05 -6.719191E+04 -7.489350E+04  4.916298E+03  3.660431E+04
        90  27 -2.485865E+05 -1.271798E+05 -7.987475E+04 -7.943675E+04  3.858184E+02  3.764667E+04
        91   1  8.997564E+05  1.361605E+05  8.887275E+04 -7.903318E+04 -1.149084E+03 -3.807190E+04
        91   2  9.541787E+05  1.523777E+05  1.144438E+05 -7.535953E+04 -3.550164E+04 -3.061484E+04
        91   3  1.014702E+06  1.749912E+05  1.639642E+05 -7.971455E+04 -6.986836E+04 -8.991620E+03
        91   4  3.072452E+05  3.561705E+01  3.369466E+02 -7.914021E+04 -2.256486E+02 -3.807518E+04
        91   5  3.071356E+05  3.001221E+02  6.154775E+02 -7.512632E+04 -5.332371E+02 -3.060445E+04
        91   6  3.072213E+05  1.057948E+03  1.222174E+03 -7.914056E+04 -8.508734E+02 -8.960823E+03
        91   7 -2.849138E+05 -1.361058E+05 -8.820564E+04 -7.924713E+04  6.969425E+02 -3.807846E+04
        91   8 -3.394959E+05 -1.517997E+05 -1.132235E+05 -7.489337E+04  3.439984E+04 -3.059404E+04
        91   9 -3.997864E+05 -1.729076E+05 -1.615351E+05 -7.856725E+04  6.808869E+04 -8.929883E+03
        91  10  8.997560E+05  1.361589E+05  8.887002E+04 -7.903322E+04 -1.121078E-07  4.124470E-09
        91  11  9.541771E+05  1.523764E+05  1.144397E+05 -7.536041E+04 -1.118704E-08  1.827750E-09
        91  12  1.014696E+06  1.749898E+05  1.639549E+05 -7.971505E+04  9.303038E-08  4.365420E-10
        91  13  3.072448E+05  3.406006E+01  3.342218E+02 -7.914021E+04 -3.463750E-10 -1.347383E-08
        91  14  3.071353E+05  2.991161E+02  6.137165E+02 -7.512633E+04  2.539778E-09 -5.859450E-09
        91  15  3.072212E+05  1.057862E+03  1.222022E+03 -7.914056E+04 -4.847214E-10 -1.523026E-09
        91  16 -2.849142E+05 -1.361074E+05 -8.820836E+04 -7.924711E+04  1.147839E-07  6.510895E-09
        91  17 -3.394974E+05 -1.518010E+05 -1.132275E+05 -7.489253E+04  9.558245E-09  3.915191E-09
        91  18 -3.997914E+05 -1.729090E+05 -1.615440E+05 -7.856676E+04 -9.262827E-08  8.015804E-11
        91  19  8.997564E+05  1.361605E+05  8.887275E+04 -7.903318E+04  1.149084E+03  3.807190E+04
        91  20  9.541787E+05  1.523777E+05  1.144438E+05 -7.535953E+04  3.550164E+04  3.061484E+04
        91  21  1.014702E+06  1.749912E+05  1.639642E+05 -7.971455E+04  6.986836E+04  8.991620E+03
        91  22  3.072452E+05  3.561705E+01  3.369466E+02 -7.914021E+04  2.256486E+02  3.807518E+04
        91  23  3.071356E+05  3.001221E+02  6.154775E+02 -7.512632E+04  5.332371E+02  3.060445E+04
        91  24  3.072213E+05  1.057948E+03  1.222174E+03 -7.914056E+04  8.508734E+02  8.960823E+03
        91  25 -2.849138E+05 -1.361058E+05 -8.820564E+04 -7.924713E+04 -6.969425E+02  3.807846E+04
        91  26 -3.394959E+05 -1.517997E+05 -1.132235E+05 -7.489337E+04 -3.439984E+04  3.059404E+04
        91  27 -3.997864E+05 -1.729076E+05 -1.615351E+05 -7.856725E+04 -6.808869E+04  8.929883E+03
        92   1  1.462685E+05  7.224797E+05  1.401947E+05 -2.451119E+05  5.098166E+03  3.343890E+04
        92   2  9.627394E+04  5.306482E+05  8.015751E+04 -2.294505E+05  1.428626E+04  4.032835E+03
        92   3  5.115068E+04  3.438808E+05  4.046293E+04 -2.454112E+05  1.041370E+04 -2.536718E+04
        92   4 -6.139120E+02  1.286966E+05 -7.361854E+02 -2.452773E+05  5.123017E+03 -1.625624E+03
        92   5 -1.219685E+01  1.287354E+05  4.823860E+02 -2.294651E+05  1.429137E+04 -1.852437E+03
        92   6  4.024504E+02  1.287468E+05  1.795841E+03 -2.452766E+05  1.039515E+04 -2.081820E+03
        92   7 -1.475210E+05 -4.647604E+05 -1.416870E+05 -2.454423E+05  5.147904E+03 -3.665681E+04
        92   8 -9.630816E+04 -2.730229E+05 -7.920060E+04 -2.294796E+05  1.429649E+04 -7.733981E+03
        92   9 -5.034806E+04 -8.634096E+04 -3.687101E+04 -2.451421E+05  1.037660E+04  2.119570E+04
        92  10  1.462682E+05  7.224785E+05  1.401925E+05 -2.451121E+05 -2.858423E-10  1.448432E-09
        92  11  9.627372E+04  5.306481E+05  8.015709E+04 -2.294505E+05 -5.472243E-10 -1.083562E-09
        92  12  5.115039E+04  3.438800E+05  4.046152E+04 -2.454110E+05 -7.772473E-10 -4.893837E-09
        92  13 -6.139409E+02  1.286966E+05 -7.362397E+02 -2.452773E+05  4.062809E-10 -1.580997E-11
        92  14 -1.241709E+01  1.287353E+05  4.819957E+02 -2.294650E+05  2.349377E-09 -2.166299E-10
        92  15  4.023332E+02  1.287467E+05  1.795630E+03 -2.452766E+05 -2.050207E-09  2.541667E-11
        92  16 -1.475214E+05 -4.647619E+05 -1.416896E+05 -2.454422E+05  1.862595E-09 -1.134492E-09
        92  17 -9.630839E+04 -2.730230E+05 -7.920110E+04 -2.294795E+05  3.956183E-09  1.323028E-09
        92  18 -5.034830E+04 -8.634147E+04 -3.687205E+04 -2.451422E+05 -4.531265E-09  4.576990E-09
        92  19  1.462685E+05  7.224797E+05  1.401947E+05 -2.451119E+05 -5.098166E+03 -3.343890E+04
        92  20  9.627394E+04  5.306482E+05  8.015751E+04 -2.294505E+05 -1.428626E+04 -4.032835E+03
        92  21  5.115068E+04  3.438808E+05  4.046293E+04 -2.454112E+05 -1.041370E+04  2.536718E+04
        92  22 -6.139120E+02  1.286966E+05 -7.361854E+02 -2.452773E+05 -5.123017E+03  1.625624E+03
        92  23 -1.219685E+01  1.287354E+05  4.823860E+02 -2.294651E+05 -1.429137E+04  1.852437E+03
        92  24  4.024504E+02  1.287468E+05  1.795841E+03 -2.452766E+05 -1.039515E+04  2.081820E+03
        92  25 -1.475210E+05 -4.647604E+05 -1.416870E+05 -2.454423E+05 -5.147904E+03  3.665681E+04
        92  26 -9.630816E+04 -2.730229E+05 -7.920060E+04 -2.294796E+05 -1.429649E+04  7.733981E+03
        92  27 -5.034806E+04 -8.634096E+04 -3.687101E+04 -2.451421E+05 -1.037660E+04 -2.119570E+04
        93   1  2.352579E+04  2.253442E+05  2.134281E+04 -2.456527E+05  3.721128E+03 -2.614023E+04
        93   2 -1.994921E+04  3.588867E+04 -8.443512E+03 -2.283035E+05 -6.644946E+03 -2.760025E+04
        93   3 -6.190215E+04 -1.529842E+05 -3.690779E+04 -2.433950E+05 -1.653532E+04 -2.905915E+04
        93   4  5.000775E+02  1.289221E+05  2.617093E+03 -2.454581E+05  3.701681E+03 -2.465918E+03
        93   5  1.278178E+03  1.285505E+05  5.030887E+03 -2.292370E+05 -6.662833E+03 -4.991648E+03
        93   6  3.764253E+03  1.289099E+05  9.504693E+03 -2.454559E+05 -1.655172E+04 -7.516674E+03
        93   7 -2.252589E+04  3.251011E+04 -1.610696E+04 -2.452636E+05  3.682247E+03  2.120480E+04
        93   8  2.250545E+04  2.212220E+05  1.850706E+04 -2.301707E+05 -6.680787E+03  1.762018E+04
        93   9  6.942683E+04  4.108836E+05  5.591660E+04 -2.475177E+05 -1.656825E+04  1.403525E+04
        93  10  2.352559E+04  2.253435E+05  2.134150E+04 -2.456526E+05 -4.449149E-09  6.470856E-09
        93  11 -1.994947E+04  3.588784E+04 -8.445027E+03 -2.283037E+05 -3.929953E-09  1.366416E-09
        93  12 -6.190267E+04 -1.529851E+05 -3.690989E+04 -2.433954E+05  2.948692E-10 -5.254176E-09
        93  13  5.000612E+02  1.289221E+05  2.617055E+03 -2.454581E+05 -5.061073E-09 -1.220650E-11
        93  14  1.278124E+03  1.285504E+05  5.030756E+03 -2.292371E+05  1.970339E-09 -2.365667E-10
        93  15  3.763944E+03  1.289098E+05  9.504072E+03 -2.454560E+05 -3.810555E-09  5.485102E-11
        93  16 -2.252603E+04  3.250962E+04 -1.610783E+04 -2.452637E+05  9.388401E-10 -6.075496E-09
        93  17  2.250532E+04  2.212217E+05  1.850640E+04 -2.301706E+05 -9.482656E-11 -1.200924E-09
        93  18  6.942649E+04  4.108833E+05  5.591571E+04 -2.475175E+05 -3.567018E-09  4.994870E-09
        93  19  2.352579E+04  2.253442E+05  2.134281E+04 -2.456527E+05 -3.721128E+03  2.614023E+04
        93  20 -1.994921E+04  3.588867E+04 -8.443512E+03 -2.283035E+05  6.644946E+03  2.760025E+04
        93  21 -6.190215E+04 -1.529842E+05 -3.690779E+04 -2.433950E+05  1.653532E+04  2.905915E+04
        93  22  5.000775E+02  1.289221E+05  2.617093E+03 -2.454581E+05 -3.701681E+03  2.465918E+03
        93  23  1.278178E+03  1.285505E+05  5.030887E+03 -2.292370E+05  6.662833E+03  4.991648E+03
        93  24  3.764253E+03  1.289099E+05  9.504693E+03 -2.454559E+05  1.655172E+04  7.516674E+03
        93  25 -2.252589E+04  3.251011E+04 -1.610696E+04 -2.452636E+05 -3.682247E+03 -2.120480E+04
        93  26  2.250545E+04  2.212220E+05  1.850706E+04 -2.301707E+05  6.680787E+03 -1.762018E+04
        93  27  6.942683E+04  4.108836E+05  5.591660E+04 -2.475177E+05  1.656825E+04 -1.403525E+04
        94   1 -8.871058E+04 -2.706078E+05 -5.430838E+04 -2.442756E+05 -2.277880E+04 -3.017140E+04
        94   2 -1.249208E+05 -4.597775E+05 -8.856359E+04 -2.140765E+05 -2.375866E+04 -4.494619E+03
        94   3 -1.482302E+05 -6.490203E+05 -1.363166E+05 -2.151967E+05 -7.827725E+03  2.117577E+04
        94   4  4.866058E+03  1.301628E+05  1.275766E+04 -2.452062E+05 -2.279358E+04 -9.173371E+03
        94   5  1.489773E+04  1.269071E+05  2.361153E+04 -2.295382E+05 -2.374538E+04 -2.122308E+04
        94   6  4.437340E+04  1.300868E+05  4.716696E+04 -2.451834E+05 -7.794955E+03 -3.327102E+04
        94   7  9.843454E+04  5.310929E+05  7.982039E+04 -2.461374E+05 -2.280842E+04  1.183777E+04
        94   8  1.546970E+05  7.139245E+05  1.357722E+05 -2.450148E+05 -2.373126E+04 -3.796699E+04
        94   9  2.369385E+05  9.097611E+05  2.306204E+05 -2.752079E+05 -7.756954E+03 -8.778578E+04
        94  10 -8.871138E+04 -2.706089E+05 -5.431107E+04 -2.442762E+05 -1.299735E-09  5.296615E-09
        94  11 -1.249214E+05 -4.597777E+05 -8.856469E+04 -2.140766E+05  4.786792E-10  1.769347E-09
        94  12 -1.482303E+05 -6.490208E+05 -1.363176E+05 -2.151966E+05  7.669156E-10 -2.909818E-09
        94  13  4.865477E+03  1.301626E+05  1.275653E+04 -2.452064E+05 -2.843325E-10 -1.190627E-11
        94  14  1.489701E+04  1.269064E+05  2.360963E+04 -2.295386E+05 -2.183402E-10 -1.829736E-10
        94  15  4.437303E+04  1.300856E+05  4.716477E+04 -2.451836E+05 -3.010699E-10  2.868720E-11
        94  16  9.843394E+04  5.310926E+05  7.981915E+04 -2.461372E+05  4.514130E-10 -4.786219E-09
        94  17  1.546960E+05  7.139228E+05  1.357684E+05 -2.450155E+05  4.223107E-09 -1.488469E-09
        94  18  2.369364E+05  9.097528E+05  2.306058E+05 -2.752084E+05  9.003386E-10  2.864475E-09
        94  19 -8.871058E+04 -2.706078E+05 -5.430838E+04 -2.442756E+05  2.277880E+04  3.017140E+04
        94  20 -1.249208E+05 -4.597775E+05 -8.856359E+04 -2.140765E+05  2.375866E+04  4.494619E+03
        94  21 -1.482302E+05 -6.490203E+05 -1.363166E+05 -2.151967E+05  7.827725E+03 -2.117577E+04
        94  22  4.866058E+03  1.301628E+05  1.275766E+04 -2.452062E+05  2.279358E+04  9.173371E+03
        94  23  1.489773E+04  1.269071E+05  2.361153E+04 -2.295382E+05  2.374538E+04  2.122308E+04
        94  24  4.437340E+04  1.300868E+05  4.716696E+04 -2.451834E+05  7.794955E+03  3.327102E+04
        94  25  9.843454E+04  5.310929E+05  7.982039E+04 -2.461374E+05  2.280842E+04 -1.183777E+04
        94  26  1.546970E+05  7.139245E+05  1.357722E+05 -2.450148E+05  2.373126E+04  3.796699E+04
        94  27  2.369385E+05  9.097611E+05  2.306204E+05 -2.752079E+05  7.756954E+03  8.778578E+04
        95   1 -2.996410E+05 -1.699298E+05 -1.092368E+05 -1.247400E+05 -5.233674E+04 -1.665341E+04
        95   2 -2.806392E+05 -1.037834E+05 -6.330874E+04 -1.164608E+05 -3.282970E+04 -2.766321E+03
        95   3 -2.743802E+05 -7.944584E+04 -4.374394E+04 -1.038519E+05 -1.144140E+04  6.112260E+03
        95   4 -1.411544E+05 -8.192074E+04 -6.244026E+04 -5.205815E+04 -4.120747E+04 -1.247993E+04
        95   5 -1.320182E+05 -3.730809E+04 -2.832765E+04 -6.336872E+04 -2.844896E+04 -1.123467E+03
        95   6 -1.342843E+05 -3.316315E+04 -1.522705E+04 -7.035151E+04 -1.380995E+04  5.223500E+03
        95   7  1.735693E+04  6.099298E+03 -1.564609E+04  2.064255E+04 -3.007526E+04 -8.304062E+03
        95   8  1.662501E+04  2.917186E+04  6.651862E+03 -1.026412E+04 -2.406711E+04  5.200139E+02
        95   9  5.832432E+03  1.312052E+04  1.328907E+04 -3.684435E+04 -1.617909E+04  4.334568E+03
        95  10 -2.996441E+05 -1.699308E+05 -1.092425E+05 -1.247407E+05  1.795107E-09 -1.051004E-10
        95  11 -2.806403E+05 -1.037837E+05 -6.331078E+04 -1.164609E+05 -4.693741E-09 -5.784544E-09
        95  12 -2.743804E+05 -7.944591E+04 -4.374426E+04 -1.038519E+05 -1.048293E-08 -6.956440E-09
        95  13 -1.411563E+05 -8.192137E+04 -6.244375E+04 -5.205857E+04 -5.895079E-09 -1.466315E-09
        95  14 -1.320190E+05 -3.730831E+04 -2.832917E+04 -6.336874E+04 -1.243178E-08 -5.051269E-09
        95  15 -1.342845E+05 -3.316323E+04 -1.522746E+04 -7.035145E+04 -1.448462E-08 -6.683088E-09
        95  16  1.735594E+04  6.098981E+03 -1.564792E+04  2.064235E+04 -6.712221E-09 -2.826380E-09
        95  17  1.662439E+04  2.917170E+04  6.650773E+03 -1.026411E+04 -1.349781E-08 -4.341331E-09
        95  18  5.832146E+03  1.312043E+04  1.328855E+04 -3.684429E+04 -1.300378E-08 -5.766180E-09
        95  19 -2.996410E+05 -1.699298E+05 -1.092368E+05 -1.247400E+05  5.233674E+04  1.665341E+04
        95  20 -2.806392E+05 -1.037834E+05 -6.330874E+04 -1.164608E+05  3.282970E+04  2.766321E+03
        95  21 -2.743802E+05 -7.944584E+04 -4.374394E+04 -1.038519E+05  1.144140E+04 -6.112260E+03
        95  22 -1.411544E+05 -8.192074E+04 -6.244026E+04 -5.205815E+04  4.120747E+04  1.247993E+04
        95  23 -1.320182E+05 -3.730809E+04 -2.832765E+04 -6.336872E+04  2.844896E+04  1.123467E+03
        95  24 -1.342843E+05 -3.316315E+04 -1.522705E+04 -7.035151E+04  1.380995E+04 -5.223500E+03
        95  25  1.735693E+04  6.099298E+03 -1.564609E+04  2.064255E+04  3.007526E+04  8.304062E+03
        95  26  1.662501E+04  2.917186E+04  6.651862E+03 -1.026412E+04  2.406711E+04 -5.200139E+02
        95  27  5.832432E+03  1.312052E+04  1.328907E+04 -3.684435E+04  1.617909E+04 -4.334568E+03
        96   1 -2.534276E+05 -8.024989E+04 -3.708026E+04 -1.028320E+05 -1.035658E+04  5.387851E+03
        96   2 -2.340163E+05 -6.808633E+04 -2.681183E+04 -9.452919E+04 -6.403522E+03  5.584729E+03
        96   3 -2.113145E+05 -6.197550E+04 -1.961336E+04 -9.095003E+04 -2.332042E+03  5.465906E+03
        96   4 -1.323761E+05 -3.527119E+04 -1.168084E+04 -6.869478E+04 -1.166456E+04  4.896978E+03
        96   5 -1.339292E+05 -3.133798E+04 -6.169218E+03 -6.668852E+04 -8.136448E+03  4.934534E+03
        96   6 -1.321077E+05 -3.337314E+04 -3.390348E+03 -6.940617E+04 -4.490033E+03  4.656367E+03
        96   7 -1.131059E+04  9.708474E+03  1.371752E+04 -3.455160E+04 -1.297279E+04  4.406002E+03
        96   8 -3.383179E+04  5.411225E+03  1.447289E+04 -3.884370E+04 -9.869675E+03  4.284225E+03
        96   9 -5.289373E+04 -4.770060E+03  1.283253E+04 -4.785962E+04 -6.648337E+03  3.846715E+03
        96  10 -2.534277E+05 -8.024995E+04 -3.708051E+04 -1.028320E+05 -1.376029E-08 -6.006028E-09
        96  11 -2.340164E+05 -6.808638E+04 -2.681197E+04 -9.452916E+04 -7.123697E-09  1.935088E-09
        96  12 -2.113145E+05 -6.197553E+04 -1.961343E+04 -9.095002E+04 -2.699901E-09  3.447529E-09
        96  13 -1.323763E+05 -3.527125E+04 -1.168114E+04 -6.869473E+04 -1.367095E-08 -4.031638E-09
        96  14 -1.339293E+05 -3.133803E+04 -6.169388E+03 -6.668849E+04 -1.080236E-08 -7.843018E-11
        96  15 -1.321077E+05 -3.337317E+04 -3.390426E+03 -6.940615E+04  1.481690E-09  1.908480E-09
        96  16 -1.131078E+04  9.708408E+03  1.371717E+04 -3.455155E+04 -4.284244E-09 -3.026519E-09
        96  17 -3.383190E+04  5.411180E+03  1.447267E+04 -3.884367E+04  1.009703E-09 -1.481051E-09
        96  18 -5.289378E+04 -4.770088E+03  1.283242E+04 -4.785960E+04  2.602809E-10  2.981488E-10
        96  19 -2.534276E+05 -8.024989E+04 -3.708026E+04 -1.028320E+05  1.035658E+04 -5.387851E+03
        96  20 -2.340163E+05 -6.808633E+04 -2.681183E+04 -9.452919E+04  6.403522E+03 -5.584729E+03
        96  21 -2.113145E+05 -6.197550E+04 -1.961336E+04 -9.095003E+04  2.332042E+03 -5.465906E+03
        96  22 -1.323761E+05 -3.527119E+04 -1.168084E+04 -6.869478E+04  1.166456E+04 -4.896978E+03
        96  23 -1.339292E+05 -3.133798E+04 -6.169218E+03 -6.668852E+04  8.136448E+03 -4.934534E+03
        96  24 -1.321077E+05 -3.337314E+04 -3.390348E+03 -6.940617E+04  4.490033E+03 -4.656367E+03
        96  25 -1.131059E+04  9.708474E+03  1.371752E+04 -3.455160E+04  1.297279E+04 -4.406002E+03
        96  26 -3.383179E+04  5.411225E+03  1.447289E+04 -3.884370E+04  9.869675E+03 -4.284225E+03
        96  27 -5.289373E+04 -4.770060E+03  1.283253E+04 -4.785962E+04  6.648337E+03 -3.846715E+03
        97   1 -1.962725E+05 -5.685395E+04 -1.564712E+04 -8.701402E+04 -1.572810E+03  4.690019E+03
        97   2 -1.770886E+05 -4.685061E+04 -1.018437E+04 -7.863286E+04 -2.598692E+02  3.401277E+03
        97   3 -1.536493E+05 -4.130866E+04 -5.281476E+03 -7.527924E+04  1.060498E+03  2.092522E+03
        97   4 -1.319695E+05 -3.345841E+04 -2.553383E+03 -6.931530E+04 -3.664290E+03  3.905475E+03
        97   5 -1.340965E+05 -3.121100E+04 -1.404286E+03 -6.680861E+04 -2.378257E+03  2.606691E+03
        97   6 -1.319633E+05 -3.341959E+04 -7.936535E+02 -6.932956E+04 -1.084828E+03  1.287888E+03
        97   7 -6.766223E+04 -1.006253E+04  1.054016E+04 -5.161490E+04 -5.756002E+03  3.120845E+03
        97   8 -9.110280E+04 -1.557130E+04  7.375669E+03 -5.498366E+04 -4.496793E+03  1.812049E+03
        97   9 -1.102771E+05 -2.553054E+04  3.694115E+03 -6.337973E+04 -3.230218E+03  4.832294E+02
        97  10 -1.962725E+05 -5.685397E+04 -1.564716E+04 -8.701401E+04  7.549899E-10  2.476649E-09
        97  11 -1.770886E+05 -4.685062E+04 -1.018439E+04 -7.863286E+04 -2.103774E-09 -1.189416E-09
        97  12 -1.536493E+05 -4.130866E+04 -5.281486E+03 -7.527925E+04  1.547677E-09 -3.071289E-09
        97  13 -1.319695E+05 -3.345843E+04 -2.553437E+03 -6.931529E+04 -1.799657E-10  7.752281E-10
        97  14 -1.340966E+05 -3.121101E+04 -1.404310E+03 -6.680861E+04  2.999104E-10 -9.487979E-10
        97  15 -1.319633E+05 -3.341959E+04 -7.936589E+02 -6.932956E+04 -6.463729E-10 -1.408871E-09
        97  16 -6.766226E+04 -1.006255E+04  1.054008E+04 -5.161488E+04 -1.967072E-09 -6.077605E-10
        97  17 -9.110282E+04 -1.557131E+04  7.375625E+03 -5.498365E+04 -2.643429E-09 -8.817214E-10
        97  18 -1.102771E+05 -2.553054E+04  3.694095E+03 -6.337973E+04 -1.865608E-09  4.525627E-10
        97  19 -1.962725E+05 -5.685395E+04 -1.564712E+04 -8.701402E+04  1.572810E+03 -4.690019E+03
        97  20 -1.770886E+05 -4.685061E+04 -1.018437E+04 -7.863286E+04  2.598692E+02 -3.401277E+03
        97  21 -1.536493E+05 -4.130866E+04 -5.281476E+03 -7.527924E+04 -1.060498E+03 -2.092522E+03
        97  22 -1.319695E+05 -3.345841E+04 -2.553383E+03 -6.931530E+04  3.664290E+03 -3.905475E+03
        97  23 -1.340965E+05 -3.121100E+04 -1.404286E+03 -6.680861E+04  2.378257E+03 -2.606691E+03
        97  24 -1.319633E+05 -3.341959E+04 -7.936535E+02 -6.932956E+04  1.084828E+03 -1.287888E+03
        97  25 -6.766223E+04 -1.006253E+04  1.054016E+04 -5.161490E+04  5.756002E+03 -3.120845E+03
        97  26 -9.110280E+04 -1.557130E+04  7.375669E+03 -5.498366E+04  4.496793E+03 -1.812049E+03
        97  27 -1.102771E+05 -2.553054E+04  3.694115E+03 -6.337973E+04  3.230218E+03 -4.832294E+02
        98   1 -1.389139E+05 -3.592598E+04 -1.968080E+03 -7.122124E+04  1.520462E+03  1.208627E+03
        98   2 -1.197889E+05 -2.597688E+04  2.545136E+03 -6.282155E+04  2.309043E+03 -3.080435E+02
        98   3 -9.631233E+04 -2.041174E+04  6.914424E+03 -5.944351E+04  3.098046E+03 -1.825775E+03
        98   4 -1.319458E+05 -3.342208E+04 -6.113117E+02 -6.932135E+04 -6.207464E+02  4.055463E+02
        98   5 -1.341218E+05 -3.123341E+04 -3.839291E+02 -6.680915E+04  1.663453E+02 -1.111705E+03
        98   6 -1.319468E+05 -3.342865E+04 -2.994389E+02 -6.931894E+04  9.538495E+02 -2.630017E+03
        98   7 -1.249775E+05 -3.091815E+04  7.454894E+02 -6.742142E+04 -2.761997E+03 -3.975498E+02
        98   8 -1.484545E+05 -3.648994E+04 -3.313001E+03 -7.079667E+04 -1.976308E+03 -1.915350E+03
        98   9 -1.675800E+05 -4.644546E+04 -7.513348E+03 -7.919384E+04 -1.190215E+03 -3.434209E+03
        98  10 -1.389139E+05 -3.592598E+04 -1.968087E+03 -7.122124E+04  2.968988E-09 -2.493393E-09
        98  11 -1.197889E+05 -2.597688E+04  2.545125E+03 -6.282155E+04 -1.056914E-08 -3.905388E-09
        98  12 -9.631234E+04 -2.041174E+04  6.914399E+03 -5.944350E+04 -7.173925E-09 -3.579621E-09
        98  13 -1.319458E+05 -3.342208E+04 -6.113127E+02 -6.932135E+04 -3.697528E-09 -1.879162E-09
        98  14 -1.341218E+05 -3.123341E+04 -3.839314E+02 -6.680915E+04 -1.049226E-08 -3.922550E-09
        98  15 -1.319468E+05 -3.342866E+04 -2.994536E+02 -6.931893E+04 -8.163171E-09 -4.768009E-09
        98  16 -1.249775E+05 -3.091815E+04  7.454748E+02 -6.742142E+04 -7.658044E-09 -1.328713E-09
        98  17 -1.484545E+05 -3.648994E+04 -3.313015E+03 -7.079668E+04 -8.535769E-09 -3.694357E-09
        98  18 -1.675800E+05 -4.644547E+04 -7.513373E+03 -7.919385E+04 -9.591680E-09 -5.849501E-09
        98  19 -1.389139E+05 -3.592598E+04 -1.968080E+03 -7.122124E+04 -1.520462E+03 -1.208627E+03
        98  20 -1.197889E+05 -2.597688E+04  2.545136E+03 -6.282155E+04 -2.309043E+03  3.080435E+02
        98  21 -9.631233E+04 -2.041174E+04  6.914424E+03 -5.944351E+04 -3.098046E+03  1.825775E+03
        98  22 -1.319458E+05 -3.342208E+04 -6.113117E+02 -6.932135E+04  6.207464E+02 -4.055463E+02
        98  23 -1.341218E+05 -3.123341E+04 -3.839291E+02 -6.680915E+04 -1.663453E+02  1.111705E+03
        98  24 -1.319468E+05 -3.342865E+04 -2.994389E+02 -6.931894E+04 -9.538495E+02  2.630017E+03
        98  25 -1.249775E+05 -3.091815E+04  7.454894E+02 -6.742142E+04  2.761997E+03  3.975498E+02
        98  26 -1.484545E+05 -3.648994E+04 -3.313001E+03 -7.079667E+04  1.976308E+03  1.915350E+03
        98  27 -1.675800E+05 -4.644546E+04 -7.513348E+03 -7.919384E+04  1.190215E+03  3.434209E+03
        99   1 -8.160651E+04 -1.501827E+04  1.004627E+04 -5.538311E+04  3.495217E+03 -2.732823E+03
        99   2 -6.248655E+04 -5.065718E+03  1.425158E+04 -4.698561E+04  4.276244E+03 -4.252956E+03
        99   3 -3.901464E+04  5.043797E+02  1.831891E+04 -4.360823E+04  5.056623E+03 -5.771067E+03
        99   4 -1.319473E+05 -3.342877E+04 -2.980981E+02 -6.931862E+04  1.351031E+03 -3.537088E+03
        99   5 -1.341230E+05 -3.123591E+04 -3.764783E+02 -6.680917E+04  2.134697E+03 -5.056311E+03
        99   6 -1.319476E+05 -3.342602E+04 -5.949164E+02 -6.931998E+04  2.917712E+03 -6.573520E+03
        99   7 -1.822851E+05 -5.183889E+04 -1.064247E+04 -8.325298E+04 -7.929511E+02 -4.341277E+03
        99   8 -2.057541E+05 -5.740566E+04 -1.500478E+04 -8.663062E+04 -6.584148E+00 -5.859567E+03
        99   9 -2.248725E+05 -6.735596E+04 -1.950935E+04 -9.502838E+04  7.791287E+02 -7.375849E+03
        99  10 -8.160652E+04 -1.501828E+04  1.004624E+04 -5.538310E+04 -2.831148E-09 -1.993181E-09
        99  11 -6.248657E+04 -5.065742E+03  1.425151E+04 -4.698560E+04  4.767511E-09  1.094005E-09
        99  12 -3.901468E+04  5.043370E+02  1.831879E+04 -4.360820E+04  6.504791E-09  4.726433E-10
        99  13 -1.319473E+05 -3.342878E+04 -2.981250E+02 -6.931862E+04 -7.046932E-09 -2.930505E-09
        99  14 -1.341230E+05 -3.123593E+04 -3.765349E+02 -6.680916E+04 -5.834965E-09  2.733695E-09
        99  15 -1.319477E+05 -3.342607E+04 -5.950136E+02 -6.931996E+04  4.803645E-09  7.612256E-09
        99  16 -1.822851E+05 -5.183891E+04 -1.064251E+04 -8.325298E+04 -7.948616E-09 -6.089290E-09
        99  17 -2.057541E+05 -5.740569E+04 -1.500484E+04 -8.663062E+04 -8.440714E-09 -5.006374E-09
        99  18 -2.248725E+05 -6.735602E+04 -1.950946E+04 -9.502837E+04 -6.205771E-09 -3.296140E-09
        99  19 -8.160651E+04 -1.501827E+04  1.004627E+04 -5.538311E+04 -3.495217E+03  2.732823E+03
        99  20 -6.248655E+04 -5.065718E+03  1.425158E+04 -4.698561E+04 -4.276244E+03  4.252956E+03
        99  21 -3.901464E+04  5.043797E+02  1.831891E+04 -4.360823E+04 -5.056623E+03  5.771067E+03
        99  22 -1.319473E+05 -3.342877E+04 -2.980981E+02 -6.931862E+04 -1.351031E+03  3.537088E+03
        99  23 -1.341230E+05 -3.123591E+04 -3.764783E+02 -6.680917E+04 -2.134697E+03  5.056311E+03
        99  24 -1.319476E+05 -3.342602E+04 -5.949164E+02 -6.931998E+04 -2.917712E+03  6.573520E+03
        99  25 -1.822851E+05 -5.183889E+04 -1.064247E+04 -8.325298E+04  7.929511E+02  4.341277E+03
        99  26 -2.057541E+05 -5.740566E+04 -1.500478E+04 -8.663062E+04  6.584148E+00  5.859567E+03
        99  27 -2.248725E+05 -6.735596E+04 -1.950935E+04 -9.502838E+04 -7.791287E+02  7.375849E+03
       100   1 -2.432267E+04  5.890558E+03  2.127196E+04 -3.956543E+04  5.523201E+03 -6.651984E+03
       100   2 -5.168486E+03  1.584461E+04  2.497375E+04 -3.117188E+04  6.754237E+03 -7.987890E+03
       100   3  1.825555E+04  2.135541E+04  2.818471E+04 -2.780049E+04  7.974433E+03 -9.294325E+03
       100   4 -1.319658E+05 -3.342383E+04 -7.710214E+02 -6.932731E+04  3.378532E+03 -7.456668E+03
       100   5 -1.341007E+05 -3.121879E+04 -1.362041E+03 -6.680888E+04  4.649089E+03 -8.777894E+03
       100   6 -1.319739E+05 -3.346496E+04 -2.475245E+03 -6.931288E+04  5.908778E+03 -1.006965E+04
       100   7 -2.395970E+05 -7.273722E+04 -2.281457E+04 -9.908442E+04  1.234263E+03 -8.261203E+03
       100   8 -2.630153E+05 -7.828059E+04 -2.769852E+04 -1.024389E+05  2.544420E+03 -9.567718E+03
       100   9 -2.821789E+05 -8.828297E+04 -3.313600E+04 -1.108157E+05  3.843677E+03 -1.084477E+04
       100  10 -2.432271E+04  5.890502E+03  2.127182E+04 -3.956540E+04 -8.836433E-10 -3.035192E-09
       100  11 -5.168552E+03  1.584453E+04  2.497355E+04 -3.117183E+04 -2.812861E-09 -3.399141E-09
       100  12  1.825546E+04  2.135530E+04  2.818443E+04 -2.780043E+04 -9.865301E-09 -1.185814E-09
       100  13 -1.319658E+05 -3.342389E+04 -7.711473E+02 -6.932729E+04 -3.993716E-09  7.168941E-09
       100  14 -1.341007E+05 -3.121888E+04 -1.362227E+03 -6.680885E+04  5.517675E-10  3.649078E-09
       100  15 -1.319739E+05 -3.346507E+04 -2.475501E+03 -6.931283E+04  4.839320E-10  2.058543E-10
       100  16 -2.395970E+05 -7.273730E+04 -2.281470E+04 -9.908442E+04  2.912441E-09 -1.673858E-11
       100  17 -2.630153E+05 -7.828069E+04 -2.769870E+04 -1.024389E+05  9.674435E-09  5.372064E-10
       100  18 -2.821789E+05 -8.828310E+04 -3.313624E+04 -1.108157E+05  7.273246E-09  7.591364E-10
       100  19 -2.432267E+04  5.890558E+03  2.127196E+04 -3.956543E+04 -5.523201E+03  6.651984E+03
       100  20 -5.168486E+03  1.584461E+04  2.497375E+04 -3.117188E+04 -6.754237E+03  7.987890E+03
       100  21  1.825555E+04  2.135541E+04  2.818471E+04 -2.780049E+04 -7.974433E+03  9.294325E+03
       100  22 -1.319658E+05 -3.342383E+04 -7.710214E+02 -6.932731E+04 -3.378532E+03  7.456668E+03
       100  23 -1.341007E+05 -3.121879E+04 -1.362041E+03 -6.680888E+04 -4.649089E+03  8.777894E+03
       100  24 -1.319739E+05 -3.346496E+04 -2.475245E+03 -6.931288E+04 -5.908778E+03  1.006965E+04
       100  25 -2.395970E+05 -7.273722E+04 -2.281457E+04 -9.908442E+04 -1.234263E+03  8.261203E+03
       100  26 -2.630153E+05 -7.828059E+04 -2.769852E+04 -1.024389E+05 -2.544420E+03  9.567718E+03
       100  27 -2.821789E+05 -8.828297E+04 -3.313600E+04 -1.108157E+05 -3.843677E+03  1.084477E+04
       101   1  3.301020E+04  2.665183E+04  3.049976E+04 -2.403133E+04  8.883222E+03 -1.001505E+04
       101   2  5.203122E+04  3.681933E+04  3.228366E+04 -1.505334E+04  1.178674E+04 -1.049182E+04
       101   3  7.457232E+04  4.120551E+04  3.191294E+04 -1.078992E+04  1.451749E+04 -1.050718E+04
       101   4 -1.321092E+05 -3.338054E+04 -3.285818E+03 -6.939766E+04  6.720519E+03 -1.082689E+04
       101   5 -1.339385E+05 -3.134913E+04 -5.978945E+03 -6.669515E+04  1.024517E+04 -1.107078E+04
       101   6 -1.323719E+05 -3.522284E+04 -1.131948E+04 -6.870774E+04  1.359694E+04 -1.085321E+04
       101   7 -2.972019E+05 -9.341118E+04 -3.707314E+04 -1.147533E+05  4.558417E+03 -1.163852E+04
       101   8 -3.198736E+05 -9.951494E+04 -4.424355E+04 -1.183229E+05  8.704093E+03 -1.164955E+04
       101   9 -3.392724E+05 -1.116475E+05 -5.455422E+04 -1.266077E+05  1.267672E+04 -1.119911E+04
       101  10  3.301009E+04  2.665170E+04  3.049942E+04 -2.403126E+04 -2.110122E-09  1.756449E-09
       101  11  5.203104E+04  3.681918E+04  3.228319E+04 -1.505324E+04  5.248467E-09  3.841714E-09
       101  12  7.457206E+04  4.120534E+04  3.191234E+04 -1.078980E+04  9.111524E-09  1.654476E-09
       101  13 -1.321092E+05 -3.338067E+04 -3.286123E+03 -6.939760E+04  3.926100E-09  9.543131E-10
       101  14 -1.339387E+05 -3.134929E+04 -5.979373E+03 -6.669506E+04  1.016221E-08  2.136820E-09
       101  15 -1.323721E+05 -3.522302E+04 -1.132005E+04 -6.870762E+04  9.421912E-09  8.378122E-10
       101  16 -2.972019E+05 -9.341133E+04 -3.707344E+04 -1.147532E+05  8.439056E-09  7.858285E-10
       101  17 -3.198737E+05 -9.951510E+04 -4.424395E+04 -1.183228E+05  8.272894E-09  1.600757E-09
       101  18 -3.392726E+05 -1.116477E+05 -5.455476E+04 -1.266076E+05  6.275937E-09 -2.476695E-10
       101  19  3.301020E+04  2.665183E+04  3.049976E+04 -2.403133E+04 -8.883222E+03  1.001505E+04
       101  20  5.203122E+04  3.681933E+04  3.228366E+04 -1.505334E+04 -1.178674E+04  1.049182E+04
       101  21  7.457232E+04  4.120551E+04  3.191294E+04 -1.078992E+04 -1.451749E+04  1.050718E+04
       101  22 -1.321092E+05 -3.338054E+04 -3.285818E+03 -6.939766E+04 -6.720519E+03  1.082689E+04
       101  23 -1.339385E+05 -3.134913E+04 -5.978945E+03 -6.669515E+04 -1.024517E+04  1.107078E+04
       101  24 -1.323719E+05 -3.522284E+04 -1.131948E+04 -6.870774E+04 -1.359694E+04  1.085321E+04
       101  25 -2.972019E+05 -9.341118E+04 -3.707314E+04 -1.147533E+05 -4.558417E+03  1.163852E+04
       101  26 -3.198736E+05 -9.951494E+04 -4.424355E+04 -1.183229E+05 -8.704093E+03  1.164955E+04
       101  27 -3.392724E+05 -1.116475E+05 -5.455422E+04 -1.266077E+05 -1.267672E+04  1.119911E+04
       102   1  9.169124E+04  4.472724E+04  3.158439E+04 -1.282948E+04  1.816907E+04 -1.030157E+04
       102   2  1.025036E+05  6.062626E+04  2.635202E+04  1.296052E+04  2.207806E+04 -6.747206E+03
       102   3  1.042437E+05  3.926553E+04  8.577430E+03  4.293266E+04  2.323963E+04  4.124095E+03
       102   4 -1.342442E+05 -3.315763E+04 -1.475570E+04 -7.028607E+04  1.569867E+04 -1.122935E+04
       102   5 -1.320618E+05 -3.716572E+04 -2.745142E+04 -6.351171E+04  2.947007E+04 -3.972799E+03
       102   6 -1.409110E+05 -8.039664E+04 -6.050717E+04 -5.255483E+04  4.049318E+04  1.060158E+04
       102   7 -3.601272E+05 -1.110396E+05 -6.109831E+04 -1.277239E+05  1.322923E+04 -1.215682E+04
       102   8 -3.665681E+05 -1.349477E+05 -8.125742E+04 -1.399550E+05  3.685899E+04 -1.199898E+03
       102   9 -3.859989E+05 -2.000388E+05 -1.295944E+05 -1.480018E+05  5.773893E+04  1.707419E+04
       102  10  9.169085E+04  4.472704E+04  3.158357E+04 -1.282933E+04  3.135516E-09 -1.599593E-09
       102  11  1.025031E+05  6.062608E+04  2.635102E+04  1.296064E+04  2.495993E-09 -5.070597E-10
       102  12  1.042431E+05  3.926537E+04  8.576383E+03  4.293258E+04  2.085449E-09  1.631462E-09
       102  13 -1.342445E+05 -3.315783E+04 -1.475640E+04 -7.028592E+04  1.062595E-08  3.554159E-10
       102  14 -1.320627E+05 -3.716597E+04 -2.745308E+04 -6.351162E+04  3.238375E-09  2.969280E-09
       102  15 -1.409128E+05 -8.039720E+04 -6.051046E+04 -5.255517E+04 -1.235085E-10  1.796096E-09
       102  16 -3.601274E+05 -1.110398E+05 -6.109891E+04 -1.277238E+05  4.335772E-09  3.032171E-09
       102  17 -3.665696E+05 -1.349481E+05 -8.125998E+04 -1.399549E+05  1.805412E-10  4.376594E-09
       102  18 -3.860026E+05 -2.000400E+05 -1.296012E+05 -1.480026E+05 -6.242876E-09  4.530926E-10
       102  19  9.169124E+04  4.472724E+04  3.158439E+04 -1.282948E+04 -1.816907E+04  1.030157E+04
       102  20  1.025036E+05  6.062626E+04  2.635202E+04  1.296052E+04 -2.207806E+04  6.747206E+03
       102  21  1.042437E+05  3.926553E+04  8.577430E+03  4.293266E+04 -2.323963E+04 -4.124095E+03
       102  22 -1.342442E+05 -3.315763E+04 -1.475570E+04 -7.028607E+04 -1.569867E+04  1.122935E+04
       102  23 -1.320618E+05 -3.716572E+04 -2.745142E+04 -6.351171E+04 -2.947007E+04  3.972799E+03
       102  24 -1.409110E+05 -8.039664E+04 -6.050717E+04 -5.255483E+04 -4.049318E+04 -1.060158E+04
       102  25 -3.601272E+05 -1.110396E+05 -6.109831E+04 -1.277239E+05 -1.322923E+04  1.215682E+04
       102  26 -3.665681E+05 -1.349477E+05 -8.125742E+04 -1.399550E+05 -3.685899E+04  1.199898E+03
       102  27 -3.859989E+05 -2.000388E+05 -1.295944E+05 -1.480018E+05 -5.773893E+04 -1.707419E+04
       103   1  7.439767E+05  1.197886E+05  1.066031E+05  1.150706E+04  2.948567E+04 -9.121239E+03
       103   2  7.124521E+05  1.342010E+05  9.036666E+04  2.308683E+04  1.159711E+04 -3.144227E+04
       103   3  6.796059E+05  1.339259E+05  8.211029E+04  3.945126E+04 -6.297689E+03 -3.966703E+04
       103   4  8.621573E+04 -4.204155E+04 -4.532424E+04  3.898725E+04 -3.184853E+04 -9.163670E+03
       103   5  8.944017E+04 -1.290080E+04 -2.255404E+04  3.657854E+04 -2.027878E+04 -3.146999E+04
       103   6  8.622643E+04 -3.568600E+03 -1.225313E+04  3.895436E+04 -8.716508E+03 -3.967274E+04
       103   7 -5.711359E+05 -2.038971E+05 -1.972659E+05  6.643806E+04 -9.311828E+04 -9.211551E+03
       103   8 -5.331918E+05 -1.600231E+05 -1.354862E+05  5.005628E+04 -5.212359E+04 -3.149911E+04
       103   9 -5.068030E+05 -1.410807E+05 -1.066256E+05  3.845786E+04 -1.113310E+04 -3.967846E+04
       103  10  7.439757E+05  1.197883E+05  1.066013E+05  1.150727E+04  2.125241E-09 -1.310292E-12
       103  11  7.124517E+05  1.341999E+05  9.036455E+04  2.308712E+04  2.522334E-09 -9.380698E-10
       103  12  6.796054E+05  1.339242E+05  8.210726E+04  3.945106E+04 -1.084453E-09 -1.184224E-09
       103  13  8.621462E+04 -4.204191E+04 -4.532631E+04  3.898701E+04 -1.943058E-09  2.709072E-10
       103  14  8.943946E+04 -1.290197E+04 -2.255668E+04  3.657803E+04 -3.234509E-09 -1.337699E-09
       103  15  8.622592E+04 -3.570311E+03 -1.225623E+04  3.895408E+04  2.518544E-09  1.913946E-10
       103  16 -5.711452E+05 -2.038996E+05 -1.972824E+05  6.643737E+04 -2.721529E-09 -5.089060E-10
       103  17 -5.331950E+05 -1.600249E+05 -1.354932E+05  5.005496E+04 -2.937833E-09 -3.855004E-09
       103  18 -5.068035E+05 -1.410824E+05 -1.066288E+05  3.845750E+04  8.547473E-10 -2.130532E-09
       103  19  7.439767E+05  1.197886E+05  1.066031E+05  1.150706E+04 -2.948567E+04  9.121239E+03
       103  20  7.124521E+05  1.342010E+05  9.036666E+04  2.308683E+04 -1.159711E+04  3.144227E+04
       103  21  6.796059E+05  1.339259E+05  8.211029E+04  3.945126E+04  6.297689E+03  3.966703E+04
       103  22  8.621573E+04 -4.204155E+04 -4.532424E+04  3.898725E+04  3.184853E+04  9.163670E+03
       103  23  8.944017E+04 -1.290080E+04 -2.255404E+04  3.657854E+04  2.027878E+04  3.146999E+04
       103  24  8.622643E+04 -3.568600E+03 -1.225313E+04  3.895436E+04  8.716508E+03  3.967274E+04
       103  25 -5.711359E+05 -2.038971E+05 -1.972659E+05  6.643806E+04  9.311828E+04  9.211551E+03
       103  26 -5.331918E+05 -1.600231E+05 -1.354862E+05  5.005628E+04  5.212359E+04  3.149911E+04
       103  27 -5.068030E+05 -1.410807E+05 -1.066256E+05  3.845786E+04  1.113310E+04  3.967846E+04
       104   1  6.598879E+05  1.293354E+05  7.970303E+04  3.808282E+04 -4.656825E+03 -3.982096E+04
       104   2  6.278881E+05  1.232960E+05  7.532295E+04  3.605903E+04 -5.592373E+03 -4.018292E+04
       104   3  5.957878E+05  1.163369E+05  7.132497E+04  3.982130E+04 -6.529859E+03 -3.889613E+04
       104   4  8.750612E+04 -2.867776E+03 -9.203082E+03  3.917918E+04 -7.129211E+03 -3.982679E+04
       104   5  8.786129E+04 -7.284711E+02 -5.010461E+03  3.628450E+04 -4.620902E+03 -4.018536E+04
       104   6  8.751740E+04 -1.068160E+02 -2.826747E+03  3.917620E+04 -2.114518E+03 -3.889443E+04
       104   7 -4.845488E+05 -1.350870E+05 -9.811678E+04  4.027442E+04 -9.599403E+03 -3.983264E+04
       104   8 -4.518727E+05 -1.247666E+05 -8.534936E+04  3.650968E+04 -3.650240E+03 -4.018780E+04
       104   9 -4.204928E+05 -1.165624E+05 -7.698275E+04  3.853157E+04  2.297362E+03 -3.889275E+04
       104  10  6.598875E+05  1.293337E+05  7.970001E+04  3.808267E+04 -3.753758E-09 -2.075722E-09
       104  11  6.278877E+05  1.232942E+05  7.531985E+04  3.605885E+04 -1.029927E-09 -4.606739E-11
       104  12  5.957874E+05  1.163353E+05  7.132204E+04  3.982110E+04  1.844047E-09 -9.287213E-10
       104  13  8.750564E+04 -2.869493E+03 -9.206158E+03  3.917895E+04  2.289581E-10 -8.642402E-10
       104  14  8.786084E+04 -7.302110E+02 -5.013536E+03  3.628435E+04  3.231122E-09 -1.398531E-10
       104  15  8.751699E+04 -1.084417E+02 -2.829598E+03  3.917613E+04  3.661252E-09 -2.417014E-09
       104  16 -4.845493E+05 -1.350887E+05 -9.811994E+04  4.027411E+04  3.475456E-09  1.103600E-09
       104  17 -4.518731E+05 -1.247683E+05 -8.535242E+04  3.650956E+04  2.894353E-09  1.169941E-09
       104  18 -4.204932E+05 -1.165641E+05 -7.698561E+04  3.853164E+04 -2.225339E-10 -8.157998E-10
       104  19  6.598879E+05  1.293354E+05  7.970303E+04  3.808282E+04  4.656825E+03  3.982096E+04
       104  20  6.278881E+05  1.232960E+05  7.532295E+04  3.605903E+04  5.592373E+03  4.018292E+04
       104  21  5.957878E+05  1.163369E+05  7.132497E+04  3.982130E+04  6.529859E+03  3.889613E+04
       104  22  8.750612E+04 -2.867776E+03 -9.203082E+03  3.917918E+04  7.129211E+03  3.982679E+04
       104  23  8.786129E+04 -7.284711E+02 -5.010461E+03  3.628450E+04  4.620902E+03  4.018536E+04
       104  24  8.751740E+04 -1.068160E+02 -2.826747E+03  3.917620E+04  2.114518E+03  3.889443E+04
       104  25 -4.845488E+05 -1.350870E+05 -9.811678E+04  4.027442E+04  9.599403E+03  3.983264E+04
       104  26 -4.518727E+05 -1.247666E+05 -8.534936E+04  3.650968E+04  3.650240E+03  4.018780E+04
       104  27 -4.204928E+05 -1.165624E+05 -7.698275E+04  3.853157E+04 -2.297362E+03  3.889275E+04
       105   1  5.757148E+05  1.116725E+05  6.871968E+04  3.967913E+04 -6.099003E+03 -3.760560E+04
       105   2  5.437098E+05  1.043900E+05  6.463973E+04  3.673165E+04 -5.904574E+03 -3.539994E+04
       105   3  5.116720E+05  9.708223E+04  6.042660E+04  3.968266E+04 -5.711018E+03 -3.300174E+04
       105   4  8.765347E+04 -7.289221E+01 -2.137179E+03  3.920143E+04 -1.690743E+03 -3.760350E+04
       105   5  8.771027E+04  5.494194E+01 -1.205499E+03  3.625195E+04 -1.094475E+03 -3.539673E+04
       105   6  8.766333E+04  8.765594E+01 -6.862033E+02  3.920122E+04 -4.990687E+02 -3.299734E+04
       105   7 -4.001678E+05 -1.118292E+05 -7.299787E+04  3.872404E+04  2.714200E+03 -3.760141E+04
       105   8 -3.680795E+05 -1.042897E+05 -6.705395E+04  3.577256E+04  3.712244E+03 -3.539352E+04
       105   9 -3.361639E+05 -9.691512E+04 -6.180173E+04  3.872007E+04  4.709474E+03 -3.299294E+04
       105  10  5.757144E+05  1.116710E+05  6.871695E+04  3.967894E+04 -3.367126E-09 -1.944601E-10
       105  11  5.437095E+05  1.043887E+05  6.463731E+04  3.673148E+04  3.139885E-10  1.048589E-09
       105  12  5.116716E+05  9.708106E+04  6.042449E+04  3.968251E+04  2.864242E-09  9.368537E-10
       105  13  8.765309E+04 -7.441146E+01 -2.139842E+03  3.920137E+04 -4.096192E-09 -2.678696E-09
       105  14  8.770993E+04  5.359614E+01 -1.207856E+03  3.625192E+04 -2.162652E-12  1.062635E-09
       105  15  8.766304E+04  8.648662E+01 -6.882500E+02  3.920121E+04 -4.783106E-10  2.651296E-09
       105  16 -4.001682E+05 -1.118307E+05 -7.300054E+04  3.872413E+04  2.387817E-09 -2.783858E-10
       105  17 -3.680799E+05 -1.042910E+05 -6.705633E+04  3.577266E+04 -5.883585E-09  1.211153E-09
       105  18 -3.361642E+05 -9.691630E+04 -6.180381E+04  3.872019E+04 -1.204301E-09 -1.625818E-10
       105  19  5.757148E+05  1.116725E+05  6.871968E+04  3.967913E+04  6.099003E+03  3.760560E+04
       105  20  5.437098E+05  1.043900E+05  6.463973E+04  3.673165E+04  5.904574E+03  3.539994E+04
       105  21  5.116720E+05  9.708223E+04  6.042660E+04  3.968266E+04  5.711018E+03  3.300174E+04
       105  22  8.765347E+04 -7.289221E+01 -2.137179E+03  3.920143E+04  1.690743E+03  3.760350E+04
       105  23  8.771027E+04  5.494194E+01 -1.205499E+03  3.625195E+04  1.094475E+03  3.539673E+04
       105  24  8.766333E+04  8.765594E+01 -6.862033E+02  3.920122E+04  4.990687E+02  3.299734E+04
       105  25 -4.001678E+05 -1.118292E+05 -7.299787E+04  3.872404E+04 -2.714200E+03  3.760141E+04
       105  26 -3.680795E+05 -1.042897E+05 -6.705395E+04  3.577256E+04 -3.712244E+03  3.539352E+04
       105  27 -3.361639E+05 -9.691512E+04 -6.180173E+04  3.872007E+04 -4.709474E+03  3.299294E+04
       106   1  4.915846E+05  9.245513E+04  5.755398E+04  3.965312E+04 -5.603081E+03 -3.154293E+04
       106   2  4.595860E+05  8.513585E+04  5.318792E+04  3.666769E+04 -5.508381E+03 -2.903793E+04
       106   3  4.275718E+05  7.783589E+04  4.876241E+04  3.959079E+04 -5.414271E+03 -2.651069E+04
       106   4  8.768391E+04  8.793520E+01 -5.179854E+02  3.920347E+04 -3.925186E+02 -3.153814E+04
       106   5  8.770057E+04  8.681820E+01 -2.902164E+02  3.624910E+04 -2.515752E+02 -2.903249E+04
       106   6  8.769199E+04  9.688358E+01 -1.542773E+02  3.920347E+04 -1.112169E+02 -2.650459E+04
       106   7 -3.160520E+05 -9.228668E+04 -5.859237E+04  3.875407E+04  4.814800E+03 -3.153335E+04
       106   8 -2.840452E+05 -8.496850E+04 -5.377039E+04  3.583073E+04  5.002218E+03 -2.902706E+04
       106   9 -2.520712E+05 -7.764738E+04 -4.907265E+04  3.881632E+04  5.189059E+03 -2.649850E+04
       106  10  4.915843E+05  9.245405E+04  5.755205E+04  3.965298E+04 -6.173383E-10  9.867958E-10
       106  11  4.595858E+05  8.513493E+04  5.318628E+04  3.666756E+04 -6.038171E-10  3.900961E-09
       106  12  4.275716E+05  7.783512E+04  4.876103E+04  3.959068E+04 -2.269126E-09  4.140724E-09
       106  13  8.768364E+04  8.686703E+01 -5.198549E+02  3.920346E+04 -1.830500E-09  3.641602E-10
       106  14  8.770034E+04  8.591304E+01 -2.918005E+02  3.624909E+04  2.216354E-09  3.729164E-09
       106  15  8.769180E+04  9.612919E+01 -1.555975E+02  3.920347E+04  9.478088E-10  1.043567E-09
       106  16 -3.160523E+05 -9.228775E+04 -5.859428E+04  3.875420E+04 -2.155900E-09 -4.437536E-10
       106  17 -2.840455E+05 -8.496941E+04 -5.377202E+04  3.583084E+04  1.667020E-09  2.768685E-10
       106  18 -2.520714E+05 -7.764814E+04 -4.907402E+04  3.881643E+04  5.580438E-09 -2.886812E-10
       106  19  4.915846E+05  9.245513E+04  5.755398E+04  3.965312E+04  5.603081E+03  3.154293E+04
       106  20  4.595860E+05  8.513585E+04  5.318792E+04  3.666769E+04  5.508381E+03  2.903793E+04
       106  21  4.275718E+05  7.783589E+04  4.876241E+04  3.959079E+04  5.414271E+03  2.651069E+04
       106  22  8.768391E+04  8.793520E+01 -5.179854E+02  3.920347E+04  3.925186E+02  3.153814E+04
       106  23  8.770057E+04  8.681820E+01 -2.902164E+02  3.624910E+04  2.515752E+02  2.903249E+04
       106  24  8.769199E+04  9.688358E+01 -1.542773E+02  3.920347E+04  1.112169E+02  2.650459E+04
       106  25 -3.160520E+05 -9.228668E+04 -5.859237E+04  3.875407E+04 -4.814800E+03  3.153335E+04
       106  26 -2.840452E+05 -8.496850E+04 -5.377039E+04  3.583073E+04 -5.002218E+03  2.902706E+04
       106  27 -2.520712E+05 -7.764738E+04 -4.907265E+04  3.881632E+04 -5.189059E+03  2.649850E+04
       107   1  4.074874E+05  7.321939E+04  4.579881E+04  3.957255E+04 -5.391604E+03 -2.503262E+04
       107   2  3.754982E+05  6.590801E+04  4.132731E+04  3.658751E+04 -5.381966E+03 -2.249340E+04
       107   3  3.434979E+05  5.861650E+04  3.684977E+04  3.951359E+04 -5.372763E+03 -1.995201E+04
       107   4  8.769732E+04  9.845682E+01 -1.073368E+02  3.920403E+04 -8.917566E+01 -2.502621E+04
       107   5  8.770671E+04  9.256972E+01 -3.496037E+01  3.624840E+04 -7.510190E+01 -2.248652E+04
       107   6  8.770357E+04  1.059370E+02  2.835874E+01  3.920403E+04 -6.146251E+01 -1.994467E+04
       107   7 -2.319894E+05 -7.302712E+04 -4.601494E+04  3.883568E+04  5.210639E+03 -2.501981E+04
       107   8 -2.000012E+05 -6.572663E+04 -4.139841E+04  3.590942E+04  5.229407E+03 -2.247966E+04
       107   9 -1.680247E+05 -5.840760E+04 -3.679397E+04  3.889458E+04  5.247743E+03 -1.993733E+04
       107  10  4.074872E+05  7.321871E+04  4.579758E+04  3.957244E+04  7.618282E-09  1.448798E-09
       107  11  3.754981E+05  6.590746E+04  4.132631E+04  3.658741E+04  7.195188E-09 -8.897640E-10
       107  12  3.434978E+05  5.861607E+04  3.684897E+04  3.951350E+04 -2.644936E-09 -9.113744E-10
       107  13  8.769715E+04  9.778424E+01 -1.085138E+02  3.920403E+04  4.292115E-10  3.627183E-09
       107  14  8.770657E+04  9.202673E+01 -3.591062E+01  3.624840E+04  3.044991E-11  3.433359E-10
       107  15  8.770346E+04  1.055098E+02  2.761118E+01  3.920403E+04 -2.464567E-09 -1.683509E-09
       107  16 -2.319896E+05 -7.302780E+04 -4.601617E+04  3.883578E+04 -5.056125E-09  1.162496E-09
       107  17 -2.000013E+05 -6.572718E+04 -4.139941E+04  3.590951E+04 -3.474208E-09 -1.452408E-09
       107  18 -1.680248E+05 -5.840803E+04 -3.679477E+04  3.889467E+04  2.138630E-09 -2.049940E-09
       107  19  4.074874E+05  7.321939E+04  4.579881E+04  3.957255E+04  5.391604E+03  2.503262E+04
       107  20  3.754982E+05  6.590801E+04  4.132731E+04  3.658751E+04  5.381966E+03  2.249340E+04
       107  21  3.434979E+05  5.861650E+04  3.684977E+04  3.951359E+04  5.372763E+03  1.995201E+04
       107  22  8.769732E+04  9.845682E+01 -1.073368E+02  3.920403E+04  8.917566E+01  2.502621E+04
       107  23  8.770671E+04  9.256972E+01 -3.496037E+01  3.624840E+04  7.510190E+01  2.248652E+04
       107  24  8.770357E+04  1.059370E+02  2.835874E+01  3.920403E+04  6.146251E+01  1.994467E+04
       107  25 -2.319894E+05 -7.302712E+04 -4.601494E+04  3.883568E+04 -5.210639E+03  2.501981E+04
       107  26 -2.000012E+05 -6.572663E+04 -4.139841E+04  3.590942E+04 -5.229407E+03  2.247966E+04
       107  27 -1.680247E+05 -5.840760E+04 -3.679397E+04  3.889458E+04 -5.247743E+03  1.993733E+04
       108   1  3.234210E+05  5.400225E+04  3.387634E+04  3.949537E+04 -5.382330E+03 -1.847217E+04
       108   2  2.914354E+05  4.669562E+04  2.942140E+04  3.650509E+04 -5.454470E+03 -1.593067E+04
       108   3  2.594487E+05  3.942254E+04  2.501581E+04  3.942362E+04 -5.526910E+03 -1.339087E+04
       108   4  8.770790E+04  1.076401E+02  6.142746E+01  3.920351E+04 -7.144517E+01 -1.846460E+04
       108   5  8.771082E+04  1.042237E+02  1.454909E+02  3.624904E+04 -1.472599E+02 -1.592277E+04
       108   6  8.771233E+04  1.350140E+02  2.813954E+02  3.920348E+04 -2.233777E+02 -1.338265E+04
       108   7 -1.479490E+05 -5.378948E+04 -3.375423E+04  3.891175E+04  5.237510E+03 -1.845703E+04
       108   8 -1.159718E+05 -4.648905E+04 -2.913095E+04  3.599305E+04  5.158284E+03 -1.591488E+04
       108   9 -8.399426E+04 -3.915384E+04 -2.445338E+04  3.898338E+04  5.078751E+03 -1.337444E+04
       108  10  3.234209E+05  5.400187E+04  3.387565E+04  3.949529E+04  4.733191E-09  1.067951E-09
       108  11  2.914353E+05  4.669534E+04  2.942087E+04  3.650502E+04  2.676922E-09 -1.876580E-09
       108  12  2.594487E+05  3.942234E+04  2.501542E+04  3.942356E+04 -1.034554E-09 -2.051470E-09
       108  13  8.770781E+04  1.072740E+02  6.078673E+01  3.920351E+04 -1.749342E-09 -7.110192E-10
       108  14  8.771075E+04  1.039514E+02  1.450144E+02  3.624903E+04  3.232354E-09 -1.565643E-09
       108  15  8.771228E+04  1.348217E+02  2.810588E+02  3.920347E+04 -1.331458E-09 -1.273803E-09
       108  16 -1.479492E+05 -5.378985E+04 -3.375492E+04  3.891183E+04 -2.571049E-09  1.964530E-11
       108  17 -1.159719E+05 -4.648933E+04 -2.913147E+04  3.599312E+04 -3.150717E-09 -6.815399E-09
       108  18 -8.399433E+04 -3.915404E+04 -2.445376E+04  3.898344E+04  1.363874E-10 -3.304337E-09
       108  19  3.234210E+05  5.400225E+04  3.387634E+04  3.949537E+04  5.382330E+03  1.847217E+04
       108  20  2.914354E+05  4.669562E+04  2.942140E+04  3.650509E+04  5.454470E+03  1.593067E+04
       108  21  2.594487E+05  3.942254E+04  2.501581E+04  3.942362E+04  5.526910E+03  1.339087E+04
       108  22  8.770790E+04  1.076401E+02  6.142746E+01  3.920351E+04  7.144517E+01  1.846460E+04
       108  23  8.771082E+04  1.042237E+02  1.454909E+02  3.624904E+04  1.472599E+02  1.592277E+04
       108  24  8.771233E+04  1.350140E+02  2.813954E+02  3.920348E+04  2.233777E+02  1.338265E+04
       108  25 -1.479490E+05 -5.378948E+04 -3.375423E+04  3.891175E+04 -5.237510E+03  1.845703E+04
       108  26 -1.159718E+05 -4.648905E+04 -2.913095E+04  3.599305E+04 -5.158284E+03  1.591488E+04
       108  27 -8.399426E+04 -3.915384E+04 -2.445338E+04  3.898338E+04 -5.078751E+03  1.337444E+04
       109   1  2.393914E+05  3.481249E+04  2.210461E+04  3.942230E+04 -5.585275E+03 -1.191265E+04
       109   2  2.073745E+05  2.758306E+04  1.785430E+04  3.631249E+04 -5.896007E+03 -9.381954E+03
       109   3  1.754327E+05  2.057687E+04  1.385531E+04  3.910887E+04 -6.206874E+03 -6.867066E+03
       109   4  8.773149E+04  1.406140E+02  3.781435E+02  3.920294E+04 -2.819654E+02 -1.190428E+04
       109   5  8.769312E+04  2.160535E+02  6.794872E+02  3.624952E+04 -6.258254E+02 -9.373454E+03
       109   6  8.773407E+04  5.203899E+02  1.254944E+03  3.920233E+04 -9.698350E+02 -6.858432E+03
       109   7 -6.390512E+04 -3.453229E+04 -2.134857E+04  3.898364E+04  5.020105E+03 -1.189592E+04
       109   8 -3.197372E+04 -2.715159E+04 -1.649544E+04  3.618656E+04  4.643384E+03 -9.364953E+03
       109   9  4.325789E+01 -1.953643E+04 -1.134544E+04  3.929578E+04  4.266496E+03 -6.849796E+03
       109  10  2.393913E+05  3.481233E+04  2.210429E+04  3.942224E+04 -3.100042E-09  8.048406E-10
       109  11  2.073744E+05  2.758296E+04  1.785407E+04  3.631245E+04  4.331980E-09 -2.977368E-09
       109  12  1.754326E+05  2.057681E+04  1.385515E+04  3.910884E+04  9.565340E-09  1.333941E-09
       109  13  8.773145E+04  1.404618E+02  3.778770E+02  3.920294E+04  4.193663E-10 -5.980233E-10
       109  14  8.769310E+04  2.159590E+02  6.793214E+02  3.624952E+04 -4.307719E-09 -3.614103E-10
       109  15  8.773405E+04  5.203391E+02  1.254854E+03  3.920233E+04  2.738102E-09 -1.313211E-09
       109  16 -6.390518E+04 -3.453245E+04 -2.134888E+04  3.898368E+04  4.437140E-10 -1.135069E-09
       109  17 -3.197377E+04 -2.715169E+04 -1.649565E+04  3.618659E+04 -2.681483E-09 -3.488185E-10
       109  18  4.322575E+01 -1.953648E+04 -1.134556E+04  3.929580E+04 -1.126377E-08 -2.505653E-09
       109  19  2.393914E+05  3.481249E+04  2.210461E+04  3.942230E+04  5.585275E+03  1.191265E+04
       109  20  2.073745E+05  2.758306E+04  1.785430E+04  3.631249E+04  5.896007E+03  9.381954E+03
       109  21  1.754327E+05  2.057687E+04  1.385531E+04  3.910887E+04  6.206874E+03  6.867066E+03
       109  22  8.773149E+04  1.406140E+02  3.781435E+02  3.920294E+04  2.819654E+02  1.190428E+04
       109  23  8.769312E+04  2.160535E+02  6.794872E+02  3.624952E+04  6.258254E+02  9.373454E+03
       109  24  8.773407E+04  5.203899E+02  1.254944E+03  3.920233E+04  9.698350E+02  6.858432E+03
       109  25 -6.390512E+04 -3.453229E+04 -2.134857E+04  3.898364E+04 -5.020105E+03  1.189592E+04
       109  26 -3.197372E+04 -2.715159E+04 -1.649544E+04  3.618656E+04 -4.643384E+03  9.364953E+03
       109  27  4.325789E+01 -1.953643E+04 -1.134544E+04  3.929578E+04 -4.266496E+03  6.849796E+03
       110   1  1.555264E+05  1.605234E+04  1.124439E+04  3.930048E+04 -6.426028E+03 -5.402968E+03
       110   2  1.231478E+05  9.987959E+03  7.982880E+03  3.439913E+04 -7.725829E+03 -2.964607E+03
       110   3  9.158560E+04  6.605900E+03  6.230764E+03  3.539191E+04 -9.025432E+03 -6.608859E+02
       110   4  8.790918E+04  6.162210E+02  1.672421E+03  3.920039E+04 -1.188693E+03 -5.394259E+03
       110   5  8.747714E+04  1.881677E+03  3.080184E+03  3.624904E+04 -2.769720E+03 -2.956336E+03
       110   6  8.790974E+04  5.878465E+03  6.192675E+03  3.919175E+04 -4.350610E+03 -6.530654E+02
       110   7  2.029665E+04 -1.482009E+04 -7.899509E+03  3.910030E+04  4.048096E+03 -5.385550E+03
       110   8  5.180786E+04 -6.224636E+03 -1.822432E+03  3.809883E+04  2.186117E+03 -2.948035E+03
       110   9  8.423397E+04  5.151096E+03  6.154677E+03  4.299156E+04  3.241879E+02 -6.451878E+02
       110  10  1.555263E+05  1.605230E+04  1.124426E+04  3.930045E+04  1.311607E-07  2.477046E-09
       110  11  1.231477E+05  9.987934E+03  7.982751E+03  3.439911E+04  5.187707E-09 -1.041299E-10
       110  12  9.158551E+04  6.605877E+03  6.230610E+03  3.539190E+04 -1.222633E-07  4.743171E-10
       110  13  8.790917E+04  6.161894E+02  1.672364E+03  3.920038E+04 -1.631383E-09  3.914804E-09
       110  14  8.747713E+04  1.881665E+03  3.080153E+03  3.624903E+04  4.327700E-09 -1.691766E-09
       110  15  8.790972E+04  5.878459E+03  6.192639E+03  3.919175E+04  2.289365E-09  2.932241E-09
       110  16  2.029663E+04 -1.482013E+04 -7.899594E+03  3.910032E+04 -1.321058E-07  1.528504E-09
       110  17  5.180785E+04 -6.224646E+03 -1.822457E+03  3.809883E+04 -4.382803E-09  3.016436E-09
       110  18  8.423397E+04  5.151095E+03  6.154676E+03  4.299156E+04  1.218805E-07  6.562531E-10
       110  19  1.555264E+05  1.605234E+04  1.124439E+04  3.930048E+04  6.426028E+03  5.402968E+03
       110  20  1.231478E+05  9.987959E+03  7.982880E+03  3.439913E+04  7.725829E+03  2.964607E+03
       110  21  9.158560E+04  6.605900E+03  6.230764E+03  3.539191E+04  9.025432E+03  6.608859E+02
       110  22  8.790918E+04  6.162210E+02  1.672421E+03  3.920039E+04  1.188693E+03  5.394259E+03
       110  23  8.747714E+04  1.881677E+03  3.080184E+03  3.624904E+04  2.769720E+03  2.956336E+03
       110  24  8.790974E+04  5.878465E+03  6.192675E+03  3.919175E+04  4.350610E+03  6.530654E+02
       110  25  2.029665E+04 -1.482009E+04 -7.899509E+03  3.910030E+04 -4.048096E+03  5.385550E+03
       110  26  5.180786E+04 -6.224636E+03 -1.822432E+03  3.809883E+04 -2.186117E+03  2.948035E+03
       110  27  8.423397E+04  5.151096E+03  6.154677E+03  4.299156E+04 -3.241879E+02  6.451878E+02
       111   1  1.030270E+04  3.496732E+05  1.116585E+04 -2.416658E+04 -5.349915E+01  2.653152E+03
       111   2  2.087786E+02  3.255489E+05  3.560627E+03 -1.933982E+04 -6.672235E+02 -2.099350E+02
       111   3 -6.178487E+03  3.027145E+05 -1.256950E+03 -2.068739E+04 -1.959027E+03 -3.073359E+03
       111   4  5.135605E+03  3.290558E+05  5.963979E+03 -2.104548E+04 -5.374364E+01  3.051511E+03
       111   5  8.179363E+02  3.284960E+05  3.671046E+03 -1.795994E+04 -6.681088E+02  1.165258E+03
       111   6  3.752560E+01  3.290564E+05  3.487818E+03 -2.104868E+04 -1.960536E+03 -7.214201E+02
       111   7 -3.148369E+01  3.084389E+05  7.620840E+02 -1.792449E+04 -5.398412E+01  3.449856E+03
       111   8  1.427102E+03  3.314431E+05  3.781473E+03 -1.658004E+04 -6.689879E+02  2.540457E+03
       111   9  6.253503E+03  3.553991E+05  8.232580E+03 -2.140998E+04 -1.962048E+03  1.630616E+03
       111  10  1.030270E+04  3.496731E+05  1.116583E+04 -2.416658E+04 -2.045423E-09 -2.229893E-08
       111  11  2.087781E+02  3.255489E+05  3.560626E+03 -1.933982E+04 -2.102443E-09  4.347208E-11
       111  12 -6.178493E+03  3.027145E+05 -1.256975E+03 -2.068740E+04 -9.166364E-10  2.634821E-08
       111  13  5.135603E+03  3.290558E+05  5.963961E+03 -2.104548E+04  1.369048E-09 -6.621119E-10
       111  14  8.179355E+02  3.284960E+05  3.671042E+03 -1.795994E+04  7.878970E-10 -1.292623E-09
       111  15  3.752133E+01  3.290564E+05  3.487810E+03 -2.104868E+04 -4.228496E-09 -5.743190E-11
       111  16 -3.148688E+01  3.084389E+05  7.620617E+02 -1.792449E+04  2.770832E-09  2.295046E-08
       111  17  1.427100E+03  3.314431E+05  3.781460E+03 -1.658004E+04  5.658692E-09 -2.029946E-09
       111  18  6.253498E+03  3.553991E+05  8.232568E+03 -2.140997E+04  2.733180E-09 -2.590500E-08
       111  19  1.030270E+04  3.496732E+05  1.116585E+04 -2.416658E+04  5.349915E+01 -2.653152E+03
       111  20  2.087786E+02  3.255489E+05  3.560627E+03 -1.933982E+04  6.672235E+02  2.099350E+02
       111  21 -6.178487E+03  3.027145E+05 -1.256950E+03 -2.068739E+04  1.959027E+03  3.073359E+03
       111  22  5.135605E+03  3.290558E+05  5.963979E+03 -2.104548E+04  5.374364E+01 -3.051511E+03
       111  23  8.179363E+02  3.284960E+05  3.671046E+03 -1.795994E+04  6.681088E+02 -1.165258E+03
       111  24  3.752560E+01  3.290564E+05  3.487818E+03 -2.104868E+04  1.960536E+03  7.214201E+02
       111  25 -3.148369E+01  3.084389E+05  7.620840E+02 -1.792449E+04  5.398412E+01 -3.449856E+03
       111  26  1.427102E+03  3.314431E+05  3.781473E+03 -1.658004E+04  6.689879E+02 -2.540457E+03
       111  27  6.253503E+03  3.553991E+05  8.232580E+03 -2.140998E+04  1.962048E+03 -1.630616E+03
       112   1 -9.849350E+03  2.866804E+05 -3.970231E+03 -2.141059E+04 -2.932353E+03 -3.607947E+03
       112   2 -1.543813E+04  2.628865E+05 -6.844813E+03 -1.784651E+04 -4.397685E+03 -6.000672E+03
       112   3 -1.976704E+04  2.397110E+05 -7.849382E+03 -2.048490E+04 -5.633993E+03 -8.393105E+03
       112   4  1.653384E+02  3.289572E+05  3.843883E+03 -2.105453E+04 -2.933798E+03 -1.330129E+03
       112   5  1.643859E+02  3.286189E+05  5.456423E+03 -1.795291E+04 -4.398861E+03 -4.053049E+03
       112   6  1.480522E+03  3.289556E+05  9.168008E+03 -2.105370E+04 -5.634911E+03 -6.775762E+03
       112   7  1.017993E+04  3.712357E+05  1.165794E+04 -2.069845E+04 -2.935242E+03  9.478395E+02
       112   8  1.576665E+04  3.943555E+05  1.775749E+04 -1.805933E+04 -4.400039E+03 -2.105224E+03
       112   9  2.272762E+04  4.182080E+05  2.618505E+04 -2.162258E+04 -5.635831E+03 -5.158193E+03
       112  10 -9.849363E+03  2.866804E+05 -3.970272E+03 -2.141060E+04  1.517854E-09  5.326051E-09
       112  11 -1.543816E+04  2.628864E+05 -6.844917E+03 -1.784654E+04 -6.674963E-11  1.008680E-09
       112  12 -1.976709E+04  2.397109E+05 -7.849574E+03 -2.048494E+04 -1.502253E-09  8.945983E-10
       112  13  1.653287E+02  3.289572E+05  3.843863E+03 -2.105454E+04 -3.744411E-09 -6.902326E-10
       112  14  1.643607E+02  3.286189E+05  5.456356E+03 -1.795293E+04  4.292845E-10 -1.221962E-09
       112  15  1.480476E+03  3.289556E+05  9.167862E+03 -2.105373E+04 -3.267685E-09 -1.867525E-10
       112  16  1.017992E+04  3.712357E+05  1.165792E+04 -2.069845E+04 -1.702043E-09 -4.508691E-09
       112  17  1.576663E+04  3.943555E+05  1.775744E+04 -1.805933E+04 -1.548457E-09 -2.940536E-09
       112  18  2.272757E+04  4.182079E+05  2.618494E+04 -2.162260E+04  1.073099E-09 -4.619430E-10
       112  19 -9.849350E+03  2.866804E+05 -3.970231E+03 -2.141059E+04  2.932353E+03  3.607947E+03
       112  20 -1.543813E+04  2.628865E+05 -6.844813E+03 -1.784651E+04  4.397685E+03  6.000672E+03
       112  21 -1.976704E+04  2.397110E+05 -7.849382E+03 -2.048490E+04  5.633993E+03  8.393105E+03
       112  22  1.653384E+02  3.289572E+05  3.843883E+03 -2.105453E+04  2.933798E+03  1.330129E+03
       112  23  1.643859E+02  3.286189E+05  5.456423E+03 -1.795291E+04  4.398861E+03  4.053049E+03
       112  24  1.480522E+03  3.289556E+05  9.168008E+03 -2.105370E+04  5.634911E+03  6.775762E+03
       112  25  1.017993E+04  3.712357E+05  1.165794E+04 -2.069845E+04  2.935242E+03 -9.478395E+02
       112  26  1.576665E+04  3.943555E+05  1.775749E+04 -1.805933E+04  4.400039E+03  2.105224E+03
       112  27  2.272762E+04  4.182080E+05  2.618505E+04 -2.162258E+04  5.635831E+03  5.158193E+03
       113   1 -2.507276E+04  2.252409E+05 -8.416414E+03 -2.441198E+04 -6.580404E+03 -1.064502E+04
       113   2 -2.482573E+04  1.982607E+05 -5.503900E+03 -8.401505E+03 -6.224117E+03 -1.579204E+04
       113   3  4.067751E+02  1.781927E+05  7.004592E+03  1.638280E+03 -1.962562E+03 -2.093670E+04
       113   4  8.206031E+00  3.305580E+05  1.172828E+04 -2.100592E+04 -6.581754E+03 -8.342775E+03
       113   5  6.097269E+03  3.266112E+05  2.073354E+04 -1.801002E+04 -6.221873E+03 -1.911674E+04
       113   6  3.814475E+04  3.305500E+05  4.323940E+04 -2.098425E+04 -1.956875E+03 -2.988856E+04
       113   7  2.508856E+04  4.358858E+05  3.187251E+04 -1.759926E+04 -6.583079E+03 -6.040152E+03
       113   8  3.701958E+04  4.549776E+05  4.697019E+04 -2.762056E+04 -6.219526E+03 -2.244211E+04
       113   9  7.588301E+04  4.829299E+05  7.947315E+04 -4.361236E+04 -1.950538E+03 -3.884260E+04
       113  10 -2.507284E+04  2.252408E+05 -8.416709E+03 -2.441203E+04  6.866120E-10  5.127886E-09
       113  11 -2.482583E+04  1.982605E+05 -5.504441E+03 -8.401584E+03  3.110758E-09 -3.011745E-09
       113  12  4.066534E+02  1.781922E+05  7.003762E+03  1.638247E+03  9.061441E-10 -6.527617E-09
       113  13  8.140831E+00  3.305579E+05  1.172807E+04 -2.100596E+04  2.820792E-09 -5.572276E-10
       113  14  6.097130E+03  3.266108E+05  2.073278E+04 -1.801012E+04 -1.988348E-09 -9.036552E-10
       113  15  3.814451E+04  3.305490E+05  4.323771E+04 -2.098430E+04 -8.604648E-11 -5.316179E-11
       113  16  2.508851E+04  4.358857E+05  3.187236E+04 -1.759929E+04  1.882674E-09 -4.481224E-09
       113  17  3.701941E+04  4.549770E+05  4.696917E+04 -2.762068E+04  4.671481E-09  1.246417E-09
       113  18  7.588260E+04  4.829283E+05  7.947031E+04 -4.361242E+04  1.049602E-09  6.972160E-09
       113  19 -2.507276E+04  2.252409E+05 -8.416414E+03 -2.441198E+04  6.580404E+03  1.064502E+04
       113  20 -2.482573E+04  1.982607E+05 -5.503900E+03 -8.401505E+03  6.224117E+03  1.579204E+04
       113  21  4.067751E+02  1.781927E+05  7.004592E+03  1.638280E+03  1.962562E+03  2.093670E+04
       113  22  8.206031E+00  3.305580E+05  1.172828E+04 -2.100592E+04  6.581754E+03  8.342775E+03
       113  23  6.097269E+03  3.266112E+05  2.073354E+04 -1.801002E+04  6.221873E+03  1.911674E+04
       113  24  3.814475E+04  3.305500E+05  4.323940E+04 -2.098425E+04  1.956875E+03  2.988856E+04
       113  25  2.508856E+04  4.358858E+05  3.187251E+04 -1.759926E+04  6.583079E+03  6.040152E+03
       113  26  3.701958E+04  4.549776E+05  4.697019E+04 -2.762056E+04  6.219526E+03  2.244211E+04
       113  27  7.588301E+04  4.829299E+05  7.947315E+04 -4.361236E+04  1.950538E+03  3.884260E+04
       114   1  8.293290E+05  2.991458E+05  1.528319E+05  3.067866E+05  5.938387E+04  1.251574E+04
       114   2  7.859590E+05  2.719359E+05  1.088919E+05  2.933194E+05  3.849743E+04 -1.863980E+04
       114   3  7.434208E+05  2.566911E+05  8.785692E+04  2.855597E+05  1.232292E+04 -3.570655E+04
       114   4  2.399110E+05  7.706668E+04  2.736862E+03  1.437819E+05  5.008092E+03 -7.921837E+03
       114   5  2.421191E+05  7.280135E+04  1.294962E+03  1.413250E+05  1.201898E+04 -2.859682E+04
       114   6  2.396389E+05  7.498322E+04  6.783261E+02  1.445751E+05  1.373597E+04 -3.517863E+04
       114   7 -3.491368E+05 -1.449767E+05 -1.473667E+05 -1.907398E+04 -4.930896E+04 -2.833701E+04
       114   8 -3.014011E+05 -1.263013E+05 -1.063093E+05 -1.054233E+04 -1.443401E+04 -3.854420E+04
       114   9 -2.638730E+05 -1.066993E+05 -8.650736E+04  3.697644E+03  1.514779E+04 -3.465116E+04
       114  10  8.293252E+05  2.991447E+05  1.528250E+05  3.067860E+05  8.980916E-10 -4.590601E-10
       114  11  7.859573E+05  2.719352E+05  1.088884E+05  2.933200E+05  4.756679E-09 -1.610359E-09
       114  12  7.434203E+05  2.566897E+05  8.785424E+04  2.855600E+05  4.015623E-09 -1.769390E-09
       114  13  2.399109E+05  7.706660E+04  2.736697E+03  1.437819E+05  1.937345E-10  7.856099E-10
       114  14  2.421188E+05  7.280044E+04  1.293153E+03  1.413253E+05  2.113763E-09 -2.290228E-09
       114  15  2.396384E+05  7.498184E+04  6.756455E+02  1.445755E+05 -1.588993E-09 -4.311688E-10
       114  16 -3.491396E+05 -1.449782E+05 -1.473728E+05 -1.907510E+04  2.096406E-09  1.657636E-09
       114  17 -3.014017E+05 -1.263030E+05 -1.063125E+05 -1.054278E+04 -1.431847E-09 -1.404589E-09
       114  18 -2.638736E+05 -1.067007E+05 -8.651004E+04  3.698067E+03 -2.725531E-09 -2.963167E-09
       114  19  8.293290E+05  2.991458E+05  1.528319E+05  3.067866E+05 -5.938387E+04 -1.251574E+04
       114  20  7.859590E+05  2.719359E+05  1.088919E+05  2.933194E+05 -3.849743E+04  1.863980E+04
       114  21  7.434208E+05  2.566911E+05  8.785692E+04  2.855597E+05 -1.232292E+04  3.570655E+04
       114  22  2.399110E+05  7.706668E+04  2.736862E+03  1.437819E+05 -5.008092E+03  7.921837E+03
       114  23  2.421191E+05  7.280135E+04  1.294962E+03  1.413250E+05 -1.201898E+04  2.859682E+04
       114  24  2.396389E+05  7.498322E+04  6.783261E+02  1.445751E+05 -1.373597E+04  3.517863E+04
       114  25 -3.491368E+05 -1.449767E+05 -1.473667E+05 -1.907398E+04  4.930896E+04  2.833701E+04
       114  26 -3.014011E+05 -1.263013E+05 -1.063093E+05 -1.054233E+04  1.443401E+04  3.854420E+04
       114  27 -2.638730E+05 -1.066993E+05 -8.650736E+04  3.697644E+03 -1.514779E+04  3.465116E+04
       115   1  7.152022E+05  2.465877E+05  8.121165E+04  2.781398E+05  1.276570E+04 -3.459549E+04
       115   2  6.752317E+05  2.275204E+05  7.064329E+04  2.629352E+05  9.351146E+03 -3.470927E+04
       115   3  6.299313E+05  2.150846E+05  6.249447E+04  2.545316E+05  5.385643E+03 -3.335970E+04
       115   4  2.394074E+05  7.512196E+04  5.056369E+02  1.447365E+05  1.334809E+04 -3.437967E+04
       115   5  2.423578E+05  7.204142E+04  2.633188E+02  1.413580E+05  1.283096E+04 -3.340312E+04
       115   6  2.394042E+05  7.501945E+04  1.469829E+02  1.447801E+05  1.176251E+04 -3.096269E+04
       115   7 -2.361527E+05 -9.632339E+04 -8.020803E+04  1.142729E+04  1.393001E+04 -3.416402E+04
       115   8 -1.903183E+05 -8.341933E+04 -7.012140E+04  1.985947E+04  1.630823E+04 -3.209793E+04
       115   9 -1.509594E+05 -6.502989E+04 -6.220334E+04  3.509336E+04  1.813514E+04 -2.856728E+04
       115  10  7.152017E+05  2.465864E+05  8.120909E+04  2.781401E+05 -1.798327E-09 -2.600415E-09
       115  11  6.752313E+05  2.275191E+05  7.064087E+04  2.629355E+05 -5.606613E-11 -1.389608E-09
       115  12  6.299310E+05  2.150834E+05  6.249233E+04  2.545317E+05 -3.672594E-10 -8.544923E-10
       115  13  2.394068E+05  7.512064E+04  5.030806E+02  1.447369E+05  2.441826E-09 -2.487806E-09
       115  14  2.423573E+05  7.204017E+04  2.609123E+02  1.413583E+05  1.263967E-09 -6.961137E-09
       115  15  2.394038E+05  7.501838E+04  1.449210E+02  1.447804E+05 -6.620095E-09 -4.158392E-09
       115  16 -2.361532E+05 -9.632470E+04 -8.021059E+04  1.142767E+04  4.117835E-09 -1.104715E-09
       115  17 -1.903188E+05 -8.342050E+04 -7.012384E+04  1.985989E+04  3.045768E-09 -1.758917E-09
       115  18 -1.509599E+05 -6.503085E+04 -6.220550E+04  3.509378E+04 -7.306880E-09 -4.715675E-09
       115  19  7.152022E+05  2.465877E+05  8.121165E+04  2.781398E+05 -1.276570E+04  3.459549E+04
       115  20  6.752317E+05  2.275204E+05  7.064329E+04  2.629352E+05 -9.351146E+03  3.470927E+04
       115  21  6.299313E+05  2.150846E+05  6.249447E+04  2.545316E+05 -5.385643E+03  3.335970E+04
       115  22  2.394074E+05  7.512196E+04  5.056369E+02  1.447365E+05 -1.334809E+04  3.437967E+04
       115  23  2.423578E+05  7.204142E+04  2.633188E+02  1.413580E+05 -1.283096E+04  3.340312E+04
       115  24  2.394042E+05  7.501945E+04  1.469829E+02  1.447801E+05 -1.176251E+04  3.096269E+04
       115  25 -2.361527E+05 -9.632339E+04 -8.020803E+04  1.142729E+04 -1.393001E+04  3.416402E+04
       115  26 -1.903183E+05 -8.341933E+04 -7.012140E+04  1.985947E+04 -1.630823E+04  3.209793E+04
       115  27 -1.509594E+05 -6.502989E+04 -6.220334E+04  3.509336E+04 -1.813514E+04  2.856728E+04
       116   1  6.028694E+05  2.053709E+05  5.781361E+04  2.469879E+05  4.732758E+03 -3.141663E+04
       116   2  5.633158E+05  1.870690E+05  5.079194E+04  2.316011E+05  3.177219E+03 -2.828911E+04
       116   3  5.177992E+05  1.748734E+05  4.403607E+04  2.231052E+05  1.564118E+03 -2.501066E+04
       116   4  2.393837E+05  7.503973E+04  1.116652E+02  1.447929E+05  1.102123E+04 -2.905231E+04
       116   5  2.424032E+05  7.202501E+04  6.691660E+01  1.413467E+05  9.764462E+03 -2.581152E+04
       116   6  2.393979E+05  7.505751E+04  5.094440E+01  1.447913E+05  8.450084E+03 -2.241975E+04
       116   7 -1.239559E+05 -5.527606E+04 -5.759143E+04  4.265514E+04  1.730573E+04 -2.668949E+04
       116   8 -7.839867E+04 -4.300818E+04 -5.065980E+04  5.113626E+04  1.634810E+04 -2.333528E+04
       116   9 -3.892332E+04 -2.475144E+04 -4.393627E+04  6.650949E+04  1.533286E+04 -1.983003E+04
       116  10  6.028691E+05  2.053698E+05  5.781172E+04  2.469880E+05 -3.740137E-09 -1.294699E-09
       116  11  5.633155E+05  1.870681E+05  5.079042E+04  2.316011E+05 -1.340181E-09 -9.304238E-10
       116  12  5.177991E+05  1.748727E+05  4.403489E+04  2.231052E+05 -3.967481E-09  4.771503E-10
       116  13  2.393833E+05  7.503879E+04  1.098506E+02  1.447931E+05 -9.449304E-09 -2.594544E-09
       116  14  2.424029E+05  7.202427E+04  6.548523E+01  1.413470E+05  2.302066E-09 -1.875704E-09
       116  15  2.393976E+05  7.505696E+04  4.986549E+01  1.447914E+05 -1.441021E-09 -6.409461E-11
       116  16 -1.239564E+05 -5.527690E+04 -5.759333E+04  4.265551E+04 -8.778048E-09 -3.346090E-09
       116  17 -7.839911E+04 -4.300884E+04 -5.066132E+04  5.113656E+04  2.007427E-09 -8.150396E-11
       116  18 -3.892368E+04 -2.475193E+04 -4.393745E+04  6.650974E+04  2.555678E-09  9.744164E-10
       116  19  6.028694E+05  2.053709E+05  5.781361E+04  2.469879E+05 -4.732758E+03  3.141663E+04
       116  20  5.633158E+05  1.870690E+05  5.079194E+04  2.316011E+05 -3.177219E+03  2.828911E+04
       116  21  5.177992E+05  1.748734E+05  4.403607E+04  2.231052E+05 -1.564118E+03  2.501066E+04
       116  22  2.393837E+05  7.503973E+04  1.116652E+02  1.447929E+05 -1.102123E+04  2.905231E+04
       116  23  2.424032E+05  7.202501E+04  6.691660E+01  1.413467E+05 -9.764462E+03  2.581152E+04
       116  24  2.393979E+05  7.505751E+04  5.094440E+01  1.447913E+05 -8.450084E+03  2.241975E+04
       116  25 -1.239559E+05 -5.527606E+04 -5.759143E+04  4.265514E+04 -1.730573E+04  2.668949E+04
       116  26 -7.839867E+04 -4.300818E+04 -5.065980E+04  5.113626E+04 -1.634810E+04  2.333528E+04
       116  27 -3.892332E+04 -2.475144E+04 -4.393627E+04  6.650949E+04 -1.533286E+04  1.983003E+04
       117   1  4.908812E+05  1.652008E+05  3.958115E+04  2.155530E+05  8.028171E+02 -2.298064E+04
       117   2  4.514090E+05  1.469728E+05  3.296596E+04  2.001533E+05 -5.644582E+02 -1.952081E+04
       117   3  4.059074E+05  1.347948E+05  2.639552E+04  1.916466E+05 -1.937577E+03 -1.604677E+04
       117   4  2.393977E+05  7.506239E+04  4.871927E+01  1.447903E+05  7.678200E+03 -2.039326E+04
       117   5  2.424201E+05  7.204667E+04  5.830800E+01  1.413431E+05  6.338897E+03 -1.692233E+04
       117   6  2.394055E+05  7.507514E+04  9.014295E+01  1.447881E+05  4.993749E+03 -1.343720E+04
       117   7 -1.201750E+04 -1.506929E+04 -3.948459E+04  7.405465E+04  1.455064E+04 -1.780700E+04
       117   8  3.347962E+04 -2.874328E+03 -3.284956E+04  8.255194E+04  1.323975E+04 -1.432479E+04
       117   9  7.293545E+04  1.535917E+04 -2.621498E+04  9.794200E+04  1.192303E+04 -1.082840E+04
       117  10  4.908811E+05  1.652002E+05  3.958016E+04  2.155530E+05 -1.344168E-09  3.604043E-09
       117  11  4.514089E+05  1.469724E+05  3.296525E+04  2.001533E+05  2.066280E-10  5.369571E-09
       117  12  4.059074E+05  1.347945E+05  2.639503E+04  1.916466E+05  9.375985E-10  1.368172E-09
       117  13  2.393975E+05  7.506193E+04  4.782682E+01  1.447904E+05 -7.375759E-10  8.684902E-10
       117  14  2.424200E+05  7.204635E+04  5.769426E+01  1.413432E+05  6.044766E-09  7.012089E-10
       117  15  2.394054E+05  7.507494E+04  8.975672E+01  1.447882E+05  1.372505E-08  2.961068E-09
       117  16 -1.201782E+04 -1.506969E+04 -3.948558E+04  7.405486E+04 -4.122008E-09 -1.735154E-09
       117  17  3.347937E+04 -2.874596E+03 -3.285027E+04  8.255209E+04  1.341238E-09 -9.357424E-10
       117  18  7.293527E+04  1.535901E+04 -2.621547E+04  9.794210E+04  1.415720E-08  3.573184E-09
       117  19  4.908812E+05  1.652008E+05  3.958115E+04  2.155530E+05 -8.028171E+02  2.298064E+04
       117  20  4.514090E+05  1.469728E+05  3.296596E+04  2.001533E+05  5.644582E+02  1.952081E+04
       117  21  4.059074E+05  1.347948E+05  2.639552E+04  1.916466E+05  1.937577E+03  1.604677E+04
       117  22  2.393977E+05  7.506239E+04  4.871927E+01  1.447903E+05 -7.678200E+03  2.039326E+04
       117  23  2.424201E+05  7.204667E+04  5.830800E+01  1.413431E+05 -6.338897E+03  1.692233E+04
       117  24  2.394055E+05  7.507514E+04  9.014295E+01  1.447881E+05 -4.993749E+03  1.343720E+04
       117  25 -1.201750E+04 -1.506929E+04 -3.948459E+04  7.405465E+04 -1.455064E+04  1.780700E+04
       117  26  3.347962E+04 -2.874328E+03 -3.284956E+04  8.255194E+04 -1.323975E+04  1.432479E+04
       117  27  7.293545E+04  1.535917E+04 -2.621498E+04  9.794200E+04 -1.192303E+04  1.082840E+04
       118   1  3.790192E+05  1.251255E+05  2.198854E+04  1.840975E+05 -2.721120E+03 -1.401341E+04
       118   2  3.395670E+05  1.069024E+05  1.548261E+04  1.687059E+05 -4.126611E+03 -1.054752E+04
       118   3  2.940860E+05  9.472515E+04  9.042582E+03  1.602064E+05 -5.529870E+03 -7.088180E+03
       118   4  2.394104E+05  7.507696E+04  1.161649E+02  1.447889E+05  4.208586E+03 -1.140420E+04
       118   5  2.424252E+05  7.205280E+04  2.031245E+02  1.413434E+05  2.790031E+03 -7.942939E+03
       118   6  2.394128E+05  7.507733E+04  3.664397E+02  1.447898E+05  1.373707E+03 -4.488238E+03
       118   7  9.982095E+04  2.502990E+04 -2.175680E+04  1.054881E+05  1.113673E+04 -8.795570E+03
       118   8  1.452930E+05  3.720404E+04 -1.507649E+04  1.139849E+05  9.705570E+03 -5.338769E+03
       118   9  1.847428E+05  5.542986E+04 -8.309560E+03  1.293744E+05  8.276643E+03 -1.888539E+03
       118  10  3.790192E+05  1.251253E+05  2.198816E+04  1.840975E+05  1.167113E-08  3.420116E-09
       118  11  3.395670E+05  1.069022E+05  1.548237E+04  1.687058E+05  4.930652E-09 -2.876164E-10
       118  12  2.940860E+05  9.472509E+04  9.042430E+03  1.602064E+05  2.636749E-09 -4.502338E-09
       118  13  2.394103E+05  7.507682E+04  1.158871E+02  1.447889E+05  1.184884E-08  5.878151E-09
       118  14  2.424252E+05  7.205273E+04  2.029913E+02  1.413435E+05  8.402153E-09 -4.663041E-09
       118  15  2.394128E+05  7.507731E+04  3.663983E+02  1.447898E+05  5.384071E-10  3.831510E-09
       118  16  9.982079E+04  2.502978E+04 -2.175718E+04  1.054882E+05  2.508036E-09  1.193090E-09
       118  17  1.452929E+05  3.720398E+04 -1.507672E+04  1.139849E+05  2.303111E-09  1.713516E-09
       118  18  1.847428E+05  5.542984E+04 -8.309695E+03  1.293744E+05 -2.292643E-09 -3.993168E-09
       118  19  3.790192E+05  1.251255E+05  2.198854E+04  1.840975E+05  2.721120E+03  1.401341E+04
       118  20  3.395670E+05  1.069024E+05  1.548261E+04  1.687059E+05  4.126611E+03  1.054752E+04
       118  21  2.940860E+05  9.472515E+04  9.042582E+03  1.602064E+05  5.529870E+03  7.088180E+03
       118  22  2.394104E+05  7.507696E+04  1.161649E+02  1.447889E+05 -4.208586E+03  1.140420E+04
       118  23  2.424252E+05  7.205280E+04  2.031245E+02  1.413434E+05 -2.790031E+03  7.942939E+03
       118  24  2.394128E+05  7.507733E+04  3.664397E+02  1.447898E+05 -1.373707E+03  4.488238E+03
       118  25  9.982095E+04  2.502990E+04 -2.175680E+04  1.054881E+05 -1.113673E+04  8.795570E+03
       118  26  1.452930E+05  3.720404E+04 -1.507649E+04  1.139849E+05 -9.705570E+03  5.338769E+03
       118  27  1.847428E+05  5.542986E+04 -8.309560E+03  1.293744E+05 -8.276643E+03  1.888539E+03
       119   1  2.672099E+05  8.506175E+04  4.725681E+03  1.526753E+05 -6.370138E+03 -5.081827E+03
       119   2  2.277506E+05  6.682768E+04 -1.531579E+03  1.372725E+05 -7.965836E+03 -1.738385E+03
       119   3  1.823139E+05  5.468993E+04 -7.555111E+03  1.287530E+05 -9.533415E+03  1.530669E+03
       119   4  2.394276E+05  7.507494E+04  4.880529E+02  1.447952E+05  5.373625E+02 -2.480347E+03
       119   5  2.424084E+05  7.205405E+04  8.855366E+02  1.413382E+05 -1.205792E+03  8.075118E+02
       119   6  2.394388E+05  7.515830E+04  1.633286E+03  1.447635E+05 -2.920858E+03  4.020992E+03
       119   7  2.116466E+05  6.508838E+04 -3.749292E+03  1.369156E+05  7.444459E+03  1.209794E+02
       119   8  2.570666E+05  7.728048E+04  3.302843E+03  1.454040E+05  5.554422E+03  3.353471E+03
       119   9  2.965680E+05  9.562730E+04  1.082199E+04  1.607757E+05  3.692417E+03  6.511583E+03
       119  10  2.672099E+05  8.506171E+04  4.725556E+03  1.526753E+05 -1.227688E-09 -3.080393E-09
       119  11  2.277505E+05  6.682766E+04 -1.531704E+03  1.372725E+05  1.162163E-08  1.584927E-09
       119  12  1.823138E+05  5.468990E+04 -7.555286E+03  1.287530E+05  1.095641E-08  8.383347E-10
       119  13  2.394276E+05  7.507494E+04  4.880408E+02  1.447952E+05  1.943341E-09 -3.291613E-10
       119  14  2.424084E+05  7.205405E+04  8.855326E+02  1.413382E+05  4.564406E-09  1.932893E-09
       119  15  2.394388E+05  7.515828E+04  1.633240E+03  1.447635E+05  3.341925E-09 -4.934778E-10
       119  16  2.116465E+05  6.508837E+04 -3.749396E+03  1.369156E+05  9.516082E-09  1.785493E-09
       119  17  2.570666E+05  7.728046E+04  3.302764E+03  1.454039E+05  8.207830E-09  2.120291E-09
       119  18  2.965680E+05  9.562725E+04  1.082188E+04  1.607757E+05 -6.225429E-09 -4.315790E-10
       119  19  2.672099E+05  8.506175E+04  4.725681E+03  1.526753E+05  6.370138E+03  5.081827E+03
       119  20  2.277506E+05  6.682768E+04 -1.531579E+03  1.372725E+05  7.965836E+03  1.738385E+03
       119  21  1.823139E+05  5.468993E+04 -7.555111E+03  1.287530E+05  9.533415E+03 -1.530669E+03
       119  22  2.394276E+05  7.507494E+04  4.880529E+02  1.447952E+05 -5.373625E+02  2.480347E+03
       119  23  2.424084E+05  7.205405E+04  8.855366E+02  1.413382E+05  1.205792E+03 -8.075118E+02
       119  24  2.394388E+05  7.515830E+04  1.633286E+03  1.447635E+05  2.920858E+03 -4.020992E+03
       119  25  2.116466E+05  6.508838E+04 -3.749292E+03  1.369156E+05 -7.444459E+03 -1.209794E+02
       119  26  2.570666E+05  7.728048E+04  3.302843E+03  1.454040E+05 -5.554422E+03 -3.353471E+03
       119  27  2.965680E+05  9.562730E+04  1.082199E+04  1.607757E+05 -3.692417E+03 -6.511583E+03
       120   1  1.554035E+05  4.510214E+04 -1.153678E+04  1.213506E+05 -1.061730E+04  3.382166E+03
       120   2  1.162890E+05  2.671469E+04 -1.698093E+04  1.052739E+05 -1.236061E+04  6.158162E+03
       120   3  7.162278E+04  1.530878E+04 -2.170335E+04  9.580709E+04 -1.383371E+04  8.217390E+03
       120   4  2.395540E+05  7.516640E+04  2.182966E+03  1.447945E+05 -3.962421E+03  5.888327E+03
       120   5  2.423295E+05  7.252915E+04  4.024863E+03  1.411150E+05 -7.124165E+03  8.129834E+03
       120   6  2.398322E+05  7.715383E+04  7.711901E+03  1.440444E+05 -1.001576E+04  9.654641E+03
       120   7  3.237121E+05  1.052314E+05  1.590273E+04  1.682414E+05  2.693414E+03  8.394841E+03
       120   8  3.683863E+05  1.183450E+05  2.503016E+04  1.769628E+05 -1.886626E+03  1.010193E+04
       120   9  4.080695E+05  1.390012E+05  3.712580E+04  1.922935E+05 -6.196766E+03  1.109231E+04
       120  10  1.554033E+05  4.510210E+04 -1.153701E+04  1.213506E+05  5.416282E-08  1.712617E-08
       120  11  1.162888E+05  2.671461E+04 -1.698128E+04  1.052740E+05 -2.271320E-09  4.146746E-09
       120  12  7.162255E+04  1.530866E+04 -2.170384E+04  9.580719E+04 -5.909928E-08 -1.825087E-08
       120  13  2.395540E+05  7.516636E+04  2.182871E+03  1.447945E+05 -7.624930E-10 -9.477082E-10
       120  14  2.423294E+05  7.252907E+04  4.024643E+03  1.411151E+05  2.100286E-09  4.068486E-09
       120  15  2.398320E+05  7.715370E+04  7.711537E+03  1.440445E+05 -2.616151E-09  1.299427E-09
       120  16  3.237121E+05  1.052313E+05  1.590259E+04  1.682413E+05 -5.746658E-08 -1.847306E-08
       120  17  3.683863E+05  1.183449E+05  2.502997E+04  1.769628E+05  2.002134E-09  4.184917E-09
       120  18  4.080695E+05  1.390010E+05  3.712550E+04  1.922936E+05  6.134162E-08  2.399858E-08
       120  19  1.554035E+05  4.510214E+04 -1.153678E+04  1.213506E+05  1.061730E+04 -3.382166E+03
       120  20  1.162890E+05  2.671469E+04 -1.698093E+04  1.052739E+05  1.236061E+04 -6.158162E+03
       120  21  7.162278E+04  1.530878E+04 -2.170335E+04  9.580709E+04  1.383371E+04 -8.217390E+03
       120  22  2.395540E+05  7.516640E+04  2.182966E+03  1.447945E+05  3.962421E+03 -5.888327E+03
       120  23  2.423295E+05  7.252915E+04  4.024863E+03  1.411150E+05  7.124165E+03 -8.129834E+03
       120  24  2.398322E+05  7.715383E+04  7.711901E+03  1.440444E+05  1.001576E+04 -9.654641E+03
       120  25  3.237121E+05  1.052314E+05  1.590273E+04  1.682414E+05 -2.693414E+03 -8.394841E+03
       120  26  3.683863E+05  1.183450E+05  2.503016E+04  1.769628E+05  1.886626E+03 -1.010193E+04
       120  27  4.080695E+05  1.390012E+05  3.712580E+04  1.922935E+05  6.196766E+03 -1.109231E+04
       121   1  4.430949E+04  6.918785E+03 -2.449283E+04  8.982362E+04 -1.594738E+04  9.071479E+03
       121   2  1.242555E+04 -1.359498E+04 -2.834313E+04  6.188421E+04 -1.208612E+04  9.027841E+03
       121   3 -1.975987E+04 -1.324949E+04 -3.048395E+04  3.605803E+04 -5.629505E+03  2.087176E+03
       121   4  2.410726E+05  7.752191E+04  1.034590E+04  1.442684E+05 -1.172437E+04  1.066110E+04
       121   5  2.421130E+05  8.157299E+04  1.984374E+04  1.372503E+05 -2.150411E+04  5.481462E+03
       121   6  2.455504E+05  1.091810E+05  4.185752E+04  1.323458E+05 -2.868933E+04 -6.593729E+03
       121   7  4.378799E+05  1.481299E+05  4.518438E+04  1.987302E+05 -7.499859E+03  1.225127E+04
       121   8  4.718549E+05  1.767497E+05  6.802803E+04  2.126435E+05 -3.092581E+04  1.933263E+03
       121   9  5.109262E+05  2.316249E+05  1.141933E+05  2.286725E+05 -5.175939E+04 -1.528063E+04
       121  10  4.430920E+04  6.918629E+03 -2.449346E+04  8.982374E+04 -1.858791E-09  5.769848E-09
       121  11  1.242537E+04 -1.359510E+04 -2.834356E+04  6.188430E+04 -2.164792E-09  1.265767E-09
       121  12 -1.975991E+04 -1.324950E+04 -3.048402E+04  3.605804E+04 -1.692780E-09 -1.157505E-09
       121  13  2.410724E+05  7.752175E+04  1.034543E+04  1.442685E+05 -1.882529E-09  4.327161E-09
       121  14  2.421125E+05  8.157283E+04  1.984281E+04  1.372504E+05 -2.562760E-09  1.134389E-09
       121  15  2.455496E+05  1.091808E+05  4.185589E+04  1.323456E+05  3.359458E-09  1.727672E-09
       121  16  4.378798E+05  1.481297E+05  4.518399E+04  1.987303E+05 -8.779811E-10 -1.314362E-09
       121  17  4.718539E+05  1.767494E+05  6.802623E+04  2.126435E+05  3.341201E-10  2.237935E-09
       121  18  5.109233E+05  2.316239E+05  1.141878E+05  2.286719E+05 -1.470438E-10 -4.278095E-10
       121  19  4.430949E+04  6.918785E+03 -2.449283E+04  8.982362E+04  1.594738E+04 -9.071479E+03
       121  20  1.242555E+04 -1.359498E+04 -2.834313E+04  6.188421E+04  1.208612E+04 -9.027841E+03
       121  21 -1.975987E+04 -1.324949E+04 -3.048395E+04  3.605803E+04  5.629505E+03 -2.087176E+03
       121  22  2.410726E+05  7.752191E+04  1.034590E+04  1.442684E+05  1.172437E+04 -1.066110E+04
       121  23  2.421130E+05  8.157299E+04  1.984374E+04  1.372503E+05  2.150411E+04 -5.481462E+03
       121  24  2.455504E+05  1.091810E+05  4.185752E+04  1.323458E+05  2.868933E+04  6.593729E+03
       121  25  4.378799E+05  1.481299E+05  4.518438E+04  1.987302E+05  7.499859E+03 -1.225127E+04
       121  26  4.718549E+05  1.767497E+05  6.802803E+04  2.126435E+05  3.092581E+04 -1.933263E+03
       121  27  5.109262E+05  2.316249E+05  1.141933E+05  2.286725E+05  5.175939E+04  1.528063E+04
       122   1 -2.090665E+05 -1.055003E+06 -2.443397E+05  5.799776E+04 -2.418722E+03 -1.057090E+05
       122   2 -5.005571E+04 -9.787222E+05 -1.439085E+05  8.427107E+03 -7.004984E+03 -6.491631E+04
       122   3 -5.782293E+04 -9.490677E+05 -1.116850E+05  1.779704E+04 -4.879985E+03 -2.411134E+04
       122   4 -1.214920E+05 -7.050253E+05 -1.572948E+05  3.030262E+04 -2.417837E+03 -1.030998E+05
       122   5  2.393208E+04 -6.818973E+05 -7.117572E+04  9.223231E+02 -7.004474E+03 -6.454028E+04
       122   6  3.008933E+03 -7.049859E+05 -5.168529E+04  3.048361E+04 -4.878602E+03 -2.597211E+04
       122   7 -3.392379E+04 -3.549343E+05 -7.025870E+04  2.591873E+03 -2.417186E+03 -1.004891E+05
       122   8  9.791355E+04 -3.849919E+05  1.550605E+03 -6.586036E+03 -7.003973E+03 -6.416407E+04
       122   9  6.383698E+04 -4.608495E+05  8.310180E+03  4.317519E+04 -4.877296E+03 -2.783361E+04
       122  10 -2.090696E+05 -1.055015E+06 -2.443607E+05  5.799756E+04 -1.313989E-09 -7.704640E-10
       122  11 -5.005689E+04 -9.787268E+05 -1.439165E+05  8.426740E+03 -4.952365E-09 -1.373239E-09
       122  12 -5.782311E+04 -9.490683E+05 -1.116862E+05  1.779694E+04  2.875300E-09  1.115747E-09
       122  13 -1.214948E+05 -7.050368E+05 -1.573148E+05  3.030242E+04  1.704260E-09  1.144279E-09
       122  14  2.393091E+04 -6.819018E+05 -7.118365E+04  9.219589E+02 -1.838700E-09  1.882297E-09
       122  15  3.008726E+03 -7.049866E+05 -5.168660E+04  3.048351E+04  3.603577E-09  9.950699E-10
       122  16 -3.392651E+04 -3.549451E+05 -7.027770E+04  2.591678E+03  1.367958E-09  2.142420E-09
       122  17  9.791239E+04 -3.849964E+05  1.542771E+03 -6.586398E+03 -6.937898E-10 -4.503123E-10
       122  18  6.383674E+04 -4.608503E+05  8.308678E+03  4.317509E+04 -6.745113E-10 -1.422369E-09
       122  19 -2.090665E+05 -1.055003E+06 -2.443397E+05  5.799776E+04  2.418722E+03  1.057090E+05
       122  20 -5.005571E+04 -9.787222E+05 -1.439085E+05  8.427107E+03  7.004984E+03  6.491631E+04
       122  21 -5.782293E+04 -9.490677E+05 -1.116850E+05  1.779704E+04  4.879985E+03  2.411134E+04
       122  22 -1.214920E+05 -7.050253E+05 -1.572948E+05  3.030262E+04  2.417837E+03  1.030998E+05
       122  23  2.393208E+04 -6.818973E+05 -7.117572E+04  9.223231E+02  7.004474E+03  6.454028E+04
       122  24  3.008933E+03 -7.049859E+05 -5.168529E+04  3.048361E+04  4.878602E+03  2.597211E+04
       122  25 -3.392379E+04 -3.549343E+05 -7.025870E+04  2.591873E+03  2.417186E+03  1.004891E+05
       122  26  9.791355E+04 -3.849919E+05  1.550605E+03 -6.586036E+03  7.003973E+03  6.416407E+04
       122  27  6.383698E+04 -4.608495E+05  8.310180E+03  4.317519E+04  4.877296E+03  2.783361E+04
       123   1 -4.523976E+04 -8.183471E+05 -7.611567E+04  3.589984E+04 -2.682572E+03 -1.691538E+04
       123   2 -1.022648E+04 -7.577470E+05 -5.225266E+04  5.673792E+02 -1.461280E+03  1.787459E+03
       123   3 -1.959077E+04 -7.105429E+05 -5.164329E+04  2.549933E+04  5.880978E+00  2.049181E+04
       123   4 -1.515547E+04 -6.976850E+05 -4.651160E+04  3.071765E+04 -2.682079E+03 -1.729137E+04
       123   5  6.411344E+03 -6.909936E+05 -3.586995E+04  5.857010E+02 -1.460899E+03  1.331350E+03
       123   6 -1.638269E+04 -6.976856E+05 -4.842387E+04  3.071822E+04  6.445611E+00  1.995397E+04
       123   7  1.492784E+04 -5.770096E+05 -1.690857E+04  2.553445E+04 -2.681581E+03 -1.766742E+04
       123   8  2.304884E+04 -6.242362E+05 -1.948757E+04  6.040257E+02 -1.460518E+03  8.751930E+02
       123   9 -1.317451E+04 -6.848281E+05 -4.520445E+04  3.593721E+04  7.001185E+00  1.941611E+04
       123  10 -4.523984E+04 -8.183474E+05 -7.611622E+04  3.589981E+04  1.901122E-09  1.119705E-09
       123  11 -1.022648E+04 -7.577470E+05 -5.225267E+04  5.673813E+02 -2.397867E-09 -4.704689E-10
       123  12 -1.959088E+04 -7.105433E+05 -5.164408E+04  2.549933E+04 -4.615969E-10  1.043159E-09
       123  13 -1.515556E+04 -6.976854E+05 -4.651217E+04  3.071761E+04  9.575185E-10 -5.542541E-10
       123  14  6.411341E+03 -6.909936E+05 -3.586996E+04  5.857026E+02 -1.110673E-10  9.719441E-10
       123  15 -1.638279E+04 -6.976860E+05 -4.842462E+04  3.071822E+04  1.178454E-10  2.208656E-10
       123  16  1.492775E+04 -5.770100E+05 -1.690918E+04  2.553441E+04  8.669492E-10 -1.876062E-10
       123  17  2.304883E+04 -6.242362E+05 -1.948757E+04  6.040267E+02  3.317360E-09  1.484873E-10
       123  18 -1.317462E+04 -6.848285E+05 -4.520516E+04  3.593721E+04  8.104140E-09 -8.763442E-10
       123  19 -4.523976E+04 -8.183471E+05 -7.611567E+04  3.589984E+04  2.682572E+03  1.691538E+04
       123  20 -1.022648E+04 -7.577470E+05 -5.225266E+04  5.673792E+02  1.461280E+03 -1.787459E+03
       123  21 -1.959077E+04 -7.105429E+05 -5.164329E+04  2.549933E+04 -5.880978E+00 -2.049181E+04
       123  22 -1.515547E+04 -6.976850E+05 -4.651160E+04  3.071765E+04  2.682079E+03  1.729137E+04
       123  23  6.411344E+03 -6.909936E+05 -3.586995E+04  5.857010E+02  1.460899E+03 -1.331350E+03
       123  24 -1.638269E+04 -6.976856E+05 -4.842387E+04  3.071822E+04 -6.445611E+00 -1.995397E+04
       123  25  1.492784E+04 -5.770096E+05 -1.690857E+04  2.553445E+04  2.681581E+03  1.766742E+04
       123  26  2.304884E+04 -6.242362E+05 -1.948757E+04  6.040257E+02  1.460518E+03 -8.751930E+02
       123  27 -1.317451E+04 -6.848281E+05 -4.520445E+04  3.593721E+04 -7.001185E+00 -1.941611E+04
       124   1  3.131824E+04 -5.944009E+05 -2.694034E+04  4.438018E+04  1.927560E+03  3.049626E+04
       124   2  6.679329E+04 -5.160077E+05 -3.563216E+04 -7.207782E+03  3.953592E+03  7.019028E+04
       124   3 -7.595654E+04 -4.871319E+05 -1.146869E+05  9.998422E+02  1.443325E+03  1.098836E+05
       124   4  3.566931E+03 -7.057717E+05 -5.437168E+04  3.066243E+04  1.928005E+03  2.903911E+04
       124   5  2.570299E+04 -6.808926E+05 -7.600614E+04  6.932815E+02  3.954491E+03  7.024571E+04
       124   6 -1.306766E+05 -7.058139E+05 -1.690701E+05  3.052143E+04  1.446913E+03  1.114481E+05
       124   7 -2.418459E+04 -8.171308E+05 -8.180383E+04  1.694714E+04  1.928514E+03  2.758223E+04
       124   8 -1.538909E+04 -8.457526E+05 -1.163821E+05  8.592247E+03  3.955391E+03  7.030112E+04
       124   9 -1.853969E+05 -9.244506E+05 -2.234565E+05  6.003262E+04  1.450650E+03  1.130120E+05
       124  10  3.131799E+04 -5.944019E+05 -2.694210E+04  4.438013E+04  1.479669E-09  2.586079E-09
       124  11  6.679195E+04 -5.160130E+05 -3.564145E+04 -7.208006E+03 -1.697255E-09 -2.205253E-09
       124  12 -7.595978E+04 -4.871449E+05 -1.147096E+05  9.997144E+02 -1.778318E-09 -2.139420E-09
       124  13  3.566700E+03 -7.057726E+05 -5.437328E+04  3.066238E+04  2.390285E-09  6.092281E-10
       124  14  2.570165E+04 -6.808979E+05 -7.601545E+04  6.930577E+02 -1.957756E-09  1.314397E-09
       124  15 -1.306799E+05 -7.058273E+05 -1.690935E+05  3.052131E+04 -4.268413E-09  1.506945E-09
       124  16 -2.418480E+04 -8.171316E+05 -8.180527E+04  1.694710E+04  3.965223E-09 -1.565757E-09
       124  17 -1.539044E+04 -8.457579E+05 -1.163914E+05  8.592023E+03 -2.824021E-09  7.599687E-10
       124  18 -1.854004E+05 -9.244643E+05 -2.234805E+05  6.003249E+04 -2.218392E-09  2.425711E-09
       124  19  3.131824E+04 -5.944009E+05 -2.694034E+04  4.438018E+04 -1.927560E+03 -3.049626E+04
       124  20  6.679329E+04 -5.160077E+05 -3.563216E+04 -7.207782E+03 -3.953592E+03 -7.019028E+04
       124  21 -7.595654E+04 -4.871319E+05 -1.146869E+05  9.998422E+02 -1.443325E+03 -1.098836E+05
       124  22  3.566931E+03 -7.057717E+05 -5.437168E+04  3.066243E+04 -1.928005E+03 -2.903911E+04
       124  23  2.570299E+04 -6.808926E+05 -7.600614E+04  6.932815E+02 -3.954491E+03 -7.024571E+04
       124  24 -1.306766E+05 -7.058139E+05 -1.690701E+05  3.052143E+04 -1.446913E+03 -1.114481E+05
       124  25 -2.418459E+04 -8.171308E+05 -8.180383E+04  1.694714E+04 -1.928514E+03 -2.758223E+04
       124  26 -1.538909E+04 -8.457526E+05 -1.163821E+05  8.592247E+03 -3.955391E+03 -7.030112E+04
       124  27 -1.853969E+05 -9.244506E+05 -2.234565E+05  6.003262E+04 -1.450650E+03 -1.130120E+05
       125   1  3.480365E+05  1.167347E+05  7.280089E+04  1.279910E+05  3.864533E+04  1.396066E+04
       125   2  3.351828E+05  5.623013E+04  3.577584E+04  1.303742E+05  2.482010E+04  7.625561E+03
       125   3  3.398769E+05  5.291290E+04  2.382076E+04  1.239014E+05  1.050722E+04  2.585005E+03
       125   4  3.078965E+05  8.781753E+04  5.918965E+04  1.029327E+05  3.780007E+04  1.364103E+04
       125   5  2.961012E+05  3.752988E+04  2.478162E+04  1.155633E+05  2.464482E+04  7.559293E+03
       125   6  3.017223E+05  4.429850E+04  1.491412E+04  1.193376E+05  1.100177E+04  2.771530E+03
       125   7  2.677589E+05  5.890243E+04  4.557843E+04  7.787646E+04  3.695488E+04  1.332148E+04
       125   8  2.570211E+05  1.883007E+04  1.378729E+04  1.007534E+05  2.446955E+04  7.493033E+03
       125   9  2.635690E+05  3.568402E+04  6.007364E+03  1.147739E+05  1.149629E+04  2.958055E+03
       125  10  3.480348E+05  1.167341E+05  7.279772E+04  1.279906E+05  2.220907E-09  2.801110E-09
       125  11  3.351821E+05  5.622990E+04  3.577457E+04  1.303741E+05  4.283606E-09  3.264944E-09
       125  12  3.398768E+05  5.291287E+04  2.382054E+04  1.239014E+05 -2.967149E-09 -2.587627E-09
       125  13  3.078949E+05  8.781694E+04  5.918661E+04  1.029323E+05  3.041733E-09 -2.686205E-09
       125  14  2.961005E+05  3.752965E+04  2.478037E+04  1.155632E+05  9.413457E-09 -3.282888E-09
       125  15  3.017222E+05  4.429846E+04  1.491388E+04  1.193376E+05 -2.429248E-09 -1.222299E-09
       125  16  2.677574E+05  5.890187E+04  4.557553E+04  7.787606E+04 -7.030520E-09 -1.836878E-09
       125  17  2.570205E+05  1.882984E+04  1.378606E+04  1.007532E+05  3.662138E-09  5.561149E-09
       125  18  2.635688E+05  3.568397E+04  6.007099E+03  1.147739E+05  3.645069E-09  1.194518E-09
       125  19  3.480365E+05  1.167347E+05  7.280089E+04  1.279910E+05 -3.864533E+04 -1.396066E+04
       125  20  3.351828E+05  5.623013E+04  3.577584E+04  1.303742E+05 -2.482010E+04 -7.625561E+03
       125  21  3.398769E+05  5.291290E+04  2.382076E+04  1.239014E+05 -1.050722E+04 -2.585005E+03
       125  22  3.078965E+05  8.781753E+04  5.918965E+04  1.029327E+05 -3.780007E+04 -1.364103E+04
       125  23  2.961012E+05  3.752988E+04  2.478162E+04  1.155633E+05 -2.464482E+04 -7.559293E+03
       125  24  3.017223E+05  4.429850E+04  1.491412E+04  1.193376E+05 -1.100177E+04 -2.771530E+03
       125  25  2.677589E+05  5.890243E+04  4.557843E+04  7.787646E+04 -3.695488E+04 -1.332148E+04
       125  26  2.570211E+05  1.883007E+04  1.378729E+04  1.007534E+05 -2.446955E+04 -7.493033E+03
       125  27  2.635690E+05  3.568402E+04  6.007364E+03  1.147739E+05 -1.149629E+04 -2.958055E+03
       126   1  3.223376E+05  6.007229E+04  1.826562E+04  1.233490E+05  8.643763E+03  2.331182E+03
       126   2  3.155934E+05  4.923988E+04  9.905324E+03  1.194652E+05  5.459608E+03  1.432624E+03
       126   3  3.070760E+05  4.817930E+04  5.344169E+03  1.190700E+05  2.240173E+03  6.278618E+02
       126   4  2.998005E+05  5.030544E+04  1.210621E+04  1.158551E+05  8.755928E+03  2.373438E+03
       126   5  3.003740E+05  4.318293E+04  5.853304E+03  1.149559E+05  5.620363E+03  1.493216E+03
       126   6  2.991647E+05  4.582267E+04  3.361154E+03  1.175453E+05  2.449482E+03  7.067666E+02
       126   7  2.772639E+05  4.053868E+04  5.946759E+03  1.083613E+05  8.868088E+03  2.415691E+03
       126   8  2.851549E+05  3.712601E+04  1.801270E+03  1.104467E+05  5.781113E+03  1.553806E+03
       126   9  2.912535E+05  4.346605E+04  1.378140E+03  1.160207E+05  2.658787E+03  7.856707E+02
       126  10  3.223376E+05  6.007226E+04  1.826546E+04  1.233490E+05 -1.531967E-09 -1.884727E-09
       126  11  3.155934E+05  4.923987E+04  9.905264E+03  1.194652E+05 -6.190607E-10 -6.465713E-10
       126  12  3.070760E+05  4.817930E+04  5.344159E+03  1.190700E+05  2.761618E-09  3.417238E-09
       126  13  2.998004E+05  5.030542E+04  1.210606E+04  1.158550E+05  1.526189E-09 -6.730721E-11
       126  14  3.003740E+05  4.318292E+04  5.853240E+03  1.149559E+05 -3.151682E-09 -9.058617E-09
       126  15  2.991647E+05  4.582267E+04  3.361141E+03  1.175453E+05 -9.305438E-10  5.373866E-09
       126  16  2.772638E+05  4.053865E+04  5.946601E+03  1.083613E+05  4.551630E-10 -4.165646E-09
       126  17  2.851548E+05  3.712599E+04  1.801203E+03  1.104467E+05  9.821719E-10 -6.698869E-10
       126  18  2.912535E+05  4.346605E+04  1.378126E+03  1.160207E+05 -4.794472E-10  3.124631E-09
       126  19  3.223376E+05  6.007229E+04  1.826562E+04  1.233490E+05 -8.643763E+03 -2.331182E+03
       126  20  3.155934E+05  4.923988E+04  9.905324E+03  1.194652E+05 -5.459608E+03 -1.432624E+03
       126  21  3.070760E+05  4.817930E+04  5.344169E+03  1.190700E+05 -2.240173E+03 -6.278618E+02
       126  22  2.998005E+05  5.030544E+04  1.210621E+04  1.158551E+05 -8.755928E+03 -2.373438E+03
       126  23  3.003740E+05  4.318293E+04  5.853304E+03  1.149559E+05 -5.620363E+03 -1.493216E+03
       126  24  2.991647E+05  4.582267E+04  3.361154E+03  1.175453E+05 -2.449482E+03 -7.067666E+02
       126  25  2.772639E+05  4.053868E+04  5.946759E+03  1.083613E+05 -8.868088E+03 -2.415691E+03
       126  26  2.851549E+05  3.712601E+04  1.801270E+03  1.104467E+05 -5.781113E+03 -1.553806E+03
       126  27  2.912535E+05  4.346605E+04  1.378140E+03  1.160207E+05 -2.658787E+03 -7.856707E+02
       127   1  2.958317E+05  4.535842E+04  1.798333E+03  1.164321E+05  1.701476E+03  6.802158E+02
       127   2  2.898293E+05  3.965140E+04 -1.515595E+03  1.118967E+05  8.674193E+02  7.708102E+02
       127   3  2.798870E+05  3.876756E+04 -4.153488E+03  1.120722E+05  3.069924E+01  8.684970E+02
       127   4  2.989269E+05  4.642732E+04  2.618381E+03  1.171752E+05  1.883016E+03  7.486501E+02
       127   5  3.008651E+05  4.378910E+04  1.374898E+03  1.149053E+05  1.052624E+03  8.406242E+02
       127   6  2.988626E+05  4.597339E+04  8.045985E+02  1.173464E+05  2.195603E+02  9.396871E+02
       127   7  3.020222E+05  4.749623E+04  3.438432E+03  1.179183E+05  2.064558E+03  8.170849E+02
       127   8  3.119009E+05  4.792681E+04  4.265385E+03  1.179140E+05  1.237833E+03  9.104396E+02
       127   9  3.178385E+05  5.317924E+04  5.762655E+03  1.226207E+05  4.084278E+02  1.010880E+03
       127  10  2.958317E+05  4.535842E+04  1.798326E+03  1.164321E+05  5.005515E-09 -8.413717E-10
       127  11  2.898293E+05  3.965140E+04 -1.515597E+03  1.118967E+05 -4.610141E-09 -8.981162E-09
       127  12  2.798870E+05  3.876755E+04 -4.153489E+03  1.120722E+05 -3.683418E-09 -3.975691E-09
       127  13  2.989269E+05  4.642732E+04  2.618374E+03  1.171752E+05  1.417631E-09  2.139442E-09
       127  14  3.008651E+05  4.378910E+04  1.374894E+03  1.149053E+05  2.103450E-09 -1.735964E-09
       127  15  2.988626E+05  4.597338E+04  8.045967E+02  1.173464E+05  5.791835E-09  3.389792E-09
       127  16  3.020222E+05  4.749623E+04  3.438423E+03  1.179183E+05  7.830570E-10  3.752918E-09
       127  17  3.119009E+05  4.792681E+04  4.265380E+03  1.179140E+05  8.150973E-09  5.790119E-09
       127  18  3.178385E+05  5.317924E+04  5.762653E+03  1.226207E+05  1.078549E-08  7.717406E-09
       127  19  2.958317E+05  4.535842E+04  1.798333E+03  1.164321E+05 -1.701476E+03 -6.802158E+02
       127  20  2.898293E+05  3.965140E+04 -1.515595E+03  1.118967E+05 -8.674193E+02 -7.708102E+02
       127  21  2.798870E+05  3.876756E+04 -4.153488E+03  1.120722E+05 -3.069924E+01 -8.684970E+02
       127  22  2.989269E+05  4.642732E+04  2.618381E+03  1.171752E+05 -1.883016E+03 -7.486501E+02
       127  23  3.008651E+05  4.378910E+04  1.374898E+03  1.149053E+05 -1.052624E+03 -8.406242E+02
       127  24  2.988626E+05  4.597339E+04  8.045985E+02  1.173464E+05 -2.195603E+02 -9.396871E+02
       127  25  3.020222E+05  4.749623E+04  3.438432E+03  1.179183E+05 -2.064558E+03 -8.170849E+02
       127  26  3.119009E+05  4.792681E+04  4.265385E+03  1.179140E+05 -1.237833E+03 -9.104396E+02
       127  27  3.178385E+05  5.317924E+04  5.762655E+03  1.226207E+05 -4.084278E+02 -1.010880E+03
       128   1  2.693017E+05  3.492448E+04 -7.129513E+03  1.092284E+05 -1.660474E+02  1.036219E+03
       128   2  2.633687E+05  2.971454E+04 -9.421304E+03  1.046040E+05 -5.168643E+02  1.317919E+03
       128   3  2.532275E+05  2.883995E+04 -1.153494E+04  1.048258E+05 -8.681608E+02  1.601009E+03
       128   4  2.988271E+05  4.603541E+04  6.406604E+02  1.173122E+05  2.100997E+01  1.106725E+03
       128   5  3.009285E+05  4.384847E+04  4.261072E+02  1.148964E+05 -3.291034E+02  1.388681E+03
       128   6  2.988215E+05  4.599670E+04  3.891618E+02  1.173267E+05 -6.797004E+02  1.672027E+03
       128   7  3.283533E+05  5.714635E+04  8.410736E+03  1.253963E+05  2.080765E+02  1.177235E+03
       128   8  3.384896E+05  5.798248E+04  1.027340E+04  1.251893E+05 -1.413301E+02  1.459448E+03
       128   9  3.444176E+05  6.315362E+04  1.231312E+04  1.298284E+05 -4.912242E+02  1.743050E+03
       128  10  2.693017E+05  3.492448E+04 -7.129515E+03  1.092284E+05  7.656949E-09  5.705268E-10
       128  11  2.633687E+05  2.971454E+04 -9.421308E+03  1.046040E+05  5.386462E-09 -2.876108E-09
       128  12  2.532275E+05  2.883995E+04 -1.153494E+04  1.048258E+05 -1.565839E-09  4.753206E-10
       128  13  2.988271E+05  4.603541E+04  6.406581E+02  1.173122E+05  7.332205E-09  3.973887E-09
       128  14  3.009285E+05  4.384847E+04  4.261034E+02  1.148964E+05  6.742751E-09 -2.415866E-10
       128  15  2.988215E+05  4.599669E+04  3.891557E+02  1.173267E+05  4.291937E-09 -2.663825E-09
       128  16  3.283533E+05  5.714635E+04  8.410733E+03  1.253963E+05 -2.539253E-09  2.010971E-09
       128  17  3.384896E+05  5.798248E+04  1.027340E+04  1.251893E+05  1.622866E-09  1.460975E-09
       128  18  3.444176E+05  6.315362E+04  1.231312E+04  1.298284E+05  5.223959E-09  2.317817E-09
       128  19  2.693017E+05  3.492448E+04 -7.129513E+03  1.092284E+05  1.660474E+02 -1.036219E+03
       128  20  2.633687E+05  2.971454E+04 -9.421304E+03  1.046040E+05  5.168643E+02 -1.317919E+03
       128  21  2.532275E+05  2.883995E+04 -1.153494E+04  1.048258E+05  8.681608E+02 -1.601009E+03
       128  22  2.988271E+05  4.603541E+04  6.406604E+02  1.173122E+05 -2.100997E+01 -1.106725E+03
       128  23  3.009285E+05  4.384847E+04  4.261072E+02  1.148964E+05  3.291034E+02 -1.388681E+03
       128  24  2.988215E+05  4.599670E+04  3.891618E+02  1.173267E+05  6.797004E+02 -1.672027E+03
       128  25  3.283533E+05  5.714635E+04  8.410736E+03  1.253963E+05 -2.080765E+02 -1.177235E+03
       128  26  3.384896E+05  5.798248E+04  1.027340E+04  1.251893E+05  1.413301E+02 -1.459448E+03
       128  27  3.444176E+05  6.315362E+04  1.231312E+04  1.298284E+05  4.912242E+02 -1.743050E+03
       129   1  2.426440E+05  2.487425E+04 -1.433632E+04  1.019650E+05 -1.015729E+03  1.788084E+03
       129   2  2.366538E+05  1.965232E+04 -1.625880E+04  9.727950E+04 -1.450549E+03  2.041940E+03
       129   3  2.264472E+05  1.884149E+04 -1.793055E+04  9.747982E+04 -1.885417E+03  2.296127E+03
       129   4  2.988178E+05  4.600223E+04  4.189082E+02  1.173396E+05 -8.266965E+02  1.859310E+03
       129   5  3.009309E+05  4.383130E+04  5.918869E+02  1.148837E+05 -1.261385E+03  2.113200E+03
       129   6  2.988274E+05  4.607139E+04  1.015482E+03  1.173135E+05 -1.696126E+03  2.367420E+03
       129   7  3.549946E+05  6.713041E+04  1.517386E+04  1.327155E+05 -6.376455E+02  1.930542E+03
       129   8  3.652118E+05  6.801049E+04  1.744220E+04  1.324895E+05 -1.072200E+03  2.184468E+03
       129   9  3.712125E+05  7.330152E+04  1.996100E+04  1.371492E+05 -1.506811E+03  2.438722E+03
       129  10  2.426440E+05  2.487425E+04 -1.433632E+04  1.019650E+05  8.008200E-10  2.081225E-09
       129  11  2.366538E+05  1.965232E+04 -1.625882E+04  9.727950E+04 -3.548588E-10 -4.399286E-09
       129  12  2.264472E+05  1.884149E+04 -1.793056E+04  9.747982E+04 -1.521145E-08 -1.136091E-08
       129  13  2.988178E+05  4.600223E+04  4.189004E+02  1.173396E+05  3.910624E-09  7.967916E-09
       129  14  3.009309E+05  4.383129E+04  5.918755E+02  1.148837E+05 -3.811039E-09 -3.369014E-09
       129  15  2.988274E+05  4.607138E+04  1.015466E+03  1.173135E+05 -9.199600E-10 -8.253202E-09
       129  16  3.549946E+05  6.713040E+04  1.517385E+04  1.327155E+05 -2.304681E-09  2.056540E-09
       129  17  3.652118E+05  6.801048E+04  1.744219E+04  1.324895E+05  6.232562E-09  3.457369E-09
       129  18  3.712125E+05  7.330152E+04  1.996099E+04  1.371492E+05  1.024663E-08  3.086267E-09
       129  19  2.426440E+05  2.487425E+04 -1.433632E+04  1.019650E+05  1.015729E+03 -1.788084E+03
       129  20  2.366538E+05  1.965232E+04 -1.625880E+04  9.727950E+04  1.450549E+03 -2.041940E+03
       129  21  2.264472E+05  1.884149E+04 -1.793055E+04  9.747982E+04  1.885417E+03 -2.296127E+03
       129  22  2.988178E+05  4.600223E+04  4.189082E+02  1.173396E+05  8.266965E+02 -1.859310E+03
       129  23  3.009309E+05  4.383130E+04  5.918869E+02  1.148837E+05  1.261385E+03 -2.113200E+03
       129  24  2.988274E+05  4.607139E+04  1.015482E+03  1.173135E+05  1.696126E+03 -2.367420E+03
       129  25  3.549946E+05  6.713041E+04  1.517386E+04  1.327155E+05  6.376455E+02 -1.930542E+03
       129  26  3.652118E+05  6.801049E+04  1.744220E+04  1.324895E+05  1.072200E+03 -2.184468E+03
       129  27  3.712125E+05  7.330152E+04  1.996100E+04  1.371492E+05  1.506811E+03 -2.438722E+03
       130   1  2.157106E+05  1.481784E+04 -2.049616E+04  9.474403E+04 -2.164942E+03  2.439183E+03
       130   2  2.095634E+05  9.343797E+03 -2.162838E+04  8.984852E+04 -3.463584E+03  2.372289E+03
       130   3  1.995836E+05  9.206601E+03 -2.163297E+04  8.971532E+04 -4.755566E+03  2.287934E+03
       130   4  2.988712E+05  4.598639E+04  1.312853E+03  1.173955E+05 -1.969293E+03  2.512859E+03
       130   5  3.008409E+05  4.370128E+04  2.304976E+03  1.148695E+05 -3.277136E+03  2.442478E+03
       130   6  2.989796E+05  4.675478E+04  4.431934E+03  1.171058E+05 -4.578336E+03  2.354630E+03
       130   7  3.820388E+05  7.715546E+04  2.312135E+04  1.400497E+05 -1.773614E+03  2.586546E+03
       130   8  3.921265E+05  7.805933E+04  2.623766E+04  1.398938E+05 -3.090659E+03  2.512678E+03
       130   9  3.983853E+05  8.430361E+04  3.049600E+04  1.445003E+05 -4.401075E+03  2.421338E+03
       130  10  2.157105E+05  1.481783E+04 -2.049618E+04  9.474404E+04 -8.650758E-09 -4.444179E-09
       130  11  2.095634E+05  9.343788E+03 -2.162841E+04  8.984853E+04 -4.281282E-09 -1.166664E-09
       130  12  1.995836E+05  9.206589E+03 -2.163303E+04  8.971533E+04  6.119032E-09  1.019028E-09
       130  13  2.988712E+05  4.598638E+04  1.312834E+03  1.173955E+05 -3.534531E-09 -7.870853E-09
       130  14  3.008409E+05  4.370127E+04  2.304945E+03  1.148695E+05 -2.566959E-09 -1.435279E-09
       130  15  2.989796E+05  4.675477E+04  4.431884E+03  1.171058E+05 -8.359924E-10 -2.584815E-09
       130  16  3.820388E+05  7.715545E+04  2.312133E+04  1.400497E+05 -3.815870E-09 -2.642699E-10
       130  17  3.921265E+05  7.805932E+04  2.623763E+04  1.398938E+05 -8.118781E-09 -4.084246E-09
       130  18  3.983853E+05  8.430360E+04  3.049596E+04  1.445003E+05 -1.306651E-08 -6.862709E-09
       130  19  2.157106E+05  1.481784E+04 -2.049616E+04  9.474403E+04  2.164942E+03 -2.439183E+03
       130  20  2.095634E+05  9.343797E+03 -2.162838E+04  8.984852E+04  3.463584E+03 -2.372289E+03
       130  21  1.995836E+05  9.206601E+03 -2.163297E+04  8.971532E+04  4.755566E+03 -2.287934E+03
       130  22  2.988712E+05  4.598639E+04  1.312853E+03  1.173955E+05  1.969293E+03 -2.512859E+03
       130  23  3.008409E+05  4.370128E+04  2.304976E+03  1.148695E+05  3.277136E+03 -2.442478E+03
       130  24  2.989796E+05  4.675478E+04  4.431934E+03  1.171058E+05  4.578336E+03 -2.354630E+03
       130  25  3.820388E+05  7.715546E+04  2.312135E+04  1.400497E+05  1.773614E+03 -2.586546E+03
       130  26  3.921265E+05  7.805933E+04  2.623766E+04  1.398938E+05  3.090659E+03 -2.512678E+03
       130  27  3.983853E+05  8.430361E+04  3.049600E+04  1.445003E+05  4.401075E+03 -2.421338E+03
       131   1  1.882214E+05  5.002603E+03 -2.326035E+04  8.841654E+04 -5.750622E+03  2.206168E+03
       131   2  1.816863E+05 -2.406507E+03 -2.118831E+04  8.196688E+04 -1.090234E+04  6.845706E+02
       131   3  1.748943E+05  3.967528E+03 -1.283540E+04  7.829582E+04 -1.595225E+04 -1.107110E+03
       131   4  2.993697E+05  4.574491E+04  5.698671E+03  1.177537E+05 -5.491962E+03  2.303521E+03
       131   5  3.000229E+05  4.264777E+04  9.935528E+03  1.149306E+05 -1.078429E+04  7.289355E+02
       131   6  3.004463E+05  5.336031E+04  2.056371E+04  1.148861E+05 -1.597489E+04 -1.115769E+03
       131   7  4.105295E+05  8.648769E+04  3.465656E+04  1.470955E+05 -5.233251E+03  2.400892E+03
       131   8  4.183730E+05  8.770301E+04  4.105817E+04  1.479001E+05 -1.066621E+04  7.733101E+02
       131   9  4.260140E+05  1.027546E+05  5.396155E+04  1.514833E+05 -1.599754E+04 -1.124430E+03
       131  10  1.882213E+05  5.002589E+03 -2.326042E+04  8.841655E+04  5.944775E-09  5.254774E-09
       131  11  1.816861E+05 -2.406539E+03 -2.118854E+04  8.196688E+04 -7.527067E-10  6.856511E-09
       131  12  1.748940E+05  3.967459E+03 -1.283588E+04  7.829580E+04 -7.747018E-09  7.595602E-10
       131  13  2.993696E+05  4.574489E+04  5.698604E+03  1.177537E+05 -1.107888E-09 -3.657457E-09
       131  14  3.000227E+05  4.264774E+04  9.935309E+03  1.149306E+05 -9.902670E-10 -6.180282E-10
       131  15  3.004460E+05  5.336024E+04  2.056323E+04  1.148861E+05 -4.140364E-09 -1.259604E-09
       131  16  4.105295E+05  8.648768E+04  3.465650E+04  1.470955E+05 -7.821490E-09 -3.770678E-09
       131  17  4.183729E+05  8.770298E+04  4.105796E+04  1.479001E+05  2.658831E-10 -3.933903E-09
       131  18  4.260137E+05  1.027545E+05  5.396107E+04  1.514833E+05 -2.195532E-09 -1.030095E-09
       131  19  1.882214E+05  5.002603E+03 -2.326035E+04  8.841654E+04  5.750622E+03 -2.206168E+03
       131  20  1.816863E+05 -2.406507E+03 -2.118831E+04  8.196688E+04  1.090234E+04 -6.845706E+02
       131  21  1.748943E+05  3.967528E+03 -1.283540E+04  7.829582E+04  1.595225E+04  1.107110E+03
       131  22  2.993697E+05  4.574491E+04  5.698671E+03  1.177537E+05  5.491962E+03 -2.303521E+03
       131  23  3.000229E+05  4.264777E+04  9.935528E+03  1.149306E+05  1.078429E+04 -7.289355E+02
       131  24  3.004463E+05  5.336031E+04  2.056371E+04  1.148861E+05  1.597489E+04  1.115769E+03
       131  25  4.105295E+05  8.648769E+04  3.465656E+04  1.470955E+05  5.233251E+03 -2.400892E+03
       131  26  4.183730E+05  8.770301E+04  4.105817E+04  1.479001E+05  1.066621E+04 -7.733101E+02
       131  27  4.260140E+05  1.027546E+05  5.396155E+04  1.514833E+05  1.599754E+04  1.124430E+03
       132   1  1.584010E+05 -1.717522E+03 -1.083409E+04  9.105055E+04 -2.091162E+04 -2.116404E+03
       132   2  1.510246E+05 -2.701533E+04  3.691644E+03  7.020808E+04 -4.203226E+04 -9.797017E+03
       132   3  1.756087E+05  4.153738E+04  5.837983E+04  3.124308E+04 -6.173874E+04 -2.123586E+04
       132   4  3.037121E+05  4.315759E+04  2.533580E+04  1.208041E+05 -1.982230E+04 -1.706182E+03
       132   5  2.927704E+05  3.303096E+04  4.209796E+04  1.159502E+05 -4.289145E+04 -1.012091E+04
       132   6  3.141659E+05  1.171265E+05  1.005589E+05  9.297648E+04 -6.454641E+04 -2.229475E+04
       132   7  4.490438E+05  8.803262E+04  6.150420E+04  1.505633E+05 -1.873270E+04 -1.295897E+03
       132   8  4.345351E+05  9.307978E+04  8.050228E+04  1.617021E+05 -4.375085E+04 -1.044491E+04
       132   9  4.527415E+05  1.927231E+05  1.427356E+05  1.547237E+05 -6.735474E+04 -2.335414E+04
       132  10  1.584006E+05 -1.717644E+03 -1.083492E+04  9.105051E+04  3.796946E-10  5.716745E-09
       132  11  1.510227E+05 -2.701591E+04  3.688145E+03  7.020775E+04  7.779445E-09  5.854858E-09
       132  12  1.756045E+05  4.153587E+04  5.837182E+04  3.124202E+04  3.944051E-09  1.530521E-09
       132  13  3.037116E+05  4.315748E+04  2.533505E+04  1.208041E+05 -2.020198E-09 -3.259180E-09
       132  14  2.927684E+05  3.303036E+04  4.209431E+04  1.159499E+05 -3.519148E-09 -3.149773E-10
       132  15  3.141613E+05  1.171248E+05  1.005501E+05  9.297532E+04  3.026869E-10  5.943126E-10
       132  16  4.490435E+05  8.803253E+04  6.150354E+04  1.505633E+05 -6.722858E-09 -6.221590E-09
       132  17  4.345330E+05  9.307915E+04  8.049848E+04  1.617017E+05 -3.460992E-09 -6.221544E-10
       132  18  4.527365E+05  1.927213E+05  1.427261E+05  1.547224E+05  1.476870E-09 -2.699360E-09
       132  19  1.584010E+05 -1.717522E+03 -1.083409E+04  9.105055E+04  2.091162E+04  2.116404E+03
       132  20  1.510246E+05 -2.701533E+04  3.691644E+03  7.020808E+04  4.203226E+04  9.797017E+03
       132  21  1.756087E+05  4.153738E+04  5.837983E+04  3.124308E+04  6.173874E+04  2.123586E+04
       132  22  3.037121E+05  4.315759E+04  2.533580E+04  1.208041E+05  1.982230E+04  1.706182E+03
       132  23  2.927704E+05  3.303096E+04  4.209796E+04  1.159502E+05  4.289145E+04  1.012091E+04
       132  24  3.141659E+05  1.171265E+05  1.005589E+05  9.297648E+04  6.454641E+04  2.229475E+04
       132  25  4.490438E+05  8.803262E+04  6.150420E+04  1.505633E+05  1.873270E+04  1.295897E+03
       132  26  4.345351E+05  9.307978E+04  8.050228E+04  1.617021E+05  4.375085E+04  1.044491E+04
       132  27  4.527415E+05  1.927231E+05  1.427356E+05  1.547237E+05  6.735474E+04  2.335414E+04
       133   1 -1.244780E+02 -3.911393E+05 -1.636422E+03 -6.444374E+01 -2.776199E+01  1.251922E+02
       133   2 -2.927716E+02 -3.919237E+05 -2.194108E+03  1.481611E+02 -5.412823E+01  1.048915E+03
       133   3 -8.699130E+02 -3.929319E+05 -3.455941E+03 -1.801266E+02 -9.366765E+01  1.972636E+03
       133   4 -5.425317E+00 -3.906549E+05 -1.526459E+03 -1.201168E+02 -2.777320E+01  1.369818E+02
       133   5  4.838889E+01 -3.905423E+05 -1.870210E+03  1.501855E+02 -5.414722E+01  1.068922E+03
       133   6 -3.080679E+02 -3.906551E+05 -2.923814E+03 -1.204039E+02 -9.369421E+01  2.000863E+03
       133   7  1.136274E+02 -3.901704E+05 -1.416495E+03 -1.757899E+02 -2.778442E+01  1.487713E+02
       133   8  3.895492E+02 -3.891610E+05 -1.546313E+03  1.522098E+02 -5.416620E+01  1.088929E+03
       133   9  2.537768E+02 -3.883783E+05 -2.391687E+03 -6.068103E+01 -9.372077E+01  2.029089E+03
       133  10 -1.244780E+02 -3.911393E+05 -1.636422E+03 -6.444373E+01  1.604266E-09 -8.010425E-09
       133  11 -2.927719E+02 -3.919237E+05 -2.194110E+03  1.481611E+02 -4.577263E-10  1.790757E-09
       133  12 -8.699140E+02 -3.929319E+05 -3.455948E+03 -1.801264E+02  8.675428E-10  9.437877E-09
       133  13 -5.425323E+00 -3.906549E+05 -1.526459E+03 -1.201168E+02 -1.466178E-09  1.554723E-10
       133  14  4.838858E+01 -3.905423E+05 -1.870213E+03  1.501855E+02 -1.877309E-09  5.682011E-10
       133  15 -3.080690E+02 -3.906551E+05 -2.923821E+03 -1.204038E+02 -3.216045E-09  1.949013E-09
       133  16  1.136274E+02 -3.901704E+05 -1.416495E+03 -1.757899E+02  1.562302E-09  1.013579E-08
       133  17  3.895489E+02 -3.891610E+05 -1.546315E+03  1.522099E+02 -1.002885E-09 -4.441931E-10
       133  18  2.537756E+02 -3.883783E+05 -2.391695E+03 -6.068088E+01 -9.595903E-10 -8.073886E-09
       133  19 -1.244780E+02 -3.911393E+05 -1.636422E+03 -6.444374E+01  2.776199E+01 -1.251922E+02
       133  20 -2.927716E+02 -3.919237E+05 -2.194108E+03  1.481611E+02  5.412823E+01 -1.048915E+03
       133  21 -8.699130E+02 -3.929319E+05 -3.455941E+03 -1.801266E+02  9.366765E+01 -1.972636E+03
       133  22 -5.425317E+00 -3.906549E+05 -1.526459E+03 -1.201168E+02  2.777320E+01 -1.369818E+02
       133  23  4.838889E+01 -3.905423E+05 -1.870210E+03  1.501855E+02  5.414722E+01 -1.068922E+03
       133  24 -3.080679E+02 -3.906551E+05 -2.923814E+03 -1.204039E+02  9.369421E+01 -2.000863E+03
       133  25  1.136274E+02 -3.901704E+05 -1.416495E+03 -1.757899E+02  2.778442E+01 -1.487713E+02
       133  26  3.895492E+02 -3.891610E+05 -1.546313E+03  1.522098E+02  5.416620E+01 -1.088929E+03
       133  27  2.537768E+02 -3.883783E+05 -2.391687E+03 -6.068103E+01  9.372077E+01 -2.029089E+03
       134   1 -6.014950E+02 -3.941757E+05 -4.417733E+03  4.606168E+02 -1.211265E+02  2.553501E+03
       134   2 -6.122524E+02 -3.943351E+05 -7.010370E+03 -1.451742E+02 -1.627095E+02  5.630200E+03
       134   3 -4.898985E+03 -3.959658E+05 -1.267625E+04 -1.292457E+03 -1.939989E+02  8.706896E+03
       134   4  2.016222E+02 -3.909316E+05 -3.654291E+03 -1.192431E+02 -1.211547E+02  2.580838E+03
       134   5  4.092110E+02 -3.901971E+05 -6.039491E+03  1.496797E+02 -1.627265E+02  5.651130E+03
       134   6 -3.658048E+03 -3.909328E+05 -1.149346E+04 -1.228892E+02 -1.939960E+02  8.721424E+03
       134   7  1.004740E+03 -3.876874E+05 -2.890850E+03 -6.991060E+02 -1.211831E+02  2.608175E+03
       134   8  1.430673E+03 -3.860591E+05 -5.068613E+03  4.445355E+02 -1.627435E+02  5.672060E+03
       134   9 -2.417108E+03 -3.858998E+05 -1.031068E+04  1.046688E+03 -1.939931E+02  8.735951E+03
       134  10 -6.014968E+02 -3.941757E+05 -4.417746E+03  4.606171E+02 -2.631536E-09  7.177799E-10
       134  11 -6.122609E+02 -3.943351E+05 -7.010429E+03 -1.451734E+02 -2.800936E-09  7.167518E-09
       134  12 -4.899006E+03 -3.959658E+05 -1.267639E+04 -1.292455E+03 -1.370670E-09  1.103786E-08
       134  13  2.016204E+02 -3.909316E+05 -3.654304E+03 -1.192428E+02 -1.796128E-09 -9.816377E-10
       134  14  4.092024E+02 -3.901971E+05 -6.039551E+03  1.496804E+02 -2.886393E-09  1.006251E-09
       134  15 -3.658069E+03 -3.909329E+05 -1.149361E+04 -1.228878E+02 -1.119544E-09 -1.170838E-09
       134  16  1.004738E+03 -3.876874E+05 -2.890863E+03 -6.991058E+02  8.356398E-10  1.340342E-09
       134  17  1.430665E+03 -3.860591E+05 -5.068674E+03  4.445363E+02 -1.530239E-09 -4.291485E-09
       134  18 -2.417129E+03 -3.858999E+05 -1.031082E+04  1.046689E+03  3.562609E-11 -8.239900E-09
       134  19 -6.014950E+02 -3.941757E+05 -4.417733E+03  4.606168E+02  1.211265E+02 -2.553501E+03
       134  20 -6.122524E+02 -3.943351E+05 -7.010370E+03 -1.451742E+02  1.627095E+02 -5.630200E+03
       134  21 -4.898985E+03 -3.959658E+05 -1.267625E+04 -1.292457E+03  1.939989E+02 -8.706896E+03
       134  22  2.016222E+02 -3.909316E+05 -3.654291E+03 -1.192431E+02  1.211547E+02 -2.580838E+03
       134  23  4.092110E+02 -3.901971E+05 -6.039491E+03  1.496797E+02  1.627265E+02 -5.651130E+03
       134  24 -3.658048E+03 -3.909328E+05 -1.149346E+04 -1.228892E+02  1.939960E+02 -8.721424E+03
       134  25  1.004740E+03 -3.876874E+05 -2.890850E+03 -6.991060E+02  1.211831E+02 -2.608175E+03
       134  26  1.430673E+03 -3.860591E+05 -5.068613E+03  4.445355E+02  1.627435E+02 -5.672060E+03
       134  27 -2.417108E+03 -3.858998E+05 -1.031068E+04  1.046688E+03  1.939931E+02 -8.735951E+03
       135   1  7.918296E+02 -3.996201E+05 -1.556748E+04  5.894822E+03 -2.442085E+02  1.078918E+04
       135   2  2.600933E+03 -3.937021E+05 -2.467375E+04 -4.591762E+03 -2.773444E+02  2.328497E+04
       135   3 -4.370848E+04 -4.014448E+05 -5.394862E+04 -1.563934E+04 -1.197273E+02  3.578077E+04
       135   4  2.283734E+03 -3.936354E+05 -1.416292E+04 -1.125673E+02 -2.443814E+02  1.086202E+04
       135   5  4.290413E+03 -3.868195E+05 -2.305828E+04  1.474271E+02 -2.771228E+02  2.323869E+04
       135   6 -4.180088E+04 -3.936437E+05 -5.203939E+04 -1.538787E+02 -1.186791E+02  3.561540E+04
       135   7  3.775772E+03 -3.876506E+05 -1.275835E+04 -6.120015E+03 -2.445557E+02  1.093487E+04
       135   8  5.979975E+03 -3.799368E+05 -2.144281E+04  4.886670E+03 -2.769018E+02  2.319242E+04
       135   9 -3.989238E+04 -3.858421E+05 -5.013004E+04  1.533178E+04 -1.176392E+02  3.545002E+04
       135  10  7.917982E+02 -3.996203E+05 -1.556770E+04  5.894824E+03 -1.760229E-09  4.114151E-09
       135  11  2.600787E+03 -3.937027E+05 -2.467477E+04 -4.591757E+03  1.673000E-10  4.852221E-09
       135  12 -4.370882E+04 -4.014461E+05 -5.395102E+04 -1.563934E+04  1.027739E-09 -7.076221E-10
       135  13  2.283702E+03 -3.936356E+05 -1.416315E+04 -1.125651E+02  3.925204E-09 -9.108687E-10
       135  14  4.290268E+03 -3.868201E+05 -2.305930E+04  1.474323E+02  9.110839E-10 -1.145433E-09
       135  15 -4.180122E+04 -3.936451E+05 -5.204177E+04 -1.538753E+02 -4.438192E-09 -1.275050E-09
       135  16  3.775739E+03 -3.876507E+05 -1.275857E+04 -6.120013E+03 -9.795734E-10 -4.162131E-09
       135  17  5.979831E+03 -3.799374E+05 -2.144382E+04  4.886675E+03 -8.078402E-09 -1.569146E-09
       135  18 -3.989271E+04 -3.858434E+05 -5.013240E+04  1.533178E+04 -1.771038E-09  2.052585E-09
       135  19  7.918296E+02 -3.996201E+05 -1.556748E+04  5.894822E+03  2.442085E+02 -1.078918E+04
       135  20  2.600933E+03 -3.937021E+05 -2.467375E+04 -4.591762E+03  2.773444E+02 -2.328497E+04
       135  21 -4.370848E+04 -4.014448E+05 -5.394862E+04 -1.563934E+04  1.197273E+02 -3.578077E+04
       135  22  2.283734E+03 -3.936354E+05 -1.416292E+04 -1.125673E+02  2.443814E+02 -1.086202E+04
       135  23  4.290413E+03 -3.868195E+05 -2.305828E+04  1.474271E+02  2.771228E+02 -2.323869E+04
       135  24 -4.180088E+04 -3.936437E+05 -5.203939E+04 -1.538787E+02  1.186791E+02 -3.561540E+04
       135  25  3.775772E+03 -3.876506E+05 -1.275835E+04 -6.120015E+03  2.445557E+02 -1.093487E+04
       135  26  5.979975E+03 -3.799368E+05 -2.144281E+04  4.886670E+03  2.769018E+02 -2.319242E+04
       135  27 -3.989238E+04 -3.858421E+05 -5.013004E+04  1.533178E+04  1.176392E+02 -3.545002E+04
       136   1 -6.893198E+06 -2.262727E+06 -1.203392E+06 -2.425493E+06 -3.974414E+05 -8.047576E+04
       136   2 -6.706278E+06 -1.994304E+06 -9.097408E+05 -2.357406E+06 -2.674638E+05  1.355127E+05
       136   3 -6.552393E+06 -1.885043E+06 -7.881260E+05 -2.303528E+06 -9.549576E+04  2.424670E+05
       136   4 -3.000971E+06 -7.009736E+05 -1.672404E+05 -1.267949E+06 -1.314678E+05  2.132983E+04
       136   5 -2.989432E+06 -5.716207E+05 -7.626092E+04 -1.285290E+06 -1.467107E+05  1.815050E+05
       136   6 -2.981519E+06 -5.719436E+05 -4.074010E+04 -1.316927E+06 -1.201736E+05  2.329159E+05
       136   7  9.062225E+05  8.622880E+05  8.678656E+05 -1.035663E+05  1.363540E+05  1.239263E+05
       136   8  7.415524E+05  8.524012E+05  7.564000E+05 -2.071313E+05 -2.516570E+04  2.278160E+05
       136   9  6.025800E+05  7.422309E+05  7.059699E+05 -3.250383E+05 -1.450067E+05  2.233077E+05
       136  10 -6.893371E+06 -2.262777E+06 -1.203705E+06 -2.425519E+06  1.767383E-08  8.607305E-09
       136  11 -6.706360E+06 -1.994343E+06 -9.099104E+05 -2.357377E+06  2.838365E-09  5.642031E-09
       136  12 -6.552419E+06 -1.885108E+06 -7.882534E+05 -2.303509E+06 -8.945535E-09 -6.758913E-09
       136  13 -3.000990E+06 -7.009787E+05 -1.672738E+05 -1.267946E+06  4.960938E-09  2.621133E-09
       136  14 -2.989464E+06 -5.716618E+05 -7.636317E+04 -1.285269E+06  4.733180E-09 -7.088346E-09
       136  15 -2.981549E+06 -5.720056E+05 -4.086897E+04 -1.316905E+06  1.350215E-09 -1.128278E-09
       136  16  9.061985E+05  8.622665E+05  8.678019E+05 -1.035799E+05 -1.441065E-08 -5.581633E-09
       136  17  7.415378E+05  8.523453E+05  7.563015E+05 -2.071267E+05  4.643843E-09  8.531232E-09
       136  18  6.025441E+05  7.421718E+05  7.058369E+05 -3.250123E+05  1.128477E-08  3.928775E-09
       136  19 -6.893198E+06 -2.262727E+06 -1.203392E+06 -2.425493E+06  3.974414E+05  8.047576E+04
       136  20 -6.706278E+06 -1.994304E+06 -9.097408E+05 -2.357406E+06  2.674638E+05 -1.355127E+05
       136  21 -6.552393E+06 -1.885043E+06 -7.881260E+05 -2.303528E+06  9.549576E+04 -2.424670E+05
       136  22 -3.000971E+06 -7.009736E+05 -1.672404E+05 -1.267949E+06  1.314678E+05 -2.132983E+04
       136  23 -2.989432E+06 -5.716207E+05 -7.626092E+04 -1.285290E+06  1.467107E+05 -1.815050E+05
       136  24 -2.981519E+06 -5.719436E+05 -4.074010E+04 -1.316927E+06  1.201736E+05 -2.329159E+05
       136  25  9.062225E+05  8.622880E+05  8.678656E+05 -1.035663E+05 -1.363540E+05 -1.239263E+05
       136  26  7.415524E+05  8.524012E+05  7.564000E+05 -2.071313E+05  2.516570E+04 -2.278160E+05
       136  27  6.025800E+05  7.422309E+05  7.059699E+05 -3.250383E+05  1.450067E+05 -2.233077E+05
       137   1 -6.395970E+06 -1.849860E+06 -7.497638E+05 -2.272852E+06 -1.096031E+05  2.255284E+05
       137   2 -6.216447E+06 -1.745348E+06 -6.840481E+05 -2.192672E+06 -8.980772E+04  2.273254E+05
       137   3 -5.997765E+06 -1.687954E+06 -6.326797E+05 -2.158116E+06 -6.735625E+04  2.220387E+05
       137   4 -2.975120E+06 -5.785985E+05 -3.129951E+04 -1.314090E+06 -1.116129E+05  2.246253E+05
       137   5 -2.994946E+06 -5.528978E+05 -1.677781E+04 -1.292350E+06 -1.012181E+05  2.228672E+05
       137   6 -2.973762E+06 -5.723984E+05 -9.053514E+03 -1.316231E+06 -8.818107E+04  2.140427E+05
       137   7  4.578290E+05  6.937012E+05  6.865268E+05 -3.503888E+05 -1.136348E+05  2.237182E+05
       137   8  2.372955E+05  6.404671E+05  6.499431E+05 -3.876641E+05 -1.126930E+05  2.183849E+05
       137   9  5.969513E+04  5.439478E+05  6.140917E+05 -4.705237E+05 -1.091163E+05  2.060054E+05
       137  10 -6.395997E+06 -1.849918E+06 -7.498818E+05 -2.272832E+06 -8.779341E-09 -3.905739E-09
       137  11 -6.216469E+06 -1.745406E+06 -6.841602E+05 -2.192655E+06 -3.019802E-09 -2.769910E-11
       137  12 -5.997783E+06 -1.688009E+06 -6.327807E+05 -2.158104E+06  4.885113E-09  1.411131E-09
       137  13 -2.975147E+06 -5.786560E+05 -3.141754E+04 -1.314070E+06  6.159074E-10 -1.786558E-09
       137  14 -2.994971E+06 -5.529538E+05 -1.689021E+04 -1.292332E+06  3.947357E-09 -2.609654E-09
       137  15 -2.973783E+06 -5.724496E+05 -9.154051E+03 -1.316216E+06 -1.161237E-09  1.645055E-09
       137  16  4.578018E+05  6.936441E+05  6.864087E+05 -3.503684E+05  5.944101E-09  3.690484E-09
       137  17  2.372691E+05  6.404126E+05  6.498298E+05 -3.876443E+05  3.055875E-10  2.421767E-09
       137  18  5.967100E+04  5.438992E+05  6.139897E+05 -4.705056E+05 -6.949958E-09  7.100291E-10
       137  19 -6.395970E+06 -1.849860E+06 -7.497638E+05 -2.272852E+06  1.096031E+05 -2.255284E+05
       137  20 -6.216447E+06 -1.745348E+06 -6.840481E+05 -2.192672E+06  8.980772E+04 -2.273254E+05
       137  21 -5.997765E+06 -1.687954E+06 -6.326797E+05 -2.158116E+06  6.735625E+04 -2.220387E+05
       137  22 -2.975120E+06 -5.785985E+05 -3.129951E+04 -1.314090E+06  1.116129E+05 -2.246253E+05
       137  23 -2.994946E+06 -5.528978E+05 -1.677781E+04 -1.292350E+06  1.012181E+05 -2.228672E+05
       137  24 -2.973762E+06 -5.723984E+05 -9.053514E+03 -1.316231E+06  8.818107E+04 -2.140427E+05
       137  25  4.578290E+05  6.937012E+05  6.865268E+05 -3.503888E+05  1.136348E+05 -2.237182E+05
       137  26  2.372955E+05  6.404671E+05  6.499431E+05 -3.876641E+05  1.126930E+05 -2.183849E+05
       137  27  5.969513E+04  5.439478E+05  6.140917E+05 -4.705237E+05  1.091163E+05 -2.060054E+05
       138   1 -5.854996E+06 -1.635597E+06 -6.000176E+05 -2.118808E+06 -6.381153E+04  2.129911E+05
       138   2 -5.668998E+06 -1.535374E+06 -5.539575E+05 -2.035314E+06 -5.530767E+04  1.990549E+05
       138   3 -5.438632E+06 -1.478514E+06 -5.096409E+05 -2.000760E+06 -4.661063E+04  1.844860E+05
       138   4 -2.972957E+06 -5.728617E+05 -6.863536E+03 -1.316550E+06 -8.344295E+04  2.054665E+05
       138   5 -2.994915E+06 -5.506829E+05 -3.937532E+03 -1.292212E+06 -7.576896E+04  1.912466E+05
       138   6 -2.972399E+06 -5.716926E+05 -2.096267E+03 -1.316818E+06 -6.790340E+04  1.763951E+05
       138   7 -8.228311E+04  4.906097E+05  5.858685E+05 -5.108074E+05 -1.031738E+05  1.979047E+05
       138   8 -3.134102E+05  4.346343E+05  5.457175E+05 -5.461188E+05 -9.632624E+04  1.834023E+05
       138   9 -4.998659E+05  3.356533E+05  5.051353E+05 -6.303410E+05 -8.928812E+04  1.682698E+05
       138  10 -5.855012E+06 -1.635647E+06 -6.001104E+05 -2.118797E+06  7.731616E-09  1.332853E-09
       138  11 -5.669012E+06 -1.535417E+06 -5.540376E+05 -2.035305E+06 -1.290304E-08 -2.508398E-09
       138  12 -5.438644E+06 -1.478551E+06 -5.097089E+05 -2.000753E+06 -2.036831E-08 -8.953461E-09
       138  13 -2.972976E+06 -5.729088E+05 -6.955799E+03 -1.316536E+06 -6.455839E-10 -3.949829E-09
       138  14 -2.994931E+06 -5.507236E+05 -4.016919E+03 -1.292200E+06 -5.319322E-09  1.790934E-09
       138  15 -2.972413E+06 -5.717272E+05 -2.163292E+03 -1.316808E+06 -4.532652E-09  4.365757E-09
       138  16 -8.230501E+04  4.905648E+05  5.857750E+05 -5.107910E+05 -1.189597E-08 -5.261659E-09
       138  17 -3.134291E+05  4.345957E+05  5.456370E+05 -5.461046E+05 -3.174534E-09 -1.990389E-09
       138  18 -4.998820E+05  3.356208E+05  5.050673E+05 -6.303289E+05  1.300213E-08  8.167592E-10
       138  19 -5.854996E+06 -1.635597E+06 -6.000176E+05 -2.118808E+06  6.381153E+04 -2.129911E+05
       138  20 -5.668998E+06 -1.535374E+06 -5.539575E+05 -2.035314E+06  5.530767E+04 -1.990549E+05
       138  21 -5.438632E+06 -1.478514E+06 -5.096409E+05 -2.000760E+06  4.661063E+04 -1.844860E+05
       138  22 -2.972957E+06 -5.728617E+05 -6.863536E+03 -1.316550E+06  8.344295E+04 -2.054665E+05
       138  23 -2.994915E+06 -5.506829E+05 -3.937532E+03 -1.292212E+06  7.576896E+04 -1.912466E+05
       138  24 -2.972399E+06 -5.716926E+05 -2.096267E+03 -1.316818E+06  6.790340E+04 -1.763951E+05
       138  25 -8.228311E+04  4.906097E+05  5.858685E+05 -5.108074E+05  1.031738E+05 -1.979047E+05
       138  26 -3.134102E+05  4.346343E+05  5.457175E+05 -5.461188E+05  9.632624E+04 -1.834023E+05
       138  27 -4.998659E+05  3.356533E+05  5.051353E+05 -6.303410E+05  8.928812E+04 -1.682698E+05
       139   1 -5.291672E+06 -1.423987E+06 -4.776483E+05 -1.960063E+06 -4.266144E+04  1.753361E+05
       139   2 -5.099166E+06 -1.321655E+06 -4.333053E+05 -1.874403E+06 -3.578822E+04  1.595423E+05
       139   3 -4.861259E+06 -1.263716E+06 -3.892949E+05 -1.839468E+06 -2.888321E+04  1.435618E+05
       139   4 -2.972024E+06 -5.718347E+05 -1.638033E+03 -1.317190E+06 -6.406981E+04  1.672186E+05
       139   5 -2.994509E+06 -5.492367E+05 -1.103268E+03 -1.291917E+06 -5.743961E+04  1.513583E+05
       139   6 -2.971602E+06 -5.709800E+05 -7.132728E+02 -1.317379E+06 -5.077804E+04  1.353117E+05
       139   7 -6.468187E+05  2.807750E+05  4.740924E+05 -6.720816E+05 -8.556490E+04  1.590686E+05
       139   8 -8.852655E+05  2.235612E+05  4.308724E+05 -7.075906E+05 -7.917068E+04  1.431445E+05
       139   9 -1.078235E+06  1.220652E+05  3.876897E+05 -7.938051E+05 -7.274532E+04  1.270344E+05
       139  10 -5.291682E+06 -1.424021E+06 -4.777094E+05 -1.960057E+06  1.024528E-08  1.418336E-09
       139  11 -5.099174E+06 -1.321683E+06 -4.333555E+05 -1.874398E+06  3.611382E-09 -1.550570E-09
       139  12 -4.861265E+06 -1.263739E+06 -3.893351E+05 -1.839464E+06 -1.013635E-08 -3.497289E-09
       139  13 -2.972036E+06 -5.718657E+05 -1.698192E+03 -1.317181E+06 -1.306061E-09  6.290346E-09
       139  14 -2.994519E+06 -5.492621E+05 -1.152437E+03 -1.291910E+06  1.417620E-09  3.162229E-09
       139  15 -2.971609E+06 -5.710003E+05 -7.524594E+02 -1.317373E+06  1.835541E-09  7.622762E-10
       139  16 -6.468333E+05  2.807459E+05  4.740312E+05 -6.720707E+05 -1.191412E-08 -6.984203E-09
       139  17 -8.852777E+05  2.235376E+05  4.308222E+05 -7.075815E+05  3.187676E-10 -7.242006E-10
       139  18 -1.078245E+06  1.220465E+05  3.876495E+05 -7.937976E+05  1.157034E-08  2.856332E-09
       139  19 -5.291672E+06 -1.423987E+06 -4.776483E+05 -1.960063E+06  4.266144E+04 -1.753361E+05
       139  20 -5.099166E+06 -1.321655E+06 -4.333053E+05 -1.874403E+06  3.578822E+04 -1.595423E+05
       139  21 -4.861259E+06 -1.263716E+06 -3.892949E+05 -1.839468E+06  2.888321E+04 -1.435618E+05
       139  22 -2.972024E+06 -5.718347E+05 -1.638033E+03 -1.317190E+06  6.406981E+04 -1.672186E+05
       139  23 -2.994509E+06 -5.492367E+05 -1.103268E+03 -1.291917E+06  5.743961E+04 -1.513583E+05
       139  24 -2.971602E+06 -5.709800E+05 -7.132728E+02 -1.317379E+06  5.077804E+04 -1.353117E+05
       139  25 -6.468187E+05  2.807750E+05  4.740924E+05 -6.720816E+05  8.556490E+04 -1.590686E+05
       139  26 -8.852655E+05  2.235612E+05  4.308724E+05 -7.075906E+05  7.917068E+04 -1.431445E+05
       139  27 -1.078235E+06  1.220652E+05  3.876897E+05 -7.938051E+05  7.274532E+04 -1.270344E+05
       140   1 -4.710182E+06 -1.207978E+06 -3.569276E+05 -1.797899E+06 -2.502174E+04  1.341070E+05
       140   2 -4.512560E+06 -1.103922E+06 -3.123828E+05 -1.710653E+06 -1.822642E+04  1.178101E+05
       140   3 -4.269029E+06 -1.045241E+06 -2.681427E+05 -1.675492E+06 -1.141696E+04  1.013996E+05
       140   4 -2.971354E+06 -5.710762E+05 -7.125244E+02 -1.317675E+06 -4.706900E+04  1.258128E+05
       140   5 -2.994133E+06 -5.480791E+05 -8.906144E+02 -1.291699E+06 -4.042234E+04  1.094786E+05
       140   6 -2.971032E+06 -5.704235E+05 -1.259923E+03 -1.317819E+06 -3.376186E+04  9.303094E+04
       140   7 -1.229396E+06  6.608262E+04  3.553496E+05 -8.361981E+05 -6.918317E+04  1.174936E+05
       140   8 -1.473326E+06  7.956949E+03  3.104833E+05 -8.717932E+05 -6.267696E+04  1.011251E+05
       140   9 -1.671304E+06 -9.546855E+04  2.655349E+05 -9.594532E+05 -5.615716E+04  8.464350E+04
       140  10 -4.710187E+06 -1.207997E+06 -3.569626E+05 -1.797896E+06  3.966799E-10  5.433893E-10
       140  11 -4.512564E+06 -1.103937E+06 -3.124095E+05 -1.710651E+06  1.171408E-09 -1.459686E-09
       140  12 -4.269032E+06 -1.045252E+06 -2.681623E+05 -1.675491E+06 -6.287033E-09 -2.500840E-09
       140  13 -2.971360E+06 -5.710937E+05 -7.463768E+02 -1.317670E+06  1.372660E-09 -9.031977E-10
       140  14 -2.994138E+06 -5.480924E+05 -9.161656E+02 -1.291696E+06  4.519416E-09 -2.276530E-09
       140  15 -2.971036E+06 -5.704331E+05 -1.278298E+03 -1.317816E+06  2.459897E-09  1.194003E-10
       140  16 -1.229405E+06  6.606654E+04  3.553147E+05 -8.361916E+05  2.425674E-09 -1.116961E-09
       140  17 -1.473333E+06  7.944937E+03  3.104567E+05 -8.717881E+05  2.350225E-09 -2.772732E-09
       140  18 -1.671309E+06 -9.547707E+04  2.655155E+05 -9.594493E+05 -5.043387E-10 -2.456238E-09
       140  19 -4.710182E+06 -1.207978E+06 -3.569276E+05 -1.797899E+06  2.502174E+04 -1.341070E+05
       140  20 -4.512560E+06 -1.103922E+06 -3.123828E+05 -1.710653E+06  1.822642E+04 -1.178101E+05
       140  21 -4.269029E+06 -1.045241E+06 -2.681427E+05 -1.675492E+06  1.141696E+04 -1.013996E+05
       140  22 -2.971354E+06 -5.710762E+05 -7.125244E+02 -1.317675E+06  4.706900E+04 -1.258128E+05
       140  23 -2.994133E+06 -5.480791E+05 -8.906144E+02 -1.291699E+06  4.042234E+04 -1.094786E+05
       140  24 -2.971032E+06 -5.704235E+05 -1.259923E+03 -1.317819E+06  3.376186E+04 -9.303094E+04
       140  25 -1.229396E+06  6.608262E+04  3.553496E+05 -8.361981E+05  6.918317E+04 -1.174936E+05
       140  26 -1.473326E+06  7.956949E+03  3.104833E+05 -8.717932E+05  6.267696E+04 -1.011251E+05
       140  27 -1.671304E+06 -9.546855E+04  2.655349E+05 -9.594532E+05  5.615716E+04 -8.464350E+04
       141   1 -4.114899E+06 -9.886457E+05 -2.355582E+05 -1.633298E+06 -7.416456E+03  9.179689E+04
       141   2 -3.913685E+06 -8.834637E+05 -1.914442E+05 -1.544960E+06  3.105822E+02  7.557962E+04
       141   3 -3.666409E+06 -8.244687E+05 -1.484038E+05 -1.509651E+06  8.023234E+03  5.935568E+04
       141   4 -2.970912E+06 -5.704858E+05 -1.649790E+03 -1.318044E+06 -2.988117E+04  8.339250E+04
       141   5 -2.993820E+06 -5.472333E+05 -2.913260E+03 -1.291550E+06 -2.216168E+04  6.718357E+04
       141   6 -2.970728E+06 -5.701691E+05 -5.248947E+03 -1.318102E+06 -1.445720E+04  5.096792E+04
       141   7 -1.825562E+06 -1.522118E+05  2.321966E+05 -1.002248E+06 -5.239083E+04  7.497132E+04
       141   8 -2.073076E+06 -2.109300E+05  1.855775E+05 -1.037790E+06 -4.467004E+04  5.877403E+04
       141   9 -2.274545E+06 -3.158287E+05  1.378830E+05 -1.126353E+06 -3.696487E+04  4.256997E+04
       141  10 -4.114901E+06 -9.886547E+05 -2.355742E+05 -1.633297E+06 -5.389313E-09 -1.296381E-09
       141  11 -3.913687E+06 -8.834698E+05 -1.914550E+05 -1.544960E+06  8.481036E-09  9.683510E-11
       141  12 -3.666410E+06 -8.244725E+05 -1.484105E+05 -1.509652E+06  8.323997E-09 -1.554311E-09
       141  13 -2.970915E+06 -5.704935E+05 -1.664512E+03 -1.318042E+06  4.924851E-09  1.066118E-09
       141  14 -2.993822E+06 -5.472383E+05 -2.922650E+03 -1.291549E+06  1.299341E-08  5.224050E-09
       141  15 -2.970729E+06 -5.701720E+05 -5.254213E+03 -1.318101E+06  3.636217E-09 -1.721891E-09
       141  16 -1.825566E+06 -1.522186E+05  2.321809E+05 -1.002245E+06  5.666325E-09  2.605147E-09
       141  17 -2.073079E+06 -2.109342E+05  1.855673E+05 -1.037788E+06  8.828031E-09  5.009862E-09
       141  18 -2.274547E+06 -3.158310E+05  1.378770E+05 -1.126351E+06  1.097384E-09  3.735112E-09
       141  19 -4.114899E+06 -9.886457E+05 -2.355582E+05 -1.633298E+06  7.416456E+03 -9.179689E+04
       141  20 -3.913685E+06 -8.834637E+05 -1.914442E+05 -1.544960E+06 -3.105822E+02 -7.557962E+04
       141  21 -3.666409E+06 -8.244687E+05 -1.484038E+05 -1.509651E+06 -8.023234E+03 -5.935568E+04
       141  22 -2.970912E+06 -5.704858E+05 -1.649790E+03 -1.318044E+06  2.988117E+04 -8.339250E+04
       141  23 -2.993820E+06 -5.472333E+05 -2.913260E+03 -1.291550E+06  2.216168E+04 -6.718357E+04
       141  24 -2.970728E+06 -5.701691E+05 -5.248947E+03 -1.318102E+06  1.445720E+04 -5.096792E+04
       141  25 -1.825562E+06 -1.522118E+05  2.321966E+05 -1.002248E+06  5.239083E+04 -7.497132E+04
       141  26 -2.073076E+06 -2.109300E+05  1.855775E+05 -1.037790E+06  4.467004E+04 -5.877403E+04
       141  27 -2.274545E+06 -3.158287E+05  1.378830E+05 -1.126353E+06  3.696487E+04 -4.256997E+04
       142   1 -3.510292E+06 -7.675321E+05 -1.168176E+05 -1.467592E+06  1.294729E+04  4.996383E+04
       142   2 -3.307492E+06 -6.613872E+05 -7.646246E+04 -1.377408E+06  2.416477E+04  3.539347E+04
       142   3 -3.060071E+06 -6.046278E+05 -4.070441E+04 -1.340080E+06  3.500823E+04  2.181450E+04
       142   4 -2.970935E+06 -5.700193E+05 -6.986110E+03 -1.318389E+06 -9.804382E+03  4.147959E+04
       142   5 -2.993335E+06 -5.470891E+05 -1.273207E+04 -1.291238E+06  2.742645E+03  2.740849E+04
       142   6 -2.971433E+06 -5.738127E+05 -2.413391E+04 -1.316962E+06  1.491385E+04  1.432786E+04
       142   7 -2.431281E+06 -3.724826E+05  1.028318E+05 -1.169066E+06 -3.257722E+04  3.298738E+04
       142   8 -2.679074E+06 -4.327824E+05  5.099535E+04 -1.205027E+06 -1.869118E+04  1.941918E+04
       142   9 -2.882785E+06 -5.429964E+05 -7.561786E+03 -1.293842E+06 -5.183769E+03  6.840128E+03
       142  10 -3.510293E+06 -7.675348E+05 -1.168226E+05 -1.467592E+06 -6.522481E-10 -4.378005E-09
       142  11 -3.307493E+06 -6.613887E+05 -7.646592E+04 -1.377409E+06  3.317091E-09  1.015732E-09
       142  12 -3.060072E+06 -6.046287E+05 -4.070763E+04 -1.340080E+06  5.648104E-09  1.345082E-09
       142  13 -2.970936E+06 -5.700212E+05 -6.989519E+03 -1.318389E+06 -3.656965E-10 -1.131904E-09
       142  14 -2.993335E+06 -5.470899E+05 -1.273350E+04 -1.291238E+06  5.723971E-10 -3.923587E-09
       142  15 -2.971433E+06 -5.738130E+05 -2.413472E+04 -1.316962E+06  8.377744E-10 -2.146467E-09
       142  16 -2.431282E+06 -3.724841E+05  1.028278E+05 -1.169065E+06 -2.355452E-10  1.661231E-09
       142  17 -2.679075E+06 -4.327829E+05  5.099399E+04 -1.205026E+06 -1.881385E-09 -1.054613E-09
       142  18 -2.882785E+06 -5.429965E+05 -7.561925E+03 -1.293841E+06 -3.075825E-09 -5.877882E-09
       142  19 -3.510292E+06 -7.675321E+05 -1.168176E+05 -1.467592E+06 -1.294729E+04 -4.996383E+04
       142  20 -3.307492E+06 -6.613872E+05 -7.646246E+04 -1.377408E+06 -2.416477E+04 -3.539347E+04
       142  21 -3.060071E+06 -6.046278E+05 -4.070441E+04 -1.340080E+06 -3.500823E+04 -2.181450E+04
       142  22 -2.970935E+06 -5.700193E+05 -6.986110E+03 -1.318389E+06  9.804382E+03 -4.147959E+04
       142  23 -2.993335E+06 -5.470891E+05 -1.273207E+04 -1.291238E+06 -2.742645E+03 -2.740849E+04
       142  24 -2.971433E+06 -5.738127E+05 -2.413391E+04 -1.316962E+06 -1.491385E+04 -1.432786E+04
       142  25 -2.431281E+06 -3.724826E+05  1.028318E+05 -1.169066E+06  3.257722E+04 -3.298738E+04
       142  26 -2.679074E+06 -4.327824E+05  5.099535E+04 -1.205027E+06  1.869118E+04 -1.941918E+04
       142  27 -2.882785E+06 -5.429964E+05 -7.561786E+03 -1.293842E+06  5.183769E+03 -6.840128E+03
       143   1 -2.898255E+06 -5.511705E+05 -1.463840E+04 -1.310188E+06  4.586001E+04  1.435357E+04
       143   2 -2.712669E+06 -4.330953E+05  1.089533E+04 -1.184063E+06  5.848078E+04  8.339157E+03
       143   3 -2.509230E+06 -4.316674E+05  1.014738E+04 -1.091838E+06  6.505752E+04  1.853647E+04
       143   4 -2.975441E+06 -5.693586E+05 -3.147182E+04 -1.320319E+06  2.232626E+04  5.586697E+03
       143   5 -2.989316E+06 -5.594831E+05 -5.861291E+04 -1.284523E+06  5.670596E+04  7.674515E+03
       143   6 -2.989740E+06 -6.706266E+05 -1.293470E+05 -1.282663E+06  8.503607E+04  2.597494E+04
       143   7 -3.052620E+06 -5.875465E+05 -4.830322E+04 -1.330450E+06 -1.204389E+03 -3.180026E+03
       143   8 -3.265881E+06 -6.858513E+05 -1.281258E+05 -1.384936E+06  5.493201E+04  7.010375E+03
       143   9 -3.469999E+06 -9.095072E+05 -2.688569E+05 -1.473329E+06  1.049970E+05  3.340203E+04
       143  10 -2.898257E+06 -5.511713E+05 -1.464276E+04 -1.310188E+06  2.201034E-08  5.013827E-09
       143  11 -2.712673E+06 -4.330963E+05  1.088874E+04 -1.184063E+06  1.309763E-08  3.075469E-09
       143  12 -2.509235E+06 -4.316689E+05  1.013874E+04 -1.091839E+06 -1.255113E-08 -8.510780E-09
       143  13 -2.975441E+06 -5.693588E+05 -3.147282E+04 -1.320319E+06  7.914077E-09  1.292714E-09
       143  14 -2.989320E+06 -5.594840E+05 -5.861909E+04 -1.284523E+06  1.346061E-08  5.806803E-09
       143  15 -2.989748E+06 -6.706293E+05 -1.293619E+05 -1.282664E+06  6.827316E-09  1.927059E-09
       143  16 -3.052620E+06 -5.875465E+05 -4.830324E+04 -1.330450E+06 -9.397519E-09 -7.177894E-09
       143  17 -3.265885E+06 -6.858522E+05 -1.281316E+05 -1.384937E+06  1.170203E-08  5.121762E-09
       143  18 -3.470012E+06 -9.095114E+05 -2.688799E+05 -1.473332E+06  2.083601E-08  6.423988E-09
       143  19 -2.898255E+06 -5.511705E+05 -1.463840E+04 -1.310188E+06 -4.586001E+04 -1.435357E+04
       143  20 -2.712669E+06 -4.330953E+05  1.089533E+04 -1.184063E+06 -5.848078E+04 -8.339157E+03
       143  21 -2.509230E+06 -4.316674E+05  1.014738E+04 -1.091838E+06 -6.505752E+04 -1.853647E+04
       143  22 -2.975441E+06 -5.693586E+05 -3.147182E+04 -1.320319E+06 -2.232626E+04 -5.586697E+03
       143  23 -2.989316E+06 -5.594831E+05 -5.861291E+04 -1.284523E+06 -5.670596E+04 -7.674515E+03
       143  24 -2.989740E+06 -6.706266E+05 -1.293470E+05 -1.282663E+06 -8.503607E+04 -2.597494E+04
       143  25 -3.052620E+06 -5.875465E+05 -4.830322E+04 -1.330450E+06  1.204389E+03  3.180026E+03
       143  26 -3.265881E+06 -6.858513E+05 -1.281258E+05 -1.384936E+06 -5.493201E+04 -7.010375E+03
       143  27 -3.469999E+06 -9.095072E+05 -2.688569E+05 -1.473329E+06 -1.049970E+05 -3.340203E+04
       144   1  2.202283E+05  4.614511E+04  6.247858E+04  1.055832E+04  4.955629E+04  3.253680E+02
       144   2  2.133778E+05 -2.059630E+04  2.206447E+04  3.431801E+03  3.267859E+04  9.137133E+02
       144   3  2.277782E+05 -1.113944E+04  1.168785E+04 -7.897492E+03  1.580055E+04  7.397824E+02
       144   4  2.626458E+05  5.672705E+04  7.300966E+04 -2.075259E+03  4.988569E+04  3.244131E+02
       144   5  2.520022E+05 -1.098355E+04  3.151888E+04  3.085375E+01  3.275058E+04  9.135401E+02
       144   6  2.626527E+05 -2.454098E+03  2.024280E+04 -2.065745E+03  1.561523E+04  7.399100E+02
       144   7  3.050653E+05  6.730945E+04  8.354069E+04 -1.470970E+04  5.021511E+04  3.234449E+02
       144   8  2.906281E+05 -1.370860E+03  4.097320E+04 -3.370306E+03  3.282256E+04  9.133662E+02
       144   9  2.975284E+05  6.231283E+03  2.879768E+04  3.766329E+03  1.542990E+04  7.400341E+02
       144  10  2.202257E+05  4.614445E+04  6.247397E+04  1.055831E+04  2.553573E-10  3.606493E-10
       144  11  2.133766E+05 -2.059659E+04  2.206246E+04  3.431777E+03 -3.640853E-10  1.050003E-09
       144  12  2.277780E+05 -1.113951E+04  1.168738E+04 -7.897501E+03  7.684981E-10 -7.327462E-10
       144  13  2.626431E+05  5.672638E+04  7.300498E+04 -2.075272E+03  1.744979E-10  4.022627E-10
       144  14  2.520011E+05 -1.098384E+04  3.151687E+04  3.082965E+01  3.353457E-09  6.089536E-10
       144  15  2.626524E+05 -2.454164E+03  2.024234E+04 -2.065755E+03 -6.324485E-10 -2.979680E-10
       144  16  3.050626E+05  6.730877E+04  8.353595E+04 -1.470971E+04  8.575589E-10  1.532197E-10
       144  17  2.906269E+05 -1.371150E+03  4.097117E+04 -3.370330E+03 -1.061669E-09  2.025380E-10
       144  18  2.975281E+05  6.231218E+03  2.879723E+04  3.766320E+03 -1.827644E-09  4.698066E-10
       144  19  2.202283E+05  4.614511E+04  6.247858E+04  1.055832E+04 -4.955629E+04 -3.253680E+02
       144  20  2.133778E+05 -2.059630E+04  2.206447E+04  3.431801E+03 -3.267859E+04 -9.137133E+02
       144  21  2.277782E+05 -1.113944E+04  1.168785E+04 -7.897492E+03 -1.580055E+04 -7.397824E+02
       144  22  2.626458E+05  5.672705E+04  7.300966E+04 -2.075259E+03 -4.988569E+04 -3.244131E+02
       144  23  2.520022E+05 -1.098355E+04  3.151888E+04  3.085375E+01 -3.275058E+04 -9.135401E+02
       144  24  2.626527E+05 -2.454098E+03  2.024280E+04 -2.065745E+03 -1.561523E+04 -7.399100E+02
       144  25  3.050653E+05  6.730945E+04  8.354069E+04 -1.470970E+04 -5.021511E+04 -3.234449E+02
       144  26  2.906281E+05 -1.370860E+03  4.097320E+04 -3.370306E+03 -3.282256E+04 -9.133662E+02
       144  27  2.975284E+05  6.231283E+03  2.879768E+04  3.766329E+03 -1.542990E+04 -7.400341E+02
       145   1  2.322910E+05  8.283126E+02  1.019809E+04 -5.203770E+02  1.236116E+04  5.468765E+02
       145   2  2.344759E+05 -7.068058E+03  2.650623E+03  3.888471E+02  8.139269E+03  4.942737E+02
       145   3  2.396981E+05 -5.020659E+03  3.374817E+02 -2.840579E+03  3.917362E+03  3.578796E+02
       145   4  2.585950E+05  7.378314E+03  1.665280E+04 -2.054818E+03  1.235803E+04  5.468442E+02
       145   5  2.570746E+05 -1.441568E+03  8.190729E+03  1.479965E+01  8.107805E+03  4.942657E+02
       145   6  2.585963E+05 -3.129778E+02  4.982487E+03 -2.054216E+03  3.857591E+03  3.578814E+02
       145   7  2.848996E+05  1.392827E+04  2.310746E+04 -3.589325E+03  1.235490E+04  5.468119E+02
       145   8  2.796738E+05  4.184884E+03  1.373080E+04 -3.592615E+02  8.076340E+03  4.942576E+02
       145   9  2.774948E+05  4.394679E+03  9.627466E+03 -1.267829E+03  3.797819E+03  3.578831E+02
       145  10  2.322908E+05  8.282713E+02  1.019780E+04 -5.203824E+02 -1.422857E-09 -8.625619E-10
       145  11  2.344758E+05 -7.068076E+03  2.650498E+03  3.888439E+02 -1.638415E-09  7.290055E-10
       145  12  2.396981E+05 -5.020663E+03  3.374526E+02 -2.840580E+03 -3.052396E-10  3.700088E-10
       145  13  2.585948E+05  7.378272E+03  1.665251E+04 -2.054824E+03  1.239587E-10 -1.534964E-10
       145  14  2.570746E+05 -1.441586E+03  8.190605E+03  1.479643E+01  1.562500E-10  3.955835E-10
       145  15  2.585963E+05 -3.129820E+02  4.982459E+03 -2.054217E+03 -4.664916E-09  2.976788E-10
       145  16  2.848995E+05  1.392823E+04  2.310717E+04 -3.589330E+03 -8.095641E-10  2.713924E-10
       145  17  2.796737E+05  4.184867E+03  1.373067E+04 -3.592647E+02 -1.472250E-09 -3.196960E-11
       145  18  2.774948E+05  4.394675E+03  9.627439E+03 -1.267831E+03 -3.467700E-09  3.193467E-10
       145  19  2.322910E+05  8.283126E+02  1.019809E+04 -5.203770E+02 -1.236116E+04 -5.468765E+02
       145  20  2.344759E+05 -7.068058E+03  2.650623E+03  3.888471E+02 -8.139269E+03 -4.942737E+02
       145  21  2.396981E+05 -5.020659E+03  3.374817E+02 -2.840579E+03 -3.917362E+03 -3.578796E+02
       145  22  2.585950E+05  7.378314E+03  1.665280E+04 -2.054818E+03 -1.235803E+04 -5.468442E+02
       145  23  2.570746E+05 -1.441568E+03  8.190729E+03  1.479965E+01 -8.107805E+03 -4.942657E+02
       145  24  2.585963E+05 -3.129778E+02  4.982487E+03 -2.054216E+03 -3.857591E+03 -3.578814E+02
       145  25  2.848996E+05  1.392827E+04  2.310746E+04 -3.589325E+03 -1.235490E+04 -5.468119E+02
       145  26  2.796738E+05  4.184884E+03  1.373080E+04 -3.592615E+02 -8.076340E+03 -4.942576E+02
       145  27  2.774948E+05  4.394679E+03  9.627466E+03 -1.267829E+03 -3.797819E+03 -3.578831E+02
       146   1  2.475976E+05 -1.642537E+03  1.400577E+03 -1.876647E+03  3.099103E+03  2.685125E+02
       146   2  2.510411E+05 -1.870122E+03  4.374442E+02  3.767823E+01  2.041925E+03  1.458810E+02
       146   3  2.549454E+05 -8.068025E+02  4.851660E+02 -2.155610E+03  9.847562E+02  1.414819E+01
       146   4  2.580226E+05  9.512418E+02  3.947393E+03 -2.047526E+03  3.059457E+03  2.685100E+02
       146   5  2.577921E+05 -1.892290E+02  2.092818E+03  6.295896E+00  1.999204E+03  1.458796E+02
       146   6  2.580229E+05 -3.825867E+01  1.251232E+03 -2.047494E+03  9.389651E+02  1.414740E+01
       146   7  2.684478E+05  3.545013E+03  6.494200E+03 -2.218409E+03  3.019811E+03  2.685076E+02
       146   8  2.645432E+05  1.491660E+03  3.748188E+03 -2.508678E+01  1.956482E+03  1.458782E+02
       146   9  2.611004E+05  7.302845E+02  2.017298E+03 -1.939377E+03  8.931737E+02  1.414659E+01
       146  10  2.475976E+05 -1.642540E+03  1.400559E+03 -1.876647E+03 -8.475811E-10 -1.956008E-10
       146  11  2.510411E+05 -1.870123E+03  4.374363E+02  3.767799E+01 -6.720879E-10 -3.885652E-10
       146  12  2.549454E+05 -8.068027E+02  4.851642E+02 -2.155610E+03  3.264748E-10  4.048791E-11
       146  13  2.580226E+05  9.512392E+02  3.947375E+03 -2.047527E+03 -6.649988E-11 -3.545502E-11
       146  14  2.577921E+05 -1.892301E+02  2.092810E+03  6.295661E+00  8.483659E-12 -4.580682E-10
       146  15  2.580229E+05 -3.825891E+01  1.251231E+03 -2.047494E+03  1.420780E-09 -2.092006E-10
       146  16  2.684478E+05  3.545011E+03  6.494183E+03 -2.218409E+03 -1.983473E-09  1.277986E-10
       146  17  2.645432E+05  1.491659E+03  3.748181E+03 -2.508701E+01 -2.867283E-09 -6.742616E-10
       146  18  2.611004E+05  7.302843E+02  2.017297E+03 -1.939377E+03 -1.324697E-10 -3.356638E-10
       146  19  2.475976E+05 -1.642537E+03  1.400577E+03 -1.876647E+03 -3.099103E+03 -2.685125E+02
       146  20  2.510411E+05 -1.870122E+03  4.374442E+02  3.767823E+01 -2.041925E+03 -1.458810E+02
       146  21  2.549454E+05 -8.068025E+02  4.851660E+02 -2.155610E+03 -9.847562E+02 -1.414819E+01
       146  22  2.580226E+05  9.512418E+02  3.947393E+03 -2.047526E+03 -3.059457E+03 -2.685100E+02
       146  23  2.577921E+05 -1.892290E+02  2.092818E+03  6.295896E+00 -1.999204E+03 -1.458796E+02
       146  24  2.580229E+05 -3.825867E+01  1.251232E+03 -2.047494E+03 -9.389651E+02 -1.414740E+01
       146  25  2.684478E+05  3.545013E+03  6.494200E+03 -2.218409E+03 -3.019811E+03 -2.685076E+02
       146  26  2.645432E+05  1.491660E+03  3.748188E+03 -2.508678E+01 -1.956482E+03 -1.458782E+02
       146  27  2.611004E+05  7.302845E+02  2.017298E+03 -1.939377E+03 -8.931737E+02 -1.414659E+01
       147   1  2.633045E+05  1.458700E+03  2.308852E+03 -2.032280E+03  7.816032E+02 -6.357382E+01
       147   2  2.669399E+05  2.225372E+03  2.790043E+03  7.355003E+00  4.956387E+02 -1.938784E+02
       147   3  2.706565E+05  3.165124E+03  3.500743E+03 -2.063166E+03  2.096719E+02 -3.254262E+02
       147   4  2.579384E+05  1.203431E+02  9.816248E+02 -2.048072E+03  7.380124E+02 -6.357482E+01
       147   5  2.578979E+05 -2.600630E+01  5.725970E+02  7.008850E+00  4.516316E+02 -1.938799E+02
       147   6  2.579384E+05  7.843002E-01  3.933544E+02 -2.048069E+03  1.652501E+02 -3.254283E+02
       147   7  2.525723E+05 -1.218016E+03 -3.456047E+02 -2.063864E+03  6.944219E+02 -6.357581E+01
       147   8  2.488559E+05 -2.277391E+03 -1.644855E+03  6.662702E+00  4.076251E+02 -1.938815E+02
       147   9  2.452205E+05 -3.163567E+03 -2.714046E+03 -2.032973E+03  1.208292E+02 -3.254305E+02
       147  10  2.633045E+05  1.458700E+03  2.308851E+03 -2.032280E+03 -1.258475E-09  2.396733E-10
       147  11  2.669399E+05  2.225372E+03  2.790043E+03  7.355081E+00  4.672117E-10  3.199964E-10
       147  12  2.706565E+05  3.165123E+03  3.500743E+03 -2.063166E+03 -1.109277E-09  5.371633E-10
       147  13  2.579384E+05  1.203430E+02  9.816237E+02 -2.048072E+03 -2.135980E-09  2.639575E-10
       147  14  2.578979E+05 -2.600640E+01  5.725965E+02  7.008921E+00 -3.740703E-11  4.175166E-10
       147  15  2.579384E+05  7.841791E-01  3.933541E+02 -2.048069E+03  9.196626E-10  2.384044E-10
       147  16  2.525723E+05 -1.218016E+03 -3.456056E+02 -2.063864E+03 -1.932240E-09  2.715196E-10
       147  17  2.488559E+05 -2.277391E+03 -1.644856E+03  6.662766E+00 -5.954165E-09  5.334222E-10
       147  18  2.452205E+05 -3.163567E+03 -2.714047E+03 -2.032973E+03  4.279262E-10 -1.083833E-10
       147  19  2.633045E+05  1.458700E+03  2.308852E+03 -2.032280E+03 -7.816032E+02  6.357382E+01
       147  20  2.669399E+05  2.225372E+03  2.790043E+03  7.355003E+00 -4.956387E+02  1.938784E+02
       147  21  2.706565E+05  3.165124E+03  3.500743E+03 -2.063166E+03 -2.096719E+02  3.254262E+02
       147  22  2.579384E+05  1.203431E+02  9.816248E+02 -2.048072E+03 -7.380124E+02  6.357482E+01
       147  23  2.578979E+05 -2.600630E+01  5.725970E+02  7.008850E+00 -4.516316E+02  1.938799E+02
       147  24  2.579384E+05  7.843002E-01  3.933544E+02 -2.048069E+03 -1.652501E+02  3.254283E+02
       147  25  2.525723E+05 -1.218016E+03 -3.456047E+02 -2.063864E+03 -6.944219E+02  6.357581E+01
       147  26  2.488559E+05 -2.277391E+03 -1.644855E+03  6.662702E+00 -4.076251E+02  1.938815E+02
       147  27  2.452205E+05 -3.163567E+03 -2.714046E+03 -2.032973E+03 -1.208292E+02  3.254305E+02
       148   1  2.791320E+05  5.294143E+03  5.560285E+03 -2.049576E+03  1.426666E+02 -4.024945E+02
       148   2  2.828184E+05  6.189542E+03  6.438818E+03  1.755045E+01 -2.229866E+01 -5.345901E+02
       148   3  2.865493E+05  7.168268E+03  7.446015E+03 -2.062183E+03 -1.872555E+02 -6.660502E+02
       148   4  2.579302E+05  1.288370E+01  3.494646E+02 -2.056228E+03  9.816096E+01 -4.024975E+02
       148   5  2.579079E+05 -1.280501E+01  3.300250E+02  1.720593E+01 -6.658539E+01 -5.345946E+02
       148   6  2.579302E+05  4.479906E+01  4.391020E+02 -2.056231E+03 -2.313223E+02 -6.660562E+02
       148   7  2.367288E+05 -5.268409E+03 -4.861389E+03 -2.062879E+03  5.365686E+01 -4.025004E+02
       148   8  2.329981E+05 -6.215198E+03 -5.778813E+03  1.686142E+01 -1.108704E+02 -5.345991E+02
       148   9  2.293118E+05 -7.078730E+03 -6.567871E+03 -2.050279E+03 -2.753872E+02 -6.660622E+02
       148  10  2.791320E+05  5.294143E+03  5.560285E+03 -2.049576E+03 -6.222796E-10  2.383779E-10
       148  11  2.828184E+05  6.189541E+03  6.438817E+03  1.755044E+01 -3.122302E-09 -2.863808E-10
       148  12  2.865493E+05  7.168267E+03  7.446014E+03 -2.062183E+03  3.145288E-10 -1.438106E-10
       148  13  2.579302E+05  1.288352E+01  3.494643E+02 -2.056228E+03  1.970637E-10  1.505790E-10
       148  14  2.579079E+05 -1.280532E+01  3.300244E+02  1.720590E+01 -3.029296E-09  7.900255E-12
       148  15  2.579302E+05  4.479857E+01  4.391011E+02 -2.056231E+03 -2.642849E-09 -4.767572E-10
       148  16  2.367288E+05 -5.268409E+03 -4.861389E+03 -2.062879E+03 -1.514561E-09 -1.997225E-10
       148  17  2.329981E+05 -6.215198E+03 -5.778814E+03  1.686137E+01  1.000886E-09  5.737302E-11
       148  18  2.293118E+05 -7.078731E+03 -6.567872E+03 -2.050279E+03 -8.588646E-10 -9.454587E-10
       148  19  2.791320E+05  5.294143E+03  5.560285E+03 -2.049576E+03 -1.426666E+02  4.024945E+02
       148  20  2.828184E+05  6.189542E+03  6.438818E+03  1.755045E+01  2.229866E+01  5.345901E+02
       148  21  2.865493E+05  7.168268E+03  7.446015E+03 -2.062183E+03  1.872555E+02  6.660502E+02
       148  22  2.579302E+05  1.288370E+01  3.494646E+02 -2.056228E+03 -9.816096E+01  4.024975E+02
       148  23  2.579079E+05 -1.280501E+01  3.300250E+02  1.720593E+01  6.658539E+01  5.345946E+02
       148  24  2.579302E+05  4.479906E+01  4.391020E+02 -2.056231E+03  2.313223E+02  6.660562E+02
       148  25  2.367288E+05 -5.268409E+03 -4.861389E+03 -2.062879E+03 -5.365686E+01  4.025004E+02
       148  26  2.329981E+05 -6.215198E+03 -5.778813E+03  1.686142E+01  1.108704E+02  5.345991E+02
       148  27  2.293118E+05 -7.078730E+03 -6.567871E+03 -2.050279E+03  2.753872E+02  6.660622E+02
       149   1  2.951749E+05  9.254396E+03  9.664203E+03 -2.028281E+03 -2.705139E+02 -7.462239E+02
       149   2  2.988545E+05  1.013171E+04  1.087669E+04  2.921681E+01 -6.938652E+02 -8.811168E+02
       149   3  3.027187E+05  1.150380E+04  1.248956E+04 -2.131490E+03 -1.117200E+03 -1.001127E+03
       149   4  2.579610E+05 -1.357372E+01  5.268288E+02 -2.072064E+03 -3.183262E+02 -7.462319E+02
       149   5  2.578691E+05 -7.292837E+01  8.262328E+02  3.701394E+01 -7.366503E+02 -8.811269E+02
       149   6  2.579609E+05  3.616607E+02  1.522571E+03 -2.072130E+03 -1.154955E+03 -1.001138E+03
       149   7  2.207483E+05 -9.281646E+03 -8.610647E+03 -2.115845E+03 -3.661357E+02 -7.462399E+02
       149   8  2.168851E+05 -1.027769E+04 -9.224346E+03  4.481050E+01 -7.794326E+02 -8.811369E+02
       149   9  2.132049E+05 -1.078062E+04 -9.444568E+03 -2.012774E+03 -1.192708E+03 -1.001150E+03
       149  10  2.951749E+05  9.254395E+03  9.664202E+03 -2.028281E+03  1.221114E-09  7.067731E-10
       149  11  2.988545E+05  1.013170E+04  1.087669E+04  2.921632E+01 -2.809543E-09  5.855011E-10
       149  12  3.027187E+05  1.150380E+04  1.248956E+04 -2.131491E+03 -2.398248E-09 -1.149975E-09
       149  13  2.579610E+05 -1.357435E+01  5.268275E+02 -2.072064E+03  6.941880E-11  1.049607E-10
       149  14  2.578691E+05 -7.292935E+01  8.262303E+02  3.701342E+01 -5.284160E-11  8.204895E-10
       149  15  2.579609E+05  3.616593E+02  1.522566E+03 -2.072131E+03 -1.376491E-09 -9.231998E-10
       149  16  2.207483E+05 -9.281646E+03 -8.610648E+03 -2.115845E+03 -1.263854E-09 -6.055601E-10
       149  17  2.168851E+05 -1.027769E+04 -9.224348E+03  4.480995E+01 -7.584095E-10  7.922530E-10
       149  18  2.132049E+05 -1.078063E+04 -9.444572E+03 -2.012775E+03  2.511070E-09 -3.961212E-10
       149  19  2.951749E+05  9.254396E+03  9.664203E+03 -2.028281E+03  2.705139E+02  7.462239E+02
       149  20  2.988545E+05  1.013171E+04  1.087669E+04  2.921681E+01  6.938652E+02  8.811168E+02
       149  21  3.027187E+05  1.150380E+04  1.248956E+04 -2.131490E+03  1.117200E+03  1.001127E+03
       149  22  2.579610E+05 -1.357372E+01  5.268288E+02 -2.072064E+03  3.183262E+02  7.462319E+02
       149  23  2.578691E+05 -7.292837E+01  8.262328E+02  3.701394E+01  7.366503E+02  8.811269E+02
       149  24  2.579609E+05  3.616607E+02  1.522571E+03 -2.072130E+03  1.154955E+03  1.001138E+03
       149  25  2.207483E+05 -9.281646E+03 -8.610647E+03 -2.115845E+03  3.661357E+02  7.462399E+02
       149  26  2.168851E+05 -1.027769E+04 -9.224346E+03  4.481050E+01  7.794326E+02  8.811369E+02
       149  27  2.132049E+05 -1.078062E+04 -9.444568E+03 -2.012774E+03  1.192708E+03  1.001150E+03
       150   1  3.117140E+05  1.321085E+04  1.505200E+04 -1.786737E+03 -1.388847E+03 -1.103142E+03
       150   2  3.149931E+05  1.373955E+04  1.720454E+04 -6.648660E+01 -3.064011E+03 -1.248017E+03
       150   3  3.194522E+05  1.807230E+04  2.140055E+04 -2.667386E+03 -4.739235E+03 -1.244895E+03
       150   4  2.581802E+05 -1.202646E+02  1.914023E+03 -2.094687E+03 -1.462207E+03 -1.103163E+03
       150   5  2.575942E+05 -5.509158E+02  3.132281E+03  6.545377E+01 -3.087493E+03 -1.248031E+03
       150   6  2.581797E+05  2.814001E+03  6.359514E+03 -2.095570E+03 -4.712827E+03 -1.244900E+03
       150   7  2.046489E+05 -1.345159E+04 -1.122416E+04 -2.402612E+03 -1.535561E+03 -1.103183E+03
       150   8  2.001983E+05 -1.484163E+04 -1.094021E+04  1.973817E+02 -3.110972E+03 -1.248046E+03
       150   9  1.969106E+05 -1.244458E+04 -8.681801E+03 -1.523811E+03 -4.686422E+03 -1.244904E+03
       150  10  3.117140E+05  1.321084E+04  1.505199E+04 -1.786738E+03  1.702175E-09 -1.449045E-09
       150  11  3.149931E+05  1.373955E+04  1.720451E+04 -6.648968E+01 -1.693184E-09  9.137181E-11
       150  12  3.194521E+05  1.807229E+04  2.140051E+04 -2.667391E+03  2.965717E-10  3.112535E-10
       150  13  2.581802E+05 -1.202665E+02  1.914017E+03 -2.094689E+03  1.099902E-10 -1.090217E-09
       150  14  2.575942E+05 -5.509200E+02  3.132261E+03  6.545066E+01 -4.237239E-09  2.223494E-10
       150  15  2.581797E+05  2.813994E+03  6.359469E+03 -2.095575E+03 -1.812796E-09 -1.272019E-10
       150  16  2.046489E+05 -1.345159E+04 -1.122417E+04 -2.402613E+03 -1.656714E-09 -5.949886E-10
       150  17  2.001983E+05 -1.484163E+04 -1.094024E+04  1.973786E+02 -2.989658E-10  1.129101E-09
       150  18  1.969106E+05 -1.244458E+04 -8.681846E+03 -1.523816E+03 -7.565685E-10 -3.088864E-10
       150  19  3.117140E+05  1.321085E+04  1.505200E+04 -1.786737E+03  1.388847E+03  1.103142E+03
       150  20  3.149931E+05  1.373955E+04  1.720454E+04 -6.648660E+01  3.064011E+03  1.248017E+03
       150  21  3.194522E+05  1.807230E+04  2.140055E+04 -2.667386E+03  4.739235E+03  1.244895E+03
       150  22  2.581802E+05 -1.202646E+02  1.914023E+03 -2.094687E+03  1.462207E+03  1.103163E+03
       150  23  2.575942E+05 -5.509158E+02  3.132281E+03  6.545377E+01  3.087493E+03  1.248031E+03
       150  24  2.581797E+05  2.814001E+03  6.359514E+03 -2.095570E+03  4.712827E+03  1.244900E+03
       150  25  2.046489E+05 -1.345159E+04 -1.122416E+04 -2.402612E+03  1.535561E+03  1.103183E+03
       150  26  2.001983E+05 -1.484163E+04 -1.094021E+04  1.973817E+02  3.110972E+03  1.248046E+03
       150  27  1.969106E+05 -1.244458E+04 -8.681801E+03 -1.523811E+03  4.686422E+03  1.244904E+03
       151   1  3.300288E+05  1.656579E+04  2.496376E+04  1.221169E+02 -5.659640E+03 -1.531196E+03
       151   2  3.299282E+05  1.429134E+04  3.021081E+04 -1.176441E+03 -1.265555E+04 -1.741481E+03
       151   3  3.380491E+05  4.119112E+04  4.730808E+04 -6.927443E+03 -1.965211E+04 -5.977653E+02
       151   4  2.597293E+05 -9.383311E+02  7.728868E+03 -2.120853E+03 -5.956590E+03 -1.531289E+03
       151   5  2.556562E+05 -4.193301E+03  1.202907E+04  1.001041E+02 -1.249670E+04 -1.741455E+03
       151   6  2.597265E+05  2.164867E+04  2.786406E+04 -2.131372E+03 -1.903742E+04 -5.976280E+02
       151   7  1.894343E+05 -1.844280E+04 -9.506381E+03 -4.363568E+03 -6.253506E+03 -1.531380E+03
       151   8  1.813893E+05 -2.267834E+04 -6.153072E+03  1.376496E+03 -1.233787E+04 -1.741428E+03
       151   9  1.814095E+05  2.105860E+03  8.419599E+03  2.664093E+03 -1.842280E+04 -5.974811E+02
       151  10  3.300288E+05  1.656578E+04  2.496369E+04  1.221099E+02  3.886761E-10 -4.034097E-10
       151  11  3.299281E+05  1.429129E+04  3.021050E+04 -1.176459E+03 -1.350807E-09 -1.424106E-09
       151  12  3.380487E+05  4.119101E+04  4.730735E+04 -6.927453E+03 -5.277522E-11 -4.471992E-10
       151  13  2.597293E+05 -9.383431E+02  7.728797E+03 -2.120860E+03  2.067993E-09 -1.857792E-09
       151  14  2.556561E+05 -4.193346E+03  1.202877E+04  1.000866E+02 -1.766462E-09  9.393325E-10
       151  15  2.597261E+05  2.164858E+04  2.786338E+04 -2.131381E+03 -3.439856E-09  2.894752E-11
       151  16  1.894342E+05 -1.844282E+04 -9.506458E+03 -4.363576E+03 -4.047469E-10 -7.665032E-10
       151  17  1.813891E+05 -2.267839E+04 -6.153363E+03  1.376479E+03 -3.417494E-10  1.139178E-09
       151  18  1.814091E+05  2.105769E+03  8.418960E+03  2.664084E+03 -2.128139E-09 -2.206835E-10
       151  19  3.300288E+05  1.656579E+04  2.496376E+04  1.221169E+02  5.659640E+03  1.531196E+03
       151  20  3.299282E+05  1.429134E+04  3.021081E+04 -1.176441E+03  1.265555E+04  1.741481E+03
       151  21  3.380491E+05  4.119112E+04  4.730808E+04 -6.927443E+03  1.965211E+04  5.977653E+02
       151  22  2.597293E+05 -9.383311E+02  7.728868E+03 -2.120853E+03  5.956590E+03  1.531289E+03
       151  23  2.556562E+05 -4.193301E+03  1.202907E+04  1.001041E+02  1.249670E+04  1.741455E+03
       151  24  2.597265E+05  2.164867E+04  2.786406E+04 -2.131372E+03  1.903742E+04  5.976280E+02
       151  25  1.894343E+05 -1.844280E+04 -9.506381E+03 -4.363568E+03  6.253506E+03  1.531380E+03
       151  26  1.813893E+05 -2.267834E+04 -6.153072E+03  1.376496E+03  1.233787E+04  1.741428E+03
       151  27  1.814095E+05  2.105860E+03  8.419599E+03  2.664093E+03  1.842280E+04  5.974811E+02
       152   1  2.424403E+06  9.825578E+06  2.435544E+06 -1.078826E+06  6.824475E+04  1.051694E+05
       152   2  1.873493E+06  7.888896E+06  1.904118E+06 -6.475532E+04  1.835295E+05  2.079191E+04
       152   3  1.492593E+06  6.106279E+06  1.488952E+06 -1.108702E+06  1.123343E+05 -6.528701E+04
       152   4  5.617721E+04  2.841247E+05  7.960706E+04 -1.033984E+06  6.862508E+04  3.412293E+04
       152   5 -2.862443E+04  2.144213E+05  3.484599E+04 -3.930390E+03  1.837503E+05  1.354883E+04
       152   6  4.592907E+04  2.841658E+05  6.304437E+04 -1.033541E+06  1.113788E+05 -8.990552E+03
       152   7 -2.318813E+06 -9.175437E+06 -2.283057E+06 -9.896690E+05  6.899912E+04 -3.584891E+04
       152   8 -1.935064E+06 -7.406779E+06 -1.838702E+06  5.628657E+04  1.839714E+05  6.393539E+03
       152   9 -1.403230E+06 -5.507265E+06 -1.365333E+06 -9.589177E+05  1.104321E+05  4.678319E+04
       152  10  2.424395E+06  9.825565E+06  2.435515E+06 -1.078832E+06  1.468123E-09 -6.771388E-09
       152  11  1.873457E+06  7.888886E+06  1.904054E+06 -6.475838E+04 -2.609883E-09 -1.771441E-08
       152  12  1.492578E+06  6.106271E+06  1.488920E+06 -1.108696E+06  8.285608E-11  3.097929E-08
       152  13  5.617184E+04  2.841222E+05  7.959600E+04 -1.033985E+06  3.325122E-09 -4.911654E-11
       152  14 -2.866074E+04  2.144120E+05  3.478218E+04 -3.932395E+03  4.330160E-09 -5.644751E-09
       152  15  4.591573E+04  2.841624E+05  6.302092E+04 -1.033540E+06  7.654689E-12 -2.162462E-09
       152  16 -2.318818E+06 -9.175440E+06 -2.283069E+06 -9.896670E+05 -1.659580E-10  6.688149E-09
       152  17 -1.935100E+06 -7.406789E+06 -1.838766E+06  5.628562E+04  7.255481E-09  3.026478E-08
       152  18 -1.403243E+06 -5.507271E+06 -1.365360E+06 -9.589219E+05  2.470639E-10 -2.303654E-08
       152  19  2.424403E+06  9.825578E+06  2.435544E+06 -1.078826E+06 -6.824475E+04 -1.051694E+05
       152  20  1.873493E+06  7.888896E+06  1.904118E+06 -6.475532E+04 -1.835295E+05 -2.079191E+04
       152  21  1.492593E+06  6.106279E+06  1.488952E+06 -1.108702E+06 -1.123343E+05  6.528701E+04
       152  22  5.617721E+04  2.841247E+05  7.960706E+04 -1.033984E+06 -6.862508E+04 -3.412293E+04
       152  23 -2.862443E+04  2.144213E+05  3.484599E+04 -3.930390E+03 -1.837503E+05 -1.354883E+04
       152  24  4.592907E+04  2.841658E+05  6.304437E+04 -1.033541E+06 -1.113788E+05  8.990552E+03
       152  25 -2.318813E+06 -9.175437E+06 -2.283057E+06 -9.896690E+05 -6.899912E+04  3.584891E+04
       152  26 -1.935064E+06 -7.406779E+06 -1.838702E+06  5.628657E+04 -1.839714E+05 -6.393539E+03
       152  27 -1.403230E+06 -5.507265E+06 -1.365333E+06 -9.589177E+05 -1.104321E+05 -4.678319E+04
       153   1  4.270659E+05  1.832119E+06  4.454622E+05 -1.060043E+06  4.179368E+04 -3.848366E+04
       153   2 -7.379968E+04  2.080565E+04  2.167841E+04  3.064552E+02 -4.049522E+03 -8.216371E+04
       153   3 -4.294229E+05 -1.839452E+06 -3.574792E+05 -9.901181E+05 -4.882536E+04 -1.256606E+05
       153   4  3.338165E+04  2.513987E+05  5.960835E+04 -1.032068E+06  4.148100E+04 -2.259909E+04
       153   5 -9.674144E+03  2.774408E+05  8.463809E+04 -6.189355E+03 -4.343857E+03 -6.667426E+04
       153   6  9.277017E+04  2.514125E+05  1.547150E+05 -1.030946E+06 -4.910618E+04 -1.106923E+05
       153   7 -3.604854E+05 -1.327047E+06 -3.264265E+05 -1.004151E+06  4.116931E+04 -6.754726E+03
       153   8  5.444673E+04  5.341364E+05  1.475938E+05 -1.268758E+04 -4.638456E+03 -5.117841E+04
       153   9  6.146425E+05  2.346268E+06  6.665899E+05 -1.071890E+06 -4.938849E+04 -9.567299E+04
       153  10  4.270636E+05  1.832117E+06  4.454561E+05 -1.060042E+06 -5.373182E-09 -5.492602E-09
       153  11 -7.380151E+04  2.079840E+04  2.166569E+04  3.061872E+02  3.963302E-09 -4.040725E-08
       153  12 -4.294298E+05 -1.839469E+06 -3.575134E+05 -9.901230E+05 -5.165960E-09  3.119702E-08
       153  13  3.337966E+04  2.513977E+05  5.960417E+04 -1.032067E+06 -1.359982E-09  3.045808E-11
       153  14 -9.675357E+03  2.774360E+05  8.462970E+04 -6.189588E+03  8.729291E-09 -1.027552E-08
       153  15  9.276428E+04  2.513987E+05  1.546874E+05 -1.030951E+06  1.906179E-08 -2.250664E-09
       153  16 -3.604873E+05 -1.327047E+06 -3.264298E+05 -1.004151E+06 -9.825269E-10  5.405340E-09
       153  17  5.444601E+04  5.341336E+05  1.475889E+05 -1.268777E+04 -1.599215E-08  6.065205E-08
       153  18  6.146374E+05  2.346257E+06  6.665681E+05 -1.071894E+06  3.568877E-09 -2.183469E-08
       153  19  4.270659E+05  1.832119E+06  4.454622E+05 -1.060043E+06 -4.179368E+04  3.848366E+04
       153  20 -7.379968E+04  2.080565E+04  2.167841E+04  3.064552E+02  4.049522E+03  8.216371E+04
       153  21 -4.294229E+05 -1.839452E+06 -3.574792E+05 -9.901181E+05  4.882536E+04  1.256606E+05
       153  22  3.338165E+04  2.513987E+05  5.960835E+04 -1.032068E+06 -4.148100E+04  2.259909E+04
       153  23 -9.674144E+03  2.774408E+05  8.463809E+04 -6.189355E+03  4.343857E+03  6.667426E+04
       153  24  9.277017E+04  2.514125E+05  1.547150E+05 -1.030946E+06  4.910618E+04  1.106923E+05
       153  25 -3.604854E+05 -1.327047E+06 -3.264265E+05 -1.004151E+06 -4.116931E+04  6.754726E+03
       153  26  5.444673E+04  5.341364E+05  1.475938E+05 -1.268758E+04  4.638456E+03  5.117841E+04
       153  27  6.146425E+05  2.346268E+06  6.665899E+05 -1.071890E+06  4.938849E+04  9.567299E+04
       154   1 -1.557452E+06 -5.975529E+06 -1.356119E+06 -1.002366E+06 -1.190804E+05 -2.011649E+05
       154   2 -2.153983E+06 -7.973611E+06 -1.725193E+06  8.083304E+04 -1.931913E+05 -2.880643E+05
       154   3 -1.992227E+06 -9.643652E+06 -1.822889E+06 -8.997180E+05 -7.181094E+04 -3.729416E+05
       154   4  1.769005E+04  3.262117E+05  1.977012E+05 -1.035029E+06 -1.200026E+05 -1.446279E+05
       154   5 -1.183512E+05  1.588063E+05  2.747991E+05 -3.426630E+03 -1.929170E+05 -2.983246E+05
       154   6  5.114940E+05  3.261680E+05  6.673789E+05 -1.033805E+06 -7.145696E+04 -4.502804E+05
       154   7  1.589871E+06  6.664301E+06  1.748599E+06 -1.067840E+06 -1.209261E+05 -8.750751E+04
       154   8  1.912363E+06  8.351923E+06  2.269920E+06 -8.866270E+04 -1.926425E+05 -3.086997E+05
       154   9  3.007755E+06  1.038706E+07  3.150182E+06 -1.169938E+06 -7.107375E+04 -5.288278E+05
       154  10 -1.557478E+06 -5.975577E+06 -1.356223E+06 -1.002386E+06 -8.222264E-10  1.706959E-09
       154  11 -2.154045E+06 -7.973711E+06 -1.725421E+06  8.078798E+04 -3.625071E-09 -2.372785E-08
       154  12 -1.992271E+06 -9.643804E+06 -1.823164E+06 -8.997398E+05 -1.813544E-09 -3.421633E-09
       154  13  1.766893E+04  3.261853E+05  1.976347E+05 -1.035043E+06 -9.249634E-09 -4.144836E-12
       154  14 -1.184151E+05  1.587008E+05  2.745619E+05 -3.472966E+03 -4.313851E-09 -5.182766E-09
       154  15  5.114340E+05  3.259490E+05  6.669882E+05 -1.033831E+06 -4.607375E-09 -1.095534E-10
       154  16  1.589854E+06  6.664289E+06  1.748557E+06 -1.067848E+06  9.255245E-09 -1.835742E-09
       154  17  1.912298E+06  8.351812E+06  2.269674E+06 -8.871032E+04 -1.016459E-08  3.292607E-08
       154  18  3.007676E+06  1.038676E+07  3.149655E+06 -1.169968E+06 -7.344752E-09  3.938018E-09
       154  19 -1.557452E+06 -5.975529E+06 -1.356119E+06 -1.002366E+06  1.190804E+05  2.011649E+05
       154  20 -2.153983E+06 -7.973611E+06 -1.725193E+06  8.083304E+04  1.931913E+05  2.880643E+05
       154  21 -1.992227E+06 -9.643652E+06 -1.822889E+06 -8.997180E+05  7.181094E+04  3.729416E+05
       154  22  1.769005E+04  3.262117E+05  1.977012E+05 -1.035029E+06  1.200026E+05  1.446279E+05
       154  23 -1.183512E+05  1.588063E+05  2.747991E+05 -3.426630E+03  1.929170E+05  2.983246E+05
       154  24  5.114940E+05  3.261680E+05  6.673789E+05 -1.033805E+06  7.145696E+04  4.502804E+05
       154  25  1.589871E+06  6.664301E+06  1.748599E+06 -1.067840E+06  1.209261E+05  8.750751E+04
       154  26  1.912363E+06  8.351923E+06  2.269920E+06 -8.866270E+04  1.926425E+05  3.086997E+05
       154  27  3.007755E+06  1.038706E+07  3.150182E+06 -1.169938E+06  7.107375E+04  5.288278E+05
       155   1 -3.631399E+05 -1.600468E+05 -7.724377E+04 -1.667205E+05 -4.016400E+04 -1.348534E+04
       155   2 -3.432081E+05 -1.107284E+05 -4.129917E+04 -1.567744E+05 -2.392350E+04 -4.066522E+03
       155   3 -3.303729E+05 -8.606680E+04 -2.406912E+04 -1.455325E+05 -6.610566E+03  2.497063E+03
       155   4 -2.672141E+05 -9.812556E+04 -4.761601E+04 -1.137177E+05 -3.157851E+04 -1.026661E+04
       155   5 -2.616849E+05 -6.832687E+04 -2.257045E+04 -1.211276E+05 -2.098190E+04 -2.963681E+03
       155   6 -2.621328E+05 -6.206570E+04 -1.176537E+04 -1.272428E+05 -9.313358E+03  1.483169E+03
       155   7 -1.712793E+05 -3.619796E+04 -1.798926E+04 -6.070670E+04 -2.299176E+04 -7.046501E+03
       155   8 -1.801549E+05 -2.592268E+04 -3.842204E+03 -8.547603E+04 -1.803991E+04 -1.860540E+03
       155   9 -1.938873E+05 -3.806402E+04  5.383910E+02 -1.089511E+05 -1.201649E+04  4.691561E+02
       155  10 -3.631416E+05 -1.600474E+05 -7.724715E+04 -1.667209E+05 -3.666176E-09 -3.829204E-10
       155  11 -3.432087E+05 -1.107286E+05 -4.130027E+04 -1.567744E+05  1.281022E-10  2.978115E-09
       155  12 -3.303730E+05 -8.606682E+04 -2.406922E+04 -1.455325E+05 -1.486497E-10  2.546545E-09
       155  13 -2.672152E+05 -9.812595E+04 -4.761808E+04 -1.137179E+05  1.908288E-09  1.111478E-09
       155  14 -2.616854E+05 -6.832700E+04 -2.257130E+04 -1.211276E+05  5.825070E-09  2.230574E-09
       155  15 -2.621329E+05 -6.206572E+04 -1.176554E+04 -1.272428E+05  2.784148E-09  5.826457E-10
       155  16 -1.712799E+05 -3.619816E+04 -1.799034E+04 -6.070683E+04  4.645150E-09  2.287508E-09
       155  17 -1.801552E+05 -2.592277E+04 -3.842822E+03 -8.547605E+04  1.576633E-10  1.668557E-09
       155  18 -1.938874E+05 -3.806406E+04  5.381192E+02 -1.089511E+05 -6.355867E-09 -1.339786E-09
       155  19 -3.631399E+05 -1.600468E+05 -7.724377E+04 -1.667205E+05  4.016400E+04  1.348534E+04
       155  20 -3.432081E+05 -1.107284E+05 -4.129917E+04 -1.567744E+05  2.392350E+04  4.066522E+03
       155  21 -3.303729E+05 -8.606680E+04 -2.406912E+04 -1.455325E+05  6.610566E+03 -2.497063E+03
       155  22 -2.672141E+05 -9.812556E+04 -4.761601E+04 -1.137177E+05  3.157851E+04  1.026661E+04
       155  23 -2.616849E+05 -6.832687E+04 -2.257045E+04 -1.211276E+05  2.098190E+04  2.963681E+03
       155  24 -2.621328E+05 -6.206570E+04 -1.176537E+04 -1.272428E+05  9.313358E+03 -1.483169E+03
       155  25 -1.712793E+05 -3.619796E+04 -1.798926E+04 -6.070670E+04  2.299176E+04  7.046501E+03
       155  26 -1.801549E+05 -2.592268E+04 -3.842204E+03 -8.547603E+04  1.803991E+04  1.860540E+03
       155  27 -1.938873E+05 -3.806402E+04  5.383910E+02 -1.089511E+05  1.201649E+04 -4.691561E+02
       156   1 -3.126175E+05 -8.153029E+04 -1.822048E+04 -1.426371E+05 -5.125749E+03  2.051082E+03
       156   2 -2.907377E+05 -6.898478E+04 -9.642300E+03 -1.341698E+05 -1.693356E+03  1.706742E+03
       156   3 -2.664932E+05 -6.129252E+04 -3.627303E+03 -1.292229E+05  1.850460E+03  1.065561E+03
       156   4 -2.607739E+05 -6.158813E+04 -8.769733E+03 -1.269243E+05 -7.660324E+03  1.100310E+03
       156   5 -2.618538E+05 -5.808304E+04 -4.577035E+03 -1.255902E+05 -4.814621E+03  5.359485E+02
       156   6 -2.604531E+05 -5.931491E+04 -2.482392E+03 -1.277766E+05 -1.857576E+03 -3.252932E+02
       156   7 -2.089281E+05 -4.164584E+04  6.807786E+02 -1.112105E+05 -1.019510E+04  1.494527E+02
       156   8 -2.329690E+05 -4.718119E+04  4.882470E+02 -1.170102E+05 -7.936041E+03 -6.349088E+02
       156   9 -2.544129E+05 -5.733727E+04 -1.337405E+03 -1.263303E+05 -5.565692E+03 -1.716174E+03
       156  10 -3.126175E+05 -8.153030E+04 -1.822054E+04 -1.426371E+05 -6.627741E-09 -1.530865E-09
       156  11 -2.907377E+05 -6.898478E+04 -9.642311E+03 -1.341698E+05 -2.599465E-10  4.878356E-10
       156  12 -2.664932E+05 -6.129252E+04 -3.627312E+03 -1.292229E+05  1.546571E-09  1.248337E-09
       156  13 -2.607740E+05 -6.158815E+04 -8.769846E+03 -1.269243E+05 -5.975736E-11  3.612413E-10
       156  14 -2.618538E+05 -5.808305E+04 -4.577079E+03 -1.255902E+05  4.980554E-09  1.636951E-09
       156  15 -2.604531E+05 -5.931491E+04 -2.482399E+03 -1.277766E+05  6.301762E-09  5.639123E-10
       156  16 -2.089282E+05 -4.164587E+04  6.805832E+02 -1.112105E+05 -2.809106E-09  2.304974E-09
       156  17 -2.329691E+05 -4.718121E+04  4.881279E+02 -1.170102E+05 -4.981050E-10  3.204764E-09
       156  18 -2.544129E+05 -5.733728E+04 -1.337469E+03 -1.263303E+05 -1.560871E-09 -1.430355E-11
       156  19 -3.126175E+05 -8.153029E+04 -1.822048E+04 -1.426371E+05  5.125749E+03 -2.051082E+03
       156  20 -2.907377E+05 -6.898478E+04 -9.642300E+03 -1.341698E+05  1.693356E+03 -1.706742E+03
       156  21 -2.664932E+05 -6.129252E+04 -3.627303E+03 -1.292229E+05 -1.850460E+03 -1.065561E+03
       156  22 -2.607739E+05 -6.158813E+04 -8.769733E+03 -1.269243E+05  7.660324E+03 -1.100310E+03
       156  23 -2.618538E+05 -5.808304E+04 -4.577035E+03 -1.255902E+05  4.814621E+03 -5.359485E+02
       156  24 -2.604531E+05 -5.931491E+04 -2.482392E+03 -1.277766E+05  1.857576E+03  3.252932E+02
       156  25 -2.089281E+05 -4.164584E+04  6.807786E+02 -1.112105E+05  1.019510E+04 -1.494527E+02
       156  26 -2.329690E+05 -4.718119E+04  4.882470E+02 -1.170102E+05  7.936041E+03  6.349088E+02
       156  27 -2.544129E+05 -5.733727E+04 -1.337405E+03 -1.263303E+05  5.565692E+03  1.716174E+03
       157   1 -2.514050E+05 -5.606263E+04 -5.179125E+02 -1.251700E+05  2.582692E+03  8.500016E+01
       157   2 -2.295905E+05 -4.592445E+04  4.038332E+03 -1.167231E+05  3.853951E+03 -1.585224E+03
       157   3 -2.045663E+05 -3.921737E+04  8.147095E+03 -1.120791E+05  5.136732E+03 -3.286069E+03
       157   4 -2.603274E+05 -5.929894E+04 -1.858152E+03 -1.277355E+05 -1.107877E+03 -1.299308E+03
       157   5 -2.619317E+05 -5.754187E+04 -1.010029E+03 -1.258519E+05  1.027769E+02 -2.992309E+03
       157   6 -2.603147E+05 -5.920393E+04 -5.613614E+02 -1.277715E+05  1.324927E+03 -4.715938E+03
       157   7 -2.692497E+05 -6.253523E+04 -3.198334E+03 -1.303010E+05 -4.798388E+03 -2.683593E+03
       157   8 -2.942715E+05 -6.915908E+04 -6.058291E+03 -1.349802E+05 -3.648168E+03 -4.399308E+03
       157   9 -3.160591E+05 -7.918989E+04 -9.269622E+03 -1.434623E+05 -2.486471E+03 -6.145653E+03
       157  10 -2.514050E+05 -5.606264E+04 -5.179251E+02 -1.251700E+05 -2.661180E-09 -2.170907E-10
       157  11 -2.295905E+05 -4.592446E+04  4.038299E+03 -1.167231E+05  1.443585E-09 -8.141973E-10
       157  12 -2.045663E+05 -3.921739E+04  8.147025E+03 -1.120791E+05 -1.512283E-09 -1.999242E-09
       157  13 -2.603274E+05 -5.929895E+04 -1.858158E+03 -1.277355E+05 -4.196565E-09 -4.335179E-10
       157  14 -2.619317E+05 -5.754188E+04 -1.010045E+03 -1.258519E+05  4.741458E-09 -8.877192E-10
       157  15 -2.603147E+05 -5.920395E+04 -5.614065E+02 -1.277715E+05 -7.465026E-10 -1.189242E-09
       157  16 -2.692498E+05 -6.253524E+04 -3.198391E+03 -1.303010E+05 -2.375552E-09 -4.945249E-10
       157  17 -2.942715E+05 -6.915911E+04 -6.058352E+03 -1.349802E+05  1.621798E-10 -9.040517E-10
       157  18 -3.160591E+05 -7.918993E+04 -9.269705E+03 -1.434623E+05 -2.112342E-09 -2.956722E-10
       157  19 -2.514050E+05 -5.606263E+04 -5.179125E+02 -1.251700E+05 -2.582692E+03 -8.500016E+01
       157  20 -2.295905E+05 -4.592445E+04  4.038332E+03 -1.167231E+05 -3.853951E+03  1.585224E+03
       157  21 -2.045663E+05 -3.921737E+04  8.147095E+03 -1.120791E+05 -5.136732E+03  3.286069E+03
       157  22 -2.603274E+05 -5.929894E+04 -1.858152E+03 -1.277355E+05  1.107877E+03  1.299308E+03
       157  23 -2.619317E+05 -5.754187E+04 -1.010029E+03 -1.258519E+05 -1.027769E+02  2.992309E+03
       157  24 -2.603147E+05 -5.920393E+04 -5.613614E+02 -1.277715E+05 -1.324927E+03  4.715938E+03
       157  25 -2.692497E+05 -6.253523E+04 -3.198334E+03 -1.303010E+05  4.798388E+03  2.683593E+03
       157  26 -2.942715E+05 -6.915908E+04 -6.058291E+03 -1.349802E+05  3.648168E+03  4.399308E+03
       157  27 -3.160591E+05 -7.918989E+04 -9.269622E+03 -1.434623E+05  2.486471E+03  6.145653E+03
       158   1 -1.897140E+05 -3.391163E+04  1.072968E+04 -1.079389E+05  5.637098E+03 -4.379469E+03
       158   2 -1.679540E+05 -2.389653E+04  1.454395E+04 -9.947763E+04  6.487884E+03 -6.259572E+03
       158   3 -1.428898E+05 -1.720879E+04  1.826262E+04 -9.482344E+04  7.339479E+03 -8.141478E+03
       158   4 -2.602996E+05 -5.920684E+04 -4.255174E+02 -1.277636E+05  1.827406E+03 -5.808603E+03
       158   5 -2.619531E+05 -5.754852E+04 -2.484816E+02 -1.258583E+05  2.674465E+03 -7.690258E+03
       158   6 -2.603028E+05 -5.921720E+04 -1.642960E+02 -1.277605E+05  3.522327E+03 -9.573712E+03
       158   7 -3.308807E+05 -8.450184E+04 -1.158098E+04 -1.475865E+05 -1.981873E+03 -7.237581E+03
       158   8 -3.559433E+05 -9.119980E+04 -1.504116E+04 -1.522353E+05 -1.138366E+03 -9.120722E+03
       158   9 -3.777009E+05 -1.012242E+05 -1.859140E+04 -1.606917E+05 -2.940626E+02 -1.100566E+04
       158  10 -1.897141E+05 -3.391166E+04  1.072958E+04 -1.079389E+05  1.165865E-09 -1.611029E-09
       158  11 -1.679541E+05 -2.389658E+04  1.454379E+04 -9.947760E+04 -9.386807E-09 -1.453158E-09
       158  12 -1.428898E+05 -1.720888E+04  1.826239E+04 -9.482339E+04 -5.646057E-09 -5.248706E-10
       158  13 -2.602996E+05 -5.920687E+04 -4.255870E+02 -1.277636E+05 -1.650135E-09 -1.741361E-09
       158  14 -2.619532E+05 -5.754859E+04 -2.486062E+02 -1.258583E+05 -3.707214E-09 -1.478161E-09
       158  15 -2.603028E+05 -5.921730E+04 -1.644916E+02 -1.277605E+05 -7.331387E-09  2.030262E-09
       158  16 -3.308807E+05 -8.450189E+04 -1.158108E+04 -1.475865E+05 -5.629223E-09 -1.812176E-09
       158  17 -3.559433E+05 -9.119989E+04 -1.504132E+04 -1.522354E+05 -3.930465E-09 -1.241607E-09
       158  18 -3.777010E+05 -1.012243E+05 -1.859163E+04 -1.606917E+05  8.712686E-09  4.535355E-09
       158  19 -1.897140E+05 -3.391163E+04  1.072968E+04 -1.079389E+05 -5.637098E+03  4.379469E+03
       158  20 -1.679540E+05 -2.389653E+04  1.454395E+04 -9.947763E+04 -6.487884E+03  6.259572E+03
       158  21 -1.428898E+05 -1.720879E+04  1.826262E+04 -9.482344E+04 -7.339479E+03  8.141478E+03
       158  22 -2.602996E+05 -5.920684E+04 -4.255174E+02 -1.277636E+05 -1.827406E+03  5.808603E+03
       158  23 -2.619531E+05 -5.754852E+04 -2.484816E+02 -1.258583E+05 -2.674465E+03  7.690258E+03
       158  24 -2.603028E+05 -5.921720E+04 -1.642960E+02 -1.277605E+05 -3.522327E+03  9.573712E+03
       158  25 -3.308807E+05 -8.450184E+04 -1.158098E+04 -1.475865E+05  1.981873E+03  7.237581E+03
       158  26 -3.559433E+05 -9.119980E+04 -1.504116E+04 -1.522353E+05  1.138366E+03  9.120722E+03
       158  27 -3.777009E+05 -1.012242E+05 -1.859140E+04 -1.606917E+05  2.940626E+02  1.100566E+04
       159   1 -1.280714E+05 -1.189320E+04  2.072384E+04 -9.067780E+04  7.786988E+03 -9.255899E+03
       159   2 -1.063355E+05 -1.878723E+03  2.435968E+04 -8.221701E+04  8.562653E+03 -1.116145E+04
       159   3 -8.128474E+04  4.817821E+03  2.795701E+04 -7.755881E+04  9.334756E+03 -1.305694E+04
       159   4 -2.603029E+05 -5.921872E+04 -1.459988E+02 -1.277590E+05  3.970075E+03 -1.068815E+04
       159   5 -2.619595E+05 -5.756133E+04 -1.461399E+02 -1.258566E+05  4.765446E+03 -1.258654E+04
       159   6 -2.603056E+05 -5.922571E+04 -2.003641E+02 -1.277570E+05  5.557258E+03 -1.447489E+04
       159   7 -3.925140E+05 -1.065418E+05 -2.101567E+04 -1.648322E+05  1.540657E+02 -1.212007E+04
       159   8 -4.175573E+05 -1.132414E+05 -2.465233E+04 -1.694860E+05  9.692470E+02 -1.401125E+04
       159   9 -4.392939E+05 -1.232667E+05 -2.835881E+04 -1.779422E+05  1.780870E+03 -1.589241E+04
       159  10 -1.280715E+05 -1.189331E+04  2.072356E+04 -9.067775E+04  7.339954E-09  3.972931E-09
       159  11 -1.063356E+05 -1.878877E+03  2.435931E+04 -8.221693E+04 -3.580095E-09  9.337587E-10
       159  12 -8.128488E+04  4.817614E+03  2.795652E+04 -7.755871E+04 -3.203978E-09 -4.874966E-10
       159  13 -2.603030E+05 -5.921884E+04 -1.462430E+02 -1.277589E+05 -5.136753E-09  2.350369E-09
       159  14 -2.619595E+05 -5.756151E+04 -1.464802E+02 -1.258566E+05 -3.250760E-09 -3.673263E-10
       159  15 -2.603056E+05 -5.922594E+04 -2.008158E+02 -1.277570E+05  5.688144E-10 -4.857622E-10
       159  16 -3.925141E+05 -1.065420E+05 -2.101594E+04 -1.648322E+05 -7.489111E-09  5.793064E-10
       159  17 -4.175574E+05 -1.132416E+05 -2.465270E+04 -1.694860E+05 -4.668511E-09 -8.625832E-10
       159  18 -4.392940E+05 -1.232669E+05 -2.835929E+04 -1.779422E+05  1.796159E-09  2.623122E-11
       159  19 -1.280714E+05 -1.189320E+04  2.072384E+04 -9.067780E+04 -7.786988E+03  9.255899E+03
       159  20 -1.063355E+05 -1.878723E+03  2.435968E+04 -8.221701E+04 -8.562653E+03  1.116145E+04
       159  21 -8.128474E+04  4.817821E+03  2.795701E+04 -7.755881E+04 -9.334756E+03  1.305694E+04
       159  22 -2.603029E+05 -5.921872E+04 -1.459988E+02 -1.277590E+05 -3.970075E+03  1.068815E+04
       159  23 -2.619595E+05 -5.756133E+04 -1.461399E+02 -1.258566E+05 -4.765446E+03  1.258654E+04
       159  24 -2.603056E+05 -5.922571E+04 -2.003641E+02 -1.277570E+05 -5.557258E+03  1.447489E+04
       159  25 -3.925140E+05 -1.065418E+05 -2.101567E+04 -1.648322E+05 -1.540657E+02  1.212007E+04
       159  26 -4.175573E+05 -1.132414E+05 -2.465233E+04 -1.694860E+05 -9.692470E+02  1.401125E+04
       159  27 -4.392939E+05 -1.232667E+05 -2.835881E+04 -1.779422E+05 -1.780870E+03  1.589241E+04
       160   1 -6.647851E+04  1.013387E+04  3.035944E+04 -7.341904E+04  9.795493E+03 -1.415733E+04
       160   2 -4.476804E+04  2.015324E+04  3.389531E+04 -6.496186E+04  1.052312E+04 -1.601234E+04
       160   3 -1.974722E+04  2.685713E+04  3.741067E+04 -6.029487E+04  1.121546E+04 -1.777263E+04
       160   4 -2.603144E+05 -5.922525E+04 -2.507620E+02 -1.277578E+05  6.013474E+03 -1.557714E+04
       160   5 -2.619566E+05 -5.757384E+04 -4.293406E+02 -1.258541E+05  6.928222E+03 -1.736225E+04
       160   6 -2.603259E+05 -5.927516E+04 -7.766609E+02 -1.277410E+05  7.807682E+03 -1.905261E+04
       160   7 -4.541098E+05 -1.285804E+05 -3.086156E+04 -1.820806E+05  2.232705E+03 -1.699649E+04
       160   8 -4.790931E+05 -1.352955E+05 -3.475441E+04 -1.867260E+05  3.334680E+03 -1.871165E+04
       160   9 -5.008395E+05 -1.454004E+05 -3.896423E+04 -1.951618E+05  4.401339E+03 -2.033205E+04
       160  10 -6.647867E+04  1.013362E+04  3.035889E+04 -7.341893E+04  2.480636E-09  4.860784E-10
       160  11 -4.476823E+04  2.015294E+04  3.389462E+04 -6.496173E+04 -2.103107E-09 -2.150563E-09
       160  12 -1.974744E+04  2.685675E+04  3.740984E+04 -6.029471E+04 -3.340059E-09 -1.453344E-09
       160  13 -2.603146E+05 -5.922552E+04 -2.512859E+02 -1.277577E+05  4.240194E-09 -3.251347E-10
       160  14 -2.619568E+05 -5.757417E+04 -4.299972E+02 -1.258540E+05 -6.425122E-09 -9.139417E-10
       160  15 -2.603261E+05 -5.927556E+04 -7.774575E+02 -1.277409E+05 -1.456606E-09 -1.989546E-10
       160  16 -4.541099E+05 -1.285807E+05 -3.086211E+04 -1.820805E+05 -2.362581E-09 -1.065004E-09
       160  17 -4.790932E+05 -1.352959E+05 -3.475509E+04 -1.867259E+05 -2.557171E-09 -5.907864E-10
       160  18 -5.008397E+05 -1.454008E+05 -3.896504E+04 -1.951618E+05  1.833748E-10  1.501550E-09
       160  19 -6.647851E+04  1.013387E+04  3.035944E+04 -7.341904E+04 -9.795493E+03  1.415733E+04
       160  20 -4.476804E+04  2.015324E+04  3.389531E+04 -6.496186E+04 -1.052312E+04  1.601234E+04
       160  21 -1.974722E+04  2.685713E+04  3.741067E+04 -6.029487E+04 -1.121546E+04  1.777263E+04
       160  22 -2.603144E+05 -5.922525E+04 -2.507620E+02 -1.277578E+05 -6.013474E+03  1.557714E+04
       160  23 -2.619566E+05 -5.757384E+04 -4.293406E+02 -1.258541E+05 -6.928222E+03  1.736225E+04
       160  24 -2.603259E+05 -5.927516E+04 -7.766609E+02 -1.277410E+05 -7.807682E+03  1.905261E+04
       160  25 -4.541098E+05 -1.285804E+05 -3.086156E+04 -1.820806E+05 -2.232705E+03  1.699649E+04
       160  26 -4.790931E+05 -1.352955E+05 -3.475441E+04 -1.867260E+05 -3.334680E+03  1.871165E+04
       160  27 -5.008395E+05 -1.454004E+05 -3.896423E+04 -1.951618E+05 -4.401339E+03  2.033205E+04
       161   1 -4.916722E+03  3.216277E+04  3.971976E+04 -5.620418E+04  1.180055E+04 -1.874513E+04
       161   2  1.653735E+04  4.228585E+04  4.335496E+04 -4.750901E+04  1.145808E+04 -2.035358E+04
       161   3  4.127202E+04  4.891249E+04  4.753882E+04 -4.243263E+04  1.077607E+04 -2.105718E+04
       161   4 -2.603873E+05 -5.927363E+04 -1.033519E+03 -1.277451E+05  8.340819E+03 -2.004482E+04
       161   5 -2.619197E+05 -5.782403E+04 -1.901271E+03 -1.257579E+05  9.787377E+03 -2.098200E+04
       161   6 -2.605270E+05 -6.022589E+04 -3.638141E+03 -1.273901E+05  1.089437E+04 -2.101407E+04
       161   7 -5.157907E+05 -1.507045E+05 -4.178886E+04 -1.992593E+05  4.882553E+03 -2.134396E+04
       161   8 -5.402955E+05 -1.579266E+05 -4.715963E+04 -2.039743E+05  8.117458E+03 -2.161012E+04
       161   9 -5.622292E+05 -1.693550E+05 -5.481757E+04 -2.123089E+05  1.101261E+04 -2.097098E+04
       161  10 -4.916965E+03  3.216235E+04  3.971884E+04 -5.620400E+04  3.090903E-09  7.591869E-10
       161  11  1.653710E+04  4.228537E+04  4.335393E+04 -4.750882E+04  8.636320E-10 -1.874199E-09
       161  12  4.127178E+04  4.891198E+04  4.753777E+04 -4.243245E+04 -4.001375E-09 -9.984045E-10
       161  13 -2.603874E+05 -5.927408E+04 -1.034405E+03 -1.277450E+05 -9.396558E-11 -3.395913E-10
       161  14 -2.619199E+05 -5.782453E+04 -1.902279E+03 -1.257577E+05 -3.152312E-09 -1.980704E-09
       161  15 -2.605272E+05 -6.022640E+04 -3.639194E+03 -1.273899E+05 -3.591877E-09 -1.015079E-09
       161  16 -5.157909E+05 -1.507050E+05 -4.178976E+04 -1.992592E+05 -6.377216E-09 -1.314381E-09
       161  17 -5.402957E+05 -1.579271E+05 -4.716064E+04 -2.039741E+05 -6.093864E-09 -1.559868E-09
       161  18 -5.622294E+05 -1.693555E+05 -5.481863E+04 -2.123087E+05  2.393582E-09 -1.060069E-09
       161  19 -4.916722E+03  3.216277E+04  3.971976E+04 -5.620418E+04 -1.180055E+04  1.874513E+04
       161  20  1.653735E+04  4.228585E+04  4.335496E+04 -4.750901E+04 -1.145808E+04  2.035358E+04
       161  21  4.127202E+04  4.891249E+04  4.753882E+04 -4.243263E+04 -1.077607E+04  2.105718E+04
       161  22 -2.603873E+05 -5.927363E+04 -1.033519E+03 -1.277451E+05 -8.340819E+03  2.004482E+04
       161  23 -2.619197E+05 -5.782403E+04 -1.901271E+03 -1.257579E+05 -9.787377E+03  2.098200E+04
       161  24 -2.605270E+05 -6.022589E+04 -3.638141E+03 -1.273901E+05 -1.089437E+04  2.101407E+04
       161  25 -5.157907E+05 -1.507045E+05 -4.178886E+04 -1.992593E+05 -4.882553E+03  2.134396E+04
       161  26 -5.402955E+05 -1.579266E+05 -4.715963E+04 -2.039743E+05 -8.117458E+03  2.161012E+04
       161  27 -5.622292E+05 -1.693550E+05 -5.481757E+04 -2.123089E+05 -1.101261E+04  2.097098E+04
       162   1  5.652637E+04  5.392789E+04  4.998206E+04 -3.890839E+04  1.197552E+04 -2.102918E+04
       162   2  7.397019E+04  6.545629E+04  5.763071E+04 -2.534549E+04 -1.930692E+03 -2.151604E+04
       162   3  9.385309E+04  6.914663E+04  7.300425E+04 -1.295643E+04 -1.910517E+04 -1.330741E+04
       162   4 -2.611785E+05 -6.033933E+04 -4.879677E+03 -1.274223E+05  1.158223E+04 -2.117824E+04
       162   5 -2.617525E+05 -6.218723E+04 -9.361541E+03 -1.240317E+05  1.487428E+04 -1.520553E+04
       162   6 -2.632963E+05 -7.528267E+04 -1.974663E+04 -1.218153E+05  1.489795E+04 -5.345502E+02
       162   7 -5.787756E+05 -1.745965E+05 -5.974417E+04 -2.158937E+05  1.118916E+04 -2.132721E+04
       162   8 -5.973520E+05 -1.898157E+05 -7.635634E+04 -2.226657E+05  3.166924E+04 -8.899128E+03
       162   9 -6.203069E+05 -2.196922E+05 -1.125001E+05 -2.306113E+05  4.887863E+04  1.222840E+04
       162  10  5.652609E+04  5.392738E+04  4.998096E+04 -3.890819E+04 -3.480311E-09  4.105378E-10
       162  11  7.397006E+04  6.545579E+04  5.762984E+04 -2.534552E+04  3.488899E-10  5.396095E-11
       162  12  9.385265E+04  6.914634E+04  7.300323E+04 -1.295664E+04  2.407488E-09  6.712831E-10
       162  13 -2.611787E+05 -6.033985E+04 -4.880772E+03 -1.274221E+05 -2.197815E-09 -9.694733E-10
       162  14 -2.617528E+05 -6.218754E+04 -9.362391E+03 -1.240315E+05  1.249046E-09  2.201021E-09
       162  15 -2.632966E+05 -7.528273E+04 -1.974705E+04 -1.218153E+05  1.443487E-09  7.789267E-10
       162  16 -5.787759E+05 -1.745971E+05 -5.974526E+04 -2.158936E+05 -1.117660E-09 -3.088109E-10
       162  17 -5.973531E+05 -1.898160E+05 -7.635837E+04 -2.226654E+05 -2.207604E-09  1.153175E-09
       162  18 -6.203095E+05 -2.196930E+05 -1.125049E+05 -2.306117E+05 -5.680224E-09 -5.596052E-10
       162  19  5.652637E+04  5.392789E+04  4.998206E+04 -3.890839E+04 -1.197552E+04  2.102918E+04
       162  20  7.397019E+04  6.545629E+04  5.763071E+04 -2.534549E+04  1.930692E+03  2.151604E+04
       162  21  9.385309E+04  6.914663E+04  7.300425E+04 -1.295643E+04  1.910517E+04  1.330741E+04
       162  22 -2.611785E+05 -6.033933E+04 -4.879677E+03 -1.274223E+05 -1.158223E+04  2.117824E+04
       162  23 -2.617525E+05 -6.218723E+04 -9.361541E+03 -1.240317E+05 -1.487428E+04  1.520553E+04
       162  24 -2.632963E+05 -7.528267E+04 -1.974663E+04 -1.218153E+05 -1.489795E+04  5.345502E+02
       162  25 -5.787756E+05 -1.745965E+05 -5.974417E+04 -2.158937E+05 -1.118916E+04  2.132721E+04
       162  26 -5.973520E+05 -1.898157E+05 -7.635634E+04 -2.226657E+05 -3.166924E+04  8.899128E+03
       162  27 -6.203069E+05 -2.196922E+05 -1.125001E+05 -2.306113E+05 -4.887863E+04 -1.222840E+04
       163   1 -2.205457E+05 -4.215327E+04 -6.453106E+04 -1.398963E+04 -6.695730E+04 -1.100267E+03
       163   2 -2.122234E+05  4.863879E+04 -9.910358E+03 -4.803417E+03 -4.438556E+04 -3.187326E+03
       163   3 -2.327816E+05  3.552861E+04  4.047319E+03  1.117922E+04 -2.181601E+04 -2.836477E+03
       163   4 -3.618865E+05 -7.743111E+04 -9.964083E+04  3.195722E+03 -6.806083E+04 -1.102745E+03
       163   5 -3.473657E+05  1.498897E+04 -4.301439E+04 -2.256523E+02 -4.467518E+04 -3.187895E+03
       163   6 -3.618735E+05  3.352702E+03 -2.762300E+04  3.149531E+03 -2.129147E+04 -2.835821E+03
       163   7 -5.032085E+05 -1.127093E+05 -1.347519E+05  2.037715E+04 -6.916411E+04 -1.105285E+03
       163   8 -4.824913E+05 -1.866213E+04 -7.611975E+04  4.351111E+03 -4.496474E+04 -3.188468E+03
       163   9 -4.909501E+05 -2.882420E+04 -5.929451E+04 -4.878484E+03 -2.076705E+04 -2.835179E+03
       163  10 -2.205505E+05 -4.215447E+04 -6.453949E+04 -1.398969E+04  3.461495E-10 -7.115089E-12
       163  11 -2.122256E+05  4.863825E+04 -9.914081E+03 -4.803531E+03  2.179848E-10 -9.046656E-10
       163  12 -2.327821E+05  3.552847E+04  4.046409E+03  1.117917E+04 -2.249027E-10 -1.069149E-09
       163  13 -3.618915E+05 -7.743235E+04 -9.964954E+04  3.195661E+03  1.705650E-10  6.560450E-10
       163  14 -3.473678E+05  1.498842E+04 -4.301816E+04 -2.257670E+02  1.258832E-09  1.057313E-10
       163  15 -3.618740E+05  3.352571E+03 -2.762387E+04  3.149483E+03  2.542257E-09  8.572765E-11
       163  16 -5.032136E+05 -1.127106E+05 -1.347609E+05  2.037709E+04  5.824328E-10  4.885551E-10
       163  17 -4.824934E+05 -1.866268E+04 -7.612357E+04  4.350995E+03 -1.071493E-09 -8.063400E-10
       163  18 -4.909505E+05 -2.882432E+04 -5.929533E+04 -4.878531E+03 -2.429428E-09 -1.643750E-09
       163  19 -2.205457E+05 -4.215327E+04 -6.453106E+04 -1.398963E+04  6.695730E+04  1.100267E+03
       163  20 -2.122234E+05  4.863879E+04 -9.910358E+03 -4.803417E+03  4.438556E+04  3.187326E+03
       163  21 -2.327816E+05  3.552861E+04  4.047319E+03  1.117922E+04  2.181601E+04  2.836477E+03
       163  22 -3.618865E+05 -7.743111E+04 -9.964083E+04  3.195722E+03  6.806083E+04  1.102745E+03
       163  23 -3.473657E+05  1.498897E+04 -4.301439E+04 -2.256523E+02  4.467518E+04  3.187895E+03
       163  24 -3.618735E+05  3.352702E+03 -2.762300E+04  3.149531E+03  2.129147E+04  2.835821E+03
       163  25 -5.032085E+05 -1.127093E+05 -1.347519E+05  2.037715E+04  6.916411E+04  1.105285E+03
       163  26 -4.824913E+05 -1.866213E+04 -7.611975E+04  4.351111E+03  4.496474E+04  3.188468E+03
       163  27 -4.909501E+05 -2.882420E+04 -5.929451E+04 -4.878484E+03  2.076705E+04  2.835179E+03
       164   1 -2.416420E+05  1.850860E+04  5.449592E+03  1.232033E+03 -1.679499E+04 -2.338229E+03
       164   2 -2.459937E+05  2.894022E+04  1.538130E+04 -7.703683E+02 -1.108548E+04 -2.364523E+03
       164   3 -2.544641E+05  2.582211E+04  1.821019E+04  4.398858E+03 -5.376231E+03 -2.114424E+03
       164   4 -3.563441E+05 -1.007033E+04 -2.272631E+04  3.255194E+03 -1.684976E+04 -2.338360E+03
       164   5 -3.542751E+05  1.965106E+03 -1.118291E+04 -3.352459E+02 -1.104838E+04 -2.364523E+03
       164   6 -3.563417E+05  4.335634E+02 -6.807061E+03  3.246013E+03 -5.247190E+03 -2.114302E+03
       164   7 -4.710342E+05 -3.865022E+04 -5.090317E+04  5.277978E+03 -1.690452E+04 -2.338491E+03
       164   8 -4.625459E+05 -2.501087E+04 -3.774798E+04  9.979791E+01 -1.101128E+04 -2.364523E+03
       164   9 -4.582098E+05 -2.495575E+04 -3.182508E+04  2.093355E+03 -5.118171E+03 -2.114180E+03
       164  10 -2.416423E+05  1.850852E+04  5.449051E+03  1.232002E+03 -1.572208E-09 -2.620575E-09
       164  11 -2.459938E+05  2.894018E+04  1.538105E+04 -7.703894E+02 -1.146738E-09 -4.998473E-10
       164  12 -2.544642E+05  2.582210E+04  1.821013E+04  4.398849E+03  5.180725E-10  1.465701E-09
       164  13 -3.563444E+05 -1.007041E+04 -2.272685E+04  3.255163E+03  4.633300E-10 -1.742643E-09
       164  14 -3.542753E+05  1.965068E+03 -1.118315E+04 -3.352669E+02  2.509553E-10 -1.407065E-09
       164  15 -3.563417E+05  4.335513E+02 -6.807121E+03  3.246004E+03  3.482730E-09 -4.624756E-10
       164  16 -4.710345E+05 -3.865030E+04 -5.090372E+04  5.277946E+03  1.320062E-09 -6.536838E-10
       164  17 -4.625461E+05 -2.501091E+04 -3.774821E+04  9.977693E+01 -4.038067E-09 -4.494046E-10
       164  18 -4.582098E+05 -2.495576E+04 -3.182513E+04  2.093347E+03  3.291399E-09  7.238765E-10
       164  19 -2.416420E+05  1.850860E+04  5.449592E+03  1.232033E+03  1.679499E+04  2.338229E+03
       164  20 -2.459937E+05  2.894022E+04  1.538130E+04 -7.703683E+02  1.108548E+04  2.364523E+03
       164  21 -2.544641E+05  2.582211E+04  1.821019E+04  4.398858E+03  5.376231E+03  2.114424E+03
       164  22 -3.563441E+05 -1.007033E+04 -2.272631E+04  3.255194E+03  1.684976E+04  2.338360E+03
       164  23 -3.542751E+05  1.965106E+03 -1.118291E+04 -3.352459E+02  1.104838E+04  2.364523E+03
       164  24 -3.563417E+05  4.335634E+02 -6.807061E+03  3.246013E+03  5.247190E+03  2.114302E+03
       164  25 -4.710342E+05 -3.865022E+04 -5.090317E+04  5.277978E+03  1.690452E+04  2.338491E+03
       164  26 -4.625459E+05 -2.501087E+04 -3.774798E+04  9.979791E+01  1.101128E+04  2.364523E+03
       164  27 -4.582098E+05 -2.495575E+04 -3.182508E+04  2.093355E+03  5.118171E+03  2.114180E+03
       165   1 -2.687433E+05  2.033351E+04  1.588989E+04  3.148706E+03 -4.221213E+03 -1.936568E+03
       165   2 -2.750865E+05  2.022828E+04  1.678769E+04 -3.866584E+02 -2.773708E+03 -1.728063E+03
       165   3 -2.820603E+05  1.837706E+04  1.630514E+04  3.526184E+03 -1.326310E+03 -1.484764E+03
       165   4 -3.555628E+05 -1.293750E+03 -5.399751E+03  3.311599E+03 -4.157167E+03 -1.936517E+03
       165   5 -3.552462E+05  2.569046E+02 -2.881884E+03 -4.132887E+02 -2.698159E+03 -1.727989E+03
       165   6 -3.555623E+05  5.942991E+01 -1.752499E+03  3.310092E+03 -1.239241E+03 -1.484666E+03
       165   7 -4.423755E+05 -2.292157E+04 -2.668995E+04  3.474467E+03 -4.093131E+03 -1.936465E+03
       165   8 -4.354001E+05 -1.971495E+04 -2.255193E+04 -4.399172E+02 -2.622619E+03 -1.727916E+03
       165   9 -4.290595E+05 -1.825860E+04 -1.981054E+04  3.094025E+03 -1.152182E+03 -1.484569E+03
       165  10 -2.687433E+05  2.033350E+04  1.588985E+04  3.148699E+03  6.782717E-10  3.065911E-09
       165  11 -2.750865E+05  2.022827E+04  1.678767E+04 -3.866623E+02  5.660936E-10  2.383915E-09
       165  12 -2.820603E+05  1.837705E+04  1.630514E+04  3.526182E+03 -8.194763E-11 -1.273569E-10
       165  13 -3.555628E+05 -1.293758E+03 -5.399790E+03  3.311592E+03  8.634973E-10  5.836767E-11
       165  14 -3.552462E+05  2.568995E+02 -2.881904E+03 -4.132924E+02  2.463827E-09  2.320148E-09
       165  15 -3.555623E+05  5.942713E+01 -1.752506E+03  3.310091E+03  1.041739E-09  3.237760E-09
       165  16 -4.423755E+05 -2.292157E+04 -2.668999E+04  3.474461E+03 -8.835201E-10  2.299893E-09
       165  17 -4.354001E+05 -1.971495E+04 -2.255195E+04 -4.399209E+02 -2.447216E-09  2.474741E-09
       165  18 -4.290595E+05 -1.825860E+04 -1.981055E+04  3.094023E+03 -3.194371E-10  1.452596E-09
       165  19 -2.687433E+05  2.033351E+04  1.588989E+04  3.148706E+03  4.221213E+03  1.936568E+03
       165  20 -2.750865E+05  2.022828E+04  1.678769E+04 -3.866584E+02  2.773708E+03  1.728063E+03
       165  21 -2.820603E+05  1.837706E+04  1.630514E+04  3.526184E+03  1.326310E+03  1.484764E+03
       165  22 -3.555628E+05 -1.293750E+03 -5.399751E+03  3.311599E+03  4.157167E+03  1.936517E+03
       165  23 -3.552462E+05  2.569046E+02 -2.881884E+03 -4.132887E+02  2.698159E+03  1.727989E+03
       165  24 -3.555623E+05  5.942991E+01 -1.752499E+03  3.310092E+03  1.239241E+03  1.484666E+03
       165  25 -4.423755E+05 -2.292157E+04 -2.668995E+04  3.474467E+03  4.093131E+03  1.936465E+03
       165  26 -4.354001E+05 -1.971495E+04 -2.255193E+04 -4.399172E+02  2.622619E+03  1.727916E+03
       165  27 -4.290595E+05 -1.825860E+04 -1.981054E+04  3.094025E+03  1.152182E+03  1.484569E+03
       166   1 -2.974967E+05  1.427886E+04  1.280093E+04  3.385664E+03 -1.035348E+03 -1.339092E+03
       166   2 -3.042623E+05  1.277408E+04  1.165675E+04 -4.179348E+02 -5.940590E+02 -1.099119E+03
       166   3 -3.111624E+05  1.103542E+04  1.016284E+04  3.420559E+03 -1.528248E+02 -8.529224E+02
       166   4 -3.554511E+05 -1.564421E+02 -1.400261E+03  3.353817E+03 -9.559221E+02 -1.338998E+03
       166   5 -3.553836E+05  3.708907E+01 -8.879739E+02 -4.673472E+02 -5.125793E+02 -1.099017E+03
       166   6 -3.554510E+05 -3.660078E+00 -7.268996E+02  3.353621E+03 -6.928702E+01 -8.528119E+02
       166   7 -4.134025E+05 -1.459199E+04 -1.560170E+04  3.321972E+03 -8.765031E+02 -1.338905E+03
       166   8 -4.065025E+05 -1.270010E+04 -1.343289E+04 -5.167563E+02 -4.311063E+02 -1.098916E+03
       166   9 -3.997379E+05 -1.104289E+04 -1.161678E+04  3.286687E+03  1.424486E+01 -8.527014E+02
       166  10 -2.974967E+05  1.427886E+04  1.280092E+04  3.385662E+03 -2.466649E-09 -5.546943E-11
       166  11 -3.042623E+05  1.277408E+04  1.165675E+04 -4.179353E+02 -2.736172E-09  3.669668E-09
       166  12 -3.111624E+05  1.103542E+04  1.016284E+04  3.420559E+03  1.100458E-10  1.584541E-09
       166  13 -3.554511E+05 -1.564443E+02 -1.400266E+03  3.353816E+03  6.655224E-10  7.784069E-10
       166  14 -3.553836E+05  3.708770E+01 -8.879767E+02 -4.673476E+02  2.249003E-09  2.876845E-09
       166  15 -3.554510E+05 -3.660860E+00 -7.269010E+02  3.353621E+03 -1.495065E-09 -5.858971E-10
       166  16 -4.134025E+05 -1.459199E+04 -1.560170E+04  3.321971E+03  2.090225E-10  9.545343E-10
       166  17 -4.065025E+05 -1.270010E+04 -1.343289E+04 -5.167567E+02  5.684194E-10 -8.755014E-10
       166  18 -3.997379E+05 -1.104289E+04 -1.161678E+04  3.286687E+03  2.336316E-09 -1.954839E-09
       166  19 -2.974967E+05  1.427886E+04  1.280093E+04  3.385664E+03  1.035348E+03  1.339092E+03
       166  20 -3.042623E+05  1.277408E+04  1.165675E+04 -4.179348E+02  5.940590E+02  1.099119E+03
       166  21 -3.111624E+05  1.103542E+04  1.016284E+04  3.420559E+03  1.528248E+02  8.529224E+02
       166  22 -3.554511E+05 -1.564421E+02 -1.400261E+03  3.353817E+03  9.559221E+02  1.338998E+03
       166  23 -3.553836E+05  3.708907E+01 -8.879739E+02 -4.673472E+02  5.125793E+02  1.099017E+03
       166  24 -3.554510E+05 -3.660078E+00 -7.268996E+02  3.353621E+03  6.928702E+01  8.528119E+02
       166  25 -4.134025E+05 -1.459199E+04 -1.560170E+04  3.321972E+03  8.765031E+02  1.338905E+03
       166  26 -4.065025E+05 -1.270010E+04 -1.343289E+04 -5.167563E+02  4.311063E+02  1.098916E+03
       166  27 -3.997379E+05 -1.104289E+04 -1.161678E+04  3.286687E+03 -1.424486E+01  8.527014E+02
       167   1 -3.270236E+05  7.074009E+03  6.229197E+03  3.386530E+03 -2.128372E+01 -7.083059E+02
       167   2 -3.338819E+05  5.393820E+03  4.397707E+03 -4.739050E+02  4.173079E+02 -4.610497E+02
       167   3 -3.408808E+05  3.484049E+03  2.217716E+03  3.416902E+03  8.558860E+02 -2.139342E+02
       167   4 -3.554519E+05 -4.745143E+00 -7.256279E+02  3.377869E+03  6.157906E+01 -7.081929E+02
       167   5 -3.553817E+05  3.697902E+01 -8.783150E+02 -4.976561E+02  5.001096E+02 -4.609344E+02
       167   6 -3.554520E+05 -1.508435E+02 -1.379437E+03  3.378077E+03  9.386315E+02 -2.138164E+02
       167   7 -3.838795E+05 -7.083559E+03 -7.680512E+03  3.369208E+03  1.444380E+02 -7.080799E+02
       167   8 -3.768810E+05 -5.319896E+03 -6.154370E+03 -5.214065E+02  5.829085E+02 -4.608191E+02
       167   9 -3.700230E+05 -3.785752E+03 -4.976606E+03  3.339254E+03  1.021375E+03 -2.136987E+02
       167  10 -3.270236E+05  7.074008E+03  6.229196E+03  3.386530E+03 -3.962421E-09 -5.896058E-11
       167  11 -3.338819E+05  5.393819E+03  4.397706E+03 -4.739048E+02 -1.425234E-10  1.767060E-09
       167  12 -3.408808E+05  3.484049E+03  2.217715E+03  3.416902E+03 -2.715212E-09 -2.968899E-09
       167  13 -3.554519E+05 -4.745683E+00 -7.256289E+02  3.377869E+03  4.880023E-10  3.624710E-09
       167  14 -3.553817E+05  3.697872E+01 -8.783158E+02 -4.976559E+02 -4.060678E-09  2.302514E-09
       167  15 -3.554520E+05 -1.508438E+02 -1.379438E+03  3.378078E+03 -2.829740E-09 -3.291838E-09
       167  16 -3.838795E+05 -7.083559E+03 -7.680513E+03  3.369208E+03 -1.128361E-09  6.270670E-10
       167  17 -3.768810E+05 -5.319896E+03 -6.154371E+03 -5.214063E+02 -7.459512E-10 -7.076750E-10
       167  18 -3.700230E+05 -3.785752E+03 -4.976608E+03  3.339254E+03 -1.601063E-09 -3.309718E-09
       167  19 -3.270236E+05  7.074009E+03  6.229197E+03  3.386530E+03  2.128372E+01  7.083059E+02
       167  20 -3.338819E+05  5.393820E+03  4.397707E+03 -4.739050E+02 -4.173079E+02  4.610497E+02
       167  21 -3.408808E+05  3.484049E+03  2.217716E+03  3.416902E+03 -8.558860E+02  2.139342E+02
       167  22 -3.554519E+05 -4.745143E+00 -7.256279E+02  3.377869E+03 -6.157906E+01  7.081929E+02
       167  23 -3.553817E+05  3.697902E+01 -8.783150E+02 -4.976561E+02 -5.001096E+02  4.609344E+02
       167  24 -3.554520E+05 -1.508435E+02 -1.379437E+03  3.378077E+03 -9.386315E+02  2.138164E+02
       167  25 -3.838795E+05 -7.083559E+03 -7.680512E+03  3.369208E+03 -1.444380E+02  7.080799E+02
       167  26 -3.768810E+05 -5.319896E+03 -6.154370E+03 -5.214065E+02 -5.829085E+02  4.608191E+02
       167  27 -3.700230E+05 -3.785752E+03 -4.976606E+03  3.339254E+03 -1.021375E+03  2.136987E+02
       168   1 -3.569835E+05 -2.986507E+02 -2.095562E+03  3.235735E+03  1.131192E+03 -6.614705E+01
       168   2 -3.636085E+05 -1.830673E+03 -4.884906E+03 -4.692675E+02  2.570814E+03  1.850800E+02
       168   3 -3.708773E+05 -5.077524E+03 -9.046338E+03  3.597376E+03  4.010449E+03  4.193591E+02
       168   4 -3.555635E+05  5.996811E+01 -1.725500E+03  3.381840E+03  1.217731E+03 -6.602296E+01
       168   5 -3.552423E+05  2.536319E+02 -2.832239E+03 -5.030417E+02  2.651679E+03  1.851945E+02
       168   6 -3.555640E+05 -1.266527E+03 -5.307099E+03  3.383717E+03  4.085655E+03  4.194634E+02
       168   7 -3.541435E+05  4.185869E+02 -1.355438E+03  3.527946E+03  1.304271E+03 -6.589883E+01
       168   8 -3.468761E+05  2.337931E+03 -7.795778E+02 -5.368165E+02  2.732546E+03  1.853090E+02
       168   9 -3.402504E+05  2.544453E+03 -1.567877E+03  3.170053E+03  4.160864E+03  4.195677E+02
       168  10 -3.569835E+05 -2.986511E+02 -2.095565E+03  3.235735E+03 -3.411426E-09 -1.098092E-09
       168  11 -3.636085E+05 -1.830674E+03 -4.884918E+03 -4.692678E+02 -2.621580E-09  9.235204E-10
       168  12 -3.708773E+05 -5.077529E+03 -9.046369E+03  3.597375E+03  2.759724E-09 -2.510117E-10
       168  13 -3.555635E+05  5.996770E+01 -1.725503E+03  3.381840E+03 -1.384799E-09 -1.845766E-09
       168  14 -3.552424E+05  2.536300E+02 -2.832252E+03 -5.030421E+02 -2.851898E-09  1.238946E-09
       168  15 -3.555640E+05 -1.266532E+03 -5.307131E+03  3.383716E+03  2.247406E-09  8.036883E-10
       168  16 -3.541435E+05  4.185864E+02 -1.355441E+03  3.527946E+03  4.091304E-09 -8.354742E-10
       168  17 -3.468761E+05  2.337929E+03 -7.795919E+02 -5.368169E+02 -5.196718E-10 -3.521903E-09
       168  18 -3.402504E+05  2.544449E+03 -1.567910E+03  3.170052E+03 -1.742822E-09 -3.013818E-10
       168  19 -3.569835E+05 -2.986507E+02 -2.095562E+03  3.235735E+03 -1.131192E+03  6.614705E+01
       168  20 -3.636085E+05 -1.830673E+03 -4.884906E+03 -4.692675E+02 -2.570814E+03 -1.850800E+02
       168  21 -3.708773E+05 -5.077524E+03 -9.046338E+03  3.597376E+03 -4.010449E+03 -4.193591E+02
       168  22 -3.555635E+05  5.996811E+01 -1.725500E+03  3.381840E+03 -1.217731E+03  6.602296E+01
       168  23 -3.552423E+05  2.536319E+02 -2.832239E+03 -5.030417E+02 -2.651679E+03 -1.851945E+02
       168  24 -3.555640E+05 -1.266527E+03 -5.307099E+03  3.383717E+03 -4.085655E+03 -4.194634E+02
       168  25 -3.541435E+05  4.185869E+02 -1.355438E+03  3.527946E+03 -1.304271E+03  6.589883E+01
       168  26 -3.468761E+05  2.337931E+03 -7.795778E+02 -5.368165E+02 -2.732546E+03 -1.853090E+02
       168  27 -3.402504E+05  2.544453E+03 -1.567877E+03  3.170053E+03 -4.160864E+03 -4.195677E+02
       169   1 -3.875816E+05 -7.364461E+03 -1.438004E+04  2.278243E+03  5.046260E+03  5.875158E+02
       169   2 -3.924192E+05 -7.566622E+03 -2.034191E+04 -2.024978E+01  1.079662E+04  8.495379E+02
       169   3 -4.013628E+05 -2.110346E+04 -3.338760E+04  5.392514E+03  1.654704E+04  9.603304E+02
       169   4 -3.563314E+05  4.296853E+02 -6.690443E+03  3.364469E+03  5.157153E+03  5.876781E+02
       169   5 -3.542841E+05  1.932948E+03 -1.098705E+04 -4.842536E+02  1.085703E+04  8.496083E+02
       169   6 -3.563338E+05 -9.889262E+03 -2.233208E+04  3.378291E+03  1.655703E+04  9.602845E+02
       169   7 -3.250803E+05  8.223764E+03  9.990795E+02  4.450748E+03  5.268051E+03  5.878408E+02
       169   8 -3.161476E+05  1.143241E+04 -1.632301E+03 -9.482865E+02  1.091744E+04  8.496787E+02
       169   9 -3.113030E+05  1.324803E+03 -1.127671E+04  1.363921E+03  1.656702E+04  9.602385E+02
       169  10 -3.875817E+05 -7.364469E+03 -1.438008E+04  2.278241E+03 -2.862141E-09  2.288609E-09
       169  11 -3.924193E+05 -7.566654E+03 -2.034213E+04 -2.025717E+01 -3.558772E-09  3.125289E-09
       169  12 -4.013631E+05 -2.110354E+04 -3.338812E+04  5.392501E+03  1.294247E-09  2.634591E-09
       169  13 -3.563314E+05  4.296778E+02 -6.690493E+03  3.364466E+03  7.287033E-10  1.022391E-09
       169  14 -3.542842E+05  1.932916E+03 -1.098728E+04 -4.842610E+02  2.515792E-09  3.316893E-09
       169  15 -3.563341E+05 -9.889336E+03 -2.233260E+04  3.378278E+03 -1.031918E-10 -3.405374E-10
       169  16 -3.250803E+05  8.223756E+03  9.990267E+02  4.450746E+03  3.680157E-09  7.305741E-11
       169  17 -3.161477E+05  1.143238E+04 -1.632526E+03 -9.482939E+02  2.994160E-09  5.352660E-10
       169  18 -3.113033E+05  1.324729E+03 -1.127722E+04  1.363908E+03  2.132348E-10 -3.035471E-09
       169  19 -3.875816E+05 -7.364461E+03 -1.438004E+04  2.278243E+03 -5.046260E+03 -5.875158E+02
       169  20 -3.924192E+05 -7.566622E+03 -2.034191E+04 -2.024978E+01 -1.079662E+04 -8.495379E+02
       169  21 -4.013628E+05 -2.110346E+04 -3.338760E+04  5.392514E+03 -1.654704E+04 -9.603304E+02
       169  22 -3.563314E+05  4.296853E+02 -6.690443E+03  3.364469E+03 -5.157153E+03 -5.876781E+02
       169  23 -3.542841E+05  1.932948E+03 -1.098705E+04 -4.842536E+02 -1.085703E+04 -8.496083E+02
       169  24 -3.563338E+05 -9.889262E+03 -2.233208E+04  3.378291E+03 -1.655703E+04 -9.602845E+02
       169  25 -3.250803E+05  8.223764E+03  9.990795E+02  4.450748E+03 -5.268051E+03 -5.878408E+02
       169  26 -3.161476E+05  1.143241E+04 -1.632301E+03 -9.482865E+02 -1.091744E+04 -8.496787E+02
       169  27 -3.113030E+05  1.324803E+03 -1.127671E+04  1.363921E+03 -1.656702E+04 -9.602385E+02
       170   1 -4.224826E+05 -1.185442E+04 -4.205396E+04 -4.559167E+03  2.059176E+04  1.308759E+03
       170   2 -4.149511E+05 -2.056733E+03 -5.878565E+04  4.059853E+03  4.401799E+04  1.645245E+03
       170   3 -4.360699E+05 -9.458686E+04 -1.163595E+05  2.028297E+04  6.744610E+04  6.357674E+02
       170   4 -3.617691E+05  3.300004E+03 -2.714410E+04  3.313613E+03  2.092198E+04  1.309442E+03
       170   5 -3.474909E+05  1.473170E+04 -4.226382E+04 -4.410455E+02  4.389811E+04  1.644761E+03
       170   6 -3.617820E+05 -7.608079E+04 -9.790977E+04  3.408547E+03  6.687639E+04  6.332462E+02
       170   7 -3.010521E+05  1.845438E+04 -1.223447E+04  1.118716E+04  2.125224E+04  1.310133E+03
       170   8 -2.800266E+05  3.151987E+04 -2.574230E+04 -4.942435E+03  4.377822E+04  1.644278E+03
       170   9 -2.874884E+05 -5.757405E+04 -7.946031E+04 -1.346789E+04  6.630660E+04  6.307563E+02
       170  10 -4.224830E+05 -1.185453E+04 -4.205476E+04 -4.559188E+03 -1.146911E-10  1.094099E-09
       170  11 -4.149531E+05 -2.057257E+03 -5.878930E+04  4.059794E+03 -1.318860E-09 -2.558545E-10
       170  12 -4.360748E+05 -9.458809E+04 -1.163680E+05  2.028293E+04 -7.560913E-10  4.852430E-10
       170  13 -3.617695E+05  3.299885E+03 -2.714492E+04  3.313591E+03  4.474330E-10  1.741492E-09
       170  14 -3.474930E+05  1.473118E+04 -4.226745E+04 -4.411036E+02  4.884188E-09 -2.511955E-09
       170  15 -3.617868E+05 -7.608199E+04 -9.791818E+04  3.408513E+03 -1.961152E-09  2.717446E-09
       170  16 -3.010525E+05  1.845426E+04 -1.223532E+04  1.118714E+04  1.839724E-09  5.477298E-10
       170  17 -2.800287E+05  3.151935E+04 -2.574591E+04 -4.942493E+03 -5.291441E-10  9.661095E-10
       170  18 -2.874931E+05 -5.757523E+04 -7.946857E+04 -1.346793E+04 -3.673195E-10  1.647733E-10
       170  19 -4.224826E+05 -1.185442E+04 -4.205396E+04 -4.559167E+03 -2.059176E+04 -1.308759E+03
       170  20 -4.149511E+05 -2.056733E+03 -5.878565E+04  4.059853E+03 -4.401799E+04 -1.645245E+03
       170  21 -4.360699E+05 -9.458686E+04 -1.163595E+05  2.028297E+04 -6.744610E+04 -6.357674E+02
       170  22 -3.617691E+05  3.300004E+03 -2.714410E+04  3.313613E+03 -2.092198E+04 -1.309442E+03
       170  23 -3.474909E+05  1.473170E+04 -4.226382E+04 -4.410455E+02 -4.389811E+04 -1.644761E+03
       170  24 -3.617820E+05 -7.608079E+04 -9.790977E+04  3.408547E+03 -6.687639E+04 -6.332462E+02
       170  25 -3.010521E+05  1.845438E+04 -1.223447E+04  1.118716E+04 -2.125224E+04 -1.310133E+03
       170  26 -2.800266E+05  3.151987E+04 -2.574230E+04 -4.942435E+03 -4.377822E+04 -1.644278E+03
       170  27 -2.874884E+05 -5.757405E+04 -7.946031E+04 -1.346789E+04 -6.630660E+04 -6.307563E+02
       171   1  1.376892E+05  7.710486E+05  1.471183E+05 -7.321204E+04  3.928227E+03  5.029115E+04
       171   2  6.452206E+04  6.845935E+05  9.150441E+04 -4.061845E+04  1.141115E+04  2.561717E+04
       171   3  4.410265E+04  6.145087E+05  6.512370E+04 -4.180124E+04  9.378768E+03  9.402623E+02
       171   4  5.159035E+04  4.247766E+05  6.283157E+04 -4.908872E+04  3.936856E+03  3.970721E+04
       171   5 -9.843743E+02  4.173148E+05  3.115381E+04 -3.221866E+04  1.141348E+04  2.326978E+04
       171   6 -2.227238E+03  4.247988E+05  2.300345E+04 -4.912383E+04  9.374216E+03  6.826260E+03
       171   7 -3.451514E+04  7.861535E+04 -2.146315E+04 -2.497887E+04  3.944667E+03  2.912914E+04
       171   8 -6.649545E+04  1.501026E+05 -2.920131E+04 -2.382250E+04  1.141575E+04  2.092339E+04
       171   9 -4.855933E+04  2.351226E+05 -1.911888E+04 -5.644415E+04  9.369525E+03  1.271048E+04
       171  10  1.376885E+05  7.710459E+05  1.471136E+05 -7.321220E+04  1.158631E-09 -5.746456E-09
       171  11  6.452175E+04  6.845927E+05  9.150293E+04 -4.061869E+04  4.843403E-09  4.360320E-09
       171  12  4.410255E+04  6.145087E+05  6.512353E+04 -4.180125E+04  2.295818E-09  1.731841E-08
       171  13  5.158991E+04  4.247749E+05  6.282858E+04 -4.908885E+04 -1.069415E-10  5.678453E-10
       171  14 -9.846595E+02  4.173142E+05  3.115255E+04 -3.221887E+04 -1.548590E-09  6.364352E-10
       171  15 -2.227345E+03  4.247987E+05  2.300320E+04 -4.912388E+04 -1.186375E-09  9.003502E-10
       171  16 -3.451539E+04  7.861444E+04 -2.146478E+04 -2.497896E+04  6.815654E-11  6.034553E-09
       171  17 -6.649571E+04  1.501021E+05 -2.920237E+04 -2.382269E+04  3.043720E-09 -5.860751E-09
       171  18 -4.855947E+04  2.351224E+05 -1.911935E+04 -5.644424E+04 -3.226614E-09 -1.873865E-08
       171  19  1.376892E+05  7.710486E+05  1.471183E+05 -7.321204E+04 -3.928227E+03 -5.029115E+04
       171  20  6.452206E+04  6.845935E+05  9.150441E+04 -4.061845E+04 -1.141115E+04 -2.561717E+04
       171  21  4.410265E+04  6.145087E+05  6.512370E+04 -4.180124E+04 -9.378768E+03 -9.402623E+02
       171  22  5.159035E+04  4.247766E+05  6.283157E+04 -4.908872E+04 -3.936856E+03 -3.970721E+04
       171  23 -9.843743E+02  4.173148E+05  3.115381E+04 -3.221866E+04 -1.141348E+04 -2.326978E+04
       171  24 -2.227238E+03  4.247988E+05  2.300345E+04 -4.912383E+04 -9.374216E+03 -6.826260E+03
       171  25 -3.451514E+04  7.861535E+04 -2.146315E+04 -2.497887E+04 -3.944667E+03 -2.912914E+04
       171  26 -6.649545E+04  1.501026E+05 -2.920131E+04 -2.382250E+04 -1.141575E+04 -2.092339E+04
       171  27 -4.855933E+04  2.351226E+05 -1.911888E+04 -5.644415E+04 -9.369525E+03 -1.271048E+04
       172   1  3.296129E+04  5.459560E+05  4.938035E+04 -5.156811E+04  5.940673E+03 -1.770948E+01
       172   2  1.075653E+04  4.659118E+05  3.250069E+04 -3.186949E+04  2.260398E+03 -1.137491E+04
       172   3 -1.437514E+03  3.897892E+05  2.549876E+04 -4.629065E+04 -1.521332E+03 -2.273109E+04
       172   4  2.739491E+03  4.223472E+05  2.183609E+04 -4.919113E+04  5.938120E+03  3.127903E+03
       172   5 -3.626680E+02  4.203972E+05  2.239393E+04 -3.212974E+04  2.257696E+03 -8.140755E+03
       172   6  6.531207E+03  4.223477E+05  3.276868E+04 -4.918793E+04 -1.524113E+03 -1.940979E+04
       172   7 -2.748332E+04  2.987525E+05 -5.709096E+03 -4.681463E+04  5.935590E+03  6.272895E+03
       172   8 -1.148200E+04  3.748846E+05  1.228708E+04 -3.238996E+04  2.254990E+03 -4.906837E+03
       172   9  1.449989E+04  4.549072E+05  4.003858E+04 -5.208537E+04 -1.526925E+03 -1.608831E+04
       172  10  3.296125E+04  5.459560E+05  4.938028E+04 -5.156811E+04  2.963517E-09  7.450736E-09
       172  11  1.075649E+04  4.659116E+05  3.250043E+04 -3.186947E+04  3.664063E-09  1.279814E-09
       172  12 -1.437655E+03  3.897886E+05  2.549779E+04 -4.629068E+04  5.594221E-10 -2.165099E-10
       172  13  2.739451E+03  4.223471E+05  2.183600E+04 -4.919115E+04 -1.921709E-10  7.521558E-10
       172  14 -3.626912E+02  4.203971E+05  2.239380E+04 -3.212972E+04 -2.763904E-09  6.160068E-10
       172  15  6.531103E+03  4.223473E+05  3.276797E+04 -4.918796E+04 -3.546878E-09  1.036185E-09
       172  16 -2.748337E+04  2.987525E+05 -5.709237E+03 -4.681466E+04  2.505118E-09 -6.965841E-09
       172  17 -1.148201E+04  3.748846E+05  1.228703E+04 -3.238995E+04  5.214209E-09 -3.209849E-09
       172  18  1.449982E+04  4.549070E+05  4.003809E+04 -5.208539E+04 -1.779801E-09 -1.285407E-09
       172  19  3.296129E+04  5.459560E+05  4.938035E+04 -5.156811E+04 -5.940673E+03  1.770948E+01
       172  20  1.075653E+04  4.659118E+05  3.250069E+04 -3.186949E+04 -2.260398E+03  1.137491E+04
       172  21 -1.437514E+03  3.897892E+05  2.549876E+04 -4.629065E+04  1.521332E+03  2.273109E+04
       172  22  2.739491E+03  4.223472E+05  2.183609E+04 -4.919113E+04 -5.938120E+03 -3.127903E+03
       172  23 -3.626680E+02  4.203972E+05  2.239393E+04 -3.212974E+04 -2.257696E+03  8.140755E+03
       172  24  6.531207E+03  4.223477E+05  3.276868E+04 -4.918793E+04  1.524113E+03  1.940979E+04
       172  25 -2.748332E+04  2.987525E+05 -5.709096E+03 -4.681463E+04 -5.935590E+03 -6.272895E+03
       172  26 -1.148200E+04  3.748846E+05  1.228708E+04 -3.238996E+04 -2.254990E+03  4.906837E+03
       172  27  1.449989E+04  4.549072E+05  4.003858E+04 -5.208537E+04  1.526925E+03  1.608831E+04
       173   1 -2.957814E+04  3.300092E+05  1.718887E+04 -6.540868E+04 -4.742440E+03 -3.054349E+04
       173   2 -4.532313E+04  2.363971E+05  2.285497E+04 -1.437006E+04 -7.303700E+03 -5.757490E+04
       173   3  4.875811E+04  1.737253E+05  7.356589E+04  2.851135E+03 -2.651630E+03 -8.459689E+04
       173   4 -5.513338E+03  4.285946E+05  3.913476E+04 -4.914538E+04 -4.747770E+03 -2.519805E+04
       173   5 -2.085961E+03  4.125791E+05  6.275745E+04 -3.219512E+04 -7.301207E+03 -5.847465E+04
       173   6  1.122288E+05  4.285644E+05  1.357483E+05 -4.905809E+04 -2.639263E+03 -9.174537E+04
       173   7  1.855182E+04  5.271897E+05  6.108031E+04 -3.287946E+04 -4.752820E+03 -1.985176E+04
       173   8  4.115026E+04  5.887905E+05  1.026581E+05 -5.002527E+04 -7.298663E+03 -5.937464E+04
       173   9  1.757048E+05  6.834686E+05  1.979275E+05 -1.009887E+05 -2.625706E+03 -9.889677E+04
       173  10 -2.957841E+04  3.300082E+05  1.718707E+04 -6.540880E+04  1.791470E-09  1.996507E-09
       173  11 -4.532407E+04  2.363936E+05  2.284864E+04 -1.437040E+04 -2.168929E-09 -8.389039E-09
       173  12  4.875618E+04  1.737176E+05  7.355243E+04  2.850955E+03 -1.258499E-09 -1.222862E-08
       173  13 -5.513533E+03  4.285939E+05  3.913353E+04 -4.914547E+04 -5.828287E-09  9.737484E-10
       173  14 -2.086935E+03  4.125754E+05  6.275093E+04 -3.219546E+04 -4.048507E-09  6.944857E-10
       173  15  1.122265E+05  4.285554E+05  1.357324E+05 -4.905829E+04  2.286664E-09  7.698628E-10
       173  16  1.855169E+04  5.271893E+05  6.107952E+04 -3.287954E+04  2.339057E-09 -1.435406E-09
       173  17  4.114925E+04  5.887867E+05  1.026514E+05 -5.002562E+04  3.401917E-09  6.738567E-09
       173  18  1.757022E+05  6.834581E+05  1.979092E+05 -1.009889E+05  3.594108E-09  1.112133E-08
       173  19 -2.957814E+04  3.300092E+05  1.718887E+04 -6.540868E+04  4.742440E+03  3.054349E+04
       173  20 -4.532313E+04  2.363971E+05  2.285497E+04 -1.437006E+04  7.303700E+03  5.757490E+04
       173  21  4.875811E+04  1.737253E+05  7.356589E+04  2.851135E+03  2.651630E+03  8.459689E+04
       173  22 -5.513338E+03  4.285946E+05  3.913476E+04 -4.914538E+04  4.747770E+03  2.519805E+04
       173  23 -2.085961E+03  4.125791E+05  6.275745E+04 -3.219512E+04  7.301207E+03  5.847465E+04
       173  24  1.122288E+05  4.285644E+05  1.357483E+05 -4.905809E+04  2.639263E+03  9.174537E+04
       173  25  1.855182E+04  5.271897E+05  6.108031E+04 -3.287946E+04  4.752820E+03  1.985176E+04
       173  26  4.115026E+04  5.887905E+05  1.026581E+05 -5.002527E+04  7.298663E+03  5.937464E+04
       173  27  1.757048E+05  6.834686E+05  1.979275E+05 -1.009887E+05  2.625706E+03  9.889677E+04
       174   1  2.609588E+04  9.206928E+03 -7.105359E+03 -7.601608E+03 -4.701678E+04 -2.974924E+03
       174   2  1.174959E+04  7.087113E+04  2.723300E+04 -1.418634E+03 -3.257494E+04 -8.808974E+03
       174   3 -2.247029E+04  6.052071E+04  3.417475E+04  2.112768E+04 -1.814204E+04 -8.154693E+03
       174   4 -2.537640E+05 -6.049637E+04 -7.601830E+04  1.260146E+04 -5.202138E+04 -2.982691E+03
       174   5 -2.435070E+05  7.699782E+03 -3.343549E+04  4.378669E+03 -3.400532E+04 -8.811477E+03
       174   6 -2.537541E+05  3.243793E+03 -2.074072E+04  1.251993E+04 -1.599751E+04 -8.151422E+03
       174   7 -5.335516E+05 -1.302039E+05 -1.449367E+05  3.279539E+04 -5.702372E+04 -2.990786E+03
       174   8 -4.987037E+05 -5.547613E+04 -9.410849E+04  1.017356E+04 -3.543511E+04 -8.814008E+03
       174   9 -4.849886E+05 -5.403670E+04 -7.565987E+04  3.915378E+03 -1.385377E+04 -8.148210E+03
       174  10  2.609350E+04  9.206325E+03 -7.109530E+03 -7.601721E+03 -4.978627E-09  7.159280E-10
       174  11  1.174843E+04  7.087076E+04  2.723086E+04 -1.418865E+03 -1.392671E-10  4.454551E-09
       174  12 -2.247066E+04  6.052055E+04  3.417400E+04  2.112757E+04 -9.790885E-10  2.396022E-09
       174  13 -2.537669E+05 -6.049711E+04 -7.602340E+04  1.260134E+04  8.262815E-10 -2.085574E-09
       174  14 -2.435083E+05  7.699388E+03 -3.343780E+04  4.378428E+03  2.580723E-09 -3.820237E-09
       174  15 -2.537544E+05  3.243653E+03 -2.074133E+04  1.251982E+04 -1.162322E-09  1.280250E-09
       174  16 -5.335551E+05 -1.302048E+05 -1.449428E+05  3.279525E+04  2.875564E-09  3.021680E-10
       174  17 -4.987050E+05 -5.547655E+04 -9.411100E+04  1.017331E+04  5.944520E-10  3.710867E-09
       174  18 -4.849888E+05 -5.403683E+04 -7.566035E+04  3.915287E+03 -9.386475E-10  1.050886E-09
       174  19  2.609588E+04  9.206928E+03 -7.105359E+03 -7.601608E+03  4.701678E+04  2.974924E+03
       174  20  1.174959E+04  7.087113E+04  2.723300E+04 -1.418634E+03  3.257494E+04  8.808974E+03
       174  21 -2.247029E+04  6.052071E+04  3.417475E+04  2.112768E+04  1.814204E+04  8.154693E+03
       174  22 -2.537640E+05 -6.049637E+04 -7.601830E+04  1.260146E+04  5.202138E+04  2.982691E+03
       174  23 -2.435070E+05  7.699782E+03 -3.343549E+04  4.378669E+03  3.400532E+04  8.811477E+03
       174  24 -2.537541E+05  3.243793E+03 -2.074072E+04  1.251993E+04  1.599751E+04  8.151422E+03
       174  25 -5.335516E+05 -1.302039E+05 -1.449367E+05  3.279539E+04  5.702372E+04  2.990786E+03
       174  26 -4.987037E+05 -5.547613E+04 -9.410849E+04  1.017356E+04  3.543511E+04  8.814008E+03
       174  27 -4.849886E+05 -5.403670E+04 -7.565987E+04  3.915378E+03  1.385377E+04  8.148210E+03
       175   1 -4.811872E+04  4.403188E+04  3.114723E+04  1.106923E+04 -1.301629E+04 -6.657693E+03
       175   2 -7.132679E+04  4.467037E+04  3.346704E+04  4.067248E+03 -8.830917E+03 -6.073996E+03
       175   3 -9.689146E+04  3.821472E+04  3.128059E+04  1.368622E+04 -4.646782E+03 -5.053574E+03
       175   4 -2.497293E+05 -5.895168E+03 -1.687710E+04  1.260950E+04 -1.281552E+04 -6.657558E+03
       175   5 -2.485278E+05  7.995458E+02 -8.663063E+03  4.293798E+03 -8.390401E+03 -6.073384E+03
       175   6 -2.497263E+05  3.572118E+02 -5.122998E+03  1.259942E+04 -3.966368E+03 -5.052446E+03
       175   7 -4.513025E+05 -5.582514E+04 -6.490428E+04  1.414926E+04 -1.261480E+04 -6.657421E+03
       175   8 -4.257000E+05 -4.307354E+04 -5.079536E+04  4.520271E+03 -7.950011E+03 -6.072772E+03
       175   9 -4.025397E+05 -3.750198E+04 -4.152822E+04  1.151288E+04 -3.286121E+03 -5.051320E+03
       175  10 -4.811891E+04  4.403179E+04  3.114683E+04  1.106916E+04 -1.620531E-09 -3.918064E-10
       175  11 -7.132689E+04  4.467031E+04  3.346683E+04  4.067205E+03 -1.843657E-09  2.759593E-09
       175  12 -9.689149E+04  3.821468E+04  3.128050E+04  1.368620E+04  2.820754E-09  6.090830E-09
       175  13 -2.497295E+05 -5.895259E+03 -1.687749E+04  1.260943E+04  6.371547E-10  5.681780E-09
       175  14 -2.485279E+05  7.994873E+02 -8.663264E+03  4.293757E+03 -3.761975E-09 -9.856024E-09
       175  15 -2.497263E+05  3.571802E+02 -5.123076E+03  1.259940E+04  2.068921E-09  4.952420E-09
       175  16 -4.513027E+05 -5.582523E+04 -6.490466E+04  1.414919E+04 -1.857772E-10 -3.165317E-09
       175  17 -4.257000E+05 -4.307360E+04 -5.079555E+04  4.520233E+03 -3.854201E-09 -2.773509E-09
       175  18 -4.025397E+05 -3.750201E+04 -4.152829E+04  1.151286E+04  5.607174E-10  1.389303E-10
       175  19 -4.811872E+04  4.403188E+04  3.114723E+04  1.106923E+04  1.301629E+04  6.657693E+03
       175  20 -7.132679E+04  4.467037E+04  3.346704E+04  4.067248E+03  8.830917E+03  6.073996E+03
       175  21 -9.689146E+04  3.821472E+04  3.128059E+04  1.368622E+04  4.646782E+03  5.053574E+03
       175  22 -2.497293E+05 -5.895168E+03 -1.687710E+04  1.260950E+04  1.281552E+04  6.657558E+03
       175  23 -2.485278E+05  7.995458E+02 -8.663063E+03  4.293798E+03  8.390401E+03  6.073384E+03
       175  24 -2.497263E+05  3.572118E+02 -5.122998E+03  1.259942E+04  3.966368E+03  5.052446E+03
       175  25 -4.513025E+05 -5.582514E+04 -6.490428E+04  1.414926E+04  1.261480E+04  6.657421E+03
       175  26 -4.257000E+05 -4.307354E+04 -5.079536E+04  4.520271E+03  7.950011E+03  6.072772E+03
       175  27 -4.025397E+05 -3.750198E+04 -4.152822E+04  1.151288E+04  3.286121E+03  5.051320E+03
       176   1 -1.262807E+05  2.991350E+04  2.518353E+04  1.267767E+04 -3.713893E+03 -4.386116E+03
       176   2 -1.505989E+05  2.448564E+04  2.122196E+04  4.396292E+03 -2.633552E+03 -3.371410E+03
       176   3 -1.752869E+05  1.841350E+04  1.638104E+04  1.283143E+04 -1.553494E+03 -2.326169E+03
       176   4 -2.492738E+05 -5.261054E+02 -3.997169E+03  1.262449E+04 -3.162980E+03 -4.385176E+03
       176   5 -2.490867E+05  1.000279E+02 -2.195589E+03  4.265593E+03 -2.065993E+03 -3.370389E+03
       176   6 -2.492725E+05  7.902332E+01 -1.284937E+03  1.262338E+04 -9.692454E+02 -2.325064E+03
       176   7 -3.722529E+05 -3.096679E+04 -3.317892E+04  1.257132E+04 -2.612175E+03 -4.384235E+03
       176   8 -3.475655E+05 -2.428629E+04 -2.561381E+04  4.134912E+03 -1.498522E+03 -3.369369E+03
       176   9 -3.232531E+05 -1.825585E+04 -1.895130E+04  1.241535E+04 -3.850662E+02 -2.323960E+03
       176  10 -1.262808E+05  2.991347E+04  2.518347E+04  1.267766E+04  8.476744E-11 -2.360599E-09
       176  11 -1.505989E+05  2.448563E+04  2.122192E+04  4.396284E+03 -5.514387E-09 -2.903497E-09
       176  12 -1.752869E+05  1.841349E+04  1.638103E+04  1.283143E+04 -2.565685E-09 -2.506812E-09
       176  13 -2.492738E+05 -5.261287E+02 -3.997224E+03  1.262448E+04  9.725260E-10  1.506135E-09
       176  14 -2.490867E+05  1.000146E+02 -2.195618E+03  4.265588E+03  1.171374E-09 -2.700730E-09
       176  15 -2.492725E+05  7.901726E+01 -1.284949E+03  1.262338E+04  1.326638E-09 -8.658730E-10
       176  16 -3.722529E+05 -3.096682E+04 -3.317897E+04  1.257131E+04 -1.680112E-09 -2.623740E-09
       176  17 -3.475655E+05 -2.428630E+04 -2.561384E+04  4.134908E+03  3.235884E-09  2.183450E-09
       176  18 -3.232531E+05 -1.825585E+04 -1.895131E+04  1.241535E+04  3.691334E-09  4.610017E-09
       176  19 -1.262807E+05  2.991350E+04  2.518353E+04  1.267767E+04  3.713893E+03  4.386116E+03
       176  20 -1.505989E+05  2.448564E+04  2.122196E+04  4.396292E+03  2.633552E+03  3.371410E+03
       176  21 -1.752869E+05  1.841350E+04  1.638104E+04  1.283143E+04  1.553494E+03  2.326169E+03
       176  22 -2.492738E+05 -5.261054E+02 -3.997169E+03  1.262449E+04  3.162980E+03  4.385176E+03
       176  23 -2.490867E+05  1.000279E+02 -2.195589E+03  4.265593E+03  2.065993E+03  3.370389E+03
       176  24 -2.492725E+05  7.902332E+01 -1.284937E+03  1.262338E+04  9.692454E+02  2.325064E+03
       176  25 -3.722529E+05 -3.096679E+04 -3.317892E+04  1.257132E+04  2.612175E+03  4.384235E+03
       176  26 -3.475655E+05 -2.428629E+04 -2.561381E+04  4.134912E+03  1.498522E+03  3.369369E+03
       176  27 -3.232531E+05 -1.825585E+04 -1.895130E+04  1.241535E+04  3.850662E+02  2.323960E+03
       177   1 -2.051798E+05  1.088608E+04  9.402869E+03  1.269934E+04 -1.341879E+03 -1.712922E+03
       177   2 -2.296761E+05  4.851391E+03  4.045932E+03  4.291620E+03 -1.054196E+03 -6.678868E+02
       177   3 -2.542919E+05 -1.190740E+03 -1.517698E+03  1.263677E+04 -7.665679E+02  3.792259E+02
       177   4 -2.492154E+05 -2.825292E+00 -9.941873E+02  1.263185E+04 -7.660253E+02 -1.711813E+03
       177   5 -2.491552E+05  2.808913E+01 -5.858600E+02  4.255345E+03 -4.772254E+02 -6.667660E+02
       177   6 -2.492152E+05  5.139863E+01 -3.849856E+02  1.263174E+04 -1.884697E+02  3.803601E+02
       177   7 -2.932492E+05 -1.089187E+04 -1.139138E+04  1.256436E+04 -1.902124E+02 -1.710703E+03
       177   8 -2.686338E+05 -4.795240E+03 -5.217677E+03  4.219072E+03  9.972675E+01 -6.656452E+02
       177   9 -2.441384E+05  1.293536E+03  7.477267E+02  1.262671E+04  3.896331E+02  3.814944E+02
       177  10 -2.051798E+05  1.088607E+04  9.402860E+03  1.269933E+04 -7.391488E-09 -3.815921E-09
       177  11 -2.296761E+05  4.851391E+03  4.045929E+03  4.291619E+03 -4.143890E-09  2.735271E-09
       177  12 -2.542919E+05 -1.190740E+03 -1.517700E+03  1.263677E+04  6.197598E-09 -8.283989E-10
       177  13 -2.492154E+05 -2.828596E+00 -9.941939E+02  1.263185E+04 -1.139897E-09  9.610667E-10
       177  14 -2.491552E+05  2.808860E+01 -5.858612E+02  4.255345E+03  3.401928E-09 -3.521771E-09
       177  15 -2.492152E+05  5.139846E+01 -3.849860E+02  1.263174E+04  5.351854E-09 -2.287081E-09
       177  16 -2.932492E+05 -1.089187E+04 -1.139138E+04  1.256436E+04  3.559159E-09  1.044672E-09
       177  17 -2.686338E+05 -4.795241E+03 -5.217678E+03  4.219072E+03 -1.102876E-09  3.930888E-09
       177  18 -2.441384E+05  1.293535E+03  7.477261E+02  1.262671E+04 -5.364147E-09 -1.001852E-09
       177  19 -2.051798E+05  1.088608E+04  9.402869E+03  1.269934E+04  1.341879E+03  1.712922E+03
       177  20 -2.296761E+05  4.851391E+03  4.045932E+03  4.291620E+03  1.054196E+03  6.678868E+02
       177  21 -2.542919E+05 -1.190740E+03 -1.517698E+03  1.263677E+04  7.665679E+02 -3.792259E+02
       177  22 -2.492154E+05 -2.825292E+00 -9.941873E+02  1.263185E+04  7.660253E+02  1.711813E+03
       177  23 -2.491552E+05  2.808913E+01 -5.858600E+02  4.255345E+03  4.772254E+02  6.667660E+02
       177  24 -2.492152E+05  5.139863E+01 -3.849856E+02  1.263174E+04  1.884697E+02 -3.803601E+02
       177  25 -2.932492E+05 -1.089187E+04 -1.139138E+04  1.256436E+04  1.902124E+02  1.710703E+03
       177  26 -2.686338E+05 -4.795240E+03 -5.217677E+03  4.219072E+03 -9.972675E+01  6.656452E+02
       177  27 -2.441384E+05  1.293536E+03  7.477267E+02  1.262671E+04 -3.896331E+02 -3.814944E+02
       178   1 -2.842545E+05 -8.646085E+03 -8.739920E+03  1.257754E+04 -7.030766E+02  9.892554E+02
       178   2 -3.087474E+05 -1.473302E+04 -1.446565E+04  4.173908E+03 -5.561043E+02  2.035651E+03
       178   3 -3.333262E+05 -2.078463E+04 -2.029485E+04  1.251120E+04 -4.090112E+02  3.079061E+03
       178   4 -2.492080E+05  4.707812E+01 -3.316638E+02  1.262909E+04 -1.250125E+02  9.903824E+02
       178   5 -2.491650E+05  2.104325E+01 -2.973047E+02  4.258686E+03  2.030824E+01  2.036742E+03
       178   6 -2.492086E+05  3.057389E+01 -3.653196E+02  1.262912E+04  1.657557E+02  3.080120E+03
       178   7 -2.141604E+05  8.740152E+03  8.076507E+03  1.268063E+04  4.530840E+02  9.915095E+02
       178   8 -1.895794E+05  1.477485E+04  1.387080E+04  4.343471E+03  5.967758E+02  2.037834E+03
       178   9 -1.650846E+05  2.084527E+04  1.956372E+04  1.274704E+04  7.406001E+02  3.081179E+03
       178  10 -2.842545E+05 -8.646086E+03 -8.739923E+03  1.257754E+04 -1.064304E-10  4.188314E-10
       178  11 -3.087474E+05 -1.473302E+04 -1.446566E+04  4.173908E+03 -9.376712E-10 -4.969601E-09
       178  12 -3.333262E+05 -2.078464E+04 -2.029487E+04  1.251120E+04 -7.970451E-10 -3.628666E-09
       178  13 -2.492080E+05  4.707706E+01 -3.316657E+02  1.262909E+04  5.175702E-09  2.919523E-09
       178  14 -2.491650E+05  2.103879E+01 -2.973125E+02  4.258686E+03  3.241780E-09 -4.201324E-09
       178  15 -2.492086E+05  3.056369E+01 -3.653375E+02  1.262911E+04  1.254754E-09 -4.462939E-09
       178  16 -2.141604E+05  8.740151E+03  8.076505E+03  1.268063E+04  1.937450E-09 -1.301640E-09
       178  17 -1.895794E+05  1.477485E+04  1.387079E+04  4.343470E+03 -3.151625E-09 -1.077360E-08
       178  18 -1.650846E+05  2.084525E+04  1.956370E+04  1.274704E+04  2.472799E-09 -5.616531E-09
       178  19 -2.842545E+05 -8.646085E+03 -8.739920E+03  1.257754E+04  7.030766E+02 -9.892554E+02
       178  20 -3.087474E+05 -1.473302E+04 -1.446565E+04  4.173908E+03  5.561043E+02 -2.035651E+03
       178  21 -3.333262E+05 -2.078463E+04 -2.029485E+04  1.251120E+04  4.090112E+02 -3.079061E+03
       178  22 -2.492080E+05  4.707812E+01 -3.316638E+02  1.262909E+04  1.250125E+02 -9.903824E+02
       178  23 -2.491650E+05  2.104325E+01 -2.973047E+02  4.258686E+03 -2.030824E+01 -2.036742E+03
       178  24 -2.492086E+05  3.057389E+01 -3.653196E+02  1.262912E+04 -1.657557E+02 -3.080120E+03
       178  25 -2.141604E+05  8.740152E+03  8.076507E+03  1.268063E+04 -4.530840E+02 -9.915095E+02
       178  26 -1.895794E+05  1.477485E+04  1.387080E+04  4.343471E+03 -5.967758E+02 -2.037834E+03
       178  27 -1.650846E+05  2.084527E+04  1.956372E+04  1.274704E+04 -7.406001E+02 -3.081179E+03
       179   1 -3.632398E+05 -2.819399E+04 -2.762080E+04  1.242600E+04 -3.478528E+02  3.691689E+03
       179   2 -3.876138E+05 -3.425028E+04 -3.360802E+04  4.095833E+03  1.012197E+01  4.733439E+03
       179   3 -4.121285E+05 -4.046110E+04 -3.987937E+04  1.244122E+04  3.684320E+02  5.740203E+03
       179   4 -2.492216E+05  5.554829E+01 -4.331991E+02  1.261444E+04  2.362427E+02  3.692729E+03
       179   5 -2.491535E+05  3.745563E+01 -6.814462E+02  4.276936E+03  5.749766E+02  4.734371E+03
       179   6 -2.492231E+05 -1.316548E+02 -1.200273E+03  1.261476E+04  9.140595E+02  5.741033E+03
       179   7 -1.351914E+05  2.830415E+04  2.675349E+04  1.280291E+04  8.204450E+02  3.693770E+03
       179   8 -1.106757E+05  3.432381E+04  3.224379E+04  4.458073E+03  1.139957E+03  4.735304E+03
       179   9 -8.629320E+04  4.019588E+04  3.747698E+04  1.278834E+04  1.459829E+03  5.741863E+03
       179  10 -3.632398E+05 -2.819401E+04 -2.762082E+04  1.242600E+04 -5.185763E-09 -1.452174E-09
       179  11 -3.876138E+05 -3.425030E+04 -3.360806E+04  4.095833E+03 -8.103393E-09 -6.271211E-09
       179  12 -4.121285E+05 -4.046113E+04 -3.987943E+04  1.244122E+04  6.843397E-10 -3.581310E-09
       179  13 -2.492216E+05  5.553364E+01 -4.332248E+02  1.261444E+04 -1.159234E-09 -6.542460E-10
       179  14 -2.491535E+05  3.743147E+01 -6.814890E+02  4.276934E+03 -3.232214E-09 -7.019309E-10
       179  15 -2.492231E+05 -1.316904E+02 -1.200336E+03  1.261476E+04 -2.844875E-09  6.470690E-10
       179  16 -1.351914E+05  2.830413E+04  2.675346E+04  1.280290E+04  2.737769E-09  2.098599E-09
       179  17 -1.106757E+05  3.432379E+04  3.224375E+04  4.458068E+03  2.625718E-09 -1.811025E-09
       179  18 -8.629321E+04  4.019584E+04  3.747691E+04  1.278833E+04 -7.178237E-10  3.401101E-09
       179  19 -3.632398E+05 -2.819399E+04 -2.762080E+04  1.242600E+04  3.478528E+02 -3.691689E+03
       179  20 -3.876138E+05 -3.425028E+04 -3.360802E+04  4.095833E+03 -1.012197E+01 -4.733439E+03
       179  21 -4.121285E+05 -4.046110E+04 -3.987937E+04  1.244122E+04 -3.684320E+02 -5.740203E+03
       179  22 -2.492216E+05  5.554829E+01 -4.331991E+02  1.261444E+04 -2.362427E+02 -3.692729E+03
       179  23 -2.491535E+05  3.745563E+01 -6.814462E+02  4.276936E+03 -5.749766E+02 -4.734371E+03
       179  24 -2.492231E+05 -1.316548E+02 -1.200273E+03  1.261476E+04 -9.140595E+02 -5.741033E+03
       179  25 -1.351914E+05  2.830415E+04  2.675349E+04  1.280291E+04 -8.204450E+02 -3.693770E+03
       179  26 -1.106757E+05  3.432381E+04  3.224379E+04  4.458073E+03 -1.139957E+03 -4.735304E+03
       179  27 -8.629320E+04  4.019588E+04  3.747698E+04  1.278834E+04 -1.459829E+03 -5.741863E+03
       180   1 -4.420029E+05 -4.759101E+04 -4.740532E+04  1.208592E+04  4.614289E+02  6.412392E+03
       180   2 -4.659099E+05 -5.347862E+04 -5.415758E+04  4.196714E+03  2.046697E+03  7.421543E+03
       180   3 -4.905720E+05 -6.148816E+04 -6.247736E+04  1.286137E+04  3.633022E+03  7.936010E+03
       180   4 -2.493527E+05  1.312510E+02 -1.527614E+03  1.258663E+04  1.153451E+03  6.413401E+03
       180   5 -2.489999E+05  2.377711E+02 -2.573889E+03  4.311231E+03  2.466225E+03  7.422009E+03
       180   6 -2.493553E+05 -1.729840E+03 -4.997952E+03  1.258935E+04  3.780118E+03  7.936009E+03
       180   7 -5.666833E+04  4.785084E+04  4.434749E+04  1.308749E+04  1.845686E+03  6.414411E+03
       180   8 -3.204673E+04  5.395077E+04  4.900651E+04  4.425773E+03  2.885899E+03  7.422474E+03
       180   9 -8.085059E+03  5.802428E+04  5.247738E+04  1.231721E+04  3.927271E+03  7.936008E+03
       180  10 -4.420029E+05 -4.759106E+04 -4.740539E+04  1.208592E+04  2.252587E-09 -8.451130E-10
       180  11 -4.659099E+05 -5.347868E+04 -5.415769E+04  4.196701E+03 -4.425819E-09  3.406614E-09
       180  12 -4.905721E+05 -6.148823E+04 -6.247751E+04  1.286134E+04 -1.655475E-09 -2.712626E-09
       180  13 -2.493527E+05  1.312065E+02 -1.527694E+03  1.258663E+04 -1.100663E-09 -3.589695E-09
       180  14 -2.489999E+05  2.377103E+02 -2.574004E+03  4.311217E+03 -1.353594E-09  2.864035E-09
       180  15 -2.493553E+05 -1.729911E+03 -4.998097E+03  1.258933E+04  9.051561E-10 -9.513897E-10
       180  16 -5.666835E+04  4.785079E+04  4.434740E+04  1.308748E+04 -1.273475E-09 -3.027803E-09
       180  17 -3.204675E+04  5.395070E+04  4.900639E+04  4.425755E+03  4.696076E-10 -8.840499E-09
       180  18 -8.085092E+03  5.802421E+04  5.247723E+04  1.231718E+04  2.347565E-09 -7.865163E-11
       180  19 -4.420029E+05 -4.759101E+04 -4.740532E+04  1.208592E+04 -4.614289E+02 -6.412392E+03
       180  20 -4.659099E+05 -5.347862E+04 -5.415758E+04  4.196714E+03 -2.046697E+03 -7.421543E+03
       180  21 -4.905720E+05 -6.148816E+04 -6.247736E+04  1.286137E+04 -3.633022E+03 -7.936010E+03
       180  22 -2.493527E+05  1.312510E+02 -1.527614E+03  1.258663E+04 -1.153451E+03 -6.413401E+03
       180  23 -2.489999E+05  2.377711E+02 -2.573889E+03  4.311231E+03 -2.466225E+03 -7.422009E+03
       180  24 -2.493553E+05 -1.729840E+03 -4.997952E+03  1.258935E+04 -3.780118E+03 -7.936009E+03
       180  25 -5.666833E+04  4.785084E+04  4.434749E+04  1.308749E+04 -1.845686E+03 -6.414411E+03
       180  26 -3.204673E+04  5.395077E+04  4.900651E+04  4.425773E+03 -2.885899E+03 -7.422474E+03
       180  27 -8.085059E+03  5.802428E+04  5.247738E+04  1.231721E+04 -3.927271E+03 -7.936008E+03
       181   1 -5.213101E+05 -6.607122E+04 -7.043581E+04  9.765319E+03  2.372471E+03  9.539125E+03
       181   2 -5.420736E+05 -7.066787E+04 -7.993522E+04  5.945276E+03  1.175594E+04  1.012968E+04
       181   3 -5.695665E+05 -9.742546E+04 -1.010807E+05  1.833318E+04  2.114648E+04  3.370544E+03
       181   4 -2.505399E+05  9.744664E+02 -6.138389E+03  1.250428E+04  4.720146E+03  9.541977E+03
       181   5 -2.475310E+05  2.269200E+03 -9.902291E+03  4.410502E+03  1.005170E+04  1.012735E+04
       181   6 -2.505452E+05 -1.788766E+04 -2.249393E+04  1.252446E+04  1.539080E+04  3.364438E+03
       181   7  2.029759E+04  6.801490E+04  5.815394E+04  1.524443E+04  7.068841E+03  9.544849E+03
       181   8  4.709127E+04  7.520002E+04  6.012458E+04  2.874972E+03  8.346656E+03  1.012502E+04
       181   9  6.856879E+04  6.164270E+04  5.608544E+04  6.712732E+03  9.632166E+03  3.358441E+03
       181  10 -5.213101E+05 -6.607131E+04 -7.043599E+04  9.765301E+03 -6.328897E-09 -1.646024E-09
       181  11 -5.420738E+05 -7.066801E+04 -7.993567E+04  5.945180E+03 -5.028287E-10 -1.561563E-09
       181  12 -5.695669E+05 -9.742559E+04 -1.010815E+05  1.833312E+04  6.770672E-09  1.088342E-09
       181  13 -2.505400E+05  9.743627E+02 -6.138602E+03  1.250425E+04  7.059345E-10 -1.673069E-09
       181  14 -2.475312E+05  2.269062E+03 -9.902673E+03  4.410420E+03  2.143411E-09 -2.229191E-10
       181  15 -2.505455E+05 -1.788774E+04 -2.249439E+04  1.252442E+04 -2.198998E-09  5.293206E-10
       181  16  2.029752E+04  6.801479E+04  5.815367E+04  1.524437E+04  6.856998E-09  8.545355E-10
       181  17  4.709117E+04  7.519989E+04  6.012426E+04  2.874903E+03 -2.899254E-09  2.287994E-09
       181  18  6.856869E+04  6.164266E+04  5.608525E+04  6.712706E+03 -7.871408E-09  4.863592E-10
       181  19 -5.213101E+05 -6.607122E+04 -7.043581E+04  9.765319E+03 -2.372471E+03 -9.539125E+03
       181  20 -5.420736E+05 -7.066787E+04 -7.993522E+04  5.945276E+03 -1.175594E+04 -1.012968E+04
       181  21 -5.695665E+05 -9.742546E+04 -1.010807E+05  1.833318E+04 -2.114648E+04 -3.370544E+03
       181  22 -2.505399E+05  9.744664E+02 -6.138389E+03  1.250428E+04 -4.720146E+03 -9.541977E+03
       181  23 -2.475310E+05  2.269200E+03 -9.902291E+03  4.410502E+03 -1.005170E+04 -1.012735E+04
       181  24 -2.505452E+05 -1.788766E+04 -2.249393E+04  1.252446E+04 -1.539080E+04 -3.364438E+03
       181  25  2.029759E+04  6.801490E+04  5.815394E+04  1.524443E+04 -7.068841E+03 -9.544849E+03
       181  26  4.709127E+04  7.520002E+04  6.012458E+04  2.874972E+03 -8.346656E+03 -1.012502E+04
       181  27  6.856879E+04  6.164270E+04  5.608544E+04  6.712732E+03 -9.632166E+03 -3.358441E+03
       182   1 -2.155465E+05 -7.911575E+05 -2.120663E+05  1.796561E+05 -8.669153E+03 -6.318176E+04
       182   2 -1.425698E+05 -6.051942E+05 -1.320940E+05  1.468725E+05 -2.595983E+04 -2.688915E+04
       182   3 -9.372043E+04 -4.298027E+05 -8.178587E+04  1.598930E+05 -2.354946E+04  9.437219E+03
       182   4 -2.888939E+04 -3.841520E+04 -3.209305E+04  1.622967E+05 -8.700476E+03 -2.354202E+04
       182   5 -5.050884E+03 -3.558705E+04 -1.439564E+04  1.394059E+05 -2.596580E+04 -1.605219E+04
       182   6 -3.217176E+02 -3.834891E+04 -6.335790E+03  1.623199E+05 -2.353716E+04 -8.540258E+03
       182   7  1.577286E+05  7.148509E+05  1.478463E+05  1.449162E+05 -8.734002E+03  1.614563E+04
       182   8  1.324477E+05  5.343283E+05  1.032857E+05  1.319323E+05 -2.597203E+04 -5.205453E+03
       182   9  9.306809E+04  3.532531E+05  6.910841E+04  1.647483E+05 -2.352501E+04 -2.652882E+04
       182  10 -2.155476E+05 -7.911618E+05 -2.120739E+05  1.796557E+05  4.823551E-10  4.556548E-09
       182  11 -1.425707E+05 -6.051951E+05 -1.320967E+05  1.468720E+05  4.105381E-10  2.581554E-09
       182  12 -9.372105E+04 -4.298030E+05 -8.178708E+04  1.598932E+05  9.004857E-10 -4.077995E-09
       182  13 -2.888962E+04 -3.841582E+04 -3.209424E+04  1.622965E+05  1.473900E-09  1.353638E-09
       182  14 -5.051677E+03 -3.558751E+04 -1.439739E+04  1.394055E+05  1.816205E-09 -1.637793E-09
       182  15 -3.223320E+02 -3.834913E+04 -6.336968E+03  1.623197E+05  1.167634E-09  1.496354E-09
       182  16  1.577284E+05  7.148506E+05  1.478456E+05  1.449163E+05 -3.871553E-11 -6.575586E-09
       182  17  1.324470E+05  5.343281E+05  1.032844E+05  1.319322E+05  9.363141E-10 -9.231726E-10
       182  18  9.306731E+04  3.532522E+05  6.910605E+04  1.647478E+05  5.256579E-09  4.254522E-09
       182  19 -2.155465E+05 -7.911575E+05 -2.120663E+05  1.796561E+05  8.669153E+03  6.318176E+04
       182  20 -1.425698E+05 -6.051942E+05 -1.320940E+05  1.468725E+05  2.595983E+04  2.688915E+04
       182  21 -9.372043E+04 -4.298027E+05 -8.178587E+04  1.598930E+05  2.354946E+04 -9.437219E+03
       182  22 -2.888939E+04 -3.841520E+04 -3.209305E+04  1.622967E+05  8.700476E+03  2.354202E+04
       182  23 -5.050884E+03 -3.558705E+04 -1.439564E+04  1.394059E+05  2.596580E+04  1.605219E+04
       182  24 -3.217176E+02 -3.834891E+04 -6.335790E+03  1.623199E+05  2.353716E+04  8.540258E+03
       182  25  1.577286E+05  7.148509E+05  1.478463E+05  1.449162E+05  8.734002E+03 -1.614563E+04
       182  26  1.324477E+05  5.343283E+05  1.032857E+05  1.319323E+05  2.597203E+04  5.205453E+03
       182  27  9.306809E+04  3.532531E+05  6.910841E+04  1.647483E+05  2.352501E+04  2.652882E+04
       183   1 -6.555817E+04 -3.058977E+05 -5.531886E+04  1.627274E+05 -1.621293E+04  6.912568E+03
       183   2 -2.107514E+04 -1.254370E+05 -1.449709E+04  1.393213E+05 -5.953869E+03  6.433009E+03
       183   3  2.370501E+04  5.529704E+04  2.673361E+04  1.628573E+05  4.618597E+03  5.952775E+03
       183   4 -1.414409E+03 -3.701912E+04 -3.534457E+03  1.625676E+05 -1.620388E+04 -7.873859E+03
       183   5 -1.415300E+02 -3.717524E+04  1.899299E+03  1.390976E+05 -5.945059E+03 -8.813552E+03
       183   6  1.510408E+03 -3.700861E+04  8.062969E+03  1.625692E+05  4.627064E+03 -9.753790E+03
       183   7  6.272518E+04  2.319295E+05  4.824742E+04  1.624077E+05 -1.619482E+04 -2.266654E+04
       183   8  2.079176E+04  5.109454E+04  1.829623E+04  1.388739E+05 -5.936239E+03 -2.406223E+04
       183   9 -2.068459E+04 -1.293056E+05 -1.060719E+04  1.622812E+05  4.635546E+03 -2.545806E+04
       183  10 -6.555847E+04 -3.058978E+05 -5.531944E+04  1.627275E+05  3.425168E-10  3.712296E-09
       183  11 -2.107519E+04 -1.254370E+05 -1.449724E+04  1.393214E+05  2.772995E-09  2.746012E-09
       183  12  2.370498E+04  5.529700E+04  2.673350E+04  1.628573E+05  1.043883E-09 -2.840085E-09
       183  13 -1.414707E+03 -3.701925E+04 -3.535067E+03  1.625675E+05 -6.361800E-10  2.369465E-09
       183  14 -1.415888E+02 -3.717533E+04  1.899086E+03  1.390976E+05  3.319189E-09 -1.234879E-09
       183  15  1.510360E+03 -3.700872E+04  8.062750E+03  1.625693E+05 -2.803418E-09  1.019451E-09
       183  16  6.272476E+04  2.319289E+05  4.824596E+04  1.624074E+05  2.590614E-09 -4.627523E-09
       183  17  2.079156E+04  5.109391E+04  1.829508E+04  1.388737E+05  2.234725E-09 -1.579992E-09
       183  18 -2.068478E+04 -1.293063E+05 -1.060845E+04  1.622813E+05 -9.504183E-10  1.754223E-09
       183  19 -6.555817E+04 -3.058977E+05 -5.531886E+04  1.627274E+05  1.621293E+04 -6.912568E+03
       183  20 -2.107514E+04 -1.254370E+05 -1.449709E+04  1.393213E+05  5.953869E+03 -6.433009E+03
       183  21  2.370501E+04  5.529704E+04  2.673361E+04  1.628573E+05 -4.618597E+03 -5.952775E+03
       183  22 -1.414409E+03 -3.701912E+04 -3.534457E+03  1.625676E+05  1.620388E+04  7.873859E+03
       183  23 -1.415300E+02 -3.717524E+04  1.899299E+03  1.390976E+05  5.945059E+03  8.813552E+03
       183  24  1.510408E+03 -3.700861E+04  8.062969E+03  1.625692E+05 -4.627064E+03  9.753790E+03
       183  25  6.272518E+04  2.319295E+05  4.824742E+04  1.624077E+05  1.619482E+04  2.266654E+04
       183  26  2.079176E+04  5.109454E+04  1.829623E+04  1.388739E+05  5.936239E+03  2.406223E+04
       183  27 -2.068459E+04 -1.293056E+05 -1.060719E+04  1.622812E+05 -4.635546E+03  2.545806E+04
       184   1  5.126796E+04  1.796605E+05  5.387748E+04  1.583557E+05  1.200320E+04  6.936696E+03
       184   2  1.021872E+05  3.539943E+05  1.053414E+05  1.500971E+05  1.670684E+04 -2.746801E+04
       184   3  1.861452E+05  5.412206E+05  1.874806E+05  1.879605E+05  6.040650E+03 -6.189774E+04
       184   4 -1.333062E+02 -3.509503E+04  1.163653E+04  1.623799E+05  1.201363E+04 -1.117251E+04
       184   5  7.007861E+03 -3.960096E+04  2.287405E+04  1.393362E+05  1.670525E+04 -2.306146E+04
       184   6  4.329401E+04 -3.513963E+04  4.916369E+04  1.624119E+05  6.024228E+03 -3.496531E+04
       184   7 -5.153713E+04 -2.498057E+05 -3.060541E+04  1.664027E+05  1.202382E+04 -2.927558E+04
       184   8 -8.818095E+04 -4.330495E+05 -5.960176E+04  1.285821E+05  1.670350E+04 -1.865765E+04
       184   9 -9.957842E+04 -6.111929E+05 -8.917367E+04  1.368872E+05  6.005586E+03 -8.057753E+03
       184  10  5.126779E+04  1.796604E+05  5.387712E+04  1.583556E+05  2.612069E-09  1.438919E-09
       184  11  1.021867E+05  3.539934E+05  1.053394E+05  1.500975E+05  2.962501E-09  1.758778E-09
       184  12  1.861441E+05  5.412165E+05  1.874733E+05  1.879608E+05  1.251937E-09 -2.379881E-09
       184  13 -1.334947E+02 -3.509521E+04  1.163603E+04  1.623800E+05 -2.840448E-09  1.758783E-09
       184  14  7.007418E+03 -3.960160E+04  2.287253E+04  1.393365E+05 -2.147410E-09 -1.952005E-09
       184  15  4.329364E+04 -3.514095E+04  4.916132E+04  1.624121E+05  1.523652E-10  1.399021E-09
       184  16 -5.153751E+04 -2.498067E+05 -3.060730E+04  1.664030E+05 -7.746636E-11 -2.319656E-09
       184  17 -8.818134E+04 -4.330499E+05 -5.960294E+04  1.285824E+05  2.352728E-09 -1.807829E-09
       184  18 -9.957848E+04 -6.111929E+05 -8.917386E+04  1.368873E+05 -4.619654E-10  2.491165E-09
       184  19  5.126796E+04  1.796605E+05  5.387748E+04  1.583557E+05 -1.200320E+04 -6.936696E+03
       184  20  1.021872E+05  3.539943E+05  1.053414E+05  1.500971E+05 -1.670684E+04  2.746801E+04
       184  21  1.861452E+05  5.412206E+05  1.874806E+05  1.879605E+05 -6.040650E+03  6.189774E+04
       184  22 -1.333062E+02 -3.509503E+04  1.163653E+04  1.623799E+05 -1.201363E+04  1.117251E+04
       184  23  7.007861E+03 -3.960096E+04  2.287405E+04  1.393362E+05 -1.670525E+04  2.306146E+04
       184  24  4.329401E+04 -3.513963E+04  4.916369E+04  1.624119E+05 -6.024228E+03  3.496531E+04
       184  25 -5.153713E+04 -2.498057E+05 -3.060541E+04  1.664027E+05 -1.202382E+04  2.927558E+04
       184  26 -8.818095E+04 -4.330495E+05 -5.960176E+04  1.285821E+05 -1.670350E+04  1.865765E+04
       184  27 -9.957842E+04 -6.111929E+05 -8.917367E+04  1.368872E+05 -6.005586E+03  8.057753E+03
       185   1  5.960792E+05  2.145117E+05  1.275147E+05  2.182121E+05  5.328318E+04  1.643060E+04
       185   2  5.777701E+05  1.416024E+05  7.976512E+04  2.139719E+05  3.446897E+04  1.570759E+03
       185   3  5.764244E+05  1.256682E+05  6.204030E+04  2.027658E+05  1.326488E+04 -6.936033E+03
       185   4  3.892590E+05  1.128163E+05  6.782931E+04  1.372242E+05  4.451227E+04  1.312680E+04
       185   5  3.776396E+05  5.881064E+04  2.945435E+04  1.505234E+05  3.127475E+04  3.674557E+02
       185   6  3.818858E+05  6.068520E+04  1.669439E+04  1.568550E+05  1.564632E+04 -6.039449E+03
       185   7  1.824853E+05  1.113503E+04  8.141150E+03  5.626505E+04  3.574470E+04  9.825110E+03
       185   8  1.775499E+05 -2.397532E+04 -2.085929E+04  8.709465E+04  2.808167E+04 -8.353152E+02
       185   9  1.873833E+05 -4.297392E+03 -2.865444E+04  1.109561E+05  1.802696E+04 -5.143093E+03
       185  10  5.960761E+05  2.145106E+05  1.275089E+05  2.182114E+05 -2.540491E-09 -1.083243E-09
       185  11  5.777688E+05  1.416021E+05  7.976288E+04  2.139719E+05  2.670050E-09  4.463731E-09
       185  12  5.764242E+05  1.256681E+05  6.203988E+04  2.027659E+05  7.200023E-09 -1.433077E-09
       185  13  3.892569E+05  1.128156E+05  6.782526E+04  1.372238E+05 -2.447355E-09  7.681300E-10
       185  14  3.776386E+05  5.881038E+04  2.945251E+04  1.505234E+05 -3.632604E-09  1.660119E-10
       185  15  3.818855E+05  6.068509E+04  1.669386E+04  1.568551E+05 -2.264639E-09  5.421477E-09
       185  16  1.824839E+05  1.113458E+04  8.138569E+03  5.626477E+04  9.562148E-10 -1.631206E-09
       185  17  1.775490E+05 -2.397553E+04 -2.086078E+04  8.709467E+04 -5.788970E-09 -4.270879E-11
       185  18  1.873829E+05 -4.297508E+03 -2.865510E+04  1.109562E+05 -4.184296E-09 -6.294495E-10
       185  19  5.960792E+05  2.145117E+05  1.275147E+05  2.182121E+05 -5.328318E+04 -1.643060E+04
       185  20  5.777701E+05  1.416024E+05  7.976512E+04  2.139719E+05 -3.446897E+04 -1.570759E+03
       185  21  5.764244E+05  1.256682E+05  6.204030E+04  2.027658E+05 -1.326488E+04  6.936033E+03
       185  22  3.892590E+05  1.128163E+05  6.782931E+04  1.372242E+05 -4.451227E+04 -1.312680E+04
       185  23  3.776396E+05  5.881064E+04  2.945435E+04  1.505234E+05 -3.127475E+04 -3.674557E+02
       185  24  3.818858E+05  6.068520E+04  1.669439E+04  1.568550E+05 -1.564632E+04  6.039449E+03
       185  25  1.824853E+05  1.113503E+04  8.141150E+03  5.626505E+04 -3.574470E+04 -9.825110E+03
       185  26  1.775499E+05 -2.397532E+04 -2.085929E+04  8.709465E+04 -2.808167E+04  8.353152E+02
       185  27  1.873833E+05 -4.297392E+03 -2.865444E+04  1.109561E+05 -1.802696E+04  5.143093E+03
       186   1  5.534816E+05  1.314895E+05  5.532788E+04  2.027050E+05  1.258958E+04 -5.812337E+03
       186   2  5.384957E+05  1.187006E+05  4.460130E+04  1.951362E+05  8.632125E+03 -6.519404E+03
       186   3  5.197627E+05  1.144663E+05  3.747296E+04  1.930640E+05  4.568644E+03 -6.945117E+03
       186   4  3.797182E+05  6.569918E+04  1.321870E+04  1.537732E+05  1.306601E+04 -5.633170E+03
       186   5  3.814028E+05  5.993252E+04  6.799137E+03  1.515958E+05  9.356270E+03 -6.246847E+03
       186   6  3.792914E+05  6.267185E+04  3.782365E+03  1.549147E+05  5.540388E+03 -6.579183E+03
       186   7  2.059846E+05 -8.875350E+01 -2.889271E+04  1.048540E+05  1.354230E+04 -5.454061E+03
       186   8  2.243348E+05  1.166389E+03 -3.100472E+04  1.080655E+05  1.008021E+04 -5.974367E+03
       186   9  2.388404E+05  1.087901E+04 -2.990946E+04  1.167734E+05  6.511886E+03 -6.213339E+03
       186  10  5.534814E+05  1.314894E+05  5.532751E+04  2.027051E+05  5.090595E-09 -5.230776E-10
       186  11  5.384956E+05  1.187006E+05  4.460108E+04  1.951362E+05  1.973594E-10 -3.099234E-09
       186  12  5.197627E+05  1.144662E+05  3.747283E+04  1.930640E+05 -1.443646E-09  1.164859E-09
       186  13  3.797180E+05  6.569910E+04  1.321832E+04  1.537733E+05  4.586893E-10 -6.438376E-10
       186  14  3.814027E+05  5.993246E+04  6.798899E+03  1.515958E+05 -2.156811E-09  6.821035E-09
       186  15  3.792914E+05  6.267180E+04  3.782226E+03  1.549147E+05 -5.061045E-09  5.477694E-10
       186  16  2.059844E+05 -8.883468E+01 -2.889311E+04  1.048540E+05 -3.808570E-09 -3.162203E-09
       186  17  2.243347E+05  1.166323E+03 -3.100498E+04  1.080655E+05 -8.664531E-10 -3.687431E-09
       186  18  2.388404E+05  1.087896E+04 -2.990961E+04  1.167734E+05 -8.213765E-10  3.513508E-09
       186  19  5.534816E+05  1.314895E+05  5.532788E+04  2.027050E+05 -1.258958E+04  5.812337E+03
       186  20  5.384957E+05  1.187006E+05  4.460130E+04  1.951362E+05 -8.632125E+03  6.519404E+03
       186  21  5.197627E+05  1.144663E+05  3.747296E+04  1.930640E+05 -4.568644E+03  6.945117E+03
       186  22  3.797182E+05  6.569918E+04  1.321870E+04  1.537732E+05 -1.306601E+04  5.633170E+03
       186  23  3.814028E+05  5.993252E+04  6.799137E+03  1.515958E+05 -9.356270E+03  6.246847E+03
       186  24  3.792914E+05  6.267185E+04  3.782365E+03  1.549147E+05 -5.540388E+03  6.579183E+03
       186  25  2.059846E+05 -8.875350E+01 -2.889271E+04  1.048540E+05 -1.354230E+04  5.454061E+03
       186  26  2.243348E+05  1.166389E+03 -3.100472E+04  1.080655E+05 -1.008021E+04  5.974367E+03
       186  27  2.388404E+05  1.087901E+04 -2.990946E+04  1.167734E+05 -6.511886E+03  6.213339E+03
       187   1  5.048453E+05  1.097489E+05  3.301918E+04  1.893327E+05  3.885104E+03 -6.485763E+03
       187   2  4.903322E+05  1.005061E+05  2.765457E+04  1.815744E+05  2.706010E+03 -5.770931E+03
       187   3  4.706144E+05  9.684814E+04  2.293397E+04  1.799344E+05  1.522632E+03 -5.045177E+03
       187   4  3.791101E+05  6.294521E+04  2.879386E+03  1.547058E+05  4.770191E+03 -6.152420E+03
       187   5  3.817030E+05  6.007625E+04  1.573733E+03  1.516761E+05  3.600853E+03 -5.433836E+03
       187   6  3.790893E+05  6.279046E+04  9.045677E+02  1.547646E+05  2.427211E+03 -4.704337E+03
       187   7  2.533900E+05  1.614242E+04 -2.726174E+04  1.200851E+05  5.655087E+03 -5.819149E+03
       187   8  2.730852E+05  1.964718E+04 -2.450804E+04  1.217824E+05  4.495529E+03 -5.096804E+03
       187   9  2.875724E+05  2.873336E+04 -2.112545E+04  1.295982E+05  3.331645E+03 -4.363551E+03
       187  10  5.048452E+05  1.097488E+05  3.301908E+04  1.893327E+05  7.518347E-09  2.089130E-09
       187  11  4.903322E+05  1.005060E+05  2.765449E+04  1.815744E+05  5.325403E-09  1.138154E-09
       187  12  4.706144E+05  9.684811E+04  2.293391E+04  1.799344E+05  5.952790E-09  6.173350E-09
       187  13  3.791101E+05  6.294517E+04  2.879272E+03  1.547058E+05 -2.411224E-09  6.658128E-10
       187  14  3.817030E+05  6.007622E+04  1.573653E+03  1.516761E+05  5.521869E-09 -2.771006E-09
       187  15  3.790893E+05  6.279043E+04  9.045151E+02  1.547646E+05 -8.532569E-10  3.918357E-09
       187  16  2.533899E+05  1.614238E+04 -2.726186E+04  1.200851E+05 -1.206094E-08 -2.078548E-09
       187  17  2.730851E+05  1.964715E+04 -2.450813E+04  1.217824E+05 -5.185624E-09 -2.573631E-09
       187  18  2.875724E+05  2.873333E+04 -2.112550E+04  1.295982E+05 -4.583945E-09 -4.732055E-10
       187  19  5.048453E+05  1.097489E+05  3.301918E+04  1.893327E+05 -3.885104E+03  6.485763E+03
       187  20  4.903322E+05  1.005061E+05  2.765457E+04  1.815744E+05 -2.706010E+03  5.770931E+03
       187  21  4.706144E+05  9.684814E+04  2.293397E+04  1.799344E+05 -1.522632E+03  5.045177E+03
       187  22  3.791101E+05  6.294521E+04  2.879386E+03  1.547058E+05 -4.770191E+03  6.152420E+03
       187  23  3.817030E+05  6.007625E+04  1.573733E+03  1.516761E+05 -3.600853E+03  5.433836E+03
       187  24  3.790893E+05  6.279046E+04  9.045677E+02  1.547646E+05 -2.427211E+03  4.704337E+03
       187  25  2.533900E+05  1.614242E+04 -2.726174E+04  1.200851E+05 -5.655087E+03  5.819149E+03
       187  26  2.730852E+05  1.964718E+04 -2.450804E+04  1.217824E+05 -4.495529E+03  5.096804E+03
       187  27  2.875724E+05  2.873336E+04 -2.112545E+04  1.295982E+05 -3.331645E+03  4.363551E+03
       188   1  4.562895E+05  9.153865E+04  1.919011E+04  1.760124E+05  1.168321E+03 -4.494397E+03
       188   2  4.418955E+05  8.251185E+04  1.492022E+04  1.682613E+05  5.460353E+02 -3.557382E+03
       188   3  4.221737E+05  7.886631E+04  1.082896E+04  1.666241E+05 -7.618097E+01 -2.620762E+03
       188   4  3.790703E+05  6.279832E+04  7.088519E+02  1.547440E+05  2.068072E+03 -4.155341E+03
       188   5  3.817345E+05  6.010594E+04  4.739434E+02  1.516878E+05  1.445468E+03 -3.218406E+03
       188   6  3.790706E+05  6.279494E+04  4.179347E+02  1.547457E+05  8.229229E+02 -2.281867E+03
       188   7  3.018574E+05  3.405855E+04 -1.777273E+04  1.334781E+05  2.967697E+03 -3.816332E+03
       188   8  3.215771E+05  3.770028E+04 -1.397260E+04  1.351159E+05  2.344805E+03 -2.879467E+03
       188   9  3.359691E+05  4.672363E+04 -9.993287E+03  1.428679E+05  1.721963E+03 -1.942996E+03
       188  10  4.562895E+05  9.153863E+04  1.919007E+04  1.760124E+05 -8.415215E-09 -1.370391E-09
       188  11  4.418955E+05  8.251184E+04  1.492020E+04  1.682613E+05 -6.001661E-09  1.211892E-09
       188  12  4.221737E+05  7.886630E+04  1.082895E+04  1.666241E+05  3.836548E-10 -2.912586E-09
       188  13  3.790703E+05  6.279830E+04  7.088114E+02  1.547440E+05 -3.053657E-10  6.862660E-09
       188  14  3.817345E+05  6.010593E+04  4.739200E+02  1.516878E+05 -2.150546E-09  7.632367E-09
       188  15  3.790706E+05  6.279494E+04  4.179236E+02  1.547457E+05  2.534249E-09 -7.080479E-09
       188  16  3.018573E+05  3.405853E+04 -1.777278E+04  1.334782E+05  8.641064E-09  4.604044E-09
       188  17  3.215771E+05  3.770027E+04 -1.397262E+04  1.351159E+05  6.977068E-09  2.012585E-09
       188  18  3.359691E+05  4.672362E+04 -9.993300E+03  1.428679E+05  3.648574E-10  1.599409E-09
       188  19  4.562895E+05  9.153865E+04  1.919011E+04  1.760124E+05 -1.168321E+03  4.494397E+03
       188  20  4.418955E+05  8.251185E+04  1.492022E+04  1.682613E+05 -5.460353E+02  3.557382E+03
       188  21  4.221737E+05  7.886631E+04  1.082896E+04  1.666241E+05  7.618097E+01  2.620762E+03
       188  22  3.790703E+05  6.279832E+04  7.088519E+02  1.547440E+05 -2.068072E+03  4.155341E+03
       188  23  3.817345E+05  6.010594E+04  4.739434E+02  1.516878E+05 -1.445468E+03  3.218406E+03
       188  24  3.790706E+05  6.279494E+04  4.179347E+02  1.547457E+05 -8.229229E+02  2.281867E+03
       188  25  3.018574E+05  3.405855E+04 -1.777273E+04  1.334781E+05 -2.967697E+03  3.816332E+03
       188  26  3.215771E+05  3.770028E+04 -1.397260E+04  1.351159E+05 -2.344805E+03  2.879467E+03
       188  27  3.359691E+05  4.672363E+04 -9.993287E+03  1.428679E+05 -1.721963E+03  1.942996E+03
       189   1  4.079307E+05  7.354121E+04  7.316110E+03  1.627091E+05 -3.722668E+02 -2.051085E+03
       189   2  3.935555E+05  6.453189E+04  3.466757E+03  1.549688E+05 -1.068488E+03 -1.143548E+03
       189   3  3.738720E+05  6.090235E+04 -1.473428E+02  1.533340E+05 -1.764506E+03 -2.365194E+02
       189   4  3.790749E+05  6.279332E+04  4.446106E+02  1.547443E+05  5.262761E+02 -1.712384E+03
       189   5  3.817298E+05  6.010727E+04  6.235135E+02  1.516902E+05 -1.704071E+02 -8.050153E+02
       189   6  3.790761E+05  6.280102E+04  1.038015E+03  1.547414E+05 -8.668943E+02  1.018429E+02
       189   7  3.502200E+05  5.204549E+04 -6.426944E+03  1.467798E+05  1.424773E+03 -1.373701E+03
       189   8  3.699043E+05  5.568267E+04 -2.219728E+03  1.484116E+05  7.276532E+02 -4.664904E+02
       189   9  3.842802E+05  6.469969E+04  2.223367E+03  1.561488E+05  3.072064E+01  4.402064E+02
       189  10  4.079307E+05  7.354120E+04  7.316102E+03  1.627091E+05 -1.057833E-09 -5.692921E-09
       189  11  3.935555E+05  6.453189E+04  3.466753E+03  1.549688E+05 -1.231371E-09  3.870871E-09
       189  12  3.738720E+05  6.090235E+04 -1.473488E+02  1.533340E+05 -7.141154E-10  2.658869E-10
       189  13  3.790749E+05  6.279332E+04  4.446046E+02  1.547443E+05  3.808342E-09 -2.026928E-09
       189  14  3.817298E+05  6.010727E+04  6.235123E+02  1.516902E+05 -4.763569E-09 -8.388457E-09
       189  15  3.790761E+05  6.280102E+04  1.038013E+03  1.547414E+05 -1.869718E-09  1.272722E-09
       189  16  3.502200E+05  5.204549E+04 -6.426952E+03  1.467798E+05  2.351914E-09 -2.426862E-09
       189  17  3.699043E+05  5.568267E+04 -2.219729E+03  1.484116E+05  4.861353E-09 -5.505601E-09
       189  18  3.842802E+05  6.469969E+04  2.223366E+03  1.561488E+05  1.597658E-09 -9.154194E-09
       189  19  4.079307E+05  7.354121E+04  7.316110E+03  1.627091E+05  3.722668E+02  2.051085E+03
       189  20  3.935555E+05  6.453189E+04  3.466757E+03  1.549688E+05  1.068488E+03  1.143548E+03
       189  21  3.738720E+05  6.090235E+04 -1.473428E+02  1.533340E+05  1.764506E+03  2.365194E+02
       189  22  3.790749E+05  6.279332E+04  4.446106E+02  1.547443E+05 -5.262761E+02  1.712384E+03
       189  23  3.817298E+05  6.010727E+04  6.235135E+02  1.516902E+05  1.704071E+02  8.050153E+02
       189  24  3.790761E+05  6.280102E+04  1.038015E+03  1.547414E+05  8.668943E+02 -1.018429E+02
       189  25  3.502200E+05  5.204549E+04 -6.426944E+03  1.467798E+05 -1.424773E+03  1.373701E+03
       189  26  3.699043E+05  5.568267E+04 -2.219728E+03  1.484116E+05 -7.276532E+02  4.664904E+02
       189  27  3.842802E+05  6.469969E+04  2.223367E+03  1.561488E+05 -3.072064E+01 -4.402064E+02
       190   1  3.596345E+05  5.559400E+04 -3.366806E+03  1.494822E+05 -2.190080E+03  2.848946E+02
       190   2  3.451848E+05  4.653135E+04 -6.339077E+03  1.416797E+05 -3.776666E+03  8.549149E+02
       190   3  3.256419E+05  4.313373E+04 -8.340690E+03  1.399564E+05 -5.360103E+03  1.416796E+03
       190   4  3.791126E+05  6.278323E+04  1.356717E+03  1.547663E+05 -1.289746E+03  6.242778E+02
       190   5  3.816755E+05  6.007229E+04  2.416197E+03  1.516804E+05 -2.883561E+03  1.191550E+03
       190   6  3.791467E+05  6.302791E+04  4.452115E+03  1.546738E+05 -4.474259E+03  1.750671E+03
       190   7  3.985911E+05  6.997251E+04  6.080243E+03  1.600505E+05 -3.893778E+02  9.636740E+02
       190   8  4.181676E+05  7.361335E+04  1.117140E+04  1.616816E+05 -1.990397E+03  1.528207E+03
       190   9  4.326543E+05  8.292229E+04  1.724472E+04  1.693923E+05 -3.588332E+03  2.084577E+03
       190  10  3.596345E+05  5.559400E+04 -3.366815E+03  1.494822E+05 -2.939668E-09 -5.188701E-09
       190  11  3.451848E+05  4.653134E+04 -6.339105E+03  1.416797E+05  1.696787E-09  8.230548E-09
       190  12  3.256418E+05  4.313372E+04 -8.340747E+03  1.399564E+05  4.750511E-10 -1.911574E-09
       190  13  3.791126E+05  6.278322E+04  1.356713E+03  1.547663E+05 -3.797376E-09 -2.425219E-09
       190  14  3.816755E+05  6.007228E+04  2.416178E+03  1.516804E+05 -4.189313E-09  2.530131E-09
       190  15  3.791466E+05  6.302790E+04  4.452071E+03  1.546738E+05 -9.754859E-10  3.662242E-09
       190  16  3.985911E+05  6.997251E+04  6.080241E+03  1.600505E+05  5.765254E-09 -4.244117E-09
       190  17  4.181676E+05  7.361335E+04  1.117139E+04  1.616817E+05 -1.499801E-09  6.223490E-09
       190  18  4.326543E+05  8.292228E+04  1.724469E+04  1.693923E+05 -4.237135E-09  4.344294E-09
       190  19  3.596345E+05  5.559400E+04 -3.366806E+03  1.494822E+05  2.190080E+03 -2.848946E+02
       190  20  3.451848E+05  4.653135E+04 -6.339077E+03  1.416797E+05  3.776666E+03 -8.549149E+02
       190  21  3.256419E+05  4.313373E+04 -8.340690E+03  1.399564E+05  5.360103E+03 -1.416796E+03
       190  22  3.791126E+05  6.278323E+04  1.356717E+03  1.547663E+05  1.289746E+03 -6.242778E+02
       190  23  3.816755E+05  6.007229E+04  2.416197E+03  1.516804E+05  2.883561E+03 -1.191550E+03
       190  24  3.791467E+05  6.302791E+04  4.452115E+03  1.546738E+05  4.474259E+03 -1.750671E+03
       190  25  3.985911E+05  6.997251E+04  6.080243E+03  1.600505E+05  3.893778E+02 -9.636740E+02
       190  26  4.181676E+05  7.361335E+04  1.117140E+04  1.616816E+05  1.990397E+03 -1.528207E+03
       190  27  4.326543E+05  8.292229E+04  1.724472E+04  1.693923E+05  3.588332E+03 -2.084577E+03
       191   1  3.110881E+05  3.795248E+04 -1.046945E+04  1.370111E+05 -6.476585E+03  1.698918E+03
       191   2  2.966949E+05  2.796535E+04 -9.852673E+03  1.278573E+05 -1.202745E+04  7.278109E+02
       191   3  2.793865E+05  2.812291E+04 -4.095530E+03  1.237896E+05 -1.750551E+04 -4.357544E+02
       191   4  3.794342E+05  6.259937E+04  5.856077E+03  1.549922E+05 -5.531941E+03  2.054936E+03
       191   5  3.812076E+05  5.986068E+04  1.054087E+04  1.515629E+05 -1.125235E+04  1.019855E+03
       191   6  3.800987E+05  6.729959E+04  2.049973E+04  1.532195E+05 -1.690013E+04 -2.077586E+02
       191   7  4.477846E+05  8.724639E+04  2.218117E+04  1.729750E+05 -4.587189E+03  2.410992E+03
       191   8  4.657274E+05  9.175657E+04  3.093390E+04  1.752716E+05 -1.047713E+04  1.311943E+03
       191   9  4.808216E+05  1.064774E+05  4.509438E+04  1.826540E+05 -1.629464E+04  2.028276E+01
       191  10  3.110881E+05  3.795247E+04 -1.046953E+04  1.370111E+05 -1.048342E-08 -4.363961E-09
       191  11  2.966947E+05  2.796531E+04 -9.852946E+03  1.278573E+05 -3.256406E-09 -2.215478E-09
       191  12  2.793861E+05  2.812283E+04 -4.096106E+03  1.237896E+05  1.036267E-08  1.080345E-09
       191  13  3.794342E+05  6.259936E+04  5.856011E+03  1.549922E+05 -5.412775E-09 -2.363375E-09
       191  14  3.812075E+05  5.986064E+04  1.054063E+04  1.515629E+05 -5.749104E-09 -5.562592E-09
       191  15  3.800984E+05  6.729951E+04  2.049920E+04  1.532195E+05 -1.949090E-10 -1.387083E-09
       191  16  4.477846E+05  8.724638E+04  2.218112E+04  1.729750E+05  5.952130E-09  2.230827E-09
       191  17  4.657273E+05  9.175654E+04  3.093369E+04  1.752716E+05 -1.381658E-09 -2.240750E-09
       191  18  4.808213E+05  1.064774E+05  4.509388E+04  1.826540E+05 -1.183169E-08 -4.390775E-09
       191  19  3.110881E+05  3.795248E+04 -1.046945E+04  1.370111E+05  6.476585E+03 -1.698918E+03
       191  20  2.966949E+05  2.796535E+04 -9.852673E+03  1.278573E+05  1.202745E+04 -7.278109E+02
       191  21  2.793865E+05  2.812291E+04 -4.095530E+03  1.237896E+05  1.750551E+04  4.357544E+02
       191  22  3.794342E+05  6.259937E+04  5.856077E+03  1.549922E+05  5.531941E+03 -2.054936E+03
       191  23  3.812076E+05  5.986068E+04  1.054087E+04  1.515629E+05  1.125235E+04 -1.019855E+03
       191  24  3.800987E+05  6.729959E+04  2.049973E+04  1.532195E+05  1.690013E+04  2.077586E+02
       191  25  4.477846E+05  8.724639E+04  2.218117E+04  1.729750E+05  4.587189E+03 -2.410992E+03
       191  26  4.657274E+05  9.175657E+04  3.093390E+04  1.752716E+05  1.047713E+04 -1.311943E+03
       191  27  4.808216E+05  1.064774E+05  4.509438E+04  1.826540E+05  1.629464E+04 -2.028276E+01
       192   1  2.587155E+05  2.463909E+04 -2.019435E+03  1.355556E+05 -2.248321E+04 -1.158059E+03
       192   2  2.514423E+05 -8.311196E+02  1.312751E+04  1.027128E+05 -4.318413E+04 -8.947552E+03
       192   3  2.709059E+05  5.672618E+04  6.498848E+04  5.575842E+04 -6.225093E+04 -2.107285E+04
       192   4  3.834284E+05  5.955569E+04  2.589110E+04  1.580334E+05 -2.057759E+04 -4.396418E+02
       192   5  3.754152E+05  5.809031E+04  4.568639E+04  1.498579E+05 -4.508605E+04 -9.665267E+03
       192   6  3.948837E+05  1.403930E+05  1.052061E+05  1.275731E+05 -6.796049E+04 -2.322818E+04
       192   7  5.081573E+05  9.447218E+04  5.380085E+04  1.805146E+05 -1.867154E+04  2.788460E+02
       192   8  4.994027E+05  1.170154E+05  7.824373E+04  1.970122E+05 -4.698837E+04 -1.038323E+04
       192   9  5.188777E+05  2.240726E+05  1.454219E+05  1.994027E+05 -7.367118E+04 -2.538479E+04
       192  10  2.587150E+05  2.463895E+04 -2.020387E+03  1.355555E+05  8.302142E-09  3.729982E-09
       192  11  2.514403E+05 -8.317058E+02  1.312386E+04  1.027125E+05  2.155578E-09  2.881858E-09
       192  12  2.709016E+05  5.672466E+04  6.498037E+04  5.575737E+04 -1.887932E-09 -3.052949E-09
       192  13  3.834280E+05  5.955557E+04  2.589031E+04  1.580334E+05 -1.806447E-09 -7.236523E-09
       192  14  3.754129E+05  5.808966E+04  4.568239E+04  1.498576E+05  1.062995E-08  5.880545E-09
       192  15  3.948786E+05  1.403911E+05  1.051964E+05  1.275718E+05  3.408135E-09 -2.536131E-09
       192  16  5.081569E+05  9.447208E+04  5.380020E+04  1.805146E+05 -2.271704E-10 -1.802946E-09
       192  17  4.994003E+05  1.170147E+05  7.823938E+04  1.970118E+05  5.448262E-09  6.874111E-09
       192  18  5.188717E+05  2.240704E+05  1.454105E+05  1.994012E+05  6.084361E-09  1.838504E-09
       192  19  2.587155E+05  2.463909E+04 -2.019435E+03  1.355556E+05  2.248321E+04  1.158059E+03
       192  20  2.514423E+05 -8.311196E+02  1.312751E+04  1.027128E+05  4.318413E+04  8.947552E+03
       192  21  2.709059E+05  5.672618E+04  6.498848E+04  5.575842E+04  6.225093E+04  2.107285E+04
       192  22  3.834284E+05  5.955569E+04  2.589110E+04  1.580334E+05  2.057759E+04  4.396418E+02
       192  23  3.754152E+05  5.809031E+04  4.568639E+04  1.498579E+05  4.508605E+04  9.665267E+03
       192  24  3.948837E+05  1.403930E+05  1.052061E+05  1.275731E+05  6.796049E+04  2.322818E+04
       192  25  5.081573E+05  9.447218E+04  5.380085E+04  1.805146E+05  1.867154E+04 -2.788460E+02
       192  26  4.994027E+05  1.170154E+05  7.824373E+04  1.970122E+05  4.698837E+04  1.038323E+04
       192  27  5.188777E+05  2.240726E+05  1.454219E+05  1.994027E+05  7.367118E+04  2.538479E+04
       193   1 -6.066137E+04 -4.057092E+05 -6.243558E+04  6.408373E+04 -1.704691E+03 -1.305432E+04
       193   2 -2.416021E+04 -3.070214E+05 -2.989453E+04  3.836575E+04 -3.778835E+03 -4.526738E+03
       193   3 -4.471272E+02 -2.125299E+05 -6.087208E+03  5.709944E+04  7.655573E+01  4.007421E+03
       193   4 -1.165469E+04 -2.090670E+05 -1.416649E+04  5.877899E+04 -1.707898E+03 -8.951559E+03
       193   5  3.587978E+02 -2.073812E+05 -6.985778E+03  3.655816E+04 -3.778195E+03 -5.259177E+03
       193   6  4.256453E+02 -2.090605E+05 -5.178134E+03  5.878915E+04  8.070236E+01 -1.561619E+03
       193   7  3.734924E+04 -1.238957E+04  3.409983E+04  5.347256E+04 -1.711175E+03 -4.847501E+03
       193   8  2.487713E+04 -1.077318E+05  1.592232E+04  3.475029E+04 -3.777552E+03 -5.991733E+03
       193   9  1.298444E+03 -2.055910E+05 -4.268943E+03  6.047888E+04  8.481865E+01 -7.130690E+03
       193  10 -6.066142E+04 -4.057094E+05 -6.243591E+04  6.408371E+04 -1.088699E-09  2.387889E-09
       193  11 -2.416024E+04 -3.070214E+05 -2.989459E+04  3.836573E+04 -1.379576E-09  1.982473E-09
       193  12 -4.471316E+02 -2.125299E+05 -6.087238E+03  5.709944E+04 -2.122616E-09 -3.324713E-09
       193  13 -1.165471E+04 -2.090671E+05 -1.416665E+04  5.877897E+04  9.747882E-10  4.427102E-11
       193  14  3.587750E+02 -2.073812E+05 -6.985857E+03  3.655815E+04  4.186833E-09  1.493596E-09
       193  15  4.256446E+02 -2.090605E+05 -5.178139E+03  5.878915E+04 -3.443482E-09 -1.978862E-09
       193  16  3.734923E+04 -1.238959E+04  3.409978E+04  5.347256E+04  1.587060E-09 -3.213181E-09
       193  17  2.487710E+04 -1.077319E+05  1.592222E+04  3.475027E+04  2.375832E-09  5.843869E-10
       193  18  1.298431E+03 -2.055911E+05 -4.269039E+03  6.047888E+04 -3.172173E-09  4.271624E-09
       193  19 -6.066137E+04 -4.057092E+05 -6.243558E+04  6.408373E+04  1.704691E+03  1.305432E+04
       193  20 -2.416021E+04 -3.070214E+05 -2.989453E+04  3.836575E+04  3.778835E+03  4.526738E+03
       193  21 -4.471272E+02 -2.125299E+05 -6.087208E+03  5.709944E+04 -7.655573E+01 -4.007421E+03
       193  22 -1.165469E+04 -2.090670E+05 -1.416649E+04  5.877899E+04  1.707898E+03  8.951559E+03
       193  23  3.587978E+02 -2.073812E+05 -6.985778E+03  3.655816E+04  3.778195E+03  5.259177E+03
       193  24  4.256453E+02 -2.090605E+05 -5.178134E+03  5.878915E+04 -8.070236E+01  1.561619E+03
       193  25  3.734924E+04 -1.238957E+04  3.409983E+04  5.347256E+04  1.711175E+03  4.847501E+03
       193  26  2.487713E+04 -1.077318E+05  1.592232E+04  3.475029E+04  3.777552E+03  5.991733E+03
       193  27  1.298444E+03 -2.055910E+05 -4.268943E+03  6.047888E+04 -8.481865E+01  7.130690E+03
       194   1  1.915375E+04 -1.273414E+05  1.338693E+04  5.933277E+04  3.748182E+03  3.247276E+03
       194   2  4.359085E+04 -3.040784E+04  3.495087E+04  3.631450E+04  8.411843E+03  5.443055E+03
       194   3  6.555272E+04  6.574754E+04  5.449114E+04  5.795446E+04  1.267144E+04  7.639972E+03
       194   4 -7.406364E+02 -2.085021E+05 -4.914295E+03  5.883245E+04  3.751196E+03 -7.240723E+02
       194   5  6.001993E+01 -2.080848E+05 -5.002938E+03  3.650248E+04  8.415058E+03  1.800606E+03
       194   6 -1.671508E+03 -2.085119E+05 -7.343730E+03  5.883164E+04  1.267477E+04  4.326090E+03
       194   7 -2.063547E+04 -2.896566E+05 -2.321588E+04  5.833219E+04  3.754217E+03 -4.694906E+03
       194   8 -4.347297E+04 -3.857323E+05 -4.495870E+04  3.669041E+04  8.418271E+03 -1.840811E+03
       194   9 -6.890088E+04 -4.827014E+05 -6.918337E+04  5.970843E+04  1.267810E+04  1.013657E+03
       194  10  1.915374E+04 -1.273414E+05  1.338688E+04  5.933276E+04 -3.531046E-10  1.742954E-09
       194  11  4.359077E+04 -3.040789E+04  3.495068E+04  3.631447E+04  3.070522E-10 -1.691158E-09
       194  12  6.555253E+04  6.574744E+04  5.449073E+04  5.795439E+04 -1.348867E-09 -2.749116E-09
       194  13 -7.406516E+02 -2.085021E+05 -4.914323E+03  5.883245E+04 -2.201551E-10  1.076683E-09
       194  14  5.994302E+01 -2.080848E+05 -5.003077E+03  3.650247E+04  1.028304E-09  2.670838E-09
       194  15 -1.671685E+03 -2.085120E+05 -7.344067E+03  5.883159E+04  1.906013E-09 -7.187235E-10
       194  16 -2.063549E+04 -2.896566E+05 -2.321595E+04  5.833220E+04 -1.869536E-09 -2.364869E-09
       194  17 -4.347304E+04 -3.857323E+05 -4.495884E+04  3.669042E+04 -1.537507E-09  1.343974E-09
       194  18 -6.890106E+04 -4.827014E+05 -6.918367E+04  5.970842E+04 -3.958493E-10  3.374277E-09
       194  19  1.915375E+04 -1.273414E+05  1.338693E+04  5.933277E+04 -3.748182E+03 -3.247276E+03
       194  20  4.359085E+04 -3.040784E+04  3.495087E+04  3.631450E+04 -8.411843E+03 -5.443055E+03
       194  21  6.555272E+04  6.574754E+04  5.449114E+04  5.795446E+04 -1.267144E+04 -7.639972E+03
       194  22 -7.406364E+02 -2.085021E+05 -4.914295E+03  5.883245E+04 -3.751196E+03  7.240723E+02
       194  23  6.001993E+01 -2.080848E+05 -5.002938E+03  3.650248E+04 -8.415058E+03 -1.800606E+03
       194  24 -1.671508E+03 -2.085119E+05 -7.343730E+03  5.883164E+04 -1.267477E+04 -4.326090E+03
       194  25 -2.063547E+04 -2.896566E+05 -2.321588E+04  5.833219E+04 -3.754217E+03  4.694906E+03
       194  26 -4.347297E+04 -3.857323E+05 -4.495870E+04  3.669041E+04 -8.418271E+03  1.840811E+03
       194  27 -6.890088E+04 -4.827014E+05 -6.918337E+04  5.970843E+04 -1.267810E+04 -1.013657E+03
       195   1  8.905808E+04  1.491104E+05  7.187038E+04  6.208113E+04  1.720614E+04  1.334397E+04
       195   2  1.123521E+05  2.481581E+05  8.947114E+04  3.256989E+04  1.925203E+04  8.664962E+03
       195   3  1.123622E+05  3.422287E+05  1.043436E+05  4.706174E+04  6.490980E+03  3.966270E+03
       195   4  1.139115E+03 -2.099113E+05 -8.737973E+03  5.869572E+04  1.721411E+04  5.632084E+03
       195   5  7.577023E+02 -2.063811E+05 -1.392870E+04  3.667691E+04  1.924809E+04  1.303566E+04
       195   6 -2.501421E+04 -2.099384E+05 -3.024213E+04  5.866406E+04  6.470183E+03  2.041997E+04
       195   7 -8.678858E+04 -5.688129E+05 -8.935428E+04  5.531231E+04  1.722218E+04 -2.075392E+03
       195   8 -1.108509E+05 -6.607285E+05 -1.173419E+05  4.078096E+04  1.924421E+04  1.740318E+04
       195   9 -1.624124E+05 -7.618267E+05 -1.648489E+05  7.025611E+04  6.449992E+03  3.685908E+04
       195  10  8.905771E+04  1.491101E+05  7.186949E+04  6.208095E+04  7.751271E-10  4.256692E-09
       195  11  1.123517E+05  2.481580E+05  8.947031E+04  3.256975E+04  1.348346E-09  2.070752E-09
       195  12  1.123621E+05  3.422287E+05  1.043435E+05  4.706172E+04  3.610902E-09  6.243418E-10
       195  13  1.138789E+03 -2.099115E+05 -8.738590E+03  5.869564E+04  1.474125E-09  1.039837E-09
       195  14  7.572588E+02 -2.063814E+05 -1.392971E+04  3.667671E+04  4.256804E-09  1.367110E-09
       195  15 -2.501436E+04 -2.099389E+05 -3.024299E+04  5.866395E+04  8.048181E-10  1.093267E-09
       195  16 -8.678890E+04 -5.688130E+05 -8.935484E+04  5.531234E+04  2.401058E-09 -7.087704E-09
       195  17 -1.108514E+05 -6.607289E+05 -1.173431E+05  4.078069E+04  2.491466E-09  1.451065E-10
       195  18 -1.624128E+05 -7.618281E+05 -1.648515E+05  7.025592E+04  2.284585E-09  2.648438E-09
       195  19  8.905808E+04  1.491104E+05  7.187038E+04  6.208113E+04 -1.720614E+04 -1.334397E+04
       195  20  1.123521E+05  2.481581E+05  8.947114E+04  3.256989E+04 -1.925203E+04 -8.664962E+03
       195  21  1.123622E+05  3.422287E+05  1.043436E+05  4.706174E+04 -6.490980E+03 -3.966270E+03
       195  22  1.139115E+03 -2.099113E+05 -8.737973E+03  5.869572E+04 -1.721411E+04 -5.632084E+03
       195  23  7.577023E+02 -2.063811E+05 -1.392870E+04  3.667691E+04 -1.924809E+04 -1.303566E+04
       195  24 -2.501421E+04 -2.099384E+05 -3.024213E+04  5.866406E+04 -6.470183E+03 -2.041997E+04
       195  25 -8.678858E+04 -5.688129E+05 -8.935428E+04  5.531231E+04 -1.722218E+04  2.075392E+03
       195  26 -1.108509E+05 -6.607285E+05 -1.173419E+05  4.078096E+04 -1.924421E+04 -1.740318E+04
       195  27 -1.624124E+05 -7.618267E+05 -1.648489E+05  7.025611E+04 -6.449992E+03 -3.685908E+04
       196   1  1.622902E+05  1.047327E+05  9.482343E+04  2.485167E+04  1.855365E+04 -7.569708E+03
       196   2  1.204382E+05  1.123650E+05  8.069668E+04  3.051463E+04  4.781652E+03 -2.532458E+04
       196   3  7.709268E+04  1.067937E+05  7.224511E+04  4.481605E+04 -8.996772E+03 -3.020495E+04
       196   4 -3.805521E+05 -2.927817E+04 -3.248366E+04  4.291093E+04 -2.264938E+04 -7.599506E+03
       196   5 -3.778884E+05 -6.596412E+03 -1.579953E+04  3.857952E+04 -1.447994E+04 -2.534183E+04
       196   6 -3.805335E+05 -9.345735E+02 -8.681151E+03  4.288714E+04 -6.318111E+03 -3.020446E+04
       196   7 -9.231187E+05 -1.633078E+05 -1.598043E+05  6.095425E+04 -6.381659E+04 -7.631716E+03
       196   8 -8.759754E+05 -1.255722E+05 -1.123059E+05  4.663775E+04 -3.372643E+04 -2.535958E+04
       196   9 -8.379548E+05 -1.086744E+05 -8.961512E+04  4.095963E+04 -3.641364E+03 -3.020400E+04
       196  10  1.622898E+05  1.047325E+05  9.482267E+04  2.485179E+04  1.076248E-09 -3.703415E-10
       196  11  1.204380E+05  1.123643E+05  8.069543E+04  3.051472E+04  1.462976E-08 -2.655051E-09
       196  12  7.709235E+04  1.067927E+05  7.224324E+04  4.481584E+04  2.642300E-08 -4.048488E-09
       196  13 -3.805527E+05 -2.927837E+04 -3.248473E+04  4.291079E+04 -1.393163E-10  9.971973E-10
       196  14 -3.778888E+05 -6.597157E+03 -1.580113E+04  3.857923E+04 -3.626453E-09  1.540922E-09
       196  15 -3.805337E+05 -9.355637E+02 -8.682940E+03  4.288698E+04  2.124965E-09  5.565440E-09
       196  16 -9.231231E+05 -1.633090E+05 -1.598121E+05  6.095386E+04 -4.478153E-09 -9.267928E-10
       196  17 -8.759768E+05 -1.255732E+05 -1.123093E+05  4.663706E+04 -1.377639E-08 -6.243896E-09
       196  18 -8.379551E+05 -1.086754E+05 -8.961685E+04  4.095954E+04 -2.490251E-08 -5.988657E-09
       196  19  1.622902E+05  1.047327E+05  9.482343E+04  2.485167E+04 -1.855365E+04  7.569708E+03
       196  20  1.204382E+05  1.123650E+05  8.069668E+04  3.051463E+04 -4.781652E+03  2.532458E+04
       196  21  7.709268E+04  1.067937E+05  7.224511E+04  4.481605E+04  8.996772E+03  3.020495E+04
       196  22 -3.805521E+05 -2.927817E+04 -3.248366E+04  4.291093E+04  2.264938E+04  7.599506E+03
       196  23 -3.778884E+05 -6.596412E+03 -1.579953E+04  3.857952E+04  1.447994E+04  2.534183E+04
       196  24 -3.805335E+05 -9.345735E+02 -8.681151E+03  4.288714E+04  6.318111E+03  3.020446E+04
       196  25 -9.231187E+05 -1.633078E+05 -1.598043E+05  6.095425E+04  6.381659E+04  7.631716E+03
       196  26 -8.759754E+05 -1.255722E+05 -1.123059E+05  4.663775E+04  3.372643E+04  2.535958E+04
       196  27 -8.379548E+05 -1.086744E+05 -8.961512E+04  4.095963E+04  3.641364E+03  3.020400E+04
       197   1  4.987312E+04  9.960033E+04  6.854739E+04  4.283455E+04 -6.484458E+03 -2.902948E+04
       197   2  7.370085E+03  9.035888E+04  6.232315E+04  3.845999E+04 -6.662432E+03 -2.768689E+04
       197   3 -3.525250E+04  8.056878E+04  5.607653E+04  4.357974E+04 -6.842162E+03 -2.517503E+04
       197   4 -3.794531E+05 -1.309141E+03 -6.605195E+03  4.308027E+04 -5.189888E+03 -2.903004E+04
       197   5 -3.792140E+05 -1.646302E+02 -3.634724E+03  3.833219E+04 -3.376300E+03 -2.768511E+04
       197   6 -3.794417E+05  8.533852E+01 -2.070238E+03  4.307880E+04 -1.564446E+03 -2.517053E+04
       197   7 -8.085989E+05 -1.022286E+05 -8.176437E+04  4.332577E+04 -3.896186E+03 -2.903060E+04
       197   8 -7.656511E+05 -9.069609E+04 -6.959750E+04  3.820443E+04 -9.214853E+01 -2.768332E+04
       197   9 -7.235141E+05 -8.040434E+04 -6.022070E+04  4.257811E+04  3.710439E+03 -2.516604E+04
       197  10  4.987285E+04  9.959941E+04  6.854573E+04  4.283440E+04 -5.980659E-08 -4.877946E-09
       197  11  7.369832E+03  9.035805E+04  6.232163E+04  3.845984E+04 -1.553187E-08 -1.853290E-09
       197  12 -3.525272E+04  8.056809E+04  5.607525E+04  4.357960E+04  2.684174E-08 -1.996468E-09
       197  13 -3.794534E+05 -1.310053E+03 -6.606829E+03  4.308015E+04 -5.802226E-12  4.650165E-09
       197  14 -3.792142E+05 -1.654561E+02 -3.636186E+03  3.833212E+04 -5.903503E-09  2.044337E-09
       197  15 -3.794419E+05  8.465766E+01 -2.071433E+03  4.307877E+04 -1.072257E-09 -3.720220E-09
       197  16 -8.085991E+05 -1.022296E+05 -8.176599E+04  4.332568E+04  6.098916E-08 -2.787744E-09
       197  17 -7.656513E+05 -9.069691E+04 -6.959894E+04  3.820443E+04  1.963249E-08 -2.154558E-09
       197  18 -7.235143E+05 -8.040502E+04 -6.022191E+04  4.257819E+04 -2.828826E-08 -3.655370E-09
       197  19  4.987312E+04  9.960033E+04  6.854739E+04  4.283455E+04  6.484458E+03  2.902948E+04
       197  20  7.370085E+03  9.035888E+04  6.232315E+04  3.845999E+04  6.662432E+03  2.768689E+04
       197  21 -3.525250E+04  8.056878E+04  5.607653E+04  4.357974E+04  6.842162E+03  2.517503E+04
       197  22 -3.794531E+05 -1.309141E+03 -6.605195E+03  4.308027E+04  5.189888E+03  2.903004E+04
       197  23 -3.792140E+05 -1.646302E+02 -3.634724E+03  3.833219E+04  3.376300E+03  2.768511E+04
       197  24 -3.794417E+05  8.533852E+01 -2.070238E+03  4.307880E+04  1.564446E+03  2.517053E+04
       197  25 -8.085989E+05 -1.022286E+05 -8.176437E+04  4.332577E+04  3.896186E+03  2.903060E+04
       197  26 -7.656511E+05 -9.069609E+04 -6.959750E+04  3.820443E+04  9.214853E+01  2.768332E+04
       197  27 -7.235141E+05 -8.040434E+04 -6.022070E+04  4.257811E+04 -3.710439E+03  2.516604E+04
       198   1 -6.291598E+04  7.400975E+04  5.166124E+04  4.344496E+04 -6.402218E+03 -2.334832E+04
       198   2 -1.055021E+05  6.407283E+04  4.509073E+04  3.860869E+04 -6.141736E+03 -2.026989E+04
       198   3 -1.481373E+05  5.414235E+04  3.834712E+04  4.335435E+04 -5.882010E+03 -1.708430E+04
       198   4 -3.793528E+05  5.975240E+01 -1.573301E+03  4.309846E+04 -1.248212E+03 -2.334359E+04
       198   5 -3.793075E+05  9.850314E+01 -9.002267E+02  3.830733E+04 -8.055072E+02 -2.026445E+04
       198   6 -3.793449E+05  1.120765E+02 -5.270072E+02  4.309839E+04 -3.635400E+02 -1.707811E+04
       198   7 -6.956908E+05 -7.389549E+04 -5.481091E+04  4.275210E+04  3.903252E+03 -2.333887E+04
       198   8 -6.530390E+05 -6.387974E+04 -4.689343E+04  3.800609E+04  4.528446E+03 -2.025901E+04
       198   9 -6.104998E+05 -5.392098E+04 -3.940271E+04  4.284252E+04  5.152942E+03 -1.707193E+04
       198  10 -6.291617E+04  7.400915E+04  5.166014E+04  4.344484E+04 -4.114097E-09 -1.684916E-09
       198  11 -1.055022E+05  6.407238E+04  4.508989E+04  3.860859E+04 -1.381247E-09 -7.101681E-10
       198  12 -1.481374E+05  5.414202E+04  3.834651E+04  4.335427E+04  1.775050E-09  7.517566E-10
       198  13 -3.793529E+05  5.916694E+01 -1.574328E+03  4.309843E+04 -4.038330E-09 -4.832709E-09
       198  14 -3.793076E+05  9.806208E+01 -9.009995E+02  3.830732E+04  4.782291E-10 -1.711471E-10
       198  15 -3.793450E+05  1.117634E+02 -5.275555E+02  4.309839E+04 -1.834742E-09  3.384838E-09
       198  16 -6.956910E+05 -7.389608E+04 -5.481196E+04  4.275218E+04  5.792589E-10 -2.562352E-09
       198  17 -6.530391E+05 -6.388019E+04 -4.689424E+04  3.800617E+04 -7.007880E-10  1.076299E-09
       198  18 -6.104999E+05 -5.392130E+04 -3.940330E+04  4.284259E+04 -3.302658E-09  1.002494E-09
       198  19 -6.291598E+04  7.400975E+04  5.166124E+04  4.344496E+04  6.402218E+03  2.334832E+04
       198  20 -1.055021E+05  6.407283E+04  4.509073E+04  3.860869E+04  6.141736E+03  2.026989E+04
       198  21 -1.481373E+05  5.414235E+04  3.834712E+04  4.335435E+04  5.882010E+03  1.708430E+04
       198  22 -3.793528E+05  5.975240E+01 -1.573301E+03  4.309846E+04  1.248212E+03  2.334359E+04
       198  23 -3.793075E+05  9.850314E+01 -9.002267E+02  3.830733E+04  8.055072E+02  2.026445E+04
       198  24 -3.793449E+05  1.120765E+02 -5.270072E+02  4.309839E+04  3.635400E+02  1.707811E+04
       198  25 -6.956908E+05 -7.389549E+04 -5.481091E+04  4.275210E+04 -3.903252E+03  2.333887E+04
       198  26 -6.530390E+05 -6.387974E+04 -4.689343E+04  3.800609E+04 -4.528446E+03  2.025901E+04
       198  27 -6.104998E+05 -5.392098E+04 -3.940271E+04  4.284252E+04 -5.152942E+03  1.707193E+04
       199   1 -1.758529E+05  4.762713E+04  3.362578E+04  4.332182E+04 -5.789606E+03 -1.519671E+04
       199   2 -2.184832E+05  3.767208E+04  2.670230E+04  3.847360E+04 -5.681361E+03 -1.195836E+04
       199   3 -2.611454E+05  2.774149E+04  1.970717E+04  4.322234E+04 -5.573510E+03 -8.710146E+03
       199   4 -3.793325E+05  1.112860E+02 -4.092183E+02  4.310172E+04 -2.811121E+02 -1.519029E+04
       199   5 -3.793116E+05  1.028759E+02 -2.601337E+02  3.830317E+04 -1.563156E+02 -1.195160E+04
       199   6 -3.793279E+05  1.159499E+02 -1.944922E+02  4.310172E+04 -3.190633E+01 -8.703052E+03
       199   7 -5.827712E+05 -4.740671E+04 -3.444538E+04  4.288169E+04  5.225635E+03 -1.518387E+04
       199   8 -5.401144E+05 -3.746766E+04 -2.722326E+04  3.813278E+04  5.367345E+03 -1.194485E+04
       199   9 -4.974966E+05 -2.751031E+04 -2.009648E+04  4.298112E+04  5.508677E+03 -8.695959E+03
       199  10 -1.758530E+05  4.762688E+04  3.362528E+04  4.332175E+04  3.236023E-08  2.106356E-09
       199  11 -2.184833E+05  3.767192E+04  2.670197E+04  3.847354E+04  3.299284E-09  3.617947E-09
       199  12 -2.611455E+05  2.774140E+04  1.970697E+04  4.322231E+04 -2.862160E-08  1.976531E-09
       199  13 -3.793326E+05  1.110383E+02 -4.096519E+02  4.310172E+04  2.154183E-09  1.379143E-09
       199  14 -3.793116E+05  1.027226E+02 -2.604021E+02  3.830317E+04 -1.985951E-09  3.976276E-09
       199  15 -3.793279E+05  1.158685E+02 -1.946345E+02  4.310172E+04  8.634466E-10  1.039958E-09
       199  16 -5.827713E+05 -4.740696E+04 -3.444586E+04  4.288176E+04 -3.647030E-08  6.795588E-10
       199  17 -5.401144E+05 -3.746782E+04 -2.722359E+04  3.813283E+04 -2.321583E-09  1.717705E-09
       199  18 -4.974966E+05 -2.751040E+04 -2.009668E+04  4.298116E+04  2.908857E-08  2.084837E-09
       199  19 -1.758529E+05  4.762713E+04  3.362578E+04  4.332182E+04  5.789606E+03  1.519671E+04
       199  20 -2.184832E+05  3.767208E+04  2.670230E+04  3.847360E+04  5.681361E+03  1.195836E+04
       199  21 -2.611454E+05  2.774149E+04  1.970717E+04  4.322234E+04  5.573510E+03  8.710146E+03
       199  22 -3.793325E+05  1.112860E+02 -4.092183E+02  4.310172E+04  2.811121E+02  1.519029E+04
       199  23 -3.793116E+05  1.028759E+02 -2.601337E+02  3.830317E+04  1.563156E+02  1.195160E+04
       199  24 -3.793279E+05  1.159499E+02 -1.944922E+02  4.310172E+04  3.190633E+01  8.703052E+03
       199  25 -5.827712E+05 -4.740671E+04 -3.444538E+04  4.288169E+04 -5.225635E+03  1.518387E+04
       199  26 -5.401144E+05 -3.746766E+04 -2.722326E+04  3.813278E+04 -5.367345E+03  1.194485E+04
       199  27 -4.974966E+05 -2.751031E+04 -2.009648E+04  4.298112E+04 -5.508677E+03  8.695959E+03
       200   1 -2.888847E+05  2.122574E+04  1.488008E+04  4.319313E+04 -5.541578E+03 -6.816144E+03
       200   2 -3.315279E+05  1.126942E+04  7.792138E+03  3.833942E+04 -5.433122E+03 -3.565034E+03
       200   3 -3.742087E+05  1.333928E+03  6.300555E+02  4.308831E+04 -5.324777E+03 -3.188439E+02
       200   4 -3.793268E+05  1.172279E+02 -1.855381E+02  4.310295E+04  2.264357E-01 -6.808928E+03
       200   5 -3.793075E+05  1.090528E+02 -2.106576E+02  3.830163E+04  1.001552E+02 -3.557737E+03
       200   6 -3.793255E+05  1.234212E+02 -3.038826E+02  4.310295E+04  1.999803E+02 -3.114642E+02
       200   7 -4.697608E+05 -2.099169E+04 -1.525129E+04  4.301279E+04  5.541250E+03 -6.801713E+03
       200   8 -4.270847E+05 -1.105141E+04 -8.213409E+03  3.826384E+04  5.633021E+03 -3.550441E+03
       200   9 -3.844421E+05 -1.087071E+03 -1.237707E+03  4.311759E+04  5.724693E+03 -3.040842E+02
       200  10 -2.888848E+05  2.122568E+04  1.487993E+04  4.319310E+04  4.420551E-09 -1.065612E-10
       200  11 -3.315279E+05  1.126940E+04  7.792059E+03  3.833940E+04  8.847539E-10  6.976385E-10
       200  12 -3.742088E+05  1.333921E+03  6.300020E+02  4.308831E+04 -1.284555E-09 -1.376495E-09
       200  13 -3.793268E+05  1.171781E+02 -1.856252E+02  4.310295E+04  1.885234E-09  3.890991E-09
       200  14 -3.793075E+05  1.090392E+02 -2.106814E+02  3.830163E+04  2.684597E-10  2.804936E-10
       200  15 -3.793255E+05  1.234211E+02 -3.038829E+02  4.310295E+04  3.452307E-10 -1.572474E-09
       200  16 -4.697608E+05 -2.099175E+04 -1.525143E+04  4.301282E+04 -3.920370E-09  2.507933E-09
       200  17 -4.270847E+05 -1.105144E+04 -8.213492E+03  3.826386E+04 -2.639079E-09 -1.882956E-09
       200  18 -3.844422E+05 -1.087080E+03 -1.237769E+03  4.311759E+04  1.964668E-09 -1.130857E-09
       200  19 -2.888847E+05  2.122574E+04  1.488008E+04  4.319313E+04  5.541578E+03  6.816144E+03
       200  20 -3.315279E+05  1.126942E+04  7.792138E+03  3.833942E+04  5.433122E+03  3.565034E+03
       200  21 -3.742087E+05  1.333928E+03  6.300555E+02  4.308831E+04  5.324777E+03  3.188439E+02
       200  22 -3.793268E+05  1.172279E+02 -1.855381E+02  4.310295E+04 -2.264357E-01  6.808928E+03
       200  23 -3.793075E+05  1.090528E+02 -2.106576E+02  3.830163E+04 -1.001552E+02  3.557737E+03
       200  24 -3.793255E+05  1.234212E+02 -3.038826E+02  4.310295E+04 -1.999803E+02  3.114642E+02
       200  25 -4.697608E+05 -2.099169E+04 -1.525129E+04  4.301279E+04 -5.541250E+03  6.801713E+03
       200  26 -4.270847E+05 -1.105141E+04 -8.213409E+03  3.826384E+04 -5.633021E+03  3.550441E+03
       200  27 -3.844421E+05 -1.087071E+03 -1.237707E+03  4.311759E+04 -5.724693E+03  3.040842E+02
       201   1 -4.019615E+05 -5.183139E+03 -4.290066E+03  4.304942E+04 -5.272058E+03  1.572830E+03
       201   2 -4.445741E+05 -1.514665E+04 -1.164825E+04  3.819551E+04 -4.845917E+03  4.788075E+03
       201   3 -4.872775E+05 -2.513971E+04 -1.929995E+04  4.293954E+04 -4.419574E+03  7.936809E+03
       201   4 -3.793335E+05  1.259872E+02 -3.832245E+02  4.310188E+04  2.595522E+02  1.580209E+03
       201   5 -3.792980E+05  1.165641E+02 -6.403529E+02  3.830296E+04  5.722757E+02  4.795176E+03
       201   6 -3.793354E+05  9.736010E+01 -1.112240E+03  4.310192E+04  8.852295E+02  7.943638E+03
       201   7 -3.567049E+05  5.435102E+03  3.523715E+03  4.315434E+04  5.791358E+03  1.587589E+03
       201   8 -3.140176E+05  1.537957E+04  1.036752E+04  3.841042E+04  5.991020E+03  4.802279E+03
       201   9 -2.713817E+05  2.533383E+04  1.707521E+04  4.326432E+04  6.190926E+03  7.950470E+03
       201  10 -4.019615E+05 -5.183149E+03 -4.290123E+03  4.304942E+04 -5.864988E-09  1.371843E-09
       201  11 -4.445741E+05 -1.514668E+04 -1.164834E+04  3.819552E+04 -2.600122E-09  2.411271E-09
       201  12 -4.872776E+05 -2.513978E+04 -1.930011E+04  4.293956E+04 -2.858628E-10  6.943603E-10
       201  13 -3.793335E+05  1.259845E+02 -3.832293E+02  4.310188E+04  3.725805E-12  9.440352E-10
       201  14 -3.792980E+05  1.165394E+02 -6.403967E+02  3.830296E+04 -6.752487E-10  8.922699E-10
       201  15 -3.793354E+05  9.729214E+01 -1.112360E+03  4.310191E+04  3.786970E-09  6.967451E-10
       201  16 -3.567049E+05  5.435090E+03  3.523647E+03  4.315433E+04  4.102138E-09  2.074009E-09
       201  17 -3.140176E+05  1.537953E+04  1.036741E+04  3.841040E+04  3.984839E-09 -3.542891E-09
       201  18 -2.713818E+05  2.533376E+04  1.707502E+04  4.326429E+04  1.033506E-09 -4.175960E-10
       201  19 -4.019615E+05 -5.183139E+03 -4.290066E+03  4.304942E+04  5.272058E+03 -1.572830E+03
       201  20 -4.445741E+05 -1.514665E+04 -1.164825E+04  3.819551E+04  4.845917E+03 -4.788075E+03
       201  21 -4.872775E+05 -2.513971E+04 -1.929995E+04  4.293954E+04  4.419574E+03 -7.936809E+03
       201  22 -3.793335E+05  1.259872E+02 -3.832245E+02  4.310188E+04 -2.595522E+02 -1.580209E+03
       201  23 -3.792980E+05  1.165641E+02 -6.403529E+02  3.830296E+04 -5.722757E+02 -4.795176E+03
       201  24 -3.793354E+05  9.736010E+01 -1.112240E+03  4.310192E+04 -8.852295E+02 -7.943638E+03
       201  25 -3.567049E+05  5.435102E+03  3.523715E+03  4.315434E+04 -5.791358E+03 -1.587589E+03
       201  26 -3.140176E+05  1.537957E+04  1.036752E+04  3.841042E+04 -5.991020E+03 -4.802279E+03
       201  27 -2.713817E+05  2.533383E+04  1.707521E+04  4.326432E+04 -6.190926E+03 -7.950470E+03
       202   1 -5.151071E+05 -3.165488E+04 -2.453824E+04  4.280322E+04 -4.275117E+03  9.791351E+03
       202   2 -5.574656E+05 -4.185032E+04 -3.317703E+04  3.826587E+04 -1.754074E+03  1.258947E+04
       202   3 -6.003854E+05 -5.288479E+04 -4.367498E+04  4.327506E+04  7.679624E+02  1.465579E+04
       202   4 -3.793976E+05  1.169920E+02 -1.461695E+03  4.309029E+04  1.107443E+03  9.798145E+03
       202   5 -3.792268E+05 -6.042046E+01 -2.562105E+03  3.831771E+04  2.382553E+03  1.259437E+04
       202   6 -3.794031E+05 -8.603609E+02 -4.655884E+03  4.309153E+04  3.658842E+03  1.465890E+04
       202   7 -2.436699E+05  3.188790E+04  2.161436E+04  4.337741E+04  6.491142E+03  9.804942E+03
       202   8 -2.009567E+05  4.172779E+04  2.805181E+04  3.836956E+04  6.520332E+03  1.259926E+04
       202   9 -1.583729E+05  5.116140E+04  3.436145E+04  4.290792E+04  6.550722E+03  1.466200E+04
       202  10 -5.151072E+05 -3.165499E+04 -2.453846E+04  4.280326E+04 -2.952496E-08  9.391319E-10
       202  11 -5.574657E+05 -4.185049E+04 -3.317733E+04  3.826589E+04 -1.856699E-09 -1.182636E-09
       202  12 -6.003855E+05 -5.288502E+04 -4.367539E+04  4.327505E+04  2.918213E-08  8.977175E-10
       202  13 -3.793977E+05  1.168886E+02 -1.461878E+03  4.309028E+04  2.171730E-09  9.796662E-10
       202  14 -3.792269E+05 -6.059228E+01 -2.562414E+03  3.831769E+04  6.883128E-09  7.653785E-11
       202  15 -3.794031E+05 -8.605952E+02 -4.656313E+03  4.309149E+04 -2.748865E-10 -1.637162E-09
       202  16 -2.436700E+05  3.188779E+04  2.161410E+04  4.337736E+04  2.736210E-08  7.582594E-10
       202  17 -2.009568E+05  4.172760E+04  2.805143E+04  3.836949E+04  3.873241E-09 -1.492073E-09
       202  18 -1.583731E+05  5.116115E+04  3.436097E+04  4.290784E+04 -2.836018E-08 -4.781057E-09
       202  19 -5.151071E+05 -3.165488E+04 -2.453824E+04  4.280322E+04  4.275117E+03 -9.791351E+03
       202  20 -5.574656E+05 -4.185032E+04 -3.317703E+04  3.826587E+04  1.754074E+03 -1.258947E+04
       202  21 -6.003854E+05 -5.288479E+04 -4.367498E+04  4.327506E+04 -7.679624E+02 -1.465579E+04
       202  22 -3.793976E+05  1.169920E+02 -1.461695E+03  4.309029E+04 -1.107443E+03 -9.798145E+03
       202  23 -3.792268E+05 -6.042046E+01 -2.562105E+03  3.831771E+04 -2.382553E+03 -1.259437E+04
       202  24 -3.794031E+05 -8.603609E+02 -4.655884E+03  4.309153E+04 -3.658842E+03 -1.465890E+04
       202  25 -2.436699E+05  3.188790E+04  2.161436E+04  4.337741E+04 -6.491142E+03 -9.804942E+03
       202  26 -2.009567E+05  4.172779E+04  2.805181E+04  3.836956E+04 -6.520332E+03 -1.259926E+04
       202  27 -1.583729E+05  5.116140E+04  3.436145E+04  4.290792E+04 -6.550722E+03 -1.466200E+04
       203   1 -6.292584E+05 -5.933632E+04 -5.056780E+04  4.160316E+04  6.962962E+02  1.610178E+04
       203   2 -6.688590E+05 -7.409336E+04 -6.798019E+04  4.411978E+04  2.017029E+04  1.429962E+04
       203   3 -7.146090E+05 -1.032337E+05 -1.016774E+05  5.565290E+04  3.965104E+04  4.435240E+03
       203   4 -3.801645E+05 -5.951537E+02 -6.119019E+03  4.297077E+04  4.452997E+03  1.610576E+04
       203   5 -3.782886E+05 -4.590860E+03 -1.113465E+04  3.847392E+04  1.020266E+04  1.428739E+04
       203   6 -3.801762E+05 -2.058190E+04 -2.289575E+04  4.299385E+04  1.596047E+04  4.408092E+03
       203   7 -1.310100E+05  5.814259E+04  3.832746E+04  4.433893E+04  8.211162E+03  1.610975E+04
       203   8 -8.763688E+04  6.490674E+04  4.570723E+04  3.282533E+04  2.304504E+02  1.427534E+04
       203   9 -4.563886E+04  6.206287E+04  5.588040E+04  3.032791E+04 -7.742797E+03  4.381920E+03
       203  10 -6.292585E+05 -5.933660E+04 -5.056828E+04  4.160315E+04 -4.158218E-09  2.772097E-09
       203  11 -6.688595E+05 -7.409369E+04 -6.798134E+04  4.411955E+04  7.369686E-10  2.367085E-09
       203  12 -7.146107E+05 -1.032342E+05 -1.016804E+05  5.565276E+04  5.083749E-09  6.351124E-10
       203  13 -3.801646E+05 -5.954375E+02 -6.119543E+03  4.297071E+04  1.877586E-09  3.024262E-09
       203  14 -3.782888E+05 -4.591107E+03 -1.113523E+04  3.847380E+04 -1.389578E-09 -7.883556E-10
       203  15 -3.801765E+05 -2.058199E+04 -2.289627E+04  4.299380E+04 -7.986859E-11  2.228551E-09
       203  16 -1.310101E+05  5.814229E+04  3.832685E+04  4.433882E+04  4.577723E-09 -3.325872E-10
       203  17 -8.763693E+04  6.490652E+04  4.570685E+04  3.282533E+04 -1.116440E-09  1.120688E-09
       203  18 -4.563893E+04  6.206283E+04  5.588025E+04  3.032793E+04 -5.577745E-09  6.244084E-10
       203  19 -6.292584E+05 -5.933632E+04 -5.056780E+04  4.160316E+04 -6.962962E+02 -1.610178E+04
       203  20 -6.688590E+05 -7.409336E+04 -6.798019E+04  4.411978E+04 -2.017029E+04 -1.429962E+04
       203  21 -7.146090E+05 -1.032337E+05 -1.016774E+05  5.565290E+04 -3.965104E+04 -4.435240E+03
       203  22 -3.801645E+05 -5.951537E+02 -6.119019E+03  4.297077E+04 -4.452997E+03 -1.610576E+04
       203  23 -3.782886E+05 -4.590860E+03 -1.113465E+04  3.847392E+04 -1.020266E+04 -1.428739E+04
       203  24 -3.801762E+05 -2.058190E+04 -2.289575E+04  4.299385E+04 -1.596047E+04 -4.408092E+03
       203  25 -1.310100E+05  5.814259E+04  3.832746E+04  4.433893E+04 -8.211162E+03 -1.610975E+04
       203  26 -8.763688E+04  6.490674E+04  4.570723E+04  3.282533E+04 -2.304504E+02 -1.427534E+04
       203  27 -4.563886E+04  6.206287E+04  5.588040E+04  3.032791E+04  7.742797E+03 -4.381920E+03
       204   1 -6.239415E+04  6.562454E+04  5.681047E+04  4.010758E+03 -1.077269E+04 -5.233575E+03
       204   2 -8.900905E+04  8.810589E+04  6.284536E+04  8.089053E+03 -1.115888E+04 -1.655913E+04
       204   3 -1.226044E+05  8.241445E+04  6.209992E+04  2.383878E+04 -1.155593E+04 -1.762477E+04
       204   4 -4.544917E+05 -3.175033E+04 -3.805051E+04  1.902308E+04 -2.616216E+04 -5.250761E+03
       204   5 -4.501582E+05 -1.750431E+02 -1.738252E+04  1.316747E+04 -1.694990E+04 -1.656687E+04
       204   6 -4.544781E+05  1.551177E+03 -1.016699E+04  1.898395E+04 -7.748360E+03 -1.762036E+04
       204   7 -8.464477E+05 -1.291355E+05 -1.329215E+05  3.402584E+04 -4.154194E+04 -5.268696E+03
       204   8 -8.111855E+05 -8.846469E+04 -9.761838E+04  1.824286E+04 -2.273758E+04 -1.657470E+04
       204   9 -7.862484E+05 -7.931932E+04 -8.244044E+04  1.413171E+04 -3.942795E+03 -1.761600E+04
       204  10 -6.239429E+04  6.562448E+04  5.681020E+04  4.010712E+03 -5.362158E-09  6.755537E-10
       204  11 -8.900926E+04  8.810556E+04  6.284461E+04  8.088904E+03 -5.607841E-10  3.872181E-09
       204  12 -1.226046E+05  8.241408E+04  6.209908E+04  2.383862E+04 -2.487870E-10  1.122553E-09
       204  13 -4.544924E+05 -3.175055E+04 -3.805185E+04  1.902297E+04  3.270379E-10 -1.130033E-09
       204  14 -4.501586E+05 -1.754149E+02 -1.738357E+04  1.316724E+04  6.508912E-09 -1.775348E-09
       204  15 -4.544782E+05  1.550828E+03 -1.016768E+04  1.898384E+04 -2.080870E-09  7.792832E-10
       204  16 -8.464496E+05 -1.291360E+05 -1.329248E+05  3.402567E+04  5.952932E-09  8.879215E-10
       204  17 -8.111862E+05 -8.846512E+04 -9.761987E+04  1.824256E+04  1.289539E-09  3.725014E-09
       204  18 -7.862485E+05 -7.931966E+04 -8.244105E+04  1.413165E+04 -1.128671E-09  5.692714E-10
       204  19 -6.239415E+04  6.562454E+04  5.681047E+04  4.010758E+03  1.077269E+04  5.233575E+03
       204  20 -8.900905E+04  8.810589E+04  6.284536E+04  8.089053E+03  1.115888E+04  1.655913E+04
       204  21 -1.226044E+05  8.241445E+04  6.209992E+04  2.383878E+04  1.155593E+04  1.762477E+04
       204  22 -4.544917E+05 -3.175033E+04 -3.805051E+04  1.902308E+04  2.616216E+04  5.250761E+03
       204  23 -4.501582E+05 -1.750431E+02 -1.738252E+04  1.316747E+04  1.694990E+04  1.656687E+04
       204  24 -4.544781E+05  1.551177E+03 -1.016699E+04  1.898395E+04  7.748360E+03  1.762036E+04
       204  25 -8.464477E+05 -1.291355E+05 -1.329215E+05  3.402584E+04  4.154194E+04  5.268696E+03
       204  26 -8.111855E+05 -8.846469E+04 -9.761838E+04  1.824286E+04  2.273758E+04  1.657470E+04
       204  27 -7.862484E+05 -7.931932E+04 -8.244044E+04  1.413171E+04  3.942795E+03  1.761600E+04
       205   1 -1.453128E+05  7.330923E+04  5.920963E+04  1.884564E+04 -7.178334E+03 -1.575357E+04
       205   2 -1.751964E+05  6.760060E+04  5.603996E+04  1.318788E+04 -5.416134E+03 -1.459944E+04
       205   3 -2.057149E+05  6.033826E+04  5.133069E+04  1.971969E+04 -3.655236E+03 -1.298020E+04
       205   4 -4.527111E+05 -1.644868E+03 -8.070898E+03  1.911050E+04 -6.316027E+03 -1.575296E+04
       205   5 -4.523522E+05  6.639521E+01 -4.381028E+03  1.301423E+04 -4.119555E+03 -1.459802E+04
       205   6 -4.527053E+05  1.479895E+02 -2.533174E+03  1.910789E+04 -1.924308E+03 -1.297787E+04
       205   7 -7.600210E+05 -7.660527E+04 -7.535715E+04  1.937519E+04 -5.454141E+03 -1.575234E+04
       205   8 -7.294360E+05 -6.747292E+04 -6.480663E+04  1.284062E+04 -2.823548E+03 -1.459660E+04
       205   9 -6.996386E+05 -6.004633E+04 -5.640070E+04  1.849630E+04 -1.940598E+02 -1.297555E+04
       205  10 -1.453129E+05  7.330895E+04  5.920907E+04  1.884555E+04 -2.829771E-09 -1.074666E-09
       205  11 -1.751964E+05  6.760036E+04  5.603950E+04  1.318782E+04 -1.003641E-08  4.030707E-09
       205  12 -2.057149E+05  6.033807E+04  5.133035E+04  1.971965E+04 -1.689967E-08  3.498943E-09
       205  13 -4.527113E+05 -1.645146E+03 -8.071439E+03  1.911042E+04  1.815239E-09  4.671229E-09
       205  14 -4.523522E+05  6.616187E+01 -4.381460E+03  1.301418E+04  1.364979E-09 -1.289664E-08
       205  15 -4.527054E+05  1.478077E+02 -2.533498E+03  1.910787E+04  3.012891E-10 -3.904479E-09
       205  16 -7.600211E+05 -7.660555E+04 -7.535767E+04  1.937512E+04  6.291906E-09 -2.125427E-09
       205  17 -7.294360E+05 -6.747315E+04 -6.480704E+04  1.284059E+04  1.138373E-08 -5.564476E-10
       205  18 -6.996386E+05 -6.004651E+04 -5.640102E+04  1.849630E+04  1.628291E-08  1.022482E-09
       205  19 -1.453128E+05  7.330923E+04  5.920963E+04  1.884564E+04  7.178334E+03  1.575357E+04
       205  20 -1.751964E+05  6.760060E+04  5.603996E+04  1.318788E+04  5.416134E+03  1.459944E+04
       205  21 -2.057149E+05  6.033826E+04  5.133069E+04  1.971969E+04  3.655236E+03  1.298020E+04
       205  22 -4.527111E+05 -1.644868E+03 -8.070898E+03  1.911050E+04  6.316027E+03  1.575296E+04
       205  23 -4.523522E+05  6.639521E+01 -4.381028E+03  1.301423E+04  4.119555E+03  1.459802E+04
       205  24 -4.527053E+05  1.479895E+02 -2.533174E+03  1.910789E+04  1.924308E+03  1.297787E+04
       205  25 -7.600210E+05 -7.660527E+04 -7.535715E+04  1.937519E+04  5.454141E+03  1.575234E+04
       205  26 -7.294360E+05 -6.747292E+04 -6.480663E+04  1.284062E+04  2.823548E+03  1.459660E+04
       205  27 -6.996386E+05 -6.004633E+04 -5.640070E+04  1.849630E+04  1.940598E+02  1.297555E+04
       206   1 -2.299810E+05  5.419575E+04  4.645713E+04  1.942943E+04 -3.132136E+03 -1.192487E+04
       206   2 -2.602722E+05  4.688839E+04  4.073828E+04  1.326225E+04 -2.598498E+03 -1.020189E+04
       206   3 -2.906831E+05  3.953101E+04  3.465033E+04  1.937172E+04 -2.065334E+03 -8.455614E+03
       206   4 -4.525721E+05 -2.070285E+01 -1.947947E+03  1.912798E+04 -1.531214E+03 -1.192261E+04
       206   5 -4.525083E+05  5.276595E+01 -1.125580E+03  1.298946E+04 -9.759812E+02 -1.019942E+04
       206   6 -4.525685E+05  7.259147E+01 -6.872807E+02  1.912782E+04 -4.211960E+02 -8.452930E+03
       206   7 -6.751167E+05 -5.424044E+04 -5.035598E+04  1.882661E+04  6.914135E+01 -1.192036E+04
       206   8 -6.447098E+05 -4.678532E+04 -4.299165E+04  1.271674E+04  6.460398E+02 -1.019696E+04
       206   9 -6.144293E+05 -3.938757E+04 -3.602646E+04  1.888398E+04  1.222519E+03 -8.450246E+03
       206  10 -2.299810E+05  5.419559E+04  4.645684E+04  1.942940E+04  1.827080E-08 -1.867275E-09
       206  11 -2.602722E+05  4.688828E+04  4.073807E+04  1.326223E+04  1.325494E-08  9.222521E-10
       206  12 -2.906831E+05  3.953093E+04  3.465018E+04  1.937170E+04  1.138420E-09  2.569510E-09
       206  13 -4.525721E+05 -2.085609E+01 -1.948218E+03  1.912796E+04 -5.402181E-11 -9.244526E-09
       206  14 -4.525083E+05  5.265401E+01 -1.125777E+03  1.298945E+04 -3.707825E-09 -6.058525E-09
       206  15 -4.525685E+05  7.251471E+01 -6.874153E+02  1.912782E+04  3.607075E-10  9.532389E-10
       206  16 -6.751167E+05 -5.424059E+04 -5.035625E+04  1.882661E+04 -1.904557E-08 -3.772188E-09
       206  17 -6.447098E+05 -4.678543E+04 -4.299184E+04  1.271674E+04 -1.457390E-08  3.490675E-09
       206  18 -6.144293E+05 -3.938765E+04 -3.602659E+04  1.888399E+04 -1.110433E-09  8.050258E-09
       206  19 -2.299810E+05  5.419575E+04  4.645713E+04  1.942943E+04  3.132136E+03  1.192487E+04
       206  20 -2.602722E+05  4.688839E+04  4.073828E+04  1.326225E+04  2.598498E+03  1.020189E+04
       206  21 -2.906831E+05  3.953101E+04  3.465033E+04  1.937172E+04  2.065334E+03  8.455614E+03
       206  22 -4.525721E+05 -2.070285E+01 -1.947947E+03  1.912798E+04  1.531214E+03  1.192261E+04
       206  23 -4.525083E+05  5.276595E+01 -1.125580E+03  1.298946E+04  9.759812E+02  1.019942E+04
       206  24 -4.525685E+05  7.259147E+01 -6.872807E+02  1.912782E+04  4.211960E+02  8.452930E+03
       206  25 -6.751167E+05 -5.424044E+04 -5.035598E+04  1.882661E+04 -6.914135E+01  1.192036E+04
       206  26 -6.447098E+05 -4.678532E+04 -4.299165E+04  1.271674E+04 -6.460398E+02  1.019696E+04
       206  27 -6.144293E+05 -3.938757E+04 -3.602646E+04  1.888398E+04 -1.222519E+03  8.450246E+03
       207   1 -3.151605E+05  3.352347E+04  2.927844E+04  1.933348E+04 -1.950543E+03 -7.433241E+03
       207   2 -3.455776E+05  2.610752E+04  2.287389E+04  1.312713E+04 -1.750658E+03 -5.679081E+03
       207   3 -3.760613E+05  1.872843E+04  1.633637E+04  1.923765E+04 -1.551022E+03 -3.922611E+03
       207   4 -4.525544E+05  6.548488E+01 -5.571633E+02  1.913679E+04 -3.106520E+02 -7.430476E+03
       207   5 -4.525195E+05  5.163445E+01 -4.147162E+02  1.297828E+04 -1.086799E+02 -5.676215E+03
       207   6 -4.525524E+05  7.433406E+01 -4.066786E+02  1.913677E+04  9.305336E+01 -3.919639E+03
       207   7 -5.899305E+05 -3.339375E+04 -3.039389E+04  1.894012E+04  1.328880E+03 -7.427713E+03
       207   8 -5.594506E+05 -2.600501E+04 -2.370400E+04  1.282945E+04  1.533019E+03 -5.673348E+03
       207   9 -5.290381E+05 -1.858016E+04 -1.715007E+04  1.903591E+04  1.736929E+03 -3.916667E+03
       207  10 -3.151606E+05  3.352341E+04  2.927833E+04  1.933347E+04  4.938169E-09 -2.197765E-09
       207  11 -3.455776E+05  2.610749E+04  2.287382E+04  1.312712E+04  1.578065E-09  6.521052E-10
       207  12 -3.760613E+05  1.872842E+04  1.633633E+04  1.923765E+04 -2.947520E-09 -6.073429E-10
       207  13 -4.525544E+05  6.542558E+01 -5.572672E+02  1.913678E+04 -4.335623E-11  3.217338E-09
       207  14 -4.525195E+05  5.159986E+01 -4.147768E+02  1.297828E+04  2.961845E-09 -2.789252E-09
       207  15 -4.525524E+05  7.431757E+01 -4.067075E+02  1.913677E+04  3.585805E-10 -2.152911E-09
       207  16 -5.899305E+05 -3.339381E+04 -3.039399E+04  1.894013E+04 -8.373602E-09  5.327138E-09
       207  17 -5.594506E+05 -2.600505E+04 -2.370406E+04  1.282945E+04 -1.134089E-09  5.709321E-09
       207  18 -5.290381E+05 -1.858017E+04 -1.715010E+04  1.903591E+04  3.651505E-09  2.784821E-09
       207  19 -3.151605E+05  3.352347E+04  2.927844E+04  1.933348E+04  1.950543E+03  7.433241E+03
       207  20 -3.455776E+05  2.610752E+04  2.287389E+04  1.312713E+04  1.750658E+03  5.679081E+03
       207  21 -3.760613E+05  1.872843E+04  1.633637E+04  1.923765E+04  1.551022E+03  3.922611E+03
       207  22 -4.525544E+05  6.548488E+01 -5.571633E+02  1.913679E+04  3.106520E+02  7.430476E+03
       207  23 -4.525195E+05  5.163445E+01 -4.147162E+02  1.297828E+04  1.086799E+02  5.676215E+03
       207  24 -4.525524E+05  7.433406E+01 -4.066786E+02  1.913677E+04 -9.305336E+01  3.919639E+03
       207  25 -5.899305E+05 -3.339375E+04 -3.039389E+04  1.894012E+04 -1.328880E+03  7.427713E+03
       207  26 -5.594506E+05 -2.600501E+04 -2.370400E+04  1.282945E+04 -1.533019E+03  5.673348E+03
       207  27 -5.290381E+05 -1.858016E+04 -1.715007E+04  1.903591E+04 -1.736929E+03  3.916667E+03
       208   1 -4.006122E+05  1.271389E+04  1.077725E+04  1.920382E+04 -1.475916E+03 -2.899429E+03
       208   2 -4.310599E+05  5.285632E+03  4.025523E+03  1.297989E+04 -1.159451E+03 -1.140948E+03
       208   3 -4.615959E+05 -2.111498E+03 -2.937792E+03  1.909014E+04 -8.430525E+02  6.172347E+02
       208   4 -4.525565E+05  7.453479E+01 -4.498714E+02  1.914059E+04  1.688057E+02 -2.896418E+03
       208   5 -4.525116E+05  5.888470E+01 -6.460899E+02  1.297350E+04  4.849332E+02 -1.137919E+03
       208   6 -4.525562E+05  7.436668E+01 -1.053755E+03  1.914060E+04  8.010093E+02  6.202851E+02
       208   7 -5.044983E+05 -1.256500E+04 -1.167714E+04  1.907737E+04  1.813392E+03 -2.893406E+03
       208   8 -4.739629E+05 -5.167891E+03 -5.317720E+03  1.296710E+04  2.129261E+03 -1.134890E+03
       208   9 -4.435165E+05  2.260227E+03  8.302886E+02  1.919105E+04  2.445095E+03  6.233357E+02
       208  10 -4.006122E+05  1.271388E+04  1.077723E+04  1.920382E+04 -3.601501E-10  1.600645E-09
       208  11 -4.310599E+05  5.285630E+03  4.025518E+03  1.297989E+04  2.762505E-09 -2.106213E-10
       208  12 -4.615959E+05 -2.111498E+03 -2.937794E+03  1.909014E+04 -1.604893E-10 -2.844335E-09
       208  13 -4.525565E+05  7.452577E+01 -4.498872E+02  1.914059E+04  1.830496E-09  3.379067E-09
       208  14 -4.525116E+05  5.888324E+01 -6.460928E+02  1.297350E+04  4.793089E-09 -1.123846E-09
       208  15 -4.525562E+05  7.436610E+01 -1.053757E+03  1.914060E+04  2.249410E-10 -2.402325E-09
       208  16 -5.044983E+05 -1.256501E+04 -1.167717E+04  1.907737E+04 -9.327666E-10  8.597152E-10
       208  17 -4.739629E+05 -5.167894E+03 -5.317731E+03  1.296710E+04 -2.973822E-09 -7.288326E-09
       208  18 -4.435165E+05  2.260225E+03  8.302767E+02  1.919105E+04 -1.652565E-11 -5.293826E-09
       208  19 -4.006122E+05  1.271389E+04  1.077725E+04  1.920382E+04  1.475916E+03  2.899429E+03
       208  20 -4.310599E+05  5.285632E+03  4.025523E+03  1.297989E+04  1.159451E+03  1.140948E+03
       208  21 -4.615959E+05 -2.111498E+03 -2.937792E+03  1.909014E+04  8.430525E+02 -6.172347E+02
       208  22 -4.525565E+05  7.453479E+01 -4.498714E+02  1.914059E+04 -1.688057E+02  2.896418E+03
       208  23 -4.525116E+05  5.888470E+01 -6.460899E+02  1.297350E+04 -4.849332E+02  1.137919E+03
       208  24 -4.525562E+05  7.436668E+01 -1.053755E+03  1.914060E+04 -8.010093E+02 -6.202851E+02
       208  25 -5.044983E+05 -1.256500E+04 -1.167714E+04  1.907737E+04 -1.813392E+03  2.893406E+03
       208  26 -4.739629E+05 -5.167891E+03 -5.317720E+03  1.296710E+04 -2.129261E+03  1.134890E+03
       208  27 -4.435165E+05  2.260227E+03  8.302886E+02  1.919105E+04 -2.445095E+03 -6.233357E+02
       209   1 -4.861880E+05 -8.113405E+03 -8.769122E+03  1.901742E+04 -6.304374E+02  1.642275E+03
       209   2 -5.165406E+05 -1.553170E+04 -1.630207E+04  1.281385E+04  5.428206E+02  3.398476E+03
       209   3 -5.471405E+05 -2.311240E+04 -2.465299E+04  1.893783E+04  1.716205E+03  5.139589E+03
       209   4 -4.525911E+05  9.041058E+01 -1.366839E+03  1.913900E+04  1.017442E+03  1.645320E+03
       209   5 -4.524692E+05  8.136205E+01 -2.345680E+03  1.297542E+04  2.176674E+03  3.401434E+03
       209   6 -4.525926E+05 -8.745678E+01 -4.132511E+03  1.913933E+04  3.336088E+03  5.142463E+03
       209   7 -4.189931E+05  8.294152E+03  6.035384E+03  1.926058E+04  2.665409E+03  1.648365E+03
       209   8 -3.883939E+05  1.569415E+04  1.161047E+04  1.313701E+04  3.810693E+03  3.404392E+03
       209   9 -3.580362E+05  2.293690E+04  1.638745E+04  1.934085E+04  4.956214E+03  5.145338E+03
       209  10 -4.861880E+05 -8.113408E+03 -8.769128E+03  1.901742E+04 -8.601631E-09 -8.692411E-10
       209  11 -5.165406E+05 -1.553171E+04 -1.630209E+04  1.281385E+04  3.394693E-09 -6.227326E-09
       209  12 -5.471405E+05 -2.311243E+04 -2.465305E+04  1.893783E+04  1.521204E-08  4.046670E-10
       209  13 -4.525911E+05  9.040740E+01 -1.366847E+03  1.913899E+04 -2.154434E-09 -1.684609E-09
       209  14 -4.524692E+05  8.134836E+01 -2.345710E+03  1.297542E+04  1.560730E-09 -1.616784E-09
       209  15 -4.525926E+05 -8.748816E+01 -4.132582E+03  1.913932E+04  3.403580E-09 -5.880976E-09
       209  16 -4.189931E+05  8.294147E+03  6.035366E+03  1.926057E+04  1.094319E-08  3.576333E-09
       209  17 -3.883939E+05  1.569413E+04  1.161042E+04  1.313700E+04 -1.196637E-09  1.536177E-10
       209  18 -3.580363E+05  2.293686E+04  1.638735E+04  1.934083E+04 -1.446443E-08  6.604348E-09
       209  19 -4.861880E+05 -8.113405E+03 -8.769122E+03  1.901742E+04  6.304374E+02 -1.642275E+03
       209  20 -5.165406E+05 -1.553170E+04 -1.630207E+04  1.281385E+04 -5.428206E+02 -3.398476E+03
       209  21 -5.471405E+05 -2.311240E+04 -2.465299E+04  1.893783E+04 -1.716205E+03 -5.139589E+03
       209  22 -4.525911E+05  9.041058E+01 -1.366839E+03  1.913900E+04 -1.017442E+03 -1.645320E+03
       209  23 -4.524692E+05  8.136205E+01 -2.345680E+03  1.297542E+04 -2.176674E+03 -3.401434E+03
       209  24 -4.525926E+05 -8.745678E+01 -4.132511E+03  1.913933E+04 -3.336088E+03 -5.142463E+03
       209  25 -4.189931E+05  8.294152E+03  6.035384E+03  1.926058E+04 -2.665409E+03 -1.648365E+03
       209  26 -3.883939E+05  1.569415E+04  1.161047E+04  1.313701E+04 -3.810693E+03 -3.404392E+03
       209  27 -3.580362E+05  2.293690E+04  1.638745E+04  1.934085E+04 -4.956214E+03 -5.145338E+03
       210   1 -5.719543E+05 -2.876000E+04 -3.141166E+04  1.827995E+04  2.463348E+03  6.189368E+03
       210   2 -6.015695E+05 -3.629438E+04 -4.195254E+04  1.307202E+04  7.449120E+03  7.866089E+03
       210   3 -6.327745E+05 -4.740944E+04 -5.664771E+04  2.015266E+04  1.243547E+04  9.223886E+03
       210   4 -4.528811E+05  2.751887E+02 -5.394277E+03  1.912873E+04  4.173086E+03  6.192343E+03
       210   5 -4.521141E+05  1.338878E+02 -9.351830E+03  1.298781E+04  8.861562E+03  7.868398E+03
       210   6 -4.528856E+05 -3.535803E+03 -1.725624E+04  1.913533E+04  1.355085E+04  9.225553E+03
       210   7 -3.337945E+05  2.930944E+04  2.062226E+04  1.997767E+04  5.883149E+03  6.195323E+03
       210   8 -3.026377E+05  3.656067E+04  2.324755E+04  1.290357E+04  1.027434E+04  7.870707E+03
       210   9 -2.729663E+05  4.033568E+04  2.213327E+04  1.811768E+04  1.466656E+04  9.227216E+03
       210  10 -5.719543E+05 -2.876004E+04 -3.141174E+04  1.827994E+04  1.251441E-08  4.475845E-09
       210  11 -6.015696E+05 -3.629446E+04 -4.195277E+04  1.307198E+04  4.708197E-09  9.154571E-09
       210  12 -6.327747E+05 -4.740958E+04 -5.664816E+04  2.015257E+04 -8.445111E-09 -6.444168E-11
       210  13 -4.528811E+05  2.751429E+02 -5.394382E+03  1.912871E+04  3.242350E-10 -9.784110E-09
       210  14 -4.521142E+05  1.338003E+02 -9.352094E+03  1.298776E+04  4.284898E-09  4.434982E-09
       210  15 -4.528858E+05 -3.535943E+03 -1.725675E+04  1.913523E+04 -1.114967E-10  6.929196E-10
       210  16 -3.337946E+05  2.930939E+04  2.062212E+04  1.997764E+04 -1.130320E-08  2.563970E-09
       210  17 -3.026379E+05  3.656058E+04  2.324723E+04  1.290351E+04 -4.763864E-09 -3.418808E-10
       210  18 -2.729666E+05  4.033553E+04  2.213271E+04  1.811757E+04  1.118438E-08  1.609581E-09
       210  19 -5.719543E+05 -2.876000E+04 -3.141166E+04  1.827995E+04 -2.463348E+03 -6.189368E+03
       210  20 -6.015695E+05 -3.629438E+04 -4.195254E+04  1.307202E+04 -7.449120E+03 -7.866089E+03
       210  21 -6.327745E+05 -4.740944E+04 -5.664771E+04  2.015266E+04 -1.243547E+04 -9.223886E+03
       210  22 -4.528811E+05  2.751887E+02 -5.394277E+03  1.912873E+04 -4.173086E+03 -6.192343E+03
       210  23 -4.521141E+05  1.338878E+02 -9.351830E+03  1.298781E+04 -8.861562E+03 -7.868398E+03
       210  24 -4.528856E+05 -3.535803E+03 -1.725624E+04  1.913533E+04 -1.355085E+04 -9.225553E+03
       210  25 -3.337945E+05  2.930944E+04  2.062226E+04  1.997767E+04 -5.883149E+03 -6.195323E+03
       210  26 -3.026377E+05  3.656067E+04  2.324755E+04  1.290357E+04 -1.027434E+04 -7.870707E+03
       210  27 -2.729663E+05  4.033568E+04  2.213327E+04  1.811768E+04 -1.466656E+04 -9.227216E+03
       211   1 -6.611330E+05 -4.656343E+04 -6.631350E+04  9.101725E+03  1.347894E+04  1.083150E+04
       211   2 -6.816889E+05 -5.762526E+04 -8.929012E+04  2.437772E+04  3.973703E+04  1.070182E+04
       211   3 -7.219688E+05 -1.337635E+05 -1.456489E+05  5.164115E+04  6.600364E+04  3.525432E+03
       211   4 -4.566707E+05  3.307464E+03 -2.174370E+04  1.903686E+04  1.661656E+04  1.083665E+04
       211   5 -4.473934E+05 -3.553815E+02 -3.716967E+04  1.309778E+04  3.628951E+04  1.069536E+04
       211   6 -4.566903E+05 -6.793888E+04 -8.139455E+04  1.914765E+04  5.597267E+04  3.506766E+03
       211   7 -2.521690E+05  5.317594E+04  2.282367E+04  2.897530E+04  1.975519E+04  1.084189E+04
       211   8 -2.130463E+05  5.691127E+04  1.494747E+04  1.813509E+03  3.284070E+04  1.068903E+04
       211   9 -1.913448E+05 -2.115345E+03 -1.714431E+04 -1.335981E+04  4.593742E+04  3.489155E+03
       211  10 -6.611332E+05 -4.656360E+04 -6.631406E+04  9.101608E+03  1.917486E-09 -4.276206E-10
       211  11 -6.816906E+05 -5.762581E+04 -8.929331E+04  2.437738E+04  5.239503E-09  3.463766E-10
       211  12 -7.219735E+05 -1.337647E+05 -1.456571E+05  5.164096E+04  3.831665E-09  3.370044E-09
       211  13 -4.566710E+05  3.307263E+03 -2.174444E+04  1.903672E+04 -2.151208E-09  9.506726E-11
       211  14 -4.473948E+05 -3.558582E+02 -3.717236E+04  1.309747E+04  1.494917E-09 -9.998874E-10
       211  15 -4.566936E+05 -6.793973E+04 -8.140047E+04  1.914749E+04 -2.828539E-10  2.613696E-09
       211  16 -2.521694E+05  5.317571E+04  2.282271E+04  2.897513E+04 -2.896076E-09  1.116863E-09
       211  17 -2.130475E+05  5.691086E+04  1.494523E+04  1.813226E+03 -2.889233E-09  3.101233E-09
       211  18 -1.913471E+05 -2.115925E+03 -1.714830E+04 -1.335994E+04 -1.749161E-09 -1.412752E-09
       211  19 -6.611330E+05 -4.656343E+04 -6.631350E+04  9.101725E+03 -1.347894E+04 -1.083150E+04
       211  20 -6.816889E+05 -5.762526E+04 -8.929012E+04  2.437772E+04 -3.973703E+04 -1.070182E+04
       211  21 -7.219688E+05 -1.337635E+05 -1.456489E+05  5.164115E+04 -6.600364E+04 -3.525432E+03
       211  22 -4.566707E+05  3.307464E+03 -2.174370E+04  1.903686E+04 -1.661656E+04 -1.083665E+04
       211  23 -4.473934E+05 -3.553815E+02 -3.716967E+04  1.309778E+04 -3.628951E+04 -1.069536E+04
       211  24 -4.566903E+05 -6.793888E+04 -8.139455E+04  1.914765E+04 -5.597267E+04 -3.506766E+03
       211  25 -2.521690E+05  5.317594E+04  2.282367E+04  2.897530E+04 -1.975519E+04 -1.084189E+04
       211  26 -2.130463E+05  5.691127E+04  1.494747E+04  1.813509E+03 -3.284070E+04 -1.068903E+04
       211  27 -1.913448E+05 -2.115345E+03 -1.714431E+04 -1.335981E+04 -4.593742E+04 -3.489155E+03

 stresses (elem, integ.pnt.,sxx,syy,szz,sxy,sxz,syz) for set ELALL and time  0.8750000E+00

         1   1  2.603946E+06  9.559886E+06  2.472011E+06 -1.766597E+06  1.212935E+05  9.230123E+05
         1   2  2.106566E+06  8.154732E+06  1.677755E+06 -1.619965E+06  4.071232E+05  4.194641E+05
         1   3  1.746446E+06  6.854557E+06  1.243578E+06 -1.698566E+06  4.736691E+05 -8.262794E+04
         1   4  1.043241E+05 -6.301830E+05  1.098240E+05 -1.670901E+06  1.241874E+05  7.170016E+04
         1   5  3.189150E+04 -6.374332E+05  5.815358E+04 -1.558500E+06  4.092456E+05  4.380973E+04
         1   6  1.578042E+04 -6.225285E+05  3.944357E+04 -1.671315E+06  4.736424E+05  1.613523E+04
         1   7 -2.402173E+06 -1.072371E+07 -2.256646E+06 -1.576581E+06  1.268602E+05 -7.659061E+05
         1   8 -2.047093E+06 -9.354920E+06 -1.564136E+06 -1.497761E+06  4.113164E+05 -3.267185E+05
         1   9 -1.717695E+06 -8.044466E+06 -1.166174E+06 -1.644261E+06  4.736238E+05  1.137600E+05
         1  10  2.603705E+06  9.558978E+06  2.470405E+06 -1.766687E+06 -3.116330E-09  5.471052E-10
         1  11  2.106341E+06  8.154500E+06  1.677115E+06 -1.620103E+06 -1.313375E-09 -2.733113E-09
         1  12  1.746204E+06  6.854489E+06  1.243144E+06 -1.698535E+06 -5.768954E-09 -5.391084E-09
         1  13  1.043061E+05 -6.301927E+05  1.097853E+05 -1.670908E+06 -4.162086E-09 -1.288895E-10
         1  14  3.171113E+04 -6.374803E+05  5.783514E+04 -1.558515E+06  1.723612E-09  4.388193E-11
         1  15  1.553950E+04 -6.225890E+05  3.902154E+04 -1.671321E+06 -2.281525E-09 -8.150179E-11
         1  16 -2.402351E+06 -1.072435E+07 -2.257796E+06 -1.576502E+06 -9.621090E-10 -6.509795E-10
         1  17 -2.047303E+06 -9.355080E+06 -1.564655E+06 -1.497652E+06 -2.599511E-09  2.542709E-09
         1  18 -1.717939E+06 -8.044540E+06 -1.166620E+06 -1.644305E+06 -1.180953E-09  5.211005E-09
         1  19  2.603946E+06  9.559886E+06  2.472011E+06 -1.766597E+06 -1.212935E+05 -9.230123E+05
         1  20  2.106566E+06  8.154732E+06  1.677755E+06 -1.619965E+06 -4.071232E+05 -4.194641E+05
         1  21  1.746446E+06  6.854557E+06  1.243578E+06 -1.698566E+06 -4.736691E+05  8.262794E+04
         1  22  1.043241E+05 -6.301830E+05  1.098240E+05 -1.670901E+06 -1.241874E+05 -7.170016E+04
         1  23  3.189150E+04 -6.374332E+05  5.815358E+04 -1.558500E+06 -4.092456E+05 -4.380973E+04
         1  24  1.578042E+04 -6.225285E+05  3.944357E+04 -1.671315E+06 -4.736424E+05 -1.613523E+04
         1  25 -2.402173E+06 -1.072371E+07 -2.256646E+06 -1.576581E+06 -1.268602E+05  7.659061E+05
         1  26 -2.047093E+06 -9.354920E+06 -1.564136E+06 -1.497761E+06 -4.113164E+05  3.267185E+05
         1  27 -1.717695E+06 -8.044466E+06 -1.166174E+06 -1.644261E+06 -4.736238E+05 -1.137600E+05
         2   1  1.543862E+06  5.991110E+06  1.074510E+06 -1.706325E+06  4.385461E+05 -9.083963E+04
         2   2  1.223859E+06  4.631766E+06  8.206061E+05 -1.575972E+06  3.790685E+05 -1.649322E+05
         2   3  9.278780E+05  3.289511E+06  6.205710E+05 -1.686702E+06  2.934306E+05 -2.392098E+05
         2   4  1.713225E+04 -6.240039E+05  3.519031E+04 -1.674860E+06  4.383576E+05  9.998000E+03
         2   5  1.806328E+04 -6.244186E+05  3.530600E+04 -1.554234E+06  3.782960E+05 -7.740311E+03
         2   6  3.342258E+04 -6.192355E+05  5.040115E+04 -1.674808E+06  2.919591E+05 -2.581486E+04
         2   7 -1.511747E+06 -7.195738E+06 -1.005167E+06 -1.643625E+06  4.381777E+05  1.098083E+05
         2   8 -1.189021E+06 -5.852927E+06 -7.504381E+05 -1.532610E+06  3.775297E+05  1.481817E+05
         2   9 -8.617137E+05 -4.512533E+06 -5.198574E+05 -1.662946E+06  2.904892E+05  1.862980E+05
         2  10  1.543654E+06  5.991050E+06  1.074133E+06 -1.706293E+06 -5.516124E-10  4.278100E-09
         2  11  1.223698E+06  4.631699E+06  8.202861E+05 -1.575922E+06  2.984225E-10  2.542586E-09
         2  12  9.277706E+05  3.289427E+06  6.203032E+05 -1.686645E+06 -3.076135E-09  5.799571E-10
         2  13  1.692593E+04 -6.240555E+05  3.482908E+04 -1.674864E+06  1.935204E-09 -4.780441E-11
         2  14  1.790966E+04 -6.244571E+05  3.503708E+04 -1.554232E+06 -2.780889E-09 -3.780669E-10
         2  15  3.333093E+04 -6.192590E+05  5.023987E+04 -1.674802E+06 -5.399414E-10 -3.435844E-10
         2  16 -1.511957E+06 -7.195802E+06 -1.005551E+06 -1.643664E+06 -6.060279E-10 -4.646267E-09
         2  17 -1.189180E+06 -5.852989E+06 -7.507481E+05 -1.532656E+06  2.269176E-09 -2.448268E-09
         2  18 -8.618139E+05 -4.512594E+06 -5.200823E+05 -1.662990E+06 -1.177222E-09 -5.577590E-10
         2  19  1.543862E+06  5.991110E+06  1.074510E+06 -1.706325E+06 -4.385461E+05  9.083963E+04
         2  20  1.223859E+06  4.631766E+06  8.206061E+05 -1.575972E+06 -3.790685E+05  1.649322E+05
         2  21  9.278780E+05  3.289511E+06  6.205710E+05 -1.686702E+06 -2.934306E+05  2.392098E+05
         2  22  1.713225E+04 -6.240039E+05  3.519031E+04 -1.674860E+06 -4.383576E+05 -9.998000E+03
         2  23  1.806328E+04 -6.244186E+05  3.530600E+04 -1.554234E+06 -3.782960E+05  7.740311E+03
         2  24  3.342258E+04 -6.192355E+05  5.040115E+04 -1.674808E+06 -2.919591E+05  2.581486E+04
         2  25 -1.511747E+06 -7.195738E+06 -1.005167E+06 -1.643625E+06 -4.381777E+05 -1.098083E+05
         2  26 -1.189021E+06 -5.852927E+06 -7.504381E+05 -1.532610E+06 -3.775297E+05 -1.481817E+05
         2  27 -8.617137E+05 -4.512533E+06 -5.198574E+05 -1.662946E+06 -2.904892E+05 -1.862980E+05
         3   1  7.388449E+05  2.448300E+06  5.042138E+05 -1.690390E+06  2.345715E+05 -2.482914E+05
         3   2  4.737359E+05  1.085461E+06  3.534292E+05 -1.495106E+06  1.346008E+05 -3.079725E+05
         3   3  3.044744E+05 -2.464283E+05  2.646651E+05 -1.542690E+06  3.308490E+04 -3.676519E+05
         3   4  3.898047E+04 -6.130597E+05  6.308075E+04 -1.675245E+06  2.329657E+05 -3.476950E+04
         3   5  8.386492E+04 -6.264543E+05  1.093539E+05 -1.553261E+06  1.328918E+05 -9.129190E+04
         3   6  2.241620E+05 -6.114312E+05  2.153216E+05 -1.674027E+06  3.128467E+04 -1.479226E+05
         3   7 -6.612875E+05 -3.664880E+06 -3.780288E+05 -1.660148E+06  2.313647E+05  1.777473E+05
         3   8 -3.060985E+05 -2.335298E+06 -1.345856E+05 -1.611240E+06  1.311389E+05  1.248178E+05
         3   9  1.439358E+05 -9.761564E+05  1.661679E+05 -1.805283E+06  2.939067E+04  7.168351E+04
         3  10  7.387696E+05  2.448219E+06  5.039958E+05 -1.690344E+06 -2.381658E-09  3.618195E-09
         3  11  4.736912E+05  1.085355E+06  3.532177E+05 -1.495072E+06  1.258526E-09  1.689440E-09
         3  12  3.044369E+05 -2.465737E+05  2.644091E+05 -1.542680E+06 -2.918024E-09 -4.224977E-10
         3  13  3.892193E+04 -6.130755E+05  6.297662E+04 -1.675238E+06 -4.743767E-10 -2.490133E-10
         3  14  8.384377E+04 -6.264680E+05  1.093052E+05 -1.553251E+06 -6.480857E-09  2.183240E-10
         3  15  2.241551E+05 -6.114549E+05  2.152787E+05 -1.674023E+06  1.047908E-10 -1.130844E-10
         3  16 -6.613537E+05 -3.664928E+06 -3.781896E+05 -1.660181E+06  4.171805E-10 -3.613876E-09
         3  17 -3.061212E+05 -2.335320E+06 -1.346475E+05 -1.611254E+06  4.053392E-09 -1.750419E-09
         3  18  1.439335E+05 -9.761621E+05  1.661566E+05 -1.805285E+06  3.017968E-09  3.490552E-10
         3  19  7.388449E+05  2.448300E+06  5.042138E+05 -1.690390E+06 -2.345715E+05  2.482914E+05
         3  20  4.737359E+05  1.085461E+06  3.534292E+05 -1.495106E+06 -1.346008E+05  3.079725E+05
         3  21  3.044744E+05 -2.464283E+05  2.646651E+05 -1.542690E+06 -3.308490E+04  3.676519E+05
         3  22  3.898047E+04 -6.130597E+05  6.308075E+04 -1.675245E+06 -2.329657E+05  3.476950E+04
         3  23  8.386492E+04 -6.264543E+05  1.093539E+05 -1.553261E+06 -1.328918E+05  9.129190E+04
         3  24  2.241620E+05 -6.114312E+05  2.153216E+05 -1.674027E+06 -3.128467E+04  1.479226E+05
         3  25 -6.612875E+05 -3.664880E+06 -3.780288E+05 -1.660148E+06 -2.313647E+05 -1.777473E+05
         3  26 -3.060985E+05 -2.335298E+06 -1.345856E+05 -1.611240E+06 -1.311389E+05 -1.248178E+05
         3  27  1.439358E+05 -9.761564E+05  1.661679E+05 -1.805283E+06 -2.939067E+04 -7.168351E+04
         4   1 -1.052937E+07 -3.439519E+06 -2.380405E+06 -3.414905E+06 -9.107443E+05 -3.144648E+05
         4   2 -1.022647E+07 -1.988910E+06 -1.498551E+06 -3.517905E+06 -5.962403E+05 -1.489038E+05
         4   3 -1.021358E+07 -2.130645E+06 -1.230883E+06 -3.484515E+06 -2.599375E+05 -4.213535E+04
         4   4 -7.121615E+06 -2.000010E+06 -1.405216E+06 -2.343144E+06 -8.984818E+05 -3.101789E+05
         4   5 -6.908485E+06 -7.082833E+05 -5.803287E+05 -2.596103E+06 -5.952930E+05 -1.486285E+05
         4   6 -6.980072E+06 -1.001840E+06 -3.578333E+05 -2.713376E+06 -2.704189E+05 -4.590828E+04
         4   7 -3.702517E+06 -5.590443E+05 -4.311664E+05 -1.265709E+06 -8.861309E+05 -3.058509E+05
         4   8 -3.579803E+06  5.730905E+05  3.368671E+05 -1.669737E+06 -5.943320E+05 -1.483475E+05
         4   9 -3.736450E+06  1.271710E+05  5.142943E+05 -1.938709E+06 -2.809577E+05 -4.969892E+04
         4  10 -1.053030E+07 -3.439855E+06 -2.382183E+06 -3.415139E+06 -2.222811E-09 -9.356299E-10
         4  11 -1.022686E+07 -1.989032E+06 -1.499274E+06 -3.517978E+06 -1.630418E-09 -2.400261E-09
         4  12 -1.021365E+07 -2.130665E+06 -1.231015E+06 -3.484524E+06 -3.552802E-09  4.923726E-10
         4  13 -7.122517E+06 -2.000334E+06 -1.406936E+06 -2.343370E+06  4.583556E-09 -1.107585E-09
         4  14 -6.908875E+06 -7.084040E+05 -5.810453E+05 -2.596175E+06  9.297213E-09 -2.956100E-09
         4  15 -6.980152E+06 -1.001862E+06 -3.579764E+05 -2.713386E+06  3.165440E-09 -1.299643E-09
         4  16 -3.703390E+06 -5.593579E+05 -4.328290E+05 -1.265928E+06 -5.278738E-10 -1.292886E-09
         4  17 -3.580190E+06  5.729710E+05  3.361570E+05 -1.669808E+06  4.775732E-09 -2.647454E-09
         4  18 -3.736536E+06  1.271470E+05  5.141402E+05 -1.938721E+06  1.675819E-09  1.867749E-10
         4  19 -1.052937E+07 -3.439519E+06 -2.380405E+06 -3.414905E+06  9.107443E+05  3.144648E+05
         4  20 -1.022647E+07 -1.988910E+06 -1.498551E+06 -3.517905E+06  5.962403E+05  1.489038E+05
         4  21 -1.021358E+07 -2.130645E+06 -1.230883E+06 -3.484515E+06  2.599375E+05  4.213535E+04
         4  22 -7.121615E+06 -2.000010E+06 -1.405216E+06 -2.343144E+06  8.984818E+05  3.101789E+05
         4  23 -6.908485E+06 -7.082833E+05 -5.803287E+05 -2.596103E+06  5.952930E+05  1.486285E+05
         4  24 -6.980072E+06 -1.001840E+06 -3.578333E+05 -2.713376E+06  2.704189E+05  4.590828E+04
         4  25 -3.702517E+06 -5.590443E+05 -4.311664E+05 -1.265709E+06  8.861309E+05  3.058509E+05
         4  26 -3.579803E+06  5.730905E+05  3.368671E+05 -1.669737E+06  5.943320E+05  1.483475E+05
         4  27 -3.736450E+06  1.271710E+05  5.142943E+05 -1.938709E+06  2.809577E+05  4.969892E+04
         5   1 -8.686988E+06 -1.915431E+06 -7.937621E+05 -3.187039E+06 -2.111468E+05 -4.095942E+04
         5   2 -8.487116E+06 -1.346903E+06 -5.223647E+05 -2.840239E+06 -1.346597E+05 -2.066065E+04
         5   3 -7.898760E+06 -1.447829E+06 -3.604135E+05 -3.003674E+06 -5.428640E+04 -1.131282E+04
         5   4 -6.887734E+06 -1.231215E+06 -2.978992E+05 -2.697141E+06 -2.117367E+05 -4.118714E+04
         5   5 -7.072466E+06 -8.219770E+05 -1.352436E+05 -2.468866E+06 -1.374701E+05 -2.166941E+04
         5   6 -6.868225E+06 -1.081352E+06 -7.997898E+04 -2.750836E+06 -5.937256E+04 -1.311378E+04
         5   7 -5.085347E+06 -5.468006E+05  1.976645E+05 -2.205935E+06 -2.123276E+05 -4.141525E+04
         5   8 -5.655884E+06 -2.969545E+05  2.516944E+05 -2.096722E+06 -1.402872E+05 -2.268064E+04
         5   9 -5.836671E+06 -7.148453E+05  2.003596E+05 -2.497624E+06 -6.446796E+04 -1.491778E+04
         5  10 -8.687037E+06 -1.915445E+06 -7.938504E+05 -3.187046E+06 -3.673594E-10  6.405642E-10
         5  11 -8.487135E+06 -1.346909E+06 -5.224001E+05 -2.840242E+06  2.418235E-09  2.456757E-09
         5  12 -7.898763E+06 -1.447830E+06 -3.604194E+05 -3.003675E+06 -2.879906E-09 -1.841333E-09
         5  13 -6.887783E+06 -1.231229E+06 -2.979877E+05 -2.697148E+06  3.297956E-10  1.372745E-09
         5  14 -7.072487E+06 -8.219826E+05 -1.352805E+05 -2.468868E+06  1.739935E-09  1.641284E-09
         5  15 -6.868229E+06 -1.081353E+06 -7.998601E+04 -2.750836E+06 -4.850331E-09  9.068845E-10
         5  16 -5.085396E+06 -5.468147E+05  1.975758E+05 -2.205942E+06  2.014055E-09 -1.896534E-09
         5  17 -5.655905E+06 -2.969604E+05  2.516561E+05 -2.096725E+06  2.689048E-09 -1.573338E-09
         5  18 -5.836675E+06 -7.148467E+05  2.003513E+05 -2.497625E+06  7.475929E-09 -3.866428E-09
         5  19 -8.686988E+06 -1.915431E+06 -7.937621E+05 -3.187039E+06  2.111468E+05  4.095942E+04
         5  20 -8.487116E+06 -1.346903E+06 -5.223647E+05 -2.840239E+06  1.346597E+05  2.066065E+04
         5  21 -7.898760E+06 -1.447829E+06 -3.604135E+05 -3.003674E+06  5.428640E+04  1.131282E+04
         5  22 -6.887734E+06 -1.231215E+06 -2.978992E+05 -2.697141E+06  2.117367E+05  4.118714E+04
         5  23 -7.072466E+06 -8.219770E+05 -1.352436E+05 -2.468866E+06  1.374701E+05  2.166941E+04
         5  24 -6.868225E+06 -1.081352E+06 -7.997898E+04 -2.750836E+06  5.937256E+04  1.311378E+04
         5  25 -5.085347E+06 -5.468006E+05  1.976645E+05 -2.205935E+06  2.123276E+05  4.141525E+04
         5  26 -5.655884E+06 -2.969545E+05  2.516944E+05 -2.096722E+06  1.402872E+05  2.268064E+04
         5  27 -5.836671E+06 -7.148453E+05  2.003596E+05 -2.497624E+06  6.446796E+04  1.491778E+04
         6   1 -5.970026E+06 -7.848034E+05  1.793316E+05 -2.515400E+06 -3.949456E+04 -1.988337E+04
         6   2 -5.800020E+06 -3.745418E+05  3.199788E+05 -2.128247E+06 -1.811746E+04 -3.029915E+04
         6   3 -5.165439E+06 -4.670016E+05  4.417175E+05 -2.303169E+06  2.187263E+03 -3.742541E+04
         6   4 -6.859474E+06 -1.106781E+06 -6.373102E+04 -2.740174E+06 -4.336045E+04 -2.125304E+04
         6   5 -7.090405E+06 -8.477022E+05 -3.163189E+04 -2.461631E+06 -2.127477E+04 -3.142856E+04
         6   6 -6.857010E+06 -1.091611E+06 -1.900303E+04 -2.745303E+06 -2.739267E+02 -3.831496E+04
         6   7 -7.748165E+06 -1.428731E+06 -3.068660E+05 -2.964659E+06 -4.722019E+04 -2.262059E+04
         6   8 -8.379188E+06 -1.320793E+06 -3.833940E+05 -2.794391E+06 -2.442479E+04 -3.255538E+04
         6   9 -8.545825E+06 -1.716087E+06 -4.799831E+05 -3.186347E+06 -2.727673E+03 -3.920183E+04
         6  10 -5.970027E+06 -7.848042E+05  1.793279E+05 -2.515401E+06 -7.112488E-09  2.716794E-11
         6  11 -5.800021E+06 -3.745428E+05  3.199765E+05 -2.128247E+06 -7.127796E-09  2.530557E-09
         6  12 -5.165439E+06 -4.670031E+05  4.417148E+05 -2.303169E+06 -5.587210E-09  4.148380E-09
         6  13 -6.859476E+06 -1.106782E+06 -6.373545E+04 -2.740174E+06 -3.517802E-09 -1.111215E-09
         6  14 -7.090406E+06 -8.477034E+05 -3.163461E+04 -2.461632E+06 -8.853759E-09 -3.020856E-09
         6  15 -6.857010E+06 -1.091612E+06 -1.900579E+04 -2.745303E+06  4.263393E-09 -1.933836E-09
         6  16 -7.748168E+06 -1.428733E+06 -3.068712E+05 -2.964660E+06  7.293488E-09 -1.641082E-09
         6  17 -8.379189E+06 -1.320794E+06 -3.833971E+05 -2.794392E+06 -7.036457E-10 -1.059256E-08
         6  18 -8.545825E+06 -1.716089E+06 -4.799860E+05 -3.186347E+06 -3.319582E-09 -3.595652E-09
         6  19 -5.970026E+06 -7.848034E+05  1.793316E+05 -2.515400E+06  3.949456E+04  1.988337E+04
         6  20 -5.800020E+06 -3.745418E+05  3.199788E+05 -2.128247E+06  1.811746E+04  3.029915E+04
         6  21 -5.165439E+06 -4.670016E+05  4.417175E+05 -2.303169E+06 -2.187263E+03  3.742541E+04
         6  22 -6.859474E+06 -1.106781E+06 -6.373102E+04 -2.740174E+06  4.336045E+04  2.125304E+04
         6  23 -7.090405E+06 -8.477022E+05 -3.163189E+04 -2.461631E+06  2.127477E+04  3.142856E+04
         6  24 -6.857010E+06 -1.091611E+06 -1.900303E+04 -2.745303E+06  2.739267E+02  3.831496E+04
         6  25 -7.748165E+06 -1.428731E+06 -3.068660E+05 -2.964659E+06  4.722019E+04  2.262059E+04
         6  26 -8.379188E+06 -1.320793E+06 -3.833940E+05 -2.794391E+06  2.442479E+04  3.255538E+04
         6  27 -8.545825E+06 -1.716087E+06 -4.799831E+05 -3.186347E+06  2.727673E+03  3.920183E+04
         7   1 -3.784561E+06  1.155141E+05  8.392853E+05 -1.861270E+06  8.554619E+03 -4.479196E+04
         7   2 -3.748640E+06  3.038858E+05  8.880683E+05 -1.673776E+06  1.616288E+04 -5.571905E+04
         7   3 -3.417030E+06  2.743213E+05  9.503196E+05 -1.734122E+06  2.012182E+04 -5.639392E+04
         7   4 -6.897475E+06 -1.033457E+06 -1.096715E+04 -2.674610E+06  4.753623E+03 -4.618103E+04
         7   5 -7.044988E+06 -9.261845E+05 -1.339181E+04 -2.549758E+06  1.463075E+04 -5.630421E+04
         7   6 -6.897457E+06 -1.037580E+06 -4.174135E+03 -2.672881E+06  2.084785E+04 -5.614915E+04
         7   7 -1.000106E+07 -2.181984E+06 -8.620978E+05 -3.484270E+06  9.738105E+02 -4.756254E+04
         7   8 -1.033086E+07 -2.155706E+06 -9.158417E+05 -3.421531E+06  1.310775E+04 -5.688613E+04
         7   9 -1.036620E+07 -2.348818E+06 -9.597791E+05 -3.606866E+06  2.156946E+04 -5.590614E+04
         7  10 -3.784561E+06  1.155119E+05  8.392814E+05 -1.861270E+06 -2.767378E-09  1.623343E-09
         7  11 -3.748641E+06  3.038824E+05  8.880620E+05 -1.673775E+06 -1.344597E-09  1.790651E-09
         7  12 -3.417032E+06  2.743178E+05  9.503129E+05 -1.734121E+06  1.898855E-09  4.263068E-09
         7  13 -6.897475E+06 -1.033459E+06 -1.097119E+04 -2.674610E+06 -9.985667E-10 -1.796933E-09
         7  14 -7.044989E+06 -9.261879E+05 -1.339815E+04 -2.549757E+06  3.390754E-09 -3.209931E-09
         7  15 -6.897459E+06 -1.037584E+06 -4.180852E+03 -2.672880E+06  4.986649E-09 -4.218401E-10
         7  16 -1.000106E+07 -2.181986E+06 -8.621021E+05 -3.484270E+06 -3.710089E-09  2.832686E-09
         7  17 -1.033086E+07 -2.155710E+06 -9.158481E+05 -3.421530E+06  4.512949E-09 -2.241138E-09
         7  18 -1.036620E+07 -2.348822E+06 -9.597859E+05 -3.606865E+06  4.562898E-09  9.999701E-10
         7  19 -3.784561E+06  1.155141E+05  8.392853E+05 -1.861270E+06 -8.554619E+03  4.479196E+04
         7  20 -3.748640E+06  3.038858E+05  8.880683E+05 -1.673776E+06 -1.616288E+04  5.571905E+04
         7  21 -3.417030E+06  2.743213E+05  9.503196E+05 -1.734122E+06 -2.012182E+04  5.639392E+04
         7  22 -6.897475E+06 -1.033457E+06 -1.096715E+04 -2.674610E+06 -4.753623E+03  4.618103E+04
         7  23 -7.044988E+06 -9.261845E+05 -1.339181E+04 -2.549758E+06 -1.463075E+04  5.630421E+04
         7  24 -6.897457E+06 -1.037580E+06 -4.174135E+03 -2.672881E+06 -2.084785E+04  5.614915E+04
         7  25 -1.000106E+07 -2.181984E+06 -8.620978E+05 -3.484270E+06 -9.738105E+02  4.756254E+04
         7  26 -1.033086E+07 -2.155706E+06 -9.158417E+05 -3.421531E+06 -1.310775E+04  5.688613E+04
         7  27 -1.036620E+07 -2.348818E+06 -9.597791E+05 -3.606866E+06 -2.156946E+04  5.590614E+04
         8   1 -3.330361E+06  4.299066E+05  9.988856E+05 -1.584464E+06  2.241287E+04 -5.670531E+04
         8   2 -3.425521E+06  3.148504E+05  9.550225E+05 -1.701024E+06  2.590519E+04 -5.669461E+04
         8   3 -3.591412E+06  3.634078E+05  9.278347E+05 -1.626223E+06  2.515556E+04 -4.577471E+04
         8   4 -6.979264E+06 -9.521705E+05 -3.327063E+03 -2.575615E+06  2.094439E+04 -5.728482E+04
         8   5 -6.943492E+06 -1.032611E+06 -1.382929E+04 -2.671811E+06  2.685827E+04 -5.635745E+04
         8   6 -6.979305E+06 -9.500921E+05 -9.622443E+03 -2.576607E+06  2.851924E+04 -4.449034E+04
         8   7 -1.061531E+07 -2.333491E+06 -1.006763E+06 -3.561478E+06  1.948559E+04 -5.786083E+04
         8   8 -1.044950E+07 -2.379308E+06 -9.838254E+05 -3.637587E+06  2.780536E+04 -5.602270E+04
         8   9 -1.035609E+07 -2.262826E+06 -9.481512E+05 -3.522251E+06  3.186238E+04 -4.321406E+04
         8  10 -3.330362E+06  4.299030E+05  9.988787E+05 -1.584463E+06  4.519534E-10  4.799413E-09
         8  11 -3.425522E+06  3.148467E+05  9.550153E+05 -1.701023E+06  1.623939E-09 -6.889991E-09
         8  12 -3.591413E+06  3.634054E+05  9.278296E+05 -1.626222E+06  1.512864E-09  2.892237E-09
         8  13 -6.979266E+06 -9.521741E+05 -3.334028E+03 -2.575614E+06 -8.244005E-10  2.449454E-10
         8  14 -6.943494E+06 -1.032614E+06 -1.383659E+04 -2.671810E+06  1.039308E-09 -5.383677E-10
         8  15 -6.979306E+06 -9.500945E+05 -9.627676E+03 -2.576606E+06 -2.407191E-09 -2.943677E-09
         8  16 -1.061531E+07 -2.333495E+06 -1.006770E+06 -3.561477E+06 -1.201473E-09 -4.166213E-09
         8  17 -1.044950E+07 -2.379312E+06 -9.838327E+05 -3.637585E+06  2.870038E-09  2.865717E-11
         8  18 -1.035609E+07 -2.262828E+06 -9.481566E+05 -3.522250E+06 -2.756344E-09  3.177455E-09
         8  19 -3.330361E+06  4.299066E+05  9.988856E+05 -1.584464E+06 -2.241287E+04  5.670531E+04
         8  20 -3.425521E+06  3.148504E+05  9.550225E+05 -1.701024E+06 -2.590519E+04  5.669461E+04
         8  21 -3.591412E+06  3.634078E+05  9.278347E+05 -1.626223E+06 -2.515556E+04  4.577471E+04
         8  22 -6.979264E+06 -9.521705E+05 -3.327063E+03 -2.575615E+06 -2.094439E+04  5.728482E+04
         8  23 -6.943492E+06 -1.032611E+06 -1.382929E+04 -2.671811E+06 -2.685827E+04  5.635745E+04
         8  24 -6.979305E+06 -9.500921E+05 -9.622443E+03 -2.576607E+06 -2.851924E+04  4.449034E+04
         8  25 -1.061531E+07 -2.333491E+06 -1.006763E+06 -3.561478E+06 -1.948559E+04  5.786083E+04
         8  26 -1.044950E+07 -2.379308E+06 -9.838254E+05 -3.637587E+06 -2.780536E+04  5.602270E+04
         8  27 -1.035609E+07 -2.262826E+06 -9.481512E+05 -3.522251E+06 -3.186238E+04  4.321406E+04
         9   1 -4.826029E+06 -1.635626E+04  6.006446E+05 -1.877521E+06  2.560276E+04 -3.756986E+04
         9   2 -4.968604E+06 -3.777398E+05  4.874324E+05 -2.229535E+06  3.571207E+04 -2.152890E+04
         9   3 -5.566455E+06 -3.021054E+05  3.603386E+05 -2.069488E+06  4.368328E+04 -3.968212E+02
         9   4 -7.061898E+06 -8.848278E+05 -1.724124E+04 -2.506119E+06  2.734589E+04 -3.689993E+04
         9   5 -6.835252E+06 -1.108948E+06 -3.034512E+04 -2.760053E+06  3.855332E+04 -2.041621E+04
         9   6 -7.064411E+06 -8.962732E+05 -5.824669E+04 -2.501868E+06  4.762877E+04  1.169961E+03
         9   7 -9.292914E+06 -1.752961E+06 -6.355925E+05 -3.132645E+06  2.908195E+04 -3.623280E+04
         9   8 -8.698514E+06 -1.839906E+06 -5.484488E+05 -3.289106E+06  4.138488E+04 -1.930737E+04
         9   9 -8.560184E+06 -1.490267E+06 -4.770443E+05 -2.933285E+06  5.156344E+04  2.732376E+03
         9  10 -4.826030E+06 -1.635794E+04  6.006407E+05 -1.877520E+06  2.421371E-09  3.022270E-09
         9  11 -4.968605E+06 -3.777407E+05  4.874291E+05 -2.229534E+06  3.598317E-09  6.885812E-09
         9  12 -5.566457E+06 -3.021059E+05  3.603349E+05 -2.069488E+06 -7.655979E-10 -2.117950E-09
         9  13 -7.061899E+06 -8.848295E+05 -1.724520E+04 -2.506118E+06  1.455152E-09 -8.906717E-10
         9  14 -6.835253E+06 -1.108949E+06 -3.034870E+04 -2.760052E+06 -1.521700E-10  6.271335E-09
         9  15 -7.064413E+06 -8.962739E+05 -5.825100E+04 -2.501868E+06 -7.741004E-09  4.195012E-09
         9  16 -9.292915E+06 -1.752963E+06 -6.355966E+05 -3.132644E+06 -3.397466E-09 -5.601776E-09
         9  17 -8.698516E+06 -1.839907E+06 -5.484528E+05 -3.289105E+06  7.212919E-10 -1.136472E-08
         9  18 -8.560187E+06 -1.490268E+06 -4.770494E+05 -2.933285E+06 -8.220735E-09 -3.062869E-09
         9  19 -4.826029E+06 -1.635626E+04  6.006446E+05 -1.877521E+06 -2.560276E+04  3.756986E+04
         9  20 -4.968604E+06 -3.777398E+05  4.874324E+05 -2.229535E+06 -3.571207E+04  2.152890E+04
         9  21 -5.566455E+06 -3.021054E+05  3.603386E+05 -2.069488E+06 -4.368328E+04  3.968212E+02
         9  22 -7.061898E+06 -8.848278E+05 -1.724124E+04 -2.506119E+06 -2.734589E+04  3.689993E+04
         9  23 -6.835252E+06 -1.108948E+06 -3.034512E+04 -2.760053E+06 -3.855332E+04  2.041621E+04
         9  24 -7.064411E+06 -8.962732E+05 -5.824669E+04 -2.501868E+06 -4.762877E+04 -1.169961E+03
         9  25 -9.292914E+06 -1.752961E+06 -6.355925E+05 -3.132645E+06 -2.908195E+04  3.623280E+04
         9  26 -8.698514E+06 -1.839906E+06 -5.484488E+05 -3.289106E+06 -4.138488E+04  1.930737E+04
         9  27 -8.560184E+06 -1.490267E+06 -4.770443E+05 -2.933285E+06 -5.156344E+04 -2.732376E+03
        10   1 -7.426510E+06 -1.007696E+06 -1.724675E+05 -2.607720E+06  4.878758E+04  1.546770E+04
        10   2 -7.556930E+06 -1.394243E+06 -3.355563E+05 -2.994366E+06  1.096563E+05  5.907097E+04
        10   3 -8.297534E+06 -1.442520E+06 -6.021157E+05 -2.765766E+06  1.738825E+05  9.418773E+04
        10   4 -7.089174E+06 -8.631114E+05 -7.482393E+04 -2.500389E+06  5.348744E+04  1.734221E+04
        10   5 -6.794914E+06 -1.099277E+06 -1.247260E+05 -2.781605E+06  1.125552E+05  6.021901E+04
        10   6 -7.110446E+06 -9.966801E+05 -2.764876E+05 -2.447693E+06  1.750302E+05  9.463109E+04
        10   7 -6.751726E+06 -7.185121E+05  2.280844E+04 -2.393002E+06  5.819018E+04  1.921808E+04
        10   8 -6.032333E+06 -8.042738E+05  8.605034E+04 -2.568605E+06  1.154582E+05  6.136856E+04
        10   9 -5.921985E+06 -5.507706E+05  4.901176E+04 -2.129074E+06  1.761801E+05  9.507521E+04
        10  10 -7.426513E+06 -1.007697E+06 -1.724725E+05 -2.607721E+06  1.239617E-09 -1.090824E-09
        10  11 -7.556944E+06 -1.394250E+06 -3.355858E+05 -2.994372E+06 -6.013186E-09 -1.370829E-08
        10  12 -8.297570E+06 -1.442537E+06 -6.021903E+05 -2.765779E+06 -9.509823E-09 -1.139615E-11
        10  13 -7.089177E+06 -8.631125E+05 -7.482995E+04 -2.500390E+06 -1.255719E-08 -1.591945E-09
        10  14 -6.794929E+06 -1.099285E+06 -1.247570E+05 -2.781611E+06 -9.424078E-09 -2.115775E-09
        10  15 -7.110482E+06 -9.966981E+05 -2.765629E+05 -2.447707E+06  1.484159E-09 -4.308924E-09
        10  16 -6.751730E+06 -7.185135E+05  2.280130E+04 -2.393003E+06 -7.531875E-09  9.097322E-09
        10  17 -6.032348E+06 -8.042815E+05  8.601785E+04 -2.568611E+06 -2.487010E-10 -1.688247E-09
        10  18 -5.922021E+06 -5.507888E+05  4.893565E+04 -2.129087E+06  4.573214E-09 -3.683814E-09
        10  19 -7.426510E+06 -1.007696E+06 -1.724675E+05 -2.607720E+06 -4.878758E+04 -1.546770E+04
        10  20 -7.556930E+06 -1.394243E+06 -3.355563E+05 -2.994366E+06 -1.096563E+05 -5.907097E+04
        10  21 -8.297534E+06 -1.442520E+06 -6.021157E+05 -2.765766E+06 -1.738825E+05 -9.418773E+04
        10  22 -7.089174E+06 -8.631114E+05 -7.482393E+04 -2.500389E+06 -5.348744E+04 -1.734221E+04
        10  23 -6.794914E+06 -1.099277E+06 -1.247260E+05 -2.781605E+06 -1.125552E+05 -6.021901E+04
        10  24 -7.110446E+06 -9.966801E+05 -2.764876E+05 -2.447693E+06 -1.750302E+05 -9.463109E+04
        10  25 -6.751726E+06 -7.185121E+05  2.280844E+04 -2.393002E+06 -5.819018E+04 -1.921808E+04
        10  26 -6.032333E+06 -8.042738E+05  8.605034E+04 -2.568605E+06 -1.154582E+05 -6.136856E+04
        10  27 -5.921985E+06 -5.507706E+05  4.901176E+04 -2.129074E+06 -1.761801E+05 -9.507521E+04
        11   1 -9.774710E+06 -2.014753E+06 -1.094548E+06 -3.414844E+06  2.076195E+05  1.255186E+05
        11   2 -9.779239E+06 -1.997464E+06 -1.363825E+06 -3.559382E+06  5.060675E+05  2.606408E+05
        11   3 -1.056484E+07 -2.955402E+06 -2.204989E+06 -3.012499E+06  8.259569E+05  3.400794E+05
        11   4 -7.088907E+06 -8.912762E+05 -3.320805E+05 -2.585034E+06  2.179993E+05  1.296230E+05
        11   5 -6.769977E+06 -8.667543E+05 -5.374147E+05 -2.754423E+06  5.055421E+05  2.603750E+05
        11   6 -7.227298E+06 -1.811335E+06 -1.303527E+06 -2.233078E+06  8.146642E+05  3.355021E+05
        11   7 -4.396041E+06  2.330044E+05  4.296831E+05 -1.751802E+06  2.284275E+05  1.337492E+05
        11   8 -3.751902E+06  2.644113E+05  2.881631E+05 -1.945935E+06  5.050074E+05  2.601059E+05
        11   9 -3.878953E+06 -6.671374E+05 -4.030397E+05 -1.450068E+06  8.032910E+05  3.309018E+05
        11  10 -9.774761E+06 -2.014782E+06 -1.094660E+06 -3.414865E+06 -2.244503E-09 -6.661792E-10
        11  11 -9.779537E+06 -1.997608E+06 -1.364445E+06 -3.559490E+06  4.497768E-09  2.395180E-09
        11  12 -1.056561E+07 -2.955715E+06 -2.206517E+06 -3.012728E+06  1.415578E-09  1.416364E-09
        11  13 -7.088963E+06 -8.913073E+05 -3.322029E+05 -2.585056E+06 -4.410916E-09  7.687522E-11
        11  14 -6.770272E+06 -8.668975E+05 -5.380302E+05 -2.754530E+06  1.386122E-09  1.394926E-08
        11  15 -7.228048E+06 -1.811638E+06 -1.305005E+06 -2.233300E+06  7.213465E-10 -6.880912E-10
        11  16 -4.396102E+06  2.329710E+05  4.295504E+05 -1.751827E+06  3.598868E-09 -1.534541E-09
        11  17 -3.752196E+06  2.642692E+05  2.875521E+05 -1.946041E+06  1.451911E-09  9.297629E-09
        11  18 -3.879679E+06 -6.674304E+05 -4.044683E+05 -1.450283E+06 -2.745809E-09  2.027032E-09
        11  19 -9.774710E+06 -2.014753E+06 -1.094548E+06 -3.414844E+06 -2.076195E+05 -1.255186E+05
        11  20 -9.779239E+06 -1.997464E+06 -1.363825E+06 -3.559382E+06 -5.060675E+05 -2.606408E+05
        11  21 -1.056484E+07 -2.955402E+06 -2.204989E+06 -3.012499E+06 -8.259569E+05 -3.400794E+05
        11  22 -7.088907E+06 -8.912762E+05 -3.320805E+05 -2.585034E+06 -2.179993E+05 -1.296230E+05
        11  23 -6.769977E+06 -8.667543E+05 -5.374147E+05 -2.754423E+06 -5.055421E+05 -2.603750E+05
        11  24 -7.227298E+06 -1.811335E+06 -1.303527E+06 -2.233078E+06 -8.146642E+05 -3.355021E+05
        11  25 -4.396041E+06  2.330044E+05  4.296831E+05 -1.751802E+06 -2.284275E+05 -1.337492E+05
        11  26 -3.751902E+06  2.644113E+05  2.881631E+05 -1.945935E+06 -5.050074E+05 -2.601059E+05
        11  27 -3.878953E+06 -6.671374E+05 -4.030397E+05 -1.450068E+06 -8.032910E+05 -3.309018E+05
        12   1  1.526567E+05  7.511640E+04  1.608547E+05 -5.670080E+03  1.839075E+03 -1.061887E+03
        12   2  1.493637E+05  4.820318E+04  1.566394E+05  4.345918E+03  2.048388E+03 -4.766739E+03
        12   3  1.566142E+05  6.908194E+04  1.664108E+05 -9.133244E+03  1.466236E+03 -8.477415E+03
        12   4  7.213864E+02 -5.325335E+05  8.966251E+03 -5.236572E+03  1.839220E+03 -1.090001E+03
        12   5 -1.836495E+03 -5.564429E+05  5.500905E+03  6.538274E+03  2.048448E+03 -4.753719E+03
        12   6  6.128221E+03 -5.325892E+05  1.599483E+04 -5.183371E+03  1.465847E+03 -8.423279E+03
        12   7 -1.512418E+05 -1.139849E+06 -1.429501E+05 -4.803393E+03  1.839364E+03 -1.118087E+03
        12   8 -1.530643E+05 -1.160758E+06 -1.456652E+05  8.728899E+03  2.048508E+03 -4.740710E+03
        12   9 -1.443851E+05 -1.133932E+06 -1.344485E+05 -1.236609E+03  1.465459E+03 -8.369193E+03
        12  10  1.526567E+05  7.511640E+04  1.608547E+05 -5.670078E+03 -7.391226E-09  2.476971E-10
        12  11  1.493637E+05  4.820315E+04  1.566394E+05  4.345926E+03 -5.238629E-09 -1.685452E-09
        12  12  1.566142E+05  6.908186E+04  1.664107E+05 -9.133234E+03  8.971769E-09 -1.947889E-09
        12  13  7.213824E+02 -5.325335E+05  8.966243E+03 -5.236570E+03 -1.378773E-08 -5.787895E-10
        12  14 -1.836506E+03 -5.564429E+05  5.500855E+03  6.538281E+03  7.184679E-10 -1.842554E-11
        12  15  6.128199E+03 -5.325893E+05  1.599470E+04 -5.183361E+03 -3.799095E-09 -5.315825E-09
        12  16 -1.512418E+05 -1.139849E+06 -1.429501E+05 -4.803391E+03 -6.339988E-09 -2.370252E-10
        12  17 -1.530643E+05 -1.160758E+06 -1.456653E+05  8.728907E+03 -6.247863E-10  2.333733E-09
        12  18 -1.443851E+05 -1.133932E+06 -1.344487E+05 -1.236600E+03 -1.562485E-08  8.899955E-11
        12  19  1.526567E+05  7.511640E+04  1.608547E+05 -5.670080E+03 -1.839075E+03  1.061887E+03
        12  20  1.493637E+05  4.820318E+04  1.566394E+05  4.345918E+03 -2.048388E+03  4.766739E+03
        12  21  1.566142E+05  6.908194E+04  1.664108E+05 -9.133244E+03 -1.466236E+03  8.477415E+03
        12  22  7.213864E+02 -5.325335E+05  8.966251E+03 -5.236572E+03 -1.839220E+03  1.090001E+03
        12  23 -1.836495E+03 -5.564429E+05  5.500905E+03  6.538274E+03 -2.048448E+03  4.753719E+03
        12  24  6.128221E+03 -5.325892E+05  1.599483E+04 -5.183371E+03 -1.465847E+03  8.423279E+03
        12  25 -1.512418E+05 -1.139849E+06 -1.429501E+05 -4.803393E+03 -1.839364E+03  1.118087E+03
        12  26 -1.530643E+05 -1.160758E+06 -1.456652E+05  8.728899E+03 -2.048508E+03  4.740710E+03
        12  27 -1.443851E+05 -1.133932E+06 -1.344485E+05 -1.236609E+03 -1.465459E+03  8.369193E+03
        13   1  3.745408E+04 -3.815487E+05  5.585293E+04 -1.332390E+04  1.041941E+03 -1.166586E+04
        13   2  3.172827E+04 -3.945362E+05  6.361104E+04  1.352625E+04  7.534632E+02 -2.510181E+04
        13   3  6.357315E+04 -3.949871E+05  8.979067E+04 -1.188128E+04  4.918492E+02 -3.853834E+04
        13   4 -2.276432E+03 -5.403139E+05  1.616581E+04 -1.173471E+04  1.041715E+03 -1.164286E+04
        13   5 -6.313812E+03 -5.465922E+05  2.559045E+04  1.456978E+04  7.532070E+02 -2.507723E+04
        13   6  2.722369E+04 -5.403323E+05  5.343841E+04 -1.138418E+04  4.915867E+02 -3.851233E+04
        13   7 -4.200884E+04 -6.990563E+05 -2.352322E+04 -1.014586E+04  1.041490E+03 -1.161986E+04
        13   8 -4.435764E+04 -6.986272E+05 -1.243189E+04  1.561312E+04  7.529508E+02 -2.505266E+04
        13   9 -9.127363E+03 -6.856583E+05  1.708455E+04 -1.088714E+04  4.913241E+02 -3.848632E+04
        13  10  3.745404E+04 -3.815489E+05  5.585267E+04 -1.332389E+04  6.021041E-09 -3.263371E-11
        13  11  3.172810E+04 -3.945368E+05  6.360985E+04  1.352627E+04 -9.262078E-09 -3.608615E-09
        13  12  6.357275E+04 -3.949887E+05  8.978788E+04 -1.188126E+04 -4.433532E-09 -2.801468E-09
        13  13 -2.276469E+03 -5.403141E+05  1.616555E+04 -1.173470E+04 -3.764354E-09 -5.511550E-09
        13  14 -6.313982E+03 -5.465929E+05  2.558927E+04  1.456980E+04 -3.708380E-09  3.998340E-11
        13  15  2.722329E+04 -5.403339E+05  5.343562E+04 -1.138416E+04 -4.146792E-09 -7.327981E-09
        13  16 -4.200888E+04 -6.990564E+05 -2.352348E+04 -1.014585E+04 -1.821180E-08 -7.049260E-11
        13  17 -4.435781E+04 -6.986279E+05 -1.243307E+04  1.561313E+04  5.533195E-09  5.081831E-09
        13  18 -9.127761E+03 -6.856599E+05  1.708176E+04 -1.088712E+04  2.784892E-09  3.961193E-10
        13  19  3.745408E+04 -3.815487E+05  5.585293E+04 -1.332390E+04 -1.041941E+03  1.166586E+04
        13  20  3.172827E+04 -3.945362E+05  6.361104E+04  1.352625E+04 -7.534632E+02  2.510181E+04
        13  21  6.357315E+04 -3.949871E+05  8.979067E+04 -1.188128E+04 -4.918492E+02  3.853834E+04
        13  22 -2.276432E+03 -5.403139E+05  1.616581E+04 -1.173471E+04 -1.041715E+03  1.164286E+04
        13  23 -6.313812E+03 -5.465922E+05  2.559045E+04  1.456978E+04 -7.532070E+02  2.507723E+04
        13  24  2.722369E+04 -5.403323E+05  5.343841E+04 -1.138418E+04 -4.915867E+02  3.851233E+04
        13  25 -4.200884E+04 -6.990563E+05 -2.352322E+04 -1.014586E+04 -1.041490E+03  1.161986E+04
        13  26 -4.435764E+04 -6.986272E+05 -1.243189E+04  1.561312E+04 -7.529508E+02  2.505266E+04
        13  27 -9.127363E+03 -6.856583E+05  1.708455E+04 -1.088714E+04 -4.913241E+02  3.848632E+04
        14   1 -1.068463E+05 -9.313195E+05 -3.664829E+04 -9.148700E+03 -1.376361E+02 -4.956225E+04
        14   2 -1.465300E+05 -9.824517E+05 -7.196994E+03  1.609288E+04 -6.828666E+02 -1.026466E+05
        14   3  7.151977E+04 -9.420714E+05  1.253320E+05 -8.149607E+02  3.570549E+02 -1.557158E+05
        14   4 -4.680946E+03 -5.228523E+05  6.552165E+04 -9.828351E+03 -1.386574E+02 -4.949130E+04
        14   5 -4.290208E+04 -5.685288E+05  9.633367E+04  1.183361E+04 -6.822305E+02 -1.026827E+05
        14   6  1.765440E+05 -5.227125E+05  2.302514E+05 -8.652658E+03  3.594620E+02 -1.558595E+05
        14   7  9.747178E+04 -1.142336E+05  1.676790E+05 -1.050801E+04 -1.396786E+02 -4.942030E+04
        14   8  6.071289E+04 -1.544505E+05  1.998514E+05  7.571834E+03 -6.815942E+02 -1.027189E+05
        14   9  2.815552E+05 -1.031940E+05  3.351574E+05 -1.649540E+04  3.618713E+02 -1.560034E+05
        14  10 -1.068469E+05 -9.313222E+05 -3.665291E+04 -9.148706E+03 -5.309611E-09 -1.769338E-10
        14  11 -1.465328E+05 -9.824630E+05 -7.216824E+03  1.609282E+04 -9.508273E-09 -3.067676E-09
        14  12  7.151325E+04 -9.420975E+05  1.252864E+05 -8.149159E+02 -2.647702E-09 -1.931396E-09
        14  13 -4.681604E+03 -5.228549E+05  6.551705E+04 -9.828356E+03 -8.447746E-09 -6.176756E-09
        14  14 -4.290491E+04 -5.685402E+05  9.631383E+04  1.183355E+04 -8.229161E-09 -1.386234E-10
        14  15  1.765375E+05 -5.227386E+05  2.302057E+05 -8.652613E+03 -4.537507E-09 -3.912210E-09
        14  16  9.747112E+04 -1.142362E+05  1.676744E+05 -1.050802E+04 -6.996085E-09  3.164969E-10
        14  17  6.071005E+04 -1.544619E+05  1.998315E+05  7.571777E+03 -1.257534E-08  4.135047E-09
        14  18  2.815486E+05 -1.032201E+05  3.351117E+05 -1.649536E+04 -4.030299E-09  5.212162E-10
        14  19 -1.068463E+05 -9.313195E+05 -3.664829E+04 -9.148700E+03  1.376361E+02  4.956225E+04
        14  20 -1.465300E+05 -9.824517E+05 -7.196994E+03  1.609288E+04  6.828666E+02  1.026466E+05
        14  21  7.151977E+04 -9.420714E+05  1.253320E+05 -8.149607E+02 -3.570549E+02  1.557158E+05
        14  22 -4.680946E+03 -5.228523E+05  6.552165E+04 -9.828351E+03  1.386574E+02  4.949130E+04
        14  23 -4.290208E+04 -5.685288E+05  9.633367E+04  1.183361E+04  6.822305E+02  1.026827E+05
        14  24  1.765440E+05 -5.227125E+05  2.302514E+05 -8.652658E+03 -3.594620E+02  1.558595E+05
        14  25  9.747178E+04 -1.142336E+05  1.676790E+05 -1.050801E+04  1.396786E+02  4.942030E+04
        14  26  6.071289E+04 -1.544505E+05  1.998514E+05  7.571834E+03  6.815942E+02  1.027189E+05
        14  27  2.815552E+05 -1.031940E+05  3.351574E+05 -1.649540E+04 -3.618713E+02  1.560034E+05
        15   1  2.150579E+05 -4.110677E+05  2.062360E+05 -3.618143E+02  3.087157E+04 -1.946899E+01
        15   2  2.145314E+05 -4.133537E+05  2.057680E+05 -2.909242E+01  3.081896E+04 -2.607386E+02
        15   3  2.141964E+05 -4.149129E+05  2.056433E+05 -9.690960E+02  3.062501E+04 -5.022705E+02
        15   4 -1.255381E+02 -1.280280E+06  3.141231E+02 -2.828764E+02  3.087448E+04 -2.980562E+01
        15   5 -1.735791E+02 -1.280635E+06  3.088762E+02  3.536083E+02  3.082181E+04 -1.894748E+02
        15   6 -4.450480E+01 -1.280279E+06  5.904331E+02 -2.827325E+02  3.062772E+04 -3.494057E+02
        15   7 -2.153633E+05 -2.148797E+06 -2.056603E+05 -2.040263E+02  3.087740E+04 -4.012782E+01
        15   8 -2.149327E+05 -2.147225E+06 -2.052025E+05  7.358725E+02  3.082467E+04 -1.183098E+02
        15   9 -2.143393E+05 -2.144956E+06 -2.045145E+05  4.028480E+02  3.063044E+04 -1.967527E+02
        15  10  2.150568E+05 -4.110680E+05  2.062342E+05 -3.618139E+02  8.797849E-10 -7.128271E-09
        15  11  2.145304E+05 -4.133539E+05  2.057662E+05 -2.908595E+01 -1.798970E-09  7.224768E-09
        15  12  2.141954E+05 -4.149132E+05  2.056415E+05 -9.690836E+02 -8.981437E-09  1.760184E-08
        15  13 -1.265611E+02 -1.280280E+06  3.123329E+02 -2.828756E+02 -2.612753E-10  9.673137E-11
        15  14 -1.745986E+02 -1.280636E+06  3.070920E+02  3.536130E+02 -6.504015E-09  3.721088E-11
        15  15 -4.551154E+01 -1.280279E+06  5.886711E+02 -2.827238E+02 -1.261451E-09  4.441324E-10
        15  16 -2.153643E+05 -2.148797E+06 -2.056621E+05 -2.040253E+02 -3.584077E-10  7.246625E-09
        15  17 -2.149337E+05 -2.147225E+06 -2.052043E+05  7.358754E+02 -7.120250E-09 -8.483728E-09
        15  18 -2.143403E+05 -2.144956E+06 -2.045163E+05  4.028529E+02 -4.950517E-09 -1.787703E-08
        15  19  2.150579E+05 -4.110677E+05  2.062360E+05 -3.618143E+02 -3.087157E+04  1.946899E+01
        15  20  2.145314E+05 -4.133537E+05  2.057680E+05 -2.909242E+01 -3.081896E+04  2.607386E+02
        15  21  2.141964E+05 -4.149129E+05  2.056433E+05 -9.690960E+02 -3.062501E+04  5.022705E+02
        15  22 -1.255381E+02 -1.280280E+06  3.141231E+02 -2.828764E+02 -3.087448E+04  2.980562E+01
        15  23 -1.735791E+02 -1.280635E+06  3.088762E+02  3.536083E+02 -3.082181E+04  1.894748E+02
        15  24 -4.450480E+01 -1.280279E+06  5.904331E+02 -2.827325E+02 -3.062772E+04  3.494057E+02
        15  25 -2.153633E+05 -2.148797E+06 -2.056603E+05 -2.040263E+02 -3.087740E+04  4.012782E+01
        15  26 -2.149327E+05 -2.147225E+06 -2.052025E+05  7.358725E+02 -3.082467E+04  1.183098E+02
        15  27 -2.143393E+05 -2.144956E+06 -2.045145E+05  4.028480E+02 -3.063044E+04  1.967527E+02
        16   1  2.129445E+05 -4.193497E+05  2.046354E+05 -1.801949E+03  3.068291E+04 -2.924690E+02
        16   2  2.114220E+05 -4.256340E+05  2.036868E+05 -8.147318E+00  3.038012E+04 -1.574711E+03
        16   3  2.111251E+05 -4.308305E+05  2.040109E+05 -2.011498E+03  2.885412E+04 -2.860106E+03
        16   4 -1.687667E+02 -1.280221E+06  7.283951E+02 -8.443474E+02  3.068601E+04 -4.687918E+02
        16   5 -2.633243E+02 -1.280702E+06  1.116460E+03  1.055333E+03  3.038201E+04 -1.045919E+03
        16   6  7.457050E+02 -1.280218E+06  2.287981E+03 -8.424661E+02  2.885404E+04 -1.626211E+03
        16   7 -2.133353E+05 -2.140410E+06 -2.032302E+05  1.121413E+02  3.068911E+04 -6.448708E+02
        16   8 -2.120013E+05 -2.135097E+06 -2.015047E+05  2.117633E+03  3.038390E+04 -5.178507E+02
        16   9 -2.096857E+05 -2.128941E+06 -1.994854E+05  3.253221E+02  2.885396E+04 -3.939954E+02
        16  10  2.129435E+05 -4.193499E+05  2.046337E+05 -1.801942E+03 -7.745380E-09 -1.625466E-08
        16  11  2.114210E+05 -4.256343E+05  2.036850E+05 -8.108795E+00 -1.707859E-09 -1.516959E-08
        16  12  2.111242E+05 -4.308307E+05  2.040094E+05 -2.011431E+03 -1.831826E-09 -1.924220E-09
        16  13 -1.697773E+02 -1.280221E+06  7.266262E+02 -8.443358E+02 -1.087263E-08  7.566443E-10
        16  14 -2.643153E+02 -1.280702E+06  1.114724E+03  1.055358E+03 -4.131120E-10  7.977132E-11
        16  15  7.448108E+02 -1.280218E+06  2.286413E+03 -8.424283E+02 -1.013056E-08  7.682054E-10
        16  16 -2.133363E+05 -2.140410E+06 -2.032320E+05  1.121572E+02 -3.561897E-09  1.697456E-08
        16  17 -2.120023E+05 -2.135097E+06 -2.015064E+05  2.117645E+03 -1.350268E-09  1.144397E-08
        16  18 -2.096866E+05 -2.128942E+06 -1.994869E+05  3.253312E+02 -2.795327E-09  1.281554E-09
        16  19  2.129445E+05 -4.193497E+05  2.046354E+05 -1.801949E+03 -3.068291E+04  2.924690E+02
        16  20  2.114220E+05 -4.256340E+05  2.036868E+05 -8.147318E+00 -3.038012E+04  1.574711E+03
        16  21  2.111251E+05 -4.308305E+05  2.040109E+05 -2.011498E+03 -2.885412E+04  2.860106E+03
        16  22 -1.687667E+02 -1.280221E+06  7.283951E+02 -8.443474E+02 -3.068601E+04  4.687918E+02
        16  23 -2.633243E+02 -1.280702E+06  1.116460E+03  1.055333E+03 -3.038201E+04  1.045919E+03
        16  24  7.457050E+02 -1.280218E+06  2.287981E+03 -8.424661E+02 -2.885404E+04  1.626211E+03
        16  25 -2.133353E+05 -2.140410E+06 -2.032302E+05  1.121413E+02 -3.068911E+04  6.448708E+02
        16  26 -2.120013E+05 -2.135097E+06 -2.015047E+05  2.117633E+03 -3.038390E+04  5.178507E+02
        16  27 -2.096857E+05 -2.128941E+06 -1.994854E+05  3.253221E+02 -2.885396E+04  3.939954E+02
        17   1  2.074320E+05 -4.390239E+05  2.014644E+05 -4.309476E+03  3.110940E+04  2.231326E+03
        17   2  2.043679E+05 -4.510117E+05  2.011590E+05  1.018796E+03  2.941110E+04 -1.072169E+04
        17   3  2.139288E+05 -4.576091E+05  2.125622E+05 -3.866264E+02  9.372191E+03 -2.373756E+04
        17   4 -5.935059E+02 -1.279639E+06  2.783682E+03 -1.505054E+03  3.112286E+04 -2.049821E+03
        17   5 -1.220741E+03 -1.281413E+06  4.384256E+03  1.877140E+03  2.939545E+04 -4.438820E+03
        17   6  8.949354E+03 -1.279629E+06  1.035556E+04 -1.475138E+03  9.316575E+03 -6.890940E+03
        17   7 -2.086697E+05 -2.119603E+06 -1.959460E+05  1.295946E+03  3.113630E+04 -6.325197E+03
        17   8 -2.068590E+05 -2.111180E+06 -1.924383E+05  2.734787E+03  2.937981E+04  1.835687E+03
        17   9 -1.960803E+05 -2.101033E+06 -1.918998E+05 -2.561691E+03  9.260862E+03  9.933402E+03
        17  10  2.074310E+05 -4.390242E+05  2.014626E+05 -4.309532E+03 -9.177824E-09 -6.377200E-09
        17  11  2.043670E+05 -4.510120E+05  2.011571E+05  1.019050E+03 -4.043803E-09 -3.553565E-09
        17  12  2.139286E+05 -4.576097E+05  2.125609E+05 -3.864473E+02  9.346554E-09  8.640757E-09
        17  13 -5.945465E+02 -1.279639E+06  2.781855E+03 -1.505003E+03 -6.176774E-10  1.357173E-09
        17  14 -1.221674E+03 -1.281413E+06  4.382596E+03  1.877246E+03  5.302985E-09 -9.571985E-11
        17  15  8.949248E+03 -1.279629E+06  1.035530E+04 -1.475086E+03  1.684479E-08  1.078543E-09
        17  16 -2.086708E+05 -2.119603E+06 -1.959479E+05  1.296105E+03 -5.046693E-09  7.627587E-09
        17  17 -2.068599E+05 -2.111180E+06 -1.924399E+05  2.734743E+03 -1.331981E-09 -2.877159E-09
        17  18 -1.960804E+05 -2.101033E+06 -1.919002E+05 -2.561765E+03  6.312190E-09 -9.704468E-09
        17  19  2.074320E+05 -4.390239E+05  2.014644E+05 -4.309476E+03 -3.110940E+04 -2.231326E+03
        17  20  2.043679E+05 -4.510117E+05  2.011590E+05  1.018796E+03 -2.941110E+04  1.072169E+04
        17  21  2.139288E+05 -4.576091E+05  2.125622E+05 -3.866264E+02 -9.372191E+03  2.373756E+04
        17  22 -5.935059E+02 -1.279639E+06  2.783682E+03 -1.505054E+03 -3.112286E+04  2.049821E+03
        17  23 -1.220741E+03 -1.281413E+06  4.384256E+03  1.877140E+03 -2.939545E+04  4.438820E+03
        17  24  8.949354E+03 -1.279629E+06  1.035556E+04 -1.475138E+03 -9.316575E+03  6.890940E+03
        17  25 -2.086697E+05 -2.119603E+06 -1.959460E+05  1.295946E+03 -3.113630E+04  6.325197E+03
        17  26 -2.068590E+05 -2.111180E+06 -1.924383E+05  2.734787E+03 -2.937981E+04 -1.835687E+03
        17  27 -1.960803E+05 -2.101033E+06 -1.918998E+05 -2.561691E+03 -9.260862E+03 -9.933402E+03
        18   1  7.354983E+04  8.100663E+05  4.131429E+04 -2.801691E+00  2.581606E+04  9.506212E-03
        18   2  7.355342E+04  8.100827E+05  4.132044E+04 -1.614567E+01  2.581688E+04 -5.161180E+00
        18   3  7.355779E+04  8.101057E+05  4.133197E+04 -2.751005E+01  2.581852E+04 -1.033171E+01
        18   4 -2.180342E+01  4.832618E+05  1.252402E+01  4.400960E-01  2.581749E+04 -1.001690E+00
        18   5 -2.292499E+01  4.832584E+05  1.499344E+01 -5.495769E-01  2.581832E+04 -8.113036E+00
        18   6 -2.291904E+01  4.832618E+05  2.420396E+01  4.408316E-01  2.581996E+04 -1.522426E+01
        18   7 -7.359778E+04  1.565669E+05 -4.128958E+04  3.680412E+00  2.581893E+04 -2.012381E+00
        18   8 -7.360361E+04  1.565436E+05 -4.129079E+04  1.503932E+01  2.581976E+04 -1.106342E+01
        18   9 -7.360798E+04  1.565275E+05 -4.128390E+04  2.837879E+01  2.582139E+04 -2.011435E+01
        18  10  7.354912E+04  8.100661E+05  4.131304E+04 -2.801691E+00 -1.462243E-08  3.684438E-08
        18  11  7.355270E+04  8.100825E+05  4.131918E+04 -1.614556E+01 -4.129933E-09 -7.388984E-09
        18  12  7.355708E+04  8.101055E+05  4.133072E+04 -2.750983E+01 -4.436544E-09 -5.280932E-08
        18  13 -2.251933E+01  4.832617E+05  1.127117E+01  4.401167E-01  3.596947E-09 -3.559876E-11
        18  14 -2.364095E+01  4.832582E+05  1.374051E+01 -5.494083E-01  1.780877E-09 -1.197079E-10
        18  15 -2.363509E+01  4.832616E+05  2.295087E+01  4.411481E-01 -3.637932E-09  1.462696E-10
        18  16 -7.359850E+04  1.565667E+05 -4.129084E+04  3.680454E+00 -1.035926E-08 -3.686737E-08
        18  17 -7.360433E+04  1.565434E+05 -4.129204E+04  1.503955E+01 -5.871211E-09  7.357624E-09
        18  18 -7.360869E+04  1.565274E+05 -4.128516E+04  2.837921E+01 -6.263899E-10  5.289373E-08
        18  19  7.354983E+04  8.100663E+05  4.131429E+04 -2.801691E+00 -2.581606E+04 -9.506138E-03
        18  20  7.355342E+04  8.100827E+05  4.132044E+04 -1.614567E+01 -2.581688E+04  5.161180E+00
        18  21  7.355779E+04  8.101057E+05  4.133197E+04 -2.751005E+01 -2.581852E+04  1.033171E+01
        18  22 -2.180342E+01  4.832618E+05  1.252402E+01  4.400959E-01 -2.581749E+04  1.001690E+00
        18  23 -2.292499E+01  4.832584E+05  1.499344E+01 -5.495769E-01 -2.581832E+04  8.113036E+00
        18  24 -2.291904E+01  4.832618E+05  2.420396E+01  4.408317E-01 -2.581996E+04  1.522426E+01
        18  25 -7.359778E+04  1.565669E+05 -4.128958E+04  3.680412E+00 -2.581893E+04  2.012381E+00
        18  26 -7.360361E+04  1.565436E+05 -4.129079E+04  1.503932E+01 -2.581976E+04  1.106342E+01
        18  27 -7.360798E+04  1.565275E+05 -4.128390E+04  2.837879E+01 -2.582139E+04  2.011435E+01
        19   1  7.356282E+04  8.101305E+05  4.134263E+04 -3.289355E+01  2.582001E+04 -1.321509E+01
        19   2  7.357395E+04  8.101844E+05  4.137495E+04 -5.234701E+01  2.582233E+04 -4.128208E+01
        19   3  7.358713E+04  8.102481E+05  4.142786E+04 -6.249799E+01  2.582363E+04 -6.934870E+01
        19   4 -2.347594E+01  4.832624E+05  3.114515E+01  2.068188E+00  2.582145E+04 -1.998652E+01
        19   5 -2.627796E+01  4.832576E+05  5.242980E+01 -2.583054E+00  2.582377E+04 -4.559963E+01
        19   6 -2.744677E+01  4.832624E+05  9.262216E+01  2.068443E+00  2.582507E+04 -7.121237E+01
        19   7 -7.361412E+04  1.565039E+05 -4.128068E+04  3.701378E+01  2.582288E+04 -2.675456E+01
        19   8 -7.363085E+04  1.564406E+05 -4.127043E+04  4.715767E+01  2.582520E+04 -4.991502E+01
        19   9 -7.364637E+04  1.563863E+05 -4.124296E+04  6.660457E+01  2.582650E+04 -7.307511E+01
        19  10  7.356211E+04  8.101303E+05  4.134138E+04 -3.289328E+01 -2.198774E-10 -3.669580E-09
        19  11  7.357323E+04  8.101842E+05  4.137369E+04 -5.234615E+01 -2.193977E-09 -2.103294E-09
        19  12  7.358641E+04  8.102479E+05  4.142661E+04 -6.249655E+01  1.188986E-09  3.533465E-10
        19  13 -2.419207E+01  4.832622E+05  2.989192E+01  2.068604E+00 -6.751168E-09  1.454181E-10
        19  14 -2.699423E+01  4.832575E+05  5.117634E+01 -2.582106E+00  1.042218E-09 -3.945237E-10
        19  15 -2.816311E+01  4.832622E+05  9.136857E+01  2.069924E+00  5.014128E-10  2.490453E-10
        19  16 -7.361484E+04  1.565037E+05 -4.128194E+04  3.701434E+01 -2.407892E-09  3.538213E-09
        19  17 -7.363157E+04  1.564404E+05 -4.127168E+04  4.715871E+01 -5.542150E-09  1.963635E-09
        19  18 -7.364709E+04  1.563861E+05 -4.124421E+04  6.660609E+01  3.391832E-09 -2.430898E-10
        19  19  7.356282E+04  8.101305E+05  4.134263E+04 -3.289355E+01 -2.582001E+04  1.321509E+01
        19  20  7.357395E+04  8.101844E+05  4.137495E+04 -5.234701E+01 -2.582233E+04  4.128208E+01
        19  21  7.358713E+04  8.102481E+05  4.142786E+04 -6.249799E+01 -2.582363E+04  6.934870E+01
        19  22 -2.347594E+01  4.832624E+05  3.114515E+01  2.068188E+00 -2.582145E+04  1.998652E+01
        19  23 -2.627796E+01  4.832576E+05  5.242980E+01 -2.583054E+00 -2.582377E+04  4.559963E+01
        19  24 -2.744677E+01  4.832624E+05  9.262216E+01  2.068443E+00 -2.582507E+04  7.121237E+01
        19  25 -7.361412E+04  1.565039E+05 -4.128068E+04  3.701378E+01 -2.582288E+04  2.675456E+01
        19  26 -7.363085E+04  1.564406E+05 -4.127043E+04  4.715767E+01 -2.582520E+04  4.991502E+01
        19  27 -7.364637E+04  1.563863E+05 -4.124296E+04  6.660457E+01 -2.582650E+04  7.307511E+01
        20   1  7.359766E+04  8.103006E+05  4.146807E+04 -7.099450E+01  2.582477E+04 -8.771158E+01
        20   2  7.361959E+04  8.103844E+05  4.159190E+04 -9.718968E+01  2.581853E+04 -2.281375E+02
        20   3  7.365910E+04  8.104966E+05  4.181329E+04 -1.077872E+02  2.579752E+04 -3.685660E+02
        20   4 -2.894916E+01  4.832652E+05  1.222182E+02  3.466610E+00  2.582621E+04 -9.035251E+01
        20   5 -3.271529E+01  4.832540E+05  2.125125E+02 -4.331482E+00  2.581996E+04 -1.952397E+02
        20   6 -2.506084E+01  4.832651E+05  3.757431E+02  3.468045E+00  2.579894E+04 -3.001300E+02
        20   7 -7.365992E+04  1.563396E+05 -4.122398E+04  7.789259E+01  2.582764E+04 -9.299211E+01
        20   8 -7.368938E+04  1.562335E+05 -4.116722E+04  8.848251E+01  2.582139E+04 -1.623584E+02
        20   9 -7.371359E+04  1.561435E+05 -4.106216E+04  1.146700E+02  2.580035E+04 -2.317282E+02
        20  10  7.359695E+04  8.103004E+05  4.146682E+04 -7.099268E+01  9.009308E-10 -6.349773E-08
        20  11  7.361888E+04  8.103842E+05  4.159065E+04 -9.718494E+01  2.214152E-09  1.180764E-09
        20  12  7.365839E+04  8.104964E+05  4.181204E+04 -1.077795E+02  6.027693E-09  6.694281E-08
        20  13 -2.966556E+01  4.832650E+05  1.209645E+02  3.468489E+00  2.990108E-09  2.867797E-10
        20  14 -3.343135E+01  4.832539E+05  2.112593E+02 -4.327423E+00  6.534511E-09 -5.883039E-10
        20  15 -2.577575E+01  4.832650E+05  3.744919E+02  3.474280E+00  8.175222E-10  3.849783E-10
        20  16 -7.366063E+04  1.563394E+05 -4.122523E+04  7.789452E+01  5.172550E-09  6.313859E-08
        20  17 -7.369010E+04  1.562333E+05 -4.116847E+04  8.848588E+01 -3.458335E-11 -1.404987E-09
        20  18 -7.371431E+04  1.561434E+05 -4.106341E+04  1.146748E+02 -4.632827E-09 -6.675016E-08
        20  19  7.359766E+04  8.103006E+05  4.146807E+04 -7.099450E+01 -2.582477E+04  8.771158E+01
        20  20  7.361959E+04  8.103844E+05  4.159190E+04 -9.718968E+01 -2.581853E+04  2.281375E+02
        20  21  7.365910E+04  8.104966E+05  4.181329E+04 -1.077872E+02 -2.579752E+04  3.685660E+02
        20  22 -2.894916E+01  4.832652E+05  1.222182E+02  3.466611E+00 -2.582621E+04  9.035251E+01
        20  23 -3.271529E+01  4.832540E+05  2.125125E+02 -4.331482E+00 -2.581996E+04  1.952397E+02
        20  24 -2.506084E+01  4.832651E+05  3.757431E+02  3.468045E+00 -2.579894E+04  3.001300E+02
        20  25 -7.365992E+04  1.563396E+05 -4.122398E+04  7.789259E+01 -2.582764E+04  9.299211E+01
        20  26 -7.368938E+04  1.562335E+05 -4.116722E+04  8.848251E+01 -2.582139E+04  1.623584E+02
        20  27 -7.371359E+04  1.561435E+05 -4.106216E+04  1.146700E+02 -2.580035E+04  2.317282E+02
        21   1 -4.138493E+06 -6.636436E+05 -6.543694E+05 -8.536744E+04  7.504679E+04  5.184467E+03
        21   2 -4.877114E+06 -9.381166E+05 -9.000374E+05  1.409726E+05  5.989238E+04  1.202795E+04
        21   3 -4.059264E+06 -8.176301E+05 -7.440868E+05  2.891104E+04  4.447219E+04  4.238087E+03
        21   4 -6.378796E+05  2.138844E+05  2.230211E+05 -8.873918E+04  7.601557E+04  5.181745E+03
        21   5 -1.420410E+06 -6.910419E+04 -3.274107E+04  8.139382E+04  6.008245E+04  1.201885E+04
        21   6 -6.422051E+05  4.550009E+04  1.136301E+05 -8.681206E+04  4.388550E+04  4.261874E+03
        21   7  2.873888E+06  1.090483E+06  1.099482E+06 -9.212728E+04  7.698885E+04  5.179024E+03
        21   8  2.047184E+06  7.990059E+05  8.336469E+05  2.154152E+04  6.027283E+04  1.200975E+04
        21   9  2.785488E+06  9.077657E+05  9.704588E+05 -2.030573E+05  4.329503E+04  4.285843E+03
        21  10 -4.138499E+06 -6.636452E+05 -6.543801E+05 -8.536775E+04  2.590917E-11  4.521577E-10
        21  11 -4.877118E+06 -9.381178E+05 -9.000445E+05  1.409721E+05  5.246855E-09 -5.553229E-10
        21  12 -4.059266E+06 -8.176307E+05 -7.440905E+05  2.891089E+04 -5.692931E-09  1.063042E-09
        21  13 -6.378858E+05  2.138828E+05  2.230102E+05 -8.873950E+04  6.412084E-09 -3.542927E-10
        21  14 -1.420414E+06 -6.910531E+04 -3.274814E+04  8.139324E+04 -4.328474E-09 -1.473223E-10
        21  15 -6.422071E+05  4.549956E+04  1.136264E+05 -8.681221E+04  5.450448E-09  2.409153E-09
        21  16  2.873881E+06  1.090481E+06  1.099471E+06 -9.212760E+04  1.669557E-11 -1.428460E-09
        21  17  2.047180E+06  7.990048E+05  8.336398E+05  2.154094E+04  1.125827E-09 -1.463071E-09
        21  18  2.785486E+06  9.077651E+05  9.704552E+05 -2.030575E+05  1.236631E-08  3.108413E-09
        21  19 -4.138493E+06 -6.636436E+05 -6.543694E+05 -8.536744E+04 -7.504679E+04 -5.184467E+03
        21  20 -4.877114E+06 -9.381166E+05 -9.000374E+05  1.409726E+05 -5.989238E+04 -1.202795E+04
        21  21 -4.059264E+06 -8.176301E+05 -7.440868E+05  2.891104E+04 -4.447219E+04 -4.238087E+03
        21  22 -6.378796E+05  2.138844E+05  2.230211E+05 -8.873918E+04 -7.601557E+04 -5.181745E+03
        21  23 -1.420410E+06 -6.910419E+04 -3.274107E+04  8.139382E+04 -6.008245E+04 -1.201885E+04
        21  24 -6.422051E+05  4.550009E+04  1.136301E+05 -8.681206E+04 -4.388550E+04 -4.261874E+03
        21  25  2.873888E+06  1.090483E+06  1.099482E+06 -9.212728E+04 -7.698885E+04 -5.179024E+03
        21  26  2.047184E+06  7.990059E+05  8.336469E+05  2.154152E+04 -6.027283E+04 -1.200975E+04
        21  27  2.785488E+06  9.077657E+05  9.704588E+05 -2.030573E+05 -4.329503E+04 -4.285843E+03
        22   1  1.799462E+05  2.808611E+05  3.137651E+05 -1.614877E+05  2.065416E+04 -1.117286E+03
        22   2  1.894986E+05  3.201943E+05  3.122933E+05  8.133306E+04  1.514102E+04 -4.598118E+03
        22   3  3.015445E+05  2.430484E+05  3.113703E+05 -1.461430E+05  9.729312E+03 -6.891246E+03
        22   4 -9.633910E+05 -8.010393E+03  2.724817E+04 -1.165372E+05  2.041945E+04 -1.105760E+03
        22   5 -1.013394E+06  1.755054E+04  1.120870E+04  1.176403E+05  1.497162E+04 -4.591684E+03
        22   6 -9.611896E+05 -7.368111E+04 -4.398148E+03 -1.185373E+05  9.625794E+03 -6.888682E+03
        22   7 -2.105542E+06 -2.969775E+05 -2.593680E+05 -7.165498E+04  2.018514E+04 -1.094256E+03
        22   8 -2.214974E+06 -2.852006E+05 -2.899855E+05  1.538904E+05  1.480253E+04 -4.585263E+03
        22   9 -2.222477E+06 -3.905300E+05 -3.202871E+05 -9.097555E+04  9.522470E+03 -6.886124E+03
        22  10  1.799457E+05  2.808610E+05  3.137643E+05 -1.614877E+05 -6.979924E-09 -3.324495E-09
        22  11  1.894983E+05  3.201942E+05  3.122928E+05  8.133312E+04 -7.251599E-09 -1.407422E-09
        22  12  3.015444E+05  2.430483E+05  3.113700E+05 -1.461429E+05 -5.506136E-09 -4.963705E-10
        22  13 -9.633914E+05 -8.010506E+03  2.724738E+04 -1.165371E+05 -2.234110E-09  1.430936E-09
        22  14 -1.013395E+06  1.755046E+04  1.120823E+04  1.176404E+05  8.370338E-09 -6.310531E-10
        22  15 -9.611897E+05 -7.368119E+04 -4.398411E+03 -1.185372E+05 -1.865620E-09 -2.995841E-09
        22  16 -2.105542E+06 -2.969776E+05 -2.593688E+05 -7.165497E+04  1.631614E-08 -1.716491E-09
        22  17 -2.214975E+06 -2.852007E+05 -2.899860E+05  1.538905E+05  5.650779E-09 -7.773607E-09
        22  18 -2.222477E+06 -3.905300E+05 -3.202874E+05 -9.097550E+04  3.909716E-09 -7.694657E-09
        22  19  1.799462E+05  2.808611E+05  3.137651E+05 -1.614877E+05 -2.065416E+04  1.117286E+03
        22  20  1.894986E+05  3.201943E+05  3.122933E+05  8.133306E+04 -1.514102E+04  4.598118E+03
        22  21  3.015445E+05  2.430484E+05  3.113703E+05 -1.461430E+05 -9.729312E+03  6.891246E+03
        22  22 -9.633910E+05 -8.010393E+03  2.724817E+04 -1.165372E+05 -2.041945E+04  1.105760E+03
        22  23 -1.013394E+06  1.755054E+04  1.120870E+04  1.176403E+05 -1.497162E+04  4.591684E+03
        22  24 -9.611896E+05 -7.368111E+04 -4.398148E+03 -1.185373E+05 -9.625794E+03  6.888682E+03
        22  25 -2.105542E+06 -2.969775E+05 -2.593680E+05 -7.165498E+04 -2.018514E+04  1.094256E+03
        22  26 -2.214974E+06 -2.852006E+05 -2.899855E+05  1.538904E+05 -1.480253E+04  4.585263E+03
        22  27 -2.222477E+06 -3.905300E+05 -3.202871E+05 -9.097555E+04 -9.522470E+03  6.886124E+03
        23   1  3.818515E+06  1.159421E+06  1.197998E+06 -1.060507E+05 -1.630816E+04 -9.674861E+03
        23   2  2.663433E+06  1.031216E+06  9.460558E+05  1.880917E+04  3.930366E+03 -1.480225E+04
        23   3  3.837357E+06  1.138404E+06  1.192720E+06  7.786051E+04  2.416621E+04 -1.036485E+04
        23   4 -4.729262E+05  8.634529E+04  1.272166E+05 -2.503286E+04 -1.668468E+04 -9.670654E+03
        23   5 -1.632494E+06 -4.191394E+04 -1.266882E+05  5.837958E+03  3.891645E+03 -1.480882E+04
        23   6 -4.715904E+05  5.909003E+04  1.172353E+05 -2.913997E+04  2.446487E+04 -1.036068E+04
        23   7 -4.747725E+06 -9.881066E+05 -9.449522E+05  5.552350E+04 -1.705829E+04 -9.666546E+03
        23   8 -5.911716E+06 -1.116437E+06 -1.200825E+06 -7.060245E+03  3.853117E+03 -1.481542E+04
        23   9 -4.763757E+06 -1.021603E+06 -9.596487E+05 -1.355297E+05  2.476100E+04 -1.035662E+04
        23  10  3.818514E+06  1.159421E+06  1.197997E+06 -1.060508E+05 -5.214609E-09  4.937785E-09
        23  11  2.663433E+06  1.031216E+06  9.460554E+05  1.880921E+04  1.485061E-09  4.795487E-09
        23  12  3.837357E+06  1.138403E+06  1.192718E+06  7.786071E+04 -5.317037E-11 -2.085946E-09
        23  13 -4.729265E+05  8.634512E+04  1.272159E+05 -2.503299E+04 -3.100183E-09  4.821674E-09
        23  14 -1.632494E+06 -4.191418E+04 -1.266886E+05  5.838005E+03 -2.141725E-09 -4.869105E-09
        23  15 -4.715911E+05  5.908975E+04  1.172339E+05 -2.913976E+04  1.898546E-09 -1.511846E-09
        23  16 -4.747725E+06 -9.881068E+05 -9.449529E+05  5.552336E+04  5.682797E-09  8.748171E-10
        23  17 -5.911716E+06 -1.116437E+06 -1.200826E+06 -7.060199E+03 -2.283234E-09 -5.468149E-09
        23  18 -4.763758E+06 -1.021603E+06 -9.596501E+05 -1.355295E+05 -1.795558E-09 -3.335835E-09
        23  19  3.818515E+06  1.159421E+06  1.197998E+06 -1.060507E+05  1.630816E+04  9.674861E+03
        23  20  2.663433E+06  1.031216E+06  9.460558E+05  1.880917E+04 -3.930366E+03  1.480225E+04
        23  21  3.837357E+06  1.138404E+06  1.192720E+06  7.786051E+04 -2.416621E+04  1.036485E+04
        23  22 -4.729262E+05  8.634529E+04  1.272166E+05 -2.503286E+04  1.668468E+04  9.670654E+03
        23  23 -1.632494E+06 -4.191394E+04 -1.266882E+05  5.837958E+03 -3.891645E+03  1.480882E+04
        23  24 -4.715904E+05  5.909003E+04  1.172353E+05 -2.913997E+04 -2.446487E+04  1.036068E+04
        23  25 -4.747725E+06 -9.881066E+05 -9.449522E+05  5.552350E+04  1.705829E+04  9.666546E+03
        23  26 -5.911716E+06 -1.116437E+06 -1.200825E+06 -7.060245E+03 -3.853117E+03  1.481542E+04
        23  27 -4.763757E+06 -1.021603E+06 -9.596487E+05 -1.355297E+05 -2.476100E+04  1.035662E+04
        24   1  1.719104E+06  5.960606E+05  6.586891E+05  1.659775E+05 -6.719790E+03 -9.579281E+03
        24   2  1.313886E+06  6.323522E+05  5.872675E+05 -2.546451E+04  5.664573E+02 -8.674916E+03
        24   3  1.605000E+06  6.335803E+05  6.433459E+05  2.278435E+05  7.413977E+03 -2.203219E+03
        24   4 -8.295803E+05 -4.464132E+04  2.142036E+04  8.780176E+04 -6.805350E+03 -9.585478E+03
        24   5 -1.178793E+06  1.194541E+03 -3.715383E+04 -1.359263E+05  7.225763E+02 -8.667835E+03
        24   6 -8.335543E+05  1.039778E+04  3.137138E+04  8.518009E+04  7.811856E+03 -2.173959E+03
        24   7 -3.372379E+06 -6.858243E+05 -6.163396E+05  9.882079E+03 -6.890509E+03 -9.591666E+03
        24   8 -3.665833E+06 -6.304135E+05 -6.620468E+05 -2.460270E+05  8.780672E+02 -8.660799E+03
        24   9 -3.266712E+06 -6.132015E+05 -5.810560E+05 -5.702338E+04  8.208121E+03 -2.144829E+03
        24  10  1.719104E+06  5.960605E+05  6.586888E+05  1.659775E+05  4.447038E-09 -7.678286E-09
        24  11  1.313886E+06  6.323521E+05  5.872673E+05 -2.546451E+04 -8.419688E-10 -8.506627E-09
        24  12  1.605000E+06  6.335803E+05  6.433458E+05  2.278435E+05  3.462619E-09  7.054749E-09
        24  13 -8.295804E+05 -4.464143E+04  2.142010E+04  8.780170E+04  3.726162E-09 -2.651526E-09
        24  14 -1.178793E+06  1.194460E+03 -3.715397E+04 -1.359263E+05  1.232495E-09 -2.350299E-08
        24  15 -8.335544E+05  1.039775E+04  3.137126E+04  8.518011E+04  8.009220E-09 -1.010311E-08
        24  16 -3.372379E+06 -6.858244E+05 -6.163398E+05  9.882026E+03 -7.989737E-09 -2.451641E-09
        24  17 -3.665833E+06 -6.304136E+05 -6.620469E+05 -2.460270E+05 -4.056463E-09 -3.201923E-09
        24  18 -3.266712E+06 -6.132015E+05 -5.810561E+05 -5.702337E+04  2.947853E-09  3.180099E-09
        24  19  1.719104E+06  5.960606E+05  6.586891E+05  1.659775E+05  6.719790E+03  9.579281E+03
        24  20  1.313886E+06  6.323522E+05  5.872675E+05 -2.546451E+04 -5.664573E+02  8.674916E+03
        24  21  1.605000E+06  6.335803E+05  6.433459E+05  2.278435E+05 -7.413977E+03  2.203219E+03
        24  22 -8.295803E+05 -4.464132E+04  2.142036E+04  8.780176E+04  6.805350E+03  9.585478E+03
        24  23 -1.178793E+06  1.194541E+03 -3.715383E+04 -1.359263E+05 -7.225763E+02  8.667835E+03
        24  24 -8.335543E+05  1.039778E+04  3.137138E+04  8.518009E+04 -7.811856E+03  2.173959E+03
        24  25 -3.372379E+06 -6.858243E+05 -6.163396E+05  9.882079E+03  6.890509E+03  9.591666E+03
        24  26 -3.665833E+06 -6.304135E+05 -6.620468E+05 -2.460270E+05 -8.780672E+02  8.660799E+03
        24  27 -3.266712E+06 -6.132015E+05 -5.810560E+05 -5.702338E+04 -8.208121E+03  2.144829E+03
        25   1 -3.252072E+06 -6.095899E+05 -5.774086E+05 -5.590600E+04 -8.150748E+03  2.097643E+03
        25   2 -3.645825E+06 -6.258422E+05 -6.571238E+05 -2.457320E+05 -9.418088E+02  8.597953E+03
        25   3 -3.358088E+06 -6.820885E+05 -6.126540E+05  1.012584E+04  6.703708E+03  9.553548E+03
        25   4 -8.360040E+05  9.641017E+03  3.071691E+04  8.538133E+04 -7.755482E+03  2.126728E+03
        25   5 -1.175690E+06  1.501949E+03 -3.647960E+04 -1.361233E+05 -7.859829E+02  8.605061E+03
        25   6 -8.320434E+05 -4.508955E+04  2.090730E+04  8.797637E+04  6.620211E+03  9.547437E+03
        25   7  1.585385E+06  6.284610E+05  6.383958E+05  2.271225E+05 -7.358618E+03  2.155943E+03
        25   8  1.300006E+06  6.284018E+05  5.836994E+05 -2.615756E+04 -6.295314E+02  8.612213E+03
        25   9  1.699809E+06  5.914347E+05  6.539839E+05  1.660811E+05  6.536325E+03  9.541319E+03
        25  10 -3.252072E+06 -6.095899E+05 -5.774087E+05 -5.590599E+04  1.188691E-08  7.858963E-09
        25  11 -3.645825E+06 -6.258422E+05 -6.571240E+05 -2.457320E+05  1.708479E-09  1.129252E-10
        25  12 -3.358088E+06 -6.820886E+05 -6.126543E+05  1.012579E+04 -2.251492E-09 -1.241268E-08
        25  13 -8.360041E+05  9.640996E+03  3.071678E+04  8.538134E+04  1.437734E-08 -1.416848E-08
        25  14 -1.175690E+06  1.501870E+03 -3.647974E+04 -1.361233E+05  4.659082E-09 -1.241869E-08
        25  15 -8.320434E+05 -4.508966E+04  2.090704E+04  8.797632E+04  3.632345E-09 -1.068826E-08
        25  16  1.585385E+06  6.284610E+05  6.383957E+05  2.271225E+05 -1.284912E-08  1.106572E-08
        25  17  1.300006E+06  6.284018E+05  5.836992E+05 -2.615756E+04 -4.904643E-09 -3.862685E-09
        25  18  1.699809E+06  5.914346E+05  6.539836E+05  1.660810E+05  5.178589E-12  9.597446E-09
        25  19 -3.252072E+06 -6.095899E+05 -5.774086E+05 -5.590600E+04  8.150748E+03 -2.097643E+03
        25  20 -3.645825E+06 -6.258422E+05 -6.571238E+05 -2.457320E+05  9.418088E+02 -8.597953E+03
        25  21 -3.358088E+06 -6.820885E+05 -6.126540E+05  1.012584E+04 -6.703708E+03 -9.553548E+03
        25  22 -8.360040E+05  9.641017E+03  3.071691E+04  8.538133E+04  7.755482E+03 -2.126728E+03
        25  23 -1.175690E+06  1.501949E+03 -3.647960E+04 -1.361233E+05  7.859829E+02 -8.605061E+03
        25  24 -8.320434E+05 -4.508955E+04  2.090730E+04  8.797637E+04 -6.620211E+03 -9.547437E+03
        25  25  1.585385E+06  6.284610E+05  6.383958E+05  2.271225E+05  7.358618E+03 -2.155943E+03
        25  26  1.300006E+06  6.284018E+05  5.836994E+05 -2.615756E+04  6.295314E+02 -8.612213E+03
        25  27  1.699809E+06  5.914347E+05  6.539839E+05  1.660811E+05 -6.536325E+03 -9.541319E+03
        26   1 -4.765556E+06 -1.021815E+06 -9.599267E+05 -1.358631E+05 -2.488626E+04  1.033532E+04
        26   2 -5.915107E+06 -1.117228E+06 -1.201439E+06 -8.656658E+03 -4.057706E+03  1.482238E+04
        26   3 -4.749768E+06 -9.887150E+05 -9.451062E+05  5.541163E+04  1.677692E+04  9.701203E+03
        26   4 -4.709550E+05  5.956357E+04  1.175836E+05 -2.854392E+04 -2.458958E+04  1.033948E+04
        26   5 -1.633318E+06 -4.204949E+04 -1.266530E+05  5.062753E+03 -4.096101E+03  1.481576E+04
        26   6 -4.722542E+05  8.637177E+04  1.277340E+05 -2.442527E+04  1.640302E+04  9.705218E+03
        26   7  3.840446E+06  1.139562E+06  1.193693E+06  7.939151E+04 -2.429035E+04  1.034376E+04
        26   8  2.665196E+06  1.031735E+06  9.467379E+05  1.885985E+04 -4.134685E+03  1.480917E+04
        26   9  3.821922E+06  1.160081E+06  1.199185E+06 -1.047199E+05  1.602622E+04  9.709331E+03
        26  10 -4.765556E+06 -1.021815E+06 -9.599281E+05 -1.358628E+05  2.108673E-09  6.452209E-10
        26  11 -5.915107E+06 -1.117228E+06 -1.201439E+06 -8.656609E+03  2.330625E-09 -2.572868E-09
        26  12 -4.749768E+06 -9.887152E+05 -9.451069E+05  5.541150E+04 -1.072800E-09 -2.253946E-09
        26  13 -4.709556E+05  5.956330E+04  1.175822E+05 -2.854371E+04  4.055106E-09  3.068275E-09
        26  14 -1.633318E+06 -4.204973E+04 -1.266535E+05  5.062802E+03  4.165017E-09 -2.761509E-09
        26  15 -4.722545E+05  8.637159E+04  1.277333E+05 -2.442540E+04  1.164294E-09 -6.865550E-09
        26  16  3.840445E+06  1.139561E+06  1.193691E+06  7.939171E+04 -4.386445E-09  5.435169E-09
        26  17  2.665195E+06  1.031734E+06  9.467375E+05  1.885990E+04  2.267473E-09  8.806519E-09
        26  18  3.821922E+06  1.160081E+06  1.199184E+06 -1.047200E+05  2.123176E-09 -7.324660E-10
        26  19 -4.765556E+06 -1.021815E+06 -9.599267E+05 -1.358631E+05  2.488626E+04 -1.033532E+04
        26  20 -5.915107E+06 -1.117228E+06 -1.201439E+06 -8.656658E+03  4.057706E+03 -1.482238E+04
        26  21 -4.749768E+06 -9.887150E+05 -9.451062E+05  5.541163E+04 -1.677692E+04 -9.701203E+03
        26  22 -4.709550E+05  5.956357E+04  1.175836E+05 -2.854392E+04  2.458958E+04 -1.033948E+04
        26  23 -1.633318E+06 -4.204949E+04 -1.266530E+05  5.062753E+03  4.096101E+03 -1.481576E+04
        26  24 -4.722542E+05  8.637177E+04  1.277340E+05 -2.442527E+04 -1.640302E+04 -9.705218E+03
        26  25  3.840446E+06  1.139562E+06  1.193693E+06  7.939151E+04  2.429035E+04 -1.034376E+04
        26  26  2.665196E+06  1.031735E+06  9.467379E+05  1.885985E+04  4.134685E+03 -1.480917E+04
        26  27  3.821922E+06  1.160081E+06  1.199185E+06 -1.047199E+05 -1.602622E+04 -9.709331E+03
        27   1 -2.241267E+06 -3.955405E+05 -3.245514E+05 -9.055715E+04 -9.980496E+03  6.943747E+03
        27   2 -2.237306E+06 -2.907412E+05 -2.946639E+05  1.543331E+05 -1.562455E+04  4.689323E+03
        27   3 -2.124540E+06 -3.006880E+05 -2.623793E+05 -7.073136E+04 -2.137369E+04  1.206995E+03
        27   4 -9.596514E+05 -7.358915E+04 -3.567718E+03 -1.184449E+05 -1.008207E+04  6.946204E+03
        27   5 -1.015315E+06  1.715070E+04  1.164959E+04  1.175306E+05 -1.579449E+04  4.695749E+03
        27   6 -9.618856E+05 -6.533620E+03  2.938283E+04 -1.163918E+05 -2.161140E+04  1.218678E+03
        27   7  3.234572E+05  2.482389E+05  3.172915E+05 -1.463778E+05 -1.018384E+04  6.948667E+03
        27   8  2.080337E+05  3.249316E+05  3.178497E+05  8.066911E+04 -1.596473E+04  4.702188E+03
        27   9  2.019980E+05  2.875217E+05  3.210422E+05 -1.621230E+05 -2.184952E+04  1.230383E+03
        27  10 -2.241267E+06 -3.955405E+05 -3.245517E+05 -9.055709E+04 -4.448182E-09  8.409171E-09
        27  11 -2.237306E+06 -2.907413E+05 -2.946644E+05  1.543331E+05 -1.532312E-09  4.343210E-09
        27  12 -2.124540E+06 -3.006881E+05 -2.623802E+05 -7.073134E+04  2.365056E-09 -8.523470E-09
        27  13 -9.596515E+05 -7.358923E+04 -3.568000E+03 -1.184448E+05 -3.831957E-09  2.064897E-08
        27  14 -1.015315E+06  1.715060E+04  1.164908E+04  1.175307E+05 -5.762582E-09  1.321169E-08
        27  15 -9.618862E+05 -6.533748E+03  2.938195E+04 -1.163918E+05 -4.916141E-10  6.732721E-10
        27  16  3.234571E+05  2.482388E+05  3.172912E+05 -1.463778E+05  6.158146E-09  6.113865E-09
        27  17  2.080334E+05  3.249315E+05  3.178492E+05  8.066917E+04  2.688987E-09  5.079068E-08
        27  18  2.019975E+05  2.875216E+05  3.210413E+05 -1.621230E+05 -2.619089E-09 -2.726239E-09
        27  19 -2.241267E+06 -3.955405E+05 -3.245514E+05 -9.055715E+04  9.980496E+03 -6.943747E+03
        27  20 -2.237306E+06 -2.907412E+05 -2.946639E+05  1.543331E+05  1.562455E+04 -4.689323E+03
        27  21 -2.124540E+06 -3.006880E+05 -2.623793E+05 -7.073136E+04  2.137369E+04 -1.206995E+03
        27  22 -9.596514E+05 -7.358915E+04 -3.567718E+03 -1.184449E+05  1.008207E+04 -6.946204E+03
        27  23 -1.015315E+06  1.715070E+04  1.164959E+04  1.175306E+05  1.579449E+04 -4.695749E+03
        27  24 -9.618856E+05 -6.533620E+03  2.938283E+04 -1.163918E+05  2.161140E+04 -1.218678E+03
        27  25  3.234572E+05  2.482389E+05  3.172915E+05 -1.463778E+05  1.018384E+04 -6.948667E+03
        27  26  2.080337E+05  3.249316E+05  3.178497E+05  8.066911E+04  1.596473E+04 -4.702188E+03
        27  27  2.019980E+05  2.875217E+05  3.210422E+05 -1.621230E+05  2.184952E+04 -1.230383E+03
        28   1  2.771087E+06  9.039029E+05  9.688068E+05 -2.033175E+05 -4.479415E+04 -4.169437E+03
        28   2  2.037503E+06  7.949835E+05  8.344087E+05  2.169475E+04 -6.359705E+04 -1.188019E+04
        28   3  2.860121E+06  1.092455E+06  1.103273E+06 -9.341311E+04 -8.213948E+04 -5.139292E+03
        28   4 -6.441413E+05  4.473952E+04  1.150806E+05 -8.727778E+04 -4.538036E+04 -4.145560E+03
        28   5 -1.417965E+06 -7.012757E+04 -2.895841E+04  8.190234E+04 -6.339876E+04 -1.188948E+04
        28   6 -6.398023E+05  2.188036E+05  2.297621E+05 -8.911091E+04 -8.115449E+04 -5.142319E+03
        28   7 -4.048813E+06 -8.152822E+05 -7.395273E+05  2.824265E+04 -4.596280E+04 -4.121863E+03
        28   8 -4.862618E+06 -9.361346E+05 -8.932275E+05  1.418357E+05 -6.320078E+04 -1.189879E+04
        28   9 -4.128647E+06 -6.557711E+05 -6.446723E+05 -8.482939E+04 -8.017399E+04 -5.145345E+03
        28  10  2.771085E+06  9.039023E+05  9.688030E+05 -2.033176E+05 -7.133649E-10 -2.730860E-08
        28  11  2.037498E+06  7.949822E+05  8.344008E+05  2.169414E+04  2.039008E-09 -1.472975E-09
        28  12  2.860114E+06  1.092453E+06  1.103261E+06 -9.341345E+04  1.242034E-09  3.297569E-10
        28  13 -6.441435E+05  4.473895E+04  1.150767E+05 -8.727793E+04 -6.840137E-09 -1.684568E-08
        28  14 -1.417969E+06 -7.012881E+04 -2.896624E+04  8.190173E+04  5.698044E-11  1.044330E-09
        28  15 -6.398093E+05  2.188018E+05  2.297497E+05 -8.911124E+04 -2.215440E-09  1.180408E-09
        28  16 -4.048815E+06 -8.152827E+05 -7.395313E+05  2.824250E+04  8.335165E-09 -2.156034E-08
        28  17 -4.862622E+06 -9.361358E+05 -8.932354E+05  1.418351E+05  9.633216E-10 -9.531856E-09
        28  18 -4.128654E+06 -6.557728E+05 -6.446845E+05 -8.482972E+04  6.441833E-10  4.619909E-09
        28  19  2.771087E+06  9.039029E+05  9.688068E+05 -2.033175E+05  4.479415E+04  4.169437E+03
        28  20  2.037503E+06  7.949835E+05  8.344087E+05  2.169475E+04  6.359705E+04  1.188019E+04
        28  21  2.860121E+06  1.092455E+06  1.103273E+06 -9.341311E+04  8.213948E+04  5.139292E+03
        28  22 -6.441413E+05  4.473952E+04  1.150806E+05 -8.727778E+04  4.538036E+04  4.145560E+03
        28  23 -1.417965E+06 -7.012757E+04 -2.895841E+04  8.190234E+04  6.339876E+04  1.188948E+04
        28  24 -6.398023E+05  2.188036E+05  2.297621E+05 -8.911091E+04  8.115449E+04  5.142319E+03
        28  25 -4.048813E+06 -8.152822E+05 -7.395273E+05  2.824265E+04  4.596280E+04  4.121863E+03
        28  26 -4.862618E+06 -9.361346E+05 -8.932275E+05  1.418357E+05  6.320078E+04  1.189879E+04
        28  27 -4.128647E+06 -6.557711E+05 -6.446723E+05 -8.482939E+04  8.017399E+04  5.145345E+03
        29   1  2.552475E+05  2.276046E+04  3.342765E+05 -7.210093E+03 -1.339369E+03  2.279161E+05
        29   2 -6.152118E+04 -2.855453E+04  1.425161E+05 -2.343817E+03 -8.796243E+02  1.499468E+05
        29   3 -7.976427E+03  2.288276E+04  9.412547E+04  4.090827E+03 -4.214740E+02  7.197426E+04
        29   4  2.551469E+05  2.286090E+04  3.342765E+05  1.361888E+03 -1.336222E+03  2.279161E+05
        29   5 -6.154640E+04 -2.852932E+04  1.425161E+05 -1.935785E+02 -8.791049E+02  1.499468E+05
        29   6 -7.926378E+03  2.283266E+04  9.412547E+04 -1.803396E+02 -4.219692E+02  7.197425E+04
        29   7  2.550465E+05  2.296149E+04  3.342765E+05  9.933870E+03 -1.333075E+03  2.279162E+05
        29   8 -6.157160E+04 -2.850410E+04  1.425161E+05  1.956660E+03 -8.785855E+02  1.499468E+05
        29   9 -7.876260E+03  2.278259E+04  9.412547E+04 -4.451506E+03 -4.224644E+02  7.197425E+04
        29  10  2.552336E+05  2.270470E+04  3.341789E+05 -7.209847E+03 -3.761172E-10 -5.790374E-11
        29  11 -6.152721E+04 -2.857867E+04  1.424738E+05 -2.343711E+03 -4.333384E-09 -3.367404E-11
        29  12 -7.977818E+03  2.287720E+04  9.411574E+04  4.090851E+03  2.344928E-09 -9.128286E-11
        29  13  2.551329E+05  2.280513E+04  3.341788E+05  1.362133E+03 -5.080445E-09  2.942924E-11
        29  14 -6.155243E+04 -2.855346E+04  1.424738E+05 -1.934724E+02 -1.232286E-08  2.006848E-11
        29  15 -7.927769E+03  2.282710E+04  9.411573E+04 -1.803152E+02  4.849004E-09  2.282757E-11
        29  16  2.550325E+05  2.290573E+04  3.341789E+05  9.934115E+03 -1.453403E-09  4.228560E-11
        29  17 -6.157764E+04 -2.852824E+04  1.424738E+05  1.956766E+03 -3.938145E-09  1.024810E-10
        29  18 -7.877651E+03  2.277703E+04  9.411574E+04 -4.451481E+03  1.662672E-09  6.167520E-11
        29  19  2.552475E+05  2.276046E+04  3.342765E+05 -7.210093E+03  1.339369E+03 -2.279161E+05
        29  20 -6.152118E+04 -2.855453E+04  1.425161E+05 -2.343817E+03  8.796243E+02 -1.499468E+05
        29  21 -7.976427E+03  2.288276E+04  9.412547E+04  4.090827E+03  4.214740E+02 -7.197426E+04
        29  22  2.551469E+05  2.286090E+04  3.342765E+05  1.361888E+03  1.336222E+03 -2.279161E+05
        29  23 -6.154640E+04 -2.852932E+04  1.425161E+05 -1.935785E+02  8.791049E+02 -1.499468E+05
        29  24 -7.926378E+03  2.283266E+04  9.412547E+04 -1.803396E+02  4.219692E+02 -7.197425E+04
        29  25  2.550465E+05  2.296149E+04  3.342765E+05  9.933870E+03  1.333075E+03 -2.279162E+05
        29  26 -6.157160E+04 -2.850410E+04  1.425161E+05  1.956660E+03  8.785855E+02 -1.499468E+05
        29  27 -7.876260E+03  2.278259E+04  9.412547E+04 -4.451506E+03  4.224644E+02 -7.197425E+04
        30   1  3.997157E+04  3.793581E+03  7.810517E+04 -1.077380E+03 -3.301940E+02  5.630044E+04
        30   2 -9.679450E+03 -4.760612E+03  3.742114E+04 -3.311236E+02 -2.147269E+02  3.662240E+04
        30   3 -1.074168E+03  3.814040E+03  2.411495E+04  6.562596E+02 -9.932327E+01  1.694452E+04
        30   4  3.995645E+04  3.808697E+03  7.810517E+04  2.119336E+02 -3.300771E+02  5.630044E+04
        30   5 -9.682994E+03 -4.757068E+03  3.742114E+04 -2.888061E+01 -2.147091E+02  3.662240E+04
        30   6 -1.066139E+03  3.806010E+03  2.411495E+04 -2.856531E+01 -9.934196E+01  1.694452E+04
        30   7  3.994133E+04  3.823818E+03  7.810517E+04  1.501247E+03 -3.299602E+02  5.630044E+04
        30   8 -9.686538E+03 -4.753524E+03  3.742114E+04  2.733624E+02 -2.146913E+02  3.662240E+04
        30   9 -1.058108E+03  3.797980E+03  2.411495E+04 -7.133903E+02 -9.936066E+01  1.694452E+04
        30  10  3.997072E+04  3.790177E+03  7.809921E+04 -1.077365E+03 -5.463117E-10 -1.174580E-10
        30  11 -9.679810E+03 -4.762052E+03  3.741862E+04 -3.311173E+02  4.405911E-10  1.552641E-10
        30  12 -1.074245E+03  3.813732E+03  2.411441E+04  6.562610E+02  7.426330E-09  2.841419E-10
        30  13  3.995560E+04  3.805294E+03  7.809921E+04  2.119485E+02  5.289418E-09  4.412816E-11
        30  14 -9.683354E+03 -4.758508E+03  3.741862E+04 -2.887428E+01 -2.404670E-09  3.033889E-11
        30  15 -1.066216E+03  3.805701E+03  2.411441E+04 -2.856396E+01 -9.147648E-10 -2.984860E-11
        30  16  3.994048E+04  3.820414E+03  7.809921E+04  1.501262E+03 -4.442528E-09  1.070930E-10
        30  17 -9.686898E+03 -4.754964E+03  3.741862E+04  2.733688E+02  2.523370E-09 -1.070190E-10
        30  18 -1.058185E+03  3.797672E+03  2.411441E+04 -7.133889E+02 -1.910261E-09 -3.392885E-10
        30  19  3.997157E+04  3.793581E+03  7.810517E+04 -1.077380E+03  3.301940E+02 -5.630044E+04
        30  20 -9.679450E+03 -4.760612E+03  3.742114E+04 -3.311236E+02  2.147269E+02 -3.662240E+04
        30  21 -1.074168E+03  3.814040E+03  2.411495E+04  6.562596E+02  9.932327E+01 -1.694452E+04
        30  22  3.995645E+04  3.808697E+03  7.810517E+04  2.119336E+02  3.300771E+02 -5.630044E+04
        30  23 -9.682994E+03 -4.757068E+03  3.742114E+04 -2.888061E+01  2.147091E+02 -3.662240E+04
        30  24 -1.066139E+03  3.806010E+03  2.411495E+04 -2.856531E+01  9.934196E+01 -1.694452E+04
        30  25  3.994133E+04  3.823818E+03  7.810517E+04  1.501247E+03  3.299602E+02 -5.630044E+04
        30  26 -9.686538E+03 -4.753524E+03  3.742114E+04  2.733624E+02  2.146913E+02 -3.662240E+04
        30  27 -1.058108E+03  3.797980E+03  2.411495E+04 -7.133903E+02  9.936066E+01 -1.694452E+04
        31   1  6.203860E+03  7.530801E+02  1.988304E+04 -1.722667E+02 -7.591324E+01  1.294761E+04
        31   2 -1.738601E+03 -9.444241E+02  1.174186E+04 -3.935606E+01 -4.065019E+01  6.933537E+03
        31   3  7.801037E+02  7.567923E+02  1.013161E+04  1.349592E+02 -5.391051E+00  9.195725E+02
        31   4  6.201466E+03  7.554744E+02  1.988304E+04  3.192974E+01 -7.590898E+01  1.294761E+04
        31   5 -1.739008E+03 -9.440173E+02  1.174186E+04 -4.661017E+00 -4.064980E+01  6.933537E+03
        31   6  7.816844E+02  7.552116E+02  1.013161E+04  1.552092E-01 -5.391251E+00  9.195725E+02
        31   7  6.199071E+03  7.578689E+02  1.988304E+04  2.361262E+02 -7.590472E+01  1.294761E+04
        31   8 -1.739415E+03 -9.436105E+02  1.174186E+04  3.003403E+01 -4.064941E+01  6.933537E+03
        31   9  7.832651E+02  7.536309E+02  1.013161E+04 -1.346488E+02 -5.391450E+00  9.195725E+02
        31  10  6.203815E+03  7.529000E+02  1.988273E+04 -1.722659E+02  2.577716E-09  2.575025E-11
        31  11 -1.738614E+03 -9.444757E+02  1.174177E+04 -3.935584E+01 -9.596445E-09  2.881328E-10
        31  12  7.801035E+02  7.567914E+02  1.013161E+04  1.349592E+02  2.646359E-09 -4.568833E-10
        31  13  6.201421E+03  7.552944E+02  1.988273E+04  3.193053E+01  2.545351E-09 -2.700012E-11
        31  14 -1.739021E+03 -9.440689E+02  1.174177E+04 -4.660790E+00 -1.726898E-09  1.211642E-11
        31  15  7.816841E+02  7.552107E+02  1.013161E+04  1.552133E-01  2.893493E-09 -4.655721E-11
        31  16  6.199026E+03  7.576888E+02  1.988273E+04  2.361270E+02 -5.883495E-10  2.971295E-11
        31  17 -1.739428E+03 -9.436621E+02  1.174177E+04  3.003426E+01  1.393882E-09 -3.120648E-10
        31  18  7.832649E+02  7.536300E+02  1.013161E+04 -1.346488E+02  4.255968E-09  4.131442E-10
        31  19  6.203860E+03  7.530801E+02  1.988304E+04 -1.722667E+02  7.591324E+01 -1.294761E+04
        31  20 -1.738601E+03 -9.444241E+02  1.174186E+04 -3.935606E+01  4.065019E+01 -6.933537E+03
        31  21  7.801037E+02  7.567923E+02  1.013161E+04  1.349592E+02  5.391051E+00 -9.195725E+02
        31  22  6.201466E+03  7.554744E+02  1.988304E+04  3.192974E+01  7.590898E+01 -1.294761E+04
        31  23 -1.739008E+03 -9.440173E+02  1.174186E+04 -4.661017E+00  4.064980E+01 -6.933537E+03
        31  24  7.816844E+02  7.552116E+02  1.013161E+04  1.552092E-01  5.391251E+00 -9.195725E+02
        31  25  6.199071E+03  7.578689E+02  1.988304E+04  2.361262E+02  7.590472E+01 -1.294761E+04
        31  26 -1.739415E+03 -9.436104E+02  1.174186E+04  3.003403E+01  4.064941E+01 -6.933537E+03
        31  27  7.832651E+02  7.536309E+02  1.013161E+04 -1.346488E+02  5.391450E+00 -9.195725E+02
        32   1 -8.665808E+06 -2.731551E+06 -1.766535E+06 -3.026062E+06 -9.148291E+05 -3.343012E+05
        32   2 -8.453903E+06 -1.410853E+06 -9.241335E+05 -3.237722E+06 -5.926852E+05 -1.821795E+05
        32   3 -8.789645E+06 -1.422573E+06 -6.969430E+05 -3.099834E+06 -2.602753E+05 -5.699906E+04
        32   4 -7.609833E+06 -2.059556E+06 -1.421472E+06 -2.466132E+06 -9.002727E+05 -3.292459E+05
        32   5 -7.261000E+06 -8.820701E+05 -5.877579E+05 -2.835303E+06 -5.884736E+05 -1.806716E+05
        32   6 -7.456835E+06 -1.033518E+06 -3.601516E+05 -2.855244E+06 -2.663407E+05 -5.924407E+04
        32   7 -6.552582E+06 -1.386729E+06 -1.076510E+06 -1.905129E+06 -8.856877E+05 -3.241632E+05
        32   8 -6.066686E+06 -3.530467E+05 -2.515184E+05 -2.432122E+06 -5.842520E+05 -1.791584E+05
        32   9 -6.122270E+06 -6.444983E+05 -2.348992E+04 -2.610252E+06 -2.724202E+05 -6.149156E+04
        32  10 -8.666749E+06 -2.731902E+06 -1.768346E+06 -3.026311E+06 -1.149296E-09 -2.349065E-10
        32  11 -8.454294E+06 -1.410985E+06 -9.248675E+05 -3.237810E+06 -1.226392E-09  4.048466E-10
        32  12 -8.789720E+06 -1.422595E+06 -6.970785E+05 -3.099846E+06  3.482350E-10  1.440861E-10
        32  13 -7.610743E+06 -2.059895E+06 -1.423223E+06 -2.466373E+06  1.666679E-09  2.776688E-10
        32  14 -7.261385E+06 -8.822001E+05 -5.884798E+05 -2.835390E+06 -5.837275E-09  1.610157E-10
        32  15 -7.456913E+06 -1.033541E+06 -3.602934E+05 -2.855257E+06 -5.923812E-10 -7.803083E-11
        32  16 -6.553461E+06 -1.387056E+06 -1.078201E+06 -1.905362E+06  8.585307E-10  5.069405E-10
        32  17 -6.067064E+06 -3.531745E+05 -2.522283E+05 -2.432207E+06  2.389237E-09  6.504825E-10
        32  18 -6.122351E+06 -6.445226E+05 -2.363816E+04 -2.610266E+06 -1.991453E-09 -3.805850E-11
        32  19 -8.665808E+06 -2.731551E+06 -1.766535E+06 -3.026062E+06  9.148291E+05  3.343012E+05
        32  20 -8.453903E+06 -1.410853E+06 -9.241335E+05 -3.237722E+06  5.926852E+05  1.821795E+05
        32  21 -8.789645E+06 -1.422573E+06 -6.969430E+05 -3.099834E+06  2.602753E+05  5.699906E+04
        32  22 -7.609833E+06 -2.059556E+06 -1.421472E+06 -2.466132E+06  9.002727E+05  3.292459E+05
        32  23 -7.261000E+06 -8.820701E+05 -5.877579E+05 -2.835303E+06  5.884736E+05  1.806716E+05
        32  24 -7.456835E+06 -1.033518E+06 -3.601516E+05 -2.855244E+06  2.663407E+05  5.924407E+04
        32  25 -6.552582E+06 -1.386729E+06 -1.076510E+06 -1.905129E+06  8.856877E+05  3.241632E+05
        32  26 -6.066686E+06 -3.530467E+05 -2.515184E+05 -2.432122E+06  5.842520E+05  1.791584E+05
        32  27 -6.122270E+06 -6.444983E+05 -2.348992E+04 -2.610252E+06  2.724202E+05  6.149156E+04
        33   1 -8.568938E+06 -1.670526E+06 -6.157968E+05 -3.127008E+06 -2.136748E+05 -4.431752E+04
        33   2 -8.501420E+06 -1.466624E+06 -4.425522E+05 -3.110920E+06 -1.402886E+05 -1.599739E+04
        33   3 -8.459909E+06 -1.466121E+06 -3.682303E+05 -3.101797E+06 -6.550369E+04  8.633732E+03
        33   4 -7.402196E+06 -1.196788E+06 -2.941714E+05 -2.777668E+06 -2.130205E+05 -4.408744E+04
        33   5 -7.380200E+06 -1.033395E+06 -1.384199E+05 -2.797424E+06 -1.409771E+05 -1.626398E+04
        33   6 -7.383819E+06 -1.072940E+06 -8.036818E+04 -2.824172E+06 -6.754200E+04  7.864624E+03
        33   7 -6.234120E+06 -7.229142E+05  2.732658E+04 -2.427706E+06 -2.123644E+05 -4.385660E+04
        33   8 -6.257750E+06 -6.000770E+05  1.655988E+05 -2.483405E+06 -1.416667E+05 -1.653102E+04
        33   9 -6.306598E+06 -6.797093E+05  2.073929E+05 -2.546113E+06 -6.958416E+04  7.094189E+03
        33  10 -8.568988E+06 -1.670541E+06 -6.158876E+05 -3.127016E+06  1.928712E-09  2.508532E-09
        33  11 -8.501441E+06 -1.466630E+06 -4.425903E+05 -3.110921E+06  4.839685E-10  3.396172E-09
        33  12 -8.459914E+06 -1.466122E+06 -3.682385E+05 -3.101797E+06 -1.646220E-09  1.544556E-10
        33  13 -7.402245E+06 -1.196803E+06 -2.942616E+05 -2.777676E+06 -1.834899E-09  8.972505E-10
        33  14 -7.380221E+06 -1.033400E+06 -1.384582E+05 -2.797426E+06  3.603157E-09  2.938383E-09
        33  15 -7.383824E+06 -1.072941E+06 -8.037695E+04 -2.824171E+06 -7.051504E-09  2.147652E-09
        33  16 -6.234170E+06 -7.229286E+05  2.723722E+04 -2.427714E+06 -1.350813E-09  2.482676E-10
        33  17 -6.257772E+06 -6.000827E+05  1.655601E+05 -2.483407E+06 -1.688506E-10  2.096708E-09
        33  18 -6.306603E+06 -6.797107E+05  2.073836E+05 -2.546113E+06  8.934819E-10  4.497335E-09
        33  19 -8.568938E+06 -1.670526E+06 -6.157968E+05 -3.127008E+06  2.136748E+05  4.431752E+04
        33  20 -8.501420E+06 -1.466624E+06 -4.425522E+05 -3.110920E+06  1.402886E+05  1.599739E+04
        33  21 -8.459909E+06 -1.466121E+06 -3.682303E+05 -3.101797E+06  6.550369E+04 -8.633732E+03
        33  22 -7.402196E+06 -1.196788E+06 -2.941714E+05 -2.777668E+06  2.130205E+05  4.408744E+04
        33  23 -7.380200E+06 -1.033395E+06 -1.384199E+05 -2.797424E+06  1.409771E+05  1.626398E+04
        33  24 -7.383819E+06 -1.072940E+06 -8.036818E+04 -2.824172E+06  6.754200E+04 -7.864624E+03
        33  25 -6.234120E+06 -7.229142E+05  2.732658E+04 -2.427706E+06  2.123644E+05  4.385660E+04
        33  26 -6.257750E+06 -6.000770E+05  1.655988E+05 -2.483405E+06  1.416667E+05  1.653102E+04
        33  27 -6.306598E+06 -6.797093E+05  2.073929E+05 -2.546113E+06  6.958416E+04 -7.094189E+03
        34   1 -8.275219E+06 -1.444311E+06 -3.076562E+05 -3.070909E+06 -5.364837E+04  1.022483E+04
        34   2 -8.198658E+06 -1.345422E+06 -2.469058E+05 -3.000501E+06 -3.538587E+04  1.263514E+04
        34   3 -8.055142E+06 -1.341189E+06 -2.037954E+05 -3.011492E+06 -1.672508E+04  1.396303E+04
        34   4 -7.370334E+06 -1.098690E+06 -6.320096E+04 -2.821916E+06 -5.503769E+04  9.699595E+03
        34   5 -7.402718E+06 -1.043861E+06 -3.218754E+04 -2.784023E+06 -3.718375E+04  1.195884E+04
        34   6 -7.368066E+06 -1.083579E+06 -1.846441E+04 -2.827526E+06 -1.893509E+04  1.313498E+04
        34   7 -6.464649E+06 -7.530168E+05  1.811807E+05 -2.572590E+06 -5.642922E+04  9.173514E+03
        34   8 -6.606160E+06 -7.422615E+05  1.824737E+05 -2.567291E+06 -3.898419E+04  1.128159E+04
        34   9 -6.680532E+06 -8.259440E+05  1.668239E+05 -2.643376E+06 -2.114780E+04  1.230592E+04
        34  10 -8.275222E+06 -1.444311E+06 -3.076619E+05 -3.070908E+06 -1.185611E-09 -1.433329E-09
        34  11 -8.198659E+06 -1.345423E+06 -2.469084E+05 -3.000501E+06  4.268746E-09 -2.634834E-09
        34  12 -8.055142E+06 -1.341190E+06 -2.037963E+05 -3.011492E+06  2.637915E-09 -1.925056E-10
        34  13 -7.370337E+06 -1.098691E+06 -6.320689E+04 -2.821916E+06 -4.447162E-09 -7.290583E-10
        34  14 -7.402719E+06 -1.043861E+06 -3.219043E+04 -2.784023E+06 -2.447116E-09 -2.545974E-09
        34  15 -7.368067E+06 -1.083579E+06 -1.846541E+04 -2.827526E+06 -8.313122E-09 -6.247532E-10
        34  16 -6.464652E+06 -7.530178E+05  1.811746E+05 -2.572590E+06 -6.055016E-10 -9.439324E-12
        34  17 -6.606162E+06 -7.422620E+05  1.824706E+05 -2.567290E+06  4.455401E-09 -1.995045E-09
        34  18 -6.680533E+06 -8.259443E+05  1.668228E+05 -2.643375E+06 -3.641725E-09 -6.895590E-10
        34  19 -8.275219E+06 -1.444311E+06 -3.076562E+05 -3.070909E+06  5.364837E+04 -1.022483E+04
        34  20 -8.198658E+06 -1.345422E+06 -2.469058E+05 -3.000501E+06  3.538587E+04 -1.263514E+04
        34  21 -8.055142E+06 -1.341189E+06 -2.037954E+05 -3.011492E+06  1.672508E+04 -1.396303E+04
        34  22 -7.370334E+06 -1.098690E+06 -6.320096E+04 -2.821916E+06  5.503769E+04 -9.699595E+03
        34  23 -7.402718E+06 -1.043861E+06 -3.218754E+04 -2.784023E+06  3.718375E+04 -1.195884E+04
        34  24 -7.368066E+06 -1.083579E+06 -1.846441E+04 -2.827526E+06  1.893509E+04 -1.313498E+04
        34  25 -6.464649E+06 -7.530168E+05  1.811807E+05 -2.572590E+06  5.642922E+04 -9.173514E+03
        34  26 -6.606160E+06 -7.422615E+05  1.824737E+05 -2.567291E+06  3.898419E+04 -1.128159E+04
        34  27 -6.680532E+06 -8.259440E+05  1.668239E+05 -2.643376E+06  2.114780E+04 -1.230592E+04
        35   1 -7.819015E+06 -1.262279E+06 -1.369618E+05 -2.954796E+06 -1.291456E+04  1.175423E+04
        35   2 -7.726091E+06 -1.160204E+06 -9.386971E+04 -2.863147E+06 -6.405164E+03  7.886422E+03
        35   3 -7.540350E+06 -1.155001E+06 -5.479491E+04 -2.879427E+06  2.325012E+02  3.663366E+03
        35   4 -7.363104E+06 -1.090043E+06 -1.453904E+04 -2.831162E+06 -1.506022E+04  1.095164E+04
        35   5 -7.409376E+06 -1.040738E+06 -8.555322E+03 -2.777519E+06 -8.689875E+03  7.032939E+03
        35   6 -7.362827E+06 -1.088275E+06 -6.474624E+03 -2.831810E+06 -2.192454E+03  2.758741E+03
        35   7 -6.906988E+06 -9.177936E+05  1.078658E+05 -2.707444E+06 -1.720764E+04  1.014840E+04
        35   8 -7.092563E+06 -9.212669E+05  7.675001E+04 -2.691851E+06 -1.097588E+04  6.178974E+03
        35   9 -7.185275E+06 -1.021547E+06  4.184250E+04 -2.784180E+06 -4.618164E+03  1.853837E+03
        35  10 -7.819015E+06 -1.262279E+06 -1.369624E+05 -2.954796E+06  3.877293E-09  1.509006E-09
        35  11 -7.726091E+06 -1.160204E+06 -9.386990E+04 -2.863147E+06 -2.391333E-10  3.878113E-13
        35  12 -7.540350E+06 -1.155001E+06 -5.479493E+04 -2.879427E+06 -5.063763E-09  1.903430E-09
        35  13 -7.363104E+06 -1.090043E+06 -1.453969E+04 -2.831162E+06  1.453514E-09  1.577551E-10
        35  14 -7.409376E+06 -1.040738E+06 -8.555557E+03 -2.777519E+06 -3.821027E-09  6.310990E-10
        35  15 -7.362827E+06 -1.088275E+06 -6.474648E+03 -2.831810E+06 -1.793857E-09  2.634296E-09
        35  16 -6.906989E+06 -9.177938E+05  1.078650E+05 -2.707444E+06 -3.770309E-09  4.326215E-10
        35  17 -7.092563E+06 -9.212670E+05  7.674971E+04 -2.691851E+06 -3.780480E-09 -1.286427E-10
        35  18 -7.185275E+06 -1.021547E+06  4.184246E+04 -2.784180E+06  2.694992E-09  2.038616E-09
        35  19 -7.819015E+06 -1.262279E+06 -1.369618E+05 -2.954796E+06  1.291456E+04 -1.175423E+04
        35  20 -7.726091E+06 -1.160204E+06 -9.386971E+04 -2.863147E+06  6.405164E+03 -7.886422E+03
        35  21 -7.540350E+06 -1.155001E+06 -5.479491E+04 -2.879427E+06 -2.325012E+02 -3.663366E+03
        35  22 -7.363104E+06 -1.090043E+06 -1.453904E+04 -2.831162E+06  1.506022E+04 -1.095164E+04
        35  23 -7.409376E+06 -1.040738E+06 -8.555322E+03 -2.777519E+06  8.689875E+03 -7.032939E+03
        35  24 -7.362827E+06 -1.088275E+06 -6.474624E+03 -2.831810E+06  2.192454E+03 -2.758741E+03
        35  25 -6.906988E+06 -9.177936E+05  1.078658E+05 -2.707444E+06  1.720764E+04 -1.014840E+04
        35  26 -7.092563E+06 -9.212669E+05  7.675001E+04 -2.691851E+06  1.097588E+04 -6.178974E+03
        35  27 -7.185275E+06 -1.021547E+06  4.184250E+04 -2.784180E+06  4.618164E+03 -1.853837E+03
        36   1 -7.281438E+06 -1.058295E+06  1.604058E+04 -2.810595E+06  2.601994E+03  5.007387E+02
        36   2 -7.187074E+06 -9.563240E+05  5.252831E+04 -2.716756E+06  8.462122E+03 -4.068465E+03
        36   3 -6.998117E+06 -9.524104E+05  8.569057E+04 -2.732856E+06  1.423021E+04 -8.377203E+03
        36   4 -7.362454E+06 -1.088693E+06 -6.291385E+03 -2.832201E+06  1.753961E+02 -4.043548E+02
        36   5 -7.409836E+06 -1.040322E+06 -7.454307E+03 -2.776980E+06  6.138020E+03 -4.936185E+03
        36   6 -7.362661E+06 -1.090033E+06 -1.202375E+04 -2.831710E+06  1.200764E+04 -9.207776E+03
        36   7 -7.443465E+06 -1.119091E+06 -2.862400E+04 -2.853805E+06 -2.250856E+03 -1.309322E+03
        36   8 -7.632551E+06 -1.124318E+06 -6.744166E+04 -2.837185E+06  3.814830E+03 -5.803564E+03
        36   9 -7.727078E+06 -1.227649E+06 -1.097506E+05 -2.930511E+06  9.786511E+03 -1.003781E+04
        36  10 -7.281438E+06 -1.058295E+06  1.604057E+04 -2.810595E+06  4.701001E-10  2.667353E-09
        36  11 -7.187075E+06 -9.563241E+05  5.252815E+04 -2.716755E+06 -3.493474E-09 -3.272801E-09
        36  12 -6.998117E+06 -9.524105E+05  8.569005E+04 -2.732856E+06 -6.088114E-09 -3.126079E-09
        36  13 -7.362454E+06 -1.088693E+06 -6.291385E+03 -2.832201E+06 -3.024270E-09  1.497430E-09
        36  14 -7.409836E+06 -1.040322E+06 -7.454424E+03 -2.776980E+06 -4.120701E-09 -2.914128E-09
        36  15 -7.362661E+06 -1.090033E+06 -1.202418E+04 -2.831709E+06 -8.043668E-09 -2.771177E-09
        36  16 -7.443465E+06 -1.119091E+06 -2.862401E+04 -2.853805E+06  1.271802E-09  1.081888E-09
        36  17 -7.632551E+06 -1.124318E+06 -6.744175E+04 -2.837185E+06  1.679517E-09 -1.458473E-09
        36  18 -7.727078E+06 -1.227649E+06 -1.097509E+05 -2.930511E+06 -1.613139E-09 -2.472643E-09
        36  19 -7.281438E+06 -1.058295E+06  1.604058E+04 -2.810595E+06 -2.601994E+03 -5.007387E+02
        36  20 -7.187074E+06 -9.563240E+05  5.252831E+04 -2.716756E+06 -8.462122E+03  4.068465E+03
        36  21 -6.998117E+06 -9.524104E+05  8.569057E+04 -2.732856E+06 -1.423021E+04  8.377203E+03
        36  22 -7.362454E+06 -1.088693E+06 -6.291385E+03 -2.832201E+06 -1.753961E+02  4.043548E+02
        36  23 -7.409836E+06 -1.040322E+06 -7.454307E+03 -2.776980E+06 -6.138020E+03  4.936185E+03
        36  24 -7.362661E+06 -1.090033E+06 -1.202375E+04 -2.831710E+06 -1.200764E+04  9.207776E+03
        36  25 -7.443465E+06 -1.119091E+06 -2.862400E+04 -2.853805E+06  2.250856E+03  1.309322E+03
        36  26 -7.632551E+06 -1.124318E+06 -6.744166E+04 -2.837185E+06 -3.814830E+03  5.803564E+03
        36  27 -7.727078E+06 -1.227649E+06 -1.097506E+05 -2.930511E+06 -9.786511E+03  1.003781E+04
        37   1 -6.763110E+06 -8.583661E+05  1.476900E+05 -2.666839E+06  1.773407E+04 -1.082725E+04
        37   2 -6.684394E+06 -7.707146E+05  1.679325E+05 -2.586828E+06  3.255518E+04 -1.120487E+04
        37   3 -6.532492E+06 -7.783222E+05  1.745043E+05 -2.594449E+06  4.701650E+04 -1.058580E+04
        37   4 -7.366825E+06 -1.084651E+06 -1.510262E+04 -2.828568E+06  1.544677E+04 -1.168324E+04
        37   5 -7.404287E+06 -1.043085E+06 -2.603630E+04 -2.782481E+06  3.065096E+04 -1.191994E+04
        37   6 -7.368657E+06 -1.096874E+06 -5.095926E+04 -2.824036E+06  4.549251E+04 -1.116043E+04
        37   7 -7.970181E+06 -1.310915E+06 -1.779267E+05 -2.990154E+06  1.316194E+04 -1.253833E+04
        37   8 -8.123671E+06 -1.315423E+06 -2.200507E+05 -2.977926E+06  2.874918E+04 -1.263408E+04
        37   9 -8.204140E+06 -1.415380E+06 -2.764852E+05 -3.053340E+06  4.397077E+04 -1.173420E+04
        37  10 -6.763110E+06 -8.583663E+05  1.476892E+05 -2.666839E+06 -4.465221E-09 -1.728025E-09
        37  11 -6.684396E+06 -7.707151E+05  1.679303E+05 -2.586828E+06  1.782282E-09  1.348538E-09
        37  12 -6.532494E+06 -7.783229E+05  1.744999E+05 -2.594448E+06 -2.435120E-09  1.223848E-09
        37  13 -7.366825E+06 -1.084651E+06 -1.510332E+04 -2.828568E+06 -6.718594E-09 -1.847971E-09
        37  14 -7.404288E+06 -1.043085E+06 -2.603835E+04 -2.782481E+06 -2.459953E-09 -1.357759E-09
        37  15 -7.368659E+06 -1.096874E+06 -5.096342E+04 -2.824036E+06  9.549903E-10  9.698880E-10
        37  16 -7.970181E+06 -1.310915E+06 -1.779273E+05 -2.990154E+06 -2.909342E-09 -2.268076E-09
        37  17 -8.123672E+06 -1.315423E+06 -2.200525E+05 -2.977925E+06  2.012303E-09 -2.279604E-09
        37  18 -8.204142E+06 -1.415381E+06 -2.764891E+05 -3.053339E+06  1.655519E-09  1.734805E-09
        37  19 -6.763110E+06 -8.583661E+05  1.476900E+05 -2.666839E+06 -1.773407E+04  1.082725E+04
        37  20 -6.684394E+06 -7.707146E+05  1.679325E+05 -2.586828E+06 -3.255518E+04  1.120487E+04
        37  21 -6.532492E+06 -7.783222E+05  1.745043E+05 -2.594449E+06 -4.701650E+04  1.058580E+04
        37  22 -7.366825E+06 -1.084651E+06 -1.510262E+04 -2.828568E+06 -1.544677E+04  1.168324E+04
        37  23 -7.404287E+06 -1.043085E+06 -2.603630E+04 -2.782481E+06 -3.065096E+04  1.191994E+04
        37  24 -7.368657E+06 -1.096874E+06 -5.095926E+04 -2.824036E+06 -4.549251E+04  1.116043E+04
        37  25 -7.970181E+06 -1.310915E+06 -1.779267E+05 -2.990154E+06 -1.316194E+04  1.253833E+04
        37  26 -8.123671E+06 -1.315423E+06 -2.200507E+05 -2.977926E+06 -2.874918E+04  1.263408E+04
        37  27 -8.204140E+06 -1.415380E+06 -2.764852E+05 -3.053340E+06 -4.397077E+04  1.173420E+04
        38   1 -6.359923E+06 -7.007733E+05  2.082809E+05 -2.559449E+06  5.801446E+04 -9.572014E+03
        38   2 -6.306293E+06 -6.209947E+05  1.804055E+05 -2.494450E+06  1.161734E+05  8.326354E+03
        38   3 -6.257797E+06 -7.189672E+05  7.512238E+04 -2.452013E+06  1.729696E+05  2.988069E+04
        38   4 -7.380434E+06 -1.075126E+06 -6.474036E+04 -2.824700E+06  5.583584E+04 -1.039296E+04
        38   5 -7.385072E+06 -1.035948E+06 -1.114926E+05 -2.794709E+06  1.153587E+05  8.013634E+03
        38   6 -7.395216E+06 -1.174952E+06 -2.368531E+05 -2.787271E+06  1.735117E+05  3.007274E+04
        38   7 -8.399935E+06 -1.449435E+06 -3.378539E+05 -3.089561E+06  5.366113E+04 -1.121254E+04
        38   8 -8.462717E+06 -1.450823E+06 -4.034960E+05 -3.094488E+06  1.145455E+05  7.701461E+03
        38   9 -8.531371E+06 -1.630817E+06 -5.489479E+05 -3.121952E+06  1.740526E+05  3.026421E+04
        38  10 -6.359927E+06 -7.007743E+05  2.082744E+05 -2.559448E+06  1.955681E-09  1.894900E-09
        38  11 -6.306308E+06 -6.209985E+05  1.803798E+05 -2.494451E+06 -1.744455E-09 -4.167888E-10
        38  12 -6.257829E+06 -7.189764E+05  7.506383E+04 -2.452017E+06 -2.873043E-10  1.458230E-09
        38  13 -7.380438E+06 -1.075127E+06 -6.474647E+04 -2.824700E+06  1.643681E-09  9.117016E-10
        38  14 -7.385086E+06 -1.035952E+06 -1.115181E+05 -2.794710E+06 -3.090712E-09 -2.604743E-10
        38  15 -7.395249E+06 -1.174961E+06 -2.369121E+05 -2.787276E+06 -1.026709E-10 -3.913357E-10
        38  16 -8.399938E+06 -1.449436E+06 -3.378596E+05 -3.089560E+06 -2.820275E-09 -9.656119E-10
        38  17 -8.462731E+06 -1.450826E+06 -4.035211E+05 -3.094488E+06 -7.015325E-09  1.971193E-10
        38  18 -8.531404E+06 -1.630826E+06 -5.490074E+05 -3.121956E+06  3.385403E-09 -3.447514E-10
        38  19 -6.359923E+06 -7.007733E+05  2.082809E+05 -2.559449E+06 -5.801446E+04  9.572014E+03
        38  20 -6.306293E+06 -6.209947E+05  1.804055E+05 -2.494450E+06 -1.161734E+05 -8.326354E+03
        38  21 -6.257797E+06 -7.189672E+05  7.512238E+04 -2.452013E+06 -1.729696E+05 -2.988069E+04
        38  22 -7.380434E+06 -1.075126E+06 -6.474036E+04 -2.824700E+06 -5.583584E+04  1.039296E+04
        38  23 -7.385072E+06 -1.035948E+06 -1.114926E+05 -2.794709E+06 -1.153587E+05 -8.013634E+03
        38  24 -7.395216E+06 -1.174952E+06 -2.368531E+05 -2.787271E+06 -1.735117E+05 -3.007274E+04
        38  25 -8.399935E+06 -1.449435E+06 -3.378539E+05 -3.089561E+06 -5.366113E+04  1.121254E+04
        38  26 -8.462717E+06 -1.450823E+06 -4.034960E+05 -3.094488E+06 -1.145455E+05 -7.701461E+03
        38  27 -8.531371E+06 -1.630817E+06 -5.489479E+05 -3.121952E+06 -1.740526E+05 -3.026421E+04
        39   1 -6.138980E+06 -6.424540E+05  4.234704E+04 -2.588723E+06  2.231629E+05  4.339871E+04
        39   2 -6.087053E+06 -3.997902E+05 -1.384582E+05 -2.437705E+06  4.723278E+05  1.364742E+05
        39   3 -6.462102E+06 -1.231289E+06 -7.980186E+05 -2.014691E+06  7.110839E+05  2.569797E+05
        39   4 -7.440810E+06 -1.041839E+06 -2.899643E+05 -2.847807E+06  2.169045E+05  4.106527E+04
        39   5 -7.287290E+06 -9.161763E+05 -4.733741E+05 -2.827496E+06  4.765461E+05  1.380140E+05
        39   6 -7.563722E+06 -1.868157E+06 -1.144652E+06 -2.534919E+06  7.258075E+05  2.622763E+05
        39   7 -8.740978E+06 -1.441245E+06 -6.224052E+05 -3.106459E+06  2.106604E+05  3.873483E+04
        39   8 -8.486101E+06 -1.432352E+06 -8.084246E+05 -3.216554E+06  4.807544E+05  1.395489E+05
        39   9 -8.664025E+06 -2.504376E+06 -1.491398E+06 -3.054140E+06  7.405010E+05  2.675481E+05
        39  10 -6.139034E+06 -6.424696E+05  4.224882E+04 -2.588731E+06 -2.898734E-09  1.648193E-09
        39  11 -6.087300E+06 -3.998711E+05 -1.389177E+05 -2.437757E+06 -6.625851E-09  1.451588E-09
        39  12 -6.462668E+06 -1.231498E+06 -7.991054E+05 -2.014839E+06 -2.592887E-10 -3.835463E-10
        39  13 -7.440862E+06 -1.041854E+06 -2.900571E+05 -2.847815E+06  9.767604E-10  1.394111E-09
        39  14 -7.287542E+06 -9.162590E+05 -4.738430E+05 -2.827549E+06 -3.009824E-09  4.790811E-09
        39  15 -7.564313E+06 -1.868375E+06 -1.145786E+06 -2.535074E+06 -4.274773E-09  3.100553E-10
        39  16 -8.741027E+06 -1.441259E+06 -6.224928E+05 -3.106465E+06  3.835767E-09  1.025661E-09
        39  17 -8.486358E+06 -1.432437E+06 -8.089030E+05 -3.216608E+06 -6.326940E-09  2.514953E-09
        39  18 -8.664641E+06 -2.504604E+06 -1.492582E+06 -3.054301E+06  1.467310E-09  1.051850E-10
        39  19 -6.138980E+06 -6.424540E+05  4.234704E+04 -2.588723E+06 -2.231629E+05 -4.339871E+04
        39  20 -6.087053E+06 -3.997902E+05 -1.384582E+05 -2.437705E+06 -4.723278E+05 -1.364742E+05
        39  21 -6.462102E+06 -1.231289E+06 -7.980186E+05 -2.014691E+06 -7.110839E+05 -2.569797E+05
        39  22 -7.440810E+06 -1.041839E+06 -2.899643E+05 -2.847807E+06 -2.169045E+05 -4.106527E+04
        39  23 -7.287290E+06 -9.161763E+05 -4.733741E+05 -2.827496E+06 -4.765461E+05 -1.380140E+05
        39  24 -7.563722E+06 -1.868157E+06 -1.144652E+06 -2.534919E+06 -7.258075E+05 -2.622763E+05
        39  25 -8.740978E+06 -1.441245E+06 -6.224052E+05 -3.106459E+06 -2.106604E+05 -3.873483E+04
        39  26 -8.486101E+06 -1.432352E+06 -8.084246E+05 -3.216554E+06 -4.807544E+05 -1.395489E+05
        39  27 -8.664025E+06 -2.504376E+06 -1.491398E+06 -3.054140E+06 -7.405010E+05 -2.675481E+05
        40   1  3.090540E+05  1.168912E+04  3.502412E+05 -2.077182E+05 -1.711023E+03  2.240341E+05
        40   2  4.370564E+04 -5.054700E+04  1.736120E+05 -1.008910E+05 -2.729383E+03  1.313334E+05
        40   3 -1.314814E+04 -4.867881E+04  1.094592E+05 -1.546547E+03 -4.177007E+03  3.863217E+04
        40   4  3.051919E+05  6.917658E+03  3.481809E+05 -2.615058E+04 -1.656738E+03  2.260355E+05
        40   5  4.860492E+04 -2.508152E+04  1.779097E+05 -2.326671E+04 -2.727365E+03  1.339093E+05
        40   6  3.702607E+02  6.904405E+03  1.197130E+05 -2.785178E+04 -4.196226E+03  4.177845E+04
        40   7  3.014537E+05  2.216995E+03  3.461383E+05  1.554154E+05 -1.601282E+03  2.280369E+05
        40   8  5.352685E+04  3.975721E+02  1.822106E+05  5.436077E+04 -2.724702E+03  1.364853E+05
        40   9  1.389107E+04  6.249211E+04  1.299671E+05 -5.415944E+04 -4.215712E+03  4.492499E+04
        40  10  3.090405E+05  1.163524E+04  3.501469E+05 -2.077179E+05 -6.311271E-10  1.021830E-08
        40  11  4.370100E+04 -5.056552E+04  1.735796E+05 -1.008907E+05  9.262565E-09  5.672890E-09
        40  12 -1.314856E+04 -4.868042E+04  1.094563E+05 -1.546417E+03 -5.733273E-10  6.143765E-09
        40  13  3.051782E+05  6.862808E+03  3.480849E+05 -2.615028E+04 -8.927493E-10  1.420673E-09
        40  14  4.860010E+04 -2.510078E+04  1.778760E+05 -2.326642E+04  2.056395E-09  2.079570E-11
        40  15  3.697733E+02  6.902526E+03  1.197097E+05 -2.785164E+04 -1.199158E-08  1.068165E-09
        40  16  3.014397E+05  2.161169E+03  3.460405E+05  1.554157E+05 -1.600509E-09 -1.090075E-08
        40  17  5.352185E+04  3.775703E+02  1.821755E+05  5.436107E+04  3.320549E-09 -6.539625E-09
        40  18  1.389051E+04  6.248994E+04  1.299632E+05 -5.415929E+04 -1.404680E-09 -6.522951E-09
        40  19  3.090540E+05  1.168912E+04  3.502412E+05 -2.077182E+05  1.711023E+03 -2.240341E+05
        40  20  4.370564E+04 -5.054700E+04  1.736120E+05 -1.008910E+05  2.729383E+03 -1.313334E+05
        40  21 -1.314814E+04 -4.867881E+04  1.094592E+05 -1.546547E+03  4.177007E+03 -3.863217E+04
        40  22  3.051919E+05  6.917658E+03  3.481809E+05 -2.615058E+04  1.656738E+03 -2.260355E+05
        40  23  4.860492E+04 -2.508152E+04  1.779097E+05 -2.326671E+04  2.727365E+03 -1.339093E+05
        40  24  3.702607E+02  6.904405E+03  1.197130E+05 -2.785178E+04  4.196226E+03 -4.177845E+04
        40  25  3.014537E+05  2.216995E+03  3.461383E+05  1.554154E+05  1.601282E+03 -2.280369E+05
        40  26  5.352685E+04  3.975721E+02  1.822106E+05  5.436077E+04  2.724702E+03 -1.364853E+05
        40  27  1.389107E+04  6.249211E+04  1.299671E+05 -5.415944E+04  4.215712E+03 -4.492499E+04
        41   1 -6.996555E+03 -8.155017E+04  9.435493E+04 -3.575539E+04 -5.381532E+03  2.071948E+04
        41   2 -2.265880E+04 -1.193983E+05  8.728211E+04 -2.258418E+04 -7.077075E+03 -3.239624E+04
        41   3 -1.250055E+04 -1.439798E+05  1.212340E+05 -1.761828E+04 -8.397806E+03 -8.550830E+04
        41   4  1.120337E+04 -4.347429E+03  1.086967E+05 -2.772890E+04 -5.398776E+03  2.386190E+04
        41   5  3.086613E+03 -1.102594E+04  1.075738E+05 -2.359942E+04 -7.091376E+03 -2.980336E+04
        41   6  2.088260E+04 -4.346232E+03  1.478526E+05 -2.767459E+04 -8.407659E+03 -8.346750E+04
        41   7  2.940322E+04  7.286125E+04  1.230383E+05 -1.970139E+04 -5.415938E+03  2.700469E+04
        41   8  2.883136E+04  9.735784E+04  1.278649E+05 -2.461483E+04 -7.105684E+03 -2.721003E+04
        41   9  5.426496E+04  1.353064E+05  1.744704E+05 -3.773320E+04 -8.417576E+03 -8.142626E+04
        41  10 -6.996701E+03 -8.155063E+04  9.435407E+04 -3.575530E+04 -3.564788E-09 -4.165662E-08
        41  11 -2.265914E+04 -1.193995E+05  8.728004E+04 -2.258436E+04 -5.481725E-10 -2.541251E-08
        41  12 -1.250259E+04 -1.439877E+05  1.212201E+05 -1.761885E+04 -4.468630E-09  7.379435E-09
        41  13  1.120319E+04 -4.348048E+03  1.086956E+05 -2.772880E+04 -7.641677E-09  1.473703E-09
        41  14  3.086320E+03 -1.102690E+04  1.075720E+05 -2.359959E+04  2.824010E-09 -2.118229E-10
        41  15  2.088065E+04 -4.353731E+03  1.478394E+05 -2.767516E+04  1.440775E-08  1.072524E-09
        41  16  2.940299E+04  7.286046E+04  1.230369E+05 -1.970127E+04 -6.484052E-09  4.079523E-08
        41  17  2.883110E+04  9.735703E+04  1.278634E+05 -2.461499E+04 -1.579730E-09  2.447682E-08
        41  18  5.426311E+04  1.352992E+05  1.744578E+05 -3.773375E+04 -3.439472E-09 -7.769759E-09
        41  19 -6.996555E+03 -8.155017E+04  9.435493E+04 -3.575539E+04  5.381532E+03 -2.071948E+04
        41  20 -2.265880E+04 -1.193983E+05  8.728211E+04 -2.258418E+04  7.077075E+03  3.239624E+04
        41  21 -1.250055E+04 -1.439798E+05  1.212340E+05 -1.761828E+04  8.397806E+03  8.550830E+04
        41  22  1.120337E+04 -4.347429E+03  1.086967E+05 -2.772890E+04  5.398776E+03 -2.386190E+04
        41  23  3.086613E+03 -1.102594E+04  1.075738E+05 -2.359942E+04  7.091376E+03  2.980336E+04
        41  24  2.088260E+04 -4.346232E+03  1.478526E+05 -2.767459E+04  8.407659E+03  8.346750E+04
        41  25  2.940322E+04  7.286125E+04  1.230383E+05 -1.970139E+04  5.415938E+03 -2.700469E+04
        41  26  2.883136E+04  9.735784E+04  1.278649E+05 -2.461483E+04  7.105684E+03  2.721003E+04
        41  27  5.426496E+04  1.353064E+05  1.744704E+05 -3.773320E+04  8.417576E+03  8.142626E+04
        42   1 -3.768520E+04 -1.437397E+05  1.495254E+05 -7.604348E+04 -9.503087E+03 -1.114745E+05
        42   2  3.975229E+04 -2.291841E+05  2.643143E+05  1.154887E+05 -8.023405E+03 -2.606643E+05
        42   3  4.891897E+05 -2.021979E+05  5.693229E+05  3.004986E+05 -9.319693E+02 -4.098103E+05
        42   4  1.716429E+02  1.796600E+04  1.803213E+05 -2.783941E+04 -9.528455E+03 -1.084342E+05
        42   5  8.743092E+04 -3.889452E+04  3.034599E+05 -2.306727E+04 -7.936759E+03 -2.658716E+05
        42   6  5.479266E+05  1.799229E+04  6.224931E+05 -2.483644E+04 -6.443098E+02 -4.232746E+05
        42   7  3.803580E+04  1.797020E+05  2.111174E+05  2.037752E+04 -9.553346E+03 -1.053932E+05
        42   8  1.351791E+05  1.514704E+05  3.426139E+05 -1.616666E+05 -7.847808E+03 -2.710805E+05
        42   9  6.070571E+05  2.384537E+05  6.757170E+05 -3.502884E+05 -3.426135E+02 -4.367437E+05
        42  10 -3.768863E+04 -1.437530E+05  1.495019E+05 -7.604433E+04 -9.452872E-09  1.691904E-08
        42  11  3.973398E+04 -2.292570E+05  2.641865E+05  1.154870E+05 -1.607660E-09 -1.430785E-09
        42  12  4.891445E+05 -2.023782E+05  5.690071E+05  3.004983E+05 -1.091899E-09 -1.223725E-08
        42  13  1.683896E+02  1.795335E+04  1.802991E+05 -2.784024E+04  1.211648E-08  1.355724E-09
        42  14  8.741187E+04 -3.897042E+04  3.033270E+05 -2.306897E+04  9.769132E-09  1.323990E-10
        42  15  5.478785E+05  1.780000E+04  6.221564E+05 -2.483666E+04  2.518187E-09  1.046115E-09
        42  16  3.803272E+04  1.796900E+05  2.110963E+05  2.037671E+04 -1.815058E-09 -1.745484E-08
        42  17  1.351593E+05  1.513915E+05  3.424757E+05 -1.616683E+05  5.876626E-09  6.815787E-10
        42  18  6.070059E+05  2.382490E+05  6.753587E+05 -3.502886E+05  5.673829E-09  1.186533E-08
        42  19 -3.768520E+04 -1.437397E+05  1.495254E+05 -7.604348E+04  9.503087E+03  1.114745E+05
        42  20  3.975229E+04 -2.291841E+05  2.643143E+05  1.154887E+05  8.023405E+03  2.606643E+05
        42  21  4.891897E+05 -2.021979E+05  5.693229E+05  3.004986E+05  9.319693E+02  4.098103E+05
        42  22  1.716429E+02  1.796600E+04  1.803213E+05 -2.783941E+04  9.528455E+03  1.084342E+05
        42  23  8.743092E+04 -3.889452E+04  3.034599E+05 -2.306727E+04  7.936759E+03  2.658716E+05
        42  24  5.479266E+05  1.799229E+04  6.224931E+05 -2.483644E+04  6.443098E+02  4.232746E+05
        42  25  3.803580E+04  1.797020E+05  2.111174E+05  2.037752E+04  9.553346E+03  1.053932E+05
        42  26  1.351791E+05  1.514704E+05  3.426139E+05 -1.616666E+05  7.847808E+03  2.710805E+05
        42  27  6.070571E+05  2.384537E+05  6.757170E+05 -3.502884E+05  3.426135E+02  4.367437E+05
        43   1 -5.930441E+06 -1.810394E+06 -1.123707E+06 -2.037441E+06 -4.598658E+05 -1.592946E+05
        43   2 -5.791193E+06 -1.127930E+06 -6.932003E+05 -2.114309E+06 -3.018133E+05 -6.750781E+04
        43   3 -5.883596E+06 -1.145961E+06 -5.702795E+05 -2.057880E+06 -1.318041E+05 -7.120680E+03
        43   4 -4.466676E+06 -1.132965E+06 -6.966245E+05 -1.515741E+06 -4.451833E+05 -1.538141E+05
        43   5 -4.315520E+06 -5.347201E+05 -2.877360E+05 -1.676982E+06 -2.979780E+05 -6.608004E+04
        43   6 -4.393243E+06 -6.338528E+05 -1.772082E+05 -1.705100E+06 -1.388288E+05 -9.767657E+03
        43   7 -3.000802E+06 -4.550994E+05 -2.697569E+05 -9.928200E+05 -4.304612E+05 -1.483112E+05
        43   8 -2.837730E+06  5.869258E+04  1.175259E+05 -1.238684E+06 -2.941318E+05 -6.464758E+04
        43   9 -2.900737E+06 -1.217063E+05  2.156758E+05 -1.351592E+06 -1.458719E+05 -1.242007E+04
        43  10 -5.930677E+06 -1.810479E+06 -1.124157E+06 -2.037501E+06  1.083793E-09 -4.038407E-11
        43  11 -5.791293E+06 -1.127960E+06 -6.933819E+05 -2.114325E+06  3.231728E-09 -3.439462E-09
        43  12 -5.883615E+06 -1.145966E+06 -5.703126E+05 -2.057880E+06  1.504329E-09 -7.757197E-10
        43  13 -4.466896E+06 -1.133045E+06 -6.970448E+05 -1.515796E+06  9.801145E-11 -3.205434E-09
        43  14 -4.315617E+06 -5.347489E+05 -2.879124E+05 -1.676998E+06 -3.464485E-09 -4.274512E-09
        43  15 -4.393264E+06 -6.338581E+05 -1.772448E+05 -1.705101E+06  3.047558E-09 -1.466086E-09
        43  16 -3.001008E+06 -4.551732E+05 -2.701485E+05 -9.928716E+05 -2.593553E-09  5.039368E-10
        43  17 -2.837825E+06  5.866468E+04  1.173545E+05 -1.238699E+06  2.872934E-09 -1.238325E-09
        43  18 -2.900760E+06 -1.217122E+05  2.156353E+05 -1.351594E+06  2.861429E-09 -8.177181E-10
        43  19 -5.930441E+06 -1.810394E+06 -1.123707E+06 -2.037441E+06  4.598658E+05  1.592946E+05
        43  20 -5.791193E+06 -1.127930E+06 -6.932003E+05 -2.114309E+06  3.018133E+05  6.750781E+04
        43  21 -5.883596E+06 -1.145961E+06 -5.702795E+05 -2.057880E+06  1.318041E+05  7.120680E+03
        43  22 -4.466676E+06 -1.132965E+06 -6.966245E+05 -1.515741E+06  4.451833E+05  1.538141E+05
        43  23 -4.315520E+06 -5.347201E+05 -2.877360E+05 -1.676982E+06  2.979780E+05  6.608004E+04
        43  24 -4.393243E+06 -6.338528E+05 -1.772082E+05 -1.705100E+06  1.388288E+05  9.767657E+03
        43  25 -3.000802E+06 -4.550994E+05 -2.697569E+05 -9.928200E+05  4.304612E+05  1.483112E+05
        43  26 -2.837730E+06  5.869258E+04  1.175259E+05 -1.238684E+06  2.941318E+05  6.464758E+04
        43  27 -2.900737E+06 -1.217063E+05  2.156758E+05 -1.351592E+06  1.458719E+05  1.242007E+04
        44   1 -5.648348E+06 -1.220211E+06 -4.963283E+05 -2.035427E+06 -1.112217E+05 -6.377202E+03
        44   2 -5.575484E+06 -1.064357E+06 -3.922625E+05 -1.980648E+06 -7.411195E+04  7.287128E+03
        44   3 -5.462219E+06 -1.066367E+06 -3.382493E+05 -1.987793E+06 -3.543886E+04  1.677986E+04
        44   4 -4.363020E+06 -7.192106E+05 -1.451690E+05 -1.670649E+06 -1.107262E+05 -6.198761E+03
        44   5 -4.378751E+06 -6.084874E+05 -6.792953E+04 -1.651678E+06 -7.503128E+04  6.936568E+03
        44   6 -4.353741E+06 -6.552291E+05 -3.953056E+04 -1.694639E+06 -3.778037E+04  1.590029E+04
        44   7 -3.076085E+06 -2.180850E+05  2.058402E+05 -1.305172E+06 -1.102295E+05 -6.019773E+03
        44   8 -3.180627E+06 -1.525274E+05  2.562750E+05 -1.322128E+06 -7.595247E+04  6.585306E+03
        44   9 -3.244074E+06 -2.440313E+05  2.590790E+05 -1.401013E+06 -4.012647E+04  1.501908E+04
        44  10 -5.648362E+06 -1.220214E+06 -4.963518E+05 -2.035428E+06 -6.019753E-10  8.483078E-10
        44  11 -5.575490E+06 -1.064359E+06 -3.922731E+05 -1.980648E+06 -4.110404E-09  8.032491E-11
        44  12 -5.462221E+06 -1.066367E+06 -3.382522E+05 -1.987793E+06 -4.804778E-09 -9.056877E-10
        44  13 -4.363033E+06 -7.192140E+05 -1.451923E+05 -1.670649E+06  2.544610E-09  1.942668E-10
        44  14 -4.378757E+06 -6.084890E+05 -6.794026E+04 -1.651677E+06  4.664564E-10  1.067228E-09
        44  15 -4.353743E+06 -6.552297E+05 -3.953373E+04 -1.694638E+06 -2.688178E-09 -1.957238E-10
        44  16 -3.076098E+06 -2.180883E+05  2.058172E+05 -1.305173E+06 -4.377846E-09 -9.906585E-10
        44  17 -3.180634E+06 -1.525290E+05  2.562641E+05 -1.322127E+06  6.486752E-09  3.202227E-10
        44  18 -3.244075E+06 -2.440320E+05  2.590756E+05 -1.401013E+06  4.805675E-09  1.170324E-09
        44  19 -5.648348E+06 -1.220211E+06 -4.963283E+05 -2.035427E+06  1.112217E+05  6.377202E+03
        44  20 -5.575484E+06 -1.064357E+06 -3.922625E+05 -1.980648E+06  7.411195E+04 -7.287128E+03
        44  21 -5.462219E+06 -1.066367E+06 -3.382493E+05 -1.987793E+06  3.543886E+04 -1.677986E+04
        44  22 -4.363020E+06 -7.192106E+05 -1.451690E+05 -1.670649E+06  1.107262E+05  6.198761E+03
        44  23 -4.378751E+06 -6.084874E+05 -6.792953E+04 -1.651678E+06  7.503128E+04 -6.936568E+03
        44  24 -4.353741E+06 -6.552291E+05 -3.953056E+04 -1.694639E+06  3.778037E+04 -1.590029E+04
        44  25 -3.076085E+06 -2.180850E+05  2.058402E+05 -1.305172E+06  1.102295E+05  6.019773E+03
        44  26 -3.180627E+06 -1.525274E+05  2.562750E+05 -1.322128E+06  7.595247E+04 -6.585306E+03
        44  27 -3.244074E+06 -2.440313E+05  2.590790E+05 -1.401013E+06  4.012647E+04 -1.501908E+04
        45   1 -5.205023E+06 -9.962402E+05 -2.636073E+05 -1.929976E+06 -2.936431E+04  1.539782E+04
        45   2 -5.122469E+06 -8.869102E+05 -2.132063E+05 -1.839285E+06 -1.921000E+04  1.399853E+04
        45   3 -4.944924E+06 -8.871873E+05 -1.717887E+05 -1.859752E+06 -8.721028E+03  1.167338E+04
        45   4 -4.345261E+06 -6.708397E+05 -3.132795E+04 -1.695666E+06 -3.084724E+04  1.484120E+04
        45   5 -4.392166E+06 -6.118263E+05 -1.590671E+04 -1.641664E+06 -2.101169E+04  1.332504E+04
        45   6 -4.344032E+06 -6.623403E+05 -9.203292E+03 -1.698819E+06 -1.084362E+04  1.088283E+04
        45   7 -3.484784E+06 -3.453956E+05  2.008848E+05 -1.461060E+06 -3.233242E+04  1.428372E+04
        45   8 -3.661347E+06 -3.367119E+05  1.813452E+05 -1.443831E+06 -2.281572E+04  1.265068E+04
        45   9 -3.742789E+06 -4.374736E+05  1.533501E+05 -1.537746E+06 -1.296849E+04  1.009145E+04
        45  10 -5.205024E+06 -9.962407E+05 -2.636094E+05 -1.929976E+06 -3.608457E-09 -2.976447E-10
        45  11 -5.122469E+06 -8.869105E+05 -2.132073E+05 -1.839285E+06 -5.495765E-09 -1.750531E-09
        45  12 -4.944924E+06 -8.871875E+05 -1.717891E+05 -1.859752E+06 -2.820250E-09 -1.083145E-09
        45  13 -4.345262E+06 -6.708402E+05 -3.133015E+04 -1.695665E+06 -8.219133E-10 -1.191729E-09
        45  14 -4.392166E+06 -6.118266E+05 -1.590787E+04 -1.641663E+06  1.375304E-09 -5.128968E-10
        45  15 -4.344032E+06 -6.623405E+05 -9.203735E+03 -1.698819E+06  1.378571E-09 -6.025507E-10
        45  16 -3.484785E+06 -3.453961E+05  2.008825E+05 -1.461060E+06  2.299027E-09 -1.560458E-10
        45  17 -3.661347E+06 -3.367122E+05  1.813439E+05 -1.443831E+06  4.436472E-09 -2.891539E-10
        45  18 -3.742789E+06 -4.374737E+05  1.533496E+05 -1.537746E+06  5.153749E-10  5.165769E-10
        45  19 -5.205023E+06 -9.962402E+05 -2.636073E+05 -1.929976E+06  2.936431E+04 -1.539782E+04
        45  20 -5.122469E+06 -8.869102E+05 -2.132063E+05 -1.839285E+06  1.921000E+04 -1.399853E+04
        45  21 -4.944924E+06 -8.871873E+05 -1.717887E+05 -1.859752E+06  8.721028E+03 -1.167338E+04
        45  22 -4.345261E+06 -6.708397E+05 -3.132795E+04 -1.695666E+06  3.084724E+04 -1.484120E+04
        45  23 -4.392166E+06 -6.118263E+05 -1.590671E+04 -1.641664E+06  2.101169E+04 -1.332504E+04
        45  24 -4.344032E+06 -6.623403E+05 -9.203292E+03 -1.698819E+06  1.084362E+04 -1.088283E+04
        45  25 -3.484784E+06 -3.453956E+05  2.008848E+05 -1.461060E+06  3.233242E+04 -1.428372E+04
        45  26 -3.661347E+06 -3.367119E+05  1.813452E+05 -1.443831E+06  2.281572E+04 -1.265068E+04
        45  27 -3.742789E+06 -4.374736E+05  1.533501E+05 -1.537746E+06  1.296849E+04 -1.009145E+04
        46   1 -4.645685E+06 -7.806752E+05 -8.907303E+04 -1.783431E+06 -6.225407E+03  8.740716E+03
        46   2 -4.554188E+06 -6.691782E+05 -4.724973E+04 -1.680258E+06 -1.762955E+03  3.920933E+03
        46   3 -4.353271E+06 -6.697917E+05 -7.655413E+03 -1.704595E+06  2.756596E+03 -1.059449E+03
        46   4 -4.341223E+06 -6.662666E+05 -7.396442E+03 -1.701168E+06 -8.231651E+03  7.994658E+03
        46   5 -4.395857E+06 -6.097301E+05 -4.524553E+03 -1.637590E+06 -3.825597E+03  3.154417E+03
        46   6 -4.341081E+06 -6.652909E+05 -3.834024E+03 -1.701528E+06  6.368952E+02 -1.846539E+03
        46   7 -4.036671E+06 -5.518525E+05  7.427207E+04 -1.618869E+06 -1.023898E+04  7.248193E+03
        46   8 -4.237502E+06 -5.502808E+05  3.819826E+04 -1.594913E+06 -5.888814E+03  2.387687E+03
        46   9 -4.328892E+06 -6.607901E+05 -1.265777E+01 -1.698461E+06 -1.482836E+03 -2.633638E+03
        46  10 -4.645685E+06 -7.806753E+05 -8.907324E+04 -1.783431E+06  1.882372E-09 -5.815696E-10
        46  11 -4.554188E+06 -6.691782E+05 -4.724977E+04 -1.680258E+06 -5.439844E-10 -1.744364E-11
        46  12 -4.353271E+06 -6.697917E+05 -7.655430E+03 -1.704595E+06 -1.531044E-09 -1.044296E-09
        46  13 -4.341223E+06 -6.662667E+05 -7.396689E+03 -1.701168E+06 -2.493027E-09 -3.156060E-10
        46  14 -4.395857E+06 -6.097301E+05 -4.524599E+03 -1.637590E+06 -8.793879E-09 -5.292413E-09
        46  15 -4.341081E+06 -6.652909E+05 -3.834031E+03 -1.701528E+06  1.975053E-09 -8.579981E-10
        46  16 -4.036671E+06 -5.518525E+05  7.427177E+04 -1.618869E+06 -5.865168E-10  1.020990E-09
        46  17 -4.237502E+06 -5.502808E+05  3.819818E+04 -1.594913E+06 -1.297980E-09 -1.295904E-09
        46  18 -4.328892E+06 -6.607901E+05 -1.267500E+01 -1.698461E+06 -5.739046E-10  2.919538E-10
        46  19 -4.645685E+06 -7.806752E+05 -8.907303E+04 -1.783431E+06  6.225407E+03 -8.740716E+03
        46  20 -4.554188E+06 -6.691782E+05 -4.724973E+04 -1.680258E+06  1.762955E+03 -3.920933E+03
        46  21 -4.353271E+06 -6.697917E+05 -7.655413E+03 -1.704595E+06 -2.756596E+03  1.059449E+03
        46  22 -4.341223E+06 -6.662666E+05 -7.396442E+03 -1.701168E+06  8.231651E+03 -7.994658E+03
        46  23 -4.395857E+06 -6.097301E+05 -4.524553E+03 -1.637590E+06  3.825597E+03 -3.154417E+03
        46  24 -4.341081E+06 -6.652909E+05 -3.834024E+03 -1.701528E+06 -6.368952E+02  1.846539E+03
        46  25 -4.036671E+06 -5.518525E+05  7.427207E+04 -1.618869E+06  1.023898E+04 -7.248193E+03
        46  26 -4.237502E+06 -5.502808E+05  3.819826E+04 -1.594913E+06  5.888814E+03 -2.387687E+03
        46  27 -4.328892E+06 -6.607901E+05 -1.265777E+01 -1.698461E+06  1.482836E+03  2.633638E+03
        47   1 -4.046251E+06 -5.536115E+05  7.635446E+04 -1.621256E+06  4.693232E+03 -4.304371E+03
        47   2 -3.958211E+06 -4.467449E+05  1.126685E+05 -1.521017E+06  9.306006E+03 -9.154609E+03
        47   3 -3.764016E+06 -4.485053E+05  1.467133E+05 -1.543767E+06  1.378363E+04 -1.361668E+04
        47   4 -4.341822E+06 -6.643902E+05 -3.905614E+03 -1.700588E+06  2.561738E+03 -5.096237E+03
        47   5 -4.394984E+06 -6.107800E+05 -5.165207E+03 -1.638820E+06  7.310814E+03 -9.897387E+03
        47   6 -4.342034E+06 -6.658328E+05 -8.802464E+03 -1.700057E+06  1.192404E+04 -1.431039E+04
        47   7 -4.637311E+06 -7.751650E+05 -8.417409E+04 -1.779887E+06  4.313507E+02 -5.887693E+03
        47   8 -4.831575E+06 -7.748054E+05 -1.230166E+05 -1.756549E+06  5.317160E+03 -1.063959E+04
        47   9 -4.919732E+06 -8.831423E+05 -1.643486E+05 -1.856215E+06  1.006636E+04 -1.500339E+04
        47  10 -4.046251E+06 -5.536115E+05  7.635438E+04 -1.621256E+06  4.585794E-10  1.574158E-10
        47  11 -3.958211E+06 -4.467450E+05  1.126682E+05 -1.521017E+06 -3.983105E-09 -1.574543E-09
        47  12 -3.764016E+06 -4.485055E+05  1.467126E+05 -1.543767E+06  4.862304E-10 -1.774769E-09
        47  13 -4.341822E+06 -6.643902E+05 -3.905675E+03 -1.700588E+06 -1.614525E-09 -2.030654E-09
        47  14 -4.394984E+06 -6.107801E+05 -5.165491E+03 -1.638820E+06  5.225652E-09  2.735746E-09
        47  15 -4.342034E+06 -6.658331E+05 -8.803116E+03 -1.700056E+06  2.824356E-09 -2.128495E-10
        47  16 -4.637311E+06 -7.751650E+05 -8.417415E+04 -1.779887E+06  3.642328E-09  4.272148E-10
        47  17 -4.831576E+06 -7.748055E+05 -1.230169E+05 -1.756549E+06  3.450863E-10  3.828158E-10
        47  18 -4.919732E+06 -8.831426E+05 -1.643492E+05 -1.856215E+06 -2.241485E-09  3.972247E-10
        47  19 -4.046251E+06 -5.536115E+05  7.635446E+04 -1.621256E+06 -4.693232E+03  4.304371E+03
        47  20 -3.958211E+06 -4.467449E+05  1.126685E+05 -1.521017E+06 -9.306006E+03  9.154609E+03
        47  21 -3.764016E+06 -4.485053E+05  1.467133E+05 -1.543767E+06 -1.378363E+04  1.361668E+04
        47  22 -4.341822E+06 -6.643902E+05 -3.905614E+03 -1.700588E+06 -2.561738E+03  5.096237E+03
        47  23 -4.394984E+06 -6.107800E+05 -5.165207E+03 -1.638820E+06 -7.310814E+03  9.897387E+03
        47  24 -4.342034E+06 -6.658328E+05 -8.802464E+03 -1.700057E+06 -1.192404E+04  1.431039E+04
        47  25 -4.637311E+06 -7.751650E+05 -8.417409E+04 -1.779887E+06 -4.313507E+02  5.887693E+03
        47  26 -4.831575E+06 -7.748054E+05 -1.230166E+05 -1.756549E+06 -5.317160E+03  1.063959E+04
        47  27 -4.919732E+06 -8.831423E+05 -1.643486E+05 -1.856215E+06 -1.006636E+04  1.500339E+04
        48   1 -3.491797E+06 -3.398478E+05  2.198318E+05 -1.466439E+06  1.671076E+04 -1.612454E+04
        48   2 -3.419606E+06 -2.488646E+05  2.424650E+05 -1.381963E+06  2.808509E+04 -1.758195E+04
        48   3 -3.262766E+06 -2.590927E+05  2.549915E+05 -1.395465E+06  3.905539E+04 -1.791287E+04
        48   4 -4.346367E+06 -6.600464E+05 -1.103969E+04 -1.696104E+06  1.471215E+04 -1.687184E+04
        48   5 -4.389396E+06 -6.145650E+05 -1.937850E+04 -1.645182E+06  2.647332E+04 -1.818779E+04
        48   6 -4.347872E+06 -6.703961E+05 -3.814429E+04 -1.692250E+06  3.782825E+04 -1.837715E+04
        48   7 -5.200226E+06 -9.802027E+05 -2.419745E+05 -1.925482E+06  1.271659E+04 -1.761803E+04
        48   8 -5.358275E+06 -9.802100E+05 -2.813054E+05 -1.908027E+06  2.486432E+04 -1.879260E+04
        48   9 -5.431843E+06 -1.081629E+06 -3.313865E+05 -1.988566E+06  3.660343E+04 -1.884054E+04
        48  10 -3.491797E+06 -3.398482E+05  2.198308E+05 -1.466439E+06  1.363748E-09  4.883303E-10
        48  11 -3.419607E+06 -2.488652E+05  2.424629E+05 -1.381962E+06 -6.066113E-09  2.471388E-09
        48  12 -3.262768E+06 -2.590934E+05  2.549881E+05 -1.395464E+06 -5.382015E-09 -1.360483E-10
        48  13 -4.346368E+06 -6.600467E+05 -1.104063E+04 -1.696104E+06 -4.121831E-09 -1.774052E-10
        48  14 -4.389397E+06 -6.145655E+05 -1.938044E+04 -1.645181E+06 -4.262147E-09  4.874847E-11
        48  15 -4.347874E+06 -6.703968E+05 -3.814762E+04 -1.692250E+06 -4.916678E-09  7.237363E-10
        48  16 -5.200226E+06 -9.802030E+05 -2.419754E+05 -1.925482E+06  4.479358E-10 -1.752784E-10
        48  17 -5.358276E+06 -9.802106E+05 -2.813072E+05 -1.908027E+06 -8.828487E-10 -2.230168E-09
        48  18 -5.431845E+06 -1.081630E+06 -3.313897E+05 -1.988565E+06  7.719081E-10  6.600359E-10
        48  19 -3.491797E+06 -3.398478E+05  2.198318E+05 -1.466439E+06 -1.671076E+04  1.612454E+04
        48  20 -3.419606E+06 -2.488646E+05  2.424650E+05 -1.381963E+06 -2.808509E+04  1.758195E+04
        48  21 -3.262766E+06 -2.590927E+05  2.549915E+05 -1.395465E+06 -3.905539E+04  1.791287E+04
        48  22 -4.346367E+06 -6.600464E+05 -1.103969E+04 -1.696104E+06 -1.471215E+04  1.687184E+04
        48  23 -4.389396E+06 -6.145650E+05 -1.937850E+04 -1.645182E+06 -2.647332E+04  1.818779E+04
        48  24 -4.347872E+06 -6.703961E+05 -3.814429E+04 -1.692250E+06 -3.782825E+04  1.837715E+04
        48  25 -5.200226E+06 -9.802027E+05 -2.419745E+05 -1.925482E+06 -1.271659E+04  1.761803E+04
        48  26 -5.358275E+06 -9.802100E+05 -2.813054E+05 -1.908027E+06 -2.486432E+04  1.879260E+04
        48  27 -5.431843E+06 -1.081629E+06 -3.313865E+05 -1.988566E+06 -3.660343E+04  1.884054E+04
        49   1 -3.060056E+06 -1.695613E+05  3.011440E+05 -1.346619E+06  4.797025E+04 -1.773853E+04
        49   2 -3.009178E+06 -8.965211E+04  2.864544E+05 -1.280335E+06  9.127232E+04 -5.545445E+03
        49   3 -2.940088E+06 -1.692191E+05  2.135214E+05 -1.252492E+06  1.329403E+05  1.101915E+04
        49   4 -4.358269E+06 -6.514606E+05 -4.819989E+04 -1.691118E+06  4.585495E+04 -1.853788E+04
        49   5 -4.372869E+06 -6.103742E+05 -8.287343E+04 -1.657253E+06  9.062811E+04 -5.795452E+03
        49   6 -4.369646E+06 -7.292169E+05 -1.770660E+05 -1.661822E+06  1.337605E+05  1.131888E+04
        49   7 -5.654853E+06 -1.133276E+06 -3.976932E+05 -2.034971E+06  4.374448E+04 -1.933550E+04
        49   8 -5.734758E+06 -1.130976E+06 -4.523681E+05 -2.033416E+06  8.998530E+04 -6.044936E+03
        49   9 -5.797222E+06 -1.289054E+06 -5.678393E+05 -2.070282E+06  1.345782E+05  1.161762E+04
        49  10 -3.060059E+06 -1.695623E+05  3.011391E+05 -1.346618E+06 -5.371247E-09 -2.279303E-09
        49  11 -3.009187E+06 -8.965439E+04  2.864387E+05 -1.280335E+06 -4.878180E-09 -1.087661E-09
        49  12 -2.940107E+06 -1.692240E+05  2.134878E+05 -1.252494E+06  2.682205E-09 -3.687309E-09
        49  13 -4.358271E+06 -6.514616E+05 -4.820450E+04 -1.691118E+06 -2.622479E-09  3.959537E-10
        49  14 -4.372877E+06 -6.103764E+05 -8.288903E+04 -1.657253E+06  3.840718E-09 -2.667712E-09
        49  15 -4.369666E+06 -7.292219E+05 -1.771002E+05 -1.661823E+06 -4.606840E-09  8.919673E-11
        49  16 -5.654855E+06 -1.133277E+06 -3.976976E+05 -2.034971E+06  2.083124E-09  1.022125E-09
        49  17 -5.734767E+06 -1.130979E+06 -4.523835E+05 -2.033416E+06 -3.685315E-10 -2.112626E-09
        49  18 -5.797242E+06 -1.289059E+06 -5.678739E+05 -2.070283E+06 -7.656650E-09 -3.768073E-09
        49  19 -3.060056E+06 -1.695613E+05  3.011440E+05 -1.346619E+06 -4.797025E+04  1.773853E+04
        49  20 -3.009178E+06 -8.965211E+04  2.864544E+05 -1.280335E+06 -9.127232E+04  5.545445E+03
        49  21 -2.940088E+06 -1.692191E+05  2.135214E+05 -1.252492E+06 -1.329403E+05 -1.101915E+04
        49  22 -4.358269E+06 -6.514606E+05 -4.819989E+04 -1.691118E+06 -4.585495E+04  1.853788E+04
        49  23 -4.372869E+06 -6.103742E+05 -8.287343E+04 -1.657253E+06 -9.062811E+04  5.795452E+03
        49  24 -4.369646E+06 -7.292169E+05 -1.770660E+05 -1.661822E+06 -1.337605E+05 -1.131888E+04
        49  25 -5.654853E+06 -1.133276E+06 -3.976932E+05 -2.034971E+06 -4.374448E+04  1.933550E+04
        49  26 -5.734758E+06 -1.130976E+06 -4.523681E+05 -2.033416E+06 -8.998530E+04  6.044936E+03
        49  27 -5.797222E+06 -1.289054E+06 -5.678393E+05 -2.070282E+06 -1.345782E+05 -1.161762E+04
        50   1 -2.808676E+06 -8.478967E+04  2.027886E+05 -1.333173E+06  1.741575E+05  2.018725E+04
        50   2 -2.753732E+06  1.083989E+05  7.372675E+04 -1.221188E+06  3.565224E+05  8.686627E+04
        50   3 -3.004157E+06 -5.177745E+05 -4.100745E+05 -9.151801E+05  5.266761E+05  1.855409E+05
        50   4 -4.405520E+06 -6.264161E+05 -2.162284E+05 -1.705342E+06  1.673283E+05  1.760804E+04
        50   5 -4.296528E+06 -5.189447E+05 -3.509075E+05 -1.686527E+06  3.606804E+05  8.841569E+04
        50   6 -4.495893E+06 -1.234317E+06 -8.497825E+05 -1.473462E+06  5.418185E+05  1.911849E+05
        50   7 -5.999903E+06 -1.168010E+06 -6.354590E+05 -2.076700E+06  1.605180E+05  1.503424E+04
        50   8 -5.837008E+06 -1.146046E+06 -7.757618E+05 -2.150781E+06  3.648258E+05  8.995961E+04
        50   9 -5.985409E+06 -1.950311E+06 -1.289709E+06 -2.030391E+06  5.569190E+05  1.968037E+05
        50  10 -2.808709E+06 -8.479831E+04  2.027306E+05 -1.333176E+06  6.774306E-10 -5.897581E-09
        50  11 -2.753871E+06  1.083564E+05  7.347237E+04 -1.221213E+06  5.812412E-09 -3.539438E-09
        50  12 -3.004465E+06 -5.178866E+05 -4.106636E+05 -9.152590E+05  4.203808E-10 -3.024727E-09
        50  13 -4.405551E+06 -6.264240E+05 -2.162820E+05 -1.705344E+06 -7.349102E-09  1.946217E-10
        50  14 -4.296671E+06 -5.189884E+05 -3.511688E+05 -1.686553E+06 -8.698074E-09  6.116352E-09
        50  15 -4.496220E+06 -1.234436E+06 -8.504079E+05 -1.473546E+06 -3.965390E-09  3.500522E-10
        50  16 -5.999931E+06 -1.168017E+06 -6.355084E+05 -2.076702E+06 -3.569276E-09 -2.211311E-09
        50  17 -5.837155E+06 -1.146091E+06 -7.760299E+05 -2.150807E+06 -5.832430E-09  1.595398E-09
        50  18 -5.985756E+06 -1.950437E+06 -1.290372E+06 -2.030480E+06  5.342853E-09 -4.176951E-09
        50  19 -2.808676E+06 -8.478967E+04  2.027886E+05 -1.333173E+06 -1.741575E+05 -2.018725E+04
        50  20 -2.753732E+06  1.083989E+05  7.372675E+04 -1.221188E+06 -3.565224E+05 -8.686627E+04
        50  21 -3.004157E+06 -5.177745E+05 -4.100745E+05 -9.151801E+05 -5.266761E+05 -1.855409E+05
        50  22 -4.405520E+06 -6.264161E+05 -2.162284E+05 -1.705342E+06 -1.673283E+05 -1.760804E+04
        50  23 -4.296528E+06 -5.189447E+05 -3.509075E+05 -1.686527E+06 -3.606804E+05 -8.841569E+04
        50  24 -4.495893E+06 -1.234317E+06 -8.497825E+05 -1.473462E+06 -5.418185E+05 -1.911849E+05
        50  25 -5.999903E+06 -1.168010E+06 -6.354590E+05 -2.076700E+06 -1.605180E+05 -1.503424E+04
        50  26 -5.837008E+06 -1.146046E+06 -7.757618E+05 -2.150781E+06 -3.648258E+05 -8.995961E+04
        50  27 -5.985409E+06 -1.950311E+06 -1.289709E+06 -2.030391E+06 -5.569190E+05 -1.968037E+05
        51   1  2.297294E+05 -4.356413E+05  2.228805E+05 -1.524702E+03  1.012475E+04  9.533959E+03
        51   2  2.356407E+05 -4.509762E+05  2.171342E+05  9.410159E+02  3.144938E+04  2.979212E+03
        51   3  2.302354E+05 -4.674702E+05  2.130513E+05 -7.235972E+03  3.169558E+04 -3.652221E+03
        51   4 -1.026334E+04 -1.397549E+06 -1.433484E+04 -2.392068E+03  1.018691E+04 -7.260700E+03
        51   5  1.311738E+03 -1.395994E+06 -8.539559E+03  2.948612E+03  3.147631E+04 -2.694773E+03
        51   6 -3.727017E+02 -1.397537E+06 -8.815699E+03 -2.354157E+03  3.167296E+04  1.794418E+03
        51   7 -2.503251E+05 -2.358613E+06 -2.516176E+05 -3.257323E+03  1.024916E+04 -2.402935E+04
        51   8 -2.330820E+05 -2.340191E+06 -2.342761E+05  4.953984E+03  3.150323E+04 -8.360151E+03
        51   9 -2.310434E+05 -2.326809E+06 -2.307435E+05  2.521238E+03  3.165042E+04  7.232927E+03
        51  10  2.297293E+05 -4.356414E+05  2.228801E+05 -1.524779E+03  1.227314E-08 -5.266314E-10
        51  11  2.356397E+05 -4.509765E+05  2.171323E+05  9.409405E+02  1.020421E-08 -2.109787E-09
        51  12  2.302343E+05 -4.674705E+05  2.130494E+05 -7.235879E+03 -8.719177E-10  1.194276E-09
        51  13 -1.026347E+04 -1.397549E+06 -1.433513E+04 -2.392009E+03  8.092363E-09  2.664691E-11
        51  14  1.310673E+03 -1.395994E+06 -8.541434E+03  2.948680E+03  4.658331E-09 -2.197731E-09
        51  15 -3.737791E+02 -1.397537E+06 -8.817589E+03 -2.354203E+03  3.914046E-09 -1.536206E-09
        51  16 -2.503253E+05 -2.358613E+06 -2.516189E+05 -3.257125E+03  7.171188E-09 -4.336605E-10
        51  17 -2.330831E+05 -2.340192E+06 -2.342781E+05  4.954197E+03  3.716644E-09  7.774978E-10
        51  18 -2.310445E+05 -2.326809E+06 -2.307455E+05  2.521053E+03  5.817594E-09  5.418698E-10
        51  19  2.297294E+05 -4.356413E+05  2.228805E+05 -1.524702E+03 -1.012475E+04 -9.533959E+03
        51  20  2.356407E+05 -4.509762E+05  2.171342E+05  9.410159E+02 -3.144938E+04 -2.979212E+03
        51  21  2.302354E+05 -4.674702E+05  2.130513E+05 -7.235972E+03 -3.169558E+04  3.652221E+03
        51  22 -1.026334E+04 -1.397549E+06 -1.433484E+04 -2.392068E+03 -1.018691E+04  7.260700E+03
        51  23  1.311738E+03 -1.395994E+06 -8.539559E+03  2.948612E+03 -3.147631E+04  2.694773E+03
        51  24 -3.727017E+02 -1.397537E+06 -8.815699E+03 -2.354157E+03 -3.167296E+04 -1.794418E+03
        51  25 -2.503251E+05 -2.358613E+06 -2.516176E+05 -3.257323E+03 -1.024916E+04  2.402935E+04
        51  26 -2.330820E+05 -2.340191E+06 -2.342761E+05  4.953984E+03 -3.150323E+04  8.360151E+03
        51  27 -2.310434E+05 -2.326809E+06 -2.307435E+05  2.521238E+03 -3.165042E+04 -7.232927E+03
        52   1  2.242193E+05 -4.909977E+05  2.073627E+05 -5.192563E+03  2.846451E+04  4.457329E+03
        52   2  2.207907E+05 -5.103936E+05  1.984469E+05 -9.980067E+01  2.910027E+04  9.752964E+03
        52   3  2.064111E+05 -5.326170E+05  1.834752E+05 -9.865032E+03  2.700363E+04  1.503191E+04
        52   4 -6.841430E+02 -1.397522E+06 -9.706017E+03 -3.290402E+03  2.847267E+04  3.383746E+03
        52   5  1.139798E+03 -1.395981E+06 -1.316180E+04  4.117015E+03  2.910105E+04  1.011310E+04
        52   6 -8.245724E+03 -1.397523E+06 -2.367686E+04 -3.334972E+03  2.699532E+04  1.682592E+04
        52   7 -2.256473E+05 -2.303293E+06 -2.268329E+05 -1.390088E+03  2.848084E+04  2.311723E+03
        52   8 -2.185680E+05 -2.280849E+06 -2.248259E+05  8.328772E+03  2.910184E+04  1.047271E+04
        52   9 -2.229568E+05 -2.261743E+06 -2.308818E+05  3.186978E+03  2.698705E+04  1.861742E+04
        52  10  2.242184E+05 -4.909979E+05  2.073611E+05 -5.192665E+03 -6.937282E-10  5.003941E-09
        52  11  2.207898E+05 -5.103939E+05  1.984452E+05 -1.000292E+02  6.821674E-09 -1.935024E-09
        52  12  2.064103E+05 -5.326174E+05  1.834734E+05 -9.865359E+03  1.328179E-09 -3.233711E-10
        52  13 -6.850160E+02 -1.397523E+06 -9.707561E+03 -3.290480E+03 -1.422870E-09  3.052498E-10
        52  14  1.138862E+03 -1.395982E+06 -1.316358E+04  4.116778E+03  2.472894E-10 -2.957031E-09
        52  15 -8.246582E+03 -1.397524E+06 -2.367876E+04 -3.335338E+03 -9.235877E-09 -1.953010E-09
        52  16 -2.256481E+05 -2.303293E+06 -2.268344E+05 -1.390141E+03  1.973951E-09 -6.418640E-09
        52  17 -2.185689E+05 -2.280849E+06 -2.248277E+05  8.328526E+03  3.608650E-09  3.782621E-10
        52  18 -2.229577E+05 -2.261743E+06 -2.308839E+05  3.186573E+03 -6.878921E-09  2.436613E-09
        52  19  2.242193E+05 -4.909977E+05  2.073627E+05 -5.192563E+03 -2.846451E+04 -4.457329E+03
        52  20  2.207907E+05 -5.103936E+05  1.984469E+05 -9.980067E+01 -2.910027E+04 -9.752964E+03
        52  21  2.064111E+05 -5.326170E+05  1.834752E+05 -9.865032E+03 -2.700363E+04 -1.503191E+04
        52  22 -6.841430E+02 -1.397522E+06 -9.706017E+03 -3.290402E+03 -2.847267E+04 -3.383746E+03
        52  23  1.139798E+03 -1.395981E+06 -1.316180E+04  4.117015E+03 -2.910105E+04 -1.011310E+04
        52  24 -8.245724E+03 -1.397523E+06 -2.367686E+04 -3.334972E+03 -2.699532E+04 -1.682592E+04
        52  25 -2.256473E+05 -2.303293E+06 -2.268329E+05 -1.390088E+03 -2.848084E+04 -2.311723E+03
        52  26 -2.185680E+05 -2.280849E+06 -2.248259E+05  8.328772E+03 -2.910184E+04 -1.047271E+04
        52  27 -2.229568E+05 -2.261743E+06 -2.308818E+05  3.186978E+03 -2.698705E+04 -1.861742E+04
        53   1  2.111208E+05 -5.674616E+05  1.705299E+05  3.010356E+03  2.847016E+04  2.480787E+04
        53   2  2.117181E+05 -5.800396E+05  1.478295E+05 -6.716250E+03  2.664554E+04  4.047465E+04
        53   3  1.147500E+05 -6.187021E+05  9.060562E+04 -3.560686E+04  8.089398E+03  5.601765E+04
        53   4  4.139146E+03 -1.402954E+06 -2.869780E+04 -4.077281E+03  2.849466E+04  2.128456E+04
        53   5  1.090891E+04 -1.389157E+06 -4.544659E+04  5.204409E+03  2.661246E+04  4.575341E+04
        53   6 -8.148573E+04 -1.403008E+06 -1.028715E+05 -4.681437E+03  7.989993E+03  7.009840E+04
        53   7 -2.028927E+05 -2.237805E+06 -2.279745E+05 -1.115431E+04  2.851926E+04  1.776596E+04
        53   8 -1.899473E+05 -2.197672E+06 -2.387687E+05  1.711046E+04  2.657956E+04  5.102528E+04
        53   9 -2.777641E+05 -2.186752E+06 -2.963930E+05  2.620583E+04  7.891931E+03  8.416132E+04
        53  10  2.111198E+05 -5.674624E+05  1.705273E+05  3.009788E+03 -2.736401E-09  7.705472E-09
        53  11  2.117169E+05 -5.800416E+05  1.478251E+05 -6.717118E+03  1.103589E-09 -3.007353E-10
        53  12  1.147491E+05 -6.187055E+05  9.059959E+04 -3.560723E+04 -2.907683E-09 -9.401730E-10
        53  13  4.138153E+03 -1.402955E+06 -2.870018E+04 -4.077769E+03 -5.175417E-09  8.001679E-11
        53  14  1.090759E+04 -1.389159E+06 -4.545187E+04  5.203427E+03 -1.436871E-09 -3.893193E-09
        53  15 -8.148712E+04 -1.403014E+06 -1.028809E+05 -4.681889E+03 -6.694695E-10 -2.658875E-09
        53  16 -2.028937E+05 -2.237805E+06 -2.279766E+05 -1.115472E+04 -7.009508E-09 -9.284319E-09
        53  17 -1.899488E+05 -2.197675E+06 -2.387750E+05  1.710936E+04 -1.926162E-09 -1.452926E-09
        53  18 -2.777661E+05 -2.186760E+06 -2.964065E+05  2.620529E+04  5.313956E-10  3.535296E-09
        53  19  2.111208E+05 -5.674616E+05  1.705299E+05  3.010356E+03 -2.847016E+04 -2.480787E+04
        53  20  2.117181E+05 -5.800396E+05  1.478295E+05 -6.716250E+03 -2.664554E+04 -4.047465E+04
        53  21  1.147500E+05 -6.187021E+05  9.060562E+04 -3.560686E+04 -8.089398E+03 -5.601765E+04
        53  22  4.139146E+03 -1.402954E+06 -2.869780E+04 -4.077281E+03 -2.849466E+04 -2.128456E+04
        53  23  1.090891E+04 -1.389157E+06 -4.544659E+04  5.204409E+03 -2.661246E+04 -4.575341E+04
        53  24 -8.148573E+04 -1.403008E+06 -1.028715E+05 -4.681437E+03 -7.989993E+03 -7.009840E+04
        53  25 -2.028927E+05 -2.237805E+06 -2.279745E+05 -1.115431E+04 -2.851926E+04 -1.776596E+04
        53  26 -1.899473E+05 -2.197672E+06 -2.387687E+05  1.711046E+04 -2.657956E+04 -5.102528E+04
        53  27 -2.777641E+05 -2.186752E+06 -2.963930E+05  2.620583E+04 -7.891931E+03 -8.416132E+04
        54   1  7.368575E+04  8.105934E+05  4.197517E+04 -1.318616E+02  2.578442E+04 -4.528131E+02
        54   2  7.378238E+04  8.106604E+05  4.251914E+04 -1.036706E+02  2.569492E+04 -1.165994E+03
        54   3  7.405360E+04  8.108695E+05  4.357243E+04 -6.468956E+01  2.548892E+04 -1.879243E+03
        54   4 -2.277242E+01  4.832810E+05  4.968605E+02  2.390283E+00  2.578583E+04 -3.770161E+02
        54   5  1.736862E+01  4.832341E+05  8.721016E+02 -2.970911E+00  2.569621E+04 -8.100676E+02
        54   6  1.835579E+02  4.832808E+05  1.562429E+03  2.457861E+00  2.549006E+04 -1.243183E+03
        54   7 -7.373567E+04  1.560784E+05 -4.098181E+04  1.365768E+02  2.578724E+04 -3.012571E+02
        54   8 -7.375203E+04  1.559177E+05 -4.077534E+04  9.768301E+01  2.569750E+04 -4.543194E+02
        54   9 -7.369091E+04  1.558020E+05 -4.044806E+04  6.957920E+01  2.549120E+04 -6.074409E+02
        54  10  7.368504E+04  8.105932E+05  4.197392E+04 -1.318522E+02  1.409254E-09  6.811569E-09
        54  11  7.378168E+04  8.106602E+05  4.251789E+04 -1.036464E+02  1.108353E-10  1.147463E-09
        54  12  7.405291E+04  8.108694E+05  4.357120E+04 -6.465099E+01 -3.115773E-09 -2.392434E-09
        54  13 -2.348662E+01  4.832808E+05  4.956104E+02  2.398111E+00  2.350009E-10  3.895929E-10
        54  14  1.665924E+01  4.832339E+05  8.708593E+02 -2.954150E+00 -6.229040E-09 -7.557432E-10
        54  15  1.828596E+02  4.832806E+05  1.561205E+03  2.483378E+00  2.209937E-09  4.943854E-10
        54  16 -7.373638E+04  1.560782E+05 -4.098306E+04  1.365830E+02  1.394795E-09 -7.262438E-09
        54  17 -7.375274E+04  1.559175E+05 -4.077658E+04  9.769241E+01  2.702242E-09 -1.394925E-09
        54  18 -7.369161E+04  1.558018E+05 -4.044928E+04  6.959167E+01 -2.262273E-10  2.559165E-09
        54  19  7.368575E+04  8.105934E+05  4.197517E+04 -1.318616E+02 -2.578442E+04  4.528131E+02
        54  20  7.378238E+04  8.106604E+05  4.251914E+04 -1.036706E+02 -2.569492E+04  1.165994E+03
        54  21  7.405360E+04  8.108695E+05  4.357243E+04 -6.468956E+01 -2.548892E+04  1.879243E+03
        54  22 -2.277242E+01  4.832810E+05  4.968605E+02  2.390283E+00 -2.578583E+04  3.770161E+02
        54  23  1.736862E+01  4.832341E+05  8.721016E+02 -2.970911E+00 -2.569621E+04  8.100676E+02
        54  24  1.835579E+02  4.832808E+05  1.562429E+03  2.457861E+00 -2.549006E+04  1.243183E+03
        54  25 -7.373567E+04  1.560784E+05 -4.098181E+04  1.365768E+02 -2.578724E+04  3.012571E+02
        54  26 -7.375203E+04  1.559177E+05 -4.077534E+04  9.768301E+01 -2.569750E+04  4.543194E+02
        54  27 -7.369091E+04  1.558020E+05 -4.044806E+04  6.957920E+01 -2.549120E+04  6.074409E+02
        55   1  7.422212E+04  8.111352E+05  4.432847E+04 -1.672079E+02  2.535881E+04 -2.251735E+03
        55   2  7.511681E+04  8.108500E+05  4.709579E+04  7.297484E+02  2.463355E+04 -6.197146E+03
        55   3  7.767826E+04  8.115000E+05  5.284760E+04  1.580064E+03  2.303950E+04 -1.014311E+04
        55   4  2.715150E+02  4.833874E+05  2.075107E+03 -1.040719E+01  2.535989E+04 -1.548123E+03
        55   5  9.394322E+02  4.831002E+05  3.705723E+03  1.349228E+01  2.463353E+04 -3.405230E+03
        55   6  2.912316E+03  4.833865E+05  6.872468E+03 -9.254347E+00  2.303814E+04 -5.262870E+03
        55   7 -7.368354E+04  1.557495E+05 -4.017879E+04  1.463186E+02  2.536097E+04 -8.448647E+02
        55   8 -7.324249E+04  1.554601E+05 -3.968512E+04 -7.023556E+02  2.463350E+04 -6.147158E+02
        55   9 -7.185840E+04  1.553820E+05 -3.910396E+04 -1.597683E+03  2.303676E+04 -3.850946E+02
        55  10  7.422143E+04  8.111350E+05  4.432725E+04 -1.671620E+02 -4.627450E-12  1.950094E-09
        55  11  7.511615E+04  8.108498E+05  4.709458E+04  7.298713E+02  4.152101E-09  2.401947E-10
        55  12  7.767766E+04  8.114998E+05  5.284641E+04  1.580253E+03  1.837619E-09  5.169725E-10
        55  13  2.708236E+02  4.833872E+05  2.073894E+03 -1.037557E+01  2.151198E-09  4.171167E-10
        55  14  9.387774E+02  4.831001E+05  3.704561E+03  1.355982E+01  3.684945E-09 -1.017722E-09
        55  15  2.911738E+03  4.833863E+05  6.871419E+03 -9.156716E+00  5.371138E-09  7.143200E-10
        55  16 -7.368423E+04  1.557494E+05 -4.018000E+04  1.463358E+02 -2.265782E-09 -2.707528E-09
        55  17 -7.324315E+04  1.554599E+05 -3.968626E+04 -7.023434E+02  8.350244E-10 -5.268120E-10
        55  18 -7.185897E+04  1.553819E+05 -3.910496E+04 -1.597676E+03 -5.889332E-10 -2.766130E-10
        55  19  7.422212E+04  8.111352E+05  4.432847E+04 -1.672079E+02 -2.535881E+04  2.251735E+03
        55  20  7.511681E+04  8.108500E+05  4.709579E+04  7.297484E+02 -2.463355E+04  6.197146E+03
        55  21  7.767826E+04  8.115000E+05  5.284760E+04  1.580064E+03 -2.303950E+04  1.014311E+04
        55  22  2.715150E+02  4.833874E+05  2.075107E+03 -1.040719E+01 -2.535989E+04  1.548123E+03
        55  23  9.394322E+02  4.831002E+05  3.705723E+03  1.349228E+01 -2.463353E+04  3.405230E+03
        55  24  2.912316E+03  4.833865E+05  6.872468E+03 -9.254348E+00 -2.303814E+04  5.262870E+03
        55  25 -7.368354E+04  1.557495E+05 -4.017879E+04  1.463186E+02 -2.536097E+04  8.448647E+02
        55  26 -7.324249E+04  1.554601E+05 -3.968512E+04 -7.023556E+02 -2.463350E+04  6.147158E+02
        55  27 -7.185840E+04  1.553820E+05 -3.910396E+04 -1.597683E+03 -2.303676E+04  3.850946E+02
        56   1  7.924111E+04  8.129235E+05  5.691272E+04  9.798958E+02  2.203229E+04 -1.185510E+04
        56   2  8.815376E+04  8.096710E+05  7.299342E+04  1.149617E+04  1.658588E+04 -3.599167E+04
        56   3  1.126415E+05  8.134552E+05  1.086691E+05  2.149577E+04  4.706699E+03 -6.013316E+04
        56   4  4.014010E+03  4.842276E+05  9.216413E+03 -1.148244E+02  2.203045E+04 -6.462638E+03
        56   5  1.150236E+04  4.820455E+05  1.703306E+04  1.512545E+02  1.657477E+04 -1.514244E+04
        56   6  3.188831E+04  4.842210E+05  3.372144E+04 -9.951109E+01  4.685570E+03 -2.382675E+04
        56   7 -7.121803E+04  1.556406E+05 -3.848156E+04 -1.208927E+03  2.202858E+04 -1.072911E+03
        56   8 -6.515402E+04  1.545266E+05 -3.892917E+04 -1.118748E+04  1.656290E+04  5.696148E+03
        56   9 -4.886994E+04  1.550911E+05 -4.122811E+04 -2.168324E+04  4.661913E+03  1.246059E+04
        56  10  7.924055E+04  8.129232E+05  5.691154E+04  9.801060E+02 -3.013175E-09  5.818164E-09
        56  11  8.815312E+04  8.096695E+05  7.299047E+04  1.149666E+04  2.010280E-09 -1.499671E-09
        56  12  1.126405E+05  8.134513E+05  1.086623E+05  2.149600E+04 -4.609238E-11 -6.426693E-09
        56  13  4.013478E+03  4.842274E+05  9.215422E+03 -1.147097E+02  1.106248E-09  7.276837E-10
        56  14  1.150200E+04  4.820452E+05  1.703211E+04  1.514566E+02 -7.987835E-10 -1.241535E-09
        56  15  3.188813E+04  4.842204E+05  3.372033E+04 -9.942119E+01  1.098114E-09  8.900978E-10
        56  16 -7.121856E+04  1.556405E+05 -3.848247E+04 -1.208908E+03 -8.790463E-10 -6.578158E-09
        56  17 -6.515433E+04  1.545265E+05 -3.892975E+04 -1.118756E+04  7.678452E-10  1.084643E-09
        56  18 -4.887001E+04  1.550909E+05 -4.122845E+04 -2.168328E+04  5.174148E-10  6.622037E-09
        56  19  7.924111E+04  8.129235E+05  5.691272E+04  9.798958E+02 -2.203229E+04  1.185510E+04
        56  20  8.815376E+04  8.096710E+05  7.299342E+04  1.149617E+04 -1.658588E+04  3.599167E+04
        56  21  1.126415E+05  8.134552E+05  1.086691E+05  2.149577E+04 -4.706699E+03  6.013316E+04
        56  22  4.014010E+03  4.842276E+05  9.216413E+03 -1.148244E+02 -2.203045E+04  6.462638E+03
        56  23  1.150236E+04  4.820455E+05  1.703306E+04  1.512545E+02 -1.657477E+04  1.514244E+04
        56  24  3.188831E+04  4.842210E+05  3.372144E+04 -9.951109E+01 -4.685570E+03  2.382675E+04
        56  25 -7.121803E+04  1.556406E+05 -3.848156E+04 -1.208927E+03 -2.202858E+04  1.072911E+03
        56  26 -6.515402E+04  1.545266E+05 -3.892917E+04 -1.118748E+04 -1.656290E+04 -5.696148E+03
        56  27 -4.886994E+04  1.550911E+05 -4.122811E+04 -2.168324E+04 -4.661913E+03 -1.246059E+04
        57   1 -9.884445E+06 -2.887139E+06 -1.781913E+06 -3.436117E+06 -8.899925E+05 -3.235820E+05
        57   2 -9.664330E+06 -1.608069E+06 -9.601876E+05 -3.659953E+06 -5.777691E+05 -1.740056E+05
        57   3 -9.985900E+06 -1.646574E+06 -7.429819E+05 -3.534515E+06 -2.544841E+05 -5.354981E+04
        57   4 -8.620428E+06 -2.169317E+06 -1.384958E+06 -2.853702E+06 -8.765921E+05 -3.189029E+05
        57   5 -8.277013E+06 -1.015771E+06 -5.705706E+05 -3.216026E+06 -5.741565E+05 -1.727160E+05
        57   6 -8.472256E+06 -1.176141E+06 -3.518871E+05 -3.229430E+06 -2.606033E+05 -5.581558E+04
        57   7 -7.354707E+06 -1.450708E+06 -9.881612E+05 -2.270004E+06 -8.631597E+05 -3.141980E+05
        57   8 -6.887801E+06 -4.232139E+05 -1.811390E+05 -2.771138E+06 -5.705335E+05 -1.714213E+05
        57   9 -6.956364E+06 -7.057333E+05  3.902734E+04 -2.923746E+06 -2.667385E+05 -5.808484E+04
        57  10 -9.885336E+06 -2.887470E+06 -1.783629E+06 -3.436352E+06 -2.843766E-09  5.666909E-10
        57  11 -9.664702E+06 -1.608194E+06 -9.608842E+05 -3.660035E+06 -4.037617E-10 -8.838960E-11
        57  12 -9.985971E+06 -1.646595E+06 -7.431113E+05 -3.534526E+06 -4.933013E-09  1.823359E-09
        57  13 -8.621291E+06 -2.169638E+06 -1.386618E+06 -2.853930E+06  2.627664E-09 -1.987264E-09
        57  14 -8.277379E+06 -1.015894E+06 -5.712567E+05 -3.216107E+06  2.187052E-09 -1.004109E-09
        57  15 -8.472331E+06 -1.176163E+06 -3.520227E+05 -3.229442E+06 -3.641156E-09  8.515040E-10
        57  16 -7.355542E+06 -1.451018E+06 -9.897678E+05 -2.270224E+06 -7.610512E-10  1.255654E-09
        57  17 -6.888162E+06 -4.233346E+05 -1.818146E+05 -2.771217E+06  1.854509E-09  9.504944E-10
        57  18 -6.956442E+06 -7.057563E+05  3.888549E+04 -2.923758E+06 -4.346714E-10  1.816351E-09
        57  19 -9.884445E+06 -2.887139E+06 -1.781913E+06 -3.436117E+06  8.899925E+05  3.235820E+05
        57  20 -9.664330E+06 -1.608069E+06 -9.601876E+05 -3.659953E+06  5.777691E+05  1.740056E+05
        57  21 -9.985900E+06 -1.646574E+06 -7.429819E+05 -3.534515E+06  2.544841E+05  5.354981E+04
        57  22 -8.620428E+06 -2.169317E+06 -1.384958E+06 -2.853702E+06  8.765921E+05  3.189029E+05
        57  23 -8.277013E+06 -1.015771E+06 -5.705706E+05 -3.216026E+06  5.741565E+05  1.727160E+05
        57  24 -8.472256E+06 -1.176141E+06 -3.518871E+05 -3.229430E+06  2.606033E+05  5.581558E+04
        57  25 -7.354707E+06 -1.450708E+06 -9.881612E+05 -2.270004E+06  8.631597E+05  3.141980E+05
        57  26 -6.887801E+06 -4.232139E+05 -1.811390E+05 -2.771138E+06  5.705335E+05  1.714213E+05
        57  27 -6.956364E+06 -7.057333E+05  3.902734E+04 -2.923746E+06  2.667385E+05  5.808484E+04
        58   1 -9.732261E+06 -1.874522E+06 -6.531508E+05 -3.547685E+06 -2.083896E+05 -4.168331E+04
        58   2 -9.648528E+06 -1.642978E+06 -4.741795E+05 -3.511425E+06 -1.365793E+05 -1.441635E+04
        58   3 -9.565448E+06 -1.648021E+06 -3.945246E+05 -3.510274E+06 -6.295382E+04  8.032460E+03
        58   4 -8.412390E+06 -1.345258E+06 -2.880797E+05 -3.160314E+06 -2.077746E+05 -4.146859E+04
        58   5 -8.402921E+06 -1.163850E+06 -1.342799E+05 -3.166432E+06 -1.375267E+05 -1.477920E+04
        58   6 -8.393656E+06 -1.218488E+06 -7.837426E+04 -3.207684E+06 -6.547510E+04  7.086743E+03
        58   7 -7.090809E+06 -8.158355E+05  7.682940E+04 -2.772165E+06 -2.071577E+05 -4.125306E+04
        58   8 -7.155797E+06 -6.846193E+05  2.054783E+05 -2.820798E+06 -1.384760E+05 -1.514276E+04
        58   9 -7.220525E+06 -7.888978E+05  2.376537E+05 -2.904579E+06 -6.800159E+04  6.139221E+03
        58  10 -9.732309E+06 -1.874536E+06 -6.532372E+05 -3.547692E+06 -6.449883E-09  3.928193E-10
        58  11 -9.648548E+06 -1.642983E+06 -4.742155E+05 -3.511427E+06 -1.511957E-09 -3.038351E-09
        58  12 -9.565453E+06 -1.648022E+06 -3.945322E+05 -3.510274E+06 -3.193853E-09 -3.077226E-09
        58  13 -8.412437E+06 -1.345272E+06 -2.881653E+05 -3.160321E+06 -4.727682E-09  6.312302E-11
        58  14 -8.402942E+06 -1.163856E+06 -1.343164E+05 -3.166434E+06 -4.383934E-09 -1.794798E-09
        58  15 -8.393661E+06 -1.218490E+06 -7.838250E+04 -3.207684E+06 -9.186932E-10 -2.035856E-09
        58  16 -7.090856E+06 -8.158490E+05  7.674448E+04 -2.772172E+06  8.310509E-10 -7.255355E-10
        58  17 -7.155818E+06 -6.846247E+05  2.054414E+05 -2.820800E+06  6.672493E-10 -1.850574E-09
        58  18 -7.220530E+06 -7.888991E+05  2.376449E+05 -2.904579E+06  2.062573E-09 -1.016937E-09
        58  19 -9.732261E+06 -1.874522E+06 -6.531508E+05 -3.547685E+06  2.083896E+05  4.168331E+04
        58  20 -9.648528E+06 -1.642978E+06 -4.741795E+05 -3.511425E+06  1.365793E+05  1.441635E+04
        58  21 -9.565448E+06 -1.648021E+06 -3.945246E+05 -3.510274E+06  6.295382E+04 -8.032460E+03
        58  22 -8.412390E+06 -1.345258E+06 -2.880797E+05 -3.160314E+06  2.077746E+05  4.146859E+04
        58  23 -8.402921E+06 -1.163850E+06 -1.342799E+05 -3.166432E+06  1.375267E+05  1.477920E+04
        58  24 -8.393656E+06 -1.218488E+06 -7.837426E+04 -3.207684E+06  6.547510E+04 -7.086743E+03
        58  25 -7.090809E+06 -8.158355E+05  7.682940E+04 -2.772165E+06  2.071577E+05  4.125306E+04
        58  26 -7.155797E+06 -6.846193E+05  2.054783E+05 -2.820798E+06  1.384760E+05  1.514276E+04
        58  27 -7.220525E+06 -7.888978E+05  2.376537E+05 -2.904579E+06  6.800159E+04 -6.139221E+03
        59   1 -9.266153E+06 -1.588542E+06 -3.038209E+05 -3.453193E+06 -5.114766E+04  8.470592E+03
        59   2 -9.164825E+06 -1.448421E+06 -2.306921E+05 -3.345097E+06 -3.268507E+04  9.266239E+03
        59   3 -8.952948E+06 -1.449274E+06 -1.755229E+05 -3.369581E+06 -1.369928E+04  8.630911E+03
        59   4 -8.376320E+06 -1.249381E+06 -6.196918E+04 -3.209785E+06 -5.283706E+04  7.836779E+03
        59   5 -8.430414E+06 -1.170719E+06 -3.125985E+04 -3.146535E+06 -3.485900E+04  8.454394E+03
        59   6 -8.373879E+06 -1.232907E+06 -1.809777E+04 -3.215868E+06 -1.636261E+04  7.640070E+03
        59   7 -7.485715E+06 -9.101720E+05  1.798103E+05 -2.966055E+06 -5.452912E+04  7.201958E+03
        59   8 -7.695477E+06 -8.929865E+05  1.681237E+05 -2.947759E+06 -3.703578E+04  7.641485E+03
        59   9 -7.794482E+06 -1.016523E+06  1.392974E+05 -3.062024E+06 -1.902871E+04  6.648220E+03
        59  10 -9.266156E+06 -1.588543E+06 -3.038260E+05 -3.453193E+06 -3.335928E-10 -9.246415E-10
        59  11 -9.164826E+06 -1.448422E+06 -2.306943E+05 -3.345096E+06  1.307314E-09 -2.229581E-09
        59  12 -8.952948E+06 -1.449275E+06 -1.755234E+05 -3.369580E+06 -2.674239E-09 -1.453770E-09
        59  13 -8.376323E+06 -1.249382E+06 -6.197460E+04 -3.209784E+06  5.374460E-10 -2.216731E-09
        59  14 -8.430416E+06 -1.170720E+06 -3.126229E+04 -3.146535E+06  2.096251E-09 -1.326525E-09
        59  15 -8.373879E+06 -1.232908E+06 -1.809839E+04 -3.215868E+06 -4.072392E-10  3.133853E-10
        59  16 -7.485718E+06 -9.101729E+05  1.798045E+05 -2.966055E+06  1.822653E-09 -6.193808E-10
        59  17 -7.695479E+06 -8.929869E+05  1.681209E+05 -2.947758E+06  8.413634E-10 -7.188528E-10
        59  18 -7.794482E+06 -1.016523E+06  1.392966E+05 -3.062024E+06 -5.642298E-10  5.147620E-10
        59  19 -9.266153E+06 -1.588542E+06 -3.038209E+05 -3.453193E+06  5.114766E+04 -8.470592E+03
        59  20 -9.164825E+06 -1.448421E+06 -2.306921E+05 -3.345097E+06  3.268507E+04 -9.266239E+03
        59  21 -8.952948E+06 -1.449274E+06 -1.755229E+05 -3.369581E+06  1.369928E+04 -8.630911E+03
        59  22 -8.376320E+06 -1.249381E+06 -6.196918E+04 -3.209785E+06  5.283706E+04 -7.836779E+03
        59  23 -8.430414E+06 -1.170719E+06 -3.125985E+04 -3.146535E+06  3.485900E+04 -8.454394E+03
        59  24 -8.373879E+06 -1.232907E+06 -1.809777E+04 -3.215868E+06  1.636261E+04 -7.640070E+03
        59  25 -7.485715E+06 -9.101720E+05  1.798103E+05 -2.966055E+06  5.452912E+04 -7.201958E+03
        59  26 -7.695477E+06 -8.929865E+05  1.681237E+05 -2.947759E+06  3.703578E+04 -7.641485E+03
        59  27 -7.794482E+06 -1.016523E+06  1.392974E+05 -3.062024E+06  1.902871E+04 -6.648220E+03
        60   1 -8.574262E+06 -1.317269E+06 -6.948598E+04 -3.275130E+06 -9.581434E+03  5.255168E+03
        60   2 -8.459474E+06 -1.176248E+06 -1.461842E+04 -3.145816E+06 -2.567209E+03 -3.007686E+02
        60   3 -8.207844E+06 -1.177248E+06  3.606351E+04 -3.176585E+06  4.470954E+03 -5.918705E+03
        60   4 -8.368890E+06 -1.239703E+06 -1.438510E+04 -3.219513E+06 -1.212000E+04  4.312030E+03
        60   5 -8.437167E+06 -1.167818E+06 -8.564481E+03 -3.139786E+06 -5.126910E+03 -1.251725E+03
        60   6 -8.368627E+06 -1.237949E+06 -6.907880E+03 -3.220155E+06  1.888648E+03 -6.877883E+03
        60   7 -8.163477E+06 -1.162135E+06  4.071205E+04 -3.163878E+06 -1.465950E+04  3.368541E+03
        60   8 -8.414858E+06 -1.159388E+06 -2.510564E+03 -3.133756E+06 -7.686710E+03 -2.202719E+03
        60   9 -8.529385E+06 -1.298649E+06 -4.988143E+04 -3.263715E+06 -6.929101E+02 -7.836779E+03
        60  10 -8.574262E+06 -1.317269E+06 -6.948620E+04 -3.275130E+06  7.474882E-10  1.916389E-09
        60  11 -8.459474E+06 -1.176248E+06 -1.461843E+04 -3.145816E+06  1.956878E-09  1.633559E-09
        60  12 -8.207844E+06 -1.177248E+06  3.606341E+04 -3.176585E+06  1.644732E-09  3.475091E-09
        60  13 -8.368890E+06 -1.239703E+06 -1.438542E+04 -3.219513E+06  3.175323E-09  2.491230E-09
        60  14 -8.437167E+06 -1.167818E+06 -8.564534E+03 -3.139786E+06  1.716140E-09 -2.847570E-09
        60  15 -8.368627E+06 -1.237949E+06 -6.907975E+03 -3.220155E+06  1.107321E-09  3.692289E-10
        60  16 -8.163477E+06 -1.162135E+06  4.071162E+04 -3.163878E+06 -7.520836E-10  5.810753E-09
        60  17 -8.414858E+06 -1.159388E+06 -2.510686E+03 -3.133756E+06  2.991643E-09  2.310633E-09
        60  18 -8.529385E+06 -1.298649E+06 -4.988154E+04 -3.263715E+06 -6.227058E-10 -2.549714E-09
        60  19 -8.574262E+06 -1.317269E+06 -6.948598E+04 -3.275130E+06  9.581434E+03 -5.255168E+03
        60  20 -8.459474E+06 -1.176248E+06 -1.461842E+04 -3.145816E+06  2.567209E+03  3.007686E+02
        60  21 -8.207844E+06 -1.177248E+06  3.606351E+04 -3.176585E+06 -4.470954E+03  5.918705E+03
        60  22 -8.368890E+06 -1.239703E+06 -1.438510E+04 -3.219513E+06  1.212000E+04 -4.312030E+03
        60  23 -8.437167E+06 -1.167818E+06 -8.564481E+03 -3.139786E+06  5.126910E+03  1.251725E+03
        60  24 -8.368627E+06 -1.237949E+06 -6.907880E+03 -3.220155E+06 -1.888648E+03  6.877883E+03
        60  25 -8.163477E+06 -1.162135E+06  4.071205E+04 -3.163878E+06  1.465950E+04 -3.368541E+03
        60  26 -8.414858E+06 -1.159388E+06 -2.510564E+03 -3.133756E+06  7.686710E+03  2.202719E+03
        60  27 -8.529385E+06 -1.298649E+06 -4.988143E+04 -3.263715E+06  6.929101E+02  7.836779E+03
        61   1 -7.835406E+06 -1.032083E+06  1.393478E+05 -3.071680E+06  7.231396E+03 -9.799738E+03
        61   2 -7.736129E+06 -9.101547E+05  1.802521E+05 -2.957680E+06  1.374312E+04 -1.516449E+04
        61   3 -7.515812E+06 -9.126660E+05  2.176169E+05 -2.983105E+06  1.986436E+04 -1.943667E+04
        61   4 -8.372221E+06 -1.233956E+06 -6.813486E+03 -3.215643E+06  4.604811E+03 -1.077660E+04
        61   5 -8.432869E+06 -1.172850E+06 -8.658995E+03 -3.145494E+06  1.149939E+04 -1.600185E+04
        61   6 -8.372576E+06 -1.236276E+06 -1.435208E+04 -3.214792E+06  1.800210E+04 -2.013426E+04
        61   7 -8.908756E+06 -1.435815E+06 -1.530013E+05 -3.359491E+06  1.980748E+03 -1.175253E+04
        61   8 -9.129137E+06 -1.435519E+06 -1.976140E+05 -3.333114E+06  9.258457E+03 -1.683817E+04
        61   9 -9.228625E+06 -1.559843E+06 -2.463872E+05 -3.446186E+06  1.614269E+04 -2.083078E+04
        61  10 -7.835406E+06 -1.032083E+06  1.393476E+05 -3.071680E+06  3.255223E-09  1.678111E-09
        61  11 -7.736129E+06 -9.101550E+05  1.802513E+05 -2.957680E+06 -1.044952E-09 -9.904622E-10
        61  12 -7.515813E+06 -9.126665E+05  2.176155E+05 -2.983105E+06 -5.565104E-09  3.114178E-10
        61  13 -8.372221E+06 -1.233957E+06 -6.813743E+03 -3.215642E+06 -3.263506E-09 -2.258834E-09
        61  14 -8.432869E+06 -1.172851E+06 -8.659723E+03 -3.145493E+06  2.230775E-09  3.730259E-09
        61  15 -8.372577E+06 -1.236276E+06 -1.435345E+04 -3.214791E+06 -8.434562E-10  8.646943E-10
        61  16 -8.908756E+06 -1.435815E+06 -1.530015E+05 -3.359491E+06 -5.041302E-09 -6.727626E-09
        61  17 -9.129137E+06 -1.435519E+06 -1.976147E+05 -3.333114E+06 -9.900954E-10  1.242390E-09
        61  18 -9.228625E+06 -1.559844E+06 -2.463885E+05 -3.446185E+06  9.180357E-10  3.195846E-10
        61  19 -7.835406E+06 -1.032083E+06  1.393478E+05 -3.071680E+06 -7.231396E+03  9.799738E+03
        61  20 -7.736129E+06 -9.101547E+05  1.802521E+05 -2.957680E+06 -1.374312E+04  1.516449E+04
        61  21 -7.515812E+06 -9.126660E+05  2.176169E+05 -2.983105E+06 -1.986436E+04  1.943667E+04
        61  22 -8.372221E+06 -1.233956E+06 -6.813486E+03 -3.215643E+06 -4.604811E+03  1.077660E+04
        61  23 -8.432869E+06 -1.172850E+06 -8.658995E+03 -3.145494E+06 -1.149939E+04  1.600185E+04
        61  24 -8.372576E+06 -1.236276E+06 -1.435208E+04 -3.214792E+06 -1.800210E+04  2.013426E+04
        61  25 -8.908756E+06 -1.435815E+06 -1.530013E+05 -3.359491E+06 -1.980748E+03  1.175253E+04
        61  26 -9.129137E+06 -1.435519E+06 -1.976140E+05 -3.333114E+06 -9.258457E+03  1.683817E+04
        61  27 -9.228625E+06 -1.559843E+06 -2.463872E+05 -3.446186E+06 -1.614269E+04  2.083078E+04
        62   1 -7.247010E+06 -7.949224E+05  2.906290E+05 -2.897952E+06  2.386630E+04 -2.161211E+04
        62   2 -7.188916E+06 -7.182697E+05  3.023268E+05 -2.827784E+06  4.087917E+04 -2.055110E+04
        62   3 -7.064707E+06 -7.343438E+05  2.977415E+05 -2.834289E+06  5.711100E+04 -1.735947E+04
        62   4 -8.384026E+06 -1.222630E+06 -1.796390E+04 -3.203398E+06  2.181684E+04 -2.238220E+04
        62   5 -8.418231E+06 -1.184378E+06 -3.140063E+04 -3.162001E+06  3.955615E+04 -2.105270E+04
        62   6 -8.386494E+06 -1.239040E+06 -6.172875E+04 -3.197291E+06  5.651114E+04 -1.759164E+04
        62   7 -9.519781E+06 -1.650266E+06 -3.266729E+05 -3.508332E+06  1.977155E+04 -2.315075E+04
        62   8 -9.646074E+06 -1.650396E+06 -3.652648E+05 -3.495612E+06  3.823599E+04 -2.155323E+04
        62   9 -9.706579E+06 -1.743627E+06 -4.213584E+05 -3.559583E+06  5.591261E+04 -1.782333E+04
        62  10 -7.247011E+06 -7.949230E+05  2.906271E+05 -2.897952E+06 -1.495674E-10  1.482950E-09
        62  11 -7.188918E+06 -7.182706E+05  3.023228E+05 -2.827783E+06 -1.604577E-09  8.371016E-10
        62  12 -7.064711E+06 -7.343450E+05  2.977347E+05 -2.834289E+06 -2.526081E-09  3.712867E-10
        62  13 -8.384027E+06 -1.222631E+06 -1.796574E+04 -3.203397E+06 -3.334926E-09 -1.807648E-10
        62  14 -8.418233E+06 -1.184378E+06 -3.140442E+04 -3.162000E+06 -5.208157E-10  6.397040E-10
        62  15 -8.386497E+06 -1.239041E+06 -6.173538E+04 -3.197290E+06  9.789623E-10 -8.143076E-10
        62  16 -9.519782E+06 -1.650267E+06 -3.266747E+05 -3.508332E+06  2.089233E-10  2.181204E-09
        62  17 -9.646076E+06 -1.650397E+06 -3.652684E+05 -3.495612E+06  5.004451E-10 -2.823184E-10
        62  18 -9.706583E+06 -1.743628E+06 -4.213649E+05 -3.559582E+06  1.373981E-09  1.483529E-09
        62  19 -7.247010E+06 -7.949224E+05  2.906290E+05 -2.897952E+06 -2.386630E+04  2.161211E+04
        62  20 -7.188916E+06 -7.182697E+05  3.023268E+05 -2.827784E+06 -4.087917E+04  2.055110E+04
        62  21 -7.064707E+06 -7.343438E+05  2.977415E+05 -2.834289E+06 -5.711100E+04  1.735947E+04
        62  22 -8.384026E+06 -1.222630E+06 -1.796390E+04 -3.203398E+06 -2.181684E+04  2.238220E+04
        62  23 -8.418231E+06 -1.184378E+06 -3.140063E+04 -3.162001E+06 -3.955615E+04  2.105270E+04
        62  24 -8.386494E+06 -1.239040E+06 -6.172875E+04 -3.197291E+06 -5.651114E+04  1.759164E+04
        62  25 -9.519781E+06 -1.650266E+06 -3.266729E+05 -3.508332E+06 -1.977155E+04  2.315075E+04
        62  26 -9.646074E+06 -1.650396E+06 -3.652648E+05 -3.495612E+06 -3.823599E+04  2.155323E+04
        62  27 -9.706579E+06 -1.743627E+06 -4.213584E+05 -3.559583E+06 -5.591261E+04  1.782333E+04
        63   1 -6.966003E+06 -6.702009E+05  3.110509E+05 -2.811666E+06  6.966670E+04 -1.435964E+04
        63   2 -6.955262E+06 -6.305589E+05  2.559496E+05 -2.788644E+06  1.388569E+05  1.040433E+04
        63   3 -7.008538E+06 -7.600571E+05  1.048038E+05 -2.725445E+06  2.063536E+05  3.962337E+04
        63   4 -8.408013E+06 -1.204399E+06 -7.818700E+04 -3.190883E+06  6.835745E+04 -1.485899E+04
        63   5 -8.385233E+06 -1.182363E+06 -1.340644E+05 -3.187290E+06  1.389754E+05  1.044032E+04
        63   6 -8.426918E+06 -1.330005E+06 -2.873033E+05 -3.143482E+06  2.078992E+05  4.019393E+04
        63   7 -9.847998E+06 -1.738499E+06 -4.676106E+05 -3.569305E+06  6.705145E+04 -1.535720E+04
        63   8 -9.813208E+06 -1.734027E+06 -5.242646E+05 -3.585088E+06  1.390932E+05  1.047605E+04
        63   9 -9.843329E+06 -1.899768E+06 -6.795976E+05 -3.560620E+06  2.094404E+05  4.076259E+04
        63  10 -6.966008E+06 -6.702024E+05  3.110413E+05 -2.811665E+06  1.020461E-10  2.597766E-10
        63  11 -6.955283E+06 -6.305642E+05  2.559127E+05 -2.788645E+06  1.010055E-09 -1.153228E-09
        63  12 -7.008584E+06 -7.600704E+05  1.047198E+05 -2.725452E+06  2.469342E-09  1.067541E-09
        63  13 -8.408018E+06 -1.204400E+06 -7.819628E+04 -3.190882E+06 -6.786469E-10  7.584716E-10
        63  14 -8.385254E+06 -1.182368E+06 -1.341014E+05 -3.187291E+06  1.756666E-09 -2.485024E-09
        63  15 -8.426966E+06 -1.330019E+06 -2.873888E+05 -3.143489E+06  1.155493E-09  2.033038E-09
        63  16 -9.848003E+06 -1.738500E+06 -4.676196E+05 -3.569304E+06 -4.993556E-10 -2.646448E-10
        63  17 -9.813229E+06 -1.734033E+06 -5.243018E+05 -3.585089E+06 -1.949154E-09 -9.340266E-10
        63  18 -9.843377E+06 -1.899781E+06 -6.796846E+05 -3.560627E+06  2.028155E-09 -5.690645E-10
        63  19 -6.966003E+06 -6.702009E+05  3.110509E+05 -2.811666E+06 -6.966670E+04  1.435964E+04
        63  20 -6.955262E+06 -6.305589E+05  2.559496E+05 -2.788644E+06 -1.388569E+05 -1.040433E+04
        63  21 -7.008538E+06 -7.600571E+05  1.048038E+05 -2.725445E+06 -2.063536E+05 -3.962337E+04
        63  22 -8.408013E+06 -1.204399E+06 -7.818700E+04 -3.190883E+06 -6.835745E+04  1.485899E+04
        63  23 -8.385233E+06 -1.182363E+06 -1.340644E+05 -3.187290E+06 -1.389754E+05 -1.044032E+04
        63  24 -8.426918E+06 -1.330005E+06 -2.873033E+05 -3.143482E+06 -2.078992E+05 -4.019393E+04
        63  25 -9.847998E+06 -1.738499E+06 -4.676106E+05 -3.569305E+06 -6.705145E+04  1.535720E+04
        63  26 -9.813208E+06 -1.734027E+06 -5.242646E+05 -3.585088E+06 -1.390932E+05 -1.047605E+04
        63  27 -9.843329E+06 -1.899768E+06 -6.795976E+05 -3.560620E+06 -2.094404E+05 -4.076259E+04
        64   1 -7.061021E+06 -7.229620E+05  1.561991E+04 -2.928034E+06  2.629485E+05  5.910198E+04
        64   2 -7.044884E+06 -5.057539E+05 -2.266379E+05 -2.837375E+06  5.665125E+05  1.776846E+05
        64   3 -7.633404E+06 -1.528274E+06 -1.056733E+06 -2.323007E+06  8.613645E+05  3.188823E+05
        64   4 -8.486786E+06 -1.161949E+06 -3.511437E+05 -3.213201E+06  2.593755E+05  5.778652E+04
        64   5 -8.258183E+06 -1.034568E+06 -5.690874E+05 -3.236664E+06  5.703615E+05  1.790809E+05
        64   6 -8.636781E+06 -2.150059E+06 -1.381681E+06 -2.836026E+06  8.727372E+05  3.228432E+05
        64   7 -9.910561E+06 -1.600962E+06 -7.180662E+05 -3.497846E+06  2.558110E+05  5.647287E+04
        64   8 -9.470025E+06 -1.563159E+06 -9.116782E+05 -3.635191E+06  5.742011E+05  1.804724E+05
        64   9 -9.639023E+06 -2.771165E+06 -1.706720E+06 -3.348116E+06  8.840884E+05  3.267844E+05
        64  10 -7.061097E+06 -7.229847E+05  1.548163E+04 -2.928046E+06  4.640165E-09  1.039363E-09
        64  11 -7.045241E+06 -5.058758E+05 -2.273092E+05 -2.837457E+06  7.620069E-09 -8.916190E-09
        64  12 -7.634237E+06 -1.528587E+06 -1.058340E+06 -2.323230E+06  1.801871E-09 -6.798088E-09
        64  13 -8.486860E+06 -1.161971E+06 -3.512784E+05 -3.213213E+06  4.753683E-09  3.091225E-09
        64  14 -8.258545E+06 -1.034692E+06 -5.697695E+05 -3.236747E+06  1.289611E-08  4.899497E-09
        64  15 -8.637637E+06 -2.150381E+06 -1.383334E+06 -2.836255E+06  1.039221E-10 -9.601651E-10
        64  16 -9.910633E+06 -1.600983E+06 -7.181975E+05 -3.497858E+06 -1.777113E-09 -5.659703E-10
        64  17 -9.470393E+06 -1.563285E+06 -9.123712E+05 -3.635275E+06 -1.564007E-09  2.728791E-09
        64  18 -9.639903E+06 -2.771496E+06 -1.708419E+06 -3.348352E+06 -7.595553E-10 -2.712440E-10
        64  19 -7.061021E+06 -7.229620E+05  1.561991E+04 -2.928034E+06 -2.629485E+05 -5.910198E+04
        64  20 -7.044884E+06 -5.057539E+05 -2.266379E+05 -2.837375E+06 -5.665125E+05 -1.776846E+05
        64  21 -7.633404E+06 -1.528274E+06 -1.056733E+06 -2.323007E+06 -8.613645E+05 -3.188823E+05
        64  22 -8.486786E+06 -1.161949E+06 -3.511437E+05 -3.213201E+06 -2.593755E+05 -5.778652E+04
        64  23 -8.258183E+06 -1.034568E+06 -5.690874E+05 -3.236664E+06 -5.703615E+05 -1.790809E+05
        64  24 -8.636781E+06 -2.150059E+06 -1.381681E+06 -2.836026E+06 -8.727372E+05 -3.228432E+05
        64  25 -9.910561E+06 -1.600962E+06 -7.180662E+05 -3.497846E+06 -2.558110E+05 -5.647287E+04
        64  26 -9.470025E+06 -1.563159E+06 -9.116782E+05 -3.635191E+06 -5.742011E+05 -1.804724E+05
        64  27 -9.639023E+06 -2.771165E+06 -1.706720E+06 -3.348116E+06 -8.840884E+05 -3.267844E+05
        65   1 -1.451521E+06 -2.173333E+05 -1.746121E+05 -1.352883E+04  1.127946E+05  1.160867E+04
        65   2 -1.414518E+06 -3.691871E+05 -2.574912E+05  2.366934E+03  7.839965E+04  3.247241E+04
        65   3 -1.319935E+06 -3.319519E+05 -2.695549E+05 -5.537590E+04  4.416118E+04  2.868149E+04
        65   4 -1.529727E+04  1.410627E+05  1.822759E+05 -3.751664E+04  1.242033E+05  1.168064E+04
        65   5 -4.476218E+04 -2.792411E+04  7.821732E+04 -2.086530E+02  8.145374E+04  3.248433E+04
        65   6 -1.531091E+04 -6.591515E+03  5.066323E+04 -3.652753E+04  3.886477E+04  2.865494E+04
        65   7  1.422804E+06  4.993066E+05  5.390106E+05 -6.156328E+04  1.356383E+05  1.175164E+04
        65   8  1.326705E+06  3.131999E+05  4.137884E+05 -2.792398E+03  8.451440E+04  3.249621E+04
        65   9  1.290865E+06  3.186435E+05  3.707566E+05 -1.764110E+04  3.355717E+04  2.862810E+04
        65  10 -1.451535E+06 -2.173369E+05 -1.746363E+05 -1.352989E+04  1.048124E-09  2.119932E-09
        65  11 -1.414525E+06 -3.691899E+05 -2.575047E+05  2.364882E+03  4.646291E-09 -2.463322E-09
        65  12 -1.319937E+06 -3.319533E+05 -2.695601E+05 -5.537692E+04 -4.528289E-10  1.870664E-09
        65  13 -1.531387E+04  1.410584E+05  1.822467E+05 -3.751781E+04  1.868758E-09  1.412693E-10
        65  14 -4.476959E+04 -2.792702E+04  7.820287E+04 -2.107839E+02 -1.033570E-09 -9.118872E-09
        65  15 -1.531276E+04 -6.592802E+03  5.065885E+04 -3.652843E+04  3.202278E-09 -1.157066E-10
        65  16  1.422784E+06  4.993016E+05  5.389759E+05 -6.156456E+04  1.875234E-09 -1.367884E-09
        65  17  1.326697E+06  3.131968E+05  4.137730E+05 -2.794608E+03 -1.679959E-09 -1.719432E-09
        65  18  1.290864E+06  3.186424E+05  3.707529E+05 -1.764188E+04  7.367360E-10 -2.507772E-10
        65  19 -1.451521E+06 -2.173333E+05 -1.746121E+05 -1.352883E+04 -1.127946E+05 -1.160867E+04
        65  20 -1.414518E+06 -3.691871E+05 -2.574912E+05  2.366934E+03 -7.839965E+04 -3.247241E+04
        65  21 -1.319935E+06 -3.319519E+05 -2.695549E+05 -5.537590E+04 -4.416118E+04 -2.868149E+04
        65  22 -1.529727E+04  1.410627E+05  1.822759E+05 -3.751664E+04 -1.242033E+05 -1.168064E+04
        65  23 -4.476218E+04 -2.792411E+04  7.821732E+04 -2.086530E+02 -8.145374E+04 -3.248433E+04
        65  24 -1.531091E+04 -6.591515E+03  5.066323E+04 -3.652753E+04 -3.886477E+04 -2.865494E+04
        65  25  1.422804E+06  4.993066E+05  5.390106E+05 -6.156328E+04 -1.356383E+05 -1.175164E+04
        65  26  1.326705E+06  3.131999E+05  4.137884E+05 -2.792398E+03 -8.451440E+04 -3.249621E+04
        65  27  1.290865E+06  3.186435E+05  3.707566E+05 -1.764110E+04 -3.355717E+04 -2.862810E+04
        66   1 -1.180375E+06 -2.699830E+05 -2.421216E+05 -3.639810E+04  3.011820E+04  2.352058E+04
        66   2 -1.120259E+06 -2.752471E+05 -2.470273E+05 -1.563751E+03  2.052202E+04  2.373511E+04
        66   3 -1.049255E+06 -2.560762E+05 -2.388478E+05 -4.007595E+04  1.092815E+04  2.121626E+04
        66   4 -2.583246E+04  1.781629E+04  4.159508E+04 -3.681547E+04  3.069974E+04  2.351984E+04
        66   5 -3.135097E+04 -3.864816E+03  2.020732E+04 -1.118798E+02  2.016916E+04  2.373139E+04
        66   6 -2.583330E+04 -9.699235E+02  1.253792E+04 -3.674663E+04  9.641940E+03  2.121163E+04
        66   7  1.129924E+06  3.055165E+05  3.252137E+05 -3.723474E+04  3.128231E+04  2.351910E+04
        66   8  1.058638E+06  2.674294E+05  2.873549E+05  1.341768E+03  1.981567E+04  2.372768E+04
        66   9  9.985432E+05  2.540585E+05  2.638466E+05 -3.341223E+04  8.353599E+03  2.120700E+04
        66  10 -1.180376E+06 -2.699838E+05 -2.421243E+05 -3.639867E+04 -8.753020E-10 -7.091660E-10
        66  11 -1.120259E+06 -2.752478E+05 -2.470292E+05 -1.564143E+03 -3.944596E-09  1.422393E-09
        66  12 -1.049255E+06 -2.560767E+05 -2.388489E+05 -4.007614E+04  5.200799E-10 -1.962610E-09
        66  13 -2.583362E+04  1.781544E+04  4.159227E+04 -3.681605E+04  3.214009E-09 -1.457667E-09
        66  14 -3.135155E+04 -3.865530E+03  2.020550E+04 -1.122653E+02  2.148998E-09 -1.354102E-09
        66  15 -2.583352E+04 -9.704316E+02  1.253690E+04 -3.674680E+04  1.666295E-09 -2.498903E-09
        66  16  1.129923E+06  3.055157E+05  3.252108E+05 -3.723533E+04  1.134240E-09  3.307848E-09
        66  17  1.058637E+06  2.674287E+05  2.873531E+05  1.341389E+03 -3.348259E-10 -3.865121E-09
        66  18  9.985430E+05  2.540580E+05  2.638456E+05 -3.341237E+04 -9.693965E-12 -4.165503E-10
        66  19 -1.180375E+06 -2.699830E+05 -2.421216E+05 -3.639810E+04 -3.011820E+04 -2.352058E+04
        66  20 -1.120259E+06 -2.752471E+05 -2.470273E+05 -1.563751E+03 -2.052202E+04 -2.373511E+04
        66  21 -1.049255E+06 -2.560762E+05 -2.388478E+05 -4.007595E+04 -1.092815E+04 -2.121626E+04
        66  22 -2.583246E+04  1.781629E+04  4.159508E+04 -3.681547E+04 -3.069974E+04 -2.351984E+04
        66  23 -3.135097E+04 -3.864816E+03  2.020732E+04 -1.118798E+02 -2.016916E+04 -2.373139E+04
        66  24 -2.583330E+04 -9.699235E+02  1.253792E+04 -3.674663E+04 -9.641940E+03 -2.121163E+04
        66  25  1.129924E+06  3.055165E+05  3.252137E+05 -3.723474E+04 -3.128231E+04 -2.351910E+04
        66  26  1.058638E+06  2.674294E+05  2.873549E+05  1.341768E+03 -1.981567E+04 -2.372768E+04
        66  27  9.985432E+05  2.540585E+05  2.638466E+05 -3.341223E+04 -8.353599E+03 -2.120700E+04
        67   1 -9.000119E+05 -2.153636E+05 -2.041379E+05 -3.735873E+04  8.253923E+03  1.942723E+04
        67   2 -8.357337E+05 -2.016375E+05 -1.929229E+05 -3.937192E+02  5.773013E+03  1.736042E+04
        67   3 -7.685763E+05 -1.847862E+05 -1.789459E+05 -3.700300E+04  3.286772E+03  1.498824E+04
        67   4 -2.755309E+04  2.023535E+03  9.850531E+03 -3.682033E+04  7.619808E+03  1.942460E+04
        67   5 -2.899908E+04 -6.080131E+02  5.068472E+03 -3.470953E+01  5.033116E+03  1.735847E+04
        67   6 -2.755311E+04 -9.755431E+01  3.119557E+03 -3.681746E+04  2.441352E+03  1.498716E+04
        67   7  8.455996E+05  2.193542E+05  2.237831E+05 -3.628140E+04  6.984797E+03  1.942196E+04
        67   8  7.783286E+05  2.003731E+05  2.030120E+05  3.246671E+02  4.292254E+03  1.735652E+04
        67   9  7.139703E+05  1.845503E+05  1.851446E+05 -3.663167E+04  1.594923E+03  1.498607E+04
        67  10 -9.000121E+05 -2.153640E+05 -2.041387E+05 -3.735886E+04  5.599439E-09  2.296674E-10
        67  11 -8.357338E+05 -2.016378E+05 -1.929235E+05 -3.937999E+02 -1.014200E-09  9.300625E-10
        67  12 -7.685764E+05 -1.847865E+05 -1.789463E+05 -3.700304E+04 -4.872185E-09  4.432789E-10
        67  13 -2.755325E+04  2.023114E+03  9.849712E+03 -3.682045E+04 -1.762676E-09 -6.783307E-10
        67  14 -2.899919E+04 -6.083435E+02  5.067858E+03 -3.477989E+01  1.073833E-09  7.638029E-10
        67  15 -2.755317E+04 -9.779711E+01  3.119124E+03 -3.681749E+04  1.350273E-09  1.473794E-09
        67  16  8.455994E+05  2.193538E+05  2.237823E+05 -3.628151E+04 -1.037368E-09 -4.101539E-10
        67  17  7.783285E+05  2.003728E+05  2.030114E+05  3.246071E+02  3.005480E-10  4.582057E-10
        67  18  7.139703E+05  1.845501E+05  1.851442E+05 -3.663169E+04  5.314973E-10  1.150675E-09
        67  19 -9.000119E+05 -2.153636E+05 -2.041379E+05 -3.735873E+04 -8.253923E+03 -1.942723E+04
        67  20 -8.357337E+05 -2.016375E+05 -1.929229E+05 -3.937192E+02 -5.773013E+03 -1.736042E+04
        67  21 -7.685763E+05 -1.847862E+05 -1.789459E+05 -3.700300E+04 -3.286772E+03 -1.498824E+04
        67  22 -2.755309E+04  2.023535E+03  9.850531E+03 -3.682033E+04 -7.619808E+03 -1.942460E+04
        67  23 -2.899908E+04 -6.080131E+02  5.068472E+03 -3.470953E+01 -5.033116E+03 -1.735847E+04
        67  24 -2.755311E+04 -9.755431E+01  3.119557E+03 -3.681746E+04 -2.441352E+03 -1.498716E+04
        67  25  8.455996E+05  2.193542E+05  2.237831E+05 -3.628140E+04 -6.984797E+03 -1.942196E+04
        67  26  7.783286E+05  2.003731E+05  2.030120E+05  3.246671E+02 -4.292254E+03 -1.735652E+04
        67  27  7.139703E+05  1.845503E+05  1.851446E+05 -3.663167E+04 -1.594923E+03 -1.498607E+04
        68   1 -6.175671E+05 -1.466832E+05 -1.421388E+05 -3.666203E+04  2.709986E+03  1.357054E+04
        68   2 -5.520586E+05 -1.305954E+05 -1.273131E+05  3.294310E+02  2.111706E+03  1.124664E+04
        68   3 -4.858088E+05 -1.140132E+05 -1.118647E+05 -3.639828E+04  1.509795E+03  8.888787E+03
        68   4 -2.796816E+04  1.799410E+02  2.349120E+03 -3.685084E+04  1.936553E+03  1.357004E+04
        68   5 -2.833787E+04 -1.114991E+02  1.201999E+03  6.834727E+00  1.326309E+03  1.124671E+04
        68   6 -2.796812E+04  9.397442E+01  6.859629E+02 -3.685081E+04  7.124970E+02  8.889456E+03
        68   7  5.619477E+05  1.470173E+05  1.468115E+05 -3.703979E+04  1.162386E+03  1.356954E+04
        68   8  4.956327E+05  1.303521E+05  1.296970E+05 -3.159805E+02  5.402503E+02  1.124678E+04
        68   9  4.300634E+05  1.141855E+05  1.132211E+05 -3.730360E+04 -8.538817E+01  8.890126E+03
        68  10 -6.175672E+05 -1.466834E+05 -1.421391E+05 -3.666206E+04 -1.411407E-09  3.932738E-10
        68  11 -5.520586E+05 -1.305956E+05 -1.273134E+05  3.294119E+02 -2.167182E-10  2.922246E-10
        68  12 -4.858088E+05 -1.140133E+05 -1.118648E+05 -3.639829E+04  1.313870E-12  6.398683E-10
        68  13 -2.796822E+04  1.797422E+02  2.348767E+03 -3.685087E+04  2.071756E-09  1.767852E-09
        68  14 -2.833791E+04 -1.116354E+02  1.201758E+03  6.822714E+00  1.070875E-09 -9.019297E-10
        68  15 -2.796814E+04  9.388943E+01  6.858135E+02 -3.685081E+04 -9.136185E-10 -1.208892E-09
        68  16  5.619476E+05  1.470171E+05  1.468112E+05 -3.703981E+04 -6.324308E-10 -9.000928E-10
        68  17  4.956327E+05  1.303520E+05  1.296967E+05 -3.159854E+02 -6.416596E-10 -1.385612E-09
        68  18  4.300634E+05  1.141854E+05  1.132210E+05 -3.730360E+04  1.036592E-09 -1.293983E-09
        68  19 -6.175671E+05 -1.466832E+05 -1.421388E+05 -3.666203E+04 -2.709986E+03 -1.357054E+04
        68  20 -5.520586E+05 -1.305954E+05 -1.273131E+05  3.294310E+02 -2.111706E+03 -1.124664E+04
        68  21 -4.858088E+05 -1.140132E+05 -1.118647E+05 -3.639828E+04 -1.509795E+03 -8.888787E+03
        68  22 -2.796816E+04  1.799410E+02  2.349120E+03 -3.685084E+04 -1.936553E+03 -1.357004E+04
        68  23 -2.833787E+04 -1.114991E+02  1.201999E+03  6.834727E+00 -1.326309E+03 -1.124671E+04
        68  24 -2.796812E+04  9.397442E+01  6.859629E+02 -3.685081E+04 -7.124970E+02 -8.889456E+03
        68  25  5.619477E+05  1.470173E+05  1.468115E+05 -3.703979E+04 -1.162386E+03 -1.356954E+04
        68  26  4.956327E+05  1.303521E+05  1.296970E+05 -3.159805E+02 -5.402503E+02 -1.124678E+04
        68  27  4.300634E+05  1.141855E+05  1.132211E+05 -3.730360E+04  8.538817E+01 -8.890126E+03
        69   1 -3.342571E+05 -7.614084E+04 -7.447497E+04 -3.653323E+04  1.397794E+03  7.508222E+03
        69   2 -2.682175E+05 -5.982403E+04 -5.885319E+04  3.360932E+02  1.356414E+03  5.152009E+03
        69   3 -2.023011E+05 -4.333785E+04 -4.319944E+04 -3.659693E+04  1.313423E+03  2.807668E+03
        69   4 -2.812426E+04  8.094204E+01  4.319763E+02 -3.686976E+04  6.045696E+02  7.509225E+03
        69   5 -2.806081E+04  8.561975E-01  6.916565E+01  3.052237E+01  5.671138E+02  5.153264E+03
        69   6 -2.812424E+04  9.005830E+01 -2.639014E+02 -3.686976E+04  5.280500E+02  2.809187E+03
        69   7  2.780940E+05  7.629578E+04  7.533208E+04 -3.720642E+04 -1.890451E+02  7.510229E+03
        69   8  2.121484E+05  5.982147E+04  5.898729E+04 -2.751439E+02 -2.224918E+02  5.154519E+03
        69   9  1.460802E+05  4.351570E+04  4.266940E+04 -3.714265E+04 -2.575432E+02  2.810706E+03
        69  10 -3.342571E+05 -7.614090E+04 -7.447508E+04 -3.653324E+04 -7.776597E-10  7.102512E-10
        69  11 -2.682175E+05 -5.982406E+04 -5.885324E+04  3.360875E+02 -8.487372E-10 -6.731327E-11
        69  12 -2.023011E+05 -4.333786E+04 -4.319946E+04 -3.659693E+04 -5.229863E-09  3.410802E-10
        69  13 -2.812428E+04  8.088139E+01  4.318696E+02 -3.686976E+04 -4.693615E-09  1.717313E-09
        69  14 -2.806082E+04  8.275949E-01  6.911514E+01  3.052002E+01 -4.296164E-09  2.090233E-09
        69  15 -2.812424E+04  9.004975E+01 -2.639168E+02 -3.686976E+04 -3.793456E-09 -1.806175E-09
        69  16  2.780940E+05  7.629572E+04  7.533197E+04 -3.720642E+04 -1.735805E-09 -2.401328E-10
        69  17  2.121484E+05  5.982144E+04  5.898724E+04 -2.751430E+02  1.782639E-09  5.464580E-10
        69  18  1.460802E+05  4.351569E+04  4.266938E+04 -3.714265E+04  4.843002E-09  1.535665E-09
        69  19 -3.342571E+05 -7.614084E+04 -7.447497E+04 -3.653323E+04 -1.397794E+03 -7.508222E+03
        69  20 -2.682175E+05 -5.982403E+04 -5.885319E+04  3.360932E+02 -1.356414E+03 -5.152009E+03
        69  21 -2.023011E+05 -4.333785E+04 -4.319944E+04 -3.659693E+04 -1.313423E+03 -2.807668E+03
        69  22 -2.812426E+04  8.094204E+01  4.319763E+02 -3.686976E+04 -6.045696E+02 -7.509225E+03
        69  23 -2.806081E+04  8.561975E-01  6.916565E+01  3.052237E+01 -5.671138E+02 -5.153264E+03
        69  24 -2.812424E+04  9.005830E+01 -2.639014E+02 -3.686976E+04 -5.280500E+02 -2.809187E+03
        69  25  2.780940E+05  7.629578E+04  7.533208E+04 -3.720642E+04  1.890451E+02 -7.510229E+03
        69  26  2.121484E+05  5.982147E+04  5.898729E+04 -2.751439E+02  2.224918E+02 -5.154519E+03
        69  27  1.460802E+05  4.351570E+04  4.266940E+04 -3.714265E+04  2.575432E+02 -2.810706E+03
        70   1 -5.051394E+04 -5.361892E+03 -5.723800E+03 -3.690281E+04  1.408864E+03  1.410276E+03
        70   2  1.575273E+04  1.098231E+04  9.788719E+03 -1.256667E+01  1.825035E+03 -9.574740E+02
        70   3  8.151683E+04  2.694043E+04  2.485865E+04 -3.694656E+04  2.241840E+03 -3.173909E+03
        70   4 -2.820144E+04  1.544261E+02 -4.546003E+02 -3.687473E+04  5.881764E+02  1.411955E+03
        70   5 -2.794324E+04  9.991708E+01 -9.266908E+02  3.705184E+01  1.055106E+03 -9.559536E+02
        70   6 -2.820146E+04 -3.494671E+02 -1.876651E+03 -3.687572E+04  1.522628E+03 -3.172528E+03
        70   7 -5.888480E+03  5.670709E+03  4.814567E+03 -3.684665E+04 -2.325401E+02  1.413633E+03
        70   8 -7.163746E+04 -1.078262E+04 -1.164224E+04  8.666771E+01  2.852324E+02 -9.544333E+02
        70   9 -1.379088E+05 -2.764025E+04 -2.861283E+04 -3.680489E+04  8.035416E+02 -3.171147E+03
        70  10 -5.051394E+04 -5.361895E+03 -5.723807E+03 -3.690281E+04 -2.417628E-09  2.286496E-09
        70  11  1.575272E+04  1.098231E+04  9.788711E+03 -1.256526E+01 -7.048532E-09 -1.424574E-09
        70  12  8.151682E+04  2.694042E+04  2.485862E+04 -3.694655E+04 -2.391556E-09  2.247711E-10
        70  13 -2.820144E+04  1.544239E+02 -4.546047E+02 -3.687473E+04 -5.406294E-10 -9.020462E-10
        70  14 -2.794324E+04  9.991580E+01 -9.266946E+02  3.705265E+01 -3.250414E-09 -3.857659E-09
        70  15 -2.820146E+04 -3.494785E+02 -1.876675E+03 -3.687572E+04  3.512637E-09  1.030456E-09
        70  16 -5.888480E+03  5.670707E+03  4.814563E+03 -3.684665E+04  4.058991E-09  3.040563E-09
        70  17 -7.163746E+04 -1.078262E+04 -1.164224E+04  8.666792E+01  8.491126E-10 -4.100382E-09
        70  18 -1.379088E+05 -2.764026E+04 -2.861285E+04 -3.680489E+04  1.123223E-09 -7.122975E-10
        70  19 -5.051394E+04 -5.361892E+03 -5.723800E+03 -3.690281E+04 -1.408864E+03 -1.410276E+03
        70  20  1.575273E+04  1.098231E+04  9.788719E+03 -1.256667E+01 -1.825035E+03  9.574740E+02
        70  21  8.151683E+04  2.694043E+04  2.485865E+04 -3.694656E+04 -2.241840E+03  3.173909E+03
        70  22 -2.820144E+04  1.544261E+02 -4.546003E+02 -3.687473E+04 -5.881764E+02 -1.411955E+03
        70  23 -2.794324E+04  9.991708E+01 -9.266908E+02  3.705184E+01 -1.055106E+03  9.559536E+02
        70  24 -2.820146E+04 -3.494671E+02 -1.876651E+03 -3.687572E+04 -1.522628E+03  3.172528E+03
        70  25 -5.888480E+03  5.670709E+03  4.814567E+03 -3.684665E+04  2.325401E+02 -1.413633E+03
        70  26 -7.163746E+04 -1.078262E+04 -1.164224E+04  8.666771E+01 -2.852324E+02  9.544333E+02
        70  27 -1.379088E+05 -2.764025E+04 -2.861283E+04 -3.680489E+04 -8.035416E+02  3.171147E+03
        71   1  2.331749E+05  6.548480E+04  6.197928E+04 -3.762209E+04  2.942597E+03 -4.754057E+03
        71   2  2.998614E+05  8.224850E+04  7.631998E+04 -1.703499E+02  4.545493E+03 -7.181092E+03
        71   3  3.651900E+05  9.444367E+04  8.847047E+04 -3.648025E+04  6.152475E+03 -8.239331E+03
        71   4 -2.842498E+04  2.981727E+02 -2.374258E+03 -3.685982E+04  1.897162E+03 -4.752224E+03
        71   5 -2.770366E+04  6.847919E+02 -3.988442E+03  1.966162E+01  3.959148E+03 -7.180428E+03
        71   6 -2.842508E+04 -3.578007E+03 -8.112367E+03 -3.686498E+04  6.025050E+03 -8.239510E+03
        71   7 -2.899626E+05 -6.489354E+04 -6.673284E+04 -3.609784E+04  8.521670E+02 -4.750394E+03
        71   8 -3.551711E+05 -8.088687E+04 -8.430473E+04  2.096105E+02  3.373111E+03 -7.179765E+03
        71   9 -4.218992E+05 -1.016112E+05 -1.047066E+05 -3.724943E+04  5.897705E+03 -8.239688E+03
        71  10  2.331749E+05  6.548477E+04  6.197923E+04 -3.762208E+04  7.671484E-10 -1.546273E-09
        71  11  2.998614E+05  8.224844E+04  7.631984E+04 -1.703236E+02 -1.466484E-09  2.747387E-10
        71  12  3.651900E+05  9.444359E+04  8.847027E+04 -3.648021E+04  1.189717E-09 -8.439805E-10
        71  13 -2.842499E+04  2.981475E+02 -2.374307E+03 -3.685982E+04 -4.814060E-10  1.072410E-09
        71  14 -2.770369E+04  6.847323E+02 -3.988569E+03  1.968451E+01 -1.081110E-09 -2.471660E-10
        71  15 -2.842514E+04 -3.578090E+03 -8.112563E+03 -3.686494E+04  3.460334E-09 -1.867567E-10
        71  16 -2.899626E+05 -6.489356E+04 -6.673288E+04 -3.609784E+04  8.959348E-10  1.484410E-09
        71  17 -3.551711E+05 -8.088693E+04 -8.430485E+04  2.096300E+02  7.562415E-10  1.032720E-09
        71  18 -4.218992E+05 -1.016113E+05 -1.047068E+05 -3.724939E+04 -1.330666E-09 -6.212662E-10
        71  19  2.331749E+05  6.548480E+04  6.197928E+04 -3.762209E+04 -2.942597E+03  4.754057E+03
        71  20  2.998614E+05  8.224850E+04  7.631998E+04 -1.703499E+02 -4.545493E+03  7.181092E+03
        71  21  3.651900E+05  9.444367E+04  8.847047E+04 -3.648025E+04 -6.152475E+03  8.239331E+03
        71  22 -2.842498E+04  2.981727E+02 -2.374258E+03 -3.685982E+04 -1.897162E+03  4.752224E+03
        71  23 -2.770366E+04  6.847919E+02 -3.988442E+03  1.966162E+01 -3.959148E+03  7.180428E+03
        71  24 -2.842508E+04 -3.578007E+03 -8.112367E+03 -3.686498E+04 -6.025050E+03  8.239510E+03
        71  25 -2.899626E+05 -6.489354E+04 -6.673284E+04 -3.609784E+04 -8.521670E+02  4.750394E+03
        71  26 -3.551711E+05 -8.088687E+04 -8.430473E+04  2.096105E+02 -3.373111E+03  7.179765E+03
        71  27 -4.218992E+05 -1.016112E+05 -1.047066E+05 -3.724943E+04 -5.897705E+03  8.239688E+03
        72   1  5.151382E+05  1.370888E+05  1.239820E+05 -4.007129E+04  1.066430E+04 -1.146766E+04
        72   2  5.855363E+05  1.573323E+05  1.341103E+05  1.393445E+03  1.490439E+04 -1.441735E+04
        72   3  6.472047E+05  1.413933E+05  1.326096E+05 -3.059282E+04  1.914805E+04 -5.039648E+03
        72   4 -3.025162E+04  1.275082E+03 -9.821182E+03 -3.679109E+04  7.596562E+03 -1.146507E+04
        72   5 -2.552090E+04  5.252564E+03 -1.545030E+04 -6.369802E+01  1.597487E+04 -1.441879E+04
        72   6 -3.025192E+04 -2.768976E+04 -3.559070E+04 -3.679217E+04  2.435619E+04 -5.039863E+03
        72   7 -5.753707E+05 -1.345607E+05 -1.436462E+05 -3.351371E+04  4.531514E+03 -1.146251E+04
        72   8 -6.362381E+05 -1.468547E+05 -1.650382E+05 -1.519366E+03  1.704431E+04 -1.442024E+04
        72   9 -7.072921E+05 -1.968071E+05 -2.038252E+05 -4.298476E+04  2.955865E+04 -5.040182E+03
        72  10  5.151381E+05  1.370886E+05  1.239815E+05 -4.007119E+04  1.260469E-09 -5.838623E-10
        72  11  5.855360E+05  1.573320E+05  1.341094E+05  1.393618E+03  3.397239E-09  1.094710E-09
        72  12  6.472043E+05  1.413932E+05  1.326088E+05 -3.059274E+04  2.412137E-09  5.770634E-10
        72  13 -3.025172E+04  1.274925E+03 -9.821537E+03 -3.679102E+04  1.916913E-09  1.559742E-09
        72  14 -2.552123E+04  5.252272E+03 -1.545117E+04 -6.351250E+01  3.230481E-09  6.463764E-10
        72  15 -3.025257E+04 -2.768994E+04 -3.559186E+04 -3.679207E+04  3.333010E-09  3.372157E-10
        72  16 -5.753708E+05 -1.345608E+05 -1.436464E+05 -3.351367E+04 -1.616888E-09 -8.352956E-11
        72  17 -6.362384E+05 -1.468551E+05 -1.650391E+05 -1.519168E+03 -1.888660E-09  5.840042E-10
        72  18 -7.072930E+05 -1.968074E+05 -2.038268E+05 -4.298464E+04  1.036212E-11  2.248330E-10
        72  19  5.151382E+05  1.370888E+05  1.239820E+05 -4.007129E+04 -1.066430E+04  1.146766E+04
        72  20  5.855363E+05  1.573323E+05  1.341103E+05  1.393445E+03 -1.490439E+04  1.441735E+04
        72  21  6.472047E+05  1.413933E+05  1.326096E+05 -3.059282E+04 -1.914805E+04  5.039648E+03
        72  22 -3.025162E+04  1.275082E+03 -9.821182E+03 -3.679109E+04 -7.596562E+03  1.146507E+04
        72  23 -2.552090E+04  5.252564E+03 -1.545030E+04 -6.369802E+01 -1.597487E+04  1.441879E+04
        72  24 -3.025192E+04 -2.768976E+04 -3.559070E+04 -3.679217E+04 -2.435619E+04  5.039863E+03
        72  25 -5.753707E+05 -1.345607E+05 -1.436462E+05 -3.351371E+04 -4.531514E+03  1.146251E+04
        72  26 -6.362381E+05 -1.468547E+05 -1.650382E+05 -1.519366E+03 -1.704431E+04  1.442024E+04
        72  27 -7.072921E+05 -1.968071E+05 -2.038252E+05 -4.298476E+04 -2.955865E+04  5.040182E+03
        73   1  1.422078E+06  4.821698E+06  1.363778E+06 -1.250396E+06  5.968703E+04  3.129517E+05
        73   2  1.012625E+06  3.458165E+06  8.867153E+05 -1.051810E+06  1.848620E+05  8.692926E+04
        73   3  6.848418E+05  2.141340E+06  5.759691E+05 -1.198022E+06  1.671245E+05 -1.397014E+05
        73   4  7.239222E+04 -6.335140E+05  6.197956E+04 -1.178659E+06  6.245348E+04  3.133628E+04
        73   5  2.486458E+04 -6.364952E+05  3.887953E+04 -1.006476E+06  1.857284E+05  1.267222E+04
        73   6  2.352112E+04 -6.300417E+05  3.892862E+04 -1.179170E+06  1.656779E+05 -7.102165E+03
        73   7 -1.279389E+06 -6.061385E+06 -1.241616E+06 -1.107463E+06  6.516937E+04 -2.478307E+05
        73   8 -9.639512E+05 -4.715302E+06 -8.098480E+05 -9.613932E+05  1.865873E+05 -6.110558E+04
        73   9 -6.382480E+05 -3.394020E+06 -4.984069E+05 -1.160378E+06  1.642354E+05  1.249200E+05
        73  10  1.422048E+06  4.821592E+06  1.363588E+06 -1.250411E+06 -7.750294E-10  4.693682E-09
        73  11  1.012586E+06  3.458148E+06  8.866368E+05 -1.051823E+06  1.571715E-09 -3.759315E-09
        73  12  6.848066E+05  2.141312E+06  5.758802E+05 -1.198003E+06  2.748203E-09 -1.126094E-08
        73  13  7.238776E+04 -6.335161E+05  6.197037E+04 -1.178660E+06  1.812708E-09  4.123236E-09
        73  14  2.482750E+04 -6.365047E+05  3.881441E+04 -1.006478E+06 -1.151155E-09 -8.894096E-09
        73  15  2.349164E+04 -6.300491E+05  3.887697E+04 -1.179169E+06 -3.351658E-10  3.468041E-09
        73  16 -1.279411E+06 -6.061452E+06 -1.241740E+06 -1.107450E+06  1.457822E-09 -4.455164E-09
        73  17 -9.639896E+05 -4.715315E+06 -8.099203E+05 -9.613840E+05  1.108448E-08  5.700097E-09
        73  18 -6.382812E+05 -3.394044E+06 -4.984873E+05 -1.160395E+06 -4.965881E-09  6.776276E-09
        73  19  1.422078E+06  4.821698E+06  1.363778E+06 -1.250396E+06 -5.968703E+04 -3.129517E+05
        73  20  1.012625E+06  3.458165E+06  8.867153E+05 -1.051810E+06 -1.848620E+05 -8.692926E+04
        73  21  6.848418E+05  2.141340E+06  5.759691E+05 -1.198022E+06 -1.671245E+05  1.397014E+05
        73  22  7.239222E+04 -6.335140E+05  6.197956E+04 -1.178659E+06 -6.245348E+04 -3.133628E+04
        73  23  2.486458E+04 -6.364952E+05  3.887953E+04 -1.006476E+06 -1.857284E+05 -1.267222E+04
        73  24  2.352112E+04 -6.300417E+05  3.892862E+04 -1.179170E+06 -1.656779E+05  7.102165E+03
        73  25 -1.279389E+06 -6.061385E+06 -1.241616E+06 -1.107463E+06 -6.516937E+04  2.478307E+05
        73  26 -9.639512E+05 -4.715302E+06 -8.098480E+05 -9.613932E+05 -1.865873E+05  6.110558E+04
        73  27 -6.382480E+05 -3.394020E+06 -4.984069E+05 -1.160378E+06 -1.642354E+05 -1.249200E+05
        74   1  4.696807E+05  1.226605E+06  4.035906E+05 -1.200454E+06  1.123557E+05 -1.231716E+05
        74   2  1.464960E+05 -1.125028E+05  1.595573E+05 -1.007631E+06  3.661015E+04 -1.575201E+05
        74   3 -1.544352E+05 -1.448127E+06 -5.880407E+04 -1.168070E+06 -4.090965E+04 -1.918529E+05
        74   4  2.595094E+04 -6.310185E+05  4.329095E+04 -1.180970E+06  1.111169E+05 -1.469905E+04
        74   5  2.320467E+04 -6.314252E+05  6.234051E+04 -1.004252E+06  3.532203E+04 -4.657949E+04
        74   6  4.236412E+04 -6.305514E+05  1.053316E+05 -1.180785E+06 -4.225108E+04 -7.851370E+04
        74   7 -4.179780E+05 -2.485304E+06 -3.171270E+05 -1.161533E+06  1.098826E+05  9.345672E+04
        74   8 -1.000956E+05 -1.150061E+06 -3.484169E+04 -1.000875E+06  3.403446E+04  6.427066E+04
        74   9  2.391295E+05  1.876914E+05  2.694818E+05 -1.193514E+06 -4.359611E+04  3.497219E+04
        74  10  4.696631E+05  1.226585E+06  4.035385E+05 -1.200443E+06  9.810335E-10  4.263306E-09
        74  11  1.464879E+05 -1.125297E+05  1.595082E+05 -1.007627E+06  7.642321E-09 -6.363724E-09
        74  12 -1.544470E+05 -1.448167E+06 -5.887661E+04 -1.168077E+06  1.887493E-09 -1.311327E-08
        74  13  2.593764E+04 -6.310220E+05  4.326737E+04 -1.180969E+06 -1.276914E-09  5.344320E-09
        74  14  2.320276E+04 -6.314279E+05  6.233410E+04 -1.004251E+06 -8.505810E-09 -1.013155E-08
        74  15  4.236054E+04 -6.305585E+05  1.053167E+05 -1.180787E+06 -1.483112E-09  3.773542E-09
        74  16 -4.179934E+05 -2.485317E+06 -3.171662E+05 -1.161542E+06 -3.704427E-09 -4.410165E-09
        74  17 -1.000980E+05 -1.150065E+06 -3.485166E+04 -1.000877E+06 -3.544762E-09  5.805299E-09
        74  18  2.391271E+05  1.876896E+05  2.694759E+05 -1.193513E+06  6.479537E-11  7.799018E-09
        74  19  4.696807E+05  1.226605E+06  4.035906E+05 -1.200454E+06 -1.123557E+05  1.231716E+05
        74  20  1.464960E+05 -1.125028E+05  1.595573E+05 -1.007631E+06 -3.661015E+04  1.575201E+05
        74  21 -1.544352E+05 -1.448127E+06 -5.880407E+04 -1.168070E+06  4.090965E+04  1.918529E+05
        74  22  2.595094E+04 -6.310185E+05  4.329095E+04 -1.180970E+06 -1.111169E+05  1.469905E+04
        74  23  2.320467E+04 -6.314252E+05  6.234051E+04 -1.004252E+06 -3.532203E+04  4.657949E+04
        74  24  4.236412E+04 -6.305514E+05  1.053316E+05 -1.180785E+06  4.225108E+04  7.851370E+04
        74  25 -4.179780E+05 -2.485304E+06 -3.171270E+05 -1.161533E+06 -1.098826E+05 -9.345672E+04
        74  26 -1.000956E+05 -1.150061E+06 -3.484169E+04 -1.000875E+06 -3.403446E+04 -6.427066E+04
        74  27  2.391295E+05  1.876914E+05  2.694818E+05 -1.193514E+06  4.359611E+04 -3.497219E+04
        75   1 -3.886585E+05 -2.340091E+06 -2.057221E+05 -1.204867E+06 -9.532930E+04 -2.295511E+05
        75   2 -6.530492E+05 -3.701372E+06 -4.027372E+05 -8.715833E+05 -1.293613E+05 -1.835188E+05
        75   3 -6.395791E+05 -5.003302E+06 -5.618442E+05 -8.838274E+05 -4.540616E+04 -1.365549E+05
        75   4  2.477607E+04 -6.120833E+05  1.348581E+05 -1.179753E+06 -9.687389E+04 -9.726622E+04
        75   5  8.866511E+04 -6.565552E+05  2.378089E+05 -1.004941E+06 -1.288717E+05 -2.208423E+05
        75   6  4.591176E+05 -6.145072E+05  4.962920E+05 -1.175235E+06 -4.316980E+04 -3.434090E+05
        75   7  4.380428E+05  1.118833E+06  4.753594E+05 -1.154558E+06 -9.840516E+04  3.538046E+04
        75   8  8.298383E+05  2.397091E+06  8.778467E+05 -1.138937E+06 -1.283674E+05 -2.583448E+05
        75   9  1.556715E+06  3.792261E+06  1.553248E+06 -1.468664E+06 -4.074757E+04 -5.517225E+05
        75  10 -3.886825E+05 -2.340150E+06 -2.058388E+05 -1.204884E+06  4.073614E-09  2.384672E-09
        75  11 -6.530763E+05 -3.701413E+06 -4.028325E+05 -8.716025E+05  5.770818E-09 -2.310320E-09
        75  12 -6.395864E+05 -5.003323E+06 -5.618834E+05 -8.838324E+05  3.949825E-10 -6.793052E-09
        75  13  2.476343E+04 -6.120960E+05  1.348225E+05 -1.179761E+06  2.274908E-09  5.373181E-09
        75  14  8.863411E+04 -6.566121E+05  2.376858E+05 -1.004964E+06 -1.038328E-08 -1.029946E-08
        75  15  4.590838E+05 -6.146344E+05  4.960665E+05 -1.175247E+06  2.926738E-09  2.625437E-09
        75  16  4.380320E+05  1.118829E+06  4.753389E+05 -1.154555E+06 -2.362892E-09 -1.945399E-09
        75  17  8.298027E+05  2.397015E+06  8.776905E+05 -1.138964E+06  4.738879E-09  1.772134E-09
        75  18  1.556632E+06  3.791935E+06  1.552676E+06 -1.468682E+06  3.426229E-09  2.327329E-09
        75  19 -3.886585E+05 -2.340091E+06 -2.057221E+05 -1.204867E+06  9.532930E+04  2.295511E+05
        75  20 -6.530492E+05 -3.701372E+06 -4.027372E+05 -8.715833E+05  1.293613E+05  1.835188E+05
        75  21 -6.395791E+05 -5.003302E+06 -5.618442E+05 -8.838274E+05  4.540616E+04  1.365549E+05
        75  22  2.477607E+04 -6.120833E+05  1.348581E+05 -1.179753E+06  9.687389E+04  9.726622E+04
        75  23  8.866511E+04 -6.565552E+05  2.378089E+05 -1.004941E+06  1.288717E+05  2.208423E+05
        75  24  4.591176E+05 -6.145072E+05  4.962920E+05 -1.175235E+06  4.316980E+04  3.434090E+05
        75  25  4.380428E+05  1.118833E+06  4.753594E+05 -1.154558E+06  9.840516E+04 -3.538046E+04
        75  26  8.298383E+05  2.397091E+06  8.778467E+05 -1.138937E+06  1.283674E+05  2.583448E+05
        75  27  1.556715E+06  3.792261E+06  1.553248E+06 -1.468664E+06  4.074757E+04  5.517225E+05
        76   1 -4.967457E+06 -1.967084E+06 -1.155249E+06 -1.672650E+06 -2.681912E+05 -1.543847E+04
        76   2 -4.642244E+06 -1.885834E+06 -9.558363E+05 -1.547815E+06 -1.837250E+05  2.161279E+05
        76   3 -4.250303E+06 -1.823850E+06 -8.553447E+05 -1.514405E+06 -4.697201E+04  3.117288E+05
        76   4 -2.947006E+03 -1.412635E+05  1.332929E+05 -3.589421E+05  5.613932E+04  1.085841E+05
        76   5 -6.148882E+04 -2.019339E+05  5.979186E+04 -2.931168E+05 -4.135816E+04  2.702135E+05
        76   6 -1.718939E+04 -2.458138E+05  3.251509E+04 -3.186864E+05 -8.686745E+04  2.963669E+05
        76   7  4.985702E+06  1.685852E+06  1.420205E+06  9.641906E+05  3.833339E+05  2.336200E+05
        76   8  4.540582E+06  1.483547E+06  1.074199E+06  9.700779E+05  1.021530E+05  3.247218E+05
        76   9  4.234419E+06  1.333881E+06  9.194221E+05  8.846464E+05 -1.270601E+05  2.808913E+05
        76  10 -4.967535E+06 -1.967104E+06 -1.155386E+06 -1.672653E+06 -7.070701E-09  4.794116E-10
        76  11 -4.642293E+06 -1.885893E+06 -9.559875E+05 -1.547783E+06 -1.411637E-09  2.189245E-09
        76  12 -4.250332E+06 -1.823955E+06 -8.555316E+05 -1.514393E+06  3.155998E-09  1.024684E-09
        76  13 -2.953561E+03 -1.412770E+05  1.332648E+05 -3.589470E+05 -4.287640E-10  3.987251E-10
        76  14 -6.151026E+04 -2.020128E+05  5.965142E+04 -2.931078E+05 -2.901951E-09 -1.146051E-08
        76  15 -1.722106E+04 -2.459102E+05  3.233585E+04 -3.186656E+05  1.373867E-10 -2.161044E-09
        76  16  4.985531E+06  1.685754E+06  1.419829E+06  9.641188E+05  2.860438E-10 -1.498256E-09
        76  17  4.540542E+06  1.483431E+06  1.073982E+06  9.700513E+05  3.367936E-09  2.585147E-09
        76  18  4.234381E+06  1.333792E+06  9.192435E+05  8.846751E+05 -7.752265E-09 -5.828727E-09
        76  19 -4.967457E+06 -1.967084E+06 -1.155249E+06 -1.672650E+06  2.681912E+05  1.543847E+04
        76  20 -4.642244E+06 -1.885834E+06 -9.558363E+05 -1.547815E+06  1.837250E+05 -2.161279E+05
        76  21 -4.250303E+06 -1.823850E+06 -8.553447E+05 -1.514405E+06  4.697201E+04 -3.117288E+05
        76  22 -2.947006E+03 -1.412635E+05  1.332929E+05 -3.589421E+05 -5.613932E+04 -1.085841E+05
        76  23 -6.148882E+04 -2.019339E+05  5.979186E+04 -2.931168E+05  4.135816E+04 -2.702135E+05
        76  24 -1.718939E+04 -2.458138E+05  3.251509E+04 -3.186864E+05  8.686745E+04 -2.963669E+05
        76  25  4.985702E+06  1.685852E+06  1.420205E+06  9.641906E+05 -3.833339E+05 -2.336200E+05
        76  26  4.540582E+06  1.483547E+06  1.074199E+06  9.700779E+05 -1.021530E+05 -3.247218E+05
        76  27  4.234419E+06  1.333881E+06  9.194221E+05  8.846464E+05  1.270601E+05 -2.808913E+05
        77   1 -4.024919E+06 -1.721436E+06 -8.133138E+05 -1.441440E+06 -7.303235E+04  2.828565E+05
        77   2 -3.723544E+06 -1.561190E+06 -7.439619E+05 -1.306291E+06 -6.293186E+04  2.719613E+05
        77   3 -3.349559E+06 -1.468892E+06 -6.772728E+05 -1.250175E+06 -4.965086E+04  2.524525E+05
        77   4 -1.980824E+04 -2.421591E+05  2.484994E+04 -3.241290E+05 -8.437192E+04  2.783705E+05
        77   5 -5.690029E+04 -2.102566E+05  1.280022E+04 -2.840739E+05 -8.583087E+04  2.631383E+05
        77   6 -1.922782E+04 -2.439916E+05  7.261177E+03 -3.230640E+05 -8.412262E+04  2.393192E+05
        77   7  4.001795E+06  1.238505E+06  8.621465E+05  7.998683E+05 -9.579196E+04  2.738550E+05
        77   8  3.623585E+06  1.141842E+06  7.688582E+05  7.437432E+05 -1.088771E+05  2.542604E+05
        77   9  3.322510E+06  9.818639E+05  6.912196E+05  6.086561E+05 -1.187946E+05  2.261107E+05
        77  10 -4.024946E+06 -1.721524E+06 -8.134742E+05 -1.441423E+06  2.512132E-09  4.127105E-10
        77  11 -3.723569E+06 -1.561270E+06 -7.441083E+05 -1.306277E+06  1.805522E-09  1.555572E-10
        77  12 -3.349578E+06 -1.468961E+06 -6.773973E+05 -1.250165E+06 -4.307889E-10  1.426711E-09
        77  13 -1.983667E+04 -2.422442E+05  2.469095E+04 -3.241101E+05 -1.606260E-09 -1.750263E-09
        77  14 -5.692678E+04 -2.103329E+05  1.265627E+04 -2.840557E+05 -3.990820E-09 -3.969498E-09
        77  15 -1.925079E+04 -2.440550E+05  7.140261E+03 -3.230478E+05  5.761623E-10  8.242328E-10
        77  16  4.001765E+06  1.238422E+06  8.619883E+05  7.998894E+05  5.432896E-11 -3.363191E-09
        77  17  3.623555E+06  1.141770E+06  7.687145E+05  7.437654E+05  4.481612E-09 -9.445447E-10
        77  18  3.322481E+06  9.818052E+05  6.910970E+05  6.086777E+05  3.556275E-09 -2.260500E-10
        77  19 -4.024919E+06 -1.721436E+06 -8.133138E+05 -1.441440E+06  7.303235E+04 -2.828565E+05
        77  20 -3.723544E+06 -1.561190E+06 -7.439619E+05 -1.306291E+06  6.293186E+04 -2.719613E+05
        77  21 -3.349559E+06 -1.468892E+06 -6.772728E+05 -1.250175E+06  4.965086E+04 -2.524525E+05
        77  22 -1.980824E+04 -2.421591E+05  2.484994E+04 -3.241290E+05  8.437192E+04 -2.783705E+05
        77  23 -5.690029E+04 -2.102566E+05  1.280022E+04 -2.840739E+05  8.583087E+04 -2.631383E+05
        77  24 -1.922782E+04 -2.439916E+05  7.261177E+03 -3.230640E+05  8.412262E+04 -2.393192E+05
        77  25  4.001795E+06  1.238505E+06  8.621465E+05  7.998683E+05  9.579196E+04 -2.738550E+05
        77  26  3.623585E+06  1.141842E+06  7.688582E+05  7.437432E+05  1.088771E+05 -2.542604E+05
        77  27  3.322510E+06  9.818639E+05  6.912196E+05  6.086561E+05  1.187946E+05 -2.261107E+05
        78   1 -3.116352E+06 -1.380770E+06 -6.290482E+05 -1.184333E+06 -4.677236E+04  2.364744E+05
        78   2 -2.813427E+06 -1.219379E+06 -5.622334E+05 -1.049249E+06 -3.803280E+04  2.115718E+05
        78   3 -2.438596E+06 -1.127722E+06 -4.945010E+05 -9.937514E+05 -2.915403E+04  1.860898E+05
        78   4 -1.937206E+04 -2.435882E+05  5.387862E+03 -3.235378E+05 -7.948098E+04  2.240408E+05
        78   5 -5.488631E+04 -2.079488E+05  2.773697E+03 -2.839112E+05 -7.151722E+04  1.988961E+05
        78   6 -1.848986E+04 -2.418846E+05  1.671935E+03 -3.238965E+05 -6.341449E+04  1.731738E+05
        78   7  3.087522E+06  8.944337E+05  6.393438E+05  5.412479E+05 -1.123666E+05  2.115410E+05
        78   8  2.711508E+06  8.041402E+05  5.673988E+05  4.845823E+05 -1.051627E+05  1.861601E+05
        78   9  2.407647E+06  6.444517E+05  4.975490E+05  3.483767E+05 -9.781927E+04  1.602037E+05
        78  10 -3.116369E+06 -1.380830E+06 -6.291574E+05 -1.184324E+06  8.385239E-09  4.174510E-09
        78  11 -2.813441E+06 -1.219428E+06 -5.623203E+05 -1.049243E+06 -3.901261E-09  3.780734E-10
        78  12 -2.438606E+06 -1.127760E+06 -4.945677E+05 -9.937470E+05 -1.288485E-08 -6.896019E-09
        78  13 -1.939230E+04 -2.436438E+05  5.281676E+03 -3.235234E+05  1.009866E-09 -5.789081E-11
        78  14 -5.490241E+04 -2.079926E+05  2.689754E+03 -2.838998E+05 -3.451047E-09  4.114328E-09
        78  15 -1.850222E+04 -2.419179E+05  1.608030E+03 -3.238876E+05 -6.703442E-09  6.295327E-09
        78  16  3.087497E+06  8.943822E+05  6.392360E+05  5.412670E+05 -4.141775E-09 -4.513628E-09
        78  17  2.711487E+06  8.041000E+05  5.673129E+05  4.845980E+05 -5.220722E-10  6.952477E-10
        78  18  2.407630E+06  6.444216E+05  4.974828E+05  3.483894E+05  1.072338E-08  2.642399E-09
        78  19 -3.116352E+06 -1.380770E+06 -6.290482E+05 -1.184333E+06  4.677236E+04 -2.364744E+05
        78  20 -2.813427E+06 -1.219379E+06 -5.622334E+05 -1.049249E+06  3.803280E+04 -2.115718E+05
        78  21 -2.438596E+06 -1.127722E+06 -4.945010E+05 -9.937514E+05  2.915403E+04 -1.860898E+05
        78  22 -1.937206E+04 -2.435882E+05  5.387862E+03 -3.235378E+05  7.948098E+04 -2.240408E+05
        78  23 -5.488631E+04 -2.079488E+05  2.773697E+03 -2.839112E+05  7.151722E+04 -1.988961E+05
        78  24 -1.848986E+04 -2.418846E+05  1.671935E+03 -3.238965E+05  6.341449E+04 -1.731738E+05
        78  25  3.087522E+06  8.944337E+05  6.393438E+05  5.412479E+05  1.123666E+05 -2.115410E+05
        78  26  2.711508E+06  8.041402E+05  5.673988E+05  4.845823E+05  1.051627E+05 -1.861601E+05
        78  27  2.407647E+06  6.444517E+05  4.975490E+05  3.483767E+05  9.781927E+04 -1.602037E+05
        79   1 -2.203982E+06 -1.040749E+06 -4.447969E+05 -9.286270E+05 -2.389642E+04  1.711141E+05
        79   2 -1.899022E+06 -8.803364E+05 -3.766771E+05 -7.939654E+05 -1.453895E+04  1.455742E+05
        79   3 -1.523156E+06 -7.897944E+05 -3.081953E+05 -7.394608E+05 -5.212453E+03  1.199743E+05
        79   4 -1.846493E+04 -2.416591E+05  1.204124E+03 -3.240310E+05 -5.807353E+04  1.582549E+05
        79   5 -5.356436E+04 -2.061219E+05  5.777431E+02 -2.840724E+05 -4.879535E+04  1.327195E+05
        79   6 -1.787661E+04 -2.404411E+05  3.646004E+02 -3.243047E+05 -3.954808E+04  1.071243E+05
        79   7  2.171957E+06  5.578316E+05  4.469628E+05  2.825314E+05 -9.238025E+04  1.453474E+05
        79   8  1.795400E+06  4.683809E+05  3.776637E+05  2.272232E+05 -8.316156E+04  1.198237E+05
        79   9  1.489746E+06  3.091069E+05  3.088162E+05  9.178521E+04 -7.397368E+04  9.424070E+04
        79  10 -2.203991E+06 -1.040781E+06 -4.448530E+05 -9.286238E+05  7.964183E-09  2.065787E-09
        79  11 -1.899028E+06 -8.803592E+05 -3.767173E+05 -7.939637E+05  8.235978E-09  2.051846E-09
        79  12 -1.523160E+06 -7.898099E+05 -3.082224E+05 -7.394603E+05 -5.660984E-10 -3.209191E-09
        79  13 -1.847527E+04 -2.416869E+05  1.150728E+03 -3.240236E+05 -3.688085E-09  7.394286E-09
        79  14 -5.357164E+04 -2.061414E+05  5.401721E+02 -2.840671E+05  8.046564E-09  8.025876E-09
        79  15 -1.788137E+04 -2.404539E+05  3.400992E+02 -3.243013E+05  9.704696E-09  4.432261E-09
        79  16  2.171942E+06  5.578066E+05  4.469071E+05  2.825422E+05 -5.160588E-09 -4.889674E-09
        79  17  1.795389E+06  4.683636E+05  3.776238E+05  2.272312E+05  8.956816E-09  1.809828E-09
        79  18  1.489738E+06  3.090958E+05  3.087893E+05  9.179082E+04  7.653265E-09  6.372497E-09
        79  19 -2.203982E+06 -1.040749E+06 -4.447969E+05 -9.286270E+05  2.389642E+04 -1.711141E+05
        79  20 -1.899022E+06 -8.803364E+05 -3.766771E+05 -7.939654E+05  1.453895E+04 -1.455742E+05
        79  21 -1.523156E+06 -7.897944E+05 -3.081953E+05 -7.394608E+05  5.212453E+03 -1.199743E+05
        79  22 -1.846493E+04 -2.416591E+05  1.204124E+03 -3.240310E+05  5.807353E+04 -1.582549E+05
        79  23 -5.356436E+04 -2.061219E+05  5.777431E+02 -2.840724E+05  4.879535E+04 -1.327195E+05
        79  24 -1.787661E+04 -2.404411E+05  3.646004E+02 -3.243047E+05  3.954808E+04 -1.071243E+05
        79  25  2.171957E+06  5.578316E+05  4.469628E+05  2.825314E+05  9.238025E+04 -1.453474E+05
        79  26  1.795400E+06  4.683809E+05  3.776637E+05  2.272232E+05  8.316156E+04 -1.198237E+05
        79  27  1.489746E+06  3.091069E+05  3.088162E+05  9.178521E+04  7.397368E+04 -9.424070E+04
        80   1 -1.287665E+06 -7.032389E+05 -2.581297E+05 -6.746117E+05  3.056613E+02  1.050963E+05
        80   2 -9.814099E+05 -5.435360E+05 -1.896036E+05 -5.401467E+05  9.848427E+03  7.957174E+04
        80   3 -6.048570E+05 -4.537584E+05 -1.210257E+05 -4.861729E+05  1.936434E+04  5.404636E+04
        80   4 -1.784958E+04 -2.403062E+05  2.165545E+02 -3.243743E+05 -3.404680E+04  9.225540E+04
        80   5 -5.278458E+04 -2.050350E+05  4.630386E+00 -2.841772E+05 -2.450853E+04  6.674627E+04
        80   6 -1.754960E+04 -2.396931E+05 -1.583858E+02 -3.245101E+05 -1.499722E+04  4.123663E+04
        80   7  1.253627E+06  2.227627E+05  2.584864E+05  2.652569E+04 -6.847489E+04  7.938628E+04
        80   8  8.767257E+05  1.335374E+05  1.895729E+05 -2.785447E+04 -5.892065E+04  5.390021E+04
        80   9  5.701094E+05 -2.560026E+04  1.206948E+05 -1.627069E+05 -4.939348E+04  2.841396E+04
        80  10 -1.287668E+06 -7.032507E+05 -2.581505E+05 -6.746117E+05  1.545878E-09 -2.031360E-09
        80  11 -9.814117E+05 -5.435428E+05 -1.896157E+05 -5.401474E+05  2.351187E-09 -1.773722E-09
        80  12 -6.048582E+05 -4.537616E+05 -1.210319E+05 -4.861737E+05  3.665340E-09 -2.618576E-09
        80  13 -1.785311E+04 -2.403157E+05  1.983843E+02 -3.243718E+05  6.466875E-09  1.263892E-09
        80  14 -5.278642E+04 -2.050400E+05 -4.869231E+00 -2.841759E+05  4.593998E-09  8.808801E-10
        80  15 -1.755030E+04 -2.396950E+05 -1.620035E+02 -3.245096E+05  3.448857E-09 -8.770981E-10
        80  16  1.253620E+06  2.227547E+05  2.584658E+05  2.653006E+04 -7.394105E-10  5.006621E-09
        80  17  8.767212E+05  1.335334E+05  1.895609E+05 -2.785191E+04  3.640740E-09  2.587819E-09
        80  18  5.701065E+05 -2.560178E+04  1.206887E+05 -1.627058E+05 -2.503685E-10 -8.354313E-10
        80  19 -1.287665E+06 -7.032389E+05 -2.581297E+05 -6.746117E+05 -3.056613E+02 -1.050963E+05
        80  20 -9.814099E+05 -5.435360E+05 -1.896036E+05 -5.401467E+05 -9.848427E+03 -7.957174E+04
        80  21 -6.048570E+05 -4.537584E+05 -1.210257E+05 -4.861729E+05 -1.936434E+04 -5.404636E+04
        80  22 -1.784958E+04 -2.403062E+05  2.165545E+02 -3.243743E+05  3.404680E+04 -9.225540E+04
        80  23 -5.278458E+04 -2.050350E+05  4.630386E+00 -2.841772E+05  2.450853E+04 -6.674627E+04
        80  24 -1.754960E+04 -2.396931E+05 -1.583858E+02 -3.245101E+05  1.499722E+04 -4.123663E+04
        80  25  1.253627E+06  2.227627E+05  2.584864E+05  2.652569E+04  6.847489E+04 -7.938628E+04
        80  26  8.767257E+05  1.335374E+05  1.895729E+05 -2.785447E+04  5.892065E+04 -5.390021E+04
        80  27  5.701094E+05 -2.560026E+04  1.206948E+05 -1.627069E+05  4.939348E+04 -2.841396E+04
        81   1 -3.688200E+05 -3.674269E+05 -7.092906E+04 -4.213923E+05  2.500203E+04  3.921106E+04
        81   2 -6.199907E+04 -2.081355E+05 -2.462045E+03 -2.868864E+05  3.449482E+04  1.379273E+04
        81   3  3.149155E+05 -1.187547E+05  6.600003E+04 -2.329730E+05  4.389617E+04 -1.138223E+04
        81   4 -1.755604E+04 -2.396462E+05 -2.942449E+02 -3.245381E+05 -9.422012E+03  2.638327E+04
        81   5 -5.250523E+04 -2.046569E+05 -6.606160E+02 -2.842141E+05  3.890250E+02  1.083459E+03
        81   6 -1.755363E+04 -2.396563E+05 -1.288737E+03 -3.245327E+05  1.010852E+04 -2.397265E+04
        81   7  3.338405E+05 -1.118529E+05  7.034039E+04 -2.276317E+05 -4.386724E+04  1.354757E+04
        81   8 -4.300867E+04 -2.011773E+05  1.145801E+03 -2.815410E+05 -3.371746E+04 -1.162608E+04
        81   9 -3.499067E+05 -3.605478E+05 -6.857815E+04 -4.160466E+05 -2.365973E+04 -3.655582E+04
        81  10 -3.688210E+05 -3.674287E+05 -7.093313E+04 -4.213931E+05 -1.891883E-08 -1.345429E-08
        81  11 -6.200040E+04 -2.081360E+05 -2.464640E+03 -2.868868E+05 -2.393476E-09 -6.108565E-09
        81  12  3.149134E+05 -1.187554E+05  6.599617E+04 -2.329726E+05  1.475857E-08  5.332737E-09
        81  13 -1.755632E+04 -2.396469E+05 -2.957197E+02 -3.245379E+05 -3.588290E-09 -3.727761E-09
        81  14 -5.250523E+04 -2.046569E+05 -6.606185E+02 -2.842141E+05 -1.208558E-09 -2.612367E-09
        81  15 -1.755390E+04 -2.396570E+05 -1.290009E+03 -3.245325E+05 -4.683121E-09 -4.899583E-09
        81  16  3.338383E+05 -1.118536E+05  7.033643E+04 -2.276312E+05  1.548066E-08  6.231370E-09
        81  17 -4.300992E+04 -2.011777E+05  1.143410E+03 -2.815413E+05 -7.327222E-09 -5.172330E-09
        81  18 -3.499076E+05 -3.605494E+05 -6.858172E+04 -4.160473E+05 -2.125854E-08 -9.975428E-09
        81  19 -3.688200E+05 -3.674269E+05 -7.092906E+04 -4.213923E+05 -2.500203E+04 -3.921106E+04
        81  20 -6.199907E+04 -2.081355E+05 -2.462045E+03 -2.868864E+05 -3.449482E+04 -1.379273E+04
        81  21  3.149155E+05 -1.187547E+05  6.600003E+04 -2.329730E+05 -4.389617E+04  1.138223E+04
        81  22 -1.755604E+04 -2.396462E+05 -2.942449E+02 -3.245381E+05  9.422012E+03 -2.638327E+04
        81  23 -5.250523E+04 -2.046569E+05 -6.606160E+02 -2.842141E+05 -3.890250E+02 -1.083459E+03
        81  24 -1.755363E+04 -2.396563E+05 -1.288737E+03 -3.245327E+05 -1.010852E+04  2.397265E+04
        81  25  3.338405E+05 -1.118529E+05  7.034039E+04 -2.276317E+05  4.386724E+04 -1.354757E+04
        81  26 -4.300867E+04 -2.011773E+05  1.145801E+03 -2.815410E+05  3.371746E+04  1.162608E+04
        81  27 -3.499067E+05 -3.605478E+05 -6.857815E+04 -4.160466E+05  2.365973E+04  3.655582E+04
        82   1  5.512924E+05 -3.247077E+04  1.157669E+05 -1.681330E+05  5.051791E+04 -2.589588E+04
        82   2  8.576337E+05  1.268524E+05  1.846164E+05 -3.329613E+04  5.578324E+04 -5.093826E+04
        82   3  1.234572E+06  2.166277E+05  2.561935E+05  2.139117E+04  5.961733E+04 -7.209567E+04
        82   4 -1.767755E+04 -2.396220E+05 -1.732853E+03 -3.245193E+05  1.590555E+04 -3.879853E+04
        82   5 -5.261403E+04 -2.051055E+05 -3.265530E+03 -2.841696E+05  2.640092E+04 -6.190690E+04
        82   6 -1.810128E+04 -2.411885E+05 -6.206749E+03 -3.240243E+05  3.546591E+04 -8.112623E+04
        82   7 -5.863092E+05 -4.467443E+05 -1.192433E+05 -4.807719E+05 -1.867246E+04 -5.168840E+04
        82   8 -9.620121E+05 -5.369944E+05 -1.911872E+05 -5.347041E+05 -2.935120E+03 -7.285826E+04
        82   9 -1.269183E+06 -6.988801E+05 -2.686926E+05 -6.688015E+05  1.136669E+04 -9.013726E+04
        82  10  5.512895E+05 -3.247217E+04  1.157608E+05 -1.681319E+05 -3.973066E-09  2.289511E-10
        82  11  8.576296E+05  1.268488E+05  1.846057E+05 -3.329384E+04 -3.022449E-10  4.443090E-09
        82  12  1.234567E+06  2.166212E+05  2.561770E+05  2.139463E+04  9.577221E-09  7.439893E-10
        82  13 -1.767822E+04 -2.396237E+05 -1.736157E+03 -3.245189E+05  2.496324E-09 -2.008201E-09
        82  14 -5.261581E+04 -2.051098E+05 -3.274040E+03 -2.841683E+05  6.916887E-09  1.012308E-09
        82  15 -1.810440E+04 -2.411959E+05 -6.221478E+03 -3.240220E+05  8.712967E-09 -3.038933E-13
        82  16 -5.863103E+05 -4.467473E+05 -1.192489E+05 -4.807727E+05  1.989098E-09 -1.136521E-09
        82  17 -9.620135E+05 -5.370001E+05 -1.911972E+05 -5.347042E+05 -2.986700E-09 -2.223757E-09
        82  18 -1.269185E+06 -6.988889E+05 -2.687081E+05 -6.688007E+05 -3.838369E-09 -8.505397E-10
        82  19  5.512924E+05 -3.247077E+04  1.157669E+05 -1.681330E+05 -5.051791E+04  2.589588E+04
        82  20  8.576337E+05  1.268524E+05  1.846164E+05 -3.329613E+04 -5.578324E+04  5.093826E+04
        82  21  1.234572E+06  2.166277E+05  2.561935E+05  2.139117E+04 -5.961733E+04  7.209567E+04
        82  22 -1.767755E+04 -2.396220E+05 -1.732853E+03 -3.245193E+05 -1.590555E+04  3.879853E+04
        82  23 -5.261403E+04 -2.051055E+05 -3.265530E+03 -2.841696E+05 -2.640092E+04  6.190690E+04
        82  24 -1.810128E+04 -2.411885E+05 -6.206749E+03 -3.240243E+05 -3.546591E+04  8.112623E+04
        82  25 -5.863092E+05 -4.467443E+05 -1.192433E+05 -4.807719E+05  1.867246E+04  5.168840E+04
        82  26 -9.620121E+05 -5.369944E+05 -1.911872E+05 -5.347041E+05  2.935120E+03  7.285826E+04
        82  27 -1.269183E+06 -6.988801E+05 -2.686926E+05 -6.688015E+05 -1.136669E+04  9.013726E+04
        83   1  1.473760E+06  3.032651E+05  3.043776E+05  8.467759E+04  7.945269E+04 -8.253544E+04
        83   2  1.770682E+06  4.666881E+05  3.927109E+05  2.243533E+05  3.197970E+03 -1.073449E+05
        83   3  2.143923E+06  5.606414E+05  5.357846E+05  2.917445E+05 -9.616476E+04 -7.069340E+04
        83   4 -1.969577E+04 -2.396756E+05 -8.073170E+03 -3.241791E+05  4.224415E+04 -9.645441E+04
        83   5 -5.165290E+04 -2.099194E+05 -1.521389E+04 -2.831583E+05  4.911916E+04 -9.019846E+04
        83   6 -2.382980E+04 -2.661095E+05 -3.335910E+04 -3.144810E+05  3.289961E+04 -2.237093E+04
        83   7 -1.510882E+06 -7.824421E+05 -3.206410E+05 -7.321355E+05  5.131649E+03 -1.103379E+05
        83   8 -1.870620E+06 -8.862478E+05 -4.233337E+05 -7.892952E+05  9.489427E+04 -7.310792E+04
        83   9 -2.186939E+06 -1.092490E+06 -6.028144E+05 -9.187569E+05  1.614673E+05  2.575752E+04
        83  10  1.473751E+06  3.032561E+05  3.043529E+05  8.468286E+04  6.332532E-09 -2.770473E-09
        83  11  1.770679E+06  4.666757E+05  3.926893E+05  2.243536E+05  1.392098E-08  2.249859E-09
        83  12  2.143912E+06  5.606336E+05  5.357579E+05  2.917390E+05  6.882177E-09  2.833316E-09
        83  13 -1.970018E+04 -2.396860E+05 -8.094002E+03 -3.241758E+05  1.234370E-08  2.108272E-09
        83  14 -5.165768E+04 -2.099288E+05 -1.523371E+04 -2.831547E+05  1.846961E-08  3.747153E-09
        83  15 -2.383109E+04 -2.661103E+05 -3.336207E+04 -3.144804E+05  3.074053E-09  1.330741E-09
        83  16 -1.510885E+06 -7.824552E+05 -3.206640E+05 -7.321351E+05  7.459464E-09  4.425687E-09
        83  17 -1.870632E+06 -8.862559E+05 -4.233607E+05 -7.892896E+05  6.547839E-09  4.351117E-09
        83  18 -2.186967E+06 -1.092498E+06 -6.028648E+05 -9.187603E+05 -1.015164E-09 -6.690519E-10
        83  19  1.473760E+06  3.032651E+05  3.043776E+05  8.467759E+04 -7.945269E+04  8.253544E+04
        83  20  1.770682E+06  4.666881E+05  3.927109E+05  2.243533E+05 -3.197970E+03  1.073449E+05
        83  21  2.143923E+06  5.606414E+05  5.357846E+05  2.917445E+05  9.616476E+04  7.069340E+04
        83  22 -1.969577E+04 -2.396756E+05 -8.073170E+03 -3.241791E+05 -4.224415E+04  9.645441E+04
        83  23 -5.165290E+04 -2.099194E+05 -1.521389E+04 -2.831583E+05 -4.911916E+04  9.019846E+04
        83  24 -2.382980E+04 -2.661095E+05 -3.335910E+04 -3.144810E+05 -3.289961E+04  2.237093E+04
        83  25 -1.510882E+06 -7.824421E+05 -3.206410E+05 -7.321355E+05 -5.131649E+03  1.103379E+05
        83  26 -1.870620E+06 -8.862478E+05 -4.233337E+05 -7.892952E+05 -9.489427E+04  7.310792E+04
        83  27 -2.186939E+06 -1.092490E+06 -6.028144E+05 -9.187569E+05 -1.614673E+05 -2.575752E+04
        84   1 -1.630765E+05 -8.424702E+04 -7.472012E+04 -5.981690E+04 -1.669252E+04  5.860850E+03
        84   2 -1.017206E+05 -8.809276E+04 -5.711962E+04 -6.736202E+04 -2.822537E+03  1.952555E+04
        84   3 -3.938313E+04 -8.087018E+04 -4.578220E+04 -8.401473E+04  1.105256E+04  2.313531E+04
        84   4  3.319629E+05  3.765772E+04  3.986386E+04 -8.545297E+04  2.816700E+04  5.867706E+03
        84   5  3.293930E+05  1.356695E+04  2.013547E+04 -8.089828E+04  1.790868E+04  1.952636E+04
        84   6  3.319859E+05  4.727749E+03  1.089650E+04 -8.545001E+04  7.653878E+03  2.313384E+04
        84   7  8.272345E+05  1.595488E+05  1.544394E+05 -1.111096E+05  7.306203E+04  5.870856E+03
        84   8  7.606892E+05  1.152172E+05  9.738516E+04 -9.444420E+04  3.865389E+04  1.952626E+04
        84   9  7.034929E+05  9.031906E+04  6.757229E+04 -8.688617E+04  4.253240E+03  2.313237E+04
        84  10 -1.630768E+05 -8.424714E+04 -7.472071E+04 -5.981682E+04 -1.151512E-09 -9.435501E-11
        84  11 -1.017207E+05 -8.809317E+04 -5.712036E+04 -6.736198E+04  1.172619E-09 -3.939472E-10
        84  12 -3.938340E+04 -8.087079E+04 -4.578344E+04 -8.401493E+04 -2.024302E-09 -5.644138E-10
        84  13  3.319620E+05  3.765747E+04  3.986231E+04 -8.545310E+04  4.422937E-09  4.511300E-10
        84  14  3.293926E+05  1.356645E+04  2.013416E+04 -8.089856E+04 -9.298203E-10  8.483999E-10
        84  15  3.319857E+05  4.727159E+03  1.089538E+04 -8.545015E+04  3.108078E-09  5.717228E-10
        84  16  8.272287E+05  1.595473E+05  1.544293E+05 -1.111100E+05  4.320639E-10  8.805241E-10
        84  17  7.606875E+05  1.152164E+05  9.738164E+04 -9.444481E+04  2.094346E-09  2.165742E-09
        84  18  7.034928E+05  9.031848E+04  6.757125E+04 -8.688625E+04  1.411881E-09  2.030526E-09
        84  19 -1.630765E+05 -8.424702E+04 -7.472012E+04 -5.981690E+04  1.669252E+04 -5.860850E+03
        84  20 -1.017206E+05 -8.809276E+04 -5.711962E+04 -6.736202E+04  2.822537E+03 -1.952555E+04
        84  21 -3.938313E+04 -8.087018E+04 -4.578220E+04 -8.401473E+04 -1.105256E+04 -2.313531E+04
        84  22  3.319629E+05  3.765772E+04  3.986386E+04 -8.545297E+04 -2.816700E+04 -5.867706E+03
        84  23  3.293930E+05  1.356695E+04  2.013547E+04 -8.089828E+04 -1.790868E+04 -1.952636E+04
        84  24  3.319859E+05  4.727749E+03  1.089650E+04 -8.545001E+04 -7.653878E+03 -2.313384E+04
        84  25  8.272345E+05  1.595488E+05  1.544394E+05 -1.111096E+05 -7.306203E+04 -5.870856E+03
        84  26  7.606892E+05  1.152172E+05  9.738516E+04 -9.444420E+04 -3.865389E+04 -1.952626E+04
        84  27  7.034929E+05  9.031906E+04  6.757229E+04 -8.688617E+04 -4.253240E+03 -2.313237E+04
        85   1 -1.572779E+03 -7.286692E+04 -4.086810E+04 -8.359476E+04  1.043533E+04  2.184513E+04
        85   2  6.012674E+04 -6.043789E+04 -3.290021E+04 -7.970419E+04  1.150248E+04  1.941474E+04
        85   3  1.219427E+05 -4.703418E+04 -2.538117E+04 -8.566564E+04  1.256944E+04  1.562540E+04
        85   4  3.309942E+05  3.433258E+03  8.125291E+03 -8.561623E+04  6.235692E+03  2.184391E+04
        85   5  3.306610E+05  1.113864E+03  4.382284E+03 -8.069045E+04  4.040155E+03  1.941404E+04
        85   6  3.310063E+05  3.352389E+02  2.455110E+03 -8.561630E+04  1.844341E+03  1.562553E+04
        85   7  6.636725E+05  7.972831E+04  5.711677E+04 -8.763883E+04  2.033900E+03  2.184272E+04
        85   8  6.012696E+05  6.266244E+04  4.166416E+04 -8.167716E+04 -3.425270E+03  1.941336E+04
        85   9  5.401147E+05  4.770285E+04  3.029147E+04 -8.556694E+04 -8.884201E+03  1.562565E+04
        85  10 -1.573024E+03 -7.286746E+04 -4.086920E+04 -8.359494E+04 -1.210018E-09 -1.325029E-10
        85  11  6.012650E+04 -6.043833E+04 -3.290116E+04 -7.970436E+04  2.561208E-09  2.352600E-10
        85  12  1.219425E+05 -4.703448E+04 -2.538192E+04 -8.566580E+04 -4.279565E-10 -6.462093E-10
        85  13  3.309940E+05  3.432735E+03  8.124321E+03 -8.561634E+04  1.315596E-10  9.265826E-10
        85  14  3.306609E+05  1.113455E+03  4.381545E+03 -8.069051E+04  1.978805E-10  1.178814E-09
        85  15  3.310062E+05  3.349757E+02  2.454645E+03 -8.561633E+04 -6.592847E-10  3.997392E-10
        85  16  6.636723E+05  7.972779E+04  5.711587E+04 -8.763887E+04  2.331049E-09  1.798402E-09
        85  17  6.012695E+05  6.266203E+04  4.166343E+04 -8.167711E+04 -9.041878E-10  2.005060E-09
        85  18  5.401145E+05  4.770257E+04  3.029086E+04 -8.556683E+04  3.688232E-10  1.454059E-09
        85  19 -1.572779E+03 -7.286692E+04 -4.086810E+04 -8.359476E+04 -1.043533E+04 -2.184513E+04
        85  20  6.012674E+04 -6.043789E+04 -3.290021E+04 -7.970419E+04 -1.150248E+04 -1.941474E+04
        85  21  1.219427E+05 -4.703418E+04 -2.538117E+04 -8.566564E+04 -1.256944E+04 -1.562540E+04
        85  22  3.309942E+05  3.433258E+03  8.125291E+03 -8.561623E+04 -6.235692E+03 -2.184391E+04
        85  23  3.306610E+05  1.113864E+03  4.382284E+03 -8.069045E+04 -4.040155E+03 -1.941404E+04
        85  24  3.310063E+05  3.352389E+02  2.455110E+03 -8.561630E+04 -1.844341E+03 -1.562553E+04
        85  25  6.636725E+05  7.972831E+04  5.711677E+04 -8.763883E+04 -2.033900E+03 -2.184272E+04
        85  26  6.012696E+05  6.266244E+04  4.166416E+04 -8.167716E+04  3.425270E+03 -1.941336E+04
        85  27  5.401147E+05  4.770285E+04  3.029147E+04 -8.556694E+04  8.884201E+03 -1.562565E+04
        86   1  1.599887E+05 -3.842479E+04 -2.060743E+04 -8.558784E+04  1.231630E+04  1.296200E+04
        86   2  2.217121E+05 -2.461371E+04 -1.317657E+04 -8.066497E+04  1.224238E+04  8.357575E+03
        86   3  2.834686E+05 -1.073232E+04 -5.679249E+03 -8.569272E+04  1.216821E+04  3.570209E+03
        86   4  3.308819E+05  2.357222E+02  1.849035E+03 -8.563831E+04  1.483198E+03  1.296247E+04
        86   5  3.308310E+05  4.534490E+01  1.033903E+03 -8.066307E+04  9.695501E+02  8.358405E+03
        86   6  3.308866E+05  1.881866E+00  5.903549E+02 -8.563834E+04  4.556647E+02  3.571416E+03
        86   7  5.018051E+05  3.889507E+04  2.430574E+04 -8.568879E+04 -9.352740E+03  1.296293E+04
        86   8  4.399624E+05  2.470397E+04  1.524478E+04 -8.066117E+04 -1.030517E+04  8.359235E+03
        86   9  3.783072E+05  1.073607E+04  6.860458E+03 -8.558395E+04 -1.125774E+04  3.572621E+03
        86  10  1.599885E+05 -3.842501E+04 -2.060803E+04 -8.558797E+04 -3.105276E-09 -5.863502E-10
        86  11  2.217119E+05 -2.461383E+04 -1.317698E+04 -8.066505E+04  1.097039E-09  6.903609E-10
        86  12  2.834685E+05 -1.073238E+04 -5.679551E+03 -8.569276E+04 -1.297357E-09  1.026877E-09
        86  13  3.308818E+05  2.355412E+02  1.848715E+03 -8.563832E+04 -2.282131E-09  3.253369E-11
        86  14  3.308310E+05  4.526961E+01  1.033770E+03 -8.066308E+04  2.160891E-09 -8.788389E-11
        86  15  3.308866E+05  1.868111E+00  5.903306E+02 -8.563834E+04  2.839782E-10 -9.451871E-11
        86  16  5.018050E+05  3.889486E+04  2.430526E+04 -8.568869E+04  2.921197E-09  6.270288E-10
        86  17  4.399623E+05  2.470387E+04  1.524445E+04 -8.066110E+04  4.946840E-09 -7.934719E-10
        86  18  3.783070E+05  1.073602E+04  6.860196E+03 -8.558392E+04  2.030616E-09 -1.381275E-09
        86  19  1.599887E+05 -3.842479E+04 -2.060743E+04 -8.558784E+04 -1.231630E+04 -1.296200E+04
        86  20  2.217121E+05 -2.461371E+04 -1.317657E+04 -8.066497E+04 -1.224238E+04 -8.357575E+03
        86  21  2.834686E+05 -1.073232E+04 -5.679249E+03 -8.569272E+04 -1.216821E+04 -3.570209E+03
        86  22  3.308819E+05  2.357222E+02  1.849035E+03 -8.563831E+04 -1.483198E+03 -1.296247E+04
        86  23  3.308310E+05  4.534490E+01  1.033903E+03 -8.066307E+04 -9.695501E+02 -8.358405E+03
        86  24  3.308866E+05  1.881866E+00  5.903549E+02 -8.563834E+04 -4.556647E+02 -3.571416E+03
        86  25  5.018051E+05  3.889507E+04  2.430574E+04 -8.568879E+04  9.352740E+03 -1.296293E+04
        86  26  4.399624E+05  2.470397E+04  1.524478E+04 -8.066117E+04  1.030517E+04 -8.359235E+03
        86  27  3.783072E+05  1.073607E+04  6.860458E+03 -8.558395E+04  1.125774E+04 -3.572621E+03
        87   1  3.215386E+05 -2.105563E+03 -7.531896E+02 -8.567767E+04  1.209071E+04  7.223183E+02
        87   2  3.832729E+05  1.178459E+04  6.838043E+03 -8.068809E+04  1.201224E+04 -4.171813E+03
        87   3  4.450252E+05  2.567799E+04  1.448206E+04 -8.566222E+04  1.193389E+04 -9.085788E+03
        87   4  3.308681E+05 -1.883442E-01  4.474331E+02 -8.564128E+04  3.636612E+02  7.235787E+02
        87   5  3.308563E+05 -1.079106E+01  2.557502E+02 -8.065941E+04  2.368756E+02 -4.170711E+03
        87   6  3.308659E+05 -9.951904E+00  1.497007E+02 -8.564129E+04  1.102240E+02 -9.084854E+03
        87   7  3.401981E+05  2.105256E+03  1.648572E+03 -8.560490E+04 -1.136355E+04  7.248377E+02
        87   8  2.784429E+05 -1.180620E+04 -6.326029E+03 -8.063073E+04 -1.153754E+04 -4.169610E+03
        87   9  2.167204E+05 -2.569835E+04 -1.418216E+04 -8.562036E+04 -1.171138E+04 -9.083922E+03
        87  10  3.215384E+05 -2.105603E+03 -7.534652E+02 -8.567768E+04  2.571906E-09  3.175611E-10
        87  11  3.832727E+05  1.178453E+04  6.837740E+03 -8.068805E+04 -3.236678E-09 -6.546725E-10
        87  12  4.450250E+05  2.567786E+04  1.448163E+04 -8.566214E+04 -5.878464E-09  4.297723E-10
        87  13  3.308681E+05 -1.889420E-01  4.474319E+02 -8.564128E+04  2.750013E-14 -3.025244E-10
        87  14  3.308563E+05 -1.080975E+01  2.557174E+02 -8.065941E+04  5.331211E-09 -2.850677E-10
        87  15  3.308659E+05 -1.004055E+01  1.495456E+02 -8.564129E+04 -1.416572E-10  1.829102E-10
        87  16  3.401980E+05  2.105221E+03  1.648328E+03 -8.560489E+04  1.781996E-09 -9.289181E-10
        87  17  2.784427E+05 -1.180626E+04 -6.326312E+03 -8.063077E+04 -1.230251E-09  9.877947E-11
        87  18  2.167202E+05 -2.569847E+04 -1.418258E+04 -8.562045E+04  3.923633E-09  6.067761E-12
        87  19  3.215386E+05 -2.105563E+03 -7.531896E+02 -8.567767E+04 -1.209071E+04 -7.223183E+02
        87  20  3.832729E+05  1.178459E+04  6.838043E+03 -8.068809E+04 -1.201224E+04  4.171813E+03
        87  21  4.450252E+05  2.567799E+04  1.448206E+04 -8.566222E+04 -1.193389E+04  9.085788E+03
        87  22  3.308681E+05 -1.883442E-01  4.474331E+02 -8.564128E+04 -3.636612E+02 -7.235787E+02
        87  23  3.308563E+05 -1.079106E+01  2.557502E+02 -8.065941E+04 -2.368756E+02  4.170711E+03
        87  24  3.308659E+05 -9.951904E+00  1.497007E+02 -8.564129E+04 -1.102240E+02  9.084854E+03
        87  25  3.401981E+05  2.105256E+03  1.648572E+03 -8.560490E+04  1.136355E+04 -7.248377E+02
        87  26  2.784429E+05 -1.180620E+04 -6.326029E+03 -8.063073E+04  1.153754E+04  4.169610E+03
        87  27  2.167204E+05 -2.569835E+04 -1.418216E+04 -8.562036E+04  1.171138E+04  9.083922E+03
        88   1  4.831078E+05  3.429689E+04  1.948369E+04 -8.565835E+04  1.190964E+04 -1.195353E+04
        88   2  5.448551E+05  4.818579E+04  2.720240E+04 -8.066597E+04  1.179346E+04 -1.685983E+04
        88   3  6.066306E+05  6.208862E+04  3.500180E+04 -8.563822E+04  1.167782E+04 -2.173223E+04
        88   4  3.308615E+05 -1.140365E+01  1.157953E+02 -8.564153E+04  8.609516E+01 -1.195285E+04
        88   5  3.308519E+05 -1.902256E+01  7.130118E+01 -8.065911E+04  5.078315E+01 -1.685984E+04
        88   6  3.308524E+05 -2.669463E+01  5.100359E+01 -8.564153E+04  1.600863E+01 -2.173292E+04
        88   7  1.786394E+05 -3.432057E+04 -1.925166E+04 -8.562471E+04 -1.173469E+04 -1.195217E+04
        88   8  1.168961E+05 -4.822564E+04 -2.705944E+04 -8.065226E+04 -1.168805E+04 -1.685984E+04
        88   9  5.515263E+04 -6.214504E+04 -3.489954E+04 -8.564484E+04 -1.164088E+04 -2.173361E+04
        88  10  4.831076E+05  3.429670E+04  1.948316E+04 -8.565824E+04 -1.364528E-09  1.120007E-09
        88  11  5.448549E+05  4.818545E+04  2.720161E+04 -8.066581E+04  3.051986E-09  6.926958E-10
        88  12  6.066303E+05  6.208807E+04  3.500066E+04 -8.563802E+04  2.344044E-09 -2.594297E-10
        88  13  3.308615E+05 -1.155709E+01  1.155268E+02 -8.564153E+04  4.543339E-09  2.550451E-10
        88  14  3.308519E+05 -1.932785E+01  7.076692E+01 -8.065911E+04  1.327653E-09 -3.802713E-10
        88  15  3.308523E+05 -2.720190E+01  5.011587E+01 -8.564153E+04 -1.045142E-09 -1.308831E-09
        88  16  1.786392E+05 -3.432076E+04 -1.925219E+04 -8.562483E+04  1.672408E-10 -5.248582E-10
        88  17  1.168958E+05 -4.822598E+04 -2.706023E+04 -8.065242E+04  1.248424E-09 -1.501995E-09
        88  18  5.515236E+04 -6.214558E+04 -3.490069E+04 -8.564504E+04 -2.738455E-09 -2.409432E-09
        88  19  4.831078E+05  3.429689E+04  1.948369E+04 -8.565835E+04 -1.190964E+04  1.195353E+04
        88  20  5.448551E+05  4.818579E+04  2.720240E+04 -8.066597E+04 -1.179346E+04  1.685983E+04
        88  21  6.066306E+05  6.208862E+04  3.500180E+04 -8.563822E+04 -1.167782E+04  2.173223E+04
        88  22  3.308615E+05 -1.140365E+01  1.157953E+02 -8.564153E+04 -8.609516E+01  1.195285E+04
        88  23  3.308519E+05 -1.902256E+01  7.130118E+01 -8.065911E+04 -5.078315E+01  1.685984E+04
        88  24  3.308524E+05 -2.669463E+01  5.100359E+01 -8.564153E+04 -1.600863E+01  2.173292E+04
        88  25  1.786394E+05 -3.432057E+04 -1.925166E+04 -8.562471E+04  1.173469E+04  1.195217E+04
        88  26  1.168961E+05 -4.822564E+04 -2.705944E+04 -8.065226E+04  1.168805E+04  1.685984E+04
        88  27  5.515263E+04 -6.214504E+04 -3.489954E+04 -8.564484E+04  1.164088E+04  2.173361E+04
        89   1  6.447480E+05  7.071983E+04  4.009315E+04 -8.562756E+04  1.164885E+04 -2.456571E+04
        89   2  7.064737E+05  8.465757E+04  4.816121E+04 -8.063410E+04  1.095834E+04 -2.927302E+04
        89   3  7.683351E+05  9.871410E+04  5.671175E+04 -8.558954E+04  1.026863E+04 -3.370240E+04
        89   4  3.308498E+05 -3.288774E+01  4.707552E+01 -8.563807E+04  7.417494E+00 -2.456695E+04
        89   5  3.308333E+05 -4.708936E+01  4.800826E+01 -8.066344E+04 -1.585853E+01 -2.927539E+04
        89   6  3.308338E+05 -5.790427E+01  6.840200E+01 -8.563807E+04 -3.828856E+01 -3.370583E+04
        89   7  1.705288E+04 -7.078958E+04 -3.999888E+04 -8.564857E+04 -1.162842E+04 -2.456818E+04
        89   8 -4.466224E+04 -8.475749E+04 -4.806536E+04 -8.069276E+04 -1.098375E+04 -2.927776E+04
        89   9 -1.064714E+05 -9.883781E+04 -5.657558E+04 -8.568655E+04 -1.033830E+04 -3.370925E+04
        89  10  6.447476E+05  7.071915E+04  4.009176E+04 -8.562733E+04 -1.982626E-09 -5.255276E-10
        89  11  7.064733E+05  8.465661E+04  4.815937E+04 -8.063384E+04  2.924282E-11 -7.120886E-10
        89  12  7.683347E+05  9.871285E+04  5.670942E+04 -8.558926E+04  1.960267E-09 -2.999294E-10
        89  13  3.308496E+05 -3.353593E+01  4.594119E+01 -8.563807E+04  4.304465E-09 -1.238653E-09
        89  14  3.308331E+05 -4.800983E+01  4.639744E+01 -8.066344E+04  5.290818E-09 -4.574841E-10
        89  15  3.308335E+05 -5.912442E+01  6.626674E+01 -8.563807E+04 -3.088011E-11 -1.972019E-10
        89  16  1.705257E+04 -7.079026E+04 -4.000027E+04 -8.564880E+04  1.076186E-09 -1.986085E-09
        89  17 -4.466260E+04 -8.475844E+04 -4.806720E+04 -8.069302E+04  1.906297E-09 -3.535839E-10
        89  18 -1.064718E+05 -9.883906E+04 -5.657791E+04 -8.568683E+04 -3.004324E-09  1.754714E-10
        89  19  6.447480E+05  7.071983E+04  4.009315E+04 -8.562756E+04 -1.164885E+04  2.456571E+04
        89  20  7.064737E+05  8.465757E+04  4.816121E+04 -8.063410E+04 -1.095834E+04  2.927302E+04
        89  21  7.683351E+05  9.871410E+04  5.671175E+04 -8.558954E+04 -1.026863E+04  3.370240E+04
        89  22  3.308498E+05 -3.288774E+01  4.707552E+01 -8.563807E+04 -7.417495E+00  2.456695E+04
        89  23  3.308333E+05 -4.708936E+01  4.800826E+01 -8.066344E+04  1.585853E+01  2.927539E+04
        89  24  3.308338E+05 -5.790427E+01  6.840200E+01 -8.563807E+04  3.828856E+01  3.370583E+04
        89  25  1.705288E+04 -7.078958E+04 -3.999888E+04 -8.564857E+04  1.162842E+04  2.456818E+04
        89  26 -4.466224E+04 -8.475749E+04 -4.806536E+04 -8.069276E+04  1.098375E+04  2.927776E+04
        89  27 -1.064714E+05 -9.883781E+04 -5.657558E+04 -8.568655E+04  1.033830E+04  3.370925E+04
        90   1  8.066098E+05  1.074690E+05  6.230014E+04 -8.553612E+04  1.009382E+04 -3.625515E+04
        90   2  8.680040E+05  1.218181E+05  7.271331E+04 -8.063294E+04  5.064917E+03 -3.944600E+04
        90   3  9.303089E+05  1.370779E+05  8.663178E+04 -8.552617E+04  3.554476E+01 -4.057288E+04
        90   4  3.308339E+05 -6.483114E+01  8.623607E+01 -8.560422E+04 -5.060019E+01 -3.625932E+04
        90   5  3.307995E+05 -6.063253E+01  1.428400E+02 -8.070575E+04 -1.201879E+02 -3.945053E+04
        90   6  3.308114E+05 -5.819258E+00  2.637223E+02 -8.560423E+04 -1.896850E+02 -4.057683E+04
        90   7 -1.447106E+05 -1.076081E+05 -6.212871E+04 -8.567226E+04 -1.018763E+04 -3.626350E+04
        90   8 -2.061114E+05 -1.219518E+05 -7.243024E+04 -8.077849E+04 -5.301017E+03 -3.945507E+04
        90   9 -2.683237E+05 -1.371059E+05 -8.610997E+04 -8.568221E+04 -4.147066E+02 -4.058079E+04
        90  10  8.066093E+05  1.074676E+05  6.229748E+04 -8.553583E+04  2.906660E-08 -4.031090E-10
        90  11  8.680035E+05  1.218164E+05  7.271033E+04 -8.063278E+04 -6.157843E-09 -2.190097E-09
        90  12  9.303085E+05  1.370761E+05  8.662869E+04 -8.552617E+04 -4.522461E-08 -5.692640E-09
        90  13  3.308335E+05 -6.624316E+01  8.376503E+01 -8.560422E+04  2.138163E-09  1.886728E-09
        90  14  3.307991E+05 -6.230404E+01  1.399149E+02 -8.070576E+04  1.119793E-09  7.605502E-09
        90  15  3.308110E+05 -7.587575E+00  2.606277E+02 -8.560424E+04  3.037577E-09  1.131344E-08
        90  16 -1.447110E+05 -1.076096E+05 -6.213138E+04 -8.567255E+04 -2.448291E-08 -1.480082E-10
        90  17 -2.061118E+05 -1.219535E+05 -7.243322E+04 -8.077866E+04  1.031111E-08 -1.613092E-09
        90  18 -2.683242E+05 -1.371077E+05 -8.611307E+04 -8.568223E+04  4.666986E-08 -6.460129E-09
        90  19  8.066098E+05  1.074690E+05  6.230014E+04 -8.553612E+04 -1.009382E+04  3.625515E+04
        90  20  8.680040E+05  1.218181E+05  7.271331E+04 -8.063294E+04 -5.064917E+03  3.944600E+04
        90  21  9.303089E+05  1.370779E+05  8.663178E+04 -8.552617E+04 -3.554476E+01  4.057288E+04
        90  22  3.308339E+05 -6.483114E+01  8.623607E+01 -8.560422E+04  5.060019E+01  3.625932E+04
        90  23  3.307995E+05 -6.063253E+01  1.428400E+02 -8.070575E+04  1.201879E+02  3.945053E+04
        90  24  3.308114E+05 -5.819258E+00  2.637223E+02 -8.560423E+04  1.896850E+02  4.057683E+04
        90  25 -1.447106E+05 -1.076081E+05 -6.212871E+04 -8.567226E+04  1.018763E+04  3.626350E+04
        90  26 -2.061114E+05 -1.219518E+05 -7.243024E+04 -8.077849E+04  5.301017E+03  3.945507E+04
        90  27 -2.683237E+05 -1.371059E+05 -8.610997E+04 -8.568221E+04  4.147066E+02  4.058079E+04
        91   1  9.695921E+05  1.467661E+05  9.579573E+04 -8.522323E+04 -1.226726E+03 -4.103984E+04
        91   2  1.028297E+06  1.642477E+05  1.233590E+05 -8.124707E+04 -3.825449E+04 -3.300357E+04
        91   3  1.093577E+06  1.886134E+05  1.767329E+05 -8.593134E+04 -7.529867E+04 -9.695570E+03
        91   4  3.308390E+05  2.530275E+01  3.537357E+02 -8.535149E+04 -2.359747E+02 -4.104364E+04
        91   5  3.307205E+05  3.020169E+02  6.454954E+02 -8.102178E+04 -5.578668E+02 -3.299160E+04
        91   6  3.308112E+05  1.099309E+03  1.282296E+03 -8.535188E+04 -8.913998E+02 -9.659958E+03
        91   7 -3.075049E+05 -1.467348E+05 -9.509614E+04 -8.547961E+04  7.537993E+02 -4.104746E+04
        91   8 -3.663775E+05 -1.636695E+05 -1.220804E+05 -8.079677E+04  3.709771E+04 -3.297959E+04
        91   9 -4.314056E+05 -1.864525E+05 -1.741860E+05 -8.477317E+04  7.342531E+04 -9.624190E+03
        91  10  9.695917E+05  1.467643E+05  9.579257E+04 -8.522327E+04 -9.302150E-08 -7.447427E-09
        91  11  1.028295E+06  1.642461E+05  1.233542E+05 -8.124809E+04  3.120577E-09 -7.071767E-09
        91  12  1.093571E+06  1.886118E+05  1.767221E+05 -8.593193E+04  1.057442E-07 -2.025001E-09
        91  13  3.308385E+05  2.349351E+01  3.505694E+02 -8.535149E+04  3.957451E-09  8.226152E-09
        91  14  3.307202E+05  3.008478E+02  6.434491E+02 -8.102180E+04  4.722916E-09  4.813750E-09
        91  15  3.308111E+05  1.099208E+03  1.282119E+03 -8.535189E+04 -2.888336E-09  4.843566E-10
        91  16 -3.075054E+05 -1.467366E+05 -9.509931E+04 -8.547958E+04  9.625626E-08 -8.468382E-09
        91  17 -3.663793E+05 -1.636710E+05 -1.220850E+05 -8.079579E+04 -4.820226E-09 -5.718959E-09
        91  18 -4.314114E+05 -1.864540E+05 -1.741963E+05 -8.477260E+04 -1.045195E-07 -2.450997E-09
        91  19  9.695921E+05  1.467661E+05  9.579573E+04 -8.522323E+04  1.226726E+03  4.103984E+04
        91  20  1.028297E+06  1.642477E+05  1.233590E+05 -8.124707E+04  3.825449E+04  3.300357E+04
        91  21  1.093577E+06  1.886134E+05  1.767329E+05 -8.593134E+04  7.529867E+04  9.695570E+03
        91  22  3.308390E+05  2.530275E+01  3.537357E+02 -8.535149E+04  2.359747E+02  4.104364E+04
        91  23  3.307205E+05  3.020169E+02  6.454954E+02 -8.102178E+04  5.578668E+02  3.299160E+04
        91  24  3.308112E+05  1.099309E+03  1.282296E+03 -8.535188E+04  8.913998E+02  9.659958E+03
        91  25 -3.075049E+05 -1.467348E+05 -9.509614E+04 -8.547961E+04 -7.537993E+02  4.104746E+04
        91  26 -3.663775E+05 -1.636695E+05 -1.220804E+05 -8.079677E+04 -3.709771E+04  3.297959E+04
        91  27 -4.314056E+05 -1.864525E+05 -1.741860E+05 -8.477317E+04 -7.342531E+04  9.624190E+03
        92   1  1.579387E+05  7.796851E+05  1.513606E+05 -2.640885E+05  5.507370E+03  3.620154E+04
        92   2  1.040315E+05  5.730426E+05  8.659059E+04 -2.471922E+05  1.545128E+04  4.452197E+03
        92   3  5.541365E+04  3.718770E+05  4.379005E+04 -2.643547E+05  1.130192E+04 -2.729005E+04
        92   4 -5.772204E+02  1.388386E+05 -7.239164E+02 -2.641997E+05  5.536250E+03 -1.699511E+03
        92   5  2.758417E+01  1.388778E+05  5.526714E+02 -2.471690E+05  1.545726E+04 -1.960171E+03
        92   6  4.636395E+02  1.388971E+05  1.949826E+03 -2.641990E+05  1.128043E+04 -2.223796E+03
        92   7 -1.591219E+05 -5.016279E+05 -1.528317E+05 -2.643106E+05  5.565165E+03 -3.956167E+04
        92   8 -1.039878E+05 -2.951067E+05 -8.549442E+04 -2.471458E+05  1.546326E+04 -8.368150E+03
        92   9 -5.448906E+04 -9.402866E+04 -3.989013E+04 -2.640433E+05  1.125896E+04  2.283332E+04
        92  10  1.579383E+05  7.796837E+05  1.513581E+05 -2.640887E+05  1.024927E-09  6.439022E-08
        92  11  1.040313E+05  5.730426E+05  8.659011E+04 -2.471923E+05 -1.791754E-09 -2.687050E-09
        92  12  5.541332E+04  3.718762E+05  4.378841E+04 -2.643544E+05  1.008263E-10 -7.173681E-08
        92  13 -5.772541E+02  1.388386E+05 -7.239794E+02 -2.641997E+05  1.233554E-09 -1.170629E-11
        92  14  2.732657E+01  1.388778E+05  5.522152E+02 -2.471690E+05  2.195059E-09 -2.132897E-10
        92  15  4.635016E+02  1.388970E+05  1.949577E+03 -2.641989E+05 -2.166450E-09  6.938273E-11
        92  16 -1.591224E+05 -5.016296E+05 -1.528347E+05 -2.643104E+05 -1.042193E-09 -6.395303E-08
        92  17 -1.039881E+05 -2.951069E+05 -8.549500E+04 -2.471457E+05  2.224629E-09  2.906569E-09
        92  18 -5.448933E+04 -9.402925E+04 -3.989135E+04 -2.640435E+05 -3.503424E-09  7.142330E-08
        92  19  1.579387E+05  7.796851E+05  1.513606E+05 -2.640885E+05 -5.507370E+03 -3.620154E+04
        92  20  1.040315E+05  5.730426E+05  8.659059E+04 -2.471922E+05 -1.545128E+04 -4.452197E+03
        92  21  5.541365E+04  3.718770E+05  4.379005E+04 -2.643547E+05 -1.130192E+04  2.729005E+04
        92  22 -5.772204E+02  1.388386E+05 -7.239164E+02 -2.641997E+05 -5.536250E+03  1.699511E+03
        92  23  2.758417E+01  1.388778E+05  5.526714E+02 -2.471690E+05 -1.545726E+04  1.960171E+03
        92  24  4.636395E+02  1.388971E+05  1.949826E+03 -2.641990E+05 -1.128043E+04  2.223796E+03
        92  25 -1.591219E+05 -5.016279E+05 -1.528317E+05 -2.643106E+05 -5.565165E+03  3.956167E+04
        92  26 -1.039878E+05 -2.951067E+05 -8.549442E+04 -2.471458E+05 -1.546326E+04  8.368150E+03
        92  27 -5.448906E+04 -9.402866E+04 -3.989013E+04 -2.640433E+05 -1.125896E+04 -2.283332E+04
        93   1  2.565648E+04  2.441933E+05  2.318438E+04 -2.646116E+05  4.096423E+03 -2.812590E+04
        93   2 -2.117992E+04  4.012463E+04 -8.915484E+03 -2.459174E+05 -7.065715E+03 -2.971172E+04
        93   3 -6.637271E+04 -1.633125E+05 -3.958245E+04 -2.621656E+05 -1.772186E+04 -3.129626E+04
        93   4  5.678874E+02  1.390840E+05  2.828011E+03 -2.643949E+05  4.073902E+03 -2.639859E+03
        93   5  1.398525E+03  1.386841E+05  5.416352E+03 -2.469228E+05 -7.086450E+03 -5.359653E+03
        93   6  4.070673E+03  1.390701E+05  1.022264E+04 -2.643923E+05 -1.774088E+04 -8.078640E+03
        93   7 -2.452101E+04  3.398676E+04 -1.752644E+04 -2.641783E+05  4.051396E+03  2.284196E+04
        93   8  2.397684E+04  2.372547E+05  1.975026E+04 -2.479284E+05 -7.107261E+03  1.899612E+04
        93   9  7.450965E+04  4.415443E+05  6.002707E+04 -2.666201E+05 -1.776007E+04  1.514990E+04
        93  10  2.565625E+04  2.441924E+05  2.318287E+04 -2.646115E+05 -7.884820E-10  1.037787E-08
        93  11 -2.118021E+04  4.012367E+04 -8.917237E+03 -2.459176E+05  8.766099E-10 -1.730152E-09
        93  12 -6.637331E+04 -1.633137E+05 -3.958488E+04 -2.621660E+05 -2.144040E-09 -1.580727E-08
        93  13  5.678677E+02  1.390840E+05  2.827967E+03 -2.643949E+05  2.140116E-10  8.992896E-12
        93  14  1.398463E+03  1.386841E+05  5.416204E+03 -2.469228E+05 -5.072701E-09 -3.279969E-10
        93  15  4.070317E+03  1.390699E+05  1.022192E+04 -2.643924E+05 -6.461615E-09  4.758103E-11
        93  16 -2.452117E+04  3.398620E+04 -1.752745E+04 -2.641784E+05  1.382842E-09 -9.895308E-09
        93  17  2.397669E+04  2.372543E+05  1.974948E+04 -2.479283E+05  4.134876E-09  1.868906E-09
        93  18  7.450925E+04  4.415440E+05  6.002604E+04 -2.666199E+05 -1.376473E-09  1.551125E-08
        93  19  2.565648E+04  2.441933E+05  2.318438E+04 -2.646116E+05 -4.096423E+03  2.812590E+04
        93  20 -2.117992E+04  4.012463E+04 -8.915484E+03 -2.459174E+05  7.065715E+03  2.971172E+04
        93  21 -6.637271E+04 -1.633125E+05 -3.958245E+04 -2.621656E+05  1.772186E+04  3.129626E+04
        93  22  5.678874E+02  1.390840E+05  2.828011E+03 -2.643949E+05 -4.073902E+03  2.639859E+03
        93  23  1.398525E+03  1.386841E+05  5.416352E+03 -2.469228E+05  7.086450E+03  5.359653E+03
        93  24  4.070673E+03  1.390701E+05  1.022264E+04 -2.643923E+05  1.774088E+04  8.078640E+03
        93  25 -2.452101E+04  3.398676E+04 -1.752644E+04 -2.641783E+05 -4.051396E+03 -2.284196E+04
        93  26  2.397684E+04  2.372547E+05  1.975026E+04 -2.479284E+05  7.107261E+03 -1.899612E+04
        93  27  7.450965E+04  4.415443E+05  6.002707E+04 -2.666201E+05  1.776007E+04 -1.514990E+04
        94   1 -9.525130E+04 -2.900068E+05 -5.832799E+04 -2.631079E+05 -2.444981E+04 -3.249281E+04
        94   2 -1.342786E+05 -4.937615E+05 -9.522308E+04 -2.306028E+05 -2.552669E+04 -4.868959E+03
        94   3 -1.594347E+05 -6.975933E+05 -1.466421E+05 -2.318350E+05 -8.414161E+03  2.274752E+04
        94   4  5.253315E+03  1.404162E+05  1.371869E+04 -2.641240E+05 -2.446696E+04 -9.861002E+03
        94   5  1.603144E+04  1.369121E+05  2.538442E+04 -2.472457E+05 -2.551134E+04 -2.281464E+04
        94   6  4.771786E+04  1.403282E+05  5.070556E+04 -2.640976E+05 -8.376240E+03 -3.576623E+04
        94   7  1.057485E+05  5.710231E+05  8.576154E+04 -2.651408E+05 -2.448419E+04  1.278598E+04
        94   8  1.663193E+05  7.679704E+05  1.459752E+05 -2.639057E+05 -2.549504E+04 -4.077812E+04
        94   9  2.548260E+05  9.789056E+05  2.480183E+05 -2.964038E+05 -8.332271E+03 -9.435854E+04
        94  10 -9.525223E+04 -2.900081E+05 -5.833110E+04 -2.631085E+05 -2.443239E-09  8.176088E-09
        94  11 -1.342794E+05 -4.937617E+05 -9.522435E+04 -2.306029E+05  3.818319E-09  6.938717E-10
        94  12 -1.594350E+05 -6.975938E+05 -1.466432E+05 -2.318349E+05  1.549329E-09 -7.964714E-09
        94  13  5.252646E+03  1.404159E+05  1.371738E+04 -2.641242E+05 -1.964375E-09 -1.747738E-11
        94  14  1.603060E+04  1.369114E+05  2.538221E+04 -2.472461E+05  4.137127E-10 -1.888982E-10
        94  15  4.771744E+04  1.403268E+05  5.070303E+04 -2.640978E+05  4.166306E-10  4.037490E-11
        94  16  1.057478E+05  5.710228E+05  8.576010E+04 -2.651405E+05  1.444502E-09 -7.690034E-09
        94  17  1.663181E+05  7.679684E+05  1.459708E+05 -2.639065E+05  3.205316E-09 -3.541415E-10
        94  18  2.548235E+05  9.788961E+05  2.480015E+05 -2.964044E+05  1.530786E-09  7.918404E-09
        94  19 -9.525130E+04 -2.900068E+05 -5.832799E+04 -2.631079E+05  2.444981E+04  3.249281E+04
        94  20 -1.342786E+05 -4.937615E+05 -9.522308E+04 -2.306028E+05  2.552669E+04  4.868959E+03
        94  21 -1.594347E+05 -6.975933E+05 -1.466421E+05 -2.318350E+05  8.414161E+03 -2.274752E+04
        94  22  5.253315E+03  1.404162E+05  1.371869E+04 -2.641240E+05  2.446696E+04  9.861002E+03
        94  23  1.603144E+04  1.369121E+05  2.538442E+04 -2.472457E+05  2.551134E+04  2.281464E+04
        94  24  4.771786E+04  1.403282E+05  5.070556E+04 -2.640976E+05  8.376240E+03  3.576623E+04
        94  25  1.057485E+05  5.710231E+05  8.576154E+04 -2.651408E+05  2.448419E+04 -1.278598E+04
        94  26  1.663193E+05  7.679704E+05  1.459752E+05 -2.639057E+05  2.549504E+04  4.077812E+04
        94  27  2.548260E+05  9.789056E+05  2.480183E+05 -2.964038E+05  8.332271E+03  9.435854E+04
        95   1 -3.235017E+05 -1.833457E+05 -1.178396E+05 -1.346422E+05 -5.644137E+04 -1.795609E+04
        95   2 -3.029993E+05 -1.120262E+05 -6.831129E+04 -1.257115E+05 -3.540558E+04 -2.970174E+03
        95   3 -2.962331E+05 -8.578359E+04 -4.721251E+04 -1.121164E+05 -1.233837E+04  6.608064E+03
        95   4 -1.523514E+05 -8.835393E+04 -6.731261E+04 -5.620713E+04 -4.442430E+04 -1.344971E+04
        95   5 -1.425034E+05 -4.025861E+04 -3.053807E+04 -6.839896E+04 -3.067449E+04 -1.195935E+03
        95   6 -1.449441E+05 -3.579183E+04 -1.641517E+04 -7.592850E+04 -1.489415E+04  5.649006E+03
        95   7  1.882791E+04  6.650677E+03 -1.678828E+04  2.225000E+04 -3.240379E+04 -8.940538E+03
        95   8  1.801832E+04  3.151439E+04  7.233337E+03 -1.107178E+04 -2.594210E+04  5.790352E+02
        95   9  6.369116E+03  1.420106E+04  1.438126E+04 -3.973275E+04 -1.745062E+04  4.689747E+03
        95  10 -3.235052E+05 -1.833469E+05 -1.178462E+05 -1.346430E+05  2.095327E-08  8.054036E-09
        95  11 -3.030006E+05 -1.120265E+05 -6.831367E+04 -1.257116E+05 -7.868508E-11  7.221208E-10
        95  12 -2.962333E+05 -8.578367E+04 -4.721287E+04 -1.121163E+05 -1.563210E-08 -9.298855E-09
        95  13 -1.523536E+05 -8.835466E+04 -6.731666E+04 -5.620761E+04  4.099971E-09  9.283045E-10
        95  14 -1.425045E+05 -4.025886E+04 -3.053984E+04 -6.839899E+04  6.801637E-09  2.010853E-09
        95  15 -1.449443E+05 -3.579192E+04 -1.641564E+04 -7.592843E+04  1.540921E-09 -5.290228E-10
        95  16  1.882676E+04  6.650309E+03 -1.679040E+04  2.224977E+04 -1.934297E-08 -6.204511E-09
        95  17  1.801759E+04  3.151421E+04  7.232072E+03 -1.107177E+04  2.604478E-09  3.260034E-09
        95  18  6.368783E+03  1.420096E+04  1.438064E+04 -3.973268E+04  2.007372E-08  8.932111E-09
        95  19 -3.235017E+05 -1.833457E+05 -1.178396E+05 -1.346422E+05  5.644137E+04  1.795609E+04
        95  20 -3.029993E+05 -1.120262E+05 -6.831129E+04 -1.257115E+05  3.540558E+04  2.970174E+03
        95  21 -2.962331E+05 -8.578359E+04 -4.721251E+04 -1.121164E+05  1.233837E+04 -6.608064E+03
        95  22 -1.523514E+05 -8.835393E+04 -6.731261E+04 -5.620713E+04  4.442430E+04  1.344971E+04
        95  23 -1.425034E+05 -4.025861E+04 -3.053807E+04 -6.839896E+04  3.067449E+04  1.195935E+03
        95  24 -1.449441E+05 -3.579183E+04 -1.641517E+04 -7.592850E+04  1.489415E+04 -5.649006E+03
        95  25  1.882791E+04  6.650677E+03 -1.678828E+04  2.225000E+04  3.240379E+04  8.940538E+03
        95  26  1.801832E+04  3.151439E+04  7.233337E+03 -1.107178E+04  2.594210E+04 -5.790352E+02
        95  27  6.369116E+03  1.420106E+04  1.438126E+04 -3.973275E+04  1.745062E+04 -4.689747E+03
        96   1 -2.736322E+05 -8.664530E+04 -4.002601E+04 -1.110130E+05 -1.117035E+04  5.825493E+03
        96   2 -2.526890E+05 -7.352277E+04 -2.895151E+04 -1.020545E+05 -6.907889E+03  6.037300E+03
        96   3 -2.281943E+05 -6.692952E+04 -2.118708E+04 -9.819283E+04 -2.517558E+03  5.908218E+03
        96   4 -1.428869E+05 -3.806444E+04 -1.259227E+04 -7.414265E+04 -1.258103E+04  5.296043E+03
        96   5 -1.445632E+05 -3.382211E+04 -6.650581E+03 -7.197763E+04 -8.777371E+03  5.335844E+03
        96   6 -1.425973E+05 -3.601794E+04 -3.654849E+03 -7.490962E+04 -4.845970E+03  5.034729E+03
        96   7 -1.212522E+04  1.051757E+04  1.484026E+04 -3.726535E+04 -1.399202E+04  4.766473E+03
        96   8 -3.642552E+04  5.879563E+03  1.564975E+04 -4.189588E+04 -1.064720E+04  4.634255E+03
        96   9 -5.699211E+04 -5.105550E+03  1.387721E+04 -5.162330E+04 -7.174746E+03  4.161108E+03
        96  10 -2.736323E+05 -8.664537E+04 -4.002631E+04 -1.110130E+05 -4.140498E-10 -3.207603E-09
        96  11 -2.526890E+05 -7.352282E+04 -2.895167E+04 -1.020545E+05 -1.620736E-09 -1.123658E-09
        96  12 -2.281943E+05 -6.692956E+04 -2.118715E+04 -9.819281E+04 -9.330994E-10 -4.749793E-10
        96  13 -1.428871E+05 -3.806452E+04 -1.259262E+04 -7.414259E+04  4.657589E-09 -7.836555E-10
        96  14 -1.445633E+05 -3.382216E+04 -6.650779E+03 -7.197759E+04 -4.143604E-09 -6.497957E-10
        96  15 -1.425973E+05 -3.601798E+04 -3.654941E+03 -7.490960E+04 -1.879731E-09  6.451090E-10
        96  16 -1.212544E+04  1.051749E+04  1.483985E+04 -3.726529E+04 -3.030782E-09  5.492334E-10
        96  17 -3.642564E+04  5.879509E+03  1.564950E+04 -4.189584E+04  2.350490E-09  4.047906E-10
        96  18 -5.699217E+04 -5.105582E+03  1.387708E+04 -5.162327E+04 -8.897295E-11  1.702029E-09
        96  19 -2.736322E+05 -8.664530E+04 -4.002601E+04 -1.110130E+05  1.117035E+04 -5.825493E+03
        96  20 -2.526890E+05 -7.352277E+04 -2.895151E+04 -1.020545E+05  6.907889E+03 -6.037300E+03
        96  21 -2.281943E+05 -6.692952E+04 -2.118708E+04 -9.819283E+04  2.517558E+03 -5.908218E+03
        96  22 -1.428869E+05 -3.806444E+04 -1.259227E+04 -7.414265E+04  1.258103E+04 -5.296043E+03
        96  23 -1.445632E+05 -3.382211E+04 -6.650581E+03 -7.197763E+04  8.777371E+03 -5.335844E+03
        96  24 -1.425973E+05 -3.601794E+04 -3.654849E+03 -7.490962E+04  4.845970E+03 -5.034729E+03
        96  25 -1.212522E+04  1.051757E+04  1.484026E+04 -3.726535E+04  1.399202E+04 -4.766473E+03
        96  26 -3.642552E+04  5.879563E+03  1.564975E+04 -4.189588E+04  1.064720E+04 -4.634255E+03
        96  27 -5.699211E+04 -5.105550E+03  1.387721E+04 -5.162330E+04  7.174746E+03 -4.161108E+03
        97   1 -2.119646E+05 -6.140308E+04 -1.690833E+04 -9.394585E+04 -1.698844E+03  5.070854E+03
        97   2 -1.912657E+05 -5.060934E+04 -1.101509E+04 -8.490266E+04 -2.828407E+02  3.680077E+03
        97   3 -1.659750E+05 -4.462942E+04 -5.725438E+03 -8.128408E+04  1.141182E+03  2.267680E+03
        97   4 -1.424483E+05 -3.610987E+04 -2.752592E+03 -7.481172E+04 -3.955467E+03  4.224348E+03
        97   5 -1.447435E+05 -3.368487E+04 -1.513842E+03 -7.210706E+04 -2.568528E+03  2.822727E+03
        97   6 -1.424416E+05 -3.606786E+04 -8.555636E+02 -7.482713E+04 -1.173605E+03  1.399480E+03
        97   7 -7.292697E+04 -1.081626E+04  1.140292E+04 -5.567562E+04 -6.212362E+03  3.377742E+03
        97   8 -9.821919E+04 -1.676028E+04  7.987264E+03 -5.931063E+04 -4.854390E+03  1.965313E+03
        97   9 -1.189078E+05 -2.750632E+04  4.014252E+03 -6.837001E+04 -3.488469E+03  5.312521E+02
        97  10 -2.119647E+05 -6.140311E+04 -1.690838E+04 -9.394585E+04  2.829335E-10  2.157763E-10
        97  11 -1.912657E+05 -5.060936E+04 -1.101512E+04 -8.490265E+04 -5.018636E-09 -3.810507E-09
        97  12 -1.659750E+05 -4.462942E+04 -5.725450E+03 -8.128408E+04 -8.136133E-09 -9.566701E-10
        97  13 -1.424483E+05 -3.610989E+04 -2.752655E+03 -7.481171E+04 -3.977647E-09 -7.706244E-10
        97  14 -1.447435E+05 -3.368488E+04 -1.513870E+03 -7.210705E+04 -7.624652E-09 -3.072473E-09
        97  15 -1.424416E+05 -3.606786E+04 -8.555699E+02 -7.482713E+04 -3.073667E-09 -1.346967E-09
        97  16 -7.292702E+04 -1.081628E+04  1.140282E+04 -5.567561E+04 -9.655703E-09 -1.432133E-09
        97  17 -9.821922E+04 -1.676029E+04  7.987212E+03 -5.931063E+04 -1.127291E-08 -2.470778E-09
        97  18 -1.189078E+05 -2.750632E+04  4.014229E+03 -6.837000E+04  2.615852E-09 -1.598703E-09
        97  19 -2.119646E+05 -6.140308E+04 -1.690833E+04 -9.394585E+04  1.698844E+03 -5.070854E+03
        97  20 -1.912657E+05 -5.060934E+04 -1.101509E+04 -8.490266E+04  2.828407E+02 -3.680077E+03
        97  21 -1.659750E+05 -4.462942E+04 -5.725438E+03 -8.128408E+04 -1.141182E+03 -2.267680E+03
        97  22 -1.424483E+05 -3.610987E+04 -2.752592E+03 -7.481172E+04  3.955467E+03 -4.224348E+03
        97  23 -1.447435E+05 -3.368487E+04 -1.513842E+03 -7.210706E+04  2.568528E+03 -2.822727E+03
        97  24 -1.424416E+05 -3.606786E+04 -8.555636E+02 -7.482713E+04  1.173605E+03 -1.399480E+03
        97  25 -7.292697E+04 -1.081626E+04  1.140292E+04 -5.567562E+04  6.212362E+03 -3.377742E+03
        97  26 -9.821919E+04 -1.676028E+04  7.987264E+03 -5.931063E+04  4.854390E+03 -1.965313E+03
        97  27 -1.189078E+05 -2.750632E+04  4.014252E+03 -6.837001E+04  3.488469E+03 -5.312521E+02
        98   1 -1.500755E+05 -3.882141E+04 -2.150403E+03 -7.690549E+04  1.637375E+03  1.313902E+03
        98   2 -1.294398E+05 -2.808620E+04  2.719171E+03 -6.784222E+04  2.488085E+03 -3.226656E+02
        98   3 -1.041086E+05 -2.208135E+04  7.433578E+03 -6.419726E+04  3.339251E+03 -1.960375E+03
        98   4 -1.424226E+05 -3.607054E+04 -6.590033E+02 -7.481829E+04 -6.729732E+02  4.473791E+02
        98   5 -1.447706E+05 -3.370895E+04 -4.139007E+02 -7.210763E+04  1.761308E+02 -1.189817E+03
        98   6 -1.424238E+05 -3.607767E+04 -3.228488E+02 -7.481568E+04  1.025681E+03 -2.828153E+03
        98   7 -1.347696E+05 -3.331965E+04  8.324340E+02 -7.273104E+04 -2.983371E+03 -4.191620E+02
        98   8 -1.601012E+05 -3.933170E+04 -3.546979E+03 -7.637296E+04 -2.135772E+03 -2.056948E+03
        98   9 -1.807375E+05 -5.007387E+04 -8.079329E+03 -8.543349E+04 -1.287737E+03 -3.695874E+03
        98  10 -1.500755E+05 -3.882141E+04 -2.150412E+03 -7.690549E+04 -5.298469E-09  2.340199E-09
        98  11 -1.294398E+05 -2.808620E+04  2.719159E+03 -6.784222E+04  5.029572E-09  4.690988E-09
        98  12 -1.041086E+05 -2.208135E+04  7.433550E+03 -6.419725E+04  1.018176E-08  4.438294E-09
        98  13 -1.424226E+05 -3.607054E+04 -6.590045E+02 -7.481829E+04  3.859685E-09  1.346573E-09
        98  14 -1.447706E+05 -3.370895E+04 -4.139035E+02 -7.210763E+04  1.168852E-08  3.980004E-09
        98  15 -1.424238E+05 -3.607768E+04 -3.228658E+02 -7.481567E+04  9.924510E-09  4.087829E-09
        98  16 -1.347696E+05 -3.331965E+04  8.324169E+02 -7.273104E+04  1.199354E-08  2.538048E-10
        98  17 -1.601012E+05 -3.933170E+04 -3.546996E+03 -7.637296E+04  1.212370E-08  3.476485E-09
        98  18 -1.807375E+05 -5.007389E+04 -8.079358E+03 -8.543349E+04  2.699495E-09  3.806681E-09
        98  19 -1.500755E+05 -3.882141E+04 -2.150403E+03 -7.690549E+04 -1.637375E+03 -1.313902E+03
        98  20 -1.294398E+05 -2.808620E+04  2.719171E+03 -6.784222E+04 -2.488085E+03  3.226656E+02
        98  21 -1.041086E+05 -2.208135E+04  7.433578E+03 -6.419726E+04 -3.339251E+03  1.960375E+03
        98  22 -1.424226E+05 -3.607054E+04 -6.590033E+02 -7.481829E+04  6.729732E+02 -4.473791E+02
        98  23 -1.447706E+05 -3.370895E+04 -4.139007E+02 -7.210763E+04 -1.761308E+02  1.189817E+03
        98  24 -1.424238E+05 -3.607767E+04 -3.228488E+02 -7.481568E+04 -1.025681E+03  2.828153E+03
        98  25 -1.347696E+05 -3.331965E+04  8.324340E+02 -7.273104E+04  2.983371E+03  4.191620E+02
        98  26 -1.601012E+05 -3.933170E+04 -3.546979E+03 -7.637296E+04  2.135772E+03  2.056948E+03
        98  27 -1.807375E+05 -5.007387E+04 -8.079329E+03 -8.543349E+04  1.287737E+03  3.695874E+03
        99   1 -8.824108E+04 -1.626173E+04  1.081287E+04 -5.981604E+04  3.767750E+03 -2.939101E+03
        99   2 -6.761129E+04 -5.523011E+03  1.535033E+04 -5.075516E+04  4.610355E+03 -4.579355E+03
        99   3 -4.228559E+04  4.870556E+02  1.973903E+04 -4.711080E+04  5.452265E+03 -6.217406E+03
        99   4 -1.424243E+05 -3.607780E+04 -3.214212E+02 -7.481531E+04  1.454203E+03 -3.806902E+03
        99   5 -1.447720E+05 -3.371183E+04 -4.060090E+02 -7.210766E+04  2.299677E+03 -5.446173E+03
        99   6 -1.424248E+05 -3.607508E+04 -6.416200E+02 -7.481672E+04  3.144452E+03 -7.083249E+03
        99   7 -1.966041E+05 -5.589346E+04 -1.145572E+04 -8.981325E+04 -8.591087E+02 -4.674615E+03
        99   8 -2.219266E+05 -6.190014E+04 -1.616263E+04 -9.345772E+04 -1.069173E+01 -6.312876E+03
        99   9 -2.425545E+05 -7.263666E+04 -2.102297E+04 -1.025187E+05  8.370213E+02 -7.948948E+03
        99  10 -8.824109E+04 -1.626174E+04  1.081282E+04 -5.981603E+04  3.188283E-09  2.778765E-09
        99  11 -6.761131E+04 -5.523040E+03  1.535025E+04 -5.075514E+04  1.214360E-08  1.948564E-09
        99  12 -4.228563E+04  4.870061E+02  1.973890E+04 -4.711078E+04  9.773419E-09 -1.305261E-09
        99  13 -1.424243E+05 -3.607781E+04 -3.214524E+02 -7.481530E+04  9.568660E-09  3.707690E-09
        99  14 -1.447720E+05 -3.371186E+04 -4.060747E+02 -7.210765E+04  8.767025E-09  2.566507E-09
        99  15 -1.424249E+05 -3.607513E+04 -6.417329E+02 -7.481670E+04  8.437843E-09  1.847377E-11
        99  16 -1.966041E+05 -5.589348E+04 -1.145576E+04 -8.981325E+04  7.419032E-09  4.495245E-09
        99  17 -2.219266E+05 -6.190018E+04 -1.616271E+04 -9.345772E+04  2.075876E-09  3.631724E-09
        99  18 -2.425546E+05 -7.263672E+04 -2.102309E+04 -1.025187E+05 -5.454284E-10  7.853015E-10
        99  19 -8.824108E+04 -1.626173E+04  1.081287E+04 -5.981604E+04 -3.767750E+03  2.939101E+03
        99  20 -6.761129E+04 -5.523011E+03  1.535033E+04 -5.075516E+04 -4.610355E+03  4.579355E+03
        99  21 -4.228559E+04  4.870556E+02  1.973903E+04 -4.711080E+04 -5.452265E+03  6.217406E+03
        99  22 -1.424243E+05 -3.607780E+04 -3.214212E+02 -7.481531E+04 -1.454203E+03  3.806902E+03
        99  23 -1.447720E+05 -3.371183E+04 -4.060090E+02 -7.210766E+04 -2.299677E+03  5.446173E+03
        99  24 -1.424248E+05 -3.607508E+04 -6.416200E+02 -7.481672E+04 -3.144452E+03  7.083249E+03
        99  25 -1.966041E+05 -5.589346E+04 -1.145572E+04 -8.981325E+04  8.591087E+02  4.674615E+03
        99  26 -2.219266E+05 -6.190014E+04 -1.616263E+04 -9.345772E+04  1.069173E+01  6.312876E+03
        99  27 -2.425545E+05 -7.263666E+04 -2.102297E+04 -1.025187E+05 -8.370213E+02  7.948948E+03
       100   1 -2.643356E+04  6.298707E+03  2.292539E+04 -4.274854E+04  5.955608E+03 -7.167912E+03
       100   2 -5.768064E+03  1.703865E+04  2.691955E+04 -3.369209E+04  7.283579E+03 -8.609374E+03
       100   3  1.950481E+04  2.298460E+04  3.038441E+04 -3.005403E+04  8.599865E+03 -1.001901E+04
       100   4 -1.424445E+05 -3.607272E+04 -8.315531E+02 -7.482455E+04  3.641617E+03 -8.036156E+03
       100   5 -1.447482E+05 -3.369382E+04 -1.469060E+03 -7.210738E+04  5.012244E+03 -9.461785E+03
       100   6 -1.424534E+05 -3.611752E+04 -2.669707E+03 -7.480889E+04  6.371153E+03 -1.085559E+04
       100   7 -2.584416E+05 -7.844300E+04 -2.458916E+04 -1.068950E+05  1.328091E+03 -8.904225E+03
       100   8 -2.837079E+05 -8.442446E+04 -2.985847E+04 -1.105146E+05  2.741465E+03 -1.031399E+04
       100   9 -3.043833E+05 -9.521694E+04 -3.572478E+04 -1.195526E+05  4.143085E+03 -1.169194E+04
       100  10 -2.643361E+04  6.298643E+03  2.292523E+04 -4.274850E+04  6.845730E-10 -3.475291E-09
       100  11 -5.768141E+03  1.703856E+04  2.691931E+04 -3.369204E+04 -7.236823E-10  3.194272E-10
       100  12  1.950470E+04  2.298447E+04  3.038408E+04 -3.005396E+04 -5.348198E-10  6.960338E-10
       100  13 -1.424445E+05 -3.607279E+04 -8.316994E+02 -7.482452E+04 -1.786805E-09 -9.627421E-10
       100  14 -1.447483E+05 -3.369393E+04 -1.469276E+03 -7.210734E+04 -2.116712E-09  2.170542E-10
       100  15 -1.424535E+05 -3.611766E+04 -2.670004E+03 -7.480884E+04  4.167940E-09  2.872832E-10
       100  16 -2.584416E+05 -7.844308E+04 -2.458931E+04 -1.068950E+05 -1.261585E-09  1.525746E-09
       100  17 -2.837080E+05 -8.442457E+04 -2.985869E+04 -1.105145E+05  1.697296E-09 -2.210602E-11
       100  18 -3.043834E+05 -9.521709E+04 -3.572507E+04 -1.195526E+05  2.100708E-09  1.316991E-09
       100  19 -2.643356E+04  6.298707E+03  2.292539E+04 -4.274854E+04 -5.955608E+03  7.167912E+03
       100  20 -5.768064E+03  1.703865E+04  2.691955E+04 -3.369209E+04 -7.283579E+03  8.609374E+03
       100  21  1.950481E+04  2.298460E+04  3.038441E+04 -3.005403E+04 -8.599865E+03  1.001901E+04
       100  22 -1.424445E+05 -3.607272E+04 -8.315531E+02 -7.482455E+04 -3.641617E+03  8.036156E+03
       100  23 -1.447482E+05 -3.369382E+04 -1.469060E+03 -7.210738E+04 -5.012244E+03  9.461785E+03
       100  24 -1.424534E+05 -3.611752E+04 -2.669707E+03 -7.480889E+04 -6.371153E+03  1.085559E+04
       100  25 -2.584416E+05 -7.844300E+04 -2.458916E+04 -1.068950E+05 -1.328091E+03  8.904225E+03
       100  26 -2.837079E+05 -8.442446E+04 -2.985847E+04 -1.105146E+05 -2.741465E+03  1.031399E+04
       100  27 -3.043833E+05 -9.521694E+04 -3.572478E+04 -1.195526E+05 -4.143085E+03  1.169194E+04
       101   1  3.542341E+04  2.869923E+04  3.288244E+04 -2.598691E+04  9.580123E+03 -1.079667E+04
       101   2  5.594331E+04  3.966885E+04  3.480759E+04 -1.630043E+04  1.271209E+04 -1.131132E+04
       101   3  8.026193E+04  4.440166E+04  3.440893E+04 -1.170000E+04  1.565774E+04 -1.132831E+04
       101   4 -1.425994E+05 -3.602648E+04 -3.543946E+03 -7.490022E+04  7.246795E+03 -1.167263E+04
       101   5 -1.445737E+05 -3.383512E+04 -6.448765E+03 -7.198475E+04  1.104861E+04 -1.193613E+04
       101   6 -1.428832E+05 -3.801413E+04 -1.220888E+04 -7.415594E+04  1.466397E+04 -1.170193E+04
       101   7 -3.205911E+05 -1.007502E+05 -3.997234E+04 -1.238010E+05  4.914168E+03 -1.254833E+04
       101   8 -3.450503E+05 -1.073360E+05 -4.770743E+04 -1.276527E+05  9.385697E+03 -1.256073E+04
       101   9 -3.659774E+05 -1.204256E+05 -5.882939E+04 -1.365911E+05  1.367058E+04 -1.207540E+04
       101  10  3.542328E+04  2.869908E+04  3.288205E+04 -2.598683E+04 -1.831232E-08 -7.871325E-09
       101  11  5.594311E+04  3.966867E+04  3.480705E+04 -1.630032E+04  8.856698E-11 -2.379996E-09
       101  12  8.026163E+04  4.440145E+04  3.440823E+04 -1.169986E+04  1.713568E-08  3.624900E-09
       101  13 -1.425995E+05 -3.602664E+04 -3.544301E+03 -7.490015E+04 -4.592971E-11 -1.610113E-10
       101  14 -1.445739E+05 -3.383531E+04 -6.449262E+03 -7.198465E+04 -1.951859E-09 -3.552243E-09
       101  15 -1.428834E+05 -3.801434E+04 -1.220954E+04 -7.415580E+04 -1.319663E-08 -6.523230E-09
       101  16 -3.205912E+05 -1.007503E+05 -3.997268E+04 -1.238010E+05  1.617346E-08  8.324490E-09
       101  17 -3.450504E+05 -1.073362E+05 -4.770789E+04 -1.276526E+05 -1.190914E-08 -3.543196E-09
       101  18 -3.659776E+05 -1.204258E+05 -5.883002E+04 -1.365910E+05 -3.756769E-08 -1.707227E-08
       101  19  3.542341E+04  2.869923E+04  3.288244E+04 -2.598691E+04 -9.580123E+03  1.079667E+04
       101  20  5.594331E+04  3.966885E+04  3.480759E+04 -1.630043E+04 -1.271209E+04  1.131132E+04
       101  21  8.026193E+04  4.440166E+04  3.440893E+04 -1.170000E+04 -1.565774E+04  1.132831E+04
       101  22 -1.425994E+05 -3.602648E+04 -3.543946E+03 -7.490022E+04 -7.246795E+03  1.167263E+04
       101  23 -1.445737E+05 -3.383512E+04 -6.448765E+03 -7.198475E+04 -1.104861E+04  1.193613E+04
       101  24 -1.428832E+05 -3.801413E+04 -1.220888E+04 -7.415594E+04 -1.466397E+04  1.170193E+04
       101  25 -3.205911E+05 -1.007502E+05 -3.997234E+04 -1.238010E+05 -4.914168E+03  1.254833E+04
       101  26 -3.450503E+05 -1.073360E+05 -4.770743E+04 -1.276527E+05 -9.385697E+03  1.256073E+04
       101  27 -3.659774E+05 -1.204256E+05 -5.882939E+04 -1.365911E+05 -1.367058E+04  1.207540E+04
       102   1  9.872942E+04  4.820162E+04  3.405538E+04 -1.389795E+04  1.959609E+04 -1.110677E+04
       102   2  1.103921E+05  6.535330E+04  2.841187E+04  1.392044E+04  2.381417E+04 -7.273139E+03
       102   3  1.122712E+05  4.231827E+04  9.239898E+03  4.624980E+04  2.506905E+04  4.451287E+03
       102   4 -1.449026E+05 -3.578671E+04 -1.591506E+04 -7.585820E+04  1.693088E+04 -1.210782E+04
       102   5 -1.425502E+05 -4.010942E+04 -2.960847E+04 -6.855119E+04  3.178462E+04 -4.281449E+03
       102   6 -1.520949E+05 -8.673666E+04 -6.526155E+04 -5.673269E+04  4.367414E+04  1.143676E+04
       102   7 -3.884736E+05 -1.197717E+05 -6.588844E+04 -1.377967E+05  1.426681E+04 -1.310850E+04
       102   8 -3.954241E+05 -1.455606E+05 -8.763186E+04 -1.509892E+05  3.975147E+04 -1.291507E+03
       102   9 -4.163839E+05 -2.157685E+05 -1.397661E+05 -1.596682E+05  6.227017E+04  1.841658E+04
       102  10  9.872898E+04  4.820138E+04  3.405443E+04 -1.389777E+04 -1.573834E-08 -6.793183E-09
       102  11  1.103915E+05  6.535309E+04  2.841070E+04  1.392058E+04 -7.177383E-09 -2.069945E-09
       102  12  1.122706E+05  4.231808E+04  9.238680E+03  4.624971E+04 -1.494058E-09  7.320502E-10
       102  13 -1.449029E+05 -3.578695E+04 -1.591587E+04 -7.585804E+04 -8.762009E-09 -6.240191E-09
       102  14 -1.425513E+05 -4.010971E+04 -2.961040E+04 -6.855108E+04 -8.412642E-09 -6.327500E-10
       102  15 -1.520970E+05 -8.673731E+04 -6.526538E+04 -5.673309E+04  1.745399E-10  1.051353E-09
       102  16 -3.884739E+05 -1.197719E+05 -6.588914E+04 -1.377966E+05 -1.073987E-08 -4.887304E-09
       102  17 -3.954258E+05 -1.455610E+05 -8.763483E+04 -1.509892E+05 -6.567983E-09 -1.607122E-09
       102  18 -4.163882E+05 -2.157699E+05 -1.397741E+05 -1.596692E+05 -1.255459E-09 -2.827831E-10
       102  19  9.872942E+04  4.820162E+04  3.405538E+04 -1.389795E+04 -1.959609E+04  1.110677E+04
       102  20  1.103921E+05  6.535330E+04  2.841187E+04  1.392044E+04 -2.381417E+04  7.273139E+03
       102  21  1.122712E+05  4.231827E+04  9.239898E+03  4.624980E+04 -2.506905E+04 -4.451287E+03
       102  22 -1.449026E+05 -3.578671E+04 -1.591506E+04 -7.585820E+04 -1.693088E+04  1.210782E+04
       102  23 -1.425502E+05 -4.010942E+04 -2.960847E+04 -6.855119E+04 -3.178462E+04  4.281449E+03
       102  24 -1.520949E+05 -8.673666E+04 -6.526155E+04 -5.673269E+04 -4.367414E+04 -1.143676E+04
       102  25 -3.884736E+05 -1.197717E+05 -6.588844E+04 -1.377967E+05 -1.426681E+04  1.310850E+04
       102  26 -3.954241E+05 -1.455606E+05 -8.763186E+04 -1.509892E+05 -3.975147E+04  1.291507E+03
       102  27 -4.163839E+05 -2.157685E+05 -1.397661E+05 -1.596682E+05 -6.227017E+04 -1.841658E+04
       103   1  8.013234E+05  1.290039E+05  1.148022E+05  1.242778E+04  3.174941E+04 -9.822197E+03
       103   2  7.673634E+05  1.445318E+05  9.732013E+04  2.490268E+04  1.248681E+04 -3.386315E+04
       103   3  7.319809E+05  1.442397E+05  8.843053E+04  4.253204E+04 -6.783042E+03 -4.272238E+04
       103   4  9.286763E+04 -4.528871E+04 -4.882797E+04  4.200310E+04 -3.431107E+04 -9.871300E+03
       103   5  9.634063E+04 -1.389816E+04 -2.429798E+04  3.940692E+04 -2.184491E+04 -3.389525E+04
       103   6  9.288004E+04 -3.843983E+03 -1.320043E+04  4.196501E+04 -9.387382E+03 -4.272900E+04
       103   7 -6.151133E+05 -2.196109E+05 -2.124747E+05  7.154436E+04 -1.002968E+05 -9.926723E+03
       103   8 -5.742414E+05 -1.723519E+05 -1.459294E+05  5.389497E+04 -5.614057E+04 -3.392897E+04
       103   9 -5.458148E+05 -1.519480E+05 -1.148418E+05  4.139849E+04 -1.198914E+04 -4.273562E+04
       103  10  8.013223E+05  1.290035E+05  1.148001E+05  1.242803E+04  1.803936E-09  1.151641E-10
       103  11  7.673629E+05  1.445305E+05  9.731768E+04  2.490302E+04 -1.827156E-09 -5.050057E-10
       103  12  7.319804E+05  1.442377E+05  8.842701E+04  4.253180E+04 -2.080440E-10 -4.531517E-10
       103  13  9.286634E+04 -4.528914E+04 -4.883037E+04  4.200283E+04 -1.915044E-09  4.129868E-10
       103  14  9.633981E+04 -1.389952E+04 -2.430104E+04  3.940632E+04 -1.080565E-09 -1.270633E-09
       103  15  9.287946E+04 -3.845967E+03 -1.320403E+04  4.196469E+04  4.123041E-10  3.068824E-10
       103  16 -6.151242E+05 -2.196137E+05 -2.124938E+05  7.154356E+04 -4.043006E-09 -4.831297E-10
       103  17 -5.742451E+05 -1.723540E+05 -1.459375E+05  5.389344E+04 -2.848102E-09 -3.965241E-09
       103  18 -5.458154E+05 -1.519500E+05 -1.148456E+05  4.139808E+04  1.892026E-09 -2.886969E-09
       103  19  8.013234E+05  1.290039E+05  1.148022E+05  1.242778E+04 -3.174941E+04  9.822197E+03
       103  20  7.673634E+05  1.445318E+05  9.732013E+04  2.490268E+04 -1.248681E+04  3.386315E+04
       103  21  7.319809E+05  1.442397E+05  8.843053E+04  4.253204E+04  6.783042E+03  4.272238E+04
       103  22  9.286763E+04 -4.528871E+04 -4.882797E+04  4.200310E+04  3.431107E+04  9.871300E+03
       103  23  9.634063E+04 -1.389816E+04 -2.429798E+04  3.940692E+04  2.184491E+04  3.389525E+04
       103  24  9.288004E+04 -3.843983E+03 -1.320043E+04  4.196501E+04  9.387382E+03  4.272900E+04
       103  25 -6.151133E+05 -2.196109E+05 -2.124747E+05  7.154436E+04  1.002968E+05  9.926723E+03
       103  26 -5.742414E+05 -1.723519E+05 -1.459294E+05  5.389497E+04  5.614057E+04  3.392897E+04
       103  27 -5.458148E+05 -1.519480E+05 -1.148418E+05  4.139849E+04  1.198914E+04  4.273562E+04
       104   1  7.107417E+05  1.392957E+05  8.583836E+04  4.105848E+04 -5.015104E+03 -4.288792E+04
       104   2  6.762732E+05  1.327915E+05  8.112161E+04  3.887947E+04 -6.021652E+03 -4.327769E+04
       104   3  6.416971E+05  1.252979E+05  7.681623E+04  4.293263E+04 -7.030445E+03 -4.189176E+04
       104   4  9.425872E+04 -3.088480E+03 -9.914665E+03  4.220717E+04 -7.677323E+03 -4.289468E+04
       104   5  9.464135E+04 -7.836215E+02 -5.398137E+03  3.908915E+04 -4.974758E+03 -4.328052E+04
       104   6  9.427180E+04 -1.122601E+02 -3.045374E+03  4.220371E+04 -2.274427E+03 -4.188980E+04
       104   7 -5.218451E+05 -1.454912E+05 -1.056765E+05  4.335456E+04 -1.033700E+04 -4.290146E+04
       104   8 -4.866507E+05 -1.343746E+05 -9.192426E+04  3.929853E+04 -3.928803E+03 -4.328335E+04
       104   9 -4.528516E+05 -1.255363E+05 -8.291196E+04  4.147535E+04  2.477576E+03 -4.188785E+04
       104  10  7.107412E+05  1.392937E+05  8.583486E+04  4.105831E+04 -4.521652E-09 -1.605715E-09
       104  11  6.762726E+05  1.327895E+05  8.111802E+04  3.887926E+04 -2.120376E-10  6.316847E-10
       104  12  6.416965E+05  1.252960E+05  7.681284E+04  4.293240E+04 -5.503118E-09  1.984617E-09
       104  13  9.425816E+04 -3.090472E+03 -9.918234E+03  4.220690E+04 -4.057132E-09 -8.295719E-10
       104  14  9.464082E+04 -7.856397E+02 -5.401703E+03  3.908898E+04  1.074987E-09 -1.082837E-11
       104  15  9.427132E+04 -1.141459E+02 -3.048681E+03  4.220363E+04 -2.761282E-09 -9.124469E-10
       104  16 -5.218457E+05 -1.454932E+05 -1.056802E+05  4.335421E+04 -4.320112E-11  3.751303E-10
       104  17 -4.866513E+05 -1.343767E+05 -9.192781E+04  3.929840E+04 -1.630305E-09  5.242383E-10
       104  18 -4.528521E+05 -1.255382E+05 -8.291527E+04  4.147544E+04  4.101517E-11 -5.316582E-10
       104  19  7.107417E+05  1.392957E+05  8.583836E+04  4.105848E+04  5.015104E+03  4.288792E+04
       104  20  6.762732E+05  1.327915E+05  8.112161E+04  3.887947E+04  6.021652E+03  4.327769E+04
       104  21  6.416971E+05  1.252979E+05  7.681623E+04  4.293263E+04  7.030445E+03  4.189176E+04
       104  22  9.425872E+04 -3.088480E+03 -9.914665E+03  4.220717E+04  7.677323E+03  4.289468E+04
       104  23  9.464135E+04 -7.836215E+02 -5.398137E+03  3.908915E+04  4.974758E+03  4.328052E+04
       104  24  9.427180E+04 -1.122601E+02 -3.045374E+03  4.220371E+04  2.274427E+03  4.188980E+04
       104  25 -5.218451E+05 -1.454912E+05 -1.056765E+05  4.335456E+04  1.033700E+04  4.290146E+04
       104  26 -4.866507E+05 -1.343746E+05 -9.192426E+04  3.929853E+04  3.928803E+03  4.328335E+04
       104  27 -4.528516E+05 -1.255363E+05 -8.291196E+04  4.147535E+04 -2.477576E+03  4.188785E+04
       105   1  6.200762E+05  1.202745E+05  7.401030E+04  4.277935E+04 -6.566228E+03 -4.050174E+04
       105   2  5.856037E+05  1.124312E+05  6.961614E+04  3.960437E+04 -6.356553E+03 -3.812613E+04
       105   3  5.510961E+05  1.045620E+05  6.507867E+04  4.278241E+04 -6.147889E+03 -3.554317E+04
       105   4  9.441854E+04 -7.522726E+01 -2.302529E+03  4.223084E+04 -1.817923E+03 -4.049931E+04
       105   5  9.448004E+04  6.271686E+01 -1.298954E+03  3.905407E+04 -1.175542E+03 -3.812241E+04
       105   6  9.442997E+04  9.957781E+01 -7.393325E+02  4.223060E+04 -5.341606E+02 -3.553807E+04
       105   7 -4.309606E+05 -1.204377E+05 -7.861981E+04  4.168272E+04  2.926534E+03 -4.049690E+04
       105   8 -3.964003E+05 -1.123168E+05 -7.221777E+04  3.850413E+04  4.001547E+03 -3.811869E+04
       105   9 -3.620257E+05 -1.043723E+05 -6.656049E+04  4.167914E+04  5.075616E+03 -3.553297E+04
       105  10  6.200757E+05  1.202727E+05  7.400714E+04  4.277914E+04 -7.245960E-09  3.875898E-09
       105  11  5.856033E+05  1.124297E+05  6.961333E+04  3.960417E+04 -3.224594E-09  3.911090E-09
       105  12  5.510957E+05  1.045606E+05  6.507622E+04  4.278223E+04  2.138171E-09  3.028836E-10
       105  13  9.441810E+04 -7.698951E+01 -2.305618E+03  4.223078E+04 -1.913596E-09 -4.624640E-10
       105  14  9.447965E+04  6.115581E+01 -1.301687E+03  3.905403E+04  1.067295E-09  3.801437E-09
       105  15  9.442963E+04  9.822148E+01 -7.417065E+02  4.223059E+04  7.410287E-09  3.139339E-09
       105  16 -4.309610E+05 -1.204394E+05 -7.862291E+04  4.168282E+04  4.131245E-09  1.047600E-09
       105  17 -3.964007E+05 -1.123184E+05 -7.222053E+04  3.850426E+04  4.047184E-10  3.469696E-09
       105  18 -3.620261E+05 -1.043737E+05 -6.656291E+04  4.167929E+04  2.062118E-09  1.208417E-09
       105  19  6.200762E+05  1.202745E+05  7.401030E+04  4.277935E+04  6.566228E+03  4.050174E+04
       105  20  5.856037E+05  1.124312E+05  6.961614E+04  3.960437E+04  6.356553E+03  3.812613E+04
       105  21  5.510961E+05  1.045620E+05  6.507867E+04  4.278241E+04  6.147889E+03  3.554317E+04
       105  22  9.441854E+04 -7.522726E+01 -2.302529E+03  4.223084E+04  1.817923E+03  4.049931E+04
       105  23  9.448004E+04  6.271686E+01 -1.298954E+03  3.905407E+04  1.175542E+03  3.812241E+04
       105  24  9.442997E+04  9.957781E+01 -7.393325E+02  4.223060E+04  5.341606E+02  3.553807E+04
       105  25 -4.309606E+05 -1.204377E+05 -7.861981E+04  4.168272E+04 -2.926534E+03  4.049690E+04
       105  26 -3.964003E+05 -1.123168E+05 -7.221777E+04  3.850413E+04 -4.001547E+03  3.811869E+04
       105  27 -3.620257E+05 -1.043723E+05 -6.656049E+04  4.167914E+04 -5.075616E+03  3.553297E+04
       106   1  5.294604E+05  9.957884E+04  6.198478E+04  4.274984E+04 -6.031639E+03 -3.397198E+04
       106   2  4.949964E+05  9.169587E+04  5.728244E+04  3.953308E+04 -5.929651E+03 -3.127406E+04
       106   3  4.605151E+05  8.383514E+04  5.251621E+04  4.267998E+04 -5.828347E+03 -2.855219E+04
       106   4  9.445228E+04  1.002850E+02 -5.581301E+02  4.223299E+04 -4.194617E+02 -3.396644E+04
       106   5  9.447076E+04  9.912644E+01 -3.128318E+02  3.905104E+04 -2.677373E+02 -3.126776E+04
       106   6  9.446165E+04  1.114539E+02 -1.662563E+02  4.223298E+04 -1.166913E+02 -2.854513E+04
       106   7 -3.403648E+05 -9.938689E+04 -6.310384E+04  4.171645E+04  5.188953E+03 -3.396090E+04
       106   8 -3.058929E+05 -9.150492E+04 -5.791047E+04  3.856926E+04  5.390681E+03 -3.126146E+04
       106   9 -2.714565E+05 -8.361833E+04 -5.285068E+04  4.178620E+04  5.591741E+03 -2.853807E+04
       106  10  5.294601E+05  9.957760E+04  6.198254E+04  4.274967E+04  1.402518E-08 -2.103086E-09
       106  11  4.949961E+05  9.169481E+04  5.728054E+04  3.953293E+04 -2.492932E-08  3.246471E-10
       106  12  4.605149E+05  8.383426E+04  5.251461E+04  4.267985E+04 -5.677145E-08  2.368542E-09
       106  13  9.445197E+04  9.904598E+01 -5.602986E+02  4.223298E+04  4.663529E-09 -1.151643E-09
       106  14  9.447049E+04  9.807652E+01 -3.146692E+02  3.905103E+04  5.453800E-09  1.040373E-09
       106  15  9.446143E+04  1.105789E+02 -1.677876E+02  4.223298E+04  2.618985E-09  2.588999E-10
       106  16 -3.403652E+05 -9.938813E+04 -6.310606E+04  4.171659E+04 -1.410109E-08 -7.053519E-10
       106  17 -3.058932E+05 -9.150598E+04 -5.791236E+04  3.856940E+04  2.014247E-08 -1.041564E-09
       106  18 -2.714568E+05 -8.361921E+04 -5.285227E+04  4.178633E+04  6.022847E-08 -3.160823E-10
       106  19  5.294604E+05  9.957884E+04  6.198478E+04  4.274984E+04  6.031639E+03  3.397198E+04
       106  20  4.949964E+05  9.169587E+04  5.728244E+04  3.953308E+04  5.929651E+03  3.127406E+04
       106  21  4.605151E+05  8.383514E+04  5.251621E+04  4.267998E+04  5.828347E+03  2.855219E+04
       106  22  9.445228E+04  1.002850E+02 -5.581301E+02  4.223299E+04  4.194617E+02  3.396644E+04
       106  23  9.447076E+04  9.912644E+01 -3.128318E+02  3.905104E+04  2.677373E+02  3.126776E+04
       106  24  9.446165E+04  1.114539E+02 -1.662563E+02  4.223298E+04  1.166913E+02  2.854513E+04
       106  25 -3.403648E+05 -9.938689E+04 -6.310384E+04  4.171645E+04 -5.188953E+03  3.396090E+04
       106  26 -3.058929E+05 -9.150492E+04 -5.791047E+04  3.856926E+04 -5.390681E+03  3.126146E+04
       106  27 -2.714565E+05 -8.361833E+04 -5.285068E+04  4.178620E+04 -5.591741E+03  2.853807E+04
       107   1  4.388833E+05  7.886346E+04  4.932439E+04  4.265907E+04 -5.804013E+03 -2.696031E+04
       107   2  4.044305E+05  7.098897E+04  4.450858E+04  3.944203E+04 -5.793775E+03 -2.422559E+04
       107   3  3.699649E+05  6.313736E+04  3.968634E+04  4.259127E+04 -5.784041E+03 -2.148854E+04
       107   4  9.446749E+04  1.134726E+02 -1.157034E+02  4.223356E+04 -9.307637E+01 -2.695289E+04
       107   5  9.447829E+04  1.069790E+02 -3.778173E+01  3.905032E+04 -7.811328E+01 -2.421762E+04
       107   6  9.447475E+04  1.227155E+02  3.050332E+01  4.223355E+04 -6.365400E+01 -2.148004E+04
       107   7 -2.498285E+05 -7.864190E+04 -4.955749E+04  4.180824E+04  5.614829E+03 -2.694547E+04
       107   8 -2.153769E+05 -7.077937E+04 -4.458550E+04  3.865878E+04  5.634818E+03 -2.420966E+04
       107   9 -1.809387E+05 -6.289537E+04 -3.962639E+04  4.187597E+04  5.654303E+03 -2.147154E+04
       107  10  4.388830E+05  7.886267E+04  4.932296E+04  4.265895E+04  1.237838E-07  1.991601E-09
       107  11  4.044303E+05  7.098833E+04  4.450741E+04  3.944191E+04  2.428094E-08  8.933587E-10
       107  12  3.699647E+05  6.313685E+04  3.968541E+04  4.259117E+04 -7.823415E-08 -8.285428E-10
       107  13  9.446730E+04  1.126924E+02 -1.170686E+02  4.223356E+04  4.576699E-10  4.962137E-09
       107  14  9.447814E+04  1.063492E+02 -3.888393E+01  3.905032E+04  8.685835E-09  1.065675E-09
       107  15  9.447462E+04  1.222200E+02  2.963623E+01  4.223355E+04 -7.526480E-10 -1.921982E-09
       107  16 -2.498287E+05 -7.864269E+04 -4.955891E+04  4.180836E+04 -1.249588E-07  2.271667E-09
       107  17 -2.153771E+05 -7.078001E+04 -4.458666E+04  3.865889E+04 -2.470369E-08 -1.896180E-09
       107  18 -1.809389E+05 -6.289588E+04 -3.962732E+04  4.187607E+04  7.895717E-08 -2.034271E-09
       107  19  4.388833E+05  7.886346E+04  4.932439E+04  4.265907E+04  5.804013E+03  2.696031E+04
       107  20  4.044305E+05  7.098897E+04  4.450858E+04  3.944203E+04  5.793775E+03  2.422559E+04
       107  21  3.699649E+05  6.313736E+04  3.968634E+04  4.259127E+04  5.784041E+03  2.148854E+04
       107  22  9.446749E+04  1.134726E+02 -1.157034E+02  4.223356E+04  9.307637E+01  2.695289E+04
       107  23  9.447829E+04  1.069790E+02 -3.778173E+01  3.905032E+04  7.811328E+01  2.421762E+04
       107  24  9.447475E+04  1.227155E+02  3.050332E+01  4.223355E+04  6.365400E+01  2.148004E+04
       107  25 -2.498285E+05 -7.864190E+04 -4.955749E+04  4.180824E+04 -5.614829E+03  2.694547E+04
       107  26 -2.153769E+05 -7.077937E+04 -4.458550E+04  3.865878E+04 -5.634818E+03  2.420966E+04
       107  27 -1.809387E+05 -6.289537E+04 -3.962639E+04  4.187597E+04 -5.654303E+03  2.147154E+04
       108   1  3.483417E+05  5.816810E+04  3.648398E+04  4.257000E+04 -5.794472E+03 -1.989479E+04
       108   2  3.138936E+05  5.029865E+04  3.168607E+04  3.934678E+04 -5.872387E+03 -1.715765E+04
       108   3  2.794433E+05  4.246685E+04  2.694136E+04  4.248725E+04 -5.950650E+03 -1.442237E+04
       108   4  9.447949E+04  1.247914E+02  6.610705E+01  4.223297E+04 -7.456632E+01 -1.988602E+04
       108   5  9.448342E+04  1.207671E+02  1.566153E+02  3.905104E+04 -1.564771E+02 -1.714851E+04
       108   6  9.448462E+04  1.551101E+02  3.030116E+02  4.223293E+04 -2.387394E+02 -1.441285E+04
       108   7 -1.593176E+05 -5.792143E+04 -3.635263E+04  4.189605E+04  5.643101E+03 -1.987725E+04
       108   8 -1.248781E+05 -5.005929E+04 -3.137346E+04  3.875538E+04  5.557499E+03 -1.713937E+04
       108   9 -9.043948E+04 -4.215817E+04 -2.633574E+04  4.197867E+04  5.471542E+03 -1.440334E+04
       108  10  3.483416E+05  5.816767E+04  3.648318E+04  4.256991E+04  1.621435E-10  1.381811E-09
       108  11  3.138935E+05  5.029833E+04  3.168545E+04  3.934670E+04  3.578927E-09 -1.500297E-09
       108  12  2.794432E+05  4.246662E+04  2.694090E+04  4.248718E+04 -7.255066E-10 -3.324278E-10
       108  13  9.447938E+04  1.243667E+02  6.536387E+01  4.223297E+04  4.272520E-10  2.143082E-10
       108  14  9.448334E+04  1.204513E+02  1.560626E+02  3.905103E+04 -4.308676E-09  7.935170E-10
       108  15  9.448457E+04  1.548870E+02  3.026211E+02  4.223292E+04 -2.592789E-09  9.611200E-10
       108  16 -1.593177E+05 -5.792187E+04 -3.635343E+04  4.189614E+04  4.171560E-09  8.079090E-10
       108  17 -1.248782E+05 -5.005962E+04 -3.137407E+04  3.875546E+04 -7.387328E-10 -4.334944E-09
       108  18 -9.043957E+04 -4.215840E+04 -2.633619E+04  4.197873E+04  2.271960E-09  1.234954E-10
       108  19  3.483417E+05  5.816810E+04  3.648398E+04  4.257000E+04  5.794472E+03  1.989479E+04
       108  20  3.138936E+05  5.029865E+04  3.168607E+04  3.934678E+04  5.872387E+03  1.715765E+04
       108  21  2.794433E+05  4.246685E+04  2.694136E+04  4.248725E+04  5.950650E+03  1.442237E+04
       108  22  9.447949E+04  1.247914E+02  6.610705E+01  4.223297E+04  7.456632E+01  1.988602E+04
       108  23  9.448342E+04  1.207671E+02  1.566153E+02  3.905104E+04  1.564771E+02  1.714851E+04
       108  24  9.448462E+04  1.551101E+02  3.030116E+02  4.223293E+04  2.387394E+02  1.441285E+04
       108  25 -1.593176E+05 -5.792143E+04 -3.635263E+04  4.189605E+04 -5.643101E+03  1.987725E+04
       108  26 -1.248781E+05 -5.005929E+04 -3.137346E+04  3.875538E+04 -5.557499E+03  1.713937E+04
       108  27 -9.043948E+04 -4.215817E+04 -2.633574E+04  4.197867E+04 -5.471542E+03  1.440334E+04
       109   1  2.578416E+05  3.750211E+04  2.380605E+04  4.248390E+04 -6.013662E+03 -1.283038E+04
       109   2  2.233605E+05  2.971565E+04  1.922854E+04  3.913160E+04 -6.348552E+03 -1.010494E+04
       109   3  1.889590E+05  2.217112E+04  1.492167E+04  4.214009E+04 -6.683599E+03 -7.396528E+03
       109   4  9.450531E+04  1.612996E+02  4.071843E+02  4.223234E+04 -3.020158E+02 -1.282069E+04
       109   5  9.446481E+04  2.420025E+02  7.316654E+02  3.905156E+04 -6.726054E+02 -1.009509E+04
       109   6  9.450830E+04  5.707384E+02  1.351338E+03  4.223163E+04 -1.043369E+03 -7.386523E+03
       109   7 -6.880401E+04 -3.718070E+04 -2.299196E+04  4.198083E+04  5.408192E+03 -1.281100E+04
       109   8 -3.441407E+04 -2.923238E+04 -1.776535E+04  3.897153E+04  5.002213E+03 -1.008524E+04
       109   9  6.667686E+01 -2.103003E+04 -1.221901E+04  4.232316E+04  4.596041E+03 -7.376515E+03
       109  10  2.578416E+05  3.750192E+04  2.380567E+04  4.248384E+04 -6.026551E-09  2.690617E-09
       109  11  2.233605E+05  2.971553E+04  1.922828E+04  3.913155E+04 -2.522285E-09  3.073245E-10
       109  12  1.889589E+05  2.217105E+04  1.492149E+04  4.214005E+04  3.533332E-09  4.219831E-09
       109  13  9.450527E+04  1.611230E+02  4.068752E+02  4.223233E+04 -3.854145E-09  1.898487E-09
       109  14  9.446478E+04  2.418929E+02  7.314731E+02  3.905156E+04 -2.156156E-09  2.715351E-09
       109  15  9.450828E+04  5.706795E+02  1.351234E+03  4.223163E+04  6.617080E-10  1.068751E-09
       109  16 -6.880408E+04 -3.718089E+04 -2.299232E+04  4.198088E+04  3.905422E-09  2.034639E-09
       109  17 -3.441413E+04 -2.923250E+04 -1.776558E+04  3.897157E+04 -5.950610E-10  3.578841E-11
       109  18  6.663956E+01 -2.103009E+04 -1.221916E+04  4.232318E+04 -2.374777E-09 -4.398821E-09
       109  19  2.578416E+05  3.750211E+04  2.380605E+04  4.248390E+04  6.013662E+03  1.283038E+04
       109  20  2.233605E+05  2.971565E+04  1.922854E+04  3.913160E+04  6.348552E+03  1.010494E+04
       109  21  1.889590E+05  2.217112E+04  1.492167E+04  4.214009E+04  6.683599E+03  7.396528E+03
       109  22  9.450531E+04  1.612996E+02  4.071843E+02  4.223234E+04  3.020158E+02  1.282069E+04
       109  23  9.446481E+04  2.420025E+02  7.316654E+02  3.905156E+04  6.726054E+02  1.009509E+04
       109  24  9.450830E+04  5.707384E+02  1.351338E+03  4.223163E+04  1.043369E+03  7.386523E+03
       109  25 -6.880401E+04 -3.718070E+04 -2.299196E+04  4.198083E+04 -5.408192E+03  1.281100E+04
       109  26 -3.441407E+04 -2.923238E+04 -1.776535E+04  3.897153E+04 -5.002213E+03  1.008524E+04
       109  27  6.667686E+01 -2.103003E+04 -1.221901E+04  4.232316E+04 -4.596041E+03  7.376515E+03
       110   1  1.675202E+05  1.729847E+04  1.210973E+04  4.234434E+04 -6.919770E+03 -5.819772E+03
       110   2  1.326505E+05  1.076588E+04  8.596972E+03  3.706252E+04 -8.319704E+03 -3.193898E+03
       110   3  9.865844E+04  7.123167E+03  6.709522E+03  3.812826E+04 -9.719408E+03 -7.130066E+02
       110   4  9.469688E+04  6.740076E+02  1.800872E+03  4.222954E+04 -1.279237E+03 -5.809680E+03
       110   5  9.423245E+04  2.035940E+03  3.316736E+03  3.905079E+04 -2.982012E+03 -3.184313E+03
       110   6  9.469753E+04  6.340519E+03  6.668244E+03  4.221953E+04 -4.684628E+03 -7.039444E+02
       110   7  2.187901E+04 -1.595067E+04 -8.507939E+03  4.211475E+04  4.360664E+03 -5.799589E+03
       110   8  5.581602E+04 -6.694038E+03 -1.963408E+03  4.103893E+04  2.355364E+03 -3.174694E+03
       110   9  9.073673E+04  5.557948E+03  6.627072E+03  4.631078E+04  3.501228E+02 -6.948158E+02
       110  10  1.675201E+05  1.729842E+04  1.210957E+04  4.234431E+04  1.652839E-09  4.096318E-09
       110  11  1.326504E+05  1.076585E+04  8.596823E+03  3.706250E+04 -6.180113E-10 -1.902932E-09
       110  12  9.865834E+04  7.123141E+03  6.709343E+03  3.812825E+04  8.044774E-10 -2.816522E-10
       110  13  9.469687E+04  6.739709E+02  1.800805E+03  4.222953E+04  2.683191E-09  3.450330E-09
       110  14  9.423244E+04  2.035927E+03  3.316700E+03  3.905079E+04 -6.416527E-11 -3.558465E-09
       110  15  9.469751E+04  6.340513E+03  6.668202E+03  4.221953E+04 -3.575309E-09  2.029777E-09
       110  16  2.187898E+04 -1.595071E+04 -8.508038E+03  4.211477E+04 -5.152469E-10  3.275960E-10
       110  17  5.581601E+04 -6.694050E+03 -1.963437E+03  4.103894E+04  2.968680E-09 -2.644734E-10
       110  18  9.073673E+04  5.557948E+03  6.627070E+03  4.631078E+04  2.643468E-10 -8.741646E-10
       110  19  1.675202E+05  1.729847E+04  1.210973E+04  4.234434E+04  6.919770E+03  5.819772E+03
       110  20  1.326505E+05  1.076588E+04  8.596972E+03  3.706252E+04  8.319704E+03  3.193898E+03
       110  21  9.865844E+04  7.123167E+03  6.709522E+03  3.812826E+04  9.719408E+03  7.130066E+02
       110  22  9.469688E+04  6.740076E+02  1.800872E+03  4.222954E+04  1.279237E+03  5.809680E+03
       110  23  9.423245E+04  2.035940E+03  3.316736E+03  3.905079E+04  2.982012E+03  3.184313E+03
       110  24  9.469753E+04  6.340519E+03  6.668244E+03  4.221953E+04  4.684628E+03  7.039444E+02
       110  25  2.187901E+04 -1.595067E+04 -8.507939E+03  4.211475E+04 -4.360664E+03  5.799589E+03
       110  26  5.581602E+04 -6.694038E+03 -1.963408E+03  4.103893E+04 -2.355364E+03  3.174694E+03
       110  27  9.073673E+04  5.557948E+03  6.627072E+03  4.631078E+04 -3.501228E+02  6.948158E+02
       111   1  1.114458E+04  3.769205E+05  1.207646E+04 -2.607238E+04 -5.729960E+01  2.887576E+03
       111   2  2.402423E+02  3.509284E+05  3.862141E+03 -2.085987E+04 -7.170961E+02 -2.082877E+02
       111   3 -6.646109E+03  3.263329E+05 -1.335627E+03 -2.229859E+04 -2.108143E+03 -3.304538E+03
       111   4  5.569992E+03  3.546778E+05  6.465130E+03 -2.268819E+04 -5.758066E+01  3.314448E+03
       111   5  8.886042E+02  3.540714E+05  3.974645E+03 -1.936446E+04 -7.181198E+02  1.272051E+03
       111   6  4.252798E+01  3.546786E+05  3.769617E+03 -2.269191E+04 -2.109890E+03 -7.708365E+02
       111   7 -4.592001E+00  3.324356E+05  8.537712E+02 -1.930412E+04 -5.785708E+01  3.741306E+03
       111   8  1.536976E+03  3.572144E+05  4.087160E+03 -1.786904E+04 -7.191363E+02  2.752398E+03
       111   9  6.731124E+03  3.830250E+05  8.874853E+03 -2.308524E+04 -2.111640E+03  1.762977E+03
       111  10  1.114458E+04  3.769205E+05  1.207644E+04 -2.607238E+04  2.698883E-09 -2.046491E-08
       111  11  2.402417E+02  3.509284E+05  3.862140E+03 -2.085987E+04  1.922565E-09 -1.025422E-09
       111  12 -6.646116E+03  3.263329E+05 -1.335656E+03 -2.229860E+04  1.474791E-09  2.275740E-08
       111  13  5.569989E+03  3.546778E+05  6.465109E+03 -2.268819E+04 -3.166576E-10 -6.963121E-10
       111  14  8.886032E+02  3.540714E+05  3.974641E+03 -1.936445E+04  2.692918E-09 -1.368066E-09
       111  15  4.252304E+01  3.546786E+05  3.769607E+03 -2.269191E+04 -8.198096E-10  2.690235E-11
       111  16 -4.595760E+00  3.324356E+05  8.537449E+02 -1.930412E+04  1.601370E-09  2.113163E-08
       111  17  1.536973E+03  3.572144E+05  4.087144E+03 -1.786903E+04  6.073543E-11 -1.259796E-09
       111  18  6.731118E+03  3.830250E+05  8.874838E+03 -2.308524E+04 -2.629725E-09 -2.232823E-08
       111  19  1.114458E+04  3.769205E+05  1.207646E+04 -2.607238E+04  5.729960E+01 -2.887576E+03
       111  20  2.402423E+02  3.509284E+05  3.862141E+03 -2.085987E+04  7.170961E+02  2.082877E+02
       111  21 -6.646109E+03  3.263329E+05 -1.335627E+03 -2.229859E+04  2.108143E+03  3.304538E+03
       111  22  5.569992E+03  3.546778E+05  6.465130E+03 -2.268819E+04  5.758066E+01 -3.314448E+03
       111  23  8.886042E+02  3.540714E+05  3.974645E+03 -1.936446E+04  7.181198E+02 -1.272051E+03
       111  24  4.252798E+01  3.546786E+05  3.769617E+03 -2.269191E+04  2.109890E+03  7.708365E+02
       111  25 -4.592001E+00  3.324356E+05  8.537712E+02 -1.930412E+04  5.785708E+01 -3.741306E+03
       111  26  1.536976E+03  3.572144E+05  4.087160E+03 -1.786904E+04  7.191363E+02 -2.752398E+03
       111  27  6.731124E+03  3.830250E+05  8.874853E+03 -2.308524E+04  2.111640E+03 -1.762977E+03
       112   1 -1.059919E+04  3.090582E+05 -4.260403E+03 -2.308092E+04 -3.156635E+03 -3.882115E+03
       112   2 -1.662145E+04  2.834245E+05 -7.359231E+03 -1.923984E+04 -4.735024E+03 -6.464174E+03
       112   3 -2.128388E+04  2.584575E+05 -8.440218E+03 -2.208061E+04 -6.066821E+03 -9.045893E+03
       112   4  1.815111E+02  3.545702E+05  4.151310E+03 -2.269825E+04 -3.158309E+03 -1.428391E+03
       112   5  1.789920E+02  3.542055E+05  5.886460E+03 -1.935688E+04 -4.736386E+03 -4.366007E+03
       112   6  1.597924E+03  3.545684E+05  9.886051E+03 -2.269728E+04 -6.067883E+03 -7.303385E+03
       112   7  1.096210E+04  4.000843E+05  1.256296E+04 -2.231555E+04 -3.159979E+03  1.025507E+03
       112   8  1.697915E+04  4.249913E+05  1.913195E+04 -1.947392E+04 -4.737748E+03 -2.267608E+03
       112   9  2.447918E+04  4.506882E+05  2.821192E+04 -2.331405E+04 -6.068948E+03 -5.560613E+03
       112  10 -1.059921E+04  3.090582E+05 -4.260450E+03 -2.308093E+04 -1.793491E-09  6.122025E-09
       112  11 -1.662149E+04  2.834244E+05 -7.359352E+03 -1.923986E+04  1.040993E-09 -1.480478E-10
       112  12 -2.128394E+04  2.584574E+05 -8.440441E+03 -2.208065E+04 -2.786997E-09 -1.524611E-09
       112  13  1.814999E+02  3.545702E+05  4.151287E+03 -2.269826E+04 -2.744186E-09 -7.056916E-10
       112  14  1.789628E+02  3.542054E+05  5.886382E+03 -1.935689E+04  1.516175E-09 -1.250868E-09
       112  15  1.597870E+03  3.545683E+05  9.885882E+03 -2.269732E+04 -1.467550E-09 -1.515009E-10
       112  16  1.096209E+04  4.000843E+05  1.256294E+04 -2.231555E+04 -1.798127E-09 -5.247057E-09
       112  17  1.697913E+04  4.249913E+05  1.913190E+04 -1.947393E+04 -4.226434E-09 -1.941161E-09
       112  18  2.447914E+04  4.506882E+05  2.821179E+04 -2.331408E+04 -2.923532E-10  1.938236E-09
       112  19 -1.059919E+04  3.090582E+05 -4.260403E+03 -2.308092E+04  3.156635E+03  3.882115E+03
       112  20 -1.662145E+04  2.834245E+05 -7.359231E+03 -1.923984E+04  4.735024E+03  6.464174E+03
       112  21 -2.128388E+04  2.584575E+05 -8.440218E+03 -2.208061E+04  6.066821E+03  9.045893E+03
       112  22  1.815111E+02  3.545702E+05  4.151310E+03 -2.269825E+04  3.158309E+03  1.428391E+03
       112  23  1.789920E+02  3.542055E+05  5.886460E+03 -1.935688E+04  4.736386E+03  4.366007E+03
       112  24  1.597924E+03  3.545684E+05  9.886051E+03 -2.269728E+04  6.067883E+03  7.303385E+03
       112  25  1.096210E+04  4.000843E+05  1.256296E+04 -2.231555E+04  3.159979E+03 -1.025507E+03
       112  26  1.697915E+04  4.249913E+05  1.913195E+04 -1.947392E+04  4.737748E+03  2.267608E+03
       112  27  2.447918E+04  4.506882E+05  2.821192E+04 -2.331405E+04  6.068948E+03  5.560613E+03
       113   1 -2.700043E+04  2.428693E+05 -9.049669E+03 -2.631422E+04 -7.086282E+03 -1.147339E+04
       113   2 -2.673150E+04  2.137997E+05 -5.905956E+03 -9.054608E+03 -6.702704E+03 -1.702801E+04
       113   3  4.751697E+02  1.921824E+05  7.586952E+03  1.772977E+03 -2.112876E+03 -2.257991E+04
       113   4  1.071947E+01  3.562958E+05  1.264565E+04 -2.264608E+04 -7.087844E+03 -8.993182E+03
       113   5  6.574774E+03  3.520408E+05  2.235306E+04 -1.941785E+04 -6.700107E+03 -2.060870E+04
       113   6  4.112422E+04  3.562865E+05  4.661518E+04 -2.262100E+04 -2.106295E+03 -3.222176E+04
       113   7  2.702116E+04  4.697347E+05  3.434041E+04 -1.897725E+04 -7.089378E+03 -6.512535E+03
       113   8  3.988026E+04  4.903003E+05  5.061116E+04 -2.978344E+04 -6.697391E+03 -2.419018E+04
       113   9  8.177362E+04  5.204168E+05  8.564218E+04 -4.702144E+04 -2.098957E+03 -4.186614E+04
       113  10 -2.700052E+04  2.428692E+05 -9.050011E+03 -2.631428E+04 -1.470350E-09  4.108305E-09
       113  11 -2.673162E+04  2.137993E+05 -5.906585E+03 -9.054699E+03  8.675971E-10 -3.839549E-10
       113  12  4.750281E+02  1.921819E+05  7.585985E+03  1.772939E+03  2.127322E-10 -1.272720E-09
       113  13  1.064382E+01  3.562957E+05  1.264540E+04 -2.264613E+04 -4.332585E-10 -6.863140E-10
       113  14  6.574611E+03  3.520403E+05  2.235217E+04 -1.941796E+04  1.856006E-11 -1.289216E-09
       113  15  4.112394E+04  3.562854E+05  4.661322E+04 -2.262105E+04 -1.712423E-09 -1.229877E-10
       113  16  2.702110E+04  4.697346E+05  3.434024E+04 -1.897729E+04 -1.949794E-09 -3.406045E-09
       113  17  3.988005E+04  4.902997E+05  5.060998E+04 -2.978357E+04  1.332256E-09 -1.533334E-09
       113  18  8.177314E+04  5.204149E+05  8.563888E+04 -4.702151E+04 -1.646538E-09  1.699540E-09
       113  19 -2.700043E+04  2.428693E+05 -9.049669E+03 -2.631422E+04  7.086282E+03  1.147339E+04
       113  20 -2.673150E+04  2.137997E+05 -5.905956E+03 -9.054608E+03  6.702704E+03  1.702801E+04
       113  21  4.751697E+02  1.921824E+05  7.586952E+03  1.772977E+03  2.112876E+03  2.257991E+04
       113  22  1.071947E+01  3.562958E+05  1.264565E+04 -2.264608E+04  7.087844E+03  8.993182E+03
       113  23  6.574774E+03  3.520408E+05  2.235306E+04 -1.941785E+04  6.700107E+03  2.060870E+04
       113  24  4.112422E+04  3.562865E+05  4.661518E+04 -2.262100E+04  2.106295E+03  3.222176E+04
       113  25  2.702116E+04  4.697347E+05  3.434041E+04 -1.897725E+04  7.089378E+03  6.512535E+03
       113  26  3.988026E+04  4.903003E+05  5.061116E+04 -2.978344E+04  6.697391E+03  2.419018E+04
       113  27  8.177362E+04  5.204168E+05  8.564218E+04 -4.702144E+04  2.098957E+03  4.186614E+04
       114   1  8.930929E+05  3.221588E+05  1.645577E+05  3.304177E+05  6.393324E+04  1.347511E+04
       114   2  8.463788E+05  2.928793E+05  1.172542E+05  3.159143E+05  4.144842E+04 -2.007592E+04
       114   3  8.005558E+05  2.764745E+05  9.460843E+04  3.075610E+05  1.326852E+04 -3.845484E+04
       114   4  2.582923E+05  8.297946E+04  2.912671E+03  1.548494E+05  5.370702E+03 -8.539796E+03
       114   5  2.606751E+05  7.840408E+04  1.377792E+03  1.521974E+05  1.293135E+04 -3.080178E+04
       114   6  2.580040E+05  8.076114E+04  7.219911E+02  1.556949E+05  1.479019E+04 -3.788649E+04
       114   7 -3.760809E+05 -1.561592E+05 -1.587429E+05 -2.054673E+04 -5.312391E+04 -3.052878E+04
       114   8 -3.246589E+05 -1.360345E+05 -1.145075E+05 -1.137240E+04 -1.555625E+04 -4.151647E+04
       114   9 -2.842346E+05 -1.149228E+05 -9.317270E+04  3.952881E+03  1.631045E+04 -3.731868E+04
       114  10  8.930884E+05  3.221575E+05  1.645497E+05  3.304170E+05 -9.940137E-10 -1.406585E-10
       114  11  8.463769E+05  2.928784E+05  1.172503E+05  3.159150E+05  1.534854E-10 -1.807889E-09
       114  12  8.005552E+05  2.764728E+05  9.460532E+04  3.075614E+05  9.717160E-10 -8.678647E-10
       114  13  2.582922E+05  8.297938E+04  2.912480E+03  1.548495E+05  2.468062E-09  4.820493E-10
       114  14  2.606747E+05  7.840302E+04  1.375694E+03  1.521977E+05 -4.235275E-09 -2.783541E-09
       114  15  2.580034E+05  8.075954E+04  7.188822E+02  1.556953E+05 -1.555263E-09  6.760235E-10
       114  16 -3.760842E+05 -1.561610E+05 -1.587499E+05 -2.054803E+04 -2.319447E-09  7.644820E-10
       114  17 -3.246596E+05 -1.360364E+05 -1.145112E+05 -1.137292E+04  1.737435E-09 -2.374599E-09
       114  18 -2.842353E+05 -1.149244E+05 -9.317582E+04  3.953371E+03  3.223955E-09 -2.282719E-09
       114  19  8.930929E+05  3.221588E+05  1.645577E+05  3.304177E+05 -6.393324E+04 -1.347511E+04
       114  20  8.463788E+05  2.928793E+05  1.172542E+05  3.159143E+05 -4.144842E+04  2.007592E+04
       114  21  8.005558E+05  2.764745E+05  9.460843E+04  3.075610E+05 -1.326852E+04  3.845484E+04
       114  22  2.582923E+05  8.297946E+04  2.912671E+03  1.548494E+05 -5.370702E+03  8.539796E+03
       114  23  2.606751E+05  7.840408E+04  1.377792E+03  1.521974E+05 -1.293135E+04  3.080178E+04
       114  24  2.580040E+05  8.076114E+04  7.219911E+02  1.556949E+05 -1.479019E+04  3.788649E+04
       114  25 -3.760809E+05 -1.561592E+05 -1.587429E+05 -2.054673E+04  5.312391E+04  3.052878E+04
       114  26 -3.246589E+05 -1.360345E+05 -1.145075E+05 -1.137240E+04  1.555625E+04  4.151647E+04
       114  27 -2.842346E+05 -1.149228E+05 -9.317270E+04  3.952881E+03 -1.631045E+04  3.731868E+04
       115   1  7.701664E+05  2.655935E+05  8.745394E+04  2.995683E+05  1.374639E+04 -3.725795E+04
       115   2  7.271206E+05  2.450613E+05  7.607572E+04  2.831931E+05  1.007109E+04 -3.738028E+04
       115   3  6.783351E+05  2.316712E+05  6.730191E+04  2.741414E+05  5.802348E+03 -3.592685E+04
       115   4  2.577560E+05  8.091144E+04  5.381039E+02  1.558686E+05  1.437338E+04 -3.702581E+04
       115   5  2.609342E+05  7.759568E+04  2.800217E+02  1.522299E+05  1.381837E+04 -3.597364E+04
       115   6  2.577542E+05  8.080508E+04  1.564846E+02  1.559144E+05  1.266947E+04 -3.334510E+04
       115   7 -2.543816E+05 -1.037467E+05 -8.638648E+04  1.227804E+04  1.499982E+04 -3.679388E+04
       115   8 -2.050225E+05 -8.984868E+04 -7.552112E+04  2.135806E+04  1.756269E+04 -3.456812E+04
       115   9 -1.626369E+05 -7.004271E+04 -6.699222E+04  3.776258E+04  1.953168E+04 -3.076520E+04
       115  10  7.701658E+05  2.655920E+05  8.745097E+04  2.995687E+05  1.055814E-09  4.833032E-10
       115  11  7.271201E+05  2.450597E+05  7.607290E+04  2.831934E+05  4.531511E-10  2.833781E-10
       115  12  6.783347E+05  2.316698E+05  6.729942E+04  2.741416E+05 -3.495250E-11  7.325557E-10
       115  13  2.577554E+05  8.090991E+04  5.351390E+02  1.558690E+05  2.075390E-09 -1.337587E-09
       115  14  2.609337E+05  7.759424E+04  2.772306E+02  1.522303E+05 -1.067826E-09 -6.815831E-09
       115  15  2.577538E+05  8.080384E+04  1.540931E+02  1.559148E+05  1.562182E-09 -4.154554E-09
       115  16 -2.543822E+05 -1.037483E+05 -8.638945E+04  1.227849E+04  2.644504E-09 -1.679599E-09
       115  17 -2.050232E+05 -8.985005E+04 -7.552395E+04  2.135855E+04  2.800986E-09 -2.188645E-09
       115  18 -1.626376E+05 -7.004383E+04 -6.699472E+04  3.776306E+04 -2.546023E-10 -5.667608E-09
       115  19  7.701664E+05  2.655935E+05  8.745394E+04  2.995683E+05 -1.374639E+04  3.725795E+04
       115  20  7.271206E+05  2.450613E+05  7.607572E+04  2.831931E+05 -1.007109E+04  3.738028E+04
       115  21  6.783351E+05  2.316712E+05  6.730191E+04  2.741414E+05 -5.802348E+03  3.592685E+04
       115  22  2.577560E+05  8.091144E+04  5.381039E+02  1.558686E+05 -1.437338E+04  3.702581E+04
       115  23  2.609342E+05  7.759568E+04  2.800217E+02  1.522299E+05 -1.381837E+04  3.597364E+04
       115  24  2.577542E+05  8.080508E+04  1.564846E+02  1.559144E+05 -1.266947E+04  3.334510E+04
       115  25 -2.543816E+05 -1.037467E+05 -8.638648E+04  1.227804E+04 -1.499982E+04  3.679388E+04
       115  26 -2.050225E+05 -8.984868E+04 -7.552112E+04  2.135806E+04 -1.756269E+04  3.456812E+04
       115  27 -1.626369E+05 -7.004271E+04 -6.699222E+04  3.776258E+04 -1.953168E+04  3.076520E+04
       116   1  6.491933E+05  2.212106E+05  6.226179E+04  2.660163E+05  5.099599E+03 -3.383440E+04
       116   2  6.066013E+05  2.015015E+05  5.470137E+04  2.494452E+05  3.424923E+03 -3.046663E+04
       116   3  5.575881E+05  1.883692E+05  4.742701E+04  2.402936E+05  1.688214E+03 -2.693643E+04
       116   4  2.577326E+05  8.082736E+04  1.188609E+02  1.559280E+05  1.187135E+04 -3.128789E+04
       116   5  2.609848E+05  7.758135E+04  7.120601E+01  1.522173E+05  1.051823E+04 -2.779810E+04
       116   6  2.577489E+05  8.084857E+04  5.447787E+01  1.559258E+05  9.103033E+03 -2.414583E+04
       116   7 -1.335590E+05 -5.953810E+04 -6.202549E+04  4.590604E+04  1.863850E+04 -2.874311E+04
       116   8 -8.450330E+04 -4.632625E+04 -5.456092E+04  5.504031E+04  1.760737E+04 -2.513115E+04
       116   9 -4.199699E+04 -2.666395E+04 -4.732040E+04  7.159536E+04  1.651415E+04 -2.135662E+04
       116  10  6.491930E+05  2.212093E+05  6.225958E+04  2.660164E+05 -3.949515E-09  7.657938E-10
       116  11  6.066011E+05  2.015005E+05  5.469960E+04  2.494453E+05 -9.656556E-09 -1.051789E-09
       116  12  5.575879E+05  1.883685E+05  4.742564E+04  2.402937E+05 -1.125585E-08  6.157949E-10
       116  13  2.577321E+05  8.082627E+04  1.167561E+02  1.559283E+05 -2.928825E-09 -2.735748E-09
       116  14  2.609845E+05  7.758049E+04  6.954573E+01  1.522176E+05 -8.585339E-10 -1.232526E-09
       116  15  2.577487E+05  8.084792E+04  5.322634E+01  1.559260E+05 -5.131014E-09  2.405547E-09
       116  16 -1.335596E+05 -5.953908E+04 -6.202769E+04  4.590647E+04 -7.005480E-09 -5.668103E-09
       116  17 -8.450381E+04 -4.632701E+04 -5.456269E+04  5.504067E+04  2.215137E-09  6.574371E-10
       116  18 -4.199741E+04 -2.666451E+04 -4.732177E+04  7.159565E+04  3.249037E-09  6.086065E-09
       116  19  6.491933E+05  2.212106E+05  6.226179E+04  2.660163E+05 -5.099599E+03  3.383440E+04
       116  20  6.066013E+05  2.015015E+05  5.470137E+04  2.494452E+05 -3.424923E+03  3.046663E+04
       116  21  5.575881E+05  1.883692E+05  4.742701E+04  2.402936E+05 -1.688214E+03  2.693643E+04
       116  22  2.577326E+05  8.082736E+04  1.188609E+02  1.559280E+05 -1.187135E+04  3.128789E+04
       116  23  2.609848E+05  7.758135E+04  7.120601E+01  1.522173E+05 -1.051823E+04  2.779810E+04
       116  24  2.577489E+05  8.084857E+04  5.447787E+01  1.559258E+05 -9.103033E+03  2.414583E+04
       116  25 -1.335590E+05 -5.953810E+04 -6.202549E+04  4.590604E+04 -1.863850E+04  2.874311E+04
       116  26 -8.450330E+04 -4.632625E+04 -5.456092E+04  5.504031E+04 -1.760737E+04  2.513115E+04
       116  27 -4.199699E+04 -2.666395E+04 -4.732040E+04  7.159536E+04 -1.651415E+04  2.135662E+04
       117   1  5.286037E+05  1.779530E+05  4.263020E+04  2.321595E+05  8.684737E+02 -2.475058E+04
       117   2  4.861030E+05  1.583235E+05  3.550748E+04  2.155751E+05 -6.038404E+02 -2.102527E+04
       117   3  4.371092E+05  1.452099E+05  2.843291E+04  2.064117E+05 -2.082469E+03 -1.728473E+04
       117   4  2.577490E+05  8.085412E+04  5.215785E+01  1.559246E+05  8.271756E+03 -2.196381E+04
       117   5  2.610043E+05  7.760682E+04  6.259138E+01  1.522133E+05  6.829418E+03 -1.822654E+04
       117   6  2.577581E+05  8.086916E+04  9.702680E+01  1.559220E+05  5.380765E+03 -1.447405E+04
       117   7 -1.302649E+04 -1.623692E+04 -4.252690E+04  7.972104E+04  1.567162E+04 -1.917833E+04
       117   8  3.596160E+04 -3.103926E+03 -3.538257E+04  8.887343E+04  1.425978E+04 -1.542890E+04
       117   9  7.844381E+04  1.653267E+04 -2.823860E+04  1.054466E+05  1.284163E+04 -1.166427E+04
       117  10  5.286035E+05  1.779523E+05  4.262905E+04  2.321595E+05  2.206694E-09  5.584019E-09
       117  11  4.861028E+05  1.583230E+05  3.550665E+04  2.155751E+05  4.647531E-09  4.298674E-09
       117  12  4.371091E+05  1.452096E+05  2.843234E+04  2.064116E+05  6.593631E-10 -1.426997E-09
       117  13  2.577488E+05  8.085359E+04  5.112256E+01  1.559248E+05  2.593472E-09  5.047049E-09
       117  14  2.610041E+05  7.760645E+04  6.187934E+01  1.522134E+05  3.258376E-10  2.130517E-09
       117  15  2.577580E+05  8.086893E+04  9.657863E+01  1.559221E+05  3.767792E-09 -1.068109E-10
       117  16 -1.302685E+04 -1.623738E+04 -4.252805E+04  7.972128E+04 -5.795409E-09  2.974757E-09
       117  17  3.596131E+04 -3.104237E+03 -3.538340E+04  8.887361E+04 -2.675515E-09  2.700030E-09
       117  18  7.844360E+04  1.653248E+04 -2.823917E+04  1.054468E+05 -5.166575E-09  8.081162E-10
       117  19  5.286037E+05  1.779530E+05  4.263020E+04  2.321595E+05 -8.684737E+02  2.475058E+04
       117  20  4.861030E+05  1.583235E+05  3.550748E+04  2.155751E+05  6.038404E+02  2.102527E+04
       117  21  4.371092E+05  1.452099E+05  2.843291E+04  2.064117E+05  2.082469E+03  1.728473E+04
       117  22  2.577490E+05  8.085412E+04  5.215785E+01  1.559246E+05 -8.271756E+03  2.196381E+04
       117  23  2.610043E+05  7.760682E+04  6.259138E+01  1.522133E+05 -6.829418E+03  1.822654E+04
       117  24  2.577581E+05  8.086916E+04  9.702680E+01  1.559220E+05 -5.380765E+03  1.447405E+04
       117  25 -1.302649E+04 -1.623692E+04 -4.252690E+04  7.972104E+04 -1.567162E+04  1.917833E+04
       117  26  3.596160E+04 -3.103926E+03 -3.538257E+04  8.887343E+04 -1.425978E+04  1.542890E+04
       117  27  7.844381E+04  1.653267E+04 -2.823860E+04  1.054466E+05 -1.284163E+04  1.166427E+04
       118   1  4.081587E+05  1.347972E+05  2.368786E+04  1.982810E+05 -2.926260E+03 -1.509541E+04
       118   2  3.656816E+05  1.151728E+05  1.668292E+04  1.817056E+05 -4.439886E+03 -1.136376E+04
       118   3  3.167120E+05  1.020598E+05  9.748930E+03  1.725500E+05 -5.951118E+03 -7.639187E+03
       118   4  2.577635E+05  8.087129E+04  1.250600E+02  1.559227E+05  4.535141E+03 -1.228514E+04
       118   5  2.610105E+05  7.761465E+04  2.187307E+02  1.522135E+05  3.007370E+03 -8.558480E+03
       118   6  2.577664E+05  8.087230E+04  3.946532E+02  1.559235E+05  1.481993E+03 -4.838914E+03
       118   7  1.073910E+05  2.694717E+04 -2.343838E+04  1.135736E+05  1.199472E+04 -9.475551E+03
       118   8  1.563506E+05  4.005744E+04 -1.624559E+04  1.227259E+05  1.045334E+04 -5.753682E+03
       118   9  1.988246E+05  5.968524E+04 -8.959458E+03  1.392986E+05  8.914359E+03 -2.038923E+03
       118  10  4.081586E+05  1.347969E+05  2.368741E+04  1.982810E+05 -1.150340E-08 -3.801007E-09
       118  11  3.656816E+05  1.151727E+05  1.668264E+04  1.817056E+05 -5.909212E-09  3.249821E-10
       118  12  3.167120E+05  1.020597E+05  9.748754E+03  1.725500E+05  2.224094E-09 -5.763358E-09
       118  13  2.577634E+05  8.087113E+04  1.247377E+02  1.559227E+05 -2.577566E-09  3.308872E-09
       118  14  2.610104E+05  7.761457E+04  2.185760E+02  1.522135E+05  1.524959E-10 -2.635417E-09
       118  15  2.577664E+05  8.087228E+04  3.946050E+02  1.559235E+05  1.609988E-09  5.713030E-09
       118  16  1.073908E+05  2.694703E+04 -2.343882E+04  1.135737E+05  5.902361E-10  4.120410E-09
       118  17  1.563505E+05  4.005737E+04 -1.624586E+04  1.227259E+05  6.972889E-09  5.596282E-09
       118  18  1.988245E+05  5.968521E+04 -8.959615E+03  1.392986E+05 -2.950113E-09  7.264862E-10
       118  19  4.081587E+05  1.347972E+05  2.368786E+04  1.982810E+05  2.926260E+03  1.509541E+04
       118  20  3.656816E+05  1.151728E+05  1.668292E+04  1.817056E+05  4.439886E+03  1.136376E+04
       118  21  3.167120E+05  1.020598E+05  9.748930E+03  1.725500E+05  5.951118E+03  7.639187E+03
       118  22  2.577635E+05  8.087129E+04  1.250600E+02  1.559227E+05 -4.535141E+03  1.228514E+04
       118  23  2.610105E+05  7.761465E+04  2.187307E+02  1.522135E+05 -3.007370E+03  8.558480E+03
       118  24  2.577664E+05  8.087230E+04  3.946532E+02  1.559235E+05 -1.481993E+03  4.838914E+03
       118  25  1.073910E+05  2.694717E+04 -2.343838E+04  1.135736E+05 -1.199472E+04  9.475551E+03
       118  26  1.563506E+05  4.005744E+04 -1.624559E+04  1.227259E+05 -1.045334E+04  5.753682E+03
       118  27  1.988246E+05  5.968524E+04 -8.959458E+03  1.392986E+05 -8.914359E+03  2.038923E+03
       119   1  2.877754E+05  9.165340E+04  5.100974E+03  1.644389E+05 -6.856058E+03 -5.479024E+03
       119   2  2.452915E+05  7.201701E+04 -1.636150E+03  1.478517E+05 -8.574650E+03 -1.879319E+03
       119   3  1.963703E+05  5.894617E+04 -8.121515E+03  1.386746E+05 -1.026296E+04  1.640314E+03
       119   4  2.577824E+05  8.086978E+04  5.256199E+02  1.559294E+05  5.812416E+02 -2.677102E+03
       119   5  2.609926E+05  7.761634E+04  9.536609E+02  1.522078E+05 -1.296101E+03  8.627395E+02
       119   6  2.577945E+05  8.095946E+04  1.758913E+03  1.558953E+05 -3.143198E+03  4.322518E+03
       119   7  2.277909E+05  7.008643E+04 -4.049413E+03  1.474204E+05  8.018078E+03  1.246438E+02
       119   8  2.766941E+05  8.321574E+04  3.543693E+03  1.565640E+05  5.982643E+03  3.604870E+03
       119   9  3.192235E+05  1.029735E+05  1.163968E+04  1.731177E+05  3.977390E+03  7.005032E+03
       119  10  2.877754E+05  9.165336E+04  5.100829E+03  1.644388E+05 -5.796050E-08 -2.918031E-08
       119  11  2.452914E+05  7.201698E+04 -1.636295E+03  1.478517E+05 -3.980988E-08 -2.001934E-08
       119  12  1.963702E+05  5.894613E+04 -8.121718E+03  1.386746E+05 -1.818181E-08 -8.891239E-09
       119  13  2.577824E+05  8.086977E+04  5.256058E+02  1.559294E+05 -9.958838E-10 -4.482310E-09
       119  14  2.609926E+05  7.761634E+04  9.536563E+02  1.522078E+05 -2.309372E-08 -1.452711E-08
       119  15  2.577945E+05  8.095944E+04  1.758859E+03  1.558953E+05 -2.482058E-08 -2.478840E-08
       119  16  2.277908E+05  7.008642E+04 -4.049534E+03  1.474204E+05  5.344787E-08  2.436771E-08
       119  17  2.766941E+05  8.321572E+04  3.543602E+03  1.565639E+05  1.356301E-08  1.060793E-08
       119  18  3.192234E+05  1.029734E+05  1.163956E+04  1.731177E+05 -3.085192E-08 -6.657171E-09
       119  19  2.877754E+05  9.165340E+04  5.100974E+03  1.644389E+05  6.856058E+03  5.479024E+03
       119  20  2.452915E+05  7.201701E+04 -1.636150E+03  1.478517E+05  8.574650E+03  1.879319E+03
       119  21  1.963703E+05  5.894617E+04 -8.121515E+03  1.386746E+05  1.026296E+04 -1.640314E+03
       119  22  2.577824E+05  8.086978E+04  5.256199E+02  1.559294E+05 -5.812416E+02  2.677102E+03
       119  23  2.609926E+05  7.761634E+04  9.536609E+02  1.522078E+05  1.296101E+03 -8.627395E+02
       119  24  2.577945E+05  8.095946E+04  1.758913E+03  1.558953E+05  3.143198E+03 -4.322518E+03
       119  25  2.277909E+05  7.008643E+04 -4.049413E+03  1.474204E+05 -8.018078E+03 -1.246438E+02
       119  26  2.766941E+05  8.321574E+04  3.543693E+03  1.565640E+05 -5.982643E+03 -3.604870E+03
       119  27  3.192235E+05  1.029735E+05  1.163968E+04  1.731177E+05 -3.977390E+03 -7.005032E+03
       120   1  1.673968E+05  4.862116E+04 -1.240844E+04  1.307023E+05 -1.143028E+04  3.633712E+03
       120   2  1.252837E+05  2.881904E+04 -1.826989E+04  1.133897E+05 -1.330836E+04  6.622368E+03
       120   3  7.719202E+04  1.653597E+04 -2.335359E+04  1.031927E+05 -1.489550E+04  8.839509E+03
       120   4  2.579184E+05  8.096811E+04  2.350861E+03  1.559286E+05 -4.264947E+03  6.332965E+03
       120   5  2.609073E+05  7.812738E+04  4.334315E+03  1.519674E+05 -7.669895E+03  8.746068E+03
       120   6  2.582177E+05  8.310746E+04  8.304781E+03  1.551209E+05 -1.078396E+04  1.038773E+04
       120   7  3.484489E+05  1.133159E+05  1.711019E+04  1.811584E+05  2.901487E+03  9.032628E+03
       120   8  3.965499E+05  1.274374E+05  2.693797E+04  1.905529E+05 -2.030152E+03  1.087026E+04
       120   9  4.392759E+05  1.496817E+05  3.996163E+04  2.070627E+05 -6.671192E+03  1.193644E+04
       120  10  1.673966E+05  4.862111E+04 -1.240871E+04  1.307024E+05  2.466374E-08  1.225655E-08
       120  11  1.252835E+05  2.881895E+04 -1.827030E+04  1.133897E+05  1.055652E-08  1.704749E-08
       120  12  7.719176E+04  1.653582E+04 -2.335416E+04  1.031928E+05 -6.671170E-09  6.915385E-09
       120  13  2.579184E+05  8.096807E+04  2.350752E+03  1.559287E+05 -2.785454E-08 -2.429962E-08
       120  14  2.609073E+05  7.812729E+04  4.334061E+03  1.519675E+05 -1.897749E-08 -9.084900E-09
       120  15  2.582175E+05  8.310731E+04  8.304359E+03  1.551210E+05 -4.141774E-09 -1.546923E-09
       120  16  3.484488E+05  1.133158E+05  1.711003E+04  1.811584E+05 -7.453877E-08 -2.516265E-08
       120  17  3.965498E+05  1.274373E+05  2.693774E+04  1.905529E+05 -3.808645E-08 -1.602662E-08
       120  18  4.392758E+05  1.496815E+05  3.996128E+04  2.070627E+05 -1.063241E-09 -3.130805E-09
       120  19  1.673968E+05  4.862116E+04 -1.240844E+04  1.307023E+05  1.143028E+04 -3.633712E+03
       120  20  1.252837E+05  2.881904E+04 -1.826989E+04  1.133897E+05  1.330836E+04 -6.622368E+03
       120  21  7.719202E+04  1.653597E+04 -2.335359E+04  1.031927E+05  1.489550E+04 -8.839509E+03
       120  22  2.579184E+05  8.096811E+04  2.350861E+03  1.559286E+05  4.264947E+03 -6.332965E+03
       120  23  2.609073E+05  7.812738E+04  4.334315E+03  1.519674E+05  7.669895E+03 -8.746068E+03
       120  24  2.582177E+05  8.310746E+04  8.304781E+03  1.551209E+05  1.078396E+04 -1.038773E+04
       120  25  3.484489E+05  1.133159E+05  1.711019E+04  1.811584E+05 -2.901487E+03 -9.032628E+03
       120  26  3.965499E+05  1.274374E+05  2.693797E+04  1.905529E+05  2.030152E+03 -1.087026E+04
       120  27  4.392759E+05  1.496817E+05  3.996163E+04  2.070627E+05  6.671192E+03 -1.193644E+04
       121   1  4.778377E+04  7.501168E+03 -2.635647E+04  9.674849E+04 -1.717158E+04  9.759029E+03
       121   2  1.345732E+04 -1.459360E+04 -3.049959E+04  6.666144E+04 -1.301952E+04  9.711995E+03
       121   3 -2.119192E+04 -1.422376E+04 -3.279720E+04  3.884768E+04 -6.073088E+03  2.240929E+03
       121   4  2.595532E+05  8.350378E+04  1.114128E+04  1.553623E+05 -1.262407E+04  1.147128E+04
       121   5  2.606741E+05  8.786437E+04  2.136905E+04  1.478044E+05 -2.315550E+04  5.894064E+03
       121   6  2.643767E+05  1.175931E+05  4.507470E+04  1.425202E+05 -3.089348E+04 -7.105480E+03
       121   7  4.713736E+05  1.595119E+05  4.863868E+04  2.139957E+05 -8.074826E+03  1.318418E+04
       121   8  5.079541E+05  1.903325E+05  7.323472E+04  2.289789E+05 -3.329577E+04  2.074023E+03
       121   9  5.500216E+05  2.494256E+05  1.229401E+05  2.462382E+05 -5.572578E+04 -1.645885E+04
       121  10  4.778343E+04  7.500986E+03 -2.635721E+04  9.674863E+04 -9.250639E-10  9.074954E-09
       121  11  1.345712E+04 -1.459375E+04 -3.050009E+04  6.666154E+04 -1.086022E-09  4.374582E-09
       121  12 -2.119196E+04 -1.422378E+04 -3.279728E+04  3.884769E+04  1.787445E-09  7.665098E-10
       121  13  2.595530E+05  8.350359E+04  1.114074E+04  1.553625E+05 -2.014322E-09  5.581403E-09
       121  14  2.606736E+05  8.786419E+04  2.136798E+04  1.478045E+05  2.222314E-09  2.188527E-09
       121  15  2.643756E+05  1.175927E+05  4.507282E+04  1.425201E+05  3.452284E-09  2.997524E-09
       121  16  4.713734E+05  1.595117E+05  4.863823E+04  2.139958E+05 -1.641213E-09 -4.287912E-09
       121  17  5.079529E+05  1.903322E+05  7.323263E+04  2.289789E+05 -2.301591E-09  1.745314E-09
       121  18  5.500182E+05  2.494245E+05  1.229338E+05  2.462375E+05 -1.690676E-09 -3.122731E-10
       121  19  4.778377E+04  7.501168E+03 -2.635647E+04  9.674849E+04  1.717158E+04 -9.759029E+03
       121  20  1.345732E+04 -1.459360E+04 -3.049959E+04  6.666144E+04  1.301952E+04 -9.711995E+03
       121  21 -2.119192E+04 -1.422376E+04 -3.279720E+04  3.884768E+04  6.073088E+03 -2.240929E+03
       121  22  2.595532E+05  8.350378E+04  1.114128E+04  1.553623E+05  1.262407E+04 -1.147128E+04
       121  23  2.606741E+05  8.786437E+04  2.136905E+04  1.478044E+05  2.315550E+04 -5.894064E+03
       121  24  2.643767E+05  1.175931E+05  4.507470E+04  1.425202E+05  3.089348E+04  7.105480E+03
       121  25  4.713736E+05  1.595119E+05  4.863868E+04  2.139957E+05  8.074826E+03 -1.318418E+04
       121  26  5.079541E+05  1.903325E+05  7.323472E+04  2.289789E+05  3.329577E+04 -2.074023E+03
       121  27  5.500216E+05  2.494256E+05  1.229401E+05  2.462382E+05  5.572578E+04  1.645885E+04
       122   1 -2.251639E+05 -1.136087E+06 -2.631385E+05  6.251566E+04 -2.592103E+03 -1.138492E+05
       122   2 -5.390210E+04 -1.054014E+06 -1.549841E+05  9.169869E+03 -7.537043E+03 -6.991627E+04
       122   3 -6.228355E+04 -1.022133E+06 -1.202911E+05  1.921712E+04 -5.254210E+03 -2.596912E+04
       122   4 -1.308635E+05 -7.592940E+05 -1.694151E+05  3.265692E+04 -2.591066E+03 -1.110422E+05
       122   5  2.577458E+04 -7.343968E+05 -7.666019E+04  1.064680E+03 -7.536449E+03 -6.951247E+04
       122   6  3.236672E+03 -7.592482E+05 -5.566502E+04  3.286663E+04 -5.252610E+03 -2.797275E+04
       122   7 -3.657044E+04 -3.823698E+05 -7.570182E+04  2.780053E+03 -2.590301E+03 -1.082334E+05
       122   8  1.054439E+05 -4.146863E+05  1.656232E+03 -7.044666E+03 -7.535866E+03 -6.910845E+04
       122   9  6.875247E+04 -4.963004E+05  8.956082E+03  4.652195E+04 -5.251098E+03 -2.997723E+04
       122  10 -2.251674E+05 -1.136101E+06 -2.631629E+05  6.251542E+04 -2.342570E-09 -1.478411E-09
       122  11 -5.390347E+04 -1.054019E+06 -1.549934E+05  9.169444E+03 -3.833367E-09 -6.019058E-10
       122  12 -6.228376E+04 -1.022133E+06 -1.202924E+05  1.921701E+04  2.729869E-09  3.602282E-09
       122  13 -1.308668E+05 -7.593073E+05 -1.694383E+05  3.265668E+04  1.245357E-09 -5.019786E-10
       122  14  2.577322E+04 -7.344020E+05 -7.666939E+04  1.064258E+03 -1.215812E-10  1.440649E-09
       122  15  3.236432E+03 -7.592491E+05 -5.566655E+04  3.286651E+04 -1.527134E-09  1.817703E-09
       122  16 -3.657359E+04 -3.823824E+05 -7.572386E+04  2.779827E+03 -1.754853E-10  2.441148E-09
       122  17  1.054426E+05 -4.146914E+05  1.647144E+03 -7.045086E+03  1.119967E-09 -2.000411E-09
       122  18  6.875219E+04 -4.963013E+05  8.954341E+03  4.652182E+04  1.021598E-09 -2.838150E-09
       122  19 -2.251639E+05 -1.136087E+06 -2.631385E+05  6.251566E+04  2.592103E+03  1.138492E+05
       122  20 -5.390210E+04 -1.054014E+06 -1.549841E+05  9.169869E+03  7.537043E+03  6.991627E+04
       122  21 -6.228355E+04 -1.022133E+06 -1.202911E+05  1.921712E+04  5.254210E+03  2.596912E+04
       122  22 -1.308635E+05 -7.592940E+05 -1.694151E+05  3.265692E+04  2.591066E+03  1.110422E+05
       122  23  2.577458E+04 -7.343968E+05 -7.666019E+04  1.064680E+03  7.536449E+03  6.951247E+04
       122  24  3.236672E+03 -7.592482E+05 -5.566502E+04  3.286663E+04  5.252610E+03  2.797275E+04
       122  25 -3.657044E+04 -3.823698E+05 -7.570182E+04  2.780053E+03  2.590301E+03  1.082334E+05
       122  26  1.054439E+05 -4.146863E+05  1.656232E+03 -7.044666E+03  7.535866E+03  6.910845E+04
       122  27  6.875247E+04 -4.963004E+05  8.956082E+03  4.652195E+04  5.251098E+03  2.997723E+04
       123   1 -4.873985E+04 -8.813683E+05 -8.198589E+04  3.872410E+04 -2.888881E+03 -1.821882E+04
       123   2 -1.101797E+04 -8.160931E+05 -5.627917E+04  6.601468E+02 -1.574333E+03  1.923192E+03
       123   3 -2.110235E+04 -7.652373E+05 -5.561753E+04  2.751691E+04  5.378332E+00  2.206695E+04
       123   4 -1.632950E+04 -7.513890E+05 -5.009356E+04  3.313643E+04 -2.888310E+03 -1.862399E+04
       123   5  6.905405E+03 -7.441863E+05 -3.863060E+04  6.763772E+02 -1.573891E+03  1.431809E+03
       123   6 -1.764771E+04 -7.513896E+05 -5.215003E+04  3.313709E+04  6.032407E+00  2.148749E+04
       123   7  1.607971E+04 -6.213942E+05 -1.820246E+04  2.754760E+04 -2.887732E+03 -1.902925E+04
       123   8  2.482840E+04 -6.722749E+05 -2.098240E+04  6.926105E+02 -1.573450E+03  9.403684E+02
       123   9 -1.419297E+04 -7.375417E+05 -4.868252E+04  3.875740E+04  6.675971E+00  2.090802E+04
       123  10 -4.873995E+04 -8.813687E+05 -8.198653E+04  3.872406E+04  6.309151E-09  3.484733E-09
       123  11 -1.101797E+04 -8.160931E+05 -5.627918E+04  6.601492E+02 -2.410789E-09  2.306914E-09
       123  12 -2.110248E+04 -7.652378E+05 -5.561845E+04  2.751691E+04  1.477427E-09  1.214120E-09
       123  13 -1.632960E+04 -7.513894E+05 -5.009423E+04  3.313639E+04 -3.312375E-09  5.265179E-10
       123  14  6.905402E+03 -7.441863E+05 -3.863061E+04  6.763790E+02 -4.882272E-09  7.612547E-10
       123  15 -1.764784E+04 -7.513901E+05 -5.215090E+04  3.313709E+04 -3.863362E-09 -9.726534E-10
       123  16  1.607960E+04 -6.213946E+05 -1.820316E+04  2.754755E+04  4.134864E-09 -1.951426E-09
       123  17  2.482839E+04 -6.722749E+05 -2.098241E+04  6.926117E+02  2.385295E-09 -5.114020E-09
       123  18 -1.419309E+04 -7.375422E+05 -4.868334E+04  3.875740E+04  3.526724E-09 -1.259020E-09
       123  19 -4.873985E+04 -8.813683E+05 -8.198589E+04  3.872410E+04  2.888881E+03  1.821882E+04
       123  20 -1.101797E+04 -8.160931E+05 -5.627917E+04  6.601468E+02  1.574333E+03 -1.923192E+03
       123  21 -2.110235E+04 -7.652373E+05 -5.561753E+04  2.751691E+04 -5.378332E+00 -2.206695E+04
       123  22 -1.632950E+04 -7.513890E+05 -5.009356E+04  3.313643E+04  2.888310E+03  1.862399E+04
       123  23  6.905405E+03 -7.441863E+05 -3.863060E+04  6.763772E+02  1.573891E+03 -1.431809E+03
       123  24 -1.764771E+04 -7.513896E+05 -5.215003E+04  3.313709E+04 -6.032407E+00 -2.148749E+04
       123  25  1.607971E+04 -6.213942E+05 -1.820246E+04  2.754760E+04  2.887732E+03  1.902925E+04
       123  26  2.482840E+04 -6.722749E+05 -2.098240E+04  6.926105E+02  1.573450E+03 -9.403684E+02
       123  27 -1.419297E+04 -7.375417E+05 -4.868252E+04  3.875740E+04 -6.675971E+00 -2.090802E+04
       124   1  3.373726E+04 -6.401008E+05 -2.899806E+04  4.784129E+04  2.075028E+03  3.284105E+04
       124   2  7.194830E+04 -5.556920E+05 -3.835967E+04 -7.718369E+03  4.253936E+03  7.558931E+04
       124   3 -8.178976E+04 -5.245965E+05 -1.234980E+05  1.103708E+03  1.545082E+03  1.183369E+05
       124   4  3.837297E+03 -7.600962E+05 -5.855497E+04  3.307337E+04  2.075542E+03  3.127123E+04
       124   5  2.768095E+04 -7.333108E+05 -8.185427E+04  7.998458E+02  4.254979E+03  7.564830E+04
       124   6 -1.407399E+05 -7.601452E+05 -1.820802E+05  3.291007E+04  1.549246E+03  1.200206E+05
       124   7 -2.606291E+04 -8.800780E+05 -8.811282E+04  1.830831E+04  2.076130E+03  2.970171E+04
       124   8 -1.658847E+04 -9.109008E+05 -1.253511E+05  9.315623E+03  4.256024E+03  7.570726E+04
       124   9 -1.996905E+05 -9.956413E+05 -2.406661E+05  6.470436E+04  1.553585E+03  1.217036E+05
       124  10  3.373696E+04 -6.401020E+05 -2.900009E+04  4.784123E+04  1.006980E-09 -5.256914E-09
       124  11  7.194674E+04 -5.556981E+05 -3.837045E+04 -7.718628E+03 -9.910563E-10 -5.056885E-09
       124  12 -8.179352E+04 -5.246115E+05 -1.235243E+05  1.103560E+03 -1.910313E-09 -1.111728E-09
       124  13  3.837030E+03 -7.600973E+05 -5.855682E+04  3.307332E+04 -6.750268E-10 -4.644151E-10
       124  14  2.767939E+04 -7.333170E+05 -8.186507E+04  7.995865E+02 -2.392032E-09  1.113988E-09
       124  15 -1.407438E+05 -7.601607E+05 -1.821073E+05  3.290992E+04 -2.647055E-10  1.997788E-09
       124  16 -2.606315E+04 -8.800790E+05 -8.811449E+04  1.830826E+04  1.853791E-09  5.792010E-09
       124  17 -1.659004E+04 -9.109069E+05 -1.253620E+05  9.315364E+03  3.800208E-09  3.412115E-09
       124  18 -1.996945E+05 -9.956573E+05 -2.406940E+05  6.470421E+04 -1.411267E-10  5.707410E-10
       124  19  3.373726E+04 -6.401008E+05 -2.899806E+04  4.784129E+04 -2.075028E+03 -3.284105E+04
       124  20  7.194830E+04 -5.556920E+05 -3.835967E+04 -7.718369E+03 -4.253936E+03 -7.558931E+04
       124  21 -8.178976E+04 -5.245965E+05 -1.234980E+05  1.103708E+03 -1.545082E+03 -1.183369E+05
       124  22  3.837297E+03 -7.600962E+05 -5.855497E+04  3.307337E+04 -2.075542E+03 -3.127123E+04
       124  23  2.768095E+04 -7.333108E+05 -8.185427E+04  7.998458E+02 -4.254979E+03 -7.564830E+04
       124  24 -1.407399E+05 -7.601452E+05 -1.820802E+05  3.291007E+04 -1.549246E+03 -1.200206E+05
       124  25 -2.606291E+04 -8.800780E+05 -8.811282E+04  1.830831E+04 -2.076130E+03 -2.970171E+04
       124  26 -1.658847E+04 -9.109008E+05 -1.253511E+05  9.315623E+03 -4.256024E+03 -7.570726E+04
       124  27 -1.996905E+05 -9.956413E+05 -2.406661E+05  6.470436E+04 -1.553585E+03 -1.217036E+05
       125   1  3.748173E+05  1.257497E+05  7.839901E+04  1.378847E+05  4.162426E+04  1.504355E+04
       125   2  3.609802E+05  6.058556E+04  3.852147E+04  1.404643E+05  2.673351E+04  8.219420E+03
       125   3  3.660524E+05  5.701166E+04  2.564693E+04  1.334928E+05  1.131800E+04  2.787836E+03
       125   4  3.316531E+05  9.461974E+04  6.375594E+04  1.109091E+05  4.071483E+04  1.469944E+04
       125   5  3.189419E+05  4.045925E+04  2.669365E+04  1.245226E+05  2.654485E+04  8.148051E+03
       125   6  3.249988E+05  4.774812E+04  1.606486E+04  1.285847E+05  1.184995E+04  2.988554E+03
       125   7  2.884916E+05  6.349218E+04  4.911289E+04  8.393584E+04  3.980548E+04  1.435541E+04
       125   8  2.769055E+05  2.033345E+04  1.486569E+04  1.085821E+05  2.635621E+04  8.076691E+03
       125   9  2.839468E+05  3.848450E+04  6.482667E+03  1.236768E+05  1.238187E+04  3.189273E+03
       125  10  3.748154E+05  1.257490E+05  7.839533E+04  1.378842E+05 -6.098383E-09 -1.977161E-09
       125  11  3.609794E+05  6.058530E+04  3.852000E+04  1.404641E+05 -1.821041E-09  1.798531E-09
       125  12  3.660522E+05  5.701162E+04  2.564668E+04  1.334927E+05  3.062212E-09  1.481698E-09
       125  13  3.316513E+05  9.461907E+04  6.375242E+04  1.109086E+05  8.002889E-10 -2.884678E-09
       125  14  3.189411E+05  4.045899E+04  2.669220E+04  1.245225E+05 -3.658991E-09 -4.781714E-09
       125  15  3.249987E+05  4.774808E+04  1.606458E+04  1.285847E+05 -7.564453E-09 -1.588109E-09
       125  16  2.884899E+05  6.349154E+04  4.910953E+04  8.393538E+04  2.089144E-09  1.602482E-09
       125  17  2.769047E+05  2.033320E+04  1.486426E+04  1.085819E+05 -5.758451E-09  2.981824E-09
       125  18  2.839466E+05  3.848445E+04  6.482360E+03  1.236767E+05 -9.557020E-09 -3.257452E-09
       125  19  3.748173E+05  1.257497E+05  7.839901E+04  1.378847E+05 -4.162426E+04 -1.504355E+04
       125  20  3.609802E+05  6.058556E+04  3.852147E+04  1.404643E+05 -2.673351E+04 -8.219420E+03
       125  21  3.660524E+05  5.701166E+04  2.564693E+04  1.334928E+05 -1.131800E+04 -2.787836E+03
       125  22  3.316531E+05  9.461974E+04  6.375594E+04  1.109091E+05 -4.071483E+04 -1.469944E+04
       125  23  3.189419E+05  4.045925E+04  2.669365E+04  1.245226E+05 -2.654485E+04 -8.148051E+03
       125  24  3.249988E+05  4.774812E+04  1.606486E+04  1.285847E+05 -1.184995E+04 -2.988554E+03
       125  25  2.884916E+05  6.349218E+04  4.911289E+04  8.393584E+04 -3.980548E+04 -1.435541E+04
       125  26  2.769055E+05  2.033345E+04  1.486569E+04  1.085821E+05 -2.635621E+04 -8.076691E+03
       125  27  2.839468E+05  3.848450E+04  6.482667E+03  1.236768E+05 -1.238187E+04 -3.189273E+03
       126   1  3.471779E+05  6.472955E+04  1.966790E+04  1.328988E+05  9.310461E+03  2.513373E+03
       126   2  3.399250E+05  5.306977E+04  1.066646E+04  1.287242E+05  5.880958E+03  1.544536E+03
       126   3  3.307687E+05  5.192885E+04  5.757157E+03  1.282970E+05  2.413501E+03  6.765691E+02
       126   4  3.229300E+05  5.421704E+04  1.304030E+04  1.248319E+05  9.431040E+03  2.558815E+03
       126   5  3.235443E+05  4.654874E+04  6.304996E+03  1.238689E+05  6.053801E+03  1.609710E+03
       126   6  3.222448E+05  4.938901E+04  3.620549E+03  1.266531E+05  2.638568E+03  7.614481E+02
       126   7  2.986828E+05  4.370462E+04  6.412645E+03  1.167653E+05  9.551614E+03  2.604254E+03
       126   8  3.071638E+05  4.002774E+04  1.943512E+03  1.190137E+05  6.226640E+03  1.674882E+03
       126   9  3.137209E+05  4.684918E+04  1.483942E+03  1.250093E+05  2.863631E+03  8.463263E+02
       126  10  3.471778E+05  6.472952E+04  1.966772E+04  1.328988E+05 -1.050739E-08 -2.542904E-09
       126  11  3.399250E+05  5.306976E+04  1.066639E+04  1.287242E+05 -5.973872E-09  4.657506E-10
       126  12  3.307687E+05  5.192885E+04  5.757145E+03  1.282970E+05  2.735710E-09  2.432283E-09
       126  13  3.229299E+05  5.421701E+04  1.304012E+04  1.248319E+05  4.049131E-10  1.886047E-10
       126  14  3.235442E+05  4.654872E+04  6.304922E+03  1.238688E+05 -5.451936E-09 -9.573196E-09
       126  15  3.222448E+05  4.938901E+04  3.620535E+03  1.266531E+05  2.017257E-09  2.504043E-09
       126  16  2.986827E+05  4.370459E+04  6.412461E+03  1.167653E+05  5.041653E-09 -3.455162E-09
       126  17  3.071638E+05  4.002772E+04  1.943433E+03  1.190136E+05 -3.652201E-09 -5.741023E-10
       126  18  3.137209E+05  4.684918E+04  1.483926E+03  1.250093E+05 -8.319816E-09 -8.429506E-10
       126  19  3.471779E+05  6.472955E+04  1.966790E+04  1.328988E+05 -9.310461E+03 -2.513373E+03
       126  20  3.399250E+05  5.306977E+04  1.066646E+04  1.287242E+05 -5.880958E+03 -1.544536E+03
       126  21  3.307687E+05  5.192885E+04  5.757157E+03  1.282970E+05 -2.413501E+03 -6.765691E+02
       126  22  3.229300E+05  5.421704E+04  1.304030E+04  1.248319E+05 -9.431040E+03 -2.558815E+03
       126  23  3.235443E+05  4.654874E+04  6.304996E+03  1.238689E+05 -6.053801E+03 -1.609710E+03
       126  24  3.222448E+05  4.938901E+04  3.620549E+03  1.266531E+05 -2.638568E+03 -7.614481E+02
       126  25  2.986828E+05  4.370462E+04  6.412645E+03  1.167653E+05 -9.551614E+03 -2.604254E+03
       126  26  3.071638E+05  4.002774E+04  1.943512E+03  1.190137E+05 -6.226640E+03 -1.674882E+03
       126  27  3.137209E+05  4.684918E+04  1.483942E+03  1.250093E+05 -2.863631E+03 -8.463263E+02
       127   1  3.186776E+05  4.889713E+04  1.943151E+03  1.254598E+05  1.833333E+03  7.324421E+02
       127   2  3.122242E+05  4.275803E+04 -1.622616E+03  1.205828E+05  9.351296E+02  8.292233E+02
       127   3  3.015333E+05  4.180767E+04 -4.460190E+03  1.207702E+05  3.405269E+01  9.336594E+02
       127   4  3.219888E+05  5.004016E+04  2.820455E+03  1.262543E+05  2.028526E+03  8.060523E+02
       127   5  3.240732E+05  4.720170E+04  1.481021E+03  1.238144E+05  1.134278E+03  9.043228E+02
       127   6  3.219195E+05  4.955124E+04  8.667052E+02  1.264388E+05  2.371460E+02  1.010244E+03
       127   7  3.253001E+05  5.118320E+04  3.697761E+03  1.270489E+05  2.223721E+03  8.796630E+02
       127   8  3.359224E+05  5.164537E+04  4.584652E+03  1.270460E+05  1.333431E+03  9.794240E+02
       127   9  3.423060E+05  5.729484E+04  6.193566E+03  1.321075E+05  4.402466E+02  1.086832E+03
       127  10  3.186776E+05  4.889713E+04  1.943144E+03  1.254598E+05  2.598773E-09 -2.402293E-09
       127  11  3.122242E+05  4.275803E+04 -1.622619E+03  1.205828E+05 -3.756942E-09 -3.603550E-09
       127  12  3.015333E+05  4.180766E+04 -4.460191E+03  1.207702E+05  1.513011E-09  2.919821E-09
       127  13  3.219888E+05  5.004016E+04  2.820446E+03  1.262543E+05 -2.988119E-09  1.239392E-09
       127  14  3.240732E+05  4.720169E+04  1.481017E+03  1.238144E+05  2.719465E-09 -1.255236E-09
       127  15  3.219195E+05  4.955123E+04  8.667032E+02  1.264388E+05  5.991755E-10  1.257209E-09
       127  16  3.253001E+05  5.118320E+04  3.697751E+03  1.270488E+05 -1.930399E-09  4.031763E-09
       127  17  3.359224E+05  5.164537E+04  4.584646E+03  1.270460E+05 -1.702623E-09  1.100765E-08
       127  18  3.423060E+05  5.729483E+04  6.193563E+03  1.321075E+05 -2.687527E-09  7.788757E-09
       127  19  3.186776E+05  4.889713E+04  1.943151E+03  1.254598E+05 -1.833333E+03 -7.324421E+02
       127  20  3.122242E+05  4.275803E+04 -1.622616E+03  1.205828E+05 -9.351296E+02 -8.292233E+02
       127  21  3.015333E+05  4.180767E+04 -4.460190E+03  1.207702E+05 -3.405269E+01 -9.336594E+02
       127  22  3.219888E+05  5.004016E+04  2.820455E+03  1.262543E+05 -2.028526E+03 -8.060523E+02
       127  23  3.240732E+05  4.720170E+04  1.481021E+03  1.238144E+05 -1.134278E+03 -9.043228E+02
       127  24  3.219195E+05  4.955124E+04  8.667052E+02  1.264388E+05 -2.371460E+02 -1.010244E+03
       127  25  3.253001E+05  5.118320E+04  3.697761E+03  1.270489E+05 -2.223721E+03 -8.796630E+02
       127  26  3.359224E+05  5.164537E+04  4.584652E+03  1.270460E+05 -1.333431E+03 -9.794240E+02
       127  27  3.423060E+05  5.729484E+04  6.193566E+03  1.321075E+05 -4.402466E+02 -1.086832E+03
       128   1  2.901501E+05  3.767461E+04 -7.660836E+03  1.177114E+05 -1.777812E+02  1.113912E+03
       128   2  2.837693E+05  3.206916E+04 -1.012635E+04  1.127370E+05 -5.555318E+02  1.416698E+03
       128   3  2.728607E+05  3.112849E+04 -1.239991E+04  1.129744E+05 -9.338263E+02  1.721060E+03
       128   4  3.218810E+05  4.961837E+04  6.901231E+02  1.264023E+05  2.338437E+01  1.189765E+03
       128   5  3.241419E+05  4.726519E+04  4.589911E+02  1.238043E+05 -3.535685E+02  1.492841E+03
       128   6  3.218749E+05  4.957659E+04  4.191957E+02  1.264179E+05 -7.310696E+02  1.797494E+03
       128   7  3.536128E+05  6.156216E+04  9.040971E+03  1.350935E+05  2.245606E+02  1.265623E+03
       128   8  3.645161E+05  6.246133E+04  1.104420E+04  1.348722E+05 -1.515907E+02  1.568990E+03
       128   9  3.708916E+05  6.802490E+04  1.323813E+04  1.398624E+05 -5.282949E+02  1.873934E+03
       128  10  2.901501E+05  3.767461E+04 -7.660838E+03  1.177114E+05  3.739801E-09 -1.708702E-09
       128  11  2.837692E+05  3.206915E+04 -1.012636E+04  1.127370E+05  5.814657E-09 -2.490298E-09
       128  12  2.728607E+05  3.112848E+04 -1.239991E+04  1.129744E+05 -6.956240E-10  2.007644E-09
       128  13  3.218810E+05  4.961837E+04  6.901204E+02  1.264023E+05 -1.185887E-10  2.349105E-10
       128  14  3.241419E+05  4.726519E+04  4.589867E+02  1.238043E+05  2.081620E-09 -4.802898E-09
       128  15  3.218749E+05  4.957659E+04  4.191886E+02  1.264179E+05  2.669202E-09 -5.235924E-09
       128  16  3.536128E+05  6.156216E+04  9.040967E+03  1.350935E+05 -2.690262E-09  3.910786E-09
       128  17  3.645161E+05  6.246133E+04  1.104419E+04  1.348722E+05  5.275875E-09  2.672899E-09
       128  18  3.708916E+05  6.802489E+04  1.323813E+04  1.398624E+05  6.421597E-09 -1.316937E-09
       128  19  2.901501E+05  3.767461E+04 -7.660836E+03  1.177114E+05  1.777812E+02 -1.113912E+03
       128  20  2.837693E+05  3.206916E+04 -1.012635E+04  1.127370E+05  5.555318E+02 -1.416698E+03
       128  21  2.728607E+05  3.112849E+04 -1.239991E+04  1.129744E+05  9.338263E+02 -1.721060E+03
       128  22  3.218810E+05  4.961837E+04  6.901231E+02  1.264023E+05 -2.338437E+01 -1.189765E+03
       128  23  3.241419E+05  4.726519E+04  4.589911E+02  1.238043E+05  3.535685E+02 -1.492841E+03
       128  24  3.218749E+05  4.957659E+04  4.191957E+02  1.264179E+05  7.310696E+02 -1.797494E+03
       128  25  3.536128E+05  6.156216E+04  9.040971E+03  1.350935E+05 -2.245606E+02 -1.265623E+03
       128  26  3.645161E+05  6.246133E+04  1.104420E+04  1.348722E+05  1.515907E+02 -1.568990E+03
       128  27  3.708916E+05  6.802490E+04  1.323813E+04  1.398624E+05  5.282949E+02 -1.873934E+03
       129   1  2.614734E+05  2.686165E+04 -1.541393E+04  1.098962E+05 -1.092741E+03  1.922279E+03
       129   2  2.550263E+05  2.123960E+04 -1.748320E+04  1.048528E+05 -1.561072E+03  2.195296E+03
       129   3  2.440400E+05  2.036704E+04 -1.928226E+04  1.050673E+05 -2.029502E+03  2.468808E+03
       129   4  3.218702E+05  4.958328E+04  4.512557E+02  1.264327E+05 -8.893424E+02  1.998946E+03
       129   5  3.241452E+05  4.724575E+04  6.375204E+02  1.237896E+05 -1.357463E+03  2.272024E+03
       129   6  3.218806E+05  4.965760E+04  1.093812E+03  1.264045E+05 -1.825688E+03  2.545596E+03
       129   7  3.822706E+05  7.230513E+04  1.631613E+04  1.429706E+05 -6.859218E+02  2.075620E+03
       129   8  3.932685E+05  7.325215E+04  1.875781E+04  1.427284E+05 -1.153830E+03  2.348761E+03
       129   9  3.997268E+05  7.894845E+04  2.146930E+04  1.477441E+05 -1.621846E+03  2.622394E+03
       129  10  2.614734E+05  2.686164E+04 -1.541394E+04  1.098962E+05  5.170234E-09  2.150542E-09
       129  11  2.550263E+05  2.123960E+04 -1.748322E+04  1.048528E+05  8.080437E-09 -6.784029E-09
       129  12  2.440400E+05  2.036703E+04 -1.928228E+04  1.050673E+05  7.608449E-09 -4.789686E-09
       129  13  3.218702E+05  4.958328E+04  4.512467E+02  1.264327E+05  3.765344E-09  6.839821E-09
       129  14  3.241452E+05  4.724574E+04  6.375072E+02  1.237896E+05  8.998706E-09 -1.851329E-09
       129  15  3.218806E+05  4.965759E+04  1.093793E+03  1.264046E+05  5.738069E-09 -9.336242E-10
       129  16  3.822706E+05  7.230513E+04  1.631612E+04  1.429706E+05  1.090842E-09 -9.602934E-10
       129  17  3.932685E+05  7.325214E+04  1.875780E+04  1.427284E+05  2.013779E-10 -4.760391E-09
       129  18  3.997268E+05  7.894844E+04  2.146929E+04  1.477441E+05  1.298390E-09 -3.068539E-09
       129  19  2.614734E+05  2.686165E+04 -1.541393E+04  1.098962E+05  1.092741E+03 -1.922279E+03
       129  20  2.550263E+05  2.123960E+04 -1.748320E+04  1.048528E+05  1.561072E+03 -2.195296E+03
       129  21  2.440400E+05  2.036704E+04 -1.928226E+04  1.050673E+05  2.029502E+03 -2.468808E+03
       129  22  3.218702E+05  4.958328E+04  4.512557E+02  1.264327E+05  8.893424E+02 -1.998946E+03
       129  23  3.241452E+05  4.724575E+04  6.375204E+02  1.237896E+05  1.357463E+03 -2.272024E+03
       129  24  3.218806E+05  4.965760E+04  1.093812E+03  1.264045E+05  1.825688E+03 -2.545596E+03
       129  25  3.822706E+05  7.230513E+04  1.631613E+04  1.429706E+05  6.859218E+02 -2.075620E+03
       129  26  3.932685E+05  7.325215E+04  1.875781E+04  1.427284E+05  1.153830E+03 -2.348761E+03
       129  27  3.997268E+05  7.894845E+04  2.146930E+04  1.477441E+05  1.621846E+03 -2.622394E+03
       130   1  2.324776E+05  1.603462E+04 -2.204491E+04  1.021217E+05 -2.330638E+03  2.622786E+03
       130   2  2.258546E+05  1.013537E+04 -2.326537E+04  9.684697E+04 -3.729518E+03  2.550598E+03
       130   3  2.151012E+05  9.987421E+03 -2.327102E+04  9.670285E+04 -5.121289E+03  2.459802E+03
       130   4  3.219268E+05  4.956718E+04  1.414150E+03  1.264941E+05 -2.119935E+03  2.702157E+03
       130   5  3.240493E+05  4.710424E+04  2.482672E+03  1.237728E+05 -3.528638E+03  2.626242E+03
       130   6  3.220435E+05  5.039449E+04  4.773689E+03  1.261821E+05 -4.930250E+03  2.531714E+03
       130   7  4.113839E+05  8.310032E+04  2.487261E+04  1.508697E+05 -1.909198E+03  2.781540E+03
       130   8  4.222535E+05  8.407378E+04  2.822994E+04  1.507024E+05 -3.327723E+03  2.701899E+03
       130   9  4.289969E+05  9.080231E+04  3.281743E+04  1.556659E+05 -4.739175E+03  2.603640E+03
       130  10  2.324776E+05  1.603462E+04 -2.204494E+04  1.021217E+05  5.943963E-09  1.119781E-09
       130  11  2.258546E+05  1.013536E+04 -2.326541E+04  9.684698E+04  1.376694E-09 -2.251021E-09
       130  12  2.151012E+05  9.987407E+03 -2.327108E+04  9.670286E+04 -6.161852E-09 -9.692940E-09
       130  13  3.219268E+05  4.956717E+04  1.414128E+03  1.264941E+05  4.969332E-09  3.352635E-09
       130  14  3.240493E+05  4.710423E+04  2.482636E+03  1.237728E+05  1.592221E-09  5.940903E-09
       130  15  3.220435E+05  5.039448E+04  4.773631E+03  1.261821E+05  2.333989E-10 -5.864973E-09
       130  16  4.113839E+05  8.310031E+04  2.487259E+04  1.508697E+05 -1.542613E-09 -1.941455E-09
       130  17  4.222535E+05  8.407377E+04  2.822990E+04  1.507024E+05  4.573970E-09  3.551563E-09
       130  18  4.289969E+05  9.080230E+04  3.281738E+04  1.556659E+05  3.975810E-09 -4.004318E-09
       130  19  2.324776E+05  1.603462E+04 -2.204491E+04  1.021217E+05  2.330638E+03 -2.622786E+03
       130  20  2.258546E+05  1.013537E+04 -2.326537E+04  9.684697E+04  3.729518E+03 -2.550598E+03
       130  21  2.151012E+05  9.987421E+03 -2.327102E+04  9.670285E+04  5.121289E+03 -2.459802E+03
       130  22  3.219268E+05  4.956718E+04  1.414150E+03  1.264941E+05  2.119935E+03 -2.702157E+03
       130  23  3.240493E+05  4.710424E+04  2.482672E+03  1.237728E+05  3.528638E+03 -2.626242E+03
       130  24  3.220435E+05  5.039449E+04  4.773689E+03  1.261821E+05  4.930250E+03 -2.531714E+03
       130  25  4.113839E+05  8.310032E+04  2.487261E+04  1.508697E+05  1.909198E+03 -2.781540E+03
       130  26  4.222535E+05  8.407378E+04  2.822994E+04  1.507024E+05  3.327723E+03 -2.701899E+03
       130  27  4.289969E+05  9.080231E+04  3.281743E+04  1.556659E+05  4.739175E+03 -2.603640E+03
       131   1  2.028505E+05  5.456427E+03 -2.502679E+04  9.530179E+04 -6.193265E+03  2.371822E+03
       131   2  1.958003E+05 -2.535025E+03 -2.279921E+04  8.834631E+04 -1.174230E+04  7.329409E+02
       131   3  1.884658E+05  4.328258E+03 -1.380624E+04  8.439209E+04 -1.718172E+04 -1.196595E+03
       131   4  3.224621E+05  4.930844E+04  6.138147E+03  1.268818E+05 -5.914450E+03  2.476789E+03
       131   5  3.231697E+05  4.596757E+04  1.070148E+04  1.238365E+05 -1.161489E+04  7.808308E+02
       131   6  3.236221E+05  5.750988E+04  2.214906E+04  1.237925E+05 -1.720581E+04 -1.205824E+03
       131   7  4.420872E+05  9.316103E+04  3.730179E+04  1.584670E+05 -5.635578E+03  2.581777E+03
       131   8  4.505548E+05  9.447127E+04  4.420079E+04  1.593334E+05 -1.148745E+04  8.287320E+02
       131   9  4.587965E+05  1.106933E+05  5.810289E+04  1.632010E+05 -1.722991E+04 -1.215056E+03
       131  10  2.028505E+05  5.456410E+03 -2.502687E+04  9.530180E+04  3.861190E-10  7.459839E-10
       131  11  1.958001E+05 -2.535063E+03 -2.279947E+04  8.834632E+04  7.516126E-09  9.202240E-09
       131  12  1.884655E+05  4.328177E+03 -1.380680E+04  8.439207E+04  8.245501E-09  3.768848E-09
       131  13  3.224621E+05  4.930842E+04  6.138069E+03  1.268818E+05 -3.574160E-09 -7.522236E-09
       131  14  3.231695E+05  4.596753E+04  1.070123E+04  1.238366E+05 -6.997792E-10  3.961825E-09
       131  15  3.236218E+05  5.750980E+04  2.214851E+04  1.237925E+05  6.719180E-09  8.692332E-09
       131  16  4.420872E+05  9.316101E+04  3.730171E+04  1.584671E+05 -6.480284E-09 -8.026502E-09
       131  17  4.505546E+05  9.447123E+04  4.420054E+04  1.593334E+05 -8.033647E-09 -5.534231E-09
       131  18  4.587962E+05  1.106932E+05  5.810233E+04  1.632010E+05 -8.235322E-09 -1.838567E-09
       131  19  2.028505E+05  5.456427E+03 -2.502679E+04  9.530179E+04  6.193265E+03 -2.371822E+03
       131  20  1.958003E+05 -2.535025E+03 -2.279921E+04  8.834631E+04  1.174230E+04 -7.329409E+02
       131  21  1.884658E+05  4.328258E+03 -1.380624E+04  8.439209E+04  1.718172E+04  1.196595E+03
       131  22  3.224621E+05  4.930844E+04  6.138147E+03  1.268818E+05  5.914450E+03 -2.476789E+03
       131  23  3.231697E+05  4.596757E+04  1.070148E+04  1.238365E+05  1.161489E+04 -7.808308E+02
       131  24  3.236221E+05  5.750988E+04  2.214906E+04  1.237925E+05  1.720581E+04  1.205824E+03
       131  25  4.420872E+05  9.316103E+04  3.730179E+04  1.584670E+05  5.635578E+03 -2.581777E+03
       131  26  4.505548E+05  9.447127E+04  4.420079E+04  1.593334E+05  1.148745E+04 -8.287320E+02
       131  27  4.587965E+05  1.106933E+05  5.810289E+04  1.632010E+05  1.722991E+04  1.215056E+03
       132   1  1.706677E+05 -1.801193E+03 -1.165826E+04  9.812349E+04 -2.252410E+04 -2.283610E+03
       132   2  1.627013E+05 -2.907287E+04  3.978787E+03  7.565798E+04 -4.527208E+04 -1.055650E+04
       132   3  1.891475E+05  4.475509E+04  6.287437E+04  3.368748E+04 -6.649640E+04 -2.287753E+04
       132   4  3.271370E+05  4.652385E+04  2.728910E+04  1.301702E+05 -2.135022E+04 -1.841400E+03
       132   5  3.153597E+05  3.560717E+04  4.534324E+04  1.249321E+05 -4.619750E+04 -1.090550E+04
       132   6  3.384001E+05  1.261893E+05  1.083105E+05  1.001920E+05 -6.952112E+04 -2.401877E+04
       132   7  4.836303E+05  9.484881E+04  6.623474E+04  1.622234E+05 -2.017600E+04 -1.399117E+03
       132   8  4.680402E+05  1.002902E+05  8.670540E+04  1.742175E+05 -4.712317E+04 -1.125462E+04
       132   9  4.876743E+05  2.076324E+05  1.537440E+05  1.667127E+05 -7.254660E+04 -2.516059E+04
       132  10  1.706671E+05 -1.801335E+03 -1.165923E+04  9.812345E+04  1.079638E-08  5.794214E-09
       132  11  1.626991E+05 -2.907354E+04  3.974727E+03  7.565759E+04  5.246265E-09 -5.697355E-10
       132  12  1.891426E+05  4.475334E+04  6.286508E+04  3.368625E+04 -1.193565E-09 -2.951060E-09
       132  13  3.271365E+05  4.652373E+04  2.728824E+04  1.301702E+05  7.090200E-10  9.632518E-09
       132  14  3.153574E+05  3.560647E+04  4.533901E+04  1.249316E+05 -1.057290E-09  2.429784E-09
       132  15  3.383948E+05  1.261874E+05  1.083003E+05  1.001907E+05  2.355581E-09  1.179408E-10
       132  16  4.836299E+05  9.484870E+04  6.623397E+04  1.622233E+05 -6.350747E-09 -3.438642E-09
       132  17  4.680377E+05  1.002894E+05  8.670099E+04  1.742170E+05  5.213357E-09  2.870205E-09
       132  18  4.876684E+05  2.076303E+05  1.537330E+05  1.667112E+05  9.756318E-09  2.370375E-11
       132  19  1.706677E+05 -1.801193E+03 -1.165826E+04  9.812349E+04  2.252410E+04  2.283610E+03
       132  20  1.627013E+05 -2.907287E+04  3.978787E+03  7.565798E+04  4.527208E+04  1.055650E+04
       132  21  1.891475E+05  4.475509E+04  6.287437E+04  3.368748E+04  6.649640E+04  2.287753E+04
       132  22  3.271370E+05  4.652385E+04  2.728910E+04  1.301702E+05  2.135022E+04  1.841400E+03
       132  23  3.153597E+05  3.560717E+04  4.534324E+04  1.249321E+05  4.619750E+04  1.090550E+04
       132  24  3.384001E+05  1.261893E+05  1.083105E+05  1.001920E+05  6.952112E+04  2.401877E+04
       132  25  4.836303E+05  9.484881E+04  6.623474E+04  1.622234E+05  2.017600E+04  1.399117E+03
       132  26  4.680402E+05  1.002902E+05  8.670540E+04  1.742175E+05  4.712317E+04  1.125462E+04
       132  27  4.876743E+05  2.076324E+05  1.537440E+05  1.667127E+05  7.254660E+04  2.516059E+04
       133   1 -1.438463E+02 -4.212656E+05 -1.771552E+03 -7.930226E+01 -3.220212E+01  1.338458E+02
       133   2 -3.435999E+02 -4.221846E+05 -2.389926E+03  1.721894E+02 -6.278437E+01  1.128002E+03
       133   3 -9.834204E+02 -4.233447E+05 -3.766221E+03 -2.037045E+02 -1.086450E+02  2.122155E+03
       133   4 -5.744324E+00 -4.207037E+05 -1.643993E+03 -1.393244E+02 -3.221613E+01  1.475207E+02
       133   5  5.212995E+01 -4.205823E+05 -2.014221E+03  1.742014E+02 -6.280808E+01  1.151208E+03
       133   6 -3.317132E+02 -4.207039E+05 -3.148985E+03 -1.396575E+02 -1.086782E+02  2.154894E+03
       133   7  1.323576E+02 -4.201417E+05 -1.516435E+03 -1.993466E+02 -3.223014E+01  1.611956E+02
       133   8  4.478596E+02 -4.189801E+05 -1.638515E+03  1.762134E+02 -6.283179E+01  1.174414E+03
       133   9  3.199935E+02 -4.180630E+05 -2.531749E+03 -7.561015E+01 -1.087114E+02  2.187632E+03
       133  10 -1.438463E+02 -4.212656E+05 -1.771552E+03 -7.930226E+01 -4.634953E-10 -5.084109E-09
       133  11 -3.436003E+02 -4.221846E+05 -2.389929E+03  1.721895E+02  4.800245E-09  2.830050E-10
       133  12 -9.834216E+02 -4.233447E+05 -3.766230E+03 -2.037043E+02 -3.719282E-09  4.743936E-09
       133  13 -5.744331E+00 -4.207037E+05 -1.643993E+03 -1.393244E+02 -5.701015E-09 -2.133983E-09
       133  14  5.212959E+01 -4.205824E+05 -2.014223E+03  1.742015E+02 -8.943022E-10 -1.661699E-09
       133  15 -3.317144E+02 -4.207039E+05 -3.148993E+03 -1.396573E+02  8.323669E-10 -1.263840E-10
       133  16  1.323576E+02 -4.201417E+05 -1.516435E+03 -1.993466E+02  2.728650E-09  6.743662E-09
       133  17  4.478592E+02 -4.189801E+05 -1.638518E+03  1.762135E+02  4.321489E-09  1.382799E-09
       133  18  3.199922E+02 -4.180630E+05 -2.531758E+03 -7.560996E+01  1.846544E-09 -2.359918E-09
       133  19 -1.438463E+02 -4.212656E+05 -1.771552E+03 -7.930226E+01  3.220212E+01 -1.338458E+02
       133  20 -3.435999E+02 -4.221846E+05 -2.389926E+03  1.721894E+02  6.278437E+01 -1.128002E+03
       133  21 -9.834204E+02 -4.233447E+05 -3.766221E+03 -2.037045E+02  1.086450E+02 -2.122155E+03
       133  22 -5.744324E+00 -4.207037E+05 -1.643993E+03 -1.393244E+02  3.221613E+01 -1.475207E+02
       133  23  5.212995E+01 -4.205823E+05 -2.014221E+03  1.742014E+02  6.280808E+01 -1.151208E+03
       133  24 -3.317132E+02 -4.207039E+05 -3.148985E+03 -1.396575E+02  1.086782E+02 -2.154894E+03
       133  25  1.323576E+02 -4.201417E+05 -1.516435E+03 -1.993466E+02  3.223014E+01 -1.611956E+02
       133  26  4.478596E+02 -4.189801E+05 -1.638515E+03  1.762134E+02  6.283179E+01 -1.174414E+03
       133  27  3.199935E+02 -4.180630E+05 -2.531749E+03 -7.561015E+01  1.087114E+02 -2.187632E+03
       134   1 -7.142884E+02 -4.247645E+05 -4.821252E+03  4.866504E+02 -1.404921E+02  2.747811E+03
       134   2 -7.439724E+02 -4.250098E+05 -7.630727E+03 -1.434968E+02 -1.887151E+02  6.061978E+03
       134   3 -5.379087E+03 -4.268401E+05 -1.375062E+04 -1.401547E+03 -2.249949E+02  9.376142E+03
       134   4  2.172568E+02 -4.210017E+05 -3.935726E+03 -1.382718E+02 -1.405272E+02  2.779514E+03
       134   5  4.407654E+02 -4.202106E+05 -6.504660E+03  1.735658E+02 -1.887365E+02  6.086249E+03
       134   6 -3.939847E+03 -4.210031E+05 -1.237883E+04 -1.425000E+02 -2.249928E+02  9.392987E+03
       134   7  1.148802E+03 -4.172389E+05 -3.050201E+03 -7.631979E+02 -1.405623E+02  2.811217E+03
       134   8  1.625502E+03 -4.154113E+05 -5.378594E+03  4.906308E+02 -1.887580E+02  6.110521E+03
       134   9 -2.500604E+03 -4.151660E+05 -1.100704E+04  1.116559E+03 -2.249906E+02  9.409832E+03
       134  10 -7.142905E+02 -4.247645E+05 -4.821266E+03  4.866507E+02 -8.077932E-09 -6.588332E-10
       134  11 -7.439823E+02 -4.250099E+05 -7.630796E+03 -1.434959E+02 -1.553681E-09  4.846332E-09
       134  12 -5.379110E+03 -4.268402E+05 -1.375079E+04 -1.401545E+03 -4.579245E-09  4.468742E-09
       134  13  2.172547E+02 -4.210017E+05 -3.935741E+03 -1.382715E+02 -6.152141E-09 -2.198597E-09
       134  14  4.407554E+02 -4.202106E+05 -6.504730E+03  1.735667E+02 -3.356713E-09 -2.846462E-09
       134  15 -3.939871E+03 -4.210032E+05 -1.237900E+04 -1.424983E+02 -5.574930E-09 -9.698254E-10
       134  16  1.148800E+03 -4.172389E+05 -3.050216E+03 -7.631976E+02 -8.432456E-10  6.540613E-10
       134  17  1.625492E+03 -4.154113E+05 -5.378665E+03  4.906318E+02 -4.645876E-09 -4.089854E-09
       134  18 -2.500627E+03 -4.151661E+05 -1.100721E+04  1.116561E+03 -6.036884E-10 -3.826753E-09
       134  19 -7.142884E+02 -4.247645E+05 -4.821252E+03  4.866504E+02  1.404921E+02 -2.747811E+03
       134  20 -7.439724E+02 -4.250098E+05 -7.630727E+03 -1.434968E+02  1.887151E+02 -6.061978E+03
       134  21 -5.379087E+03 -4.268401E+05 -1.375062E+04 -1.401547E+03  2.249949E+02 -9.376142E+03
       134  22  2.172568E+02 -4.210017E+05 -3.935726E+03 -1.382718E+02  1.405272E+02 -2.779514E+03
       134  23  4.407654E+02 -4.202106E+05 -6.504660E+03  1.735658E+02  1.887365E+02 -6.086249E+03
       134  24 -3.939847E+03 -4.210031E+05 -1.237883E+04 -1.425000E+02  2.249928E+02 -9.392987E+03
       134  25  1.148802E+03 -4.172389E+05 -3.050201E+03 -7.631979E+02  1.405623E+02 -2.811217E+03
       134  26  1.625502E+03 -4.154113E+05 -5.378594E+03  4.906308E+02  1.887580E+02 -6.110521E+03
       134  27 -2.500604E+03 -4.151660E+05 -1.100704E+04  1.116559E+03  2.249906E+02 -9.409832E+03
       135   1  7.295795E+02 -4.308543E+05 -1.688285E+04  6.340346E+03 -2.832031E+02  1.161395E+04
       135   2  2.661951E+03 -4.245538E+05 -2.670793E+04 -4.932473E+03 -3.216102E+02  2.508211E+04
       135   3 -4.723350E+04 -4.329688E+05 -5.826261E+04 -1.685544E+04 -1.388221E+02  3.855032E+04
       135   4  2.459781E+03 -4.239139E+05 -1.525394E+04 -1.304533E+02 -2.834096E+02  1.169841E+04
       135   5  4.621121E+03 -4.165729E+05 -2.483459E+04  1.708544E+02 -3.213492E+02  2.502846E+04
       135   6 -4.502151E+04 -4.239235E+05 -5.604877E+04 -1.783287E+02 -1.375923E+02  3.835858E+04
       135   7  4.190136E+03 -4.169733E+05 -1.362501E+04 -6.601325E+03 -2.836179E+02  1.178287E+04
       135   8  6.580385E+03 -4.085918E+05 -2.296125E+04  5.274248E+03 -3.210890E+02  2.497481E+04
       135   9 -4.280849E+04 -4.148774E+05 -5.383478E+04  1.649902E+04 -1.363728E+02  3.816683E+04
       135  10  7.295432E+02 -4.308544E+05 -1.688310E+04  6.340349E+03 -3.412388E-09  1.054338E-08
       135  11  2.661782E+03 -4.245545E+05 -2.670911E+04 -4.932467E+03  1.770896E-09  4.269696E-09
       135  12 -4.723390E+04 -4.329704E+05 -5.826541E+04 -1.685543E+04  1.385596E-09 -3.083968E-09
       135  13  2.459744E+03 -4.239140E+05 -1.525420E+04 -1.304507E+02 -2.566005E-09 -2.156467E-09
       135  14  4.620953E+03 -4.165736E+05 -2.483577E+04  1.708609E+02 -6.164394E-09 -1.768395E-09
       135  15 -4.502191E+04 -4.239250E+05 -5.605153E+04 -1.783244E+02 -2.663468E-09 -1.594050E-09
       135  16  4.190099E+03 -4.169735E+05 -1.362527E+04 -6.601323E+03 -5.063438E-10 -9.434420E-09
       135  17  6.580217E+03 -4.085925E+05 -2.296242E+04  5.274254E+03 -1.071475E-09 -4.164402E-09
       135  18 -4.280888E+04 -4.148790E+05 -5.383752E+04  1.649903E+04 -2.659160E-09  6.033988E-09
       135  19  7.295795E+02 -4.308543E+05 -1.688285E+04  6.340346E+03  2.832031E+02 -1.161395E+04
       135  20  2.661951E+03 -4.245538E+05 -2.670793E+04 -4.932473E+03  3.216102E+02 -2.508211E+04
       135  21 -4.723350E+04 -4.329688E+05 -5.826261E+04 -1.685544E+04  1.388221E+02 -3.855032E+04
       135  22  2.459781E+03 -4.239139E+05 -1.525394E+04 -1.304533E+02  2.834096E+02 -1.169841E+04
       135  23  4.621121E+03 -4.165729E+05 -2.483459E+04  1.708544E+02  3.213492E+02 -2.502846E+04
       135  24 -4.502151E+04 -4.239235E+05 -5.604877E+04 -1.783287E+02  1.375923E+02 -3.835858E+04
       135  25  4.190136E+03 -4.169733E+05 -1.362501E+04 -6.601325E+03  2.836179E+02 -1.178287E+04
       135  26  6.580385E+03 -4.085918E+05 -2.296125E+04  5.274248E+03  3.210890E+02 -2.497481E+04
       135  27 -4.280849E+04 -4.148774E+05 -5.383478E+04  1.649902E+04  1.363728E+02 -3.816683E+04
       136   1 -7.406928E+06 -2.432308E+06 -1.292321E+06 -2.608159E+06 -4.269303E+05 -8.670541E+04
       136   2 -7.208307E+06 -2.144519E+06 -9.772102E+05 -2.535787E+06 -2.875171E+05  1.453767E+05
       136   3 -7.045460E+06 -2.027371E+06 -8.469179E+05 -2.478035E+06 -1.029392E+05  2.604139E+05
       136   4 -3.232301E+06 -7.547017E+05 -1.801087E+05 -1.364917E+06 -1.415269E+05  2.270694E+04
       136   5 -3.219695E+06 -6.158111E+05 -8.215776E+04 -1.383931E+06 -1.578593E+05  1.948194E+05
       136   6 -3.211269E+06 -6.158776E+05 -4.387179E+04 -1.417663E+06 -1.292691E+05  2.501980E+05
       136   7  9.595659E+05  9.246549E+05  9.309017E+05 -1.137850E+05  1.460066E+05  1.330323E+05
       136   8  7.852140E+05  9.144483E+05  8.119510E+05 -2.250981E+05 -2.728785E+04  2.446304E+05
       136   9  6.381784E+05  7.968605E+05  7.583931E+05 -3.511830E+05 -1.557770E+05  2.399166E+05
       136  10 -7.407128E+06 -2.432366E+06 -1.292683E+06 -2.608189E+06 -2.479068E-08 -8.613380E-09
       136  11 -7.208402E+06 -2.144564E+06 -9.774062E+05 -2.535754E+06 -7.098600E-09  1.389682E-09
       136  12 -7.045489E+06 -2.027446E+06 -8.470650E+05 -2.478013E+06  2.817396E-08  9.964382E-09
       136  13 -3.232323E+06 -7.547077E+05 -1.801474E+05 -1.364914E+06  1.072284E-09  5.106107E-10
       136  14 -3.219732E+06 -6.158584E+05 -8.227578E+04 -1.383906E+06 -5.223884E-09 -1.325654E-08
       136  15 -3.211303E+06 -6.159492E+05 -4.402056E+04 -1.417637E+06 -3.642233E-09 -3.509570E-09
       136  16  9.595383E+05  9.246302E+05  9.308284E+05 -1.138007E+05  2.128671E-08  7.517520E-09
       136  17  7.851972E+05  9.143839E+05  8.118373E+05 -2.250928E+05 -5.714592E-09  2.745185E-09
       136  18  6.381370E+05  7.967923E+05  7.582396E+05 -3.511530E+05 -3.450476E-08 -1.757773E-08
       136  19 -7.406928E+06 -2.432308E+06 -1.292321E+06 -2.608159E+06  4.269303E+05  8.670541E+04
       136  20 -7.208307E+06 -2.144519E+06 -9.772102E+05 -2.535787E+06  2.875171E+05 -1.453767E+05
       136  21 -7.045460E+06 -2.027371E+06 -8.469179E+05 -2.478035E+06  1.029392E+05 -2.604139E+05
       136  22 -3.232301E+06 -7.547017E+05 -1.801087E+05 -1.364917E+06  1.415269E+05 -2.270694E+04
       136  23 -3.219695E+06 -6.158111E+05 -8.215776E+04 -1.383931E+06  1.578593E+05 -1.948194E+05
       136  24 -3.211269E+06 -6.158776E+05 -4.387179E+04 -1.417663E+06  1.292691E+05 -2.501980E+05
       136  25  9.595659E+05  9.246549E+05  9.309017E+05 -1.137850E+05 -1.460066E+05 -1.330323E+05
       136  26  7.852140E+05  9.144483E+05  8.119510E+05 -2.250981E+05  2.728785E+04 -2.446304E+05
       136  27  6.381784E+05  7.968605E+05  7.583931E+05 -3.511830E+05  1.557770E+05 -2.399166E+05
       137   1 -6.878656E+06 -1.989940E+06 -8.059243E+05 -2.445341E+06 -1.180529E+05  2.423020E+05
       137   2 -6.687267E+06 -1.878075E+06 -7.355616E+05 -2.359625E+06 -9.677874E+04  2.443475E+05
       137   3 -6.453896E+06 -1.816548E+06 -6.806023E+05 -2.322542E+06 -7.264603E+04  2.387703E+05
       137   4 -3.204350E+06 -6.230535E+05 -3.370925E+04 -1.414648E+06 -1.200841E+05  2.413684E+05
       137   5 -3.225584E+06 -5.955379E+05 -1.808912E+04 -1.391494E+06 -1.089135E+05  2.395901E+05
       137   6 -3.202842E+06 -6.162965E+05 -9.749175E+03 -1.416972E+06 -9.490035E+04  2.302093E+05
       137   7  4.839250E+05  7.450370E+05  7.377688E+05 -3.782451E+05 -1.221285E+05  2.404303E+05
       137   8  2.485141E+05  6.880595E+05  6.987485E+05 -4.183153E+05 -1.211222E+05  2.348051E+05
       137   9  5.914903E+04  5.848719E+05  6.605479E+05 -5.069749E+05 -1.172816E+05  2.216007E+05
       137  10 -6.878687E+06 -1.990007E+06 -8.060605E+05 -2.445318E+06 -1.030750E-08 -6.715847E-10
       137  11 -6.687293E+06 -1.878142E+06 -7.356912E+05 -2.359606E+06  3.948870E-09  5.230206E-09
       137  12 -6.453917E+06 -1.816610E+06 -6.807192E+05 -2.322528E+06  1.226597E-08  4.846611E-09
       137  13 -3.204381E+06 -6.231198E+05 -3.384558E+04 -1.414625E+06  4.430121E-09 -4.195798E-11
       137  14 -3.225612E+06 -5.956026E+05 -1.821905E+04 -1.391473E+06  1.151247E-08  1.851826E-09
       137  15 -3.202866E+06 -6.163557E+05 -9.865479E+03 -1.416954E+06  9.523379E-10  4.328466E-09
       137  16  4.838935E+05  7.449710E+05  7.376323E+05 -3.782215E+05  1.307618E-08  4.168346E-09
       137  17  2.484836E+05  6.879965E+05  6.986176E+05 -4.182925E+05  6.936804E-09  7.047626E-09
       137  18  5.912114E+04  5.848156E+05  6.604300E+05 -5.069540E+05 -8.834902E-09  2.085407E-09
       137  19 -6.878656E+06 -1.989940E+06 -8.059243E+05 -2.445341E+06  1.180529E+05 -2.423020E+05
       137  20 -6.687267E+06 -1.878075E+06 -7.355616E+05 -2.359625E+06  9.677874E+04 -2.443475E+05
       137  21 -6.453896E+06 -1.816548E+06 -6.806023E+05 -2.322542E+06  7.264603E+04 -2.387703E+05
       137  22 -3.204350E+06 -6.230535E+05 -3.370925E+04 -1.414648E+06  1.200841E+05 -2.413684E+05
       137  23 -3.225584E+06 -5.955379E+05 -1.808912E+04 -1.391494E+06  1.089135E+05 -2.395901E+05
       137  24 -3.202842E+06 -6.162965E+05 -9.749175E+03 -1.416972E+06  9.490035E+04 -2.302093E+05
       137  25  4.839250E+05  7.450370E+05  7.377688E+05 -3.782451E+05  1.221285E+05 -2.404303E+05
       137  26  2.485141E+05  6.880595E+05  6.987485E+05 -4.183153E+05  1.211222E+05 -2.348051E+05
       137  27  5.914903E+04  5.848719E+05  6.605479E+05 -5.069749E+05  1.172816E+05 -2.216007E+05
       138   1 -6.301251E+06 -1.760481E+06 -6.456401E+05 -2.280474E+06 -6.882181E+04  2.291010E+05
       138   2 -6.102230E+06 -1.652966E+06 -5.962726E+05 -2.190972E+06 -5.966550E+04  2.141955E+05
       138   3 -5.855543E+06 -1.591892E+06 -5.487688E+05 -2.153850E+06 -5.029881E+04  1.985937E+05
       138   4 -3.201943E+06 -6.168108E+05 -7.394322E+03 -1.417354E+06 -8.981709E+04  2.210394E+05
       138   5 -3.225512E+06 -5.930158E+05 -4.255919E+03 -1.391314E+06 -8.157265E+04  2.058236E+05
       138   6 -3.201301E+06 -6.154702E+05 -2.257081E+03 -1.417660E+06 -7.311969E+04  1.899128E+05
       138   7 -9.264332E+04  5.277127E+05  6.303622E+05 -5.501983E+05 -1.109268E+05  2.129351E+05
       138   8 -3.401998E+05  4.676602E+05  5.873376E+05 -5.881909E+05 -1.035904E+05  1.974103E+05
       138   9 -5.397568E+05  3.615608E+05  5.438917E+05 -6.785300E+05 -9.604674E+04  1.811923E+05
       138  10 -6.301270E+06 -1.760539E+06 -6.457475E+05 -2.280461E+06 -8.318029E-09 -5.937312E-09
       138  11 -6.102246E+06 -1.653016E+06 -5.963653E+05 -2.190962E+06 -1.368434E-09  1.178931E-09
       138  12 -5.855556E+06 -1.591935E+06 -5.488476E+05 -2.153842E+06  1.302839E-08  6.487887E-09
       138  13 -3.201964E+06 -6.168654E+05 -7.501103E+03 -1.417338E+06  7.477951E-10 -4.477082E-09
       138  14 -3.225531E+06 -5.930630E+05 -4.347866E+03 -1.391301E+06 -4.909701E-10 -5.106605E-09
       138  15 -3.201316E+06 -6.155103E+05 -2.334765E+03 -1.417648E+06 -5.144172E-09 -7.762758E-09
       138  16 -9.266865E+04  5.276608E+05  6.302541E+05 -5.501793E+05  8.229033E-09  3.689905E-09
       138  17 -3.402218E+05  4.676156E+05  5.872444E+05 -5.881745E+05 -5.770474E-09  6.365261E-10
       138  18 -5.397754E+05  3.615231E+05  5.438128E+05 -6.785160E+05 -2.049571E-08 -5.707756E-09
       138  19 -6.301251E+06 -1.760481E+06 -6.456401E+05 -2.280474E+06  6.882181E+04 -2.291010E+05
       138  20 -6.102230E+06 -1.652966E+06 -5.962726E+05 -2.190972E+06  5.966550E+04 -2.141955E+05
       138  21 -5.855543E+06 -1.591892E+06 -5.487688E+05 -2.153850E+06  5.029881E+04 -1.985937E+05
       138  22 -3.201943E+06 -6.168108E+05 -7.394322E+03 -1.417354E+06  8.981709E+04 -2.210394E+05
       138  23 -3.225512E+06 -5.930158E+05 -4.255919E+03 -1.391314E+06  8.157265E+04 -2.058236E+05
       138  24 -3.201301E+06 -6.154702E+05 -2.257081E+03 -1.417660E+06  7.311969E+04 -1.899128E+05
       138  25 -9.264332E+04  5.277127E+05  6.303622E+05 -5.501983E+05  1.109268E+05 -2.129351E+05
       138  26 -3.401998E+05  4.676602E+05  5.873376E+05 -5.881909E+05  1.035904E+05 -1.974103E+05
       138  27 -5.397568E+05  3.615608E+05  5.438917E+05 -6.785300E+05  9.604674E+04 -1.811923E+05
       139   1 -5.697948E+06 -1.533363E+06 -5.144389E+05 -2.110197E+06 -4.603970E+04  1.887841E+05
       139   2 -5.491368E+06 -1.423375E+06 -4.668069E+05 -2.018188E+06 -3.863163E+04  1.718361E+05
       139   3 -5.235951E+06 -1.361051E+06 -4.195282E+05 -1.980629E+06 -3.118737E+04  1.546739E+05
       139   4 -3.200870E+06 -6.156351E+05 -1.766465E+03 -1.418093E+06 -6.900242E+04  1.800694E+05
       139   5 -3.225039E+06 -5.913384E+05 -1.198017E+03 -1.390972E+06 -6.187305E+04  1.630454E+05
       139   6 -3.200381E+06 -6.146450E+05 -7.673411E+02 -1.418311E+06 -5.470799E+04  1.458076E+05
       139   7 -6.973469E+05  3.026235E+05  5.105817E+05 -7.233962E+05 -9.206538E+04  1.713172E+05
       139   8 -9.533891E+05  2.411387E+05  4.641482E+05 -7.616202E+05 -8.520663E+04  1.542203E+05
       139   9 -1.160505E+06  1.321188E+05  4.177857E+05 -8.542711E+05 -7.831249E+04  1.369099E+05
       139  10 -5.697960E+06 -1.533402E+06 -5.145098E+05 -2.110190E+06 -1.800817E-08 -3.868314E-09
       139  11 -5.491378E+06 -1.423407E+06 -4.668651E+05 -2.018183E+06  9.821075E-09  6.277710E-09
       139  12 -5.235958E+06 -1.361076E+06 -4.195749E+05 -1.980625E+06  3.473791E-08  1.368705E-08
       139  13 -3.200884E+06 -6.156711E+05 -1.836220E+03 -1.418083E+06 -5.632620E-09 -6.834475E-09
       139  14 -3.225051E+06 -5.913679E+05 -1.255065E+03 -1.390964E+06  1.176826E-10 -1.027249E-09
       139  15 -3.200389E+06 -6.146685E+05 -8.128351E+02 -1.418305E+06  6.975907E-09  9.132057E-09
       139  16 -6.973638E+05  3.025898E+05  5.105108E+05 -7.233835E+05  1.008280E-08  5.235247E-09
       139  17 -9.534032E+05  2.411113E+05  4.640899E+05 -7.616096E+05 -9.666401E-09 -7.317764E-09
       139  18 -1.160516E+06  1.320971E+05  4.177390E+05 -8.542625E+05 -2.354269E-08 -1.111817E-08
       139  19 -5.697948E+06 -1.533363E+06 -5.144389E+05 -2.110197E+06  4.603970E+04 -1.887841E+05
       139  20 -5.491368E+06 -1.423375E+06 -4.668069E+05 -2.018188E+06  3.863163E+04 -1.718361E+05
       139  21 -5.235951E+06 -1.361051E+06 -4.195282E+05 -1.980629E+06  3.118737E+04 -1.546739E+05
       139  22 -3.200870E+06 -6.156351E+05 -1.766465E+03 -1.418093E+06  6.900242E+04 -1.800694E+05
       139  23 -3.225039E+06 -5.913384E+05 -1.198017E+03 -1.390972E+06  6.187305E+04 -1.630454E+05
       139  24 -3.200381E+06 -6.146450E+05 -7.673411E+02 -1.418311E+06  5.470799E+04 -1.458076E+05
       139  25 -6.973469E+05  3.026235E+05  5.105817E+05 -7.233962E+05  9.206538E+04 -1.713172E+05
       139  26 -9.533891E+05  2.411387E+05  4.641482E+05 -7.616202E+05  8.520663E+04 -1.542203E+05
       139  27 -1.160505E+06  1.321188E+05  4.177857E+05 -8.542711E+05  7.831249E+04 -1.369099E+05
       140   1 -5.073573E+06 -1.301116E+06 -3.847246E+05 -1.935963E+06 -2.702118E+04  1.445133E+05
       140   2 -4.861057E+06 -1.189125E+06 -3.367912E+05 -1.842113E+06 -1.969426E+04  1.269882E+05
       140   3 -4.599112E+06 -1.125937E+06 -2.891863E+05 -1.804291E+06 -1.235080E+04  1.093310E+05
       140   4 -3.200093E+06 -6.147569E+05 -7.688600E+02 -1.418656E+06 -5.071911E+04  1.355957E+05
       140   5 -3.224604E+06 -5.899961E+05 -9.645806E+02 -1.390719E+06 -4.356499E+04  1.180272E+05
       140   6 -3.199720E+06 -6.140007E+05 -1.356841E+03 -1.418822E+06 -3.639469E+04  1.003268E+05
       140   7 -1.322978E+06  7.190014E+04  3.830090E+05 -8.998932E+05 -7.449459E+04  1.266491E+05
       140   8 -1.585386E+06  9.356740E+03  3.347246E+05 -9.382177E+05 -6.750380E+04  1.090407E+05
       140   9 -1.798314E+06 -1.019040E+05  2.863705E+05 -1.032548E+06 -6.049710E+04  9.130081E+04
       140  10 -5.073579E+06 -1.301138E+06 -3.847651E+05 -1.935960E+06 -1.090432E-08 -6.484622E-09
       140  11 -4.861061E+06 -1.189142E+06 -3.368221E+05 -1.842111E+06 -1.097519E-08 -9.941678E-09
       140  12 -4.599116E+06 -1.125950E+06 -2.892090E+05 -1.804290E+06 -7.615955E-09 -7.434986E-09
       140  13 -3.200101E+06 -6.147773E+05 -8.081747E+02 -1.418650E+06  5.310423E-09  9.016772E-09
       140  14 -3.224610E+06 -5.900115E+05 -9.942719E+02 -1.390715E+06 -1.825472E-09  2.597716E-09
       140  15 -3.199725E+06 -6.140119E+05 -1.378207E+03 -1.418819E+06 -6.044631E-09 -6.712224E-10
       140  16 -1.322988E+06  7.188146E+04  3.829685E+05 -8.998856E+05  2.358583E-08  8.234995E-09
       140  17 -1.585394E+06  9.342778E+03  3.346938E+05 -9.382118E+05  1.068615E-08  4.687756E-09
       140  18 -1.798320E+06 -1.019139E+05  2.863480E+05 -1.032543E+06  7.454574E-10  2.842017E-10
       140  19 -5.073573E+06 -1.301116E+06 -3.847246E+05 -1.935963E+06  2.702118E+04 -1.445133E+05
       140  20 -4.861057E+06 -1.189125E+06 -3.367912E+05 -1.842113E+06  1.969426E+04 -1.269882E+05
       140  21 -4.599112E+06 -1.125937E+06 -2.891863E+05 -1.804291E+06  1.235080E+04 -1.093310E+05
       140  22 -3.200093E+06 -6.147569E+05 -7.688600E+02 -1.418656E+06  5.071911E+04 -1.355957E+05
       140  23 -3.224604E+06 -5.899961E+05 -9.645806E+02 -1.390719E+06  4.356499E+04 -1.180272E+05
       140  24 -3.199720E+06 -6.140007E+05 -1.356841E+03 -1.418822E+06  3.639469E+04 -1.003268E+05
       140  25 -1.322978E+06  7.190014E+04  3.830090E+05 -8.998932E+05  7.449459E+04 -1.266491E+05
       140  26 -1.585386E+06  9.356740E+03  3.347246E+05 -9.382177E+05  6.750380E+04 -1.090407E+05
       140  27 -1.798314E+06 -1.019040E+05  2.863705E+05 -1.032548E+06  6.049710E+04 -9.130081E+04
       141   1 -4.433192E+06 -1.065007E+06 -2.540980E+05 -1.758898E+06 -8.034831E+03  9.899438E+04
       141   2 -4.216512E+06 -9.517081E+05 -2.065742E+05 -1.663780E+06  2.970674E+02  8.153028E+04
       141   3 -3.950212E+06 -8.881451E+05 -1.602109E+05 -1.625786E+06  8.614333E+03  6.405289E+04
       141   4 -3.199578E+06 -6.140732E+05 -1.778893E+03 -1.419083E+06 -3.221677E+04  8.994907E+04
       141   5 -3.224246E+06 -5.890181E+05 -3.142883E+03 -1.390546E+06 -2.390107E+04  7.249191E+04
       141   6 -3.199363E+06 -6.136987E+05 -5.659837E+03 -1.419152E+06 -1.560071E+04  5.502138E+04
       141   7 -1.964378E+06 -1.630074E+05  2.504677E+05 -1.078636E+06 -5.645091E+04  8.088428E+04
       141   8 -2.230956E+06 -2.262435E+05  2.002415E+05 -1.116904E+06 -4.814114E+04  6.343787E+04
       141   9 -2.447929E+06 -3.392046E+05  1.488646E+05 -1.212285E+06 -3.984743E+04  4.597804E+04
       141  10 -4.433194E+06 -1.065017E+06 -2.541165E+05 -1.758897E+06 -4.724693E-09 -4.091220E-09
       141  11 -4.216514E+06 -9.517152E+05 -2.065867E+05 -1.663780E+06 -4.667011E-09 -3.267211E-09
       141  12 -3.950213E+06 -8.881495E+05 -1.602188E+05 -1.625786E+06 -5.026636E-09 -2.654881E-09
       141  13 -3.199581E+06 -6.140822E+05 -1.796017E+03 -1.419080E+06 -6.199108E-09 -1.242906E-09
       141  14 -3.224248E+06 -5.890239E+05 -3.153813E+03 -1.390544E+06 -1.765651E-09  1.207791E-09
       141  15 -3.199364E+06 -6.137020E+05 -5.665973E+03 -1.419151E+06 -1.683471E-09 -3.210552E-09
       141  16 -1.964383E+06 -1.630152E+05  2.504495E+05 -1.078632E+06 -1.290927E-11  1.169159E-10
       141  17 -2.230959E+06 -2.262484E+05  2.002296E+05 -1.116901E+06  1.904766E-09  2.590256E-11
       141  18 -2.447931E+06 -3.392073E+05  1.488576E+05 -1.212284E+06  6.065583E-09  2.434605E-09
       141  19 -4.433192E+06 -1.065007E+06 -2.540980E+05 -1.758898E+06  8.034831E+03 -9.899438E+04
       141  20 -4.216512E+06 -9.517081E+05 -2.065742E+05 -1.663780E+06 -2.970674E+02 -8.153028E+04
       141  21 -3.950212E+06 -8.881451E+05 -1.602109E+05 -1.625786E+06 -8.614333E+03 -6.405289E+04
       141  22 -3.199578E+06 -6.140732E+05 -1.778893E+03 -1.419083E+06  3.221677E+04 -8.994907E+04
       141  23 -3.224246E+06 -5.890181E+05 -3.142883E+03 -1.390546E+06  2.390107E+04 -7.249191E+04
       141  24 -3.199363E+06 -6.136987E+05 -5.659837E+03 -1.419152E+06  1.560071E+04 -5.502138E+04
       141  25 -1.964378E+06 -1.630074E+05  2.504677E+05 -1.078636E+06  5.645091E+04 -8.088428E+04
       141  26 -2.230956E+06 -2.262435E+05  2.002415E+05 -1.116904E+06  4.814114E+04 -6.343787E+04
       141  27 -2.447929E+06 -3.392046E+05  1.488646E+05 -1.212285E+06  3.984743E+04 -4.597804E+04
       142   1 -3.781994E+06 -8.268018E+05 -1.261688E+05 -1.580500E+06  1.392397E+04  5.393257E+04
       142   2 -3.563451E+06 -7.124233E+05 -8.267516E+04 -1.483342E+06  2.602383E+04  3.823038E+04
       142   3 -3.296829E+06 -6.512606E+05 -4.414714E+04 -1.443159E+06  3.772197E+04  2.359251E+04
       142   4 -3.199580E+06 -6.135395E+05 -7.534658E+03 -1.419470E+06 -1.058771E+04  4.479593E+04
       142   5 -3.223711E+06 -5.888283E+05 -1.373400E+04 -1.390203E+06  2.938889E+03  2.962960E+04
       142   6 -3.200112E+06 -6.176214E+05 -2.603556E+04 -1.417935E+06  1.606166E+04  1.552651E+04
       142   7 -2.616818E+06 -4.002493E+05  1.110836E+05 -1.258300E+06 -3.512405E+04  3.565001E+04
       142   8 -2.883851E+06 -4.652234E+05  5.520368E+04 -1.297017E+06 -2.015969E+04  2.102376E+04
       142   9 -3.103383E+06 -5.839809E+05 -7.922127E+03 -1.392707E+06 -5.602446E+03  7.459213E+03
       142  10 -3.781995E+06 -8.268050E+05 -1.261746E+05 -1.580501E+06 -4.670221E-09 -2.964929E-09
       142  11 -3.563452E+06 -7.124250E+05 -8.267919E+04 -1.483343E+06  6.123360E-10  1.317111E-09
       142  12 -3.296831E+06 -6.512616E+05 -4.415088E+04 -1.443159E+06  3.024717E-09 -1.556117E-09
       142  13 -3.199580E+06 -6.135417E+05 -7.538633E+03 -1.419470E+06 -7.979380E-10 -2.280428E-10
       142  14 -3.223711E+06 -5.888293E+05 -1.373566E+04 -1.390203E+06  1.917376E-10 -2.563698E-09
       142  15 -3.200112E+06 -6.176217E+05 -2.603650E+04 -1.417935E+06  8.045674E-10 -1.706476E-09
       142  16 -2.616820E+06 -4.002510E+05  1.110789E+05 -1.258299E+06  3.370148E-09  1.282074E-09
       142  17 -2.883851E+06 -4.652240E+05  5.520209E+04 -1.297016E+06  2.373512E-10  6.642566E-10
       142  18 -3.103383E+06 -5.839809E+05 -7.922290E+03 -1.392707E+06 -5.381803E-10 -2.187714E-09
       142  19 -3.781994E+06 -8.268018E+05 -1.261688E+05 -1.580500E+06 -1.392397E+04 -5.393257E+04
       142  20 -3.563451E+06 -7.124233E+05 -8.267516E+04 -1.483342E+06 -2.602383E+04 -3.823038E+04
       142  21 -3.296829E+06 -6.512606E+05 -4.414714E+04 -1.443159E+06 -3.772197E+04 -2.359251E+04
       142  22 -3.199580E+06 -6.135395E+05 -7.534658E+03 -1.419470E+06  1.058771E+04 -4.479593E+04
       142  23 -3.223711E+06 -5.888283E+05 -1.373400E+04 -1.390203E+06 -2.938889E+03 -2.962960E+04
       142  24 -3.200112E+06 -6.176214E+05 -2.603556E+04 -1.417935E+06 -1.606166E+04 -1.552651E+04
       142  25 -2.616818E+06 -4.002493E+05  1.110836E+05 -1.258300E+06  3.512405E+04 -3.565001E+04
       142  26 -2.883851E+06 -4.652234E+05  5.520368E+04 -1.297017E+06  2.015969E+04 -2.102376E+04
       142  27 -3.103383E+06 -5.839809E+05 -7.922127E+03 -1.392707E+06  5.602446E+03 -7.459213E+03
       143   1 -3.122411E+06 -5.936482E+05 -1.605033E+04 -1.410983E+06  4.941420E+04  1.554608E+04
       143   2 -2.922412E+06 -4.664224E+05  1.142677E+04 -1.275037E+06  6.309997E+04  9.074573E+03
       143   3 -2.703224E+06 -4.650111E+05  1.049004E+04 -1.175621E+06  7.028438E+04  2.004952E+04
       143   4 -3.204436E+06 -6.128132E+05 -3.395265E+04 -1.421557E+06  2.405194E+04  6.102918E+03
       143   5 -3.219377E+06 -6.021978E+05 -6.323881E+04 -1.382963E+06  6.114554E+04  8.342823E+03
       143   6 -3.219872E+06 -7.221051E+05 -1.395683E+05 -1.380942E+06  9.173131E+04  2.803019E+04
       143   7 -3.286453E+06 -6.319779E+05 -5.185261E+04 -1.432129E+06 -1.306751E+03 -3.340096E+03
       143   8 -3.516248E+06 -7.379506E+05 -1.379098E+05 -1.490836E+06  5.919214E+04  7.611665E+03
       143   9 -3.736231E+06 -9.791085E+05 -2.896449E+05 -1.586081E+06  1.131580E+05  3.599774E+04
       143  10 -3.122413E+06 -5.936491E+05 -1.605540E+04 -1.410984E+06 -2.321919E-08 -1.496353E-08
       143  11 -2.922416E+06 -4.664236E+05  1.141909E+04 -1.275037E+06 -6.001705E-09 -6.368511E-09
       143  12 -2.703230E+06 -4.650129E+05  1.047995E+04 -1.175622E+06  1.478434E-08  7.775861E-10
       143  13 -3.204437E+06 -6.128134E+05 -3.395381E+04 -1.421557E+06  1.391835E-09 -1.921182E-09
       143  14 -3.219381E+06 -6.021989E+05 -6.324600E+04 -1.382964E+06 -3.806211E-09 -2.339902E-09
       143  15 -3.219881E+06 -7.221082E+05 -1.395857E+05 -1.380944E+06  1.353898E-10 -1.415265E-09
       143  16 -3.286453E+06 -6.319779E+05 -5.185263E+04 -1.432129E+06  2.221626E-08  5.845028E-09
       143  17 -3.516252E+06 -7.379516E+05 -1.379166E+05 -1.490837E+06 -3.696790E-09 -2.184423E-09
       143  18 -3.736245E+06 -9.791134E+05 -2.896716E+05 -1.586085E+06 -2.014950E-08 -1.012347E-08
       143  19 -3.122411E+06 -5.936482E+05 -1.605033E+04 -1.410983E+06 -4.941420E+04 -1.554608E+04
       143  20 -2.922412E+06 -4.664224E+05  1.142677E+04 -1.275037E+06 -6.309997E+04 -9.074573E+03
       143  21 -2.703224E+06 -4.650111E+05  1.049004E+04 -1.175621E+06 -7.028438E+04 -2.004952E+04
       143  22 -3.204436E+06 -6.128132E+05 -3.395265E+04 -1.421557E+06 -2.405194E+04 -6.102918E+03
       143  23 -3.219377E+06 -6.021978E+05 -6.323881E+04 -1.382963E+06 -6.114554E+04 -8.342823E+03
       143  24 -3.219872E+06 -7.221051E+05 -1.395683E+05 -1.380942E+06 -9.173131E+04 -2.803019E+04
       143  25 -3.286453E+06 -6.319779E+05 -5.185261E+04 -1.432129E+06  1.306751E+03  3.340096E+03
       143  26 -3.516248E+06 -7.379506E+05 -1.379098E+05 -1.490836E+06 -5.919214E+04 -7.611665E+03
       143  27 -3.736231E+06 -9.791085E+05 -2.896449E+05 -1.586081E+06 -1.131580E+05 -3.599774E+04
       144   1  2.377873E+05  4.964864E+04  6.725619E+04  1.137115E+04  5.341760E+04  3.543147E+02
       144   2  2.304251E+05 -2.229058E+04  2.369788E+04  3.701919E+03  3.522613E+04  9.936210E+02
       144   3  2.459708E+05 -1.209123E+04  1.251741E+04 -8.522875E+03  1.703429E+04  8.048463E+02
       144   4  2.838910E+05  6.114953E+04  7.870212E+04 -2.247162E+03  5.377578E+04  3.532055E+02
       144   5  2.724178E+05 -1.183983E+04  3.397654E+04  3.609686E+01  3.530457E+04  9.934197E+02
       144   6  2.838991E+05 -2.645469E+03  2.182125E+04 -2.236141E+03  1.683312E+04  8.049946E+02
       144   7  3.299971E+05  7.265095E+04  9.014799E+04 -1.586649E+04  5.413399E+04  3.520806E+02
       144   8  3.144122E+05 -1.389163E+03  4.425509E+04 -3.629974E+03  3.538302E+04  9.932176E+02
       144   9  3.218288E+05  6.800331E+03  3.112501E+04  4.050979E+03  1.663194E+04  8.051389E+02
       144  10  2.377842E+05  4.964787E+04  6.725083E+04  1.137114E+04 -5.511245E-09 -1.011379E-10
       144  11  2.304238E+05 -2.229091E+04  2.369555E+04  3.701891E+03 -1.963952E-09  1.685467E-10
       144  12  2.459705E+05 -1.209131E+04  1.251687E+04 -8.522886E+03 -1.941671E-09 -2.778543E-10
       144  13  2.838879E+05  6.114875E+04  7.869668E+04 -2.247177E+03  1.982197E-10  2.610650E-10
       144  14  2.724165E+05 -1.184017E+04  3.397420E+04  3.606861E+01  2.291607E-09  2.005830E-10
       144  15  2.838988E+05 -2.645545E+03  2.182072E+04 -2.236151E+03 -1.447974E-09 -5.038704E-10
       144  16  3.299940E+05  7.265016E+04  9.014248E+04 -1.586651E+04  1.666086E-10  3.179538E-10
       144  17  3.144109E+05 -1.389500E+03  4.425274E+04 -3.630002E+03  2.169679E-09  2.827851E-10
       144  18  3.218285E+05  6.800257E+03  3.112449E+04  4.050968E+03  1.572955E-09 -3.628112E-10
       144  19  2.377873E+05  4.964864E+04  6.725619E+04  1.137115E+04 -5.341760E+04 -3.543147E+02
       144  20  2.304251E+05 -2.229058E+04  2.369788E+04  3.701919E+03 -3.522613E+04 -9.936210E+02
       144  21  2.459708E+05 -1.209123E+04  1.251741E+04 -8.522875E+03 -1.703429E+04 -8.048463E+02
       144  22  2.838910E+05  6.114953E+04  7.870212E+04 -2.247162E+03 -5.377578E+04 -3.532055E+02
       144  23  2.724178E+05 -1.183983E+04  3.397654E+04  3.609686E+01 -3.530457E+04 -9.934197E+02
       144  24  2.838991E+05 -2.645469E+03  2.182125E+04 -2.236141E+03 -1.683312E+04 -8.049946E+02
       144  25  3.299971E+05  7.265095E+04  9.014799E+04 -1.586649E+04 -5.413399E+04 -3.520806E+02
       144  26  3.144122E+05 -1.389163E+03  4.425509E+04 -3.629974E+03 -3.538302E+04 -9.932176E+02
       144  27  3.218288E+05  6.800331E+03  3.112501E+04  4.050979E+03 -1.663194E+04 -8.051389E+02
       145   1  2.508775E+05  8.201117E+02  1.092170E+04 -5.690570E+02  1.332508E+04  5.954939E+02
       145   2  2.532488E+05 -7.687815E+03  2.789781E+03  4.200770E+02  8.774151E+03  5.388274E+02
       145   3  2.588943E+05 -5.476834E+03  3.001530E+02 -3.070047E+03  4.223204E+03  3.912088E+02
       145   4  2.795249E+05  7.953467E+03  1.795131E+04 -2.223023E+03  1.332186E+04  5.954564E+02
       145   5  2.778859E+05 -1.553956E+03  8.829473E+03  1.694045E+01  8.740165E+03  5.388180E+02
       145   6  2.795263E+05 -3.373829E+02  5.371089E+03 -2.222334E+03  4.158480E+03  3.912110E+02
       145   7  3.081730E+05  1.508677E+04  2.498086E+04 -3.877066E+03  1.331864E+04  5.954188E+02
       145   8  3.025236E+05  4.579859E+03  1.486912E+04 -3.862121E+02  8.706178E+03  5.388088E+02
       145   9  3.001587E+05  4.802039E+03  1.044199E+04 -1.374594E+03  4.093753E+03  3.912130E+02
       145  10  2.508773E+05  8.200637E+02  1.092136E+04 -5.690634E+02 -2.055235E-09 -1.761152E-10
       145  11  2.532487E+05 -7.687836E+03  2.789635E+03  4.200732E+02 -3.205673E-09  4.300108E-10
       145  12  2.588943E+05 -5.476839E+03  3.001192E+02 -3.070048E+03  9.541489E-10  4.570636E-10
       145  13  2.795247E+05  7.953419E+03  1.795098E+04 -2.223029E+03  1.448957E-10 -1.001138E-10
       145  14  2.778859E+05 -1.553977E+03  8.829329E+03  1.693665E+01 -1.985769E-09  5.762665E-10
       145  15  2.795263E+05 -3.373877E+02  5.371057E+03 -2.222336E+03 -2.785280E-09  1.278284E-10
       145  16  3.081728E+05  1.508672E+04  2.498053E+04 -3.877072E+03  9.326030E-10 -2.642465E-10
       145  17  3.025235E+05  4.579838E+03  1.486898E+04 -3.862159E+02 -2.046974E-09  6.051292E-10
       145  18  3.001587E+05  4.802035E+03  1.044196E+04 -1.374595E+03 -2.171404E-09 -7.522302E-11
       145  19  2.508775E+05  8.201117E+02  1.092170E+04 -5.690570E+02 -1.332508E+04 -5.954939E+02
       145  20  2.532488E+05 -7.687815E+03  2.789781E+03  4.200770E+02 -8.774151E+03 -5.388274E+02
       145  21  2.588943E+05 -5.476834E+03  3.001530E+02 -3.070047E+03 -4.223204E+03 -3.912088E+02
       145  22  2.795249E+05  7.953467E+03  1.795131E+04 -2.223023E+03 -1.332186E+04 -5.954564E+02
       145  23  2.778859E+05 -1.553956E+03  8.829473E+03  1.694045E+01 -8.740165E+03 -5.388180E+02
       145  24  2.795263E+05 -3.373829E+02  5.371089E+03 -2.222334E+03 -4.158480E+03 -3.912110E+02
       145  25  3.081730E+05  1.508677E+04  2.498086E+04 -3.877066E+03 -1.331864E+04 -5.954188E+02
       145  26  3.025236E+05  4.579859E+03  1.486912E+04 -3.862121E+02 -8.706178E+03 -5.388088E+02
       145  27  3.001587E+05  4.802039E+03  1.044199E+04 -1.374594E+03 -4.093753E+03 -3.912130E+02
       146   1  2.674421E+05 -1.827308E+03  1.454095E+03 -2.030198E+03  3.340944E+03  2.944739E+02
       146   2  2.711673E+05 -2.069375E+03  4.190425E+02  4.067012E+01  2.201286E+03  1.618663E+02
       146   3  2.753890E+05 -9.199214E+02  4.736746E+02 -2.330898E+03  1.061635E+03  1.940210E+01
       146   4  2.789079E+05  1.025379E+03  4.255277E+03 -2.214387E+03  3.298079E+03  2.944711E+02
       146   5  2.786595E+05 -2.039799E+02  2.256122E+03  6.847372E+00  2.155087E+03  1.618647E+02
       146   6  2.789082E+05 -4.123649E+01  1.348963E+03 -2.214352E+03  1.012111E+03  1.940128E+01
       146   7  2.903739E+05  3.878056E+03  7.056449E+03 -2.398580E+03  3.255212E+03  2.944683E+02
       146   8  2.861517E+05  1.661411E+03  4.093197E+03 -2.697578E+01  2.108888E+03  1.618631E+02
       146   9  2.824274E+05  8.374475E+02  2.224250E+03 -2.097805E+03  9.625862E+02  1.940045E+01
       146  10  2.674421E+05 -1.827311E+03  1.454074E+03 -2.030199E+03 -3.837974E-10  5.046798E-11
       146  11  2.711673E+05 -2.069376E+03  4.190334E+02  4.066983E+01 -1.875027E-09 -4.561595E-10
       146  12  2.753890E+05 -9.199217E+02  4.736725E+02 -2.330898E+03 -3.048571E-09 -2.084682E-10
       146  13  2.789079E+05  1.025376E+03  4.255256E+03 -2.214388E+03  2.091272E-09 -3.395937E-10
       146  14  2.786595E+05 -2.039812E+02  2.256113E+03  6.847091E+00 -2.141394E-09 -5.682228E-10
       146  15  2.789082E+05 -4.123677E+01  1.348961E+03 -2.214352E+03  5.302473E-11  1.505733E-10
       146  16  2.903738E+05  3.878053E+03  7.056429E+03 -2.398581E+03 -4.102879E-09 -7.786024E-10
       146  17  2.861517E+05  1.661410E+03  4.093189E+03 -2.697606E+01 -1.150303E-09 -6.682743E-10
       146  18  2.824274E+05  8.374473E+02  2.224248E+03 -2.097805E+03  4.414302E-09  5.738502E-10
       146  19  2.674421E+05 -1.827308E+03  1.454095E+03 -2.030198E+03 -3.340944E+03 -2.944739E+02
       146  20  2.711673E+05 -2.069375E+03  4.190425E+02  4.067012E+01 -2.201286E+03 -1.618663E+02
       146  21  2.753890E+05 -9.199214E+02  4.736746E+02 -2.330898E+03 -1.061635E+03 -1.940210E+01
       146  22  2.789079E+05  1.025379E+03  4.255277E+03 -2.214387E+03 -3.298079E+03 -2.944711E+02
       146  23  2.786595E+05 -2.039799E+02  2.256122E+03  6.847372E+00 -2.155087E+03 -1.618647E+02
       146  24  2.789082E+05 -4.123649E+01  1.348963E+03 -2.214352E+03 -1.012111E+03 -1.940128E+01
       146  25  2.903739E+05  3.878056E+03  7.056449E+03 -2.398580E+03 -3.255212E+03 -2.944683E+02
       146  26  2.861517E+05  1.661411E+03  4.093197E+03 -2.697578E+01 -2.108888E+03 -1.618631E+02
       146  27  2.824274E+05  8.374475E+02  2.224250E+03 -2.097805E+03 -9.625862E+02 -1.940045E+01
       147   1  2.844287E+05  1.529352E+03  2.446680E+03 -2.197907E+03  8.425856E+02 -6.464465E+01
       147   2  2.883605E+05  2.358974E+03  2.968610E+03  7.928635E+00  5.341709E+02 -2.055524E+02
       147   3  2.923797E+05  3.375196E+03  3.738046E+03 -2.231196E+03  2.257538E+02 -3.478362E+02
       147   4  2.788171E+05  1.297234E+02  1.058369E+03 -2.214927E+03  7.954515E+02 -6.464569E+01
       147   5  2.787734E+05 -2.803920E+01  6.175714E+02  7.556210E+00  4.865760E+02 -2.055541E+02
       147   6  2.788172E+05  8.643200E-01  4.245867E+02 -2.214924E+03  1.777000E+02 -3.478385E+02
       147   7  2.732056E+05 -1.269907E+03 -3.299447E+02 -2.231947E+03  7.483177E+02 -6.464673E+01
       147   8  2.691865E+05 -2.415060E+03 -1.733474E+03  7.183791E+00  4.389818E+02 -2.055558E+02
       147   9  2.652549E+05 -3.373481E+03 -2.888886E+03 -2.198653E+03  1.296472E+02 -3.478408E+02
       147  10  2.844287E+05  1.529352E+03  2.446679E+03 -2.197907E+03 -8.298425E-10  6.613151E-11
       147  11  2.883605E+05  2.358974E+03  2.968609E+03  7.928723E+00 -1.610259E-09 -1.241157E-10
       147  12  2.923797E+05  3.375196E+03  3.738046E+03 -2.231196E+03 -3.837179E-11 -4.023520E-10
       147  13  2.788171E+05  1.297232E+02  1.058368E+03 -2.214927E+03  2.643463E-11  3.058759E-10
       147  14  2.787734E+05 -2.803931E+01  6.175709E+02  7.556291E+00  1.035985E-09 -2.241536E-10
       147  15  2.788172E+05  8.641815E-01  4.245865E+02 -2.214924E+03  9.240065E-10 -1.648284E-10
       147  16  2.732056E+05 -1.269907E+03 -3.299458E+02 -2.231947E+03  3.239854E-10  5.818564E-10
       147  17  2.691865E+05 -2.415060E+03 -1.733474E+03  7.183864E+00 -1.145624E-10 -4.071848E-10
       147  18  2.652549E+05 -3.373481E+03 -2.888886E+03 -2.198653E+03  1.796127E-09 -7.174024E-12
       147  19  2.844287E+05  1.529352E+03  2.446680E+03 -2.197907E+03 -8.425856E+02  6.464465E+01
       147  20  2.883605E+05  2.358974E+03  2.968610E+03  7.928634E+00 -5.341709E+02  2.055524E+02
       147  21  2.923797E+05  3.375196E+03  3.738046E+03 -2.231196E+03 -2.257538E+02  3.478362E+02
       147  22  2.788171E+05  1.297234E+02  1.058369E+03 -2.214927E+03 -7.954515E+02  6.464569E+01
       147  23  2.787734E+05 -2.803920E+01  6.175714E+02  7.556210E+00 -4.865760E+02  2.055541E+02
       147  24  2.788172E+05  8.643199E-01  4.245867E+02 -2.214924E+03 -1.777000E+02  3.478385E+02
       147  25  2.732056E+05 -1.269907E+03 -3.299447E+02 -2.231947E+03 -7.483177E+02  6.464673E+01
       147  26  2.691865E+05 -2.415060E+03 -1.733474E+03  7.183791E+00 -4.389818E+02  2.055558E+02
       147  27  2.652549E+05 -3.373481E+03 -2.888886E+03 -2.198653E+03 -1.296472E+02  3.478408E+02
       148   1  3.015477E+05  5.678003E+03  5.966115E+03 -2.217145E+03  1.533958E+02 -4.311928E+02
       148   2  3.055368E+05  6.646980E+03  6.917373E+03  1.977386E+01 -2.502414E+01 -5.741006E+02
       148   3  3.095743E+05  7.706123E+03  8.007825E+03 -2.230715E+03 -2.034342E+02 -7.164083E+02
       148   4  2.788084E+05  1.387581E+01  3.774487E+02 -2.224359E+03  1.052605E+02 -4.311961E+02
       148   5  2.787842E+05 -1.386864E+01  3.569919E+02  1.934891E+01 -7.295148E+01 -5.741057E+02
       148   6  2.788084E+05  4.851951E+01  4.755902E+02 -2.224363E+03 -2.511525E+02 -7.164151E+02
       148   7  2.560696E+05 -5.650290E+03 -5.211255E+03 -2.231572E+03  5.712705E+01 -4.311994E+02
       148   8  2.520323E+05 -6.674771E+03 -6.203441E+03  1.892396E+01 -1.208768E+02 -5.741108E+02
       148   9  2.480434E+05 -7.609154E+03 -7.056714E+03 -2.218011E+03 -2.988685E+02 -7.164220E+02
       148  10  3.015477E+05  5.678003E+03  5.966114E+03 -2.217145E+03  1.989891E-09 -2.879966E-10
       148  11  3.055368E+05  6.646980E+03  6.917372E+03  1.977385E+01 -3.860756E-09  3.420553E-10
       148  12  3.095743E+05  7.706122E+03  8.007824E+03 -2.230715E+03 -1.582402E-09  6.872050E-10
       148  13  2.788084E+05  1.387561E+01  3.774484E+02 -2.224359E+03  2.396488E-09  6.718229E-11
       148  14  2.787842E+05 -1.386899E+01  3.569913E+02  1.934888E+01 -8.550719E-10  3.182329E-10
       148  15  2.788084E+05  4.851894E+01  4.755892E+02 -2.224363E+03 -2.205879E-10  6.532711E-10
       148  16  2.560696E+05 -5.650290E+03 -5.211255E+03 -2.231572E+03 -2.512115E-09  1.815940E-10
       148  17  2.520323E+05 -6.674771E+03 -6.203442E+03  1.892391E+01 -2.566954E-09  8.842544E-11
       148  18  2.480434E+05 -7.609154E+03 -7.056715E+03 -2.218012E+03  2.632895E-09  4.972349E-10
       148  19  3.015477E+05  5.678003E+03  5.966115E+03 -2.217145E+03 -1.533958E+02  4.311928E+02
       148  20  3.055368E+05  6.646980E+03  6.917373E+03  1.977386E+01  2.502414E+01  5.741006E+02
       148  21  3.095743E+05  7.706123E+03  8.007825E+03 -2.230715E+03  2.034342E+02  7.164083E+02
       148  22  2.788084E+05  1.387581E+01  3.774487E+02 -2.224359E+03 -1.052605E+02  4.311961E+02
       148  23  2.787842E+05 -1.386864E+01  3.569919E+02  1.934891E+01  7.295148E+01  5.741057E+02
       148  24  2.788084E+05  4.851951E+01  4.755902E+02 -2.224363E+03  2.511525E+02  7.164151E+02
       148  25  2.560696E+05 -5.650290E+03 -5.211255E+03 -2.231572E+03 -5.712705E+01  4.311994E+02
       148  26  2.520323E+05 -6.674771E+03 -6.203441E+03  1.892396E+01  1.208768E+02  5.741108E+02
       148  27  2.480434E+05 -7.609154E+03 -7.056714E+03 -2.218011E+03  2.988685E+02  7.164220E+02
       149   1  3.189133E+05  9.964665E+03  1.040967E+04 -2.195167E+03 -2.936560E+02 -8.032035E+02
       149   2  3.229000E+05  1.091518E+04  1.172370E+04  3.418763E+01 -7.524680E+02 -9.492962E+02
       149   3  3.270871E+05  1.240199E+04  1.347175E+04 -2.306816E+03 -1.211261E+03 -1.079438E+03
       149   4  2.788418E+05 -1.474827E+01  5.708255E+02 -2.242772E+03 -3.454093E+02 -8.032127E+02
       149   5  2.787420E+05 -7.908437E+01  8.955365E+02  4.237967E+01 -7.988308E+02 -9.493078E+02
       149   6  2.788417E+05  3.919704E+02  1.650565E+03 -2.242848E+03 -1.252230E+03 -1.079451E+03
       149   7  2.387718E+05 -9.994281E+03 -9.268138E+03 -2.290374E+03 -3.971592E+02 -8.032219E+02
       149   8  2.345857E+05 -1.107350E+04 -9.932768E+03  5.057106E+01 -8.451904E+02 -9.493193E+02
       149   9  2.305984E+05 -1.161822E+04 -1.017079E+04 -2.178885E+03 -1.293197E+03 -1.079465E+03
       149  10  3.189133E+05  9.964664E+03  1.040967E+04 -2.195168E+03 -2.290767E-09  8.321046E-10
       149  11  3.229000E+05  1.091518E+04  1.172370E+04  3.418706E+01 -2.105878E-09 -2.356940E-10
       149  12  3.270871E+05  1.240199E+04  1.347174E+04 -2.306818E+03 -4.221407E-09 -2.206642E-10
       149  13  2.788418E+05 -1.474899E+01  5.708241E+02 -2.242773E+03  7.674153E-11  2.265542E-10
       149  14  2.787420E+05 -7.908551E+01  8.955336E+02  4.237906E+01 -2.212207E-09 -1.412181E-09
       149  15  2.788417E+05  3.919687E+02  1.650559E+03 -2.242849E+03  7.657357E-10 -1.889317E-09
       149  16  2.387718E+05 -9.994281E+03 -9.268139E+03 -2.290375E+03 -1.543943E-09  1.285669E-10
       149  17  2.345857E+05 -1.107350E+04 -9.932771E+03  5.057041E+01 -2.027054E-09 -2.419186E-10
       149  18  2.305984E+05 -1.161823E+04 -1.017079E+04 -2.178886E+03  4.897524E-09  1.196991E-09
       149  19  3.189133E+05  9.964665E+03  1.040967E+04 -2.195167E+03  2.936560E+02  8.032035E+02
       149  20  3.229000E+05  1.091518E+04  1.172370E+04  3.418763E+01  7.524680E+02  9.492962E+02
       149  21  3.270871E+05  1.240199E+04  1.347175E+04 -2.306816E+03  1.211261E+03  1.079438E+03
       149  22  2.788418E+05 -1.474827E+01  5.708255E+02 -2.242772E+03  3.454093E+02  8.032127E+02
       149  23  2.787420E+05 -7.908437E+01  8.955365E+02  4.237967E+01  7.988308E+02  9.493078E+02
       149  24  2.788417E+05  3.919704E+02  1.650565E+03 -2.242848E+03  1.252230E+03  1.079451E+03
       149  25  2.387718E+05 -9.994281E+03 -9.268138E+03 -2.290374E+03  3.971592E+02  8.032219E+02
       149  26  2.345857E+05 -1.107350E+04 -9.932768E+03  5.057106E+01  8.451904E+02  9.493193E+02
       149  27  2.305984E+05 -1.161822E+04 -1.017079E+04 -2.178885E+03  1.293197E+03  1.079465E+03
       150   1  3.368417E+05  1.425325E+04  1.625036E+04 -1.934842E+03 -1.505865E+03 -1.190005E+03
       150   2  3.404016E+05  1.482777E+04  1.858525E+04 -6.664677E+01 -3.321760E+03 -1.347183E+03
       150   3  3.452416E+05  1.952610E+04  2.313548E+04 -2.889146E+03 -5.137723E+03 -1.344468E+03
       150   4  2.790795E+05 -1.304496E+02  2.075004E+03 -2.269220E+03 -1.585328E+03 -1.190029E+03
       150   5  2.784438E+05 -5.973070E+02  3.395711E+03  7.562518E+01 -3.347323E+03 -1.347200E+03
       150   6  2.790789E+05  3.050505E+03  6.894487E+03 -2.270243E+03 -5.109371E+03 -1.344473E+03
       150   7  2.213204E+05 -1.451440E+04 -1.210059E+04 -2.603567E+03 -1.664785E+03 -1.190053E+03
       150   8  2.164896E+05 -1.602267E+04 -1.179411E+04  2.178827E+02 -3.372882E+03 -1.347216E+03
       150   9  2.129203E+05 -1.342541E+04 -9.346832E+03 -1.651406E+03 -5.081022E+03 -1.344478E+03
       150  10  3.368417E+05  1.425325E+04  1.625035E+04 -1.934844E+03  4.714669E-09  4.737431E-10
       150  11  3.404016E+05  1.482776E+04  1.858522E+04 -6.665037E+01  2.248311E-09  1.020975E-09
       150  12  3.452415E+05  1.952609E+04  2.313543E+04 -2.889151E+03  1.543001E-09 -1.431599E-09
       150  13  2.790795E+05 -1.304518E+02  2.074997E+03 -2.269222E+03  1.249744E-10 -1.334840E-09
       150  14  2.784438E+05 -5.973119E+02  3.395686E+03  7.562155E+01 -2.074385E-09 -8.052981E-10
       150  15  2.790789E+05  3.050496E+03  6.894434E+03 -2.270248E+03 -4.765106E-09 -1.421009E-09
       150  16  2.213204E+05 -1.451440E+04 -1.210060E+04 -2.603569E+03 -5.218008E-09  1.309784E-09
       150  17  2.164896E+05 -1.602267E+04 -1.179413E+04  2.178790E+02 -4.594536E-10  5.543222E-10
       150  18  2.129203E+05 -1.342542E+04 -9.346883E+03 -1.651412E+03  1.603283E-09 -5.975645E-10
       150  19  3.368417E+05  1.425325E+04  1.625036E+04 -1.934842E+03  1.505865E+03  1.190005E+03
       150  20  3.404016E+05  1.482777E+04  1.858525E+04 -6.664677E+01  3.321760E+03  1.347183E+03
       150  21  3.452416E+05  1.952610E+04  2.313548E+04 -2.889146E+03  5.137723E+03  1.344468E+03
       150  22  2.790795E+05 -1.304496E+02  2.075004E+03 -2.269220E+03  1.585328E+03  1.190029E+03
       150  23  2.784438E+05 -5.973070E+02  3.395711E+03  7.562518E+01  3.347323E+03  1.347200E+03
       150  24  2.790789E+05  3.050505E+03  6.894487E+03 -2.270243E+03  5.109371E+03  1.344473E+03
       150  25  2.213204E+05 -1.451440E+04 -1.210059E+04 -2.603567E+03  1.664785E+03  1.190053E+03
       150  26  2.164896E+05 -1.602267E+04 -1.179411E+04  2.178827E+02  3.372882E+03  1.347216E+03
       150  27  2.129203E+05 -1.342541E+04 -9.346832E+03 -1.651406E+03  5.081022E+03  1.344478E+03
       151   1  3.567314E+05  1.789887E+04  2.700430E+04  1.328307E+02 -6.136335E+03 -1.654644E+03
       151   2  3.566380E+05  1.543698E+04  3.269655E+04 -1.265661E+03 -1.371968E+04 -1.883166E+03
       151   3  3.654586E+05  4.460276E+04  5.123515E+04 -7.509882E+03 -2.130379E+04 -6.471310E+02
       151   4  2.807591E+05 -1.017407E+03  8.379070E+03 -2.300169E+03 -6.457793E+03 -1.654752E+03
       151   5  2.763426E+05 -4.546110E+03  1.304086E+04  1.165709E+02 -1.354805E+04 -1.883137E+03
       151   6  2.807558E+05  2.346942E+04  3.020787E+04 -2.312405E+03 -2.063901E+04 -6.469739E+02
       151   7  2.047920E+05 -1.993409E+04 -1.024658E+04 -4.732872E+03 -6.779212E+03 -1.654858E+03
       151   8  1.960531E+05 -2.452967E+04 -6.615302E+03  1.498623E+03 -1.337644E+04 -1.883106E+03
       151   9  1.960595E+05  2.335642E+03  9.180064E+03  2.884362E+03 -1.997432E+04 -6.468057E+02
       151  10  3.567314E+05  1.789886E+04  2.700423E+04  1.328225E+02 -9.649274E-10 -1.667199E-09
       151  11  3.566378E+05  1.543692E+04  3.269619E+04 -1.265682E+03  1.159803E-09  9.445751E-11
       151  12  3.654581E+05  4.460264E+04  5.123430E+04 -7.509893E+03  1.133838E-09  4.471241E-10
       151  13  2.807590E+05 -1.017421E+03  8.378987E+03 -2.300178E+03 -1.076059E-10 -2.400552E-09
       151  14  2.763424E+05 -4.546163E+03  1.304051E+04  1.165503E+02  1.494732E-09  2.129235E-09
       151  15  2.807553E+05  2.346930E+04  3.020707E+04 -2.312415E+03 -1.539523E-09  5.162973E-10
       151  16  2.047919E+05 -1.993411E+04 -1.024667E+04 -4.732881E+03 -1.190864E-09 -4.149715E-10
       151  17  1.960529E+05 -2.452972E+04 -6.615645E+03  1.498603E+03 -4.474164E-09  1.583894E-09
       151  18  1.960590E+05  2.335535E+03  9.179314E+03  2.884352E+03  8.207078E-10 -7.920235E-11
       151  19  3.567314E+05  1.789887E+04  2.700430E+04  1.328307E+02  6.136335E+03  1.654644E+03
       151  20  3.566380E+05  1.543698E+04  3.269655E+04 -1.265661E+03  1.371968E+04  1.883166E+03
       151  21  3.654586E+05  4.460276E+04  5.123515E+04 -7.509882E+03  2.130379E+04  6.471310E+02
       151  22  2.807591E+05 -1.017407E+03  8.379070E+03 -2.300169E+03  6.457793E+03  1.654752E+03
       151  23  2.763426E+05 -4.546110E+03  1.304086E+04  1.165709E+02  1.354805E+04  1.883137E+03
       151  24  2.807558E+05  2.346942E+04  3.020787E+04 -2.312405E+03  2.063901E+04  6.469739E+02
       151  25  2.047920E+05 -1.993409E+04 -1.024658E+04 -4.732872E+03  6.779212E+03  1.654858E+03
       151  26  1.960531E+05 -2.452967E+04 -6.615302E+03  1.498623E+03  1.337644E+04  1.883106E+03
       151  27  1.960595E+05  2.335642E+03  9.180064E+03  2.884362E+03  1.997432E+04  6.468057E+02
       152   1  2.607952E+06  1.057800E+07  2.620423E+06 -1.163648E+06  7.334032E+04  1.138953E+05
       152   2  2.013084E+06  8.488484E+06  2.047064E+06 -7.464716E+04  1.973182E+05  2.310666E+04
       152   3  1.608209E+06  6.574645E+06  1.602057E+06 -1.199519E+06  1.208674E+05 -6.964786E+04
       152   4  6.137955E+04  3.133765E+05  8.710089E+04 -1.112655E+06  7.378054E+04  3.742269E+04
       152   5 -3.226328E+04  2.336157E+05  3.714271E+04 -4.482723E+03  1.975735E+05  1.530704E+04
       152   6  5.261297E+04  3.134255E+05  6.901610E+04 -1.112095E+06  1.197618E+05 -9.081185E+03
       152   7 -2.493015E+06 -9.856533E+06 -2.454001E+06 -1.062303E+06  7.421316E+04 -3.780699E+04
       152   8 -2.082606E+06 -7.959651E+06 -1.977723E+06  6.492835E+04  1.978293E+05  7.608939E+03
       152   9 -1.505866E+06 -5.912324E+06 -1.466880E+06 -1.025346E+06  1.186674E+05  5.088107E+04
       152  10  2.607943E+06  1.057798E+07  2.620389E+06 -1.163655E+06  2.591475E-09 -3.084961E-09
       152  11  2.013042E+06  8.488473E+06  2.046990E+06 -7.465081E+04  3.934583E-09 -1.866521E-08
       152  12  1.608192E+06  6.574636E+06  1.602021E+06 -1.199513E+06  1.738798E-09  2.863044E-08
       152  13  6.137332E+04  3.133736E+05  8.708800E+04 -1.112657E+06  5.418821E-09 -5.233621E-12
       152  14 -3.230527E+04  2.336049E+05  3.706891E+04 -4.485158E+03  7.225150E-09 -5.859269E-09
       152  15  5.259755E+04  3.134216E+05  6.898900E+04 -1.112095E+06  1.717588E-09 -2.237307E-09
       152  16 -2.493021E+06 -9.856536E+06 -2.454014E+06 -1.062301E+06  2.061574E-09  3.196774E-09
       152  17 -2.082648E+06 -7.959661E+06 -1.977796E+06  6.492713E+04  1.472550E-08  3.231102E-08
       152  18 -1.505881E+06 -5.912331E+06 -1.466912E+06 -1.025351E+06  3.380059E-09 -2.004718E-08
       152  19  2.607952E+06  1.057800E+07  2.620423E+06 -1.163648E+06 -7.334032E+04 -1.138953E+05
       152  20  2.013084E+06  8.488484E+06  2.047064E+06 -7.464716E+04 -1.973182E+05 -2.310666E+04
       152  21  1.608209E+06  6.574645E+06  1.602057E+06 -1.199519E+06 -1.208674E+05  6.964786E+04
       152  22  6.137955E+04  3.133765E+05  8.710089E+04 -1.112655E+06 -7.378054E+04 -3.742269E+04
       152  23 -3.226328E+04  2.336157E+05  3.714271E+04 -4.482723E+03 -1.975735E+05 -1.530704E+04
       152  24  5.261297E+04  3.134255E+05  6.901610E+04 -1.112095E+06 -1.197618E+05  9.081185E+03
       152  25 -2.493015E+06 -9.856533E+06 -2.454001E+06 -1.062303E+06 -7.421316E+04  3.780699E+04
       152  26 -2.082606E+06 -7.959651E+06 -1.977723E+06  6.492835E+04 -1.978293E+05 -7.608939E+03
       152  27 -1.505866E+06 -5.912324E+06 -1.466880E+06 -1.025346E+06 -1.186674E+05 -5.088107E+04
       153   1  4.616225E+05  1.974652E+06  4.792587E+05 -1.141955E+06  4.498442E+04 -4.116119E+04
       153   2 -7.915557E+04  3.024177E+04  2.383038E+04  1.237641E+01 -4.236375E+03 -8.846354E+04
       153   3 -4.596721E+05 -1.973091E+06 -3.840017E+05 -1.062903E+06 -5.229685E+04 -1.355530E+05
       153   4  3.835912E+04  2.753892E+05  6.449331E+04 -1.110272E+06  4.462280E+04 -2.407713E+04
       153   5 -1.006135E+04  3.066685E+05  9.164840E+04 -7.265392E+03 -4.576641E+03 -7.181140E+04
       153   6  1.020736E+05  2.754067E+05  1.668695E+05 -1.108977E+06 -5.262118E+04 -1.194793E+05
       153   7 -3.851154E+05 -1.421245E+06 -3.504813E+05 -1.078658E+06  4.426239E+04 -7.039540E+03
       153   8  5.902747E+04  5.831654E+05  1.594619E+05 -1.454606E+04 -4.917222E+03 -5.515185E+04
       153   9  6.634485E+05  2.528521E+06  7.173714E+05 -1.155191E+06 -5.294728E+04 -1.033467E+05
       153  10  4.616199E+05  1.974649E+06  4.792518E+05 -1.141954E+06 -4.996516E-09 -5.702793E-09
       153  11 -7.915769E+04  3.023336E+04  2.381564E+04  1.207459E+01  8.288723E-09 -4.308460E-08
       153  12 -4.596800E+05 -1.973112E+06 -3.840415E+05 -1.062909E+06 -4.739901E-09  3.291894E-08
       153  13  3.835683E+04  2.753881E+05  6.448849E+04 -1.110271E+06 -1.885465E-09  1.114357E-10
       153  14 -1.006276E+04  3.066630E+05  9.163868E+04 -7.265657E+03  1.316197E-08 -1.089661E-08
       153  15  1.020667E+05  2.753906E+05  1.668374E+05 -1.108982E+06  2.304854E-08 -2.414138E-09
       153  16 -3.851175E+05 -1.421246E+06 -3.504851E+05 -1.078658E+06 -2.068775E-09  5.615211E-09
       153  17  5.902663E+04  5.831622E+05  1.594561E+05 -1.454628E+04 -1.626455E-08  6.501524E-08
       153  18  6.634426E+05  2.528509E+06  7.173461E+05 -1.155195E+06  3.396806E-09 -2.263537E-08
       153  19  4.616225E+05  1.974652E+06  4.792587E+05 -1.141955E+06 -4.498442E+04  4.116119E+04
       153  20 -7.915557E+04  3.024177E+04  2.383038E+04  1.237641E+01  4.236375E+03  8.846354E+04
       153  21 -4.596721E+05 -1.973091E+06 -3.840017E+05 -1.062903E+06  5.229685E+04  1.355530E+05
       153  22  3.835912E+04  2.753892E+05  6.449331E+04 -1.110272E+06 -4.462280E+04  2.407713E+04
       153  23 -1.006135E+04  3.066685E+05  9.164840E+04 -7.265392E+03  4.576641E+03  7.181140E+04
       153  24  1.020736E+05  2.754067E+05  1.668695E+05 -1.108977E+06  5.262118E+04  1.194793E+05
       153  25 -3.851154E+05 -1.421245E+06 -3.504813E+05 -1.078658E+06 -4.426239E+04  7.039540E+03
       153  26  5.902747E+04  5.831654E+05  1.594619E+05 -1.454606E+04  4.917222E+03  5.515185E+04
       153  27  6.634485E+05  2.528521E+06  7.173714E+05 -1.155191E+06  5.294728E+04  1.033467E+05
       154   1 -1.671885E+06 -6.416142E+06 -1.456889E+06 -1.071953E+06 -1.277615E+05 -2.170964E+05
       154   2 -2.318698E+06 -8.570804E+06 -1.855751E+06  9.111383E+04 -2.075474E+05 -3.107507E+05
       154   3 -2.141776E+06 -1.036035E+07 -1.958509E+06 -9.663797E+05 -7.715609E+04 -4.020687E+05
       154   4  2.215309E+04  3.590717E+05  2.141017E+05 -1.113831E+06 -1.288266E+05 -1.563790E+05
       154   5 -1.290770E+05  1.730136E+05  2.953870E+05 -3.885043E+03 -2.072286E+05 -3.219428E+05
       154   6  5.513366E+05  3.590179E+05  7.200688E+05 -1.112465E+06 -7.674578E+04 -4.854975E+05
       154   7  1.712768E+06  7.176318E+06  1.881713E+06 -1.155938E+06 -1.298938E+05 -9.498709E+04
       154   8  2.054858E+06  8.987040E+06  2.440892E+06 -1.000641E+05 -2.069095E+05 -3.332682E+05
       154   9  3.235822E+06  1.118374E+07  3.390013E+06 -1.260940E+06 -7.630143E+04 -5.703252E+05
       154  10 -1.671915E+06 -6.416197E+06 -1.457009E+06 -1.071975E+06 -1.241291E-09  1.510270E-09
       154  11 -2.318771E+06 -8.570920E+06 -1.856016E+06  9.106159E+04 -4.580525E-09 -2.550018E-08
       154  12 -2.141827E+06 -1.036053E+07 -1.958829E+06 -9.664049E+05 -1.996629E-09 -3.473054E-09
       154  13  2.212865E+04  3.590409E+05  2.140244E+05 -1.113847E+06 -9.562703E-09 -1.085854E-10
       154  14 -1.291509E+05  1.728908E+05  2.951116E+05 -3.938755E+03 -4.518179E-09 -5.475203E-09
       154  15  5.512669E+05  3.587634E+05  7.196147E+05 -1.112495E+06 -5.120030E-09 -8.862452E-11
       154  16  1.712747E+06  7.176303E+06  1.881664E+06 -1.155948E+06  1.080379E-08 -1.592210E-09
       154  17  2.054783E+06  8.986910E+06  2.440605E+06 -1.001192E+05 -1.097901E-08  3.550602E-08
       154  18  3.235730E+06  1.118339E+07  3.389401E+06 -1.260974E+06 -8.004805E-09  3.990512E-09
       154  19 -1.671885E+06 -6.416142E+06 -1.456889E+06 -1.071953E+06  1.277615E+05  2.170964E+05
       154  20 -2.318698E+06 -8.570804E+06 -1.855751E+06  9.111383E+04  2.075474E+05  3.107507E+05
       154  21 -2.141776E+06 -1.036035E+07 -1.958509E+06 -9.663797E+05  7.715609E+04  4.020687E+05
       154  22  2.215309E+04  3.590717E+05  2.141017E+05 -1.113831E+06  1.288266E+05  1.563790E+05
       154  23 -1.290770E+05  1.730136E+05  2.953870E+05 -3.885043E+03  2.072286E+05  3.219428E+05
       154  24  5.513366E+05  3.590179E+05  7.200688E+05 -1.112465E+06  7.674578E+04  4.854975E+05
       154  25  1.712768E+06  7.176318E+06  1.881713E+06 -1.155938E+06  1.298938E+05  9.498709E+04
       154  26  2.054858E+06  8.987040E+06  2.440892E+06 -1.000641E+05  2.069095E+05  3.332682E+05
       154  27  3.235822E+06  1.118374E+07  3.390013E+06 -1.260940E+06  7.630143E+04  5.703252E+05
       155   1 -3.926669E+05 -1.732694E+05 -8.376675E+04 -1.801390E+05 -4.351104E+04 -1.458932E+04
       155   2 -3.710916E+05 -1.199887E+05 -4.486478E+04 -1.693889E+05 -2.593030E+04 -4.339458E+03
       155   3 -3.571861E+05 -9.334535E+04 -2.622159E+04 -1.572457E+05 -7.178415E+03  2.792727E+03
       155   4 -2.876193E+05 -1.058636E+05 -5.140331E+04 -1.225131E+05 -3.409814E+04 -1.106045E+04
       155   5 -2.816525E+05 -7.369198E+04 -2.436550E+04 -1.305096E+05 -2.267981E+04 -3.120825E+03
       155   6 -2.821330E+05 -6.693544E+04 -1.270101E+04 -1.371142E+05 -1.009095E+04  1.700124E+03
       155   7 -1.825608E+05 -3.845027E+04 -1.904101E+04 -6.487748E+04 -2.468371E+04 -7.529925E+03
       155   8 -1.922051E+05 -2.739211E+04 -3.866764E+03 -9.162455E+04 -1.942885E+04 -1.901833E+03
       155   9 -2.070733E+05 -4.052486E+04  8.195733E+02 -1.169802E+05 -1.300388E+04  6.073813E+02
       155  10 -3.926689E+05 -1.732701E+05 -8.377071E+04 -1.801395E+05 -4.339365E-09 -5.788127E-11
       155  11 -3.710923E+05 -1.199889E+05 -4.486608E+04 -1.693890E+05 -8.093548E-09  9.573781E-10
       155  12 -3.571862E+05 -9.334537E+04 -2.622170E+04 -1.572457E+05 -6.111804E-09  3.883578E-10
       155  13 -2.876206E+05 -1.058641E+05 -5.140572E+04 -1.225134E+05 -4.372029E-09  4.878568E-10
       155  14 -2.816531E+05 -7.369213E+04 -2.436649E+04 -1.305096E+05 -4.488295E-09  6.581119E-10
       155  15 -2.821331E+05 -6.693547E+04 -1.270121E+04 -1.371142E+05 -1.101476E-09  3.145045E-11
       155  16 -1.825615E+05 -3.845050E+04 -1.904226E+04 -6.487763E+04 -2.395955E-09  6.730841E-10
       155  17 -1.922056E+05 -2.739221E+04 -3.867481E+03 -9.162458E+04 -7.939838E-09  5.204596E-10
       155  18 -2.070735E+05 -4.052490E+04  8.192548E+02 -1.169802E+05 -7.515202E-09 -3.145739E-10
       155  19 -3.926669E+05 -1.732694E+05 -8.376675E+04 -1.801390E+05  4.351104E+04  1.458932E+04
       155  20 -3.710916E+05 -1.199887E+05 -4.486478E+04 -1.693889E+05  2.593030E+04  4.339458E+03
       155  21 -3.571861E+05 -9.334535E+04 -2.622159E+04 -1.572457E+05  7.178415E+03 -2.792727E+03
       155  22 -2.876193E+05 -1.058636E+05 -5.140331E+04 -1.225131E+05  3.409814E+04  1.106045E+04
       155  23 -2.816525E+05 -7.369198E+04 -2.436550E+04 -1.305096E+05  2.267981E+04  3.120825E+03
       155  24 -2.821330E+05 -6.693544E+04 -1.270101E+04 -1.371142E+05  1.009095E+04 -1.700124E+03
       155  25 -1.825608E+05 -3.845027E+04 -1.904101E+04 -6.487748E+04  2.468371E+04  7.529925E+03
       155  26 -1.922051E+05 -2.739211E+04 -3.866764E+03 -9.162455E+04  1.942885E+04  1.901833E+03
       155  27 -2.070733E+05 -4.052486E+04  8.195733E+02 -1.169802E+05  1.300388E+04 -6.073813E+02
       156   1 -3.379827E+05 -8.843478E+04 -1.989717E+04 -1.541109E+05 -5.577860E+03  2.310954E+03
       156   2 -3.143130E+05 -7.486681E+04 -1.061911E+04 -1.449518E+05 -1.865978E+03  1.943774E+03
       156   3 -2.880845E+05 -6.654691E+04 -4.113860E+03 -1.396012E+05  1.967581E+03  1.252464E+03
       156   4 -2.806655E+05 -6.642031E+04 -9.467134E+03 -1.367709E+05 -8.306693E+03  1.287289E+03
       156   5 -2.818350E+05 -6.263270E+04 -4.940983E+03 -1.353265E+05 -5.235401E+03  6.798735E+02
       156   6 -2.803191E+05 -6.396618E+04 -2.679751E+03 -1.376910E+05 -2.042530E+03 -2.517166E+02
       156   7 -2.233455E+05 -4.440567E+04  9.626332E+02 -1.194295E+05 -1.103576E+04  2.635206E+02
       156   8 -2.493558E+05 -5.039846E+04  7.371595E+02 -1.257008E+05 -8.605012E+03 -5.841043E+02
       156   9 -2.725534E+05 -6.138540E+04 -1.245551E+03 -1.357807E+05 -6.052740E+03 -1.755931E+03
       156  10 -3.379827E+05 -8.843479E+04 -1.989724E+04 -1.541109E+05 -2.264304E-09 -1.078417E-09
       156  11 -3.143130E+05 -7.486681E+04 -1.061912E+04 -1.449518E+05  1.120053E-09 -4.851303E-09
       156  12 -2.880845E+05 -6.654691E+04 -4.113870E+03 -1.396012E+05 -2.184953E-09 -4.590886E-09
       156  13 -2.806656E+05 -6.642033E+04 -9.467267E+03 -1.367709E+05  4.017007E-10 -1.087453E-09
       156  14 -2.818350E+05 -6.263271E+04 -4.941035E+03 -1.353265E+05 -3.488877E-10 -2.254424E-09
       156  15 -2.803191E+05 -6.396618E+04 -2.679759E+03 -1.376910E+05 -7.146023E-10 -1.233149E-09
       156  16 -2.233457E+05 -4.440570E+04  9.624041E+02 -1.194295E+05 -8.483977E-09 -1.059990E-09
       156  17 -2.493559E+05 -5.039848E+04  7.370196E+02 -1.257008E+05  8.818941E-10  7.208035E-10
       156  18 -2.725534E+05 -6.138541E+04 -1.245626E+03 -1.357807E+05  7.241919E-09  2.194971E-09
       156  19 -3.379827E+05 -8.843478E+04 -1.989717E+04 -1.541109E+05  5.577860E+03 -2.310954E+03
       156  20 -3.143130E+05 -7.486681E+04 -1.061911E+04 -1.449518E+05  1.865978E+03 -1.943774E+03
       156  21 -2.880845E+05 -6.654691E+04 -4.113860E+03 -1.396012E+05 -1.967581E+03 -1.252464E+03
       156  22 -2.806655E+05 -6.642031E+04 -9.467134E+03 -1.367709E+05  8.306693E+03 -1.287289E+03
       156  23 -2.818350E+05 -6.263270E+04 -4.940983E+03 -1.353265E+05  5.235401E+03 -6.798735E+02
       156  24 -2.803191E+05 -6.396618E+04 -2.679751E+03 -1.376910E+05  2.042530E+03  2.517166E+02
       156  25 -2.233455E+05 -4.440567E+04  9.626332E+02 -1.194295E+05  1.103576E+04 -2.635206E+02
       156  26 -2.493558E+05 -5.039846E+04  7.371595E+02 -1.257008E+05  8.605012E+03  5.841043E+02
       156  27 -2.725534E+05 -6.138540E+04 -1.245551E+03 -1.357807E+05  6.052740E+03  1.755931E+03
       157   1 -2.717625E+05 -6.088877E+04 -7.510439E+02 -1.352166E+05  2.758668E+03  1.915767E+02
       157   2 -2.481641E+05 -4.992121E+04  4.176825E+03 -1.260788E+05  4.133171E+03 -1.614977E+03
       157   3 -2.210932E+05 -4.266537E+04  8.621052E+03 -1.210549E+05  5.520258E+03 -3.454960E+03
       157   4 -2.801833E+05 -6.394897E+04 -2.005871E+03 -1.376467E+05 -1.232376E+03 -1.305457E+03
       157   5 -2.819190E+05 -6.204840E+04 -1.090307E+03 -1.356089E+05  7.595930E+01 -3.136881E+03
       157   6 -2.801696E+05 -6.384647E+04 -6.059511E+02 -1.376855E+05  1.396848E+03 -5.001742E+03
       157   7 -2.886040E+05 -6.700915E+04 -3.260630E+03 -1.400767E+05 -5.223361E+03 -2.802467E+03
       157   8 -3.156724E+05 -7.417536E+04 -6.357329E+03 -1.451385E+05 -3.980995E+03 -4.658688E+03
       157   9 -3.392416E+05 -8.502693E+04 -9.832743E+03 -1.543143E+05 -2.726099E+03 -6.548349E+03
       157  10 -2.717625E+05 -6.088877E+04 -7.510583E+02 -1.352166E+05  3.767969E-09 -1.032656E-09
       157  11 -2.481641E+05 -4.992122E+04  4.176788E+03 -1.260787E+05 -3.710803E-09 -1.404489E-09
       157  12 -2.210932E+05 -4.266539E+04  8.620972E+03 -1.210549E+05 -6.222430E-09 -9.168776E-10
       157  13 -2.801833E+05 -6.394898E+04 -2.005877E+03 -1.376467E+05 -6.097360E-09 -1.296569E-09
       157  14 -2.819190E+05 -6.204841E+04 -1.090325E+03 -1.356089E+05 -2.319867E-09 -2.474615E-09
       157  15 -2.801697E+05 -6.384650E+04 -6.060017E+02 -1.376854E+05 -2.994874E-09 -1.760551E-09
       157  16 -2.886040E+05 -6.700917E+04 -3.260696E+03 -1.400767E+05 -3.466261E-09 -1.459171E-09
       157  17 -3.156724E+05 -7.417539E+04 -6.357400E+03 -1.451385E+05  3.242485E-10 -3.497269E-09
       157  18 -3.392416E+05 -8.502698E+04 -9.832838E+03 -1.543143E+05  1.141290E-09 -2.567578E-09
       157  19 -2.717625E+05 -6.088877E+04 -7.510439E+02 -1.352166E+05 -2.758668E+03 -1.915767E+02
       157  20 -2.481641E+05 -4.992121E+04  4.176825E+03 -1.260788E+05 -4.133171E+03  1.614977E+03
       157  21 -2.210932E+05 -4.266537E+04  8.621052E+03 -1.210549E+05 -5.520258E+03  3.454960E+03
       157  22 -2.801833E+05 -6.394897E+04 -2.005871E+03 -1.376467E+05  1.232376E+03  1.305457E+03
       157  23 -2.819190E+05 -6.204840E+04 -1.090307E+03 -1.356089E+05 -7.595930E+01  3.136881E+03
       157  24 -2.801696E+05 -6.384647E+04 -6.059511E+02 -1.376855E+05 -1.396848E+03  5.001742E+03
       157  25 -2.886040E+05 -6.700915E+04 -3.260630E+03 -1.400767E+05  5.223361E+03  2.802467E+03
       157  26 -3.156724E+05 -7.417536E+04 -6.357329E+03 -1.451385E+05  3.980995E+03  4.658688E+03
       157  27 -3.392416E+05 -8.502693E+04 -9.832743E+03 -1.543143E+05  2.726099E+03  6.548349E+03
       158   1 -2.050262E+05 -3.692549E+04  1.141469E+04 -1.165759E+05  6.061323E+03 -4.637864E+03
       158   2 -1.814872E+05 -2.609119E+04  1.554063E+04 -1.074226E+05  6.981415E+03 -6.671795E+03
       158   3 -1.543734E+05 -1.885643E+04  1.956338E+04 -1.023875E+05  7.902398E+03 -8.707685E+03
       158   4 -2.801534E+05 -6.384965E+04 -4.592995E+02 -1.376770E+05  1.940234E+03 -6.183841E+03
       158   5 -2.819423E+05 -6.205582E+04 -2.681820E+02 -1.356158E+05  2.856265E+03 -8.219472E+03
       158   6 -2.801569E+05 -6.386114E+04 -1.772575E+02 -1.376735E+05  3.773179E+03 -1.025706E+04
       158   7 -3.552753E+05 -9.077355E+04 -1.233357E+04 -1.587759E+05 -2.180375E+03 -7.729637E+03
       158   8 -3.823871E+05 -9.801962E+04 -1.607727E+04 -1.638049E+05 -1.268203E+03 -9.766893E+03
       158   9 -4.059234E+05 -1.088642E+05 -1.991811E+04 -1.729527E+05 -3.551574E+02 -1.180610E+04
       158  10 -2.050263E+05 -3.692552E+04  1.141458E+04 -1.165759E+05 -1.833015E-09  4.721550E-10
       158  11 -1.814873E+05 -2.609125E+04  1.554045E+04 -1.074226E+05 -1.181347E-09  7.194445E-10
       158  12 -1.543735E+05 -1.885653E+04  1.956312E+04 -1.023875E+05  4.672830E-09  1.350318E-10
       158  13 -2.801534E+05 -6.384969E+04 -4.593785E+02 -1.376770E+05 -1.857791E-09 -9.690859E-10
       158  14 -2.819423E+05 -6.205589E+04 -2.683242E+02 -1.356158E+05 -1.864707E-09 -3.926409E-10
       158  15 -2.801570E+05 -6.386126E+04 -1.774819E+02 -1.376735E+05  1.118589E-09  7.420038E-10
       158  16 -3.552753E+05 -9.077361E+04 -1.233369E+04 -1.587759E+05 -2.460222E-09 -2.474702E-09
       158  17 -3.823871E+05 -9.801972E+04 -1.607745E+04 -1.638049E+05 -2.564132E-09 -1.181022E-09
       158  18 -4.059234E+05 -1.088644E+05 -1.991837E+04 -1.729528E+05  2.685506E-09  1.303097E-09
       158  19 -2.050262E+05 -3.692549E+04  1.141469E+04 -1.165759E+05 -6.061323E+03  4.637864E+03
       158  20 -1.814872E+05 -2.609119E+04  1.554063E+04 -1.074226E+05 -6.981415E+03  6.671795E+03
       158  21 -1.543734E+05 -1.885643E+04  1.956338E+04 -1.023875E+05 -7.902398E+03  8.707685E+03
       158  22 -2.801534E+05 -6.384965E+04 -4.592995E+02 -1.376770E+05 -1.940234E+03  6.183841E+03
       158  23 -2.819423E+05 -6.205582E+04 -2.681820E+02 -1.356158E+05 -2.856265E+03  8.219472E+03
       158  24 -2.801569E+05 -6.386114E+04 -1.772575E+02 -1.376735E+05 -3.773179E+03  1.025706E+04
       158  25 -3.552753E+05 -9.077355E+04 -1.233357E+04 -1.587759E+05  2.180375E+03  7.729637E+03
       158  26 -3.823871E+05 -9.801962E+04 -1.607727E+04 -1.638049E+05  1.268203E+03  9.766893E+03
       158  27 -4.059234E+05 -1.088642E+05 -1.991811E+04 -1.729527E+05  3.551574E+02  1.180610E+04
       159   1 -1.383437E+05 -1.310606E+04  2.222589E+04 -9.790275E+04  8.386386E+03 -9.913274E+03
       159   2 -1.148319E+05 -2.272833E+03  2.615900E+04 -8.875003E+04  9.225232E+03 -1.197471E+04
       159   3 -8.773381E+04  4.971209E+03  3.005069E+04 -8.371054E+04  1.006024E+04 -1.402526E+04
       159   4 -2.801572E+05 -6.386284E+04 -1.574684E+02 -1.376718E+05  4.257476E+03 -1.146266E+04
       159   5 -2.819494E+05 -6.207022E+04 -1.575571E+02 -1.356140E+05  5.117643E+03 -1.351636E+04
       159   6 -2.801603E+05 -6.387093E+04 -2.158940E+02 -1.376696E+05  5.973974E+03 -1.555920E+04
       159   7 -4.219473E+05 -1.146169E+05 -2.254067E+04 -1.774318E+05  1.296114E+02 -1.301165E+04
       159   8 -4.490369E+05 -1.218647E+05 -2.647453E+04 -1.824661E+05  1.011224E+03 -1.505758E+04
       159   9 -4.725491E+05 -1.327100E+05 -3.048367E+04 -1.916136E+05  1.889001E+03 -1.709265E+04
       159  10 -1.383438E+05 -1.310618E+04  2.222558E+04 -9.790268E+04  2.011826E-09  3.649642E-10
       159  11 -1.148320E+05 -2.273010E+03  2.615857E+04 -8.874994E+04 -7.123077E-09 -1.060070E-09
       159  12 -8.773397E+04  4.970970E+03  3.005013E+04 -8.371043E+04 -6.641417E-09 -9.087375E-10
       159  13 -2.801572E+05 -6.386298E+04 -1.577494E+02 -1.376717E+05  1.892809E-09  4.428393E-10
       159  14 -2.819495E+05 -6.207042E+04 -1.579496E+02 -1.356140E+05 -1.038484E-09 -6.446972E-10
       159  15 -2.801604E+05 -6.387120E+04 -2.164159E+02 -1.376695E+05 -8.526525E-09  1.947059E-10
       159  16 -4.219474E+05 -1.146171E+05 -2.254098E+04 -1.774318E+05 -5.393532E-09  4.518926E-10
       159  17 -4.490370E+05 -1.218649E+05 -2.647496E+04 -1.824661E+05 -9.100532E-09  8.399724E-10
       159  18 -4.725492E+05 -1.327104E+05 -3.048423E+04 -1.916135E+05 -3.315279E-09  1.837558E-09
       159  19 -1.383437E+05 -1.310606E+04  2.222589E+04 -9.790275E+04 -8.386386E+03  9.913274E+03
       159  20 -1.148319E+05 -2.272833E+03  2.615900E+04 -8.875003E+04 -9.225232E+03  1.197471E+04
       159  21 -8.773381E+04  4.971209E+03  3.005069E+04 -8.371054E+04 -1.006024E+04  1.402526E+04
       159  22 -2.801572E+05 -6.386284E+04 -1.574684E+02 -1.376718E+05 -4.257476E+03  1.146266E+04
       159  23 -2.819494E+05 -6.207022E+04 -1.575571E+02 -1.356140E+05 -5.117643E+03  1.351636E+04
       159  24 -2.801603E+05 -6.387093E+04 -2.158940E+02 -1.376696E+05 -5.973974E+03  1.555920E+04
       159  25 -4.219473E+05 -1.146169E+05 -2.254067E+04 -1.774318E+05 -1.296114E+02  1.301165E+04
       159  26 -4.490369E+05 -1.218647E+05 -2.647453E+04 -1.824661E+05 -1.011224E+03  1.505758E+04
       159  27 -4.725491E+05 -1.327100E+05 -3.048367E+04 -1.916136E+05 -1.889001E+03  1.709265E+04
       160   1 -7.171809E+04  1.072186E+04  3.264969E+04 -7.923208E+04  1.055841E+04 -1.521567E+04
       160   2 -4.823563E+04  2.155981E+04  3.647480E+04 -7.008354E+04  1.134518E+04 -1.722256E+04
       160   3 -2.117179E+04  2.881152E+04  4.027818E+04 -6.503448E+04  1.209392E+04 -1.912723E+04
       160   4 -2.801700E+05 -6.387054E+04 -2.701518E+02 -1.376703E+05  6.467346E+03 -1.675161E+04
       160   5 -2.819469E+05 -6.208458E+04 -4.625439E+02 -1.356113E+05  7.456012E+03 -1.868311E+04
       160   6 -2.801828E+05 -6.392507E+04 -8.366065E+02 -1.376521E+05  8.406624E+03 -2.051236E+04
       160   7 -4.885750E+05 -1.384584E+05 -3.319069E+04 -1.960901E+05  2.377737E+03 -1.828700E+04
       160   8 -5.155978E+05 -1.457227E+05 -3.740041E+04 -2.011154E+05  3.568412E+03 -2.014306E+04
       160   9 -5.391186E+05 -1.566535E+05 -4.195173E+04 -2.102404E+05  4.721001E+03 -2.189686E+04
       160  10 -7.171827E+04  1.072158E+04  3.264905E+04 -7.923195E+04  3.427898E-09  9.002223E-10
       160  11 -4.823585E+04  2.155945E+04  3.647400E+04 -7.008338E+04 -2.822977E-10 -5.426010E-10
       160  12 -2.117204E+04  2.881108E+04  4.027722E+04 -6.503429E+04  1.704474E-09 -5.305372E-10
       160  13 -2.801701E+05 -6.387085E+04 -2.707577E+02 -1.376702E+05  1.780876E-09  6.612161E-10
       160  14 -2.819470E+05 -6.208497E+04 -4.633042E+02 -1.356111E+05 -2.468557E-09  2.179908E-10
       160  15 -2.801830E+05 -6.392554E+04 -8.375299E+02 -1.376520E+05  6.272412E-10  1.028767E-11
       160  16 -4.885751E+05 -1.384587E+05 -3.319132E+04 -1.960901E+05 -2.862288E-09  5.415812E-10
       160  17 -5.155980E+05 -1.457232E+05 -3.740120E+04 -2.011153E+05 -1.787078E-09  9.509553E-11
       160  18 -5.391187E+05 -1.566540E+05 -4.195267E+04 -2.102403E+05  1.154678E-09  1.203597E-09
       160  19 -7.171809E+04  1.072186E+04  3.264969E+04 -7.923208E+04 -1.055841E+04  1.521567E+04
       160  20 -4.823563E+04  2.155981E+04  3.647480E+04 -7.008354E+04 -1.134518E+04  1.722256E+04
       160  21 -2.117179E+04  2.881152E+04  4.027818E+04 -6.503448E+04 -1.209392E+04  1.912723E+04
       160  22 -2.801700E+05 -6.387054E+04 -2.701518E+02 -1.376703E+05 -6.467346E+03  1.675161E+04
       160  23 -2.819469E+05 -6.208458E+04 -4.625439E+02 -1.356113E+05 -7.456012E+03  1.868311E+04
       160  24 -2.801828E+05 -6.392507E+04 -8.366065E+02 -1.376521E+05 -8.406624E+03  2.051236E+04
       160  25 -4.885750E+05 -1.384584E+05 -3.319069E+04 -1.960901E+05 -2.377737E+03  1.828700E+04
       160  26 -5.155978E+05 -1.457227E+05 -3.740041E+04 -2.011154E+05 -3.568412E+03  2.014306E+04
       160  27 -5.391186E+05 -1.566535E+05 -4.195173E+04 -2.102404E+05 -4.721001E+03  2.189686E+04
       161   1 -5.131313E+03  3.455072E+04  4.277655E+04 -6.060892E+04  1.272601E+04 -2.017969E+04
       161   2  1.807222E+04  4.549973E+04  4.670914E+04 -5.120463E+04  1.235792E+04 -2.192087E+04
       161   3  4.482539E+04  5.266846E+04  5.123470E+04 -4.571464E+04  1.162364E+04 -2.268626E+04
       161   4 -2.802490E+05 -6.392354E+04 -1.113258E+03 -1.376564E+05  8.982790E+03 -2.158605E+04
       161   5 -2.819077E+05 -6.235525E+04 -2.048041E+03 -1.355076E+05  1.054399E+04 -2.260331E+04
       161   6 -2.804001E+05 -6.495013E+04 -3.918840E+03 -1.372738E+05  1.173897E+04 -2.264447E+04
       161   7 -5.552887E+05 -1.623913E+05 -4.500538E+04 -2.146727E+05  5.241281E+03 -2.299177E+04
       161   8 -5.817931E+05 -1.702016E+05 -5.080766E+04 -2.197728E+05  8.730974E+03 -2.328540E+04
       161   9 -6.055131E+05 -1.825580E+05 -5.907525E+04 -2.287880E+05  1.185424E+04 -2.260270E+04
       161  10 -5.131597E+03  3.455024E+04  4.277548E+04 -6.060871E+04  2.543353E-09  9.335777E-11
       161  11  1.807192E+04  4.549918E+04  4.670795E+04 -5.120441E+04  2.240010E-09 -1.198600E-09
       161  12  4.482511E+04  5.266787E+04  5.123348E+04 -4.571442E+04  1.651275E-09 -1.899954E-09
       161  13 -2.802492E+05 -6.392406E+04 -1.114285E+03 -1.376562E+05  1.919696E-09 -3.115563E-11
       161  14 -2.819080E+05 -6.235583E+04 -2.049209E+03 -1.355074E+05 -3.438321E-09 -1.136414E-09
       161  15 -2.804004E+05 -6.495072E+04 -3.920063E+03 -1.372736E+05 -1.055660E-09 -1.290781E-09
       161  16 -5.552889E+05 -1.623918E+05 -4.500642E+04 -2.146726E+05 -2.851658E-09  1.020997E-10
       161  17 -5.817934E+05 -1.702022E+05 -5.080882E+04 -2.197726E+05 -2.034790E-09 -4.388273E-10
       161  18 -6.055134E+05 -1.825586E+05 -5.907648E+04 -2.287878E+05 -6.785934E-10 -7.890202E-10
       161  19 -5.131313E+03  3.455072E+04  4.277655E+04 -6.060892E+04 -1.272601E+04  2.017969E+04
       161  20  1.807222E+04  4.549973E+04  4.670914E+04 -5.120463E+04 -1.235792E+04  2.192087E+04
       161  21  4.482539E+04  5.266846E+04  5.123470E+04 -4.571464E+04 -1.162364E+04  2.268626E+04
       161  22 -2.802490E+05 -6.392354E+04 -1.113258E+03 -1.376564E+05 -8.982790E+03  2.158605E+04
       161  23 -2.819077E+05 -6.235525E+04 -2.048041E+03 -1.355076E+05 -1.054399E+04  2.260331E+04
       161  24 -2.804001E+05 -6.495013E+04 -3.918840E+03 -1.372738E+05 -1.173897E+04  2.264447E+04
       161  25 -5.552887E+05 -1.623913E+05 -4.500538E+04 -2.146727E+05 -5.241281E+03  2.299177E+04
       161  26 -5.817931E+05 -1.702016E+05 -5.080766E+04 -2.197728E+05 -8.730974E+03  2.328540E+04
       161  27 -6.055131E+05 -1.825580E+05 -5.907525E+04 -2.287880E+05 -1.185424E+04  2.260270E+04
       162   1  6.132109E+04  5.809523E+04  5.387861E+04 -4.189908E+04  1.291773E+04 -2.265987E+04
       162   2  8.020049E+04  7.055819E+04  6.214287E+04 -2.725431E+04 -2.081651E+03 -2.319366E+04
       162   3  1.017263E+05  7.457004E+04  7.874498E+04 -1.388904E+04 -2.060593E+04 -1.435074E+04
       162   4 -2.811021E+05 -6.507232E+04 -5.256125E+03 -1.373082E+05  1.248140E+04 -2.282533E+04
       162   5 -2.817284E+05 -6.705611E+04 -1.008396E+04 -1.336484E+05  1.602787E+04 -1.639260E+04
       162   6 -2.833844E+05 -8.116791E+04 -2.127033E+04 -1.312685E+05  1.604928E+04 -5.799305E+02
       162   7 -6.234003E+05 -1.882282E+05 -6.439407E+04 -2.326680E+05  1.204533E+04 -2.299069E+04
       162   8 -6.435145E+05 -2.046531E+05 -8.231388E+04 -2.399819E+05  3.412578E+04 -9.596325E+03
       162   9 -6.683347E+05 -2.368833E+05 -1.212889E+05 -2.485751E+05  5.267851E+04  1.317938E+04
       162  10  6.132077E+04  5.809463E+04  5.387733E+04 -4.189885E+04  1.784310E-09 -1.479576E-09
       162  11  8.020035E+04  7.055761E+04  6.214185E+04 -2.725435E+04 -7.531063E-09 -3.839606E-09
       162  12  1.017258E+05  7.456970E+04  7.874379E+04 -1.388927E+04 -8.118817E-09 -2.878089E-09
       162  13 -2.811025E+05 -6.507292E+04 -5.257397E+03 -1.373080E+05 -5.879924E-09 -3.170062E-09
       162  14 -2.817287E+05 -6.705647E+04 -1.008495E+04 -1.336482E+05 -8.433494E-09 -1.342868E-09
       162  15 -2.833847E+05 -8.116798E+04 -2.127081E+04 -1.312685E+05 -2.789614E-09 -5.191612E-10
       162  16 -6.234006E+05 -1.882289E+05 -6.439534E+04 -2.326678E+05 -8.355956E-09 -2.794674E-09
       162  17 -6.435158E+05 -2.046535E+05 -8.231624E+04 -2.399817E+05 -8.354991E-09 -2.130157E-09
       162  18 -6.683377E+05 -2.368843E+05 -1.212945E+05 -2.485757E+05  1.040009E-09  1.520236E-10
       162  19  6.132109E+04  5.809523E+04  5.387861E+04 -4.189908E+04 -1.291773E+04  2.265987E+04
       162  20  8.020049E+04  7.055819E+04  6.214287E+04 -2.725431E+04  2.081651E+03  2.319366E+04
       162  21  1.017263E+05  7.457004E+04  7.874498E+04 -1.388904E+04  2.060593E+04  1.435074E+04
       162  22 -2.811021E+05 -6.507232E+04 -5.256125E+03 -1.373082E+05 -1.248140E+04  2.282533E+04
       162  23 -2.817284E+05 -6.705611E+04 -1.008396E+04 -1.336484E+05 -1.602787E+04  1.639260E+04
       162  24 -2.833844E+05 -8.116791E+04 -2.127033E+04 -1.312685E+05 -1.604928E+04  5.799305E+02
       162  25 -6.234003E+05 -1.882282E+05 -6.439407E+04 -2.326680E+05 -1.204533E+04  2.299069E+04
       162  26 -6.435145E+05 -2.046531E+05 -8.231388E+04 -2.399819E+05 -3.412578E+04  9.596325E+03
       162  27 -6.683347E+05 -2.368833E+05 -1.212889E+05 -2.485751E+05 -5.267851E+04 -1.317938E+04
       163   1 -2.378476E+05 -4.548470E+04 -6.958913E+04 -1.511579E+04 -7.213236E+04 -1.185958E+03
       163   2 -2.288229E+05  5.233864E+04 -1.073242E+04 -5.188339E+03 -4.781450E+04 -3.430413E+03
       163   3 -2.509073E+05  3.823283E+04  4.318944E+03  1.199521E+04 -2.349915E+04 -3.053692E+03
       163   4 -3.898151E+05 -8.341405E+04 -1.073392E+05  3.392618E+03 -7.331839E+04 -1.188830E+03
       163   5 -3.741731E+05  1.614687E+04 -4.633774E+04 -2.622089E+02 -4.812588E+04 -3.431072E+03
       163   6 -3.898000E+05  3.611970E+03 -2.975687E+04  3.339192E+03 -2.293558E+04 -3.052933E+03
       163   7 -5.417608E+05 -1.213438E+05 -1.450909E+05  2.189649E+04 -7.450414E+04 -1.191773E+03
       163   8 -5.195039E+05 -2.004637E+04 -8.194459E+04  4.662762E+03 -4.843718E+04 -3.431737E+03
       163   9 -5.286749E+05 -3.101004E+04 -6.383405E+04 -5.314884E+03 -2.237214E+04 -3.052190E+03
       163  10 -2.378532E+05 -4.548610E+04 -6.959892E+04 -1.511586E+04 -1.099484E-09  1.778355E-10
       163  11 -2.288254E+05  5.233801E+04 -1.073674E+04 -5.188471E+03 -1.454217E-09 -8.473527E-10
       163  12 -2.509079E+05  3.823267E+04  4.317888E+03  1.199515E+04  2.362605E-10 -1.382188E-09
       163  13 -3.898208E+05 -8.341550E+04 -1.073494E+05  3.392548E+03  2.327541E-09  6.774781E-10
       163  14 -3.741756E+05  1.614623E+04 -4.634211E+04 -2.623419E+02 -3.036958E-09 -3.815948E-10
       163  15 -3.898005E+05  3.611819E+03 -2.975787E+04  3.339136E+03 -1.507422E-09  5.583865E-10
       163  16 -5.417667E+05 -1.213453E+05 -1.451013E+05  2.189642E+04 -3.363962E-09  2.287304E-10
       163  17 -5.195064E+05 -2.004702E+04 -8.194902E+04  4.662628E+03 -1.538732E-09 -1.644190E-09
       163  18 -5.286754E+05 -3.101019E+04 -6.383501E+04 -5.314939E+03 -7.068845E-10 -1.016564E-09
       163  19 -2.378476E+05 -4.548470E+04 -6.958913E+04 -1.511579E+04  7.213236E+04  1.185958E+03
       163  20 -2.288229E+05  5.233864E+04 -1.073242E+04 -5.188339E+03  4.781450E+04  3.430413E+03
       163  21 -2.509073E+05  3.823283E+04  4.318944E+03  1.199521E+04  2.349915E+04  3.053692E+03
       163  22 -3.898151E+05 -8.341405E+04 -1.073392E+05  3.392618E+03  7.331839E+04  1.188830E+03
       163  23 -3.741731E+05  1.614687E+04 -4.633774E+04 -2.622089E+02  4.812588E+04  3.431072E+03
       163  24 -3.898000E+05  3.611970E+03 -2.975687E+04  3.339192E+03  2.293558E+04  3.052933E+03
       163  25 -5.417608E+05 -1.213438E+05 -1.450909E+05  2.189649E+04  7.450414E+04  1.191773E+03
       163  26 -5.195039E+05 -2.004637E+04 -8.194459E+04  4.662762E+03  4.843718E+04  3.431737E+03
       163  27 -5.286749E+05 -3.101004E+04 -6.383405E+04 -5.314884E+03  2.237214E+04  3.052190E+03
       164   1 -2.603439E+05  1.992308E+04  5.855844E+03  1.287205E+03 -1.809181E+04 -2.518588E+03
       164   2 -2.649979E+05  3.116917E+04  1.656311E+04 -8.508730E+02 -1.194115E+04 -2.547467E+03
       164   3 -2.740876E+05  2.781973E+04  1.961923E+04  4.698677E+03 -5.790809E+03 -2.278671E+03
       164   4 -3.838438E+05 -1.084835E+04 -2.448195E+04  3.460876E+03 -1.815094E+04 -2.518740E+03
       164   5 -3.816156E+05  2.116697E+03 -1.204689E+04 -3.882940E+02 -1.190142E+04 -2.547468E+03
       164   6 -3.838410E+05  4.675262E+02 -7.332731E+03  3.450249E+03 -5.652134E+03 -2.278530E+03
       164   7 -5.073299E+05 -4.162089E+04 -5.482087E+04  5.634110E+03 -1.821006E+04 -2.518892E+03
       164   8 -4.982209E+05 -2.693679E+04 -4.065790E+04  7.419478E+01 -1.186169E+04 -2.547469E+03
       164   9 -4.935835E+05 -2.688557E+04 -3.428558E+04  2.202038E+03 -5.513484E+03 -2.278389E+03
       164  10 -2.603443E+05  1.992299E+04  5.855217E+03  1.287168E+03 -9.353800E-10 -2.571959E-09
       164  11 -2.649981E+05  3.116913E+04  1.656283E+04 -8.508975E+02 -2.246014E-09  7.572922E-10
       164  12 -2.740876E+05  2.781972E+04  1.961916E+04  4.698667E+03 -6.930258E-09  2.227669E-09
       164  13 -3.838442E+05 -1.084844E+04 -2.448258E+04  3.460839E+03 -1.654461E-09 -1.406959E-09
       164  14 -3.816158E+05  2.116652E+03 -1.204717E+04 -3.883184E+02  2.427610E-09 -1.015424E-09
       164  15 -3.838411E+05  4.675121E+02 -7.332800E+03  3.450238E+03  8.228757E-10 -2.512191E-10
       164  16 -5.073302E+05 -4.162098E+04 -5.482150E+04  5.634073E+03 -2.566829E-09  1.147730E-10
       164  17 -4.982211E+05 -2.693683E+04 -4.065817E+04  7.417044E+01  8.057255E-10 -1.600966E-09
       164  18 -4.935836E+05 -2.688558E+04 -3.428565E+04  2.202028E+03  3.894132E-09  9.820031E-10
       164  19 -2.603439E+05  1.992308E+04  5.855844E+03  1.287205E+03  1.809181E+04  2.518588E+03
       164  20 -2.649979E+05  3.116917E+04  1.656311E+04 -8.508730E+02  1.194115E+04  2.547467E+03
       164  21 -2.740876E+05  2.781973E+04  1.961923E+04  4.698677E+03  5.790809E+03  2.278671E+03
       164  22 -3.838438E+05 -1.084835E+04 -2.448195E+04  3.460876E+03  1.815094E+04  2.518740E+03
       164  23 -3.816156E+05  2.116697E+03 -1.204689E+04 -3.882940E+02  1.190142E+04  2.547468E+03
       164  24 -3.838410E+05  4.675262E+02 -7.332731E+03  3.450249E+03  5.652134E+03  2.278530E+03
       164  25 -5.073299E+05 -4.162089E+04 -5.482087E+04  5.634110E+03  1.821006E+04  2.518892E+03
       164  26 -4.982209E+05 -2.693679E+04 -4.065790E+04  7.419478E+01  1.186169E+04  2.547469E+03
       164  27 -4.935835E+05 -2.688557E+04 -3.428558E+04  2.202038E+03  5.513484E+03  2.278389E+03
       165   1 -2.894165E+05  2.191997E+04  1.713271E+04  3.356627E+03 -4.546742E+03 -2.087563E+03
       165   2 -2.962361E+05  2.180949E+04  1.810300E+04 -4.443916E+02 -2.987557E+03 -1.863471E+03
       165   3 -3.037349E+05  1.981951E+04  1.758664E+04  3.763048E+03 -1.428496E+03 -1.601553E+03
       165   4 -3.830023E+05 -1.393367E+03 -5.816791E+03  3.526318E+03 -4.477993E+03 -2.087504E+03
       165   5 -3.826612E+05  2.765612E+02 -3.104528E+03 -4.788194E+02 -2.906316E+03 -1.863386E+03
       165   6 -3.830017E+05  6.466789E+01 -1.887747E+03  3.524573E+03 -1.334745E+03 -1.601440E+03
       165   7 -4.765800E+05 -2.470736E+04 -2.876694E+04  3.695981E+03 -4.409255E+03 -2.087445E+03
       165   8 -4.690794E+05 -2.125692E+04 -2.431260E+04 -5.132446E+02 -2.825086E+03 -1.863301E+03
       165   9 -4.622627E+05 -1.969064E+04 -2.136260E+04  3.286127E+03 -1.241005E+03 -1.601328E+03
       165  10 -2.894166E+05  2.191996E+04  1.713266E+04  3.356620E+03 -7.616192E-11  3.209505E-09
       165  11 -2.962361E+05  2.180948E+04  1.810297E+04 -4.443960E+02 -4.306893E-10  1.710305E-09
       165  12 -3.037349E+05  1.981951E+04  1.758663E+04  3.763046E+03  2.190825E-09 -9.278094E-10
       165  13 -3.830023E+05 -1.393377E+03 -5.816837E+03  3.526311E+03 -1.255933E-09 -1.959220E-10
       165  14 -3.826612E+05  2.765552E+02 -3.104551E+03 -4.788238E+02  6.794881E-09  1.894595E-09
       165  15 -3.830017E+05  6.466466E+01 -1.887755E+03  3.524571E+03  2.661859E-09  2.678066E-09
       165  16 -4.765800E+05 -2.470737E+04 -2.876698E+04  3.695974E+03  2.517407E-09  2.597152E-09
       165  17 -4.690794E+05 -2.125693E+04 -2.431262E+04 -5.132488E+02 -5.774362E-09  2.012986E-09
       165  18 -4.622627E+05 -1.969064E+04 -2.136261E+04  3.286126E+03 -9.048776E-10  1.893417E-09
       165  19 -2.894165E+05  2.191997E+04  1.713271E+04  3.356627E+03  4.546742E+03  2.087563E+03
       165  20 -2.962361E+05  2.180949E+04  1.810300E+04 -4.443916E+02  2.987557E+03  1.863471E+03
       165  21 -3.037349E+05  1.981951E+04  1.758664E+04  3.763048E+03  1.428496E+03  1.601553E+03
       165  22 -3.830023E+05 -1.393367E+03 -5.816791E+03  3.526318E+03  4.477993E+03  2.087504E+03
       165  23 -3.826612E+05  2.765612E+02 -3.104528E+03 -4.788194E+02  2.906316E+03  1.863386E+03
       165  24 -3.830017E+05  6.466789E+01 -1.887747E+03  3.524573E+03  1.334745E+03  1.601440E+03
       165  25 -4.765800E+05 -2.470736E+04 -2.876694E+04  3.695981E+03  4.409255E+03  2.087445E+03
       165  26 -4.690794E+05 -2.125692E+04 -2.431260E+04 -5.132446E+02  2.825086E+03  1.863301E+03
       165  27 -4.622627E+05 -1.969064E+04 -2.136260E+04  3.286127E+03  1.241005E+03  1.601328E+03
       166   1 -3.203518E+05  1.540753E+04  1.381458E+04  3.614280E+03 -1.115077E+03 -1.444705E+03
       166   2 -3.276406E+05  1.378549E+04  1.258165E+04 -4.841902E+02 -6.398376E+02 -1.186250E+03
       166   3 -3.350753E+05  1.191313E+04  1.097215E+04  3.651102E+03 -1.646618E+02 -9.208339E+02
       166   4 -3.828821E+05 -1.679689E+02 -1.508361E+03  3.575381E+03 -1.029590E+03 -1.444597E+03
       166   5 -3.828088E+05  3.980735E+01 -9.565281E+02 -5.416371E+02 -5.520551E+02 -1.186132E+03
       166   6 -3.828820E+05 -3.176813E+00 -7.829181E+02  3.575154E+03 -7.457873E+01 -9.207057E+02
       166   7 -4.454088E+05 -1.574376E+04 -1.683159E+04  3.536484E+03 -9.441110E+02 -1.444489E+03
       166   8 -4.379742E+05 -1.370611E+04 -1.449493E+04 -5.990799E+02 -4.642804E+02 -1.186014E+03
       166   9 -4.306866E+05 -1.191966E+04 -1.253815E+04  3.499211E+03  1.549741E+01 -9.205775E+02
       166  10 -3.203518E+05  1.540753E+04  1.381457E+04  3.614279E+03 -5.862923E-10 -3.171038E-10
       166  11 -3.276406E+05  1.378549E+04  1.258165E+04 -4.841908E+02 -1.153521E-09  4.794047E-09
       166  12 -3.350753E+05  1.191313E+04  1.097215E+04  3.651102E+03  6.184694E-11  1.755704E-09
       166  13 -3.828821E+05 -1.679715E+02 -1.508367E+03  3.575380E+03  7.462759E-10  9.021324E-10
       166  14 -3.828088E+05  3.980576E+01 -9.565313E+02 -5.416376E+02 -5.282739E-09  3.054617E-09
       166  15 -3.828820E+05 -3.177725E+00 -7.829197E+02  3.575154E+03 -2.815068E-09 -1.189711E-09
       166  16 -4.454088E+05 -1.574376E+04 -1.683159E+04  3.536483E+03 -6.075289E-10  1.588591E-09
       166  17 -4.379742E+05 -1.370611E+04 -1.449493E+04 -5.990804E+02 -2.134660E-09  3.230641E-10
       166  18 -4.306866E+05 -1.191966E+04 -1.253815E+04  3.499211E+03  2.557370E-09 -1.332553E-09
       166  19 -3.203518E+05  1.540753E+04  1.381458E+04  3.614280E+03  1.115077E+03  1.444705E+03
       166  20 -3.276406E+05  1.378549E+04  1.258165E+04 -4.841902E+02  6.398376E+02  1.186250E+03
       166  21 -3.350753E+05  1.191313E+04  1.097215E+04  3.651102E+03  1.646618E+02  9.208339E+02
       166  22 -3.828821E+05 -1.679689E+02 -1.508361E+03  3.575381E+03  1.029590E+03  1.444597E+03
       166  23 -3.828088E+05  3.980735E+01 -9.565281E+02 -5.416371E+02  5.520551E+02  1.186132E+03
       166  24 -3.828820E+05 -3.176813E+00 -7.829181E+02  3.575154E+03  7.457873E+01  9.207057E+02
       166  25 -4.454088E+05 -1.574376E+04 -1.683159E+04  3.536484E+03  9.441110E+02  1.444489E+03
       166  26 -4.379742E+05 -1.370611E+04 -1.449493E+04 -5.990799E+02  4.642804E+02  1.186014E+03
       166  27 -4.306866E+05 -1.191966E+04 -1.253815E+04  3.499211E+03 -1.549741E+01  9.205775E+02
       167   1 -3.521763E+05  7.641921E+03  6.730928E+03  3.615168E+03 -2.298099E+01 -7.648829E+02
       167   2 -3.595729E+05  5.828730E+03  4.755698E+03 -5.493454E+02  4.493271E+02 -4.982122E+02
       167   3 -3.671227E+05  3.770024E+03  2.405145E+03  3.646755E+03  9.216186E+02 -2.315796E+02
       167   4 -3.828831E+05 -4.399448E+00 -7.815628E+02  3.603334E+03  6.634986E+01 -7.647519E+02
       167   5 -3.828065E+05  3.971052E+01 -9.459741E+02 -5.768612E+02  5.386291E+02 -4.980785E+02
       167   6 -3.828831E+05 -1.616628E+02 -1.485664E+03  3.603576E+03  1.010897E+03 -2.314429E+02
       167   7 -4.135889E+05 -7.650790E+03 -8.294122E+03  3.591501E+03  1.556763E+02 -7.646209E+02
       167   8 -4.060397E+05 -5.749349E+03 -6.647686E+03 -6.043762E+02  6.279277E+02 -4.979447E+02
       167   9 -3.986434E+05 -4.093368E+03 -5.376492E+03  3.560398E+03  1.100174E+03 -2.313063E+02
       167  10 -3.521763E+05  7.641920E+03  6.730927E+03  3.615168E+03  8.751776E-10 -7.876824E-11
       167  11 -3.595729E+05  5.828729E+03  4.755697E+03 -5.493452E+02  4.085065E-09  1.727557E-09
       167  12 -3.671227E+05  3.770023E+03  2.405144E+03  3.646755E+03 -3.719811E-10 -2.785591E-09
       167  13 -3.828831E+05 -4.400077E+00 -7.815639E+02  3.603334E+03 -3.808305E-09  3.015470E-09
       167  14 -3.828065E+05  3.971018E+01 -9.459752E+02 -5.768610E+02  2.418490E-09  1.985434E-09
       167  15 -3.828831E+05 -1.616631E+02 -1.485666E+03  3.603576E+03 -9.232473E-10 -2.750677E-09
       167  16 -4.135889E+05 -7.650790E+03 -8.294123E+03  3.591501E+03 -6.123559E-10  8.465642E-10
       167  17 -4.060397E+05 -5.749349E+03 -6.647687E+03 -6.043760E+02 -3.925984E-09  5.894972E-10
       167  18 -3.986434E+05 -4.093368E+03 -5.376494E+03  3.560398E+03 -8.865770E-10 -3.156764E-09
       167  19 -3.521763E+05  7.641921E+03  6.730928E+03  3.615168E+03  2.298099E+01  7.648829E+02
       167  20 -3.595729E+05  5.828730E+03  4.755698E+03 -5.493454E+02 -4.493271E+02  4.982122E+02
       167  21 -3.671227E+05  3.770024E+03  2.405145E+03  3.646755E+03 -9.216186E+02  2.315796E+02
       167  22 -3.828831E+05 -4.399448E+00 -7.815628E+02  3.603334E+03 -6.634986E+01  7.647519E+02
       167  23 -3.828065E+05  3.971052E+01 -9.459741E+02 -5.768612E+02 -5.386291E+02  4.980785E+02
       167  24 -3.828831E+05 -1.616628E+02 -1.485664E+03  3.603576E+03 -1.010897E+03  2.314429E+02
       167  25 -4.135889E+05 -7.650790E+03 -8.294122E+03  3.591501E+03 -1.556763E+02  7.646209E+02
       167  26 -4.060397E+05 -5.749349E+03 -6.647686E+03 -6.043762E+02 -6.279277E+02  4.979447E+02
       167  27 -3.986434E+05 -4.093368E+03 -5.376492E+03  3.560398E+03 -1.100174E+03  2.313063E+02
       168   1 -3.844950E+05 -3.115528E+02 -2.247776E+03  3.450542E+03  1.218103E+03 -7.209092E+01
       168   2 -3.916419E+05 -1.965593E+03 -5.255024E+03 -5.474891E+02  2.768558E+03  1.991055E+02
       168   3 -3.994840E+05 -5.464818E+03 -9.740091E+03  3.838972E+03  4.319026E+03  4.520070E+02
       168   4 -3.830032E+05  6.538235E+01 -1.858379E+03  3.607988E+03  1.311464E+03 -7.194688E+01
       168   5 -3.826565E+05  2.730629E+02 -3.050343E+03 -5.831676E+02  2.855795E+03  1.992384E+02
       168   6 -3.830038E+05 -1.363353E+03 -5.715841E+03  3.610164E+03  4.400158E+03  4.521281E+02
       168   7 -3.815115E+05  4.423174E+02 -1.468981E+03  3.765435E+03  1.404825E+03 -7.180280E+01
       168   8 -3.736709E+05  2.511713E+03 -8.456670E+02 -6.188465E+02  2.943033E+03  1.993713E+02
       168   9 -3.665233E+05  2.738092E+03 -1.691611E+03  3.381349E+03  4.481292E+03  4.522491E+02
       168  10 -3.844950E+05 -3.115532E+02 -2.247779E+03  3.450542E+03 -5.028238E-09  5.716401E-11
       168  11 -3.916419E+05 -1.965595E+03 -5.255038E+03 -5.474896E+02 -1.743997E-09  3.180872E-09
       168  12 -3.994841E+05 -5.464824E+03 -9.740127E+03  3.838971E+03  3.815000E-09 -8.659245E-10
       168  13 -3.830032E+05  6.538188E+01 -1.858382E+03  3.607988E+03  2.987526E-09 -1.274613E-09
       168  14 -3.826565E+05  2.730606E+02 -3.050358E+03 -5.831680E+02 -1.744354E-09  2.976485E-09
       168  15 -3.830038E+05 -1.363359E+03 -5.715878E+03  3.610162E+03  2.533471E-09 -5.988296E-10
       168  16 -3.815115E+05  4.423169E+02 -1.468985E+03  3.765435E+03  5.709268E-09  6.826746E-10
       168  17 -3.736709E+05  2.511710E+03 -8.456834E+02 -6.188470E+02  1.302466E-09 -2.786045E-09
       168  18 -3.665233E+05  2.738086E+03 -1.691649E+03  3.381347E+03  1.991588E-09 -9.473218E-10
       168  19 -3.844950E+05 -3.115528E+02 -2.247776E+03  3.450542E+03 -1.218103E+03  7.209092E+01
       168  20 -3.916419E+05 -1.965593E+03 -5.255024E+03 -5.474891E+02 -2.768558E+03 -1.991055E+02
       168  21 -3.994840E+05 -5.464818E+03 -9.740091E+03  3.838972E+03 -4.319026E+03 -4.520070E+02
       168  22 -3.830032E+05  6.538235E+01 -1.858379E+03  3.607988E+03 -1.311464E+03  7.194688E+01
       168  23 -3.826565E+05  2.730629E+02 -3.050343E+03 -5.831676E+02 -2.855795E+03 -1.992384E+02
       168  24 -3.830038E+05 -1.363353E+03 -5.715841E+03  3.610164E+03 -4.400158E+03 -4.521281E+02
       168  25 -3.815115E+05  4.423174E+02 -1.468981E+03  3.765435E+03 -1.404825E+03  7.180280E+01
       168  26 -3.736709E+05  2.511713E+03 -8.456670E+02 -6.188465E+02 -2.943033E+03 -1.993713E+02
       168  27 -3.665233E+05  2.738092E+03 -1.691611E+03  3.381349E+03 -4.481292E+03 -4.522491E+02
       169   1 -4.175000E+05 -7.934590E+03 -1.549100E+04  2.415272E+03  5.434537E+03  6.334816E+02
       169   2 -4.227171E+05 -8.154708E+03 -2.191394E+04 -6.488061E+01  1.162778E+04  9.166607E+02
       169   3 -4.323581E+05 -2.273531E+04 -3.596651E+04  5.769537E+03  1.782111E+04  1.036729E+03
       169   4 -3.838303E+05  4.635812E+02 -7.205708E+03  3.587870E+03  5.554129E+03  6.336700E+02
       169   5 -3.816245E+05  2.081762E+03 -1.183331E+04 -5.614114E+02  1.169295E+04  9.167425E+02
       169   6 -3.838330E+05 -1.065058E+04 -2.405234E+04  3.603887E+03  1.783193E+04  1.036676E+03
       169   7 -3.501595E+05  8.861673E+03  1.079504E+03  4.760532E+03  5.673727E+03  6.338588E+02
       169   8 -3.405304E+05  1.231811E+04 -1.752794E+03 -1.057976E+03  1.175813E+04  9.168242E+02
       169   9 -3.353058E+05  1.433996E+03 -1.213835E+04  1.438067E+03  1.784275E+04  1.036623E+03
       169  10 -4.175000E+05 -7.934599E+03 -1.549106E+04  2.415270E+03 -2.745082E-09  2.017133E-09
       169  11 -4.227172E+05 -8.154745E+03 -2.191420E+04 -6.488919E+01 -2.410525E-09  4.868349E-09
       169  12 -4.323584E+05 -2.273540E+04 -3.596711E+04  5.769522E+03  8.916079E-10  9.960691E-10
       169  13 -3.838303E+05  4.635725E+02 -7.205766E+03  3.587868E+03  2.955188E-09  4.120343E-10
       169  14 -3.816247E+05  2.081725E+03 -1.183357E+04 -5.614200E+02  3.619564E-09  5.628555E-09
       169  15 -3.838334E+05 -1.065067E+04 -2.405294E+04  3.603872E+03  3.920829E-09 -2.135274E-09
       169  16 -3.501596E+05  8.861664E+03  1.079442E+03  4.760529E+03  4.605429E-09  2.502980E-10
       169  17 -3.405306E+05  1.231807E+04 -1.753055E+03 -1.057984E+03  2.392222E-09  9.149916E-10
       169  18 -3.353062E+05  1.433909E+03 -1.213895E+04  1.438052E+03  6.063526E-10 -4.218718E-09
       169  19 -4.175000E+05 -7.934590E+03 -1.549100E+04  2.415272E+03 -5.434537E+03 -6.334816E+02
       169  20 -4.227171E+05 -8.154708E+03 -2.191394E+04 -6.488061E+01 -1.162778E+04 -9.166607E+02
       169  21 -4.323581E+05 -2.273531E+04 -3.596651E+04  5.769537E+03 -1.782111E+04 -1.036729E+03
       169  22 -3.838303E+05  4.635812E+02 -7.205708E+03  3.587870E+03 -5.554129E+03 -6.336700E+02
       169  23 -3.816245E+05  2.081762E+03 -1.183331E+04 -5.614114E+02 -1.169295E+04 -9.167425E+02
       169  24 -3.838330E+05 -1.065058E+04 -2.405234E+04  3.603887E+03 -1.783193E+04 -1.036676E+03
       169  25 -3.501595E+05  8.861673E+03  1.079504E+03  4.760532E+03 -5.673727E+03 -6.338588E+02
       169  26 -3.405304E+05  1.231811E+04 -1.752794E+03 -1.057976E+03 -1.175813E+04 -9.168242E+02
       169  27 -3.353058E+05  1.433996E+03 -1.213835E+04  1.438067E+03 -1.784275E+04 -1.036623E+03
       170   1 -4.551084E+05 -1.277729E+04 -4.530206E+04 -4.954701E+03  2.217712E+04  1.412466E+03
       170   2 -4.469943E+05 -2.221698E+03 -6.332156E+04  4.330590E+03  4.740795E+04  1.777200E+03
       170   3 -4.697392E+05 -1.018771E+05 -1.253303E+05  2.180777E+04  7.264092E+04  6.916412E+02
       170   4 -3.896867E+05  3.554945E+03 -2.923500E+04  3.529283E+03  2.253294E+04  1.413258E+03
       170   5 -3.743086E+05  1.586665E+04 -4.551952E+04 -5.117676E+02  4.727895E+04  1.776639E+03
       170   6 -3.897017E+05 -8.194206E+04 -1.054527E+05  3.639267E+03  7.202742E+04  6.887178E+02
       170   7 -3.242610E+05  1.988713E+04 -1.316822E+04  1.201416E+04  2.288880E+04  1.414060E+03
       170   8 -3.016180E+05  3.395470E+04 -2.771785E+04 -5.354696E+03  4.714995E+04  1.776080E+03
       170   9 -3.096576E+05 -6.200628E+04 -8.557540E+04 -1.453158E+04  7.141385E+04  6.858306E+02
       170  10 -4.551089E+05 -1.277742E+04 -4.530298E+04 -4.954726E+03 -4.445523E-09 -9.626603E-10
       170  11 -4.469967E+05 -2.222305E+03 -6.332579E+04  4.330523E+03  4.992953E-10 -2.352569E-10
       170  12 -4.697449E+05 -1.018785E+05 -1.253402E+05  2.180773E+04  1.295876E-09 -2.112273E-10
       170  13 -3.896873E+05  3.554807E+03 -2.923596E+04  3.529257E+03  2.636906E-09 -1.416842E-10
       170  14 -3.743110E+05  1.586605E+04 -4.552372E+04 -5.118353E+02 -4.475434E-10 -1.065162E-09
       170  15 -3.897073E+05 -8.194345E+04 -1.054624E+05  3.639227E+03 -4.121324E-09  2.820851E-09
       170  16 -3.242616E+05  1.988698E+04 -1.316921E+04  1.201413E+04  4.540092E-09 -4.967541E-10
       170  17 -3.016204E+05  3.395410E+04 -2.772204E+04 -5.354763E+03 -2.363183E-09  1.863229E-09
       170  18 -3.096631E+05 -6.200765E+04 -8.558499E+04 -1.453162E+04  5.153412E-11 -3.034204E-10
       170  19 -4.551084E+05 -1.277729E+04 -4.530206E+04 -4.954701E+03 -2.217712E+04 -1.412466E+03
       170  20 -4.469943E+05 -2.221698E+03 -6.332156E+04  4.330590E+03 -4.740795E+04 -1.777200E+03
       170  21 -4.697392E+05 -1.018771E+05 -1.253303E+05  2.180777E+04 -7.264092E+04 -6.916412E+02
       170  22 -3.896867E+05  3.554945E+03 -2.923500E+04  3.529283E+03 -2.253294E+04 -1.413258E+03
       170  23 -3.743086E+05  1.586665E+04 -4.551952E+04 -5.117676E+02 -4.727895E+04 -1.776639E+03
       170  24 -3.897017E+05 -8.194206E+04 -1.054527E+05  3.639267E+03 -7.202742E+04 -6.887178E+02
       170  25 -3.242610E+05  1.988713E+04 -1.316822E+04  1.201416E+04 -2.288880E+04 -1.414060E+03
       170  26 -3.016180E+05  3.395470E+04 -2.771785E+04 -5.354696E+03 -4.714995E+04 -1.776080E+03
       170  27 -3.096576E+05 -6.200628E+04 -8.557540E+04 -1.453158E+04 -7.141385E+04 -6.858306E+02
       171   1  1.485831E+05  8.316893E+05  1.587316E+05 -7.911339E+04  4.238950E+03  5.421320E+04
       171   2  6.966757E+04  7.382228E+05  9.872381E+04 -4.392699E+04  1.231754E+04  2.760592E+04
       171   3  4.759176E+04  6.623968E+05  7.022805E+04 -4.526747E+04  1.011847E+04  9.952987E+02
       171   4  5.558912E+04  4.576784E+05  6.769659E+04 -5.310735E+04  4.248969E+03  4.278387E+04
       171   5 -1.057956E+03  4.496404E+05  3.356532E+04 -3.486491E+04  1.232025E+04  2.507435E+04
       171   6 -2.393723E+03  4.577042E+05  2.478335E+04 -5.314801E+04  1.011318E+04  7.357771E+03
       171   7 -3.741256E+04  8.379668E+04 -2.334768E+04 -2.711697E+04  4.258035E+03  3.136139E+04
       171   8 -7.178889E+04  1.611355E+05 -3.159844E+04 -2.580707E+04  1.232288E+04  2.254393E+04
       171   9 -5.238178E+04  2.530509E+05 -2.066377E+04 -6.102592E+04  1.010772E+04  1.371817E+04
       171  10  1.485823E+05  8.316862E+05  1.587260E+05 -7.911357E+04 -2.398069E-09 -1.703609E-09
       171  11  6.966720E+04  7.382219E+05  9.872210E+04 -4.392726E+04 -1.528803E-09 -6.205478E-09
       171  12  4.759165E+04  6.623968E+05  7.022786E+04 -4.526748E+04 -3.854101E-09 -5.605340E-09
       171  13  5.558861E+04  4.576764E+05  6.769312E+04 -5.310749E+04  1.374206E-10  5.256551E-10
       171  14 -1.058288E+03  4.496397E+05  3.356385E+04 -3.486516E+04  4.470543E-09  6.546192E-10
       171  15 -2.393847E+03  4.577041E+05  2.478306E+04 -5.314807E+04  5.666432E-10  9.396378E-10
       171  16 -3.741285E+04  8.379562E+04 -2.334956E+04 -2.711708E+04 -2.434985E-10  2.072258E-09
       171  17 -7.178919E+04  1.611349E+05 -3.159968E+04 -2.580729E+04  4.238570E-09  4.528889E-09
       171  18 -5.238194E+04  2.530507E+05 -2.066431E+04 -6.102603E+04 -1.024764E-09  3.912585E-09
       171  19  1.485831E+05  8.316893E+05  1.587316E+05 -7.911339E+04 -4.238950E+03 -5.421320E+04
       171  20  6.966757E+04  7.382228E+05  9.872381E+04 -4.392699E+04 -1.231754E+04 -2.760592E+04
       171  21  4.759176E+04  6.623968E+05  7.022805E+04 -4.526747E+04 -1.011847E+04 -9.952987E+02
       171  22  5.558912E+04  4.576784E+05  6.769659E+04 -5.310735E+04 -4.248969E+03 -4.278387E+04
       171  23 -1.057956E+03  4.496404E+05  3.356532E+04 -3.486491E+04 -1.232025E+04 -2.507435E+04
       171  24 -2.393723E+03  4.577042E+05  2.478335E+04 -5.314801E+04 -1.011318E+04 -7.357771E+03
       171  25 -3.741256E+04  8.379668E+04 -2.334768E+04 -2.711697E+04 -4.258035E+03 -3.136139E+04
       171  26 -7.178889E+04  1.611355E+05 -3.159844E+04 -2.580707E+04 -1.232288E+04 -2.254393E+04
       171  27 -5.238178E+04  2.530509E+05 -2.066377E+04 -6.102592E+04 -1.010772E+04 -1.371817E+04
       172   1  3.552660E+04  5.882733E+05  5.320765E+04 -5.578610E+04  6.401789E+03 -2.953646E+01
       172   2  1.152607E+04  5.017266E+05  3.495147E+04 -3.449208E+04  2.422460E+03 -1.226390E+04
       172   3 -1.686840E+03  4.194003E+05  2.733524E+04 -5.009275E+04 -1.665472E+03 -2.449709E+04
       172   4  2.958041E+03  4.550621E+05  2.352480E+04 -5.321932E+04  6.398817E+03  3.372923E+03
       172   5 -3.861459E+02  4.529639E+05  2.412386E+04 -3.477023E+04  2.419315E+03 -8.766592E+03
       172   6  7.041619E+03  4.550627E+05  3.529777E+04 -5.321561E+04 -1.668707E+03 -2.090654E+04
       172   7 -2.961169E+04  3.218674E+05 -6.159117E+03 -5.065309E+04  6.395872E+03  6.774661E+03
       172   8 -1.229852E+04  4.042034E+05  1.329616E+04 -3.504835E+04  2.416167E+03 -5.269552E+03
       172   9  1.577004E+04  4.907264E+05  4.326027E+04 -5.633865E+04 -1.671978E+03 -1.731579E+04
       172  10  3.552656E+04  5.882733E+05  5.320757E+04 -5.578610E+04 -4.212679E-09 -1.086919E-09
       172  11  1.152603E+04  5.017264E+05  3.495117E+04 -3.449205E+04 -2.921761E-11 -7.021526E-11
       172  12 -1.687004E+03  4.193996E+05  2.733411E+04 -5.009279E+04 -4.203362E-09  3.435194E-09
       172  13  2.957994E+03  4.550621E+05  2.352470E+04 -5.321934E+04  1.795462E-09  8.600710E-10
       172  14 -3.861728E+02  4.529638E+05  2.412371E+04 -3.477021E+04  4.347763E-09  8.966186E-10
       172  15  7.041499E+03  4.550623E+05  3.529694E+04 -5.321564E+04  2.112586E-09  7.682021E-10
       172  16 -2.961175E+04  3.218674E+05 -6.159280E+03 -5.065312E+04 -3.610611E-10  1.564463E-09
       172  17 -1.229853E+04  4.042034E+05  1.329609E+04 -3.504834E+04  1.517120E-09 -1.720036E-09
       172  18  1.576995E+04  4.907261E+05  4.325970E+04 -5.633867E+04 -5.323169E-09 -5.077847E-09
       172  19  3.552660E+04  5.882733E+05  5.320765E+04 -5.578610E+04 -6.401789E+03  2.953646E+01
       172  20  1.152607E+04  5.017266E+05  3.495147E+04 -3.449208E+04 -2.422460E+03  1.226390E+04
       172  21 -1.686840E+03  4.194003E+05  2.733524E+04 -5.009275E+04  1.665472E+03  2.449709E+04
       172  22  2.958041E+03  4.550621E+05  2.352480E+04 -5.321932E+04 -6.398817E+03 -3.372923E+03
       172  23 -3.861459E+02  4.529639E+05  2.412386E+04 -3.477023E+04 -2.419315E+03  8.766592E+03
       172  24  7.041619E+03  4.550627E+05  3.529777E+04 -5.321561E+04  1.668707E+03  2.090654E+04
       172  25 -2.961169E+04  3.218674E+05 -6.159117E+03 -5.065309E+04 -6.395872E+03 -6.774661E+03
       172  26 -1.229852E+04  4.042034E+05  1.329616E+04 -3.504835E+04 -2.416167E+03  5.269552E+03
       172  27  1.577004E+04  4.907264E+05  4.326027E+04 -5.633865E+04  1.671978E+03  1.731579E+04
       173   1 -3.206211E+04  3.547298E+05  1.832360E+04 -7.068312E+04 -5.148971E+03 -3.292483E+04
       173   2 -4.911050E+04  2.535705E+05  2.434818E+04 -1.563099E+04 -7.914693E+03 -6.200482E+04
       173   3  5.213648E+04  1.857297E+05  7.886696E+04  2.855129E+03 -2.869428E+03 -9.107387E+04
       173   4 -5.931626E+03  4.617917E+05  4.215462E+04 -5.317109E+04 -5.155171E+03 -2.714202E+04
       173   5 -2.242817E+03  4.445415E+05  6.759865E+04 -3.483999E+04 -7.911791E+03 -6.298568E+04
       173   6  1.208887E+05  4.617566E+05  1.462180E+05 -5.307006E+04 -2.855061E+03 -9.882256E+04
       173   7  2.019925E+04  5.688651E+05  6.598522E+04 -3.565601E+04 -5.161045E+03 -2.135822E+04
       173   8  4.462374E+04  6.355471E+05  1.108470E+05 -5.405494E+04 -7.908828E+03 -6.396685E+04
       173   9  1.896471E+05  7.378598E+05  2.135654E+05 -1.090202E+05 -2.839304E+03 -1.065747E+05
       173  10 -3.206243E+04  3.547286E+05  1.832151E+04 -7.068326E+04 -1.380148E-09 -1.334257E-08
       173  11 -4.911160E+04  2.535663E+05  2.434084E+04 -1.563138E+04  2.956027E-09 -3.922209E-09
       173  12  5.213425E+04  1.857208E+05  7.885136E+04  2.854919E+03 -3.392652E-10  9.685747E-09
       173  13 -5.931853E+03  4.617910E+05  4.215319E+04 -5.317120E+04  8.044129E-11  8.943420E-10
       173  14 -2.243948E+03  4.445372E+05  6.759108E+04 -3.484039E+04 -4.806658E-09  7.960337E-10
       173  15  1.208861E+05  4.617461E+05  1.461996E+05 -5.307029E+04  2.265948E-09  9.290961E-10
       173  16  2.019910E+04  5.688646E+05  6.598432E+04 -3.565609E+04 -1.945176E-09  1.380319E-08
       173  17  4.462257E+04  6.355427E+05  1.108392E+05 -5.405534E+04 -2.752233E-09  1.900761E-09
       173  18  1.896441E+05  7.378476E+05  2.135440E+05 -1.090204E+05  2.656950E-09 -1.098767E-08
       173  19 -3.206211E+04  3.547298E+05  1.832360E+04 -7.068312E+04  5.148971E+03  3.292483E+04
       173  20 -4.911050E+04  2.535705E+05  2.434818E+04 -1.563099E+04  7.914693E+03  6.200482E+04
       173  21  5.213648E+04  1.857297E+05  7.886696E+04  2.855129E+03  2.869428E+03  9.107387E+04
       173  22 -5.931626E+03  4.617917E+05  4.215462E+04 -5.317109E+04  5.155171E+03  2.714202E+04
       173  23 -2.242817E+03  4.445415E+05  6.759865E+04 -3.483999E+04  7.911791E+03  6.298568E+04
       173  24  1.208887E+05  4.617566E+05  1.462180E+05 -5.307006E+04  2.855061E+03  9.882256E+04
       173  25  2.019925E+04  5.688651E+05  6.598522E+04 -3.565601E+04  5.161045E+03  2.135822E+04
       173  26  4.462374E+04  6.355471E+05  1.108470E+05 -5.405494E+04  7.908828E+03  6.396685E+04
       173  27  1.896471E+05  7.378598E+05  2.135654E+05 -1.090202E+05  2.839304E+03  1.065747E+05
       174   1  2.801232E+04  9.898715E+03 -7.665522E+03 -8.201361E+03 -5.063302E+04 -3.207813E+03
       174   2  1.258563E+04  7.631152E+04  2.931937E+04 -1.539463E+03 -3.507880E+04 -9.488960E+03
       174   3 -2.424062E+04  6.517809E+04  3.680205E+04  2.273077E+04 -1.953493E+04 -8.783867E+03
       174   4 -2.733117E+05 -6.514636E+04 -8.186354E+04  1.353419E+04 -5.602078E+04 -3.216810E+03
       174   5 -2.622664E+05  8.291668E+03 -3.600680E+04  4.682398E+03 -3.661866E+04 -9.491859E+03
       174   6 -2.733002E+05  3.495708E+03 -2.233526E+04  1.343975E+04 -1.722610E+04 -8.780078E+03
       174   7 -5.745520E+05 -1.401964E+05 -1.560679E+05  3.525916E+04 -6.140592E+04 -3.226187E+03
       174   8 -5.370490E+05 -5.973348E+04 -1.013382E+05  1.090146E+04 -3.815785E+04 -9.494791E+03
       174   9 -5.223027E+05 -5.819082E+04 -8.147684E+04  4.152452E+03 -1.491819E+04 -8.776358E+03
       174  10  2.800956E+04  9.898016E+03 -7.670359E+03 -8.201492E+03 -2.804704E-09  9.318658E-10
       174  11  1.258429E+04  7.631110E+04  2.931689E+04 -1.539731E+03 -1.975326E-10  5.974081E-09
       174  12 -2.424105E+04  6.517790E+04  3.680119E+04  2.273063E+04  1.713808E-10  6.007646E-10
       174  13 -2.733150E+05 -6.514721E+04 -8.186946E+04  1.353405E+04  3.034475E-09 -8.970046E-10
       174  14 -2.622679E+05  8.291211E+03 -3.600949E+04  4.682118E+03  3.691699E-09 -2.731521E-09
       174  15 -2.733006E+05  3.495545E+03 -2.233597E+04  1.343962E+04 -1.686368E-09 -6.792036E-10
       174  16 -5.745560E+05 -1.401974E+05 -1.560750E+05  3.525900E+04  4.439870E-09  1.177214E-09
       174  17 -5.370505E+05 -5.973396E+04 -1.013411E+05  1.090117E+04 -2.128072E-09  5.035246E-09
       174  18 -5.223029E+05 -5.819096E+04 -8.147740E+04  4.152346E+03 -6.902318E-10 -3.938740E-10
       174  19  2.801232E+04  9.898715E+03 -7.665522E+03 -8.201361E+03  5.063302E+04  3.207813E+03
       174  20  1.258563E+04  7.631152E+04  2.931937E+04 -1.539463E+03  3.507880E+04  9.488960E+03
       174  21 -2.424062E+04  6.517809E+04  3.680205E+04  2.273077E+04  1.953493E+04  8.783867E+03
       174  22 -2.733117E+05 -6.514636E+04 -8.186354E+04  1.353419E+04  5.602078E+04  3.216810E+03
       174  23 -2.622664E+05  8.291668E+03 -3.600680E+04  4.682398E+03  3.661866E+04  9.491859E+03
       174  24 -2.733002E+05  3.495708E+03 -2.233526E+04  1.343975E+04  1.722610E+04  8.780078E+03
       174  25 -5.745520E+05 -1.401964E+05 -1.560679E+05  3.525916E+04  6.140592E+04  3.226187E+03
       174  26 -5.370490E+05 -5.973348E+04 -1.013382E+05  1.090146E+04  3.815785E+04  9.494791E+03
       174  27 -5.223027E+05 -5.819082E+04 -8.147684E+04  4.152452E+03  1.491819E+04  8.776358E+03
       175   1 -5.183912E+04  4.742376E+04  3.354634E+04  1.190106E+04 -1.401589E+04 -7.171811E+03
       175   2 -7.682087E+04  4.811236E+04  3.604667E+04  4.362117E+03 -9.508737E+03 -6.543176E+03
       175   3 -1.043423E+05  4.116602E+04  3.369479E+04  1.471582E+04 -5.003014E+03 -5.444070E+03
       175   4 -2.689666E+05 -6.346081E+03 -1.817474E+04  1.354038E+04 -1.379976E+04 -7.171655E+03
       175   5 -2.676716E+05  8.616450E+02 -9.329285E+03  4.588000E+03 -9.034453E+03 -6.542467E+03
       175   6 -2.689631E+05  3.881307E+02 -5.516718E+03  1.352869E+04 -4.270391E+03 -5.442763E+03
       175   7 -4.860508E+05 -6.011932E+04 -6.989913E+04  1.517910E+04 -1.358371E+04 -7.171498E+03
       175   8 -4.584889E+05 -4.639170E+04 -5.470779E+04  4.813799E+03 -8.560313E+03 -6.541758E+03
       175   9 -4.335591E+05 -4.039171E+04 -4.473012E+04  1.234187E+04 -3.537961E+03 -5.441459E+03
       175  10 -5.183935E+04  4.742366E+04  3.354588E+04  1.190098E+04 -2.256940E-09 -2.760358E-09
       175  11 -7.682098E+04  4.811229E+04  3.604642E+04  4.362067E+03 -1.855453E-09  1.349005E-09
       175  12 -1.043424E+05  4.116598E+04  3.369469E+04  1.471580E+04  3.180877E-09  4.977569E-09
       175  13 -2.689668E+05 -6.346187E+03 -1.817520E+04  1.354030E+04  7.143042E-10  4.667968E-09
       175  14 -2.676717E+05  8.615771E+02 -9.329519E+03  4.587953E+03 -4.860918E-10 -1.102209E-08
       175  15 -2.689632E+05  3.880940E+02 -5.516808E+03  1.352868E+04  4.402962E-10  3.398900E-09
       175  16 -4.860510E+05 -6.011942E+04 -6.989957E+04  1.517902E+04 -1.030879E-10 -4.791085E-09
       175  17 -4.584889E+05 -4.639176E+04 -5.470800E+04  4.813754E+03  9.408419E-10 -3.393270E-09
       175  18 -4.335591E+05 -4.039175E+04 -4.473020E+04  1.234186E+04  2.109393E-09  5.683825E-10
       175  19 -5.183912E+04  4.742376E+04  3.354634E+04  1.190106E+04  1.401589E+04  7.171811E+03
       175  20 -7.682087E+04  4.811236E+04  3.604667E+04  4.362117E+03  9.508737E+03  6.543176E+03
       175  21 -1.043423E+05  4.116602E+04  3.369479E+04  1.471582E+04  5.003014E+03  5.444070E+03
       175  22 -2.689666E+05 -6.346081E+03 -1.817474E+04  1.354038E+04  1.379976E+04  7.171655E+03
       175  23 -2.676716E+05  8.616450E+02 -9.329285E+03  4.588000E+03  9.034453E+03  6.542467E+03
       175  24 -2.689631E+05  3.881307E+02 -5.516718E+03  1.352869E+04  4.270391E+03  5.442763E+03
       175  25 -4.860508E+05 -6.011932E+04 -6.989913E+04  1.517910E+04  1.358371E+04  7.171498E+03
       175  26 -4.584889E+05 -4.639170E+04 -5.470779E+04  4.813799E+03  8.560313E+03  6.541758E+03
       175  27 -4.335591E+05 -4.039171E+04 -4.473012E+04  1.234187E+04  3.537961E+03  5.441459E+03
       176   1 -1.359872E+05  3.222706E+04  2.712973E+04  1.362847E+04 -3.998621E+03 -4.725270E+03
       176   2 -1.621734E+05  2.637952E+04  2.286332E+04  4.707668E+03 -2.835423E+03 -3.632423E+03
       176   3 -1.887621E+05  1.984316E+04  1.765014E+04  1.378912E+04 -1.672555E+03 -2.506572E+03
       176   4 -2.684761E+05 -5.632363E+02 -4.304458E+03  1.355750E+04 -3.405378E+03 -4.724180E+03
       176   5 -2.682724E+05  1.088573E+02 -2.364399E+03  4.555632E+03 -2.224204E+03 -3.631241E+03
       176   6 -2.684747E+05  8.904904E+01 -1.383641E+03  1.355621E+04 -1.043311E+03 -2.505291E+03
       176   7 -4.009490E+05 -3.335479E+04 -3.573987E+04  1.348654E+04 -2.812261E+03 -4.723090E+03
       176   8 -3.743611E+05 -2.616262E+04 -2.759291E+04  4.403617E+03 -1.613090E+03 -3.630058E+03
       176   9 -3.481815E+05 -1.966552E+04 -2.041786E+04  1.332333E+04 -4.141472E+02 -2.504011E+03
       176  10 -1.359872E+05  3.222703E+04  2.712966E+04  1.362845E+04 -1.126306E-09 -1.659847E-09
       176  11 -1.621734E+05  2.637950E+04  2.286328E+04  4.707660E+03 -7.161454E-09 -1.251459E-09
       176  12 -1.887621E+05  1.984315E+04  1.765012E+04  1.378912E+04 -2.044241E-09 -1.925009E-09
       176  13 -2.684762E+05 -5.632633E+02 -4.304522E+03  1.355749E+04  3.186282E-09 -1.399000E-09
       176  14 -2.682724E+05  1.088418E+02 -2.364434E+03  4.555626E+03 -2.063489E-09 -3.127670E-09
       176  15 -2.684747E+05  8.904200E+01 -1.383655E+03  1.355621E+04  4.277900E-09 -4.866831E-09
       176  16 -4.009490E+05 -3.335482E+04 -3.573993E+04  1.348652E+04 -5.212732E-10 -4.107083E-09
       176  17 -3.743611E+05 -2.616263E+04 -2.759294E+04  4.403612E+03  5.313277E-09  3.197957E-09
       176  18 -3.481815E+05 -1.966553E+04 -2.041788E+04  1.332333E+04  4.674626E-09  7.302384E-09
       176  19 -1.359872E+05  3.222706E+04  2.712973E+04  1.362847E+04  3.998621E+03  4.725270E+03
       176  20 -1.621734E+05  2.637952E+04  2.286332E+04  4.707668E+03  2.835423E+03  3.632423E+03
       176  21 -1.887621E+05  1.984316E+04  1.765014E+04  1.378912E+04  1.672555E+03  2.506572E+03
       176  22 -2.684761E+05 -5.632363E+02 -4.304458E+03  1.355750E+04  3.405378E+03  4.724180E+03
       176  23 -2.682724E+05  1.088573E+02 -2.364399E+03  4.555632E+03  2.224204E+03  3.631241E+03
       176  24 -2.684747E+05  8.904904E+01 -1.383641E+03  1.355621E+04  1.043311E+03  2.505291E+03
       176  25 -4.009490E+05 -3.335479E+04 -3.573987E+04  1.348654E+04  2.812261E+03  4.723090E+03
       176  26 -3.743611E+05 -2.616262E+04 -2.759291E+04  4.403617E+03  1.613090E+03  3.630058E+03
       176  27 -3.481815E+05 -1.966552E+04 -2.041786E+04  1.332333E+04  4.141472E+02  2.504011E+03
       177   1 -2.209585E+05  1.173552E+04  1.013404E+04  1.364399E+04 -1.444811E+03 -1.846040E+03
       177   2 -2.473404E+05  5.232981E+03  4.363963E+03  4.585164E+03 -1.135200E+03 -7.204018E+02
       177   3 -2.738563E+05 -1.272393E+03 -1.628721E+03  1.357078E+04 -8.256529E+02  4.074975E+02
       177   4 -2.684133E+05  8.488897E-01 -1.070599E+03  1.356604E+04 -8.245843E+02 -1.844754E+03
       177   5 -2.683458E+05  3.161293E+01 -6.308719E+02  4.543733E+03 -5.137596E+02 -7.191027E+02
       177   6 -2.684131E+05  5.936843E+01 -4.145775E+02  1.356591E+04 -2.029863E+02  4.088123E+02
       177   7 -3.158661E+05 -1.173398E+04 -1.227539E+04  1.348809E+04 -2.044044E+02 -1.843468E+03
       177   8 -2.893508E+05 -5.169787E+03 -5.625737E+03  4.502303E+03  1.076597E+02 -7.178036E+02
       177   9 -2.629698E+05  1.391128E+03  7.995654E+02  1.356104E+04  4.196857E+02  4.101270E+02
       177  10 -2.209585E+05  1.173551E+04  1.013403E+04  1.364399E+04  1.530276E-08 -5.376643E-09
       177  11 -2.473404E+05  5.232980E+03  4.363960E+03  4.585163E+03  5.173622E-09  1.440975E-09
       177  12 -2.738563E+05 -1.272394E+03 -1.628722E+03  1.357078E+04 -5.058146E-09  7.736442E-10
       177  13 -2.684133E+05  8.450535E-01 -1.070606E+03  1.356604E+04  5.388881E-09 -3.153620E-09
       177  14 -2.683458E+05  3.161230E+01 -6.308734E+02  4.543733E+03  2.085448E-10 -7.683980E-09
       177  15 -2.684131E+05  5.936824E+01 -4.145778E+02  1.356591E+04  1.091763E-09 -3.679527E-09
       177  16 -3.158661E+05 -1.173398E+04 -1.227540E+04  1.348809E+04 -1.488283E-08  3.727539E-09
       177  17 -2.893508E+05 -5.169787E+03 -5.625738E+03  4.502304E+03 -7.245311E-09  5.158947E-09
       177  18 -2.629698E+05  1.391128E+03  7.995647E+02  1.356104E+04  1.110046E-08  1.162170E-09
       177  19 -2.209585E+05  1.173552E+04  1.013404E+04  1.364399E+04  1.444811E+03  1.846040E+03
       177  20 -2.473404E+05  5.232981E+03  4.363963E+03  4.585164E+03  1.135200E+03  7.204018E+02
       177  21 -2.738563E+05 -1.272393E+03 -1.628721E+03  1.357078E+04  8.256529E+02 -4.074975E+02
       177  22 -2.684133E+05  8.488899E-01 -1.070599E+03  1.356604E+04  8.245843E+02  1.844754E+03
       177  23 -2.683458E+05  3.161293E+01 -6.308719E+02  4.543733E+03  5.137596E+02  7.191027E+02
       177  24 -2.684131E+05  5.936843E+01 -4.145775E+02  1.356591E+04  2.029863E+02 -4.088123E+02
       177  25 -3.158661E+05 -1.173398E+04 -1.227539E+04  1.348809E+04  2.044044E+02  1.843468E+03
       177  26 -2.893508E+05 -5.169787E+03 -5.625737E+03  4.502303E+03 -1.076597E+02  7.178036E+02
       177  27 -2.629698E+05  1.391128E+03  7.995654E+02  1.356104E+04 -4.196857E+02 -4.101270E+02
       178   1 -3.061292E+05 -9.302790E+03 -9.408025E+03  1.350308E+04 -7.573773E+02  1.064583E+03
       178   2 -3.325060E+05 -1.586145E+04 -1.557496E+04  4.449338E+03 -5.992049E+02  2.191652E+03
       178   3 -3.589802E+05 -2.237696E+04 -2.185335E+04  1.342616E+04 -4.408921E+02  3.315432E+03
       178   4 -2.684053E+05  5.473583E+01 -3.571502E+02  1.356283E+04 -1.347571E+02  1.065890E+03
       178   5 -2.683566E+05  2.395092E+01 -3.202203E+02  4.547617E+03  2.159566E+01  2.192917E+03
       178   6 -2.684060E+05  3.657773E+01 -3.935348E+02  1.356286E+04  1.780957E+02  3.316659E+03
       178   7 -2.306801E+05  9.412158E+03  8.693625E+03  1.362257E+04  4.879007E+02  1.067196E+03
       178   8 -2.042034E+05  1.590905E+04  1.493424E+04  4.645905E+03  6.424601E+02  2.194183E+03
       178   9 -1.778243E+05  2.244952E+04  2.106572E+04  1.369958E+04  7.971734E+02  3.317886E+03
       178  10 -3.061292E+05 -9.302791E+03 -9.408028E+03  1.350309E+04  6.741989E-10  1.411760E-09
       178  11 -3.325060E+05 -1.586145E+04 -1.557497E+04  4.449339E+03 -2.707380E-09 -2.183260E-10
       178  12 -3.589802E+05 -2.237697E+04 -2.185338E+04  1.342616E+04 -5.373493E-09 -1.289397E-09
       178  13 -2.684053E+05  5.473460E+01 -3.571524E+02  1.356283E+04  5.225219E-09  4.742666E-09
       178  14 -2.683566E+05  2.394575E+01 -3.202294E+02  4.547617E+03 -3.215370E-09 -9.411935E-10
       178  15 -2.684060E+05  3.656591E+01 -3.935555E+02  1.356286E+04  4.768432E-09 -3.647892E-09
       178  16 -2.306801E+05  9.412157E+03  8.693623E+03  1.362257E+04  1.638561E-09  9.287945E-10
       178  17 -2.042034E+05  1.590905E+04  1.493423E+04  4.645904E+03 -1.432138E-09 -1.099774E-08
       178  18 -1.778243E+05  2.244951E+04  2.106569E+04  1.369958E+04  5.585895E-09 -2.479160E-09
       178  19 -3.061292E+05 -9.302790E+03 -9.408025E+03  1.350308E+04  7.573773E+02 -1.064583E+03
       178  20 -3.325060E+05 -1.586145E+04 -1.557496E+04  4.449338E+03  5.992049E+02 -2.191652E+03
       178  21 -3.589802E+05 -2.237696E+04 -2.185335E+04  1.342616E+04  4.408921E+02 -3.315432E+03
       178  22 -2.684053E+05  5.473583E+01 -3.571502E+02  1.356283E+04  1.347571E+02 -1.065890E+03
       178  23 -2.683566E+05  2.395092E+01 -3.202203E+02  4.547617E+03 -2.159566E+01 -2.192917E+03
       178  24 -2.684060E+05  3.657773E+01 -3.935348E+02  1.356286E+04 -1.780957E+02 -3.316659E+03
       178  25 -2.306801E+05  9.412158E+03  8.693625E+03  1.362257E+04 -4.879007E+02 -1.067196E+03
       178  26 -2.042034E+05  1.590905E+04  1.493424E+04  4.645905E+03 -6.424601E+02 -2.194183E+03
       178  27 -1.778243E+05  2.244952E+04  2.106572E+04  1.369958E+04 -7.971734E+02 -3.317886E+03
       179   1 -3.911944E+05 -3.035639E+04 -2.974298E+04  1.332986E+04 -3.750711E+02  3.975202E+03
       179   2 -4.174363E+05 -3.688025E+04 -3.618999E+04  4.358634E+03  1.054105E+01  5.097026E+03
       179   3 -4.438331E+05 -4.356582E+04 -4.294288E+04  1.334244E+04  3.965417E+02  6.181017E+03
       179   4 -2.684197E+05  6.357932E+01 -4.665865E+02  1.354590E+04  2.539155E+02  3.976407E+03
       179   5 -2.683448E+05  4.126011E+01 -7.342539E+02  4.568706E+03  6.187253E+02  5.098107E+03
       179   6 -2.684215E+05 -1.389703E+02 -1.293149E+03  1.354628E+04  9.839396E+02  6.181978E+03
       179   7 -1.456312E+05  3.048246E+04  2.880875E+04  1.376198E+04  8.830259E+02  3.977614E+03
       179   8 -1.192329E+05  3.696116E+04  3.471993E+04  4.778819E+03  1.227055E+03  5.099188E+03
       179   9 -9.298150E+04  4.328566E+04  4.035444E+04  1.375016E+04  1.571503E+03  6.182940E+03
       179  10 -3.911944E+05 -3.035640E+04 -2.974301E+04  1.332986E+04 -5.203432E-09  1.307755E-10
       179  11 -4.174363E+05 -3.688027E+04 -3.619004E+04  4.358634E+03 -5.858934E-09 -7.522660E-09
       179  12 -4.438332E+05 -4.356586E+04 -4.294296E+04  1.334244E+04  3.944259E-10 -2.061258E-09
       179  13 -2.684197E+05  6.356233E+01 -4.666163E+02  1.354590E+04 -1.087503E-09 -4.169238E-09
       179  14 -2.683448E+05  4.123210E+01 -7.343034E+02  4.568704E+03 -7.926400E-12 -1.278415E-09
       179  15 -2.684215E+05 -1.390115E+02 -1.293222E+03  1.354627E+04  1.738149E-09 -4.444178E-10
       179  16 -1.456312E+05  3.048244E+04  2.880872E+04  1.376197E+04  7.542778E-09  5.322894E-09
       179  17 -1.192329E+05  3.696114E+04  3.471988E+04  4.778814E+03  1.407010E-09 -2.963192E-09
       179  18 -9.298151E+04  4.328562E+04  4.035436E+04  1.375015E+04 -5.866241E-09  2.742665E-09
       179  19 -3.911944E+05 -3.035639E+04 -2.974298E+04  1.332986E+04  3.750711E+02 -3.975202E+03
       179  20 -4.174363E+05 -3.688025E+04 -3.618999E+04  4.358634E+03 -1.054105E+01 -5.097026E+03
       179  21 -4.438331E+05 -4.356582E+04 -4.294288E+04  1.334244E+04 -3.965417E+02 -6.181017E+03
       179  22 -2.684197E+05  6.357932E+01 -4.665865E+02  1.354590E+04 -2.539155E+02 -3.976407E+03
       179  23 -2.683448E+05  4.126011E+01 -7.342539E+02  4.568706E+03 -6.187253E+02 -5.098107E+03
       179  24 -2.684215E+05 -1.389703E+02 -1.293149E+03  1.354628E+04 -9.839396E+02 -6.181978E+03
       179  25 -1.456312E+05  3.048246E+04  2.880875E+04  1.376198E+04 -8.830259E+02 -3.977614E+03
       179  26 -1.192329E+05  3.696116E+04  3.471993E+04  4.778819E+03 -1.227055E+03 -5.099188E+03
       179  27 -9.298150E+04  4.328566E+04  4.035444E+04  1.375016E+04 -1.571503E+03 -6.182940E+03
       180   1 -4.759918E+05 -5.124100E+04 -5.104484E+04  1.295493E+04  4.968369E+02  6.904631E+03
       180   2 -5.017185E+05 -5.757965E+04 -5.831318E+04  4.464794E+03  2.204597E+03  7.990980E+03
       180   3 -5.282592E+05 -6.620013E+04 -6.726954E+04  1.378954E+04  3.913582E+03  8.544593E+03
       180   4 -2.685607E+05  1.444392E+02 -1.645673E+03  1.351387E+04  1.241726E+03  6.905800E+03
       180   5 -2.681805E+05  2.564075E+02 -2.773407E+03  4.608208E+03  2.656078E+03  7.991519E+03
       180   6 -2.685637E+05 -1.861926E+03 -5.384815E+03  1.351702E+04  4.071728E+03  8.544591E+03
       180   7 -6.109001E+04  5.152677E+04  4.775048E+04  1.407299E+04  1.986862E+03  6.906970E+03
       180   8 -3.459248E+04  5.808853E+04  5.276256E+04  4.751656E+03  3.107729E+03  7.992058E+03
       180   9 -8.806284E+03  6.247140E+04  5.649518E+04  1.324437E+04  4.229939E+03  8.544589E+03
       180  10 -4.759918E+05 -5.124105E+04 -5.104493E+04  1.295492E+04  4.689984E-10  1.856397E-10
       180  11 -5.017185E+05 -5.757972E+04 -5.831331E+04  4.464780E+03 -7.883437E-09  2.430934E-09
       180  12 -5.282592E+05 -6.620021E+04 -6.726970E+04  1.378951E+04  1.764115E-09  9.273987E-10
       180  13 -2.685607E+05  1.443876E+02 -1.645766E+03  1.351387E+04  1.144694E-09 -4.985971E-09
       180  14 -2.681806E+05  2.563370E+02 -2.773540E+03  4.608191E+03 -2.932440E-10  5.468895E-09
       180  15 -2.685637E+05 -1.862009E+03 -5.384984E+03  1.351700E+04  1.442541E-09 -3.077840E-09
       180  16 -6.109003E+04  5.152672E+04  4.775038E+04  1.407298E+04 -1.700431E-09 -1.599931E-09
       180  17 -3.459251E+04  5.808846E+04  5.276242E+04  4.751636E+03  3.286127E-09 -6.362140E-09
       180  18 -8.806323E+03  6.247132E+04  5.649500E+04  1.324434E+04 -4.289589E-10  2.127468E-09
       180  19 -4.759918E+05 -5.124100E+04 -5.104484E+04  1.295493E+04 -4.968369E+02 -6.904631E+03
       180  20 -5.017185E+05 -5.757965E+04 -5.831318E+04  4.464794E+03 -2.204597E+03 -7.990980E+03
       180  21 -5.282592E+05 -6.620013E+04 -6.726954E+04  1.378954E+04 -3.913582E+03 -8.544593E+03
       180  22 -2.685607E+05  1.444392E+02 -1.645673E+03  1.351387E+04 -1.241726E+03 -6.905800E+03
       180  23 -2.681805E+05  2.564075E+02 -2.773407E+03  4.608208E+03 -2.656078E+03 -7.991519E+03
       180  24 -2.685637E+05 -1.861926E+03 -5.384815E+03  1.351702E+04 -4.071728E+03 -8.544591E+03
       180  25 -6.109001E+04  5.152677E+04  4.775048E+04  1.407299E+04 -1.986862E+03 -6.906970E+03
       180  26 -3.459248E+04  5.808853E+04  5.276256E+04  4.751656E+03 -3.107729E+03 -7.992058E+03
       180  27 -8.806284E+03  6.247140E+04  5.649518E+04  1.324437E+04 -4.229939E+03 -8.544589E+03
       181   1 -5.613273E+05 -7.112709E+04 -7.583297E+04  1.044927E+04  2.557776E+03  1.026959E+04
       181   2 -5.836510E+05 -7.606914E+04 -8.605687E+04  6.351552E+03  1.266328E+04  1.090531E+04
       181   3 -6.132202E+05 -1.048823E+05 -1.088239E+05  1.968404E+04  2.277699E+04  3.629904E+03
       181   4 -2.698394E+05  1.051758E+03 -6.613350E+03  1.342204E+04  5.084255E+03  1.027289E+04
       181   5 -2.665998E+05  2.444039E+03 -1.066956E+04  4.718752E+03  1.082875E+04  1.090261E+04
       181   6 -2.698455E+05 -1.927087E+04 -2.423524E+04  1.344543E+04  1.658200E+04  3.622834E+03
       181   7  2.172668E+04  7.322452E+04  6.260037E+04  1.639619E+04  7.611915E+03  1.027622E+04
       181   8  5.054372E+04  8.094999E+04  6.471074E+04  3.085085E+03  8.993290E+03  1.089992E+04
       181   9  7.363666E+04  6.633199E+04  6.034491E+04  7.203329E+03  1.038358E+04  3.615890E+03
       181  10 -5.613273E+05 -7.112720E+04 -7.583318E+04  1.044925E+04  9.422787E-09  7.111125E-10
       181  11 -5.836512E+05 -7.606931E+04 -8.605740E+04  6.351441E+03  2.519474E-09  5.190425E-09
       181  12 -6.132207E+05 -1.048825E+05 -1.088249E+05  1.968397E+04 -2.539374E-10  3.845079E-09
       181  13 -2.698394E+05  1.051638E+03 -6.613597E+03  1.342200E+04  2.916480E-09 -2.535947E-09
       181  14 -2.666000E+05  2.443880E+03 -1.067000E+04  4.718657E+03  1.079436E-09  3.850582E-09
       181  15 -2.698458E+05 -1.927096E+04 -2.423578E+04  1.344538E+04 -2.996881E-09  9.142288E-10
       181  16  2.172659E+04  7.322439E+04  6.260006E+04  1.639612E+04 -1.055603E-08  4.197125E-09
       181  17  5.054360E+04  8.094984E+04  6.471037E+04  3.085006E+03 -8.103327E-09  4.530611E-09
       181  18  7.363654E+04  6.633195E+04  6.034468E+04  7.203299E+03  2.872720E-09  5.570298E-10
       181  19 -5.613273E+05 -7.112709E+04 -7.583297E+04  1.044927E+04 -2.557776E+03 -1.026959E+04
       181  20 -5.836510E+05 -7.606914E+04 -8.605687E+04  6.351552E+03 -1.266328E+04 -1.090531E+04
       181  21 -6.132202E+05 -1.048823E+05 -1.088239E+05  1.968404E+04 -2.277699E+04 -3.629904E+03
       181  22 -2.698394E+05  1.051758E+03 -6.613350E+03  1.342204E+04 -5.084255E+03 -1.027289E+04
       181  23 -2.665998E+05  2.444039E+03 -1.066956E+04  4.718752E+03 -1.082875E+04 -1.090261E+04
       181  24 -2.698455E+05 -1.927087E+04 -2.423524E+04  1.344543E+04 -1.658200E+04 -3.622834E+03
       181  25  2.172668E+04  7.322452E+04  6.260037E+04  1.639619E+04 -7.611915E+03 -1.027622E+04
       181  26  5.054372E+04  8.094999E+04  6.471074E+04  3.085085E+03 -8.993290E+03 -1.089992E+04
       181  27  7.363666E+04  6.633199E+04  6.034491E+04  7.203329E+03 -1.038358E+04 -3.615890E+03
       182   1 -2.321014E+05 -8.517664E+05 -2.283256E+05  1.934748E+05 -9.328919E+03 -6.802662E+04
       182   2 -1.535156E+05 -6.515584E+05 -1.422176E+05  1.581656E+05 -2.794620E+04 -2.895365E+04
       182   3 -1.009159E+05 -4.627198E+05 -8.804908E+04  1.721711E+05 -2.535238E+04  1.015839E+04
       182   4 -3.114101E+04 -4.138698E+04 -3.456386E+04  1.747405E+05 -9.365169E+03 -2.535439E+04
       182   5 -5.463309E+03 -3.834480E+04 -1.550448E+04  1.500963E+05 -2.795311E+04 -1.728866E+04
       182   6 -3.679844E+02 -4.131013E+04 -6.823322E+03  1.747674E+05 -2.533815E+04 -9.197340E+03
       182   7  1.697740E+05  7.695996E+05  1.591586E+05  1.559817E+05 -9.403979E+03  1.737338E+04
       182   8  1.425655E+05  5.752260E+05  1.111888E+05  1.420188E+05 -2.796032E+04 -5.612329E+03
       182   9  1.001696E+05  3.802713E+05  7.439562E+04  1.773655E+05 -2.532408E+04 -2.856592E+04
       182  10 -2.321027E+05 -8.517714E+05 -2.283345E+05  1.934743E+05  4.209049E-11  2.878769E-08
       182  11 -1.535167E+05 -6.515595E+05 -1.422206E+05  1.581650E+05 -4.042973E-10 -2.142167E-10
       182  12 -1.009166E+05 -4.627201E+05 -8.805048E+04  1.721713E+05  3.472237E-09 -3.369285E-08
       182  13 -3.114128E+04 -4.138769E+04 -3.456523E+04  1.747403E+05 -1.607950E-09  2.081996E-09
       182  14 -5.464228E+03 -3.834533E+04 -1.550651E+04  1.500959E+05  2.023713E-09 -1.249741E-09
       182  15 -3.686964E+02 -4.131039E+04 -6.824688E+03  1.747672E+05  2.323543E-09  9.052409E-10
       182  16  1.697739E+05  7.695993E+05  1.591579E+05  1.559819E+05  2.788426E-09 -2.984341E-08
       182  17  1.425647E+05  5.752258E+05  1.111873E+05  1.420187E+05  2.853870E-09  7.643699E-10
       182  18  1.001687E+05  3.802702E+05  7.439288E+04  1.773650E+05  1.925014E-09  3.395444E-08
       182  19 -2.321014E+05 -8.517664E+05 -2.283256E+05  1.934748E+05  9.328919E+03  6.802662E+04
       182  20 -1.535156E+05 -6.515584E+05 -1.422176E+05  1.581656E+05  2.794620E+04  2.895365E+04
       182  21 -1.009159E+05 -4.627198E+05 -8.804908E+04  1.721711E+05  2.535238E+04 -1.015839E+04
       182  22 -3.114101E+04 -4.138698E+04 -3.456386E+04  1.747405E+05  9.365169E+03  2.535439E+04
       182  23 -5.463309E+03 -3.834480E+04 -1.550448E+04  1.500963E+05  2.795311E+04  1.728866E+04
       182  24 -3.679844E+02 -4.131013E+04 -6.823322E+03  1.747674E+05  2.533815E+04  9.197340E+03
       182  25  1.697740E+05  7.695996E+05  1.591586E+05  1.559817E+05  9.403979E+03 -1.737338E+04
       182  26  1.425655E+05  5.752260E+05  1.111888E+05  1.420188E+05  2.796032E+04  5.612329E+03
       182  27  1.001696E+05  3.802713E+05  7.439562E+04  1.773655E+05  2.532408E+04  2.856592E+04
       183   1 -7.059291E+04 -3.293173E+05 -5.955216E+04  1.752176E+05 -1.745306E+04  7.440829E+03
       183   2 -2.269469E+04 -1.350261E+05 -1.559955E+04  1.500092E+05 -6.407228E+03  6.925128E+03
       183   3  2.551695E+04  5.956881E+04  2.879313E+04  1.753420E+05  4.975811E+03  6.408642E+03
       183   4 -1.543013E+03 -3.987801E+04 -3.806772E+03  1.750340E+05 -1.744259E+04 -8.479482E+03
       183   5 -1.681934E+02 -4.004911E+04  2.044446E+03  1.497646E+05 -6.397036E+03 -9.490363E+03
       183   6  1.608406E+03 -3.986585E+04  8.681286E+03  1.750359E+05  4.985606E+03 -1.050188E+04
       183   7  6.750205E+04  2.496425E+05  5.193570E+04  1.748503E+05 -1.743211E+04 -2.440705E+04
       183   8  2.235793E+04  5.493720E+04  1.968908E+04  1.495199E+05 -6.386831E+03 -2.590830E+04
       183   9 -2.230059E+04 -1.392905E+05 -1.143000E+04  1.747298E+05  4.995418E+03 -2.740974E+04
       183  10 -7.059325E+04 -3.293175E+05 -5.955284E+04  1.752177E+05  2.706445E-09  3.202412E-09
       183  11 -2.269475E+04 -1.350262E+05 -1.559972E+04  1.500092E+05 -1.974162E-09  1.821248E-09
       183  12  2.551691E+04  5.956876E+04  2.879301E+04  1.753420E+05  3.236949E-10 -4.616168E-09
       183  13 -1.543359E+03 -3.987817E+04 -3.807478E+03  1.750338E+05 -4.175393E-10  2.495591E-09
       183  14 -1.682615E+02 -4.004922E+04  2.044200E+03  1.497645E+05  2.290855E-10 -1.906015E-09
       183  15  1.608349E+03 -3.986597E+04  8.681032E+03  1.750359E+05 -1.514392E-09  7.602326E-12
       183  16  6.750156E+04  2.496417E+05  5.193401E+04  1.748499E+05 -9.605855E-10 -3.917713E-09
       183  17  2.235771E+04  5.493646E+04  1.968774E+04  1.495198E+05  1.794317E-10 -7.227407E-10
       183  18 -2.230082E+04 -1.392913E+05 -1.143146E+04  1.747299E+05 -1.868269E-09  4.911097E-09
       183  19 -7.059291E+04 -3.293173E+05 -5.955216E+04  1.752176E+05  1.745306E+04 -7.440829E+03
       183  20 -2.269469E+04 -1.350261E+05 -1.559955E+04  1.500092E+05  6.407228E+03 -6.925128E+03
       183  21  2.551695E+04  5.956881E+04  2.879313E+04  1.753420E+05 -4.975811E+03 -6.408642E+03
       183  22 -1.543013E+03 -3.987801E+04 -3.806772E+03  1.750340E+05  1.744259E+04  8.479482E+03
       183  23 -1.681934E+02 -4.004911E+04  2.044446E+03  1.497646E+05  6.397036E+03  9.490363E+03
       183  24  1.608406E+03 -3.986585E+04  8.681286E+03  1.750359E+05 -4.985606E+03  1.050188E+04
       183  25  6.750205E+04  2.496425E+05  5.193570E+04  1.748503E+05  1.743211E+04  2.440705E+04
       183  26  2.235793E+04  5.493720E+04  1.968908E+04  1.495199E+05  6.386831E+03  2.590830E+04
       183  27 -2.230059E+04 -1.392905E+05 -1.143000E+04  1.747298E+05 -4.995418E+03  2.740974E+04
       184   1  5.519273E+04  1.934684E+05  5.801838E+04  1.704904E+05  1.292649E+04  7.468338E+03
       184   2  1.100136E+05  3.811673E+05  1.134277E+05  1.615905E+05  1.799179E+04 -2.957581E+04
       184   3  2.004018E+05  5.827592E+05  2.018656E+05  2.023505E+05  6.507952E+03 -6.664898E+04
       184   4 -1.621951E+02 -3.780552E+04  1.252903E+04  1.748318E+05  1.293856E+04 -1.202924E+04
       184   5  7.525773E+03 -4.266365E+04  2.462746E+04  1.500218E+05  1.798995E+04 -2.482884E+04
       184   6  4.658956E+04 -3.785722E+04  5.293265E+04  1.748689E+05  6.488944E+03 -3.764571E+04
       184   7 -5.552008E+04 -2.690274E+05 -3.296149E+04  1.791716E+05  1.295035E+04 -3.151972E+04
       184   8 -9.497306E+04 -4.663245E+05 -6.418267E+04  1.384611E+05  1.798793E+04 -2.008506E+04
       184   9 -1.072474E+05 -6.581176E+05 -9.602407E+04  1.474149E+05  6.467363E+03 -8.671292E+03
       184  10  5.519254E+04  1.934683E+05  5.801796E+04  1.704904E+05  4.541775E-09  3.147664E-09
       184  11  1.100130E+05  3.811663E+05  1.134255E+05  1.615909E+05  5.563052E-09  2.482441E-09
       184  12  2.004006E+05  5.827544E+05  2.018572E+05  2.023509E+05  1.687342E-09 -2.969746E-09
       184  13 -1.624137E+02 -3.780572E+04  1.252844E+04  1.748320E+05  1.206780E-10  1.910734E-09
       184  14  7.525259E+03 -4.266440E+04  2.462569E+04  1.500221E+05  1.012291E-09 -7.537045E-10
       184  15  4.658913E+04 -3.785875E+04  5.292990E+04  1.748691E+05  8.030635E-10  1.388128E-10
       184  16 -5.552053E+04 -2.690285E+05 -3.296368E+04  1.791719E+05 -1.920226E-09 -3.815397E-09
       184  17 -9.497352E+04 -4.663250E+05 -6.418403E+04  1.384614E+05  1.467733E-09 -5.712351E-10
       184  18 -1.072475E+05 -6.581177E+05 -9.602429E+04  1.474150E+05  1.192712E-09  2.774217E-09
       184  19  5.519273E+04  1.934684E+05  5.801838E+04  1.704904E+05 -1.292649E+04 -7.468338E+03
       184  20  1.100136E+05  3.811673E+05  1.134277E+05  1.615905E+05 -1.799179E+04  2.957581E+04
       184  21  2.004018E+05  5.827592E+05  2.018656E+05  2.023505E+05 -6.507952E+03  6.664898E+04
       184  22 -1.621951E+02 -3.780552E+04  1.252903E+04  1.748318E+05 -1.293856E+04  1.202924E+04
       184  23  7.525773E+03 -4.266365E+04  2.462746E+04  1.500218E+05 -1.798995E+04  2.482884E+04
       184  24  4.658956E+04 -3.785722E+04  5.293265E+04  1.748689E+05 -6.488944E+03  3.764571E+04
       184  25 -5.552008E+04 -2.690274E+05 -3.296149E+04  1.791716E+05 -1.295035E+04  3.151972E+04
       184  26 -9.497306E+04 -4.663245E+05 -6.418267E+04  1.384611E+05 -1.798793E+04  2.008506E+04
       184  27 -1.072474E+05 -6.581176E+05 -9.602407E+04  1.474149E+05 -6.467363E+03  8.671292E+03
       185   1  6.419422E+05  2.310977E+05  1.373460E+05  2.350664E+05  5.738362E+04  1.769987E+04
       185   2  6.222039E+05  1.525694E+05  8.591742E+04  2.304939E+05  3.712211E+04  1.692160E+03
       185   3  6.207276E+05  1.354029E+05  6.682355E+04  2.184258E+05  1.428539E+04 -7.471458E+03
       185   4  4.191197E+05  1.215254E+05  7.304327E+04  1.478074E+05  4.793408E+04  1.413925E+04
       185   5  4.066085E+05  6.336702E+04  3.171858E+04  1.621285E+05  3.368104E+04  3.954135E+02
       185   6  4.111768E+05  6.539147E+04  1.797794E+04  1.689521E+05  1.685159E+04 -6.505023E+03
       185   7  1.963508E+05  1.196924E+04  8.737340E+03  6.058153E+04  3.848840E+04  1.058107E+04
       185   8  1.910601E+05 -2.582871E+04 -2.248362E+04  9.378595E+04  3.024127E+04 -9.007162E+02
       185   9  2.016679E+05 -4.619358E+03 -3.087104E+04  1.194922E+05  1.941686E+04 -5.538854E+03
       185  10  6.419385E+05  2.310965E+05  1.373392E+05  2.350656E+05 -1.748298E-09 -1.826524E-09
       185  11  6.222025E+05  1.525691E+05  8.591483E+04  2.304939E+05  7.627038E-10  4.341905E-09
       185  12  6.207273E+05  1.354028E+05  6.682307E+04  2.184259E+05  3.173213E-10 -1.351404E-09
       185  13  4.191172E+05  1.215246E+05  7.303858E+04  1.478069E+05 -2.323280E-09  1.538196E-09
       185  14  4.066072E+05  6.336672E+04  3.171645E+04  1.621284E+05  6.848659E-10  1.370266E-10
       185  15  4.111765E+05  6.539135E+04  1.797732E+04  1.689522E+05  3.573783E-09  8.149351E-09
       185  16  1.963492E+05  1.196872E+04  8.734347E+03  6.058120E+04  3.071558E-09 -2.607189E-09
       185  17  1.910591E+05 -2.582895E+04 -2.248534E+04  9.378597E+04  5.134372E-10  2.135228E-10
       185  18  2.016675E+05 -4.619492E+03 -3.087181E+04  1.194923E+05  2.703403E-10  2.769039E-09
       185  19  6.419422E+05  2.310977E+05  1.373460E+05  2.350664E+05 -5.738362E+04 -1.769987E+04
       185  20  6.222039E+05  1.525694E+05  8.591742E+04  2.304939E+05 -3.712211E+04 -1.692160E+03
       185  21  6.207276E+05  1.354029E+05  6.682355E+04  2.184258E+05 -1.428539E+04  7.471458E+03
       185  22  4.191197E+05  1.215254E+05  7.304327E+04  1.478074E+05 -4.793408E+04 -1.413925E+04
       185  23  4.066085E+05  6.336702E+04  3.171858E+04  1.621285E+05 -3.368104E+04 -3.954135E+02
       185  24  4.111768E+05  6.539147E+04  1.797794E+04  1.689521E+05 -1.685159E+04  6.505023E+03
       185  25  1.963508E+05  1.196924E+04  8.737340E+03  6.058153E+04 -3.848840E+04 -1.058107E+04
       185  26  1.910601E+05 -2.582871E+04 -2.248362E+04  9.378595E+04 -3.024127E+04  9.007162E+02
       185  27  2.016679E+05 -4.619358E+03 -3.087104E+04  1.194922E+05 -1.941686E+04  5.538854E+03
       186   1  5.960045E+05  1.416653E+05  5.959135E+04  2.183521E+05  1.355874E+04 -6.260057E+03
       186   2  5.798547E+05  1.278844E+05  4.803669E+04  2.101946E+05  9.296758E+03 -7.021171E+03
       186   3  5.596647E+05  1.233216E+05  4.035698E+04  2.079602E+05  4.920587E+03 -7.479392E+03
       186   4  4.088438E+05  7.078936E+04  1.423499E+04  1.656316E+05  1.407238E+04 -6.066857E+03
       186   5  4.106605E+05  6.457679E+04  7.321863E+03  1.632848E+05  1.007717E+04 -6.727354E+03
       186   6  4.083843E+05  6.753016E+04  4.073276E+03  1.668611E+05  5.967640E+03 -7.084973E+03
       186   7  2.217177E+05 -8.377108E+01 -3.112396E+04  1.129257E+05  1.458586E+04 -5.873723E+03
       186   8  2.414951E+05  1.271485E+03 -3.339493E+04  1.163869E+05  1.085735E+04 -6.433625E+03
       186   9  2.571274E+05  1.174051E+04 -3.221187E+04  1.257712E+05  7.014409E+03 -6.690658E+03
       186  10  5.960043E+05  1.416652E+05  5.959093E+04  2.183522E+05  4.385714E-09  2.068515E-09
       186  11  5.798546E+05  1.278843E+05  4.803644E+04  2.101946E+05 -9.131639E-09 -2.493097E-09
       186  12  5.596646E+05  1.233215E+05  4.035683E+04  2.079603E+05 -1.730528E-08 -3.864662E-10
       186  13  4.088436E+05  7.078927E+04  1.423455E+04  1.656317E+05  4.125079E-09 -1.900164E-11
       186  14  4.106604E+05  6.457672E+04  7.321587E+03  1.632849E+05  6.139405E-09  2.306501E-09
       186  15  4.083843E+05  6.753010E+04  4.073115E+03  1.668611E+05  5.651986E-09 -1.217473E-08
       186  16  2.217175E+05 -8.386525E+01 -3.112442E+04  1.129258E+05 -1.698272E-09  1.382165E-09
       186  17  2.414950E+05  1.271409E+03 -3.339523E+04  1.163870E+05  1.258377E-08  7.679662E-09
       186  18  2.571273E+05  1.174044E+04 -3.221205E+04  1.257712E+05  2.108130E-08  1.595808E-08
       186  19  5.960045E+05  1.416653E+05  5.959135E+04  2.183521E+05 -1.355874E+04  6.260057E+03
       186  20  5.798547E+05  1.278844E+05  4.803669E+04  2.101946E+05 -9.296758E+03  7.021171E+03
       186  21  5.596647E+05  1.233216E+05  4.035698E+04  2.079602E+05 -4.920587E+03  7.479392E+03
       186  22  4.088438E+05  7.078936E+04  1.423499E+04  1.656316E+05 -1.407238E+04  6.066857E+03
       186  23  4.106605E+05  6.457679E+04  7.321863E+03  1.632848E+05 -1.007717E+04  6.727354E+03
       186  24  4.083843E+05  6.753016E+04  4.073276E+03  1.668611E+05 -5.967640E+03  7.084973E+03
       186  25  2.217177E+05 -8.377108E+01 -3.112396E+04  1.129257E+05 -1.458586E+04  5.873723E+03
       186  26  2.414951E+05  1.271485E+03 -3.339493E+04  1.163869E+05 -1.085735E+04  6.433625E+03
       186  27  2.571274E+05  1.174051E+04 -3.221187E+04  1.257712E+05 -7.014409E+03  6.690658E+03
       187   1  5.435932E+05  1.182372E+05  3.555884E+04  2.039379E+05  4.184449E+03 -6.984399E+03
       187   2  5.279601E+05  1.082787E+05  2.978035E+04  1.955794E+05  2.914541E+03 -6.214294E+03
       187   3  5.067189E+05  1.043382E+05  2.469539E+04  1.938107E+05  1.640058E+03 -5.432563E+03
       187   4  4.081896E+05  6.782392E+04  3.100824E+03  1.666354E+05  5.138006E+03 -6.625151E+03
       187   5  4.109835E+05  6.473274E+04  1.694741E+03  1.633722E+05  3.878500E+03 -5.851037E+03
       187   6  4.081673E+05  6.765764E+04  9.741786E+02  1.666987E+05  2.614393E+03 -5.065306E+03
       187   7  2.728035E+05  1.741167E+04 -2.935872E+04  1.293401E+05  6.091342E+03 -6.265986E+03
       187   8  2.940202E+05  2.118758E+04 -2.639195E+04  1.311703E+05  4.842264E+03 -5.487854E+03
       187   9  3.096254E+05  3.097773E+04 -2.274774E+04  1.395905E+05  3.588560E+03 -4.698112E+03
       187  10  5.435932E+05  1.182371E+05  3.555872E+04  2.039379E+05  1.085198E-08  1.001187E-08
       187  11  5.279600E+05  1.082787E+05  2.978026E+04  1.955795E+05  1.081328E-08  4.163684E-09
       187  12  5.067189E+05  1.043382E+05  2.469533E+04  1.938107E+05  3.745751E-09  7.971033E-09
       187  13  4.081896E+05  6.782386E+04  3.100692E+03  1.666354E+05  7.042633E-09 -1.294889E-08
       187  14  4.109835E+05  6.473270E+04  1.694648E+03  1.633722E+05  2.010549E-09 -1.369298E-08
       187  15  4.081673E+05  6.765761E+04  9.741175E+02  1.666987E+05 -1.175101E-09 -1.463819E-09
       187  16  2.728035E+05  1.741162E+04 -2.935886E+04  1.293401E+05 -1.265548E-08  5.682936E-10
       187  17  2.940202E+05  2.118754E+04 -2.639205E+04  1.311703E+05 -9.236230E-09 -9.591017E-10
       187  18  3.096254E+05  3.097770E+04 -2.274781E+04  1.395905E+05 -4.317417E-09  1.157013E-09
       187  19  5.435932E+05  1.182372E+05  3.555884E+04  2.039379E+05 -4.184449E+03  6.984399E+03
       187  20  5.279601E+05  1.082787E+05  2.978035E+04  1.955794E+05 -2.914541E+03  6.214294E+03
       187  21  5.067189E+05  1.043382E+05  2.469539E+04  1.938107E+05 -1.640058E+03  5.432563E+03
       187  22  4.081896E+05  6.782392E+04  3.100824E+03  1.666354E+05 -5.138006E+03  6.625151E+03
       187  23  4.109835E+05  6.473274E+04  1.694741E+03  1.633722E+05 -3.878500E+03  5.851037E+03
       187  24  4.081673E+05  6.765764E+04  9.741786E+02  1.666987E+05 -2.614393E+03  5.065306E+03
       187  25  2.728035E+05  1.741167E+04 -2.935872E+04  1.293401E+05 -6.091342E+03  6.265986E+03
       187  26  2.940202E+05  2.118758E+04 -2.639195E+04  1.311703E+05 -4.842264E+03  5.487854E+03
       187  27  3.096254E+05  3.097773E+04 -2.274774E+04  1.395905E+05 -3.588560E+03  4.698112E+03
       188   1  4.912910E+05  9.861827E+04  2.066314E+04  1.895847E+05  1.258468E+03 -4.839350E+03
       188   2  4.757910E+05  8.889487E+04  1.606477E+04  1.812362E+05  5.882308E+02 -3.830259E+03
       188   3  4.545515E+05  8.496851E+04  1.165874E+04  1.794707E+05 -8.191029E+01 -2.821671E+03
       188   4  4.081472E+05  6.766574E+04  7.633860E+02  1.666761E+05  2.227513E+03 -4.474046E+03
       188   5  4.110173E+05  6.476544E+04  5.104008E+02  1.633854E+05  1.556867E+03 -3.465063E+03
       188   6  4.081476E+05  6.766230E+04  4.501008E+02  1.666778E+05  8.863064E+02 -2.456584E+03
       188   7  3.250106E+05  3.671387E+04 -1.913675E+04  1.437703E+05  3.196413E+03 -4.108797E+03
       188   8  3.462477E+05  4.063630E+04 -1.504427E+04  1.455362E+05  2.525394E+03 -3.099909E+03
       188   9  3.617456E+05  5.035617E+04 -1.075876E+04  1.538856E+05  1.854449E+03 -2.091524E+03
       188  10  4.912910E+05  9.861824E+04  2.066310E+04  1.895847E+05  3.526584E-09  4.647511E-09
       188  11  4.757910E+05  8.889486E+04  1.606474E+04  1.812362E+05  2.385035E-10  4.347762E-09
       188  12  4.545515E+05  8.496850E+04  1.165872E+04  1.794707E+05 -2.986643E-09  9.756572E-10
       188  13  4.081472E+05  6.766572E+04  7.633391E+02  1.666761E+05 -1.825003E-09  2.620063E-09
       188  14  4.110173E+05  6.476542E+04  5.103737E+02  1.633854E+05  1.215726E-09  4.713823E-09
       188  15  4.081476E+05  6.766230E+04  4.500879E+02  1.666778E+05 -5.625956E-09 -7.433449E-09
       188  16  3.250106E+05  3.671385E+04 -1.913680E+04  1.437703E+05 -8.914672E-09  4.923753E-10
       188  17  3.462477E+05  4.063628E+04 -1.504430E+04  1.455362E+05 -4.533797E-09 -1.154472E-10
       188  18  3.617456E+05  5.035616E+04 -1.075877E+04  1.538856E+05 -2.046467E-09  1.934947E-09
       188  19  4.912910E+05  9.861827E+04  2.066314E+04  1.895847E+05 -1.258468E+03  4.839350E+03
       188  20  4.757910E+05  8.889487E+04  1.606477E+04  1.812362E+05 -5.882308E+02  3.830259E+03
       188  21  4.545515E+05  8.496851E+04  1.165874E+04  1.794707E+05  8.191029E+01  2.821671E+03
       188  22  4.081472E+05  6.766574E+04  7.633860E+02  1.666761E+05 -2.227513E+03  4.474046E+03
       188  23  4.110173E+05  6.476544E+04  5.104008E+02  1.633854E+05 -1.556867E+03  3.465063E+03
       188  24  4.081476E+05  6.766230E+04  4.501008E+02  1.666778E+05 -8.863064E+02  2.456584E+03
       188  25  3.250106E+05  3.671387E+04 -1.913675E+04  1.437703E+05 -3.196413E+03  4.108797E+03
       188  26  3.462477E+05  4.063630E+04 -1.504427E+04  1.455362E+05 -2.525394E+03  3.099909E+03
       188  27  3.617456E+05  5.035617E+04 -1.075876E+04  1.538856E+05 -1.854449E+03  2.091524E+03
       189   1  4.392149E+05  7.923300E+04  7.876028E+03  1.752533E+05 -4.008015E+02 -2.208247E+03
       189   2  4.237371E+05  6.952942E+04  3.731029E+03  1.669174E+05 -1.150650E+03 -1.231093E+03
       189   3  4.025414E+05  6.562061E+04 -1.606499E+02  1.651546E+05 -1.900274E+03 -2.545017E+02
       189   4  4.081524E+05  6.766040E+04  4.788148E+02  1.666761E+05  5.667723E+02 -1.843383E+03
       189   5  4.110121E+05  6.476718E+04  6.714659E+02  1.633881E+05 -1.835877E+02 -8.664142E+02
       189   6  4.081537E+05  6.766873E+04  1.117821E+03  1.666730E+05 -9.337322E+02  1.099886E+02
       189   7  3.770909E+05  5.608788E+04 -6.918462E+03  1.580993E+05  1.534293E+03 -1.478539E+03
       189   8  3.982874E+05  6.000496E+04 -2.388096E+03  1.598589E+05  7.834506E+02 -5.017444E+02
       189   9  4.137660E+05  6.971685E+04  2.396285E+03  1.681914E+05  3.281359E+01  4.744804E+02
       189  10  4.392149E+05  7.923300E+04  7.876019E+03  1.752533E+05  3.558379E-09  1.405803E-11
       189  11  4.237371E+05  6.952942E+04  3.731024E+03  1.669174E+05  2.861967E-09  5.730031E-09
       189  12  4.025414E+05  6.562061E+04 -1.606568E+02  1.651546E+05 -1.032105E-09 -3.568632E-10
       189  13  4.081524E+05  6.766040E+04  4.788079E+02  1.666761E+05 -4.014777E-09 -5.644537E-09
       189  14  4.110121E+05  6.476718E+04  6.714644E+02  1.633881E+05 -4.920871E-09 -1.229798E-08
       189  15  4.081537E+05  6.766873E+04  1.117819E+03  1.666730E+05  1.205679E-09  1.752728E-09
       189  16  3.770909E+05  5.608787E+04 -6.918471E+03  1.580993E+05 -8.273819E-09 -6.147078E-09
       189  17  3.982874E+05  6.000496E+04 -2.388097E+03  1.598589E+05 -1.078498E-09 -9.694214E-09
       189  18  4.137660E+05  6.971685E+04  2.396285E+03  1.681914E+05  3.297401E-09 -9.581713E-09
       189  19  4.392149E+05  7.923300E+04  7.876028E+03  1.752533E+05  4.008015E+02  2.208247E+03
       189  20  4.237371E+05  6.952942E+04  3.731029E+03  1.669174E+05  1.150650E+03  1.231093E+03
       189  21  4.025414E+05  6.562061E+04 -1.606499E+02  1.651546E+05  1.900274E+03  2.545017E+02
       189  22  4.081524E+05  6.766040E+04  4.788148E+02  1.666761E+05 -5.667723E+02  1.843383E+03
       189  23  4.110121E+05  6.476718E+04  6.714659E+02  1.633881E+05  1.835877E+02  8.664142E+02
       189  24  4.081537E+05  6.766873E+04  1.117821E+03  1.666730E+05  9.337322E+02 -1.099886E+02
       189  25  3.770909E+05  5.608788E+04 -6.918462E+03  1.580993E+05 -1.534293E+03  1.478539E+03
       189  26  3.982874E+05  6.000496E+04 -2.388096E+03  1.598589E+05 -7.834506E+02  5.017444E+02
       189  27  4.137660E+05  6.971685E+04  2.396285E+03  1.681914E+05 -3.281359E+01 -4.744804E+02
       190   1  3.872114E+05  5.990357E+04 -3.627262E+03  1.610057E+05 -2.358643E+03  3.068874E+02
       190   2  3.716525E+05  5.014210E+04 -6.827999E+03  1.526024E+05 -4.067290E+03  9.204629E+02
       190   3  3.506075E+05  4.648279E+04 -8.983475E+03  1.507444E+05 -5.772553E+03  1.525319E+03
       190   4  4.081929E+05  6.764963E+04  1.461019E+03  1.666999E+05 -1.389159E+03  6.724816E+02
       190   5  4.109536E+05  6.472940E+04  2.601902E+03  1.633775E+05 -3.105558E+03  1.283106E+03
       190   6  4.082296E+05  6.791295E+04  4.794241E+03  1.666002E+05 -4.818612E+03  1.884998E+03
       190   7  4.291751E+05  7.539576E+04  6.549302E+03  1.723943E+05 -4.196338E+02  1.038091E+03
       190   8  4.502563E+05  7.931684E+04  1.203172E+04  1.741531E+05 -2.143758E+03  1.645775E+03
       190   9  4.658550E+05  8.934335E+04  1.857172E+04  1.824574E+05 -3.864574E+03  2.244712E+03
       190  10  3.872113E+05  5.990357E+04 -3.627273E+03  1.610057E+05  1.088733E-10 -3.958844E-09
       190  11  3.716525E+05  5.014210E+04 -6.828032E+03  1.526024E+05  2.439938E-09  6.532546E-09
       190  12  3.506074E+05  4.648277E+04 -8.983542E+03  1.507444E+05  2.406471E-09 -6.221078E-10
       190  13  4.081929E+05  6.764963E+04  1.461015E+03  1.666999E+05 -1.578581E-09 -5.404759E-10
       190  14  4.109536E+05  6.472939E+04  2.601880E+03  1.633775E+05  5.465995E-09 -1.342435E-09
       190  15  4.082295E+05  6.791294E+04  4.794191E+03  1.666002E+05 -2.142185E-09  1.712203E-09
       190  16  4.291751E+05  7.539575E+04  6.549300E+03  1.723943E+05  2.725746E-10 -3.597977E-09
       190  17  4.502563E+05  7.931684E+04  1.203171E+04  1.741531E+05 -1.959032E-09  3.582835E-09
       190  18  4.658549E+05  8.934334E+04  1.857169E+04  1.824574E+05 -1.374624E-09  4.473826E-09
       190  19  3.872114E+05  5.990357E+04 -3.627262E+03  1.610057E+05  2.358643E+03 -3.068874E+02
       190  20  3.716525E+05  5.014210E+04 -6.827999E+03  1.526024E+05  4.067290E+03 -9.204629E+02
       190  21  3.506075E+05  4.648279E+04 -8.983475E+03  1.507444E+05  5.772553E+03 -1.525319E+03
       190  22  4.081929E+05  6.764963E+04  1.461019E+03  1.666999E+05  1.389159E+03 -6.724816E+02
       190  23  4.109536E+05  6.472940E+04  2.601902E+03  1.633775E+05  3.105558E+03 -1.283106E+03
       190  24  4.082296E+05  6.791295E+04  4.794241E+03  1.666002E+05  4.818612E+03 -1.884998E+03
       190  25  4.291751E+05  7.539576E+04  6.549302E+03  1.723943E+05  4.196338E+02 -1.038091E+03
       190  26  4.502563E+05  7.931684E+04  1.203172E+04  1.741531E+05  2.143758E+03 -1.645775E+03
       190  27  4.658550E+05  8.934335E+04  1.857172E+04  1.824574E+05  3.864574E+03 -2.244712E+03
       191   1  3.349345E+05  4.090244E+04 -1.127603E+04  1.475713E+05 -6.975002E+03  1.828990E+03
       191   2  3.194335E+05  3.014322E+04 -1.061296E+04  1.377116E+05 -1.295234E+04  7.827049E+02
       191   3  3.007908E+05  3.031070E+04 -4.414640E+03  1.333288E+05 -1.885126E+04 -4.707467E+02
       191   4  4.085389E+05  6.745185E+04  6.306095E+03  1.669435E+05 -5.957671E+03  2.212548E+03
       191   5  4.104499E+05  6.450099E+04  1.135076E+04  1.632506E+05 -1.211758E+04  1.097339E+03
       191   6  4.092546E+05  7.251221E+04  2.207459E+04  1.650342E+05 -1.819928E+04 -2.251206E+02
       191   7  4.821483E+05  9.400143E+04  2.388773E+04  1.863177E+05 -4.940214E+03  2.596150E+03
       191   8  5.014745E+05  9.885941E+04  3.331388E+04  1.887929E+05 -1.128269E+04  1.412026E+03
       191   9  5.177307E+05  1.147151E+05  4.856309E+04  1.967448E+05 -1.754717E+04  2.055838E+01
       191  10  3.349344E+05  4.090243E+04 -1.127613E+04  1.475713E+05  1.320122E-08  7.815706E-09
       191  11  3.194333E+05  3.014317E+04 -1.061327E+04  1.377116E+05  1.943542E-09  3.200802E-09
       191  12  3.007904E+05  3.031061E+04 -4.415308E+03  1.333288E+05 -8.838294E-09 -8.190428E-09
       191  13  4.085389E+05  6.745184E+04  6.306019E+03  1.669435E+05  9.072024E-10  4.501448E-10
       191  14  4.104498E+05  6.450095E+04  1.135049E+04  1.632506E+05 -3.740677E-10  2.311638E-09
       191  15  4.092543E+05  7.251212E+04  2.207397E+04  1.650342E+05 -3.730547E-09 -1.125221E-09
       191  16  4.821483E+05  9.400141E+04  2.388768E+04  1.863177E+05 -1.135107E-08 -4.950514E-09
       191  17  5.014744E+05  9.885937E+04  3.331363E+04  1.887929E+05  1.146477E-09  4.062095E-10
       191  18  5.177304E+05  1.147150E+05  4.856252E+04  1.967448E+05  8.779436E-09  3.177865E-09
       191  19  3.349345E+05  4.090244E+04 -1.127603E+04  1.475713E+05  6.975002E+03 -1.828990E+03
       191  20  3.194335E+05  3.014322E+04 -1.061296E+04  1.377116E+05  1.295234E+04 -7.827049E+02
       191  21  3.007908E+05  3.031070E+04 -4.414640E+03  1.333288E+05  1.885126E+04  4.707467E+02
       191  22  4.085389E+05  6.745185E+04  6.306095E+03  1.669435E+05  5.957671E+03 -2.212548E+03
       191  23  4.104499E+05  6.450099E+04  1.135076E+04  1.632506E+05  1.211758E+04 -1.097339E+03
       191  24  4.092546E+05  7.251221E+04  2.207459E+04  1.650342E+05  1.819928E+04  2.251206E+02
       191  25  4.821483E+05  9.400143E+04  2.388773E+04  1.863177E+05  4.940214E+03 -2.596150E+03
       191  26  5.014745E+05  9.885941E+04  3.331388E+04  1.887929E+05  1.128269E+04 -1.412026E+03
       191  27  5.177307E+05  1.147151E+05  4.856309E+04  1.967448E+05  1.754717E+04 -2.055838E+01
       192   1  2.785225E+05  2.656104E+04 -2.180284E+03  1.459954E+05 -2.421203E+04 -1.249087E+03
       192   2  2.706884E+05 -8.801257E+02  1.412717E+04  1.106266E+05 -4.650093E+04 -9.638626E+03
       192   3  2.916447E+05  6.108381E+04  6.996764E+04  6.005975E+04 -6.702924E+04 -2.269773E+04
       192   4  4.128386E+05  6.417540E+04  2.788017E+04  1.702198E+05 -2.215952E+04 -4.749808E+02
       192   5  4.042129E+05  6.259351E+04  4.919602E+04  1.614131E+05 -4.854969E+04 -1.041212E+04
       192   6  4.251796E+05  1.512133E+05  1.132871E+05  1.374110E+05 -7.317939E+04 -2.502056E+04
       192   7  5.471730E+05  1.017896E+05  5.793970E+04  1.944482E+05 -2.010652E+04  2.992067E+02
       192   8  5.377546E+05  1.260714E+05  8.426312E+04  2.122103E+05 -5.059890E+04 -1.118590E+04
       192   9  5.587335E+05  2.413578E+05  1.566045E+05  2.147796E+05 -7.933085E+04 -2.734487E+04
       192  10  2.785219E+05  2.656088E+04 -2.181388E+03  1.459954E+05  8.129324E-09 -2.359296E-09
       192  11  2.706860E+05 -8.808055E+02  1.412293E+04  1.106262E+05 -4.661317E-09 -5.903859E-09
       192  12  2.916398E+05  6.108206E+04  6.995823E+04  6.005852E+04 -1.222070E-08 -9.003568E-09
       192  13  4.128380E+05  6.417527E+04  2.787925E+04  1.702198E+05 -7.632191E-09 -7.236654E-09
       192  14  4.042104E+05  6.259276E+04  4.919139E+04  1.614127E+05 -1.626757E-09  2.294084E-09
       192  15  4.251737E+05  1.512112E+05  1.132758E+05  1.374095E+05  1.568758E-09 -5.349165E-09
       192  16  5.471726E+05  1.017895E+05  5.793894E+04  1.944482E+05 -1.104205E-08 -4.451623E-09
       192  17  5.377518E+05  1.260706E+05  8.425808E+04  2.122099E+05  1.513686E-09  3.045254E-09
       192  18  5.587266E+05  2.413553E+05  1.565913E+05  2.147779E+05  9.507689E-09  2.518890E-09
       192  19  2.785225E+05  2.656104E+04 -2.180284E+03  1.459954E+05  2.421203E+04  1.249087E+03
       192  20  2.706884E+05 -8.801257E+02  1.412717E+04  1.106266E+05  4.650093E+04  9.638626E+03
       192  21  2.916447E+05  6.108381E+04  6.996764E+04  6.005975E+04  6.702924E+04  2.269773E+04
       192  22  4.128386E+05  6.417540E+04  2.788017E+04  1.702198E+05  2.215952E+04  4.749808E+02
       192  23  4.042129E+05  6.259351E+04  4.919602E+04  1.614131E+05  4.854969E+04  1.041212E+04
       192  24  4.251796E+05  1.512133E+05  1.132871E+05  1.374110E+05  7.317939E+04  2.502056E+04
       192  25  5.471730E+05  1.017896E+05  5.793970E+04  1.944482E+05  2.010652E+04 -2.992067E+02
       192  26  5.377546E+05  1.260714E+05  8.426312E+04  2.122103E+05  5.059890E+04  1.118590E+04
       192  27  5.587335E+05  2.413578E+05  1.566045E+05  2.147796E+05  7.933085E+04  2.734487E+04
       193   1 -6.541767E+04 -4.372012E+05 -6.731765E+04  6.906827E+04 -1.838783E+03 -1.406859E+04
       193   2 -2.608977E+04 -3.308748E+05 -3.225524E+04  4.135564E+04 -4.080623E+03 -4.878292E+03
       193   3 -5.417461E+02 -2.290614E+05 -6.603602E+03  6.153724E+04  7.187105E+01  4.319628E+03
       193   4 -1.256040E+04 -2.251173E+05 -1.525705E+04  6.334510E+04 -1.842505E+03 -9.640792E+03
       193   5  3.813267E+02 -2.233049E+05 -7.523345E+03  3.940379E+04 -4.079885E+03 -5.664436E+03
       193   6  4.507158E+02 -2.251097E+05 -5.576235E+03  6.335688E+04  7.667505E+01 -1.682080E+03
       193   7  4.029366E+04 -1.299229E+04  3.680033E+04  5.761997E+04 -1.846309E+03 -5.211483E+03
       193   8  2.685163E+04 -1.157242E+05  1.720779E+04  3.745160E+04 -4.079141E+03 -6.450714E+03
       193   9  1.443208E+03 -2.211578E+05 -4.548731E+03  6.517652E+04  8.144384E+01 -7.683827E+03
       193  10 -6.541773E+04 -4.372014E+05 -6.731803E+04  6.906825E+04  4.461274E-09  3.053326E-09
       193  11 -2.608979E+04 -3.308749E+05 -3.225531E+04  4.135563E+04  7.230579E-09  2.966215E-10
       193  12 -5.417511E+02 -2.290614E+05 -6.603637E+03  6.153724E+04  7.588608E-09 -1.458156E-09
       193  13 -1.256043E+04 -2.251174E+05 -1.525723E+04  6.334509E+04 -2.583764E-09 -1.031251E-09
       193  14  3.813002E+02 -2.233049E+05 -7.523437E+03  3.940377E+04 -1.037332E-10  4.927916E-10
       193  15  4.507151E+02 -2.251097E+05 -5.576240E+03  6.335688E+04  4.522917E-09  6.902413E-10
       193  16  4.029365E+04 -1.299232E+04  3.680028E+04  5.761996E+04  6.940997E-10 -5.191535E-09
       193  17  2.685160E+04 -1.157242E+05  1.720768E+04  3.745158E+04 -4.038869E-09  1.000078E-09
       193  18  1.443192E+03 -2.211579E+05 -4.548842E+03  6.517652E+04  8.005256E-10  4.432015E-09
       193  19 -6.541767E+04 -4.372012E+05 -6.731765E+04  6.906827E+04  1.838783E+03  1.406859E+04
       193  20 -2.608977E+04 -3.308748E+05 -3.225524E+04  4.135564E+04  4.080623E+03  4.878292E+03
       193  21 -5.417461E+02 -2.290614E+05 -6.603602E+03  6.153724E+04 -7.187105E+01 -4.319628E+03
       193  22 -1.256040E+04 -2.251173E+05 -1.525705E+04  6.334510E+04  1.842505E+03  9.640792E+03
       193  23  3.813267E+02 -2.233049E+05 -7.523345E+03  3.940379E+04  4.079885E+03  5.664436E+03
       193  24  4.507158E+02 -2.251097E+05 -5.576235E+03  6.335688E+04 -7.667505E+01  1.682080E+03
       193  25  4.029366E+04 -1.299229E+04  3.680033E+04  5.761997E+04  1.846309E+03  5.211483E+03
       193  26  2.685163E+04 -1.157242E+05  1.720779E+04  3.745160E+04  4.079141E+03  6.450714E+03
       193  27  1.443208E+03 -2.211578E+05 -4.548731E+03  6.517652E+04 -8.144384E+01  7.683827E+03
       194   1  2.057839E+04 -1.372727E+05  1.437942E+04  6.393861E+04  4.028540E+03  3.498562E+03
       194   2  4.691002E+04 -3.283630E+04  3.761378E+04  3.913200E+04  9.053065E+03  5.863558E+03
       194   3  7.056924E+04  7.077066E+04  5.866891E+04  6.244228E+04  1.364263E+04  8.229875E+03
       194   4 -8.053140E+02 -2.245082E+05 -5.291929E+03  6.340334E+04  4.032031E+03 -7.800043E+02
       194   5  5.897918E+01 -2.240631E+05 -5.387396E+03  3.934390E+04  9.056789E+03  1.938972E+03
       194   6 -1.810424E+03 -2.245196E+05 -7.907993E+03  6.340240E+04  1.364649E+04  4.658883E+03
       194   7 -2.218953E+04 -3.117366E+05 -2.496370E+04  6.286814E+04  4.035530E+03 -5.057975E+03
       194   8 -4.679456E+04 -4.152559E+05 -4.839084E+04  3.955575E+04  9.060511E+03 -1.984418E+03
       194   9 -7.419606E+04 -5.197287E+05 -7.449042E+04  6.436207E+04  1.365034E+04  1.089573E+03
       194  10  2.057837E+04 -1.372727E+05  1.437937E+04  6.393860E+04  3.992475E-09  9.788864E-10
       194  11  4.690993E+04 -3.283636E+04  3.761356E+04  3.913196E+04  5.924334E-09 -1.092322E-09
       194  12  7.056902E+04  7.077054E+04  5.866843E+04  6.244219E+04  1.934227E-09 -1.791536E-09
       194  13 -8.053316E+02 -2.245082E+05 -5.291961E+03  6.340334E+04  3.595558E-09 -1.112469E-11
       194  14  5.889010E+01 -2.240632E+05 -5.387557E+03  3.934389E+04  5.630164E-09  5.979730E-10
       194  15 -1.810630E+03 -2.245196E+05 -7.908384E+03  6.340235E+04  3.446499E-09 -1.296509E-09
       194  16 -2.218955E+04 -3.117366E+05 -2.496378E+04  6.286816E+04  3.382150E-10 -2.871493E-09
       194  17 -4.679465E+04 -4.152560E+05 -4.839100E+04  3.955576E+04  3.283196E-09  2.707675E-09
       194  18 -7.419626E+04 -5.197287E+05 -7.449078E+04  6.436206E+04  7.782567E-10  3.658944E-09
       194  19  2.057839E+04 -1.372727E+05  1.437942E+04  6.393861E+04 -4.028540E+03 -3.498562E+03
       194  20  4.691002E+04 -3.283630E+04  3.761378E+04  3.913200E+04 -9.053065E+03 -5.863558E+03
       194  21  7.056924E+04  7.077066E+04  5.866891E+04  6.244228E+04 -1.364263E+04 -8.229875E+03
       194  22 -8.053140E+02 -2.245082E+05 -5.291929E+03  6.340334E+04 -4.032031E+03  7.800043E+02
       194  23  5.897918E+01 -2.240631E+05 -5.387396E+03  3.934390E+04 -9.056789E+03 -1.938972E+03
       194  24 -1.810424E+03 -2.245196E+05 -7.907993E+03  6.340240E+04 -1.364649E+04 -4.658883E+03
       194  25 -2.218953E+04 -3.117366E+05 -2.496370E+04  6.286814E+04 -4.035530E+03  5.057975E+03
       194  26 -4.679456E+04 -4.152559E+05 -4.839084E+04  3.955575E+04 -9.060511E+03  1.984418E+03
       194  27 -7.419606E+04 -5.197287E+05 -7.449042E+04  6.436207E+04 -1.365034E+04 -1.089573E+03
       195   1  9.589176E+04  1.605917E+05  7.739531E+04  6.687913E+04  1.852741E+04  1.437320E+04
       195   2  1.209892E+05  2.672892E+05  9.635801E+04  3.507795E+04  2.073284E+04  9.332730E+03
       195   3  1.210104E+05  3.686461E+05  1.123871E+05  5.068112E+04  6.990322E+03  4.269453E+03
       195   4  1.215616E+03 -2.260254E+05 -9.408969E+03  6.325526E+04  1.853665E+04  6.065406E+03
       195   5  8.053169E+02 -2.222337E+05 -1.499992E+04  3.953309E+04  2.072828E+04  1.403859E+04
       195   6 -2.695072E+04 -2.260569E+05 -3.256607E+04  6.321858E+04  6.966228E+03  2.198948E+04
       195   7 -9.347065E+04 -6.125032E+05 -9.622247E+04  5.963369E+04  1.854600E+04 -2.237265E+03
       195   8 -1.193951E+05 -7.115342E+05 -1.263733E+05  4.398474E+04  2.072379E+04  1.874078E+04
       195   9 -1.749372E+05 -8.204364E+05 -1.775437E+05  7.574410E+04  6.942839E+03  3.969258E+04
       195  10  9.589134E+04  1.605914E+05  7.739428E+04  6.687892E+04 -1.212424E-09  1.574130E-09
       195  11  1.209887E+05  2.672890E+05  9.635704E+04  3.507779E+04  1.492549E-09  1.295119E-09
       195  12  1.210104E+05  3.686461E+05  1.123870E+05  5.068109E+04  3.115687E-09  1.709319E-09
       195  13  1.215237E+03 -2.260256E+05 -9.409684E+03  6.325517E+04 -1.133727E-09  1.040729E-09
       195  14  8.048027E+02 -2.222340E+05 -1.500110E+04  3.953285E+04  2.565551E-09  1.466111E-09
       195  15 -2.695090E+04 -2.260574E+05 -3.256707E+04  6.321846E+04  3.551095E-09  1.336308E-09
       195  16 -9.347102E+04 -6.125033E+05 -9.622313E+04  5.963372E+04  2.546082E-09 -5.205896E-09
       195  17 -1.193956E+05 -7.115347E+05 -1.263748E+05  4.398443E+04  5.092759E-09 -1.668912E-09
       195  18 -1.749377E+05 -8.204381E+05 -1.775467E+05  7.574388E+04  3.413929E-09  1.433507E-09
       195  19  9.589176E+04  1.605917E+05  7.739531E+04  6.687913E+04 -1.852741E+04 -1.437320E+04
       195  20  1.209892E+05  2.672892E+05  9.635801E+04  3.507795E+04 -2.073284E+04 -9.332730E+03
       195  21  1.210104E+05  3.686461E+05  1.123871E+05  5.068112E+04 -6.990322E+03 -4.269453E+03
       195  22  1.215616E+03 -2.260254E+05 -9.408969E+03  6.325526E+04 -1.853665E+04 -6.065406E+03
       195  23  8.053169E+02 -2.222337E+05 -1.499992E+04  3.953309E+04 -2.072828E+04 -1.403859E+04
       195  24 -2.695072E+04 -2.260569E+05 -3.256607E+04  6.321858E+04 -6.966228E+03 -2.198948E+04
       195  25 -9.347065E+04 -6.125032E+05 -9.622247E+04  5.963369E+04 -1.854600E+04  2.237265E+03
       195  26 -1.193951E+05 -7.115342E+05 -1.263733E+05  4.398474E+04 -2.072379E+04 -1.874078E+04
       195  27 -1.749372E+05 -8.204364E+05 -1.775437E+05  7.574410E+04 -6.942839E+03 -3.969258E+04
       196   1  1.752700E+05  1.128931E+05  1.022127E+05  2.676787E+04  2.001072E+04 -8.157879E+03
       196   2  1.301875E+05  1.211133E+05  8.698373E+04  3.286816E+04  5.165120E+03 -2.729603E+04
       196   3  8.349994E+04  1.151151E+05  7.787684E+04  4.827294E+04 -9.687927E+03 -3.255864E+04
       196   4 -4.097842E+05 -3.153706E+04 -3.499395E+04  4.619769E+04 -2.439907E+04 -8.192361E+03
       196   5 -4.069146E+05 -7.104468E+03 -1.702071E+04  4.153137E+04 -1.559696E+04 -2.731600E+04
       196   6 -4.097625E+05 -1.003777E+03 -9.351872E+03  4.617016E+04 -6.803627E+03 -3.255809E+04
       196   7 -9.945181E+05 -1.759891E+05 -1.722164E+05  6.560903E+04 -6.876727E+04 -8.229641E+03
       196   8 -9.437384E+05 -1.353389E+05 -1.210370E+05  5.018685E+04 -3.634148E+04 -2.733657E+04
       196   9 -9.027871E+05 -1.171360E+05 -9.658953E+04  4.406902E+04 -3.921550E+03 -3.255756E+04
       196  10  1.752695E+05  1.128930E+05  1.022118E+05  2.676800E+04  8.202554E-10 -5.779798E-10
       196  11  1.301873E+05  1.211125E+05  8.698228E+04  3.286827E+04 -9.789776E-09 -2.199834E-09
       196  12  8.349956E+04  1.151140E+05  7.787467E+04  4.827269E+04 -2.525447E-08 -1.752772E-09
       196  13 -4.097849E+05 -3.153729E+04 -3.499520E+04  4.619753E+04 -2.307033E-09 -7.489060E-10
       196  14 -4.069151E+05 -7.105334E+03 -1.702257E+04  4.153102E+04  3.875858E-09 -6.134645E-09
       196  15 -4.097629E+05 -1.004928E+03 -9.353950E+03  4.616998E+04  2.414604E-09 -8.665015E-09
       196  16 -9.945232E+05 -1.759905E+05 -1.722254E+05  6.560858E+04 -4.772287E-10  2.263585E-10
       196  17 -9.437400E+05 -1.353401E+05 -1.210409E+05  5.018604E+04  1.849756E-08 -2.804444E-09
       196  18 -9.027874E+05 -1.171372E+05 -9.659155E+04  4.406892E+04  2.924444E-08 -2.464789E-09
       196  19  1.752700E+05  1.128931E+05  1.022127E+05  2.676787E+04 -2.001072E+04  8.157879E+03
       196  20  1.301875E+05  1.211133E+05  8.698373E+04  3.286816E+04 -5.165120E+03  2.729603E+04
       196  21  8.349994E+04  1.151151E+05  7.787684E+04  4.827294E+04  9.687927E+03  3.255864E+04
       196  22 -4.097842E+05 -3.153706E+04 -3.499395E+04  4.619769E+04  2.439907E+04  8.192361E+03
       196  23 -4.069146E+05 -7.104468E+03 -1.702071E+04  4.153137E+04  1.559696E+04  2.731600E+04
       196  24 -4.097625E+05 -1.003777E+03 -9.351872E+03  4.617016E+04  6.803627E+03  3.255809E+04
       196  25 -9.945181E+05 -1.759891E+05 -1.722164E+05  6.560903E+04  6.876727E+04  8.229641E+03
       196  26 -9.437384E+05 -1.353389E+05 -1.210370E+05  5.018685E+04  3.634148E+04  2.733657E+04
       196  27 -9.027871E+05 -1.171360E+05 -9.658953E+04  4.406902E+04  3.921550E+03  3.255756E+04
       197   1  5.417849E+04  1.073664E+05  7.389320E+04  4.613870E+04 -6.980971E+03 -3.129257E+04
       197   2  8.391143E+03  9.741068E+04  6.718677E+04  4.142522E+04 -7.173748E+03 -2.984722E+04
       197   3 -3.752466E+04  8.686601E+04  6.045738E+04  4.693963E+04 -7.368561E+03 -2.714156E+04
       197   4 -4.085987E+05 -1.406739E+03 -7.115573E+03  4.637877E+04 -5.588361E+03 -3.129323E+04
       197   5 -4.083406E+05 -1.737229E+02 -3.915703E+03  4.126375E+04 -3.634600E+03 -2.984516E+04
       197   6 -4.085854E+05  9.748343E+01 -2.230128E+03  4.637706E+04 -1.682851E+03 -2.713635E+04
       197   7 -8.711662E+05 -1.101915E+05 -8.813201E+04  4.661860E+04 -4.196757E+03 -3.129388E+04
       197   8 -8.249015E+05 -9.776736E+04 -7.502387E+04  4.110234E+04 -9.775083E+01 -2.984310E+04
       197   9 -7.795105E+05 -8.667829E+04 -6.492192E+04  4.581479E+04  3.999570E+03 -2.713116E+04
       197  10  5.417817E+04  1.073653E+05  7.389127E+04  4.613852E+04 -9.317705E-10 -2.443709E-09
       197  11  8.390848E+03  9.740971E+04  6.718500E+04  4.142505E+04  1.623544E-08 -7.633318E-10
       197  12 -3.752492E+04  8.686521E+04  6.045589E+04  4.693947E+04  3.192054E-08  9.874622E-10
       197  13 -4.085990E+05 -1.407798E+03 -7.117471E+03  4.637863E+04  2.097869E-09 -1.022680E-08
       197  14 -4.083409E+05 -1.746827E+02 -3.917401E+03  4.126367E+04 -2.719471E-09 -5.606091E-09
       197  15 -4.085856E+05  9.669208E+01 -2.231517E+03  4.637702E+04 -2.602590E-09 -2.646386E-09
       197  16 -8.711665E+05 -1.101926E+05 -8.813388E+04  4.661849E+04  2.542497E-09  3.035758E-11
       197  17 -8.249017E+05 -9.776831E+04 -7.502554E+04  4.110234E+04 -1.504680E-08  6.990703E-10
       197  18 -7.795107E+05 -8.667908E+04 -6.492334E+04  4.581488E+04 -3.058931E-08  2.726694E-10
       197  19  5.417849E+04  1.073664E+05  7.389320E+04  4.613870E+04  6.980971E+03  3.129257E+04
       197  20  8.391143E+03  9.741068E+04  6.718677E+04  4.142522E+04  7.173748E+03  2.984722E+04
       197  21 -3.752466E+04  8.686601E+04  6.045738E+04  4.693963E+04  7.368561E+03  2.714156E+04
       197  22 -4.085987E+05 -1.406739E+03 -7.115573E+03  4.637877E+04  5.588361E+03  3.129323E+04
       197  23 -4.083406E+05 -1.737229E+02 -3.915703E+03  4.126375E+04  3.634600E+03  2.984516E+04
       197  24 -4.085854E+05  9.748343E+01 -2.230128E+03  4.637706E+04  1.682851E+03  2.713635E+04
       197  25 -8.711662E+05 -1.101915E+05 -8.813201E+04  4.661860E+04  4.196757E+03  3.129388E+04
       197  26 -8.249015E+05 -9.776736E+04 -7.502387E+04  4.110234E+04  9.775083E+01  2.984310E+04
       197  27 -7.795105E+05 -8.667829E+04 -6.492192E+04  4.581479E+04 -3.999570E+03  2.713116E+04
       198   1 -6.732776E+04  7.980001E+04  5.570043E+04  4.679353E+04 -6.894871E+03 -2.517357E+04
       198   2 -1.132087E+05  6.909384E+04  4.862109E+04  4.158089E+04 -6.614713E+03 -2.185702E+04
       198   3 -1.591434E+05  5.839650E+04  4.135565E+04  4.669168E+04 -6.335432E+03 -1.842486E+04
       198   4 -4.084896E+05  7.033011E+01 -1.694840E+03  4.639851E+04 -1.342335E+03 -2.516810E+04
       198   5 -4.084400E+05  1.119214E+02 -9.698240E+02  4.123661E+04 -8.656351E+02 -2.185071E+04
       198   6 -4.084804E+05  1.282599E+02 -5.676507E+02  4.639843E+04 -3.897924E+02 -1.841770E+04
       198   7 -7.495365E+05 -7.966545E+04 -5.909367E+04  4.600367E+04  4.207250E+03 -2.516264E+04
       198   8 -7.035852E+05 -6.887455E+04 -5.056335E+04  4.089247E+04  4.880798E+03 -2.184442E+04
       198   9 -6.577560E+05 -5.814322E+04 -4.249278E+04  4.610529E+04  5.553537E+03 -1.841053E+04
       198  10 -6.732798E+04  7.979932E+04  5.569915E+04  4.679339E+04 -1.716719E-09  3.052175E-09
       198  11 -1.132089E+05  6.909331E+04  4.862012E+04  4.158077E+04  1.329262E-09  2.441280E-09
       198  12 -1.591436E+05  5.839612E+04  4.135494E+04  4.669158E+04  5.981810E-09 -1.678001E-10
       198  13 -4.084897E+05  6.964957E+01 -1.696033E+03  4.639848E+04  2.694211E-10 -1.325224E-09
       198  14 -4.084401E+05  1.114086E+02 -9.707224E+02  4.123660E+04 -1.719552E-09  3.708281E-09
       198  15 -4.084805E+05  1.278956E+02 -5.682883E+02  4.639843E+04 -1.480193E-09  3.932825E-09
       198  16 -7.495367E+05 -7.966614E+04 -5.909489E+04  4.600376E+04 -1.396876E-09  1.475330E-09
       198  17 -7.035853E+05 -6.887507E+04 -5.056430E+04  4.089256E+04 -2.005542E-09  4.764770E-09
       198  18 -6.577562E+05 -5.814359E+04 -4.249347E+04  4.610537E+04 -8.836944E-09  3.688841E-09
       198  19 -6.732776E+04  7.980001E+04  5.570043E+04  4.679353E+04  6.894871E+03  2.517357E+04
       198  20 -1.132087E+05  6.909384E+04  4.862109E+04  4.158089E+04  6.614713E+03  2.185702E+04
       198  21 -1.591434E+05  5.839650E+04  4.135565E+04  4.669168E+04  6.335432E+03  1.842486E+04
       198  22 -4.084896E+05  7.033011E+01 -1.694840E+03  4.639851E+04  1.342335E+03  2.516810E+04
       198  23 -4.084400E+05  1.119214E+02 -9.698240E+02  4.123661E+04  8.656351E+02  2.185071E+04
       198  24 -4.084804E+05  1.282599E+02 -5.676507E+02  4.639843E+04  3.897924E+02  1.841770E+04
       198  25 -7.495365E+05 -7.966545E+04 -5.909367E+04  4.600367E+04 -4.207250E+03  2.516264E+04
       198  26 -7.035852E+05 -6.887455E+04 -5.056335E+04  4.089247E+04 -4.880798E+03  2.184442E+04
       198  27 -6.577560E+05 -5.814322E+04 -4.249278E+04  4.610529E+04 -5.553537E+03  1.841053E+04
       199   1 -1.890051E+05  5.137694E+04  3.626856E+04  4.665498E+04 -6.236184E+03 -1.639111E+04
       199   2 -2.349365E+05  4.065009E+04  2.880858E+04  4.142822E+04 -6.120001E+03 -1.290193E+04
       199   3 -2.809037E+05  2.995156E+04  2.127157E+04  4.654184E+04 -6.004275E+03 -9.402050E+03
       199   4 -4.084670E+05  1.276781E+02 -4.407848E+02  4.640219E+04 -3.011852E+02 -1.638367E+04
       199   5 -4.084435E+05  1.181159E+02 -2.801926E+02  4.123192E+04 -1.670686E+02 -1.289410E+04
       199   6 -4.084616E+05  1.336353E+02 -2.094093E+02  4.640219E+04 -3.340188E+01 -9.393828E+03
       199   7 -6.278812E+05 -5.112408E+04 -3.715149E+04  4.614948E+04  5.631785E+03 -1.637623E+04
       199   8 -5.819206E+05 -4.041542E+04 -2.936978E+04  4.103566E+04  5.784254E+03 -1.288627E+04
       199   9 -5.360035E+05 -2.968512E+04 -2.169077E+04  4.626256E+04  5.936284E+03 -9.385608E+03
       199  10 -1.890052E+05  5.137664E+04  3.626798E+04  4.665489E+04  3.080573E-08  5.531539E-10
       199  11 -2.349366E+05  4.064990E+04  2.880820E+04  4.142815E+04  1.891631E-10  6.080178E-09
       199  12 -2.809037E+05  2.995145E+04  2.127134E+04  4.654179E+04 -2.932122E-08  5.101974E-09
       199  13 -4.084670E+05  1.273899E+02 -4.412893E+02  4.640219E+04 -2.157147E-09  2.155902E-09
       199  14 -4.084435E+05  1.179374E+02 -2.805050E+02  4.123191E+04 -9.837587E-10  5.353863E-09
       199  15 -4.084617E+05  1.335406E+02 -2.095751E+02  4.640219E+04  4.134435E-10  1.555988E-09
       199  16 -6.278813E+05 -5.112438E+04 -3.715205E+04  4.614955E+04 -3.280528E-08  3.142404E-09
       199  17 -5.819207E+05 -4.041561E+04 -2.937015E+04  4.103572E+04  2.184241E-09  1.253657E-09
       199  18 -5.360036E+05 -2.968523E+04 -2.169101E+04  4.626260E+04  2.854859E-08 -3.578139E-10
       199  19 -1.890051E+05  5.137694E+04  3.626856E+04  4.665498E+04  6.236184E+03  1.639111E+04
       199  20 -2.349365E+05  4.065009E+04  2.880858E+04  4.142822E+04  6.120001E+03  1.290193E+04
       199  21 -2.809037E+05  2.995156E+04  2.127157E+04  4.654184E+04  6.004275E+03  9.402050E+03
       199  22 -4.084670E+05  1.276781E+02 -4.407848E+02  4.640219E+04  3.011852E+02  1.638367E+04
       199  23 -4.084435E+05  1.181159E+02 -2.801926E+02  4.123192E+04  1.670686E+02  1.289410E+04
       199  24 -4.084616E+05  1.336353E+02 -2.094093E+02  4.640219E+04  3.340188E+01  9.393828E+03
       199  25 -6.278812E+05 -5.112408E+04 -3.715149E+04  4.614948E+04 -5.631785E+03  1.637623E+04
       199  26 -5.819206E+05 -4.041542E+04 -2.936978E+04  4.103566E+04 -5.784254E+03  1.288627E+04
       199  27 -5.360035E+05 -2.968512E+04 -2.169077E+04  4.626256E+04 -5.936284E+03  9.385608E+03
       200   1 -3.107923E+05  2.293089E+04  1.607030E+04  4.650825E+04 -5.970147E+03 -7.361270E+03
       200   2 -3.567387E+05  1.220194E+04  8.432948E+03  4.127496E+04 -5.853747E+03 -3.858170E+03
       200   3 -4.027275E+05  1.497415E+03  7.158004E+02  4.638850E+04 -5.737476E+03 -3.603455E+02
       200   4 -4.084605E+05  1.351432E+02 -1.997626E+02  4.640359E+04  9.924403E-01 -7.352907E+03
       200   5 -4.084386E+05  1.254922E+02 -2.267886E+02  4.123015E+04  1.082322E+02 -3.849713E+03
       200   6 -4.084589E+05  1.421011E+02 -3.271304E+02  4.640359E+04  2.153509E+02 -3.517915E+02
       200   7 -5.061191E+05 -2.266108E+04 -1.646998E+04  4.629895E+04  5.971223E+03 -7.344546E+03
       200   8 -4.601357E+05 -1.195108E+04 -8.886475E+03  4.118534E+04  6.069731E+03 -3.841256E+03
       200   9 -4.141901E+05 -1.213196E+03 -1.369929E+03  4.641867E+04  6.168124E+03 -3.432372E+02
       200  10 -3.107924E+05  2.293082E+04  1.607013E+04  4.650822E+04  7.767232E-09  8.346052E-10
       200  11 -3.567388E+05  1.220192E+04  8.432856E+03  4.127494E+04 -1.313513E-09 -2.252014E-09
       200  12 -4.027276E+05  1.497406E+03  7.157383E+02  4.638850E+04 -3.610674E-09 -6.893320E-10
       200  13 -4.084605E+05  1.350852E+02 -1.998642E+02  4.640359E+04 -2.972132E-10  3.079570E-09
       200  14 -4.084386E+05  1.254763E+02 -2.268164E+02  4.123015E+04 -3.025515E-09 -1.082777E-09
       200  15 -4.084589E+05  1.421010E+02 -3.271308E+02  4.640359E+04 -9.386766E-10 -1.789771E-09
       200  16 -5.061191E+05 -2.266114E+04 -1.647015E+04  4.629898E+04 -7.354321E-09 -1.643456E-10
       200  17 -4.601357E+05 -1.195111E+04 -8.886572E+03  4.118536E+04 -1.442405E-09 -4.016786E-09
       200  18 -4.141902E+05 -1.213206E+03 -1.370001E+03  4.641867E+04  4.553018E-09 -2.603400E-09
       200  19 -3.107923E+05  2.293089E+04  1.607030E+04  4.650825E+04  5.970147E+03  7.361270E+03
       200  20 -3.567387E+05  1.220194E+04  8.432948E+03  4.127496E+04  5.853747E+03  3.858170E+03
       200  21 -4.027275E+05  1.497415E+03  7.158004E+02  4.638850E+04  5.737476E+03  3.603455E+02
       200  22 -4.084605E+05  1.351432E+02 -1.997626E+02  4.640359E+04 -9.924403E-01  7.352907E+03
       200  23 -4.084386E+05  1.254922E+02 -2.267886E+02  4.123015E+04 -1.082322E+02  3.849713E+03
       200  24 -4.084589E+05  1.421011E+02 -3.271304E+02  4.640359E+04 -2.153509E+02  3.517915E+02
       200  25 -5.061191E+05 -2.266108E+04 -1.646998E+04  4.629895E+04 -5.971223E+03  7.344546E+03
       200  26 -4.601357E+05 -1.195108E+04 -8.886475E+03  4.118534E+04 -6.069731E+03  3.841256E+03
       200  27 -4.141901E+05 -1.213196E+03 -1.369929E+03  4.641867E+04 -6.168124E+03  3.432372E+02
       201   1 -4.326309E+05 -5.524942E+03 -4.585726E+03  4.634430E+04 -5.680924E+03  1.677976E+03
       201   2 -4.785441E+05 -1.626194E+04 -1.251405E+04  4.111083E+04 -5.222417E+03  5.142527E+03
       201   3 -5.245568E+05 -2.702879E+04 -2.075842E+04  4.621916E+04 -4.763676E+03  8.535437E+03
       201   4 -4.084675E+05  1.448561E+02 -4.125497E+02  4.640243E+04  2.792697E+02  1.686529E+03
       201   5 -4.084284E+05  1.335394E+02 -6.894054E+02  4.123159E+04  6.155998E+02  5.150759E+03
       201   6 -4.084697E+05  1.136791E+02 -1.197467E+03  4.640248E+04  9.521965E+02  8.543354E+03
       201   7 -3.843034E+05  5.814642E+03  3.760741E+03  4.646056E+04  6.239689E+03  1.695083E+03
       201   8 -3.383078E+05  1.652878E+04  1.113521E+04  4.135236E+04  6.454255E+03  5.158993E+03
       201   9 -2.923693E+05  2.725546E+04  1.836318E+04  4.658582E+04  6.669104E+03  8.551273E+03
       201  10 -4.326309E+05 -5.524954E+03 -4.585792E+03  4.634431E+04  3.581684E-09  1.993362E-09
       201  11 -4.785441E+05 -1.626198E+04 -1.251415E+04  4.111085E+04  9.222284E-10 -6.460904E-11
       201  12 -5.245568E+05 -2.702888E+04 -2.075860E+04  4.621919E+04 -2.626528E-09  1.819926E-09
       201  13 -4.084675E+05  1.448530E+02 -4.125552E+02  4.640243E+04  2.162509E-09 -6.581983E-10
       201  14 -4.084284E+05  1.335108E+02 -6.894560E+02  4.123159E+04  3.578433E-09 -7.594058E-10
       201  15 -4.084697E+05  1.136005E+02 -1.197606E+03  4.640247E+04 -1.957208E-10  1.519574E-09
       201  16 -3.843035E+05  5.814629E+03  3.760662E+03  4.646055E+04 -1.662037E-09  4.414896E-10
       201  17 -3.383079E+05  1.652874E+04  1.113508E+04  4.135234E+04  3.748355E-11 -4.163421E-09
       201  18 -2.923693E+05  2.725537E+04  1.836296E+04  4.658578E+04  1.616318E-09  5.172091E-10
       201  19 -4.326309E+05 -5.524942E+03 -4.585726E+03  4.634430E+04  5.680924E+03 -1.677976E+03
       201  20 -4.785441E+05 -1.626194E+04 -1.251405E+04  4.111083E+04  5.222417E+03 -5.142527E+03
       201  21 -5.245568E+05 -2.702879E+04 -2.075842E+04  4.621916E+04  4.763676E+03 -8.535437E+03
       201  22 -4.084675E+05  1.448561E+02 -4.125497E+02  4.640243E+04 -2.792697E+02 -1.686529E+03
       201  23 -4.084284E+05  1.335394E+02 -6.894054E+02  4.123159E+04 -6.155998E+02 -5.150759E+03
       201  24 -4.084697E+05  1.136791E+02 -1.197467E+03  4.640248E+04 -9.521965E+02 -8.543354E+03
       201  25 -3.843034E+05  5.814642E+03  3.760741E+03  4.646056E+04 -6.239689E+03 -1.695083E+03
       201  26 -3.383078E+05  1.652878E+04  1.113521E+04  4.135236E+04 -6.454255E+03 -5.158993E+03
       201  27 -2.923693E+05  2.725546E+04  1.836318E+04  4.658582E+04 -6.669104E+03 -8.551273E+03
       202   1 -5.545421E+05 -3.404913E+04 -2.640241E+04  4.607012E+04 -4.608299E+03  1.053376E+04
       202   2 -6.001798E+05 -4.503566E+04 -3.570932E+04  4.117817E+04 -1.894021E+03  1.354927E+04
       202   3 -6.464233E+05 -5.692367E+04 -4.701812E+04  4.657231E+04  8.214121E+02  1.577668E+04
       202   4 -4.085368E+05  1.346678E+02 -1.573702E+03  4.638985E+04  1.191233E+03  1.054163E+04
       202   5 -4.083523E+05 -5.779929E+01 -2.758558E+03  4.124762E+04  2.563821E+03  1.355494E+04
       202   6 -4.085431E+05 -9.185585E+02 -5.012891E+03  4.639130E+04  3.937776E+03  1.578028E+04
       202   7 -2.625104E+05  3.431735E+04  2.325443E+04  4.670966E+04  6.992087E+03  1.054951E+04
       202   8 -2.164886E+05  4.491811E+04  3.019104E+04  4.131708E+04  7.022998E+03  1.356062E+04
       202   9 -1.706074E+05  5.508345E+04  3.699029E+04  4.621019E+04  7.055300E+03  1.578388E+04
       202  10 -5.545421E+05 -3.404926E+04 -2.640265E+04  4.607016E+04  2.805452E-08  5.154319E-09
       202  11 -6.001798E+05 -4.503586E+04 -3.570967E+04  4.117819E+04 -5.560599E-10  1.945911E-09
       202  12 -6.464234E+05 -5.692393E+04 -4.701859E+04  4.657230E+04 -2.968534E-08  3.683106E-09
       202  13 -4.085368E+05  1.345481E+02 -1.573914E+03  4.638984E+04 -2.154422E-09  2.913021E-09
       202  14 -4.083523E+05 -5.799832E+01 -2.758915E+03  4.124759E+04 -4.980214E-09  2.775473E-09
       202  15 -4.085432E+05 -9.188300E+02 -5.013388E+03  4.639125E+04  4.683945E-09  1.667658E-09
       202  16 -2.625105E+05  3.431722E+04  2.325413E+04  4.670960E+04 -2.917859E-08  1.680087E-09
       202  17 -2.164887E+05  4.491790E+04  3.019060E+04  4.131700E+04  4.070954E-09  2.306673E-09
       202  18 -1.706076E+05  5.508317E+04  3.698973E+04  4.621010E+04  2.774109E-08 -6.159285E-10
       202  19 -5.545421E+05 -3.404913E+04 -2.640241E+04  4.607012E+04  4.608299E+03 -1.053376E+04
       202  20 -6.001798E+05 -4.503566E+04 -3.570932E+04  4.117817E+04  1.894021E+03 -1.354927E+04
       202  21 -6.464233E+05 -5.692367E+04 -4.701812E+04  4.657231E+04 -8.214121E+02 -1.577668E+04
       202  22 -4.085368E+05  1.346678E+02 -1.573702E+03  4.638985E+04 -1.191233E+03 -1.054163E+04
       202  23 -4.083523E+05 -5.779929E+01 -2.758558E+03  4.124762E+04 -2.563821E+03 -1.355494E+04
       202  24 -4.085431E+05 -9.185585E+02 -5.012891E+03  4.639130E+04 -3.937776E+03 -1.578028E+04
       202  25 -2.625104E+05  3.431735E+04  2.325443E+04  4.670966E+04 -6.992087E+03 -1.054951E+04
       202  26 -2.164886E+05  4.491811E+04  3.019104E+04  4.131708E+04 -7.022998E+03 -1.356062E+04
       202  27 -1.706074E+05  5.508345E+04  3.699029E+04  4.621019E+04 -7.055300E+03 -1.578388E+04
       203   1 -6.775298E+05 -6.387553E+04 -5.444326E+04  4.477019E+04  7.439802E+02  1.733496E+04
       203   2 -7.201961E+05 -7.977147E+04 -7.319681E+04  4.747456E+04  2.171320E+04  1.539808E+04
       203   3 -7.694847E+05 -1.111522E+05 -1.094857E+05  5.989404E+04  4.269020E+04  4.779189E+03
       203   4 -4.093629E+05 -6.332958E+02 -6.588204E+03  4.626097E+04  4.792638E+03  1.733957E+04
       203   5 -4.073432E+05 -4.936824E+03 -1.198868E+04  4.141661E+04  1.098356E+04  1.538392E+04
       203   6 -4.093765E+05 -2.215334E+04 -2.465186E+04  4.628770E+04  1.718392E+04  4.747748E+03
       203   7 -1.411257E+05  6.260497E+04  4.126419E+04  4.775239E+04  8.842995E+03  1.734420E+04
       203   8 -9.439609E+04  6.989213E+04  4.921521E+04  3.535551E+04  2.486231E+02  1.536997E+04
       203   9 -4.914710E+04  6.683731E+04  6.017560E+04  3.267338E+04 -8.337095E+03  4.717436E+03
       203  10 -6.775299E+05 -6.387586E+04 -5.444382E+04  4.477018E+04 -1.615720E-09  2.969785E-09
       203  11 -7.201967E+05 -7.977185E+04 -7.319814E+04  4.747429E+04 -2.243262E-09  1.370228E-10
       203  12 -7.694866E+05 -1.111527E+05 -1.094892E+05  5.989387E+04  7.624332E-10  3.783752E-11
       203  13 -4.093630E+05 -6.336247E+02 -6.588812E+03  4.626090E+04  1.850639E-09  4.116094E-09
       203  14 -4.073434E+05 -4.937111E+03 -1.198935E+04  4.141648E+04 -3.353872E-10 -2.338197E-09
       203  15 -4.093768E+05 -2.215344E+04 -2.465245E+04  4.628764E+04  2.108196E-09  2.444139E-09
       203  16 -1.411259E+05  6.260463E+04  4.126347E+04  4.775227E+04  3.605837E-09  2.957415E-09
       203  17 -9.439616E+04  6.989187E+04  4.921477E+04  3.535551E+04  1.671861E-09  2.889405E-09
       203  18 -4.914718E+04  6.683727E+04  6.017543E+04  3.267342E+04 -2.003353E-09  3.820524E-10
       203  19 -6.775298E+05 -6.387553E+04 -5.444326E+04  4.477019E+04 -7.439802E+02 -1.733496E+04
       203  20 -7.201961E+05 -7.977147E+04 -7.319681E+04  4.747456E+04 -2.171320E+04 -1.539808E+04
       203  21 -7.694847E+05 -1.111522E+05 -1.094857E+05  5.989404E+04 -4.269020E+04 -4.779189E+03
       203  22 -4.093629E+05 -6.332958E+02 -6.588204E+03  4.626097E+04 -4.792638E+03 -1.733957E+04
       203  23 -4.073432E+05 -4.936824E+03 -1.198868E+04  4.141661E+04 -1.098356E+04 -1.538392E+04
       203  24 -4.093765E+05 -2.215334E+04 -2.465186E+04  4.628770E+04 -1.718392E+04 -4.747748E+03
       203  25 -1.411257E+05  6.260497E+04  4.126419E+04  4.775239E+04 -8.842995E+03 -1.734420E+04
       203  26 -9.439609E+04  6.989213E+04  4.921521E+04  3.535551E+04 -2.486231E+02 -1.536997E+04
       203  27 -4.914710E+04  6.683731E+04  6.017560E+04  3.267338E+04  8.337095E+03 -4.717436E+03
       204   1 -6.727098E+04  7.064808E+04  6.115660E+04  4.282649E+03 -1.160362E+04 -5.636103E+03
       204   2 -9.590140E+04  9.486631E+04  6.766444E+04  8.678921E+03 -1.201570E+04 -1.783132E+04
       204   3 -1.320474E+05  8.874947E+04  6.687008E+04  2.563244E+04 -1.244038E+04 -1.897995E+04
       204   4 -4.894231E+05 -3.418959E+04 -4.097686E+04  2.042288E+04 -2.817320E+04 -5.656005E+03
       204   5 -4.847566E+05 -1.880147E+02 -1.871969E+04  1.412122E+04 -1.825128E+04 -1.784027E+04
       204   6 -4.894073E+05  1.672946E+03 -1.094870E+04  2.037755E+04 -8.341794E+03 -1.897484E+04
       204   7 -9.114110E+05 -1.390392E+05 -1.431219E+05  3.655204E+04 -4.473154E+04 -5.676777E+03
       204   8 -8.734704E+05 -9.525243E+04 -1.051131E+05  1.956002E+04 -2.448300E+04 -1.784934E+04
       204   9 -8.466473E+05 -8.541196E+04 -8.877508E+04  1.512569E+04 -4.245538E+03 -1.896979E+04
       204  10 -6.727113E+04  7.064801E+04  6.115628E+04  4.282597E+03  2.529075E-09 -7.492844E-10
       204  11 -9.590164E+04  9.486593E+04  6.766358E+04  8.678748E+03  4.535553E-09  1.612237E-09
       204  12 -1.320476E+05  8.874904E+04  6.686911E+04  2.563225E+04  7.223936E-09  1.141859E-09
       204  13 -4.894239E+05 -3.418984E+04 -4.097841E+04  2.042275E+04 -1.833929E-09 -2.420079E-09
       204  14 -4.847570E+05 -1.884459E+02 -1.872091E+04  1.412095E+04  2.291282E-09 -5.753719E-09
       204  15 -4.894074E+05  1.672541E+03 -1.094951E+04  2.037743E+04  8.806117E-11 -2.474911E-09
       204  16 -9.114132E+05 -1.390397E+05 -1.431258E+05  3.655184E+04  1.323814E-09 -1.289426E-09
       204  17 -8.734712E+05 -9.525294E+04 -1.051148E+05  1.955966E+04 -5.231903E-09  1.300689E-10
       204  18 -8.466474E+05 -8.541235E+04 -8.877579E+04  1.512562E+04 -5.785539E-09 -1.300372E-09
       204  19 -6.727098E+04  7.064808E+04  6.115660E+04  4.282649E+03  1.160362E+04  5.636103E+03
       204  20 -9.590140E+04  9.486631E+04  6.766444E+04  8.678921E+03  1.201570E+04  1.783132E+04
       204  21 -1.320474E+05  8.874947E+04  6.687008E+04  2.563244E+04  1.244038E+04  1.897995E+04
       204  22 -4.894231E+05 -3.418959E+04 -4.097686E+04  2.042288E+04  2.817320E+04  5.656005E+03
       204  23 -4.847566E+05 -1.880147E+02 -1.871969E+04  1.412122E+04  1.825128E+04  1.784027E+04
       204  24 -4.894073E+05  1.672946E+03 -1.094870E+04  2.037755E+04  8.341794E+03  1.897484E+04
       204  25 -9.114110E+05 -1.390392E+05 -1.431219E+05  3.655204E+04  4.473154E+04  5.676777E+03
       204  26 -8.734704E+05 -9.525243E+04 -1.051131E+05  1.956002E+04  2.448300E+04  1.784934E+04
       204  27 -8.466473E+05 -8.541196E+04 -8.877508E+04  1.512569E+04  4.245538E+03  1.896979E+04
       205   1 -1.564827E+05  7.894767E+04  6.376143E+04  2.025667E+04 -7.727439E+03 -1.696538E+04
       205   2 -1.886479E+05  7.280294E+04  6.035114E+04  1.416580E+04 -5.829872E+03 -1.572321E+04
       205   3 -2.214976E+05  6.498827E+04  5.528345E+04  2.119559E+04 -3.933813E+03 -1.397998E+04
       205   4 -4.875048E+05 -1.768635E+03 -8.691511E+03  2.051597E+04 -6.799605E+03 -1.696467E+04
       205   5 -4.871176E+05  7.327565E+01 -4.718071E+03  1.395392E+04 -4.434278E+03 -1.572157E+04
       205   6 -4.874980E+05  1.633871E+02 -2.727833E+03  2.051294E+04 -2.070369E+03 -1.397728E+04
       205   7 -8.184242E+05 -8.249226E+04 -8.115109E+04  2.077509E+04 -5.872258E+03 -1.696396E+04
       205   8 -7.855037E+05 -7.266232E+04 -6.979263E+04  1.374211E+04 -3.039346E+03 -1.571992E+04
       205   9 -7.534321E+05 -6.466621E+04 -6.074336E+04  1.983057E+04 -2.077123E+02 -1.397460E+04
       205  10 -1.564828E+05  7.894735E+04  6.376077E+04  2.025657E+04  2.992616E-08  6.732857E-10
       205  11 -1.886481E+05  7.280267E+04  6.035061E+04  1.416573E+04  3.557115E-09  2.047959E-09
       205  12 -2.214976E+05  6.498806E+04  5.528305E+04  2.119554E+04 -2.746677E-08  1.647296E-09
       205  13 -4.875049E+05 -1.768957E+03 -8.692138E+03  2.051588E+04  3.983903E-09  6.309270E-09
       205  14 -4.871177E+05  7.300501E+01 -4.718572E+03  1.395386E+04  4.293203E-10 -4.408668E-09
       205  15 -4.874981E+05  1.631763E+02 -2.728208E+03  2.051292E+04 -1.575799E-09  1.031787E-08
       205  16 -8.184243E+05 -8.249258E+04 -8.115169E+04  2.077501E+04 -2.475737E-08 -3.738329E-09
       205  17 -7.855038E+05 -7.266259E+04 -6.979311E+04  1.374207E+04 -2.978888E-09 -3.706400E-09
       205  18 -7.534321E+05 -6.466642E+04 -6.074373E+04  1.983056E+04  2.569925E-08 -1.892505E-09
       205  19 -1.564827E+05  7.894767E+04  6.376143E+04  2.025667E+04  7.727439E+03  1.696538E+04
       205  20 -1.886479E+05  7.280294E+04  6.035114E+04  1.416580E+04  5.829872E+03  1.572321E+04
       205  21 -2.214976E+05  6.498827E+04  5.528345E+04  2.119559E+04  3.933813E+03  1.397998E+04
       205  22 -4.875048E+05 -1.768635E+03 -8.691511E+03  2.051597E+04  6.799605E+03  1.696467E+04
       205  23 -4.871176E+05  7.327565E+01 -4.718071E+03  1.395392E+04  4.434278E+03  1.572157E+04
       205  24 -4.874980E+05  1.633871E+02 -2.727833E+03  2.051294E+04  2.070369E+03  1.397728E+04
       205  25 -8.184242E+05 -8.249226E+04 -8.115109E+04  2.077509E+04  5.872258E+03  1.696396E+04
       205  26 -7.855037E+05 -7.266232E+04 -6.979263E+04  1.374211E+04  3.039346E+03  1.571992E+04
       205  27 -7.534321E+05 -6.466621E+04 -6.074336E+04  1.983057E+04  2.077123E+02  1.397460E+04
       206   1 -2.476234E+05  5.837488E+04  5.003634E+04  2.088238E+04 -3.370901E+03 -1.284372E+04
       206   2 -2.802398E+05  5.050490E+04  4.387805E+04  1.423918E+04 -2.796597E+03 -1.098843E+04
       206   3 -3.129872E+05  4.258449E+04  3.732263E+04  2.081561E+04 -2.222844E+03 -9.107842E+03
       206   4 -4.873547E+05 -1.818657E+01 -2.097685E+03  2.053579E+04 -1.647208E+03 -1.284111E+04
       206   5 -4.872847E+05  5.969813E+01 -1.212173E+03  1.392576E+04 -1.049474E+03 -1.098557E+04
       206   6 -4.873505E+05  8.322996E+01 -7.400261E+02  2.053561E+04 -4.522597E+02 -9.104731E+03
       206   7 -7.270320E+05 -5.841507E+04 -5.423515E+04  2.018932E+04  7.582861E+01 -1.283850E+04
       206   8 -6.942894E+05 -5.038835E+04 -4.630495E+04  1.361242E+04  6.970748E+02 -1.098271E+04
       206   9 -6.616853E+05 -4.242005E+04 -3.880450E+04  2.025568E+04  1.317833E+03 -9.101621E+03
       206  10 -2.476235E+05  5.837470E+04  5.003601E+04  2.088234E+04  9.703924E-09 -7.212956E-09
       206  11 -2.802398E+05  5.050476E+04  4.387780E+04  1.423916E+04  7.058673E-09 -4.949245E-09
       206  12 -3.129872E+05  4.258440E+04  3.732246E+04  2.081559E+04 -9.936227E-09 -1.224870E-09
       206  13 -4.873547E+05 -1.836433E+01 -2.098000E+03  2.053577E+04 -2.172174E-09  5.443013E-09
       206  14 -4.872848E+05  5.956828E+01 -1.212401E+03  1.392575E+04  6.627661E-10  1.624598E-09
       206  15 -4.873505E+05  8.314091E+01 -7.401822E+02  2.053561E+04  3.088659E-09 -9.553892E-10
       206  16 -7.270320E+05 -5.841524E+04 -5.423545E+04  2.018932E+04 -1.102850E-08 -6.451195E-09
       206  17 -6.942895E+05 -5.038848E+04 -4.630518E+04  1.361242E+04 -4.925544E-09  3.895545E-10
       206  18 -6.616853E+05 -4.242014E+04 -3.880466E+04  2.025569E+04  1.330782E-08  5.280185E-09
       206  19 -2.476234E+05  5.837488E+04  5.003634E+04  2.088238E+04  3.370901E+03  1.284372E+04
       206  20 -2.802398E+05  5.050490E+04  4.387805E+04  1.423918E+04  2.796597E+03  1.098843E+04
       206  21 -3.129872E+05  4.258449E+04  3.732263E+04  2.081561E+04  2.222844E+03  9.107842E+03
       206  22 -4.873547E+05 -1.818657E+01 -2.097685E+03  2.053579E+04  1.647208E+03  1.284111E+04
       206  23 -4.872847E+05  5.969813E+01 -1.212173E+03  1.392576E+04  1.049474E+03  1.098557E+04
       206  24 -4.873505E+05  8.322996E+01 -7.400261E+02  2.053561E+04  4.522597E+02  9.104731E+03
       206  25 -7.270320E+05 -5.841507E+04 -5.423515E+04  2.018932E+04 -7.582861E+01  1.283850E+04
       206  26 -6.942894E+05 -5.038835E+04 -4.630495E+04  1.361242E+04 -6.970748E+02  1.098271E+04
       206  27 -6.616853E+05 -4.242005E+04 -3.880450E+04  2.025568E+04 -1.317833E+03  9.101621E+03
       207   1 -3.393491E+05  3.611434E+04  3.153697E+04  2.077274E+04 -2.099533E+03 -8.006751E+03
       207   2 -3.721087E+05  2.812507E+04  2.463852E+04  1.408486E+04 -1.884643E+03 -6.117392E+03
       207   3 -4.049432E+05  2.017909E+04  1.759704E+04  2.066332E+04 -1.670043E+03 -4.225428E+03
       207   4 -4.873354E+05  7.563289E+01 -5.999550E+02  2.054602E+04 -3.333792E+02 -8.003547E+03
       207   5 -4.872961E+05  5.919404E+01 -4.465715E+02  1.391277E+04 -1.161388E+02 -6.114069E+03
       207   6 -4.873331E+05  8.569477E+01 -4.378568E+02  2.054600E+04  1.008243E+02 -4.221982E+03
       207   7 -6.353011E+05 -3.596452E+04 -3.273817E+04  2.031935E+04  1.432359E+03 -8.000344E+03
       207   8 -6.024710E+05 -2.800756E+04 -2.553245E+04  1.374071E+04  1.652042E+03 -6.110747E+03
       207   9 -5.697166E+05 -2.000815E+04 -1.847315E+04  2.042870E+04  1.871459E+03 -4.218537E+03
       207  10 -3.393491E+05  3.611427E+04  3.153684E+04  2.077272E+04 -3.761479E-10 -5.645339E-09
       207  11 -3.721087E+05  2.812503E+04  2.463845E+04  1.408485E+04  2.274119E-09 -8.494566E-11
       207  12 -4.049432E+05  2.017907E+04  1.759700E+04  2.066331E+04 -5.463311E-09  3.324242E-10
       207  13 -4.873354E+05  7.556409E+01 -6.000756E+02  2.054602E+04  2.135415E-09  1.242946E-09
       207  14 -4.872961E+05  5.915390E+01 -4.466417E+02  1.391277E+04  3.022613E-09 -8.072516E-09
       207  15 -4.873331E+05  8.567563E+01 -4.378903E+02  2.054601E+04  1.977152E-09 -2.090175E-09
       207  16 -6.353011E+05 -3.596459E+04 -3.273830E+04  2.031936E+04 -4.108960E-09  5.324838E-10
       207  17 -6.024710E+05 -2.800760E+04 -2.553253E+04  1.374071E+04 -1.128581E-09  5.231517E-09
       207  18 -5.697166E+05 -2.000817E+04 -1.847319E+04  2.042871E+04  8.598234E-09  1.606488E-09
       207  19 -3.393491E+05  3.611434E+04  3.153697E+04  2.077274E+04  2.099533E+03  8.006751E+03
       207  20 -3.721087E+05  2.812507E+04  2.463852E+04  1.408486E+04  1.884643E+03  6.117392E+03
       207  21 -4.049432E+05  2.017909E+04  1.759704E+04  2.066332E+04  1.670043E+03  4.225428E+03
       207  22 -4.873354E+05  7.563289E+01 -5.999550E+02  2.054602E+04  3.333792E+02  8.003547E+03
       207  23 -4.872961E+05  5.919404E+01 -4.465715E+02  1.391277E+04  1.161388E+02  6.114069E+03
       207  24 -4.873331E+05  8.569477E+01 -4.378568E+02  2.054600E+04 -1.008243E+02  4.221982E+03
       207  25 -6.353011E+05 -3.596452E+04 -3.273817E+04  2.031935E+04 -1.432359E+03  8.000344E+03
       207  26 -6.024710E+05 -2.800756E+04 -2.553245E+04  1.374071E+04 -1.652042E+03  6.110747E+03
       207  27 -5.697166E+05 -2.000815E+04 -1.847315E+04  2.042870E+04 -1.871459E+03  4.218537E+03
       208   1 -4.313888E+05  1.370018E+04  1.160869E+04  2.062442E+04 -1.589397E+03 -3.123264E+03
       208   2 -4.641847E+05  5.696524E+03  4.335663E+03  1.391654E+04 -1.248930E+03 -1.228972E+03
       208   3 -4.970792E+05 -2.269959E+03 -3.165198E+03  2.049509E+04 -9.085413E+02  6.650226E+02
       208   4 -4.873376E+05  8.593516E+01 -4.843867E+02  2.055044E+04  1.822260E+02 -3.119773E+03
       208   5 -4.872874E+05  6.730963E+01 -6.956726E+02  1.390722E+04  5.223475E+02 -1.225461E+03
       208   6 -4.873372E+05  8.586023E+01 -1.134651E+03  2.055044E+04  8.624096E+02  6.685587E+02
       208   7 -5.432833E+05 -1.352852E+04 -1.257764E+04  2.047646E+04  1.953691E+03 -3.116283E+03
       208   8 -5.103895E+05 -5.561938E+03 -5.727029E+03  1.389789E+04  2.293560E+03 -1.221950E+03
       208   9 -4.775951E+05  2.441675E+03  8.959024E+02  2.060580E+04  2.633388E+03  6.720951E+02
       208  10 -4.313888E+05  1.370017E+04  1.160867E+04  2.062442E+04  4.616771E-09  2.155820E-09
       208  11 -4.641847E+05  5.696522E+03  4.335657E+03  1.391654E+04  5.713429E-09 -7.690060E-10
       208  12 -4.970792E+05 -2.269960E+03 -3.165200E+03  2.049509E+04 -4.404228E-09  1.279069E-09
       208  13 -4.873376E+05  8.592471E+01 -4.844051E+02  2.055044E+04 -3.820077E-10  3.443553E-09
       208  14 -4.872874E+05  6.730794E+01 -6.956759E+02  1.390722E+04  3.766127E-09 -2.169418E-09
       208  15 -4.873372E+05  8.585955E+01 -1.134653E+03  2.055044E+04  4.702423E-10 -8.599623E-10
       208  16 -5.432833E+05 -1.352853E+04 -1.257766E+04  2.047647E+04 -1.575026E-09  4.835983E-10
       208  17 -5.103895E+05 -5.561941E+03 -5.727041E+03  1.389789E+04 -2.456763E-09 -9.631688E-09
       208  18 -4.775951E+05  2.441673E+03  8.958885E+02  2.060580E+04  9.073571E-09 -5.027176E-09
       208  19 -4.313888E+05  1.370018E+04  1.160869E+04  2.062442E+04  1.589397E+03  3.123264E+03
       208  20 -4.641847E+05  5.696524E+03  4.335663E+03  1.391654E+04  1.248930E+03  1.228972E+03
       208  21 -4.970792E+05 -2.269959E+03 -3.165198E+03  2.049509E+04  9.085413E+02 -6.650226E+02
       208  22 -4.873376E+05  8.593516E+01 -4.843867E+02  2.055044E+04 -1.822260E+02  3.119773E+03
       208  23 -4.872874E+05  6.730963E+01 -6.956726E+02  1.390722E+04 -5.223475E+02  1.225461E+03
       208  24 -4.873372E+05  8.586023E+01 -1.134651E+03  2.055044E+04 -8.624096E+02 -6.685587E+02
       208  25 -5.432833E+05 -1.352852E+04 -1.257764E+04  2.047646E+04 -1.953691E+03  3.116283E+03
       208  26 -5.103895E+05 -5.561938E+03 -5.727029E+03  1.389789E+04 -2.293560E+03  1.221950E+03
       208  27 -4.775951E+05  2.441675E+03  8.959024E+02  2.060580E+04 -2.633388E+03 -6.720951E+02
       209   1 -5.235700E+05 -8.735555E+03 -9.446876E+03  2.041381E+04 -6.797490E+02  1.769252E+03
       209   2 -5.562621E+05 -1.672839E+04 -1.756090E+04  1.372822E+04  5.834066E+02  3.661201E+03
       209   3 -5.892242E+05 -2.489252E+04 -2.655580E+04  2.032146E+04  1.846707E+03  5.536829E+03
       209   4 -4.873747E+05  1.031298E+02 -1.471781E+03  2.054860E+04  1.095291E+03  1.772782E+03
       209   5 -4.872418E+05  9.141202E+01 -2.525851E+03  1.390943E+04  2.343282E+03  3.664629E+03
       209   6 -4.873765E+05 -8.873623E+01 -4.449989E+03  2.054899E+04  3.591484E+03  5.540161E+03
       209   7 -4.511783E+05  8.941728E+03  6.503246E+03  2.068341E+04  2.870433E+03  1.776313E+03
       209   8 -4.182169E+05  1.691090E+04  1.250892E+04  1.409066E+04  4.103351E+03  3.668058E+03
       209   9 -3.855191E+05  2.471436E+04  1.765521E+04  2.077656E+04  5.336544E+03  5.543493E+03
       209  10 -5.235700E+05 -8.735559E+03 -9.446883E+03  2.041381E+04 -2.870750E-09  1.900582E-09
       209  11 -5.562621E+05 -1.672840E+04 -1.756093E+04  1.372822E+04  1.246584E-09 -4.444903E-09
       209  12 -5.892242E+05 -2.489255E+04 -2.655586E+04  2.032145E+04  2.944927E-09 -2.834203E-09
       209  13 -4.873747E+05  1.031261E+02 -1.471789E+03  2.054860E+04  2.159307E-09  2.439755E-09
       209  14 -4.872418E+05  9.139613E+01 -2.525887E+03  1.390943E+04  3.738881E-09  3.235514E-09
       209  15 -4.873765E+05 -8.877264E+01 -4.450071E+03  2.054898E+04 -1.204679E-09 -1.788876E-10
       209  16 -4.511783E+05  8.941723E+03  6.503225E+03  2.068341E+04  5.228053E-09  5.035712E-09
       209  17 -4.182170E+05  1.691088E+04  1.250887E+04  1.409065E+04 -3.098503E-09 -3.928124E-10
       209  18 -3.855191E+05  2.471432E+04  1.765510E+04  2.077654E+04 -4.389439E-09  3.078726E-09
       209  19 -5.235700E+05 -8.735555E+03 -9.446876E+03  2.041381E+04  6.797490E+02 -1.769252E+03
       209  20 -5.562621E+05 -1.672839E+04 -1.756090E+04  1.372822E+04 -5.834066E+02 -3.661201E+03
       209  21 -5.892242E+05 -2.489252E+04 -2.655580E+04  2.032146E+04 -1.846707E+03 -5.536829E+03
       209  22 -4.873747E+05  1.031298E+02 -1.471781E+03  2.054860E+04 -1.095291E+03 -1.772782E+03
       209  23 -4.872418E+05  9.141202E+01 -2.525851E+03  1.390943E+04 -2.343282E+03 -3.664629E+03
       209  24 -4.873765E+05 -8.873623E+01 -4.449989E+03  2.054899E+04 -3.591484E+03 -5.540161E+03
       209  25 -4.511783E+05  8.941728E+03  6.503246E+03  2.068341E+04 -2.870433E+03 -1.776313E+03
       209  26 -4.182169E+05  1.691090E+04  1.250892E+04  1.409066E+04 -4.103351E+03 -3.668058E+03
       209  27 -3.855191E+05  2.471436E+04  1.765521E+04  2.077656E+04 -5.336544E+03 -5.543493E+03
       210   1 -6.159503E+05 -3.097606E+04 -3.383541E+04  1.960973E+04  2.651145E+03  6.667662E+03
       210   2 -6.478430E+05 -3.909232E+04 -4.518733E+04  1.399819E+04  8.019864E+03  8.474250E+03
       210   3 -6.814505E+05 -5.106111E+04 -6.101290E+04  2.162136E+04  1.338925E+04  9.937179E+03
       210   4 -4.876871E+05  3.017517E+02 -5.808675E+03  2.053694E+04  4.492598E+03  6.671110E+03
       210   5 -4.868599E+05  1.474806E+02 -1.007046E+04  1.392350E+04  9.541061E+03  8.476926E+03
       210   6 -4.876923E+05 -3.802956E+03 -1.858239E+04  2.054459E+04  1.459047E+04  9.939110E+03
       210   7 -3.594084E+05  3.157848E+04  2.221708E+04  2.146434E+04  6.334426E+03  6.674564E+03
       210   8 -3.258526E+05  3.938555E+04  2.504485E+04  1.384877E+04  1.106265E+04  8.479602E+03
       210   9 -2.938989E+05  4.345270E+04  2.384586E+04  1.946747E+04  1.579206E+04  9.941036E+03
       210  10 -6.159503E+05 -3.097611E+04 -3.383550E+04  1.960972E+04 -1.399242E-08 -7.085299E-10
       210  11 -6.478431E+05 -3.909241E+04 -4.518759E+04  1.399814E+04  4.710076E-09  2.098121E-09
       210  12 -6.814507E+05 -5.106126E+04 -6.101342E+04  2.162125E+04  1.734869E-08 -1.511899E-09
       210  13 -4.876871E+05  3.016985E+02 -5.808796E+03  2.053692E+04 -3.968251E-09 -7.915799E-09
       210  14 -4.868600E+05  1.473790E+02 -1.007077E+04  1.392343E+04 -5.442941E-09  1.786204E-09
       210  15 -4.876926E+05 -3.803120E+03 -1.858297E+04  2.054447E+04  4.141844E-10 -8.934140E-10
       210  16 -3.594085E+05  3.157842E+04  2.221692E+04  2.146431E+04  1.193950E-08 -3.192109E-09
       210  17 -3.258527E+05  3.938544E+04  2.504449E+04  1.384869E+04 -4.389925E-09 -9.937386E-09
       210  18 -2.938992E+05  4.345252E+04  2.384520E+04  1.946734E+04 -1.778839E-08  9.659163E-10
       210  19 -6.159503E+05 -3.097606E+04 -3.383541E+04  1.960973E+04 -2.651145E+03 -6.667662E+03
       210  20 -6.478430E+05 -3.909232E+04 -4.518733E+04  1.399819E+04 -8.019864E+03 -8.474250E+03
       210  21 -6.814505E+05 -5.106111E+04 -6.101290E+04  2.162136E+04 -1.338925E+04 -9.937179E+03
       210  22 -4.876871E+05  3.017517E+02 -5.808675E+03  2.053694E+04 -4.492598E+03 -6.671110E+03
       210  23 -4.868599E+05  1.474806E+02 -1.007046E+04  1.392350E+04 -9.541061E+03 -8.476926E+03
       210  24 -4.876923E+05 -3.802956E+03 -1.858239E+04  2.054459E+04 -1.459047E+04 -9.939110E+03
       210  25 -3.594084E+05  3.157848E+04  2.221708E+04  2.146434E+04 -6.334426E+03 -6.674564E+03
       210  26 -3.258526E+05  3.938555E+04  2.504485E+04  1.384877E+04 -1.106265E+04 -8.479602E+03
       210  27 -2.938989E+05  4.345270E+04  2.384586E+04  1.946747E+04 -1.579206E+04 -9.941036E+03
       211   1 -7.119841E+05 -5.015307E+04 -7.142156E+04  9.716811E+03  1.451244E+04  1.166855E+04
       211   2 -7.341164E+05 -6.205965E+04 -9.616283E+04  2.616747E+04  4.278906E+04  1.153184E+04
       211   3 -7.774914E+05 -1.440427E+05 -1.568533E+05  5.552919E+04  7.107560E+04  3.805469E+03
       211   4 -4.917681E+05  3.566291E+03 -2.341468E+04  2.043611E+04  1.789142E+04  1.167451E+04
       211   5 -4.817776E+05 -3.799514E+02 -4.002649E+04  1.404390E+04  3.907639E+04  1.152436E+04
       211   6 -4.917908E+05 -7.315699E+04 -8.765085E+04  2.056448E+04  6.027322E+04  3.783838E+03
       211   7 -2.715063E+05  5.728286E+04  2.458940E+04  3.115924E+04  2.127158E+04  1.168058E+04
       211   8 -2.293789E+05  6.129601E+04  1.610601E+04  1.915314E+03  3.536223E+04  1.151702E+04
       211   9 -2.060127E+05 -2.272529E+03 -1.845318E+04 -1.441642E+04  4.946588E+04  3.763430E+03
       211  10 -7.119844E+05 -5.015328E+04 -7.142221E+04  9.716674E+03  2.758345E-09  2.247812E-10
       211  11 -7.341184E+05 -6.206029E+04 -9.616652E+04  2.616708E+04  6.326910E-09  1.880505E-09
       211  12 -7.774968E+05 -1.440441E+05 -1.568628E+05  5.552897E+04  8.914762E-09  4.833871E-09
       211  13 -4.917685E+05  3.566059E+03 -2.341553E+04  2.043594E+04 -2.165538E-09  3.452232E-09
       211  14 -4.817793E+05 -3.805043E+02 -4.002961E+04  1.404354E+04 -1.715941E-09  7.007998E-09
       211  15 -4.917947E+05 -7.315798E+04 -8.765771E+04  2.056429E+04 -1.965751E-09  4.363530E-09
       211  16 -2.715069E+05  5.728259E+04  2.458829E+04  3.115904E+04 -4.833590E-09  5.961728E-09
       211  17 -2.293803E+05  6.129553E+04  1.610341E+04  1.914986E+03 -7.290307E-09  9.006481E-09
       211  18 -2.060153E+05 -2.273202E+03 -1.845781E+04 -1.441657E+04 -6.657315E-09  9.587499E-10
       211  19 -7.119841E+05 -5.015307E+04 -7.142156E+04  9.716811E+03 -1.451244E+04 -1.166855E+04
       211  20 -7.341164E+05 -6.205965E+04 -9.616283E+04  2.616747E+04 -4.278906E+04 -1.153184E+04
       211  21 -7.774914E+05 -1.440427E+05 -1.568533E+05  5.552919E+04 -7.107560E+04 -3.805469E+03
       211  22 -4.917681E+05  3.566291E+03 -2.341468E+04  2.043611E+04 -1.789142E+04 -1.167451E+04
       211  23 -4.817776E+05 -3.799514E+02 -4.002649E+04  1.404390E+04 -3.907639E+04 -1.152436E+04
       211  24 -4.917908E+05 -7.315699E+04 -8.765085E+04  2.056448E+04 -6.027322E+04 -3.783838E+03
       211  25 -2.715063E+05  5.728286E+04  2.458940E+04  3.115924E+04 -2.127158E+04 -1.168058E+04
       211  26 -2.293789E+05  6.129601E+04  1.610601E+04  1.915314E+03 -3.536223E+04 -1.151702E+04
       211  27 -2.060127E+05 -2.272529E+03 -1.845318E+04 -1.441642E+04 -4.946588E+04 -3.763430E+03

 stresses (elem, integ.pnt.,sxx,syy,szz,sxy,sxz,syz) for set ELALL and time  0.9687500E+00

         1   1  2.938086E+06  1.082950E+07  2.787572E+06 -1.995477E+06  1.369753E+05  1.038175E+06
         1   2  2.382333E+06  9.238843E+06  1.894181E+06 -1.833129E+06  4.608944E+05  4.705810E+05
         1   3  1.978242E+06  7.766564E+06  1.405603E+06 -1.925622E+06  5.366687E+05 -9.515642E+04
         1   4  1.075849E+05 -7.175643E+05  1.125939E+05 -1.890316E+06  1.406749E+05  7.286064E+04
         1   5  3.260118E+04 -7.248590E+05  5.990580E+04 -1.763144E+06  4.636145E+05  4.458824E+04
         1   6  1.770893E+04 -7.077503E+05  4.157214E+04 -1.890801E+06  5.366358E+05  1.659291E+04
         1   7 -2.731739E+06 -1.214080E+07 -2.567877E+06 -1.786825E+06  1.441073E+05 -8.748712E+05
         1   8 -2.322661E+06 -1.059275E+07 -1.777818E+06 -1.694069E+06  4.662720E+05 -3.748259E+05
         1   9 -1.946430E+06 -9.111284E+06 -1.324362E+06 -1.856265E+06  5.366147E+05  1.268841E+05
         1  10  2.937782E+06  1.082835E+07  2.785543E+06 -1.995592E+06 -2.147059E-09 -5.034978E-10
         1  11  2.382045E+06  9.238549E+06  1.893368E+06 -1.833303E+06  7.073833E-09 -2.792227E-09
         1  12  1.977931E+06  7.766477E+06  1.405046E+06 -1.925581E+06  5.072261E-10 -4.625917E-09
         1  13  1.075622E+05 -7.175754E+05  1.125466E+05 -1.890324E+06 -1.249927E-11 -1.680503E-11
         1  14  3.236984E+04 -7.249189E+05  5.949803E+04 -1.763161E+06 -5.491211E-10 -1.558581E-10
         1  15  1.739969E+04 -7.078279E+05  4.103052E+04 -1.890808E+06  4.906020E-09 -3.924618E-10
         1  16 -2.731971E+06 -1.214164E+07 -2.569380E+06 -1.786723E+06  2.108499E-09  3.949325E-10
         1  17 -2.322932E+06 -1.059296E+07 -1.778492E+06 -1.693927E+06 -5.423237E-10  2.635694E-09
         1  18 -1.946744E+06 -9.111378E+06 -1.324935E+06 -1.856320E+06  2.729990E-10  4.290653E-09
         1  19  2.938086E+06  1.082950E+07  2.787572E+06 -1.995477E+06 -1.369753E+05 -1.038175E+06
         1  20  2.382333E+06  9.238843E+06  1.894181E+06 -1.833129E+06 -4.608944E+05 -4.705810E+05
         1  21  1.978242E+06  7.766564E+06  1.405603E+06 -1.925622E+06 -5.366687E+05  9.515642E+04
         1  22  1.075849E+05 -7.175643E+05  1.125939E+05 -1.890316E+06 -1.406749E+05 -7.286064E+04
         1  23  3.260118E+04 -7.248590E+05  5.990580E+04 -1.763144E+06 -4.636145E+05 -4.458824E+04
         1  24  1.770893E+04 -7.077503E+05  4.157214E+04 -1.890801E+06 -5.366358E+05 -1.659291E+04
         1  25 -2.731739E+06 -1.214080E+07 -2.567877E+06 -1.786825E+06 -1.441073E+05  8.748712E+05
         1  26 -2.322661E+06 -1.059275E+07 -1.777818E+06 -1.694069E+06 -4.662720E+05  3.748259E+05
         1  27 -1.946430E+06 -9.111284E+06 -1.324362E+06 -1.856265E+06 -5.366147E+05 -1.268841E+05
         2   1  1.749720E+06  6.789069E+06  1.215021E+06 -1.934041E+06  4.969663E+05 -1.041049E+05
         2   2  1.388666E+06  5.250049E+06  9.287215E+05 -1.786287E+06  4.297774E+05 -1.874377E+05
         2   3  1.054860E+06  3.730539E+06  7.030124E+05 -1.911337E+06  3.329586E+05 -2.710095E+05
         2   4  1.992692E+04 -7.089639E+05  3.750117E+04 -1.894820E+06  4.967261E+05  9.990109E+03
         2   5  2.203208E+04 -7.090181E+05  3.866460E+04 -1.758303E+06  4.287878E+05 -9.448113E+03
         2   6  4.053410E+04 -7.028468E+05  5.635788E+04 -1.894743E+06  3.310718E+05 -2.931778E+04
         2   7 -1.712626E+06 -8.151304E+06 -1.141351E+06 -1.855918E+06  4.964979E+05  1.227690E+05
         2   8 -1.346257E+06 -6.632532E+06 -8.519631E+05 -1.730487E+06  4.278074E+05  1.669126E+05
         2   9 -9.746677E+05 -5.116366E+06 -5.904117E+05 -1.878204E+06  3.291884E+05  2.107279E+05
         2  10  1.749452E+06  6.788991E+06  1.214537E+06 -1.934000E+06 -1.277170E-09  4.748385E-09
         2  11  1.388458E+06  5.249962E+06  9.283100E+05 -1.786222E+06  5.245876E-09 -3.942908E-10
         2  12  1.054722E+06  3.730431E+06  7.026682E+05 -1.911265E+06 -4.722002E-09 -5.886138E-09
         2  13  1.966202E+04 -7.090302E+05  3.703741E+04 -1.894824E+06 -7.853738E-10 -4.407135E-10
         2  14  2.183472E+04 -7.090674E+05  3.831911E+04 -1.758300E+06  3.496969E-09 -2.719372E-10
         2  15  4.041627E+04 -7.028770E+05  5.615051E+04 -1.894735E+06 -2.925510E-10 -3.587100E-10
         2  16 -1.712895E+06 -8.151387E+06 -1.141844E+06 -1.855967E+06  1.007867E-09 -4.930216E-09
         2  17 -1.346461E+06 -6.632611E+06 -8.523607E+05 -1.730545E+06 -1.273801E-09  4.380405E-10
         2  18 -9.747963E+05 -5.116444E+06 -5.907004E+05 -1.878260E+06 -2.517551E-09  5.774029E-09
         2  19  1.749720E+06  6.789069E+06  1.215021E+06 -1.934041E+06 -4.969663E+05  1.041049E+05
         2  20  1.388666E+06  5.250049E+06  9.287215E+05 -1.786287E+06 -4.297774E+05  1.874377E+05
         2  21  1.054860E+06  3.730539E+06  7.030124E+05 -1.911337E+06 -3.329586E+05  2.710095E+05
         2  22  1.992692E+04 -7.089639E+05  3.750117E+04 -1.894820E+06 -4.967261E+05 -9.990109E+03
         2  23  2.203208E+04 -7.090181E+05  3.866460E+04 -1.758303E+06 -4.287878E+05  9.448113E+03
         2  24  4.053410E+04 -7.028468E+05  5.635788E+04 -1.894743E+06 -3.310718E+05  2.931778E+04
         2  25 -1.712626E+06 -8.151304E+06 -1.141351E+06 -1.855918E+06 -4.964979E+05 -1.227690E+05
         2  26 -1.346257E+06 -6.632532E+06 -8.519631E+05 -1.730487E+06 -4.278074E+05 -1.669126E+05
         2  27 -9.746677E+05 -5.116366E+06 -5.904117E+05 -1.878204E+06 -3.291884E+05 -2.107279E+05
         3   1  8.412202E+05  2.778230E+06  5.715032E+05 -1.914877E+06  2.663556E+05 -2.812350E+05
         3   2  5.410834E+05  1.235840E+06  4.012117E+05 -1.692830E+06  1.531637E+05 -3.490499E+05
         3   3  3.497673E+05 -2.715244E+05  3.012543E+05 -1.745624E+06  3.804263E+04 -4.168638E+05
         3   4  4.709191E+04 -6.957444E+05  7.085237E+04 -1.895245E+06  2.642965E+05 -3.941442E+04
         3   5  9.792087E+04 -7.105985E+05  1.233890E+05 -1.757120E+06  1.509682E+05 -1.032896E+05
         3   6  2.570330E+05 -6.936481E+05  2.433549E+05 -1.893682E+06  3.572604E+04 -1.673051E+05
         3   7 -7.475561E+05 -4.157439E+06 -4.297695E+05 -1.875685E+06  2.622447E+05  2.011151E+05
         3   8 -3.453620E+05 -2.653068E+06 -1.542598E+05 -1.821188E+06  1.487171E+05  1.417346E+05
         3   9  1.644086E+05 -1.115408E+06  1.856999E+05 -2.041636E+06  3.328922E+04  8.209152E+04
         3  10  8.411232E+05  2.778127E+06  5.712231E+05 -1.914817E+06  9.463919E-10  6.473445E-09
         3  11  5.410258E+05  1.235704E+06  4.009398E+05 -1.692787E+06 -2.584775E-09  9.469853E-10
         3  12  3.497192E+05 -2.717114E+05  3.009251E+05 -1.745611E+06  9.666587E-11 -3.884524E-09
         3  13  4.701657E+04 -6.957647E+05  7.071839E+04 -1.895236E+06 -8.942666E-09 -5.710241E-11
         3  14  9.789361E+04 -7.106160E+05  1.233264E+05 -1.757107E+06  1.096446E-09  1.401188E-10
         3  15  2.570242E+05 -6.936785E+05  2.432999E+05 -1.893678E+06 -1.571918E-09 -2.145129E-10
         3  16 -7.476411E+05 -4.157502E+06 -4.299759E+05 -1.875727E+06 -1.612578E-09 -5.725224E-09
         3  17 -3.453912E+05 -2.653096E+06 -1.543395E+05 -1.821205E+06 -3.501433E-09 -6.421444E-10
         3  18  1.644056E+05 -1.115416E+06  1.856850E+05 -2.041638E+06  3.540265E-09  3.915126E-09
         3  19  8.412202E+05  2.778230E+06  5.715032E+05 -1.914877E+06 -2.663556E+05  2.812350E+05
         3  20  5.410834E+05  1.235840E+06  4.012117E+05 -1.692830E+06 -1.531637E+05  3.490499E+05
         3  21  3.497673E+05 -2.715244E+05  3.012543E+05 -1.745624E+06 -3.804263E+04  4.168638E+05
         3  22  4.709191E+04 -6.957444E+05  7.085237E+04 -1.895245E+06 -2.642965E+05  3.941442E+04
         3  23  9.792087E+04 -7.105985E+05  1.233890E+05 -1.757120E+06 -1.509682E+05  1.032896E+05
         3  24  2.570330E+05 -6.936481E+05  2.433549E+05 -1.893682E+06 -3.572604E+04  1.673051E+05
         3  25 -7.475561E+05 -4.157439E+06 -4.297695E+05 -1.875685E+06 -2.622447E+05 -2.011151E+05
         3  26 -3.453620E+05 -2.653068E+06 -1.542598E+05 -1.821188E+06 -1.487171E+05 -1.417346E+05
         3  27  1.644086E+05 -1.115408E+06  1.856999E+05 -2.041636E+06 -3.328922E+04 -8.209152E+04
         4   1 -1.630230E+07 -5.678453E+06 -3.968198E+06 -5.086266E+06 -9.986047E+05 -3.049329E+05
         4   2 -1.612031E+07 -3.908775E+06 -3.003833E+06 -4.938296E+06 -6.657657E+05 -5.713620E+04
         4   3 -1.555321E+07 -4.001724E+06 -2.602575E+06 -4.906991E+06 -2.776152E+05  3.765062E+04
         4   4 -7.408993E+06 -2.163498E+06 -1.463502E+06 -2.550388E+06 -9.678241E+05 -2.939299E+05
         4   5 -7.537885E+06 -7.110623E+05 -6.436330E+05 -2.686559E+06 -6.636152E+05 -5.660096E+04
         4   6 -7.264814E+06 -1.099713E+06 -3.561222E+05 -2.940577E+06 -3.046778E+05  2.834021E+04
         4   7  1.561515E+06  1.357685E+06  1.033618E+06  1.969528E+04 -9.364496E+05 -2.826816E+05
         4   8  1.116290E+06  2.490292E+06  1.709796E+06 -4.061804E+05 -6.613748E+05 -5.603071E+04
         4   9  1.090113E+06  1.803755E+06  1.884214E+06 -9.506696E+05 -3.321189E+05  1.891029E+04
         4  10 -1.630343E+07 -5.678833E+06 -3.970307E+06 -5.086517E+06  4.296708E-10 -1.302318E-10
         4  11 -1.612080E+07 -3.908902E+06 -3.004695E+06 -4.938327E+06 -3.005909E-09 -1.214126E-09
         4  12 -1.555330E+07 -4.001747E+06 -2.602725E+06 -4.906982E+06  1.986798E-09 -4.458544E-09
         4  13 -7.410033E+06 -2.163848E+06 -1.465450E+06 -2.550620E+06  2.593076E-10 -6.073141E-10
         4  14 -7.538363E+06 -7.111860E+05 -6.444774E+05 -2.686590E+06 -5.816264E-09 -7.558193E-10
         4  15 -7.264915E+06 -1.099739E+06 -3.563000E+05 -2.940570E+06 -1.810410E-09 -3.459427E-09
         4  16  1.560554E+06  1.357364E+06  1.031824E+06  1.948255E+04 -2.514257E-09 -8.049448E-10
         4  17  1.115821E+06  2.490172E+06  1.708969E+06 -4.062102E+05 -1.902197E-09 -2.646546E-09
         4  18  1.089994E+06  1.803725E+06  1.884006E+06 -9.506646E+05  1.546314E-09 -2.657434E-09
         4  19 -1.630230E+07 -5.678453E+06 -3.968198E+06 -5.086266E+06  9.986047E+05  3.049329E+05
         4  20 -1.612031E+07 -3.908775E+06 -3.003833E+06 -4.938296E+06  6.657657E+05  5.713620E+04
         4  21 -1.555321E+07 -4.001724E+06 -2.602575E+06 -4.906991E+06  2.776152E+05 -3.765062E+04
         4  22 -7.408993E+06 -2.163498E+06 -1.463502E+06 -2.550388E+06  9.678241E+05  2.939299E+05
         4  23 -7.537885E+06 -7.110623E+05 -6.436330E+05 -2.686559E+06  6.636152E+05  5.660096E+04
         4  24 -7.264814E+06 -1.099713E+06 -3.561222E+05 -2.940577E+06  3.046778E+05 -2.834021E+04
         4  25  1.561515E+06  1.357685E+06  1.033618E+06  1.969528E+04  9.364496E+05  2.826816E+05
         4  26  1.116290E+06  2.490292E+06  1.709796E+06 -4.061804E+05  6.613748E+05  5.603071E+04
         4  27  1.090113E+06  1.803755E+06  1.884214E+06 -9.506696E+05  3.321189E+05 -1.891029E+04
         5   1 -1.179518E+07 -3.134276E+06 -1.578700E+06 -4.221860E+06 -2.382961E+05  8.730646E+03
         5   2 -1.131463E+07 -1.956622E+06 -1.122155E+06 -3.240788E+06 -1.494920E+05  1.948012E+04
         5   3 -9.713808E+06 -2.159226E+06 -7.771866E+05 -3.720144E+06 -5.160291E+04  1.458649E+03
         5   4 -7.150580E+06 -1.465499E+06 -3.157479E+05 -3.066920E+06 -2.399630E+05  8.115429E+03
         5   5 -7.701757E+06 -6.821746E+05 -1.451421E+05 -2.368757E+06 -1.569250E+05  1.700487E+04
         5   6 -7.131985E+06 -1.276366E+06 -8.064927E+04 -3.130923E+06 -6.498025E+04 -2.854986E+03
         5   7 -2.485160E+06  2.040388E+05  9.452637E+05 -1.904123E+06 -2.416379E+05  7.497688E+03
         5   8 -4.076315E+06  5.926213E+05  8.307083E+05 -1.492161E+06 -1.644033E+05  1.451467E+04
         5   9 -4.543782E+06 -3.934212E+05  6.152988E+05 -2.539531E+06 -7.841783E+04 -7.187207E+03
         5  10 -1.179524E+07 -3.134291E+06 -1.578808E+06 -4.221858E+06  3.541635E-09 -4.506065E-09
         5  11 -1.131465E+07 -1.956629E+06 -1.122198E+06 -3.240786E+06  1.325209E-09 -1.142173E-09
         5  12 -9.713811E+06 -2.159227E+06 -7.771917E+05 -3.720144E+06  3.198456E-09 -1.673949E-09
         5  13 -7.150642E+06 -1.465515E+06 -3.158574E+05 -3.066918E+06  6.406107E-09 -1.437931E-09
         5  14 -7.701783E+06 -6.821816E+05 -1.451894E+05 -2.368755E+06 -9.212773E-09 -1.576647E-09
         5  15 -7.131989E+06 -1.276367E+06 -8.065732E+04 -3.130923E+06  6.528214E-09 -5.999221E-09
         5  16 -2.485223E+06  2.040230E+05  9.451535E+05 -1.904122E+06  2.285675E-09 -3.329745E-09
         5  17 -4.076344E+06  5.926138E+05  8.306568E+05 -1.492159E+06 -1.325303E-09 -1.088872E-09
         5  18 -4.543789E+06 -3.934229E+05  6.152870E+05 -2.539532E+06  2.691068E-10 -1.161196E-08
         5  19 -1.179518E+07 -3.134276E+06 -1.578700E+06 -4.221860E+06  2.382961E+05 -8.730646E+03
         5  20 -1.131463E+07 -1.956622E+06 -1.122155E+06 -3.240788E+06  1.494920E+05 -1.948012E+04
         5  21 -9.713808E+06 -2.159226E+06 -7.771866E+05 -3.720144E+06  5.160291E+04 -1.458649E+03
         5  22 -7.150580E+06 -1.465499E+06 -3.157479E+05 -3.066920E+06  2.399630E+05 -8.115429E+03
         5  23 -7.701757E+06 -6.821746E+05 -1.451421E+05 -2.368757E+06  1.569250E+05 -1.700487E+04
         5  24 -7.131985E+06 -1.276366E+06 -8.064927E+04 -3.130923E+06  6.498025E+04  2.854986E+03
         5  25 -2.485160E+06  2.040388E+05  9.452637E+05 -1.904123E+06  2.416379E+05 -7.497688E+03
         5  26 -4.076315E+06  5.926213E+05  8.307083E+05 -1.492161E+06  1.644033E+05 -1.451467E+04
         5  27 -4.543782E+06 -3.934212E+05  6.152988E+05 -2.539531E+06  7.841783E+04  7.187207E+03
         6   1 -4.611580E+06 -4.391353E+05  6.132188E+05 -2.538314E+06 -3.366880E+04 -2.874867E+04
         6   2 -4.156637E+06  5.377181E+05  9.229411E+05 -1.507470E+06 -4.124000E+03 -6.589699E+04
         6   3 -2.507464E+06  3.137266E+05  1.219712E+06 -1.983900E+06  2.281105E+04 -9.314258E+04
         6   4 -7.123135E+06 -1.302525E+06 -6.340566E+04 -3.120116E+06 -4.401728E+04 -3.208786E+04
         6   5 -7.718859E+06 -7.097162E+05 -3.526412E+04 -2.362509E+06 -1.234543E+04 -6.862642E+04
         6   6 -7.121759E+06 -1.319121E+06 -2.174889E+04 -3.113191E+06  1.667801E+04 -9.524248E+04
         6   7 -9.628684E+06 -2.165815E+06 -7.405879E+05 -3.699835E+06 -5.431999E+04 -3.541262E+04
         6   8 -1.126895E+07 -1.956841E+06 -9.945906E+05 -3.213184E+06 -2.051508E+04 -7.133890E+04
         6   9 -1.171569E+07 -2.951336E+06 -1.265093E+06 -4.234979E+06  1.059506E+04 -9.732579E+04
         6  10 -4.611581E+06 -4.391365E+05  6.132151E+05 -2.538315E+06 -4.590282E-09  1.055254E-09
         6  11 -4.156638E+06  5.377134E+05  9.229329E+05 -1.507470E+06 -1.199489E-08  2.150164E-09
         6  12 -2.507467E+06  3.137172E+05  1.219695E+06 -1.983898E+06 -1.458239E-08  5.313508E-09
         6  13 -7.123138E+06 -1.302527E+06 -6.341131E+04 -3.120117E+06  6.502778E-09 -9.454611E-09
         6  14 -7.718861E+06 -7.097213E+05 -3.527325E+04 -2.362510E+06 -6.295628E-09 -5.613444E-09
         6  15 -7.121762E+06 -1.319131E+06 -2.176640E+04 -3.113189E+06 -3.267961E-09  5.715095E-09
         6  16 -9.628687E+06 -2.165817E+06 -7.405959E+05 -3.699837E+06  1.149601E-08 -4.843143E-09
         6  17 -1.126895E+07 -1.956846E+06 -9.946010E+05 -3.213185E+06 -3.923615E-09 -2.096445E-09
         6  18 -1.171569E+07 -2.951346E+06 -1.265111E+06 -4.234978E+06 -8.159912E-10  2.101547E-09
         6  19 -4.611580E+06 -4.391353E+05  6.132188E+05 -2.538314E+06  3.366880E+04  2.874867E+04
         6  20 -4.156637E+06  5.377181E+05  9.229411E+05 -1.507470E+06  4.124000E+03  6.589699E+04
         6  21 -2.507464E+06  3.137266E+05  1.219712E+06 -1.983900E+06 -2.281105E+04  9.314258E+04
         6  22 -7.123135E+06 -1.302525E+06 -6.340566E+04 -3.120116E+06  4.401728E+04  3.208786E+04
         6  23 -7.718859E+06 -7.097162E+05 -3.526412E+04 -2.362509E+06  1.234543E+04  6.862642E+04
         6  24 -7.121759E+06 -1.319121E+06 -2.174889E+04 -3.113191E+06 -1.667801E+04  9.524248E+04
         6  25 -9.628684E+06 -2.165815E+06 -7.405879E+05 -3.699835E+06  5.431999E+04  3.541262E+04
         6  26 -1.126895E+07 -1.956841E+06 -9.945906E+05 -3.213184E+06  2.051508E+04  7.133890E+04
         6  27 -1.171569E+07 -2.951336E+06 -1.265093E+06 -4.234979E+06 -1.059506E+04  9.732579E+04
         7   1  1.074828E+06  1.801542E+06  2.237222E+06 -8.610428E+05  3.122733E+04 -1.146830E+05
         7   2  9.761493E+05  2.224639E+06  2.305583E+06 -4.046109E+05  4.776671E+04 -1.432540E+05
         7   3  1.875775E+06  2.224072E+06  2.485483E+06 -4.542455E+05  5.489263E+04 -1.434360E+05
         7   4 -7.179293E+06 -1.132415E+06  1.052417E+04 -2.901473E+06  2.136068E+04 -1.181589E+05
         7   5 -7.676469E+06 -9.371645E+05 -4.194964E+04 -2.640714E+06  4.417086E+04 -1.446891E+05
         7   6 -7.180308E+06 -1.170556E+06  1.191773E+04 -2.887161E+06  5.749604E+04 -1.426427E+05
         7   7 -1.536843E+07 -4.064256E+06 -2.222217E+06 -4.917783E+06  1.163861E+04 -1.215870E+05
         7   8 -1.625739E+07 -4.095806E+06 -2.396211E+06 -4.848907E+06  4.063162E+04 -1.461059E+05
         7   9 -1.615770E+07 -4.560826E+06 -2.469122E+06 -5.288084E+06  6.005890E+04 -1.418664E+05
         7  10  1.074823E+06  1.801528E+06  2.237196E+06 -8.610399E+05 -9.599928E-09  5.820276E-09
         7  11  9.761414E+05  2.224616E+06  2.305540E+06 -4.046054E+05 -6.340141E-11  7.953966E-09
         7  12  1.875767E+06  2.224049E+06  2.485439E+06 -4.542392E+05  2.572873E-09 -4.189354E-10
         7  13 -7.179297E+06 -1.132430E+06  1.049716E+04 -2.901471E+06 -7.337840E-09  1.234332E-09
         7  14 -7.676477E+06 -9.371874E+05 -4.199247E+04 -2.640709E+06  2.296124E-09  1.058079E-08
         7  15 -7.180316E+06 -1.170579E+06  1.187346E+04 -2.887154E+06  4.724220E-09  4.615973E-09
         7  16 -1.536843E+07 -4.064272E+06 -2.222245E+06 -4.917782E+06 -2.311448E-09  7.111095E-09
         7  17 -1.625740E+07 -4.095829E+06 -2.396254E+06 -4.848902E+06 -3.411023E-09 -9.250505E-09
         7  18 -1.615771E+07 -4.560849E+06 -2.469166E+06 -5.288077E+06  1.938099E-09  1.045665E-08
         7  19  1.074828E+06  1.801542E+06  2.237222E+06 -8.610428E+05 -3.122733E+04  1.146830E+05
         7  20  9.761493E+05  2.224639E+06  2.305583E+06 -4.046109E+05 -4.776671E+04  1.432540E+05
         7  21  1.875775E+06  2.224072E+06  2.485483E+06 -4.542455E+05 -5.489263E+04  1.434360E+05
         7  22 -7.179293E+06 -1.132415E+06  1.052417E+04 -2.901473E+06 -2.136068E+04  1.181589E+05
         7  23 -7.676469E+06 -9.371645E+05 -4.194964E+04 -2.640714E+06 -4.417086E+04  1.446891E+05
         7  24 -7.180308E+06 -1.170556E+06  1.191773E+04 -2.887161E+06 -5.749604E+04  1.426427E+05
         7  25 -1.536843E+07 -4.064256E+06 -2.222217E+06 -4.917783E+06 -1.163861E+04  1.215870E+05
         7  26 -1.625739E+07 -4.095806E+06 -2.396211E+06 -4.848907E+06 -4.063162E+04  1.461059E+05
         7  27 -1.615770E+07 -4.560826E+06 -2.469122E+06 -5.288084E+06 -6.005890E+04  1.418664E+05
         8   1  1.783253E+06  2.553037E+06  2.532699E+06 -1.053743E+05  5.309166E+04 -1.452259E+05
         8   2  1.330232E+06  2.181864E+06  2.367880E+06 -4.909207E+05  5.951440E+04 -1.432473E+05
         8   3  8.732225E+05  2.425835E+06  2.321896E+06 -1.885831E+05  5.414927E+04 -1.128944E+05
         8   4 -7.404568E+06 -9.375875E+05  1.386384E+04 -2.621998E+06  4.988633E+04 -1.466160E+05
         8   5 -7.398110E+06 -1.227392E+06 -4.358787E+04 -2.973175E+06  6.261949E+04 -1.421905E+05
         8   6 -7.401968E+06 -9.062264E+05  1.245002E+04 -2.636388E+06  6.349087E+04 -1.091922E+05
         8   7 -1.651119E+07 -4.423278E+06 -2.512715E+06 -5.104979E+06  4.673548E+04 -1.479877E+05
         8   8 -1.605287E+07 -4.631248E+06 -2.462158E+06 -5.423611E+06  6.567707E+04 -1.411543E+05
         8   9 -1.561079E+07 -4.232494E+06 -2.303507E+06 -5.054202E+06  7.269269E+04 -1.055490E+05
         8  10  1.783244E+06  2.553014E+06  2.532654E+06 -1.053681E+05  8.931866E-09 -5.602176E-09
         8  11  1.330223E+06  2.181842E+06  2.367835E+06 -4.909138E+05  1.304144E-09 -1.310798E-08
         8  12  8.732159E+05  2.425821E+06  2.321867E+06 -1.885782E+05 -2.539199E-09  5.039889E-09
         8  13 -7.404577E+06 -9.376111E+05  1.381895E+04 -2.621992E+06  1.183512E-08  1.749130E-09
         8  14 -7.398120E+06 -1.227414E+06 -4.363305E+04 -2.973168E+06  1.011828E-08 -6.317667E-09
         8  15 -7.401975E+06 -9.062403E+05  1.242014E+04 -2.636382E+06  5.318058E-09 -1.496198E-09
         8  16 -1.651120E+07 -4.423302E+06 -2.512761E+06 -5.104973E+06  3.398858E-09  4.651640E-09
         8  17 -1.605288E+07 -4.631270E+06 -2.462204E+06 -5.423603E+06  1.255622E-09 -1.810353E-08
         8  18 -1.561079E+07 -4.232507E+06 -2.303538E+06 -5.054196E+06 -1.402271E-09  2.722892E-09
         8  19  1.783253E+06  2.553037E+06  2.532699E+06 -1.053743E+05 -5.309166E+04  1.452259E+05
         8  20  1.330232E+06  2.181864E+06  2.367880E+06 -4.909207E+05 -5.951440E+04  1.432473E+05
         8  21  8.732225E+05  2.425835E+06  2.321896E+06 -1.885831E+05 -5.414927E+04  1.128944E+05
         8  22 -7.404568E+06 -9.375875E+05  1.386384E+04 -2.621998E+06 -4.988633E+04  1.466160E+05
         8  23 -7.398110E+06 -1.227392E+06 -4.358787E+04 -2.973175E+06 -6.261949E+04  1.421905E+05
         8  24 -7.401968E+06 -9.062264E+05  1.245002E+04 -2.636388E+06 -6.349087E+04  1.091922E+05
         8  25 -1.651119E+07 -4.423278E+06 -2.512715E+06 -5.104979E+06 -4.673548E+04  1.479877E+05
         8  26 -1.605287E+07 -4.631248E+06 -2.462158E+06 -5.423611E+06 -6.567707E+04  1.411543E+05
         8  27 -1.561079E+07 -4.232494E+06 -2.303507E+06 -5.054202E+06 -7.269269E+04  1.055490E+05
         9   1 -2.698321E+06  1.253318E+06  1.370190E+06 -9.911295E+05  4.654560E+04 -9.267355E+04
         9   2 -3.071987E+06  2.254119E+05  1.079160E+06 -1.956388E+06  4.868006E+04 -5.686261E+04
         9   3 -4.715497E+06  5.016676E+05  7.842757E+05 -1.565200E+06  4.540698E+04 -1.005531E+04
         9   4 -7.670921E+06 -7.660857E+05 -1.940547E+04 -2.475153E+06  5.190029E+04 -9.050214E+04
         9   5 -7.034519E+06 -1.407052E+06 -3.516601E+04 -3.158836E+06  5.642573E+04 -5.361422E+04
         9   6 -7.670645E+06 -7.443985E+05 -5.682199E+04 -2.485883E+06  5.555276E+04 -5.681155E+03
         9   7 -1.261941E+07 -2.783308E+06 -1.411358E+06 -3.948195E+06  5.720647E+04 -8.835126E+04
         9   8 -1.098171E+07 -3.038012E+06 -1.151005E+06 -4.354143E+06  6.411484E+04 -5.038999E+04
         9   9 -1.061724E+07 -1.989533E+06 -8.987783E+05 -3.402456E+06  6.564288E+04 -1.331407E+03
         9  10 -2.698325E+06  1.253309E+06  1.370170E+06 -9.911261E+05  3.954264E-09 -1.694459E-09
         9  11 -3.071990E+06  2.254078E+05  1.079150E+06 -1.956386E+06  7.554958E-09  8.858419E-09
         9  12 -4.715499E+06  5.016670E+05  7.842716E+05 -1.565200E+06 -6.964323E-09 -9.894394E-09
         9  13 -7.670927E+06 -7.660951E+05 -1.942586E+04 -2.475150E+06  5.908077E-09 -1.027977E-08
         9  14 -7.034523E+06 -1.407056E+06 -3.517738E+04 -3.158834E+06  3.484855E-09  1.748035E-08
         9  15 -7.670649E+06 -7.443993E+05 -5.682791E+04 -2.485882E+06  6.054884E-09  1.503350E-09
         9  16 -1.261941E+07 -2.783317E+06 -1.411379E+06 -3.948190E+06 -6.876410E-09 -1.004323E-08
         9  17 -1.098172E+07 -3.038016E+06 -1.151018E+06 -4.354140E+06  9.796479E-09 -3.343814E-08
         9  18 -1.061724E+07 -1.989534E+06 -8.987865E+05 -3.402456E+06 -1.738883E-09 -9.348946E-09
         9  19 -2.698321E+06  1.253318E+06  1.370190E+06 -9.911295E+05 -4.654560E+04  9.267355E+04
         9  20 -3.071987E+06  2.254119E+05  1.079160E+06 -1.956388E+06 -4.868006E+04  5.686261E+04
         9  21 -4.715497E+06  5.016676E+05  7.842757E+05 -1.565200E+06 -4.540698E+04  1.005531E+04
         9  22 -7.670921E+06 -7.660857E+05 -1.940547E+04 -2.475153E+06 -5.190029E+04  9.050214E+04
         9  23 -7.034519E+06 -1.407052E+06 -3.516601E+04 -3.158836E+06 -5.642573E+04  5.361422E+04
         9  24 -7.670645E+06 -7.443985E+05 -5.682199E+04 -2.485883E+06 -5.555276E+04  5.681155E+03
         9  25 -1.261941E+07 -2.783308E+06 -1.411358E+06 -3.948195E+06 -5.720647E+04  8.835126E+04
         9  26 -1.098171E+07 -3.038012E+06 -1.151005E+06 -4.354143E+06 -6.411484E+04  5.038999E+04
         9  27 -1.061724E+07 -1.989533E+06 -8.987783E+05 -3.402456E+06 -6.564288E+04  1.331407E+03
        10   1 -9.540364E+06 -1.502708E+06 -6.054325E+05 -3.070374E+06  3.854622E+04  2.422776E+04
        10   2 -9.874088E+06 -2.588750E+06 -9.499125E+05 -4.052368E+06  9.427854E+04  9.989332E+04
        10   3 -1.167782E+07 -2.476815E+06 -1.404151E+06 -3.585514E+06  1.612069E+05  1.500636E+05
        10   4 -7.702613E+06 -7.136007E+05 -7.658722E+04 -2.487616E+06  5.119157E+04  2.970081E+04
        10   5 -6.981824E+06 -1.394784E+06 -1.333663E+05 -3.176677E+06  1.016119E+05  1.029995E+05
        10   6 -7.729785E+06 -8.765176E+05 -2.948692E+05 -2.417852E+06  1.633463E+05  1.509184E+05
        10   7 -5.861537E+06  7.590217E+04  4.519207E+05 -1.903219E+06  6.387975E+04  3.519317E+04
        10   8 -4.081327E+06 -2.000158E+05  6.823693E+05 -2.297163E+06  1.089829E+05  1.061217E+05
        10   9 -3.766415E+06  7.251046E+05  8.129164E+05 -1.243286E+06  1.654971E+05  1.517780E+05
        10  10 -9.540366E+06 -1.502709E+06 -6.054365E+05 -3.070375E+06  3.852547E-09  2.616041E-09
        10  11 -9.874101E+06 -2.588763E+06 -9.499485E+05 -4.052375E+06  2.210740E-09 -3.877833E-08
        10  12 -1.167785E+07 -2.476846E+06 -1.404244E+06 -3.585534E+06 -1.140140E-08  1.602840E-10
        10  13 -7.702616E+06 -7.136023E+05 -7.659389E+04 -2.487618E+06  3.648465E-09 -9.381954E-09
        10  14 -6.981838E+06 -1.394798E+06 -1.334061E+05 -3.176686E+06 -7.987663E-09  2.231839E-09
        10  15 -7.729820E+06 -8.765494E+05 -2.949631E+05 -2.417872E+06  6.879608E-09 -8.550308E-09
        10  16 -5.861542E+06  7.589973E+04  4.519106E+05 -1.903221E+06 -2.992695E-09  2.808389E-08
        10  17 -4.081343E+06 -2.000311E+05  6.823255E+05 -2.297172E+06 -1.489052E-09  1.497210E-09
        10  18 -3.766451E+06  7.250725E+05  8.128212E+05 -1.243307E+06  1.213530E-08 -1.029558E-08
        10  19 -9.540364E+06 -1.502708E+06 -6.054325E+05 -3.070374E+06 -3.854622E+04 -2.422776E+04
        10  20 -9.874088E+06 -2.588750E+06 -9.499125E+05 -4.052368E+06 -9.427854E+04 -9.989332E+04
        10  21 -1.167782E+07 -2.476815E+06 -1.404151E+06 -3.585514E+06 -1.612069E+05 -1.500636E+05
        10  22 -7.702613E+06 -7.136007E+05 -7.658722E+04 -2.487616E+06 -5.119157E+04 -2.970081E+04
        10  23 -6.981824E+06 -1.394784E+06 -1.333663E+05 -3.176677E+06 -1.016119E+05 -1.029995E+05
        10  24 -7.729785E+06 -8.765176E+05 -2.948692E+05 -2.417852E+06 -1.633463E+05 -1.509184E+05
        10  25 -5.861537E+06  7.590217E+04  4.519207E+05 -1.903219E+06 -6.387975E+04 -3.519317E+04
        10  26 -4.081327E+06 -2.000158E+05  6.823693E+05 -2.297163E+06 -1.089829E+05 -1.061217E+05
        10  27 -3.766415E+06  7.251046E+05  8.129164E+05 -1.243286E+06 -1.654971E+05 -1.517780E+05
        11   1 -1.508185E+07 -4.013453E+06 -2.484838E+06 -4.976337E+06  1.679723E+05  1.979044E+05
        11   2 -1.540620E+07 -4.270329E+06 -2.885870E+06 -5.369972E+06  4.972839E+05  3.763234E+05
        11   3 -1.651725E+07 -5.111395E+06 -3.811627E+06 -4.578895E+06  8.854774E+05  4.056863E+05
        11   4 -7.519384E+06 -8.453641E+05 -3.308596E+05 -2.652725E+06  1.945071E+05  2.088499E+05
        11   5 -7.208777E+06 -1.053231E+06 -5.993682E+05 -3.053180E+06  4.954319E+05  3.753659E+05
        11   6 -7.668183E+06 -1.826129E+06 -1.362569E+06 -2.271001E+06  8.552886E+05  3.936767E+05
        11   7  9.952722E+04  2.328756E+06  1.817493E+06 -3.021840E+05  2.213931E+05  2.199505E+05
        11   8  1.054679E+06  2.168591E+06  1.680776E+06 -7.080199E+05  4.934995E+05  3.743790E+05
        11   9  1.257345E+06  1.462429E+06  1.079241E+06  6.659719E+04  8.245181E+05  3.814657E+05
        11  10 -1.508189E+07 -4.013503E+06 -2.484967E+06 -4.976364E+06 -1.125483E-09 -1.396092E-09
        11  11 -1.540651E+07 -4.270552E+06 -2.886621E+06 -5.370125E+06  1.650889E-09 -4.407248E-10
        11  12 -1.651816E+07 -5.111794E+06 -3.813462E+06 -4.579189E+06  2.433011E-09  3.673140E-10
        11  13 -7.519436E+06 -8.454214E+05 -3.310142E+05 -2.652758E+06  5.261651E-09 -9.517526E-10
        11  14 -7.209082E+06 -1.053450E+06 -6.001035E+05 -3.053331E+06 -4.961633E-09  2.411079E-08
        11  15 -7.669019E+06 -1.826497E+06 -1.364258E+06 -2.271274E+06 -2.090592E-09 -1.083518E-09
        11  16  9.946170E+04  2.328691E+06  1.817310E+06 -3.022231E+05  1.206693E-08 -1.441292E-09
        11  17  1.054380E+06  2.168375E+06  1.680056E+06 -7.081684E+05  3.314171E-09  1.940333E-08
        11  18  1.256577E+06  1.462091E+06  1.077693E+06  6.634445E+04 -2.246586E-09  3.549943E-09
        11  19 -1.508185E+07 -4.013453E+06 -2.484838E+06 -4.976337E+06 -1.679723E+05 -1.979044E+05
        11  20 -1.540620E+07 -4.270329E+06 -2.885870E+06 -5.369972E+06 -4.972839E+05 -3.763234E+05
        11  21 -1.651725E+07 -5.111395E+06 -3.811627E+06 -4.578895E+06 -8.854774E+05 -4.056863E+05
        11  22 -7.519384E+06 -8.453641E+05 -3.308596E+05 -2.652725E+06 -1.945071E+05 -2.088499E+05
        11  23 -7.208777E+06 -1.053231E+06 -5.993682E+05 -3.053180E+06 -4.954319E+05 -3.753659E+05
        11  24 -7.668183E+06 -1.826129E+06 -1.362569E+06 -2.271001E+06 -8.552886E+05 -3.936767E+05
        11  25  9.952722E+04  2.328756E+06  1.817493E+06 -3.021840E+05 -2.213931E+05 -2.199505E+05
        11  26  1.054679E+06  2.168591E+06  1.680776E+06 -7.080199E+05 -4.934995E+05 -3.743790E+05
        11  27  1.257345E+06  1.462429E+06  1.079241E+06  6.659719E+04 -8.245181E+05 -3.814657E+05
        12   1  1.443000E+05  5.333145E+04  1.529702E+05 -5.233088E+03  1.738531E+03 -1.080071E+03
        12   2  1.409762E+05  2.897052E+04  1.494184E+05  4.074107E+03  1.935480E+03 -5.259537E+03
        12   3  1.485650E+05  4.777186E+04  1.592976E+05 -8.272047E+03  1.401798E+03 -9.444118E+03
        12   4  7.562380E+02 -5.207533E+05  9.470788E+03 -4.826927E+03  1.738659E+03 -1.106148E+03
        12   5 -1.888736E+03 -5.423462E+05  6.610622E+03  6.026373E+03  1.935533E+03 -5.247191E+03
        12   6  6.361243E+03 -5.208014E+05  1.715632E+04 -4.774837E+03  1.401455E+03 -9.393367E+03
        12   7 -1.428124E+05 -1.094539E+06 -1.340536E+05 -4.421062E+03  1.738788E+03 -1.132201E+03
        12   8 -1.447784E+05 -1.113367E+06 -1.362219E+05  7.977183E+03  1.935586E+03 -5.234854E+03
        12   9 -1.358669E+05 -1.089082E+06 -1.250094E+05 -1.280224E+03  1.401113E+03 -9.342659E+03
        12  10  1.443000E+05  5.333145E+04  1.529702E+05 -5.233086E+03 -7.000988E-09 -3.704093E-10
        12  11  1.409762E+05  2.897049E+04  1.494184E+05  4.074116E+03 -6.552808E-09 -1.045264E-09
        12  12  1.485649E+05  4.777176E+04  1.592975E+05 -8.272037E+03  5.859946E-10 -1.151414E-09
        12  13  7.562344E+02 -5.207533E+05  9.470780E+03 -4.826926E+03 -4.982827E-09 -5.668033E-10
        12  14 -1.888748E+03 -5.423462E+05  6.610564E+03  6.026381E+03 -3.947894E-09 -3.972244E-11
        12  15  6.361218E+03 -5.208015E+05  1.715615E+04 -4.774826E+03  6.050949E-09 -4.974046E-09
        12  16 -1.428124E+05 -1.094539E+06 -1.340536E+05 -4.421061E+03 -5.410174E-09  3.468178E-10
        12  17 -1.447784E+05 -1.113367E+06 -1.362219E+05  7.977192E+03 -5.155401E-09  1.587199E-09
        12  18 -1.358669E+05 -1.089082E+06 -1.250096E+05 -1.280214E+03 -7.112436E-10 -5.408076E-10
        12  19  1.443000E+05  5.333145E+04  1.529702E+05 -5.233088E+03 -1.738531E+03  1.080071E+03
        12  20  1.409762E+05  2.897052E+04  1.494184E+05  4.074107E+03 -1.935480E+03  5.259537E+03
        12  21  1.485650E+05  4.777186E+04  1.592976E+05 -8.272047E+03 -1.401798E+03  9.444118E+03
        12  22  7.562380E+02 -5.207533E+05  9.470788E+03 -4.826927E+03 -1.738659E+03  1.106148E+03
        12  23 -1.888736E+03 -5.423462E+05  6.610622E+03  6.026373E+03 -1.935533E+03  5.247191E+03
        12  24  6.361243E+03 -5.208014E+05  1.715632E+04 -4.774837E+03 -1.401455E+03  9.393367E+03
        12  25 -1.428124E+05 -1.094539E+06 -1.340536E+05 -4.421062E+03 -1.738788E+03  1.132201E+03
        12  26 -1.447784E+05 -1.113367E+06 -1.362219E+05  7.977183E+03 -1.935586E+03  5.234854E+03
        12  27 -1.358669E+05 -1.089082E+06 -1.250094E+05 -1.280224E+03 -1.401113E+03  9.342659E+03
        13   1  3.753666E+04 -3.684671E+05  5.761489E+04 -1.248410E+04  1.015419E+03 -1.287057E+04
        13   2  3.109223E+04 -3.817197E+05  6.636860E+04  1.256221E+04  7.705851E+02 -2.771161E+04
        13   3  6.671631E+04 -3.809425E+05  9.562104E+04 -1.088110E+04  5.442678E+02 -4.255328E+04
        13   4 -2.179276E+03 -5.271784E+05  1.794099E+04 -1.090185E+04  1.015221E+03 -1.284936E+04
        13   5 -7.054041E+03 -5.342019E+05  2.824246E+04  1.352700E+04  7.703554E+02 -2.768811E+04
        13   6  3.014439E+04 -5.271937E+05  5.904431E+04 -1.053449E+04  5.440361E+02 -4.252764E+04
        13   7 -4.189711E+04 -6.858669E+05 -2.173481E+04 -9.319948E+03  1.015022E+03 -1.282815E+04
        13   8 -4.520206E+04 -6.866630E+05 -9.885435E+03  1.449160E+04  7.701257E+02 -2.766461E+04
        13   9 -6.429142E+03 -6.734254E+05  2.246598E+04 -1.018792E+04  5.438043E+02 -4.250201E+04
        13  10  3.753661E+04 -3.684673E+05  5.761457E+04 -1.248409E+04  8.264189E-09 -4.989045E-10
        13  11  3.109202E+04 -3.817205E+05  6.636715E+04  1.256223E+04  2.891890E-10 -3.578957E-09
        13  12  6.671583E+04 -3.809445E+05  9.561763E+04 -1.088108E+04 -1.843021E-09 -2.547163E-09
        13  13 -2.179321E+03 -5.271786E+05  1.794068E+04 -1.090184E+04  7.933036E-10 -5.199868E-09
        13  14 -7.054247E+03 -5.342027E+05  2.824102E+04  1.352701E+04  9.703009E-10 -8.260114E-12
        13  15  3.014391E+04 -5.271956E+05  5.904091E+04 -1.053447E+04 -1.392226E-09 -7.036439E-09
        13  16 -4.189715E+04 -6.858671E+05 -2.173512E+04 -9.319937E+03 -4.665700E-09  4.999682E-10
        13  17 -4.520227E+04 -6.866638E+05 -9.886876E+03  1.449162E+04 -4.832841E-09  4.985464E-09
        13  18 -6.429628E+03 -6.734274E+05  2.246258E+04 -1.018790E+04 -3.345065E-09  8.805589E-11
        13  19  3.753666E+04 -3.684671E+05  5.761489E+04 -1.248410E+04 -1.015419E+03  1.287057E+04
        13  20  3.109223E+04 -3.817197E+05  6.636860E+04  1.256221E+04 -7.705851E+02  2.771161E+04
        13  21  6.671631E+04 -3.809425E+05  9.562104E+04 -1.088110E+04 -5.442678E+02  4.255328E+04
        13  22 -2.179276E+03 -5.271784E+05  1.794099E+04 -1.090185E+04 -1.015221E+03  1.284936E+04
        13  23 -7.054041E+03 -5.342019E+05  2.824246E+04  1.352700E+04 -7.703554E+02  2.768811E+04
        13  24  3.014439E+04 -5.271937E+05  5.904431E+04 -1.053449E+04 -5.440361E+02  4.252764E+04
        13  25 -4.189711E+04 -6.858669E+05 -2.173481E+04 -9.319948E+03 -1.015022E+03  1.282815E+04
        13  26 -4.520206E+04 -6.866630E+05 -9.885435E+03  1.449160E+04 -7.701257E+02  2.766461E+04
        13  27 -6.429142E+03 -6.734254E+05  2.246598E+04 -1.018792E+04 -5.438043E+02  4.250201E+04
        14   1 -9.852956E+04 -8.816855E+05 -2.110985E+04 -9.443556E+03 -2.749608E+01 -5.465217E+04
        14   2 -1.417253E+05 -9.344004E+05  1.226230E+04  1.532219E+04 -4.768694E+02 -1.133405E+05
        14   3  9.859337E+04 -8.918844E+05  1.581179E+05  2.015159E+02  5.104366E+02 -1.720149E+05
        14   4 -5.386685E+03 -5.092122E+05  7.205040E+04 -9.366683E+03 -2.846834E+01 -5.458773E+04
        14   5 -4.717726E+04 -5.567480E+05  1.067180E+05  1.122239E+04 -4.762026E+02 -1.133763E+05
        14   6  1.944773E+05 -5.090756E+05  2.538917E+05 -8.073999E+03  5.131163E+02 -1.721515E+05
        14   7  8.774571E+04 -1.366131E+05  1.652002E+05 -9.289414E+03 -2.944032E+01 -5.452324E+04
        14   8  4.736004E+04 -1.789661E+05  2.011628E+05  7.120380E+03 -4.755358E+02 -1.134121E+05
        14   9  2.903504E+05 -1.261337E+05  3.496545E+05 -1.635441E+04  5.157983E+02 -1.722881E+05
        14  10 -9.853036E+04 -8.816887E+05 -2.111547E+04 -9.443557E+03 -2.625889E-09  7.699361E-10
        14  11 -1.417288E+05 -9.344142E+05  1.223812E+04  1.532215E+04  2.967800E-09 -2.757571E-09
        14  12  9.858542E+04 -8.919162E+05  1.580622E+05  2.015866E+02 -9.573573E-10 -2.457804E-09
        14  13 -5.387486E+03 -5.092154E+05  7.204480E+04 -9.366685E+03  3.939047E-09 -5.989965E-09
        14  14 -4.718071E+04 -5.567618E+05  1.066938E+05  1.122235E+04  4.706094E-10 -2.563250E-11
        14  15  1.944694E+05 -5.091074E+05  2.538360E+05 -8.073928E+03  4.879531E-09 -3.762991E-09
        14  16  8.774491E+04 -1.366163E+05  1.651946E+05 -9.289416E+03 -3.739935E-09 -7.766669E-10
        14  17  4.735659E+04 -1.789799E+05  2.011387E+05  7.120337E+03  1.390356E-08  3.872659E-09
        14  18  2.903425E+05 -1.261656E+05  3.495987E+05 -1.635434E+04  4.795071E-10  1.200370E-09
        14  19 -9.852956E+04 -8.816855E+05 -2.110985E+04 -9.443556E+03  2.749608E+01  5.465217E+04
        14  20 -1.417253E+05 -9.344004E+05  1.226230E+04  1.532219E+04  4.768694E+02  1.133405E+05
        14  21  9.859337E+04 -8.918844E+05  1.581179E+05  2.015159E+02 -5.104366E+02  1.720149E+05
        14  22 -5.386685E+03 -5.092122E+05  7.205040E+04 -9.366683E+03  2.846834E+01  5.458773E+04
        14  23 -4.717726E+04 -5.567480E+05  1.067180E+05  1.122239E+04  4.762026E+02  1.133763E+05
        14  24  1.944773E+05 -5.090756E+05  2.538917E+05 -8.073999E+03 -5.131163E+02  1.721515E+05
        14  25  8.774571E+04 -1.366131E+05  1.652002E+05 -9.289414E+03  2.944032E+01  5.452324E+04
        14  26  4.736004E+04 -1.789661E+05  2.011628E+05  7.120380E+03  4.755358E+02  1.134121E+05
        14  27  2.903504E+05 -1.261337E+05  3.496545E+05 -1.635441E+04 -5.157983E+02  1.722881E+05
        15   1  2.334618E+05 -4.423934E+05  2.238969E+05 -4.240317E+02  3.351375E+04 -2.250781E+01
        15   2  2.328443E+05 -4.450786E+05  2.233404E+05 -3.582898E+01  3.345195E+04 -2.845471E+02
        15   3  2.324421E+05 -4.469132E+05  2.231713E+05 -1.142307E+03  3.323154E+04 -5.469115E+02
        15   4 -1.481904E+02 -1.385969E+06  3.411139E+02 -3.322117E+02  3.351718E+04 -3.251343E+01
        15   5 -2.033387E+02 -1.386385E+06  3.285722E+02  4.152816E+02  3.345531E+04 -2.029751E+02
        15   6 -5.951556E+01 -1.385967E+06  6.399837E+02 -3.320342E+02  3.323473E+04 -3.737616E+02
        15   7 -2.338222E+05 -2.328724E+06 -2.232766E+05 -2.405024E+02  3.352062E+04 -4.250387E+01
        15   8 -2.333147E+05 -2.326876E+06 -2.227449E+05  8.658334E+02  3.345868E+04 -1.215260E+02
        15   9 -2.326246E+05 -2.324210E+06 -2.219528E+05  4.772346E+02  3.323792E+04 -2.008720E+02
        15  10  2.334606E+05 -4.423937E+05  2.238948E+05 -4.240311E+02  1.768089E-09  3.807694E-09
        15  11  2.328431E+05 -4.450789E+05  2.233383E+05 -3.582132E+01  1.249580E-09  2.868019E-09
        15  12  2.324409E+05 -4.469135E+05  2.231693E+05 -1.142292E+03  2.866489E-09  5.611630E-10
        15  13 -1.493959E+02 -1.385969E+06  3.390042E+02 -3.322109E+02 -1.520972E-09  6.964217E-11
        15  14 -2.045399E+02 -1.386385E+06  3.264702E+02  4.152871E+02 -1.865371E-09  3.621802E-11
        15  15 -6.070092E+01 -1.385968E+06  6.379091E+02 -3.320242E+02  2.595152E-09  3.472157E-10
        15  16 -2.338234E+05 -2.328725E+06 -2.232787E+05 -2.405013E+02  2.826305E-09 -3.909435E-09
        15  17 -2.333159E+05 -2.326876E+06 -2.227470E+05  8.658367E+02  5.051609E-09 -4.231643E-09
        15  18 -2.326258E+05 -2.324210E+06 -2.219548E+05  4.772400E+02 -4.717678E-10 -9.250840E-10
        15  19  2.334618E+05 -4.423934E+05  2.238969E+05 -4.240317E+02 -3.351375E+04  2.250781E+01
        15  20  2.328443E+05 -4.450786E+05  2.233404E+05 -3.582898E+01 -3.345195E+04  2.845471E+02
        15  21  2.324421E+05 -4.469132E+05  2.231713E+05 -1.142307E+03 -3.323154E+04  5.469115E+02
        15  22 -1.481904E+02 -1.385969E+06  3.411139E+02 -3.322117E+02 -3.351718E+04  3.251343E+01
        15  23 -2.033387E+02 -1.386385E+06  3.285722E+02  4.152816E+02 -3.345531E+04  2.029751E+02
        15  24 -5.951556E+01 -1.385967E+06  6.399837E+02 -3.320342E+02 -3.323473E+04  3.737616E+02
        15  25 -2.338222E+05 -2.328724E+06 -2.232766E+05 -2.405024E+02 -3.352062E+04  4.250387E+01
        15  26 -2.333147E+05 -2.326876E+06 -2.227449E+05  8.658334E+02 -3.345868E+04  1.215260E+02
        15  27 -2.326246E+05 -2.324210E+06 -2.219528E+05  4.772346E+02 -3.323792E+04  2.008720E+02
        16   1  2.309832E+05 -4.521346E+05  2.219790E+05 -2.106696E+03  3.328474E+04 -3.234162E+02
        16   2  2.292007E+05 -4.594972E+05  2.208197E+05 -1.864999E+01  3.293715E+04 -1.710100E+03
        16   3  2.287542E+05 -4.656245E+05  2.210517E+05 -2.388211E+03  3.126306E+04 -3.100529E+03
        16   4 -1.940468E+02 -1.385905E+06  7.888714E+02 -9.912116E+02  3.328837E+04 -5.034134E+02
        16   5 -2.995694E+02 -1.386455E+06  1.202046E+03  1.238910E+03  3.293934E+04 -1.125395E+03
        16   6  7.986211E+02 -1.385902E+06  2.475694E+03 -9.889901E+02  3.126293E+04 -1.751138E+03
        16   7 -2.314340E+05 -2.318874E+06 -2.204619E+05  1.228692E+02  3.329200E+04 -6.831406E+02
        16   8 -2.298616E+05 -2.312621E+06 -2.184755E+05  2.494956E+03  3.294154E+04 -5.415588E+02
        16   9 -2.272180E+05 -2.305400E+06 -2.161595E+05  4.086099E+02  3.126280E+04 -4.037370E+02
        16  10  2.309820E+05 -4.521349E+05  2.219769E+05 -2.106687E+03  4.328269E-09 -1.283915E-09
        16  11  2.291995E+05 -4.594975E+05  2.208177E+05 -1.860463E+01  4.431290E-09 -7.985415E-09
        16  12  2.287531E+05 -4.656248E+05  2.210499E+05 -2.388133E+03 -6.711780E-11 -9.376995E-09
        16  13 -1.952360E+02 -1.385906E+06  7.867900E+02 -9.911981E+02 -2.914525E-09  8.277647E-10
        16  14 -3.007341E+02 -1.386455E+06  1.200006E+03  1.238940E+03 -2.130028E-09  3.567848E-11
        16  15  7.975715E+02 -1.385902E+06  2.473852E+03 -9.889460E+02 -5.629437E-09  7.801707E-10
        16  16 -2.314352E+05 -2.318874E+06 -2.204640E+05  1.228876E+02 -8.735758E-10  2.059192E-09
        16  17 -2.298628E+05 -2.312621E+06 -2.184775E+05  2.494971E+03  2.222309E-09  3.878251E-09
        16  18 -2.272191E+05 -2.305400E+06 -2.161614E+05  4.086200E+02 -1.573367E-09  8.736862E-09
        16  19  2.309832E+05 -4.521346E+05  2.219790E+05 -2.106696E+03 -3.328474E+04  3.234162E+02
        16  20  2.292007E+05 -4.594972E+05  2.208197E+05 -1.864999E+01 -3.293715E+04  1.710100E+03
        16  21  2.287542E+05 -4.656245E+05  2.210517E+05 -2.388211E+03 -3.126306E+04  3.100529E+03
        16  22 -1.940468E+02 -1.385905E+06  7.888714E+02 -9.912116E+02 -3.328837E+04  5.034134E+02
        16  23 -2.995694E+02 -1.386455E+06  1.202046E+03  1.238910E+03 -3.293934E+04  1.125395E+03
        16  24  7.986211E+02 -1.385902E+06  2.475694E+03 -9.889901E+02 -3.126293E+04  1.751138E+03
        16  25 -2.314340E+05 -2.318874E+06 -2.204619E+05  1.228692E+02 -3.329200E+04  6.831406E+02
        16  26 -2.298616E+05 -2.312621E+06 -2.184755E+05  2.494956E+03 -3.294154E+04  5.415588E+02
        16  27 -2.272180E+05 -2.305400E+06 -2.161595E+05  4.086099E+02 -3.126280E+04  4.037370E+02
        17   1  2.245531E+05 -4.753203E+05  2.180971E+05 -4.933025E+03  3.367864E+04  2.393381E+03
        17   2  2.210168E+05 -4.891843E+05  2.175536E+05  1.096402E+03  3.181243E+04 -1.159653E+04
        17   3  2.311538E+05 -4.971727E+05  2.296751E+05 -7.272496E+02  1.013954E+04 -2.566006E+04
        17   4 -6.509884E+02 -1.385277E+06  3.011043E+03 -1.755313E+03  3.369436E+04 -2.209388E+03
        17   5 -1.334244E+03 -1.387220E+06  4.735792E+03  2.189269E+03  3.179403E+04 -4.790868E+03
        17   6  9.682687E+03 -1.385265E+06  1.120101E+04 -1.720190E+03  1.007435E+04 -7.446286E+03
        17   7 -2.259144E+05 -2.294471E+06 -2.121323E+05  1.418221E+03  3.371005E+04 -6.805442E+03
        17   8 -2.237433E+05 -2.284512E+06 -2.081379E+05  3.281125E+03  3.177565E+04  2.004995E+03
        17   9 -2.118470E+05 -2.272638E+06 -2.073301E+05 -2.711057E+03  1.000905E+04  1.074146E+04
        17  10  2.245518E+05 -4.753206E+05  2.180950E+05 -4.933090E+03 -8.093218E-09 -4.244396E-09
        17  11  2.210157E+05 -4.891847E+05  2.175514E+05  1.096700E+03 -8.090663E-09 -6.740383E-09
        17  12  2.311535E+05 -4.971734E+05  2.296737E+05 -7.270401E+02 -3.961524E-09 -1.035810E-09
        17  13 -6.522080E+02 -1.385277E+06  3.008901E+03 -1.755253E+03 -6.805878E-10  1.487654E-09
        17  14 -1.335335E+03 -1.387220E+06  4.733850E+03  2.189392E+03 -1.357604E-09  6.298086E-11
        17  15  9.682564E+03 -1.385265E+06  1.120072E+04 -1.720130E+03 -1.066057E-09  1.223745E-09
        17  16 -2.259157E+05 -2.294471E+06 -2.121346E+05  1.418406E+03 -1.930043E-09  5.797028E-09
        17  17 -2.237444E+05 -2.284513E+06 -2.081398E+05  3.281074E+03 -5.792410E-09  9.383848E-11
        17  18 -2.118472E+05 -2.272638E+06 -2.073305E+05 -2.711144E+03 -2.566320E-09 -4.456214E-11
        17  19  2.245531E+05 -4.753203E+05  2.180971E+05 -4.933025E+03 -3.367864E+04 -2.393381E+03
        17  20  2.210168E+05 -4.891843E+05  2.175536E+05  1.096402E+03 -3.181243E+04  1.159653E+04
        17  21  2.311538E+05 -4.971727E+05  2.296751E+05 -7.272496E+02 -1.013954E+04  2.566006E+04
        17  22 -6.509884E+02 -1.385277E+06  3.011043E+03 -1.755313E+03 -3.369436E+04  2.209388E+03
        17  23 -1.334244E+03 -1.387220E+06  4.735792E+03  2.189269E+03 -3.179403E+04  4.790868E+03
        17  24  9.682687E+03 -1.385265E+06  1.120101E+04 -1.720190E+03 -1.007435E+04  7.446286E+03
        17  25 -2.259144E+05 -2.294471E+06 -2.121323E+05  1.418221E+03 -3.371005E+04  6.805442E+03
        17  26 -2.237433E+05 -2.284512E+06 -2.081379E+05  3.281125E+03 -3.177565E+04 -2.004995E+03
        17  27 -2.118470E+05 -2.272638E+06 -2.073301E+05 -2.711057E+03 -1.000905E+04 -1.074146E+04
        18   1  8.157997E+04  8.978789E+05  4.582597E+04 -3.388787E+00  2.863572E+04  1.641281E-01
        18   2  8.158441E+04  8.978991E+05  4.583310E+04 -1.969480E+01  2.863675E+04 -5.097827E+00
        18   3  8.158985E+04  8.979273E+05  4.584615E+04 -3.342718E+01  2.863882E+04 -1.035953E+01
        18   4 -2.664202E+01  5.353532E+05  1.375264E+01  5.721570E-01  2.863748E+04 -1.080620E+00
        18   5 -2.796849E+01  5.353490E+05  1.640400E+01 -7.144637E-01  2.863852E+04 -8.821544E+00
        18   6 -2.788111E+01  5.353532E+05  2.669944E+01  5.731550E-01  2.864059E+04 -1.656226E+01
        18   7 -8.163860E+04  1.729622E+05 -4.579888E+04  4.531111E+00  2.863925E+04 -2.324679E+00
        18   8 -8.164570E+04  1.729336E+05 -4.580071E+04  1.825618E+01  2.864028E+04 -1.254320E+01
        18   9 -8.165096E+04  1.729139E+05 -4.579317E+04  3.455610E+01  2.864236E+04 -2.276154E+01
        18  10  8.157908E+04  8.978787E+05  4.582443E+04 -3.388791E+00 -1.588194E-08 -1.843395E-07
        18  11  8.158353E+04  8.978989E+05  4.583156E+04 -1.969468E+01  2.589307E-09 -6.154562E-08
        18  12  8.158897E+04  8.979271E+05  4.584461E+04 -3.342694E+01  7.631108E-09  6.455376E-08
        18  13 -2.752290E+01  5.353529E+05  1.221111E+01  5.721822E-01 -2.996625E-08  3.231874E-11
        18  14 -2.884943E+01  5.353487E+05  1.486237E+01 -7.142602E-01 -1.034855E-08 -1.258275E-10
        18  15 -2.876217E+01  5.353529E+05  2.515758E+01  5.735369E-01  8.977949E-10  1.126501E-10
        18  16 -8.163948E+04  1.729620E+05 -4.580042E+04  4.531165E+00 -1.699406E-08  1.842213E-07
        18  17 -8.164658E+04  1.729334E+05 -4.580225E+04  1.825647E+01 -1.299060E-09  6.146467E-08
        18  18 -8.165184E+04  1.729137E+05 -4.579471E+04  3.455662E+01  4.352227E-09 -6.449455E-08
        18  19  8.157997E+04  8.978789E+05  4.582597E+04 -3.388787E+00 -2.863572E+04 -1.641285E-01
        18  20  8.158441E+04  8.978991E+05  4.583310E+04 -1.969480E+01 -2.863675E+04  5.097827E+00
        18  21  8.158985E+04  8.979273E+05  4.584615E+04 -3.342718E+01 -2.863882E+04  1.035953E+01
        18  22 -2.664202E+01  5.353532E+05  1.375264E+01  5.721575E-01 -2.863748E+04  1.080620E+00
        18  23 -2.796849E+01  5.353490E+05  1.640400E+01 -7.144635E-01 -2.863852E+04  8.821544E+00
        18  24 -2.788111E+01  5.353532E+05  2.669944E+01  5.731548E-01 -2.864059E+04  1.656226E+01
        18  25 -8.163860E+04  1.729622E+05 -4.579888E+04  4.531112E+00 -2.863925E+04  2.324679E+00
        18  26 -8.164570E+04  1.729336E+05 -4.580071E+04  1.825618E+01 -2.864028E+04  1.254320E+01
        18  27 -8.165096E+04  1.729139E+05 -4.579317E+04  3.455610E+01 -2.864236E+04  2.276154E+01
        19   1  8.159608E+04  8.979577E+05  4.585836E+04 -3.996142E+01  2.864069E+04 -1.324890E+01
        19   2  8.160994E+04  8.980241E+05  4.589509E+04 -6.342372E+01  2.864376E+04 -4.389884E+01
        19   3  8.162620E+04  8.981022E+05  4.595461E+04 -7.543372E+01  2.864583E+04 -7.454819E+01
        19   4 -2.849974E+01  5.353538E+05  3.439360E+01  2.546280E+00  2.864246E+04 -2.178170E+01
        19   5 -3.169102E+01  5.353481E+05  5.790057E+01 -3.179856E+00  2.864553E+04 -5.003124E+01
        19   6 -3.290824E+01  5.353538E+05  1.025375E+02  2.546687E+00  2.864760E+04 -7.828020E+01
        19   7 -8.165843E+04  1.728847E+05 -4.578999E+04  4.503225E+01  2.864423E+04 -3.030976E+01
        19   8 -8.167868E+04  1.728071E+05 -4.577970E+04  5.703291E+01  2.864729E+04 -5.616024E+01
        19   9 -8.169737E+04  1.727403E+05 -4.574995E+04  8.048663E+01  2.864937E+04 -8.201012E+01
        19  10  8.159520E+04  8.979575E+05  4.585681E+04 -3.996112E+01  7.375607E-09 -1.349032E-08
        19  11  8.160906E+04  8.980239E+05  4.589355E+04 -6.342271E+01  8.884464E-09 -1.201976E-08
        19  12  8.162532E+04  8.981020E+05  4.595306E+04 -7.543200E+01  5.903294E-09 -1.098560E-08
        19  13 -2.938092E+01  5.353536E+05  3.285153E+01  2.546783E+00 -2.298809E-10  1.170716E-10
        19  14 -3.257239E+01  5.353479E+05  5.635817E+01 -3.178702E+00  1.356705E-09 -3.974982E-10
        19  15 -3.378974E+01  5.353535E+05  1.009948E+02  2.548492E+00 -1.519021E-09  2.647297E-10
        19  16 -8.165931E+04  1.728845E+05 -4.579153E+04  4.503295E+01 -1.716660E-10  1.329384E-08
        19  17 -8.167956E+04  1.728069E+05 -4.578125E+04  5.703421E+01 -1.482779E-09  1.181561E-08
        19  18 -8.169825E+04  1.727400E+05 -4.575149E+04  8.048852E+01  8.447432E-10  1.105138E-08
        19  19  8.159608E+04  8.979577E+05  4.585836E+04 -3.996142E+01 -2.864069E+04  1.324890E+01
        19  20  8.160994E+04  8.980241E+05  4.589509E+04 -6.342372E+01 -2.864376E+04  4.389884E+01
        19  21  8.162620E+04  8.981022E+05  4.595461E+04 -7.543372E+01 -2.864583E+04  7.454819E+01
        19  22 -2.849974E+01  5.353538E+05  3.439360E+01  2.546280E+00 -2.864246E+04  2.178170E+01
        19  23 -3.169102E+01  5.353481E+05  5.790057E+01 -3.179856E+00 -2.864553E+04  5.003124E+01
        19  24 -3.290824E+01  5.353538E+05  1.025375E+02  2.546687E+00 -2.864760E+04  7.828020E+01
        19  25 -8.165843E+04  1.728847E+05 -4.578999E+04  4.503225E+01 -2.864423E+04  3.030976E+01
        19  26 -8.167868E+04  1.728071E+05 -4.577970E+04  5.703291E+01 -2.864729E+04  5.616024E+01
        19  27 -8.169737E+04  1.727403E+05 -4.574995E+04  8.048663E+01 -2.864937E+04  8.201012E+01
        20   1  8.163919E+04  8.981662E+05  4.599995E+04 -8.542203E+01  2.864753E+04 -9.459910E+01
        20   2  8.166610E+04  8.982705E+05  4.613874E+04 -1.167428E+02  2.864147E+04 -2.498514E+02
        20   3  8.171262E+04  8.984070E+05  4.638565E+04 -1.288726E+02  2.861915E+04 -4.051068E+02
        20   4 -3.457603E+01  5.353569E+05  1.353431E+02  4.265487E+00  2.864930E+04 -9.943732E+01
        20   5 -3.883680E+01  5.353442E+05  2.353412E+02 -5.329112E+00  2.864323E+04 -2.155580E+02
        20   6 -3.027484E+01  5.353568E+05  4.163542E+02  4.267344E+00  2.862089E+04 -3.316825E+02
        20   7 -8.171370E+04  1.726826E+05 -4.572969E+04  9.390623E+01  2.865107E+04 -1.042729E+02
        20   8 -8.174914E+04  1.725529E+05 -4.566848E+04  1.060260E+02  2.864498E+04 -1.812837E+02
        20   9 -8.177854E+04  1.724418E+05 -4.555338E+04  1.373368E+02  2.862263E+04 -2.582989E+02
        20  10  8.163831E+04  8.981659E+05  4.599841E+04 -8.541985E+01  5.772354E-09 -7.775810E-08
        20  11  8.166522E+04  8.982703E+05  4.613719E+04 -1.167371E+02  7.418820E-09 -8.577016E-09
        20  12  8.171174E+04  8.984068E+05  4.638411E+04 -1.288633E+02  4.102498E-09  6.132378E-08
        20  13 -3.545763E+01  5.353567E+05  1.338003E+02  4.267781E+00  3.556623E-09  2.712399E-10
        20  14 -3.971804E+01  5.353439E+05  2.337990E+02 -5.324141E+00  7.436072E-09 -6.616622E-10
        20  15 -3.115472E+01  5.353566E+05  4.148143E+02  4.274988E+00  3.992139E-09  4.183542E-10
        20  16 -8.171458E+04  1.726824E+05 -4.573123E+04  9.390863E+01 -1.789758E-09  7.736730E-08
        20  17 -8.175002E+04  1.725527E+05 -4.567002E+04  1.060302E+02 -7.859288E-10  8.393199E-09
        20  18 -8.177942E+04  1.724415E+05 -4.555492E+04  1.373428E+02 -3.312513E-09 -6.117521E-08
        20  19  8.163919E+04  8.981662E+05  4.599995E+04 -8.542203E+01 -2.864753E+04  9.459910E+01
        20  20  8.166610E+04  8.982705E+05  4.613874E+04 -1.167428E+02 -2.864147E+04  2.498514E+02
        20  21  8.171262E+04  8.984070E+05  4.638565E+04 -1.288726E+02 -2.861915E+04  4.051068E+02
        20  22 -3.457603E+01  5.353569E+05  1.353431E+02  4.265488E+00 -2.864930E+04  9.943732E+01
        20  23 -3.883680E+01  5.353442E+05  2.353412E+02 -5.329112E+00 -2.864323E+04  2.155580E+02
        20  24 -3.027484E+01  5.353568E+05  4.163542E+02  4.267344E+00 -2.862089E+04  3.316825E+02
        20  25 -8.171370E+04  1.726826E+05 -4.572969E+04  9.390623E+01 -2.865107E+04  1.042729E+02
        20  26 -8.174914E+04  1.725529E+05 -4.566848E+04  1.060260E+02 -2.864498E+04  1.812837E+02
        20  27 -8.177854E+04  1.724418E+05 -4.555338E+04  1.373368E+02 -2.862263E+04  2.582989E+02
        21   1 -4.806605E+06 -7.812565E+05 -7.740227E+05 -1.125724E+05  9.508581E+04  6.344973E+03
        21   2 -5.938015E+06 -1.176290E+06 -1.135136E+06  2.034673E+05  7.847757E+04  1.432418E+04
        21   3 -4.702311E+06 -1.000515E+06 -8.949755E+05  6.361455E+04  6.147321E+04  4.224830E+03
        21   4 -4.760133E+05  3.046508E+05  3.117075E+05 -1.190017E+05  9.635579E+04  6.339992E+03
        21   5 -1.666984E+06 -1.004664E+05 -6.243112E+04  1.106787E+05  7.877511E+04  1.430828E+04
        21   6 -4.828022E+05  7.023971E+04  1.653933E+05 -1.154630E+05  6.080166E+04  4.258567E+03
        21   7  3.871657E+06  1.389135E+06  1.396015E+06 -1.254681E+05  9.763276E+04  6.335011E+03
        21   8  2.620693E+06  9.739832E+05  1.008885E+06  1.736321E+04  7.907320E+04  1.429240E+04
        21   9  3.752937E+06  1.139694E+06  1.224405E+06 -2.955402E+05  6.012435E+04  4.292650E+03
        21  10 -4.806615E+06 -7.812590E+05 -7.740399E+05 -1.125729E+05  1.134710E-09 -6.865482E-10
        21  11 -5.938022E+06 -1.176292E+06 -1.135148E+06  2.034664E+05  6.173142E-09 -9.904764E-10
        21  12 -4.702315E+06 -1.000516E+06 -8.949827E+05  6.361434E+04 -2.184070E-09  2.375836E-09
        21  13 -4.760233E+05  3.046483E+05  3.116899E+05 -1.190022E+05  4.077660E-09 -4.412216E-10
        21  14 -1.666991E+06 -1.004683E+05 -6.244320E+04  1.106778E+05 -2.193320E-09 -9.091491E-10
        21  15 -4.828062E+05  7.023870E+04  1.653863E+05 -1.154632E+05  4.269098E-09  4.006900E-09
        21  16  3.871647E+06  1.389133E+06  1.395997E+06 -1.254686E+05  2.185557E-09 -6.488309E-10
        21  17  2.620687E+06  9.739813E+05  1.008873E+06  1.736231E+04  3.229472E-09 -1.554470E-09
        21  18  3.752933E+06  1.139693E+06  1.224398E+06 -2.955404E+05  3.813234E-09  1.415360E-09
        21  19 -4.806605E+06 -7.812565E+05 -7.740227E+05 -1.125724E+05 -9.508581E+04 -6.344973E+03
        21  20 -5.938015E+06 -1.176290E+06 -1.135136E+06  2.034673E+05 -7.847757E+04 -1.432418E+04
        21  21 -4.702311E+06 -1.000515E+06 -8.949755E+05  6.361455E+04 -6.147321E+04 -4.224830E+03
        21  22 -4.760133E+05  3.046508E+05  3.117075E+05 -1.190017E+05 -9.635579E+04 -6.339992E+03
        21  23 -1.666984E+06 -1.004664E+05 -6.243112E+04  1.106787E+05 -7.877511E+04 -1.430828E+04
        21  24 -4.828022E+05  7.023971E+04  1.653933E+05 -1.154630E+05 -6.080166E+04 -4.258567E+03
        21  25  3.871657E+06  1.389135E+06  1.396015E+06 -1.254681E+05 -9.763276E+04 -6.335011E+03
        21  26  2.620693E+06  9.739832E+05  1.008885E+06  1.736321E+04 -7.907320E+04 -1.429240E+04
        21  27  3.752937E+06  1.139694E+06  1.224405E+06 -2.955402E+05 -6.012435E+04 -4.292650E+03
        22   1  5.055411E+05  3.598528E+05  4.054850E+05 -2.209601E+05  2.633753E+04 -1.874526E+03
        22   2  4.945145E+05  4.172307E+05  4.002319E+05  9.233994E+04  1.982280E+04 -6.152285E+03
        22   3  6.612304E+05  2.979576E+05  3.990941E+05 -1.961455E+05  1.347611E+04 -8.796300E+03
        22   4 -9.668871E+05 -1.417865E+04  3.616260E+04 -1.488431E+05  2.603088E+04 -1.855718E+03
        22   5 -1.053681E+06  2.650236E+04  1.252638E+04  1.503402E+05  1.960703E+04 -6.142171E+03
        22   6 -9.633202E+05 -1.101044E+05 -7.201817E+03 -1.523582E+05  1.335209E+04 -8.792690E+03
        22   7 -2.437347E+06 -3.883656E+05 -3.333247E+05 -7.686741E+04  2.572490E+04 -1.836955E+03
        22   8 -2.599702E+06 -3.644020E+05 -3.753610E+05  2.082228E+05  1.939175E+04 -6.132083E+03
        22   9 -2.585477E+06 -5.183629E+05 -4.136974E+05 -1.086606E+05  1.322836E+04 -8.789092E+03
        22  10  5.055403E+05  3.598526E+05  4.054837E+05 -2.209601E+05 -3.597249E-09 -5.154505E-09
        22  11  4.945140E+05  4.172306E+05  4.002311E+05  9.234004E+04 -1.024670E-08 -7.101769E-09
        22  12  6.612302E+05  2.979575E+05  3.990936E+05 -1.961454E+05 -1.011478E-08  1.172287E-10
        22  13 -9.668878E+05 -1.417883E+04  3.616132E+04 -1.488430E+05 -1.259656E-08 -5.529358E-10
        22  14 -1.053682E+06  2.650221E+04  1.252559E+04  1.503403E+05 -5.283295E-10 -2.661830E-09
        22  15 -9.633205E+05 -1.101045E+05 -7.202297E+03 -1.523581E+05  6.195018E-09 -3.219008E-09
        22  16 -2.437348E+06 -3.883657E+05 -3.333260E+05 -7.686737E+04  6.949669E-09 -3.537690E-09
        22  17 -2.599702E+06 -3.644021E+05 -3.753617E+05  2.082229E+05  7.904366E-09 -1.098958E-08
        22  18 -2.585478E+06 -5.183631E+05 -4.136979E+05 -1.086606E+05  5.582543E-09 -6.586007E-09
        22  19  5.055411E+05  3.598528E+05  4.054850E+05 -2.209601E+05 -2.633753E+04  1.874526E+03
        22  20  4.945145E+05  4.172307E+05  4.002319E+05  9.233994E+04 -1.982280E+04  6.152285E+03
        22  21  6.612304E+05  2.979576E+05  3.990941E+05 -1.961455E+05 -1.347611E+04  8.796300E+03
        22  22 -9.668871E+05 -1.417865E+04  3.616260E+04 -1.488431E+05 -2.603088E+04  1.855718E+03
        22  23 -1.053681E+06  2.650236E+04  1.252638E+04  1.503402E+05 -1.960703E+04  6.142171E+03
        22  24 -9.633202E+05 -1.101044E+05 -7.201817E+03 -1.523582E+05 -1.335209E+04  8.792690E+03
        22  25 -2.437347E+06 -3.883656E+05 -3.333247E+05 -7.686741E+04 -2.572490E+04  1.836955E+03
        22  26 -2.599702E+06 -3.644020E+05 -3.753610E+05  2.082228E+05 -1.939175E+04  6.132083E+03
        22  27 -2.585477E+06 -5.183629E+05 -4.136974E+05 -1.086606E+05 -1.322836E+04  8.789092E+03
        23   1  5.045169E+06  1.448355E+06  1.505951E+06 -1.510214E+05 -2.587395E+04 -1.167562E+04
        23   2  3.297909E+06  1.256397E+06  1.126221E+06  2.574848E+04  5.235703E+03 -1.815584E+04
        23   3  5.068260E+06  1.415033E+06  1.497469E+06  1.258240E+05  3.633959E+04 -1.232895E+04
        23   4 -2.314718E+05  1.285380E+05  1.902055E+05 -2.911473E+04 -2.628892E+04 -1.167087E+04
        23   5 -1.981335E+06 -6.215520E+04 -1.918424E+05  5.539583E+03  5.182641E+03 -1.816578E+04
        23   6 -2.293920E+05  8.638667E+04  1.758171E+05 -3.657085E+04  3.664765E+04 -1.232509E+04
        23   7 -5.482981E+06 -1.193348E+06 -1.127635E+06  9.193894E+04 -2.669963E+04 -1.166629E+04
        23   8 -7.235361E+06 -1.382810E+06 -1.512009E+06 -1.452959E+04  5.129881E+03 -1.817579E+04
        23   9 -5.501706E+06 -1.244327E+06 -1.147949E+06 -1.978272E+05  3.695204E+04 -1.232142E+04
        23  10  5.045168E+06  1.448354E+06  1.505949E+06 -1.510217E+05 -7.486480E-09  8.249717E-09
        23  11  3.297909E+06  1.256396E+06  1.126220E+06  2.574856E+04  3.954441E-09 -8.332998E-10
        23  12  5.068259E+06  1.415033E+06  1.497466E+06  1.258243E+05  3.582004E-09 -2.405562E-09
        23  13 -2.314726E+05  1.285377E+05  1.902040E+05 -2.911498E+04 -8.032955E-09  1.723567E-08
        23  14 -1.981336E+06 -6.215556E+04 -1.918431E+05  5.539659E+03 -2.149128E-09 -2.725188E-09
        23  15 -2.293935E+05  8.638615E+04  1.758142E+05 -3.657049E+04  2.080173E-10  5.452310E-09
        23  16 -5.482982E+06 -1.193348E+06 -1.127637E+06  9.193869E+04  8.329134E-09  2.621982E-09
        23  17 -7.235361E+06 -1.382811E+06 -1.512010E+06 -1.452951E+04 -2.685822E-09  2.380452E-09
        23  18 -5.501707E+06 -1.244328E+06 -1.147951E+06 -1.978268E+05 -1.970717E-09  3.191321E-09
        23  19  5.045169E+06  1.448355E+06  1.505951E+06 -1.510214E+05  2.587395E+04  1.167562E+04
        23  20  3.297909E+06  1.256397E+06  1.126221E+06  2.574848E+04 -5.235703E+03  1.815584E+04
        23  21  5.068260E+06  1.415033E+06  1.497469E+06  1.258240E+05 -3.633959E+04  1.232895E+04
        23  22 -2.314718E+05  1.285380E+05  1.902055E+05 -2.911473E+04  2.628892E+04  1.167087E+04
        23  23 -1.981335E+06 -6.215520E+04 -1.918424E+05  5.539583E+03 -5.182641E+03  1.816578E+04
        23  24 -2.293920E+05  8.638667E+04  1.758171E+05 -3.657085E+04 -3.664765E+04  1.232509E+04
        23  25 -5.482981E+06 -1.193348E+06 -1.127635E+06  9.193894E+04  2.669963E+04  1.166629E+04
        23  26 -7.235361E+06 -1.382810E+06 -1.512009E+06 -1.452959E+04 -5.129881E+03  1.817579E+04
        23  27 -5.501706E+06 -1.244327E+06 -1.147949E+06 -1.978272E+05 -3.695204E+04  1.232142E+04
        24   1  2.457126E+06  7.459647E+05  8.389405E+05  2.406875E+05 -1.095668E+04 -1.220160E+04
        24   2  1.826587E+06  7.998550E+05  7.275504E+05 -7.553779E+03  8.645389E+02 -1.094385E+04
        24   3  2.306184E+06  8.122922E+05  8.220153E+05  3.375714E+05  1.197948E+04 -2.414703E+03
        24   4 -7.568445E+05 -6.426172E+04  3.518624E+04  1.186977E+05 -1.106069E+04 -1.221115E+04
        24   5 -1.313168E+06 -5.741828E+02 -5.990806E+04 -1.805332E+05  1.057499E+03 -1.093309E+04
        24   6 -7.630837E+05  1.857503E+04  5.019084E+04  1.137207E+05  1.246963E+04 -2.369831E+03
        24   7 -3.961459E+06 -8.752449E+05 -7.693495E+05 -2.788214E+03 -1.116402E+04 -1.222069E+04
        24   8 -4.443976E+06 -8.017014E+05 -8.481168E+05 -3.527994E+05  1.249481E+03 -1.092242E+04
        24   9 -3.823796E+06 -7.757735E+05 -7.223541E+05 -1.092202E+05  1.295723E+04 -2.325215E+03
        24  10  2.457126E+06  7.459645E+05  8.389400E+05  2.406874E+05  7.268502E-09 -6.649805E-09
        24  11  1.826587E+06  7.998549E+05  7.275501E+05 -7.553771E+03  5.607686E-09 -1.178818E-08
        24  12  2.306184E+06  8.122922E+05  8.220150E+05  3.375714E+05 -2.059147E-10  8.678498E-09
        24  13 -7.568446E+05 -6.426191E+04  3.518573E+04  1.186976E+05  7.093961E-09 -6.288934E-10
        24  14 -1.313168E+06 -5.743114E+02 -5.990829E+04 -1.805331E+05 -1.428511E-10 -3.343932E-08
        24  15 -7.630839E+05  1.857498E+04  5.019054E+04  1.137208E+05  1.036609E-08 -1.022758E-08
        24  16 -3.961460E+06 -8.752451E+05 -7.693500E+05 -2.788324E+03 -1.386921E-08 -4.877598E-10
        24  17 -4.443976E+06 -8.017015E+05 -8.481171E+05 -3.527994E+05 -6.875784E-09 -5.227787E-09
        24  18 -3.823796E+06 -7.757736E+05 -7.223544E+05 -1.092202E+05  3.523765E-10  8.786586E-09
        24  19  2.457126E+06  7.459647E+05  8.389405E+05  2.406875E+05  1.095668E+04  1.220160E+04
        24  20  1.826587E+06  7.998550E+05  7.275504E+05 -7.553779E+03 -8.645389E+02  1.094385E+04
        24  21  2.306184E+06  8.122922E+05  8.220153E+05  3.375714E+05 -1.197948E+04  2.414703E+03
        24  22 -7.568445E+05 -6.426172E+04  3.518624E+04  1.186977E+05  1.106069E+04  1.221115E+04
        24  23 -1.313168E+06 -5.741828E+02 -5.990806E+04 -1.805332E+05 -1.057499E+03  1.093309E+04
        24  24 -7.630837E+05  1.857503E+04  5.019084E+04  1.137207E+05 -1.246963E+04  2.369831E+03
        24  25 -3.961459E+06 -8.752449E+05 -7.693495E+05 -2.788214E+03  1.116402E+04  1.222069E+04
        24  26 -4.443976E+06 -8.017014E+05 -8.481168E+05 -3.527994E+05 -1.249481E+03  1.092242E+04
        24  27 -3.823796E+06 -7.757735E+05 -7.223541E+05 -1.092202E+05 -1.295723E+04  2.325215E+03
        25   1 -3.774188E+06 -7.634883E+05 -7.100399E+05 -1.045595E+05 -1.242629E+04  2.191169E+03
        25   2 -4.370089E+06 -7.851014E+05 -8.302481E+05 -3.511012E+05 -1.127914E+03  1.072147E+04
        25   3 -3.912719E+06 -8.624711E+05 -7.572509E+05 -2.020689E+03  1.086732E+04  1.210034E+04
        25   4 -7.740230E+05  1.521721E+04  4.722543E+04  1.143365E+05 -1.194106E+04  2.235703E+03
        25   5 -1.299328E+06  8.300098E+02 -5.715536E+04 -1.810034E+05 -9.340304E+02  1.073251E+04
        25   6 -7.678367E+05 -6.637285E+04  3.231728E+04  1.191693E+05  1.077014E+04  1.209117E+04
        25   7  2.234361E+06  7.933164E+05  8.037984E+05  3.341081E+05 -1.145334E+04  2.280487E+03
        25   8  1.780041E+06  7.860906E+05  7.152156E+05 -1.021499E+04 -7.391786E+02  1.074364E+04
        25   9  2.386056E+06  7.289974E+05  8.211328E+05  2.408526E+05  1.067234E+04  1.208197E+04
        25  10 -3.774188E+06 -7.634884E+05 -7.100402E+05 -1.045595E+05  9.652808E-09  1.150381E-08
        25  11 -4.370089E+06 -7.851015E+05 -8.302484E+05 -3.511012E+05  2.262353E-09 -1.055909E-09
        25  12 -3.912719E+06 -8.624713E+05 -7.572514E+05 -2.020795E+03  1.493926E-10 -1.268782E-08
        25  13 -7.740232E+05  1.521717E+04  4.722515E+04  1.143365E+05  1.670928E-08 -1.455281E-08
        25  14 -1.299328E+06  8.298859E+02 -5.715558E+04 -1.810034E+05 -1.664065E-09 -1.115938E-08
        25  15 -7.678369E+05 -6.637304E+04  3.231679E+04  1.191692E+05  1.867599E-10 -7.236694E-09
        25  16  2.234361E+06  7.933164E+05  8.037982E+05  3.341082E+05 -1.477203E-08  1.433514E-08
        25  17  1.780041E+06  7.860905E+05  7.152154E+05 -1.021498E+04 -2.744946E-09 -3.948025E-09
        25  18  2.386056E+06  7.289972E+05  8.211323E+05  2.408525E+05 -2.824405E-09  1.850558E-08
        25  19 -3.774188E+06 -7.634883E+05 -7.100399E+05 -1.045595E+05  1.242629E+04 -2.191169E+03
        25  20 -4.370089E+06 -7.851014E+05 -8.302481E+05 -3.511012E+05  1.127914E+03 -1.072147E+04
        25  21 -3.912719E+06 -8.624711E+05 -7.572509E+05 -2.020689E+03 -1.086732E+04 -1.210034E+04
        25  22 -7.740230E+05  1.521721E+04  4.722543E+04  1.143365E+05  1.194106E+04 -2.235703E+03
        25  23 -1.299328E+06  8.300098E+02 -5.715536E+04 -1.810034E+05  9.340304E+02 -1.073251E+04
        25  24 -7.678367E+05 -6.637285E+04  3.231728E+04  1.191693E+05 -1.077014E+04 -1.209117E+04
        25  25  2.234361E+06  7.933164E+05  8.037984E+05  3.341081E+05  1.145334E+04 -2.280487E+03
        25  26  1.780041E+06  7.860906E+05  7.152156E+05 -1.021499E+04  7.391786E+02 -1.074364E+04
        25  27  2.386056E+06  7.289974E+05  8.211328E+05  2.408526E+05 -1.067234E+04 -1.208197E+04
        26   1 -5.506328E+06 -1.244393E+06 -1.149094E+06 -1.995438E+05 -3.683460E+04  1.224896E+04
        26   2 -7.246399E+06 -1.385216E+06 -1.515096E+06 -2.122355E+04 -4.709725E+03  1.820082E+04
        26   3 -5.489535E+06 -1.196299E+06 -1.130295E+06  9.109107E+04  2.743824E+04  1.175406E+04
        26   4 -2.270421E+05  8.847880E+04  1.765060E+05 -3.424298E+04 -3.652633E+04  1.225309E+04
        26   5 -1.984393E+06 -6.249347E+04 -1.929023E+05  2.466713E+03 -4.757611E+03  1.819077E+04
        26   6 -2.289678E+05  1.276107E+05  1.897682E+05 -2.675454E+04  2.703342E+04  1.175804E+04
        26   7  5.077651E+06  1.419280E+06  1.499986E+06  1.322260E+05 -3.621435E+04  1.225743E+04
        26   8  3.302908E+06  1.258119E+06  1.127181E+06  2.632209E+04 -4.805770E+03  1.818078E+04
        26   9  5.056818E+06  1.449443E+06  1.507730E+06 -1.454325E+05  2.662435E+04  1.176220E+04
        26  10 -5.506330E+06 -1.244394E+06 -1.149096E+06 -1.995434E+05 -3.547816E-09  4.236551E-09
        26  11 -7.246399E+06 -1.385216E+06 -1.515097E+06 -2.122348E+04 -1.886433E-09  1.294055E-09
        26  12 -5.489536E+06 -1.196300E+06 -1.130297E+06  9.109081E+04 -1.227598E-09 -1.040369E-08
        26  13 -2.270435E+05  8.847828E+04  1.765032E+05 -3.424262E+04  4.579966E-10  1.756228E-08
        26  14 -1.984393E+06 -6.249383E+04 -1.929030E+05  2.466783E+03  4.106143E-09  4.705642E-09
        26  15 -2.289686E+05  1.276104E+05  1.897666E+05 -2.675480E+04  2.182919E-09 -8.769701E-09
        26  16  5.077649E+06  1.419279E+06  1.499983E+06  1.322264E+05 -2.896933E-09  1.060830E-08
        26  17  3.302908E+06  1.258119E+06  1.127180E+06  2.632216E+04  4.734740E-09  8.614087E-09
        26  18  5.056817E+06  1.449443E+06  1.507728E+06 -1.454327E+05 -1.344439E-09  5.714508E-09
        26  19 -5.506328E+06 -1.244393E+06 -1.149094E+06 -1.995438E+05  3.683460E+04 -1.224896E+04
        26  20 -7.246399E+06 -1.385216E+06 -1.515096E+06 -2.122355E+04  4.709725E+03 -1.820082E+04
        26  21 -5.489535E+06 -1.196299E+06 -1.130295E+06  9.109107E+04 -2.743824E+04 -1.175406E+04
        26  22 -2.270421E+05  8.847880E+04  1.765060E+05 -3.424298E+04  3.652633E+04 -1.225309E+04
        26  23 -1.984393E+06 -6.249347E+04 -1.929023E+05  2.466713E+03  4.757611E+03 -1.819077E+04
        26  24 -2.289678E+05  1.276107E+05  1.897682E+05 -2.675454E+04 -2.703342E+04 -1.175804E+04
        26  25  5.077651E+06  1.419280E+06  1.499986E+06  1.322260E+05  3.621435E+04 -1.225743E+04
        26  26  3.302908E+06  1.258119E+06  1.127181E+06  2.632209E+04  4.805770E+03 -1.818078E+04
        26  27  5.056818E+06  1.449443E+06  1.507730E+06 -1.454325E+05 -2.662435E+04 -1.176220E+04
        27   1 -2.652315E+06 -5.360906E+05 -4.316065E+05 -1.070903E+05 -1.273412E+04  8.919441E+03
        27   2 -2.681780E+06 -3.834852E+05 -3.972672E+05  2.104647E+05 -1.774450E+04  6.303340E+03
        27   3 -2.504780E+06 -4.063109E+05 -3.534455E+05 -7.293769E+04 -2.293707E+04  1.863927E+03
        27   4 -9.566228E+05 -1.093677E+05 -6.673266E+03 -1.520675E+05 -1.284925E+04  8.922517E+03
        27   5 -1.062044E+06  2.604613E+04  9.130194E+03  1.500909E+05 -1.795807E+04  6.313209E+03
        27   6 -9.603580E+05 -1.327438E+04  3.463890E+04 -1.486132E+05 -2.324836E+04  1.883029E+03
        27   7  7.416852E+05  3.171402E+05  4.180418E+05 -1.971414E+05 -1.296466E+04  8.925604E+03
        27   8  5.600787E+05  4.353843E+05  4.153280E+05  8.958859E+04 -1.817215E+04  6.323104E+03
        27   9  5.862356E+05  3.795906E+05  4.225414E+05 -2.244447E+05 -2.356037E+04  1.902179E+03
        27  10 -2.652315E+06 -5.360908E+05 -4.316070E+05 -1.070902E+05 -4.243310E-09 -4.124244E-09
        27  11 -2.681780E+06 -3.834853E+05 -3.972678E+05  2.104648E+05 -1.207139E-09  9.559533E-09
        27  12 -2.504781E+06 -4.063110E+05 -3.534465E+05 -7.293765E+04 -1.942564E-09 -8.736602E-09
        27  13 -9.566230E+05 -1.093679E+05 -6.673726E+03 -1.520674E+05 -4.733462E-09  2.134309E-08
        27  14 -1.062045E+06  2.604600E+04  9.129511E+03  1.500910E+05  3.241104E-09  2.332480E-08
        27  15 -9.603586E+05 -1.327453E+04  3.463787E+04 -1.486131E+05 -2.339979E-10  4.292525E-10
        27  16  7.416850E+05  3.171401E+05  4.180414E+05 -1.971413E+05  6.341144E-09  1.717482E-08
        27  17  5.600783E+05  4.353841E+05  4.153273E+05  8.958868E+04  9.939699E-09  6.026540E-08
        27  18  5.862350E+05  3.795904E+05  4.225404E+05 -2.244447E+05 -7.041500E-10 -5.837298E-09
        27  19 -2.652315E+06 -5.360906E+05 -4.316065E+05 -1.070903E+05  1.273412E+04 -8.919441E+03
        27  20 -2.681780E+06 -3.834852E+05 -3.972672E+05  2.104647E+05  1.774450E+04 -6.303340E+03
        27  21 -2.504780E+06 -4.063109E+05 -3.534455E+05 -7.293769E+04  2.293707E+04 -1.863927E+03
        27  22 -9.566228E+05 -1.093677E+05 -6.673266E+03 -1.520675E+05  1.284925E+04 -8.922517E+03
        27  23 -1.062044E+06  2.604613E+04  9.130194E+03  1.500909E+05  1.795807E+04 -6.313209E+03
        27  24 -9.603580E+05 -1.327438E+04  3.463890E+04 -1.486132E+05  2.324836E+04 -1.883029E+03
        27  25  7.416852E+05  3.171402E+05  4.180418E+05 -1.971414E+05  1.296466E+04 -8.925604E+03
        27  26  5.600787E+05  4.353843E+05  4.153280E+05  8.958859E+04  1.817215E+04 -6.323104E+03
        27  27  5.862356E+05  3.795906E+05  4.225414E+05 -2.244447E+05  2.356037E+04 -1.902179E+03
        28   1  3.699374E+06  1.127046E+06  1.207092E+06 -2.966465E+05 -5.648656E+04 -4.317063E+03
        28   2  2.593549E+06  9.679530E+05  9.949248E+05  1.776829E+04 -7.238047E+04 -1.428972E+04
        28   3  3.819791E+06  1.364752E+06  1.368338E+06 -1.291466E+05 -8.785736E+04 -6.221310E+03
        28   4 -4.940862E+05  6.800560E+04  1.585623E+05 -1.168199E+05 -5.717648E+04 -4.281877E+03
        28   5 -1.652780E+06 -9.629865E+04 -6.610173E+04  1.123027E+05 -7.211045E+04 -1.430483E+04
        28   6 -4.872627E+05  2.903367E+05  2.941099E+05 -1.199974E+05 -8.662415E+04 -6.227281E+03
        28   7 -4.671637E+06 -9.923086E+05 -8.912978E+05  6.201812E+04 -5.786070E+04 -4.247036E+03
        28   8 -5.882782E+06 -1.161898E+06 -1.128491E+06  2.063086E+05 -7.184092E+04 -1.431996E+04
        28   9 -4.777555E+06 -7.854752E+05 -7.815140E+05 -1.108996E+05 -8.539777E+04 -6.233247E+03
        28  10  3.699371E+06  1.127045E+06  1.207086E+06 -2.966467E+05 -4.857976E-09 -3.668861E-08
        28  11  2.593544E+06  9.679514E+05  9.949147E+05  1.776746E+04  4.980907E-09 -2.190486E-09
        28  12  3.819783E+06  1.364750E+06  1.368323E+06 -1.291471E+05  1.454991E-09 -7.632259E-10
        28  13 -4.940897E+05  6.800470E+04  1.585562E+05 -1.168201E+05 -8.713686E-09 -2.199619E-08
        28  14 -1.652786E+06 -9.630027E+04 -6.611191E+04  1.123018E+05 -4.275848E-09  2.087479E-09
        28  15 -4.872708E+05  2.903347E+05  2.940957E+05 -1.199979E+05 -4.378519E-09  1.932521E-09
        28  16 -4.671641E+06 -9.923095E+05 -8.913041E+05  6.201792E+04  9.878643E-09 -2.458479E-08
        28  17 -5.882787E+06 -1.161899E+06 -1.128501E+06  2.063078E+05 -2.517862E-09 -1.515700E-08
        28  18 -4.777563E+06 -7.854772E+05 -7.815279E+05 -1.109000E+05  1.946420E-09  4.657118E-09
        28  19  3.699374E+06  1.127046E+06  1.207092E+06 -2.966465E+05  5.648656E+04  4.317063E+03
        28  20  2.593549E+06  9.679530E+05  9.949248E+05  1.776829E+04  7.238047E+04  1.428972E+04
        28  21  3.819791E+06  1.364752E+06  1.368338E+06 -1.291466E+05  8.785736E+04  6.221310E+03
        28  22 -4.940862E+05  6.800560E+04  1.585623E+05 -1.168199E+05  5.717648E+04  4.281877E+03
        28  23 -1.652780E+06 -9.629865E+04 -6.610173E+04  1.123027E+05  7.211045E+04  1.430483E+04
        28  24 -4.872627E+05  2.903367E+05  2.941099E+05 -1.199974E+05  8.662415E+04  6.227281E+03
        28  25 -4.671637E+06 -9.923086E+05 -8.912978E+05  6.201812E+04  5.786070E+04  4.247036E+03
        28  26 -5.882782E+06 -1.161898E+06 -1.128491E+06  2.063086E+05  7.184092E+04  1.431996E+04
        28  27 -4.777555E+06 -7.854752E+05 -7.815140E+05 -1.108996E+05  8.539777E+04  6.233247E+03
        29   1  2.884479E+05  2.571058E+04  3.777562E+05 -7.942046E+03 -1.715417E+03  2.575478E+05
        29   2 -6.951573E+04 -3.227000E+04  1.610541E+05 -2.677655E+03 -1.126603E+03  1.694423E+05
        29   3 -9.020545E+03  2.586575E+04  1.063659E+05  4.595436E+03 -5.398223E+02  8.133287E+04
        29   4  2.883190E+05  2.583921E+04  3.777562E+05  1.744248E+03 -1.711398E+03  2.575478E+05
        29   5 -6.954803E+04 -3.223771E+04  1.610541E+05 -2.479370E+02 -1.125939E+03  1.694423E+05
        29   6 -8.956443E+03  2.580158E+04  1.063659E+05 -2.309763E+02 -5.404546E+02  8.133287E+04
        29   7  2.881904E+05  2.596805E+04  3.777562E+05  1.143054E+04 -1.707380E+03  2.575479E+05
        29   8 -6.958031E+04 -3.220541E+04  1.610541E+05  2.181781E+03 -1.125276E+03  1.694423E+05
        29   9 -8.892254E+03  2.573746E+04  1.063659E+05 -5.057388E+03 -5.410869E+02  8.133286E+04
        29  10  2.884301E+05  2.563937E+04  3.776315E+05 -7.941691E+03 -4.271469E-09 -3.723302E-10
        29  11 -6.952344E+04 -3.230082E+04  1.610001E+05 -2.677501E+03 -6.125227E-09 -4.959960E-10
        29  12 -9.022321E+03  2.585865E+04  1.063535E+05  4.595471E+03 -5.225440E-09 -4.207836E-12
        29  13  2.883011E+05  2.576801E+04  3.776315E+05  1.744602E+03 -2.295543E-09 -4.822343E-11
        29  14 -6.955574E+04 -3.226854E+04  1.610001E+05 -2.477833E+02  7.420922E-09  6.120010E-11
        29  15 -8.958219E+03  2.579448E+04  1.063535E+05 -2.309409E+02  4.089216E-09 -1.023834E-10
        29  16  2.881726E+05  2.589685E+04  3.776315E+05  1.143090E+04 -5.351411E-09  4.772579E-10
        29  17 -6.958802E+04 -3.223624E+04  1.610001E+05  2.181934E+03 -9.448069E-09  5.115436E-10
        29  18 -8.894030E+03  2.573035E+04  1.063535E+05 -5.057353E+03 -2.488438E-09 -2.106190E-10
        29  19  2.884479E+05  2.571058E+04  3.777562E+05 -7.942046E+03  1.715417E+03 -2.575478E+05
        29  20 -6.951573E+04 -3.227000E+04  1.610541E+05 -2.677655E+03  1.126603E+03 -1.694423E+05
        29  21 -9.020545E+03  2.586575E+04  1.063659E+05  4.595436E+03  5.398223E+02 -8.133287E+04
        29  22  2.883190E+05  2.583921E+04  3.777562E+05  1.744248E+03  1.711398E+03 -2.575478E+05
        29  23 -6.954803E+04 -3.223771E+04  1.610541E+05 -2.479370E+02  1.125939E+03 -1.694423E+05
        29  24 -8.956443E+03  2.580158E+04  1.063659E+05 -2.309763E+02  5.404546E+02 -8.133287E+04
        29  25  2.881904E+05  2.596805E+04  3.777562E+05  1.143054E+04  1.707380E+03 -2.575479E+05
        29  26 -6.958031E+04 -3.220541E+04  1.610541E+05  2.181781E+03  1.125276E+03 -1.694423E+05
        29  27 -8.892254E+03  2.573746E+04  1.063659E+05 -5.057388E+03  5.410869E+02 -8.133286E+04
        30   1  4.517069E+04  4.285175E+03  8.826167E+04 -1.185486E+03 -4.229053E+02  6.362043E+04
        30   2 -1.093739E+04 -5.380111E+03  4.228720E+04 -3.785238E+02 -2.750179E+02  4.138393E+04
        30   3 -1.214983E+03  4.311143E+03  2.725055E+04  7.372670E+02 -1.272116E+02  1.914763E+04
        30   4  4.515132E+04  4.304536E+03  8.826167E+04  2.714377E+02 -4.227560E+02  6.362044E+04
        30   5 -1.094193E+04 -5.375572E+03  4.228720E+04 -3.698992E+01 -2.749951E+02  4.138393E+04
        30   6 -1.204700E+03  4.300858E+03  2.725055E+04 -3.658589E+01 -1.272354E+02  1.914763E+04
        30   7  4.513196E+04  4.323902E+03  8.826167E+04  1.728362E+03 -4.226067E+02  6.362044E+04
        30   8 -1.094647E+04 -5.371032E+03  4.228720E+04  3.045440E+02 -2.749723E+02  4.138393E+04
        30   9 -1.194414E+03  4.290573E+03  2.725055E+04 -8.104387E+02 -1.272593E+02  1.914763E+04
        30  10  4.516960E+04  4.280829E+03  8.825407E+04 -1.185465E+03 -1.573250E-09  3.603185E-10
        30  11 -1.093785E+04 -5.381950E+03  4.228398E+04 -3.785147E+02 -3.339707E-09  2.033892E-11
        30  12 -1.215082E+03  4.310750E+03  2.724987E+04  7.372689E+02  9.536225E-11 -2.024712E-10
        30  13  4.515024E+04  4.300190E+03  8.825407E+04  2.714594E+02  1.596663E-09 -5.656725E-11
        30  14 -1.094239E+04 -5.377411E+03  4.228398E+04 -3.698076E+01  5.766966E-09 -1.055202E-10
        30  15 -1.204798E+03  4.300464E+03  2.724987E+04 -3.658393E+01  3.566308E-10 -7.774929E-11
        30  16  4.513088E+04  4.319556E+03  8.825407E+04  1.728384E+03 -5.250231E-09 -3.599884E-10
        30  17 -1.094693E+04 -5.372871E+03  4.228398E+04  3.045532E+02  1.864918E-09 -1.364668E-10
        30  18 -1.194512E+03  4.290180E+03  2.724987E+04 -8.104368E+02 -3.779898E-09  1.345536E-10
        30  19  4.517069E+04  4.285175E+03  8.826167E+04 -1.185486E+03  4.229053E+02 -6.362043E+04
        30  20 -1.093739E+04 -5.380111E+03  4.228720E+04 -3.785238E+02  2.750179E+02 -4.138393E+04
        30  21 -1.214983E+03  4.311143E+03  2.725055E+04  7.372670E+02  1.272116E+02 -1.914763E+04
        30  22  4.515132E+04  4.304536E+03  8.826167E+04  2.714377E+02  4.227560E+02 -6.362044E+04
        30  23 -1.094193E+04 -5.375572E+03  4.228720E+04 -3.698992E+01  2.749951E+02 -4.138393E+04
        30  24 -1.204700E+03  4.300858E+03  2.725055E+04 -3.658589E+01  1.272354E+02 -1.914763E+04
        30  25  4.513196E+04  4.323902E+03  8.826167E+04  1.728362E+03  4.226067E+02 -6.362044E+04
        30  26 -1.094647E+04 -5.371032E+03  4.228720E+04  3.045440E+02  2.749723E+02 -4.138393E+04
        30  27 -1.194414E+03  4.290573E+03  2.725055E+04 -8.104387E+02  1.272593E+02 -1.914763E+04
        31   1  7.010810E+03  8.507098E+02  2.246835E+04 -1.898475E+02 -9.722815E+01  1.463102E+04
        31   2 -1.964589E+03 -1.067289E+03  1.326859E+04 -4.517517E+01 -5.206395E+01  7.835015E+03
        31   3  8.812970E+02  8.554328E+02  1.144895E+04  1.525274E+02 -6.904762E+00  1.039134E+03
        31   4  7.007743E+03  8.537764E+02  2.246835E+04  4.089474E+01 -9.722272E+01  1.463102E+04
        31   5 -1.965111E+03 -1.066768E+03  1.326859E+04 -5.969722E+00 -5.206345E+01  7.835015E+03
        31   6  8.833215E+02  8.534083E+02  1.144895E+04  1.987814E-01 -6.905017E+00  1.039134E+03
        31   7  7.004677E+03  8.568431E+02  2.246835E+04  2.716370E+02 -9.721728E+01  1.463102E+04
        31   8 -1.965632E+03 -1.066247E+03  1.326859E+04  3.323573E+01 -5.206296E+01  7.835015E+03
        31   9  8.853461E+02  8.513838E+02  1.144895E+04 -1.521299E+02 -6.905272E+00  1.039134E+03
        31  10  7.010752E+03  8.504799E+02  2.246795E+04 -1.898463E+02 -4.405566E-09  2.141407E-10
        31  11 -1.964606E+03 -1.067355E+03  1.326848E+04 -4.517485E+01 -8.509133E-09  2.623187E-10
        31  12  8.812967E+02  8.554317E+02  1.144895E+04  1.525275E+02 -1.487889E-09 -1.545704E-10
        31  13  7.007686E+03  8.535465E+02  2.246795E+04  4.089589E+01 -8.901562E-09 -7.641301E-12
        31  14 -1.965127E+03 -1.066834E+03  1.326848E+04 -5.969393E+00  2.535049E-09 -3.517464E-11
        31  15  8.833212E+02  8.534071E+02  1.144895E+04  1.987872E-01 -3.334537E-09 -1.267746E-10
        31  16  7.004619E+03  8.566133E+02  2.246795E+04  2.716381E+02 -3.259052E-09 -2.872139E-10
        31  17 -1.965648E+03 -1.066313E+03  1.326848E+04  3.323606E+01 -1.257605E-09 -3.738212E-10
        31  18  8.853458E+02  8.513826E+02  1.144895E+04 -1.521299E+02  1.895056E-09  1.642504E-10
        31  19  7.010810E+03  8.507098E+02  2.246835E+04 -1.898475E+02  9.722815E+01 -1.463102E+04
        31  20 -1.964589E+03 -1.067289E+03  1.326859E+04 -4.517517E+01  5.206395E+01 -7.835015E+03
        31  21  8.812970E+02  8.554328E+02  1.144895E+04  1.525274E+02  6.904762E+00 -1.039134E+03
        31  22  7.007743E+03  8.537764E+02  2.246835E+04  4.089474E+01  9.722272E+01 -1.463102E+04
        31  23 -1.965111E+03 -1.066768E+03  1.326859E+04 -5.969722E+00  5.206345E+01 -7.835015E+03
        31  24  8.833215E+02  8.534083E+02  1.144895E+04  1.987814E-01  6.905017E+00 -1.039134E+03
        31  25  7.004677E+03  8.568431E+02  2.246835E+04  2.716370E+02  9.721728E+01 -1.463102E+04
        31  26 -1.965632E+03 -1.066247E+03  1.326859E+04  3.323573E+01  5.206296E+01 -7.835015E+03
        31  27  8.853461E+02  8.513838E+02  1.144895E+04 -1.521299E+02  6.905272E+00 -1.039134E+03
        32   1 -9.643535E+06 -3.022026E+06 -1.954116E+06 -3.370849E+06 -1.033797E+06 -3.804848E+05
        32   2 -9.420350E+06 -1.544838E+06 -1.007186E+06 -3.630339E+06 -6.692889E+05 -2.113662E+05
        32   3 -9.838293E+06 -1.559376E+06 -7.570184E+05 -3.471380E+06 -2.947242E+05 -6.862947E+04
        32   4 -8.626585E+06 -2.327854E+06 -1.612085E+06 -2.785483E+06 -1.019295E+06 -3.755769E+05
        32   5 -8.220107E+06 -1.002223E+06 -6.663002E+05 -3.215468E+06 -6.648787E+05 -2.098038E+05
        32   6 -8.451738E+06 -1.164712E+06 -4.082948E+05 -3.227372E+06 -3.002964E+05 -7.067564E+04
        32   7 -7.608383E+06 -1.632709E+06 -1.270138E+06 -2.199009E+06 -1.004766E+06 -3.706397E+05
        32   8 -7.018426E+06 -4.593393E+05 -3.255536E+05 -2.799797E+06 -6.604578E+05 -2.082356E+05
        32   9 -7.063272E+06 -7.700915E+05 -5.970846E+04 -2.982956E+06 -3.058819E+05 -7.272393E+04
        32  10 -9.644739E+06 -3.022477E+06 -1.956437E+06 -3.371170E+06 -6.263642E-10 -1.392857E-09
        32  11 -9.420850E+06 -1.545010E+06 -1.008128E+06 -3.630455E+06 -5.075508E-09 -3.612131E-09
        32  12 -9.838389E+06 -1.559405E+06 -7.571936E+05 -3.471396E+06  4.394959E-09  3.655184E-10
        32  13 -8.627753E+06 -2.328292E+06 -1.614337E+06 -2.785795E+06  2.603534E-09 -1.099808E-09
        32  14 -8.220599E+06 -1.002392E+06 -6.672279E+05 -3.215581E+06 -4.203246E-10 -2.410397E-09
        32  15 -8.451837E+06 -1.164742E+06 -4.084765E+05 -3.227390E+06 -2.078205E-09  4.510904E-10
        32  16 -7.609517E+06 -1.633134E+06 -1.272323E+06 -2.199311E+06 -3.506744E-10 -1.036734E-09
        32  17 -7.018911E+06 -4.595055E+05 -3.264669E+05 -2.799909E+06  3.550264E-09 -8.342802E-10
        32  18 -7.063375E+06 -7.701228E+05 -5.989668E+04 -2.982974E+06 -1.347051E-09  1.712146E-09
        32  19 -9.643535E+06 -3.022026E+06 -1.954116E+06 -3.370849E+06  1.033797E+06  3.804848E+05
        32  20 -9.420350E+06 -1.544838E+06 -1.007186E+06 -3.630339E+06  6.692889E+05  2.113662E+05
        32  21 -9.838293E+06 -1.559376E+06 -7.570184E+05 -3.471380E+06  2.947242E+05  6.862947E+04
        32  22 -8.626585E+06 -2.327854E+06 -1.612085E+06 -2.785483E+06  1.019295E+06  3.755769E+05
        32  23 -8.220107E+06 -1.002223E+06 -6.663002E+05 -3.215468E+06  6.648787E+05  2.098038E+05
        32  24 -8.451738E+06 -1.164712E+06 -4.082948E+05 -3.227372E+06  3.002964E+05  7.067564E+04
        32  25 -7.608383E+06 -1.632709E+06 -1.270138E+06 -2.199009E+06  1.004766E+06  3.706397E+05
        32  26 -7.018426E+06 -4.593393E+05 -3.255536E+05 -2.799797E+06  6.604578E+05  2.082356E+05
        32  27 -7.063272E+06 -7.700915E+05 -5.970846E+04 -2.982956E+06  3.058819E+05  7.272393E+04
        33   1 -9.635186E+06 -1.859214E+06 -6.778854E+05 -3.515296E+06 -2.413550E+05 -5.252749E+04
        33   2 -9.574697E+06 -1.645499E+06 -4.880219E+05 -3.513232E+06 -1.586198E+05 -1.974685E+04
        33   3 -9.560235E+06 -1.645870E+06 -4.102576E+05 -3.500032E+06 -7.439483E+04  9.115936E+03
        33   4 -8.389394E+06 -1.350273E+06 -3.334581E+05 -3.139782E+06 -2.404201E+05 -5.219474E+04
        33   5 -8.356094E+06 -1.173315E+06 -1.568578E+05 -3.171719E+06 -1.590895E+05 -1.993279E+04
        33   6 -8.368388E+06 -1.209927E+06 -9.105353E+04 -3.192551E+06 -7.627457E+04  8.404703E+03
        33   7 -7.142078E+06 -8.411727E+05  1.082335E+04 -2.763551E+06 -2.394826E+05 -5.186085E+04
        33   8 -7.136036E+06 -7.010252E+05  1.741713E+05 -2.829582E+06 -1.595600E+05 -2.011901E+04
        33   9 -7.175150E+06 -7.739246E+05  2.280262E+05 -2.884538E+06 -7.815822E+04  7.692126E+03
        33  10 -9.635250E+06 -1.859233E+06 -6.780021E+05 -3.515307E+06  4.628798E-09  5.395518E-09
        33  11 -9.574724E+06 -1.645506E+06 -4.880707E+05 -3.513235E+06 -2.300637E-09  1.608777E-09
        33  12 -9.560241E+06 -1.645871E+06 -4.102683E+05 -3.500032E+06  1.642057E-09 -7.716618E-10
        33  13 -8.389457E+06 -1.350292E+06 -3.335736E+05 -3.139792E+06 -4.822876E-09  1.822798E-09
        33  14 -8.356122E+06 -1.173322E+06 -1.569068E+05 -3.171721E+06  2.717909E-10  5.937518E-10
        33  15 -8.368394E+06 -1.209929E+06 -9.106472E+04 -3.192551E+06 -3.154372E-09  8.248776E-11
        33  16 -7.142141E+06 -8.411912E+05  1.070905E+04 -2.763561E+06 -8.396638E-09 -1.021453E-09
        33  17 -7.136064E+06 -7.010326E+05  1.741221E+05 -2.829585E+06 -7.611075E-09 -1.269880E-09
        33  18 -7.175156E+06 -7.739263E+05  2.280145E+05 -2.884537E+06 -9.771793E-10  9.202251E-10
        33  19 -9.635186E+06 -1.859214E+06 -6.778854E+05 -3.515296E+06  2.413550E+05  5.252749E+04
        33  20 -9.574697E+06 -1.645499E+06 -4.880219E+05 -3.513232E+06  1.586198E+05  1.974685E+04
        33  21 -9.560235E+06 -1.645870E+06 -4.102576E+05 -3.500032E+06  7.439483E+04 -9.115936E+03
        33  22 -8.389394E+06 -1.350273E+06 -3.334581E+05 -3.139782E+06  2.404201E+05  5.219474E+04
        33  23 -8.356094E+06 -1.173315E+06 -1.568578E+05 -3.171719E+06  1.590895E+05  1.993279E+04
        33  24 -8.368388E+06 -1.209927E+06 -9.105353E+04 -3.192551E+06  7.627457E+04 -8.404703E+03
        33  25 -7.142078E+06 -8.411727E+05  1.082335E+04 -2.763551E+06  2.394826E+05  5.186085E+04
        33  26 -7.136036E+06 -7.010252E+05  1.741713E+05 -2.829582E+06  1.595600E+05  2.011901E+04
        33  27 -7.175150E+06 -7.739246E+05  2.280262E+05 -2.884538E+06  7.815822E+04 -7.692126E+03
        34   1 -9.387578E+06 -1.636381E+06 -3.518616E+05 -3.476312E+06 -6.109270E+04  1.153373E+04
        34   2 -9.312662E+06 -1.536683E+06 -2.876483E+05 -3.408027E+06 -4.065058E+04  1.505299E+04
        34   3 -9.173336E+06 -1.532456E+06 -2.434001E+05 -3.418305E+06 -1.970934E+04  1.721939E+04
        34   4 -8.352033E+06 -1.240154E+06 -7.158980E+04 -3.191146E+06 -6.234233E+04  1.105915E+04
        34   5 -8.382992E+06 -1.183915E+06 -3.647818E+04 -3.155048E+06 -4.240892E+04  1.438981E+04
        34   6 -8.349437E+06 -1.223014E+06 -2.089507E+04 -3.197510E+06 -2.198037E+04  1.636705E+04
        34   7 -7.315439E+06 -8.438575E+05  2.085853E+05 -2.905540E+06 -6.359423E+04  1.058370E+04
        34   8 -7.452478E+06 -8.310959E+05  2.146140E+05 -2.901721E+06 -4.417015E+04  1.372555E+04
        34   9 -7.524876E+06 -9.135342E+05  2.015486E+05 -2.976448E+06 -2.425475E+04  1.551348E+04
        34  10 -9.387582E+06 -1.636382E+06 -3.518690E+05 -3.476311E+06 -3.523675E-09 -4.711288E-10
        34  11 -9.312664E+06 -1.536683E+06 -2.876519E+05 -3.408027E+06 -5.919758E-09  1.373357E-10
        34  12 -9.173337E+06 -1.532457E+06 -2.434014E+05 -3.418304E+06  6.125210E-09 -1.821530E-09
        34  13 -8.352038E+06 -1.240155E+06 -7.159741E+04 -3.191145E+06 -5.172025E-09  3.875989E-11
        34  14 -8.382994E+06 -1.183916E+06 -3.648198E+04 -3.155048E+06 -5.174988E-10 -1.698468E-10
        34  15 -8.349437E+06 -1.223014E+06 -2.089648E+04 -3.197510E+06 -2.038046E-09 -1.600856E-09
        34  16 -7.315444E+06 -8.438587E+05  2.085775E+05 -2.905540E+06 -2.060069E-09  1.007292E-09
        34  17 -7.452481E+06 -8.310966E+05  2.146100E+05 -2.901721E+06  2.584580E-09  4.565274E-11
        34  18 -7.524877E+06 -9.135346E+05  2.015470E+05 -2.976448E+06 -9.362963E-09 -2.702625E-09
        34  19 -9.387578E+06 -1.636381E+06 -3.518616E+05 -3.476312E+06  6.109270E+04 -1.153373E+04
        34  20 -9.312662E+06 -1.536683E+06 -2.876483E+05 -3.408027E+06  4.065058E+04 -1.505299E+04
        34  21 -9.173336E+06 -1.532456E+06 -2.434001E+05 -3.418305E+06  1.970934E+04 -1.721939E+04
        34  22 -8.352033E+06 -1.240154E+06 -7.158980E+04 -3.191146E+06  6.234233E+04 -1.105915E+04
        34  23 -8.382992E+06 -1.183915E+06 -3.647818E+04 -3.155048E+06  4.240892E+04 -1.438981E+04
        34  24 -8.349437E+06 -1.223014E+06 -2.089507E+04 -3.197510E+06  2.198037E+04 -1.636705E+04
        34  25 -7.315439E+06 -8.438575E+05  2.085853E+05 -2.905540E+06  6.359423E+04 -1.058370E+04
        34  26 -7.452478E+06 -8.310959E+05  2.146140E+05 -2.901721E+06  4.417015E+04 -1.372555E+04
        34  27 -7.524876E+06 -9.135342E+05  2.015486E+05 -2.976448E+06  2.425475E+04 -1.551348E+04
        35   1 -8.928839E+06 -1.453166E+06 -1.741953E+05 -3.361835E+06 -1.551283E+04  1.504814E+04
        35   2 -8.830354E+06 -1.344492E+06 -1.279699E+05 -3.264562E+06 -8.261845E+03  1.116802E+04
        35   3 -8.633210E+06 -1.338900E+06 -8.630442E+04 -3.281817E+06 -8.138707E+02  6.742377E+03
        35   4 -8.342711E+06 -1.231485E+06 -1.646079E+04 -3.202929E+06 -1.772116E+04  1.422106E+04
        35   5 -8.391883E+06 -1.178933E+06 -9.698925E+03 -3.146042E+06 -1.068346E+04  1.026277E+04
        35   6 -8.342381E+06 -1.229413E+06 -7.321806E+03 -3.203686E+06 -3.450253E+03  5.758733E+03
        35   7 -7.756245E+06 -1.009783E+06  1.412437E+05 -3.043885E+06 -1.993182E+04  1.339312E+04
        35   8 -7.953224E+06 -1.013362E+06  1.085547E+05 -3.027445E+06 -1.310698E+04  9.356819E+03
        35   9 -8.051471E+06 -1.119923E+06  7.165265E+04 -3.125521E+06 -6.087993E+03  4.774585E+03
        35  10 -8.928839E+06 -1.453167E+06 -1.741962E+05 -3.361834E+06  2.021330E-09 -7.899161E-10
        35  11 -8.830354E+06 -1.344493E+06 -1.279703E+05 -3.264562E+06  9.985377E-11 -6.165070E-10
        35  12 -8.633210E+06 -1.338900E+06 -8.630451E+04 -3.281817E+06 -7.987129E-10 -6.109700E-10
        35  13 -8.342711E+06 -1.231486E+06 -1.646176E+04 -3.202929E+06 -2.147773E-09 -9.919491E-10
        35  14 -8.391883E+06 -1.178933E+06 -9.699337E+03 -3.146042E+06  6.530185E-09  1.241929E-09
        35  15 -8.342381E+06 -1.229413E+06 -7.321891E+03 -3.203686E+06 -3.972574E-09  7.928845E-10
        35  16 -7.756245E+06 -1.009784E+06  1.412426E+05 -3.043885E+06 -1.785288E-09 -1.610989E-09
        35  17 -7.953225E+06 -1.013362E+06  1.085542E+05 -3.027445E+06 -6.138135E-09  9.446412E-10
        35  18 -8.051471E+06 -1.119923E+06  7.165254E+04 -3.125521E+06  6.099838E-09 -7.605936E-10
        35  19 -8.928839E+06 -1.453166E+06 -1.741953E+05 -3.361835E+06  1.551283E+04 -1.504814E+04
        35  20 -8.830354E+06 -1.344492E+06 -1.279699E+05 -3.264562E+06  8.261845E+03 -1.116802E+04
        35  21 -8.633210E+06 -1.338900E+06 -8.630442E+04 -3.281817E+06  8.138707E+02 -6.742377E+03
        35  22 -8.342711E+06 -1.231485E+06 -1.646079E+04 -3.202929E+06  1.772116E+04 -1.422106E+04
        35  23 -8.391883E+06 -1.178933E+06 -9.698925E+03 -3.146042E+06  1.068346E+04 -1.026277E+04
        35  24 -8.342381E+06 -1.229413E+06 -7.321806E+03 -3.203686E+06  3.450253E+03 -5.758733E+03
        35  25 -7.756245E+06 -1.009783E+06  1.412437E+05 -3.043885E+06  1.993182E+04 -1.339312E+04
        35  26 -7.953224E+06 -1.013362E+06  1.085547E+05 -3.027445E+06  1.310698E+04 -9.356819E+03
        35  27 -8.051471E+06 -1.119923E+06  7.165265E+04 -3.125521E+06  6.087993E+03 -4.774585E+03
        36   1 -8.350822E+06 -1.234573E+06 -9.186296E+03 -3.208047E+06  1.810908E+03  3.311681E+03
        36   2 -8.246703E+06 -1.121990E+06  3.109815E+04 -3.104539E+06  8.404026E+03 -1.631058E+03
        36   3 -8.038320E+06 -1.117724E+06  6.755740E+04 -3.122406E+06  1.492623E+04 -6.372135E+03
        36   4 -8.341147E+06 -1.230773E+06 -7.134517E+03 -3.205131E+06 -8.274522E+02  2.327775E+03
        36   5 -8.393374E+06 -1.177336E+06 -8.444370E+03 -3.144168E+06  5.844845E+03 -2.586085E+03
        36   6 -8.341373E+06 -1.232236E+06 -1.364142E+04 -3.204594E+06  1.244504E+04 -7.298606E+03
        36   7 -8.331473E+06 -1.226973E+06 -5.082703E+03 -3.202215E+06 -3.465865E+03  1.343847E+03
        36   8 -8.540024E+06 -1.232682E+06 -4.798900E+04 -3.183790E+06  3.286324E+03 -3.540865E+03
        36   9 -8.644338E+06 -1.346743E+06 -9.484900E+04 -3.286746E+06  9.965169E+03 -8.224579E+03
        36  10 -8.350822E+06 -1.234573E+06 -9.186323E+03 -3.208047E+06 -1.430362E-09 -3.125381E-09
        36  11 -8.246703E+06 -1.121990E+06  3.109801E+04 -3.104539E+06  2.748472E-09  1.655190E-11
        36  12 -8.038320E+06 -1.117724E+06  6.755690E+04 -3.122406E+06  1.015326E-09 -1.039050E-09
        36  13 -8.341147E+06 -1.230773E+06 -7.134528E+03 -3.205131E+06 -2.637989E-09 -1.176945E-09
        36  14 -8.393374E+06 -1.177336E+06 -8.444447E+03 -3.144168E+06 -7.310852E-10 -1.056350E-09
        36  15 -8.341373E+06 -1.232236E+06 -1.364181E+04 -3.204594E+06  3.130074E-09  5.710331E-10
        36  16 -8.331473E+06 -1.226973E+06 -5.082729E+03 -3.202215E+06  3.347863E-09 -1.338622E-09
        36  17 -8.540024E+06 -1.232682E+06 -4.798905E+04 -3.183790E+06 -5.425821E-09 -3.365349E-09
        36  18 -8.644338E+06 -1.346743E+06 -9.484931E+04 -3.286746E+06 -1.495462E-09 -1.651092E-09
        36  19 -8.350822E+06 -1.234573E+06 -9.186296E+03 -3.208047E+06 -1.810908E+03 -3.311681E+03
        36  20 -8.246703E+06 -1.121990E+06  3.109815E+04 -3.104539E+06 -8.404026E+03  1.631058E+03
        36  21 -8.038320E+06 -1.117724E+06  6.755740E+04 -3.122406E+06 -1.492623E+04  6.372135E+03
        36  22 -8.341147E+06 -1.230773E+06 -7.134517E+03 -3.205131E+06  8.274522E+02 -2.327775E+03
        36  23 -8.393374E+06 -1.177336E+06 -8.444370E+03 -3.144168E+06 -5.844845E+03  2.586085E+03
        36  24 -8.341373E+06 -1.232236E+06 -1.364142E+04 -3.204594E+06 -1.244504E+04  7.298606E+03
        36  25 -8.331473E+06 -1.226973E+06 -5.082703E+03 -3.202215E+06  3.465865E+03 -1.343847E+03
        36  26 -8.540024E+06 -1.232682E+06 -4.798900E+04 -3.183790E+06 -3.286324E+03  3.540865E+03
        36  27 -8.644338E+06 -1.346743E+06 -9.484900E+04 -3.286746E+06 -9.965169E+03  8.224579E+03
        37   1 -7.775735E+06 -1.013103E+06  1.367558E+05 -3.049280E+06  1.887115E+04 -9.099020E+03
        37   2 -7.687443E+06 -9.148751E+05  1.593188E+05 -2.959662E+06  3.567371E+04 -9.438107E+03
        37   3 -7.517487E+06 -9.236710E+05  1.662780E+05 -2.968273E+06  5.208735E+04 -8.697426E+03
        37   4 -8.345713E+06 -1.226551E+06 -1.714712E+04 -3.201504E+06  1.632418E+04 -1.005129E+04
        37   5 -8.387538E+06 -1.179929E+06 -2.954032E+04 -3.149814E+06  3.354067E+04 -1.023823E+04
        37   6 -8.347806E+06 -1.240435E+06 -5.788240E+04 -3.196365E+06  5.036466E+04 -9.346163E+03
        37   7 -8.915370E+06 -1.439980E+06 -1.710781E+05 -3.353600E+06  1.377982E+04 -1.100260E+04
        37   8 -9.087152E+06 -1.444952E+06 -2.184426E+05 -3.339769E+06  3.141030E+04 -1.103736E+04
        37   9 -9.177449E+06 -1.557155E+06 -2.821045E+05 -3.424177E+06  4.864450E+04 -9.993935E+03
        37  10 -7.775736E+06 -1.013103E+06  1.367550E+05 -3.049280E+06 -1.294658E-09 -6.097927E-10
        37  11 -7.687444E+06 -9.148756E+05  1.593162E+05 -2.959662E+06  3.384705E-09 -2.190907E-09
        37  12 -7.517490E+06 -9.236718E+05  1.662727E+05 -2.968273E+06  3.410590E-09 -9.293787E-10
        37  13 -8.345713E+06 -1.226551E+06 -1.714781E+04 -3.201504E+06  4.019306E-09  8.175689E-10
        37  14 -8.387539E+06 -1.179929E+06 -2.954265E+04 -3.149814E+06  4.032881E-09 -1.258375E-09
        37  15 -8.347808E+06 -1.240436E+06 -5.788738E+04 -3.196365E+06  3.619691E-09  8.535504E-10
        37  16 -8.915370E+06 -1.439980E+06 -1.710786E+05 -3.353600E+06 -1.327178E-09 -1.778310E-09
        37  17 -9.087153E+06 -1.444952E+06 -2.184447E+05 -3.339768E+06  6.515833E-09 -1.420988E-09
        37  18 -9.177452E+06 -1.557156E+06 -2.821092E+05 -3.424176E+06  3.402360E-09  3.064215E-09
        37  19 -7.775735E+06 -1.013103E+06  1.367558E+05 -3.049280E+06 -1.887115E+04  9.099020E+03
        37  20 -7.687443E+06 -9.148751E+05  1.593188E+05 -2.959662E+06 -3.567371E+04  9.438107E+03
        37  21 -7.517487E+06 -9.236710E+05  1.662780E+05 -2.968273E+06 -5.208735E+04  8.697426E+03
        37  22 -8.345713E+06 -1.226551E+06 -1.714712E+04 -3.201504E+06 -1.632418E+04  1.005129E+04
        37  23 -8.387538E+06 -1.179929E+06 -2.954032E+04 -3.149814E+06 -3.354067E+04  1.023823E+04
        37  24 -8.347806E+06 -1.240435E+06 -5.788240E+04 -3.196365E+06 -5.036466E+04  9.346163E+03
        37  25 -8.915370E+06 -1.439980E+06 -1.710781E+05 -3.353600E+06 -1.377982E+04  1.100260E+04
        37  26 -9.087152E+06 -1.444952E+06 -2.184426E+05 -3.339769E+06 -3.141030E+04  1.103736E+04
        37  27 -9.177449E+06 -1.557155E+06 -2.821045E+05 -3.424177E+06 -4.864450E+04  9.993935E+03
        38   1 -7.324110E+06 -8.365367E+05  2.039902E+05 -2.929303E+06  6.446891E+04 -7.509096E+03
        38   2 -7.264350E+06 -7.473414E+05  1.718263E+05 -2.856807E+06  1.305915E+05  1.291683E+04
        38   3 -7.212081E+06 -8.590020E+05  5.149628E+04 -2.808497E+06  1.952609E+05  3.724836E+04
        38   4 -8.361206E+06 -1.215694E+06 -7.353868E+04 -3.197098E+06  6.207670E+04 -8.409416E+03
        38   5 -8.365697E+06 -1.171813E+06 -1.266374E+05 -3.163749E+06  1.296445E+05  1.255388E+04
        38   6 -8.378086E+06 -1.329262E+06 -2.691874E+05 -3.154577E+06  1.957504E+05  3.741780E+04
        38   7 -9.397256E+06 -1.594807E+06 -3.511628E+05 -3.464492E+06  5.968886E+04 -9.308230E+03
        38   8 -9.465859E+06 -1.596202E+06 -4.252111E+05 -3.470188E+06  1.286992E+05  1.219159E+04
        38   9 -9.542758E+06 -1.799392E+06 -5.899972E+05 -3.500042E+06  1.962385E+05  3.758665E+04
        38  10 -7.324115E+06 -8.365379E+05  2.039822E+05 -2.929303E+06  1.883602E-09  3.890511E-10
        38  11 -7.264369E+06 -7.473462E+05  1.717935E+05 -2.856809E+06 -7.429389E-11 -1.347847E-09
        38  12 -7.212123E+06 -8.590139E+05  5.142106E+04 -2.808503E+06  5.362976E-12 -1.737470E-09
        38  13 -8.361211E+06 -1.215695E+06 -7.354613E+04 -3.197098E+06  2.559155E-10  3.115367E-10
        38  14 -8.365715E+06 -1.171818E+06 -1.266697E+05 -3.163750E+06 -3.442485E-09 -2.040003E-09
        38  15 -8.378128E+06 -1.329274E+06 -2.692632E+05 -3.154583E+06 -4.626156E-09 -1.899683E-09
        38  16 -9.397260E+06 -1.594808E+06 -3.511698E+05 -3.464491E+06 -5.249120E-09  7.059158E-10
        38  17 -9.465877E+06 -1.596206E+06 -4.252430E+05 -3.470189E+06 -1.681639E-09 -1.317588E-09
        38  18 -9.542800E+06 -1.799404E+06 -5.900735E+05 -3.500048E+06  2.736748E-09 -4.103899E-10
        38  19 -7.324110E+06 -8.365367E+05  2.039902E+05 -2.929303E+06 -6.446891E+04  7.509096E+03
        38  20 -7.264350E+06 -7.473414E+05  1.718263E+05 -2.856807E+06 -1.305915E+05 -1.291683E+04
        38  21 -7.212081E+06 -8.590020E+05  5.149628E+04 -2.808497E+06 -1.952609E+05 -3.724836E+04
        38  22 -8.361206E+06 -1.215694E+06 -7.353868E+04 -3.197098E+06 -6.207670E+04  8.409416E+03
        38  23 -8.365697E+06 -1.171813E+06 -1.266374E+05 -3.163749E+06 -1.296445E+05 -1.255388E+04
        38  24 -8.378086E+06 -1.329262E+06 -2.691874E+05 -3.154577E+06 -1.957504E+05 -3.741780E+04
        38  25 -9.397256E+06 -1.594807E+06 -3.511628E+05 -3.464492E+06 -5.968886E+04  9.308230E+03
        38  26 -9.465859E+06 -1.596202E+06 -4.252111E+05 -3.470188E+06 -1.286992E+05 -1.219159E+04
        38  27 -9.542758E+06 -1.799392E+06 -5.899972E+05 -3.500042E+06 -1.962385E+05 -3.758665E+04
        39   1 -7.082154E+06 -7.733967E+05  1.307070E+04 -2.964926E+06  2.512942E+05  5.278012E+04
        39   2 -7.025269E+06 -5.002479E+05 -1.933906E+05 -2.795844E+06  5.355608E+05  1.591590E+05
        39   3 -7.457012E+06 -1.446653E+06 -9.454084E+05 -2.314832E+06  8.090782E+05  2.938851E+05
        39   4 -8.430117E+06 -1.177598E+06 -3.295566E+05 -3.223084E+06  2.448275E+05  5.038042E+04
        39   5 -8.254311E+06 -1.035862E+06 -5.380214E+05 -3.201439E+06  5.398304E+05  1.607010E+05
        39   6 -8.570323E+06 -2.117458E+06 -1.301496E+06 -2.867541E+06  8.241264E+05  2.992126E+05
        39   7 -9.776291E+06 -1.581829E+06 -6.723205E+05 -3.480801E+06  2.383760E+05  4.798368E+04
        39   8 -9.481852E+06 -1.571239E+06 -8.827943E+05 -3.606246E+06  5.440895E+05  1.622377E+05
        39   9 -9.682254E+06 -2.787493E+06 -1.657697E+06 -3.419150E+06  8.391435E+05  3.045126E+05
        39  10 -7.082224E+06 -7.734170E+05  1.294518E+04 -2.964937E+06 -5.017939E-09  6.417075E-10
        39  11 -7.025587E+06 -5.003537E+05 -1.939851E+05 -2.795914E+06 -2.791606E-09  1.589720E-09
        39  12 -7.457745E+06 -1.446925E+06 -9.468194E+05 -2.315025E+06  1.062972E-09 -2.178642E-10
        39  13 -8.430183E+06 -1.177617E+06 -3.296758E+05 -3.223094E+06 -2.454042E-09  2.064602E-10
        39  14 -8.254634E+06 -1.035969E+06 -5.386269E+05 -3.201509E+06 -5.100809E-09  4.219856E-09
        39  15 -8.571085E+06 -2.117741E+06 -1.302963E+06 -2.867742E+06 -4.259592E-09  3.401488E-10
        39  16 -9.776353E+06 -1.581847E+06 -6.724335E+05 -3.480810E+06  1.510893E-09 -7.794509E-10
        39  17 -9.482181E+06 -1.571349E+06 -8.834109E+05 -3.606318E+06 -9.050508E-09  1.997264E-09
        39  18 -9.683046E+06 -2.787788E+06 -1.659221E+06 -3.419358E+06 -2.883673E-09 -1.041993E-09
        39  19 -7.082154E+06 -7.733967E+05  1.307070E+04 -2.964926E+06 -2.512942E+05 -5.278012E+04
        39  20 -7.025269E+06 -5.002479E+05 -1.933906E+05 -2.795844E+06 -5.355608E+05 -1.591590E+05
        39  21 -7.457012E+06 -1.446653E+06 -9.454084E+05 -2.314832E+06 -8.090782E+05 -2.938851E+05
        39  22 -8.430117E+06 -1.177598E+06 -3.295566E+05 -3.223084E+06 -2.448275E+05 -5.038042E+04
        39  23 -8.254311E+06 -1.035862E+06 -5.380214E+05 -3.201439E+06 -5.398304E+05 -1.607010E+05
        39  24 -8.570323E+06 -2.117458E+06 -1.301496E+06 -2.867541E+06 -8.241264E+05 -2.992126E+05
        39  25 -9.776291E+06 -1.581829E+06 -6.723205E+05 -3.480801E+06 -2.383760E+05 -4.798368E+04
        39  26 -9.481852E+06 -1.571239E+06 -8.827943E+05 -3.606246E+06 -5.440895E+05 -1.622377E+05
        39  27 -9.682254E+06 -2.787493E+06 -1.657697E+06 -3.419150E+06 -8.391435E+05 -3.045126E+05
        40   1  2.877649E+05 -1.481246E+05  3.337354E+05 -2.007582E+05 -3.995829E+03  2.278893E+05
        40   2  1.151037E+04 -1.912471E+05  1.564291E+05 -8.983524E+04 -9.995634E+03  1.347826E+05
        40   3 -4.344246E+04 -1.669252E+05  9.507688E+04  1.887959E+04 -1.217147E+04  4.169506E+04
        40   4  3.252570E+05  1.494933E+04  3.714911E+05 -7.774001E+03 -3.993827E+03  2.401780E+05
        40   5  5.162110E+04 -1.924398E+04  1.905563E+05 -7.580957E+03 -1.001493E+04  1.414963E+05
        40   6  1.766023E+02  1.493559E+04  1.294256E+05 -9.583828E+03 -1.217936E+04  4.283365E+04
        40   7  3.628879E+05  1.781286E+05  4.092657E+05  1.852609E+05 -3.984190E+03  2.524700E+05
        40   8  9.175570E+04  1.528023E+05  2.246859E+05  7.469656E+04 -1.003245E+04  1.482118E+05
        40   9  4.379671E+04  1.968300E+05  1.637732E+05 -3.805575E+04 -1.218736E+04  4.397257E+04
        40  10  2.877509E+05 -1.481804E+05  3.336378E+05 -2.007575E+05 -1.287918E-09  4.189366E-10
        40  11  1.150539E+04 -1.912667E+05  1.563948E+05 -8.983416E+04 -1.041223E-09 -2.637275E-09
        40  12 -4.344309E+04 -1.669271E+05  9.507333E+04  1.888000E+04 -1.997310E-09  4.795781E-09
        40  13  3.252415E+05  1.488740E+04  3.713827E+05 -7.773229E+03 -2.755416E-09  1.456502E-09
        40  14  5.161562E+04 -1.926550E+04  1.905185E+05 -7.579816E+03  5.698452E-09 -5.864220E-11
        40  15  1.759506E+02  1.493358E+04  1.294218E+05 -9.583408E+03  9.703670E-09  8.203750E-10
        40  16  3.628708E+05  1.780602E+05  4.091459E+05  1.852617E+05  1.881417E-09 -1.093782E-09
        40  17  9.174970E+04  1.527787E+05  2.246444E+05  7.469776E+04  4.803093E-09  1.415369E-09
        40  18  4.379604E+04  1.968279E+05  1.637693E+05 -3.805532E+04 -3.200081E-09 -5.354588E-09
        40  19  2.877649E+05 -1.481246E+05  3.337354E+05 -2.007582E+05  3.995829E+03 -2.278893E+05
        40  20  1.151037E+04 -1.912471E+05  1.564291E+05 -8.983524E+04  9.995634E+03 -1.347826E+05
        40  21 -4.344246E+04 -1.669252E+05  9.507688E+04  1.887959E+04  1.217147E+04 -4.169506E+04
        40  22  3.252570E+05  1.494933E+04  3.714911E+05 -7.774001E+03  3.993827E+03 -2.401780E+05
        40  23  5.162110E+04 -1.924398E+04  1.905563E+05 -7.580957E+03  1.001493E+04 -1.414963E+05
        40  24  1.766023E+02  1.493559E+04  1.294256E+05 -9.583828E+03  1.217936E+04 -4.283365E+04
        40  25  3.628879E+05  1.781286E+05  4.092657E+05  1.852609E+05  3.984190E+03 -2.524700E+05
        40  26  9.175570E+04  1.528023E+05  2.246859E+05  7.469656E+04  1.003245E+04 -1.482118E+05
        40  27  4.379671E+04  1.968300E+05  1.637732E+05 -3.805575E+04  1.218736E+04 -4.397257E+04
        41   1 -3.322151E+04 -1.862872E+05  8.264749E+04 -1.779097E+04 -1.253680E+04  2.147800E+04
        41   2 -4.424666E+04 -2.041536E+05  8.164396E+04 -6.492128E+03 -1.317558E+04 -3.689049E+04
        41   3 -2.683462E+04 -2.073332E+05  1.257661E+05  2.071316E+03 -1.312346E+04 -9.525563E+04
        41   4  1.166595E+04  3.041624E+03  1.183162E+05 -9.399437E+03 -1.254662E+04  2.336660E+04
        41   5  3.208257E+03 -4.385816E+03  1.190498E+05 -7.999417E+03 -1.317998E+04 -3.601602E+04
        41   6  2.335766E+04  3.044618E+03  1.656041E+05 -9.334440E+03 -1.312070E+04 -9.539626E+04
        41   7  5.655162E+04  1.924052E+05  1.539835E+05 -1.005230E+03 -1.255637E+04  2.525575E+04
        41   8  5.066087E+04  1.954206E+05  1.564539E+05 -9.507151E+03 -1.318438E+04 -3.514127E+04
        41   9  7.354780E+04  2.134654E+05  2.054401E+05 -2.074410E+04 -1.311792E+04 -9.553694E+04
        41  10 -3.322180E+04 -1.862877E+05  8.264632E+04 -1.779076E+04 -5.088286E-09  2.944408E-09
        41  11 -4.424721E+04 -2.041551E+05  8.164108E+04 -6.492520E+03 -1.077401E-09 -4.631942E-09
        41  12 -2.683724E+04 -2.073430E+05  1.257487E+05  2.070309E+03  9.888343E-10 -2.264011E-09
        41  13  1.166564E+04  3.040995E+03  1.183149E+05 -9.399201E+03  7.152486E-09  1.205004E-09
        41  14  3.207722E+03 -4.387255E+03  1.190470E+05 -7.999799E+03  2.840715E-09 -3.058040E-10
        41  15  2.335503E+04  3.034801E+03  1.655866E+05 -9.335447E+03 -1.955796E-09  9.790529E-10
        41  16  5.655128E+04  1.924045E+05  1.539820E+05 -1.004975E+03 -6.564571E-09 -3.892956E-09
        41  17  5.066035E+04  1.954192E+05  1.564513E+05 -9.507524E+03  1.093212E-10  3.967230E-09
        41  18  7.354517E+04  2.134556E+05  2.054226E+05 -2.074511E+04 -3.822889E-10  1.640972E-09
        41  19 -3.322151E+04 -1.862872E+05  8.264749E+04 -1.779097E+04  1.253680E+04 -2.147800E+04
        41  20 -4.424666E+04 -2.041536E+05  8.164396E+04 -6.492128E+03  1.317558E+04  3.689049E+04
        41  21 -2.683462E+04 -2.073332E+05  1.257661E+05  2.071316E+03  1.312346E+04  9.525563E+04
        41  22  1.166595E+04  3.041624E+03  1.183162E+05 -9.399437E+03  1.254662E+04 -2.336660E+04
        41  23  3.208257E+03 -4.385816E+03  1.190498E+05 -7.999417E+03  1.317998E+04  3.601602E+04
        41  24  2.335766E+04  3.044618E+03  1.656041E+05 -9.334440E+03  1.312070E+04  9.539626E+04
        41  25  5.655162E+04  1.924052E+05  1.539835E+05 -1.005230E+03  1.255637E+04 -2.525575E+04
        41  26  5.066087E+04  1.954206E+05  1.564539E+05 -9.507151E+03  1.318438E+04  3.514127E+04
        41  27  7.354780E+04  2.134654E+05  2.054401E+05 -2.074410E+04  1.311792E+04  9.553694E+04
        42   1 -5.131454E+04 -1.902164E+05  1.612983E+05 -6.386365E+04 -1.334774E+04 -1.243249E+05
        42   2  4.211335E+04 -2.620846E+05  2.962288E+05  1.490013E+05 -1.023837E+04 -2.932688E+05
        42   3  5.556113E+05 -2.068364E+05  6.463034E+05  3.610029E+05 -1.324083E+03 -4.621714E+05
        42   4 -5.856594E+01  2.829730E+04  2.026217E+05 -9.520053E+03 -1.336352E+04 -1.233783E+05
        42   5  9.851576E+04 -3.592024E+04  3.421893E+05 -7.406431E+03 -1.012359E+04 -3.008961E+05
        42   6  6.183986E+05  2.832894E+04  7.027908E+05 -6.189655E+03 -9.649541E+02 -4.783785E+05
        42   7  5.120589E+04  2.468637E+05  2.439445E+05  4.484317E+04 -1.337913E+04 -1.224314E+05
        42   8  1.550065E+05  1.903451E+05  3.881604E+05 -1.638725E+05 -1.000500E+04 -3.085262E+05
        42   9  6.816878E+05  2.638341E+05  7.593472E+05 -3.735233E+05 -5.867537E+02 -4.945918E+05
        42  10 -5.131888E+04 -1.902331E+05  1.612689E+05 -6.386498E+04  1.496036E-10  4.765794E-08
        42  11  4.209014E+04 -2.621770E+05  2.960669E+05  1.489989E+05  7.610854E-09  2.685465E-09
        42  12  5.555540E+05 -2.070657E+05  6.459019E+05  3.610024E+05 -1.851439E-09 -3.149630E-08
        42  13 -6.284303E+01  2.828091E+04  2.025927E+05 -9.521381E+03 -5.034041E-09  1.318034E-09
        42  14  9.849135E+04 -3.601746E+04  3.420190E+05 -7.408883E+03 -8.440217E-09 -7.701738E-11
        42  15  6.183372E+05  2.808334E+04  7.023607E+05 -6.190027E+03 -8.787667E-10  1.029029E-09
        42  16  5.120168E+04  2.468475E+05  2.439160E+05  4.484185E+04  1.655364E-09 -4.856071E-08
        42  17  1.549809E+05  1.902429E+05  3.879814E+05 -1.638749E+05 -4.237823E-09 -3.233499E-09
        42  18  6.816222E+05  2.635716E+05  7.588877E+05 -3.735236E+05 -5.998251E-10  3.102572E-08
        42  19 -5.131454E+04 -1.902164E+05  1.612983E+05 -6.386365E+04  1.334774E+04  1.243249E+05
        42  20  4.211335E+04 -2.620846E+05  2.962288E+05  1.490013E+05  1.023837E+04  2.932688E+05
        42  21  5.556113E+05 -2.068364E+05  6.463034E+05  3.610029E+05  1.324083E+03  4.621714E+05
        42  22 -5.856594E+01  2.829730E+04  2.026217E+05 -9.520053E+03  1.336352E+04  1.233783E+05
        42  23  9.851576E+04 -3.592024E+04  3.421893E+05 -7.406431E+03  1.012359E+04  3.008961E+05
        42  24  6.183986E+05  2.832894E+04  7.027908E+05 -6.189655E+03  9.649541E+02  4.783785E+05
        42  25  5.120589E+04  2.468637E+05  2.439445E+05  4.484317E+04  1.337913E+04  1.224314E+05
        42  26  1.550065E+05  1.903451E+05  3.881604E+05 -1.638725E+05  1.000500E+04  3.085262E+05
        42  27  6.816878E+05  2.638341E+05  7.593472E+05 -3.735233E+05  5.867537E+02  4.945918E+05
        43   1 -6.316058E+06 -1.925549E+06 -1.196200E+06 -2.170852E+06 -4.957195E+05 -1.723252E+05
        43   2 -6.168009E+06 -1.191436E+06 -7.325519E+05 -2.256658E+06 -3.250972E+05 -7.443614E+04
        43   3 -6.273135E+06 -1.210944E+06 -6.008226E+05 -2.195105E+06 -1.420339E+05 -9.215191E+03
        43   4 -4.799281E+06 -1.218243E+06 -7.524172E+05 -1.625124E+06 -4.805023E+05 -1.666585E+05
        43   5 -4.634445E+06 -5.735332E+05 -3.107467E+05 -1.800961E+06 -3.211330E+05 -7.296332E+04
        43   6 -4.719858E+06 -6.791289E+05 -1.913742E+05 -1.829633E+06 -1.493351E+05 -1.196440E+04
        43   7 -3.280235E+06 -5.104504E+05 -3.088661E+05 -1.078068E+06 -4.652425E+05 -1.609673E+05
        43   8 -3.098594E+06  4.459195E+04  1.108395E+05 -1.344208E+06 -3.171571E+05 -7.148542E+04
        43   9 -3.164240E+06 -1.472761E+05  2.178711E+05 -1.463376E+06 -1.566563E+05 -1.471942E+04
        43  10 -6.316333E+06 -1.925648E+06 -1.196723E+06 -2.170921E+06 -3.429194E-10 -2.470854E-10
        43  11 -6.168125E+06 -1.191471E+06 -7.327633E+05 -2.256678E+06  3.068659E-09 -3.284757E-09
        43  12 -6.273157E+06 -1.210949E+06 -6.008611E+05 -2.195106E+06 -5.925623E-09  3.208379E-10
        43  13 -4.799538E+06 -1.218336E+06 -7.529075E+05 -1.625189E+06 -2.131926E-09 -3.771443E-09
        43  14 -4.634558E+06 -5.735670E+05 -3.109522E+05 -1.800980E+06 -4.503945E-09 -4.681637E-09
        43  15 -4.719882E+06 -6.791351E+05 -1.914167E+05 -1.829634E+06 -1.241465E-09  1.102636E-09
        43  16 -3.280476E+06 -5.105369E+05 -3.093242E+05 -1.078128E+06 -2.738101E-09 -9.713805E-10
        43  17 -3.098704E+06  4.455922E+04  1.106397E+05 -1.344227E+06  5.847879E-09 -2.266464E-09
        43  18 -3.164267E+06 -1.472830E+05  2.178243E+05 -1.463378E+06  4.412303E-09  2.736898E-09
        43  19 -6.316058E+06 -1.925549E+06 -1.196200E+06 -2.170852E+06  4.957195E+05  1.723252E+05
        43  20 -6.168009E+06 -1.191436E+06 -7.325519E+05 -2.256658E+06  3.250972E+05  7.443614E+04
        43  21 -6.273135E+06 -1.210944E+06 -6.008226E+05 -2.195105E+06  1.420339E+05  9.215191E+03
        43  22 -4.799281E+06 -1.218243E+06 -7.524172E+05 -1.625124E+06  4.805023E+05  1.666585E+05
        43  23 -4.634445E+06 -5.735332E+05 -3.107467E+05 -1.800961E+06  3.211330E+05  7.296332E+04
        43  24 -4.719858E+06 -6.791289E+05 -1.913742E+05 -1.829633E+06  1.493351E+05  1.196440E+04
        43  25 -3.280235E+06 -5.104504E+05 -3.088661E+05 -1.078068E+06  4.652425E+05  1.609673E+05
        43  26 -3.098594E+06  4.459195E+04  1.108395E+05 -1.344208E+06  3.171571E+05  7.148542E+04
        43  27 -3.164240E+06 -1.472761E+05  2.178711E+05 -1.463376E+06  1.566563E+05  1.471942E+04
        44   1 -6.024881E+06 -1.293722E+06 -5.225544E+05 -2.172876E+06 -1.195973E+05 -8.031363E+03
        44   2 -5.947477E+06 -1.126983E+06 -4.107391E+05 -2.115194E+06 -7.955799E+04  6.675151E+03
        44   3 -5.828046E+06 -1.129140E+06 -3.529590E+05 -2.122601E+06 -3.786820E+04  1.697582E+04
        44   4 -4.686921E+06 -7.716406E+05 -1.567726E+05 -1.792781E+06 -1.190966E+05 -7.851950E+03
        44   5 -4.703098E+06 -6.528403E+05 -7.334940E+04 -1.773183E+06 -8.054579E+04  6.298575E+03
        44   6 -4.676886E+06 -7.025089E+05 -4.267982E+04 -1.818685E+06 -4.035282E+04  1.604304E+04
        44   7 -3.347219E+06 -2.494228E+05  2.088463E+05 -1.411927E+06 -1.185945E+05 -7.671948E+03
        44   8 -3.457215E+06 -1.786000E+05  2.639012E+05 -1.430546E+06 -8.153565E+04  5.921217E+03
        44   9 -3.524443E+06 -2.758131E+05  2.674817E+05 -1.514262E+06 -4.284250E+04  1.510845E+04
        44  10 -6.024897E+06 -1.293726E+06 -5.225816E+05 -2.172877E+06 -5.074913E-09  2.969987E-09
        44  11 -5.947484E+06 -1.126985E+06 -4.107511E+05 -2.115193E+06  9.471574E-11 -1.969128E-10
        44  12 -5.828048E+06 -1.129141E+06 -3.529623E+05 -2.122600E+06 -3.825621E-09  1.804806E-10
        44  13 -4.686936E+06 -7.716445E+05 -1.567996E+05 -1.792781E+06  1.386442E-09  2.268031E-09
        44  14 -4.703105E+06 -6.528421E+05 -7.336175E+04 -1.773183E+06  8.484360E-10  1.238129E-10
        44  15 -4.676888E+06 -7.025096E+05 -4.268338E+04 -1.818685E+06  2.873473E-09 -2.451276E-10
        44  16 -3.347234E+06 -2.494267E+05  2.088196E+05 -1.411928E+06 -2.367255E-09  1.857691E-09
        44  17 -3.457223E+06 -1.786019E+05  2.638886E+05 -1.430546E+06  2.549819E-09 -4.025641E-10
        44  18 -3.524445E+06 -2.758139E+05  2.674778E+05 -1.514262E+06  4.966570E-09  9.288649E-10
        44  19 -6.024881E+06 -1.293722E+06 -5.225544E+05 -2.172876E+06  1.195973E+05  8.031363E+03
        44  20 -5.947477E+06 -1.126983E+06 -4.107391E+05 -2.115194E+06  7.955799E+04 -6.675151E+03
        44  21 -5.828046E+06 -1.129140E+06 -3.529590E+05 -2.122601E+06  3.786820E+04 -1.697582E+04
        44  22 -4.686921E+06 -7.716406E+05 -1.567726E+05 -1.792781E+06  1.190966E+05  7.851950E+03
        44  23 -4.703098E+06 -6.528403E+05 -7.334940E+04 -1.773183E+06  8.054579E+04 -6.298575E+03
        44  24 -4.676886E+06 -7.025089E+05 -4.267982E+04 -1.818685E+06  4.035282E+04 -1.604304E+04
        44  25 -3.347219E+06 -2.494228E+05  2.088463E+05 -1.411927E+06  1.185945E+05  7.671948E+03
        44  26 -3.457215E+06 -1.786000E+05  2.639012E+05 -1.430546E+06  8.153565E+04 -5.921217E+03
        44  27 -3.524443E+06 -2.758131E+05  2.674817E+05 -1.514262E+06  4.284250E+04 -1.510845E+04
        45   1 -5.553015E+06 -1.054692E+06 -2.731182E+05 -2.061211E+06 -3.129849E+04  1.554306E+04
        45   2 -5.464457E+06 -9.374375E+05 -2.189506E+05 -1.964012E+06 -2.035428E+04  1.406203E+04
        45   3 -5.274196E+06 -9.377403E+05 -1.744967E+05 -1.986022E+06 -9.050438E+03  1.158512E+04
        45   4 -4.667564E+06 -7.195511E+05 -3.382657E+04 -1.820005E+06 -3.288801E+04  1.494684E+04
        45   5 -4.717776E+06 -6.562214E+05 -1.716597E+04 -1.762104E+06 -2.228608E+04  1.334046E+04
        45   6 -4.666234E+06 -7.103629E+05 -9.933137E+03 -1.823411E+06 -1.132699E+04  1.073796E+04
        45   7 -3.781355E+06 -3.843640E+05  2.053944E+05 -1.578486E+06 -3.448002E+04  1.434969E+04
        45   8 -3.970555E+06 -3.749735E+05  1.845688E+05 -1.559975E+06 -2.422045E+04  1.261793E+04
        45   9 -4.057913E+06 -4.829654E+05  1.545977E+05 -1.660655E+06 -1.360601E+04  9.889888E+03
        45  10 -5.553016E+06 -1.054692E+06 -2.731205E+05 -2.061210E+06 -1.872812E-09  6.483235E-10
        45  11 -5.464457E+06 -9.374378E+05 -2.189518E+05 -1.964012E+06  1.644159E-09 -1.120560E-09
        45  12 -5.274196E+06 -9.377405E+05 -1.744971E+05 -1.986022E+06 -2.567418E-09 -2.543295E-09
        45  13 -4.667565E+06 -7.195516E+05 -3.382903E+04 -1.820005E+06  3.267216E-09  2.077351E-10
        45  14 -4.717776E+06 -6.562217E+05 -1.716724E+04 -1.762104E+06 -1.068474E-09  2.611737E-10
        45  15 -4.666234E+06 -7.103630E+05 -9.933595E+03 -1.823411E+06  1.854024E-09 -2.405820E-09
        45  16 -3.781356E+06 -3.843646E+05  2.053918E+05 -1.578486E+06  6.434131E-10 -2.251161E-10
        45  17 -3.970555E+06 -3.749738E+05  1.845674E+05 -1.559975E+06  4.283509E-09  2.150407E-10
        45  18 -4.057914E+06 -4.829655E+05  1.545972E+05 -1.660655E+06  1.830173E-09 -2.566538E-09
        45  19 -5.553015E+06 -1.054692E+06 -2.731182E+05 -2.061211E+06  3.129849E+04 -1.554306E+04
        45  20 -5.464457E+06 -9.374375E+05 -2.189506E+05 -1.964012E+06  2.035428E+04 -1.406203E+04
        45  21 -5.274196E+06 -9.377403E+05 -1.744967E+05 -1.986022E+06  9.050438E+03 -1.158512E+04
        45  22 -4.667564E+06 -7.195511E+05 -3.382657E+04 -1.820005E+06  3.288801E+04 -1.494684E+04
        45  23 -4.717776E+06 -6.562214E+05 -1.716597E+04 -1.762104E+06  2.228608E+04 -1.334046E+04
        45  24 -4.666234E+06 -7.103629E+05 -9.933137E+03 -1.823411E+06  1.132699E+04 -1.073796E+04
        45  25 -3.781355E+06 -3.843640E+05  2.053944E+05 -1.578486E+06  3.448002E+04 -1.434969E+04
        45  26 -3.970555E+06 -3.749735E+05  1.845688E+05 -1.559975E+06  2.422045E+04 -1.261793E+04
        45  27 -4.057913E+06 -4.829654E+05  1.545977E+05 -1.660655E+06  1.360601E+04 -9.889888E+03
        46   1 -4.952977E+06 -8.234240E+05 -8.566739E+04 -1.904152E+06 -6.360745E+03  8.438397E+03
        46   2 -4.854926E+06 -7.040217E+05 -4.082874E+04 -1.793636E+06 -1.572986E+03  3.268191E+03
        46   3 -4.639748E+06 -7.046934E+05  1.603145E+03 -1.819773E+06  3.268081E+03 -2.051415E+03
        46   4 -4.663237E+06 -7.145584E+05 -7.979652E+03 -1.825903E+06 -8.515981E+03  7.637611E+03
        46   5 -4.721719E+06 -6.540123E+05 -4.873105E+03 -1.757763E+06 -3.780637E+03  2.448383E+03
        46   6 -4.663088E+06 -7.135281E+05 -4.128535E+03 -1.826282E+06  1.007259E+03 -2.890387E+03
        46   7 -4.373415E+06 -6.056880E+05  6.970079E+04 -1.747620E+06 -1.067233E+04  6.836409E+03
        46   8 -4.588494E+06 -6.040021E+05  3.108084E+04 -1.721883E+06 -5.988805E+03  1.628382E+03
        46   9 -4.686427E+06 -7.223626E+05 -9.860182E+03 -1.832792E+06 -1.253451E+03 -3.729316E+03
        46  10 -4.952977E+06 -8.234241E+05 -8.566760E+04 -1.904152E+06  1.332776E-09 -3.742163E-10
        46  11 -4.854926E+06 -7.040217E+05 -4.082877E+04 -1.793636E+06  3.035368E-09  7.367503E-10
        46  12 -4.639748E+06 -7.046934E+05  1.603117E+03 -1.819773E+06  5.383852E-11 -6.041892E-10
        46  13 -4.663237E+06 -7.145585E+05 -7.979898E+03 -1.825903E+06 -2.182125E-09 -1.329474E-09
        46  14 -4.721719E+06 -6.540123E+05 -4.873143E+03 -1.757763E+06 -2.913073E-09 -4.825134E-09
        46  15 -4.663088E+06 -7.135281E+05 -4.128553E+03 -1.826282E+06 -1.656900E-09 -2.847091E-09
        46  16 -4.373415E+06 -6.056881E+05  6.970048E+04 -1.747620E+06  2.390811E-09  1.006657E-09
        46  17 -4.588494E+06 -6.040021E+05  3.108077E+04 -1.721883E+06 -7.723770E-09 -1.620079E-11
        46  18 -4.686427E+06 -7.223626E+05 -9.860211E+03 -1.832792E+06 -5.097907E-09 -3.120477E-09
        46  19 -4.952977E+06 -8.234240E+05 -8.566739E+04 -1.904152E+06  6.360745E+03 -8.438397E+03
        46  20 -4.854926E+06 -7.040217E+05 -4.082874E+04 -1.793636E+06  1.572986E+03 -3.268191E+03
        46  21 -4.639748E+06 -7.046934E+05  1.603145E+03 -1.819773E+06 -3.268081E+03  2.051415E+03
        46  22 -4.663237E+06 -7.145584E+05 -7.979652E+03 -1.825903E+06  8.515981E+03 -7.637611E+03
        46  23 -4.721719E+06 -6.540123E+05 -4.873105E+03 -1.757763E+06  3.780637E+03 -2.448383E+03
        46  24 -4.663088E+06 -7.135281E+05 -4.128535E+03 -1.826282E+06 -1.007259E+03  2.890387E+03
        46  25 -4.373415E+06 -6.056880E+05  6.970079E+04 -1.747620E+06  1.067233E+04 -6.836409E+03
        46  26 -4.588494E+06 -6.040021E+05  3.108084E+04 -1.721883E+06  5.988805E+03 -1.628382E+03
        46  27 -4.686427E+06 -7.223626E+05 -9.860182E+03 -1.832792E+06  1.253451E+03  3.729316E+03
        47   1 -4.312353E+06 -5.804233E+05  9.129237E+04 -1.730555E+06  5.342985E+03 -5.515362E+03
        47   2 -4.219190E+06 -4.672501E+05  1.297270E+05 -1.624366E+06  1.025652E+04 -1.067276E+04
        47   3 -4.013502E+06 -4.691144E+05  1.657650E+05 -1.648428E+06  1.500600E+04 -1.535905E+04
        47   4 -4.664135E+06 -7.122612E+05 -4.191015E+03 -1.824938E+06  3.065968E+03 -6.360907E+03
        47   5 -4.720489E+06 -6.555187E+05 -5.554264E+03 -1.759510E+06  8.144865E+03 -1.145879E+04
        47   6 -4.664370E+06 -7.138573E+05 -9.445914E+03 -1.824351E+06  1.305892E+04 -1.608554E+04
        47   7 -5.015799E+06 -8.440934E+05 -9.968618E+04 -1.919274E+06  7.903617E+02 -7.205931E+03
        47   8 -5.221548E+06 -8.437744E+05 -1.408588E+05 -1.894556E+06  6.035087E+03 -1.224411E+04
        47   9 -5.314831E+06 -9.585772E+05 -1.846953E+05 -2.000107E+06  1.111408E+04 -1.681119E+04
        47  10 -4.312353E+06 -5.804233E+05  9.129226E+04 -1.730555E+06 -7.260417E-09 -2.185896E-09
        47  11 -4.219190E+06 -4.672502E+05  1.297266E+05 -1.624366E+06 -8.902284E-09 -2.021280E-09
        47  12 -4.013502E+06 -4.691147E+05  1.657641E+05 -1.648427E+06 -1.319723E-09  4.264970E-10
        47  13 -4.664135E+06 -7.122613E+05 -4.191108E+03 -1.824938E+06 -7.527269E-09 -4.092990E-09
        47  14 -4.720489E+06 -6.555189E+05 -5.554634E+03 -1.759510E+06 -1.602993E-09  3.775658E-09
        47  15 -4.664370E+06 -7.138576E+05 -9.446720E+03 -1.824350E+06  6.566840E-10  1.283172E-09
        47  16 -5.015799E+06 -8.440934E+05 -9.968628E+04 -1.919274E+06  4.144317E-10 -1.967690E-09
        47  17 -5.221548E+06 -8.437745E+05 -1.408591E+05 -1.894556E+06 -3.210873E-09  2.169783E-09
        47  18 -5.314831E+06 -9.585775E+05 -1.846961E+05 -2.000107E+06 -1.124369E-09  1.506122E-09
        47  19 -4.312353E+06 -5.804233E+05  9.129237E+04 -1.730555E+06 -5.342985E+03  5.515362E+03
        47  20 -4.219190E+06 -4.672501E+05  1.297270E+05 -1.624366E+06 -1.025652E+04  1.067276E+04
        47  21 -4.013502E+06 -4.691144E+05  1.657650E+05 -1.648428E+06 -1.500600E+04  1.535905E+04
        47  22 -4.664135E+06 -7.122612E+05 -4.191015E+03 -1.824938E+06 -3.065968E+03  6.360907E+03
        47  23 -4.720489E+06 -6.555187E+05 -5.554264E+03 -1.759510E+06 -8.144865E+03  1.145879E+04
        47  24 -4.664370E+06 -7.138573E+05 -9.445914E+03 -1.824351E+06 -1.305892E+04  1.608554E+04
        47  25 -5.015799E+06 -8.440934E+05 -9.968618E+04 -1.919274E+06 -7.903617E+02  7.205931E+03
        47  26 -5.221548E+06 -8.437744E+05 -1.408588E+05 -1.894556E+06 -6.035087E+03  1.224411E+04
        47  27 -5.314831E+06 -9.585772E+05 -1.846953E+05 -2.000107E+06 -1.111408E+04  1.681119E+04
        48   1 -3.728718E+06 -3.545468E+05  2.423900E+05 -1.566713E+06  1.811689E+04 -1.797432E+04
        48   2 -3.654538E+06 -2.605955E+05  2.653310E+05 -1.479510E+06  3.024652E+04 -1.938354E+04
        48   3 -3.492943E+06 -2.714775E+05  2.775090E+05 -1.493065E+06  4.191960E+04 -1.952044E+04
        48   4 -4.669480E+06 -7.071323E+05 -1.183291E+04 -1.819531E+06  1.601836E+04 -1.875933E+04
        48   5 -4.713946E+06 -6.602287E+05 -2.081670E+04 -1.767070E+06  2.858415E+04 -2.000906E+04
        48   6 -4.671105E+06 -7.182736E+05 -4.092539E+04 -1.815382E+06  4.069091E+04 -1.998626E+04
        48   7 -5.609379E+06 -1.059667E+06 -2.661328E+05 -2.072000E+06  1.392336E+04 -1.954304E+04
        48   8 -5.772266E+06 -1.059796E+06 -3.070641E+05 -2.054185E+06  2.692490E+04 -2.063342E+04
        48   9 -5.847927E+06 -1.164987E+06 -3.594852E+05 -2.137144E+06  3.946475E+04 -2.045112E+04
        48  10 -3.728718E+06 -3.545473E+05  2.423888E+05 -1.566712E+06 -1.679116E-10  1.630895E-09
        48  11 -3.654539E+06 -2.605961E+05  2.653286E+05 -1.479510E+06  1.684730E-10  2.018718E-09
        48  12 -3.492945E+06 -2.714783E+05  2.775050E+05 -1.493065E+06  1.364184E-09  7.553247E-10
        48  13 -4.669480E+06 -7.071327E+05 -1.183406E+04 -1.819530E+06 -4.889794E-09  1.516841E-09
        48  14 -4.713947E+06 -6.602293E+05 -2.081899E+04 -1.767070E+06 -3.603405E-09  2.080274E-09
        48  15 -4.671107E+06 -7.182745E+05 -4.092927E+04 -1.815381E+06 -1.885074E-09  1.796418E-09
        48  16 -5.609379E+06 -1.059667E+06 -2.661339E+05 -2.072000E+06 -3.495817E-09  2.289598E-09
        48  17 -5.772267E+06 -1.059797E+06 -3.070662E+05 -2.054184E+06 -4.637237E-09  1.237620E-10
        48  18 -5.847929E+06 -1.164988E+06 -3.594889E+05 -2.137143E+06  1.155197E-09  1.097761E-09
        48  19 -3.728718E+06 -3.545468E+05  2.423900E+05 -1.566713E+06 -1.811689E+04  1.797432E+04
        48  20 -3.654538E+06 -2.605955E+05  2.653310E+05 -1.479510E+06 -3.024652E+04  1.938354E+04
        48  21 -3.492943E+06 -2.714775E+05  2.775090E+05 -1.493065E+06 -4.191960E+04  1.952044E+04
        48  22 -4.669480E+06 -7.071323E+05 -1.183291E+04 -1.819531E+06 -1.601836E+04  1.875933E+04
        48  23 -4.713946E+06 -6.602287E+05 -2.081670E+04 -1.767070E+06 -2.858415E+04  2.000906E+04
        48  24 -4.671105E+06 -7.182736E+05 -4.092539E+04 -1.815382E+06 -4.069091E+04  1.998626E+04
        48  25 -5.609379E+06 -1.059667E+06 -2.661328E+05 -2.072000E+06 -1.392336E+04  1.954304E+04
        48  26 -5.772266E+06 -1.059796E+06 -3.070641E+05 -2.054185E+06 -2.692490E+04  2.063342E+04
        48  27 -5.847927E+06 -1.164987E+06 -3.594852E+05 -2.137144E+06 -3.946475E+04  2.045112E+04
        49   1 -3.289907E+06 -1.799756E+05  3.232670E+05 -1.443687E+06  5.138339E+04 -1.916760E+04
        49   2 -3.240770E+06 -1.005228E+05  3.052194E+05 -1.378489E+06  9.776870E+04 -5.752921E+03
        49   3 -3.178202E+06 -1.857718E+05  2.247033E+05 -1.347092E+06  1.424207E+05  1.229244E+04
        49   4 -4.682847E+06 -6.973556E+05 -5.171498E+04 -1.813499E+06  4.923086E+04 -1.998220E+04
        49   5 -4.695479E+06 -6.564744E+05 -8.896499E+04 -1.780873E+06  9.716603E+04 -5.988462E+03
        49   6 -4.695100E+06 -7.807861E+05 -1.900373E+05 -1.782039E+06  1.433608E+05  1.263654E+04
        49   7 -6.073911E+06 -1.214639E+06 -4.268691E+05 -2.182565E+06  4.708358E+04 -2.079492E+04
        49   8 -6.148137E+06 -1.212289E+06 -4.833394E+05 -2.182397E+06  9.656470E+04 -6.223498E+03
        49   9 -6.209764E+06 -1.375618E+06 -6.049875E+05 -2.216003E+06  1.442980E+05  1.297943E+04
        49  10 -3.289910E+06 -1.799767E+05  3.232613E+05 -1.443686E+06  2.834596E-09  7.590321E-10
        49  11 -3.240780E+06 -1.005254E+05  3.052013E+05 -1.378489E+06 -2.611791E-09  1.045527E-09
        49  12 -3.178224E+06 -1.857775E+05  2.246647E+05 -1.347094E+06  3.798384E-09 -1.655498E-09
        49  13 -4.682849E+06 -6.973567E+05 -5.172030E+04 -1.813498E+06 -1.454532E-10  1.125965E-09
        49  14 -4.695489E+06 -6.564770E+05 -8.898292E+04 -1.780872E+06 -2.600148E-09 -1.120789E-09
        49  15 -4.695122E+06 -7.807918E+05 -1.900765E+05 -1.782040E+06 -6.497730E-09  2.192637E-09
        49  16 -6.073914E+06 -1.214640E+06 -4.268741E+05 -2.182565E+06  2.484963E-09  1.077030E-09
        49  17 -6.148147E+06 -1.212292E+06 -4.833572E+05 -2.182396E+06  2.929731E-09 -8.299948E-10
        49  18 -6.209787E+06 -1.375624E+06 -6.050273E+05 -2.216005E+06 -5.162527E-09 -2.013284E-09
        49  19 -3.289907E+06 -1.799756E+05  3.232670E+05 -1.443687E+06 -5.138339E+04  1.916760E+04
        49  20 -3.240770E+06 -1.005228E+05  3.052194E+05 -1.378489E+06 -9.776870E+04  5.752921E+03
        49  21 -3.178202E+06 -1.857718E+05  2.247033E+05 -1.347092E+06 -1.424207E+05 -1.229244E+04
        49  22 -4.682847E+06 -6.973556E+05 -5.171498E+04 -1.813499E+06 -4.923086E+04  1.998220E+04
        49  23 -4.695479E+06 -6.564744E+05 -8.896499E+04 -1.780873E+06 -9.716603E+04  5.988462E+03
        49  24 -4.695100E+06 -7.807861E+05 -1.900373E+05 -1.782039E+06 -1.433608E+05 -1.263654E+04
        49  25 -6.073911E+06 -1.214639E+06 -4.268691E+05 -2.182565E+06 -4.708358E+04  2.079492E+04
        49  26 -6.148137E+06 -1.212289E+06 -4.833394E+05 -2.182397E+06 -9.656470E+04  6.223498E+03
        49  27 -6.209764E+06 -1.375618E+06 -6.049875E+05 -2.216003E+06 -1.442980E+05 -1.297943E+04
        50   1 -3.058673E+06 -1.026562E+05  2.074718E+05 -1.438836E+06  1.861273E+05  2.246535E+04
        50   2 -3.006893E+06  9.610261E+04  6.588243E+04 -1.326851E+06  3.821399E+05  9.480996E+04
        50   3 -3.292045E+06 -5.757714E+05 -4.569173E+05 -9.963847E+05  5.655231E+05  2.001835E+05
        50   4 -4.734119E+06 -6.699691E+05 -2.320911E+05 -1.828241E+06  1.792001E+05  1.984781E+04
        50   5 -4.612775E+06 -5.589494E+05 -3.766595E+05 -1.813030E+06  3.865098E+05  9.643778E+04
        50   6 -4.831510E+06 -1.322255E+06 -9.122260E+05 -1.579078E+06  5.811922E+05  2.060158E+05
        50   7 -6.406852E+06 -1.237248E+06 -6.718890E+05 -2.216755E+06  1.722931E+05  1.723598E+04
        50   8 -6.216147E+06 -1.213734E+06 -8.194402E+05 -2.298026E+06  3.908659E+05  9.805951E+04
        50   9 -6.368604E+06 -2.068131E+06 -1.367769E+06 -2.160308E+06  5.968165E+05  2.118207E+05
        50  10 -3.058711E+06 -1.026661E+05  2.074054E+05 -1.438839E+06  3.145565E-09 -3.955910E-09
        50  11 -3.007053E+06  9.605341E+04  6.558943E+04 -1.326880E+06  5.284756E-09 -4.242991E-09
        50  12 -3.292401E+06 -5.759011E+05 -4.575976E+05 -9.964762E+05  1.780554E-09 -4.138231E-09
        50  13 -4.734154E+06 -6.699783E+05 -2.321527E+05 -1.828244E+06  5.552434E-10  1.762455E-09
        50  14 -4.612939E+06 -5.590000E+05 -3.769602E+05 -1.813060E+06 -3.566488E-09  6.465606E-09
        50  15 -4.831887E+06 -1.322393E+06 -9.129468E+05 -1.579175E+06  3.255703E-10  5.197268E-10
        50  16 -6.406884E+06 -1.237256E+06 -6.719460E+05 -2.216758E+06  1.346756E-10 -1.394093E-09
        50  17 -6.216315E+06 -1.213786E+06 -8.197489E+05 -2.298058E+06 -1.541081E-09  2.628911E-09
        50  18 -6.369002E+06 -2.068277E+06 -1.368531E+06 -2.160411E+06  3.900840E-09 -4.307512E-09
        50  19 -3.058673E+06 -1.026562E+05  2.074718E+05 -1.438836E+06 -1.861273E+05 -2.246535E+04
        50  20 -3.006893E+06  9.610261E+04  6.588243E+04 -1.326851E+06 -3.821399E+05 -9.480996E+04
        50  21 -3.292045E+06 -5.757714E+05 -4.569173E+05 -9.963847E+05 -5.655231E+05 -2.001835E+05
        50  22 -4.734119E+06 -6.699691E+05 -2.320911E+05 -1.828241E+06 -1.792001E+05 -1.984781E+04
        50  23 -4.612775E+06 -5.589494E+05 -3.766595E+05 -1.813030E+06 -3.865098E+05 -9.643778E+04
        50  24 -4.831510E+06 -1.322255E+06 -9.122260E+05 -1.579078E+06 -5.811922E+05 -2.060158E+05
        50  25 -6.406852E+06 -1.237248E+06 -6.718890E+05 -2.216755E+06 -1.722931E+05 -1.723598E+04
        50  26 -6.216147E+06 -1.213734E+06 -8.194402E+05 -2.298026E+06 -3.908659E+05 -9.805951E+04
        50  27 -6.368604E+06 -2.068131E+06 -1.367769E+06 -2.160308E+06 -5.968165E+05 -2.118207E+05
        51   1  2.478092E+05 -4.752135E+05  2.403971E+05 -2.101550E+03  1.091310E+04  1.025767E+04
        51   2  2.538592E+05 -4.932456E+05  2.338472E+05  1.048995E+03  3.388213E+04  3.215455E+03
        51   3  2.476693E+05 -5.124855E+05  2.290811E+05 -8.330038E+03  3.408793E+04 -3.916583E+03
        51   4 -1.111662E+04 -1.512921E+06 -1.553480E+04 -2.816031E+03  1.098571E+04 -7.845042E+03
        51   5  1.405962E+03 -1.511263E+06 -9.279586E+03  3.471478E+03  3.391345E+04 -2.878565E+03
        51   6 -4.105026E+02 -1.512907E+06 -9.594006E+03 -2.771576E+03  3.406129E+04  1.997993E+03
        51   7 -2.701227E+05 -2.549647E+06 -2.715453E+05 -3.528351E+03  1.105843E+04 -2.591750E+04
        51   8 -2.511224E+05 -2.528328E+06 -2.524792E+05  5.891033E+03  3.394474E+04 -8.962626E+03
        51   9 -2.485627E+05 -2.512409E+06 -2.483394E+05  2.779048E+03  3.403474E+04  7.903073E+03
        51  10  2.478091E+05 -4.752137E+05  2.403967E+05 -2.101640E+03  4.034518E-09 -5.299689E-09
        51  11  2.538580E+05 -4.932460E+05  2.338450E+05  1.048907E+03  1.396661E-09 -4.718733E-09
        51  12  2.476681E+05 -5.124859E+05  2.290789E+05 -8.329930E+03 -5.748453E-10  2.742999E-09
        51  13 -1.111677E+04 -1.512921E+06 -1.553514E+04 -2.815962E+03 -2.249514E-09  1.509073E-10
        51  14  1.404725E+03 -1.511263E+06 -9.281762E+03  3.471556E+03  8.257411E-09 -2.539179E-09
        51  15 -4.117486E+02 -1.512907E+06 -9.596193E+03 -2.771631E+03  5.170476E-09 -1.809595E-09
        51  16 -2.701230E+05 -2.549648E+06 -2.715468E+05 -3.528119E+03  3.364531E-09  4.119947E-09
        51  17 -2.511236E+05 -2.528329E+06 -2.524816E+05  5.891279E+03  2.411104E-09  2.990745E-09
        51  18 -2.485640E+05 -2.512409E+06 -2.483417E+05  2.778831E+03  3.953525E-10 -9.930732E-10
        51  19  2.478092E+05 -4.752135E+05  2.403971E+05 -2.101550E+03 -1.091310E+04 -1.025767E+04
        51  20  2.538592E+05 -4.932456E+05  2.338472E+05  1.048995E+03 -3.388213E+04 -3.215455E+03
        51  21  2.476693E+05 -5.124855E+05  2.290811E+05 -8.330038E+03 -3.408793E+04  3.916583E+03
        51  22 -1.111662E+04 -1.512921E+06 -1.553480E+04 -2.816031E+03 -1.098571E+04  7.845042E+03
        51  23  1.405962E+03 -1.511263E+06 -9.279586E+03  3.471478E+03 -3.391345E+04  2.878565E+03
        51  24 -4.105026E+02 -1.512907E+06 -9.594006E+03 -2.771576E+03 -3.406129E+04 -1.997993E+03
        51  25 -2.701227E+05 -2.549647E+06 -2.715453E+05 -3.528351E+03 -1.105843E+04  2.591750E+04
        51  26 -2.511224E+05 -2.528328E+06 -2.524792E+05  5.891033E+03 -3.394474E+04  8.962626E+03
        51  27 -2.485627E+05 -2.512409E+06 -2.483394E+05  2.779048E+03 -3.403474E+04 -7.903073E+03
        52   1  2.406480E+05 -5.400446E+05  2.223981E+05 -6.164943E+03  3.055121E+04  4.841427E+03
        52   2  2.364842E+05 -5.628562E+05  2.122658E+05 -2.911038E+01  3.116080E+04  1.064977E+04
        52   3  2.203977E+05 -5.887409E+05  1.955146E+05 -1.127844E+04  2.884084E+04  1.643863E+04
        52   4 -7.353557E+02 -1.512903E+06 -1.057411E+04 -3.849895E+03  3.056046E+04  3.726524E+03
        52   5  1.234058E+03 -1.511229E+06 -1.436683E+04  4.817273E+03  3.116147E+04  1.107115E+04
        52   6 -8.997032E+03 -1.512903E+06 -2.585417E+04 -3.902493E+03  2.883096E+04  1.839649E+04
        52   7 -2.421875E+05 -2.484892E+06 -2.436133E+05 -1.537315E+03  3.056972E+04  2.613359E+03
        52   8 -2.340813E+05 -2.458776E+06 -2.410629E+05  9.657438E+03  3.116214E+04  1.149188E+04
        52   9 -2.384537E+05 -2.436281E+06 -2.472835E+05  3.463693E+03  2.882112E+04  2.035143E+04
        52  10  2.406470E+05 -5.400449E+05  2.223963E+05 -6.165062E+03 -4.453422E-09  1.026714E-09
        52  11  2.364831E+05 -5.628565E+05  2.122638E+05 -2.937761E+01 -3.666605E-09  1.780163E-09
        52  12  2.203967E+05 -5.887414E+05  1.955126E+05 -1.127882E+04 -4.787940E-09  5.632508E-09
        52  13 -7.363616E+02 -1.512903E+06 -1.057589E+04 -3.849986E+03  1.106581E-08  1.997410E-10
        52  14  1.232983E+03 -1.511230E+06 -1.436888E+04  4.816995E+03  5.085140E-09 -3.116590E-09
        52  15 -8.998016E+03 -1.512904E+06 -2.585637E+04 -3.902920E+03 -4.422912E-10 -2.080077E-09
        52  16 -2.421885E+05 -2.484892E+06 -2.436151E+05 -1.537379E+03  5.059356E-10 -2.456477E-09
        52  17 -2.340823E+05 -2.458777E+06 -2.410650E+05  9.657149E+03 -8.435903E-10 -3.534666E-09
        52  18 -2.384547E+05 -2.436282E+06 -2.472858E+05  3.463220E+03 -6.886812E-09 -3.604686E-09
        52  19  2.406480E+05 -5.400446E+05  2.223981E+05 -6.164943E+03 -3.055121E+04 -4.841427E+03
        52  20  2.364842E+05 -5.628562E+05  2.122658E+05 -2.911038E+01 -3.116080E+04 -1.064977E+04
        52  21  2.203977E+05 -5.887409E+05  1.955146E+05 -1.127844E+04 -2.884084E+04 -1.643863E+04
        52  22 -7.353557E+02 -1.512903E+06 -1.057411E+04 -3.849895E+03 -3.056046E+04 -3.726524E+03
        52  23  1.234058E+03 -1.511229E+06 -1.436683E+04  4.817273E+03 -3.116147E+04 -1.107115E+04
        52  24 -8.997032E+03 -1.512903E+06 -2.585417E+04 -3.902493E+03 -2.883096E+04 -1.839649E+04
        52  25 -2.421875E+05 -2.484892E+06 -2.436133E+05 -1.537315E+03 -3.056972E+04 -2.613359E+03
        52  26 -2.340813E+05 -2.458776E+06 -2.410629E+05  9.657438E+03 -3.116214E+04 -1.149188E+04
        52  27 -2.384537E+05 -2.436281E+06 -2.472835E+05  3.463693E+03 -2.882112E+04 -2.035143E+04
        53   1  2.249676E+05 -6.290719E+05  1.808428E+05  2.767334E+03  3.031416E+04  2.692978E+04
        53   2  2.251548E+05 -6.447149E+05  1.555831E+05 -7.175905E+03  2.825911E+04  4.435988E+04
        53   3  1.187545E+05 -6.889250E+05  9.239554E+04 -3.944251E+04  8.525493E+03  6.164890E+04
        53   4  4.533503E+03 -1.518841E+06 -3.134256E+04 -4.747149E+03  3.034167E+04  2.326479E+04
        53   5  1.191182E+04 -1.503762E+06 -4.964457E+04  6.061139E+03  2.822102E+04  4.999166E+04
        53   6 -8.899368E+04 -1.518905E+06 -1.123770E+05 -5.458243E+03  8.412084E+03  7.657747E+04
        53   7 -2.159576E+05 -2.407883E+06 -2.435835E+05 -1.224956E+04  3.036930E+04  1.960501E+04
        53   8 -2.013842E+05 -2.362130E+06 -2.549242E+05  1.928099E+04  2.818315E+04  5.561564E+04
        53   9 -2.967894E+05 -2.348255E+06 -3.171994E+05  2.848168E+04  8.300237E+03  9.148604E+04
        53  10  2.249665E+05 -6.290729E+05  1.808397E+05  2.766677E+03 -5.330438E-09 -9.019141E-09
        53  11  2.251534E+05 -6.447172E+05  1.555779E+05 -7.176915E+03 -6.812095E-10 -1.725745E-09
        53  12  1.187534E+05 -6.889291E+05  9.238825E+04 -3.944293E+04  1.582227E-09  1.166670E-08
        53  13  4.532370E+03 -1.518842E+06 -3.134531E+04 -4.747718E+03 -5.945819E-09 -3.287329E-11
        53  14  1.191029E+04 -1.503764E+06 -4.965078E+04  6.060002E+03 -6.459977E-09 -4.258361E-09
        53  15 -8.899533E+04 -1.518912E+06 -1.123882E+05 -5.458762E+03  5.083088E-10 -2.814505E-09
        53  16 -2.159587E+05 -2.407883E+06 -2.435859E+05 -1.225004E+04 -5.616295E-09  7.160180E-09
        53  17 -2.013859E+05 -2.362134E+06 -2.549315E+05  1.927973E+04 -3.185699E-09 -8.453484E-10
        53  18 -2.967917E+05 -2.348264E+06 -3.172153E+05  2.848107E+04 -3.011435E-10 -9.124401E-09
        53  19  2.249676E+05 -6.290719E+05  1.808428E+05  2.767334E+03 -3.031416E+04 -2.692978E+04
        53  20  2.251548E+05 -6.447149E+05  1.555831E+05 -7.175905E+03 -2.825911E+04 -4.435988E+04
        53  21  1.187545E+05 -6.889250E+05  9.239554E+04 -3.944251E+04 -8.525493E+03 -6.164890E+04
        53  22  4.533503E+03 -1.518841E+06 -3.134256E+04 -4.747149E+03 -3.034167E+04 -2.326479E+04
        53  23  1.191182E+04 -1.503762E+06 -4.964457E+04  6.061139E+03 -2.822102E+04 -4.999166E+04
        53  24 -8.899368E+04 -1.518905E+06 -1.123770E+05 -5.458243E+03 -8.412084E+03 -7.657747E+04
        53  25 -2.159576E+05 -2.407883E+06 -2.435835E+05 -1.224956E+04 -3.036930E+04 -1.960501E+04
        53  26 -2.013842E+05 -2.362130E+06 -2.549242E+05  1.928099E+04 -2.818315E+04 -5.561564E+04
        53  27 -2.967894E+05 -2.348255E+06 -3.171994E+05  2.848168E+04 -8.300237E+03 -9.148604E+04
        54   1  8.174414E+04  8.985231E+05  4.656628E+04 -1.561364E+02  2.860526E+04 -4.982073E+02
        54   2  8.185495E+04  8.986135E+05  4.717154E+04 -1.275400E+02  2.850719E+04 -1.288728E+03
        54   3  8.215946E+04  8.988622E+05  4.834158E+04 -8.433190E+01  2.827994E+04 -2.079330E+03
        54   4 -2.774025E+01  5.353744E+05  5.506025E+02  3.238198E+00  2.860700E+04 -4.168497E+02
        54   5  1.667166E+01  5.353220E+05  9.664303E+02 -4.026112E+00  2.850878E+04 -8.967150E+02
        54   6  2.009653E+02  5.353741E+05  1.731661E+03  3.321383E+00  2.828135E+04 -1.376658E+03
        54   7 -8.180500E+04  1.723608E+05 -4.546552E+04  1.625271E+02  2.860873E+04 -3.355373E+02
        54   8 -8.182701E+04  1.721658E+05 -4.523918E+04  1.194256E+02  2.851037E+04 -5.049202E+02
        54   9 -8.176297E+04  1.720214E+05 -4.487885E+04  9.093598E+01  2.828275E+04 -6.743755E+02
        54  10  8.174326E+04  8.985229E+05  4.656474E+04 -1.561249E+02  5.248829E-09  1.290134E-08
        54  11  8.185408E+04  8.986133E+05  4.717001E+04 -1.275104E+02  1.917058E-09 -2.630393E-08
        54  12  8.215860E+04  8.988620E+05  4.834007E+04 -8.428456E+01  2.683631E-09 -6.287239E-08
        54  13 -2.861929E+01  5.353742E+05  5.490639E+02  3.247800E+00 -1.313088E-09  4.500299E-10
        54  14  1.579848E+01  5.353218E+05  9.649011E+02 -4.005527E+00  2.594489E-09 -9.657241E-10
        54  15  2.001057E+02  5.353739E+05  1.730154E+03  3.352734E+00  3.680483E-09  5.059235E-10
        54  16 -8.180588E+04  1.723606E+05 -4.546706E+04  1.625349E+02 -2.294797E-09 -1.345309E-08
        54  17 -8.182788E+04  1.721656E+05 -4.524071E+04  1.194372E+02 -1.423533E-09  2.596657E-08
        54  18 -8.176383E+04  1.720211E+05 -4.488036E+04  9.095135E+01  1.363041E-09  6.286718E-08
        54  19  8.174414E+04  8.985231E+05  4.656628E+04 -1.561364E+02 -2.860526E+04  4.982073E+02
        54  20  8.185495E+04  8.986135E+05  4.717154E+04 -1.275400E+02 -2.850719E+04  1.288728E+03
        54  21  8.215946E+04  8.988622E+05  4.834158E+04 -8.433190E+01 -2.827994E+04  2.079330E+03
        54  22 -2.774025E+01  5.353744E+05  5.506025E+02  3.238198E+00 -2.860700E+04  4.168497E+02
        54  23  1.667166E+01  5.353220E+05  9.664303E+02 -4.026112E+00 -2.850878E+04  8.967150E+02
        54  24  2.009653E+02  5.353741E+05  1.731661E+03  3.321383E+00 -2.828135E+04  1.376658E+03
        54  25 -8.180500E+04  1.723608E+05 -4.546552E+04  1.625271E+02 -2.860873E+04  3.355373E+02
        54  26 -8.182701E+04  1.721658E+05 -4.523918E+04  1.194256E+02 -2.851037E+04  5.049202E+02
        54  27 -8.176297E+04  1.720214E+05 -4.487885E+04  9.093598E+01 -2.828275E+04  6.743755E+02
        55   1  8.234899E+04  8.991684E+05  4.918147E+04 -1.985620E+02  2.813640E+04 -2.492067E+03
        55   2  8.334561E+04  8.988729E+05  5.225310E+04  7.927934E+02  2.733326E+04 -6.868141E+03
        55   3  8.619028E+04  8.996153E+05  5.863474E+04  1.735822E+03  2.556601E+04 -1.124489E+04
        55   4  2.984679E+02  5.354923E+05  2.299903E+03 -1.079125E+01  2.813774E+04 -1.714617E+03
        55   5  1.038738E+03  5.351736E+05  4.107123E+03  1.408435E+01  2.733323E+04 -3.772900E+03
        55   6  3.225601E+03  5.354912E+05  7.617049E+03 -9.373652E+00  2.556434E+04 -5.831839E+03
        55   7 -8.175753E+04  1.719515E+05 -4.458232E+04  1.768803E+02  2.813908E+04 -9.376000E+02
        55   8 -8.127373E+04  1.716092E+05 -4.403981E+04 -7.641303E+02  2.733320E+04 -6.793842E+02
        55   9 -7.974495E+04  1.715014E+05 -4.340224E+04 -1.753484E+03  2.556263E+04 -4.218180E+02
        55  10  8.234813E+04  8.991682E+05  4.917997E+04 -1.985056E+02  8.484419E-09 -1.470867E-07
        55  11  8.334480E+04  8.988727E+05  5.225161E+04  7.929446E+02  1.430158E-08  2.105714E-08
        55  12  8.618954E+04  8.996150E+05  5.863327E+04  1.736054E+03  5.153146E-09  1.898924E-07
        55  13  2.976167E+02  5.354921E+05  2.298410E+03 -1.075240E+01  6.261271E-09  5.375419E-10
        55  14  1.037932E+03  5.351734E+05  4.105692E+03  1.416739E+01  1.007839E-08 -1.189811E-09
        55  15  3.224890E+03  5.354910E+05  7.615757E+03 -9.253605E+00  5.705944E-09  5.855456E-10
        55  16 -8.175838E+04  1.719513E+05 -4.458381E+04  1.769016E+02 -1.468228E-09  1.461256E-07
        55  17 -8.127453E+04  1.716090E+05 -4.404122E+04 -7.641153E+02  6.145426E-09 -2.158185E-08
        55  18 -7.974565E+04  1.715012E+05 -4.340347E+04 -1.753475E+03  3.496351E-09 -1.895863E-07
        55  19  8.234899E+04  8.991684E+05  4.918147E+04 -1.985620E+02 -2.813640E+04  2.492067E+03
        55  20  8.334561E+04  8.988729E+05  5.225310E+04  7.927934E+02 -2.733326E+04  6.868141E+03
        55  21  8.619028E+04  8.996153E+05  5.863474E+04  1.735822E+03 -2.556601E+04  1.124489E+04
        55  22  2.984679E+02  5.354923E+05  2.299903E+03 -1.079124E+01 -2.813774E+04  1.714617E+03
        55  23  1.038738E+03  5.351736E+05  4.107123E+03  1.408435E+01 -2.733323E+04  3.772900E+03
        55  24  3.225601E+03  5.354912E+05  7.617049E+03 -9.373653E+00 -2.556434E+04  5.831839E+03
        55  25 -8.175753E+04  1.719515E+05 -4.458232E+04  1.768803E+02 -2.813908E+04  9.376000E+02
        55  26 -8.127373E+04  1.716092E+05 -4.403981E+04 -7.641303E+02 -2.733320E+04  6.793842E+02
        55  27 -7.974495E+04  1.715014E+05 -4.340224E+04 -1.753484E+03 -2.556263E+04  4.218180E+02
        56   1  8.792662E+04  9.012080E+05  6.314494E+04  1.069977E+03  2.444927E+04 -1.314332E+04
        56   2  9.781167E+04  8.976276E+05  8.098394E+04  1.272455E+04  1.840805E+04 -3.992003E+04
        56   3  1.249632E+05  9.018505E+05  1.205567E+05  2.381057E+04  5.227639E+03 -6.670285E+04
        56   4  4.446811E+03  5.364234E+05  1.021496E+04 -1.263567E+02  2.444700E+04 -7.161717E+03
        56   5  1.274674E+04  5.340042E+05  1.887825E+04  1.674444E+02  1.839437E+04 -1.678208E+04
        56   6  3.534193E+04  5.364153E+05  3.737422E+04 -1.075278E+02  5.201621E+03 -2.640801E+04
        56   7 -7.903908E+04  1.717728E+05 -4.271707E+04 -1.321939E+03  2.444470E+04 -1.183477E+03
        56   8 -7.232434E+04  1.705122E+05 -4.322973E+04 -1.238206E+04  1.837976E+04  6.342771E+03
        56   9 -5.428554E+04  1.711085E+05 -4.581056E+04 -2.401142E+04  5.172494E+03  1.386335E+04
        56  10  8.792593E+04  9.012077E+05  6.314350E+04  1.070236E+03  2.242959E-09  1.295552E-08
        56  11  9.781088E+04  8.976258E+05  8.098031E+04  1.272514E+04  4.281354E-09 -1.141085E-11
        56  12  1.249620E+05  9.018457E+05  1.205483E+05  2.381085E+04  2.400376E-09 -9.098445E-09
        56  13  4.446155E+03  5.364231E+05  1.021374E+04 -1.262157E+02 -1.118062E-10  5.928859E-10
        56  14  1.274630E+04  5.340038E+05  1.887709E+04  1.676930E+02  1.470587E-09 -1.424343E-09
        56  15  3.534171E+04  5.364145E+05  3.737286E+04 -1.074172E+02  4.193065E-09  8.574507E-10
        56  16 -7.903973E+04  1.717726E+05 -4.271820E+04 -1.321916E+03 -2.065314E-09 -1.393835E-08
        56  17 -7.232471E+04  1.705120E+05 -4.323044E+04 -1.238216E+04 -2.356818E-09 -3.989132E-10
        56  18 -5.428563E+04  1.711083E+05 -4.581097E+04 -2.401148E+04  2.692663E-09  9.426337E-09
        56  19  8.792662E+04  9.012080E+05  6.314494E+04  1.069977E+03 -2.444927E+04  1.314332E+04
        56  20  9.781167E+04  8.976276E+05  8.098394E+04  1.272455E+04 -1.840805E+04  3.992003E+04
        56  21  1.249632E+05  9.018505E+05  1.205567E+05  2.381057E+04 -5.227639E+03  6.670285E+04
        56  22  4.446811E+03  5.364234E+05  1.021496E+04 -1.263567E+02 -2.444700E+04  7.161717E+03
        56  23  1.274674E+04  5.340042E+05  1.887825E+04  1.674444E+02 -1.839437E+04  1.678208E+04
        56  24  3.534193E+04  5.364153E+05  3.737422E+04 -1.075278E+02 -5.201621E+03  2.640801E+04
        56  25 -7.903908E+04  1.717728E+05 -4.271707E+04 -1.321939E+03 -2.444470E+04  1.183477E+03
        56  26 -7.232434E+04  1.705122E+05 -4.322973E+04 -1.238206E+04 -1.837976E+04 -6.342771E+03
        56  27 -5.428554E+04  1.711085E+05 -4.581056E+04 -2.401142E+04 -5.172494E+03 -1.386335E+04
        57   1 -1.101782E+07 -3.206008E+06 -1.976870E+06 -3.832356E+06 -9.983279E+05 -3.636912E+05
        57   2 -1.077196E+07 -1.770754E+06 -1.054386E+06 -4.086398E+06 -6.475899E+05 -1.975717E+05
        57   3 -1.113789E+07 -1.814357E+06 -8.112414E+05 -3.944852E+06 -2.850947E+05 -6.242998E+04
        57   4 -9.692896E+06 -2.435951E+06 -1.556766E+06 -3.204675E+06 -9.842487E+05 -3.588660E+05
        57   5 -9.305122E+06 -1.140171E+06 -6.411133E+05 -3.613277E+06 -6.438514E+05 -1.962552E+05
        57   6 -9.525789E+06 -1.319162E+06 -3.953561E+05 -3.626716E+06 -2.916221E+05 -6.483497E+04
        57   7 -8.366075E+06 -1.664949E+06 -1.136834E+06 -2.575528E+06 -9.701341E+05 -3.540111E+05
        57   8 -7.836154E+06 -5.092865E+05 -2.280487E+05 -3.139066E+06 -6.401014E+05 -1.949330E+05
        57   9 -7.911131E+06 -8.240028E+05  2.032608E+04 -3.307916E+06 -2.981676E+05 -6.724375E+04
        57  10 -1.101894E+07 -3.206427E+06 -1.979035E+06 -3.832653E+06 -1.082990E-09 -8.759093E-12
        57  11 -1.077243E+07 -1.770912E+06 -1.055265E+06 -4.086503E+06 -6.694312E-10 -4.136263E-10
        57  12 -1.113798E+07 -1.814383E+06 -8.114047E+05 -3.944867E+06 -2.057243E-09 -1.200233E-10
        57  13 -9.693986E+06 -2.436357E+06 -1.558865E+06 -3.204963E+06  5.209710E-09 -2.446117E-09
        57  14 -9.305584E+06 -1.140327E+06 -6.419797E+05 -3.613380E+06 -1.199870E-09 -1.948078E-09
        57  15 -9.525883E+06 -1.319190E+06 -3.955268E+05 -3.626731E+06  8.999105E-10 -1.091862E-10
        57  16 -8.367132E+06 -1.665343E+06 -1.138869E+06 -2.575807E+06 -3.002247E-09  8.334134E-10
        57  17 -7.836609E+06 -5.094399E+05 -2.289026E+05 -3.139167E+06  3.030700E-09 -3.753250E-11
        57  18 -7.911229E+06 -8.240320E+05  2.014793E+04 -3.307933E+06  2.697951E-10  4.808278E-10
        57  19 -1.101782E+07 -3.206008E+06 -1.976870E+06 -3.832356E+06  9.983279E+05  3.636912E+05
        57  20 -1.077196E+07 -1.770754E+06 -1.054386E+06 -4.086398E+06  6.475899E+05  1.975717E+05
        57  21 -1.113789E+07 -1.814357E+06 -8.112414E+05 -3.944852E+06  2.850947E+05  6.242998E+04
        57  22 -9.692896E+06 -2.435951E+06 -1.556766E+06 -3.204675E+06  9.842487E+05  3.588660E+05
        57  23 -9.305122E+06 -1.140171E+06 -6.411133E+05 -3.613277E+06  6.438514E+05  1.962552E+05
        57  24 -9.525789E+06 -1.319162E+06 -3.953561E+05 -3.626716E+06  2.916221E+05  6.483497E+04
        57  25 -8.366075E+06 -1.664949E+06 -1.136834E+06 -2.575528E+06  9.701341E+05  3.540111E+05
        57  26 -7.836154E+06 -5.092865E+05 -2.280487E+05 -3.139066E+06  6.401014E+05  1.949330E+05
        57  27 -7.911131E+06 -8.240028E+05  2.032608E+04 -3.307916E+06  2.981676E+05  6.724375E+04
        58   1 -1.085230E+07 -2.071603E+06 -7.102526E+05 -3.960970E+06 -2.330197E+05 -4.865686E+04
        58   2 -1.075644E+07 -1.809298E+06 -5.083920E+05 -3.918346E+06 -1.523493E+05 -1.832383E+04
        58   3 -1.065945E+07 -1.815009E+06 -4.181897E+05 -3.917611E+06 -6.967354E+04  6.684131E+03
        58   4 -9.457529E+06 -1.510411E+06 -3.236635E+05 -3.550314E+06 -2.324474E+05 -4.846210E+04
        58   5 -9.447773E+06 -1.305391E+06 -1.507892E+05 -3.555952E+06 -1.534889E+05 -1.875935E+04
        58   6 -9.436386E+06 -1.367773E+06 -8.799613E+04 -3.603510E+06 -7.253958E+04  5.611031E+03
        58   7 -8.060849E+06 -9.490370E+05  6.274379E+04 -3.138782E+06 -2.318731E+05 -4.826648E+04
        58   8 -8.137431E+06 -8.013682E+05  2.066572E+05 -3.192849E+06 -1.546308E+05 -1.919578E+04
        58   9 -8.211859E+06 -9.204756E+05  2.420640E+05 -3.288851E+06 -7.541182E+04  4.535804E+03
        58  10 -1.085235E+07 -2.071621E+06 -7.103612E+05 -3.960980E+06 -4.676759E-09 -1.894566E-09
        58  11 -1.075646E+07 -1.809304E+06 -5.084371E+05 -3.918348E+06 -1.752510E-09 -6.038915E-10
        58  12 -1.065946E+07 -1.815011E+06 -4.181990E+05 -3.917611E+06 -4.894785E-09  5.231155E-10
        58  13 -9.457588E+06 -1.510428E+06 -3.237713E+05 -3.550323E+06  1.536401E-09  2.724823E-10
        58  14 -9.447798E+06 -1.305397E+06 -1.508348E+05 -3.555955E+06 -1.129472E-09 -9.131079E-10
        58  15 -9.436392E+06 -1.367774E+06 -8.800621E+04 -3.603510E+06 -3.646027E-09 -2.108848E-09
        58  16 -8.060908E+06 -9.490543E+05  6.263683E+04 -3.138791E+06  4.530218E-09  1.414142E-09
        58  17 -8.137457E+06 -8.013752E+05  2.066109E+05 -3.192852E+06 -3.355601E-10  2.443378E-11
        58  18 -8.211865E+06 -9.204772E+05  2.420531E+05 -3.288851E+06 -4.226641E-09 -7.762648E-10
        58  19 -1.085230E+07 -2.071603E+06 -7.102526E+05 -3.960970E+06  2.330197E+05  4.865686E+04
        58  20 -1.075644E+07 -1.809298E+06 -5.083920E+05 -3.918346E+06  1.523493E+05  1.832383E+04
        58  21 -1.065945E+07 -1.815009E+06 -4.181897E+05 -3.917611E+06  6.967354E+04 -6.684131E+03
        58  22 -9.457529E+06 -1.510411E+06 -3.236635E+05 -3.550314E+06  2.324474E+05  4.846210E+04
        58  23 -9.447773E+06 -1.305391E+06 -1.507892E+05 -3.555952E+06  1.534889E+05  1.875935E+04
        58  24 -9.436386E+06 -1.367773E+06 -8.799613E+04 -3.603510E+06  7.253958E+04 -5.611031E+03
        58  25 -8.060849E+06 -9.490370E+05  6.274379E+04 -3.138782E+06  2.318731E+05  4.826648E+04
        58  26 -8.137431E+06 -8.013682E+05  2.066572E+05 -3.192849E+06  1.546308E+05  1.919578E+04
        58  27 -8.211859E+06 -9.204756E+05  2.420640E+05 -3.288851E+06  7.541182E+04 -4.535804E+03
        59   1 -1.031301E+07 -1.744837E+06 -3.134847E+05 -3.851442E+06 -5.634645E+04  7.086085E+03
        59   2 -1.019602E+07 -1.583863E+06 -2.299888E+05 -3.726647E+06 -3.557666E+04  7.737697E+03
        59   3 -9.951558E+06 -1.584908E+06 -1.667281E+05 -3.755225E+06 -1.423900E+04  6.835365E+03
        59   4 -9.416594E+06 -1.402869E+06 -6.958642E+04 -3.606312E+06 -5.832682E+04  6.344604E+03
        59   5 -9.478995E+06 -1.312665E+06 -3.505952E+04 -3.533036E+06 -3.808138E+04  6.803999E+03
        59   6 -9.413838E+06 -1.384345E+06 -2.031892E+04 -3.613134E+06 -1.727431E+04  5.708022E+03
        59   7 -8.519399E+06 -1.060850E+06  1.742383E+05 -3.360856E+06 -6.031033E+04  5.601928E+03
        59   8 -8.761468E+06 -1.041437E+06  1.598231E+05 -3.339218E+06 -4.058931E+04  5.869101E+03
        59   9 -8.875834E+06 -1.183767E+06  1.260643E+05 -3.470930E+06 -2.031257E+04  4.579616E+03
        59  10 -1.031301E+07 -1.744838E+06 -3.134908E+05 -3.851441E+06 -5.650459E-09  2.362244E-11
        59  11 -1.019602E+07 -1.583863E+06 -2.299913E+05 -3.726647E+06  5.006140E-09 -2.670872E-10
        59  12 -9.951558E+06 -1.584908E+06 -1.667285E+05 -3.755225E+06  2.630462E-09 -2.533144E-09
        59  13 -9.416598E+06 -1.402869E+06 -6.959297E+04 -3.606312E+06 -3.498373E-09 -2.297948E-09
        59  14 -9.478996E+06 -1.312665E+06 -3.506236E+04 -3.533035E+06 -2.010854E-09 -2.910545E-11
        59  15 -9.413838E+06 -1.384345E+06 -2.031955E+04 -3.613134E+06 -1.656381E-09 -1.647803E-09
        59  16 -8.519402E+06 -1.060851E+06  1.742313E+05 -3.360856E+06 -1.488804E-10 -1.431801E-09
        59  17 -8.761469E+06 -1.041437E+06  1.598199E+05 -3.339218E+06  2.447195E-09  1.637619E-09
        59  18 -8.875835E+06 -1.183767E+06  1.260635E+05 -3.470930E+06 -7.885010E-09 -1.809209E-09
        59  19 -1.031301E+07 -1.744837E+06 -3.134847E+05 -3.851442E+06  5.634645E+04 -7.086085E+03
        59  20 -1.019602E+07 -1.583863E+06 -2.299888E+05 -3.726647E+06  3.557666E+04 -7.737697E+03
        59  21 -9.951558E+06 -1.584908E+06 -1.667281E+05 -3.755225E+06  1.423900E+04 -6.835365E+03
        59  22 -9.416594E+06 -1.402869E+06 -6.958642E+04 -3.606312E+06  5.832682E+04 -6.344604E+03
        59  23 -9.478995E+06 -1.312665E+06 -3.505952E+04 -3.533036E+06  3.808138E+04 -6.803999E+03
        59  24 -9.413838E+06 -1.384345E+06 -2.031892E+04 -3.613134E+06  1.727431E+04 -5.708022E+03
        59  25 -8.519399E+06 -1.060850E+06  1.742383E+05 -3.360856E+06  6.031033E+04 -5.601928E+03
        59  26 -8.761468E+06 -1.041437E+06  1.598231E+05 -3.339218E+06  4.058931E+04 -5.869101E+03
        59  27 -8.875834E+06 -1.183767E+06  1.260643E+05 -3.470930E+06  2.031257E+04 -4.579616E+03
        60   1 -9.519531E+06 -1.432990E+06 -4.545046E+04 -3.646382E+06 -9.568546E+03  2.946718E+03
        60   2 -9.390770E+06 -1.274828E+06  1.612535E+04 -3.501268E+06 -1.739657E+03 -3.406084E+03
        60   3 -9.108501E+06 -1.275993E+06  7.304768E+04 -3.535910E+06  6.043674E+03 -9.624097E+03
        60   4 -9.409027E+06 -1.391102E+06 -1.613448E+04 -3.616246E+06 -1.247995E+04  1.866620E+03
        60   5 -9.485620E+06 -1.310509E+06 -9.612289E+03 -3.526696E+06 -4.603217E+03 -4.468978E+03
        60   6 -9.408750E+06 -1.389257E+06 -7.776597E+03 -3.616920E+06  3.226128E+03 -1.067028E+04
        60   7 -9.298512E+06 -1.349214E+06  1.318046E+04 -3.586105E+06 -1.539193E+04  7.863040E+02
        60   8 -9.580460E+06 -1.346190E+06 -3.535068E+04 -3.552121E+06 -7.466287E+03 -5.531691E+03
        60   9 -9.708909E+06 -1.502515E+06 -8.860871E+04 -3.697895E+06  4.101044E+02 -1.171589E+04
        60  10 -9.519531E+06 -1.432990E+06 -4.545065E+04 -3.646382E+06  2.923688E-09  1.078825E-09
        60  11 -9.390770E+06 -1.274828E+06  1.612533E+04 -3.501268E+06  1.438436E-09  6.101708E-09
        60  12 -9.108501E+06 -1.275993E+06  7.304744E+04 -3.535910E+06  1.997431E-09  2.692016E-09
        60  13 -9.409027E+06 -1.391102E+06 -1.613479E+04 -3.616246E+06  2.744584E-10  7.728481E-10
        60  14 -9.485620E+06 -1.310509E+06 -9.612367E+03 -3.526696E+06 -1.902045E-09 -1.245597E-09
        60  15 -9.408750E+06 -1.389257E+06 -7.776829E+03 -3.616920E+06  8.959027E-10  1.258820E-09
        60  16 -9.298512E+06 -1.349214E+06  1.318001E+04 -3.586105E+06 -2.759853E-09  4.966148E-09
        60  17 -9.580460E+06 -1.346190E+06 -3.535084E+04 -3.552121E+06 -1.618004E-10  2.524495E-09
        60  18 -9.708909E+06 -1.502515E+06 -8.860897E+04 -3.697895E+06  2.405711E-09 -1.468369E-09
        60  19 -9.519531E+06 -1.432990E+06 -4.545046E+04 -3.646382E+06  9.568546E+03 -2.946718E+03
        60  20 -9.390770E+06 -1.274828E+06  1.612535E+04 -3.501268E+06  1.739657E+03  3.406084E+03
        60  21 -9.108501E+06 -1.275993E+06  7.304768E+04 -3.535910E+06 -6.043674E+03  9.624097E+03
        60  22 -9.409027E+06 -1.391102E+06 -1.613448E+04 -3.616246E+06  1.247995E+04 -1.866620E+03
        60  23 -9.485620E+06 -1.310509E+06 -9.612289E+03 -3.526696E+06  4.603217E+03  4.468978E+03
        60  24 -9.408750E+06 -1.389257E+06 -7.776597E+03 -3.616920E+06 -3.226128E+03  1.067028E+04
        60  25 -9.298512E+06 -1.349214E+06  1.318046E+04 -3.586105E+06  1.539193E+04 -7.863040E+02
        60  26 -9.580460E+06 -1.346190E+06 -3.535068E+04 -3.552121E+06  7.466287E+03  5.531691E+03
        60  27 -9.708909E+06 -1.502515E+06 -8.860871E+04 -3.697895E+06 -4.101044E+02  1.171589E+04
        61   1 -8.702850E+06 -1.114917E+06  1.862330E+05 -3.418757E+06  9.117908E+03 -1.386843E+04
        61   2 -8.599196E+06 -9.868457E+05  2.289118E+05 -3.299006E+06  1.623502E+04 -1.960173E+04
        61   3 -8.367890E+06 -9.894868E+05  2.678238E+05 -3.325359E+06  2.280194E+04 -2.380030E+04
        61   4 -9.414619E+06 -1.382759E+06 -7.635998E+03 -3.609563E+06  6.231009E+03 -1.494234E+04
        61   5 -9.478591E+06 -1.318702E+06 -9.810723E+03 -3.535997E+06  1.388539E+04 -2.047974E+04
        61   6 -9.415042E+06 -1.385487E+06 -1.618560E+04 -3.608563E+06  2.098782E+04 -2.448173E+04
        61   7 -1.012590E+07 -1.650574E+06 -2.015515E+05 -3.800169E+06  3.347790E+03 -1.601489E+04
        61   8 -1.035723E+07 -1.650515E+06 -2.486034E+05 -3.772680E+06  1.153945E+04 -2.135637E+04
        61   9 -1.046112E+07 -1.781423E+06 -3.002941E+05 -3.891329E+06  1.917710E+04 -2.516189E+04
        61  10 -8.702850E+06 -1.114917E+06  1.862325E+05 -3.418757E+06 -3.767791E-09 -1.950759E-09
        61  11 -8.599196E+06 -9.868462E+05  2.289105E+05 -3.299006E+06 -5.265283E-09 -2.850945E-09
        61  12 -8.367890E+06 -9.894875E+05  2.678218E+05 -3.325359E+06  3.760098E-09  3.769042E-09
        61  13 -9.414619E+06 -1.382759E+06 -7.636488E+03 -3.609563E+06 -8.810854E-11 -3.007783E-09
        61  14 -9.478591E+06 -1.318703E+06 -9.811869E+03 -3.535997E+06  3.873085E-09  3.488136E-09
        61  15 -9.415042E+06 -1.385487E+06 -1.618754E+04 -3.608563E+06  1.139361E-09  2.801817E-09
        61  16 -1.012590E+07 -1.650574E+06 -2.015520E+05 -3.800169E+06  2.698172E-09 -2.375274E-09
        61  17 -1.035723E+07 -1.650516E+06 -2.486045E+05 -3.772680E+06  7.658111E-10 -4.346412E-10
        61  18 -1.046112E+07 -1.781424E+06 -3.002960E+05 -3.891329E+06 -5.048713E-09 -2.582174E-09
        61  19 -8.702850E+06 -1.114917E+06  1.862330E+05 -3.418757E+06 -9.117908E+03  1.386843E+04
        61  20 -8.599196E+06 -9.868457E+05  2.289118E+05 -3.299006E+06 -1.623502E+04  1.960173E+04
        61  21 -8.367890E+06 -9.894868E+05  2.678238E+05 -3.325359E+06 -2.280194E+04  2.380030E+04
        61  22 -9.414619E+06 -1.382759E+06 -7.635998E+03 -3.609563E+06 -6.231009E+03  1.494234E+04
        61  23 -9.478591E+06 -1.318702E+06 -9.810723E+03 -3.535997E+06 -1.388539E+04  2.047974E+04
        61  24 -9.415042E+06 -1.385487E+06 -1.618560E+04 -3.608563E+06 -2.098782E+04  2.448173E+04
        61  25 -1.012590E+07 -1.650574E+06 -2.015515E+05 -3.800169E+06 -3.347790E+03  1.601489E+04
        61  26 -1.035723E+07 -1.650515E+06 -2.486034E+05 -3.772680E+06 -1.153945E+04  2.135637E+04
        61  27 -1.046112E+07 -1.781423E+06 -3.002941E+05 -3.891329E+06 -1.917710E+04  2.516189E+04
        62   1 -8.107879E+06 -8.695744E+05  3.390546E+05 -3.237561E+06  2.713823E+04 -2.578631E+04
        62   2 -8.059104E+06 -8.027967E+05  3.451259E+05 -3.176892E+06  4.595385E+04 -2.369640E+04
        62   3 -7.954955E+06 -8.205948E+05  3.330148E+05 -3.179633E+06  6.380155E+04 -1.898356E+04
        62   4 -9.430250E+06 -1.367776E+06 -2.026233E+04 -3.593074E+06  2.510772E+04 -2.655166E+04
        62   5 -9.459232E+06 -1.334602E+06 -3.552590E+04 -3.557926E+06  4.481523E+04 -2.413109E+04
        62   6 -9.433053E+06 -1.386235E+06 -6.972136E+04 -3.586199E+06  6.355137E+04 -1.908584E+04
        62   7 -1.075091E+07 -1.865880E+06 -3.797369E+05 -3.947893E+06  2.308200E+04 -2.731525E+04
        62   8 -1.085745E+07 -1.866291E+06 -4.163556E+05 -3.938171E+06  4.367941E+04 -2.456475E+04
        62   9 -1.090902E+07 -1.951737E+06 -4.726575E+05 -3.991873E+06  6.330173E+04 -1.918794E+04
        62  10 -8.107880E+06 -8.695753E+05  3.390519E+05 -3.237561E+06  3.665665E-09  2.619100E-09
        62  11 -8.059106E+06 -8.027979E+05  3.451208E+05 -3.176891E+06 -2.200611E-09 -3.138238E-10
        62  12 -7.954960E+06 -8.205962E+05  3.330064E+05 -3.179632E+06 -5.732015E-09 -8.626562E-10
        62  13 -9.430250E+06 -1.367777E+06 -2.026484E+04 -3.593073E+06  4.788032E-10  2.036129E-09
        62  14 -9.459235E+06 -1.334603E+06 -3.553079E+04 -3.557925E+06  1.202029E-09  5.303491E-11
        62  15 -9.433057E+06 -1.386236E+06 -6.972971E+04 -3.586198E+06  1.408399E-09 -7.187772E-10
        62  16 -1.075091E+07 -1.865881E+06 -3.797393E+05 -3.947892E+06 -1.667337E-09  3.351659E-09
        62  17 -1.085745E+07 -1.866292E+06 -4.163604E+05 -3.938170E+06 -1.629244E-09 -8.213795E-11
        62  18 -1.090902E+07 -1.951739E+06 -4.726658E+05 -3.991872E+06  2.461286E-09 -6.263805E-10
        62  19 -8.107879E+06 -8.695744E+05  3.390546E+05 -3.237561E+06 -2.713823E+04  2.578631E+04
        62  20 -8.059104E+06 -8.027967E+05  3.451259E+05 -3.176892E+06 -4.595385E+04  2.369640E+04
        62  21 -7.954955E+06 -8.205948E+05  3.330148E+05 -3.179633E+06 -6.380155E+04  1.898356E+04
        62  22 -9.430250E+06 -1.367776E+06 -2.026233E+04 -3.593074E+06 -2.510772E+04  2.655166E+04
        62  23 -9.459232E+06 -1.334602E+06 -3.552590E+04 -3.557926E+06 -4.481523E+04  2.413109E+04
        62  24 -9.433053E+06 -1.386235E+06 -6.972136E+04 -3.586199E+06 -6.355137E+04  1.908584E+04
        62  25 -1.075091E+07 -1.865880E+06 -3.797369E+05 -3.947893E+06 -2.308200E+04  2.731525E+04
        62  26 -1.085745E+07 -1.866291E+06 -4.163556E+05 -3.938171E+06 -4.367941E+04  2.456475E+04
        62  27 -1.090902E+07 -1.951737E+06 -4.726575E+05 -3.991873E+06 -6.330173E+04  1.918794E+04
        63   1 -7.912270E+06 -7.720491E+05  3.295824E+05 -3.170582E+06  7.749212E+04 -1.477930E+04
        63   2 -7.921753E+06 -7.541447E+05  2.578352E+05 -3.169711E+06  1.553302E+05  1.470851E+04
        63   3 -8.031229E+06 -9.004103E+05  7.721050E+04 -3.092636E+06  2.314413E+05  4.869431E+04
        63   4 -9.459096E+06 -1.345590E+06 -8.838337E+04 -3.577293E+06  7.659085E+04 -1.512622E+04
        63   5 -9.419638E+06 -1.334123E+06 -1.515200E+05 -3.588614E+06  1.558415E+05  1.489260E+04
        63   6 -9.480651E+06 -1.487400E+06 -3.248697E+05 -3.523679E+06  2.333696E+05  4.940918E+04
        63   7 -1.100359E+07 -1.919017E+06 -5.065634E+05 -3.983086E+06  7.569190E+04 -1.547232E+04
        63   8 -1.091533E+07 -1.913944E+06 -5.610805E+05 -4.006580E+06  1.563509E+05  1.507598E+04
        63   9 -1.092801E+07 -2.074187E+06 -7.271466E+05 -3.953770E+06  2.352923E+05  5.012161E+04
        63  10 -7.912277E+06 -7.720510E+05  3.295706E+05 -3.170581E+06 -8.937449E-10 -2.427307E-09
        63  11 -7.921779E+06 -7.541515E+05  2.577888E+05 -3.169713E+06  8.697790E-10 -1.970849E-09
        63  12 -8.031288E+06 -9.004275E+05  7.710386E+04 -3.092645E+06  2.516607E-09 -1.993189E-09
        63  13 -9.459103E+06 -1.345591E+06 -8.839495E+04 -3.577292E+06 -1.421286E-09 -9.147215E-10
        63  14 -9.419664E+06 -1.334130E+06 -1.515668E+05 -3.588616E+06  7.724739E-09 -1.694535E-09
        63  15 -9.480711E+06 -1.487417E+06 -3.249784E+05 -3.523689E+06 -1.806427E-09  2.040098E-09
        63  16 -1.100359E+07 -1.919019E+06 -5.065748E+05 -3.983085E+06  5.019993E-09 -1.218581E-09
        63  17 -1.091535E+07 -1.913951E+06 -5.611277E+05 -4.006582E+06  3.109315E-09 -1.985204E-09
        63  18 -1.092807E+07 -2.074205E+06 -7.272575E+05 -3.953779E+06 -2.619947E-10 -3.448762E-09
        63  19 -7.912270E+06 -7.720491E+05  3.295824E+05 -3.170582E+06 -7.749212E+04  1.477930E+04
        63  20 -7.921753E+06 -7.541447E+05  2.578352E+05 -3.169711E+06 -1.553302E+05 -1.470851E+04
        63  21 -8.031229E+06 -9.004103E+05  7.721050E+04 -3.092636E+06 -2.314413E+05 -4.869431E+04
        63  22 -9.459096E+06 -1.345590E+06 -8.838337E+04 -3.577293E+06 -7.659085E+04  1.512622E+04
        63  23 -9.419638E+06 -1.334123E+06 -1.515200E+05 -3.588614E+06 -1.558415E+05 -1.489260E+04
        63  24 -9.480651E+06 -1.487400E+06 -3.248697E+05 -3.523679E+06 -2.333696E+05 -4.940918E+04
        63  25 -1.100359E+07 -1.919017E+06 -5.065634E+05 -3.983086E+06 -7.569190E+04  1.547232E+04
        63  26 -1.091533E+07 -1.913944E+06 -5.610805E+05 -4.006580E+06 -1.563509E+05 -1.507598E+04
        63  27 -1.092801E+07 -2.074187E+06 -7.271466E+05 -3.953770E+06 -2.352923E+05 -5.012161E+04
        64   1 -8.166699E+06 -8.885149E+05 -4.468091E+04 -3.343320E+06  2.931033E+05  7.196575E+04
        64   2 -8.168226E+06 -6.686557E+05 -3.275182E+05 -3.265239E+06  6.378332E+05  2.088229E+05
        64   3 -8.882872E+06 -1.825977E+06 -1.277923E+06 -2.678387E+06  9.751183E+05  3.648507E+05
        64   4 -9.548080E+06 -1.297707E+06 -3.971410E+05 -3.603107E+06  2.908044E+05  7.114890E+04
        64   5 -9.275843E+06 -1.166411E+06 -6.434940E+05 -3.644098E+06  6.416906E+05  2.102068E+05
        64   6 -9.719069E+06 -2.415242E+06 -1.563225E+06 -3.175869E+06  9.852903E+05  3.682439E+05
        64   7 -1.092758E+07 -1.706936E+06 -7.497456E+05 -3.862447E+06  2.885105E+05  7.033299E+04
        64   8 -1.038224E+07 -1.663948E+06 -9.595889E+05 -4.022288E+06  6.455394E+05  2.115862E+05
        64   9 -1.055439E+07 -3.003783E+06 -1.848579E+06 -3.672565E+06  9.954464E+05  3.716194E+05
        64  10 -8.166794E+06 -8.885440E+05 -4.485470E+04 -3.343337E+06  4.111255E-09 -1.929835E-09
        64  11 -8.168680E+06 -6.688145E+05 -3.283779E+05 -3.265347E+06  5.245226E-09 -1.142440E-08
        64  12 -8.883942E+06 -1.826382E+06 -1.279993E+06 -2.678676E+06  1.373415E-09 -8.205800E-09
        64  13 -9.548174E+06 -1.297736E+06 -3.973124E+05 -3.603124E+06  2.402128E-09  3.788452E-09
        64  14 -9.276303E+06 -1.166572E+06 -6.443659E+05 -3.644208E+06  1.279939E-08  5.429655E-09
        64  15 -9.720163E+06 -2.415655E+06 -1.565341E+06 -3.176164E+06 -4.208341E-10 -1.035894E-09
        64  16 -1.092767E+07 -1.706964E+06 -7.499146E+05 -3.862464E+06 -9.348070E-09 -2.527878E-09
        64  17 -1.038271E+07 -1.664112E+06 -9.604732E+05 -4.022399E+06 -5.024139E-09  1.211561E-09
        64  18 -1.055551E+07 -3.004206E+06 -1.850742E+06 -3.672866E+06 -8.513707E-10 -1.116355E-10
        64  19 -8.166699E+06 -8.885149E+05 -4.468091E+04 -3.343320E+06 -2.931033E+05 -7.196575E+04
        64  20 -8.168226E+06 -6.686557E+05 -3.275182E+05 -3.265239E+06 -6.378332E+05 -2.088229E+05
        64  21 -8.882872E+06 -1.825977E+06 -1.277923E+06 -2.678387E+06 -9.751183E+05 -3.648507E+05
        64  22 -9.548080E+06 -1.297707E+06 -3.971410E+05 -3.603107E+06 -2.908044E+05 -7.114890E+04
        64  23 -9.275843E+06 -1.166411E+06 -6.434940E+05 -3.644098E+06 -6.416906E+05 -2.102068E+05
        64  24 -9.719069E+06 -2.415242E+06 -1.563225E+06 -3.175869E+06 -9.852903E+05 -3.682439E+05
        64  25 -1.092758E+07 -1.706936E+06 -7.497456E+05 -3.862447E+06 -2.885105E+05 -7.033299E+04
        64  26 -1.038224E+07 -1.663948E+06 -9.595889E+05 -4.022288E+06 -6.455394E+05 -2.115862E+05
        64  27 -1.055439E+07 -3.003783E+06 -1.848579E+06 -3.672565E+06 -9.954464E+05 -3.716194E+05
        65   1 -1.549437E+06 -2.319867E+05 -1.852455E+05 -1.485520E+04  1.236096E+05  1.259464E+04
        65   2 -1.509932E+06 -3.984333E+05 -2.762731E+05  2.293919E+03  8.583411E+04  3.504661E+04
        65   3 -1.406983E+06 -3.578846E+05 -2.896197E+05 -6.035294E+04  4.824003E+04  3.092509E+04
        65   4 -1.127470E+03  1.543535E+05  1.995041E+05 -4.061036E+04  1.359213E+05  1.267803E+04
        65   5 -3.357264E+04 -3.059621E+04  8.557937E+04 -1.365013E+02  8.913318E+04  3.506044E+04
        65   6 -1.143008E+03 -7.245581E+03  5.546124E+04 -3.944488E+04  4.253145E+04  3.089434E+04
        65   7  1.549364E+06  5.405171E+05  5.840755E+05 -6.643392E+04  1.482634E+05  1.276031E+04
        65   8  1.444775E+06  3.370793E+05  4.472722E+05 -2.575794E+03  9.243989E+04  3.507422E+04
        65   9  1.406499E+06  3.432480E+05  4.003973E+05 -1.849140E+04  3.680985E+04  3.086323E+04
        65  10 -1.549453E+06 -2.319910E+05 -1.852746E+05 -1.485645E+04  1.649443E-09  2.006205E-09
        65  11 -1.509940E+06 -3.984366E+05 -2.762893E+05  2.291494E+03  3.536782E-09 -2.990440E-09
        65  12 -1.406985E+06 -3.578863E+05 -2.896259E+05 -6.035415E+04 -5.292530E-09  1.346348E-10
        65  13 -1.147349E+03  1.543484E+05  1.994691E+05 -4.061174E+04  2.051632E-09  3.297156E-10
        65  14 -3.358150E+04 -3.059966E+04  8.556213E+04 -1.390180E+02  4.255955E-11 -1.012328E-08
        65  15 -1.145207E+03 -7.247091E+03  5.545605E+04 -3.944594E+04  1.828318E-09 -1.613240E-09
        65  16  1.549340E+06  5.405110E+05  5.840340E+05 -6.643544E+04 -7.123682E-10 -1.017030E-09
        65  17  1.444766E+06  3.370757E+05  4.472539E+05 -2.578402E+03 -3.467797E-10 -1.991130E-09
        65  18  1.406498E+06  3.432466E+05  4.003929E+05 -1.849231E+04  8.882528E-10 -1.830027E-09
        65  19 -1.549437E+06 -2.319867E+05 -1.852455E+05 -1.485520E+04 -1.236096E+05 -1.259464E+04
        65  20 -1.509932E+06 -3.984333E+05 -2.762731E+05  2.293919E+03 -8.583411E+04 -3.504661E+04
        65  21 -1.406983E+06 -3.578846E+05 -2.896197E+05 -6.035294E+04 -4.824003E+04 -3.092509E+04
        65  22 -1.127470E+03  1.543535E+05  1.995041E+05 -4.061036E+04 -1.359213E+05 -1.267803E+04
        65  23 -3.357264E+04 -3.059621E+04  8.557937E+04 -1.365013E+02 -8.913318E+04 -3.506044E+04
        65  24 -1.143008E+03 -7.245581E+03  5.546124E+04 -3.944488E+04 -4.253145E+04 -3.089434E+04
        65  25  1.549364E+06  5.405171E+05  5.840755E+05 -6.643392E+04 -1.482634E+05 -1.276031E+04
        65  26  1.444775E+06  3.370793E+05  4.472722E+05 -2.575794E+03 -9.243989E+04 -3.507422E+04
        65  27  1.406499E+06  3.432480E+05  4.003973E+05 -1.849140E+04 -3.680985E+04 -3.086323E+04
        66   1 -1.256300E+06 -2.905547E+05 -2.600876E+05 -3.950028E+04  3.296443E+04  2.534869E+04
        66   2 -1.191553E+06 -2.965272E+05 -2.657092E+05 -1.820984E+03  2.245088E+04  2.556854E+04
        66   3 -1.114658E+06 -2.757699E+05 -2.569576E+05 -4.338556E+04  1.193995E+04  2.284509E+04
        66   4 -1.268724E+04  1.945899E+04  4.552854E+04 -3.973782E+04  3.359202E+04  2.534783E+04
        66   5 -1.884020E+04 -4.247209E+03  2.210290E+04 -8.018237E+01  2.207065E+04  2.556423E+04
        66   6 -1.268805E+04 -1.073551E+03  1.373165E+04 -3.965686E+04  1.055312E+04  2.283974E+04
        66   7  1.232336E+06  3.293577E+05  3.510308E+05 -3.997725E+04  3.422082E+04  2.534696E+04
        66   8  1.155126E+06  2.879306E+05  3.098140E+05  1.662948E+03  2.168968E+04  2.555992E+04
        66   9  1.090389E+06  2.735326E+05  2.843316E+05 -3.592203E+04  9.163823E+03  2.283437E+04
        66  10 -1.256302E+06 -2.905556E+05 -2.600908E+05 -3.950095E+04  1.941458E-09 -1.580357E-09
        66  11 -1.191553E+06 -2.965280E+05 -2.657114E+05 -1.821447E+03  4.875069E-09  3.159047E-09
        66  12 -1.114658E+06 -2.757705E+05 -2.569588E+05 -4.338578E+04  6.810450E-10 -1.651343E-10
        66  13 -1.268862E+04  1.945800E+04  4.552521E+04 -3.973851E+04 -1.037036E-09 -2.343147E-09
        66  14 -1.884090E+04 -4.248041E+03  2.210076E+04 -8.063677E+01 -2.161879E-09 -1.096769E-09
        66  15 -1.268831E+04 -1.074141E+03  1.373046E+04 -3.965705E+04  5.539533E-09 -8.920649E-10
        66  16  1.232334E+06  3.293567E+05  3.510274E+05 -3.997795E+04 -2.710988E-09  2.261879E-09
        66  17  1.155125E+06  2.879298E+05  3.098119E+05  1.662502E+03 -1.583924E-09 -3.232652E-09
        66  18  1.090388E+06  2.735320E+05  2.843305E+05 -3.592220E+04  3.585660E-10  8.328631E-10
        66  19 -1.256300E+06 -2.905547E+05 -2.600876E+05 -3.950028E+04 -3.296443E+04 -2.534869E+04
        66  20 -1.191553E+06 -2.965272E+05 -2.657092E+05 -1.820984E+03 -2.245088E+04 -2.556854E+04
        66  21 -1.114658E+06 -2.757699E+05 -2.569576E+05 -4.338556E+04 -1.193995E+04 -2.284509E+04
        66  22 -1.268724E+04  1.945899E+04  4.552854E+04 -3.973782E+04 -3.359202E+04 -2.534783E+04
        66  23 -1.884020E+04 -4.247209E+03  2.210290E+04 -8.018237E+01 -2.207065E+04 -2.556423E+04
        66  24 -1.268805E+04 -1.073551E+03  1.373165E+04 -3.965686E+04 -1.055312E+04 -2.283974E+04
        66  25  1.232336E+06  3.293577E+05  3.510308E+05 -3.997725E+04 -3.422082E+04 -2.534696E+04
        66  26  1.155126E+06  2.879306E+05  3.098140E+05  1.662948E+03 -2.168968E+04 -2.555992E+04
        66  27  1.090389E+06  2.735326E+05  2.843316E+05 -3.592203E+04 -9.163823E+03 -2.283437E+04
        67   1 -9.536095E+05 -2.317861E+05 -2.195353E+05 -4.036094E+04  9.021699E+03  2.091352E+04
        67   2 -8.843473E+05 -2.170049E+05 -2.075195E+05 -4.463655E+02  6.305809E+03  1.868198E+04
        67   3 -8.118227E+05 -1.988082E+05 -1.924584E+05 -3.990478E+04  3.583724E+03  1.612333E+04
        67   4 -1.458995E+04  2.191740E+03  1.078380E+04 -3.971269E+04  8.337461E+03  2.091047E+04
        67   5 -1.622783E+04 -6.740292E+02  5.542009E+03 -2.794510E+01  5.507918E+03  1.867972E+04
        67   6 -1.458994E+04 -1.062126E+02  3.421717E+03 -3.970932E+04  2.672487E+03  1.612208E+04
        67   7  9.252334E+05  2.361042E+05  2.410382E+05 -3.906373E+04  7.652182E+03  2.090743E+04
        67   8  8.525784E+05  2.156009E+05  2.185482E+05  3.909370E+02  4.708907E+03  1.867746E+04
        67   9  7.832219E+05  1.985486E+05  1.992551E+05 -3.951359E+04  1.760079E+03  1.612083E+04
        67  10 -9.536097E+05 -2.317866E+05 -2.195363E+05 -4.036109E+04  2.512337E-09  6.442247E-10
        67  11 -8.843474E+05 -2.170053E+05 -2.075203E+05 -4.464605E+02  2.972795E-11 -7.441317E-10
        67  12 -8.118228E+05 -1.988085E+05 -1.924589E+05 -3.990483E+04 -4.430807E-09  3.191979E-10
        67  13 -1.459014E+04  2.191252E+03  1.078284E+04 -3.971283E+04  2.577975E-09 -6.912783E-10
        67  14 -1.622796E+04 -6.744120E+02  5.541296E+03 -2.802796E+01  1.077748E-09 -1.081297E-09
        67  15 -1.459001E+04 -1.064936E+02  3.421215E+03 -3.970936E+04  3.230826E-09  9.653229E-10
        67  16  9.252332E+05  2.361037E+05  2.410373E+05 -3.906386E+04 -1.156617E-09 -9.679734E-10
        67  17  8.525783E+05  2.156006E+05  2.185475E+05  3.908662E+02 -1.791120E-09 -1.615207E-09
        67  18  7.832218E+05  1.985483E+05  1.992546E+05 -3.951361E+04  1.711176E-09  1.652136E-09
        67  19 -9.536095E+05 -2.317861E+05 -2.195353E+05 -4.036094E+04 -9.021699E+03 -2.091352E+04
        67  20 -8.843473E+05 -2.170049E+05 -2.075195E+05 -4.463655E+02 -6.305809E+03 -1.868198E+04
        67  21 -8.118227E+05 -1.988082E+05 -1.924584E+05 -3.990478E+04 -3.583724E+03 -1.612333E+04
        67  22 -1.458995E+04  2.191740E+03  1.078380E+04 -3.971269E+04 -8.337461E+03 -2.091047E+04
        67  23 -1.622783E+04 -6.740292E+02  5.542009E+03 -2.794510E+01 -5.507918E+03 -1.867972E+04
        67  24 -1.458994E+04 -1.062126E+02  3.421717E+03 -3.970932E+04 -2.672487E+03 -1.612208E+04
        67  25  9.252334E+05  2.361042E+05  2.410382E+05 -3.906373E+04 -7.652182E+03 -2.090743E+04
        67  26  8.525784E+05  2.156009E+05  2.185482E+05  3.909370E+02 -4.708907E+03 -1.867746E+04
        67  27  7.832219E+05  1.985486E+05  1.992551E+05 -3.951359E+04 -1.760079E+03 -1.612083E+04
        68   1 -6.490297E+05 -1.577286E+05 -1.527890E+05 -3.951024E+04  2.952084E+03  1.459472E+04
        68   2 -5.784527E+05 -1.403904E+05 -1.368306E+05  3.697968E+02  2.294882E+03  1.208938E+04
        68   3 -5.070306E+05 -1.225041E+05 -1.201808E+05 -3.920154E+04  1.633473E+03  9.548718E+03
        68   4 -1.505721E+04  1.894299E+02  2.574436E+03 -3.972813E+04  2.118193E+03  1.459414E+04
        68   5 -1.547858E+04 -1.251920E+02  1.318203E+03 -4.652217E+00  1.448464E+03  1.208947E+04
        68   6 -1.505716E+04  1.109807E+02  7.620315E+02 -3.972808E+04  7.746015E+02  9.549497E+03
        68   7  6.192817E+05  1.580777E+05  1.579084E+05 -3.994620E+04  1.283451E+03  1.459356E+04
        68   8  5.477843E+05  1.401165E+05  1.394437E+05 -3.793745E+02  6.012782E+02  1.208955E+04
        68   9  4.771367E+05  1.227080E+05  1.216870E+05 -4.025495E+04 -8.494957E+01  9.550278E+03
        68  10 -6.490298E+05 -1.577288E+05 -1.527894E+05 -3.951027E+04  4.257053E-10  4.953440E-10
        68  11 -5.784528E+05 -1.403906E+05 -1.368309E+05  3.697745E+02 -5.706679E-10  5.184474E-10
        68  12 -5.070307E+05 -1.225042E+05 -1.201810E+05 -3.920155E+04  8.809846E-10 -7.107446E-10
        68  13 -1.505727E+04  1.892000E+02  2.574027E+03 -3.972816E+04  4.213470E-09  1.656725E-09
        68  14 -1.547862E+04 -1.253495E+02  1.317925E+03 -4.666320E+00 -2.158565E-09 -2.571915E-09
        68  15 -1.505718E+04  1.108827E+02  7.618590E+02 -3.972808E+04 -1.251627E-09 -1.250543E-09
        68  16  6.192816E+05  1.580774E+05  1.579080E+05 -3.994621E+04 -3.048150E-10  1.872744E-10
        68  17  5.477843E+05  1.401164E+05  1.394435E+05 -3.793803E+02  2.373471E-09 -2.976681E-09
        68  18  4.771367E+05  1.227079E+05  1.216869E+05 -4.025495E+04 -3.354283E-10 -1.017962E-09
        68  19 -6.490297E+05 -1.577286E+05 -1.527890E+05 -3.951024E+04 -2.952084E+03 -1.459472E+04
        68  20 -5.784527E+05 -1.403904E+05 -1.368306E+05  3.697968E+02 -2.294882E+03 -1.208938E+04
        68  21 -5.070306E+05 -1.225041E+05 -1.201808E+05 -3.920154E+04 -1.633473E+03 -9.548718E+03
        68  22 -1.505721E+04  1.894299E+02  2.574436E+03 -3.972813E+04 -2.118193E+03 -1.459414E+04
        68  23 -1.547858E+04 -1.251920E+02  1.318203E+03 -4.652217E+00 -1.448464E+03 -1.208947E+04
        68  24 -1.505716E+04  1.109807E+02  7.620315E+02 -3.972808E+04 -7.746015E+02 -9.549497E+03
        68  25  6.192817E+05  1.580777E+05  1.579084E+05 -3.994620E+04 -1.283451E+03 -1.459356E+04
        68  26  5.477843E+05  1.401165E+05  1.394437E+05 -3.793745E+02 -6.012782E+02 -1.208955E+04
        68  27  4.771367E+05  1.227080E+05  1.216870E+05 -4.025495E+04  8.494957E+01 -9.550278E+03
        69   1 -3.437644E+05 -8.170657E+04 -7.990219E+04 -3.934850E+04  1.508631E+03  8.061375E+03
        69   2 -2.726262E+05 -6.413623E+04 -6.307332E+04  3.613622E+02  1.453203E+03  5.523019E+03
        69   3 -2.016293E+05 -4.636152E+04 -4.620087E+04 -3.942493E+04  1.395914E+03  2.998050E+03
        69   4 -1.523472E+04  9.150706E+01  4.840712E+02 -3.973859E+04  6.540029E+02  8.062542E+03
        69   5 -1.516186E+04 -2.638891E-03  9.524295E+01  8.473645E+00  6.029931E+02  5.524476E+03
        69   6 -1.523469E+04  1.127332E+02 -2.524943E+02 -3.973857E+04  5.501277E+02  2.999811E+03
        69   7  3.133934E+05  8.188160E+04  8.086244E+04 -4.012884E+04 -2.010764E+02  8.063709E+03
        69   8  2.423628E+05  6.413130E+04  6.325895E+04 -3.445332E+02 -2.475692E+02  5.525933E+03
        69   9  1.711915E+05  4.658440E+04  4.569331E+04 -4.005228E+04 -2.959125E+02  3.001573E+03
        69  10 -3.437644E+05 -8.170664E+04 -7.990232E+04 -3.934851E+04  1.922071E-09 -4.361802E-10
        69  11 -2.726262E+05 -6.413626E+04 -6.307339E+04  3.613557E+02 -1.300747E-10  9.598781E-10
        69  12 -2.016293E+05 -4.636153E+04 -4.620089E+04 -3.942493E+04  1.824981E-09 -2.328100E-10
        69  13 -1.523474E+04  9.143714E+01  4.839483E+02 -3.973859E+04  6.038589E-09  2.161852E-09
        69  14 -1.516187E+04 -3.550924E-02  9.518492E+01  8.470962E+00  1.085608E-09  2.283745E-09
        69  15 -1.523470E+04  1.127234E+02 -2.525118E+02 -3.973857E+04 -3.893134E-09 -3.300153E-09
        69  16  3.133934E+05  8.188153E+04  8.086232E+04 -4.012883E+04 -1.234360E-09  1.509688E-09
        69  17  2.423628E+05  6.413127E+04  6.325889E+04 -3.445321E+02  1.011519E-09  1.234274E-09
        69  18  1.711915E+05  4.658439E+04  4.569329E+04 -4.005228E+04 -9.532384E-10 -1.315374E-10
        69  19 -3.437644E+05 -8.170657E+04 -7.990219E+04 -3.934850E+04 -1.508631E+03 -8.061375E+03
        69  20 -2.726262E+05 -6.413623E+04 -6.307332E+04  3.613622E+02 -1.453203E+03 -5.523019E+03
        69  21 -2.016293E+05 -4.636152E+04 -4.620087E+04 -3.942493E+04 -1.395914E+03 -2.998050E+03
        69  22 -1.523472E+04  9.150706E+01  4.840712E+02 -3.973859E+04 -6.540029E+02 -8.062542E+03
        69  23 -1.516186E+04 -2.638891E-03  9.524295E+01  8.473645E+00 -6.029931E+02 -5.524476E+03
        69  24 -1.523469E+04  1.127332E+02 -2.524943E+02 -3.973857E+04 -5.501277E+02 -2.999811E+03
        69  25  3.133934E+05  8.188160E+04  8.086244E+04 -4.012884E+04  2.010764E+02 -8.063709E+03
        69  26  2.423628E+05  6.413130E+04  6.325895E+04 -3.445332E+02  2.475692E+02 -5.525933E+03
        69  27  1.711915E+05  4.658440E+04  4.569331E+04 -4.005228E+04  2.959125E+02 -3.001573E+03
        70   1 -3.815427E+04 -5.467434E+03 -5.833445E+03 -3.976834E+04  1.492184E+03  1.493080E+03
        70   2  3.322038E+04  1.212043E+04  1.089711E+04 -4.914179E+01  1.908667E+03 -1.057006E+03
        70   3  1.040436E+05  2.934827E+04  2.717955E+04 -3.983786E+04  2.325889E+03 -3.443910E+03
        70   4 -1.531752E+04  1.762126E+02 -4.514622E+02 -3.974134E+04  6.082447E+02  1.495026E+03
        70   5 -1.503416E+04  1.028923E+02 -9.360776E+02  1.226988E+01  1.079463E+03 -1.055245E+03
        70   6 -1.531754E+04 -3.399075E+02 -1.906825E+03 -3.974242E+04  1.551375E+03 -3.442313E+03
        70   7  7.519715E+03  5.819822E+03  4.930488E+03 -3.971433E+04 -2.757266E+02  1.496971E+03
        70   8 -6.328656E+04 -1.191482E+04 -1.276943E+04  7.367789E+01  2.503246E+02 -1.053485E+03
        70   9 -1.346656E+05 -3.002914E+04 -3.099424E+04 -3.964700E+04  7.770095E+02 -3.440716E+03
        70  10 -3.815428E+04 -5.467437E+03 -5.833453E+03 -3.976834E+04  1.713651E-09  2.068040E-09
        70  11  3.322037E+04  1.212043E+04  1.089710E+04 -4.914016E+01 -5.073270E-09 -1.052656E-10
        70  12  1.040435E+05  2.934826E+04  2.717952E+04 -3.983785E+04  8.940815E-10  4.609806E-11
        70  13 -1.531752E+04  1.762101E+02 -4.514671E+02 -3.974134E+04 -4.885515E-09 -2.011906E-09
        70  14 -1.503416E+04  1.028908E+02 -9.360819E+02  1.227080E+01 -6.472380E-09 -3.037920E-09
        70  15 -1.531754E+04 -3.399209E+02 -1.906851E+03 -3.974242E+04 -8.955677E-10  9.046320E-10
        70  16  7.519714E+03  5.819820E+03  4.930483E+03 -3.971433E+04 -4.431275E-09  1.830775E-09
        70  17 -6.328656E+04 -1.191482E+04 -1.276943E+04  7.367810E+01  3.672961E-09 -2.933985E-09
        70  18 -1.346656E+05 -3.002915E+04 -3.099426E+04 -3.964700E+04 -1.173037E-09 -7.239862E-10
        70  19 -3.815427E+04 -5.467434E+03 -5.833445E+03 -3.976834E+04 -1.492184E+03 -1.493080E+03
        70  20  3.322038E+04  1.212043E+04  1.089711E+04 -4.914179E+01 -1.908667E+03  1.057006E+03
        70  21  1.040436E+05  2.934827E+04  2.717955E+04 -3.983786E+04 -2.325889E+03  3.443910E+03
        70  22 -1.531752E+04  1.762126E+02 -4.514622E+02 -3.974134E+04 -6.082447E+02 -1.495026E+03
        70  23 -1.503416E+04  1.028923E+02 -9.360776E+02  1.226988E+01 -1.079463E+03  1.055245E+03
        70  24 -1.531754E+04 -3.399075E+02 -1.906825E+03 -3.974242E+04 -1.551375E+03  3.442313E+03
        70  25  7.519715E+03  5.819822E+03  4.930488E+03 -3.971433E+04  2.757266E+02 -1.496971E+03
        70  26 -6.328656E+04 -1.191482E+04 -1.276943E+04  7.367789E+01 -2.503246E+02  1.053485E+03
        70  27 -1.346656E+05 -3.002914E+04 -3.099424E+04 -3.964700E+04 -7.770095E+02  3.440716E+03
        71   1  2.674143E+05  7.082893E+04  6.719184E+04 -4.056052E+04  3.057574E+03 -5.146216E+03
        71   2  3.392094E+05  8.884170E+04  8.273045E+04 -2.467347E+02  4.660489E+03 -7.760571E+03
        71   3  4.096366E+05  1.022376E+05  9.606670E+04 -3.939479E+04  6.268131E+03 -8.898633E+03
        71   4 -1.553659E+04  3.238861E+02 -2.411290E+03 -3.973003E+04  1.931072E+03 -5.144096E+03
        71   5 -1.480679E+04  6.942268E+02 -4.060382E+03 -4.938892E-01  4.029133E+03 -7.759807E+03
        71   6 -1.553667E+04 -3.639544E+03 -8.256461E+03 -3.973569E+04  6.131739E+03 -8.898844E+03
        71   7 -2.984146E+05 -7.018711E+04 -7.202032E+04 -3.889988E+04  8.050827E+02 -5.141979E+03
        71   8 -3.687089E+05 -8.746254E+04 -9.086041E+04  2.456535E+02  3.398136E+03 -7.759043E+03
        71   9 -4.405454E+05 -1.095301E+05 -1.125929E+05 -4.007630E+04  5.995438E+03 -8.899054E+03
        71  10  2.674142E+05  7.082889E+04  6.719178E+04 -4.056051E+04 -9.953992E-10 -2.304428E-09
        71  11  3.392094E+05  8.884163E+04  8.273030E+04 -2.467055E+02 -5.381994E-09  8.014617E-10
        71  12  4.096365E+05  1.022375E+05  9.606648E+04 -3.939474E+04  2.620023E-09 -2.942897E-10
        71  13 -1.553661E+04  3.238567E+02 -2.411347E+03 -3.973002E+04  1.636519E-09  6.086799E-10
        71  14 -1.480683E+04  6.941578E+02 -4.060526E+03 -4.687088E-01  1.076110E-09  5.082073E-10
        71  15 -1.553673E+04 -3.639639E+03 -8.256681E+03 -3.973565E+04 -1.987039E-09  5.102627E-11
        71  16 -2.984146E+05 -7.018713E+04 -7.202037E+04 -3.889988E+04  4.723504E-10  1.394499E-09
        71  17 -3.687089E+05 -8.746261E+04 -9.086054E+04  2.456748E+02 -2.378923E-09  2.223169E-09
        71  18 -4.405455E+05 -1.095302E+05 -1.125931E+05 -4.007626E+04 -1.934594E-09 -7.104757E-10
        71  19  2.674143E+05  7.082893E+04  6.719184E+04 -4.056052E+04 -3.057574E+03  5.146216E+03
        71  20  3.392094E+05  8.884170E+04  8.273045E+04 -2.467347E+02 -4.660489E+03  7.760571E+03
        71  21  4.096366E+05  1.022376E+05  9.606670E+04 -3.939479E+04 -6.268131E+03  8.898633E+03
        71  22 -1.553659E+04  3.238861E+02 -2.411290E+03 -3.973003E+04 -1.931072E+03  5.144096E+03
        71  23 -1.480679E+04  6.942268E+02 -4.060382E+03 -4.938892E-01 -4.029133E+03  7.759807E+03
        71  24 -1.553667E+04 -3.639544E+03 -8.256461E+03 -3.973569E+04 -6.131739E+03  8.898844E+03
        71  25 -2.984146E+05 -7.018711E+04 -7.202032E+04 -3.889988E+04 -8.050827E+02  5.141979E+03
        71  26 -3.687089E+05 -8.746254E+04 -9.086041E+04  2.456535E+02 -3.398136E+03  7.759043E+03
        71  27 -4.405454E+05 -1.095301E+05 -1.125929E+05 -4.007630E+04 -5.995438E+03  8.899054E+03
        72   1  5.713559E+05  1.479087E+05  1.344404E+05 -4.306646E+04  1.103835E+04 -1.238036E+04
        72   2  6.468960E+05  1.694655E+05  1.456786E+05  1.382894E+03  1.510404E+04 -1.555981E+04
        72   3  7.137339E+05  1.542787E+05  1.452903E+05 -3.334829E+04  1.917370E+04 -5.438366E+03
        72   4 -1.737367E+04  1.308327E+03 -9.989373E+03 -3.966798E+04  7.729020E+03 -1.237739E+04
        72   5 -1.262738E+04  5.330666E+03 -1.573750E+04 -7.533579E+01  1.625997E+04 -1.556147E+04
        72   6 -1.737380E+04 -2.818657E+04 -3.622213E+04 -3.966889E+04  2.479429E+04 -5.438531E+03
        72   7 -6.057878E+05 -1.453177E+05 -1.544445E+05 -3.627264E+04  4.422814E+03 -1.237445E+04
        72   8 -6.717547E+05 -1.588363E+05 -1.771854E+05 -1.531967E+03  1.741466E+04 -1.556314E+04
        72   9 -7.479966E+05 -2.106918E+05 -2.177744E+05 -4.598204E+04  3.040826E+04 -5.438810E+03
        72  10  5.713557E+05  1.479085E+05  1.344399E+05 -4.306635E+04 -1.167334E-09 -4.346267E-10
        72  11  6.468957E+05  1.694652E+05  1.456777E+05  1.383084E+03 -4.289390E-10  9.655774E-10
        72  12  7.137335E+05  1.542786E+05  1.452896E+05 -3.334821E+04 -1.114253E-10  5.469251E-10
        72  13 -1.737378E+04  1.308146E+03 -9.989773E+03 -3.966791E+04 -2.429264E-09  1.625921E-09
        72  14 -1.262773E+04  5.330335E+03 -1.573845E+04 -7.513200E+01  3.231603E-09  1.002878E-09
        72  15 -1.737447E+04 -2.818677E+04 -3.622334E+04 -3.966878E+04  5.502563E-09  4.957653E-10
        72  16 -6.057879E+05 -1.453179E+05 -1.544449E+05 -3.627259E+04 -1.379384E-09 -3.582142E-10
        72  17 -6.717551E+05 -1.588367E+05 -1.771864E+05 -1.531749E+03 -3.995401E-09  1.448041E-09
        72  18 -7.479976E+05 -2.106921E+05 -2.177762E+05 -4.598191E+04 -2.719613E-09  6.731927E-10
        72  19  5.713559E+05  1.479087E+05  1.344404E+05 -4.306646E+04 -1.103835E+04  1.238036E+04
        72  20  6.468960E+05  1.694655E+05  1.456786E+05  1.382894E+03 -1.510404E+04  1.555981E+04
        72  21  7.137339E+05  1.542787E+05  1.452903E+05 -3.334829E+04 -1.917370E+04  5.438366E+03
        72  22 -1.737367E+04  1.308327E+03 -9.989373E+03 -3.966798E+04 -7.729020E+03  1.237739E+04
        72  23 -1.262738E+04  5.330666E+03 -1.573750E+04 -7.533579E+01 -1.625997E+04  1.556147E+04
        72  24 -1.737380E+04 -2.818657E+04 -3.622213E+04 -3.966889E+04 -2.479429E+04  5.438531E+03
        72  25 -6.057878E+05 -1.453177E+05 -1.544445E+05 -3.627264E+04 -4.422814E+03  1.237445E+04
        72  26 -6.717547E+05 -1.588363E+05 -1.771854E+05 -1.531967E+03 -1.741466E+04  1.556314E+04
        72  27 -7.479966E+05 -2.106918E+05 -2.177744E+05 -4.598204E+04 -3.040826E+04  5.438810E+03
        73   1  1.532076E+06  5.188379E+06  1.467793E+06 -1.344737E+06  6.403824E+04  3.370000E+05
        73   2  1.091970E+06  3.725086E+06  9.554517E+05 -1.130863E+06  1.991452E+05  9.356037E+04
        73   3  7.407134E+05  2.312081E+06  6.223727E+05 -1.286892E+06  1.805370E+05 -1.505845E+05
        73   4  7.973106E+04 -6.823982E+05  6.713118E+04 -1.264076E+06  6.724555E+04  3.354984E+04
        73   5  2.808766E+04 -6.854319E+05  4.243816E+04 -1.079378E+06  2.001529E+05  1.327331E+04
        73   6  2.714446E+04 -6.783858E+05  4.299493E+04 -1.264671E+06  1.788671E+05 -8.289180E+03
        73   7 -1.375039E+06 -6.521519E+06 -1.335611E+06 -1.184068E+06  7.039212E+04 -2.670625E+05
        73   8 -1.037019E+06 -5.077559E+06 -8.716094E+05 -1.028198E+06  2.011516E+05 -6.645581E+04
        73   9 -6.869465E+05 -3.660234E+06 -5.367271E+05 -1.242527E+06  1.772024E+05  1.333380E+05
        73  10  1.532041E+06  5.188257E+06  1.467573E+06 -1.344754E+06  2.520420E-09  5.328814E-09
        73  11  1.091925E+06  3.725066E+06  9.553606E+05 -1.130878E+06  3.588553E-09 -3.731368E-09
        73  12  7.406724E+05  2.312049E+06  6.222692E+05 -1.286870E+06  1.141699E-09 -1.304621E-08
        73  13  7.972590E+04 -6.824006E+05  6.712055E+04 -1.264078E+06  2.145902E-09  4.496836E-09
        73  14  2.804460E+04 -6.854428E+05  4.236255E+04 -1.079380E+06  1.669966E-09 -9.603078E-09
        73  15  2.711010E+04 -6.783945E+05  4.293471E+04 -1.264670E+06  3.133752E-09  3.429711E-09
        73  16 -1.375064E+06 -6.521597E+06 -1.335755E+06 -1.184053E+06  4.950519E-10 -5.106670E-09
        73  17 -1.037063E+06 -5.077575E+06 -8.716936E+05 -1.028188E+06  9.739807E-09  5.462431E-09
        73  18 -6.869851E+05 -3.660261E+06 -5.368199E+05 -1.242546E+06 -4.726988E-09  7.524143E-09
        73  19  1.532076E+06  5.188379E+06  1.467793E+06 -1.344737E+06 -6.403824E+04 -3.370000E+05
        73  20  1.091970E+06  3.725086E+06  9.554517E+05 -1.130863E+06 -1.991452E+05 -9.356037E+04
        73  21  7.407134E+05  2.312081E+06  6.223727E+05 -1.286892E+06 -1.805370E+05  1.505845E+05
        73  22  7.973106E+04 -6.823982E+05  6.713118E+04 -1.264076E+06 -6.724555E+04 -3.354984E+04
        73  23  2.808766E+04 -6.854319E+05  4.243816E+04 -1.079378E+06 -2.001529E+05 -1.327331E+04
        73  24  2.714446E+04 -6.783858E+05  4.299493E+04 -1.264671E+06 -1.788671E+05  8.289180E+03
        73  25 -1.375039E+06 -6.521519E+06 -1.335611E+06 -1.184068E+06 -7.039212E+04  2.670625E+05
        73  26 -1.037019E+06 -5.077559E+06 -8.716094E+05 -1.028198E+06 -2.011516E+05  6.645581E+04
        73  27 -6.869465E+05 -3.660234E+06 -5.367271E+05 -1.242527E+06 -1.772024E+05 -1.333380E+05
        74   1  5.099302E+05  1.330419E+06  4.377364E+05 -1.289085E+06  1.217647E+05 -1.330656E+05
        74   2  1.629529E+05 -1.064197E+05  1.769410E+05 -1.081061E+06  4.056872E+04 -1.713735E+05
        74   3 -1.589301E+05 -1.539575E+06 -5.524194E+04 -1.252077E+06 -4.258377E+04 -2.096624E+05
        74   4  2.983413E+04 -6.793984E+05  4.800929E+04 -1.266608E+06  1.203354E+05 -1.674254E+04
        74   5  2.673581E+04 -6.797044E+05  6.953463E+04 -1.076983E+06  3.908094E+04 -5.233159E+04
        74   6  4.835236E+04 -6.788439E+05  1.177644E+05 -1.266384E+06 -4.413459E+04 -8.798448E+04
        74   7 -4.504951E+05 -2.685309E+06 -3.418571E+05 -1.244191E+06  1.189117E+05  9.921304E+04
        74   8 -1.094927E+05 -1.252641E+06 -3.783268E+04 -1.072909E+06  3.759390E+04  6.660318E+04
        74   9  2.555975E+05  1.826274E+05  2.907888E+05 -1.280709E+06 -4.568974E+04  3.385921E+04
        74  10  5.099096E+05  1.330396E+06  4.376755E+05 -1.289072E+06 -9.483906E-10  3.103951E-09
        74  11  1.629433E+05 -1.064517E+05  1.768828E+05 -1.081055E+06  4.904013E-09 -2.839507E-09
        74  12 -1.589440E+05 -1.539623E+06 -5.532824E+04 -1.252084E+06  2.560482E-09 -4.376951E-09
        74  13  2.981852E+04 -6.794025E+05  4.798158E+04 -1.266607E+06  1.705011E-09  5.679907E-09
        74  14  2.673344E+04 -6.797078E+05  6.952663E+04 -1.076982E+06 -9.771747E-09 -1.187816E-08
        74  15  4.834818E+04 -6.788528E+05  1.177461E+05 -1.266387E+06 -1.611368E-09  3.805189E-09
        74  16 -4.505130E+05 -2.685324E+06 -3.419024E+05 -1.244200E+06 -5.759196E-09 -4.266832E-09
        74  17 -1.094954E+05 -1.252646E+06 -3.784371E+04 -1.072911E+06 -6.950866E-09  1.995748E-09
        74  18  2.555949E+05  1.826256E+05  2.907827E+05 -1.280708E+06  2.552510E-09 -1.040505E-09
        74  19  5.099302E+05  1.330419E+06  4.377364E+05 -1.289085E+06 -1.217647E+05  1.330656E+05
        74  20  1.629529E+05 -1.064197E+05  1.769410E+05 -1.081061E+06 -4.056872E+04  1.713735E+05
        74  21 -1.589301E+05 -1.539575E+06 -5.524194E+04 -1.252077E+06  4.258377E+04  2.096624E+05
        74  22  2.983413E+04 -6.793984E+05  4.800929E+04 -1.266608E+06 -1.203354E+05  1.674254E+04
        74  23  2.673581E+04 -6.797044E+05  6.953463E+04 -1.076983E+06 -3.908094E+04  5.233159E+04
        74  24  4.835236E+04 -6.788439E+05  1.177644E+05 -1.266384E+06  4.413459E+04  8.798448E+04
        74  25 -4.504951E+05 -2.685309E+06 -3.418571E+05 -1.244191E+06 -1.189117E+05 -9.921304E+04
        74  26 -1.094927E+05 -1.252641E+06 -3.783268E+04 -1.072909E+06 -3.759390E+04 -6.660318E+04
        74  27  2.555975E+05  1.826274E+05  2.907888E+05 -1.280709E+06  4.568974E+04 -3.385921E+04
        75   1 -4.109659E+05 -2.495809E+06 -2.114889E+05 -1.293061E+06 -1.009329E+05 -2.508830E+05
        75   2 -6.923524E+05 -3.957830E+06 -4.179278E+05 -9.276024E+05 -1.376512E+05 -2.077477E+05
        75   3 -6.609302E+05 -5.352041E+06 -5.760639E+05 -9.327339E+05 -4.817395E+04 -1.635211E+05
        75   4  2.865143E+04 -6.581667E+05  1.508475E+05 -1.265338E+06 -1.027189E+05 -1.089803E+05
        75   5  9.995475E+04 -7.078709E+05  2.661140E+05 -1.077568E+06 -1.370887E+05 -2.472625E+05
        75   6  5.146568E+05 -6.609280E+05  5.554550E+05 -1.259888E+06 -4.558916E+04 -3.843799E+05
        75   7  4.680795E+05  1.182766E+06  5.130962E+05 -1.237518E+06 -1.044891E+05  3.333529E+04
        75   8  8.916517E+05  2.552153E+06  9.495766E+05 -1.228299E+06 -1.365089E+05 -2.869793E+05
        75   9  1.689019E+06  4.050744E+06  1.685627E+06 -1.589468E+06 -4.278186E+04 -6.069040E+05
        75  10 -4.109939E+05 -2.495879E+06 -2.116271E+05 -1.293081E+06  2.990735E-09  3.421252E-09
        75  11 -6.923844E+05 -3.957882E+06 -4.180452E+05 -9.276255E+05  7.826138E-09 -3.013651E-09
        75  12 -6.609399E+05 -5.352071E+06 -5.761190E+05 -9.327403E+05  5.631665E-10 -7.452242E-09
        75  13  2.863688E+04 -6.581824E+05  1.508053E+05 -1.265347E+06  3.247349E-09  5.726944E-09
        75  14  9.991806E+04 -7.079417E+05  2.659634E+05 -1.077596E+06 -9.212105E-09 -1.019970E-08
        75  15  5.146148E+05 -6.610873E+05  5.551730E+05 -1.259902E+06  1.617562E-09  3.192975E-09
        75  16  4.680675E+05  1.182762E+06  5.130736E+05 -1.237515E+06 -3.543417E-10 -2.834520E-09
        75  17  8.916095E+05  2.552059E+06  9.493871E+05 -1.228331E+06  3.560726E-09  3.689281E-09
        75  18  1.688919E+06  4.050350E+06  1.684936E+06 -1.589489E+06  2.183106E-09  2.485209E-09
        75  19 -4.109659E+05 -2.495809E+06 -2.114889E+05 -1.293061E+06  1.009329E+05  2.508830E+05
        75  20 -6.923524E+05 -3.957830E+06 -4.179278E+05 -9.276024E+05  1.376512E+05  2.077477E+05
        75  21 -6.609302E+05 -5.352041E+06 -5.760639E+05 -9.327339E+05  4.817395E+04  1.635211E+05
        75  22  2.865143E+04 -6.581667E+05  1.508475E+05 -1.265338E+06  1.027189E+05  1.089803E+05
        75  23  9.995475E+04 -7.078709E+05  2.661140E+05 -1.077568E+06  1.370887E+05  2.472625E+05
        75  24  5.146568E+05 -6.609280E+05  5.554550E+05 -1.259888E+06  4.558916E+04  3.843799E+05
        75  25  4.680795E+05  1.182766E+06  5.130962E+05 -1.237518E+06  1.044891E+05 -3.333529E+04
        75  26  8.916517E+05  2.552153E+06  9.495766E+05 -1.228299E+06  1.365089E+05  2.869793E+05
        75  27  1.689019E+06  4.050744E+06  1.685627E+06 -1.589468E+06  4.278186E+04  6.069040E+05
        76   1 -5.352958E+06 -2.122935E+06 -1.245760E+06 -1.805028E+06 -2.896111E+05 -1.705312E+04
        76   2 -5.003062E+06 -2.034139E+06 -1.030267E+06 -1.670197E+06 -1.984613E+05  2.325527E+05
        76   3 -4.581044E+06 -1.966617E+06 -9.216417E+05 -1.633648E+06 -5.087792E+04  3.356913E+05
        76   4 -8.075886E+03 -1.544996E+05  1.423303E+05 -3.882979E+05  5.957244E+04  1.166712E+05
        76   5 -7.116250E+04 -2.191173E+05  6.378353E+04 -3.176263E+05 -4.517987E+04  2.908421E+05
        76   6 -2.323958E+04 -2.661837E+05  3.472092E+04 -3.452024E+05 -9.384577E+04  3.191131E+05
        76   7  5.364812E+06  1.815455E+06  1.528532E+06  1.039388E+06  4.120789E+05  2.515736E+05
        76   8  4.885460E+06  1.597749E+06  1.156419E+06  1.044814E+06  1.094289E+05  3.496227E+05
        76   9  4.556012E+06  1.436178E+06  9.899770E+05  9.520818E+05 -1.371585E+05  3.024028E+05
        76  10 -5.353049E+06 -2.122958E+06 -1.245919E+06 -1.805032E+06 -6.236475E-09  4.088167E-10
        76  11 -5.003118E+06 -2.034207E+06 -1.030443E+06 -1.670160E+06 -2.588716E-09  3.759844E-09
        76  12 -4.581077E+06 -1.966739E+06 -9.218584E+05 -1.633634E+06  3.470370E-09  1.220753E-09
        76  13 -8.083358E+03 -1.545152E+05  1.422980E+05 -3.883035E+05  1.612806E-09  1.194344E-09
        76  14 -7.118739E+04 -2.192087E+05  6.362072E+04 -3.176157E+05 -2.565202E-09 -1.030437E-08
        76  15 -2.327636E+04 -2.662954E+05  3.451301E+04 -3.451783E+05  9.132909E-10 -2.410782E-10
        76  16  5.364614E+06  1.815343E+06  1.528097E+06  1.039305E+06  4.277132E-09 -2.601076E-10
        76  17  4.885415E+06  1.597615E+06  1.156167E+06  1.044783E+06  5.165628E-09  5.277670E-09
        76  18  4.555967E+06  1.436075E+06  9.897698E+05  9.521151E+05 -1.179478E-08 -2.899305E-09
        76  19 -5.352958E+06 -2.122935E+06 -1.245760E+06 -1.805028E+06  2.896111E+05  1.705312E+04
        76  20 -5.003062E+06 -2.034139E+06 -1.030267E+06 -1.670197E+06  1.984613E+05 -2.325527E+05
        76  21 -4.581044E+06 -1.966617E+06 -9.216417E+05 -1.633648E+06  5.087792E+04 -3.356913E+05
        76  22 -8.075886E+03 -1.544996E+05  1.423303E+05 -3.882979E+05 -5.957244E+04 -1.166712E+05
        76  23 -7.116250E+04 -2.191173E+05  6.378353E+04 -3.176263E+05  4.517987E+04 -2.908421E+05
        76  24 -2.323958E+04 -2.661837E+05  3.472092E+04 -3.452024E+05  9.384577E+04 -3.191131E+05
        76  25  5.364812E+06  1.815455E+06  1.528532E+06  1.039388E+06 -4.120789E+05 -2.515736E+05
        76  26  4.885460E+06  1.597749E+06  1.156419E+06  1.044814E+06 -1.094289E+05 -3.496227E+05
        76  27  4.556012E+06  1.436178E+06  9.899770E+05  9.520818E+05  1.371585E+05 -3.024028E+05
        77   1 -4.338223E+06 -1.856141E+06 -8.762606E+05 -1.554940E+06 -7.888594E+04  3.045858E+05
        77   2 -4.013710E+06 -1.683069E+06 -8.013974E+05 -1.409127E+06 -6.790495E+04  2.928607E+05
        77   3 -3.610674E+06 -1.583254E+06 -7.294060E+05 -1.348414E+06 -5.350013E+04  2.718519E+05
        77   4 -2.601757E+04 -2.622443E+05  2.652705E+04 -3.510594E+05 -9.111231E+04  2.997297E+05
        77   5 -6.607085E+04 -2.277379E+05  1.363526E+04 -3.079542E+05 -9.258499E+04  2.833321E+05
        77   6 -2.529096E+04 -2.639950E+05  7.756813E+03 -3.499647E+05 -9.064934E+04  2.576817E+05
        77   7  4.305315E+06  1.333266E+06  9.283087E+05  8.605838E+05 -1.034323E+05  2.948394E+05
        77   8  3.897619E+06  1.228949E+06  8.278517E+05  7.997170E+05 -1.174360E+05  2.737397E+05
        77   9  3.573319E+06  1.056374E+06  7.442527E+05  6.538314E+05 -1.280311E+05  2.434242E+05
        77  10 -4.338255E+06 -1.856243E+06 -8.764466E+05 -1.554921E+06  1.047986E-09  1.189856E-09
        77  11 -4.013738E+06 -1.683163E+06 -8.015673E+05 -1.409111E+06 -3.120848E-09  1.840009E-09
        77  12 -3.610697E+06 -1.583334E+06 -7.295503E+05 -1.348402E+06 -3.044437E-09  2.986007E-09
        77  13 -2.605059E+04 -2.623430E+05  2.634264E+04 -3.510374E+05  1.439378E-10 -8.834752E-10
        77  14 -6.610159E+04 -2.278264E+05  1.346830E+04 -3.079331E+05 -5.681745E-11 -2.927176E-09
        77  15 -2.531760E+04 -2.640685E+05  7.616607E+03 -3.499459E+05  1.016601E-08  6.276274E-09
        77  16  4.305280E+06  1.333169E+06  9.281252E+05  8.606083E+05 -1.077344E-09 -2.276851E-09
        77  17  3.897584E+06  1.228865E+06  8.276849E+05  7.997429E+05  4.897180E-09 -6.435643E-10
        77  18  3.573286E+06  1.056305E+06  7.441106E+05  6.538565E+05  1.721005E-08  8.058251E-09
        77  19 -4.338223E+06 -1.856141E+06 -8.762606E+05 -1.554940E+06  7.888594E+04 -3.045858E+05
        77  20 -4.013710E+06 -1.683069E+06 -8.013974E+05 -1.409127E+06  6.790495E+04 -2.928607E+05
        77  21 -3.610674E+06 -1.583254E+06 -7.294060E+05 -1.348414E+06  5.350013E+04 -2.718519E+05
        77  22 -2.601757E+04 -2.622443E+05  2.652705E+04 -3.510594E+05  9.111231E+04 -2.997297E+05
        77  23 -6.607085E+04 -2.277379E+05  1.363526E+04 -3.079542E+05  9.258499E+04 -2.833321E+05
        77  24 -2.529096E+04 -2.639950E+05  7.756813E+03 -3.499647E+05  9.064934E+04 -2.576817E+05
        77  25  4.305315E+06  1.333266E+06  9.283087E+05  8.605838E+05  1.034323E+05 -2.948394E+05
        77  26  3.897619E+06  1.228949E+06  8.278517E+05  7.997170E+05  1.174360E+05 -2.737397E+05
        77  27  3.573319E+06  1.056374E+06  7.442527E+05  6.538314E+05  1.280311E+05 -2.434242E+05
        78   1 -3.359364E+06 -1.488147E+06 -6.773937E+05 -1.277379E+06 -5.037462E+04  2.546294E+05
        78   2 -3.032949E+06 -1.313966E+06 -6.053296E+05 -1.131684E+06 -4.091638E+04  2.277863E+05
        78   3 -2.628859E+06 -1.214957E+06 -5.322593E+05 -1.071753E+06 -3.131329E+04  2.003152E+05
        78   4 -2.543626E+04 -2.635362E+05  5.749374E+03 -3.504877E+05 -8.562910E+04  2.412145E+05
        78   5 -6.375784E+04 -2.250437E+05  2.945076E+03 -3.077994E+05 -7.701101E+04  2.141129E+05
        78   6 -2.441177E+04 -2.615514E+05  1.789773E+03 -3.509071E+05 -6.824835E+04  1.863854E+05
        78   7  3.319982E+06  9.620497E+05  6.883353E+05  5.810312E+05 -1.210891E+05  2.277226E+05
        78   8  2.914533E+06  8.646420E+05  6.107768E+05  5.197419E+05 -1.132926E+05  2.003695E+05
        78   9  2.587023E+06  6.924317E+05  5.354960E+05  3.727403E+05 -1.053509E+05  1.723931E+05
        78  10 -3.359384E+06 -1.488218E+06 -6.775204E+05 -1.277369E+06  5.612444E-09  2.112264E-09
        78  11 -3.032964E+06 -1.314022E+06 -6.054303E+05 -1.131676E+06  1.056966E-08  1.167484E-09
        78  12 -2.628871E+06 -1.215000E+06 -5.323365E+05 -1.071748E+06  2.027766E-08  4.595358E-09
        78  13 -2.545974E+04 -2.636006E+05  5.626268E+03 -3.504711E+05  1.303384E-08  1.740767E-09
        78  14 -6.377651E+04 -2.250945E+05  2.847792E+03 -3.077861E+05  1.089881E-08 -3.981181E-09
        78  15 -2.442609E+04 -2.615900E+05  1.715747E+03 -3.508968E+05  1.657931E-09 -6.019461E-09
        78  16  3.319953E+06  9.619901E+05  6.882104E+05  5.810533E+05  1.146996E-08  6.952672E-09
        78  17  2.914509E+06  8.645954E+05  6.106772E+05  5.197602E+05  1.573746E-09  3.229479E-09
        78  18  2.587003E+06  6.923968E+05  5.354194E+05  3.727549E+05 -1.322662E-08  9.047380E-10
        78  19 -3.359364E+06 -1.488147E+06 -6.773937E+05 -1.277379E+06  5.037462E+04 -2.546294E+05
        78  20 -3.032949E+06 -1.313966E+06 -6.053296E+05 -1.131684E+06  4.091638E+04 -2.277863E+05
        78  21 -2.628859E+06 -1.214957E+06 -5.322593E+05 -1.071753E+06  3.131329E+04 -2.003152E+05
        78  22 -2.543626E+04 -2.635362E+05  5.749374E+03 -3.504877E+05  8.562910E+04 -2.412145E+05
        78  23 -6.375784E+04 -2.250437E+05  2.945076E+03 -3.077994E+05  7.701101E+04 -2.141129E+05
        78  24 -2.441177E+04 -2.615514E+05  1.789773E+03 -3.509071E+05  6.824835E+04 -1.863854E+05
        78  25  3.319982E+06  9.620497E+05  6.883353E+05  5.810312E+05  1.210891E+05 -2.277226E+05
        78  26  2.914533E+06  8.646420E+05  6.107768E+05  5.197419E+05  1.132926E+05 -2.003695E+05
        78  27  2.587023E+06  6.924317E+05  5.354960E+05  3.727403E+05  1.053509E+05 -1.723931E+05
        79   1 -2.375933E+06 -1.121128E+06 -4.786573E+05 -1.001525E+06 -2.563729E+04  1.841663E+05
        79   2 -2.047153E+06 -9.480742E+05 -4.051910E+05 -8.563135E+05 -1.553499E+04  1.566256E+05
        79   3 -1.641851E+06 -8.503506E+05 -3.313253E+05 -7.975305E+05 -5.469518E+03  1.290178E+05
        79   4 -2.437931E+04 -2.612903E+05  1.285101E+03 -3.510618E+05 -6.248542E+04  1.702989E+05
        79   5 -6.222961E+04 -2.229282E+05  6.107986E+02 -3.079863E+05 -5.247168E+04  1.427646E+05
        79   6 -2.369652E+04 -2.598793E+05  3.926680E+02 -3.513783E+05 -4.249473E+04  1.151636E+05
        79   7  2.332855E+06  5.990111E+05  4.809473E+05  3.016783E+05 -9.948396E+04  1.563753E+05
        79   8  1.926751E+06  5.025514E+05  4.062173E+05  2.419635E+05 -8.953577E+04  1.288561E+05
        79   9  1.597165E+06  3.308164E+05  3.319853E+05  9.585266E+04 -7.962424E+04  1.012705E+05
        79  10 -2.375943E+06 -1.121164E+06 -4.787223E+05 -1.001521E+06 -9.706984E-09 -4.331556E-09
        79  11 -2.047160E+06 -9.481007E+05 -4.052376E+05 -8.563116E+05 -1.455301E-08 -2.823298E-09
        79  12 -1.641856E+06 -8.503685E+05 -3.313566E+05 -7.975299E+05  1.301042E-09  2.496797E-09
        79  13 -2.439128E+04 -2.613225E+05  1.223272E+03 -3.510533E+05 -3.242941E-09 -6.683228E-09
        79  14 -6.223804E+04 -2.229508E+05  5.673288E+02 -3.079803E+05 -1.008869E-08 -6.002295E-09
        79  15 -2.370202E+04 -2.598940E+05  3.643550E+02 -3.513744E+05 -2.739276E-09 -5.464811E-10
        79  16  2.332838E+06  5.989822E+05  4.808828E+05  3.016908E+05  2.669675E-09  7.404137E-09
        79  17  1.926738E+06  5.025314E+05  4.061711E+05  2.419728E+05 -1.092806E-08 -1.623016E-09
        79  18  1.597156E+06  3.308037E+05  3.319541E+05  9.585915E+04 -8.863800E-09 -4.398657E-09
        79  19 -2.375933E+06 -1.121128E+06 -4.786573E+05 -1.001525E+06  2.563729E+04 -1.841663E+05
        79  20 -2.047153E+06 -9.480742E+05 -4.051910E+05 -8.563135E+05  1.553499E+04 -1.566256E+05
        79  21 -1.641851E+06 -8.503506E+05 -3.313253E+05 -7.975305E+05  5.469518E+03 -1.290178E+05
        79  22 -2.437931E+04 -2.612903E+05  1.285101E+03 -3.510618E+05  6.248542E+04 -1.702989E+05
        79  23 -6.222961E+04 -2.229282E+05  6.107986E+02 -3.079863E+05  5.247168E+04 -1.427646E+05
        79  24 -2.369652E+04 -2.598793E+05  3.926680E+02 -3.513783E+05  4.249473E+04 -1.151636E+05
        79  25  2.332855E+06  5.990111E+05  4.809473E+05  3.016783E+05  9.948396E+04 -1.563753E+05
        79  26  1.926751E+06  5.025514E+05  4.062173E+05  2.419635E+05  8.953577E+04 -1.288561E+05
        79  27  1.597165E+06  3.308164E+05  3.319853E+05  9.585266E+04  7.962424E+04 -1.012705E+05
        80   1 -1.387904E+06 -7.570008E+05 -2.773312E+05 -7.276182E+05  4.823028E+02  1.129714E+05
        80   2 -1.057621E+06 -5.847662E+05 -2.034253E+05 -5.826311E+05  1.077607E+04  8.544306E+04
        80   3 -6.515154E+05 -4.879254E+05 -1.294632E+05 -5.244595E+05  2.103922E+04  5.791265E+04
        80   4 -2.366432E+04 -2.597232E+05  2.307749E+02 -3.514592E+05 -3.656295E+04  9.912760E+04
        80   5 -6.132767E+04 -2.216697E+05  8.468916E-01 -3.081071E+05 -2.627592E+04  7.161648E+04
        80   6 -2.331739E+04 -2.590145E+05 -1.748699E+02 -3.516160E+05 -1.601963E+04  4.410370E+04
        80   7  1.342493E+06  2.377115E+05  2.777046E+05  2.546464E+04 -7.369583E+04  8.525105E+04
        80   8  9.359845E+05  1.415090E+05  2.033812E+05 -3.317661E+04 -6.339173E+04  5.776608E+04
        80   9  6.052833E+05 -3.007200E+04  1.290974E+05 -1.786118E+05 -5.311853E+04  3.027981E+04
        80  10 -1.387907E+06 -7.570145E+05 -2.773552E+05 -7.276183E+05  8.806090E-09  5.486693E-09
        80  11 -1.057623E+06 -5.847740E+05 -2.034393E+05 -5.826319E+05 -4.825022E-09 -1.441458E-09
        80  12 -6.515168E+05 -4.879291E+05 -1.294703E+05 -5.244605E+05 -1.625861E-08 -9.826750E-09
        80  13 -2.366839E+04 -2.597342E+05  2.097999E+02 -3.514563E+05  9.546806E-10  1.470701E-09
        80  14 -6.132978E+04 -2.216754E+05 -1.008742E+01 -3.081056E+05  2.872808E-09  3.715663E-09
        80  15 -2.331819E+04 -2.590167E+05 -1.790069E+02 -3.516154E+05  1.975673E-09  5.435334E-09
        80  16  1.342485E+06  2.377023E+05  2.776808E+05  2.546969E+04 -1.101412E-08 -4.470028E-09
        80  17  9.359793E+05  1.415044E+05  2.033674E+05 -3.317366E+04  6.951713E-09  3.303277E-10
        80  18  6.052800E+05 -3.007374E+04  1.290904E+05 -1.786105E+05  1.006748E-08  1.286243E-09
        80  19 -1.387904E+06 -7.570008E+05 -2.773312E+05 -7.276182E+05 -4.823028E+02 -1.129714E+05
        80  20 -1.057621E+06 -5.847662E+05 -2.034253E+05 -5.826311E+05 -1.077607E+04 -8.544306E+04
        80  21 -6.515154E+05 -4.879254E+05 -1.294632E+05 -5.244595E+05 -2.103922E+04 -5.791265E+04
        80  22 -2.366432E+04 -2.597232E+05  2.307749E+02 -3.514592E+05  3.656295E+04 -9.912760E+04
        80  23 -6.132767E+04 -2.216697E+05  8.468916E-01 -3.081071E+05  2.627592E+04 -7.161648E+04
        80  24 -2.331739E+04 -2.590145E+05 -1.748699E+02 -3.516160E+05  1.601963E+04 -4.410370E+04
        80  25  1.342493E+06  2.377115E+05  2.777046E+05  2.546464E+04  7.369583E+04 -8.525105E+04
        80  26  9.359845E+05  1.415090E+05  2.033812E+05 -3.317661E+04  6.339173E+04 -5.776608E+04
        80  27  6.052833E+05 -3.007200E+04  1.290974E+05 -1.786118E+05  5.311853E+04 -3.027981E+04
        81   1 -3.969348E+05 -3.948346E+05 -7.543513E+04 -4.546249E+05  2.711888E+04  4.191186E+04
        81   2 -6.599723E+04 -2.230761E+05 -1.600692E+03 -3.095863E+05  3.736164E+04  1.449983E+04
        81   3  3.405272E+05 -1.266976E+05  7.222141E+04 -2.514802E+05  4.750575E+04 -1.264916E+04
        81   4 -2.332364E+04 -2.589606E+05 -3.247678E+02 -3.516480E+05 -1.000846E+04  2.808342E+04
        81   5 -6.100742E+04 -2.212353E+05 -7.292605E+02 -3.081493E+05  5.774438E+02  7.990093E+02
        81   6 -2.332267E+04 -2.589751E+05 -1.423177E+03 -3.516414E+05  1.106456E+04 -2.622197E+04
        81   7  3.504374E+05 -1.230725E+05  7.478551E+04 -2.486122E+05 -4.716009E+04  1.424591E+04
        81   8 -5.601455E+04 -2.193933E+05  1.479694E+02 -3.067114E+05 -3.620722E+04 -1.290199E+04
        81   9 -3.870337E+05 -3.912405E+05 -7.506871E+04 -4.517477E+05 -2.535373E+04 -3.978624E+04
        81  10 -3.969361E+05 -3.948367E+05 -7.543982E+04 -4.546258E+05 -1.022325E-08 -9.954877E-09
        81  11 -6.599879E+04 -2.230767E+05 -1.603711E+03 -3.095867E+05 -4.324536E-09 -6.125771E-09
        81  12  3.405248E+05 -1.266984E+05  7.221687E+04 -2.514798E+05  6.580337E-09  1.170913E-09
        81  13 -2.332396E+04 -2.589615E+05 -3.264379E+02 -3.516478E+05 -2.095522E-10  2.692560E-09
        81  14 -6.100742E+04 -2.212353E+05 -7.292623E+02 -3.081493E+05 -6.284970E-09  1.399117E-09
        81  15 -2.332299E+04 -2.589759E+05 -1.424699E+03 -3.516412E+05 -1.538643E-09 -2.243076E-09
        81  16  3.504350E+05 -1.230733E+05  7.478095E+04 -2.486117E+05  3.445111E-09 -2.325870E-09
        81  17 -5.601600E+04 -2.193938E+05  1.451919E+02 -3.067118E+05 -1.909121E-09 -6.970320E-09
        81  18 -3.870348E+05 -3.912424E+05 -7.507289E+04 -4.517485E+05 -1.253708E-08 -2.584437E-09
        81  19 -3.969348E+05 -3.948346E+05 -7.543513E+04 -4.546249E+05 -2.711888E+04 -4.191186E+04
        81  20 -6.599723E+04 -2.230761E+05 -1.600692E+03 -3.095863E+05 -3.736164E+04 -1.449983E+04
        81  21  3.405272E+05 -1.266976E+05  7.222141E+04 -2.514802E+05 -4.750575E+04  1.264916E+04
        81  22 -2.332364E+04 -2.589606E+05 -3.247678E+02 -3.516480E+05  1.000846E+04 -2.808342E+04
        81  23 -6.100742E+04 -2.212353E+05 -7.292605E+02 -3.081493E+05 -5.774438E+02 -7.990093E+02
        81  24 -2.332267E+04 -2.589751E+05 -1.423177E+03 -3.516414E+05 -1.106456E+04  2.622197E+04
        81  25  3.504374E+05 -1.230725E+05  7.478551E+04 -2.486122E+05  4.716009E+04 -1.424591E+04
        81  26 -5.601455E+04 -2.193933E+05  1.479694E+02 -3.067114E+05  3.620722E+04  1.290199E+04
        81  27 -3.870337E+05 -3.912405E+05 -7.506871E+04 -4.517477E+05  2.535373E+04  3.978624E+04
        82   1  5.954904E+05 -3.366437E+04  1.258847E+05 -1.815728E+05  5.465302E+04 -2.830010E+04
        82   2  9.258889E+05  1.381198E+05  2.000961E+05 -3.614234E+04  6.035979E+04 -5.529111E+04
        82   3  1.332424E+06  2.349004E+05  2.772231E+05  2.284861E+04  6.452167E+04 -7.808253E+04
        82   4 -2.345948E+04 -2.589412E+05 -1.913441E+03 -3.516259E+05  1.732030E+04 -4.221076E+04
        82   5 -6.114616E+04 -2.217543E+05 -3.611091E+03 -3.080968E+05  2.867992E+04 -6.711373E+04
        82   6 -2.394626E+04 -2.607090E+05 -6.863207E+03 -3.510713E+05  3.849561E+04 -8.781233E+04
        82   7 -6.420095E+05 -4.841839E+05 -1.297244E+05 -5.215209E+05 -1.997216E+04 -5.610645E+04
        82   8 -1.047182E+06 -5.815473E+05 -2.073651E+05 -5.796528E+05 -2.945863E+03 -7.891616E+04
        82   9 -1.378450E+06 -7.561721E+05 -2.910496E+05 -7.242428E+05  1.253046E+04 -9.751936E+04
        82  10  5.954870E+05 -3.366603E+04  1.258776E+05 -1.815716E+05  6.939873E-10  5.738647E-10
        82  11  9.258842E+05  1.381155E+05  2.000835E+05 -3.613965E+04 -9.917387E-10  2.155735E-09
        82  12  1.332418E+06  2.348928E+05  2.772038E+05  2.285267E+04  8.344113E-09 -3.037735E-09
        82  13 -2.346028E+04 -2.589432E+05 -1.917353E+03 -3.516253E+05 -2.391698E-09 -3.113923E-10
        82  14 -6.114826E+04 -2.217593E+05 -3.621099E+03 -3.080953E+05  1.629194E-09  5.823098E-10
        82  15 -2.394992E+04 -2.607177E+05 -6.880478E+03 -3.510686E+05  2.137616E-09 -2.090696E-09
        82  16 -6.420108E+05 -4.841874E+05 -1.297311E+05 -5.215218E+05 -3.820303E-09  1.970946E-09
        82  17 -1.047184E+06 -5.815540E+05 -2.073768E+05 -5.796530E+05 -6.227205E-09 -1.243812E-09
        82  18 -1.378453E+06 -7.561823E+05 -2.910678E+05 -7.242418E+05 -4.998738E-09 -1.525072E-09
        82  19  5.954904E+05 -3.366437E+04  1.258847E+05 -1.815728E+05 -5.465302E+04  2.830010E+04
        82  20  9.258889E+05  1.381198E+05  2.000961E+05 -3.614234E+04 -6.035979E+04  5.529111E+04
        82  21  1.332424E+06  2.349004E+05  2.772231E+05  2.284861E+04 -6.452167E+04  7.808253E+04
        82  22 -2.345948E+04 -2.589412E+05 -1.913441E+03 -3.516259E+05 -1.732030E+04  4.221076E+04
        82  23 -6.114616E+04 -2.217543E+05 -3.611091E+03 -3.080968E+05 -2.867992E+04  6.711373E+04
        82  24 -2.394626E+04 -2.607090E+05 -6.863207E+03 -3.510713E+05 -3.849561E+04  8.781233E+04
        82  25 -6.420095E+05 -4.841839E+05 -1.297244E+05 -5.215209E+05  1.997216E+04  5.610645E+04
        82  26 -1.047182E+06 -5.815473E+05 -2.073651E+05 -5.796528E+05  2.945863E+03  7.891616E+04
        82  27 -1.378450E+06 -7.561721E+05 -2.910496E+05 -7.242428E+05 -1.253046E+04  9.751936E+04
        83   1  1.590437E+06  3.282992E+05  3.291371E+05  9.103005E+04  8.596856E+04 -8.932377E+04
        83   2  1.910479E+06  5.045916E+05  4.242491E+05  2.419520E+05  3.733504E+03 -1.159953E+05
        83   3  2.312708E+06  6.055539E+05  5.782602E+05  3.150695E+05 -1.034789E+05 -7.625023E+04
        83   4 -2.569648E+04 -2.590602E+05 -8.925521E+03 -3.512530E+05  4.582904E+04 -1.043370E+05
        83   5 -6.014711E+04 -2.271182E+05 -1.683189E+04 -3.069556E+05  5.344848E+04 -9.743790E+04
        83   6 -3.029497E+04 -2.883182E+05 -3.689462E+04 -3.405310E+05  3.610591E+04 -2.399289E+04
        83   7 -1.639172E+06 -8.462159E+05 -3.471252E+05 -7.924822E+05  5.801624E+03 -1.193088E+05
        83   8 -2.026838E+06 -9.585022E+05 -4.581414E+05 -8.542561E+05  1.029925E+05 -7.894593E+04
        83   9 -2.367880E+06 -1.181759E+06 -6.524149E+05 -9.938542E+05  1.751106E+05  2.803761E+04
        83  10  1.590427E+06  3.282887E+05  3.291083E+05  9.103623E+04  5.099110E-09 -6.010873E-09
        83  11  1.910476E+06  5.045772E+05  4.242238E+05  2.419524E+05  6.715794E-09 -1.634669E-09
        83  12  2.312695E+06  6.055448E+05  5.782292E+05  3.150632E+05 -3.373622E-09 -3.367801E-10
        83  13 -2.570165E+04 -2.590725E+05 -8.949920E+03 -3.512491E+05  5.962224E-10 -1.399690E-09
        83  14 -6.015272E+04 -2.271292E+05 -1.685510E+04 -3.069515E+05 -5.021081E-10 -7.344340E-10
        83  15 -3.029653E+04 -2.883192E+05 -3.689815E+04 -3.405303E+05 -4.565570E-10 -2.969550E-10
        83  16 -1.639176E+06 -8.462312E+05 -3.471520E+05 -7.924816E+05 -8.363317E-10  5.390035E-10
        83  17 -2.026851E+06 -9.585117E+05 -4.581730E+05 -8.542495E+05 -4.535581E-10 -8.390438E-10
        83  18 -2.367913E+06 -1.181768E+06 -6.524743E+05 -9.938582E+05  5.072520E-10 -7.240257E-10
        83  19  1.590437E+06  3.282992E+05  3.291371E+05  9.103005E+04 -8.596856E+04  8.932377E+04
        83  20  1.910479E+06  5.045916E+05  4.242491E+05  2.419520E+05 -3.733504E+03  1.159953E+05
        83  21  2.312708E+06  6.055539E+05  5.782602E+05  3.150695E+05  1.034789E+05  7.625023E+04
        83  22 -2.569648E+04 -2.590602E+05 -8.925521E+03 -3.512530E+05 -4.582904E+04  1.043370E+05
        83  23 -6.014711E+04 -2.271182E+05 -1.683189E+04 -3.069556E+05 -5.344848E+04  9.743790E+04
        83  24 -3.029497E+04 -2.883182E+05 -3.689462E+04 -3.405310E+05 -3.610591E+04  2.399289E+04
        83  25 -1.639172E+06 -8.462159E+05 -3.471252E+05 -7.924822E+05 -5.801624E+03  1.193088E+05
        83  26 -2.026838E+06 -9.585022E+05 -4.581414E+05 -8.542561E+05 -1.029925E+05  7.894593E+04
        83  27 -2.367880E+06 -1.181759E+06 -6.524149E+05 -9.938542E+05 -1.751106E+05 -2.803761E+04
        84   1 -1.802866E+05 -9.332994E+04 -8.279234E+04 -6.626735E+04 -1.855559E+04  6.483600E+03
        84   2 -1.123935E+05 -9.750906E+04 -6.325757E+04 -7.457421E+04 -3.178772E+03  2.160154E+04
        84   3 -4.342766E+04 -8.948879E+04 -5.068418E+04 -9.295863E+04  1.220431E+04  2.559515E+04
        84   4  3.674082E+05  4.153862E+04  4.397821E+04 -9.454243E+04  3.107449E+04  6.492092E+03
        84   5  3.645734E+05  1.496133E+04  2.221379E+04 -8.950251E+04  1.975726E+04  2.160257E+04
        84   6  3.674363E+05  5.210920E+03  1.202152E+04 -9.453874E+04  8.444366E+03  2.559333E+04
        84   7  9.153871E+05  1.763904E+05  1.707384E+05 -1.228426E+05  8.074802E+04  6.496062E+03
        84   8  8.417637E+05  1.274202E+05  1.076785E+05 -1.044426E+05  4.271040E+04  2.160251E+04
        84   9  7.784693E+05  9.990253E+04  7.472365E+04 -9.611993E+04  4.682032E+03  2.559154E+04
        84  10 -1.802869E+05 -9.333008E+04 -8.279306E+04 -6.626725E+04  1.709923E-09  1.824462E-10
        84  11 -1.123936E+05 -9.750956E+04 -6.325846E+04 -7.457415E+04 -1.073989E-09  5.462835E-10
        84  12 -4.342800E+04 -8.948953E+04 -5.068569E+04 -9.295888E+04 -2.108686E-09  5.781393E-10
        84  13  3.674072E+05  4.153831E+04  4.397631E+04 -9.454259E+04 -2.031570E-09  1.165954E-10
        84  14  3.645729E+05  1.496073E+04  2.221218E+04 -8.950285E+04  2.317763E-09  1.756889E-10
        84  15  3.674360E+05  5.210197E+03  1.202015E+04 -9.453892E+04  1.209716E-09  9.223643E-10
        84  16  9.153801E+05  1.763886E+05  1.707261E+05 -1.228431E+05  8.404363E-10 -7.893008E-11
        84  17  8.417617E+05  1.274192E+05  1.076742E+05 -1.044433E+05  5.749796E-10 -1.009453E-10
        84  18  7.784691E+05  9.990182E+04  7.472238E+04 -9.612003E+04  3.093201E-09  1.660248E-09
        84  19 -1.802866E+05 -9.332994E+04 -8.279234E+04 -6.626735E+04  1.855559E+04 -6.483600E+03
        84  20 -1.123935E+05 -9.750906E+04 -6.325757E+04 -7.457421E+04  3.178772E+03 -2.160154E+04
        84  21 -4.342766E+04 -8.948879E+04 -5.068418E+04 -9.295863E+04 -1.220431E+04 -2.559515E+04
        84  22  3.674082E+05  4.153862E+04  4.397821E+04 -9.454243E+04 -3.107449E+04 -6.492092E+03
        84  23  3.645734E+05  1.496133E+04  2.221379E+04 -8.950251E+04 -1.975726E+04 -2.160257E+04
        84  24  3.674363E+05  5.210920E+03  1.202152E+04 -9.453874E+04 -8.444366E+03 -2.559333E+04
        84  25  9.153871E+05  1.763904E+05  1.707384E+05 -1.228426E+05 -8.074802E+04 -6.496062E+03
        84  26  8.417637E+05  1.274202E+05  1.076785E+05 -1.044426E+05 -4.271040E+04 -2.160251E+04
        84  27  7.784693E+05  9.990253E+04  7.472365E+04 -9.611993E+04 -4.682032E+03 -2.559154E+04
        85   1 -1.591603E+03 -8.062926E+04 -4.523860E+04 -9.249466E+04  1.152589E+04  2.416769E+04
        85   2  6.667219E+04 -6.686963E+04 -3.641151E+04 -8.818588E+04  1.271350E+04  2.147873E+04
        85   3  1.350642E+05 -5.203642E+04 -2.808646E+04 -9.477724E+04  1.390088E+04  1.728632E+04
        85   4  3.663426E+05  3.783565E+03  8.964176E+03 -9.472250E+04  6.879656E+03  2.416619E+04
        85   5  3.659753E+05  1.226036E+03  4.834737E+03 -8.927272E+04  4.457498E+03  2.147786E+04
        85   6  3.663574E+05  3.683436E+02  2.708734E+03 -9.472258E+04  2.035004E+03  1.728645E+04
        85   7  7.344131E+05  8.819011E+04  6.316462E+04 -9.695171E+04  2.230782E+03  2.416473E+04
        85   8  6.653694E+05  6.931781E+04  4.608023E+04 -9.036010E+04 -3.802301E+03  2.147701E+04
        85   9  5.977056E+05  5.277091E+04  3.350403E+04 -9.466790E+04 -9.835089E+03  1.728659E+04
        85  10 -1.591903E+03 -8.062992E+04 -4.523995E+04 -9.249488E+04  6.902760E-08  4.066563E-10
        85  11  6.667189E+04 -6.687017E+04 -3.641268E+04 -8.818610E+04  1.548939E-09 -8.400119E-10
        85  12  1.350639E+05 -5.203680E+04 -2.808739E+04 -9.477743E+04 -6.395660E-08 -2.844196E-09
        85  13  3.663424E+05  3.782925E+03  8.962989E+03 -9.472263E+04  1.540646E-10  1.720845E-09
        85  14  3.659751E+05  1.225535E+03  4.833833E+03 -8.927280E+04 -8.638981E-10  1.161681E-09
        85  15  3.663573E+05  3.680215E+02  2.708165E+03 -9.472261E+04 -4.415428E-09 -7.711306E-10
        85  16  7.344129E+05  8.818948E+04  6.316351E+04 -9.695176E+04 -6.683938E-08  2.802363E-09
        85  17  6.653693E+05  6.931731E+04  4.607934E+04 -9.036003E+04  3.350451E-09  3.035895E-09
        85  18  5.977054E+05  5.277056E+04  3.350329E+04 -9.466776E+04  6.096628E-08  1.317003E-09
        85  19 -1.591603E+03 -8.062926E+04 -4.523860E+04 -9.249466E+04 -1.152589E+04 -2.416769E+04
        85  20  6.667219E+04 -6.686963E+04 -3.641151E+04 -8.818588E+04 -1.271350E+04 -2.147873E+04
        85  21  1.350642E+05 -5.203642E+04 -2.808646E+04 -9.477724E+04 -1.390088E+04 -1.728632E+04
        85  22  3.663426E+05  3.783565E+03  8.964176E+03 -9.472250E+04 -6.879656E+03 -2.416619E+04
        85  23  3.659753E+05  1.226036E+03  4.834737E+03 -8.927272E+04 -4.457498E+03 -2.147786E+04
        85  24  3.663574E+05  3.683436E+02  2.708734E+03 -9.472258E+04 -2.035004E+03 -1.728645E+04
        85  25  7.344131E+05  8.819011E+04  6.316462E+04 -9.695171E+04 -2.230782E+03 -2.416473E+04
        85  26  6.653694E+05  6.931781E+04  4.608023E+04 -9.036010E+04  3.802301E+03 -2.147701E+04
        85  27  5.977056E+05  5.277091E+04  3.350403E+04 -9.466790E+04  9.835089E+03 -1.728659E+04
        86   1  1.771573E+05 -4.251068E+04 -2.280325E+04 -9.469122E+04  1.362189E+04  1.433967E+04
        86   2  2.454458E+05 -2.722978E+04 -1.457979E+04 -8.924455E+04  1.354173E+04  9.245595E+03
        86   3  3.137716E+05 -1.187165E+04 -6.283849E+03 -9.480674E+04  1.346126E+04  3.949146E+03
        86   4  3.662203E+05  2.590713E+02  2.040059E+03 -9.474686E+04  1.636535E+03  1.434021E+04
        86   5  3.661644E+05  4.967908E+01  1.140733E+03 -8.924252E+04  1.069824E+03  9.246586E+03
        86   6  3.662262E+05  2.280378E+00  6.514271E+02 -9.474690E+04  5.028217E+02  3.950598E+03
        86   7  5.553203E+05  4.302739E+04  2.688367E+04 -9.480252E+04 -1.035230E+04  1.434076E+04
        86   8  4.868982E+05  2.732861E+04  1.686175E+04 -8.924049E+04 -1.140439E+04  9.247577E+03
        86   9  4.186840E+05  1.187618E+04  7.587314E+03 -9.468705E+04 -1.245666E+04  3.952047E+03
        86  10  1.771570E+05 -4.251095E+04 -2.280399E+04 -9.469137E+04 -5.532632E-09 -2.027997E-09
        86  11  2.454456E+05 -2.722992E+04 -1.458029E+04 -8.924465E+04 -3.198051E-09  1.002385E-09
        86  12  3.137714E+05 -1.187171E+04 -6.284219E+03 -9.480678E+04  1.030835E-09  6.110828E-10
        86  13  3.662203E+05  2.588497E+02  2.039667E+03 -9.474688E+04 -2.315869E-09 -7.132667E-10
        86  14  3.661644E+05  4.958694E+01  1.140570E+03 -8.924253E+04  2.161785E-09  9.786619E-10
        86  15  3.662262E+05  2.263547E+00  6.513973E+02 -9.474690E+04  2.438064E-09  1.020015E-09
        86  16  5.553201E+05  4.302714E+04  2.688308E+04 -9.480240E+04  3.196719E-09  6.199672E-10
        86  17  4.868980E+05  2.732849E+04  1.686135E+04 -8.924040E+04  6.505159E-09  1.013436E-09
        86  18  4.186838E+05  1.187612E+04  7.586993E+03 -9.468701E+04  2.570295E-10  1.274308E-09
        86  19  1.771573E+05 -4.251068E+04 -2.280325E+04 -9.469122E+04 -1.362189E+04 -1.433967E+04
        86  20  2.454458E+05 -2.722978E+04 -1.457979E+04 -8.924455E+04 -1.354173E+04 -9.245595E+03
        86  21  3.137716E+05 -1.187165E+04 -6.283849E+03 -9.480674E+04 -1.346126E+04 -3.949146E+03
        86  22  3.662203E+05  2.590713E+02  2.040059E+03 -9.474686E+04 -1.636535E+03 -1.434021E+04
        86  23  3.661644E+05  4.967908E+01  1.140733E+03 -8.924252E+04 -1.069824E+03 -9.246586E+03
        86  24  3.662262E+05  2.280378E+00  6.514271E+02 -9.474690E+04 -5.028217E+02 -3.950598E+03
        86  25  5.553203E+05  4.302739E+04  2.688367E+04 -9.480252E+04  1.035230E+04 -1.434076E+04
        86  26  4.868982E+05  2.732861E+04  1.686175E+04 -8.924049E+04  1.140439E+04 -9.247577E+03
        86  27  4.186840E+05  1.187618E+04  7.587314E+03 -9.468705E+04  1.245666E+04 -3.952047E+03
        87   1  3.558907E+05 -2.327608E+03 -8.336676E+02 -9.479031E+04  1.337578E+04  7.984386E+02
        87   2  4.241918E+05  1.303922E+04  7.565210E+03 -8.927021E+04  1.328944E+04 -4.616065E+03
        87   3  4.925135E+05  2.840948E+04  1.602223E+04 -9.477338E+04  1.320326E+04 -1.005254E+04
        87   4  3.662058E+05  7.571925E-02  4.937318E+02 -9.475015E+04  4.012763E+02  7.999553E+02
        87   5  3.661925E+05 -1.187206E+01  2.821783E+02 -8.923848E+04  2.613719E+02 -4.614743E+03
        87   6  3.662031E+05 -1.129794E+01  1.651389E+02 -9.475015E+04  1.216317E+02 -1.005142E+04
        87   7  3.765214E+05  2.327845E+03  1.821763E+03 -9.470998E+04 -1.257343E+04  8.014703E+02
        87   8  3.081970E+05 -1.306300E+04 -7.000224E+03 -8.920676E+04 -1.276554E+04 -4.613422E+03
        87   9  2.399095E+05 -2.843263E+04 -1.569135E+04 -9.472694E+04 -1.295746E+04 -1.005031E+04
        87  10  3.558906E+05 -2.327656E+03 -8.340048E+02 -9.479032E+04 -4.123815E-10 -2.181387E-11
        87  11  4.241916E+05  1.303914E+04  7.564838E+03 -8.927016E+04  5.479027E-10  2.089049E-11
        87  12  4.925133E+05  2.840932E+04  1.602171E+04 -9.477327E+04 -3.621870E-09 -3.985047E-10
        87  13  3.662058E+05  7.498864E-02  4.937303E+02 -9.475015E+04 -2.531988E-11  6.972622E-10
        87  14  3.661925E+05 -1.189495E+01  2.821382E+02 -8.923848E+04 -6.002513E-11  8.031239E-10
        87  15  3.662031E+05 -1.140645E+01  1.649489E+02 -9.475015E+04  4.698954E-09  5.039198E-10
        87  16  3.765212E+05  2.327802E+03  1.821465E+03 -9.470997E+04  4.801211E-09  1.382864E-09
        87  17  3.081968E+05 -1.306307E+04 -7.000570E+03 -8.920681E+04  2.501893E-09  1.545684E-09
        87  18  2.399093E+05 -2.843278E+04 -1.569185E+04 -9.472704E+04  3.836381E-09  1.488483E-09
        87  19  3.558907E+05 -2.327608E+03 -8.336676E+02 -9.479031E+04 -1.337578E+04 -7.984386E+02
        87  20  4.241918E+05  1.303922E+04  7.565210E+03 -8.927021E+04 -1.328944E+04  4.616065E+03
        87  21  4.925135E+05  2.840948E+04  1.602223E+04 -9.477338E+04 -1.320326E+04  1.005254E+04
        87  22  3.662058E+05  7.571927E-02  4.937318E+02 -9.475015E+04 -4.012763E+02 -7.999553E+02
        87  23  3.661925E+05 -1.187206E+01  2.821783E+02 -8.923848E+04 -2.613719E+02  4.614743E+03
        87  24  3.662031E+05 -1.129794E+01  1.651389E+02 -9.475015E+04 -1.216317E+02  1.005142E+04
        87  25  3.765214E+05  2.327845E+03  1.821763E+03 -9.470998E+04  1.257343E+04 -8.014703E+02
        87  26  3.081970E+05 -1.306300E+04 -7.000224E+03 -8.920676E+04  1.276554E+04  4.613422E+03
        87  27  2.399095E+05 -2.843263E+04 -1.569135E+04 -9.472694E+04  1.295746E+04  1.005031E+04
        88   1  5.346475E+05  3.794440E+04  2.155570E+04 -9.476916E+04  1.317660E+04 -1.322520E+04
        88   2  6.029648E+05  5.330919E+04  3.009519E+04 -8.924508E+04  1.304852E+04 -1.865319E+04
        88   3  6.713144E+05  6.868919E+04  3.872381E+04 -9.474549E+04  1.292109E+04 -2.404373E+04
        88   4  3.661981E+05 -1.328060E+01  1.276978E+02 -9.475047E+04  9.500992E+01 -1.322439E+04
        88   5  3.661866E+05 -2.283382E+01  7.837050E+01 -8.923810E+04  5.619760E+01 -1.865322E+04
        88   6  3.661870E+05 -3.260058E+01  5.577010E+01 -9.475047E+04  1.804311E+01 -2.404460E+04
        88   7  1.977782E+05 -3.797203E+04 -2.129976E+04 -9.473178E+04 -1.298321E+04 -1.322358E+04
        88   8  1.294663E+05 -5.335706E+04 -2.993801E+04 -8.923112E+04 -1.293142E+04 -1.865325E+04
        88   9  6.115541E+04 -6.875810E+04 -3.861197E+04 -9.475543E+04 -1.287898E+04 -2.404547E+04
        88  10  5.346472E+05  3.794416E+04  2.155504E+04 -9.476902E+04  8.642849E-10 -3.911925E-10
        88  11  6.029646E+05  5.330877E+04  3.009421E+04 -8.924488E+04  2.685509E-09  3.090701E-11
        88  12  6.713141E+05  6.868852E+04  3.872241E+04 -9.474524E+04 -3.546346E-09  7.365277E-11
        88  13  3.661981E+05 -1.346843E+01  1.273690E+02 -9.475046E+04  2.519896E-10  1.808092E-10
        88  14  3.661865E+05 -2.320751E+01  7.771653E+01 -8.923810E+04  2.859247E-10 -2.459296E-11
        88  15  3.661868E+05 -3.322151E+01  5.468347E+01 -9.475047E+04  2.233338E-09  2.971372E-10
        88  16  1.977780E+05 -3.797226E+04 -2.130041E+04 -9.473191E+04  3.354530E-09  8.209739E-10
        88  17  1.294660E+05 -5.335747E+04 -2.993897E+04 -8.923131E+04  3.768266E-09 -1.898880E-10
        88  18  6.115508E+04 -6.875876E+04 -3.861336E+04 -9.475568E+04  4.384087E-09  4.612720E-10
        88  19  5.346475E+05  3.794440E+04  2.155570E+04 -9.476916E+04 -1.317660E+04  1.322520E+04
        88  20  6.029648E+05  5.330919E+04  3.009519E+04 -8.924508E+04 -1.304852E+04  1.865319E+04
        88  21  6.713144E+05  6.868919E+04  3.872381E+04 -9.474549E+04 -1.292109E+04  2.404373E+04
        88  22  3.661981E+05 -1.328060E+01  1.276978E+02 -9.475047E+04 -9.500992E+01  1.322439E+04
        88  23  3.661866E+05 -2.283382E+01  7.837050E+01 -8.923810E+04 -5.619760E+01  1.865322E+04
        88  24  3.661870E+05 -3.260058E+01  5.577010E+01 -9.475047E+04 -1.804311E+01  2.404460E+04
        88  25  1.977782E+05 -3.797203E+04 -2.129976E+04 -9.473178E+04  1.298321E+04  1.322358E+04
        88  26  1.294663E+05 -5.335706E+04 -2.993801E+04 -8.923112E+04  1.293142E+04  1.865325E+04
        88  27  6.115541E+04 -6.875810E+04 -3.861197E+04 -9.475543E+04  1.287898E+04  2.404547E+04
        89   1  7.134888E+05  7.823754E+04  4.435650E+04 -9.473312E+04  1.288938E+04 -2.717854E+04
        89   2  7.817855E+05  9.365607E+04  5.328228E+04 -8.920588E+04  1.212645E+04 -3.238649E+04
        89   3  8.502342E+05  1.092056E+05  6.274151E+04 -9.468617E+04  1.136450E+04 -3.728705E+04
        89   4  3.661837E+05 -4.028032E+01  5.128713E+01 -9.474674E+04  8.704657E+00 -2.718008E+04
        89   5  3.661639E+05 -5.801069E+01  5.157370E+01 -8.924276E+04 -1.620945E+01 -3.238942E+04
        89   6  3.661642E+05 -7.237127E+01  7.317696E+01 -9.474674E+04 -4.008862E+01 -3.729127E+04
        89   7  1.900262E+04 -7.832296E+04 -4.425379E+04 -9.476034E+04 -1.286512E+04 -2.718162E+04
        89   8 -4.928052E+04 -9.377913E+04 -5.317934E+04 -8.927960E+04 -1.215115E+04 -3.239235E+04
        89   9 -1.176658E+05 -1.093600E+05 -6.259593E+04 -9.480725E+04 -1.143622E+04 -3.729548E+04
        89  10  7.134884E+05  7.823670E+04  4.435480E+04 -9.473284E+04  1.112918E-08  5.149915E-10
        89  11  7.817851E+05  9.365491E+04  5.328003E+04 -8.920556E+04 -2.333524E-08  1.718113E-10
        89  12  8.502337E+05  1.092041E+05  6.273865E+04 -9.468582E+04 -5.535789E-08 -1.669095E-09
        89  13  3.661835E+05 -4.107375E+01  4.989862E+01 -9.474674E+04 -2.929238E-11  7.698537E-10
        89  14  3.661636E+05 -5.913741E+01  4.960195E+01 -8.924276E+04 -1.005948E-10  3.545132E-10
        89  15  3.661638E+05 -7.386483E+01  7.056322E+01 -9.474674E+04  2.627448E-09 -1.664402E-09
        89  16  1.900225E+04 -7.832380E+04 -4.425549E+04 -9.476062E+04 -7.687971E-09  9.967812E-10
        89  17 -4.928096E+04 -9.378029E+04 -5.318159E+04 -8.927992E+04  2.894156E-08  4.050283E-10
        89  18 -1.176663E+05 -1.093616E+05 -6.259879E+04 -9.480759E+04  5.783562E-08 -1.372867E-09
        89  19  7.134888E+05  7.823754E+04  4.435650E+04 -9.473312E+04 -1.288938E+04  2.717854E+04
        89  20  7.817855E+05  9.365607E+04  5.328228E+04 -8.920588E+04 -1.212645E+04  3.238649E+04
        89  21  8.502342E+05  1.092056E+05  6.274151E+04 -9.468617E+04 -1.136450E+04  3.728705E+04
        89  22  3.661837E+05 -4.028032E+01  5.128713E+01 -9.474674E+04 -8.704657E+00  2.718008E+04
        89  23  3.661639E+05 -5.801069E+01  5.157370E+01 -8.924276E+04  1.620945E+01  3.238942E+04
        89  24  3.661642E+05 -7.237127E+01  7.317696E+01 -9.474674E+04  4.008862E+01  3.729127E+04
        89  25  1.900262E+04 -7.832296E+04 -4.425379E+04 -9.476034E+04  1.286512E+04  2.718162E+04
        89  26 -4.928052E+04 -9.377913E+04 -5.317934E+04 -8.927960E+04  1.215115E+04  3.239235E+04
        89  27 -1.176658E+05 -1.093600E+05 -6.259593E+04 -9.480725E+04  1.143622E+04  3.729548E+04
        90   1  8.925853E+05  1.188908E+05  6.892386E+04 -9.462538E+04  1.117188E+04 -4.011138E+04
        90   2  9.605199E+05  1.347638E+05  8.044283E+04 -8.919415E+04  5.610888E+03 -4.364186E+04
        90   3  1.029465E+06  1.516424E+05  9.583804E+04 -9.460240E+04  4.932905E+01 -4.488892E+04
        90   4  3.661636E+05 -8.140670E+01  9.217352E+01 -9.470944E+04 -5.313061E+01 -4.011651E+04
        90   5  3.661232E+05 -8.032486E+01  1.519534E+02 -8.928938E+04 -1.268354E+02 -4.364742E+04
        90   6  3.661361E+05 -2.520357E+01  2.809811E+02 -9.470946E+04 -2.004335E+02 -4.489376E+04
        90   7 -1.599747E+05 -1.190652E+05 -6.874079E+04 -9.479342E+04 -1.126909E+04 -4.012164E+04
        90   8 -2.279141E+05 -1.349397E+05 -8.014212E+04 -8.938450E+04 -5.859325E+03 -4.365299E+04
        90   9 -2.967489E+05 -1.517129E+05 -9.528297E+04 -9.481640E+04 -4.499408E+02 -4.489861E+04
        90  10  8.925847E+05  1.188890E+05  6.892060E+04 -9.462502E+04  2.756092E-08 -1.760623E-09
        90  11  9.605194E+05  1.347618E+05  8.043919E+04 -8.919395E+04  3.030408E-08  1.223815E-09
        90  12  1.029464E+06  1.516403E+05  9.583425E+04 -9.460240E+04  2.742151E-08  4.287777E-09
        90  13  3.661632E+05 -8.313514E+01  8.914874E+01 -9.470944E+04  7.544769E-12 -3.778392E-09
        90  14  3.661227E+05 -8.237096E+01  1.483727E+02 -8.928938E+04  1.117479E-09 -8.119267E-09
        90  15  3.661356E+05 -2.736820E+01  2.771929E+02 -9.470946E+04  4.141155E-09 -1.229729E-08
        90  16 -1.599753E+05 -1.190669E+05 -6.874405E+04 -9.479378E+04 -2.620703E-08 -1.219221E-09
        90  17 -2.279146E+05 -1.349418E+05 -8.014577E+04 -8.938471E+04 -2.722154E-08  3.012012E-09
        90  18 -2.967494E+05 -1.517151E+05 -9.528676E+04 -9.481641E+04 -2.766711E-08  6.252173E-09
        90  19  8.925853E+05  1.188908E+05  6.892386E+04 -9.462538E+04 -1.117188E+04  4.011138E+04
        90  20  9.605199E+05  1.347638E+05  8.044283E+04 -8.919415E+04 -5.610888E+03  4.364186E+04
        90  21  1.029465E+06  1.516424E+05  9.583804E+04 -9.460240E+04 -4.932905E+01  4.488892E+04
        90  22  3.661636E+05 -8.140670E+01  9.217352E+01 -9.470944E+04  5.313061E+01  4.011651E+04
        90  23  3.661232E+05 -8.032486E+01  1.519534E+02 -8.928938E+04  1.268354E+02  4.364742E+04
        90  24  3.661361E+05 -2.520357E+01  2.809811E+02 -9.470946E+04  2.004335E+02  4.489376E+04
        90  25 -1.599747E+05 -1.190652E+05 -6.874079E+04 -9.479342E+04  1.126909E+04  4.012164E+04
        90  26 -2.279141E+05 -1.349397E+05 -8.014212E+04 -8.938450E+04  5.859325E+03  4.365299E+04
        90  27 -2.967489E+05 -1.517129E+05 -9.528297E+04 -9.481640E+04  4.499408E+02  4.489861E+04
        91   1  1.072934E+06  1.623593E+05  1.059742E+05 -9.426442E+04 -1.345497E+03 -4.540573E+04
        91   2  1.137901E+06  1.816903E+05  1.364593E+05 -8.984384E+04 -4.230271E+04 -3.651656E+04
        91   3  1.210141E+06  2.086208E+05  1.954883E+05 -9.500698E+04 -8.328005E+04 -1.073157E+04
        91   4  3.661648E+05  6.227544E+00  3.770581E+02 -9.443002E+04 -2.498009E+02 -4.541039E+04
        91   5  3.660329E+05  2.996682E+02  6.870035E+02 -8.963878E+04 -5.912972E+02 -3.650182E+04
        91   6  3.661307E+05  1.152303E+03  1.365605E+03 -9.443050E+04 -9.470775E+02 -1.068780E+04
        91   7 -3.401037E+05 -1.623704E+05 -1.052297E+05 -9.459544E+04  8.447000E+02 -4.541506E+04
        91   8 -4.052496E+05 -1.811225E+05 -1.351004E+05 -8.943401E+04  4.106986E+04 -3.648704E+04
        91   9 -4.772073E+05 -2.063623E+05 -1.927788E+05 -9.385484E+04  8.127503E+04 -1.064386E+04
        91  10  1.072934E+06  1.623571E+05  1.059703E+05 -9.426447E+04 -3.980494E-08  4.954687E-09
        91  11  1.137899E+06  1.816884E+05  1.364534E+05 -8.984508E+04 -7.008100E-09  2.902909E-09
        91  12  1.210134E+06  2.086188E+05  1.954750E+05 -9.500770E+04  2.631047E-08  8.222617E-10
        91  13  3.661642E+05  4.012805E+00  3.731822E+02 -9.443003E+04  1.765429E-09 -1.339179E-08
        91  14  3.660325E+05  2.982371E+02  6.844986E+02 -8.963880E+04 -5.998683E-10 -4.834270E-09
        91  15  3.661307E+05  1.152180E+03  1.365389E+03 -9.443051E+04 -5.853679E-09 -1.247522E-09
        91  16 -3.401043E+05 -1.623727E+05 -1.052336E+05 -9.459541E+04  4.317377E-08  6.206084E-09
        91  17 -4.052517E+05 -1.811244E+05 -1.351061E+05 -8.943281E+04  8.434699E-09  4.510849E-09
        91  18 -4.772144E+05 -2.063642E+05 -1.927914E+05 -9.385414E+04 -2.436338E-08  2.868568E-10
        91  19  1.072934E+06  1.623593E+05  1.059742E+05 -9.426442E+04  1.345497E+03  4.540573E+04
        91  20  1.137901E+06  1.816903E+05  1.364593E+05 -8.984384E+04  4.230271E+04  3.651656E+04
        91  21  1.210141E+06  2.086208E+05  1.954883E+05 -9.500698E+04  8.328005E+04  1.073157E+04
        91  22  3.661648E+05  6.227544E+00  3.770581E+02 -9.443002E+04  2.498009E+02  4.541039E+04
        91  23  3.660329E+05  2.996682E+02  6.870035E+02 -8.963878E+04  5.912972E+02  3.650182E+04
        91  24  3.661307E+05  1.152303E+03  1.365605E+03 -9.443050E+04  9.470775E+02  1.068780E+04
        91  25 -3.401037E+05 -1.623704E+05 -1.052297E+05 -9.459544E+04 -8.447000E+02  4.541506E+04
        91  26 -4.052496E+05 -1.811225E+05 -1.351004E+05 -8.943401E+04 -4.106986E+04  3.648704E+04
        91  27 -4.772073E+05 -2.063623E+05 -1.927788E+05 -9.385484E+04 -8.127503E+04  1.064386E+04
        92   1  1.746774E+05  8.629192E+05  1.673184E+05 -2.897094E+05  6.126623E+03  4.026181E+04
        92   2  1.155469E+05  6.361774E+05  9.599722E+04 -2.712059E+05  1.726047E+04  5.180221E+03
        92   3  6.222150E+04  4.154794E+05  4.893898E+04 -2.900591E+05  1.280752E+04 -2.989279E+04
        92   4 -7.243484E+02  1.537239E+05 -9.255112E+02 -2.898725E+05  6.162128E+03 -1.957600E+03
        92   5  2.139054E+01  1.537791E+05  5.419826E+02 -2.711926E+05  1.726806E+04 -2.209586E+03
        92   6  5.358587E+02  1.537951E+05  2.107384E+03 -2.898715E+05  1.278158E+04 -2.465247E+03
        92   7 -1.761612E+05 -5.550062E+05 -1.691978E+05 -2.900352E+05  6.197683E+03 -4.412908E+04
        92   8 -1.155182E+05 -3.283966E+05 -9.492452E+04 -2.711791E+05  1.727566E+04 -9.593774E+03
        92   9 -6.115318E+04 -1.078209E+05 -4.472400E+04 -2.896840E+05  1.275564E+04  2.495107E+04
        92  10  1.746769E+05  8.629174E+05  1.673153E+05 -2.897096E+05 -2.157612E-11 -6.532475E-08
        92  11  1.155466E+05  6.361773E+05  9.599661E+04 -2.712060E+05  2.122081E-10  7.370632E-10
        92  12  6.222109E+04  4.154784E+05  4.893699E+04 -2.900588E+05 -2.449586E-09  6.522763E-08
        92  13 -7.243902E+02  1.537239E+05 -9.255898E+02 -2.898725E+05  1.181381E-09 -3.240966E-11
        92  14  2.106903E+01  1.537790E+05  5.414131E+02 -2.711925E+05  9.927486E-10 -2.695503E-10
        92  15  5.356817E+02  1.537950E+05  2.107065E+03 -2.898715E+05  5.508139E-09  4.401889E-11
        92  16 -1.761618E+05 -5.550083E+05 -1.692015E+05 -2.900350E+05  3.088970E-09  6.562597E-08
        92  17 -1.155186E+05 -3.283968E+05 -9.492526E+04 -2.711790E+05  7.674555E-12 -5.125104E-10
        92  18 -6.115352E+04 -1.078216E+05 -4.472548E+04 -2.896843E+05  1.715980E-09 -6.555261E-08
        92  19  1.746774E+05  8.629192E+05  1.673184E+05 -2.897094E+05 -6.126623E+03 -4.026181E+04
        92  20  1.155469E+05  6.361774E+05  9.599722E+04 -2.712059E+05 -1.726047E+04 -5.180221E+03
        92  21  6.222150E+04  4.154794E+05  4.893898E+04 -2.900591E+05 -1.280752E+04  2.989279E+04
        92  22 -7.243484E+02  1.537239E+05 -9.255112E+02 -2.898725E+05 -6.162128E+03  1.957600E+03
        92  23  2.139054E+01  1.537791E+05  5.419826E+02 -2.711926E+05 -1.726806E+04  2.209586E+03
        92  24  5.358587E+02  1.537951E+05  2.107384E+03 -2.898715E+05 -1.278158E+04  2.465247E+03
        92  25 -1.761612E+05 -5.550062E+05 -1.691978E+05 -2.900352E+05 -6.197683E+03  4.412908E+04
        92  26 -1.155182E+05 -3.283966E+05 -9.492452E+04 -2.711791E+05 -1.727566E+04  9.593774E+03
        92  27 -6.115318E+04 -1.078209E+05 -4.472400E+04 -2.896840E+05 -1.275564E+04 -2.495107E+04
        93   1  2.957324E+04  2.753864E+05  2.631878E+04 -2.903317E+05  4.917161E+03 -3.081151E+04
        93   2 -2.181347E+04  5.148855E+04 -8.908017E+03 -2.698103E+05 -7.313286E+03 -3.261743E+04
        93   3 -7.138290E+04 -1.717038E+05 -4.251756E+04 -2.876251E+05 -1.901961E+04 -3.442183E+04
        93   4  6.551015E+02  1.540044E+05  3.080680E+03 -2.900888E+05  4.889931E+03 -2.918790E+03
        93   5  1.571171E+03  1.535672E+05  5.935209E+03 -2.709195E+05 -7.338472E+03 -5.900036E+03
        93   6  4.509829E+03  1.539885E+05  1.122027E+04 -2.900856E+05 -1.904285E+04 -8.880360E+03
        93   7 -2.826349E+04  3.263818E+04 -2.015517E+04 -2.898459E+05  4.862719E+03  2.496860E+04
        93   8  2.495572E+04  2.556579E+05  2.078095E+04 -2.720289E+05 -7.363752E+03  2.082156E+04
        93   9  8.039746E+04  4.797870E+05  6.495742E+04 -2.925473E+05 -1.906627E+04  1.667405E+04
        93  10  2.957296E+04  2.753854E+05  2.631695E+04 -2.903315E+05 -1.503658E-09  9.938077E-09
        93  11 -2.181381E+04  5.148739E+04 -8.910117E+03 -2.698104E+05  3.208959E-09  4.329121E-10
        93  12 -7.138361E+04 -1.717051E+05 -4.252047E+04 -2.876257E+05 -1.736929E-09 -1.023270E-08
        93  13  6.550736E+02  1.540044E+05  3.080619E+03 -2.900887E+05 -5.173735E-10 -6.980923E-12
        93  14  1.571104E+03  1.535672E+05  5.935042E+03 -2.709195E+05  3.178374E-09 -2.946163E-10
        93  15  4.509419E+03  1.539883E+05  1.121944E+04 -2.900857E+05 -6.454707E-09  6.342334E-11
        93  16 -2.826369E+04  3.263750E+04 -2.015639E+04 -2.898460E+05  6.566310E-10 -9.421202E-09
        93  17  2.495555E+04  2.556574E+05  2.078003E+04 -2.720287E+05 -1.129982E-09 -3.620182E-10
        93  18  8.039700E+04  4.797866E+05  6.495622E+04 -2.925470E+05 -5.006582E-09  9.892714E-09
        93  19  2.957324E+04  2.753864E+05  2.631878E+04 -2.903317E+05 -4.917161E+03  3.081151E+04
        93  20 -2.181347E+04  5.148855E+04 -8.908017E+03 -2.698103E+05  7.313286E+03  3.261743E+04
        93  21 -7.138290E+04 -1.717038E+05 -4.251756E+04 -2.876251E+05  1.901961E+04  3.442183E+04
        93  22  6.551015E+02  1.540044E+05  3.080680E+03 -2.900888E+05 -4.889931E+03  2.918790E+03
        93  23  1.571171E+03  1.535672E+05  5.935209E+03 -2.709195E+05  7.338472E+03  5.900036E+03
        93  24  4.509829E+03  1.539885E+05  1.122027E+04 -2.900856E+05  1.904285E+04  8.880360E+03
        93  25 -2.826349E+04  3.263818E+04 -2.015517E+04 -2.898459E+05 -4.862719E+03 -2.496860E+04
        93  26  2.495572E+04  2.556579E+05  2.078095E+04 -2.720289E+05  7.363752E+03 -2.082156E+04
        93  27  8.039746E+04  4.797870E+05  6.495742E+04 -2.925473E+05  1.906627E+04 -1.667405E+04
        94   1 -1.030608E+05 -3.106927E+05 -6.305461E+04 -2.886543E+05 -2.641564E+04 -3.574092E+04
        94   2 -1.458562E+05 -5.342621E+05 -1.033858E+05 -2.529586E+05 -2.769568E+04 -5.726753E+03
        94   3 -1.733533E+05 -7.578541E+05 -1.594421E+05 -2.542879E+05 -9.144650E+03  2.427891E+04
        94   4  5.806676E+03  1.554665E+05  1.506194E+04 -2.897936E+05 -2.643664E+04 -1.083787E+04
        94   5  1.763546E+04  1.516137E+05  2.787535E+04 -2.712692E+05 -2.767733E+04 -2.506169E+04
        94   6  5.243370E+04  1.553615E+05  5.568504E+04 -2.897614E+05 -9.098738E+03 -3.928286E+04
        94   7  1.146631E+05  6.218415E+05  9.317406E+04 -2.909337E+05 -2.645773E+04  1.408326E+04
        94   8  1.811008E+05  8.379443E+05  1.591167E+05 -2.896003E+05 -2.765786E+04 -4.441749E+04
        94   9  2.781680E+05  1.069356E+06  2.707706E+05 -3.252871E+05 -9.045608E+03 -1.029376E+05
        94  10 -1.030618E+05 -3.106943E+05 -6.305832E+04 -2.886551E+05 -3.856973E-09  4.062807E-09
        94  11 -1.458571E+05 -5.342624E+05 -1.033873E+05 -2.529587E+05 -2.232511E-09  1.829061E-09
        94  12 -1.733536E+05 -7.578548E+05 -1.594433E+05 -2.542877E+05 -1.588540E-10 -1.089500E-09
        94  13  5.805893E+03  1.554662E+05  1.506041E+04 -2.897938E+05  2.534486E-09  1.934133E-11
        94  14  1.763447E+04  1.516128E+05  2.787273E+04 -2.712697E+05  1.882777E-09 -2.159370E-10
        94  15  5.243320E+04  1.553598E+05  5.568199E+04 -2.897617E+05  7.443096E-10  2.986407E-11
        94  16  1.146623E+05  6.218411E+05  9.317237E+04 -2.909334E+05 -1.101293E-09 -3.434664E-09
        94  17  1.810995E+05  8.379420E+05  1.591115E+05 -2.896013E+05  8.637265E-10 -1.446393E-09
        94  18  2.781650E+05  1.069345E+06  2.707506E+05 -3.252879E+05 -5.858364E-10  1.000865E-09
        94  19 -1.030608E+05 -3.106927E+05 -6.305461E+04 -2.886543E+05  2.641564E+04  3.574092E+04
        94  20 -1.458562E+05 -5.342621E+05 -1.033858E+05 -2.529586E+05  2.769568E+04  5.726753E+03
        94  21 -1.733533E+05 -7.578541E+05 -1.594421E+05 -2.542879E+05  9.144650E+03 -2.427891E+04
        94  22  5.806676E+03  1.554665E+05  1.506194E+04 -2.897936E+05  2.643664E+04  1.083787E+04
        94  23  1.763546E+04  1.516137E+05  2.787535E+04 -2.712692E+05  2.767733E+04  2.506169E+04
        94  24  5.243370E+04  1.553615E+05  5.568504E+04 -2.897614E+05  9.098738E+03  3.928286E+04
        94  25  1.146631E+05  6.218415E+05  9.317406E+04 -2.909337E+05  2.645773E+04 -1.408326E+04
        94  26  1.811008E+05  8.379443E+05  1.591167E+05 -2.896003E+05  2.765786E+04  4.441749E+04
        94  27  2.781680E+05  1.069356E+06  2.707706E+05 -3.252871E+05  9.045608E+03  1.029376E+05
        95   1 -3.580936E+05 -2.031266E+05 -1.305833E+05 -1.490790E+05 -6.257085E+04 -1.991400E+04
        95   2 -3.354003E+05 -1.240431E+05 -7.567512E+04 -1.391938E+05 -3.925049E+04 -3.313958E+03
        95   3 -3.279506E+05 -9.494694E+04 -5.228782E+04 -1.241217E+05 -1.368155E+04  7.301385E+03
        95   4 -1.687531E+05 -9.794057E+04 -7.466581E+04 -6.221204E+04 -4.927366E+04 -1.492758E+04
        95   5 -1.578234E+05 -4.459677E+04 -3.387394E+04 -7.574256E+04 -3.401610E+04 -1.350957E+03
        95   6 -1.605346E+05 -3.963703E+04 -1.820822E+04 -8.408888E+04 -1.651106E+04  6.239530E+03
        95   7  2.062327E+04  7.261502E+03 -1.875151E+04  2.468209E+04 -3.597224E+04 -9.937724E+03
        95   8  1.978536E+04  3.485620E+04  7.925024E+03 -1.227342E+04 -2.878012E+04  6.129400E+02
        95   9  6.910868E+03  1.567423E+04  1.587024E+04 -4.404642E+04 -1.934140E+04  5.177430E+03
        95  10 -3.580979E+05 -2.031281E+05 -1.305914E+05 -1.490800E+05 -1.339582E-09  1.315455E-09
        95  11 -3.354020E+05 -1.240435E+05 -7.567803E+04 -1.391939E+05 -7.755063E-09  1.310079E-09
        95  12 -3.279508E+05 -9.494704E+04 -5.228827E+04 -1.241217E+05 -3.253285E-10 -2.349190E-10
        95  13 -1.687558E+05 -9.794147E+04 -7.467079E+04 -6.221263E+04 -1.888840E-09 -5.293680E-10
        95  14 -1.578247E+05 -4.459709E+04 -3.387612E+04 -7.574260E+04  3.150164E-11 -4.556794E-10
        95  15 -1.605349E+05 -3.963714E+04 -1.820880E+04 -8.408880E+04  1.166001E-08  2.245583E-09
        95  16  2.062185E+04  7.261048E+03 -1.875413E+04  2.468180E+04 -3.642336E-09 -2.365819E-09
        95  17  1.978447E+04  3.485598E+04  7.923467E+03 -1.227341E+04  3.229551E-09 -2.230010E-09
        95  18  6.910459E+03  1.567410E+04  1.586949E+04 -4.404634E+04  1.380421E-08  5.482797E-09
        95  19 -3.580936E+05 -2.031266E+05 -1.305833E+05 -1.490790E+05  6.257085E+04  1.991400E+04
        95  20 -3.354003E+05 -1.240431E+05 -7.567512E+04 -1.391938E+05  3.925049E+04  3.313958E+03
        95  21 -3.279506E+05 -9.494694E+04 -5.228782E+04 -1.241217E+05  1.368155E+04 -7.301385E+03
        95  22 -1.687531E+05 -9.794057E+04 -7.466581E+04 -6.221204E+04  4.927366E+04  1.492758E+04
        95  23 -1.578234E+05 -4.459677E+04 -3.387394E+04 -7.574256E+04  3.401610E+04  1.350957E+03
        95  24 -1.605346E+05 -3.963703E+04 -1.820822E+04 -8.408888E+04  1.651106E+04 -6.239530E+03
        95  25  2.062327E+04  7.261502E+03 -1.875151E+04  2.468209E+04  3.597224E+04  9.937724E+03
        95  26  1.978536E+04  3.485620E+04  7.925024E+03 -1.227342E+04  2.878012E+04 -6.129400E+02
        95  27  6.910868E+03  1.567423E+04  1.587024E+04 -4.404642E+04  1.934140E+04 -5.177430E+03
        96   1 -3.029162E+05 -9.591517E+04 -4.432353E+04 -1.229069E+05 -1.238398E+04  6.436724E+03
        96   2 -2.797304E+05 -8.138151E+04 -3.205034E+04 -1.129890E+05 -7.658021E+03  6.673657E+03
        96   3 -2.526143E+05 -7.408031E+04 -2.344787E+04 -1.087129E+05 -2.790523E+03  6.533281E+03
        96   4 -1.582528E+05 -4.215776E+04 -1.396776E+04 -8.210787E+04 -1.394620E+04  5.850344E+03
        96   5 -1.601073E+05 -3.745668E+04 -7.377024E+03 -7.971228E+04 -9.727957E+03  5.896935E+03
        96   6 -1.579312E+05 -3.988719E+04 -4.054007E+03 -8.295875E+04 -5.368338E+03  5.566186E+03
        96   7 -1.356914E+04  1.160111E+04  1.638656E+04 -4.130037E+04 -1.550880E+04  5.263817E+03
        96   8 -4.046959E+04  6.469387E+03  1.729556E+04 -4.642964E+04 -1.179832E+04  5.120051E+03
        96   9 -6.323817E+04 -5.693097E+03  1.533963E+04 -5.720080E+04 -7.946596E+03  4.598928E+03
        96  10 -3.029164E+05 -9.591526E+04 -4.432390E+04 -1.229068E+05  9.879845E-09  1.987794E-09
        96  11 -2.797304E+05 -8.138157E+04 -3.205053E+04 -1.129890E+05 -6.902478E-09 -2.748929E-09
        96  12 -2.526143E+05 -7.408036E+04 -2.344797E+04 -1.087129E+05 -2.359606E-09 -1.002569E-09
        96  13 -1.582531E+05 -4.215785E+04 -1.396819E+04 -8.210780E+04  7.892129E-09  2.539446E-09
        96  14 -1.601074E+05 -3.745674E+04 -7.377267E+03 -7.971223E+04 -4.892341E-09 -1.695765E-09
        96  15 -1.579313E+05 -3.988723E+04 -4.054120E+03 -8.295873E+04  1.885805E-09  6.589263E-10
        96  16 -1.356941E+04  1.160101E+04  1.638606E+04 -4.130030E+04 -6.877976E-09  1.895996E-09
        96  17 -4.046975E+04  6.469321E+03  1.729525E+04 -4.642959E+04 -1.218919E-08  5.900566E-11
        96  18 -6.323824E+04 -5.693137E+03  1.533947E+04 -5.720077E+04  5.116695E-09  2.219896E-09
        96  19 -3.029162E+05 -9.591517E+04 -4.432353E+04 -1.229069E+05  1.238398E+04 -6.436724E+03
        96  20 -2.797304E+05 -8.138151E+04 -3.205034E+04 -1.129890E+05  7.658021E+03 -6.673657E+03
        96  21 -2.526143E+05 -7.408031E+04 -2.344787E+04 -1.087129E+05  2.790523E+03 -6.533281E+03
        96  22 -1.582528E+05 -4.215776E+04 -1.396776E+04 -8.210787E+04  1.394620E+04 -5.850344E+03
        96  23 -1.601073E+05 -3.745668E+04 -7.377024E+03 -7.971228E+04  9.727957E+03 -5.896935E+03
        96  24 -1.579312E+05 -3.988719E+04 -4.054007E+03 -8.295875E+04  5.368338E+03 -5.566186E+03
        96  25 -1.356914E+04  1.160111E+04  1.638656E+04 -4.130037E+04  1.550880E+04 -5.263817E+03
        96  26 -4.046959E+04  6.469387E+03  1.729556E+04 -4.642964E+04  1.179832E+04 -5.120051E+03
        96  27 -6.323817E+04 -5.693097E+03  1.533963E+04 -5.720080E+04  7.946596E+03 -4.598928E+03
        97   1 -2.346454E+05 -6.796217E+04 -1.870874E+04 -1.040112E+05 -1.882956E+03  5.606617E+03
        97   2 -2.117288E+05 -5.601127E+04 -1.218135E+04 -9.399903E+04 -3.136428E+02  4.067370E+03
        97   3 -1.837284E+05 -4.939039E+04 -6.323424E+03 -8.999266E+04  1.264546E+03  2.504178E+03
        97   4 -1.577659E+05 -3.998914E+04 -3.053211E+03 -8.285023E+04 -4.381358E+03  4.669378E+03
        97   5 -1.603069E+05 -3.730394E+04 -1.679150E+03 -7.985583E+04 -2.844229E+03  3.118130E+03
        97   6 -1.577583E+05 -3.994230E+04 -9.489476E+02 -8.286736E+04 -1.298267E+03  1.542928E+03
        97   7 -8.088031E+04 -1.201562E+04  1.260204E+04 -6.168685E+04 -6.880092E+03  3.732015E+03
        97   8 -1.088825E+05 -1.859646E+04  8.822884E+03 -6.571160E+04 -5.375030E+03  2.168809E+03
        97   9 -1.317878E+05 -3.049424E+04  4.425464E+03 -7.574185E+04 -3.861175E+03  5.816423E+02
        97  10 -2.346454E+05 -6.796220E+04 -1.870881E+04 -1.040112E+05  8.526497E-09  3.204049E-09
        97  11 -2.117288E+05 -5.601129E+04 -1.218138E+04 -9.399903E+04  1.908581E-09 -1.288900E-09
        97  12 -1.837284E+05 -4.939039E+04 -6.323439E+03 -8.999266E+04  1.831256E-09 -1.943519E-09
        97  13 -1.577659E+05 -3.998916E+04 -3.053288E+03 -8.285021E+04  8.368190E-09  1.045260E-09
        97  14 -1.603069E+05 -3.730395E+04 -1.679183E+03 -7.985582E+04 -6.242295E-09 -6.760065E-10
        97  15 -1.577583E+05 -3.994230E+04 -9.489552E+02 -8.286736E+04 -1.403660E-09 -7.096082E-10
        97  16 -8.088037E+04 -1.201565E+04  1.260192E+04 -6.168683E+04  2.741302E-10 -7.357069E-10
        97  17 -1.088826E+05 -1.859648E+04  8.822821E+03 -6.571159E+04 -5.742400E-09 -2.868844E-10
        97  18 -1.317878E+05 -3.049424E+04  4.425435E+03 -7.574184E+04 -3.586291E-09  7.310771E-10
        97  19 -2.346454E+05 -6.796217E+04 -1.870874E+04 -1.040112E+05  1.882956E+03 -5.606617E+03
        97  20 -2.117288E+05 -5.601127E+04 -1.218135E+04 -9.399903E+04  3.136428E+02 -4.067370E+03
        97  21 -1.837284E+05 -4.939039E+04 -6.323424E+03 -8.999266E+04 -1.264546E+03 -2.504178E+03
        97  22 -1.577659E+05 -3.998914E+04 -3.053211E+03 -8.285023E+04  4.381358E+03 -4.669378E+03
        97  23 -1.603069E+05 -3.730394E+04 -1.679150E+03 -7.985583E+04  2.844229E+03 -3.118130E+03
        97  24 -1.577583E+05 -3.994230E+04 -9.489476E+02 -8.286736E+04  1.298267E+03 -1.542928E+03
        97  25 -8.088031E+04 -1.201562E+04  1.260204E+04 -6.168685E+04  6.880092E+03 -3.732015E+03
        97  26 -1.088825E+05 -1.859646E+04  8.822884E+03 -6.571160E+04  5.375030E+03 -2.168809E+03
        97  27 -1.317878E+05 -3.049424E+04  4.425464E+03 -7.574185E+04  3.861175E+03 -5.816423E+02
        98   1 -1.661250E+05 -4.295981E+04 -2.364758E+03 -8.514482E+04  1.814185E+03  1.448272E+03
        98   2 -1.432783E+05 -3.107391E+04  3.027267E+03 -7.511024E+04  2.756464E+03 -3.635551E+02
        98   3 -1.152325E+05 -2.442549E+04  8.247211E+03 -7.107453E+04  3.699249E+03 -2.176636E+03
        98   4 -1.577373E+05 -3.994528E+04 -7.309148E+02 -8.285757E+04 -7.437257E+02  4.888743E+02
        98   5 -1.603370E+05 -3.733055E+04 -4.590248E+02 -7.985645E+04  1.967817E+02 -1.323648E+03
        98   6 -1.577386E+05 -3.995327E+04 -3.579856E+02 -8.285466E+04  1.137783E+03 -3.137423E+03
        98   7 -1.493494E+05 -3.693072E+04  9.029723E+02 -8.057028E+04 -3.301694E+03 -4.705443E+02
        98   8 -1.773955E+05 -4.358719E+04 -3.945323E+03 -8.460256E+04 -2.362836E+03 -2.283716E+03
        98   9 -2.002428E+05 -5.548090E+04 -8.963248E+03 -9.463404E+04 -1.423496E+03 -4.098140E+03
        98  10 -1.661250E+05 -4.295981E+04 -2.364768E+03 -8.514482E+04  2.195929E-09 -3.141865E-10
        98  11 -1.432783E+05 -3.107391E+04  3.027252E+03 -7.511024E+04 -9.270326E-09 -2.728534E-09
        98  12 -1.152326E+05 -2.442550E+04  8.247176E+03 -7.107453E+04 -5.647614E-09 -1.645294E-09
        98  13 -1.577373E+05 -3.994528E+04 -7.309163E+02 -8.285757E+04 -3.865481E-09 -1.358325E-09
        98  14 -1.603370E+05 -3.733055E+04 -4.590282E+02 -7.985645E+04 -1.181481E-08 -3.143931E-09
        98  15 -1.577386E+05 -3.995328E+04 -3.580066E+02 -8.285465E+04 -2.266667E-09 -1.464022E-09
        98  16 -1.493494E+05 -3.693072E+04  9.029514E+02 -8.057028E+04 -9.904912E-09 -2.430250E-09
        98  17 -1.773955E+05 -4.358720E+04 -3.945343E+03 -8.460256E+04 -3.920116E-09 -3.242260E-09
        98  18 -2.002428E+05 -5.548092E+04 -8.963283E+03 -9.463404E+04 -7.190219E-10 -1.141840E-09
        98  19 -1.661250E+05 -4.295981E+04 -2.364758E+03 -8.514482E+04 -1.814185E+03 -1.448272E+03
        98  20 -1.432783E+05 -3.107391E+04  3.027267E+03 -7.511024E+04 -2.756464E+03  3.635551E+02
        98  21 -1.152325E+05 -2.442549E+04  8.247211E+03 -7.107453E+04 -3.699249E+03  2.176636E+03
        98  22 -1.577373E+05 -3.994528E+04 -7.309148E+02 -8.285757E+04  7.437257E+02 -4.888743E+02
        98  23 -1.603370E+05 -3.733055E+04 -4.590248E+02 -7.985645E+04 -1.967817E+02  1.323648E+03
        98  24 -1.577386E+05 -3.995327E+04 -3.579856E+02 -8.285466E+04 -1.137783E+03  3.137423E+03
        98  25 -1.493494E+05 -3.693072E+04  9.029723E+02 -8.057028E+04  3.301694E+03  4.705443E+02
        98  26 -1.773955E+05 -4.358719E+04 -3.945323E+03 -8.460256E+04  2.362836E+03  2.283716E+03
        98  27 -2.002428E+05 -5.548090E+04 -8.963248E+03 -9.463404E+04  1.423496E+03  4.098140E+03
        99   1 -9.766472E+04 -1.798207E+04  1.198874E+04 -6.622366E+04  4.173745E+03 -3.260219E+03
        99   2 -7.482532E+04 -6.092629E+03  1.701227E+04 -5.619180E+04  5.106920E+03 -5.076116E+03
        99   3 -4.678652E+04  5.613891E+02  2.187094E+04 -5.215657E+04  6.039329E+03 -6.889533E+03
        99   4 -1.577392E+05 -3.995341E+04 -3.563623E+02 -8.285419E+04  1.612325E+03 -4.221029E+03
        99   5 -1.603387E+05 -3.733407E+04 -4.501178E+02 -7.985650E+04  2.548716E+03 -6.035833E+03
        99   6 -1.577400E+05 -3.995080E+04 -7.112684E+02 -8.285567E+04  3.484335E+03 -7.848168E+03
        99   7 -2.178096E+05 -6.192428E+04 -1.270150E+04 -9.948311E+04 -9.488087E+02 -5.181731E+03
        99   8 -2.458445E+05 -6.857489E+04 -1.791285E+04 -1.035182E+05 -9.109315E+00 -6.995409E+03
        99   9 -2.686817E+05 -8.046227E+04 -2.329431E+04 -1.135499E+05  9.298130E+02 -8.806626E+03
        99  10 -9.766475E+04 -1.798208E+04  1.198869E+04 -6.622365E+04 -1.003759E-09  5.776855E-10
        99  11 -7.482535E+04 -6.092663E+03  1.701218E+04 -5.619178E+04  7.461475E-09  7.356901E-10
        99  12 -4.678657E+04  5.613283E+02  2.187078E+04 -5.215654E+04  3.390057E-09  8.657785E-14
        99  13 -1.577392E+05 -3.995343E+04 -3.564006E+02 -8.285419E+04 -2.137381E-09 -3.463767E-11
        99  14 -1.603387E+05 -3.733411E+04 -4.501984E+02 -7.985649E+04 -4.943534E-11 -1.807729E-10
        99  15 -1.577400E+05 -3.995087E+04 -7.114070E+02 -8.285565E+04  4.085914E-09 -1.501332E-09
        99  16 -2.178096E+05 -6.192431E+04 -1.270155E+04 -9.948311E+04  1.108926E-09 -7.020008E-10
        99  17 -2.458445E+05 -6.857495E+04 -1.791295E+04 -1.035182E+05 -4.961871E-09 -5.155652E-10
        99  18 -2.686817E+05 -8.046236E+04 -2.329446E+04 -1.135499E+05 -5.490585E-09 -3.689497E-09
        99  19 -9.766472E+04 -1.798207E+04  1.198874E+04 -6.622366E+04 -4.173745E+03  3.260219E+03
        99  20 -7.482532E+04 -6.092629E+03  1.701227E+04 -5.619180E+04 -5.106920E+03  5.076116E+03
        99  21 -4.678652E+04  5.613891E+02  2.187094E+04 -5.215657E+04 -6.039329E+03  6.889533E+03
        99  22 -1.577392E+05 -3.995341E+04 -3.563623E+02 -8.285419E+04 -1.612325E+03  4.221029E+03
        99  23 -1.603387E+05 -3.733407E+04 -4.501178E+02 -7.985650E+04 -2.548716E+03  6.035833E+03
        99  24 -1.577400E+05 -3.995080E+04 -7.112684E+02 -8.285567E+04 -3.484335E+03  7.848168E+03
        99  25 -2.178096E+05 -6.192428E+04 -1.270150E+04 -9.948311E+04  9.488087E+02  5.181731E+03
        99  26 -2.458445E+05 -6.857489E+04 -1.791285E+04 -1.035182E+05  9.109315E+00  6.995409E+03
        99  27 -2.686817E+05 -8.046227E+04 -2.329431E+04 -1.135499E+05 -9.298130E+02  8.806626E+03
       100   1 -2.923681E+04  6.995803E+03  2.539841E+04 -4.732668E+04  6.596730E+03 -7.941789E+03
       100   2 -6.359799E+03  1.888597E+04  2.981919E+04 -3.730001E+04  8.067954E+03 -9.537181E+03
       100   3  2.161849E+04  2.546864E+04  3.365335E+04 -3.327145E+04  9.526248E+03 -1.109727E+04
       100   4 -1.577619E+05 -3.994820E+04 -9.217884E+02 -8.286423E+04  4.034945E+03 -8.903073E+03
       100   5 -1.603127E+05 -3.731487E+04 -1.628557E+03 -7.985622E+04  5.553463E+03 -1.048093E+04
       100   6 -1.577721E+05 -3.999858E+04 -2.959485E+03 -8.284672E+04  7.059011E+03 -1.202348E+04
       100   7 -2.862699E+05 -8.689079E+04 -2.724279E+04 -1.183950E+05  1.473731E+03 -9.864144E+03
       100   8 -3.142406E+05 -9.351347E+04 -3.307731E+04 -1.224025E+05  3.039653E+03 -1.142443E+04
       100   9 -3.371282E+05 -1.054625E+05 -3.957353E+04 -1.324084E+05  4.592560E+03 -1.294941E+04
       100  10 -2.923687E+04  6.995724E+03  2.539820E+04 -4.732663E+04  2.812177E-09 -1.157107E-09
       100  11 -6.359893E+03  1.888586E+04  2.981890E+04 -3.729995E+04  4.523327E-09 -2.414275E-09
       100  12  2.161836E+04  2.546849E+04  3.365295E+04 -3.327137E+04 -5.268932E-10  2.517931E-10
       100  13 -1.577619E+05 -3.994829E+04 -9.219680E+02 -8.286420E+04 -3.107131E-09 -3.531968E-09
       100  14 -1.603128E+05 -3.731499E+04 -1.628822E+03 -7.985618E+04 -1.792001E-09 -3.958285E-09
       100  15 -1.577722E+05 -3.999874E+04 -2.959850E+03 -8.284665E+04  2.054165E-09 -1.556496E-09
       100  16 -2.862700E+05 -8.689090E+04 -2.724298E+04 -1.183950E+05 -4.975971E-09 -5.747517E-09
       100  17 -3.142407E+05 -9.351361E+04 -3.307757E+04 -1.224025E+05  1.931065E-09 -5.714605E-09
       100  18 -3.371283E+05 -1.054627E+05 -3.957388E+04 -1.324083E+05  1.088707E-09 -1.701803E-09
       100  19 -2.923681E+04  6.995803E+03  2.539841E+04 -4.732668E+04 -6.596730E+03  7.941789E+03
       100  20 -6.359799E+03  1.888597E+04  2.981919E+04 -3.730001E+04 -8.067954E+03  9.537181E+03
       100  21  2.161849E+04  2.546864E+04  3.365335E+04 -3.327145E+04 -9.526248E+03  1.109727E+04
       100  22 -1.577619E+05 -3.994820E+04 -9.217884E+02 -8.286423E+04 -4.034945E+03  8.903073E+03
       100  23 -1.603127E+05 -3.731487E+04 -1.628557E+03 -7.985622E+04 -5.553463E+03  1.048093E+04
       100  24 -1.577721E+05 -3.999858E+04 -2.959485E+03 -8.284672E+04 -7.059011E+03  1.202348E+04
       100  25 -2.862699E+05 -8.689079E+04 -2.724279E+04 -1.183950E+05 -1.473731E+03  9.864144E+03
       100  26 -3.142406E+05 -9.351347E+04 -3.307731E+04 -1.224025E+05 -3.039653E+03  1.142443E+04
       100  27 -3.371282E+05 -1.054625E+05 -3.957353E+04 -1.324084E+05 -4.592560E+03  1.294941E+04
       101   1  3.924029E+04  3.179517E+04  3.641744E+04 -2.876878E+04  1.061216E+04 -1.195784E+04
       101   2  6.195278E+04  4.393907E+04  3.854372E+04 -1.804418E+04  1.408408E+04 -1.252549E+04
       101   3  8.887000E+04  4.917651E+04  3.809357E+04 -1.294839E+04  1.734967E+04 -1.254198E+04
       101   4 -1.579341E+05 -3.989769E+04 -3.928585E+03 -8.294778E+04  8.029144E+03 -1.292766E+04
       101   5 -1.601199E+05 -3.747265E+04 -7.148863E+03 -7.972035E+04  1.224279E+04 -1.321721E+04
       101   6 -1.582493E+05 -4.210205E+04 -1.353418E+04 -8.212246E+04  1.624995E+04 -1.295554E+04
       101   7 -3.550702E+05 -1.115880E+05 -4.427702E+04 -1.371114E+05  5.446993E+03 -1.389715E+04
       101   8 -3.821429E+05 -1.188805E+05 -5.284425E+04 -1.413764E+05  1.040221E+04 -1.390867E+04
       101   9 -4.053061E+05 -1.333753E+05 -6.516525E+04 -1.512711E+05  1.515070E+04 -1.336892E+04
       101  10  3.924014E+04  3.179498E+04  3.641696E+04 -2.876868E+04  2.734975E-08  1.263532E-08
       101  11  6.195252E+04  4.393885E+04  3.854305E+04 -1.804404E+04  4.009238E-08  1.418457E-08
       101  12  8.886964E+04  4.917626E+04  3.809271E+04 -1.294822E+04  3.069587E-08  1.046024E-08
       101  13 -1.579342E+05 -3.989788E+04 -3.929020E+03 -8.294770E+04 -9.568085E-10  3.429989E-09
       101  14 -1.601201E+05 -3.747288E+04 -7.149473E+03 -7.972022E+04 -1.515489E-09  1.177766E-08
       101  15 -1.582496E+05 -4.210230E+04 -1.353499E+04 -8.212229E+04 -7.293086E-09  1.743369E-08
       101  16 -3.550703E+05 -1.115882E+05 -4.427744E+04 -1.371113E+05 -2.700846E-08 -9.273752E-09
       101  17 -3.821430E+05 -1.188808E+05 -5.284482E+04 -1.413763E+05 -2.413579E-08 -9.204762E-09
       101  18 -4.053064E+05 -1.333755E+05 -6.516602E+04 -1.512709E+05 -2.116030E-08 -1.080115E-08
       101  19  3.924029E+04  3.179517E+04  3.641744E+04 -2.876878E+04 -1.061216E+04  1.195784E+04
       101  20  6.195278E+04  4.393907E+04  3.854372E+04 -1.804418E+04 -1.408408E+04  1.252549E+04
       101  21  8.887000E+04  4.917651E+04  3.809357E+04 -1.294839E+04 -1.734967E+04  1.254198E+04
       101  22 -1.579341E+05 -3.989769E+04 -3.928585E+03 -8.294778E+04 -8.029144E+03  1.292766E+04
       101  23 -1.601199E+05 -3.747265E+04 -7.148863E+03 -7.972035E+04 -1.224279E+04  1.321721E+04
       101  24 -1.582493E+05 -4.210205E+04 -1.353418E+04 -8.212246E+04 -1.624995E+04  1.295554E+04
       101  25 -3.550702E+05 -1.115880E+05 -4.427702E+04 -1.371114E+05 -5.446993E+03  1.389715E+04
       101  26 -3.821429E+05 -1.188805E+05 -5.284425E+04 -1.413764E+05 -1.040221E+04  1.390867E+04
       101  27 -4.053061E+05 -1.333753E+05 -6.516525E+04 -1.512711E+05 -1.515070E+04  1.336892E+04
       102   1  1.093154E+05  5.337940E+04  3.769613E+04 -1.539090E+04  2.171281E+04 -1.229522E+04
       102   2  1.222037E+05  7.237690E+04  3.142711E+04  1.543271E+04  2.640265E+04 -8.041626E+03
       102   3  1.242376E+05  4.683357E+04  1.015145E+04  5.126810E+04  2.781070E+04  4.949708E+03
       102   4 -1.604878E+05 -3.963303E+04 -1.764262E+04 -8.400949E+04  1.876223E+04 -1.340365E+04
       102   5 -1.578780E+05 -4.442899E+04 -3.282273E+04 -7.591391E+04  3.522884E+04 -4.728383E+03
       102   6 -1.684639E+05 -9.611224E+04 -7.234611E+04 -6.280583E+04  4.841241E+04  1.268592E+04
       102   7 -4.302164E+05 -1.326414E+05 -7.298498E+04 -1.526014E+05  1.581304E+04 -1.451164E+04
       102   8 -4.378763E+05 -1.612209E+05 -9.707642E+04 -1.672194E+05  4.405064E+04 -1.417282E+03
       102   9 -4.610715E+05 -2.390301E+05 -1.548477E+05 -1.768224E+05  6.900308E+04  2.041521E+04
       102  10  1.093149E+05  5.337911E+04  3.769496E+04 -1.539069E+04 -4.185853E-08 -1.831896E-08
       102  11  1.222030E+05  7.237664E+04  3.142568E+04  1.543288E+04 -2.843511E-08 -1.595507E-08
       102  12  1.242368E+05  4.683333E+04  1.014995E+04  5.126799E+04 -6.295921E-09 -3.291998E-09
       102  13 -1.604883E+05 -3.963332E+04 -1.764362E+04 -8.400929E+04 -5.111833E-09  1.480183E-08
       102  14 -1.578794E+05 -4.442934E+04 -3.282511E+04 -7.591378E+04 -3.357990E-09  7.432215E-09
       102  15 -1.684664E+05 -9.611304E+04 -7.235082E+04 -6.280632E+04  4.451082E-10  1.913872E-09
       102  16 -4.302167E+05 -1.326417E+05 -7.298584E+04 -1.526012E+05  4.201307E-08  1.384397E-08
       102  17 -4.378784E+05 -1.612214E+05 -9.708007E+04 -1.672193E+05  2.782068E-08  8.268143E-09
       102  18 -4.610768E+05 -2.390318E+05 -1.548575E+05 -1.768236E+05  5.123262E-09  1.103717E-09
       102  19  1.093154E+05  5.337940E+04  3.769613E+04 -1.539090E+04 -2.171281E+04  1.229522E+04
       102  20  1.222037E+05  7.237690E+04  3.142711E+04  1.543271E+04 -2.640265E+04  8.041626E+03
       102  21  1.242376E+05  4.683357E+04  1.015145E+04  5.126810E+04 -2.781070E+04 -4.949708E+03
       102  22 -1.604878E+05 -3.963303E+04 -1.764262E+04 -8.400949E+04 -1.876223E+04  1.340365E+04
       102  23 -1.578780E+05 -4.442899E+04 -3.282273E+04 -7.591391E+04 -3.522884E+04  4.728383E+03
       102  24 -1.684639E+05 -9.611224E+04 -7.234611E+04 -6.280583E+04 -4.841241E+04 -1.268592E+04
       102  25 -4.302164E+05 -1.326414E+05 -7.298498E+04 -1.526014E+05 -1.581304E+04  1.451164E+04
       102  26 -4.378763E+05 -1.612209E+05 -9.707642E+04 -1.672194E+05 -4.405064E+04  1.417282E+03
       102  27 -4.610715E+05 -2.390301E+05 -1.548477E+05 -1.768224E+05 -6.900308E+04 -2.041521E+04
       103   1  8.873974E+05  1.428454E+05  1.271192E+05  1.383094E+04  3.515555E+04 -1.087363E+04
       103   2  8.497792E+05  1.600393E+05  1.077616E+05  2.764525E+04  1.382803E+04 -3.749614E+04
       103   3  8.105895E+05  1.597198E+05  9.791894E+04  4.716940E+04 -7.508429E+03 -4.730791E+04
       103   4  1.028498E+05 -5.015012E+04 -5.407471E+04  4.653328E+04 -3.799875E+04 -1.093394E+04
       103   5  1.066948E+05 -1.539137E+04 -2.690959E+04  4.365511E+04 -2.418959E+04 -3.753555E+04
       103   6  1.028650E+05 -4.255862E+03 -1.461900E+04  4.648652E+04 -1.039100E+04 -4.731603E+04
       103   7 -6.811157E+05 -2.431818E+05 -2.352889E+05  7.919392E+04 -1.110614E+05 -1.100200E+04
       103   8 -6.358492E+05 -1.908512E+05 -1.615971E+05  5.964517E+04 -6.216298E+04 -3.757694E+04
       103   9 -6.043617E+05 -1.682565E+05 -1.271698E+05  4.580431E+04 -1.327040E+04 -4.732415E+04
       103  10  8.873961E+05  1.428449E+05  1.271167E+05  1.383124E+04  2.499439E-09 -1.066825E-10
       103  11  8.497786E+05  1.600377E+05  1.077586E+05  2.764566E+04 -1.383976E-09 -1.550085E-09
       103  12  8.105888E+05  1.597174E+05  9.791462E+04  4.716911E+04 -4.203422E-09 -1.260033E-09
       103  13  1.028482E+05 -5.015063E+04 -5.407764E+04  4.653295E+04  2.549089E-10  1.603370E-10
       103  14  1.066938E+05 -1.539304E+04 -2.691334E+04  4.365438E+04 -1.075725E-09 -2.085230E-09
       103  15  1.028643E+05 -4.258295E+03 -1.462341E+04  4.648612E+04  4.786619E-09  2.794805E-10
       103  16 -6.811289E+05 -2.431853E+05 -2.353124E+05  7.919293E+04 -3.652907E-09 -8.738649E-10
       103  17 -6.358538E+05 -1.908538E+05 -1.616070E+05  5.964328E+04 -3.210349E-09 -5.081046E-09
       103  18 -6.043625E+05 -1.682590E+05 -1.271743E+05  4.580380E+04  3.933180E-09 -2.590518E-09
       103  19  8.873974E+05  1.428454E+05  1.271192E+05  1.383094E+04 -3.515555E+04  1.087363E+04
       103  20  8.497792E+05  1.600393E+05  1.077616E+05  2.764525E+04 -1.382803E+04  3.749614E+04
       103  21  8.105895E+05  1.597198E+05  9.791894E+04  4.716940E+04  7.508429E+03  4.730791E+04
       103  22  1.028498E+05 -5.015012E+04 -5.407471E+04  4.653328E+04  3.799875E+04  1.093394E+04
       103  23  1.066948E+05 -1.539137E+04 -2.690959E+04  4.365511E+04  2.418959E+04  3.753555E+04
       103  24  1.028650E+05 -4.255862E+03 -1.461900E+04  4.648652E+04  1.039100E+04  4.731603E+04
       103  25 -6.811157E+05 -2.431818E+05 -2.352889E+05  7.919392E+04  1.110614E+05  1.100200E+04
       103  26 -6.358492E+05 -1.908512E+05 -1.615971E+05  5.964517E+04  6.216298E+04  3.757694E+04
       103  27 -6.043617E+05 -1.682565E+05 -1.271698E+05  4.580431E+04  1.327040E+04  4.732415E+04
       104   1  7.870663E+05  1.542451E+05  9.504840E+04  4.553865E+04 -5.550119E+03 -4.749081E+04
       104   2  7.488913E+05  1.470428E+05  8.982518E+04  4.312644E+04 -6.663774E+03 -4.792230E+04
       104   3  7.105989E+05  1.387473E+05  8.505788E+04  4.761607E+04 -7.780182E+03 -4.638758E+04
       104   4  1.043919E+05 -3.418337E+03 -1.098028E+04  4.675468E+04 -8.497091E+03 -4.749911E+04
       104   5  1.048157E+05 -8.655457E+02 -5.978765E+03  4.330140E+04 -5.503536E+03 -4.792576E+04
       104   6  1.044079E+05 -1.192685E+02 -3.372790E+03  4.675043E+04 -2.512726E+03 -4.638517E+04
       104   7 -5.778175E+05 -1.611045E+05 -1.170198E+05  4.796918E+04 -1.144095E+04 -4.750742E+04
       104   8 -5.388435E+05 -1.487934E+05 -1.017905E+05  4.347603E+04 -4.344449E+03 -4.792923E+04
       104   9 -5.014129E+05 -1.390028E+05 -9.180957E+04  4.588554E+04  2.749806E+03 -4.638277E+04
       104  10  7.870656E+05  1.542427E+05  9.504410E+04  4.553844E+04 -1.028782E-09 -2.070918E-09
       104  11  7.488907E+05  1.470403E+05  8.982078E+04  4.312618E+04  1.011279E-09 -7.840481E-11
       104  12  7.105983E+05  1.387450E+05  8.505372E+04  4.761578E+04  1.953028E-09 -8.526583E-10
       104  13  1.043912E+05 -3.420780E+03 -1.098466E+04  4.675436E+04  2.845919E-10 -9.598142E-10
       104  14  1.048150E+05 -8.680204E+02 -5.983138E+03  4.330118E+04  2.545199E-12 -6.773965E-10
       104  15  1.044074E+05 -1.215807E+02 -3.376845E+03  4.675034E+04  1.077103E-09 -3.299619E-09
       104  16 -5.778183E+05 -1.611070E+05 -1.170243E+05  4.796875E+04  3.980540E-09  1.109391E-09
       104  17 -5.388441E+05 -1.487958E+05 -1.017949E+05  4.347586E+04 -6.974464E-11  3.167027E-10
       104  18 -5.014135E+05 -1.390051E+05 -9.181362E+04  4.588564E+04 -2.102608E-09 -1.844926E-09
       104  19  7.870663E+05  1.542451E+05  9.504840E+04  4.553865E+04  5.550119E+03  4.749081E+04
       104  20  7.488913E+05  1.470428E+05  8.982518E+04  4.312644E+04  6.663774E+03  4.792230E+04
       104  21  7.105989E+05  1.387473E+05  8.505788E+04  4.761607E+04  7.780182E+03  4.638758E+04
       104  22  1.043919E+05 -3.418337E+03 -1.098028E+04  4.675468E+04  8.497091E+03  4.749911E+04
       104  23  1.048157E+05 -8.655457E+02 -5.978765E+03  4.330140E+04  5.503536E+03  4.792576E+04
       104  24  1.044079E+05 -1.192685E+02 -3.372790E+03  4.675043E+04  2.512726E+03  4.638517E+04
       104  25 -5.778175E+05 -1.611045E+05 -1.170198E+05  4.796918E+04  1.144095E+04  4.750742E+04
       104  26 -5.388435E+05 -1.487934E+05 -1.017905E+05  4.347603E+04  4.344449E+03  4.792923E+04
       104  27 -5.014129E+05 -1.390028E+05 -9.180957E+04  4.588554E+04 -2.749806E+03  4.638277E+04
       105   1  6.866544E+05  1.331852E+05  8.195062E+04  4.744605E+04 -7.265998E+03 -4.484823E+04
       105   2  6.484782E+05  1.245001E+05  7.708457E+04  4.392939E+04 -7.033578E+03 -4.221753E+04
       105   3  6.102635E+05  1.157887E+05  7.206021E+04  4.744795E+04 -6.802397E+03 -3.935729E+04
       105   4  1.045707E+05 -7.744549E+01 -2.550174E+03  4.678041E+04 -2.007227E+03 -4.484525E+04
       105   5  1.046394E+05  7.567344E+01 -1.438972E+03  4.326248E+04 -1.295798E+03 -4.221296E+04
       105   6  1.045847E+05  1.192179E+02 -8.189135E+02  4.678012E+04 -5.855960E+02 -3.935102E+04
       105   7 -4.771715E+05 -1.333556E+05 -8.705642E+04  4.611530E+04  3.246826E+03 -4.484228E+04
       105   8 -4.389012E+05 -1.243623E+05 -7.996708E+04  4.259606E+04  4.437172E+03 -4.220840E+04
       105   9 -4.008360E+05 -1.155619E+05 -7.370191E+04  4.611275E+04  5.626360E+03 -3.934476E+04
       105  10  6.866538E+05  1.331830E+05  8.194674E+04  4.744578E+04 -5.964781E-09  1.432154E-10
       105  11  6.484777E+05  1.244982E+05  7.708112E+04  4.392915E+04  2.025383E-09 -1.789848E-10
       105  12  6.102630E+05  1.157870E+05  7.205721E+04  4.744774E+04  8.347615E-09 -2.206120E-09
       105  13  1.045701E+05 -7.960624E+01 -2.553961E+03  4.678034E+04  4.561120E-09 -3.892690E-09
       105  14  1.046389E+05  7.375941E+01 -1.442324E+03  4.326243E+04 -3.235288E-09 -3.952027E-10
       105  15  1.045843E+05  1.175549E+02 -8.218242E+02  4.678010E+04  2.682441E-09  5.156216E-10
       105  16 -4.771721E+05 -1.333578E+05 -8.706022E+04  4.611542E+04  2.832334E-09 -1.342583E-09
       105  17 -4.389017E+05 -1.243642E+05 -7.997047E+04  4.259621E+04  6.547947E-10  1.210093E-11
       105  18 -4.008364E+05 -1.155636E+05 -7.370488E+04  4.611292E+04 -5.301356E-09 -1.754731E-09
       105  19  6.866544E+05  1.331852E+05  8.195062E+04  4.744605E+04  7.265998E+03  4.484823E+04
       105  20  6.484782E+05  1.245001E+05  7.708457E+04  4.392939E+04  7.033578E+03  4.221753E+04
       105  21  6.102635E+05  1.157887E+05  7.206021E+04  4.744795E+04  6.802397E+03  3.935729E+04
       105  22  1.045707E+05 -7.744549E+01 -2.550174E+03  4.678041E+04  2.007227E+03  4.484525E+04
       105  23  1.046394E+05  7.567344E+01 -1.438972E+03  4.326248E+04  1.295798E+03  4.221296E+04
       105  24  1.045847E+05  1.192179E+02 -8.189135E+02  4.678012E+04  5.855960E+02  3.935102E+04
       105  25 -4.771715E+05 -1.333556E+05 -8.705642E+04  4.611530E+04 -3.246826E+03  4.484228E+04
       105  26 -4.389012E+05 -1.243623E+05 -7.996708E+04  4.259606E+04 -4.437172E+03  4.220840E+04
       105  27 -4.008360E+05 -1.155619E+05 -7.370191E+04  4.611275E+04 -5.626360E+03  3.934476E+04
       106   1  5.863039E+05  1.102713E+05  6.863419E+04  4.741056E+04 -6.673713E+03 -3.761745E+04
       106   2  5.481394E+05  1.015424E+05  6.342710E+04  4.384616E+04 -6.560850E+03 -3.462998E+04
       106   3  5.099553E+05  9.284045E+04  5.814952E+04  4.732846E+04 -6.448824E+03 -3.161604E+04
       106   4  1.046096E+05  1.206778E+02 -6.182722E+02  4.678269E+04 -4.587259E+02 -3.761064E+04
       106   5  1.046310E+05  1.194419E+02 -3.467444E+02  4.325920E+04 -2.909019E+02 -3.462224E+04
       106   6  1.046211E+05  1.355932E+02 -1.842038E+02  4.678268E+04 -1.239094E+02 -3.160737E+04
       106   7 -3.768504E+05 -1.100405E+05 -6.987418E+04  4.615524E+04  5.751647E+03 -3.760384E+04
       106   8 -3.386788E+05 -1.013124E+05 -6.412348E+04  4.267258E+04  5.974760E+03 -3.461452E+04
       106   9 -3.005471E+05 -9.257674E+04 -5.852033E+04  4.623720E+04  6.197054E+03 -3.159871E+04
       106  10  5.863035E+05  1.102698E+05  6.863145E+04  4.741036E+04  2.043218E-09 -2.513169E-09
       106  11  5.481390E+05  1.015411E+05  6.342477E+04  4.384598E+04  3.542436E-08  1.843829E-09
       106  12  5.099549E+05  9.283937E+04  5.814756E+04  4.732830E+04  5.802278E-08  2.148232E-09
       106  13  1.046092E+05  1.191587E+02 -6.209310E+02  4.678268E+04  4.027868E-10  5.005871E-10
       106  14  1.046307E+05  1.181546E+02 -3.489972E+02  4.325919E+04 -9.921665E-10  1.172948E-08
       106  15  1.046209E+05  1.345204E+02 -1.860813E+02  4.678268E+04 -7.125174E-10  1.745573E-08
       106  16 -3.768508E+05 -1.100420E+05 -6.987690E+04  4.615541E+04 -1.035694E-09 -1.715876E-09
       106  17 -3.386791E+05 -1.013137E+05 -6.412580E+04  4.267275E+04 -3.196314E-08 -5.950635E-10
       106  18 -3.005475E+05 -9.257783E+04 -5.852228E+04  4.623736E+04 -5.418305E-08 -1.496374E-09
       106  19  5.863039E+05  1.102713E+05  6.863419E+04  4.741056E+04  6.673713E+03  3.761745E+04
       106  20  5.481394E+05  1.015424E+05  6.342710E+04  4.384616E+04  6.560850E+03  3.462998E+04
       106  21  5.099553E+05  9.284045E+04  5.814952E+04  4.732846E+04  6.448824E+03  3.161604E+04
       106  22  1.046096E+05  1.206778E+02 -6.182722E+02  4.678269E+04  4.587259E+02  3.761064E+04
       106  23  1.046310E+05  1.194419E+02 -3.467444E+02  4.325920E+04  2.909019E+02  3.462224E+04
       106  24  1.046211E+05  1.355932E+02 -1.842038E+02  4.678268E+04  1.239094E+02  3.160737E+04
       106  25 -3.768504E+05 -1.100405E+05 -6.987418E+04  4.615524E+04 -5.751647E+03  3.760384E+04
       106  26 -3.386788E+05 -1.013124E+05 -6.412348E+04  4.267258E+04 -5.974760E+03  3.461452E+04
       106  27 -3.005471E+05 -9.257674E+04 -5.852033E+04  4.623720E+04 -6.197054E+03  3.159871E+04
       107   1  4.860010E+05  8.733583E+04  5.461518E+04  4.730315E+04 -6.422027E+03 -2.985336E+04
       107   2  4.478510E+05  7.861620E+04  4.928263E+04  4.373723E+04 -6.410949E+03 -2.682525E+04
       107   3  4.096853E+05  6.992444E+04  4.394313E+04  4.722070E+04 -6.400489E+03 -2.379460E+04
       107   4  1.046278E+05  1.383680E+02 -1.282444E+02  4.678327E+04 -9.798182E+01 -2.984425E+04
       107   5  1.046409E+05  1.308967E+02 -4.202760E+01  4.325846E+04 -8.175934E+01 -2.681548E+04
       107   6  1.046367E+05  1.505767E+02  3.372225E+01  4.678326E+04 -6.615456E+01 -2.378416E+04
       107   7 -2.765986E+05 -8.706570E+04 -5.487375E+04  4.626365E+04  6.222347E+03 -2.983515E+04
       107   8 -2.384502E+05 -7.835976E+04 -4.936835E+04  4.277992E+04  6.244082E+03 -2.680571E+04
       107   9 -2.003180E+05 -6.962751E+04 -4.387698E+04  4.634600E+04  6.265201E+03 -2.377373E+04
       107  10  4.860008E+05  8.733486E+04  5.461343E+04  4.730300E+04 -5.368147E-08 -1.102368E-09
       107  11  4.478507E+05  7.861542E+04  4.928121E+04  4.373710E+04 -3.293845E-08 -3.922219E-09
       107  12  4.096852E+05  6.992382E+04  4.394199E+04  4.722057E+04 -9.885730E-09 -3.957518E-09
       107  13  1.046275E+05  1.374115E+02 -1.299183E+02  4.678327E+04 -1.589971E-09  2.050772E-08
       107  14  1.046407E+05  1.301245E+02 -4.337895E+01  4.325846E+04  1.129352E-09  7.218250E-09
       107  15  1.046365E+05  1.499692E+02  3.265916E+01  4.678326E+04  4.995677E-09 -2.283023E-09
       107  16 -2.765989E+05 -8.706666E+04 -5.487549E+04  4.626380E+04  5.467910E-08 -4.046445E-10
       107  17 -2.384504E+05 -7.836054E+04 -4.936978E+04  4.278005E+04  3.524986E-08 -4.778171E-09
       107  18 -2.003182E+05 -6.962813E+04 -4.387812E+04  4.634612E+04  1.023809E-08 -4.440506E-09
       107  19  4.860010E+05  8.733583E+04  5.461518E+04  4.730315E+04  6.422027E+03  2.985336E+04
       107  20  4.478510E+05  7.861620E+04  4.928263E+04  4.373723E+04  6.410949E+03  2.682525E+04
       107  21  4.096853E+05  6.992444E+04  4.394313E+04  4.722070E+04  6.400489E+03  2.379460E+04
       107  22  1.046278E+05  1.383680E+02 -1.282444E+02  4.678327E+04  9.798182E+01  2.984425E+04
       107  23  1.046409E+05  1.308967E+02 -4.202760E+01  4.325846E+04  8.175934E+01  2.681548E+04
       107  24  1.046367E+05  1.505767E+02  3.372225E+01  4.678326E+04  6.615456E+01  2.378416E+04
       107  25 -2.765986E+05 -8.706570E+04 -5.487375E+04  4.626365E+04 -6.222347E+03  2.983515E+04
       107  26 -2.384502E+05 -7.835976E+04 -4.936835E+04  4.277992E+04 -6.244082E+03  2.680571E+04
       107  27 -2.003180E+05 -6.962751E+04 -4.387698E+04  4.634600E+04 -6.265201E+03  2.377373E+04
       108   1  3.857416E+05  6.442251E+04  4.039722E+04  4.719434E+04 -6.412259E+03 -2.202990E+04
       108   2  3.475983E+05  5.570835E+04  3.508463E+04  4.362069E+04 -6.498911E+03 -1.899920E+04
       108   3  3.094505E+05  4.703845E+04  2.983100E+04  4.709337E+04 -6.585989E+03 -1.597057E+04
       108   4  1.046420E+05  1.532770E+02  7.312280E+01  4.678257E+04 -7.851372E+01 -2.201914E+04
       108   5  1.046477E+05  1.482209E+02  1.732873E+02  4.325930E+04 -1.696534E+02 -1.898798E+04
       108   6  1.046483E+05  1.882391E+02  3.354277E+02  4.678252E+04 -2.612240E+02 -1.595889E+04
       108   7 -1.763777E+05 -6.411953E+04 -4.025203E+04  4.637097E+04  6.252487E+03 -2.200838E+04
       108   8 -1.382431E+05 -5.541458E+04 -3.473882E+04  4.289804E+04  6.157233E+03 -1.897676E+04
       108   9 -1.001114E+05 -4.666387E+04 -2.916065E+04  4.647175E+04  6.061544E+03 -1.594722E+04
       108  10  3.857415E+05  6.442198E+04  4.039623E+04  4.719423E+04 -8.308803E-09  7.710183E-10
       108  11  3.475981E+05  5.570795E+04  3.508388E+04  4.362059E+04 -2.797407E-09  1.817873E-10
       108  12  3.094504E+05  4.703817E+04  2.983044E+04  4.709329E+04 -5.305201E-09  2.828849E-09
       108  13  1.046419E+05  1.527564E+02  7.221163E+01  4.678257E+04  2.636283E-09 -1.969214E-09
       108  14  1.046476E+05  1.478337E+02  1.726097E+02  4.325930E+04 -3.231789E-09  1.343304E-10
       108  15  1.046483E+05  1.879656E+02  3.349490E+02  4.678252E+04  1.032433E-09  1.649299E-09
       108  16 -1.763779E+05 -6.412006E+04 -4.025301E+04  4.637108E+04  8.330082E-09 -7.742869E-10
       108  17 -1.382433E+05 -5.541498E+04 -3.473957E+04  4.289813E+04  7.383479E-09 -7.184656E-09
       108  18 -1.001116E+05 -4.666415E+04 -2.916120E+04  4.647183E+04  5.262355E-09 -4.136009E-10
       108  19  3.857416E+05  6.442251E+04  4.039722E+04  4.719434E+04  6.412259E+03  2.202990E+04
       108  20  3.475983E+05  5.570835E+04  3.508463E+04  4.362069E+04  6.498911E+03  1.899920E+04
       108  21  3.094505E+05  4.703845E+04  2.983100E+04  4.709337E+04  6.585989E+03  1.597057E+04
       108  22  1.046420E+05  1.532770E+02  7.312280E+01  4.678257E+04  7.851372E+01  2.201914E+04
       108  23  1.046477E+05  1.482209E+02  1.732873E+02  4.325930E+04  1.696534E+02  1.898798E+04
       108  24  1.046483E+05  1.882391E+02  3.354277E+02  4.678252E+04  2.612240E+02  1.595889E+04
       108  25 -1.763777E+05 -6.411953E+04 -4.025203E+04  4.637097E+04 -6.252487E+03  2.200838E+04
       108  26 -1.382431E+05 -5.541458E+04 -3.473882E+04  4.289804E+04 -6.157233E+03  1.897676E+04
       108  27 -1.001114E+05 -4.666387E+04 -2.916065E+04  4.647175E+04 -6.061544E+03  1.594722E+04
       109   1  2.855313E+05  4.154150E+04  2.635939E+04  4.708641E+04 -6.656021E+03 -1.420786E+04
       109   2  2.473525E+05  3.291897E+04  2.129087E+04  4.336926E+04 -7.027231E+03 -1.119019E+04
       109   3  2.092595E+05  2.456687E+04  1.652195E+04  4.669509E+04 -7.398635E+03 -8.191391E+03
       109   4  1.046713E+05  1.953556E+02  4.507308E+02  4.678184E+04 -3.315891E+02 -1.419596E+04
       109   5  1.046279E+05  2.837802E+02  8.099021E+02  4.325989E+04 -7.423565E+02 -1.117811E+04
       109   6  1.046750E+05  6.494058E+02  1.495879E+03  4.678098E+04 -1.153338E+03 -8.179116E+03
       109   7 -7.615553E+04 -4.115225E+04 -2.545827E+04  4.647736E+04  5.991080E+03 -1.418408E+04
       109   8 -3.807610E+04 -3.235231E+04 -1.967123E+04  4.315053E+04  5.541135E+03 -1.116602E+04
       109   9  1.015852E+02 -2.326853E+04 -1.353022E+04  4.686685E+04  5.090953E+03 -8.166837E+03
       109  10  2.855312E+05  4.154127E+04  2.635893E+04  4.708633E+04 -3.107039E-09  4.210448E-09
       109  11  2.473524E+05  3.291882E+04  2.129054E+04  4.336920E+04  1.470909E-09 -1.734834E-09
       109  12  2.092594E+05  2.456678E+04  1.652173E+04  4.669504E+04  6.429170E-09 -1.082702E-09
       109  13  1.046713E+05  1.951392E+02  4.503518E+02  4.678184E+04  4.978021E-10  2.365844E-09
       109  14  1.046278E+05  2.836458E+02  8.096663E+02  4.325988E+04  2.149367E-09  1.947152E-09
       109  15  1.046750E+05  6.493336E+02  1.495751E+03  4.678097E+04  1.603631E-09 -1.796589E-09
       109  16 -7.615562E+04 -4.115248E+04 -2.545872E+04  4.647743E+04  5.287939E-09  3.039233E-09
       109  17 -3.807617E+04 -3.235246E+04 -1.967152E+04  4.315058E+04 -1.226501E-09  1.213986E-09
       109  18  1.015395E+02 -2.326861E+04 -1.353039E+04  4.686688E+04 -2.518480E-09 -4.261520E-09
       109  19  2.855313E+05  4.154150E+04  2.635939E+04  4.708641E+04  6.656021E+03  1.420786E+04
       109  20  2.473525E+05  3.291897E+04  2.129087E+04  4.336926E+04  7.027231E+03  1.119019E+04
       109  21  2.092595E+05  2.456687E+04  1.652195E+04  4.669509E+04  7.398635E+03  8.191391E+03
       109  22  1.046713E+05  1.953556E+02  4.507308E+02  4.678184E+04  3.315891E+02  1.419596E+04
       109  23  1.046279E+05  2.837802E+02  8.099021E+02  4.325989E+04  7.423565E+02  1.117811E+04
       109  24  1.046750E+05  6.494058E+02  1.495879E+03  4.678098E+04  1.153338E+03  8.179116E+03
       109  25 -7.615553E+04 -4.115225E+04 -2.545827E+04  4.647736E+04 -5.991080E+03  1.418408E+04
       109  26 -3.807610E+04 -3.235231E+04 -1.967123E+04  4.315053E+04 -5.541135E+03  1.116602E+04
       109  27  1.015852E+02 -2.326853E+04 -1.353022E+04  4.686685E+04 -5.090953E+03  8.166837E+03
       110   1  1.855210E+05  1.917187E+04  1.340833E+04  4.691768E+04 -7.660378E+03 -6.445591E+03
       110   2  1.469134E+05  1.193622E+04  9.518463E+03  4.106402E+04 -9.210590E+03 -3.538366E+03
       110   3  1.092750E+05  7.902119E+03  7.427728E+03  4.223826E+04 -1.076052E+04 -7.916141E+02
       110   4  1.048838E+05  7.638489E+02  1.993476E+03  4.677867E+04 -1.414772E+03 -6.433208E+03
       110   5  1.043710E+05  2.270221E+03  3.671425E+03  4.325863E+04 -3.300200E+03 -3.526606E+03
       110   6  1.048846E+05  7.036562E+03  7.381314E+03  4.676639E+04 -5.185429E+03 -7.804948E+02
       110   7  2.425324E+04 -1.764444E+04 -9.421319E+03  4.663967E+04  4.830058E+03 -6.420827E+03
       110   8  6.183053E+04 -7.395823E+03 -2.175498E+03  4.545307E+04  2.609802E+03 -3.514803E+03
       110   9  1.004942E+05  6.171098E+03  7.335029E+03  5.129450E+04  3.896232E+02 -7.692942E+02
       110  10  1.855209E+05  1.917181E+04  1.340814E+04  4.691764E+04 -1.965909E-09  1.028899E-09
       110  11  1.469134E+05  1.193619E+04  9.518280E+03  4.106399E+04  1.433605E-09 -7.766228E-11
       110  12  1.092749E+05  7.902087E+03  7.427509E+03  4.223825E+04  3.106439E-09  1.576068E-09
       110  13  1.048838E+05  7.638039E+02  1.993395E+03  4.677866E+04  5.878912E-10  2.887043E-09
       110  14  1.043710E+05  2.270205E+03  3.671381E+03  4.325862E+04  2.082193E-09 -4.735584E-09
       110  15  1.048845E+05  7.036554E+03  7.381262E+03  4.676639E+04  5.557847E-11  2.500415E-09
       110  16  2.425321E+04 -1.764449E+04 -9.421440E+03  4.663970E+04  5.278042E-09 -2.967569E-10
       110  17  6.183052E+04 -7.395838E+03 -2.175534E+03  4.545308E+04  5.362663E-09 -9.182434E-10
       110  18  1.004942E+05  6.171098E+03  7.335028E+03  5.129450E+04 -1.600068E-09 -1.415547E-09
       110  19  1.855210E+05  1.917187E+04  1.340833E+04  4.691768E+04  7.660378E+03  6.445591E+03
       110  20  1.469134E+05  1.193622E+04  9.518463E+03  4.106402E+04  9.210590E+03  3.538366E+03
       110  21  1.092750E+05  7.902119E+03  7.427728E+03  4.223826E+04  1.076052E+04  7.916141E+02
       110  22  1.048838E+05  7.638489E+02  1.993476E+03  4.677867E+04  1.414772E+03  6.433208E+03
       110  23  1.043710E+05  2.270221E+03  3.671425E+03  4.325863E+04  3.300200E+03  3.526606E+03
       110  24  1.048846E+05  7.036562E+03  7.381314E+03  4.676639E+04  5.185429E+03  7.804948E+02
       110  25  2.425324E+04 -1.764444E+04 -9.421319E+03  4.663967E+04 -4.830058E+03  6.420827E+03
       110  26  6.183053E+04 -7.395823E+03 -2.175498E+03  4.545307E+04 -2.609802E+03  3.514803E+03
       110  27  1.004942E+05  6.171098E+03  7.335029E+03  5.129450E+04 -3.896232E+02  7.692942E+02
       111   1  1.257102E+04  4.184671E+05  1.360467E+04 -2.898587E+04 -5.585169E+01  3.303544E+03
       111   2  4.075842E+02  3.896392E+05  4.430024E+03 -2.317784E+04 -7.678050E+02 -1.701665E+02
       111   3 -7.241158E+03  3.623788E+05 -1.358704E+03 -2.474311E+04 -2.303247E+03 -3.644356E+03
       111   4  6.261166E+03  3.932853E+05  7.260735E+03 -2.518354E+04 -5.616807E+01  3.739889E+03
       111   5  1.001509E+03  3.926050E+05  4.450579E+03 -2.149924E+04 -7.690500E+02  1.452587E+03
       111   6  5.083236E+01  3.932862E+05  4.203037E+03 -2.518817E+04 -2.305397E+03 -8.353262E+02
       111   7 -4.868452E+01  3.681041E+05  9.167570E+02 -2.138136E+04 -5.647911E+01  4.176216E+03
       111   8  1.595445E+03  3.955709E+05  4.471146E+03 -1.982063E+04 -7.702863E+02  3.075347E+03
       111   9  7.342774E+03  4.241945E+05  9.764771E+03 -2.563326E+04 -2.307550E+03  1.973839E+03
       111  10  1.257102E+04  4.184671E+05  1.360465E+04 -2.898587E+04 -2.075257E-09  3.263219E-08
       111  11  4.075836E+02  3.896392E+05  4.430023E+03 -2.317784E+04  3.417385E-09 -7.472285E-09
       111  12 -7.241167E+03  3.623788E+05 -1.358739E+03 -2.474311E+04  6.259039E-10 -4.299168E-08
       111  13  6.261162E+03  3.932853E+05  7.260709E+03 -2.518354E+04 -7.330459E-10 -7.348079E-10
       111  14  1.001507E+03  3.926050E+05  4.450574E+03 -2.149924E+04 -8.171495E-09 -1.537921E-09
       111  15  5.082647E+01  3.932862E+05  4.203026E+03 -2.518818E+04 -5.869370E-09 -8.853886E-11
       111  16 -4.868920E+01  3.681040E+05  9.167243E+02 -2.138136E+04  4.427469E-09 -3.180099E-08
       111  17  1.595442E+03  3.955709E+05  4.471127E+03 -1.982063E+04 -1.054681E-09  4.948353E-09
       111  18  7.342767E+03  4.241945E+05  9.764753E+03 -2.563326E+04  9.024316E-10  4.356760E-08
       111  19  1.257102E+04  4.184671E+05  1.360467E+04 -2.898587E+04  5.585169E+01 -3.303544E+03
       111  20  4.075842E+02  3.896392E+05  4.430024E+03 -2.317784E+04  7.678050E+02  1.701665E+02
       111  21 -7.241158E+03  3.623788E+05 -1.358704E+03 -2.474311E+04  2.303247E+03  3.644356E+03
       111  22  6.261166E+03  3.932853E+05  7.260735E+03 -2.518354E+04  5.616807E+01 -3.739889E+03
       111  23  1.001509E+03  3.926050E+05  4.450579E+03 -2.149924E+04  7.690500E+02 -1.452587E+03
       111  24  5.083236E+01  3.932862E+05  4.203037E+03 -2.518817E+04  2.305397E+03  8.353262E+02
       111  25 -4.868452E+01  3.681041E+05  9.167570E+02 -2.138136E+04  5.647911E+01 -4.176216E+03
       111  26  1.595445E+03  3.955709E+05  4.471146E+03 -1.982063E+04  7.702863E+02 -3.075347E+03
       111  27  7.342774E+03  4.241945E+05  9.764771E+03 -2.563326E+04  2.307550E+03 -1.973839E+03
       112   1 -1.162072E+04  3.432215E+05 -4.607682E+03 -2.561799E+04 -3.465563E+03 -4.285489E+03
       112   2 -1.830181E+04  3.147992E+05 -8.054286E+03 -2.135707E+04 -5.214438E+03 -7.154836E+03
       112   3 -2.347191E+04  2.871166E+05 -9.258958E+03 -2.450463E+04 -6.691752E+03 -1.002377E+04
       112   4  2.081089E+02  3.931625E+05  4.620124E+03 -2.519542E+04 -3.467620E+03 -1.567516E+03
       112   5  2.016524E+02  3.927580E+05  6.534060E+03 -2.149062E+04 -5.216115E+03 -4.828480E+03
       112   6  1.774025E+03  3.931603E+05  1.096150E+04 -2.519423E+04 -6.693061E+03 -8.089154E+03
       112   7  1.203680E+04  4.431059E+05  1.384785E+04 -2.477280E+04 -3.469674E+03  1.150671E+03
       112   8  1.870477E+04  4.707227E+05  2.112216E+04 -2.162419E+04 -5.217792E+03 -2.501840E+03
       112   9  2.701931E+04  4.992148E+05  3.118147E+04 -2.588394E+04 -6.694375E+03 -6.154218E+03
       112  10 -1.162074E+04  3.432215E+05 -4.607739E+03 -2.561801E+04  4.397593E-10  1.838392E-08
       112  11 -1.830185E+04  3.147991E+05 -8.054433E+03 -2.135710E+04  5.085276E-09 -2.635984E-09
       112  12 -2.347199E+04  2.871165E+05 -9.259231E+03 -2.450469E+04  1.620487E-10 -2.062877E-08
       112  13  2.080953E+02  3.931625E+05  4.620096E+03 -2.519542E+04 -8.020415E-09 -8.423258E-10
       112  14  2.016169E+02  3.927580E+05  6.533965E+03 -2.149064E+04  7.199041E-10 -1.571183E-09
       112  15  1.773960E+03  3.931602E+05  1.096129E+04 -2.519427E+04 -1.499125E-09 -1.495216E-10
       112  16  1.203679E+04  4.431059E+05  1.384783E+04 -2.477280E+04  4.779832E-09 -1.742706E-08
       112  17  1.870473E+04  4.707227E+05  2.112210E+04 -2.162420E+04  2.008019E-09  3.542997E-10
       112  18  2.701925E+04  4.992147E+05  3.118131E+04 -2.588397E+04 -6.075614E-10  2.120064E-08
       112  19 -1.162072E+04  3.432215E+05 -4.607682E+03 -2.561799E+04  3.465563E+03  4.285489E+03
       112  20 -1.830181E+04  3.147992E+05 -8.054286E+03 -2.135707E+04  5.214438E+03  7.154836E+03
       112  21 -2.347191E+04  2.871166E+05 -9.258958E+03 -2.450463E+04  6.691752E+03  1.002377E+04
       112  22  2.081089E+02  3.931625E+05  4.620124E+03 -2.519542E+04  3.467620E+03  1.567516E+03
       112  23  2.016524E+02  3.927580E+05  6.534060E+03 -2.149062E+04  5.216115E+03  4.828480E+03
       112  24  1.774025E+03  3.931603E+05  1.096150E+04 -2.519423E+04  6.693061E+03  8.089154E+03
       112  25  1.203680E+04  4.431059E+05  1.384785E+04 -2.477280E+04  3.469674E+03 -1.150671E+03
       112  26  1.870477E+04  4.707227E+05  2.112216E+04 -2.162419E+04  5.217792E+03  2.501840E+03
       112  27  2.701931E+04  4.992148E+05  3.118147E+04 -2.588394E+04  6.694375E+03  6.154218E+03
       113   1 -2.980830E+04  2.698310E+05 -9.937671E+03 -2.919623E+04 -7.821993E+03 -1.271296E+04
       113   2 -2.951655E+04  2.375996E+05 -6.454993E+03 -1.006479E+04 -7.402929E+03 -1.888409E+04
       113   3  6.305263E+02  2.136289E+05  8.507261E+03  1.934790E+03 -2.333073E+03 -2.505188E+04
       113   4  1.529447E+01  3.950743E+05  1.401805E+04 -2.513807E+04 -7.823918E+03 -9.962830E+03
       113   5  7.288655E+03  3.903588E+05  2.477310E+04 -2.155709E+04 -7.399745E+03 -2.283587E+04
       113   6  4.557527E+04  3.950629E+05  5.165763E+04 -2.510720E+04 -2.324992E+03 -3.570591E+04
       113   7  2.983803E+04  5.203327E+05  3.797309E+04 -2.107907E+04 -7.825807E+03 -7.212155E+03
       113   8  4.409290E+04  5.431406E+05  5.600009E+04 -3.305226E+04 -7.396415E+03 -2.678861E+04
       113   9  9.052044E+04  5.765289E+05  9.480652E+04 -5.215712E+04 -2.315985E+03 -4.636303E+04
       113  10 -2.980841E+04  2.698308E+05 -9.938090E+03 -2.919631E+04  2.793997E-09 -2.328062E-08
       113  11 -2.951670E+04  2.375992E+05 -6.455766E+03 -1.006490E+04  3.095676E-09 -4.091086E-09
       113  12  6.303520E+02  2.136282E+05  8.506071E+03  1.934743E+03  2.309381E-09  1.861275E-08
       113  13  1.520210E+01  3.950742E+05  1.401775E+04 -2.513813E+04  3.805670E-09 -7.651653E-10
       113  14  7.288456E+03  3.903583E+05  2.477202E+04 -2.155723E+04  3.237836E-09 -1.354043E-09
       113  15  4.557492E+04  3.950615E+05  5.165523E+04 -2.510727E+04 -1.072058E-09 -1.231777E-10
       113  16  2.983795E+04  5.203327E+05  3.797288E+04 -2.107912E+04  6.886989E-11  2.397542E-08
       113  17  4.409265E+04  5.431398E+05  5.599864E+04 -3.305242E+04  4.650780E-09  1.908811E-09
       113  18  9.051986E+04  5.765266E+05  9.480248E+04 -5.215721E+04 -4.540542E-10 -1.819451E-08
       113  19 -2.980830E+04  2.698310E+05 -9.937671E+03 -2.919623E+04  7.821993E+03  1.271296E+04
       113  20 -2.951655E+04  2.375996E+05 -6.454993E+03 -1.006479E+04  7.402929E+03  1.888409E+04
       113  21  6.305263E+02  2.136289E+05  8.507261E+03  1.934790E+03  2.333073E+03  2.505188E+04
       113  22  1.529447E+01  3.950743E+05  1.401805E+04 -2.513807E+04  7.823918E+03  9.962830E+03
       113  23  7.288655E+03  3.903588E+05  2.477310E+04 -2.155709E+04  7.399745E+03  2.283587E+04
       113  24  4.557527E+04  3.950629E+05  5.165763E+04 -2.510720E+04  2.324992E+03  3.570591E+04
       113  25  2.983803E+04  5.203327E+05  3.797309E+04 -2.107907E+04  7.825807E+03  7.212155E+03
       113  26  4.409290E+04  5.431406E+05  5.600009E+04 -3.305226E+04  7.396415E+03  2.678861E+04
       113  27  9.052044E+04  5.765289E+05  9.480652E+04 -5.215712E+04  2.315985E+03  4.636303E+04
       114   1  9.887118E+05  3.566920E+05  1.821490E+05  3.658694E+05  7.075745E+04  1.491503E+04
       114   2  9.369784E+05  3.243102E+05  1.298010E+05  3.498111E+05  4.587560E+04 -2.223084E+04
       114   3  8.862242E+05  3.061668E+05  1.047390E+05  3.405675E+05  1.468773E+04 -4.257913E+04
       114   4  2.858018E+05  9.184441E+04  3.170888E+03  1.714384E+05  5.911227E+03 -9.468491E+03
       114   5  2.884475E+05  8.680640E+04  1.499344E+03  1.684927E+05  1.429885E+04 -3.411136E+04
       114   6  2.854901E+05  8.942771E+04  7.861478E+02  1.723608E+05  1.637231E+04 -4.195021E+04
       114   7 -4.165875E+05 -1.729545E+05 -1.758210E+05 -2.278257E+04 -5.885202E+04 -3.382035E+04
       114   8 -3.596319E+05 -1.506531E+05 -1.268135E+05 -1.264587E+04 -1.724184E+04 -4.597821E+04
       114   9 -3.148603E+05 -1.272753E+05 -1.031769E+05  4.306418E+03  1.805515E+04 -4.132194E+04
       114  10  9.887064E+05  3.566904E+05  1.821392E+05  3.658686E+05  6.246540E-10 -4.412519E-11
       114  11  9.369760E+05  3.243091E+05  1.297961E+05  3.498119E+05 -3.445893E-09 -3.988192E-10
       114  12  8.862234E+05  3.061648E+05  1.047352E+05  3.405680E+05  3.919065E-09  5.089424E-11
       114  13  2.858017E+05  9.184430E+04  3.170654E+03  1.714384E+05  4.570450E-09  9.697225E-10
       114  14  2.884469E+05  8.680510E+04  1.496773E+03  1.684931E+05 -5.592698E-09 -2.061448E-09
       114  15  2.854894E+05  8.942575E+04  7.823363E+02  1.723614E+05  5.875913E-09  1.327544E-09
       114  16 -4.165915E+05 -1.729567E+05 -1.758296E+05 -2.278417E+04  1.621879E-10  1.398139E-09
       114  17 -3.596328E+05 -1.506554E+05 -1.268181E+05 -1.264651E+04  4.758458E-09 -2.509766E-09
       114  18 -3.148611E+05 -1.272773E+05 -1.031807E+05  4.307019E+03  8.478036E-09 -2.232832E-09
       114  19  9.887118E+05  3.566920E+05  1.821490E+05  3.658694E+05 -7.075745E+04 -1.491503E+04
       114  20  9.369784E+05  3.243102E+05  1.298010E+05  3.498111E+05 -4.587560E+04  2.223084E+04
       114  21  8.862242E+05  3.061668E+05  1.047390E+05  3.405675E+05 -1.468773E+04  4.257913E+04
       114  22  2.858018E+05  9.184441E+04  3.170888E+03  1.714384E+05 -5.911227E+03  9.468491E+03
       114  23  2.884475E+05  8.680640E+04  1.499344E+03  1.684927E+05 -1.429885E+04  3.411136E+04
       114  24  2.854901E+05  8.942771E+04  7.861478E+02  1.723608E+05 -1.637231E+04  4.195021E+04
       114  25 -4.165875E+05 -1.729545E+05 -1.758210E+05 -2.278257E+04  5.885202E+04  3.382035E+04
       114  26 -3.596319E+05 -1.506531E+05 -1.268135E+05 -1.264587E+04  1.724184E+04  4.597821E+04
       114  27 -3.148603E+05 -1.272753E+05 -1.031769E+05  4.306418E+03 -1.805515E+04  4.132194E+04
       115   1  8.525775E+05  2.941189E+05  9.682075E+04  3.317147E+05  1.521846E+04 -4.125341E+04
       115   2  8.049175E+05  2.713889E+05  8.422782E+04  3.135826E+05  1.115223E+04 -4.138864E+04
       115   3  7.509027E+05  2.565675E+05  7.451656E+04  3.035581E+05  6.428753E+03 -3.977947E+04
       115   4  2.852175E+05  8.959555E+04  5.857827E+02  1.725530E+05  1.591223E+04 -4.099689E+04
       115   5  2.887378E+05  8.592716E+04  3.044893E+02  1.685239E+05  1.530071E+04 -3.983123E+04
       115   6  2.852183E+05  8.948433E+04  1.704510E+02  1.726021E+05  1.403140E+04 -3.692040E+04
       115   7 -2.818073E+05 -1.148982E+05 -9.565971E+04  1.352529E+04  1.660534E+04 -4.074064E+04
       115   8 -2.271601E+05 -9.950838E+04 -8.362542E+04  2.357739E+04  1.944557E+04 -3.827518E+04
       115   9 -1.802336E+05 -7.757631E+04 -7.417968E+04  4.173819E+04  2.162802E+04 -3.406361E+04
       115  10  8.525768E+05  2.941170E+05  9.681711E+04  3.317152E+05  7.685889E-09  1.917758E-10
       115  11  8.049169E+05  2.713870E+05  8.422437E+04  3.135830E+05  1.140615E-08 -4.480122E-11
       115  12  7.509023E+05  2.565658E+05  7.451351E+04  3.035583E+05  1.240177E-08  2.331553E-10
       115  13  2.852168E+05  8.959367E+04  5.821478E+02  1.725535E+05  1.063468E-08 -1.323531E-09
       115  14  2.887371E+05  8.592539E+04  3.010673E+02  1.685244E+05  9.897755E-09 -7.890471E-09
       115  15  2.852177E+05  8.948281E+04  1.675190E+02  1.726025E+05  1.639907E-09 -5.450686E-09
       115  16 -2.818080E+05 -1.149001E+05 -9.566335E+04  1.352584E+04  5.725603E-09 -1.372462E-09
       115  17 -2.271609E+05 -9.951006E+04 -8.362889E+04  2.357799E+04  2.567740E-09 -2.788703E-09
       115  18 -1.802344E+05 -7.757768E+04 -7.418274E+04  4.173879E+04 -5.668350E-10 -8.095444E-09
       115  19  8.525775E+05  2.941189E+05  9.682075E+04  3.317147E+05 -1.521846E+04  4.125341E+04
       115  20  8.049175E+05  2.713889E+05  8.422782E+04  3.135826E+05 -1.115223E+04  4.138864E+04
       115  21  7.509027E+05  2.565675E+05  7.451656E+04  3.035581E+05 -6.428753E+03  3.977947E+04
       115  22  2.852175E+05  8.959555E+04  5.857827E+02  1.725530E+05 -1.591223E+04  4.099689E+04
       115  23  2.887378E+05  8.592716E+04  3.044893E+02  1.685239E+05 -1.530071E+04  3.983123E+04
       115  24  2.852183E+05  8.948433E+04  1.704510E+02  1.726021E+05 -1.403140E+04  3.692040E+04
       115  25 -2.818073E+05 -1.148982E+05 -9.565971E+04  1.352529E+04 -1.660534E+04  4.074064E+04
       115  26 -2.271601E+05 -9.950838E+04 -8.362542E+04  2.357739E+04 -1.944557E+04  3.827518E+04
       115  27 -1.802336E+05 -7.757631E+04 -7.417968E+04  4.173819E+04 -2.162802E+04  3.406361E+04
       116   1  7.186407E+05  2.449860E+05  6.893755E+04  2.945601E+05  5.651249E+03 -3.746294E+04
       116   2  6.714912E+05  2.231656E+05  6.056907E+04  2.762119E+05  3.797897E+03 -3.373480E+04
       116   3  6.172326E+05  2.086283E+05  5.251702E+04  2.660757E+05  1.875791E+03 -2.982700E+04
       116   4  2.851950E+05  8.950973E+04  1.294278E+02  1.726167E+05  1.314799E+04 -3.464294E+04
       116   5  2.887966E+05  8.591681E+04  7.748819E+01  1.685094E+05  1.165035E+04 -3.077965E+04
       116   6  2.852149E+05  8.953663E+04  5.971507E+01  1.726136E+05  1.008389E+04 -2.673664E+04
       116   7 -1.480438E+05 -6.594502E+04 -6.868059E+04  5.075451E+04  2.063911E+04 -3.182505E+04
       116   8 -9.374049E+04 -5.131662E+04 -6.041650E+04  6.086918E+04  1.949768E+04 -2.782643E+04
       116   9 -4.668803E+04 -2.954489E+04 -5.240036E+04  7.919737E+04  1.828744E+04 -2.364799E+04
       116  10  7.186403E+05  2.449845E+05  6.893485E+04  2.945603E+05  8.854084E-09 -9.491136E-11
       116  11  6.714909E+05  2.231644E+05  6.056691E+04  2.762120E+05  7.945594E-10  9.733729E-10
       116  12  6.172324E+05  2.086273E+05  5.251534E+04  2.660758E+05 -3.869043E-09  4.223598E-09
       116  13  2.851945E+05  8.950840E+04  1.268472E+02  1.726170E+05 -4.532477E-10 -3.511135E-09
       116  14  2.887962E+05  8.591575E+04  7.545244E+01  1.685097E+05  6.876477E-09 -2.127321E-09
       116  15  2.852146E+05  8.953583E+04  5.818038E+01  1.726138E+05 -1.381748E-09  1.079607E-09
       116  16 -1.480445E+05 -6.594622E+04 -6.868329E+04  5.075504E+04 -6.377512E-09 -6.533744E-09
       116  17 -9.374110E+04 -5.131755E+04 -6.041867E+04  6.086961E+04 -5.959122E-09 -1.698476E-09
       116  18 -4.668854E+04 -2.954558E+04 -5.240204E+04  7.919772E+04  7.922609E-10 -1.429723E-09
       116  19  7.186407E+05  2.449860E+05  6.893755E+04  2.945601E+05 -5.651249E+03  3.746294E+04
       116  20  6.714912E+05  2.231656E+05  6.056907E+04  2.762119E+05 -3.797897E+03  3.373480E+04
       116  21  6.172326E+05  2.086283E+05  5.251702E+04  2.660757E+05 -1.875791E+03  2.982700E+04
       116  22  2.851950E+05  8.950973E+04  1.294278E+02  1.726167E+05 -1.314799E+04  3.464294E+04
       116  23  2.887966E+05  8.591681E+04  7.748819E+01  1.685094E+05 -1.165035E+04  3.077965E+04
       116  24  2.852149E+05  8.953663E+04  5.971507E+01  1.726136E+05 -1.008389E+04  2.673664E+04
       116  25 -1.480438E+05 -6.594502E+04 -6.868059E+04  5.075451E+04 -2.063911E+04  3.182505E+04
       116  26 -9.374049E+04 -5.131662E+04 -6.041650E+04  6.086918E+04 -1.949768E+04  2.782643E+04
       116  27 -4.668803E+04 -2.954489E+04 -5.240036E+04  7.919737E+04 -1.828744E+04  2.364799E+04
       117   1  5.851489E+05  1.970962E+05  4.720742E+04  2.570681E+05  9.683848E+02 -2.740744E+04
       117   2  5.381063E+05  1.753639E+05  3.932352E+04  2.387059E+05 -6.615180E+02 -2.328395E+04
       117   3  4.838749E+05  1.608467E+05  3.149285E+04  2.285563E+05 -2.298448E+03 -1.914374E+04
       117   4  2.852154E+05  8.954327E+04  5.726076E+01  1.726119E+05  9.163478E+03 -2.432135E+04
       117   5  2.888202E+05  8.594855E+04  6.897109E+01  1.685045E+05  7.566519E+03 -2.018463E+04
       117   6  2.852267E+05  8.956208E+04  1.073323E+02  1.726086E+05  5.962532E+03 -1.603120E+04
       117   7 -1.462098E+04 -1.800011E+04 -4.709415E+04  8.819419E+04  1.735438E+04 -2.123683E+04
       117   8  3.960268E+04 -3.459591E+03 -3.918596E+04  9.833008E+04  1.579101E+04 -1.708664E+04
       117   9  8.662336E+04  1.828256E+04 -3.127795E+04  1.166784E+05  1.422062E+04 -1.291975E+04
       117  10  5.851487E+05  1.970954E+05  4.720601E+04  2.570681E+05  8.280937E-09  7.703880E-09
       117  11  5.381062E+05  1.753633E+05  3.932250E+04  2.387059E+05  3.817278E-08  1.772161E-08
       117  12  4.838748E+05  1.608463E+05  3.149215E+04  2.285563E+05  6.900790E-08  2.586576E-08
       117  13  2.852152E+05  8.954261E+04  5.599115E+01  1.726121E+05  9.383353E-10  3.905152E-09
       117  14  2.888201E+05  8.594810E+04  6.809773E+01  1.685046E+05  7.433133E-09  9.905712E-09
       117  15  2.852266E+05  8.956180E+04  1.067825E+02  1.726087E+05  1.047449E-08  1.698312E-08
       117  16 -1.462143E+04 -1.800067E+04 -4.709557E+04  8.819449E+04 -8.648351E-09 -5.276899E-09
       117  17  3.960233E+04 -3.459971E+03 -3.918698E+04  9.833029E+04 -3.002265E-08 -1.676287E-08
       117  18  8.662310E+04  1.828233E+04 -3.127864E+04  1.166786E+05 -3.789606E-08 -2.671435E-08
       117  19  5.851489E+05  1.970962E+05  4.720742E+04  2.570681E+05 -9.683848E+02  2.740744E+04
       117  20  5.381063E+05  1.753639E+05  3.932352E+04  2.387059E+05  6.615180E+02  2.328395E+04
       117  21  4.838749E+05  1.608467E+05  3.149285E+04  2.285563E+05  2.298448E+03  1.914374E+04
       117  22  2.852154E+05  8.954327E+04  5.726076E+01  1.726119E+05 -9.163478E+03  2.432135E+04
       117  23  2.888202E+05  8.594855E+04  6.897109E+01  1.685045E+05 -7.566519E+03  2.018463E+04
       117  24  2.852267E+05  8.956208E+04  1.073323E+02  1.726086E+05 -5.962532E+03  1.603120E+04
       117  25 -1.462098E+04 -1.800011E+04 -4.709415E+04  8.819419E+04 -1.735438E+04  2.123683E+04
       117  26  3.960268E+04 -3.459591E+03 -3.918596E+04  9.833008E+04 -1.579101E+04  1.708664E+04
       117  27  8.662336E+04  1.828256E+04 -3.127795E+04  1.166784E+05 -1.422062E+04  1.291975E+04
       118   1  4.518316E+05  1.493186E+05  2.624078E+04  2.195528E+05 -3.232639E+03 -1.672055E+04
       118   2  4.048188E+05  1.275918E+05  1.848747E+04  2.012011E+05 -4.908517E+03 -1.259036E+04
       118   3  3.506175E+05  1.130747E+05  1.081266E+04  1.910602E+05 -6.581759E+03 -8.468051E+03
       118   4  2.852329E+05  8.956473E+04  1.383770E+02  1.726092E+05  5.026167E+03 -1.360847E+04
       118   5  2.888283E+05  8.595928E+04  2.420985E+02  1.685046E+05  3.334504E+03 -9.483819E+03
       118   6  2.852367E+05  8.956687E+04  4.369090E+02  1.726099E+05  1.645474E+03 -5.367069E+03
       118   7  1.186623E+05  2.981309E+04 -2.596477E+04  1.256770E+05  1.328273E+04 -1.049724E+04
       118   8  1.728517E+05  4.432796E+04 -1.800342E+04  1.358136E+05  1.157595E+04 -6.377875E+03
       118   9  2.198606E+05  6.605951E+04 -9.938644E+03  1.541615E+05  9.871794E+03 -2.266434E+03
       118  10  4.518315E+05  1.493183E+05  2.624024E+04  2.195527E+05  1.029136E-08  1.206624E-09
       118  11  4.048187E+05  1.275916E+05  1.848713E+04  2.012011E+05  4.519128E-09 -3.042995E-09
       118  12  3.506174E+05  1.130746E+05  1.081245E+04  1.910601E+05 -2.316679E-08 -1.818127E-08
       118  13  2.852328E+05  8.956453E+04  1.379814E+02  1.726093E+05  3.143224E-08  2.622073E-08
       118  14  2.888283E+05  8.595918E+04  2.419086E+02  1.685046E+05  3.698422E-08  1.519679E-08
       118  15  2.852367E+05  8.956684E+04  4.368498E+02  1.726099E+05  8.390486E-09  1.261919E-08
       118  16  1.186620E+05  2.981292E+04 -2.596530E+04  1.256771E+05  4.258819E-08  7.528994E-09
       118  17  1.728516E+05  4.432788E+04 -1.800374E+04  1.358136E+05  6.712534E-08  2.687269E-08
       118  18  2.198605E+05  6.605948E+04 -9.938837E+03  1.541616E+05  5.124488E-08  2.070836E-08
       118  19  4.518316E+05  1.493186E+05  2.624078E+04  2.195528E+05  3.232639E+03  1.672055E+04
       118  20  4.048188E+05  1.275918E+05  1.848747E+04  2.012011E+05  4.908517E+03  1.259036E+04
       118  21  3.506175E+05  1.130747E+05  1.081266E+04  1.910602E+05  6.581759E+03  8.468051E+03
       118  22  2.852329E+05  8.956473E+04  1.383770E+02  1.726092E+05 -5.026167E+03  1.360847E+04
       118  23  2.888283E+05  8.595928E+04  2.420985E+02  1.685046E+05 -3.334504E+03  9.483819E+03
       118  24  2.852367E+05  8.956687E+04  4.369090E+02  1.726099E+05 -1.645474E+03  5.367069E+03
       118  25  1.186623E+05  2.981309E+04 -2.596477E+04  1.256770E+05 -1.328273E+04  1.049724E+04
       118  26  1.728517E+05  4.432796E+04 -1.800342E+04  1.358136E+05 -1.157595E+04  6.377875E+03
       118  27  2.198606E+05  6.605951E+04 -9.938644E+03  1.541615E+05 -9.871794E+03  2.266434E+03
       119   1  3.185911E+05  1.015536E+05  5.668221E+03  1.820786E+05 -7.583738E+03 -6.077242E+03
       119   2  2.715719E+05  7.981304E+04 -1.788617E+03  1.637143E+05 -9.486680E+03 -2.093244E+03
       119   3  2.174255E+05  6.534219E+04 -8.966705E+03  1.535498E+05 -1.135610E+04  1.802166E+03
       119   4  2.852545E+05  8.956416E+04  5.818805E+02  1.726163E+05  6.480719E+02 -2.974447E+03
       119   5  2.888089E+05  8.596172E+04  1.055671E+03  1.684982E+05 -1.430552E+03  9.432649E+02
       119   6  2.852677E+05  8.966329E+04  1.947020E+03  1.725786E+05 -3.475694E+03  4.772398E+03
       119   7  2.519196E+05  7.757504E+04 -4.504078E+03  1.631547E+05  8.879323E+03  1.281347E+02
       119   8  3.060463E+05  9.211049E+04  3.900232E+03  1.732822E+05  6.625813E+03  3.979862E+03
       119   9  3.531158E+05  1.139852E+05  1.286114E+04  1.916095E+05  4.405711E+03  7.743006E+03
       119  10  3.185910E+05  1.015535E+05  5.668043E+03  1.820785E+05  6.732609E-09 -2.164519E-09
       119  11  2.715718E+05  7.981301E+04 -1.788795E+03  1.637143E+05  3.662120E-08  8.364313E-09
       119  12  2.174253E+05  6.534215E+04 -8.966954E+03  1.535499E+05  6.396410E-08  1.481895E-08
       119  13  2.852545E+05  8.956415E+04  5.818630E+02  1.726163E+05  3.927075E-09  1.232612E-09
       119  14  2.888089E+05  8.596172E+04  1.055666E+03  1.684982E+05 -1.554627E-09  6.669157E-09
       119  15  2.852677E+05  8.966326E+04  1.946955E+03  1.725786E+05  1.156590E-08  1.477564E-08
       119  16  2.519195E+05  7.757502E+04 -4.504226E+03  1.631547E+05 -3.456487E-09 -9.748846E-10
       119  17  3.060463E+05  9.211046E+04  3.900119E+03  1.732822E+05 -2.775459E-08 -1.528739E-08
       119  18  3.531158E+05  1.139851E+05  1.286099E+04  1.916095E+05 -4.758123E-08 -2.031247E-08
       119  19  3.185911E+05  1.015536E+05  5.668221E+03  1.820786E+05  7.583738E+03  6.077242E+03
       119  20  2.715719E+05  7.981304E+04 -1.788617E+03  1.637143E+05  9.486680E+03  2.093244E+03
       119  21  2.174255E+05  6.534219E+04 -8.966705E+03  1.535498E+05  1.135610E+04 -1.802166E+03
       119  22  2.852545E+05  8.956416E+04  5.818805E+02  1.726163E+05 -6.480719E+02  2.974447E+03
       119  23  2.888089E+05  8.596172E+04  1.055671E+03  1.684982E+05  1.430552E+03 -9.432649E+02
       119  24  2.852677E+05  8.966329E+04  1.947020E+03  1.725786E+05  3.475694E+03 -4.772398E+03
       119  25  2.519196E+05  7.757504E+04 -4.504078E+03  1.631547E+05 -8.879323E+03 -1.281347E+02
       119  26  3.060463E+05  9.211049E+04  3.900232E+03  1.732822E+05 -6.625813E+03 -3.979862E+03
       119  27  3.531158E+05  1.139852E+05  1.286114E+04  1.916095E+05 -4.405711E+03 -7.743006E+03
       120   1  1.853582E+05  5.391102E+04 -1.371152E+04  1.447222E+05 -1.264855E+04  4.008363E+03
       120   2  1.387487E+05  3.198609E+04 -2.019910E+04  1.255552E+05 -1.472863E+04  7.316040E+03
       120   3  8.551994E+04  1.838656E+04 -2.582519E+04  1.142624E+05 -1.648663E+04  9.770179E+03
       120   4  2.854048E+05  8.967276E+04  2.602258E+03  1.726156E+05 -4.717715E+03  6.997458E+03
       120   5  2.887140E+05  8.652642E+04  4.797641E+03  1.682321E+05 -8.487110E+03  9.667987E+03
       120   6  2.857355E+05  9.203930E+04  9.192454E+03  1.717214E+05 -1.193452E+04  1.148508E+04
       120   7  3.854621E+05  1.254355E+05  1.891607E+04  2.005133E+05  3.214468E+03  9.987054E+03
       120   8  4.387025E+05  1.410688E+05  2.979375E+04  2.109184E+05 -2.244033E+03  1.202054E+04
       120   9  4.859913E+05  1.656955E+05  4.420831E+04  2.291972E+05 -7.380901E+03  1.320056E+04
       120  10  1.853580E+05  5.391096E+04 -1.371185E+04  1.447223E+05 -4.485132E-08 -2.939860E-08
       120  11  1.387484E+05  3.198597E+04 -2.019961E+04  1.255553E+05 -2.661887E-08 -1.542557E-08
       120  12  8.551962E+04  1.838638E+04 -2.582588E+04  1.142625E+05 -7.294831E-09 -3.911595E-09
       120  13  2.854047E+05  8.967270E+04  2.602124E+03  1.726157E+05  5.923178E-09  1.533649E-08
       120  14  2.887139E+05  8.652630E+04  4.797330E+03  1.682322E+05 -1.606700E-09  9.085646E-09
       120  15  2.857354E+05  9.203912E+04  9.191938E+03  1.717215E+05 -1.067245E-09 -9.186749E-10
       120  16  3.854621E+05  1.254354E+05  1.891586E+04  2.005132E+05  6.639210E-08  2.348458E-08
       120  17  4.387024E+05  1.410687E+05  2.979346E+04  2.109184E+05  3.139831E-08  1.430682E-08
       120  18  4.859912E+05  1.656953E+05  4.420788E+04  2.291973E+05  4.064101E-09  2.417272E-09
       120  19  1.853582E+05  5.391102E+04 -1.371152E+04  1.447222E+05  1.264855E+04 -4.008363E+03
       120  20  1.387487E+05  3.198609E+04 -2.019910E+04  1.255552E+05  1.472863E+04 -7.316040E+03
       120  21  8.551994E+04  1.838656E+04 -2.582519E+04  1.142624E+05  1.648663E+04 -9.770179E+03
       120  22  2.854048E+05  8.967276E+04  2.602258E+03  1.726156E+05  4.717715E+03 -6.997458E+03
       120  23  2.887140E+05  8.652642E+04  4.797641E+03  1.682321E+05  8.487110E+03 -9.667987E+03
       120  24  2.857355E+05  9.203930E+04  9.192454E+03  1.717214E+05  1.193452E+04 -1.148508E+04
       120  25  3.854621E+05  1.254355E+05  1.891607E+04  2.005133E+05 -3.214468E+03 -9.987054E+03
       120  26  4.387025E+05  1.410688E+05  2.979375E+04  2.109184E+05  2.244033E+03 -1.202054E+04
       120  27  4.859913E+05  1.656955E+05  4.420831E+04  2.291972E+05  7.380901E+03 -1.320056E+04
       121   1  5.297000E+04  8.383983E+03 -2.914856E+04  1.071262E+05 -1.900605E+04  1.078792E+04
       121   2  1.498007E+04 -1.608366E+04 -3.373221E+04  7.382027E+04 -1.441730E+04  1.073670E+04
       121   3 -2.336600E+04 -1.568187E+04 -3.626773E+04  4.302805E+04 -6.735719E+03  2.471822E+03
       121   4  2.872134E+05  9.247787E+04  1.233215E+04  1.719891E+05 -1.397169E+04  1.268432E+04
       121   5  2.884558E+05  9.730063E+04  2.365271E+04  1.636222E+05 -2.562843E+04  6.511754E+03
       121   6  2.925549E+05  1.302045E+05  4.989134E+04  1.577695E+05 -3.419345E+04 -7.872370E+03
       121   7  5.215188E+05  1.765784E+05  5.381230E+04  2.368757E+05 -8.935219E+03  1.458150E+04
       121   8  5.620089E+05  2.106973E+05  8.103402E+04  2.534627E+05 -3.684482E+04  2.284226E+03
       121   9  6.085699E+05  2.761105E+05  1.360427E+05  2.725668E+05 -6.166580E+04 -1.822511E+04
       121  10  5.296958E+04  8.383761E+03 -2.914946E+04  1.071264E+05 -6.495412E-09  1.772456E-10
       121  11  1.497982E+04 -1.608384E+04 -3.373282E+04  7.382040E+04 -2.785621E-09  1.353703E-09
       121  12 -2.336605E+04 -1.568189E+04 -3.626783E+04  4.302806E+04  2.651541E-09 -6.484166E-11
       121  13  2.872132E+05  9.247765E+04  1.233148E+04  1.719892E+05  3.051707E-09  4.115770E-09
       121  14  2.884551E+05  9.730041E+04  2.365140E+04  1.636224E+05 -2.909358E-09  1.139843E-09
       121  15  2.925536E+05  1.302041E+05  4.988903E+04  1.577693E+05  6.508941E-09  2.819180E-09
       121  16  5.215186E+05  1.765781E+05  5.381175E+04  2.368758E+05  6.328979E-09 -3.358458E-10
       121  17  5.620075E+05  2.106970E+05  8.103146E+04  2.534628E+05 -3.916473E-10  2.701585E-09
       121  18  6.085658E+05  2.761092E+05  1.360350E+05  2.725659E+05  5.578255E-10 -8.410895E-10
       121  19  5.297000E+04  8.383983E+03 -2.914856E+04  1.071262E+05  1.900605E+04 -1.078792E+04
       121  20  1.498007E+04 -1.608366E+04 -3.373221E+04  7.382027E+04  1.441730E+04 -1.073670E+04
       121  21 -2.336600E+04 -1.568187E+04 -3.626773E+04  4.302805E+04  6.735719E+03 -2.471822E+03
       121  22  2.872134E+05  9.247787E+04  1.233215E+04  1.719891E+05  1.397169E+04 -1.268432E+04
       121  23  2.884558E+05  9.730063E+04  2.365271E+04  1.636222E+05  2.562843E+04 -6.511754E+03
       121  24  2.925549E+05  1.302045E+05  4.989134E+04  1.577695E+05  3.419345E+04  7.872370E+03
       121  25  5.215188E+05  1.765784E+05  5.381230E+04  2.368757E+05  8.935219E+03 -1.458150E+04
       121  26  5.620089E+05  2.106973E+05  8.103402E+04  2.534627E+05  3.684482E+04 -2.284226E+03
       121  27  6.085699E+05  2.761105E+05  1.360427E+05  2.725668E+05  6.166580E+04  1.822511E+04
       122   1 -2.493066E+05 -1.257658E+06 -2.913293E+05  6.930878E+04 -2.848097E+03 -1.260601E+05
       122   2 -5.966620E+04 -1.166923E+06 -1.715930E+05  1.031363E+04 -8.332531E+03 -7.741695E+04
       122   3 -6.897430E+04 -1.131719E+06 -1.331996E+05  2.136300E+04 -5.814824E+03 -2.875639E+04
       122   4 -1.449260E+05 -8.406951E+05 -1.875986E+05  3.619498E+04 -2.846820E+03 -1.229573E+05
       122   5  2.853832E+04 -8.131474E+05 -8.488827E+04  1.300727E+03 -8.331800E+03 -7.697181E+04
       122   6  3.576949E+03 -8.406389E+05 -6.163482E+04  3.645235E+04 -5.812859E+03 -3.097411E+04
       122   7 -4.055442E+04 -4.235714E+05 -8.388032E+04  3.058948E+03 -2.845878E+03 -1.198523E+05
       122   8  1.167339E+05 -4.592578E+05  1.807360E+03 -7.717292E+03 -8.331083E+03 -7.652641E+04
       122   9  7.612276E+04 -5.494806E+05  9.923821E+03  5.154882E+04 -5.811002E+03 -3.319287E+04
       122  10 -2.493109E+05 -1.257676E+06 -2.913592E+05  6.930849E+04 -7.949618E-11 -6.471564E-10
       122  11 -5.966789E+04 -1.166929E+06 -1.716045E+05  1.031311E+04 -7.620941E-09 -2.493233E-09
       122  12 -6.897456E+04 -1.131720E+06 -1.332012E+05  2.136287E+04 -2.631861E-09 -1.955697E-09
       122  13 -1.449301E+05 -8.407114E+05 -1.876270E+05  3.619470E+04  2.452308E-09  1.138639E-09
       122  14  2.853666E+04 -8.131538E+05 -8.489955E+04  1.300210E+03 -6.559401E-10  2.537647E-10
       122  15  3.576655E+03 -8.406400E+05 -6.163669E+04  3.645221E+04  3.678372E-09 -5.720461E-12
       122  16 -4.055829E+04 -4.235868E+05 -8.390734E+04  3.058673E+03  9.967998E-10  2.620104E-09
       122  17  1.167322E+05 -4.592641E+05  1.796216E+03 -7.717805E+03 -3.447944E-10  1.327923E-10
       122  18  7.612243E+04 -5.494818E+05  9.921685E+03  5.154866E+04  4.493975E-10  2.325972E-09
       122  19 -2.493066E+05 -1.257658E+06 -2.913293E+05  6.930878E+04  2.848097E+03  1.260601E+05
       122  20 -5.966620E+04 -1.166923E+06 -1.715930E+05  1.031363E+04  8.332531E+03  7.741695E+04
       122  21 -6.897430E+04 -1.131719E+06 -1.331996E+05  2.136300E+04  5.814824E+03  2.875639E+04
       122  22 -1.449260E+05 -8.406951E+05 -1.875986E+05  3.619498E+04  2.846820E+03  1.229573E+05
       122  23  2.853832E+04 -8.131474E+05 -8.488827E+04  1.300727E+03  8.331800E+03  7.697181E+04
       122  24  3.576949E+03 -8.406389E+05 -6.163482E+04  3.645235E+04  5.812859E+03  3.097411E+04
       122  25 -4.055442E+04 -4.235714E+05 -8.388032E+04  3.058948E+03  2.845878E+03  1.198523E+05
       122  26  1.167339E+05 -4.592578E+05  1.807360E+03 -7.717292E+03  8.331083E+03  7.652641E+04
       122  27  7.612276E+04 -5.494806E+05  9.923821E+03  5.154882E+04  5.811002E+03  3.319287E+04
       123   1 -5.399419E+04 -9.759025E+05 -9.079320E+04  4.297847E+04 -3.198124E+03 -2.017441E+04
       123   2 -1.220641E+04 -9.036157E+05 -6.231993E+04  8.160541E+02 -1.744073E+03  2.126143E+03
       123   3 -2.337169E+04 -8.472808E+05 -6.157919E+04  3.055930E+04  4.180475E+00  2.442884E+04
       123   4 -1.809283E+04 -8.319431E+05 -5.546683E+04  3.678042E+04 -3.197423E+03 -2.062341E+04
       123   5  7.646593E+03 -8.239749E+05 -4.277127E+04  8.279604E+02 -1.743531E+03  1.581833E+03
       123   6 -1.954649E+04 -8.319438E+05 -5.773860E+04  3.678124E+04  4.983640E+00  2.378693E+04
       123   7  1.780714E+04 -6.879647E+05 -2.014196E+04  3.058093E+04 -3.196713E+03 -2.107251E+04
       123   8  2.749913E+04 -7.443283E+05 -2.322308E+04  8.398696E+02 -1.742989E+03  1.037453E+03
       123   9 -1.572115E+04 -8.166065E+05 -5.389801E+04  4.300333E+04  5.773911E+00  2.314500E+04
       123  10 -5.399431E+04 -9.759029E+05 -9.079398E+04  4.297842E+04  3.801658E-09 -1.712908E-09
       123  11 -1.220642E+04 -9.036157E+05 -6.231994E+04  8.160571E+02  4.218733E-09  5.465695E-11
       123  12 -2.337185E+04 -8.472815E+05 -6.158031E+04  3.055930E+04  5.307708E-10  2.744139E-09
       123  13 -1.809295E+04 -8.319435E+05 -5.546765E+04  3.678037E+04  3.947481E-09 -5.324529E-10
       123  14  7.646589E+03 -8.239749E+05 -4.277128E+04  8.279626E+02  2.707807E-09 -1.050735E-09
       123  15 -1.954664E+04 -8.319444E+05 -5.773967E+04  3.678124E+04  5.306433E-10 -2.857980E-10
       123  16  1.780701E+04 -6.879652E+05 -2.014281E+04  3.058088E+04 -5.259090E-10  3.372866E-09
       123  17  2.749913E+04 -7.443283E+05 -2.322309E+04  8.398711E+02 -1.326230E-09 -1.115280E-09
       123  18 -1.572130E+04 -8.166071E+05 -5.389902E+04  4.300333E+04  2.282611E-09 -3.352848E-09
       123  19 -5.399419E+04 -9.759025E+05 -9.079320E+04  4.297847E+04  3.198124E+03  2.017441E+04
       123  20 -1.220641E+04 -9.036157E+05 -6.231993E+04  8.160541E+02  1.744073E+03 -2.126143E+03
       123  21 -2.337169E+04 -8.472808E+05 -6.157919E+04  3.055930E+04 -4.180475E+00 -2.442884E+04
       123  22 -1.809283E+04 -8.319431E+05 -5.546683E+04  3.678042E+04  3.197423E+03  2.062341E+04
       123  23  7.646593E+03 -8.239749E+05 -4.277127E+04  8.279604E+02  1.743531E+03 -1.581833E+03
       123  24 -1.954649E+04 -8.319438E+05 -5.773860E+04  3.678124E+04 -4.983640E+00 -2.378693E+04
       123  25  1.780714E+04 -6.879647E+05 -2.014196E+04  3.058093E+04  3.196713E+03  2.107251E+04
       123  26  2.749913E+04 -7.443283E+05 -2.322308E+04  8.398696E+02  1.742989E+03 -1.037453E+03
       123  27 -1.572115E+04 -8.166065E+05 -5.389801E+04  4.300333E+04 -5.773911E+00 -2.314500E+04
       124   1  3.736458E+04 -7.086460E+05 -3.208286E+04  5.304589E+04  2.295615E+03  3.635715E+04
       124   2  7.968047E+04 -6.152231E+05 -4.245004E+04 -8.469533E+03  4.702679E+03  8.368628E+04
       124   3 -9.053970E+04 -5.808020E+05 -1.367135E+05  1.266924E+03  1.694549E+03  1.310146E+05
       124   4  4.241376E+03 -8.415805E+05 -6.482899E+04  3.670477E+04  2.296248E+03  3.461829E+04
       124   5  3.064751E+04 -8.119386E+05 -9.062524E+04  9.773408E+02  4.703959E+03  8.375039E+04
       124   6 -1.558355E+05 -8.416405E+05 -2.015930E+05  3.650430E+04  1.699653E+03  1.328767E+05
       124   7 -2.888214E+04 -9.744983E+05 -9.757627E+04  2.036716E+04  2.296973E+03  3.287981E+04
       124   8 -1.838798E+04 -1.008619E+06 -1.388032E+05  1.042122E+04  4.705241E+03  8.381447E+04
       124   9 -2.211318E+05 -1.102415E+06 -2.664769E+05  7.172687E+04  1.704971E+03  1.347380E+05
       124  10  3.736422E+04 -7.086475E+05 -3.208536E+04  5.304583E+04 -6.544741E-10 -1.086997E-09
       124  11  7.967856E+04 -6.152306E+05 -4.246325E+04 -8.469850E+03 -2.369203E-09 -5.162755E-10
       124  12 -9.054432E+04 -5.808204E+05 -1.367458E+05  1.266745E+03 -1.222728E-09  1.031547E-09
       124  13  4.241048E+03 -8.415818E+05 -6.483126E+04  3.670471E+04  8.447014E-09  8.065742E-11
       124  14  3.064560E+04 -8.119461E+05 -9.063848E+04  9.770234E+02 -3.803772E-09  4.296414E-10
       124  15 -1.558402E+05 -8.416595E+05 -2.016262E+05  3.650412E+04  6.968073E-10  1.971222E-09
       124  16 -2.888243E+04 -9.744995E+05 -9.757832E+04  2.036710E+04  2.390531E-09  2.256106E-09
       124  17 -1.838989E+04 -1.008626E+06 -1.388165E+05  1.042090E+04 -6.165530E-09 -4.413422E-10
       124  18 -2.211366E+05 -1.102434E+06 -2.665111E+05  7.172668E+04 -2.937561E-09 -1.531681E-09
       124  19  3.736458E+04 -7.086460E+05 -3.208286E+04  5.304589E+04 -2.295615E+03 -3.635715E+04
       124  20  7.968047E+04 -6.152231E+05 -4.245004E+04 -8.469533E+03 -4.702679E+03 -8.368628E+04
       124  21 -9.053970E+04 -5.808020E+05 -1.367135E+05  1.266924E+03 -1.694549E+03 -1.310146E+05
       124  22  4.241376E+03 -8.415805E+05 -6.482899E+04  3.670477E+04 -2.296248E+03 -3.461829E+04
       124  23  3.064751E+04 -8.119386E+05 -9.062524E+04  9.773408E+02 -4.703959E+03 -8.375039E+04
       124  24 -1.558355E+05 -8.416405E+05 -2.015930E+05  3.650430E+04 -1.699653E+03 -1.328767E+05
       124  25 -2.888214E+04 -9.744983E+05 -9.757627E+04  2.036716E+04 -2.296973E+03 -3.287981E+04
       124  26 -1.838798E+04 -1.008619E+06 -1.388032E+05  1.042122E+04 -4.705241E+03 -8.381447E+04
       124  27 -2.211318E+05 -1.102415E+06 -2.664769E+05  7.172687E+04 -1.704971E+03 -1.347380E+05
       125   1  4.149881E+05  1.392826E+05  8.679553E+04  1.527384E+05  4.609366E+04  1.667022E+04
       125   2  3.996773E+05  6.712865E+04  4.263866E+04  1.556161E+05  2.960434E+04  9.112005E+03
       125   3  4.053208E+05  6.316931E+04  2.838514E+04  1.478965E+05  1.253468E+04  3.092999E+03
       125   4  3.673011E+05  1.048352E+05  7.060788E+04  1.228887E+05  4.508815E+04  1.628938E+04
       125   5  3.532140E+05  4.486524E+04  2.956279E+04  1.379796E+05  2.939562E+04  9.032975E+03
       125   6  3.599253E+05  5.293432E+04  1.779166E+04  1.424727E+05  1.312259E+04  3.314977E+03
       125   7  3.196175E+05  7.039079E+04  5.442023E+04  9.304202E+04  4.408273E+04  1.590865E+04
       125   8  3.067529E+05  2.260245E+04  1.648675E+04  1.203445E+05  2.918693E+04  8.953955E+03
       125   9  3.145316E+05  4.269924E+04  7.198018E+03  1.370491E+05  1.371045E+04  3.536955E+03
       125  10  4.149857E+05  1.392817E+05  8.679102E+04  1.527377E+05  3.918332E-09  3.647225E-09
       125  11  3.996763E+05  6.712832E+04  4.263686E+04  1.556158E+05 -2.880286E-10  6.910641E-09
       125  12  4.053207E+05  6.316926E+04  2.838483E+04  1.478965E+05 -2.592727E-09 -1.115107E-09
       125  13  3.672989E+05  1.048344E+05  7.060356E+04  1.228881E+05 -1.503925E-09 -2.051622E-09
       125  14  3.532130E+05  4.486492E+04  2.956101E+04  1.379794E+05 -4.035360E-09 -1.840000E-09
       125  15  3.599251E+05  5.293427E+04  1.779131E+04  1.424727E+05  3.175942E-09 -3.323655E-11
       125  16  3.196153E+05  7.039000E+04  5.441611E+04  9.304145E+04 -8.485640E-10 -3.803132E-10
       125  17  3.067520E+05  2.260213E+04  1.648500E+04  1.203443E+05  8.614992E-10  6.692674E-09
       125  18  3.145314E+05  4.269918E+04  7.197642E+03  1.370491E+05  3.315735E-09  2.693027E-09
       125  19  4.149881E+05  1.392826E+05  8.679553E+04  1.527384E+05 -4.609366E+04 -1.667022E+04
       125  20  3.996773E+05  6.712865E+04  4.263866E+04  1.556161E+05 -2.960434E+04 -9.112005E+03
       125  21  4.053208E+05  6.316931E+04  2.838514E+04  1.478965E+05 -1.253468E+04 -3.092999E+03
       125  22  3.673011E+05  1.048352E+05  7.060788E+04  1.228887E+05 -4.508815E+04 -1.628938E+04
       125  23  3.532140E+05  4.486524E+04  2.956279E+04  1.379796E+05 -2.939562E+04 -9.032975E+03
       125  24  3.599253E+05  5.293432E+04  1.779166E+04  1.424727E+05 -1.312259E+04 -3.314977E+03
       125  25  3.196175E+05  7.039079E+04  5.442023E+04  9.304202E+04 -4.408273E+04 -1.590865E+04
       125  26  3.067529E+05  2.260245E+04  1.648675E+04  1.203445E+05 -2.918693E+04 -8.953955E+03
       125  27  3.145316E+05  4.269924E+04  7.198018E+03  1.370491E+05 -1.371045E+04 -3.536955E+03
       126   1  3.844472E+05  7.172683E+04  2.177124E+04  1.472402E+05  1.031087E+04  2.787306E+03
       126   2  3.764341E+05  5.882761E+04  1.180871E+04  1.426315E+05  6.513293E+03  1.712739E+03
       126   3  3.663240E+05  5.756650E+04  6.377930E+03  1.421559E+05  2.673760E+03  7.496211E+02
       126   4  3.576362E+05  6.009603E+04  1.444198E+04  1.383140E+05  1.044401E+04  2.837508E+03
       126   5  3.583107E+05  5.160968E+04  6.982815E+03  1.372564E+05  6.704195E+03  1.784765E+03
       126   6  3.568767E+05  5.475010E+04  4.009809E+03  1.403318E+05  2.922373E+03  8.434376E+02
       126   7  3.308259E+05  4.846536E+04  7.112657E+03  1.293881E+05  1.057715E+04  2.887706E+03
       126   8  3.401876E+05  4.439180E+04  2.156904E+03  1.318814E+05  6.895090E+03  1.856789E+03
       126   9  3.474296E+05  5.193371E+04  1.641689E+03  1.385078E+05  3.170982E+03  9.372529E+02
       126  10  3.844471E+05  7.172679E+04  2.177102E+04  1.472402E+05 -1.815099E-09 -1.692850E-09
       126  11  3.764341E+05  5.882759E+04  1.180862E+04  1.426315E+05 -1.825923E-09  3.145727E-09
       126  12  3.663240E+05  5.756650E+04  6.377915E+03  1.421559E+05 -3.549666E-09  2.167089E-09
       126  13  3.576361E+05  6.009600E+04  1.444176E+04  1.383139E+05  1.304378E-09  2.007047E-09
       126  14  3.583107E+05  5.160967E+04  6.982725E+03  1.372564E+05  6.619900E-09 -7.772279E-09
       126  15  3.568767E+05  5.475010E+04  4.009791E+03  1.403318E+05 -1.168302E-09  5.582916E-09
       126  16  3.308258E+05  4.846532E+04  7.112431E+03  1.293881E+05  4.567372E-09 -2.675325E-09
       126  17  3.401876E+05  4.439179E+04  2.156809E+03  1.318814E+05 -3.430826E-10  2.005809E-09
       126  18  3.474296E+05  5.193370E+04  1.641668E+03  1.385078E+05 -2.788842E-09  4.267919E-09
       126  19  3.844472E+05  7.172683E+04  2.177124E+04  1.472402E+05 -1.031087E+04 -2.787306E+03
       126  20  3.764341E+05  5.882761E+04  1.180871E+04  1.426315E+05 -6.513293E+03 -1.712739E+03
       126  21  3.663240E+05  5.756650E+04  6.377930E+03  1.421559E+05 -2.673760E+03 -7.496211E+02
       126  22  3.576362E+05  6.009603E+04  1.444198E+04  1.383140E+05 -1.044401E+04 -2.837508E+03
       126  23  3.583107E+05  5.160968E+04  6.982815E+03  1.372564E+05 -6.704195E+03 -1.784765E+03
       126  24  3.568767E+05  5.475010E+04  4.009809E+03  1.403318E+05 -2.922373E+03 -8.434376E+02
       126  25  3.308259E+05  4.846536E+04  7.112657E+03  1.293881E+05 -1.057715E+04 -2.887706E+03
       126  26  3.401876E+05  4.439180E+04  2.156904E+03  1.318814E+05 -6.895090E+03 -1.856789E+03
       126  27  3.474296E+05  5.193371E+04  1.641689E+03  1.385078E+05 -3.170982E+03 -9.372529E+02
       127   1  3.529674E+05  5.422010E+04  2.162901E+03  1.390206E+05  2.031383E+03  8.106396E+02
       127   2  3.458402E+05  4.743472E+04 -1.779788E+03  1.336334E+05  1.036976E+03  9.164930E+02
       127   3  3.340308E+05  4.638495E+04 -4.916013E+03  1.338380E+05  3.937736E+01  1.030850E+03
       127   4  3.565935E+05  5.547098E+04  3.123697E+03  1.398899E+05  2.246973E+03  8.919908E+02
       127   5  3.588965E+05  5.233286E+04  1.640279E+03  1.371961E+05  1.256958E+03  9.994991E+02
       127   6  3.565166E+05  5.492956E+04  9.599088E+02  1.400943E+05  2.637400E+02  1.115506E+03
       127   7  3.602196E+05  5.672185E+04  4.084495E+03  1.407592E+05  2.462564E+03  9.733426E+02
       127   8  3.719530E+05  5.723102E+04  5.060337E+03  1.407590E+05  1.476946E+03  1.082507E+03
       127   9  3.790029E+05  6.347421E+04  6.835789E+03  1.463507E+05  4.881116E+02  1.200165E+03
       127  10  3.529674E+05  5.422010E+04  2.162892E+03  1.390206E+05  3.770667E-09 -5.600720E-10
       127  11  3.458402E+05  4.743472E+04 -1.779791E+03  1.336334E+05 -3.128582E-09 -7.158261E-09
       127  12  3.340308E+05  4.638495E+04 -4.916015E+03  1.338380E+05 -3.036675E-09  7.847611E-10
       127  13  3.565935E+05  5.547097E+04  3.123686E+03  1.398899E+05 -3.075197E-09  3.581814E-09
       127  14  3.588965E+05  5.233286E+04  1.640274E+03  1.371961E+05 -5.775001E-09 -4.989695E-11
       127  15  3.565166E+05  5.492956E+04  9.599064E+02  1.400943E+05 -1.854879E-09  3.037785E-09
       127  16  3.602196E+05  5.672185E+04  4.084482E+03  1.407592E+05 -5.368916E-09  4.049060E-09
       127  17  3.719530E+05  5.723102E+04  5.060330E+03  1.407590E+05 -2.638178E-09  9.029644E-09
       127  18  3.790028E+05  6.347421E+04  6.835786E+03  1.463507E+05  3.482828E-09  9.664587E-09
       127  19  3.529674E+05  5.422010E+04  2.162901E+03  1.390206E+05 -2.031383E+03 -8.106396E+02
       127  20  3.458402E+05  4.743472E+04 -1.779788E+03  1.336334E+05 -1.036976E+03 -9.164930E+02
       127  21  3.340308E+05  4.638495E+04 -4.916013E+03  1.338380E+05 -3.937736E+01 -1.030850E+03
       127  22  3.565935E+05  5.547098E+04  3.123697E+03  1.398899E+05 -2.246973E+03 -8.919908E+02
       127  23  3.588965E+05  5.233286E+04  1.640279E+03  1.371961E+05 -1.256958E+03 -9.994991E+02
       127  24  3.565166E+05  5.492956E+04  9.599088E+02  1.400943E+05 -2.637400E+02 -1.115506E+03
       127  25  3.602196E+05  5.672185E+04  4.084495E+03  1.407592E+05 -2.462564E+03 -9.733426E+02
       127  26  3.719530E+05  5.723102E+04  5.060337E+03  1.407590E+05 -1.476946E+03 -1.082507E+03
       127  27  3.790029E+05  6.347421E+04  6.835789E+03  1.463507E+05 -4.881116E+02 -1.200165E+03
       128   1  3.214552E+05  4.181840E+04 -8.452440E+03  1.304576E+05 -1.950733E+02  1.229800E+03
       128   2  3.144048E+05  3.562105E+04 -1.117785E+04  1.249599E+05 -6.132080E+02  1.564058E+03
       128   3  3.023486E+05  3.458158E+04 -1.369057E+04  1.252202E+05 -1.031990E+03  1.900194E+03
       128   4  3.564735E+05  5.500446E+04  7.643545E+02  1.400544E+05  2.717934E+01  1.313654E+03
       128   5  3.589731E+05  5.240243E+04  5.083387E+02  1.371842E+05 -3.900058E+02  1.648258E+03
       128   6  3.564667E+05  5.495805E+04  4.642670E+02  1.400718E+05 -8.078434E+02  1.984738E+03
       128   7  3.914929E+05  6.819056E+04  9.981016E+03  1.496517E+05  2.494451E+02  1.397513E+03
       128   8  4.035434E+05  6.918395E+04  1.219436E+04  1.494092E+05 -1.667859E+02  1.732464E+03
       128   9  4.105878E+05  7.533476E+04  1.461890E+04  1.549247E+05 -5.836749E+02  2.069291E+03
       128  10  3.214552E+05  4.181840E+04 -8.452443E+03  1.304576E+05 -1.041287E-09 -1.405841E-09
       128  11  3.144048E+05  3.562104E+04 -1.117785E+04  1.249599E+05 -3.311694E-09 -6.588521E-09
       128  12  3.023486E+05  3.458158E+04 -1.369058E+04  1.252202E+05  1.742371E-09  5.637902E-09
       128  13  3.564735E+05  5.500446E+04  7.643513E+02  1.400544E+05 -3.020594E-09  1.325786E-10
       128  14  3.589731E+05  5.240243E+04  5.083333E+02  1.371842E+05 -2.691076E-09 -6.922154E-09
       128  15  3.564667E+05  5.495805E+04  4.642584E+02  1.400718E+05 -1.203304E-09 -8.379646E-09
       128  16  3.914929E+05  6.819055E+04  9.981012E+03  1.496517E+05 -4.832152E-09  5.778122E-09
       128  17  4.035434E+05  6.918394E+04  1.219435E+04  1.494092E+05 -2.722199E-09  2.242235E-09
       128  18  4.105878E+05  7.533476E+04  1.461889E+04  1.549247E+05 -1.597112E-10  1.713429E-09
       128  19  3.214552E+05  4.181840E+04 -8.452440E+03  1.304576E+05  1.950733E+02 -1.229800E+03
       128  20  3.144048E+05  3.562105E+04 -1.117785E+04  1.249599E+05  6.132080E+02 -1.564058E+03
       128  21  3.023486E+05  3.458158E+04 -1.369057E+04  1.252202E+05  1.031990E+03 -1.900194E+03
       128  22  3.564735E+05  5.500446E+04  7.643545E+02  1.400544E+05 -2.717934E+01 -1.313654E+03
       128  23  3.589731E+05  5.240243E+04  5.083387E+02  1.371842E+05  3.900058E+02 -1.648258E+03
       128  24  3.564667E+05  5.495805E+04  4.642670E+02  1.400718E+05  8.078434E+02 -1.984738E+03
       128  25  3.914929E+05  6.819056E+04  9.981016E+03  1.496517E+05 -2.494451E+02 -1.397513E+03
       128  26  4.035434E+05  6.918395E+04  1.219436E+04  1.494092E+05  1.667859E+02 -1.732464E+03
       128  27  4.105878E+05  7.533476E+04  1.461890E+04  1.549247E+05  5.836749E+02 -2.069291E+03
       129   1  2.897585E+05  2.986407E+04 -1.702278E+04  1.218166E+05 -1.207924E+03  2.122561E+03
       129   2  2.826273E+05  2.364225E+04 -1.931194E+04  1.162369E+05 -1.726534E+03  2.424219E+03
       129   3  2.704728E+05  2.267725E+04 -2.130162E+04  1.164725E+05 -2.245331E+03  2.726654E+03
       129   4  3.564605E+05  5.496666E+04  4.998041E+02  1.400895E+05 -9.830224E+02  2.207379E+03
       129   5  3.589780E+05  5.237933E+04  7.059911E+02  1.371663E+05 -1.501287E+03  2.509146E+03
       129   6  3.564719E+05  5.504868E+04  1.211351E+03  1.400584E+05 -2.019745E+03  2.811689E+03
       129   7  4.231668E+05  8.006952E+04  1.802201E+04  1.583641E+05 -7.580947E+02  2.292207E+03
       129   8  4.353341E+05  8.111673E+04  2.072340E+04  1.580980E+05 -1.276011E+03  2.594085E+03
       129   9  4.424779E+05  8.742049E+04  2.372362E+04  1.636472E+05 -1.794124E+03  2.896736E+03
       129  10  2.897585E+05  2.986406E+04 -1.702280E+04  1.218166E+05  7.099871E-09  7.884459E-09
       129  11  2.826273E+05  2.364224E+04 -1.931196E+04  1.162369E+05  3.563522E-09 -3.758668E-09
       129  12  2.704728E+05  2.267724E+04 -2.130164E+04  1.164725E+05 -5.900996E-09 -9.373238E-09
       129  13  3.564605E+05  5.496665E+04  4.997932E+02  1.400895E+05  4.488273E-09  8.004866E-09
       129  14  3.589780E+05  5.237932E+04  7.059750E+02  1.371663E+05  1.323842E-09 -2.476679E-09
       129  15  3.564719E+05  5.504867E+04  1.211328E+03  1.400584E+05 -6.221806E-09 -9.198340E-09
       129  16  4.231668E+05  8.006952E+04  1.802200E+04  1.583641E+05 -6.885344E-09  1.420991E-09
       129  17  4.353341E+05  8.111672E+04  2.072338E+04  1.580980E+05  2.179279E-09  5.709036E-10
       129  18  4.424778E+05  8.742048E+04  2.372360E+04  1.636472E+05  6.775037E-09 -3.711935E-09
       129  19  2.897585E+05  2.986407E+04 -1.702278E+04  1.218166E+05  1.207924E+03 -2.122561E+03
       129  20  2.826273E+05  2.364225E+04 -1.931194E+04  1.162369E+05  1.726534E+03 -2.424219E+03
       129  21  2.704728E+05  2.267725E+04 -2.130162E+04  1.164725E+05  2.245331E+03 -2.726654E+03
       129  22  3.564605E+05  5.496666E+04  4.998041E+02  1.400895E+05  9.830224E+02 -2.207379E+03
       129  23  3.589780E+05  5.237933E+04  7.059911E+02  1.371663E+05  1.501287E+03 -2.509146E+03
       129  24  3.564719E+05  5.504868E+04  1.211351E+03  1.400584E+05  2.019745E+03 -2.811689E+03
       129  25  4.231668E+05  8.006952E+04  1.802201E+04  1.583641E+05  7.580947E+02 -2.292207E+03
       129  26  4.353341E+05  8.111673E+04  2.072340E+04  1.580980E+05  1.276011E+03 -2.594085E+03
       129  27  4.424779E+05  8.742049E+04  2.372362E+04  1.636472E+05  1.794124E+03 -2.896736E+03
       130   1  2.576721E+05  1.788191E+04 -2.435974E+04  1.132123E+05 -2.578912E+03  2.896993E+03
       130   2  2.503345E+05  1.134373E+04 -2.571285E+04  1.073680E+05 -4.128224E+03  2.816817E+03
       130   3  2.384194E+05  1.117959E+04 -2.572027E+04  1.072073E+05 -5.669772E+03  2.716366E+03
       130   4  3.565214E+05  5.495044E+04  1.566161E+03  1.401596E+05 -2.345629E+03  2.984912E+03
       130   5  3.588737E+05  5.222020E+04  2.749293E+03  1.371451E+05 -3.905673E+03  2.900660E+03
       130   6  3.566507E+05  5.586606E+04  5.286491E+03  1.398141E+05 -5.457974E+03  2.796126E+03
       130   7  4.553804E+05  9.201966E+04  2.749131E+04  1.671109E+05 -2.112305E+03  3.072847E+03
       130   8  4.674244E+05  9.309749E+04  3.121048E+04  1.669269E+05 -3.683078E+03  2.984519E+03
       130   9  4.748955E+05  1.005534E+05  3.629207E+04  1.724265E+05 -5.246132E+03  2.875902E+03
       130  10  2.576721E+05  1.788190E+04 -2.435977E+04  1.132123E+05  7.689537E-09  9.965729E-10
       130  11  2.503344E+05  1.134371E+04 -2.571289E+04  1.073680E+05  6.758837E-09  4.476355E-09
       130  12  2.384194E+05  1.117958E+04 -2.572035E+04  1.072073E+05 -5.221547E-09 -1.084315E-09
       130  13  3.565214E+05  5.495042E+04  1.566134E+03  1.401596E+05 -1.770634E-09 -3.123744E-09
       130  14  3.588736E+05  5.222019E+04  2.749248E+03  1.371451E+05  7.435999E-09  4.012462E-09
       130  15  3.566506E+05  5.586604E+04  5.286420E+03  1.398141E+05  5.700855E-09  3.691638E-10
       130  16  4.553804E+05  9.201965E+04  2.749129E+04  1.671109E+05 -1.087041E-08 -6.712068E-09
       130  17  4.674244E+05  9.309747E+04  3.121044E+04  1.669269E+05  1.352444E-09  1.526266E-09
       130  18  4.748954E+05  1.005534E+05  3.629200E+04  1.724265E+05  4.624575E-09 -2.257230E-09
       130  19  2.576721E+05  1.788191E+04 -2.435974E+04  1.132123E+05  2.578912E+03 -2.896993E+03
       130  20  2.503345E+05  1.134373E+04 -2.571285E+04  1.073680E+05  4.128224E+03 -2.816817E+03
       130  21  2.384194E+05  1.117959E+04 -2.572027E+04  1.072073E+05  5.669772E+03 -2.716366E+03
       130  22  3.565214E+05  5.495044E+04  1.566161E+03  1.401596E+05  2.345629E+03 -2.984912E+03
       130  23  3.588737E+05  5.222020E+04  2.749293E+03  1.371451E+05  3.905673E+03 -2.900660E+03
       130  24  3.566507E+05  5.586606E+04  5.286491E+03  1.398141E+05  5.457974E+03 -2.796126E+03
       130  25  4.553804E+05  9.201966E+04  2.749131E+04  1.671109E+05  2.112305E+03 -3.072847E+03
       130  26  4.674244E+05  9.309749E+04  3.121048E+04  1.669269E+05  3.683078E+03 -2.984519E+03
       130  27  4.748955E+05  1.005534E+05  3.629207E+04  1.724265E+05  5.246132E+03 -2.875902E+03
       131   1  2.248322E+05  6.157172E+03 -2.766946E+04  1.056521E+05 -6.857212E+03  2.619082E+03
       131   2  2.170061E+05 -2.711087E+03 -2.520963E+04  9.793541E+04 -1.300242E+04  8.042052E+02
       131   3  2.088528E+05  4.885663E+03 -1.525732E+04  9.355620E+04 -1.902632E+04 -1.332123E+03
       131   4  3.571118E+05  5.466616E+04  6.797587E+03  1.405919E+05 -6.548103E+03  2.735505E+03
       131   5  3.579019E+05  5.095822E+04  1.185073E+04  1.372122E+05 -1.286090E+04  8.574133E+02
       131   6  3.583969E+05  6.374660E+04  2.452778E+04  1.371699E+05 -1.905251E+04 -1.342181E+03
       131   7  4.894079E+05  1.031759E+05  4.126306E+04  1.755382E+05 -6.238921E+03  2.851953E+03
       131   8  4.988169E+05  1.046289E+05  4.890940E+04  1.764971E+05 -1.271934E+04  9.106351E+02
       131   9  5.079632E+05  1.226097E+05  6.431106E+04  1.807934E+05 -1.907870E+04 -1.352241E+03
       131  10  2.248321E+05  6.157152E+03 -2.766956E+04  1.056521E+05 -2.269121E-09  3.649771E-09
       131  11  2.170060E+05 -2.711133E+03 -2.520995E+04  9.793542E+04 -1.398543E-09  3.925092E-09
       131  12  2.088524E+05  4.885564E+03 -1.525800E+04  9.355618E+04 -1.730062E-09  2.716217E-09
       131  13  3.571117E+05  5.466614E+04  6.797493E+03  1.405919E+05 -1.437004E-09 -2.641138E-09
       131  14  3.579018E+05  5.095817E+04  1.185042E+04  1.372122E+05  4.349565E-09 -6.665199E-10
       131  15  3.583965E+05  6.374650E+04  2.452710E+04  1.371699E+05  1.377339E-09  3.653885E-09
       131  16  4.894079E+05  1.031759E+05  4.126297E+04  1.755382E+05 -9.507176E-10 -9.391682E-10
       131  17  4.988168E+05  1.046288E+05  4.890909E+04  1.764971E+05  1.221584E-09  2.101395E-09
       131  18  5.079628E+05  1.226096E+05  6.431037E+04  1.807934E+05 -3.478325E-09 -2.067137E-09
       131  19  2.248322E+05  6.157172E+03 -2.766946E+04  1.056521E+05  6.857212E+03 -2.619082E+03
       131  20  2.170061E+05 -2.711087E+03 -2.520963E+04  9.793541E+04  1.300242E+04 -8.042052E+02
       131  21  2.088528E+05  4.885663E+03 -1.525732E+04  9.355620E+04  1.902632E+04  1.332123E+03
       131  22  3.571118E+05  5.466616E+04  6.797587E+03  1.405919E+05  6.548103E+03 -2.735505E+03
       131  23  3.579019E+05  5.095822E+04  1.185073E+04  1.372122E+05  1.286090E+04 -8.574133E+02
       131  24  3.583969E+05  6.374660E+04  2.452778E+04  1.371699E+05  1.905251E+04  1.342181E+03
       131  25  4.894079E+05  1.031759E+05  4.126306E+04  1.755382E+05  6.238921E+03 -2.851953E+03
       131  26  4.988169E+05  1.046289E+05  4.890940E+04  1.764971E+05  1.271934E+04 -9.106351E+02
       131  27  5.079632E+05  1.226097E+05  6.431106E+04  1.807934E+05  1.907870E+04  1.352241E+03
       132   1  1.890876E+05 -1.912079E+03 -1.289132E+04  1.087512E+05 -2.494356E+04 -2.535757E+03
       132   2  1.802306E+05 -3.215192E+04  4.410906E+03  8.384618E+04 -5.013297E+04 -1.169746E+04
       132   3  2.094624E+05  4.958820E+04  6.961710E+04  3.736551E+04 -7.363434E+04 -2.534229E+04
       132   4  3.622847E+05  5.158621E+04  3.021992E+04  1.442382E+05 -2.364264E+04 -2.045454E+03
       132   5  3.492559E+05  3.948153E+04  5.021250E+04  1.384209E+05 -5.115775E+04 -1.208417E+04
       132   6  3.747634E+05  1.397971E+05  1.199411E+05  1.110317E+05 -7.698482E+04 -2.660728E+04
       132   7  5.355112E+05  1.050844E+05  7.332904E+04  1.797332E+05 -2.234132E+04 -1.555061E+03
       132   8  5.183083E+05  1.111186E+05  9.601130E+04  1.930096E+05 -5.218284E+04 -1.247103E+04
       132   9  5.400910E+05  2.300170E+05  1.702620E+05  1.847178E+05 -8.033624E+04 -2.787300E+04
       132  10  1.890869E+05 -1.912253E+03 -1.289250E+04  1.087511E+05  8.409801E-09  7.857154E-09
       132  11  1.802279E+05 -3.215274E+04  4.405928E+03  8.384571E+04  8.732638E-09  2.884392E-09
       132  12  2.094564E+05  4.958605E+04  6.960571E+04  3.736401E+04 -1.320059E-09 -1.517964E-09
       132  13  3.622841E+05  5.158606E+04  3.021886E+04  1.442382E+05 -2.186981E-09  1.167904E-09
       132  14  3.492531E+05  3.948067E+04  5.020731E+04  1.384204E+05  7.074309E-09 -2.120404E-09
       132  15  3.747568E+05  1.397948E+05  1.199286E+05  1.110301E+05  4.804938E-10  1.885347E-09
       132  16  5.355107E+05  1.050842E+05  7.332810E+04  1.797332E+05 -8.201098E-09 -7.191509E-09
       132  17  5.183053E+05  1.111177E+05  9.600590E+04  1.930091E+05  3.648485E-09  5.391790E-09
       132  18  5.400839E+05  2.300145E+05  1.702484E+05  1.847160E+05  3.991678E-09  2.608950E-09
       132  19  1.890876E+05 -1.912079E+03 -1.289132E+04  1.087512E+05  2.494356E+04  2.535757E+03
       132  20  1.802306E+05 -3.215192E+04  4.410906E+03  8.384618E+04  5.013297E+04  1.169746E+04
       132  21  2.094624E+05  4.958820E+04  6.961710E+04  3.736551E+04  7.363434E+04  2.534229E+04
       132  22  3.622847E+05  5.158621E+04  3.021992E+04  1.442382E+05  2.364264E+04  2.045454E+03
       132  23  3.492559E+05  3.948153E+04  5.021250E+04  1.384209E+05  5.115775E+04  1.208417E+04
       132  24  3.747634E+05  1.397971E+05  1.199411E+05  1.110317E+05  7.698482E+04  2.660728E+04
       132  25  5.355112E+05  1.050844E+05  7.332904E+04  1.797332E+05  2.234132E+04  1.555061E+03
       132  26  5.183083E+05  1.111186E+05  9.601130E+04  1.930096E+05  5.218284E+04  1.247103E+04
       132  27  5.400910E+05  2.300170E+05  1.702620E+05  1.847178E+05  8.033624E+04  2.787300E+04
       133   1 -1.761880E+02 -4.664682E+05 -1.977363E+03 -1.049202E+02 -3.963978E+01  1.464956E+02
       133   2 -4.293928E+02 -4.676141E+05 -2.692771E+03  2.125207E+02 -7.728389E+01  1.246090E+03
       133   3 -1.169382E+03 -4.690273E+05 -4.246621E+03 -2.423040E+02 -1.337323E+02  2.345676E+03
       133   4 -6.173065E+00 -4.657764E+05 -1.820328E+03 -1.714980E+02 -3.965895E+01  1.633287E+02
       133   5  5.774932E+01 -4.656419E+05 -2.230279E+03  2.144293E+02 -7.731634E+01  1.274653E+03
       133   6 -3.671444E+02 -4.657766E+05 -3.486816E+03 -1.719080E+02 -1.337778E+02  2.385971E+03
       133   7  1.638419E+02 -4.650846E+05 -1.663292E+03 -2.380758E+02 -3.967812E+01  1.801618E+02
       133   8  5.448912E+02 -4.636697E+05 -1.767787E+03  2.163379E+02 -7.734879E+01  1.303216E+03
       133   9  4.350928E+02 -4.625260E+05 -2.727010E+03 -1.015116E+02 -1.338232E+02  2.426267E+03
       133  10 -1.761880E+02 -4.664682E+05 -1.977363E+03 -1.049202E+02 -5.274985E-09 -6.165505E-09
       133  11 -4.293932E+02 -4.676141E+05 -2.692774E+03  2.125208E+02 -7.846094E-09  1.881484E-09
       133  12 -1.169384E+03 -4.690273E+05 -4.246632E+03 -2.423038E+02 -3.295512E-09  6.089014E-09
       133  13 -6.173074E+00 -4.657764E+05 -1.820328E+03 -1.714979E+02  3.326916E-10 -1.298003E-09
       133  14  5.774887E+01 -4.656419E+05 -2.230282E+03  2.144294E+02  1.046953E-11 -1.757851E-10
       133  15 -3.671459E+02 -4.657767E+05 -3.486826E+03 -1.719078E+02  3.796837E-09 -5.043557E-10
       133  16  1.638419E+02 -4.650846E+05 -1.663292E+03 -2.380757E+02 -3.166876E-09  6.327072E-09
       133  17  5.448907E+02 -4.636697E+05 -1.767790E+03  2.163380E+02 -3.277925E-09  1.457231E-09
       133  18  4.350912E+02 -4.625260E+05 -2.727021E+03 -1.015114E+02 -2.176021E-09 -4.793469E-09
       133  19 -1.761880E+02 -4.664682E+05 -1.977363E+03 -1.049202E+02  3.963978E+01 -1.464956E+02
       133  20 -4.293928E+02 -4.676141E+05 -2.692771E+03  2.125207E+02  7.728389E+01 -1.246090E+03
       133  21 -1.169382E+03 -4.690273E+05 -4.246621E+03 -2.423040E+02  1.337323E+02 -2.345676E+03
       133  22 -6.173065E+00 -4.657764E+05 -1.820328E+03 -1.714980E+02  3.965895E+01 -1.633287E+02
       133  23  5.774932E+01 -4.656419E+05 -2.230279E+03  2.144293E+02  7.731634E+01 -1.274653E+03
       133  24 -3.671444E+02 -4.657766E+05 -3.486816E+03 -1.719080E+02  1.337778E+02 -2.385971E+03
       133  25  1.638419E+02 -4.650846E+05 -1.663292E+03 -2.380758E+02  3.967812E+01 -1.801618E+02
       133  26  5.448912E+02 -4.636697E+05 -1.767787E+03  2.163379E+02  7.734879E+01 -1.303216E+03
       133  27  4.350928E+02 -4.625260E+05 -2.727010E+03 -1.015116E+02  1.338232E+02 -2.426267E+03
       134   1 -9.059037E+02 -4.707379E+05 -5.447996E+03  5.226021E+02 -1.729289E+02  3.038553E+03
       134   2 -9.700830E+02 -4.711370E+05 -8.588570E+03 -1.365753E+02 -2.322702E+02  6.709175E+03
       134   3 -6.133989E+03 -4.732917E+05 -1.539557E+04 -1.568328E+03 -2.769040E+02  1.037979E+04
       134   4  2.407656E+02 -4.661064E+05 -4.357973E+03 -1.701301E+02 -1.729765E+02  3.077567E+03
       134   5  4.881204E+02 -4.652303E+05 -7.202580E+03  2.135564E+02 -2.323000E+02  6.739041E+03
       134   6 -4.362637E+03 -4.661081E+05 -1.370723E+04 -1.753327E+02 -2.769038E+02  1.040052E+04
       134   7  1.387435E+03 -4.614749E+05 -3.267951E+03 -8.628674E+02 -1.730241E+02  3.116581E+03
       134   8  1.946322E+03 -4.593235E+05 -5.816593E+03  5.636914E+02 -2.323298E+02  6.768907E+03
       134   9 -2.591281E+03 -4.589245E+05 -1.201889E+04  1.217679E+03 -2.769035E+02  1.042124E+04
       134  10 -9.059062E+02 -4.707379E+05 -5.448013E+03  5.226026E+02 -3.343307E-09 -2.442115E-09
       134  11 -9.700951E+02 -4.711371E+05 -8.588655E+03 -1.365741E+02 -3.356789E-11  5.870341E-09
       134  12 -6.134018E+03 -4.732918E+05 -1.539578E+04 -1.568326E+03 -2.121057E-09  7.965301E-09
       134  13  2.407630E+02 -4.661064E+05 -4.357991E+03 -1.701296E+02 -3.719867E-10 -2.459593E-09
       134  14  4.881082E+02 -4.652303E+05 -7.202666E+03  2.135576E+02 -1.467403E-09  2.398968E-10
       134  15 -4.362666E+03 -4.661083E+05 -1.370744E+04 -1.753304E+02 -1.094305E-09 -2.529632E-10
       134  16  1.387432E+03 -4.614749E+05 -3.267970E+03 -8.628670E+02  1.661688E-09  2.572027E-09
       134  17  1.946309E+03 -4.593235E+05 -5.816680E+03  5.636927E+02 -1.668589E-09 -2.288252E-10
       134  18 -2.591310E+03 -4.589246E+05 -1.201910E+04  1.217681E+03  4.594815E-10 -7.401235E-09
       134  19 -9.059037E+02 -4.707379E+05 -5.447996E+03  5.226021E+02  1.729289E+02 -3.038553E+03
       134  20 -9.700830E+02 -4.711370E+05 -8.588570E+03 -1.365753E+02  2.322702E+02 -6.709175E+03
       134  21 -6.133989E+03 -4.732917E+05 -1.539557E+04 -1.568328E+03  2.769040E+02 -1.037979E+04
       134  22  2.407656E+02 -4.661064E+05 -4.357973E+03 -1.701301E+02  1.729765E+02 -3.077567E+03
       134  23  4.881204E+02 -4.652303E+05 -7.202580E+03  2.135564E+02  2.323000E+02 -6.739041E+03
       134  24 -4.362637E+03 -4.661081E+05 -1.370723E+04 -1.753327E+02  2.769038E+02 -1.040052E+04
       134  25  1.387435E+03 -4.614749E+05 -3.267951E+03 -8.628674E+02  1.730241E+02 -3.116581E+03
       134  26  1.946322E+03 -4.593235E+05 -5.816593E+03  5.636914E+02  2.323298E+02 -6.768907E+03
       134  27 -2.591281E+03 -4.589245E+05 -1.201889E+04  1.217679E+03  2.769035E+02 -1.042124E+04
       135   1  5.947254E+02 -4.778719E+05 -1.889551E+04  7.006071E+03 -3.484983E+02  1.284932E+04
       135   2  2.706650E+03 -4.710223E+05 -2.980488E+04 -5.439200E+03 -3.957229E+02  2.777972E+04
       135   3 -5.257547E+04 -4.804714E+05 -6.478842E+04 -1.868373E+04 -1.707825E+02  4.271022E+04
       135   4  2.723977E+03 -4.693312E+05 -1.689090E+04 -1.603673E+02 -3.487633E+02  1.295322E+04
       135   5  5.117372E+03 -4.612025E+05 -2.749979E+04  2.100369E+02 -3.953951E+02  2.771371E+04
       135   6 -4.985389E+04 -4.693430E+05 -6.206461E+04 -2.192207E+02 -1.692469E+02  4.247434E+04
       135   7  4.853416E+03 -4.607903E+05 -1.488627E+04 -7.326905E+03 -3.490308E+02  1.305713E+04
       135   8  7.528208E+03 -4.513825E+05 -2.519468E+04  5.859364E+03 -3.950685E+02  2.764770E+04
       135   9 -4.713104E+04 -4.582137E+05 -5.934061E+04  1.824562E+04 -1.677253E+02  4.223846E+04
       135  10  5.946809E+02 -4.778721E+05 -1.889582E+04  7.006075E+03 -2.715908E-09  1.346282E-08
       135  11  2.706443E+03 -4.710231E+05 -2.980633E+04 -5.439191E+03  1.700061E-09  7.863462E-09
       135  12 -5.257596E+04 -4.804733E+05 -6.479185E+04 -1.868372E+04  1.340308E-09 -2.820949E-09
       135  13  2.723932E+03 -4.693314E+05 -1.689121E+04 -1.603637E+02 -2.940180E-09 -2.382490E-09
       135  14  5.117166E+03 -4.612033E+05 -2.750123E+04  2.100457E+02 -4.816520E-09 -2.862844E-10
       135  15 -4.985438E+04 -4.693449E+05 -6.206800E+04 -2.192149E+02  1.468131E-09 -1.681124E-09
       135  16  4.853370E+03 -4.607905E+05 -1.488659E+04 -7.326901E+03  1.736395E-09 -1.225762E-08
       135  17  7.528002E+03 -4.513833E+05 -2.519612E+04  5.859373E+03 -6.011605E-09 -4.732589E-09
       135  18 -4.713152E+04 -4.582156E+05 -5.934397E+04  1.824562E+04 -2.587132E-09  5.319609E-09
       135  19  5.947254E+02 -4.778719E+05 -1.889551E+04  7.006071E+03  3.484983E+02 -1.284932E+04
       135  20  2.706650E+03 -4.710223E+05 -2.980488E+04 -5.439200E+03  3.957229E+02 -2.777972E+04
       135  21 -5.257547E+04 -4.804714E+05 -6.478842E+04 -1.868373E+04  1.707825E+02 -4.271022E+04
       135  22  2.723977E+03 -4.693312E+05 -1.689090E+04 -1.603673E+02  3.487633E+02 -1.295322E+04
       135  23  5.117372E+03 -4.612025E+05 -2.749979E+04  2.100369E+02  3.953951E+02 -2.771371E+04
       135  24 -4.985389E+04 -4.693430E+05 -6.206461E+04 -2.192207E+02  1.692469E+02 -4.247434E+04
       135  25  4.853416E+03 -4.607903E+05 -1.488627E+04 -7.326905E+03  3.490308E+02 -1.305713E+04
       135  26  7.528208E+03 -4.513825E+05 -2.519468E+04  5.859364E+03  3.950685E+02 -2.764770E+04
       135  27 -4.713104E+04 -4.582137E+05 -5.934061E+04  1.824562E+04  1.677253E+02 -4.223846E+04
       136   1 -8.064296E+06 -2.636122E+06 -1.393407E+06 -2.845024E+06 -4.616659E+05 -9.450866E+04
       136   2 -7.853842E+06 -2.324142E+06 -1.052886E+06 -2.768365E+06 -3.110881E+05  1.555785E+05
       136   3 -7.683330E+06 -2.197433E+06 -9.124867E+05 -2.705942E+06 -1.118585E+05  2.798660E+05
       136   4 -3.583652E+06 -8.305138E+05 -1.981311E+05 -1.506786E+06 -1.550525E+05  2.324030E+04
       136   5 -3.569060E+06 -6.786391E+05 -9.039823E+04 -1.528629E+06 -1.716730E+05  2.088143E+05
       136   6 -3.560415E+06 -6.779366E+05 -4.825539E+04 -1.564825E+06 -1.399215E+05  2.689467E+05
       136   7  9.168849E+05  9.771429E+05  9.957587E+05 -1.594110E+05  1.540212E+05  1.420482E+05
       136   8  7.345549E+05  9.686716E+05  8.709989E+05 -2.808128E+05 -3.120112E+04  2.624773E+05
       136   9  5.801571E+05  8.430045E+05  8.150700E+05 -4.166297E+05 -1.681886E+05  2.579522E+05
       136  10 -8.064530E+06 -2.636189E+06 -1.393830E+06 -2.845060E+06  1.540320E-08  8.521155E-09
       136  11 -7.853953E+06 -2.324194E+06 -1.053114E+06 -2.768326E+06  1.418875E-09  7.059113E-09
       136  12 -7.683365E+06 -2.197521E+06 -9.126570E+05 -2.705916E+06 -5.996841E-09 -5.621718E-09
       136  13 -3.583678E+06 -8.305208E+05 -1.981775E+05 -1.506783E+06  6.253997E-09  3.046670E-09
       136  14 -3.569103E+06 -6.786937E+05 -9.053538E+04 -1.528600E+06  5.288526E-09 -7.982396E-09
       136  15 -3.560455E+06 -6.780194E+05 -4.842777E+04 -1.564794E+06  1.051331E-09 -4.771846E-10
       136  16  9.168541E+05  9.771150E+05  9.956763E+05 -1.594286E+05 -1.222289E-08 -4.891732E-09
       136  17  7.345354E+05  9.685975E+05  8.708679E+05 -2.808062E+05  7.562122E-09  1.045255E-08
       136  18  5.801089E+05  8.429256E+05  8.148922E+05 -4.165948E+05  9.655458E-09  4.372443E-09
       136  19 -8.064296E+06 -2.636122E+06 -1.393407E+06 -2.845024E+06  4.616659E+05  9.450866E+04
       136  20 -7.853842E+06 -2.324142E+06 -1.052886E+06 -2.768365E+06  3.110881E+05 -1.555785E+05
       136  21 -7.683330E+06 -2.197433E+06 -9.124867E+05 -2.705942E+06  1.118585E+05 -2.798660E+05
       136  22 -3.583652E+06 -8.305138E+05 -1.981311E+05 -1.506786E+06  1.550525E+05 -2.324030E+04
       136  23 -3.569060E+06 -6.786391E+05 -9.039823E+04 -1.528629E+06  1.716730E+05 -2.088143E+05
       136  24 -3.560415E+06 -6.779366E+05 -4.825539E+04 -1.564825E+06  1.399215E+05 -2.689467E+05
       136  25  9.168849E+05  9.771429E+05  9.957587E+05 -1.594110E+05 -1.540212E+05 -1.420482E+05
       136  26  7.345549E+05  9.686716E+05  8.709989E+05 -2.808128E+05  3.120112E+04 -2.624773E+05
       136  27  5.801571E+05  8.430045E+05  8.150700E+05 -4.166297E+05  1.681886E+05 -2.579522E+05
       137   1 -7.505303E+06 -2.158122E+06 -8.684963E+05 -2.671373E+06 -1.279549E+05  2.605470E+05
       137   2 -7.301435E+06 -2.038281E+06 -7.928011E+05 -2.579791E+06 -1.048729E+05  2.629831E+05
       137   3 -7.052629E+06 -1.972298E+06 -7.338399E+05 -2.539988E+06 -7.870662E+04  2.571973E+05
       137   4 -3.552791E+06 -6.858322E+05 -3.708040E+04 -1.561530E+06 -1.299539E+05  2.595990E+05
       137   5 -3.575485E+06 -6.562696E+05 -1.991471E+04 -1.536927E+06 -1.177527E+05  2.579135E+05
       137   6 -3.551094E+06 -6.783359E+05 -1.072274E+04 -1.564100E+06 -1.024859E+05  2.480295E+05
       137   7  4.159025E+05  7.878578E+05  7.934812E+05 -4.450635E+05 -1.319670E+05  2.586464E+05
       137   8  1.648628E+05  7.269759E+05  7.522352E+05 -4.882010E+05 -1.307172E+05  2.528125E+05
       137   9 -3.685481E+04  6.166944E+05  7.117489E+05 -5.830662E+05 -1.264115E+05  2.388069E+05
       137  10 -7.505338E+06 -2.158199E+06 -8.686543E+05 -2.671346E+06 -1.016040E-08 -3.728903E-09
       137  11 -7.301465E+06 -2.038358E+06 -7.929514E+05 -2.579769E+06 -4.090284E-09  5.221257E-10
       137  12 -7.052653E+06 -1.972370E+06 -7.339756E+05 -2.539972E+06  3.370303E-09  1.454445E-09
       137  13 -3.552828E+06 -6.859090E+05 -3.723847E+04 -1.561503E+06  1.819081E-09 -3.541886E-10
       137  14 -3.575518E+06 -6.563446E+05 -2.006547E+04 -1.536902E+06  4.481937E-09 -1.333297E-09
       137  15 -3.551121E+06 -6.784047E+05 -1.085781E+04 -1.564079E+06 -2.672280E-09  3.671777E-09
       137  16  4.158659E+05  7.877815E+05  7.933230E+05 -4.450361E+05  6.554409E-09  5.913446E-09
       137  17  1.648273E+05  7.269028E+05  7.520833E+05 -4.881745E+05  2.091017E-09  4.899575E-09
       137  18 -3.688719E+04  6.166290E+05  7.116119E+05 -5.830419E+05 -5.259927E-09  3.913170E-09
       137  19 -7.505303E+06 -2.158122E+06 -8.684963E+05 -2.671373E+06  1.279549E+05 -2.605470E+05
       137  20 -7.301435E+06 -2.038281E+06 -7.928011E+05 -2.579791E+06  1.048729E+05 -2.629831E+05
       137  21 -7.052629E+06 -1.972298E+06 -7.338399E+05 -2.539988E+06  7.870662E+04 -2.571973E+05
       137  22 -3.552791E+06 -6.858322E+05 -3.708040E+04 -1.561530E+06  1.299539E+05 -2.595990E+05
       137  23 -3.575485E+06 -6.562696E+05 -1.991471E+04 -1.536927E+06  1.177527E+05 -2.579135E+05
       137  24 -3.551094E+06 -6.783359E+05 -1.072274E+04 -1.564100E+06  1.024859E+05 -2.480295E+05
       137  25  4.159025E+05  7.878578E+05  7.934812E+05 -4.450635E+05  1.319670E+05 -2.586464E+05
       137  26  1.648628E+05  7.269759E+05  7.522352E+05 -4.882010E+05  1.307172E+05 -2.528125E+05
       137  27 -3.685481E+04  6.166944E+05  7.117489E+05 -5.830662E+05  1.264115E+05 -2.388069E+05
       138   1 -6.889365E+06 -1.912262E+06 -6.963467E+05 -2.494974E+06 -7.453758E+04  2.468758E+05
       138   2 -6.676239E+06 -1.796782E+06 -6.433016E+05 -2.398935E+06 -6.461254E+04  2.309431E+05
       138   3 -6.411841E+06 -1.731098E+06 -5.922904E+05 -2.359008E+06 -5.445516E+04  2.142347E+05
       138   4 -3.550063E+06 -6.789278E+05 -8.135649E+03 -1.564567E+06 -9.699891E+04  2.382338E+05
       138   5 -3.575391E+06 -6.533649E+05 -4.695470E+03 -1.536684E+06 -8.808769E+04  2.219573E+05
       138   6 -3.549322E+06 -6.773828E+05 -2.483190E+03 -1.564919E+06 -7.894634E+04  2.049068E+05
       138   7 -1.991535E+05  5.553995E+05  6.795058E+05 -6.294670E+05 -1.195923E+05  2.295424E+05
       138   8 -4.645488E+05  4.908980E+05  6.334179E+05 -6.704003E+05 -1.116908E+05  2.129236E+05
       138   9 -6.783010E+05  3.770423E+05  5.869011E+05 -7.674067E+05 -1.035605E+05  1.955329E+05
       138  10 -6.889387E+06 -1.912329E+06 -6.964714E+05 -2.494960E+06 -8.710728E-09 -5.965168E-09
       138  11 -6.676257E+06 -1.796841E+06 -6.434094E+05 -2.398923E+06 -6.718958E-09 -1.247454E-11
       138  12 -6.411857E+06 -1.731148E+06 -5.923821E+05 -2.358998E+06  1.102867E-08  5.630554E-09
       138  13 -3.550088E+06 -6.789911E+05 -8.259736E+03 -1.564548E+06 -9.620532E-10 -4.815356E-09
       138  14 -3.575413E+06 -6.534198E+05 -4.802417E+03 -1.536668E+06 -4.405837E-09 -3.311137E-09
       138  15 -3.549340E+06 -6.774295E+05 -2.573624E+03 -1.564906E+06 -2.027098E-09 -5.481376E-09
       138  16 -1.991829E+05  5.553392E+05  6.793802E+05 -6.294449E+05  5.912938E-09  3.075914E-09
       138  17 -4.645743E+05  4.908461E+05  6.333095E+05 -6.703812E+05 -3.332598E-09  3.837788E-10
       138  18 -6.783228E+05  3.769985E+05  5.868093E+05 -7.673904E+05 -3.734471E-09  1.249328E-09
       138  19 -6.889365E+06 -1.912262E+06 -6.963467E+05 -2.494974E+06  7.453758E+04 -2.468758E+05
       138  20 -6.676239E+06 -1.796782E+06 -6.433016E+05 -2.398935E+06  6.461254E+04 -2.309431E+05
       138  21 -6.411841E+06 -1.731098E+06 -5.922904E+05 -2.359008E+06  5.445516E+04 -2.142347E+05
       138  22 -3.550063E+06 -6.789278E+05 -8.135649E+03 -1.564567E+06  9.699891E+04 -2.382338E+05
       138  23 -3.575391E+06 -6.533649E+05 -4.695470E+03 -1.536684E+06  8.808769E+04 -2.219573E+05
       138  24 -3.549322E+06 -6.773828E+05 -2.483190E+03 -1.564919E+06  7.894634E+04 -2.049068E+05
       138  25 -1.991535E+05  5.553995E+05  6.795058E+05 -6.294670E+05  1.195923E+05 -2.295424E+05
       138  26 -4.645488E+05  4.908980E+05  6.334179E+05 -6.704003E+05  1.116908E+05 -2.129236E+05
       138  27 -6.783010E+05  3.770423E+05  5.869011E+05 -7.674067E+05  1.035605E+05 -1.955329E+05
       139   1 -6.242559E+06 -1.668169E+06 -5.553747E+05 -2.312118E+06 -4.983691E+04  2.037061E+05
       139   2 -6.020418E+06 -1.549674E+06 -5.040760E+05 -2.213073E+06 -4.181320E+04  1.854897E+05
       139   3 -5.745615E+06 -1.482469E+06 -4.531671E+05 -2.172603E+06 -3.374612E+04  1.670211E+05
       139   4 -3.548813E+06 -6.775858E+05 -1.946486E+03 -1.565437E+06 -7.450902E+04  1.943328E+05
       139   5 -3.574854E+06 -6.514000E+05 -1.329142E+03 -1.536270E+06 -6.681330E+04  1.760265E+05
       139   6 -3.548243E+06 -6.764338E+05 -8.477394E+02 -1.565691E+06 -5.907483E+04  1.574684E+05
       139   7 -8.475585E+05  3.136165E+05  5.511044E+05 -8.157338E+05 -9.929745E+04  1.849159E+05
       139   8 -1.123088E+06  2.473873E+05  5.011114E+05 -8.569773E+05 -9.192048E+04  1.665232E+05
       139   9 -1.345850E+06  1.300189E+05  4.512286E+05 -9.567690E+05 -8.450111E+04  1.478792E+05
       139  10 -6.242573E+06 -1.668214E+06 -5.554573E+05 -2.312109E+06 -6.093175E-09 -1.187556E-09
       139  11 -6.020429E+06 -1.549711E+06 -5.041438E+05 -2.213066E+06 -4.295622E-09 -2.730612E-09
       139  12 -5.745624E+06 -1.482500E+06 -4.532215E+05 -2.172598E+06  8.395163E-10  1.202987E-09
       139  13 -3.548829E+06 -6.776278E+05 -2.027725E+03 -1.565425E+06 -3.938418E-09 -4.419802E-09
       139  14 -3.574867E+06 -6.514344E+05 -1.395626E+03 -1.536261E+06 -9.070887E-09 -7.333925E-09
       139  15 -3.548253E+06 -6.764613E+05 -9.007889E+02 -1.565683E+06 -8.095142E-09 -3.473922E-09
       139  16 -8.475782E+05  3.135772E+05  5.510217E+05 -8.157190E+05  1.164036E-08  8.495448E-09
       139  17 -1.123104E+06  2.473553E+05  5.010435E+05 -8.569650E+05 -3.765112E-09 -3.607094E-10
       139  18 -1.345864E+06  1.299936E+05  4.511742E+05 -9.567590E+05 -9.595270E-09 -5.624311E-09
       139  19 -6.242559E+06 -1.668169E+06 -5.553747E+05 -2.312118E+06  4.983691E+04 -2.037061E+05
       139  20 -6.020418E+06 -1.549674E+06 -5.040760E+05 -2.213073E+06  4.181320E+04 -1.854897E+05
       139  21 -5.745615E+06 -1.482469E+06 -4.531671E+05 -2.172603E+06  3.374612E+04 -1.670211E+05
       139  22 -3.548813E+06 -6.775858E+05 -1.946486E+03 -1.565437E+06  7.450902E+04 -1.943328E+05
       139  23 -3.574854E+06 -6.514000E+05 -1.329142E+03 -1.536270E+06  6.681330E+04 -1.760265E+05
       139  24 -3.548243E+06 -6.764338E+05 -8.477394E+02 -1.565691E+06  5.907483E+04 -1.574684E+05
       139  25 -8.475585E+05  3.136165E+05  5.511044E+05 -8.157338E+05  9.929745E+04 -1.849159E+05
       139  26 -1.123088E+06  2.473873E+05  5.011114E+05 -8.569773E+05  9.192048E+04 -1.665232E+05
       139  27 -1.345850E+06  1.300189E+05  4.512286E+05 -9.567690E+05  8.450111E+04 -1.478792E+05
       140   1 -5.570619E+06 -1.417848E+06 -4.156375E+05 -2.124493E+06 -2.922823E+04  1.560755E+05
       140   2 -5.341405E+06 -1.296933E+06 -3.638987E+05 -2.023234E+06 -2.128323E+04  1.371805E+05
       140   3 -5.058805E+06 -1.228676E+06 -3.125299E+05 -1.982431E+06 -1.331738E+04  1.181274E+05
       140   4 -3.547900E+06 -6.765726E+05 -8.530372E+02 -1.566102E+06 -5.476941E+04  1.464609E+05
       140   5 -3.574357E+06 -6.498257E+05 -1.076670E+03 -1.535963E+06 -4.703105E+04  1.275133E+05
       140   6 -3.547466E+06 -6.756912E+05 -1.512065E+03 -1.566296E+06 -3.927231E+04  1.084080E+05
       140   7 -1.520941E+06  6.505063E+04  4.137239E+05 -1.006013E+06 -8.040090E+04  1.368126E+05
       140   8 -1.804082E+06 -2.456698E+03  3.615852E+05 -1.047401E+06 -7.285825E+04  1.178165E+05
       140   9 -2.033775E+06 -1.225192E+05  3.093868E+05 -1.149220E+06 -6.529552E+04  9.866312E+04
       140  10 -5.570626E+06 -1.417874E+06 -4.156848E+05 -2.124489E+06 -7.663671E-10  5.375327E-10
       140  11 -5.341410E+06 -1.296954E+06 -3.639349E+05 -2.023231E+06 -3.157913E-09 -2.585147E-09
       140  12 -5.058809E+06 -1.228691E+06 -3.125565E+05 -1.982430E+06 -7.248007E-09 -2.812982E-09
       140  13 -3.547909E+06 -6.765964E+05 -8.988932E+02 -1.566095E+06 -6.615198E-09 -3.302577E-09
       140  14 -3.574364E+06 -6.498438E+05 -1.111313E+03 -1.535958E+06 -3.454094E-09 -2.539775E-09
       140  15 -3.547471E+06 -6.757043E+05 -1.536999E+03 -1.566292E+06 -3.539087E-10  1.104689E-09
       140  16 -1.520953E+06  6.502884E+04  4.136767E+05 -1.006004E+06 -2.568611E-09 -4.331312E-09
       140  17 -1.804092E+06 -2.472990E+03  3.615492E+05 -1.047394E+06 -5.067073E-11 -3.384007E-09
       140  18 -2.033782E+06 -1.225308E+05  3.093606E+05 -1.149214E+06  4.044114E-09  1.580268E-10
       140  19 -5.570619E+06 -1.417848E+06 -4.156375E+05 -2.124493E+06  2.922823E+04 -1.560755E+05
       140  20 -5.341405E+06 -1.296933E+06 -3.638987E+05 -2.023234E+06  2.128323E+04 -1.371805E+05
       140  21 -5.058805E+06 -1.228676E+06 -3.125299E+05 -1.982431E+06  1.331738E+04 -1.181274E+05
       140  22 -3.547900E+06 -6.765726E+05 -8.530372E+02 -1.566102E+06  5.476941E+04 -1.464609E+05
       140  23 -3.574357E+06 -6.498257E+05 -1.076670E+03 -1.535963E+06  4.703105E+04 -1.275133E+05
       140  24 -3.547466E+06 -6.756912E+05 -1.512065E+03 -1.566296E+06  3.927231E+04 -1.084080E+05
       140  25 -1.520941E+06  6.505063E+04  4.137239E+05 -1.006013E+06  8.040090E+04 -1.368126E+05
       140  26 -1.804082E+06 -2.456698E+03  3.615852E+05 -1.047401E+06  7.285825E+04 -1.178165E+05
       140  27 -2.033775E+06 -1.225192E+05  3.093868E+05 -1.149220E+06  6.529552E+04 -9.866312E+04
       141   1 -4.879580E+06 -1.162854E+06 -2.746244E+05 -1.933441E+06 -8.631561E+03  1.069668E+05
       141   2 -4.645413E+06 -1.040361E+06 -2.232812E+05 -1.830659E+06  4.416251E+02  8.811287E+04
       141   3 -4.357603E+06 -9.716291E+05 -1.732406E+05 -1.789636E+06  9.500740E+03  6.923550E+04
       141   4 -3.547292E+06 -6.757808E+05 -1.984858E+03 -1.566604E+06 -3.474993E+04  9.719855E+04
       141   5 -3.573949E+06 -6.486808E+05 -3.509698E+03 -1.535754E+06 -2.570620E+04  7.834883E+04
       141   6 -3.547040E+06 -6.753392E+05 -6.319835E+03 -1.566687E+06 -1.667741E+04  5.947555E+04
       141   7 -2.213153E+06 -1.885538E+05  2.705699E+05 -1.199030E+06 -6.092920E+04  8.740761E+04
       141   8 -2.501290E+06 -2.569019E+05  2.162069E+05 -1.240374E+06 -5.190298E+04  6.856651E+04
       141   9 -2.735797E+06 -3.789938E+05  1.605698E+05 -1.343465E+06 -4.289256E+04  4.970179E+04
       141  10 -4.879584E+06 -1.162866E+06 -2.746461E+05 -1.933440E+06  3.224588E-10  9.002877E-10
       141  11 -4.645415E+06 -1.040369E+06 -2.232957E+05 -1.830659E+06 -9.131123E-10 -2.270936E-09
       141  12 -4.357604E+06 -9.716342E+05 -1.732498E+05 -1.789637E+06 -3.643005E-09 -2.352735E-09
       141  13 -3.547296E+06 -6.757913E+05 -2.004842E+03 -1.566601E+06  4.017488E-11  8.421159E-10
       141  14 -3.573951E+06 -6.486875E+05 -3.522450E+03 -1.535752E+06  2.124480E-09  3.418186E-09
       141  15 -3.547042E+06 -6.753430E+05 -6.326992E+03 -1.566686E+06 -1.353858E-09 -2.163152E-09
       141  16 -2.213159E+06 -1.885629E+05  2.705486E+05 -1.199026E+06 -1.364377E-09  7.145045E-10
       141  17 -2.501294E+06 -2.569077E+05  2.161930E+05 -1.240371E+06  4.918426E-10  1.851630E-09
       141  18 -2.735800E+06 -3.789970E+05  1.605617E+05 -1.343464E+06  4.669403E-09  4.208111E-09
       141  19 -4.879580E+06 -1.162854E+06 -2.746244E+05 -1.933441E+06  8.631561E+03 -1.069668E+05
       141  20 -4.645413E+06 -1.040361E+06 -2.232812E+05 -1.830659E+06 -4.416251E+02 -8.811287E+04
       141  21 -4.357603E+06 -9.716291E+05 -1.732406E+05 -1.789636E+06 -9.500740E+03 -6.923550E+04
       141  22 -3.547292E+06 -6.757808E+05 -1.984858E+03 -1.566604E+06  3.474993E+04 -9.719855E+04
       141  23 -3.573949E+06 -6.486808E+05 -3.509698E+03 -1.535754E+06  2.570620E+04 -7.834883E+04
       141  24 -3.547040E+06 -6.753392E+05 -6.319835E+03 -1.566687E+06  1.667741E+04 -5.947555E+04
       141  25 -2.213153E+06 -1.885538E+05  2.705699E+05 -1.199030E+06  6.092920E+04 -8.740761E+04
       141  26 -2.501290E+06 -2.569019E+05  2.162069E+05 -1.240374E+06  5.190298E+04 -6.856651E+04
       141  27 -2.735797E+06 -3.789938E+05  1.605698E+05 -1.343465E+06  4.289256E+04 -4.970179E+04
       142   1 -4.175648E+06 -9.052912E+05 -1.364692E+05 -1.740723E+06  1.528743E+04  5.830225E+04
       142   2 -3.939243E+06 -7.815393E+05 -8.961451E+04 -1.635603E+06  2.861961E+04  4.140155E+04
       142   3 -3.650902E+06 -7.154784E+05 -4.834923E+04 -1.592119E+06  4.151721E+04  2.565197E+04
       142   4 -3.547275E+06 -6.751658E+05 -8.414820E+03 -1.567052E+06 -1.121951E+04  4.842615E+04
       142   5 -3.573348E+06 -6.484414E+05 -1.534118E+04 -1.535363E+06  3.654903E+03  3.210478E+04
       142   6 -3.547868E+06 -6.797203E+05 -2.908635E+04 -1.565339E+06  1.809216E+04  1.693322E+04
       142   7 -2.918497E+06 -4.450078E+05  1.196213E+05 -1.393217E+06 -3.775524E+04  3.853922E+04
       142   8 -3.207313E+06 -5.153320E+05  5.892813E+04 -1.435069E+06 -2.132569E+04  2.280212E+04
       142   9 -3.444821E+06 -6.439607E+05 -9.821309E+03 -1.538555E+06 -5.337251E+03  8.213004E+03
       142  10 -4.175650E+06 -9.052949E+05 -1.364760E+05 -1.740724E+06 -3.082720E-09 -2.551534E-09
       142  11 -3.939244E+06 -7.815414E+05 -8.961929E+04 -1.635604E+06  1.768763E-09  2.262669E-09
       142  12 -3.650904E+06 -7.154796E+05 -4.835374E+04 -1.592120E+06  4.165013E-09  1.885178E-10
       142  13 -3.547276E+06 -6.751684E+05 -8.419455E+03 -1.567051E+06 -1.121864E-09  5.900737E-10
       142  14 -3.573348E+06 -6.484425E+05 -1.534314E+04 -1.535363E+06  1.531155E-10 -3.227378E-09
       142  15 -3.547868E+06 -6.797207E+05 -2.908751E+04 -1.565339E+06  9.218788E-10 -1.598441E-09
       142  16 -2.918499E+06 -4.450098E+05  1.196158E+05 -1.393216E+06  1.244140E-09  1.889919E-09
       142  17 -3.207314E+06 -5.153326E+05  5.892630E+04 -1.435068E+06 -7.585345E-10  5.743168E-10
       142  18 -3.444821E+06 -6.439608E+05 -9.821489E+03 -1.538555E+06 -1.847184E-09 -3.513742E-09
       142  19 -4.175648E+06 -9.052912E+05 -1.364692E+05 -1.740723E+06 -1.528743E+04 -5.830225E+04
       142  20 -3.939243E+06 -7.815393E+05 -8.961451E+04 -1.635603E+06 -2.861961E+04 -4.140155E+04
       142  21 -3.650902E+06 -7.154784E+05 -4.834923E+04 -1.592119E+06 -4.151721E+04 -2.565197E+04
       142  22 -3.547275E+06 -6.751658E+05 -8.414820E+03 -1.567052E+06  1.121951E+04 -4.842615E+04
       142  23 -3.573348E+06 -6.484414E+05 -1.534118E+04 -1.535363E+06 -3.654903E+03 -3.210478E+04
       142  24 -3.547868E+06 -6.797203E+05 -2.908635E+04 -1.565339E+06 -1.809216E+04 -1.693322E+04
       142  25 -2.918497E+06 -4.450078E+05  1.196213E+05 -1.393217E+06  3.775524E+04 -3.853922E+04
       142  26 -3.207313E+06 -5.153320E+05  5.892813E+04 -1.435069E+06  2.132569E+04 -2.280212E+04
       142  27 -3.444821E+06 -6.439607E+05 -9.821309E+03 -1.538555E+06  5.337251E+03 -8.213004E+03
       143   1 -3.461988E+06 -6.532916E+05 -1.820902E+04 -1.557846E+06  5.431617E+04  1.699379E+04
       143   2 -3.246243E+06 -5.152221E+05  1.050957E+04 -1.409342E+06  7.023286E+04  1.042362E+04
       143   3 -3.010966E+06 -5.161470E+05  6.863357E+03 -1.299659E+06  7.909881E+04  2.278431E+04
       143   4 -3.552695E+06 -6.743484E+05 -3.793214E+04 -1.569391E+06  2.687371E+04  6.781463E+03
       143   5 -3.568516E+06 -6.633714E+05 -7.065810E+04 -1.527275E+06  6.817552E+04  9.653020E+03
       143   6 -3.569960E+06 -7.965041E+05 -1.559633E+05 -1.524029E+06  1.024185E+05  3.145626E+04
       143   7 -3.643392E+06 -6.954049E+05 -5.765249E+04 -1.580935E+06 -5.644687E+02 -3.430690E+03
       143   8 -3.890678E+06 -8.114937E+05 -1.518323E+05 -1.645145E+06  6.611935E+04  8.883105E+03
       143   9 -4.128615E+06 -1.076753E+06 -3.188117E+05 -1.748183E+06  1.257144E+05  4.011256E+04
       143  10 -3.461991E+06 -6.532927E+05 -1.821515E+04 -1.557847E+06  2.699341E-10 -4.585792E-09
       143  11 -3.246249E+06 -5.152235E+05  1.050005E+04 -1.409342E+06  2.937090E-10 -3.090269E-09
       143  12 -3.010973E+06 -5.161493E+05  6.850552E+03 -1.299660E+06 -2.457061E-09 -5.573722E-09
       143  13 -3.552696E+06 -6.743486E+05 -3.793359E+04 -1.569392E+06  3.204032E-09 -4.099156E-10
       143  14 -3.568522E+06 -6.633728E+05 -7.066706E+04 -1.527276E+06  1.547495E-09  6.143023E-10
       143  15 -3.569971E+06 -7.965080E+05 -1.559850E+05 -1.524031E+06  2.156697E-09 -2.182075E-10
       143  16 -3.643392E+06 -6.954049E+05 -5.765252E+04 -1.580935E+06  2.372387E-09 -1.705002E-09
       143  17 -3.890683E+06 -8.114950E+05 -1.518407E+05 -1.645145E+06  2.469825E-11  1.377818E-12
       143  18 -4.128633E+06 -1.076759E+06 -3.188447E+05 -1.748187E+06  8.152172E-10 -1.850417E-09
       143  19 -3.461988E+06 -6.532916E+05 -1.820902E+04 -1.557846E+06 -5.431617E+04 -1.699379E+04
       143  20 -3.246243E+06 -5.152221E+05  1.050957E+04 -1.409342E+06 -7.023286E+04 -1.042362E+04
       143  21 -3.010966E+06 -5.161470E+05  6.863357E+03 -1.299659E+06 -7.909881E+04 -2.278431E+04
       143  22 -3.552695E+06 -6.743484E+05 -3.793214E+04 -1.569391E+06 -2.687371E+04 -6.781463E+03
       143  23 -3.568516E+06 -6.633714E+05 -7.065810E+04 -1.527275E+06 -6.817552E+04 -9.653020E+03
       143  24 -3.569960E+06 -7.965041E+05 -1.559633E+05 -1.524029E+06 -1.024185E+05 -3.145626E+04
       143  25 -3.643392E+06 -6.954049E+05 -5.765249E+04 -1.580935E+06  5.644687E+02  3.430690E+03
       143  26 -3.890678E+06 -8.114937E+05 -1.518323E+05 -1.645145E+06 -6.611935E+04 -8.883105E+03
       143  27 -4.128615E+06 -1.076753E+06 -3.188117E+05 -1.748183E+06 -1.257144E+05 -4.011256E+04
       144   1  2.617263E+05  5.424220E+04  7.363823E+04  1.247111E+04  5.882346E+04  4.053452E+02
       144   2  2.537233E+05 -2.496763E+04  2.569311E+04  4.083864E+03  3.879686E+04  1.134430E+03
       144   3  2.709512E+05 -1.370845E+04  1.340324E+04 -9.439003E+03  1.876984E+04  9.208178E+02
       144   4  3.142860E+05  6.735228E+04  8.668632E+04 -2.527716E+03  5.923216E+04  4.040066E+02
       144   5  3.016490E+05 -1.304085E+04  3.742366E+04  4.708287E+01  3.888693E+04  1.134187E+03
       144   6  3.142958E+05 -2.913944E+03  2.403523E+04 -2.513674E+03  1.854144E+04  9.209952E+02
       144   7  3.668486E+05  8.046300E+04  9.973433E+04 -1.752781E+04  5.964089E+04  4.026483E+02
       144   8  3.495768E+05 -1.114188E+03  4.915406E+04 -3.990010E+03  3.897700E+04  1.133942E+03
       144   9  3.576422E+05  7.880607E+03  3.466710E+04  4.412139E+03  1.831302E+04  9.211674E+02
       144  10  2.617226E+05  5.424127E+04  7.363173E+04  1.247109E+04  1.172076E-09 -3.805729E-10
       144  11  2.537217E+05 -2.496803E+04  2.569028E+04  4.083828E+03 -3.581188E-09 -3.684956E-10
       144  12  2.709508E+05 -1.370855E+04  1.340257E+04 -9.439017E+03  2.244249E-09 -2.439731E-10
       144  13  3.142822E+05  6.735134E+04  8.667973E+04 -2.527736E+03  2.377371E-09  6.377368E-11
       144  14  3.016474E+05 -1.304126E+04  3.742082E+04  4.704736E+01 -2.002264E-09 -3.270135E-10
       144  15  3.142954E+05 -2.914037E+03  2.403458E+04 -2.513688E+03  2.577639E-09 -6.762648E-10
       144  16  3.668448E+05  8.046204E+04  9.972765E+04 -1.752783E+04 -2.204600E-09  1.531032E-10
       144  17  3.495752E+05 -1.114597E+03  4.915120E+04 -3.990046E+03 -5.022282E-10 -1.980355E-10
       144  18  3.576418E+05  7.880516E+03  3.466647E+04  4.412126E+03  2.780168E-09 -6.703231E-10
       144  19  2.617263E+05  5.424220E+04  7.363823E+04  1.247111E+04 -5.882346E+04 -4.053452E+02
       144  20  2.537233E+05 -2.496763E+04  2.569311E+04  4.083864E+03 -3.879686E+04 -1.134430E+03
       144  21  2.709512E+05 -1.370845E+04  1.340324E+04 -9.439003E+03 -1.876984E+04 -9.208178E+02
       144  22  3.142860E+05  6.735228E+04  8.668632E+04 -2.527716E+03 -5.923216E+04 -4.040066E+02
       144  23  3.016490E+05 -1.304085E+04  3.742366E+04  4.708287E+01 -3.888693E+04 -1.134187E+03
       144  24  3.142958E+05 -2.913944E+03  2.403523E+04 -2.513674E+03 -1.854144E+04 -9.209952E+02
       144  25  3.668486E+05  8.046300E+04  9.973433E+04 -1.752781E+04 -5.964089E+04 -4.026483E+02
       144  26  3.495768E+05 -1.114188E+03  4.915406E+04 -3.990010E+03 -3.897700E+04 -1.133942E+03
       144  27  3.576422E+05  7.880607E+03  3.466710E+04  4.412139E+03 -1.831302E+04 -9.211674E+02
       145   1  2.765792E+05  5.684966E+02  1.170004E+04 -6.753930E+02  1.467680E+04  6.834406E+02
       145   2  2.792838E+05 -8.779192E+03  2.766258E+03  4.660652E+02  9.665178E+03  6.207891E+02
       145   3  2.855950E+05 -6.321011E+03  4.643084E+01 -3.429727E+03  4.653532E+03  4.547300E+02
       145   4  3.094775E+05  8.760076E+03  1.977262E+04 -2.496713E+03  1.467381E+04  6.833948E+02
       145   5  3.076722E+05 -1.711598E+03  9.725381E+03  2.234437E+01  9.627181E+03  6.207774E+02
       145   6  3.094793E+05 -3.716461E+02  5.916148E+03 -2.495824E+03  4.580564E+03  4.547322E+02
       145   7  3.423768E+05  1.695159E+04  2.784513E+04 -4.318130E+03  1.467082E+04  6.833491E+02
       145   8  3.360614E+05  5.355936E+03  1.668444E+04 -4.213968E+02  9.589183E+03  6.207658E+02
       145   9  3.333642E+05  5.577680E+03  1.178582E+04 -1.561885E+03  4.507593E+03  4.547342E+02
       145  10  2.765790E+05  5.684383E+02  1.169963E+04 -6.754010E+02 -3.889293E-09 -3.702179E-11
       145  11  2.792837E+05 -8.779217E+03  2.766082E+03  4.660604E+02  5.979533E-10  9.637417E-11
       145  12  2.855949E+05 -6.321017E+03  4.638977E+01 -3.429729E+03  4.600374E-09 -1.600359E-10
       145  13  3.094773E+05  8.760018E+03  1.977222E+04 -2.496721E+03  2.318037E-09 -3.235429E-10
       145  14  3.076721E+05 -1.711623E+03  9.725206E+03  2.233956E+01  1.260406E-09 -2.152846E-10
       145  15  3.094793E+05 -3.716519E+02  5.916109E+03 -2.495826E+03 -3.336164E-09 -2.968574E-10
       145  16  3.423766E+05  1.695153E+04  2.784472E+04 -4.318138E+03  2.764895E-09 -9.343731E-10
       145  17  3.360613E+05  5.355911E+03  1.668427E+04 -4.214016E+02 -3.685074E-09 -6.267615E-10
       145  18  3.333642E+05  5.577674E+03  1.178579E+04 -1.561887E+03 -4.745965E-09 -3.335443E-10
       145  19  2.765792E+05  5.684966E+02  1.170004E+04 -6.753930E+02 -1.467680E+04 -6.834406E+02
       145  20  2.792838E+05 -8.779192E+03  2.766258E+03  4.660652E+02 -9.665178E+03 -6.207891E+02
       145  21  2.855950E+05 -6.321011E+03  4.643084E+01 -3.429727E+03 -4.653532E+03 -4.547300E+02
       145  22  3.094775E+05  8.760076E+03  1.977262E+04 -2.496713E+03 -1.467381E+04 -6.833948E+02
       145  23  3.076722E+05 -1.711598E+03  9.725381E+03  2.234437E+01 -9.627181E+03 -6.207774E+02
       145  24  3.094793E+05 -3.716461E+02  5.916148E+03 -2.495824E+03 -4.580564E+03 -4.547322E+02
       145  25  3.423768E+05  1.695159E+04  2.784513E+04 -4.318130E+03 -1.467082E+04 -6.833491E+02
       145  26  3.360614E+05  5.355936E+03  1.668444E+04 -4.213968E+02 -9.589183E+03 -6.207658E+02
       145  27  3.333642E+05  5.577680E+03  1.178582E+04 -1.561885E+03 -4.507593E+03 -4.547342E+02
       146   1  2.952137E+05 -2.250513E+03  1.367756E+03 -2.282732E+03  3.680915E+03  3.458198E+02
       146   2  2.994030E+05 -2.495639E+03  2.486147E+02  4.643599E+01  2.425669E+03  1.969755E+02
       146   3  3.041394E+05 -1.208210E+03  3.296531E+02 -2.613853E+03  1.170431E+03  3.698050E+01
       146   4  3.087981E+05  1.129311E+03  4.687099E+03 -2.485508E+03  3.632823E+03  3.458161E+02
       146   5  3.085244E+05 -2.246686E+02  2.485128E+03  9.242080E+00  2.373803E+03  1.969734E+02
       146   6  3.087985E+05 -4.543810E+01  1.485951E+03 -2.485461E+03  1.114800E+03  3.697938E+01
       146   7  3.223827E+05  4.509122E+03  8.006429E+03 -2.688289E+03  3.584731E+03  3.458125E+02
       146   8  3.176459E+05  2.046295E+03  4.721636E+03 -2.795237E+01  2.321937E+03  1.969713E+02
       146   9  3.134576E+05  1.117332E+03  2.642247E+03 -2.357068E+03  1.059168E+03  3.697824E+01
       146  10  2.952137E+05 -2.250517E+03  1.367730E+03 -2.282733E+03 -1.522649E-09  1.428572E-10
       146  11  2.994030E+05 -2.495640E+03  2.486035E+02  4.643560E+01 -2.784110E-09  5.046398E-10
       146  12  3.041394E+05 -1.208210E+03  3.296506E+02 -2.613853E+03 -8.751447E-10 -5.230905E-10
       146  13  3.087981E+05  1.129308E+03  4.687074E+03 -2.485509E+03 -4.386648E-09  1.129766E-10
       146  14  3.085244E+05 -2.246702E+02  2.485118E+03  9.241704E+00 -1.062772E-09  5.903663E-10
       146  15  3.087985E+05 -4.543844E+01  1.485949E+03 -2.485461E+03 -2.122422E-10 -4.951467E-10
       146  16  3.223827E+05  4.509119E+03  8.006405E+03 -2.688290E+03 -1.880204E-09  9.355568E-11
       146  17  3.176459E+05  2.046294E+03  4.721626E+03 -2.795274E+01 -4.047289E-09  5.168039E-10
       146  18  3.134576E+05  1.117332E+03  2.642245E+03 -2.357068E+03  4.710009E-10 -3.407735E-10
       146  19  2.952137E+05 -2.250513E+03  1.367756E+03 -2.282732E+03 -3.680915E+03 -3.458198E+02
       146  20  2.994030E+05 -2.495639E+03  2.486147E+02  4.643599E+01 -2.425669E+03 -1.969755E+02
       146  21  3.041394E+05 -1.208210E+03  3.296531E+02 -2.613853E+03 -1.170431E+03 -3.698050E+01
       146  22  3.087981E+05  1.129311E+03  4.687099E+03 -2.485508E+03 -3.632823E+03 -3.458161E+02
       146  23  3.085244E+05 -2.246686E+02  2.485128E+03  9.242080E+00 -2.373803E+03 -1.969734E+02
       146  24  3.087985E+05 -4.543810E+01  1.485951E+03 -2.485461E+03 -1.114800E+03 -3.697938E+01
       146  25  3.223827E+05  4.509122E+03  8.006429E+03 -2.688289E+03 -3.584731E+03 -3.458125E+02
       146  26  3.176459E+05  2.046295E+03  4.721636E+03 -2.795237E+01 -2.321937E+03 -1.969713E+02
       146  27  3.134576E+05  1.117332E+03  2.642247E+03 -2.357068E+03 -1.059168E+03 -3.697824E+01
       147   1  3.142912E+05  1.538115E+03  2.551097E+03 -2.467023E+03  9.290411E+02 -5.740126E+01
       147   2  3.187067E+05  2.472994E+03  3.146574E+03  1.005022E+01  5.892544E+02 -2.155977E+02
       147   3  3.232187E+05  3.613334E+03  4.014710E+03 -2.503651E+03  2.494650E+02 -3.753767E+02
       147   4  3.086981E+05  1.428529E+02  1.165886E+03 -2.485773E+03  8.761285E+02 -5.740261E+01
       147   5  3.086500E+05 -3.088155E+01  6.804330E+02  9.618240E+00  5.358117E+02 -2.155998E+02
       147   6  3.086982E+05  9.234389E-01  4.679907E+02 -2.485769E+03  1.954947E+02 -3.753795E+02
       147   7  3.031052E+05 -1.252411E+03 -2.193275E+02 -2.504523E+03  8.232164E+02 -5.740395E+01
       147   8  2.985933E+05 -2.534764E+03 -1.785716E+03  9.186268E+00  4.823699E+02 -2.156019E+02
       147   9  2.941780E+05 -3.611503E+03 -3.078744E+03 -2.467888E+03  1.415255E+02 -3.753824E+02
       147  10  3.142912E+05  1.538114E+03  2.551095E+03 -2.467023E+03  8.755618E-10 -7.864018E-10
       147  11  3.187067E+05  2.472993E+03  3.146574E+03  1.005032E+01 -3.514791E-10 -6.544072E-11
       147  12  3.232187E+05  3.613334E+03  4.014709E+03 -2.503651E+03 -2.296166E-09  3.246124E-10
       147  13  3.086981E+05  1.428527E+02  1.165885E+03 -2.485773E+03 -4.296605E-09 -8.144983E-10
       147  14  3.086500E+05 -3.088168E+01  6.804324E+02  9.618333E+00 -1.126615E-09 -1.394540E-10
       147  15  3.086982E+05  9.232773E-01  4.679904E+02 -2.485769E+03 -1.474427E-09  7.913523E-10
       147  16  3.031052E+05 -1.252411E+03 -2.193288E+02 -2.504523E+03  3.476709E-09 -8.738945E-10
       147  17  2.985933E+05 -2.534764E+03 -1.785716E+03  9.186352E+00 -8.444747E-10 -3.337737E-10
       147  18  2.941780E+05 -3.611503E+03 -3.078744E+03 -2.467888E+03  2.963065E-09  1.234425E-09
       147  19  3.142912E+05  1.538115E+03  2.551097E+03 -2.467023E+03 -9.290411E+02  5.740126E+01
       147  20  3.187067E+05  2.472994E+03  3.146574E+03  1.005022E+01 -5.892544E+02  2.155977E+02
       147  21  3.232187E+05  3.613334E+03  4.014710E+03 -2.503651E+03 -2.494650E+02  3.753767E+02
       147  22  3.086981E+05  1.428529E+02  1.165886E+03 -2.485773E+03 -8.761285E+02  5.740261E+01
       147  23  3.086500E+05 -3.088155E+01  6.804330E+02  9.618240E+00 -5.358117E+02  2.155998E+02
       147  24  3.086982E+05  9.234389E-01  4.679907E+02 -2.485769E+03 -1.954947E+02  3.753795E+02
       147  25  3.031052E+05 -1.252411E+03 -2.193275E+02 -2.504523E+03 -8.232164E+02  5.740395E+01
       147  26  2.985933E+05 -2.534764E+03 -1.785716E+03  9.186268E+00 -4.823699E+02  2.156019E+02
       147  27  2.941780E+05 -3.611503E+03 -3.078744E+03 -2.467888E+03 -1.415255E+02  3.753824E+02
       148   1  3.335146E+05  6.199033E+03  6.517881E+03 -2.489041E+03  1.696802E+02 -4.689753E+02
       148   2  3.379969E+05  7.288287E+03  7.587351E+03  2.440046E+01 -2.715535E+01 -6.294885E+02
       148   3  3.425328E+05  8.476937E+03  8.810418E+03 -2.503848E+03 -2.239788E+02 -7.894548E+02
       148   4  3.086886E+05  1.525314E+01  4.161753E+02 -2.497086E+03  1.156344E+02 -4.689793E+02
       148   5  3.086618E+05 -1.531740E+01  3.939077E+02  2.376370E+01 -8.100994E+01 -6.294947E+02
       148   6  3.086886E+05  5.347853E+01  5.251106E+02 -2.497091E+03 -2.776407E+02 -7.894632E+02
       148   7  2.838631E+05 -6.168572E+03 -5.685576E+03 -2.505131E+03  6.159065E+01 -4.689834E+02
       148   8  2.793274E+05 -7.318986E+03 -6.799599E+03  2.312695E+01 -1.348620E+02 -6.295010E+02
       148   9  2.748453E+05 -8.370064E+03 -7.760281E+03 -2.490334E+03 -3.312997E+02 -7.894716E+02
       148  10  3.335146E+05  6.199033E+03  6.517880E+03 -2.489041E+03  6.367049E-10 -8.710895E-12
       148  11  3.379969E+05  7.288287E+03  7.587350E+03  2.440045E+01  2.218624E-09 -4.243130E-10
       148  12  3.425328E+05  8.476936E+03  8.810417E+03 -2.503848E+03  7.578249E-10  6.083478E-10
       148  13  3.086886E+05  1.525290E+01  4.161749E+02 -2.497086E+03  2.404328E-09  4.566741E-10
       148  14  3.086618E+05 -1.531782E+01  3.939070E+02  2.376366E+01 -8.312484E-10 -6.845469E-10
       148  15  3.086886E+05  5.347784E+01  5.251093E+02 -2.497091E+03  1.139010E-09  5.448226E-11
       148  16  2.838631E+05 -6.168573E+03 -5.685576E+03 -2.505131E+03 -2.768957E-09  6.583747E-10
       148  17  2.793274E+05 -7.318986E+03 -6.799599E+03  2.312688E+01 -2.718276E-09 -1.334304E-09
       148  18  2.748453E+05 -8.370065E+03 -7.760282E+03 -2.490335E+03 -1.986151E-09 -5.529549E-10
       148  19  3.335146E+05  6.199033E+03  6.517881E+03 -2.489041E+03 -1.696802E+02  4.689753E+02
       148  20  3.379969E+05  7.288287E+03  7.587351E+03  2.440046E+01  2.715535E+01  6.294885E+02
       148  21  3.425328E+05  8.476937E+03  8.810418E+03 -2.503848E+03  2.239788E+02  7.894548E+02
       148  22  3.086886E+05  1.525314E+01  4.161753E+02 -2.497086E+03 -1.156344E+02  4.689793E+02
       148  23  3.086618E+05 -1.531740E+01  3.939077E+02  2.376370E+01  8.100994E+01  6.294947E+02
       148  24  3.086886E+05  5.347853E+01  5.251106E+02 -2.497091E+03  2.776407E+02  7.894632E+02
       148  25  2.838631E+05 -6.168572E+03 -5.685576E+03 -2.505131E+03 -6.159065E+01  4.689834E+02
       148  26  2.793274E+05 -7.318986E+03 -6.799599E+03  2.312695E+01  1.348620E+02  6.295010E+02
       148  27  2.748453E+05 -8.370064E+03 -7.760281E+03 -2.490334E+03  3.312997E+02  7.894716E+02
       149   1  3.530318E+05  1.101733E+04  1.150886E+04 -2.466605E+03 -3.235812E+02 -8.870079E+02
       149   2  3.575198E+05  1.208829E+04  1.298084E+04  4.345594E+01 -8.303483E+02 -1.051313E+03
       149   3  3.622299E+05  1.375141E+04  1.493232E+04 -2.589452E+03 -1.337093E+03 -1.198005E+03
       149   4  3.087256E+05 -1.636037E+01  6.304056E+02 -2.519568E+03 -3.817304E+02 -8.870192E+02
       149   5  3.086149E+05 -8.739988E+01  9.891113E+02  5.188302E+01 -8.825419E+02 -1.051327E+03
       149   6  3.087254E+05  4.327356E+02  1.823227E+03 -2.519660E+03 -1.383327E+03 -1.198022E+03
       149   7  2.644211E+05 -1.105019E+04 -1.024819E+04 -2.572527E+03 -4.398754E+02 -8.870306E+02
       149   8  2.597122E+05 -1.226326E+04 -1.100279E+04  6.030934E+01 -9.347314E+02 -1.051341E+03
       149   9  2.552235E+05 -1.288615E+04 -1.128608E+04 -2.449875E+03 -1.429557E+03 -1.198039E+03
       149  10  3.530318E+05  1.101733E+04  1.150886E+04 -2.466606E+03 -4.264295E-10  1.790707E-09
       149  11  3.575198E+05  1.208828E+04  1.298084E+04  4.345524E+01 -1.562082E-09  1.227613E-09
       149  12  3.622299E+05  1.375140E+04  1.493231E+04 -2.589453E+03 -1.981228E-09 -1.282813E-09
       149  13  3.087256E+05 -1.636126E+01  6.304038E+02 -2.519568E+03  6.640077E-11  1.203155E-09
       149  14  3.086149E+05 -8.740128E+01  9.891078E+02  5.188227E+01  3.166884E-09  1.147070E-09
       149  15  3.087254E+05  4.327335E+02  1.823221E+03 -2.519662E+03  2.113495E-09 -1.170873E-09
       149  16  2.644211E+05 -1.105019E+04 -1.024819E+04 -2.572528E+03  3.702340E-10  5.820103E-10
       149  17  2.597122E+05 -1.226326E+04 -1.100280E+04  6.030855E+01  8.497477E-11  9.823142E-10
       149  18  2.552235E+05 -1.288615E+04 -1.128608E+04 -2.449877E+03  3.212610E-09 -6.418362E-10
       149  19  3.530318E+05  1.101733E+04  1.150886E+04 -2.466605E+03  3.235812E+02  8.870079E+02
       149  20  3.575198E+05  1.208829E+04  1.298084E+04  4.345594E+01  8.303483E+02  1.051313E+03
       149  21  3.622299E+05  1.375141E+04  1.493232E+04 -2.589452E+03  1.337093E+03  1.198005E+03
       149  22  3.087256E+05 -1.636037E+01  6.304056E+02 -2.519568E+03  3.817304E+02  8.870192E+02
       149  23  3.086149E+05 -8.739988E+01  9.891113E+02  5.188302E+01  8.825419E+02  1.051327E+03
       149  24  3.087254E+05  4.327356E+02  1.823227E+03 -2.519660E+03  1.383327E+03  1.198022E+03
       149  25  2.644211E+05 -1.105019E+04 -1.024819E+04 -2.572527E+03  4.398754E+02  8.870306E+02
       149  26  2.597122E+05 -1.226326E+04 -1.100279E+04  6.030934E+01  9.347314E+02  1.051341E+03
       149  27  2.552235E+05 -1.288615E+04 -1.128608E+04 -2.449875E+03  1.429557E+03  1.198039E+03
       150   1  3.732137E+05  1.584837E+04  1.805322E+04 -2.181664E+03 -1.662043E+03 -1.322361E+03
       150   2  3.772436E+05  1.650741E+04  2.065606E+04 -6.259971E+01 -3.668566E+03 -1.499504E+03
       150   3  3.826893E+05  2.172139E+04  2.570666E+04 -3.234935E+03 -5.675169E+03 -1.498158E+03
       150   4  3.089883E+05 -1.442495E+02  2.292145E+03 -2.552194E+03 -1.751293E+03 -1.322391E+03
       150   5  3.082852E+05 -6.598912E+02  3.750904E+03  9.289272E+01 -3.697625E+03 -1.499524E+03
       150   6  3.089876E+05  3.369215E+03  7.615820E+03 -2.553445E+03 -5.644021E+03 -1.498164E+03
       150   7  2.447667E+05 -1.613717E+04 -1.346924E+04 -2.922686E+03 -1.840533E+03 -1.322421E+03
       150   8  2.393312E+05 -1.782755E+04 -1.315460E+04  2.483675E+02 -3.726681E+03 -1.499545E+03
       150   9  2.352909E+05 -1.498336E+04 -1.047541E+04 -1.872036E+03 -5.612877E+03 -1.498170E+03
       150  10  3.732137E+05  1.584836E+04  1.805322E+04 -2.181666E+03 -5.780843E-10 -1.891676E-09
       150  11  3.772436E+05  1.650741E+04  2.065603E+04 -6.260414E+01 -1.211771E-09 -3.546747E-10
       150  12  3.826892E+05  2.172138E+04  2.570659E+04 -3.234942E+03  1.266762E-09 -4.374551E-10
       150  13  3.089883E+05 -1.442522E+02  2.292136E+03 -2.552196E+03  1.478066E-10 -1.634604E-09
       150  14  3.082852E+05 -6.598973E+02  3.750874E+03  9.288826E+01  1.161327E-09 -4.709131E-10
       150  15  3.089876E+05  3.369204E+03  7.615756E+03 -2.553452E+03  7.669050E-11 -2.473837E-10
       150  16  2.447667E+05 -1.613717E+04 -1.346925E+04 -2.922688E+03 -4.377942E-10 -1.280826E-09
       150  17  2.393312E+05 -1.782755E+04 -1.315463E+04  2.483630E+02 -5.596762E-09  2.966520E-10
       150  18  2.352908E+05 -1.498337E+04 -1.047548E+04 -1.872043E+03 -2.458413E-10  3.018231E-10
       150  19  3.732137E+05  1.584837E+04  1.805322E+04 -2.181664E+03  1.662043E+03  1.322361E+03
       150  20  3.772436E+05  1.650741E+04  2.065606E+04 -6.259971E+01  3.668566E+03  1.499504E+03
       150  21  3.826893E+05  2.172139E+04  2.570666E+04 -3.234935E+03  5.675169E+03  1.498158E+03
       150  22  3.089883E+05 -1.442495E+02  2.292145E+03 -2.552194E+03  1.751293E+03  1.322391E+03
       150  23  3.082852E+05 -6.598912E+02  3.750904E+03  9.289272E+01  3.697625E+03  1.499524E+03
       150  24  3.089876E+05  3.369215E+03  7.615820E+03 -2.553445E+03  5.644021E+03  1.498164E+03
       150  25  2.447667E+05 -1.613717E+04 -1.346924E+04 -2.922686E+03  1.840533E+03  1.322421E+03
       150  26  2.393312E+05 -1.782755E+04 -1.315460E+04  2.483675E+02  3.726681E+03  1.499545E+03
       150  27  2.352909E+05 -1.498336E+04 -1.047541E+04 -1.872036E+03  5.612877E+03  1.498170E+03
       151   1  3.956275E+05  1.998552E+04  3.004056E+04  9.939669E+01 -6.773506E+03 -1.846132E+03
       151   2  3.956405E+05  1.729496E+04  3.635625E+04 -1.379125E+03 -1.515696E+04 -2.103976E+03
       151   3  4.055041E+05  4.954116E+04  5.686710E+04 -8.342926E+03 -2.354137E+04 -7.242547E+02
       151   4  3.108438E+05 -1.124150E+03  9.255787E+03 -2.590981E+03 -7.133570E+03 -1.846267E+03
       151   5  3.059636E+05 -5.021870E+03  1.440498E+04  1.441456E+02 -1.496557E+04 -2.103939E+03
       151   6  3.108397E+05  2.592410E+04  3.336797E+04 -2.605992E+03 -2.279844E+04 -7.240560E+02
       151   7  2.260666E+05 -2.223432E+04 -1.152951E+04 -5.280991E+03 -7.493585E+03 -1.846398E+03
       151   8  2.162941E+05 -2.733928E+04 -7.546880E+03  1.667195E+03 -1.477421E+04 -2.103901E+03
       151   9  2.161836E+05  2.306498E+03  9.868187E+03  3.130066E+03 -2.205563E+04 -7.238436E+02
       151  10  3.956275E+05  1.998550E+04  3.004047E+04  9.938663E+01  3.294985E-09 -1.225813E-09
       151  11  3.956403E+05  1.729489E+04  3.635581E+04 -1.379151E+03  2.584668E-10 -1.979334E-09
       151  12  4.055035E+05  4.954101E+04  5.686606E+04 -8.342939E+03  1.402193E-09 -6.041002E-10
       151  13  3.108437E+05 -1.124167E+03  9.255685E+03 -2.590991E+03  2.057632E-09 -2.006590E-09
       151  14  3.059634E+05 -5.021935E+03  1.440455E+04  1.441202E+02  2.617614E-09  8.969830E-10
       151  15  3.108392E+05  2.592396E+04  3.336699E+04 -2.606005E+03 -7.318812E-10 -9.224159E-11
       151  16  2.260666E+05 -2.223434E+04 -1.152962E+04 -5.281002E+03  1.003745E-09 -8.241261E-11
       151  17  2.162939E+05 -2.733935E+04 -7.547299E+03  1.667170E+03 -1.966045E-09  9.052885E-10
       151  18  2.161831E+05  2.306367E+03  9.867273E+03  3.130054E+03  2.668702E-10 -4.763147E-10
       151  19  3.956275E+05  1.998552E+04  3.004056E+04  9.939669E+01  6.773506E+03  1.846132E+03
       151  20  3.956405E+05  1.729496E+04  3.635625E+04 -1.379125E+03  1.515696E+04  2.103976E+03
       151  21  4.055041E+05  4.954116E+04  5.686710E+04 -8.342926E+03  2.354137E+04  7.242547E+02
       151  22  3.108438E+05 -1.124150E+03  9.255787E+03 -2.590981E+03  7.133570E+03  1.846267E+03
       151  23  3.059636E+05 -5.021870E+03  1.440498E+04  1.441456E+02  1.496557E+04  2.103939E+03
       151  24  3.108397E+05  2.592410E+04  3.336797E+04 -2.605992E+03  2.279844E+04  7.240560E+02
       151  25  2.260666E+05 -2.223432E+04 -1.152951E+04 -5.280991E+03  7.493585E+03  1.846398E+03
       151  26  2.162941E+05 -2.733928E+04 -7.546880E+03  1.667195E+03  1.477421E+04  2.103901E+03
       151  27  2.161836E+05  2.306498E+03  9.868187E+03  3.130066E+03  2.205563E+04  7.238436E+02
       152   1  2.834854E+06  1.152291E+07  2.850870E+06 -1.268357E+06  7.942065E+04  1.295656E+05
       152   2  2.179233E+06  9.247059E+06  2.222562E+06 -8.840596E+04  2.138303E+05  2.893664E+04
       152   3  1.747643E+06  7.177033E+06  1.741262E+06 -1.309976E+06  1.311189E+05 -7.399565E+04
       152   4  7.402884E+04  3.882479E+05  1.044755E+05 -1.207905E+06  7.994049E+04  4.651553E+04
       152   5 -3.815351E+04  2.943304E+05  4.374684E+04 -5.672756E+03  2.141309E+05  2.044309E+04
       152   6  6.129194E+04  3.883087E+05  7.967344E+04 -1.207215E+06  1.298179E+05 -8.302754E+03
       152   7 -2.695991E+06 -1.063507E+07 -2.651065E+06 -1.148281E+06  8.045054E+04 -3.507326E+04
       152   8 -2.261410E+06 -8.585993E+06 -2.140880E+06  7.609756E+04  2.144320E+05  1.206894E+04
       152   9 -1.628443E+06 -6.358741E+06 -1.585269E+06 -1.105312E+06  1.285310E+05  5.667983E+04
       152  10  2.834843E+06  1.152290E+07  2.850827E+06 -1.268365E+06  2.643936E-09 -6.784832E-09
       152  11  2.179183E+06  9.247046E+06  2.222475E+06 -8.841092E+04 -1.497686E-09 -1.904626E-08
       152  12  1.747623E+06  7.177023E+06  1.741220E+06 -1.309968E+06  5.242584E-09  3.778585E-08
       152  13  7.402139E+04  3.882439E+05  1.044594E+05 -1.207908E+06  4.914366E-09 -6.028987E-11
       152  14 -3.820287E+04  2.943177E+05  4.365988E+04 -5.676281E+03  9.220975E-10 -6.577630E-09
       152  15  6.127383E+04  3.883041E+05  7.964165E+04 -1.207214E+06  1.444060E-09 -2.378338E-09
       152  16 -2.695998E+06 -1.063508E+07 -2.651079E+06 -1.148278E+06  2.627102E-09  6.796720E-09
       152  17 -2.261460E+06 -8.586005E+06 -2.140966E+06  7.609547E+04  6.603224E-09  3.373212E-08
       152  18 -1.628462E+06 -6.358749E+06 -1.585307E+06 -1.105318E+06  2.162803E-09 -2.835072E-08
       152  19  2.834854E+06  1.152291E+07  2.850870E+06 -1.268357E+06 -7.942065E+04 -1.295656E+05
       152  20  2.179233E+06  9.247059E+06  2.222562E+06 -8.840596E+04 -2.138303E+05 -2.893664E+04
       152  21  1.747643E+06  7.177033E+06  1.741262E+06 -1.309976E+06 -1.311189E+05  7.399565E+04
       152  22  7.402884E+04  3.882479E+05  1.044755E+05 -1.207905E+06 -7.994049E+04 -4.651553E+04
       152  23 -3.815351E+04  2.943304E+05  4.374684E+04 -5.672756E+03 -2.141309E+05 -2.044309E+04
       152  24  6.129194E+04  3.883087E+05  7.967344E+04 -1.207215E+06 -1.298179E+05  8.302754E+03
       152  25 -2.695991E+06 -1.063507E+07 -2.651065E+06 -1.148281E+06 -8.045054E+04  3.507326E+04
       152  26 -2.261410E+06 -8.585993E+06 -2.140880E+06  7.609756E+04 -2.144320E+05 -1.206894E+04
       152  27 -1.628443E+06 -6.358741E+06 -1.585269E+06 -1.105312E+06 -1.285310E+05 -5.667983E+04
       153   1  5.047633E+05  2.186474E+06  5.234937E+05 -1.241462E+06  4.884426E+04 -4.411603E+04
       153   2 -8.541499E+04  8.321309E+04  3.037610E+04 -1.258960E+03 -4.344767E+03 -9.748922E+04
       153   3 -4.925742E+05 -2.090954E+06 -4.095860E+05 -1.149761E+06 -5.626700E+04 -1.506057E+05
       153   4  4.553409E+04  3.431562E+05  7.360935E+04 -1.204584E+06  4.841920E+04 -2.560360E+04
       153   5 -1.101068E+04  3.807481E+05  1.033745E+05 -9.557328E+03 -4.744646E+03 -7.945100E+04
       153   6  1.158012E+05  3.431778E+05  1.868225E+05 -1.203035E+06 -5.664753E+04 -1.332207E+05
       153   7 -4.139432E+05 -1.497070E+06 -3.765211E+05 -1.167794E+06  4.799566E+04 -7.145776E+03
       153   8  6.338740E+04  6.783645E+05  1.763675E+05 -1.785925E+04 -5.144911E+03 -6.140414E+04
       153   9  7.237428E+05  2.782720E+06  7.827982E+05 -1.256482E+06 -5.703028E+04 -1.157667E+05
       153  10  5.047602E+05  2.186471E+06  5.234856E+05 -1.241460E+06 -3.878447E-09 -6.237372E-09
       153  11 -8.541756E+04  8.320288E+04  3.035821E+04 -1.259301E+03  5.403613E-09 -4.921106E-08
       153  12 -4.925838E+05 -2.090979E+06 -4.096348E+05 -1.149768E+06 -6.553661E-09  3.326602E-08
       153  13  4.553140E+04  3.431549E+05  7.360372E+04 -1.204583E+06 -3.782555E-09  2.065409E-10
       153  14 -1.101239E+04  3.807414E+05  1.033626E+05 -9.557631E+03  1.101743E-08 -1.186835E-08
       153  15  1.157930E+05  3.431578E+05  1.867831E+05 -1.203041E+06  2.345022E-08 -2.510722E-09
       153  16 -4.139457E+05 -1.497070E+06 -3.765255E+05 -1.167794E+06  3.193800E-10  6.402222E-09
       153  17  6.338636E+04  6.783605E+05  1.763604E+05 -1.785950E+04 -1.802041E-08  7.300888E-08
       153  18  7.237357E+05  2.782705E+06  7.827670E+05 -1.256488E+06  2.707316E-09 -2.180972E-08
       153  19  5.047633E+05  2.186474E+06  5.234937E+05 -1.241462E+06 -4.884426E+04  4.411603E+04
       153  20 -8.541499E+04  8.321309E+04  3.037610E+04 -1.258960E+03  4.344767E+03  9.748922E+04
       153  21 -4.925742E+05 -2.090954E+06 -4.095860E+05 -1.149761E+06  5.626700E+04  1.506057E+05
       153  22  4.553409E+04  3.431562E+05  7.360935E+04 -1.204584E+06 -4.841920E+04  2.560360E+04
       153  23 -1.101068E+04  3.807481E+05  1.033745E+05 -9.557328E+03  4.744646E+03  7.945100E+04
       153  24  1.158012E+05  3.431778E+05  1.868225E+05 -1.203035E+06  5.664753E+04  1.332207E+05
       153  25 -4.139432E+05 -1.497070E+06 -3.765211E+05 -1.167794E+06 -4.799566E+04  7.145776E+03
       153  26  6.338740E+04  6.783645E+05  1.763675E+05 -1.785925E+04  5.144911E+03  6.140414E+04
       153  27  7.237428E+05  2.782720E+06  7.827982E+05 -1.256482E+06  5.703028E+04  1.157667E+05
       154   1 -1.807855E+06 -6.899234E+06 -1.570093E+06 -1.156787E+06 -1.379280E+05 -2.404489E+05
       154   2 -2.518852E+06 -9.246477E+06 -2.002193E+06  1.049211E+05 -2.245169E+05 -3.472250E+05
       154   3 -2.303834E+06 -1.117595E+07 -2.098950E+06 -1.043028E+06 -8.346825E+04 -4.512360E+05
       154   4  2.756290E+04  4.391220E+05  2.402388E+05 -1.209345E+06 -1.391795E+05 -1.747674E+05
       154   5 -1.454111E+05  2.266724E+05  3.292958E+05 -4.896597E+03 -2.241382E+05 -3.596237E+05
       154   6  6.156826E+05  4.390450E+05  8.046935E+05 -1.207725E+06 -8.297593E+04 -5.421194E+05
       154   7  1.858965E+06  7.826809E+06  2.046604E+06 -1.262235E+06 -1.404346E+05 -1.082941E+05
       154   8  2.221354E+06  9.782280E+06  2.654169E+06 -1.161894E+05 -2.237592E+05 -3.721795E+05
       154   9  3.525070E+06  1.217783E+07  3.698196E+06 -1.375333E+06 -8.244219E+04 -6.346482E+05
       154  10 -1.807891E+06 -6.899302E+06 -1.570238E+06 -1.156814E+06 -1.493485E-09  1.436180E-09
       154  11 -2.518939E+06 -9.246621E+06 -2.002517E+06  1.048579E+05 -5.169350E-09 -2.769224E-08
       154  12 -2.303898E+06 -1.117618E+07 -2.099353E+06 -1.043059E+06 -2.316272E-09 -3.787717E-09
       154  13  2.753384E+04  4.390839E+05  2.401448E+05 -1.209365E+06 -1.068081E-08  1.738357E-10
       154  14 -1.454997E+05  2.265202E+05  3.289585E+05 -4.961488E+03 -5.299695E-09 -5.968665E-09
       154  15  6.155962E+05  4.387277E+05  8.041283E+05 -1.207761E+06 -5.668322E-09 -1.196775E-10
       154  16  1.858941E+06  7.826791E+06  2.046545E+06 -1.262247E+06  1.035183E-08 -1.229691E-09
       154  17  2.221264E+06  9.782120E+06  2.653818E+06 -1.162560E+05 -1.283157E-08  3.857473E-08
       154  18  3.524957E+06  1.217741E+07  3.697440E+06 -1.375375E+06 -8.635908E-09  4.317349E-09
       154  19 -1.807855E+06 -6.899234E+06 -1.570093E+06 -1.156787E+06  1.379280E+05  2.404489E+05
       154  20 -2.518852E+06 -9.246477E+06 -2.002193E+06  1.049211E+05  2.245169E+05  3.472250E+05
       154  21 -2.303834E+06 -1.117595E+07 -2.098950E+06 -1.043028E+06  8.346825E+04  4.512360E+05
       154  22  2.756290E+04  4.391220E+05  2.402388E+05 -1.209345E+06  1.391795E+05  1.747674E+05
       154  23 -1.454111E+05  2.266724E+05  3.292958E+05 -4.896597E+03  2.241382E+05  3.596237E+05
       154  24  6.156826E+05  4.390450E+05  8.046935E+05 -1.207725E+06  8.297593E+04  5.421194E+05
       154  25  1.858965E+06  7.826809E+06  2.046604E+06 -1.262235E+06  1.404346E+05  1.082941E+05
       154  26  2.221354E+06  9.782280E+06  2.654169E+06 -1.161894E+05  2.237592E+05  3.721795E+05
       154  27  3.525070E+06  1.217783E+07  3.698196E+06 -1.375333E+06  8.244219E+04  6.346482E+05
       155   1 -4.405426E+05 -1.950195E+05 -9.477973E+04 -2.015532E+05 -4.908847E+04 -1.639093E+04
       155   2 -4.163135E+05 -1.354472E+05 -5.103865E+04 -1.895297E+05 -2.930416E+04 -4.667923E+03
       155   3 -4.006801E+05 -1.056597E+05 -3.009542E+04 -1.759636E+05 -8.167200E+03  3.454939E+03
       155   4 -3.181866E+05 -1.178766E+05 -5.736361E+04 -1.358440E+05 -3.808052E+04 -1.226401E+04
       155   5 -3.115326E+05 -8.196891E+04 -2.719046E+04 -1.447618E+05 -2.541175E+04 -3.208593E+03
       155   6 -3.120622E+05 -7.443452E+04 -1.417344E+04 -1.521386E+05 -1.139115E+04  2.245431E+03
       155   7 -1.958155E+05 -4.072379E+04 -1.994891E+04 -7.012154E+04 -2.707044E+04 -8.134895E+03
       155   8 -2.067402E+05 -2.848652E+04 -3.342979E+03 -9.998622E+04 -2.151867E+04 -1.748768E+03
       155   9 -2.234354E+05 -4.320843E+04  1.748498E+03 -1.283103E+05 -1.461561E+04  1.035741E+03
       155  10 -4.405453E+05 -1.950204E+05 -9.478477E+04 -2.015539E+05 -2.312716E-09  2.423133E-10
       155  11 -4.163145E+05 -1.354474E+05 -5.104030E+04 -1.895298E+05 -1.246897E-08 -2.254494E-09
       155  12 -4.006801E+05 -1.056598E+05 -3.009556E+04 -1.759636E+05 -9.203220E-09 -1.941246E-09
       155  13 -3.181882E+05 -1.178772E+05 -5.736662E+04 -1.358443E+05 -1.929322E-09 -4.641577E-10
       155  14 -3.115333E+05 -8.196910E+04 -2.719169E+04 -1.447619E+05 -3.759647E-09 -1.873044E-09
       155  15 -3.120624E+05 -7.443456E+04 -1.417369E+04 -1.521386E+05  9.537117E-11 -1.337317E-09
       155  16 -1.958163E+05 -4.072405E+04 -1.995041E+04 -7.012172E+04 -7.105840E-09 -1.569303E-09
       155  17 -2.067407E+05 -2.848665E+04 -3.343856E+03 -9.998625E+04  5.894306E-10 -1.332319E-09
       155  18 -2.234357E+05 -4.320849E+04  1.748094E+03 -1.283103E+05  4.326385E-09 -6.872506E-10
       155  19 -4.405426E+05 -1.950195E+05 -9.477973E+04 -2.015532E+05  4.908847E+04  1.639093E+04
       155  20 -4.163135E+05 -1.354472E+05 -5.103865E+04 -1.895297E+05  2.930416E+04  4.667923E+03
       155  21 -4.006801E+05 -1.056597E+05 -3.009542E+04 -1.759636E+05  8.167200E+03 -3.454939E+03
       155  22 -3.181866E+05 -1.178766E+05 -5.736361E+04 -1.358440E+05  3.808052E+04  1.226401E+04
       155  23 -3.115326E+05 -8.196891E+04 -2.719046E+04 -1.447618E+05  2.541175E+04  3.208593E+03
       155  24 -3.120622E+05 -7.443452E+04 -1.417344E+04 -1.521386E+05  1.139115E+04 -2.245431E+03
       155  25 -1.958155E+05 -4.072379E+04 -1.994891E+04 -7.012154E+04  2.707044E+04  8.134895E+03
       155  26 -2.067402E+05 -2.848652E+04 -3.342979E+03 -9.998622E+04  2.151867E+04  1.748768E+03
       155  27 -2.234354E+05 -4.320843E+04  1.748498E+03 -1.283103E+05  1.461561E+04 -1.035741E+03
       156   1 -3.791594E+05 -1.001460E+05 -2.300676E+04 -1.724429E+05 -6.389910E+03  2.918777E+03
       156   2 -3.526223E+05 -8.494268E+04 -1.260070E+04 -1.621768E+05 -2.226883E+03  2.528930E+03
       156   3 -3.232166E+05 -7.561868E+04 -5.308660E+03 -1.561810E+05  2.076674E+03  1.764779E+03
       156   4 -3.104231E+05 -7.386104E+04 -1.056465E+04 -1.517572E+05 -9.401692E+03  1.788898E+03
       156   5 -3.117370E+05 -6.962518E+04 -5.513728E+03 -1.501353E+05 -5.978348E+03  1.121652E+03
       156   6 -3.100362E+05 -7.112203E+04 -2.990316E+03 -1.527840E+05 -2.414602E+03  8.004587E+01
       156   7 -2.416825E+05 -4.757574E+04  1.877131E+03 -1.310695E+05 -1.241379E+04  6.588807E+02
       156   8 -2.708498E+05 -5.430747E+04  1.573253E+03 -1.380930E+05 -9.730075E+03 -2.857332E+02
       156   9 -2.968553E+05 -6.662531E+04 -6.718501E+02 -1.493868E+05 -6.906031E+03 -1.604739E+03
       156  10 -3.791595E+05 -1.001461E+05 -2.300686E+04 -1.724429E+05  3.038627E-10 -2.295850E-10
       156  11 -3.526223E+05 -8.494269E+04 -1.260072E+04 -1.621768E+05 -1.377544E-09 -1.545162E-09
       156  12 -3.232166E+05 -7.561868E+04 -5.308674E+03 -1.561811E+05 -4.321543E-09 -1.445342E-09
       156  13 -3.104232E+05 -7.386107E+04 -1.056482E+04 -1.517571E+05  3.504702E-10 -1.091038E-09
       156  14 -3.117370E+05 -6.962519E+04 -5.513797E+03 -1.501353E+05  3.733777E-09 -1.492220E-09
       156  15 -3.100362E+05 -7.112204E+04 -2.990327E+03 -1.527840E+05  4.342415E-09 -1.087517E-09
       156  16 -2.416827E+05 -4.757578E+04  1.876841E+03 -1.310694E+05  2.062233E-10 -1.879116E-09
       156  17 -2.708499E+05 -5.430749E+04  1.573075E+03 -1.380930E+05 -2.493028E-09 -9.313421E-10
       156  18 -2.968554E+05 -6.662532E+04 -6.719447E+02 -1.493868E+05  2.618752E-09 -6.322021E-10
       156  19 -3.791594E+05 -1.001460E+05 -2.300676E+04 -1.724429E+05  6.389910E+03 -2.918777E+03
       156  20 -3.526223E+05 -8.494268E+04 -1.260070E+04 -1.621768E+05  2.226883E+03 -2.528930E+03
       156  21 -3.232166E+05 -7.561868E+04 -5.308660E+03 -1.561810E+05 -2.076674E+03 -1.764779E+03
       156  22 -3.104231E+05 -7.386104E+04 -1.056465E+04 -1.517572E+05  9.401692E+03 -1.788898E+03
       156  23 -3.117370E+05 -6.962518E+04 -5.513728E+03 -1.501353E+05  5.978348E+03 -1.121652E+03
       156  24 -3.100362E+05 -7.112203E+04 -2.990316E+03 -1.527840E+05  2.414602E+03 -8.004587E+01
       156  25 -2.416825E+05 -4.757574E+04  1.877131E+03 -1.310695E+05  1.241379E+04 -6.588807E+02
       156  26 -2.708498E+05 -5.430747E+04  1.573253E+03 -1.380930E+05  9.730075E+03  2.857332E+02
       156  27 -2.968553E+05 -6.662531E+04 -6.718501E+02 -1.493868E+05  6.906031E+03  1.604739E+03
       157   1 -3.049191E+05 -6.927421E+04 -1.540444E+03 -1.512651E+05  2.960701E+03  5.753973E+02
       157   2 -2.784639E+05 -5.697812E+04  3.982439E+03 -1.410207E+05  4.500354E+03 -1.448258E+03
       157   3 -2.481153E+05 -4.884322E+04  8.963597E+03 -1.353884E+05  6.054545E+03 -3.510523E+03
       157   4 -3.098845E+05 -7.110295E+04 -2.238315E+03 -1.527347E+05 -1.508583E+03 -1.101086E+03
       157   5 -3.118307E+05 -6.897270E+04 -1.216611E+03 -1.504502E+05 -4.535475E+01 -3.153467E+03
       157   6 -3.098692E+05 -7.098856E+04 -6.760702E+02 -1.527780E+05  1.432373E+03 -5.244465E+03
       157   7 -3.148498E+05 -7.293167E+04 -2.936100E+03 -1.542044E+05 -5.977827E+03 -2.777554E+03
       157   8 -3.451961E+05 -8.096707E+04 -6.415534E+03 -1.598791E+05 -4.590778E+03 -4.858567E+03
       157   9 -3.716182E+05 -9.313320E+04 -1.031550E+04 -1.701657E+05 -3.189258E+03 -6.978204E+03
       157  10 -3.049191E+05 -6.927421E+04 -1.540461E+03 -1.512651E+05 -3.611799E-09 -5.713139E-10
       157  11 -2.784639E+05 -5.697813E+04  3.982397E+03 -1.410207E+05 -1.858333E-09 -6.246177E-10
       157  12 -2.481154E+05 -4.884324E+04  8.963505E+03 -1.353884E+05 -1.130451E-09 -7.376074E-10
       157  13 -3.098845E+05 -7.110295E+04 -2.238322E+03 -1.527347E+05  2.439555E-09 -9.571512E-10
       157  14 -3.118307E+05 -6.897271E+04 -1.216630E+03 -1.504502E+05  5.113582E-10 -9.508684E-10
       157  15 -3.098692E+05 -7.098859E+04 -6.761257E+02 -1.527780E+05 -5.603992E-10 -8.786726E-10
       157  16 -3.148498E+05 -7.293169E+04 -2.936181E+03 -1.542044E+05  4.276689E-09 -1.237671E-09
       157  17 -3.451961E+05 -8.096710E+04 -6.415618E+03 -1.598792E+05  6.243847E-09 -1.354795E-09
       157  18 -3.716182E+05 -9.313326E+04 -1.031562E+04 -1.701657E+05 -1.453451E-09 -9.041851E-10
       157  19 -3.049191E+05 -6.927421E+04 -1.540444E+03 -1.512651E+05 -2.960701E+03 -5.753973E+02
       157  20 -2.784639E+05 -5.697812E+04  3.982439E+03 -1.410207E+05 -4.500354E+03  1.448258E+03
       157  21 -2.481153E+05 -4.884322E+04  8.963597E+03 -1.353884E+05 -6.054545E+03  3.510523E+03
       157  22 -3.098845E+05 -7.110295E+04 -2.238315E+03 -1.527347E+05  1.508583E+03  1.101086E+03
       157  23 -3.118307E+05 -6.897270E+04 -1.216611E+03 -1.504502E+05  4.535475E+01  3.153467E+03
       157  24 -3.098692E+05 -7.098856E+04 -6.760702E+02 -1.527780E+05 -1.432373E+03  5.244465E+03
       157  25 -3.148498E+05 -7.293167E+04 -2.936100E+03 -1.542044E+05  5.977827E+03  2.777554E+03
       157  26 -3.451961E+05 -8.096707E+04 -6.415534E+03 -1.598791E+05  4.590778E+03  4.858567E+03
       157  27 -3.716182E+05 -9.313320E+04 -1.031550E+04 -1.701657E+05  3.189258E+03  6.978204E+03
       158   1 -2.301031E+05 -4.240793E+04  1.209507E+04 -1.303669E+05  6.660561E+03 -4.836798E+03
       158   2 -2.037149E+05 -3.026137E+04  1.672002E+04 -1.201051E+05  7.691471E+03 -7.117047E+03
       158   3 -1.733187E+05 -2.215041E+04  2.122974E+04 -1.144600E+05  8.723431E+03 -9.399591E+03
       158   4 -3.098511E+05 -7.099217E+04 -5.124050E+02 -1.527685E+05  2.041072E+03 -6.569812E+03
       158   5 -3.118569E+05 -6.898123E+04 -2.990856E+02 -1.504579E+05  3.067217E+03 -8.852061E+03
       158   6 -3.098552E+05 -7.100542E+04 -1.974867E+02 -1.527646E+05  4.094402E+03 -1.113660E+04
       158   7 -3.895931E+05 -9.957609E+04 -1.312017E+04 -1.751677E+05 -2.577842E+03 -8.302610E+03
       158   8 -4.199869E+05 -1.077001E+05 -1.731850E+04 -1.808058E+05 -1.556212E+03 -1.058677E+04
       158   9 -4.463717E+05 -1.198585E+05 -2.162496E+04 -1.910612E+05 -5.335514E+02 -1.287321E+04
       158  10 -2.301032E+05 -4.240797E+04  1.209495E+04 -1.303669E+05  1.779632E-09 -1.026853E-09
       158  11 -2.037150E+05 -3.026144E+04  1.671982E+04 -1.201051E+05  2.544983E-09 -8.350694E-10
       158  12 -1.733188E+05 -2.215052E+04  2.122943E+04 -1.144600E+05 -5.529863E-10  2.315667E-10
       158  13 -3.098511E+05 -7.099222E+04 -5.124940E+02 -1.527685E+05  2.345343E-09 -6.693009E-10
       158  14 -3.118569E+05 -6.898132E+04 -2.992505E+02 -1.504578E+05  3.160394E-10 -3.920965E-10
       158  15 -3.098553E+05 -7.100555E+04 -1.977512E+02 -1.527645E+05 -2.285431E-09  4.201578E-10
       158  16 -3.895932E+05 -9.957616E+04 -1.312031E+04 -1.751677E+05  1.767256E-09 -3.294996E-10
       158  17 -4.199870E+05 -1.077002E+05 -1.731871E+04 -1.808058E+05  5.003078E-09  4.352248E-10
       158  18 -4.463718E+05 -1.198587E+05 -2.162527E+04 -1.910612E+05 -1.167628E-09  5.280149E-10
       158  19 -2.301031E+05 -4.240793E+04  1.209507E+04 -1.303669E+05 -6.660561E+03  4.836798E+03
       158  20 -2.037149E+05 -3.026137E+04  1.672002E+04 -1.201051E+05 -7.691471E+03  7.117047E+03
       158  21 -1.733187E+05 -2.215041E+04  2.122974E+04 -1.144600E+05 -8.723431E+03  9.399591E+03
       158  22 -3.098511E+05 -7.099217E+04 -5.124050E+02 -1.527685E+05 -2.041072E+03  6.569812E+03
       158  23 -3.118569E+05 -6.898123E+04 -2.990856E+02 -1.504579E+05 -3.067217E+03  8.852061E+03
       158  24 -3.098552E+05 -7.100542E+04 -1.974867E+02 -1.527646E+05 -4.094402E+03  1.113660E+04
       158  25 -3.895931E+05 -9.957609E+04 -1.312017E+04 -1.751677E+05  2.577842E+03  8.302610E+03
       158  26 -4.199869E+05 -1.077001E+05 -1.731850E+04 -1.808058E+05  1.556212E+03  1.058677E+04
       158  27 -4.463717E+05 -1.198585E+05 -2.162496E+04 -1.910612E+05  5.335514E+02  1.287321E+04
       159   1 -1.553487E+05 -1.570362E+04  2.421469E+04 -1.094319E+05  9.265765E+03 -1.075124E+04
       159   2 -1.289926E+05 -3.558886E+03  2.862405E+04 -9.917090E+04  1.020564E+04 -1.306246E+04
       159   3 -9.861549E+04  4.562108E+03  3.298751E+04 -9.352060E+04  1.114127E+04 -1.536155E+04
       159   4 -3.098556E+05 -7.100741E+04 -1.752954E+02 -1.527626E+05  4.637159E+03 -1.248824E+04
       159   5 -3.118653E+05 -6.899816E+04 -1.751349E+02 -1.504558E+05  5.600782E+03 -1.479089E+04
       159   6 -3.098596E+05 -7.101730E+04 -2.396353E+02 -1.527600E+05  6.560159E+03 -1.708142E+04
       159   7 -4.643350E+05 -1.263080E+05 -2.456512E+04 -1.960825E+05  9.823078E+00 -1.422478E+04
       159   8 -4.947021E+05 -1.344339E+05 -2.897482E+04 -2.017265E+05  9.973554E+02 -1.651878E+04
       159   9 -5.210581E+05 -1.465930E+05 -3.346815E+04 -2.119810E+05  1.980642E+03 -1.880069E+04
       159  10 -1.553488E+05 -1.570377E+04  2.421431E+04 -1.094319E+05 -6.394718E-10  9.023556E-10
       159  11 -1.289927E+05 -3.559097E+03  2.862354E+04 -9.917079E+04 -1.750143E-09  6.097719E-10
       159  12 -9.861568E+04  4.561821E+03  3.298683E+04 -9.352046E+04 -7.159451E-10 -5.666173E-10
       159  13 -3.098557E+05 -7.100758E+04 -1.756288E+02 -1.527625E+05  1.894553E-09  3.967286E-10
       159  14 -3.118654E+05 -6.899840E+04 -1.756048E+02 -1.504557E+05 -4.263023E-09 -6.487084E-10
       159  15 -3.098597E+05 -7.101762E+04 -2.402644E+02 -1.527599E+05 -6.165666E-10 -2.094769E-09
       159  16 -4.643350E+05 -1.263082E+05 -2.456551E+04 -1.960825E+05  5.357145E-10 -2.314166E-10
       159  17 -4.947021E+05 -1.344342E+05 -2.897534E+04 -2.017264E+05  6.528401E-11 -1.010408E-09
       159  18 -5.210582E+05 -1.465933E+05 -3.346882E+04 -2.119810E+05 -3.748413E-10 -2.892367E-09
       159  19 -1.553487E+05 -1.570362E+04  2.421469E+04 -1.094319E+05 -9.265765E+03  1.075124E+04
       159  20 -1.289926E+05 -3.558886E+03  2.862405E+04 -9.917090E+04 -1.020564E+04  1.306246E+04
       159  21 -9.861549E+04  4.562108E+03  3.298751E+04 -9.352060E+04 -1.114127E+04  1.536155E+04
       159  22 -3.098556E+05 -7.100741E+04 -1.752954E+02 -1.527626E+05 -4.637159E+03  1.248824E+04
       159  23 -3.118653E+05 -6.899816E+04 -1.751349E+02 -1.504558E+05 -5.600782E+03  1.479089E+04
       159  24 -3.098596E+05 -7.101730E+04 -2.396353E+02 -1.527600E+05 -6.560159E+03  1.708142E+04
       159  25 -4.643350E+05 -1.263080E+05 -2.456512E+04 -1.960825E+05 -9.823078E+00  1.422478E+04
       159  26 -4.947021E+05 -1.344339E+05 -2.897482E+04 -2.017265E+05 -9.973554E+02  1.651878E+04
       159  27 -5.210581E+05 -1.465930E+05 -3.346815E+04 -2.119810E+05 -1.980642E+03  1.880069E+04
       160   1 -8.066257E+04  1.100891E+04  3.590162E+04 -8.849954E+04  1.169918E+04 -1.669631E+04
       160   2 -5.434205E+04  2.315801E+04  4.019050E+04 -7.824349E+04  1.258092E+04 -1.894692E+04
       160   3 -2.400589E+04  3.128710E+04  4.445567E+04 -7.258232E+04  1.342044E+04 -2.108400E+04
       160   4 -3.098705E+05 -7.101703E+04 -2.997329E+02 -1.527606E+05  7.112860E+03 -1.841837E+04
       160   5 -3.118633E+05 -6.901559E+04 -5.131157E+02 -1.504526E+05  8.218807E+03 -2.058530E+04
       160   6 -3.098854E+05 -7.107882E+04 -9.278435E+02 -1.527401E+05  9.282528E+03 -2.263865E+04
       160   7 -5.390218E+05 -1.530375E+05 -3.650191E+04 -2.169993E+05  2.528337E+03 -2.013976E+04
       160   8 -5.693115E+05 -1.611817E+05 -4.121741E+04 -2.226332E+05  3.858640E+03 -2.222294E+04
       160   9 -5.956737E+05 -1.734350E+05 -4.631187E+04 -2.328623E+05  5.146677E+03 -2.419254E+04
       160  10 -8.066279E+04  1.100857E+04  3.590084E+04 -8.849938E+04 -2.711898E-09 -2.307223E-09
       160  11 -5.434231E+04  2.315758E+04  4.018953E+04 -7.824330E+04 -2.593187E-09 -1.919583E-09
       160  12 -2.400620E+04  3.128658E+04  4.445450E+04 -7.258209E+04 -1.780033E-09  3.520369E-10
       160  13 -3.098707E+05 -7.101741E+04 -3.004653E+02 -1.527605E+05  3.835711E-10 -2.067123E-09
       160  14 -3.118635E+05 -6.901606E+04 -5.140388E+02 -1.504525E+05 -6.804476E-11 -6.567374E-10
       160  15 -3.098857E+05 -7.107940E+04 -9.289684E+02 -1.527399E+05  1.472822E-10  6.310690E-10
       160  16 -5.390219E+05 -1.530379E+05 -3.650269E+04 -2.169992E+05  3.702350E-09 -1.658292E-09
       160  17 -5.693117E+05 -1.611822E+05 -4.121837E+04 -2.226331E+05 -5.272908E-10 -5.794089E-10
       160  18 -5.956739E+05 -1.734356E+05 -4.631302E+04 -2.328622E+05 -5.299831E-10  1.660505E-09
       160  19 -8.066257E+04  1.100891E+04  3.590162E+04 -8.849954E+04 -1.169918E+04  1.669631E+04
       160  20 -5.434205E+04  2.315801E+04  4.019050E+04 -7.824349E+04 -1.258092E+04  1.894692E+04
       160  21 -2.400589E+04  3.128710E+04  4.445567E+04 -7.258232E+04 -1.342044E+04  2.108400E+04
       160  22 -3.098705E+05 -7.101703E+04 -2.997329E+02 -1.527606E+05 -7.112860E+03  1.841837E+04
       160  23 -3.118633E+05 -6.901559E+04 -5.131157E+02 -1.504526E+05 -8.218807E+03  2.058530E+04
       160  24 -3.098854E+05 -7.107882E+04 -9.278435E+02 -1.527401E+05 -9.282528E+03  2.263865E+04
       160  25 -5.390218E+05 -1.530375E+05 -3.650191E+04 -2.169993E+05 -2.528337E+03  2.013976E+04
       160  26 -5.693115E+05 -1.611817E+05 -4.121741E+04 -2.226332E+05 -3.858640E+03  2.222294E+04
       160  27 -5.956737E+05 -1.734350E+05 -4.631187E+04 -2.328623E+05 -5.146677E+03  2.419254E+04
       161   1 -6.027758E+03  3.772081E+04  4.725789E+04 -6.761997E+04  1.412679E+04 -2.226555E+04
       161   2  1.997909E+04  4.999200E+04  5.166586E+04 -5.708108E+04  1.372625E+04 -2.422127E+04
       161   3  4.996660E+04  5.802895E+04  5.673299E+04 -5.093083E+04  1.291929E+04 -2.509403E+04
       161   4 -3.099592E+05 -7.107736E+04 -1.234604E+03 -1.527446E+05  9.926964E+03 -2.384374E+04
       161   5 -3.118210E+05 -6.931775E+04 -2.271395E+03 -1.503376E+05  1.166757E+04 -2.499601E+04
       161   6 -3.101277E+05 -7.221735E+04 -4.345975E+03 -1.523200E+05  1.300172E+04 -2.506493E+04
       161   7 -6.137950E+05 -1.798674E+05 -4.972982E+04 -2.378312E+05  5.729268E+03 -2.542114E+04
       161   8 -6.435052E+05 -1.886169E+05 -5.621157E+04 -2.435478E+05  9.610050E+03 -2.577031E+04
       161   9 -6.700841E+05 -2.024505E+05 -6.542845E+04 -2.536541E+05  1.308410E+04 -2.503585E+04
       161  10 -6.028105E+03  3.772022E+04  4.725659E+04 -6.761972E+04 -2.050291E-09  2.097867E-09
       161  11  1.997873E+04  4.999132E+04  5.166440E+04 -5.708081E+04  2.326321E-09  2.446098E-09
       161  12  4.996626E+04  5.802823E+04  5.673149E+04 -5.093057E+04  6.675226E-10  2.588134E-09
       161  13 -3.099594E+05 -7.107799E+04 -1.235858E+03 -1.527444E+05  1.404755E-09  1.575212E-09
       161  14 -3.118213E+05 -6.931845E+04 -2.272824E+03 -1.503373E+05 -2.096882E-09  1.343576E-09
       161  15 -3.101280E+05 -7.221807E+04 -4.347473E+03 -1.523198E+05  4.280242E-09  6.614641E-10
       161  16 -6.137952E+05 -1.798681E+05 -4.973109E+04 -2.378310E+05  2.849636E-09  1.504169E-09
       161  17 -6.435055E+05 -1.886176E+05 -5.621299E+04 -2.435476E+05 -4.172697E-09  1.221222E-09
       161  18 -6.700845E+05 -2.024512E+05 -6.542995E+04 -2.536539E+05 -3.185900E-09 -9.372257E-10
       161  19 -6.027758E+03  3.772081E+04  4.725789E+04 -6.761997E+04 -1.412679E+04  2.226555E+04
       161  20  1.997909E+04  4.999200E+04  5.166586E+04 -5.708108E+04 -1.372625E+04  2.422127E+04
       161  21  4.996660E+04  5.802895E+04  5.673299E+04 -5.093083E+04 -1.291929E+04  2.509403E+04
       161  22 -3.099592E+05 -7.107736E+04 -1.234604E+03 -1.527446E+05 -9.926964E+03  2.384374E+04
       161  23 -3.118210E+05 -6.931775E+04 -2.271395E+03 -1.503376E+05 -1.166757E+04  2.499601E+04
       161  24 -3.101277E+05 -7.221735E+04 -4.345975E+03 -1.523200E+05 -1.300172E+04  2.506493E+04
       161  25 -6.137950E+05 -1.798674E+05 -4.972982E+04 -2.378312E+05 -5.729268E+03  2.542114E+04
       161  26 -6.435052E+05 -1.886169E+05 -5.621157E+04 -2.435478E+05 -9.610050E+03  2.577031E+04
       161  27 -6.700841E+05 -2.024505E+05 -6.542845E+04 -2.536541E+05 -1.308410E+04  2.503585E+04
       162   1  6.844695E+04  6.411600E+04  5.969701E+04 -4.664487E+04  1.435993E+04 -2.507824E+04
       162   2  8.965199E+04  7.806578E+04  6.891392E+04 -3.029759E+04 -2.280948E+03 -2.569583E+04
       162   3  1.138382E+05  8.260686E+04  8.738950E+04 -1.541552E+04 -2.283450E+04 -1.590785E+04
       162   4 -3.109066E+05 -7.235298E+04 -5.828947E+03 -1.523578E+05  1.383018E+04 -2.527918E+04
       162   5 -3.116236E+05 -7.453261E+04 -1.118329E+04 -1.482759E+05  1.777051E+04 -1.816431E+04
       162   6 -3.134395E+05 -9.020184E+04 -2.358895E+04 -1.456597E+05  1.779792E+04 -6.398899E+02
       162   7 -6.901068E+05 -2.088077E+05 -7.135887E+04 -2.580103E+05  1.330077E+04 -2.547998E+04
       162   8 -7.127245E+05 -2.271100E+05 -9.128450E+04 -2.661800E+05  3.780774E+04 -1.063865E+04
       162   9 -7.405211E+05 -2.629834E+05 -1.345719E+05 -2.758146E+05  5.839852E+04  1.461399E+04
       162  10  6.844656E+04  6.411527E+04  5.969544E+04 -4.664458E+04 -7.124782E-09 -3.734387E-10
       162  11  8.965180E+04  7.806506E+04  6.891267E+04 -3.029763E+04  2.782864E-09  2.624426E-09
       162  12  1.138376E+05  8.260645E+04  8.738804E+04 -1.541581E+04  9.869228E-09  3.756022E-09
       162  13 -3.109070E+05 -7.235372E+04 -5.830507E+03 -1.523576E+05 -5.460232E-10  5.436621E-10
       162  14 -3.116241E+05 -7.453305E+04 -1.118450E+04 -1.482757E+05  7.954996E-09  5.827830E-09
       162  15 -3.134398E+05 -9.020193E+04 -2.358954E+04 -1.456597E+05  1.753431E-09  2.056340E-09
       162  16 -6.901072E+05 -2.088085E+05 -7.136042E+04 -2.580100E+05  7.535042E-09  3.933467E-09
       162  17 -7.127260E+05 -2.271105E+05 -9.128740E+04 -2.661797E+05  1.079429E-08  4.988424E-09
       162  18 -7.405248E+05 -2.629845E+05 -1.345787E+05 -2.758153E+05 -3.335681E-09 -1.331278E-09
       162  19  6.844695E+04  6.411600E+04  5.969701E+04 -4.664487E+04 -1.435993E+04  2.507824E+04
       162  20  8.965199E+04  7.806578E+04  6.891392E+04 -3.029759E+04  2.280948E+03  2.569583E+04
       162  21  1.138382E+05  8.260686E+04  8.738950E+04 -1.541552E+04  2.283450E+04  1.590785E+04
       162  22 -3.109066E+05 -7.235298E+04 -5.828947E+03 -1.523578E+05 -1.383018E+04  2.527918E+04
       162  23 -3.116236E+05 -7.453261E+04 -1.118329E+04 -1.482759E+05 -1.777051E+04  1.816431E+04
       162  24 -3.134395E+05 -9.020184E+04 -2.358895E+04 -1.456597E+05 -1.779792E+04  6.398899E+02
       162  25 -6.901068E+05 -2.088077E+05 -7.135887E+04 -2.580103E+05 -1.330077E+04  2.547998E+04
       162  26 -7.127245E+05 -2.271100E+05 -9.128450E+04 -2.661800E+05 -3.780774E+04  1.063865E+04
       162  27 -7.405211E+05 -2.629834E+05 -1.345719E+05 -2.758146E+05 -5.839852E+04 -1.461399E+04
       163   1 -2.636849E+05 -5.052509E+04 -7.721698E+04 -1.681911E+04 -7.989149E+04 -1.314173E+03
       163   2 -2.535874E+05  5.784433E+04 -1.200451E+04 -5.770333E+03 -5.295487E+04 -3.791855E+03
       163   3 -2.779394E+05  4.225173E+04  4.691371E+03  1.320216E+04 -2.602128E+04 -3.376789E+03
       163   4 -4.313995E+05 -9.238308E+04 -1.188798E+05  3.670935E+03 -8.119966E+04 -1.317694E+03
       163   5 -4.140769E+05  1.788261E+04 -5.131968E+04 -3.238385E+02 -5.329849E+04 -3.792663E+03
       163   6 -4.313809E+05  4.000704E+03 -3.295562E+04  3.605241E+03 -2.539999E+04 -3.375860E+03
       163   7 -5.990876E+05 -1.342416E+05 -1.605445E+05  2.415544E+04 -8.250748E+04 -1.321303E+03
       163   8 -5.745428E+05 -2.208090E+04 -9.063673E+04  5.121240E+03 -5.364202E+04 -3.793477E+03
       163   9 -5.848008E+05 -3.425173E+04 -7.060430E+04 -5.989304E+03 -2.477886E+04 -3.374950E+03
       163  10 -2.636917E+05 -5.052680E+04 -7.722898E+04 -1.681920E+04  4.308809E-11 -1.071125E-11
       163  11 -2.535904E+05  5.784356E+04 -1.200981E+04 -5.770495E+03 -1.413108E-09 -1.124900E-09
       163  12 -2.779402E+05  4.225154E+04  4.690076E+03  1.320209E+04  1.318259E-09 -1.320885E-09
       163  13 -4.314065E+05 -9.238485E+04 -1.188922E+05  3.670848E+03  2.006478E-10  5.398222E-10
       163  14 -4.140799E+05  1.788183E+04 -5.132505E+04 -3.240013E+02  2.123983E-10 -3.978816E-10
       163  15 -4.313816E+05  4.000518E+03 -3.295686E+04  3.605172E+03  9.112386E-11  4.831415E-10
       163  16 -5.990949E+05 -1.342434E+05 -1.605573E+05  2.415535E+04  2.981633E-09  1.498939E-10
       163  17 -5.745459E+05 -2.208169E+04 -9.064217E+04  5.121076E+03 -4.793019E-10 -2.310052E-09
       163  18 -5.848015E+05 -3.425190E+04 -7.060547E+04 -5.989371E+03  6.971836E-10 -1.903739E-09
       163  19 -2.636849E+05 -5.052509E+04 -7.721698E+04 -1.681911E+04  7.989149E+04  1.314173E+03
       163  20 -2.535874E+05  5.784433E+04 -1.200451E+04 -5.770333E+03  5.295487E+04  3.791855E+03
       163  21 -2.779394E+05  4.225173E+04  4.691371E+03  1.320216E+04  2.602128E+04  3.376789E+03
       163  22 -4.313995E+05 -9.238308E+04 -1.188798E+05  3.670935E+03  8.119966E+04  1.317694E+03
       163  23 -4.140769E+05  1.788261E+04 -5.131968E+04 -3.238385E+02  5.329849E+04  3.792663E+03
       163  24 -4.313809E+05  4.000704E+03 -3.295562E+04  3.605241E+03  2.539999E+04  3.375860E+03
       163  25 -5.990876E+05 -1.342416E+05 -1.605445E+05  2.415544E+04  8.250748E+04  1.321303E+03
       163  26 -5.745428E+05 -2.208090E+04 -9.063673E+04  5.121240E+03  5.364202E+04  3.793477E+03
       163  27 -5.848008E+05 -3.425173E+04 -7.060430E+04 -5.989304E+03  2.477886E+04  3.374950E+03
       164   1 -2.882007E+05  2.201768E+04  6.439536E+03  1.355581E+03 -2.003568E+04 -2.787207E+03
       164   2 -2.932943E+05  3.448817E+04  1.831281E+04 -9.783016E+02 -1.322364E+04 -2.820051E+03
       164   3 -3.032982E+05  3.079567E+04  2.171298E+04  5.133683E+03 -6.411991E+03 -2.523542E+03
       164   4 -4.247852E+05 -1.201463E+04 -2.711375E+04  3.752967E+03 -2.010133E+04 -2.787394E+03
       164   5 -4.223184E+05  2.343873E+03 -1.334206E+04 -4.765417E+02 -1.318004E+04 -2.820052E+03
       164   6 -4.247818E+05  5.185674E+02 -8.120679E+03  3.739922E+03 -6.259059E+03 -2.523369E+03
       164   7 -5.613527E+05 -4.604831E+04 -6.066840E+04  6.149821E+03 -2.016698E+04 -2.787581E+03
       164   8 -5.513272E+05 -2.980165E+04 -4.499815E+04  2.510945E+01 -1.313646E+04 -2.820053E+03
       164   9 -5.462520E+05 -2.975963E+04 -3.795542E+04  2.346430E+03 -6.106157E+03 -2.523197E+03
       164  10 -2.882011E+05  2.201756E+04  6.438767E+03  1.355536E+03  9.323744E-12 -2.673085E-09
       164  11 -2.932945E+05  3.448811E+04  1.831246E+04 -9.783317E+02 -4.238561E-09 -3.195706E-10
       164  12 -3.032982E+05  3.079566E+04  2.171289E+04  5.133670E+03 -2.275603E-09  6.916240E-10
       164  13 -4.247857E+05 -1.201475E+04 -2.711452E+04  3.752922E+03 -1.613679E-09 -1.706392E-09
       164  14 -4.223185E+05  2.343818E+03 -1.334240E+04 -4.765716E+02  3.081031E-10 -1.424918E-09
       164  15 -4.247818E+05  5.185501E+02 -8.120765E+03  3.739909E+03  3.076539E-10 -1.719231E-09
       164  16 -5.613532E+05 -4.604842E+04 -6.066918E+04  6.149775E+03  1.872354E-09 -2.122101E-10
       164  17 -5.513274E+05 -2.980171E+04 -4.499849E+04  2.507960E+01  1.682472E-09 -8.731113E-10
       164  18 -5.462520E+05 -2.975965E+04 -3.795551E+04  2.346418E+03  2.117816E-09  2.795096E-10
       164  19 -2.882007E+05  2.201768E+04  6.439536E+03  1.355581E+03  2.003568E+04  2.787207E+03
       164  20 -2.932943E+05  3.448817E+04  1.831281E+04 -9.783016E+02  1.322364E+04  2.820051E+03
       164  21 -3.032982E+05  3.079567E+04  2.171298E+04  5.133683E+03  6.411991E+03  2.523542E+03
       164  22 -4.247852E+05 -1.201463E+04 -2.711375E+04  3.752967E+03  2.010133E+04  2.787394E+03
       164  23 -4.223184E+05  2.343873E+03 -1.334206E+04 -4.765417E+02  1.318004E+04  2.820052E+03
       164  24 -4.247818E+05  5.185674E+02 -8.120679E+03  3.739922E+03  6.259059E+03  2.523369E+03
       164  25 -5.613527E+05 -4.604831E+04 -6.066840E+04  6.149821E+03  2.016698E+04  2.787581E+03
       164  26 -5.513272E+05 -2.980165E+04 -4.499815E+04  2.510945E+01  1.313646E+04  2.820053E+03
       164  27 -5.462520E+05 -2.975963E+04 -3.795542E+04  2.346430E+03  6.106157E+03  2.523197E+03
       165   1 -3.201755E+05  2.428579E+04  1.898353E+04  3.655001E+03 -5.034532E+03 -2.312827E+03
       165   2 -3.277004E+05  2.416941E+04  2.006455E+04 -5.394715E+02 -3.307974E+03 -2.065655E+03
       165   3 -3.359776E+05  2.197384E+04  1.949968E+04  4.104700E+03 -1.581568E+03 -1.776049E+03
       165   4 -4.238533E+05 -1.542599E+03 -6.441916E+03  3.833065E+03 -4.958846E+03 -2.312755E+03
       165   5 -4.234754E+05  3.059608E+02 -3.438262E+03 -5.873721E+02 -3.218297E+03 -2.065551E+03
       165   6 -4.238526E+05  7.269862E+01 -2.090413E+03  3.830923E+03 -1.477878E+03 -1.775911E+03
       165   7 -5.275212E+05 -2.737178E+04 -3.186815E+04  4.011096E+03 -4.883173E+03 -2.312683E+03
       165   8 -5.192422E+05 -2.355817E+04 -2.694175E+04 -6.352683E+02 -3.128633E+03 -2.065447E+03
       165   9 -5.117205E+05 -2.182902E+04 -2.368108E+04  3.557182E+03 -1.374201E+03 -1.775773E+03
       165  10 -3.201755E+05  2.428578E+04  1.898347E+04  3.654992E+03 -5.358448E-09  2.510091E-09
       165  11 -3.277004E+05  2.416941E+04  2.006452E+04 -5.394770E+02 -3.933621E-09  3.287372E-09
       165  12 -3.359776E+05  2.197384E+04  1.949967E+04  4.104698E+03  4.009055E-09  2.443637E-10
       165  13 -4.238533E+05 -1.542611E+03 -6.441973E+03  3.833056E+03  1.017369E-09 -1.109400E-09
       165  14 -4.234755E+05  3.059535E+02 -3.438289E+03 -5.873775E+02  4.675843E-09  2.993081E-09
       165  15 -4.238526E+05  7.269465E+01 -2.090423E+03  3.830921E+03  3.710969E-09  3.682083E-09
       165  16 -5.275213E+05 -2.737180E+04 -3.186821E+04  4.011087E+03  2.961523E-09  1.995177E-09
       165  17 -5.192422E+05 -2.355818E+04 -2.694178E+04 -6.352735E+02 -1.230776E-09  3.234630E-09
       165  18 -5.117205E+05 -2.182902E+04 -2.368109E+04  3.557180E+03  2.728742E-09  1.667569E-09
       165  19 -3.201755E+05  2.428579E+04  1.898353E+04  3.655001E+03  5.034532E+03  2.312827E+03
       165  20 -3.277004E+05  2.416941E+04  2.006455E+04 -5.394715E+02  3.307974E+03  2.065655E+03
       165  21 -3.359776E+05  2.197384E+04  1.949968E+04  4.104700E+03  1.581568E+03  1.776049E+03
       165  22 -4.238533E+05 -1.542599E+03 -6.441916E+03  3.833065E+03  4.958846E+03  2.312755E+03
       165  23 -4.234754E+05  3.059608E+02 -3.438262E+03 -5.873721E+02  3.218297E+03  2.065551E+03
       165  24 -4.238526E+05  7.269862E+01 -2.090413E+03  3.830923E+03  1.477878E+03  1.775911E+03
       165  25 -5.275212E+05 -2.737178E+04 -3.186815E+04  4.011096E+03  4.883173E+03  2.312683E+03
       165  26 -5.192422E+05 -2.355817E+04 -2.694175E+04 -6.352683E+02  3.128633E+03  2.065447E+03
       165  27 -5.117205E+05 -2.182902E+04 -2.368108E+04  3.557182E+03  1.374201E+03  1.775773E+03
       166   1 -3.543490E+05  1.709522E+04  1.532983E+04  3.944175E+03 -1.234506E+03 -1.602579E+03
       166   2 -3.624169E+05  1.529839E+04  1.396507E+04 -5.936857E+02 -7.084570E+02 -1.316615E+03
       166   3 -3.706482E+05  1.322712E+04  1.218360E+04  3.983636E+03 -1.824868E+02 -1.022521E+03
       166   4 -4.237204E+05 -1.850891E+02 -1.670332E+03  3.893285E+03 -1.140013E+03 -1.602446E+03
       166   5 -4.236383E+05  4.382002E+01 -1.059186E+03 -6.644741E+02 -6.112866E+02 -1.316470E+03
       166   6 -4.237203E+05 -2.229597E+00 -8.666829E+02  3.893006E+03 -8.263205E+01 -1.022363E+03
       166   7 -4.930875E+05 -1.746575E+04 -1.867084E+04  3.842398E+03 -1.045530E+03 -1.602314E+03
       166   8 -4.848564E+05 -1.521103E+04 -1.608372E+04 -7.352569E+02 -5.141258E+02 -1.316326E+03
       166   9 -4.767898E+05 -1.323179E+04 -1.391717E+04  3.802383E+03  1.721416E+01 -1.022206E+03
       166  10 -3.543490E+05  1.709521E+04  1.532982E+04  3.944173E+03  2.287906E-10  4.576489E-11
       166  11 -3.624169E+05  1.529839E+04  1.396507E+04 -5.936865E+02 -1.840402E-09  4.782645E-09
       166  12 -3.706482E+05  1.322712E+04  1.218359E+04  3.983636E+03  6.239556E-10  2.883132E-09
       166  13 -4.237204E+05 -1.850922E+02 -1.670340E+03  3.893283E+03  8.171836E-10  1.135144E-09
       166  14 -4.236383E+05  4.381806E+01 -1.059190E+03 -6.644748E+02  3.343227E-09  3.620926E-09
       166  15 -4.237203E+05 -2.230721E+00 -8.666848E+02  3.893006E+03  1.510497E-10 -7.160014E-11
       166  16 -4.930875E+05 -1.746575E+04 -1.867085E+04  3.842397E+03  1.752211E-09  9.893644E-10
       166  17 -4.848564E+05 -1.521103E+04 -1.608372E+04 -7.352575E+02  2.259504E-09  8.560975E-11
       166  18 -4.767898E+05 -1.323179E+04 -1.391717E+04  3.802383E+03  5.979914E-09 -9.066025E-10
       166  19 -3.543490E+05  1.709522E+04  1.532983E+04  3.944175E+03  1.234506E+03  1.602579E+03
       166  20 -3.624169E+05  1.529839E+04  1.396507E+04 -5.936857E+02  7.084570E+02  1.316615E+03
       166  21 -3.706482E+05  1.322712E+04  1.218360E+04  3.983636E+03  1.824868E+02  1.022521E+03
       166  22 -4.237204E+05 -1.850891E+02 -1.670332E+03  3.893285E+03  1.140013E+03  1.602446E+03
       166  23 -4.236383E+05  4.382002E+01 -1.059186E+03 -6.644741E+02  6.112866E+02  1.316470E+03
       166  24 -4.237203E+05 -2.229597E+00 -8.666829E+02  3.893006E+03  8.263205E+01  1.022363E+03
       166  25 -4.930875E+05 -1.746575E+04 -1.867084E+04  3.842398E+03  1.045530E+03  1.602314E+03
       166  26 -4.848564E+05 -1.521103E+04 -1.608372E+04 -7.352569E+02  5.141258E+02  1.316326E+03
       166  27 -4.767898E+05 -1.323179E+04 -1.391717E+04  3.802383E+03 -1.721416E+01  1.022206E+03
       167   1 -3.895994E+05  8.493534E+03  7.483402E+03  3.944980E+03 -2.564928E+01 -8.496463E+02
       167   2 -3.977998E+05  6.481390E+03  5.293555E+03 -6.739680E+02  4.969612E+02 -5.539772E+02
       167   3 -4.061727E+05  4.200517E+03  2.688361E+03  3.978021E+03  1.019550E+03 -2.581617E+02
       167   4 -4.237217E+05 -3.684584E+00 -8.651526E+02  3.927608E+03  7.333149E+01 -8.494855E+02
       167   5 -4.236355E+05  4.373008E+01 -1.046958E+03 -7.077249E+02  5.959712E+02 -5.538129E+02
       167   6 -4.237218E+05 -1.775592E+02 -1.644103E+03  3.927904E+03  1.118596E+03 -2.579936E+02
       167   7 -4.578429E+05 -8.500990E+03 -9.213792E+03  3.910236E+03  1.723068E+02 -8.493247E+02
       167   8 -4.494706E+05 -6.393979E+03 -7.387519E+03 -7.414807E+02  6.949771E+02 -5.536485E+02
       167   9 -4.412705E+05 -4.555659E+03 -5.976591E+03  3.877787E+03  1.217640E+03 -2.578256E+02
       167  10 -3.895994E+05  8.493534E+03  7.483400E+03  3.944980E+03 -3.679098E-09  1.049310E-09
       167  11 -3.977998E+05  6.481390E+03  5.293554E+03 -6.739678E+02 -4.665973E-10  1.176044E-09
       167  12 -4.061727E+05  4.200517E+03  2.688359E+03  3.978021E+03 -2.159564E-09 -4.027920E-09
       167  13 -4.237217E+05 -3.685360E+00 -8.651540E+02  3.927608E+03 -1.616720E-09  4.893356E-09
       167  14 -4.236355E+05  4.372965E+01 -1.046959E+03 -7.077247E+02  2.977009E-10  2.636966E-09
       167  15 -4.237218E+05 -1.775596E+02 -1.644106E+03  3.927904E+03 -3.619550E-09 -4.217590E-09
       167  16 -4.578429E+05 -8.500991E+03 -9.213793E+03  3.910236E+03  3.394880E-09  2.709128E-09
       167  17 -4.494706E+05 -6.393980E+03 -7.387520E+03 -7.414804E+02  5.842837E-10  5.626595E-10
       167  18 -4.412705E+05 -4.555659E+03 -5.976594E+03  3.877788E+03  6.047242E-10 -4.054042E-09
       167  19 -3.895994E+05  8.493534E+03  7.483402E+03  3.944980E+03  2.564928E+01  8.496463E+02
       167  20 -3.977998E+05  6.481390E+03  5.293555E+03 -6.739680E+02 -4.969612E+02  5.539772E+02
       167  21 -4.061727E+05  4.200517E+03  2.688361E+03  3.978021E+03 -1.019550E+03  2.581617E+02
       167  22 -4.237217E+05 -3.684584E+00 -8.651526E+02  3.927608E+03 -7.333149E+01  8.494855E+02
       167  23 -4.236355E+05  4.373008E+01 -1.046958E+03 -7.077249E+02 -5.959712E+02  5.538129E+02
       167  24 -4.237218E+05 -1.775592E+02 -1.644103E+03  3.927904E+03 -1.118596E+03  2.579936E+02
       167  25 -4.578429E+05 -8.500990E+03 -9.213792E+03  3.910236E+03 -1.723068E+02  8.493247E+02
       167  26 -4.494706E+05 -6.393979E+03 -7.387519E+03 -7.414807E+02 -6.949771E+02  5.536485E+02
       167  27 -4.412705E+05 -4.555659E+03 -5.976591E+03  3.877787E+03 -1.217640E+03  2.578256E+02
       168   1 -4.254428E+05 -3.279138E+02 -2.472159E+03  3.759017E+03  1.347614E+03 -8.116816E+01
       168   2 -4.333696E+05 -2.164664E+03 -5.804776E+03 -6.772424E+02  3.063318E+03  2.199274E+02
       168   3 -4.420688E+05 -6.040410E+03 -1.077288E+04  4.187050E+03  4.779039E+03  5.007123E+02
       168   4 -4.238547E+05  7.368797E+01 -2.056541E+03  3.933388E+03  1.451171E+03 -8.099109E+01
       168   5 -4.234694E+05  3.019824E+02 -3.375552E+03 -7.155504E+02  3.160079E+03  2.200908E+02
       168   6 -4.238554E+05 -1.507507E+03 -6.325291E+03  3.936056E+03  4.869026E+03  5.008612E+02
       168   7 -4.222666E+05  4.752896E+02 -1.640924E+03  4.107760E+03  1.554727E+03 -8.081396E+01
       168   8 -4.135691E+05  2.768622E+03 -9.463363E+02 -7.538591E+02  3.256841E+03  2.202542E+02
       168   9 -4.056416E+05  3.025371E+03 -1.877727E+03  3.685055E+03  4.959017E+03  5.010100E+02
       168  10 -4.254428E+05 -3.279143E+02 -2.472162E+03  3.759017E+03 -7.504639E-09 -7.734675E-10
       168  11 -4.333696E+05 -2.164667E+03 -5.804793E+03 -6.772430E+02 -2.728682E-09  2.024496E-09
       168  12 -4.420688E+05 -6.040417E+03 -1.077292E+04  4.187048E+03  2.552058E-09  4.956305E-11
       168  13 -4.238547E+05  7.368740E+01 -2.056545E+03  3.933388E+03 -1.266638E-09 -2.405603E-09
       168  14 -4.234694E+05  3.019797E+02 -3.375571E+03 -7.155510E+02 -1.700722E-09  2.475537E-09
       168  15 -4.238554E+05 -1.507514E+03 -6.325336E+03  3.936055E+03 -1.235637E-09  5.429265E-10
       168  16 -4.222666E+05  4.752890E+02 -1.640928E+03  4.107760E+03  2.745575E-09 -4.948768E-10
       168  17 -4.135691E+05  2.768619E+03 -9.463564E+02 -7.538597E+02 -2.010475E-09 -2.121268E-09
       168  18 -4.056416E+05  3.025364E+03 -1.877774E+03  3.685053E+03 -2.351425E-09  5.212653E-10
       168  19 -4.254428E+05 -3.279138E+02 -2.472159E+03  3.759017E+03 -1.347614E+03  8.116816E+01
       168  20 -4.333696E+05 -2.164664E+03 -5.804776E+03 -6.772424E+02 -3.063318E+03 -2.199274E+02
       168  21 -4.420688E+05 -6.040410E+03 -1.077288E+04  4.187050E+03 -4.779039E+03 -5.007123E+02
       168  22 -4.238547E+05  7.368797E+01 -2.056541E+03  3.933388E+03 -1.451171E+03  8.099109E+01
       168  23 -4.234694E+05  3.019824E+02 -3.375552E+03 -7.155504E+02 -3.160079E+03 -2.200908E+02
       168  24 -4.238554E+05 -1.507507E+03 -6.325291E+03  3.936056E+03 -4.869026E+03 -5.008612E+02
       168  25 -4.222666E+05  4.752896E+02 -1.640924E+03  4.107760E+03 -1.554727E+03  8.081396E+01
       168  26 -4.135691E+05  2.768622E+03 -9.463363E+02 -7.538591E+02 -3.256841E+03 -2.202542E+02
       168  27 -4.056416E+05  3.025371E+03 -1.877727E+03  3.685055E+03 -4.959017E+03 -5.010100E+02
       169   1 -4.620439E+05 -8.783825E+03 -1.714680E+04  2.606571E+03  6.013369E+03  7.021154E+02
       169   2 -4.678274E+05 -9.031054E+03 -2.425737E+04 -1.449626E+02  1.286695E+04  1.017083E+03
       169   3 -4.785094E+05 -2.516784E+04 -3.981144E+04  6.318702E+03  1.972064E+04  1.151194E+03
       169   4 -4.247699E+05  5.143550E+02 -7.973976E+03  3.908802E+03  6.145953E+03  7.023468E+02
       169   5 -4.223277E+05  2.303606E+03 -1.309509E+04 -6.889780E+02  1.293924E+04  1.017184E+03
       169   6 -4.247732E+05 -1.178560E+04 -2.661735E+04  3.928450E+03  1.973272E+04  1.151128E+03
       169   7 -3.874945E+05  9.812438E+03  1.198750E+03  5.211111E+03  6.278544E+03  7.025788E+02
       169   8 -3.768261E+05  1.363811E+04 -1.932965E+03 -1.233034E+03  1.301153E+04  1.017284E+03
       169   9 -3.710345E+05  1.596452E+03 -1.342346E+04  1.537989E+03  1.974480E+04  1.151063E+03
       169  10 -4.620439E+05 -8.783836E+03 -1.714687E+04  2.606568E+03 -3.805837E-09  2.964731E-09
       169  11 -4.678276E+05 -9.031099E+03 -2.425769E+04 -1.449731E+02 -9.309802E-10  3.712196E-09
       169  12 -4.785098E+05 -2.516794E+04 -3.981218E+04  6.318684E+03  4.911213E-09  3.031872E-09
       169  13 -4.247699E+05  5.143443E+02 -7.974048E+03  3.908798E+03  9.150270E-10  1.622704E-12
       169  14 -4.223279E+05  2.303560E+03 -1.309541E+04 -6.889886E+02 -6.446991E-10  2.939744E-09
       169  15 -4.247737E+05 -1.178570E+04 -2.661808E+04  3.928432E+03  7.290505E-10 -5.432296E-10
       169  16 -3.874946E+05  9.812427E+03  1.198675E+03  5.211107E+03  2.596285E-10 -2.344434E-10
       169  17 -3.768263E+05  1.363807E+04 -1.933285E+03 -1.233045E+03 -4.483594E-09 -1.772150E-09
       169  18 -3.710349E+05  1.596346E+03 -1.342420E+04  1.537970E+03 -4.367187E-09 -3.765231E-09
       169  19 -4.620439E+05 -8.783825E+03 -1.714680E+04  2.606571E+03 -6.013369E+03 -7.021154E+02
       169  20 -4.678274E+05 -9.031054E+03 -2.425737E+04 -1.449626E+02 -1.286695E+04 -1.017083E+03
       169  21 -4.785094E+05 -2.516784E+04 -3.981144E+04  6.318702E+03 -1.972064E+04 -1.151194E+03
       169  22 -4.247699E+05  5.143550E+02 -7.973976E+03  3.908802E+03 -6.145953E+03 -7.023468E+02
       169  23 -4.223277E+05  2.303606E+03 -1.309509E+04 -6.889780E+02 -1.293924E+04 -1.017184E+03
       169  24 -4.247732E+05 -1.178560E+04 -2.661735E+04  3.928450E+03 -1.973272E+04 -1.151128E+03
       169  25 -3.874945E+05  9.812438E+03  1.198750E+03  5.211111E+03 -6.278544E+03 -7.025788E+02
       169  26 -3.768261E+05  1.363811E+04 -1.932965E+03 -1.233034E+03 -1.301153E+04 -1.017284E+03
       169  27 -3.710345E+05  1.596452E+03 -1.342346E+04  1.537989E+03 -1.974480E+04 -1.151063E+03
       170   1 -5.036886E+05 -1.415298E+04 -5.014446E+04 -5.559202E+03  2.454080E+04  1.567730E+03
       170   2 -4.947041E+05 -2.466062E+03 -7.008356E+04  4.720853E+03  5.246228E+04  1.975276E+03
       170   3 -5.198723E+05 -1.127444E+05 -1.387045E+05  2.406877E+04  8.038636E+04  7.770616E+02
       170   4 -4.312507E+05  3.935289E+03 -3.235263E+04  3.837634E+03  2.493477E+04  1.568701E+03
       170   5 -4.142323E+05  1.755895E+04 -5.037394E+04 -6.289606E+02  5.231976E+04  1.974589E+03
       170   6 -4.312690E+05 -9.068166E+04 -1.166997E+05  3.972568E+03  7.970773E+04  7.734800E+02
       170   7 -3.588078E+05  2.202350E+04 -1.456113E+04  1.323557E+04  2.532879E+04  1.569684E+03
       170   8 -3.337545E+05  3.758359E+04 -3.066478E+04 -5.979472E+03  5.217722E+04  1.973905E+03
       170   9 -3.426578E+05 -6.861803E+04 -9.469539E+04 -1.612650E+04  7.902900E+04  7.699427E+02
       170  10 -5.036893E+05 -1.415315E+04 -5.014560E+04 -5.559233E+03 -2.276705E-09  1.488993E-09
       170  11 -4.947071E+05 -2.466806E+03 -7.008875E+04  4.720770E+03 -1.755145E-09  7.210984E-10
       170  12 -5.198792E+05 -1.127461E+05 -1.387166E+05  2.406872E+04 -2.640920E-09 -2.805285E-10
       170  13 -4.312513E+05  3.935119E+03 -3.235380E+04  3.837603E+03  4.848360E-09  3.021368E-09
       170  14 -4.142352E+05  1.755821E+04 -5.037910E+04 -6.290438E+02  7.153104E-09 -2.758950E-09
       170  15 -4.312759E+05 -9.068337E+04 -1.167117E+05  3.972519E+03 -5.462991E-09  2.647231E-09
       170  16 -3.588084E+05  2.202332E+04 -1.456235E+04  1.323554E+04  2.851725E-09  1.176614E-09
       170  17 -3.337574E+05  3.758285E+04 -3.066990E+04 -5.979555E+03  4.039714E-10  8.374343E-10
       170  18 -3.426645E+05 -6.861971E+04 -9.470713E+04 -1.612655E+04 -1.847881E-10 -1.823266E-10
       170  19 -5.036886E+05 -1.415298E+04 -5.014446E+04 -5.559202E+03 -2.454080E+04 -1.567730E+03
       170  20 -4.947041E+05 -2.466062E+03 -7.008356E+04  4.720853E+03 -5.246228E+04 -1.975276E+03
       170  21 -5.198723E+05 -1.127444E+05 -1.387045E+05  2.406877E+04 -8.038636E+04 -7.770616E+02
       170  22 -4.312507E+05  3.935289E+03 -3.235263E+04  3.837634E+03 -2.493477E+04 -1.568701E+03
       170  23 -4.142323E+05  1.755895E+04 -5.037394E+04 -6.289606E+02 -5.231976E+04 -1.974589E+03
       170  24 -4.312690E+05 -9.068166E+04 -1.166997E+05  3.972568E+03 -7.970773E+04 -7.734800E+02
       170  25 -3.588078E+05  2.202350E+04 -1.456113E+04  1.323557E+04 -2.532879E+04 -1.569684E+03
       170  26 -3.337545E+05  3.758359E+04 -3.066478E+04 -5.979472E+03 -5.217722E+04 -1.973905E+03
       170  27 -3.426578E+05 -6.861803E+04 -9.469539E+04 -1.612650E+04 -7.902900E+04 -7.699427E+02
       171   1  1.648223E+05  9.226307E+05  1.760657E+05 -8.797583E+04  4.695093E+03  6.012543E+04
       171   2  7.723118E+04  8.186933E+05  1.094501E+05 -4.889101E+04  1.364857E+04  3.061272E+04
       171   3  5.268266E+04  7.343176E+05  7.778393E+04 -5.043538E+04  1.119887E+04  1.095956E+03
       171   4  6.165573E+04  5.076953E+05  7.507541E+04 -5.910970E+04  4.707433E+03  4.745184E+04
       171   5 -1.168529E+03  4.987839E+05  3.722197E+04 -3.882100E+04  1.365189E+04  2.781345E+04
       171   6 -2.644463E+03  5.077271E+05  2.748087E+04 -5.915979E+04  1.119234E+04  8.166403E+03
       171   7 -4.152027E+04  9.291892E+04 -2.592631E+04 -3.026285E+04  4.718601E+03  3.478667E+04
       171   8 -7.957488E+04  1.789697E+05 -3.501261E+04 -2.875620E+04  1.365512E+04  2.501559E+04
       171   9 -5.797474E+04  2.811848E+05 -2.282515E+04 -6.788097E+04  1.118560E+04  1.523430E+04
       171  10  1.648213E+05  9.226268E+05  1.760589E+05 -8.797606E+04  1.193203E-09  8.796214E-12
       171  11  7.723073E+04  8.186923E+05  1.094480E+05 -4.889135E+04  2.703781E-09 -2.558872E-09
       171  12  5.268253E+04  7.343175E+05  7.778369E+04 -5.043539E+04 -5.922625E-10 -1.225881E-09
       171  13  6.165511E+04  5.076929E+05  7.507114E+04 -5.910988E+04 -1.617289E-09  5.370565E-10
       171  14 -1.168937E+03  4.987830E+05  3.722016E+04 -3.882131E+04  9.526579E-11  6.352831E-10
       171  15 -2.644615E+03  5.077270E+05  2.748051E+04 -5.915986E+04  1.404745E-09  9.508090E-10
       171  16 -4.152062E+04  9.291762E+04 -2.592863E+04 -3.026298E+04  1.014808E-10  2.251688E-10
       171  17 -7.957525E+04  1.789690E+05 -3.501414E+04 -2.875648E+04 -2.248014E-09  7.088525E-10
       171  18 -5.797493E+04  2.811845E+05 -2.282582E+04 -6.788111E+04 -3.181510E-09 -5.283362E-10
       171  19  1.648223E+05  9.226307E+05  1.760657E+05 -8.797583E+04 -4.695093E+03 -6.012543E+04
       171  20  7.723118E+04  8.186933E+05  1.094501E+05 -4.889101E+04 -1.364857E+04 -3.061272E+04
       171  21  5.268266E+04  7.343176E+05  7.778393E+04 -5.043538E+04 -1.119887E+04 -1.095956E+03
       171  22  6.165573E+04  5.076953E+05  7.507541E+04 -5.910970E+04 -4.707433E+03 -4.745184E+04
       171  23 -1.168529E+03  4.987839E+05  3.722197E+04 -3.882100E+04 -1.365189E+04 -2.781345E+04
       171  24 -2.644463E+03  5.077271E+05  2.748087E+04 -5.915979E+04 -1.119234E+04 -8.166403E+03
       171  25 -4.152027E+04  9.291892E+04 -2.592631E+04 -3.026285E+04 -4.718601E+03 -3.478667E+04
       171  26 -7.957488E+04  1.789697E+05 -3.501261E+04 -2.875620E+04 -1.365512E+04 -2.501559E+04
       171  27 -5.797474E+04  2.811848E+05 -2.282515E+04 -6.788097E+04 -1.118560E+04 -1.523430E+04
       172   1  3.925069E+04  6.518812E+05  5.885569E+04 -6.209227E+04  7.067832E+03 -3.899066E+01
       172   2  1.256563E+04  5.556352E+05  3.854597E+04 -3.841343E+04  2.642380E+03 -1.360016E+04
       172   3 -2.154913E+03  4.640604E+05  3.002907E+04 -5.576692E+04 -1.901316E+03 -2.715986E+04
       172   4  3.291601E+03  5.047957E+05  2.608317E+04 -5.923654E+04  7.064157E+03  3.747356E+03
       172   5 -4.203144E+02  5.024738E+05  2.674233E+04 -3.871823E+04  2.638497E+03 -9.710416E+03
       172   6  7.815319E+03  5.047965E+05  3.912344E+04 -5.923198E+04 -1.905306E+03 -2.316872E+04
       172   7 -3.266892E+04  3.577305E+05 -6.690647E+03 -5.638149E+04  7.060517E+03  7.532816E+03
       172   8 -1.340644E+04  4.493150E+05  1.493858E+04 -3.902301E+04  2.634610E+03 -5.821003E+03
       172   9  1.778549E+04  5.455342E+05  4.821777E+04 -6.269727E+04 -1.909340E+03 -1.917731E+04
       172  10  3.925064E+04  6.518812E+05  5.885560E+04 -6.209227E+04  3.027084E-09 -4.082226E-09
       172  11  1.256557E+04  5.556350E+05  3.854561E+04 -3.841340E+04  7.909102E-09  4.151288E-09
       172  12 -2.155115E+03  4.640596E+05  3.002768E+04 -5.576696E+04  4.949254E-10  1.533375E-08
       172  13  3.291544E+03  5.047957E+05  2.608305E+04 -5.923656E+04 -1.188650E-09  9.712403E-10
       172  14 -4.203472E+02  5.024737E+05  2.674214E+04 -3.871821E+04 -2.762525E-09  1.116587E-09
       172  15  7.815171E+03  5.047959E+05  3.912242E+04 -5.923202E+04 -4.078914E-09  1.060435E-09
       172  16 -3.266899E+04  3.577304E+05 -6.690847E+03 -5.638153E+04 -1.196064E-09  4.742279E-09
       172  17 -1.340646E+04  4.493149E+05  1.493850E+04 -3.902300E+04  2.712691E-10 -6.258160E-09
       172  18  1.778539E+04  5.455338E+05  4.821707E+04 -6.269730E+04 -2.045264E-09 -1.716668E-08
       172  19  3.925069E+04  6.518812E+05  5.885569E+04 -6.209227E+04 -7.067832E+03  3.899066E+01
       172  20  1.256563E+04  5.556352E+05  3.854597E+04 -3.841343E+04 -2.642380E+03  1.360016E+04
       172  21 -2.154913E+03  4.640604E+05  3.002907E+04 -5.576692E+04  1.901316E+03  2.715986E+04
       172  22  3.291601E+03  5.047957E+05  2.608317E+04 -5.923654E+04 -7.064157E+03 -3.747356E+03
       172  23 -4.203144E+02  5.024738E+05  2.674233E+04 -3.871823E+04 -2.638497E+03  9.710416E+03
       172  24  7.815319E+03  5.047965E+05  3.912344E+04 -5.923198E+04  1.905306E+03  2.316872E+04
       172  25 -3.266892E+04  3.577305E+05 -6.690647E+03 -5.638149E+04 -7.060517E+03 -7.532816E+03
       172  26 -1.340644E+04  4.493150E+05  1.493858E+04 -3.902301E+04 -2.634610E+03  5.821003E+03
       172  27  1.778549E+04  5.455342E+05  4.821777E+04 -6.269727E+04  1.909340E+03  1.917731E+04
       173   1 -3.588039E+04  3.921066E+05  1.998164E+04 -7.858323E+04 -5.776865E+03 -3.651836E+04
       173   2 -5.486991E+04  2.796678E+05  2.657658E+04 -1.748963E+04 -8.844397E+03 -6.869717E+04
       173   3  5.724342E+04  2.041433E+05  8.688232E+04  2.940573E+03 -3.198697E+03 -1.008625E+05
       173   4 -6.562000E+03  5.122545E+05  4.672202E+04 -5.918504E+04 -5.784516E+03 -3.008079E+04
       173   5 -2.478791E+03  4.931374E+05  7.491938E+04 -3.879425E+04 -8.840808E+03 -6.980632E+04
       173   6  1.339843E+05  5.122111E+05  1.620487E+05 -5.906094E+04 -3.180995E+03 -1.095235E+05
       173   7  2.275685E+04  6.324167E+05  7.346185E+04 -3.978306E+04 -5.791764E+03 -2.364199E+04
       173   8  4.991089E+04  7.066503E+05  1.232595E+05 -6.010624E+04 -8.837144E+03 -7.091586E+04
       173   9  2.107326E+05  8.203739E+05  2.372106E+05 -1.210933E+05 -3.161571E+03 -1.181888E+05
       173  10 -3.588078E+04  3.921051E+05  1.997907E+04 -7.858340E+04  3.358648E-10 -7.117275E-09
       173  11 -5.487126E+04  2.796627E+05  2.656757E+04 -1.749012E+04 -1.340703E-10 -7.911058E-09
       173  12  5.724068E+04  2.041323E+05  8.686319E+04  2.940313E+03 -9.596410E-10 -1.056493E-09
       173  13 -6.562278E+03  5.122535E+05  4.672025E+04 -5.918518E+04 -7.958853E-09  1.208429E-09
       173  14 -2.480182E+03  4.931321E+05  7.491009E+04 -3.879474E+04 -1.950458E-09  8.220814E-10
       173  15  1.339811E+05  5.121983E+05  1.620262E+05 -5.906122E+04 -1.312163E-09  9.073658E-10
       173  16  2.275667E+04  6.324161E+05  7.346074E+04 -3.978317E+04 -7.633099E-10  7.771253E-09
       173  17  4.990946E+04  7.066448E+05  1.232499E+05 -6.010675E+04  2.249846E-09  5.919887E-09
       173  18  2.107288E+05  8.203589E+05  2.371844E+05 -1.210936E+05  2.836942E-09 -3.175722E-10
       173  19 -3.588039E+04  3.921066E+05  1.998164E+04 -7.858323E+04  5.776865E+03  3.651836E+04
       173  20 -5.486991E+04  2.796678E+05  2.657658E+04 -1.748963E+04  8.844397E+03  6.869717E+04
       173  21  5.724342E+04  2.041433E+05  8.688232E+04  2.940573E+03  3.198697E+03  1.008625E+05
       173  22 -6.562000E+03  5.122545E+05  4.672202E+04 -5.918504E+04  5.784516E+03  3.008079E+04
       173  23 -2.478791E+03  4.931374E+05  7.491938E+04 -3.879425E+04  8.840808E+03  6.980632E+04
       173  24  1.339843E+05  5.122111E+05  1.620487E+05 -5.906094E+04  3.180995E+03  1.095235E+05
       173  25  2.275685E+04  6.324167E+05  7.346185E+04 -3.978306E+04  5.791764E+03  2.364199E+04
       173  26  4.991089E+04  7.066503E+05  1.232595E+05 -6.010624E+04  8.837144E+03  7.091586E+04
       173  27  2.107326E+05  8.203739E+05  2.372106E+05 -1.210933E+05  3.161571E+03  1.181888E+05
       174   1  3.087269E+04  1.093461E+04 -8.506024E+03 -9.104198E+03 -5.605494E+04 -3.558456E+03
       174   2  1.383138E+04  8.446885E+04  3.244824E+04 -1.723918E+03 -3.883253E+04 -1.050974E+04
       174   3 -2.689695E+04  7.216488E+04  4.074368E+04  2.512854E+04 -2.162281E+04 -9.728243E+03
       174   4 -3.026308E+05 -7.211761E+04 -9.062741E+04  1.492241E+04 -6.201697E+04 -3.569490E+03
       174   5 -2.904036E+05  9.179075E+03 -3.986212E+04  5.127874E+03 -4.053648E+04 -1.051330E+04
       174   6 -3.026168E+05  3.874171E+03 -2.472592E+04  1.480651E+04 -1.906772E+04 -9.723597E+03
       174   7 -6.360318E+05 -1.551759E+05 -1.727566E+05  3.893607E+04 -6.797579E+04 -3.580989E+03
       174   8 -5.945535E+05 -6.611718E+04 -1.121789E+05  1.197626E+04 -4.223961E+04 -1.051689E+04
       174   9 -5.782666E+05 -6.442162E+04 -9.020075E+04  4.489060E+03 -1.651375E+04 -9.719035E+03
       174  10  3.086931E+04  1.093376E+04 -8.511953E+03 -9.104359E+03 -3.024661E-09  1.032281E-09
       174  11  1.382973E+04  8.446832E+04  3.244520E+04 -1.724246E+03 -7.979876E-10  5.537913E-09
       174  12 -2.689747E+04  7.216465E+04  4.074262E+04  2.512837E+04  2.730662E-09  3.589744E-09
       174  13 -3.026350E+05 -7.211866E+04 -9.063467E+04  1.492224E+04 -1.168275E-09 -2.042731E-09
       174  14 -2.904054E+05  9.178515E+03 -3.986541E+04  5.127531E+03  2.667549E-09 -3.985010E-09
       174  15 -3.026172E+05  3.873972E+03 -2.472678E+04  1.480636E+04 -3.821384E-09  6.615234E-10
       174  16 -6.360368E+05 -1.551772E+05 -1.727653E+05  3.893587E+04  3.526777E-09  8.415572E-11
       174  17 -5.945555E+05 -6.611778E+04 -1.121825E+05  1.197590E+04 -2.200268E-09  3.361626E-09
       174  18 -5.782669E+05 -6.442179E+04 -9.020144E+04  4.488931E+03 -7.400179E-10 -4.188925E-10
       174  19  3.087269E+04  1.093461E+04 -8.506024E+03 -9.104198E+03  5.605494E+04  3.558456E+03
       174  20  1.383138E+04  8.446885E+04  3.244824E+04 -1.723918E+03  3.883253E+04  1.050974E+04
       174  21 -2.689695E+04  7.216488E+04  4.074368E+04  2.512854E+04  2.162281E+04  9.728243E+03
       174  22 -3.026308E+05 -7.211761E+04 -9.062741E+04  1.492241E+04  6.201697E+04  3.569490E+03
       174  23 -2.904036E+05  9.179075E+03 -3.986212E+04  5.127874E+03  4.053648E+04  1.051330E+04
       174  24 -3.026168E+05  3.874171E+03 -2.472592E+04  1.480651E+04  1.906772E+04  9.723597E+03
       174  25 -6.360318E+05 -1.551759E+05 -1.727566E+05  3.893607E+04  6.797579E+04  3.580989E+03
       174  26 -5.945535E+05 -6.611718E+04 -1.121789E+05  1.197626E+04  4.223961E+04  1.051689E+04
       174  27 -5.782666E+05 -6.442162E+04 -9.020075E+04  4.489060E+03  1.651375E+04  9.719035E+03
       175   1 -5.741417E+04  5.251348E+04  3.714686E+04  1.314303E+04 -1.551425E+04 -7.943616E+03
       175   2 -8.505304E+04  5.327722E+04  3.991822E+04  4.799026E+03 -1.052467E+04 -7.247555E+03
       175   3 -1.155068E+05  4.559661E+04  3.731885E+04  1.625319E+04 -5.536831E+03 -6.030364E+03
       175   4 -2.978203E+05 -7.021407E+03 -2.012030E+04  1.492491E+04 -1.527512E+04 -7.943424E+03
       175   5 -2.963847E+05  9.549378E+02 -1.032819E+04  5.018395E+03 -9.999765E+03 -7.246685E+03
       175   6 -2.978161E+05  4.355110E+02 -6.106976E+03  1.491057E+04 -4.725935E+03 -6.028762E+03
       175   7 -5.381734E+05 -6.656046E+04 -7.739150E+04  1.670607E+04 -1.503608E+04 -7.943231E+03
       175   8 -5.076754E+05 -5.137057E+04 -6.057772E+04  5.237669E+03 -9.475043E+03 -7.245816E+03
       175   9 -4.800948E+05 -4.472798E+04 -4.953513E+04  1.356833E+04 -3.915277E+03 -6.027162E+03
       175  10 -5.741445E+04  5.251335E+04  3.714629E+04  1.314293E+04 -1.006258E-09 -9.807091E-10
       175  11 -8.505318E+04  5.327714E+04  3.991791E+04  4.798964E+03 -1.225082E-09 -2.342518E-10
       175  12 -1.155069E+05  4.559657E+04  3.731872E+04  1.625316E+04  2.204205E-10  6.245577E-09
       175  13 -2.978206E+05 -7.021538E+03 -2.012085E+04  1.492481E+04  5.071703E-09  6.445159E-09
       175  14 -2.963848E+05  9.548545E+02 -1.032848E+04  5.018337E+03  6.516683E-10 -1.383541E-08
       175  15 -2.978161E+05  4.354660E+02 -6.107087E+03  1.491055E+04  1.778660E-09  5.585155E-09
       175  16 -5.381737E+05 -6.656059E+04 -7.739204E+04  1.670597E+04 -2.456455E-09 -5.024945E-09
       175  17 -5.076755E+05 -5.137065E+04 -6.057799E+04  5.237614E+03 -3.015403E-09 -3.679961E-09
       175  18 -4.800949E+05 -4.472803E+04 -4.953523E+04  1.356831E+04  2.645943E-09  2.157306E-09
       175  19 -5.741417E+04  5.251348E+04  3.714686E+04  1.314303E+04  1.551425E+04  7.943616E+03
       175  20 -8.505304E+04  5.327722E+04  3.991822E+04  4.799026E+03  1.052467E+04  7.247555E+03
       175  21 -1.155068E+05  4.559661E+04  3.731885E+04  1.625319E+04  5.536831E+03  6.030364E+03
       175  22 -2.978203E+05 -7.021407E+03 -2.012030E+04  1.492491E+04  1.527512E+04  7.943424E+03
       175  23 -2.963847E+05  9.549378E+02 -1.032819E+04  5.018395E+03  9.999765E+03  7.246685E+03
       175  24 -2.978161E+05  4.355110E+02 -6.106976E+03  1.491057E+04  4.725935E+03  6.028762E+03
       175  25 -5.381734E+05 -6.656046E+04 -7.739150E+04  1.670607E+04  1.503608E+04  7.943231E+03
       175  26 -5.076754E+05 -5.137057E+04 -6.057772E+04  5.237669E+03  9.475043E+03  7.245816E+03
       175  27 -4.800948E+05 -4.472798E+04 -4.953513E+04  1.356833E+04  3.915277E+03  6.027162E+03
       176   1 -1.505334E+05  3.570137E+04  3.005209E+04  1.504726E+04 -4.425287E+03 -5.234553E+03
       176   2 -1.795206E+05  2.922369E+04  2.532839E+04  5.166688E+03 -3.137924E+03 -4.024480E+03
       176   3 -2.089606E+05  2.199193E+04  1.955685E+04  1.521673E+04 -1.850967E+03 -2.777664E+03
       176   4 -2.972775E+05 -6.179167E+02 -4.765167E+03  1.494546E+04 -3.768571E+03 -5.233216E+03
       176   5 -2.970482E+05  1.224184E+02 -2.617497E+03  4.979246E+03 -2.461223E+03 -4.023029E+03
       176   6 -2.972757E+05  1.052407E+02 -1.531602E+03  1.494388E+04 -1.154222E+03 -2.776093E+03
       176   7 -4.440019E+05 -3.693875E+04 -3.958393E+04  1.484368E+04 -3.112009E+03 -5.231880E+03
       176   8 -4.145632E+05 -2.897985E+04 -3.056435E+04  4.791833E+03 -1.784650E+03 -4.021578E+03
       176   9 -3.855837E+05 -2.178201E+04 -2.262060E+04  1.467106E+04 -4.575761E+02 -2.774523E+03
       176  10 -1.505334E+05  3.570133E+04  3.005201E+04  1.504724E+04 -3.843559E-09 -2.267553E-09
       176  11 -1.795206E+05  2.922367E+04  2.532834E+04  5.166677E+03 -6.986249E-10 -4.460534E-09
       176  12 -2.089606E+05  2.199192E+04  1.955683E+04  1.521672E+04  4.086653E-09 -2.611115E-09
       176  13 -2.972775E+05 -6.179499E+02 -4.765245E+03  1.494545E+04 -3.148299E-09  9.083171E-11
       176  14 -2.970483E+05  1.223994E+02 -2.617539E+03  4.979238E+03  5.483556E-09 -6.275618E-09
       176  15 -2.972757E+05  1.052321E+02 -1.531619E+03  1.494388E+04  5.666040E-09 -3.391965E-09
       176  16 -4.440019E+05 -3.693878E+04 -3.958400E+04  1.484367E+04  3.191402E-09 -3.360007E-09
       176  17 -4.145632E+05 -2.897987E+04 -3.056438E+04  4.791827E+03 -3.453869E-09 -2.332407E-10
       176  18 -3.855837E+05 -2.178202E+04 -2.262061E+04  1.467106E+04 -5.294147E-09  4.824730E-09
       176  19 -1.505334E+05  3.570137E+04  3.005209E+04  1.504726E+04  4.425287E+03  5.234553E+03
       176  20 -1.795206E+05  2.922369E+04  2.532839E+04  5.166688E+03  3.137924E+03  4.024480E+03
       176  21 -2.089606E+05  2.199193E+04  1.955685E+04  1.521673E+04  1.850967E+03  2.777664E+03
       176  22 -2.972775E+05 -6.179167E+02 -4.765167E+03  1.494546E+04  3.768571E+03  5.233216E+03
       176  23 -2.970482E+05  1.224184E+02 -2.617497E+03  4.979246E+03  2.461223E+03  4.023029E+03
       176  24 -2.972757E+05  1.052407E+02 -1.531602E+03  1.494388E+04  1.154222E+03  2.776093E+03
       176  25 -4.440019E+05 -3.693875E+04 -3.958393E+04  1.484368E+04  3.112009E+03  5.231880E+03
       176  26 -4.145632E+05 -2.897985E+04 -3.056435E+04  4.791833E+03  1.784650E+03  4.021578E+03
       176  27 -3.855837E+05 -2.178201E+04 -2.262060E+04  1.467106E+04  4.575761E+02  2.774523E+03
       177   1 -2.446129E+05  1.301371E+04  1.123363E+04  1.505118E+04 -1.599084E+03 -2.046181E+03
       177   2 -2.738233E+05  5.808405E+03  4.843601E+03  5.014525E+03 -1.256653E+03 -7.995907E+02
       177   3 -3.031909E+05 -1.391277E+03 -1.792900E+03  1.496028E+04 -9.143011E+02  4.495428E+02
       177   4 -2.972081E+05  7.502849E+00 -1.185154E+03  1.495594E+04 -9.122822E+02 -2.044603E+03
       177   5 -2.971288E+05  3.727965E+01 -6.983478E+02  4.964637E+03 -5.684902E+02 -7.979966E+02
       177   6 -2.972077E+05  7.249789E+01 -4.589391E+02  1.495579E+04 -2.247614E+02  4.511562E+02
       177   7 -3.498007E+05 -1.299891E+04 -1.360412E+04  1.486071E+04 -2.255385E+02 -2.043025E+03
       177   8 -3.204337E+05 -5.733884E+03 -6.240332E+03  4.914751E+03  1.196467E+02 -7.964025E+02
       177   9 -2.912245E+05  1.536270E+03  8.750216E+02  1.495130E+04  4.647849E+02  4.527696E+02
       177  10 -2.446129E+05  1.301371E+04  1.123361E+04  1.505118E+04  4.819054E-10 -4.540667E-09
       177  11 -2.738233E+05  5.808404E+03  4.843596E+03  5.014525E+03 -3.011377E-10  3.470872E-09
       177  12 -3.031909E+05 -1.391277E+03 -1.792902E+03  1.496028E+04  1.644835E-09 -8.820711E-10
       177  13 -2.972081E+05  7.498137E+00 -1.185163E+03  1.495594E+04  5.523614E-09  3.344166E-09
       177  14 -2.971288E+05  3.727888E+01 -6.983496E+02  4.964637E+03  2.175791E-10 -1.599190E-09
       177  15 -2.972077E+05  7.249766E+01 -4.589396E+02  1.495579E+04  2.915640E-10 -3.023000E-09
       177  16 -3.498007E+05 -1.299891E+04 -1.360413E+04  1.486071E+04 -2.256277E-09  4.371050E-09
       177  17 -3.204337E+05 -5.733885E+03 -6.240333E+03  4.914751E+03 -3.041561E-09  7.238904E-09
       177  18 -2.912245E+05  1.536270E+03  8.750208E+02  1.495130E+04  4.202218E-09  6.530230E-10
       177  19 -2.446129E+05  1.301371E+04  1.123363E+04  1.505118E+04  1.599084E+03  2.046181E+03
       177  20 -2.738233E+05  5.808405E+03  4.843601E+03  5.014525E+03  1.256653E+03  7.995907E+02
       177  21 -3.031909E+05 -1.391277E+03 -1.792900E+03  1.496028E+04  9.143011E+02 -4.495428E+02
       177  22 -2.972081E+05  7.502849E+00 -1.185154E+03  1.495594E+04  9.122822E+02  2.044603E+03
       177  23 -2.971288E+05  3.727965E+01 -6.983478E+02  4.964637E+03  5.684902E+02  7.979966E+02
       177  24 -2.972077E+05  7.249789E+01 -4.589391E+02  1.495579E+04  2.247614E+02 -4.511562E+02
       177  25 -3.498007E+05 -1.299891E+04 -1.360412E+04  1.486071E+04  2.255385E+02  2.043025E+03
       177  26 -3.204337E+05 -5.733884E+03 -6.240332E+03  4.914751E+03 -1.196467E+02  7.964025E+02
       177  27 -2.912245E+05  1.536270E+03  8.750216E+02  1.495130E+04 -4.647849E+02 -4.527696E+02
       178   1 -3.389303E+05 -1.028460E+04 -1.040816E+04  1.487871E+04 -8.388823E+02  1.177242E+03
       178   2 -3.681326E+05 -1.755179E+04 -1.723706E+04  4.848808E+03 -6.639532E+02  2.425359E+03
       178   3 -3.974512E+05 -2.476258E+04 -2.418938E+04  1.478426E+04 -4.888514E+02  3.669712E+03
       178   4 -2.971990E+05  6.740221E+01 -3.953542E+02  1.495200E+04 -1.494101E+02  1.178845E+03
       178   5 -2.971409E+05  2.867461E+01 -3.545861E+02  4.969412E+03  2.343653E+01  2.426912E+03
       178   6 -2.971999E+05  4.666236E+01 -4.358598E+02  1.495204E+04  1.964641E+02  3.671218E+03
       178   7 -2.554661E+05  1.041927E+04  9.617332E+03  1.502528E+04  5.401083E+02  1.180449E+03
       178   8 -2.261446E+05  1.760878E+04  1.652753E+04  5.090027E+03  7.109045E+02  2.428465E+03
       178   9 -1.969394E+05  2.485519E+04  2.331696E+04  1.511984E+04  8.818898E+02  3.672723E+03
       178  10 -3.389303E+05 -1.028460E+04 -1.040817E+04  1.487871E+04  1.504344E-09 -2.214999E-09
       178  11 -3.681326E+05 -1.755180E+04 -1.723707E+04  4.848810E+03 -4.643682E-09 -3.368645E-09
       178  12 -3.974512E+05 -2.476260E+04 -2.418940E+04  1.478426E+04 -9.599740E-09 -2.191596E-09
       178  13 -2.971990E+05  6.740072E+01 -3.953569E+02  1.495200E+04 -1.124956E-09  4.011812E-09
       178  14 -2.971409E+05  2.866828E+01 -3.545972E+02  4.969412E+03 -7.520258E-09 -2.916013E-09
       178  15 -2.971999E+05  4.664788E+01 -4.358852E+02  1.495204E+04  1.833326E-09 -3.981418E-09
       178  16 -2.554661E+05  1.041927E+04  9.617329E+03  1.502528E+04 -3.432079E-10  7.738420E-10
       178  17 -2.261446E+05  1.760877E+04  1.652752E+04  5.090025E+03  2.562060E-09 -7.685294E-09
       178  18 -1.969394E+05  2.485517E+04  2.331694E+04  1.511984E+04  9.748358E-09 -2.966470E-09
       178  19 -3.389303E+05 -1.028460E+04 -1.040816E+04  1.487871E+04  8.388823E+02 -1.177242E+03
       178  20 -3.681326E+05 -1.755179E+04 -1.723706E+04  4.848808E+03  6.639532E+02 -2.425359E+03
       178  21 -3.974512E+05 -2.476258E+04 -2.418938E+04  1.478426E+04  4.888514E+02 -3.669712E+03
       178  22 -2.971990E+05  6.740221E+01 -3.953542E+02  1.495200E+04  1.494101E+02 -1.178845E+03
       178  23 -2.971409E+05  2.867461E+01 -3.545861E+02  4.969412E+03 -2.343653E+01 -2.426912E+03
       178  24 -2.971999E+05  4.666236E+01 -4.358598E+02  1.495204E+04 -1.964641E+02 -3.671218E+03
       178  25 -2.554661E+05  1.041927E+04  9.617332E+03  1.502528E+04 -5.401083E+02 -1.180449E+03
       178  26 -2.261446E+05  1.760878E+04  1.652753E+04  5.090027E+03 -7.109045E+02 -2.428465E+03
       178  27 -1.969394E+05  2.485519E+04  2.331696E+04  1.511984E+04 -8.818898E+02 -3.672723E+03
       179   1 -4.331159E+05 -3.359707E+04 -3.292449E+04  1.467000E+04 -4.160560E+02  4.400193E+03
       179   2 -4.621574E+05 -4.082277E+04 -4.006089E+04  4.737099E+03  1.100494E+01  5.642106E+03
       179   3 -4.913762E+05 -4.821951E+04 -4.753576E+04  1.467741E+04  4.385419E+02  6.841870E+03
       179   4 -2.972147E+05  7.672925E+01 -5.166501E+02  1.493135E+04  2.802506E+02  4.401673E+03
       179   5 -2.971290E+05  4.723153E+01 -8.135120E+02  4.995140E+03  6.841458E+02  5.643432E+03
       179   6 -2.972168E+05 -1.490763E+02 -1.432506E+03  1.493181E+04  1.088537E+03  6.843049E+03
       179   7 -1.612966E+05  3.374920E+04  3.188989E+04  1.519275E+04  9.767091E+02  4.403153E+03
       179   8 -1.320756E+05  4.091527E+04  3.843197E+04  5.253238E+03  1.357465E+03  5.644758E+03
       179   9 -1.030229E+05  4.791864E+04  4.466812E+04  1.518628E+04  1.738734E+03  6.844229E+03
       179  10 -4.331159E+05 -3.359709E+04 -3.292452E+04  1.467000E+04 -6.084922E-09  6.895266E-10
       179  11 -4.621574E+05 -4.082280E+04 -4.006095E+04  4.737099E+03 -4.206073E-09 -4.979085E-09
       179  12 -4.913762E+05 -4.821956E+04 -4.753585E+04  1.467741E+04  8.615620E-11 -2.897937E-09
       179  13 -2.972147E+05  7.670843E+01 -5.166867E+02  1.493135E+04  3.339506E-09 -2.027404E-09
       179  14 -2.971291E+05  4.719721E+01 -8.135727E+02  4.995137E+03 -8.620161E-09  9.492278E-10
       179  15 -2.972169E+05 -1.491269E+02 -1.432597E+03  1.493181E+04  2.281701E-09 -5.290810E-10
       179  16 -1.612966E+05  3.374918E+04  3.188985E+04  1.519274E+04  1.157864E-08  5.758577E-09
       179  17 -1.320757E+05  4.091523E+04  3.843190E+04  5.253232E+03  2.909795E-09 -3.094339E-09
       179  18 -1.030229E+05  4.791859E+04  4.466802E+04  1.518627E+04 -4.857589E-09  2.209749E-09
       179  19 -4.331159E+05 -3.359707E+04 -3.292449E+04  1.467000E+04  4.160560E+02 -4.400193E+03
       179  20 -4.621574E+05 -4.082277E+04 -4.006089E+04  4.737099E+03 -1.100494E+01 -5.642106E+03
       179  21 -4.913762E+05 -4.821951E+04 -4.753576E+04  1.467741E+04 -4.385419E+02 -6.841870E+03
       179  22 -2.972147E+05  7.672925E+01 -5.166501E+02  1.493135E+04 -2.802506E+02 -4.401673E+03
       179  23 -2.971290E+05  4.723153E+01 -8.135120E+02  4.995140E+03 -6.841458E+02 -5.643432E+03
       179  24 -2.972168E+05 -1.490763E+02 -1.432506E+03  1.493181E+04 -1.088537E+03 -6.843049E+03
       179  25 -1.612966E+05  3.374920E+04  3.188989E+04  1.519275E+04 -9.767091E+02 -4.403153E+03
       179  26 -1.320756E+05  4.091527E+04  3.843197E+04  5.253238E+03 -1.357465E+03 -5.644758E+03
       179  27 -1.030229E+05  4.791864E+04  4.466812E+04  1.518628E+04 -1.738734E+03 -6.844229E+03
       180   1 -5.269573E+05 -5.671169E+04 -5.650085E+04  1.424019E+04  5.498025E+02  7.642540E+03
       180   2 -5.554081E+05 -6.372645E+04 -6.454228E+04  4.850223E+03  2.441323E+03  8.844569E+03
       180   3 -5.847614E+05 -7.326162E+04 -7.445231E+04  1.516320E+04  4.334346E+03  9.456793E+03
       180   4 -2.973704E+05  1.651380E+02 -1.822778E+03  1.489243E+04  1.373886E+03  7.643973E+03
       180   5 -2.969491E+05  2.844593E+02 -3.072869E+03  5.043138E+03  2.940648E+03  8.845229E+03
       180   6 -2.973740E+05 -2.059541E+03 -5.965323E+03  1.489630E+04  4.509000E+03  9.456791E+03
       180   7 -6.773500E+04  5.703816E+04  5.285160E+04  1.554489E+04  2.198273E+03  7.645408E+03
       180   8 -3.842860E+04  6.429055E+04  5.839187E+04  5.236106E+03  3.440180E+03  8.845891E+03
       180   9 -9.910879E+03  6.913657E+04  6.251587E+04  1.462924E+04  4.683733E+03  9.456789E+03
       180  10 -5.269573E+05 -5.671176E+04 -5.650096E+04  1.424018E+04  2.598382E-09 -1.864841E-09
       180  11 -5.554082E+05 -6.372653E+04 -6.454244E+04  4.850205E+03 -6.461838E-09  1.456582E-09
       180  12 -5.847614E+05 -7.326172E+04 -7.445252E+04  1.516317E+04 -4.067553E-09 -1.034628E-09
       180  13 -2.973704E+05  1.650747E+02 -1.822891E+03  1.489242E+04 -8.838951E-10 -5.242904E-09
       180  14 -2.969491E+05  2.843729E+02 -3.073033E+03  5.043117E+03  2.903273E-09  4.045133E-09
       180  15 -2.973741E+05 -2.059642E+03 -5.965530E+03  1.489627E+04 -2.320356E-09 -7.633029E-10
       180  16 -6.773502E+04  5.703810E+04  5.285148E+04  1.554488E+04 -3.371761E-09 -5.942931E-10
       180  17 -3.842863E+04  6.429046E+04  5.839170E+04  5.236082E+03  1.720756E-09 -2.117326E-09
       180  18 -9.910927E+03  6.913647E+04  6.251566E+04  1.462921E+04  5.224757E-09  3.128471E-09
       180  19 -5.269573E+05 -5.671169E+04 -5.650085E+04  1.424019E+04 -5.498025E+02 -7.642540E+03
       180  20 -5.554081E+05 -6.372645E+04 -6.454228E+04  4.850223E+03 -2.441323E+03 -8.844569E+03
       180  21 -5.847614E+05 -7.326162E+04 -7.445231E+04  1.516320E+04 -4.334346E+03 -9.456793E+03
       180  22 -2.973704E+05  1.651380E+02 -1.822778E+03  1.489243E+04 -1.373886E+03 -7.643973E+03
       180  23 -2.969491E+05  2.844593E+02 -3.072869E+03  5.043138E+03 -2.940648E+03 -8.845229E+03
       180  24 -2.973740E+05 -2.059541E+03 -5.965323E+03  1.489630E+04 -4.509000E+03 -9.456791E+03
       180  25 -6.773500E+04  5.703816E+04  5.285160E+04  1.554489E+04 -2.198273E+03 -7.645408E+03
       180  26 -3.842860E+04  6.429055E+04  5.839187E+04  5.236106E+03 -3.440180E+03 -8.845891E+03
       180  27 -9.910879E+03  6.913657E+04  6.251587E+04  1.462924E+04 -4.683733E+03 -9.456789E+03
       181   1 -6.213151E+05 -7.870233E+04 -8.392116E+04  1.145511E+04  2.836073E+03  1.136421E+04
       181   2 -6.459690E+05 -8.416038E+04 -9.522975E+04  6.944832E+03  1.402416E+04  1.206765E+04
       181   3 -6.786421E+05 -1.160544E+05 -1.204267E+05  2.169153E+04  2.522233E+04  4.019004E+03
       181   4 -2.987861E+05  1.168336E+03 -7.326007E+03  1.478552E+04  5.630239E+03  1.136826E+04
       181   5 -2.952009E+05  2.706213E+03 -1.182109E+04  5.171556E+03  1.199445E+04  1.206434E+04
       181   6 -2.987936E+05 -2.134596E+04 -2.684821E+04  1.481427E+04  1.836940E+04  4.010327E+03
       181   7  2.383853E+04  8.103155E+04  6.926192E+04  1.811764E+04  8.425850E+03  1.137233E+04
       181   8  5.568018E+04  8.956395E+04  7.157898E+04  3.397233E+03  9.963591E+03  1.206103E+04
       181   9  8.118646E+04  7.335189E+04  6.671980E+04  7.932739E+03  1.151227E+04  4.001805E+03
       181  10 -6.213151E+05 -7.870247E+04 -8.392141E+04  1.145508E+04 -2.916126E-09 -1.583442E-09
       181  11 -6.459692E+05 -8.416059E+04 -9.523039E+04  6.944696E+03 -3.617967E-09  1.188510E-10
       181  12 -6.786428E+05 -1.160545E+05 -1.204279E+05  2.169145E+04  6.526816E-09  3.853959E-09
       181  13 -2.987862E+05  1.168188E+03 -7.326309E+03  1.478547E+04  8.319909E-10  2.189866E-09
       181  14 -2.952011E+05  2.706018E+03 -1.182164E+04  5.171440E+03 -3.239773E-09 -4.425226E-10
       181  15 -2.987940E+05 -2.134607E+04 -2.684887E+04  1.481421E+04 -3.558886E-09  3.156974E-09
       181  16  2.383842E+04  8.103139E+04  6.926154E+04  1.811756E+04  4.415671E-09  3.972736E-09
       181  17  5.568004E+04  8.956377E+04  7.157852E+04  3.397136E+03 -3.153895E-09  8.209402E-10
       181  18  8.118631E+04  7.335184E+04  6.671952E+04  7.932702E+03 -7.540938E-09 -2.471646E-10
       181  19 -6.213151E+05 -7.870233E+04 -8.392116E+04  1.145511E+04 -2.836073E+03 -1.136421E+04
       181  20 -6.459690E+05 -8.416038E+04 -9.522975E+04  6.944832E+03 -1.402416E+04 -1.206765E+04
       181  21 -6.786421E+05 -1.160544E+05 -1.204267E+05  2.169153E+04 -2.522233E+04 -4.019004E+03
       181  22 -2.987861E+05  1.168336E+03 -7.326007E+03  1.478552E+04 -5.630239E+03 -1.136826E+04
       181  23 -2.952009E+05  2.706213E+03 -1.182109E+04  5.171556E+03 -1.199445E+04 -1.206434E+04
       181  24 -2.987936E+05 -2.134596E+04 -2.684821E+04  1.481427E+04 -1.836940E+04 -4.010327E+03
       181  25  2.383853E+04  8.103155E+04  6.926192E+04  1.811764E+04 -8.425850E+03 -1.137233E+04
       181  26  5.568018E+04  8.956395E+04  7.157898E+04  3.397233E+03 -9.963591E+03 -1.206103E+04
       181  27  8.118646E+04  7.335189E+04  6.671980E+04  7.932739E+03 -1.151227E+04 -4.001805E+03
       182   1 -2.569324E+05 -9.426364E+05 -2.527045E+05  2.142134E+05 -1.031633E+04 -7.529159E+04
       182   2 -1.699301E+05 -7.210702E+05 -1.573939E+05  1.751126E+05 -3.092253E+04 -3.205020E+04
       182   3 -1.117046E+05 -5.120656E+05 -9.743548E+04  1.905904E+05 -2.805378E+04  1.123903E+04
       182   4 -3.453038E+04 -4.586772E+04 -3.827351E+04  1.934021E+05 -1.036083E+04 -2.807531E+04
       182   5 -6.090090E+03 -4.250538E+04 -1.716954E+04  1.661288E+05 -3.093101E+04 -1.914515E+04
       182   6 -4.447084E+02 -4.577358E+04 -7.555507E+03  1.934351E+05 -2.803630E+04 -1.018360E+04
       182   7  1.878162E+05  8.516446E+05  1.761094E+05  1.725607E+05 -1.040848E+04  1.920898E+04
       182   8  1.577211E+05  6.364969E+05  1.230306E+05  1.571351E+05 -3.093987E+04 -6.226213E+03
       182   9  1.108025E+05  4.207286E+05  8.231611E+04  1.962821E+05 -2.801902E+04 -3.162196E+04
       182  10 -2.569340E+05 -9.426426E+05 -2.527154E+05  2.142128E+05 -4.167359E-10  2.698758E-08
       182  11 -1.699314E+05 -7.210716E+05 -1.573976E+05  1.751118E+05  2.435331E-09 -3.465750E-11
       182  12 -1.117055E+05 -5.120659E+05 -9.743719E+04  1.905907E+05 -2.373661E-09 -3.187365E-08
       182  13 -3.453070E+04 -4.586859E+04 -3.827519E+04  1.934019E+05  2.306619E-09  2.364868E-09
       182  14 -6.091216E+03 -4.250603E+04 -1.717203E+04  1.661283E+05 -3.841377E-09 -2.046419E-09
       182  15 -4.455801E+02 -4.577391E+04 -7.557179E+03  1.934349E+05 -3.902604E-09 -1.287436E-10
       182  16  1.878159E+05  8.516441E+05  1.761085E+05  1.725609E+05  3.962028E-09 -2.819045E-08
       182  17  1.577201E+05  6.364966E+05  1.230287E+05  1.571349E+05 -7.123131E-10  1.778955E-09
       182  18  1.108014E+05  4.207274E+05  8.231276E+04  1.962814E+05 -2.459890E-09  3.317843E-08
       182  19 -2.569324E+05 -9.426364E+05 -2.527045E+05  2.142134E+05  1.031633E+04  7.529159E+04
       182  20 -1.699301E+05 -7.210702E+05 -1.573939E+05  1.751126E+05  3.092253E+04  3.205020E+04
       182  21 -1.117046E+05 -5.120656E+05 -9.743548E+04  1.905904E+05  2.805378E+04 -1.123903E+04
       182  22 -3.453038E+04 -4.586772E+04 -3.827351E+04  1.934021E+05  1.036083E+04  2.807531E+04
       182  23 -6.090090E+03 -4.250538E+04 -1.716954E+04  1.661288E+05  3.093101E+04  1.914515E+04
       182  24 -4.447084E+02 -4.577358E+04 -7.555507E+03  1.934351E+05  2.803630E+04  1.018360E+04
       182  25  1.878162E+05  8.516446E+05  1.761094E+05  1.725607E+05  1.040848E+04 -1.920898E+04
       182  26  1.577211E+05  6.364969E+05  1.230306E+05  1.571351E+05  3.093987E+04  6.226213E+03
       182  27  1.108025E+05  4.207286E+05  8.231611E+04  1.962821E+05  2.801902E+04  3.162196E+04
       183   1 -7.814099E+04 -3.644208E+05 -6.589422E+04  1.939534E+05 -1.931040E+04  8.232579E+03
       183   2 -2.511970E+04 -1.493903E+05 -1.724626E+04  1.660393E+05 -7.084566E+03  7.663057E+03
       183   3  2.823716E+04  6.599237E+04  3.188829E+04  1.940641E+05  5.514002E+03  7.092575E+03
       183   4 -1.742880E+03 -4.418787E+04 -4.216054E+03  1.937300E+05 -1.929753E+04 -9.388351E+03
       183   5 -2.137700E+02 -4.438242E+04  2.261391E+03  1.657621E+05 -7.072037E+03 -1.050541E+04
       183   6  1.748898E+03 -4.417298E+04  9.607705E+03  1.937324E+05  5.526046E+03 -1.162325E+04
       183   7  7.464931E+04  2.761444E+05  5.745853E+04  1.935065E+05 -1.928465E+04 -2.701816E+04
       183   8  2.469171E+04  6.063686E+04  2.176981E+04  1.654848E+05 -7.059491E+03 -2.867688E+04
       183   9 -2.473993E+04 -1.543260E+05 -1.267219E+04  1.934007E+05  5.538112E+03 -3.033581E+04
       183  10 -7.814141E+04 -3.644210E+05 -6.589504E+04  1.939535E+05 -6.255178E-10  6.393747E-09
       183  11 -2.511977E+04 -1.493904E+05 -1.724646E+04  1.660394E+05  3.150957E-09  4.887190E-09
       183  12  2.823711E+04  6.599231E+04  3.188814E+04  1.940641E+05  2.530194E-09 -3.734465E-09
       183  13 -1.743304E+03 -4.418806E+04 -4.216919E+03  1.937299E+05 -3.737429E-09  2.711233E-09
       183  14 -2.138533E+02 -4.438255E+04  2.261090E+03  1.657620E+05  1.112283E-09 -1.845951E-09
       183  15  1.748828E+03 -4.417313E+04  9.607394E+03  1.937324E+05 -1.769993E-09 -5.612499E-10
       183  16  7.464871E+04  2.761436E+05  5.745646E+04  1.935061E+05 -1.586491E-09 -6.957909E-09
       183  17  2.469143E+04  6.063597E+04  2.176818E+04  1.654846E+05 -6.207724E-10 -4.358515E-09
       183  18 -2.474021E+04 -1.543270E+05 -1.267398E+04  1.934008E+05  7.699821E-11  2.919115E-09
       183  19 -7.814099E+04 -3.644208E+05 -6.589422E+04  1.939534E+05  1.931040E+04 -8.232579E+03
       183  20 -2.511970E+04 -1.493903E+05 -1.724626E+04  1.660393E+05  7.084566E+03 -7.663057E+03
       183  21  2.823716E+04  6.599237E+04  3.188829E+04  1.940641E+05 -5.514002E+03 -7.092575E+03
       183  22 -1.742880E+03 -4.418787E+04 -4.216054E+03  1.937300E+05  1.929753E+04  9.388351E+03
       183  23 -2.137700E+02 -4.438242E+04  2.261391E+03  1.657621E+05  7.072037E+03  1.050541E+04
       183  24  1.748898E+03 -4.417298E+04  9.607705E+03  1.937324E+05 -5.526046E+03  1.162325E+04
       183  25  7.464931E+04  2.761444E+05  5.745853E+04  1.935065E+05  1.928465E+04  2.701816E+04
       183  26  2.469171E+04  6.063686E+04  2.176981E+04  1.654848E+05  7.059491E+03  2.867688E+04
       183  27 -2.473993E+04 -1.543260E+05 -1.267219E+04  1.934007E+05 -5.538112E+03  3.033581E+04
       184   1  6.108152E+04  2.141930E+05  6.423476E+04  1.886863E+05  1.431355E+04  8.266295E+03
       184   2  1.217525E+05  4.219349E+05  1.255604E+05  1.788206E+05  1.992134E+04 -3.273645E+04
       184   3  2.217790E+05  6.450729E+05  2.234433E+05  2.239212E+05  7.210556E+03 -7.377486E+04
       184   4 -2.120995E+02 -4.189271E+04  1.386645E+04  1.935062E+05  1.432839E+04 -1.331333E+04
       184   5  8.295354E+03 -4.728071E+04  2.725501E+04  1.660475E+05  1.991907E+04 -2.747736E+04
       184   6  5.152039E+04 -4.195605E+04  5.858082E+04  1.935518E+05  7.187179E+03 -4.166262E+04
       184   7 -6.150935E+04 -2.979145E+05 -3.650328E+04  1.983241E+05  1.434289E+04 -3.488425E+04
       184   8 -1.051752E+05 -5.162878E+05 -7.106243E+04  1.532842E+05  1.991658E+04 -2.222218E+04
       184   9 -1.187685E+05 -7.285488E+05 -1.063108E+05  1.632160E+05  7.160655E+03 -9.585732E+03
       184  10  6.108128E+04  2.141928E+05  6.423425E+04  1.886862E+05  2.901725E-09  5.710885E-09
       184  11  1.217517E+05  4.219336E+05  1.255576E+05  1.788211E+05  3.191583E-10  2.540153E-09
       184  12  2.217775E+05  6.450671E+05  2.234330E+05  2.239217E+05  1.191030E-09 -3.024481E-09
       184  13 -2.123677E+02 -4.189295E+04  1.386573E+04  1.935064E+05  2.417151E-11  2.670055E-09
       184  14  8.294725E+03 -4.728162E+04  2.725285E+04  1.660479E+05  5.493931E-09 -1.789120E-09
       184  15  5.151987E+04 -4.195793E+04  5.857746E+04  1.935520E+05 -2.113027E-09  2.826763E-09
       184  16 -6.150989E+04 -2.979159E+05 -3.650595E+04  1.983245E+05 -1.399601E-09 -6.225972E-09
       184  17 -1.051758E+05 -5.162885E+05 -7.106411E+04  1.532846E+05  8.092886E-09 -1.180968E-09
       184  18 -1.187685E+05 -7.285489E+05 -1.063110E+05  1.632161E+05  1.771284E-09  3.522912E-09
       184  19  6.108152E+04  2.141930E+05  6.423476E+04  1.886863E+05 -1.431355E+04 -8.266295E+03
       184  20  1.217525E+05  4.219349E+05  1.255604E+05  1.788206E+05 -1.992134E+04  3.273645E+04
       184  21  2.217790E+05  6.450729E+05  2.234433E+05  2.239212E+05 -7.210556E+03  7.377486E+04
       184  22 -2.120995E+02 -4.189271E+04  1.386645E+04  1.935062E+05 -1.432839E+04  1.331333E+04
       184  23  8.295354E+03 -4.728071E+04  2.725501E+04  1.660475E+05 -1.991907E+04  2.747736E+04
       184  24  5.152039E+04 -4.195605E+04  5.858082E+04  1.935518E+05 -7.187179E+03  4.166262E+04
       184  25 -6.150935E+04 -2.979145E+05 -3.650328E+04  1.983241E+05 -1.434289E+04  3.488425E+04
       184  26 -1.051752E+05 -5.162878E+05 -7.106243E+04  1.532842E+05 -1.991658E+04  2.222218E+04
       184  27 -1.187685E+05 -7.285488E+05 -1.063108E+05  1.632160E+05 -7.160655E+03  9.585732E+03
       185   1  7.107467E+05  2.560070E+05  1.521026E+05  2.603716E+05  6.353632E+04  1.960599E+04
       185   2  6.888588E+05  1.690451E+05  9.515269E+04  2.552990E+05  4.110334E+04  1.874652E+03
       185   3  6.871793E+05  1.500275E+05  7.400322E+04  2.419377E+05  1.581664E+04 -8.275229E+03
       185   4  4.638907E+05  1.346009E+05  8.086534E+04  1.636917E+05  5.306753E+04  1.565928E+04
       185   5  4.500417E+05  7.021233E+04  3.511544E+04  1.795460E+05  3.729158E+04  4.374513E+02
       185   6  4.550922E+05  7.246325E+04  1.990361E+04  1.871091E+05  1.866047E+04 -7.203744E+03
       185   7  2.171000E+05  1.321436E+04  9.623963E+03  6.705245E+04  4.260346E+04  1.171555E+04
       185   8  2.112823E+05 -2.861227E+04 -2.492595E+04  1.038211E+05  3.348142E+04 -9.989925E+02
       185   9  2.230566E+05 -5.100215E+03 -3.420007E+04  1.322976E+05  2.150316E+04 -6.132586E+03
       185  10  7.107422E+05  2.560055E+05  1.520943E+05  2.603706E+05 -4.111367E-10 -2.417851E-09
       185  11  6.888570E+05  1.690446E+05  9.514951E+04  2.552990E+05  2.273606E-09  1.515384E-09
       185  12  6.871790E+05  1.500273E+05  7.400262E+04  2.419379E+05  2.450774E-09 -2.094722E-09
       185  13  4.638876E+05  1.345999E+05  8.085960E+04  1.636911E+05  1.867907E-09 -4.157484E-10
       185  14  4.500402E+05  7.021196E+04  3.511283E+04  1.795460E+05 -7.423010E-09 -3.339159E-09
       185  15  4.550918E+05  7.246310E+04  1.990286E+04  1.871093E+05 -4.240819E-09  3.756257E-09
       185  16  2.170980E+05  1.321372E+04  9.620296E+03  6.705205E+04  2.575311E-09 -1.855405E-09
       185  17  2.112811E+05 -2.861257E+04 -2.492805E+04  1.038211E+05  2.824183E-09  1.237096E-09
       185  18  2.230561E+05 -5.100380E+03 -3.420101E+04  1.322978E+05 -3.368250E-11  2.200405E-09
       185  19  7.107467E+05  2.560070E+05  1.521026E+05  2.603716E+05 -6.353632E+04 -1.960599E+04
       185  20  6.888588E+05  1.690451E+05  9.515269E+04  2.552990E+05 -4.110334E+04 -1.874652E+03
       185  21  6.871793E+05  1.500275E+05  7.400322E+04  2.419377E+05 -1.581664E+04  8.275229E+03
       185  22  4.638907E+05  1.346009E+05  8.086534E+04  1.636917E+05 -5.306753E+04 -1.565928E+04
       185  23  4.500417E+05  7.021233E+04  3.511544E+04  1.795460E+05 -3.729158E+04 -4.374513E+02
       185  24  4.550922E+05  7.246325E+04  1.990361E+04  1.871091E+05 -1.866047E+04  7.203744E+03
       185  25  2.171000E+05  1.321436E+04  9.623963E+03  6.705245E+04 -4.260346E+04 -1.171555E+04
       185  26  2.112823E+05 -2.861227E+04 -2.492595E+04  1.038211E+05 -3.348142E+04  9.989925E+02
       185  27  2.230566E+05 -5.100215E+03 -3.420007E+04  1.322976E+05 -2.150316E+04  6.132586E+03
       186   1  6.597811E+05  1.569500E+05  6.599022E+04  2.418423E+05  1.501310E+04 -6.931905E+03
       186   2  6.418821E+05  1.416784E+05  5.319232E+04  2.327996E+05  1.029418E+04 -7.774043E+03
       186   3  6.195017E+05  1.366222E+05  4.468454E+04  2.303213E+05  5.448815E+03 -8.280997E+03
       186   4  4.525115E+05  7.843666E+04  1.575970E+04  1.834302E+05  1.558271E+04 -6.717580E+03
       186   5  4.545271E+05  7.155441E+04  8.106089E+03  1.808289E+05  1.115916E+04 -7.448244E+03
       186   6  4.520029E+05  7.482983E+04  4.509749E+03  1.847916E+05  6.609007E+03 -7.843745E+03
       186   7  2.452844E+05 -7.329031E+01 -3.447400E+04  1.250360E+05  1.615212E+04 -6.503337E+03
       186   8  2.672073E+05  1.433149E+03 -3.698257E+04  1.288725E+05  1.202386E+04 -7.122555E+03
       186   9  2.845327E+05  1.303961E+04 -3.566684E+04  1.392733E+05  7.768851E+03 -7.406621E+03
       186  10  6.597808E+05  1.569499E+05  6.598970E+04  2.418424E+05  1.386250E-08  4.574411E-09
       186  11  6.418820E+05  1.416783E+05  5.319200E+04  2.327997E+05  3.649050E-09 -3.395824E-09
       186  12  6.195016E+05  1.366222E+05  4.468435E+04  2.303213E+05 -1.156252E-08 -2.720754E-09
       186  13  4.525112E+05  7.843654E+04  1.575916E+04  1.834303E+05  1.391834E-09 -3.863146E-09
       186  14  4.545269E+05  7.155431E+04  8.105751E+03  1.808289E+05 -2.727607E-09  4.497499E-09
       186  15  4.520028E+05  7.482976E+04  4.509551E+03  1.847917E+05 -2.865668E-09  2.653131E-09
       186  16  2.452841E+05 -7.340577E+01 -3.447457E+04  1.250361E+05 -1.190609E-08 -5.286287E-09
       186  17  2.672071E+05  1.433056E+03 -3.698294E+04  1.288726E+05  1.855988E-09 -6.978801E-09
       186  18  2.845326E+05  1.303953E+04 -3.566705E+04  1.392733E+05  1.148775E-08  4.206477E-09
       186  19  6.597811E+05  1.569500E+05  6.599022E+04  2.418423E+05 -1.501310E+04  6.931905E+03
       186  20  6.418821E+05  1.416784E+05  5.319232E+04  2.327996E+05 -1.029418E+04  7.774043E+03
       186  21  6.195017E+05  1.366222E+05  4.468454E+04  2.303213E+05 -5.448815E+03  8.280997E+03
       186  22  4.525115E+05  7.843666E+04  1.575970E+04  1.834302E+05 -1.558271E+04  6.717580E+03
       186  23  4.545271E+05  7.155441E+04  8.106089E+03  1.808289E+05 -1.115916E+04  7.448244E+03
       186  24  4.520029E+05  7.482983E+04  4.509749E+03  1.847916E+05 -6.609007E+03  7.843745E+03
       186  25  2.452844E+05 -7.329031E+01 -3.447400E+04  1.250360E+05 -1.615212E+04  6.503337E+03
       186  26  2.672073E+05  1.433149E+03 -3.698257E+04  1.288725E+05 -1.202386E+04  7.122555E+03
       186  27  2.845327E+05  1.303961E+04 -3.566684E+04  1.392733E+05 -7.768851E+03  7.406621E+03
       187   1  6.016970E+05  1.309860E+05  3.936926E+04  2.258611E+05  4.633751E+03 -7.732457E+03
       187   2  5.843824E+05  1.199525E+05  3.296947E+04  2.166013E+05  3.227554E+03 -6.879351E+03
       187   3  5.608539E+05  1.155876E+05  2.733751E+04  2.146386E+05  1.816352E+03 -6.013602E+03
       187   4  4.517883E+05  7.515402E+04  3.433058E+03  1.845406E+05  5.690140E+03 -7.334267E+03
       187   5  4.548842E+05  7.172899E+04  1.876289E+03  1.809269E+05  4.295284E+03 -6.476777E+03
       187   6  4.517638E+05  7.497056E+04  1.078630E+03  1.846105E+05  2.895393E+03 -5.606653E+03
       187   7  3.019010E+05  1.932336E+04 -3.250499E+04  1.432289E+05  6.746257E+03 -6.936179E+03
       187   8  3.254022E+05  2.350653E+04 -2.921821E+04  1.452593E+05  5.362775E+03 -6.074292E+03
       187   9  3.426856E+05  3.435430E+04 -2.518112E+04  1.545872E+05  3.974227E+03 -5.199781E+03
       187  10  6.016969E+05  1.309859E+05  3.936911E+04  2.258611E+05  3.074872E-09  3.547416E-09
       187  11  5.843824E+05  1.199525E+05  3.296937E+04  2.166013E+05  3.696470E-09 -3.450232E-09
       187  12  5.608538E+05  1.155876E+05  2.733743E+04  2.146386E+05 -5.698651E-09  3.683443E-09
       187  13  4.517882E+05  7.515395E+04  3.432896E+03  1.845406E+05 -3.533094E-09  2.618056E-09
       187  14  4.548842E+05  7.172894E+04  1.876176E+03  1.809270E+05  9.650116E-09 -6.211774E-09
       187  15  4.517638E+05  7.497052E+04  1.078555E+03  1.846105E+05 -6.163145E-09 -1.971802E-09
       187  16  3.019010E+05  1.932330E+04 -3.250517E+04  1.432289E+05 -1.098714E-08 -3.475198E-09
       187  17  3.254021E+05  2.350648E+04 -2.921833E+04  1.452593E+05 -1.053056E-09  1.880828E-09
       187  18  3.426856E+05  3.435427E+04 -2.518120E+04  1.545872E+05  9.293564E-09  4.838457E-09
       187  19  6.016970E+05  1.309860E+05  3.936926E+04  2.258611E+05 -4.633751E+03  7.732457E+03
       187  20  5.843824E+05  1.199525E+05  3.296947E+04  2.166013E+05 -3.227554E+03  6.879351E+03
       187  21  5.608539E+05  1.155876E+05  2.733751E+04  2.146386E+05 -1.816352E+03  6.013602E+03
       187  22  4.517883E+05  7.515402E+04  3.433058E+03  1.845406E+05 -5.690140E+03  7.334267E+03
       187  23  4.548842E+05  7.172899E+04  1.876289E+03  1.809269E+05 -4.295284E+03  6.476777E+03
       187  24  4.517638E+05  7.497056E+04  1.078630E+03  1.846105E+05 -2.895393E+03  5.606653E+03
       187  25  3.019010E+05  1.932336E+04 -3.250499E+04  1.432289E+05 -6.746257E+03  6.936179E+03
       187  26  3.254022E+05  2.350653E+04 -2.921821E+04  1.452593E+05 -5.362775E+03  6.074292E+03
       187  27  3.426856E+05  3.435430E+04 -2.518112E+04  1.545872E+05 -3.974227E+03  5.199781E+03
       188   1  5.437711E+05  1.092512E+05  2.287246E+04  2.099559E+05  1.393826E+03 -5.356708E+03
       188   2  5.266118E+05  9.848203E+04  1.778123E+04  2.007107E+05  6.516175E+02 -4.239481E+03
       188   3  5.030951E+05  9.413420E+04  1.290291E+04  1.987520E+05 -9.044886E+01 -3.122940E+03
       188   4  4.517421E+05  7.497893E+04  8.452099E+02  1.845848E+05  2.466858E+03 -4.951975E+03
       188   5  4.549213E+05  7.176641E+04  5.650992E+02  1.809424E+05  1.724089E+03 -3.834903E+03
       188   6  4.517427E+05  7.497544E+04  4.983626E+02  1.845866E+05  9.814475E+02 -2.718517E+03
       188   7  3.597219E+05  4.070740E+04 -2.118252E+04  1.592172E+05  3.539712E+03 -4.547308E+03
       188   8  3.832358E+05  4.505115E+04 -1.665141E+04  1.611762E+05  2.796425E+03 -3.430376E+03
       188   9  4.003926E+05  5.581678E+04 -1.190645E+04  1.704221E+05  2.053253E+03 -2.314129E+03
       188  10  5.437711E+05  1.092512E+05  2.287240E+04  2.099559E+05  1.250314E-09  4.052697E-09
       188  11  5.266118E+05  9.848201E+04  1.778120E+04  2.007107E+05  4.082819E-09  4.470523E-09
       188  12  5.030951E+05  9.413419E+04  1.290290E+04  1.987520E+05 -1.842163E-10 -2.868514E-09
       188  13  4.517421E+05  7.497890E+04  8.451523E+02  1.845848E+05 -4.140908E-09  1.658450E-09
       188  14  4.549213E+05  7.176639E+04  5.650659E+02  1.809424E+05  2.560803E-09  4.403931E-09
       188  15  4.517427E+05  7.497544E+04  4.983469E+02  1.845866E+05  4.860583E-09 -6.002720E-09
       188  16  3.597219E+05  4.070738E+04 -2.118258E+04  1.592172E+05 -2.478511E-09  1.345796E-09
       188  17  3.832358E+05  4.505114E+04 -1.665144E+04  1.611762E+05  5.540299E-10  8.513925E-10
       188  18  4.003926E+05  5.581677E+04 -1.190647E+04  1.704221E+05  8.012208E-09  4.400083E-09
       188  19  5.437711E+05  1.092512E+05  2.287246E+04  2.099559E+05 -1.393826E+03  5.356708E+03
       188  20  5.266118E+05  9.848203E+04  1.778123E+04  2.007107E+05 -6.516175E+02  4.239481E+03
       188  21  5.030951E+05  9.413420E+04  1.290291E+04  1.987520E+05  9.044886E+01  3.122940E+03
       188  22  4.517421E+05  7.497893E+04  8.452099E+02  1.845848E+05 -2.466858E+03  4.951975E+03
       188  23  4.549213E+05  7.176641E+04  5.650992E+02  1.809424E+05 -1.724089E+03  3.834903E+03
       188  24  4.517427E+05  7.497544E+04  4.983626E+02  1.845866E+05 -9.814475E+02  2.718517E+03
       188  25  3.597219E+05  4.070740E+04 -2.118252E+04  1.592172E+05 -3.539712E+03  4.547308E+03
       188  26  3.832358E+05  4.505115E+04 -1.665141E+04  1.611762E+05 -2.796425E+03  3.430376E+03
       188  27  4.003926E+05  5.581678E+04 -1.190645E+04  1.704221E+05 -2.053253E+03  2.314129E+03
       189   1  4.861184E+05  8.778269E+04  8.715413E+03  1.940804E+05 -4.435664E+02 -2.443901E+03
       189   2  4.689871E+05  7.703707E+04  4.126955E+03  1.848509E+05 -1.273894E+03 -1.362349E+03
       189   3  4.455233E+05  7.270919E+04 -1.810879E+02  1.828953E+05 -2.103963E+03 -2.814449E+02
       189   4  4.517482E+05  7.497309E+04  5.301294E+02  1.845844E+05  6.275537E+02 -2.039748E+03
       189   5  4.549154E+05  7.176885E+04  7.433989E+02  1.809458E+05 -2.033633E+02 -9.584085E+02
       189   6  4.517497E+05  7.498237E+04  1.237529E+03  1.845809E+05 -1.034034E+03  1.222779E+02
       189   7  4.173792E+05  6.216357E+04 -7.655233E+03  1.750888E+05  1.698609E+03 -1.635620E+03
       189   8  4.408440E+05  6.650066E+04 -2.640156E+03  1.770408E+05  8.671377E+02 -5.544796E+02
       189   9  4.579761E+05  7.725554E+04  2.656139E+03  1.862666E+05  3.590014E+01  5.260029E+02
       189  10  4.861184E+05  8.778268E+04  8.715402E+03  1.940804E+05  7.222433E-09 -1.346639E-09
       189  11  4.689871E+05  7.703707E+04  4.126948E+03  1.848509E+05 -8.767553E-09  2.908490E-09
       189  12  4.455233E+05  7.270919E+04 -1.810964E+02  1.828953E+05 -1.178571E-08 -9.972285E-09
       189  13  4.517482E+05  7.497308E+04  5.301208E+02  1.845844E+05  1.854869E-09  4.943348E-10
       189  14  4.549154E+05  7.176885E+04  7.433971E+02  1.809458E+05 -4.002269E-09 -9.428923E-09
       189  15  4.517497E+05  7.498237E+04  1.237527E+03  1.845809E+05  5.538117E-09 -1.514179E-09
       189  16  4.173792E+05  6.216357E+04 -7.655243E+03  1.750888E+05  2.414847E-09 -3.110397E-09
       189  17  4.408440E+05  6.650065E+04 -2.640158E+03  1.770408E+05  1.178640E-08 -3.539170E-09
       189  18  4.579761E+05  7.725554E+04  2.656138E+03  1.862666E+05  1.455209E-08 -5.710197E-09
       189  19  4.861184E+05  8.778269E+04  8.715413E+03  1.940804E+05  4.435664E+02  2.443901E+03
       189  20  4.689871E+05  7.703707E+04  4.126955E+03  1.848509E+05  1.273894E+03  1.362349E+03
       189  21  4.455233E+05  7.270919E+04 -1.810879E+02  1.828953E+05  2.103963E+03  2.814449E+02
       189  22  4.517482E+05  7.497309E+04  5.301294E+02  1.845844E+05 -6.275537E+02  2.039748E+03
       189  23  4.549154E+05  7.176885E+04  7.433989E+02  1.809458E+05  2.033633E+02  9.584085E+02
       189  24  4.517497E+05  7.498237E+04  1.237529E+03  1.845809E+05  1.034034E+03 -1.222779E+02
       189  25  4.173792E+05  6.216357E+04 -7.655233E+03  1.750888E+05 -1.698609E+03  1.635620E+03
       189  26  4.408440E+05  6.650066E+04 -2.640156E+03  1.770408E+05 -8.671377E+02  5.544796E+02
       189  27  4.579761E+05  7.725554E+04  2.656139E+03  1.862666E+05 -3.590014E+01 -5.260029E+02
       190   1  4.285546E+05  6.637885E+04 -4.018388E+03  1.783003E+05 -2.611553E+03  3.398848E+02
       190   2  4.113325E+05  5.556837E+04 -7.561882E+03  1.689957E+05 -4.503319E+03  1.018732E+03
       190   3  3.880340E+05  5.151629E+04 -9.948218E+03  1.669348E+05 -6.391351E+03  1.688003E+03
       190   4  4.517930E+05  7.496132E+04  1.617469E+03  1.846108E+05 -1.538347E+03  7.448374E+02
       190   5  4.548507E+05  7.172684E+04  2.880439E+03  1.809339E+05 -3.438643E+03  1.420432E+03
       190   6  4.518335E+05  7.525254E+04  5.307378E+03  1.845005E+05 -5.335253E+03  2.086432E+03
       190   7  4.750322E+05  8.354387E+04  7.253324E+03  1.909216E+05 -4.650905E+02  1.149808E+03
       190   8  4.983709E+05  8.788549E+04  1.332266E+04  1.928728E+05 -2.373883E+03  1.822163E+03
       190   9  5.156370E+05  9.898909E+04  2.056269E+04  2.020678E+05 -4.279037E+03  2.484907E+03
       190  10  4.285546E+05  6.637885E+04 -4.018401E+03  1.783003E+05 -7.076831E-09 -1.351860E-08
       190  11  4.113325E+05  5.556837E+04 -7.561922E+03  1.689958E+05  4.163432E-09  8.143049E-09
       190  12  3.880339E+05  5.151628E+04 -9.948300E+03  1.669348E+05  1.997105E-08  4.616221E-09
       190  13  4.517930E+05  7.496132E+04  1.617464E+03  1.846108E+05  1.491186E-09 -7.383779E-09
       190  14  4.548507E+05  7.172684E+04  2.880413E+03  1.809339E+05 -1.154564E-09 -2.216849E-09
       190  15  4.518334E+05  7.525253E+04  5.307316E+03  1.845005E+05 -5.047903E-09  4.610267E-09
       190  16  4.750322E+05  8.354387E+04  7.253321E+03  1.909216E+05  8.231916E-09 -4.078798E-09
       190  17  4.983709E+05  8.788548E+04  1.332264E+04  1.928728E+05 -1.732277E-08 -4.492689E-09
       190  18  5.156370E+05  9.898907E+04  2.056264E+04  2.020678E+05 -2.588429E-08 -3.240273E-09
       190  19  4.285546E+05  6.637885E+04 -4.018388E+03  1.783003E+05  2.611553E+03 -3.398848E+02
       190  20  4.113325E+05  5.556837E+04 -7.561882E+03  1.689957E+05  4.503319E+03 -1.018732E+03
       190  21  3.880340E+05  5.151629E+04 -9.948218E+03  1.669348E+05  6.391351E+03 -1.688003E+03
       190  22  4.517930E+05  7.496132E+04  1.617469E+03  1.846108E+05  1.538347E+03 -7.448374E+02
       190  23  4.548507E+05  7.172684E+04  2.880439E+03  1.809339E+05  3.438643E+03 -1.420432E+03
       190  24  4.518335E+05  7.525254E+04  5.307378E+03  1.845005E+05  5.335253E+03 -2.086432E+03
       190  25  4.750322E+05  8.354387E+04  7.253324E+03  1.909216E+05  4.650905E+02 -1.149808E+03
       190  26  4.983709E+05  8.788549E+04  1.332266E+04  1.928728E+05  2.373883E+03 -1.822163E+03
       190  27  5.156370E+05  9.898909E+04  2.056269E+04  2.020678E+05  4.279037E+03 -2.484907E+03
       191   1  3.706819E+05  4.533698E+04 -1.248657E+04  1.634196E+05 -7.722789E+03  2.023964E+03
       191   2  3.535188E+05  3.341825E+04 -1.175442E+04  1.525004E+05 -1.433975E+04  8.647679E+02
       191   3  3.328734E+05  3.359991E+04 -4.894829E+03  1.476442E+05 -2.086986E+04 -5.236351E+02
       191   4  4.521754E+05  7.474272E+04  6.981055E+03  1.848812E+05 -6.596398E+03  2.448887E+03
       191   5  4.542933E+05  7.147309E+04  1.256544E+04  1.807927E+05 -1.341548E+04  1.213334E+03
       191   6  4.529680E+05  8.034294E+04  2.443652E+04  1.827668E+05 -2.014795E+04 -2.515291E+02
       191   7  5.336751E+05  1.041487E+05  2.644810E+04  2.063452E+05 -5.469851E+03  2.873865E+03
       191   8  5.550779E+05  1.095287E+05  3.688456E+04  2.090891E+05 -1.249104E+04  1.561964E+03
       191   9  5.730775E+05  1.270876E+05  5.376695E+04  2.178958E+05 -1.942589E+04  2.064149E+01
       191  10  3.706818E+05  4.533696E+04 -1.248669E+04  1.634196E+05  5.338773E-09  3.492126E-09
       191  11  3.535185E+05  3.341819E+04 -1.175481E+04  1.525004E+05 -8.938486E-09 -5.848446E-09
       191  12  3.328729E+05  3.359980E+04 -4.895648E+03  1.476442E+05 -2.066133E-08 -1.261542E-08
       191  13  4.521753E+05  7.474270E+04  6.980962E+03  1.848812E+05 -1.568307E-09  5.824628E-09
       191  14  4.542931E+05  7.147304E+04  1.256510E+04  1.807927E+05  4.024103E-10  4.962503E-09
       191  15  4.529676E+05  8.034283E+04  2.443576E+04  1.827668E+05 -3.493898E-09 -3.395491E-09
       191  16  5.336750E+05  1.041487E+05  2.644803E+04  2.063452E+05 -3.708347E-09  1.716592E-09
       191  17  5.550777E+05  1.095287E+05  3.688426E+04  2.090892E+05  1.181008E-08  7.996635E-09
       191  18  5.730771E+05  1.270875E+05  5.376624E+04  2.178958E+05  1.613069E-08  4.517703E-09
       191  19  3.706819E+05  4.533698E+04 -1.248657E+04  1.634196E+05  7.722789E+03 -2.023964E+03
       191  20  3.535188E+05  3.341825E+04 -1.175442E+04  1.525004E+05  1.433975E+04 -8.647679E+02
       191  21  3.328734E+05  3.359991E+04 -4.894829E+03  1.476442E+05  2.086986E+04  5.236351E+02
       191  22  4.521754E+05  7.474272E+04  6.981055E+03  1.848812E+05  6.596398E+03 -2.448887E+03
       191  23  4.542933E+05  7.147309E+04  1.256544E+04  1.807927E+05  1.341548E+04 -1.213334E+03
       191  24  4.529680E+05  8.034294E+04  2.443652E+04  1.827668E+05  2.014795E+04  2.515291E+02
       191  25  5.336751E+05  1.041487E+05  2.644810E+04  2.063452E+05  5.469851E+03 -2.873865E+03
       191  26  5.550779E+05  1.095287E+05  3.688456E+04  2.090891E+05  1.249104E+04 -1.561964E+03
       191  27  5.730775E+05  1.270876E+05  5.376695E+04  2.178958E+05  1.942589E+04 -2.064149E+01
       192   1  3.082067E+05  2.945203E+04 -2.423513E+03  1.616603E+05 -2.680536E+04 -1.386175E+03
       192   2  2.995306E+05 -9.494136E+02  1.562350E+04  1.225022E+05 -5.147514E+04 -1.067615E+04
       192   3  3.227252E+05  6.761888E+04  7.743091E+04  6.651592E+04 -7.419434E+04 -2.513652E+04
       192   4  4.569328E+05  7.111749E+04  3.086331E+04  1.885105E+05 -2.453239E+04 -5.283936E+02
       192   5  4.473897E+05  6.935968E+04  5.445961E+04  1.787562E+05 -5.374432E+04 -1.153349E+04
       192   6  4.706042E+05  1.674520E+05  1.254063E+05  1.521768E+05 -8.100587E+04 -2.771112E+04
       192   7  6.056814E+05  1.127828E+05  6.414900E+04  2.153655E+05 -2.225881E+04  3.294879E+02
       192   8  5.952700E+05  1.396740E+05  9.329362E+04  2.350233E+05 -5.601407E+04 -1.239118E+04
       192   9  6.185068E+05  2.673038E+05  1.733793E+05  2.378592E+05 -8.781902E+04 -3.028754E+04
       192  10  3.082059E+05  2.945184E+04 -2.424867E+03  1.616603E+05  8.849624E-09 -5.871366E-10
       192  11  2.995277E+05 -9.502467E+02  1.561831E+04  1.225018E+05  5.398499E-09  3.281422E-09
       192  12  3.227191E+05  6.761673E+04  7.741938E+04  6.651442E+04 -2.981422E-09 -4.297884E-09
       192  13  4.569321E+05  7.111732E+04  3.086218E+04  1.885105E+05 -7.256538E-09 -1.233676E-08
       192  14  4.473866E+05  6.935876E+04  5.445394E+04  1.787557E+05 -1.238468E-09  1.409890E-09
       192  15  4.705970E+05  1.674494E+05  1.253925E+05  1.521750E+05  2.290873E-09 -6.941653E-09
       192  16  6.056809E+05  1.127826E+05  6.414807E+04  2.153655E+05 -1.503897E-08 -6.684029E-09
       192  17  5.952666E+05  1.396730E+05  9.328744E+04  2.350228E+05 -5.488148E-09  4.746305E-10
       192  18  6.184983E+05  2.673008E+05  1.733631E+05  2.378571E+05  5.027196E-10 -1.341943E-10
       192  19  3.082067E+05  2.945203E+04 -2.423513E+03  1.616603E+05  2.680536E+04  1.386175E+03
       192  20  2.995306E+05 -9.494136E+02  1.562350E+04  1.225022E+05  5.147514E+04  1.067615E+04
       192  21  3.227252E+05  6.761888E+04  7.743091E+04  6.651592E+04  7.419434E+04  2.513652E+04
       192  22  4.569328E+05  7.111749E+04  3.086331E+04  1.885105E+05  2.453239E+04  5.283936E+02
       192  23  4.473897E+05  6.935968E+04  5.445961E+04  1.787562E+05  5.374432E+04  1.153349E+04
       192  24  4.706042E+05  1.674520E+05  1.254063E+05  1.521768E+05  8.100587E+04  2.771112E+04
       192  25  6.056814E+05  1.127828E+05  6.414900E+04  2.153655E+05  2.225881E+04 -3.294879E+02
       192  26  5.952700E+05  1.396740E+05  9.329362E+04  2.350233E+05  5.601407E+04  1.239118E+04
       192  27  6.185068E+05  2.673038E+05  1.733793E+05  2.378592E+05  8.781902E+04  3.028754E+04
       193   1 -7.258238E+04 -4.845367E+05 -7.466745E+04  7.656342E+04 -2.040900E+03 -1.559361E+04
       193   2 -2.900794E+04 -3.667373E+05 -3.581694E+04  4.585339E+04 -4.537025E+03 -5.406897E+03
       193   3 -7.040932E+02 -2.539239E+05 -7.394610E+03  6.820887E+04  6.125847E+01  4.789174E+03
       193   4 -1.392235E+04 -2.491850E+05 -1.689349E+04  7.020888E+04 -2.045490E+03 -1.067508E+04
       193   5  4.133936E+02 -2.471837E+05 -8.329922E+03  4.368326E+04 -4.536122E+03 -6.272696E+03
       193   6  4.856891E+02 -2.491756E+05 -6.173433E+03  7.022335E+04  6.716743E+01 -1.862934E+03
       193   7  4.473373E+04 -1.378267E+04  4.087651E+04  6.385193E+04 -2.050180E+03 -5.754691E+03
       193   8  2.983374E+04 -1.276168E+05  1.915615E+04  4.151272E+04 -4.535213E+03 -7.138661E+03
       193   9  1.675509E+03 -2.444272E+05 -4.952088E+03  7.223784E+04  7.303319E+01 -8.515094E+03
       193  10 -7.258245E+04 -4.845370E+05 -7.466791E+04  7.656340E+04  2.516315E-09  6.176606E-11
       193  11 -2.900797E+04 -3.667374E+05 -3.581703E+04  4.585337E+04 -3.503621E-09 -6.803858E-10
       193  12 -7.040994E+02 -2.539239E+05 -7.394653E+03  6.820887E+04 -1.601969E-09 -1.432438E-09
       193  13 -1.392238E+04 -2.491851E+05 -1.689371E+04  7.020886E+04 -3.410735E-09  2.198583E-09
       193  14  4.133609E+02 -2.471837E+05 -8.330035E+03  4.368324E+04  4.267727E-09  6.004084E-10
       193  15  4.856882E+02 -2.491756E+05 -6.173439E+03  7.022335E+04 -3.548086E-09 -4.113076E-10
       193  16  4.473371E+04 -1.378270E+04  4.087644E+04  6.385192E+04  3.427627E-10 -4.697243E-09
       193  17  2.983371E+04 -1.276169E+05  1.915602E+04  4.151269E+04  1.460332E-09  2.621638E-09
       193  18  1.675489E+03 -2.444273E+05 -4.952225E+03  7.223784E+04 -5.014669E-09  4.311835E-09
       193  19 -7.258238E+04 -4.845367E+05 -7.466745E+04  7.656342E+04  2.040900E+03  1.559361E+04
       193  20 -2.900794E+04 -3.667373E+05 -3.581694E+04  4.585339E+04  4.537025E+03  5.406897E+03
       193  21 -7.040932E+02 -2.539239E+05 -7.394610E+03  6.820887E+04 -6.125847E+01 -4.789174E+03
       193  22 -1.392235E+04 -2.491850E+05 -1.689349E+04  7.020888E+04  2.045490E+03  1.067508E+04
       193  23  4.133936E+02 -2.471837E+05 -8.329922E+03  4.368326E+04  4.536122E+03  6.272696E+03
       193  24  4.856891E+02 -2.491756E+05 -6.173433E+03  7.022335E+04 -6.716743E+01  1.862934E+03
       193  25  4.473373E+04 -1.378267E+04  4.087651E+04  6.385193E+04  2.050180E+03  5.754691E+03
       193  26  2.983374E+04 -1.276168E+05  1.915615E+04  4.151272E+04  4.535213E+03  7.138661E+03
       193  27  1.675509E+03 -2.444272E+05 -4.952088E+03  7.223784E+04 -7.303319E+01  8.515094E+03
       194   1  2.269855E+04 -1.522196E+05  1.585522E+04  7.086102E+04  4.446340E+03  3.875940E+03
       194   2  5.187689E+04 -3.651393E+04  4.159899E+04  4.336613E+04  1.001284E+04  6.494917E+03
       194   3  7.808473E+04  7.828815E+04  6.493020E+04  6.918370E+04  1.509810E+04  9.115511E+03
       194   4 -9.050064E+02 -2.485095E+05 -5.858364E+03  7.027452E+04  4.450632E+03 -8.640033E+02
       194   5  5.553851E+01 -2.480242E+05 -5.964038E+03  4.361707E+04  1.001741E+04  2.146497E+03
       194   6 -2.022166E+03 -2.485234E+05 -8.754272E+03  7.027336E+04  1.510285E+04  5.158142E+03
       194   7 -2.450919E+04 -3.447907E+05 -2.757246E+04  6.968811E+04  4.454932E+03 -5.603219E+03
       194   8 -5.176886E+04 -4.594928E+05 -5.352984E+04  4.386794E+04  1.002199E+04 -2.200457E+03
       194   9 -8.213637E+04 -5.752357E+05 -8.244551E+04  7.136247E+04  1.510758E+04  1.202836E+03
       194  10  2.269853E+04 -1.522196E+05  1.585515E+04  7.086101E+04 -4.452907E-09  3.781056E-09
       194  11  5.187677E+04 -3.651400E+04  4.159872E+04  4.336608E+04 -2.459852E-09 -3.766383E-09
       194  12  7.808446E+04  7.828800E+04  6.492961E+04  6.918359E+04 -1.983719E-09 -7.735169E-09
       194  13 -9.050279E+02 -2.485095E+05 -5.858403E+03  7.027452E+04 -4.302505E-09 -1.079272E-09
       194  14  5.542953E+01 -2.480242E+05 -5.964235E+03  4.361706E+04  3.255750E-09  1.254213E-09
       194  15 -2.022418E+03 -2.485235E+05 -8.754750E+03  7.027330E+04  2.674814E-09 -1.007637E-10
       194  16 -2.450922E+04 -3.447908E+05 -2.757255E+04  6.968813E+04 -2.175924E-09 -5.452829E-09
       194  17 -5.176897E+04 -4.594928E+05 -5.353004E+04  4.386795E+04  2.896529E-10  2.798712E-09
       194  18 -8.213662E+04 -5.752357E+05 -8.244594E+04  7.136245E+04  9.528584E-10  1.054836E-08
       194  19  2.269855E+04 -1.522196E+05  1.585522E+04  7.086102E+04 -4.446340E+03 -3.875940E+03
       194  20  5.187689E+04 -3.651393E+04  4.159899E+04  4.336613E+04 -1.001284E+04 -6.494917E+03
       194  21  7.808473E+04  7.828815E+04  6.493020E+04  6.918370E+04 -1.509810E+04 -9.115511E+03
       194  22 -9.050064E+02 -2.485095E+05 -5.858364E+03  7.027452E+04 -4.450632E+03  8.640033E+02
       194  23  5.553851E+01 -2.480242E+05 -5.964038E+03  4.361707E+04 -1.001741E+04 -2.146497E+03
       194  24 -2.022166E+03 -2.485234E+05 -8.754272E+03  7.027336E+04 -1.510285E+04 -5.158142E+03
       194  25 -2.450919E+04 -3.447907E+05 -2.757246E+04  6.968811E+04 -4.454932E+03  5.603219E+03
       194  26 -5.176886E+04 -4.594928E+05 -5.352984E+04  4.386794E+04 -1.002199E+04  2.200457E+03
       194  27 -8.213637E+04 -5.752357E+05 -8.244551E+04  7.136247E+04 -1.510758E+04 -1.202836E+03
       195   1  1.061360E+05  1.778112E+05  8.568067E+04  7.408361E+04  2.050842E+04  1.591800E+04
       195   2  1.339426E+05  2.959942E+05  1.066890E+05  3.884114E+04  2.295388E+04  1.033495E+04
       195   3  1.339839E+05  4.082970E+05  1.244570E+05  5.611050E+04  7.739312E+03  4.723885E+03
       195   4  1.326804E+03 -2.501886E+05 -1.041521E+04  7.010919E+04  2.051977E+04  6.715508E+03
       195   5  8.735099E+02 -2.460076E+05 -1.660678E+04  4.382873E+04  2.294829E+04  1.554320E+04
       195   6 -2.985951E+04 -2.502272E+05 -3.605151E+04  7.006418E+04  7.709740E+03  2.434353E+04
       195   7 -1.034948E+05 -6.780177E+05 -1.065224E+05  6.613758E+04  2.053124E+04 -2.480710E+03
       195   8 -1.322158E+05 -7.877367E+05 -1.399216E+05  4.881202E+04  2.294278E+04  2.074694E+04
       195   9 -1.937340E+05 -9.083547E+05 -1.965900E+05  8.400316E+04  7.681035E+03  4.394242E+04
       195  10  1.061355E+05  1.778108E+05  8.567940E+04  7.408335E+04  3.794682E-10  8.948858E-09
       195  11  1.339420E+05  2.959939E+05  1.066878E+05  3.884095E+04  2.594532E-09  4.014292E-09
       195  12  1.339838E+05  4.082969E+05  1.244569E+05  5.611047E+04  3.884784E-09  2.027230E-09
       195  13  1.326339E+03 -2.501888E+05 -1.041609E+04  7.010908E+04 -1.787564E-09  3.185669E-09
       195  14  8.728796E+02 -2.460080E+05 -1.660822E+04  4.382845E+04  2.117423E-09  1.626679E-09
       195  15 -2.985974E+04 -2.502278E+05 -3.605273E+04  7.006403E+04  4.178089E-10  3.412507E-10
       195  16 -1.034953E+05 -6.780178E+05 -1.065232E+05  6.613762E+04  3.085573E-09 -1.026933E-08
       195  17 -1.322165E+05 -7.877373E+05 -1.399233E+05  4.881163E+04 -2.117109E-10 -5.030691E-09
       195  18 -1.937346E+05 -9.083567E+05 -1.965938E+05  8.400288E+04  9.524284E-10  2.023023E-09
       195  19  1.061360E+05  1.778112E+05  8.568067E+04  7.408361E+04 -2.050842E+04 -1.591800E+04
       195  20  1.339426E+05  2.959942E+05  1.066890E+05  3.884114E+04 -2.295388E+04 -1.033495E+04
       195  21  1.339839E+05  4.082970E+05  1.244570E+05  5.611050E+04 -7.739312E+03 -4.723885E+03
       195  22  1.326804E+03 -2.501886E+05 -1.041521E+04  7.010919E+04 -2.051977E+04 -6.715508E+03
       195  23  8.735099E+02 -2.460076E+05 -1.660678E+04  4.382873E+04 -2.294829E+04 -1.554320E+04
       195  24 -2.985951E+04 -2.502272E+05 -3.605151E+04  7.006418E+04 -7.709740E+03 -2.434353E+04
       195  25 -1.034948E+05 -6.780177E+05 -1.065224E+05  6.613758E+04 -2.053124E+04  2.480710E+03
       195  26 -1.322158E+05 -7.877367E+05 -1.399216E+05  4.881202E+04 -2.294278E+04 -2.074694E+04
       195  27 -1.937340E+05 -9.083547E+05 -1.965900E+05  8.400316E+04 -7.681035E+03 -4.394242E+04
       196   1  1.951875E+05  1.252338E+05  1.133889E+05  2.965640E+04  2.222360E+04 -9.046273E+03
       196   2  1.452385E+05  1.343349E+05  9.649013E+04  3.641403E+04  5.753107E+03 -3.027520E+04
       196   3  9.351881E+04  1.276938E+05  8.639290E+04  5.347899E+04 -1.072655E+04 -3.611654E+04
       196   4 -4.536301E+05 -3.493484E+04 -3.877132E+04  5.114014E+04 -2.703174E+04 -9.088616E+03
       196   5 -4.504507E+05 -7.868263E+03 -1.885835E+04  4.596921E+04 -1.727716E+04 -3.029973E+04
       196   6 -4.536035E+05 -1.106816E+03 -1.036110E+04  5.110635E+04 -7.533336E+03 -3.611587E+04
       196   7 -1.102054E+06 -1.951303E+05 -1.909510E+05  7.260120E+04 -7.623593E+04 -9.134394E+03
       196   8 -1.045798E+06 -1.500919E+05 -1.342214E+05  5.551493E+04 -4.028582E+04 -3.032499E+04
       196   9 -1.000433E+06 -1.299239E+05 -1.071261E+05  4.873578E+04 -4.342852E+03 -3.611523E+04
       196  10  1.951870E+05  1.252335E+05  1.133879E+05  2.965656E+04 -5.638365E-09 -8.277224E-10
       196  11  1.452382E+05  1.343339E+05  9.648835E+04  3.641417E+04  5.535380E-09 -2.275907E-09
       196  12  9.351833E+04  1.276924E+05  8.639023E+04  5.347868E+04  1.757479E-08  1.737994E-09
       196  13 -4.536309E+05 -3.493512E+04 -3.877285E+04  5.113994E+04 -1.538383E-10 -9.331998E-10
       196  14 -4.504513E+05 -7.869329E+03 -1.886064E+04  4.596879E+04  5.992495E-10 -6.003008E-09
       196  15 -4.536039E+05 -1.108231E+03 -1.036366E+04  5.110613E+04  1.962918E-09 -5.783944E-09
       196  16 -1.102060E+06 -1.951320E+05 -1.909621E+05  7.260064E+04  5.894808E-09  3.585705E-11
       196  17 -1.045800E+06 -1.500934E+05 -1.342262E+05  5.551395E+04 -7.449577E-09 -3.093541E-09
       196  18 -1.000433E+06 -1.299253E+05 -1.071286E+05  4.873565E+04 -1.386728E-08 -2.687122E-10
       196  19  1.951875E+05  1.252338E+05  1.133889E+05  2.965640E+04 -2.222360E+04  9.046273E+03
       196  20  1.452385E+05  1.343349E+05  9.649013E+04  3.641403E+04 -5.753107E+03  3.027520E+04
       196  21  9.351881E+04  1.276938E+05  8.639290E+04  5.347899E+04  1.072655E+04  3.611654E+04
       196  22 -4.536301E+05 -3.493484E+04 -3.877132E+04  5.114014E+04  2.703174E+04  9.088616E+03
       196  23 -4.504507E+05 -7.868263E+03 -1.885835E+04  4.596921E+04  1.727716E+04  3.029973E+04
       196  24 -4.536035E+05 -1.106816E+03 -1.036110E+04  5.110635E+04  7.533336E+03  3.611587E+04
       196  25 -1.102054E+06 -1.951303E+05 -1.909510E+05  7.260120E+04  7.623593E+04  9.134394E+03
       196  26 -1.045798E+06 -1.500919E+05 -1.342214E+05  5.551493E+04  4.028582E+04  3.032499E+04
       196  27 -1.000433E+06 -1.299239E+05 -1.071261E+05  4.873578E+04  4.342852E+03  3.611523E+04
       197   1  6.103103E+04  1.191085E+05  8.197802E+04  5.111501E+04 -7.726140E+03 -3.471417E+04
       197   2  1.029588E+04  1.080765E+05  7.454407E+04  4.589059E+04 -7.942105E+03 -3.311461E+04
       197   3 -4.058099E+04  9.639564E+04  6.708703E+04  5.199913E+04 -8.160572E+03 -3.011722E+04
       197   4 -4.523140E+05 -1.552346E+03 -7.883550E+03  5.133847E+04 -6.187135E+03 -3.471498E+04
       197   5 -4.520272E+05 -1.861669E+02 -4.338533E+03  4.567066E+04 -4.022442E+03 -3.311209E+04
       197   6 -4.522977E+05  1.175673E+02 -2.470698E+03  5.133637E+04 -1.860228E+03 -3.011083E+04
       197   7 -9.654009E+05 -1.222275E+05 -9.775455E+04  5.156166E+04 -4.649362E+03 -3.471579E+04
       197   8 -9.141399E+05 -1.084602E+05 -8.322815E+04  4.545084E+04 -1.056049E+02 -3.310957E+04
       197   9 -8.638472E+05 -9.616942E+04 -7.203370E+04  5.067401E+04  4.436074E+03 -3.010446E+04
       197  10  6.103065E+04  1.191072E+05  8.197565E+04  5.111479E+04  6.812441E-09  2.874192E-09
       197  11  1.029552E+04  1.080753E+05  7.454189E+04  4.589037E+04  9.447833E-10  4.852168E-09
       197  12 -4.058130E+04  9.639465E+04  6.708520E+04  5.199893E+04 -1.249191E-08  2.926613E-09
       197  13 -4.523144E+05 -1.553650E+03 -7.885886E+03  5.133829E+04  1.598886E-11 -5.415204E-09
       197  14 -4.520275E+05 -1.873484E+02 -4.340623E+03  4.567056E+04  1.553283E-09 -5.877229E-11
       197  15 -4.522979E+05  1.165930E+02 -2.472408E+03  5.133632E+04  2.121245E-09  4.887603E-11
       197  16 -9.654013E+05 -1.222288E+05 -9.775686E+04  5.156153E+04 -7.955346E-09  4.408346E-09
       197  17 -9.141402E+05 -1.084614E+05 -8.323020E+04  4.545084E+04  8.983184E-10  5.725029E-09
       197  18 -8.638475E+05 -9.617040E+04 -7.203544E+04  5.067411E+04  1.641276E-08  2.978997E-09
       197  19  6.103103E+04  1.191085E+05  8.197802E+04  5.111501E+04  7.726140E+03  3.471417E+04
       197  20  1.029588E+04  1.080765E+05  7.454407E+04  4.589059E+04  7.942105E+03  3.311461E+04
       197  21 -4.058099E+04  9.639564E+04  6.708703E+04  5.199913E+04  8.160572E+03  3.011722E+04
       197  22 -4.523140E+05 -1.552346E+03 -7.883550E+03  5.133847E+04  6.187135E+03  3.471498E+04
       197  23 -4.520272E+05 -1.861669E+02 -4.338533E+03  4.567066E+04  4.022442E+03  3.311209E+04
       197  24 -4.522977E+05  1.175673E+02 -2.470698E+03  5.133637E+04  1.860228E+03  3.011083E+04
       197  25 -9.654009E+05 -1.222275E+05 -9.775455E+04  5.156166E+04  4.649362E+03  3.471579E+04
       197  26 -9.141399E+05 -1.084602E+05 -8.322815E+04  4.545084E+04  1.056049E+02  3.310957E+04
       197  27 -8.638472E+05 -9.616942E+04 -7.203370E+04  5.067401E+04 -4.436074E+03  3.010446E+04
       198   1 -7.360794E+04  8.856588E+04  6.181516E+04  5.183567E+04 -7.636142E+03 -2.793638E+04
       198   2 -1.244537E+05  7.670040E+04  5.396887E+04  4.605521E+04 -7.326566E+03 -2.426106E+04
       198   3 -1.753604E+05  6.484799E+04  4.591703E+04  5.171552E+04 -7.018070E+03 -2.045736E+04
       198   4 -4.521913E+05  8.817176E+01 -1.877712E+03  5.136059E+04 -1.483220E+03 -2.792967E+04
       198   5 -4.521350E+05  1.339640E+02 -1.074558E+03  4.563998E+04 -9.554380E+02 -2.425332E+04
       198   6 -4.521801E+05  1.549795E+02 -6.287818E+02  5.136049E+04 -4.287099E+02 -2.044856E+04
       198   7 -8.306332E+05 -8.839704E+04 -6.557496E+04  5.088575E+04  4.666071E+03 -2.792297E+04
       198   8 -7.797102E+05 -7.643808E+04 -5.612120E+04  4.522494E+04  5.412437E+03 -2.424559E+04
       198   9 -7.289241E+05 -6.454203E+04 -4.717685E+04  5.100560E+04  6.157807E+03 -2.043977E+04
       198  10 -7.360821E+04  8.856502E+04  6.181358E+04  5.183550E+04  3.758341E-09  2.893294E-09
       198  11 -1.244539E+05  7.669975E+04  5.396766E+04  4.605507E+04  2.127462E-09  1.970634E-09
       198  12 -1.753605E+05  6.484752E+04  4.591615E+04  5.171540E+04  8.743882E-09 -3.153673E-10
       198  13 -4.521915E+05  8.733369E+01 -1.879182E+03  5.136055E+04  2.475615E-09 -7.055769E-10
       198  14 -4.521351E+05  1.333323E+02 -1.075665E+03  4.563996E+04  1.442815E-09  2.375242E-09
       198  15 -4.521802E+05  1.545306E+02 -6.295678E+02  5.136049E+04  5.890361E-09  3.646066E-09
       198  16 -8.306335E+05 -8.839788E+04 -6.557647E+04  5.088586E+04 -1.550484E-09  2.433064E-09
       198  17 -7.797104E+05 -7.643872E+04 -5.612236E+04  4.522504E+04 -1.620225E-09  3.133240E-09
       198  18 -7.289243E+05 -6.454249E+04 -4.717770E+04  5.100571E+04 -6.131529E-09  1.609607E-09
       198  19 -7.360794E+04  8.856588E+04  6.181516E+04  5.183567E+04  7.636142E+03  2.793638E+04
       198  20 -1.244537E+05  7.670040E+04  5.396887E+04  4.605521E+04  7.326566E+03  2.426106E+04
       198  21 -1.753604E+05  6.484799E+04  4.591703E+04  5.171552E+04  7.018070E+03  2.045736E+04
       198  22 -4.521913E+05  8.817176E+01 -1.877712E+03  5.136059E+04  1.483220E+03  2.792967E+04
       198  23 -4.521350E+05  1.339640E+02 -1.074558E+03  4.563998E+04  9.554380E+02  2.425332E+04
       198  24 -4.521801E+05  1.549795E+02 -6.287818E+02  5.136049E+04  4.287099E+02  2.044856E+04
       198  25 -8.306332E+05 -8.839704E+04 -6.557496E+04  5.088575E+04 -4.666071E+03  2.792297E+04
       198  26 -7.797102E+05 -7.643808E+04 -5.612120E+04  4.522494E+04 -5.412437E+03  2.424559E+04
       198  27 -7.289241E+05 -6.454203E+04 -4.717685E+04  5.100560E+04 -6.157807E+03  2.043977E+04
       199   1 -2.084564E+05  5.706841E+04  4.027869E+04  5.167201E+04 -6.908612E+03 -1.820333E+04
       199   2 -2.593626E+05  4.517815E+04  3.201005E+04  4.587381E+04 -6.780623E+03 -1.433612E+04
       199   3 -3.103109E+05  3.332260E+04  2.365634E+04  5.153643E+04 -6.653197E+03 -1.045693E+04
       199   4 -4.521651E+05  1.547892E+02 -4.882630E+02  5.136494E+04 -3.308644E+02 -1.819420E+04
       199   5 -4.521373E+05  1.433235E+02 -3.103541E+02  4.563442E+04 -1.828295E+02 -1.432651E+04
       199   6 -4.521585E+05  1.629623E+02 -2.318049E+02  5.136493E+04 -3.534853E+01 -1.044684E+04
       199   7 -6.958150E+05 -5.676191E+04 -4.125690E+04  5.105796E+04  6.244385E+03 -1.818506E+04
       199   8 -6.448752E+05 -4.489343E+04 -3.263176E+04  4.539509E+04  6.412982E+03 -1.431689E+04
       199   9 -5.939862E+05 -3.299771E+04 -2.412043E+04  5.119346E+04  6.581037E+03 -1.043674E+04
       199  10 -2.084565E+05  5.706804E+04  4.027798E+04  5.167191E+04  3.311216E-08 -7.048697E-10
       199  11 -2.593627E+05  4.517792E+04  3.200958E+04  4.587374E+04 -2.351988E-10  3.828250E-09
       199  12 -3.103110E+05  3.332247E+04  2.365606E+04  5.153637E+04 -3.291793E-08  3.523368E-09
       199  13 -4.521652E+05  1.544338E+02 -4.888852E+02  5.136493E+04  4.338932E-09  7.151689E-10
       199  14 -4.521374E+05  1.431032E+02 -3.107397E+02  4.563442E+04  2.146560E-09  4.091954E-09
       199  15 -4.521585E+05  1.628451E+02 -2.320099E+02  5.136493E+04  4.043125E-09  1.716625E-09
       199  16 -6.958151E+05 -5.676228E+04 -4.125759E+04  5.105805E+04 -3.204086E-08  1.217537E-09
       199  17 -6.448753E+05 -4.489366E+04 -3.263222E+04  4.539517E+04  2.696062E-09  1.911268E-09
       199  18 -5.939862E+05 -3.299784E+04 -2.412071E+04  5.119352E+04  3.457202E-08  1.195506E-09
       199  19 -2.084564E+05  5.706841E+04  4.027869E+04  5.167201E+04  6.908612E+03  1.820333E+04
       199  20 -2.593626E+05  4.517815E+04  3.201005E+04  4.587381E+04  6.780623E+03  1.433612E+04
       199  21 -3.103109E+05  3.332260E+04  2.365634E+04  5.153643E+04  6.653197E+03  1.045693E+04
       199  22 -4.521651E+05  1.547892E+02 -4.882630E+02  5.136494E+04  3.308644E+02  1.819420E+04
       199  23 -4.521373E+05  1.433235E+02 -3.103541E+02  4.563442E+04  1.828295E+02  1.432651E+04
       199  24 -4.521585E+05  1.629623E+02 -2.318049E+02  5.136493E+04  3.534853E+01  1.044684E+04
       199  25 -6.958150E+05 -5.676191E+04 -4.125690E+04  5.105796E+04 -6.244385E+03  1.818506E+04
       199  26 -6.448752E+05 -4.489343E+04 -3.263176E+04  4.539509E+04 -6.412982E+03  1.431689E+04
       199  27 -5.939862E+05 -3.299771E+04 -2.412043E+04  5.119346E+04 -6.581037E+03  1.043674E+04
       200   1 -3.434391E+05  2.554090E+04  1.789106E+04  5.149561E+04 -6.615851E+03 -8.194922E+03
       200   2 -3.943640E+05  1.364708E+04  9.425591E+03  4.568914E+04 -6.487656E+03 -4.311994E+03
       200   3 -4.453388E+05  1.783698E+03  8.718522E+02  5.135127E+04 -6.359622E+03 -4.348669E+02
       200   4 -4.521571E+05  1.648548E+02 -2.211096E+02  5.136663E+04  2.376372E+00 -8.184650E+03
       200   5 -4.521312E+05  1.527176E+02 -2.509749E+02  4.563229E+04  1.204688E+02 -4.301604E+03
       200   6 -4.521552E+05  1.730534E+02 -3.619665E+02  5.136662E+04  2.384109E+02 -4.243574E+02
       200   7 -5.608634E+05 -2.521178E+04 -1.833348E+04  5.123767E+04  6.619483E+03 -8.174380E+03
       200   8 -5.098949E+05 -1.334180E+04 -9.927480E+03  4.557545E+04  6.727999E+03 -4.291215E+03
       200   9 -4.589714E+05 -1.437570E+03 -1.595623E+03  5.138197E+04  6.836373E+03 -4.138476E+02
       200  10 -3.434392E+05  2.554081E+04  1.789086E+04  5.149556E+04  3.010217E-09  1.173622E-09
       200  11 -3.943640E+05  1.364705E+04  9.425477E+03  4.568912E+04 -1.773802E-10  4.964439E-12
       200  12 -4.453389E+05  1.783687E+03  8.717758E+02  5.135127E+04 -3.171624E-09  3.420622E-10
       200  13 -4.521571E+05  1.647829E+02 -2.212355E+02  5.136663E+04 -3.312053E-10  4.762765E-09
       200  14 -4.521312E+05  1.526978E+02 -2.510097E+02  4.563229E+04 -5.280974E-09  6.575250E-10
       200  15 -4.521552E+05  1.730532E+02 -3.619669E+02  5.136662E+04  3.797434E-09 -5.320512E-10
       200  16 -5.608634E+05 -2.521186E+04 -1.833369E+04  5.123771E+04 -4.309395E-09  2.436165E-09
       200  17 -5.098950E+05 -1.334183E+04 -9.927600E+03  4.557548E+04 -3.196370E-10 -3.391009E-10
       200  18 -4.589715E+05 -1.437583E+03 -1.595712E+03  5.138197E+04  8.197620E-09  4.291837E-12
       200  19 -3.434391E+05  2.554090E+04  1.789106E+04  5.149561E+04  6.615851E+03  8.194922E+03
       200  20 -3.943640E+05  1.364708E+04  9.425591E+03  4.568914E+04  6.487656E+03  4.311994E+03
       200  21 -4.453388E+05  1.783698E+03  8.718522E+02  5.135127E+04  6.359622E+03  4.348669E+02
       200  22 -4.521571E+05  1.648548E+02 -2.211096E+02  5.136663E+04 -2.376372E+00  8.184650E+03
       200  23 -4.521312E+05  1.527176E+02 -2.509749E+02  4.563229E+04 -1.204688E+02  4.301604E+03
       200  24 -4.521552E+05  1.730534E+02 -3.619665E+02  5.136662E+04 -2.384109E+02  4.243574E+02
       200  25 -5.608634E+05 -2.521178E+04 -1.833348E+04  5.123767E+04 -6.619483E+03  8.174380E+03
       200  26 -5.098949E+05 -1.334180E+04 -9.927480E+03  4.557545E+04 -6.727999E+03  4.291215E+03
       200  27 -4.589714E+05 -1.437570E+03 -1.595623E+03  5.138197E+04 -6.836373E+03  4.138476E+02
       201   1 -4.784838E+05 -6.000336E+03 -5.004550E+03  5.129835E+04 -6.297393E+03  1.824506E+03
       201   2 -5.293713E+05 -1.790360E+04 -1.379208E+04  4.549173E+04 -5.790463E+03  5.664884E+03
       201   3 -5.803721E+05 -2.983653E+04 -2.292944E+04  5.114813E+04 -5.283246E+03  9.425910E+03
       201   4 -4.521647E+05  1.760921E+02 -4.564901E+02  5.136533E+04  3.087755E+02  1.835015E+03
       201   5 -4.521199E+05  1.615709E+02 -7.629111E+02  4.563390E+04  6.803679E+02  5.675000E+03
       201   6 -4.521674E+05  1.410047E+02 -1.325183E+03  5.136539E+04  1.052286E+03  9.435639E+03
       201   7 -4.258448E+05  6.352506E+03  4.091710E+03  5.143231E+04  6.915216E+03  1.845525E+03
       201   8 -3.748626E+05  1.822645E+04  1.226622E+04  4.577608E+04  7.151978E+03  5.685117E+03
       201   9 -3.239465E+05  3.011770E+04  2.027870E+04  5.158269E+04  7.389085E+03  9.445373E+03
       201  10 -4.784838E+05 -6.000350E+03 -5.004631E+03  5.129836E+04 -1.626314E-09  3.628184E-09
       201  11 -5.293714E+05 -1.790365E+04 -1.379220E+04  4.549176E+04  3.988438E-10  1.549690E-09
       201  12 -5.803721E+05 -2.983664E+04 -2.292966E+04  5.114817E+04  1.063233E-09 -5.096097E-10
       201  13 -4.521647E+05  1.760884E+02 -4.564966E+02  5.136533E+04  2.160247E-09  1.172464E-09
       201  14 -4.521199E+05  1.615362E+02 -7.629725E+02  4.563389E+04  2.769857E-10 -4.856934E-10
       201  15 -4.521675E+05  1.409089E+02 -1.325353E+03  5.136538E+04  7.414713E-10 -7.288789E-10
       201  16 -4.258449E+05  6.352490E+03  4.091614E+03  5.143230E+04  4.510233E-09  2.444011E-09
       201  17 -3.748626E+05  1.822641E+04  1.226606E+04  4.577604E+04  1.796158E-09 -5.531797E-09
       201  18 -3.239465E+05  3.011759E+04  2.027843E+04  5.158263E+04  1.128549E-09 -2.667229E-09
       201  19 -4.784838E+05 -6.000336E+03 -5.004550E+03  5.129835E+04  6.297393E+03 -1.824506E+03
       201  20 -5.293713E+05 -1.790360E+04 -1.379208E+04  4.549173E+04  5.790463E+03 -5.664884E+03
       201  21 -5.803721E+05 -2.983653E+04 -2.292944E+04  5.114813E+04  5.283246E+03 -9.425910E+03
       201  22 -4.521647E+05  1.760921E+02 -4.564901E+02  5.136533E+04 -3.087755E+02 -1.835015E+03
       201  23 -4.521199E+05  1.615709E+02 -7.629111E+02  4.563390E+04 -6.803679E+02 -5.675000E+03
       201  24 -4.521674E+05  1.410047E+02 -1.325183E+03  5.136539E+04 -1.052286E+03 -9.435639E+03
       201  25 -4.258448E+05  6.352506E+03  4.091710E+03  5.143231E+04 -6.915216E+03 -1.845525E+03
       201  26 -3.748626E+05  1.822645E+04  1.226622E+04  4.577608E+04 -7.151978E+03 -5.685117E+03
       201  27 -3.239465E+05  3.011770E+04  2.027870E+04  5.158269E+04 -7.389085E+03 -9.445373E+03
       202   1 -6.136063E+05 -3.761839E+04 -2.918469E+04  5.097927E+04 -5.111571E+03  1.164097E+04
       202   2 -6.641859E+05 -4.979754E+04 -3.949769E+04  4.555178E+04 -2.107534E+03  1.498444E+04
       202   3 -7.154386E+05 -6.297114E+04 -5.202663E+04  5.152502E+04  8.979240E+02  1.745528E+04
       202   4 -4.522417E+05  1.639871E+02 -1.741550E+03  5.135125E+04  1.316468E+03  1.165065E+04
       202   5 -4.520365E+05 -5.148912E+01 -3.052982E+03  4.565188E+04  2.835050E+03  1.499142E+04
       202   6 -4.522494E+05 -1.003206E+03 -5.547944E+03  5.135302E+04  4.355313E+03  1.745971E+04
       202   7 -2.908513E+05  3.794501E+04  2.570089E+04  5.172332E+04  7.746124E+03  1.166033E+04
       202   8 -2.398428E+05  4.969217E+04  3.339029E+04  4.575200E+04  7.779271E+03  1.499840E+04
       202   9 -1.889924E+05  6.096094E+04  4.092824E+04  5.118092E+04  7.814125E+03  1.746414E+04
       202  10 -6.136064E+05 -3.761854E+04 -2.918499E+04  5.097931E+04 -3.514412E-08  2.010409E-09
       202  11 -6.641860E+05 -4.979778E+04 -3.949812E+04  4.555180E+04 -2.326646E-10  8.368955E-10
       202  12 -7.154387E+05 -6.297147E+04 -5.202720E+04  5.152501E+04  3.511043E-08  1.100172E-09
       202  13 -4.522417E+05  1.638409E+02 -1.741808E+03  5.135124E+04 -8.349570E-12 -2.283704E-10
       202  14 -4.520366E+05 -5.173255E+01 -3.053419E+03  4.565184E+04 -4.017938E-09  9.455962E-10
       202  15 -4.522495E+05 -1.003538E+03 -5.548552E+03  5.135296E+04  3.175979E-09 -1.697604E-09
       202  16 -2.908514E+05  3.794484E+04  2.570052E+04  5.172325E+04  3.170548E-08 -4.472918E-10
       202  17 -2.398430E+05  4.969191E+04  3.338976E+04  4.575190E+04  2.206437E-09  1.046150E-10
       202  18 -1.889925E+05  6.096059E+04  4.092755E+04  5.118081E+04 -3.510442E-08 -4.648153E-09
       202  19 -6.136063E+05 -3.761839E+04 -2.918469E+04  5.097927E+04  5.111571E+03 -1.164097E+04
       202  20 -6.641859E+05 -4.979754E+04 -3.949769E+04  4.555178E+04  2.107534E+03 -1.498444E+04
       202  21 -7.154386E+05 -6.297114E+04 -5.202663E+04  5.152502E+04 -8.979240E+02 -1.745528E+04
       202  22 -4.522417E+05  1.639871E+02 -1.741550E+03  5.135125E+04 -1.316468E+03 -1.165065E+04
       202  23 -4.520365E+05 -5.148912E+01 -3.052982E+03  4.565188E+04 -2.835050E+03 -1.499142E+04
       202  24 -4.522494E+05 -1.003206E+03 -5.547944E+03  5.135302E+04 -4.355313E+03 -1.745971E+04
       202  25 -2.908513E+05  3.794501E+04  2.570089E+04  5.172332E+04 -7.746124E+03 -1.166033E+04
       202  26 -2.398428E+05  4.969217E+04  3.339029E+04  4.575200E+04 -7.779271E+03 -1.499840E+04
       202  27 -1.889924E+05  6.096094E+04  4.092824E+04  5.118092E+04 -7.814125E+03 -1.746414E+04
       203   1 -7.499102E+05 -7.067735E+04 -6.025283E+04  4.952704E+04  8.116375E+02  1.918300E+04
       203   2 -7.971977E+05 -8.828667E+04 -8.102198E+04  5.250915E+04  2.402439E+04  1.704593E+04
       203   3 -8.518170E+05 -1.230314E+05 -1.212025E+05  6.625955E+04  4.724668E+04  5.296294E+03
       203   4 -4.531568E+05 -6.879646E+02 -7.291375E+03  5.120826E+04  5.301098E+03  1.918867E+04
       203   5 -4.509216E+05 -5.453273E+03 -1.326868E+04  4.584030E+04  1.215345E+04  1.702856E+04
       203   6 -4.531735E+05 -2.450619E+04 -2.728389E+04  5.124107E+04  1.901739E+04  5.257705E+03
       203   7 -1.563174E+05  6.929656E+04  4.566682E+04  5.289027E+04  9.792645E+03  1.919436E+04
       203   8 -1.045300E+05  7.737315E+04  5.447941E+04  3.916761E+04  2.760323E+02  1.701144E+04
       203   9 -5.438132E+04  7.400899E+04  6.662693E+04  3.621282E+04 -9.229937E+03  5.220498E+03
       203  10 -7.499103E+05 -7.067775E+04 -6.025353E+04  4.952703E+04 -5.731693E-09  1.407798E-09
       203  11 -7.971984E+05 -8.828714E+04 -8.102361E+04  5.250882E+04 -1.139055E-09  8.757192E-10
       203  12 -8.518195E+05 -1.230321E+05 -1.212068E+05  6.625935E+04  3.732588E-09 -1.875748E-10
       203  13 -4.531570E+05 -6.883674E+02 -7.292120E+03  5.120818E+04 -3.532849E-10  2.042377E-09
       203  14 -4.509219E+05 -5.453624E+03 -1.326951E+04  4.584013E+04 -1.450249E-09 -8.741894E-10
       203  15 -4.531739E+05 -2.450632E+04 -2.728462E+04  5.124099E+04  8.559253E-10  1.722210E-09
       203  16 -1.563176E+05  6.929614E+04  4.566595E+04  5.289012E+04  3.235863E-09 -1.832005E-10
       203  17 -1.045301E+05  7.737284E+04  5.447886E+04  3.916760E+04  2.832776E-09  2.412887E-09
       203  18 -5.438142E+04  7.400894E+04  6.662672E+04  3.621286E+04 -4.787619E-09  1.093325E-09
       203  19 -7.499102E+05 -7.067735E+04 -6.025283E+04  4.952704E+04 -8.116375E+02 -1.918300E+04
       203  20 -7.971977E+05 -8.828667E+04 -8.102198E+04  5.250915E+04 -2.402439E+04 -1.704593E+04
       203  21 -8.518170E+05 -1.230314E+05 -1.212025E+05  6.625955E+04 -4.724668E+04 -5.296294E+03
       203  22 -4.531568E+05 -6.879646E+02 -7.291375E+03  5.120826E+04 -5.301098E+03 -1.918867E+04
       203  23 -4.509216E+05 -5.453273E+03 -1.326868E+04  4.584030E+04 -1.215345E+04 -1.702856E+04
       203  24 -4.531735E+05 -2.450619E+04 -2.728389E+04  5.124107E+04 -1.901739E+04 -5.257705E+03
       203  25 -1.563174E+05  6.929656E+04  4.566682E+04  5.289027E+04 -9.792645E+03 -1.919436E+04
       203  26 -1.045300E+05  7.737315E+04  5.447941E+04  3.916761E+04 -2.760323E+02 -1.701144E+04
       203  27 -5.438132E+04  7.400899E+04  6.662693E+04  3.621282E+04  9.229937E+03 -5.220498E+03
       204   1 -7.462166E+04  7.817553E+04  6.766836E+04  4.680225E+03 -1.285002E+04 -6.239795E+03
       204   2 -1.062665E+05  1.050001E+05  7.488755E+04  9.554106E+03 -1.329998E+04 -1.973878E+04
       204   3 -1.462289E+05  9.824874E+04  7.402195E+04  2.831063E+04 -1.376538E+04 -2.101213E+04
       204   4 -5.418169E+05 -3.784631E+04 -4.536478E+04  2.250315E+04 -3.118836E+04 -6.264220E+03
       204   5 -5.366511E+05 -2.072308E+02 -2.072481E+04  1.553355E+04 -2.020199E+04 -1.974977E+04
       204   6 -5.417976E+05  1.856346E+03 -1.212080E+04  2.244751E+04 -9.230874E+03 -2.100586E+04
       204   7 -1.008811E+06 -1.538827E+05 -1.584122E+05  4.031254E+04 -4.951294E+04 -6.289708E+03
       204   8 -9.668626E+05 -1.054270E+05 -1.163485E+05  2.150874E+04 -2.709927E+04 -1.976089E+04
       204   9 -9.372194E+05 -9.454632E+04 -9.827286E+04  1.658813E+04 -4.699217E+03 -2.099967E+04
       204  10 -7.462185E+04  7.817544E+04  6.766797E+04  4.680161E+03 -4.321521E-09  1.263055E-09
       204  11 -1.062667E+05  1.049997E+05  7.488648E+04  9.553895E+03  8.202680E-11  5.820514E-09
       204  12 -1.462292E+05  9.824822E+04  7.402076E+04  2.831039E+04  6.027208E-09  4.237972E-10
       204  13 -5.418180E+05 -3.784661E+04 -4.536668E+04  2.250299E+04 -1.818718E-09 -2.149011E-09
       204  14 -5.366516E+05 -2.077592E+02 -2.072631E+04  1.553323E+04 -2.969468E-09 -4.466934E-09
       204  15 -5.417978E+05  1.855850E+03 -1.212179E+04  2.244736E+04 -2.070140E-09 -3.966136E-11
       204  16 -1.008814E+06 -1.538834E+05 -1.584168E+05  4.031229E+04  3.868900E-09 -1.812161E-10
       204  17 -9.668635E+05 -1.054276E+05 -1.163506E+05  2.150831E+04 -2.535484E-09  3.587954E-09
       204  18 -9.372195E+05 -9.454680E+04 -9.827373E+04  1.658805E+04 -1.736057E-09 -7.952105E-10
       204  19 -7.462166E+04  7.817553E+04  6.766836E+04  4.680225E+03  1.285002E+04  6.239795E+03
       204  20 -1.062665E+05  1.050001E+05  7.488755E+04  9.554106E+03  1.329998E+04  1.973878E+04
       204  21 -1.462289E+05  9.824874E+04  7.402195E+04  2.831063E+04  1.376538E+04  2.101213E+04
       204  22 -5.418169E+05 -3.784631E+04 -4.536478E+04  2.250315E+04  3.118836E+04  6.264220E+03
       204  23 -5.366511E+05 -2.072308E+02 -2.072481E+04  1.553355E+04  2.020199E+04  1.974977E+04
       204  24 -5.417976E+05  1.856346E+03 -1.212080E+04  2.244751E+04  9.230874E+03  2.100586E+04
       204  25 -1.008811E+06 -1.538827E+05 -1.584122E+05  4.031254E+04  4.951294E+04  6.289708E+03
       204  26 -9.668626E+05 -1.054270E+05 -1.163485E+05  2.150874E+04  2.709927E+04  1.976089E+04
       204  27 -9.372194E+05 -9.454632E+04 -9.827286E+04  1.658813E+04  4.699217E+03  2.099967E+04
       205   1 -1.732486E+05  8.740329E+04  7.058682E+04  2.236144E+04 -8.549947E+03 -1.878269E+04
       205   2 -2.088313E+05  8.060526E+04  6.681646E+04  1.562146E+04 -6.449457E+03 -1.740868E+04
       205   3 -2.451727E+05  7.196398E+04  6.121221E+04  2.339676E+04 -4.350814E+03 -1.547963E+04
       205   4 -5.396919E+05 -1.953332E+03 -9.622067E+03  2.260432E+04 -7.524050E+03 -1.878182E+04
       205   5 -5.392623E+05  8.416258E+01 -5.223482E+03  1.534457E+04 -4.905556E+03 -1.740666E+04
       205   6 -5.396836E+05  1.877019E+02 -3.019672E+03  2.260061E+04 -2.288798E+03 -1.547632E+04
       205   7 -9.060094E+05 -9.131892E+04 -8.983909E+04  2.284701E+04 -6.498749E+03 -1.878095E+04
       205   8 -8.695908E+05 -8.044420E+04 -7.726998E+04  1.506778E+04 -3.362467E+03 -1.740465E+04
       205   9 -8.341132E+05 -7.159435E+04 -6.725677E+04  2.180480E+04 -2.277478E+02 -1.547303E+04
       205  10 -1.732488E+05  8.740289E+04  7.058602E+04  2.236131E+04 -2.454447E-10 -6.644299E-10
       205  11 -2.088315E+05  8.060492E+04  6.681581E+04  1.562137E+04  1.278333E-09  3.979219E-09
       205  12 -2.451728E+05  7.196372E+04  6.121173E+04  2.339671E+04  1.553845E-09  4.194646E-09
       205  13 -5.396920E+05 -1.953726E+03 -9.622836E+03  2.260421E+04 -3.945431E-10  4.658743E-09
       205  14 -5.392624E+05  8.383083E+01 -5.224097E+03  1.534450E+04  1.633246E-09 -8.811453E-09
       205  15 -5.396837E+05  1.874434E+02 -3.020132E+03  2.260058E+04 -3.517624E-09  3.946896E-09
       205  16 -9.060095E+05 -9.131931E+04 -8.983983E+04  2.284691E+04  4.910931E-09 -3.763559E-09
       205  17 -8.695909E+05 -8.044453E+04 -7.727057E+04  1.506773E+04 -5.672626E-09 -1.285901E-09
       205  18 -8.341132E+05 -7.159461E+04 -6.725722E+04  2.180479E+04 -4.566248E-09  5.180601E-10
       205  19 -1.732486E+05  8.740329E+04  7.058682E+04  2.236144E+04  8.549947E+03  1.878269E+04
       205  20 -2.088313E+05  8.060526E+04  6.681646E+04  1.562146E+04  6.449457E+03  1.740868E+04
       205  21 -2.451727E+05  7.196398E+04  6.121221E+04  2.339676E+04  4.350814E+03  1.547963E+04
       205  22 -5.396919E+05 -1.953332E+03 -9.622067E+03  2.260432E+04  7.524050E+03  1.878182E+04
       205  23 -5.392623E+05  8.416258E+01 -5.223482E+03  1.534457E+04  4.905556E+03  1.740666E+04
       205  24 -5.396836E+05  1.877019E+02 -3.019672E+03  2.260061E+04  2.288798E+03  1.547632E+04
       205  25 -9.060094E+05 -9.131892E+04 -8.983909E+04  2.284701E+04  6.498749E+03  1.878095E+04
       205  26 -8.695908E+05 -8.044420E+04 -7.726998E+04  1.506778E+04  3.362467E+03  1.740465E+04
       205  27 -8.341132E+05 -7.159435E+04 -6.725677E+04  2.180480E+04  2.277478E+02  1.547303E+04
       206   1 -2.740858E+05  6.464481E+04  5.540524E+04  2.304888E+04 -3.728321E+03 -1.422206E+04
       206   2 -3.101879E+05  5.593082E+04  4.858799E+04  1.569124E+04 -3.093148E+03 -1.216839E+04
       206   3 -3.464388E+05  4.716685E+04  4.133171E+04  2.296709E+04 -2.458652E+03 -1.008638E+04
       206   4 -5.395251E+05 -1.316066E+01 -2.322193E+03  2.262792E+04 -1.820602E+03 -1.421886E+04
       206   5 -5.394455E+05  7.095490E+01 -1.342023E+03  1.531090E+04 -1.159200E+03 -1.216489E+04
       206   6 -5.395200E+05  1.006888E+02 -8.190887E+02  2.262770E+04 -4.984376E+02 -1.008256E+04
       206   7 -8.048984E+05 -6.467581E+04 -6.005384E+04  2.220711E+04  8.631175E+01 -1.421566E+04
       206   8 -7.686538E+05 -5.579241E+04 -5.127518E+04  1.493068E+04  7.740429E+02 -1.216138E+04
       206   9 -7.325662E+05 -4.696795E+04 -4.297212E+04  2.228840E+04  1.461174E+03 -1.007874E+04
       206  10 -2.740859E+05  6.464459E+04  5.540484E+04  2.304884E+04 -3.182258E-10 -4.019669E-09
       206  11 -3.101880E+05  5.593066E+04  4.858770E+04  1.569121E+04 -1.762587E-10 -3.695471E-09
       206  12 -3.464389E+05  4.716674E+04  4.133150E+04  2.296707E+04 -1.597391E-09 -3.079590E-09
       206  13 -5.395252E+05 -1.337859E+01 -2.322580E+03  2.262790E+04 -4.271248E-09 -2.742196E-09
       206  14 -5.394456E+05  7.079567E+01 -1.342304E+03  1.531089E+04 -3.582335E-09 -7.044952E-09
       206  15 -5.395200E+05  1.005796E+02 -8.192801E+02  2.262770E+04  2.818228E-09 -2.429064E-09
       206  16 -8.048984E+05 -6.467603E+04 -6.005422E+04  2.220711E+04 -3.516530E-09 -3.792007E-09
       206  17 -7.686539E+05 -5.579257E+04 -5.127546E+04  1.493069E+04 -1.603536E-09  1.697881E-09
       206  18 -7.325663E+05 -4.696806E+04 -4.297231E+04  2.228841E+04  4.134435E-09  5.302079E-09
       206  19 -2.740858E+05  6.464481E+04  5.540524E+04  2.304888E+04  3.728321E+03  1.422206E+04
       206  20 -3.101879E+05  5.593082E+04  4.858799E+04  1.569124E+04  3.093148E+03  1.216839E+04
       206  21 -3.464388E+05  4.716685E+04  4.133171E+04  2.296709E+04  2.458652E+03  1.008638E+04
       206  22 -5.395251E+05 -1.316066E+01 -2.322193E+03  2.262792E+04  1.820602E+03  1.421886E+04
       206  23 -5.394455E+05  7.095490E+01 -1.342023E+03  1.531090E+04  1.159200E+03  1.216489E+04
       206  24 -5.395200E+05  1.006888E+02 -8.190887E+02  2.262770E+04  4.984376E+02  1.008256E+04
       206  25 -8.048984E+05 -6.467581E+04 -6.005384E+04  2.220711E+04 -8.631175E+01  1.421566E+04
       206  26 -7.686538E+05 -5.579241E+04 -5.127518E+04  1.493068E+04 -7.740429E+02  1.216138E+04
       206  27 -7.325662E+05 -4.696795E+04 -4.297212E+04  2.228840E+04 -1.461174E+03  1.007874E+04
       207   1 -3.756274E+05  4.000277E+04  3.492533E+04  2.291672E+04 -2.322653E+03 -8.867206E+03
       207   2 -4.119009E+05  3.115284E+04  2.728585E+04  1.550546E+04 -2.085369E+03 -6.775010E+03
       207   3 -4.482628E+05  2.235693E+04  1.948825E+04  2.278503E+04 -1.848439E+03 -4.679736E+03
       207   4 -5.395034E+05  9.237238E+01 -6.641079E+02  2.264048E+04 -3.671054E+02 -8.863275E+03
       207   5 -5.394570E+05  7.158264E+01 -4.943335E+02  1.529496E+04 -1.270472E+02 -6.770933E+03
       207   6 -5.395007E+05  1.043961E+02 -4.845927E+02  2.264046E+04  1.126706E+02 -4.675508E+03
       207   7 -7.033542E+05 -3.981981E+04 -3.625513E+04  2.236430E+04  1.587932E+03 -8.859345E+03
       207   8 -6.669979E+05 -3.101076E+04 -2.827548E+04  1.508450E+04  1.830877E+03 -6.766856E+03
       207   9 -6.307307E+05 -2.214869E+04 -2.045793E+04  2.249590E+04  2.073495E+03 -4.671279E+03
       207  10 -3.756274E+05  4.000269E+04  3.492517E+04  2.291670E+04 -1.028845E-09 -7.389751E-09
       207  11 -4.119010E+05  3.115279E+04  2.728575E+04  1.550545E+04 -8.645386E-10 -4.772084E-10
       207  12 -4.482628E+05  2.235690E+04  1.948820E+04  2.278502E+04 -4.410244E-09 -3.001345E-10
       207  13 -5.395034E+05  9.228801E+01 -6.642557E+02  2.264047E+04 -2.154532E-09  5.157154E-10
       207  14 -5.394571E+05  7.153341E+01 -4.944196E+02  1.529496E+04 -1.155836E-10 -4.837335E-09
       207  15 -5.395007E+05  1.043726E+02 -4.846338E+02  2.264046E+04  2.769952E-09 -2.235544E-09
       207  16 -7.033543E+05 -3.981989E+04 -3.625529E+04  2.236431E+04 -2.891643E-09  1.992037E-09
       207  17 -6.669979E+05 -3.101081E+04 -2.827557E+04  1.508451E+04 -3.133073E-10  5.492194E-09
       207  18 -6.307308E+05 -2.214872E+04 -2.045797E+04  2.249591E+04  4.588626E-09  1.671005E-09
       207  19 -3.756274E+05  4.000277E+04  3.492533E+04  2.291672E+04  2.322653E+03  8.867206E+03
       207  20 -4.119009E+05  3.115284E+04  2.728585E+04  1.550546E+04  2.085369E+03  6.775010E+03
       207  21 -4.482628E+05  2.235693E+04  1.948825E+04  2.278503E+04  1.848439E+03  4.679736E+03
       207  22 -5.395034E+05  9.237238E+01 -6.641079E+02  2.264048E+04  3.671054E+02  8.863275E+03
       207  23 -5.394570E+05  7.158264E+01 -4.943335E+02  1.529496E+04  1.270472E+02  6.770933E+03
       207  24 -5.395007E+05  1.043961E+02 -4.845927E+02  2.264046E+04 -1.126706E+02  4.675508E+03
       207  25 -7.033542E+05 -3.981981E+04 -3.625513E+04  2.236430E+04 -1.587932E+03  8.859345E+03
       207  26 -6.669979E+05 -3.101076E+04 -2.827548E+04  1.508450E+04 -1.830877E+03  6.766856E+03
       207  27 -6.307307E+05 -2.214869E+04 -2.045793E+04  2.249590E+04 -2.073495E+03  4.671279E+03
       208   1 -4.775516E+05  1.518112E+04  1.285572E+04  2.273778E+04 -1.759552E+03 -3.459047E+03
       208   2 -5.138707E+05  6.313377E+03  4.800348E+03  1.530259E+04 -1.383183E+03 -1.360925E+03
       208   3 -5.503050E+05 -2.507029E+03 -3.507222E+03  2.258289E+04 -1.006908E+03  7.369075E+02
       208   4 -5.395057E+05  1.047029E+02 -5.361346E+02  2.264590E+04  2.024933E+02 -3.454762E+03
       208   5 -5.394469E+05  8.107851E+01 -7.700187E+02  1.528815E+04  5.785119E+02 -1.356616E+03
       208   6 -5.395052E+05  1.047961E+02 -1.255961E+03  2.264590E+04  9.544583E+02  7.412476E+02
       208   7 -6.014561E+05 -1.497197E+04 -1.392820E+04  2.255403E+04  2.164345E+03 -3.450478E+03
       208   8 -5.650225E+05 -6.151262E+03 -6.340411E+03  1.527370E+04  2.540127E+03 -1.352306E+03
       208   9 -5.287053E+05  2.716616E+03  9.953067E+02  2.270892E+04  2.915858E+03  7.455880E+02
       208  10 -4.775516E+05  1.518111E+04  1.285569E+04  2.273777E+04  1.399951E-09  1.516768E-09
       208  11 -5.138707E+05  6.313375E+03  4.800341E+03  1.530259E+04  3.276501E-09 -4.062491E-09
       208  12 -5.503050E+05 -2.507030E+03 -3.507224E+03  2.258289E+04 -4.235440E-09 -1.877072E-09
       208  13 -5.395057E+05  1.046901E+02 -5.361571E+02  2.264590E+04 -2.546359E-09  3.781243E-09
       208  14 -5.394469E+05  8.107644E+01 -7.700228E+02  1.528815E+04  1.664676E-09 -2.138497E-09
       208  15 -5.395052E+05  1.047953E+02 -1.255964E+03  2.264590E+04  5.339255E-09 -2.949561E-09
       208  16 -6.014561E+05 -1.497198E+04 -1.392823E+04  2.255404E+04 -3.197769E-09 -1.546765E-09
       208  17 -5.650226E+05 -6.151265E+03 -6.340426E+03  1.527370E+04 -2.758162E-09 -1.016898E-08
       208  18 -5.287053E+05  2.716613E+03  9.952897E+02  2.270892E+04  6.377932E-09 -3.316945E-09
       208  19 -4.775516E+05  1.518112E+04  1.285572E+04  2.273778E+04  1.759552E+03  3.459047E+03
       208  20 -5.138707E+05  6.313377E+03  4.800348E+03  1.530259E+04  1.383183E+03  1.360925E+03
       208  21 -5.503050E+05 -2.507029E+03 -3.507222E+03  2.258289E+04  1.006908E+03 -7.369075E+02
       208  22 -5.395057E+05  1.047029E+02 -5.361346E+02  2.264590E+04 -2.024933E+02  3.454762E+03
       208  23 -5.394469E+05  8.107851E+01 -7.700187E+02  1.528815E+04 -5.785119E+02  1.356616E+03
       208  24 -5.395052E+05  1.047961E+02 -1.255961E+03  2.264590E+04 -9.544583E+02 -7.412476E+02
       208  25 -6.014561E+05 -1.497197E+04 -1.392820E+04  2.255403E+04 -2.164345E+03  3.450478E+03
       208  26 -5.650225E+05 -6.151262E+03 -6.340411E+03  1.527370E+04 -2.540127E+03  1.352306E+03
       208  27 -5.287053E+05  2.716616E+03  9.953067E+02  2.270892E+04 -2.915858E+03 -7.455880E+02
       209   1 -5.796451E+05 -9.668580E+03 -1.046480E+04  2.248788E+04 -7.539003E+02  1.959994E+03
       209   2 -6.158472E+05 -1.852419E+04 -1.945076E+04  1.507799E+04  6.440098E+02  4.055710E+03
       209   3 -6.523540E+05 -2.756333E+04 -2.941194E+04  2.237438E+04  2.042096E+03  6.133241E+03
       209   4 -5.395467E+05  1.239019E+02 -1.629151E+03  2.264368E+04  1.211956E+03  1.964326E+03
       209   5 -5.393967E+05  1.075906E+02 -2.796061E+03  1.529083E+04  2.592980E+03  4.059917E+03
       209   6 -5.395489E+05 -8.904940E+01 -4.926139E+03  2.264415E+04  3.974259E+03  6.137329E+03
       209   7 -4.994469E+05  9.916278E+03  7.206410E+03  2.279949E+04  3.177938E+03  1.968659E+03
       209   8 -4.629406E+05  1.873899E+04  1.385830E+04  1.550370E+04  4.542186E+03  4.064126E+03
       209   9 -4.267318E+05  2.738439E+04  1.955892E+04  2.291397E+04  5.906769E+03  6.141419E+03
       209  10 -5.796451E+05 -9.668585E+03 -1.046480E+04  2.248788E+04 -1.644733E-08  1.446478E-09
       209  11 -6.158472E+05 -1.852421E+04 -1.945079E+04  1.507798E+04  4.505299E-09 -7.277072E-09
       209  12 -6.523541E+05 -2.756337E+04 -2.941202E+04  2.237437E+04  2.309526E-08 -2.939314E-09
       209  13 -5.395468E+05  1.238973E+02 -1.629161E+03  2.264368E+04  2.142063E-09 -2.297845E-09
       209  14 -5.393967E+05  1.075711E+02 -2.796104E+03  1.529082E+04  5.930693E-09 -4.672382E-09
       209  15 -5.395489E+05 -8.909408E+01 -4.926239E+03  2.264413E+04  9.490174E-10 -1.101715E-09
       209  16 -4.994469E+05  9.916271E+03  7.206384E+03  2.279948E+04  1.986049E-08  2.945837E-09
       209  17 -4.629406E+05  1.873896E+04  1.385823E+04  1.550368E+04 -4.817143E-09 -6.857035E-09
       209  18 -4.267318E+05  2.738434E+04  1.955878E+04  2.291394E+04 -2.233516E-08 -4.589509E-10
       209  19 -5.796451E+05 -9.668580E+03 -1.046480E+04  2.248788E+04  7.539003E+02 -1.959994E+03
       209  20 -6.158472E+05 -1.852419E+04 -1.945076E+04  1.507799E+04 -6.440098E+02 -4.055710E+03
       209  21 -6.523540E+05 -2.756333E+04 -2.941194E+04  2.237438E+04 -2.042096E+03 -6.133241E+03
       209  22 -5.395467E+05  1.239019E+02 -1.629151E+03  2.264368E+04 -1.211956E+03 -1.964326E+03
       209  23 -5.393967E+05  1.075906E+02 -2.796061E+03  1.529083E+04 -2.592980E+03 -4.059917E+03
       209  24 -5.395489E+05 -8.904940E+01 -4.926139E+03  2.264415E+04 -3.974259E+03 -6.137329E+03
       209  25 -4.994469E+05  9.916278E+03  7.206410E+03  2.279949E+04 -3.177938E+03 -1.968659E+03
       209  26 -4.629406E+05  1.873899E+04  1.385830E+04  1.550370E+04 -4.542186E+03 -4.064126E+03
       209  27 -4.267318E+05  2.738439E+04  1.955892E+04  2.291397E+04 -5.906769E+03 -6.141419E+03
       210   1 -6.819493E+05 -3.430110E+04 -3.747315E+04  2.158092E+04  2.932433E+03  7.385718E+03
       210   2 -7.172573E+05 -4.329068E+04 -5.004159E+04  1.536319E+04  8.875453E+03  9.387335E+03
       210   3 -7.544687E+05 -5.653956E+04 -6.756272E+04  2.379936E+04  1.481929E+04  1.100814E+04
       210   4 -5.398926E+05  3.431907E+02 -6.430179E+03  2.262976E+04  4.971476E+03  7.389949E+03
       210   5 -5.389748E+05  1.688408E+02 -1.114831E+04  1.530760E+04  1.055978E+04  9.390619E+03
       210   6 -5.398991E+05 -4.202282E+03 -2.057145E+04  2.263914E+04  1.614925E+04  1.101051E+04
       210   7 -3.978171E+05  3.498614E+04  2.461159E+04  2.367883E+04  7.010979E+03  7.394187E+03
       210   8 -3.606625E+05  4.362624E+04  2.774306E+04  1.525198E+04  1.224459E+04  9.393902E+03
       210   9 -3.252863E+05  4.813193E+04  2.641705E+04  2.147850E+04  1.747966E+04  1.101287E+04
       210  10 -6.819493E+05 -3.430116E+04 -3.747327E+04  2.158091E+04  2.427127E-08  5.846596E-10
       210  11 -7.172574E+05 -4.329079E+04 -5.004190E+04  1.536312E+04  9.464240E-10  6.664814E-09
       210  12 -7.544690E+05 -5.653975E+04 -6.756336E+04  2.379923E+04 -1.370268E-08  1.526313E-09
       210  13 -5.398927E+05  3.431254E+02 -6.430328E+03  2.262973E+04  3.891187E-10 -5.492638E-09
       210  14 -5.389750E+05  1.687162E+02 -1.114869E+04  1.530752E+04 -1.268909E-11  8.345992E-09
       210  15 -5.398994E+05 -4.202482E+03 -2.057216E+04  2.263900E+04 -1.273425E-10  2.831573E-09
       210  16 -3.978171E+05  3.498607E+04  2.461139E+04  2.367879E+04 -2.412380E-08 -6.224643E-10
       210  17 -3.606627E+05  4.362611E+04  2.774261E+04  1.525188E+04 -4.433112E-09 -4.839593E-09
       210  18 -3.252867E+05  4.813172E+04  2.641624E+04  2.147834E+04  1.172880E-08  4.503425E-09
       210  19 -6.819493E+05 -3.430110E+04 -3.747315E+04  2.158092E+04 -2.932433E+03 -7.385718E+03
       210  20 -7.172573E+05 -4.329068E+04 -5.004159E+04  1.536319E+04 -8.875453E+03 -9.387335E+03
       210  21 -7.544687E+05 -5.653956E+04 -6.756272E+04  2.379936E+04 -1.481929E+04 -1.100814E+04
       210  22 -5.398926E+05  3.431907E+02 -6.430179E+03  2.262976E+04 -4.971476E+03 -7.389949E+03
       210  23 -5.389748E+05  1.688408E+02 -1.114831E+04  1.530760E+04 -1.055978E+04 -9.390619E+03
       210  24 -5.398991E+05 -4.202282E+03 -2.057145E+04  2.263914E+04 -1.614925E+04 -1.101051E+04
       210  25 -3.978171E+05  3.498614E+04  2.461159E+04  2.367883E+04 -7.010979E+03 -7.394187E+03
       210  26 -3.606625E+05  4.362624E+04  2.774306E+04  1.525198E+04 -1.224459E+04 -9.393902E+03
       210  27 -3.252863E+05  4.813193E+04  2.641705E+04  2.147850E+04 -1.747966E+04 -1.101287E+04
       211   1 -7.882628E+05 -5.553924E+04 -7.908545E+04  1.061321E+04  1.606196E+04  1.292513E+04
       211   2 -8.127579E+05 -6.871102E+04 -1.064730E+05  2.882606E+04  4.736616E+04  1.277880E+04
       211   3 -8.607741E+05 -1.594584E+05 -1.736602E+05  6.133575E+04  7.868259E+04  4.228181E+03
       211   4 -5.444107E+05  3.955890E+03 -2.592092E+04  2.251493E+04  1.980293E+04  1.293245E+04
       211   5 -5.333504E+05 -4.159782E+02 -4.431145E+04  1.544422E+04  4.325580E+04  1.276961E+04
       211   6 -5.444386E+05 -8.098258E+04 -9.703484E+04  2.267243E+04  6.672325E+04  4.201645E+03
       211   7 -3.005026E+05  6.344758E+04  2.724016E+04  3.442137E+04  2.354536E+04  1.293990E+04
       211   8 -2.538695E+05  6.787447E+04  1.784534E+04  2.056247E+03  3.914360E+04  1.276061E+04
       211   9 -2.280080E+05 -2.508314E+03 -2.041530E+04 -1.601071E+04  5.475781E+04  4.176607E+03
       211  10 -7.882631E+05 -5.553948E+04 -7.908625E+04  1.061304E+04  2.333249E-08  1.025306E-09
       211  11 -8.127604E+05 -6.871180E+04 -1.064775E+05  2.882557E+04  8.339710E-09  1.426331E-09
       211  12 -8.607808E+05 -1.594601E+05 -1.736719E+05  6.133548E+04 -1.183811E-08  3.648059E-09
       211  13 -5.444112E+05  3.955605E+03 -2.592197E+04  2.251473E+04 -2.157365E-09  6.366797E-09
       211  14 -5.333525E+05 -4.166561E+02 -4.431528E+04  1.544377E+04  3.744505E-09  3.864008E-09
       211  15 -5.444434E+05 -8.098379E+04 -9.704325E+04  2.267221E+04  1.863475E-10  2.506554E-09
       211  16 -3.005032E+05  6.344726E+04  2.723880E+04  3.442113E+04 -2.268722E-08  3.757085E-09
       211  17 -2.538712E+05  6.787388E+04  1.784215E+04  2.055844E+03 -9.874663E-09  7.329934E-09
       211  18 -2.280112E+05 -2.509138E+03 -2.042097E+04 -1.601090E+04  1.486876E-08  1.327199E-09
       211  19 -7.882628E+05 -5.553924E+04 -7.908545E+04  1.061321E+04 -1.606196E+04 -1.292513E+04
       211  20 -8.127579E+05 -6.871102E+04 -1.064730E+05  2.882606E+04 -4.736616E+04 -1.277880E+04
       211  21 -8.607741E+05 -1.594584E+05 -1.736602E+05  6.133575E+04 -7.868259E+04 -4.228181E+03
       211  22 -5.444107E+05  3.955890E+03 -2.592092E+04  2.251493E+04 -1.980293E+04 -1.293245E+04
       211  23 -5.333504E+05 -4.159782E+02 -4.431145E+04  1.544422E+04 -4.325580E+04 -1.276961E+04
       211  24 -5.444386E+05 -8.098258E+04 -9.703484E+04  2.267243E+04 -6.672325E+04 -4.201645E+03
       211  25 -3.005026E+05  6.344758E+04  2.724016E+04  3.442137E+04 -2.354536E+04 -1.293990E+04
       211  26 -2.538695E+05  6.787447E+04  1.784534E+04  2.056247E+03 -3.914360E+04 -1.276061E+04
       211  27 -2.280080E+05 -2.508314E+03 -2.041530E+04 -1.601071E+04 -5.475781E+04 -4.176607E+03

 stresses (elem, integ.pnt.,sxx,syy,szz,sxy,sxz,syz) for set ELALL and time  0.1000000E+01

         1   1  3.062519E+06  1.130974E+07  2.904831E+06 -2.080665E+06  1.428894E+05  1.080385E+06
         1   2  2.486009E+06  9.649261E+06  1.975006E+06 -1.913015E+06  4.812266E+05  4.890786E+05
         1   3  2.065837E+06  8.112020E+06  1.466372E+06 -2.011349E+06  5.605228E+05 -1.002092E+05
         1   4  1.069850E+05 -7.506319E+05  1.116484E+05 -1.972924E+06  1.469168E+05  7.189691E+04
         1   5  3.227711E+04 -7.577986E+05  5.956882E+04 -1.840188E+06  4.841916E+05  4.400748E+04
         1   6  1.831383E+04 -7.399328E+05  4.184062E+04 -1.973429E+06  5.604877E+05  1.642023E+04
         1   7 -2.858172E+06 -1.267598E+07 -2.687523E+06 -1.866950E+06  1.506621E+05 -9.174169E+05
         1   8 -2.427487E+06 -1.106037E+07 -1.859628E+06 -1.768338E+06  4.870901E+05 -3.938881E+05
         1   9 -2.033142E+06 -9.514679E+06 -1.384768E+06 -1.935832E+06  5.604660E+05  1.314607E+05
         1  10  3.062190E+06  1.130850E+07  2.902634E+06 -2.080790E+06 -6.422872E-09 -2.338580E-10
         1  11  2.485697E+06  9.648943E+06  1.974124E+06 -1.913204E+06  8.136343E-09 -1.179128E-09
         1  12  2.065497E+06  8.111925E+06  1.465764E+06 -2.011304E+06 -5.659723E-09 -1.899240E-09
         1  13  1.069604E+05 -7.506433E+05  1.115980E+05 -1.972932E+06  7.103401E-12 -1.683696E-11
         1  14  3.202485E+04 -7.578637E+05  5.912450E+04 -1.840205E+06 -9.306799E-09 -1.433592E-10
         1  15  1.797651E+04 -7.400173E+05  4.124985E+04 -1.973436E+06 -1.745799E-09 -6.507759E-11
         1  16 -2.858427E+06 -1.267690E+07 -2.689177E+06 -1.866839E+06  2.135754E-09 -4.233692E-11
         1  17 -2.427783E+06 -1.106060E+07 -1.860368E+06 -1.768183E+06 -5.049047E-09  8.603672E-10
         1  18 -2.033484E+06 -9.514782E+06 -1.385391E+06 -1.935892E+06 -3.694637E-09  2.048986E-09
         1  19  3.062519E+06  1.130974E+07  2.904831E+06 -2.080665E+06 -1.428894E+05 -1.080385E+06
         1  20  2.486009E+06  9.649261E+06  1.975006E+06 -1.913015E+06 -4.812266E+05 -4.890786E+05
         1  21  2.065837E+06  8.112020E+06  1.466372E+06 -2.011349E+06 -5.605228E+05  1.002092E+05
         1  22  1.069850E+05 -7.506319E+05  1.116484E+05 -1.972924E+06 -1.469168E+05 -7.189691E+04
         1  23  3.227711E+04 -7.577986E+05  5.956882E+04 -1.840188E+06 -4.841916E+05 -4.400748E+04
         1  24  1.831383E+04 -7.399328E+05  4.184062E+04 -1.973429E+06 -5.604877E+05 -1.642023E+04
         1  25 -2.858172E+06 -1.267598E+07 -2.687523E+06 -1.866950E+06 -1.506621E+05  9.174169E+05
         1  26 -2.427487E+06 -1.106037E+07 -1.859628E+06 -1.768338E+06 -4.870901E+05  3.938881E+05
         1  27 -2.033142E+06 -9.514679E+06 -1.384768E+06 -1.935832E+06 -5.604660E+05 -1.314607E+05
         2   1  1.827612E+06  7.091582E+06  1.267815E+06 -2.019956E+06  5.191007E+05 -1.093681E+05
         2   2  1.451225E+06  5.484857E+06  9.694899E+05 -1.865660E+06  4.490173E+05 -1.960901E+05
         2   3  1.103264E+06  3.898546E+06  7.342159E+05 -1.996116E+06  3.479895E+05 -2.830735E+05
         2   4  2.092379E+04 -7.409846E+05  3.796936E+04 -1.977627E+06  5.188397E+05  9.707869E+03
         2   5  2.359790E+04 -7.408669E+05  3.970716E+04 -1.835124E+06  4.479390E+05 -1.025979E+04
         2   6  4.336966E+04 -7.343139E+05  5.847508E+04 -1.977538E+06  3.459326E+05 -3.069798E+04
         2   7 -1.788775E+06 -8.512795E+06 -1.193330E+06 -1.935656E+06  5.185923E+05  1.273494E+05
         2   8 -1.405835E+06 -6.927793E+06 -8.906987E+05 -1.804779E+06  4.468712E+05  1.737943E+05
         2   9 -1.017481E+06 -5.345484E+06 -6.173918E+05 -1.959027E+06  3.438799E+05  2.198818E+05
         2  10  1.827320E+06  7.091497E+06  1.267287E+06 -2.019910E+06 -3.329194E-09  1.649977E-08
         2  11  1.450998E+06  5.484762E+06  9.690407E+05 -1.865590E+06  7.055606E-09  6.274181E-09
         2  12  1.103113E+06  3.898429E+06  7.338402E+05 -1.996037E+06  6.016192E-09 -4.928800E-09
         2  13  2.063479E+04 -7.410569E+05  3.746343E+04 -1.977632E+06  3.680989E-09 -3.372165E-10
         2  14  2.338252E+04 -7.409208E+05  3.933011E+04 -1.835120E+06  8.378518E-09 -1.792190E-10
         2  15  4.324101E+04 -7.343470E+05  5.824868E+04 -1.977529E+06  3.452814E-09 -2.243404E-10
         2  16 -1.789068E+06 -8.512884E+06 -1.193867E+06 -1.935710E+06 -9.588184E-10 -1.618971E-08
         2  17 -1.406058E+06 -6.927879E+06 -8.911322E+05 -1.804842E+06  4.683362E-09 -6.531263E-09
         2  18 -1.017621E+06 -5.345568E+06 -6.177067E+05 -1.959088E+06 -9.797811E-11  4.723454E-09
         2  19  1.827612E+06  7.091582E+06  1.267815E+06 -2.019956E+06 -5.191007E+05  1.093681E+05
         2  20  1.451225E+06  5.484857E+06  9.694899E+05 -1.865660E+06 -4.490173E+05  1.960901E+05
         2  21  1.103264E+06  3.898546E+06  7.342159E+05 -1.996116E+06 -3.479895E+05  2.830735E+05
         2  22  2.092379E+04 -7.409846E+05  3.796936E+04 -1.977627E+06 -5.188397E+05 -9.707869E+03
         2  23  2.359790E+04 -7.408669E+05  3.970716E+04 -1.835124E+06 -4.479390E+05  1.025979E+04
         2  24  4.336966E+04 -7.343139E+05  5.847508E+04 -1.977538E+06 -3.459326E+05  3.069798E+04
         2  25 -1.788775E+06 -8.512795E+06 -1.193330E+06 -1.935656E+06 -5.185923E+05 -1.273494E+05
         2  26 -1.405835E+06 -6.927793E+06 -8.906987E+05 -1.804779E+06 -4.468712E+05 -1.737943E+05
         2  27 -1.017481E+06 -5.345484E+06 -6.173918E+05 -1.959027E+06 -3.438799E+05 -2.198818E+05
         3   1  8.803758E+05  2.904380E+06  5.970324E+05 -1.999555E+06  2.784674E+05 -2.937142E+05
         3   2  5.670397E+05  1.294359E+06  4.194617E+05 -1.767378E+06  1.602732E+05 -3.646429E+05
         3   3  3.674203E+05 -2.791000E+05  3.153841E+05 -1.822084E+06  3.996751E+04 -4.355712E+05
         3   4  5.032159E+04 -7.268527E+05  7.367941E+04 -1.978065E+06  2.762226E+05 -4.120982E+04
         3   5  1.033874E+05 -7.422324E+05  1.286050E+05 -1.833856E+06  1.578774E+05 -1.078249E+05
         3   6  2.695810E+05 -7.245629E+05  2.538440E+05 -1.976362E+06  3.743723E+04 -1.745939E+05
         3   7 -7.803005E+05 -4.344670E+06 -4.496425E+05 -1.956658E+06  2.739861E+05  2.098856E+05
         3   8 -3.603972E+05 -2.774480E+06 -1.620624E+05 -1.900093E+06  1.554212E+05  1.481882E+05
         3   9  1.718609E+05 -1.169625E+06  1.925709E+05 -2.130525E+06  3.477588E+04  8.620446E+04
         3  10  8.802699E+05  2.904267E+06  5.967266E+05 -1.999490E+06  3.806600E-09 -8.336547E-09
         3  11  5.669768E+05  1.294210E+06  4.191649E+05 -1.767331E+06 -7.120891E-09 -2.274358E-09
         3  12  3.673677E+05 -2.793041E+05  3.150247E+05 -1.822071E+06 -3.990734E-09  4.180886E-09
         3  13  5.023930E+04 -7.268749E+05  7.353307E+04 -1.978056E+06  1.342611E-09 -4.504676E-11
         3  14  1.033576E+05 -7.422515E+05  1.285365E+05 -1.833842E+06 -7.804414E-09  6.979397E-11
         3  15  2.695713E+05 -7.245960E+05  2.537841E+05 -1.976357E+06 -5.029188E-09  7.032376E-11
         3  16 -7.803933E+05 -4.344738E+06 -4.498677E+05 -1.956705E+06  5.339750E-09  8.957960E-09
         3  17 -3.604291E+05 -2.774510E+06 -1.621495E+05 -1.900111E+06 -4.887385E-09  2.761943E-09
         3  18  1.718576E+05 -1.169633E+06  1.925546E+05 -2.130527E+06  4.472544E-10 -4.035290E-09
         3  19  8.803758E+05  2.904380E+06  5.970324E+05 -1.999555E+06 -2.784674E+05  2.937142E+05
         3  20  5.670397E+05  1.294359E+06  4.194617E+05 -1.767378E+06 -1.602732E+05  3.646429E+05
         3  21  3.674203E+05 -2.791000E+05  3.153841E+05 -1.822084E+06 -3.996751E+04  4.355712E+05
         3  22  5.032159E+04 -7.268527E+05  7.367941E+04 -1.978065E+06 -2.762226E+05  4.120982E+04
         3  23  1.033874E+05 -7.422324E+05  1.286050E+05 -1.833856E+06 -1.578774E+05  1.078249E+05
         3  24  2.695810E+05 -7.245629E+05  2.538440E+05 -1.976362E+06 -3.743723E+04  1.745939E+05
         3  25 -7.803005E+05 -4.344670E+06 -4.496425E+05 -1.956658E+06 -2.739861E+05 -2.098856E+05
         3  26 -3.603972E+05 -2.774480E+06 -1.620624E+05 -1.900093E+06 -1.554212E+05 -1.481882E+05
         3  27  1.718609E+05 -1.169625E+06  1.925709E+05 -2.130525E+06 -3.477588E+04 -8.620446E+04
         4   1 -1.837095E+07 -6.487988E+06 -4.544816E+06 -5.675859E+06 -1.020205E+06 -2.968919E+05
         4   2 -1.829383E+07 -4.619571E+06 -3.572769E+06 -5.424462E+06 -6.832640E+05 -1.906979E+04
         4   3 -1.747641E+07 -4.666360E+06 -3.111432E+06 -5.372421E+06 -2.786216E+05  6.960521E+04
         4   4 -7.402284E+06 -2.192998E+06 -1.460206E+06 -2.594976E+06 -9.824878E+05 -2.834079E+05
         4   5 -7.712898E+06 -7.117070E+05 -6.663338E+05 -2.691092E+06 -6.806637E+05 -1.847892E+04
         4   6 -7.260116E+06 -1.117120E+06 -3.451701E+05 -2.987605E+06 -3.119663E+05  5.834922E+04
         4   7  3.683956E+06  2.110771E+06  1.612915E+06  5.370621E+05 -9.438677E+05 -2.695588E+05
         4   8  2.977209E+06  3.201212E+06  2.229840E+06  8.512398E+04 -6.779276E+05 -1.783527E+04
         4   9  3.057281E+06  2.434018E+06  2.411820E+06 -5.676156E+05 -3.458857E+05  4.691452E+04
         4  10 -1.837212E+07 -6.488377E+06 -4.547008E+06 -5.676109E+06  7.365408E-09 -6.942433E-10
         4  11 -1.829434E+07 -4.619702E+06 -3.573674E+06 -5.424473E+06  9.631114E-09 -2.298886E-09
         4  12 -1.747650E+07 -4.666387E+06 -3.111590E+06 -5.372406E+06 -3.848381E-09 -2.919836E-09
         4  13 -7.403353E+06 -2.193348E+06 -1.462197E+06 -2.595202E+06 -8.377201E-09 -1.044742E-09
         4  14 -7.713400E+06 -7.118337E+05 -6.672161E+05 -2.691102E+06 -6.259061E-09 -3.892802E-09
         4  15 -7.260222E+06 -1.117150E+06 -3.453610E+05 -2.987591E+06  8.725234E-10 -1.069815E-09
         4  16  3.682985E+06  2.110456E+06  1.611115E+06  5.368581E+05 -2.359001E-09 -1.264866E-09
         4  17  2.976718E+06  3.201089E+06  2.228979E+06  8.511430E+04 -2.602046E-09 -2.112544E-10
         4  18  3.057153E+06  2.433984E+06  2.411593E+06 -5.676027E+05  1.363134E-09  4.074538E-09
         4  19 -1.837095E+07 -6.487988E+06 -4.544816E+06 -5.675859E+06  1.020205E+06  2.968919E+05
         4  20 -1.829383E+07 -4.619571E+06 -3.572769E+06 -5.424462E+06  6.832640E+05  1.906979E+04
         4  21 -1.747641E+07 -4.666360E+06 -3.111432E+06 -5.372421E+06  2.786216E+05 -6.960521E+04
         4  22 -7.402284E+06 -2.192998E+06 -1.460206E+06 -2.594976E+06  9.824878E+05  2.834079E+05
         4  23 -7.712898E+06 -7.117070E+05 -6.663338E+05 -2.691092E+06  6.806637E+05  1.847892E+04
         4  24 -7.260116E+06 -1.117120E+06 -3.451701E+05 -2.987605E+06  3.119663E+05 -5.834922E+04
         4  25  3.683956E+06  2.110771E+06  1.612915E+06  5.370621E+05  9.438677E+05  2.695588E+05
         4  26  2.977209E+06  3.201212E+06  2.229840E+06  8.512398E+04  6.779276E+05  1.783527E+04
         4  27  3.057281E+06  2.434018E+06  2.411820E+06 -5.676156E+05  3.458857E+05 -4.691452E+04
         5   1 -1.288371E+07 -3.560118E+06 -1.869482E+06 -4.558391E+06 -2.450247E+05  2.869500E+04
         5   2 -1.228911E+07 -2.161287E+06 -1.344703E+06 -3.331802E+06 -1.525290E+05  3.532175E+04
         5   3 -1.030579E+07 -2.391557E+06 -9.293504E+05 -3.941889E+06 -4.930167E+04  6.322260E+03
         5   4 -7.158190E+06 -1.537097E+06 -3.184799E+05 -3.175587E+06 -2.471126E+05  2.793360E+04
         5   5 -7.843990E+06 -6.201109E+05 -1.473946E+05 -2.291875E+06 -1.617362E+05  3.234448E+04
         5   6 -7.140431E+06 -1.328526E+06 -7.892593E+04 -3.244646E+06 -6.586018E+04  1.178501E+03
         5   7 -1.401066E+06  4.868522E+05  1.229597E+06 -1.781222E+06 -2.492132E+05  2.716849E+04
         5   8 -3.379865E+06  9.214568E+05  1.048169E+06 -1.245273E+06 -1.710122E+05  2.934526E+04
         5   9 -3.965496E+06 -2.654323E+05  7.706208E+05 -2.544265E+06 -8.250976E+04 -3.992350E+03
         5  10 -1.288378E+07 -3.560136E+06 -1.869598E+06 -4.558386E+06  4.400165E-09 -4.823115E-10
         5  11 -1.228914E+07 -2.161295E+06 -1.344750E+06 -3.331798E+06  1.431186E-08  8.545860E-10
         5  12 -1.030580E+07 -2.391558E+06 -9.293551E+05 -3.941888E+06  7.617118E-10  6.459417E-09
         5  13 -7.158257E+06 -1.537115E+06 -3.185973E+05 -3.175581E+06 -3.891124E-09 -4.825669E-10
         5  14 -7.844018E+06 -6.201192E+05 -1.474462E+05 -2.291871E+06  1.471765E-09 -1.201409E-09
         5  15 -7.140436E+06 -1.328527E+06 -7.893418E+04 -3.244646E+06  1.905968E-10 -3.105620E-11
         5  16 -1.401133E+06  4.868347E+05  1.229479E+06 -1.781217E+06 -5.788541E-09 -5.631415E-09
         5  17 -3.379896E+06  9.214480E+05  1.048112E+06 -1.245269E+06 -1.441011E-08 -9.667056E-09
         5  18 -3.965503E+06 -2.654342E+05  7.706079E+05 -2.544265E+06  2.160660E-09 -1.039494E-08
         5  19 -1.288371E+07 -3.560118E+06 -1.869482E+06 -4.558391E+06  2.450247E+05 -2.869500E+04
         5  20 -1.228911E+07 -2.161287E+06 -1.344703E+06 -3.331802E+06  1.525290E+05 -3.532175E+04
         5  21 -1.030579E+07 -2.391557E+06 -9.293504E+05 -3.941889E+06  4.930167E+04 -6.322260E+03
         5  22 -7.158190E+06 -1.537097E+06 -3.184799E+05 -3.175587E+06  2.471126E+05 -2.793360E+04
         5  23 -7.843990E+06 -6.201109E+05 -1.473946E+05 -2.291875E+06  1.617362E+05 -3.234448E+04
         5  24 -7.140431E+06 -1.328526E+06 -7.892593E+04 -3.244646E+06  6.586018E+04 -1.178501E+03
         5  25 -1.401066E+06  4.868522E+05  1.229597E+06 -1.781222E+06  2.492132E+05 -2.716849E+04
         5  26 -3.379865E+06  9.214568E+05  1.048169E+06 -1.245273E+06  1.710122E+05 -2.934526E+04
         5  27 -3.965496E+06 -2.654323E+05  7.706208E+05 -2.544265E+06  8.250976E+04  3.992350E+03
         6   1 -3.973202E+06 -2.896339E+05  7.849148E+05 -2.528282E+06 -3.110870E+04 -3.236829E+04
         6   2 -3.403273E+06  8.861186E+05  1.156583E+06 -1.248000E+06  1.042506E+03 -7.983344E+04
         6   3 -1.371165E+06  6.160969E+05  1.519759E+06 -1.844585E+06  3.016946E+04 -1.147310E+05
         6   4 -7.131477E+06 -1.353768E+06 -6.131747E+04 -3.233336E+06 -4.396646E+04 -3.636624E+04
         6   5 -7.860946E+06 -6.484825E+05 -3.676502E+04 -2.287092E+06 -9.118261E+03 -8.311018E+04
         6   6 -7.130428E+06 -1.391052E+06 -2.284258E+04 -3.219283E+06  2.265555E+04 -1.172517E+05
         6   7 -1.028028E+07 -2.417813E+06 -9.084217E+05 -3.935235E+06 -5.675308E+04 -4.034264E+04
         6   8 -1.229968E+07 -2.182724E+06 -1.231852E+06 -3.319580E+06 -1.919932E+04 -8.636168E+04
         6   9 -1.285806E+07 -3.397402E+06 -1.568352E+06 -4.582634E+06  1.521793E+04 -1.197479E+05
         6  10 -3.973203E+06 -2.896353E+05  7.849110E+05 -2.528283E+06  5.464764E-11  8.075029E-09
         6  11 -3.403275E+06  8.861118E+05  1.156571E+06 -1.248000E+06 -6.973486E-09  9.035647E-09
         6  12 -1.371170E+06  6.160826E+05  1.519733E+06 -1.844582E+06 -3.502848E-09  1.149554E-08
         6  13 -7.131479E+06 -1.353770E+06 -6.132366E+04 -3.233337E+06  3.996054E-09  4.915061E-09
         6  14 -7.860948E+06 -6.484899E+05 -3.677813E+04 -2.287093E+06 -1.354681E-08 -1.715814E-09
         6  15 -7.130432E+06 -1.391067E+06 -2.286930E+04 -3.219281E+06  4.233893E-09  2.372207E-09
         6  16 -1.028028E+07 -2.417816E+06 -9.084310E+05 -3.935237E+06  1.336236E-09 -3.626939E-09
         6  17 -1.229968E+07 -2.182732E+06 -1.231867E+06 -3.319581E+06  6.765727E-09 -9.163048E-09
         6  18 -1.285807E+07 -3.397417E+06 -1.568380E+06 -4.582632E+06  2.534369E-09 -8.678344E-09
         6  19 -3.973202E+06 -2.896339E+05  7.849148E+05 -2.528282E+06  3.110870E+04  3.236829E+04
         6  20 -3.403273E+06  8.861186E+05  1.156583E+06 -1.248000E+06 -1.042506E+03  7.983344E+04
         6  21 -1.371165E+06  6.160969E+05  1.519759E+06 -1.844585E+06 -3.016946E+04  1.147310E+05
         6  22 -7.131477E+06 -1.353768E+06 -6.131747E+04 -3.233336E+06  4.396646E+04  3.636624E+04
         6  23 -7.860946E+06 -6.484825E+05 -3.676502E+04 -2.287092E+06  9.118261E+03  8.311018E+04
         6  24 -7.130428E+06 -1.391052E+06 -2.284258E+04 -3.219283E+06 -2.265555E+04  1.172517E+05
         6  25 -1.028028E+07 -2.417813E+06 -9.084217E+05 -3.935235E+06  5.675308E+04  4.034264E+04
         6  26 -1.229968E+07 -2.182724E+06 -1.231852E+06 -3.319580E+06  1.919932E+04  8.636168E+04
         6  27 -1.285806E+07 -3.397402E+06 -1.568352E+06 -4.582634E+06 -1.521793E+04  1.197479E+05
         7   1  3.069718E+06  2.442663E+06  2.775118E+06 -4.685341E+05  3.800813E+04 -1.420021E+05
         7   2  2.861886E+06  2.946275E+06  2.838079E+06  9.144395E+04  5.923473E+04 -1.767616E+05
         7   3  4.008808E+06  2.977873E+06  3.072469E+06  7.604736E+04  6.901720E+04 -1.760650E+05
         7   4 -7.175542E+06 -1.148758E+06  2.410245E+04 -2.947589E+06  2.585049E+04 -1.462274E+05
         7   5 -7.849263E+06 -9.378700E+05 -5.931022E+04 -2.648258E+06  5.488451E+04 -1.785288E+05
         7   6 -7.176888E+06 -1.207338E+06  2.209940E+04 -2.926178E+06  7.236503E+04 -1.750865E+05
         7   7 -1.732104E+07 -4.737455E+06 -2.736145E+06 -5.390473E+06  1.391345E+04 -1.503820E+05
         7   8 -1.845084E+07 -4.817501E+06 -2.966957E+06 -5.345796E+06  5.061930E+04 -1.802694E+05
         7   9 -1.824279E+07 -5.385958E+06 -3.039644E+06 -5.879766E+06  7.564872E+04 -1.741355E+05
         7  10  3.069711E+06  2.442642E+06  2.775078E+06 -4.685298E+05  3.998209E-09  7.873417E-09
         7  11  2.861874E+06  2.946240E+06  2.838014E+06  9.145234E+04 -1.123258E-08  1.523296E-09
         7  12  4.008794E+06  2.977838E+06  3.072402E+06  7.605709E+04 -1.641968E-08  1.164020E-08
         7  13 -7.175549E+06 -1.148781E+06  2.406115E+04 -2.947586E+06 -4.865526E-09  5.133743E-09
         7  14 -7.849275E+06 -9.379049E+05 -5.937552E+04 -2.648250E+06  4.394360E-09  1.063065E-08
         7  15 -7.176902E+06 -1.207372E+06  2.203222E+04 -2.926167E+06  7.194746E-09  7.720100E-09
         7  16 -1.732105E+07 -4.737479E+06 -2.736188E+06 -5.390472E+06  1.607040E-10 -7.238787E-09
         7  17 -1.845085E+07 -4.817537E+06 -2.967023E+06 -5.345789E+06 -1.554151E-09 -1.479121E-08
         7  18 -1.824280E+07 -5.385992E+06 -3.039711E+06 -5.879756E+06  1.102173E-08 -4.974042E-09
         7  19  3.069718E+06  2.442663E+06  2.775118E+06 -4.685341E+05 -3.800813E+04  1.420021E+05
         7  20  2.861886E+06  2.946275E+06  2.838079E+06  9.144395E+04 -5.923473E+04  1.767616E+05
         7  21  4.008808E+06  2.977873E+06  3.072469E+06  7.604736E+04 -6.901720E+04  1.760650E+05
         7  22 -7.175542E+06 -1.148758E+06  2.410245E+04 -2.947589E+06 -2.585049E+04  1.462274E+05
         7  23 -7.849263E+06 -9.378700E+05 -5.931022E+04 -2.648258E+06 -5.488451E+04  1.785288E+05
         7  24 -7.176888E+06 -1.207338E+06  2.209940E+04 -2.926178E+06 -7.236503E+04  1.750865E+05
         7  25 -1.732104E+07 -4.737455E+06 -2.736145E+06 -5.390473E+06 -1.391345E+04  1.503820E+05
         7  26 -1.845084E+07 -4.817501E+06 -2.966957E+06 -5.345796E+06 -5.061930E+04  1.802694E+05
         7  27 -1.824279E+07 -5.385958E+06 -3.039644E+06 -5.879766E+06 -7.564872E+04  1.741355E+05
         8   1  3.822421E+06  3.374624E+06  3.114415E+06  5.052875E+05  6.382807E+04 -1.789939E+05
         8   2  3.176990E+06  2.903469E+06  2.892569E+06  9.819722E+03  7.276521E+04 -1.755619E+05
         8   3  2.631903E+06  3.254375E+06  2.850014E+06  4.241124E+05  6.681770E+04 -1.371871E+05
         8   4 -7.457817E+06 -9.169713E+05  2.420072E+04 -2.595752E+06  6.002870E+04 -1.807033E+05
         8   5 -7.500349E+06 -1.299638E+06 -6.113010E+04 -3.062249E+06  7.672397E+04 -1.742334E+05
         8   6 -7.453232E+06 -8.672751E+05  2.608742E+04 -2.618983E+06  7.842290E+04 -1.325213E+05
         8   7 -1.861587E+07 -5.201031E+06 -3.077680E+06 -5.646001E+06  5.630954E+04 -1.823863E+05
         8   8 -1.806763E+07 -5.494242E+06 -3.025493E+06 -6.086129E+06  8.060906E+04 -1.729379E+05
         8   9 -1.743974E+07 -4.979580E+06 -2.807578E+06 -5.616539E+06  8.981604E+04 -1.279473E+05
         8  10  3.822408E+06  3.374588E+06  3.114348E+06  5.052966E+05 -5.903924E-09  1.320921E-08
         8  11  3.176976E+06  2.903434E+06  2.892502E+06  9.829955E+03  2.423687E-09 -2.237497E-08
         8  12  2.631893E+06  3.254354E+06  2.849970E+06  4.241197E+05 -1.811149E-08  2.990367E-09
         8  13 -7.457830E+06 -9.170072E+05  2.413285E+04 -2.595744E+06 -3.594056E-09  7.793355E-09
         8  14 -7.500364E+06 -1.299672E+06 -6.119793E+04 -3.062238E+06  8.283809E-09 -1.268073E-08
         8  15 -7.453243E+06 -8.672955E+05  2.604301E+04 -2.618975E+06 -9.850215E-09  3.725156E-09
         8  16 -1.861588E+07 -5.201067E+06 -3.077748E+06 -5.645992E+06  4.445046E-09 -1.064813E-08
         8  17 -1.806764E+07 -5.494276E+06 -3.025561E+06 -6.086118E+06  1.711934E-08  1.122356E-09
         8  18 -1.743976E+07 -4.979599E+06 -2.807624E+06 -5.616530E+06  2.199517E-09  8.649882E-09
         8  19  3.822421E+06  3.374624E+06  3.114415E+06  5.052875E+05 -6.382807E+04  1.789939E+05
         8  20  3.176990E+06  2.903469E+06  2.892569E+06  9.819722E+03 -7.276521E+04  1.755619E+05
         8  21  2.631903E+06  3.254375E+06  2.850014E+06  4.241124E+05 -6.681770E+04  1.371871E+05
         8  22 -7.457817E+06 -9.169713E+05  2.420072E+04 -2.595752E+06 -6.002870E+04  1.807033E+05
         8  23 -7.500349E+06 -1.299638E+06 -6.113010E+04 -3.062249E+06 -7.672397E+04  1.742334E+05
         8  24 -7.453232E+06 -8.672751E+05  2.608742E+04 -2.618983E+06 -7.842290E+04  1.325213E+05
         8  25 -1.861587E+07 -5.201031E+06 -3.077680E+06 -5.646001E+06 -5.630954E+04  1.823863E+05
         8  26 -1.806763E+07 -5.494242E+06 -3.025493E+06 -6.086129E+06 -8.060906E+04  1.729379E+05
         8  27 -1.743974E+07 -4.979580E+06 -2.807578E+06 -5.616539E+06 -8.981604E+04  1.279473E+05
         9   1 -1.851241E+06  1.756964E+06  1.652596E+06 -6.118595E+05  5.487823E+04 -1.128948E+05
         9   2 -2.304765E+06  4.655733E+05  1.293896E+06 -1.809416E+06  5.363781E+04 -6.959847E+04
         9   3 -4.352759E+06  8.286632E+05  9.362545E+05 -1.342216E+06  4.561286E+04 -1.325648E+04
         9   4 -7.811882E+06 -7.055051E+05 -2.046134E+04 -2.429926E+06  6.163000E+04 -1.101010E+05
         9   5 -7.011391E+06 -1.511908E+06 -3.687635E+04 -3.272480E+06  6.323609E+04 -6.546986E+04
         9   6 -7.809406E+06 -6.645866E+05 -5.470436E+04 -2.450049E+06  5.806490E+04 -7.724711E+03
         9   7 -1.373781E+07 -3.164546E+06 -1.696937E+06 -4.231806E+06  6.830827E+04 -1.073392E+05
         9   8 -1.169633E+07 -3.487050E+06 -1.369808E+06 -4.725171E+06  7.275074E+04 -6.137793E+04
         9   9 -1.125432E+07 -2.156412E+06 -1.046855E+06 -3.552061E+06  7.043653E+04 -2.229311E+03
         9  10 -1.851247E+06  1.756950E+06  1.652566E+06 -6.118545E+05 -3.855844E-09  3.272257E-09
         9  11 -2.304769E+06  4.655674E+05  1.293882E+06 -1.809413E+06 -4.925575E-09  1.239674E-08
         9  12 -4.352761E+06  8.286624E+05  9.362503E+05 -1.342216E+06 -3.230007E-09 -1.097949E-08
         9  13 -7.811890E+06 -7.055191E+05 -2.049116E+04 -2.429921E+06  7.964151E-09  5.893252E-09
         9  14 -7.011396E+06 -1.511913E+06 -3.689188E+04 -3.272476E+06 -9.856694E-09  4.147519E-08
         9  15 -7.809410E+06 -6.645876E+05 -5.471088E+04 -2.450049E+06  6.948096E-09  2.484113E-09
         9  16 -1.373782E+07 -3.164560E+06 -1.696967E+06 -4.231800E+06 -6.830336E-09  4.854828E-09
         9  17 -1.169634E+07 -3.487055E+06 -1.369825E+06 -4.725167E+06  1.048587E-08 -4.331283E-09
         9  18 -1.125432E+07 -2.156413E+06 -1.046865E+06 -3.552061E+06  3.711945E-09 -9.029483E-09
         9  19 -1.851241E+06  1.756964E+06  1.652596E+06 -6.118595E+05 -5.487823E+04  1.128948E+05
         9  20 -2.304765E+06  4.655733E+05  1.293896E+06 -1.809416E+06 -5.363781E+04  6.959847E+04
         9  21 -4.352759E+06  8.286632E+05  9.362545E+05 -1.342216E+06 -4.561286E+04  1.325648E+04
         9  22 -7.811882E+06 -7.055051E+05 -2.046134E+04 -2.429926E+06 -6.163000E+04  1.101010E+05
         9  23 -7.011391E+06 -1.511908E+06 -3.687635E+04 -3.272480E+06 -6.323609E+04  6.546986E+04
         9  24 -7.809406E+06 -6.645866E+05 -5.470436E+04 -2.450049E+06 -5.806490E+04  7.724711E+03
         9  25 -1.373781E+07 -3.164546E+06 -1.696937E+06 -4.231806E+06 -6.830827E+04  1.073392E+05
         9  26 -1.169633E+07 -3.487050E+06 -1.369808E+06 -4.725171E+06 -7.275074E+04  6.137793E+04
         9  27 -1.125432E+07 -2.156412E+06 -1.046855E+06 -3.552061E+06 -7.043653E+04  2.229311E+03
        10   1 -1.027042E+07 -1.700827E+06 -7.784389E+05 -3.241996E+06  3.331855E+04  2.757441E+04
        10   2 -1.067519E+07 -3.065177E+06 -1.192317E+06 -4.441355E+06  8.596017E+04  1.150386E+05
        10   3 -1.287993E+07 -2.885888E+06 -1.714712E+06 -3.892213E+06  1.531743E+05  1.705178E+05
        10   4 -7.841666E+06 -6.359443E+05 -7.517762E+04 -2.453724E+06  4.893634E+04  3.453764E+04
        10   5 -6.957562E+06 -1.497983E+06 -1.356634E+05 -3.287739E+06  9.493631E+04  1.189330E+05
        10   6 -7.871724E+06 -8.144989E+05 -2.982438E+05 -2.374725E+06  1.556473E+05  1.715128E+05
        10   7 -5.407085E+06  4.296923E+05  6.274864E+05 -1.662503E+06  6.462454E+04  4.153341E+04
        10   8 -3.226282E+06  7.068084E+04  9.196327E+05 -2.127599E+06  1.039720E+05  1.228534E+05
        10   9 -2.838742E+06  1.259269E+06  1.115785E+06 -8.457681E+05  1.581362E+05  1.725149E+05
        10  10 -1.027042E+07 -1.700828E+06 -7.784425E+05 -3.241997E+06  8.886820E-09  2.866636E-09
        10  11 -1.067520E+07 -3.065194E+06 -1.192356E+06 -4.441363E+06 -1.974770E-09 -4.213418E-08
        10  12 -1.287996E+07 -2.885926E+06 -1.714813E+06 -3.892234E+06 -1.625048E-08 -2.949173E-09
        10  13 -7.841669E+06 -6.359463E+05 -7.518444E+04 -2.453725E+06  7.314993E-10 -1.033931E-08
        10  14 -6.957576E+06 -1.498001E+06 -1.357074E+05 -3.287748E+06 -7.542482E-09 -7.195089E-10
        10  15 -7.871758E+06 -8.145372E+05 -2.983455E+05 -2.374747E+06  1.350561E-09 -1.412079E-08
        10  16 -5.407090E+06  4.296893E+05  6.274752E+05 -1.662505E+06 -1.774923E-09  2.960371E-08
        10  17 -3.226298E+06  7.066169E+04  9.195838E+05 -2.127609E+06  4.530236E-10 -9.938167E-09
        10  18 -2.838777E+06  1.259230E+06  1.115682E+06 -8.457900E+05  1.475721E-08 -1.538125E-08
        10  19 -1.027042E+07 -1.700827E+06 -7.784389E+05 -3.241996E+06 -3.331855E+04 -2.757441E+04
        10  20 -1.067519E+07 -3.065177E+06 -1.192317E+06 -4.441355E+06 -8.596017E+04 -1.150386E+05
        10  21 -1.287993E+07 -2.885888E+06 -1.714712E+06 -3.892213E+06 -1.531743E+05 -1.705178E+05
        10  22 -7.841666E+06 -6.359443E+05 -7.517762E+04 -2.453724E+06 -4.893634E+04 -3.453764E+04
        10  23 -6.957562E+06 -1.497983E+06 -1.356634E+05 -3.287739E+06 -9.493631E+04 -1.189330E+05
        10  24 -7.871724E+06 -8.144989E+05 -2.982438E+05 -2.374725E+06 -1.556473E+05 -1.715128E+05
        10  25 -5.407085E+06  4.296923E+05  6.274864E+05 -1.662503E+06 -6.462454E+04 -4.153341E+04
        10  26 -3.226282E+06  7.068084E+04  9.196327E+05 -2.127599E+06 -1.039720E+05 -1.228534E+05
        10  27 -2.838742E+06  1.259269E+06  1.115785E+06 -8.457681E+05 -1.581362E+05 -1.725149E+05
        11   1 -1.695997E+07 -4.785977E+06 -3.006808E+06 -5.557986E+06  1.478540E+05  2.234680E+05
        11   2 -1.746165E+07 -5.150095E+06 -3.466084E+06 -6.042492E+06  4.862311E+05  4.173276E+05
        11   3 -1.864838E+07 -5.903015E+06 -4.399260E+06 -5.140411E+06  8.981498E+05  4.266541E+05
        11   4 -7.568344E+06 -8.093472E+05 -3.206081E+05 -2.639756E+06  1.803552E+05  2.370927E+05
        11   5 -7.312753E+06 -1.123468E+06 -6.229608E+05 -3.137274E+06  4.838846E+05  4.160670E+05
        11   6 -7.718990E+06 -1.800918E+06 -1.361940E+06 -2.250660E+06  8.609008E+05  4.118370E+05
        11   7  1.910654E+06  3.177004E+06  2.356846E+06  3.206529E+05  2.133938E+05  2.509574E+05
        11   8  2.937698E+06  2.910916E+06  2.210339E+06 -1.877382E+05  4.814121E+05  4.147601E+05
        11   9  3.327319E+06  2.306761E+06  1.664234E+06  6.853884E+05  8.227601E+05  3.967043E+05
        11  10 -1.696001E+07 -4.786037E+06 -3.006945E+06 -5.558013E+06  8.158417E-12 -2.038913E-09
        11  11 -1.746196E+07 -5.150351E+06 -3.466878E+06 -6.042658E+06  8.290666E-09 -3.546347E-09
        11  12 -1.864932E+07 -5.903441E+06 -4.401179E+06 -5.140726E+06  6.095860E-09 -1.025831E-10
        11  13 -7.568394E+06 -8.094165E+05 -3.207762E+05 -2.639790E+06  1.628961E-09 -5.094464E-09
        11  14 -7.313054E+06 -1.123719E+06 -6.237357E+05 -3.137438E+06 -1.528542E-08  2.564275E-08
        11  15 -7.719841E+06 -1.801304E+06 -1.363675E+06 -2.250948E+06  2.257696E-09 -2.057234E-09
        11  16  1.910589E+06  3.176924E+06  2.356643E+06  3.206100E+05  1.225964E-08 -8.077255E-09
        11  17  2.937404E+06  2.910670E+06  2.209583E+06 -1.878983E+05  2.517728E-09  1.687238E-08
        11  18  3.326554E+06  2.306413E+06  1.662675E+06  6.851268E+05 -3.366924E-09  3.472373E-09
        11  19 -1.695997E+07 -4.785977E+06 -3.006808E+06 -5.557986E+06 -1.478540E+05 -2.234680E+05
        11  20 -1.746165E+07 -5.150095E+06 -3.466084E+06 -6.042492E+06 -4.862311E+05 -4.173276E+05
        11  21 -1.864838E+07 -5.903015E+06 -4.399260E+06 -5.140411E+06 -8.981498E+05 -4.266541E+05
        11  22 -7.568344E+06 -8.093472E+05 -3.206081E+05 -2.639756E+06 -1.803552E+05 -2.370927E+05
        11  23 -7.312753E+06 -1.123468E+06 -6.229608E+05 -3.137274E+06 -4.838846E+05 -4.160670E+05
        11  24 -7.718990E+06 -1.800918E+06 -1.361940E+06 -2.250660E+06 -8.609008E+05 -4.118370E+05
        11  25  1.910654E+06  3.177004E+06  2.356846E+06  3.206529E+05 -2.133938E+05 -2.509574E+05
        11  26  2.937698E+06  2.910916E+06  2.210339E+06 -1.877382E+05 -4.814121E+05 -4.147601E+05
        11  27  3.327319E+06  2.306761E+06  1.664234E+06  6.853884E+05 -8.227601E+05 -3.967043E+05
        12   1  1.320670E+05  1.446430E+04  1.406342E+05 -4.674192E+03  1.591327E+03 -1.031496E+03
        12   2  1.288932E+05 -6.325708E+03  1.378473E+05  3.758498E+03  1.769526E+03 -5.376552E+03
        12   3  1.363108E+05  9.496254E+03  1.472203E+05 -7.168595E+03  1.291635E+03 -9.725829E+03
        12   4  7.420187E+02 -5.107434E+05  9.349821E+03 -4.315555E+03  1.591434E+03 -1.054983E+03
        12   5 -1.823187E+03 -5.290593E+05  7.181852E+03  5.387965E+03  1.769571E+03 -5.365356E+03
        12   6  6.189454E+03 -5.107826E+05  1.715153E+04 -4.269249E+03  1.291353E+03 -9.679968E+03
        12   7 -1.306038E+05 -1.035701E+06 -1.219554E+05 -3.957160E+03  1.591541E+03 -1.078450E+03
        12   8 -1.325602E+05 -1.051545E+06 -1.235042E+05  7.016323E+03  1.769615E+03 -5.354169E+03
        12   9 -1.239524E+05 -1.030816E+06 -1.129377E+05 -1.371870E+03  1.291072E+03 -9.634143E+03
        12  10  1.320670E+05  1.446430E+04  1.406342E+05 -4.674191E+03 -8.295573E-09 -1.752971E-10
        12  11  1.288932E+05 -6.325740E+03  1.378472E+05  3.758506E+03  2.121794E-09 -1.379349E-09
        12  12  1.363108E+05  9.496152E+03  1.472202E+05 -7.168585E+03  4.786657E-09 -8.302566E-10
        12  13  7.420157E+02 -5.107434E+05  9.349814E+03 -4.315554E+03 -7.827567E-09 -5.272274E-10
        12  14 -1.823198E+03 -5.290593E+05  7.181791E+03  5.387973E+03 -4.275505E-09 -2.106833E-11
        12  15  6.189427E+03 -5.107827E+05  1.715135E+04 -4.269239E+03 -6.072308E-10 -4.605708E-09
        12  16 -1.306038E+05 -1.035701E+06 -1.219554E+05 -3.957158E+03  7.839793E-09  1.398105E-10
        12  17 -1.325602E+05 -1.051545E+06 -1.235043E+05  7.016330E+03 -6.694754E-09  1.896697E-09
        12  18 -1.239524E+05 -1.030816E+06 -1.129379E+05 -1.371860E+03  6.646013E-09 -7.033055E-10
        12  19  1.320670E+05  1.446430E+04  1.406342E+05 -4.674192E+03 -1.591327E+03  1.031496E+03
        12  20  1.288932E+05 -6.325708E+03  1.378473E+05  3.758498E+03 -1.769526E+03  5.376552E+03
        12  21  1.363108E+05  9.496254E+03  1.472203E+05 -7.168595E+03 -1.291635E+03  9.725829E+03
        12  22  7.420187E+02 -5.107434E+05  9.349821E+03 -4.315555E+03 -1.591434E+03  1.054983E+03
        12  23 -1.823187E+03 -5.290593E+05  7.181852E+03  5.387965E+03 -1.769571E+03  5.365356E+03
        12  24  6.189454E+03 -5.107826E+05  1.715153E+04 -4.269249E+03 -1.291353E+03  9.679968E+03
        12  25 -1.306038E+05 -1.035701E+06 -1.219554E+05 -3.957160E+03 -1.591541E+03  1.078450E+03
        12  26 -1.325602E+05 -1.051545E+06 -1.235042E+05  7.016323E+03 -1.769615E+03  5.354169E+03
        12  27 -1.239524E+05 -1.030816E+06 -1.129377E+05 -1.371870E+03 -1.291072E+03  9.634143E+03
        13   1  3.615302E+04 -3.632842E+05  5.650079E+04 -1.128630E+04  9.474497E+02 -1.315541E+04
        13   2  2.943046E+04 -3.761157E+05  6.556776E+04  1.135584E+04  7.368093E+02 -2.833926E+04
        13   3  6.617375E+04 -3.745152E+05  9.570803E+04 -9.649471E+03  5.361212E+02 -4.352375E+04
        13   4 -1.968100E+03 -5.156313E+05  1.841779E+04 -9.817241E+03  9.472863E+02 -1.313650E+04
        13   5 -7.276401E+03 -5.228541E+05  2.887859E+04  1.217945E+04  7.366181E+02 -2.831770E+04
        13   6  3.088580E+04 -5.156430E+05  6.041409E+04 -9.471919E+03  5.359326E+02 -4.349968E+04
        13   7 -4.009097E+04 -6.679574E+05 -1.966696E+04 -8.348494E+03  9.471230E+02 -1.311761E+04
        13   8 -4.398489E+04 -6.695730E+05 -7.812196E+03  1.300292E+04  7.364269E+02 -2.829616E+04
        13   9 -4.403663E+03 -6.567528E+05  2.511865E+04 -9.294360E+03  5.357440E+02 -4.347561E+04
        13  10  3.615297E+04 -3.632844E+05  5.650047E+04 -1.128629E+04 -3.241325E-09 -5.542799E-10
        13  11  2.943024E+04 -3.761165E+05  6.556625E+04  1.135585E+04 -1.567901E-08 -3.623213E-09
        13  12  6.617325E+04 -3.745172E+05  9.570446E+04 -9.649452E+03 -1.108543E-08 -2.066319E-09
        13  13 -1.968147E+03 -5.156315E+05  1.841747E+04 -9.817231E+03 -4.916337E-09 -4.722894E-09
        13  14 -7.276617E+03 -5.228550E+05  2.887709E+04  1.217947E+04 -1.395614E-08 -2.594154E-11
        13  15  3.088529E+04 -5.156451E+05  6.041053E+04 -9.471900E+03 -1.570174E-08 -6.526984E-09
        13  16 -4.009101E+04 -6.679576E+05 -1.966729E+04 -8.348484E+03 -1.828657E-11  5.939095E-10
        13  17 -4.398510E+04 -6.695738E+05 -7.813703E+03  1.300294E+04  8.040070E-09  4.838775E-09
        13  18 -4.404172E+03 -6.567549E+05  2.511509E+04 -9.294341E+03 -3.573456E-09 -1.941891E-10
        13  19  3.615302E+04 -3.632842E+05  5.650079E+04 -1.128630E+04 -9.474497E+02  1.315541E+04
        13  20  2.943046E+04 -3.761157E+05  6.556776E+04  1.135584E+04 -7.368093E+02  2.833926E+04
        13  21  6.617375E+04 -3.745152E+05  9.570803E+04 -9.649471E+03 -5.361212E+02  4.352375E+04
        13  22 -1.968100E+03 -5.156313E+05  1.841779E+04 -9.817241E+03 -9.472863E+02  1.313650E+04
        13  23 -7.276401E+03 -5.228541E+05  2.887859E+04  1.217945E+04 -7.366181E+02  2.831770E+04
        13  24  3.088580E+04 -5.156430E+05  6.041409E+04 -9.471919E+03 -5.359326E+02  4.349968E+04
        13  25 -4.009097E+04 -6.679574E+05 -1.966696E+04 -8.348494E+03 -9.471230E+02  1.311761E+04
        13  26 -4.398489E+04 -6.695730E+05 -7.812196E+03  1.300292E+04 -7.364269E+02  2.829616E+04
        13  27 -4.403663E+03 -6.567528E+05  2.511865E+04 -9.294360E+03 -5.357440E+02  4.347561E+04
        14   1 -8.806566E+04 -8.277642E+05 -8.947245E+03 -9.322363E+03  2.598205E+01 -5.584556E+04
        14   2 -1.318026E+05 -8.790193E+05  2.579018E+04  1.400943E+04 -3.503866E+02 -1.159247E+05
        14   3  1.136416E+05 -8.371209E+05  1.745964E+05  8.137591E+02  5.536990E+02 -1.759916E+05
        14   4 -5.667824E+03 -4.982026E+05  7.347520E+04 -8.605738E+03  2.511111E+01 -5.578777E+04
        14   5 -4.810830E+04 -5.447059E+05  1.094027E+05  1.029041E+04 -3.497684E+02 -1.159567E+05
        14   6  1.985687E+05 -4.980777E+05  2.594188E+05 -7.340180E+03  5.563365E+02 -1.761140E+05
        14   7  7.672182E+04 -1.685425E+05  1.558894E+05 -7.888478E+03  2.424053E+01 -5.572994E+04
        14   8  3.557761E+04 -2.102910E+05  1.930067E+05  6.569594E+03 -3.491501E+02 -1.159888E+05
        14   9  2.834874E+05 -1.589302E+05  3.442326E+05 -1.549842E+04  5.589759E+02 -1.762364E+05
        14  10 -8.806650E+04 -8.277676E+05 -8.953114E+03 -9.322362E+03 -6.267240E-09  4.499667E-10
        14  11 -1.318062E+05 -8.790337E+05  2.576489E+04  1.400940E+04 -2.692985E-09 -2.777718E-09
        14  12  1.136333E+05 -8.371542E+05  1.745381E+05  8.138376E+02 -5.157741E-09 -2.107091E-09
        14  13 -5.668660E+03 -4.982060E+05  7.346935E+04 -8.605737E+03 -8.983316E-09 -5.480936E-09
        14  14 -4.811192E+04 -5.447203E+05  1.093774E+05  1.029038E+04 -6.295088E-09  2.656667E-11
        14  15  1.985604E+05 -4.981111E+05  2.593605E+05 -7.340101E+03 -4.926289E-09 -3.682264E-09
        14  16  7.672098E+04 -1.685458E+05  1.558836E+05 -7.888477E+03 -4.661493E-09 -2.540261E-10
        14  17  3.557400E+04 -2.103055E+05  1.929815E+05  6.569561E+03  1.503247E-09  3.773457E-09
        14  18  2.834790E+05 -1.589635E+05  3.441742E+05 -1.549834E+04 -3.384001E-09  9.218136E-10
        14  19 -8.806566E+04 -8.277642E+05 -8.947245E+03 -9.322363E+03 -2.598205E+01  5.584556E+04
        14  20 -1.318026E+05 -8.790193E+05  2.579018E+04  1.400943E+04  3.503866E+02  1.159247E+05
        14  21  1.136416E+05 -8.371209E+05  1.745964E+05  8.137591E+02 -5.536990E+02  1.759916E+05
        14  22 -5.667824E+03 -4.982026E+05  7.347520E+04 -8.605738E+03 -2.511111E+01  5.578777E+04
        14  23 -4.810830E+04 -5.447059E+05  1.094027E+05  1.029041E+04  3.497684E+02  1.159567E+05
        14  24  1.985687E+05 -4.980777E+05  2.594188E+05 -7.340180E+03 -5.563365E+02  1.761140E+05
        14  25  7.672182E+04 -1.685425E+05  1.558894E+05 -7.888478E+03 -2.424053E+01  5.572994E+04
        14  26  3.557761E+04 -2.102910E+05  1.930067E+05  6.569594E+03  3.491501E+02  1.159888E+05
        14  27  2.834874E+05 -1.589302E+05  3.442326E+05 -1.549842E+04 -5.589759E+02  1.762364E+05
        15   1  2.372860E+05 -4.522234E+05  2.275676E+05 -4.384205E+02  3.406273E+04 -2.326313E+01
        15   2  2.366473E+05 -4.550011E+05  2.269906E+05 -3.629300E+01  3.399878E+04 -2.901142E+02
        15   3  2.362293E+05 -4.569013E+05  2.268109E+05 -1.180807E+03  3.377237E+04 -5.573051E+02
        15   4 -1.531251E+02 -1.411247E+06  3.473772E+02 -3.437614E+02  3.406628E+04 -3.313709E+01
        15   5 -2.098484E+02 -1.411677E+06  3.333273E+02  4.297196E+02  3.400226E+04 -2.061830E+02
        15   6 -6.262129E+01 -1.411246E+06  6.515316E+02 -3.435760E+02  3.377566E+04 -3.795685E+02
        15   7 -2.376584E+05 -2.369424E+06 -2.269369E+05 -2.492182E+02  3.406983E+04 -4.299584E+01
        15   8 -2.371329E+05 -2.367510E+06 -2.263876E+05  8.951455E+02  3.400573E+04 -1.223804E+02
        15   9 -2.364200E+05 -2.364752E+06 -2.255712E+05  4.926004E+02  3.377895E+04 -2.021035E+02
        15  10  2.372847E+05 -4.522237E+05  2.275654E+05 -4.384199E+02 -5.162470E-09 -2.896203E-09
        15  11  2.366461E+05 -4.550014E+05  2.269884E+05 -3.628506E+01  1.348573E-09  3.519724E-09
        15  12  2.362280E+05 -4.569016E+05  2.268087E+05 -1.180791E+03  1.312548E-09  1.037036E-08
        15  13 -1.543704E+02 -1.411247E+06  3.451978E+02 -3.437605E+02  2.234318E-10  1.251716E-10
        15  14 -2.110891E+02 -1.411677E+06  3.311561E+02  4.297252E+02 -2.146926E-10  2.376336E-11
        15  15 -6.384553E+01 -1.411246E+06  6.493889E+02 -3.435657E+02 -2.474856E-09  4.214790E-10
        15  16 -2.376597E+05 -2.369424E+06 -2.269390E+05 -2.492170E+02  8.825817E-09  2.879525E-09
        15  17 -2.371341E+05 -2.367510E+06 -2.263898E+05  8.951489E+02 -9.632954E-09 -4.907477E-09
        15  18 -2.364213E+05 -2.364752E+06 -2.255733E+05  4.926059E+02 -4.609881E-09 -1.069357E-08
        15  19  2.372860E+05 -4.522234E+05  2.275676E+05 -4.384205E+02 -3.406273E+04  2.326313E+01
        15  20  2.366473E+05 -4.550011E+05  2.269906E+05 -3.629300E+01 -3.399878E+04  2.901142E+02
        15  21  2.362293E+05 -4.569013E+05  2.268109E+05 -1.180807E+03 -3.377237E+04  5.573051E+02
        15  22 -1.531251E+02 -1.411247E+06  3.473772E+02 -3.437614E+02 -3.406628E+04  3.313709E+01
        15  23 -2.098484E+02 -1.411677E+06  3.333273E+02  4.297196E+02 -3.400226E+04  2.061830E+02
        15  24 -6.262129E+01 -1.411246E+06  6.515316E+02 -3.435760E+02 -3.377566E+04  3.795685E+02
        15  25 -2.376584E+05 -2.369424E+06 -2.269369E+05 -2.492182E+02 -3.406983E+04  4.299584E+01
        15  26 -2.371329E+05 -2.367510E+06 -2.263876E+05  8.951455E+02 -3.400573E+04  1.223804E+02
        15  27 -2.364200E+05 -2.364752E+06 -2.255712E+05  4.926004E+02 -3.377895E+04  2.021035E+02
        16   1  2.347218E+05 -4.623064E+05  2.255754E+05 -2.175656E+03  3.382409E+04 -3.314307E+02
        16   2  2.328785E+05 -4.699203E+05  2.243670E+05 -1.772766E+01  3.346621E+04 -1.741009E+03
        16   3  2.323971E+05 -4.762667E+05  2.245761E+05 -2.471939E+03  3.176045E+04 -3.154463E+03
        16   4 -1.996089E+02 -1.411183E+06  8.029660E+02 -1.025575E+03  3.382783E+04 -5.116017E+02
        16   5 -3.076262E+02 -1.411747E+06  1.222203E+03  1.281864E+03  3.346847E+04 -1.144139E+03
        16   6  8.117580E+02 -1.411179E+06  2.519633E+03 -1.023274E+03  3.176030E+04 -1.780568E+03
        16   7 -2.351858E+05 -2.359230E+06 -2.240321E+05  1.230362E+02  3.383158E+04 -6.914980E+02
        16   8 -2.335576E+05 -2.352757E+06 -2.219843E+05  2.579864E+03  3.347073E+04 -5.481688E+02
        16   9 -2.308366E+05 -2.345286E+06 -2.195979E+05  4.236848E+02  3.176016E+04 -4.087311E+02
        16  10  2.347206E+05 -4.623067E+05  2.255733E+05 -2.175647E+03  4.512425E-10 -1.289947E-09
        16  11  2.328773E+05 -4.699206E+05  2.243649E+05 -1.768074E+01 -2.629695E-09 -8.621090E-09
        16  12  2.323960E+05 -4.762670E+05  2.245742E+05 -2.471858E+03  3.134389E-09 -8.360932E-09
        16  13 -2.008369E+02 -1.411183E+06  8.008165E+02 -1.025561E+03 -8.053108E-09  9.301383E-10
        16  14 -3.088286E+02 -1.411747E+06  1.220097E+03  1.281895E+03 -7.978024E-09  9.741466E-11
        16  15  8.106747E+02 -1.411179E+06  2.517733E+03 -1.023228E+03 -6.822448E-09  7.504540E-10
        16  16 -2.351871E+05 -2.359230E+06 -2.240343E+05  1.230550E+02  2.651912E-09  2.078784E-09
        16  17 -2.335588E+05 -2.352757E+06 -2.219865E+05  2.579879E+03 -4.209053E-09  4.390669E-09
        16  18 -2.308377E+05 -2.345287E+06 -2.195998E+05  4.236952E+02 -2.018486E-09  7.553245E-09
        16  19  2.347218E+05 -4.623064E+05  2.255754E+05 -2.175656E+03 -3.382409E+04  3.314307E+02
        16  20  2.328785E+05 -4.699203E+05  2.243670E+05 -1.772766E+01 -3.346621E+04  1.741009E+03
        16  21  2.323971E+05 -4.762667E+05  2.245761E+05 -2.471939E+03 -3.176045E+04  3.154463E+03
        16  22 -1.996089E+02 -1.411183E+06  8.029660E+02 -1.025575E+03 -3.382783E+04  5.116017E+02
        16  23 -3.076262E+02 -1.411747E+06  1.222203E+03  1.281864E+03 -3.346847E+04  1.144139E+03
        16  24  8.117580E+02 -1.411179E+06  2.519633E+03 -1.023274E+03 -3.176030E+04  1.780568E+03
        16  25 -2.351858E+05 -2.359230E+06 -2.240321E+05  1.230362E+02 -3.383158E+04  6.914980E+02
        16  26 -2.335576E+05 -2.352757E+06 -2.219843E+05  2.579864E+03 -3.347073E+04  5.481688E+02
        16  27 -2.308366E+05 -2.345286E+06 -2.195979E+05  4.236848E+02 -3.176016E+04  4.087311E+02
        17   1  2.280768E+05 -4.863142E+05  2.215280E+05 -5.074415E+03  3.420769E+04  2.420376E+03
        17   2  2.244301E+05 -5.006149E+05  2.209281E+05  1.120273E+03  3.230533E+04 -1.178699E+04
        17   3  2.347020E+05 -5.089315E+05  2.332003E+05 -7.985861E+02  1.029700E+04 -2.607030E+04
        17   4 -6.642483E+02 -1.410543E+06  3.064182E+03 -1.813546E+03  3.422389E+04 -2.246905E+03
        17   5 -1.360756E+03 -1.412525E+06  4.818035E+03  2.261898E+03  3.228634E+04 -4.873495E+03
        17   6  9.858468E+03 -1.410531E+06  1.139959E+04 -1.777207E+03  1.022974E+04 -7.576355E+03
        17   7 -2.294666E+05 -2.333985E+06 -2.154588E+05  1.442970E+03  3.424006E+04 -6.907270E+03
        17   8 -2.272115E+05 -2.323669E+06 -2.113497E+05  3.402444E+03  3.226737E+04  2.029896E+03
        17   9 -2.150455E+05 -2.311389E+06 -2.104598E+05 -2.753723E+03  1.016238E+04  1.089076E+04
        17  10  2.280756E+05 -4.863146E+05  2.215258E+05 -5.074481E+03 -9.207915E-11 -1.684570E-09
        17  11  2.244290E+05 -5.006153E+05  2.209258E+05  1.120580E+03  3.507001E-09 -5.982190E-09
        17  12  2.347017E+05 -5.089323E+05  2.331988E+05 -7.983700E+02 -2.298125E-09 -2.679521E-09
        17  13 -6.655066E+02 -1.410543E+06  3.061973E+03 -1.813484E+03 -1.339776E-10  1.294397E-09
        17  14 -1.361881E+03 -1.412525E+06  4.816033E+03  2.262025E+03 -4.774881E-09 -1.696792E-10
        17  15  9.858340E+03 -1.410531E+06  1.139928E+04 -1.777145E+03 -3.574906E-09  1.250509E-09
        17  16 -2.294679E+05 -2.333986E+06 -2.154610E+05  1.443161E+03 -1.333839E-09  3.367767E-09
        17  17 -2.272126E+05 -2.323669E+06 -2.113517E+05  3.402392E+03 -8.272187E-09 -7.854501E-10
        17  18 -2.150456E+05 -2.311389E+06 -2.104602E+05 -2.753812E+03 -8.696584E-09  1.564905E-09
        17  19  2.280768E+05 -4.863142E+05  2.215280E+05 -5.074415E+03 -3.420769E+04 -2.420376E+03
        17  20  2.244301E+05 -5.006149E+05  2.209281E+05  1.120273E+03 -3.230533E+04  1.178699E+04
        17  21  2.347020E+05 -5.089315E+05  2.332003E+05 -7.985861E+02 -1.029700E+04  2.607030E+04
        17  22 -6.642483E+02 -1.410543E+06  3.064182E+03 -1.813546E+03 -3.422389E+04  2.246905E+03
        17  23 -1.360756E+03 -1.412525E+06  4.818035E+03  2.261898E+03 -3.228634E+04  4.873495E+03
        17  24  9.858468E+03 -1.410531E+06  1.139959E+04 -1.777207E+03 -1.022974E+04  7.576355E+03
        17  25 -2.294666E+05 -2.333985E+06 -2.154588E+05  1.442970E+03 -3.424006E+04  6.907270E+03
        17  26 -2.272115E+05 -2.323669E+06 -2.113497E+05  3.402444E+03 -3.226737E+04 -2.029896E+03
        17  27 -2.150455E+05 -2.311389E+06 -2.104598E+05 -2.753723E+03 -1.016238E+04 -1.089076E+04
        18   1  8.442657E+04  9.278400E+05  4.742533E+04 -3.611581E+00  2.963530E+04  2.265395E-01
        18   2  8.443133E+04  9.278616E+05  4.743281E+04 -2.103060E+01  2.963641E+04 -5.031755E+00
        18   3  8.443716E+04  9.278917E+05  4.744639E+04 -3.565633E+01  2.963864E+04 -1.028976E+01
        18   4 -2.846965E+01  5.526500E+05  1.414679E+01  6.209917E-01  2.963719E+04 -1.103966E+00
        18   5 -2.987153E+01  5.526455E+05  1.685038E+01 -7.754301E-01  2.963831E+04 -9.039917E+00
        18   6 -2.974978E+01  5.526500E+05  2.751238E+01  6.220949E-01  2.964053E+04 -1.697562E+01
        18   7 -8.448924E+04  1.776044E+05 -4.739748E+04  4.851365E+00  2.963908E+04 -2.433709E+00
        18   8 -8.449681E+04  1.775739E+05 -4.739956E+04  1.946905E+01  2.964020E+04 -1.304578E+01
        18   9 -8.450239E+04  1.775528E+05 -4.739181E+04  3.688133E+01  2.964243E+04 -2.365764E+01
        18  10  8.442563E+04  9.278398E+05  4.742368E+04 -3.611587E+00  1.602105E-09  8.034082E-08
        18  11  8.443039E+04  9.278614E+05  4.743116E+04 -2.103048E+01 -5.008633E-09 -2.338997E-08
        18  12  8.443622E+04  9.278915E+05  4.744474E+04 -3.565608E+01 -7.104312E-09 -1.255253E-07
        18  13 -2.941311E+01  5.526498E+05  1.249574E+01  6.210179E-01 -1.706449E-09 -1.842801E-11
        18  14 -3.081506E+01  5.526453E+05  1.519921E+01 -7.752143E-01 -5.006327E-09 -1.331853E-10
        18  15 -3.069345E+01  5.526498E+05  2.586097E+01  6.225002E-01 -6.187384E-09  1.539883E-10
        18  16 -8.449018E+04  1.776042E+05 -4.739914E+04  4.851423E+00 -1.629764E-09 -8.033430E-08
        18  17 -8.449775E+04  1.775736E+05 -4.740121E+04  1.946936E+01 -8.598512E-10  2.332290E-08
        18  18 -8.450333E+04  1.775525E+05 -4.739346E+04  3.688189E+01  3.821518E-09  1.255151E-07
        18  19  8.442657E+04  9.278400E+05  4.742533E+04 -3.611581E+00 -2.963530E+04 -2.265393E-01
        18  20  8.443133E+04  9.278616E+05  4.743281E+04 -2.103060E+01 -2.963641E+04  5.031755E+00
        18  21  8.443716E+04  9.278917E+05  4.744639E+04 -3.565633E+01 -2.963864E+04  1.028976E+01
        18  22 -2.846965E+01  5.526500E+05  1.414679E+01  6.209915E-01 -2.963719E+04  1.103966E+00
        18  23 -2.987153E+01  5.526455E+05  1.685038E+01 -7.754300E-01 -2.963831E+04  9.039917E+00
        18  24 -2.974978E+01  5.526500E+05  2.751238E+01  6.220953E-01 -2.964053E+04  1.697562E+01
        18  25 -8.448924E+04  1.776044E+05 -4.739748E+04  4.851365E+00 -2.963908E+04  2.433709E+00
        18  26 -8.449681E+04  1.775739E+05 -4.739956E+04  1.946905E+01 -2.964020E+04  1.304578E+01
        18  27 -8.450239E+04  1.775528E+05 -4.739181E+04  3.688133E+01 -2.964243E+04  2.365764E+01
        19   1  8.444384E+04  9.279241E+05  4.745913E+04 -4.262654E+01  2.964066E+04 -1.315890E+01
        19   2  8.445871E+04  9.279952E+05  4.749739E+04 -6.757592E+01  2.964400E+04 -4.464058E+01
        19   3  8.447610E+04  9.280786E+05  4.755917E+04 -8.028363E+01  2.964635E+04 -7.612158E+01
        19   4 -3.038895E+01  5.526507E+05  3.545546E+01  2.721836E+00  2.964255E+04 -2.234070E+01
        19   5 -3.371679E+01  5.526447E+05  5.968912E+01 -3.398970E+00  2.964589E+04 -5.144868E+01
        19   6 -3.494280E+01  5.526506E+05  1.058032E+02  2.722307E+00  2.964825E+04 -8.055599E+01
        19   7 -8.451035E+04  1.775216E+05 -4.738867E+04  4.804624E+01  2.964444E+04 -3.151722E+01
        19   8 -8.453188E+04  1.774387E+05 -4.737846E+04  6.074373E+01  2.964778E+04 -5.825287E+01
        19   9 -8.455172E+04  1.773673E+05 -4.734801E+04  8.568372E+01  2.965014E+04 -8.498783E+01
        19  10  8.444289E+04  9.279239E+05  4.745748E+04 -4.262623E+01 -2.749170E-09  5.957192E-08
        19  11  8.445777E+04  9.279950E+05  4.749574E+04 -6.757486E+01  1.045607E-09  2.482513E-08
        19  12  8.447516E+04  9.280783E+05  4.755752E+04 -8.028182E+01 -1.899885E-09 -1.054524E-08
        19  13 -3.133274E+01  5.526504E+05  3.380382E+01  2.722369E+00 -3.882502E-09  1.525242E-10
        19  14 -3.466079E+01  5.526445E+05  5.803711E+01 -3.397741E+00 -5.612123E-10 -4.255740E-10
        19  15 -3.588696E+01  5.526504E+05  1.041509E+02  2.724230E+00 -5.012909E-09  3.049511E-10
        19  16 -8.451129E+04  1.775214E+05 -4.739032E+04  4.804699E+01 -2.744116E-09 -5.976729E-08
        19  17 -8.453282E+04  1.774385E+05 -4.738011E+04  6.074512E+01  3.816351E-10 -2.498207E-08
        19  18 -8.455267E+04  1.773670E+05 -4.734967E+04  8.568574E+01  1.507067E-09  1.059072E-08
        19  19  8.444384E+04  9.279241E+05  4.745913E+04 -4.262654E+01 -2.964066E+04  1.315890E+01
        19  20  8.445871E+04  9.279952E+05  4.749739E+04 -6.757592E+01 -2.964400E+04  4.464058E+01
        19  21  8.447610E+04  9.280786E+05  4.755917E+04 -8.028363E+01 -2.964635E+04  7.612158E+01
        19  22 -3.038895E+01  5.526507E+05  3.545546E+01  2.721836E+00 -2.964255E+04  2.234070E+01
        19  23 -3.371679E+01  5.526447E+05  5.968912E+01 -3.398970E+00 -2.964589E+04  5.144868E+01
        19  24 -3.494280E+01  5.526506E+05  1.058032E+02  2.722307E+00 -2.964825E+04  8.055599E+01
        19  25 -8.451035E+04  1.775216E+05 -4.738867E+04  4.804624E+01 -2.964444E+04  3.151722E+01
        19  26 -8.453188E+04  1.774387E+05 -4.737846E+04  6.074373E+01 -2.964778E+04  5.825287E+01
        19  27 -8.455172E+04  1.773673E+05 -4.734801E+04  8.568372E+01 -2.965014E+04  8.498783E+01
        20   1  8.449000E+04  9.281467E+05  4.760628E+04 -9.082155E+01  2.964826E+04 -9.671127E+01
        20   2  8.451875E+04  9.282586E+05  4.775016E+04 -1.240255E+02  2.964229E+04 -2.569306E+02
        20   3  8.456779E+04  9.284041E+05  4.800574E+04 -1.367191E+02  2.961953E+04 -4.171534E+02
        20   4 -3.666551E+01  5.526539E+05  1.396698E+02  4.558814E+00  2.965016E+04 -1.023744E+02
        20   5 -4.109778E+01  5.526406E+05  2.428677E+02 -5.695357E+00  2.964417E+04 -2.221955E+02
        20   6 -3.222874E+01  5.526538E+05  4.297666E+02  4.560835E+00  2.962140E+04 -3.420205E+02
        20   7 -8.456907E+04  1.773056E+05 -4.732739E+04  9.988776E+01  2.965205E+04 -1.080343E+02
        20   8 -8.460669E+04  1.771672E+05 -4.726489E+04  1.125705E+02  2.964605E+04 -1.874802E+02
        20   9 -8.463800E+04  1.770483E+05 -4.714668E+04  1.457635E+02  2.962326E+04 -2.669307E+02
        20  10  8.448906E+04  9.281465E+05  4.760462E+04 -9.081924E+01 -4.024032E-10 -7.552617E-10
        20  11  8.451780E+04  9.282584E+05  4.774851E+04 -1.240194E+02  7.707274E-09  9.947112E-10
        20  12  8.456685E+04  9.284038E+05  4.800409E+04 -1.367092E+02  5.072550E-09  4.609198E-09
        20  13 -3.760979E+01  5.526536E+05  1.380173E+02  4.561258E+00 -3.682264E-09  2.146248E-10
        20  14 -4.204169E+01  5.526403E+05  2.412158E+02 -5.690053E+00 -3.457711E-10 -6.279170E-10
        20  15 -3.317122E+01  5.526536E+05  4.281171E+02  4.568993E+00  1.707096E-09  4.633527E-10
        20  16 -8.457002E+04  1.773054E+05 -4.732904E+04  9.989034E+01 -3.933649E-10  3.322745E-10
        20  17 -8.460763E+04  1.771670E+05 -4.726654E+04  1.125749E+02 -3.722205E-09 -1.191741E-09
        20  18 -8.463894E+04  1.770481E+05 -4.714833E+04  1.457699E+02  5.628287E-10 -4.417219E-09
        20  19  8.449000E+04  9.281467E+05  4.760628E+04 -9.082155E+01 -2.964826E+04  9.671127E+01
        20  20  8.451875E+04  9.282586E+05  4.775016E+04 -1.240255E+02 -2.964229E+04  2.569306E+02
        20  21  8.456779E+04  9.284041E+05  4.800574E+04 -1.367191E+02 -2.961953E+04  4.171534E+02
        20  22 -3.666551E+01  5.526539E+05  1.396698E+02  4.558814E+00 -2.965016E+04  1.023744E+02
        20  23 -4.109778E+01  5.526406E+05  2.428677E+02 -5.695357E+00 -2.964417E+04  2.221955E+02
        20  24 -3.222874E+01  5.526538E+05  4.297666E+02  4.560835E+00 -2.962140E+04  3.420205E+02
        20  25 -8.456907E+04  1.773056E+05 -4.732739E+04  9.988776E+01 -2.965205E+04  1.080343E+02
        20  26 -8.460669E+04  1.771672E+05 -4.726489E+04  1.125705E+02 -2.964605E+04  1.874802E+02
        20  27 -8.463800E+04  1.770483E+05 -4.714668E+04  1.457635E+02 -2.962326E+04  2.669307E+02
        21   1 -5.106412E+06 -8.349360E+05 -8.304682E+05 -1.265839E+05  1.010497E+05  6.873868E+03
        21   2 -6.447327E+06 -1.288231E+06 -1.249544E+06  2.371561E+05  8.528775E+04  1.536947E+04
        21   3 -4.989203E+06 -1.084301E+06 -9.633375E+05  8.314894E+04  6.905677E+04  4.099397E+03
        21   4 -3.897550E+05  3.479288E+05  3.521991E+05 -1.348397E+05  1.024563E+05  6.867548E+03
        21   5 -1.798540E+06 -1.160510E+05 -8.135973E+04  1.262631E+05  8.563647E+04  1.534972E+04
        21   6 -3.979033E+05  8.371162E+04  1.911561E+05 -1.303140E+05  6.835165E+04  4.137972E+03
        21   7  4.347167E+06  1.529106E+06  1.533179E+06 -1.431467E+05  1.038713E+05  6.861226E+03
        21   8  2.869981E+06  1.054503E+06  1.085177E+06  1.468435E+04  8.598586E+04  1.533000E+04
        21   9  4.212622E+06  1.250197E+06  1.344041E+06 -3.450748E+05  6.763974E+04  4.176994E+03
        21  10 -5.106423E+06 -8.349388E+05 -8.304876E+05 -1.265845E+05  2.161307E-10 -2.278786E-09
        21  11 -6.447335E+06 -1.288233E+06 -1.249558E+06  2.371550E+05  2.044944E-09 -1.131806E-09
        21  12 -4.989208E+06 -1.084303E+06 -9.633466E+05  8.314871E+04 -1.927113E-09  9.527461E-10
        21  13 -3.897663E+05  3.479259E+05  3.521793E+05 -1.348403E+05 -4.593320E-09 -9.154235E-10
        21  14 -1.798548E+06 -1.160533E+05 -8.137399E+04  1.262620E+05 -2.225955E-09 -1.921532E-09
        21  15 -3.979083E+05  8.371035E+04  1.911473E+05 -1.303142E+05 -1.277503E-09  2.938690E-09
        21  16  4.347156E+06  1.529103E+06  1.533158E+06 -1.431472E+05  2.136560E-09 -2.573573E-09
        21  17  2.869973E+06  1.054501E+06  1.085162E+06  1.468329E+04  3.952280E-11 -3.228128E-10
        21  18  4.212617E+06  1.250196E+06  1.344033E+06 -3.450750E+05  4.070829E-09  2.853531E-09
        21  19 -5.106412E+06 -8.349360E+05 -8.304682E+05 -1.265839E+05 -1.010497E+05 -6.873868E+03
        21  20 -6.447327E+06 -1.288231E+06 -1.249544E+06  2.371561E+05 -8.528775E+04 -1.536947E+04
        21  21 -4.989203E+06 -1.084301E+06 -9.633375E+05  8.314894E+04 -6.905677E+04 -4.099397E+03
        21  22 -3.897550E+05  3.479288E+05  3.521991E+05 -1.348397E+05 -1.024563E+05 -6.867548E+03
        21  23 -1.798540E+06 -1.160510E+05 -8.135973E+04  1.262631E+05 -8.563647E+04 -1.534972E+04
        21  24 -3.979033E+05  8.371162E+04  1.911561E+05 -1.303140E+05 -6.835165E+04 -4.137972E+03
        21  25  4.347167E+06  1.529106E+06  1.533179E+06 -1.431467E+05 -1.038713E+05 -6.861226E+03
        21  26  2.869981E+06  1.054503E+06  1.085177E+06  1.468435E+04 -8.598586E+04 -1.533000E+04
        21  27  4.212622E+06  1.250197E+06  1.344041E+06 -3.450748E+05 -6.763974E+04 -4.176994E+03
        22   1  6.647053E+05  3.979526E+05  4.492762E+05 -2.522334E+05  2.813391E+04 -2.236282E+03
        22   2  6.397324E+05  4.650765E+05  4.420687E+05  9.644362E+04  2.153569E+04 -6.910232E+03
        22   3  8.372997E+05  3.237621E+05  4.415837E+05 -2.219980E+05  1.514443E+04 -9.710385E+03
        22   4 -9.678525E+05 -1.797583E+04  3.958117E+04 -1.648727E+05  2.779254E+04 -2.213388E+03
        22   5 -1.076552E+06  3.119829E+04  1.214939E+04  1.665655E+05  2.129808E+04 -6.898118E+03
        22   6 -9.635024E+05 -1.289163E+05 -8.824479E+03 -1.692327E+05  1.501158E+04 -9.706283E+03
        22   7 -2.597990E+06 -4.340935E+05 -3.703167E+05 -7.770208E+04  2.745199E+04 -2.190554E+03
        22   8 -2.790164E+06 -4.028949E+05 -4.179935E+05  2.365298E+05  2.106106E+04 -6.886039E+03
        22   9 -2.761364E+06 -5.818357E+05 -4.594780E+05 -1.165874E+05  1.487906E+04 -9.702197E+03
        22  10  6.647045E+05  3.979524E+05  4.492747E+05 -2.522333E+05 -5.548839E-09 -3.270592E-09
        22  11  6.397319E+05  4.650763E+05  4.420677E+05  9.644374E+04  2.078343E-09 -4.632585E-09
        22  12  8.372994E+05  3.237620E+05  4.415831E+05 -2.219979E+05 -5.352815E-09 -2.671352E-10
        22  13 -9.678533E+05 -1.797604E+04  3.957971E+04 -1.648727E+05 -1.331936E-08  6.322789E-10
        22  14 -1.076553E+06  3.119811E+04  1.214845E+04  1.665657E+05 -2.646822E-09  1.555867E-11
        22  15 -9.635027E+05 -1.289165E+05 -8.825080E+03 -1.692326E+05 -9.335277E-10 -1.045790E-08
        22  16 -2.597991E+06 -4.340937E+05 -3.703182E+05 -7.770203E+04  7.518866E-09 -1.664216E-09
        22  17 -2.790164E+06 -4.028951E+05 -4.179944E+05  2.365299E+05  1.537070E-09 -1.454374E-08
        22  18 -2.761364E+06 -5.818359E+05 -4.594786E+05 -1.165873E+05  5.219019E-09 -7.361821E-09
        22  19  6.647053E+05  3.979526E+05  4.492762E+05 -2.522334E+05 -2.813391E+04  2.236282E+03
        22  20  6.397324E+05  4.650765E+05  4.420687E+05  9.644362E+04 -2.153569E+04  6.910232E+03
        22  21  8.372997E+05  3.237621E+05  4.415837E+05 -2.219980E+05 -1.514443E+04  9.710385E+03
        22  22 -9.678525E+05 -1.797583E+04  3.958117E+04 -1.648727E+05 -2.779254E+04  2.213388E+03
        22  23 -1.076552E+06  3.119829E+04  1.214939E+04  1.665655E+05 -2.129808E+04  6.898118E+03
        22  24 -9.635024E+05 -1.289163E+05 -8.824479E+03 -1.692327E+05 -1.501158E+04  9.706283E+03
        22  25 -2.597990E+06 -4.340935E+05 -3.703167E+05 -7.770208E+04 -2.745199E+04  2.190554E+03
        22  26 -2.790164E+06 -4.028949E+05 -4.179935E+05  2.365298E+05 -2.106106E+04  6.886039E+03
        22  27 -2.761364E+06 -5.818357E+05 -4.594780E+05 -1.165874E+05 -1.487906E+04  9.702197E+03
        23   1  5.621586E+06  1.582888E+06  1.650326E+06 -1.740576E+05 -3.117681E+04 -1.253565E+04
        23   2  3.563512E+06  1.358067E+06  1.203856E+06  2.918096E+04  5.746270E+03 -1.968164E+04
        23   3  5.646633E+06  1.542892E+06  1.640282E+06  1.514296E+05  4.266143E+04 -1.314663E+04
        23   4 -1.051313E+05  1.502170E+05  2.227831E+05 -3.070710E+04 -3.159890E+04 -1.253106E+04
        23   5 -2.164394E+06 -7.248105E+04 -2.261527E+05  5.124329E+03  5.686327E+03 -1.969335E+04
        23   6 -1.026399E+05  9.995468E+04  2.062448E+05 -4.012295E+04  4.296262E+04 -1.314358E+04
        23   7 -5.802263E+06 -1.284884E+06 -1.207226E+06  1.115552E+05 -3.201605E+04 -1.252670E+04
        23   8 -7.862617E+06 -1.505505E+06 -1.658639E+06 -1.875185E+04  5.626743E+03 -1.970514E+04
        23   9 -5.822084E+06 -1.345407E+06 -1.230281E+06 -2.302187E+05  4.325957E+04 -1.314078E+04
        23  10  5.621585E+06  1.582888E+06  1.650324E+06 -1.740579E+05 -1.265164E-08  8.726923E-09
        23  11  3.563512E+06  1.358066E+06  1.203856E+06  2.918105E+04 -7.973465E-09 -4.115989E-09
        23  12  5.646631E+06  1.542891E+06  1.640278E+06  1.514301E+05  7.201087E-09  6.480883E-09
        23  13 -1.051324E+05  1.502166E+05  2.227809E+05 -3.070742E+04 -4.101339E-09 -5.519337E-10
        23  14 -2.164394E+06 -7.248148E+04 -2.261534E+05  5.124419E+03  2.169890E-09 -3.330641E-09
        23  15 -1.026419E+05  9.995400E+04  2.062410E+05 -4.012250E+04  6.714076E-09  1.018635E-08
        23  16 -5.802264E+06 -1.284885E+06 -1.207229E+06  1.115549E+05  1.134446E-08  8.531153E-09
        23  17 -7.862617E+06 -1.505506E+06 -1.658640E+06 -1.875176E+04  7.569144E-09 -3.620795E-10
        23  18 -5.822086E+06 -1.345408E+06 -1.230285E+06 -2.302183E+05 -2.848038E-09  2.500801E-09
        23  19  5.621586E+06  1.582888E+06  1.650326E+06 -1.740576E+05  3.117681E+04  1.253565E+04
        23  20  3.563512E+06  1.358067E+06  1.203856E+06  2.918096E+04 -5.746270E+03  1.968164E+04
        23  21  5.646633E+06  1.542892E+06  1.640282E+06  1.514296E+05 -4.266143E+04  1.314663E+04
        23  22 -1.051313E+05  1.502170E+05  2.227831E+05 -3.070710E+04  3.159890E+04  1.253106E+04
        23  23 -2.164394E+06 -7.248105E+04 -2.261527E+05  5.124329E+03 -5.686327E+03  1.969335E+04
        23  24 -1.026399E+05  9.995468E+04  2.062448E+05 -4.012295E+04 -4.296262E+04  1.314358E+04
        23  25 -5.802263E+06 -1.284884E+06 -1.207226E+06  1.115552E+05  3.201605E+04  1.252670E+04
        23  26 -7.862617E+06 -1.505505E+06 -1.658639E+06 -1.875185E+04 -5.626743E+03  1.970514E+04
        23  27 -5.822084E+06 -1.345407E+06 -1.230281E+06 -2.302187E+05 -4.325957E+04  1.314078E+04
        24   1  2.817082E+06  8.182115E+05  9.267164E+05  2.811577E+05 -1.339111E+04 -1.349385E+04
        24   2  2.060678E+06  8.802846E+05  7.927183E+05  3.366942E+03  1.005994E+03 -1.203249E+04
        24   3  2.647024E+06  9.008257E+05  9.092681E+05  3.973546E+05  1.454411E+04 -2.430617E+03
        24   4 -7.155299E+05 -7.369233E+04  4.317948E+04  1.352265E+05 -1.350225E+04 -1.350515E+04
        24   5 -1.388185E+06 -2.188984E+03 -7.284775E+04 -2.039473E+05  1.215989E+03 -1.201980E+04
        24   6 -7.230182E+05  2.371670E+04  6.085237E+04  1.287893E+05  1.507559E+04 -2.377498E+03
        24   7 -4.236841E+06 -9.665051E+05 -8.413018E+05 -1.004229E+04 -1.361257E+04 -1.351643E+04
        24   8 -4.826249E+06 -8.854940E+05 -9.393205E+05 -4.103221E+05  1.424813E+03 -1.200721E+04
        24   9 -4.082742E+06 -8.541345E+05 -7.884340E+05 -1.385765E+05  1.560399E+04 -2.324718E+03
        24  10  2.817082E+06  8.182112E+05  9.267157E+05  2.811575E+05  1.046789E-08  4.535989E-09
        24  11  2.060678E+06  8.802845E+05  7.927180E+05  3.366952E+03  1.948915E-09 -5.891929E-09
        24  12  2.647024E+06  9.008257E+05  9.092677E+05  3.973546E+05 -2.752216E-09  1.083542E-08
        24  13 -7.155302E+05 -7.369258E+04  4.317879E+04  1.352263E+05  7.507114E-09  3.627811E-09
        24  14 -1.388185E+06 -2.189139E+03 -7.284803E+04 -2.039473E+05  2.075799E-09 -3.676340E-08
        24  15 -7.230185E+05  2.371663E+04  6.085194E+04  1.287893E+05 -1.776552E-09 -1.171795E-08
        24  16 -4.236841E+06 -9.665053E+05 -8.413025E+05 -1.004244E+04 -1.652001E-08  3.651020E-09
        24  17 -4.826249E+06 -8.854942E+05 -9.393207E+05 -4.103221E+05 -2.001592E-09 -5.672074E-09
        24  18 -4.082742E+06 -8.541346E+05 -7.884345E+05 -1.385765E+05 -1.949178E-09  8.933965E-09
        24  19  2.817082E+06  8.182115E+05  9.267164E+05  2.811577E+05  1.339111E+04  1.349385E+04
        24  20  2.060678E+06  8.802846E+05  7.927183E+05  3.366942E+03 -1.005994E+03  1.203249E+04
        24  21  2.647024E+06  9.008257E+05  9.092681E+05  3.973546E+05 -1.454411E+04  2.430617E+03
        24  22 -7.155299E+05 -7.369233E+04  4.317948E+04  1.352265E+05  1.350225E+04  1.350515E+04
        24  23 -1.388185E+06 -2.188984E+03 -7.284775E+04 -2.039473E+05 -1.215989E+03  1.201980E+04
        24  24 -7.230182E+05  2.371670E+04  6.085237E+04  1.287893E+05 -1.507559E+04  2.377498E+03
        24  25 -4.236841E+06 -9.665051E+05 -8.413018E+05 -1.004229E+04  1.361257E+04  1.351643E+04
        24  26 -4.826249E+06 -8.854940E+05 -9.393205E+05 -4.103221E+05 -1.424813E+03  1.200721E+04
        24  27 -4.082742E+06 -8.541345E+05 -7.884340E+05 -1.385765E+05 -1.560399E+04  2.324718E+03
        25   1 -4.011081E+06 -8.363504E+05 -7.706556E+05 -1.312240E+05 -1.472515E+04  2.142419E+03
        25   2 -4.715164E+06 -8.607353E+05 -9.125398E+05 -4.073356E+05 -1.197504E+03  1.171531E+04
        25   3 -4.166306E+06 -9.479155E+05 -8.238526E+05 -9.010678E+03  1.317362E+04  1.333876E+04
        25   4 -7.407320E+05  1.827724E+04  5.604671E+04  1.296171E+05 -1.419959E+04  2.195137E+03
        25   5 -1.365785E+06  8.741541E+01 -6.841150E+04 -2.044516E+05 -9.857239E+02  1.172850E+04
        25   6 -7.333236E+05 -7.708521E+04  3.849839E+04  1.357942E+05  1.307204E+04  1.332805E+04
        25   7  2.539393E+06  8.722022E+05  8.819240E+05  3.915974E+05 -1.367107E+04  2.248182E+03
        25   8  1.993842E+06  8.601223E+05  7.748563E+05 -6.680697E+02 -7.727910E+02  1.174181E+04
        25   9  2.710400E+06  7.928826E+05  8.999516E+05  2.812430E+05  1.296971E+04  1.331731E+04
        25  10 -4.011081E+06 -8.363504E+05 -7.706560E+05 -1.312239E+05  8.428193E-09  1.316849E-08
        25  11 -4.715165E+06 -8.607354E+05 -9.125401E+05 -4.073356E+05 -3.012123E-09  2.109945E-09
        25  12 -4.166306E+06 -9.479157E+05 -8.238532E+05 -9.010820E+03  4.466333E-09 -1.055416E-08
        25  13 -7.407323E+05  1.827718E+04  5.604632E+04  1.296171E+05  4.799909E-09 -1.338978E-08
        25  14 -1.365786E+06  8.726753E+01 -6.841176E+04 -2.044516E+05 -5.856807E-09 -1.005263E-08
        25  15 -7.333238E+05 -7.708545E+04  3.849773E+04  1.357940E+05  8.772914E-09 -1.513187E-08
        25  16  2.539393E+06  8.722021E+05  8.819236E+05  3.915974E+05 -1.896736E-08  1.347523E-08
        25  17  1.993842E+06  8.601222E+05  7.748560E+05 -6.680624E+02 -9.780020E-09 -6.915869E-09
        25  18  2.710400E+06  7.928823E+05  8.999509E+05  2.812428E+05 -6.708101E-09  1.385836E-08
        25  19 -4.011081E+06 -8.363504E+05 -7.706556E+05 -1.312240E+05  1.472515E+04 -2.142419E+03
        25  20 -4.715164E+06 -8.607353E+05 -9.125398E+05 -4.073356E+05  1.197504E+03 -1.171531E+04
        25  21 -4.166306E+06 -9.479155E+05 -8.238526E+05 -9.010678E+03 -1.317362E+04 -1.333876E+04
        25  22 -7.407320E+05  1.827724E+04  5.604671E+04  1.296171E+05  1.419959E+04 -2.195137E+03
        25  23 -1.365785E+06  8.741541E+01 -6.841150E+04 -2.044516E+05  9.857239E+02 -1.172850E+04
        25  24 -7.333236E+05 -7.708521E+04  3.849839E+04  1.357942E+05 -1.307204E+04 -1.332805E+04
        25  25  2.539393E+06  8.722022E+05  8.819240E+05  3.915974E+05  1.367107E+04 -2.248182E+03
        25  26  1.993842E+06  8.601223E+05  7.748563E+05 -6.680697E+02  7.727910E+02 -1.174181E+04
        25  27  2.710400E+06  7.928826E+05  8.999516E+05  2.812430E+05 -1.296971E+04 -1.331731E+04
        26   1 -5.827853E+06 -1.345100E+06 -1.231767E+06 -2.330595E+05 -4.300427E+04  1.302664E+04
        26   2 -7.878056E+06 -1.508848E+06 -1.663151E+06 -2.939406E+04 -4.844031E+03  1.973996E+04
        26   3 -5.811225E+06 -1.289311E+06 -1.211321E+06  1.100067E+05  3.335293E+04  1.265305E+04
        26   4 -9.916304E+04  1.032948E+05  2.072250E+05 -3.650165E+04 -4.270126E+04  1.303016E+04
        26   5 -2.168925E+06 -7.297258E+04 -2.278861E+05  3.156926E+02 -4.895391E+03  1.972810E+04
        26   6 -1.014089E+05  1.485385E+05  2.217842E+05 -2.703702E+04  3.294622E+04  1.265645E+04
        26   7  5.659453E+06  1.549261E+06  1.643720E+06  1.615642E+05 -4.239397E+04  1.303393E+04
        26   8  3.570004E+06  1.360418E+06  1.204892E+06  3.025028E+04 -4.947064E+03  1.971632E+04
        26   9  5.638124E+06  1.583944E+06  1.652413E+06 -1.651321E+05  3.253460E+04  1.266006E+04
        26  10 -5.827855E+06 -1.345100E+06 -1.231771E+06 -2.330590E+05  7.099964E-09  4.870082E-09
        26  11 -7.878056E+06 -1.508848E+06 -1.663152E+06 -2.939398E+04  2.412029E-09 -4.998730E-09
        26  12 -5.811226E+06 -1.289311E+06 -1.211324E+06  1.100063E+05 -1.859727E-09 -2.243546E-08
        26  13 -9.916504E+04  1.032942E+05  2.072212E+05 -3.650120E+04  5.321158E-09  1.101545E-08
        26  14 -2.168925E+06 -7.297301E+04 -2.278869E+05  3.157704E+02 -2.228964E-10  3.196700E-09
        26  15 -1.014101E+05  1.485380E+05  2.217819E+05 -2.703735E+04  8.804765E-09 -1.131764E-08
        26  16  5.659451E+06  1.549260E+06  1.643716E+06  1.615647E+05 -9.556284E-09  3.696099E-09
        26  17  3.570003E+06  1.360417E+06  1.204891E+06  3.025036E+04  4.143234E-09 -3.996947E-09
        26  18  5.638123E+06  1.583944E+06  1.652410E+06 -1.651325E+05  2.691362E-09  1.732256E-09
        26  19 -5.827853E+06 -1.345100E+06 -1.231767E+06 -2.330595E+05  4.300427E+04 -1.302664E+04
        26  20 -7.878056E+06 -1.508848E+06 -1.663151E+06 -2.939406E+04  4.844031E+03 -1.973996E+04
        26  21 -5.811225E+06 -1.289311E+06 -1.211321E+06  1.100067E+05 -3.335293E+04 -1.265305E+04
        26  22 -9.916304E+04  1.032948E+05  2.072250E+05 -3.650165E+04  4.270126E+04 -1.303016E+04
        26  23 -2.168925E+06 -7.297258E+04 -2.278861E+05  3.156926E+02  4.895391E+03 -1.972810E+04
        26  24 -1.014089E+05  1.485385E+05  2.217842E+05 -2.703702E+04 -3.294622E+04 -1.265645E+04
        26  25  5.659453E+06  1.549261E+06  1.643720E+06  1.615642E+05  4.239397E+04 -1.303393E+04
        26  26  3.570004E+06  1.360418E+06  1.204892E+06  3.025028E+04  4.947064E+03 -1.971632E+04
        26  27  5.638124E+06  1.583944E+06  1.652413E+06 -1.651321E+05 -3.253460E+04 -1.266006E+04
        27   1 -2.859635E+06 -6.079926E+05 -4.862189E+05 -1.142050E+05 -1.389388E+04  9.880437E+03
        27   2 -2.913599E+06 -4.312994E+05 -4.515026E+05  2.402685E+05 -1.798743E+04  7.095322E+03
        27   3 -2.697101E+06 -4.611583E+05 -4.012369E+05 -7.142040E+04 -2.231052E+04  2.140053E+03
        27   4 -9.524090E+05 -1.276067E+05 -8.138843E+03 -1.688440E+05 -1.401316E+04  9.883666E+03
        27   5 -1.090406E+06  3.052852E+04  6.172508E+03  1.662894E+05 -1.822075E+04  7.106978E+03
        27   6 -9.570375E+05 -1.692738E+04  3.632460E+04 -1.646223E+05 -2.265717E+04  2.163303E+03
        27   7  9.581265E+05  3.525079E+05  4.696652E+05 -2.236153E+05 -1.413274E+04  9.886911E+03
        27   8  7.358149E+05  4.921130E+05  4.635946E+05  9.213291E+04 -1.845469E+04  7.118669E+03
        27   9  7.857841E+05  4.270880E+05  4.736548E+05 -2.580409E+05 -2.300473E+04  2.186620E+03
        27  10 -2.859635E+06 -6.079927E+05 -4.862195E+05 -1.142048E+05 -4.500558E-09 -5.681011E-09
        27  11 -2.913600E+06 -4.312996E+05 -4.515033E+05  2.402686E+05 -2.938658E-09 -1.542673E-09
        27  12 -2.697102E+06 -4.611584E+05 -4.012378E+05 -7.142036E+04 -1.985109E-10 -1.124653E-08
        27  13 -9.524093E+05 -1.276068E+05 -8.139396E+03 -1.688439E+05  3.379707E-09  1.586803E-08
        27  14 -1.090406E+06  3.052838E+04  6.171788E+03  1.662895E+05  7.429018E-09  1.265098E-08
        27  15 -9.570380E+05 -1.692753E+04  3.632363E+04 -1.646223E+05 -4.810333E-09  1.320322E-09
        27  16  9.581263E+05  3.525078E+05  4.696646E+05 -2.236152E+05  8.567440E-09  7.508767E-09
        27  17  7.358145E+05  4.921128E+05  4.635939E+05  9.213302E+04  1.014364E-08  6.237747E-08
        27  18  7.857835E+05  4.270878E+05  4.736538E+05 -2.580409E+05 -3.786028E-09 -4.620902E-09
        27  19 -2.859635E+06 -6.079926E+05 -4.862189E+05 -1.142050E+05  1.389388E+04 -9.880437E+03
        27  20 -2.913599E+06 -4.312994E+05 -4.515026E+05  2.402685E+05  1.798743E+04 -7.095322E+03
        27  21 -2.697101E+06 -4.611583E+05 -4.012369E+05 -7.142040E+04  2.231052E+04 -2.140053E+03
        27  22 -9.524090E+05 -1.276067E+05 -8.138843E+03 -1.688440E+05  1.401316E+04 -9.883666E+03
        27  23 -1.090406E+06  3.052852E+04  6.172508E+03  1.662894E+05  1.822075E+04 -7.106978E+03
        27  24 -9.570375E+05 -1.692738E+04  3.632460E+04 -1.646223E+05  2.265717E+04 -2.163303E+03
        27  25  9.581265E+05  3.525079E+05  4.696652E+05 -2.236153E+05  1.413274E+04 -9.886911E+03
        27  26  7.358149E+05  4.921130E+05  4.635946E+05  9.213291E+04  1.845469E+04 -7.118669E+03
        27  27  7.857841E+05  4.270880E+05  4.736548E+05 -2.580409E+05  2.300473E+04 -2.186620E+03
        28   1  4.132613E+06  1.231507E+06  1.316718E+06 -3.466859E+05 -6.096953E+04 -4.318693E+03
        28   2  2.832463E+06  1.047008E+06  1.062559E+06  1.515433E+04 -7.350146E+04 -1.543730E+04
        28   3  4.269558E+06  1.488554E+06  1.486377E+06 -1.486797E+05 -8.551975E+04 -6.712693E+03
        28   4 -4.161246E+05  8.019487E+04  1.791310E+05 -1.322830E+05 -6.170682E+04 -4.277486E+03
        28   5 -1.775611E+06 -1.086703E+05 -8.894304E+04  1.286314E+05 -7.320631E+04 -1.545535E+04
        28   6 -4.079227E+05  3.220909E+05  3.201321E+05 -1.362264E+05 -8.418851E+04 -6.720508E+03
        28   7 -4.946146E+06 -1.072603E+06 -9.600217E+05  8.084096E+04 -6.243739E+04 -4.236726E+03
        28   8 -6.364458E+06 -1.265931E+06 -1.242051E+06  2.414204E+05 -7.291173E+04 -1.547343E+04
        28   9 -5.065643E+06 -8.460185E+05 -8.477592E+05 -1.238480E+05 -8.286531E+04 -6.728313E+03
        28  10  4.132609E+06  1.231506E+06  1.316711E+06 -3.466861E+05 -3.866341E-09 -3.817575E-08
        28  11  2.832457E+06  1.047006E+06  1.062549E+06  1.515342E+04 -2.962044E-09 -5.065169E-09
        28  12  4.269551E+06  1.488552E+06  1.486364E+06 -1.486802E+05 -1.784048E-09 -1.622632E-09
        28  13 -4.161287E+05  8.019382E+04  1.791238E+05 -1.322832E+05 -7.471116E-09 -2.235199E-08
        28  14 -1.775617E+06 -1.086720E+05 -8.895358E+04  1.286305E+05  2.172869E-09  2.517707E-09
        28  15 -4.079304E+05  3.220889E+05  3.201187E+05 -1.362269E+05  8.420689E-10  1.431662E-09
        28  16 -4.946150E+06 -1.072604E+06 -9.600291E+05  8.084075E+04  7.757181E-09 -2.502345E-08
        28  17 -6.364464E+06 -1.265933E+06 -1.242061E+06  2.414195E+05  1.657282E-09 -1.544434E-08
        28  18 -5.065651E+06 -8.460204E+05 -8.477723E+05 -1.238484E+05  3.994356E-09  2.831061E-09
        28  19  4.132613E+06  1.231507E+06  1.316718E+06 -3.466859E+05  6.096953E+04  4.318693E+03
        28  20  2.832463E+06  1.047008E+06  1.062559E+06  1.515433E+04  7.350146E+04  1.543730E+04
        28  21  4.269558E+06  1.488554E+06  1.486377E+06 -1.486797E+05  8.551975E+04  6.712693E+03
        28  22 -4.161246E+05  8.019487E+04  1.791310E+05 -1.322830E+05  6.170682E+04  4.277486E+03
        28  23 -1.775611E+06 -1.086703E+05 -8.894304E+04  1.286314E+05  7.320631E+04  1.545535E+04
        28  24 -4.079227E+05  3.220909E+05  3.201321E+05 -1.362264E+05  8.418851E+04  6.720508E+03
        28  25 -4.946146E+06 -1.072603E+06 -9.600217E+05  8.084096E+04  6.243739E+04  4.236726E+03
        28  26 -6.364458E+06 -1.265931E+06 -1.242051E+06  2.414204E+05  7.291173E+04  1.547343E+04
        28  27 -5.065643E+06 -8.460185E+05 -8.477592E+05 -1.238480E+05  8.286531E+04  6.728313E+03
        29   1  3.008678E+05  2.681360E+04  3.940215E+05 -8.202580E+03 -1.869109E+03  2.686319E+05
        29   2 -7.250593E+04 -3.366003E+04  1.679890E+05 -2.804409E+03 -1.227546E+03  1.767349E+05
        29   3 -9.411558E+03  2.698207E+04  1.109448E+05  4.782430E+03 -5.881938E+02  8.483363E+04
        29   4  3.007273E+05  2.695376E+04  3.940215E+05  1.900520E+03 -1.864737E+03  2.686319E+05
        29   5 -7.254113E+04 -3.362486E+04  1.679890E+05 -2.701545E+02 -1.226824E+03  1.767349E+05
        29   6 -9.341713E+03  2.691215E+04  1.109448E+05 -2.516722E+02 -5.888818E+02  8.483363E+04
        29   7  3.005872E+05  2.709414E+04  3.940215E+05  1.200362E+04 -1.860365E+03  2.686319E+05
        29   8 -7.257630E+04 -3.358966E+04  1.679890E+05  2.264100E+03 -1.226103E+03  1.767349E+05
        29   9 -9.271772E+03  2.684229E+04  1.109448E+05 -5.285774E+03 -5.895697E+02  8.483362E+04
        29  10  3.008484E+05  2.673613E+04  3.938859E+05 -8.202176E+03 -2.657853E-09 -2.522402E-10
        29  11 -7.251431E+04 -3.369357E+04  1.679303E+05 -2.804234E+03 -1.664549E-08 -1.156196E-10
        29  12 -9.413490E+03  2.697434E+04  1.109313E+05  4.782470E+03  1.142540E-09  2.092720E-11
        29  13  3.007079E+05  2.687629E+04  3.938859E+05  1.900924E+03 -6.763253E-09  1.748177E-11
        29  14 -7.254951E+04 -3.365839E+04  1.679303E+05 -2.699799E+02 -5.757241E-10 -5.347251E-11
        29  15 -9.343645E+03  2.690442E+04  1.109313E+05 -2.516320E+02 -3.547086E-09 -5.318015E-11
        29  16  3.005679E+05  2.701667E+04  3.938859E+05  1.200402E+04  5.716141E-10  2.191030E-10
        29  17 -7.258468E+04 -3.362320E+04  1.679303E+05  2.264274E+03  2.133035E-09  1.199779E-10
        29  18 -9.273704E+03  2.683456E+04  1.109313E+05 -5.285734E+03 -2.157104E-09 -1.994798E-10
        29  19  3.008678E+05  2.681360E+04  3.940215E+05 -8.202580E+03  1.869109E+03 -2.686319E+05
        29  20 -7.250593E+04 -3.366003E+04  1.679890E+05 -2.804409E+03  1.227546E+03 -1.767349E+05
        29  21 -9.411558E+03  2.698207E+04  1.109448E+05  4.782430E+03  5.881938E+02 -8.483363E+04
        29  22  3.007273E+05  2.695376E+04  3.940215E+05  1.900520E+03  1.864737E+03 -2.686319E+05
        29  23 -7.254113E+04 -3.362486E+04  1.679890E+05 -2.701545E+02  1.226824E+03 -1.767349E+05
        29  24 -9.341713E+03  2.691215E+04  1.109448E+05 -2.516722E+02  5.888818E+02 -8.483363E+04
        29  25  3.005872E+05  2.709414E+04  3.940215E+05  1.200362E+04  1.860365E+03 -2.686319E+05
        29  26 -7.257630E+04 -3.358966E+04  1.679890E+05  2.264100E+03  1.226103E+03 -1.767349E+05
        29  27 -9.271772E+03  2.684229E+04  1.109448E+05 -5.285774E+03  5.895697E+02 -8.483362E+04
        30   1  4.711563E+04  4.468971E+03  9.206096E+04 -1.223861E+03 -4.607977E+02  6.635858E+04
        30   2 -1.140790E+04 -5.611880E+03  4.410746E+04 -3.965350E+02 -2.996596E+02  4.316505E+04
        30   3 -1.267730E+03  4.497168E+03  2.842349E+04  7.672898E+02 -1.386100E+02  1.997173E+04
        30   4  4.709452E+04  4.490066E+03  9.206096E+04  2.957577E+02 -4.606352E+02  6.635858E+04
        30   5 -1.141285E+04 -5.606935E+03  4.410746E+04 -4.030433E+01 -2.996349E+02  4.316505E+04
        30   6 -1.256525E+03  4.485961E+03  2.842349E+04 -3.986401E+01 -1.386359E+02  1.997173E+04
        30   7  4.707343E+04  4.511167E+03  9.206096E+04  1.815377E+03 -4.604728E+02  6.635858E+04
        30   8 -1.141780E+04 -5.601989E+03  4.410746E+04  3.159263E+02 -2.996101E+02  4.316505E+04
        30   9 -1.245317E+03  4.474756E+03  2.842349E+04 -8.470179E+02 -1.386619E+02  1.997173E+04
        30  10  4.711444E+04  4.464242E+03  9.205268E+04 -1.223837E+03 -3.842565E-10 -5.180053E-11
        30  11 -1.140840E+04 -5.613881E+03  4.410396E+04 -3.965246E+02 -8.114159E-09 -9.162033E-11
        30  12 -1.267837E+03  4.496740E+03  2.842274E+04  7.672921E+02  1.057532E-09 -3.611671E-10
        30  13  4.709334E+04  4.485338E+03  9.205268E+04  2.957823E+02  1.518394E-09 -1.167840E-11
        30  14 -1.141335E+04 -5.608935E+03  4.410396E+04 -4.029391E+01 -1.794624E-09 -8.614123E-12
        30  15 -1.256632E+03  4.485533E+03  2.842274E+04 -3.986178E+01  4.800962E-09 -7.361924E-11
        30  16  4.707225E+04  4.506439E+03  9.205268E+04  1.815401E+03 -6.775367E-09  3.833772E-11
        30  17 -1.141830E+04 -5.603989E+03  4.410396E+04  3.159368E+02  4.504937E-09 -1.070685E-11
        30  18 -1.245424E+03  4.474327E+03  2.842274E+04 -8.470156E+02 -2.892475E-09  3.845141E-10
        30  19  4.711563E+04  4.468971E+03  9.206096E+04 -1.223861E+03  4.607977E+02 -6.635858E+04
        30  20 -1.140790E+04 -5.611880E+03  4.410746E+04 -3.965350E+02  2.996596E+02 -4.316505E+04
        30  21 -1.267730E+03  4.497168E+03  2.842349E+04  7.672898E+02  1.386100E+02 -1.997173E+04
        30  22  4.709452E+04  4.490066E+03  9.206096E+04  2.957577E+02  4.606352E+02 -6.635858E+04
        30  23 -1.141285E+04 -5.606935E+03  4.410746E+04 -4.030433E+01  2.996349E+02 -4.316505E+04
        30  24 -1.256525E+03  4.485961E+03  2.842349E+04 -3.986401E+01  1.386359E+02 -1.997173E+04
        30  25  4.707343E+04  4.511167E+03  9.206096E+04  1.815377E+03  4.604728E+02 -6.635858E+04
        30  26 -1.141780E+04 -5.601989E+03  4.410746E+04  3.159263E+02  2.996101E+02 -4.316505E+04
        30  27 -1.245317E+03  4.474756E+03  2.842349E+04 -8.470179E+02  1.386619E+02 -1.997173E+04
        31   1  7.312682E+03  8.872133E+02  2.343544E+04 -1.961129E+02 -1.059399E+02  1.526072E+04
        31   2 -2.049120E+03 -1.113254E+03  1.383970E+04 -4.739718E+01 -5.672892E+01  8.172225E+03
        31   3  9.191348E+02  8.923465E+02  1.194173E+04  1.591004E+02 -7.523439E+00  1.083858E+03
        31   4  7.309340E+03  8.905547E+02  2.343544E+04  4.455884E+01 -1.059340E+02  1.526072E+04
        31   5 -2.049687E+03 -1.112686E+03  1.383970E+04 -6.504606E+00 -5.672838E+01  8.172225E+03
        31   6  9.213407E+02  8.901406E+02  1.194173E+04  2.165891E-01 -7.523716E+00  1.083858E+03
        31   7  7.305999E+03  8.938962E+02  2.343544E+04  2.852306E+02 -1.059280E+02  1.526072E+04
        31   8 -2.050255E+03 -1.112119E+03  1.383970E+04  3.438797E+01 -5.672784E+01  8.172225E+03
        31   9  9.235466E+02  8.879347E+02  1.194173E+04 -1.586672E+02 -7.523994E+00  1.083858E+03
        31  10  7.312619E+03  8.869632E+02  2.343500E+04 -1.961116E+02 -1.888045E-09 -4.579722E-10
        31  11 -2.049138E+03 -1.113326E+03  1.383957E+04 -4.739681E+01 -7.787195E-09  3.253585E-10
        31  12  9.191345E+02  8.923453E+02  1.194173E+04  1.591004E+02  6.568206E-10  2.779193E-12
        31  13  7.309278E+03  8.903046E+02  2.343500E+04  4.456014E+01 -2.172394E-09 -1.206196E-10
        31  14 -2.049705E+03 -1.112758E+03  1.383957E+04 -6.504233E+00 -9.205895E-09  2.453327E-11
        31  15  9.213403E+02  8.901393E+02  1.194173E+04  2.165957E-01 -3.942353E-09 -6.410256E-11
        31  16  7.305936E+03  8.936461E+02  2.343500E+04  2.852319E+02 -9.362990E-09  3.998590E-10
        31  17 -2.050273E+03 -1.112190E+03  1.383957E+04  3.438835E+01 -3.875534E-09 -3.982050E-10
        31  18  9.235463E+02  8.879334E+02  1.194173E+04 -1.586672E+02 -2.155040E-10 -9.020359E-11
        31  19  7.312682E+03  8.872133E+02  2.343544E+04 -1.961129E+02  1.059399E+02 -1.526072E+04
        31  20 -2.049120E+03 -1.113254E+03  1.383970E+04 -4.739718E+01  5.672892E+01 -8.172225E+03
        31  21  9.191348E+02  8.923465E+02  1.194173E+04  1.591004E+02  7.523439E+00 -1.083858E+03
        31  22  7.309340E+03  8.905547E+02  2.343544E+04  4.455884E+01  1.059340E+02 -1.526072E+04
        31  23 -2.049687E+03 -1.112686E+03  1.383970E+04 -6.504606E+00  5.672838E+01 -8.172225E+03
        31  24  9.213407E+02  8.901406E+02  1.194173E+04  2.165891E-01  7.523716E+00 -1.083858E+03
        31  25  7.305999E+03  8.938962E+02  2.343544E+04  2.852306E+02  1.059280E+02 -1.526072E+04
        31  26 -2.050255E+03 -1.112119E+03  1.383970E+04  3.438797E+01  5.672784E+01 -8.172225E+03
        31  27  9.235466E+02  8.879347E+02  1.194173E+04 -1.586672E+02  7.523994E+00 -1.083858E+03
        32   1 -9.973364E+06 -3.115464E+06 -2.014045E+06 -3.488633E+06 -1.077980E+06 -3.981347E+05
        32   2 -9.748333E+06 -1.582263E+06 -1.029025E+06 -3.768799E+06 -6.976024E+05 -2.234422E+05
        32   3 -1.020247E+07 -1.598046E+06 -7.712464E+05 -3.601595E+06 -3.076007E+05 -7.400908E+04
        32   4 -9.009868E+06 -2.427817E+06 -1.683894E+06 -2.904386E+06 -1.063914E+06 -3.934453E+05
        32   5 -8.580157E+06 -1.047716E+06 -6.958546E+05 -3.358796E+06 -6.931964E+05 -2.218895E+05
        32   6 -8.826688E+06 -1.213071E+06 -4.264266E+05 -3.366218E+06 -3.127243E+05 -7.587962E+04
        32   7 -8.045204E+06 -1.739164E+06 -1.353813E+06 -2.319073E+06 -1.049822E+06 -3.887271E+05
        32   8 -7.410616E+06 -5.128986E+05 -3.628164E+05 -2.948020E+06 -6.887800E+05 -2.203310E+05
        32   9 -7.449022E+06 -8.281437E+05 -8.173960E+04 -3.130455E+06 -3.178598E+05 -7.775195E+04
        32  10 -9.974674E+06 -3.115956E+06 -2.016572E+06 -3.488983E+06 -1.523612E-09 -9.558360E-11
        32  11 -9.748876E+06 -1.582451E+06 -1.030052E+06 -3.768926E+06  2.225841E-10  1.143350E-09
        32  12 -1.020257E+07 -1.598078E+06 -7.714380E+05 -3.601614E+06  2.603819E-09  7.408219E-10
        32  13 -9.011141E+06 -2.428295E+06 -1.686352E+06 -2.904727E+06  6.589576E-09  7.854497E-10
        32  14 -8.580693E+06 -1.047901E+06 -6.968664E+05 -3.358921E+06  2.558420E-09  1.364563E-09
        32  15 -8.826796E+06 -1.213104E+06 -4.266244E+05 -3.366237E+06 -9.478724E-10  1.571982E-10
        32  16 -8.046442E+06 -1.739629E+06 -1.356201E+06 -2.319405E+06  1.935743E-09  1.574973E-09
        32  17 -7.411144E+06 -5.130810E+05 -3.638130E+05 -2.948143E+06 -1.830037E-09  2.618568E-09
        32  18 -7.449134E+06 -8.281779E+05 -8.194364E+04 -3.130475E+06 -2.531105E-09 -1.980804E-09
        32  19 -9.973364E+06 -3.115464E+06 -2.014045E+06 -3.488633E+06  1.077980E+06  3.981347E+05
        32  20 -9.748333E+06 -1.582263E+06 -1.029025E+06 -3.768799E+06  6.976024E+05  2.234422E+05
        32  21 -1.020247E+07 -1.598046E+06 -7.712464E+05 -3.601595E+06  3.076007E+05  7.400908E+04
        32  22 -9.009868E+06 -2.427817E+06 -1.683894E+06 -2.904386E+06  1.063914E+06  3.934453E+05
        32  23 -8.580157E+06 -1.047716E+06 -6.958546E+05 -3.358796E+06  6.931964E+05  2.218895E+05
        32  24 -8.826688E+06 -1.213071E+06 -4.264266E+05 -3.366218E+06  3.127243E+05  7.587962E+04
        32  25 -8.045204E+06 -1.739164E+06 -1.353813E+06 -2.319073E+06  1.049822E+06  3.887271E+05
        32  26 -7.410616E+06 -5.128986E+05 -3.628164E+05 -2.948020E+06  6.887800E+05  2.203310E+05
        32  27 -7.449022E+06 -8.281437E+05 -8.173960E+04 -3.130455E+06  3.178598E+05  7.775195E+04
        33   1 -1.001470E+07 -1.920518E+06 -6.951913E+05 -3.653878E+06 -2.515537E+05 -5.628453E+04
        33   2 -9.960242E+06 -1.706943E+06 -5.004943E+05 -3.660590E+06 -1.653937E+05 -2.170080E+04
        33   3 -9.963034E+06 -1.707882E+06 -4.228485E+05 -3.645287E+06 -7.774550E+04  8.974578E+03
        33   4 -8.761660E+06 -1.406793E+06 -3.482482E+05 -3.274581E+06 -2.504769E+05 -5.589906E+04
        33   5 -8.722251E+06 -1.226540E+06 -1.637886E+05 -3.313138E+06 -1.657092E+05 -2.182902E+04
        33   6 -8.739650E+06 -1.260277E+06 -9.507835E+04 -3.329713E+06 -7.945708E+04  8.325936E+03
        33   7 -7.507079E+06 -8.929013E+05 -1.453021E+03 -2.894554E+06 -2.493971E+05 -5.551228E+04
        33   8 -7.482757E+06 -7.460266E+05  1.727776E+05 -2.965041E+06 -1.660252E+05 -2.195739E+04
        33   9 -7.514798E+06 -8.126085E+05  2.325606E+05 -3.013579E+06 -8.117230E+04  7.676044E+03
        33  10 -1.001477E+07 -1.920539E+06 -6.953185E+05 -3.653890E+06  2.336028E-09  1.062000E-09
        33  11 -9.960272E+06 -1.706951E+06 -5.005474E+05 -3.660593E+06 -1.748187E-09 -3.030718E-09
        33  12 -9.963041E+06 -1.707884E+06 -4.228601E+05 -3.645286E+06  1.670937E-09 -2.737679E-09
        33  13 -8.761729E+06 -1.406813E+06 -3.483739E+05 -3.274593E+06 -7.470024E-09 -1.337377E-09
        33  14 -8.722281E+06 -1.226548E+06 -1.638419E+05 -3.313141E+06  1.308222E-09 -2.522570E-09
        33  15 -8.739657E+06 -1.260279E+06 -9.509049E+04 -3.329713E+06 -3.039981E-09 -1.732553E-09
        33  16 -7.507147E+06 -8.929217E+05 -1.577375E+03 -2.894566E+06 -3.185711E-09 -3.075266E-09
        33  17 -7.482787E+06 -7.460346E+05  1.727242E+05 -2.965044E+06  5.489226E-09 -2.361338E-09
        33  18 -7.514806E+06 -8.126104E+05  2.325480E+05 -3.013579E+06  1.603412E-09 -2.887644E-09
        33  19 -1.001470E+07 -1.920518E+06 -6.951913E+05 -3.653878E+06  2.515537E+05  5.628453E+04
        33  20 -9.960242E+06 -1.706943E+06 -5.004943E+05 -3.660590E+06  1.653937E+05  2.170080E+04
        33  21 -9.963034E+06 -1.707882E+06 -4.228485E+05 -3.645287E+06  7.774550E+04 -8.974578E+03
        33  22 -8.761660E+06 -1.406793E+06 -3.482482E+05 -3.274581E+06  2.504769E+05  5.589906E+04
        33  23 -8.722251E+06 -1.226540E+06 -1.637886E+05 -3.313138E+06  1.657092E+05  2.182902E+04
        33  24 -8.739650E+06 -1.260277E+06 -9.507835E+04 -3.329713E+06  7.945708E+04 -8.325936E+03
        33  25 -7.507079E+06 -8.929013E+05 -1.453021E+03 -2.894554E+06  2.493971E+05  5.551228E+04
        33  26 -7.482757E+06 -7.460266E+05  1.727776E+05 -2.965041E+06  1.660252E+05  2.195739E+04
        33  27 -7.514798E+06 -8.126085E+05  2.325606E+05 -3.013579E+06  8.117230E+04 -7.676044E+03
        34   1 -9.804625E+06 -1.706731E+06 -3.679431E+05 -3.626888E+06 -6.393347E+04  1.186033E+04
        34   2 -9.733838E+06 -1.610507E+06 -3.038368E+05 -3.562873E+06 -4.275077E+04  1.601631E+04
        34   3 -9.603132E+06 -1.606484E+06 -2.605632E+05 -3.572235E+06 -2.102795E+04  1.871142E+04
        34   4 -8.722193E+06 -1.292178E+06 -7.474246E+04 -3.328616E+06 -6.504388E+04  1.143729E+04
        34   5 -8.750851E+06 -1.237210E+06 -3.809505E+04 -3.295250E+06 -4.440983E+04  1.538948E+04
        34   6 -8.719473E+06 -1.274298E+06 -2.180930E+04 -3.335258E+06 -2.323965E+04  1.788036E+04
        34   7 -7.638612E+06 -8.775492E+05  2.183524E+05 -3.029863E+06 -6.615638E+04  1.101346E+04
        34   8 -7.766919E+06 -8.638546E+05  2.275595E+05 -3.027237E+06 -4.607177E+04  1.476157E+04
        34   9 -7.835053E+06 -9.420690E+05  2.168740E+05 -3.097972E+06 -2.545484E+04  1.704802E+04
        34  10 -9.804629E+06 -1.706732E+06 -3.679512E+05 -3.626887E+06  1.828606E-09 -7.320277E-10
        34  11 -9.733840E+06 -1.610507E+06 -3.038407E+05 -3.562873E+06 -4.983180E-09 -3.435867E-10
        34  12 -9.603132E+06 -1.606485E+06 -2.605647E+05 -3.572235E+06  3.124001E-09  9.910520E-11
        34  13 -8.722197E+06 -1.292179E+06 -7.475075E+04 -3.328615E+06 -4.833158E-09 -8.508546E-10
        34  14 -8.750853E+06 -1.237210E+06 -3.809923E+04 -3.295249E+06  3.455787E-09  6.105679E-10
        34  15 -8.719474E+06 -1.274298E+06 -2.181092E+04 -3.335258E+06  3.282947E-09 -5.325386E-10
        34  16 -7.638617E+06 -8.775505E+05  2.183439E+05 -3.029862E+06 -2.141616E-09 -2.157518E-10
        34  17 -7.766921E+06 -8.638554E+05  2.275550E+05 -3.027236E+06  6.459327E-09  2.695540E-10
        34  18 -7.835054E+06 -9.420694E+05  2.168722E+05 -3.097972E+06  8.348218E-10 -1.817861E-09
        34  19 -9.804625E+06 -1.706731E+06 -3.679431E+05 -3.626888E+06  6.393347E+04 -1.186033E+04
        34  20 -9.733838E+06 -1.610507E+06 -3.038368E+05 -3.562873E+06  4.275077E+04 -1.601631E+04
        34  21 -9.603132E+06 -1.606484E+06 -2.605632E+05 -3.572235E+06  2.102795E+04 -1.871142E+04
        34  22 -8.722193E+06 -1.292178E+06 -7.474246E+04 -3.328616E+06  6.504388E+04 -1.143729E+04
        34  23 -8.750851E+06 -1.237210E+06 -3.809505E+04 -3.295250E+06  4.440983E+04 -1.538948E+04
        34  24 -8.719473E+06 -1.274298E+06 -2.180930E+04 -3.335258E+06  2.323965E+04 -1.788036E+04
        34  25 -7.638612E+06 -8.775492E+05  2.183524E+05 -3.029863E+06  6.615638E+04 -1.101346E+04
        34  26 -7.766919E+06 -8.638546E+05  2.275595E+05 -3.027237E+06  4.607177E+04 -1.476157E+04
        34  27 -7.835053E+06 -9.420690E+05  2.168740E+05 -3.097972E+06  2.545484E+04 -1.704802E+04
        35   1 -9.363925E+06 -1.530467E+06 -1.928238E+05 -3.518353E+06 -1.672927E+04  1.667521E+04
        35   2 -9.266108E+06 -1.422199E+06 -1.465052E+05 -3.421649E+06 -9.252591E+03  1.298083E+04
        35   3 -9.070111E+06 -1.416595E+06 -1.049453E+05 -3.438751E+06 -1.540330E+03  8.634773E+03
        35   4 -8.711896E+06 -1.283704E+06 -1.718166E+04 -3.341552E+06 -1.888101E+04  1.586851E+04
        35   5 -8.760822E+06 -1.231305E+06 -1.013470E+04 -3.285048E+06 -1.165904E+04  1.208066E+04
        35   6 -8.711545E+06 -1.281511E+06 -7.637605E+03 -3.342352E+06 -4.203049E+03  7.640942E+03
        35   7 -8.059449E+06 -1.036916E+06  1.584232E+05 -3.164579E+06 -2.103527E+04  1.506087E+04
        35   8 -8.255286E+06 -1.040396E+06  1.262128E+05 -3.148344E+06 -1.406766E+04  1.117967E+04
        35   9 -8.352855E+06 -1.146421E+06  8.965786E+04 -3.245903E+06 -6.867464E+03  6.646483E+03
        35  10 -9.363925E+06 -1.530467E+06 -1.928249E+05 -3.518353E+06  4.032893E-09 -1.506109E-10
        35  11 -9.266108E+06 -1.422199E+06 -1.465057E+05 -3.421649E+06  3.428728E-09 -2.655107E-09
        35  12 -9.070111E+06 -1.416595E+06 -1.049455E+05 -3.438751E+06 -5.456497E-10  9.594231E-11
        35  13 -8.711897E+06 -1.283705E+06 -1.718280E+04 -3.341551E+06  7.131781E-09 -1.311739E-09
        35  14 -8.760822E+06 -1.231305E+06 -1.013522E+04 -3.285047E+06  7.711323E-09 -1.807803E-09
        35  15 -8.711545E+06 -1.281511E+06 -7.637748E+03 -3.342352E+06 -2.533304E-09  1.448025E-09
        35  16 -8.059450E+06 -1.036916E+06  1.584220E+05 -3.164578E+06  4.853510E-10 -1.377663E-09
        35  17 -8.255287E+06 -1.040396E+06  1.262121E+05 -3.148344E+06  4.208294E-09 -7.801531E-10
        35  18 -8.352855E+06 -1.146421E+06  8.965769E+04 -3.245903E+06  1.898703E-09  5.361569E-10
        35  19 -9.363925E+06 -1.530467E+06 -1.928238E+05 -3.518353E+06  1.672927E+04 -1.667521E+04
        35  20 -9.266108E+06 -1.422199E+06 -1.465052E+05 -3.421649E+06  9.252591E+03 -1.298083E+04
        35  21 -9.070111E+06 -1.416595E+06 -1.049453E+05 -3.438751E+06  1.540330E+03 -8.634773E+03
        35  22 -8.711896E+06 -1.283704E+06 -1.718166E+04 -3.341552E+06  1.888101E+04 -1.586851E+04
        35  23 -8.760822E+06 -1.231305E+06 -1.013470E+04 -3.285048E+06  1.165904E+04 -1.208066E+04
        35  24 -8.711545E+06 -1.281511E+06 -7.637605E+03 -3.342352E+06  4.203049E+03 -7.640942E+03
        35  25 -8.059449E+06 -1.036916E+06  1.584232E+05 -3.164579E+06  2.103527E+04 -1.506087E+04
        35  26 -8.255286E+06 -1.040396E+06  1.262128E+05 -3.148344E+06  1.406766E+04 -1.117967E+04
        35  27 -8.352855E+06 -1.146421E+06  8.965786E+04 -3.245903E+06  6.867464E+03 -6.646483E+03
        36   1 -8.784268E+06 -1.311819E+06 -2.700951E+04 -3.364977E+06  1.151737E+03  5.180773E+03
        36   2 -8.677868E+06 -1.196718E+06  1.415965E+04 -3.259218E+06  7.998649E+03  2.132491E+02
        36   3 -8.464979E+06 -1.192392E+06  5.129955E+04 -3.277512E+06  1.479930E+04 -4.621666E+03
        36   4 -8.709703E+06 -1.283530E+06 -7.453859E+03 -3.344540E+06 -1.513221E+03  4.186800E+03
        36   5 -8.763044E+06 -1.228877E+06 -8.816496E+03 -3.282236E+06  5.385678E+03 -7.617502E+02
        36   6 -8.709930E+06 -1.285012E+06 -1.424837E+04 -3.343996E+06  1.223705E+04 -5.578059E+03
        36   7 -8.635132E+06 -1.255241E+06  1.210141E+04 -3.324101E+06 -4.178541E+03  3.192689E+03
        36   8 -8.848213E+06 -1.261035E+06 -3.179339E+04 -3.305251E+06  2.773093E+03 -1.736605E+03
        36   9 -8.954824E+06 -1.377630E+06 -7.980209E+04 -3.410457E+06  9.675892E+03 -6.534037E+03
        36  10 -8.784268E+06 -1.311819E+06 -2.700957E+04 -3.364977E+06  3.979255E-09  2.618996E-09
        36  11 -8.677868E+06 -1.196718E+06  1.415953E+04 -3.259218E+06  9.592394E-10 -2.662076E-09
        36  12 -8.464980E+06 -1.192392E+06  5.129910E+04 -3.277512E+06 -1.683705E-09  2.227263E-10
        36  13 -8.709703E+06 -1.283530E+06 -7.453896E+03 -3.344540E+06 -6.772784E-09  1.155637E-09
        36  14 -8.763044E+06 -1.228877E+06 -8.816552E+03 -3.282236E+06 -3.679608E-09 -1.342144E-09
        36  15 -8.709930E+06 -1.285012E+06 -1.424871E+04 -3.343996E+06  2.903917E-09  2.808524E-09
        36  16 -8.635132E+06 -1.255241E+06  1.210136E+04 -3.324101E+06 -3.136347E-09 -1.597426E-09
        36  17 -8.848213E+06 -1.261035E+06 -3.179341E+04 -3.305251E+06 -7.736776E-09 -2.219905E-09
        36  18 -8.954824E+06 -1.377630E+06 -7.980234E+04 -3.410457E+06 -1.451665E-09  7.757241E-10
        36  19 -8.784268E+06 -1.311819E+06 -2.700951E+04 -3.364977E+06 -1.151737E+03 -5.180773E+03
        36  20 -8.677868E+06 -1.196718E+06  1.415965E+04 -3.259218E+06 -7.998649E+03 -2.132491E+02
        36  21 -8.464979E+06 -1.192392E+06  5.129955E+04 -3.277512E+06 -1.479930E+04  4.621666E+03
        36  22 -8.709703E+06 -1.283530E+06 -7.453859E+03 -3.344540E+06  1.513221E+03 -4.186800E+03
        36  23 -8.763044E+06 -1.228877E+06 -8.816496E+03 -3.282236E+06 -5.385678E+03  7.617502E+02
        36  24 -8.709930E+06 -1.285012E+06 -1.424837E+04 -3.343996E+06 -1.223705E+04  5.578059E+03
        36  25 -8.635132E+06 -1.255241E+06  1.210141E+04 -3.324101E+06  4.178541E+03 -3.192689E+03
        36  26 -8.848213E+06 -1.261035E+06 -3.179339E+04 -3.305251E+06 -2.773093E+03  1.736605E+03
        36  27 -8.954824E+06 -1.377630E+06 -7.980209E+04 -3.410457E+06 -9.675892E+03  6.534037E+03
        37   1 -8.193407E+06 -1.084791E+06  1.227374E+05 -3.202582E+06  1.890126E+04 -7.429692E+03
        37   2 -8.101319E+06 -9.824658E+05  1.462424E+05 -3.109254E+06  3.646008E+04 -7.733062E+03
        37   3 -7.924372E+06 -9.917312E+05  1.533751E+05 -3.118319E+06  5.363726E+04 -6.975625E+03
        37   4 -8.714014E+06 -1.279563E+06 -1.792155E+04 -3.341320E+06  1.627360E+04 -8.411609E+03
        37   5 -8.757485E+06 -1.230960E+06 -3.085093E+04 -3.287438E+06  3.423879E+04 -8.565660E+03
        37   6 -8.716201E+06 -1.294052E+06 -6.049157E+04 -3.335962E+06  5.181847E+04 -7.659822E+03
        37   7 -9.234354E+06 -1.474318E+06 -1.586038E+05 -3.479952E+06  1.364842E+04 -9.392625E+03
        37   8 -9.413227E+06 -1.479428E+06 -2.079821E+05 -3.465448E+06  3.202012E+04 -9.397277E+03
        37   9 -9.507416E+06 -1.596333E+06 -2.744144E+05 -3.553349E+06  5.000223E+04 -8.343045E+03
        37  10 -8.193408E+06 -1.084791E+06  1.227366E+05 -3.202582E+06  4.706673E-09  2.060373E-09
        37  11 -8.101321E+06 -9.824662E+05  1.462397E+05 -3.109254E+06  7.449853E-09 -1.537074E-09
        37  12 -7.924375E+06 -9.917321E+05  1.533696E+05 -3.118319E+06 -4.039051E-09 -1.239283E-09
        37  13 -8.714015E+06 -1.279563E+06 -1.792218E+04 -3.341320E+06  2.044340E-09  3.710883E-09
        37  14 -8.757486E+06 -1.230961E+06 -3.085329E+04 -3.287437E+06  3.237409E-09 -1.184820E-09
        37  15 -8.716204E+06 -1.294053E+06 -6.049679E+04 -3.335962E+06 -3.750964E-09  3.336042E-10
        37  16 -9.234354E+06 -1.474318E+06 -1.586043E+05 -3.479951E+06 -5.112521E-10 -7.239116E-10
        37  17 -9.413228E+06 -1.479429E+06 -2.079842E+05 -3.465448E+06  2.267816E-09 -1.658721E-09
        37  18 -9.507419E+06 -1.596333E+06 -2.744193E+05 -3.553349E+06  9.106635E-10  2.003792E-09
        37  19 -8.193407E+06 -1.084791E+06  1.227374E+05 -3.202582E+06 -1.890126E+04  7.429692E+03
        37  20 -8.101319E+06 -9.824658E+05  1.462424E+05 -3.109254E+06 -3.646008E+04  7.733062E+03
        37  21 -7.924372E+06 -9.917312E+05  1.533751E+05 -3.118319E+06 -5.363726E+04  6.975625E+03
        37  22 -8.714014E+06 -1.279563E+06 -1.792155E+04 -3.341320E+06 -1.627360E+04  8.411609E+03
        37  23 -8.757485E+06 -1.230960E+06 -3.085093E+04 -3.287438E+06 -3.423879E+04  8.565660E+03
        37  24 -8.716201E+06 -1.294052E+06 -6.049157E+04 -3.335962E+06 -5.181847E+04  7.659822E+03
        37  25 -9.234354E+06 -1.474318E+06 -1.586038E+05 -3.479952E+06 -1.364842E+04  9.392625E+03
        37  26 -9.413227E+06 -1.479428E+06 -2.079821E+05 -3.465448E+06 -3.202012E+04  9.397277E+03
        37  27 -9.507416E+06 -1.596333E+06 -2.744144E+05 -3.553349E+06 -5.000223E+04  8.343045E+03
        38   1 -7.720594E+06 -9.004675E+05  1.931873E+05 -3.077635E+06  6.654437E+04 -5.753594E+03
        38   2 -7.656940E+06 -8.061583E+05  1.600225E+05 -3.000864E+06  1.357159E+05  1.554972E+04
        38   3 -7.600309E+06 -9.229780E+05  3.457559E+04 -2.950683E+06  2.034265E+05  4.078595E+04
        38   4 -8.729913E+06 -1.268495E+06 -7.685749E+04 -3.337074E+06  6.405754E+04 -6.688553E+03
        38   5 -8.735026E+06 -1.222075E+06 -1.323307E+05 -3.301570E+06  1.346813E+05  1.515404E+04
        38   6 -8.747576E+06 -1.387265E+06 -2.813812E+05 -3.292648E+06  2.038344E+05  4.092369E+04
        38   7 -9.738241E+06 -1.636483E+06 -3.469925E+05 -3.596134E+06  6.157513E+04 -7.621996E+03
        38   8 -9.811977E+06 -1.637912E+06 -4.247896E+05 -3.601794E+06  1.336485E+05  1.475907E+04
        38   9 -9.893551E+06 -1.851422E+06 -5.974603E+05 -3.634014E+06  2.042412E+05  4.106092E+04
        38  10 -7.720599E+06 -9.004687E+05  1.931788E+05 -3.077635E+06 -2.607496E-09 -1.193399E-09
        38  11 -7.656960E+06 -8.061636E+05  1.599870E+05 -3.000866E+06 -6.868151E-10 -1.840184E-09
        38  12 -7.600355E+06 -9.229911E+05  3.449359E+04 -2.950689E+06 -3.077556E-09 -6.821235E-10
        38  13 -8.729918E+06 -1.268497E+06 -7.686538E+04 -3.337074E+06  1.885778E-09  3.646533E-10
        38  14 -8.735046E+06 -1.222080E+06 -1.323658E+05 -3.301572E+06 -3.223218E-09 -1.929865E-09
        38  15 -8.747621E+06 -1.387278E+06 -2.814637E+05 -3.292655E+06  2.422830E-09 -6.983776E-10
        38  16 -9.738245E+06 -1.636484E+06 -3.469998E+05 -3.596134E+06 -3.539223E-09  2.154354E-10
        38  17 -9.811996E+06 -1.637917E+06 -4.248241E+05 -3.601795E+06  3.353873E-09 -1.361989E-09
        38  18 -9.893597E+06 -1.851435E+06 -5.975433E+05 -3.634021E+06  2.506297E-09  9.306168E-10
        38  19 -7.720594E+06 -9.004675E+05  1.931873E+05 -3.077635E+06 -6.654437E+04  5.753594E+03
        38  20 -7.656940E+06 -8.061583E+05  1.600225E+05 -3.000864E+06 -1.357159E+05 -1.554972E+04
        38  21 -7.600309E+06 -9.229780E+05  3.457559E+04 -2.950683E+06 -2.034265E+05 -4.078595E+04
        38  22 -8.729913E+06 -1.268495E+06 -7.685749E+04 -3.337074E+06 -6.405754E+04  6.688553E+03
        38  23 -8.735026E+06 -1.222075E+06 -1.323307E+05 -3.301570E+06 -1.346813E+05 -1.515404E+04
        38  24 -8.747576E+06 -1.387265E+06 -2.813812E+05 -3.292648E+06 -2.038344E+05 -4.092369E+04
        38  25 -9.738241E+06 -1.636483E+06 -3.469925E+05 -3.596134E+06 -6.157513E+04  7.621996E+03
        38  26 -9.811977E+06 -1.637912E+06 -4.247896E+05 -3.601794E+06 -1.336485E+05 -1.475907E+04
        38  27 -9.893551E+06 -1.851422E+06 -5.974603E+05 -3.634014E+06 -2.042412E+05 -4.106092E+04
        39   1 -7.460561E+06 -8.320363E+05 -4.471643E+03 -3.113337E+06  2.616054E+05  5.700119E+04
        39   2 -7.399227E+06 -5.448021E+05 -2.196037E+05 -2.934980E+06  5.592858E+05  1.682431E+05
        39   3 -7.847269E+06 -1.534729E+06 -1.005633E+06 -2.432664E+06  8.462109E+05  3.078803E+05
        39   4 -8.801822E+06 -1.228794E+06 -3.444839E+05 -3.364378E+06  2.550692E+05  5.458181E+04
        39   5 -8.618825E+06 -1.079729E+06 -5.623852E+05 -3.340793E+06  5.634718E+05  1.697457E+05
        39   6 -8.948441E+06 -2.211673E+06 -1.360665E+06 -2.992910E+06  8.611657E+05  3.131308E+05
        39   7 -1.014131E+07 -1.625586E+06 -6.846298E+05 -3.614999E+06  2.485482E+05  5.216526E+04
        39   8 -9.836942E+06 -1.614415E+06 -9.053070E+05 -3.745821E+06  5.676475E+05  1.712430E+05
        39   9 -1.004825E+07 -2.887808E+06 -1.715805E+06 -3.552045E+06  8.760899E+05  3.183532E+05
        39  10 -7.460636E+06 -8.320585E+05 -4.608217E+03 -3.113349E+06 -2.774785E-09  3.266136E-10
        39  11 -7.399575E+06 -5.449183E+05 -2.202538E+05 -2.935057E+06  4.822146E-09 -2.572359E-10
        39  12 -7.848072E+06 -1.535027E+06 -1.007178E+06 -2.432875E+06  9.628277E-10 -1.106304E-09
        39  13 -8.801893E+06 -1.228815E+06 -3.446138E+05 -3.364390E+06 -3.181961E-09  4.636295E-10
        39  14 -8.619178E+06 -1.079847E+06 -5.630466E+05 -3.340871E+06 -3.602582E-09  2.062606E-09
        39  15 -8.949275E+06 -2.211983E+06 -1.362268E+06 -2.993130E+06 -8.211041E-10 -3.424314E-10
        39  16 -1.014138E+07 -1.625606E+06 -6.847532E+05 -3.615010E+06  9.218970E-10 -3.148143E-10
        39  17 -9.837301E+06 -1.614536E+06 -9.059799E+05 -3.745900E+06 -9.517529E-09 -8.411747E-11
        39  18 -1.004911E+07 -2.888129E+06 -1.717468E+06 -3.552272E+06  1.129311E-09 -1.035668E-09
        39  19 -7.460561E+06 -8.320363E+05 -4.471643E+03 -3.113337E+06 -2.616054E+05 -5.700119E+04
        39  20 -7.399227E+06 -5.448021E+05 -2.196037E+05 -2.934980E+06 -5.592858E+05 -1.682431E+05
        39  21 -7.847269E+06 -1.534729E+06 -1.005633E+06 -2.432664E+06 -8.462109E+05 -3.078803E+05
        39  22 -8.801822E+06 -1.228794E+06 -3.444839E+05 -3.364378E+06 -2.550692E+05 -5.458181E+04
        39  23 -8.618825E+06 -1.079729E+06 -5.623852E+05 -3.340793E+06 -5.634718E+05 -1.697457E+05
        39  24 -8.948441E+06 -2.211673E+06 -1.360665E+06 -2.992910E+06 -8.611657E+05 -3.131308E+05
        39  25 -1.014131E+07 -1.625586E+06 -6.846298E+05 -3.614999E+06 -2.485482E+05 -5.216526E+04
        39  26 -9.836942E+06 -1.614415E+06 -9.053070E+05 -3.745821E+06 -5.676475E+05 -1.712430E+05
        39  27 -1.004825E+07 -2.887808E+06 -1.715805E+06 -3.552045E+06 -8.760899E+05 -3.183532E+05
        40   1  2.749528E+05 -2.106024E+05  3.223090E+05 -1.953254E+05 -4.818150E+03  2.260013E+05
        40   2 -1.755332E+03 -2.455925E+05  1.473673E+05 -8.426743E+04 -1.277561E+04  1.339841E+05
        40   3 -5.513932E+04 -2.127383E+05  8.818129E+04  2.667366E+04 -1.524396E+04  4.199258E+04
        40   4  3.287153E+05  1.795030E+04  3.756286E+05 -4.370491E+02 -4.835249E+03  2.422882E+05
        40   5  5.209740E+04 -1.664703E+04  1.931027E+05 -1.265207E+03 -1.280185E+04  1.422901E+05
        40   6  9.808378E+01  1.793844E+04  1.318459E+05 -2.199202E+03 -1.524713E+04  4.231930E+04
        40   7  3.826177E+05  2.466339E+05  4.289663E+05  1.945233E+05 -4.842126E+03  2.585812E+05
        40   8  1.059731E+05  2.123637E+05  2.388394E+05  8.176825E+04 -1.282587E+04  1.505991E+05
        40   9  5.533543E+04  2.486683E+05  1.755086E+05 -3.108299E+04 -1.525033E+04  4.264615E+04
        40  10  2.749391E+05 -2.106573E+05  3.222130E+05 -1.953246E+05 -2.137733E-09 -3.261565E-08
        40  11 -1.760327E+03 -2.456118E+05  1.473333E+05 -8.426605E+04  5.096945E-09 -9.094104E-09
        40  12 -5.514005E+04 -2.127403E+05  8.817754E+04  2.667417E+04  2.300615E-09  2.592838E-08
        40  13  3.286995E+05  1.788727E+04  3.755182E+05 -4.361061E+02  6.126884E-10  1.468428E-09
        40  14  5.209179E+04 -1.666882E+04  1.930643E+05 -1.263741E+03  1.539045E-09 -2.244651E-10
        40  15  9.735348E+01  1.793646E+04  1.318421E+05 -2.198683E+03 -5.612083E-09  9.083478E-10
        40  16  3.825998E+05  2.465622E+05  4.288406E+05  1.945243E+05  8.069565E-10  3.185450E-08
        40  17  1.059669E+05  2.123393E+05  2.387965E+05  8.176980E+04 -1.535838E-09  7.803301E-09
        40  18  5.533469E+04  2.486663E+05  1.755048E+05 -3.108247E+04 -8.901073E-10 -2.637033E-08
        40  19  2.749528E+05 -2.106024E+05  3.223090E+05 -1.953254E+05  4.818150E+03 -2.260013E+05
        40  20 -1.755332E+03 -2.455925E+05  1.473673E+05 -8.426743E+04  1.277561E+04 -1.339841E+05
        40  21 -5.513932E+04 -2.127383E+05  8.818129E+04  2.667366E+04  1.524396E+04 -4.199258E+04
        40  22  3.287153E+05  1.795030E+04  3.756286E+05 -4.370491E+02  4.835249E+03 -2.422882E+05
        40  23  5.209740E+04 -1.664703E+04  1.931027E+05 -1.265207E+03  1.280185E+04 -1.422901E+05
        40  24  9.808378E+01  1.793844E+04  1.318459E+05 -2.199202E+03  1.524713E+04 -4.231930E+04
        40  25  3.826177E+05  2.466339E+05  4.289663E+05  1.945233E+05  4.842126E+03 -2.585812E+05
        40  26  1.059731E+05  2.123637E+05  2.388394E+05  8.176825E+04  1.282587E+04 -1.505991E+05
        40  27  5.533543E+04  2.486683E+05  1.755086E+05 -3.108299E+04  1.525033E+04 -4.264615E+04
        41   1 -4.347165E+04 -2.264354E+05  7.711652E+04 -1.050735E+04 -1.527525E+04  2.106113E+04
        41   2 -5.246601E+04 -2.361848E+05  7.893174E+04 -3.454092E+01 -1.549779E+04 -3.901772E+04
        41   3 -3.216732E+04 -2.307770E+05  1.272110E+05  9.908864E+03 -1.490946E+04 -9.909374E+04
        41   4  1.167651E+04  5.975853E+03  1.209841E+05 -1.997489E+03 -1.528173E+04  2.243209E+04
        41   5  3.234906E+03 -1.701065E+03  1.228386E+05 -1.699242E+03 -1.549819E+04 -3.883752E+04
        41   6  2.428573E+04  5.980278E+03  1.719730E+05 -1.930199E+03 -1.490197E+04 -1.001045E+05
        41   7  6.682182E+04  2.384394E+05  1.648494E+05  6.515700E+03 -1.528817E+04  2.380355E+04
        41   8  5.893265E+04  2.328359E+05  1.667432E+05 -3.364519E+03 -1.549859E+04 -3.865725E+04
        41   9  8.073600E+04  2.427919E+05  2.167325E+05 -1.377382E+04 -1.489443E+04 -1.011157E+05
        41  10 -4.347202E+04 -2.264359E+05  7.711525E+04 -1.050709E+04  2.964652E-10  3.581491E-08
        41  11 -5.246668E+04 -2.361865E+05  7.892842E+04 -3.502792E+01  3.844778E-09  8.820710E-09
        41  12 -3.217019E+04 -2.307876E+05  1.271921E+05  9.907674E+03  7.048212E-10 -1.010588E-08
        41  13  1.167612E+04  5.975250E+03  1.209827E+05 -1.997213E+03 -3.533013E-09  1.383110E-09
        41  14  3.234244E+03 -1.702749E+03  1.228354E+05 -1.699726E+03 -1.049539E-08 -2.652425E-10
        41  15  2.428280E+04  5.969460E+03  1.719537E+05 -1.931400E+03 -7.760693E-09  7.711735E-10
        41  16  6.682142E+04  2.384388E+05  1.648479E+05  6.515993E+03 -8.416416E-10 -3.690598E-08
        41  17  5.893199E+04  2.328342E+05  1.667399E+05 -3.365002E+03  2.487828E-09 -9.362905E-09
        41  18  8.073302E+04  2.427809E+05  2.167129E+05 -1.377503E+04  1.299339E-09  9.355894E-09
        41  19 -4.347165E+04 -2.264354E+05  7.711652E+04 -1.050735E+04  1.527525E+04 -2.106113E+04
        41  20 -5.246601E+04 -2.361848E+05  7.893174E+04 -3.454092E+01  1.549779E+04  3.901772E+04
        41  21 -3.216732E+04 -2.307770E+05  1.272110E+05  9.908864E+03  1.490946E+04  9.909374E+04
        41  22  1.167651E+04  5.975853E+03  1.209841E+05 -1.997489E+03  1.528173E+04 -2.243209E+04
        41  23  3.234906E+03 -1.701065E+03  1.228386E+05 -1.699242E+03  1.549819E+04  3.883752E+04
        41  24  2.428573E+04  5.980278E+03  1.719730E+05 -1.930199E+03  1.490197E+04  1.001045E+05
        41  25  6.682182E+04  2.384394E+05  1.648494E+05  6.515700E+03  1.528817E+04 -2.380355E+04
        41  26  5.893265E+04  2.328359E+05  1.667432E+05 -3.364519E+03  1.549859E+04  3.865725E+04
        41  27  8.073600E+04  2.427919E+05  2.167325E+05 -1.377382E+04  1.489443E+04  1.011157E+05
        42   1 -5.632072E+04 -2.068848E+05  1.656118E+05 -5.881112E+04 -1.478527E+04 -1.292752E+05
        42   2  4.334119E+04 -2.731553E+05  3.083337E+05  1.619339E+05 -1.108432E+04 -3.056421E+05
        42   3  5.810923E+05 -2.068011E+05  6.755549E+05  3.840312E+05 -1.554471E+03 -4.819706E+05
        42   4 -1.513554E+02  3.234749E+04  2.107708E+05 -2.113832E+03 -1.479730E+04 -1.291734E+05
        42   5  1.026677E+05 -3.462393E+04  3.566063E+05 -1.109952E+03 -1.096038E+04 -3.141682E+05
        42   6  6.448019E+05  3.238004E+04  7.328636E+05  1.206524E+03 -1.170663E+03 -4.991286E+05
        42   7  5.602695E+04  2.716421E+05  2.559292E+05  5.460588E+04 -1.480931E+04 -1.290716E+05
        42   8  1.620901E+05  2.040185E+05  4.048904E+05 -1.642179E+05 -1.083200E+04 -3.226976E+05
        42   9  7.090575E+05  2.719280E+05  7.902476E+05 -3.817677E+05 -7.658034E+02 -5.162934E+05
        42  10 -5.632545E+04 -2.069028E+05  1.655799E+05 -5.881266E+04 -3.625034E-09  2.220826E-09
        42  11  4.331597E+04 -2.732556E+05  3.081579E+05  1.619312E+05  3.154261E-09 -9.451696E-09
        42  12  5.810299E+05 -2.070505E+05  6.751182E+05  3.840306E+05  9.212342E-10 -9.463064E-09
        42  13 -1.560685E+02  3.232952E+04  2.107391E+05 -2.115371E+03 -1.111872E-08  1.137129E-09
        42  14  1.026411E+05 -3.472991E+04  3.564206E+05 -1.112724E+03 -2.209197E-09  1.822220E-10
        42  15  6.447350E+05  3.211267E+04  7.323954E+05  1.206054E+03 -3.157919E-09  1.082257E-09
        42  16  5.602224E+04  2.716242E+05  2.558975E+05  5.460435E+04 -3.608542E-10 -2.883309E-09
        42  17  1.620621E+05  2.039067E+05  4.046946E+05 -1.642207E+05  5.775624E-09  9.061118E-09
        42  18  7.089860E+05  2.716420E+05  7.897469E+05 -3.817681E+05  3.842026E-09  9.316819E-09
        42  19 -5.632072E+04 -2.068848E+05  1.656118E+05 -5.881112E+04  1.478527E+04  1.292752E+05
        42  20  4.334119E+04 -2.731553E+05  3.083337E+05  1.619339E+05  1.108432E+04  3.056421E+05
        42  21  5.810923E+05 -2.068011E+05  6.755549E+05  3.840312E+05  1.554471E+03  4.819706E+05
        42  22 -1.513554E+02  3.234749E+04  2.107708E+05 -2.113832E+03  1.479730E+04  1.291734E+05
        42  23  1.026677E+05 -3.462393E+04  3.566063E+05 -1.109952E+03  1.096038E+04  3.141682E+05
        42  24  6.448019E+05  3.238004E+04  7.328636E+05  1.206524E+03  1.170663E+03  4.991286E+05
        42  25  5.602695E+04  2.716421E+05  2.559292E+05  5.460588E+04  1.480931E+04  1.290716E+05
        42  26  1.620901E+05  2.040185E+05  4.048904E+05 -1.642179E+05  1.083200E+04  3.226976E+05
        42  27  7.090575E+05  2.719280E+05  7.902476E+05 -3.817677E+05  7.658034E+02  5.162934E+05
        43   1 -6.369288E+06 -1.939694E+06 -1.204865E+06 -2.190519E+06 -5.031237E+05 -1.751670E+05
        43   2 -6.218650E+06 -1.193705E+06 -7.339235E+05 -2.277442E+06 -3.297645E+05 -7.655038E+04
        43   3 -6.325144E+06 -1.213615E+06 -6.000448E+05 -2.215016E+06 -1.440482E+05 -1.039757E+04
        43   4 -4.866010E+06 -1.235769E+06 -7.644217E+05 -1.646669E+06 -4.880347E+05 -1.695560E+05
        43   5 -4.698582E+06 -5.805687E+05 -3.156752E+05 -1.825091E+06 -3.258530E+05 -7.509882E+04
        43   6 -4.785369E+06 -6.879615E+05 -1.944269E+05 -1.854360E+06 -1.513263E+05 -1.313615E+04
        43   7 -3.360501E+06 -5.313565E+05 -3.242060E+05 -1.101506E+06 -4.729038E+05 -1.639208E+05
        43   8 -3.176266E+06  3.278724E+04  1.023577E+05 -1.371702E+06 -3.219300E+05 -7.364225E+04
        43   9 -3.243294E+06 -1.622732E+05  2.109918E+05 -1.492937E+06 -1.586241E+05 -1.588044E+04
        43  10 -6.369571E+06 -1.939796E+06 -1.205404E+06 -2.190590E+06 -2.009913E-09  2.754046E-10
        43  11 -6.218770E+06 -1.193741E+06 -7.341413E+05 -2.277463E+06 -2.836830E-09 -1.408711E-09
        43  12 -6.325166E+06 -1.213620E+06 -6.000844E+05 -2.215017E+06 -1.778791E-09  8.477356E-10
        43  13 -4.866276E+06 -1.235865E+06 -7.649278E+05 -1.646736E+06 -2.073519E-10 -2.604742E-09
        43  14 -4.698698E+06 -5.806036E+05 -3.158871E+05 -1.825111E+06 -2.989186E-09 -2.529937E-09
        43  15 -4.785394E+06 -6.879679E+05 -1.944706E+05 -1.854362E+06  4.365010E-09 -6.955946E-11
        43  16 -3.360749E+06 -5.314460E+05 -3.246796E+05 -1.101568E+06  1.168468E-09  1.082470E-09
        43  17 -3.176379E+06  3.275334E+04  1.021515E+05 -1.371721E+06  4.380135E-09  1.884857E-10
        43  18 -3.243321E+06 -1.622803E+05  2.109438E+05 -1.492940E+06  6.462693E-09  6.828359E-10
        43  19 -6.369288E+06 -1.939694E+06 -1.204865E+06 -2.190519E+06  5.031237E+05  1.751670E+05
        43  20 -6.218650E+06 -1.193705E+06 -7.339235E+05 -2.277442E+06  3.297645E+05  7.655038E+04
        43  21 -6.325144E+06 -1.213615E+06 -6.000448E+05 -2.215016E+06  1.440482E+05  1.039757E+04
        43  22 -4.866010E+06 -1.235769E+06 -7.644217E+05 -1.646669E+06  4.880347E+05  1.695560E+05
        43  23 -4.698582E+06 -5.805687E+05 -3.156752E+05 -1.825091E+06  3.258530E+05  7.509882E+04
        43  24 -4.785369E+06 -6.879615E+05 -1.944269E+05 -1.854360E+06  1.513263E+05  1.313615E+04
        43  25 -3.360501E+06 -5.313565E+05 -3.242060E+05 -1.101506E+06  4.729038E+05  1.639208E+05
        43  26 -3.176266E+06  3.278724E+04  1.023577E+05 -1.371702E+06  3.219300E+05  7.364225E+04
        43  27 -3.243294E+06 -1.622732E+05  2.109918E+05 -1.492937E+06  1.586241E+05  1.588044E+04
        44   1 -6.073234E+06 -1.297687E+06 -5.205543E+05 -2.192422E+06 -1.211169E+05 -9.024384E+03
        44   2 -5.994753E+06 -1.128684E+06 -4.070839E+05 -2.134151E+06 -8.045337E+04  5.833015E+03
        44   3 -5.874110E+06 -1.130936E+06 -3.485247E+05 -2.141685E+06 -3.814855E+04  1.630818E+04
        44   4 -4.752012E+06 -7.818395E+05 -1.592727E+05 -1.816800E+06 -1.206452E+05 -8.855896E+03
        44   5 -4.768180E+06 -6.613096E+05 -7.450059E+04 -1.797045E+06 -8.146133E+04  5.449147E+03
        44   6 -4.741824E+06 -7.116088E+05 -4.336467E+04 -1.843105E+06 -4.064475E+04  1.537154E+04
        44   7 -3.429093E+06 -2.658581E+05  2.018500E+05 -1.440439E+06 -1.201721E+05 -8.686852E+03
        44   8 -3.540145E+06 -1.938404E+05  2.579476E+05 -1.459330E+06 -8.247138E+04  5.064492E+03
        44   9 -3.608295E+06 -2.922202E+05  2.616815E+05 -1.544034E+06 -4.314595E+04  1.443311E+04
        44  10 -6.073250E+06 -1.297691E+06 -5.205823E+05 -2.192422E+06 -1.424045E-09  1.646898E-09
        44  11 -5.994760E+06 -1.128686E+06 -4.070962E+05 -2.134150E+06 -2.406027E-09 -2.674019E-10
        44  12 -5.874112E+06 -1.130936E+06 -3.485280E+05 -2.141685E+06 -1.924791E-09 -5.795682E-10
        44  13 -4.752028E+06 -7.818436E+05 -1.593005E+05 -1.816801E+06  4.213936E-09  6.760919E-10
        44  14 -4.768187E+06 -6.613114E+05 -7.451321E+04 -1.797044E+06 -4.529231E-09  1.332785E-10
        44  15 -4.741825E+06 -7.116095E+05 -4.336823E+04 -1.843104E+06 -1.008874E-08 -5.309425E-10
        44  16 -3.429108E+06 -2.658621E+05  2.018226E+05 -1.440440E+06 -2.618841E-09 -2.374638E-10
        44  17 -3.540152E+06 -1.938422E+05  2.579347E+05 -1.459330E+06  6.651782E-10  1.411443E-09
        44  18 -3.608297E+06 -2.922209E+05  2.616776E+05 -1.544033E+06 -3.954773E-10  4.823334E-10
        44  19 -6.073234E+06 -1.297687E+06 -5.205543E+05 -2.192422E+06  1.211169E+05  9.024384E+03
        44  20 -5.994753E+06 -1.128684E+06 -4.070839E+05 -2.134151E+06  8.045337E+04 -5.833015E+03
        44  21 -5.874110E+06 -1.130936E+06 -3.485247E+05 -2.141685E+06  3.814855E+04 -1.630818E+04
        44  22 -4.752012E+06 -7.818395E+05 -1.592727E+05 -1.816800E+06  1.206452E+05  8.855896E+03
        44  23 -4.768180E+06 -6.613096E+05 -7.450059E+04 -1.797045E+06  8.146133E+04 -5.449147E+03
        44  24 -4.741824E+06 -7.116088E+05 -4.336467E+04 -1.843105E+06  4.064475E+04 -1.537154E+04
        44  25 -3.429093E+06 -2.658581E+05  2.018500E+05 -1.440439E+06  1.201721E+05  8.686852E+03
        44  26 -3.540145E+06 -1.938404E+05  2.579476E+05 -1.459330E+06  8.247138E+04 -5.064492E+03
        44  27 -3.608295E+06 -2.922202E+05  2.616815E+05 -1.544034E+06  4.314595E+04 -1.443311E+04
        45   1 -5.596602E+06 -1.055854E+06 -2.678949E+05 -2.079677E+06 -3.146392E+04  1.489077E+04
        45   2 -5.507360E+06 -9.377524E+05 -2.132053E+05 -1.981854E+06 -2.037204E+04  1.341395E+04
        45   3 -5.315898E+06 -9.380981E+05 -1.683996E+05 -2.004054E+06 -8.925217E+03  1.095460E+04
        45   4 -4.732480E+06 -7.287726E+05 -3.436536E+04 -1.844283E+06 -3.307116E+04  1.428825E+04
        45   5 -4.782941E+06 -6.649355E+05 -1.742932E+04 -1.785998E+06 -2.231692E+04  1.268779E+04
        45   6 -4.731132E+06 -7.194611E+05 -1.009510E+04 -1.847733E+06 -1.121023E+04  1.010453E+04
        45   7 -3.867635E+06 -4.016469E+05  1.990968E+05 -1.608591E+06 -3.468085E+04  1.368480E+04
        45   8 -4.058013E+06 -3.920886E+05  1.782997E+05 -1.589933E+06 -2.426430E+04  1.196070E+04
        45   9 -4.146035E+06 -5.008055E+05  1.481791E+05 -1.691280E+06 -1.349763E+04  9.253579E+03
        45  10 -5.596603E+06 -1.055855E+06 -2.678972E+05 -2.079677E+06 -2.927190E-09  1.061629E-10
        45  11 -5.507360E+06 -9.377527E+05 -2.132064E+05 -1.981854E+06 -4.382174E-09 -1.392351E-09
        45  12 -5.315898E+06 -9.380983E+05 -1.684000E+05 -2.004053E+06 -2.639947E-09  1.082027E-09
        45  13 -4.732481E+06 -7.287731E+05 -3.436780E+04 -1.844283E+06 -5.102272E-09 -1.391815E-09
        45  14 -4.782941E+06 -6.649358E+05 -1.743056E+04 -1.785997E+06 -4.200259E-09 -2.385562E-10
        45  15 -4.731133E+06 -7.194612E+05 -1.009553E+04 -1.847733E+06 -2.939395E-09  5.700033E-10
        45  16 -3.867637E+06 -4.016475E+05  1.990942E+05 -1.608591E+06  3.162528E-10 -1.595873E-09
        45  17 -4.058013E+06 -3.920889E+05  1.782983E+05 -1.589933E+06  4.037138E-09  9.131486E-11
        45  18 -4.146035E+06 -5.008057E+05  1.481786E+05 -1.691280E+06 -1.925588E-09  7.287220E-10
        45  19 -5.596602E+06 -1.055854E+06 -2.678949E+05 -2.079677E+06  3.146392E+04 -1.489077E+04
        45  20 -5.507360E+06 -9.377524E+05 -2.132053E+05 -1.981854E+06  2.037204E+04 -1.341395E+04
        45  21 -5.315898E+06 -9.380981E+05 -1.683996E+05 -2.004054E+06  8.925217E+03 -1.095460E+04
        45  22 -4.732480E+06 -7.287726E+05 -3.436536E+04 -1.844283E+06  3.307116E+04 -1.428825E+04
        45  23 -4.782941E+06 -6.649355E+05 -1.742932E+04 -1.785998E+06  2.231692E+04 -1.268779E+04
        45  24 -4.731132E+06 -7.194611E+05 -1.009510E+04 -1.847733E+06  1.121023E+04 -1.010453E+04
        45  25 -3.867635E+06 -4.016469E+05  1.990968E+05 -1.608591E+06  3.468085E+04 -1.368480E+04
        45  26 -4.058013E+06 -3.920886E+05  1.782997E+05 -1.589933E+06  2.426430E+04 -1.196070E+04
        45  27 -4.146035E+06 -5.008055E+05  1.481791E+05 -1.691280E+06  1.349763E+04 -9.253579E+03
        46   1 -4.993359E+06 -8.231839E+05 -7.914917E+04 -1.921701E+06 -6.203810E+03  7.801306E+03
        46   2 -4.895128E+06 -7.035783E+05 -3.419188E+04 -1.811000E+06 -1.378854E+03  2.622193E+03
        46   3 -4.679605E+06 -7.042689E+05  8.325093E+03 -1.837188E+06  3.492325E+03 -2.685800E+03
        46   4 -4.728225E+06 -7.235559E+05 -8.103281E+03 -1.850082E+06 -8.369572E+03  6.996772E+03
        46   5 -4.786788E+06 -6.629013E+05 -4.946577E+03 -1.781823E+06 -3.589814E+03  1.801227E+03
        46   6 -4.728076E+06 -7.225328E+05 -4.191165E+03 -1.850459E+06  1.235402E+03 -3.523346E+03
        46   7 -4.463021E+06 -6.239236E+05  6.293651E+04 -1.778435E+06 -1.053636E+04  6.191855E+03
        46   8 -4.678438E+06 -6.222238E+05  2.429760E+04 -1.752640E+06 -5.801194E+03  9.801050E+02
        46   9 -4.776545E+06 -7.407964E+05 -1.670749E+04 -1.863729E+06 -1.021308E+03 -4.360812E+03
        46  10 -4.993359E+06 -8.231840E+05 -7.914936E+04 -1.921701E+06  1.441779E-09  3.040449E-09
        46  11 -4.895128E+06 -7.035783E+05 -3.419190E+04 -1.811000E+06  5.029904E-10  7.325967E-10
        46  12 -4.679605E+06 -7.042690E+05  8.325056E+03 -1.837188E+06 -3.474228E-09 -5.835228E-10
        46  13 -4.728225E+06 -7.235559E+05 -8.103505E+03 -1.850082E+06 -9.910141E-09  1.415520E-09
        46  14 -4.786788E+06 -6.629013E+05 -4.946608E+03 -1.781823E+06  1.552315E-09 -5.130727E-09
        46  15 -4.728076E+06 -7.225328E+05 -4.191191E+03 -1.850459E+06  1.931957E-09 -1.699070E-09
        46  16 -4.463022E+06 -6.239237E+05  6.293623E+04 -1.778435E+06 -6.955691E-09  2.369408E-09
        46  17 -4.678438E+06 -6.222238E+05  2.429753E+04 -1.752640E+06 -2.660648E-09  2.996831E-10
        46  18 -4.776545E+06 -7.407964E+05 -1.670752E+04 -1.863729E+06 -6.975680E-10 -4.056286E-10
        46  19 -4.993359E+06 -8.231839E+05 -7.914917E+04 -1.921701E+06  6.203810E+03 -7.801306E+03
        46  20 -4.895128E+06 -7.035783E+05 -3.419188E+04 -1.811000E+06  1.378854E+03 -2.622193E+03
        46  21 -4.679605E+06 -7.042689E+05  8.325093E+03 -1.837188E+06 -3.492325E+03  2.685800E+03
        46  22 -4.728225E+06 -7.235559E+05 -8.103281E+03 -1.850082E+06  8.369572E+03 -6.996772E+03
        46  23 -4.786788E+06 -6.629013E+05 -4.946577E+03 -1.781823E+06  3.589814E+03 -1.801227E+03
        46  24 -4.728076E+06 -7.225328E+05 -4.191165E+03 -1.850459E+06 -1.235402E+03  3.523346E+03
        46  25 -4.463021E+06 -6.239236E+05  6.293651E+04 -1.778435E+06  1.053636E+04 -6.191855E+03
        46  26 -4.678438E+06 -6.222238E+05  2.429760E+04 -1.752640E+06  5.801194E+03 -9.801050E+02
        46  27 -4.776545E+06 -7.407964E+05 -1.670749E+04 -1.863729E+06  1.021308E+03  4.360812E+03
        47   1 -4.352786E+06 -5.799699E+05  9.790977E+04 -1.747881E+06  5.577498E+03 -6.141253E+03
        47   2 -4.260151E+06 -4.673590E+05  1.361149E+05 -1.642222E+06  1.051477E+04 -1.126967E+04
        47   3 -4.055508E+06 -4.692279E+05  1.719106E+05 -1.666114E+06  1.527849E+04 -1.590029E+04
        47   4 -4.729278E+06 -7.210842E+05 -4.247603E+03 -1.848912E+06  3.302193E+03 -6.986260E+03
        47   5 -4.785377E+06 -6.646358E+05 -5.635034E+03 -1.783828E+06  8.414200E+03 -1.205175E+04
        47   6 -4.729519E+06 -7.227132E+05 -9.571248E+03 -1.848312E+06  1.335185E+04 -1.661942E+04
        47   7 -5.105637E+06 -8.621917E+05 -1.064184E+05 -1.949889E+06  1.028398E+03 -7.830708E+03
        47   8 -5.310338E+06 -8.618984E+05 -1.474104E+05 -1.925326E+06  6.315585E+03 -1.283310E+04
        47   9 -5.403093E+06 -9.761737E+05 -1.910943E+05 -2.030332E+06  1.142751E+04 -1.733768E+04
        47  10 -4.352786E+06 -5.799700E+05  9.790964E+04 -1.747881E+06 -3.938315E-09 -4.067062E-10
        47  11 -4.260151E+06 -4.673592E+05  1.361145E+05 -1.642221E+06 -3.389949E-09 -1.158170E-09
        47  12 -4.055508E+06 -4.692282E+05  1.719096E+05 -1.666114E+06  6.402591E-10  1.033105E-09
        47  13 -4.729278E+06 -7.210842E+05 -4.247715E+03 -1.848912E+06 -1.679177E-09 -2.426956E-09
        47  14 -4.785377E+06 -6.646360E+05 -5.635439E+03 -1.783828E+06  3.836155E-09  4.271248E-09
        47  15 -4.729519E+06 -7.227135E+05 -9.572100E+03 -1.848312E+06  4.164285E-09  1.037089E-09
        47  16 -5.105637E+06 -8.621918E+05 -1.064185E+05 -1.949889E+06  4.647872E-10  3.160855E-10
        47  17 -5.310339E+06 -8.618986E+05 -1.474108E+05 -1.925326E+06  5.740229E-10 -5.951726E-10
        47  18 -5.403093E+06 -9.761741E+05 -1.910951E+05 -2.030332E+06 -5.443456E-10  5.413037E-10
        47  19 -4.352786E+06 -5.799699E+05  9.790977E+04 -1.747881E+06 -5.577498E+03  6.141253E+03
        47  20 -4.260151E+06 -4.673590E+05  1.361149E+05 -1.642222E+06 -1.051477E+04  1.126967E+04
        47  21 -4.055508E+06 -4.692279E+05  1.719106E+05 -1.666114E+06 -1.527849E+04  1.590029E+04
        47  22 -4.729278E+06 -7.210842E+05 -4.247603E+03 -1.848912E+06 -3.302193E+03  6.986260E+03
        47  23 -4.785377E+06 -6.646358E+05 -5.635034E+03 -1.783828E+06 -8.414200E+03  1.205175E+04
        47  24 -4.729519E+06 -7.227132E+05 -9.571248E+03 -1.848312E+06 -1.335185E+04  1.661942E+04
        47  25 -5.105637E+06 -8.621917E+05 -1.064184E+05 -1.949889E+06 -1.028398E+03  7.830708E+03
        47  26 -5.310338E+06 -8.618984E+05 -1.474104E+05 -1.925326E+06 -6.315585E+03  1.283310E+04
        47  27 -5.403093E+06 -9.761737E+05 -1.910943E+05 -2.030332E+06 -1.142751E+04  1.733768E+04
        48   1 -3.773773E+06 -3.554894E+05  2.477328E+05 -1.584935E+06  1.840165E+04 -1.847440E+04
        48   2 -3.700891E+06 -2.629686E+05  2.700183E+05 -1.499102E+06  3.064125E+04 -1.976740E+04
        48   3 -3.542065E+06 -2.739591E+05  2.814157E+05 -1.512214E+06  4.241456E+04 -1.976237E+04
        48   4 -4.734835E+06 -7.157587E+05 -1.198917E+04 -1.843269E+06  1.632177E+04 -1.925276E+04
        48   5 -4.778576E+06 -6.695843E+05 -2.109948E+04 -1.791689E+06  2.900617E+04 -2.038302E+04
        48   6 -4.736482E+06 -7.270386E+05 -4.146724E+04 -1.839067E+06  4.122179E+04 -2.021499E+04
        48   7 -5.694996E+06 -1.075975E+06 -2.717916E+05 -2.101239E+06  1.424547E+04 -2.002980E+04
        48   8 -5.855134E+06 -1.076132E+06 -3.123205E+05 -2.083814E+06  2.737422E+04 -2.099747E+04
        48   9 -5.929521E+06 -1.180033E+06 -3.644791E+05 -2.165350E+06  4.003151E+04 -2.066668E+04
        48  10 -3.773773E+06 -3.554898E+05  2.477316E+05 -1.584935E+06  3.501163E-09  1.907414E-09
        48  11 -3.700892E+06 -2.629693E+05  2.700158E+05 -1.499102E+06  4.524783E-10  6.291337E-10
        48  12 -3.542067E+06 -2.739600E+05  2.814116E+05 -1.512214E+06  1.098578E-09  1.217889E-09
        48  13 -4.734835E+06 -7.157592E+05 -1.199036E+04 -1.843269E+06 -2.317065E-09  5.900403E-10
        48  14 -4.778577E+06 -6.695850E+05 -2.110184E+04 -1.791688E+06  2.278590E-09 -9.072153E-10
        48  15 -4.736484E+06 -7.270395E+05 -4.147121E+04 -1.839067E+06  1.760707E-09  9.420078E-10
        48  16 -5.694997E+06 -1.075975E+06 -2.717927E+05 -2.101239E+06 -1.700980E-09  2.819239E-10
        48  17 -5.855135E+06 -1.076132E+06 -3.123227E+05 -2.083813E+06  4.006444E-09 -2.560400E-09
        48  18 -5.929523E+06 -1.180034E+06 -3.644830E+05 -2.165349E+06  1.788165E-09  1.812737E-09
        48  19 -3.773773E+06 -3.554894E+05  2.477328E+05 -1.584935E+06 -1.840165E+04  1.847440E+04
        48  20 -3.700891E+06 -2.629686E+05  2.700183E+05 -1.499102E+06 -3.064125E+04  1.976740E+04
        48  21 -3.542065E+06 -2.739591E+05  2.814157E+05 -1.512214E+06 -4.241456E+04  1.976237E+04
        48  22 -4.734835E+06 -7.157587E+05 -1.198917E+04 -1.843269E+06 -1.632177E+04  1.925276E+04
        48  23 -4.778576E+06 -6.695843E+05 -2.109948E+04 -1.791689E+06 -2.900617E+04  2.038302E+04
        48  24 -4.736482E+06 -7.270386E+05 -4.146724E+04 -1.839067E+06 -4.122179E+04  2.021499E+04
        48  25 -5.694996E+06 -1.075975E+06 -2.717916E+05 -2.101239E+06 -1.424547E+04  2.002980E+04
        48  26 -5.855134E+06 -1.076132E+06 -3.123205E+05 -2.083814E+06 -2.737422E+04  2.099747E+04
        48  27 -5.929521E+06 -1.180033E+06 -3.644791E+05 -2.165350E+06 -4.003151E+04  2.066668E+04
        49   1 -3.344604E+06 -1.842234E+05  3.255510E+05 -1.464280E+06  5.194760E+04 -1.930763E+04
        49   2 -3.297357E+06 -1.068066E+05  3.061721E+05 -1.401131E+06  9.891142E+04 -5.537607E+03
        49   3 -3.239650E+06 -1.931674E+05  2.234675E+05 -1.368652E+06  1.441421E+05  1.285896E+04
        49   4 -4.748485E+06 -7.057606E+05 -5.240626E+04 -1.837064E+06  4.983608E+04 -2.010719E+04
        49   5 -4.759717E+06 -6.658812E+05 -9.014990E+04 -1.805794E+06  9.834621E+04 -5.759182E+03
        49   6 -4.760910E+06 -7.902724E+05 -1.925726E+05 -1.805185E+06  1.451163E+05  1.321596E+04
        49   7 -6.150461E+06 -1.227200E+06 -4.305384E+05 -2.209090E+06  4.772976E+04 -2.090488E+04
        49   8 -6.220004E+06 -1.224817E+06 -4.866641E+05 -2.209588E+06  9.778226E+04 -5.980289E+03
        49   9 -6.279923E+06 -1.387194E+06 -6.088236E+05 -2.240729E+06  1.460875E+05  1.357172E+04
        49  10 -3.344607E+06 -1.842245E+05  3.255452E+05 -1.464279E+06  2.322263E-09  2.523665E-09
        49  11 -3.297368E+06 -1.068093E+05  3.061536E+05 -1.401130E+06 -4.997284E-09  2.085103E-09
        49  12 -3.239673E+06 -1.931732E+05  2.234279E+05 -1.368654E+06  4.230205E-09 -1.686775E-09
        49  13 -4.748488E+06 -7.057617E+05 -5.241171E+04 -1.837063E+06 -3.415517E-10  2.959613E-09
        49  14 -4.759727E+06 -6.658839E+05 -9.016826E+04 -1.805794E+06  4.572009E-09  3.481551E-10
        49  15 -4.760933E+06 -7.902783E+05 -1.926128E+05 -1.805187E+06 -5.560681E-09  2.213905E-09
        49  16 -6.150464E+06 -1.227201E+06 -4.305436E+05 -2.209089E+06 -1.474727E-10  2.921639E-09
        49  17 -6.220015E+06 -1.224820E+06 -4.866823E+05 -2.209587E+06  4.329244E-09  6.637817E-10
        49  18 -6.279946E+06 -1.387200E+06 -6.088644E+05 -2.240731E+06 -3.804781E-09 -2.697547E-09
        49  19 -3.344604E+06 -1.842234E+05  3.255510E+05 -1.464280E+06 -5.194760E+04  1.930763E+04
        49  20 -3.297357E+06 -1.068066E+05  3.061721E+05 -1.401131E+06 -9.891142E+04  5.537607E+03
        49  21 -3.239650E+06 -1.931674E+05  2.234675E+05 -1.368652E+06 -1.441421E+05 -1.285896E+04
        49  22 -4.748485E+06 -7.057606E+05 -5.240626E+04 -1.837064E+06 -4.983608E+04  2.010719E+04
        49  23 -4.759717E+06 -6.658812E+05 -9.014990E+04 -1.805794E+06 -9.834621E+04  5.759182E+03
        49  24 -4.760910E+06 -7.902724E+05 -1.925726E+05 -1.805185E+06 -1.451163E+05 -1.321596E+04
        49  25 -6.150461E+06 -1.227200E+06 -4.305384E+05 -2.209090E+06 -4.772976E+04  2.090488E+04
        49  26 -6.220004E+06 -1.224817E+06 -4.866641E+05 -2.209588E+06 -9.778226E+04  5.980289E+03
        49  27 -6.279923E+06 -1.387194E+06 -6.088236E+05 -2.240729E+06 -1.460875E+05 -1.357172E+04
        50   1 -3.127348E+06 -1.123249E+05  2.036081E+05 -1.464045E+06  1.881772E+05  2.331061E+04
        50   2 -3.077337E+06  8.595237E+04  5.905124E+04 -1.353542E+06  3.869711E+05  9.693329E+04
        50   3 -3.372237E+06 -5.949335E+05 -4.720717E+05 -1.018034E+06  5.732306E+05  2.033201E+05
        50   4 -4.800471E+06 -6.779897E+05 -2.351980E+05 -1.852023E+06  1.813544E+05  2.073231E+04
        50   5 -4.675837E+06 -5.670394E+05 -3.816770E+05 -1.838382E+06  3.913442E+05  9.856224E+04
        50   6 -4.899248E+06 -1.338937E+06 -9.244365E+05 -1.599471E+06  5.888042E+05  2.091132E+05
        50   7 -6.470888E+06 -1.243622E+06 -6.742381E+05 -2.239116E+06  1.745513E+05  1.815961E+04
        50   8 -6.271848E+06 -1.219764E+06 -8.226420E+05 -2.322047E+06  3.957037E+05  1.001851E+05
        50   9 -6.423922E+06 -2.082329E+06 -1.377031E+06 -2.179456E+06  6.043337E+05  2.148790E+05
        50  10 -3.127387E+06 -1.123351E+05  2.035402E+05 -1.464048E+06  2.027823E-09 -5.619637E-09
        50  11 -3.077501E+06  8.590172E+04  5.875041E+04 -1.353572E+06  5.716454E-09 -5.597389E-09
        50  12 -3.372603E+06 -5.950669E+05 -4.727710E+05 -1.018128E+06 -3.194129E-09 -4.582558E-09
        50  13 -4.800507E+06 -6.779991E+05 -2.352611E+05 -1.852026E+06 -3.213197E-09  1.704545E-09
        50  14 -4.676005E+06 -5.670915E+05 -3.819857E+05 -1.838413E+06 -5.505766E-09  6.306281E-09
        50  15 -4.899634E+06 -1.339078E+06 -9.251767E+05 -1.599570E+06  1.216860E-09 -2.898608E-11
        50  16 -6.470921E+06 -1.243630E+06 -6.742966E+05 -2.239119E+06 -2.101593E-09 -1.955200E-09
        50  17 -6.272020E+06 -1.219818E+06 -8.229588E+05 -2.322079E+06 -2.301146E-09  2.520915E-09
        50  18 -6.424331E+06 -2.082479E+06 -1.377814E+06 -2.179561E+06  6.407191E-09 -4.268283E-09
        50  19 -3.127348E+06 -1.123249E+05  2.036081E+05 -1.464045E+06 -1.881772E+05 -2.331061E+04
        50  20 -3.077337E+06  8.595237E+04  5.905124E+04 -1.353542E+06 -3.869711E+05 -9.693329E+04
        50  21 -3.372237E+06 -5.949335E+05 -4.720717E+05 -1.018034E+06 -5.732306E+05 -2.033201E+05
        50  22 -4.800471E+06 -6.779897E+05 -2.351980E+05 -1.852023E+06 -1.813544E+05 -2.073231E+04
        50  23 -4.675837E+06 -5.670394E+05 -3.816770E+05 -1.838382E+06 -3.913442E+05 -9.856224E+04
        50  24 -4.899248E+06 -1.338937E+06 -9.244365E+05 -1.599471E+06 -5.888042E+05 -2.091132E+05
        50  25 -6.470888E+06 -1.243622E+06 -6.742381E+05 -2.239116E+06 -1.745513E+05 -1.815961E+04
        50  26 -6.271848E+06 -1.219764E+06 -8.226420E+05 -2.322047E+06 -3.957037E+05 -1.001851E+05
        50  27 -6.423922E+06 -2.082329E+06 -1.377031E+06 -2.179456E+06 -6.043337E+05 -2.148790E+05
        51   1  2.514570E+05 -4.873958E+05  2.439126E+05 -2.226167E+03  1.107306E+04  1.038691E+04
        51   2  2.575496E+05 -5.060513E+05  2.371929E+05  1.084774E+03  3.437435E+04  3.263030E+03
        51   3  2.511725E+05 -5.259371E+05  2.322598E+05 -8.575617E+03  3.456844E+04 -3.953503E+03
        51   4 -1.132004E+04 -1.540516E+06 -1.582669E+04 -2.915284E+03  1.114791E+04 -7.980901E+03
        51   5  1.429741E+03 -1.538830E+06 -9.464639E+03  3.593889E+03  3.440659E+04 -2.914898E+03
        51   6 -4.212730E+02 -1.540501E+06 -9.795778E+03 -2.869313E+03  3.454093E+04  2.058345E+03
        51   7 -2.741797E+05 -2.592625E+06 -2.756469E+05 -3.602219E+03  1.122287E+04 -2.631756E+04
        51   8 -2.547674E+05 -2.570629E+06 -2.561972E+05  6.099924E+03  3.443882E+04 -9.082583E+03
        51   9 -2.520895E+05 -2.554119E+06 -2.519237E+05  2.828835E+03  3.451350E+04  8.060402E+03
        51  10  2.514568E+05 -4.873960E+05  2.439122E+05 -2.226260E+03 -3.651178E-09 -1.660929E-09
        51  11  2.575483E+05 -5.060516E+05  2.371906E+05  1.084683E+03 -5.939178E-09  1.251399E-09
        51  12  2.511712E+05 -5.259375E+05  2.322576E+05 -8.575507E+03 -4.263165E-09  8.627222E-09
        51  13 -1.132019E+04 -1.540516E+06 -1.582705E+04 -2.915212E+03 -9.868088E-09  4.390799E-11
        51  14  1.428469E+03 -1.538831E+06 -9.466878E+03  3.593970E+03 -4.969265E-09 -2.390246E-09
        51  15 -4.225544E+02 -1.540501E+06 -9.798027E+03 -2.869370E+03  1.664903E-09 -1.718199E-09
        51  16 -2.741800E+05 -2.592626E+06 -2.756484E+05 -3.601981E+03 -4.178322E-09  6.022799E-10
        51  17 -2.547687E+05 -2.570630E+06 -2.561996E+05  6.100176E+03 -5.568276E-09 -2.614203E-09
        51  18 -2.520908E+05 -2.554119E+06 -2.519261E+05  2.828611E+03 -1.592670E-09 -6.857372E-09
        51  19  2.514570E+05 -4.873958E+05  2.439126E+05 -2.226167E+03 -1.107306E+04 -1.038691E+04
        51  20  2.575496E+05 -5.060513E+05  2.371929E+05  1.084774E+03 -3.437435E+04 -3.263030E+03
        51  21  2.511725E+05 -5.259371E+05  2.322598E+05 -8.575617E+03 -3.456844E+04  3.953503E+03
        51  22 -1.132004E+04 -1.540516E+06 -1.582669E+04 -2.915284E+03 -1.114791E+04  7.980901E+03
        51  23  1.429741E+03 -1.538830E+06 -9.464639E+03  3.593889E+03 -3.440659E+04  2.914898E+03
        51  24 -4.212730E+02 -1.540501E+06 -9.795778E+03 -2.869313E+03 -3.454093E+04 -2.058345E+03
        51  25 -2.741797E+05 -2.592625E+06 -2.756469E+05 -3.602219E+03 -1.122287E+04  2.631756E+04
        51  26 -2.547674E+05 -2.570629E+06 -2.561972E+05  6.099924E+03 -3.443882E+04  9.082583E+03
        51  27 -2.520895E+05 -2.554119E+06 -2.519237E+05  2.828835E+03 -3.451350E+04 -8.060402E+03
        52   1  2.439199E+05 -5.544375E+05  2.253380E+05 -6.375244E+03  3.096683E+04  4.944334E+03
        52   2  2.395886E+05 -5.780362E+05  2.149083E+05 -1.472147E+00  3.156678E+04  1.089660E+04
        52   3  2.230715E+05 -6.047812E+05  1.977028E+05 -1.160124E+04  2.919806E+04  1.682878E+04
        52   4 -7.457255E+02 -1.540501E+06 -1.080173E+04 -3.980105E+03  3.097630E+04  3.823400E+03
        52   5  1.260822E+03 -1.538789E+06 -1.468830E+04  4.980275E+03  3.156740E+04  1.133221E+04
        52   6 -9.200099E+03 -1.540502E+06 -2.644091E+04 -4.034744E+03  2.918783E+04  1.882114E+04
        52   7 -2.454821E+05 -2.525672E+06 -2.470103E+05 -1.587561E+03  3.098577E+04  2.704237E+03
        52   8 -2.371339E+05 -2.498694E+06 -2.443501E+05  9.955547E+03  3.156803E+04  1.176713E+04
        52   9 -2.415352E+05 -2.475418E+06 -2.506466E+05  3.521618E+03  2.917765E+04  2.081049E+04
        52  10  2.439189E+05 -5.544378E+05  2.253362E+05 -6.375368E+03 -3.421060E-09  2.007710E-09
        52  11  2.395875E+05 -5.780366E+05  2.149062E+05 -1.749134E+00 -5.755270E-09  2.606417E-09
        52  12  2.230705E+05 -6.047817E+05  1.977006E+05 -1.160164E+04 -6.207322E-10  8.070485E-09
        52  13 -7.467591E+02 -1.540501E+06 -1.080356E+04 -3.980201E+03  6.783643E-09 -7.916710E-12
        52  14  1.259718E+03 -1.538790E+06 -1.469042E+04  4.979987E+03  2.100060E-09 -3.457758E-09
        52  15 -9.201108E+03 -1.540502E+06 -2.644318E+04 -4.035187E+03 -1.652811E-09 -2.131961E-09
        52  16 -2.454831E+05 -2.525672E+06 -2.470121E+05 -1.587629E+03  1.521571E-09 -3.528579E-09
        52  17 -2.371350E+05 -2.498695E+06 -2.443522E+05  9.955247E+03  6.368036E-09 -4.148190E-09
        52  18 -2.415363E+05 -2.475419E+06 -2.506490E+05  3.521129E+03 -1.573314E-09 -5.700491E-09
        52  19  2.439199E+05 -5.544375E+05  2.253380E+05 -6.375244E+03 -3.096683E+04 -4.944334E+03
        52  20  2.395886E+05 -5.780362E+05  2.149083E+05 -1.472147E+00 -3.156678E+04 -1.089660E+04
        52  21  2.230715E+05 -6.047812E+05  1.977028E+05 -1.160124E+04 -2.919806E+04 -1.682878E+04
        52  22 -7.457255E+02 -1.540501E+06 -1.080173E+04 -3.980105E+03 -3.097630E+04 -3.823400E+03
        52  23  1.260822E+03 -1.538789E+06 -1.468830E+04  4.980275E+03 -3.156740E+04 -1.133221E+04
        52  24 -9.200099E+03 -1.540502E+06 -2.644091E+04 -4.034744E+03 -2.918783E+04 -1.882114E+04
        52  25 -2.454821E+05 -2.525672E+06 -2.470103E+05 -1.587561E+03 -3.098577E+04 -2.704237E+03
        52  26 -2.371339E+05 -2.498694E+06 -2.443501E+05  9.955547E+03 -3.156803E+04 -1.176713E+04
        52  27 -2.415352E+05 -2.475418E+06 -2.506466E+05  3.521618E+03 -2.917765E+04 -2.081049E+04
        53   1  2.276527E+05 -6.464061E+05  1.826135E+05  2.765763E+03  3.066685E+04  2.748628E+04
        53   2  2.277701E+05 -6.627077E+05  1.567001E+05 -7.293840E+03  2.855949E+04  4.543663E+04
        53   3  1.188493E+05 -7.082599E+05  9.190648E+04 -4.041007E+04  8.601190E+03  6.324241E+04
        53   4  4.640723E+03 -1.546577E+06 -3.205606E+04 -4.902007E+03  3.069494E+04  2.379986E+04
        53   5  1.218444E+04 -1.531148E+06 -5.077809E+04  6.259582E+03  2.852037E+04  5.113665E+04
        53   6 -9.102470E+04 -1.546643E+06 -1.149468E+05 -5.639959E+03  8.484983E+03  7.832891E+04
        53   7 -2.184296E+05 -2.446002E+06 -2.467825E+05 -1.255731E+04  3.072314E+04  2.011874E+04
        53   8 -2.034554E+05 -2.398895E+06 -2.583094E+05  1.979521E+04  2.848148E+04  5.682868E+04
        53   9 -3.009471E+05 -2.384384E+06 -3.218509E+05  2.908433E+04  8.370392E+03  9.339498E+04
        53  10  2.276515E+05 -6.464072E+05  1.826103E+05  2.765084E+03 -2.379970E-09 -2.606887E-09
        53  11  2.277687E+05 -6.627102E+05  1.566947E+05 -7.294885E+03 -3.042433E-09 -6.321606E-09
        53  12  1.188481E+05 -7.082642E+05  9.189881E+04 -4.041051E+04 -2.075298E-09 -2.832332E-10
        53  13  4.639560E+03 -1.546578E+06 -3.205890E+04 -4.902596E+03 -5.008920E-09  4.131789E-11
        53  14  1.218286E+04 -1.531151E+06 -5.078455E+04  6.258407E+03 -6.334477E-09 -4.040637E-09
        53  15 -9.102643E+04 -1.546650E+06 -1.149585E+05 -5.640494E+03 -5.372311E-09 -2.784450E-09
        53  16 -2.184307E+05 -2.446003E+06 -2.467850E+05 -1.255781E+04  7.195355E-10  8.638029E-10
        53  17 -2.034571E+05 -2.398899E+06 -2.583170E+05  1.979391E+04  1.946560E-10  4.035598E-09
        53  18 -3.009495E+05 -2.384393E+06 -3.218674E+05  2.908370E+04 -3.025996E-09  3.136030E-09
        53  19  2.276527E+05 -6.464061E+05  1.826135E+05  2.765763E+03 -3.066685E+04 -2.748628E+04
        53  20  2.277701E+05 -6.627077E+05  1.567001E+05 -7.293840E+03 -2.855949E+04 -4.543663E+04
        53  21  1.188493E+05 -7.082599E+05  9.190648E+04 -4.041007E+04 -8.601190E+03 -6.324241E+04
        53  22  4.640723E+03 -1.546577E+06 -3.205606E+04 -4.902007E+03 -3.069494E+04 -2.379986E+04
        53  23  1.218444E+04 -1.531148E+06 -5.077809E+04  6.259582E+03 -2.852037E+04 -5.113665E+04
        53  24 -9.102470E+04 -1.546643E+06 -1.149468E+05 -5.639959E+03 -8.484983E+03 -7.832891E+04
        53  25 -2.184296E+05 -2.446002E+06 -2.467825E+05 -1.255731E+04 -3.072314E+04 -2.011874E+04
        53  26 -2.034554E+05 -2.398895E+06 -2.583094E+05  1.979521E+04 -2.848148E+04 -5.682868E+04
        53  27 -3.009471E+05 -2.384384E+06 -3.218509E+05  2.908433E+04 -8.370392E+03 -9.339498E+04
        54   1  8.460109E+04  9.285271E+05  4.819273E+04 -1.651007E+02  2.960538E+04 -5.131832E+02
        54   2  8.471690E+04  9.286263E+05  4.881880E+04 -1.365705E+02  2.950429E+04 -1.329985E+03
        54   3  8.503287E+04  9.288893E+05  5.002849E+04 -9.201017E+01  2.926954E+04 -2.146875E+03
        54   4 -2.961301E+01  5.526719E+05  5.683554E+02  3.552931E+00  2.960724E+04 -4.299198E+02
        54   5  1.620302E+01  5.526177E+05  9.975909E+02 -4.417724E+00  2.950599E+04 -9.252468E+02
        54   6  2.064890E+02  5.526717E+05  1.787588E+03  3.641844E+00  2.927105E+04 -1.420656E+03
        54   7 -8.466607E+04  1.769616E+05 -4.705650E+04  1.721129E+02  2.960909E+04 -3.467043E+02
        54   8 -8.469028E+04  1.767540E+05 -4.682415E+04  1.276662E+02  2.950770E+04 -5.207412E+02
        54   9 -8.462573E+04  1.765989E+05 -4.645395E+04  9.924985E+01  2.927256E+04 -6.948553E+02
        54  10  8.460014E+04  9.285269E+05  4.819108E+04 -1.650885E+02  1.878619E-09 -3.873607E-08
        54  11  8.471597E+04  9.286261E+05  4.881716E+04 -1.365389E+02  6.060355E-09 -8.674325E-09
        54  12  8.503195E+04  9.288891E+05  5.002687E+04 -9.195958E+01 -1.415832E-10  2.231405E-08
        54  13 -3.055461E+01  5.526717E+05  5.667073E+02  3.563181E+00  2.830650E-09  4.195787E-10
        54  14  1.526767E+01  5.526175E+05  9.959529E+02 -4.395742E+00 -7.788112E-09 -9.648159E-10
        54  15  2.055682E+02  5.526714E+05  1.785974E+03  3.675328E+00 -1.241987E-08  5.155251E-10
        54  16 -8.466701E+04  1.769613E+05 -4.705815E+04  1.721212E+02 -2.479931E-09  3.813440E-08
        54  17 -8.469121E+04  1.767538E+05 -4.682578E+04  1.276786E+02  1.656249E-09  8.347175E-09
        54  18 -8.462665E+04  1.765987E+05 -4.645556E+04  9.926623E+01  1.303051E-09 -2.220590E-08
        54  19  8.460109E+04  9.285271E+05  4.819273E+04 -1.651007E+02 -2.960538E+04  5.131832E+02
        54  20  8.471690E+04  9.286263E+05  4.881880E+04 -1.365705E+02 -2.950429E+04  1.329985E+03
        54  21  8.503287E+04  9.288893E+05  5.002849E+04 -9.201017E+01 -2.926954E+04  2.146875E+03
        54  22 -2.961301E+01  5.526719E+05  5.683554E+02  3.552931E+00 -2.960724E+04  4.299198E+02
        54  23  1.620302E+01  5.526177E+05  9.975909E+02 -4.417724E+00 -2.950599E+04  9.252468E+02
        54  24  2.064890E+02  5.526717E+05  1.787588E+03  3.641844E+00 -2.927105E+04  1.420656E+03
        54  25 -8.466607E+04  1.769616E+05 -4.705650E+04  1.721129E+02 -2.960909E+04  3.467043E+02
        54  26 -8.469028E+04  1.767540E+05 -4.682415E+04  1.276662E+02 -2.950770E+04  5.207412E+02
        54  27 -8.462573E+04  1.765989E+05 -4.645395E+04  9.924985E+01 -2.927256E+04  6.948553E+02
        55   1  8.522969E+04  9.292099E+05  5.089681E+04 -2.102069E+02  2.912126E+04 -2.573080E+03
        55   2  8.626082E+04  9.289120E+05  5.407217E+04  8.122219E+02  2.829055E+04 -7.097030E+03
        55   3  8.920090E+04  9.296869E+05  6.066896E+04  1.785809E+03  2.646192E+04 -1.162170E+04
        55   4  3.071475E+02  5.527936E+05  2.374197E+03 -1.090925E+01  2.912270E+04 -1.769526E+03
        55   5  1.071330E+03  5.524645E+05  4.239781E+03  1.427300E+01  2.829052E+04 -3.894295E+03
        55   6  3.328937E+03  5.527925E+05  7.863144E+03 -9.394664E+00  2.646013E+04 -6.019767E+03
        55   7 -8.462126E+04  1.765224E+05 -4.614912E+04  1.882795E+02  2.912413E+04 -9.664350E+02
        55   8 -8.412416E+04  1.761615E+05 -4.559363E+04 -7.831507E+02  2.829048E+04 -6.934082E+02
        55   9 -8.254932E+04  1.760419E+05 -4.494439E+04 -1.803441E+03  2.645830E+04 -4.210770E+02
        55  10  8.522877E+04  9.292097E+05  5.089520E+04 -2.101466E+02  5.612907E-10  1.157824E-07
        55  11  8.625995E+04  9.289118E+05  5.407057E+04  8.123836E+02  9.380328E-09  9.818427E-09
        55  12  8.920011E+04  9.296865E+05  6.066739E+04  1.786056E+03  1.180514E-09 -9.235401E-08
        55  13  3.062357E+02  5.527934E+05  2.372597E+03 -1.086776E+01 -5.837331E-09  5.684357E-10
        55  14  1.070466E+03  5.524642E+05  4.238248E+03  1.436172E+01 -4.533940E-09 -1.229607E-09
        55  15  3.328175E+03  5.527922E+05  7.861759E+03 -9.266406E+00 -1.271649E-09  8.080775E-10
        55  16 -8.462217E+04  1.765221E+05 -4.615072E+04  1.883022E+02 -5.244646E-10 -1.165654E-07
        55  17 -8.412502E+04  1.761612E+05 -4.559513E+04 -7.831349E+02  4.430438E-09 -1.019977E-08
        55  18 -8.255007E+04  1.760417E+05 -4.494571E+04 -1.803432E+03  2.801338E-09  9.252841E-08
        55  19  8.522969E+04  9.292099E+05  5.089681E+04 -2.102069E+02 -2.912126E+04  2.573080E+03
        55  20  8.626082E+04  9.289120E+05  5.407217E+04  8.122219E+02 -2.829055E+04  7.097030E+03
        55  21  8.920090E+04  9.296869E+05  6.066896E+04  1.785809E+03 -2.646192E+04  1.162170E+04
        55  22  3.071475E+02  5.527936E+05  2.374197E+03 -1.090925E+01 -2.912270E+04  1.769526E+03
        55  23  1.071330E+03  5.524645E+05  4.239781E+03  1.427300E+01 -2.829052E+04  3.894295E+03
        55  24  3.328937E+03  5.527925E+05  7.863144E+03 -9.394663E+00 -2.646013E+04  6.019767E+03
        55  25 -8.462126E+04  1.765224E+05 -4.614912E+04  1.882795E+02 -2.912413E+04  9.664350E+02
        55  26 -8.412416E+04  1.761615E+05 -4.559363E+04 -7.831507E+02 -2.829048E+04  6.934082E+02
        55  27 -8.254932E+04  1.760419E+05 -4.494439E+04 -1.803441E+03 -2.645830E+04  4.210770E+02
        56   1  9.099598E+04  9.313378E+05  6.533094E+04  1.097918E+03  2.530636E+04 -1.358312E+04
        56   2  1.012064E+05  9.276473E+05  8.377315E+04  1.312934E+04  1.905431E+04 -4.127352E+04
        56   3  1.292495E+05  9.320208E+05  1.246845E+05  2.457393E+04  5.412547E+03 -6.897046E+04
        56   4  4.589660E+03  5.537547E+05  1.054500E+04 -1.304209E+02  2.530393E+04 -7.392655E+03
        56   5  1.315786E+04  5.512572E+05  1.948810E+04  1.731748E+02  1.903966E+04 -1.732390E+04
        56   6  3.648334E+04  5.537461E+05  3.858150E+04 -1.103040E+02  5.384664E+03 -2.726112E+04
        56   7 -8.182318E+04  1.763153E+05 -4.424314E+04 -1.357960E+03  2.530147E+04 -1.205791E+03
        56   8 -7.489731E+04  1.750077E+05 -4.479940E+04 -1.277487E+04  1.902400E+04  6.611676E+03
        56   9 -5.628953E+04  1.756091E+05 -4.752390E+04 -2.477936E+04  5.353461E+03  1.442307E+04
        56  10  9.099524E+04  9.313374E+05  6.532939E+04  1.098194E+03 -7.389637E-10  5.504120E-09
        56  11  1.012056E+05  9.276454E+05  8.376927E+04  1.312997E+04  8.132148E-10 -3.708611E-09
        56  12  1.292482E+05  9.320157E+05  1.246755E+05  2.457423E+04  2.930040E-09 -9.748738E-09
        56  13  4.588958E+03  5.537545E+05  1.054369E+04 -1.302703E+02 -3.106021E-09  8.193426E-10
        56  14  1.315739E+04  5.512568E+05  1.948686E+04  1.734404E+02  7.665665E-09 -1.405964E-09
        56  15  3.648310E+04  5.537453E+05  3.858005E+04 -1.101858E+02 -2.552542E-09  9.562910E-10
        56  16 -8.182387E+04  1.763152E+05 -4.424434E+04 -1.357936E+03  3.552198E-09 -6.357821E-09
        56  17 -7.489771E+04  1.750076E+05 -4.480016E+04 -1.277498E+04  1.690288E-09  3.247606E-09
        56  18 -5.628962E+04  1.756089E+05 -4.752435E+04 -2.477942E+04  4.021891E-10  1.009354E-08
        56  19  9.099598E+04  9.313378E+05  6.533094E+04  1.097918E+03 -2.530636E+04  1.358312E+04
        56  20  1.012064E+05  9.276473E+05  8.377315E+04  1.312934E+04 -1.905431E+04  4.127352E+04
        56  21  1.292495E+05  9.320208E+05  1.246845E+05  2.457393E+04 -5.412547E+03  6.897046E+04
        56  22  4.589660E+03  5.537547E+05  1.054500E+04 -1.304209E+02 -2.530393E+04  7.392655E+03
        56  23  1.315786E+04  5.512572E+05  1.948810E+04  1.731748E+02 -1.903966E+04  1.732390E+04
        56  24  3.648334E+04  5.537461E+05  3.858150E+04 -1.103040E+02 -5.384664E+03  2.726112E+04
        56  25 -8.182318E+04  1.763153E+05 -4.424314E+04 -1.357960E+03 -2.530147E+04  1.205791E+03
        56  26 -7.489731E+04  1.750077E+05 -4.479940E+04 -1.277487E+04 -1.902400E+04 -6.611676E+03
        56  27 -5.628953E+04  1.756091E+05 -4.752390E+04 -2.477936E+04 -5.353461E+03 -1.442307E+04
        57   1 -1.142846E+07 -3.320649E+06 -2.046255E+06 -3.977508E+06 -1.038769E+06 -3.785667E+05
        57   2 -1.117016E+07 -1.823248E+06 -1.084794E+06 -4.239419E+06 -6.735023E+05 -2.067048E+05
        57   3 -1.154636E+07 -1.868871E+06 -8.307107E+05 -4.092574E+06 -2.962960E+05 -6.632393E+04
        57   4 -1.009383E+07 -2.536416E+06 -1.621174E+06 -3.336659E+06 -1.024578E+06 -3.737475E+05
        57   5 -9.691254E+06 -1.185330E+06 -6.675301E+05 -3.760418E+06 -6.697976E+05 -2.054100E+05
        57   6 -9.919755E+06 -1.373054E+06 -4.116414E+05 -3.775868E+06 -3.029973E+05 -6.878698E+04
        57   7 -8.757254E+06 -1.751182E+06 -1.196268E+06 -2.694296E+06 -1.010352E+06 -3.688977E+05
        57   8 -8.210185E+06 -5.470982E+05 -2.504778E+05 -3.280302E+06 -6.660812E+05 -2.041095E+05
        57   9 -8.290538E+06 -8.772779E+05  7.222306E+03 -3.458500E+06 -3.097172E+05 -7.125384E+04
        57  10 -1.142968E+07 -3.321103E+06 -2.048601E+06 -3.977829E+06 -2.998545E-09  1.152675E-09
        57  11 -1.117067E+07 -1.823420E+06 -1.085747E+06 -4.239532E+06 -2.681545E-09 -2.693500E-10
        57  12 -1.154646E+07 -1.868900E+06 -8.308876E+05 -4.092590E+06 -4.246645E-09  1.166933E-09
        57  13 -1.009501E+07 -2.536856E+06 -1.623451E+06 -3.336971E+06  5.345353E-09 -1.724414E-09
        57  14 -9.691754E+06 -1.185499E+06 -6.684694E+05 -3.760530E+06  4.775763E-09 -1.399559E-09
        57  15 -9.919856E+06 -1.373084E+06 -4.118262E+05 -3.775885E+06  1.660844E-09 -3.208032E-10
        57  16 -8.758400E+06 -1.751610E+06 -1.198476E+06 -2.694599E+06 -3.831019E-09  7.752979E-10
        57  17 -8.210678E+06 -5.472650E+05 -2.514041E+05 -3.280413E+06  1.634609E-09 -4.362552E-10
        57  18 -8.290643E+06 -8.773097E+05  7.029570E+03 -3.458518E+06  6.472895E-10 -1.223109E-09
        57  19 -1.142846E+07 -3.320649E+06 -2.046255E+06 -3.977508E+06  1.038769E+06  3.785667E+05
        57  20 -1.117016E+07 -1.823248E+06 -1.084794E+06 -4.239419E+06  6.735023E+05  2.067048E+05
        57  21 -1.154636E+07 -1.868871E+06 -8.307107E+05 -4.092574E+06  2.962960E+05  6.632393E+04
        57  22 -1.009383E+07 -2.536416E+06 -1.621174E+06 -3.336659E+06  1.024578E+06  3.737475E+05
        57  23 -9.691254E+06 -1.185330E+06 -6.675301E+05 -3.760418E+06  6.697976E+05  2.054100E+05
        57  24 -9.919755E+06 -1.373054E+06 -4.116414E+05 -3.775868E+06  3.029973E+05  6.878698E+04
        57  25 -8.757254E+06 -1.751182E+06 -1.196268E+06 -2.694296E+06  1.010352E+06  3.688977E+05
        57  26 -8.210185E+06 -5.470982E+05 -2.504778E+05 -3.280302E+06  6.660812E+05  2.041095E+05
        57  27 -8.290538E+06 -8.772779E+05  7.222306E+03 -3.458500E+06  3.097172E+05  7.125384E+04
        58   1 -1.124095E+07 -2.133722E+06 -7.232868E+05 -4.107375E+06 -2.419106E+05 -5.190493E+04
        58   2 -1.113862E+07 -1.857745E+06 -5.120665E+05 -4.060340E+06 -1.578889E+05 -2.060875E+04
        58   3 -1.103254E+07 -1.863792E+06 -4.171652E+05 -4.060342E+06 -7.181934E+04  5.248197E+03
        58   4 -9.848636E+06 -1.572350E+06 -3.370015E+05 -3.696456E+06 -2.414159E+05 -5.174073E+04
        58   5 -9.839749E+06 -1.357349E+06 -1.569505E+05 -3.700601E+06 -1.591387E+05 -2.108535E+04
        58   6 -9.826601E+06 -1.423740E+06 -9.160579E+04 -3.751816E+06 -7.482993E+04  4.122330E+03
        58   7 -8.454417E+06 -1.010794E+06  4.910237E+04 -3.284660E+06 -2.409195E+05 -5.157573E+04
        58   8 -8.539227E+06 -8.568383E+05  1.980112E+05 -3.340163E+06 -1.603911E+05 -2.156295E+04
        58   9 -8.619238E+06 -9.836308E+05  2.338239E+05 -3.442748E+06 -7.784694E+04  2.994269E+03
        58  10 -1.124101E+07 -2.133741E+06 -7.234041E+05 -4.107386E+06 -2.509246E-09 -1.466621E-10
        58  11 -1.113864E+07 -1.857752E+06 -5.121151E+05 -4.060342E+06  2.323024E-10 -1.262583E-09
        58  12 -1.103255E+07 -1.863793E+06 -4.171751E+05 -4.060342E+06 -3.451845E-09 -3.396760E-09
        58  13 -9.848700E+06 -1.572369E+06 -3.371181E+05 -3.696466E+06 -8.177617E-11 -3.756861E-11
        58  14 -9.839777E+06 -1.357356E+06 -1.569997E+05 -3.700604E+06 -6.587041E-10 -7.126480E-10
        58  15 -9.826607E+06 -1.423741E+06 -9.161650E+04 -3.751816E+06 -3.575767E-09 -3.227130E-09
        58  16 -8.454481E+06 -1.010813E+06  4.898654E+04 -3.284670E+06  4.182908E-09 -1.345118E-09
        58  17 -8.539255E+06 -8.568458E+05  1.979613E+05 -3.340165E+06  2.036490E-09  6.647298E-10
        58  18 -8.619244E+06 -9.836324E+05  2.338124E+05 -3.442748E+06 -2.940141E-09 -2.424084E-09
        58  19 -1.124095E+07 -2.133722E+06 -7.232868E+05 -4.107375E+06  2.419106E+05  5.190493E+04
        58  20 -1.113862E+07 -1.857745E+06 -5.120665E+05 -4.060340E+06  1.578889E+05  2.060875E+04
        58  21 -1.103254E+07 -1.863792E+06 -4.171652E+05 -4.060342E+06  7.181934E+04 -5.248197E+03
        58  22 -9.848636E+06 -1.572350E+06 -3.370015E+05 -3.696456E+06  2.414159E+05  5.174073E+04
        58  23 -9.839749E+06 -1.357349E+06 -1.569505E+05 -3.700601E+06  1.591387E+05  2.108535E+04
        58  24 -9.826601E+06 -1.423740E+06 -9.160579E+04 -3.751816E+06  7.482993E+04 -4.122330E+03
        58  25 -8.454417E+06 -1.010794E+06  4.910237E+04 -3.284660E+06  2.409195E+05  5.157573E+04
        58  26 -8.539227E+06 -8.568383E+05  1.980112E+05 -3.340163E+06  1.603911E+05  2.156295E+04
        58  27 -8.619238E+06 -9.836308E+05  2.338239E+05 -3.442748E+06  7.784694E+04 -2.994269E+03
        59   1 -1.066554E+07 -1.787909E+06 -3.062912E+05 -3.989383E+06 -5.789743E+04  5.601659E+03
        59   2 -1.054255E+07 -1.619132E+06 -2.188950E+05 -3.858303E+06 -3.627911E+04  6.145875E+03
        59   3 -1.028586E+07 -1.620312E+06 -1.526001E+05 -3.888486E+06 -1.410355E+04  5.166410E+03
        59   4 -9.806348E+06 -1.459926E+06 -7.243972E+04 -3.754336E+06 -6.001195E+04  4.810957E+03
        59   5 -9.871803E+06 -1.365388E+06 -3.646936E+04 -3.677243E+06 -3.890712E+04  5.167123E+03
        59   6 -9.803480E+06 -1.440674E+06 -2.115922E+04 -3.761417E+06 -1.725180E+04  3.997905E+03
        59   7 -8.946436E+06 -1.131898E+06  1.613441E+05 -3.518987E+06 -6.212969E+04  4.019029E+03
        59   8 -9.200614E+06 -1.111618E+06  1.459155E+05 -3.496003E+06 -4.153828E+04  4.187192E+03
        59   9 -9.320869E+06 -1.261024E+06  1.102609E+05 -3.634259E+06 -2.040279E+04  2.828415E+03
        59  10 -1.066554E+07 -1.787910E+06 -3.062976E+05 -3.989383E+06 -1.060479E-09 -1.787702E-09
        59  11 -1.054255E+07 -1.619133E+06 -2.188976E+05 -3.858303E+06  1.323970E-09 -2.862667E-09
        59  12 -1.028586E+07 -1.620312E+06 -1.526005E+05 -3.888486E+06 -3.499819E-09 -1.036284E-09
        59  13 -9.806352E+06 -1.459927E+06 -7.244663E+04 -3.754335E+06 -1.078837E-09 -3.816755E-09
        59  14 -9.871804E+06 -1.365388E+06 -3.647229E+04 -3.677243E+06 -3.505405E-09 -9.723892E-10
        59  15 -9.803480E+06 -1.440674E+06 -2.115981E+04 -3.761417E+06  7.339985E-11 -6.277613E-10
        59  16 -8.946440E+06 -1.131899E+06  1.613367E+05 -3.518987E+06 -1.753125E-10 -3.703232E-09
        59  17 -9.200616E+06 -1.111618E+06  1.459122E+05 -3.496002E+06  2.327375E-09 -3.229563E-10
        59  18 -9.320869E+06 -1.261024E+06  1.102601E+05 -3.634259E+06 -1.019587E-09 -1.718330E-11
        59  19 -1.066554E+07 -1.787909E+06 -3.062912E+05 -3.989383E+06  5.789743E+04 -5.601659E+03
        59  20 -1.054255E+07 -1.619132E+06 -2.188950E+05 -3.858303E+06  3.627911E+04 -6.145875E+03
        59  21 -1.028586E+07 -1.620312E+06 -1.526001E+05 -3.888486E+06  1.410355E+04 -5.166410E+03
        59  22 -9.806348E+06 -1.459926E+06 -7.243972E+04 -3.754336E+06  6.001195E+04 -4.810957E+03
        59  23 -9.871803E+06 -1.365388E+06 -3.646936E+04 -3.677243E+06  3.890712E+04 -5.167123E+03
        59  24 -9.803480E+06 -1.440674E+06 -2.115922E+04 -3.761417E+06  1.725180E+04 -3.997905E+03
        59  25 -8.946436E+06 -1.131898E+06  1.613441E+05 -3.518987E+06  6.212969E+04 -4.019029E+03
        59  26 -9.200614E+06 -1.111618E+06  1.459155E+05 -3.496003E+06  4.153828E+04 -4.187192E+03
        59  27 -9.320869E+06 -1.261024E+06  1.102609E+05 -3.634259E+06  2.040279E+04 -2.828415E+03
        60   1 -9.837630E+06 -1.461612E+06 -2.650035E+04 -3.774501E+06 -9.232698E+03  1.125335E+03
        60   2 -9.705659E+06 -1.299431E+06  3.671845E+04 -3.625702E+06 -1.154858E+03 -5.444444E+03
        60   3 -9.416267E+06 -1.300652E+06  9.514120E+04 -3.661218E+06  6.825922E+03 -1.173423E+04
        60   4 -9.799238E+06 -1.446855E+06 -1.678495E+04 -3.763694E+06 -1.226383E+04  1.314963E+00
        60   5 -9.877781E+06 -1.364222E+06 -1.001127E+04 -3.671862E+06 -4.087373E+03 -6.532843E+03
        60   6 -9.798961E+06 -1.445016E+06 -8.107430E+03 -3.764365E+06  3.990085E+03 -1.278750E+04
        60   7 -9.760845E+06 -1.432098E+06 -7.069642E+03 -3.752886E+06 -1.529518E+04 -1.122787E+03
        60   8 -1.004987E+07 -1.429011E+06 -5.674358E+04 -3.718009E+06 -7.018979E+03 -7.620905E+03
        60   9 -1.018151E+07 -1.589371E+06 -1.113689E+05 -3.867454E+06  1.156202E+03 -1.384005E+04
        60  10 -9.837630E+06 -1.461612E+06 -2.650051E+04 -3.774501E+06  4.354032E-09  4.668472E-09
        60  11 -9.705659E+06 -1.299431E+06  3.671839E+04 -3.625702E+06  4.271971E-10  1.438124E-09
        60  12 -9.416267E+06 -1.300652E+06  9.514086E+04 -3.661218E+06 -3.262313E-09 -1.842908E-10
        60  13 -9.799238E+06 -1.446855E+06 -1.678524E+04 -3.763694E+06  5.050247E-09  1.406565E-09
        60  14 -9.877781E+06 -1.364222E+06 -1.001138E+04 -3.671862E+06 -1.895273E-09 -3.063472E-09
        60  15 -9.798961E+06 -1.445016E+06 -8.107765E+03 -3.764365E+06 -3.274996E-09  1.166581E-09
        60  16 -9.760845E+06 -1.432098E+06 -7.070091E+03 -3.752886E+06 -4.767081E-09  2.258576E-09
        60  17 -1.004987E+07 -1.429011E+06 -5.674379E+04 -3.718010E+06  5.192174E-09  8.726589E-11
        60  18 -1.018151E+07 -1.589372E+06 -1.113693E+05 -3.867454E+06  5.483925E-09 -2.341060E-09
        60  19 -9.837630E+06 -1.461612E+06 -2.650035E+04 -3.774501E+06  9.232698E+03 -1.125335E+03
        60  20 -9.705659E+06 -1.299431E+06  3.671845E+04 -3.625702E+06  1.154858E+03  5.444444E+03
        60  21 -9.416267E+06 -1.300652E+06  9.514120E+04 -3.661218E+06 -6.825922E+03  1.173423E+04
        60  22 -9.799238E+06 -1.446855E+06 -1.678495E+04 -3.763694E+06  1.226383E+04 -1.314963E+00
        60  23 -9.877781E+06 -1.364222E+06 -1.001127E+04 -3.671862E+06  4.087373E+03  6.532843E+03
        60  24 -9.798961E+06 -1.445016E+06 -8.107430E+03 -3.764365E+06 -3.990085E+03  1.278750E+04
        60  25 -9.760845E+06 -1.432098E+06 -7.069642E+03 -3.752886E+06  1.529518E+04  1.122787E+03
        60  26 -1.004987E+07 -1.429011E+06 -5.674358E+04 -3.718009E+06  7.018979E+03  7.620905E+03
        60  27 -1.018151E+07 -1.589371E+06 -1.113689E+05 -3.867454E+06 -1.156202E+03  1.384005E+04
        61   1 -9.008379E+06 -1.136806E+06  2.093603E+05 -3.541540E+06  9.980920E+03 -1.600082E+04
        61   2 -8.906781E+06 -1.010764E+06  2.511316E+05 -3.423714E+06  1.724286E+04 -2.166832E+04
        61   3 -8.679276E+06 -1.013392E+06  2.890914E+05 -3.449374E+06  2.387833E+04 -2.559301E+04
        61   4 -9.806107E+06 -1.437133E+06 -7.945835E+03 -3.755432E+06  7.062110E+03 -1.708724E+04
        61   5 -9.869211E+06 -1.374160E+06 -1.026431E+04 -3.683149E+06  1.493400E+04 -2.253208E+04
        61   6 -9.806554E+06 -1.440003E+06 -1.688694E+04 -3.754381E+06  2.217755E+04 -2.623318E+04
        61   7 -1.060322E+07 -1.737426E+06 -2.253103E+05 -3.969073E+06  4.147473E+03 -1.817212E+04
        61   8 -1.083074E+07 -1.737505E+06 -2.717444E+05 -3.942215E+06  1.262912E+04 -2.339436E+04
        61   9 -1.093259E+07 -1.866541E+06 -3.229803E+05 -4.058879E+06  2.048020E+04 -2.687207E+04
        61  10 -9.008379E+06 -1.136807E+06  2.093596E+05 -3.541540E+06 -5.541779E-09 -2.207383E-09
        61  11 -8.906781E+06 -1.010764E+06  2.511301E+05 -3.423713E+06 -6.145467E-09 -5.454665E-09
        61  12 -8.679277E+06 -1.013392E+06  2.890891E+05 -3.449374E+06  5.336439E-10  4.634292E-09
        61  13 -9.806107E+06 -1.437133E+06 -7.946474E+03 -3.755432E+06 -1.522535E-09 -1.801056E-09
        61  14 -9.869212E+06 -1.374161E+06 -1.026568E+04 -3.683148E+06  7.150772E-09  4.271381E-09
        61  15 -9.806555E+06 -1.440004E+06 -1.688915E+04 -3.754381E+06  3.486702E-09  6.971845E-10
        61  16 -1.060322E+07 -1.737426E+06 -2.253109E+05 -3.969073E+06  2.890711E-09 -3.371426E-09
        61  17 -1.083074E+07 -1.737505E+06 -2.717457E+05 -3.942215E+06  2.864416E-09  1.425222E-09
        61  18 -1.093259E+07 -1.866542E+06 -3.229825E+05 -4.058878E+06 -4.135707E-09 -7.811754E-10
        61  19 -9.008379E+06 -1.136806E+06  2.093603E+05 -3.541540E+06 -9.980920E+03  1.600082E+04
        61  20 -8.906781E+06 -1.010764E+06  2.511316E+05 -3.423714E+06 -1.724286E+04  2.166832E+04
        61  21 -8.679276E+06 -1.013392E+06  2.890914E+05 -3.449374E+06 -2.387833E+04  2.559301E+04
        61  22 -9.806107E+06 -1.437133E+06 -7.945835E+03 -3.755432E+06 -7.062110E+03  1.708724E+04
        61  23 -9.869211E+06 -1.374160E+06 -1.026431E+04 -3.683149E+06 -1.493400E+04  2.253208E+04
        61  24 -9.806554E+06 -1.440003E+06 -1.688694E+04 -3.754381E+06 -2.217755E+04  2.623318E+04
        61  25 -1.060322E+07 -1.737426E+06 -2.253103E+05 -3.969073E+06 -4.147473E+03  1.817212E+04
        61  26 -1.083074E+07 -1.737505E+06 -2.717444E+05 -3.942215E+06 -1.262912E+04  2.339436E+04
        61  27 -1.093259E+07 -1.866541E+06 -3.229803E+05 -4.058879E+06 -2.048020E+04  2.687207E+04
        62   1 -8.436542E+06 -8.976992E+05  3.558507E+05 -3.364100E+06  2.828218E+04 -2.734652E+04
        62   2 -8.395365E+06 -8.396863E+05  3.580052E+05 -3.311750E+06  4.770183E+04 -2.459225E+04
        62   3 -8.308016E+06 -8.581158E+05  3.412248E+05 -3.311991E+06  6.608711E+04 -1.904648E+04
        62   4 -9.823370E+06 -1.420620E+06 -2.115619E+04 -3.737189E+06  2.635576E+04 -2.807414E+04
        62   5 -9.847807E+06 -1.391872E+06 -3.711571E+04 -3.707314E+06  4.672369E+04 -2.496755E+04
        62   6 -9.826296E+06 -1.439810E+06 -7.280812E+04 -3.730037E+06  6.605394E+04 -1.906733E+04
        62   7 -1.120832E+07 -1.943433E+06 -3.983367E+05 -4.109514E+06  2.443412E+04 -2.880001E+04
        62   8 -1.129819E+07 -1.943931E+06 -4.324284E+05 -4.102028E+06  4.574801E+04 -2.534193E+04
        62   9 -1.134233E+07 -2.021358E+06 -4.870524E+05 -4.147142E+06  6.602072E+04 -1.908823E+04
        62  10 -8.436543E+06 -8.977003E+05  3.558478E+05 -3.364100E+06  3.856258E-09  3.674104E-09
        62  11 -8.395367E+06 -8.396876E+05  3.579998E+05 -3.311749E+06 -9.709388E-10  1.223529E-09
        62  12 -8.308021E+06 -8.581174E+05  3.412158E+05 -3.311990E+06 -2.481088E-09 -1.211032E-09
        62  13 -9.823370E+06 -1.420621E+06 -2.115897E+04 -3.737189E+06  5.534117E-10  5.847672E-10
        62  14 -9.847809E+06 -1.391873E+06 -3.712101E+04 -3.707313E+06  1.423585E-09 -2.524651E-10
        62  15 -9.826301E+06 -1.439811E+06 -7.281709E+04 -3.730036E+06  3.043146E-09 -3.791638E-09
        62  16 -1.120832E+07 -1.943434E+06 -3.983394E+05 -4.109514E+06 -4.312717E-09  1.358672E-09
        62  17 -1.129819E+07 -1.943932E+06 -4.324335E+05 -4.102027E+06 -1.549454E-09 -1.345187E-09
        62  18 -1.134233E+07 -2.021359E+06 -4.870614E+05 -4.147141E+06  7.942111E-10 -3.611058E-09
        62  19 -8.436542E+06 -8.976992E+05  3.558507E+05 -3.364100E+06 -2.828218E+04  2.734652E+04
        62  20 -8.395365E+06 -8.396863E+05  3.580052E+05 -3.311750E+06 -4.770183E+04  2.459225E+04
        62  21 -8.308016E+06 -8.581158E+05  3.412248E+05 -3.311991E+06 -6.608711E+04  1.904648E+04
        62  22 -9.823370E+06 -1.420620E+06 -2.115619E+04 -3.737189E+06 -2.635576E+04  2.807414E+04
        62  23 -9.847807E+06 -1.391872E+06 -3.711571E+04 -3.707314E+06 -4.672369E+04  2.496755E+04
        62  24 -9.826296E+06 -1.439810E+06 -7.280812E+04 -3.730037E+06 -6.605394E+04  1.906733E+04
        62  25 -1.120832E+07 -1.943433E+06 -3.983367E+05 -4.109514E+06 -2.443412E+04  2.880001E+04
        62  26 -1.129819E+07 -1.943931E+06 -4.324284E+05 -4.102028E+06 -4.574801E+04  2.534193E+04
        62  27 -1.134233E+07 -2.021358E+06 -4.870524E+05 -4.147142E+06 -6.602072E+04  1.908823E+04
        63   1 -8.299484E+06 -8.207993E+05  3.277832E+05 -3.312029E+06  8.012636E+04 -1.422274E+04
        63   2 -8.319551E+06 -8.150778E+05  2.483288E+05 -3.323226E+06  1.612662E+05  1.734327E+04
        63   3 -8.457651E+06 -9.678995E+05  5.490700E+04 -3.240133E+06  2.407283E+05  5.325432E+04
        63   4 -9.853862E+06 -1.397140E+06 -9.233863E+04 -3.720501E+06  7.949399E+04 -1.446819E+04
        63   5 -9.805904E+06 -1.391606E+06 -1.582447E+05 -3.739666E+06  1.619848E+05  1.760632E+04
        63   6 -9.876452E+06 -1.545183E+06 -3.394105E+05 -3.664485E+06  2.428055E+05  5.402591E+04
        63   7 -1.140588E+07 -1.973366E+06 -5.126770E+05 -4.128047E+06  7.886320E+04 -1.471309E+04
        63   8 -1.129009E+07 -1.967977E+06 -5.650207E+05 -4.155182E+06  1.627010E+05  1.786845E+04
        63   9 -1.129327E+07 -2.122267E+06 -7.339172E+05 -4.087916E+06  2.448767E+05  5.479492E+04
        63  10 -8.299491E+06 -8.208012E+05  3.277706E+05 -3.312028E+06 -1.321243E-09 -1.548777E-09
        63  11 -8.319580E+06 -8.150853E+05  2.482786E+05 -3.323228E+06  7.919637E-10 -1.651209E-09
        63  12 -8.457715E+06 -9.679185E+05  5.479101E+04 -3.240144E+06  2.349690E-09  3.356966E-10
        63  13 -9.853869E+06 -1.397141E+06 -9.235104E+04 -3.720500E+06 -5.996513E-11 -1.567291E-09
        63  14 -9.805932E+06 -1.391613E+06 -1.582954E+05 -3.739669E+06  6.300482E-09 -4.319696E-09
        63  15 -9.876517E+06 -1.545203E+06 -3.395289E+05 -3.664496E+06 -3.274900E-10  1.141007E-09
        63  16 -1.140589E+07 -1.973368E+06 -5.126892E+05 -4.128046E+06  1.466260E-09 -1.201923E-09
        63  17 -1.129012E+07 -1.967985E+06 -5.650720E+05 -4.155184E+06  1.010106E-09 -2.159994E-09
        63  18 -1.129334E+07 -2.122287E+06 -7.340380E+05 -4.087927E+06 -2.511544E-10  5.674266E-10
        63  19 -8.299484E+06 -8.207993E+05  3.277832E+05 -3.312029E+06 -8.012636E+04  1.422274E+04
        63  20 -8.319551E+06 -8.150778E+05  2.483288E+05 -3.323226E+06 -1.612662E+05 -1.734327E+04
        63  21 -8.457651E+06 -9.678995E+05  5.490700E+04 -3.240133E+06 -2.407283E+05 -5.325432E+04
        63  22 -9.853862E+06 -1.397140E+06 -9.233863E+04 -3.720501E+06 -7.949399E+04  1.446819E+04
        63  23 -9.805904E+06 -1.391606E+06 -1.582447E+05 -3.739666E+06 -1.619848E+05 -1.760632E+04
        63  24 -9.876452E+06 -1.545183E+06 -3.394105E+05 -3.664485E+06 -2.428055E+05 -5.402591E+04
        63  25 -1.140588E+07 -1.973366E+06 -5.126770E+05 -4.128047E+06 -7.886320E+04  1.471309E+04
        63  26 -1.129009E+07 -1.967977E+06 -5.650207E+05 -4.155182E+06 -1.627010E+05 -1.786845E+04
        63  27 -1.129327E+07 -2.122267E+06 -7.339172E+05 -4.087916E+06 -2.448767E+05 -5.479492E+04
        64   1 -8.631445E+06 -9.691501E+05 -8.154095E+04 -3.512125E+06  3.040163E+05  7.812005E+04
        64   2 -8.640232E+06 -7.491587E+05 -3.803192E+05 -3.439727E+06  6.649735E+05  2.222992E+05
        64   3 -9.405384E+06 -1.958989E+06 -1.377951E+06 -2.824798E+06  1.019399E+06  3.832194E+05
        64   4 -9.946142E+06 -1.347766E+06 -4.149421E+05 -3.748410E+06  3.024591E+05  7.759296E+04
        64   5 -9.656449E+06 -1.215371E+06 -6.722552E+05 -3.796612E+06  6.687267E+05  2.236366E+05
        64   6 -1.012526E+07 -2.515506E+06 -1.633506E+06 -3.301823E+06  1.028647E+06  3.862103E+05
        64   7 -1.125913E+07 -1.726421E+06 -7.484707E+05 -3.984318E+06  3.009049E+05  7.706638E+04
        64   8 -1.067163E+07 -1.681379E+06 -9.642922E+05 -4.152911E+06  6.724722E+05  2.249697E+05
        64   9 -1.084443E+07 -3.071310E+06 -1.889090E+06 -3.778176E+06  1.037883E+06  3.891854E+05
        64  10 -8.631547E+06 -9.691821E+05 -8.172910E+04 -3.512144E+06  3.972999E-09 -6.668891E-10
        64  11 -8.640726E+06 -7.493337E+05 -3.812583E+05 -3.439848E+06  5.348261E-09 -9.514463E-09
        64  12 -9.406555E+06 -1.959433E+06 -1.380217E+06 -2.825116E+06  1.494556E-09 -7.985989E-09
        64  13 -9.946243E+06 -1.347797E+06 -4.151287E+05 -3.748429E+06  3.308846E-09  3.099068E-09
        64  14 -9.656949E+06 -1.215549E+06 -6.732068E+05 -3.796734E+06  1.391681E-08  4.632525E-09
        64  15 -1.012645E+07 -2.515959E+06 -1.635816E+06 -3.302146E+06  1.096332E-09 -1.088001E-09
        64  16 -1.125923E+07 -1.726452E+06 -7.486558E+05 -3.984337E+06 -6.471276E-09 -1.754839E-09
        64  17 -1.067214E+07 -1.681559E+06 -9.652563E+05 -4.153034E+06 -3.415282E-09  7.191830E-10
        64  18 -1.084565E+07 -3.071772E+06 -1.891445E+06 -3.778506E+06 -1.388970E-09 -1.893424E-09
        64  19 -8.631445E+06 -9.691501E+05 -8.154095E+04 -3.512125E+06 -3.040163E+05 -7.812005E+04
        64  20 -8.640232E+06 -7.491587E+05 -3.803192E+05 -3.439727E+06 -6.649735E+05 -2.222992E+05
        64  21 -9.405384E+06 -1.958989E+06 -1.377951E+06 -2.824798E+06 -1.019399E+06 -3.832194E+05
        64  22 -9.946142E+06 -1.347766E+06 -4.149421E+05 -3.748410E+06 -3.024591E+05 -7.759296E+04
        64  23 -9.656449E+06 -1.215371E+06 -6.722552E+05 -3.796612E+06 -6.687267E+05 -2.236366E+05
        64  24 -1.012526E+07 -2.515506E+06 -1.633506E+06 -3.301823E+06 -1.028647E+06 -3.862103E+05
        64  25 -1.125913E+07 -1.726421E+06 -7.484707E+05 -3.984318E+06 -3.009049E+05 -7.706638E+04
        64  26 -1.067163E+07 -1.681379E+06 -9.642922E+05 -4.152911E+06 -6.724722E+05 -2.249697E+05
        64  27 -1.084443E+07 -3.071310E+06 -1.889090E+06 -3.778176E+06 -1.037883E+06 -3.891854E+05
        65   1 -1.562008E+06 -2.337564E+05 -1.857421E+05 -1.489282E+04  1.271912E+05  1.281798E+04
        65   2 -1.522035E+06 -4.050022E+05 -2.795202E+05  2.419709E+03  8.825941E+04  3.560638E+04
        65   3 -1.416808E+06 -3.634782E+05 -2.933772E+05 -6.162348E+04  4.951437E+04  3.140383E+04
        65   4  1.063528E+04  1.586406E+05  2.050514E+05 -4.134270E+04  1.397000E+05  1.290373E+04
        65   5 -2.272450E+04 -3.144830E+04  8.795744E+04 -6.450649E+01  9.161123E+04  3.562058E+04
        65   6  1.061984E+04 -7.448607E+03  5.700430E+04 -4.012777E+04  4.371443E+04  3.137219E+04
        65   7  1.585529E+06  5.508555E+05  5.956610E+05 -6.786395E+04  1.522402E+05  1.298831E+04
        65   8  1.478637E+06  3.419390E+05  4.552704E+05 -2.557955E+03  9.497093E+04  3.563474E+04
        65   9  1.439907E+06  3.484311E+05  4.072364E+05 -1.858466E+04  3.790106E+04  3.134018E+04
        65  10 -1.562025E+06 -2.337609E+05 -1.857729E+05 -1.489413E+04  2.195726E-09  2.187405E-09
        65  11 -1.522044E+06 -4.050057E+05 -2.795373E+05  2.417176E+03  2.453008E-09 -2.849532E-09
        65  12 -1.416811E+06 -3.634799E+05 -2.933837E+05 -6.162473E+04  1.914923E-09  5.111415E-10
        65  13  1.061428E+04  1.586352E+05  2.050144E+05 -4.134415E+04  4.212936E-09  3.357793E-10
        65  14 -2.273385E+04 -3.145192E+04  8.793929E+04 -6.713439E+01  2.192010E-09 -1.025375E-08
        65  15  1.061753E+04 -7.450177E+03  5.699886E+04 -4.012887E+04  1.132661E-08 -1.321295E-09
        65  16  1.585505E+06  5.508492E+05  5.956173E+05 -6.786554E+04  2.006520E-09 -1.231506E-09
        65  17  1.478627E+06  3.419353E+05  4.552511E+05 -2.560678E+03 -1.366393E-09 -2.407666E-09
        65  18  1.439905E+06  3.484296E+05  4.072319E+05 -1.858561E+04  2.026515E-09 -1.697435E-09
        65  19 -1.562008E+06 -2.337564E+05 -1.857421E+05 -1.489282E+04 -1.271912E+05 -1.281798E+04
        65  20 -1.522035E+06 -4.050022E+05 -2.795202E+05  2.419709E+03 -8.825941E+04 -3.560638E+04
        65  21 -1.416808E+06 -3.634782E+05 -2.933772E+05 -6.162348E+04 -4.951437E+04 -3.140383E+04
        65  22  1.063528E+04  1.586406E+05  2.050514E+05 -4.134270E+04 -1.397000E+05 -1.290373E+04
        65  23 -2.272450E+04 -3.144830E+04  8.795744E+04 -6.450649E+01 -9.161123E+04 -3.562058E+04
        65  24  1.061984E+04 -7.448607E+03  5.700430E+04 -4.012777E+04 -4.371443E+04 -3.137219E+04
        65  25  1.585529E+06  5.508555E+05  5.956610E+05 -6.786395E+04 -1.522402E+05 -1.298831E+04
        65  26  1.478637E+06  3.419390E+05  4.552704E+05 -2.557955E+03 -9.497093E+04 -3.563474E+04
        65  27  1.439907E+06  3.484311E+05  4.072364E+05 -1.858466E+04 -3.790106E+04 -3.134018E+04
        66   1 -1.263492E+06 -2.946594E+05 -2.633990E+05 -4.016009E+04  3.388975E+04  2.573312E+04
        66   2 -1.197676E+06 -3.009785E+05 -2.693612E+05 -1.835059E+03  2.307150E+04  2.594942E+04
        66   3 -1.119364E+06 -2.798239E+05 -2.605404E+05 -4.414701E+04  1.225588E+04  2.317837E+04
        66   4 -1.248504E+03  1.999744E+04  4.679461E+04 -4.040123E+04  3.452613E+04  2.573221E+04
        66   5 -7.576704E+03 -4.365705E+03  2.271734E+04 -4.552622E+01  2.268440E+04  2.594498E+04
        66   6 -1.249190E+03 -1.103379E+03  1.411435E+04 -4.031692E+04  1.084658E+04  2.317286E+04
        66   7  1.262447E+06  3.345359E+05  3.568710E+05 -4.064435E+04  3.516375E+04  2.573131E+04
        66   8  1.183814E+06  2.921420E+05  3.146919E+05  1.746436E+03  2.229652E+04  2.594054E+04
        66   9  1.118005E+06  2.775243E+05  2.886772E+05 -3.648046E+04  9.434723E+03  2.316735E+04
        66  10 -1.263494E+06 -2.946604E+05 -2.634024E+05 -4.016079E+04 -7.333381E-10 -1.476383E-09
        66  11 -1.197677E+06 -3.009794E+05 -2.693635E+05 -1.835542E+03  7.744368E-10  2.351179E-09
        66  12 -1.119364E+06 -2.798245E+05 -2.605417E+05 -4.414724E+04 -1.411451E-10 -1.541290E-09
        66  13 -1.249962E+03  1.999641E+04  4.679113E+04 -4.040195E+04  5.462610E-09 -2.024818E-09
        66  14 -7.577437E+03 -4.366566E+03  2.271511E+04 -4.600020E+01  2.150246E-09 -7.624111E-10
        66  15 -1.249461E+03 -1.103987E+03  1.411312E+04 -4.031712E+04  3.935375E-09 -2.061030E-09
        66  16  1.262446E+06  3.345348E+05  3.568674E+05 -4.064507E+04  6.491983E-09  2.723126E-09
        66  17  1.183813E+06  2.921411E+05  3.146897E+05  1.745971E+03 -3.401535E-09 -2.966085E-09
        66  18  1.118005E+06  2.775237E+05  2.886760E+05 -3.648063E+04  2.652192E-09 -3.000323E-10
        66  19 -1.263492E+06 -2.946594E+05 -2.633990E+05 -4.016009E+04 -3.388975E+04 -2.573312E+04
        66  20 -1.197676E+06 -3.009785E+05 -2.693612E+05 -1.835059E+03 -2.307150E+04 -2.594942E+04
        66  21 -1.119364E+06 -2.798239E+05 -2.605404E+05 -4.414701E+04 -1.225588E+04 -2.317837E+04
        66  22 -1.248504E+03  1.999744E+04  4.679461E+04 -4.040123E+04 -3.452613E+04 -2.573221E+04
        66  23 -7.576704E+03 -4.365705E+03  2.271734E+04 -4.552622E+01 -2.268440E+04 -2.594498E+04
        66  24 -1.249190E+03 -1.103379E+03  1.411435E+04 -4.031692E+04 -1.084658E+04 -2.317286E+04
        66  25  1.262447E+06  3.345359E+05  3.568710E+05 -4.064435E+04 -3.516375E+04 -2.573131E+04
        66  26  1.183814E+06  2.921420E+05  3.146919E+05  1.746436E+03 -2.229652E+04 -2.594054E+04
        66  27  1.118005E+06  2.775243E+05  2.886772E+05 -3.648046E+04 -9.434723E+03 -2.316735E+04
        67   1 -9.556226E+05 -2.350631E+05 -2.225194E+05 -4.101568E+04  9.264988E+03  2.121446E+04
        67   2 -8.852503E+05 -2.200732E+05 -2.103678E+05 -4.472198E+02  6.471220E+03  1.894528E+04
        67   3 -8.115240E+05 -2.015725E+05 -1.950844E+05 -4.054630E+04  3.671060E+03  1.634558E+04
        67   4 -3.205339E+03  2.251968E+03  1.108420E+04 -4.035196E+04  8.569107E+03  2.121132E+04
        67   5 -4.889065E+03 -6.927815E+02  5.697124E+03 -1.998519E+01  5.660373E+03  1.894296E+04
        67   6 -3.205293E+03 -1.085380E+02  3.518746E+03 -4.034847E+04  2.745570E+03  1.634430E+04
        67   7  9.500388E+05  2.394997E+05  2.446213E+05 -3.968751E+04  7.872151E+03  2.120819E+04
        67   8  8.761785E+05  2.186301E+05  2.217051E+05  4.077274E+02  4.848374E+03  1.894064E+04
        67   9  8.057087E+05  2.013069E+05  2.020738E+05 -4.015034E+04  1.818874E+03  1.634302E+04
        67  10 -9.556228E+05 -2.350636E+05 -2.225205E+05 -4.101583E+04 -1.156114E-10  1.503209E-10
        67  11 -8.852504E+05 -2.200736E+05 -2.103686E+05 -4.473186E+02 -2.586557E-09  6.158972E-10
        67  12 -8.115241E+05 -2.015728E+05 -1.950849E+05 -4.054635E+04 -3.130955E-09 -3.994547E-10
        67  13 -3.205538E+03  2.251465E+03  1.108322E+04 -4.035211E+04  4.274299E-10 -7.897391E-10
        67  14 -4.889195E+03 -6.931754E+02  5.696389E+03 -2.007155E+01 -1.078044E-09  8.748209E-10
        67  15 -3.205373E+03 -1.088269E+02  3.518230E+03 -4.034850E+04 -2.962933E-09 -8.685577E-11
        67  16  9.500386E+05  2.394992E+05  2.446203E+05 -3.968765E+04  1.476697E-09 -6.576848E-10
        67  17  8.761784E+05  2.186297E+05  2.217044E+05  4.076535E+02 -2.527007E-10 -5.446061E-10
        67  18  8.057086E+05  2.013066E+05  2.020733E+05 -4.015037E+04  2.426591E-09  1.308210E-09
        67  19 -9.556226E+05 -2.350631E+05 -2.225194E+05 -4.101568E+04 -9.264988E+03 -2.121446E+04
        67  20 -8.852503E+05 -2.200732E+05 -2.103678E+05 -4.472198E+02 -6.471220E+03 -1.894528E+04
        67  21 -8.115240E+05 -2.015725E+05 -1.950844E+05 -4.054630E+04 -3.671060E+03 -1.634558E+04
        67  22 -3.205339E+03  2.251968E+03  1.108420E+04 -4.035196E+04 -8.569107E+03 -2.121132E+04
        67  23 -4.889065E+03 -6.927815E+02  5.697124E+03 -1.998519E+01 -5.660373E+03 -1.894296E+04
        67  24 -3.205293E+03 -1.085380E+02  3.518746E+03 -4.034847E+04 -2.745570E+03 -1.634430E+04
        67  25  9.500388E+05  2.394997E+05  2.446213E+05 -3.968751E+04 -7.872151E+03 -2.120819E+04
        67  26  8.761785E+05  2.186301E+05  2.217051E+05  4.077274E+02 -4.848374E+03 -1.894064E+04
        67  27  8.057087E+05  2.013069E+05  2.020738E+05 -4.015034E+04 -1.818874E+03 -1.634302E+04
        68   1 -6.461632E+05 -1.598403E+05 -1.547977E+05 -4.012600E+04  3.022598E+03  1.479284E+04
        68   2 -5.745010E+05 -1.422386E+05 -1.386068E+05  3.709806E+02  2.344592E+03  1.224821E+04
        68   3 -5.019719E+05 -1.240723E+05 -1.217038E+05 -3.980997E+04  1.662257E+03  9.668809E+03
        68   4 -3.685934E+03  1.949237E+02  2.648269E+03 -4.035222E+04  2.175470E+03  1.479225E+04
        68   5 -4.118174E+03 -1.286110E+02  1.358941E+03 -1.552154E+01  1.485095E+03  1.224830E+04
        68   6 -3.685873E+03  1.151094E+02  7.902711E+02 -4.035216E+04  7.904685E+02  9.669616E+03
        68   7  6.391676E+05  1.601995E+05  1.600640E+05 -4.057862E+04  1.327465E+03  1.479166E+04
        68   8  5.665611E+05  1.419573E+05  1.413008E+05 -4.023094E+02  6.248082E+02  1.224840E+04
        68   9  4.948262E+05  1.242840E+05  1.232661E+05 -4.089470E+04 -8.201891E+01  9.670425E+03
        68  10 -6.461633E+05 -1.598405E+05 -1.547981E+05 -4.012603E+04 -6.319379E-09  4.406886E-10
        68  11 -5.745011E+05 -1.422388E+05 -1.386071E+05  3.709575E+02  4.694109E-10  1.528360E-09
        68  12 -5.019719E+05 -1.240724E+05 -1.217040E+05 -3.980998E+04  3.230013E-11 -5.562789E-10
        68  13 -3.685998E+03  1.946874E+02  2.647849E+03 -4.035224E+04 -1.009971E-10  1.609370E-09
        68  14 -4.118217E+03 -1.287726E+02  1.358655E+03 -1.553619E+01 -2.154909E-09 -8.421698E-10
        68  15 -3.685898E+03  1.150088E+02  7.900942E+02 -4.035217E+04 -2.882672E-09 -1.444988E-09
        68  16  6.391675E+05  1.601993E+05  1.600635E+05 -4.057863E+04  1.064863E-09  3.687350E-10
        68  17  5.665610E+05  1.419571E+05  1.413005E+05 -4.023156E+02 -3.522692E-09 -6.926025E-10
        68  18  4.948262E+05  1.242839E+05  1.232659E+05 -4.089470E+04 -2.572034E-09 -1.584868E-09
        68  19 -6.461632E+05 -1.598403E+05 -1.547977E+05 -4.012600E+04 -3.022598E+03 -1.479284E+04
        68  20 -5.745010E+05 -1.422386E+05 -1.386068E+05  3.709806E+02 -2.344592E+03 -1.224821E+04
        68  21 -5.019719E+05 -1.240723E+05 -1.217038E+05 -3.980997E+04 -1.662257E+03 -9.668809E+03
        68  22 -3.685934E+03  1.949237E+02  2.648269E+03 -4.035222E+04 -2.175470E+03 -1.479225E+04
        68  23 -4.118174E+03 -1.286110E+02  1.358941E+03 -1.552154E+01 -1.485095E+03 -1.224830E+04
        68  24 -3.685873E+03  1.151094E+02  7.902711E+02 -4.035216E+04 -7.904685E+02 -9.669616E+03
        68  25  6.391676E+05  1.601995E+05  1.600640E+05 -4.057862E+04 -1.327465E+03 -1.479166E+04
        68  26  5.665611E+05  1.419573E+05  1.413008E+05 -4.023094E+02 -6.248082E+02 -1.224840E+04
        68  27  4.948262E+05  1.242840E+05  1.232661E+05 -4.089470E+04  8.201891E+01 -9.670425E+03
        69   1 -3.362372E+05 -8.265862E+04 -8.081740E+04 -3.995257E+04  1.532646E+03  8.159026E+03
        69   2 -2.640351E+05 -6.482805E+04 -6.373556E+04  3.490004E+02  1.467598E+03  5.582440E+03
        69   3 -1.919780E+05 -4.678185E+04 -4.660269E+04 -4.003315E+04  1.400641E+03  3.019976E+03
        69   4 -3.867917E+03  9.445692E+01  5.067281E+02 -4.035402E+04  6.650469E+02  8.160231E+03
        69   5 -3.793219E+03 -5.883089E-01  1.138083E+02 -1.320395E+01  6.046575E+02  5.583942E+03
        69   6 -3.867887E+03  1.198663E+02 -2.307302E+02 -4.035399E+04  5.423656E+02  3.021790E+03
        69   7  3.286020E+05  8.283936E+04  8.182278E+04 -4.075565E+04 -2.030162E+02  8.161438E+03
        69   8  2.565104E+05  6.482185E+04  6.395821E+04 -3.755310E+02 -2.586447E+02  5.585446E+03
        69   9  1.842744E+05  4.701895E+04  4.613862E+04 -4.067492E+04 -3.161695E+02  3.023605E+03
        69  10 -3.362372E+05 -8.265869E+04 -8.081753E+04 -3.995258E+04 -2.916363E-09 -9.764636E-10
        69  11 -2.640351E+05 -6.482809E+04 -6.373563E+04  3.489938E+02 -3.031302E-09  8.268604E-10
        69  12 -1.919780E+05 -4.678186E+04 -4.660271E+04 -4.003315E+04  1.693752E-09  2.057055E-11
        69  13 -3.867935E+03  9.438529E+01  5.066021E+02 -4.035403E+04  1.718669E-09  1.242000E-09
        69  14 -3.793227E+03 -6.218893E-01  1.137490E+02 -1.320667E+01  3.235570E-09  2.708727E-09
        69  15 -3.867890E+03  1.198565E+02 -2.307479E+02 -4.035400E+04 -3.099742E-09 -2.316683E-09
        69  16  3.286020E+05  8.283929E+04  8.182265E+04 -4.075565E+04  3.597716E-09  2.775390E-10
        69  17  2.565104E+05  6.482182E+04  6.395815E+04 -3.755298E+02 -1.484831E-09  1.566087E-09
        69  18  1.842744E+05  4.701894E+04  4.613860E+04 -4.067492E+04  1.751756E-09 -6.227529E-11
        69  19 -3.362372E+05 -8.265862E+04 -8.081740E+04 -3.995257E+04 -1.532646E+03 -8.159026E+03
        69  20 -2.640351E+05 -6.482805E+04 -6.373556E+04  3.490004E+02 -1.467598E+03 -5.582440E+03
        69  21 -1.919780E+05 -4.678185E+04 -4.660269E+04 -4.003315E+04 -1.400641E+03 -3.019976E+03
        69  22 -3.867917E+03  9.445692E+01  5.067281E+02 -4.035402E+04 -6.650469E+02 -8.160231E+03
        69  23 -3.793219E+03 -5.883089E-01  1.138083E+02 -1.320395E+01 -6.046575E+02 -5.583942E+03
        69  24 -3.867887E+03  1.198663E+02 -2.307302E+02 -4.035399E+04 -5.423656E+02 -3.021790E+03
        69  25  3.286020E+05  8.283936E+04  8.182278E+04 -4.075565E+04  2.030162E+02 -8.161438E+03
        69  26  2.565104E+05  6.482185E+04  6.395821E+04 -3.755310E+02  2.586447E+02 -5.585446E+03
        69  27  1.842744E+05  4.701895E+04  4.613862E+04 -4.067492E+04  3.161695E+02 -3.023605E+03
        70   1 -2.607820E+04 -5.285978E+03 -5.631561E+03 -4.038074E+04  1.493244E+03  1.492743E+03
        70   2  4.635107E+04  1.255636E+04  1.136610E+04 -7.801916E+01  1.890047E+03 -1.095109E+03
        70   3  1.182271E+05  3.006797E+04  2.793330E+04 -4.046073E+04  2.287616E+03 -3.517172E+03
        70   4 -3.950146E+03  1.804308E+02 -4.267680E+02 -4.035456E+04  5.961539E+02  1.494746E+03
        70   5 -3.665743E+03  1.000798E+02 -8.991484E+02 -1.217733E+01  1.048568E+03 -1.093297E+03
        70   6 -3.950155E+03 -3.205991E+02 -1.840617E+03 -4.035563E+04  1.501703E+03 -3.515530E+03
        70   7  1.817836E+04  5.646805E+03  4.777994E+03 -4.032837E+04 -3.009681E+02  1.496749E+03
        70   8 -5.368027E+04 -1.235638E+04 -1.316458E+04  5.366041E+01  2.071568E+02 -1.091486E+03
        70   9 -1.261138E+05 -3.071027E+04 -3.161562E+04 -4.025054E+04  7.159446E+02 -3.513887E+03
        70  10 -2.607820E+04 -5.285981E+03 -5.631569E+03 -4.038074E+04 -1.909837E-10  2.094898E-09
        70  11  4.635106E+04  1.255636E+04  1.136609E+04 -7.801749E+01  7.465308E-10 -7.998426E-10
        70  12  1.182271E+05  3.006796E+04  2.793327E+04 -4.046072E+04 -4.887695E-10  6.838096E-10
        70  13 -3.950147E+03  1.804283E+02 -4.267729E+02 -4.035456E+04 -4.890108E-09 -2.379184E-09
        70  14 -3.665744E+03  1.000782E+02 -8.991527E+02 -1.217640E+01 -2.159412E-09 -3.396371E-09
        70  15 -3.950161E+03 -3.206130E+02 -1.840644E+03 -4.035562E+04 -1.992743E-09  1.204568E-09
        70  16  1.817836E+04  5.646802E+03  4.777990E+03 -4.032837E+04 -3.863443E-10  1.446287E-09
        70  17 -5.368027E+04 -1.235639E+04 -1.316458E+04  5.366060E+01  1.077139E-09 -3.049645E-09
        70  18 -1.261138E+05 -3.071028E+04 -3.161564E+04 -4.025054E+04 -1.394715E-09 -6.994784E-10
        70  19 -2.607820E+04 -5.285978E+03 -5.631561E+03 -4.038074E+04 -1.493244E+03 -1.492743E+03
        70  20  4.635107E+04  1.255636E+04  1.136610E+04 -7.801916E+01 -1.890047E+03  1.095109E+03
        70  21  1.182271E+05  3.006797E+04  2.793330E+04 -4.046073E+04 -2.287616E+03  3.517172E+03
        70  22 -3.950146E+03  1.804308E+02 -4.267680E+02 -4.035456E+04 -5.961539E+02 -1.494746E+03
        70  23 -3.665743E+03  1.000798E+02 -8.991484E+02 -1.217733E+01 -1.048568E+03  1.093297E+03
        70  24 -3.950155E+03 -3.205991E+02 -1.840617E+03 -4.035563E+04 -1.501703E+03  3.515530E+03
        70  25  1.817836E+04  5.646805E+03  4.777994E+03 -4.032837E+04  3.009681E+02 -1.496749E+03
        70  26 -5.368027E+04 -1.235638E+04 -1.316458E+04  5.366041E+01 -2.071568E+02  1.091486E+03
        70  27 -1.261138E+05 -3.071027E+04 -3.161562E+04 -4.025054E+04 -7.159446E+02  3.513887E+03
        71   1  2.840445E+05  7.213582E+04  6.856538E+04 -4.117917E+04  3.011479E+03 -5.245081E+03
        71   2  3.568833E+05  9.038985E+04  8.441368E+04 -2.854109E+02  4.536199E+03 -7.898500E+03
        71   3  4.284098E+05  1.041989E+05  9.815388E+04 -4.004952E+04  6.065779E+03 -9.051937E+03
        71   4 -4.157466E+03  3.236678E+02 -2.327556E+03 -4.034741E+04  1.867814E+03 -5.242901E+03
        71   5 -3.454699E+03  6.696909E+02 -3.925628E+03 -1.976200E+01  3.895671E+03 -7.897717E+03
        71   6 -4.157514E+03 -3.517858E+03 -7.981945E+03 -4.035297E+04  5.928212E+03 -9.052157E+03
        71   7 -2.922838E+05 -7.149466E+04 -7.322661E+04 -3.951600E+04  7.246793E+02 -5.240725E+03
        71   8 -3.636745E+05 -8.906009E+04 -9.227446E+04  2.457820E+02  3.255513E+03 -7.896934E+03
        71   9 -4.365546E+05 -1.112485E+05 -1.141315E+05 -4.065614E+04  5.790739E+03 -9.052377E+03
        71  10  2.840444E+05  7.213579E+04  6.856531E+04 -4.117916E+04 -1.539729E-09 -1.551101E-09
        71  11  3.568833E+05  9.038978E+04  8.441353E+04 -2.853820E+02 -4.825628E-09  4.529715E-10
        71  12  4.284098E+05  1.041988E+05  9.815366E+04 -4.004947E+04 -1.622920E-09 -2.773306E-10
        71  13 -4.157477E+03  3.236374E+02 -2.327614E+03 -4.034741E+04 -5.247543E-10  8.003040E-10
        71  14 -3.454732E+03  6.696199E+02 -3.925774E+03 -1.973722E+01 -1.077456E-09 -1.188594E-11
        71  15 -4.157574E+03 -3.517955E+03 -7.982165E+03 -4.035292E+04  7.155763E-09  1.743658E-10
        71  16 -2.922838E+05 -7.149469E+04 -7.322666E+04 -3.951600E+04 -1.138238E-09  1.037752E-09
        71  17 -3.636745E+05 -8.906016E+04 -9.227460E+04  2.458028E+02  1.359917E-09  1.295811E-09
        71  18 -4.365546E+05 -1.112486E+05 -1.141317E+05 -4.065610E+04  4.247345E-10 -6.491811E-10
        71  19  2.840445E+05  7.213582E+04  6.856538E+04 -4.117917E+04 -3.011479E+03  5.245081E+03
        71  20  3.568833E+05  9.038985E+04  8.441368E+04 -2.854109E+02 -4.536199E+03  7.898500E+03
        71  21  4.284098E+05  1.041989E+05  9.815388E+04 -4.004952E+04 -6.065779E+03  9.051937E+03
        71  22 -4.157466E+03  3.236678E+02 -2.327556E+03 -4.034741E+04 -1.867814E+03  5.242901E+03
        71  23 -3.454699E+03  6.696909E+02 -3.925628E+03 -1.976200E+01 -3.895671E+03  7.897717E+03
        71  24 -4.157514E+03 -3.517858E+03 -7.981945E+03 -4.035297E+04 -5.928212E+03  9.052157E+03
        71  25 -2.922838E+05 -7.149466E+04 -7.322661E+04 -3.951600E+04 -7.246793E+02  5.240725E+03
        71  26 -3.636745E+05 -8.906009E+04 -9.227446E+04  2.457820E+02 -3.255513E+03  7.896934E+03
        71  27 -4.365546E+05 -1.112485E+05 -1.141315E+05 -4.065614E+04 -5.790739E+03  9.052377E+03
        72   1  5.927068E+05  1.503325E+05  1.372011E+05 -4.361156E+04  1.083415E+04 -1.258936E+04
        72   2  6.691633E+05  1.720173E+05  1.488861E+05  1.315764E+03  1.454479E+04 -1.581853E+04
        72   3  7.373188E+05  1.582365E+05  1.495023E+05 -3.417810E+04  1.825939E+04 -5.528485E+03
        72   4 -5.921976E+03  1.270200E+03 -9.654093E+03 -4.029537E+04  7.471280E+03 -1.258632E+04
        72   5 -1.369780E+03  5.145563E+03 -1.522149E+04 -8.220544E+01  1.572088E+04 -1.582024E+04
        72   6 -5.921946E+03 -2.725319E+04 -3.501867E+04 -4.029606E+04  2.397387E+04 -5.528592E+03
        72   7 -6.042246E+05 -1.478186E+05 -1.565355E+05 -3.698227E+04  4.111644E+03 -1.258331E+04
        72   8 -6.714935E+05 -1.617594E+05 -1.793619E+05 -1.478614E+03  1.689570E+04 -1.582195E+04
        72   9 -7.486615E+05 -2.127841E+05 -2.195808E+05 -4.640670E+04  2.968152E+04 -5.528811E+03
        72  10  5.927066E+05  1.503323E+05  1.372005E+05 -4.361145E+04 -7.048672E-10 -3.266064E-10
        72  11  6.691630E+05  1.720170E+05  1.488852E+05  1.315950E+03  3.411585E-09  5.253236E-10
        72  12  7.373184E+05  1.582364E+05  1.495016E+05 -3.417802E+04  2.402765E-09  3.405746E-10
        72  13 -5.922078E+03  1.270015E+03 -9.654495E+03 -4.029529E+04  4.026320E-09  1.780843E-09
        72  14 -1.370112E+03  5.145228E+03 -1.522242E+04 -8.200513E+01  1.200099E-12  3.058166E-10
        72  15 -5.922572E+03 -2.725338E+04 -3.501981E+04 -4.029596E+04  1.735914E-09  1.705691E-10
        72  16 -6.042247E+05 -1.478188E+05 -1.565358E+05 -3.698223E+04 -7.622451E-10 -2.138959E-10
        72  17 -6.714939E+05 -1.617598E+05 -1.793630E+05 -1.478399E+03 -4.067522E-09  4.713315E-10
        72  18 -7.486624E+05 -2.127844E+05 -2.195825E+05 -4.640657E+04 -2.563230E-10  2.283574E-10
        72  19  5.927068E+05  1.503325E+05  1.372011E+05 -4.361156E+04 -1.083415E+04  1.258936E+04
        72  20  6.691633E+05  1.720173E+05  1.488861E+05  1.315764E+03 -1.454479E+04  1.581853E+04
        72  21  7.373188E+05  1.582365E+05  1.495023E+05 -3.417810E+04 -1.825939E+04  5.528485E+03
        72  22 -5.921976E+03  1.270200E+03 -9.654093E+03 -4.029537E+04 -7.471280E+03  1.258632E+04
        72  23 -1.369780E+03  5.145563E+03 -1.522149E+04 -8.220544E+01 -1.572088E+04  1.582024E+04
        72  24 -5.921946E+03 -2.725319E+04 -3.501867E+04 -4.029606E+04 -2.397387E+04  5.528592E+03
        72  25 -6.042246E+05 -1.478186E+05 -1.565355E+05 -3.698227E+04 -4.111644E+03  1.258331E+04
        72  26 -6.714935E+05 -1.617594E+05 -1.793619E+05 -1.478614E+03 -1.689570E+04  1.582195E+04
        72  27 -7.486615E+05 -2.127841E+05 -2.195808E+05 -4.640670E+04 -2.968152E+04  5.528811E+03
        73   1  1.554963E+06  5.264251E+06  1.489493E+06 -1.363225E+06  6.495245E+04  3.420138E+05
        73   2  1.108666E+06  3.781638E+06  9.701660E+05 -1.146308E+06  2.021873E+05  9.484294E+04
        73   3  7.528492E+05  2.350111E+06  6.328999E+05 -1.304131E+06  1.834892E+05 -1.530537E+05
        73   4  8.144127E+04 -6.922637E+05  6.845821E+04 -1.280545E+06  6.825459E+04  3.395564E+04
        73   5  2.877359E+04 -6.953385E+05  4.347537E+04 -1.093437E+06  2.032266E+05  1.319622E+04
        73   6  2.789086E+04 -6.881377E+05  4.431422E+04 -1.281160E+06  1.817735E+05 -8.886487E+03
        73   7 -1.394577E+06 -6.616191E+06 -1.354718E+06 -1.198543E+06  7.149361E+04 -2.711798E+05
        73   8 -1.052380E+06 -5.153366E+06 -8.842804E+05 -1.040884E+06  2.042565E+05 -6.787462E+04
        73   9 -6.976063E+05 -3.717490E+06 -5.446272E+05 -1.258269E+06  1.800634E+05  1.345930E+05
        73  10  1.554927E+06  5.264125E+06  1.489267E+06 -1.363243E+06  4.058394E-10  5.468349E-09
        73  11  1.108620E+06  3.781617E+06  9.700722E+05 -1.146323E+06  7.403919E-10 -3.279266E-09
        73  12  7.528069E+05  2.350077E+06  6.327931E+05 -1.304108E+06 -1.981235E-09 -1.086344E-08
        73  13  8.143595E+04 -6.922662E+05  6.844727E+04 -1.280547E+06  4.376814E-09  4.728260E-09
        73  14  2.872920E+04 -6.953497E+05  4.339743E+04 -1.093439E+06  2.077265E-09 -1.060028E-08
        73  15  2.785538E+04 -6.881466E+05  4.425202E+04 -1.281158E+06  4.044244E-09  2.851329E-09
        73  16 -1.394602E+06 -6.616272E+06 -1.354867E+06 -1.198527E+06  2.731756E-09 -5.506265E-09
        73  17 -1.052426E+06 -5.153382E+06 -8.843674E+05 -1.040873E+06  1.029294E-08  4.821977E-09
        73  18 -6.976461E+05 -3.717518E+06 -5.447226E+05 -1.258288E+06 -1.983396E-09  4.875227E-09
        73  19  1.554963E+06  5.264251E+06  1.489493E+06 -1.363225E+06 -6.495245E+04 -3.420138E+05
        73  20  1.108666E+06  3.781638E+06  9.701660E+05 -1.146308E+06 -2.021873E+05 -9.484294E+04
        73  21  7.528492E+05  2.350111E+06  6.328999E+05 -1.304131E+06 -1.834892E+05  1.530537E+05
        73  22  8.144127E+04 -6.922637E+05  6.845821E+04 -1.280545E+06 -6.825459E+04 -3.395564E+04
        73  23  2.877359E+04 -6.953385E+05  4.347537E+04 -1.093437E+06 -2.032266E+05 -1.319622E+04
        73  24  2.789086E+04 -6.881377E+05  4.431422E+04 -1.281160E+06 -1.817735E+05  8.886487E+03
        73  25 -1.394577E+06 -6.616191E+06 -1.354718E+06 -1.198543E+06 -7.149361E+04  2.711798E+05
        73  26 -1.052380E+06 -5.153366E+06 -8.842804E+05 -1.040884E+06 -2.042565E+05  6.787462E+04
        73  27 -6.976063E+05 -3.717490E+06 -5.446272E+05 -1.258269E+06 -1.800634E+05 -1.345930E+05
        74   1  5.190482E+05  1.355527E+06  4.460425E+05 -1.306341E+06  1.239461E+05 -1.354248E+05
        74   2  1.675034E+05 -1.002542E+05  1.824765E+05 -1.095260E+06  4.171637E+04 -1.751022E+05
        74   3 -1.580996E+05 -1.552176E+06 -5.144429E+04 -1.268196E+06 -4.252310E+04 -2.147592E+05
        74   4  3.062876E+04 -6.891408E+05  4.960233E+04 -1.283125E+06  1.224779E+05 -1.761165E+04
        74   5  2.749496E+04 -6.894892E+05  7.208116E+04 -1.091006E+06  4.018730E+04 -5.449519E+04
        74   6  4.991290E+04 -6.885630E+05  1.222439E+05 -1.282889E+06 -4.411776E+04 -9.144529E+04
        74   7 -4.580321E+05 -2.729766E+06 -3.469824E+05 -1.259972E+06  1.210157E+05  9.982285E+04
        74   8 -1.125257E+05 -1.278357E+06 -3.827446E+04 -1.086756E+06  3.865900E+04  6.600023E+04
        74   9  2.578879E+05  1.757958E+05  2.959513E+05 -1.297600E+06 -4.571694E+04  3.203721E+04
        74  10  5.190269E+05  1.355504E+06  4.459794E+05 -1.306327E+06 -1.303994E-09  2.843867E-08
        74  11  1.674933E+05 -1.002876E+05  1.824156E+05 -1.095254E+06  5.591817E-09 -3.844796E-09
        74  12 -1.581140E+05 -1.552226E+06 -5.153466E+04 -1.268203E+06  2.440417E-09 -3.234867E-08
        74  13  3.061258E+04 -6.891451E+05  4.957359E+04 -1.283124E+06 -2.109934E-09  5.241986E-09
        74  14  2.749243E+04 -6.894928E+05  7.207256E+04 -1.091005E+06 -1.548317E-08 -1.235309E-08
        74  15  4.990855E+04 -6.885725E+05  1.222244E+05 -1.282892E+06 -3.208339E-09  2.954484E-09
        74  16 -4.580505E+05 -2.729781E+06 -3.470288E+05 -1.259982E+06 -3.332931E-09 -2.914219E-08
        74  17 -1.125285E+05 -1.278362E+06 -3.828549E+04 -1.086758E+06 -6.627382E-09  3.176636E-09
        74  18  2.578854E+05  1.757941E+05  2.959454E+05 -1.297598E+06 -1.434576E-11  2.645093E-08
        74  19  5.190482E+05  1.355527E+06  4.460425E+05 -1.306341E+06 -1.239461E+05  1.354248E+05
        74  20  1.675034E+05 -1.002542E+05  1.824765E+05 -1.095260E+06 -4.171637E+04  1.751022E+05
        74  21 -1.580996E+05 -1.552176E+06 -5.144429E+04 -1.268196E+06  4.252310E+04  2.147592E+05
        74  22  3.062876E+04 -6.891408E+05  4.960233E+04 -1.283125E+06 -1.224779E+05  1.761165E+04
        74  23  2.749496E+04 -6.894892E+05  7.208116E+04 -1.091006E+06 -4.018730E+04  5.449519E+04
        74  24  4.991290E+04 -6.885630E+05  1.222439E+05 -1.282889E+06  4.411776E+04  9.144529E+04
        74  25 -4.580321E+05 -2.729766E+06 -3.469824E+05 -1.259972E+06 -1.210157E+05 -9.982285E+04
        74  26 -1.125257E+05 -1.278357E+06 -3.827446E+04 -1.086756E+06 -3.865900E+04 -6.600023E+04
        74  27  2.578879E+05  1.757958E+05  2.959513E+05 -1.297600E+06  4.571694E+04 -3.203721E+04
        75   1 -4.138906E+05 -2.520463E+06 -2.088741E+05 -1.310904E+06 -1.016254E+05 -2.569889E+05
        75   2 -6.972174E+05 -4.002790E+06 -4.149381E+05 -9.361332E+05 -1.389021E+05 -2.171073E+05
        75   3 -6.548468E+05 -5.413794E+06 -5.673968E+05 -9.367629E+05 -4.853791E+04 -1.760947E+05
        75   4  2.946017E+04 -6.670814E+05  1.566299E+05 -1.281852E+06 -1.034623E+05 -1.132320E+05
        75   5  1.036126E+05 -7.187043E+05  2.764097E+05 -1.091540E+06 -1.383252E+05 -2.568619E+05
        75   6  5.343603E+05 -6.699005E+05  5.769968E+05 -1.276106E+06 -4.587906E+04 -3.992954E+05
        75   7  4.726188E+05  1.189649E+06  5.220453E+05 -1.252698E+06 -1.052825E+05  3.094684E+04
        75   8  9.038232E+05  2.575660E+06  9.671664E+05 -1.247748E+06 -1.377302E+05 -2.968219E+05
        75   9  1.722335E+06  4.095029E+06  1.720015E+06 -1.617995E+06 -4.298687E+04 -6.241977E+05
        75  10 -4.139195E+05 -2.520537E+06 -2.090183E+05 -1.310926E+06  5.697867E-09  3.990063E-09
        75  11 -6.972509E+05 -4.002846E+06 -4.150637E+05 -9.361576E+05  1.083971E-08 -3.918153E-09
        75  12 -6.548578E+05 -5.413829E+06 -5.674601E+05 -9.367698E+05  2.074740E-09 -1.066406E-08
        75  13  2.944520E+04 -6.670981E+05  1.565856E+05 -1.281862E+06  3.794808E-09  5.582639E-09
        75  14  1.035742E+05 -7.187804E+05  2.762494E+05 -1.091568E+06 -6.692019E-09 -1.104318E-08
        75  15  5.343151E+05 -6.700724E+05  5.766927E+05 -1.276121E+06  2.206198E-09  3.298310E-09
        75  16  4.726066E+05  1.189645E+06  5.220227E+05 -1.252695E+06 -3.593880E-09 -2.899412E-09
        75  17  9.037792E+05  2.575560E+06  9.669655E+05 -1.247781E+06  4.615804E-09  4.394209E-09
        75  18  1.722229E+06  4.094612E+06  1.719284E+06 -1.618017E+06  3.155925E-09  6.036878E-09
        75  19 -4.138906E+05 -2.520463E+06 -2.088741E+05 -1.310904E+06  1.016254E+05  2.569889E+05
        75  20 -6.972174E+05 -4.002790E+06 -4.149381E+05 -9.361332E+05  1.389021E+05  2.171073E+05
        75  21 -6.548468E+05 -5.413794E+06 -5.673968E+05 -9.367629E+05  4.853791E+04  1.760947E+05
        75  22  2.946017E+04 -6.670814E+05  1.566299E+05 -1.281852E+06  1.034623E+05  1.132320E+05
        75  23  1.036126E+05 -7.187043E+05  2.764097E+05 -1.091540E+06  1.383252E+05  2.568619E+05
        75  24  5.343603E+05 -6.699005E+05  5.769968E+05 -1.276106E+06  4.587906E+04  3.992954E+05
        75  25  4.726188E+05  1.189649E+06  5.220453E+05 -1.252698E+06  1.052825E+05 -3.094684E+04
        75  26  9.038232E+05  2.575660E+06  9.671664E+05 -1.247748E+06  1.377302E+05  2.968219E+05
        75  27  1.722335E+06  4.095029E+06  1.720015E+06 -1.617995E+06  4.298687E+04  6.241977E+05
        76   1 -5.435948E+06 -2.156597E+06 -1.265188E+06 -1.833883E+06 -2.943681E+05 -1.749818E+04
        76   2 -5.080713E+06 -2.065734E+06 -1.046038E+06 -1.696875E+06 -2.017063E+05  2.359205E+05
        76   3 -4.652291E+06 -1.996861E+06 -9.355725E+05 -1.659567E+06 -5.173885E+04  3.406669E+05
        76   4 -1.149708E+04 -1.580984E+05  1.437819E+05 -3.953852E+05  6.000753E+04  1.182547E+05
        76   5 -7.547958E+04 -2.232247E+05  6.441839E+04 -3.237727E+05 -4.615574E+04  2.950841E+05
        76   6 -2.680192E+04 -2.709332E+05  3.507542E+04 -3.518247E+05 -9.537143E+04  3.238255E+05
        76   7  5.441804E+06  1.841971E+06  1.550806E+06  1.054406E+06  4.178064E+05  2.552221E+05
        76   8  4.955222E+06  1.621188E+06  1.173417E+06  1.059501E+06  1.107620E+05  3.547539E+05
        76   9  4.620777E+06  1.456981E+06  1.004583E+06  9.650228E+05 -1.393595E+05  3.068481E+05
        76  10 -5.436041E+06 -2.156621E+06 -1.265353E+06 -1.833888E+06 -8.867488E-09 -3.730247E-10
        76  11 -5.080772E+06 -2.065805E+06 -1.046220E+06 -1.696837E+06  1.445947E-09  4.357134E-09
        76  12 -4.652325E+06 -1.996986E+06 -9.357957E+05 -1.659553E+06  6.867758E-09  5.086410E-10
        76  13 -1.150471E+04 -1.581144E+05  1.437488E+05 -3.953909E+05  1.332029E-09  2.223384E-09
        76  14 -7.550523E+04 -2.233188E+05  6.425074E+04 -3.237617E+05 -2.184384E-09 -8.311691E-09
        76  15 -2.683982E+04 -2.710483E+05  3.486128E+04 -3.517999E+05 -1.704213E-10 -1.011544E-09
        76  16  5.441601E+06  1.841855E+06  1.550360E+06  1.054321E+06  9.499348E-09  2.684983E-09
        76  17  4.955175E+06  1.621050E+06  1.173158E+06  1.059469E+06  1.006244E-08  9.057064E-09
        76  18  4.620730E+06  1.456875E+06  1.004370E+06  9.650572E+05 -1.095883E-08 -3.650373E-09
        76  19 -5.435948E+06 -2.156597E+06 -1.265188E+06 -1.833883E+06  2.943681E+05  1.749818E+04
        76  20 -5.080713E+06 -2.065734E+06 -1.046038E+06 -1.696875E+06  2.017063E+05 -2.359205E+05
        76  21 -4.652291E+06 -1.996861E+06 -9.355725E+05 -1.659567E+06  5.173885E+04 -3.406669E+05
        76  22 -1.149708E+04 -1.580984E+05  1.437819E+05 -3.953852E+05 -6.000753E+04 -1.182547E+05
        76  23 -7.547958E+04 -2.232247E+05  6.441839E+04 -3.237727E+05  4.615574E+04 -2.950841E+05
        76  24 -2.680192E+04 -2.709332E+05  3.507542E+04 -3.518247E+05  9.537143E+04 -3.238255E+05
        76  25  5.441804E+06  1.841971E+06  1.550806E+06  1.054406E+06 -4.178064E+05 -2.552221E+05
        76  26  4.955222E+06  1.621188E+06  1.173417E+06  1.059501E+06 -1.107620E+05 -3.547539E+05
        76  27  4.620777E+06  1.456981E+06  1.004583E+06  9.650228E+05  1.393595E+05 -3.068481E+05
        77   1 -4.405633E+06 -1.884684E+06 -8.894335E+05 -1.579637E+06 -8.013930E+04  3.090888E+05
        77   2 -4.076084E+06 -1.708805E+06 -8.133330E+05 -1.431504E+06 -6.894515E+04  2.971828E+05
        77   3 -3.666733E+06 -1.607350E+06 -7.401671E+05 -1.369792E+06 -5.427613E+04  2.758521E+05
        77   4 -2.959960E+04 -2.669481E+05  2.679568E+04 -3.577575E+05 -9.257210E+04  3.041471E+05
        77   5 -7.029135E+04 -2.318598E+05  1.376622E+04 -3.139925E+05 -9.401948E+04  2.874982E+05
        77   6 -2.883813E+04 -2.686638E+05  7.836831E+03 -3.566626E+05 -9.200796E+04  2.614564E+05
        77   7  4.366133E+06  1.352450E+06  9.419887E+05  8.721179E+05 -1.051015E+05  2.991701E+05
        77   8  3.952030E+06  1.246483E+06  8.400249E+05  8.102125E+05 -1.192701E+05  2.777478E+05
        77   9  3.622675E+06  1.071166E+06  7.551543E+05  6.619720E+05 -1.299795E+05  2.469708E+05
        77  10 -4.405665E+06 -1.884788E+06 -8.896251E+05 -1.579617E+06 -1.133983E-08 -5.793268E-09
        77  11 -4.076113E+06 -1.708901E+06 -8.135079E+05 -1.431488E+06 -1.954085E-08 -4.510635E-09
        77  12 -3.666756E+06 -1.607433E+06 -7.403156E+05 -1.369780E+06 -1.059942E-08  2.059004E-09
        77  13 -2.963362E+04 -2.670497E+05  2.660575E+04 -3.577348E+05 -4.160689E-09 -4.540951E-09
        77  14 -7.032302E+04 -2.319509E+05  1.359430E+04 -3.139708E+05 -5.184575E-09 -1.328961E-08
        77  15 -2.886556E+04 -2.687394E+05  7.692476E+03 -3.566432E+05  4.672308E-09 -1.163823E-08
        77  16  4.366097E+06  1.352351E+06  9.417997E+05  8.721432E+05  3.972055E-09  1.147066E-09
        77  17  3.951994E+06  1.246396E+06  8.398532E+05  8.102391E+05  1.872164E-08  3.956823E-09
        77  18  3.622641E+06  1.071096E+06  7.550079E+05  6.619978E+05  1.960621E-08  9.079533E-09
        77  19 -4.405633E+06 -1.884684E+06 -8.894335E+05 -1.579637E+06  8.013930E+04 -3.090888E+05
        77  20 -4.076084E+06 -1.708805E+06 -8.133330E+05 -1.431504E+06  6.894515E+04 -2.971828E+05
        77  21 -3.666733E+06 -1.607350E+06 -7.401671E+05 -1.369792E+06  5.427613E+04 -2.758521E+05
        77  22 -2.959960E+04 -2.669481E+05  2.679568E+04 -3.577575E+05  9.257210E+04 -3.041471E+05
        77  23 -7.029135E+04 -2.318598E+05  1.376622E+04 -3.139925E+05  9.401948E+04 -2.874982E+05
        77  24 -2.883813E+04 -2.686638E+05  7.836831E+03 -3.566626E+05  9.200796E+04 -2.614564E+05
        77  25  4.366133E+06  1.352450E+06  9.419887E+05  8.721179E+05  1.051015E+05 -2.991701E+05
        77  26  3.952030E+06  1.246483E+06  8.400249E+05  8.102125E+05  1.192701E+05 -2.777478E+05
        77  27  3.622675E+06  1.071166E+06  7.551543E+05  6.619720E+05  1.299795E+05 -2.469708E+05
        78   1 -3.411478E+06 -1.510726E+06 -6.873230E+05 -1.297629E+06 -5.109167E+04  2.583607E+05
        78   2 -3.079943E+06 -1.333759E+06 -6.141058E+05 -1.149623E+06 -4.147137E+04  2.310963E+05
        78   3 -2.669480E+06 -1.233150E+06 -5.398677E+05 -1.088730E+06 -3.170508E+04  2.031935E+05
        78   4 -2.898222E+04 -2.681936E+05  5.807078E+03 -3.571959E+05 -8.690146E+04  2.447319E+05
        78   5 -6.791394E+04 -2.290787E+05  2.971062E+03 -3.138402E+05 -7.813509E+04  2.172056E+05
        78   6 -2.792636E+04 -2.661466E+05  1.809043E+03 -3.576288E+05 -6.922302E+04  1.890431E+05
        78   7  3.365342E+06  9.753423E+05  6.983635E+05  5.880008E+05 -1.229231E+05  2.310238E+05
        78   8  2.953480E+06  8.763872E+05  6.195920E+05  5.257066E+05 -1.149915E+05  2.032428E+05
        78   9  2.620815E+06  7.014507E+05  5.431331E+05  3.763545E+05 -1.069135E+05  1.748282E+05
        78  10 -3.411498E+06 -1.510798E+06 -6.874534E+05 -1.297618E+06  1.592386E-08  1.190414E-08
        78  11 -3.079959E+06 -1.333817E+06 -6.142094E+05 -1.149616E+06  2.267019E-08  1.329054E-08
        78  12 -2.669492E+06 -1.233194E+06 -5.399472E+05 -1.088725E+06  3.321633E-08  1.418947E-08
        78  13 -2.900639E+04 -2.682600E+05  5.680348E+03 -3.571788E+05  5.342750E-09 -1.352474E-08
        78  14 -6.793316E+04 -2.291310E+05  2.870944E+03 -3.138266E+05  7.811711E-09 -4.642528E-09
        78  15 -2.794109E+04 -2.661863E+05  1.732890E+03 -3.576182E+05  6.658659E-09  7.776746E-09
        78  16  3.365312E+06  9.752810E+05  6.982349E+05  5.880236E+05 -8.888916E-09 -2.583761E-09
        78  17  2.953455E+06  8.763393E+05  6.194895E+05  5.257254E+05 -2.703495E-08 -8.668632E-09
        78  18  2.620794E+06  7.014148E+05  5.430543E+05  3.763695E+05 -2.746666E-08 -1.030820E-08
        78  19 -3.411478E+06 -1.510726E+06 -6.873230E+05 -1.297629E+06  5.109167E+04 -2.583607E+05
        78  20 -3.079943E+06 -1.333759E+06 -6.141058E+05 -1.149623E+06  4.147137E+04 -2.310963E+05
        78  21 -2.669480E+06 -1.233150E+06 -5.398677E+05 -1.088730E+06  3.170508E+04 -2.031935E+05
        78  22 -2.898222E+04 -2.681936E+05  5.807078E+03 -3.571959E+05  8.690146E+04 -2.447319E+05
        78  23 -6.791394E+04 -2.290787E+05  2.971062E+03 -3.138402E+05  7.813509E+04 -2.172056E+05
        78  24 -2.792636E+04 -2.661466E+05  1.809043E+03 -3.576288E+05  6.922302E+04 -1.890431E+05
        78  25  3.365342E+06  9.753423E+05  6.983635E+05  5.880008E+05  1.229231E+05 -2.310238E+05
        78  26  2.953480E+06  8.763872E+05  6.195920E+05  5.257066E+05  1.149915E+05 -2.032428E+05
        78  27  2.620815E+06  7.014507E+05  5.431331E+05  3.763545E+05  1.069135E+05 -1.748282E+05
        79   1 -2.412560E+06 -1.137827E+06 -4.854144E+05 -1.017391E+06 -2.593680E+04  1.867893E+05
        79   2 -2.078584E+06 -9.620193E+05 -4.107800E+05 -8.698811E+05 -1.567070E+04  1.588129E+05
        79   3 -1.666864E+06 -8.627316E+05 -3.357396E+05 -8.101677E+05 -5.442678E+03  1.307677E+05
        79   4 -2.789188E+04 -2.658780E+05  1.297859E+03 -3.577881E+05 -6.336726E+04  1.727024E+05
        79   5 -6.634110E+04 -2.269000E+05  6.152085E+02 -3.140325E+05 -5.319187E+04  1.447327E+05
        79   6 -2.718865E+04 -2.644252E+05  3.966033E+02 -3.581139E+05 -4.305450E+04  1.166947E+05
        79   7  2.362619E+06  6.065486E+05  4.877220E+05  3.041566E+05 -1.009527E+05  1.585575E+05
        79   8  1.950072E+06  5.085621E+05  4.118097E+05  2.434838E+05 -9.084423E+04  1.306035E+05
        79   9  1.615266E+06  3.341115E+05  3.364041E+05  9.504768E+04 -8.077368E+04  1.025816E+05
        79  10 -2.412570E+06 -1.137865E+06 -4.854813E+05 -1.017387E+06 -3.492595E-08 -1.450625E-08
        79  11 -2.078591E+06 -9.620465E+05 -4.108279E+05 -8.698791E+05 -3.368960E-09 -8.431013E-09
        79  12 -1.666868E+06 -8.627500E+05 -3.357718E+05 -8.101672E+05  2.857535E-08  3.871901E-09
        79  13 -2.790419E+04 -2.659111E+05  1.234272E+03 -3.577793E+05  9.210395E-09  1.059980E-08
        79  14 -6.634976E+04 -2.269232E+05  5.705327E+02 -3.140263E+05  8.975537E-09  5.417042E-09
        79  15 -2.719429E+04 -2.644403E+05  3.675334E+02 -3.581098E+05  9.033475E-09  5.436120E-10
        79  16  2.362601E+06  6.065189E+05  4.876557E+05  3.041695E+05  4.857142E-08  1.778868E-08
        79  17  1.950059E+06  5.085416E+05  4.117622E+05  2.434933E+05  1.762118E-08  6.305001E-09
        79  18  1.615256E+06  3.340985E+05  3.363721E+05  9.505434E+04 -2.302661E-08 -7.121211E-09
        79  19 -2.412560E+06 -1.137827E+06 -4.854144E+05 -1.017391E+06  2.593680E+04 -1.867893E+05
        79  20 -2.078584E+06 -9.620193E+05 -4.107800E+05 -8.698811E+05  1.567070E+04 -1.588129E+05
        79  21 -1.666864E+06 -8.627316E+05 -3.357396E+05 -8.101677E+05  5.442678E+03 -1.307677E+05
        79  22 -2.789188E+04 -2.658780E+05  1.297859E+03 -3.577881E+05  6.336726E+04 -1.727024E+05
        79  23 -6.634110E+04 -2.269000E+05  6.152085E+02 -3.140325E+05  5.319187E+04 -1.447327E+05
        79  24 -2.718865E+04 -2.644252E+05  3.966033E+02 -3.581139E+05  4.305450E+04 -1.166947E+05
        79  25  2.362619E+06  6.065486E+05  4.877220E+05  3.041566E+05  1.009527E+05 -1.585575E+05
        79  26  1.950072E+06  5.085621E+05  4.118097E+05  2.434838E+05  9.084423E+04 -1.306035E+05
        79  27  1.615266E+06  3.341115E+05  3.364041E+05  9.504768E+04  8.077368E+04 -1.025816E+05
        80   1 -1.408889E+06 -7.679009E+05 -2.808884E+05 -7.391523E+05  6.041191E+02  1.144666E+05
        80   2 -1.073363E+06 -5.929342E+05 -2.058091E+05 -5.918709E+05  1.106286E+04  8.650155E+04
        80   3 -6.608102E+05 -4.945544E+05 -1.306738E+05 -5.327851E+05  2.149021E+04  5.853418E+04
        80   4 -2.715521E+04 -2.642648E+05  2.317922E+02 -3.581973E+05 -3.702854E+04  1.004042E+05
        80   5 -6.541336E+04 -2.256049E+05 -2.424448E+00 -3.141565E+05 -2.657706E+04  7.245675E+04
        80   6 -2.679868E+04 -2.635365E+05 -1.825057E+02 -3.583584E+05 -1.615709E+04  4.450738E+04
        80   7  1.356546E+06  2.395326E+05  2.812616E+05  2.354230E+04 -7.475135E+04  8.630813E+04
        80   8  9.435793E+05  1.418087E+05  2.057575E+05 -3.602604E+04 -6.428257E+04  5.838747E+04
        80   9  6.076230E+05 -3.248631E+04  1.302926E+05 -1.837680E+05 -5.384545E+04  3.046527E+04
        80  10 -1.408893E+06 -7.679150E+05 -2.809130E+05 -7.391524E+05 -5.058386E-09 -5.629283E-09
        80  11 -1.073365E+06 -5.929423E+05 -2.058235E+05 -5.918716E+05  4.623848E-09  3.400161E-11
        80  12 -6.608116E+05 -4.945582E+05 -1.306812E+05 -5.327861E+05  9.926183E-09  1.042389E-08
        80  13 -2.715939E+04 -2.642760E+05  2.102742E+02 -3.581943E+05  4.368691E-09 -1.765733E-09
        80  14 -6.541553E+04 -2.256107E+05 -1.361609E+01 -3.141549E+05 -4.043945E-09 -4.540677E-09
        80  15 -2.679949E+04 -2.635387E+05 -1.867182E+02 -3.583578E+05  2.969070E-09 -3.192476E-09
        80  16  1.356538E+06  2.395231E+05  2.812371E+05  2.354749E+04  4.297263E-09  3.984851E-09
        80  17  9.435739E+05  1.418039E+05  2.057433E+05 -3.602302E+04 -1.756778E-09  9.391264E-10
        80  18  6.076197E+05 -3.248809E+04  1.302854E+05 -1.837667E+05 -6.402985E-09 -1.517886E-09
        80  19 -1.408889E+06 -7.679009E+05 -2.808884E+05 -7.391523E+05 -6.041191E+02 -1.144666E+05
        80  20 -1.073363E+06 -5.929342E+05 -2.058091E+05 -5.918709E+05 -1.106286E+04 -8.650155E+04
        80  21 -6.608102E+05 -4.945544E+05 -1.306738E+05 -5.327851E+05 -2.149021E+04 -5.853418E+04
        80  22 -2.715521E+04 -2.642648E+05  2.317922E+02 -3.581973E+05  3.702854E+04 -1.004042E+05
        80  23 -6.541336E+04 -2.256049E+05 -2.424448E+00 -3.141565E+05  2.657706E+04 -7.245675E+04
        80  24 -2.679868E+04 -2.635365E+05 -1.825057E+02 -3.583584E+05  1.615709E+04 -4.450738E+04
        80  25  1.356546E+06  2.395326E+05  2.812616E+05  2.354230E+04  7.475135E+04 -8.630813E+04
        80  26  9.435793E+05  1.418087E+05  2.057575E+05 -3.602604E+04  6.428257E+04 -5.838747E+04
        80  27  6.076230E+05 -3.248631E+04  1.302926E+05 -1.837680E+05  5.384545E+04 -3.046527E+04
        81   1 -4.021829E+05 -3.999895E+05 -7.578906E+04 -4.618483E+05  2.766710E+04  4.227942E+04
        81   2 -6.598311E+04 -2.255122E+05 -7.874656E+02 -3.145116E+05  3.807752E+04  1.443412E+04
        81   3  3.470014E+05 -1.276085E+05  7.419697E+04 -2.554907E+05  4.838768E+04 -1.314347E+04
        81   4 -2.680502E+04 -2.634813E+05 -3.365847E+02 -3.583912E+05 -1.005009E+04  2.823275E+04
        81   5 -6.508558E+04 -2.251601E+05 -7.534702E+02 -3.141995E+05  7.093790E+02  5.171642E+02
        81   6 -2.680552E+04 -2.634993E+05 -1.469379E+03 -3.583838E+05  1.136843E+04 -2.693030E+04
        81   7  3.487242E+05 -1.269589E+05  7.511594E+04 -2.548747E+05 -4.779206E+04  1.417683E+04
        81   8 -6.418494E+04 -2.248067E+05 -7.134948E+02 -3.138866E+05 -3.665897E+04 -1.339988E+04
        81   9 -4.004659E+05 -3.993773E+05 -7.713686E+04 -4.612189E+05 -2.562691E+04 -4.070823E+04
        81  10 -4.021842E+05 -3.999916E+05 -7.579387E+04 -4.618493E+05  1.125938E-08  1.100832E-08
        81  11 -6.598472E+04 -2.255128E+05 -7.905832E+02 -3.145120E+05  6.670238E-11  2.443794E-09
        81  12  3.469988E+05 -1.276093E+05  7.419225E+04 -2.554902E+05 -8.033883E-09 -5.057076E-09
        81  13 -2.680534E+04 -2.634822E+05 -3.382722E+02 -3.583910E+05  1.586902E-09 -3.041012E-09
        81  14 -6.508558E+04 -2.251601E+05 -7.534717E+02 -3.141995E+05  1.403926E-09  7.319063E-10
        81  15 -2.680586E+04 -2.635001E+05 -1.470985E+03 -3.583836E+05 -1.833559E-09 -3.349065E-09
        81  16  3.487217E+05 -1.269597E+05  7.511127E+04 -2.548741E+05 -8.019002E-09  6.088059E-10
        81  17 -6.418644E+04 -2.248073E+05 -7.163589E+02 -3.138870E+05  4.786011E-09  2.873788E-09
        81  18 -4.004671E+05 -3.993793E+05 -7.714122E+04 -4.612198E+05  1.281658E-08  6.351967E-09
        81  19 -4.021829E+05 -3.999895E+05 -7.578906E+04 -4.618483E+05 -2.766710E+04 -4.227942E+04
        81  20 -6.598311E+04 -2.255122E+05 -7.874656E+02 -3.145116E+05 -3.807752E+04 -1.443412E+04
        81  21  3.470014E+05 -1.276085E+05  7.419697E+04 -2.554907E+05 -4.838768E+04  1.314347E+04
        81  22 -2.680502E+04 -2.634813E+05 -3.365847E+02 -3.583912E+05  1.005009E+04 -2.823275E+04
        81  23 -6.508558E+04 -2.251601E+05 -7.534702E+02 -3.141995E+05 -7.093790E+02 -5.171642E+02
        81  24 -2.680552E+04 -2.634993E+05 -1.469379E+03 -3.583838E+05 -1.136843E+04  2.693030E+04
        81  25  3.487242E+05 -1.269589E+05  7.511594E+04 -2.548747E+05  4.779206E+04 -1.417683E+04
        81  26 -6.418494E+04 -2.248067E+05 -7.134948E+02 -3.138866E+05  3.665897E+04  1.339988E+04
        81  27 -4.004659E+05 -3.993773E+05 -7.713686E+04 -4.612189E+05  2.562691E+04  4.070823E+04
        82   1  6.060202E+05 -3.310343E+04  1.287049E+05 -1.844790E+05  5.565385E+04 -2.904099E+04
        82   2  9.416631E+05  1.414000E+05  2.040694E+05 -3.673225E+04  6.146953E+04 -5.644950E+04
        82   3  1.354648E+06  2.397013E+05  2.823785E+05  2.320598E+04  6.571365E+04 -7.958444E+04
        82   4 -2.694625E+04 -2.634652E+05 -1.975144E+03 -3.583681E+05  1.772742E+04 -4.317171E+04
        82   5 -6.523198E+04 -2.256986E+05 -3.727428E+03 -3.141444E+05  2.929533E+04 -6.845600E+04
        82   6 -2.745010E+04 -2.652926E+05 -7.083706E+03 -3.577952E+05  3.929265E+04 -8.946177E+04
        82   7 -6.594947E+05 -4.937914E+05 -1.326688E+05 -5.320920E+05 -2.015717E+04 -5.728687E+04
        82   8 -1.071088E+06 -5.927129E+05 -2.115730E+05 -5.911418E+05 -2.822826E+03 -8.044157E+04
        82   9 -1.407609E+06 -7.701344E+05 -2.966498E+05 -7.380193E+05  1.293467E+04 -9.931554E+04
        82  10  6.060167E+05 -3.310517E+04  1.286975E+05 -1.844777E+05  1.890633E-09 -2.085371E-09
        82  11  9.416582E+05  1.413955E+05  2.040564E+05 -3.672946E+04  6.883805E-09  2.814266E-09
        82  12  1.354641E+06  2.396933E+05  2.823585E+05  2.321019E+04  1.216907E-08  8.378746E-10
        82  13 -2.694709E+04 -2.634673E+05 -1.979236E+03 -3.583675E+05  2.169563E-09 -1.489009E-09
        82  14 -6.523416E+04 -2.257038E+05 -3.737845E+03 -3.141428E+05  3.150601E-09  2.242181E-09
        82  15 -2.745390E+04 -2.653016E+05 -7.101644E+03 -3.577924E+05  3.536569E-09  9.177999E-11
        82  16 -6.594960E+05 -4.937950E+05 -1.326757E+05 -5.320929E+05  2.986023E-09  2.971087E-09
        82  17 -1.071089E+06 -5.927198E+05 -2.115852E+05 -5.911420E+05  2.428811E-09  1.671462E-09
        82  18 -1.407612E+06 -7.701451E+05 -2.966687E+05 -7.380182E+05 -6.785938E-09 -8.121582E-10
        82  19  6.060202E+05 -3.310343E+04  1.287049E+05 -1.844790E+05 -5.565385E+04  2.904099E+04
        82  20  9.416631E+05  1.414000E+05  2.040694E+05 -3.673225E+04 -6.146953E+04  5.644950E+04
        82  21  1.354648E+06  2.397013E+05  2.823785E+05  2.320598E+04 -6.571365E+04  7.958444E+04
        82  22 -2.694625E+04 -2.634652E+05 -1.975144E+03 -3.583681E+05 -1.772742E+04  4.317171E+04
        82  23 -6.523198E+04 -2.256986E+05 -3.727428E+03 -3.141444E+05 -2.929533E+04  6.845600E+04
        82  24 -2.745010E+04 -2.652926E+05 -7.083706E+03 -3.577952E+05 -3.929265E+04  8.946177E+04
        82  25 -6.594947E+05 -4.937914E+05 -1.326688E+05 -5.320920E+05  2.015717E+04  5.728687E+04
        82  26 -1.071088E+06 -5.927129E+05 -2.115730E+05 -5.911418E+05  2.822826E+03  8.044157E+04
        82  27 -1.407609E+06 -7.701344E+05 -2.966498E+05 -7.380193E+05 -1.293467E+04  9.931554E+04
        83   1  1.616782E+06  3.345638E+05  3.350824E+05  9.241663E+04  8.754191E+04 -9.099049E+04
        83   2  1.941800E+06  5.137035E+05  4.316208E+05  2.459087E+05  3.974380E+03 -1.180344E+05
        83   3  2.350205E+06  6.160248E+05  5.879172E+05  3.204589E+05 -1.050100E+05 -7.749774E+04
        83   4 -2.924762E+04 -2.636003E+05 -9.212076E+03 -3.579926E+05  4.675932E+04 -1.062441E+05
        83   5 -6.421433E+04 -2.312267E+05 -1.737277E+04 -3.129537E+05  5.462583E+04 -9.912835E+04
        83   6 -3.399431E+04 -2.937975E+05 -3.807894E+04 -3.469270E+05  3.709106E+04 -2.429813E+04
        83   7 -1.672520E+06 -8.615531E+05 -3.536486E+05 -8.073088E+05  6.092752E+03 -1.214549E+05
        83   8 -2.066152E+06 -9.758190E+05 -4.666033E+05 -8.701504E+05  1.051000E+05 -8.029020E+04
        83   9 -2.412584E+06 -1.203172E+06 -6.644539E+05 -1.011954E+06  1.785913E+05  2.866639E+04
        83  10  1.616771E+06  3.345529E+05  3.350525E+05  9.242304E+04  6.740168E-09 -2.295709E-09
        83  11  1.941796E+06  5.136885E+05  4.315946E+05  2.459090E+05  2.430610E-10 -2.021528E-09
        83  12  2.350192E+06  6.160154E+05  5.878853E+05  3.204524E+05 -3.601454E-09 -1.481072E-09
        83  13 -2.925300E+04 -2.636130E+05 -9.237391E+03 -3.579886E+05 -4.073828E-09 -3.047843E-10
        83  14 -6.422016E+04 -2.312381E+05 -1.739684E+04 -3.129494E+05 -4.612264E-09 -1.305143E-09
        83  15 -3.399594E+04 -2.937985E+05 -3.808263E+04 -3.469262E+05 -1.139720E-09 -6.901274E-10
        83  16 -1.672524E+06 -8.615689E+05 -3.536764E+05 -8.073082E+05 -5.288960E-09 -1.004925E-09
        83  17 -2.066165E+06 -9.758289E+05 -4.666362E+05 -8.701436E+05 -2.755647E-09 -1.660575E-09
        83  18 -2.412619E+06 -1.203182E+06 -6.645156E+05 -1.011958E+06  2.778412E-09 -3.828748E-10
        83  19  1.616782E+06  3.345638E+05  3.350824E+05  9.241663E+04 -8.754191E+04  9.099049E+04
        83  20  1.941800E+06  5.137035E+05  4.316208E+05  2.459087E+05 -3.974380E+03  1.180344E+05
        83  21  2.350205E+06  6.160248E+05  5.879172E+05  3.204589E+05  1.050100E+05  7.749774E+04
        83  22 -2.924762E+04 -2.636003E+05 -9.212076E+03 -3.579926E+05 -4.675932E+04  1.062441E+05
        83  23 -6.421433E+04 -2.312267E+05 -1.737277E+04 -3.129537E+05 -5.462583E+04  9.912835E+04
        83  24 -3.399431E+04 -2.937975E+05 -3.807894E+04 -3.469270E+05 -3.709106E+04  2.429813E+04
        83  25 -1.672520E+06 -8.615531E+05 -3.536486E+05 -8.073088E+05 -6.092752E+03  1.214549E+05
        83  26 -2.066152E+06 -9.758190E+05 -4.666033E+05 -8.701504E+05 -1.051000E+05  8.029020E+04
        83  27 -2.412584E+06 -1.203172E+06 -6.644539E+05 -1.011954E+06 -1.785913E+05 -2.866639E+04
        84   1 -1.853380E+05 -9.624126E+04 -8.538073E+04 -6.836366E+04 -1.915229E+04  6.682337E+03
        84   2 -1.153325E+05 -1.005188E+05 -6.522141E+04 -7.691048E+04 -3.291759E+03  2.226369E+04
        84   3 -4.422574E+04 -9.223733E+04 -5.224853E+04 -9.584855E+04  1.257545E+04  2.637855E+04
        84   4  3.791996E+05  4.277385E+04  4.528841E+04 -9.747804E+04  3.200038E+04  6.691485E+03
        84   5  3.762805E+05  1.540477E+04  2.287563E+04 -9.228115E+04  2.034591E+04  2.226485E+04
        84   6  3.792295E+05  5.364213E+03  1.237980E+04 -9.747403E+04  8.696073E+03  2.637661E+04
        84   7  9.440392E+05  1.817712E+05  1.759465E+05 -1.266191E+05  8.319923E+04  6.695833E+03
        84   8  8.681308E+05  1.313161E+05  1.109656E+05 -1.076643E+05  4.400176E+04  2.226484E+04
        84   9  8.028642E+05  1.029571E+05  7.700433E+04 -9.910065E+04  4.814147E+03  2.637469E+04
        84  10 -1.853384E+05 -9.624140E+04 -8.538150E+04 -6.836356E+04  1.748033E-09  3.144215E-10
        84  11 -1.153326E+05 -1.005193E+05 -6.522236E+04 -7.691042E+04  1.159857E-09  3.539952E-10
        84  12 -4.422610E+04 -9.223812E+04 -5.225013E+04 -9.584882E+04  1.798963E-09 -1.188347E-09
        84  13  3.791985E+05  4.277353E+04  4.528640E+04 -9.747821E+04  1.416020E-10  1.691413E-10
        84  14  3.762800E+05  1.540413E+04  2.287392E+04 -9.228151E+04  2.323439E-09 -2.731943E-10
        84  15  3.792292E+05  5.363445E+03  1.237835E+04 -9.747422E+04  5.781536E-09 -1.018741E-09
        84  16  9.440317E+05  1.817693E+05  1.759335E+05 -1.266195E+05  1.888073E-09 -1.242266E-10
        84  17  8.681286E+05  1.313150E+05  1.109611E+05 -1.076651E+05 -4.356168E-09 -8.194497E-10
        84  18  8.028640E+05  1.029564E+05  7.700298E+04 -9.910075E+04  9.656996E-10 -4.361520E-10
        84  19 -1.853380E+05 -9.624126E+04 -8.538073E+04 -6.836366E+04  1.915229E+04 -6.682337E+03
        84  20 -1.153325E+05 -1.005188E+05 -6.522141E+04 -7.691048E+04  3.291759E+03 -2.226369E+04
        84  21 -4.422574E+04 -9.223733E+04 -5.224853E+04 -9.584855E+04 -1.257545E+04 -2.637855E+04
        84  22  3.791996E+05  4.277385E+04  4.528841E+04 -9.747804E+04 -3.200038E+04 -6.691485E+03
        84  23  3.762805E+05  1.540477E+04  2.287563E+04 -9.228115E+04 -2.034591E+04 -2.226485E+04
        84  24  3.792295E+05  5.364213E+03  1.237980E+04 -9.747403E+04 -8.696073E+03 -2.637661E+04
        84  25  9.440392E+05  1.817712E+05  1.759465E+05 -1.266191E+05 -8.319923E+04 -6.695833E+03
        84  26  8.681308E+05  1.313161E+05  1.109656E+05 -1.076643E+05 -4.400176E+04 -2.226484E+04
        84  27  8.028642E+05  1.029571E+05  7.700433E+04 -9.910065E+04 -4.814147E+03 -2.637469E+04
        85   1 -1.088957E+03 -8.310077E+04 -4.663082E+04 -9.537048E+04  1.187768E+04  2.490623E+04
        85   2  6.929540E+04 -6.891043E+04 -3.752572E+04 -9.092596E+04  1.310419E+04  2.213293E+04
        85   3  1.398117E+05 -5.361516E+04 -2.893995E+04 -9.772018E+04  1.433047E+04  1.780994E+04
        85   4  3.781033E+05  3.894579E+03  9.231332E+03 -9.766339E+04  7.084697E+03  2.490462E+04
        85   5  3.777251E+05  1.261292E+03  4.978829E+03 -9.204431E+04  4.590376E+03  2.213198E+04
        85   6  3.781191E+05  3.784526E+02  2.789512E+03 -9.766347E+04  2.095701E+03  1.781005E+04
        85   7  7.574403E+05  9.088326E+04  6.509100E+04 -9.995775E+04  2.288903E+03  2.490306E+04
        85   8  6.862515E+05  7.142888E+04  4.748257E+04 -9.316325E+04 -3.927477E+03  2.213106E+04
        85   9  6.164847E+05  5.436973E+04  3.451908E+04 -9.760673E+04 -1.014354E+04  1.781016E+04
        85  10 -1.089275E+03 -8.310147E+04 -4.663225E+04 -9.537072E+04  1.624686E-09 -1.268410E-09
        85  11  6.929509E+04 -6.891100E+04 -3.752696E+04 -9.092619E+04  2.211993E-09 -4.281295E-10
        85  12  1.398114E+05 -5.361556E+04 -2.894093E+04 -9.772039E+04  1.820065E-09 -1.383016E-09
        85  13  3.781031E+05  3.893899E+03  9.230072E+03 -9.766353E+04  2.298874E-09 -5.881953E-10
        85  14  3.777249E+05  1.260760E+03  4.977869E+03 -9.204440E+04  2.376298E-09  1.013358E-11
        85  15  3.781190E+05  3.781107E+02  2.788908E+03 -9.766350E+04  3.363619E-09 -1.001821E-10
        85  16  7.574402E+05  9.088259E+04  6.508983E+04 -9.995780E+04  6.006153E-09 -1.809831E-10
        85  17  6.862514E+05  7.142835E+04  4.748163E+04 -9.316318E+04  1.064099E-09  3.438949E-10
        85  18  6.164845E+05  5.436936E+04  3.451829E+04 -9.760658E+04  4.094929E-10  1.195569E-09
        85  19 -1.088957E+03 -8.310077E+04 -4.663082E+04 -9.537048E+04 -1.187768E+04 -2.490623E+04
        85  20  6.929540E+04 -6.891043E+04 -3.752572E+04 -9.092596E+04 -1.310419E+04 -2.213293E+04
        85  21  1.398117E+05 -5.361516E+04 -2.893995E+04 -9.772018E+04 -1.433047E+04 -1.780994E+04
        85  22  3.781033E+05  3.894579E+03  9.231332E+03 -9.766339E+04 -7.084697E+03 -2.490462E+04
        85  23  3.777251E+05  1.261292E+03  4.978829E+03 -9.204431E+04 -4.590376E+03 -2.213198E+04
        85  24  3.781191E+05  3.784526E+02  2.789512E+03 -9.766347E+04 -2.095701E+03 -1.781005E+04
        85  25  7.574403E+05  9.088326E+04  6.509100E+04 -9.995775E+04 -2.288903E+03 -2.490306E+04
        85  26  6.862515E+05  7.142888E+04  4.748257E+04 -9.316325E+04  3.927477E+03 -2.213106E+04
        85  27  6.164847E+05  5.436973E+04  3.451908E+04 -9.760673E+04  1.014354E+04 -1.781016E+04
        86   1  1.832122E+05 -4.379338E+04 -2.349200E+04 -9.763148E+04  1.404326E+04  1.477172E+04
        86   2  2.536215E+05 -2.803761E+04 -1.501230E+04 -9.201547E+04  1.396119E+04  9.519369E+03
        86   3  3.240693E+05 -1.220246E+04 -6.458264E+03 -9.775017E+04  1.387879E+04  4.058426E+03
        86   4  3.779780E+05  2.660941E+02  2.100900E+03 -9.768847E+04  1.685347E+03  1.477227E+04
        86   5  3.779203E+05  5.069085E+01  1.174761E+03 -9.201321E+04  1.101745E+03  9.520390E+03
        86   6  3.779842E+05  2.034023E+00  6.708843E+02 -9.768851E+04  5.178337E+02  4.059935E+03
        86   7  5.727829E+05  4.432405E+04  2.769412E+04 -9.774548E+04 -1.067626E+04  1.477281E+04
        86   8  5.022354E+05  2.813843E+04  1.736235E+04 -9.201095E+04 -1.176015E+04  9.521411E+03
        86   9  4.319023E+05  1.220650E+04  7.800682E+03 -9.762685E+04 -1.284423E+04  4.061441E+03
        86  10  1.832119E+05 -4.379367E+04 -2.349278E+04 -9.763164E+04 -5.378619E-09 -7.332576E-10
        86  11  2.536212E+05 -2.803776E+04 -1.501284E+04 -9.201558E+04 -1.024495E-09  1.043786E-09
        86  12  3.240691E+05 -1.220253E+04 -6.458657E+03 -9.775021E+04  3.497033E-09 -1.068317E-09
        86  13  3.779779E+05  2.658590E+02  2.100485E+03 -9.768849E+04 -1.533399E-10  2.310555E-10
        86  14  3.779203E+05  5.059317E+01  1.174588E+03 -9.201322E+04 -3.227473E-09  4.410395E-10
        86  15  3.779842E+05  2.016248E+00  6.708528E+02 -9.768851E+04  3.237807E-09 -1.207655E-09
        86  16  5.727827E+05  4.432379E+04  2.769349E+04 -9.774536E+04  4.103823E-09  1.167089E-09
        86  17  5.022352E+05  2.813830E+04  1.736192E+04 -9.201086E+04 -1.073762E-09 -1.180206E-10
        86  18  4.319021E+05  1.220644E+04  7.800341E+03 -9.762680E+04 -5.534308E-09 -1.499450E-09
        86  19  1.832122E+05 -4.379338E+04 -2.349200E+04 -9.763148E+04 -1.404326E+04 -1.477172E+04
        86  20  2.536215E+05 -2.803761E+04 -1.501230E+04 -9.201547E+04 -1.396119E+04 -9.519369E+03
        86  21  3.240693E+05 -1.220246E+04 -6.458264E+03 -9.775017E+04 -1.387879E+04 -4.058426E+03
        86  22  3.779780E+05  2.660941E+02  2.100900E+03 -9.768847E+04 -1.685347E+03 -1.477227E+04
        86  23  3.779203E+05  5.069085E+01  1.174761E+03 -9.201321E+04 -1.101745E+03 -9.520390E+03
        86  24  3.779842E+05  2.034023E+00  6.708843E+02 -9.768851E+04 -5.178337E+02 -4.059935E+03
        86  25  5.727829E+05  4.432405E+04  2.769412E+04 -9.774548E+04  1.067626E+04 -1.477281E+04
        86  26  5.022354E+05  2.813843E+04  1.736235E+04 -9.201095E+04  1.176015E+04 -9.521411E+03
        86  27  4.319023E+05  1.220650E+04  7.800682E+03 -9.762685E+04  1.284423E+04 -4.061441E+03
        87   1  3.674966E+05 -2.362134E+03 -8.387352E+02 -9.773325E+04  1.379078E+04  8.098943E+02
        87   2  4.379189E+05  1.348168E+04  7.821090E+03 -9.204166E+04  1.370195E+04 -4.772712E+03
        87   3  5.083628E+05  2.932894E+04  1.654076E+04 -9.771562E+04  1.361329E+04 -1.037797E+04
        87   4  3.779632E+05 -2.141988E-01  5.084840E+02 -9.769186E+04  4.132535E+02  8.114722E+02
        87   5  3.779494E+05 -1.258896E+01  2.906000E+02 -9.200906E+04  2.691788E+02 -4.771342E+03
        87   6  3.779603E+05 -1.214818E+01  1.700616E+02 -9.769186E+04  1.252794E+02 -1.037682E+04
        87   7  3.884303E+05  2.361797E+03  1.856375E+03 -9.765046E+04 -1.296449E+04  8.130482E+02
        87   8  3.179839E+05 -1.350691E+04 -7.239221E+03 -9.197645E+04 -1.316236E+04 -4.769972E+03
        87   9  2.475757E+05 -2.935383E+04 -1.620000E+04 -9.766811E+04 -1.336004E+04 -1.037567E+04
        87  10  3.674964E+05 -2.362185E+03 -8.390936E+02 -9.773326E+04  2.762594E-09 -2.542351E-09
        87  11  4.379187E+05  1.348161E+04  7.820694E+03 -9.204161E+04  3.407354E-09 -2.532851E-09
        87  12  5.083626E+05  2.932878E+04  1.654021E+04 -9.771551E+04  4.423499E-09 -1.807963E-09
        87  13  3.779632E+05 -2.149519E-01  5.084825E+02 -9.769186E+04  2.171333E-09 -2.086200E-09
        87  14  3.779494E+05 -1.261343E+01  2.905570E+02 -9.200906E+04 -5.712386E-11 -1.850223E-09
        87  15  3.779603E+05 -1.226384E+01  1.698592E+02 -9.769186E+04 -9.171387E-10 -1.824983E-09
        87  16  3.884301E+05  2.361751E+03  1.856058E+03 -9.765045E+04  1.649069E-09 -1.622061E-09
        87  17  3.179837E+05 -1.350698E+04 -7.239590E+03 -9.197650E+04 -1.437614E-09 -1.171484E-09
        87  18  2.475755E+05 -2.935400E+04 -1.620053E+04 -9.766822E+04 -7.111635E-10 -1.751784E-09
        87  19  3.674966E+05 -2.362134E+03 -8.387352E+02 -9.773325E+04 -1.379078E+04 -8.098943E+02
        87  20  4.379189E+05  1.348168E+04  7.821090E+03 -9.204166E+04 -1.370195E+04  4.772712E+03
        87  21  5.083628E+05  2.932894E+04  1.654076E+04 -9.771562E+04 -1.361329E+04  1.037797E+04
        87  22  3.779632E+05 -2.141988E-01  5.084840E+02 -9.769186E+04 -4.132535E+02 -8.114722E+02
        87  23  3.779494E+05 -1.258896E+01  2.906000E+02 -9.200906E+04 -2.691788E+02  4.771342E+03
        87  24  3.779603E+05 -1.214818E+01  1.700616E+02 -9.769186E+04 -1.252794E+02  1.037682E+04
        87  25  3.884303E+05  2.361797E+03  1.856375E+03 -9.765046E+04  1.296449E+04 -8.130482E+02
        87  26  3.179839E+05 -1.350691E+04 -7.239221E+03 -9.197645E+04  1.316236E+04  4.769972E+03
        87  27  2.475757E+05 -2.935383E+04 -1.620000E+04 -9.766811E+04  1.336004E+04  1.037567E+04
        88   1  5.518056E+05  3.915973E+04  2.224604E+04 -9.771123E+04  1.358588E+04 -1.364913E+04
        88   2  6.222455E+05  5.500125E+04  3.105069E+04 -9.201524E+04  1.345397E+04 -1.924563E+04
        88   3  6.927189E+05  7.085833E+04  3.994721E+04 -9.768612E+04  1.332274E+04 -2.480352E+04
        88   4  3.779551E+05 -1.432305E+01  1.314953E+02 -9.769220E+04  9.786882E+01 -1.364830E+04
        88   5  3.779430E+05 -2.453423E+01  8.062387E+01 -9.200864E+04  5.795234E+01 -1.924570E+04
        88   6  3.779433E+05 -3.506264E+01  5.729356E+01 -9.769220E+04  1.873559E+01 -2.480448E+04
        88   7  2.041360E+05 -3.918952E+04 -2.198248E+04 -9.767318E+04 -1.338655E+04 -1.364748E+04
        88   8  1.337021E+05 -5.505266E+04 -3.088898E+04 -9.200204E+04 -1.333305E+04 -1.924576E+04
        88   9  6.326968E+04 -7.093240E+04 -3.983230E+04 -9.769828E+04 -1.327886E+04 -2.480545E+04
        88  10  5.518054E+05  3.915948E+04  2.224534E+04 -9.771108E+04  2.303455E-09 -6.172123E-10
        88  11  6.222452E+05  5.500080E+04  3.104966E+04 -9.201503E+04  5.252413E-09  1.130496E-09
        88  12  6.927185E+05  7.085762E+04  3.994572E+04 -9.768585E+04  2.776670E-09  1.153962E-09
        88  13  3.779551E+05 -1.452312E+01  1.311452E+02 -9.769220E+04  4.590215E-09 -9.150457E-10
        88  14  3.779429E+05 -2.493204E+01  7.992769E+01 -9.200864E+04  4.595128E-09  1.288593E-09
        88  15  3.779431E+05 -3.572345E+01  5.613715E+01 -9.769220E+04 -4.787543E-09  1.840043E-09
        88  16  2.041357E+05 -3.918977E+04 -2.198316E+04 -9.767333E+04  2.935165E-09 -1.146327E-09
        88  17  1.337018E+05 -5.505310E+04 -3.089001E+04 -9.200225E+04 -4.188523E-09  1.325416E-09
        88  18  6.326933E+04 -7.093311E+04 -3.983379E+04 -9.769854E+04 -4.500861E-09  2.470812E-09
        88  19  5.518056E+05  3.915973E+04  2.224604E+04 -9.771123E+04 -1.358588E+04  1.364913E+04
        88  20  6.222455E+05  5.500125E+04  3.105069E+04 -9.201524E+04 -1.345397E+04  1.924563E+04
        88  21  6.927189E+05  7.085833E+04  3.994721E+04 -9.768612E+04 -1.332274E+04  2.480352E+04
        88  22  3.779551E+05 -1.432305E+01  1.314953E+02 -9.769220E+04 -9.786882E+01  1.364830E+04
        88  23  3.779430E+05 -2.453423E+01  8.062387E+01 -9.200864E+04 -5.795234E+01  1.924570E+04
        88  24  3.779433E+05 -3.506264E+01  5.729356E+01 -9.769220E+04 -1.873559E+01  2.480448E+04
        88  25  2.041360E+05 -3.918952E+04 -2.198248E+04 -9.767318E+04  1.338655E+04  1.364748E+04
        88  26  1.337021E+05 -5.505266E+04 -3.088898E+04 -9.200204E+04  1.333305E+04  1.924576E+04
        88  27  6.326968E+04 -7.093240E+04 -3.983230E+04 -9.769828E+04  1.327886E+04  2.480545E+04
        89   1  7.362040E+05  8.070291E+04  4.575480E+04 -9.767309E+04  1.329017E+04 -2.803566E+04
        89   2  8.066236E+05  9.659977E+04  5.495774E+04 -9.197318E+04  1.250374E+04 -3.340530E+04
        89   3  8.772007E+05  1.126315E+05  6.471070E+04 -9.762280E+04  1.171833E+04 -3.845795E+04
        89   4  3.779398E+05 -4.326123E+01  5.263664E+01 -9.768839E+04  9.166848E+00 -2.803733E+04
        89   5  3.779188E+05 -6.219783E+01  5.271091E+01 -9.201340E+04 -1.625462E+01 -3.340845E+04
        89   6  3.779191E+05 -7.782383E+01  7.471293E+01 -9.768839E+04 -4.057628E+01 -3.846247E+04
        89   7  1.980756E+04 -8.079461E+04 -4.564938E+04 -9.770368E+04 -1.326455E+04 -2.803901E+04
        89   8 -5.059753E+04 -9.673165E+04 -5.485254E+04 -9.205359E+04 -1.252803E+04 -3.341160E+04
        89   9 -1.211073E+05 -1.127975E+05 -6.456210E+04 -9.775392E+04 -1.179050E+04 -3.846699E+04
        89  10  7.362036E+05  8.070202E+04  4.575299E+04 -9.767279E+04  1.581186E-09  7.087806E-10
        89  11  8.066232E+05  9.659853E+04  5.495535E+04 -9.197285E+04  3.688390E-08 -7.826730E-10
        89  12  8.772001E+05  1.126299E+05  6.470766E+04 -9.762243E+04  6.985330E-08 -2.122350E-09
        89  13  3.779396E+05 -4.410551E+01  5.115916E+01 -9.768839E+04  4.303770E-09  3.501765E-09
        89  14  3.779185E+05 -6.339657E+01  5.061313E+01 -9.201340E+04 -2.261636E-09  9.206514E-09
        89  15  3.779187E+05 -7.941269E+01  7.193243E+01 -9.768839E+04 -1.387019E-09  1.452262E-08
        89  16  1.980716E+04 -8.079550E+04 -4.565119E+04 -9.770398E+04  1.799740E-09  1.827971E-09
        89  17 -5.059800E+04 -9.673289E+04 -5.485493E+04 -9.205392E+04 -3.718994E-08 -6.710839E-10
        89  18 -1.211078E+05 -1.127991E+05 -6.456514E+04 -9.775429E+04 -6.610137E-08 -3.529051E-09
        89  19  7.362040E+05  8.070291E+04  4.575480E+04 -9.767309E+04 -1.329017E+04  2.803566E+04
        89  20  8.066236E+05  9.659977E+04  5.495774E+04 -9.197318E+04 -1.250374E+04  3.340530E+04
        89  21  8.772007E+05  1.126315E+05  6.471070E+04 -9.762280E+04 -1.171833E+04  3.845795E+04
        89  22  3.779398E+05 -4.326123E+01  5.263664E+01 -9.768839E+04 -9.166848E+00  2.803733E+04
        89  23  3.779188E+05 -6.219783E+01  5.271091E+01 -9.201340E+04  1.625462E+01  3.340845E+04
        89  24  3.779191E+05 -7.782383E+01  7.471293E+01 -9.768839E+04  4.057628E+01  3.846247E+04
        89  25  1.980756E+04 -8.079461E+04 -4.564938E+04 -9.770368E+04  1.326455E+04  2.803901E+04
        89  26 -5.059753E+04 -9.673165E+04 -5.485254E+04 -9.205359E+04  1.252803E+04  3.341160E+04
        89  27 -1.211073E+05 -1.127975E+05 -6.456210E+04 -9.775392E+04  1.179050E+04  3.846699E+04
        90   1  9.208689E+05  1.226172E+05  7.108506E+04 -9.755948E+04  1.151995E+04 -4.136996E+04
        90   2  9.909168E+05  1.389826E+05  8.296186E+04 -9.195732E+04  5.786017E+03 -4.500979E+04
        90   3  1.062007E+06  1.563844E+05  9.883548E+04 -9.753163E+04  5.147726E+01 -4.629490E+04
        90   4  3.779182E+05 -8.759539E+01  9.408886E+01 -9.764999E+04 -5.384267E+01 -4.137544E+04
        90   5  3.778758E+05 -8.760870E+01  1.548825E+02 -9.206141E+04 -1.288515E+02 -4.501573E+04
        90   6  3.778890E+05 -3.251724E+01  2.865536E+02 -9.765000E+04 -2.037532E+02 -4.630005E+04
        90   7 -1.647310E+05 -1.228047E+05 -7.089824E+04 -9.774040E+04 -1.161801E+04 -4.138093E+04
        90   8 -2.347829E+05 -1.391741E+05 -8.265550E+04 -9.216539E+04 -6.038155E+03 -4.502166E+04
        90   9 -3.057574E+05 -1.564708E+05 -9.826970E+04 -9.776824E+04 -4.587147E+02 -4.630520E+04
        90  10  9.208683E+05  1.226154E+05  7.108159E+04 -9.755909E+04 -7.392637E-08 -2.256397E-09
        90  11  9.909162E+05  1.389805E+05  8.295799E+04 -9.195711E+04 -3.852650E-08 -1.788902E-09
        90  12  1.062007E+06  1.563821E+05  9.883145E+04 -9.753163E+04 -2.202091E-09 -2.930751E-09
        90  13  3.779178E+05 -8.943403E+01  9.087123E+01 -9.764999E+04 -2.155605E-09  1.439899E-08
        90  14  3.778752E+05 -8.978511E+01  1.510737E+02 -9.206142E+04 -1.031443E-09  7.763083E-09
        90  15  3.778884E+05 -3.481961E+01  2.825243E+02 -9.765001E+04 -1.274661E-09 -1.328590E-10
        90  16 -1.647316E+05 -1.228066E+05 -7.090172E+04 -9.774079E+04  7.206179E-08 -3.807548E-09
        90  17 -2.347835E+05 -1.391762E+05 -8.265938E+04 -9.216561E+04  4.262784E-08 -1.539871E-09
        90  18 -3.057580E+05 -1.564731E+05 -9.827373E+04 -9.776826E+04  4.377209E-09 -1.621609E-09
        90  19  9.208689E+05  1.226172E+05  7.108506E+04 -9.755948E+04 -1.151995E+04  4.136996E+04
        90  20  9.909168E+05  1.389826E+05  8.296186E+04 -9.195732E+04 -5.786017E+03  4.500979E+04
        90  21  1.062007E+06  1.563844E+05  9.883548E+04 -9.753163E+04 -5.147726E+01  4.629490E+04
        90  22  3.779182E+05 -8.759539E+01  9.408886E+01 -9.764999E+04  5.384267E+01  4.137544E+04
        90  23  3.778758E+05 -8.760870E+01  1.548825E+02 -9.206141E+04  1.288515E+02  4.501573E+04
        90  24  3.778890E+05 -3.251724E+01  2.865536E+02 -9.765000E+04  2.037532E+02  4.630005E+04
        90  25 -1.647310E+05 -1.228047E+05 -7.089824E+04 -9.774040E+04  1.161801E+04  4.138093E+04
        90  26 -2.347829E+05 -1.391741E+05 -8.265550E+04 -9.216539E+04  6.038155E+03  4.502166E+04
        90  27 -3.057574E+05 -1.564708E+05 -9.826970E+04 -9.776824E+04  4.587147E+02  4.630520E+04
        91   1  1.106830E+06  1.674339E+05  1.092866E+05 -9.718204E+04 -1.386436E+03 -4.682731E+04
        91   2  1.173820E+06  1.873631E+05  1.407199E+05 -9.261768E+04 -4.362109E+04 -3.766002E+04
        91   3  1.248310E+06  2.151244E+05  2.015855E+05 -9.793514E+04 -8.587720E+04 -1.106900E+04
        91   4  3.779180E+05 -1.040288E+00  3.845969E+02 -9.736190E+04 -2.541149E+02 -4.683226E+04
        91   5  3.777816E+05  2.977856E+02  7.003903E+02 -9.242166E+04 -6.019165E+02 -3.764422E+04
        91   6  3.778818E+05  1.168398E+03  1.392506E+03 -9.736241E+04 -9.649565E+02 -1.102222E+04
        91   7 -3.504610E+05 -1.674610E+05 -1.085276E+05 -9.754155E+04  8.769322E+02 -4.683722E+04
        91   8 -4.176336E+05 -1.868011E+05 -1.393352E+05 -9.222591E+04  4.236381E+04 -3.762838E+04
        91   9 -4.918311E+05 -2.128366E+05 -1.988236E+05 -9.679052E+04  8.382938E+04 -1.097526E+04
        91  10  1.106829E+06  1.674315E+05  1.092825E+05 -9.718209E+04 -1.355520E-07 -4.507943E-09
        91  11  1.173817E+06  1.873610E+05  1.407136E+05 -9.261901E+04 -1.962169E-09 -5.645823E-09
        91  12  1.248302E+06  2.151223E+05  2.015714E+05 -9.793590E+04  1.290846E-07 -1.755662E-09
        91  13  3.779174E+05 -3.395905E+00  3.804744E+02 -9.736191E+04  3.904468E-09 -5.227359E-09
        91  14  3.777812E+05  2.962635E+02  6.977262E+02 -9.242167E+04  1.546884E-09 -2.535415E-09
        91  15  3.778818E+05  1.168267E+03  1.392276E+03 -9.736241E+04  8.705401E-10 -1.213372E-09
        91  16 -3.504616E+05 -1.674633E+05 -1.085318E+05 -9.754152E+04  1.387407E-07 -2.794793E-09
        91  17 -4.176359E+05 -1.868031E+05 -1.393412E+05 -9.222463E+04 -9.969976E-10 -2.460222E-09
        91  18 -4.918386E+05 -2.128386E+05 -1.988370E+05 -9.678978E+04 -1.268696E-07 -1.797059E-09
        91  19  1.106830E+06  1.674339E+05  1.092866E+05 -9.718204E+04  1.386436E+03  4.682731E+04
        91  20  1.173820E+06  1.873631E+05  1.407199E+05 -9.261768E+04  4.362109E+04  3.766002E+04
        91  21  1.248310E+06  2.151244E+05  2.015855E+05 -9.793514E+04  8.587720E+04  1.106900E+04
        91  22  3.779180E+05 -1.040288E+00  3.845969E+02 -9.736190E+04  2.541149E+02  4.683226E+04
        91  23  3.777816E+05  2.977856E+02  7.003903E+02 -9.242166E+04  6.019165E+02  3.764422E+04
        91  24  3.778818E+05  1.168398E+03  1.392506E+03 -9.736241E+04  9.649565E+02  1.102222E+04
        91  25 -3.504610E+05 -1.674610E+05 -1.085276E+05 -9.754155E+04 -8.769322E+02  4.683722E+04
        91  26 -4.176336E+05 -1.868011E+05 -1.393352E+05 -9.222591E+04 -4.236381E+04  3.762838E+04
        91  27 -4.918311E+05 -2.128366E+05 -1.988236E+05 -9.679052E+04 -8.382938E+04  1.097526E+04
        92   1  1.799534E+05  8.896317E+05  1.723268E+05 -2.971996E+05  6.334089E+03  4.157440E+04
        92   2  1.193226E+05  6.569703E+05  9.902930E+04 -2.782519E+05  1.788264E+04  5.453454E+03
        92   3  6.462555E+04  4.305215E+05  5.070198E+04 -2.976289E+05  1.336841E+04 -3.065848E+04
        92   4 -8.516761E+02  1.585518E+05 -1.077153E+03 -2.974319E+05  6.371955E+03 -2.100418E+03
        92   5 -6.628618E+00  1.586183E+05  4.940234E+02 -2.782679E+05  1.789087E+04 -2.326798E+03
        92   6  5.516138E+02  1.586273E+05  2.132118E+03 -2.974308E+05  1.334100E+04 -2.557132E+03
        92   7 -1.816941E+05 -5.720336E+05 -1.745112E+05 -2.976638E+05  6.409886E+03 -4.572412E+04
        92   8 -1.193509E+05 -3.394962E+05 -9.805325E+04 -2.782837E+05  1.789911E+04 -1.010094E+04
        92   9 -6.352600E+04 -1.131931E+05 -4.643759E+04 -2.972329E+05  1.331361E+04  2.553226E+04
        92  10  1.799529E+05  8.896298E+05  1.723235E+05 -2.971998E+05  7.779831E-10 -5.998286E-08
        92  11  1.193222E+05  6.569702E+05  9.902865E+04 -2.782520E+05  6.314352E-09  6.415909E-10
        92  12  6.462511E+04  4.305204E+05  5.069988E+04 -2.976285E+05 -3.665650E-09  5.999256E-08
        92  13 -8.517208E+02  1.585518E+05 -1.077238E+03 -2.974319E+05  4.140335E-09 -6.046592E-12
        92  14 -6.973780E+00  1.586182E+05  4.934117E+02 -2.782678E+05  3.870766E-09 -2.811254E-10
        92  15  5.514210E+02  1.586273E+05  2.131772E+03 -2.974308E+05 -2.708472E-09  5.136289E-11
        92  16 -1.816947E+05 -5.720358E+05 -1.745152E+05 -2.976635E+05  4.966677E-09  6.030845E-08
        92  17 -1.193512E+05 -3.394964E+05 -9.805404E+04 -2.782836E+05  5.595855E-09 -4.154891E-10
        92  18 -6.352636E+04 -1.131938E+05 -4.643914E+04 -2.972332E+05 -1.133081E-09 -6.036396E-08
        92  19  1.799534E+05  8.896317E+05  1.723268E+05 -2.971996E+05 -6.334089E+03 -4.157440E+04
        92  20  1.193226E+05  6.569703E+05  9.902930E+04 -2.782519E+05 -1.788264E+04 -5.453454E+03
        92  21  6.462555E+04  4.305215E+05  5.070198E+04 -2.976289E+05 -1.336841E+04  3.065848E+04
        92  22 -8.516761E+02  1.585518E+05 -1.077153E+03 -2.974319E+05 -6.371955E+03  2.100418E+03
        92  23 -6.628618E+00  1.586183E+05  4.940234E+02 -2.782679E+05 -1.789087E+04  2.326798E+03
        92  24  5.516138E+02  1.586273E+05  2.132118E+03 -2.974308E+05 -1.334100E+04  2.557132E+03
        92  25 -1.816941E+05 -5.720336E+05 -1.745112E+05 -2.976638E+05 -6.409886E+03  4.572412E+04
        92  26 -1.193509E+05 -3.394962E+05 -9.805325E+04 -2.782837E+05 -1.789911E+04  1.010094E+04
        92  27 -6.352600E+04 -1.131931E+05 -4.643759E+04 -2.972329E+05 -1.331361E+04 -2.553226E+04
        93   1  3.112687E+04  2.867751E+05  2.748956E+04 -2.979040E+05  5.280687E+03 -3.160049E+04
        93   2 -2.159514E+04  5.703723E+04 -8.652259E+03 -2.768437E+05 -7.259738E+03 -3.349060E+04
        93   3 -7.244532E+04 -1.719703E+05 -4.310922E+04 -2.951190E+05 -1.927971E+04 -3.537913E+04
        93   4  6.777813E+02  1.588460E+05  3.141017E+03 -2.976550E+05  5.251910E+03 -3.019209E+03
        93   5  1.625133E+03  1.583983E+05  6.086477E+03 -2.779860E+05 -7.286424E+03 -6.076754E+03
        93   6  4.648328E+03  1.588297E+05  1.152444E+04 -2.976516E+05 -1.930439E+04 -9.133359E+03
        93   7 -2.977183E+04  3.093432E+04 -2.120519E+04 -2.974060E+05  5.223151E+03  2.555633E+04
        93   8  2.484534E+04  2.597713E+05  2.082787E+04 -2.791284E+05 -7.313207E+03  2.134138E+04
        93   9  8.173672E+04  4.897395E+05  6.615745E+04 -3.001855E+05 -1.932928E+04  1.712592E+04
        93  10  3.112657E+04  2.867740E+05  2.748763E+04 -2.979038E+05 -4.866577E-09  9.740866E-09
        93  11 -2.159550E+04  5.703601E+04 -8.654467E+03 -2.768439E+05 -3.278996E-09  3.619228E-09
        93  12 -7.244606E+04 -1.719717E+05 -4.311228E+04 -2.951196E+05 -2.770313E-09 -3.940533E-09
        93  13  6.777492E+02  1.588459E+05  3.140948E+03 -2.976550E+05 -1.732684E-09  3.703657E-12
        93  14  1.625066E+03  1.583982E+05  6.086307E+03 -2.779860E+05 -1.693065E-09 -3.105412E-10
        93  15  4.647905E+03  1.588296E+05  1.152358E+04 -2.976517E+05 -4.656425E-09  7.942576E-11
        93  16 -2.977204E+04  3.093361E+04 -2.120647E+04 -2.974061E+05 -5.581584E-10 -9.209182E-09
        93  17  2.484516E+04  2.597708E+05  2.082691E+04 -2.791283E+05  4.425934E-10 -3.495449E-09
        93  18  8.173624E+04  4.897391E+05  6.615620E+04 -3.001852E+05 -4.283292E-09  3.625740E-09
        93  19  3.112687E+04  2.867751E+05  2.748956E+04 -2.979040E+05 -5.280687E+03  3.160049E+04
        93  20 -2.159514E+04  5.703723E+04 -8.652259E+03 -2.768437E+05  7.259738E+03  3.349060E+04
        93  21 -7.244532E+04 -1.719703E+05 -4.310922E+04 -2.951190E+05  1.927971E+04  3.537913E+04
        93  22  6.777813E+02  1.588460E+05  3.141017E+03 -2.976550E+05 -5.251910E+03  3.019209E+03
        93  23  1.625133E+03  1.583983E+05  6.086477E+03 -2.779860E+05  7.286424E+03  6.076754E+03
        93  24  4.648328E+03  1.588297E+05  1.152444E+04 -2.976516E+05  1.930439E+04  9.133359E+03
        93  25 -2.977183E+04  3.093432E+04 -2.120519E+04 -2.974060E+05 -5.223151E+03 -2.555633E+04
        93  26  2.484534E+04  2.597713E+05  2.082787E+04 -2.791284E+05  7.313207E+03 -2.134138E+04
        93  27  8.173672E+04  4.897395E+05  6.615745E+04 -3.001855E+05  1.932928E+04 -1.712592E+04
        94   1 -1.049435E+05 -3.145747E+05 -6.416013E+04 -2.961753E+05 -2.687667E+04 -3.673771E+04
        94   2 -1.488254E+05 -5.439898E+05 -1.054441E+05 -2.595134E+05 -2.824445E+04 -6.120036E+03
        94   3 -1.769423E+05 -7.733871E+05 -1.627300E+05 -2.608475E+05 -9.334206E+03  2.448892E+04
        94   4  5.980856E+03  1.603490E+05  1.547474E+04 -2.973533E+05 -2.689902E+04 -1.114447E+04
        94   5  1.813584E+04  1.563885E+05  2.864622E+04 -2.783427E+05 -2.822518E+04 -2.576147E+04
        94   6  5.389944E+04  1.602389E+05  5.722919E+04 -2.973190E+05 -9.285630E+03 -4.037554E+04
        94   7  1.168937E+05  6.354967E+05  9.510503E+04 -2.985321E+05 -2.692145E+04  1.446772E+04
        94   8  1.850696E+05  8.572410E+05  1.627158E+05 -2.971934E+05 -2.820474E+04 -4.542455E+04
        94   9  2.846861E+05  1.094679E+06  2.771449E+05 -3.338455E+05 -9.229483E+03 -1.053370E+05
        94  10 -1.049446E+05 -3.145764E+05 -6.416402E+04 -2.961761E+05 -5.278606E-09  7.988401E-09
        94  11 -1.488262E+05 -5.439900E+05 -1.054457E+05 -2.595136E+05 -7.176951E-09  4.436226E-09
        94  12 -1.769425E+05 -7.733878E+05 -1.627313E+05 -2.608473E+05  5.137467E-10 -4.477189E-10
        94  13  5.980045E+03  1.603487E+05  1.547314E+04 -2.973535E+05 -4.271991E-09 -1.646509E-11
        94  14  1.813481E+04  1.563876E+05  2.864347E+04 -2.783432E+05  3.936626E-09 -1.935903E-10
        94  15  5.389891E+04  1.602372E+05  5.722597E+04 -2.973193E+05 -2.216408E-09  4.068649E-11
        94  16  1.168929E+05  6.354963E+05  9.510327E+04 -2.985318E+05 -2.536885E-09 -7.377686E-09
        94  17  1.850682E+05  8.572385E+05  1.627105E+05 -2.971945E+05  1.280497E-09 -4.069189E-09
        94  18  2.846830E+05  1.094667E+06  2.771239E+05 -3.338462E+05  3.040414E-09  3.666696E-10
        94  19 -1.049435E+05 -3.145747E+05 -6.416013E+04 -2.961753E+05  2.687667E+04  3.673771E+04
        94  20 -1.488254E+05 -5.439898E+05 -1.054441E+05 -2.595134E+05  2.824445E+04  6.120036E+03
        94  21 -1.769423E+05 -7.733871E+05 -1.627300E+05 -2.608475E+05  9.334206E+03 -2.448892E+04
        94  22  5.980856E+03  1.603490E+05  1.547474E+04 -2.973533E+05  2.689902E+04  1.114447E+04
        94  23  1.813584E+04  1.563885E+05  2.864622E+04 -2.783427E+05  2.822518E+04  2.576147E+04
        94  24  5.389944E+04  1.602389E+05  5.722919E+04 -2.973190E+05  9.285630E+03  4.037554E+04
        94  25  1.168937E+05  6.354967E+05  9.510503E+04 -2.985321E+05  2.692145E+04 -1.446772E+04
        94  26  1.850696E+05  8.572410E+05  1.627158E+05 -2.971934E+05  2.820474E+04  4.542455E+04
        94  27  2.846861E+05  1.094679E+06  2.771449E+05 -3.338455E+05  9.229483E+03  1.053370E+05
        95   1 -3.691409E+05 -2.095764E+05 -1.347617E+05 -1.537222E+05 -6.459971E+04 -2.056694E+04
        95   2 -3.457415E+05 -1.279076E+05 -7.807132E+04 -1.435279E+05 -4.052249E+04 -3.442986E+03
        95   3 -3.380936E+05 -9.786354E+04 -5.392731E+04 -1.279654E+05 -1.412755E+04  7.512643E+03
        95   4 -1.740577E+05 -1.011060E+05 -7.712959E+04 -6.412580E+04 -5.089645E+04 -1.542823E+04
        95   5 -1.627627E+05 -4.600647E+04 -3.499166E+04 -7.810816E+04 -3.512921E+04 -1.420383E+03
        95   6 -1.655673E+05 -4.087882E+04 -1.880900E+04 -8.672500E+04 -1.704542E+04  6.417596E+03
        95   7  2.106367E+04  7.381470E+03 -1.950088E+04  2.549946E+04 -3.718868E+04 -1.028585E+04
        95   8  2.024990E+04  3.590181E+04  8.085654E+03 -1.266937E+04 -2.973423E+04  6.031736E+02
        95   9  6.990333E+03  1.610732E+04  1.630809E+04 -4.547445E+04 -1.996417E+04  5.322290E+03
        95  10 -3.691455E+05 -2.095780E+05 -1.347703E+05 -1.537232E+05  1.442521E-09 -6.362350E-10
        95  11 -3.457432E+05 -1.279081E+05 -7.807443E+04 -1.435280E+05 -3.691059E-09 -3.913546E-09
        95  12 -3.380938E+05 -9.786365E+04 -5.392779E+04 -1.279653E+05 -2.116199E-09 -3.871955E-09
        95  13 -1.740606E+05 -1.011070E+05 -7.713491E+04 -6.412643E+04 -1.868530E-09 -5.787551E-10
        95  14 -1.627640E+05 -4.600681E+04 -3.499399E+04 -7.810820E+04 -9.076585E-09 -2.235313E-09
        95  15 -1.655676E+05 -4.087895E+04 -1.880962E+04 -8.672491E+04 -1.995005E-09 -3.725075E-09
        95  16  2.106215E+04  7.380985E+03 -1.950368E+04  2.549915E+04 -5.317893E-09 -5.284538E-10
        95  17  2.024895E+04  3.590157E+04  8.083992E+03 -1.266935E+04 -6.121481E-09 -5.721184E-10
        95  18  6.989898E+03  1.610718E+04  1.630729E+04 -4.547437E+04 -2.177577E-09 -2.761386E-09
        95  19 -3.691409E+05 -2.095764E+05 -1.347617E+05 -1.537222E+05  6.459971E+04  2.056694E+04
        95  20 -3.457415E+05 -1.279076E+05 -7.807132E+04 -1.435279E+05  4.052249E+04  3.442986E+03
        95  21 -3.380936E+05 -9.786354E+04 -5.392731E+04 -1.279654E+05  1.412755E+04 -7.512643E+03
        95  22 -1.740577E+05 -1.011060E+05 -7.712959E+04 -6.412580E+04  5.089645E+04  1.542823E+04
        95  23 -1.627627E+05 -4.600647E+04 -3.499166E+04 -7.810816E+04  3.512921E+04  1.420383E+03
        95  24 -1.655673E+05 -4.087882E+04 -1.880900E+04 -8.672500E+04  1.704542E+04 -6.417596E+03
        95  25  2.106367E+04  7.381470E+03 -1.950088E+04  2.549946E+04  3.718868E+04  1.028585E+04
        95  26  2.024990E+04  3.590181E+04  8.085654E+03 -1.266937E+04  2.973423E+04 -6.031736E+02
        95  27  6.990333E+03  1.610732E+04  1.630809E+04 -4.547445E+04  1.996417E+04 -5.322290E+03
        96   1 -3.122645E+05 -9.887485E+04 -4.570666E+04 -1.267186E+05 -1.278504E+04  6.622641E+03
        96   2 -2.883533E+05 -8.388207E+04 -3.303858E+04 -1.164907E+05 -7.905086E+03  6.868964E+03
        96   3 -2.603909E+05 -7.635129E+04 -2.416142E+04 -1.120803E+05 -2.879240E+03  6.726388E+03
        96   4 -1.632104E+05 -4.348260E+04 -1.442864E+04 -8.467848E+04 -1.439673E+04  6.017669E+03
        96   5 -1.651216E+05 -3.863075E+04 -7.620423E+03 -8.220906E+04 -1.004006E+04  6.067816E+03
        96   6 -1.628780E+05 -4.113694E+04 -4.187744E+03 -8.555748E+04 -5.537669E+03  5.729029E+03
        96   7 -1.413467E+04  1.191122E+04  1.684786E+04 -4.262931E+04 -1.600883E+04  5.412541E+03
        96   8 -4.187422E+04  6.621870E+03  1.779696E+04 -4.792114E+04 -1.217549E+04  5.266495E+03
        96   9 -6.535456E+04 -5.921574E+03  1.578568E+04 -5.903063E+04 -8.196568E+03  4.731498E+03
        96  10 -3.122647E+05 -9.887494E+04 -4.570705E+04 -1.267185E+05 -7.622162E-09 -3.926236E-09
        96  11 -2.883534E+05 -8.388214E+04 -3.303879E+04 -1.164906E+05  1.110301E-09  2.826083E-09
        96  12 -2.603910E+05 -7.635134E+04 -2.416152E+04 -1.120803E+05  6.180582E-09  3.291641E-09
        96  13 -1.632106E+05 -4.348269E+04 -1.442910E+04 -8.467841E+04 -1.674216E-09 -1.062819E-09
        96  14 -1.651217E+05 -3.863082E+04 -7.620682E+03 -8.220901E+04 -6.817566E-10  1.856818E-09
        96  15 -1.628781E+05 -4.113699E+04 -4.187863E+03 -8.555746E+04  4.020408E-09  1.512553E-09
        96  16 -1.413496E+04  1.191112E+04  1.684733E+04 -4.262924E+04  8.730409E-09  5.084224E-10
        96  17 -4.187439E+04  6.621800E+03  1.779663E+04 -4.792109E+04  2.209882E-09  1.599894E-09
        96  18 -6.535464E+04 -5.921616E+03  1.578551E+04 -5.903060E+04 -2.513599E-09 -3.748249E-10
        96  19 -3.122645E+05 -9.887485E+04 -4.570666E+04 -1.267186E+05  1.278504E+04 -6.622641E+03
        96  20 -2.883533E+05 -8.388207E+04 -3.303858E+04 -1.164907E+05  7.905086E+03 -6.868964E+03
        96  21 -2.603909E+05 -7.635129E+04 -2.416142E+04 -1.120803E+05  2.879240E+03 -6.726388E+03
        96  22 -1.632104E+05 -4.348260E+04 -1.442864E+04 -8.467848E+04  1.439673E+04 -6.017669E+03
        96  23 -1.651216E+05 -3.863075E+04 -7.620423E+03 -8.220906E+04  1.004006E+04 -6.067816E+03
        96  24 -1.628780E+05 -4.113694E+04 -4.187744E+03 -8.555748E+04  5.537669E+03 -5.729029E+03
        96  25 -1.413467E+04  1.191122E+04  1.684786E+04 -4.262931E+04  1.600883E+04 -5.412541E+03
        96  26 -4.187422E+04  6.621870E+03  1.779696E+04 -4.792114E+04  1.217549E+04 -5.266495E+03
        96  27 -6.535456E+04 -5.921574E+03  1.578568E+04 -5.903063E+04  8.196568E+03 -4.731498E+03
        97   1 -2.418593E+05 -7.004222E+04 -1.927229E+04 -1.072317E+05 -1.942248E+03  5.771122E+03
        97   2 -2.182258E+05 -5.771714E+04 -1.253831E+04 -9.690635E+04 -3.224129E+02  4.184221E+03
        97   3 -1.893495E+05 -5.088908E+04 -6.495826E+03 -9.277462E+04  1.306571E+03  2.572634E+03
        97   4 -1.627072E+05 -4.124224E+04 -3.153930E+03 -8.544540E+04 -4.518839E+03  4.804533E+03
        97   5 -1.653277E+05 -3.847283E+04 -1.734527E+03 -8.235734E+04 -2.932180E+03  3.205263E+03
        97   6 -1.626994E+05 -4.119379E+04 -9.802195E+02 -8.546311E+04 -1.336418E+03  1.581297E+03
        97   7 -8.354868E+04 -1.244175E+04  1.296414E+04 -6.365649E+04 -7.095782E+03  3.837814E+03
        97   8 -1.124269E+05 -1.922837E+04  9.069085E+03 -6.780724E+04 -5.542176E+03  2.226220E+03
        97   9 -1.360488E+05 -3.149852E+04  4.535320E+03 -7.815137E+04 -3.979509E+03  5.899233E+02
        97  10 -2.418593E+05 -7.004226E+04 -1.927236E+04 -1.072317E+05 -2.221163E-09  1.387379E-10
        97  11 -2.182258E+05 -5.771715E+04 -1.253835E+04 -9.690635E+04 -1.010046E-09 -1.643467E-10
        97  12 -1.893495E+05 -5.088909E+04 -6.495842E+03 -9.277462E+04 -5.860617E-09  9.042814E-10
        97  13 -1.627072E+05 -4.124227E+04 -3.154012E+03 -8.544538E+04  2.393139E-11  1.495444E-10
        97  14 -1.653277E+05 -3.847284E+04 -1.734563E+03 -8.235733E+04 -2.271841E-09  3.563452E-10
        97  15 -1.626994E+05 -4.119379E+04 -9.802276E+02 -8.546311E+04 -1.119295E-09  4.302253E-11
        97  16 -8.354874E+04 -1.244178E+04  1.296402E+04 -6.365647E+04  8.288065E-10  6.204003E-10
        97  17 -1.124269E+05 -1.922838E+04  9.069018E+03 -6.780723E+04  2.626630E-10  6.105590E-10
        97  18 -1.360488E+05 -3.149852E+04  4.535290E+03 -7.815136E+04  6.415312E-10 -6.352266E-10
        97  19 -2.418593E+05 -7.004222E+04 -1.927229E+04 -1.072317E+05  1.942248E+03 -5.771122E+03
        97  20 -2.182258E+05 -5.771714E+04 -1.253831E+04 -9.690635E+04  3.224129E+02 -4.184221E+03
        97  21 -1.893495E+05 -5.088908E+04 -6.495826E+03 -9.277462E+04 -1.306571E+03 -2.572634E+03
        97  22 -1.627072E+05 -4.124224E+04 -3.153930E+03 -8.544540E+04  4.518839E+03 -4.804533E+03
        97  23 -1.653277E+05 -3.847283E+04 -1.734527E+03 -8.235734E+04  2.932180E+03 -3.205263E+03
        97  24 -1.626994E+05 -4.119379E+04 -9.802195E+02 -8.546311E+04  1.336418E+03 -1.581297E+03
        97  25 -8.354868E+04 -1.244175E+04  1.296414E+04 -6.365649E+04  7.095782E+03 -3.837814E+03
        97  26 -1.124269E+05 -1.922837E+04  9.069085E+03 -6.780724E+04  5.542176E+03 -2.226220E+03
        97  27 -1.360488E+05 -3.149852E+04  4.535320E+03 -7.815137E+04  3.979509E+03 -5.899233E+02
        98   1 -1.711952E+05 -4.425723E+04 -2.412879E+03 -8.777506E+04  1.873652E+03  1.483774E+03
        98   2 -1.476337E+05 -3.199931E+04  3.148376E+03 -7.742647E+04  2.845780E+03 -3.846185E+02
        98   3 -1.187105E+05 -2.514285E+04  8.531900E+03 -7.326440E+04  3.818431E+03 -2.254300E+03
        98   4 -1.626776E+05 -4.119687E+04 -7.549863E+02 -8.545300E+04 -7.642890E+02  4.943455E+02
        98   5 -1.653587E+05 -3.850029E+04 -4.741034E+02 -8.235798E+04  2.060164E+02 -1.374763E+03
        98   6 -1.626790E+05 -4.120515E+04 -3.696853E+02 -8.544998E+04  1.176831E+03 -3.245160E+03
        98   7 -1.541599E+05 -3.813646E+04  9.029519E+02 -8.313089E+04 -3.402290E+03 -4.951045E+02
        98   8 -1.830834E+05 -4.500128E+04 -4.096589E+03 -8.728939E+04 -2.433677E+03 -2.364881E+03
        98   9 -2.066455E+05 -5.726729E+04 -9.271340E+03 -9.763476E+04 -1.464569E+03 -4.235945E+03
        98  10 -1.711952E+05 -4.425723E+04 -2.412890E+03 -8.777506E+04 -7.553259E-09  8.715657E-10
        98  11 -1.476337E+05 -3.199931E+04  3.148360E+03 -7.742647E+04  2.186701E-09  3.445716E-09
        98  12 -1.187105E+05 -2.514286E+04  8.531863E+03 -7.326440E+04  1.057746E-08  1.602869E-09
        98  13 -1.626776E+05 -4.119687E+04 -7.549878E+02 -8.545300E+04  1.758600E-09  1.144220E-09
        98  14 -1.653587E+05 -3.850030E+04 -4.741070E+02 -8.235798E+04  3.557092E-09  2.522175E-09
        98  15 -1.626790E+05 -4.120517E+04 -3.697077E+02 -8.544997E+04  2.510505E-09  4.407615E-10
        98  16 -1.541599E+05 -3.813647E+04  9.029297E+02 -8.313089E+04  1.110834E-08  1.417879E-09
        98  17 -1.830834E+05 -4.500128E+04 -4.096611E+03 -8.728939E+04  7.276509E-09  1.875042E-09
        98  18 -2.066455E+05 -5.726731E+04 -9.271378E+03 -9.763476E+04 -3.764983E-09 -6.797782E-10
        98  19 -1.711952E+05 -4.425723E+04 -2.412879E+03 -8.777506E+04 -1.873652E+03 -1.483774E+03
        98  20 -1.476337E+05 -3.199931E+04  3.148376E+03 -7.742647E+04 -2.845780E+03  3.846185E+02
        98  21 -1.187105E+05 -2.514285E+04  8.531900E+03 -7.326440E+04 -3.818431E+03  2.254300E+03
        98  22 -1.626776E+05 -4.119687E+04 -7.549863E+02 -8.545300E+04  7.642890E+02 -4.943455E+02
        98  23 -1.653587E+05 -3.850029E+04 -4.741034E+02 -8.235798E+04 -2.060164E+02  1.374763E+03
        98  24 -1.626790E+05 -4.120515E+04 -3.696853E+02 -8.544998E+04 -1.176831E+03  3.245160E+03
        98  25 -1.541599E+05 -3.813646E+04  9.029519E+02 -8.313089E+04  3.402290E+03  4.951045E+02
        98  26 -1.830834E+05 -4.500128E+04 -4.096589E+03 -8.728939E+04  2.433677E+03  2.364881E+03
        98  27 -2.066455E+05 -5.726729E+04 -9.271340E+03 -9.763476E+04  1.464569E+03  4.235945E+03
        99   1 -1.005931E+05 -1.849774E+04  1.239056E+04 -6.826168E+04  4.307853E+03 -3.371759E+03
        99   2 -7.703943E+04 -6.236283E+03  1.757119E+04 -5.791591E+04  5.270478E+03 -5.244367E+03
        99   3 -4.812364E+04  6.259047E+02  2.258162E+04 -5.375427E+04  6.232316E+03 -7.114405E+03
        99   4 -1.626797E+05 -4.120531E+04 -3.679715E+02 -8.544948E+04  1.666307E+03 -4.362641E+03
        99   5 -1.653605E+05 -3.850405E+04 -4.647209E+02 -8.235804E+04  2.632264E+03 -6.234122E+03
        99   6 -1.626805E+05 -4.120275E+04 -7.342836E+02 -8.545097E+04  3.597427E+03 -8.103042E+03
        99   7 -2.247618E+05 -6.391235E+04 -1.312654E+04 -1.026356E+05 -9.749336E+02 -5.353409E+03
        99   8 -2.536736E+05 -7.077115E+04 -1.850100E+04 -1.067970E+05 -5.546234E+00 -7.223726E+03
        99   9 -2.772248E+05 -8.303062E+04 -2.405107E+04 -1.171425E+05  9.630403E+02 -9.091490E+03
        99  10 -1.005931E+05 -1.849776E+04  1.239051E+04 -6.826167E+04  5.655570E-09 -1.526191E-09
        99  11 -7.703947E+04 -6.236320E+03  1.757109E+04 -5.791589E+04  1.961847E-09 -1.023954E-09
        99  12 -4.812370E+04  6.258400E+02  2.258145E+04 -5.375424E+04  1.403885E-09 -1.015280E-09
        99  13 -1.626797E+05 -4.120533E+04 -3.680125E+02 -8.544947E+04  3.978247E-10 -1.164860E-09
        99  14 -1.653605E+05 -3.850409E+04 -4.648069E+02 -8.235803E+04 -1.704271E-09 -1.670113E-09
        99  15 -1.626806E+05 -4.120282E+04 -7.344313E+02 -8.545095E+04  6.139316E-10 -6.894890E-10
        99  16 -2.247618E+05 -6.391238E+04 -1.312660E+04 -1.026356E+05 -4.779134E-09 -9.230468E-10
        99  17 -2.536736E+05 -7.077121E+04 -1.850110E+04 -1.067970E+05 -4.924571E-09 -1.772047E-09
        99  18 -2.772248E+05 -8.303071E+04 -2.405122E+04 -1.171425E+05 -5.230561E-09 -1.090966E-09
        99  19 -1.005931E+05 -1.849774E+04  1.239056E+04 -6.826168E+04 -4.307853E+03  3.371759E+03
        99  20 -7.703943E+04 -6.236283E+03  1.757119E+04 -5.791591E+04 -5.270478E+03  5.244367E+03
        99  21 -4.812364E+04  6.259047E+02  2.258162E+04 -5.375427E+04 -6.232316E+03  7.114405E+03
        99  22 -1.626797E+05 -4.120531E+04 -3.679715E+02 -8.544948E+04 -1.666307E+03  4.362641E+03
        99  23 -1.653605E+05 -3.850405E+04 -4.647209E+02 -8.235804E+04 -2.632264E+03  6.234122E+03
        99  24 -1.626805E+05 -4.120275E+04 -7.342836E+02 -8.545097E+04 -3.597427E+03  8.103042E+03
        99  25 -2.247618E+05 -6.391235E+04 -1.312654E+04 -1.026356E+05  9.749336E+02  5.353409E+03
        99  26 -2.536736E+05 -7.077115E+04 -1.850100E+04 -1.067970E+05  5.546234E+00  7.223726E+03
        99  27 -2.772248E+05 -8.303062E+04 -2.405107E+04 -1.171425E+05 -9.630403E+02  9.091490E+03
       100   1 -3.002521E+04  7.261650E+03  2.621921E+04 -4.877319E+04  6.807288E+03 -8.199513E+03
       100   2 -6.433427E+03  1.952366E+04  3.077742E+04 -3.843288E+04  8.325354E+03 -9.844447E+03
       100   3  2.241924E+04  2.631210E+04  3.473007E+04 -3.427804E+04  9.830085E+03 -1.145293E+04
       100   4 -1.627031E+05 -4.120006E+04 -9.515934E+02 -8.545976E+04  4.165410E+03 -9.190880E+03
       100   5 -1.653338E+05 -3.848448E+04 -1.681223E+03 -8.235777E+04  5.732287E+03 -1.081772E+04
       100   6 -1.627138E+05 -4.125231E+04 -3.055153E+03 -8.544164E+04  7.285786E+03 -1.240812E+04
       100   7 -2.953629E+05 -8.966028E+04 -2.812326E+04 -1.221391E+05  1.524140E+03 -1.018202E+04
       100   8 -3.242076E+05 -9.649024E+04 -3.414094E+04 -1.262721E+05  3.139945E+03 -1.179073E+04
       100   9 -3.478102E+05 -1.088133E+05 -4.084168E+04 -1.365908E+05  4.742323E+03 -1.336300E+04
       100  10 -3.002527E+04  7.261565E+03  2.621900E+04 -4.877315E+04  1.141537E-09 -2.334879E-10
       100  11 -6.433528E+03  1.952354E+04  3.077711E+04 -3.843282E+04  8.813364E-09  8.324314E-10
       100  12  2.241910E+04  2.631194E+04  3.472964E+04 -3.427794E+04 -6.665655E-10  2.787955E-10
       100  13 -1.627032E+05 -4.120016E+04 -9.517847E+02 -8.545973E+04 -1.971530E-09 -4.385223E-10
       100  14 -1.653339E+05 -3.848461E+04 -1.681504E+03 -8.235772E+04  1.100069E-09  4.091810E-10
       100  15 -1.627139E+05 -4.125249E+04 -3.055542E+03 -8.544157E+04 -8.858225E-10 -8.886951E-12
       100  16 -2.953630E+05 -8.966039E+04 -2.812346E+04 -1.221391E+05 -8.551026E-09 -5.404411E-10
       100  17 -3.242077E+05 -9.649039E+04 -3.414122E+04 -1.262721E+05 -2.521376E-09 -2.529190E-10
       100  18 -3.478103E+05 -1.088135E+05 -4.084206E+04 -1.365907E+05 -1.573700E-09  1.379300E-09
       100  19 -3.002521E+04  7.261650E+03  2.621921E+04 -4.877319E+04 -6.807288E+03  8.199513E+03
       100  20 -6.433427E+03  1.952366E+04  3.077742E+04 -3.843288E+04 -8.325354E+03  9.844447E+03
       100  21  2.241924E+04  2.631210E+04  3.473007E+04 -3.427804E+04 -9.830085E+03  1.145293E+04
       100  22 -1.627031E+05 -4.120006E+04 -9.515934E+02 -8.545976E+04 -4.165410E+03  9.190880E+03
       100  23 -1.653338E+05 -3.848448E+04 -1.681223E+03 -8.235777E+04 -5.732287E+03  1.081772E+04
       100  24 -1.627138E+05 -4.125231E+04 -3.055153E+03 -8.544164E+04 -7.285786E+03  1.240812E+04
       100  25 -2.953629E+05 -8.966028E+04 -2.812326E+04 -1.221391E+05 -1.524140E+03  1.018202E+04
       100  26 -3.242076E+05 -9.649024E+04 -3.414094E+04 -1.262721E+05 -3.139945E+03  1.179073E+04
       100  27 -3.478102E+05 -1.088133E+05 -4.084168E+04 -1.365908E+05 -4.742323E+03  1.336300E+04
       101   1  4.059153E+04  3.283635E+04  3.757951E+04 -2.963477E+04  1.095056E+04 -1.234015E+04
       101   2  6.401244E+04  4.536001E+04  3.976866E+04 -1.857411E+04  1.453451E+04 -1.292400E+04
       101   3  9.176864E+04  5.075955E+04  3.929781E+04 -1.331739E+04  1.790561E+04 -1.293921E+04
       101   4 -1.628811E+05 -4.114817E+04 -4.055567E+03 -8.554591E+04  8.286839E+03 -1.334032E+04
       101   5 -1.651350E+05 -3.864774E+04 -7.379992E+03 -8.221752E+04  1.263601E+04 -1.363727E+04
       101   6 -1.632067E+05 -4.342410E+04 -1.397171E+04 -8.469383E+04  1.677213E+04 -1.336551E+04
       101   7 -3.663129E+05 -1.151299E+05 -4.569319E+04 -1.414406E+05  5.624040E+03 -1.434014E+04
       101   8 -3.942295E+05 -1.226514E+05 -5.453162E+04 -1.458395E+05  1.073825E+04 -1.435025E+04
       101   9 -4.181155E+05 -1.376021E+05 -6.724474E+04 -1.560432E+05  1.563916E+04 -1.379162E+04
       101  10  4.059136E+04  3.283616E+04  3.757899E+04 -2.963466E+04 -1.521647E-08 -5.751712E-09
       101  11  6.401217E+04  4.535978E+04  3.976795E+04 -1.857396E+04  6.390664E-09 -1.007944E-09
       101  12  9.176825E+04  5.075929E+04  3.929689E+04 -1.331720E+04  2.470505E-08  7.015291E-09
       101  13 -1.628812E+05 -4.114838E+04 -4.056031E+03 -8.554582E+04 -1.502694E-09 -3.825860E-10
       101  14 -1.651352E+05 -3.864798E+04 -7.380641E+03 -8.221738E+04 -1.203498E-08 -5.955268E-10
       101  15 -1.632070E+05 -4.342437E+04 -1.397257E+04 -8.469365E+04 -9.095819E-09  4.574711E-09
       101  16 -3.663130E+05 -1.151302E+05 -4.569363E+04 -1.414406E+05  6.907899E-09  3.505879E-09
       101  17 -3.942297E+05 -1.226516E+05 -5.453223E+04 -1.458394E+05 -1.419721E-08 -8.875742E-09
       101  18 -4.181158E+05 -1.376024E+05 -6.724556E+04 -1.560430E+05 -2.928480E-08 -1.571168E-08
       101  19  4.059153E+04  3.283635E+04  3.757951E+04 -2.963477E+04 -1.095056E+04  1.234015E+04
       101  20  6.401244E+04  4.536001E+04  3.976866E+04 -1.857411E+04 -1.453451E+04  1.292400E+04
       101  21  9.176864E+04  5.075955E+04  3.929781E+04 -1.331739E+04 -1.790561E+04  1.293921E+04
       101  22 -1.628811E+05 -4.114817E+04 -4.055567E+03 -8.554591E+04 -8.286839E+03  1.334032E+04
       101  23 -1.651350E+05 -3.864774E+04 -7.379992E+03 -8.221752E+04 -1.263601E+04  1.363727E+04
       101  24 -1.632067E+05 -4.342410E+04 -1.397171E+04 -8.469383E+04 -1.677213E+04  1.336551E+04
       101  25 -3.663129E+05 -1.151299E+05 -4.569319E+04 -1.414406E+05 -5.624040E+03  1.434014E+04
       101  26 -3.942295E+05 -1.226514E+05 -5.453162E+04 -1.458395E+05 -1.073825E+04  1.435025E+04
       101  27 -4.181155E+05 -1.376021E+05 -6.724474E+04 -1.560432E+05 -1.563916E+04  1.379162E+04
       102   1  1.128551E+05  5.509105E+04  3.888336E+04 -1.584388E+04  2.240807E+04 -1.268357E+04
       102   2  1.261326E+05  7.469008E+04  3.240307E+04  1.596532E+04  2.725767E+04 -8.289902E+03
       102   3  1.281979E+05  4.831360E+04  1.042502E+04  5.295569E+04  2.872139E+04  5.118141E+03
       102   4 -1.655175E+05 -4.087537E+04 -1.821294E+04 -8.664189E+04  1.936512E+04 -1.382678E+04
       102   5 -1.628212E+05 -4.582922E+04 -3.388386E+04 -7.828792E+04  3.636420E+04 -4.871284E+03
       102   6 -1.737525E+05 -9.917979E+04 -7.468495E+04 -6.475198E+04  4.997606E+04  1.309996E+04
       102   7 -4.438106E+05 -1.368374E+05 -7.531308E+04 -1.574115E+05  1.632365E+04 -1.496950E+04
       102   8 -4.516861E+05 -1.663337E+05 -1.001749E+05 -1.724974E+05  4.546606E+04 -1.454944E+03
       102   9 -4.756032E+05 -2.466435E+05 -1.597993E+05 -1.823987E+05  7.121899E+04  2.107442E+04
       102  10  1.128545E+05  5.509075E+04  3.888211E+04 -1.584366E+04  2.258298E-08  6.652303E-09
       102  11  1.261318E+05  7.468981E+04  3.240155E+04  1.596550E+04  5.458657E-09 -3.264932E-09
       102  12  1.281970E+05  4.831335E+04  1.042343E+04  5.295557E+04 -2.646194E-08 -9.662535E-09
       102  13 -1.655180E+05 -4.087568E+04 -1.821400E+04 -8.664167E+04  5.594629E-10  6.194533E-09
       102  14 -1.628226E+05 -4.582960E+04 -3.388639E+04 -7.828778E+04  2.005689E-09  5.976985E-09
       102  15 -1.737553E+05 -9.918064E+04 -7.468997E+04 -6.475251E+04  1.734398E-09  2.489120E-09
       102  16 -4.438110E+05 -1.368378E+05 -7.531401E+04 -1.574113E+05 -2.075927E-08 -1.073222E-08
       102  17 -4.516883E+05 -1.663342E+05 -1.001788E+05 -1.724973E+05  8.901738E-09  2.389301E-09
       102  18 -4.756088E+05 -2.466453E+05 -1.598097E+05 -1.823999E+05  2.916777E-08  1.048091E-08
       102  19  1.128551E+05  5.509105E+04  3.888336E+04 -1.584388E+04 -2.240807E+04  1.268357E+04
       102  20  1.261326E+05  7.469008E+04  3.240307E+04  1.596532E+04 -2.725767E+04  8.289902E+03
       102  21  1.281979E+05  4.831360E+04  1.042502E+04  5.295569E+04 -2.872139E+04 -5.118141E+03
       102  22 -1.655175E+05 -4.087537E+04 -1.821294E+04 -8.664189E+04 -1.936512E+04  1.382678E+04
       102  23 -1.628212E+05 -4.582922E+04 -3.388386E+04 -7.828792E+04 -3.636420E+04  4.871284E+03
       102  24 -1.737525E+05 -9.917979E+04 -7.468495E+04 -6.475198E+04 -4.997606E+04 -1.309996E+04
       102  25 -4.438106E+05 -1.368374E+05 -7.531308E+04 -1.574115E+05 -1.632365E+04  1.496950E+04
       102  26 -4.516861E+05 -1.663337E+05 -1.001749E+05 -1.724974E+05 -4.546606E+04  1.454944E+03
       102  27 -4.756032E+05 -2.466435E+05 -1.597993E+05 -1.823987E+05 -7.121899E+04 -2.107442E+04
       103   1  9.161032E+05  1.474661E+05  1.312318E+05  1.430625E+04  3.629511E+04 -1.122409E+04
       103   2  8.772641E+05  1.652122E+05  1.112461E+05  2.856554E+04  1.427778E+04 -3.870759E+04
       103   3  8.368046E+05  1.648827E+05  1.010845E+05  4.871999E+04 -7.749121E+03 -4.883712E+04
       103   4  1.061778E+05 -5.176628E+04 -5.581937E+04  4.804519E+04 -3.922502E+04 -1.128851E+04
       103   5  1.101465E+05 -1.588775E+04 -2.777805E+04  4.507278E+04 -2.496907E+04 -3.874966E+04
       103   6  1.061940E+05 -4.392623E+03 -1.509072E+04  4.799527E+04 -1.072442E+04 -4.884578E+04
       103   7 -7.031271E+05 -2.510372E+05 -2.428922E+05  8.173970E+04 -1.146475E+05 -1.136118E+04
       103   8 -6.563952E+05 -1.970188E+05 -1.668196E+05  6.155895E+04 -6.416880E+04 -3.879385E+04
       103   9 -6.238861E+05 -1.736946E+05 -1.312796E+05  4.727127E+04 -1.369635E+04 -4.885445E+04
       103  10  9.161018E+05  1.474656E+05  1.312291E+05  1.430658E+04  3.081023E-09  2.041147E-10
       103  11  8.772635E+05  1.652105E+05  1.112429E+05  2.856598E+04 -7.529502E-10 -3.278540E-10
       103  12  8.368039E+05  1.648802E+05  1.010799E+05  4.871969E+04 -8.663011E-10 -2.027735E-10
       103  13  1.061761E+05 -5.176683E+04 -5.582250E+04  4.804483E+04  2.421628E-10  4.415574E-10
       103  14  1.101454E+05 -1.588953E+04 -2.778204E+04  4.507200E+04  3.231819E-09 -1.242898E-09
       103  15  1.061932E+05 -4.395216E+03 -1.509542E+04  4.799484E+04  2.662579E-09  5.092932E-10
       103  16 -7.031413E+05 -2.510409E+05 -2.429172E+05  8.173865E+04 -2.112564E-09 -6.065551E-10
       103  17 -6.564001E+05 -1.970215E+05 -1.668302E+05  6.155694E+04  1.568238E-09 -4.554016E-09
       103  18 -6.238869E+05 -1.736972E+05 -1.312844E+05  4.727073E+04  1.558018E-09 -3.214692E-09
       103  19  9.161032E+05  1.474661E+05  1.312318E+05  1.430625E+04 -3.629511E+04  1.122409E+04
       103  20  8.772641E+05  1.652122E+05  1.112461E+05  2.856554E+04 -1.427778E+04  3.870759E+04
       103  21  8.368046E+05  1.648827E+05  1.010845E+05  4.871999E+04  7.749121E+03  4.883712E+04
       103  22  1.061778E+05 -5.176628E+04 -5.581937E+04  4.804519E+04  3.922502E+04  1.128851E+04
       103  23  1.101465E+05 -1.588775E+04 -2.777805E+04  4.507278E+04  2.496907E+04  3.874966E+04
       103  24  1.061940E+05 -4.392623E+03 -1.509072E+04  4.799527E+04  1.072442E+04  4.884578E+04
       103  25 -7.031271E+05 -2.510372E+05 -2.428922E+05  8.173970E+04  1.146475E+05  1.136118E+04
       103  26 -6.563952E+05 -1.970188E+05 -1.668196E+05  6.155895E+04  6.416880E+04  3.879385E+04
       103  27 -6.238861E+05 -1.736946E+05 -1.312796E+05  4.727127E+04  1.369635E+04  4.885445E+04
       104   1  8.125194E+05  1.592309E+05  9.812074E+04  4.703702E+04 -5.727484E+03 -4.902580E+04
       104   2  7.731081E+05  1.517955E+05  9.272813E+04  4.454693E+04 -6.877109E+03 -4.947119E+04
       104   3  7.335762E+05  1.432327E+05  8.780654E+04  4.918202E+04 -8.029672E+03 -4.788686E+04
       104   4  1.077702E+05 -3.527785E+03 -1.133464E+04  4.827210E+04 -8.769377E+03 -4.903465E+04
       104   5  1.082077E+05 -8.925485E+02 -6.171864E+03  4.470698E+04 -5.679032E+03 -4.947489E+04
       104   6  1.077873E+05 -1.212242E+02 -3.481672E+03  4.826756E+04 -2.591620E+03 -4.788428E+04
       104   7 -5.964835E+05 -1.663107E+05 -1.208015E+05  4.950557E+04 -1.180795E+04 -4.904351E+04
       104   8 -5.562489E+05 -1.536014E+05 -1.050802E+05  4.486671E+04 -4.482184E+03 -4.947858E+04
       104   9 -5.176072E+05 -1.434932E+05 -9.477639E+04  4.735393E+04  2.841184E+03 -4.788171E+04
       104  10  8.125187E+05  1.592283E+05  9.811617E+04  4.703680E+04 -1.318084E-09 -1.590592E-09
       104  11  7.731074E+05  1.517929E+05  9.272344E+04  4.454665E+04 -1.285607E-09  2.250868E-10
       104  12  7.335755E+05  1.432302E+05  8.780211E+04  4.918171E+04 -2.027641E-09  1.160240E-09
       104  13  1.077695E+05 -3.530388E+03 -1.133930E+04  4.827176E+04 -4.024440E-09 -5.639172E-10
       104  14  1.082070E+05 -8.951857E+02 -6.176525E+03  4.470675E+04 -6.462703E-09  3.220690E-10
       104  15  1.077867E+05 -1.236883E+02 -3.485994E+03  4.826747E+04 -1.851360E-09 -3.877252E-10
       104  16 -5.964843E+05 -1.663133E+05 -1.208063E+05  4.950511E+04  4.215928E-09  7.486093E-10
       104  17 -5.562495E+05 -1.536040E+05 -1.050848E+05  4.486653E+04 -4.383030E-10  2.182316E-09
       104  18 -5.176078E+05 -1.434956E+05 -9.478072E+04  4.735404E+04 -3.366517E-09  2.348202E-09
       104  19  8.125194E+05  1.592309E+05  9.812074E+04  4.703702E+04  5.727484E+03  4.902580E+04
       104  20  7.731081E+05  1.517955E+05  9.272813E+04  4.454693E+04  6.877109E+03  4.947119E+04
       104  21  7.335762E+05  1.432327E+05  8.780654E+04  4.918202E+04  8.029672E+03  4.788686E+04
       104  22  1.077702E+05 -3.527785E+03 -1.133464E+04  4.827210E+04  8.769377E+03  4.903465E+04
       104  23  1.082077E+05 -8.925485E+02 -6.171864E+03  4.470698E+04  5.679032E+03  4.947489E+04
       104  24  1.077873E+05 -1.212242E+02 -3.481672E+03  4.826756E+04  2.591620E+03  4.788428E+04
       104  25 -5.964835E+05 -1.663107E+05 -1.208015E+05  4.950557E+04  1.180795E+04  4.904351E+04
       104  26 -5.562489E+05 -1.536014E+05 -1.050802E+05  4.486671E+04  4.482184E+03  4.947858E+04
       104  27 -5.176072E+05 -1.434932E+05 -9.477639E+04  4.735393E+04 -2.841184E+03  4.788171E+04
       105   1  7.088566E+05  1.374909E+05  8.459870E+04  4.900640E+04 -7.498871E+03 -4.629771E+04
       105   2  6.694452E+05  1.285252E+05  7.957517E+04  4.537571E+04 -7.258928E+03 -4.358194E+04
       105   3  6.299940E+05  1.195330E+05  7.438839E+04  4.900776E+04 -7.020307E+03 -4.062922E+04
       105   4  1.079554E+05 -7.777180E+01 -2.632532E+03  4.829849E+04 -2.069833E+03 -4.629452E+04
       105   5  1.080265E+05  8.039797E+01 -1.485551E+03  4.466678E+04 -1.335448E+03 -4.357705E+04
       105   6  1.079703E+05  1.262983E+02 -8.453818E+02  4.829818E+04 -6.023703E+02 -4.062253E+04
       105   7 -4.925819E+05 -1.376630E+05 -8.986958E+04  4.759117E+04  3.354175E+03 -4.629134E+04
       105   8 -4.530743E+05 -1.283788E+05 -8.255114E+04  4.395839E+04  4.582906E+03 -4.357218E+04
       105   9 -4.137784E+05 -1.192928E+05 -7.608328E+04  4.758911E+04  5.810403E+03 -4.061585E+04
       105  10  7.088560E+05  1.374886E+05  8.459457E+04  4.900612E+04 -1.267259E-09  2.420509E-09
       105  11  6.694446E+05  1.285231E+05  7.957150E+04  4.537546E+04  1.415755E-10  1.895029E-09
       105  12  6.299935E+05  1.195312E+05  7.438520E+04  4.900753E+04  2.005987E-09  5.221633E-10
       105  13  1.079548E+05 -8.007446E+01 -2.636568E+03  4.829842E+04 -1.884118E-09 -6.733856E-10
       105  14  1.080260E+05  7.835824E+01 -1.489123E+03  4.466673E+04  2.196885E-12  1.942605E-09
       105  15  1.079699E+05  1.245261E+02 -8.484836E+02  4.829816E+04 -4.031820E-09  2.033672E-09
       105  16 -4.925825E+05 -1.376653E+05 -8.987363E+04  4.759129E+04 -1.852791E-09  2.654963E-09
       105  17 -4.530748E+05 -1.283808E+05 -8.255475E+04  4.395856E+04  9.554290E-10  1.461992E-09
       105  18 -4.137788E+05 -1.192946E+05 -7.608644E+04  4.758930E+04 -2.435806E-09 -2.045504E-09
       105  19  7.088566E+05  1.374909E+05  8.459870E+04  4.900640E+04  7.498871E+03  4.629771E+04
       105  20  6.694452E+05  1.285252E+05  7.957517E+04  4.537571E+04  7.258928E+03  4.358194E+04
       105  21  6.299940E+05  1.195330E+05  7.438839E+04  4.900776E+04  7.020307E+03  4.062922E+04
       105  22  1.079554E+05 -7.777180E+01 -2.632532E+03  4.829849E+04  2.069833E+03  4.629452E+04
       105  23  1.080265E+05  8.039797E+01 -1.485551E+03  4.466678E+04  1.335448E+03  4.357705E+04
       105  24  1.079703E+05  1.262983E+02 -8.453818E+02  4.829818E+04  6.023703E+02  4.062253E+04
       105  25 -4.925819E+05 -1.376630E+05 -8.986958E+04  4.759117E+04 -3.354175E+03  4.629134E+04
       105  26 -4.530743E+05 -1.283788E+05 -8.255114E+04  4.395839E+04 -4.582906E+03  4.357218E+04
       105  27 -4.137784E+05 -1.192928E+05 -7.608328E+04  4.758911E+04 -5.810403E+03  4.061585E+04
       106   1  6.052594E+05  1.138375E+05  7.085159E+04  4.896868E+04 -6.887494E+03 -3.883314E+04
       106   2  5.658608E+05  1.048264E+05  6.547615E+04  4.528820E+04 -6.771029E+03 -3.574911E+04
       106   3  5.264418E+05  9.584407E+04  6.002803E+04  4.888220E+04 -6.655457E+03 -3.263777E+04
       106   4  1.079961E+05  1.280390E+02 -6.382779E+02  4.830082E+04 -4.714628E+02 -3.882587E+04
       106   5  1.080185E+05  1.267683E+02 -3.580334E+02  4.466342E+04 -2.982996E+02 -3.574085E+04
       106   6  1.080084E+05  1.443145E+02 -1.901736E+02  4.830080E+04 -1.260226E+02 -3.262852E+04
       106   7 -3.890175E+05 -1.135926E+05 -7.213182E+04  4.763341E+04  5.939652E+03 -3.881861E+04
       106   8 -3.496121E+05 -1.045824E+05 -6.619530E+04  4.403903E+04  6.169863E+03 -3.573261E+04
       106   9 -3.102482E+05 -9.556341E+04 -6.041094E+04  4.771974E+04  6.399200E+03 -3.261928E+04
       106  10  6.052590E+05  1.138358E+05  7.084867E+04  4.896846E+04 -2.086592E-08  5.674936E-10
       106  11  5.658604E+05  1.048250E+05  6.547366E+04  4.528801E+04  9.229883E-09  6.749136E-09
       106  12  5.264414E+05  9.584292E+04  6.002595E+04  4.888203E+04  3.653220E-08  1.074745E-08
       106  13  1.079957E+05  1.264201E+02 -6.411113E+02  4.830080E+04 -1.743243E-09 -2.210043E-09
       106  14  1.080182E+05  1.253965E+02 -3.604342E+02  4.466341E+04 -4.241781E-09 -4.454838E-09
       106  15  1.080081E+05  1.431713E+02 -1.921743E+02  4.830080E+04  1.988891E-09 -1.015230E-08
       106  16 -3.890180E+05 -1.135943E+05 -7.213471E+04  4.763360E+04  1.966381E-08 -1.842985E-09
       106  17 -3.496125E+05 -1.045837E+05 -6.619777E+04  4.403920E+04 -1.385631E-08  1.644206E-09
       106  18 -3.102486E+05 -9.556456E+04 -6.041302E+04  4.771990E+04 -3.235746E-08  5.384037E-09
       106  19  6.052594E+05  1.138375E+05  7.085159E+04  4.896868E+04  6.887494E+03  3.883314E+04
       106  20  5.658608E+05  1.048264E+05  6.547615E+04  4.528820E+04  6.771029E+03  3.574911E+04
       106  21  5.264418E+05  9.584407E+04  6.002803E+04  4.888220E+04  6.655457E+03  3.263777E+04
       106  22  1.079961E+05  1.280390E+02 -6.382779E+02  4.830082E+04  4.714628E+02  3.882587E+04
       106  23  1.080185E+05  1.267683E+02 -3.580334E+02  4.466342E+04  2.982996E+02  3.574085E+04
       106  24  1.080084E+05  1.443145E+02 -1.901736E+02  4.830080E+04  1.260226E+02  3.262852E+04
       106  25 -3.890175E+05 -1.135926E+05 -7.213182E+04  4.763341E+04 -5.939652E+03  3.881861E+04
       106  26 -3.496121E+05 -1.045824E+05 -6.619530E+04  4.403903E+04 -6.169863E+03  3.573261E+04
       106  27 -3.102482E+05 -9.556341E+04 -6.041094E+04  4.771974E+04 -6.399200E+03  3.261928E+04
       107   1  5.017131E+05  9.016176E+04  5.637948E+04  4.885530E+04 -6.627851E+03 -3.081814E+04
       107   2  4.623301E+05  8.116028E+04  5.087460E+04  4.517284E+04 -6.616512E+03 -2.769220E+04
       107   3  4.229305E+05  7.218846E+04  4.536261E+04  4.876755E+04 -6.605833E+03 -2.456364E+04
       107   4  1.080153E+05  1.473649E+02 -1.324169E+02  4.830139E+04 -9.933929E+01 -3.080842E+04
       107   5  1.080293E+05  1.395448E+02 -4.344337E+01  4.466269E+04 -8.272063E+01 -2.768177E+04
       107   6  1.080248E+05  1.606483E+02  3.479779E+01  4.830138E+04 -6.676024E+01 -2.455251E+04
       107   7 -2.855259E+05 -8.987406E+04 -5.664652E+04  4.774777E+04  6.425211E+03 -3.079871E+04
       107   8 -2.461447E+05 -8.088689E+04 -5.096327E+04  4.415277E+04  6.447503E+03 -2.767135E+04
       107   9 -2.067808E+05 -7.187167E+04 -4.529440E+04  4.783541E+04  6.469138E+03 -2.454138E+04
       107  10  5.017128E+05  9.016072E+04  5.637761E+04  4.885513E+04 -2.748021E-08  8.476227E-09
       107  11  4.623298E+05  8.115945E+04  5.087308E+04  4.517270E+04 -9.020426E-09  4.921762E-09
       107  12  4.229303E+05  7.218780E+04  4.536139E+04  4.876742E+04  1.880140E-08  3.315010E-09
       107  13  1.080150E+05  1.463456E+02 -1.342007E+02  4.830139E+04  5.443530E-10 -5.867285E-09
       107  14  1.080291E+05  1.387219E+02 -4.488344E+01  4.466268E+04  2.652556E-11 -5.244617E-09
       107  15  1.080246E+05  1.600010E+02  3.366489E+01  4.830138E+04  1.909352E-10 -4.815655E-10
       107  16 -2.855262E+05 -8.987509E+04 -5.664838E+04  4.774793E+04  2.515791E-08  8.262658E-09
       107  17 -2.461450E+05 -8.088773E+04 -5.096478E+04  4.415292E+04  6.483198E-09  2.076391E-09
       107  18 -2.067810E+05 -7.187233E+04 -4.529561E+04  4.783554E+04 -1.845612E-08 -3.345048E-10
       107  19  5.017131E+05  9.016176E+04  5.637948E+04  4.885530E+04  6.627851E+03  3.081814E+04
       107  20  4.623301E+05  8.116028E+04  5.087460E+04  4.517284E+04  6.616512E+03  2.769220E+04
       107  21  4.229305E+05  7.218846E+04  4.536261E+04  4.876755E+04  6.605833E+03  2.456364E+04
       107  22  1.080153E+05  1.473649E+02 -1.324169E+02  4.830139E+04  9.933929E+01  3.080842E+04
       107  23  1.080293E+05  1.395448E+02 -4.344337E+01  4.466269E+04  8.272063E+01  2.768177E+04
       107  24  1.080248E+05  1.606483E+02  3.479779E+01  4.830138E+04  6.676024E+01  2.455251E+04
       107  25 -2.855259E+05 -8.987406E+04 -5.664652E+04  4.774777E+04 -6.425211E+03  3.079871E+04
       107  26 -2.461447E+05 -8.088689E+04 -5.096327E+04  4.415277E+04 -6.447503E+03  2.767135E+04
       107  27 -2.067808E+05 -7.187167E+04 -4.529440E+04  4.783541E+04 -6.469138E+03  2.454138E+04
       108   1  3.982130E+05  6.650893E+04  4.170214E+04  4.873935E+04 -6.618062E+03 -2.274194E+04
       108   2  3.588374E+05  5.751306E+04  3.621793E+04  4.504860E+04 -6.707649E+03 -1.961335E+04
       108   3  3.194566E+05  4.856379E+04  3.079460E+04  4.863181E+04 -6.797690E+03 -1.648690E+04
       108   4  1.080304E+05  1.635743E+02  7.546205E+01  4.830066E+04 -7.961722E+01 -2.273046E+04
       108   5  1.080367E+05  1.581372E+02  1.788421E+02  4.466357E+04 -1.738586E+02 -1.960138E+04
       108   6  1.080371E+05  2.001447E+02  3.462323E+02  4.830060E+04 -2.685591E+02 -1.647445E+04
       108   7 -1.820671E+05 -6.618559E+04 -4.155234E+04  4.786214E+04  6.455903E+03 -2.271898E+04
       108   8 -1.427004E+05 -5.719963E+04 -3.586105E+04  4.427867E+04  6.357406E+03 -1.958941E+04
       108   9 -1.033372E+05 -4.816552E+04 -3.010267E+04  4.796948E+04  6.258443E+03 -1.646200E+04
       108  10  3.982128E+05  6.650836E+04  4.170109E+04  4.873923E+04  2.363122E-09  5.962692E-09
       108  11  3.588372E+05  5.751264E+04  3.621712E+04  4.504850E+04  3.808287E-10  2.115238E-09
       108  12  3.194565E+05  4.856349E+04  3.079400E+04  4.863172E+04 -1.594915E-09  3.347094E-09
       108  13  1.080302E+05  1.630194E+02  7.449106E+01  4.830066E+04  4.836063E-10  3.450391E-09
       108  14  1.080366E+05  1.577246E+02  1.781200E+02  4.466357E+04  1.074070E-09  2.443760E-09
       108  15  1.080370E+05  1.998532E+02  3.457221E+02  4.830060E+04  2.158187E-09  1.636432E-09
       108  16 -1.820673E+05 -6.618616E+04 -4.155339E+04  4.786226E+04 -2.012888E-10  2.821476E-09
       108  17 -1.427005E+05 -5.720006E+04 -3.586185E+04  4.427877E+04 -1.680064E-09 -4.831962E-09
       108  18 -1.033374E+05 -4.816583E+04 -3.010325E+04  4.796957E+04 -4.221417E-09 -1.833513E-09
       108  19  3.982130E+05  6.650893E+04  4.170214E+04  4.873935E+04  6.618062E+03  2.274194E+04
       108  20  3.588374E+05  5.751306E+04  3.621793E+04  4.504860E+04  6.707649E+03  1.961335E+04
       108  21  3.194566E+05  4.856379E+04  3.079460E+04  4.863181E+04  6.797690E+03  1.648690E+04
       108  22  1.080304E+05  1.635743E+02  7.546205E+01  4.830066E+04  7.961722E+01  2.273046E+04
       108  23  1.080367E+05  1.581372E+02  1.788421E+02  4.466357E+04  1.738586E+02  1.960138E+04
       108  24  1.080371E+05  2.001447E+02  3.462323E+02  4.830060E+04  2.685591E+02  1.647445E+04
       108  25 -1.820671E+05 -6.618559E+04 -4.155234E+04  4.786214E+04 -6.455903E+03  2.271898E+04
       108  26 -1.427004E+05 -5.719963E+04 -3.586105E+04  4.427867E+04 -6.357406E+03  1.958941E+04
       108  27 -1.033372E+05 -4.816552E+04 -3.010267E+04  4.796948E+04 -6.258443E+03  1.646200E+04
       109   1  2.947646E+05  4.288939E+04  2.721084E+04  4.862347E+04 -6.870077E+03 -1.466727E+04
       109   2  2.553528E+05  3.398802E+04  2.197859E+04  4.478440E+04 -7.253419E+03 -1.155216E+04
       109   3  2.160288E+05  2.536671E+04  1.705560E+04  4.821576E+04 -7.636968E+03 -8.456537E+03
       109   4  1.080608E+05  2.075816E+02  4.652439E+02  4.829989E+04 -3.413035E+02 -1.465458E+04
       109   5  1.080165E+05  2.985291E+02  8.359752E+02  4.466417E+04 -7.654891E+02 -1.153927E+04
       109   6  1.080647E+05  6.765347E+02  1.544050E+03  4.829897E+04 -1.189903E+03 -8.443443E+03
       109   7 -7.860758E+04 -4.247579E+04 -2.628072E+04  4.797640E+04  6.185591E+03 -1.464190E+04
       109   8 -3.929784E+04 -3.339192E+04 -2.030681E+04  4.454397E+04  5.720967E+03 -1.152638E+04
       109   9  1.125214E+02 -2.401415E+04 -1.396752E+04  4.838216E+04  5.256089E+03 -8.430345E+03
       109  10  2.947645E+05  4.288914E+04  2.721035E+04  4.862339E+04 -3.288066E-09  5.395607E-09
       109  11  2.553528E+05  3.398786E+04  2.197824E+04  4.478433E+04 -1.822069E-09  4.374454E-10
       109  12  2.160287E+05  2.536662E+04  1.705535E+04  4.821571E+04  7.652184E-09  2.482151E-09
       109  13  1.080608E+05  2.073510E+02  4.648401E+02  4.829989E+04  2.669569E-09  1.774368E-09
       109  14  1.080165E+05  2.983859E+02  8.357239E+02  4.466416E+04  6.456941E-09  3.248428E-09
       109  15  1.080647E+05  6.764578E+02  1.543913E+03  4.829896E+04  2.977050E-10 -1.442316E-09
       109  16 -7.860768E+04 -4.247603E+04 -2.628119E+04  4.797648E+04  4.394101E-09  1.109169E-09
       109  17 -3.929791E+04 -3.339207E+04 -2.030713E+04  4.454402E+04 -3.277476E-09  1.230268E-09
       109  18  1.124726E+02 -2.401423E+04 -1.396771E+04  4.838220E+04 -6.821293E-09 -6.284190E-09
       109  19  2.947646E+05  4.288939E+04  2.721084E+04  4.862347E+04  6.870077E+03  1.466727E+04
       109  20  2.553528E+05  3.398802E+04  2.197859E+04  4.478440E+04  7.253419E+03  1.155216E+04
       109  21  2.160288E+05  2.536671E+04  1.705560E+04  4.821576E+04  7.636968E+03  8.456537E+03
       109  22  1.080608E+05  2.075816E+02  4.652439E+02  4.829989E+04  3.413035E+02  1.465458E+04
       109  23  1.080165E+05  2.985291E+02  8.359752E+02  4.466417E+04  7.654891E+02  1.153927E+04
       109  24  1.080647E+05  6.765347E+02  1.544050E+03  4.829897E+04  1.189903E+03  8.443443E+03
       109  25 -7.860758E+04 -4.247579E+04 -2.628072E+04  4.797640E+04 -6.185591E+03  1.464190E+04
       109  26 -3.929784E+04 -3.339192E+04 -2.030681E+04  4.454397E+04 -5.720967E+03  1.152638E+04
       109  27  1.125214E+02 -2.401415E+04 -1.396752E+04  4.838216E+04 -5.256089E+03  8.430345E+03
       110   1  1.915234E+05  1.979754E+04  1.384137E+04  4.844428E+04 -7.907250E+03 -6.654371E+03
       110   2  1.516697E+05  1.232733E+04  9.825736E+03  4.239968E+04 -9.507582E+03 -3.653340E+03
       110   3  1.128153E+05  8.162667E+03  7.667171E+03  4.360981E+04 -1.110761E+04 -8.179388E+02
       110   4  1.082803E+05  7.947072E+02  2.057664E+03  4.829659E+04 -1.459875E+03 -6.641162E+03
       110   5  1.077515E+05  2.349151E+03  3.789628E+03  4.466272E+04 -3.406202E+03 -3.640796E+03
       110   6  1.082811E+05  7.269451E+03  7.618948E+03  4.828350E+04 -5.352316E+03 -8.060779E+02
       110   7  2.504422E+04 -1.820842E+04 -9.725980E+03  4.814891E+04  4.986672E+03 -6.627956E+03
       110   8  6.383538E+04 -7.629074E+03 -2.246360E+03  4.692560E+04  2.694766E+03 -3.628207E+03
       110   9  1.037471E+05  6.376334E+03  7.570862E+03  5.295715E+04  4.029416E+02 -7.941304E+02
       110  10  1.915234E+05  1.979748E+04  1.384117E+04  4.844424E+04  4.851296E-10  7.949114E-10
       110  11  1.516696E+05  1.232729E+04  9.825542E+03  4.239965E+04  5.139014E-10 -1.420696E-09
       110  12  1.128152E+05  8.162633E+03  7.666938E+03  4.360980E+04  2.373564E-10 -6.913862E-10
       110  13  1.082803E+05  7.946593E+02  2.057577E+03  4.829658E+04  2.763534E-09  1.371504E-09
       110  14  1.077515E+05  2.349134E+03  3.789581E+03  4.466271E+04  2.085468E-09 -7.395905E-09
       110  15  1.082811E+05  7.269442E+03  7.618893E+03  4.828349E+04  1.995950E-09  2.429300E-09
       110  16  2.504418E+04 -1.820847E+04 -9.726110E+03  4.814894E+04  6.679868E-10 -2.972122E-09
       110  17  6.383537E+04 -7.629090E+03 -2.246398E+03  4.692561E+04 -3.356876E-09 -1.385872E-09
       110  18  1.037471E+05  6.376334E+03  7.570861E+03  5.295715E+04  3.315721E-09 -1.761281E-09
       110  19  1.915234E+05  1.979754E+04  1.384137E+04  4.844428E+04  7.907250E+03  6.654371E+03
       110  20  1.516697E+05  1.232733E+04  9.825736E+03  4.239968E+04  9.507582E+03  3.653340E+03
       110  21  1.128153E+05  8.162667E+03  7.667171E+03  4.360981E+04  1.110761E+04  8.179388E+02
       110  22  1.082803E+05  7.947072E+02  2.057664E+03  4.829659E+04  1.459875E+03  6.641162E+03
       110  23  1.077515E+05  2.349151E+03  3.789628E+03  4.466272E+04  3.406202E+03  3.640796E+03
       110  24  1.082811E+05  7.269451E+03  7.618948E+03  4.828350E+04  5.352316E+03  8.060779E+02
       110  25  2.504422E+04 -1.820842E+04 -9.725980E+03  4.814891E+04 -4.986672E+03  6.627956E+03
       110  26  6.383538E+04 -7.629074E+03 -2.246360E+03  4.692560E+04 -2.694766E+03  3.628207E+03
       110  27  1.037471E+05  6.376334E+03  7.570862E+03  5.295715E+04 -4.029416E+02  7.941304E+02
       111   1  1.310378E+04  4.325441E+05  1.417064E+04 -2.997507E+04 -5.276891E+01  3.464037E+03
       111   2  5.066786E+02  4.027591E+05  4.660167E+03 -2.396315E+04 -7.759389E+02 -1.454214E+02
       111   3 -7.400777E+03  3.746022E+05 -1.332562E+03 -2.556757E+04 -2.357869E+03 -3.755395E+03
       111   4  6.503857E+03  4.062008E+05  7.539546E+03 -2.602603E+04 -5.308809E+01  3.891429E+03
       111   5  1.041294E+03  4.054947E+05  4.615516E+03 -2.222039E+04 -7.772607E+02  1.519216E+03
       111   6  5.385546E+01  4.062017E+05  4.350660E+03 -2.603102E+04 -2.360167E+03 -8.536554E+02
       111   7 -9.606308E+01  3.798581E+05  9.084099E+02 -2.207716E+04 -5.340185E+01  4.318804E+03
       111   8  1.575922E+03  4.082303E+05  4.570878E+03 -2.047763E+04 -7.785732E+02  3.183860E+03
       111   9  7.508437E+03  4.378023E+05  1.003388E+04 -2.649449E+04 -2.362470E+03  2.048228E+03
       111  10  1.310378E+04  4.325441E+05  1.417061E+04 -2.997507E+04  2.475958E-09  1.100291E-08
       111  11  5.066780E+02  4.027591E+05  4.660165E+03 -2.396315E+04  1.654088E-09 -3.602668E-09
       111  12 -7.400786E+03  3.746022E+05 -1.332599E+03 -2.556757E+04  5.534555E-09 -1.415244E-08
       111  13  6.503853E+03  4.062007E+05  7.539517E+03 -2.602603E+04  5.722900E-10 -7.209054E-10
       111  14  1.041293E+03  4.054947E+05  4.615510E+03 -2.222039E+04 -2.400368E-09 -1.664687E-09
       111  15  5.384928E+01  4.062017E+05  4.350648E+03 -2.603102E+04 -4.577024E-09 -9.976075E-11
       111  16 -9.606809E+01  3.798581E+05  9.083749E+02 -2.207716E+04 -1.831473E-09 -1.027032E-08
       111  17  1.575919E+03  4.082303E+05  4.570857E+03 -2.047762E+04  3.129715E-09  9.766187E-10
       111  18  7.508430E+03  4.378023E+05  1.003386E+04 -2.649448E+04  2.602361E-09  1.470150E-08
       111  19  1.310378E+04  4.325441E+05  1.417064E+04 -2.997507E+04  5.276891E+01 -3.464037E+03
       111  20  5.066786E+02  4.027591E+05  4.660167E+03 -2.396315E+04  7.759389E+02  1.454214E+02
       111  21 -7.400777E+03  3.746022E+05 -1.332562E+03 -2.556757E+04  2.357869E+03  3.755395E+03
       111  22  6.503857E+03  4.062008E+05  7.539546E+03 -2.602603E+04  5.308809E+01 -3.891429E+03
       111  23  1.041294E+03  4.054947E+05  4.615516E+03 -2.222039E+04  7.772607E+02 -1.519216E+03
       111  24  5.385546E+01  4.062017E+05  4.350660E+03 -2.603102E+04  2.360167E+03  8.536554E+02
       111  25 -9.606308E+01  3.798581E+05  9.084099E+02 -2.207716E+04  5.340185E+01 -4.318804E+03
       111  26  1.575922E+03  4.082303E+05  4.570878E+03 -2.047763E+04  7.785732E+02 -3.183860E+03
       111  27  7.508437E+03  4.378023E+05  1.003388E+04 -2.649449E+04  2.362470E+03 -2.048228E+03
       112   1 -1.192366E+04  3.548099E+05 -4.691989E+03 -2.647449E+04 -3.558499E+03 -4.417268E+03
       112   2 -1.882731E+04  3.254480E+05 -8.258511E+03 -2.207217E+04 -5.364508E+03 -7.383288E+03
       112   3 -2.416932E+04  2.968503E+05 -9.507768E+03 -2.532316E+04 -6.891137E+03 -1.034887E+04
       112   4  2.177145E+02  4.060724E+05  4.778532E+03 -2.603861E+04 -3.560698E+03 -1.611110E+03
       112   5  2.094366E+02  4.056547E+05  6.750274E+03 -2.221137E+04 -5.366302E+03 -4.980042E+03
       112   6  1.832603E+03  4.060701E+05  1.131867E+04 -2.603735E+04 -6.892540E+03 -8.348663E+03
       112   7  1.235894E+04  4.573375E+05  1.424897E+04 -2.560270E+04 -3.562893E+03  1.195274E+03
       112   8  1.924581E+04  4.858676E+05  2.175880E+04 -2.235058E+04 -5.368097E+03 -2.576492E+03
       112   9  2.783382E+04  5.153013E+05  3.214459E+04 -2.675166E+04 -6.893948E+03 -6.348117E+03
       112  10 -1.192367E+04  3.548099E+05 -4.692050E+03 -2.647450E+04  1.844369E-09  1.653754E-08
       112  11 -1.882736E+04  3.254479E+05 -8.258667E+03 -2.207220E+04  4.262880E-11 -2.072405E-09
       112  12 -2.416940E+04  2.968502E+05 -9.508059E+03 -2.532322E+04 -3.811737E-09 -1.602593E-08
       112  13  2.177002E+02  4.060724E+05  4.778503E+03 -2.603862E+04 -5.527908E-09 -8.107074E-10
       112  14  2.093990E+02  4.056546E+05  6.750173E+03 -2.221139E+04 -7.000909E-09 -1.685951E-09
       112  15  1.832533E+03  4.060700E+05  1.131845E+04 -2.603739E+04 -1.174393E-09 -1.455088E-10
       112  16  1.235893E+04  4.573375E+05  1.424895E+04 -2.560270E+04  6.167599E-09 -1.572189E-08
       112  17  1.924578E+04  4.858676E+05  2.175874E+04 -2.235059E+04  2.916421E-09 -4.308107E-10
       112  18  2.783376E+04  5.153012E+05  3.214442E+04 -2.675169E+04 -1.373368E-11  1.647531E-08
       112  19 -1.192366E+04  3.548099E+05 -4.691989E+03 -2.647449E+04  3.558499E+03  4.417268E+03
       112  20 -1.882731E+04  3.254480E+05 -8.258511E+03 -2.207217E+04  5.364508E+03  7.383288E+03
       112  21 -2.416932E+04  2.968503E+05 -9.507768E+03 -2.532316E+04  6.891137E+03  1.034887E+04
       112  22  2.177145E+02  4.060724E+05  4.778532E+03 -2.603861E+04  3.560698E+03  1.611110E+03
       112  23  2.094366E+02  4.056547E+05  6.750274E+03 -2.221137E+04  5.366302E+03  4.980042E+03
       112  24  1.832603E+03  4.060701E+05  1.131867E+04 -2.603735E+04  6.892540E+03  8.348663E+03
       112  25  1.235894E+04  4.573375E+05  1.424897E+04 -2.560270E+04  3.562893E+03 -1.195274E+03
       112  26  1.924581E+04  4.858676E+05  2.175880E+04 -2.235058E+04  5.368097E+03  2.576492E+03
       112  27  2.783382E+04  5.153013E+05  3.214459E+04 -2.675166E+04  6.893948E+03  6.348117E+03
       113   1 -3.071346E+04  2.789917E+05 -1.021170E+04 -3.016650E+04 -8.058729E+03 -1.312455E+04
       113   2 -3.041800E+04  2.456971E+05 -6.619300E+03 -1.041273E+04 -7.629824E+03 -1.950241E+04
       113   3  6.996755E+02  2.209314E+05  8.828835E+03  1.973159E+03 -2.404535E+03 -2.587670E+04
       113   4  1.708332E+01  4.080458E+05  1.447333E+04 -2.597960E+04 -8.060790E+03 -1.028340E+04
       113   5  7.525331E+03  4.031778E+05  2.557502E+04 -2.227956E+04 -7.626428E+03 -2.357314E+04
       113   6  4.704982E+04  4.080337E+05  5.332790E+04 -2.594659E+04 -2.395907E+03 -3.685967E+04
       113   7  3.074672E+04  5.371160E+05  3.915763E+04 -2.179180E+04 -8.062811E+03 -7.441671E+03
       113   8  4.546765E+04  5.606825E+05  5.776816E+04 -3.414945E+04 -7.622877E+03 -2.764488E+04
       113   9  9.340043E+04  5.951700E+05  9.782538E+04 -5.387479E+04 -2.386292E+03 -4.784592E+04
       113  10 -3.071358E+04  2.789915E+05 -1.021214E+04 -3.016659E+04 -1.267475E-09 -2.033447E-08
       113  11 -3.041817E+04  2.456966E+05 -6.620123E+03 -1.041285E+04  6.115384E-09 -2.250595E-09
       113  12  6.994896E+02  2.209306E+05  8.827567E+03  1.973109E+03  1.633609E-09  1.907278E-08
       113  13  1.698517E+01  4.080457E+05  1.447301E+04 -2.597967E+04  2.982374E-09 -8.518529E-10
       113  14  7.525120E+03  4.031772E+05  2.557387E+04 -2.227971E+04 -2.396738E-09 -1.399572E-09
       113  15  4.704945E+04  4.080322E+05  5.332533E+04 -2.594666E+04  1.896241E-09 -1.016292E-10
       113  16  3.074663E+04  5.371160E+05  3.915741E+04 -2.179185E+04  2.449913E-09  2.114308E-08
       113  17  4.546738E+04  5.606817E+05  5.776662E+04 -3.414962E+04  6.041018E-09 -6.048669E-11
       113  18  9.339981E+04  5.951676E+05  9.782107E+04 -5.387488E+04  2.255372E-09 -1.861129E-08
       113  19 -3.071346E+04  2.789917E+05 -1.021170E+04 -3.016650E+04  8.058729E+03  1.312455E+04
       113  20 -3.041800E+04  2.456971E+05 -6.619300E+03 -1.041273E+04  7.629824E+03  1.950241E+04
       113  21  6.996755E+02  2.209314E+05  8.828835E+03  1.973159E+03  2.404535E+03  2.587670E+04
       113  22  1.708332E+01  4.080458E+05  1.447333E+04 -2.597960E+04  8.060790E+03  1.028340E+04
       113  23  7.525331E+03  4.031778E+05  2.557502E+04 -2.227956E+04  7.626428E+03  2.357314E+04
       113  24  4.704982E+04  4.080337E+05  5.332790E+04 -2.594659E+04  2.395907E+03  3.685967E+04
       113  25  3.074672E+04  5.371160E+05  3.915763E+04 -2.179180E+04  8.062811E+03  7.441671E+03
       113  26  4.546765E+04  5.606825E+05  5.776816E+04 -3.414945E+04  7.622877E+03  2.764488E+04
       113  27  9.340043E+04  5.951700E+05  9.782538E+04 -5.387479E+04  2.386292E+03  4.784592E+04
       114   1  1.020576E+06  3.682093E+05  1.880153E+05  3.776884E+05  7.303323E+04  1.539563E+04
       114   2  9.671682E+05  3.347929E+05  1.339850E+05  3.611114E+05  4.735215E+04 -2.294920E+04
       114   3  9.147692E+05  3.160697E+05  1.081174E+05  3.515707E+05  1.516128E+04 -4.395443E+04
       114   4  2.949516E+05  9.479928E+04  3.256722E+03  1.769636E+05  6.091316E+03 -9.778251E+03
       114   5  2.976850E+05  8.960697E+04  1.539724E+03  1.739200E+05  1.475496E+04 -3.521503E+04
       114   6  2.946323E+05  9.231657E+04  8.074789E+02  1.779117E+05  1.690016E+04 -4.330532E+04
       114   7 -4.301186E+05 -1.785593E+05 -1.815167E+05 -2.353760E+04 -6.076226E+04 -3.491842E+04
       114   8 -3.713176E+05 -1.555319E+05 -1.309177E+05 -1.307995E+04 -1.780382E+04 -4.746630E+04
       114   9 -3.250960E+05 -1.313982E+05 -1.065133E+05  4.414910E+03  1.863720E+04 -4.265691E+04
       114  10  1.020570E+06  3.682076E+05  1.880048E+05  3.776875E+05  3.152445E-09  7.146547E-10
       114  11  9.671657E+05  3.347917E+05  1.339798E+05  3.611123E+05 -3.202342E-10 -2.024977E-09
       114  12  9.147685E+05  3.160676E+05  1.081133E+05  3.515713E+05  3.752478E-09 -4.128780E-10
       114  13  2.949515E+05  9.479916E+04  3.256472E+03  1.769636E+05  5.044657E-10 -4.704438E-12
       114  14  2.976844E+05  8.960558E+04  1.536984E+03  1.739204E+05 -4.877291E-09 -4.507754E-09
       114  15  2.946315E+05  9.231448E+04  8.034173E+02  1.779123E+05  1.148125E-09  1.693168E-10
       114  16 -4.301229E+05 -1.785616E+05 -1.815260E+05 -2.353931E+04 -1.793293E-09 -1.064505E-09
       114  17 -3.713186E+05 -1.555344E+05 -1.309225E+05 -1.308063E+04  3.514616E-10 -5.523899E-09
       114  18 -3.250969E+05 -1.314003E+05 -1.065174E+05  4.415551E+03  3.164685E-09 -4.370654E-09
       114  19  1.020576E+06  3.682093E+05  1.880153E+05  3.776884E+05 -7.303323E+04 -1.539563E+04
       114  20  9.671682E+05  3.347929E+05  1.339850E+05  3.611114E+05 -4.735215E+04  2.294920E+04
       114  21  9.147692E+05  3.160697E+05  1.081174E+05  3.515707E+05 -1.516128E+04  4.395443E+04
       114  22  2.949516E+05  9.479928E+04  3.256722E+03  1.769636E+05 -6.091316E+03  9.778251E+03
       114  23  2.976850E+05  8.960697E+04  1.539724E+03  1.739200E+05 -1.475496E+04  3.521503E+04
       114  24  2.946323E+05  9.231657E+04  8.074789E+02  1.779117E+05 -1.690016E+04  4.330532E+04
       114  25 -4.301186E+05 -1.785593E+05 -1.815167E+05 -2.353760E+04  6.076226E+04  3.491842E+04
       114  26 -3.713176E+05 -1.555319E+05 -1.309177E+05 -1.307995E+04  1.780382E+04  4.746630E+04
       114  27 -3.250960E+05 -1.313982E+05 -1.065133E+05  4.414910E+03 -1.863720E+04  4.265691E+04
       115   1  8.800364E+05  3.036328E+05  9.994441E+04  3.424311E+05  1.570964E+04 -4.258575E+04
       115   2  8.308376E+05  2.801698E+05  8.694645E+04  3.237130E+05  1.151308E+04 -4.272532E+04
       115   3  7.750792E+05  2.648712E+05  7.692262E+04  3.133639E+05  6.637980E+03 -4.106426E+04
       115   4  2.943515E+05  9.249030E+04  6.016291E+02  1.781100E+05  1.642566E+04 -4.232113E+04
       115   5  2.979858E+05  8.870435E+04  3.126065E+02  1.739508E+05  1.579533E+04 -4.111762E+04
       115   6  2.943532E+05  9.237764E+04  1.750940E+02  1.781601E+05  1.448587E+04 -3.811268E+04
       115   7 -2.909760E+05 -1.186205E+05 -9.875231E+04  1.393182E+04  1.714098E+04 -4.205678E+04
       115   8 -2.345655E+05 -1.027331E+05 -8.632822E+04  2.430813E+04  2.007371E+04 -3.951138E+04
       115   9 -1.861249E+05 -8.009189E+04 -7.657671E+04  4.305459E+04  2.232733E+04 -3.516353E+04
       115  10  8.800356E+05  3.036307E+05  9.994054E+04  3.424316E+05  5.819306E-08  2.167777E-08
       115  11  8.308370E+05  2.801678E+05  8.694277E+04  3.237134E+05  2.197896E-08  7.938717E-09
       115  12  7.750787E+05  2.648694E+05  7.691937E+04  3.133641E+05 -3.520470E-08 -1.660132E-08
       115  13  2.943507E+05  9.248830E+04  5.977556E+02  1.781105E+05  1.341422E-08  2.361920E-09
       115  14  2.979851E+05  8.870246E+04  3.089599E+02  1.739513E+05  1.877772E-08  1.477540E-09
       115  15  2.943526E+05  9.237602E+04  1.719695E+02  1.781606E+05  1.884684E-09 -9.859449E-10
       115  16 -2.909768E+05 -1.186225E+05 -9.875619E+04  1.393240E+04 -4.126505E-08 -1.598877E-08
       115  17 -2.345664E+05 -1.027349E+05 -8.633191E+04  2.430877E+04  1.570861E-08  7.536888E-09
       115  18 -1.861258E+05 -8.009335E+04 -7.657998E+04  4.305522E+04  4.317892E-08  1.817945E-08
       115  19  8.800364E+05  3.036328E+05  9.994441E+04  3.424311E+05 -1.570964E+04  4.258575E+04
       115  20  8.308376E+05  2.801698E+05  8.694645E+04  3.237130E+05 -1.151308E+04  4.272532E+04
       115  21  7.750792E+05  2.648712E+05  7.692262E+04  3.133639E+05 -6.637980E+03  4.106426E+04
       115  22  2.943515E+05  9.249030E+04  6.016291E+02  1.781100E+05 -1.642566E+04  4.232113E+04
       115  23  2.979858E+05  8.870435E+04  3.126065E+02  1.739508E+05 -1.579533E+04  4.111762E+04
       115  24  2.943532E+05  9.237764E+04  1.750940E+02  1.781601E+05 -1.448587E+04  3.811268E+04
       115  25 -2.909760E+05 -1.186205E+05 -9.875231E+04  1.393182E+04 -1.714098E+04  4.205678E+04
       115  26 -2.345655E+05 -1.027331E+05 -8.632822E+04  2.430813E+04 -2.007371E+04  3.951138E+04
       115  27 -1.861249E+05 -8.009189E+04 -7.657671E+04  4.305459E+04 -2.232733E+04  3.516353E+04
       116   1  7.417768E+05  2.529160E+05  7.116393E+04  3.040747E+05  5.835554E+03 -3.867302E+04
       116   2  6.931079E+05  2.303915E+05  6.252606E+04  2.851338E+05  3.922627E+03 -3.482474E+04
       116   3  6.371006E+05  2.153857E+05  5.421474E+04  2.746691E+05  1.938703E+03 -3.079108E+04
       116   4  2.943294E+05  9.240412E+04  1.329375E+02  1.781751E+05  1.357401E+04 -3.576178E+04
       116   5  2.980475E+05  8.869553E+04  7.956741E+01  1.739355E+05  1.202817E+04 -3.177398E+04
       116   6  2.943506E+05  9.243305E+04  6.145789E+01  1.781717E+05  1.041127E+04 -2.760071E+04
       116   7 -1.528977E+05 -6.808484E+04 -7.090012E+04  5.236200E+04  2.130649E+04 -3.285280E+04
       116   8 -9.684497E+04 -5.298402E+04 -6.236948E+04  6.280371E+04  2.012827E+04 -2.872527E+04
       116   9 -4.827700E+04 -3.050872E+04 -5.409474E+04  8.172318E+04  1.887898E+04 -2.441217E+04
       116  10  7.417763E+05  2.529144E+05  7.116105E+04  3.040749E+05  2.223832E-09 -2.855972E-09
       116  11  6.931076E+05  2.303902E+05  6.252375E+04  2.851339E+05 -8.693370E-09 -4.721823E-09
       116  12  6.371003E+05  2.153847E+05  5.421295E+04  2.746692E+05 -1.130352E-08 -1.528265E-09
       116  13  2.943288E+05  9.240269E+04  1.301874E+02  1.781754E+05 -6.789635E-09 -4.152740E-09
       116  14  2.980471E+05  8.869441E+04  7.739793E+01  1.739358E+05 -4.115324E-09 -4.857780E-09
       116  15  2.943502E+05  9.243220E+04  5.982233E+01  1.781719E+05 -4.109970E-09 -5.807284E-11
       116  16 -1.528985E+05 -6.808612E+04 -7.090300E+04  5.236256E+04 -1.896146E-08 -4.225078E-09
       116  17 -9.684563E+04 -5.298501E+04 -6.237179E+04  6.280418E+04 -6.161678E-09 -1.826535E-09
       116  18 -4.827754E+04 -3.050945E+04 -5.409653E+04  8.172355E+04  8.189368E-09  2.498288E-09
       116  19  7.417768E+05  2.529160E+05  7.116393E+04  3.040747E+05 -5.835554E+03  3.867302E+04
       116  20  6.931079E+05  2.303915E+05  6.252606E+04  2.851338E+05 -3.922627E+03  3.482474E+04
       116  21  6.371006E+05  2.153857E+05  5.421474E+04  2.746691E+05 -1.938703E+03  3.079108E+04
       116  22  2.943294E+05  9.240412E+04  1.329375E+02  1.781751E+05 -1.357401E+04  3.576178E+04
       116  23  2.980475E+05  8.869553E+04  7.956741E+01  1.739355E+05 -1.202817E+04  3.177398E+04
       116  24  2.943506E+05  9.243305E+04  6.145789E+01  1.781717E+05 -1.041127E+04  2.760071E+04
       116  25 -1.528977E+05 -6.808484E+04 -7.090012E+04  5.236200E+04 -2.130649E+04  3.285280E+04
       116  26 -9.684497E+04 -5.298402E+04 -6.236948E+04  6.280371E+04 -2.012827E+04  2.872527E+04
       116  27 -4.827700E+04 -3.050872E+04 -5.409474E+04  8.172318E+04 -1.887898E+04  2.441217E+04
       117   1  6.039837E+05  2.034815E+05  4.873419E+04  2.653701E+05  1.002064E+03 -2.829360E+04
       117   2  5.554271E+05  1.810479E+05  4.059654E+04  2.464150E+05 -6.803898E+02 -2.403740E+04
       117   3  4.994498E+05  1.660628E+05  3.251382E+04  2.359363E+05 -2.370110E+03 -1.976396E+04
       117   4  2.943513E+05  9.244008E+04  5.895724E+01  1.781698E+05  9.461122E+03 -2.510766E+04
       117   5  2.980726E+05  8.872952E+04  7.109050E+01  1.739304E+05  7.812592E+03 -2.083780E+04
       117   6  2.943632E+05  9.246024E+04  1.107637E+02  1.781663E+05  6.156794E+03 -1.655071E+04
       117   7 -1.517775E+04 -1.859117E+04 -4.861761E+04  9.101054E+04  1.791572E+04 -2.192340E+04
       117   8  4.079112E+04 -3.581260E+03 -4.045479E+04  1.014746E+05  1.630180E+04 -1.763962E+04
       117   9  8.932453E+04  1.886312E+04 -3.229207E+04  1.204149E+05  1.468062E+04 -1.333863E+04
       117  10  6.039835E+05  2.034807E+05  4.873268E+04  2.653701E+05  2.297138E-08  1.275161E-08
       117  11  5.554270E+05  1.810473E+05  4.059546E+04  2.464150E+05  2.449358E-09 -6.093782E-10
       117  12  4.994497E+05  1.660624E+05  3.251308E+04  2.359362E+05 -2.507322E-08 -2.212365E-08
       117  13  2.943510E+05  9.243937E+04  5.760415E+01  1.781700E+05  4.423152E-09  5.145794E-09
       117  14  2.980725E+05  8.872904E+04  7.015966E+01  1.739305E+05  4.621605E-09  7.840435E-09
       117  15  2.943631E+05  9.245994E+04  1.101776E+02  1.781663E+05  5.375444E-09  5.627311E-09
       117  16 -1.517823E+04 -1.859177E+04 -4.861912E+04  9.101086E+04 -2.275507E-08 -8.476021E-09
       117  17  4.079075E+04 -3.581665E+03 -4.045587E+04  1.014748E+05  8.143699E-09 -1.581241E-09
       117  18  8.932425E+04  1.886288E+04 -3.229281E+04  1.204150E+05  2.793396E-08 -6.769409E-10
       117  19  6.039837E+05  2.034815E+05  4.873419E+04  2.653701E+05 -1.002064E+03  2.829360E+04
       117  20  5.554271E+05  1.810479E+05  4.059654E+04  2.464150E+05  6.803898E+02  2.403740E+04
       117  21  4.994498E+05  1.660628E+05  3.251382E+04  2.359363E+05  2.370110E+03  1.976396E+04
       117  22  2.943513E+05  9.244008E+04  5.895724E+01  1.781698E+05 -9.461122E+03  2.510766E+04
       117  23  2.980726E+05  8.872952E+04  7.109050E+01  1.739304E+05 -7.812592E+03  2.083780E+04
       117  24  2.943632E+05  9.246024E+04  1.107637E+02  1.781663E+05 -6.156794E+03  1.655071E+04
       117  25 -1.517775E+04 -1.859117E+04 -4.861761E+04  9.101054E+04 -1.791572E+04  2.192340E+04
       117  26  4.079112E+04 -3.581260E+03 -4.045479E+04  1.014746E+05 -1.630180E+04  1.763962E+04
       117  27  8.932453E+04  1.886312E+04 -3.229207E+04  1.204149E+05 -1.468062E+04  1.333863E+04
       118   1  4.663755E+05  1.541627E+05  2.709275E+04  2.266416E+05 -3.334449E+03 -1.726282E+04
       118   2  4.178510E+05  1.317348E+05  1.908997E+04  2.076976E+05 -5.064432E+03 -1.299979E+04
       118   3  3.619059E+05  1.167496E+05  1.116822E+04  1.972278E+05 -6.791700E+03 -8.744910E+03
       118   4  2.943698E+05  9.246308E+04  1.428093E+02  1.781668E+05  5.190161E+03 -1.405006E+04
       118   5  2.980814E+05  8.874131E+04  2.498741E+02  1.739304E+05  3.443840E+03 -9.792749E+03
       118   6  2.943738E+05  9.246564E+04  4.509706E+02  1.781675E+05  1.700231E+03 -5.543615E+03
       118   7  1.223939E+05  3.076583E+04 -2.680790E+04  1.297041E+05  1.371237E+04 -1.083820E+04
       118   8  1.783266E+05  4.574909E+04 -1.859037E+04  1.401691E+05  1.195043E+04 -6.586346E+03
       118   9  2.268468E+05  6.818223E+04 -1.026606E+04  1.591091E+05  1.019119E+04 -2.342688E+03
       118  10  4.663754E+05  1.541624E+05  2.709217E+04  2.266416E+05 -3.539739E-08 -2.539169E-08
       118  11  4.178509E+05  1.317346E+05  1.908961E+04  2.076976E+05  2.995781E-09 -3.009245E-10
       118  12  3.619058E+05  1.167495E+05  1.116799E+04  1.972278E+05  4.140499E-08  1.355765E-08
       118  13  2.943697E+05  9.246286E+04  1.423876E+02  1.781669E+05  1.499076E-10  9.776960E-09
       118  14  2.980813E+05  8.874121E+04  2.496716E+02  1.739304E+05  1.022955E-08 -9.599982E-11
       118  15  2.943738E+05  9.246560E+04  4.509075E+02  1.781675E+05  4.597305E-10  5.849366E-09
       118  16  1.223937E+05  3.076565E+04 -2.680847E+04  1.297042E+05  3.226261E-08  2.585756E-09
       118  17  1.783265E+05  4.574901E+04 -1.859072E+04  1.401692E+05  1.084197E-10 -3.981495E-09
       118  18  2.268467E+05  6.818220E+04 -1.026627E+04  1.591091E+05 -4.798050E-08 -2.536808E-08
       118  19  4.663755E+05  1.541627E+05  2.709275E+04  2.266416E+05  3.334449E+03  1.726282E+04
       118  20  4.178510E+05  1.317348E+05  1.908997E+04  2.076976E+05  5.064432E+03  1.299979E+04
       118  21  3.619059E+05  1.167496E+05  1.116822E+04  1.972278E+05  6.791700E+03  8.744910E+03
       118  22  2.943698E+05  9.246308E+04  1.428093E+02  1.781668E+05 -5.190161E+03  1.405006E+04
       118  23  2.980814E+05  8.874131E+04  2.498741E+02  1.739304E+05 -3.443840E+03  9.792749E+03
       118  24  2.943738E+05  9.246564E+04  4.509706E+02  1.781675E+05 -1.700231E+03  5.543615E+03
       118  25  1.223939E+05  3.076583E+04 -2.680790E+04  1.297041E+05 -1.371237E+04  1.083820E+04
       118  26  1.783266E+05  4.574909E+04 -1.859037E+04  1.401691E+05 -1.195043E+04  6.586346E+03
       118  27  2.268468E+05  6.818223E+04 -1.026606E+04  1.591091E+05 -1.019119E+04  2.342688E+03
       119   1  3.288496E+05  1.048567E+05  5.858273E+03  1.879559E+05 -7.826040E+03 -6.277226E+03
       119   2  2.803189E+05  8.241444E+04 -1.838495E+03  1.689990E+05 -9.790434E+03 -2.165135E+03
       119   3  2.244309E+05  6.747674E+04 -9.247540E+03  1.585051E+05 -1.172022E+04  1.855532E+03
       119   4  2.943922E+05  9.246287E+04  6.006008E+02  1.781741E+05  6.705957E+02 -3.074063E+03
       119   5  2.980614E+05  8.874403E+04  1.089611E+03  1.739238E+05 -1.475124E+03  9.696004E+02
       119   6  2.944059E+05  9.256513E+04  2.009602E+03  1.781351E+05 -3.586281E+03  4.921848E+03
       119   7  2.599367E+05  8.006936E+04 -4.656667E+03  1.683929E+05  9.166638E+03  1.288738E+02
       119   8  3.158044E+05  9.507370E+04  4.018006E+03  1.788487E+05  6.840440E+03  4.104429E+03
       119   9  3.643871E+05  1.176544E+05  1.326715E+04  1.977675E+05  4.548724E+03  7.988563E+03
       119  10  3.288496E+05  1.048567E+05  5.858084E+03  1.879559E+05  1.148676E-08  5.353342E-09
       119  11  2.803188E+05  8.241441E+04 -1.838684E+03  1.689990E+05 -6.444571E-09 -3.497845E-09
       119  12  2.244307E+05  6.747670E+04 -9.247805E+03  1.585051E+05 -3.564327E-08 -1.951152E-08
       119  13  2.943922E+05  9.246286E+04  6.005822E+02  1.781741E+05  1.684314E-09 -7.432751E-10
       119  14  2.980614E+05  8.874403E+04  1.089605E+03  1.739238E+05  5.421223E-09  7.854275E-09
       119  15  2.944059E+05  9.256510E+04  2.009532E+03  1.781351E+05  3.084255E-09  1.206213E-08
       119  16  2.599366E+05  8.006934E+04 -4.656825E+03  1.683929E+05 -1.702517E-08 -1.181521E-08
       119  17  3.158044E+05  9.507367E+04  4.017886E+03  1.788487E+05  1.261514E-08  4.164320E-10
       119  18  3.643870E+05  1.176543E+05  1.326699E+04  1.977675E+05  3.013541E-08  8.965963E-09
       119  19  3.288496E+05  1.048567E+05  5.858273E+03  1.879559E+05  7.826040E+03  6.277226E+03
       119  20  2.803189E+05  8.241444E+04 -1.838495E+03  1.689990E+05  9.790434E+03  2.165135E+03
       119  21  2.244309E+05  6.747674E+04 -9.247540E+03  1.585051E+05  1.172022E+04 -1.855532E+03
       119  22  2.943922E+05  9.246287E+04  6.006008E+02  1.781741E+05 -6.705957E+02  3.074063E+03
       119  23  2.980614E+05  8.874403E+04  1.089611E+03  1.739238E+05  1.475124E+03 -9.696004E+02
       119  24  2.944059E+05  9.256513E+04  2.009602E+03  1.781351E+05  3.586281E+03 -4.921848E+03
       119  25  2.599367E+05  8.006936E+04 -4.656667E+03  1.683929E+05 -9.166638E+03 -1.288738E+02
       119  26  3.158044E+05  9.507370E+04  4.018006E+03  1.788487E+05 -6.840440E+03 -4.104429E+03
       119  27  3.643871E+05  1.176544E+05  1.326715E+04  1.977675E+05 -4.548724E+03 -7.988563E+03
       120   1  1.913325E+05  5.567668E+04 -1.414502E+04  1.493922E+05 -1.305438E+04  4.132661E+03
       120   2  1.432244E+05  3.304379E+04 -2.084146E+04  1.296069E+05 -1.520169E+04  7.546722E+03
       120   3  8.828328E+04  1.900514E+04 -2.664859E+04  1.179485E+05 -1.701656E+04  1.007992E+04
       120   4  2.945473E+05  9.257487E+04  2.685894E+03  1.781734E+05 -4.868391E+03  7.218443E+03
       120   5  2.979634E+05  8.932653E+04  4.951776E+03  1.736491E+05 -8.759141E+03  9.974819E+03
       120   6  2.948885E+05  9.501692E+04  9.487751E+03  1.772504E+05 -1.231754E+04  1.185044E+04
       120   7  3.977736E+05  1.294742E+05  1.951685E+04  2.069591E+05  3.319038E+03  1.030476E+04
       120   8  4.527270E+05  1.456115E+05  3.074433E+04  2.177015E+05 -2.314923E+03  1.240356E+04
       120   9  5.015366E+05  1.710324E+05  4.562220E+04  2.365702E+05 -7.616905E+03  1.362158E+04
       120  10  1.913323E+05  5.567661E+04 -1.414537E+04  1.493922E+05  3.035198E-08  2.394824E-09
       120  11  1.432241E+05  3.304367E+04 -2.084200E+04  1.296070E+05  1.367757E-08  3.069820E-09
       120  12  8.828294E+04  1.900496E+04 -2.664932E+04  1.179486E+05 -1.321974E-08 -6.328651E-09
       120  13  2.945473E+05  9.257481E+04  2.685751E+03  1.781734E+05  2.325227E-09  1.112989E-08
       120  14  2.979633E+05  8.932640E+04  4.951444E+03  1.736492E+05  8.494468E-09  1.266857E-08
       120  15  2.948883E+05  9.501673E+04  9.487202E+03  1.772505E+05  7.406275E-09  1.232760E-09
       120  16  3.977735E+05  1.294740E+05  1.951663E+04  2.069591E+05 -3.214906E-08 -1.364570E-08
       120  17  4.527270E+05  1.456113E+05  3.074403E+04  2.177015E+05  3.681792E-09  1.058664E-10
       120  18  5.015365E+05  1.710322E+05  4.562175E+04  2.365702E+05  3.059108E-08  8.956442E-09
       120  19  1.913325E+05  5.567668E+04 -1.414502E+04  1.493922E+05  1.305438E+04 -4.132661E+03
       120  20  1.432244E+05  3.304379E+04 -2.084146E+04  1.296069E+05  1.520169E+04 -7.546722E+03
       120  21  8.828328E+04  1.900514E+04 -2.664859E+04  1.179485E+05  1.701656E+04 -1.007992E+04
       120  22  2.945473E+05  9.257487E+04  2.685894E+03  1.781734E+05  4.868391E+03 -7.218443E+03
       120  23  2.979634E+05  8.932653E+04  4.951776E+03  1.736491E+05  8.759141E+03 -9.974819E+03
       120  24  2.948885E+05  9.501692E+04  9.487751E+03  1.772504E+05  1.231754E+04 -1.185044E+04
       120  25  3.977736E+05  1.294742E+05  1.951685E+04  2.069591E+05 -3.319038E+03 -1.030476E+04
       120  26  4.527270E+05  1.456115E+05  3.074433E+04  2.177015E+05  2.314923E+03 -1.240356E+04
       120  27  5.015366E+05  1.710324E+05  4.562220E+04  2.365702E+05  7.616905E+03 -1.362158E+04
       121   1  5.468617E+04  8.679716E+03 -3.007898E+04  1.105813E+05 -1.961701E+04  1.113043E+04
       121   2  1.547484E+04 -1.657937E+04 -3.481012E+04  7.620330E+04 -1.488220E+04  1.107816E+04
       121   3 -2.410434E+04 -1.616863E+04 -3.742633E+04  4.441931E+04 -6.955073E+03  2.549199E+03
       121   4  2.964137E+05  9.546955E+04  1.272831E+04  1.775268E+05 -1.442032E+04  1.308827E+04
       121   5  2.976969E+05  1.004456E+05  2.441238E+04  1.688905E+05 -2.645135E+04  6.717577E+03
       121   6  3.019277E+05  1.344059E+05  5.149361E+04  1.628487E+05 -3.529123E+04 -8.127580E+03
       121   7  5.382071E+05  1.822664E+05  5.553496E+04  2.444975E+05 -9.221392E+03  1.504695E+04
       121   8  5.800013E+05  2.174839E+05  8.363105E+04  2.616188E+05 -3.802611E+04  2.354239E+03
       121   9  6.280602E+05  2.850015E+05  1.404054E+05  2.813376E+05 -6.364298E+04 -1.881347E+04
       121  10  5.468572E+04  8.679479E+03 -3.007994E+04  1.105815E+05  5.056067E-09  3.201805E-09
       121  11  1.547457E+04 -1.657956E+04 -3.481076E+04  7.620343E+04  4.360127E-09  1.319629E-09
       121  12 -2.410439E+04 -1.616865E+04 -3.742643E+04  4.441933E+04  3.588723E-09  8.098522E-10
       121  13  2.964135E+05  9.546931E+04  1.272760E+04  1.775269E+05  7.051356E-09  5.706808E-09
       121  14  2.976961E+05  1.004454E+05  2.441099E+04  1.688907E+05  3.334687E-09  2.340980E-10
       121  15  3.019263E+05  1.344055E+05  5.149114E+04  1.628484E+05  1.389578E-09  2.360015E-09
       121  16  5.382070E+05  1.822661E+05  5.553438E+04  2.444976E+05  1.023071E-08  6.636202E-10
       121  17  5.799997E+05  2.174835E+05  8.362833E+04  2.616189E+05  7.740837E-09  2.714658E-09
       121  18  6.280558E+05  2.850000E+05  1.403972E+05  2.813367E+05  5.128490E-10 -2.780971E-10
       121  19  5.468617E+04  8.679716E+03 -3.007898E+04  1.105813E+05  1.961701E+04 -1.113043E+04
       121  20  1.547484E+04 -1.657937E+04 -3.481012E+04  7.620330E+04  1.488220E+04 -1.107816E+04
       121  21 -2.410434E+04 -1.616863E+04 -3.742633E+04  4.441931E+04  6.955073E+03 -2.549199E+03
       121  22  2.964137E+05  9.546955E+04  1.272831E+04  1.775268E+05  1.442032E+04 -1.308827E+04
       121  23  2.976969E+05  1.004456E+05  2.441238E+04  1.688905E+05  2.645135E+04 -6.717577E+03
       121  24  3.019277E+05  1.344059E+05  5.149361E+04  1.628487E+05  3.529123E+04  8.127580E+03
       121  25  5.382071E+05  1.822664E+05  5.553496E+04  2.444975E+05  9.221392E+03 -1.504695E+04
       121  26  5.800013E+05  2.174839E+05  8.363105E+04  2.616188E+05  3.802611E+04 -2.354239E+03
       121  27  6.280602E+05  2.850015E+05  1.404054E+05  2.813376E+05  6.364298E+04  1.881347E+04
       122   1 -2.573524E+05 -1.298163E+06 -3.007231E+05  7.157781E+04 -2.932234E+03 -1.301303E+05
       122   2 -6.158568E+04 -1.204547E+06 -1.771275E+05  1.070354E+04 -8.596895E+03 -7.991719E+04
       122   3 -7.120416E+04 -1.168242E+06 -1.375017E+05  2.208297E+04 -6.001453E+03 -2.968558E+04
       122   4 -1.496146E+05 -8.678266E+05 -1.936601E+05  3.737629E+04 -2.930877E+03 -1.269291E+05
       122   5  2.945950E+04 -8.393964E+05 -8.763114E+04  1.386005E+03 -8.596117E+03 -7.945836E+04
       122   6  3.689957E+03 -8.677668E+05 -6.362467E+04  3.765087E+04 -5.999355E+03 -3.197459E+04
       122   7 -4.188646E+04 -4.373191E+05 -8.661037E+04  3.151066E+03 -2.929875E+03 -1.237257E+05
       122   8  1.204951E+05 -4.741236E+05  1.855479E+03 -7.936985E+03 -8.595352E+03 -7.899925E+04
       122   9  7.857828E+04 -5.672082E+05  1.024586E+04  5.322634E+04 -5.997372E+03 -3.426470E+04
       122  10 -2.573569E+05 -1.298182E+06 -3.007550E+05  7.157750E+04 -2.452951E-09 -1.442795E-09
       122  11 -6.158748E+04 -1.204554E+06 -1.771397E+05  1.070299E+04 -9.485844E-09 -1.461746E-09
       122  12 -7.120443E+04 -1.168243E+06 -1.375034E+05  2.208283E+04 -1.283158E-09  2.257185E-10
       122  13 -1.496190E+05 -8.678440E+05 -1.936904E+05  3.737599E+04 -9.628298E-10  1.138478E-09
       122  14  2.945773E+04 -8.394032E+05 -8.764316E+04  1.385455E+03 -4.064362E-09  1.373731E-09
       122  15  3.689643E+03 -8.677679E+05 -6.362666E+04  3.765071E+04 -3.913002E-09  6.364082E-10
       122  16 -4.189058E+04 -4.373356E+05 -8.663917E+04  3.150774E+03 -3.211636E-10  4.004049E-09
       122  17  1.204933E+05 -4.741303E+05  1.843603E+03 -7.937532E+03 -4.274798E-09 -6.953402E-10
       122  18  7.857792E+04 -5.672095E+05  1.024359E+04  5.322618E+04 -5.732631E-09  2.522053E-10
       122  19 -2.573524E+05 -1.298163E+06 -3.007231E+05  7.157781E+04  2.932234E+03  1.301303E+05
       122  20 -6.158568E+04 -1.204547E+06 -1.771275E+05  1.070354E+04  8.596895E+03  7.991719E+04
       122  21 -7.120416E+04 -1.168242E+06 -1.375017E+05  2.208297E+04  6.001453E+03  2.968558E+04
       122  22 -1.496146E+05 -8.678266E+05 -1.936601E+05  3.737629E+04  2.930877E+03  1.269291E+05
       122  23  2.945950E+04 -8.393964E+05 -8.763114E+04  1.386005E+03  8.596117E+03  7.945836E+04
       122  24  3.689957E+03 -8.677668E+05 -6.362467E+04  3.765087E+04  5.999355E+03  3.197459E+04
       122  25 -4.188646E+04 -4.373191E+05 -8.661037E+04  3.151066E+03  2.929875E+03  1.237257E+05
       122  26  1.204951E+05 -4.741236E+05  1.855479E+03 -7.936985E+03  8.595352E+03  7.899925E+04
       122  27  7.857828E+04 -5.672082E+05  1.024586E+04  5.322634E+04  5.997372E+03  3.426470E+04
       123   1 -5.574671E+04 -1.007413E+06 -9.372931E+04  4.440173E+04 -3.301123E+03 -2.082633E+04
       123   2 -1.260297E+04 -9.327896E+05 -6.433377E+04  8.731221E+02 -1.800704E+03  2.193639E+03
       123   3 -2.412890E+04 -8.746285E+05 -6.356661E+04  3.157799E+04  3.625750E+00  2.521590E+04
       123   4 -1.868121E+04 -8.587923E+05 -5.725788E+04  3.799957E+04 -3.300375E+03 -2.128994E+04
       123   5  7.893665E+03 -8.505694E+05 -4.415134E+04  8.832287E+02 -1.800125E+03  1.631688E+03
       123   6 -2.017977E+04 -8.587931E+05 -5.960121E+04  3.800044E+04  4.483045E+00  2.455316E+04
       123   7  1.838279E+04 -7.101518E+05 -2.078805E+04  3.159588E+04 -3.299618E+03 -2.175366E+04
       123   8  2.838980E+04 -7.683430E+05 -2.396941E+04  8.933383E+02 -1.799546E+03  1.069662E+03
       123   9 -1.623051E+04 -8.429575E+05 -5.563580E+04  4.442305E+04  5.326598E+00  2.389042E+04
       123  10 -5.574684E+04 -1.007413E+06 -9.373015E+04  4.440168E+04  2.394504E-09  2.139076E-09
       123  11 -1.260298E+04 -9.327896E+05 -6.433379E+04  8.731253E+02  4.250777E-09 -1.280468E-10
       123  12 -2.412907E+04 -8.746292E+05 -6.356781E+04  3.157799E+04  1.833643E-10 -1.248699E-09
       123  13 -1.868135E+04 -8.587928E+05 -5.725876E+04  3.799952E+04 -6.385668E-10  1.075834E-09
       123  14  7.893661E+03 -8.505694E+05 -4.415136E+04  8.832311E+02 -2.142929E-09  5.991820E-10
       123  15 -2.017994E+04 -8.587938E+05 -5.960234E+04  3.800044E+04 -3.567617E-10  1.786072E-09
       123  16  1.838265E+04 -7.101523E+05 -2.078896E+04  3.159582E+04 -2.935700E-09 -1.671347E-10
       123  17  2.838980E+04 -7.683430E+05 -2.396942E+04  8.933398E+02  1.912355E-09 -1.634325E-09
       123  18 -1.623066E+04 -8.429581E+05 -5.563687E+04  4.442305E+04  4.809786E-09  2.261742E-09
       123  19 -5.574671E+04 -1.007413E+06 -9.372931E+04  4.440173E+04  3.301123E+03  2.082633E+04
       123  20 -1.260297E+04 -9.327896E+05 -6.433377E+04  8.731221E+02  1.800704E+03 -2.193639E+03
       123  21 -2.412890E+04 -8.746285E+05 -6.356661E+04  3.157799E+04 -3.625749E+00 -2.521590E+04
       123  22 -1.868121E+04 -8.587923E+05 -5.725788E+04  3.799957E+04  3.300375E+03  2.128994E+04
       123  23  7.893665E+03 -8.505694E+05 -4.415134E+04  8.832287E+02  1.800125E+03 -1.631688E+03
       123  24 -2.017977E+04 -8.587931E+05 -5.960121E+04  3.800044E+04 -4.483045E+00 -2.455316E+04
       123  25  1.838279E+04 -7.101518E+05 -2.078805E+04  3.159588E+04  3.299618E+03  2.175366E+04
       123  26  2.838980E+04 -7.683430E+05 -2.396941E+04  8.933383E+02  1.799546E+03 -1.069662E+03
       123  27 -1.623051E+04 -8.429575E+05 -5.563580E+04  4.442305E+04 -5.326598E+00 -2.389042E+04
       124   1  3.857277E+04 -7.314937E+05 -3.311109E+04  5.478442E+04  2.368912E+03  3.752885E+04
       124   2  8.225708E+04 -6.350692E+05 -4.381379E+04 -8.715495E+03  4.851665E+03  8.638477E+04
       124   3 -9.345700E+04 -5.995411E+05 -1.411189E+05  1.323395E+03  1.743411E+03  1.352398E+05
       124   4  4.375623E+03 -8.687396E+05 -6.692001E+04  3.791953E+04  2.369591E+03  3.573366E+04
       124   5  3.163623E+04 -8.381464E+05 -9.354847E+04  1.041805E+03  4.853029E+03  8.645053E+04
       124   6 -1.608673E+05 -8.688036E+05 -2.080964E+05  3.770557E+04  1.748847E+03  1.371612E+05
       124   7 -2.982185E+04 -1.005968E+06 -1.007301E+05  2.105838E+04  2.370368E+03  3.393887E+04
       124   8 -1.898732E+04 -1.041186E+06 -1.432861E+05  1.079591E+04  4.854395E+03  8.651626E+04
       124   9 -2.282782E+05 -1.137997E+06 -2.750785E+05  7.407196E+04  1.754511E+03  1.390817E+05
       124  10  3.857239E+04 -7.314952E+05 -3.311376E+04  5.478435E+04  1.223198E-09  5.407523E-10
       124  11  8.225505E+04 -6.350772E+05 -4.382788E+04 -8.715832E+03 -8.953363E-11 -1.770757E-09
       124  12 -9.346192E+04 -5.995608E+05 -1.411533E+05  1.323205E+03 -9.268481E-10 -1.451820E-09
       124  13  4.375273E+03 -8.687410E+05 -6.692242E+04  3.791946E+04  3.942136E-09  1.161324E-09
       124  14  3.163420E+04 -8.381544E+05 -9.356258E+04  1.041467E+03  9.267443E-09  1.009204E-09
       124  15 -1.608724E+05 -8.688239E+05 -2.081318E+05  3.770538E+04  4.500809E-10  1.057303E-09
       124  16 -2.982217E+04 -1.005969E+06 -1.007323E+05  2.105832E+04  1.033175E-09  9.410385E-10
       124  17 -1.898936E+04 -1.041194E+06 -1.433002E+05  1.079558E+04  3.081136E-09  2.480089E-10
       124  18 -2.282834E+05 -1.138018E+06 -2.751150E+05  7.407176E+04 -1.014497E-09  1.652343E-09
       124  19  3.857277E+04 -7.314937E+05 -3.311109E+04  5.478442E+04 -2.368912E+03 -3.752885E+04
       124  20  8.225708E+04 -6.350692E+05 -4.381379E+04 -8.715495E+03 -4.851665E+03 -8.638477E+04
       124  21 -9.345700E+04 -5.995411E+05 -1.411189E+05  1.323395E+03 -1.743411E+03 -1.352398E+05
       124  22  4.375623E+03 -8.687396E+05 -6.692001E+04  3.791953E+04 -2.369591E+03 -3.573366E+04
       124  23  3.163623E+04 -8.381464E+05 -9.354847E+04  1.041805E+03 -4.853029E+03 -8.645053E+04
       124  24 -1.608673E+05 -8.688036E+05 -2.080964E+05  3.770557E+04 -1.748847E+03 -1.371612E+05
       124  25 -2.982185E+04 -1.005968E+06 -1.007301E+05  2.105838E+04 -2.370368E+03 -3.393887E+04
       124  26 -1.898732E+04 -1.041186E+06 -1.432861E+05  1.079591E+04 -4.854395E+03 -8.651626E+04
       124  27 -2.282782E+05 -1.137997E+06 -2.750785E+05  7.407196E+04 -1.754511E+03 -1.390817E+05
       125   1  4.283751E+05  1.437956E+05  8.959361E+04  1.576922E+05  4.758347E+04  1.721302E+04
       125   2  4.125736E+05  6.931197E+04  4.401037E+04  1.606703E+05  3.056131E+04  9.410007E+03
       125   3  4.184088E+05  6.522405E+04  2.929732E+04  1.527014E+05  1.294031E+04  3.194979E+03
       125   4  3.791851E+05  1.082433E+05  7.289217E+04  1.268854E+05  4.654600E+04  1.681994E+04
       125   5  3.646387E+05  4.633702E+04  3.051932E+04  1.424695E+05  3.034592E+04  9.328421E+03
       125   6  3.715684E+05  5.466609E+04  1.836735E+04  1.471061E+05  1.354682E+04  3.424033E+03
       125   7  3.299986E+05  7.269402E+04  5.619074E+04  9.608176E+04  4.550862E+04  1.642698E+04
       125   8  3.167063E+05  2.336272E+04  1.702809E+04  1.242702E+05  3.013055E+04  9.246847E+03
       125   9  3.247299E+05  4.410803E+04  7.437209E+03  1.415109E+05  1.415328E+04  3.653086E+03
       125  10  4.283726E+05  1.437947E+05  8.958881E+04  1.576916E+05  3.684746E-09  2.977765E-09
       125  11  4.125726E+05  6.931163E+04  4.400845E+04  1.606701E+05  4.606892E-09  5.108053E-09
       125  12  4.184086E+05  6.522400E+04  2.929699E+04  1.527014E+05 -8.598399E-11 -2.107748E-09
       125  13  3.791827E+05  1.082424E+05  7.288757E+04  1.268848E+05 -1.363656E-09 -1.526274E-09
       125  14  3.646377E+05  4.633668E+04  3.051742E+04  1.424693E+05  8.466487E-09 -3.452627E-09
       125  15  3.715681E+05  5.466603E+04  1.836698E+04  1.471060E+05  3.300177E-09 -9.304464E-10
       125  16  3.299963E+05  7.269318E+04  5.618634E+04  9.608115E+04 -2.504025E-09 -5.825436E-10
       125  17  3.167053E+05  2.336239E+04  1.702623E+04  1.242700E+05  4.728365E-09  5.707660E-09
       125  18  3.247297E+05  4.410796E+04  7.436808E+03  1.415109E+05  3.505679E-10 -1.145826E-09
       125  19  4.283751E+05  1.437956E+05  8.959361E+04  1.576922E+05 -4.758347E+04 -1.721302E+04
       125  20  4.125736E+05  6.931197E+04  4.401037E+04  1.606703E+05 -3.056131E+04 -9.410007E+03
       125  21  4.184088E+05  6.522405E+04  2.929732E+04  1.527014E+05 -1.294031E+04 -3.194979E+03
       125  22  3.791851E+05  1.082433E+05  7.289217E+04  1.268854E+05 -4.654600E+04 -1.681994E+04
       125  23  3.646387E+05  4.633702E+04  3.051932E+04  1.424695E+05 -3.034592E+04 -9.328421E+03
       125  24  3.715684E+05  5.466609E+04  1.836735E+04  1.471061E+05 -1.354682E+04 -3.424033E+03
       125  25  3.299986E+05  7.269402E+04  5.619074E+04  9.608176E+04 -4.550862E+04 -1.642698E+04
       125  26  3.167063E+05  2.336272E+04  1.702809E+04  1.242702E+05 -3.013055E+04 -9.246847E+03
       125  27  3.247299E+05  4.410803E+04  7.437209E+03  1.415109E+05 -1.415328E+04 -3.653086E+03
       126   1  3.968700E+05  7.406192E+04  2.247209E+04  1.520244E+05  1.064438E+04  2.878799E+03
       126   2  3.886043E+05  6.075006E+04  1.218942E+04  1.472716E+05  6.724115E+03  1.768907E+03
       126   3  3.781774E+05  5.944900E+04  6.585059E+03  1.467797E+05  2.760565E+03  7.739821E+02
       126   4  3.692060E+05  6.205865E+04  1.490928E+04  1.428119E+05  1.078169E+04  2.930582E+03
       126   5  3.699003E+05  5.329983E+04  7.208796E+03  1.417232E+05  6.921015E+03  1.843212E+03
       126   6  3.684217E+05  5.654010E+04  4.139587E+03  1.448953E+05  3.017001E+03  8.707706E+02
       126   7  3.415428E+05  5.005550E+04  7.346399E+03  1.335997E+05  1.091899E+04  2.982362E+03
       126   8  3.511967E+05  4.584965E+04  2.228149E+03  1.361749E+05  7.117908E+03  1.917513E+03
       126   9  3.586661E+05  5.363122E+04  1.694115E+03  1.430110E+05  3.273432E+03  9.675580E+02
       126  10  3.968698E+05  7.406188E+04  2.247186E+04  1.520244E+05 -4.211518E-10 -1.374954E-09
       126  11  3.886042E+05  6.075005E+04  1.218933E+04  1.472716E+05  4.813426E-09  5.568883E-09
       126  12  3.781774E+05  5.944899E+04  6.585044E+03  1.467797E+05  7.871163E-09  6.148190E-09
       126  13  3.692059E+05  6.205861E+04  1.490904E+04  1.428119E+05 -2.860421E-10 -1.220997E-09
       126  14  3.699003E+05  5.329982E+04  7.208700E+03  1.417232E+05 -1.314061E-09 -7.333963E-09
       126  15  3.684217E+05  5.654010E+04  4.139568E+03  1.448953E+05  3.178933E-09  9.070014E-09
       126  16  3.415426E+05  5.005546E+04  7.346159E+03  1.335997E+05  3.315370E-09 -6.955441E-09
       126  17  3.511967E+05  4.584963E+04  2.228047E+03  1.361749E+05  8.776800E-10 -2.191324E-09
       126  18  3.586661E+05  5.363122E+04  1.694093E+03  1.430110E+05 -2.412191E-09 -6.150935E-11
       126  19  3.968700E+05  7.406192E+04  2.247209E+04  1.520244E+05 -1.064438E+04 -2.878799E+03
       126  20  3.886043E+05  6.075006E+04  1.218942E+04  1.472716E+05 -6.724115E+03 -1.768907E+03
       126  21  3.781774E+05  5.944900E+04  6.585059E+03  1.467797E+05 -2.760565E+03 -7.739821E+02
       126  22  3.692060E+05  6.205865E+04  1.490928E+04  1.428119E+05 -1.078169E+04 -2.930582E+03
       126  23  3.699003E+05  5.329983E+04  7.208796E+03  1.417232E+05 -6.921015E+03 -1.843212E+03
       126  24  3.684217E+05  5.654010E+04  4.139587E+03  1.448953E+05 -3.017001E+03 -8.707706E+02
       126  25  3.415428E+05  5.005550E+04  7.346399E+03  1.335997E+05 -1.091899E+04 -2.982362E+03
       126  26  3.511967E+05  4.584965E+04  2.228149E+03  1.361749E+05 -7.117908E+03 -1.917513E+03
       126  27  3.586661E+05  5.363122E+04  1.694115E+03  1.430110E+05 -3.273432E+03 -9.675580E+02
       127   1  3.644004E+05  5.599815E+04  2.236716E+03  1.435454E+05  2.097457E+03  8.366784E+02
       127   2  3.570495E+05  4.899787E+04 -1.831360E+03  1.379886E+05  1.070991E+03  9.454977E+02
       127   3  3.448685E+05  4.791509E+04 -5.066880E+03  1.381988E+05  4.122685E+01  1.063104E+03
       127   4  3.681294E+05  5.728421E+04  3.224797E+03  1.444390E+05  2.319821E+03  9.206033E+02
       127   5  3.705050E+05  5.404642E+04  1.693376E+03  1.416610E+05  1.297894E+03  1.031133E+03
       127   6  3.680500E+05  5.672530E+04  9.909836E+02  1.446500E+05  2.726563E+02  1.150445E+03
       127   7  3.718583E+05  5.857027E+04  4.212879E+03  1.453327E+05  2.542187E+03  1.004529E+03
       127   8  3.839608E+05  5.909499E+04  5.218103E+03  1.453335E+05  1.524803E+03  1.116770E+03
       127   9  3.912320E+05  6.553556E+04  7.048803E+03  1.511015E+05  5.040952E+02  1.237788E+03
       127  10  3.644004E+05  5.599815E+04  2.236707E+03  1.435454E+05 -6.127565E-10 -5.600650E-09
       127  11  3.570495E+05  4.899787E+04 -1.831364E+03  1.379886E+05 -2.154670E-09 -1.037969E-08
       127  12  3.448685E+05  4.791509E+04 -5.066882E+03  1.381988E+05  1.343690E-09  3.751770E-10
       127  13  3.681294E+05  5.728421E+04  3.224785E+03  1.444390E+05  3.284572E-09  5.672216E-09
       127  14  3.705050E+05  5.404642E+04  1.693371E+03  1.416610E+05 -4.350002E-09 -1.682359E-09
       127  15  3.680500E+05  5.672530E+04  9.909810E+02  1.446500E+05 -3.562778E-09  1.681761E-09
       127  16  3.718583E+05  5.857027E+04  4.212865E+03  1.453326E+05  8.545534E-09  5.830436E-09
       127  17  3.839608E+05  5.909499E+04  5.218096E+03  1.453335E+05  1.925825E-09  1.099165E-08
       127  18  3.912320E+05  6.553555E+04  7.048799E+03  1.511015E+05 -1.845688E-09  8.374070E-09
       127  19  3.644004E+05  5.599815E+04  2.236716E+03  1.435454E+05 -2.097457E+03 -8.366784E+02
       127  20  3.570495E+05  4.899787E+04 -1.831360E+03  1.379886E+05 -1.070991E+03 -9.454977E+02
       127  21  3.448685E+05  4.791509E+04 -5.066880E+03  1.381988E+05 -4.122685E+01 -1.063104E+03
       127  22  3.681294E+05  5.728421E+04  3.224797E+03  1.444390E+05 -2.319821E+03 -9.206033E+02
       127  23  3.705050E+05  5.404642E+04  1.693376E+03  1.416610E+05 -1.297894E+03 -1.031133E+03
       127  24  3.680500E+05  5.672530E+04  9.909836E+02  1.446500E+05 -2.726563E+02 -1.150445E+03
       127  25  3.718583E+05  5.857027E+04  4.212879E+03  1.453327E+05 -2.542187E+03 -1.004529E+03
       127  26  3.839608E+05  5.909499E+04  5.218103E+03  1.453335E+05 -1.524803E+03 -1.116770E+03
       127  27  3.912320E+05  6.553556E+04  7.048803E+03  1.511015E+05 -5.040952E+02 -1.237788E+03
       128   1  3.318967E+05  4.320446E+04 -8.714898E+03  1.347116E+05 -2.007576E+02  1.268259E+03
       128   2  3.246238E+05  3.681022E+04 -1.152673E+04  1.290398E+05 -6.323469E+02  1.612962E+03
       128   3  3.121861E+05  3.573792E+04 -1.411896E+04  1.293076E+05 -1.064620E+03  1.959649E+03
       128   4  3.680053E+05  5.680281E+04  7.891046E+02  1.446091E+05  2.850202E+01  1.354774E+03
       128   5  3.705844E+05  5.411799E+04  5.247914E+02  1.416484E+05 -4.020843E+02  1.699842E+03
       128   6  3.679983E+05  5.675485E+04  4.792943E+02  1.446271E+05 -8.333598E+02  2.046894E+03
       128   7  4.041151E+05  7.040120E+04  1.029297E+04  1.545071E+05  2.577756E+02  1.441295E+03
       128   8  4.165470E+05  7.142589E+04  1.257613E+04  1.542578E+05 -1.718030E+02  1.786730E+03
       128   9  4.238137E+05  7.777204E+04  1.507733E+04  1.599479E+05 -6.020765E+02  2.134147E+03
       128  10  3.318967E+05  4.320446E+04 -8.714901E+03  1.347116E+05  1.568599E-09 -5.988832E-10
       128  11  3.246238E+05  3.681022E+04 -1.152674E+04  1.290398E+05  2.114064E-10 -5.455368E-09
       128  12  3.121861E+05  3.573792E+04 -1.411897E+04  1.293076E+05 -2.964697E-09 -5.989954E-11
       128  13  3.680053E+05  5.680281E+04  7.891011E+02  1.446091E+05 -2.487852E-09 -1.989559E-10
       128  14  3.705844E+05  5.411799E+04  5.247856E+02  1.416484E+05 -1.792415E-09 -7.129048E-09
       128  15  3.679983E+05  5.675485E+04  4.792851E+02  1.446271E+05 -1.320420E-09 -7.250739E-09
       128  16  4.041151E+05  7.040119E+04  1.029296E+04  1.545071E+05 -2.045818E-09  4.420537E-09
       128  17  4.165470E+05  7.142589E+04  1.257613E+04  1.542578E+05 -1.278276E-09  2.540910E-09
       128  18  4.238137E+05  7.777203E+04  1.507732E+04  1.599479E+05  3.523111E-09 -7.130977E-10
       128  19  3.318967E+05  4.320446E+04 -8.714898E+03  1.347116E+05  2.007576E+02 -1.268259E+03
       128  20  3.246238E+05  3.681022E+04 -1.152673E+04  1.290398E+05  6.323469E+02 -1.612962E+03
       128  21  3.121861E+05  3.573792E+04 -1.411896E+04  1.293076E+05  1.064620E+03 -1.959649E+03
       128  22  3.680053E+05  5.680281E+04  7.891046E+02  1.446091E+05 -2.850202E+01 -1.354774E+03
       128  23  3.705844E+05  5.411799E+04  5.247914E+02  1.416484E+05  4.020843E+02 -1.699842E+03
       128  24  3.679983E+05  5.675485E+04  4.792943E+02  1.446271E+05  8.333598E+02 -2.046894E+03
       128  25  4.041151E+05  7.040120E+04  1.029297E+04  1.545071E+05 -2.577756E+02 -1.441295E+03
       128  26  4.165470E+05  7.142589E+04  1.257613E+04  1.542578E+05  1.718030E+02 -1.786730E+03
       128  27  4.238137E+05  7.777204E+04  1.507733E+04  1.599479E+05  6.020765E+02 -2.134147E+03
       129   1  2.991959E+05  3.087049E+04 -1.755701E+04  1.257958E+05 -1.246225E+03  2.189046E+03
       129   2  2.918371E+05  2.444890E+04 -1.991936E+04  1.200376E+05 -1.781596E+03  2.500221E+03
       129   3  2.792936E+05  2.345315E+04 -2.197246E+04  1.202801E+05 -2.317187E+03  2.812276E+03
       129   4  3.679915E+05  5.676415E+04  5.159921E+02  1.446458E+05 -1.014171E+03  2.276578E+03
       129   5  3.705898E+05  5.409360E+04  7.288174E+02  1.416294E+05 -1.549146E+03  2.587880E+03
       129   6  3.680032E+05  5.684873E+04  1.250538E+03  1.446137E+05 -2.084348E+03  2.900060E+03
       129   7  4.367917E+05  8.265810E+04  1.858858E+04  1.634975E+05 -7.820888E+02  2.364121E+03
       129   8  4.493483E+05  8.373864E+04  2.137643E+04  1.632236E+05 -1.316665E+03  2.675551E+03
       129   9  4.567202E+05  9.024471E+04  2.447280E+04  1.689504E+05 -1.851473E+03  2.987857E+03
       129  10  2.991959E+05  3.087048E+04 -1.755702E+04  1.257958E+05  3.648998E-10 -2.906340E-10
       129  11  2.918371E+05  2.444889E+04 -1.991937E+04  1.200376E+05  1.659667E-09 -7.915410E-09
       129  12  2.792936E+05  2.345314E+04 -2.197249E+04  1.202801E+05 -5.966407E-10 -8.143959E-09
       129  13  3.679915E+05  5.676414E+04  5.159804E+02  1.446458E+05 -3.571134E-10  7.610691E-09
       129  14  3.705898E+05  5.409359E+04  7.288003E+02  1.416294E+05 -6.544884E-09 -3.018581E-09
       129  15  3.680032E+05  5.684872E+04  1.250514E+03  1.446137E+05  1.126190E-09 -3.690575E-09
       129  16  4.367917E+05  8.265809E+04  1.858857E+04  1.634975E+05  3.044130E-09 -2.238193E-10
       129  17  4.493483E+05  8.373863E+04  2.137641E+04  1.632236E+05  1.243067E-09 -1.340346E-09
       129  18  4.567202E+05  9.024470E+04  2.447277E+04  1.689504E+05 -1.903816E-09 -3.188980E-09
       129  19  2.991959E+05  3.087049E+04 -1.755701E+04  1.257958E+05  1.246225E+03 -2.189046E+03
       129  20  2.918371E+05  2.444890E+04 -1.991936E+04  1.200376E+05  1.781596E+03 -2.500221E+03
       129  21  2.792936E+05  2.345315E+04 -2.197246E+04  1.202801E+05  2.317187E+03 -2.812276E+03
       129  22  3.679915E+05  5.676415E+04  5.159921E+02  1.446458E+05  1.014171E+03 -2.276578E+03
       129  23  3.705898E+05  5.409360E+04  7.288174E+02  1.416294E+05  1.549146E+03 -2.587880E+03
       129  24  3.680032E+05  5.684873E+04  1.250538E+03  1.446137E+05  2.084348E+03 -2.900060E+03
       129  25  4.367917E+05  8.265810E+04  1.858858E+04  1.634975E+05  7.820888E+02 -2.364121E+03
       129  26  4.493483E+05  8.373864E+04  2.137643E+04  1.632236E+05  1.316665E+03 -2.675551E+03
       129  27  4.567202E+05  9.024471E+04  2.447280E+04  1.689504E+05  1.851473E+03 -2.987857E+03
       130   1  2.660803E+05  1.850359E+04 -2.512901E+04  1.169150E+05 -2.661587E+03  2.988060E+03
       130   2  2.585044E+05  1.175219E+04 -2.652640E+04  1.108808E+05 -4.261057E+03  2.905206E+03
       130   3  2.462018E+05  1.158265E+04 -2.653445E+04  1.107145E+05 -5.852548E+03  2.801537E+03
       130   4  3.680538E+05  5.674795E+04  1.616843E+03  1.447189E+05 -2.420780E+03  3.078830E+03
       130   5  3.704827E+05  5.392850E+04  2.838176E+03  1.416066E+05 -4.031278E+03  2.991785E+03
       130   6  3.681872E+05  5.769300E+04  5.457450E+03  1.443622E+05 -5.633821E+03  2.883918E+03
       130   7  4.700376E+05  9.499306E+04  2.836190E+04  1.725269E+05 -2.179929E+03  3.169617E+03
       130   8  4.824734E+05  9.610567E+04  3.220173E+04  1.723374E+05 -3.801453E+03  3.078382E+03
       130   9  4.901871E+05  1.038043E+05  3.744809E+04  1.780159E+05 -5.415046E+03  2.966317E+03
       130  10  2.660803E+05  1.850358E+04 -2.512904E+04  1.169150E+05  2.029035E-09  1.515161E-10
       130  11  2.585043E+05  1.175217E+04 -2.652645E+04  1.108808E+05  2.680098E-09 -1.949055E-09
       130  12  2.462018E+05  1.158263E+04 -2.653453E+04  1.107145E+05 -6.103104E-09 -5.976628E-09
       130  13  3.680538E+05  5.674794E+04  1.616814E+03  1.447189E+05 -3.103117E-09  9.496743E-11
       130  14  3.704827E+05  5.392849E+04  2.838129E+03  1.416066E+05  3.269952E-09  4.368834E-09
       130  15  3.681872E+05  5.769298E+04  5.457374E+03  1.443622E+05 -1.099988E-09 -3.150418E-09
       130  16  4.700376E+05  9.499305E+04  2.836187E+04  1.725269E+05 -6.837656E-09 -2.117508E-09
       130  17  4.824733E+05  9.610565E+04  3.220169E+04  1.723374E+05  4.008026E-09  1.286457E-09
       130  18  4.901870E+05  1.038043E+05  3.744801E+04  1.780159E+05  4.409733E-09 -4.826263E-09
       130  19  2.660803E+05  1.850359E+04 -2.512901E+04  1.169150E+05  2.661587E+03 -2.988060E+03
       130  20  2.585044E+05  1.175219E+04 -2.652640E+04  1.108808E+05  4.261057E+03 -2.905206E+03
       130  21  2.462018E+05  1.158265E+04 -2.653445E+04  1.107145E+05  5.852548E+03 -2.801537E+03
       130  22  3.680538E+05  5.674795E+04  1.616843E+03  1.447189E+05  2.420780E+03 -3.078830E+03
       130  23  3.704827E+05  5.392850E+04  2.838176E+03  1.416066E+05  4.031278E+03 -2.991785E+03
       130  24  3.681872E+05  5.769300E+04  5.457450E+03  1.443622E+05  5.633821E+03 -2.883918E+03
       130  25  4.700376E+05  9.499306E+04  2.836190E+04  1.725269E+05  2.179929E+03 -3.169617E+03
       130  26  4.824734E+05  9.610567E+04  3.220173E+04  1.723374E+05  3.801453E+03 -3.078382E+03
       130  27  4.901871E+05  1.038043E+05  3.744809E+04  1.780159E+05  5.415046E+03 -2.966317E+03
       131   1  2.321682E+05  6.396214E+03 -2.854831E+04  1.091078E+05 -7.078494E+03  2.701154E+03
       131   2  2.240828E+05 -2.765135E+03 -2.601133E+04  1.011367E+05 -1.342246E+04  8.275919E+02
       131   3  2.156552E+05  5.075967E+03 -1.573947E+04  9.661580E+04 -1.964122E+04 -1.377668E+03
       131   4  3.686624E+05  5.645527E+04  7.017436E+03  1.451662E+05 -6.759272E+03  2.821403E+03
       131   5  3.694804E+05  5.262460E+04  1.223386E+04  1.416747E+05 -1.327621E+04  8.825804E+02
       131   6  3.699893E+05  6.582865E+04  2.532078E+04  1.416332E+05 -1.966809E+04 -1.387995E+03
       131   7  5.051742E+05  1.065151E+05  4.258151E+04  1.812315E+05 -6.439973E+03  2.941679E+03
       131   8  5.148984E+05  1.080158E+05  5.047725E+04  1.822213E+05 -1.312993E+04  9.375836E+02
       131   9  5.243470E+05  1.265836E+05  6.637908E+04  1.866611E+05 -1.969495E+04 -1.398324E+03
       131  10  2.321682E+05  6.396193E+03 -2.854842E+04  1.091078E+05 -2.790903E-09  1.190368E-09
       131  11  2.240826E+05 -2.765184E+03 -2.601167E+04  1.011367E+05 -2.907693E-09  5.301402E-09
       131  12  2.156548E+05  5.075862E+03 -1.574020E+04  9.661578E+04 -3.492117E-09 -3.245354E-10
       131  13  3.686624E+05  5.645525E+04  7.017335E+03  1.451662E+05 -4.320652E-09 -7.646542E-09
       131  14  3.694802E+05  5.262455E+04  1.223353E+04  1.416747E+05  1.691340E-09 -3.221297E-09
       131  15  3.699889E+05  6.582854E+04  2.532005E+04  1.416332E+05 -2.915285E-09 -1.212941E-09
       131  16  5.051742E+05  1.065151E+05  4.258142E+04  1.812316E+05 -8.186887E-10 -3.341376E-09
       131  17  5.148982E+05  1.080157E+05  5.047692E+04  1.822213E+05 -9.800513E-10 -2.550485E-09
       131  18  5.243466E+05  1.265835E+05  6.637835E+04  1.866611E+05 -1.681115E-09 -3.098428E-09
       131  19  2.321682E+05  6.396214E+03 -2.854831E+04  1.091078E+05  7.078494E+03 -2.701154E+03
       131  20  2.240828E+05 -2.765135E+03 -2.601133E+04  1.011367E+05  1.342246E+04 -8.275919E+02
       131  21  2.156552E+05  5.075967E+03 -1.573947E+04  9.661580E+04  1.964122E+04  1.377668E+03
       131  22  3.686624E+05  5.645527E+04  7.017436E+03  1.451662E+05  6.759272E+03 -2.821403E+03
       131  23  3.694804E+05  5.262460E+04  1.223386E+04  1.416747E+05  1.327621E+04 -8.825804E+02
       131  24  3.699893E+05  6.582865E+04  2.532078E+04  1.416332E+05  1.966809E+04  1.387995E+03
       131  25  5.051742E+05  1.065151E+05  4.258151E+04  1.812315E+05  6.439973E+03 -2.941679E+03
       131  26  5.148984E+05  1.080158E+05  5.047725E+04  1.822213E+05  1.312993E+04 -9.375836E+02
       131  27  5.243470E+05  1.265836E+05  6.637908E+04  1.866611E+05  1.969495E+04  1.398324E+03
       132   1  1.952319E+05 -1.944914E+03 -1.330131E+04  1.122982E+05 -2.575013E+04 -2.620187E+03
       132   2  1.860767E+05 -3.317599E+04  4.555440E+03  8.657888E+04 -5.175338E+04 -1.207826E+04
       132   3  2.162349E+05  5.120095E+04  7.186481E+04  3.859444E+04 -7.601374E+04 -2.616445E+04
       132   4  3.740012E+05  5.327702E+04  3.119698E+04  1.489321E+05 -2.440683E+04 -2.113825E+03
       132   5  3.605557E+05  4.077562E+04  5.183575E+04  1.429210E+05 -5.281128E+04 -1.247755E+04
       132   6  3.868855E+05  1.443362E+05  1.238183E+05  1.146488E+05 -7.947285E+04 -2.747074E+04
       132   7  5.528018E+05  1.084988E+05  7.569300E+04  1.855743E+05 -2.306311E+04 -1.607368E+03
       132   8  5.350637E+05  1.147311E+05  9.911310E+04  1.992780E+05 -5.386949E+04 -1.287700E+04
       132   9  5.575644E+05  2.374832E+05  1.757685E+05  1.907244E+05 -8.293295E+04 -2.877781E+04
       132  10  1.952312E+05 -1.945100E+03 -1.330257E+04  1.122982E+05  9.152241E-09  9.229387E-09
       132  11  1.860737E+05 -3.317686E+04  4.550135E+03  8.657838E+04  5.597627E-09  4.814205E-09
       132  12  2.162285E+05  5.119867E+04  7.185267E+04  3.859284E+04  7.035433E-11  6.045637E-10
       132  13  3.740006E+05  5.327685E+04  3.119585E+04  1.489320E+05 -3.526085E-09 -1.748241E-09
       132  14  3.605527E+05  4.077471E+04  5.183022E+04  1.429205E+05 -5.252201E-10 -7.367386E-10
       132  15  3.868785E+05  1.443337E+05  1.238050E+05  1.146471E+05  4.319209E-10  4.057082E-10
       132  16  5.528012E+05  1.084987E+05  7.569200E+04  1.855743E+05 -1.165186E-08 -7.007406E-09
       132  17  5.350606E+05  1.147302E+05  9.910734E+04  1.992774E+05 -1.893743E-09  5.247348E-09
       132  18  5.575568E+05  2.374804E+05  1.757541E+05  1.907225E+05  6.095391E-09  4.207223E-10
       132  19  1.952319E+05 -1.944914E+03 -1.330131E+04  1.122982E+05  2.575013E+04  2.620187E+03
       132  20  1.860767E+05 -3.317599E+04  4.555440E+03  8.657888E+04  5.175338E+04  1.207826E+04
       132  21  2.162349E+05  5.120095E+04  7.186481E+04  3.859444E+04  7.601374E+04  2.616445E+04
       132  22  3.740012E+05  5.327702E+04  3.119698E+04  1.489321E+05  2.440683E+04  2.113825E+03
       132  23  3.605557E+05  4.077562E+04  5.183575E+04  1.429210E+05  5.281128E+04  1.247755E+04
       132  24  3.868855E+05  1.443362E+05  1.238183E+05  1.146488E+05  7.947285E+04  2.747074E+04
       132  25  5.528018E+05  1.084988E+05  7.569300E+04  1.855743E+05  2.306311E+04  1.607368E+03
       132  26  5.350637E+05  1.147311E+05  9.911310E+04  1.992780E+05  5.386949E+04  1.287700E+04
       132  27  5.575644E+05  2.374832E+05  1.757685E+05  1.907244E+05  8.293295E+04  2.877781E+04
       133   1 -1.879558E+02 -4.815397E+05 -2.046902E+03 -1.144594E+02 -4.235250E+01  1.506128E+02
       133   2 -4.608591E+02 -4.827688E+05 -2.796455E+03  2.272542E+02 -8.257219E+01  1.285288E+03
       133   3 -1.236084E+03 -4.842739E+05 -4.411251E+03 -2.561389E+02 -1.428820E+02  2.419953E+03
       133   4 -6.300122E+00 -4.808005E+05 -1.879114E+03 -1.832323E+02 -4.237371E+01  1.685978E+02
       133   5  5.962479E+01 -4.806616E+05 -2.302308E+03  2.291013E+02 -8.260807E+01  1.315805E+03
       133   6 -3.789423E+02 -4.808008E+05 -3.599445E+03 -1.836705E+02 -1.429323E+02  2.463004E+03
       133   7  1.753555E+02 -4.800614E+05 -1.711326E+03 -2.520054E+02 -4.239491E+01  1.865828E+02
       133   8  5.801084E+02 -4.785544E+05 -1.808162E+03  2.309485E+02 -8.264396E+01  1.346322E+03
       133   9  4.781987E+02 -4.773277E+05 -2.787639E+03 -1.112017E+02 -1.429826E+02  2.506056E+03
       133  10 -1.879558E+02 -4.815397E+05 -2.046902E+03 -1.144594E+02  1.467950E-09  7.003618E-09
       133  11 -4.608596E+02 -4.827688E+05 -2.796458E+03  2.272542E+02  1.747146E-09  5.371464E-09
       133  12 -1.236086E+03 -4.842739E+05 -4.411262E+03 -2.561386E+02 -1.790757E-10  2.259025E-10
       133  13 -6.300132E+00 -4.808005E+05 -1.879114E+03 -1.832323E+02  2.737872E-09 -1.413319E-09
       133  14  5.962432E+01 -4.806616E+05 -2.302312E+03  2.291014E+02 -4.423359E-09 -2.902768E-09
       133  15 -3.789440E+02 -4.808008E+05 -3.599456E+03 -1.836702E+02 -4.089708E-09 -2.127118E-10
       133  16  1.753555E+02 -4.800614E+05 -1.711326E+03 -2.520054E+02  1.400991E-09 -3.575958E-09
       133  17  5.801079E+02 -4.785545E+05 -1.808165E+03  2.309486E+02  3.130314E-09 -7.107393E-09
       133  18  4.781970E+02 -4.773277E+05 -2.787651E+03 -1.112014E+02 -3.495437E-10  4.318630E-10
       133  19 -1.879558E+02 -4.815397E+05 -2.046902E+03 -1.144594E+02  4.235250E+01 -1.506128E+02
       133  20 -4.608591E+02 -4.827688E+05 -2.796455E+03  2.272542E+02  8.257219E+01 -1.285288E+03
       133  21 -1.236084E+03 -4.842739E+05 -4.411251E+03 -2.561389E+02  1.428820E+02 -2.419953E+03
       133  22 -6.300122E+00 -4.808005E+05 -1.879114E+03 -1.832323E+02  4.237371E+01 -1.685978E+02
       133  23  5.962479E+01 -4.806616E+05 -2.302308E+03  2.291013E+02  8.260807E+01 -1.315805E+03
       133  24 -3.789423E+02 -4.808008E+05 -3.599445E+03 -1.836705E+02  1.429323E+02 -2.463004E+03
       133  25  1.753555E+02 -4.800614E+05 -1.711326E+03 -2.520054E+02  4.239491E+01 -1.865828E+02
       133  26  5.801084E+02 -4.785544E+05 -1.808162E+03  2.309485E+02  8.264396E+01 -1.346322E+03
       133  27  4.781987E+02 -4.773277E+05 -2.787639E+03 -1.112017E+02  1.429826E+02 -2.506056E+03
       134   1 -9.765107E+02 -4.860896E+05 -5.663353E+03  5.336582E+02 -1.847588E+02  3.135247E+03
       134   2 -1.054023E+03 -4.865473E+05 -8.916045E+03 -1.329401E+02 -2.481542E+02  6.924760E+03
       134   3 -6.396054E+03 -4.888177E+05 -1.595390E+04 -1.624859E+03 -2.958335E+02  1.071427E+04
       134   4  2.486195E+02 -4.811412E+05 -4.498746E+03 -1.817451E+02 -1.848113E+02  3.176927E+03
       134   5  5.039118E+02 -4.802367E+05 -7.435263E+03  2.281364E+02 -2.481873E+02  6.956666E+03
       134   6 -4.503588E+03 -4.811431E+05 -1.415012E+04 -1.873030E+02 -2.958342E+02  1.073641E+04
       134   7  1.473750E+03 -4.761929E+05 -3.334140E+03 -8.971541E+02 -1.848639E+02  3.218608E+03
       134   8  2.061845E+03 -4.739261E+05 -5.954484E+03  5.892167E+02 -2.482203E+02  6.988572E+03
       134   9 -2.611118E+03 -4.734684E+05 -1.234635E+04  1.250271E+03 -2.958348E+02  1.075855E+04
       134  10 -9.765133E+02 -4.860896E+05 -5.663372E+03  5.336587E+02 -4.191709E-09  1.781960E-09
       134  11 -1.054036E+03 -4.865474E+05 -8.916135E+03 -1.329388E+02 -2.519220E-10  4.817557E-09
       134  12 -6.396085E+03 -4.888178E+05 -1.595412E+04 -1.624856E+03 -1.588269E-09  5.702629E-09
       134  13  2.486167E+02 -4.811412E+05 -4.498765E+03 -1.817446E+02 -2.308039E-09 -4.645373E-09
       134  14  5.038987E+02 -4.802368E+05 -7.435354E+03  2.281378E+02 -3.844878E-09 -4.100656E-09
       134  15 -4.503619E+03 -4.811432E+05 -1.415034E+04 -1.873005E+02 -9.442684E-10 -3.377744E-09
       134  16  1.473747E+03 -4.761929E+05 -3.334159E+03 -8.971537E+02 -2.635440E-10 -4.807113E-09
       134  17  2.061831E+03 -4.739261E+05 -5.954576E+03  5.892181E+02 -2.439822E-09 -6.405991E-09
       134  18 -2.611149E+03 -4.734685E+05 -1.234656E+04  1.250273E+03  1.370347E-09 -4.240279E-09
       134  19 -9.765107E+02 -4.860896E+05 -5.663353E+03  5.336582E+02  1.847588E+02 -3.135247E+03
       134  20 -1.054023E+03 -4.865473E+05 -8.916045E+03 -1.329401E+02  2.481542E+02 -6.924760E+03
       134  21 -6.396054E+03 -4.888177E+05 -1.595390E+04 -1.624859E+03  2.958335E+02 -1.071427E+04
       134  22  2.486195E+02 -4.811412E+05 -4.498746E+03 -1.817451E+02  1.848113E+02 -3.176927E+03
       134  23  5.039118E+02 -4.802367E+05 -7.435263E+03  2.281364E+02  2.481873E+02 -6.956666E+03
       134  24 -4.503588E+03 -4.811431E+05 -1.415012E+04 -1.873030E+02  2.958342E+02 -1.073641E+04
       134  25  1.473750E+03 -4.761929E+05 -3.334140E+03 -8.971541E+02  1.848639E+02 -3.218608E+03
       134  26  2.061845E+03 -4.739261E+05 -5.954484E+03  5.892167E+02  2.482203E+02 -6.988572E+03
       134  27 -2.611118E+03 -4.734684E+05 -1.234635E+04  1.250271E+03  2.958348E+02 -1.075855E+04
       135   1  5.373130E+02 -4.935945E+05 -1.957827E+04  7.227209E+03 -3.723067E+02  1.326056E+04
       135   2  2.707477E+03 -4.865691E+05 -3.085089E+04 -5.606793E+03 -4.227438E+02  2.867946E+04
       135   3 -5.437242E+04 -4.963706E+05 -6.698008E+04 -1.929438E+04 -1.824320E+02  4.409849E+04
       135   4  2.812077E+03 -4.844702E+05 -1.743666E+04 -1.712650E+02 -3.725937E+02  1.337155E+04
       135   5  5.282838E+03 -4.760788E+05 -2.838837E+04  2.243113E+02 -4.223915E+02  2.860895E+04
       135   6 -5.146505E+04 -4.844828E+05 -6.407034E+04 -2.341176E+02 -1.807849E+02  4.384652E+04
       135   7  5.087041E+03 -4.753458E+05 -1.529503E+04 -7.569849E+03 -3.728834E+02  1.348254E+04
       135   8  7.858319E+03 -4.655884E+05 -2.592584E+04  6.055515E+03 -4.220406E+02  2.853844E+04
       135   9 -4.855632E+04 -4.725941E+05 -6.116042E+04  1.882651E+04 -1.791533E+02  4.359454E+04
       135  10  5.372656E+02 -4.935946E+05 -1.957860E+04  7.227213E+03 -7.024781E-10  6.364742E-09
       135  11  2.707256E+03 -4.865700E+05 -3.085243E+04 -5.606784E+03  2.375031E-09  6.776959E-09
       135  12 -5.437294E+04 -4.963726E+05 -6.698374E+04 -1.929437E+04  8.721467E-11 -2.185964E-09
       135  13  2.812029E+03 -4.844704E+05 -1.743700E+04 -1.712610E+02 -9.479754E-10 -3.522224E-09
       135  14  5.282618E+03 -4.760797E+05 -2.838991E+04  2.243211E+02 -5.253321E-09 -1.414596E-09
       135  15 -5.146557E+04 -4.844848E+05 -6.407396E+04 -2.341112E+02  7.579400E-10 -2.133104E-09
       135  16  5.086992E+03 -4.753460E+05 -1.529538E+04 -7.569845E+03  1.583366E-09 -5.613784E-09
       135  17  7.858100E+03 -4.655893E+05 -2.592738E+04  6.055525E+03 -5.902931E-09 -2.007671E-09
       135  18 -4.855683E+04 -4.725961E+05 -6.116399E+04  1.882651E+04 -1.363483E-09  2.748127E-09
       135  19  5.373130E+02 -4.935945E+05 -1.957827E+04  7.227209E+03  3.723067E+02 -1.326056E+04
       135  20  2.707477E+03 -4.865691E+05 -3.085089E+04 -5.606793E+03  4.227438E+02 -2.867946E+04
       135  21 -5.437242E+04 -4.963706E+05 -6.698008E+04 -1.929438E+04  1.824320E+02 -4.409849E+04
       135  22  2.812077E+03 -4.844702E+05 -1.743666E+04 -1.712650E+02  3.725937E+02 -1.337155E+04
       135  23  5.282838E+03 -4.760788E+05 -2.838837E+04  2.243113E+02  4.223915E+02 -2.860895E+04
       135  24 -5.146505E+04 -4.844828E+05 -6.407034E+04 -2.341176E+02  1.807849E+02 -4.384652E+04
       135  25  5.087041E+03 -4.753458E+05 -1.529503E+04 -7.569849E+03  3.728834E+02 -1.348254E+04
       135  26  7.858319E+03 -4.655884E+05 -2.592584E+04  6.055515E+03  4.220406E+02 -2.853844E+04
       135  27 -4.855632E+04 -4.725941E+05 -6.116042E+04  1.882651E+04  1.791533E+02 -4.359454E+04
       136   1 -8.242809E+06 -2.685766E+06 -1.415455E+06 -2.910576E+06 -4.698205E+05 -9.654151E+04
       136   2 -8.030369E+06 -2.367439E+06 -1.068891E+06 -2.833224E+06 -3.165869E+05  1.573270E+05
       136   3 -7.859273E+06 -2.238351E+06 -9.261549E+05 -2.769650E+06 -1.140033E+05  2.836522E+05
       136   4 -3.702333E+06 -8.540424E+05 -2.036669E+05 -1.552795E+06 -1.589888E+05  2.287166E+04
       136   5 -3.686945E+06 -6.983039E+05 -9.292039E+04 -1.575681E+06 -1.752173E+05  2.113252E+05
       136   6 -3.678425E+06 -6.972189E+05 -4.960089E+04 -1.612465E+06 -1.423835E+05  2.726026E+05
       136   7  8.585800E+05  9.797984E+05  1.006698E+06 -1.856113E+05  1.543713E+05  1.433751E+05
       136   8  6.758364E+05  9.726955E+05  8.819292E+05 -3.098234E+05 -3.276101E+04  2.657630E+05
       136   9  5.205838E+05  8.453992E+05  8.260210E+05 -4.479993E+05 -1.709731E+05  2.614759E+05
       136  10 -8.243051E+06 -2.685836E+06 -1.415894E+06 -2.910613E+06 -2.622753E-08 -8.481510E-09
       136  11 -8.030484E+06 -2.367493E+06 -1.069127E+06 -2.833184E+06 -8.738406E-09  1.635459E-09
       136  12 -7.859308E+06 -2.238441E+06 -9.263301E+05 -2.769624E+06  2.949100E-08  9.628273E-09
       136  13 -3.702360E+06 -8.540498E+05 -2.037156E+05 -1.552792E+06  1.440427E-09  8.102999E-10
       136  14 -3.686990E+06 -6.983600E+05 -9.306182E+04 -1.575651E+06 -6.503173E-09 -1.408110E-08
       136  15 -3.678466E+06 -6.973039E+05 -4.977828E+04 -1.612434E+06 -3.663697E-09 -2.522409E-09
       136  16  8.585490E+05  9.797700E+05  1.006614E+06 -1.856291E+05  2.078998E-08  7.691920E-09
       136  17  6.758163E+05  9.726195E+05  8.817947E+05 -3.098164E+05 -5.552815E-09  4.274075E-09
       136  18  5.205342E+05  8.453181E+05  8.258380E+05 -4.479634E+05 -3.688530E-08 -1.550096E-08
       136  19 -8.242809E+06 -2.685766E+06 -1.415455E+06 -2.910576E+06  4.698205E+05  9.654151E+04
       136  20 -8.030369E+06 -2.367439E+06 -1.068891E+06 -2.833224E+06  3.165869E+05 -1.573270E+05
       136  21 -7.859273E+06 -2.238351E+06 -9.261549E+05 -2.769650E+06  1.140033E+05 -2.836522E+05
       136  22 -3.702333E+06 -8.540424E+05 -2.036669E+05 -1.552795E+06  1.589888E+05 -2.287166E+04
       136  23 -3.686945E+06 -6.983039E+05 -9.292039E+04 -1.575681E+06  1.752173E+05 -2.113252E+05
       136  24 -3.678425E+06 -6.972189E+05 -4.960089E+04 -1.612465E+06  1.423835E+05 -2.726026E+05
       136  25  8.585800E+05  9.797984E+05  1.006698E+06 -1.856113E+05 -1.543713E+05 -1.433751E+05
       136  26  6.758364E+05  9.726955E+05  8.819292E+05 -3.098234E+05  3.276101E+04 -2.657630E+05
       136  27  5.205838E+05  8.453992E+05  8.260210E+05 -4.479993E+05  1.709731E+05 -2.614759E+05
       137   1 -7.679011E+06 -2.198936E+06 -8.814977E+05 -2.734860E+06 -1.302384E+05  2.641269E+05
       137   2 -7.472831E+06 -2.077522E+06 -8.046041E+05 -2.642186E+06 -1.067021E+05  2.666940E+05
       137   3 -7.221190E+06 -2.010679E+06 -7.447980E+05 -2.601863E+06 -8.003478E+04  2.609158E+05
       137   4 -3.670595E+06 -7.053313E+05 -3.811418E+04 -1.609070E+06 -1.322098E+05  2.631837E+05
       137   5 -3.693543E+06 -6.753255E+05 -2.046985E+04 -1.584217E+06 -1.197130E+05  2.615683E+05
       137   6 -3.668850E+06 -6.976281E+05 -1.102144E+04 -1.611712E+06 -1.041044E+05  2.516315E+05
       137   7  3.544699E+05  7.897156E+05  8.043902E+05 -4.764640E+05 -1.341954E+05  2.622360E+05
       137   8  1.005634E+05  7.281421E+05  7.629064E+05 -5.202140E+05 -1.328106E+05  2.564103E+05
       137   9 -1.034304E+05  6.165235E+05  7.220905E+05 -6.162623E+05 -1.283244E+05  2.422910E+05
       137  10 -7.679048E+06 -2.199015E+06 -8.816603E+05 -2.734832E+06 -1.008073E-08 -1.996030E-10
       137  11 -7.472863E+06 -2.077601E+06 -8.047588E+05 -2.642163E+06 -3.634956E-09  3.823785E-09
       137  12 -7.221215E+06 -2.010753E+06 -7.449377E+05 -2.601846E+06  3.481644E-09  4.366114E-09
       137  13 -3.670632E+06 -7.054102E+05 -3.827686E+04 -1.609042E+06 -2.456147E-10  3.099160E-10
       137  14 -3.693577E+06 -6.754027E+05 -2.062504E+04 -1.584192E+06  3.100413E-09  8.769726E-10
       137  15 -3.668878E+06 -6.976989E+05 -1.116050E+04 -1.611690E+06 -2.228221E-09  5.519548E-09
       137  16  3.544322E+05  7.896371E+05  8.042274E+05 -4.764357E+05  4.801462E-09  4.909926E-09
       137  17  1.005269E+05  7.280669E+05  7.627500E+05 -5.201866E+05 -5.380532E-10  6.288650E-09
       137  18 -1.034638E+05  6.164562E+05  7.219495E+05 -6.162373E+05 -8.092135E-09  3.511397E-09
       137  19 -7.679011E+06 -2.198936E+06 -8.814977E+05 -2.734860E+06  1.302384E+05 -2.641269E+05
       137  20 -7.472831E+06 -2.077522E+06 -8.046041E+05 -2.642186E+06  1.067021E+05 -2.666940E+05
       137  21 -7.221190E+06 -2.010679E+06 -7.447980E+05 -2.601863E+06  8.003478E+04 -2.609158E+05
       137  22 -3.670595E+06 -7.053313E+05 -3.811418E+04 -1.609070E+06  1.322098E+05 -2.631837E+05
       137  23 -3.693543E+06 -6.753255E+05 -2.046985E+04 -1.584217E+06  1.197130E+05 -2.615683E+05
       137  24 -3.668850E+06 -6.976281E+05 -1.102144E+04 -1.611712E+06  1.041044E+05 -2.516315E+05
       137  25  3.544699E+05  7.897156E+05  8.043902E+05 -4.764640E+05  1.341954E+05 -2.622360E+05
       137  26  1.005634E+05  7.281421E+05  7.629064E+05 -5.202140E+05  1.328106E+05 -2.564103E+05
       137  27 -1.034304E+05  6.165235E+05  7.220905E+05 -6.162623E+05  1.283244E+05 -2.422910E+05
       138   1 -7.055865E+06 -1.949889E+06 -7.067869E+05 -2.556292E+06 -7.577845E+04  2.504759E+05
       138   2 -6.839958E+06 -1.832823E+06 -6.529739E+05 -2.458958E+06 -6.567413E+04  2.343517E+05
       138   3 -6.572065E+06 -1.766221E+06 -6.012486E+05 -2.418475E+06 -5.533163E+04  2.174320E+05
       138   4 -3.667781E+06 -6.982455E+05 -8.362313E+03 -1.612202E+06 -9.852366E+04  2.417207E+05
       138   5 -3.693458E+06 -6.723292E+05 -4.827007E+03 -1.583954E+06 -8.945853E+04  2.252442E+05
       138   6 -3.667018E+06 -6.966565E+05 -2.552967E+03 -1.612563E+06 -8.015753E+04  2.079739E+05
       138   7 -2.677445E+05  5.544207E+05  6.894756E+05 -6.632784E+05 -1.214046E+05  2.329147E+05
       138   8 -5.366633E+05  4.890356E+05  6.428123E+05 -7.047964E+05 -1.133745E+05  2.160875E+05
       138   9 -7.532138E+05  3.736395E+05  5.957070E+05 -8.031244E+05 -1.051100E+05  1.984685E+05
       138  10 -7.055888E+06 -1.949958E+06 -7.069153E+05 -2.556277E+06 -9.368003E-09 -3.379568E-09
       138  11 -6.839978E+06 -1.832883E+06 -6.530850E+05 -2.458946E+06 -3.746166E-09  2.639606E-09
       138  12 -6.572081E+06 -1.766273E+06 -6.013431E+05 -2.418466E+06  1.280658E-08  7.102816E-09
       138  13 -3.667807E+06 -6.983107E+05 -8.490089E+03 -1.612183E+06 -7.669214E-10 -3.783372E-09
       138  14 -3.693480E+06 -6.723857E+05 -4.937159E+03 -1.583938E+06 -9.107696E-10 -3.074781E-09
       138  15 -3.667037E+06 -6.967045E+05 -2.646131E+03 -1.612550E+06 -2.347200E-10 -4.919217E-09
       138  16 -2.677748E+05  5.543586E+05  6.893462E+05 -6.632557E+05  6.781712E-09  3.355896E-09
       138  17 -5.366896E+05  4.889821E+05  6.427006E+05 -7.047767E+05 -3.645953E-09  1.690608E-09
       138  18 -7.532362E+05  3.735943E+05  5.956124E+05 -8.031076E+05 -1.050372E-08 -1.378579E-09
       138  19 -7.055865E+06 -1.949889E+06 -7.067869E+05 -2.556292E+06  7.577845E+04 -2.504759E+05
       138  20 -6.839958E+06 -1.832823E+06 -6.529739E+05 -2.458958E+06  6.567413E+04 -2.343517E+05
       138  21 -6.572065E+06 -1.766221E+06 -6.012486E+05 -2.418475E+06  5.533163E+04 -2.174320E+05
       138  22 -3.667781E+06 -6.982455E+05 -8.362313E+03 -1.612202E+06  9.852366E+04 -2.417207E+05
       138  23 -3.693458E+06 -6.723292E+05 -4.827007E+03 -1.583954E+06  8.945853E+04 -2.252442E+05
       138  24 -3.667018E+06 -6.966565E+05 -2.552967E+03 -1.612563E+06  8.015753E+04 -2.079739E+05
       138  25 -2.677445E+05  5.544207E+05  6.894756E+05 -6.632784E+05  1.214046E+05 -2.329147E+05
       138  26 -5.366633E+05  4.890356E+05  6.428123E+05 -7.047964E+05  1.133745E+05 -2.160875E+05
       138  27 -7.532138E+05  3.736395E+05  5.957070E+05 -8.031244E+05  1.051100E+05 -1.984685E+05
       139   1 -6.400413E+06 -1.702403E+06 -5.638016E+05 -2.370937E+06 -5.063272E+04  2.067605E+05
       139   2 -6.175078E+06 -1.582151E+06 -5.117380E+05 -2.270445E+06 -4.247254E+04  1.882876E+05
       139   3 -5.896293E+06 -1.513939E+06 -4.600789E+05 -2.229378E+06 -3.426645E+04  1.695517E+05
       139   4 -3.666487E+06 -6.968731E+05 -2.001659E+03 -1.613106E+06 -7.565161E+04  1.972531E+05
       139   5 -3.692914E+06 -6.702968E+05 -1.368174E+03 -1.583518E+06 -6.783345E+04  1.786860E+05
       139   6 -3.665900E+06 -6.956864E+05 -8.742976E+02 -1.613367E+06 -5.997001E+04  1.598564E+05
       139   7 -9.248244E+05  3.092952E+05  5.594095E+05 -8.521596E+05 -1.007903E+05  1.877009E+05
       139   8 -1.204359E+06  2.420868E+05  5.086859E+05 -8.940239E+05 -9.330463E+04  1.690433E+05
       139   9 -1.430334E+06  1.229966E+05  4.580798E+05 -9.952849E+05 -8.577412E+04  1.501236E+05
       139  10 -6.400427E+06 -1.702449E+06 -5.638866E+05 -2.370929E+06 -1.033460E-08 -1.684615E-09
       139  11 -6.175089E+06 -1.582190E+06 -5.118079E+05 -2.270439E+06 -1.759399E-09 -5.252388E-10
       139  12 -5.896302E+06 -1.513971E+06 -4.601350E+05 -2.229373E+06  5.784839E-09  4.285283E-09
       139  13 -3.666504E+06 -6.969163E+05 -2.085359E+03 -1.613094E+06 -3.950893E-10 -4.371013E-09
       139  14 -3.692928E+06 -6.703323E+05 -1.436680E+03 -1.583508E+06 -1.231921E-09 -4.615096E-09
       139  15 -3.665911E+06 -6.957147E+05 -9.289647E+02 -1.613359E+06  6.373710E-10 -3.364634E-10
       139  16 -9.248447E+05  3.092547E+05  5.593244E+05 -8.521444E+05  1.241703E-08  8.263942E-09
       139  17 -1.204376E+06  2.420539E+05  5.086160E+05 -8.940113E+05 -6.181125E-10  5.918451E-10
       139  18 -1.430347E+06  1.229705E+05  4.580238E+05 -9.952746E+05 -8.633547E-09 -4.477771E-09
       139  19 -6.400413E+06 -1.702403E+06 -5.638016E+05 -2.370937E+06  5.063272E+04 -2.067605E+05
       139  20 -6.175078E+06 -1.582151E+06 -5.117380E+05 -2.270445E+06  4.247254E+04 -1.882876E+05
       139  21 -5.896293E+06 -1.513939E+06 -4.600789E+05 -2.229378E+06  3.426645E+04 -1.695517E+05
       139  22 -3.666487E+06 -6.968731E+05 -2.001659E+03 -1.613106E+06  7.565161E+04 -1.972531E+05
       139  23 -3.692914E+06 -6.702968E+05 -1.368174E+03 -1.583518E+06  6.783345E+04 -1.786860E+05
       139  24 -3.665900E+06 -6.956864E+05 -8.742976E+02 -1.613367E+06  5.997001E+04 -1.598564E+05
       139  25 -9.248244E+05  3.092952E+05  5.594095E+05 -8.521596E+05  1.007903E+05 -1.877009E+05
       139  26 -1.204359E+06  2.420868E+05  5.086859E+05 -8.940239E+05  9.330463E+04 -1.690433E+05
       139  27 -1.430334E+06  1.229966E+05  4.580798E+05 -9.952849E+05  8.577412E+04 -1.501236E+05
       140   1 -5.718659E+06 -1.448340E+06 -4.219779E+05 -2.180554E+06 -2.967031E+04  1.584436E+05
       140   2 -5.485928E+06 -1.325538E+06 -3.694364E+05 -2.077734E+06 -2.158542E+04  1.392635E+05
       140   3 -5.198976E+06 -1.256210E+06 -3.172808E+05 -2.036305E+06 -1.347805E+04  1.199178E+05
       140   4 -3.665541E+06 -6.958349E+05 -8.808605E+02 -1.613797E+06 -5.559661E+04  1.486831E+05
       140   5 -3.692409E+06 -6.686674E+05 -1.114097E+03 -1.583194E+06 -4.772813E+04  1.294475E+05
       140   6 -3.665094E+06 -6.949261E+05 -1.567411E+03 -1.613997E+06 -3.983767E+04  1.100468E+05
       140   7 -1.608054E+06  5.702896E+04  4.200023E+05 -1.045290E+06 -8.161597E+04  1.388879E+05
       140   8 -1.895564E+06 -1.152700E+04  3.670431E+05 -1.087322E+06 -7.395267E+04  1.196011E+05
       140   9 -2.128787E+06 -1.334494E+05  3.140234E+05 -1.190719E+06 -6.626769E+04  1.001495E+05
       140  10 -5.718666E+06 -1.448367E+06 -4.220266E+05 -2.180550E+06  2.630192E-08  1.115299E-08
       140  11 -5.485934E+06 -1.325559E+06 -3.694736E+05 -2.077732E+06  5.723478E-09  1.331601E-09
       140  12 -5.198980E+06 -1.256225E+06 -3.173081E+05 -2.036304E+06 -2.429055E-08 -1.075724E-08
       140  13 -3.665551E+06 -6.958594E+05 -9.281147E+02 -1.613790E+06  2.179576E-09  4.185020E-10
       140  14 -3.692416E+06 -6.686860E+05 -1.149793E+03 -1.583189E+06  5.599970E-09  1.283951E-09
       140  15 -3.665099E+06 -6.949395E+05 -1.593098E+03 -1.613993E+06  2.365153E-09  2.016092E-09
       140  16 -1.608066E+06  5.700651E+04  4.199536E+05 -1.045280E+06 -2.110145E-08 -9.634337E-09
       140  17 -1.895574E+06 -1.154379E+04  3.670060E+05 -1.087315E+06  4.418280E-09  1.943651E-10
       140  18 -2.128795E+06 -1.334613E+05  3.139963E+05 -1.190714E+06  2.526274E-08  1.040534E-08
       140  19 -5.718659E+06 -1.448340E+06 -4.219779E+05 -2.180554E+06  2.967031E+04 -1.584436E+05
       140  20 -5.485928E+06 -1.325538E+06 -3.694364E+05 -2.077734E+06  2.158542E+04 -1.392635E+05
       140  21 -5.198976E+06 -1.256210E+06 -3.172808E+05 -2.036305E+06  1.347805E+04 -1.199178E+05
       140  22 -3.665541E+06 -6.958349E+05 -8.808605E+02 -1.613797E+06  5.559661E+04 -1.486831E+05
       140  23 -3.692409E+06 -6.686674E+05 -1.114097E+03 -1.583194E+06  4.772813E+04 -1.294475E+05
       140  24 -3.665094E+06 -6.949261E+05 -1.567411E+03 -1.613997E+06  3.983767E+04 -1.100468E+05
       140  25 -1.608054E+06  5.702896E+04  4.200023E+05 -1.045290E+06  8.161597E+04 -1.388879E+05
       140  26 -1.895564E+06 -1.152700E+04  3.670431E+05 -1.087322E+06  7.395267E+04 -1.196011E+05
       140  27 -2.128787E+06 -1.334494E+05  3.140234E+05 -1.190719E+06  6.626769E+04 -1.001495E+05
       141   1 -5.016918E+06 -1.189346E+06 -2.787797E+05 -1.986554E+06 -8.707180E+03  1.085837E+05
       141   2 -4.779012E+06 -1.064881E+06 -2.266382E+05 -1.882134E+06  5.517813E+02  8.944242E+04
       141   3 -4.486603E+06 -9.950439E+05 -1.758510E+05 -1.840467E+06  9.797166E+03  7.027449E+04
       141   4 -3.664911E+06 -6.950219E+05 -2.057895E+03 -1.614319E+06 -3.523750E+04  9.866155E+04
       141   5 -3.691992E+06 -6.674822E+05 -3.639856E+03 -1.582973E+06 -2.601211E+04  7.952335E+04
       141   6 -3.664652E+06 -6.945671E+05 -6.555479E+03 -1.614404E+06 -1.680121E+04  6.035844E+04
       141   7 -2.310997E+06 -2.005391E+05  2.745764E+05 -1.241325E+06 -6.183061E+04  8.871593E+04
       141   8 -2.603743E+06 -2.699818E+05  2.193019E+05 -1.283323E+06 -5.262647E+04  6.958543E+04
       141   9 -2.842000E+06 -3.940333E+05  1.627080E+05 -1.388062E+06 -4.343770E+04  5.042815E+04
       141  10 -5.016922E+06 -1.189359E+06 -2.788019E+05 -1.986554E+06  2.043914E-11 -8.909432E-10
       141  11 -4.779014E+06 -1.064890E+06 -2.266532E+05 -1.882134E+06 -8.642046E-10 -2.842065E-09
       141  12 -4.486605E+06 -9.950492E+05 -1.758604E+05 -1.840467E+06 -2.726566E-09 -3.289514E-09
       141  13 -3.664915E+06 -6.950326E+05 -2.078479E+03 -1.614316E+06  2.271444E-10  7.264404E-10
       141  14 -3.691994E+06 -6.674891E+05 -3.652985E+03 -1.582971E+06  2.495392E-09  2.677187E-09
       141  15 -3.664653E+06 -6.945711E+05 -6.562841E+03 -1.614403E+06 -1.116242E-09 -2.554083E-09
       141  16 -2.311004E+06 -2.005485E+05  2.745545E+05 -1.241320E+06 -9.845095E-10  2.441498E-09
       141  17 -2.603747E+06 -2.699877E+05  2.192877E+05 -1.283320E+06  5.488869E-10  8.354485E-10
       141  18 -2.842003E+06 -3.940366E+05  1.626997E+05 -1.388060E+06  4.883289E-09  3.727534E-09
       141  19 -5.016918E+06 -1.189346E+06 -2.787797E+05 -1.986554E+06  8.707180E+03 -1.085837E+05
       141  20 -4.779012E+06 -1.064881E+06 -2.266382E+05 -1.882134E+06 -5.517813E+02 -8.944242E+04
       141  21 -4.486603E+06 -9.950439E+05 -1.758510E+05 -1.840467E+06 -9.797166E+03 -7.027449E+04
       141  22 -3.664911E+06 -6.950219E+05 -2.057895E+03 -1.614319E+06  3.523750E+04 -9.866155E+04
       141  23 -3.691992E+06 -6.674822E+05 -3.639856E+03 -1.582973E+06  2.601211E+04 -7.952335E+04
       141  24 -3.664652E+06 -6.945671E+05 -6.555479E+03 -1.614404E+06  1.680121E+04 -6.035844E+04
       141  25 -2.310997E+06 -2.005391E+05  2.745764E+05 -1.241325E+06  6.183061E+04 -8.871593E+04
       141  26 -2.603743E+06 -2.699818E+05  2.193019E+05 -1.283323E+06  5.262647E+04 -6.958543E+04
       141  27 -2.842000E+06 -3.940333E+05  1.627080E+05 -1.388062E+06  4.343770E+04 -5.042815E+04
       142   1 -4.301692E+06 -9.276339E+05 -1.385207E+05 -1.790787E+06  1.570542E+04  5.917299E+04
       142   2 -4.061445E+06 -8.018509E+05 -9.104043E+04 -1.683930E+06  2.941400E+04  4.205615E+04
       142   3 -3.768467E+06 -7.347840E+05 -4.938292E+04 -1.639704E+06  4.268020E+04  2.611127E+04
       142   4 -3.664894E+06 -6.943889E+05 -8.728649E+03 -1.614784E+06 -1.123002E+04  4.913791E+04
       142   5 -3.691373E+06 -6.672353E+05 -1.591399E+04 -1.582566E+06  4.048460E+03  3.261079E+04
       142   6 -3.665511E+06 -6.991159E+05 -3.017375E+04 -1.613007E+06  1.888182E+04  1.725427E+04
       142   7 -3.027680E+06 -4.611103E+05  1.210446E+05 -1.438614E+06 -3.819512E+04  3.909166E+04
       142   8 -3.321157E+06 -5.326078E+05  5.920836E+04 -1.481145E+06 -2.133342E+04  2.315938E+04
       142   9 -3.562541E+06 -6.634462E+05 -1.096232E+04 -1.586306E+06 -4.920986E+03  8.395772E+03
       142  10 -4.301693E+06 -9.276377E+05 -1.385277E+05 -1.790788E+06 -3.017433E-09 -3.274937E-09
       142  11 -4.061447E+06 -8.018530E+05 -9.104540E+04 -1.683931E+06  1.650421E-09  1.699271E-09
       142  12 -3.768469E+06 -7.347853E+05 -4.938766E+04 -1.639705E+06  3.823483E-09  1.820380E-10
       142  13 -3.664895E+06 -6.943915E+05 -8.733415E+03 -1.614784E+06 -9.374380E-10 -8.824435E-11
       142  14 -3.691373E+06 -6.672364E+05 -1.591602E+04 -1.582566E+06  8.814699E-11 -3.103309E-09
       142  15 -3.665511E+06 -6.991163E+05 -3.017498E+04 -1.613007E+06  7.553239E-10 -1.164640E-09
       142  16 -3.027682E+06 -4.611123E+05  1.210390E+05 -1.438613E+06  1.425134E-09  2.078838E-09
       142  17 -3.321158E+06 -5.326085E+05  5.920650E+04 -1.481145E+06 -7.323517E-10  1.071971E-09
       142  18 -3.562541E+06 -6.634463E+05 -1.096250E+04 -1.586306E+06 -1.732719E-09 -3.059815E-09
       142  19 -4.301692E+06 -9.276339E+05 -1.385207E+05 -1.790787E+06 -1.570542E+04 -5.917299E+04
       142  20 -4.061445E+06 -8.018509E+05 -9.104043E+04 -1.683930E+06 -2.941400E+04 -4.205615E+04
       142  21 -3.768467E+06 -7.347840E+05 -4.938292E+04 -1.639704E+06 -4.268020E+04 -2.611127E+04
       142  22 -3.664894E+06 -6.943889E+05 -8.728649E+03 -1.614784E+06  1.123002E+04 -4.913791E+04
       142  23 -3.691373E+06 -6.672353E+05 -1.591399E+04 -1.582566E+06 -4.048460E+03 -3.261079E+04
       142  24 -3.665511E+06 -6.991159E+05 -3.017375E+04 -1.613007E+06 -1.888182E+04 -1.725427E+04
       142  25 -3.027680E+06 -4.611103E+05  1.210446E+05 -1.438614E+06  3.819512E+04 -3.909166E+04
       142  26 -3.321157E+06 -5.326078E+05  5.920836E+04 -1.481145E+06  2.133342E+04 -2.315938E+04
       142  27 -3.562541E+06 -6.634462E+05 -1.096232E+04 -1.586306E+06  4.920986E+03 -8.395772E+03
       143   1 -3.576343E+06 -6.716817E+05 -1.893015E+04 -1.605217E+06  5.579135E+04  1.734733E+04
       143   2 -3.357509E+06 -5.310561E+05  9.590095E+03 -1.453329E+06  7.267927E+04  1.095904E+04
       143   3 -3.119634E+06 -5.336006E+05  4.157758E+03 -1.340418E+06  8.238299E+04  2.386225E+04
       143   4 -3.670515E+06 -6.935447E+05 -3.935034E+04 -1.617215E+06  2.789907E+04  6.968490E+03
       143   5 -3.686367E+06 -6.827201E+05 -7.330159E+04 -1.574173E+06  7.065057E+04  1.019884E+04
       143   6 -3.688433E+06 -8.202807E+05 -1.618050E+05 -1.570158E+06  1.062092E+05  3.272129E+04
       143   7 -3.764677E+06 -7.154074E+05 -5.976769E+04 -1.629211E+06  1.131896E+01 -3.410167E+03
       143   8 -4.015110E+06 -8.343556E+05 -1.562001E+05 -1.694950E+06  6.862306E+04  9.439325E+03
       143   9 -4.256883E+06 -1.106846E+06 -3.277904E+05 -1.799673E+06  1.300107E+05  4.156394E+04
       143  10 -3.576346E+06 -6.716828E+05 -1.893661E+04 -1.605218E+06  2.379511E-11 -4.880323E-09
       143  11 -3.357514E+06 -5.310576E+05  9.579883E+03 -1.453330E+06  2.307638E-10 -2.875597E-09
       143  12 -3.119641E+06 -5.336031E+05  4.143853E+03 -1.340420E+06 -2.687329E-09 -5.628901E-09
       143  13 -3.670516E+06 -6.935450E+05 -3.935190E+04 -1.617215E+06  3.392718E-09 -2.567177E-10
       143  14 -3.686373E+06 -6.827216E+05 -7.331122E+04 -1.574173E+06  1.423227E-09  7.539021E-10
       143  15 -3.688446E+06 -8.202849E+05 -1.618284E+05 -1.570161E+06  2.274023E-09 -2.973378E-10
       143  16 -3.764677E+06 -7.154074E+05 -5.976771E+04 -1.629211E+06  2.492613E-09 -1.321397E-09
       143  17 -4.015115E+06 -8.343570E+05 -1.562092E+05 -1.694950E+06  2.136167E-10  7.254734E-11
       143  18 -4.256902E+06 -1.106853E+06 -3.278257E+05 -1.799677E+06  6.618342E-10 -1.996193E-09
       143  19 -3.576343E+06 -6.716817E+05 -1.893015E+04 -1.605217E+06 -5.579135E+04 -1.734733E+04
       143  20 -3.357509E+06 -5.310561E+05  9.590095E+03 -1.453329E+06 -7.267927E+04 -1.095904E+04
       143  21 -3.119634E+06 -5.336006E+05  4.157758E+03 -1.340418E+06 -8.238299E+04 -2.386225E+04
       143  22 -3.670515E+06 -6.935447E+05 -3.935034E+04 -1.617215E+06 -2.789907E+04 -6.968490E+03
       143  23 -3.686367E+06 -6.827201E+05 -7.330159E+04 -1.574173E+06 -7.065057E+04 -1.019884E+04
       143  24 -3.688433E+06 -8.202807E+05 -1.618050E+05 -1.570158E+06 -1.062092E+05 -3.272129E+04
       143  25 -3.764677E+06 -7.154074E+05 -5.976769E+04 -1.629211E+06 -1.131896E+01  3.410167E+03
       143  26 -4.015110E+06 -8.343556E+05 -1.562001E+05 -1.694950E+06 -6.862306E+04 -9.439325E+03
       143  27 -4.256883E+06 -1.106846E+06 -3.277904E+05 -1.799673E+06 -1.300107E+05 -4.156394E+04
       144   1  2.687922E+05  5.553299E+04  7.547926E+04  1.279397E+04  6.048119E+04  4.249835E+02
       144   2  2.606214E+05 -2.590398E+04  2.619465E+04  4.202497E+03  3.989339E+04  1.188571E+03
       144   3  2.783952E+05 -1.431206E+04  1.357066E+04 -9.735320E+03  1.930518E+04  9.657944E+02
       144   4  3.238217E+05  6.925866E+04  8.914030E+04 -2.628865E+03  6.090924E+04  4.235727E+02
       144   5  3.108270E+05 -1.341000E+04  3.848315E+04  5.194042E+01  3.998800E+04  1.188315E+03
       144   6  3.238321E+05 -2.996488E+03  2.471571E+04 -2.613532E+03  1.906652E+04  9.659801E+02
       144   7  3.788545E+05  8.298499E+04  1.028012E+05 -1.805307E+04  6.133732E+04  4.221408E+02
       144   8  3.610349E+05 -9.161475E+02  5.077147E+04 -4.098953E+03  4.008262E+04  1.188057E+03
       144   9  3.692711E+05  8.319126E+03  3.586064E+04  4.508778E+03  1.882784E+04  9.661603E+02
       144  10  2.687883E+05  5.553201E+04  7.547239E+04  1.279395E+04 -2.966141E-10  3.175432E-10
       144  11  2.606197E+05 -2.590440E+04  2.619166E+04  4.202459E+03  3.970701E-09  1.163964E-09
       144  12  2.783948E+05 -1.431217E+04  1.356996E+04 -9.735335E+03  9.181979E-10 -4.169555E-10
       144  13  3.238178E+05  6.925766E+04  8.913333E+04 -2.628886E+03 -1.918996E-09  4.838859E-10
       144  14  3.108253E+05 -1.341043E+04  3.848014E+04  5.190215E+01  5.544855E-09  6.821202E-10
       144  15  3.238318E+05 -2.996586E+03  2.471503E+04 -2.613546E+03  1.503709E-09 -3.113941E-10
       144  16  3.788505E+05  8.298398E+04  1.027942E+05 -1.805309E+04  1.425175E-09  2.566166E-10
       144  17  3.610332E+05 -9.165800E+02  5.076845E+04 -4.098991E+03 -1.586210E-09  2.703823E-10
       144  18  3.692707E+05  8.319030E+03  3.585997E+04  4.508764E+03  1.298895E-09  2.366790E-10
       144  19  2.687922E+05  5.553299E+04  7.547926E+04  1.279397E+04 -6.048119E+04 -4.249835E+02
       144  20  2.606214E+05 -2.590398E+04  2.619465E+04  4.202497E+03 -3.989339E+04 -1.188571E+03
       144  21  2.783952E+05 -1.431206E+04  1.357066E+04 -9.735320E+03 -1.930518E+04 -9.657944E+02
       144  22  3.238217E+05  6.925866E+04  8.914030E+04 -2.628865E+03 -6.090924E+04 -4.235727E+02
       144  23  3.108270E+05 -1.341000E+04  3.848315E+04  5.194042E+01 -3.998800E+04 -1.188315E+03
       144  24  3.238321E+05 -2.996488E+03  2.471571E+04 -2.613532E+03 -1.906652E+04 -9.659801E+02
       144  25  3.788545E+05  8.298499E+04  1.028012E+05 -1.805307E+04 -6.133732E+04 -4.221408E+02
       144  26  3.610349E+05 -9.161475E+02  5.077147E+04 -4.098953E+03 -4.008262E+04 -1.188057E+03
       144  27  3.692711E+05  8.319126E+03  3.586064E+04  4.508778E+03 -1.882784E+04 -9.661603E+02
       145   1  2.843093E+05  4.006860E+02  1.185011E+04 -7.224973E+02  1.509215E+04  7.179234E+02
       145   2  2.871437E+05 -9.198237E+03  2.676699E+03  4.811418E+02  9.939241E+03  6.533143E+02
       145   3  2.936868E+05 -6.657304E+03 -1.072642E+02 -3.554601E+03  4.786306E+03  4.805562E+02
       145   4  3.188774E+05  9.007952E+03  2.033241E+04 -2.595124E+03  1.508936E+04  7.178750E+02
       145   5  3.170209E+05 -1.760054E+03  1.000074E+04  2.504527E+01  9.899829E+03  6.533016E+02
       145   6  3.188793E+05 -3.821924E+02  6.083672E+03 -2.594140E+03  4.710312E+03  4.805582E+02
       145   7  3.534466E+05  1.761514E+04  2.881463E+04 -4.467856E+03  1.508657E+04  7.178265E+02
       145   8  3.468990E+05  5.678064E+03  1.732471E+04 -4.310733E+02  9.860415E+03  6.532890E+02
       145   9  3.440724E+05  5.892876E+03  1.227456E+04 -1.633641E+03  4.634315E+03  4.805599E+02
       145  10  2.843090E+05  4.006243E+02  1.184969E+04 -7.225061E+02 -6.300537E-09 -6.687054E-10
       145  11  2.871436E+05 -9.198264E+03  2.676512E+03  4.811366E+02 -3.645924E-09  2.418746E-10
       145  12  2.936868E+05 -6.657311E+03 -1.073077E+02 -3.554603E+03  4.709334E-09 -5.383093E-10
       145  13  3.188771E+05  9.007891E+03  2.033198E+04 -2.595133E+03  1.755793E-10 -1.283876E-10
       145  14  3.170208E+05 -1.760081E+03  1.000055E+04  2.504006E+01  1.271359E-09  3.145324E-10
       145  15  3.188793E+05 -3.821986E+02  6.083630E+03 -2.594142E+03 -2.266274E-09 -4.720607E-10
       145  16  3.534463E+05  1.761508E+04  2.881420E+04 -4.467865E+03  4.080738E-09  1.159345E-10
       145  17  3.468989E+05  5.678037E+03  1.732453E+04 -4.310785E+02  1.639402E-09  1.630102E-10
       145  18  3.440724E+05  5.892870E+03  1.227452E+04 -1.633643E+03 -5.111073E-09 -2.823065E-10
       145  19  2.843093E+05  4.006860E+02  1.185011E+04 -7.224973E+02 -1.509215E+04 -7.179234E+02
       145  20  2.871437E+05 -9.198237E+03  2.676699E+03  4.811418E+02 -9.939241E+03 -6.533143E+02
       145  21  2.936868E+05 -6.657304E+03 -1.072642E+02 -3.554601E+03 -4.786306E+03 -4.805562E+02
       145  22  3.188774E+05  9.007952E+03  2.033241E+04 -2.595124E+03 -1.508936E+04 -7.178750E+02
       145  23  3.170209E+05 -1.760054E+03  1.000074E+04  2.504527E+01 -9.899829E+03 -6.533016E+02
       145  24  3.188793E+05 -3.821924E+02  6.083672E+03 -2.594140E+03 -4.710312E+03 -4.805582E+02
       145  25  3.534466E+05  1.761514E+04  2.881463E+04 -4.467856E+03 -1.508657E+04 -7.178265E+02
       145  26  3.468990E+05  5.678064E+03  1.732471E+04 -4.310733E+02 -9.860415E+03 -6.532890E+02
       145  27  3.440724E+05  5.892876E+03  1.227456E+04 -1.633641E+03 -4.634315E+03 -4.805599E+02
       146   1  3.036964E+05 -2.442023E+03  1.280772E+03 -2.374424E+03  3.785697E+03  3.672015E+02
       146   2  3.080548E+05 -2.681494E+03  1.421972E+02  4.893412E+01  2.494966E+03  2.125081E+02
       146   3  3.129759E+05 -1.345103E+03  2.377350E+02 -2.714865E+03  1.204243E+03  4.617742E+01
       146   4  3.181788E+05  1.161233E+03  4.819811E+03 -2.582874E+03  3.735727E+03  3.671975E+02
       146   5  3.178973E+05 -2.310273E+02  2.555491E+03  1.072982E+01  2.441057E+03  2.125056E+02
       146   6  3.181792E+05 -4.674160E+01  1.528012E+03 -2.582820E+03  1.146403E+03  4.617608E+01
       146   7  3.326613E+05  4.764474E+03  8.358834E+03 -2.791328E+03  3.685757E+03  3.671934E+02
       146   8  3.277399E+05  2.219432E+03  4.968779E+03 -2.747509E+01  2.387146E+03  2.125032E+02
       146   9  3.233825E+05  1.251617E+03  2.818288E+03 -2.450774E+03  1.088562E+03  4.617471E+01
       146  10  3.036964E+05 -2.442027E+03  1.280745E+03 -2.374425E+03 -1.653876E-09 -5.724761E-10
       146  11  3.080548E+05 -2.681496E+03  1.421854E+02  4.893369E+01 -2.296223E-09  2.311377E-10
       146  12  3.129759E+05 -1.345103E+03  2.377323E+02 -2.714865E+03  7.955368E-10 -2.312791E-10
       146  13  3.181788E+05  1.161229E+03  4.819784E+03 -2.582875E+03  2.070953E-09 -2.927380E-10
       146  14  3.178973E+05 -2.310289E+02  2.555480E+03  1.072940E+01  3.242547E-09  5.228063E-10
       146  15  3.181792E+05 -4.674196E+01  1.528010E+03 -2.582820E+03  1.939659E-09 -6.019718E-10
       146  16  3.326613E+05  4.764471E+03  8.358809E+03 -2.791329E+03 -3.901644E-09 -2.643189E-11
       146  17  3.277399E+05  2.219431E+03  4.968768E+03 -2.747549E+01  8.365562E-10  5.513681E-10
       146  18  3.233825E+05  1.251617E+03  2.818286E+03 -2.450774E+03  2.800259E-10 -8.617244E-10
       146  19  3.036964E+05 -2.442023E+03  1.280772E+03 -2.374424E+03 -3.785697E+03 -3.672015E+02
       146  20  3.080548E+05 -2.681494E+03  1.421972E+02  4.893412E+01 -2.494966E+03 -2.125081E+02
       146  21  3.129759E+05 -1.345103E+03  2.377350E+02 -2.714865E+03 -1.204243E+03 -4.617742E+01
       146  22  3.181788E+05  1.161233E+03  4.819811E+03 -2.582874E+03 -3.735727E+03 -3.671975E+02
       146  23  3.178973E+05 -2.310273E+02  2.555491E+03  1.072982E+01 -2.441057E+03 -2.125056E+02
       146  24  3.181792E+05 -4.674160E+01  1.528012E+03 -2.582820E+03 -1.146403E+03 -4.617608E+01
       146  25  3.326613E+05  4.764474E+03  8.358834E+03 -2.791328E+03 -3.685757E+03 -3.671934E+02
       146  26  3.277399E+05  2.219432E+03  4.968779E+03 -2.747509E+01 -2.387146E+03 -2.125032E+02
       146  27  3.233825E+05  1.251617E+03  2.818288E+03 -2.450774E+03 -1.088562E+03 -4.617471E+01
       147   1  3.235296E+05  1.507532E+03  2.550434E+03 -2.563659E+03  9.559728E+02 -5.194013E+01
       147   2  3.281199E+05  2.481237E+03  3.174769E+03  1.132880E+01  6.065975E+02 -2.163733E+02
       147   3  3.328093E+05  3.666157E+03  4.079452E+03 -2.601298E+03  2.572194E+02 -3.824585E+02
       147   4  3.180760E+05  1.468754E+02  1.198873E+03 -2.582944E+03  9.009753E+02 -5.194169E+01
       147   5  3.180264E+05 -3.175126E+01  6.996508E+02  1.086839E+01  5.510464E+02 -2.163757E+02
       147   6  3.180760E+05  9.174412E-01  4.811438E+02 -2.582939E+03  2.011174E+02 -3.824617E+02
       147   7  3.126223E+05 -1.213783E+03 -1.526906E+02 -2.602228E+03  8.459781E+02 -5.194325E+01
       147   8  3.079331E+05 -2.544747E+03 -1.775475E+03  1.040798E+01  4.954962E+02 -2.163780E+02
       147   9  3.033430E+05 -3.664338E+03 -3.117180E+03 -2.564581E+03  1.450167E+02 -3.824648E+02
       147  10  3.235296E+05  1.507532E+03  2.550432E+03 -2.563659E+03 -2.523176E-09 -4.194782E-10
       147  11  3.281199E+05  2.481237E+03  3.174769E+03  1.132890E+01 -2.350685E-10 -1.143840E-10
       147  12  3.328093E+05  3.666156E+03  4.079451E+03 -2.601298E+03  1.369284E-10 -5.449846E-10
       147  13  3.180760E+05  1.468752E+02  1.198871E+03 -2.582944E+03 -2.136487E-09 -8.509701E-10
       147  14  3.180264E+05 -3.175139E+01  6.996502E+02  1.086848E+01  3.189411E-09 -8.276955E-11
       147  15  3.180760E+05  9.172733E-01  4.811435E+02 -2.582939E+03  9.363001E-10  5.905371E-11
       147  16  3.126223E+05 -1.213784E+03 -1.526919E+02 -2.602228E+03  1.524826E-09 -1.262385E-09
       147  17  3.079331E+05 -2.544748E+03 -1.775476E+03  1.040807E+01 -1.505584E-09 -1.581832E-10
       147  18  3.033430E+05 -3.664338E+03 -3.117180E+03 -2.564581E+03 -2.666203E-10  5.368218E-10
       147  19  3.235296E+05  1.507532E+03  2.550434E+03 -2.563659E+03 -9.559728E+02  5.194013E+01
       147  20  3.281199E+05  2.481237E+03  3.174769E+03  1.132879E+01 -6.065975E+02  2.163733E+02
       147  21  3.328093E+05  3.666157E+03  4.079452E+03 -2.601298E+03 -2.572194E+02  3.824585E+02
       147  22  3.180760E+05  1.468754E+02  1.198873E+03 -2.582944E+03 -9.009753E+02  5.194169E+01
       147  23  3.180264E+05 -3.175126E+01  6.996508E+02  1.086839E+01 -5.510464E+02  2.163757E+02
       147  24  3.180760E+05  9.174413E-01  4.811438E+02 -2.582939E+03 -2.011174E+02  3.824617E+02
       147  25  3.126223E+05 -1.213783E+03 -1.526906E+02 -2.602228E+03 -8.459781E+02  5.194325E+01
       147  26  3.079331E+05 -2.544747E+03 -1.775475E+03  1.040798E+01 -4.954962E+02  2.163780E+02
       147  27  3.033430E+05 -3.664338E+03 -3.117180E+03 -2.564581E+03 -1.450167E+02  3.824648E+02
       148   1  3.435117E+05  6.353717E+03  6.681922E+03 -2.586524E+03  1.751902E+02 -4.797470E+02
       148   2  3.481716E+05  7.486435E+03  7.793855E+03  2.649592E+01 -2.709507E+01 -6.466002E+02
       148   3  3.528868E+05  8.721221E+03  9.063641E+03 -2.601664E+03 -2.293675E+02 -8.129213E+02
       148   4  3.180662E+05  1.566947E+01  4.278343E+02 -2.594846E+03  1.190152E+02 -4.797514E+02
       148   5  3.180385E+05 -1.574243E+01  4.048331E+02  2.574983E+01 -8.308339E+01 -6.466069E+02
       148   6  3.180661E+05  5.488564E+01  5.395625E+02 -2.594851E+03 -2.851676E+02 -8.129303E+02
       148   7  2.926212E+05 -6.322426E+03 -5.826302E+03 -2.603167E+03  6.284253E+01 -4.797558E+02
       148   8  2.879063E+05 -7.517987E+03 -6.984255E+03  2.500376E+01 -1.390690E+02 -6.466137E+02
       148   9  2.832466E+05 -8.611540E+03 -7.984605E+03 -2.588037E+03 -3.409646E+02 -8.129394E+02
       148  10  3.435117E+05  6.353717E+03  6.681922E+03 -2.586524E+03  6.213888E-10 -1.357049E-10
       148  11  3.481716E+05  7.486435E+03  7.793854E+03  2.649591E+01 -8.991766E-10  1.019132E-09
       148  12  3.528868E+05  8.721221E+03  9.063640E+03 -2.601664E+03  2.609817E-09 -6.980643E-10
       148  13  3.180662E+05  1.566922E+01  4.278338E+02 -2.594846E+03  4.575603E-09  3.767971E-10
       148  14  3.180385E+05 -1.574288E+01  4.048323E+02  2.574979E+01  3.484972E-09  7.293384E-10
       148  15  3.180661E+05  5.488491E+01  5.395611E+02 -2.594851E+03 -1.573125E-09 -6.017376E-10
       148  16  2.926212E+05 -6.322426E+03 -5.826302E+03 -2.603167E+03 -2.740455E-09  6.349483E-10
       148  17  2.879063E+05 -7.517988E+03 -6.984256E+03  2.500369E+01 -6.770434E-10  7.543972E-11
       148  18  2.832466E+05 -8.611540E+03 -7.984606E+03 -2.588038E+03 -1.797002E-09 -6.533101E-10
       148  19  3.435117E+05  6.353717E+03  6.681922E+03 -2.586524E+03 -1.751902E+02  4.797470E+02
       148  20  3.481716E+05  7.486435E+03  7.793855E+03  2.649592E+01  2.709507E+01  6.466002E+02
       148  21  3.528868E+05  8.721221E+03  9.063641E+03 -2.601664E+03  2.293675E+02  8.129213E+02
       148  22  3.180662E+05  1.566947E+01  4.278343E+02 -2.594846E+03 -1.190152E+02  4.797514E+02
       148  23  3.180385E+05 -1.574243E+01  4.048331E+02  2.574983E+01  8.308339E+01  6.466069E+02
       148  24  3.180661E+05  5.488564E+01  5.395625E+02 -2.594851E+03  2.851676E+02  8.129303E+02
       148  25  2.926212E+05 -6.322426E+03 -5.826302E+03 -2.603167E+03 -6.284253E+01  4.797558E+02
       148  26  2.879063E+05 -7.517987E+03 -6.984255E+03  2.500376E+01  1.390690E+02  6.466137E+02
       148  27  2.832466E+05 -8.611540E+03 -7.984605E+03 -2.588037E+03  3.409646E+02  8.129394E+02
       149   1  3.638026E+05  1.136343E+04  1.186798E+04 -2.564107E+03 -3.316771E+02 -9.143385E+02
       149   2  3.684713E+05  1.247814E+04  1.339426E+04  4.723230E+01 -8.523547E+02 -1.085189E+03
       149   3  3.733687E+05  1.420110E+04  1.541321E+04 -2.690113E+03 -1.373008E+03 -1.237850E+03
       149   4  3.181042E+05 -1.683853E+01  6.477298E+02 -2.618709E+03 -3.921216E+02 -9.143507E+02
       149   5  3.179903E+05 -8.980656E+01  1.016191E+03  5.559789E+01 -9.066474E+02 -1.085204E+03
       149   6  3.181040E+05  4.444634E+02  1.873117E+03 -2.618808E+03 -1.421145E+03 -1.237867E+03
       149   7  2.724077E+05 -1.139727E+04 -1.057268E+04 -2.673308E+03 -4.525616E+02 -9.143629E+02
       149   8  2.675116E+05 -1.265794E+04 -1.136206E+04  6.396270E+01 -9.609356E+02 -1.085220E+03
       149   9  2.628422E+05 -1.331240E+04 -1.166720E+04 -2.547508E+03 -1.469278E+03 -1.237885E+03
       149  10  3.638026E+05  1.136343E+04  1.186798E+04 -2.564107E+03 -1.722357E-09 -7.358056E-10
       149  11  3.684713E+05  1.247814E+04  1.339425E+04  4.723156E+01  6.458821E-10 -5.536501E-11
       149  12  3.733687E+05  1.420110E+04  1.541321E+04 -2.690115E+03  3.956531E-10  4.652311E-12
       149  13  3.181042E+05 -1.683947E+01  6.477279E+02 -2.618710E+03  6.528073E-09 -6.156942E-10
       149  14  3.179903E+05 -8.980804E+01  1.016187E+03  5.559710E+01  5.323941E-09  3.679895E-10
       149  15  3.181040E+05  4.444612E+02  1.873111E+03 -2.618809E+03 -1.666154E-09 -1.717578E-10
       149  16  2.724077E+05 -1.139727E+04 -1.057268E+04 -2.673308E+03  3.831712E-09 -4.746639E-10
       149  17  2.675116E+05 -1.265794E+04 -1.136206E+04  6.396186E+01 -1.600852E-09  5.553150E-10
       149  18  2.628422E+05 -1.331241E+04 -1.166721E+04 -2.547510E+03  3.822064E-09 -3.819603E-11
       149  19  3.638026E+05  1.136343E+04  1.186798E+04 -2.564107E+03  3.316771E+02  9.143385E+02
       149  20  3.684713E+05  1.247814E+04  1.339426E+04  4.723230E+01  8.523547E+02  1.085189E+03
       149  21  3.733687E+05  1.420110E+04  1.541321E+04 -2.690113E+03  1.373008E+03  1.237850E+03
       149  22  3.181042E+05 -1.683853E+01  6.477298E+02 -2.618709E+03  3.921216E+02  9.143507E+02
       149  23  3.179903E+05 -8.980656E+01  1.016191E+03  5.559789E+01  9.066474E+02  1.085204E+03
       149  24  3.181040E+05  4.444634E+02  1.873117E+03 -2.618808E+03  1.421145E+03  1.237867E+03
       149  25  2.724077E+05 -1.139727E+04 -1.057268E+04 -2.673308E+03  4.525616E+02  9.143629E+02
       149  26  2.675116E+05 -1.265794E+04 -1.136206E+04  6.396270E+01  9.609356E+02  1.085220E+03
       149  27  2.628422E+05 -1.331240E+04 -1.166720E+04 -2.547508E+03  1.469278E+03  1.237885E+03
       150   1  3.847920E+05  1.639012E+04  1.865387E+04 -2.272297E+03 -1.706467E+03 -1.367120E+03
       150   2  3.889951E+05  1.708291E+04  2.134313E+04 -5.970449E+01 -3.768396E+03 -1.551415E+03
       150   3  3.946534E+05  2.245511E+04  2.654754E+04 -3.354007E+03 -5.830409E+03 -1.550776E+03
       150   4  3.183742E+05 -1.482621E+02  2.354875E+03 -2.653485E+03 -1.799186E+03 -1.367152E+03
       150   5  3.176515E+05 -6.779737E+02  3.853459E+03  9.930981E+01 -3.798745E+03 -1.551437E+03
       150   6  3.183734E+05  3.461164E+03  7.824090E+03 -2.654817E+03 -5.798370E+03 -1.550783E+03
       150   7  2.519603E+05 -1.668697E+04 -1.394445E+04 -3.034633E+03 -1.891896E+03 -1.367184E+03
       150   8  2.463126E+05 -1.843924E+04 -1.363659E+04  2.583054E+02 -3.829091E+03 -1.551460E+03
       150   9  2.420987E+05 -1.553321E+04 -1.089979E+04 -1.955714E+03 -5.766336E+03 -1.550790E+03
       150  10  3.847920E+05  1.639011E+04  1.865387E+04 -2.272299E+03 -2.759861E-09  2.068115E-10
       150  11  3.889951E+05  1.708291E+04  2.134310E+04 -5.970919E+01 -6.669604E-09  5.839528E-10
       150  12  3.946534E+05  2.245509E+04  2.654747E+04 -3.354014E+03 -7.106307E-11 -1.525591E-09
       150  13  3.183742E+05 -1.482650E+02  2.354866E+03 -2.653487E+03  1.566349E-10  1.162959E-10
       150  14  3.176515E+05 -6.779802E+02  3.853428E+03  9.930507E+01  8.699529E-11  6.100356E-10
       150  15  3.183734E+05  3.461152E+03  7.824022E+03 -2.654825E+03 -1.805239E-09 -1.309053E-09
       150  16  2.519603E+05 -1.668697E+04 -1.394446E+04 -3.034635E+03  1.697512E-09  2.084997E-11
       150  17  2.463126E+05 -1.843924E+04 -1.363662E+04  2.583007E+02  2.019508E-09  1.575309E-09
       150  18  2.420986E+05 -1.553322E+04 -1.089986E+04 -1.955722E+03  1.512248E-09 -6.062849E-10
       150  19  3.847920E+05  1.639012E+04  1.865387E+04 -2.272297E+03  1.706467E+03  1.367120E+03
       150  20  3.889951E+05  1.708291E+04  2.134313E+04 -5.970449E+01  3.768396E+03  1.551415E+03
       150  21  3.946534E+05  2.245511E+04  2.654754E+04 -3.354007E+03  5.830409E+03  1.550776E+03
       150  22  3.183742E+05 -1.482621E+02  2.354875E+03 -2.653485E+03  1.799186E+03  1.367152E+03
       150  23  3.176515E+05 -6.779737E+02  3.853459E+03  9.930981E+01  3.798745E+03  1.551437E+03
       150  24  3.183734E+05  3.461164E+03  7.824090E+03 -2.654817E+03  5.798370E+03  1.550783E+03
       150  25  2.519603E+05 -1.668697E+04 -1.394445E+04 -3.034633E+03  1.891896E+03  1.367184E+03
       150  26  2.463126E+05 -1.843924E+04 -1.363659E+04  2.583054E+02  3.829091E+03  1.551460E+03
       150  27  2.420987E+05 -1.553321E+04 -1.089979E+04 -1.955714E+03  5.766336E+03  1.550790E+03
       151   1  4.080987E+05  2.071001E+04  3.103742E+04  7.012462E+01 -6.955140E+03 -1.911991E+03
       151   2  4.081819E+05  1.796324E+04  3.754255E+04 -1.409205E+03 -1.557298E+04 -2.180241E+03
       151   3  4.183871E+05  5.110908E+04  5.863466E+04 -8.602982E+03 -2.419183E+04 -7.509377E+02
       151   4  3.202805E+05 -1.155020E+03  9.508924E+03 -2.695033E+03 -7.328670E+03 -1.912137E+03
       151   5  3.152662E+05 -5.159256E+03  1.479879E+04  1.541933E+02 -1.537481E+04 -2.180200E+03
       151   6  3.202762E+05  2.663271E+04  3.428031E+04 -2.711014E+03 -2.342189E+04 -7.507204E+02
       151   7  2.324693E+05 -2.302059E+04 -1.202013E+04 -5.459800E+03 -7.702148E+03 -1.912279E+03
       151   8  2.223584E+05 -2.828238E+04 -7.945606E+03  1.717356E+03 -1.517668E+04 -2.180159E+03
       151   9  2.221741E+05  2.155753E+03  9.925266E+03  3.180022E+03 -2.265207E+04 -7.504884E+02
       151  10  4.080986E+05  2.070999E+04  3.103732E+04  7.011392E+01 -2.980483E-09 -2.063203E-09
       151  11  4.081817E+05  1.796317E+04  3.754208E+04 -1.409232E+03 -2.156514E-09 -1.042721E-09
       151  12  4.183865E+05  5.110892E+04  5.863356E+04 -8.602997E+03  1.534082E-09 -4.367535E-11
       151  13  3.202804E+05 -1.155038E+03  9.508816E+03 -2.695045E+03 -2.269043E-09 -3.170220E-09
       151  14  3.152660E+05 -5.159324E+03  1.479833E+04  1.541663E+02 -2.753444E-09  1.459572E-09
       151  15  3.202756E+05  2.663256E+04  3.427928E+04 -2.711028E+03  2.783834E-09  2.877271E-10
       151  16  2.324692E+05 -2.302061E+04 -1.202025E+04 -5.459812E+03  2.961945E-09 -1.313171E-09
       151  17  2.223582E+05 -2.828244E+04 -7.946047E+03  1.717329E+03 -1.171489E-09  1.110367E-09
       151  18  2.221735E+05  2.155615E+03  9.924301E+03  3.180008E+03 -7.647748E-10 -2.621516E-10
       151  19  4.080987E+05  2.071001E+04  3.103742E+04  7.012462E+01  6.955140E+03  1.911991E+03
       151  20  4.081819E+05  1.796324E+04  3.754255E+04 -1.409205E+03  1.557298E+04  2.180241E+03
       151  21  4.183871E+05  5.110908E+04  5.863466E+04 -8.602982E+03  2.419183E+04  7.509377E+02
       151  22  3.202805E+05 -1.155020E+03  9.508924E+03 -2.695033E+03  7.328670E+03  1.912137E+03
       151  23  3.152662E+05 -5.159256E+03  1.479879E+04  1.541933E+02  1.537481E+04  2.180200E+03
       151  24  3.202762E+05  2.663271E+04  3.428031E+04 -2.711014E+03  2.342189E+04  7.507204E+02
       151  25  2.324693E+05 -2.302059E+04 -1.202013E+04 -5.459800E+03  7.702148E+03  1.912279E+03
       151  26  2.223584E+05 -2.828238E+04 -7.945606E+03  1.717356E+03  1.517668E+04  2.180159E+03
       151  27  2.221741E+05  2.155753E+03  9.925266E+03  3.180022E+03  2.265207E+04  7.504884E+02
       152   1  2.892868E+06  1.177063E+07  2.910608E+06 -1.294915E+06  8.088087E+04  1.357037E+05
       152   2  2.218977E+06  9.448601E+06  2.266956E+06 -9.234969E+04  2.178194E+05  3.170770E+04
       152   3  1.781585E+06  7.341102E+06  1.776550E+06 -1.337063E+06  1.336057E+05 -7.467503E+04
       152   4  7.997778E+04  4.241856E+05  1.124453E+05 -1.231367E+06  8.142194E+04  5.103124E+04
       152   5 -4.019873E+04  3.261412E+05  4.712811E+04 -6.201772E+03  2.181316E+05  2.303413E+04
       152   6  6.352412E+04  4.242502E+05  8.379012E+04 -1.230655E+06  1.322544E+05 -7.739674E+03
       152   7 -2.742457E+06 -1.080666E+07 -2.695212E+06 -1.168707E+06  8.195244E+04 -3.212408E+04
       152   8 -2.305468E+06 -8.721157E+06 -2.178732E+06  7.892426E+04  2.184446E+05  1.448458E+04
       152   9 -1.658048E+06 -6.449347E+06 -1.612452E+06 -1.125153E+06  1.309181E+05  5.845840E+04
       152  10  2.892856E+06  1.177061E+07  2.910562E+06 -1.294923E+06  9.841903E-10 -7.075562E-09
       152  11  2.218926E+06  9.448587E+06  2.266865E+06 -9.235522E+04 -4.627145E-09 -2.225440E-08
       152  12  1.781564E+06  7.341091E+06  1.776507E+06 -1.337055E+06  1.485555E-09  3.419156E-08
       152  13  7.996995E+04  4.241810E+05  1.124279E+05 -1.231370E+06  1.212379E-09 -5.186371E-11
       152  14 -4.024997E+04  3.261278E+05  4.703768E+04 -6.205818E+03  5.900758E-09 -6.681674E-09
       152  15  6.350532E+04  4.242454E+05  8.375715E+04 -1.230655E+06  4.536104E-09 -2.841089E-09
       152  16 -2.742464E+06 -1.080667E+07 -2.695226E+06 -1.168704E+06  4.190337E-09  7.028008E-09
       152  17 -2.305519E+06 -8.721170E+06 -2.178822E+06  7.892170E+04  1.328242E-08  3.681630E-08
       152  18 -1.658068E+06 -6.449355E+06 -1.612490E+06 -1.125159E+06 -1.777110E-09 -2.506267E-08
       152  19  2.892868E+06  1.177063E+07  2.910608E+06 -1.294915E+06 -8.088087E+04 -1.357037E+05
       152  20  2.218977E+06  9.448601E+06  2.266956E+06 -9.234969E+04 -2.178194E+05 -3.170770E+04
       152  21  1.781585E+06  7.341102E+06  1.776550E+06 -1.337063E+06 -1.336057E+05  7.467503E+04
       152  22  7.997778E+04  4.241856E+05  1.124453E+05 -1.231367E+06 -8.142194E+04 -5.103124E+04
       152  23 -4.019873E+04  3.261412E+05  4.712811E+04 -6.201772E+03 -2.181316E+05 -2.303413E+04
       152  24  6.352412E+04  4.242502E+05  8.379012E+04 -1.230655E+06 -1.322544E+05  7.739674E+03
       152  25 -2.742457E+06 -1.080666E+07 -2.695212E+06 -1.168707E+06 -8.195244E+04  3.212408E+04
       152  26 -2.305468E+06 -8.721157E+06 -2.178732E+06  7.892426E+04 -2.184446E+05 -1.448458E+04
       152  27 -1.658048E+06 -6.449347E+06 -1.612452E+06 -1.125153E+06 -1.309181E+05 -5.845840E+04
       153   1  5.158545E+05  2.256244E+06  5.358858E+05 -1.266052E+06  4.979158E+04 -4.472647E+04
       153   2 -8.687025E+04  1.146849E+05  3.374665E+04 -1.991267E+03 -4.323762E+03 -1.003434E+05
       153   3 -4.991092E+05 -2.100350E+06 -4.129539E+05 -1.170715E+06 -5.714931E+04 -1.556900E+05
       153   4  4.769115E+04  3.771611E+05  7.728861E+04 -1.227659E+06  4.935035E+04 -2.587292E+04
       153   5 -1.148104E+04  4.161192E+05  1.077011E+05 -1.055750E+04 -4.738869E+03 -8.197308E+04
       153   6  1.201802E+05  3.771832E+05  1.940923E+05 -1.226030E+06 -5.754411E+04 -1.379930E+05
       153   7 -4.207299E+05 -1.498709E+06 -3.815644E+05 -1.189359E+06  4.891074E+04 -7.076053E+03
       153   8  6.390178E+04  7.176370E+05  1.816501E+05 -1.912744E+04 -5.154383E+03 -6.359388E+04
       153   9  7.390203E+05  2.860321E+06  8.006902E+05 -1.281528E+06 -5.794125E+04 -1.202244E+05
       153  10  5.158513E+05  2.256241E+06  5.358775E+05 -1.266050E+06 -7.689002E-09 -3.667942E-09
       153  11 -8.687297E+04  1.146741E+05  3.372770E+04 -1.991617E+03  6.091512E-09 -4.684575E-08
       153  12 -4.991192E+05 -2.100377E+06 -4.130058E+05 -1.170723E+06 -5.750253E-09  3.589025E-08
       153  13  4.768836E+04  3.771597E+05  7.728278E+04 -1.227658E+06 -3.203359E-09 -2.952702E-10
       153  14 -1.148286E+04  4.161120E+05  1.076884E+05 -1.055781E+04  1.270187E-08 -1.235991E-08
       153  15  1.201715E+05  3.771618E+05  1.940503E+05 -1.226036E+06  2.409320E-08 -2.802391E-09
       153  16 -4.207325E+05 -1.498710E+06 -3.815690E+05 -1.189359E+06 -6.593116E-09  3.084271E-09
       153  17  6.390066E+04  7.176327E+05  1.816424E+05 -1.912771E+04 -2.181636E-08  7.064946E-08
       153  18  7.390128E+05  2.860305E+06  8.006568E+05 -1.281534E+06  3.385214E-09 -2.474611E-08
       153  19  5.158545E+05  2.256244E+06  5.358858E+05 -1.266052E+06 -4.979158E+04  4.472647E+04
       153  20 -8.687025E+04  1.146849E+05  3.374665E+04 -1.991267E+03  4.323762E+03  1.003434E+05
       153  21 -4.991092E+05 -2.100350E+06 -4.129539E+05 -1.170715E+06  5.714931E+04  1.556900E+05
       153  22  4.769115E+04  3.771611E+05  7.728861E+04 -1.227659E+06 -4.935035E+04  2.587292E+04
       153  23 -1.148104E+04  4.161192E+05  1.077011E+05 -1.055750E+04  4.738869E+03  8.197308E+04
       153  24  1.201802E+05  3.771832E+05  1.940923E+05 -1.226030E+06  5.754411E+04  1.379930E+05
       153  25 -4.207299E+05 -1.498709E+06 -3.815644E+05 -1.189359E+06 -4.891074E+04  7.076053E+03
       153  26  6.390178E+04  7.176370E+05  1.816501E+05 -1.912744E+04  5.154383E+03  6.359388E+04
       153  27  7.390203E+05  2.860321E+06  8.006902E+05 -1.281528E+06  5.794125E+04  1.202244E+05
       154   1 -1.840354E+06 -6.996010E+06 -1.594082E+06 -1.178310E+06 -1.402917E+05 -2.480088E+05
       154   2 -2.568398E+06 -9.391780E+06 -2.032989E+06  1.087085E+05 -2.285215E+05 -3.602517E+05
       154   3 -2.335197E+06 -1.135396E+07 -2.122890E+06 -1.060153E+06 -8.495381E+04 -4.696096E+05
       154   4  2.873100E+04  4.766788E+05  2.494516E+05 -1.232921E+06 -1.415916E+05 -1.811437E+05
       154   5 -1.508583E+05  2.563285E+05  3.417408E+05 -5.354798E+03 -2.281266E+05 -3.729765E+05
       154   6  6.387896E+05  4.765909E+05  8.348830E+05 -1.231197E+06 -8.443627E+04 -5.623573E+05
       154   7  1.893651E+06  8.000524E+06  2.088873E+06 -1.287882E+06 -1.428953E+05 -1.134573E+05
       154   8  2.259757E+06  9.989979E+06  2.709607E+06 -1.209787E+05 -2.277313E+05 -3.858645E+05
       154   9  3.602269E+06  1.243559E+07  3.782134E+06 -1.405322E+06 -8.387490E+04 -6.568127E+05
       154  10 -1.840392E+06 -6.996082E+06 -1.594236E+06 -1.178338E+06 -7.221958E-12  1.166208E-09
       154  11 -2.568489E+06 -9.391935E+06 -2.033334E+06  1.086417E+05 -4.185251E-09 -2.834386E-08
       154  12 -2.335265E+06 -1.135420E+07 -2.123326E+06 -1.060186E+06 -2.125289E-09 -3.831753E-09
       154  13  2.870059E+04  4.766381E+05  2.493521E+05 -1.232942E+06 -9.824838E-09 -1.303043E-10
       154  14 -1.509515E+05  2.561653E+05  3.413818E+05 -5.423295E+03 -5.003638E-09 -6.178727E-09
       154  15  6.386970E+05  4.762497E+05  8.342753E+05 -1.231235E+06 -5.712045E-09 -2.069681E-10
       154  16  1.893626E+06  8.000505E+06  2.088811E+06 -1.287895E+06  1.133689E-08 -1.417405E-09
       154  17  2.259662E+06  9.989808E+06  2.709234E+06 -1.210489E+05 -1.260395E-08  3.929849E-08
       154  18  3.602149E+06  1.243513E+07  3.781325E+06 -1.405366E+06 -8.798772E-09  4.485688E-09
       154  19 -1.840354E+06 -6.996010E+06 -1.594082E+06 -1.178310E+06  1.402917E+05  2.480088E+05
       154  20 -2.568398E+06 -9.391780E+06 -2.032989E+06  1.087085E+05  2.285215E+05  3.602517E+05
       154  21 -2.335197E+06 -1.135396E+07 -2.122890E+06 -1.060153E+06  8.495381E+04  4.696096E+05
       154  22  2.873100E+04  4.766788E+05  2.494516E+05 -1.232921E+06  1.415916E+05  1.811437E+05
       154  23 -1.508583E+05  2.563285E+05  3.417408E+05 -5.354798E+03  2.281266E+05  3.729765E+05
       154  24  6.387896E+05  4.765909E+05  8.348830E+05 -1.231197E+06  8.443627E+04  5.623573E+05
       154  25  1.893651E+06  8.000524E+06  2.088873E+06 -1.287882E+06  1.428953E+05  1.134573E+05
       154  26  2.259757E+06  9.989979E+06  2.709607E+06 -1.209787E+05  2.277313E+05  3.858645E+05
       154  27  3.602269E+06  1.243559E+07  3.782134E+06 -1.405322E+06  8.387490E+04  6.568127E+05
       155   1 -4.577329E+05 -2.029250E+05 -9.887091E+04 -2.091323E+05 -5.113829E+04 -1.704140E+04
       155   2 -4.325559E+05 -1.411367E+05 -5.337906E+04 -1.966616E+05 -3.055340E+04 -4.749771E+03
       155   3 -4.163058E+05 -1.102428E+05 -3.160762E+04 -1.825971E+05 -8.543928E+03  3.750537E+03
       155   4 -3.283683E+05 -1.220199E+05 -5.944614E+04 -1.403357E+05 -3.947753E+04 -1.266966E+04
       155   5 -3.214745E+05 -8.480643E+04 -2.817750E+04 -1.495751E+05 -2.638582E+04 -3.187238E+03
       155   6 -3.220208E+05 -7.700074E+04 -1.468790E+04 -1.572222E+05 -1.187041E+04  2.502519E+03
       155   7 -1.989868E+05 -4.110393E+04 -2.002292E+04 -7.152446E+04 -2.781437E+04 -8.295480E+03
       155   8 -2.103804E+05 -2.847161E+04 -2.976718E+03 -1.024799E+05 -2.221747E+04 -1.624149E+03
       155   9 -2.277257E+05 -4.375769E+04  2.231773E+03 -1.318436E+05 -1.519746E+04  1.254302E+03
       155  10 -4.577358E+05 -2.029260E+05 -9.887638E+04 -2.091330E+05 -3.210094E-09 -1.332619E-10
       155  11 -4.325569E+05 -1.411370E+05 -5.338085E+04 -1.966617E+05 -4.621614E-09  1.076533E-09
       155  12 -4.163059E+05 -1.102428E+05 -3.160779E+04 -1.825971E+05 -2.216601E-09  8.587637E-10
       155  13 -3.283700E+05 -1.220205E+05 -5.944937E+04 -1.403361E+05 -9.038256E-11  5.948096E-10
       155  14 -3.214753E+05 -8.480663E+04 -2.817883E+04 -1.495751E+05  2.916104E-09  1.108115E-09
       155  15 -3.220210E+05 -7.700079E+04 -1.468817E+04 -1.572222E+05  1.576793E-09  1.003792E-09
       155  16 -1.989876E+05 -4.110421E+04 -2.002451E+04 -7.152464E+04  1.803098E-09  9.083310E-10
       155  17 -2.103809E+05 -2.847175E+04 -2.977650E+03 -1.024799E+05  1.679690E-10  1.313651E-09
       155  18 -2.277260E+05 -4.375776E+04  2.231336E+03 -1.318436E+05  8.427118E-10  1.217000E-09
       155  19 -4.577329E+05 -2.029250E+05 -9.887091E+04 -2.091323E+05  5.113829E+04  1.704140E+04
       155  20 -4.325559E+05 -1.411367E+05 -5.337906E+04 -1.966616E+05  3.055340E+04  4.749771E+03
       155  21 -4.163058E+05 -1.102428E+05 -3.160762E+04 -1.825971E+05  8.543928E+03 -3.750537E+03
       155  22 -3.283683E+05 -1.220199E+05 -5.944614E+04 -1.403357E+05  3.947753E+04  1.266966E+04
       155  23 -3.214745E+05 -8.480643E+04 -2.817750E+04 -1.495751E+05  2.638582E+04  3.187238E+03
       155  24 -3.220208E+05 -7.700074E+04 -1.468790E+04 -1.572222E+05  1.187041E+04 -2.502519E+03
       155  25 -1.989868E+05 -4.110393E+04 -2.002292E+04 -7.152446E+04  2.781437E+04  8.295480E+03
       155  26 -2.103804E+05 -2.847161E+04 -2.976718E+03 -1.024799E+05  2.221747E+04  1.624149E+03
       155  27 -2.277257E+05 -4.375769E+04  2.231773E+03 -1.318436E+05  1.519746E+04 -1.254302E+03
       156   1 -3.939639E+05 -1.045140E+05 -2.424705E+04 -1.789388E+05 -6.706668E+03  3.196061E+03
       156   2 -3.664096E+05 -8.873115E+04 -1.343840E+04 -1.682806E+05 -2.382372E+03  2.802720E+03
       156   3 -3.358772E+05 -7.905133E+04 -5.866692E+03 -1.620563E+05  2.089926E+03  2.015190E+03
       156   4 -3.203215E+05 -7.640712E+04 -1.094811E+04 -1.568277E+05 -9.809706E+03  2.031910E+03
       156   5 -3.216869E+05 -7.201354E+04 -5.713840E+03 -1.551426E+05 -6.264358E+03  1.346443E+03
       156   6 -3.199203E+05 -7.356852E+04 -3.098820E+03 -1.578919E+05 -2.571149E+03  2.667265E+02
       156   7 -2.466741E+05 -4.829990E+04  2.350456E+03 -1.347143E+05 -1.291310E+04  8.676061E+02
       156   8 -2.769620E+05 -5.529567E+04  2.010732E+03 -1.420038E+05 -1.014664E+04 -1.099557E+02
       156   9 -3.039630E+05 -6.808561E+04 -3.308121E+02 -1.537273E+05 -7.232404E+03 -1.481799E+03
       156  10 -3.939640E+05 -1.045140E+05 -2.424715E+04 -1.789388E+05  4.577942E-09  1.596979E-09
       156  11 -3.664096E+05 -8.873116E+04 -1.343843E+04 -1.682806E+05 -8.029470E-09 -2.034591E-09
       156  12 -3.358772E+05 -7.905134E+04 -5.866708E+03 -1.620563E+05 -8.125144E-09 -1.297587E-09
       156  13 -3.203216E+05 -7.640715E+04 -1.094830E+04 -1.568277E+05 -4.032546E-09 -6.438884E-10
       156  14 -3.216869E+05 -7.201355E+04 -5.713917E+03 -1.551426E+05 -1.104133E-08 -2.505906E-09
       156  15 -3.199203E+05 -7.356852E+04 -3.098832E+03 -1.578919E+05  4.127478E-09  6.670329E-10
       156  16 -2.466743E+05 -4.829995E+04  2.350141E+03 -1.347143E+05 -1.180234E-08 -2.826000E-09
       156  17 -2.769621E+05 -5.529570E+04  2.010538E+03 -1.420038E+05 -6.034345E-09 -2.469350E-09
       156  18 -3.039630E+05 -6.808563E+04 -3.309146E+02 -1.537273E+05  6.335912E-09  2.784948E-09
       156  19 -3.939639E+05 -1.045140E+05 -2.424705E+04 -1.789388E+05  6.706668E+03 -3.196061E+03
       156  20 -3.664096E+05 -8.873115E+04 -1.343840E+04 -1.682806E+05  2.382372E+03 -2.802720E+03
       156  21 -3.358772E+05 -7.905133E+04 -5.866692E+03 -1.620563E+05 -2.089926E+03 -2.015190E+03
       156  22 -3.203215E+05 -7.640712E+04 -1.094811E+04 -1.568277E+05  9.809706E+03 -2.031910E+03
       156  23 -3.216869E+05 -7.201354E+04 -5.713840E+03 -1.551426E+05  6.264358E+03 -1.346443E+03
       156  24 -3.199203E+05 -7.356852E+04 -3.098820E+03 -1.578919E+05  2.571149E+03 -2.667265E+02
       156  25 -2.466741E+05 -4.829990E+04  2.350456E+03 -1.347143E+05  1.291310E+04 -8.676061E+02
       156  26 -2.769620E+05 -5.529567E+04  2.010732E+03 -1.420038E+05  1.014664E+04  1.099557E+02
       156  27 -3.039630E+05 -6.808561E+04 -3.308121E+02 -1.537273E+05  7.232404E+03  1.481799E+03
       157   1 -3.168791E+05 -7.246330E+04 -1.954818E+03 -1.569518E+05  3.006508E+03  7.802956E+02
       157   2 -2.894109E+05 -5.969595E+04  3.779085E+03 -1.463151E+05  4.604699E+03 -1.319944E+03
       157   3 -2.579000E+05 -5.124922E+04  8.950585E+03 -1.404670E+05  6.218201E+03 -3.460852E+03
       157   4 -3.197630E+05 -7.354880E+04 -2.319522E+03 -1.578409E+05 -1.631420E+03 -9.594827E+02
       157   5 -3.217840E+05 -7.133713E+04 -1.260732E+03 -1.554689E+05 -1.137281E+02 -3.089977E+03
       157   6 -3.197472E+05 -7.343021E+04 -7.005525E+02 -1.578857E+05  1.419235E+03 -5.261148E+03
       157   7 -3.226469E+05 -7.463427E+04 -2.684134E+03 -1.587300E+05 -6.269323E+03 -2.699251E+03
       157   8 -3.541557E+05 -8.297811E+04 -6.300414E+03 -1.646221E+05 -4.831867E+03 -4.859900E+03
       157   9 -3.815894E+05 -9.561050E+04 -1.035145E+04 -1.753026E+05 -3.379170E+03 -7.061232E+03
       157  10 -3.168791E+05 -7.246330E+04 -1.954836E+03 -1.569518E+05  5.616064E-09  3.470715E-09
       157  11 -2.894109E+05 -5.969596E+04  3.779041E+03 -1.463151E+05  9.091881E-09 -4.244202E-10
       157  12 -2.579000E+05 -5.124925E+04  8.950490E+03 -1.404670E+05  2.266840E-09 -3.657505E-09
       157  13 -3.197630E+05 -7.354880E+04 -2.319529E+03 -1.578409E+05  5.875262E-09  1.926470E-09
       157  14 -3.217840E+05 -7.133714E+04 -1.260750E+03 -1.554689E+05  8.841527E-09  8.296163E-11
       157  15 -3.197472E+05 -7.343024E+04 -7.006083E+02 -1.578857E+05 -1.018917E-09 -2.097484E-09
       157  16 -3.226469E+05 -7.463429E+04 -2.684222E+03 -1.587300E+05  9.180335E-10  5.862748E-10
       157  17 -3.541557E+05 -8.297814E+04 -6.300502E+03 -1.646221E+05 -2.612583E-09  4.963024E-10
       157  18 -3.815895E+05 -9.561056E+04 -1.035156E+04 -1.753027E+05 -8.156808E-09 -4.812511E-10
       157  19 -3.168791E+05 -7.246330E+04 -1.954818E+03 -1.569518E+05 -3.006508E+03 -7.802956E+02
       157  20 -2.894109E+05 -5.969595E+04  3.779085E+03 -1.463151E+05 -4.604699E+03  1.319944E+03
       157  21 -2.579000E+05 -5.124922E+04  8.950585E+03 -1.404670E+05 -6.218201E+03  3.460852E+03
       157  22 -3.197630E+05 -7.354880E+04 -2.319522E+03 -1.578409E+05  1.631420E+03  9.594827E+02
       157  23 -3.217840E+05 -7.133713E+04 -1.260732E+03 -1.554689E+05  1.137281E+02  3.089977E+03
       157  24 -3.197472E+05 -7.343021E+04 -7.005525E+02 -1.578857E+05 -1.419235E+03  5.261148E+03
       157  25 -3.226469E+05 -7.463427E+04 -2.684134E+03 -1.587300E+05  6.269323E+03  2.699251E+03
       157  26 -3.541557E+05 -8.297811E+04 -6.300414E+03 -1.646221E+05  4.831867E+03  4.859900E+03
       157  27 -3.815894E+05 -9.561050E+04 -1.035145E+04 -1.753026E+05  3.379170E+03  7.061232E+03
       158   1 -2.391979E+05 -4.456725E+04  1.220183E+04 -1.352531E+05  6.847186E+03 -4.837981E+03
       158   2 -2.117992E+05 -3.195520E+04  1.700373E+04 -1.245981E+05  7.917350E+03 -7.205571E+03
       158   3 -1.802389E+05 -2.353343E+04  2.168614E+04 -1.187366E+05  8.988631E+03 -9.575603E+03
       158   4 -3.197284E+05 -7.343397E+04 -5.309413E+02 -1.578760E+05  2.051038E+03 -6.637301E+03
       158   5 -3.218112E+05 -7.134600E+04 -3.098508E+02 -1.554768E+05  3.116131E+03 -9.007018E+03
       158   6 -3.197328E+05 -7.344781E+04 -2.045003E+02 -1.578718E+05  4.182331E+03 -1.137917E+04
       158   7 -4.002528E+05 -1.023004E+05 -1.326400E+04 -1.804963E+05 -2.744508E+03 -8.436394E+03
       158   8 -4.318107E+05 -1.107358E+05 -1.762373E+04 -1.863505E+05 -1.684216E+03 -1.080814E+04
       158   9 -4.592057E+05 -1.233602E+05 -2.209539E+04 -1.969988E+05 -6.228285E+02 -1.318232E+04
       158  10 -2.391979E+05 -4.456729E+04  1.220169E+04 -1.352531E+05  3.004243E-08  9.646996E-09
       158  11 -2.117993E+05 -3.195527E+04  1.700351E+04 -1.245981E+05 -7.753318E-09  5.374892E-09
       158  12 -1.802390E+05 -2.353355E+04  2.168581E+04 -1.187366E+05 -2.542671E-08 -1.415608E-09
       158  13 -3.197284E+05 -7.343402E+04 -5.310320E+02 -1.578760E+05 -5.648093E-09 -3.705702E-09
       158  14 -3.218112E+05 -7.134609E+04 -3.100215E+02 -1.554768E+05 -3.890494E-09 -6.733505E-09
       158  15 -3.197328E+05 -7.344796E+04 -2.047764E+02 -1.578718E+05  1.168342E-08 -8.751575E-09
       158  16 -4.002529E+05 -1.023004E+05 -1.326414E+04 -1.804963E+05 -4.783277E-08 -1.256419E-08
       158  17 -4.318107E+05 -1.107359E+05 -1.762396E+04 -1.863505E+05 -1.090991E-08  1.341869E-09
       158  18 -4.592058E+05 -1.233604E+05 -2.209572E+04 -1.969988E+05  3.242404E-08  1.874669E-08
       158  19 -2.391979E+05 -4.456725E+04  1.220183E+04 -1.352531E+05 -6.847186E+03  4.837981E+03
       158  20 -2.117992E+05 -3.195520E+04  1.700373E+04 -1.245981E+05 -7.917350E+03  7.205571E+03
       158  21 -1.802389E+05 -2.353343E+04  2.168614E+04 -1.187366E+05 -8.988631E+03  9.575603E+03
       158  22 -3.197284E+05 -7.343397E+04 -5.309413E+02 -1.578760E+05 -2.051038E+03  6.637301E+03
       158  23 -3.218112E+05 -7.134600E+04 -3.098508E+02 -1.554768E+05 -3.116131E+03  9.007018E+03
       158  24 -3.197328E+05 -7.344781E+04 -2.045003E+02 -1.578718E+05 -4.182331E+03  1.137917E+04
       158  25 -4.002528E+05 -1.023004E+05 -1.326400E+04 -1.804963E+05  2.744508E+03  8.436394E+03
       158  26 -4.318107E+05 -1.107358E+05 -1.762373E+04 -1.863505E+05  1.684216E+03  1.080814E+04
       158  27 -4.592057E+05 -1.233602E+05 -2.209539E+04 -1.969988E+05  6.228285E+02  1.318232E+04
       159   1 -1.615807E+05 -1.683960E+04  2.478546E+04 -1.135158E+05  9.551637E+03 -1.097906E+04
       159   2 -1.342157E+05 -4.229628E+03  2.936380E+04 -1.028617E+05  1.052731E+04 -1.337892E+04
       159   3 -1.026756E+05  4.202432E+03  3.389468E+04 -9.699466E+04  1.149859E+04 -1.576623E+04
       159   4 -3.197332E+05 -7.344991E+04 -1.814524E+02 -1.578697E+05  4.745797E+03 -1.278263E+04
       159   5 -3.218200E+05 -7.136381E+04 -1.811504E+02 -1.554746E+05  5.746017E+03 -1.517362E+04
       159   6 -3.197375E+05 -7.346044E+04 -2.477061E+02 -1.578670E+05  6.741855E+03 -1.755209E+04
       159   7 -4.778568E+05 -1.300569E+05 -2.514821E+04 -2.022124E+05 -5.869283E+01 -1.458568E+04
       159   8 -5.093864E+05 -1.384943E+05 -2.972663E+04 -2.080726E+05  9.662570E+02 -1.696776E+04
       159   9 -5.367511E+05 -1.511193E+05 -3.439151E+04 -2.187200E+05  1.986825E+03 -1.933731E+04
       159  10 -1.615808E+05 -1.683976E+04  2.478506E+04 -1.135158E+05 -2.687418E-08 -4.144016E-09
       159  11 -1.342159E+05 -4.229850E+03  2.936326E+04 -1.028615E+05 -4.943825E-09  2.061667E-10
       159  12 -1.026758E+05  4.202130E+03  3.389396E+04 -9.699451E+04  2.306665E-08  7.484068E-09
       159  13 -3.197332E+05 -7.345009E+04 -1.818017E+02 -1.578697E+05  1.367188E-08 -9.603206E-09
       159  14 -3.218201E+05 -7.136406E+04 -1.816450E+02 -1.554746E+05  8.353973E-09 -8.542950E-09
       159  15 -3.197376E+05 -7.346078E+04 -2.483704E+02 -1.578669E+05  4.651497E-10 -3.956711E-09
       159  16 -4.778569E+05 -1.300571E+05 -2.514861E+04 -2.022124E+05  3.523023E-08  1.972209E-08
       159  17 -5.093865E+05 -1.384946E+05 -2.972717E+04 -2.080726E+05  4.779274E-09  3.448678E-09
       159  18 -5.367512E+05 -1.511197E+05 -3.439222E+04 -2.187199E+05 -2.408311E-08 -1.042155E-08
       159  19 -1.615807E+05 -1.683960E+04  2.478546E+04 -1.135158E+05 -9.551637E+03  1.097906E+04
       159  20 -1.342157E+05 -4.229628E+03  2.936380E+04 -1.028617E+05 -1.052731E+04  1.337892E+04
       159  21 -1.026756E+05  4.202432E+03  3.389468E+04 -9.699466E+04 -1.149859E+04  1.576623E+04
       159  22 -3.197332E+05 -7.344991E+04 -1.814524E+02 -1.578697E+05 -4.745797E+03  1.278263E+04
       159  23 -3.218200E+05 -7.136381E+04 -1.811504E+02 -1.554746E+05 -5.746017E+03  1.517362E+04
       159  24 -3.197375E+05 -7.346044E+04 -2.477061E+02 -1.578670E+05 -6.741855E+03  1.755209E+04
       159  25 -4.778568E+05 -1.300569E+05 -2.514821E+04 -2.022124E+05  5.869283E+01  1.458568E+04
       159  26 -5.093864E+05 -1.384943E+05 -2.972663E+04 -2.080726E+05 -9.662570E+02  1.696776E+04
       159  27 -5.367511E+05 -1.511193E+05 -3.439151E+04 -2.187200E+05 -1.986825E+03  1.933731E+04
       160   1 -8.403551E+04  1.089618E+04  3.692063E+04 -9.178111E+04  1.207762E+04 -1.715223E+04
       160   2 -5.670831E+04  2.351039E+04  4.137417E+04 -8.113217E+04  1.299313E+04 -1.948944E+04
       160   3 -2.521139E+04  3.195067E+04  4.580328E+04 -7.525383E+04  1.386504E+04 -2.170931E+04
       160   4 -3.197488E+05 -7.346022E+04 -3.097692E+02 -1.578675E+05  7.315544E+03 -1.894036E+04
       160   5 -3.218182E+05 -7.138233E+04 -5.302452E+02 -1.554713E+05  8.462751E+03 -2.119110E+04
       160   6 -3.197645E+05 -7.352453E+04 -9.587280E+02 -1.578463E+05  9.566332E+03 -2.332447E+04
       160   7 -5.554022E+05 -1.578108E+05 -3.754105E+04 -2.239304E+05  2.555387E+03 -2.072777E+04
       160   8 -5.868508E+05 -1.662671E+05 -4.243540E+04 -2.297802E+05  3.934445E+03 -2.289198E+04
       160   9 -6.142207E+05 -1.789894E+05 -4.772130E+04 -2.404010E+05  5.269837E+03 -2.493880E+04
       160  10 -8.403575E+04  1.089582E+04  3.691981E+04 -9.178094E+04 -2.881640E-09 -7.772013E-10
       160  11 -5.670859E+04  2.350994E+04  4.137314E+04 -8.113197E+04 -4.546042E-09  1.491238E-10
       160  12 -2.521173E+04  3.195012E+04  4.580203E+04 -7.525359E+04  2.219469E-09  3.847843E-10
       160  13 -3.197490E+05 -7.346062E+04 -3.105438E+02 -1.578674E+05 -2.007800E-09 -1.146599E-09
       160  14 -3.218184E+05 -7.138283E+04 -5.312235E+02 -1.554712E+05 -4.861942E-09  1.035632E-09
       160  15 -3.197647E+05 -7.352514E+04 -9.599221E+02 -1.578461E+05 -2.149324E-09  1.994208E-09
       160  16 -5.554023E+05 -1.578113E+05 -3.754187E+04 -2.239303E+05 -8.617770E-10 -1.366772E-09
       160  17 -5.868510E+05 -1.662677E+05 -4.243641E+04 -2.297801E+05 -5.441780E-09  5.979329E-10
       160  18 -6.142209E+05 -1.789901E+05 -4.772252E+04 -2.404009E+05 -1.665134E-09  4.431414E-09
       160  19 -8.403551E+04  1.089618E+04  3.692063E+04 -9.178111E+04 -1.207762E+04  1.715223E+04
       160  20 -5.670831E+04  2.351039E+04  4.137417E+04 -8.113217E+04 -1.299313E+04  1.948944E+04
       160  21 -2.521139E+04  3.195067E+04  4.580328E+04 -7.525383E+04 -1.386504E+04  2.170931E+04
       160  22 -3.197488E+05 -7.346022E+04 -3.097692E+02 -1.578675E+05 -7.315544E+03  1.894036E+04
       160  23 -3.218182E+05 -7.138233E+04 -5.302452E+02 -1.554713E+05 -8.462751E+03  2.119110E+04
       160  24 -3.197645E+05 -7.352453E+04 -9.587280E+02 -1.578463E+05 -9.566332E+03  2.332447E+04
       160  25 -5.554022E+05 -1.578108E+05 -3.754105E+04 -2.239304E+05 -2.555387E+03  2.072777E+04
       160  26 -5.868508E+05 -1.662671E+05 -4.243540E+04 -2.297802E+05 -3.934445E+03  2.289198E+04
       160  27 -6.142207E+05 -1.789894E+05 -4.772130E+04 -2.404010E+05 -5.269837E+03  2.493880E+04
       161   1 -6.546037E+03  3.863075E+04  4.871348E+04 -7.010095E+04  1.459740E+04 -2.293698E+04
       161   2  2.045564E+04  5.137072E+04  5.328969E+04 -5.915994E+04  1.418821E+04 -2.496941E+04
       161   3  5.159088E+04  5.971561E+04  5.854694E+04 -5.277618E+04  1.335910E+04 -2.588295E+04
       161   4 -3.198408E+05 -7.352310E+04 -1.275676E+03 -1.578509E+05  1.023479E+04 -2.457645E+04
       161   5 -3.217749E+05 -7.169523E+04 -2.346992E+03 -1.553524E+05  1.203776E+04 -2.577876E+04
       161   6 -3.200152E+05 -7.470155E+04 -4.490538E+03 -1.574121E+05  1.342077E+04 -2.586176E+04
       161   7 -6.330338E+05 -1.856683E+05 -5.126769E+04 -2.455603E+05  5.874456E+03 -2.621507E+04
       161   8 -6.638821E+05 -1.947499E+05 -5.798677E+04 -2.514957E+05  9.888552E+03 -2.658763E+04
       161   9 -6.914745E+05 -2.091047E+05 -6.753175E+04 -2.619893E+05  1.348240E+04 -2.584059E+04
       161  10 -6.546407E+03  3.863013E+04  4.871209E+04 -7.010068E+04  1.617212E-08  3.493434E-09
       161  11  2.045526E+04  5.137000E+04  5.328814E+04 -5.915966E+04 -6.744491E-09 -9.992468E-09
       161  12  5.159051E+04  5.971484E+04  5.854534E+04 -5.277590E+04 -4.598535E-08 -2.148282E-08
       161  13 -3.198410E+05 -7.352378E+04 -1.277008E+03 -1.578507E+05  1.987248E-09  2.622872E-09
       161  14 -3.217753E+05 -7.169598E+04 -2.348513E+03 -1.553522E+05 -1.039517E-08  2.286650E-10
       161  15 -3.200156E+05 -7.470232E+04 -4.492133E+03 -1.574118E+05 -2.366107E-08 -4.325394E-09
       161  16 -6.330340E+05 -1.856690E+05 -5.126904E+04 -2.455602E+05 -1.418262E-08  1.964734E-09
       161  17 -6.638824E+05 -1.947507E+05 -5.798828E+04 -2.514954E+05  1.095932E-08  1.124230E-08
       161  18 -6.914749E+05 -2.091055E+05 -6.753335E+04 -2.619890E+05  2.894090E-08  1.270056E-08
       161  19 -6.546037E+03  3.863075E+04  4.871348E+04 -7.010095E+04 -1.459740E+04  2.293698E+04
       161  20  2.045564E+04  5.137072E+04  5.328969E+04 -5.915994E+04 -1.418821E+04  2.496941E+04
       161  21  5.159088E+04  5.971561E+04  5.854694E+04 -5.277618E+04 -1.335910E+04  2.588295E+04
       161  22 -3.198408E+05 -7.352310E+04 -1.275676E+03 -1.578509E+05 -1.023479E+04  2.457645E+04
       161  23 -3.217749E+05 -7.169523E+04 -2.346992E+03 -1.553524E+05 -1.203776E+04  2.577876E+04
       161  24 -3.200152E+05 -7.470155E+04 -4.490538E+03 -1.574121E+05 -1.342077E+04  2.586176E+04
       161  25 -6.330338E+05 -1.856683E+05 -5.126769E+04 -2.455603E+05 -5.874456E+03  2.621507E+04
       161  26 -6.638821E+05 -1.947499E+05 -5.798677E+04 -2.514957E+05 -9.888552E+03  2.658763E+04
       161  27 -6.914745E+05 -2.091047E+05 -6.753175E+04 -2.619893E+05 -1.348240E+04  2.584059E+04
       162   1  7.077410E+04  6.603726E+04  6.162400E+04 -4.832220E+04  1.485015E+04 -2.587349E+04
       162   2  9.281244E+04  8.051128E+04  7.116771E+04 -3.138022E+04 -2.337260E+03 -2.652344E+04
       162   3  1.179513E+05  8.524406E+04  9.027654E+04 -1.597453E+04 -2.356738E+04 -1.642298E+04
       162   4 -3.208202E+05 -7.484179E+04 -6.022813E+03 -1.574511E+05  1.427935E+04 -2.608998E+04
       162   5 -3.215716E+05 -7.708410E+04 -1.155536E+04 -1.532222E+05  1.835539E+04 -1.875066E+04
       162   6 -3.234379E+05 -9.328403E+04 -2.437369E+04 -1.505300E+05  1.838845E+04 -6.566523E+02
       162   7 -7.122510E+05 -2.157057E+05 -7.367386E+04 -2.665155E+05  1.370893E+04 -2.630633E+04
       162   8 -7.357694E+05 -2.346571E+05 -9.428278E+04 -2.749850E+05  3.903289E+04 -1.098412E+04
       162   9 -7.646184E+05 -2.717833E+05 -1.390288E+05 -2.849904E+05  6.031037E+04  1.509466E+04
       162  10  7.077369E+04  6.603648E+04  6.162232E+04 -4.832189E+04  3.303121E-08  1.130355E-08
       162  11  9.281224E+04  8.051053E+04  7.116638E+04 -3.138027E+04  1.551263E-08  8.806961E-09
       162  12  1.179506E+05  8.524362E+04  9.027499E+04 -1.597484E+04 -6.499178E-09 -1.041493E-09
       162  13 -3.208206E+05 -7.484257E+04 -6.024475E+03 -1.574508E+05 -2.686973E-08 -5.532717E-09
       162  14 -3.215720E+05 -7.708457E+04 -1.155666E+04 -1.532219E+05 -8.213733E-09  2.212805E-09
       162  15 -3.234383E+05 -9.328412E+04 -2.437433E+04 -1.505300E+05  1.991148E-09  1.187419E-09
       162  16 -7.122514E+05 -2.157065E+05 -7.367551E+04 -2.665152E+05 -4.973197E-08 -1.986974E-08
       162  17 -7.357711E+05 -2.346577E+05 -9.428587E+04 -2.749847E+05 -1.704084E-08 -8.362244E-09
       162  18 -7.646223E+05 -2.717845E+05 -1.390361E+05 -2.849911E+05  7.603176E-09  1.748954E-09
       162  19  7.077410E+04  6.603726E+04  6.162400E+04 -4.832220E+04 -1.485015E+04  2.587349E+04
       162  20  9.281244E+04  8.051128E+04  7.116771E+04 -3.138022E+04  2.337260E+03  2.652344E+04
       162  21  1.179513E+05  8.524406E+04  9.027654E+04 -1.597453E+04  2.356738E+04  1.642298E+04
       162  22 -3.208202E+05 -7.484179E+04 -6.022813E+03 -1.574511E+05 -1.427935E+04  2.608998E+04
       162  23 -3.215716E+05 -7.708410E+04 -1.155536E+04 -1.532222E+05 -1.835539E+04  1.875066E+04
       162  24 -3.234379E+05 -9.328403E+04 -2.437369E+04 -1.505300E+05 -1.838845E+04  6.566523E+02
       162  25 -7.122510E+05 -2.157057E+05 -7.367386E+04 -2.665155E+05 -1.370893E+04  2.630633E+04
       162  26 -7.357694E+05 -2.346571E+05 -9.428278E+04 -2.749850E+05 -3.903289E+04  1.098412E+04
       162  27 -7.646184E+05 -2.717833E+05 -1.390288E+05 -2.849904E+05 -6.031037E+04 -1.509466E+04
       163   1 -2.722421E+05 -5.221766E+04 -7.977073E+04 -1.739049E+04 -8.247519E+04 -1.356796E+03
       163   2 -2.617820E+05  5.966449E+04 -1.244062E+04 -5.965647E+03 -5.466633E+04 -3.911253E+03
       163   3 -2.868834E+05  4.357849E+04  4.804153E+03  1.359930E+04 -2.686068E+04 -3.483532E+03
       163   4 -4.451424E+05 -9.536920E+04 -1.227220E+05  3.758753E+03 -8.382355E+04 -1.360551E+03
       163   5 -4.272603E+05  1.846049E+04 -5.297834E+04 -3.464864E+02 -5.502056E+04 -3.912114E+03
       163   6 -4.451227E+05  4.130150E+03 -3.402058E+04  3.688519E+03 -2.622041E+04 -3.482542E+03
       163   7 -6.180145E+05 -1.385213E+05 -1.656754E+05  2.490210E+04 -8.517153E+04 -1.364399E+03
       163   8 -5.927135E+05 -2.274542E+04 -9.351805E+04  5.271168E+03 -5.537470E+04 -3.912982E+03
       163   9 -6.033388E+05 -3.531968E+04 -7.284710E+04 -6.219738E+03 -2.558031E+04 -3.481572E+03
       163  10 -2.722494E+05 -5.221949E+04 -7.978352E+04 -1.739058E+04  9.398239E-10 -1.390326E-10
       163  11 -2.617852E+05  5.966367E+04 -1.244627E+04 -5.965819E+03 -1.877924E-09 -1.568582E-09
       163  12 -2.868842E+05  4.357828E+04  4.802774E+03  1.359923E+04  1.385513E-09 -1.249643E-09
       163  13 -4.451499E+05 -9.537109E+04 -1.227353E+05  3.758661E+03  1.956318E-10  9.675297E-10
       163  14 -4.272635E+05  1.845966E+04 -5.298406E+04 -3.466598E+02  3.451851E-09  3.496849E-11
       163  15 -4.451234E+05  4.129952E+03 -3.402189E+04  3.688445E+03 -4.216908E-09  2.361166E-10
       163  16 -6.180223E+05 -1.385232E+05 -1.656890E+05  2.490200E+04 -4.365455E-09  7.098697E-10
       163  17 -5.927168E+05 -2.274626E+04 -9.352384E+04  5.270993E+03 -2.157394E-09 -1.294656E-09
       163  18 -6.033395E+05 -3.531987E+04 -7.284835E+04 -6.219810E+03 -1.359220E-09 -2.592078E-09
       163  19 -2.722421E+05 -5.221766E+04 -7.977073E+04 -1.739049E+04  8.247519E+04  1.356796E+03
       163  20 -2.617820E+05  5.966449E+04 -1.244062E+04 -5.965647E+03  5.466633E+04  3.911253E+03
       163  21 -2.868834E+05  4.357849E+04  4.804153E+03  1.359930E+04  2.686068E+04  3.483532E+03
       163  22 -4.451424E+05 -9.536920E+04 -1.227220E+05  3.758753E+03  8.382355E+04  1.360551E+03
       163  23 -4.272603E+05  1.846049E+04 -5.297834E+04 -3.464864E+02  5.502056E+04  3.912114E+03
       163  24 -4.451227E+05  4.130150E+03 -3.402058E+04  3.688519E+03  2.622041E+04  3.482542E+03
       163  25 -6.180145E+05 -1.385213E+05 -1.656754E+05  2.490210E+04  8.517153E+04  1.364399E+03
       163  26 -5.927135E+05 -2.274542E+04 -9.351805E+04  5.271168E+03  5.537470E+04  3.912982E+03
       163  27 -6.033388E+05 -3.531968E+04 -7.284710E+04 -6.219738E+03  2.558031E+04  3.481572E+03
       164   1 -2.974082E+05  2.270634E+04  6.625322E+03  1.374158E+03 -2.068281E+04 -2.876040E+03
       164   2 -3.026442E+05  3.558546E+04  1.888777E+04 -1.022735E+03 -1.365056E+04 -2.910217E+03
       164   3 -3.129484E+05  3.177983E+04  2.240348E+04  5.274272E+03 -6.618715E+03 -2.604573E+03
       164   4 -4.383140E+05 -1.240292E+04 -2.798995E+04  3.845449E+03 -2.075064E+04 -2.876239E+03
       164   5 -4.357677E+05  2.419489E+03 -1.377326E+04 -5.085215E+02 -1.360570E+04 -2.910218E+03
       164   6 -4.383104E+05  5.355985E+02 -8.382994E+03  3.831523E+03 -6.461093E+03 -2.604389E+03
       164   7 -5.792017E+05 -4.751362E+04 -6.260667E+04  6.316173E+03 -2.081845E+04 -2.876439E+03
       164   8 -5.688751E+05 -3.074780E+04 -4.643560E+04  5.577316E+00 -1.356086E+04 -2.910220E+03
       164   9 -5.636580E+05 -3.070979E+04 -3.917063E+04  2.389060E+03 -6.303503E+03 -2.604206E+03
       164  10 -2.974087E+05  2.270622E+04  6.624502E+03  1.374110E+03 -1.079436E-09 -2.328768E-09
       164  11 -3.026444E+05  3.558540E+04  1.888740E+04 -1.022767E+03 -1.900907E-09 -2.092920E-10
       164  12 -3.129485E+05  3.177981E+04  2.240339E+04  5.274259E+03 -6.659182E-10  1.860298E-09
       164  13 -4.383145E+05 -1.240304E+04 -2.799077E+04  3.845401E+03 -3.731155E-09 -2.289961E-09
       164  14 -4.357679E+05  2.419430E+03 -1.377363E+04 -5.085534E+02 -1.839243E-09 -7.563743E-10
       164  15 -4.383104E+05  5.355800E+02 -8.383086E+03  3.831509E+03 -4.790768E-10 -1.510479E-10
       164  16 -5.792022E+05 -4.751375E+04 -6.260750E+04  6.316125E+03 -2.821918E-10 -1.455435E-09
       164  17 -5.688753E+05 -3.074785E+04 -4.643596E+04  5.545525E+00 -1.210802E-09 -1.007875E-09
       164  18 -5.636580E+05 -3.070981E+04 -3.917071E+04  2.389047E+03  5.225606E-10  1.960376E-09
       164  19 -2.974082E+05  2.270634E+04  6.625322E+03  1.374158E+03  2.068281E+04  2.876040E+03
       164  20 -3.026442E+05  3.558546E+04  1.888777E+04 -1.022735E+03  1.365056E+04  2.910217E+03
       164  21 -3.129484E+05  3.177983E+04  2.240348E+04  5.274272E+03  6.618715E+03  2.604573E+03
       164  22 -4.383140E+05 -1.240292E+04 -2.798995E+04  3.845449E+03  2.075064E+04  2.876239E+03
       164  23 -4.357677E+05  2.419489E+03 -1.377326E+04 -5.085215E+02  1.360570E+04  2.910218E+03
       164  24 -4.383104E+05  5.355985E+02 -8.382994E+03  3.831523E+03  6.461093E+03  2.604389E+03
       164  25 -5.792017E+05 -4.751362E+04 -6.260667E+04  6.316173E+03  2.081845E+04  2.876439E+03
       164  26 -5.688751E+05 -3.074780E+04 -4.643560E+04  5.577317E+00  1.356086E+04  2.910220E+03
       164  27 -5.636580E+05 -3.070979E+04 -3.917063E+04  2.389060E+03  6.303503E+03  2.604206E+03
       165   1 -3.303336E+05  2.506867E+04  1.959502E+04  3.750379E+03 -5.196876E+03 -2.387407E+03
       165   2 -3.380907E+05  2.495095E+04  2.071355E+04 -5.736084E+02 -3.414606E+03 -2.132638E+03
       165   3 -3.466244E+05  2.268767E+04  2.013320E+04  4.214448E+03 -1.632498E+03 -1.833887E+03
       165   4 -4.373520E+05 -1.592251E+03 -6.650027E+03  3.930697E+03 -5.118914E+03 -2.387331E+03
       165   5 -4.369619E+05  3.157297E+02 -3.549364E+03 -6.265147E+02 -3.322150E+03 -2.132527E+03
       165   6 -4.373512E+05  7.542335E+01 -2.157862E+03  3.928411E+03 -1.525524E+03 -1.833740E+03
       165   7 -5.443598E+05 -2.825402E+04 -3.289591E+04  4.110981E+03 -5.040965E+03 -2.387254E+03
       165   8 -5.358242E+05 -2.432022E+04 -2.781299E+04 -6.794158E+02 -3.229708E+03 -2.132416E+03
       165   9 -5.280706E+05 -2.253743E+04 -2.444953E+04  3.642414E+03 -1.418566E+03 -1.833593E+03
       165  10 -3.303337E+05  2.506865E+04  1.959496E+04  3.750369E+03  2.048076E-10  3.109053E-09
       165  11 -3.380907E+05  2.495094E+04  2.071352E+04 -5.736143E+02 -1.370313E-10  2.215887E-09
       165  12 -3.466244E+05  2.268767E+04  2.013319E+04  4.214446E+03  2.715969E-09  6.357800E-11
       165  13 -4.373520E+05 -1.592264E+03 -6.650087E+03  3.930688E+03  1.049511E-09 -3.102779E-10
       165  14 -4.369619E+05  3.157219E+02 -3.549393E+03 -6.265204E+02  2.536041E-09  1.952151E-09
       165  15 -4.373512E+05  7.541911E+01 -2.157873E+03  3.928409E+03  2.109843E-09  4.650217E-09
       165  16 -5.443599E+05 -2.825403E+04 -3.289597E+04  4.110971E+03  1.733364E-09  2.868525E-09
       165  17 -5.358242E+05 -2.432023E+04 -2.781302E+04 -6.794213E+02 -3.419632E-09  1.931722E-09
       165  18 -5.280706E+05 -2.253744E+04 -2.444954E+04  3.642411E+03 -2.930868E-09  3.199610E-09
       165  19 -3.303336E+05  2.506867E+04  1.959502E+04  3.750379E+03  5.196876E+03  2.387407E+03
       165  20 -3.380907E+05  2.495095E+04  2.071355E+04 -5.736084E+02  3.414606E+03  2.132638E+03
       165  21 -3.466244E+05  2.268767E+04  2.013320E+04  4.214448E+03  1.632498E+03  1.833887E+03
       165  22 -4.373520E+05 -1.592251E+03 -6.650027E+03  3.930697E+03  5.118914E+03  2.387331E+03
       165  23 -4.369619E+05  3.157297E+02 -3.549364E+03 -6.265147E+02  3.322150E+03  2.132527E+03
       165  24 -4.373512E+05  7.542335E+01 -2.157862E+03  3.928411E+03  1.525524E+03  1.833740E+03
       165  25 -5.443598E+05 -2.825402E+04 -3.289591E+04  4.110981E+03  5.040965E+03  2.387254E+03
       165  26 -5.358242E+05 -2.432022E+04 -2.781299E+04 -6.794158E+02  3.229708E+03  2.132416E+03
       165  27 -5.280706E+05 -2.253743E+04 -2.444953E+04  3.642414E+03  1.418566E+03  1.833593E+03
       166   1 -3.655749E+05  1.765491E+04  1.583213E+04  4.050150E+03 -1.274241E+03 -1.654925E+03
       166   2 -3.739005E+05  1.580026E+04  1.442392E+04 -6.330618E+02 -7.313035E+02 -1.359869E+03
       166   3 -3.823953E+05  1.366328E+04  1.258564E+04  4.090415E+03 -1.884492E+02 -1.056278E+03
       166   4 -4.372149E+05 -1.907427E+02 -1.724232E+03  3.994857E+03 -1.176776E+03 -1.654784E+03
       166   5 -4.371299E+05  4.513734E+01 -1.093326E+03 -7.086656E+02 -6.310287E+02 -1.359715E+03
       166   6 -4.372148E+05 -1.850615E+00 -8.944996E+02  3.994560E+03 -8.535722E+01 -1.056110E+03
       166   7 -5.088502E+05 -1.803677E+04 -1.928097E+04  3.939569E+03 -1.079323E+03 -1.654643E+03
       166   8 -5.003556E+05 -1.571028E+04 -1.661086E+04 -7.842632E+02 -5.307640E+02 -1.359561E+03
       166   9 -4.920316E+05 -1.366721E+04 -1.437486E+04  3.898713E+03  1.772572E+01 -1.055942E+03
       166  10 -3.655749E+05  1.765490E+04  1.583212E+04  4.050148E+03  2.650513E-09 -3.413410E-10
       166  11 -3.739005E+05  1.580026E+04  1.442391E+04 -6.330626E+02 -1.326887E-09  3.200705E-09
       166  12 -3.823953E+05  1.366328E+04  1.258564E+04  4.090415E+03 -3.215161E-10  4.592686E-09
       166  13 -4.372149E+05 -1.907460E+02 -1.724240E+03  3.994856E+03  8.435037E-10  1.716212E-09
       166  14 -4.371299E+05  4.513525E+01 -1.093330E+03 -7.086663E+02  3.349585E-09  2.788141E-09
       166  15 -4.372148E+05 -1.851814E+00 -8.945017E+02  3.994560E+03 -2.019809E-09  1.564107E-09
       166  16 -5.088502E+05 -1.803678E+04 -1.928098E+04  3.939568E+03 -4.940992E-09  2.443987E-09
       166  17 -5.003556E+05 -1.571028E+04 -1.661086E+04 -7.842638E+02 -3.118591E-09 -1.510449E-09
       166  18 -4.920316E+05 -1.366721E+04 -1.437486E+04  3.898713E+03  3.036122E-09 -6.706215E-10
       166  19 -3.655749E+05  1.765491E+04  1.583213E+04  4.050150E+03  1.274241E+03  1.654925E+03
       166  20 -3.739005E+05  1.580026E+04  1.442392E+04 -6.330618E+02  7.313035E+02  1.359869E+03
       166  21 -3.823953E+05  1.366328E+04  1.258564E+04  4.090415E+03  1.884492E+02  1.056278E+03
       166  22 -4.372149E+05 -1.907427E+02 -1.724232E+03  3.994857E+03  1.176776E+03  1.654784E+03
       166  23 -4.371299E+05  4.513734E+01 -1.093326E+03 -7.086656E+02  6.310287E+02  1.359715E+03
       166  24 -4.372148E+05 -1.850615E+00 -8.944996E+02  3.994560E+03  8.535722E+01  1.056110E+03
       166  25 -5.088502E+05 -1.803677E+04 -1.928097E+04  3.939569E+03  1.079323E+03  1.654643E+03
       166  26 -5.003556E+05 -1.571028E+04 -1.661086E+04 -7.842632E+02  5.307640E+02  1.359561E+03
       166  27 -4.920316E+05 -1.366721E+04 -1.437486E+04  3.898713E+03 -1.772572E+01  1.055942E+03
       167   1 -4.019592E+05  8.776546E+03  7.733452E+03  4.050876E+03 -2.658048E+01 -8.777964E+02
       167   2 -4.104260E+05  6.698381E+03  5.472503E+03 -7.187508E+02  5.126959E+02 -5.725161E+02
       167   3 -4.190718E+05  4.343961E+03  2.782946E+03  4.084294E+03  1.051949E+03 -2.670201E+02
       167   4 -4.372162E+05 -3.390892E+00 -8.928931E+02  4.031434E+03  7.559553E+01 -8.776248E+02
       167   5 -4.371268E+05  4.504457E+01 -1.080426E+03 -7.547565E+02  6.149231E+02 -5.723407E+02
       167   6 -4.372164E+05 -1.827544E+02 -1.696577E+03  4.031750E+03  1.154235E+03 -2.668408E+02
       167   7 -4.724722E+05 -8.783420E+03 -9.519329E+03  4.011993E+03  1.777658E+02 -8.774532E+02
       167   8 -4.638270E+05 -6.608345E+03 -7.633408E+03 -7.907609E+02  7.171459E+02 -5.721654E+02
       167   9 -4.553607E+05 -4.709494E+03 -6.176124E+03  3.979207E+03  1.256517E+03 -2.666614E+02
       167  10 -4.019592E+05  8.776545E+03  7.733451E+03  4.050876E+03 -2.395389E-09  1.884520E-09
       167  11 -4.104260E+05  6.698381E+03  5.472502E+03 -7.187506E+02  2.697941E-09  7.153147E-10
       167  12 -4.190718E+05  4.343960E+03  2.782944E+03  4.084294E+03 -3.836195E-09 -2.306513E-09
       167  13 -4.372162E+05 -3.391720E+00 -8.928946E+02  4.031434E+03  2.755063E-09  5.464388E-09
       167  14 -4.371268E+05  4.504411E+01 -1.080428E+03 -7.547562E+02  6.766125E-09  1.720833E-09
       167  15 -4.372164E+05 -1.827548E+02 -1.696579E+03  4.031750E+03  1.780270E-09 -3.046138E-09
       167  16 -4.724722E+05 -8.783421E+03 -9.519331E+03  4.011993E+03 -9.097140E-11  2.957045E-09
       167  17 -4.638270E+05 -6.608346E+03 -7.633410E+03 -7.907606E+02 -4.205433E-09 -1.045867E-09
       167  18 -4.553607E+05 -4.709495E+03 -6.176127E+03  3.979207E+03  1.658693E-09 -2.948204E-09
       167  19 -4.019592E+05  8.776546E+03  7.733452E+03  4.050876E+03  2.658048E+01  8.777964E+02
       167  20 -4.104260E+05  6.698381E+03  5.472503E+03 -7.187508E+02 -5.126959E+02  5.725161E+02
       167  21 -4.190718E+05  4.343961E+03  2.782946E+03  4.084294E+03 -1.051949E+03  2.670201E+02
       167  22 -4.372162E+05 -3.390892E+00 -8.928931E+02  4.031434E+03 -7.559553E+01  8.776248E+02
       167  23 -4.371268E+05  4.504457E+01 -1.080426E+03 -7.547565E+02 -6.149231E+02  5.723407E+02
       167  24 -4.372164E+05 -1.827544E+02 -1.696577E+03  4.031750E+03 -1.154235E+03  2.668408E+02
       167  25 -4.724722E+05 -8.783420E+03 -9.519329E+03  4.011993E+03 -1.777658E+02  8.774532E+02
       167  26 -4.638270E+05 -6.608345E+03 -7.633408E+03 -7.907609E+02 -7.171459E+02  5.721654E+02
       167  27 -4.553607E+05 -4.709494E+03 -6.176124E+03  3.979207E+03 -1.256517E+03  2.666614E+02
       168   1 -4.389712E+05 -3.326791E+02 -2.545881E+03  3.857637E+03  1.390469E+03 -8.421784E+01
       168   2 -4.471565E+05 -2.230109E+03 -5.986317E+03 -7.240064E+02  3.160882E+03  2.268072E+02
       168   3 -4.561400E+05 -6.230537E+03 -1.111444E+04  4.298682E+03  4.931312E+03  5.168526E+02
       168   4 -4.373535E+05  7.650449E+01 -2.122161E+03  4.037616E+03  1.497407E+03 -8.402887E+01
       168   5 -4.369554E+05  3.115405E+02 -3.483225E+03 -7.631235E+02  3.260800E+03  2.269816E+02
       168   6 -4.373542E+05 -1.555170E+03 -6.527064E+03  4.040461E+03  5.024236E+03  5.170115E+02
       168   7 -4.357359E+05  4.856880E+02 -1.698440E+03  4.217596E+03  1.604344E+03 -8.383984E+01
       168   8 -4.267542E+05  2.853182E+03 -9.801407E+02 -8.022414E+02  3.360720E+03  2.271560E+02
       168   9 -4.185681E+05  3.120172E+03 -1.939710E+03  3.782233E+03  5.117163E+03  5.171703E+02
       168  10 -4.389712E+05 -3.326796E+02 -2.545885E+03  3.857637E+03 -7.365053E-09 -1.576884E-10
       168  11 -4.471565E+05 -2.230112E+03 -5.986336E+03 -7.240069E+02 -9.722242E-10 -1.168261E-09
       168  12 -4.561400E+05 -6.230544E+03 -1.111449E+04  4.298680E+03  5.429242E-09  5.887635E-10
       168  13 -4.373535E+05  7.650388E+01 -2.122165E+03  4.037616E+03  5.231748E-09 -1.941503E-09
       168  14 -4.369554E+05  3.115376E+02 -3.483245E+03 -7.631241E+02  9.060539E-09  8.259550E-10
       168  15 -4.373543E+05 -1.555177E+03 -6.527112E+03  4.040459E+03 -2.602788E-09  1.278627E-09
       168  16 -4.357359E+05  4.856873E+02 -1.698445E+03  4.217596E+03  1.225836E-08  6.337296E-10
       168  17 -4.267542E+05  2.853179E+03 -9.801620E+02 -8.022420E+02 -5.684291E-10 -5.305029E-09
       168  18 -4.185682E+05  3.120164E+03 -1.939760E+03  3.782231E+03 -4.906910E-09 -1.822844E-10
       168  19 -4.389712E+05 -3.326791E+02 -2.545881E+03  3.857637E+03 -1.390469E+03  8.421784E+01
       168  20 -4.471565E+05 -2.230109E+03 -5.986317E+03 -7.240064E+02 -3.160882E+03 -2.268072E+02
       168  21 -4.561400E+05 -6.230537E+03 -1.111444E+04  4.298682E+03 -4.931312E+03 -5.168526E+02
       168  22 -4.373535E+05  7.650449E+01 -2.122161E+03  4.037616E+03 -1.497407E+03  8.402887E+01
       168  23 -4.369554E+05  3.115405E+02 -3.483225E+03 -7.631235E+02 -3.260800E+03 -2.269816E+02
       168  24 -4.373542E+05 -1.555170E+03 -6.527064E+03  4.040461E+03 -5.024236E+03 -5.170115E+02
       168  25 -4.357359E+05  4.856880E+02 -1.698440E+03  4.217596E+03 -1.604344E+03  8.383984E+01
       168  26 -4.267542E+05  2.853182E+03 -9.801407E+02 -8.022414E+02 -3.360720E+03 -2.271560E+02
       168  27 -4.185681E+05  3.120172E+03 -1.939710E+03  3.782233E+03 -5.117163E+03 -5.171703E+02
       169   1 -4.767644E+05 -9.064769E+03 -1.769482E+04  2.666055E+03  6.204977E+03  7.248711E+02
       169   2 -4.827356E+05 -9.321043E+03 -2.503307E+04 -1.754154E+02  1.327717E+04  1.050430E+03
       169   3 -4.937623E+05 -2.597297E+04 -4.108427E+04  6.496673E+03  2.034949E+04  1.189248E+03
       169   4 -4.382979E+05  5.312318E+02 -8.228325E+03  4.011451E+03  6.341865E+03  7.251180E+02
       169   5 -4.357774E+05  2.377038E+03 -1.351283E+04 -7.348551E+02  1.335182E+04  1.050537E+03
       169   6 -4.383015E+05 -1.216133E+04 -2.746655E+04  4.032407E+03  2.036198E+04  1.189179E+03
       169   7 -3.998300E+05  1.012713E+04  1.238063E+03  5.356930E+03  6.478762E+03  7.253655E+02
       169   8 -3.888172E+05  1.407496E+04 -1.992759E+03 -1.294338E+03  1.342647E+04  1.050645E+03
       169   9 -3.828378E+05  1.650113E+03 -1.384906E+04  1.567918E+03  2.037448E+04  1.189110E+03
       169  10 -4.767645E+05 -9.064779E+03 -1.769490E+04  2.666052E+03 -5.925461E-10  4.456362E-09
       169  11 -4.827357E+05 -9.321092E+03 -2.503340E+04 -1.754267E+02  4.339130E-09  2.421672E-09
       169  12 -4.937628E+05 -2.597308E+04 -4.108505E+04  6.496654E+03  5.212101E-09  1.274029E-09
       169  13 -4.382979E+05  5.312204E+02 -8.228402E+03  4.011448E+03 -1.227703E-09  2.957039E-09
       169  14 -4.357776E+05  2.376989E+03 -1.351317E+04 -7.348664E+02  3.671478E-09  3.652413E-09
       169  15 -4.383019E+05 -1.216144E+04 -2.746734E+04  4.032387E+03  3.946257E-09 -9.436667E-10
       169  16 -3.998300E+05  1.012712E+04  1.237983E+03  5.356927E+03  1.321711E-09  1.497057E-09
       169  17 -3.888174E+05  1.407491E+04 -1.993100E+03 -1.294349E+03  1.007934E-09  9.247523E-10
       169  18 -3.828383E+05  1.650000E+03 -1.384984E+04  1.567899E+03 -5.052165E-09 -4.216275E-09
       169  19 -4.767644E+05 -9.064769E+03 -1.769482E+04  2.666055E+03 -6.204977E+03 -7.248711E+02
       169  20 -4.827356E+05 -9.321043E+03 -2.503307E+04 -1.754154E+02 -1.327717E+04 -1.050430E+03
       169  21 -4.937623E+05 -2.597297E+04 -4.108427E+04  6.496673E+03 -2.034949E+04 -1.189248E+03
       169  22 -4.382979E+05  5.312318E+02 -8.228325E+03  4.011451E+03 -6.341865E+03 -7.251180E+02
       169  23 -4.357774E+05  2.377038E+03 -1.351283E+04 -7.348551E+02 -1.335182E+04 -1.050537E+03
       169  24 -4.383015E+05 -1.216133E+04 -2.746655E+04  4.032407E+03 -2.036198E+04 -1.189179E+03
       169  25 -3.998300E+05  1.012713E+04  1.238063E+03  5.356930E+03 -6.478762E+03 -7.253655E+02
       169  26 -3.888172E+05  1.407496E+04 -1.992759E+03 -1.294338E+03 -1.342647E+04 -1.050645E+03
       169  27 -3.828378E+05  1.650113E+03 -1.384906E+04  1.567918E+03 -2.037448E+04 -1.189110E+03
       170   1 -5.197449E+05 -1.460827E+04 -5.174740E+04 -5.763669E+03  2.532330E+04  1.619315E+03
       170   2 -5.104717E+05 -2.546430E+03 -7.232185E+04  4.846119E+03  5.413557E+04  2.041238E+03
       170   3 -5.364417E+05 -1.163413E+05 -1.431317E+05  2.481364E+04  8.295059E+04  8.059634E+02
       170   4 -4.449854E+05  4.061272E+03 -3.338479E+04  3.935835E+03  2.572990E+04  1.620350E+03
       170   5 -4.274239E+05  1.811923E+04 -5.198112E+04 -6.712066E+02  5.398859E+04  2.040506E+03
       170   6 -4.450050E+05 -9.357514E+04 -1.204234E+05  4.079772E+03  8.225043E+04  8.021479E+02
       170   7 -3.702206E+05  2.273075E+04 -1.502255E+04  1.363651E+04  2.613654E+04  1.621398E+03
       170   8 -3.443698E+05  3.878449E+04 -3.164087E+04 -6.189274E+03  5.384158E+04  2.039777E+03
       170   9 -3.535597E+05 -7.080796E+04 -9.771544E+04 -1.665715E+04  8.155017E+04  7.983797E+02
       170  10 -5.197456E+05 -1.460845E+04 -5.174861E+04 -5.763702E+03  2.197310E-09  3.636653E-10
       170  11 -5.104748E+05 -2.547222E+03 -7.232737E+04  4.846030E+03  6.796217E-10 -3.260158E-10
       170  12 -5.364491E+05 -1.163432E+05 -1.431447E+05  2.481358E+04  1.735360E-10  7.247048E-10
       170  13 -4.449861E+05  4.061092E+03 -3.338604E+04  3.935802E+03  5.616109E-10  3.082956E-09
       170  14 -4.274271E+05  1.811844E+04 -5.198661E+04 -6.712954E+02 -6.822551E-09 -9.242009E-10
       170  15 -4.450122E+05 -9.357696E+04 -1.204361E+05  4.079719E+03  1.737980E-10  2.383109E-09
       170  16 -3.702213E+05  2.273057E+04 -1.502383E+04  1.363647E+04  1.585559E-09  3.231793E-10
       170  17 -3.443729E+05  3.878370E+04 -3.164633E+04 -6.189363E+03 -4.290349E-10  9.051748E-10
       170  18 -3.535669E+05 -7.080975E+04 -9.772795E+04 -1.665721E+04 -1.364555E-09  3.531407E-10
       170  19 -5.197449E+05 -1.460827E+04 -5.174740E+04 -5.763669E+03 -2.532330E+04 -1.619315E+03
       170  20 -5.104717E+05 -2.546430E+03 -7.232185E+04  4.846119E+03 -5.413557E+04 -2.041238E+03
       170  21 -5.364417E+05 -1.163413E+05 -1.431317E+05  2.481364E+04 -8.295059E+04 -8.059634E+02
       170  22 -4.449854E+05  4.061272E+03 -3.338479E+04  3.935835E+03 -2.572990E+04 -1.620350E+03
       170  23 -4.274239E+05  1.811923E+04 -5.198112E+04 -6.712066E+02 -5.398859E+04 -2.040506E+03
       170  24 -4.450050E+05 -9.357514E+04 -1.204234E+05  4.079772E+03 -8.225043E+04 -8.021479E+02
       170  25 -3.702206E+05  2.273075E+04 -1.502255E+04  1.363651E+04 -2.613654E+04 -1.621398E+03
       170  26 -3.443698E+05  3.878449E+04 -3.164087E+04 -6.189274E+03 -5.384158E+04 -2.039777E+03
       170  27 -3.535597E+05 -7.080796E+04 -9.771544E+04 -1.665715E+04 -8.155017E+04 -7.983797E+02
       171   1  1.701819E+05  9.528653E+05  1.817963E+05 -9.092065E+04  4.842946E+03  6.210392E+04
       171   2  7.968603E+04  8.454737E+05  1.129780E+05 -5.053753E+04  1.408018E+04  3.162266E+04
       171   3  5.432218E+04  7.582890E+05  8.026044E+04 -5.213437E+04  1.154732E+04  1.137055E+03
       171   4  6.370137E+04  5.245976E+05  7.756290E+04 -6.108904E+04  4.856129E+03  4.902595E+04
       171   5 -1.205482E+03  5.153920E+05  3.845439E+04 -4.012676E+04  1.408372E+04  2.873748E+04
       171   6 -2.728491E+03  5.246315E+05  2.838958E+04 -6.114262E+04  1.154033E+04  8.439769E+03
       171   7 -4.278929E+04  9.649929E+04 -2.668263E+04 -3.127800E+04  4.868061E+03  3.595696E+04
       171   8 -8.210407E+04  1.854117E+05 -3.607612E+04 -2.972155E+04  1.408717E+04  2.585382E+04
       171   9 -5.978251E+04  2.910252E+05 -2.348443E+04 -7.014744E+04  1.153313E+04  1.573977E+04
       171  10  1.701809E+05  9.528611E+05  1.817890E+05 -9.092089E+04 -1.090736E-09 -7.602643E-10
       171  11  7.968555E+04  8.454725E+05  1.129758E+05 -5.053789E+04  2.284565E-09 -3.790093E-09
       171  12  5.432203E+04  7.582890E+05  8.026018E+04 -5.213438E+04 -6.298960E-10 -2.464746E-09
       171  13  6.370070E+04  5.245950E+05  7.755835E+04 -6.108923E+04  4.147490E-10  6.300702E-10
       171  14 -1.205916E+03  5.153911E+05  3.845246E+04 -4.012709E+04  7.216731E-09  6.631814E-10
       171  15 -2.728653E+03  5.246314E+05  2.838919E+04 -6.114270E+04 -2.469927E-09  9.235068E-10
       171  16 -4.278966E+04  9.649790E+04 -2.668511E+04 -3.127814E+04 -1.098218E-09  1.061873E-09
       171  17 -8.210446E+04  1.854109E+05 -3.607775E+04 -2.972185E+04 -2.101560E-09  1.875747E-09
       171  18 -5.978272E+04  2.910249E+05 -2.348515E+04 -7.014758E+04 -3.672017E-09  4.152341E-10
       171  19  1.701819E+05  9.528653E+05  1.817963E+05 -9.092065E+04 -4.842946E+03 -6.210392E+04
       171  20  7.968603E+04  8.454737E+05  1.129780E+05 -5.053753E+04 -1.408018E+04 -3.162266E+04
       171  21  5.432218E+04  7.582890E+05  8.026044E+04 -5.213437E+04 -1.154732E+04 -1.137055E+03
       171  22  6.370137E+04  5.245976E+05  7.756290E+04 -6.108904E+04 -4.856129E+03 -4.902595E+04
       171  23 -1.205482E+03  5.153920E+05  3.845439E+04 -4.012676E+04 -1.408372E+04 -2.873748E+04
       171  24 -2.728491E+03  5.246315E+05  2.838958E+04 -6.114262E+04 -1.154033E+04 -8.439769E+03
       171  25 -4.278929E+04  9.649929E+04 -2.668263E+04 -3.127800E+04 -4.868061E+03 -3.595696E+04
       171  26 -8.210407E+04  1.854117E+05 -3.607612E+04 -2.972155E+04 -1.408717E+04 -2.585382E+04
       171  27 -5.978251E+04  2.910252E+05 -2.348443E+04 -7.014744E+04 -1.153313E+04 -1.573977E+04
       172   1  4.044511E+04  6.731133E+05  6.070263E+04 -6.417438E+04  7.280205E+03 -3.855596E+01
       172   2  1.287317E+04  5.736727E+05  3.971667E+04 -3.970781E+04  2.707821E+03 -1.404584E+04
       172   3 -2.337994E+03  4.790543E+05  3.091119E+04 -5.763569E+04 -1.985656E+03 -2.805156E+04
       172   4  3.404641E+03  5.216025E+05  2.694471E+04 -6.122100E+04  7.276275E+03  3.874456E+03
       172   5 -4.314305E+02  5.192055E+05  2.762337E+04 -4.002148E+04  2.703671E+03 -1.002690E+04
       172   6  8.075923E+03  5.216033E+05  4.040990E+04 -6.121613E+04 -1.989918E+03 -2.392881E+04
       172   7 -3.363734E+04  3.701132E+05 -6.814579E+03 -5.826834E+04  7.272382E+03  7.786525E+03
       172   8 -1.373622E+04  4.647411E+05  1.552994E+04 -4.033513E+04  2.699516E+03 -6.008303E+03
       172   9  1.848977E+04  5.641541E+05  4.990857E+04 -6.479682E+04 -1.994229E+03 -1.980578E+04
       172  10  4.044505E+04  6.731133E+05  6.070253E+04 -6.417438E+04  6.931949E-10 -8.581971E-10
       172  11  1.287311E+04  5.736725E+05  3.971629E+04 -3.970778E+04  7.989014E-10 -3.709803E-09
       172  12 -2.338209E+03  4.790535E+05  3.090970E+04 -5.763574E+04 -1.013703E-10 -1.089854E-09
       172  13  3.404580E+03  5.216025E+05  2.694458E+04 -6.122102E+04 -1.379040E-09  8.130042E-10
       172  14 -4.314653E+02  5.192054E+05  2.762316E+04 -4.002146E+04 -1.220032E-09  9.423412E-10
       172  15  8.075765E+03  5.216027E+05  4.040882E+04 -6.121617E+04 -3.858819E-09  9.519208E-10
       172  16 -3.363742E+04  3.701131E+05 -6.814793E+03 -5.826839E+04 -4.575644E-09  1.227122E-09
       172  17 -1.373624E+04  4.647411E+05  1.552986E+04 -4.033512E+04 -5.227574E-09  1.242627E-09
       172  18  1.848967E+04  5.641536E+05  4.990783E+04 -6.479685E+04 -7.783697E-09 -8.934708E-10
       172  19  4.044511E+04  6.731133E+05  6.070263E+04 -6.417438E+04 -7.280205E+03  3.855596E+01
       172  20  1.287317E+04  5.736727E+05  3.971667E+04 -3.970781E+04 -2.707821E+03  1.404584E+04
       172  21 -2.337994E+03  4.790543E+05  3.091119E+04 -5.763569E+04  1.985656E+03  2.805156E+04
       172  22  3.404641E+03  5.216025E+05  2.694471E+04 -6.122100E+04 -7.276275E+03 -3.874456E+03
       172  23 -4.314305E+02  5.192055E+05  2.762337E+04 -4.002148E+04 -2.703671E+03  1.002690E+04
       172  24  8.075923E+03  5.216033E+05  4.040990E+04 -6.121613E+04  1.989918E+03  2.392881E+04
       172  25 -3.363734E+04  3.701132E+05 -6.814579E+03 -5.826834E+04 -7.272382E+03 -7.786525E+03
       172  26 -1.373622E+04  4.647411E+05  1.552994E+04 -4.033513E+04 -2.699516E+03  6.008303E+03
       172  27  1.848977E+04  5.641541E+05  4.990857E+04 -6.479682E+04  1.994229E+03  1.980578E+04
       173   1 -3.717571E+04  4.047074E+05  2.052799E+04 -8.120019E+04 -5.990529E+03 -3.772239E+04
       173   2 -5.680248E+04  2.885424E+05  2.732907E+04 -1.808956E+04 -9.156429E+03 -7.094520E+04
       173   3  5.897955E+04  2.105007E+05  8.959611E+04  3.009167E+03 -3.308518E+03 -1.041537E+05
       173   4 -6.773312E+03  5.293063E+05  4.825769E+04 -6.116856E+04 -5.998704E+03 -3.106844E+04
       173   5 -2.557771E+03  5.095618E+05  7.738038E+04 -4.009947E+04 -9.152590E+03 -7.209893E+04
       173   6  1.383866E+05  5.292601E+05  1.673701E+05 -6.103601E+04 -3.289609E+03 -1.131205E+05
       173   7  2.362957E+04  6.539207E+05  7.598680E+04 -4.113287E+04 -6.006449E+03 -2.441316E+04
       173   8  5.168538E+04  7.306275E+05  1.274288E+05 -6.211728E+04 -9.148671E+03 -7.325307E+04
       173   9  2.178016E+05  8.481210E+05  2.451393E+05 -1.251141E+05 -3.268857E+03 -1.220920E+05
       173  10 -3.717613E+04  4.047059E+05  2.052525E+04 -8.120037E+04  3.202061E-09  3.404959E-09
       173  11 -5.680392E+04  2.885370E+05  2.731946E+04 -1.809008E+04  3.053615E-09 -1.560397E-09
       173  12  5.897663E+04  2.104891E+05  8.957572E+04  3.008890E+03  1.054586E-11 -2.411314E-09
       173  13 -6.773610E+03  5.293053E+05  4.825581E+04 -6.116871E+04  2.778924E-10  1.177491E-09
       173  14 -2.559255E+03  5.095562E+05  7.737047E+04 -4.010000E+04  2.319596E-09  7.154144E-10
       173  15  1.383832E+05  5.292463E+05  1.673461E+05 -6.103631E+04  3.356786E-10  9.367157E-10
       173  16  2.362937E+04  6.539200E+05  7.598561E+04 -4.113298E+04 -3.258467E-09 -2.904185E-09
       173  17  5.168385E+04  7.306217E+05  1.274186E+05 -6.211782E+04 -4.857822E-10 -6.574198E-10
       173  18  2.177976E+05  8.481050E+05  2.451113E+05 -1.251144E+05  8.551673E-10  9.586773E-10
       173  19 -3.717571E+04  4.047074E+05  2.052799E+04 -8.120019E+04  5.990529E+03  3.772239E+04
       173  20 -5.680248E+04  2.885424E+05  2.732907E+04 -1.808956E+04  9.156429E+03  7.094520E+04
       173  21  5.897955E+04  2.105007E+05  8.959611E+04  3.009167E+03  3.308518E+03  1.041537E+05
       173  22 -6.773312E+03  5.293063E+05  4.825769E+04 -6.116856E+04  5.998704E+03  3.106844E+04
       173  23 -2.557771E+03  5.095618E+05  7.738038E+04 -4.009947E+04  9.152590E+03  7.209893E+04
       173  24  1.383866E+05  5.292601E+05  1.673701E+05 -6.103601E+04  3.289609E+03  1.131205E+05
       173  25  2.362957E+04  6.539207E+05  7.598680E+04 -4.113287E+04  6.006449E+03  2.441316E+04
       173  26  5.168538E+04  7.306275E+05  1.274288E+05 -6.211728E+04  9.148671E+03  7.325307E+04
       173  27  2.178016E+05  8.481210E+05  2.451393E+05 -1.251141E+05  3.268857E+03  1.220920E+05
       174   1  3.182453E+04  1.127965E+04 -8.785931E+03 -9.405894E+03 -5.786128E+04 -3.675718E+03
       174   2  1.424661E+04  8.718689E+04  3.349110E+04 -1.786282E+03 -4.008300E+04 -1.085022E+04
       174   3 -2.778031E+04  7.449390E+04  4.205775E+04  2.592581E+04 -2.231826E+04 -1.004320E+04
       174   4 -3.124005E+05 -7.443997E+04 -9.354716E+04  1.538205E+04 -6.401459E+04 -3.687487E+03
       174   5 -2.997795E+05  9.474722E+03 -4.114657E+04  5.273448E+03 -4.184161E+04 -1.085401E+04
       174   6 -3.123855E+05  4.000481E+03 -2.552237E+04  1.525839E+04 -1.968114E+04 -1.003824E+04
       174   7 -6.565162E+05 -1.601660E+05 -1.783167E+05  4.015620E+04 -7.016448E+04 -3.699751E+03
       174   8 -6.137149E+05 -6.824436E+04 -1.157911E+05  1.232955E+04 -4.359934E+04 -1.085785E+04
       174   9 -5.969160E+05 -6.649836E+04 -9.310806E+04  4.595853E+03 -1.704522E+04 -1.003338E+04
       174  10  3.182093E+04  1.127874E+04 -8.792248E+03 -9.406066E+03 -4.207378E-09  4.513468E-10
       174  11  1.424485E+04  8.718634E+04  3.348786E+04 -1.786633E+03 -2.427046E-10  7.773010E-09
       174  12 -2.778087E+04  7.449366E+04  4.205663E+04  2.592563E+04 -1.842220E-10  4.383707E-09
       174  13 -3.124049E+05 -7.444108E+04 -9.355489E+04  1.538186E+04  1.005433E-09 -2.146435E-09
       174  14 -2.997814E+05  9.474125E+03 -4.115008E+04  5.273082E+03 -5.511450E-10 -3.735156E-09
       174  15 -3.123859E+05  4.000269E+03 -2.552329E+04  1.525823E+04 -8.583201E-10  3.011840E-09
       174  16 -6.565215E+05 -1.601674E+05 -1.783259E+05  4.015599E+04  5.754046E-09 -1.602855E-10
       174  17 -6.137170E+05 -6.824500E+04 -1.157949E+05  1.232917E+04 -1.188267E-09  4.431809E-09
       174  18 -5.969164E+05 -6.649854E+04 -9.310879E+04  4.595715E+03 -1.297532E-09  1.299897E-09
       174  19  3.182453E+04  1.127965E+04 -8.785931E+03 -9.405894E+03  5.786128E+04  3.675718E+03
       174  20  1.424661E+04  8.718689E+04  3.349110E+04 -1.786282E+03  4.008300E+04  1.085022E+04
       174  21 -2.778031E+04  7.449390E+04  4.205775E+04  2.592581E+04  2.231826E+04  1.004320E+04
       174  22 -3.124005E+05 -7.443997E+04 -9.354716E+04  1.538205E+04  6.401459E+04  3.687487E+03
       174  23 -2.997795E+05  9.474722E+03 -4.114657E+04  5.273448E+03  4.184161E+04  1.085401E+04
       174  24 -3.123855E+05  4.000481E+03 -2.552237E+04  1.525839E+04  1.968114E+04  1.003824E+04
       174  25 -6.565162E+05 -1.601660E+05 -1.783167E+05  4.015620E+04  7.016448E+04  3.699751E+03
       174  26 -6.137149E+05 -6.824436E+04 -1.157911E+05  1.232955E+04  4.359934E+04  1.085785E+04
       174  27 -5.969160E+05 -6.649836E+04 -9.310806E+04  4.595853E+03  1.704522E+04  1.003338E+04
       175   1 -5.926864E+04  5.421053E+04  3.834754E+04  1.355538E+04 -1.601334E+04 -8.201049E+03
       175   2 -8.779223E+04  5.499928E+04  4.120928E+04  4.943119E+03 -1.086303E+04 -7.482507E+03
       175   3 -1.192226E+05  4.707442E+04  3.852759E+04  1.676362E+04 -5.714596E+03 -6.225940E+03
       175   4 -3.074349E+05 -7.246181E+03 -2.076847E+04  1.538304E+04 -1.576655E+04 -8.200845E+03
       175   5 -3.059523E+05  9.860743E+02 -1.066099E+04  5.158733E+03 -1.032127E+04 -7.481580E+03
       175   6 -3.074303E+05  4.515887E+02 -6.303611E+03  1.536774E+04 -4.877623E+03 -6.224231E+03
       175   7 -5.555446E+05 -6.870732E+04 -7.988879E+04  1.720993E+04 -1.551985E+04 -8.200639E+03
       175   8 -5.240687E+05 -5.303056E+04 -6.253459E+04  5.374248E+03 -9.779702E+03 -7.480653E+03
       175   9 -4.956056E+05 -4.617379E+04 -5.113729E+04  1.397227E+04 -4.040902E+03 -6.222525E+03
       175  10 -5.926894E+04  5.421039E+04  3.834693E+04  1.355527E+04  2.421133E-09  4.542717E-10
       175  11 -8.779238E+04  5.499918E+04  4.120895E+04  4.943054E+03  1.167687E-09  1.321462E-09
       175  12 -1.192227E+05  4.707437E+04  3.852745E+04  1.676359E+04  7.693759E-09  7.377943E-09
       175  13 -3.074352E+05 -7.246319E+03 -2.076906E+04  1.538293E+04  2.955215E-09  6.823505E-09
       175  14 -3.059524E+05  9.859856E+02 -1.066130E+04  5.158670E+03  1.744912E-09 -1.474152E-08
       175  15 -3.074304E+05  4.515408E+02 -6.303728E+03  1.536772E+04  7.025764E-10  3.037149E-09
       175  16 -5.555449E+05 -6.870746E+04 -7.988937E+04  1.720983E+04  1.627361E-09 -3.370164E-09
       175  17 -5.240688E+05 -5.303064E+04 -6.253487E+04  5.374189E+03 -3.838360E-09 -1.443696E-09
       175  18 -4.956056E+05 -4.617384E+04 -5.113739E+04  1.397225E+04 -5.719483E-09  2.694041E-09
       175  19 -5.926864E+04  5.421053E+04  3.834754E+04  1.355538E+04  1.601334E+04  8.201049E+03
       175  20 -8.779223E+04  5.499928E+04  4.120928E+04  4.943119E+03  1.086303E+04  7.482507E+03
       175  21 -1.192226E+05  4.707442E+04  3.852759E+04  1.676362E+04  5.714596E+03  6.225940E+03
       175  22 -3.074349E+05 -7.246181E+03 -2.076847E+04  1.538304E+04  1.576655E+04  8.200845E+03
       175  23 -3.059523E+05  9.860743E+02 -1.066099E+04  5.158733E+03  1.032127E+04  7.481580E+03
       175  24 -3.074303E+05  4.515887E+02 -6.303611E+03  1.536774E+04  4.877623E+03  6.224231E+03
       175  25 -5.555446E+05 -6.870732E+04 -7.988879E+04  1.720993E+04  1.551985E+04  8.200639E+03
       175  26 -5.240687E+05 -5.303056E+04 -6.253459E+04  5.374248E+03  9.779702E+03  7.480653E+03
       175  27 -4.956056E+05 -4.617379E+04 -5.113729E+04  1.397227E+04  4.040902E+03  6.222525E+03
       176   1 -1.553758E+05  3.686053E+04  3.102703E+04  1.551804E+04 -4.567371E+03 -5.404461E+03
       176   2 -1.852964E+05  3.017264E+04  2.615089E+04  5.317394E+03 -3.238659E+03 -4.155311E+03
       176   3 -2.156868E+05  2.270936E+04  2.019326E+04  1.569002E+04 -1.910380E+03 -2.868163E+03
       176   4 -3.068746E+05 -6.358498E+02 -4.918650E+03  1.540479E+04 -3.889503E+03 -5.403035E+03
       176   5 -3.066366E+05  1.270281E+02 -2.701817E+03  5.117181E+03 -2.540134E+03 -4.153763E+03
       176   6 -3.068727E+05  1.109645E+02 -1.580889E+03  1.540310E+04 -1.191135E+03 -2.866487E+03
       176   7 -4.583523E+05 -3.813388E+04 -4.086593E+04  1.529155E+04 -3.211800E+03 -5.401609E+03
       176   8 -4.279634E+05 -2.991965E+04 -3.155555E+04  4.917000E+03 -1.841746E+03 -4.152216E+03
       176   9 -3.980510E+05 -2.248803E+04 -2.335562E+04  1.511622E+04 -4.719950E+02 -2.864812E+03
       176  10 -1.553759E+05  3.686049E+04  3.102694E+04  1.551802E+04 -2.800581E-09 -2.538265E-09
       176  11 -1.852964E+05  3.017262E+04  2.615084E+04  5.317383E+03 -4.696263E-09 -2.921060E-09
       176  12 -2.156868E+05  2.270935E+04  2.019324E+04  1.569002E+04 -2.375923E-09 -9.461658E-10
       176  13 -3.068747E+05 -6.358852E+02 -4.918734E+03  1.540477E+04  3.335960E-09 -1.973499E-09
       176  14 -3.066367E+05  1.270079E+02 -2.701861E+03  5.117173E+03 -2.040629E-09 -4.991140E-09
       176  15 -3.068727E+05  1.109553E+02 -1.580907E+03  1.540310E+04  2.453580E-09  2.466626E-11
       176  16 -4.583523E+05 -3.813392E+04 -4.086600E+04  1.529154E+04 -5.399826E-09 -2.558359E-09
       176  17 -4.279634E+05 -2.991967E+04 -3.155559E+04  4.916994E+03 -1.638963E-09  1.648629E-09
       176  18 -3.980510E+05 -2.248804E+04 -2.335564E+04  1.511622E+04  3.474113E-09  8.046653E-09
       176  19 -1.553758E+05  3.686053E+04  3.102703E+04  1.551804E+04  4.567371E+03  5.404461E+03
       176  20 -1.852964E+05  3.017264E+04  2.615089E+04  5.317394E+03  3.238659E+03  4.155311E+03
       176  21 -2.156868E+05  2.270936E+04  2.019326E+04  1.569002E+04  1.910380E+03  2.868163E+03
       176  22 -3.068746E+05 -6.358498E+02 -4.918650E+03  1.540479E+04  3.889503E+03  5.403035E+03
       176  23 -3.066366E+05  1.270281E+02 -2.701817E+03  5.117181E+03  2.540134E+03  4.153763E+03
       176  24 -3.068727E+05  1.109645E+02 -1.580889E+03  1.540310E+04  1.191135E+03  2.866487E+03
       176  25 -4.583523E+05 -3.813388E+04 -4.086593E+04  1.529155E+04  3.211800E+03  5.401609E+03
       176  26 -4.279634E+05 -2.991965E+04 -3.155555E+04  4.917000E+03  1.841746E+03  4.152216E+03
       176  27 -3.980510E+05 -2.248803E+04 -2.335562E+04  1.511622E+04  4.719950E+02  2.864812E+03
       177   1 -2.524911E+05  1.344092E+04  1.160096E+04  1.551742E+04 -1.650466E+03 -2.113025E+03
       177   2 -2.826443E+05  6.001090E+03  5.004233E+03  5.154521E+03 -1.297118E+03 -8.261073E+02
       177   3 -3.129628E+05 -1.429844E+03 -1.846917E+03  1.542012E+04 -9.438543E+02  4.634488E+02
       177   4 -3.068029E+05  1.004521E+01 -1.223316E+03  1.541596E+04 -9.414713E+02 -2.111341E+03
       177   5 -3.067195E+05  3.927546E+01 -7.208240E+02  5.101607E+03 -5.867120E+02 -8.244071E+02
       177   6 -3.068026E+05  7.720706E+01 -4.737156E+02  1.541580E+04 -2.320201E+02  4.651696E+02
       177   7 -3.611121E+05 -1.342104E+04 -1.404779E+04  1.531451E+04 -2.325380E+02 -2.109658E+03
       177   8 -3.307942E+05 -5.922580E+03 -6.445920E+03  5.048695E+03  1.236666E+02 -8.227069E+02
       177   9 -3.006423E+05  1.584256E+03  8.994853E+02  1.541148E+04  4.798212E+02  4.668904E+02
       177  10 -2.524911E+05  1.344091E+04  1.160094E+04  1.551742E+04 -2.284789E-09 -4.083403E-09
       177  11 -2.826443E+05  6.001089E+03  5.004229E+03  5.154520E+03 -5.105340E-09  1.760958E-09
       177  12 -3.129628E+05 -1.429845E+03 -1.846919E+03  1.542012E+04 -5.803612E-09 -2.694981E-09
       177  13 -3.068030E+05  1.004018E+01 -1.223326E+03  1.541596E+04 -8.951031E-10  4.414316E-09
       177  14 -3.067195E+05  3.927464E+01 -7.208259E+02  5.101607E+03 -8.498299E-10 -4.849764E-09
       177  15 -3.068026E+05  7.720681E+01 -4.737161E+02  1.541580E+04  1.927838E-09 -4.026104E-09
       177  16 -3.611121E+05 -1.342104E+04 -1.404780E+04  1.531451E+04 -2.769800E-09  5.611641E-09
       177  17 -3.307942E+05 -5.922581E+03 -6.445921E+03  5.048695E+03 -3.670457E-09  6.594450E-09
       177  18 -3.006423E+05  1.584256E+03  8.994845E+02  1.541148E+04  2.569186E-09  6.128281E-10
       177  19 -2.524911E+05  1.344092E+04  1.160096E+04  1.551742E+04  1.650466E+03  2.113025E+03
       177  20 -2.826443E+05  6.001090E+03  5.004233E+03  5.154521E+03  1.297118E+03  8.261073E+02
       177  21 -3.129628E+05 -1.429844E+03 -1.846917E+03  1.542012E+04  9.438543E+02 -4.634488E+02
       177  22 -3.068029E+05  1.004521E+01 -1.223316E+03  1.541596E+04  9.414713E+02  2.111341E+03
       177  23 -3.067195E+05  3.927546E+01 -7.208240E+02  5.101607E+03  5.867120E+02  8.244071E+02
       177  24 -3.068026E+05  7.720706E+01 -4.737156E+02  1.541580E+04  2.320201E+02 -4.651696E+02
       177  25 -3.611121E+05 -1.342104E+04 -1.404779E+04  1.531451E+04  2.325380E+02  2.109658E+03
       177  26 -3.307942E+05 -5.922580E+03 -6.445920E+03  5.048695E+03 -1.236666E+02  8.227069E+02
       177  27 -3.006423E+05  1.584256E+03  8.994853E+02  1.541148E+04 -4.798212E+02 -4.668904E+02
       178   1 -3.498580E+05 -1.061087E+04 -1.074090E+04  1.533361E+04 -8.660645E+02  1.214692E+03
       178   2 -3.800019E+05 -1.811449E+04 -1.779046E+04  4.978065E+03 -6.855648E+02  2.503165E+03
       178   3 -4.102687E+05 -2.555686E+04 -2.496744E+04  1.523284E+04 -5.048810E+02  3.787711E+03
       178   4 -3.067936E+05  7.195833E+01 -4.080781E+02  1.541175E+04 -1.543054E+02  1.216402E+03
       178   5 -3.067321E+05  3.035111E+01 -3.660342E+02  5.106698E+03  2.402121E+01  2.504821E+03
       178   6 -3.067945E+05  5.033148E+01 -4.499606E+02  1.541180E+04  2.025409E+02  3.789316E+03
       178   7 -2.637275E+05  1.075465E+04  9.924610E+03  1.548991E+04  5.575029E+02  1.218112E+03
       178   8 -2.334574E+05  1.817481E+04  1.705802E+04  5.235344E+03  7.336906E+02  2.506477E+03
       178   9 -2.033105E+05  2.565675E+04  2.406678E+04  1.559079E+04  9.100801E+02  3.790922E+03
       178  10 -3.498580E+05 -1.061087E+04 -1.074090E+04  1.533361E+04 -1.235274E-09 -1.558557E-09
       178  11 -3.800019E+05 -1.811450E+04 -1.779047E+04  4.978066E+03  3.702403E-10 -3.449273E-09
       178  12 -4.102688E+05 -2.555687E+04 -2.496747E+04  1.523284E+04 -2.456188E-09 -3.932872E-09
       178  13 -3.067936E+05  7.195674E+01 -4.080810E+02  1.541175E+04  3.222384E-09  3.498409E-09
       178  14 -3.067321E+05  3.034437E+01 -3.660460E+02  5.106698E+03  1.092421E-09 -3.939865E-09
       178  15 -3.067945E+05  5.031605E+01 -4.499876E+02  1.541180E+04  1.287678E-09 -2.250661E-09
       178  16 -2.637275E+05  1.075465E+04  9.924607E+03  1.548991E+04  1.320336E-09 -1.185330E-10
       178  17 -2.334574E+05  1.817480E+04  1.705800E+04  5.235342E+03 -8.755136E-10 -1.396127E-08
       178  18 -2.033105E+05  2.565674E+04  2.406675E+04  1.559079E+04  2.066257E-09 -8.120124E-09
       178  19 -3.498580E+05 -1.061087E+04 -1.074090E+04  1.533361E+04  8.660645E+02 -1.214692E+03
       178  20 -3.800019E+05 -1.811449E+04 -1.779046E+04  4.978065E+03  6.855648E+02 -2.503165E+03
       178  21 -4.102687E+05 -2.555686E+04 -2.496744E+04  1.523284E+04  5.048810E+02 -3.787711E+03
       178  22 -3.067936E+05  7.195833E+01 -4.080781E+02  1.541175E+04  1.543054E+02 -1.216402E+03
       178  23 -3.067321E+05  3.035111E+01 -3.660342E+02  5.106698E+03 -2.402121E+01 -2.504821E+03
       178  24 -3.067945E+05  5.033148E+01 -4.499606E+02  1.541180E+04 -2.025409E+02 -3.789316E+03
       178  25 -2.637275E+05  1.075465E+04  9.924610E+03  1.548991E+04 -5.575029E+02 -1.218112E+03
       178  26 -2.334574E+05  1.817481E+04  1.705802E+04  5.235344E+03 -7.336906E+02 -2.506477E+03
       178  27 -2.033105E+05  2.565675E+04  2.406678E+04  1.559079E+04 -9.100801E+02 -3.790922E+03
       179   1 -4.470834E+05 -3.467634E+04 -3.398434E+04  1.511222E+04 -4.297682E+02  4.541760E+03
       179   2 -4.770575E+05 -4.213609E+04 -4.135044E+04  4.858753E+03  1.109745E+01  5.823692E+03
       179   3 -5.072165E+05 -4.976960E+04 -4.906584E+04  1.511756E+04  4.524703E+02  7.062026E+03
       179   4 -3.068097E+05  8.142590E+01 -5.333230E+02  1.538979E+04  2.889721E+02  4.543338E+03
       179   5 -3.067203E+05  4.929759E+01 -8.399264E+02  5.134075E+03  7.058786E+02  5.825106E+03
       179   6 -3.068119E+05 -1.521898E+02 -1.478939E+03  1.539028E+04  1.123313E+03  7.063285E+03
       179   7 -1.665179E+05  3.483777E+04  3.291631E+04  1.566740E+04  1.007874E+03  4.544916E+03
       179   8 -1.363564E+05  4.223260E+04  3.966856E+04  5.409457E+03  1.400850E+03  5.826520E+03
       179   9 -1.063705E+05  4.946233E+04  4.610516E+04  1.566308E+04  1.794372E+03  7.064543E+03
       179  10 -4.470834E+05 -3.467636E+04 -3.398438E+04  1.511222E+04  4.838665E-10 -3.349529E-09
       179  11 -4.770575E+05 -4.213613E+04 -4.135051E+04  4.858753E+03 -4.704112E-09 -8.236152E-09
       179  12 -5.072165E+05 -4.976965E+04 -4.906594E+04  1.511755E+04  4.764791E-10 -5.200775E-09
       179  13 -3.068097E+05  8.140372E+01 -5.333619E+02  1.538979E+04 -3.091983E-09  2.592236E-09
       179  14 -3.067203E+05  4.926102E+01 -8.399911E+02  5.134071E+03  3.236893E-09  4.939213E-09
       179  15 -3.068120E+05 -1.522437E+02 -1.479035E+03  1.539028E+04  2.285320E-09  3.095393E-09
       179  16 -1.665179E+05  3.483774E+04  3.291627E+04  1.566740E+04 -1.513849E-09  2.452062E-09
       179  17 -1.363564E+05  4.223256E+04  3.966850E+04  5.409451E+03  1.660063E-10 -2.708474E-09
       179  18 -1.063705E+05  4.946227E+04  4.610506E+04  1.566307E+04  2.194096E-09  3.336747E-09
       179  19 -4.470834E+05 -3.467634E+04 -3.398434E+04  1.511222E+04  4.297682E+02 -4.541760E+03
       179  20 -4.770575E+05 -4.213609E+04 -4.135044E+04  4.858753E+03 -1.109745E+01 -5.823692E+03
       179  21 -5.072165E+05 -4.976960E+04 -4.906584E+04  1.511756E+04 -4.524703E+02 -7.062026E+03
       179  22 -3.068097E+05  8.142590E+01 -5.333230E+02  1.538979E+04 -2.889721E+02 -4.543338E+03
       179  23 -3.067203E+05  4.929759E+01 -8.399264E+02  5.134075E+03 -7.058786E+02 -5.825106E+03
       179  24 -3.068119E+05 -1.521898E+02 -1.478939E+03  1.539028E+04 -1.123313E+03 -7.063285E+03
       179  25 -1.665179E+05  3.483777E+04  3.291631E+04  1.566740E+04 -1.007874E+03 -4.544916E+03
       179  26 -1.363564E+05  4.223260E+04  3.966856E+04  5.409457E+03 -1.400850E+03 -5.826520E+03
       179  27 -1.063705E+05  4.946233E+04  4.610516E+04  1.566308E+04 -1.794372E+03 -7.064543E+03
       180   1 -5.439373E+05 -5.853386E+04 -5.831838E+04  1.466338E+04  5.673845E+02  7.888358E+03
       180   2 -5.732947E+05 -6.577386E+04 -6.661719E+04  4.973890E+03  2.520128E+03  9.128914E+03
       180   3 -6.035840E+05 -7.561339E+04 -7.684471E+04  1.561572E+04  4.474474E+03  9.760648E+03
       180   4 -3.069702E+05  1.722987E+02 -1.881777E+03  1.534842E+04  1.417836E+03  7.889886E+03
       180   5 -3.065351E+05  2.938356E+02 -3.172672E+03  5.185086E+03  3.035376E+03  9.129619E+03
       180   6 -3.069741E+05 -2.125209E+03 -6.158750E+03  1.535255E+04  4.654612E+03  9.760645E+03
       180   7 -6.995151E+04  5.887441E+04  5.455089E+04  1.603370E+04  2.268611E+03  7.891417E+03
       180   8 -3.971022E+04  6.635640E+04  6.026687E+04  5.396342E+03  3.550845E+03  9.130324E+03
       180   9 -1.028348E+04  7.135662E+04  6.452104E+04  1.508923E+04  4.834835E+03  9.760643E+03
       180  10 -5.439373E+05 -5.853393E+04 -5.831850E+04  1.466338E+04  3.488438E-09 -1.528974E-09
       180  11 -5.732947E+05 -6.577395E+04 -6.661736E+04  4.973871E+03  3.362908E-10 -9.666777E-10
       180  12 -6.035840E+05 -7.561350E+04 -7.684493E+04  1.561568E+04 -1.518395E-09 -2.704885E-09
       180  13 -3.069702E+05  1.722314E+02 -1.881897E+03  1.534841E+04  5.624845E-09 -5.033844E-09
       180  14 -3.065352E+05  2.937437E+02 -3.172846E+03  5.185063E+03  7.205224E-09  4.602860E-09
       180  15 -3.069742E+05 -2.125317E+03 -6.158970E+03  1.535252E+04  3.903884E-09 -1.113744E-09
       180  16 -6.995153E+04  5.887434E+04  5.455076E+04  1.603368E+04 -3.193980E-09 -4.101855E-09
       180  17 -3.971026E+04  6.635630E+04  6.026669E+04  5.396316E+03 -1.886536E-09 -1.081802E-08
       180  18 -1.028353E+04  7.135651E+04  6.452082E+04  1.508919E+04  3.771445E-09  8.121736E-10
       180  19 -5.439373E+05 -5.853386E+04 -5.831838E+04  1.466338E+04 -5.673845E+02 -7.888358E+03
       180  20 -5.732947E+05 -6.577386E+04 -6.661719E+04  4.973890E+03 -2.520128E+03 -9.128914E+03
       180  21 -6.035840E+05 -7.561339E+04 -7.684471E+04  1.561572E+04 -4.474474E+03 -9.760648E+03
       180  22 -3.069702E+05  1.722987E+02 -1.881777E+03  1.534842E+04 -1.417836E+03 -7.889886E+03
       180  23 -3.065351E+05  2.938356E+02 -3.172672E+03  5.185086E+03 -3.035376E+03 -9.129619E+03
       180  24 -3.069741E+05 -2.125209E+03 -6.158750E+03  1.535255E+04 -4.654612E+03 -9.760645E+03
       180  25 -6.995151E+04  5.887441E+04  5.455089E+04  1.603370E+04 -2.268611E+03 -7.891417E+03
       180  26 -3.971022E+04  6.635640E+04  6.026687E+04  5.396342E+03 -3.550845E+03 -9.130324E+03
       180  27 -1.028348E+04  7.135662E+04  6.452104E+04  1.508923E+04 -4.834835E+03 -9.760643E+03
       181   1 -6.412969E+05 -8.122484E+04 -8.661475E+04  1.178468E+04  2.928804E+03  1.172875E+04
       181   2 -6.667249E+05 -8.685435E+04 -9.828425E+04  7.137838E+03  1.447747E+04  1.245477E+04
       181   3 -7.004297E+05 -1.197740E+05 -1.242901E+05  2.235509E+04  2.603690E+04  4.148722E+03
       181   4 -3.084316E+05  1.207360E+03 -7.563453E+03  1.523626E+04  5.812052E+03  1.173307E+04
       181   5 -3.047314E+05  2.793528E+03 -1.220484E+04  5.319717E+03  1.238277E+04  1.245123E+04
       181   6 -3.084396E+05 -2.203724E+04 -2.771887E+04  1.526695E+04  1.896495E+04  4.139463E+03
       181   7  2.453560E+04  8.363162E+04  7.148015E+04  1.868966E+04  8.696838E+03  1.173742E+04
       181   8  5.738256E+04  9.243198E+04  7.386542E+04  3.500486E+03  1.028685E+04  1.244771E+04
       181   9  8.369066E+04  7.568827E+04  6.884122E+04  8.174275E+03  1.188853E+04  4.130368E+03
       181  10 -6.412969E+05 -8.122499E+04 -8.661503E+04  1.178465E+04  2.299630E-09 -9.906063E-10
       181  11 -6.667252E+05 -8.685458E+04 -9.828493E+04  7.137692E+03  2.005503E-09  1.928174E-09
       181  12 -7.004305E+05 -1.197742E+05 -1.242914E+05  2.235501E+04  5.034493E-09  4.758060E-09
       181  13 -3.084317E+05  1.207203E+03 -7.563776E+03  1.523621E+04 -1.292818E-09  1.138566E-09
       181  14 -3.047316E+05  2.793321E+03 -1.220542E+04  5.319593E+03  6.455231E-09  1.892739E-09
       181  15 -3.084400E+05 -2.203736E+04 -2.771958E+04  1.526689E+04 -3.818824E-09  3.330014E-09
       181  16  2.453548E+04  8.363145E+04  7.147975E+04  1.868958E+04 -2.970239E-09  2.317439E-09
       181  17  5.738241E+04  9.243178E+04  7.386493E+04  3.500383E+03 -5.022288E-09  6.181522E-09
       181  18  8.369051E+04  7.568822E+04  6.884093E+04  8.174235E+03  3.057230E-10 -1.040634E-09
       181  19 -6.412969E+05 -8.122484E+04 -8.661475E+04  1.178468E+04 -2.928804E+03 -1.172875E+04
       181  20 -6.667249E+05 -8.685435E+04 -9.828425E+04  7.137838E+03 -1.447747E+04 -1.245477E+04
       181  21 -7.004297E+05 -1.197740E+05 -1.242901E+05  2.235509E+04 -2.603690E+04 -4.148722E+03
       181  22 -3.084316E+05  1.207360E+03 -7.563453E+03  1.523626E+04 -5.812052E+03 -1.173307E+04
       181  23 -3.047314E+05  2.793528E+03 -1.220484E+04  5.319717E+03 -1.238277E+04 -1.245123E+04
       181  24 -3.084396E+05 -2.203724E+04 -2.771887E+04  1.526695E+04 -1.896495E+04 -4.139463E+03
       181  25  2.453560E+04  8.363162E+04  7.148015E+04  1.868966E+04 -8.696838E+03 -1.173742E+04
       181  26  5.738256E+04  9.243198E+04  7.386542E+04  3.500486E+03 -1.028685E+04 -1.244771E+04
       181  27  8.369066E+04  7.568827E+04  6.884122E+04  8.174275E+03 -1.188853E+04 -4.130368E+03
       182   1 -2.652112E+05 -9.729220E+05 -2.608300E+05  2.211313E+05 -1.064488E+04 -7.771319E+04
       182   2 -1.754018E+05 -7.442370E+05 -1.624514E+05  1.807653E+05 -3.191393E+04 -3.308259E+04
       182   3 -1.153005E+05 -5.285099E+05 -1.005626E+05  1.967326E+05 -2.895362E+04  1.159901E+04
       182   4 -3.566396E+04 -4.736854E+04 -3.951136E+04  1.996231E+05 -1.069239E+04 -2.898319E+04
       182   5 -6.301480E+03 -4.389974E+04 -1.772522E+04  1.714735E+05 -3.192301E+04 -1.976465E+04
       182   6 -4.725101E+02 -4.726826E+04 -7.799904E+03  1.996584E+05 -2.893494E+04 -1.051263E+04
       182   7  1.938241E+05  8.789770E+05  1.817560E+05  1.780827E+05 -1.074326E+04  1.981925E+04
       182   8  1.627682E+05  6.569035E+05  1.269751E+05  1.621712E+05 -3.193247E+04 -6.431926E+03
       182   9  1.143420E+05  4.341973E+05  8.495394E+04  2.025865E+05 -2.891649E+04 -3.264102E+04
       182  10 -2.652129E+05 -9.729285E+05 -2.608415E+05  2.211306E+05 -2.068356E-11  2.884753E-08
       182  11 -1.754032E+05 -7.442384E+05 -1.624554E+05  1.807644E+05 -2.653637E-09  1.202334E-10
       182  12 -1.153015E+05 -5.285103E+05 -1.005645E+05  1.967329E+05  1.065694E-09 -3.319541E-08
       182  13 -3.566431E+04 -4.736948E+04 -3.951315E+04  1.996229E+05  5.634543E-10  2.471882E-09
       182  14 -6.302679E+03 -4.390043E+04 -1.772787E+04  1.714730E+05 -5.726246E-09 -1.592397E-09
       182  15 -4.734387E+02 -4.726861E+04 -7.801684E+03  1.996581E+05 -4.221761E-09  1.992710E-09
       182  16  1.938239E+05  8.789765E+05  1.817550E+05  1.780829E+05 -1.024318E-09 -3.009866E-08
       182  17  1.627671E+05  6.569032E+05  1.269731E+05  1.621710E+05 -3.860429E-10  3.197335E-10
       182  18  1.143409E+05  4.341959E+05  8.495037E+04  2.025857E+05 -2.379251E-10  3.282221E-08
       182  19 -2.652112E+05 -9.729220E+05 -2.608300E+05  2.211313E+05  1.064488E+04  7.771319E+04
       182  20 -1.754018E+05 -7.442370E+05 -1.624514E+05  1.807653E+05  3.191393E+04  3.308259E+04
       182  21 -1.153005E+05 -5.285099E+05 -1.005626E+05  1.967326E+05  2.895362E+04 -1.159901E+04
       182  22 -3.566396E+04 -4.736854E+04 -3.951136E+04  1.996231E+05  1.069239E+04  2.898319E+04
       182  23 -6.301480E+03 -4.389974E+04 -1.772522E+04  1.714735E+05  3.192301E+04  1.976465E+04
       182  24 -4.725101E+02 -4.726826E+04 -7.799904E+03  1.996584E+05  2.893494E+04  1.051263E+04
       182  25  1.938241E+05  8.789770E+05  1.817560E+05  1.780827E+05  1.074326E+04 -1.981925E+04
       182  26  1.627682E+05  6.569035E+05  1.269751E+05  1.621712E+05  3.193247E+04  6.431926E+03
       182  27  1.143420E+05  4.341973E+05  8.495394E+04  2.025865E+05  2.891649E+04  3.264102E+04
       183   1 -8.065657E+04 -3.761176E+05 -6.800648E+04  2.002005E+05 -1.992883E+04  8.496391E+03
       183   2 -2.592706E+04 -1.541740E+05 -1.779328E+04  1.713837E+05 -7.309613E+03  7.909057E+03
       183   3  2.914471E+04  6.813870E+04  3.292195E+04  2.003050E+05  5.694141E+03  7.320703E+03
       183   4 -1.811645E+03 -4.563130E+04 -4.352772E+03  1.999627E+05 -1.991508E+04 -9.691503E+03
       183   5 -2.306857E+02 -4.583397E+04  2.333465E+03  1.710952E+05 -7.296221E+03 -1.084377E+04
       183   6  1.793722E+03 -4.561544E+04  9.916220E+03  1.999652E+05  5.707018E+03 -1.199686E+04
       183   7  7.702698E+04  2.849608E+05  5.929713E+04  1.997246E+05 -1.990132E+04 -2.788886E+04
       183   8  2.546520E+04  6.251821E+04  2.246103E+04  1.708066E+05 -7.282813E+03 -2.959979E+04
       183   9 -2.555787E+04 -1.593565E+05 -1.308878E+04  1.996254E+05  5.719916E+03 -3.131096E+04
       183  10 -8.065702E+04 -3.761178E+05 -6.800736E+04  2.002007E+05  1.918213E-09  3.459742E-09
       183  11 -2.592713E+04 -1.541741E+05 -1.779349E+04  1.713837E+05  5.167191E-09  1.353609E-09
       183  12  2.914466E+04  6.813863E+04  3.292179E+04  2.003050E+05  2.381749E-09 -5.967627E-09
       183  13 -1.812096E+03 -4.563151E+04 -4.353693E+03  1.999625E+05 -1.114695E-10  2.249720E-09
       183  14 -2.307744E+02 -4.583411E+04  2.333144E+03  1.710951E+05  4.766602E-09 -1.647452E-09
       183  15  1.793649E+03 -4.561561E+04  9.915888E+03  1.999652E+05  3.364670E-09  1.509783E-10
       183  16  7.702634E+04  2.849599E+05  5.929492E+04  1.997242E+05 -1.170566E-10 -4.325602E-09
       183  17  2.546491E+04  6.251726E+04  2.245929E+04  1.708064E+05 -1.833875E-09  9.621112E-10
       183  18 -2.555817E+04 -1.593575E+05 -1.309068E+04  1.996255E+05 -3.344861E-10  5.318049E-09
       183  19 -8.065657E+04 -3.761176E+05 -6.800648E+04  2.002005E+05  1.992883E+04 -8.496391E+03
       183  20 -2.592706E+04 -1.541740E+05 -1.779328E+04  1.713837E+05  7.309613E+03 -7.909057E+03
       183  21  2.914471E+04  6.813870E+04  3.292195E+04  2.003050E+05 -5.694141E+03 -7.320703E+03
       183  22 -1.811645E+03 -4.563130E+04 -4.352772E+03  1.999627E+05  1.991508E+04  9.691503E+03
       183  23 -2.306857E+02 -4.583397E+04  2.333465E+03  1.710952E+05  7.296221E+03  1.084377E+04
       183  24  1.793722E+03 -4.561544E+04  9.916220E+03  1.999652E+05 -5.707018E+03  1.199686E+04
       183  25  7.702698E+04  2.849608E+05  5.929713E+04  1.997246E+05  1.990132E+04  2.788886E+04
       183  26  2.546520E+04  6.251821E+04  2.246103E+04  1.708066E+05  7.282813E+03  2.959979E+04
       183  27 -2.555787E+04 -1.593565E+05 -1.308878E+04  1.996254E+05 -5.719916E+03  3.131096E+04
       184   1  6.304536E+04  2.211066E+05  6.630883E+04  1.947513E+05  1.477666E+04  8.532563E+03
       184   2  1.256661E+05  4.355299E+05  1.296065E+05  1.845624E+05  2.056533E+04 -3.378982E+04
       184   3  2.289040E+05  6.658513E+05  2.306376E+05  2.311089E+05  7.445323E+03 -7.615028E+04
       184   4 -2.307608E+02 -4.326191E+04  1.431191E+04  1.997316E+05  1.479251E+04 -1.374111E+04
       184   5  8.549712E+03 -4.882699E+04  2.813020E+04  1.713900E+05  2.056289E+04 -2.835955E+04
       184   6  5.316046E+04 -4.332939E+04  6.046221E+04  1.997803E+05  7.420337E+03 -4.300066E+04
       184   7 -6.351075E+04 -3.075624E+05 -3.768653E+04  2.047097E+05  1.480801E+04 -3.600551E+04
       184   8 -1.085810E+05 -5.329618E+05 -7.335891E+04  1.582281E+05  2.056022E+04 -2.293344E+04
       184   9 -1.226153E+05 -7.520453E+05 -1.097441E+05  1.684875E+05  7.391999E+03 -9.888699E+03
       184  10  6.304510E+04  2.211064E+05  6.630828E+04  1.947512E+05 -3.072201E-10  4.145531E-10
       184  11  1.256653E+05  4.355286E+05  1.296035E+05  1.845629E+05  1.050426E-09  2.131707E-09
       184  12  2.289024E+05  6.658450E+05  2.306266E+05  2.311094E+05  1.370801E-09 -3.971280E-10
       184  13 -2.310466E+02 -4.326217E+04  1.431115E+04  1.997318E+05 -3.207436E-09  1.110381E-09
       184  14  8.549042E+03 -4.882797E+04  2.812789E+04  1.713905E+05 -7.700675E-10 -3.215023E-09
       184  15  5.315991E+04 -4.333139E+04  6.045863E+04  1.997805E+05  2.246009E-09  1.796150E-09
       184  16 -6.351133E+04 -3.075638E+05 -3.768938E+04  2.047102E+05 -3.014764E-10 -9.785908E-10
       184  17 -1.085816E+05 -5.329625E+05 -7.336069E+04  1.582284E+05  1.828818E-09 -1.543244E-09
       184  18 -1.226154E+05 -7.520454E+05 -1.097444E+05  1.684876E+05 -3.207456E-10 -5.600478E-10
       184  19  6.304536E+04  2.211066E+05  6.630883E+04  1.947513E+05 -1.477666E+04 -8.532563E+03
       184  20  1.256661E+05  4.355299E+05  1.296065E+05  1.845624E+05 -2.056533E+04  3.378982E+04
       184  21  2.289040E+05  6.658513E+05  2.306376E+05  2.311089E+05 -7.445323E+03  7.615028E+04
       184  22 -2.307608E+02 -4.326191E+04  1.431191E+04  1.997316E+05 -1.479251E+04  1.374111E+04
       184  23  8.549712E+03 -4.882699E+04  2.813020E+04  1.713900E+05 -2.056289E+04  2.835955E+04
       184  24  5.316046E+04 -4.332939E+04  6.046221E+04  1.997803E+05 -7.420337E+03  4.300066E+04
       184  25 -6.351075E+04 -3.075624E+05 -3.768653E+04  2.047097E+05 -1.480801E+04  3.600551E+04
       184  26 -1.085810E+05 -5.329618E+05 -7.335891E+04  1.582281E+05 -2.056022E+04  2.293344E+04
       184  27 -1.226153E+05 -7.520453E+05 -1.097441E+05  1.684875E+05 -7.391999E+03  9.888699E+03
       185   1  7.336850E+05  2.643189E+05  1.570243E+05  2.688137E+05  6.558788E+04  2.024205E+04
       185   2  7.110790E+05  1.745442E+05  9.823301E+04  2.635741E+05  4.243090E+04  1.935648E+03
       185   3  7.093300E+05  1.549089E+05  7.639775E+04  2.497817E+05  1.632723E+04 -8.543295E+03
       185   4  4.788101E+05  1.389631E+05  8.347321E+04  1.689897E+05  5.477900E+04  1.616640E+04
       185   5  4.645151E+05  7.249739E+04  3.624796E+04  1.853552E+05  3.849547E+04  4.515509E+02
       185   6  4.697260E+05  7.482424E+04  2.054565E+04  1.931653E+05  1.926373E+04 -7.436718E+03
       185   7  2.240046E+05  1.362813E+04  9.917678E+03  6.920893E+04  4.397513E+04  1.209393E+04
       185   8  2.180127E+05 -2.954074E+04 -2.574151E+04  1.071663E+05  3.456175E+04 -1.031740E+03
       185   9  2.301770E+05 -5.259550E+03 -3.531079E+04  1.365672E+05  2.219901E+04 -6.330490E+03
       185  10  7.336803E+05  2.643173E+05  1.570155E+05  2.688127E+05 -2.957152E-10 -1.357096E-09
       185  11  7.110771E+05  1.745437E+05  9.822962E+04  2.635741E+05  5.398078E-09  5.152912E-09
       185  12  7.093297E+05  1.549087E+05  7.639712E+04  2.497818E+05 -1.196683E-09 -1.884824E-09
       185  13  4.788068E+05  1.389620E+05  8.346708E+04  1.689890E+05 -1.209044E-10  8.685469E-10
       185  14  4.645136E+05  7.249699E+04  3.624518E+04  1.853552E+05 -2.492381E-09 -2.866992E-11
       185  15  4.697256E+05  7.482408E+04  2.054484E+04  1.931654E+05 -1.823233E-09  7.417472E-09
       185  16  2.240025E+05  1.362746E+04  9.913771E+03  6.920850E+04 -1.624627E-09 -3.209529E-09
       185  17  2.180115E+05 -2.954106E+04 -2.574376E+04  1.071664E+05 -3.846052E-09 -1.965228E-09
       185  18  2.301765E+05 -5.259725E+03 -3.531179E+04  1.365673E+05 -4.378944E-09  1.352695E-09
       185  19  7.336850E+05  2.643189E+05  1.570243E+05  2.688137E+05 -6.558788E+04 -2.024205E+04
       185  20  7.110790E+05  1.745442E+05  9.823301E+04  2.635741E+05 -4.243090E+04 -1.935648E+03
       185  21  7.093300E+05  1.549089E+05  7.639775E+04  2.497817E+05 -1.632723E+04  8.543295E+03
       185  22  4.788101E+05  1.389631E+05  8.347321E+04  1.689897E+05 -5.477900E+04 -1.616640E+04
       185  23  4.645151E+05  7.249739E+04  3.624796E+04  1.853552E+05 -3.849547E+04 -4.515509E+02
       185  24  4.697260E+05  7.482424E+04  2.054565E+04  1.931653E+05 -1.926373E+04  7.436718E+03
       185  25  2.240046E+05  1.362813E+04  9.917678E+03  6.920893E+04 -4.397513E+04 -1.209393E+04
       185  26  2.180127E+05 -2.954074E+04 -2.574151E+04  1.071663E+05 -3.456175E+04  1.031740E+03
       185  27  2.301770E+05 -5.259550E+03 -3.531079E+04  1.365672E+05 -2.219901E+04  6.330490E+03
       186   1  6.810387E+05  1.620511E+05  6.812418E+04  2.496784E+05  1.549808E+04 -7.155902E+03
       186   2  6.625558E+05  1.462819E+05  5.491155E+04  2.403401E+05  1.062680E+04 -8.025042E+03
       186   3  6.394440E+05  1.410610E+05  4.612746E+04  2.377802E+05  5.624988E+03 -8.548241E+03
       186   4  4.670628E+05  8.098941E+04  1.626805E+04  1.893667E+05  1.608639E+04 -6.934515E+03
       186   5  4.691449E+05  7.388370E+04  8.367554E+03  1.866804E+05  1.152002E+04 -7.688559E+03
       186   6  4.665378E+05  7.726675E+04  4.655280E+03  1.907721E+05  6.822939E+03 -8.096683E+03
       186   7  2.531323E+05 -6.861677E+01 -3.559147E+04  1.290741E+05  1.667449E+04 -6.713215E+03
       186   8  2.757716E+05  1.488485E+03 -3.817903E+04  1.330360E+05  1.241293E+04 -7.352192E+03
       186   9  2.936622E+05  1.347486E+04 -3.681883E+04  1.437761E+05  8.020519E+03 -7.645261E+03
       186  10  6.810384E+05  1.620510E+05  6.812363E+04  2.496784E+05 -7.775215E-10  1.913089E-09
       186  11  6.625557E+05  1.462818E+05  5.491121E+04  2.403402E+05 -7.474677E-09 -3.237387E-09
       186  12  6.394439E+05  1.410609E+05  4.612727E+04  2.377803E+05 -1.394700E-08 -2.894842E-09
       186  13  4.670625E+05  8.098929E+04  1.626747E+04  1.893668E+05 -2.396408E-10  1.124172E-10
       186  14  4.691448E+05  7.388360E+04  8.367194E+03  1.866805E+05  8.502266E-10  6.436410E-09
       186  15  4.665378E+05  7.726667E+04  4.655069E+03  1.907722E+05 -3.662634E-09 -5.059963E-09
       186  16  2.531320E+05 -6.873981E+01 -3.559208E+04  1.290741E+05 -4.864325E-09 -6.351602E-10
       186  17  2.757714E+05  1.488385E+03 -3.817942E+04  1.330361E+05  8.751864E-09 -7.850250E-11
       186  18  2.936621E+05  1.347478E+04 -3.681906E+04  1.437762E+05  1.011463E-08  6.886947E-09
       186  19  6.810387E+05  1.620511E+05  6.812418E+04  2.496784E+05 -1.549808E+04  7.155902E+03
       186  20  6.625558E+05  1.462819E+05  5.491155E+04  2.403401E+05 -1.062680E+04  8.025042E+03
       186  21  6.394440E+05  1.410610E+05  4.612746E+04  2.377802E+05 -5.624988E+03  8.548241E+03
       186  22  4.670628E+05  8.098941E+04  1.626805E+04  1.893667E+05 -1.608639E+04  6.934515E+03
       186  23  4.691449E+05  7.388370E+04  8.367554E+03  1.866804E+05 -1.152002E+04  7.688559E+03
       186  24  4.665378E+05  7.726675E+04  4.655280E+03  1.907721E+05 -6.822939E+03  8.096683E+03
       186  25  2.531323E+05 -6.861677E+01 -3.559147E+04  1.290741E+05 -1.667449E+04  6.713215E+03
       186  26  2.757716E+05  1.488485E+03 -3.817903E+04  1.330360E+05 -1.241293E+04  7.352192E+03
       186  27  2.936622E+05  1.347486E+04 -3.681883E+04  1.437761E+05 -8.020519E+03  7.645261E+03
       187   1  6.210610E+05  1.352404E+05  4.063965E+04  2.331737E+05  4.783606E+03 -7.981829E+03
       187   2  6.031856E+05  1.238482E+05  3.403263E+04  2.236131E+05  3.331958E+03 -7.101035E+03
       187   3  5.788940E+05  1.193417E+05  2.821820E+04  2.215856E+05  1.875164E+03 -6.207267E+03
       187   4  4.663167E+05  7.760104E+04  3.543831E+03  1.905126E+05  5.874305E+03 -7.570635E+03
       187   5  4.695134E+05  7.406458E+04  1.936820E+03  1.867821E+05  4.434304E+03 -6.685333E+03
       187   6  4.662915E+05  7.741187E+04  1.113459E+03  1.905847E+05  2.989124E+03 -5.787069E+03
       187   7  3.115952E+05  1.996307E+04 -3.355395E+04  1.478608E+05  6.964714E+03 -7.159551E+03
       187   8  3.358585E+05  2.428213E+04 -3.016039E+04  1.499582E+05  5.536395E+03 -6.269728E+03
       187   9  3.537016E+05  3.548291E+04 -2.599222E+04  1.595890E+05  4.102865E+03 -5.366953E+03
       187  10  6.210610E+05  1.352403E+05  4.063949E+04  2.331738E+05  3.907411E-09  2.630906E-09
       187  11  6.031856E+05  1.238481E+05  3.403252E+04  2.236132E+05  5.956723E-09  3.752515E-10
       187  12  5.788940E+05  1.193417E+05  2.821812E+04  2.215856E+05  1.481561E-09  5.853009E-09
       187  13  4.663166E+05  7.760097E+04  3.543659E+03  1.905126E+05 -3.477567E-09 -6.920612E-09
       187  14  4.695134E+05  7.406453E+04  1.936699E+03  1.867821E+05  6.056713E-09 -1.214669E-08
       187  15  4.662915E+05  7.741184E+04  1.113379E+03  1.905847E+05 -1.662505E-09 -1.362211E-09
       187  16  3.115952E+05  1.996300E+04 -3.355413E+04  1.478608E+05 -1.385151E-08 -2.753459E-09
       187  17  3.358584E+05  2.428208E+04 -3.016052E+04  1.499582E+05 -1.053451E-08  7.139513E-10
       187  18  3.537016E+05  3.548287E+04 -2.599230E+04  1.595890E+05  5.034134E-09  2.903413E-09
       187  19  6.210610E+05  1.352404E+05  4.063965E+04  2.331737E+05 -4.783606E+03  7.981829E+03
       187  20  6.031856E+05  1.238482E+05  3.403263E+04  2.236131E+05 -3.331958E+03  7.101035E+03
       187  21  5.788940E+05  1.193417E+05  2.821820E+04  2.215856E+05 -1.875164E+03  6.207267E+03
       187  22  4.663167E+05  7.760104E+04  3.543831E+03  1.905126E+05 -5.874305E+03  7.570635E+03
       187  23  4.695134E+05  7.406458E+04  1.936820E+03  1.867821E+05 -4.434304E+03  6.685333E+03
       187  24  4.662915E+05  7.741187E+04  1.113459E+03  1.905847E+05 -2.989124E+03  5.787069E+03
       187  25  3.115952E+05  1.996307E+04 -3.355395E+04  1.478608E+05 -6.964714E+03  7.159551E+03
       187  26  3.358585E+05  2.428213E+04 -3.016039E+04  1.499582E+05 -5.536395E+03  6.269728E+03
       187  27  3.537016E+05  3.548291E+04 -2.599222E+04  1.595890E+05 -4.102865E+03  5.366953E+03
       188   1  5.612595E+05  1.127996E+05  2.360883E+04  2.167504E+05  1.438986E+03 -5.529139E+03
       188   2  5.435471E+05  1.016816E+05  1.835329E+04  2.072062E+05  6.727745E+02 -4.375861E+03
       188   3  5.192712E+05  9.719318E+04  1.331751E+04  2.051829E+05 -9.327849E+01 -3.223336E+03
       188   4  4.662693E+05  7.742031E+04  8.724927E+02  1.905579E+05  2.546693E+03 -5.111246E+03
       188   5  4.695516E+05  7.410362E+04  5.833366E+02  1.867983E+05  1.779864E+03 -3.958141E+03
       188   6  4.662699E+05  7.741682E+04  5.144546E+02  1.905597E+05  1.013180E+03 -2.805788E+03
       188   7  3.712885E+05  4.204181E+04 -2.186436E+04  1.643691E+05  3.654209E+03 -4.693424E+03
       188   8  3.955615E+05  4.652607E+04 -1.718701E+04  1.663927E+05  2.886810E+03 -3.540475E+03
       188   9  4.132712E+05  5.764056E+04 -1.228887E+04  1.759377E+05  2.119541E+03 -2.388277E+03
       188  10  5.612595E+05  1.127996E+05  2.360877E+04  2.167504E+05 -7.406847E-09  2.792208E-09
       188  11  5.435471E+05  1.016815E+05  1.835325E+04  2.072062E+05  3.244037E-09  5.767452E-09
       188  12  5.192712E+05  9.719317E+04  1.331749E+04  2.051829E+05  7.240297E-09  5.494568E-10
       188  13  4.662692E+05  7.742028E+04  8.724314E+02  1.905579E+05 -9.388777E-10  2.258585E-10
       188  14  4.695516E+05  7.410360E+04  5.833012E+02  1.867984E+05 -2.515482E-10  1.920484E-09
       188  15  4.662699E+05  7.741681E+04  5.144378E+02  1.905597E+05 -4.169245E-10 -7.256154E-09
       188  16  3.712884E+05  4.204178E+04 -2.186443E+04  1.643692E+05  2.983907E-09  3.442494E-09
       188  17  3.955615E+05  4.652606E+04 -1.718705E+04  1.663928E+05 -5.938272E-09 -3.617768E-10
       188  18  4.132712E+05  5.764055E+04 -1.228889E+04  1.759377E+05 -7.578793E-09  5.348460E-10
       188  19  5.612595E+05  1.127996E+05  2.360883E+04  2.167504E+05 -1.438986E+03  5.529139E+03
       188  20  5.435471E+05  1.016816E+05  1.835329E+04  2.072062E+05 -6.727745E+02  4.375861E+03
       188  21  5.192712E+05  9.719318E+04  1.331751E+04  2.051829E+05  9.327849E+01  3.223336E+03
       188  22  4.662693E+05  7.742031E+04  8.724927E+02  1.905579E+05 -2.546693E+03  5.111246E+03
       188  23  4.695516E+05  7.410362E+04  5.833366E+02  1.867983E+05 -1.779864E+03  3.958141E+03
       188  24  4.662699E+05  7.741682E+04  5.144546E+02  1.905597E+05 -1.013180E+03  2.805788E+03
       188  25  3.712885E+05  4.204181E+04 -2.186436E+04  1.643691E+05 -3.654209E+03  4.693424E+03
       188  26  3.955615E+05  4.652607E+04 -1.718701E+04  1.663927E+05 -2.886810E+03  3.540475E+03
       188  27  4.132712E+05  5.764056E+04 -1.228887E+04  1.759377E+05 -2.119541E+03  2.388277E+03
       189   1  5.017478E+05  9.063623E+04  8.995074E+03  2.003598E+05 -4.578103E+02 -2.522428E+03
       189   2  4.840655E+05  7.954308E+04  4.258800E+03  1.908323E+05 -1.314975E+03 -1.406084E+03
       189   3  4.598456E+05  7.507547E+04 -1.880275E+02  1.888123E+05 -2.171871E+03 -2.904196E+02
       189   4  4.662757E+05  7.741430E+04  5.472378E+02  1.905574E+05  6.478247E+02 -2.105166E+03
       189   5  4.695455E+05  7.410632E+04  7.673798E+02  1.868020E+05 -2.099574E+02 -9.890454E+02
       189   6  4.662772E+05  7.742390E+04  1.277434E+03  1.905538E+05 -1.067483E+03  1.263922E+02
       189   7  4.308049E+05  6.419247E+04 -7.900682E+03  1.807555E+05  1.753391E+03 -1.687931E+03
       189   8  4.550257E+05  6.866959E+04 -2.724039E+03  1.827718E+05  8.950296E+02 -5.720182E+02
       189   9  4.727089E+05  7.977233E+04  2.742890E+03  1.922954E+05  3.691173E+01  5.432065E+02
       189  10  5.017478E+05  9.063622E+04  8.995062E+03  2.003598E+05 -6.791611E-10 -2.334577E-09
       189  11  4.840655E+05  7.954308E+04  4.258793E+03  1.908323E+05 -4.157146E-09  7.581433E-09
       189  12  4.598456E+05  7.507547E+04 -1.880365E+02  1.888123E+05 -3.274501E-09  5.420789E-10
       189  13  4.662757E+05  7.741430E+04  5.472287E+02  1.905574E+05 -1.384327E-10 -9.282132E-10
       189  14  4.695455E+05  7.410632E+04  7.673779E+02  1.868020E+05 -2.803922E-09 -8.434297E-09
       189  15  4.662772E+05  7.742390E+04  1.277432E+03  1.905538E+05  3.834915E-09  3.474501E-09
       189  16  4.308049E+05  6.419247E+04 -7.900693E+03  1.807555E+05  2.086217E-09 -5.988943E-09
       189  17  4.550257E+05  6.866959E+04 -2.724041E+03  1.827718E+05  5.967639E-10 -9.826650E-09
       189  18  4.727089E+05  7.977233E+04  2.742889E+03  1.922954E+05  6.890171E-09 -8.260179E-09
       189  19  5.017478E+05  9.063623E+04  8.995074E+03  2.003598E+05  4.578103E+02  2.522428E+03
       189  20  4.840655E+05  7.954308E+04  4.258800E+03  1.908323E+05  1.314975E+03  1.406084E+03
       189  21  4.598456E+05  7.507547E+04 -1.880275E+02  1.888123E+05  2.171871E+03  2.904196E+02
       189  22  4.662757E+05  7.741430E+04  5.472378E+02  1.905574E+05 -6.478247E+02  2.105166E+03
       189  23  4.695455E+05  7.410632E+04  7.673798E+02  1.868020E+05  2.099574E+02  9.890454E+02
       189  24  4.662772E+05  7.742390E+04  1.277434E+03  1.905538E+05  1.067483E+03 -1.263922E+02
       189  25  4.308049E+05  6.419247E+04 -7.900682E+03  1.807555E+05 -1.753391E+03  1.687931E+03
       189  26  4.550257E+05  6.866959E+04 -2.724039E+03  1.827718E+05 -8.950296E+02  5.720182E+02
       189  27  4.727089E+05  7.977233E+04  2.742890E+03  1.922954E+05 -3.691173E+01 -5.432065E+02
       190   1  4.423308E+05  6.854062E+04 -4.148878E+03  1.840685E+05 -2.695877E+03  3.508837E+02
       190   2  4.245544E+05  5.738025E+04 -7.806636E+03  1.744633E+05 -4.648694E+03  1.051469E+03
       190   3  4.005047E+05  5.319719E+04 -1.026994E+04  1.723346E+05 -6.597661E+03  1.742195E+03
       190   4  4.663220E+05  7.740221E+04  1.669622E+03  1.905847E+05 -1.588098E+03  7.689677E+02
       190   5  4.694787E+05  7.406290E+04  2.973287E+03  1.867896E+05 -3.549703E+03  1.466200E+03
       190   6  4.663637E+05  7.770272E+04  5.478424E+03  1.904708E+05 -5.507509E+03  2.153554E+03
       190   7  4.903138E+05  8.626389E+04  7.488120E+03  1.971012E+05 -4.802662E+02  1.187071E+03
       190   8  5.144051E+05  9.074573E+04  1.375310E+04  1.991167E+05 -2.450622E+03  1.880965E+03
       190   9  5.322270E+05  1.022086E+05  2.122648E+04  2.086088E+05 -4.417230E+03  2.564962E+03
       190  10  4.423308E+05  6.854061E+04 -4.148892E+03  1.840685E+05 -4.550364E-09 -3.536426E-09
       190  11  4.245544E+05  5.738024E+04 -7.806679E+03  1.744633E+05 -6.199191E-09  5.798829E-09
       190  12  4.005046E+05  5.319717E+04 -1.027002E+04  1.723346E+05 -7.382488E-09 -4.666116E-09
       190  13  4.663219E+05  7.740221E+04  1.669617E+03  1.905847E+05  4.534376E-09 -1.790734E-09
       190  14  4.694787E+05  7.406289E+04  2.973259E+03  1.867896E+05 -9.369812E-10 -5.292818E-09
       190  15  4.663636E+05  7.770271E+04  5.478358E+03  1.904708E+05  3.501729E-09 -4.563552E-09
       190  16  4.903138E+05  8.626389E+04  7.488117E+03  1.971012E+05  8.547495E-09 -1.943721E-09
       190  17  5.144051E+05  9.074573E+04  1.375308E+04  1.991167E+05  9.680739E-09  9.173396E-09
       190  18  5.322270E+05  1.022086E+05  2.122643E+04  2.086088E+05  8.746242E-09  6.167448E-09
       190  19  4.423308E+05  6.854062E+04 -4.148878E+03  1.840685E+05  2.695877E+03 -3.508837E+02
       190  20  4.245544E+05  5.738025E+04 -7.806636E+03  1.744633E+05  4.648694E+03 -1.051469E+03
       190  21  4.005047E+05  5.319719E+04 -1.026994E+04  1.723346E+05  6.597661E+03 -1.742195E+03
       190  22  4.663220E+05  7.740221E+04  1.669622E+03  1.905847E+05  1.588098E+03 -7.689677E+02
       190  23  4.694787E+05  7.406290E+04  2.973287E+03  1.867896E+05  3.549703E+03 -1.466200E+03
       190  24  4.663637E+05  7.770272E+04  5.478424E+03  1.904708E+05  5.507509E+03 -2.153554E+03
       190  25  4.903138E+05  8.626389E+04  7.488120E+03  1.971012E+05  4.802662E+02 -1.187071E+03
       190  26  5.144051E+05  9.074573E+04  1.375310E+04  1.991167E+05  2.450622E+03 -1.880965E+03
       190  27  5.322270E+05  1.022086E+05  2.122648E+04  2.086088E+05  4.417230E+03 -2.564962E+03
       191   1  3.825928E+05  4.681814E+04 -1.289025E+04  1.687052E+05 -7.972109E+03  2.088909E+03
       191   2  3.648755E+05  3.451251E+04 -1.213516E+04  1.574326E+05 -1.480227E+04  8.920264E+02
       191   3  3.435622E+05  3.469872E+04 -5.055231E+03  1.524184E+05 -2.154276E+04 -5.414043E+02
       191   4  4.667164E+05  7.717669E+04  7.206042E+03  1.908640E+05 -6.809357E+03  2.527636E+03
       191   5  4.689034E+05  7.380066E+04  1.297032E+04  1.866436E+05 -1.384815E+04  1.251916E+03
       191   6  4.675347E+05  8.295678E+04  2.522379E+04  1.886812E+05 -2.079754E+04 -2.604621E+02
       191   7  5.508466E+05  1.075355E+05  2.730171E+04  2.130254E+05 -5.646438E+03  2.966422E+03
       191   8  5.729419E+05  1.130896E+05  3.807501E+04  2.158591E+05 -1.289386E+04  1.611874E+03
       191   9  5.915230E+05  1.312165E+05  5.550184E+04  2.249509E+05 -2.005216E+04  2.054892E+01
       191  10  3.825927E+05  4.681812E+04 -1.289037E+04  1.687052E+05  6.929874E-09  4.891683E-09
       191  11  3.648753E+05  3.451245E+04 -1.213557E+04  1.574326E+05  5.339605E-09  3.916982E-09
       191  12  3.435617E+05  3.469860E+04 -5.056103E+03  1.524184E+05 -2.689034E-09 -3.564396E-09
       191  13  4.667163E+05  7.717667E+04  7.205943E+03  1.908640E+05  1.057784E-09 -1.004721E-08
       191  14  4.689032E+05  7.380060E+04  1.296996E+04  1.866436E+05  7.012435E-10 -2.405811E-09
       191  15  4.675342E+05  8.295666E+04  2.522298E+04  1.886812E+05 -1.324259E-09 -1.167163E-09
       191  16  5.508466E+05  1.075355E+05  2.730163E+04  2.130254E+05 -5.358942E-09 -7.118500E-09
       191  17  5.729418E+05  1.130896E+05  3.807469E+04  2.158591E+05 -6.056588E-09  7.612129E-10
       191  18  5.915225E+05  1.312164E+05  5.550108E+04  2.249509E+05 -1.123568E-09 -6.976779E-10
       191  19  3.825928E+05  4.681814E+04 -1.289025E+04  1.687052E+05  7.972109E+03 -2.088909E+03
       191  20  3.648755E+05  3.451251E+04 -1.213516E+04  1.574326E+05  1.480227E+04 -8.920264E+02
       191  21  3.435622E+05  3.469872E+04 -5.055231E+03  1.524184E+05  2.154276E+04  5.414043E+02
       191  22  4.667164E+05  7.717669E+04  7.206042E+03  1.908640E+05  6.809357E+03 -2.527636E+03
       191  23  4.689034E+05  7.380066E+04  1.297032E+04  1.866436E+05  1.384815E+04 -1.251916E+03
       191  24  4.675347E+05  8.295678E+04  2.522379E+04  1.886812E+05  2.079754E+04  2.604621E+02
       191  25  5.508466E+05  1.075355E+05  2.730171E+04  2.130254E+05  5.646438E+03 -2.966422E+03
       191  26  5.729419E+05  1.130896E+05  3.807501E+04  2.158591E+05  1.289386E+04 -1.611874E+03
       191  27  5.915230E+05  1.312165E+05  5.550184E+04  2.249509E+05  2.005216E+04 -2.054892E+01
       192   1  3.180953E+05  3.041827E+04 -2.505025E+03  1.668841E+05 -2.766988E+04 -1.432058E+03
       192   2  3.091386E+05 -9.710649E+02  1.612158E+04  1.264628E+05 -5.313307E+04 -1.102233E+04
       192   3  3.330793E+05  6.979731E+04  7.991756E+04  6.866956E+04 -7.658228E+04 -2.594997E+04
       192   4  4.716262E+05  7.343528E+04  3.185766E+04  1.946111E+05 -2.532339E+04 -5.463456E+02
       192   5  4.617777E+05  7.161852E+04  5.621406E+04  1.845407E+05 -5.547578E+04 -1.190766E+04
       192   6  4.857417E+05  1.728678E+05  1.294457E+05  1.571017E+05 -8.361439E+04 -2.860864E+04
       192   7  6.251811E+05  1.164521E+05  6.621912E+04  2.223433E+05 -2.297626E+04  3.394739E+02
       192   8  6.144393E+05  1.442137E+05  9.630431E+04  2.426327E+05 -5.781909E+04 -1.279337E+04
       192   9  6.384293E+05  2.759582E+05  1.789715E+05  2.455570E+05 -9.064825E+04 -3.126926E+04
       192  10  3.180945E+05  3.041807E+04 -2.506467E+03  1.668841E+05  3.945659E-09 -1.810188E-09
       192  11  3.091356E+05 -9.719526E+02  1.611605E+04  1.264623E+05  1.981457E-09 -5.924148E-09
       192  12  3.330728E+05  6.979502E+04  7.990528E+04  6.866796E+04 -2.518159E-09 -6.681417E-09
       192  13  4.716255E+05  7.343511E+04  3.185645E+04  1.946111E+05 -3.145058E-09 -6.238076E-09
       192  14  4.617744E+05  7.161754E+04  5.620802E+04  1.845402E+05  4.855010E-09  4.762335E-09
       192  15  4.857339E+05  1.728650E+05  1.294311E+05  1.570998E+05  4.469945E-10 -8.314965E-09
       192  16  6.251806E+05  1.164520E+05  6.621813E+04  2.223433E+05 -2.908493E-09 -2.204345E-09
       192  17  6.144357E+05  1.442127E+05  9.629773E+04  2.426321E+05 -2.738490E-10  3.303625E-09
       192  18  6.384202E+05  2.759549E+05  1.789542E+05  2.455547E+05  2.695419E-09  1.146204E-09
       192  19  3.180953E+05  3.041827E+04 -2.505025E+03  1.668841E+05  2.766988E+04  1.432058E+03
       192  20  3.091386E+05 -9.710649E+02  1.612158E+04  1.264628E+05  5.313307E+04  1.102233E+04
       192  21  3.330793E+05  6.979731E+04  7.991756E+04  6.866956E+04  7.658228E+04  2.594997E+04
       192  22  4.716262E+05  7.343528E+04  3.185766E+04  1.946111E+05  2.532339E+04  5.463456E+02
       192  23  4.617777E+05  7.161852E+04  5.621406E+04  1.845407E+05  5.547578E+04  1.190766E+04
       192  24  4.857417E+05  1.728678E+05  1.294457E+05  1.571017E+05  8.361439E+04  2.860864E+04
       192  25  6.251811E+05  1.164521E+05  6.621912E+04  2.223433E+05  2.297626E+04 -3.394739E+02
       192  26  6.144393E+05  1.442137E+05  9.630431E+04  2.426327E+05  5.781909E+04  1.279337E+04
       192  27  6.384293E+05  2.759582E+05  1.789715E+05  2.455570E+05  9.064825E+04  3.126926E+04
       193   1 -7.497964E+04 -5.003448E+05 -7.712534E+04  7.906726E+04 -2.108559E+03 -1.610307E+04
       193   2 -2.998773E+04 -3.787166E+05 -3.701032E+04  4.735649E+04 -4.690260E+03 -5.583515E+03
       193   3 -7.642994E+02 -2.622315E+05 -7.663194E+03  7.043713E+04  5.665279E+01  4.946037E+03
       193   4 -1.437742E+04 -2.572060E+05 -1.743923E+04  7.250110E+04 -2.113468E+03 -1.102003E+04
       193   5  4.235613E+02 -2.551420E+05 -8.598891E+03  4.511302E+04 -4.689297E+03 -6.475596E+03
       193   6  4.965480E+02 -2.571960E+05 -6.372543E+03  7.251655E+04  6.296660E+01 -1.923281E+03
       193   7  4.622057E+04 -1.401327E+04  4.224265E+04  6.593236E+04 -2.118483E+03 -5.935000E+03
       193   8  3.083380E+04 -1.315534E+05  1.981154E+04  4.286910E+04 -4.688328E+03 -7.367854E+03
       193   9  1.757435E+03 -2.521603E+05 -5.081714E+03  7.459599E+04  6.923436E+01 -8.792654E+03
       193  10 -7.497971E+04 -5.003450E+05 -7.712584E+04  7.906724E+04  3.020219E-09  1.325487E-09
       193  11 -2.998776E+04 -3.787166E+05 -3.701042E+04  4.735647E+04 -2.393595E-09 -6.889162E-10
       193  12 -7.643060E+02 -2.622315E+05 -7.663240E+03  7.043713E+04  4.295257E-10 -2.621624E-09
       193  13 -1.437746E+04 -2.572061E+05 -1.743947E+04  7.250108E+04  1.418801E-09  1.115614E-09
       193  14  4.235265E+02 -2.551421E+05 -8.599011E+03  4.511299E+04  2.693804E-09  6.413040E-10
       193  15  4.965470E+02 -2.571960E+05 -6.372550E+03  7.251655E+04 -4.879544E-09 -2.027728E-09
       193  16  4.622056E+04 -1.401331E+04  4.224257E+04  6.593235E+04  8.321772E-10 -5.015194E-09
       193  17  3.083377E+04 -1.315534E+05  1.981139E+04  4.286907E+04  4.734902E-09  2.403543E-09
       193  18  1.757414E+03 -2.521604E+05 -5.081859E+03  7.459599E+04 -9.905371E-10  4.283556E-09
       193  19 -7.497964E+04 -5.003448E+05 -7.712534E+04  7.906726E+04  2.108559E+03  1.610307E+04
       193  20 -2.998773E+04 -3.787166E+05 -3.701032E+04  4.735649E+04  4.690260E+03  5.583515E+03
       193  21 -7.642994E+02 -2.622315E+05 -7.663194E+03  7.043713E+04 -5.665279E+01 -4.946037E+03
       193  22 -1.437742E+04 -2.572060E+05 -1.743923E+04  7.250110E+04  2.113468E+03  1.102003E+04
       193  23  4.235613E+02 -2.551420E+05 -8.598891E+03  4.511302E+04  4.689297E+03  6.475596E+03
       193  24  4.965480E+02 -2.571960E+05 -6.372543E+03  7.251655E+04 -6.296660E+01  1.923281E+03
       193  25  4.622057E+04 -1.401327E+04  4.224265E+04  6.593236E+04  2.118483E+03  5.935000E+03
       193  26  3.083380E+04 -1.315534E+05  1.981154E+04  4.286910E+04  4.688328E+03  7.367854E+03
       193  27  1.757435E+03 -2.521603E+05 -5.081714E+03  7.459599E+04 -6.923436E+01  8.792654E+03
       194   1  2.340022E+04 -1.572175E+05  1.634324E+04  7.317250E+04  4.584786E+03  4.001855E+03
       194   2  5.352890E+04 -3.775115E+04  4.292459E+04  4.477983E+04  1.033213E+04  6.705550E+03
       194   3  8.058703E+04  8.078779E+04  6.701558E+04  7.143367E+04  1.558285E+04  9.410968E+03
       194   4 -9.390572E+02 -2.565083E+05 -6.047199E+03  7.256928E+04  4.589370E+03 -8.920401E+02
       194   5  5.382837E+01 -2.560100E+05 -6.156261E+03  4.504473E+04  1.033702E+04  2.215669E+03
       194   6 -2.093749E+03 -2.565232E+05 -9.036358E+03  7.256805E+04  1.558791E+04  5.324599E+03
       194   7 -2.527900E+04 -3.557898E+05 -2.843818E+04  7.196616E+04  4.593964E+03 -5.785160E+03
       194   8 -5.342449E+04 -4.742245E+05 -5.524007E+04  4.530955E+04  1.034191E+04 -2.272648E+03
       194   9 -8.478232E+04 -5.937283E+05 -8.509551E+04  7.370183E+04  1.559297E+04  1.240428E+03
       194  10  2.340019E+04 -1.572176E+05  1.634317E+04  7.317248E+04 -2.029180E-09  3.433655E-09
       194  11  5.352878E+04 -3.775123E+04  4.292430E+04  4.477977E+04 -1.628024E-09  1.416254E-09
       194  12  8.058675E+04  8.078763E+04  6.701496E+04  7.143355E+04 -3.146907E-09 -6.416077E-09
       194  13 -9.390800E+02 -2.565083E+05 -6.047240E+03  7.256928E+04 -2.933886E-09  3.221200E-12
       194  14  5.371233E+01 -2.560100E+05 -6.156471E+03  4.504471E+04  8.912662E-10  1.296947E-09
       194  15 -2.094017E+03 -2.565233E+05 -9.036867E+03  7.256798E+04  1.560843E-09 -3.206975E-09
       194  16 -2.527903E+04 -3.557898E+05 -2.843828E+04  7.196618E+04  1.319483E-09 -5.797808E-09
       194  17 -5.342461E+04 -4.742245E+05 -5.524028E+04  4.530957E+04 -4.975323E-10  4.392915E-09
       194  18 -8.478259E+04 -5.937283E+05 -8.509597E+04  7.370181E+04  3.209671E-09  5.628670E-09
       194  19  2.340022E+04 -1.572175E+05  1.634324E+04  7.317250E+04 -4.584786E+03 -4.001855E+03
       194  20  5.352890E+04 -3.775115E+04  4.292459E+04  4.477983E+04 -1.033213E+04 -6.705550E+03
       194  21  8.058703E+04  8.078779E+04  6.701558E+04  7.143367E+04 -1.558285E+04 -9.410968E+03
       194  22 -9.390572E+02 -2.565083E+05 -6.047199E+03  7.256928E+04 -4.589370E+03  8.920401E+02
       194  23  5.382837E+01 -2.560100E+05 -6.156261E+03  4.504473E+04 -1.033702E+04 -2.215669E+03
       194  24 -2.093749E+03 -2.565232E+05 -9.036358E+03  7.256805E+04 -1.558791E+04 -5.324599E+03
       194  25 -2.527900E+04 -3.557898E+05 -2.843818E+04  7.196616E+04 -4.593964E+03  5.785160E+03
       194  26 -5.342449E+04 -4.742245E+05 -5.524007E+04  4.530955E+04 -1.034191E+04  2.272648E+03
       194  27 -8.478232E+04 -5.937283E+05 -8.509551E+04  7.370183E+04 -1.559297E+04 -1.240428E+03
       195   1  1.095488E+05  1.835491E+05  8.844171E+04  7.648730E+04  2.116846E+04  1.643324E+04
       195   2  1.382596E+05  3.055638E+05  1.101328E+05  4.009586E+04  2.369416E+04  1.066923E+04
       195   3  1.383085E+05  4.215200E+05  1.284815E+05  5.792039E+04  7.988962E+03  4.875341E+03
       195   4  1.362819E+03 -2.582414E+05 -1.075058E+04  7.239816E+04  2.118057E+04  6.932267E+03
       195   5  8.953188E+02 -2.539314E+05 -1.714244E+04  4.526397E+04  2.368819E+04  1.604484E+04
       195   6 -3.083036E+04 -2.582825E+05 -3.721327E+04  7.235012E+04  7.957408E+03  2.512822E+04
       195   7 -1.068364E+05 -6.998499E+05 -1.099549E+05  6.831200E+04  2.119282E+04 -2.562019E+03
       195   8 -1.364905E+05 -8.131360E+05 -1.444379E+05  5.042749E+04  2.368231E+04  2.141563E+04
       195   9 -2.000023E+05 -9.376622E+05 -2.029400E+05  8.676416E+04  7.926779E+03  4.535897E+04
       195  10  1.095482E+05  1.835487E+05  8.844036E+04  7.648702E+04 -3.139972E-09  1.654797E-09
       195  11  1.382590E+05  3.055636E+05  1.101315E+05  4.009565E+04 -9.365567E-10 -2.905465E-09
       195  12  1.383084E+05  4.215200E+05  1.284813E+05  5.792036E+04  3.192738E-09  1.893731E-09
       195  13  1.362324E+03 -2.582415E+05 -1.075152E+04  7.239804E+04 -1.058739E-09 -3.274768E-09
       195  14  8.946472E+02 -2.539318E+05 -1.714398E+04  4.526367E+04  5.591029E-09  6.050102E-10
       195  15 -3.083059E+04 -2.582832E+05 -3.721458E+04  7.234996E+04 -6.765964E-10 -6.195781E-10
       195  16 -1.068368E+05 -6.998500E+05 -1.099558E+05  6.831204E+04  4.391489E-09 -5.829402E-09
       195  17 -1.364913E+05 -8.131367E+05 -1.444398E+05  5.042708E+04  1.633293E-09  2.748914E-09
       195  18 -2.000029E+05 -9.376645E+05 -2.029440E+05  8.676387E+04  2.015225E-09  3.142518E-09
       195  19  1.095488E+05  1.835491E+05  8.844171E+04  7.648730E+04 -2.116846E+04 -1.643324E+04
       195  20  1.382596E+05  3.055638E+05  1.101328E+05  4.009586E+04 -2.369416E+04 -1.066923E+04
       195  21  1.383085E+05  4.215200E+05  1.284815E+05  5.792039E+04 -7.988962E+03 -4.875341E+03
       195  22  1.362819E+03 -2.582414E+05 -1.075058E+04  7.239816E+04 -2.118057E+04 -6.932267E+03
       195  23  8.953188E+02 -2.539314E+05 -1.714244E+04  4.526397E+04 -2.368819E+04 -1.604484E+04
       195  24 -3.083036E+04 -2.582825E+05 -3.721327E+04  7.235012E+04 -7.957408E+03 -2.512822E+04
       195  25 -1.068364E+05 -6.998499E+05 -1.099549E+05  6.831200E+04 -2.119282E+04  2.562019E+03
       195  26 -1.364905E+05 -8.131360E+05 -1.444379E+05  5.042749E+04 -2.368231E+04 -2.141563E+04
       195  27 -2.000023E+05 -9.376622E+05 -2.029400E+05  8.676416E+04 -7.926779E+03 -4.535897E+04
       196   1  2.019637E+05  1.293783E+05  1.171430E+05  3.062395E+04  2.296961E+04 -9.344306E+03
       196   2  1.503858E+05  1.387729E+05  9.968241E+04  3.760110E+04  5.952998E+03 -3.127506E+04
       196   3  9.698239E+04  1.319166E+05  8.925274E+04  5.522109E+04 -1.107340E+04 -3.731096E+04
       196   4 -4.682470E+05 -3.607044E+04 -4.003425E+04  5.279182E+04 -2.791189E+04 -9.389528E+03
       196   5 -4.649640E+05 -8.123389E+03 -1.947276E+04  4.745197E+04 -1.783873E+04 -3.130126E+04
       196   6 -4.682186E+05 -1.140912E+03 -1.069852E+04  5.275576E+04 -7.777048E+03 -3.731025E+04
       196   7 -1.138037E+06 -2.015479E+05 -1.972322E+05  7.493551E+04 -7.873880E+04 -9.438410E+03
       196   8 -1.079948E+06 -1.550415E+05 -1.386435E+05  5.729277E+04 -4.160740E+04 -3.132823E+04
       196   9 -1.033107E+06 -1.342159E+05 -1.106615E+05  5.029264E+04 -4.483602E+03 -3.730957E+04
       196  10  2.019631E+05  1.293781E+05  1.171418E+05  3.062412E+04  2.625973E-09 -5.634792E-10
       196  11  1.503855E+05  1.387718E+05  9.968050E+04  3.760125E+04 -1.569640E-08 -2.556988E-09
       196  12  9.698189E+04  1.319151E+05  8.924989E+04  5.522076E+04 -2.668487E-08 -1.796688E-09
       196  13 -4.682478E+05 -3.607074E+04 -4.003588E+04  5.279161E+04  1.966949E-09 -9.847677E-10
       196  14 -4.649646E+05 -8.124526E+03 -1.947520E+04  4.745152E+04 -3.727573E-09 -7.163008E-09
       196  15 -4.682190E+05 -1.142423E+03 -1.070124E+04  5.275552E+04 -7.296165E-10 -8.318473E-09
       196  16 -1.138044E+06 -2.015496E+05 -1.972440E+05  7.493491E+04 -3.420798E-09 -6.264912E-10
       196  17 -1.079950E+06 -1.550431E+05 -1.386486E+05  5.729172E+04  1.273210E-08 -4.639826E-09
       196  18 -1.033108E+06 -1.342174E+05 -1.106642E+05  5.029250E+04  3.072364E-08 -2.201454E-09
       196  19  2.019637E+05  1.293783E+05  1.171430E+05  3.062395E+04 -2.296961E+04  9.344306E+03
       196  20  1.503858E+05  1.387729E+05  9.968241E+04  3.760110E+04 -5.952998E+03  3.127506E+04
       196  21  9.698239E+04  1.319166E+05  8.925274E+04  5.522109E+04  1.107340E+04  3.731096E+04
       196  22 -4.682470E+05 -3.607044E+04 -4.003425E+04  5.279182E+04  2.791189E+04  9.389528E+03
       196  23 -4.649640E+05 -8.123389E+03 -1.947276E+04  4.745197E+04  1.783873E+04  3.130126E+04
       196  24 -4.682186E+05 -1.140912E+03 -1.069852E+04  5.275576E+04  7.777048E+03  3.731025E+04
       196  25 -1.138037E+06 -2.015479E+05 -1.972322E+05  7.493551E+04  7.873880E+04  9.438410E+03
       196  26 -1.079948E+06 -1.550415E+05 -1.386435E+05  5.729277E+04  4.160740E+04  3.132823E+04
       196  27 -1.033107E+06 -1.342159E+05 -1.106615E+05  5.029264E+04  4.483602E+03  3.730957E+04
       197   1  6.343482E+04  1.230513E+05  8.469336E+04  5.278032E+04 -7.974709E+03 -3.586302E+04
       197   2  1.104353E+04  1.116590E+05  7.701555E+04  4.738475E+04 -8.198705E+03 -3.421203E+04
       197   3 -4.149387E+04  9.959792E+04  6.931483E+04  5.369202E+04 -8.425371E+03 -3.111705E+04
       197   4 -4.668871E+05 -1.600631E+03 -8.140311E+03  5.299579E+04 -6.387082E+03 -3.586389E+04
       197   5 -4.665906E+05 -1.899415E+02 -4.479910E+03  4.714296E+04 -4.151867E+03 -3.420933E+04
       197   6 -4.668697E+05  1.248294E+02 -2.551122E+03  5.299355E+04 -1.919298E+03 -3.111024E+04
       197   7 -9.969335E+05 -1.262679E+05 -1.009840E+05  5.321099E+04 -4.800769E+03 -3.586476E+04
       197   8 -9.440003E+05 -1.120510E+05 -8.598285E+04  4.690129E+04 -1.080432E+02 -3.420665E+04
       197   9 -8.920671E+05 -9.935777E+04 -7.442270E+04  5.229551E+04  4.582462E+03 -3.110343E+04
       197  10  6.343441E+04  1.230499E+05  8.469083E+04  5.278009E+04  5.495721E-08 -1.853991E-09
       197  11  1.104315E+04  1.116577E+05  7.701322E+04  4.738452E+04  1.777400E-08  1.840866E-09
       197  12 -4.149421E+04  9.959686E+04  6.931287E+04  5.369181E+04 -2.496803E-08  3.107431E-09
       197  13 -4.668875E+05 -1.602023E+03 -8.142804E+03  5.299561E+04 -4.325143E-09 -9.080404E-09
       197  14 -4.665909E+05 -1.912025E+02 -4.482141E+03  4.714284E+04  4.548377E-10 -3.454025E-09
       197  15 -4.668699E+05  1.237894E+02 -2.552948E+03  5.299350E+04 -7.972152E-10 -7.277224E-10
       197  16 -9.969339E+05 -1.262693E+05 -1.009865E+05  5.321085E+04 -5.722698E-08  1.887754E-09
       197  17 -9.440006E+05 -1.120522E+05 -8.598505E+04  4.690128E+04 -1.642549E-08  3.150380E-09
       197  18 -8.920673E+05 -9.935882E+04 -7.442456E+04  5.229563E+04  2.484495E-08  2.445247E-09
       197  19  6.343482E+04  1.230513E+05  8.469336E+04  5.278032E+04  7.974709E+03  3.586302E+04
       197  20  1.104353E+04  1.116590E+05  7.701555E+04  4.738475E+04  8.198705E+03  3.421203E+04
       197  21 -4.149387E+04  9.959792E+04  6.931483E+04  5.369202E+04  8.425371E+03  3.111705E+04
       197  22 -4.668871E+05 -1.600631E+03 -8.140311E+03  5.299579E+04  6.387082E+03  3.586389E+04
       197  23 -4.665906E+05 -1.899415E+02 -4.479910E+03  4.714296E+04  4.151867E+03  3.420933E+04
       197  24 -4.668697E+05  1.248294E+02 -2.551122E+03  5.299355E+04  1.919298E+03  3.111024E+04
       197  25 -9.969335E+05 -1.262679E+05 -1.009840E+05  5.321099E+04  4.800769E+03  3.586476E+04
       197  26 -9.440003E+05 -1.120510E+05 -8.598285E+04  4.690129E+04  1.080432E+02  3.420665E+04
       197  27 -8.920671E+05 -9.935777E+04 -7.442270E+04  5.229551E+04 -4.582462E+03  3.110343E+04
       198   1 -7.560007E+04  9.151250E+04  6.387055E+04  5.352266E+04 -7.883985E+03 -2.886496E+04
       198   2 -1.281079E+05  7.925886E+04  5.576742E+04  4.755189E+04 -7.564631E+03 -2.506954E+04
       198   3 -1.806792E+05  6.701988E+04  4.745229E+04  5.339597E+04 -7.246428E+03 -2.114146E+04
       198   4 -4.667598E+05  9.471577E+01 -1.938850E+03  5.301872E+04 -1.530105E+03 -2.885780E+04
       198   5 -4.667011E+05  1.418863E+02 -1.109577E+03  4.711106E+04 -9.852647E+02 -2.506129E+04
       198   6 -4.667478E+05  1.646123E+02 -6.492129E+02  5.301862E+04 -4.415497E+02 -2.113207E+04
       198   7 -8.577685E+05 -9.133108E+04 -6.775292E+04  5.251505E+04  4.819902E+03 -2.885065E+04
       198   8 -8.051811E+05 -7.898107E+04 -5.799001E+04  4.667043E+04  5.590631E+03 -2.505304E+04
       198   9 -7.527356E+05 -6.669492E+04 -4.875312E+04  5.264141E+04  6.360295E+03 -2.112268E+04
       198  10 -7.560036E+04  9.151158E+04  6.386886E+04  5.352248E+04  2.763072E-08  4.571728E-09
       198  11 -1.281082E+05  7.925817E+04  5.576613E+04  4.755174E+04  1.035314E-09  4.698426E-09
       198  12 -1.806794E+05  6.701938E+04  4.745135E+04  5.339584E+04 -2.954660E-08  2.046938E-09
       198  13 -4.667600E+05  9.382109E+01 -1.940419E+03  5.301868E+04  3.462705E-10  1.029751E-09
       198  14 -4.667013E+05  1.412118E+02 -1.110759E+03  4.711104E+04  1.434425E-09  4.967292E-09
       198  15 -4.667479E+05  1.641329E+02 -6.500523E+02  5.301861E+04 -2.562211E-10  5.130309E-09
       198  16 -8.577688E+05 -9.133198E+04 -6.775453E+04  5.251516E+04 -3.085975E-08  4.043375E-09
       198  17 -8.051813E+05 -7.898176E+04 -5.799125E+04  4.667055E+04  7.607828E-11  6.113253E-09
       198  18 -7.527358E+05 -6.669541E+04 -4.875404E+04  5.264152E+04  2.020554E-08  2.913622E-09
       198  19 -7.560007E+04  9.151250E+04  6.387055E+04  5.352266E+04  7.883985E+03  2.886496E+04
       198  20 -1.281079E+05  7.925886E+04  5.576742E+04  4.755189E+04  7.564631E+03  2.506954E+04
       198  21 -1.806792E+05  6.701988E+04  4.745229E+04  5.339597E+04  7.246428E+03  2.114146E+04
       198  22 -4.667598E+05  9.471577E+01 -1.938850E+03  5.301872E+04  1.530105E+03  2.885780E+04
       198  23 -4.667011E+05  1.418863E+02 -1.109577E+03  4.711106E+04  9.852647E+02  2.506129E+04
       198  24 -4.667478E+05  1.646123E+02 -6.492129E+02  5.301862E+04  4.415497E+02  2.113207E+04
       198  25 -8.577685E+05 -9.133108E+04 -6.775292E+04  5.251505E+04 -4.819902E+03  2.885065E+04
       198  26 -8.051811E+05 -7.898107E+04 -5.799001E+04  4.667043E+04 -5.590631E+03  2.505304E+04
       198  27 -7.527356E+05 -6.669492E+04 -4.875312E+04  5.264141E+04 -6.360295E+03  2.112268E+04
       199   1 -2.148581E+05  5.898584E+04  4.162937E+04  5.335004E+04 -7.133581E+03 -1.881368E+04
       199   2 -2.674300E+05  4.670597E+04  3.308994E+04  4.736022E+04 -7.001686E+03 -1.481989E+04
       199   3 -3.200462E+05  3.446312E+04  2.446277E+04  5.320639E+04 -6.870392E+03 -1.081369E+04
       199   4 -4.667323E+05  1.645739E+02 -5.041309E+02  5.302330E+04 -3.406331E+02 -1.880392E+04
       199   5 -4.667030E+05  1.524195E+02 -3.204318E+02  4.710520E+04 -1.879760E+02 -1.480963E+04
       199   6 -4.667253E+05  1.735617E+02 -2.392780E+02  5.302330E+04 -3.591016E+01 -1.080291E+04
       199   7 -7.185437E+05 -5.865998E+04 -4.263942E+04  5.269668E+04  6.449649E+03 -1.879417E+04
       199   8 -6.659367E+05 -4.640318E+04 -3.373187E+04  4.685024E+04  6.623618E+03 -1.479937E+04
       199   9 -6.133830E+05 -3.411710E+04 -2.494183E+04  5.284023E+04  6.797009E+03 -1.079214E+04
       199  10 -2.148583E+05  5.898545E+04  4.162861E+04  5.334993E+04  2.694314E-08  1.703709E-09
       199  11 -2.674301E+05  4.670572E+04  3.308943E+04  4.736014E+04 -1.895086E-09  4.957900E-09
       199  12 -3.200463E+05  3.446298E+04  2.446246E+04  5.320633E+04 -2.732276E-08  3.144200E-09
       199  13 -4.667324E+05  1.641943E+02 -5.047954E+02  5.302330E+04 -4.314185E-09  2.466682E-09
       199  14 -4.667031E+05  1.521840E+02 -3.208439E+02  4.710520E+04 -4.759380E-11  4.025967E-09
       199  15 -4.667253E+05  1.734364E+02 -2.394972E+02  5.302330E+04 -2.134914E-09 -4.179630E-10
       199  16 -7.185438E+05 -5.866037E+04 -4.264016E+04  5.269678E+04 -2.694812E-08  1.344148E-09
       199  17 -6.659368E+05 -4.640343E+04 -3.373236E+04  4.685032E+04  1.690173E-09  9.875557E-10
       199  18 -6.133831E+05 -3.411724E+04 -2.494213E+04  5.284029E+04  2.876284E-08 -1.866187E-09
       199  19 -2.148581E+05  5.898584E+04  4.162937E+04  5.335004E+04  7.133581E+03  1.881368E+04
       199  20 -2.674300E+05  4.670597E+04  3.308994E+04  4.736022E+04  7.001686E+03  1.481989E+04
       199  21 -3.200462E+05  3.446312E+04  2.446277E+04  5.320639E+04  6.870392E+03  1.081369E+04
       199  22 -4.667323E+05  1.645739E+02 -5.041309E+02  5.302330E+04  3.406331E+02  1.880392E+04
       199  23 -4.667030E+05  1.524195E+02 -3.204318E+02  4.710520E+04  1.879760E+02  1.480963E+04
       199  24 -4.667253E+05  1.735617E+02 -2.392780E+02  5.302330E+04  3.591016E+01  1.080291E+04
       199  25 -7.185437E+05 -5.865998E+04 -4.263942E+04  5.269668E+04 -6.449649E+03  1.879417E+04
       199  26 -6.659367E+05 -4.640318E+04 -3.373187E+04  4.685024E+04 -6.623618E+03  1.479937E+04
       199  27 -6.133830E+05 -3.411710E+04 -2.494183E+04  5.284023E+04 -6.797009E+03  1.079214E+04
       200   1 -3.542592E+05  2.642658E+04  1.850862E+04  5.316296E+04 -6.831995E+03 -8.477598E+03
       200   2 -4.068511E+05  1.414260E+04  9.765838E+03  4.716425E+04 -6.699903E+03 -4.467477E+03
       200   3 -4.594955E+05  1.891249E+03  9.319733E+02  5.300978E+04 -6.567983E+03 -4.633310E+02
       200   4 -4.667238E+05  1.755935E+02 -2.282301E+02  5.302510E+04  2.907152E+00 -8.466634E+03
       200   5 -4.666964E+05  1.625468E+02 -2.590359E+02  4.710294E+04  1.245846E+02 -4.456387E+03
       200   6 -4.667217E+05  1.842322E+02 -3.735705E+02  5.302509E+04  2.461010E+02 -4.521128E+02
       200   7 -5.791759E+05 -2.607602E+04 -1.896529E+04  5.288726E+04  6.836612E+03 -8.455672E+03
       200   8 -5.265381E+05 -1.381767E+04 -1.028385E+04  4.704164E+04  6.948436E+03 -4.445298E+03
       200   9 -4.739478E+05 -1.522763E+03 -1.678942E+03  5.304040E+04  7.060108E+03 -4.408943E+02
       200  10 -3.542593E+05  2.642649E+04  1.850840E+04  5.316291E+04  1.100822E-09 -7.900244E-10
       200  11 -4.068511E+05  1.414257E+04  9.765717E+03  4.716422E+04 -2.633053E-09 -2.396750E-09
       200  12 -4.594956E+05  1.891238E+03  9.318917E+02  5.300977E+04 -4.639733E-09 -1.942553E-09
       200  13 -4.667238E+05  1.755166E+02 -2.283648E+02  5.302510E+04  3.993214E-09  2.684629E-09
       200  14 -4.666964E+05  1.625255E+02 -2.590732E+02  4.710294E+04  1.153131E-09 -1.209199E-09
       200  15 -4.667217E+05  1.842319E+02 -3.735710E+02  5.302509E+04 -2.144368E-10 -1.458002E-09
       200  16 -5.791759E+05 -2.607611E+04 -1.896551E+04  5.288730E+04 -2.438714E-09  4.442118E-10
       200  17 -5.265381E+05 -1.381771E+04 -1.028397E+04  4.704166E+04  1.638537E-09  3.198217E-11
       200  18 -4.739478E+05 -1.522777E+03 -1.679036E+03  5.304040E+04  5.557889E-09  9.696225E-11
       200  19 -3.542592E+05  2.642658E+04  1.850862E+04  5.316296E+04  6.831995E+03  8.477598E+03
       200  20 -4.068511E+05  1.414260E+04  9.765838E+03  4.716425E+04  6.699903E+03  4.467477E+03
       200  21 -4.594955E+05  1.891249E+03  9.319733E+02  5.300978E+04  6.567983E+03  4.633310E+02
       200  22 -4.667238E+05  1.755935E+02 -2.282301E+02  5.302510E+04 -2.907152E+00  8.466634E+03
       200  23 -4.666964E+05  1.625468E+02 -2.590359E+02  4.710294E+04 -1.245846E+02  4.456387E+03
       200  24 -4.667217E+05  1.842322E+02 -3.735705E+02  5.302509E+04 -2.461010E+02  4.521128E+02
       200  25 -5.791759E+05 -2.607602E+04 -1.896529E+04  5.288726E+04 -6.836612E+03  8.455672E+03
       200  26 -5.265381E+05 -1.381767E+04 -1.028385E+04  4.704164E+04 -6.948436E+03  4.445298E+03
       200  27 -4.739478E+05 -1.522763E+03 -1.678942E+03  5.304040E+04 -7.060108E+03  4.408943E+02
       201   1 -4.937260E+05 -6.147857E+03 -5.136928E+03  5.295373E+04 -6.503883E+03  1.870068E+03
       201   2 -5.462791E+05 -1.844178E+04 -1.421212E+04  4.695488E+04 -5.980845E+03  5.836310E+03
       201   3 -5.989502E+05 -3.076511E+04 -2.364841E+04  5.279450E+04 -5.457503E+03  9.720626E+03
       201   4 -4.667316E+05  1.873657E+02 -4.711259E+02  5.302375E+04  3.185928E+02  1.881285E+03
       201   5 -4.666848E+05  1.716706E+02 -7.873959E+02  4.710460E+04  7.018981E+02  5.847108E+03
       201   6 -4.667345E+05  1.509524E+02 -1.367726E+03  5.302382E+04  1.085551E+03  9.731013E+03
       201   7 -4.397363E+05  6.522575E+03  4.194827E+03  5.309377E+04  7.141356E+03  1.892505E+03
       201   8 -3.870842E+05  1.878481E+04  1.263730E+04  4.725433E+04  7.385471E+03  5.857909E+03
       201   9 -3.345014E+05  3.106612E+04  2.091257E+04  5.325318E+04  7.629953E+03  9.741404E+03
       201  10 -4.937260E+05 -6.147873E+03 -5.137015E+03  5.295374E+04  2.790625E-09  1.272528E-09
       201  11 -5.462792E+05 -1.844183E+04 -1.421225E+04  4.695491E+04 -1.308092E-10 -8.301875E-10
       201  12 -5.989503E+05 -3.076522E+04 -2.364865E+04  5.279454E+04 -1.365942E-09  7.028061E-10
       201  13 -4.667316E+05  1.873618E+02 -4.711328E+02  5.302375E+04  2.174724E-09 -6.558372E-10
       201  14 -4.666848E+05  1.716338E+02 -7.874611E+02  4.710459E+04  2.516974E-10 -1.676560E-09
       201  15 -4.667345E+05  1.508504E+02 -1.367906E+03  5.302381E+04  4.552892E-09  1.920564E-10
       201  16 -4.397364E+05  6.522557E+03  4.194724E+03  5.309376E+04  8.463163E-12  1.610113E-09
       201  17 -3.870842E+05  1.878476E+04  1.263713E+04  4.725430E+04  2.919020E-09 -6.501866E-09
       201  18 -3.345015E+05  3.106600E+04  2.091228E+04  5.325312E+04  1.528609E-09 -2.874004E-09
       201  19 -4.937260E+05 -6.147857E+03 -5.136928E+03  5.295373E+04  6.503883E+03 -1.870068E+03
       201  20 -5.462791E+05 -1.844178E+04 -1.421212E+04  4.695488E+04  5.980845E+03 -5.836310E+03
       201  21 -5.989502E+05 -3.076511E+04 -2.364841E+04  5.279450E+04  5.457503E+03 -9.720626E+03
       201  22 -4.667316E+05  1.873657E+02 -4.711259E+02  5.302375E+04 -3.185928E+02 -1.881285E+03
       201  23 -4.666848E+05  1.716706E+02 -7.873959E+02  4.710460E+04 -7.018981E+02 -5.847108E+03
       201  24 -4.667345E+05  1.509524E+02 -1.367726E+03  5.302382E+04 -1.085551E+03 -9.731013E+03
       201  25 -4.397363E+05  6.522575E+03  4.194827E+03  5.309377E+04 -7.141356E+03 -1.892505E+03
       201  26 -3.870842E+05  1.878481E+04  1.263730E+04  4.725433E+04 -7.385471E+03 -5.857909E+03
       201  27 -3.345014E+05  3.106612E+04  2.091257E+04  5.325318E+04 -7.629953E+03 -9.741404E+03
       202   1 -6.332723E+05 -3.880200E+04 -3.010828E+04  5.261882E+04 -5.280418E+03  1.200827E+04
       202   2 -6.855066E+05 -5.138057E+04 -4.075789E+04  4.701168E+04 -2.179800E+03  1.546165E+04
       202   3 -7.384365E+05 -6.498440E+04 -5.369481E+04  5.317850E+04  9.223358E+02  1.801418E+04
       202   4 -4.668111E+05  1.745883E+02 -1.797461E+03  5.300917E+04  1.358088E+03  1.201861E+04
       202   5 -4.665990E+05 -4.868128E+01 -3.151065E+03  4.712324E+04  2.925278E+03  1.546910E+04
       202   6 -4.668194E+05 -1.030640E+03 -5.726189E+03  5.301106E+04  4.494262E+03  1.801892E+04
       202   7 -3.003226E+05  3.914973E+04  2.651262E+04  5.339961E+04  7.998319E+03  1.202895E+04
       202   8 -2.476443E+05  5.128066E+04  3.445424E+04  4.723483E+04  8.032102E+03  1.547656E+04
       202   9 -1.951300E+05  6.291908E+04  4.223977E+04  5.284350E+04  8.067706E+03  1.802365E+04
       202  10 -6.332724E+05 -3.880216E+04 -3.010861E+04  5.261887E+04  2.558164E-08  4.032190E-09
       202  11 -6.855066E+05 -5.138083E+04 -4.075835E+04  4.701170E+04  1.670044E-09  8.885847E-10
       202  12 -7.384366E+05 -6.498475E+04 -5.369542E+04  5.317849E+04 -2.180788E-08  7.500448E-10
       202  13 -4.668112E+05  1.744327E+02 -1.797736E+03  5.300915E+04  2.159242E-09  2.220044E-09
       202  14 -4.665991E+05 -4.894048E+01 -3.151530E+03  4.712320E+04  4.603768E-09  3.347297E-09
       202  15 -4.668195E+05 -1.030994E+03 -5.726837E+03  5.301099E+04  4.033446E-09 -8.140068E-10
       202  16 -3.003227E+05  3.914956E+04  2.651223E+04  5.339953E+04 -2.690132E-08  4.648077E-10
       202  17 -2.476445E+05  5.128038E+04  3.445367E+04  4.723473E+04 -6.510927E-10  1.107208E-09
       202  18 -1.951302E+05  6.291872E+04  4.223903E+04  5.284338E+04  2.405359E-08 -3.224438E-09
       202  19 -6.332723E+05 -3.880200E+04 -3.010828E+04  5.261882E+04  5.280418E+03 -1.200827E+04
       202  20 -6.855066E+05 -5.138057E+04 -4.075789E+04  4.701168E+04  2.179800E+03 -1.546165E+04
       202  21 -7.384365E+05 -6.498440E+04 -5.369481E+04  5.317850E+04 -9.223358E+02 -1.801418E+04
       202  22 -4.668111E+05  1.745883E+02 -1.797461E+03  5.300917E+04 -1.358088E+03 -1.201861E+04
       202  23 -4.665990E+05 -4.868128E+01 -3.151065E+03  4.712324E+04 -2.925278E+03 -1.546910E+04
       202  24 -4.668194E+05 -1.030640E+03 -5.726189E+03  5.301106E+04 -4.494262E+03 -1.801892E+04
       202  25 -3.003226E+05  3.914973E+04  2.651262E+04  5.339961E+04 -7.998319E+03 -1.202895E+04
       202  26 -2.476443E+05  5.128066E+04  3.445424E+04  4.723483E+04 -8.032102E+03 -1.547656E+04
       202  27 -1.951300E+05  6.291908E+04  4.223977E+04  5.284350E+04 -8.067706E+03 -1.802365E+04
       203   1 -7.740345E+05 -7.294327E+04 -6.218887E+04  5.111508E+04  8.330311E+02  1.979870E+04
       203   2 -8.228696E+05 -9.112536E+04 -8.363120E+04  5.418859E+04  2.479405E+04  1.759543E+04
       203   3 -8.792733E+05 -1.269928E+05 -1.251106E+05  6.838315E+04  4.876523E+04  5.469064E+03
       203   4 -4.677559E+05 -7.054326E+02 -7.525626E+03  5.286146E+04  5.470320E+03  1.980475E+04
       203   5 -4.654489E+05 -5.624704E+03 -1.369512E+04  4.731821E+04  1.254306E+04  1.757690E+04
       203   6 -4.677737E+05 -2.528933E+04 -2.816075E+04  5.289646E+04  1.962815E+04  5.427885E+03
       203   7 -1.613857E+05  7.152722E+04  4.713415E+04  5.460869E+04  1.010983E+04  1.981084E+04
       203   8 -1.079052E+05  7.986853E+04  5.623542E+04  4.044374E+04  2.851546E+02  1.755864E+04
       203   9 -5.611582E+04  7.640342E+04  6.878073E+04  3.739938E+04 -9.528156E+03  5.388176E+03
       203  10 -7.740346E+05 -7.294369E+04 -6.218961E+04  5.111506E+04 -6.683970E-09  1.284600E-09
       203  11 -8.228704E+05 -9.112586E+04 -8.363294E+04  5.418824E+04 -1.545450E-09 -1.312358E-09
       203  12 -8.792758E+05 -1.269935E+05 -1.251151E+05  6.838294E+04  7.733637E-10 -2.069389E-10
       203  13 -4.677561E+05 -7.058617E+02 -7.526419E+03  5.286137E+04 -3.421379E-10  1.687526E-09
       203  14 -4.654492E+05 -5.625078E+03 -1.369599E+04  4.731803E+04 -3.805639E-10 -4.086171E-09
       203  15 -4.677741E+05 -2.528946E+04 -2.816153E+04  5.289638E+04  2.522936E-09  2.110816E-09
       203  16 -1.613860E+05  7.152678E+04  4.713322E+04  5.460852E+04  7.372223E-09 -5.846731E-10
       203  17 -1.079053E+05  7.986820E+04  5.623484E+04  4.044373E+04 -1.025640E-09 -1.086503E-09
       203  18 -5.611592E+04  7.640336E+04  6.878050E+04  3.739942E+04 -2.890596E-09  1.264107E-10
       203  19 -7.740345E+05 -7.294327E+04 -6.218887E+04  5.111508E+04 -8.330311E+02 -1.979870E+04
       203  20 -8.228696E+05 -9.112536E+04 -8.363120E+04  5.418859E+04 -2.479405E+04 -1.759543E+04
       203  21 -8.792733E+05 -1.269928E+05 -1.251106E+05  6.838315E+04 -4.876523E+04 -5.469064E+03
       203  22 -4.677559E+05 -7.054326E+02 -7.525626E+03  5.286146E+04 -5.470320E+03 -1.980475E+04
       203  23 -4.654489E+05 -5.624704E+03 -1.369512E+04  4.731821E+04 -1.254306E+04 -1.757690E+04
       203  24 -4.677737E+05 -2.528933E+04 -2.816075E+04  5.289646E+04 -1.962815E+04 -5.427885E+03
       203  25 -1.613857E+05  7.152722E+04  4.713415E+04  5.460869E+04 -1.010983E+04 -1.981084E+04
       203  26 -1.079052E+05  7.986853E+04  5.623542E+04  4.044374E+04 -2.851546E+02 -1.755864E+04
       203  27 -5.611582E+04  7.640342E+04  6.878073E+04  3.739938E+04  9.528156E+03 -5.388176E+03
       204   1 -7.708290E+04  8.068260E+04  6.983699E+04  4.809920E+03 -1.326547E+04 -6.441008E+03
       204   2 -1.097301E+05  1.083763E+05  7.729378E+04  9.843125E+03 -1.372778E+04 -2.037439E+04
       204   3 -1.509621E+05  1.014143E+05  7.640500E+04  2.919990E+04 -1.420659E+04 -2.168938E+04
       204   4 -5.592822E+05 -3.906458E+04 -4.682696E+04  2.319103E+04 -3.219302E+04 -6.467072E+03
       204   5 -5.539500E+05 -2.135514E+02 -2.139299E+04  1.599908E+04 -2.085183E+04 -2.038611E+04
       204   6 -5.592616E+05  1.917707E+03 -1.251136E+04  2.313167E+04 -9.526927E+03 -2.168269E+04
       204   7 -1.041267E+06 -1.588273E+05 -1.635061E+05  4.155775E+04 -5.110591E+04 -6.494268E+03
       204   8 -9.979855E+05 -1.088165E+05 -1.200918E+05  2.215050E+04 -2.797084E+04 -2.039798E+04
       204   9 -9.674046E+05 -9.758985E+04 -1.014376E+05  1.706741E+04 -4.850305E+03 -2.167609E+04
       204  10 -7.708310E+04  8.068251E+04  6.983659E+04  4.809851E+03 -5.267911E-09 -1.719698E-10
       204  11 -1.097304E+05  1.083758E+05  7.729265E+04  9.842900E+03  2.808266E-10  3.513729E-09
       204  12 -1.509625E+05  1.014138E+05  7.640374E+04  2.919965E+04  4.263829E-09  1.407873E-09
       204  13 -5.592833E+05 -3.906490E+04 -4.682898E+04  2.319087E+04  2.546936E-09 -3.391835E-09
       204  14 -5.539506E+05 -2.141144E+02 -2.139459E+04  1.599873E+04  4.611401E-09 -4.407132E-09
       204  15 -5.592618E+05  1.917178E+03 -1.251242E+04  2.313150E+04 -1.513351E-09  1.095515E-09
       204  16 -1.041270E+06 -1.588281E+05 -1.635111E+05  4.155748E+04  6.464841E-09  5.723174E-10
       204  17 -9.979864E+05 -1.088172E+05 -1.200941E+05  2.215005E+04 -4.392605E-09  4.400594E-09
       204  18 -9.674048E+05 -9.759036E+04 -1.014386E+05  1.706733E+04 -3.824311E-09 -6.494381E-10
       204  19 -7.708290E+04  8.068260E+04  6.983699E+04  4.809920E+03  1.326547E+04  6.441008E+03
       204  20 -1.097301E+05  1.083763E+05  7.729378E+04  9.843125E+03  1.372778E+04  2.037439E+04
       204  21 -1.509621E+05  1.014143E+05  7.640500E+04  2.919990E+04  1.420659E+04  2.168938E+04
       204  22 -5.592822E+05 -3.906458E+04 -4.682696E+04  2.319103E+04  3.219302E+04  6.467072E+03
       204  23 -5.539500E+05 -2.135514E+02 -2.139299E+04  1.599908E+04  2.085183E+04  2.038611E+04
       204  24 -5.592616E+05  1.917707E+03 -1.251136E+04  2.313167E+04  9.526927E+03  2.168269E+04
       204  25 -1.041267E+06 -1.588273E+05 -1.635061E+05  4.155775E+04  5.110591E+04  6.494268E+03
       204  26 -9.979855E+05 -1.088165E+05 -1.200918E+05  2.215050E+04  2.797084E+04  2.039798E+04
       204  27 -9.674046E+05 -9.758985E+04 -1.014376E+05  1.706741E+04  4.850305E+03  2.167609E+04
       205   1 -1.788418E+05  9.022130E+04  7.286133E+04  2.305971E+04 -8.823792E+03 -1.938835E+04
       205   2 -2.155623E+05  8.320572E+04  6.897117E+04  1.610348E+04 -6.655697E+03 -1.797045E+04
       205   3 -2.530663E+05  7.428942E+04  6.318836E+04  2.412688E+04 -4.489570E+03 -1.597950E+04
       205   4 -5.570883E+05 -2.014613E+03 -9.932149E+03  2.329477E+04 -7.765267E+03 -1.938743E+04
       205   5 -5.566444E+05  8.796203E+01 -5.391908E+03  1.580270E+04 -5.062418E+03 -1.796830E+04
       205   6 -5.570794E+05  1.961611E+02 -3.116910E+03  2.329080E+04 -2.361418E+03 -1.597598E+04
       205   7 -9.352007E+05 -9.426008E+04 -9.273430E+04  2.352963E+04 -6.707378E+03 -1.938650E+04
       205   8 -8.976174E+05 -8.303753E+04 -7.976198E+04  1.550203E+04 -3.470003E+03 -1.796615E+04
       205   9 -8.610059E+05 -7.390324E+04 -6.942773E+04  2.245509E+04 -2.342950E+02 -1.597246E+04
       205  10 -1.788420E+05  9.022088E+04  7.286048E+04  2.305957E+04  2.049277E-08 -1.192995E-09
       205  11 -2.155625E+05  8.320536E+04  6.897048E+04  1.610338E+04  7.641784E-09  4.880612E-09
       205  12 -2.530664E+05  7.428914E+04  6.318785E+04  2.412683E+04 -2.054619E-08  4.412569E-09
       205  13 -5.570884E+05 -2.015032E+03 -9.932968E+03  2.329465E+04  6.062631E-09  5.989238E-09
       205  14 -5.566445E+05  8.760854E+01 -5.392563E+03  1.580262E+04  6.389706E-10 -8.168550E-09
       205  15 -5.570795E+05  1.958856E+02 -3.117400E+03  2.329077E+04 -2.438500E-09  5.165957E-09
       205  16 -9.352008E+05 -9.426050E+04 -9.273509E+04  2.352953E+04 -1.305961E-08 -3.294712E-09
       205  17 -8.976175E+05 -8.303788E+04 -7.976261E+04  1.550198E+04 -3.919175E-09 -1.667052E-09
       205  18 -8.610060E+05 -7.390352E+04 -6.942821E+04  2.245509E+04  1.624736E-08  1.366169E-09
       205  19 -1.788418E+05  9.022130E+04  7.286133E+04  2.305971E+04  8.823792E+03  1.938835E+04
       205  20 -2.155623E+05  8.320572E+04  6.897117E+04  1.610348E+04  6.655697E+03  1.797045E+04
       205  21 -2.530663E+05  7.428942E+04  6.318836E+04  2.412688E+04  4.489570E+03  1.597950E+04
       205  22 -5.570883E+05 -2.014613E+03 -9.932149E+03  2.329477E+04  7.765267E+03  1.938743E+04
       205  23 -5.566444E+05  8.796203E+01 -5.391908E+03  1.580270E+04  5.062418E+03  1.796830E+04
       205  24 -5.570794E+05  1.961611E+02 -3.116910E+03  2.329080E+04  2.361418E+03  1.597598E+04
       205  25 -9.352007E+05 -9.426008E+04 -9.273430E+04  2.352963E+04  6.707378E+03  1.938650E+04
       205  26 -8.976174E+05 -8.303753E+04 -7.976198E+04  1.550203E+04  3.470003E+03  1.796615E+04
       205  27 -8.610059E+05 -7.390324E+04 -6.942773E+04  2.245509E+04  2.342950E+02  1.597246E+04
       206   1 -2.829079E+05  6.673513E+04  5.719489E+04  2.376737E+04 -3.847255E+03 -1.468153E+04
       206   2 -3.201714E+05  5.773979E+04  5.015804E+04  1.617145E+04 -3.191830E+03 -1.256175E+04
       206   3 -3.575898E+05  4.869489E+04  4.266822E+04  2.368014E+04 -2.537125E+03 -1.041260E+04
       206   4 -5.569159E+05 -1.112198E+01 -2.397001E+03  2.331970E+04 -1.878229E+03 -1.467811E+04
       206   5 -5.568330E+05  7.495536E+01 -1.385296E+03  1.576710E+04 -1.195629E+03 -1.255801E+04
       206   6 -5.569105E+05  1.069383E+02 -8.454277E+02  2.331946E+04 -5.137111E+02 -1.040853E+04
       206   7 -8.308536E+05 -6.676236E+04 -6.199337E+04  2.287218E+04  8.993853E+01 -1.467469E+04
       206   8 -7.934421E+05 -5.759360E+04 -5.293198E+04  1.536287E+04  7.998198E+02 -1.255428E+04
       206   9 -7.561939E+05 -4.848366E+04 -4.436146E+04  2.295887E+04  1.509061E+03 -1.040446E+04
       206  10 -2.829079E+05  6.673490E+04  5.719445E+04  2.376733E+04 -1.809783E-08 -5.323244E-09
       206  11 -3.201715E+05  5.773961E+04  5.015773E+04  1.617142E+04 -2.249755E-09 -6.269376E-09
       206  12 -3.575898E+05  4.869478E+04  4.266800E+04  2.368012E+04  1.519059E-08 -8.352210E-10
       206  13 -5.569160E+05 -1.135422E+01 -2.397413E+03  2.331967E+04 -2.144714E-09 -1.235638E-09
       206  14 -5.568331E+05  7.478568E+01 -1.385595E+03  1.576708E+04  3.950874E-09 -4.038542E-09
       206  15 -5.569105E+05  1.068219E+02 -8.456317E+02  2.331945E+04 -1.800826E-10 -1.897947E-09
       206  16 -8.308536E+05 -6.676259E+04 -6.199378E+04  2.287218E+04  1.631327E-08 -3.134844E-09
       206  17 -7.934421E+05 -5.759377E+04 -5.293228E+04  1.536288E+04  1.989118E-09  1.469344E-09
       206  18 -7.561939E+05 -4.848378E+04 -4.436166E+04  2.295888E+04 -1.213877E-08  7.173695E-09
       206  19 -2.829079E+05  6.673513E+04  5.719489E+04  2.376737E+04  3.847255E+03  1.468153E+04
       206  20 -3.201714E+05  5.773979E+04  5.015804E+04  1.617145E+04  3.191830E+03  1.256175E+04
       206  21 -3.575898E+05  4.869489E+04  4.266822E+04  2.368014E+04  2.537125E+03  1.041260E+04
       206  22 -5.569159E+05 -1.112198E+01 -2.397001E+03  2.331970E+04  1.878229E+03  1.467811E+04
       206  23 -5.568330E+05  7.495536E+01 -1.385296E+03  1.576710E+04  1.195629E+03  1.255801E+04
       206  24 -5.569105E+05  1.069383E+02 -8.454277E+02  2.331946E+04  5.137111E+02  1.040853E+04
       206  25 -8.308536E+05 -6.676236E+04 -6.199337E+04  2.287218E+04 -8.993853E+01  1.467469E+04
       206  26 -7.934421E+05 -5.759360E+04 -5.293198E+04  1.536287E+04 -7.998198E+02  1.255428E+04
       206  27 -7.561939E+05 -4.848366E+04 -4.436146E+04  2.295887E+04 -1.509061E+03  1.040446E+04
       207   1 -3.877206E+05  4.129950E+04  3.605492E+04  2.362711E+04 -2.396922E+03 -9.154073E+03
       207   2 -4.251655E+05  3.216249E+04  2.816837E+04  1.597442E+04 -2.152205E+03 -6.994254E+03
       207   3 -4.627033E+05  2.308338E+04  2.011869E+04  2.348746E+04 -1.907865E+03 -4.831192E+03
       207   4 -5.568934E+05  9.838647E+01 -6.854827E+02  2.333308E+04 -3.782434E+02 -9.149880E+03
       207   5 -5.568445E+05  7.601117E+01 -5.102488E+02  1.575010E+04 -1.306032E+02 -6.989905E+03
       207   6 -5.568905E+05  1.111022E+02 -5.001638E+02  2.333305E+04  1.166741E+02 -4.826681E+03
       207   7 -7.260394E+05 -4.110462E+04 -3.742758E+04  2.303911E+04  1.639892E+03 -9.145688E+03
       207   8 -6.885073E+05 -3.201162E+04 -2.918989E+04  1.552583E+04  1.890575E+03 -6.985556E+03
       207   9 -6.510693E+05 -2.286176E+04 -2.111954E+04  2.317867E+04  2.140909E+03 -4.822171E+03
       207  10 -3.877206E+05  4.129941E+04  3.605475E+04  2.362709E+04  4.452573E-09 -4.271218E-09
       207  11 -4.251655E+05  3.216244E+04  2.816827E+04  1.597440E+04  2.759869E-09  1.054569E-09
       207  12 -4.627034E+05  2.308335E+04  2.011864E+04  2.348745E+04 -3.469683E-09  7.777105E-10
       207  13 -5.568934E+05  9.829656E+01 -6.856403E+02  2.333307E+04  2.775200E-12  2.671095E-09
       207  14 -5.568445E+05  7.595871E+01 -5.103406E+02  1.575010E+04  5.298241E-09 -5.335841E-09
       207  15 -5.568905E+05  1.110772E+02 -5.002076E+02  2.333306E+04  2.259590E-09 -2.513027E-09
       207  16 -7.260394E+05 -4.110472E+04 -3.742774E+04  2.303913E+04 -6.197964E-09  3.503338E-09
       207  17 -6.885073E+05 -3.201167E+04 -2.918999E+04  1.552584E+04 -6.154799E-09  6.095799E-09
       207  18 -6.510693E+05 -2.286179E+04 -2.111959E+04  2.317868E+04  2.921824E-09  1.482191E-09
       207  19 -3.877206E+05  4.129950E+04  3.605492E+04  2.362711E+04  2.396922E+03  9.154073E+03
       207  20 -4.251655E+05  3.216249E+04  2.816837E+04  1.597442E+04  2.152205E+03  6.994254E+03
       207  21 -4.627033E+05  2.308338E+04  2.011869E+04  2.348746E+04  1.907865E+03  4.831192E+03
       207  22 -5.568934E+05  9.838647E+01 -6.854827E+02  2.333308E+04  3.782434E+02  9.149880E+03
       207  23 -5.568445E+05  7.601117E+01 -5.102488E+02  1.575010E+04  1.306032E+02  6.989905E+03
       207  24 -5.568905E+05  1.111022E+02 -5.001638E+02  2.333305E+04 -1.166741E+02  4.826681E+03
       207  25 -7.260394E+05 -4.110462E+04 -3.742758E+04  2.303911E+04 -1.639892E+03  9.145688E+03
       207  26 -6.885073E+05 -3.201162E+04 -2.918989E+04  1.552583E+04 -1.890575E+03  6.985556E+03
       207  27 -6.510693E+05 -2.286176E+04 -2.111954E+04  2.317867E+04 -2.140909E+03  4.822171E+03
       208   1 -4.929403E+05  1.567518E+04  1.327134E+04  2.343720E+04 -1.816250E+03 -3.570978E+03
       208   2 -5.304340E+05  6.519127E+03  4.955080E+03  1.575920E+04 -1.427940E+03 -1.404883E+03
       208   3 -5.680488E+05 -2.585882E+03 -3.621500E+03  2.327320E+04 -1.039730E+03  7.609282E+02
       208   4 -5.568956E+05  1.114331E+02 -5.533781E+02  2.333886E+04  2.092889E+02 -3.566408E+03
       208   5 -5.568339E+05  8.598906E+01 -7.947952E+02  1.574284E+04  5.972478E+02 -1.400286E+03
       208   6 -5.568952E+05  1.115899E+02 -1.296392E+03  2.333886E+04  9.851297E+02  7.655578E+02
       208   7 -6.208471E+05 -1.545258E+04 -1.437833E+04  2.324052E+04  2.234622E+03 -3.561839E+03
       208   8 -5.832332E+05 -6.347193E+03 -6.544697E+03  1.572648E+04  2.622350E+03 -1.395689E+03
       208   9 -5.457414E+05  2.809056E+03  1.028723E+03  2.340452E+04  3.010025E+03  7.701877E+02
       208  10 -4.929403E+05  1.567516E+04  1.327131E+04  2.343720E+04  6.512473E-10  1.942654E-09
       208  11 -5.304340E+05  6.519125E+03  4.955073E+03  1.575919E+04  2.709573E-09 -3.043970E-09
       208  12 -5.680488E+05 -2.585883E+03 -3.621503E+03  2.327320E+04 -2.541979E-09 -2.801313E-09
       208  13 -5.568956E+05  1.114194E+02 -5.534021E+02  2.333886E+04  3.899696E-09  5.708532E-09
       208  14 -5.568339E+05  8.598686E+01 -7.947995E+02  1.574284E+04  4.911945E-09 -1.028514E-09
       208  15 -5.568952E+05  1.115890E+02 -1.296395E+03  2.333886E+04  4.816837E-09 -1.945417E-09
       208  16 -6.208472E+05 -1.545260E+04 -1.437836E+04  2.324053E+04  2.308590E-09  2.917506E-10
       208  17 -5.832332E+05 -6.347197E+03 -6.544714E+03  1.572648E+04  4.724686E-10 -6.794533E-09
       208  18 -5.457414E+05  2.809053E+03  1.028705E+03  2.340452E+04  1.006302E-08 -2.980394E-09
       208  19 -4.929403E+05  1.567518E+04  1.327134E+04  2.343720E+04  1.816250E+03  3.570978E+03
       208  20 -5.304340E+05  6.519127E+03  4.955080E+03  1.575920E+04  1.427940E+03  1.404883E+03
       208  21 -5.680488E+05 -2.585882E+03 -3.621500E+03  2.327320E+04  1.039730E+03 -7.609282E+02
       208  22 -5.568956E+05  1.114331E+02 -5.533781E+02  2.333886E+04 -2.092889E+02  3.566408E+03
       208  23 -5.568339E+05  8.598906E+01 -7.947952E+02  1.574284E+04 -5.972478E+02  1.400286E+03
       208  24 -5.568952E+05  1.115899E+02 -1.296392E+03  2.333886E+04 -9.851297E+02 -7.655578E+02
       208  25 -6.208471E+05 -1.545258E+04 -1.437833E+04  2.324052E+04 -2.234622E+03  3.561839E+03
       208  26 -5.832332E+05 -6.347193E+03 -6.544697E+03  1.572648E+04 -2.622350E+03  1.395689E+03
       208  27 -5.457414E+05  2.809056E+03  1.028723E+03  2.340452E+04 -3.010025E+03 -7.701877E+02
       209   1 -5.983390E+05 -9.979533E+03 -1.080448E+04  2.317336E+04 -7.786647E+02  2.023653E+03
       209   2 -6.357113E+05 -1.912301E+04 -2.008118E+04  1.552167E+04  6.641416E+02  4.187332E+03
       209   3 -6.734002E+05 -2.845378E+04 -3.036454E+04  2.305224E+04  2.107135E+03  6.332200E+03
       209   4 -5.569380E+05  1.313071E+02 -1.681602E+03  2.333650E+04  1.250818E+03  2.028275E+03
       209   5 -5.567821E+05  1.132971E+02 -2.886126E+03  1.574569E+04  2.676159E+03  4.191820E+03
       209   6 -5.569403E+05 -8.869649E+01 -5.084851E+03  2.333701E+04  4.101773E+03  6.336561E+03
       209   7 -5.155354E+05  1.024203E+04  7.441183E+03  2.349964E+04  3.280434E+03  2.032897E+03
       209   8 -4.778470E+05  1.934919E+04  1.430856E+04  1.596972E+04  4.688429E+03  4.196310E+03
       209   9 -4.404677E+05  2.827549E+04  2.019405E+04  2.362182E+04  6.096780E+03  6.340923E+03
       209  10 -5.983390E+05 -9.979538E+03 -1.080448E+04  2.317336E+04 -2.283686E-08 -1.343585E-10
       209  11 -6.357113E+05 -1.912303E+04 -2.008121E+04  1.552167E+04 -6.488913E-10 -6.345534E-09
       209  12 -6.734002E+05 -2.845382E+04 -3.036463E+04  2.305223E+04  1.942065E-08 -3.310579E-09
       209  13 -5.569380E+05  1.313023E+02 -1.681612E+03  2.333650E+04  2.149991E-09 -8.558504E-11
       209  14 -5.567821E+05  1.132763E+02 -2.886172E+03  1.574568E+04  1.646164E-09  1.554037E-09
       209  15 -5.569404E+05 -8.874412E+01 -5.084958E+03  2.333698E+04 -2.574098E-09 -2.296032E-09
       209  16 -5.155354E+05  1.024203E+04  7.441155E+03  2.349964E+04  2.625503E-08  5.289792E-09
       209  17 -4.778470E+05  1.934917E+04  1.430849E+04  1.596971E+04 -1.297054E-09 -3.232490E-09
       209  18 -4.404678E+05  2.827544E+04  2.019390E+04  2.362179E+04 -2.263492E-08  3.486547E-09
       209  19 -5.983390E+05 -9.979533E+03 -1.080448E+04  2.317336E+04  7.786647E+02 -2.023653E+03
       209  20 -6.357113E+05 -1.912301E+04 -2.008118E+04  1.552167E+04 -6.641416E+02 -4.187332E+03
       209  21 -6.734002E+05 -2.845378E+04 -3.036454E+04  2.305224E+04 -2.107135E+03 -6.332200E+03
       209  22 -5.569380E+05  1.313071E+02 -1.681602E+03  2.333650E+04 -1.250818E+03 -2.028275E+03
       209  23 -5.567821E+05  1.132971E+02 -2.886126E+03  1.574569E+04 -2.676159E+03 -4.191820E+03
       209  24 -5.569403E+05 -8.869649E+01 -5.084851E+03  2.333701E+04 -4.101773E+03 -6.336561E+03
       209  25 -5.155354E+05  1.024203E+04  7.441183E+03  2.349964E+04 -3.280434E+03 -2.032897E+03
       209  26 -4.778470E+05  1.934919E+04  1.430856E+04  1.596972E+04 -4.688429E+03 -4.196310E+03
       209  27 -4.404677E+05  2.827549E+04  2.019405E+04  2.362182E+04 -6.096780E+03 -6.340923E+03
       210   1 -7.039519E+05 -3.540970E+04 -3.868634E+04  2.223127E+04  3.026095E+03  7.625242E+03
       210   2 -7.403982E+05 -4.469053E+04 -5.166029E+04  1.581125E+04  9.160533E+03  9.691935E+03
       210   3 -7.788109E+05 -5.836598E+04 -6.974663E+04  2.451819E+04  1.529585E+04  1.136541E+04
       210   4 -5.572951E+05  3.574591E+02 -6.637341E+03  2.332178E+04  5.131007E+03  7.629756E+03
       210   5 -5.563470E+05  1.762393E+02 -1.150760E+04  1.576341E+04  1.089924E+04  9.695438E+03
       210   6 -5.573020E+05 -4.334999E+03 -2.123448E+04  2.333179E+04  1.666871E+04  1.136794E+04
       210   7 -4.106181E+05  3.612319E+04  2.541038E+04  2.441255E+04  7.236410E+03  7.634277E+03
       210   8 -3.722639E+05  4.504076E+04  2.864306E+04  1.571554E+04  1.263845E+04  9.698940E+03
       210   9 -3.357471E+05  4.969271E+04  2.727470E+04  2.214494E+04  1.804205E+04  1.137046E+04
       210  10 -7.039519E+05 -3.540977E+04 -3.868647E+04  2.223125E+04 -8.534581E-09 -1.888275E-09
       210  11 -7.403983E+05 -4.469066E+04 -5.166063E+04  1.581117E+04  4.579778E-09  3.793691E-09
       210  12 -7.788112E+05 -5.836618E+04 -6.974731E+04  2.451805E+04  2.057501E-08 -2.783483E-10
       210  13 -5.572952E+05  3.573895E+02 -6.637500E+03  2.332175E+04 -3.918842E-09 -7.005905E-09
       210  14 -5.563471E+05  1.761065E+02 -1.150800E+04  1.576332E+04 -5.451388E-09  1.753143E-09
       210  15 -5.573023E+05 -4.335212E+03 -2.123525E+04  2.333164E+04  6.563697E-10 -8.247315E-10
       210  16 -4.106182E+05  3.612311E+04  2.541017E+04  2.441251E+04  6.510114E-09 -6.289868E-09
       210  17 -3.722641E+05  4.504061E+04  2.864259E+04  1.571544E+04 -7.142276E-09 -1.106711E-08
       210  18 -3.357474E+05  4.969249E+04  2.727384E+04  2.214477E+04 -2.016732E-08  7.576737E-10
       210  19 -7.039519E+05 -3.540970E+04 -3.868634E+04  2.223127E+04 -3.026095E+03 -7.625242E+03
       210  20 -7.403982E+05 -4.469053E+04 -5.166029E+04  1.581125E+04 -9.160533E+03 -9.691935E+03
       210  21 -7.788109E+05 -5.836598E+04 -6.974663E+04  2.451819E+04 -1.529585E+04 -1.136541E+04
       210  22 -5.572951E+05  3.574591E+02 -6.637341E+03  2.332178E+04 -5.131007E+03 -7.629756E+03
       210  23 -5.563470E+05  1.762393E+02 -1.150760E+04  1.576341E+04 -1.089924E+04 -9.695438E+03
       210  24 -5.573020E+05 -4.334999E+03 -2.123448E+04  2.333179E+04 -1.666871E+04 -1.136794E+04
       210  25 -4.106181E+05  3.612319E+04  2.541038E+04  2.441255E+04 -7.236410E+03 -7.634277E+03
       210  26 -3.722639E+05  4.504076E+04  2.864306E+04  1.571554E+04 -1.263845E+04 -9.698940E+03
       210  27 -3.357471E+05  4.969271E+04  2.727470E+04  2.214494E+04 -1.804205E+04 -1.137046E+04
       211   1 -8.136912E+05 -5.733509E+04 -8.164067E+04  1.090446E+04  1.657832E+04  1.334429E+04
       211   2 -8.389734E+05 -7.092808E+04 -1.099101E+05  2.970482E+04  4.889173E+04  1.319500E+04
       211   3 -8.885365E+05 -1.645963E+05 -1.792629E+05  6.326410E+04  8.121820E+04  4.369852E+03
       211   4 -5.619589E+05  4.086159E+03 -2.675636E+04  2.320214E+04  2.043995E+04  1.335209E+04
       211   5 -5.505419E+05 -4.277482E+02 -4.573983E+04  1.590558E+04  4.464880E+04  1.318521E+04
       211   6 -5.619886E+05 -8.359089E+04 -1.001630E+05  2.337015E+04  6.887323E+04  4.341549E+03
       211   7 -3.101668E+05  6.550375E+04  2.812428E+04  3.550485E+04  2.430312E+04  1.336004E+04
       211   8 -2.620322E+05  7.006769E+04  1.842542E+04  2.099818E+03  4.040392E+04  1.317560E+04
       211   9 -2.353394E+05 -2.587130E+03 -2.106926E+04 -1.654491E+04  5.652177E+04  4.314844E+03
       211  10 -8.136915E+05 -5.733535E+04 -8.164152E+04  1.090428E+04  2.623431E-08  2.994920E-10
       211  11 -8.389761E+05 -7.092891E+04 -1.099149E+05  2.970430E+04  1.221372E-08 -8.899537E-10
       211  12 -8.885436E+05 -1.645981E+05 -1.792754E+05  6.326381E+04 -7.231706E-09  4.061221E-09
       211  13 -5.619594E+05  4.085855E+03 -2.675748E+04  2.320192E+04 -3.701577E-13  2.414224E-09
       211  14 -5.505441E+05 -4.284706E+02 -4.574391E+04  1.590511E+04  5.258725E-10  4.232857E-09
       211  15 -5.619937E+05 -8.359218E+04 -1.001719E+05  2.336991E+04 -3.448126E-10  3.391416E-09
       211  16 -3.101675E+05  6.550340E+04  2.812283E+04  3.550459E+04 -2.558928E-08  5.168370E-09
       211  17 -2.620340E+05  7.006706E+04  1.842202E+04  2.099389E+03 -1.110685E-08  1.364141E-08
       211  18 -2.353428E+05 -2.588008E+03 -2.107531E+04 -1.654511E+04  6.858709E-09  2.622428E-09
       211  19 -8.136912E+05 -5.733509E+04 -8.164067E+04  1.090446E+04 -1.657832E+04 -1.334429E+04
       211  20 -8.389734E+05 -7.092808E+04 -1.099101E+05  2.970482E+04 -4.889173E+04 -1.319500E+04
       211  21 -8.885365E+05 -1.645963E+05 -1.792629E+05  6.326410E+04 -8.121820E+04 -4.369852E+03
       211  22 -5.619589E+05  4.086159E+03 -2.675636E+04  2.320214E+04 -2.043995E+04 -1.335209E+04
       211  23 -5.505419E+05 -4.277482E+02 -4.573983E+04  1.590558E+04 -4.464880E+04 -1.318521E+04
       211  24 -5.619886E+05 -8.359089E+04 -1.001630E+05  2.337015E+04 -6.887323E+04 -4.341549E+03
       211  25 -3.101668E+05  6.550375E+04  2.812428E+04  3.550485E+04 -2.430312E+04 -1.336004E+04
       211  26 -2.620322E+05  7.006769E+04  1.842542E+04  2.099818E+03 -4.040392E+04 -1.317560E+04
       211  27 -2.353394E+05 -2.587130E+03 -2.106926E+04 -1.654491E+04 -5.652177E+04 -4.314844E+03
