    1C
    1UUSER                                                              
    1UDATE              11.october.2022                                 
    1UTIME              17:43:59                                        
    1UHOST                                                              
    1UPGM               CalculiX                                        
    1UVERSION           Version 2.20                             
    1UCOMPILETIME       Sun Jul 31 18:08:37 CEST 2022                    
    1UDIR                                                               
    1UDBN                                                               
    1UMAT    1MESH_MATERIAL                                             
    2C                           841                                     1
 -1         1 0.00000E+00 0.00000E+00 0.00000E+00
 -1         2 1.66667E-02 0.00000E+00 0.00000E+00
 -1         3 3.33333E-02 0.00000E+00 0.00000E+00
 -1         4 5.00000E-02 0.00000E+00 0.00000E+00
 -1         5 6.66667E-02 0.00000E+00 0.00000E+00
 -1         8 0.00000E+00 6.25000E-03 0.00000E+00
 -1         9 1.66667E-02 6.25000E-03 0.00000E+00
 -1        10 3.33333E-02 6.25000E-03 0.00000E+00
 -1        11 5.00000E-02 6.25000E-03 0.00000E+00
 -1        12 6.66667E-02 6.25000E-03 0.00000E+00
 -1        15 0.00000E+00 1.25000E-02 0.00000E+00
 -1        16 1.66667E-02 1.25000E-02 0.00000E+00
 -1        17 3.33333E-02 1.25000E-02 0.00000E+00
 -1        18 5.00000E-02 1.25000E-02 0.00000E+00
 -1        19 6.66667E-02 1.25000E-02 0.00000E+00
 -1        20 8.33333E-02 1.25000E-02 0.00000E+00
 -1        21 1.00000E-01 1.25000E-02 0.00000E+00
 -1        22 0.00000E+00 1.87500E-02 0.00000E+00
 -1        23 1.66667E-02 1.87500E-02 0.00000E+00
 -1        24 3.33333E-02 1.87500E-02 0.00000E+00
 -1        25 5.00000E-02 1.87500E-02 0.00000E+00
 -1        26 6.66667E-02 1.87500E-02 0.00000E+00
 -1        27 8.33333E-02 1.87500E-02 0.00000E+00
 -1        28 1.00000E-01 1.87500E-02 0.00000E+00
 -1        29 0.00000E+00 2.50000E-02 0.00000E+00
 -1        30 1.66667E-02 2.50000E-02 0.00000E+00
 -1        31 3.33333E-02 2.50000E-02 0.00000E+00
 -1        32 5.00000E-02 2.50000E-02 0.00000E+00
 -1        33 6.66667E-02 2.50000E-02 0.00000E+00
 -1        34 8.33333E-02 2.50000E-02 0.00000E+00
 -1        35 1.00000E-01 2.50000E-02 0.00000E+00
 -1        36 1.04167E-03 0.00000E+00 0.00000E+00
 -1        37 2.08333E-03 0.00000E+00 0.00000E+00
 -1        38 3.12500E-03 0.00000E+00 0.00000E+00
 -1        39 4.16667E-03 0.00000E+00 0.00000E+00
 -1        40 5.20833E-03 0.00000E+00 0.00000E+00
 -1        41 6.25000E-03 0.00000E+00 0.00000E+00
 -1        42 7.29167E-03 0.00000E+00 0.00000E+00
 -1        43 8.33333E-03 0.00000E+00 0.00000E+00
 -1        44 9.37500E-03 0.00000E+00 0.00000E+00
 -1        45 1.04167E-02 0.00000E+00 0.00000E+00
 -1        46 1.14583E-02 0.00000E+00 0.00000E+00
 -1        47 1.25000E-02 0.00000E+00 0.00000E+00
 -1        48 1.35417E-02 0.00000E+00 0.00000E+00
 -1        49 1.45833E-02 0.00000E+00 0.00000E+00
 -1        50 1.56250E-02 0.00000E+00 0.00000E+00
 -1        51 0.00000E+00 1.04167E-03 0.00000E+00
 -1        52 0.00000E+00 2.08333E-03 0.00000E+00
 -1        53 0.00000E+00 3.12500E-03 0.00000E+00
 -1        54 0.00000E+00 4.16667E-03 0.00000E+00
 -1        55 0.00000E+00 5.20833E-03 0.00000E+00
 -1        56 1.04167E-03 3.90630E-04 0.00000E+00
 -1        57 2.08333E-03 7.81250E-04 0.00000E+00
 -1        58 3.12500E-03 1.17188E-03 0.00000E+00
 -1        59 4.16667E-03 1.56250E-03 0.00000E+00
 -1        60 5.20833E-03 1.95312E-03 0.00000E+00
 -1        61 6.25000E-03 2.34375E-03 0.00000E+00
 -1        62 7.29167E-03 2.73438E-03 0.00000E+00
 -1        63 8.33333E-03 3.12500E-03 0.00000E+00
 -1        64 9.37500E-03 3.51563E-03 0.00000E+00
 -1        65 1.04167E-02 3.90625E-03 0.00000E+00
 -1        66 1.14583E-02 4.29688E-03 0.00000E+00
 -1        67 1.25000E-02 4.68750E-03 0.00000E+00
 -1        68 1.35417E-02 5.07813E-03 0.00000E+00
 -1        69 1.45833E-02 5.46875E-03 0.00000E+00
 -1        70 1.56250E-02 5.85938E-03 0.00000E+00
 -1        71 1.77083E-02 0.00000E+00 0.00000E+00
 -1        72 1.87500E-02 0.00000E+00 0.00000E+00
 -1        73 1.97917E-02 0.00000E+00 0.00000E+00
 -1        74 2.08333E-02 0.00000E+00 0.00000E+00
 -1        75 2.18750E-02 0.00000E+00 0.00000E+00
 -1        76 2.29167E-02 0.00000E+00 0.00000E+00
 -1        77 2.39583E-02 0.00000E+00 0.00000E+00
 -1        78 2.50000E-02 0.00000E+00 0.00000E+00
 -1        79 2.60417E-02 0.00000E+00 0.00000E+00
 -1        80 2.70833E-02 0.00000E+00 0.00000E+00
 -1        81 2.81250E-02 0.00000E+00 0.00000E+00
 -1        82 2.91667E-02 0.00000E+00 0.00000E+00
 -1        83 3.02083E-02 0.00000E+00 0.00000E+00
 -1        84 3.12500E-02 0.00000E+00 0.00000E+00
 -1        85 3.22917E-02 0.00000E+00 0.00000E+00
 -1        86 1.66667E-02 1.04167E-03 0.00000E+00
 -1        87 1.66667E-02 2.08333E-03 0.00000E+00
 -1        88 1.66667E-02 3.12500E-03 0.00000E+00
 -1        89 1.66667E-02 4.16667E-03 0.00000E+00
 -1        90 1.66667E-02 5.20833E-03 0.00000E+00
 -1        91 1.77083E-02 3.90630E-04 0.00000E+00
 -1        92 1.87500E-02 7.81250E-04 0.00000E+00
 -1        93 1.97917E-02 1.17188E-03 0.00000E+00
 -1        94 2.08333E-02 1.56250E-03 0.00000E+00
 -1        95 2.18750E-02 1.95312E-03 0.00000E+00
 -1        96 2.29167E-02 2.34375E-03 0.00000E+00
 -1        97 2.39583E-02 2.73438E-03 0.00000E+00
 -1        98 2.50000E-02 3.12500E-03 0.00000E+00
 -1        99 2.60417E-02 3.51563E-03 0.00000E+00
 -1       100 2.70833E-02 3.90625E-03 0.00000E+00
 -1       101 2.81250E-02 4.29688E-03 0.00000E+00
 -1       102 2.91667E-02 4.68750E-03 0.00000E+00
 -1       103 3.02083E-02 5.07813E-03 0.00000E+00
 -1       104 3.12500E-02 5.46875E-03 0.00000E+00
 -1       105 3.22917E-02 5.85938E-03 0.00000E+00
 -1       106 3.43750E-02 0.00000E+00 0.00000E+00
 -1       107 3.54167E-02 0.00000E+00 0.00000E+00
 -1       108 3.64583E-02 0.00000E+00 0.00000E+00
 -1       109 3.75000E-02 0.00000E+00 0.00000E+00
 -1       110 3.85417E-02 0.00000E+00 0.00000E+00
 -1       111 3.95833E-02 0.00000E+00 0.00000E+00
 -1       112 4.06250E-02 0.00000E+00 0.00000E+00
 -1       113 4.16667E-02 0.00000E+00 0.00000E+00
 -1       114 4.27083E-02 0.00000E+00 0.00000E+00
 -1       115 4.37500E-02 0.00000E+00 0.00000E+00
 -1       116 4.47917E-02 0.00000E+00 0.00000E+00
 -1       117 4.58333E-02 0.00000E+00 0.00000E+00
 -1       118 4.68750E-02 0.00000E+00 0.00000E+00
 -1       119 4.79167E-02 0.00000E+00 0.00000E+00
 -1       120 4.89583E-02 0.00000E+00 0.00000E+00
 -1       121 3.33333E-02 1.04167E-03 0.00000E+00
 -1       122 3.33333E-02 2.08333E-03 0.00000E+00
 -1       123 3.33333E-02 3.12500E-03 0.00000E+00
 -1       124 3.33333E-02 4.16667E-03 0.00000E+00
 -1       125 3.33333E-02 5.20833E-03 0.00000E+00
 -1       126 3.43750E-02 3.90630E-04 0.00000E+00
 -1       127 3.54167E-02 7.81250E-04 0.00000E+00
 -1       128 3.64583E-02 1.17188E-03 0.00000E+00
 -1       129 3.75000E-02 1.56250E-03 0.00000E+00
 -1       130 3.85417E-02 1.95312E-03 0.00000E+00
 -1       131 3.95833E-02 2.34375E-03 0.00000E+00
 -1       132 4.06250E-02 2.73438E-03 0.00000E+00
 -1       133 4.16667E-02 3.12500E-03 0.00000E+00
 -1       134 4.27083E-02 3.51563E-03 0.00000E+00
 -1       135 4.37500E-02 3.90625E-03 0.00000E+00
 -1       136 4.47917E-02 4.29688E-03 0.00000E+00
 -1       137 4.58333E-02 4.68750E-03 0.00000E+00
 -1       138 4.68750E-02 5.07813E-03 0.00000E+00
 -1       139 4.79167E-02 5.46875E-03 0.00000E+00
 -1       140 4.89583E-02 5.85938E-03 0.00000E+00
 -1       141 5.10417E-02 0.00000E+00 0.00000E+00
 -1       142 5.20833E-02 0.00000E+00 0.00000E+00
 -1       143 5.31250E-02 0.00000E+00 0.00000E+00
 -1       144 5.41667E-02 0.00000E+00 0.00000E+00
 -1       145 5.52083E-02 0.00000E+00 0.00000E+00
 -1       146 5.62500E-02 0.00000E+00 0.00000E+00
 -1       147 5.72917E-02 0.00000E+00 0.00000E+00
 -1       148 5.83333E-02 0.00000E+00 0.00000E+00
 -1       149 5.93750E-02 0.00000E+00 0.00000E+00
 -1       150 6.04167E-02 0.00000E+00 0.00000E+00
 -1       151 6.14583E-02 0.00000E+00 0.00000E+00
 -1       152 6.25000E-02 0.00000E+00 0.00000E+00
 -1       153 6.35417E-02 0.00000E+00 0.00000E+00
 -1       154 6.45833E-02 0.00000E+00 0.00000E+00
 -1       155 6.56250E-02 0.00000E+00 0.00000E+00
 -1       156 5.00000E-02 1.04167E-03 0.00000E+00
 -1       157 5.00000E-02 2.08333E-03 0.00000E+00
 -1       158 5.00000E-02 3.12500E-03 0.00000E+00
 -1       159 5.00000E-02 4.16667E-03 0.00000E+00
 -1       160 5.00000E-02 5.20833E-03 0.00000E+00
 -1       161 5.10417E-02 3.90630E-04 0.00000E+00
 -1       162 5.20833E-02 7.81250E-04 0.00000E+00
 -1       163 5.31250E-02 1.17188E-03 0.00000E+00
 -1       164 5.41667E-02 1.56250E-03 0.00000E+00
 -1       165 5.52083E-02 1.95312E-03 0.00000E+00
 -1       166 5.62500E-02 2.34375E-03 0.00000E+00
 -1       167 5.72917E-02 2.73438E-03 0.00000E+00
 -1       168 5.83333E-02 3.12500E-03 0.00000E+00
 -1       169 5.93750E-02 3.51563E-03 0.00000E+00
 -1       170 6.04167E-02 3.90625E-03 0.00000E+00
 -1       171 6.14583E-02 4.29688E-03 0.00000E+00
 -1       172 6.25000E-02 4.68750E-03 0.00000E+00
 -1       173 6.35417E-02 5.07813E-03 0.00000E+00
 -1       174 6.45833E-02 5.46875E-03 0.00000E+00
 -1       175 6.56250E-02 5.85938E-03 0.00000E+00
 -1       191 6.66667E-02 1.04167E-03 0.00000E+00
 -1       192 6.66667E-02 2.08333E-03 0.00000E+00
 -1       193 6.66667E-02 3.12500E-03 0.00000E+00
 -1       194 6.66667E-02 4.16667E-03 0.00000E+00
 -1       195 6.66667E-02 5.20833E-03 0.00000E+00
 -1       251 1.04167E-03 6.25000E-03 0.00000E+00
 -1       252 2.08333E-03 6.25000E-03 0.00000E+00
 -1       253 3.12500E-03 6.25000E-03 0.00000E+00
 -1       254 4.16667E-03 6.25000E-03 0.00000E+00
 -1       255 5.20833E-03 6.25000E-03 0.00000E+00
 -1       256 6.25000E-03 6.25000E-03 0.00000E+00
 -1       257 7.29167E-03 6.25000E-03 0.00000E+00
 -1       258 8.33333E-03 6.25000E-03 0.00000E+00
 -1       259 9.37500E-03 6.25000E-03 0.00000E+00
 -1       260 1.04167E-02 6.25000E-03 0.00000E+00
 -1       261 1.14583E-02 6.25000E-03 0.00000E+00
 -1       262 1.25000E-02 6.25000E-03 0.00000E+00
 -1       263 1.35417E-02 6.25000E-03 0.00000E+00
 -1       264 1.45833E-02 6.25000E-03 0.00000E+00
 -1       265 1.56250E-02 6.25000E-03 0.00000E+00
 -1       266 0.00000E+00 7.29167E-03 0.00000E+00
 -1       267 0.00000E+00 8.33333E-03 0.00000E+00
 -1       268 0.00000E+00 9.37500E-03 0.00000E+00
 -1       269 0.00000E+00 1.04167E-02 0.00000E+00
 -1       270 0.00000E+00 1.14583E-02 0.00000E+00
 -1       271 1.04167E-03 6.64063E-03 0.00000E+00
 -1       272 2.08333E-03 7.03125E-03 0.00000E+00
 -1       273 3.12500E-03 7.42188E-03 0.00000E+00
 -1       274 4.16667E-03 7.81250E-03 0.00000E+00
 -1       275 5.20833E-03 8.20313E-03 0.00000E+00
 -1       276 6.25000E-03 8.59375E-03 0.00000E+00
 -1       277 7.29167E-03 8.98438E-03 0.00000E+00
 -1       278 8.33333E-03 9.37500E-03 0.00000E+00
 -1       279 9.37500E-03 9.76562E-03 0.00000E+00
 -1       280 1.04167E-02 1.01562E-02 0.00000E+00
 -1       281 1.14583E-02 1.05469E-02 0.00000E+00
 -1       282 1.25000E-02 1.09375E-02 0.00000E+00
 -1       283 1.35417E-02 1.13281E-02 0.00000E+00
 -1       284 1.45833E-02 1.17188E-02 0.00000E+00
 -1       285 1.56250E-02 1.21094E-02 0.00000E+00
 -1       286 1.77083E-02 6.25000E-03 0.00000E+00
 -1       287 1.87500E-02 6.25000E-03 0.00000E+00
 -1       288 1.97917E-02 6.25000E-03 0.00000E+00
 -1       289 2.08333E-02 6.25000E-03 0.00000E+00
 -1       290 2.18750E-02 6.25000E-03 0.00000E+00
 -1       291 2.29167E-02 6.25000E-03 0.00000E+00
 -1       292 2.39583E-02 6.25000E-03 0.00000E+00
 -1       293 2.50000E-02 6.25000E-03 0.00000E+00
 -1       294 2.60417E-02 6.25000E-03 0.00000E+00
 -1       295 2.70833E-02 6.25000E-03 0.00000E+00
 -1       296 2.81250E-02 6.25000E-03 0.00000E+00
 -1       297 2.91667E-02 6.25000E-03 0.00000E+00
 -1       298 3.02083E-02 6.25000E-03 0.00000E+00
 -1       299 3.12500E-02 6.25000E-03 0.00000E+00
 -1       300 3.22917E-02 6.25000E-03 0.00000E+00
 -1       301 1.66667E-02 7.29167E-03 0.00000E+00
 -1       302 1.66667E-02 8.33333E-03 0.00000E+00
 -1       303 1.66667E-02 9.37500E-03 0.00000E+00
 -1       304 1.66667E-02 1.04167E-02 0.00000E+00
 -1       305 1.66667E-02 1.14583E-02 0.00000E+00
 -1       306 1.77083E-02 6.64063E-03 0.00000E+00
 -1       307 1.87500E-02 7.03125E-03 0.00000E+00
 -1       308 1.97917E-02 7.42188E-03 0.00000E+00
 -1       309 2.08333E-02 7.81250E-03 0.00000E+00
 -1       310 2.18750E-02 8.20313E-03 0.00000E+00
 -1       311 2.29167E-02 8.59375E-03 0.00000E+00
 -1       312 2.39583E-02 8.98438E-03 0.00000E+00
 -1       313 2.50000E-02 9.37500E-03 0.00000E+00
 -1       314 2.60417E-02 9.76562E-03 0.00000E+00
 -1       315 2.70833E-02 1.01562E-02 0.00000E+00
 -1       316 2.81250E-02 1.05469E-02 0.00000E+00
 -1       317 2.91667E-02 1.09375E-02 0.00000E+00
 -1       318 3.02083E-02 1.13281E-02 0.00000E+00
 -1       319 3.12500E-02 1.17188E-02 0.00000E+00
 -1       320 3.22917E-02 1.21094E-02 0.00000E+00
 -1       321 3.43750E-02 6.25000E-03 0.00000E+00
 -1       322 3.54167E-02 6.25000E-03 0.00000E+00
 -1       323 3.64583E-02 6.25000E-03 0.00000E+00
 -1       324 3.75000E-02 6.25000E-03 0.00000E+00
 -1       325 3.85417E-02 6.25000E-03 0.00000E+00
 -1       326 3.95833E-02 6.25000E-03 0.00000E+00
 -1       327 4.06250E-02 6.25000E-03 0.00000E+00
 -1       328 4.16667E-02 6.25000E-03 0.00000E+00
 -1       329 4.27083E-02 6.25000E-03 0.00000E+00
 -1       330 4.37500E-02 6.25000E-03 0.00000E+00
 -1       331 4.47917E-02 6.25000E-03 0.00000E+00
 -1       332 4.58333E-02 6.25000E-03 0.00000E+00
 -1       333 4.68750E-02 6.25000E-03 0.00000E+00
 -1       334 4.79167E-02 6.25000E-03 0.00000E+00
 -1       335 4.89583E-02 6.25000E-03 0.00000E+00
 -1       336 3.33333E-02 7.29167E-03 0.00000E+00
 -1       337 3.33333E-02 8.33333E-03 0.00000E+00
 -1       338 3.33333E-02 9.37500E-03 0.00000E+00
 -1       339 3.33333E-02 1.04167E-02 0.00000E+00
 -1       340 3.33333E-02 1.14583E-02 0.00000E+00
 -1       341 3.43750E-02 6.64063E-03 0.00000E+00
 -1       342 3.54167E-02 7.03125E-03 0.00000E+00
 -1       343 3.64583E-02 7.42188E-03 0.00000E+00
 -1       344 3.75000E-02 7.81250E-03 0.00000E+00
 -1       345 3.85417E-02 8.20313E-03 0.00000E+00
 -1       346 3.95833E-02 8.59375E-03 0.00000E+00
 -1       347 4.06250E-02 8.98438E-03 0.00000E+00
 -1       348 4.16667E-02 9.37500E-03 0.00000E+00
 -1       349 4.27083E-02 9.76562E-03 0.00000E+00
 -1       350 4.37500E-02 1.01562E-02 0.00000E+00
 -1       351 4.47917E-02 1.05469E-02 0.00000E+00
 -1       352 4.58333E-02 1.09375E-02 0.00000E+00
 -1       353 4.68750E-02 1.13281E-02 0.00000E+00
 -1       354 4.79167E-02 1.17188E-02 0.00000E+00
 -1       355 4.89583E-02 1.21094E-02 0.00000E+00
 -1       356 5.10417E-02 6.25000E-03 0.00000E+00
 -1       357 5.20833E-02 6.25000E-03 0.00000E+00
 -1       358 5.31250E-02 6.25000E-03 0.00000E+00
 -1       359 5.41667E-02 6.25000E-03 0.00000E+00
 -1       360 5.52083E-02 6.25000E-03 0.00000E+00
 -1       361 5.62500E-02 6.25000E-03 0.00000E+00
 -1       362 5.72917E-02 6.25000E-03 0.00000E+00
 -1       363 5.83333E-02 6.25000E-03 0.00000E+00
 -1       364 5.93750E-02 6.25000E-03 0.00000E+00
 -1       365 6.04167E-02 6.25000E-03 0.00000E+00
 -1       366 6.14583E-02 6.25000E-03 0.00000E+00
 -1       367 6.25000E-02 6.25000E-03 0.00000E+00
 -1       368 6.35417E-02 6.25000E-03 0.00000E+00
 -1       369 6.45833E-02 6.25000E-03 0.00000E+00
 -1       370 6.56250E-02 6.25000E-03 0.00000E+00
 -1       371 5.00000E-02 7.29167E-03 0.00000E+00
 -1       372 5.00000E-02 8.33333E-03 0.00000E+00
 -1       373 5.00000E-02 9.37500E-03 0.00000E+00
 -1       374 5.00000E-02 1.04167E-02 0.00000E+00
 -1       375 5.00000E-02 1.14583E-02 0.00000E+00
 -1       376 5.10417E-02 6.64063E-03 0.00000E+00
 -1       377 5.20833E-02 7.03125E-03 0.00000E+00
 -1       378 5.31250E-02 7.42188E-03 0.00000E+00
 -1       379 5.41667E-02 7.81250E-03 0.00000E+00
 -1       380 5.52083E-02 8.20313E-03 0.00000E+00
 -1       381 5.62500E-02 8.59375E-03 0.00000E+00
 -1       382 5.72917E-02 8.98438E-03 0.00000E+00
 -1       383 5.83333E-02 9.37500E-03 0.00000E+00
 -1       384 5.93750E-02 9.76562E-03 0.00000E+00
 -1       385 6.04167E-02 1.01562E-02 0.00000E+00
 -1       386 6.14583E-02 1.05469E-02 0.00000E+00
 -1       387 6.25000E-02 1.09375E-02 0.00000E+00
 -1       388 6.35417E-02 1.13281E-02 0.00000E+00
 -1       389 6.45833E-02 1.17188E-02 0.00000E+00
 -1       390 6.56250E-02 1.21094E-02 0.00000E+00
 -1       406 6.66667E-02 7.29167E-03 0.00000E+00
 -1       407 6.66667E-02 8.33333E-03 0.00000E+00
 -1       408 6.66667E-02 9.37500E-03 0.00000E+00
 -1       409 6.66667E-02 1.04167E-02 0.00000E+00
 -1       410 6.66667E-02 1.14583E-02 0.00000E+00
 -1       466 1.04167E-03 1.25000E-02 0.00000E+00
 -1       467 2.08333E-03 1.25000E-02 0.00000E+00
 -1       468 3.12500E-03 1.25000E-02 0.00000E+00
 -1       469 4.16667E-03 1.25000E-02 0.00000E+00
 -1       470 5.20833E-03 1.25000E-02 0.00000E+00
 -1       471 6.25000E-03 1.25000E-02 0.00000E+00
 -1       472 7.29167E-03 1.25000E-02 0.00000E+00
 -1       473 8.33333E-03 1.25000E-02 0.00000E+00
 -1       474 9.37500E-03 1.25000E-02 0.00000E+00
 -1       475 1.04167E-02 1.25000E-02 0.00000E+00
 -1       476 1.14583E-02 1.25000E-02 0.00000E+00
 -1       477 1.25000E-02 1.25000E-02 0.00000E+00
 -1       478 1.35417E-02 1.25000E-02 0.00000E+00
 -1       479 1.45833E-02 1.25000E-02 0.00000E+00
 -1       480 1.56250E-02 1.25000E-02 0.00000E+00
 -1       481 0.00000E+00 1.35417E-02 0.00000E+00
 -1       482 0.00000E+00 1.45833E-02 0.00000E+00
 -1       483 0.00000E+00 1.56250E-02 0.00000E+00
 -1       484 0.00000E+00 1.66667E-02 0.00000E+00
 -1       485 0.00000E+00 1.77083E-02 0.00000E+00
 -1       486 1.04167E-03 1.28906E-02 0.00000E+00
 -1       487 2.08333E-03 1.32813E-02 0.00000E+00
 -1       488 3.12500E-03 1.36719E-02 0.00000E+00
 -1       489 4.16667E-03 1.40625E-02 0.00000E+00
 -1       490 5.20833E-03 1.44531E-02 0.00000E+00
 -1       491 6.25000E-03 1.48437E-02 0.00000E+00
 -1       492 7.29167E-03 1.52344E-02 0.00000E+00
 -1       493 8.33333E-03 1.56250E-02 0.00000E+00
 -1       494 9.37500E-03 1.60156E-02 0.00000E+00
 -1       495 1.04167E-02 1.64062E-02 0.00000E+00
 -1       496 1.14583E-02 1.67969E-02 0.00000E+00
 -1       497 1.25000E-02 1.71875E-02 0.00000E+00
 -1       498 1.35417E-02 1.75781E-02 0.00000E+00
 -1       499 1.45833E-02 1.79687E-02 0.00000E+00
 -1       500 1.56250E-02 1.83594E-02 0.00000E+00
 -1       501 1.77083E-02 1.25000E-02 0.00000E+00
 -1       502 1.87500E-02 1.25000E-02 0.00000E+00
 -1       503 1.97917E-02 1.25000E-02 0.00000E+00
 -1       504 2.08333E-02 1.25000E-02 0.00000E+00
 -1       505 2.18750E-02 1.25000E-02 0.00000E+00
 -1       506 2.29167E-02 1.25000E-02 0.00000E+00
 -1       507 2.39583E-02 1.25000E-02 0.00000E+00
 -1       508 2.50000E-02 1.25000E-02 0.00000E+00
 -1       509 2.60417E-02 1.25000E-02 0.00000E+00
 -1       510 2.70833E-02 1.25000E-02 0.00000E+00
 -1       511 2.81250E-02 1.25000E-02 0.00000E+00
 -1       512 2.91667E-02 1.25000E-02 0.00000E+00
 -1       513 3.02083E-02 1.25000E-02 0.00000E+00
 -1       514 3.12500E-02 1.25000E-02 0.00000E+00
 -1       515 3.22917E-02 1.25000E-02 0.00000E+00
 -1       516 1.66667E-02 1.35417E-02 0.00000E+00
 -1       517 1.66667E-02 1.45833E-02 0.00000E+00
 -1       518 1.66667E-02 1.56250E-02 0.00000E+00
 -1       519 1.66667E-02 1.66667E-02 0.00000E+00
 -1       520 1.66667E-02 1.77083E-02 0.00000E+00
 -1       521 1.77083E-02 1.28906E-02 0.00000E+00
 -1       522 1.87500E-02 1.32813E-02 0.00000E+00
 -1       523 1.97917E-02 1.36719E-02 0.00000E+00
 -1       524 2.08333E-02 1.40625E-02 0.00000E+00
 -1       525 2.18750E-02 1.44531E-02 0.00000E+00
 -1       526 2.29167E-02 1.48437E-02 0.00000E+00
 -1       527 2.39583E-02 1.52344E-02 0.00000E+00
 -1       528 2.50000E-02 1.56250E-02 0.00000E+00
 -1       529 2.60417E-02 1.60156E-02 0.00000E+00
 -1       530 2.70833E-02 1.64062E-02 0.00000E+00
 -1       531 2.81250E-02 1.67969E-02 0.00000E+00
 -1       532 2.91667E-02 1.71875E-02 0.00000E+00
 -1       533 3.02083E-02 1.75781E-02 0.00000E+00
 -1       534 3.12500E-02 1.79687E-02 0.00000E+00
 -1       535 3.22917E-02 1.83594E-02 0.00000E+00
 -1       536 3.43750E-02 1.25000E-02 0.00000E+00
 -1       537 3.54167E-02 1.25000E-02 0.00000E+00
 -1       538 3.64583E-02 1.25000E-02 0.00000E+00
 -1       539 3.75000E-02 1.25000E-02 0.00000E+00
 -1       540 3.85417E-02 1.25000E-02 0.00000E+00
 -1       541 3.95833E-02 1.25000E-02 0.00000E+00
 -1       542 4.06250E-02 1.25000E-02 0.00000E+00
 -1       543 4.16667E-02 1.25000E-02 0.00000E+00
 -1       544 4.27083E-02 1.25000E-02 0.00000E+00
 -1       545 4.37500E-02 1.25000E-02 0.00000E+00
 -1       546 4.47917E-02 1.25000E-02 0.00000E+00
 -1       547 4.58333E-02 1.25000E-02 0.00000E+00
 -1       548 4.68750E-02 1.25000E-02 0.00000E+00
 -1       549 4.79167E-02 1.25000E-02 0.00000E+00
 -1       550 4.89583E-02 1.25000E-02 0.00000E+00
 -1       551 3.33333E-02 1.35417E-02 0.00000E+00
 -1       552 3.33333E-02 1.45833E-02 0.00000E+00
 -1       553 3.33333E-02 1.56250E-02 0.00000E+00
 -1       554 3.33333E-02 1.66667E-02 0.00000E+00
 -1       555 3.33333E-02 1.77083E-02 0.00000E+00
 -1       556 3.43750E-02 1.28906E-02 0.00000E+00
 -1       557 3.54167E-02 1.32813E-02 0.00000E+00
 -1       558 3.64583E-02 1.36719E-02 0.00000E+00
 -1       559 3.75000E-02 1.40625E-02 0.00000E+00
 -1       560 3.85417E-02 1.44531E-02 0.00000E+00
 -1       561 3.95833E-02 1.48437E-02 0.00000E+00
 -1       562 4.06250E-02 1.52344E-02 0.00000E+00
 -1       563 4.16667E-02 1.56250E-02 0.00000E+00
 -1       564 4.27083E-02 1.60156E-02 0.00000E+00
 -1       565 4.37500E-02 1.64062E-02 0.00000E+00
 -1       566 4.47917E-02 1.67969E-02 0.00000E+00
 -1       567 4.58333E-02 1.71875E-02 0.00000E+00
 -1       568 4.68750E-02 1.75781E-02 0.00000E+00
 -1       569 4.79167E-02 1.79687E-02 0.00000E+00
 -1       570 4.89583E-02 1.83594E-02 0.00000E+00
 -1       571 5.10417E-02 1.25000E-02 0.00000E+00
 -1       572 5.20833E-02 1.25000E-02 0.00000E+00
 -1       573 5.31250E-02 1.25000E-02 0.00000E+00
 -1       574 5.41667E-02 1.25000E-02 0.00000E+00
 -1       575 5.52083E-02 1.25000E-02 0.00000E+00
 -1       576 5.62500E-02 1.25000E-02 0.00000E+00
 -1       577 5.72917E-02 1.25000E-02 0.00000E+00
 -1       578 5.83333E-02 1.25000E-02 0.00000E+00
 -1       579 5.93750E-02 1.25000E-02 0.00000E+00
 -1       580 6.04167E-02 1.25000E-02 0.00000E+00
 -1       581 6.14583E-02 1.25000E-02 0.00000E+00
 -1       582 6.25000E-02 1.25000E-02 0.00000E+00
 -1       583 6.35417E-02 1.25000E-02 0.00000E+00
 -1       584 6.45833E-02 1.25000E-02 0.00000E+00
 -1       585 6.56250E-02 1.25000E-02 0.00000E+00
 -1       586 5.00000E-02 1.35417E-02 0.00000E+00
 -1       587 5.00000E-02 1.45833E-02 0.00000E+00
 -1       588 5.00000E-02 1.56250E-02 0.00000E+00
 -1       589 5.00000E-02 1.66667E-02 0.00000E+00
 -1       590 5.00000E-02 1.77083E-02 0.00000E+00
 -1       591 5.10417E-02 1.28906E-02 0.00000E+00
 -1       592 5.20833E-02 1.32813E-02 0.00000E+00
 -1       593 5.31250E-02 1.36719E-02 0.00000E+00
 -1       594 5.41667E-02 1.40625E-02 0.00000E+00
 -1       595 5.52083E-02 1.44531E-02 0.00000E+00
 -1       596 5.62500E-02 1.48437E-02 0.00000E+00
 -1       597 5.72917E-02 1.52344E-02 0.00000E+00
 -1       598 5.83333E-02 1.56250E-02 0.00000E+00
 -1       599 5.93750E-02 1.60156E-02 0.00000E+00
 -1       600 6.04167E-02 1.64062E-02 0.00000E+00
 -1       601 6.14583E-02 1.67969E-02 0.00000E+00
 -1       602 6.25000E-02 1.71875E-02 0.00000E+00
 -1       603 6.35417E-02 1.75781E-02 0.00000E+00
 -1       604 6.45833E-02 1.79687E-02 0.00000E+00
 -1       605 6.56250E-02 1.83594E-02 0.00000E+00
 -1       606 6.77083E-02 1.25000E-02 0.00000E+00
 -1       607 6.87500E-02 1.25000E-02 0.00000E+00
 -1       608 6.97917E-02 1.25000E-02 0.00000E+00
 -1       609 7.08333E-02 1.25000E-02 0.00000E+00
 -1       610 7.18750E-02 1.25000E-02 0.00000E+00
 -1       611 7.29167E-02 1.25000E-02 0.00000E+00
 -1       612 7.39583E-02 1.25000E-02 0.00000E+00
 -1       613 7.50000E-02 1.25000E-02 0.00000E+00
 -1       614 7.60417E-02 1.25000E-02 0.00000E+00
 -1       615 7.70833E-02 1.25000E-02 0.00000E+00
 -1       616 7.81250E-02 1.25000E-02 0.00000E+00
 -1       617 7.91667E-02 1.25000E-02 0.00000E+00
 -1       618 8.02083E-02 1.25000E-02 0.00000E+00
 -1       619 8.12500E-02 1.25000E-02 0.00000E+00
 -1       620 8.22917E-02 1.25000E-02 0.00000E+00
 -1       621 6.66667E-02 1.35417E-02 0.00000E+00
 -1       622 6.66667E-02 1.45833E-02 0.00000E+00
 -1       623 6.66667E-02 1.56250E-02 0.00000E+00
 -1       624 6.66667E-02 1.66667E-02 0.00000E+00
 -1       625 6.66667E-02 1.77083E-02 0.00000E+00
 -1       626 6.77083E-02 1.28906E-02 0.00000E+00
 -1       627 6.87500E-02 1.32813E-02 0.00000E+00
 -1       628 6.97917E-02 1.36719E-02 0.00000E+00
 -1       629 7.08333E-02 1.40625E-02 0.00000E+00
 -1       630 7.18750E-02 1.44531E-02 0.00000E+00
 -1       631 7.29167E-02 1.48437E-02 0.00000E+00
 -1       632 7.39583E-02 1.52344E-02 0.00000E+00
 -1       633 7.50000E-02 1.56250E-02 0.00000E+00
 -1       634 7.60417E-02 1.60156E-02 0.00000E+00
 -1       635 7.70833E-02 1.64062E-02 0.00000E+00
 -1       636 7.81250E-02 1.67969E-02 0.00000E+00
 -1       637 7.91667E-02 1.71875E-02 0.00000E+00
 -1       638 8.02083E-02 1.75781E-02 0.00000E+00
 -1       639 8.12500E-02 1.79687E-02 0.00000E+00
 -1       640 8.22917E-02 1.83594E-02 0.00000E+00
 -1       641 8.43750E-02 1.25000E-02 0.00000E+00
 -1       642 8.54167E-02 1.25000E-02 0.00000E+00
 -1       643 8.64583E-02 1.25000E-02 0.00000E+00
 -1       644 8.75000E-02 1.25000E-02 0.00000E+00
 -1       645 8.85417E-02 1.25000E-02 0.00000E+00
 -1       646 8.95833E-02 1.25000E-02 0.00000E+00
 -1       647 9.06250E-02 1.25000E-02 0.00000E+00
 -1       648 9.16667E-02 1.25000E-02 0.00000E+00
 -1       649 9.27083E-02 1.25000E-02 0.00000E+00
 -1       650 9.37500E-02 1.25000E-02 0.00000E+00
 -1       651 9.47917E-02 1.25000E-02 0.00000E+00
 -1       652 9.58333E-02 1.25000E-02 0.00000E+00
 -1       653 9.68750E-02 1.25000E-02 0.00000E+00
 -1       654 9.79167E-02 1.25000E-02 0.00000E+00
 -1       655 9.89583E-02 1.25000E-02 0.00000E+00
 -1       656 8.33333E-02 1.35417E-02 0.00000E+00
 -1       657 8.33333E-02 1.45833E-02 0.00000E+00
 -1       658 8.33333E-02 1.56250E-02 0.00000E+00
 -1       659 8.33333E-02 1.66667E-02 0.00000E+00
 -1       660 8.33333E-02 1.77083E-02 0.00000E+00
 -1       661 8.43750E-02 1.28906E-02 0.00000E+00
 -1       662 8.54167E-02 1.32813E-02 0.00000E+00
 -1       663 8.64583E-02 1.36719E-02 0.00000E+00
 -1       664 8.75000E-02 1.40625E-02 0.00000E+00
 -1       665 8.85417E-02 1.44531E-02 0.00000E+00
 -1       666 8.95833E-02 1.48437E-02 0.00000E+00
 -1       667 9.06250E-02 1.52344E-02 0.00000E+00
 -1       668 9.16667E-02 1.56250E-02 0.00000E+00
 -1       669 9.27083E-02 1.60156E-02 0.00000E+00
 -1       670 9.37500E-02 1.64062E-02 0.00000E+00
 -1       671 9.47917E-02 1.67969E-02 0.00000E+00
 -1       672 9.58333E-02 1.71875E-02 0.00000E+00
 -1       673 9.68750E-02 1.75781E-02 0.00000E+00
 -1       674 9.79167E-02 1.79687E-02 0.00000E+00
 -1       675 9.89583E-02 1.83594E-02 0.00000E+00
 -1       676 1.00000E-01 1.35417E-02 0.00000E+00
 -1       677 1.00000E-01 1.45833E-02 0.00000E+00
 -1       678 1.00000E-01 1.56250E-02 0.00000E+00
 -1       679 1.00000E-01 1.66667E-02 0.00000E+00
 -1       680 1.00000E-01 1.77083E-02 0.00000E+00
 -1       681 1.04167E-03 1.87500E-02 0.00000E+00
 -1       682 2.08333E-03 1.87500E-02 0.00000E+00
 -1       683 3.12500E-03 1.87500E-02 0.00000E+00
 -1       684 4.16667E-03 1.87500E-02 0.00000E+00
 -1       685 5.20833E-03 1.87500E-02 0.00000E+00
 -1       686 6.25000E-03 1.87500E-02 0.00000E+00
 -1       687 7.29167E-03 1.87500E-02 0.00000E+00
 -1       688 8.33333E-03 1.87500E-02 0.00000E+00
 -1       689 9.37500E-03 1.87500E-02 0.00000E+00
 -1       690 1.04167E-02 1.87500E-02 0.00000E+00
 -1       691 1.14583E-02 1.87500E-02 0.00000E+00
 -1       692 1.25000E-02 1.87500E-02 0.00000E+00
 -1       693 1.35417E-02 1.87500E-02 0.00000E+00
 -1       694 1.45833E-02 1.87500E-02 0.00000E+00
 -1       695 1.56250E-02 1.87500E-02 0.00000E+00
 -1       696 0.00000E+00 1.97917E-02 0.00000E+00
 -1       697 0.00000E+00 2.08333E-02 0.00000E+00
 -1       698 0.00000E+00 2.18750E-02 0.00000E+00
 -1       699 0.00000E+00 2.29167E-02 0.00000E+00
 -1       700 0.00000E+00 2.39583E-02 0.00000E+00
 -1       701 1.04167E-03 1.91406E-02 0.00000E+00
 -1       702 2.08333E-03 1.95312E-02 0.00000E+00
 -1       703 3.12500E-03 1.99219E-02 0.00000E+00
 -1       704 4.16667E-03 2.03125E-02 0.00000E+00
 -1       705 5.20833E-03 2.07031E-02 0.00000E+00
 -1       706 6.25000E-03 2.10938E-02 0.00000E+00
 -1       707 7.29167E-03 2.14844E-02 0.00000E+00
 -1       708 8.33333E-03 2.18750E-02 0.00000E+00
 -1       709 9.37500E-03 2.22656E-02 0.00000E+00
 -1       710 1.04167E-02 2.26563E-02 0.00000E+00
 -1       711 1.14583E-02 2.30469E-02 0.00000E+00
 -1       712 1.25000E-02 2.34375E-02 0.00000E+00
 -1       713 1.35417E-02 2.38281E-02 0.00000E+00
 -1       714 1.45833E-02 2.42187E-02 0.00000E+00
 -1       715 1.56250E-02 2.46094E-02 0.00000E+00
 -1       716 1.77083E-02 1.87500E-02 0.00000E+00
 -1       717 1.87500E-02 1.87500E-02 0.00000E+00
 -1       718 1.97917E-02 1.87500E-02 0.00000E+00
 -1       719 2.08333E-02 1.87500E-02 0.00000E+00
 -1       720 2.18750E-02 1.87500E-02 0.00000E+00
 -1       721 2.29167E-02 1.87500E-02 0.00000E+00
 -1       722 2.39583E-02 1.87500E-02 0.00000E+00
 -1       723 2.50000E-02 1.87500E-02 0.00000E+00
 -1       724 2.60417E-02 1.87500E-02 0.00000E+00
 -1       725 2.70833E-02 1.87500E-02 0.00000E+00
 -1       726 2.81250E-02 1.87500E-02 0.00000E+00
 -1       727 2.91667E-02 1.87500E-02 0.00000E+00
 -1       728 3.02083E-02 1.87500E-02 0.00000E+00
 -1       729 3.12500E-02 1.87500E-02 0.00000E+00
 -1       730 3.22917E-02 1.87500E-02 0.00000E+00
 -1       731 1.66667E-02 1.97917E-02 0.00000E+00
 -1       732 1.66667E-02 2.08333E-02 0.00000E+00
 -1       733 1.66667E-02 2.18750E-02 0.00000E+00
 -1       734 1.66667E-02 2.29167E-02 0.00000E+00
 -1       735 1.66667E-02 2.39583E-02 0.00000E+00
 -1       736 1.77083E-02 1.91406E-02 0.00000E+00
 -1       737 1.87500E-02 1.95312E-02 0.00000E+00
 -1       738 1.97917E-02 1.99219E-02 0.00000E+00
 -1       739 2.08333E-02 2.03125E-02 0.00000E+00
 -1       740 2.18750E-02 2.07031E-02 0.00000E+00
 -1       741 2.29167E-02 2.10938E-02 0.00000E+00
 -1       742 2.39583E-02 2.14844E-02 0.00000E+00
 -1       743 2.50000E-02 2.18750E-02 0.00000E+00
 -1       744 2.60417E-02 2.22656E-02 0.00000E+00
 -1       745 2.70833E-02 2.26563E-02 0.00000E+00
 -1       746 2.81250E-02 2.30469E-02 0.00000E+00
 -1       747 2.91667E-02 2.34375E-02 0.00000E+00
 -1       748 3.02083E-02 2.38281E-02 0.00000E+00
 -1       749 3.12500E-02 2.42187E-02 0.00000E+00
 -1       750 3.22917E-02 2.46094E-02 0.00000E+00
 -1       751 3.43750E-02 1.87500E-02 0.00000E+00
 -1       752 3.54167E-02 1.87500E-02 0.00000E+00
 -1       753 3.64583E-02 1.87500E-02 0.00000E+00
 -1       754 3.75000E-02 1.87500E-02 0.00000E+00
 -1       755 3.85417E-02 1.87500E-02 0.00000E+00
 -1       756 3.95833E-02 1.87500E-02 0.00000E+00
 -1       757 4.06250E-02 1.87500E-02 0.00000E+00
 -1       758 4.16667E-02 1.87500E-02 0.00000E+00
 -1       759 4.27083E-02 1.87500E-02 0.00000E+00
 -1       760 4.37500E-02 1.87500E-02 0.00000E+00
 -1       761 4.47917E-02 1.87500E-02 0.00000E+00
 -1       762 4.58333E-02 1.87500E-02 0.00000E+00
 -1       763 4.68750E-02 1.87500E-02 0.00000E+00
 -1       764 4.79167E-02 1.87500E-02 0.00000E+00
 -1       765 4.89583E-02 1.87500E-02 0.00000E+00
 -1       766 3.33333E-02 1.97917E-02 0.00000E+00
 -1       767 3.33333E-02 2.08333E-02 0.00000E+00
 -1       768 3.33333E-02 2.18750E-02 0.00000E+00
 -1       769 3.33333E-02 2.29167E-02 0.00000E+00
 -1       770 3.33333E-02 2.39583E-02 0.00000E+00
 -1       771 3.43750E-02 1.91406E-02 0.00000E+00
 -1       772 3.54167E-02 1.95312E-02 0.00000E+00
 -1       773 3.64583E-02 1.99219E-02 0.00000E+00
 -1       774 3.75000E-02 2.03125E-02 0.00000E+00
 -1       775 3.85417E-02 2.07031E-02 0.00000E+00
 -1       776 3.95833E-02 2.10938E-02 0.00000E+00
 -1       777 4.06250E-02 2.14844E-02 0.00000E+00
 -1       778 4.16667E-02 2.18750E-02 0.00000E+00
 -1       779 4.27083E-02 2.22656E-02 0.00000E+00
 -1       780 4.37500E-02 2.26563E-02 0.00000E+00
 -1       781 4.47917E-02 2.30469E-02 0.00000E+00
 -1       782 4.58333E-02 2.34375E-02 0.00000E+00
 -1       783 4.68750E-02 2.38281E-02 0.00000E+00
 -1       784 4.79167E-02 2.42187E-02 0.00000E+00
 -1       785 4.89583E-02 2.46094E-02 0.00000E+00
 -1       786 5.10417E-02 1.87500E-02 0.00000E+00
 -1       787 5.20833E-02 1.87500E-02 0.00000E+00
 -1       788 5.31250E-02 1.87500E-02 0.00000E+00
 -1       789 5.41667E-02 1.87500E-02 0.00000E+00
 -1       790 5.52083E-02 1.87500E-02 0.00000E+00
 -1       791 5.62500E-02 1.87500E-02 0.00000E+00
 -1       792 5.72917E-02 1.87500E-02 0.00000E+00
 -1       793 5.83333E-02 1.87500E-02 0.00000E+00
 -1       794 5.93750E-02 1.87500E-02 0.00000E+00
 -1       795 6.04167E-02 1.87500E-02 0.00000E+00
 -1       796 6.14583E-02 1.87500E-02 0.00000E+00
 -1       797 6.25000E-02 1.87500E-02 0.00000E+00
 -1       798 6.35417E-02 1.87500E-02 0.00000E+00
 -1       799 6.45833E-02 1.87500E-02 0.00000E+00
 -1       800 6.56250E-02 1.87500E-02 0.00000E+00
 -1       801 5.00000E-02 1.97917E-02 0.00000E+00
 -1       802 5.00000E-02 2.08333E-02 0.00000E+00
 -1       803 5.00000E-02 2.18750E-02 0.00000E+00
 -1       804 5.00000E-02 2.29167E-02 0.00000E+00
 -1       805 5.00000E-02 2.39583E-02 0.00000E+00
 -1       806 5.10417E-02 1.91406E-02 0.00000E+00
 -1       807 5.20833E-02 1.95312E-02 0.00000E+00
 -1       808 5.31250E-02 1.99219E-02 0.00000E+00
 -1       809 5.41667E-02 2.03125E-02 0.00000E+00
 -1       810 5.52083E-02 2.07031E-02 0.00000E+00
 -1       811 5.62500E-02 2.10938E-02 0.00000E+00
 -1       812 5.72917E-02 2.14844E-02 0.00000E+00
 -1       813 5.83333E-02 2.18750E-02 0.00000E+00
 -1       814 5.93750E-02 2.22656E-02 0.00000E+00
 -1       815 6.04167E-02 2.26563E-02 0.00000E+00
 -1       816 6.14583E-02 2.30469E-02 0.00000E+00
 -1       817 6.25000E-02 2.34375E-02 0.00000E+00
 -1       818 6.35417E-02 2.38281E-02 0.00000E+00
 -1       819 6.45833E-02 2.42187E-02 0.00000E+00
 -1       820 6.56250E-02 2.46094E-02 0.00000E+00
 -1       821 6.77083E-02 1.87500E-02 0.00000E+00
 -1       822 6.87500E-02 1.87500E-02 0.00000E+00
 -1       823 6.97917E-02 1.87500E-02 0.00000E+00
 -1       824 7.08333E-02 1.87500E-02 0.00000E+00
 -1       825 7.18750E-02 1.87500E-02 0.00000E+00
 -1       826 7.29167E-02 1.87500E-02 0.00000E+00
 -1       827 7.39583E-02 1.87500E-02 0.00000E+00
 -1       828 7.50000E-02 1.87500E-02 0.00000E+00
 -1       829 7.60417E-02 1.87500E-02 0.00000E+00
 -1       830 7.70833E-02 1.87500E-02 0.00000E+00
 -1       831 7.81250E-02 1.87500E-02 0.00000E+00
 -1       832 7.91667E-02 1.87500E-02 0.00000E+00
 -1       833 8.02083E-02 1.87500E-02 0.00000E+00
 -1       834 8.12500E-02 1.87500E-02 0.00000E+00
 -1       835 8.22917E-02 1.87500E-02 0.00000E+00
 -1       836 6.66667E-02 1.97917E-02 0.00000E+00
 -1       837 6.66667E-02 2.08333E-02 0.00000E+00
 -1       838 6.66667E-02 2.18750E-02 0.00000E+00
 -1       839 6.66667E-02 2.29167E-02 0.00000E+00
 -1       840 6.66667E-02 2.39583E-02 0.00000E+00
 -1       841 6.77083E-02 1.91406E-02 0.00000E+00
 -1       842 6.87500E-02 1.95312E-02 0.00000E+00
 -1       843 6.97917E-02 1.99219E-02 0.00000E+00
 -1       844 7.08333E-02 2.03125E-02 0.00000E+00
 -1       845 7.18750E-02 2.07031E-02 0.00000E+00
 -1       846 7.29167E-02 2.10938E-02 0.00000E+00
 -1       847 7.39583E-02 2.14844E-02 0.00000E+00
 -1       848 7.50000E-02 2.18750E-02 0.00000E+00
 -1       849 7.60417E-02 2.22656E-02 0.00000E+00
 -1       850 7.70833E-02 2.26563E-02 0.00000E+00
 -1       851 7.81250E-02 2.30469E-02 0.00000E+00
 -1       852 7.91667E-02 2.34375E-02 0.00000E+00
 -1       853 8.02083E-02 2.38281E-02 0.00000E+00
 -1       854 8.12500E-02 2.42187E-02 0.00000E+00
 -1       855 8.22917E-02 2.46094E-02 0.00000E+00
 -1       856 8.43750E-02 1.87500E-02 0.00000E+00
 -1       857 8.54167E-02 1.87500E-02 0.00000E+00
 -1       858 8.64583E-02 1.87500E-02 0.00000E+00
 -1       859 8.75000E-02 1.87500E-02 0.00000E+00
 -1       860 8.85417E-02 1.87500E-02 0.00000E+00
 -1       861 8.95833E-02 1.87500E-02 0.00000E+00
 -1       862 9.06250E-02 1.87500E-02 0.00000E+00
 -1       863 9.16667E-02 1.87500E-02 0.00000E+00
 -1       864 9.27083E-02 1.87500E-02 0.00000E+00
 -1       865 9.37500E-02 1.87500E-02 0.00000E+00
 -1       866 9.47917E-02 1.87500E-02 0.00000E+00
 -1       867 9.58333E-02 1.87500E-02 0.00000E+00
 -1       868 9.68750E-02 1.87500E-02 0.00000E+00
 -1       869 9.79167E-02 1.87500E-02 0.00000E+00
 -1       870 9.89583E-02 1.87500E-02 0.00000E+00
 -1       871 8.33333E-02 1.97917E-02 0.00000E+00
 -1       872 8.33333E-02 2.08333E-02 0.00000E+00
 -1       873 8.33333E-02 2.18750E-02 0.00000E+00
 -1       874 8.33333E-02 2.29167E-02 0.00000E+00
 -1       875 8.33333E-02 2.39583E-02 0.00000E+00
 -1       876 8.43750E-02 1.91406E-02 0.00000E+00
 -1       877 8.54167E-02 1.95312E-02 0.00000E+00
 -1       878 8.64583E-02 1.99219E-02 0.00000E+00
 -1       879 8.75000E-02 2.03125E-02 0.00000E+00
 -1       880 8.85417E-02 2.07031E-02 0.00000E+00
 -1       881 8.95833E-02 2.10938E-02 0.00000E+00
 -1       882 9.06250E-02 2.14844E-02 0.00000E+00
 -1       883 9.16667E-02 2.18750E-02 0.00000E+00
 -1       884 9.27083E-02 2.22656E-02 0.00000E+00
 -1       885 9.37500E-02 2.26563E-02 0.00000E+00
 -1       886 9.47917E-02 2.30469E-02 0.00000E+00
 -1       887 9.58333E-02 2.34375E-02 0.00000E+00
 -1       888 9.68750E-02 2.38281E-02 0.00000E+00
 -1       889 9.79167E-02 2.42187E-02 0.00000E+00
 -1       890 9.89583E-02 2.46094E-02 0.00000E+00
 -1       891 1.00000E-01 1.97917E-02 0.00000E+00
 -1       892 1.00000E-01 2.08333E-02 0.00000E+00
 -1       893 1.00000E-01 2.18750E-02 0.00000E+00
 -1       894 1.00000E-01 2.29167E-02 0.00000E+00
 -1       895 1.00000E-01 2.39583E-02 0.00000E+00
 -1       896 1.04167E-03 2.50000E-02 0.00000E+00
 -1       897 2.08333E-03 2.50000E-02 0.00000E+00
 -1       898 3.12500E-03 2.50000E-02 0.00000E+00
 -1       899 4.16667E-03 2.50000E-02 0.00000E+00
 -1       900 5.20833E-03 2.50000E-02 0.00000E+00
 -1       901 6.25000E-03 2.50000E-02 0.00000E+00
 -1       902 7.29167E-03 2.50000E-02 0.00000E+00
 -1       903 8.33333E-03 2.50000E-02 0.00000E+00
 -1       904 9.37500E-03 2.50000E-02 0.00000E+00
 -1       905 1.04167E-02 2.50000E-02 0.00000E+00
 -1       906 1.14583E-02 2.50000E-02 0.00000E+00
 -1       907 1.25000E-02 2.50000E-02 0.00000E+00
 -1       908 1.35417E-02 2.50000E-02 0.00000E+00
 -1       909 1.45833E-02 2.50000E-02 0.00000E+00
 -1       910 1.56250E-02 2.50000E-02 0.00000E+00
 -1       911 1.77083E-02 2.50000E-02 0.00000E+00
 -1       912 1.87500E-02 2.50000E-02 0.00000E+00
 -1       913 1.97917E-02 2.50000E-02 0.00000E+00
 -1       914 2.08333E-02 2.50000E-02 0.00000E+00
 -1       915 2.18750E-02 2.50000E-02 0.00000E+00
 -1       916 2.29167E-02 2.50000E-02 0.00000E+00
 -1       917 2.39583E-02 2.50000E-02 0.00000E+00
 -1       918 2.50000E-02 2.50000E-02 0.00000E+00
 -1       919 2.60417E-02 2.50000E-02 0.00000E+00
 -1       920 2.70833E-02 2.50000E-02 0.00000E+00
 -1       921 2.81250E-02 2.50000E-02 0.00000E+00
 -1       922 2.91667E-02 2.50000E-02 0.00000E+00
 -1       923 3.02083E-02 2.50000E-02 0.00000E+00
 -1       924 3.12500E-02 2.50000E-02 0.00000E+00
 -1       925 3.22917E-02 2.50000E-02 0.00000E+00
 -1       926 3.43750E-02 2.50000E-02 0.00000E+00
 -1       927 3.54167E-02 2.50000E-02 0.00000E+00
 -1       928 3.64583E-02 2.50000E-02 0.00000E+00
 -1       929 3.75000E-02 2.50000E-02 0.00000E+00
 -1       930 3.85417E-02 2.50000E-02 0.00000E+00
 -1       931 3.95833E-02 2.50000E-02 0.00000E+00
 -1       932 4.06250E-02 2.50000E-02 0.00000E+00
 -1       933 4.16667E-02 2.50000E-02 0.00000E+00
 -1       934 4.27083E-02 2.50000E-02 0.00000E+00
 -1       935 4.37500E-02 2.50000E-02 0.00000E+00
 -1       936 4.47917E-02 2.50000E-02 0.00000E+00
 -1       937 4.58333E-02 2.50000E-02 0.00000E+00
 -1       938 4.68750E-02 2.50000E-02 0.00000E+00
 -1       939 4.79167E-02 2.50000E-02 0.00000E+00
 -1       940 4.89583E-02 2.50000E-02 0.00000E+00
 -1       941 5.10417E-02 2.50000E-02 0.00000E+00
 -1       942 5.20833E-02 2.50000E-02 0.00000E+00
 -1       943 5.31250E-02 2.50000E-02 0.00000E+00
 -1       944 5.41667E-02 2.50000E-02 0.00000E+00
 -1       945 5.52083E-02 2.50000E-02 0.00000E+00
 -1       946 5.62500E-02 2.50000E-02 0.00000E+00
 -1       947 5.72917E-02 2.50000E-02 0.00000E+00
 -1       948 5.83333E-02 2.50000E-02 0.00000E+00
 -1       949 5.93750E-02 2.50000E-02 0.00000E+00
 -1       950 6.04167E-02 2.50000E-02 0.00000E+00
 -1       951 6.14583E-02 2.50000E-02 0.00000E+00
 -1       952 6.25000E-02 2.50000E-02 0.00000E+00
 -1       953 6.35417E-02 2.50000E-02 0.00000E+00
 -1       954 6.45833E-02 2.50000E-02 0.00000E+00
 -1       955 6.56250E-02 2.50000E-02 0.00000E+00
 -1       956 6.77083E-02 2.50000E-02 0.00000E+00
 -1       957 6.87500E-02 2.50000E-02 0.00000E+00
 -1       958 6.97917E-02 2.50000E-02 0.00000E+00
 -1       959 7.08333E-02 2.50000E-02 0.00000E+00
 -1       960 7.18750E-02 2.50000E-02 0.00000E+00
 -1       961 7.29167E-02 2.50000E-02 0.00000E+00
 -1       962 7.39583E-02 2.50000E-02 0.00000E+00
 -1       963 7.50000E-02 2.50000E-02 0.00000E+00
 -1       964 7.60417E-02 2.50000E-02 0.00000E+00
 -1       965 7.70833E-02 2.50000E-02 0.00000E+00
 -1       966 7.81250E-02 2.50000E-02 0.00000E+00
 -1       967 7.91667E-02 2.50000E-02 0.00000E+00
 -1       968 8.02083E-02 2.50000E-02 0.00000E+00
 -1       969 8.12500E-02 2.50000E-02 0.00000E+00
 -1       970 8.22917E-02 2.50000E-02 0.00000E+00
 -1       971 8.43750E-02 2.50000E-02 0.00000E+00
 -1       972 8.54167E-02 2.50000E-02 0.00000E+00
 -1       973 8.64583E-02 2.50000E-02 0.00000E+00
 -1       974 8.75000E-02 2.50000E-02 0.00000E+00
 -1       975 8.85417E-02 2.50000E-02 0.00000E+00
 -1       976 8.95833E-02 2.50000E-02 0.00000E+00
 -1       977 9.06250E-02 2.50000E-02 0.00000E+00
 -1       978 9.16667E-02 2.50000E-02 0.00000E+00
 -1       979 9.27083E-02 2.50000E-02 0.00000E+00
 -1       980 9.37500E-02 2.50000E-02 0.00000E+00
 -1       981 9.47917E-02 2.50000E-02 0.00000E+00
 -1       982 9.58333E-02 2.50000E-02 0.00000E+00
 -1       983 9.68750E-02 2.50000E-02 0.00000E+00
 -1       984 9.79167E-02 2.50000E-02 0.00000E+00
 -1       985 9.89583E-02 2.50000E-02 0.00000E+00
 -3
    3C                           440                                     1
 -1         1   12    0    1
 -2         1        37        36
 -1         2   12    0    1
 -2        37        39        38
 -1         3   12    0    1
 -2        39        41        40
 -1         4   12    0    1
 -2        41        43        42
 -1         5   12    0    1
 -2        43        45        44
 -1         6   12    0    1
 -2        45        47        46
 -1         7   12    0    1
 -2        47        49        48
 -1         8   12    0    1
 -2        49         2        50
 -1         9   12    0    1
 -2         1        52        51
 -1        10   12    0    1
 -2        52        54        53
 -1        11   12    0    1
 -2        54         8        55
 -1        12   12    0    1
 -2         1        57        56
 -1        13   12    0    1
 -2        57        59        58
 -1        14   12    0    1
 -2        59        61        60
 -1        15   12    0    1
 -2        61        63        62
 -1        16   12    0    1
 -2        63        65        64
 -1        17   12    0    1
 -2        65        67        66
 -1        18   12    0    1
 -2        67        69        68
 -1        19   12    0    1
 -2        69         9        70
 -1        20   12    0    1
 -2         2        72        71
 -1        21   12    0    1
 -2        72        74        73
 -1        22   12    0    1
 -2        74        76        75
 -1        23   12    0    1
 -2        76        78        77
 -1        24   12    0    1
 -2        78        80        79
 -1        25   12    0    1
 -2        80        82        81
 -1        26   12    0    1
 -2        82        84        83
 -1        27   12    0    1
 -2        84         3        85
 -1        28   12    0    1
 -2         2        87        86
 -1        29   12    0    1
 -2        87        89        88
 -1        30   12    0    1
 -2        89         9        90
 -1        31   12    0    1
 -2         2        92        91
 -1        32   12    0    1
 -2        92        94        93
 -1        33   12    0    1
 -2        94        96        95
 -1        34   12    0    1
 -2        96        98        97
 -1        35   12    0    1
 -2        98       100        99
 -1        36   12    0    1
 -2       100       102       101
 -1        37   12    0    1
 -2       102       104       103
 -1        38   12    0    1
 -2       104        10       105
 -1        39   12    0    1
 -2         3       107       106
 -1        40   12    0    1
 -2       107       109       108
 -1        41   12    0    1
 -2       109       111       110
 -1        42   12    0    1
 -2       111       113       112
 -1        43   12    0    1
 -2       113       115       114
 -1        44   12    0    1
 -2       115       117       116
 -1        45   12    0    1
 -2       117       119       118
 -1        46   12    0    1
 -2       119         4       120
 -1        47   12    0    1
 -2         3       122       121
 -1        48   12    0    1
 -2       122       124       123
 -1        49   12    0    1
 -2       124        10       125
 -1        50   12    0    1
 -2         3       127       126
 -1        51   12    0    1
 -2       127       129       128
 -1        52   12    0    1
 -2       129       131       130
 -1        53   12    0    1
 -2       131       133       132
 -1        54   12    0    1
 -2       133       135       134
 -1        55   12    0    1
 -2       135       137       136
 -1        56   12    0    1
 -2       137       139       138
 -1        57   12    0    1
 -2       139        11       140
 -1        58   12    0    1
 -2         4       142       141
 -1        59   12    0    1
 -2       142       144       143
 -1        60   12    0    1
 -2       144       146       145
 -1        61   12    0    1
 -2       146       148       147
 -1        62   12    0    1
 -2       148       150       149
 -1        63   12    0    1
 -2       150       152       151
 -1        64   12    0    1
 -2       152       154       153
 -1        65   12    0    1
 -2       154         5       155
 -1        66   12    0    1
 -2         4       157       156
 -1        67   12    0    1
 -2       157       159       158
 -1        68   12    0    1
 -2       159        11       160
 -1        69   12    0    1
 -2         4       162       161
 -1        70   12    0    1
 -2       162       164       163
 -1        71   12    0    1
 -2       164       166       165
 -1        72   12    0    1
 -2       166       168       167
 -1        73   12    0    1
 -2       168       170       169
 -1        74   12    0    1
 -2       170       172       171
 -1        75   12    0    1
 -2       172       174       173
 -1        76   12    0    1
 -2       174        12       175
 -1        77   12    0    1
 -2         5       192       191
 -1        78   12    0    1
 -2       192       194       193
 -1        79   12    0    1
 -2       194        12       195
 -1        80   12    0    1
 -2         8       252       251
 -1        81   12    0    1
 -2       252       254       253
 -1        82   12    0    1
 -2       254       256       255
 -1        83   12    0    1
 -2       256       258       257
 -1        84   12    0    1
 -2       258       260       259
 -1        85   12    0    1
 -2       260       262       261
 -1        86   12    0    1
 -2       262       264       263
 -1        87   12    0    1
 -2       264         9       265
 -1        88   12    0    1
 -2         8       267       266
 -1        89   12    0    1
 -2       267       269       268
 -1        90   12    0    1
 -2       269        15       270
 -1        91   12    0    1
 -2         8       272       271
 -1        92   12    0    1
 -2       272       274       273
 -1        93   12    0    1
 -2       274       276       275
 -1        94   12    0    1
 -2       276       278       277
 -1        95   12    0    1
 -2       278       280       279
 -1        96   12    0    1
 -2       280       282       281
 -1        97   12    0    1
 -2       282       284       283
 -1        98   12    0    1
 -2       284        16       285
 -1        99   12    0    1
 -2         9       287       286
 -1       100   12    0    1
 -2       287       289       288
 -1       101   12    0    1
 -2       289       291       290
 -1       102   12    0    1
 -2       291       293       292
 -1       103   12    0    1
 -2       293       295       294
 -1       104   12    0    1
 -2       295       297       296
 -1       105   12    0    1
 -2       297       299       298
 -1       106   12    0    1
 -2       299        10       300
 -1       107   12    0    1
 -2         9       302       301
 -1       108   12    0    1
 -2       302       304       303
 -1       109   12    0    1
 -2       304        16       305
 -1       110   12    0    1
 -2         9       307       306
 -1       111   12    0    1
 -2       307       309       308
 -1       112   12    0    1
 -2       309       311       310
 -1       113   12    0    1
 -2       311       313       312
 -1       114   12    0    1
 -2       313       315       314
 -1       115   12    0    1
 -2       315       317       316
 -1       116   12    0    1
 -2       317       319       318
 -1       117   12    0    1
 -2       319        17       320
 -1       118   12    0    1
 -2        10       322       321
 -1       119   12    0    1
 -2       322       324       323
 -1       120   12    0    1
 -2       324       326       325
 -1       121   12    0    1
 -2       326       328       327
 -1       122   12    0    1
 -2       328       330       329
 -1       123   12    0    1
 -2       330       332       331
 -1       124   12    0    1
 -2       332       334       333
 -1       125   12    0    1
 -2       334        11       335
 -1       126   12    0    1
 -2        10       337       336
 -1       127   12    0    1
 -2       337       339       338
 -1       128   12    0    1
 -2       339        17       340
 -1       129   12    0    1
 -2        10       342       341
 -1       130   12    0    1
 -2       342       344       343
 -1       131   12    0    1
 -2       344       346       345
 -1       132   12    0    1
 -2       346       348       347
 -1       133   12    0    1
 -2       348       350       349
 -1       134   12    0    1
 -2       350       352       351
 -1       135   12    0    1
 -2       352       354       353
 -1       136   12    0    1
 -2       354        18       355
 -1       137   12    0    1
 -2        11       357       356
 -1       138   12    0    1
 -2       357       359       358
 -1       139   12    0    1
 -2       359       361       360
 -1       140   12    0    1
 -2       361       363       362
 -1       141   12    0    1
 -2       363       365       364
 -1       142   12    0    1
 -2       365       367       366
 -1       143   12    0    1
 -2       367       369       368
 -1       144   12    0    1
 -2       369        12       370
 -1       145   12    0    1
 -2        11       372       371
 -1       146   12    0    1
 -2       372       374       373
 -1       147   12    0    1
 -2       374        18       375
 -1       148   12    0    1
 -2        11       377       376
 -1       149   12    0    1
 -2       377       379       378
 -1       150   12    0    1
 -2       379       381       380
 -1       151   12    0    1
 -2       381       383       382
 -1       152   12    0    1
 -2       383       385       384
 -1       153   12    0    1
 -2       385       387       386
 -1       154   12    0    1
 -2       387       389       388
 -1       155   12    0    1
 -2       389        19       390
 -1       156   12    0    1
 -2        12       407       406
 -1       157   12    0    1
 -2       407       409       408
 -1       158   12    0    1
 -2       409        19       410
 -1       159   12    0    1
 -2        15       467       466
 -1       160   12    0    1
 -2       467       469       468
 -1       161   12    0    1
 -2       469       471       470
 -1       162   12    0    1
 -2       471       473       472
 -1       163   12    0    1
 -2       473       475       474
 -1       164   12    0    1
 -2       475       477       476
 -1       165   12    0    1
 -2       477       479       478
 -1       166   12    0    1
 -2       479        16       480
 -1       167   12    0    1
 -2        15       482       481
 -1       168   12    0    1
 -2       482       484       483
 -1       169   12    0    1
 -2       484        22       485
 -1       170   12    0    1
 -2        15       487       486
 -1       171   12    0    1
 -2       487       489       488
 -1       172   12    0    1
 -2       489       491       490
 -1       173   12    0    1
 -2       491       493       492
 -1       174   12    0    1
 -2       493       495       494
 -1       175   12    0    1
 -2       495       497       496
 -1       176   12    0    1
 -2       497       499       498
 -1       177   12    0    1
 -2       499        23       500
 -1       178   12    0    1
 -2        16       502       501
 -1       179   12    0    1
 -2       502       504       503
 -1       180   12    0    1
 -2       504       506       505
 -1       181   12    0    1
 -2       506       508       507
 -1       182   12    0    1
 -2       508       510       509
 -1       183   12    0    1
 -2       510       512       511
 -1       184   12    0    1
 -2       512       514       513
 -1       185   12    0    1
 -2       514        17       515
 -1       186   12    0    1
 -2        16       517       516
 -1       187   12    0    1
 -2       517       519       518
 -1       188   12    0    1
 -2       519        23       520
 -1       189   12    0    1
 -2        16       522       521
 -1       190   12    0    1
 -2       522       524       523
 -1       191   12    0    1
 -2       524       526       525
 -1       192   12    0    1
 -2       526       528       527
 -1       193   12    0    1
 -2       528       530       529
 -1       194   12    0    1
 -2       530       532       531
 -1       195   12    0    1
 -2       532       534       533
 -1       196   12    0    1
 -2       534        24       535
 -1       197   12    0    1
 -2        17       537       536
 -1       198   12    0    1
 -2       537       539       538
 -1       199   12    0    1
 -2       539       541       540
 -1       200   12    0    1
 -2       541       543       542
 -1       201   12    0    1
 -2       543       545       544
 -1       202   12    0    1
 -2       545       547       546
 -1       203   12    0    1
 -2       547       549       548
 -1       204   12    0    1
 -2       549        18       550
 -1       205   12    0    1
 -2        17       552       551
 -1       206   12    0    1
 -2       552       554       553
 -1       207   12    0    1
 -2       554        24       555
 -1       208   12    0    1
 -2        17       557       556
 -1       209   12    0    1
 -2       557       559       558
 -1       210   12    0    1
 -2       559       561       560
 -1       211   12    0    1
 -2       561       563       562
 -1       212   12    0    1
 -2       563       565       564
 -1       213   12    0    1
 -2       565       567       566
 -1       214   12    0    1
 -2       567       569       568
 -1       215   12    0    1
 -2       569        25       570
 -1       216   12    0    1
 -2        18       572       571
 -1       217   12    0    1
 -2       572       574       573
 -1       218   12    0    1
 -2       574       576       575
 -1       219   12    0    1
 -2       576       578       577
 -1       220   12    0    1
 -2       578       580       579
 -1       221   12    0    1
 -2       580       582       581
 -1       222   12    0    1
 -2       582       584       583
 -1       223   12    0    1
 -2       584        19       585
 -1       224   12    0    1
 -2        18       587       586
 -1       225   12    0    1
 -2       587       589       588
 -1       226   12    0    1
 -2       589        25       590
 -1       227   12    0    1
 -2        18       592       591
 -1       228   12    0    1
 -2       592       594       593
 -1       229   12    0    1
 -2       594       596       595
 -1       230   12    0    1
 -2       596       598       597
 -1       231   12    0    1
 -2       598       600       599
 -1       232   12    0    1
 -2       600       602       601
 -1       233   12    0    1
 -2       602       604       603
 -1       234   12    0    1
 -2       604        26       605
 -1       235   12    0    1
 -2        19       607       606
 -1       236   12    0    1
 -2       607       609       608
 -1       237   12    0    1
 -2       609       611       610
 -1       238   12    0    1
 -2       611       613       612
 -1       239   12    0    1
 -2       613       615       614
 -1       240   12    0    1
 -2       615       617       616
 -1       241   12    0    1
 -2       617       619       618
 -1       242   12    0    1
 -2       619        20       620
 -1       243   12    0    1
 -2        19       622       621
 -1       244   12    0    1
 -2       622       624       623
 -1       245   12    0    1
 -2       624        26       625
 -1       246   12    0    1
 -2        19       627       626
 -1       247   12    0    1
 -2       627       629       628
 -1       248   12    0    1
 -2       629       631       630
 -1       249   12    0    1
 -2       631       633       632
 -1       250   12    0    1
 -2       633       635       634
 -1       251   12    0    1
 -2       635       637       636
 -1       252   12    0    1
 -2       637       639       638
 -1       253   12    0    1
 -2       639        27       640
 -1       254   12    0    1
 -2        20       642       641
 -1       255   12    0    1
 -2       642       644       643
 -1       256   12    0    1
 -2       644       646       645
 -1       257   12    0    1
 -2       646       648       647
 -1       258   12    0    1
 -2       648       650       649
 -1       259   12    0    1
 -2       650       652       651
 -1       260   12    0    1
 -2       652       654       653
 -1       261   12    0    1
 -2       654        21       655
 -1       262   12    0    1
 -2        20       657       656
 -1       263   12    0    1
 -2       657       659       658
 -1       264   12    0    1
 -2       659        27       660
 -1       265   12    0    1
 -2        20       662       661
 -1       266   12    0    1
 -2       662       664       663
 -1       267   12    0    1
 -2       664       666       665
 -1       268   12    0    1
 -2       666       668       667
 -1       269   12    0    1
 -2       668       670       669
 -1       270   12    0    1
 -2       670       672       671
 -1       271   12    0    1
 -2       672       674       673
 -1       272   12    0    1
 -2       674        28       675
 -1       273   12    0    1
 -2        21       677       676
 -1       274   12    0    1
 -2       677       679       678
 -1       275   12    0    1
 -2       679        28       680
 -1       276   12    0    1
 -2        22       682       681
 -1       277   12    0    1
 -2       682       684       683
 -1       278   12    0    1
 -2       684       686       685
 -1       279   12    0    1
 -2       686       688       687
 -1       280   12    0    1
 -2       688       690       689
 -1       281   12    0    1
 -2       690       692       691
 -1       282   12    0    1
 -2       692       694       693
 -1       283   12    0    1
 -2       694        23       695
 -1       284   12    0    1
 -2        22       697       696
 -1       285   12    0    1
 -2       697       699       698
 -1       286   12    0    1
 -2       699        29       700
 -1       287   12    0    1
 -2        22       702       701
 -1       288   12    0    1
 -2       702       704       703
 -1       289   12    0    1
 -2       704       706       705
 -1       290   12    0    1
 -2       706       708       707
 -1       291   12    0    1
 -2       708       710       709
 -1       292   12    0    1
 -2       710       712       711
 -1       293   12    0    1
 -2       712       714       713
 -1       294   12    0    1
 -2       714        30       715
 -1       295   12    0    1
 -2        23       717       716
 -1       296   12    0    1
 -2       717       719       718
 -1       297   12    0    1
 -2       719       721       720
 -1       298   12    0    1
 -2       721       723       722
 -1       299   12    0    1
 -2       723       725       724
 -1       300   12    0    1
 -2       725       727       726
 -1       301   12    0    1
 -2       727       729       728
 -1       302   12    0    1
 -2       729        24       730
 -1       303   12    0    1
 -2        23       732       731
 -1       304   12    0    1
 -2       732       734       733
 -1       305   12    0    1
 -2       734        30       735
 -1       306   12    0    1
 -2        23       737       736
 -1       307   12    0    1
 -2       737       739       738
 -1       308   12    0    1
 -2       739       741       740
 -1       309   12    0    1
 -2       741       743       742
 -1       310   12    0    1
 -2       743       745       744
 -1       311   12    0    1
 -2       745       747       746
 -1       312   12    0    1
 -2       747       749       748
 -1       313   12    0    1
 -2       749        31       750
 -1       314   12    0    1
 -2        24       752       751
 -1       315   12    0    1
 -2       752       754       753
 -1       316   12    0    1
 -2       754       756       755
 -1       317   12    0    1
 -2       756       758       757
 -1       318   12    0    1
 -2       758       760       759
 -1       319   12    0    1
 -2       760       762       761
 -1       320   12    0    1
 -2       762       764       763
 -1       321   12    0    1
 -2       764        25       765
 -1       322   12    0    1
 -2        24       767       766
 -1       323   12    0    1
 -2       767       769       768
 -1       324   12    0    1
 -2       769        31       770
 -1       325   12    0    1
 -2        24       772       771
 -1       326   12    0    1
 -2       772       774       773
 -1       327   12    0    1
 -2       774       776       775
 -1       328   12    0    1
 -2       776       778       777
 -1       329   12    0    1
 -2       778       780       779
 -1       330   12    0    1
 -2       780       782       781
 -1       331   12    0    1
 -2       782       784       783
 -1       332   12    0    1
 -2       784        32       785
 -1       333   12    0    1
 -2        25       787       786
 -1       334   12    0    1
 -2       787       789       788
 -1       335   12    0    1
 -2       789       791       790
 -1       336   12    0    1
 -2       791       793       792
 -1       337   12    0    1
 -2       793       795       794
 -1       338   12    0    1
 -2       795       797       796
 -1       339   12    0    1
 -2       797       799       798
 -1       340   12    0    1
 -2       799        26       800
 -1       341   12    0    1
 -2        25       802       801
 -1       342   12    0    1
 -2       802       804       803
 -1       343   12    0    1
 -2       804        32       805
 -1       344   12    0    1
 -2        25       807       806
 -1       345   12    0    1
 -2       807       809       808
 -1       346   12    0    1
 -2       809       811       810
 -1       347   12    0    1
 -2       811       813       812
 -1       348   12    0    1
 -2       813       815       814
 -1       349   12    0    1
 -2       815       817       816
 -1       350   12    0    1
 -2       817       819       818
 -1       351   12    0    1
 -2       819        33       820
 -1       352   12    0    1
 -2        26       822       821
 -1       353   12    0    1
 -2       822       824       823
 -1       354   12    0    1
 -2       824       826       825
 -1       355   12    0    1
 -2       826       828       827
 -1       356   12    0    1
 -2       828       830       829
 -1       357   12    0    1
 -2       830       832       831
 -1       358   12    0    1
 -2       832       834       833
 -1       359   12    0    1
 -2       834        27       835
 -1       360   12    0    1
 -2        26       837       836
 -1       361   12    0    1
 -2       837       839       838
 -1       362   12    0    1
 -2       839        33       840
 -1       363   12    0    1
 -2        26       842       841
 -1       364   12    0    1
 -2       842       844       843
 -1       365   12    0    1
 -2       844       846       845
 -1       366   12    0    1
 -2       846       848       847
 -1       367   12    0    1
 -2       848       850       849
 -1       368   12    0    1
 -2       850       852       851
 -1       369   12    0    1
 -2       852       854       853
 -1       370   12    0    1
 -2       854        34       855
 -1       371   12    0    1
 -2        27       857       856
 -1       372   12    0    1
 -2       857       859       858
 -1       373   12    0    1
 -2       859       861       860
 -1       374   12    0    1
 -2       861       863       862
 -1       375   12    0    1
 -2       863       865       864
 -1       376   12    0    1
 -2       865       867       866
 -1       377   12    0    1
 -2       867       869       868
 -1       378   12    0    1
 -2       869        28       870
 -1       379   12    0    1
 -2        27       872       871
 -1       380   12    0    1
 -2       872       874       873
 -1       381   12    0    1
 -2       874        34       875
 -1       382   12    0    1
 -2        27       877       876
 -1       383   12    0    1
 -2       877       879       878
 -1       384   12    0    1
 -2       879       881       880
 -1       385   12    0    1
 -2       881       883       882
 -1       386   12    0    1
 -2       883       885       884
 -1       387   12    0    1
 -2       885       887       886
 -1       388   12    0    1
 -2       887       889       888
 -1       389   12    0    1
 -2       889        35       890
 -1       390   12    0    1
 -2        28       892       891
 -1       391   12    0    1
 -2       892       894       893
 -1       392   12    0    1
 -2       894        35       895
 -1       393   12    0    1
 -2        29       897       896
 -1       394   12    0    1
 -2       897       899       898
 -1       395   12    0    1
 -2       899       901       900
 -1       396   12    0    1
 -2       901       903       902
 -1       397   12    0    1
 -2       903       905       904
 -1       398   12    0    1
 -2       905       907       906
 -1       399   12    0    1
 -2       907       909       908
 -1       400   12    0    1
 -2       909        30       910
 -1       401   12    0    1
 -2        30       912       911
 -1       402   12    0    1
 -2       912       914       913
 -1       403   12    0    1
 -2       914       916       915
 -1       404   12    0    1
 -2       916       918       917
 -1       405   12    0    1
 -2       918       920       919
 -1       406   12    0    1
 -2       920       922       921
 -1       407   12    0    1
 -2       922       924       923
 -1       408   12    0    1
 -2       924        31       925
 -1       409   12    0    1
 -2        31       927       926
 -1       410   12    0    1
 -2       927       929       928
 -1       411   12    0    1
 -2       929       931       930
 -1       412   12    0    1
 -2       931       933       932
 -1       413   12    0    1
 -2       933       935       934
 -1       414   12    0    1
 -2       935       937       936
 -1       415   12    0    1
 -2       937       939       938
 -1       416   12    0    1
 -2       939        32       940
 -1       417   12    0    1
 -2        32       942       941
 -1       418   12    0    1
 -2       942       944       943
 -1       419   12    0    1
 -2       944       946       945
 -1       420   12    0    1
 -2       946       948       947
 -1       421   12    0    1
 -2       948       950       949
 -1       422   12    0    1
 -2       950       952       951
 -1       423   12    0    1
 -2       952       954       953
 -1       424   12    0    1
 -2       954        33       955
 -1       425   12    0    1
 -2        33       957       956
 -1       426   12    0    1
 -2       957       959       958
 -1       427   12    0    1
 -2       959       961       960
 -1       428   12    0    1
 -2       961       963       962
 -1       429   12    0    1
 -2       963       965       964
 -1       430   12    0    1
 -2       965       967       966
 -1       431   12    0    1
 -2       967       969       968
 -1       432   12    0    1
 -2       969        34       970
 -1       433   12    0    1
 -2        34       972       971
 -1       434   12    0    1
 -2       972       974       973
 -1       435   12    0    1
 -2       974       976       975
 -1       436   12    0    1
 -2       976       978       977
 -1       437   12    0    1
 -2       978       980       979
 -1       438   12    0    1
 -2       980       982       981
 -1       439   12    0    1
 -2       982       984       983
 -1       440   12    0    1
 -2       984        35       985
 -3
    1PSTEP                         1           1           1          
  100CL  101 1.000000000         841                     0    1           1
 -4  DISP        4    1
 -5  D1          1    2    1    0
 -5  D2          1    2    2    0
 -5  D3          1    2    3    0
 -5  ALL         1    2    0    0    1ALL
 -1         1 1.16848E-04 0.00000E+00 0.00000E+00
 -1         2 8.78440E-05 0.00000E+00 0.00000E+00
 -1         3 7.46692E-05 0.00000E+00 0.00000E+00
 -1         4 6.86987E-05 0.00000E+00 0.00000E+00
 -1         5 6.67947E-05 0.00000E+00 0.00000E+00
 -1         8 8.97596E-05-1.12845E-06 0.00000E+00
 -1         9 7.60902E-05 1.60462E-06 0.00000E+00
 -1        10 7.02580E-05-4.98633E-06 0.00000E+00
 -1        11 6.58647E-05-1.13894E-06 0.00000E+00
 -1        12 6.29734E-05 2.25145E-06 0.00000E+00
 -1        15 3.46389E-05-2.34367E-06 0.00000E+00
 -1        16 4.71164E-05 1.75277E-06 0.00000E+00
 -1        17 4.55804E-05-9.96557E-06 0.00000E+00
 -1        18 4.92989E-05-2.10760E-06 0.00000E+00
 -1        19 5.30831E-05 4.42687E-06 0.00000E+00
 -1        20 5.39935E-05 4.64749E-05 0.00000E+00
 -1        21 5.38918E-05 1.13971E-04 0.00000E+00
 -1        22 1.29223E-05-1.48228E-06 0.00000E+00
 -1        23 1.69929E-05 2.51329E-06 0.00000E+00
 -1        24 1.86244E-05-1.10171E-05 0.00000E+00
 -1        25 3.85276E-05-1.70681E-06 0.00000E+00
 -1        26 4.39908E-05 5.73929E-06 0.00000E+00
 -1        27 3.98947E-05 4.48391E-05 0.00000E+00
 -1        28 3.51061E-05 1.12421E-04 0.00000E+00
 -1        29 0.00000E+00 0.00000E+00 0.00000E+00
 -1        30 6.31989E-06 3.05782E-06 0.00000E+00
 -1        31 8.50446E-06-9.59369E-06 0.00000E+00
 -1        32 0.00000E+00 0.00000E+00 0.00000E+00
 -1        33 2.87058E-05 1.01905E-05 0.00000E+00
 -1        34 2.70180E-05 4.47374E-05 0.00000E+00
 -1        35 2.12473E-05 1.11612E-04 0.00000E+00
 -1        36 1.15091E-04 2.31379E-20 0.00000E+00
 -1        37 1.13278E-04 8.35585E-20 0.00000E+00
 -1        38 1.11469E-04 1.14214E-19 0.00000E+00
 -1        39 1.09649E-04 2.06292E-19 0.00000E+00
 -1        40 1.07829E-04 3.08896E-19 5.29396E-23
 -1        41 1.06006E-04 3.48048E-19-2.64698E-23
 -1        42 1.04184E-04 3.85347E-19-5.29396E-23
 -1        43 1.02361E-04 4.12101E-19 0.00000E+00
 -1        44 1.00538E-04 3.76549E-19 5.29396E-23
 -1        45 9.87150E-05 3.00121E-19-2.64698E-23
 -1        46 9.68924E-05 2.25969E-19-5.29396E-23
 -1        47 9.50712E-05 1.43678E-19 0.00000E+00
 -1        48 9.32503E-05 8.13449E-20 0.00000E+00
 -1        49 9.14366E-05-8.30489E-22 0.00000E+00
 -1        50 8.96207E-05 1.24342E-20-5.29396E-23
 -1        51 1.14900E-04-1.92217E-07 0.00000E+00
 -1        52 1.11559E-04-3.73893E-07 0.00000E+00
 -1        53 1.07093E-04-5.55199E-07 0.00000E+00
 -1        54 1.01783E-04-7.39043E-07 0.00000E+00
 -1        55 9.59106E-05-9.27489E-07-3.30872E-24
 -1        56 1.14841E-04-1.11972E-06 5.29396E-23
 -1        57 1.12975E-04-2.84116E-06 0.00000E+00
 -1        58 1.11265E-04-4.96388E-06 0.00000E+00
 -1        59 1.09620E-04-7.30295E-06 0.00000E+00
 -1        60 1.07977E-04-9.64465E-06 5.29396E-23
 -1        61 1.06254E-04-1.17803E-05 0.00000E+00
 -1        62 1.04381E-04-1.35180E-05-5.29396E-23
 -1        63 1.02295E-04-1.46853E-05 0.00000E+00
 -1        64 9.99486E-05-1.51586E-05 0.00000E+00
 -1        65 9.73076E-05-1.48471E-05 0.00000E+00
 -1        66 9.43625E-05-1.37274E-05 5.29396E-23
 -1        67 9.11201E-05-1.18135E-05 0.00000E+00
 -1        68 8.76093E-05-9.18868E-06 0.00000E+00
 -1        69 8.38859E-05-5.96458E-06 0.00000E+00
 -1        70 7.99960E-05-2.31448E-06 5.29396E-23
 -1        71 8.70183E-05-3.38548E-20 0.00000E+00
 -1        72 8.61941E-05-4.59201E-20 0.00000E+00
 -1        73 8.53698E-05-4.36503E-20 2.64698E-23
 -1        74 8.45457E-05-6.56136E-20-1.32349E-23
 -1        75 8.37217E-05-8.52823E-20 0.00000E+00
 -1        76 8.28977E-05-9.70514E-20 0.00000E+00
 -1        77 8.20737E-05-1.08286E-19-2.64698E-23
 -1        78 8.12498E-05-1.12070E-19 0.00000E+00
 -1        79 8.04258E-05-1.29216E-19-2.64698E-23
 -1        80 7.96020E-05-1.27138E-19-1.32349E-23
 -1        81 7.87781E-05-1.05833E-19 0.00000E+00
 -1        82 7.79545E-05-6.38798E-20 1.32349E-23
 -1        83 7.71309E-05-2.62117E-20-2.64698E-23
 -1        84 7.63085E-05-1.75329E-20 1.32349E-23
 -1        85 7.54857E-05-1.38966E-21-2.64698E-23
 -1        86 8.76174E-05 2.35938E-07 0.00000E+00
 -1        87 8.68933E-05 5.17321E-07-4.13590E-25
 -1        88 8.55321E-05 7.95136E-07 1.65436E-24
 -1        89 8.33884E-05 1.07513E-06 0.00000E+00
 -1        90 8.02984E-05 1.35478E-06 1.65436E-24
 -1        91 8.68700E-05-6.19413E-07 0.00000E+00
 -1        92 8.60467E-05-1.66725E-06 0.00000E+00
 -1        93 8.53481E-05-3.04696E-06 2.64698E-23
 -1        94 8.47334E-05-4.65555E-06-1.32349E-23
 -1        95 8.41566E-05-6.36563E-06 2.64698E-23
 -1        96 8.35688E-05-8.04716E-06 0.00000E+00
 -1        97 8.29229E-05-9.57318E-06 2.64698E-23
 -1        98 8.21732E-05-1.08218E-05-1.32349E-23
 -1        99 8.12844E-05-1.16990E-05-2.64698E-23
 -1       100 8.02257E-05-1.21221E-05 1.32349E-23
 -1       101 7.89829E-05-1.20548E-05 2.64698E-23
 -1       102 7.75483E-05-1.14759E-05 1.32349E-23
 -1       103 7.59327E-05-1.04159E-05-2.64698E-23
 -1       104 7.41553E-05-8.91980E-06 0.00000E+00
 -1       105 7.22467E-05-7.07816E-06 0.00000E+00
 -1       106 7.42824E-05-2.71547E-20 0.00000E+00
 -1       107 7.39077E-05-7.63868E-20 6.61744E-24
 -1       108 7.35323E-05-8.36395E-20 0.00000E+00
 -1       109 7.31591E-05-9.90772E-20 0.00000E+00
 -1       110 7.27860E-05-8.87408E-20 0.00000E+00
 -1       111 7.24134E-05-7.06512E-20 0.00000E+00
 -1       112 7.20408E-05-6.43274E-20-1.32349E-23
 -1       113 7.16684E-05-6.91788E-20 0.00000E+00
 -1       114 7.12960E-05-9.35715E-20 1.32349E-23
 -1       115 7.09236E-05-1.03893E-19 6.61744E-24
 -1       116 7.05513E-05-6.65045E-20 1.32349E-23
 -1       117 7.01792E-05-1.04564E-20 0.00000E+00
 -1       118 6.98071E-05 3.93738E-21 0.00000E+00
 -1       119 6.94360E-05-7.25437E-22 0.00000E+00
 -1       120 6.90646E-05 7.72587E-21 0.00000E+00
 -1       121 7.47124E-05-8.25185E-07 0.00000E+00
 -1       122 7.46963E-05-1.65702E-06 0.00000E+00
 -1       123 7.44288E-05-2.48863E-06-2.64698E-23
 -1       124 7.37206E-05-3.32107E-06 1.32349E-23
 -1       125 7.23888E-05-4.15440E-06-2.64698E-23
 -1       126 7.41798E-05-2.57349E-07 0.00000E+00
 -1       127 7.37425E-05-6.33173E-07 0.00000E+00
 -1       128 7.33385E-05-1.09929E-06 1.32349E-23
 -1       129 7.29575E-05-1.62290E-06-6.61744E-24
 -1       130 7.25850E-05-2.16930E-06-1.32349E-23
 -1       131 7.22080E-05-2.70290E-06 0.00000E+00
 -1       132 7.18132E-05-3.18914E-06-1.32349E-23
 -1       133 7.13881E-05-3.59406E-06 0.00000E+00
 -1       134 7.09212E-05-3.88754E-06 0.00000E+00
 -1       135 7.04019E-05-4.04116E-06 6.61744E-24
 -1       136 6.98221E-05-4.03326E-06 0.00000E+00
 -1       137 6.91746E-05-3.84453E-06 0.00000E+00
 -1       138 6.84554E-05-3.46457E-06 0.00000E+00
 -1       139 6.76629E-05-2.88530E-06-6.61744E-24
 -1       140 6.67960E-05-2.10946E-06 0.00000E+00
 -1       141 6.85724E-05 2.45487E-21 6.61744E-24
 -1       142 6.84510E-05-2.19195E-20 0.00000E+00
 -1       143 6.83292E-05-5.74061E-20 3.30872E-24
 -1       144 6.82083E-05-7.95191E-20 0.00000E+00
 -1       145 6.80875E-05-9.63086E-20-3.30872E-24
 -1       146 6.79669E-05-1.00208E-19 0.00000E+00
 -1       147 6.78463E-05-9.39402E-20 3.30872E-24
 -1       148 6.77257E-05-8.03718E-20 0.00000E+00
 -1       149 6.76052E-05-7.33949E-20 0.00000E+00
 -1       150 6.74849E-05-7.43315E-20 1.65436E-24
 -1       151 6.73646E-05-6.11597E-20-3.30872E-24
 -1       152 6.72451E-05-8.03197E-20 0.00000E+00
 -1       153 6.71257E-05-4.53971E-20 1.65436E-24
 -1       154 6.70098E-05-1.51653E-20-1.03398E-25
 -1       155 6.68928E-05 2.81696E-21 0.00000E+00
 -1       156 6.86591E-05-1.90031E-07 0.00000E+00
 -1       157 6.85205E-05-3.78219E-07 0.00000E+00
 -1       158 6.82263E-05-5.66616E-07 0.00000E+00
 -1       159 6.77205E-05-7.55679E-07 0.00000E+00
 -1       160 6.69503E-05-9.44591E-07 0.00000E+00
 -1       161 6.84420E-05-1.32244E-07 0.00000E+00
 -1       162 6.82053E-05-3.21858E-07 0.00000E+00
 -1       163 6.79821E-05-5.47404E-07 0.00000E+00
 -1       164 6.77643E-05-7.87770E-07 3.30872E-24
 -1       165 6.75438E-05-1.02121E-06 6.61744E-24
 -1       166 6.73126E-05-1.22614E-06 0.00000E+00
 -1       167 6.70630E-05-1.38178E-06 6.61744E-24
 -1       168 6.67872E-05-1.46775E-06 0.00000E+00
 -1       169 6.64784E-05-1.46544E-06 6.61744E-24
 -1       170 6.61299E-05-1.35692E-06 3.30872E-24
 -1       171 6.57360E-05-1.12710E-06-6.61744E-24
 -1       172 6.52920E-05-7.61560E-07 0.00000E+00
 -1       173 6.47933E-05-2.49927E-07 0.00000E+00
 -1       174 6.42404E-05 4.18847E-07 0.00000E+00
 -1       175 6.36256E-05 1.24799E-06 4.13590E-25
 -1       191 6.66603E-05 3.74618E-07 0.00000E+00
 -1       192 6.63170E-05 7.50589E-07 0.00000E+00
 -1       193 6.57698E-05 1.12678E-06 1.32349E-23
 -1       194 6.50253E-05 1.50278E-06 6.61744E-24
 -1       195 6.40904E-05 1.87818E-06-1.32349E-23
 -1       251 8.89151E-05 3.19811E-06 2.64698E-23
 -1       252 8.80584E-05 6.12157E-06 1.32349E-23
 -1       253 8.72056E-05 7.70025E-06 0.00000E+00
 -1       254 8.63509E-05 8.02515E-06 0.00000E+00
 -1       255 8.54958E-05 7.27434E-06-2.64698E-23
 -1       256 8.46392E-05 5.65198E-06 1.32349E-23
 -1       257 8.37813E-05 3.42280E-06 0.00000E+00
 -1       258 8.29227E-05 8.66276E-07 0.00000E+00
 -1       259 8.20639E-05-1.71545E-06 0.00000E+00
 -1       260 8.12060E-05-4.01954E-06 0.00000E+00
 -1       261 8.03491E-05-5.76246E-06 0.00000E+00
 -1       262 7.94940E-05-6.67434E-06 1.32349E-23
 -1       263 7.86394E-05-6.54303E-06 0.00000E+00
 -1       264 7.77874E-05-5.18169E-06 1.32349E-23
 -1       265 7.69317E-05-2.48880E-06 0.00000E+00
 -1       266 8.31096E-05-1.32235E-06-6.61744E-24
 -1       267 7.36640E-05-1.52614E-06 0.00000E+00
 -1       268 6.27550E-05-1.74432E-06 6.61744E-24
 -1       269 5.17216E-05-1.96073E-06 0.00000E+00
 -1       270 4.19046E-05-2.16553E-06 3.30872E-24
 -1       271 8.58859E-05 2.47726E-06 5.29396E-23
 -1       272 8.23747E-05 4.89343E-06-2.64698E-23
 -1       273 7.92839E-05 6.20772E-06-5.29396E-23
 -1       274 7.65597E-05 6.51137E-06 0.00000E+00
 -1       275 7.41591E-05 5.95170E-06 5.29396E-23
 -1       276 7.20147E-05 4.70211E-06 0.00000E+00
 -1       277 7.00510E-05 2.96883E-06 0.00000E+00
 -1       278 6.81845E-05 9.74768E-07 0.00000E+00
 -1       279 6.63276E-05-1.04506E-06-5.29396E-23
 -1       280 6.43925E-05-2.85463E-06 2.64698E-23
 -1       281 6.22945E-05-4.22792E-06 5.29396E-23
 -1       282 5.99565E-05-4.95395E-06 0.00000E+00
 -1       283 5.73085E-05-4.85235E-06 5.29396E-23
 -1       284 5.43053E-05-3.76743E-06-2.64698E-23
 -1       285 5.08884E-05-1.59877E-06 0.00000E+00
 -1       286 7.57200E-05 5.68677E-06 0.00000E+00
 -1       287 7.53557E-05 8.37209E-06 0.00000E+00
 -1       288 7.49939E-05 9.78110E-06-1.32349E-23
 -1       289 7.46332E-05 1.00474E-05-6.61744E-24
 -1       290 7.42724E-05 9.33857E-06-1.32349E-23
 -1       291 7.39108E-05 7.83198E-06 0.00000E+00
 -1       292 7.35482E-05 5.72876E-06-1.32349E-23
 -1       293 7.31847E-05 3.23605E-06-6.61744E-24
 -1       294 7.28208E-05 5.72578E-07-1.32349E-23
 -1       295 7.24568E-05-2.04117E-06 0.00000E+00
 -1       296 7.20934E-05-4.38627E-06 0.00000E+00
 -1       297 7.17305E-05-6.24645E-06-6.61744E-24
 -1       298 7.13683E-05-7.41983E-06-1.32349E-23
 -1       299 7.10037E-05-7.71159E-06-6.61744E-24
 -1       300 7.06398E-05-6.95308E-06-1.32349E-23
 -1       301 7.12621E-05 1.61479E-06-6.61744E-24
 -1       302 6.64248E-05 1.64372E-06 0.00000E+00
 -1       303 6.15849E-05 1.67652E-06 0.00000E+00
 -1       304 5.67490E-05 1.70960E-06 0.00000E+00
 -1       305 5.19241E-05 1.73946E-06 6.61744E-24
 -1       306 7.26771E-05 5.06369E-06 0.00000E+00
 -1       307 6.96753E-05 7.24441E-06 0.00000E+00
 -1       308 6.71275E-05 8.23129E-06-5.29396E-23
 -1       309 6.49829E-05 8.11548E-06 2.64698E-23
 -1       310 6.31982E-05 7.03840E-06 0.00000E+00
 -1       311 6.17088E-05 5.16655E-06 0.00000E+00
 -1       312 6.04420E-05 2.69788E-06 0.00000E+00
 -1       313 5.93172E-05-1.52248E-07 2.64698E-23
 -1       314 5.82487E-05-3.15353E-06-5.29396E-23
 -1       315 5.71494E-05-6.07107E-06 0.00000E+00
 -1       316 5.59329E-05-8.67361E-06 0.00000E+00
 -1       317 5.45180E-05-1.07387E-05 0.00000E+00
 -1       318 5.28278E-05-1.20656E-05-5.29396E-23
 -1       319 5.08048E-05-1.24714E-05 2.64698E-23
 -1       320 4.83798E-05-1.18174E-05 0.00000E+00
 -1       321 6.99601E-05-2.70202E-06 0.00000E+00
 -1       322 6.96832E-05-1.02162E-06 0.00000E+00
 -1       323 6.94059E-05 1.09182E-07 1.32349E-23
 -1       324 6.91326E-05 7.48917E-07 0.00000E+00
 -1       325 6.88598E-05 9.67152E-07 0.00000E+00
 -1       326 6.85876E-05 8.36700E-07 3.30872E-24
 -1       327 6.83156E-05 4.38178E-07 6.61744E-24
 -1       328 6.80435E-05-1.45724E-07 0.00000E+00
 -1       329 6.77715E-05-8.28168E-07-6.61744E-24
 -1       330 6.74994E-05-1.52157E-06 0.00000E+00
 -1       331 6.72274E-05-2.13809E-06-6.61744E-24
 -1       332 6.69555E-05-2.59047E-06 0.00000E+00
 -1       333 6.66836E-05-2.79515E-06 0.00000E+00
 -1       334 6.64113E-05-2.67046E-06 0.00000E+00
 -1       335 6.61391E-05-2.14212E-06 0.00000E+00
 -1       336 6.70629E-05-5.81651E-06 0.00000E+00
 -1       337 6.29589E-05-6.65182E-06-1.32349E-23
 -1       338 5.83490E-05-7.48865E-06-2.64698E-23
 -1       339 5.36427E-05-8.32275E-06 0.00000E+00
 -1       340 4.92510E-05-9.15634E-06 0.00000E+00
 -1       341 6.82482E-05-2.91782E-06 0.00000E+00
 -1       342 6.63239E-05-1.11735E-06-1.32349E-23
 -1       343 6.45256E-05 3.51533E-07 0.00000E+00
 -1       344 6.28720E-05 1.42938E-06 0.00000E+00
 -1       345 6.13719E-05 2.09912E-06 2.64698E-23
 -1       346 6.00265E-05 2.35592E-06 0.00000E+00
 -1       347 5.88219E-05 2.23779E-06 0.00000E+00
 -1       348 5.77392E-05 1.79482E-06 0.00000E+00
 -1       349 5.67468E-05 1.11088E-06 2.64698E-23
 -1       350 5.58106E-05 2.77709E-07-1.32349E-23
 -1       351 5.48905E-05-5.97949E-07 0.00000E+00
 -1       352 5.39474E-05-1.40742E-06 0.00000E+00
 -1       353 5.29418E-05-2.04971E-06 0.00000E+00
 -1       354 5.18458E-05-2.42569E-06 0.00000E+00
 -1       355 5.06222E-05-2.47054E-06-1.32349E-23
 -1       356 6.56753E-05-5.80365E-08 6.61744E-24
 -1       357 6.54917E-05 6.94112E-07 3.30872E-24
 -1       358 6.53079E-05 1.15794E-06 0.00000E+00
 -1       359 6.51253E-05 1.37536E-06-3.30872E-24
 -1       360 6.49427E-05 1.39201E-06-6.61744E-24
 -1       361 6.47603E-05 1.25457E-06-3.30872E-24
 -1       362 6.45779E-05 1.01202E-06-6.61744E-24
 -1       363 6.43956E-05 7.13918E-07 0.00000E+00
 -1       364 6.42134E-05 4.10614E-07-6.61744E-24
 -1       365 6.40313E-05 1.52515E-07 3.30872E-24
 -1       366 6.38493E-05-1.06598E-08-6.61744E-24
 -1       367 6.36682E-05-2.96865E-08-1.65436E-24
 -1       368 6.34871E-05 1.42501E-07 0.00000E+00
 -1       369 6.33099E-05 5.51969E-07 0.00000E+00
 -1       370 6.31313E-05 1.24127E-06 0.00000E+00
 -1       371 6.39551E-05-1.30637E-06 6.61744E-24
 -1       372 6.09246E-05-1.46963E-06 0.00000E+00
 -1       373 5.73575E-05-1.63477E-06 0.00000E+00
 -1       374 5.38406E-05-1.79705E-06-1.65436E-24
 -1       375 5.09600E-05-1.95785E-06 0.00000E+00
 -1       376 6.48680E-05-2.38533E-07-1.32349E-23
 -1       377 6.39589E-05 3.94823E-07 0.00000E+00
 -1       378 6.31394E-05 7.92021E-07 0.00000E+00
 -1       379 6.23951E-05 9.82641E-07-6.61744E-24
 -1       380 6.17123E-05 1.00960E-06 1.32349E-23
 -1       381 6.10736E-05 9.17825E-07 0.00000E+00
 -1       382 6.04600E-05 7.59228E-07 1.32349E-23
 -1       383 5.98515E-05 5.86766E-07-6.61744E-24
 -1       384 5.92280E-05 4.54265E-07 0.00000E+00
 -1       385 5.85699E-05 4.14909E-07-6.61744E-24
 -1       386 5.78590E-05 5.16321E-07 0.00000E+00
 -1       387 5.70793E-05 8.04011E-07-6.61744E-24
 -1       388 5.62169E-05 1.31246E-06 1.32349E-23
 -1       389 5.52655E-05 2.07467E-06 0.00000E+00
 -1       390 5.42111E-05 3.10455E-06 0.00000E+00
 -1       406 6.15832E-05 2.61553E-06 1.32349E-23
 -1       407 6.00488E-05 2.98081E-06 6.61744E-24
 -1       408 5.84002E-05 3.34600E-06 0.00000E+00
 -1       409 5.66687E-05 3.71025E-06-6.61744E-24
 -1       410 5.48859E-05 4.07243E-06 0.00000E+00
 -1       466 3.53792E-05 2.41260E-06 0.00000E+00
 -1       467 3.61596E-05 5.29151E-06 0.00000E+00
 -1       468 3.69414E-05 6.67335E-06-2.64698E-23
 -1       469 3.77301E-05 6.90423E-06 0.00000E+00
 -1       470 3.85190E-05 6.25408E-06 0.00000E+00
 -1       471 3.93085E-05 4.97290E-06 0.00000E+00
 -1       472 4.00976E-05 3.26873E-06 0.00000E+00
 -1       473 4.08865E-05 1.34010E-06 0.00000E+00
 -1       474 4.16752E-05-6.29499E-07 0.00000E+00
 -1       475 4.24640E-05-2.45741E-06-1.32349E-23
 -1       476 4.32530E-05-3.95157E-06-2.64698E-23
 -1       477 4.40410E-05-4.91242E-06 1.32349E-23
 -1       478 4.48289E-05-5.10490E-06 0.00000E+00
 -1       479 4.56081E-05-4.27657E-06 6.61744E-24
 -1       480 4.63878E-05-2.10755E-06 6.61744E-24
 -1       481 2.92748E-05-2.21293E-06-1.65436E-24
 -1       482 2.46952E-05-2.07125E-06 0.00000E+00
 -1       483 2.08318E-05-1.92709E-06 0.00000E+00
 -1       484 1.76193E-05-1.77980E-06-1.65436E-24
 -1       485 1.50009E-05-1.63063E-06 3.30872E-24
 -1       486 3.17845E-05 2.69900E-06-1.32349E-23
 -1       487 2.92191E-05 6.87772E-06-1.32349E-23
 -1       488 2.70140E-05 1.01133E-05 0.00000E+00
 -1       489 2.51859E-05 1.23339E-05-1.32349E-23
 -1       490 2.37342E-05 1.35566E-05 0.00000E+00
 -1       491 2.26414E-05 1.38217E-05 0.00000E+00
 -1       492 2.18626E-05 1.32494E-05-2.64698E-23
 -1       493 2.13442E-05 1.19812E-05 1.32349E-23
 -1       494 2.10114E-05 1.02163E-05 2.64698E-23
 -1       495 2.07850E-05 8.16698E-06 0.00000E+00
 -1       496 2.05768E-05 6.06887E-06 0.00000E+00
 -1       497 2.02994E-05 4.15921E-06 0.00000E+00
 -1       498 1.98691E-05 2.65914E-06 0.00000E+00
 -1       499 1.92119E-05 1.78127E-06-1.32349E-23
 -1       500 1.82605E-05 1.68249E-06 0.00000E+00
 -1       501 4.70052E-05 5.67679E-06 6.61744E-24
 -1       502 4.69093E-05 7.96885E-06 0.00000E+00
 -1       503 4.68150E-05 8.83228E-06 3.30872E-24
 -1       504 4.67229E-05 8.47411E-06 0.00000E+00
 -1       505 4.66301E-05 7.11068E-06 3.30872E-24
 -1       506 4.65364E-05 4.96094E-06-1.65436E-24
 -1       507 4.64414E-05 2.24982E-06-3.30872E-24
 -1       508 4.63456E-05-7.96384E-07-1.65436E-24
 -1       509 4.62494E-05-3.94876E-06-3.30872E-24
 -1       510 4.61536E-05-6.97812E-06 0.00000E+00
 -1       511 4.60587E-05-9.65630E-06 0.00000E+00
 -1       512 4.59648E-05-1.17560E-05 0.00000E+00
 -1       513 4.58720E-05-1.30541E-05 0.00000E+00
 -1       514 4.57785E-05-1.33300E-05 0.00000E+00
 -1       515 4.56850E-05-1.23704E-05 0.00000E+00
 -1       516 4.18551E-05 1.86464E-06 3.30872E-24
 -1       517 3.58370E-05 1.99200E-06 0.00000E+00
 -1       518 2.97007E-05 2.11742E-06 0.00000E+00
 -1       519 2.40842E-05 2.24710E-06 0.00000E+00
 -1       520 1.96319E-05 2.38315E-06 0.00000E+00
 -1       521 4.38164E-05 5.17101E-06 0.00000E+00
 -1       522 4.09613E-05 7.22658E-06 2.64698E-23
 -1       523 3.85848E-05 8.02230E-06 0.00000E+00
 -1       524 3.66291E-05 7.66873E-06 2.64698E-23
 -1       525 3.50432E-05 6.32633E-06 0.00000E+00
 -1       526 3.37559E-05 4.18021E-06-2.64698E-23
 -1       527 3.26878E-05 1.44592E-06 0.00000E+00
 -1       528 3.17520E-05-1.64467E-06 0.00000E+00
 -1       529 3.08577E-05-4.84638E-06 0.00000E+00
 -1       530 2.99125E-05-7.91084E-06 0.00000E+00
 -1       531 2.88259E-05-1.05949E-05-5.29396E-23
 -1       532 2.75123E-05-1.26659E-05 2.64698E-23
 -1       533 2.58917E-05-1.39143E-05-5.29396E-23
 -1       534 2.39023E-05-1.41511E-05 2.64698E-23
 -1       535 2.14749E-05-1.32313E-05-2.64698E-23
 -1       536 4.57860E-05-7.16455E-06 1.65436E-24
 -1       537 4.60157E-05-5.02496E-06 0.00000E+00
 -1       538 4.62456E-05-3.46656E-06 0.00000E+00
 -1       539 4.64799E-05-2.41079E-06 3.30872E-24
 -1       540 4.67149E-05-1.78118E-06-6.61744E-24
 -1       541 4.69508E-05-1.50266E-06 0.00000E+00
 -1       542 4.71869E-05-1.50156E-06 0.00000E+00
 -1       543 4.74231E-05-1.70515E-06-3.30872E-24
 -1       544 4.76593E-05-2.04153E-06 0.00000E+00
 -1       545 4.78954E-05-2.43922E-06-3.30872E-24
 -1       546 4.81316E-05-2.82702E-06 0.00000E+00
 -1       547 4.83675E-05-3.13366E-06 3.30872E-24
 -1       548 4.86033E-05-3.28758E-06 0.00000E+00
 -1       549 4.88377E-05-3.21669E-06 0.00000E+00
 -1       550 4.90724E-05-2.84799E-06 3.30872E-24
 -1       551 4.15424E-05-1.01414E-05-2.89513E-24
 -1       552 3.70887E-05-1.03126E-05-1.03398E-24
 -1       553 3.23930E-05-1.04836E-05-6.61744E-24
 -1       554 2.76325E-05-1.06557E-05 3.30872E-24
 -1       555 2.29848E-05-1.08303E-05 0.00000E+00
 -1       556 4.43511E-05-7.37500E-06 0.00000E+00
 -1       557 4.33384E-05-5.34546E-06 0.00000E+00
 -1       558 4.25173E-05-3.82109E-06 0.00000E+00
 -1       559 4.18638E-05-2.74045E-06 0.00000E+00
 -1       560 4.13543E-05-2.04185E-06 1.32349E-23
 -1       561 4.09651E-05-1.66300E-06 6.61744E-24
 -1       562 4.06726E-05-1.54149E-06 0.00000E+00
 -1       563 4.04533E-05-1.61482E-06-6.61744E-24
 -1       564 4.02837E-05-1.82042E-06 0.00000E+00
 -1       565 4.01402E-05-2.09569E-06 3.30872E-24
 -1       566 3.99994E-05-2.37802E-06-6.61744E-24
 -1       567 3.98378E-05-2.60478E-06 3.30872E-24
 -1       568 3.96322E-05-2.71338E-06 2.48154E-24
 -1       569 3.93596E-05-2.64135E-06 1.44757E-24
 -1       570 3.89972E-05-2.32629E-06 1.65436E-24
 -1       571 4.95243E-05-1.41300E-06 2.06795E-24
 -1       572 4.97583E-05-9.21191E-07 1.86116E-24
 -1       573 4.99947E-05-5.98471E-07 4.96308E-24
 -1       574 5.02322E-05-4.09417E-07 0.00000E+00
 -1       575 5.04702E-05-3.18490E-07 6.61744E-24
 -1       576 5.07083E-05-2.89950E-07 0.00000E+00
 -1       577 5.09465E-05-2.88051E-07 6.61744E-24
 -1       578 5.11848E-05-2.77024E-07 0.00000E+00
 -1       579 5.14231E-05-2.21098E-07 1.32349E-23
 -1       580 5.16613E-05-8.44934E-08 0.00000E+00
 -1       581 5.18995E-05 1.68569E-07 0.00000E+00
 -1       582 5.21376E-05 5.73862E-07 0.00000E+00
 -1       583 5.23754E-05 1.16714E-06 0.00000E+00
 -1       584 5.26127E-05 1.98390E-06 0.00000E+00
 -1       585 5.28492E-05 3.05949E-06 0.00000E+00
 -1       586 4.77296E-05-2.03961E-06 0.00000E+00
 -1       587 4.59236E-05-1.97077E-06 0.00000E+00
 -1       588 4.39895E-05-1.90202E-06-1.65436E-24
 -1       589 4.20385E-05-1.83396E-06 0.00000E+00
 -1       590 4.01815E-05-1.76738E-06 0.00000E+00
 -1       591 4.88698E-05-1.33266E-06 0.00000E+00
 -1       592 4.84827E-05-6.92564E-07 0.00000E+00
 -1       593 4.81363E-05-1.65768E-07 0.00000E+00
 -1       594 4.78238E-05 2.68364E-07-3.30872E-24
 -1       595 4.75380E-05 6.30450E-07 0.00000E+00
 -1       596 4.72714E-05 9.41060E-07 0.00000E+00
 -1       597 4.70164E-05 1.22074E-06-3.30872E-24
 -1       598 4.67652E-05 1.49005E-06 0.00000E+00
 -1       599 4.65102E-05 1.76954E-06 3.30872E-24
 -1       600 4.62437E-05 2.07974E-06 0.00000E+00
 -1       601 4.59581E-05 2.44121E-06 3.30872E-24
 -1       602 4.56456E-05 2.87450E-06 1.24077E-24
 -1       603 4.52988E-05 3.40018E-06-1.44757E-24
 -1       604 4.49107E-05 4.03889E-06-4.13590E-25
 -1       605 4.44747E-05 4.81130E-06 0.00000E+00
 -1       606 5.31491E-05 6.22555E-06 6.61744E-24
 -1       607 5.32095E-05 8.18350E-06 0.00000E+00
 -1       608 5.32680E-05 1.02914E-05 0.00000E+00
 -1       609 5.33256E-05 1.25388E-05 3.30872E-24
 -1       610 5.33826E-05 1.49151E-05 0.00000E+00
 -1       611 5.34393E-05 1.74094E-05 0.00000E+00
 -1       612 5.34956E-05 2.00110E-05 0.00000E+00
 -1       613 5.35517E-05 2.27092E-05 0.00000E+00
 -1       614 5.36075E-05 2.54931E-05 0.00000E+00
 -1       615 5.36632E-05 2.83519E-05 0.00000E+00
 -1       616 5.37186E-05 3.12749E-05 0.00000E+00
 -1       617 5.37739E-05 3.42513E-05 0.00000E+00
 -1       618 5.38291E-05 3.72702E-05 3.30872E-24
 -1       619 5.38841E-05 4.03210E-05 3.30872E-24
 -1       620 5.39390E-05 4.33929E-05 0.00000E+00
 -1       621 5.13672E-05 4.64587E-06-6.61744E-24
 -1       622 4.97062E-05 4.86633E-06 0.00000E+00
 -1       623 4.81194E-05 5.08701E-06 0.00000E+00
 -1       624 4.66255E-05 5.30724E-06-3.30872E-24
 -1       625 4.52434E-05 5.52622E-06 1.65436E-24
 -1       626 5.25130E-05 6.29376E-06 0.00000E+00
 -1       627 5.18762E-05 8.32742E-06 6.61744E-24
 -1       628 5.11812E-05 1.05129E-05 0.00000E+00
 -1       629 5.04350E-05 1.28331E-05 0.00000E+00
 -1       630 4.96443E-05 1.52708E-05 0.00000E+00
 -1       631 4.88157E-05 1.78085E-05-6.61744E-24
 -1       632 4.79560E-05 2.04287E-05 0.00000E+00
 -1       633 4.70716E-05 2.31139E-05 0.00000E+00
 -1       634 4.61693E-05 2.58468E-05-3.30872E-24
 -1       635 4.52556E-05 2.86097E-05 0.00000E+00
 -1       636 4.43371E-05 3.13853E-05 0.00000E+00
 -1       637 4.34203E-05 3.41559E-05 0.00000E+00
 -1       638 4.25118E-05 3.69042E-05-1.65436E-24
 -1       639 4.16179E-05 3.96126E-05 1.65436E-24
 -1       640 4.07444E-05 4.22636E-05 1.24077E-24
 -1       641 5.39936E-05 4.97076E-05 8.27181E-25
 -1       642 5.39906E-05 5.33099E-05 0.00000E+00
 -1       643 5.39865E-05 5.72306E-05 0.00000E+00
 -1       644 5.39811E-05 6.14188E-05-1.03398E-25
 -1       645 5.39747E-05 6.58234E-05 1.03398E-25
 -1       646 5.39676E-05 7.03933E-05 5.16988E-26
 -1       647 5.39599E-05 7.50775E-05 0.00000E+00
 -1       648 5.39519E-05 7.98252E-05 2.58494E-26
 -1       649 5.39439E-05 8.45852E-05-5.16988E-26
 -1       650 5.39359E-05 8.93067E-05 1.61559E-27
 -1       651 5.39283E-05 9.39387E-05-1.03398E-25
 -1       652 5.39211E-05 9.84302E-05-1.03398E-25
 -1       653 5.39147E-05 1.02730E-04 0.00000E+00
 -1       654 5.39079E-05 1.06788E-04 0.00000E+00
 -1       655 5.39027E-05 1.10551E-04-3.30872E-24
 -1       656 5.11790E-05 4.62101E-05-3.30872E-24
 -1       657 4.87187E-05 4.59330E-05 3.30872E-24
 -1       658 4.64870E-05 4.56571E-05 6.61744E-24
 -1       659 4.43571E-05 4.53812E-05 3.30872E-24
 -1       660 4.22020E-05 4.51045E-05 3.30872E-24
 -1       661 5.31007E-05 4.98056E-05-6.61744E-24
 -1       662 5.21013E-05 5.34531E-05-3.30872E-24
 -1       663 5.10010E-05 5.73653E-05 6.61744E-24
 -1       664 4.98195E-05 6.14972E-05-6.61744E-24
 -1       665 4.85720E-05 6.58035E-05-1.32349E-23
 -1       666 4.72752E-05 7.02405E-05 6.61744E-24
 -1       667 4.59451E-05 7.47655E-05-1.32349E-23
 -1       668 4.45978E-05 7.93360E-05 0.00000E+00
 -1       669 4.32491E-05 8.39099E-05 1.32349E-23
 -1       670 4.19150E-05 8.84452E-05-6.61744E-24
 -1       671 4.06116E-05 9.28997E-05 0.00000E+00
 -1       672 3.93545E-05 9.72303E-05 0.00000E+00
 -1       673 3.81607E-05 1.01394E-04-6.61744E-24
 -1       674 3.70444E-05 1.05345E-04 0.00000E+00
 -1       675 3.60263E-05 1.09039E-04 0.00000E+00
 -1       676 5.06824E-05 1.13714E-04 0.00000E+00
 -1       677 4.75203E-05 1.13453E-04 3.30872E-24
 -1       678 4.43935E-05 1.13193E-04 0.00000E+00
 -1       679 4.12903E-05 1.12934E-04 0.00000E+00
 -1       680 3.81986E-05 1.12674E-04 6.61744E-24
 -1       681 1.31706E-05 6.31856E-08 6.61744E-24
 -1       682 1.34261E-05 1.09544E-06 0.00000E+00
 -1       683 1.36816E-05 1.69786E-06-6.61744E-24
 -1       684 1.39385E-05 1.95071E-06 3.30872E-24
 -1       685 1.41954E-05 1.92674E-06-6.61744E-24
 -1       686 1.44526E-05 1.69671E-06-3.30872E-24
 -1       687 1.47097E-05 1.32697E-06 0.00000E+00
 -1       688 1.49669E-05 8.82842E-07 0.00000E+00
 -1       689 1.52240E-05 4.28036E-07 6.61744E-24
 -1       690 1.54810E-05 2.62078E-08 3.30872E-24
 -1       691 1.57380E-05-2.57857E-07-6.61744E-24
 -1       692 1.59943E-05-3.58520E-07-3.30872E-24
 -1       693 1.62505E-05-2.06215E-07-6.61744E-24
 -1       694 1.65035E-05 2.70476E-07-1.65436E-24
 -1       695 1.67571E-05 1.14988E-06 1.65436E-24
 -1       696 1.09462E-05-1.24136E-06 0.00000E+00
 -1       697 8.70348E-06-9.94551E-07 3.30872E-24
 -1       698 6.34100E-06-7.48317E-07 0.00000E+00
 -1       699 4.00492E-06-5.00325E-07 0.00000E+00
 -1       700 1.84197E-06-2.52060E-07 0.00000E+00
 -1       701 1.20450E-05 8.08430E-08-3.30872E-24
 -1       702 1.12698E-05 1.32739E-06 0.00000E+00
 -1       703 1.06054E-05 2.28252E-06-6.61744E-24
 -1       704 1.00399E-05 2.96641E-06 0.00000E+00
 -1       705 9.56509E-06 3.40860E-06 0.00000E+00
 -1       706 9.16912E-06 3.63947E-06-3.30872E-24
 -1       707 8.83880E-06 3.69525E-06 0.00000E+00
 -1       708 8.56001E-06 3.61342E-06-3.30872E-24
 -1       709 8.31741E-06 3.43509E-06-6.61744E-24
 -1       710 8.09536E-06 3.20216E-06 3.30872E-24
 -1       711 7.87761E-06 2.95791E-06-6.61744E-24
 -1       712 7.64832E-06 2.74588E-06-3.30872E-24
 -1       713 7.39110E-06 2.60849E-06-6.61744E-24
 -1       714 7.09277E-06 2.58864E-06 0.00000E+00
 -1       715 6.73520E-06 2.72392E-06-3.30872E-24
 -1       716 1.70864E-05 3.59515E-06-8.27181E-25
 -1       717 1.71916E-05 3.66031E-06 0.00000E+00
 -1       718 1.72960E-05 2.87921E-06 0.00000E+00
 -1       719 1.74017E-05 1.41971E-06 0.00000E+00
 -1       720 1.75066E-05-5.56387E-07 3.30872E-24
 -1       721 1.76112E-05-2.88877E-06-1.65436E-24
 -1       722 1.77154E-05-5.42031E-06 0.00000E+00
 -1       723 1.78195E-05-7.99455E-06 0.00000E+00
 -1       724 1.79239E-05-1.04553E-05 0.00000E+00
 -1       725 1.80287E-05-1.26462E-05 1.65436E-24
 -1       726 1.81342E-05-1.44083E-05 3.30872E-24
 -1       727 1.82397E-05-1.55814E-05 0.00000E+00
 -1       728 1.83456E-05-1.60001E-05-1.65436E-24
 -1       729 1.84471E-05-1.54967E-05 4.13590E-25
 -1       730 1.85488E-05-1.38955E-05 6.61744E-24
 -1       731 1.51741E-05 2.59452E-06 0.00000E+00
 -1       732 1.30416E-05 2.68587E-06 0.00000E+00
 -1       733 1.08424E-05 2.77649E-06-1.65436E-24
 -1       734 8.82342E-06 2.86938E-06 1.65436E-24
 -1       735 7.23279E-06 2.96314E-06 0.00000E+00
 -1       736 1.57654E-05 3.68001E-06 1.32349E-23
 -1       737 1.46641E-05 4.44288E-06 6.61744E-24
 -1       738 1.37190E-05 4.79438E-06 0.00000E+00
 -1       739 1.29274E-05 4.72482E-06 1.32349E-23
 -1       740 1.22853E-05 4.25655E-06 0.00000E+00
 -1       741 1.17807E-05 3.41878E-06 0.00000E+00
 -1       742 1.13938E-05 2.26645E-06 0.00000E+00
 -1       743 1.11014E-05 8.60928E-07 0.00000E+00
 -1       744 1.08742E-05-7.18975E-07-2.64698E-23
 -1       745 1.06814E-05-2.39071E-06 0.00000E+00
 -1       746 1.04898E-05-4.06557E-06 0.00000E+00
 -1       747 1.02668E-05-5.65449E-06 0.00000E+00
 -1       748 9.98098E-06-7.07472E-06-2.64698E-23
 -1       749 9.60599E-06-8.24564E-06 0.00000E+00
 -1       750 9.11357E-06-9.10659E-06 0.00000E+00
 -1       751 1.97949E-05-7.95927E-06 0.00000E+00
 -1       752 2.10376E-05-5.80160E-06-1.32349E-23
 -1       753 2.22777E-05-4.34063E-06-2.64698E-23
 -1       754 2.35312E-05-3.39823E-06 1.32349E-23
 -1       755 2.47856E-05-2.85137E-06-2.64698E-23
 -1       756 2.60426E-05-2.59132E-06 0.00000E+00
 -1       757 2.73001E-05-2.53998E-06 0.00000E+00
 -1       758 2.85579E-05-2.62675E-06 0.00000E+00
 -1       759 2.98158E-05-2.79583E-06-5.29396E-23
 -1       760 3.10734E-05-2.99437E-06-1.32349E-23
 -1       761 3.23308E-05-3.17266E-06 2.64698E-23
 -1       762 3.35862E-05-3.28029E-06 0.00000E+00
 -1       763 3.48411E-05-3.25927E-06 0.00000E+00
 -1       764 3.60861E-05-3.04698E-06-1.32349E-23
 -1       765 3.73340E-05-2.56048E-06 1.32349E-23
 -1       766 1.54086E-05-1.08038E-05 0.00000E+00
 -1       767 1.28444E-05-1.05603E-05 8.27181E-25
 -1       768 1.08968E-05-1.03173E-05-3.30872E-24
 -1       769 9.53576E-06-1.00715E-05 0.00000E+00
 -1       770 8.74296E-06-9.82371E-06 0.00000E+00
 -1       771 1.66373E-05-8.09599E-06 2.64698E-23
 -1       772 1.48056E-05-5.62953E-06 0.00000E+00
 -1       773 1.31296E-05-3.58455E-06-2.64698E-23
 -1       774 1.15983E-05-1.92784E-06 0.00000E+00
 -1       775 1.02003E-05-6.26092E-07 0.00000E+00
 -1       776 8.92311E-06 3.54330E-07 0.00000E+00
 -1       777 7.75402E-06 1.04720E-06 0.00000E+00
 -1       778 6.68026E-06 1.48651E-06 1.32349E-23
 -1       779 5.68898E-06 1.70635E-06-2.64698E-23
 -1       780 4.76730E-06 1.74103E-06 0.00000E+00
 -1       781 3.90233E-06 1.62491E-06 0.00000E+00
 -1       782 3.08127E-06 1.39256E-06 0.00000E+00
 -1       783 2.29136E-06 1.07856E-06 0.00000E+00
 -1       784 1.52067E-06 7.17902E-07 1.32349E-23
 -1       785 7.57599E-07 3.45653E-07 0.00000E+00
 -1       786 3.88512E-05-7.63440E-07 0.00000E+00
 -1       787 3.91922E-05-2.12548E-08-3.30872E-24
 -1       788 3.95328E-05 5.50863E-07 0.00000E+00
 -1       789 3.98763E-05 9.83241E-07 6.61744E-24
 -1       790 4.02201E-05 1.30539E-06 0.00000E+00
 -1       791 4.05645E-05 1.54629E-06 0.00000E+00
 -1       792 4.09090E-05 1.73444E-06-1.32349E-23
 -1       793 4.12536E-05 1.89809E-06-6.61744E-24
 -1       794 4.15982E-05 2.06532E-06-1.32349E-23
 -1       795 4.19428E-05 2.26426E-06 6.61744E-24
 -1       796 4.22873E-05 2.52321E-06 1.32349E-23
 -1       797 4.26314E-05 2.87076E-06 0.00000E+00
 -1       798 4.29753E-05 3.33602E-06 0.00000E+00
 -1       799 4.33173E-05 3.94869E-06-3.30872E-24
 -1       800 4.36596E-05 4.73933E-06 0.00000E+00
 -1       801 3.48994E-05-1.41264E-06 0.00000E+00
 -1       802 2.75916E-05-1.12131E-06 0.00000E+00
 -1       803 1.85286E-05-8.43641E-07-6.61744E-24
 -1       804 9.62848E-06-5.67498E-07-1.65436E-24
 -1       805 2.80989E-06-2.75765E-07 3.30872E-24
 -1       806 3.78867E-05-8.57149E-07 6.61744E-24
 -1       807 3.72671E-05-9.38050E-08 0.00000E+00
 -1       808 3.66710E-05 6.00139E-07 0.00000E+00
 -1       809 3.60939E-05 1.23998E-06 0.00000E+00
 -1       810 3.55311E-05 1.84092E-06 0.00000E+00
 -1       811 3.49770E-05 2.41805E-06 3.30872E-24
 -1       812 3.44261E-05 2.98641E-06-6.61744E-24
 -1       813 3.38728E-05 3.56105E-06 0.00000E+00
 -1       814 3.33115E-05 4.15701E-06-6.61744E-24
 -1       815 3.27366E-05 4.78931E-06 3.30872E-24
 -1       816 3.21424E-05 5.47297E-06 6.61744E-24
 -1       817 3.15235E-05 6.22304E-06-3.30872E-24
 -1       818 3.08744E-05 7.05453E-06 6.61744E-24
 -1       819 3.01902E-05 7.98259E-06 1.65436E-24
 -1       820 2.94666E-05 9.02241E-06 0.00000E+00
 -1       821 4.37510E-05 7.01303E-06 0.00000E+00
 -1       822 4.34967E-05 8.58209E-06 0.00000E+00
 -1       823 4.32425E-05 1.04192E-05-6.61744E-24
 -1       824 4.29855E-05 1.24960E-05 0.00000E+00
 -1       825 4.27279E-05 1.47832E-05 6.61744E-24
 -1       826 4.24694E-05 1.72505E-05 0.00000E+00
 -1       827 4.22104E-05 1.98670E-05 0.00000E+00
 -1       828 4.19511E-05 2.26013E-05 0.00000E+00
 -1       829 4.16915E-05 2.54214E-05-6.61744E-24
 -1       830 4.14319E-05 2.82949E-05 3.30872E-24
 -1       831 4.11723E-05 3.11894E-05 0.00000E+00
 -1       832 4.09130E-05 3.40722E-05 0.00000E+00
 -1       833 4.06540E-05 3.69108E-05 0.00000E+00
 -1       834 4.03972E-05 3.96728E-05 0.00000E+00
 -1       835 4.01401E-05 4.23261E-05-3.30872E-24
 -1       836 4.22630E-05 6.46712E-06 0.00000E+00
 -1       837 3.96426E-05 7.22008E-06 0.00000E+00
 -1       838 3.65554E-05 7.97019E-06 1.32349E-23
 -1       839 3.34226E-05 8.71908E-06 0.00000E+00
 -1       840 3.06646E-05 9.47072E-06 0.00000E+00
 -1       841 4.33924E-05 6.97772E-06 0.00000E+00
 -1       842 4.26635E-05 8.53659E-06 0.00000E+00
 -1       843 4.18245E-05 1.03892E-05-3.30872E-24
 -1       844 4.08850E-05 1.25035E-05 0.00000E+00
 -1       845 3.98595E-05 1.48456E-05-3.30872E-24
 -1       846 3.87610E-05 1.73801E-05 0.00000E+00
 -1       847 3.76040E-05 2.00695E-05 0.00000E+00
 -1       848 3.64028E-05 2.28755E-05 0.00000E+00
 -1       849 3.51725E-05 2.57586E-05 0.00000E+00
 -1       850 3.39281E-05 2.86786E-05 0.00000E+00
 -1       851 3.26850E-05 3.15954E-05 3.30872E-24
 -1       852 3.14586E-05 3.44684E-05-1.65436E-24
 -1       853 3.02637E-05 3.72579E-05 0.00000E+00
 -1       854 2.91156E-05 3.99245E-05 0.00000E+00
 -1       855 2.80284E-05 4.24298E-05-3.30872E-24
 -1       856 3.96135E-05 4.75493E-05 3.30872E-24
 -1       857 3.93182E-05 5.07724E-05 3.30872E-24
 -1       858 3.90218E-05 5.44462E-05-6.61744E-24
 -1       859 3.87218E-05 5.85062E-05 0.00000E+00
 -1       860 3.84204E-05 6.28862E-05-6.61744E-24
 -1       861 3.81175E-05 6.75185E-05-3.30872E-24
 -1       862 3.78136E-05 7.23345E-05-6.61744E-24
 -1       863 3.75092E-05 7.72643E-05-3.30872E-24
 -1       864 3.72045E-05 8.22378E-05 0.00000E+00
 -1       865 3.69000E-05 8.71847E-05 0.00000E+00
 -1       866 3.65960E-05 9.20348E-05 0.00000E+00
 -1       867 3.62931E-05 9.67180E-05 0.00000E+00
 -1       868 3.59913E-05 1.01166E-04 0.00000E+00
 -1       869 3.56921E-05 1.05309E-04 3.30872E-24
 -1       870 3.53941E-05 1.09083E-04 0.00000E+00
 -1       871 3.76227E-05 4.48243E-05 0.00000E+00
 -1       872 3.54410E-05 4.48083E-05 0.00000E+00
 -1       873 3.33200E-05 4.47921E-05 1.65436E-24
 -1       874 3.12294E-05 4.47753E-05 0.00000E+00
 -1       875 2.91387E-05 4.47579E-05-8.27181E-25
 -1       876 3.92294E-05 4.76508E-05 0.00000E+00
 -1       877 3.84063E-05 5.09235E-05-3.30872E-24
 -1       878 3.74343E-05 5.45876E-05 0.00000E+00
 -1       879 3.63396E-05 5.85824E-05 0.00000E+00
 -1       880 3.51424E-05 6.28477E-05 1.32349E-23
 -1       881 3.38650E-05 6.73257E-05 0.00000E+00
 -1       882 3.25282E-05 7.19601E-05-1.32349E-23
 -1       883 3.11532E-05 7.66955E-05-6.61744E-24
 -1       884 2.97605E-05 8.14771E-05-1.32349E-23
 -1       885 2.83710E-05 8.62505E-05 6.61744E-24
 -1       886 2.70051E-05 9.09613E-05 0.00000E+00
 -1       887 2.56833E-05 9.55544E-05 0.00000E+00
 -1       888 2.44271E-05 9.99744E-05 1.32349E-23
 -1       889 2.32555E-05 1.04164E-04 0.00000E+00
 -1       890 2.21938E-05 1.08065E-04 0.00000E+00
 -1       891 3.23827E-05 1.12286E-04 0.00000E+00
 -1       892 3.01975E-05 1.12151E-04 1.65436E-24
 -1       893 2.82714E-05 1.12015E-04 0.00000E+00
 -1       894 2.63242E-05 1.11881E-04 0.00000E+00
 -1       895 2.40759E-05 1.11745E-04-1.65436E-24
 -1       896 3.92219E-07 1.44388E-06 0.00000E+00
 -1       897 7.87976E-07 2.48778E-06 6.61744E-24
 -1       898 1.18385E-06 3.19539E-06 1.32349E-23
 -1       899 1.58044E-06 3.62664E-06 0.00000E+00
 -1       900 1.97712E-06 3.83227E-06-1.32349E-23
 -1       901 2.37393E-06 3.86052E-06 0.00000E+00
 -1       902 2.77074E-06 3.75373E-06-1.32349E-23
 -1       903 3.16755E-06 3.55271E-06 6.61744E-24
 -1       904 3.56432E-06 3.29515E-06 0.00000E+00
 -1       905 3.96100E-06 3.01811E-06 0.00000E+00
 -1       906 4.35761E-06 2.75802E-06 0.00000E+00
 -1       907 4.75379E-06 2.55146E-06 6.61744E-24
 -1       908 5.14986E-06 2.43681E-06-1.32349E-23
 -1       909 5.54363E-06 2.45349E-06 0.00000E+00
 -1       910 5.93809E-06 2.64525E-06 0.00000E+00
 -1       911 6.45614E-06 3.38561E-06-3.30872E-24
 -1       912 6.59454E-06 3.32610E-06-1.65436E-24
 -1       913 6.73276E-06 2.93496E-06 0.00000E+00
 -1       914 6.87123E-06 2.26657E-06 0.00000E+00
 -1       915 7.00954E-06 1.37211E-06 3.30872E-24
 -1       916 7.14776E-06 3.01870E-07-1.65436E-24
 -1       917 7.28584E-06-8.95859E-07 0.00000E+00
 -1       918 7.42382E-06-2.17333E-06 0.00000E+00
 -1       919 7.56174E-06-3.48369E-06 3.30872E-24
 -1       920 7.69957E-06-4.78019E-06-1.65436E-24
 -1       921 7.83739E-06-6.01599E-06 3.30872E-24
 -1       922 7.97480E-06-7.14396E-06 1.65436E-24
 -1       923 8.11224E-06-8.11571E-06 0.00000E+00
 -1       924 8.24717E-06-8.88231E-06-8.27181E-25
 -1       925 8.38308E-06-9.39242E-06-1.65436E-24
 -1       926 7.98665E-06-9.53772E-06 1.32349E-23
 -1       927 7.45610E-06-9.29768E-06-6.61744E-24
 -1       928 6.92622E-06-8.88790E-06 0.00000E+00
 -1       929 6.39393E-06-8.32531E-06-6.61744E-24
 -1       930 5.86145E-06-7.63348E-06-1.32349E-23
 -1       931 5.32845E-06-6.83795E-06-6.61744E-24
 -1       932 4.79531E-06-5.96875E-06 0.00000E+00
 -1       933 4.26204E-06-5.05705E-06 0.00000E+00
 -1       934 3.72875E-06-4.13588E-06 1.32349E-23
 -1       935 3.19547E-06-3.23838E-06-6.61744E-24
 -1       936 2.66224E-06-2.39668E-06 1.32349E-23
 -1       937 2.12913E-06-1.64207E-06 0.00000E+00
 -1       938 1.59612E-06-1.00203E-06 0.00000E+00
 -1       939 1.06350E-06-5.02317E-07 0.00000E+00
 -1       940 5.30846E-07-1.62573E-07 0.00000E+00
 -1       941 1.70196E-06 1.39719E-07 0.00000E+00
 -1       942 3.49743E-06 4.00921E-07 0.00000E+00
 -1       943 5.28767E-06 7.53958E-07 0.00000E+00
 -1       944 7.09499E-06 1.17407E-06 2.64698E-23
 -1       945 8.90315E-06 1.64688E-06 0.00000E+00
 -1       946 1.07146E-05 2.16077E-06-2.64698E-23
 -1       947 1.25266E-05 2.71051E-06 0.00000E+00
 -1       948 1.43391E-05 3.29276E-06 2.64698E-23
 -1       949 1.61516E-05 3.90923E-06 5.29396E-23
 -1       950 1.79637E-05 4.56342E-06 2.64698E-23
 -1       951 1.97754E-05 5.26472E-06 0.00000E+00
 -1       952 2.15843E-05 6.02496E-06 0.00000E+00
 -1       953 2.33924E-05 6.86517E-06-5.29396E-23
 -1       954 2.51864E-05 7.81052E-06 0.00000E+00
 -1       955 2.69846E-05 8.90256E-06 2.64698E-23
 -1       956 2.86030E-05 1.17097E-05 4.13590E-25
 -1       957 2.84986E-05 1.33768E-05-8.27181E-25
 -1       958 2.83938E-05 1.51791E-05-1.65436E-24
 -1       959 2.82886E-05 1.71034E-05 1.55096E-24
 -1       960 2.81831E-05 1.91361E-05-2.99853E-24
 -1       961 2.80774E-05 2.12634E-05-1.65436E-24
 -1       962 2.79716E-05 2.34719E-05-2.48154E-24
 -1       963 2.78656E-05 2.57477E-05 8.27181E-25
 -1       964 2.77595E-05 2.80772E-05-3.30872E-24
 -1       965 2.76533E-05 3.04467E-05 0.00000E+00
 -1       966 2.75470E-05 3.28425E-05-3.30872E-24
 -1       967 2.74408E-05 3.52509E-05-1.65436E-24
 -1       968 2.73345E-05 3.76582E-05 3.30872E-24
 -1       969 2.72285E-05 4.00507E-05 1.65436E-24
 -1       970 2.71227E-05 4.24149E-05 3.30872E-24
 -1       971 2.66737E-05 4.72706E-05 0.00000E+00
 -1       972 2.63166E-05 5.03276E-05 0.00000E+00
 -1       973 2.59585E-05 5.38488E-05 0.00000E+00
 -1       974 2.55971E-05 5.77720E-05 0.00000E+00
 -1       975 2.52342E-05 6.20326E-05 1.32349E-23
 -1       976 2.48698E-05 6.65642E-05 6.61744E-24
 -1       977 2.45045E-05 7.12992E-05 0.00000E+00
 -1       978 2.41384E-05 7.61684E-05 0.00000E+00
 -1       979 2.37721E-05 8.11021E-05 1.32349E-23
 -1       980 2.34059E-05 8.60304E-05 0.00000E+00
 -1       981 2.30401E-05 9.08830E-05-1.32349E-23
 -1       982 2.26753E-05 9.55905E-05-6.61744E-24
 -1       983 2.23118E-05 1.00084E-04 0.00000E+00
 -1       984 2.19515E-05 1.04296E-04 0.00000E+00
 -1       985 2.15922E-05 1.08160E-04-6.61744E-24
 -3
    1PSTEP                         2           1           1          
  100CL  101 1.000000000         841                     0    1           1
 -4  STRESS      6    1
 -5  SXX         1    4    1    1
 -5  SYY         1    4    2    2
 -5  SZZ         1    4    3    3
 -5  SXY         1    4    1    2
 -5  SYZ         1    4    2    3
 -5  SZX         1    4    3    1
 -1         1-3.65270E+06-1.13921E+06-7.10572E+05-1.07469E+06-2.57084E-10-3.18202E-09
 -1         2-2.37366E+06-6.40878E+04 3.32999E+03-2.35286E+05-6.00267E-11 3.65253E-09
 -1         3-1.18976E+06-5.90546E+05 2.69072E+04-1.06742E+05-1.07639E-09 3.64253E-09
 -1         4-5.13373E+05-1.65292E+05 6.86287E+02-5.95811E+04 2.27033E-10-3.25144E-09
 -1         5-1.83288E+05 3.68960E+05-1.59410E+05-1.78779E+04 2.87400E-09 4.83192E-09
 -1         8-2.02226E+06-8.14045E+05-3.19137E+05-8.86744E+05 4.40195E-10 3.17959E-09
 -1         9-2.26861E+06-4.83945E+05-3.26333E+05-5.31406E+05-7.56700E-10 3.87081E-09
 -1        10-1.22747E+06-8.78648E+05 1.31643E+04-3.34941E+05-2.77847E-09 4.87671E-09
 -1        11-6.48980E+05-2.53699E+05 2.95065E+02-1.77174E+05 2.95646E-09 9.22228E-10
 -1        12-3.23980E+05 3.15628E+05-1.91005E+05-8.55230E+04 1.71576E-09 1.18607E-09
 -1        15 1.16745E+04-6.42322E+04 3.88036E+03-2.40387E+05 7.27596E-11-1.74623E-09
 -1        16-1.34369E+06-3.49916E+05-1.42492E+05-5.78274E+05-5.67525E-10-2.83641E-09
 -1        17-8.67201E+05-7.09664E+05-1.41865E+05-4.90670E+05-4.91127E-09-7.97930E-10
 -1        18-3.29759E+05-2.22329E+05-1.34905E+05-3.11732E+05-7.33659E-11 5.16108E-09
 -1        19-6.56933E+04 1.60384E+05-8.84084E+04-9.93754E+04-6.73026E-10 2.40107E-10
 -1        20 1.98899E+05-1.34125E+05-1.62545E+04 9.86994E+04 5.71072E-09-5.22050E-10
 -1        21-2.13893E+04-3.09140E+05 2.83763E+04 8.66043E+03 2.41889E-08-1.90041E-09
 -1        22 4.16172E+04 2.38887E+05 1.40662E+03-5.49141E+04-9.09495E-13-1.28966E-09
 -1        23-4.41276E+05-1.97863E+04 3.65241E+03-2.46212E+05 1.30361E-10-1.18113E-09
 -1        24-3.06414E+05-1.81013E+04 1.99909E+05-5.17883E+05-2.40349E-09-2.32831E-10
 -1        25 6.73992E+05 3.10237E+05 2.37710E+05-3.56577E+05 5.02041E-10 3.96540E-10
 -1        26 3.17917E+04 4.04081E+05 4.00490E+04-8.24158E+04 1.16658E-09-1.10170E-09
 -1        27-1.12620E+05-1.26227E+05-5.62689E+04 1.11144E+05 1.63642E-08-4.05998E-09
 -1        28-3.27059E+04-2.20800E+05-1.78539E+03 9.99340E+04 2.13693E-08 1.62099E-09
 -1        29 5.45614E+05 3.82622E+05 1.52254E+03-2.22974E+04-1.54969E-10-3.54339E-09
 -1        30 2.08892E+05 5.13784E+04 2.14124E+03-6.42523E+04 3.53139E-10 5.02041E-10
 -1        31-6.63225E+05 5.54275E+04 4.54875E+03-1.45776E+05 3.89090E-09-1.34605E-10
 -1        32 6.39104E+05 5.31829E+05 5.12397E+05-4.11998E+05 3.13815E-10 4.47471E-09
 -1        33 1.24667E+06 8.37161E+05 4.58740E+05-1.06729E+05-7.12528E-09-7.15772E-10
 -1        34-4.04532E+05-8.10929E+04-5.04842E+04 2.90018E+04 1.33942E-08-1.84264E-09
 -1        35-5.15483E+04-7.05251E+04-1.51587E+03 1.42601E+05 2.36072E-08-1.69772E-09
 -1        36-5.13116E+06 1.39440E+05-3.49886E+05 3.68236E-08-6.44850E-10-4.32192E-09
 -1        37-5.27801E+06-1.62589E+05-2.43307E+05 1.17930E-07-2.57832E-10-2.67755E-09
 -1        38-5.18866E+06 2.02922E+04-9.06345E+04-1.15134E-07 6.58118E-10 2.35377E-09
 -1        39-5.21115E+06-2.36158E+04-5.55277E+04-7.71279E-08 1.57416E-10-9.62063E-09
 -1        40-5.19749E+06 2.94775E+03-2.32408E+04-4.96156E-08-9.48821E-10-1.65528E-09
 -1        41-5.20078E+06-3.45699E+03-1.35347E+04 3.95119E-09-1.09881E-09-1.08093E-09
 -1        42-5.19887E+06 4.65874E+02-6.78058E+03-1.13278E-07-6.28553E-10-7.31166E-09
 -1        43-5.19931E+06-8.28220E+02-5.29349E+03-2.54258E-08 1.47397E-09-4.43657E-09
 -1        44-5.19894E+06 3.56451E+02-5.47611E+03-6.39552E-08-8.36026E-11-5.12830E-09
 -1        45-5.20019E+06-2.45115E+03-9.84614E+03-3.76520E-08 1.65078E-09 2.43244E-09
 -1        46-5.19800E+06 2.06447E+03-1.64265E+04 3.27776E-09 1.21062E-10 3.83716E-09
 -1        47-5.20742E+06-1.65097E+04-3.89030E+04-1.62005E-07 8.32446E-11 6.54245E-09
 -1        48-5.19183E+06 1.41820E+04-6.33961E+04-2.18772E-08-1.58833E-10 1.44428E-09
 -1        49-5.25414E+06-1.13634E+05-1.70075E+05 1.73783E-07-1.90624E-10 5.16229E-09
 -1        50-5.15168E+06 9.74423E+04-2.44656E+05-5.13955E-09-1.72675E-09 2.45927E-09
 -1        51 4.74333E+04-4.59001E+05 8.38019E+04-1.33811E+06-1.74623E-10-4.94765E-09
 -1        52 2.26629E+04-4.54305E+05 4.93413E+04-1.49503E+06-1.45519E-11-9.45874E-11
 -1        53 1.45459E+04-4.74531E+05 3.56851E+04-1.33406E+06-2.03727E-10-8.58563E-10
 -1        54 3.20534E+04-4.73177E+05 4.96340E+04-1.49915E+06 2.18279E-10-1.79061E-08
 -1        55 6.46090E+04-4.90489E+05 8.57011E+04-1.33321E+06 4.65661E-10-4.89672E-09
 -1        56-5.43601E+06-6.16479E+05-4.27329E+05-2.09513E+06 2.31375E-09 1.22236E-09
 -1        57-5.60901E+06-9.92980E+05-2.86808E+05-2.07669E+06 7.49424E-10 9.34961E-10
 -1        58-5.52230E+06-7.48218E+05-1.00504E+05-2.06773E+06 8.74934E-10-1.12450E-08
 -1        59-5.50960E+06-8.37234E+05-5.95901E+04-2.10886E+06-2.98314E-10 3.43789E-10
 -1        60-5.53410E+06-7.66796E+05-2.34692E+04-2.06475E+06 1.51294E-09 8.20364E-10
 -1        61-5.49932E+06-8.11816E+05-1.32850E+04-2.10806E+06 9.59062E-10-1.05678E-08
 -1        62-5.53218E+06-7.73019E+05-6.58321E+03-2.06863E+06-1.94177E-10-1.76094E-09
 -1        63-5.50731E+06-7.99215E+05-5.53251E+03-2.09670E+06 3.35604E-10 1.43973E-08
 -1        64-5.52585E+06-7.79465E+05-6.74719E+03-2.07597E+06-1.18553E-09 4.32874E-09
 -1        65-5.52281E+06-7.87992E+05-1.35724E+04-2.08034E+06 1.21418E-09-1.29592E-08
 -1        66-5.51661E+06-7.84393E+05-2.42228E+04-2.08489E+06-2.90311E-09-3.91992E-09
 -1        67-5.55129E+06-7.96237E+05-6.12438E+04-2.06074E+06-3.87718E-09-2.66482E-09
 -1        68-5.49777E+06-7.71861E+05-1.03456E+05-2.09546E+06 1.00954E-09-4.34738E-09
 -1        69-5.66115E+06-9.49436E+05-2.95109E+05-2.02006E+06 2.20825E-09 1.97906E-09
 -1        70-5.40844E+06-6.36550E+05-4.39625E+05-2.12394E+06-2.53931E-09 1.06811E-08
 -1        71-2.35554E+06-3.62763E+03 9.12862E+03-5.93567E-08 9.60035E-11-4.10819E-09
 -1        72-2.35149E+06 4.23165E+03 6.33653E+03-6.80750E-08 3.06816E-10 1.33258E-08
 -1        73-2.35404E+06-5.27874E+02 2.35478E+03-7.13733E-08 2.24974E-10 4.62603E-09
 -1        74-2.35323E+06 6.13401E+02 1.42534E+03-1.08803E-07-6.03293E-10-1.38569E-08
 -1        75-2.35381E+06-7.56154E+01 5.60703E+02-7.34701E-09 2.74971E-10-2.69267E-09
 -1        76-2.35351E+06 8.10794E+01 2.55088E+02-5.80306E-09 2.28757E-10 2.42437E-09
 -1        77-2.35377E+06-4.30031E+00-1.07370E+01-8.25805E-08 1.28450E-10-3.26828E-09
 -1        78-2.35359E+06-4.16671E+01-2.68011E+02-1.24132E-08-4.28982E-10-2.96742E-09
 -1        79-2.35374E+06 4.56721E+01-6.09835E+02 3.04872E-08 1.00997E-10 6.32744E-09
 -1        80-2.35378E+06-3.78345E+02-1.43714E+03 5.91750E-08-3.28795E-10 3.73350E-09
 -1        81-2.35358E+06 3.27791E+02-2.56565E+03-3.26647E-08 3.45407E-10 8.72888E-10
 -1        82-2.35494E+06-2.63246E+03-6.19116E+03 2.95144E-08 3.53003E-10 3.63627E-09
 -1        83-2.35259E+06 2.26234E+03-1.01290E+04-3.53129E-08 3.35778E-10 8.43420E-09
 -1        84-2.36239E+06-1.81319E+04-2.71692E+04 2.42695E-08 1.61752E-10 1.04960E-08
 -1        85-2.34616E+06 1.55442E+04-3.91129E+04 2.48941E-08 7.45990E-11 2.71393E-09
 -1        86-1.17522E+05 7.77653E+05 3.01765E+05-3.93313E+03 4.94765E-10 3.29851E-09
 -1        87 1.47019E+05 9.07907E+05 2.29215E+05 2.80339E+04 2.67391E-10-7.07814E-09
 -1        88-2.69562E+04 8.21147E+05 1.19342E+05-5.53498E+03 1.52613E-09-4.83124E-09
 -1        89 9.98918E+04 8.85968E+05 1.64944E+05 3.21277E+04 1.28057E-09-3.59705E-10
 -1        90-7.14549E+04 7.99794E+05 1.88816E+05-8.02196E+03 2.98314E-09 4.29281E-10
 -1        91-2.66275E+06-3.53811E+05-4.99980E+04-1.00324E+06-1.15688E-09 6.33736E-09
 -1        92-2.67548E+06-4.08956E+05-3.40878E+04-1.00940E+06-1.77488E-09 1.12141E-09
 -1        93-2.67468E+06-3.68685E+05-1.17429E+04-9.97799E+05-5.40012E-11 5.86442E-09
 -1        94-2.66137E+06-3.91908E+05-7.14781E+03-1.01611E+06 2.02496E-09 9.03754E-09
 -1        95-2.67681E+06-3.70543E+05-2.75875E+03-9.96639E+05-1.34492E-09-9.17316E-09
 -1        96-2.65994E+06-3.88684E+05-1.62732E+03-1.01622E+06 1.61535E-09 3.21729E-09
 -1        97-2.67609E+06-3.71871E+05-8.38988E+02-9.97699E+05-5.10454E-10 5.55161E-09
 -1        98-2.66288E+06-3.85091E+05-7.99202E+02-1.01248E+06-2.72439E-09-6.94854E-10
 -1        99-2.67383E+06-3.74157E+05-1.08552E+03-1.00035E+06-1.08889E-09-1.47247E-09
 -1       100-2.66847E+06-3.80332E+05-2.28806E+03-1.00624E+06 1.70303E-10-3.74166E-09
 -1       101-2.67048E+06-3.76659E+05-4.07389E+03-1.00391E+06 4.56907E-10 4.46948E-09
 -1       102-2.67711E+06-3.78594E+05-1.05184E+04-9.98626E+05-7.08980E-10 5.32418E-09
 -1       103-2.66522E+06-3.75953E+05-1.73676E+04-1.00795E+06-1.52158E-09 2.40470E-09
 -1       104-2.69944E+06-4.02615E+05-5.04111E+04-9.87487E+05-5.17343E-09 4.05998E-09
 -1       105-2.64831E+06-3.53049E+05-7.38877E+04-1.01495E+06-3.92902E-10 2.67391E-09
 -1       106-1.07946E+06-3.00752E+04 7.57592E+04-4.90782E-08-1.87763E-09-4.75120E-09
 -1       107-1.04755E+06 3.50871E+04 5.26065E+04-1.44099E-07-7.52580E-10-7.43239E-09
 -1       108-1.06702E+06-4.37730E+03 1.96225E+04-3.74374E-08 4.42252E-12-8.65384E-09
 -1       109-1.06196E+06 5.09340E+03 1.19871E+04-2.40804E-08-6.37476E-10-2.32467E-09
 -1       110-1.06509E+06-6.33856E+02 4.95740E+03 9.16872E-08 4.13178E-10 1.24692E-09
 -1       111-1.06420E+06 7.28880E+02 2.75084E+03 9.41484E-08-5.82415E-10 1.26693E-09
 -1       112-1.06478E+06-8.55558E+01 1.11513E+03 3.81373E-08-2.33133E-10-7.66448E-09
 -1       113-1.06459E+06 5.78721E+01 3.73304E+02-8.43523E-08 7.27109E-11-1.07931E-08
 -1       114-1.06471E+06 2.80947E+01-2.50735E+02-1.00874E-08 1.35910E-10 4.43379E-12
 -1       115-1.06481E+06-3.15989E+02-1.10545E+03-3.42453E-08-5.51145E-10 7.86213E-09
 -1       116-1.06456E+06 2.83602E+02-2.16686E+03-4.12479E-08-3.32775E-11-1.54148E-09
 -1       117-1.06583E+06-2.28893E+03-5.35838E+03 7.21439E-08 2.91550E-10-5.52620E-09
 -1       118-1.06369E+06 1.96839E+03-8.80795E+03 2.06231E-08-4.08785E-10 5.02132E-09
 -1       119-1.07231E+06-1.57784E+04-2.36489E+04-8.80641E-09-6.63881E-10 2.05455E-09
 -1       120-1.05809E+06 1.35266E+04-3.40500E+04-5.15049E-08 8.10755E-10 6.25187E-09
 -1       121 1.32673E+04-2.37269E+06-4.30124E+04 7.50432E+03-6.73026E-11 3.63542E-09
 -1       122-1.69976E+04-2.38928E+06-3.06173E+04 8.57474E+04-1.13232E-10-4.53633E-09
 -1       123 2.25679E+03-2.37894E+06-1.55950E+04 8.39237E+03-1.29717E-09-4.12956E-09
 -1       124-9.29760E+03-2.38450E+06-1.84062E+04 8.25460E+04-2.05137E-09 3.33603E-09
 -1       125 5.82036E+03-2.37689E+06-2.10085E+04 1.07033E+04-4.09545E-09-1.22873E-09
 -1       126-1.27748E+06-1.93371E+05 3.95753E+04-4.71826E+05 4.54747E-12 4.83851E-09
 -1       127-1.25310E+06-1.63481E+05 2.70050E+04-4.82666E+05-1.22748E-09-2.33513E-09
 -1       128-1.26987E+06-1.79691E+05 9.28707E+03-4.73943E+05 6.75527E-10 2.26464E-09
 -1       129-1.26190E+06-1.79436E+05 5.63443E+03-4.80212E+05-1.20488E-09 9.20454E-09
 -1       130-1.26873E+06-1.77647E+05 2.12231E+03-4.74203E+05-1.21582E-09-1.77965E-09
 -1       131-1.26338E+06-1.81673E+05 1.14275E+03-4.79738E+05-8.38291E-10-7.42841E-09
 -1       132-1.26840E+06-1.77486E+05 3.63283E+02-4.74407E+05-1.00783E-09-3.26969E-09
 -1       133-1.26409E+06-1.81601E+05-3.87629E+01-4.79139E+05-6.43183E-10 4.98532E-09
 -1       134-1.26801E+06-1.77726E+05-4.58879E+02-4.74799E+05 1.05518E-09 1.41199E-09
 -1       135-1.26517E+06-1.81233E+05-1.33312E+03-4.78142E+05 4.58485E-10-5.94298E-11
 -1       136-1.26732E+06-1.77862E+05-2.46034E+03-4.75399E+05-1.83363E-10-6.81553E-10
 -1       137-1.26781E+06-1.82853E+05-6.49807E+03-4.76494E+05-7.48074E-10 8.34007E-10
 -1       138-1.26538E+06-1.76145E+05-1.07196E+04-4.76432E+05 1.74964E-09-3.57886E-10
 -1       139-1.27949E+06-1.99721E+05-3.11455E+04-4.71902E+05 5.68889E-10-4.09273E-11
 -1       140-1.25570E+06-1.61260E+05-4.56443E+04-4.79899E+05-1.85537E-10 6.04086E-09
 -1       141-3.50720E+05-1.19188E+04 3.00192E+04-2.29362E-08 1.30233E-10-4.27463E-10
 -1       142-3.38073E+05 1.39040E+04 2.08409E+04 3.76373E-08-3.13321E-10 4.58454E-09
 -1       143-3.45780E+05-1.73431E+03 7.75439E+03-2.33142E-08 1.69504E-10 1.64300E-09
 -1       144-3.43784E+05 2.01563E+03 4.69788E+03 4.74273E-08 3.34239E-10-3.83062E-09
 -1       145-3.45014E+05-2.48672E+02 1.85833E+03-9.03421E-10-6.83649E-11-3.44073E-09
 -1       146-3.44688E+05 2.68438E+02 8.63179E+02 4.43556E-08-1.13708E-10 1.82666E-10
 -1       147-3.44878E+05-1.59447E+01 7.94338E+00 5.87827E-08-1.97027E-10 3.52316E-10
 -1       148-3.44926E+05-1.22206E+02-7.89548E+02 2.58535E-08 6.80423E-10-4.31669E-09
 -1       149-3.44777E+05 1.37288E+02-1.83612E+03-3.86383E-08-4.92110E-10-2.36253E-09
 -1       150-3.45511E+05-1.14034E+03-4.34190E+03-4.05200E-08 7.68001E-10 6.15432E-09
 -1       151-3.44293E+05 9.88347E+02-7.75732E+03-2.71394E-08-4.44981E-10 4.86580E-11
 -1       152-3.49003E+05-7.93804E+03-1.87058E+04-7.54727E-08 1.86582E-10-1.36151E-09
 -1       153-3.41287E+05 6.82205E+03-3.06002E+04-1.48496E-08 2.15009E-10-1.48066E-09
 -1       154-3.71450E+05-5.46796E+04-8.20065E+04 8.48650E-09 1.23173E-09 3.59887E-09
 -1       155-3.21840E+05 4.68789E+04-1.17997E+05-9.73764E-08 1.90537E-09 2.26282E-09
 -1       156-5.38961E+03-5.38992E+05 1.45894E+04-1.50109E+03 4.12001E-10-2.72706E-10
 -1       157 8.16264E+03-5.32195E+05 1.38994E+04 1.14523E+04 4.06601E-10 2.42522E-10
 -1       158-2.63852E+03-5.37724E+05 1.16688E+04-1.25383E+03 1.86810E-09-4.54429E-09
 -1       159 1.60143E+04-5.28358E+05 2.46513E+04 1.07895E+04 1.20053E-09-5.16707E-10
 -1       160-1.31131E+04-5.42801E+05 3.33735E+04-8.38047E+02 4.06908E-09 1.64221E-09
 -1       161-6.75672E+05-9.18085E+04-7.59820E+03-2.53997E+05-5.86397E-10-5.63205E-09
 -1       162-6.76594E+05-1.01199E+05-5.19271E+03-2.56089E+05-1.34224E-09-3.55817E-09
 -1       163-6.77239E+05-9.43229E+04-1.80538E+03-2.53465E+05 1.95257E-10-1.79705E-09
 -1       164-6.74803E+05-9.82517E+04-1.13158E+03-2.56687E+05-2.34934E-10 1.24871E-09
 -1       165-6.77455E+05-9.47109E+04-5.07221E+02-2.53415E+05 2.67022E-11-1.91002E-09
 -1       166-6.74643E+05-9.77473E+04-4.44449E+02-2.56656E+05 4.28031E-10-4.15929E-09
 -1       167-6.77397E+05-9.48219E+04-5.08201E+02-2.53498E+05-9.65429E-10-3.58682E-09
 -1       168-6.74939E+05-9.76477E+04-1.01397E+03-2.56394E+05 1.23279E-09 6.02128E-10
 -1       169-6.77158E+05-9.48125E+04-1.83149E+03-2.53676E+05-1.10292E-09 7.75867E-09
 -1       170-6.76052E+05-9.85417E+04-4.43707E+03-2.55823E+05 4.55628E-10 1.31962E-09
 -1       171-6.76285E+05-9.39440E+04-7.88530E+03-2.54062E+05-1.51454E-09 4.67298E-09
 -1       172-6.81579E+05-1.06520E+05-2.06750E+04-2.53894E+05 1.96451E-10 8.76526E-10
 -1       173-6.71653E+05-8.69499E+04-3.40157E+04-2.55563E+05-7.17137E-10 2.75577E-09
 -1       174-7.15442E+05-1.63151E+05-9.88036E+04-2.42931E+05-2.27101E-09-9.42237E-10
 -1       175-6.42547E+05-3.81449E+04-1.44687E+05-2.64716E+05-1.73895E-09-3.26690E-09
 -1       191 5.98015E+03 1.07884E+06 1.07026E+04-3.33046E+04-2.54659E-11 3.56886E-09
 -1       192 2.01826E+03 1.08060E+06 6.47397E+03-3.62461E+04-1.11845E-09 2.66300E-09
 -1       193 7.67213E+02 1.07936E+06 5.23847E+03-3.27942E+04-7.34872E-10-7.37055E-09
 -1       194 2.79279E+03 1.08078E+06 7.96061E+03-3.71792E+04-2.26555E-09-2.67682E-08
 -1       195 8.39077E+03 1.07837E+06 1.43844E+04-3.23501E+04-1.44064E-09-1.44119E-08
 -1       251-2.42415E+06 4.21305E+04-1.06921E+05-8.39138E+03 1.61435E-10-6.32281E-09
 -1       252-2.46606E+06-4.95015E+04-7.38033E+04-1.99957E+04-1.79375E-09 7.37509E-09
 -1       253-2.44155E+06 6.02474E+03-2.78559E+04 1.41775E+03 5.19776E-10 1.07502E-09
 -1       254-2.44651E+06-7.19853E+03-1.67636E+04-3.75653E+04 7.35554E-10-3.90469E-09
 -1       255-2.44392E+06 8.22016E+02-7.23153E+03 9.17277E+03 2.27374E-12-4.14047E-09
 -1       256-2.44435E+06-9.08800E+02-4.15962E+03-4.96926E+04 6.20275E-10 4.86466E-09
 -1       257-2.44407E+06 1.12239E+02-2.25490E+03 1.35450E+04 1.78943E-10-4.20596E-09
 -1       258-2.44439E+06-7.24599E+01-1.99313E+03-5.42449E+04-2.83976E-10-1.93666E-10
 -1       259-2.44405E+06 1.24970E+02-2.38457E+03 1.37256E+04-7.36918E-10 5.91206E-09
 -1       260-2.44447E+06-9.98532E+02-4.54547E+03-5.03870E+04-2.17597E-09 6.41734E-09
 -1       261-2.44384E+06 9.16301E+02-7.91958E+03 9.68661E+03 2.00544E-09 2.64208E-09
 -1       262-2.44698E+06-7.90845E+03-1.84728E+04-3.88208E+04-2.39334E-09-6.90966E-09
 -1       263-2.44120E+06 6.65285E+03-3.06314E+04 2.15919E+03-1.42700E-09-4.20187E-09
 -1       264-2.46852E+06-5.44878E+04-8.12791E+04-2.15676E+04-4.34284E-09 4.32101E-09
 -1       265-2.42206E+06 4.64121E+04-1.17669E+05-7.56102E+03-3.51974E-09 2.71393E-09
 -1       266-2.92995E+04-4.69652E+05 6.78196E+04 3.87085E+04 1.27329E-10-1.81353E-09
 -1       267 3.55504E+04-4.39857E+05 4.45494E+04-2.64331E+05 1.54614E-11-3.18528E-09
 -1       268-2.59844E+03-4.53830E+05 9.51593E+03 4.07448E+04-1.56433E-10-3.32597E-09
 -1       269-5.81419E+03-4.60661E+05-1.22663E+04-2.64745E+05 2.68756E-10 6.73845E-09
 -1       270 1.15378E+04-4.49200E+05-3.11805E+04 3.91239E+04-2.49202E-10 6.40284E-09
 -1       271-5.61091E+06-6.73818E+05-4.52188E+05-2.18798E+06 8.44011E-10 2.70666E-09
 -1       272-5.80264E+06-1.01513E+06-2.96586E+05-2.15361E+06 1.37788E-09-8.58199E-09
 -1       273-5.70291E+06-7.95351E+05-1.06658E+05-2.15907E+06 3.97449E-10-3.44880E-09
 -1       274-5.69199E+06-8.73141E+05-6.11648E+04-2.19555E+06 1.89357E-09 3.70346E-09
 -1       275-5.71994E+06-8.05424E+05-2.49122E+04-2.14994E+06-6.98947E-10-1.36424E-09
 -1       276-5.67040E+06-8.63009E+05-1.36733E+04-2.20952E+06 4.89536E-10 3.22780E-09
 -1       277-5.72473E+06-8.03960E+05-6.92738E+03-2.14586E+06 2.44881E-10 2.76577E-09
 -1       278-5.66566E+06-8.64396E+05-5.82733E+03-2.21403E+06 3.07762E-09-5.52825E-09
 -1       279-5.72490E+06-8.03757E+05-7.13610E+03-2.14565E+06-7.96376E-10-3.47700E-09
 -1       280-5.66988E+06-8.63832E+05-1.42926E+04-2.21034E+06 3.05670E-09-6.93944E-10
 -1       281-5.72034E+06-8.04777E+05-2.60908E+04-2.14936E+06 1.18916E-09-2.89219E-10
 -1       282-5.69157E+06-8.75490E+05-6.41789E+04-2.19689E+06 7.24413E-10-5.46515E-09
 -1       283-5.70301E+06-7.93665E+05-1.11878E+05-2.15833E+06-5.04770E-10-9.18226E-09
 -1       284-5.80660E+06-1.02555E+06-3.11196E+05-2.15411E+06 6.83940E-10-2.81943E-09
 -1       285-5.60701E+06-6.65608E+05-4.74379E+05-2.18806E+06-1.35333E-09-1.10595E-09
 -1       286-1.03293E+06-3.61295E+03 8.24646E+03-6.73210E+02 4.42105E-09 1.02318E-10
 -1       287-1.02662E+06 3.85644E+03 6.21302E+03-2.75230E+04 9.38599E-10-4.20641E-12
 -1       288-1.03126E+06-6.04071E+02 2.07037E+03 3.23272E+03 1.37879E-09-4.40036E-09
 -1       289-1.02910E+06 5.51347E+02 1.56540E+03-3.44004E+04-2.72848E-10 3.37414E-09
 -1       290-1.03078E+06-1.32162E+02 5.93019E+02 6.20224E+03 1.09640E-09-7.53829E-10
 -1       291-1.03009E+06 2.06748E+02 6.01985E+02-3.91860E+04 3.67788E-09 3.49274E-09
 -1       292-1.03057E+06-5.81092E+01 5.51287E+02 8.01815E+03 3.22382E-09-2.32165E-09
 -1       293-1.03046E+06 3.36860E+02 9.96857E+02-4.15219E+04 3.66185E-10 5.92842E-09
 -1       294-1.03057E+06-1.47003E+02 1.72991E+03 8.53861E+03 2.99229E-09-6.57110E-11
 -1       295-1.02993E+06 1.16393E+03 3.83074E+03-4.12240E+04 2.02090E-09 5.16678E-09
 -1       296-1.03108E+06-8.88706E+02 6.69402E+03 7.72024E+03 3.00520E-09 4.67662E-09
 -1       297-1.02641E+06 6.92977E+03 1.62188E+04-3.83164E+04 3.61683E-09-1.78079E-09
 -1       298-1.03388E+06-5.95569E+03 2.62856E+04 5.63069E+03 1.05638E-09-4.53838E-09
 -1       299-1.00624E+06 4.71442E+04 7.08912E+04-3.30651E+04-1.81899E-11-6.20639E-09
 -1       300-1.05088E+06-4.05814E+04 1.01605E+05 2.46770E+03 1.72349E-10 1.72440E-09
 -1       301 7.16639E+04 1.29640E+05 1.37822E+05-2.65509E+04-1.83354E-09 1.00653E-09
 -1       302 2.41452E+04 1.53966E+05 7.88361E+04-3.07290E+04-5.28598E-09-4.25695E-09
 -1       303 7.11818E+03 1.38601E+05 5.54204E+04-2.68611E+04-1.72810E-09-9.41293E-09
 -1       304 2.17296E+04 1.52767E+05 7.30831E+04-3.07162E+04-4.79122E-09-6.67751E-09
 -1       305 6.37660E+04 1.30838E+05 1.23722E+05-2.66146E+04-1.93540E-09 6.93126E-09
 -1       306-4.70961E+06-5.66806E+05-3.72536E+05-1.83400E+06 6.54836E-10-7.78527E-09
 -1       307-4.86348E+06-8.50851E+05-2.44158E+05-1.80941E+06 3.29101E-09-5.34783E-10
 -1       308-4.78602E+06-6.66084E+05-8.79453E+04-1.80947E+06-8.86757E-10-3.81988E-09
 -1       309-4.77128E+06-7.35347E+05-5.03579E+04-1.84558E+06-5.39103E-10-5.44969E-09
 -1       310-4.80070E+06-6.73661E+05-2.05806E+04-1.80118E+06 1.18325E-09 7.76708E-10
 -1       311-4.75235E+06-7.28351E+05-1.12563E+04-1.85879E+06-3.45381E-10 4.37103E-09
 -1       312-4.80534E+06-6.71716E+05-5.73890E+03-1.79702E+06-1.68620E-09-9.22910E-10
 -1       313-4.74722E+06-7.30890E+05-4.82294E+03-1.86427E+06-2.61241E-09-9.61882E-09
 -1       314-4.80619E+06-6.70786E+05-5.91956E+03-1.79601E+06-2.74946E-09-3.30260E-09
 -1       315-4.74942E+06-7.31824E+05-1.18823E+04-1.86289E+06 3.15595E-10 1.29171E-09
 -1       316-4.80309E+06-6.70931E+05-2.16752E+04-1.79830E+06 2.60206E-09-8.33097E-10
 -1       317-4.76618E+06-7.42689E+05-5.33226E+04-1.85302E+06 2.04818E-09 2.95040E-09
 -1       318-4.78919E+06-6.61247E+05-9.29605E+04-1.80520E+06 7.11225E-10 4.92946E-09
 -1       319-4.86074E+06-8.67865E+05-2.58385E+05-1.81802E+06 1.41154E-09 1.07066E-08
 -1       320-4.70962E+06-5.54946E+05-3.94071E+05-1.82973E+06-2.37924E-09 4.30737E-09
 -1       321-8.01443E+05-4.94050E+04 1.24343E+05-1.39716E+02-1.54205E-09-9.53150E-10
 -1       322-7.48639E+05 5.75626E+04 8.64233E+04-1.24615E+04-3.26986E-09 1.29057E-09
 -1       323-7.80968E+05-7.20399E+03 3.22058E+04 1.06795E+03 2.12822E-10-1.90084E-09
 -1       324-7.72444E+05 8.34255E+03 1.97473E+04-1.46335E+04 4.41162E-10 7.73980E-10
 -1       325-7.77761E+05-1.05077E+03 8.19611E+03 2.03420E+03 1.98952E-11-3.61979E-10
 -1       326-7.76251E+05 1.21137E+03 4.67627E+03-1.62146E+04-2.71257E-10 3.63895E-09
 -1       327-7.77224E+05-1.55124E+02 2.10747E+03 2.64912E+03-2.10036E-10 1.37663E-09
 -1       328-7.76912E+05 2.04587E+02 1.21798E+03-1.70559E+04 2.71811E-10 2.99491E-09
 -1       329-7.77134E+05-3.62103E+01 7.05436E+02 2.87543E+03-5.35678E-11-3.46341E-09
 -1       330-7.76962E+05 1.51635E+02 6.95546E+02-1.71051E+04-1.33450E-09 1.31708E-09
 -1       331-7.77176E+05-1.00828E+02 8.73629E+02 2.69833E+03 3.02975E-11 2.57131E-10
 -1       332-7.76574E+05 7.71303E+02 1.87416E+03-1.63585E+04-4.22915E-10 3.45105E-09
 -1       333-7.77494E+05-6.64546E+02 2.95662E+03 2.12877E+03-2.66027E-10 4.62762E-09
 -1       334-7.74291E+05 5.24387E+03 7.91872E+03-1.48579E+04 1.62743E-10-2.76600E-09
 -1       335-7.79406E+05-4.52672E+03 1.13094E+04 1.19773E+03-1.07070E-09-1.89357E-09
 -1       336 5.87880E+03-2.36371E+06-2.44433E+04-7.33775E+03-8.51105E-09-3.92902E-09
 -1       337-1.13946E+04-2.37523E+06-3.07949E+04-1.72081E+05-9.56271E-09-1.56001E-09
 -1       338 5.92926E+03-2.36355E+06-3.89963E+04-5.43232E+03-1.11158E-08 3.06682E-09
 -1       339-5.09325E+04-2.39665E+06-9.21733E+04-1.72845E+05-8.33825E-09-1.17143E-09
 -1       340 4.23136E+04-2.34265E+06-1.35984E+05-6.58076E+03-8.35280E-09 2.18552E-09
 -1       341-2.71606E+06-3.59612E+05-8.05207E+04-1.04069E+06-4.07454E-09 4.59841E-09
 -1       342-2.76627E+06-4.19160E+05-5.49498E+04-1.01706E+06 2.21394E-09-1.84446E-09
 -1       343-2.73423E+06-3.84800E+05-1.89521E+04-1.03333E+06 9.32232E-12-2.10002E-09
 -1       344-2.74289E+06-3.92094E+05-1.15435E+04-1.02820E+06 1.20438E-09-6.75527E-10
 -1       345-2.73928E+06-3.86216E+05-4.56761E+03-1.02967E+06 1.71451E-09-3.37695E-09
 -1       346-2.73512E+06-3.92453E+05-2.83130E+03-1.03471E+06-2.63071E-10-9.26093E-09
 -1       347-2.74198E+06-3.84370E+05-1.79169E+03-1.02684E+06-6.36305E-10-4.44845E-09
 -1       348-2.73109E+06-3.96018E+05-2.34015E+03-1.03928E+06-4.54236E-10-7.99005E-09
 -1       349-2.74333E+06-3.82628E+05-3.63740E+03-1.02512E+06 1.63084E-09 1.53136E-10
 -1       350-2.73080E+06-4.00047E+05-8.46926E+03-1.04102E+06 4.73392E-10 6.10089E-09
 -1       351-2.74232E+06-3.80357E+05-1.49137E+04-1.02512E+06-1.81603E-09 3.42152E-09
 -1       352-2.74123E+06-4.15164E+05-3.90772E+04-1.03738E+06-2.14459E-09 1.38925E-09
 -1       353-2.73298E+06-3.67739E+05-6.42626E+04-1.02869E+06-8.92214E-10 3.62343E-09
 -1       354-2.80757E+06-5.20150E+05-1.86869E+05-1.01403E+06-2.57751E-09-2.18279E-10
 -1       355-2.67636E+06-2.76970E+05-2.73577E+05-1.04794E+06-4.48199E-09 6.12636E-09
 -1       356-5.28063E+05-1.35502E+04 3.40816E+04 5.65543E+02 9.06198E-10 9.74978E-09
 -1       357-5.13543E+05 1.57842E+04 2.36862E+04-8.59712E+03-1.37300E-09 9.70022E-09
 -1       358-5.22435E+05-1.97448E+03 8.80008E+03 1.00625E+03-2.85695E-10 3.54612E-09
 -1       359-5.20086E+05 2.28530E+03 5.34415E+03-9.34690E+03 1.02466E-09-1.06215E-08
 -1       360-5.21550E+05-2.84093E+02 2.11137E+03 1.31560E+03-7.06848E-10-2.12924E-09
 -1       361-5.21149E+05 3.07366E+02 9.89960E+02-9.81884E+03-2.91223E-10-6.56314E-10
 -1       362-5.21388E+05-1.89531E+01 2.36615E+01 1.47820E+03-6.21071E-10-5.95315E-09
 -1       363-5.21430E+05-1.29638E+02-8.64755E+02-9.98935E+03-4.42047E-10 5.12225E-09
 -1       364-5.21276E+05 1.51524E+02-2.02638E+03 1.48611E+03 8.19625E-10-1.63539E-09
 -1       365-5.22067E+05-1.25891E+03-4.79758E+03-9.85102E+03-8.55337E-10 9.77025E-10
 -1       366-5.20748E+05 1.09183E+03-8.57933E+03 1.33985E+03-7.67955E-11 1.45747E-09
 -1       367-5.25896E+05-8.78368E+03-2.06798E+04-9.40611E+03-5.24437E-10-1.21076E-09
 -1       368-5.17438E+05 7.54171E+03-3.38471E+04 1.04120E+03 6.64727E-10-5.78802E-09
 -1       369-5.50672E+05-6.04886E+04-9.06842E+04-8.63933E+03-2.19484E-09-2.23554E-09
 -1       370-4.95951E+05 5.18416E+04-1.30514E+05 5.74173E+02 2.82512E-09-2.40834E-09
 -1       371-1.58542E+04-4.59799E+05 3.75786E+04 1.65432E+04 1.09776E-08 6.07997E-09
 -1       372 1.60102E+04-4.44459E+05 2.03960E+04-1.16417E+05 7.00584E-09 5.40581E-09
 -1       373 5.64982E+02-4.51301E+05-2.69391E+03 1.72850E+04 1.62272E-08 1.74936E-09
 -1       374-2.02387E+04-4.61729E+05-2.91232E+04-1.16294E+05 6.50107E-09 4.98176E-10
 -1       375 1.96910E+04-4.42486E+05-4.91113E+04 1.64192E+04 1.07248E-08 1.52613E-09
 -1       376-1.46273E+06-1.82474E+05-6.59805E+04-5.60123E+05 1.52522E-09 3.35058E-09
 -1       377-1.49254E+06-2.42676E+05-4.50333E+04-5.53825E+05-8.11269E-10 3.16595E-09
 -1       378-1.47668E+06-2.04013E+05-1.55267E+04-5.55136E+05-1.59775E-09-6.28734E-09
 -1       379-1.47597E+06-2.18020E+05-9.47354E+03-5.60158E+05-2.11853E-09-4.97073E-09
 -1       380-1.47923E+06-2.06740E+05-3.70982E+03-5.53928E+05-2.42721E-11-5.69571E-10
 -1       381-1.47290E+06-2.15012E+05-2.28909E+03-5.61726E+05 4.14863E-10-3.12156E-10
 -1       382-1.47974E+06-2.06963E+05-1.35584E+03-5.53590E+05-5.00712E-10-7.51916E-09
 -1       383-1.47261E+06-2.14778E+05-1.68402E+03-5.61894E+05-9.12268E-10-6.49383E-09
 -1       384-1.47952E+06-2.06968E+05-2.52521E+03-5.53762E+05-6.29264E-10 2.02635E-09
 -1       385-1.47418E+06-2.15672E+05-5.81636E+03-5.60938E+05-6.51347E-10-1.70996E-09
 -1       386-1.47816E+06-2.06092E+05-1.02289E+04-5.54536E+05-1.19655E-09-3.87899E-09
 -1       387-1.48201E+06-2.25290E+05-2.67505E+04-5.57635E+05 5.07271E-10-7.19956E-09
 -1       388-1.47172E+06-1.97506E+05-4.39984E+04-5.57012E+05-2.40107E-10-2.28465E-09
 -1       389-1.52691E+06-2.97520E+05-1.27827E+05-5.42220E+05-1.22100E-09-3.98359E-09
 -1       390-1.43347E+06-1.34946E+05-1.87181E+05-5.69565E+05-2.47383E-09 2.44472E-09
 -1       406 7.13387E+03 1.05106E+06 1.33012E+04-1.51428E+05-1.85355E-09 7.80710E-09
 -1       407 3.35340E+03 1.05323E+06 1.12206E+04-1.69077E+05-5.45970E-09 1.20563E-08
 -1       408 3.06957E+03 1.05116E+06 1.43298E+04-1.51052E+05-2.20825E-09 1.42700E-08
 -1       409 1.16749E+04 1.05631E+06 2.81535E+04-1.69460E+05-6.10453E-09 8.63656E-09
 -1       410 3.37172E+04 1.04740E+06 5.51805E+04-1.50974E+05-2.17187E-09 2.83035E-09
 -1       466 2.22407E+06-8.27784E+04 2.07662E+05 2.01852E+04 1.02773E-10-3.82715E-09
 -1       467 2.31570E+06 9.59300E+04 1.44983E+05-6.97902E+04-3.17414E-10-5.88079E-09
 -1       468 2.25930E+06-1.20770E+04 5.39328E+04 9.88151E+03-3.77440E-11 9.82254E-10
 -1       469 2.27415E+06 1.39116E+04 3.33230E+04-5.35321E+04-2.70120E-10 1.95996E-09
 -1       470 2.26497E+06-1.76666E+03 1.40233E+04 3.93277E+03 2.91720E-10-3.63798E-11
 -1       471 2.26728E+06 2.14938E+03 8.45309E+03-4.47348E+04 1.07616E-09 2.11344E-10
 -1       472 2.26592E+06-3.00632E+02 4.67834E+03 1.08399E+03 4.83169E-10-1.23180E-09
 -1       473 2.26630E+06 8.08613E+02 4.47995E+03-4.16096E+04-7.28555E-10-2.36490E-10
 -1       474 2.26587E+06-3.82864E+02 5.69653E+03 8.07518E+02-1.03165E-09 2.92721E-09
 -1       475 2.26764E+06 2.93862E+03 1.13041E+04-4.35831E+04 7.42261E-10-1.71985E-09
 -1       476 2.26462E+06-2.43906E+03 1.93234E+04 3.05758E+03 9.31550E-10-1.14596E-09
 -1       477 2.27676E+06 1.94143E+04 4.61447E+04-5.10189E+04-5.09658E-10 3.36149E-09
 -1       478 2.25694E+06-1.67512E+04 7.50394E+04 8.24352E+03-1.05592E-09-3.96540E-10
 -1       479 2.33333E+06 1.33600E+05 2.01316E+05-6.55085E+04-2.41926E-09-5.63887E-10
 -1       480 2.20854E+06-1.14917E+05 2.89118E+05 1.75383E+04-8.47649E-10-6.79574E-09
 -1       481-1.82464E+04 4.29440E+05 4.62097E+04-4.09058E+03-1.90994E-10 9.70431E-10
 -1       482 2.19698E+04 4.50056E+05 3.38767E+04 1.17692E+04-3.01952E-10 5.87261E-09
 -1       483-3.49390E+03 4.36659E+05 1.53425E+04-3.12459E+03-2.55568E-10 3.73120E-09
 -1       484 9.74008E+03 4.43936E+05 1.70721E+04 1.00367E+04-1.87583E-10 8.82210E-10
 -1       485-6.18551E+03 4.35482E+05 1.69069E+04-2.35898E+03 1.57797E-10-1.33969E-09
 -1       486-2.12371E+06-2.36212E+05-2.03509E+05-8.44317E+05 5.63887E-10 5.09317E-10
 -1       487-2.23959E+06-3.97379E+05-1.38783E+05-7.96861E+05-5.75710E-10-1.93359E-09
 -1       488-2.16931E+06-3.00310E+05-4.79278E+04-8.26263E+05 2.67391E-10-2.85763E-09
 -1       489-2.18244E+06-3.27064E+05-2.89278E+04-8.22820E+05 1.16673E-09 1.23509E-09
 -1       490-2.18054E+06-3.05377E+05-1.12778E+04-8.18729E+05 2.19200E-09 1.48248E-10
 -1       491-2.16625E+06-3.24594E+05-6.33962E+03-8.35608E+05-2.36923E-10 1.57036E-09
 -1       492-2.18555E+06-3.02553E+05-3.07271E+03-8.13592E+05 5.04770E-10 1.12777E-09
 -1       493-2.15899E+06-3.29816E+05-2.43042E+03-8.43794E+05 2.64981E-09 3.80311E-10
 -1       494-2.18793E+06-3.00036E+05-2.69284E+03-8.10656E+05 1.59389E-10 6.78938E-10
 -1       495-2.15725E+06-3.33755E+05-5.46119E+03-8.46877E+05-6.24823E-10-5.02439E-10
 -1       496-2.18738E+06-2.98576E+05-9.32794E+03-8.10563E+05 1.11334E-09 7.46695E-10
 -1       497-2.16487E+06-3.41732E+05-2.41956E+04-8.43026E+05 2.16801E-10 3.25008E-09
 -1       498-2.18031E+06-2.92232E+05-3.98206E+04-8.14430E+05 3.60160E-10 2.47201E-09
 -1       499-2.20954E+06-4.02538E+05-1.15479E+05-8.23736E+05 3.30601E-10 1.31513E-09
 -1       500-2.14280E+06-2.38849E+05-1.69360E+05-8.29423E+05-1.09503E-09-3.20142E-10
 -1       501-2.74758E+05-2.59192E+04 6.41885E+04 4.54547E+03 4.07908E-09-3.43061E-09
 -1       502-2.44165E+05 2.97828E+04 4.52109E+04-4.17992E+04 5.87079E-10 3.49246E-10
 -1       503-2.63649E+05-3.85332E+03 1.65677E+04 5.62001E+03 4.96129E-10 3.94175E-09
 -1       504-2.57785E+05 4.35703E+03 1.04384E+04-4.36488E+04-7.53971E-10 1.84309E-09
 -1       505-2.61662E+05-6.00973E+02 4.24631E+03 6.39455E+03 2.17437E-09 4.57476E-09
 -1       506-2.60574E+05 8.04169E+02 2.58480E+03-4.48566E+04 3.40333E-09 6.82212E-09
 -1       507-2.61207E+05-1.16328E+02 1.29244E+03 6.82786E+03 3.19210E-09-1.00010E-09
 -1       508-2.61225E+05 4.04620E+02 1.07313E+03-4.53718E+04 1.34986E-09 3.49166E-09
 -1       509-2.61163E+05-1.00599E+02 1.17839E+03 6.91028E+03 2.77157E-09 4.22321E-09
 -1       510-2.60874E+05 7.54719E+02 2.19812E+03-4.51830E+04 2.50884E-09-2.11048E-09
 -1       511-2.61502E+05-5.00534E+02 3.62500E+03 6.63881E+03 2.21257E-09 2.47303E-09
 -1       512-2.58609E+05 3.76371E+03 8.78130E+03-4.42929E+04 5.14217E-09-4.19232E-09
 -1       513-2.63168E+05-3.24098E+03 1.40078E+04 6.01975E+03 8.12634E-10 1.88811E-09
 -1       514-2.47099E+05 2.52032E+04 3.81089E+04-4.27272E+04-9.14042E-11 3.02089E-09
 -1       515-2.72563E+05-2.18547E+04 5.41678E+04 5.07288E+03-1.31013E-09 2.91038E-11
 -1       516-5.07013E+04 4.02110E+05 1.29630E+05 1.47249E+04 4.34375E-09 4.11274E-09
 -1       517 6.49583E+04 4.56927E+05 9.92553E+04-1.31381E+05 4.76848E-09 8.40518E-09
 -1       518-1.20159E+04 4.20853E+05 5.27053E+04 1.46692E+04 3.77395E-09 4.68503E-09
 -1       519 4.69023E+04 4.50101E+05 7.50483E+04-1.32794E+05 4.98039E-09-1.59389E-09
 -1       520-3.34517E+04 4.09604E+05 8.64142E+04 1.61300E+04 1.73895E-09-5.05224E-09
 -1       521-4.49467E+06-5.38677E+05-3.63268E+05-1.75116E+06 3.92902E-09-7.91624E-09
 -1       522-4.63912E+06-8.20784E+05-2.38015E+05-1.73316E+06 2.98360E-09 3.05590E-10
 -1       523-4.56939E+06-6.35182E+05-8.57720E+04-1.72699E+06-9.92941E-10 6.46833E-09
 -1       524-4.54915E+06-7.08439E+05-4.90770E+04-1.76883E+06-1.29330E-09 3.40606E-09
 -1       525-4.58374E+06-6.42503E+05-2.00424E+04-1.71888E+06 2.39652E-10 6.16274E-09
 -1       526-4.53089E+06-7.01515E+05-1.09055E+04-1.78169E+06 1.03751E-09 1.20849E-09
 -1       527-4.58813E+06-6.40717E+05-5.45114E+03-1.71495E+06 2.83535E-09 1.35810E-09
 -1       528-4.52624E+06-7.03593E+05-4.38632E+03-1.78662E+06 1.99748E-09 7.30097E-10
 -1       529-4.58875E+06-6.40087E+05-5.15061E+03-1.71424E+06 1.07730E-09 6.69161E-10
 -1       530-4.52866E+06-7.03682E+05-1.01292E+04-1.78461E+06 1.52545E-09-1.51522E-09
 -1       531-4.58558E+06-6.40806E+05-1.84246E+04-1.71683E+06 4.38877E-09 3.33876E-09
 -1       532-4.54414E+06-7.11427E+05-4.51820E+04-1.77441E+06 2.75304E-09 5.40695E-09
 -1       533-4.57288E+06-6.33583E+05-7.88534E+04-1.72374E+06 2.20780E-10-4.43833E-10
 -1       534-4.62619E+06-8.15338E+05-2.18923E+05-1.74214E+06-8.34916E-10-4.15821E-09
 -1       535-4.50426E+06-5.44820E+05-3.34126E+05-1.74592E+06-3.10320E-09 2.64845E-09
 -1       536 6.50958E+05-4.38623E+04 1.39931E+05-1.63862E+03 3.12866E-10-6.98492E-10
 -1       537 7.05965E+05 5.32576E+04 9.32516E+04-3.45761E+04-4.78258E-09 6.16637E-10
 -1       538 6.73065E+05-5.39007E+03 3.63387E+04-2.19079E+03-3.18323E-10 5.64251E-09
 -1       539 6.80657E+05 6.32016E+03 2.11439E+04-3.35894E+04 2.80397E-09 1.04910E-09
 -1       540 6.75992E+05-6.85176E+02 9.25784E+03-2.61373E+03-1.50067E-11 1.20963E-09
 -1       541 6.77136E+05 7.40300E+02 5.10802E+03-3.28853E+04-3.28328E-10-5.31145E-10
 -1       542 6.76406E+05-9.34575E+01 2.51645E+03-2.89501E+03-5.52973E-10-1.40915E-09
 -1       543 6.76575E+05 1.31927E+02 1.64687E+03-3.24697E+04-3.09228E-11 7.55961E-09
 -1       544 6.76449E+05-3.63414E+01 1.40882E+03-3.02954E+03-9.95897E-11 4.54921E-09
 -1       545 6.76638E+05 3.05237E+02 2.08752E+03-3.23447E+04 2.34081E-10 7.76479E-09
 -1       546 6.76312E+05-2.32511E+02 3.45195E+03-3.02002E+03-2.19643E-10 1.14369E-10
 -1       547 6.77861E+05 2.30714E+03 7.63956E+03-3.25047E+04-4.21551E-10-7.18831E-09
 -1       548 6.75264E+05-1.91794E+03 1.30650E+04-2.86951E+03-2.78305E-10-1.23782E-09
 -1       549 6.86948E+05 1.91285E+04 3.34414E+04-3.29162E+04 9.18590E-11 9.00400E-10
 -1       550 6.67333E+05-1.57201E+04 5.01557E+04-2.60992E+03-1.35060E-09 1.93904E-09
 -1       551 2.85320E+04-4.58854E+05 4.75021E+04-6.95020E+05-6.33008E-09 5.23869E-10
 -1       552 1.52148E+04-4.52450E+05 3.18061E+04-7.96323E+05-9.07312E-09 7.02858E-09
 -1       553 9.93281E+03-4.58591E+05 3.00304E+04-6.93927E+05-7.96717E-09 3.10411E-09
 -1       554 2.34724E+04-4.49303E+05 5.05663E+04-7.96591E+05-6.46105E-09 3.18323E-10
 -1       555 5.49611E+04-4.64000E+05 9.35186E+04-6.94609E+05-7.98173E-09-1.91721E-09
 -1       556-3.99084E+05-2.07609E+05 2.46821E+04-3.67513E+05-9.77525E-09-9.45874E-11
 -1       557-3.74005E+05-2.36039E+05 1.20451E+04-3.88192E+05-1.31949E-08 1.69784E-08
 -1       558-4.00779E+05-2.16587E+05 5.00276E+03-3.62479E+05-8.44011E-09 6.80302E-10
 -1       559-3.76879E+05-2.40255E+05 2.47708E+03-3.89600E+05-2.50293E-09 1.35333E-09
 -1       560-4.01715E+05-2.16441E+05 1.06927E+03-3.62749E+05-2.02999E-09 1.97383E-09
 -1       561-3.77921E+05-2.40132E+05 5.13028E+02-3.90354E+05 3.18687E-09 1.10056E-08
 -1       562-4.02358E+05-2.16062E+05 1.54050E+02-3.63161E+05-5.43150E-09 3.97085E-09
 -1       563-3.78500E+05-2.39884E+05-5.94841E+01-3.90762E+05-9.66975E-09 1.19144E-08
 -1       564-4.02682E+05-2.15850E+05-3.46411E+02-3.63384E+05 5.30417E-09-1.50467E-08
 -1       565-3.78753E+05-2.39785E+05-8.46021E+02-3.90918E+05 3.01707E-08-1.74769E-08
 -1       566-4.02656E+05-2.15819E+05-1.80990E+03-3.63396E+05 1.56583E-08-8.13634E-09
 -1       567-3.78982E+05-2.40079E+05-4.01470E+03-3.90774E+05 8.39464E-10-8.44011E-10
 -1       568-4.02152E+05-2.16783E+05-8.30458E+03-3.62863E+05-4.87489E-10-6.72298E-09
 -1       569-3.83097E+05-2.45786E+05-1.96178E+04-3.88946E+05 2.90856E-09-4.68572E-09
 -1       570-4.00499E+05-2.34381E+05-4.05832E+04-3.55433E+05 1.53887E-09 1.29876E-09
 -1       571 6.78259E+05 3.56816E+04 5.94929E+04-1.69356E+05-3.91083E-10 2.77396E-09
 -1       572 6.87739E+05 1.16394E+04 2.94203E+04-1.89047E+05-1.97178E-09 6.33008E-10
 -1       573 6.81918E+05 2.15917E+03 1.31283E+04-1.68780E+05-1.09612E-08 7.67068E-09
 -1       574 6.82879E+05 5.94684E+02 6.62951E+03-1.89624E+05-1.99179E-08-3.32147E-09
 -1       575 6.82127E+05-4.16245E+01 3.15942E+03-1.68719E+05-9.39781E-09-1.97724E-09
 -1       576 6.82189E+05-3.33238E+01 1.63029E+03-1.89690E+05 2.16687E-10 5.36420E-09
 -1       577 6.82124E+05-6.15311E+01 8.33231E+02-1.68713E+05-5.45242E-10 5.08953E-09
 -1       578 6.82143E+05-5.11721E+01 5.06821E+02-1.89699E+05-9.85892E-10-2.07365E-09
 -1       579 6.82247E+05-1.07141E+02 3.98649E+02-1.68711E+05-1.11613E-08 5.65888E-09
 -1       580 6.82376E+05-1.61921E+02 5.19953E+02-1.89697E+05-2.07729E-08 5.60976E-09
 -1       581 6.82526E+05-2.59039E+02 8.57628E+02-1.68714E+05-1.16124E-08-3.01952E-09
 -1       582 6.82936E+05-2.04988E+02 1.74340E+03-1.89611E+05-1.13505E-09-1.13869E-09
 -1       583 6.82877E+05 7.11806E+01 3.38799E+03-1.68796E+05-7.13044E-10-1.11504E-09
 -1       584 6.84724E+05 2.39584E+03 7.61013E+03-1.88821E+05-4.04543E-09 1.05319E-09
 -1       585 6.82409E+05 8.51510E+03 1.53311E+04-1.69528E+05 1.88447E-09 1.35333E-09
 -1       586 6.79464E+03 2.02855E+05 1.04331E+04-5.29007E+05 9.91349E-10-1.13869E-09
 -1       587 4.40781E+03 2.03924E+05 8.97418E+03-5.92687E+05-2.38288E-09 7.82165E-10
 -1       588 4.03396E+03 2.02181E+05 1.14973E+04-5.28321E+05 9.56788E-10 3.09910E-09
 -1       589 1.11100E+04 2.06435E+05 2.26331E+04-5.92760E+05-2.09548E-09-3.32375E-09
 -1       590 2.82193E+04 1.99942E+05 4.42145E+04-5.28907E+05 1.63345E-09-1.26056E-09
 -1       591-2.82822E+05-1.14052E+05-4.92680E+04-1.66774E+05-4.79758E-10 2.20098E-09
 -1       592-2.81798E+05-1.07738E+05-2.38583E+04-1.84021E+05-6.42467E-09-1.12959E-08
 -1       593-2.83814E+05-9.33150E+04-1.01043E+04-1.75876E+05-7.76708E-10 2.05910E-09
 -1       594-2.76692E+05-1.00578E+05-4.92602E+03-1.85388E+05-1.12414E-09 2.67204E-09
 -1       595-2.84083E+05-9.23400E+04-2.26435E+03-1.76376E+05-1.07275E-08 4.48608E-09
 -1       596-2.76312E+05-1.00238E+05-1.15477E+03-1.85421E+05-2.04268E-08 4.00723E-09
 -1       597-2.84152E+05-9.23436E+04-6.44956E+02-1.76399E+05-8.66248E-09-1.11731E-09
 -1       598-2.76282E+05-1.00234E+05-5.46938E+02-1.85414E+05-2.00146E-10-4.84033E-09
 -1       599-2.84141E+05-9.23436E+04-7.34790E+02-1.76395E+05-2.38742E-10-5.12318E-09
 -1       600-2.76309E+05-1.00243E+05-1.39235E+03-1.85414E+05-1.44792E-09-1.46747E-09
 -1       601-2.84041E+05-9.23401E+04-2.77017E+03-1.76360E+05 7.00311E-11-8.43102E-10
 -1       602-2.76769E+05-1.00667E+05-6.05081E+03-1.85372E+05 2.99224E-10-3.52156E-09
 -1       603-2.83710E+05-9.35403E+04-1.24186E+04-1.75742E+05-1.65892E-09-2.78669E-09
 -1       604-2.83024E+05-1.09487E+05-2.93265E+04-1.83717E+05-1.52068E-09-4.73938E-09
 -1       605-2.82511E+05-1.18993E+05-6.05545E+04-1.64526E+05-2.68483E-09-4.97130E-09
 -1       606 1.73575E+05-2.34631E+04-3.88399E+04 5.17481E+04-1.09376E-08 2.58842E-09
 -1       607 1.67226E+05-7.67867E+03-1.91914E+04 5.71629E+04-3.23234E-09 7.32848E-09
 -1       608 1.70844E+05-1.44047E+03-8.57075E+03 5.13480E+04 7.09770E-09 6.60839E-09
 -1       609 1.70034E+05-2.97106E+02-4.31211E+03 5.75709E+04-7.10861E-09 3.98359E-09
 -1       610 1.70454E+05 1.45555E+02-2.05216E+03 5.13010E+04-1.62872E-08 4.03816E-10
 -1       611 1.70269E+05 2.28751E+02-1.03594E+03 5.76172E+04-2.76559E-08-1.98270E-10
 -1       612 1.70330E+05 2.31982E+02-5.01342E+02 5.12968E+04-1.27839E-08 9.45874E-10
 -1       613 1.70237E+05 2.73178E+02-2.40379E+02 5.76212E+04-1.27111E-08 2.38197E-09
 -1       614 1.70257E+05 2.49650E+02-9.45802E+01 5.12960E+04-1.64255E-09 2.93176E-09
 -1       615 1.70186E+05 2.98187E+02 5.77436E+00 5.76204E+04 1.20708E-08-3.46245E-09
 -1       616 1.70203E+05 2.74129E+02 1.05236E+02 5.12969E+04-4.95402E-09-4.54747E-12
 -1       617 1.70165E+05 3.51623E+02 2.74526E+02 5.76181E+04 2.09002E-09 4.55839E-09
 -1       618 1.70151E+05 3.94581E+02 5.68097E+02 5.12973E+04 1.21145E-09 3.48336E-10
 -1       619 1.70336E+05 8.58508E+02 1.28752E+03 5.76151E+04 4.96811E-10 8.64020E-10
 -1       620 1.69957E+05 1.88311E+03 2.61045E+03 5.12934E+04-9.66793E-10-1.24055E-09
 -1       621 5.92671E+03 6.36239E+05 1.23449E+04-7.48718E+04-4.89763E-09-1.32077E-08
 -1       622 2.40991E+03 6.38489E+05 9.78974E+03-8.60927E+04-3.44335E-09-1.62991E-08
 -1       623 1.62020E+03 6.36793E+05 1.16485E+04-7.49830E+04-4.49927E-09-1.15197E-08
 -1       624 7.54024E+03 6.41186E+05 2.21492E+04-8.56824E+04-2.32831E-09-3.15777E-09
 -1       625 2.27786E+04 6.33843E+05 4.26071E+04-7.52708E+04-3.33011E-09-1.66801E-09
 -1       626 2.30219E+05 7.64588E+04-2.19461E+04 1.64257E+05-2.47746E-09 4.74938E-09
 -1       627 2.21565E+05 8.96490E+04-1.04877E+04 1.67017E+05-6.25005E-09-3.48530E-09
 -1       628 2.30350E+05 8.65519E+04-4.42657E+03 1.59334E+05 2.24645E-09 4.73983E-09
 -1       629 2.23275E+05 9.36731E+04-2.13406E+03 1.66611E+05 4.81214E-09 1.30765E-08
 -1       630 2.30217E+05 8.71702E+04-9.55974E+02 1.58948E+05-1.62436E-08 3.04215E-09
 -1       631 2.23339E+05 9.39513E+04-4.40493E+02 1.66575E+05-4.01997E-08-5.11250E-10
 -1       632 2.30128E+05 8.72039E+04-1.55798E+02 1.58891E+05-3.59669E-08-9.54969E-12
 -1       633 2.23303E+05 9.39780E+04 2.86494E+01 1.66550E+05-3.99086E-09 1.83763E-08
 -1       634 2.30074E+05 8.72023E+04 2.25163E+02 1.58869E+05 5.31327E-09 9.78116E-09
 -1       635 2.23309E+05 9.39862E+04 5.69686E+02 1.66544E+05-2.31439E-08 9.33414E-09
 -1       636 2.30037E+05 8.72095E+04 1.20555E+03 1.58853E+05-1.43332E-08 8.97853E-09
 -1       637 2.23577E+05 9.42310E+04 2.68888E+03 1.66521E+05 1.72758E-08 9.13133E-10
 -1       638 2.29962E+05 8.79599E+04 5.55355E+03 1.58518E+05 5.73527E-09 3.31693E-09
 -1       639 2.26461E+05 9.86721E+04 1.31763E+04 1.65529E+05-1.85976E-08 5.64432E-09
 -1       640 2.29867E+05 1.01055E+05 2.75552E+04 1.52988E+05 4.95675E-10 1.39989E-08
 -1       641 1.04903E+04 4.83705E+03-1.22658E+04-1.34346E+03-1.65822E-08-2.89810E-09
 -1       642 5.42366E+03-5.59708E+03-8.48599E+03 1.03449E+04-1.22936E-08 1.18234E-09
 -1       643 8.50093E+03 6.91134E+02-3.17456E+03-1.33563E+03-2.01010E-08-5.88216E-10
 -1       644 7.68110E+03-7.40317E+02-1.91204E+03 1.03322E+04 7.18208E-09-1.20991E-08
 -1       645 8.20531E+03 8.84424E+01-7.67064E+02-1.33118E+03-3.88400E-09-6.56354E-09
 -1       646 8.00585E+03-2.12019E+01-3.61747E+02 1.03244E+04-2.48898E-08-2.80735E-09
 -1       647 8.15931E+03-4.26989E+00-2.57986E+01-1.32801E+03 2.31580E-08-9.18772E-09
 -1       648 8.08186E+03 1.34723E+02 2.74043E+02 1.03209E+04 3.42331E-08-6.13613E-09
 -1       649 8.12285E+03-6.10430E+01 6.59944E+02-1.32769E+03 1.57269E-08-1.20208E-08
 -1       650 8.30480E+03 5.03289E+02 1.57189E+03 1.03217E+04 1.14111E-08-5.22817E-10
 -1       651 7.94028E+03-3.70582E+02 2.80761E+03-1.32883E+03 4.75080E-09-1.58343E-09
 -1       652 9.60643E+03 2.95933E+03 6.78287E+03 1.03233E+04 5.90560E-09 5.08180E-11
 -1       653 6.83564E+03-2.48616E+03 1.10805E+04-1.32935E+03 6.26665E-09-2.32831E-09
 -1       654 1.78010E+04 1.98815E+04 2.97229E+04 1.03036E+04-1.53535E-08-5.39148E-09
 -1       655-2.27003E+02-1.69991E+04 4.27538E+04-1.30997E+03 1.27569E-08-2.22099E-09
 -1       656 2.67704E+04-7.77557E+05-8.85071E+04 6.97132E+03-1.46028E-08-3.22643E-09
 -1       657-3.60870E+04-8.12442E+05-6.70388E+04 5.83910E+04-8.76571E-09 4.82623E-09
 -1       658 6.05767E+03-7.89347E+05-4.09802E+04 6.63269E+03-1.08172E-08 4.08102E-09
 -1       659-3.29073E+04-8.10856E+05-6.21562E+04 5.86624E+04-1.35610E-08 1.63985E-09
 -1       660 2.39178E+04-7.79234E+05-7.95913E+04 6.70242E+03-1.00445E-08-4.09545E-09
 -1       661 8.13106E+05 9.72849E+04 6.84405E+04 3.18008E+05-7.03949E-10 3.49246E-10
 -1       662 8.32440E+05 1.58714E+05 4.48898E+04 3.24216E+05-2.39410E-08 1.80989E-09
 -1       663 8.25621E+05 1.17040E+05 1.61695E+04 3.15313E+05-1.07566E-08 6.02995E-10
 -1       664 8.18157E+05 1.34835E+05 9.31703E+03 3.27599E+05-8.89946E-09-7.84996E-09
 -1       665 8.27137E+05 1.19668E+05 3.80451E+03 3.15175E+05-9.19204E-09-1.26849E-08
 -1       666 8.16455E+05 1.31662E+05 2.13688E+03 3.27715E+05 1.08068E-08-4.32692E-09
 -1       667 8.27274E+05 1.20063E+05 1.14752E+03 3.15242E+05 1.23355E-08-2.53181E-10
 -1       668 8.16329E+05 1.31274E+05 1.08744E+03 3.27642E+05 5.44956E-09 5.39740E-09
 -1       669 8.27252E+05 1.20048E+05 1.47026E+03 3.15247E+05 2.55956E-08-3.33534E-09
 -1       670 8.16622E+05 1.31846E+05 3.06114E+03 3.27675E+05 3.45718E-08 2.23071E-09
 -1       671 8.26991E+05 1.19508E+05 5.60816E+03 3.15205E+05 3.63173E-10-1.82536E-09
 -1       672 8.19289E+05 1.36436E+05 1.38352E+04 3.27334E+05-3.58526E-08-1.12386E-08
 -1       673 8.24641E+05 1.15691E+05 2.40503E+04 3.15510E+05 2.55545E-09-3.10774E-09
 -1       674 8.40739E+05 1.71748E+05 6.67828E+04 3.22036E+05 2.01774E-08-6.20275E-09
 -1       675 8.05895E+05 8.64394E+04 1.01852E+05 3.19668E+05 1.90266E-09-4.72210E-09
 -1       676 7.55728E+03-7.29472E+05-2.57878E+04 2.71843E+03-3.95812E-09-3.89491E-10
 -1       677-1.10613E+04-7.39900E+05-2.19606E+04 7.52681E+03-2.12781E-08-3.69289E-09
 -1       678 2.56248E+03-7.32261E+05-1.73327E+04 2.66709E+03 1.13196E-08 2.19131E-09
 -1       679-1.79820E+04-7.43590E+05-3.26864E+04 7.57393E+03-1.56510E-08-1.88513E-09
 -1       680 1.39014E+04-7.25787E+05-4.53035E+04 2.66970E+03 2.18643E-09 4.99897E-09
 -1       681 7.28362E+05-1.63696E+04 4.11608E+04 3.28608E+03 1.46429E-10 1.02773E-09
 -1       682 7.45953E+05 1.90434E+04 2.86621E+04-1.60052E+04-8.60609E-11-5.16593E-10
 -1       683 7.35206E+05-2.38675E+03 1.06988E+04 2.34031E+03 3.55840E-11 1.97360E-10
 -1       684 7.37985E+05 2.76200E+03 6.60684E+03-1.44543E+04-1.65073E-10 3.49246E-10
 -1       685 7.36285E+05-3.49830E+02 2.82839E+03 1.73560E+03 1.66722E-10 9.87029E-10
 -1       686 7.36711E+05 4.24523E+02 1.77973E+03-1.35452E+04 8.84199E-11 2.14240E-09
 -1       687 7.36454E+05-6.85254E+01 1.13617E+03 1.43124E+03-8.77662E-11 7.12276E-10
 -1       688 7.36577E+05 2.15734E+02 1.34278E+03-1.32174E+04-2.54715E-10-2.49486E-10
 -1       689 7.36409E+05-1.37718E+02 1.97270E+03 1.40779E+03-3.12198E-10-3.74826E-10
 -1       690 7.37075E+05 1.06345E+03 4.13816E+03-1.34514E+04 1.08372E-10 2.95017E-11
 -1       691 7.35961E+05-9.09140E+02 7.18811E+03 1.66524E+03 8.66294E-11-3.72438E-10
 -1       692 7.40329E+05 7.26954E+03 1.72077E+04-1.42613E+04 7.80460E-11-7.07132E-11
 -1       693 7.33174E+05-6.25749E+03 2.80802E+04 2.21766E+03-9.57243E-11-1.36424E-10
 -1       694 7.61022E+05 5.00860E+04 7.52296E+04-1.57222E+04-1.08344E-09-2.82671E-09
 -1       695 7.15304E+05-4.29687E+04 1.08246E+05 3.12496E+03-4.61796E-10-1.15688E-09
 -1       696-1.55239E+04 7.08734E+05 3.84631E+04 2.52012E+03 9.64064E-11-2.03272E-09
 -1       697 1.71678E+04 7.24442E+05 2.45765E+04-3.12431E+04 2.80124E-10-1.06718E-09
 -1       698-1.23274E+03 7.15732E+05 5.42442E+03 2.28213E+03-3.01043E-10 2.47644E-09
 -1       699-5.67957E+03 7.13482E+05-6.67054E+03-3.13745E+04-4.30418E-10 3.97912E-09
 -1       700 6.89884E+03 7.19716E+05-1.62102E+04 2.65079E+03-3.01043E-10 1.79648E-09
 -1       701-6.59139E+05-6.10456E+04-8.83878E+04-2.61987E+05-4.25644E-10-4.58385E-10
 -1       702-7.01294E+05-1.39579E+05-6.03273E+04-2.51178E+05-3.38332E-10 1.37425E-09
 -1       703-6.77216E+05-9.05205E+04-2.07919E+04-2.56029E+05-7.33735E-10 2.51930E-10
 -1       704-6.80080E+05-1.05563E+05-1.26428E+04-2.58524E+05 9.17737E-11 1.63413E-09
 -1       705-6.80277E+05-9.45452E+04-4.87267E+03-2.54834E+05-3.94337E-10 5.43423E-11
 -1       706-6.76341E+05-1.01108E+05-2.82486E+03-2.60172E+05-7.12930E-10-1.21065E-09
 -1       707-6.80950E+05-9.48998E+04-1.35301E+03-2.54413E+05 4.18538E-10 4.07738E-10
 -1       708-6.75523E+05-1.00894E+05-1.16255E+03-2.60780E+05-1.38826E-10 3.07523E-10
 -1       709-6.81100E+05-9.47465E+04-1.33165E+03-2.54234E+05-1.97247E-11 6.95934E-10
 -1       710-6.75761E+05-1.01691E+05-2.77184E+03-2.60880E+05-1.10448E-09-6.52932E-10
 -1       711-6.80718E+05-9.41093E+04-4.75848E+03-2.54312E+05 8.66237E-10 4.54975E-10
 -1       712-6.78894E+05-1.06588E+05-1.23654E+04-2.59904E+05 9.76286E-10-3.28555E-10
 -1       713-6.77979E+05-8.99185E+04-2.03109E+04-2.55186E+05 4.26098E-10-5.77529E-10
 -1       714-6.99152E+05-1.40310E+05-5.89628E+04-2.53276E+05 3.79714E-11-8.51287E-10
 -1       715-6.60537E+05-6.08907E+04-8.63651E+04-2.60753E+05 6.36646E-11-9.02219E-10
 -1       716 2.93369E+05-2.79348E+04 6.99586E+04 4.85070E+03 6.13909E-11-3.27418E-10
 -1       717 3.23990E+05 3.24777E+04 4.88355E+04-3.43060E+04-1.01682E-09-5.09317E-11
 -1       718 3.05142E+05-4.09316E+03 1.81596E+04 4.07395E+03-1.38812E-09-1.13414E-09
 -1       719 3.10081E+05 4.80005E+03 1.12422E+04-3.30587E+04-8.00355E-10 1.57070E-09
 -1       720 3.07054E+05-6.09509E+02 4.76551E+03 3.60416E+03 1.83456E-09-1.83263E-09
 -1       721 3.07741E+05 8.40657E+02 2.94438E+03-3.24077E+04 4.22065E-09 1.19849E-09
 -1       722 3.07370E+05-1.20422E+02 1.77434E+03 3.42316E+03 2.19019E-09-1.31189E-09
 -1       723 3.07491E+05 4.36805E+02 1.93958E+03-3.23296E+04 1.43180E-09 4.29850E-10
 -1       724 3.07291E+05-2.02670E+02 2.70653E+03 3.52600E+03 2.02328E-09-5.13637E-10
 -1       725 3.08343E+05 1.52410E+03 5.62244E+03-3.28233E+04 2.98701E-09 1.42018E-09
 -1       726 3.06603E+05-1.25253E+03 9.64274E+03 3.91677E+03 5.42514E-10-5.54792E-11
 -1       727 3.13124E+05 9.80021E+03 2.32230E+04-3.39059E+04 1.21463E-09 3.93356E-10
 -1       728 3.02700E+05-8.47556E+03 3.76676E+04 4.60861E+03 4.72482E-10 8.47649E-10
 -1       729 3.41628E+05 6.73199E+04 1.01336E+05-3.56819E+04-8.90623E-10-1.60071E-09
 -1       730 2.78433E+05-5.79307E+04 1.45393E+05 5.69017E+03-9.59972E-10 2.29920E-09
 -1       731-2.66632E+04 2.60420E+05 6.71192E+04 6.08691E+03 1.47338E-09-9.49058E-10
 -1       732 3.13782E+04 2.88518E+05 4.67833E+04-5.04228E+04 1.77533E-09-9.64715E-10
 -1       733-4.00299E+03 2.71440E+05 1.76682E+04 6.05417E+03 1.51522E-09 8.71182E-10
 -1       734 5.58316E+03 2.76365E+05 1.15698E+04-5.07306E+04 1.86810E-09 2.88219E-09
 -1       735-1.40541E+03 2.72663E+05 5.39329E+03 6.39384E+03 7.78527E-10 2.16323E-09
 -1       736-1.76512E+06-2.02404E+05-1.32423E+05-6.86290E+05-4.09273E-10-1.54250E-09
 -1       737-1.83454E+06-3.13760E+05-9.03794E+04-6.62773E+05 1.10958E-09-5.68434E-10
 -1       738-1.79323E+06-2.45572E+05-3.11369E+04-6.76179E+05-1.27784E-10-2.91038E-10
 -1       739-1.80058E+06-2.64880E+05-1.89149E+04-6.76195E+05 7.31120E-10 3.68345E-10
 -1       740-1.79891E+06-2.50512E+05-7.29226E+03-6.73130E+05 3.72864E-10 8.64020E-10
 -1       741-1.79300E+06-2.60182E+05-4.20260E+03-6.80950E+05 1.76340E-09 2.33922E-09
 -1       742-1.80080E+06-2.50151E+05-1.99953E+03-6.71470E+05-1.69541E-09-8.56176E-10
 -1       743-1.79042E+06-2.61234E+05-1.67012E+03-6.83473E+05-3.30868E-09-2.40924E-09
 -1       744-1.80151E+06-2.49433E+05-1.86981E+03-6.70626E+05-2.08991E-09-3.33466E-09
 -1       745-1.79025E+06-2.62832E+05-3.85043E+03-6.84206E+05-1.34294E-09-1.08827E-09
 -1       746-1.80098E+06-2.48557E+05-6.59297E+03-6.70742E+05 2.55000E-10 2.63435E-09
 -1       747-1.79512E+06-2.69078E+05-1.71279E+04-6.82215E+05-1.62987E-09-8.70159E-10
 -1       748-1.79666E+06-2.43289E+05-2.81397E+04-6.72582E+05 6.48924E-10 1.54432E-09
 -1       749-1.82467E+06-3.14359E+05-8.17189E+04-6.71295E+05-9.44056E-10 1.12686E-09
 -1       750-1.77157E+06-2.03988E+05-1.19720E+05-6.81412E+05 2.55022E-09-1.04774E-09
 -1       751 3.52237E+06-1.73841E+05 4.39364E+05 1.58979E+04-6.32326E-09 4.07454E-09
 -1       752 3.70737E+06 2.02729E+05 3.05018E+05-3.33397E+04-6.33804E-09-1.49885E-09
 -1       753 3.59487E+06-2.53018E+04 1.14095E+05 8.10962E+03-5.50472E-10-3.41970E-10
 -1       754 3.62371E+06 2.94042E+04 6.99423E+04-2.12641E+04 1.35157E-09 4.38013E-09
 -1       755 3.60618E+06-3.67553E+03 2.94148E+04 3.83506E+03-3.87899E-10 1.64982E-09
 -1       756 3.61069E+06 4.30289E+03 1.72055E+04-1.47415E+04 6.17206E-10 1.68257E-10
 -1       757 3.60797E+06-5.85816E+02 8.75368E+03 1.58738E+03-8.71637E-10-3.92447E-10
 -1       758 3.60884E+06 1.07664E+03 7.02494E+03-1.16080E+04-2.98741E-10 1.29415E-09
 -1       759 3.60804E+06-4.82971E+02 7.50942E+03 7.01460E+02-2.50409E-10 1.31331E-09
 -1       760 3.61008E+06 3.37408E+03 1.36867E+04-1.09397E+04-4.95145E-10 2.60161E-09
 -1       761 3.60670E+06-2.84637E+03 2.29346E+04 9.19097E+02 5.08749E-12 3.02862E-10
 -1       762 3.62002E+06 2.27800E+04 5.41584E+04-1.25448E+04 1.02895E-09 4.68572E-09
 -1       763 3.59800E+06-1.95658E+04 8.82779E+04 2.30651E+03 1.94353E-09 4.86398E-09
 -1       764 3.68439E+06 1.56844E+05 2.35805E+05-1.69547E+04 1.15256E-09-2.22644E-09
 -1       765 3.54205E+06-1.34414E+05 3.39663E+05 5.32585E+03-2.66004E-09 1.33878E-09
 -1       766-7.33618E+04 6.88389E+05 1.88518E+05-3.24687E+03 3.96540E-09-7.40556E-10
 -1       767 9.24251E+04 7.70262E+05 1.44633E+05 5.18786E+03 5.48062E-09-3.21961E-10
 -1       768-1.74873E+04 7.15341E+05 7.73900E+04-1.81086E+03 1.58343E-09 1.48611E-09
 -1       769 6.78217E+04 7.58342E+05 1.10941E+05 2.51457E+03 1.41790E-09-1.10231E-09
 -1       770-4.91974E+04 7.00269E+05 1.29545E+05-5.78115E+02 6.40284E-10 7.02357E-10
 -1       771-1.91362E+06-4.00229E+05-9.42970E+04-8.17502E+05-2.96131E-09 1.89175E-09
 -1       772-1.91423E+06-3.85184E+05-4.56177E+04-8.47048E+05-5.80621E-09 3.44698E-09
 -1       773-1.91598E+06-3.60306E+05-1.93683E+04-8.34838E+05-1.25146E-09 1.62254E-09
 -1       774-1.90451E+06-3.71754E+05-9.41216E+03-8.50376E+05-1.39335E-09-1.30967E-09
 -1       775-1.91691E+06-3.58174E+05-4.35337E+03-8.35940E+05 8.51287E-10 1.53705E-09
 -1       776-1.90408E+06-3.71047E+05-2.18248E+03-8.50842E+05 3.02680E-09 1.31877E-10
 -1       777-1.91743E+06-3.57962E+05-1.19578E+03-8.36162E+05 5.96629E-10 9.46784E-10
 -1       778-1.90431E+06-3.70943E+05-9.02721E+02-8.51161E+05 1.40062E-10 2.15027E-09
 -1       779-1.91777E+06-3.57772E+05-1.12335E+03-8.36325E+05 7.63976E-11 1.10492E-09
 -1       780-1.90463E+06-3.70869E+05-2.01932E+03-8.51448E+05 1.40062E-10-1.67574E-09
 -1       781-1.91792E+06-3.57595E+05-3.98285E+03-8.36421E+05-1.29694E-09-2.13322E-09
 -1       782-1.90552E+06-3.71420E+05-8.67585E+03-8.51652E+05 2.82853E-10 1.02318E-09
 -1       783-1.91772E+06-3.59155E+05-1.78003E+04-8.35641E+05 5.74801E-10 1.16415E-09
 -1       784-1.91444E+06-3.84294E+05-4.20784E+04-8.49786E+05 8.52651E-10 2.49383E-09
 -1       785-1.91643E+06-3.95384E+05-8.68942E+04-8.19419E+05 6.25732E-10 9.34961E-10
 -1       786 9.67182E+05-3.37722E+04 1.08138E+05-4.59125E+02 7.59883E-10 1.55705E-09
 -1       787 1.00921E+06 4.12395E+04 7.20050E+04-1.32257E+04-4.83737E-10 1.49339E-09
 -1       788 9.84260E+05-4.10875E+03 2.81128E+04-6.96954E+02-8.16271E-11 1.25692E-09
 -1       789 9.89863E+05 4.93868E+03 1.63342E+04-1.28231E+04 3.11331E-10-9.10404E-10
 -1       790 9.86520E+05-5.04125E+02 7.19843E+03-8.58382E+02 3.60728E-10-1.86674E-09
 -1       791 9.87279E+05 5.87968E+02 4.00108E+03-1.25844E+04 8.92982E-10 2.89401E-09
 -1       792 9.86836E+05-6.71496E+01 2.06969E+03-9.35618E+02-8.74536E-11 3.09569E-09
 -1       793 9.86941E+05 1.07879E+02 1.52206E+03-1.25124E+04 9.32083E-10-3.30817E-09
 -1       794 9.86855E+05-4.71408E+01 1.57027E+03-9.30395E+02-8.32983E-10-2.75563E-09
 -1       795 9.87121E+05 3.71169E+02 2.65208E+03-1.26063E+04 1.14414E-09-1.44553E-10
 -1       796 9.86662E+05-3.18440E+02 4.58761E+03-8.41737E+02-8.61746E-10-5.17730E-10
 -1       797 9.88745E+05 3.09670E+03 1.02937E+04-1.28659E+04-3.08546E-10 2.08888E-09
 -1       798 9.85243E+05-2.58370E+03 1.76704E+04-6.70864E+02-1.09731E-09 1.63800E-09
 -1       799 1.00091E+06 2.58914E+04 4.52318E+04-1.32839E+04-2.63344E-09-4.73256E-09
 -1       800 9.74513E+05-2.12186E+04 6.79041E+04-4.25828E+02 1.07320E-10-1.75714E-09
 -1       801-3.62210E+04 9.03787E+05 1.09517E+05-8.13262E+04 1.32422E-09-6.12636E-09
 -1       802 6.17382E+04 9.46573E+05 9.90792E+04-8.72561E+05-3.22325E-09-1.06347E-08
 -1       803-9.71481E+03 9.16317E+05 8.03457E+04-8.31788E+04 8.21819E-09 1.08141E-08
 -1       804 9.72563E+04 9.68193E+05 1.55306E+05-8.72936E+05-7.18865E-09 9.11768E-09
 -1       805-7.02647E+04 8.84432E+05 2.11107E+05-8.09758E+04 6.54109E-09 1.21581E-08
 -1       806-7.00426E+05-1.77252E+05-6.37490E+04-3.11168E+05-8.68113E-09 9.44419E-09
 -1       807-7.02091E+05-1.62196E+05-3.04790E+04-3.29474E+05-1.68443E-08 2.20207E-08
 -1       808-7.00640E+05-1.47049E+05-1.28535E+04-3.24208E+05-1.58025E-08-2.45882E-09
 -1       809-6.95741E+05-1.51676E+05-6.23697E+03-3.31634E+05-2.63708E-09 2.22246E-09
 -1       810-7.00866E+05-1.45287E+05-2.84106E+03-3.25043E+05-2.07638E-09 1.56501E-09
 -1       811-6.95176E+05-1.51075E+05-1.43642E+03-3.31689E+05-2.64663E-09 2.50111E-09
 -1       812-7.00925E+05-1.45267E+05-7.75867E+02-3.25073E+05-9.88166E-10-8.24002E-10
 -1       813-6.95113E+05-1.51067E+05-6.15174E+02-3.31667E+05-1.47509E-09-3.67163E-09
 -1       814-7.00908E+05-1.45276E+05-7.74486E+02-3.25064E+05 3.15003E-09 1.05147E-08
 -1       815-6.95146E+05-1.51087E+05-1.43237E+03-3.31661E+05-1.61936E-09 3.88809E-09
 -1       816-7.00813E+05-1.45314E+05-2.83124E+03-3.25015E+05-1.37570E-08 4.69663E-09
 -1       817-6.95687E+05-1.51690E+05-6.21423E+03-3.31570E+05-2.25809E-08-2.85809E-09
 -1       818-7.00551E+05-1.47096E+05-1.28073E+04-3.24174E+05-6.47378E-09 1.81899E-09
 -1       819-7.02050E+05-1.62106E+05-3.03631E+04-3.29311E+05-2.31375E-09-3.51065E-10
 -1       820-7.00250E+05-1.77237E+05-6.35067E+04-3.11228E+05-2.26009E-09-5.25688E-10
 -1       821-7.15686E+05 2.72757E+04-8.72980E+04 6.78147E+01-6.50516E-09 1.01863E-09
 -1       822-7.49522E+05-3.33243E+04-5.81348E+04 1.13035E+04-4.22006E-09-4.84306E-09
 -1       823-7.29468E+05 3.30344E+03-2.26979E+04-2.46236E+02 7.16977E-09-2.98587E-09
 -1       824-7.33960E+05-3.95876E+03-1.31796E+04 1.18450E+04-3.17948E-09-1.75578E-09
 -1       825-7.31285E+05 3.98903E+02-5.82470E+03-4.76197E+02-1.10306E-08-4.10137E-09
 -1       826-7.31926E+05-4.22216E+02-3.25319E+03 1.22369E+04-2.25327E-08 5.49619E-10
 -1       827-7.31536E+05 5.31226E+01-1.73088E+03-6.38799E+02-1.28634E-08-9.26377E-10
 -1       828-7.31693E+05-3.05900E+01-1.35413E+03 1.24937E+04-1.33806E-08 4.39820E-09
 -1       829-7.31543E+05 4.74314E+01-1.51328E+03-7.33174E+02-1.69354E-09-1.19928E-09
 -1       830-7.31898E+05-3.13109E+02-2.67295E+03 1.26108E+04 8.78906E-09-5.85933E-09
 -1       831-7.31344E+05 3.27239E+02-4.69100E+03-7.55930E+02-6.65094E-09-2.35968E-09
 -1       832-7.33554E+05-3.13182E+03-1.05729E+04 1.25868E+04-3.92185E-09-1.38311E-09
 -1       833-7.29889E+05 2.65687E+03-1.81744E+04-7.08570E+02-1.34287E-09 1.95541E-10
 -1       834-7.46038E+05-2.66382E+04-4.65575E+04 1.24271E+04 1.84787E-09-2.95859E-09
 -1       835-7.18854E+05 2.18553E+04-6.98946E+04-5.91684E+02 5.88102E-09-5.35510E-09
 -1       836-5.60107E+04 2.15428E+06 1.86643E+05-2.16794E+04-2.81580E-09 2.56659E-09
 -1       837 7.79831E+04 2.22871E+06 1.47842E+05-1.97080E+05-5.90808E-09-6.06246E-09
 -1       838-1.47081E+04 2.17754E+06 1.00572E+05-2.30472E+04-4.02451E-09 3.01100E-09
 -1       839 9.16192E+04 2.23581E+06 1.68936E+05-1.96771E+05-8.44921E-09 7.92170E-09
 -1       840-6.83994E+04 2.14703E+06 2.25151E+05-2.19857E+04-3.01225E-09 6.05814E-09
 -1       841-3.05083E+05-2.55322E+04-5.03072E+04-1.23663E+05-2.33831E-09 3.20506E-09
 -1       842-3.34607E+05-6.46227E+04-3.43201E+04-1.11152E+05 5.12046E-10 1.86856E-09
 -1       843-3.14869E+05-4.27923E+04-1.18314E+04-1.20837E+05 9.50422E-09 6.62112E-09
 -1       844-3.23440E+05-4.43896E+04-7.18109E+03-1.14336E+05-3.86763E-09 1.47520E-09
 -1       845-3.16219E+05-4.54674E+04-2.74983E+03-1.20596E+05 1.84252E-09 9.47239E-10
 -1       846-3.21980E+05-4.11881E+04-1.55173E+03-1.14527E+05-6.29981E-09-3.76303E-09
 -1       847-3.16331E+05-4.59483E+04-6.61055E+02-1.20667E+05-1.47131E-08-1.30149E-09
 -1       848-3.21904E+05-4.05992E+04-4.06986E+02-1.14403E+05 4.11353E-09 8.37796E-09
 -1       849-3.16300E+05-4.60473E+04-2.79329E+02-1.20726E+05 6.11607E-09 7.52654E-09
 -1       850-3.21979E+05-4.05743E+04-4.06179E+02-1.14338E+05-8.42645E-09 8.01458E-10
 -1       851-3.16259E+05-4.59725E+04-6.24180E+02-1.20734E+05-6.51448E-09-7.57177E-09
 -1       852-3.22281E+05-4.12600E+04-1.56638E+03-1.14300E+05 1.00079E-08 3.14174E-09
 -1       853-3.15996E+05-4.53716E+04-2.56211E+03-1.20759E+05 6.65261E-09-2.01089E-09
 -1       854-3.24580E+05-4.57249E+04-7.41180E+03-1.13718E+05 9.28867E-09 9.08187E-10
 -1       855-3.13964E+05-4.15747E+04-1.08687E+04-1.21288E+05 1.57920E-08 6.38465E-09
 -1       856-8.22956E+05 2.47764E+04-7.95084E+04 4.10407E+01-1.14305E-08-1.13141E-09
 -1       857-8.53664E+05-3.02098E+04-5.29002E+04 2.56875E+04-1.28337E-08 1.71713E-09
 -1       858-8.35491E+05 2.98583E+03-2.06761E+04-5.53216E+02-1.47106E-08-2.00089E-09
 -1       859-8.39644E+05-3.43416E+03-1.19829E+04 2.66807E+04-2.89765E-09-1.42995E-09
 -1       860-8.37140E+05 3.60329E+02-5.29637E+03-9.57821E+02-2.88128E-09 9.01991E-10
 -1       861-8.37884E+05-1.81341E+02-2.93685E+03 2.73122E+04-2.12754E-08 6.77403E-10
 -1       862-8.37367E+05 5.45338E+01-1.53248E+03-1.18654E+03 2.57403E-08-5.99584E-10
 -1       863-8.37700E+05 1.93416E+02-1.14464E+03 2.75951E+04 4.63374E-08-4.55896E-09
 -1       864-8.37378E+05 4.49516E+01-1.20894E+03-1.24125E+03 2.51102E-08-2.58855E-09
 -1       865-8.37826E+05-2.46911E+01-2.07110E+03 2.75279E+04 2.76189E-08-5.39364E-09
 -1       866-8.37229E+05 2.50221E+02-3.60900E+03-1.11916E+03 7.43148E-09 6.63704E-10
 -1       867-8.39007E+05-2.21305E+03-8.09582E+03 2.71110E+04-4.16867E-09 3.11684E-09
 -1       868-8.36119E+05 2.01655E+03-1.39376E+04-8.23016E+02 8.51151E-09-1.04683E-09
 -1       869-8.48425E+05-2.02586E+04-3.56410E+04 2.63289E+04-4.41037E-09 2.54931E-09
 -1       870-8.27680E+05 1.66885E+04-5.35708E+04-3.31958E+02 3.04271E-09 6.98492E-10
 -1       871-5.20312E+03-3.90895E+04-7.84967E+03 1.19567E+05 3.60160E-10-2.09002E-09
 -1       872-1.90960E+03-4.03611E+04-2.15778E+03 1.36849E+05 9.31777E-09-3.48564E-09
 -1       873-1.72370E+02-3.99857E+04 2.55702E+03 1.19350E+05 6.36646E-11-9.14042E-11
 -1       874 2.87632E+03-3.80572E+04 9.16965E+03 1.36989E+05 3.41242E-09-8.19398E-10
 -1       875 1.03893E+04-4.15546E+04 1.98952E+04 1.19472E+05-2.12003E-09-2.19961E-09
 -1       876 8.86243E+05 1.02896E+05 8.47645E+04 3.47800E+05-1.44610E-10-3.01952E-09
 -1       877 9.08947E+05 1.80362E+05 5.56122E+04 3.57067E+05-1.99483E-08-5.46515E-09
 -1       878 9.01650E+05 1.27478E+05 2.00180E+04 3.44573E+05-1.60720E-08 1.84809E-09
 -1       879 8.91390E+05 1.50606E+05 1.15373E+04 3.61026E+05 1.47793E-12-7.48059E-11
 -1       880 9.03450E+05 1.30822E+05 4.69124E+03 3.44492E+05 9.69362E-09-6.72730E-09
 -1       881 8.89396E+05 1.46533E+05 2.60958E+03 3.60991E+05 1.36779E-08-7.22565E-09
 -1       882 9.03561E+05 1.31381E+05 1.34104E+03 3.44646E+05 7.58894E-09 1.99100E-09
 -1       883 8.89315E+05 1.45925E+05 1.16918E+03 3.60765E+05-1.79725E-09 6.72651E-09
 -1       884 9.03501E+05 1.31428E+05 1.47240E+03 3.44705E+05 1.97399E-08-1.22321E-09
 -1       885 8.89640E+05 1.46408E+05 2.97915E+03 3.60729E+05 4.71162E-08-1.15449E-10
 -1       886 9.03240E+05 1.30919E+05 5.42185E+03 3.44675E+05 1.43093E-08-9.69249E-09
 -1       887 8.92200E+05 1.50850E+05 1.33504E+04 3.60424E+05-3.82835E-08-1.99141E-08
 -1       888 9.01001E+05 1.27207E+05 2.31970E+04 3.44939E+05 3.06829E-09-7.32143E-10
 -1       889 9.12820E+05 1.84992E+05 6.44119E+04 3.55429E+05 1.04119E-08 3.31602E-09
 -1       890 8.82978E+05 9.89266E+04 9.82212E+04 3.48878E+05 8.84211E-09 3.51793E-09
 -1       891 3.85751E+03-3.80790E+05-1.37401E+04 1.19023E+04 1.65728E-08 3.52156E-09
 -1       892-6.37077E+03-3.85696E+05-1.17037E+04 1.26457E+05 6.02063E-09-3.79384E-09
 -1       893 1.36574E+03-3.82228E+05-9.37579E+03 1.16778E+04 1.08203E-08 1.52457E-09
 -1       894-1.03346E+04-3.87758E+05-1.78265E+04 1.26423E+05-6.85759E-09-3.54339E-09
 -1       895 7.46161E+03-3.78687E+05-2.48984E+04 1.19345E+04 8.49468E-10 4.13820E-10
 -1       896 1.13245E+06-7.61711E+03 1.91454E+04 3.22412E+03-3.54248E-10-1.47065E-09
 -1       897 1.14062E+06 8.85064E+03 1.33448E+04-1.15913E+04-8.43556E-11-1.02546E-09
 -1       898 1.13564E+06-1.11079E+03 4.98388E+03 2.09027E+03-4.46335E-10-8.18545E-10
 -1       899 1.13690E+06 1.28004E+03 3.09258E+03-9.69671E+03-4.25985E-10-5.55929E-11
 -1       900 1.13615E+06-1.63806E+02 1.34485E+03 1.32970E+03 4.75438E-10-1.91221E-10
 -1       901 1.13630E+06 1.99555E+02 8.92359E+02-8.48153E+03 6.42615E-10 2.03386E-10
 -1       902 1.13623E+06-3.70531E+01 6.47043E+02 8.75058E+02 1.97360E-10 2.80640E-10
 -1       903 1.13625E+06 1.38100E+02 8.81844E+02-7.83608E+03-6.23743E-10 4.08392E-10
 -1       904 1.13619E+06-9.83441E+01 1.39286E+03 6.84241E+02 4.42533E-10 1.56319E-10
 -1       905 1.13661E+06 7.71674E+02 2.99068E+03-7.70237E+03 4.25690E-10-5.18980E-11
 -1       906 1.13587E+06-6.60724E+02 5.23001E+03 7.41350E+02 4.34369E-10-3.16277E-10
 -1       907 1.13894E+06 5.30051E+03 1.25267E+04-8.06877E+03 1.67148E-10 3.24690E-10
 -1       908 1.13385E+06-4.55424E+03 2.04653E+04 1.05066E+03-8.08882E-11-1.58252E-10
 -1       909 1.15395E+06 3.64957E+04 5.47901E+04-8.97407E+03-3.75167E-11-1.76806E-09
 -1       910 1.12085E+06-3.12880E+04 7.88656E+04 1.64633E+03 1.19826E-10-4.18368E-10
 -1       911 3.94626E+05-5.23775E+03 1.31353E+04 1.59114E+03 1.95996E-10-3.09228E-10
 -1       912 4.00296E+05 6.09508E+03 9.16803E+03-1.12072E+04-5.68434E-12 8.69932E-10
 -1       913 3.96822E+05-7.67538E+02 3.42540E+03 1.20709E+03-8.82210E-11 4.41787E-10
 -1       914 3.97722E+05 8.98742E+02 2.14419E+03-1.05574E+04-5.04940E-10 1.60102E-09
 -1       915 3.97172E+05-1.16237E+02 9.59898E+02 9.41326E+02 1.17973E-09 8.96080E-10
 -1       916 3.97302E+05 1.64761E+02 6.94203E+02-1.01415E+04 1.41952E-09 1.62636E-09
 -1       917 3.97224E+05-3.37914E+01 5.99174E+02 7.91203E+02 1.26377E-09 8.32618E-10
 -1       918 3.97294E+05 1.67790E+02 9.40011E+02-9.95279E+03 3.35604E-10 2.52172E-09
 -1       919 3.97173E+05-1.14418E+02 1.57656E+03 7.52612E+02 1.42594E-09 1.73691E-09
 -1       920 3.97721E+05 9.12622E+02 3.44807E+03-9.98533E+03 9.03739E-10 1.25601E-09
 -1       921 3.96798E+05-7.69164E+02 6.05358E+03 8.23769E+02 1.25351E-09 1.19030E-09
 -1       922 4.00447E+05 6.16886E+03 1.45271E+04-1.02389E+04 9.91122E-10 1.31467E-09
 -1       923 3.94455E+05-5.29005E+03 2.37331E+04 1.00631E+03-2.40846E-10 2.94676E-10
 -1       924 4.17887E+05 4.23760E+04 6.35782E+04-1.07197E+04-6.87464E-10 6.33008E-10
 -1       925 3.79377E+05-3.63226E+04 9.15150E+04 1.30454E+03 8.97558E-10 7.45786E-10
 -1       926-1.50775E+06 3.15529E+04-7.94181E+04-4.91311E+02 1.45997E-09-2.29193E-10
 -1       927-1.54096E+06-3.68073E+04-5.51743E+04 2.64863E+03 7.77561E-10-9.36780E-11
 -1       928-1.52081E+06 4.58972E+03-2.05883E+04-1.25907E+03-5.89125E-10-7.27596E-11
 -1       929-1.52586E+06-5.33999E+03-1.25915E+04 3.99798E+03 1.75851E-09-2.77419E-09
 -1       930-1.52282E+06 6.63507E+02-5.24652E+03-1.84066E+03 5.13239E-10-6.82121E-13
 -1       931-1.52353E+06-7.65614E+02-2.98459E+03 4.91036E+03-4.55884E-11-1.02722E-09
 -1       932-1.52314E+06 9.53250E+01-1.36275E+03-2.17152E+03 5.70793E-10-6.44832E-10
 -1       933-1.52317E+06-1.15763E+02-8.09637E+02 5.28385E+03 1.59234E-10-1.46781E-09
 -1       934-1.52318E+06 2.45216E+01-5.12234E+02-2.21417E+03 1.00393E-10-6.46367E-10
 -1       935-1.52315E+06-1.13779E+02-5.83711E+02 5.07537E+03 1.16624E-09-2.29838E-09
 -1       936-1.52315E+06 9.18442E+01-8.10045E+02-1.96303E+03-5.52063E-10-6.21839E-10
 -1       937-1.52345E+06-7.38788E+02-1.78900E+03 4.30907E+03 1.14019E-09-2.26873E-09
 -1       938-1.52288E+06 6.35430E+02-2.88246E+03-1.44785E+03 1.55029E-09-1.84752E-09
 -1       939-1.52553E+06-5.11142E+03-7.67189E+03 3.07236E+03 1.17504E-09-1.01591E-09
 -1       940-1.52107E+06 4.38010E+03-1.10450E+04-7.26285E+02 3.45381E-10 2.31921E-10
 -1       941 5.09042E+06-2.32195E+05 5.87965E+05-2.11214E+00 8.19830E-09 5.29690E-09
 -1       942 5.33624E+06 2.71069E+05 4.07781E+05 7.16044E+03 6.64784E-09-5.67525E-09
 -1       943 5.18708E+06-3.38032E+04 1.52755E+05 1.42758E+03 4.05976E-10-7.27596E-10
 -1       944 5.22520E+06 3.93644E+04 9.35880E+04 4.91374E+03-1.64601E-09-3.38150E-09
 -1       945 5.20214E+06-4.91138E+03 3.94394E+04 2.24469E+03 1.74934E-09 3.40515E-09
 -1       946 5.20804E+06 5.77574E+03 2.31002E+04 3.53940E+03 1.31644E-09 7.89078E-09
 -1       947 5.20451E+06-7.86702E+02 1.18528E+04 2.80226E+03 8.27782E-10 5.57884E-09
 -1       948 5.20565E+06 1.47856E+03 9.66519E+03 2.44883E+03 1.33896E-09 1.17171E-09
 -1       949 5.20458E+06-6.77051E+02 1.05266E+04 3.33535E+03-1.35623E-09-7.64771E-09
 -1       950 5.20746E+06 4.77013E+03 1.93648E+04 1.18080E+03 2.18012E-09 5.39694E-09
 -1       951 5.20266E+06-4.02921E+03 3.25372E+04 4.07027E+03-2.53812E-09-6.43740E-09
 -1       952 5.22151E+06 3.22721E+04 7.68367E+04-8.11130E+02-9.15392E-10-5.04770E-09
 -1       953 5.19031E+06-2.77124E+04 1.25280E+05 5.32675E+03-3.05442E-09 6.69388E-10
 -1       954 5.31257E+06 2.22234E+05 3.34352E+05-4.47725E+03-5.61479E-09-4.50018E-09
 -1       955 5.11098E+06-1.90391E+05 4.81861E+05 7.73042E+03-7.31904E-09 1.54250E-09
 -1       956-2.95291E+05-4.63040E+03-8.77374E+03 5.31215E+04-1.02664E-08-7.45786E-10
 -1       957-2.96823E+05-1.38846E+03-4.37781E+03 6.03174E+04-2.26191E-09-9.94987E-10
 -1       958-2.96031E+05-1.25105E+02-1.96844E+03 5.27837E+04 8.01265E-09-4.31169E-09
 -1       959-2.96221E+05 1.08051E+02-9.95136E+02 6.06874E+04-5.02678E-09-3.01134E-09
 -1       960-2.96178E+05 1.72668E+02-4.83668E+02 5.27444E+04-1.08739E-08-3.30783E-09
 -1       961-2.96235E+05 2.28433E+02-2.52303E+02 6.07315E+04-2.05428E-08 5.93445E-10
 -1       962-2.96251E+05 2.12368E+02-1.41357E+02 5.27383E+04-8.65657E-09-4.60204E-09
 -1       963-2.96287E+05 2.61509E+02-1.04194E+02 6.07394E+04-1.24910E-08 4.31100E-10
 -1       964-2.96294E+05 2.37687E+02-1.17698E+02 5.27358E+04-3.99450E-09-6.53108E-09
 -1       965-2.96329E+05 2.81651E+02-1.94787E+02 6.07408E+04 9.07926E-09-3.44153E-09
 -1       966-2.96308E+05 2.50223E+02-3.62426E+02 5.27366E+04-5.87397E-09-4.69845E-09
 -1       967-2.96394E+05 2.33076E+02-7.46929E+02 6.07276E+04 4.94008E-10-2.52794E-09
 -1       968-2.96260E+05 6.51406E+01-1.47209E+03 5.27496E+04-1.36015E-09-3.24144E-09
 -1       969-2.96916E+05-8.56431E+02-3.28401E+03 6.06029E+04-2.37560E-09-2.71712E-09
 -1       970-2.95752E+05-3.29610E+03-6.57661E+03 5.28711E+04 5.18185E-09-6.70661E-09
 -1       971-1.00142E+06 2.19866E+04-7.06084E+04-4.06133E+02-1.00044E-08-1.06957E-09
 -1       972-1.02861E+06-2.68267E+04-4.69693E+04 2.41504E+04-1.16909E-08 2.12822E-09
 -1       973-1.01254E+06 2.64126E+03-1.83706E+04-1.14472E+03-1.85573E-08-2.14004E-09
 -1       974-1.01618E+06-3.04285E+03-1.06532E+04 2.54003E+04-2.34650E-10-2.89674E-09
 -1       975-1.01400E+06 3.13070E+02-4.73924E+03-1.66082E+03 1.68711E-09-6.49015E-09
 -1       976-1.01464E+06-1.47676E+02-2.67681E+03 2.62217E+04-1.75069E-08-1.36748E-09
 -1       977-1.01420E+06 4.61627E+01-1.50003E+03-1.96773E+03 1.86278E-08-3.77173E-09
 -1       978-1.01452E+06 1.72761E+02-1.30614E+03 2.66257E+04 4.89423E-08-1.02039E-08
 -1       979-1.01419E+06 5.64151E+01-1.62913E+03-2.06543E+03 2.94810E-08-6.95266E-09
 -1       980-1.01476E+06-1.79970E+02-3.03888E+03 2.66085E+04 3.02359E-08-5.87596E-09
 -1       981-1.01396E+06 3.77026E+02-5.42232E+03-1.95039E+03-2.98292E-09-5.51222E-09
 -1       982-1.01661E+06-3.48555E+03-1.22656E+04 2.61712E+04-3.39014E-09-8.03084E-10
 -1       983-1.01227E+06 3.07101E+03-2.11281E+04-1.62656E+03 1.42286E-08-3.68436E-09
 -1       984-1.03100E+06-3.08513E+04-5.40998E+04 2.53148E+04-7.91556E-09-5.54064E-09
 -1       985-9.99458E+05 2.53654E+04-8.12720E+04-1.08639E+03 1.78579E-08-3.83443E-09
 -3
 9999
