
 stresses (elem, integ.pnt.,sxx,syy,szz,sxy,sxz,syz) for set ELALL and time  0.1000000E+01

         1   1 -5.255306E+06 -6.301859E+05 -8.183961E+05 -9.256034E+04 -5.568248E+05  8.368810E+01
         1   2 -5.131031E+06  1.394039E+05 -3.500813E+05 -2.394551E+04 -3.658601E+05  1.422368E+01
         1   3 -5.253692E+06  2.315966E+04 -2.281868E+05  4.468213E+04 -1.749036E+05 -1.269079E+01
         1   4 -5.255315E+06 -6.302022E+05 -8.183985E+05  6.688565E-08 -5.568248E+05  3.246771E-10
         1   5 -5.131032E+06  1.394028E+05 -3.500815E+05  6.680197E-08 -3.658601E+05  5.071349E-10
         1   6 -5.253694E+06  2.315588E+04 -2.281874E+05  1.397956E-07 -1.749036E+05 -8.816531E-10
         1   7 -5.255306E+06 -6.301859E+05 -8.183961E+05  9.256034E+04 -5.568248E+05 -8.368810E+01
         1   8 -5.131031E+06  1.394039E+05 -3.500813E+05  2.394551E+04 -3.658601E+05 -1.422368E+01
         1   9 -5.253692E+06  2.315966E+04 -2.281868E+05 -4.468213E+04 -1.749036E+05  1.269079E+01
         1  10 -5.255641E+06 -6.302700E+05 -8.189837E+05 -9.256032E+04  1.110707E-09  5.402035E-10
         1  11 -5.131176E+06  1.393676E+05 -3.503350E+05 -2.394551E+04  2.748251E-09  1.246390E-11
         1  12 -5.253725E+06  2.315136E+04 -2.282448E+05  4.468213E+04  4.244995E-09 -4.314049E-10
         1  13 -5.255650E+06 -6.302863E+05 -8.189860E+05 -1.907998E-08 -2.215524E-09  1.363747E-10
         1  14 -5.131176E+06  1.393665E+05 -3.503351E+05  4.959900E-08 -1.200580E-11  1.391121E-10
         1  15 -5.253727E+06  2.314758E+04 -2.282454E+05  7.526742E-08  2.954896E-09  1.364788E-10
         1  16 -5.255641E+06 -6.302700E+05 -8.189837E+05  9.256032E+04  1.378241E-09  2.740929E-10
         1  17 -5.131176E+06  1.393676E+05 -3.503350E+05  2.394551E+04  2.665580E-09  8.055478E-10
         1  18 -5.253725E+06  2.315136E+04 -2.282448E+05 -4.468213E+04  1.685030E-09 -3.364095E-10
         1  19 -5.255306E+06 -6.301859E+05 -8.183961E+05 -9.256034E+04  5.568248E+05 -8.368810E+01
         1  20 -5.131031E+06  1.394039E+05 -3.500813E+05 -2.394551E+04  3.658601E+05 -1.422368E+01
         1  21 -5.253692E+06  2.315966E+04 -2.281868E+05  4.468213E+04  1.749036E+05  1.269079E+01
         1  22 -5.255315E+06 -6.302022E+05 -8.183985E+05  3.253876E-08  5.568248E+05 -1.348119E-10
         1  23 -5.131032E+06  1.394028E+05 -3.500815E+05 -5.359956E-08  3.658601E+05  3.088365E-12
         1  24 -5.253694E+06  2.315588E+04 -2.281874E+05  8.600464E-08  1.749036E+05  1.011982E-09
         1  25 -5.255306E+06 -6.301859E+05 -8.183961E+05  9.256034E+04  5.568248E+05  8.368810E+01
         1  26 -5.131031E+06  1.394039E+05 -3.500813E+05  2.394551E+04  3.658601E+05  1.422368E+01
         1  27 -5.253692E+06  2.315966E+04 -2.281868E+05 -4.468213E+04  1.749036E+05 -1.269079E+01
         2   1 -5.207794E+06 -9.142960E+04 -1.884847E+05 -1.274682E+04 -1.376551E+05  2.849160E+00
         2   2 -5.188409E+06  2.029042E+04 -9.064247E+04 -3.050566E+03 -9.031940E+04  4.473808E-01
         2   3 -5.207485E+06  3.277392E+03 -5.598463E+04  6.645716E+03 -4.298252E+04 -4.638342E-01
         2   4 -5.207794E+06 -9.142991E+04 -1.884848E+05  3.356675E-08 -1.376551E+05 -1.454723E-09
         2   5 -5.188409E+06  2.029040E+04 -9.064247E+04 -3.033332E-08 -9.031940E+04  5.155127E-10
         2   6 -5.207485E+06  3.277308E+03 -5.598464E+04  5.837499E-08 -4.298252E+04  3.888605E-10
         2   7 -5.207794E+06 -9.142960E+04 -1.884847E+05  1.274682E+04 -1.376551E+05 -2.849160E+00
         2   8 -5.188409E+06  2.029042E+04 -9.064247E+04  3.050566E+03 -9.031940E+04 -4.473808E-01
         2   9 -5.207485E+06  3.277392E+03 -5.598463E+04 -6.645716E+03 -4.298252E+04  4.638342E-01
         2  10 -5.207814E+06 -9.143474E+04 -1.885206E+05 -1.274682E+04  1.159964E-09  6.960626E-12
         2  11 -5.188418E+06  2.028821E+04 -9.065793E+04 -3.050566E+03 -2.012060E-09  6.012848E-10
         2  12 -5.207487E+06  3.276891E+03 -5.598813E+04  6.645716E+03 -4.035687E-09  4.944042E-10
         2  13 -5.207814E+06 -9.143505E+04 -1.885207E+05 -1.801852E-08  4.415345E-09 -4.067980E-11
         2  14 -5.188418E+06  2.028819E+04 -9.065793E+04 -3.033119E-08  2.441780E-09  1.259329E-10
         2  15 -5.207487E+06  3.276807E+03 -5.598814E+04 -3.941909E-09  2.912643E-09  5.406436E-10
         2  16 -5.207814E+06 -9.143474E+04 -1.885206E+05  1.274682E+04  2.114063E-09  1.278389E-10
         2  17 -5.188418E+06  2.028821E+04 -9.065793E+04  3.050566E+03 -8.169357E-10 -1.098663E-09
         2  18 -5.207487E+06  3.276891E+03 -5.598813E+04 -6.645716E+03  8.787430E-10  2.049168E-10
         2  19 -5.207794E+06 -9.142960E+04 -1.884847E+05 -1.274682E+04  1.376551E+05 -2.849160E+00
         2  20 -5.188409E+06  2.029042E+04 -9.064247E+04 -3.050566E+03  9.031940E+04 -4.473807E-01
         2  21 -5.207485E+06  3.277392E+03 -5.598463E+04  6.645716E+03  4.298252E+04  4.638342E-01
         2  22 -5.207794E+06 -9.142991E+04 -1.884848E+05  3.355201E-08  1.376551E+05  7.821186E-10
         2  23 -5.188409E+06  2.029040E+04 -9.064247E+04 -1.313273E-08  9.031940E+04 -4.202204E-10
         2  24 -5.207485E+06  3.277308E+03 -5.598464E+04  1.099990E-07  4.298252E+04  2.619898E-10
         2  25 -5.207794E+06 -9.142960E+04 -1.884847E+05  1.274682E+04  1.376551E+05  2.849160E+00
         2  26 -5.188409E+06  2.029042E+04 -9.064247E+04  3.050566E+03  9.031940E+04  4.473807E-01
         2  27 -5.207485E+06  3.277392E+03 -5.598463E+04 -6.645716E+03  4.298252E+04 -4.638342E-01
         3   1 -5.200379E+06 -1.318202E+04 -4.471134E+04 -1.670345E+03 -3.394587E+04  9.206984E-02
         3   2 -5.197235E+06  2.947673E+03 -2.324028E+04 -3.357633E+02 -2.210614E+04  1.205228E-02
         3   3 -5.200318E+06  4.286521E+02 -1.418737E+04  9.987922E+02 -1.026644E+04 -1.665025E-02
         3   4 -5.200379E+06 -1.318202E+04 -4.471134E+04  7.370234E-08 -3.394587E+04  3.117646E-10
         3   5 -5.197235E+06  2.947672E+03 -2.324028E+04  7.553766E-08 -2.210614E+04 -5.329403E-10
         3   6 -5.200318E+06  4.286502E+02 -1.418737E+04  6.448029E-08 -1.026644E+04  3.625879E-11
         3   7 -5.200379E+06 -1.318202E+04 -4.471134E+04  1.670345E+03 -3.394587E+04 -9.206983E-02
         3   8 -5.197235E+06  2.947673E+03 -2.324028E+04  3.357633E+02 -2.210614E+04 -1.205229E-02
         3   9 -5.200318E+06  4.286521E+02 -1.418737E+04 -9.987922E+02 -1.026644E+04  1.665025E-02
         3  10 -5.200380E+06 -1.318233E+04 -4.471352E+04 -1.670345E+03 -5.148561E-09  5.598365E-10
         3  11 -5.197236E+06  2.947540E+03 -2.324121E+04 -3.357633E+02 -2.222306E-09  2.706926E-10
         3  12 -5.200318E+06  4.286235E+02 -1.418757E+04  9.987922E+02  1.602003E-09 -5.409478E-10
         3  13 -5.200380E+06 -1.318234E+04 -4.471352E+04  7.369292E-08 -6.129553E-09  3.647536E-10
         3  14 -5.197236E+06  2.947540E+03 -2.324121E+04  4.974735E-08 -5.373462E-09 -8.837052E-11
         3  15 -5.200318E+06  4.286216E+02 -1.418757E+04  3.009661E-08  1.477994E-09 -1.024357E-11
         3  16 -5.200380E+06 -1.318233E+04 -4.471352E+04  1.670345E+03 -4.188129E-09  1.563870E-09
         3  17 -5.197236E+06  2.947540E+03 -2.324121E+04  3.357633E+02 -4.943512E-09 -2.208454E-10
         3  18 -5.200318E+06  4.286235E+02 -1.418757E+04 -9.987922E+02 -1.267958E-09  1.402000E-10
         3  19 -5.200379E+06 -1.318202E+04 -4.471134E+04 -1.670345E+03  3.394587E+04 -9.206983E-02
         3  20 -5.197235E+06  2.947673E+03 -2.324028E+04 -3.357633E+02  2.210614E+04 -1.205228E-02
         3  21 -5.200318E+06  4.286521E+02 -1.418737E+04  9.987922E+02  1.026644E+04  1.665025E-02
         3  22 -5.200379E+06 -1.318202E+04 -4.471134E+04  7.369398E-08  3.394587E+04  5.366066E-10
         3  23 -5.197235E+06  2.947672E+03 -2.324028E+04  7.554080E-08  2.210614E+04  8.606271E-10
         3  24 -5.200318E+06  4.286502E+02 -1.418737E+04  6.448658E-08  1.026644E+04 -2.596090E-11
         3  25 -5.200379E+06 -1.318202E+04 -4.471134E+04  1.670345E+03  3.394587E+04  9.206983E-02
         3  26 -5.197235E+06  2.947673E+03 -2.324028E+04  3.357633E+02  2.210614E+04  1.205228E-02
         3  27 -5.200318E+06  4.286521E+02 -1.418737E+04 -9.987922E+02  1.026644E+04 -1.665025E-02
         4   1 -5.199204E+06 -1.875124E+03 -1.131056E+04 -2.118458E+02 -7.972960E+03  2.742614E-03
         4   2 -5.198608E+06  4.658745E+02 -6.780249E+03 -2.378359E+01 -4.570482E+03  1.765071E-04
         4   3 -5.199193E+06 -1.240353E+02 -5.211813E+03  1.642811E+02 -1.167942E+03 -3.115531E-04
         4   4 -5.199204E+06 -1.875124E+03 -1.131056E+04  8.208191E-08 -7.972960E+03  3.462568E-10
         4   5 -5.198608E+06  4.658745E+02 -6.780249E+03  4.660723E-08 -4.570482E+03  7.739637E-10
         4   6 -5.199193E+06 -1.240353E+02 -5.211813E+03  1.035444E-07 -1.167942E+03 -6.639636E-10
         4   7 -5.199204E+06 -1.875124E+03 -1.131056E+04  2.118458E+02 -7.972960E+03 -2.742609E-03
         4   8 -5.198608E+06  4.658745E+02 -6.780249E+03  2.378359E+01 -4.570482E+03 -1.765089E-04
         4   9 -5.199193E+06 -1.240353E+02 -5.211813E+03 -1.642811E+02 -1.167942E+03  3.115564E-04
         4  10 -5.199204E+06 -1.875141E+03 -1.131068E+04 -2.118458E+02  9.420065E-10 -1.520921E-10
         4  11 -5.198608E+06  4.658688E+02 -6.780288E+03 -2.378359E+01  1.781638E-09  9.309218E-10
         4  12 -5.199193E+06 -1.240356E+02 -5.211816E+03  1.642811E+02  6.774599E-10 -1.865397E-09
         4  13 -5.199204E+06 -1.875142E+03 -1.131068E+04  4.770775E-08  2.048390E-09  6.906719E-11
         4  14 -5.198608E+06  4.658688E+02 -6.780288E+03  5.520497E-08  1.309784E-09  2.971135E-10
         4  15 -5.199193E+06 -1.240357E+02 -5.211816E+03  4.121201E-08  1.943555E-09  4.379589E-10
         4  16 -5.199204E+06 -1.875141E+03 -1.131068E+04  2.118458E+02 -1.378165E-09  1.366727E-09
         4  17 -5.198608E+06  4.658688E+02 -6.780288E+03  2.378359E+01 -1.261109E-09  2.030231E-10
         4  18 -5.199193E+06 -1.240356E+02 -5.211816E+03 -1.642811E+02  3.176388E-09  2.155075E-10
         4  19 -5.199204E+06 -1.875124E+03 -1.131056E+04 -2.118458E+02  7.972960E+03 -2.742613E-03
         4  20 -5.198608E+06  4.658745E+02 -6.780249E+03 -2.378359E+01  4.570482E+03 -1.765065E-04
         4  21 -5.199193E+06 -1.240353E+02 -5.211813E+03  1.642811E+02  1.167942E+03  3.115550E-04
         4  22 -5.199204E+06 -1.875124E+03 -1.131056E+04  6.491787E-08  7.972960E+03 -4.359983E-10
         4  23 -5.198608E+06  4.658745E+02 -6.780249E+03 -4.976024E-09  4.570482E+03 -6.090458E-10
         4  24 -5.199193E+06 -1.240353E+02 -5.211813E+03  6.269689E-08  1.167942E+03  1.705633E-09
         4  25 -5.199204E+06 -1.875124E+03 -1.131056E+04  2.118458E+02  7.972960E+03  2.742606E-03
         4  26 -5.198608E+06  4.658745E+02 -6.780249E+03  2.378359E+01  4.570482E+03  1.765046E-04
         4  27 -5.199193E+06 -1.240353E+02 -5.211813E+03 -1.642811E+02  1.167942E+03 -3.115535E-04
         5   1 -5.199135E+06 -2.212128E+02 -4.977666E+03 -1.232191E+02 -2.503888E+02  5.009796E-05
         5   2 -5.198677E+06  3.564534E+02 -5.475825E+03  1.855497E+01  2.494939E+03  7.517172E-05
         5   3 -5.199141E+06 -1.306887E+03 -8.332832E+03  1.603292E+02  5.240262E+03  1.364241E-03
         5   4 -5.199135E+06 -2.212128E+02 -4.977666E+03  5.710355E-08 -2.503888E+02  7.739195E-11
         5   5 -5.198677E+06  3.564534E+02 -5.475825E+03  2.812231E-08  2.494939E+03  2.017568E-09
         5   6 -5.199141E+06 -1.306887E+03 -8.332832E+03 -2.236383E-08  5.240262E+03  4.772140E-10
         5   7 -5.199135E+06 -2.212128E+02 -4.977666E+03  1.232191E+02 -2.503888E+02 -5.009466E-05
         5   8 -5.198677E+06  3.564534E+02 -5.475825E+03 -1.855497E+01  2.494939E+03 -7.517218E-05
         5   9 -5.199141E+06 -1.306887E+03 -8.332832E+03 -1.603292E+02  5.240262E+03 -1.364237E-03
         5  10 -5.199135E+06 -2.212128E+02 -4.977666E+03 -1.232191E+02  1.208766E-09  1.133397E-09
         5  11 -5.198677E+06  3.564517E+02 -5.475837E+03  1.855497E+01  1.074708E-09  2.439737E-10
         5  12 -5.199142E+06 -1.306894E+03 -8.332884E+03  1.603292E+02 -2.900588E-09  8.649377E-10
         5  13 -5.199135E+06 -2.212129E+02 -4.977666E+03  5.526658E-09  4.701989E-09  5.895246E-10
         5  14 -5.198677E+06  3.564517E+02 -5.475837E+03 -1.486843E-08  1.309799E-09  8.587093E-10
         5  15 -5.199142E+06 -1.306895E+03 -8.332884E+03 -5.674530E-08  1.179796E-09  6.184289E-10
         5  16 -5.199135E+06 -2.212128E+02 -4.977666E+03  1.232191E+02 -3.207615E-09  1.125581E-09
         5  17 -5.198677E+06  3.564517E+02 -5.475837E+03 -1.855497E+01 -1.015936E-09  9.325686E-10
         5  18 -5.199142E+06 -1.306894E+03 -8.332884E+03 -1.603292E+02  2.296206E-09  1.253871E-09
         5  19 -5.199135E+06 -2.212128E+02 -4.977666E+03 -1.232191E+02  2.503888E+02 -5.009694E-05
         5  20 -5.198677E+06  3.564534E+02 -5.475825E+03  1.855497E+01 -2.494939E+03 -7.516856E-05
         5  21 -5.199141E+06 -1.306887E+03 -8.332832E+03  1.603292E+02 -5.240262E+03 -1.364236E-03
         5  22 -5.199135E+06 -2.212128E+02 -4.977666E+03  5.710879E-08  2.503888E+02  1.295939E-09
         5  23 -5.198677E+06  3.564534E+02 -5.475825E+03  1.092476E-08 -2.494939E+03 -1.199362E-09
         5  24 -5.199141E+06 -1.306887E+03 -8.332832E+03  4.855901E-08 -5.240262E+03  1.209864E-09
         5  25 -5.199135E+06 -2.212128E+02 -4.977666E+03  1.232191E+02  2.503888E+02  5.009741E-05
         5  26 -5.198677E+06  3.564534E+02 -5.475825E+03 -1.855497E+01 -2.494939E+03  7.516687E-05
         5  27 -5.199141E+06 -1.306887E+03 -8.332832E+03 -1.603292E+02 -5.240262E+03  1.364239E-03
         6   1 -5.199903E+06  2.814263E+02 -1.024259E+04 -6.977583E+02  6.911097E+03 -7.830282E-03
         6   2 -5.197739E+06  2.064440E+03 -1.642594E+04  2.358160E+02  1.527679E+04  5.849637E-03
         6   3 -5.199945E+06 -9.212538E+03 -3.135476E+04  1.169380E+03  2.364228E+04  4.489204E-02
         6   4 -5.199903E+06  2.814254E+02 -1.024259E+04  6.047092E-10  6.911097E+03 -2.322186E-10
         6   5 -5.197739E+06  2.064440E+03 -1.642594E+04  3.610102E-08  1.527679E+04  1.251042E-09
         6   6 -5.199945E+06 -9.212541E+03 -3.135476E+04  1.785448E-08  2.364228E+04  1.214778E-09
         6   7 -5.199903E+06  2.814263E+02 -1.024259E+04  6.977583E+02  6.911097E+03  7.830281E-03
         6   8 -5.197739E+06  2.064440E+03 -1.642594E+04 -2.358160E+02  1.527679E+04 -5.849639E-03
         6   9 -5.199945E+06 -9.212538E+03 -3.135476E+04 -1.169380E+03  2.364228E+04 -4.489204E-02
         6  10 -5.199903E+06  2.814134E+02 -1.024268E+04 -6.977583E+02 -3.210182E-11  7.533581E-10
         6  11 -5.197739E+06  2.064377E+03 -1.642638E+04  2.358160E+02  3.595289E-09  1.141046E-09
         6  12 -5.199946E+06 -9.212690E+03 -3.135582E+04  1.169380E+03 -9.183344E-10  1.612081E-09
         6  13 -5.199903E+06  2.814124E+02 -1.024268E+04 -1.659600E-08 -3.358738E-10  5.178842E-10
         6  14 -5.197739E+06  2.064376E+03 -1.642638E+04 -6.895231E-09 -4.768719E-09  6.095242E-10
         6  15 -5.199946E+06 -9.212692E+03 -3.135582E+04  1.141976E-08 -1.292511E-09  9.720139E-10
         6  16 -5.199903E+06  2.814134E+02 -1.024268E+04  6.977583E+02  9.388686E-10  5.488302E-10
         6  17 -5.197739E+06  2.064377E+03 -1.642638E+04 -2.358160E+02 -1.915816E-09  6.151777E-10
         6  18 -5.199946E+06 -9.212690E+03 -3.135582E+04 -1.169380E+03  3.242893E-09 -6.931474E-11
         6  19 -5.199903E+06  2.814263E+02 -1.024259E+04 -6.977583E+02 -6.911097E+03  7.830284E-03
         6  20 -5.197739E+06  2.064440E+03 -1.642594E+04  2.358160E+02 -1.527679E+04 -5.849634E-03
         6  21 -5.199945E+06 -9.212538E+03 -3.135476E+04  1.169380E+03 -2.364228E+04 -4.489203E-02
         6  22 -5.199903E+06  2.814254E+02 -1.024259E+04  5.217543E-08 -6.911097E+03  1.144514E-09
         6  23 -5.197739E+06  2.064440E+03 -1.642594E+04  5.329971E-08 -1.527679E+04 -5.577582E-10
         6  24 -5.199945E+06 -9.212541E+03 -3.135476E+04  6.731243E-08 -2.364228E+04  8.653863E-10
         6  25 -5.199903E+06  2.814263E+02 -1.024259E+04  6.977583E+02 -6.911097E+03 -7.830280E-03
         6  26 -5.197739E+06  2.064440E+03 -1.642594E+04 -2.358160E+02 -1.527679E+04  5.849636E-03
         6  27 -5.199945E+06 -9.212538E+03 -3.135476E+04 -1.169380E+03 -2.364228E+04  4.489204E-02
         7   1 -5.204909E+06  2.288314E+03 -3.920884E+04 -4.644242E+03  2.997541E+04 -2.260517E-01
         7   2 -5.191575E+06  1.418124E+04 -6.339892E+04  2.132431E+03  6.308051E+04  2.184181E-01
         7   3 -5.205126E+06 -6.390063E+04 -1.317656E+05  8.909189E+03  9.618553E+04  1.391462E+00
         7   4 -5.204909E+06  2.288273E+03 -3.920885E+04  3.565873E-08  2.997541E+04  6.203293E-10
         7   5 -5.191575E+06  1.418123E+04 -6.339892E+04 -5.136353E-08  6.308051E+04  6.303925E-10
         7   6 -5.205126E+06 -6.390078E+04 -1.317657E+05 -1.803590E-08  9.618553E+04 -3.979127E-10
         7   7 -5.204909E+06  2.288314E+03 -3.920884E+04  4.644242E+03  2.997541E+04  2.260517E-01
         7   8 -5.191575E+06  1.418124E+04 -6.339892E+04 -2.132431E+03  6.308051E+04 -2.184181E-01
         7   9 -5.205126E+06 -6.390063E+04 -1.317656E+05 -8.909189E+03  9.618553E+04 -1.391462E+00
         7  10 -5.204910E+06  2.288070E+03 -3.921054E+04 -4.644242E+03 -8.951453E-10  1.215138E-09
         7  11 -5.191579E+06  1.418016E+04 -6.340646E+04  2.132431E+03 -6.047501E-09  7.518198E-11
         7  12 -5.205136E+06 -6.390314E+04 -1.317832E+05  8.909189E+03 -2.846658E-09 -9.199019E-10
         7  13 -5.204910E+06  2.288029E+03 -3.921055E+04  1.258993E-09  2.484015E-09  8.418527E-10
         7  14 -5.191579E+06  1.418016E+04 -6.340646E+04 -3.417794E-08 -3.458322E-09 -5.453758E-10
         7  15 -5.205136E+06 -6.390329E+04 -1.317832E+05 -2.662624E-08  2.442187E-09 -5.831840E-10
         7  16 -5.204910E+06  2.288070E+03 -3.921054E+04  4.644242E+03  1.902796E-09  1.819809E-09
         7  17 -5.191579E+06  1.418016E+04 -6.340646E+04 -2.132431E+03  2.334770E-09 -2.559240E-11
         7  18 -5.205136E+06 -6.390314E+04 -1.317832E+05 -8.909189E+03  1.405988E-09 -5.276634E-10
         7  19 -5.204909E+06  2.288314E+03 -3.920884E+04 -4.644242E+03 -2.997541E+04  2.260517E-01
         7  20 -5.191575E+06  1.418124E+04 -6.339892E+04  2.132431E+03 -6.308051E+04 -2.184181E-01
         7  21 -5.205126E+06 -6.390063E+04 -1.317656E+05  8.909189E+03 -9.618553E+04 -1.391462E+00
         7  22 -5.204909E+06  2.288273E+03 -3.920885E+04  1.216224E-07 -2.997541E+04  8.773177E-10
         7  23 -5.191575E+06  1.418123E+04 -6.339892E+04 -1.698705E-08 -6.308051E+04 -5.636092E-10
         7  24 -5.205126E+06 -6.390078E+04 -1.317657E+05 -5.457607E-08 -9.618553E+04 -1.961150E-10
         7  25 -5.204909E+06  2.288314E+03 -3.920884E+04  4.644242E+03 -2.997541E+04 -2.260517E-01
         7  26 -5.191575E+06  1.418124E+04 -6.339892E+04 -2.132431E+03 -6.308051E+04  2.184181E-01
         7  27 -5.205126E+06 -6.390063E+04 -1.317656E+05 -8.909189E+03 -9.618553E+04  1.391462E+00
         8   1 -5.237206E+06  1.618307E+04 -1.595149E+05 -3.122744E+04  1.222290E+05 -6.198081E+00
         8   2 -5.151486E+06  9.742531E+04 -2.447466E+05  1.673357E+04  2.556847E+05  6.946752E+00
         8   3 -5.238359E+06 -4.404399E+05 -5.721189E+05  6.468881E+04  3.891458E+05  4.087550E+01
         8   4 -5.237207E+06  1.618122E+04 -1.595152E+05  9.287722E-08  1.222290E+05 -1.142130E-09
         8   5 -5.151486E+06  9.742478E+04 -2.447467E+05  2.629167E-08  2.556847E+05  5.546608E-10
         8   6 -5.238364E+06 -4.404478E+05 -5.721200E+05  1.771212E-08  3.891458E+05 -2.742162E-10
         8   7 -5.237206E+06  1.618307E+04 -1.595149E+05  3.122744E+04  1.222290E+05  6.198081E+00
         8   8 -5.151486E+06  9.742531E+04 -2.447466E+05 -1.673357E+04  2.556847E+05 -6.946752E+00
         8   9 -5.238359E+06 -4.404399E+05 -5.721189E+05 -6.468881E+04  3.891458E+05 -4.087550E+01
         8  10 -5.237222E+06  1.617902E+04 -1.595432E+05 -3.122744E+04  5.931810E-10  4.453202E-10
         8  11 -5.151557E+06  9.740757E+04 -2.448705E+05  1.673357E+04  1.373233E-09  8.242430E-10
         8  12 -5.238523E+06 -4.404809E+05 -5.724059E+05  6.468880E+04  2.106557E-09  9.036178E-11
         8  13 -5.237223E+06  1.617717E+04 -1.595435E+05  5.851581E-08  1.340434E-10 -1.654467E-10
         8  14 -5.151557E+06  9.740704E+04 -2.448706E+05  5.028029E-10  2.316084E-10  4.104506E-10
         8  15 -5.238527E+06 -4.404889E+05 -5.724070E+05 -4.462497E-08 -1.803529E-09  2.709410E-10
         8  16 -5.237222E+06  1.617902E+04 -1.595432E+05  3.122744E+04  2.234225E-09 -4.032295E-10
         8  17 -5.151557E+06  9.740757E+04 -2.448705E+05 -1.673357E+04 -6.903201E-09 -3.375467E-10
         8  18 -5.238523E+06 -4.404809E+05 -5.724059E+05 -6.468880E+04  1.074502E-09  7.772392E-10
         8  19 -5.237206E+06  1.618307E+04 -1.595149E+05 -3.122744E+04 -1.222290E+05  6.198081E+00
         8  20 -5.151486E+06  9.742531E+04 -2.447466E+05  1.673357E+04 -2.556847E+05 -6.946752E+00
         8  21 -5.238359E+06 -4.404399E+05 -5.721189E+05  6.468881E+04 -3.891458E+05 -4.087550E+01
         8  22 -5.237207E+06  1.618122E+04 -1.595152E+05  1.101261E-07 -1.222290E+05  6.747364E-10
         8  23 -5.151486E+06  9.742478E+04 -2.447467E+05 -2.529964E-08 -2.556847E+05  3.492397E-10
         8  24 -5.238364E+06 -4.404478E+05 -5.721200E+05  1.552930E-08 -3.891458E+05  8.586348E-10
         8  25 -5.237206E+06  1.618307E+04 -1.595149E+05  3.122744E+04 -1.222290E+05 -6.198081E+00
         8  26 -5.151486E+06  9.742531E+04 -2.447466E+05 -1.673357E+04 -2.556847E+05  6.946752E+00
         8  27 -5.238359E+06 -4.404399E+05 -5.721189E+05 -6.468881E+04 -3.891458E+05  4.087550E+01
         9   1  2.255247E+06  8.060537E+06  2.147239E+06 -1.552395E+06  1.012260E+05  8.370887E+05
         9   2  1.791793E+06  6.879007E+06  1.438441E+06 -1.409103E+06  3.399287E+05  3.917527E+05
         9   3  1.472643E+06  5.794921E+06  1.054057E+06 -1.450282E+06  3.964956E+05 -5.249269E+04
         9   4  1.557890E+05 -4.922716E+05  1.651411E+05 -1.429330E+06  1.033848E+05  1.120179E+05
         9   5  4.999271E+04 -5.032999E+05  8.517877E+04 -1.337377E+06  3.414694E+05  6.980653E+04
         9   6  1.988553E+04 -4.868901E+05  5.211081E+04 -1.429843E+06  3.964917E+05  2.775347E+04
         9   7 -1.948475E+06 -8.976915E+06 -1.819907E+06 -1.307842E+06  1.052829E+05 -6.032406E+05
         9   8 -1.694823E+06 -7.832830E+06 -1.269930E+06 -1.266425E+06  3.429499E+05 -2.484478E+05
         9   9 -1.434838E+06 -6.729677E+06 -9.508430E+05 -1.409533E+06  3.964929E+05  1.072216E+05
         9  10  2.255051E+06  8.059790E+06  2.145919E+06 -1.552463E+06 -5.419583E-09 -1.711029E-10
         9  11  1.791628E+06  6.878812E+06  1.437937E+06 -1.409210E+06 -4.576218E-09 -1.369373E-10
         9  12  1.472473E+06  5.794876E+06  1.053757E+06 -1.450266E+06  1.796822E-09 -2.909102E-10
         9  13  1.557742E+05 -4.922880E+05  1.650973E+05 -1.429339E+06 -2.194559E-09 -6.477227E-11
         9  14  4.986616E+04 -5.033364E+05  8.495031E+04 -1.337397E+06  2.264298E-09  4.524330E-11
         9  15  1.971652E+04 -4.869331E+05  5.181390E+04 -1.429852E+06  3.129357E-09  1.048061E-10
         9  16 -1.948586E+06 -8.977313E+06 -1.820621E+06 -1.307791E+06  3.163241E-09  8.333052E-11
         9  17 -1.694966E+06 -7.832928E+06 -1.270268E+06 -1.266356E+06  1.730989E-09  1.889949E-11
         9  18 -1.435010E+06 -6.729731E+06 -9.511606E+05 -1.409567E+06 -6.969352E-10  6.157508E-10
         9  19  2.255247E+06  8.060537E+06  2.147239E+06 -1.552395E+06 -1.012260E+05 -8.370887E+05
         9  20  1.791793E+06  6.879007E+06  1.438441E+06 -1.409103E+06 -3.399287E+05 -3.917527E+05
         9  21  1.472643E+06  5.794921E+06  1.054057E+06 -1.450282E+06 -3.964956E+05  5.249269E+04
         9  22  1.557890E+05 -4.922716E+05  1.651411E+05 -1.429330E+06 -1.033848E+05 -1.120179E+05
         9  23  4.999271E+04 -5.032999E+05  8.517877E+04 -1.337377E+06 -3.414694E+05 -6.980653E+04
         9  24  1.988553E+04 -4.868901E+05  5.211081E+04 -1.429843E+06 -3.964917E+05 -2.775347E+04
         9  25 -1.948475E+06 -8.976915E+06 -1.819907E+06 -1.307842E+06 -1.052829E+05  6.032406E+05
         9  26 -1.694823E+06 -7.832830E+06 -1.269930E+06 -1.266425E+06 -3.429499E+05  2.484478E+05
         9  27 -1.434838E+06 -6.729677E+06 -9.508430E+05 -1.409533E+06 -3.964929E+05 -1.072216E+05
        10   1  1.301059E+06  5.071963E+06  9.072456E+05 -1.458425E+06  3.679648E+05 -6.412131E+04
        10   2  1.028609E+06  3.932875E+06  6.874317E+05 -1.350302E+06  3.187370E+05 -1.312120E+05
        10   3  7.783917E+05  2.809108E+06  5.165742E+05 -1.439836E+06  2.471947E+05 -1.984191E+05
        10   4  1.880971E+04 -4.901963E+05  4.331188E+04 -1.432798E+06  3.678374E+05  2.025026E+04
        10   5  1.525506E+04 -4.913196E+05  3.582100E+04 -1.333929E+06  3.181900E+05  2.272608E+03
        10   6  2.555565E+04 -4.868298E+05  4.338259E+04 -1.432797E+06  2.461460E+05 -1.593619E+04
        10   7 -1.264944E+06 -6.021605E+06 -8.213187E+05 -1.407337E+06  3.677160E+05  1.038985E+05
        10   8 -9.990004E+05 -4.895852E+06 -6.160745E+05 -1.317632E+06  3.176473E+05  1.348494E+05
        10   9 -7.277571E+05 -3.771752E+06 -4.298513E+05 -1.425769E+06  2.450974E+05  1.656225E+05
        10  10  1.300913E+06  5.071923E+06  9.069838E+05 -1.458406E+06  3.799629E-09 -6.570248E-08
        10  11  1.028496E+06  3.932830E+06  6.872090E+05 -1.350268E+06  7.581075E-09 -1.352341E-09
        10  12  7.783158E+05  2.809049E+06  5.163863E+05 -1.439796E+06  1.243977E-09  6.248832E-08
        10  13  1.866432E+04 -4.902330E+05  4.305684E+04 -1.432804E+06  5.520144E-10  3.614435E-12
        10  14  1.514637E+04 -4.913468E+05  3.563078E+04 -1.333930E+06  4.559524E-09 -1.895333E-10
        10  15  2.549055E+04 -4.868463E+05  4.326834E+04 -1.432794E+06  1.948303E-09 -3.961824E-11
        10  16 -1.265092E+06 -6.021653E+06 -8.215935E+05 -1.407368E+06 -4.454572E-09  6.506276E-08
        10  17 -9.991138E+05 -4.895899E+06 -6.162989E+05 -1.317667E+06 -3.265214E-09  1.197425E-09
        10  18 -7.278291E+05 -3.771798E+06 -4.300164E+05 -1.425802E+06 -7.552187E-10 -6.209357E-08
        10  19  1.301059E+06  5.071963E+06  9.072456E+05 -1.458425E+06 -3.679648E+05  6.412131E+04
        10  20  1.028609E+06  3.932875E+06  6.874317E+05 -1.350302E+06 -3.187370E+05  1.312120E+05
        10  21  7.783917E+05  2.809108E+06  5.165742E+05 -1.439836E+06 -2.471947E+05  1.984191E+05
        10  22  1.880971E+04 -4.901963E+05  4.331188E+04 -1.432798E+06 -3.678374E+05 -2.025026E+04
        10  23  1.525506E+04 -4.913196E+05  3.582100E+04 -1.333929E+06 -3.181900E+05 -2.272608E+03
        10  24  2.555565E+04 -4.868298E+05  4.338259E+04 -1.432797E+06 -2.461460E+05  1.593619E+04
        10  25 -1.264944E+06 -6.021605E+06 -8.213187E+05 -1.407337E+06 -3.677160E+05 -1.038985E+05
        10  26 -9.990004E+05 -4.895852E+06 -6.160745E+05 -1.317632E+06 -3.176473E+05 -1.348494E+05
        10  27 -7.277571E+05 -3.771752E+06 -4.298513E+05 -1.425769E+06 -2.450974E+05 -1.656225E+05
        11   1  6.206508E+05  2.105884E+06  4.189521E+05 -1.442685E+06  1.978890E+05 -2.063643E+05
        11   2  3.963110E+05  9.649143E+05  2.906022E+05 -1.287073E+06  1.137189E+05 -2.545536E+05
        11   3  2.441792E+05 -1.521917E+05  2.111374E+05 -1.330699E+06  2.764202E+04 -3.027459E+05
        11   4  3.006845E+04 -4.824619E+05  5.186442E+04 -1.433167E+06  1.967433E+05 -2.347095E+04
        11   5  6.466048E+04 -4.927679E+05  8.557531E+04 -1.333202E+06  1.124872E+05 -6.759685E+04
        11   6  1.708306E+05 -4.813058E+05  1.652561E+05 -1.432402E+06  2.633121E+04 -1.118003E+05
        11   7 -5.607977E+05 -3.063971E+06 -3.151926E+05 -1.423673E+06  1.955999E+05  1.586949E+05
        11   8 -2.670570E+05 -1.948218E+06 -1.193471E+05 -1.379213E+06  1.112257E+05  1.189407E+05
        11   9  9.753623E+04 -8.102087E+05  1.195161E+05 -1.534049E+06  2.495733E+04  7.904848E+04
        11  10  6.205975E+05  2.105828E+06  4.187992E+05 -1.442653E+06 -4.400831E-10 -2.605637E-09
        11  11  3.962798E+05  9.648414E+05  2.904566E+05 -1.287050E+06 -3.435347E-09  1.598166E-09
        11  12  2.441538E+05 -1.522903E+05  2.109638E+05 -1.330692E+06  7.365790E-10  5.342622E-09
        11  13  3.002677E+04 -4.824729E+05  5.179072E+04 -1.433164E+06 -6.731182E-10 -7.543665E-11
        11  14  6.464570E+04 -4.927761E+05  8.554302E+04 -1.333196E+06  1.203580E-09  1.406103E-10
        11  15  1.708265E+05 -4.813194E+05  1.652313E+05 -1.432400E+06 -1.864182E-09  1.455840E-10
        11  16 -5.608457E+05 -3.064008E+06 -3.153124E+05 -1.423699E+06  6.645342E-09  2.413460E-09
        11  17 -2.670741E+05 -1.948237E+06 -1.193972E+05 -1.379224E+06  1.519905E-09 -1.313573E-09
        11  18  9.753387E+04 -8.102156E+05  1.195032E+05 -1.534050E+06 -6.222874E-10 -5.319444E-09
        11  19  6.206508E+05  2.105884E+06  4.189521E+05 -1.442685E+06 -1.978890E+05  2.063643E+05
        11  20  3.963110E+05  9.649143E+05  2.906022E+05 -1.287073E+06 -1.137189E+05  2.545536E+05
        11  21  2.441792E+05 -1.521917E+05  2.111374E+05 -1.330699E+06 -2.764202E+04  3.027459E+05
        11  22  3.006845E+04 -4.824619E+05  5.186442E+04 -1.433167E+06 -1.967433E+05  2.347095E+04
        11  23  6.466048E+04 -4.927679E+05  8.557531E+04 -1.333202E+06 -1.124872E+05  6.759685E+04
        11  24  1.708306E+05 -4.813058E+05  1.652561E+05 -1.432402E+06 -2.633121E+04  1.118003E+05
        11  25 -5.607977E+05 -3.063971E+06 -3.151926E+05 -1.423673E+06 -1.955999E+05 -1.586949E+05
        11  26 -2.670570E+05 -1.948218E+06 -1.193471E+05 -1.379213E+06 -1.112257E+05 -1.189407E+05
        11  27  9.753623E+04 -8.102087E+05  1.195161E+05 -1.534049E+06 -2.495733E+04 -7.904848E+04
        12   1 -5.984467E+06 -1.774211E+06 -1.156566E+06 -2.076447E+06 -6.626373E+05 -2.446377E+05
        12   2 -5.779437E+06 -7.840713E+05 -5.286294E+05 -2.227125E+06 -4.268622E+05 -1.498835E+05
        12   3 -5.950699E+06 -8.479900E+05 -3.573375E+05 -2.157202E+06 -1.880943E+05 -6.308847E+04
        12   4 -5.677108E+06 -1.514800E+06 -1.043141E+06 -1.846103E+06 -6.600637E+05 -2.438671E+05
        12   5 -5.436015E+06 -6.165478E+05 -4.276340E+05 -2.095134E+06 -4.265181E+05 -1.497880E+05
        12   6 -5.570542E+06 -7.716057E+05 -2.668043E+05 -2.123643E+06 -1.899646E+05 -6.376229E+04
        12   7 -5.369604E+06 -1.255215E+06 -9.297178E+05 -1.615618E+06 -6.574886E+05 -2.430943E+05
        12   8 -5.092474E+06 -4.489922E+05 -3.266503E+05 -1.963069E+06 -4.261738E+05 -1.496923E+05
        12   9 -5.190237E+06 -6.952243E+05 -1.762780E+05 -2.090076E+06 -1.918361E+05 -6.443607E+04
        12  10 -5.984959E+06 -1.774395E+06 -1.157514E+06 -2.076578E+06  2.768075E-10  3.463119E-11
        12  11 -5.779641E+06 -7.841452E+05 -5.290183E+05 -2.227176E+06  1.024380E-09  1.523734E-09
        12  12 -5.950738E+06 -8.480040E+05 -3.574123E+05 -2.157211E+06  4.169585E-09  7.032142E-10
        12  13 -5.677596E+06 -1.514983E+06 -1.044081E+06 -1.846233E+06  1.674861E-09  6.948259E-10
        12  14 -5.436218E+06 -6.166216E+05 -4.280220E+05 -2.095186E+06  2.508366E-09  1.921948E-09
        12  15 -5.570583E+06 -7.716199E+05 -2.668806E+05 -2.123652E+06 -2.702881E-09  5.059893E-10
        12  16 -5.370088E+06 -1.255397E+06 -9.306500E+05 -1.615748E+06 -5.293305E-10  1.240598E-09
        12  17 -5.092676E+06 -4.490657E+05 -3.270374E+05 -1.963120E+06  5.601818E-10  2.507696E-09
        12  18 -5.190278E+06 -6.952388E+05 -1.763557E+05 -2.090086E+06 -7.304126E-10 -4.315336E-10
        12  19 -5.984467E+06 -1.774211E+06 -1.156566E+06 -2.076447E+06  6.626373E+05  2.446377E+05
        12  20 -5.779437E+06 -7.840713E+05 -5.286294E+05 -2.227125E+06  4.268622E+05  1.498835E+05
        12  21 -5.950699E+06 -8.479900E+05 -3.573375E+05 -2.157202E+06  1.880943E+05  6.308847E+04
        12  22 -5.677108E+06 -1.514800E+06 -1.043141E+06 -1.846103E+06  6.600637E+05  2.438671E+05
        12  23 -5.436015E+06 -6.165478E+05 -4.276340E+05 -2.095134E+06  4.265181E+05  1.497880E+05
        12  24 -5.570542E+06 -7.716057E+05 -2.668043E+05 -2.123643E+06  1.899646E+05  6.376229E+04
        12  25 -5.369604E+06 -1.255215E+06 -9.297178E+05 -1.615618E+06  6.574886E+05  2.430943E+05
        12  26 -5.092474E+06 -4.489922E+05 -3.266503E+05 -1.963069E+06  4.261738E+05  1.496923E+05
        12  27 -5.190237E+06 -6.952243E+05 -1.762780E+05 -2.090076E+06  1.918361E+05  6.443607E+04
        13   1 -5.711187E+06 -9.790049E+05 -2.711723E+05 -2.127698E+06 -1.494829E+05 -5.117661E+04
        13   2 -5.655516E+06 -8.030655E+05 -1.377810E+05 -2.108403E+06 -9.567617E+04 -3.234380E+04
        13   3 -5.608232E+06 -8.168083E+05 -8.231631E+04 -2.112679E+06 -4.144898E+04 -1.461765E+04
        13   4 -5.533454E+06 -8.935232E+05 -2.190739E+05 -2.060631E+06 -1.496723E+05 -5.125307E+04
        13   5 -5.522050E+06 -7.481841E+05 -1.005136E+05 -2.067641E+06 -9.617232E+04 -3.253003E+04
        13   6 -5.518957E+06 -7.924448E+05 -5.961483E+04 -2.098226E+06 -4.225617E+04 -1.491814E+04
        13   7 -5.355690E+06 -8.080334E+05 -1.669786E+05 -1.993544E+06 -1.498617E+05 -5.132956E+04
        13   8 -5.388568E+06 -6.933009E+05 -6.324788E+04 -2.026871E+06 -9.666859E+04 -3.271631E+04
        13   9 -5.429675E+06 -7.680816E+05 -3.691399E+04 -2.083771E+06 -4.306348E+04 -1.521865E+04
        13  10 -5.711212E+06 -9.790139E+05 -2.712197E+05 -2.127704E+06  2.439001E-09 -6.510036E-11
        13  11 -5.655526E+06 -8.030691E+05 -1.378004E+05 -2.108405E+06  1.571598E-09 -3.626539E-10
        13  12 -5.608234E+06 -8.168090E+05 -8.231997E+04 -2.112680E+06 -3.621533E-09  9.877043E-10
        13  13 -5.533479E+06 -8.935322E+05 -2.191214E+05 -2.060637E+06  3.386697E-10 -1.045549E-10
        13  14 -5.522061E+06 -7.481878E+05 -1.005331E+05 -2.067643E+06  5.045109E-10 -3.716014E-11
        13  15 -5.518959E+06 -7.924455E+05 -5.961864E+04 -2.098226E+06  2.846023E-09 -8.823629E-10
        13  16 -5.355715E+06 -8.080424E+05 -1.670262E+05 -1.993550E+06  7.113549E-10 -6.541896E-11
        13  17 -5.388578E+06 -6.933046E+05 -6.326765E+04 -2.026873E+06  5.964369E-09 -4.809269E-10
        13  18 -5.429677E+06 -7.680824E+05 -3.691794E+04 -2.083771E+06  7.721912E-10 -4.749980E-11
        13  19 -5.711187E+06 -9.790049E+05 -2.711723E+05 -2.127698E+06  1.494829E+05  5.117661E+04
        13  20 -5.655516E+06 -8.030655E+05 -1.377810E+05 -2.108403E+06  9.567617E+04  3.234380E+04
        13  21 -5.608232E+06 -8.168083E+05 -8.231631E+04 -2.112679E+06  4.144898E+04  1.461765E+04
        13  22 -5.533454E+06 -8.935232E+05 -2.190739E+05 -2.060631E+06  1.496723E+05  5.125307E+04
        13  23 -5.522050E+06 -7.481841E+05 -1.005136E+05 -2.067641E+06  9.617232E+04  3.253003E+04
        13  24 -5.518957E+06 -7.924448E+05 -5.961483E+04 -2.098226E+06  4.225617E+04  1.491814E+04
        13  25 -5.355690E+06 -8.080334E+05 -1.669786E+05 -1.993544E+06  1.498617E+05  5.132956E+04
        13  26 -5.388568E+06 -6.933009E+05 -6.324788E+04 -2.026871E+06  9.666859E+04  3.271631E+04
        13  27 -5.429675E+06 -7.680816E+05 -3.691399E+04 -2.083771E+06  4.306348E+04  1.521865E+04
        14   1 -5.432826E+06 -7.801066E+05 -2.546847E+04 -2.069592E+06 -3.234906E+04 -1.289868E+04
        14   2 -5.399834E+06 -7.166890E+05  1.297244E+04 -2.028926E+06 -1.952162E+04 -1.046563E+04
        14   3 -5.324737E+06 -7.229753E+05  3.724128E+04 -2.042159E+06 -6.732752E+03 -7.922939E+03
        14   4 -5.513768E+06 -8.083850E+05 -4.728441E+04 -2.089092E+06 -3.295976E+04 -1.312678E+04
        14   5 -5.533837E+06 -7.667575E+05 -2.346722E+04 -2.064654E+06 -2.010210E+04 -1.068248E+04
        14   6 -5.511809E+06 -7.948427E+05 -1.384618E+04 -2.094116E+06 -7.284171E+03 -8.129046E+03
        14   7 -5.594705E+06 -8.366634E+05 -6.910100E+04 -2.108590E+06 -3.357038E+04 -1.335485E+04
        14   8 -5.667824E+06 -8.168252E+05 -5.990861E+04 -2.100375E+06 -2.068245E+04 -1.089929E+04
        14   9 -5.698847E+06 -8.667079E+05 -6.493694E+04 -2.146059E+06 -7.835406E+03 -8.335081E+03
        14  10 -5.432827E+06 -7.801070E+05 -2.547077E+04 -2.069593E+06 -2.096596E-09 -1.323695E-09
        14  11 -5.399834E+06 -7.166893E+05  1.297151E+04 -2.028927E+06  1.985148E-09 -2.050709E-09
        14  12 -5.324737E+06 -7.229754E+05  3.724107E+04 -2.042159E+06 -2.670482E-09  1.603774E-09
        14  13 -5.513769E+06 -8.083855E+05 -4.728680E+04 -2.089093E+06 -2.162543E-09 -8.693492E-10
        14  14 -5.533838E+06 -7.667578E+05 -2.346820E+04 -2.064655E+06  2.557336E-09  1.551845E-10
        14  15 -5.511809E+06 -7.948428E+05 -1.384641E+04 -2.094116E+06  6.016347E-10  1.169546E-09
        14  16 -5.594706E+06 -8.366639E+05 -6.910348E+04 -2.108591E+06  2.379835E-09 -1.349026E-09
        14  17 -5.667824E+06 -8.168255E+05 -5.990964E+04 -2.100376E+06 -2.681087E-09 -3.792628E-10
        14  18 -5.698847E+06 -8.667080E+05 -6.493719E+04 -2.146059E+06  1.361997E-09  1.523016E-09
        14  19 -5.432826E+06 -7.801066E+05 -2.546847E+04 -2.069592E+06  3.234906E+04  1.289868E+04
        14  20 -5.399834E+06 -7.166890E+05  1.297244E+04 -2.028926E+06  1.952162E+04  1.046563E+04
        14  21 -5.324737E+06 -7.229753E+05  3.724128E+04 -2.042159E+06  6.732752E+03  7.922939E+03
        14  22 -5.513768E+06 -8.083850E+05 -4.728441E+04 -2.089092E+06  3.295976E+04  1.312678E+04
        14  23 -5.533837E+06 -7.667575E+05 -2.346722E+04 -2.064654E+06  2.010210E+04  1.068248E+04
        14  24 -5.511809E+06 -7.948427E+05 -1.384618E+04 -2.094116E+06  7.284171E+03  8.129046E+03
        14  25 -5.594705E+06 -8.366634E+05 -6.910100E+04 -2.108590E+06  3.357038E+04  1.335485E+04
        14  26 -5.667824E+06 -8.168252E+05 -5.990861E+04 -2.100375E+06  2.068245E+04  1.089929E+04
        14  27 -5.698847E+06 -8.667079E+05 -6.493694E+04 -2.146059E+06  7.835406E+03  8.335081E+03
        15   1 -5.185190E+06 -6.701359E+05  7.877591E+04 -2.000878E+06 -4.207278E+03 -8.323167E+03
        15   2 -5.163411E+06 -6.337877E+05  9.393419E+04 -1.968746E+06 -3.755061E+02 -8.938536E+03
        15   3 -5.105061E+06 -6.378019E+05  1.060685E+05 -1.978978E+06  3.247977E+03 -8.990656E+03
        15   4 -5.513856E+06 -7.939138E+05 -1.097459E+04 -2.089481E+06 -4.806889E+03 -8.547566E+03
        15   5 -5.532016E+06 -7.729865E+05 -6.572712E+03 -2.068568E+06 -8.135766E+02 -9.102889E+03
        15   6 -5.513638E+06 -7.924563E+05 -5.324785E+03 -2.090020E+06  2.971171E+03 -9.094880E+03
        15   7 -5.842417E+06 -9.176855E+05 -1.007346E+05 -2.178042E+06 -5.406144E+03 -8.771834E+03
        15   8 -5.900488E+06 -9.121773E+05 -1.070918E+05 -2.168335E+06 -1.251357E+03 -9.267134E+03
        15   9 -5.922054E+06 -9.471012E+05 -1.167333E+05 -2.200995E+06  2.694566E+03 -9.199029E+03
        15  10 -5.185190E+06 -6.701359E+05  7.877575E+04 -2.000878E+06 -2.007974E-09  1.301310E-09
        15  11 -5.163411E+06 -6.337878E+05  9.393404E+04 -1.968746E+06 -1.798014E-09 -1.043776E-10
        15  12 -5.105061E+06 -6.378020E+05  1.060683E+05 -1.978978E+06 -4.207285E-10 -1.262827E-09
        15  13 -5.513856E+06 -7.939139E+05 -1.097477E+04 -2.089481E+06 -4.298021E-11  6.972574E-10
        15  14 -5.532016E+06 -7.729866E+05 -6.572869E+03 -2.068568E+06  7.085318E-09 -7.620663E-10
        15  15 -5.513638E+06 -7.924564E+05 -5.324957E+03 -2.090020E+06  3.920166E-10  1.131750E-10
        15  16 -5.842417E+06 -9.176856E+05 -1.007348E+05 -2.178042E+06  1.616485E-10  1.325104E-10
        15  17 -5.900488E+06 -9.121774E+05 -1.070920E+05 -2.168335E+06  1.279980E-09  1.526008E-10
        15  18 -5.922054E+06 -9.471013E+05 -1.167335E+05 -2.200995E+06 -9.663507E-10  1.392506E-09
        15  19 -5.185190E+06 -6.701359E+05  7.877591E+04 -2.000878E+06  4.207278E+03  8.323167E+03
        15  20 -5.163411E+06 -6.337877E+05  9.393419E+04 -1.968746E+06  3.755061E+02  8.938536E+03
        15  21 -5.105061E+06 -6.378019E+05  1.060685E+05 -1.978978E+06 -3.247977E+03  8.990656E+03
        15  22 -5.513856E+06 -7.939138E+05 -1.097459E+04 -2.089481E+06  4.806889E+03  8.547566E+03
        15  23 -5.532016E+06 -7.729865E+05 -6.572712E+03 -2.068568E+06  8.135766E+02  9.102889E+03
        15  24 -5.513638E+06 -7.924563E+05 -5.324785E+03 -2.090020E+06 -2.971171E+03  9.094880E+03
        15  25 -5.842417E+06 -9.176855E+05 -1.007346E+05 -2.178042E+06  5.406144E+03  8.771834E+03
        15  26 -5.900488E+06 -9.121773E+05 -1.070918E+05 -2.168335E+06  1.251357E+03  9.267134E+03
        15  27 -5.922054E+06 -9.471012E+05 -1.167333E+05 -2.200995E+06 -2.694566E+03  9.199029E+03
        16   1 -5.026979E+06 -6.014992E+05  1.289020E+05 -1.950916E+06  4.495445E+03 -9.307237E+03
        16   2 -5.018902E+06 -5.874542E+05  1.315838E+05 -1.938088E+06  8.025976E+03 -9.099461E+03
        16   3 -4.996800E+06 -5.907069E+05  1.313461E+05 -1.940995E+06  1.126031E+04 -8.100119E+03
        16   4 -5.518666E+06 -7.872665E+05 -5.310257E+03 -2.084139E+06  4.096574E+03 -9.457493E+03
        16   5 -5.525779E+06 -7.794387E+05 -6.727529E+03 -2.075955E+06  7.854081E+03 -9.164773E+03
        16   6 -5.518914E+06 -7.889562E+05 -1.124750E+04 -2.083507E+06  1.131519E+04 -8.080205E+03
        16   7 -6.010118E+06 -9.730199E+05 -1.395442E+05 -2.217266E+06  3.698054E+03 -9.607619E+03
        16   8 -6.032407E+06 -9.714082E+05 -1.450623E+05 -2.213721E+06  7.682342E+03 -9.230027E+03
        16   9 -6.040766E+06 -9.871897E+05 -1.538662E+05 -2.225910E+06  1.137002E+04 -8.060313E+03
        16  10 -5.026979E+06 -6.014993E+05  1.289018E+05 -1.950916E+06  1.201573E-09  8.421236E-10
        16  11 -5.018902E+06 -5.874544E+05  1.315836E+05 -1.938088E+06 -4.751137E-10 -1.185154E-09
        16  12 -4.996800E+06 -5.907070E+05  1.313457E+05 -1.940995E+06 -7.363165E-10  1.185654E-09
        16  13 -5.518666E+06 -7.872666E+05 -5.310456E+03 -2.084139E+06  3.436398E-10 -5.184271E-10
        16  14 -5.525779E+06 -7.794388E+05 -6.727803E+03 -2.075955E+06  3.488796E-09 -1.031971E-09
        16  15 -5.518914E+06 -7.889563E+05 -1.124787E+04 -2.083507E+06 -6.451640E-10  1.200064E-09
        16  16 -6.010118E+06 -9.730200E+05 -1.395444E+05 -2.217266E+06 -3.408175E-09 -2.301263E-10
        16  17 -6.032407E+06 -9.714083E+05 -1.450625E+05 -2.213720E+06  1.401034E-09 -4.946718E-10
        16  18 -6.040766E+06 -9.871898E+05 -1.538665E+05 -2.225910E+06  7.840928E-10  5.840952E-10
        16  19 -5.026979E+06 -6.014992E+05  1.289020E+05 -1.950916E+06 -4.495445E+03  9.307237E+03
        16  20 -5.018902E+06 -5.874542E+05  1.315838E+05 -1.938088E+06 -8.025976E+03  9.099461E+03
        16  21 -4.996800E+06 -5.907069E+05  1.313461E+05 -1.940995E+06 -1.126031E+04  8.100119E+03
        16  22 -5.518666E+06 -7.872665E+05 -5.310257E+03 -2.084139E+06 -4.096574E+03  9.457493E+03
        16  23 -5.525779E+06 -7.794387E+05 -6.727529E+03 -2.075955E+06 -7.854081E+03  9.164773E+03
        16  24 -5.518914E+06 -7.889562E+05 -1.124750E+04 -2.083507E+06 -1.131519E+04  8.080205E+03
        16  25 -6.010118E+06 -9.730199E+05 -1.395442E+05 -2.217266E+06 -3.698054E+03  9.607619E+03
        16  26 -6.032407E+06 -9.714082E+05 -1.450623E+05 -2.213721E+06 -7.682342E+03  9.230027E+03
        16  27 -6.040766E+06 -9.871897E+05 -1.538662E+05 -2.225910E+06 -1.137002E+04  8.060313E+03
        17   1 -4.999003E+06 -5.823713E+05  1.293805E+05 -1.935760E+06  1.349371E+04 -7.289661E+03
        17   2 -5.004567E+06 -5.894037E+05  1.157089E+05 -1.944548E+06  2.565713E+04 -2.576919E+03
        17   3 -5.030485E+06 -6.032139E+05  8.785286E+04 -1.934282E+06  3.751090E+04  2.951672E+03
        17   4 -5.525723E+06 -7.808342E+05 -1.417591E+04 -2.077957E+06  1.340219E+04 -7.324881E+03
        17   5 -5.516549E+06 -7.843671E+05 -2.420268E+04 -2.084873E+06  2.579250E+04 -2.526557E+03
        17   6 -5.527784E+06 -7.947331E+05 -4.860395E+04 -2.072734E+06  3.787333E+04  3.087955E+03
        17   7 -6.052174E+06 -9.792818E+05 -1.577575E+05 -2.220045E+06  1.331075E+04 -7.360071E+03
        17   8 -6.028278E+06 -9.793144E+05 -1.641381E+05 -2.225093E+06  2.592773E+04 -2.476245E+03
        17   9 -6.024844E+06 -9.862355E+05 -1.850832E+05 -2.211085E+06  3.823542E+04  3.224107E+03
        17  10 -4.999004E+06 -5.823714E+05  1.293800E+05 -1.935760E+06  1.317147E-09  7.861691E-10
        17  11 -5.004567E+06 -5.894039E+05  1.157077E+05 -1.944548E+06 -3.837109E-09  6.036039E-10
        17  12 -5.030486E+06 -6.032143E+05  8.785018E+04 -1.934282E+06 -3.185313E-09 -1.458224E-09
        17  13 -5.525723E+06 -7.808343E+05 -1.417635E+04 -2.077957E+06 -1.332654E-10  1.325995E-09
        17  14 -5.516550E+06 -7.843673E+05 -2.420395E+04 -2.084873E+06 -2.791974E-09  2.425414E-10
        17  15 -5.527786E+06 -7.947335E+05 -4.860668E+04 -2.072735E+06 -2.570188E-09 -9.919685E-11
        17  16 -6.052174E+06 -9.792819E+05 -1.577579E+05 -2.220045E+06 -3.035602E-09  4.005323E-10
        17  17 -6.028279E+06 -9.793146E+05 -1.641393E+05 -2.225093E+06  5.713035E-09  7.198509E-10
        17  18 -6.024845E+06 -9.862359E+05 -1.850860E+05 -2.211085E+06  3.715441E-09  1.074608E-09
        17  19 -4.999003E+06 -5.823713E+05  1.293805E+05 -1.935760E+06 -1.349371E+04  7.289661E+03
        17  20 -5.004567E+06 -5.894037E+05  1.157089E+05 -1.944548E+06 -2.565713E+04  2.576919E+03
        17  21 -5.030485E+06 -6.032139E+05  8.785286E+04 -1.934282E+06 -3.751090E+04 -2.951672E+03
        17  22 -5.525723E+06 -7.808342E+05 -1.417591E+04 -2.077957E+06 -1.340219E+04  7.324881E+03
        17  23 -5.516549E+06 -7.843671E+05 -2.420268E+04 -2.084873E+06 -2.579250E+04  2.526557E+03
        17  24 -5.527784E+06 -7.947331E+05 -4.860395E+04 -2.072734E+06 -3.787333E+04 -3.087955E+03
        17  25 -6.052174E+06 -9.792818E+05 -1.577575E+05 -2.220045E+06 -1.331075E+04  7.360071E+03
        17  26 -6.028278E+06 -9.793144E+05 -1.641381E+05 -2.225093E+06 -2.592773E+04  2.476245E+03
        17  27 -6.024844E+06 -9.862355E+05 -1.850832E+05 -2.211085E+06 -3.823542E+04 -3.224107E+03
        18   1 -5.108957E+06 -6.195182E+05  5.401582E+04 -1.968595E+06  4.638001E+04  7.037839E+03
        18   2 -5.117202E+06 -6.222166E+05  1.451209E+03 -1.986322E+06  1.003004E+05  2.881819E+04
        18   3 -5.222262E+06 -7.309762E+05 -1.307327E+05 -1.926697E+06  1.539501E+05  5.129327E+04
        18   4 -5.538412E+06 -7.731896E+05 -6.132617E+04 -2.076268E+06  4.660418E+04  7.123053E+03
        18   5 -5.497622E+06 -7.718341E+05 -1.034567E+05 -2.095410E+06  1.006937E+05  2.896597E+04
        18   6 -5.553714E+06 -8.766252E+05 -2.253757E+05 -2.037189E+06  1.545173E+05  5.150238E+04
        18   7 -5.967690E+06 -9.268555E+05 -1.766845E+05 -2.183875E+06  4.682817E+04  7.208207E+03
        18   8 -5.877901E+06 -9.214403E+05 -2.083781E+05 -2.204437E+06  1.010868E+05  2.911364E+04
        18   9 -5.885058E+06 -1.022257E+06 -3.200294E+05 -2.147624E+06  1.550841E+05  5.171131E+04
        18  10 -5.108959E+06 -6.195188E+05  5.401165E+04 -1.968595E+06 -2.358010E-09  1.446568E-10
        18  11 -5.117213E+06 -6.222203E+05  1.430549E+03 -1.986324E+06 -2.311545E-09  1.489324E-09
        18  12 -5.222288E+06 -7.309855E+05 -1.307827E+05 -1.926703E+06 -1.028678E-09 -1.933065E-09
        18  13 -5.538415E+06 -7.731902E+05 -6.133039E+04 -2.076268E+06 -2.524090E-09  1.513587E-10
        18  14 -5.497633E+06 -7.718377E+05 -1.034775E+05 -2.095413E+06  1.910594E-09  9.365397E-10
        18  15 -5.553740E+06 -8.766346E+05 -2.254261E+05 -2.037196E+06  4.883481E-10 -2.424673E-09
        18  16 -5.967692E+06 -9.268562E+05 -1.766888E+05 -2.183875E+06  1.836616E-09  1.225009E-09
        18  17 -5.877913E+06 -9.214440E+05 -2.083991E+05 -2.204440E+06 -2.938561E-09  5.916657E-10
        18  18 -5.885085E+06 -1.022266E+06 -3.200802E+05 -2.147631E+06 -2.098525E-09 -5.080822E-10
        18  19 -5.108957E+06 -6.195182E+05  5.401582E+04 -1.968595E+06 -4.638001E+04 -7.037839E+03
        18  20 -5.117202E+06 -6.222166E+05  1.451209E+03 -1.986322E+06 -1.003004E+05 -2.881819E+04
        18  21 -5.222262E+06 -7.309762E+05 -1.307327E+05 -1.926697E+06 -1.539501E+05 -5.129327E+04
        18  22 -5.538412E+06 -7.731896E+05 -6.132617E+04 -2.076268E+06 -4.660418E+04 -7.123053E+03
        18  23 -5.497622E+06 -7.718341E+05 -1.034567E+05 -2.095410E+06 -1.006937E+05 -2.896597E+04
        18  24 -5.553714E+06 -8.766252E+05 -2.253757E+05 -2.037189E+06 -1.545173E+05 -5.150238E+04
        18  25 -5.967690E+06 -9.268555E+05 -1.766845E+05 -2.183875E+06 -4.682817E+04 -7.208207E+03
        18  26 -5.877901E+06 -9.214403E+05 -2.083781E+05 -2.204437E+06 -1.010868E+05 -2.911364E+04
        18  27 -5.885058E+06 -1.022257E+06 -3.200294E+05 -2.147624E+06 -1.550841E+05 -5.171131E+04
        19   1 -5.331870E+06 -7.230767E+05 -2.176239E+05 -2.102697E+06  1.941974E+05  6.781627E+04
        19   2 -5.281813E+06 -5.488540E+05 -3.975397E+05 -2.049118E+06  4.353855E+05  1.617283E+05
        19   3 -5.710139E+06 -1.366870E+06 -1.045223E+06 -1.664863E+06  6.762616E+05  2.564294E+05
        19   4 -5.591460E+06 -7.519132E+05 -2.745576E+05 -2.102848E+06  1.946124E+05  6.800113E+04
        19   5 -5.408383E+06 -6.366074E+05 -4.399581E+05 -2.123900E+06  4.359671E+05  1.619144E+05
        19   6 -5.703841E+06 -1.513737E+06 -1.073318E+06 -1.814203E+06  6.770676E+05  2.565314E+05
        19   7 -5.850974E+06 -7.807450E+05 -3.314920E+05 -2.103007E+06  1.950272E+05  6.818604E+04
        19   8 -5.534932E+06 -7.243444E+05 -4.823776E+05 -2.198663E+06  4.365484E+05  1.621005E+05
        19   9 -5.697490E+06 -1.660488E+06 -1.101400E+06 -1.963531E+06  6.778736E+05  2.566330E+05
        19  10 -5.331912E+06 -7.230920E+05 -2.177042E+05 -2.102707E+06 -1.804948E-09 -2.719189E-09
        19  11 -5.282026E+06 -5.489338E+05 -3.979491E+05 -2.049175E+06 -2.909793E-09  2.225927E-09
        19  12 -5.710652E+06 -1.367065E+06 -1.046216E+06 -1.665003E+06  1.594251E-09  8.209935E-10
        19  13 -5.591502E+06 -7.519285E+05 -2.746383E+05 -2.102859E+06 -1.927424E-09 -7.514753E-10
        19  14 -5.408596E+06 -6.366874E+05 -4.403687E+05 -2.123957E+06 -6.319433E-09  7.016086E-09
        19  15 -5.704355E+06 -1.513932E+06 -1.074313E+06 -1.814344E+06 -4.920014E-10 -3.694491E-10
        19  16 -5.851017E+06 -7.807604E+05 -3.315731E+05 -2.103018E+06 -3.256412E-10  1.931816E-09
        19  17 -5.535146E+06 -7.244247E+05 -4.827894E+05 -2.198720E+06  1.634292E-09  1.821218E-10
        19  18 -5.698006E+06 -1.660684E+06 -1.102398E+06 -1.963672E+06 -6.359255E-10 -4.313935E-10
        19  19 -5.331870E+06 -7.230767E+05 -2.176239E+05 -2.102697E+06 -1.941974E+05 -6.781627E+04
        19  20 -5.281813E+06 -5.488540E+05 -3.975397E+05 -2.049118E+06 -4.353855E+05 -1.617283E+05
        19  21 -5.710139E+06 -1.366870E+06 -1.045223E+06 -1.664863E+06 -6.762616E+05 -2.564294E+05
        19  22 -5.591460E+06 -7.519132E+05 -2.745576E+05 -2.102848E+06 -1.946124E+05 -6.800113E+04
        19  23 -5.408383E+06 -6.366074E+05 -4.399581E+05 -2.123900E+06 -4.359671E+05 -1.619144E+05
        19  24 -5.703841E+06 -1.513737E+06 -1.073318E+06 -1.814203E+06 -6.770676E+05 -2.565314E+05
        19  25 -5.850974E+06 -7.807450E+05 -3.314920E+05 -2.103007E+06 -1.950272E+05 -6.818604E+04
        19  26 -5.534932E+06 -7.243444E+05 -4.823776E+05 -2.198663E+06 -4.365484E+05 -1.621005E+05
        19  27 -5.697490E+06 -1.660488E+06 -1.101400E+06 -1.963531E+06 -6.778736E+05 -2.566330E+05
        20   1 -2.352204E+06  1.640590E+04  2.132475E+04  2.417678E+03  1.453305E+04  5.680167E-02
        20   2 -2.355424E+06 -3.627708E+03  9.127929E+03  6.252573E+02  9.554898E+03  9.658106E-03
        20   3 -2.352224E+06 -6.031222E+02  5.945902E+03 -1.167128E+03  4.576813E+03 -8.635486E-03
        20   4 -2.352204E+06  1.640589E+04  2.132475E+04  4.240395E-09  1.453305E+04 -2.482031E-12
        20   5 -2.355424E+06 -3.627708E+03  9.127929E+03  5.015452E-08  9.554898E+03  1.169743E-11
        20   6 -2.352224E+06 -6.031248E+02  5.945902E+03  6.809901E-08  4.576813E+03 -1.468418E-09
        20   7 -2.352204E+06  1.640590E+04  2.132475E+04 -2.417678E+03  1.453305E+04 -5.680167E-02
        20   8 -2.355424E+06 -3.627708E+03  9.127929E+03 -6.252573E+02  9.554898E+03 -9.658110E-03
        20   9 -2.352224E+06 -6.031222E+02  5.945902E+03  1.167128E+03  4.576813E+03  8.635486E-03
        20  10 -2.352204E+06  1.640584E+04  2.132435E+04  2.417678E+03  1.447845E-09  5.123166E-10
        20  11 -2.355424E+06 -3.627732E+03  9.127757E+03  6.252573E+02 -1.323257E-09  4.182374E-10
        20  12 -2.352224E+06 -6.031279E+02  5.945863E+03 -1.167128E+03  3.709494E-09 -2.116269E-10
        20  13 -2.352204E+06  1.640583E+04  2.132435E+04 -1.296076E-08  2.802182E-10  1.700924E-10
        20  14 -2.355424E+06 -3.627733E+03  9.127757E+03  4.154645E-08  3.359172E-11  7.638829E-11
        20  15 -2.352224E+06 -6.031305E+02  5.945862E+03  4.441080E-08 -1.288826E-10 -1.494871E-10
        20  16 -2.352204E+06  1.640584E+04  2.132435E+04 -2.417678E+03 -1.184768E-09 -3.737062E-11
        20  17 -2.355424E+06 -3.627732E+03  9.127757E+03 -6.252573E+02 -3.493416E-10 -1.681843E-10
        20  18 -2.352224E+06 -6.031279E+02  5.945863E+03  1.167128E+03 -5.138200E-10 -5.093663E-10
        20  19 -2.352204E+06  1.640590E+04  2.132475E+04  2.417678E+03 -1.453305E+04 -5.680167E-02
        20  20 -2.355424E+06 -3.627708E+03  9.127929E+03  6.252573E+02 -9.554898E+03 -9.658105E-03
        20  21 -2.352224E+06 -6.031222E+02  5.945902E+03 -1.167128E+03 -4.576813E+03  8.635489E-03
        20  22 -2.352204E+06  1.640589E+04  2.132475E+04  2.147514E-08 -1.453305E+04  3.485884E-10
        20  23 -2.355424E+06 -3.627708E+03  9.127929E+03  5.015137E-08 -9.554898E+03  4.824439E-10
        20  24 -2.352224E+06 -6.031248E+02  5.945902E+03  5.084498E-08 -4.576813E+03  1.422920E-09
        20  25 -2.352204E+06  1.640590E+04  2.132475E+04 -2.417678E+03 -1.453305E+04  5.680167E-02
        20  26 -2.355424E+06 -3.627708E+03  9.127929E+03 -6.252573E+02 -9.554898E+03  9.658107E-03
        20  27 -2.352224E+06 -6.031222E+02  5.945902E+03  1.167128E+03 -4.576813E+03 -8.635487E-03
        21   1 -2.353424E+06  2.379978E+03  4.908925E+03  3.327921E+02  3.603612E+03  1.938728E-03
        21   2 -2.353925E+06 -5.278827E+02  2.354634E+03  7.954042E+01  2.372857E+03  3.051192E-04
        21   3 -2.353428E+06 -8.594524E+01  1.441376E+03 -1.737150E+02  1.142084E+03 -3.207313E-04
        21   4 -2.353424E+06  2.379977E+03  4.908925E+03  6.062523E-08  3.603612E+03 -4.508579E-10
        21   5 -2.353925E+06 -5.278828E+02  2.354634E+03  3.132192E-08  2.372857E+03  2.504575E-09
        21   6 -2.353428E+06 -8.594530E+01  1.441376E+03  2.025530E-09  1.142084E+03 -1.064391E-09
        21   7 -2.353424E+06  2.379978E+03  4.908925E+03 -3.327921E+02  3.603612E+03 -1.938730E-03
        21   8 -2.353925E+06 -5.278827E+02  2.354634E+03 -7.954042E+01  2.372857E+03 -3.051161E-04
        21   9 -2.353428E+06 -8.594524E+01  1.441376E+03  1.737150E+02  1.142084E+03  3.207297E-04
        21  10 -2.353424E+06  2.379974E+03  4.908901E+03  3.327921E+02  1.981329E-09  3.470443E-10
        21  11 -2.353925E+06 -5.278843E+02  2.354623E+03  7.954042E+01  9.651201E-10  2.195546E-10
        21  12 -2.353428E+06 -8.594559E+01  1.441374E+03 -1.737150E+02 -3.807264E-10 -1.507009E-10
        21  13 -2.353424E+06  2.379974E+03  4.908901E+03 -2.382183E-08 -1.659072E-09  6.897439E-11
        21  14 -2.353925E+06 -5.278843E+02  2.354623E+03 -1.171925E-08 -4.079179E-09  5.521804E-10
        21  15 -2.353428E+06 -8.594565E+01  1.441374E+03 -9.861266E-08  1.162753E-09 -3.295980E-10
        21  16 -2.353424E+06  2.379974E+03  4.908901E+03 -3.327921E+02 -1.325781E-09 -2.098890E-10
        21  17 -2.353925E+06 -5.278843E+02  2.354623E+03 -7.954042E+01 -1.231156E-09  3.453694E-10
        21  18 -2.353428E+06 -8.594559E+01  1.441374E+03  1.737150E+02  1.668229E-09 -4.163510E-10
        21  19 -2.353424E+06  2.379978E+03  4.908925E+03  3.327921E+02 -3.603612E+03 -1.938727E-03
        21  20 -2.353925E+06 -5.278827E+02  2.354634E+03  7.954042E+01 -2.372857E+03 -3.051157E-04
        21  21 -2.353428E+06 -8.594524E+01  1.441376E+03 -1.737150E+02 -1.142084E+03  3.207319E-04
        21  22 -2.353424E+06  2.379977E+03  4.908925E+03  2.946978E-08 -3.603612E+03  6.027312E-10
        21  23 -2.353925E+06 -5.278828E+02  2.354634E+03 -3.754206E-08 -2.372857E+03 -1.097189E-09
        21  24 -2.353428E+06 -8.594530E+01  1.441376E+03 -5.505654E-08 -1.142084E+03  2.885660E-10
        21  25 -2.353424E+06  2.379978E+03  4.908925E+03 -3.327921E+02 -3.603612E+03  1.938728E-03
        21  26 -2.353925E+06 -5.278827E+02  2.354634E+03 -7.954042E+01 -2.372857E+03  3.051143E-04
        21  27 -2.353428E+06 -8.594524E+01  1.441376E+03  1.737150E+02 -1.142084E+03 -3.207324E-04
        22   1 -2.353614E+06  3.431878E+02  1.140597E+03  4.308414E+01  9.098252E+02  6.336880E-05
        22   2 -2.353693E+06 -7.561653E+01  5.606710E+02  8.452232E+00  6.233195E+02  8.516375E-06
        22   3 -2.353615E+06 -1.576279E+01  2.874695E+02 -2.617968E+01  3.368138E+02 -1.425429E-05
        22   4 -2.353614E+06  3.431878E+02  1.140597E+03 -6.040621E-08  9.098252E+02 -2.192644E-09
        22   5 -2.353693E+06 -7.561653E+01  5.606710E+02 -8.756671E-08  6.233195E+02 -2.945364E-10
        22   6 -2.353615E+06 -1.576279E+01  2.874695E+02  2.300932E-08  3.368138E+02  6.011955E-11
        22   7 -2.353614E+06  3.431878E+02  1.140597E+03 -4.308414E+01  9.098252E+02 -6.337159E-05
        22   8 -2.353693E+06 -7.561653E+01  5.606710E+02 -8.452232E+00  6.233195E+02 -8.518745E-06
        22   9 -2.353615E+06 -1.576279E+01  2.874695E+02  2.617968E+01  3.368138E+02  1.425415E-05
        22  10 -2.353614E+06  3.431876E+02  1.140596E+03  4.308414E+01  7.872077E-10 -9.780007E-10
        22  11 -2.353693E+06 -7.561664E+01  5.606702E+02  8.452232E+00 -6.111572E-10  8.985987E-11
        22  12 -2.353615E+06 -1.576282E+01  2.874693E+02 -2.617969E+01  5.789242E-09  1.600695E-10
        22  13 -2.353614E+06  3.431875E+02  1.140596E+03 -6.041355E-08 -3.359161E-11 -5.110596E-10
        22  14 -2.353693E+06 -7.561664E+01  5.606702E+02 -5.313467E-08  6.383498E-10  1.536627E-10
        22  15 -2.353615E+06 -1.576282E+01  2.874693E+02 -7.119433E-09 -1.945140E-09  1.704581E-10
        22  16 -2.353614E+06  3.431876E+02  1.140596E+03 -4.308414E+01  1.804681E-09 -3.131702E-10
        22  17 -2.353693E+06 -7.561664E+01  5.606702E+02 -8.452233E+00 -1.540748E-09 -4.310758E-10
        22  18 -2.353615E+06 -1.576282E+01  2.874693E+02  2.617968E+01  6.792202E-10 -5.595095E-10
        22  19 -2.353614E+06  3.431878E+02  1.140597E+03  4.308414E+01 -9.098252E+02 -6.336801E-05
        22  20 -2.353693E+06 -7.561653E+01  5.606710E+02  8.452232E+00 -6.233195E+02 -8.513707E-06
        22  21 -2.353615E+06 -1.576279E+01  2.874695E+02 -2.617969E+01 -3.368138E+02  1.425465E-05
        22  22 -2.353614E+06  3.431878E+02  1.140597E+03 -4.319308E-08 -9.098252E+02  8.582596E-10
        22  23 -2.353693E+06 -7.561653E+01  5.606710E+02 -7.034518E-08 -6.233195E+02  5.240162E-10
        22  24 -2.353615E+06 -1.576279E+01  2.874695E+02 -9.263989E-09 -3.368138E+02  1.708758E-10
        22  25 -2.353614E+06  3.431878E+02  1.140597E+03 -4.308414E+01 -9.098252E+02  6.337007E-05
        22  26 -2.353693E+06 -7.561653E+01  5.606710E+02 -8.452232E+00 -6.233195E+02  8.516588E-06
        22  27 -2.353615E+06 -1.576279E+01  2.874695E+02  2.617969E+01 -3.368138E+02 -1.425419E-05
        23   1 -2.353648E+06  4.972314E+01  1.865128E+02  2.394385E+00  2.941135E+02  1.140549E-06
        23   2 -2.353652E+06 -4.300385E+00 -1.073665E+01  1.107163E-01  2.988476E+02  5.442131E-08
        23   3 -2.353649E+06 -3.087513E+01 -2.042164E+02 -2.172918E+00  3.035817E+02 -1.065754E-06
        23   4 -2.353648E+06  4.972314E+01  1.865128E+02  5.306029E-08  2.941135E+02 -3.552038E-11
        23   5 -2.353652E+06 -4.300385E+00 -1.073665E+01 -6.918658E-08  2.988476E+02  4.480829E-10
        23   6 -2.353649E+06 -3.087513E+01 -2.042164E+02  4.312463E-08  3.035817E+02  4.166623E-10
        23   7 -2.353648E+06  4.972314E+01  1.865128E+02 -2.394385E+00  2.941135E+02 -1.139584E-06
        23   8 -2.353652E+06 -4.300385E+00 -1.073665E+01 -1.107165E-01  2.988476E+02 -5.611852E-08
        23   9 -2.353649E+06 -3.087513E+01 -2.042164E+02  2.172918E+00  3.035817E+02  1.065887E-06
        23  10 -2.353648E+06  4.972311E+01  1.865127E+02  2.394385E+00  1.810704E-09  7.672223E-10
        23  11 -2.353652E+06 -4.300409E+00 -1.073682E+01  1.107164E-01 -2.616287E-09  1.421903E-09
        23  12 -2.353649E+06 -3.087516E+01 -2.042165E+02 -2.172918E+00  5.842180E-11  3.799841E-10
        23  13 -2.353648E+06  4.972311E+01  1.865127E+02 -1.580065E-08 -2.644632E-09  1.006678E-10
        23  14 -2.353652E+06 -4.300409E+00 -1.073682E+01 -6.057687E-08  2.577445E-09  2.816183E-10
        23  15 -2.353649E+06 -3.087516E+01 -2.042165E+02 -4.079806E-08  2.799291E-09  4.016634E-10
        23  16 -2.353648E+06  4.972311E+01  1.865127E+02 -2.394385E+00  3.127470E-10 -6.991362E-10
        23  17 -2.353652E+06 -4.300409E+00 -1.073682E+01 -1.107162E-01  3.579804E-09 -5.017514E-11
        23  18 -2.353649E+06 -3.087516E+01 -2.042165E+02  2.172918E+00 -4.209030E-10 -6.101373E-11
        23  19 -2.353648E+06  4.972314E+01  1.865128E+02  2.394385E+00 -2.941135E+02 -1.137705E-06
        23  20 -2.353652E+06 -4.300385E+00 -1.073665E+01  1.107163E-01 -2.988476E+02 -5.053598E-08
        23  21 -2.353649E+06 -3.087513E+01 -2.042164E+02 -2.172918E+00 -3.035817E+02  1.066632E-06
        23  22 -2.353648E+06  4.972314E+01  1.865128E+02 -1.579855E-08 -2.941135E+02  3.213042E-10
        23  23 -2.353652E+06 -4.300385E+00 -1.073665E+01 -3.240735E-10 -2.988476E+02  2.218715E-10
        23  24 -2.353649E+06 -3.087513E+01 -2.042164E+02  2.590205E-08 -3.035817E+02  3.668766E-10
        23  25 -2.353648E+06  4.972314E+01  1.865128E+02 -2.394385E+00 -2.941135E+02  1.138269E-06
        23  26 -2.353652E+06 -4.300385E+00 -1.073665E+01 -1.107165E-01 -2.988476E+02  5.308467E-08
        23  27 -2.353649E+06 -3.087513E+01 -2.042164E+02  2.172918E+00 -3.035817E+02 -1.067847E-06
        24   1 -2.353675E+06  1.351034E+01 -3.118174E+02 -1.668856E+01  3.501666E+02 -9.446025E-06
        24   2 -2.353619E+06  4.567257E+01 -6.098020E+02  2.231991E+00  6.569856E+02  2.370683E-06
        24   3 -2.353675E+06 -2.098378E+02 -1.180024E+03  2.115283E+01  9.638091E+02  3.295817E-05
        24   4 -2.353675E+06  1.351034E+01 -3.118174E+02 -9.459643E-09  3.501666E+02  5.022153E-10
        24   5 -2.353619E+06  4.567257E+01 -6.098020E+02 -3.503166E-10  6.569856E+02  5.613787E-10
        24   6 -2.353675E+06 -2.098378E+02 -1.180024E+03  6.255873E-08  9.638091E+02 -7.563144E-10
        24   7 -2.353675E+06  1.351034E+01 -3.118174E+02  1.668856E+01  3.501666E+02  9.447388E-06
        24   8 -2.353619E+06  4.567257E+01 -6.098020E+02 -2.231991E+00  6.569856E+02 -2.370732E-06
        24   9 -2.353675E+06 -2.098378E+02 -1.180024E+03 -2.115283E+01  9.638091E+02 -3.295963E-05
        24  10 -2.353675E+06  1.351031E+01 -3.118176E+02 -1.668856E+01  1.328297E-09 -2.029454E-10
        24  11 -2.353619E+06  4.567245E+01 -6.098028E+02  2.231991E+00 -6.813189E-10 -2.575388E-10
        24  12 -2.353675E+06 -2.098381E+02 -1.180025E+03  2.115283E+01 -2.176059E-11  1.040706E-10
        24  13 -2.353675E+06  1.351031E+01 -3.118176E+02 -6.110850E-08  2.084721E-09  2.609041E-10
        24  14 -2.353619E+06  4.567245E+01 -6.098028E+02 -8.958461E-09 -2.790175E-09 -6.702392E-11
        24  15 -2.353675E+06 -2.098381E+02 -1.180025E+03  1.736033E-08 -2.720270E-10 -3.999707E-10
        24  16 -2.353675E+06  1.351031E+01 -3.118176E+02  1.668856E+01 -4.319923E-10  3.208204E-10
        24  17 -2.353619E+06  4.567245E+01 -6.098028E+02 -2.231991E+00 -1.036672E-09  2.320171E-10
        24  18 -2.353675E+06 -2.098381E+02 -1.180025E+03 -2.115283E+01 -1.956215E-09 -6.084333E-10
        24  19 -2.353675E+06  1.351034E+01 -3.118174E+02 -1.668856E+01 -3.501666E+02  9.448145E-06
        24  20 -2.353619E+06  4.567257E+01 -6.098020E+02  2.231991E+00 -6.569856E+02 -2.369131E-06
        24  21 -2.353675E+06 -2.098378E+02 -1.180024E+03  2.115283E+01 -9.638091E+02 -3.295680E-05
        24  22 -2.353675E+06  1.351034E+01 -3.118174E+02 -4.390009E-08 -3.501666E+02 -2.209806E-11
        24  23 -2.353619E+06  4.567257E+01 -6.098020E+02 -3.576648E-10 -6.569856E+02 -4.936043E-10
        24  24 -2.353675E+06 -2.098378E+02 -1.180024E+03  4.102971E-08 -9.638091E+02 -4.289298E-11
        24  25 -2.353675E+06  1.351034E+01 -3.118174E+02  1.668856E+01 -3.501666E+02 -9.448537E-06
        24  26 -2.353619E+06  4.567257E+01 -6.098020E+02 -2.231991E+00 -6.569856E+02  2.369280E-06
        24  27 -2.353675E+06 -2.098378E+02 -1.180024E+03 -2.115283E+01 -9.638091E+02  3.295727E-05
        25   1 -2.353804E+06  5.152471E+01 -1.522867E+03 -1.118798E+02  1.207475E+03 -2.183917E-04
        25   2 -2.353460E+06  3.277943E+02 -2.565518E+03  3.725273E+01  2.516093E+03  1.515281E-04
        25   3 -2.353807E+06 -1.470175E+03 -4.981116E+03  1.863853E+02  3.824710E+03  1.152436E-03
        25   4 -2.353804E+06  5.152469E+01 -1.522867E+03  7.024131E-08  1.207475E+03 -8.416932E-10
        25   5 -2.353460E+06  3.277943E+02 -2.565518E+03 -5.412356E-09  2.516093E+03  1.104731E-09
        25   6 -2.353807E+06 -1.470175E+03 -4.981116E+03  4.804888E-08  3.824710E+03  9.342195E-10
        25   7 -2.353804E+06  5.152471E+01 -1.522867E+03  1.118798E+02  1.207475E+03  2.183917E-04
        25   8 -2.353460E+06  3.277943E+02 -2.565518E+03 -3.725273E+01  2.516093E+03 -1.515274E-04
        25   9 -2.353807E+06 -1.470175E+03 -4.981116E+03 -1.863853E+02  3.824710E+03 -1.152433E-03
        25  10 -2.353804E+06  5.152432E+01 -1.522870E+03 -1.118798E+02  9.205688E-10 -9.867304E-10
        25  11 -2.353460E+06  3.277926E+02 -2.565530E+03  3.725273E+01 -2.282649E-09  1.071724E-09
        25  12 -2.353807E+06 -1.470179E+03 -4.981144E+03  1.863853E+02  2.586245E-10  1.108721E-10
        25  13 -2.353804E+06  5.152430E+01 -1.522870E+03 -1.583753E-08 -1.692885E-09 -2.844122E-10
        25  14 -2.353460E+06  3.277926E+02 -2.565530E+03 -3.123419E-08 -3.653274E-09  1.819240E-10
        25  15 -2.353807E+06 -1.470179E+03 -4.981144E+03  2.653192E-08 -1.162105E-09 -7.776328E-11
        25  16 -2.353804E+06  5.152432E+01 -1.522870E+03  1.118798E+02  5.460728E-11 -3.904587E-10
        25  17 -2.353460E+06  3.277926E+02 -2.565530E+03 -3.725273E+01  2.057549E-09 -6.660483E-11
        25  18 -2.353807E+06 -1.470179E+03 -4.981144E+03 -1.863853E+02 -7.079105E-10  1.132237E-10
        25  19 -2.353804E+06  5.152471E+01 -1.522867E+03 -1.118798E+02 -1.207475E+03  2.183924E-04
        25  20 -2.353460E+06  3.277943E+02 -2.565518E+03  3.725273E+01 -2.516093E+03 -1.515258E-04
        25  21 -2.353807E+06 -1.470175E+03 -4.981116E+03  1.863853E+02 -3.824710E+03 -1.152434E-03
        25  22 -2.353804E+06  5.152469E+01 -1.522867E+03  1.386111E-09 -1.207475E+03  3.474614E-10
        25  23 -2.353460E+06  3.277943E+02 -2.565518E+03 -2.262342E-08 -2.516093E+03 -1.760121E-10
        25  24 -2.353807E+06 -1.470175E+03 -4.981116E+03  3.082891E-08 -3.824710E+03 -9.783013E-10
        25  25 -2.353804E+06  5.152471E+01 -1.522867E+03  1.118798E+02 -1.207475E+03 -2.183929E-04
        25  26 -2.353460E+06  3.277943E+02 -2.565518E+03 -3.725273E+01 -2.516093E+03  1.515255E-04
        25  27 -2.353807E+06 -1.470175E+03 -4.981116E+03 -1.863853E+02 -3.824710E+03  1.152432E-03
        26   1 -2.354603E+06  3.662540E+02 -6.247203E+03 -7.439342E+02  4.834801E+03 -5.814593E-03
        26   2 -2.352468E+06  2.262350E+03 -1.012862E+04  3.411618E+02  1.012813E+04  5.585915E-03
        26   3 -2.354618E+06 -1.019752E+04 -2.105492E+04  1.426241E+03  1.542136E+04  3.555669E-02
        26   4 -2.354603E+06  3.662529E+02 -6.247204E+03  8.869421E-08  4.834801E+03  3.903700E-10
        26   5 -2.352468E+06  2.262350E+03 -1.012862E+04 -1.546684E-08  1.012813E+04  1.889473E-10
        26   6 -2.354618E+06 -1.019752E+04 -2.105492E+04  6.758239E-08  1.542136E+04 -1.083726E-09
        26   7 -2.354603E+06  3.662540E+02 -6.247203E+03  7.439342E+02  4.834801E+03  5.814595E-03
        26   8 -2.352468E+06  2.262350E+03 -1.012862E+04 -3.411618E+02  1.012813E+04 -5.585917E-03
        26   9 -2.354618E+06 -1.019752E+04 -2.105492E+04 -1.426241E+03  1.542136E+04 -3.555669E-02
        26  10 -2.354603E+06  3.662477E+02 -6.247248E+03 -7.439342E+02 -9.725970E-10 -2.742951E-10
        26  11 -2.352468E+06  2.262323E+03 -1.012882E+04  3.411618E+02  1.693999E-10  4.827460E-11
        26  12 -2.354619E+06 -1.019758E+04 -2.105537E+04  1.426241E+03  8.271240E-12 -6.313660E-11
        26  13 -2.354603E+06  3.662466E+02 -6.247248E+03  5.428832E-08 -3.359148E-11 -2.183445E-11
        26  14 -2.352468E+06  2.262322E+03 -1.012882E+04  7.922070E-08 -1.301809E-09  2.503968E-10
        26  15 -2.354619E+06 -1.019758E+04 -2.105537E+04  8.607877E-10  2.494468E-10 -1.567461E-10
        26  16 -2.354603E+06  3.662477E+02 -6.247248E+03  7.439342E+02 -2.246843E-09  7.704030E-10
        26  17 -2.352468E+06  2.262323E+03 -1.012882E+04 -3.411618E+02 -3.065102E-09 -3.562014E-10
        26  18 -2.354619E+06 -1.019758E+04 -2.105537E+04 -1.426241E+03 -6.077673E-10  8.600346E-11
        26  19 -2.354603E+06  3.662540E+02 -6.247203E+03 -7.439342E+02 -4.834801E+03  5.814596E-03
        26  20 -2.352468E+06  2.262350E+03 -1.012862E+04  3.411618E+02 -1.012813E+04 -5.585913E-03
        26  21 -2.354618E+06 -1.019752E+04 -2.105492E+04  1.426241E+03 -1.542136E+04 -3.555669E-02
        26  22 -2.354603E+06  3.662529E+02 -6.247204E+03  7.153299E-08 -4.834801E+03 -3.632208E-10
        26  23 -2.352468E+06  2.262350E+03 -1.012862E+04  5.339453E-08 -1.012813E+04  1.571297E-10
        26  24 -2.354618E+06 -1.019752E+04 -2.105492E+04 -3.468746E-09 -1.542136E+04  5.733740E-10
        26  25 -2.354603E+06  3.662540E+02 -6.247203E+03  7.439342E+02 -4.834801E+03 -5.814596E-03
        26  26 -2.352468E+06  2.262350E+03 -1.012862E+04 -3.411618E+02 -1.012813E+04  5.585915E-03
        26  27 -2.354618E+06 -1.019752E+04 -2.105492E+04 -1.426241E+03 -1.542136E+04  3.555669E-02
        27   1 -2.359758E+06  2.584183E+03 -2.549148E+04 -5.000682E+03  1.959426E+04 -1.584045E-01
        27   2 -2.346046E+06  1.554399E+04 -3.911329E+04  2.679316E+03  4.092821E+04  1.772747E-01
        27   3 -2.359844E+06 -7.029434E+04 -9.136156E+04  1.035928E+04  6.226261E+04  1.042707E+00
        27   4 -2.359758E+06  2.584135E+03 -2.549149E+04  8.426995E-08  1.959426E+04 -4.541075E-10
        27   5 -2.346046E+06  1.554398E+04 -3.911329E+04  1.042949E-08  4.092821E+04  1.661305E-09
        27   6 -2.359844E+06 -7.029454E+04 -9.136159E+04  1.141914E-09  6.226261E+04  4.288865E-10
        27   7 -2.359758E+06  2.584183E+03 -2.549148E+04  5.000682E+03  1.959426E+04  1.584045E-01
        27   8 -2.346046E+06  1.554399E+04 -3.911329E+04 -2.679316E+03  4.092821E+04 -1.772747E-01
        27   9 -2.359844E+06 -7.029434E+04 -9.136156E+04 -1.035928E+04  6.226261E+04 -1.042707E+00
        27  10 -2.359759E+06  2.584079E+03 -2.549221E+04 -5.000682E+03  7.894981E-10  3.341121E-11
        27  11 -2.346048E+06  1.554354E+04 -3.911645E+04  2.679316E+03  1.872544E-10  5.430985E-11
        27  12 -2.359848E+06 -7.029539E+04 -9.136887E+04  1.035928E+04  1.281089E-09 -2.183863E-12
        27  13 -2.359759E+06  2.584032E+03 -2.549221E+04  2.402444E-08 -7.794111E-10 -5.758704E-11
        27  14 -2.346048E+06  1.554352E+04 -3.911645E+04  1.043048E-08 -1.939709E-10  3.534466E-10
        27  15 -2.359849E+06 -7.029559E+04 -9.136890E+04  1.404883E-08 -1.272644E-09  1.695106E-10
        27  16 -2.359759E+06  2.584079E+03 -2.549221E+04  5.000682E+03 -1.962407E-09 -2.822126E-10
        27  17 -2.346048E+06  1.554354E+04 -3.911645E+04 -2.679316E+03  1.051814E-09  4.628823E-10
        27  18 -2.359848E+06 -7.029539E+04 -9.136887E+04 -1.035928E+04  1.355253E-09  1.051498E-10
        27  19 -2.359758E+06  2.584183E+03 -2.549148E+04 -5.000682E+03 -1.959426E+04  1.584045E-01
        27  20 -2.346046E+06  1.554399E+04 -3.911329E+04  2.679316E+03 -4.092821E+04 -1.772747E-01
        27  21 -2.359844E+06 -7.029434E+04 -9.136156E+04  1.035928E+04 -6.226261E+04 -1.042707E+00
        27  22 -2.359758E+06  2.584135E+03 -2.549149E+04  1.542776E-08 -1.959426E+04  2.791114E-10
        27  23 -2.346046E+06  1.554398E+04 -3.911329E+04  1.043262E-08 -4.092821E+04 -1.135060E-09
        27  24 -2.359844E+06 -7.029454E+04 -9.136159E+04  2.480444E-08 -6.226261E+04 -1.158613E-10
        27  25 -2.359758E+06  2.584183E+03 -2.549148E+04  5.000682E+03 -1.959426E+04 -1.584045E-01
        27  26 -2.346046E+06  1.554399E+04 -3.911329E+04 -2.679316E+03 -4.092821E+04  1.772747E-01
        27  27 -2.359844E+06 -7.029434E+04 -9.136156E+04 -1.035928E+04 -6.226261E+04  1.042707E+00
        28   1  5.858156E+05  1.125521E+06  7.465117E+05 -6.394370E+04  1.149247E+03  4.587674E+05
        28   2 -5.151018E+04  1.042228E+06  3.671619E+05 -2.397092E+04  3.867607E+03  2.939901E+05
        28   3  5.825494E+04  1.167550E+06  2.819215E+05  5.237026E+04  4.375577E+03  1.291967E+05
        28   4  5.249494E+05  8.816924E+05  6.858093E+05  1.429625E+04  1.207060E+03  4.578285E+05
        28   5 -1.175447E+05  7.774746E+05  3.016087E+05 -3.927137E+03  3.877337E+03  2.935781E+05
        28   6 -1.288719E+04  8.818481E+05  2.112293E+05  1.422453E+04  4.367649E+03  1.293171E+05
        28   7  4.641016E+05  6.379312E+05  6.251058E+05  9.250550E+04  1.264655E+03  4.568899E+05
        28   8 -1.835830E+05  5.127859E+05  2.360505E+05  1.610810E+04  3.887044E+03  2.931663E+05
        28   9 -8.402993E+04  5.962235E+05  1.405318E+05 -2.390365E+04  4.359703E+03  1.294375E+05
        28  10  5.857592E+05  1.125295E+06  7.461169E+05 -6.394413E+04 -2.670992E-09  1.713407E-11
        28  11 -5.153334E+04  1.042135E+06  3.669997E+05 -2.397183E+04  3.186283E-09  3.245346E-10
        28  12  5.825045E+04  1.167532E+06  2.818902E+05  5.236981E+04 -1.214466E-09  1.210284E-10
        28  13  5.248932E+05  8.814677E+05  6.854160E+05  1.429580E+04  2.113890E-09  1.072765E-12
        28  14 -1.175678E+05  7.773821E+05  3.014469E+05 -3.928054E+03  2.154335E-09  1.244530E-10
        28  15 -1.289169E+04  8.818302E+05  2.111979E+05  1.422407E+04 -2.681368E-10 -1.265643E-10
        28  16  4.640457E+05  6.377073E+05  6.247139E+05  9.250505E+04  2.694514E-09 -5.632518E-11
        28  17 -1.836061E+05  5.126937E+05  2.358891E+05  1.610719E+04  1.511897E-09 -3.684095E-10
        28  18 -8.403444E+04  5.962055E+05  1.405004E+05 -2.390411E+04  1.825962E-09 -3.526701E-10
        28  19  5.858156E+05  1.125521E+06  7.465117E+05 -6.394370E+04 -1.149247E+03 -4.587674E+05
        28  20 -5.151018E+04  1.042228E+06  3.671619E+05 -2.397092E+04 -3.867607E+03 -2.939901E+05
        28  21  5.825494E+04  1.167550E+06  2.819215E+05  5.237026E+04 -4.375577E+03 -1.291967E+05
        28  22  5.249494E+05  8.816924E+05  6.858093E+05  1.429625E+04 -1.207060E+03 -4.578285E+05
        28  23 -1.175447E+05  7.774746E+05  3.016087E+05 -3.927137E+03 -3.877337E+03 -2.935781E+05
        28  24 -1.288719E+04  8.818481E+05  2.112293E+05  1.422453E+04 -4.367649E+03 -1.293171E+05
        28  25  4.641016E+05  6.379312E+05  6.251058E+05  9.250550E+04 -1.264655E+03 -4.568899E+05
        28  26 -1.835830E+05  5.127859E+05  2.360505E+05  1.610810E+04 -3.887044E+03 -2.931663E+05
        28  27 -8.402993E+04  5.962235E+05  1.405318E+05 -2.390365E+04 -4.359703E+03 -1.294375E+05
        29   1  1.723730E+05  1.239153E+06  2.811515E+05  1.298782E+03  4.667615E+03  9.420142E+04
        29   2  7.688936E+04  1.237446E+06  2.224919E+05 -7.102729E+03  5.933068E+03  3.141613E+04
        29   3  1.521639E+05  1.287800E+06  2.475992E+05  2.680356E+04  5.963217E+03 -3.137211E+04
        29   4  7.454278E+04  8.469792E+05  1.838935E+05  1.561563E+04  4.670396E+03  9.376784E+04
        29   5 -2.694681E+04  8.209710E+05  1.193398E+05 -5.534535E+03  5.933596E+03  3.128440E+04
        29   6  4.232970E+04  8.470029E+05  1.383805E+05  1.562443E+04  5.963694E+03 -3.119955E+04
        29   7 -2.329821E+04  4.549451E+05  8.662411E+04  2.992347E+04  4.673159E+03  9.333452E+04
        29   8 -1.307959E+05  4.046536E+05  1.617475E+04 -3.967325E+03  5.934123E+03  3.115276E+04
        29   9 -6.751855E+04  4.063821E+05  2.914748E+04  4.453329E+03  5.964165E+03 -3.102711E+04
        29  10  1.723706E+05  1.239144E+06  2.811348E+05  1.298428E+03 -1.778942E-09 -6.008040E-10
        29  11  7.688906E+04  1.237445E+06  2.224900E+05 -7.102879E+03 -2.261010E-09 -2.036706E-10
        29  12  1.521636E+05  1.287799E+06  2.475973E+05  2.680371E+04 -4.744341E-09 -1.361557E-09
        29  13  7.454040E+04  8.469698E+05  1.838770E+05  1.561527E+04 -2.228895E-09 -2.352902E-11
        29  14 -2.694711E+04  8.209700E+05  1.193379E+05 -5.534684E+03 -3.785741E-09  3.473082E-10
        29  15  4.232940E+04  8.470018E+05  1.383787E+05  1.562458E+04 -2.844647E-09 -3.293903E-10
        29  16 -2.330057E+04  4.549357E+05  8.660771E+04  2.992312E+04  1.976001E-09  1.615068E-10
        29  17 -1.307962E+05  4.046526E+05  1.617286E+04 -3.967474E+03 -2.270083E-09  1.709358E-10
        29  18 -6.751885E+04  4.063811E+05  2.914561E+04  4.453478E+03 -3.523837E-09  4.724976E-10
        29  19  1.723730E+05  1.239153E+06  2.811515E+05  1.298782E+03 -4.667615E+03 -9.420142E+04
        29  20  7.688936E+04  1.237446E+06  2.224919E+05 -7.102729E+03 -5.933068E+03 -3.141613E+04
        29  21  1.521639E+05  1.287800E+06  2.475992E+05  2.680356E+04 -5.963217E+03  3.137211E+04
        29  22  7.454278E+04  8.469792E+05  1.838935E+05  1.561563E+04 -4.670396E+03 -9.376784E+04
        29  23 -2.694681E+04  8.209710E+05  1.193398E+05 -5.534535E+03 -5.933596E+03 -3.128440E+04
        29  24  4.232970E+04  8.470029E+05  1.383805E+05  1.562443E+04 -5.963694E+03  3.119955E+04
        29  25 -2.329821E+04  4.549451E+05  8.662411E+04  2.992347E+04 -4.673159E+03 -9.333452E+04
        29  26 -1.307959E+05  4.046536E+05  1.617475E+04 -3.967325E+03 -5.934123E+03 -3.115276E+04
        29  27 -6.751855E+04  4.063821E+05  2.914748E+04  4.453329E+03 -5.964165E+03  3.102711E+04
        30   1  1.406680E+05  1.430048E+06  2.884431E+05 -7.394352E+03  7.775298E+03 -5.578570E+04
        30   2  7.685684E+04  1.394817E+06  3.360828E+05  2.095245E+03  9.964010E+03 -1.601391E+05
        30   3  4.667198E+05  1.489094E+06  5.655116E+05  6.371104E+04  4.394654E+03 -2.645231E+05
        30   4 -5.682293E+02  8.641585E+05  1.482029E+05  1.736510E+04  7.776842E+03 -5.700096E+04
        30   5 -7.144211E+04  7.994579E+05  1.887813E+05 -8.030515E+03  9.965671E+03 -1.595919E+05
        30   6  3.112793E+05  8.640778E+05  4.100498E+05  1.869913E+04  4.404865E+03 -2.622083E+05
        30   7 -1.418262E+05  2.985605E+05  7.939080E+03  4.210220E+04  7.778290E+03 -5.821509E+04
        30   8 -2.197671E+05  2.044209E+05  4.145355E+04 -1.814629E+04  9.967316E+03 -1.590452E+05
        30   9  1.558174E+05  2.394201E+05  2.545601E+05 -2.626717E+04  4.414753E+03 -2.598957E+05
        30  10  1.406671E+05  1.430045E+06  2.884371E+05 -7.394003E+03 -5.074413E-09  2.995666E-10
        30  11  7.684987E+04  1.394789E+06  3.360345E+05  2.096529E+03 -1.998262E-09  1.465468E-09
        30  12  4.667011E+05  1.489019E+06  5.653804E+05  6.371198E+04 -1.802613E-10 -1.085977E-09
        30  13 -5.691649E+02  8.641550E+05  1.481966E+05  1.736546E+04 -3.602370E-09 -1.164033E-10
        30  14 -7.144904E+04  7.994306E+05  1.887333E+05 -8.029234E+03  2.019464E-09  9.838452E-10
        30  15  3.112609E+05  8.640041E+05  4.099208E+05  1.870006E+04  8.452073E-10 -5.977068E-10
        30  16 -1.418272E+05  2.985568E+05  7.932601E+03  4.210256E+04  5.897075E-10 -1.435547E-09
        30  17 -2.197740E+05  2.043937E+05  4.140585E+04 -1.814501E+04  1.908090E-09 -1.440929E-09
        30  18  1.557993E+05  2.393476E+05  2.544332E+05 -2.626625E+04  6.065703E-10 -5.325232E-10
        30  19  1.406680E+05  1.430048E+06  2.884431E+05 -7.394352E+03 -7.775298E+03  5.578570E+04
        30  20  7.685684E+04  1.394817E+06  3.360828E+05  2.095245E+03 -9.964010E+03  1.601391E+05
        30  21  4.667198E+05  1.489094E+06  5.655116E+05  6.371104E+04 -4.394654E+03  2.645231E+05
        30  22 -5.682293E+02  8.641585E+05  1.482029E+05  1.736510E+04 -7.776842E+03  5.700096E+04
        30  23 -7.144211E+04  7.994579E+05  1.887813E+05 -8.030515E+03 -9.965671E+03  1.595919E+05
        30  24  3.112793E+05  8.640778E+05  4.100498E+05  1.869913E+04 -4.404865E+03  2.622083E+05
        30  25 -1.418262E+05  2.985605E+05  7.939080E+03  4.210220E+04 -7.778290E+03  5.821509E+04
        30  26 -2.197671E+05  2.044209E+05  4.145355E+04 -1.814629E+04 -9.967316E+03  1.590452E+05
        30  27  1.558174E+05  2.394201E+05  2.545601E+05 -2.626717E+04 -4.414753E+03  2.598957E+05
        31   1 -2.878966E+06 -5.481705E+05 -1.776308E+05 -1.042392E+06 -7.854764E+04 -2.816686E+04
        31   2 -2.851615E+06 -4.281575E+05 -1.023549E+05 -1.057587E+06 -5.113743E+04 -1.554255E+04
        31   3 -2.861395E+06 -4.423259E+05 -8.149832E+04 -1.055021E+06 -2.267251E+04 -5.733244E+03
        31   4 -2.687269E+06 -4.638885E+05 -1.224381E+05 -9.782114E+05 -7.786693E+04 -2.791358E+04
        31   5 -2.662650E+06 -3.537953E+05 -4.999679E+04 -1.003206E+06 -5.101564E+04 -1.549732E+04
        31   6 -2.675037E+06 -3.777495E+05 -3.151707E+04 -1.010444E+06 -2.310989E+04 -5.896692E+03
        31   7 -2.495536E+06 -3.796009E+05 -6.724928E+04 -9.140116E+05 -7.718598E+04 -2.766018E+04
        31   8 -2.473651E+06 -2.794303E+05  2.357904E+03 -9.488102E+05 -5.089381E+04 -1.545208E+04
        31   9 -2.488646E+06 -3.131725E+05  1.846116E+04 -9.658561E+05 -2.354741E+04 -6.060185E+03
        31  10 -2.878973E+06 -5.481731E+05 -1.776439E+05 -1.042394E+06  2.247705E-09 -5.427915E-10
        31  11 -2.851618E+06 -4.281585E+05 -1.023603E+05 -1.057588E+06 -2.268510E-09 -1.171814E-09
        31  12 -2.861395E+06 -4.423261E+05 -8.149936E+04 -1.055022E+06  3.867070E-09  9.158482E-10
        31  13 -2.687275E+06 -4.638910E+05 -1.224510E+05 -9.782131E+05  2.169245E-10 -2.889463E-11
        31  14 -2.662653E+06 -3.537962E+05 -5.000216E+04 -1.003207E+06  8.584604E-10  5.481067E-10
        31  15 -2.675037E+06 -3.777497E+05 -3.151814E+04 -1.010445E+06  2.418513E-09  1.660575E-09
        31  16 -2.495542E+06 -3.796034E+05 -6.726197E+04 -9.140134E+05 -1.268582E-10  8.242206E-11
        31  17 -2.473653E+06 -2.794313E+05  2.352563E+03 -9.488108E+05  1.066860E-09 -1.168879E-09
        31  18 -2.488646E+06 -3.131727E+05  1.846005E+04 -9.658562E+05  4.854888E-10  7.531035E-13
        31  19 -2.878966E+06 -5.481705E+05 -1.776308E+05 -1.042392E+06  7.854764E+04  2.816686E+04
        31  20 -2.851615E+06 -4.281575E+05 -1.023549E+05 -1.057587E+06  5.113743E+04  1.554255E+04
        31  21 -2.861395E+06 -4.423259E+05 -8.149832E+04 -1.055021E+06  2.267251E+04  5.733244E+03
        31  22 -2.687269E+06 -4.638885E+05 -1.224381E+05 -9.782114E+05  7.786693E+04  2.791358E+04
        31  23 -2.662650E+06 -3.537953E+05 -4.999679E+04 -1.003206E+06  5.101564E+04  1.549732E+04
        31  24 -2.675037E+06 -3.777495E+05 -3.151707E+04 -1.010444E+06  2.310989E+04  5.896692E+03
        31  25 -2.495536E+06 -3.796009E+05 -6.724928E+04 -9.140116E+05  7.718598E+04  2.766018E+04
        31  26 -2.473651E+06 -2.794303E+05  2.357904E+03 -9.488102E+05  5.089381E+04  1.545208E+04
        31  27 -2.488646E+06 -3.131725E+05  1.846116E+04 -9.658561E+05  2.354741E+04  6.060185E+03
        32   1 -2.785425E+06 -4.391307E+05 -5.809776E+04 -1.037506E+06 -1.811618E+04 -4.816192E+03
        32   2 -2.776945E+06 -4.076669E+05 -3.987256E+04 -1.025884E+06 -1.170873E+04 -2.601051E+03
        32   3 -2.756381E+06 -4.137017E+05 -3.127028E+04 -1.032215E+06 -5.105650E+03 -9.089338E+02
        32   4 -2.669401E+06 -3.937170E+05 -2.596788E+04 -1.004372E+06 -1.809785E+04 -4.809422E+03
        32   5 -2.674559E+06 -3.686669E+05 -1.174166E+04 -9.977525E+05 -1.179461E+04 -2.633186E+03
        32   6 -2.667613E+06 -3.810926E+05 -7.054111E+03 -1.009084E+06 -5.295941E+03 -9.800265E+02
        32   7 -2.553363E+06 -3.483021E+05  6.160804E+03 -9.712334E+05 -1.807952E+04 -4.802651E+03
        32   8 -2.572164E+06 -3.296663E+05  1.638826E+04 -9.696165E+05 -1.188052E+04 -2.665327E+03
        32   9 -2.578839E+06 -3.484833E+05  1.716126E+04 -9.859510E+05 -5.486261E+03 -1.051129E+03
        32  10 -2.785425E+06 -4.391308E+05 -5.809843E+04 -1.037506E+06  3.280473E-09 -2.551595E-10
        32  11 -2.776945E+06 -4.076669E+05 -3.987283E+04 -1.025884E+06 -1.718184E-09 -4.409701E-10
        32  12 -2.756381E+06 -4.137017E+05 -3.127033E+04 -1.032215E+06  1.039463E-09 -8.493303E-10
        32  13 -2.669401E+06 -3.937171E+05 -2.596855E+04 -1.004372E+06 -9.842393E-10  2.031532E-09
        32  14 -2.674559E+06 -3.686669E+05 -1.174193E+04 -9.977525E+05  4.368615E-09 -1.086331E-09
        32  15 -2.667614E+06 -3.810926E+05 -7.054166E+03 -1.009084E+06 -8.742483E-10  1.747834E-10
        32  16 -2.553364E+06 -3.483022E+05  6.160143E+03 -9.712335E+05 -1.332716E-09  4.269634E-10
        32  17 -2.572164E+06 -3.296663E+05  1.638798E+04 -9.696165E+05  2.171554E-09 -1.591527E-09
        32  18 -2.578839E+06 -3.484833E+05  1.716121E+04 -9.859510E+05 -2.044922E-10 -6.202265E-11
        32  19 -2.785425E+06 -4.391307E+05 -5.809776E+04 -1.037506E+06  1.811618E+04  4.816192E+03
        32  20 -2.776945E+06 -4.076669E+05 -3.987256E+04 -1.025884E+06  1.170873E+04  2.601051E+03
        32  21 -2.756381E+06 -4.137017E+05 -3.127028E+04 -1.032215E+06  5.105650E+03  9.089338E+02
        32  22 -2.669401E+06 -3.937170E+05 -2.596788E+04 -1.004372E+06  1.809785E+04  4.809422E+03
        32  23 -2.674559E+06 -3.686669E+05 -1.174166E+04 -9.977525E+05  1.179461E+04  2.633186E+03
        32  24 -2.667613E+06 -3.810926E+05 -7.054111E+03 -1.009084E+06  5.295941E+03  9.800265E+02
        32  25 -2.553363E+06 -3.483021E+05  6.160804E+03 -9.712334E+05  1.807952E+04  4.802651E+03
        32  26 -2.572164E+06 -3.296663E+05  1.638826E+04 -9.696165E+05  1.188052E+04  2.665327E+03
        32  27 -2.578839E+06 -3.484833E+05  1.716126E+04 -9.859510E+05  5.486261E+03  1.051129E+03
        33   1 -2.669672E+06 -3.850936E+05 -6.504358E+03 -1.009594E+06 -3.955384E+03 -1.007389E+03
        33   2 -2.663751E+06 -3.657023E+05  7.739506E+02 -9.931423E+05 -2.295426E+03 -1.064699E+03
        33   3 -2.637187E+06 -3.707901E+05  6.256694E+03 -1.001176E+06 -6.242815E+02 -1.151718E+03
        33   4 -2.666482E+06 -3.836737E+05 -5.639338E+03 -1.008492E+06 -4.072146E+03 -1.051006E+03
        33   5 -2.676675E+06 -3.705241E+05 -2.758579E+03 -9.965888E+05 -2.418169E+03 -1.110555E+03
        33   6 -2.666223E+06 -3.818525E+05 -1.668549E+03 -1.009171E+06 -7.530442E+02 -1.199826E+03
        33   7 -2.663292E+06 -3.822538E+05 -4.774318E+03 -1.007391E+06 -4.188909E+03 -1.094623E+03
        33   8 -2.689598E+06 -3.753460E+05 -6.291133E+03 -1.000035E+06 -2.540910E+03 -1.156409E+03
        33   9 -2.695259E+06 -3.929150E+05 -9.593898E+03 -1.017165E+06 -8.818008E+02 -1.247933E+03
        33  10 -2.669672E+06 -3.850936E+05 -6.504389E+03 -1.009594E+06  6.439175E-10 -1.724723E-10
        33  11 -2.663751E+06 -3.657023E+05  7.739385E+02 -9.931423E+05  1.955199E-10  7.148187E-10
        33  12 -2.637187E+06 -3.707901E+05  6.256690E+03 -1.001176E+06 -5.140670E-09  8.825241E-11
        33  13 -2.666482E+06 -3.836737E+05 -5.639372E+03 -1.008492E+06 -2.514500E-10  6.087236E-11
        33  14 -2.676675E+06 -3.705241E+05 -2.758592E+03 -9.965888E+05  3.346990E-09  7.662580E-12
        33  15 -2.666223E+06 -3.818525E+05 -1.668553E+03 -1.009171E+06 -2.500856E-09  3.610250E-10
        33  16 -2.663292E+06 -3.822538E+05 -4.774354E+03 -1.007391E+06 -3.080920E-09  9.150381E-10
        33  17 -2.689598E+06 -3.753460E+05 -6.291148E+03 -1.000035E+06  1.424434E-09  1.971499E-10
        33  18 -2.695259E+06 -3.929150E+05 -9.593902E+03 -1.017165E+06  5.418584E-10  1.881841E-09
        33  19 -2.669672E+06 -3.850936E+05 -6.504358E+03 -1.009594E+06  3.955384E+03  1.007389E+03
        33  20 -2.663751E+06 -3.657023E+05  7.739506E+02 -9.931423E+05  2.295426E+03  1.064699E+03
        33  21 -2.637187E+06 -3.707901E+05  6.256694E+03 -1.001176E+06  6.242815E+02  1.151718E+03
        33  22 -2.666482E+06 -3.836737E+05 -5.639338E+03 -1.008492E+06  4.072146E+03  1.051006E+03
        33  23 -2.676675E+06 -3.705241E+05 -2.758579E+03 -9.965888E+05  2.418169E+03  1.110555E+03
        33  24 -2.666223E+06 -3.818525E+05 -1.668549E+03 -1.009171E+06  7.530442E+02  1.199826E+03
        33  25 -2.663292E+06 -3.822538E+05 -4.774318E+03 -1.007391E+06  4.188909E+03  1.094623E+03
        33  26 -2.689598E+06 -3.753460E+05 -6.291133E+03 -1.000035E+06  2.540910E+03  1.156409E+03
        33  27 -2.695259E+06 -3.929150E+05 -9.593898E+03 -1.017165E+06  8.818008E+02  1.247933E+03
        34   1 -2.555736E+06 -3.394937E+05  2.916449E+04 -9.780751E+05 -2.104664E+02 -1.455892E+03
        34   2 -2.551224E+06 -3.248200E+05  3.334612E+04 -9.638755E+05  4.090811E+02 -1.930755E+03
        34   3 -2.528466E+06 -3.289591E+05  3.713719E+04 -9.706536E+05  9.593025E+02 -2.219325E+03
        34   4 -2.666868E+06 -3.813530E+05 -1.340883E+03 -1.008110E+06 -3.540248E+02 -1.509554E+03
        34   5 -2.675974E+06 -3.718528E+05 -8.378129E+02 -9.976543E+05  3.029866E+02 -1.970456E+03
        34   6 -2.666841E+06 -3.811730E+05 -7.550533E+02 -1.008176E+06  8.906562E+02 -2.245049E+03
        34   7 -2.777989E+06 -4.232114E+05 -3.184728E+04 -1.038140E+06 -4.975544E+02 -1.563206E+03
        34   8 -2.800708E+06 -4.188846E+05 -3.502310E+04 -1.031427E+06  1.969160E+02 -2.010147E+03
        34   9 -2.805196E+06 -4.333858E+05 -3.864903E+04 -1.045691E+06  8.220268E+02 -2.270767E+03
        34  10 -2.555736E+06 -3.394937E+05  2.916449E+04 -9.780751E+05 -1.794324E-09  5.181058E-10
        34  11 -2.551224E+06 -3.248200E+05  3.334611E+04 -9.638755E+05  1.152702E-09 -1.741226E-10
        34  12 -2.528466E+06 -3.289592E+05  3.713718E+04 -9.706536E+05 -1.539804E-10  1.226210E-10
        34  13 -2.666868E+06 -3.813530E+05 -1.340888E+03 -1.008110E+06 -5.161815E-10  2.338257E-10
        34  14 -2.675974E+06 -3.718528E+05 -8.378203E+02 -9.976543E+05 -1.275479E-09  1.024465E-09
        34  15 -2.666841E+06 -3.811730E+05 -7.550643E+02 -1.008176E+06 -5.476143E-10  1.102900E-09
        34  16 -2.777989E+06 -4.232114E+05 -3.184729E+04 -1.038140E+06 -3.225181E-09  8.038237E-10
        34  17 -2.800708E+06 -4.188846E+05 -3.502310E+04 -1.031427E+06 -2.664991E-09 -5.620713E-10
        34  18 -2.805196E+06 -4.333858E+05 -3.864904E+04 -1.045691E+06 -1.896757E-09 -1.101786E-09
        34  19 -2.555736E+06 -3.394937E+05  2.916449E+04 -9.780751E+05  2.104664E+02  1.455892E+03
        34  20 -2.551224E+06 -3.248200E+05  3.334612E+04 -9.638755E+05 -4.090811E+02  1.930755E+03
        34  21 -2.528466E+06 -3.289591E+05  3.713719E+04 -9.706536E+05 -9.593025E+02  2.219325E+03
        34  22 -2.666868E+06 -3.813530E+05 -1.340883E+03 -1.008110E+06  3.540248E+02  1.509554E+03
        34  23 -2.675974E+06 -3.718528E+05 -8.378129E+02 -9.976543E+05 -3.029866E+02  1.970456E+03
        34  24 -2.666841E+06 -3.811730E+05 -7.550533E+02 -1.008176E+06 -8.906562E+02  2.245049E+03
        34  25 -2.777989E+06 -4.232114E+05 -3.184728E+04 -1.038140E+06  4.975544E+02  1.563206E+03
        34  26 -2.800708E+06 -4.188846E+05 -3.502310E+04 -1.031427E+06 -1.969160E+02  2.010147E+03
        34  27 -2.805196E+06 -4.333858E+05 -3.864903E+04 -1.045691E+06 -8.220268E+02  2.270767E+03
        35   1 -2.471966E+06 -3.051120E+05  5.316613E+04 -9.527963E+05  1.243578E+03 -2.434706E+03
        35   2 -2.469612E+06 -2.970659E+05  5.487080E+04 -9.449226E+05  1.894076E+03 -2.704318E+03
        35   3 -2.457118E+06 -2.996842E+05  5.612704E+04 -9.484107E+05  2.425077E+03 -2.654189E+03
        35   4 -2.668639E+06 -3.792896E+05 -7.786278E+02 -1.006070E+06  1.120630E+03 -2.480794E+03
        35   5 -2.673729E+06 -3.741400E+05 -1.082269E+03 -1.000318E+06  1.835403E+03 -2.726384E+03
        35   6 -2.668691E+06 -3.796683E+05 -1.885602E+03 -1.005928E+06  2.430655E+03 -2.652182E+03
        35   7 -2.865275E+06 -4.534651E+05 -5.472698E+04 -1.059329E+06  9.977249E+02 -2.526866E+03
        35   8 -2.877806E+06 -4.512119E+05 -5.703918E+04 -1.055697E+06  1.776752E+03 -2.748441E+03
        35   9 -2.880222E+06 -4.596498E+05 -5.990233E+04 -1.063427E+06  2.436230E+03 -2.650176E+03
        35  10 -2.471966E+06 -3.051120E+05  5.316611E+04 -9.527963E+05 -1.393804E-10  5.732872E-10
        35  11 -2.469612E+06 -2.970659E+05  5.487078E+04 -9.449226E+05 -9.910677E-10 -7.850928E-10
        35  12 -2.457118E+06 -2.996842E+05  5.612701E+04 -9.484107E+05  3.384533E-10 -8.069338E-11
        35  13 -2.668639E+06 -3.792896E+05 -7.786417E+02 -1.006070E+06 -4.742423E-09 -9.957423E-10
        35  14 -2.673729E+06 -3.741401E+05 -1.082289E+03 -1.000318E+06 -1.201753E-09  9.201689E-10
        35  15 -2.668691E+06 -3.796683E+05 -1.885626E+03 -1.005928E+06  1.496178E-10 -2.927698E-10
        35  16 -2.865275E+06 -4.534651E+05 -5.472699E+04 -1.059329E+06  1.031025E-09 -3.860916E-10
        35  17 -2.877806E+06 -4.512119E+05 -5.703920E+04 -1.055697E+06  3.068028E-09 -3.892625E-10
        35  18 -2.880222E+06 -4.596498E+05 -5.990235E+04 -1.063427E+06  1.421566E-10 -9.953255E-10
        35  19 -2.471966E+06 -3.051120E+05  5.316613E+04 -9.527963E+05 -1.243578E+03  2.434706E+03
        35  20 -2.469612E+06 -2.970659E+05  5.487080E+04 -9.449226E+05 -1.894076E+03  2.704318E+03
        35  21 -2.457118E+06 -2.996842E+05  5.612704E+04 -9.484107E+05 -2.425077E+03  2.654189E+03
        35  22 -2.668639E+06 -3.792896E+05 -7.786278E+02 -1.006070E+06 -1.120630E+03  2.480794E+03
        35  23 -2.673729E+06 -3.741400E+05 -1.082269E+03 -1.000318E+06 -1.835403E+03  2.726384E+03
        35  24 -2.668691E+06 -3.796683E+05 -1.885602E+03 -1.005928E+06 -2.430655E+03  2.652182E+03
        35  25 -2.865275E+06 -4.534651E+05 -5.472698E+04 -1.059329E+06 -9.977249E+02  2.526866E+03
        35  26 -2.877806E+06 -4.512119E+05 -5.703918E+04 -1.055697E+06 -1.776752E+03  2.748441E+03
        35  27 -2.880222E+06 -4.596498E+05 -5.990233E+04 -1.063427E+06 -2.436230E+03  2.650176E+03
        36   1 -2.440495E+06 -2.897749E+05  6.088354E+04 -9.408919E+05  2.883547E+03 -2.588861E+03
        36   2 -2.440454E+06 -2.895987E+05  5.900285E+04 -9.412504E+05  4.971020E+03 -1.983760E+03
        36   3 -2.442518E+06 -2.924241E+05  5.465125E+04 -9.396405E+05  6.918246E+03 -1.005528E+03
        36   4 -2.671251E+06 -3.768023E+05 -2.373832E+03 -1.003403E+06  2.813989E+03 -2.615065E+03
        36   5 -2.670385E+06 -3.766430E+05 -4.069671E+03 -1.003882E+06  4.975934E+03 -1.982014E+03
        36   6 -2.671639E+06 -3.795009E+05 -8.296355E+03 -1.002391E+06  6.997612E+03 -9.757657E+02
        36   7 -2.901956E+06 -4.638266E+05 -6.563599E+04 -1.065894E+06  2.744460E+03 -2.641259E+03
        36   8 -2.900265E+06 -4.636843E+05 -6.714702E+04 -1.066492E+06  4.980845E+03 -1.980269E+03
        36   9 -2.900710E+06 -4.665748E+05 -7.124885E+04 -1.065121E+06  7.076944E+03 -9.460162E+02
        36  10 -2.440495E+06 -2.897749E+05  6.088351E+04 -9.408919E+05  1.303431E-09  1.623921E-10
        36  11 -2.440454E+06 -2.895987E+05  5.900280E+04 -9.412504E+05  8.341459E-10 -1.505046E-09
        36  12 -2.442518E+06 -2.924241E+05  5.465116E+04 -9.396405E+05  1.347021E-09 -1.147037E-09
        36  13 -2.671251E+06 -3.768023E+05 -2.373860E+03 -1.003403E+06 -1.968046E-09  3.917808E-10
        36  14 -2.670385E+06 -3.766430E+05 -4.069725E+03 -1.003882E+06 -1.842862E-09  1.225058E-09
        36  15 -2.671639E+06 -3.795009E+05 -8.296449E+03 -1.002391E+06  2.282519E-10 -7.327465E-10
        36  16 -2.901956E+06 -4.638266E+05 -6.563601E+04 -1.065894E+06  9.551825E-10 -4.058623E-10
        36  17 -2.900265E+06 -4.636843E+05 -6.714708E+04 -1.066492E+06  5.439303E-09  1.984683E-09
        36  18 -2.900710E+06 -4.665748E+05 -7.124894E+04 -1.065121E+06  7.856421E-10  3.244990E-10
        36  19 -2.440495E+06 -2.897749E+05  6.088354E+04 -9.408919E+05 -2.883547E+03  2.588861E+03
        36  20 -2.440454E+06 -2.895987E+05  5.900285E+04 -9.412504E+05 -4.971020E+03  1.983760E+03
        36  21 -2.442518E+06 -2.924241E+05  5.465125E+04 -9.396405E+05 -6.918246E+03  1.005528E+03
        36  22 -2.671251E+06 -3.768023E+05 -2.373832E+03 -1.003403E+06 -2.813989E+03  2.615065E+03
        36  23 -2.670385E+06 -3.766430E+05 -4.069671E+03 -1.003882E+06 -4.975934E+03  1.982014E+03
        36  24 -2.671639E+06 -3.795009E+05 -8.296355E+03 -1.002391E+06 -6.997612E+03  9.757657E+02
        36  25 -2.901956E+06 -4.638266E+05 -6.563599E+04 -1.065894E+06 -2.744460E+03  2.641259E+03
        36  26 -2.900265E+06 -4.636843E+05 -6.714702E+04 -1.066492E+06 -4.980845E+03  1.980269E+03
        36  27 -2.900710E+06 -4.665748E+05 -7.124885E+04 -1.065121E+06 -7.076944E+03  9.460162E+02
        37   1 -2.469815E+06 -2.976438E+05  4.561951E+04 -9.468035E+05  8.507673E+03 -2.837455E+02
        37   2 -2.469864E+06 -3.013505E+05  3.632800E+04 -9.540462E+05  1.758661E+04  3.333813E+03
        37   3 -2.492352E+06 -3.198827E+05  1.304233E+04 -9.413096E+05  2.651337E+04  7.353538E+03
        37   4 -2.675004E+06 -3.740754E+05 -1.041119E+04 -1.001419E+06  8.500591E+03 -2.864736E+02
        37   5 -2.665114E+06 -3.759361E+05 -1.736420E+04 -1.007916E+06  1.765783E+04  3.360556E+03
        37   6 -2.677682E+06 -3.926429E+05 -3.837692E+04 -9.944322E+05  2.666301E+04  7.409800E+03
        37   7 -2.880153E+06 -4.505050E+05 -6.644570E+04 -1.056019E+06  8.493510E+03 -2.892010E+02
        37   8 -2.860328E+06 -4.505194E+05 -7.105985E+04 -1.061770E+06  1.772901E+04  3.387289E+03
        37   9 -2.862979E+06 -4.654004E+05 -8.979931E+04 -1.047540E+06  2.681260E+04  7.466042E+03
        37  10 -2.469815E+06 -2.976439E+05  4.561937E+04 -9.468035E+05  2.103762E-09  2.016185E-10
        37  11 -2.469864E+06 -3.013506E+05  3.632739E+04 -9.540463E+05 -4.168186E-09  3.715689E-09
        37  12 -2.492352E+06 -3.198830E+05  1.304090E+04 -9.413097E+05  1.027697E-09  3.547086E-10
        37  13 -2.675004E+06 -3.740755E+05 -1.041133E+04 -1.001419E+06  2.550354E-09 -1.336850E-09
        37  14 -2.665115E+06 -3.759362E+05 -1.736481E+04 -1.007916E+06 -2.614636E-09  3.278527E-10
        37  15 -2.677683E+06 -3.926432E+05 -3.837837E+04 -9.944324E+05  3.035912E-10 -2.291822E-11
        37  16 -2.880153E+06 -4.505050E+05 -6.644584E+04 -1.056019E+06  2.215030E-09 -5.943793E-10
        37  17 -2.860328E+06 -4.505195E+05 -7.106047E+04 -1.061770E+06 -1.541818E-10  1.016801E-09
        37  18 -2.862980E+06 -4.654006E+05 -8.980078E+04 -1.047540E+06 -2.332655E-09 -1.696031E-09
        37  19 -2.469815E+06 -2.976438E+05  4.561951E+04 -9.468035E+05 -8.507673E+03  2.837455E+02
        37  20 -2.469864E+06 -3.013505E+05  3.632800E+04 -9.540462E+05 -1.758661E+04 -3.333813E+03
        37  21 -2.492352E+06 -3.198827E+05  1.304233E+04 -9.413096E+05 -2.651337E+04 -7.353538E+03
        37  22 -2.675004E+06 -3.740754E+05 -1.041119E+04 -1.001419E+06 -8.500591E+03  2.864736E+02
        37  23 -2.665114E+06 -3.759361E+05 -1.736420E+04 -1.007916E+06 -1.765783E+04 -3.360556E+03
        37  24 -2.677682E+06 -3.926429E+05 -3.837692E+04 -9.944322E+05 -2.666301E+04 -7.409800E+03
        37  25 -2.880153E+06 -4.505050E+05 -6.644570E+04 -1.056019E+06 -8.493510E+03  2.892010E+02
        37  26 -2.860328E+06 -4.505194E+05 -7.105985E+04 -1.061770E+06 -1.772901E+04 -3.387289E+03
        37  27 -2.862979E+06 -4.654004E+05 -8.979931E+04 -1.047540E+06 -2.681260E+04 -7.466042E+03
        38   1 -2.554567E+06 -3.288123E+05 -1.246394E+04 -9.773528E+05  3.361029E+04  1.026967E+04
        38   2 -2.541163E+06 -3.078925E+05 -4.362352E+04 -9.810271E+05  7.409831E+04  2.602532E+04
        38   3 -2.620365E+06 -4.476846E+05 -1.545269E+05 -9.156776E+05  1.142750E+05  4.260471E+04
        38   4 -2.685355E+06 -3.698730E+05 -4.662079E+04 -1.004350E+06  3.360646E+04  1.026876E+04
        38   5 -2.648195E+06 -3.530326E+05 -7.389247E+04 -1.014902E+06  7.425359E+04  2.608325E+04
        38   6 -2.703685E+06 -4.969546E+05 -1.810443E+05 -9.564267E+05  1.145911E+05  4.272004E+04
        38   7 -2.816127E+06 -4.109339E+05 -8.077906E+04 -1.031342E+06  3.360264E+04  1.026785E+04
        38   8 -2.755216E+06 -3.981713E+05 -1.041625E+05 -1.048772E+06  7.440883E+04  2.614117E+04
        38   9 -2.786996E+06 -5.462204E+05 -2.075623E+05 -9.971699E+05  1.149071E+05  4.283532E+04
        38  10 -2.554568E+06 -3.288127E+05 -1.246627E+04 -9.773531E+05  1.256936E-09  4.308695E-11
        38  11 -2.541169E+06 -3.078948E+05 -4.363516E+04 -9.810286E+05 -1.368664E-09  2.808373E-09
        38  12 -2.620380E+06 -4.476901E+05 -1.545550E+05 -9.156815E+05  5.572957E-10  1.157432E-09
        38  13 -2.685356E+06 -3.698734E+05 -4.662313E+04 -1.004350E+06  8.982581E-10 -1.895536E-09
        38  14 -2.648201E+06 -3.530349E+05 -7.390417E+04 -1.014904E+06  1.534391E-09 -7.677136E-10
        38  15 -2.703699E+06 -4.969601E+05 -1.810725E+05 -9.564307E+05  1.389932E-09  1.644055E-09
        38  16 -2.816128E+06 -4.109343E+05 -8.078139E+04 -1.031343E+06 -3.325849E-09 -7.878028E-10
        38  17 -2.755222E+06 -3.981736E+05 -1.041743E+05 -1.048774E+06 -1.451557E-09  5.021377E-10
        38  18 -2.787011E+06 -5.462260E+05 -2.075907E+05 -9.971739E+05 -1.396366E-09  5.469302E-10
        38  19 -2.554567E+06 -3.288123E+05 -1.246394E+04 -9.773528E+05 -3.361029E+04 -1.026967E+04
        38  20 -2.541163E+06 -3.078925E+05 -4.362352E+04 -9.810271E+05 -7.409831E+04 -2.602532E+04
        38  21 -2.620365E+06 -4.476846E+05 -1.545269E+05 -9.156776E+05 -1.142750E+05 -4.260471E+04
        38  22 -2.685355E+06 -3.698730E+05 -4.662079E+04 -1.004350E+06 -3.360646E+04 -1.026876E+04
        38  23 -2.648195E+06 -3.530326E+05 -7.389247E+04 -1.014902E+06 -7.425359E+04 -2.608325E+04
        38  24 -2.703685E+06 -4.969546E+05 -1.810443E+05 -9.564267E+05 -1.145911E+05 -4.272004E+04
        38  25 -2.816127E+06 -4.109339E+05 -8.077906E+04 -1.031342E+06 -3.360264E+04 -1.026785E+04
        38  26 -2.755216E+06 -3.981713E+05 -1.041625E+05 -1.048772E+06 -7.440883E+04 -2.614117E+04
        38  27 -2.786996E+06 -5.462204E+05 -2.075623E+05 -9.971699E+05 -1.149071E+05 -4.283532E+04
        39   1 -1.052769E+06  1.360376E+05  1.768619E+05  2.007805E+04  1.206262E+05  3.907542E+00
        39   2 -1.079415E+06 -3.007737E+04  7.574459E+04  5.192576E+03  7.930906E+04  6.644407E-01
        39   3 -1.052852E+06 -5.001745E+03  4.936603E+04 -9.692349E+03  3.799138E+04 -5.940826E-01
        39   4 -1.052770E+06  1.360368E+05  1.768617E+05  2.654750E-08  1.206262E+05 -3.112823E-10
        39   5 -1.079415E+06 -3.007742E+04  7.574459E+04 -2.826056E-08  7.930906E+04  9.581020E-10
        39   6 -1.052852E+06 -5.001922E+03  4.936600E+04 -3.031160E-08  3.799138E+04 -2.448443E-10
        39   7 -1.052769E+06  1.360376E+05  1.768619E+05 -2.007805E+04  1.206262E+05 -3.907542E+00
        39   8 -1.079415E+06 -3.007737E+04  7.574459E+04 -5.192576E+03  7.930906E+04 -6.644407E-01
        39   9 -1.052852E+06 -5.001745E+03  4.936603E+04  9.692349E+03  3.799138E+04  5.940826E-01
        39  10 -1.052785E+06  1.360337E+05  1.768345E+05  2.007805E+04 -2.369897E-10  2.659089E-10
        39  11 -1.079422E+06 -3.007906E+04  7.573275E+04  5.192576E+03 -2.666766E-10  6.057838E-10
        39  12 -1.052853E+06 -5.002133E+03  4.936331E+04 -9.692349E+03  3.386548E-11 -5.016077E-10
        39  13 -1.052785E+06  1.360329E+05  1.768344E+05  4.377457E-08  2.191621E-26  2.421254E-10
        39  14 -1.079422E+06 -3.007911E+04  7.573275E+04 -2.826377E-08  2.743473E-09  5.472436E-10
        39  15 -1.052853E+06 -5.002310E+03  4.936329E+04 -4.863402E-08  8.164539E-10 -1.095494E-10
        39  16 -1.052785E+06  1.360337E+05  1.768345E+05 -2.007805E+04  2.285761E-10  6.816773E-10
        39  17 -1.079422E+06 -3.007906E+04  7.573275E+04 -5.192576E+03  2.324282E-09  2.892738E-10
        39  18 -1.052853E+06 -5.002133E+03  4.936331E+04  9.692349E+03  1.245259E-09 -2.320333E-10
        39  19 -1.052769E+06  1.360376E+05  1.768619E+05  2.007805E+04 -1.206262E+05 -3.907542E+00
        39  20 -1.079415E+06 -3.007737E+04  7.574459E+04  5.192576E+03 -7.930906E+04 -6.644407E-01
        39  21 -1.052852E+06 -5.001745E+03  4.936603E+04 -9.692349E+03 -3.799138E+04  5.940826E-01
        39  22 -1.052770E+06  1.360368E+05  1.768617E+05  2.656057E-08 -1.206262E+05  9.214290E-10
        39  23 -1.079415E+06 -3.007742E+04  7.574459E+04 -2.826642E-08 -7.930906E+04  3.075230E-10
        39  24 -1.052852E+06 -5.001922E+03  4.936600E+04  3.026549E-09 -3.799138E+04 -1.452672E-10
        39  25 -1.052769E+06  1.360376E+05  1.768619E+05 -2.007805E+04 -1.206262E+05  3.907542E+00
        39  26 -1.079415E+06 -3.007737E+04  7.574459E+04 -5.192576E+03 -7.930906E+04  6.644407E-01
        39  27 -1.052852E+06 -5.001745E+03  4.936603E+04  9.692349E+03 -3.799138E+04 -5.940826E-01
        40   1 -1.062816E+06  1.973427E+04  4.077462E+04  2.764125E+03  2.990093E+04  1.333467E-01
        40   2 -1.066966E+06 -4.377452E+03  1.962073E+04  6.610629E+02  1.964356E+04  2.095097E-02
        40   3 -1.062830E+06 -7.092096E+02  1.209876E+04 -1.441967E+03  9.386392E+03 -2.183697E-02
        40   4 -1.062816E+06  1.973426E+04  4.077462E+04  1.987208E-08  2.990093E+04 -3.241139E-10
        40   5 -1.066966E+06 -4.377453E+03  1.962073E+04  2.954774E-08  1.964356E+04 -3.569061E-10
        40   6 -1.062830E+06 -7.092135E+02  1.209876E+04 -3.832351E-09  9.386392E+03 -2.791907E-10
        40   7 -1.062816E+06  1.973427E+04  4.077462E+04 -2.764125E+03  2.990093E+04 -1.333467E-01
        40   8 -1.066966E+06 -4.377452E+03  1.962073E+04 -6.610629E+02  1.964356E+04 -2.095097E-02
        40   9 -1.062830E+06 -7.092096E+02  1.209876E+04  1.441967E+03  9.386392E+03  2.183697E-02
        40  10 -1.062817E+06  1.973403E+04  4.077293E+04  2.764125E+03 -1.004552E-10 -5.820890E-10
        40  11 -1.066966E+06 -4.377556E+03  1.962000E+04  6.610629E+02 -8.405813E-10  6.131661E-10
        40  12 -1.062830E+06 -7.092333E+02  1.209860E+04 -1.441967E+03 -2.366158E-09 -5.701394E-10
        40  13 -1.062817E+06  1.973402E+04  4.077293E+04 -5.962370E-09 -1.681345E-11 -2.662642E-10
        40  14 -1.066966E+06 -4.377557E+03  1.962000E+04  5.538451E-08  3.433741E-26  3.429731E-10
        40  15 -1.062830E+06 -7.092372E+02  1.209860E+04  1.338441E-08 -5.152001E-10 -1.349563E-10
        40  16 -1.062817E+06  1.973403E+04  4.077293E+04 -2.764125E+03 -5.177064E-10 -1.829161E-11
        40  17 -1.066966E+06 -4.377556E+03  1.962000E+04 -6.610629E+02 -1.392461E-10 -1.534655E-10
        40  18 -1.062830E+06 -7.092333E+02  1.209860E+04  1.441967E+03  1.592939E-09  3.330991E-10
        40  19 -1.062816E+06  1.973427E+04  4.077462E+04  2.764125E+03 -2.990093E+04 -1.333467E-01
        40  20 -1.066966E+06 -4.377452E+03  1.962073E+04  6.610629E+02 -1.964356E+04 -2.095097E-02
        40  21 -1.062830E+06 -7.092096E+02  1.209876E+04 -1.441967E+03 -9.386392E+03  2.183697E-02
        40  22 -1.062816E+06  1.973426E+04  4.077462E+04  2.659713E-09 -2.990093E+04 -4.787424E-11
        40  23 -1.066966E+06 -4.377453E+03  1.962073E+04  2.954773E-08 -1.964356E+04  1.007802E-09
        40  24 -1.062830E+06 -7.092135E+02  1.209876E+04  4.782423E-08 -9.386392E+03  1.540380E-10
        40  25 -1.062816E+06  1.973427E+04  4.077462E+04 -2.764125E+03 -2.990093E+04  1.333467E-01
        40  26 -1.066966E+06 -4.377452E+03  1.962073E+04 -6.610629E+02 -1.964356E+04  2.095097E-02
        40  27 -1.062830E+06 -7.092096E+02  1.209876E+04  1.441967E+03 -9.386392E+03 -2.183697E-02
        41   1 -1.064373E+06  2.844985E+03  9.643208E+03  3.609415E+02  7.428218E+03  4.325744E-03
        41   2 -1.065041E+06 -6.338704E+02  4.957083E+03  7.201880E+01  4.898531E+03  5.691831E-04
        41   3 -1.064376E+06 -1.013933E+02  2.922914E+03 -2.169085E+02  2.368814E+03 -8.289853E-04
        41   4 -1.064373E+06  2.844985E+03  9.643208E+03  9.759564E-09  7.428218E+03  1.734059E-10
        41   5 -1.065041E+06 -6.338704E+02  4.957083E+03  2.554170E-08  4.898531E+03  8.753817E-10
        41   6 -1.064376E+06 -1.013934E+02  2.922914E+03  6.931607E-08  2.368814E+03 -4.516666E-10
        41   7 -1.064373E+06  2.844985E+03  9.643208E+03 -3.609415E+02  7.428218E+03 -4.325744E-03
        41   8 -1.065041E+06 -6.338704E+02  4.957083E+03 -7.201880E+01  4.898531E+03 -5.691827E-04
        41   9 -1.064376E+06 -1.013933E+02  2.922914E+03  2.169085E+02  2.368814E+03  8.289844E-04
        41  10 -1.064373E+06  2.844970E+03  9.643105E+03  3.609415E+02  1.140178E-10 -8.023451E-10
        41  11 -1.065041E+06 -6.338769E+02  4.957038E+03  7.201880E+01 -5.218453E-10  6.437987E-10
        41  12 -1.064376E+06 -1.013948E+02  2.922904E+03 -2.169085E+02  3.311047E-10 -2.553256E-10
        41  13 -1.064373E+06  2.844970E+03  9.643104E+03  9.775851E-09 -2.119412E-09 -5.098290E-11
        41  14 -1.065041E+06 -6.338769E+02  4.957038E+03 -1.751946E-08 -2.345692E-09  4.849049E-10
        41  15 -1.064376E+06 -1.013949E+02  2.922904E+03 -1.036439E-08  1.232500E-09 -2.097361E-10
        41  16 -1.064373E+06  2.844970E+03  9.643105E+03 -3.609415E+02  2.189737E-10  4.324264E-10
        41  17 -1.065041E+06 -6.338769E+02  4.957038E+03 -7.201880E+01  2.586956E-09  4.930668E-10
        41  18 -1.064376E+06 -1.013948E+02  2.922904E+03  2.169085E+02 -2.478994E-09 -1.394937E-10
        41  19 -1.064373E+06  2.844985E+03  9.643208E+03  3.609415E+02 -7.428218E+03 -4.325745E-03
        41  20 -1.065041E+06 -6.338704E+02  4.957083E+03  7.201880E+01 -4.898531E+03 -5.691809E-04
        41  21 -1.064376E+06 -1.013933E+02  2.922914E+03 -2.169085E+02 -2.368814E+03  8.289850E-04
        41  22 -1.064373E+06  2.844985E+03  9.643208E+03  6.146806E-08 -7.428218E+03 -3.924201E-10
        41  23 -1.065041E+06 -6.338704E+02  4.957083E+03  2.554196E-08 -4.898531E+03  6.801967E-11
        41  24 -1.064376E+06 -1.013934E+02  2.922914E+03  2.406242E-08 -2.368814E+03  5.452889E-11
        41  25 -1.064373E+06  2.844985E+03  9.643208E+03 -3.609415E+02 -7.428218E+03  4.325744E-03
        41  26 -1.065041E+06 -6.338704E+02  4.957083E+03 -7.201880E+01 -4.898531E+03  5.691820E-04
        41  27 -1.064376E+06 -1.013933E+02  2.922914E+03  2.169085E+02 -2.368814E+03 -8.289849E-04
        42   1 -1.064625E+06  4.063677E+02  2.248855E+03  3.982181E+01  1.902087E+03  1.222052E-04
        42   2 -1.064730E+06 -8.555733E+01  1.115062E+03  4.110726E+00  1.340513E+03  8.891219E-06
        42   3 -1.064626E+06 -3.841421E+01  4.821177E+02 -3.160037E+01  7.789406E+02 -3.971243E-05
        42   4 -1.064625E+06  4.063677E+02  2.248855E+03  8.869255E-08  1.902087E+03 -5.516761E-10
        42   5 -1.064730E+06 -8.555733E+01  1.115062E+03  4.393423E-08  1.340513E+03  5.431684E-10
        42   6 -1.064626E+06 -3.841421E+01  4.821177E+02  1.532332E-08  7.789406E+02  4.675216E-10
        42   7 -1.064625E+06  4.063677E+02  2.248855E+03 -3.982181E+01  1.902087E+03 -1.222059E-04
        42   8 -1.064730E+06 -8.555733E+01  1.115062E+03 -4.110726E+00  1.340513E+03 -8.890991E-06
        42   9 -1.064626E+06 -3.841421E+01  4.821177E+02  3.160037E+01  7.789406E+02  3.971371E-05
        42  10 -1.064625E+06  4.063668E+02  2.248848E+03  3.982181E+01  1.599525E-09 -6.361566E-10
        42  11 -1.064730E+06 -8.555781E+01  1.115059E+03  4.110726E+00 -6.759498E-10 -1.478260E-10
        42  12 -1.064626E+06 -3.841437E+01  4.821165E+02 -3.160037E+01 -3.673029E-09  7.626386E-11
        42  13 -1.064625E+06  4.063668E+02  2.248848E+03  1.118713E-08  2.521180E-09 -4.362249E-10
        42  14 -1.064730E+06 -8.555781E+01  1.115059E+03  5.254895E-08  8.840305E-10 -1.823889E-11
        42  15 -1.064626E+06 -3.841438E+01  4.821165E+02  2.501613E-08 -3.152892E-09  1.688963E-10
        42  16 -1.064625E+06  4.063668E+02  2.248848E+03 -3.982181E+01 -1.791573E-09 -3.710672E-10
        42  17 -1.064730E+06 -8.555781E+01  1.115059E+03 -4.110726E+00 -8.271863E-10 -1.580718E-10
        42  18 -1.064626E+06 -3.841437E+01  4.821165E+02  3.160037E+01  6.672959E-11  2.871832E-10
        42  19 -1.064625E+06  4.063677E+02  2.248855E+03  3.982181E+01 -1.902087E+03 -1.222055E-04
        42  20 -1.064730E+06 -8.555733E+01  1.115062E+03  4.110727E+00 -1.340513E+03 -8.890844E-06
        42  21 -1.064626E+06 -3.841421E+01  4.821177E+02 -3.160037E+01 -7.789406E+02  3.971304E-05
        42  22 -1.064625E+06  4.063677E+02  2.248855E+03  3.702026E-08 -1.902087E+03 -2.691336E-10
        42  23 -1.064730E+06 -8.555733E+01  1.115062E+03  1.810373E-08 -1.340513E+03 -5.436340E-10
        42  24 -1.064626E+06 -3.841421E+01  4.821177E+02  4.009045E-08 -7.789406E+02 -1.594775E-10
        42  25 -1.064625E+06  4.063677E+02  2.248855E+03 -3.982181E+01 -1.902087E+03  1.222049E-04
        42  26 -1.064730E+06 -8.555733E+01  1.115062E+03 -4.110726E+00 -1.340513E+03  8.889457E-06
        42  27 -1.064626E+06 -3.841421E+01  4.821177E+02  3.160037E+01 -7.789406E+02 -3.971366E-05
        43   1 -1.064686E+06  6.253069E+01  2.367359E+02 -1.140701E+01  7.139785E+02 -1.313988E-05
        43   2 -1.064655E+06  2.809493E+01 -2.507218E+02  1.170209E+00  8.414112E+02  1.589062E-06
        43   3 -1.064686E+06 -1.839675E+02 -8.656604E+02  1.374725E+01  9.688418E+02  2.148869E-05
        43   4 -1.064686E+06  6.253069E+01  2.367359E+02  1.801737E-08  7.139785E+02  2.508087E-10
        43   5 -1.064655E+06  2.809493E+01 -2.507218E+02 -3.445640E-09  8.414112E+02  2.319025E-10
        43   6 -1.064686E+06 -1.839675E+02 -8.656604E+02 -4.105398E-08  9.688418E+02 -6.011189E-10
        43   7 -1.064686E+06  6.253069E+01  2.367359E+02  1.140701E+01  7.139785E+02  1.314017E-05
        43   8 -1.064655E+06  2.809493E+01 -2.507218E+02 -1.170209E+00  8.414112E+02 -1.589204E-06
        43   9 -1.064686E+06 -1.839675E+02 -8.656604E+02 -1.374725E+01  9.688418E+02 -2.148935E-05
        43  10 -1.064686E+06  6.253055E+01  2.367349E+02 -1.140701E+01 -2.176507E-09  5.534006E-10
        43  11 -1.064655E+06  2.809474E+01 -2.507232E+02  1.170209E+00 -9.192523E-10  2.415925E-10
        43  12 -1.064686E+06 -1.839678E+02 -8.656622E+02  1.374725E+01 -5.103379E-10 -5.675477E-10
        43  13 -1.064686E+06  6.253055E+01  2.367349E+02  7.944946E-10 -1.717734E-09  2.326211E-10
        43  14 -1.064655E+06  2.809474E+01 -2.507232E+02  6.544694E-08 -3.938014E-09  2.524447E-10
        43  15 -1.064686E+06 -1.839678E+02 -8.656622E+02 -2.491628E-08  1.003874E-09 -3.349732E-10
        43  16 -1.064686E+06  6.253055E+01  2.367349E+02  1.140701E+01 -1.645930E-09  2.487181E-10
        43  17 -1.064655E+06  2.809474E+01 -2.507232E+02 -1.170209E+00  1.380804E-09  3.986409E-10
        43  18 -1.064686E+06 -1.839678E+02 -8.656622E+02 -1.374725E+01 -1.441720E-09 -6.404050E-10
        43  19 -1.064686E+06  6.253069E+01  2.367359E+02 -1.140701E+01 -7.139785E+02  1.314027E-05
        43  20 -1.064655E+06  2.809493E+01 -2.507218E+02  1.170209E+00 -8.414112E+02 -1.587538E-06
        43  21 -1.064686E+06 -1.839675E+02 -8.656604E+02  1.374725E+01 -9.688418E+02 -2.148922E-05
        43  22 -1.064686E+06  6.253069E+01  2.367359E+02  3.524420E-08 -7.139785E+02  3.117139E-10
        43  23 -1.064655E+06  2.809493E+01 -2.507218E+02  4.822038E-08 -8.414112E+02  3.171271E-10
        43  24 -1.064686E+06 -1.839675E+02 -8.656604E+02 -9.854826E-09 -9.688418E+02 -3.020002E-11
        43  25 -1.064686E+06  6.253069E+01  2.367359E+02  1.140701E+01 -7.139785E+02 -1.313968E-05
        43  26 -1.064655E+06  2.809493E+01 -2.507218E+02 -1.170209E+00 -8.414112E+02  1.588175E-06
        43  27 -1.064686E+06 -1.839675E+02 -8.656604E+02 -1.374725E+01 -9.688418E+02  2.148845E-05
        44   1 -1.064804E+06  5.169897E+01 -1.203091E+03 -9.765857E+01  1.155501E+03 -1.820625E-04
        44   2 -1.064508E+06  2.836042E+02 -2.166744E+03  3.198919E+01  2.262096E+03  1.167492E-04
        44   3 -1.064806E+06 -1.279509E+03 -4.300504E+03  1.616389E+02  3.368708E+03  8.785145E-04
        44   4 -1.064804E+06  5.169895E+01 -1.203091E+03  1.258785E-08  1.155501E+03 -4.700324E-10
        44   5 -1.064508E+06  2.836042E+02 -2.166744E+03 -3.048401E-08  2.262096E+03  1.321092E-10
        44   6 -1.064806E+06 -1.279509E+03 -4.300504E+03  2.225648E-08  3.368708E+03  5.208605E-10
        44   7 -1.064804E+06  5.169897E+01 -1.203091E+03  9.765857E+01  1.155501E+03  1.820616E-04
        44   8 -1.064508E+06  2.836042E+02 -2.166744E+03 -3.198919E+01  2.262096E+03 -1.167495E-04
        44   9 -1.064806E+06 -1.279509E+03 -4.300504E+03 -1.616389E+02  3.368708E+03 -8.785132E-04
        44  10 -1.064804E+06  5.169861E+01 -1.203094E+03 -9.765857E+01  1.774164E-10 -5.612786E-10
        44  11 -1.064508E+06  2.836028E+02 -2.166754E+03  3.198919E+01 -2.418614E-09 -1.609038E-10
        44  12 -1.064806E+06 -1.279512E+03 -4.300526E+03  1.616389E+02 -1.456647E-09  1.472002E-10
        44  13 -1.064804E+06  5.169859E+01 -1.203094E+03  3.978377E-09 -2.537693E-09 -4.533883E-10
        44  14 -1.064508E+06  2.836028E+02 -2.166754E+03 -3.047849E-08  1.559197E-09  7.244680E-12
        44  15 -1.064806E+06 -1.279512E+03 -4.300526E+03  2.548969E-08  6.488813E-10  2.233105E-10
        44  16 -1.064804E+06  5.169861E+01 -1.203094E+03  9.765857E+01 -1.294531E-09 -5.473778E-10
        44  17 -1.064508E+06  2.836028E+02 -2.166754E+03 -3.198919E+01 -2.022350E-09 -2.657008E-10
        44  18 -1.064806E+06 -1.279512E+03 -4.300526E+03 -1.616389E+02  7.477417E-10  2.419939E-10
        44  19 -1.064804E+06  5.169897E+01 -1.203091E+03 -9.765857E+01 -1.155501E+03  1.820622E-04
        44  20 -1.064508E+06  2.836042E+02 -2.166744E+03  3.198919E+01 -2.262096E+03 -1.167484E-04
        44  21 -1.064806E+06 -1.279509E+03 -4.300504E+03  1.616389E+02 -3.368708E+03 -8.785133E-04
        44  22 -1.064804E+06  5.169895E+01 -1.203091E+03 -4.626893E-09 -1.155501E+03 -2.886045E-10
        44  23 -1.064508E+06  2.836042E+02 -2.166744E+03 -3.047429E-08 -2.262096E+03 -1.504059E-10
        44  24 -1.064806E+06 -1.279509E+03 -4.300504E+03  2.226409E-08 -3.368708E+03 -3.427449E-11
        44  25 -1.064804E+06  5.169897E+01 -1.203091E+03  9.765857E+01 -1.155501E+03 -1.820626E-04
        44  26 -1.064508E+06  2.836042E+02 -2.166744E+03 -3.198919E+01 -2.262096E+03  1.167481E-04
        44  27 -1.064806E+06 -1.279509E+03 -4.300504E+03 -1.616389E+02 -3.368708E+03  8.785134E-04
        45   1 -1.065500E+06  3.196936E+02 -5.413347E+03 -6.486061E+02  4.243477E+03 -4.440610E-03
        45   2 -1.063641E+06  1.968398E+03 -8.807570E+03  2.971467E+02  8.848674E+03  4.242164E-03
        45   3 -1.065507E+06 -8.874464E+03 -1.832662E+04  1.242899E+03  1.345386E+04  2.697875E-02
        45   4 -1.065500E+06  3.196928E+02 -5.413347E+03  4.059710E-08  4.243477E+03  5.638070E-10
        45   5 -1.063641E+06  1.968397E+03 -8.807570E+03  1.492181E-09  8.848674E+03  5.481801E-10
        45   6 -1.065507E+06 -8.874467E+03 -1.832662E+04  4.527817E-08  1.345386E+04 -1.031774E-09
        45   7 -1.065500E+06  3.196936E+02 -5.413347E+03  6.486061E+02  4.243477E+03  4.440611E-03
        45   8 -1.063641E+06  1.968398E+03 -8.807570E+03 -2.971467E+02  8.848674E+03 -4.242164E-03
        45   9 -1.065507E+06 -8.874464E+03 -1.832662E+04 -1.242899E+03  1.345386E+04 -2.697876E-02
        45  10 -1.065500E+06  3.196887E+02 -5.413381E+03 -6.486061E+02  3.732740E-10  7.845429E-12
        45  11 -1.063641E+06  1.968376E+03 -8.807717E+03  2.971467E+02  8.035082E-10  1.557402E-10
        45  12 -1.065507E+06 -8.874513E+03 -1.832696E+04  1.242899E+03  3.132263E-10 -2.341977E-10
        45  13 -1.065500E+06  3.196880E+02 -5.413381E+03 -1.107270E-08 -1.059694E-09  2.789934E-10
        45  14 -1.063641E+06  1.968376E+03 -8.807717E+03  5.793258E-09  9.013180E-10 -7.773425E-11
        45  15 -1.065507E+06 -8.874515E+03 -1.832696E+04  3.558248E-08  9.513738E-10 -4.585862E-10
        45  16 -1.065500E+06  3.196887E+02 -5.413381E+03  6.486061E+02 -1.825374E-09  3.819736E-10
        45  17 -1.063641E+06  1.968376E+03 -8.807717E+03 -2.971467E+02 -3.225642E-09 -1.094340E-10
        45  18 -1.065507E+06 -8.874513E+03 -1.832696E+04 -1.242899E+03 -8.208331E-10 -2.515648E-10
        45  19 -1.065500E+06  3.196936E+02 -5.413347E+03 -6.486061E+02 -4.243477E+03  4.440610E-03
        45  20 -1.063641E+06  1.968398E+03 -8.807570E+03  2.971467E+02 -8.848674E+03 -4.242165E-03
        45  21 -1.065507E+06 -8.874464E+03 -1.832662E+04  1.242899E+03 -1.345386E+04 -2.697875E-02
        45  22 -1.065500E+06  3.196928E+02 -5.413347E+03  2.337813E-08 -4.243477E+03 -1.491892E-11
        45  23 -1.063641E+06  1.968397E+03 -8.807570E+03  1.009697E-08 -8.848674E+03 -4.607643E-10
        45  24 -1.065507E+06 -8.874467E+03 -1.832662E+04  3.665164E-08 -1.345386E+04  1.124796E-10
        45  25 -1.065500E+06  3.196936E+02 -5.413347E+03  6.486061E+02 -4.243477E+03 -4.440611E-03
        45  26 -1.063641E+06  1.968398E+03 -8.807570E+03 -2.971467E+02 -8.848674E+03  4.242163E-03
        45  27 -1.065507E+06 -8.874464E+03 -1.832662E+04 -1.242899E+03 -1.345386E+04  2.697875E-02
        46   1 -1.069987E+06  2.249799E+03 -2.219129E+04 -4.358828E+03  1.708986E+04 -1.201851E-01
        46   2 -1.058041E+06  1.352642E+04 -3.404997E+04  2.335365E+03  3.567020E+04  1.343985E-01
        46   3 -1.070021E+06 -6.117592E+04 -7.951427E+04  9.029346E+03  5.425038E+04  7.903108E-01
        46   4 -1.069987E+06  2.249764E+03 -2.219130E+04  2.395070E-08  1.708986E+04 -5.805134E-10
        46   5 -1.058041E+06  1.352641E+04 -3.404997E+04 -3.832513E-08  3.567020E+04  1.206694E-09
        46   6 -1.070021E+06 -6.117607E+04 -7.951429E+04 -2.635653E-09  5.425038E+04  3.724112E-10
        46   7 -1.069987E+06  2.249799E+03 -2.219129E+04  4.358828E+03  1.708986E+04  1.201851E-01
        46   8 -1.058041E+06  1.352642E+04 -3.404997E+04 -2.335365E+03  3.567020E+04 -1.343985E-01
        46   9 -1.070021E+06 -6.117592E+04 -7.951427E+04 -9.029346E+03  5.425038E+04 -7.903108E-01
        46  10 -1.069988E+06  2.249721E+03 -2.219184E+04 -4.358828E+03 -1.777949E-10 -2.245792E-10
        46  11 -1.058042E+06  1.352608E+04 -3.405236E+04  2.335365E+03 -2.227122E-10  9.769735E-10
        46  12 -1.070024E+06 -6.117671E+04 -7.951981E+04  9.029346E+03  2.457304E-09  3.339062E-10
        46  13 -1.069988E+06  2.249685E+03 -2.219185E+04  4.980561E-08 -2.467508E-09 -4.692759E-11
        46  14 -1.058042E+06  1.352607E+04 -3.405236E+04 -3.401690E-08  1.076480E-09  8.483084E-10
        46  15 -1.070024E+06 -6.117686E+04 -7.951983E+04 -3.602187E-08  3.405891E-09  4.122853E-10
        46  16 -1.069988E+06  2.249721E+03 -2.219184E+04  4.358828E+03 -7.124070E-10 -2.008068E-12
        46  17 -1.058042E+06  1.352608E+04 -3.405236E+04 -2.335365E+03  5.084429E-10  8.697846E-10
        46  18 -1.070024E+06 -6.117671E+04 -7.951981E+04 -9.029346E+03  3.645279E-10  1.906541E-10
        46  19 -1.069987E+06  2.249799E+03 -2.219129E+04 -4.358828E+03 -1.708986E+04  1.201851E-01
        46  20 -1.058041E+06  1.352642E+04 -3.404997E+04  2.335365E+03 -3.567020E+04 -1.343985E-01
        46  21 -1.070021E+06 -6.117592E+04 -7.951427E+04  9.029346E+03 -5.425038E+04 -7.903108E-01
        46  22 -1.069987E+06  2.249764E+03 -2.219130E+04  3.259938E-08 -1.708986E+04  5.158375E-10
        46  23 -1.058041E+06  1.352641E+04 -3.404997E+04 -2.540301E-08 -3.567020E+04  5.603600E-10
        46  24 -1.070021E+06 -6.117607E+04 -7.951429E+04 -4.819930E-09 -5.425038E+04  3.704107E-10
        46  25 -1.069987E+06  2.249799E+03 -2.219129E+04  4.358828E+03 -1.708986E+04 -1.201851E-01
        46  26 -1.058041E+06  1.352642E+04 -3.404997E+04 -2.335365E+03 -3.567020E+04  1.343985E-01
        46  27 -1.070021E+06 -6.117592E+04 -7.951427E+04 -9.029346E+03 -5.425038E+04  7.903108E-01
        47   1 -8.690294E+04 -2.430388E+06 -1.082225E+05  7.506861E+04 -4.422994E+01 -6.517766E+04
        47   2  2.804505E+04 -2.313340E+06 -2.852237E+04  1.303934E+04  1.352786E+03 -4.095898E+04
        47   3  4.342452E+04 -2.224352E+06  1.047115E+04  4.597123E+04  5.084778E+03 -1.673550E+04
        47   4 -7.592816E+04 -2.386581E+06 -9.725043E+04  5.498707E+04 -4.212248E+01 -6.526894E+04
        47   5  1.326731E+04 -2.372583E+06 -4.301236E+04  7.503386E+03  1.353141E+03 -4.199856E+04
        47   6  3.056341E+03 -2.386490E+06 -2.881708E+04  5.498438E+04  5.084595E+03 -1.872739E+04
        47   7 -6.495201E+04 -2.342771E+06 -8.627827E+04  3.490410E+04 -4.000922E+01 -6.536023E+04
        47   8 -1.510576E+03 -2.431823E+06 -5.750258E+04  1.967961E+03  1.353514E+03 -4.303805E+04
        47   9 -3.731347E+04 -2.548602E+06 -6.810714E+04  6.399516E+04  5.084354E+03 -2.071875E+04
        47  10 -8.690408E+04 -2.430393E+06 -1.082305E+05  7.506861E+04 -2.122091E-10  1.397676E-09
        47  11  2.804460E+04 -2.313342E+06 -2.852554E+04  1.303939E+04 -1.911755E-09 -1.883431E-09
        47  12  4.342442E+04 -2.224353E+06  1.047057E+04  4.597130E+04  2.525714E-09 -4.600456E-09
        47  13 -7.592931E+04 -2.386585E+06 -9.725846E+04  5.498706E+04 -6.452848E-10 -7.370460E-11
        47  14  1.326683E+04 -2.372585E+06 -4.301569E+04  7.503432E+03  2.392120E-09 -5.308280E-11
        47  15  3.056219E+03 -2.386490E+06 -2.881779E+04  5.498446E+04  2.796877E-09 -3.827424E-11
        47  16 -6.495316E+04 -2.342775E+06 -8.628633E+04  3.490410E+04  2.354814E-09 -1.357713E-09
        47  17 -1.511078E+03 -2.431825E+06 -5.750608E+04  1.968008E+03  3.718869E-09  1.909508E-09
        47  18 -3.731361E+04 -2.548603E+06 -6.810800E+04  6.399525E+04 -7.459134E-10  4.732142E-09
        47  19 -8.690294E+04 -2.430388E+06 -1.082225E+05  7.506861E+04  4.422994E+01  6.517766E+04
        47  20  2.804505E+04 -2.313340E+06 -2.852237E+04  1.303934E+04 -1.352786E+03  4.095898E+04
        47  21  4.342452E+04 -2.224352E+06  1.047115E+04  4.597123E+04 -5.084778E+03  1.673550E+04
        47  22 -7.592816E+04 -2.386581E+06 -9.725043E+04  5.498707E+04  4.212248E+01  6.526894E+04
        47  23  1.326731E+04 -2.372583E+06 -4.301236E+04  7.503386E+03 -1.353141E+03  4.199856E+04
        47  24  3.056341E+03 -2.386490E+06 -2.881708E+04  5.498438E+04 -5.084595E+03  1.872739E+04
        47  25 -6.495201E+04 -2.342771E+06 -8.627827E+04  3.490410E+04  4.000922E+01  6.536023E+04
        47  26 -1.510576E+03 -2.431823E+06 -5.750258E+04  1.967961E+03 -1.353514E+03  4.303805E+04
        47  27 -3.731347E+04 -2.548602E+06 -6.810714E+04  6.399516E+04 -5.084354E+03  2.071875E+04
        48   1  7.609191E+04 -2.040574E+06  5.869745E+04  5.696591E+04  7.947402E+03 -1.230421E+04
        48   2  1.119954E+05 -1.938663E+06  9.169628E+04  8.524259E+03  1.152614E+04 -4.903377E+03
        48   3  1.307574E+05 -1.841549E+06  1.156697E+05  5.184004E+04  1.352795E+04  2.501298E+03
        48   4 -8.907690E+03 -2.381430E+06 -2.461458E+04  5.427241E+04  7.947912E+03 -1.407604E+04
        48   5  2.268935E+03 -2.378970E+06 -1.558241E+04  8.391097E+03  1.152721E+04 -6.037498E+03
        48   6 -3.812727E+03 -2.381431E+06 -1.602260E+04  5.427170E+04  1.352910E+04  2.003713E+03
        48   7 -9.391588E+04 -2.722179E+06 -1.079351E+05  5.158039E+04  7.948438E+03 -1.584689E+04
        48   8 -1.074719E+05 -2.819100E+06 -1.228752E+05  8.258050E+03  1.152827E+04 -7.170813E+03
        48   9 -1.384044E+05 -2.921046E+06 -1.477361E+05  5.670128E+04  1.353025E+04  1.506561E+03
        48  10  7.609180E+04 -2.040574E+06  5.869704E+04  5.696599E+04  3.486159E-09 -2.476647E-10
        48  11  1.119953E+05 -1.938663E+06  9.169598E+04  8.524304E+03  1.180873E-09  2.997727E-11
        48  12  1.307572E+05 -1.841549E+06  1.156693E+05  5.184002E+04  6.286255E-11  1.244697E-09
        48  13 -8.907811E+03 -2.381430E+06 -2.461508E+04  5.427250E+04  3.222605E-09  6.444557E-11
        48  14  2.268782E+03 -2.378970E+06 -1.558273E+04  8.391153E+03  3.207349E-09  4.716165E-10
        48  15 -3.812924E+03 -2.381431E+06 -1.602295E+04  5.427168E+04  2.085455E-09  2.900446E-10
        48  16 -9.391601E+04 -2.722179E+06 -1.079357E+05  5.158049E+04 -2.003708E-09  1.114109E-10
        48  17 -1.074721E+05 -2.819100E+06 -1.228756E+05  8.258117E+03 -6.666417E-09 -9.659967E-10
        48  18 -1.384046E+05 -2.921046E+06 -1.477365E+05  5.670126E+04 -6.579126E-10 -1.206913E-09
        48  19  7.609191E+04 -2.040574E+06  5.869745E+04  5.696591E+04 -7.947402E+03  1.230421E+04
        48  20  1.119954E+05 -1.938663E+06  9.169628E+04  8.524259E+03 -1.152614E+04  4.903377E+03
        48  21  1.307574E+05 -1.841549E+06  1.156697E+05  5.184004E+04 -1.352795E+04 -2.501298E+03
        48  22 -8.907690E+03 -2.381430E+06 -2.461458E+04  5.427241E+04 -7.947912E+03  1.407604E+04
        48  23  2.268935E+03 -2.378970E+06 -1.558241E+04  8.391097E+03 -1.152721E+04  6.037498E+03
        48  24 -3.812727E+03 -2.381431E+06 -1.602260E+04  5.427170E+04 -1.352910E+04 -2.003713E+03
        48  25 -9.391588E+04 -2.722179E+06 -1.079351E+05  5.158039E+04 -7.948438E+03  1.584689E+04
        48  26 -1.074719E+05 -2.819100E+06 -1.228752E+05  8.258050E+03 -1.152827E+04  7.170813E+03
        48  27 -1.384044E+05 -2.921046E+06 -1.477361E+05  5.670128E+04 -1.353025E+04 -1.506561E+03
        49   1  1.768042E+05 -1.674889E+06  1.558902E+05  5.606773E+04  1.831846E+04  1.009284E+04
        49   2  2.047363E+05 -1.578837E+06  1.732081E+05  7.252158E+03  2.205537E+04  1.395875E+04
        49   3  1.886358E+05 -1.492846E+06  1.772968E+05  4.180510E+04  7.585031E+03  1.779024E+04
        49   4  3.868798E+02 -2.382919E+06 -1.664170E+04  5.242986E+04  1.832514E+04  4.858191E+03
        49   5  5.859865E+03 -2.377260E+06 -2.096901E+04  1.070575E+04  2.205369E+04  1.612725E+04
        49   6 -3.401863E+04 -2.382974E+06 -4.369388E+04  5.235760E+04  7.564742E+03  2.736109E+04
        49   7 -1.760675E+05 -3.090491E+06 -1.892100E+05  4.879626E+04  1.833188E+04 -3.704942E+02
        49   8 -1.930636E+05 -3.175099E+06 -2.151924E+05  1.415511E+04  2.205203E+04  1.829295E+04
        49   9 -2.567323E+05 -3.272380E+06 -2.647435E+05  6.289530E+04  7.544765E+03  3.691817E+04
        49  10  1.768038E+05 -1.674889E+06  1.558894E+05  5.606758E+04 -1.807056E-10 -6.598522E-10
        49  11  2.047357E+05 -1.578837E+06  1.732069E+05  7.251910E+03  2.717881E-09 -3.442156E-09
        49  12  1.886356E+05 -1.492847E+06  1.772961E+05  4.180499E+04 -6.938383E-10 -9.495981E-10
        49  13  3.865132E+02 -2.382920E+06 -1.664238E+04  5.242979E+04  7.329356E-09  7.643801E-10
        49  14  5.859273E+03 -2.377260E+06 -2.097042E+04  1.070546E+04  4.453699E-09  8.291004E-10
        49  15 -3.401889E+04 -2.382975E+06 -4.369540E+04  5.235744E+04 -1.921007E-09  7.470395E-10
        49  16 -1.760678E+05 -3.090491E+06 -1.892106E+05  4.879627E+04  6.848342E-10  8.530574E-10
        49  17 -1.930642E+05 -3.175099E+06 -2.151940E+05  1.415479E+04  6.694988E-09 -3.644408E-10
        49  18 -2.567327E+05 -3.272382E+06 -2.647462E+05  6.289508E+04  2.756638E-10  6.472748E-10
        49  19  1.768042E+05 -1.674889E+06  1.558902E+05  5.606773E+04 -1.831846E+04 -1.009284E+04
        49  20  2.047363E+05 -1.578837E+06  1.732081E+05  7.252158E+03 -2.205537E+04 -1.395875E+04
        49  21  1.886358E+05 -1.492846E+06  1.772968E+05  4.180510E+04 -7.585031E+03 -1.779024E+04
        49  22  3.868798E+02 -2.382919E+06 -1.664170E+04  5.242986E+04 -1.832514E+04 -4.858191E+03
        49  23  5.859865E+03 -2.377260E+06 -2.096901E+04  1.070575E+04 -2.205369E+04 -1.612725E+04
        49  24 -3.401863E+04 -2.382974E+06 -4.369388E+04  5.235760E+04 -7.564742E+03 -2.736109E+04
        49  25 -1.760675E+05 -3.090491E+06 -1.892100E+05  4.879626E+04 -1.833188E+04  3.704942E+02
        49  26 -1.930636E+05 -3.175099E+06 -2.151924E+05  1.415511E+04 -2.205203E+04 -1.829295E+04
        49  27 -2.567323E+05 -3.272380E+06 -2.647435E+05  6.289530E+04 -7.544765E+03 -3.691817E+04
        50   1 -1.315521E+06 -1.284883E+05  8.095952E+04 -5.077375E+05  6.104128E+04  2.325822E+04
        50   2 -1.333700E+06 -2.121836E+05  2.466017E+04 -4.846078E+05  3.911803E+04  1.569549E+04
        50   3 -1.308049E+06 -2.040863E+05  1.098723E+04 -4.918913E+05  1.749998E+04  7.317779E+03
        50   4 -1.250670E+06 -1.133794E+05  9.692538E+04 -4.997740E+05  6.124478E+04  2.333336E+04
        50   5 -1.277416E+06 -1.933630E+05  3.957022E+04 -4.718028E+05  3.915462E+04  1.570901E+04
        50   6 -1.260303E+06 -1.815265E+05  2.497056E+04 -4.742442E+05  1.736993E+04  7.269200E+03
        50   7 -1.185815E+06 -9.827068E+04  1.128909E+05 -4.918100E+05  6.144830E+04  2.340850E+04
        50   8 -1.221129E+06 -1.745423E+05  5.447999E+04 -4.589969E+05  3.919121E+04  1.572252E+04
        50   9 -1.212554E+06 -1.589660E+05  3.895368E+04 -4.565956E+05  1.723986E+04  7.220614E+03
        50  10 -1.315525E+06 -1.284899E+05  8.095148E+04 -5.077387E+05 -1.702658E-10  2.836687E-10
        50  11 -1.333701E+06 -2.121843E+05  2.465682E+04 -4.846083E+05  1.168746E-09  3.116090E-10
        50  12 -1.308049E+06 -2.040864E+05  1.098655E+04 -4.918914E+05  9.063995E-10 -2.021303E-10
        50  13 -1.250674E+06 -1.133810E+05  9.691729E+04 -4.997751E+05 -2.410488E-09 -4.527721E-11
        50  14 -1.277418E+06 -1.933636E+05  3.956687E+04 -4.718033E+05 -4.631505E-09 -5.499585E-10
        50  15 -1.260303E+06 -1.815266E+05  2.496989E+04 -4.742443E+05 -1.307980E-09 -3.762773E-10
        50  16 -1.185819E+06 -9.827228E+04  1.128828E+05 -4.918111E+05 -5.677732E-10 -1.984910E-10
        50  17 -1.221131E+06 -1.745430E+05  5.447663E+04 -4.589974E+05 -9.731757E-10 -2.704277E-10
        50  18 -1.212555E+06 -1.589662E+05  3.895302E+04 -4.565957E+05 -1.798325E-09 -6.353834E-10
        50  19 -1.315521E+06 -1.284883E+05  8.095952E+04 -5.077375E+05 -6.104128E+04 -2.325822E+04
        50  20 -1.333700E+06 -2.121836E+05  2.466017E+04 -4.846078E+05 -3.911803E+04 -1.569549E+04
        50  21 -1.308049E+06 -2.040863E+05  1.098723E+04 -4.918913E+05 -1.749998E+04 -7.317779E+03
        50  22 -1.250670E+06 -1.133794E+05  9.692538E+04 -4.997740E+05 -6.124478E+04 -2.333336E+04
        50  23 -1.277416E+06 -1.933630E+05  3.957022E+04 -4.718028E+05 -3.915462E+04 -1.570901E+04
        50  24 -1.260303E+06 -1.815265E+05  2.497056E+04 -4.742442E+05 -1.736993E+04 -7.269200E+03
        50  25 -1.185815E+06 -9.827068E+04  1.128909E+05 -4.918100E+05 -6.144830E+04 -2.340850E+04
        50  26 -1.221129E+06 -1.745423E+05  5.447999E+04 -4.589969E+05 -3.919121E+04 -1.572252E+04
        50  27 -1.212554E+06 -1.589660E+05  3.895368E+04 -4.565956E+05 -1.723986E+04 -7.220614E+03
        51   1 -1.294560E+06 -1.809111E+05  1.226673E+04 -4.879451E+05  1.367546E+04  5.639436E+03
        51   2 -1.296148E+06 -1.892989E+05  2.142322E+03 -4.807428E+05  8.782838E+03  3.741838E+03
        51   3 -1.286133E+06 -1.891604E+05 -4.475708E+02 -4.835928E+05  3.939890E+03  1.711615E+03
        51   4 -1.263297E+06 -1.704339E+05  2.056044E+04 -4.808107E+05  1.367798E+04  5.640341E+03
        51   5 -1.269805E+06 -1.796826E+05  9.286440E+03 -4.739194E+05  8.758318E+03  3.732644E+03
        51   6 -1.264705E+06 -1.803999E+05  5.568083E+03 -4.770803E+05  3.888385E+03  1.692326E+03
        51   7 -1.232033E+06 -1.599566E+05  2.885408E+04 -4.736760E+05  1.368050E+04  5.641247E+03
        51   8 -1.243462E+06 -1.700662E+05  1.643048E+04 -4.670957E+05  8.733797E+03  3.723450E+03
        51   9 -1.243277E+06 -1.716394E+05  1.158367E+04 -4.705675E+05  3.836878E+03  1.673036E+03
        51  10 -1.294560E+06 -1.809112E+05  1.226631E+04 -4.879452E+05  2.763315E-09 -5.291301E-10
        51  11 -1.296148E+06 -1.892990E+05  2.142151E+03 -4.807428E+05 -2.960229E-09  5.704767E-10
        51  12 -1.286133E+06 -1.891604E+05 -4.476055E+02 -4.835928E+05 -2.670856E-09 -9.510988E-10
        51  13 -1.263297E+06 -1.704340E+05  2.056003E+04 -4.808108E+05  5.975065E-10 -1.507120E-11
        51  14 -1.269805E+06 -1.796826E+05  9.286269E+03 -4.739194E+05  1.924349E-10  2.792054E-10
        51  15 -1.264705E+06 -1.803999E+05  5.568049E+03 -4.770803E+05  2.649462E-09 -6.764958E-10
        51  16 -1.232033E+06 -1.599567E+05  2.885367E+04 -4.736761E+05 -1.288091E-09 -7.356678E-10
        51  17 -1.243462E+06 -1.700663E+05  1.643031E+04 -4.670958E+05 -1.107470E-09  1.503154E-10
        51  18 -1.243277E+06 -1.716394E+05  1.158363E+04 -4.705675E+05  1.432644E-09 -4.759531E-10
        51  19 -1.294560E+06 -1.809111E+05  1.226673E+04 -4.879451E+05 -1.367546E+04 -5.639436E+03
        51  20 -1.296148E+06 -1.892989E+05  2.142322E+03 -4.807428E+05 -8.782838E+03 -3.741838E+03
        51  21 -1.286133E+06 -1.891604E+05 -4.475708E+02 -4.835928E+05 -3.939890E+03 -1.711615E+03
        51  22 -1.263297E+06 -1.704339E+05  2.056044E+04 -4.808107E+05 -1.367798E+04 -5.640341E+03
        51  23 -1.269805E+06 -1.796826E+05  9.286440E+03 -4.739194E+05 -8.758318E+03 -3.732644E+03
        51  24 -1.264705E+06 -1.803999E+05  5.568083E+03 -4.770803E+05 -3.888385E+03 -1.692326E+03
        51  25 -1.232033E+06 -1.599566E+05  2.885408E+04 -4.736760E+05 -1.368050E+04 -5.641247E+03
        51  26 -1.243462E+06 -1.700662E+05  1.643048E+04 -4.670957E+05 -8.733797E+03 -3.723450E+03
        51  27 -1.243277E+06 -1.716394E+05  1.158367E+04 -4.705675E+05 -3.836878E+03 -1.673036E+03
        52   1 -1.263943E+06 -1.781785E+05  4.816874E+03 -4.775641E+05  3.137616E+03  1.268229E+03
        52   2 -1.262971E+06 -1.754510E+05  3.689132E+03 -4.725934E+05  2.098250E+03  6.936823E+02
        52   3 -1.255199E+06 -1.765422E+05  3.943253E+03 -4.748754E+05  1.062879E+03  1.084445E+02
        52   4 -1.265164E+06 -1.788194E+05  4.432188E+03 -4.780777E+05  3.105892E+03  1.256345E+03
        52   5 -1.268668E+06 -1.776377E+05  2.122193E+03 -4.741792E+05  2.064370E+03  6.809899E+02
        52   6 -1.265370E+06 -1.802742E+05  1.195756E+03 -4.775334E+05  1.026852E+03  9.494750E+01
        52   7 -1.266386E+06 -1.794604E+05  4.047501E+03 -4.785914E+05  3.074167E+03  1.244460E+03
        52   8 -1.274364E+06 -1.798244E+05  5.552447E+02 -4.757651E+05  2.030490E+03  6.682977E+02
        52   9 -1.275541E+06 -1.840062E+05 -1.551757E+03 -4.801915E+05  9.908258E+02  8.145071E+01
        52  10 -1.263943E+06 -1.781785E+05  4.816852E+03 -4.775641E+05 -1.788090E-09 -1.697456E-09
        52  11 -1.262971E+06 -1.754510E+05  3.689123E+03 -4.725934E+05 -1.112528E-09 -9.309989E-10
        52  12 -1.255199E+06 -1.765422E+05  3.943251E+03 -4.748754E+05 -3.038718E-09 -7.099680E-11
        52  13 -1.265164E+06 -1.788194E+05  4.432167E+03 -4.780777E+05  3.029316E-09 -4.037413E-10
        52  14 -1.268668E+06 -1.776377E+05  2.122184E+03 -4.741792E+05 -8.490249E-10 -5.311355E-10
        52  15 -1.265370E+06 -1.802742E+05  1.195754E+03 -4.775334E+05 -8.767602E-10  1.551044E-10
        52  16 -1.266386E+06 -1.794604E+05  4.047480E+03 -4.785914E+05 -5.429744E-11 -1.180229E-09
        52  17 -1.274364E+06 -1.798244E+05  5.552361E+02 -4.757651E+05 -1.376469E-09 -3.864521E-10
        52  18 -1.275541E+06 -1.840062E+05 -1.551759E+03 -4.801915E+05  1.665406E-09  1.031494E-09
        52  19 -1.263943E+06 -1.781785E+05  4.816874E+03 -4.775641E+05 -3.137616E+03 -1.268229E+03
        52  20 -1.262971E+06 -1.754510E+05  3.689132E+03 -4.725934E+05 -2.098250E+03 -6.936823E+02
        52  21 -1.255199E+06 -1.765422E+05  3.943253E+03 -4.748754E+05 -1.062879E+03 -1.084445E+02
        52  22 -1.265164E+06 -1.788194E+05  4.432188E+03 -4.780777E+05 -3.105892E+03 -1.256345E+03
        52  23 -1.268668E+06 -1.776377E+05  2.122193E+03 -4.741792E+05 -2.064370E+03 -6.809899E+02
        52  24 -1.265370E+06 -1.802742E+05  1.195756E+03 -4.775334E+05 -1.026852E+03 -9.494750E+01
        52  25 -1.266386E+06 -1.794604E+05  4.047501E+03 -4.785914E+05 -3.074167E+03 -1.244460E+03
        52  26 -1.274364E+06 -1.798244E+05  5.552447E+02 -4.757651E+05 -2.030490E+03 -6.682977E+02
        52  27 -1.275541E+06 -1.840062E+05 -1.551757E+03 -4.801915E+05 -9.908258E+02 -8.145071E+01
        53   1 -1.232935E+06 -1.675965E+05  9.854280E+03 -4.686724E+05  9.298292E+02 -6.336286E+01
        53   2 -1.231695E+06 -1.636511E+05  1.039403E+04 -4.644292E+05  8.021855E+02 -3.062047E+02
        53   3 -1.224935E+06 -1.648456E+05  1.114653E+04 -4.664262E+05  6.649417E+02 -5.233588E+02
        53   4 -1.265565E+06 -1.799249E+05  9.033062E+02 -4.775495E+05  8.926767E+02 -7.728377E+01
        53   5 -1.268341E+06 -1.774774E+05  3.633537E+02 -4.743833E+05  7.702276E+02 -3.181825E+02
        53   6 -1.265600E+06 -1.801708E+05  3.203706E+01 -4.774574E+05  6.381789E+02 -5.333927E+02
        53   7 -1.298194E+06 -1.922532E+05 -8.047724E+03 -4.864261E+05  8.555265E+02 -9.120380E+01
        53   8 -1.304987E+06 -1.913037E+05 -9.667431E+03 -4.843369E+05  7.382718E+02 -3.301594E+02
        53   9 -1.306263E+06 -1.954960E+05 -1.108263E+04 -4.884880E+05  6.114181E+02 -5.434258E+02
        53  10 -1.232935E+06 -1.675965E+05  9.854278E+03 -4.686724E+05  1.482582E-09  7.088505E-10
        53  11 -1.231695E+06 -1.636511E+05  1.039403E+04 -4.644292E+05  1.375008E-09 -2.177441E-10
        53  12 -1.224935E+06 -1.648456E+05  1.114653E+04 -4.664262E+05 -4.605231E-10 -6.590285E-10
        53  13 -1.265565E+06 -1.799249E+05  9.033047E+02 -4.775495E+05 -2.751455E-09 -1.998861E-10
        53  14 -1.268341E+06 -1.774774E+05  3.633524E+02 -4.743833E+05 -2.645971E-09 -2.110115E-09
        53  15 -1.265600E+06 -1.801708E+05  3.203576E+01 -4.774574E+05 -2.726783E-09 -4.321340E-10
        53  16 -1.298194E+06 -1.922532E+05 -8.047725E+03 -4.864261E+05 -1.823215E-09  1.008849E-10
        53  17 -1.304987E+06 -1.913037E+05 -9.667433E+03 -4.843369E+05 -2.364508E-09 -2.142274E-09
        53  18 -1.306263E+06 -1.954960E+05 -1.108263E+04 -4.884880E+05 -2.728641E-09 -1.337468E-09
        53  19 -1.232935E+06 -1.675965E+05  9.854280E+03 -4.686724E+05 -9.298292E+02  6.336286E+01
        53  20 -1.231695E+06 -1.636511E+05  1.039403E+04 -4.644292E+05 -8.021855E+02  3.062047E+02
        53  21 -1.224935E+06 -1.648456E+05  1.114653E+04 -4.664262E+05 -6.649417E+02  5.233588E+02
        53  22 -1.265565E+06 -1.799249E+05  9.033062E+02 -4.775495E+05 -8.926767E+02  7.728377E+01
        53  23 -1.268341E+06 -1.774774E+05  3.633537E+02 -4.743833E+05 -7.702276E+02  3.181825E+02
        53  24 -1.265600E+06 -1.801708E+05  3.203706E+01 -4.774574E+05 -6.381789E+02  5.333927E+02
        53  25 -1.298194E+06 -1.922532E+05 -8.047724E+03 -4.864261E+05 -8.555265E+02  9.120380E+01
        53  26 -1.304987E+06 -1.913037E+05 -9.667431E+03 -4.843369E+05 -7.382718E+02  3.301594E+02
        53  27 -1.306263E+06 -1.954960E+05 -1.108263E+04 -4.884880E+05 -6.114181E+02  5.434258E+02
        54   1 -1.205971E+06 -1.572417E+05  1.630532E+04 -4.609412E+05  7.130579E+02 -6.081174E+02
        54   2 -1.204930E+06 -1.539322E+05  1.679276E+04 -4.576497E+05  9.930077E+02 -6.724021E+02
        54   3 -1.199801E+06 -1.551274E+05  1.703680E+04 -4.590988E+05  1.254028E+03 -6.861058E+02
        54   4 -1.265891E+06 -1.798336E+05 -1.069902E+02 -4.771980E+05  6.779662E+02 -6.212772E+02
        54   5 -1.267953E+06 -1.777173E+05 -4.585629E+02 -4.747763E+05  9.681052E+02 -6.817470E+02
        54   6 -1.265930E+06 -1.801079E+05 -1.061633E+03 -4.770953E+05  1.239312E+03 -6.916339E+02
        54   7 -1.325807E+06 -2.024253E+05 -1.651962E+04 -4.934535E+05  6.428783E+02 -6.344356E+02
        54   8 -1.330973E+06 -2.015023E+05 -1.771023E+04 -4.919014E+05  9.432056E+02 -6.910909E+02
        54   9 -1.332054E+06 -2.050881E+05 -1.916044E+04 -4.950900E+05  1.224599E+03 -6.971614E+02
        54  10 -1.205971E+06 -1.572417E+05  1.630532E+04 -4.609412E+05 -6.676692E-10 -4.225670E-10
        54  11 -1.204930E+06 -1.539322E+05  1.679276E+04 -4.576497E+05  1.146333E-09  2.731743E-10
        54  12 -1.199801E+06 -1.551274E+05  1.703679E+04 -4.590988E+05  8.586980E-10  2.482883E-10
        54  13 -1.265891E+06 -1.798336E+05 -1.069918E+02 -4.771980E+05 -2.180446E-09  1.632823E-10
        54  14 -1.267953E+06 -1.777173E+05 -4.585655E+02 -4.747763E+05 -2.031663E-10  9.791982E-11
        54  15 -1.265930E+06 -1.801079E+05 -1.061636E+03 -4.770953E+05  1.252049E-09  4.594979E-11
        54  16 -1.325807E+06 -2.024253E+05 -1.651963E+04 -4.934535E+05 -9.463420E-10 -4.929906E-11
        54  17 -1.330973E+06 -2.015023E+05 -1.771024E+04 -4.919014E+05 -1.285009E-09  5.642578E-10
        54  18 -1.332054E+06 -2.050881E+05 -1.916044E+04 -4.950900E+05 -2.094591E-09 -9.697662E-11
        54  19 -1.205971E+06 -1.572417E+05  1.630532E+04 -4.609412E+05 -7.130579E+02  6.081174E+02
        54  20 -1.204930E+06 -1.539322E+05  1.679276E+04 -4.576497E+05 -9.930077E+02  6.724021E+02
        54  21 -1.199801E+06 -1.551274E+05  1.703680E+04 -4.590988E+05 -1.254028E+03  6.861058E+02
        54  22 -1.265891E+06 -1.798336E+05 -1.069902E+02 -4.771980E+05 -6.779662E+02  6.212772E+02
        54  23 -1.267953E+06 -1.777173E+05 -4.585629E+02 -4.747763E+05 -9.681052E+02  6.817470E+02
        54  24 -1.265930E+06 -1.801079E+05 -1.061633E+03 -4.770953E+05 -1.239312E+03  6.916339E+02
        54  25 -1.325807E+06 -2.024253E+05 -1.651962E+04 -4.934535E+05 -6.428783E+02  6.344356E+02
        54  26 -1.330973E+06 -2.015023E+05 -1.771023E+04 -4.919014E+05 -9.432056E+02  6.910909E+02
        54  27 -1.332054E+06 -2.050881E+05 -1.916044E+04 -4.950900E+05 -1.224599E+03  6.971614E+02
        55   1 -1.186701E+06 -1.494817E+05  2.041308E+04 -4.552783E+05  1.497071E+03 -6.696841E+02
        55   2 -1.185834E+06 -1.470643E+05  1.984120E+04 -4.531892E+05  2.797026E+03 -3.037512E+02
        55   3 -1.183481E+06 -1.495151E+05  1.769319E+04 -4.533573E+05  4.066048E+03  1.447527E+02
        55   4 -1.266405E+06 -1.794507E+05 -1.393056E+03 -4.768207E+05  1.467083E+03 -6.809451E+02
        55   5 -1.267265E+06 -1.778538E+05 -2.459701E+03 -4.753774E+05  2.783546E+03 -3.088230E+02
        55   6 -1.266643E+06 -1.811286E+05 -5.115751E+03 -4.761914E+05  4.069071E+03  1.458730E+02
        55   7 -1.346103E+06 -2.094193E+05 -2.319979E+04 -4.983606E+05  1.437099E+03 -6.922046E+02
        55   8 -1.348689E+06 -2.086430E+05 -2.476122E+04 -4.975629E+05  2.770069E+03 -3.138941E+02
        55   9 -1.349798E+06 -2.127418E+05 -2.792532E+04 -4.990228E+05  4.072092E+03  1.469930E+02
        55  10 -1.186701E+06 -1.494818E+05  2.041307E+04 -4.552783E+05 -6.807029E-10  6.540700E-10
        55  11 -1.185834E+06 -1.470644E+05  1.984119E+04 -4.531892E+05 -2.645695E-09 -8.718679E-10
        55  12 -1.183481E+06 -1.495151E+05  1.769316E+04 -4.533573E+05 -8.053839E-10 -1.228668E-09
        55  13 -1.266405E+06 -1.794507E+05 -1.393061E+03 -4.768207E+05 -1.059564E-09  5.080704E-11
        55  14 -1.267265E+06 -1.778538E+05 -2.459716E+03 -4.753774E+05 -1.272178E-09 -6.937701E-10
        55  15 -1.266643E+06 -1.811287E+05 -5.115782E+03 -4.761914E+05  8.323437E-10 -1.707450E-09
        55  16 -1.346103E+06 -2.094193E+05 -2.319980E+04 -4.983606E+05  7.921100E-10 -4.133424E-10
        55  17 -1.348689E+06 -2.086430E+05 -2.476124E+04 -4.975629E+05  2.859419E-09 -1.066646E-09
        55  18 -1.349798E+06 -2.127418E+05 -2.792535E+04 -4.990228E+05 -1.813041E-10 -1.632911E-09
        55  19 -1.186701E+06 -1.494817E+05  2.041308E+04 -4.552783E+05 -1.497071E+03  6.696841E+02
        55  20 -1.185834E+06 -1.470643E+05  1.984120E+04 -4.531892E+05 -2.797026E+03  3.037512E+02
        55  21 -1.183481E+06 -1.495151E+05  1.769319E+04 -4.533573E+05 -4.066048E+03 -1.447527E+02
        55  22 -1.266405E+06 -1.794507E+05 -1.393056E+03 -4.768207E+05 -1.467083E+03  6.809451E+02
        55  23 -1.267265E+06 -1.778538E+05 -2.459701E+03 -4.753774E+05 -2.783546E+03  3.088230E+02
        55  24 -1.266643E+06 -1.811286E+05 -5.115751E+03 -4.761914E+05 -4.069071E+03 -1.458730E+02
        55  25 -1.346103E+06 -2.094193E+05 -2.319979E+04 -4.983606E+05 -1.437099E+03  6.922046E+02
        55  26 -1.348689E+06 -2.086430E+05 -2.476122E+04 -4.975629E+05 -2.770069E+03  3.138941E+02
        55  27 -1.349798E+06 -2.127418E+05 -2.792532E+04 -4.990228E+05 -4.072092E+03 -1.469930E+02
        56   1 -1.177863E+06 -1.456520E+05  1.801675E+04 -4.531271E+05  5.076658E+03  4.694633E+02
        56   2 -1.175997E+06 -1.420203E+05  1.380883E+04 -4.517196E+05  1.075851E+04  2.534377E+03
        56   3 -1.180477E+06 -1.551843E+05  9.319790E+02 -4.466923E+05  1.636265E+04  4.806139E+03
        56   4 -1.267679E+06 -1.787940E+05 -6.423688E+03 -4.767583E+05  5.043072E+03  4.568423E+02
        56   5 -1.265318E+06 -1.761364E+05 -1.071861E+04 -4.764111E+05  1.076590E+04  2.537128E+03
        56   6 -1.269312E+06 -1.902840E+05 -2.371593E+04 -4.724438E+05  1.641100E+04  4.824254E+03
        56   7 -1.357487E+06 -2.119356E+05 -3.086482E+04 -5.003864E+05  5.009491E+03  4.442232E+02
        56   8 -1.354632E+06 -2.102520E+05 -3.524678E+04 -5.010993E+05  1.077328E+04  2.539878E+03
        56   9 -1.358140E+06 -2.253831E+05 -4.836461E+04 -4.981919E+05  1.645936E+04  4.842366E+03
        56  10 -1.177863E+06 -1.456520E+05  1.801670E+04 -4.531271E+05 -8.742312E-10 -8.966945E-10
        56  11 -1.175998E+06 -1.420203E+05  1.380860E+04 -4.517196E+05  1.769061E-09 -2.985726E-12
        56  12 -1.180477E+06 -1.551844E+05  9.314313E+02 -4.466923E+05  1.228048E-09 -5.068758E-10
        56  13 -1.267679E+06 -1.787940E+05 -6.423736E+03 -4.767583E+05 -1.707147E-09 -1.039403E-09
        56  14 -1.265318E+06 -1.761364E+05 -1.071884E+04 -4.764111E+05 -1.396951E-09  1.914614E-10
        56  15 -1.269312E+06 -1.902841E+05 -2.371649E+04 -4.724438E+05  4.529638E-09  2.791988E-10
        56  16 -1.357487E+06 -2.119356E+05 -3.086487E+04 -5.003864E+05  1.254206E-09 -8.670221E-10
        56  17 -1.354632E+06 -2.102520E+05 -3.524702E+04 -5.010994E+05  3.065486E-09  4.701278E-10
        56  18 -1.358140E+06 -2.253832E+05 -4.836517E+04 -4.981920E+05  9.500465E-10  2.394723E-10
        56  19 -1.177863E+06 -1.456520E+05  1.801675E+04 -4.531271E+05 -5.076658E+03 -4.694633E+02
        56  20 -1.175997E+06 -1.420203E+05  1.380883E+04 -4.517196E+05 -1.075851E+04 -2.534377E+03
        56  21 -1.180477E+06 -1.551843E+05  9.319790E+02 -4.466923E+05 -1.636265E+04 -4.806139E+03
        56  22 -1.267679E+06 -1.787940E+05 -6.423688E+03 -4.767583E+05 -5.043072E+03 -4.568423E+02
        56  23 -1.265318E+06 -1.761364E+05 -1.071861E+04 -4.764111E+05 -1.076590E+04 -2.537128E+03
        56  24 -1.269312E+06 -1.902840E+05 -2.371593E+04 -4.724438E+05 -1.641100E+04 -4.824254E+03
        56  25 -1.357487E+06 -2.119356E+05 -3.086482E+04 -5.003864E+05 -5.009491E+03 -4.442232E+02
        56  26 -1.354632E+06 -2.102520E+05 -3.524678E+04 -5.010993E+05 -1.077328E+04 -2.539878E+03
        56  27 -1.358140E+06 -2.253831E+05 -4.836461E+04 -4.981919E+05 -1.645936E+04 -4.842366E+03
        57   1 -1.182008E+06 -1.474862E+05 -4.809171E+03 -4.597152E+05  2.092865E+04  6.372079E+03
        57   2 -1.171272E+06 -1.265617E+05 -2.200269E+04 -4.540227E+05  4.598205E+04  1.570798E+04
        57   3 -1.207289E+06 -2.152031E+05 -8.832859E+04 -4.174882E+05  7.065172E+04  2.606338E+04
        57   4 -1.273458E+06 -1.767899E+05 -2.880097E+04 -4.792221E+05  2.080857E+04  6.327132E+03
        57   5 -1.255647E+06 -1.612526E+05 -4.564484E+04 -4.798787E+05  4.606449E+04  1.573872E+04
        57   6 -1.284635E+06 -2.553309E+05 -1.117870E+05 -4.496914E+05  7.093695E+04  2.616916E+04
        57   7 -1.364899E+06 -2.060936E+05 -5.279344E+04 -4.987267E+05  2.068851E+04  6.282190E+03
        57   8 -1.340015E+06 -1.959428E+05 -6.928764E+04 -5.057313E+05  4.614691E+04  1.576945E+04
        57   9 -1.361975E+06 -2.954565E+05 -1.352459E+05 -4.818904E+05  7.122214E+04  2.627492E+04
        57  10 -1.182009E+06 -1.474864E+05 -4.810073E+03 -4.597153E+05  3.000742E-10  1.507702E-09
        57  11 -1.171274E+06 -1.265625E+05 -2.200714E+04 -4.540233E+05 -8.500172E-10  4.355792E-09
        57  12 -1.207294E+06 -2.152052E+05 -8.833927E+04 -4.174897E+05 -1.911202E-10  2.725759E-09
        57  13 -1.273458E+06 -1.767901E+05 -2.880186E+04 -4.792222E+05  1.417591E-09  5.787659E-10
        57  14 -1.255649E+06 -1.612535E+05 -4.564930E+04 -4.798792E+05  3.823966E-09  8.760439E-10
        57  15 -1.284641E+06 -2.553330E+05 -1.117977E+05 -4.496929E+05 -1.655488E-10  1.547242E-09
        57  16 -1.364899E+06 -2.060938E+05 -5.279432E+04 -4.987268E+05  3.096702E-09  1.644717E-10
        57  17 -1.340017E+06 -1.959437E+05 -6.929212E+04 -5.057319E+05 -8.882127E-10  2.966060E-10
        57  18 -1.361981E+06 -2.954586E+05 -1.352568E+05 -4.818919E+05  4.325698E-10  4.740983E-10
        57  19 -1.182008E+06 -1.474862E+05 -4.809171E+03 -4.597152E+05 -2.092865E+04 -6.372079E+03
        57  20 -1.171272E+06 -1.265617E+05 -2.200269E+04 -4.540227E+05 -4.598205E+04 -1.570798E+04
        57  21 -1.207289E+06 -2.152031E+05 -8.832859E+04 -4.174882E+05 -7.065172E+04 -2.606338E+04
        57  22 -1.273458E+06 -1.767899E+05 -2.880097E+04 -4.792221E+05 -2.080857E+04 -6.327132E+03
        57  23 -1.255647E+06 -1.612526E+05 -4.564484E+04 -4.798787E+05 -4.606449E+04 -1.573872E+04
        57  24 -1.284635E+06 -2.553309E+05 -1.117870E+05 -4.496914E+05 -7.093695E+04 -2.616916E+04
        57  25 -1.364899E+06 -2.060936E+05 -5.279344E+04 -4.987267E+05 -2.068851E+04 -6.282190E+03
        57  26 -1.340015E+06 -1.959428E+05 -6.928764E+04 -5.057313E+05 -4.614691E+04 -1.576945E+04
        57  27 -1.361975E+06 -2.954565E+05 -1.352459E+05 -4.818904E+05 -7.122214E+04 -2.627492E+04
        58   1 -3.401586E+05  5.391188E+04  7.008421E+04  7.963894E+03  4.784045E+04  6.140128E-01
        58   2 -3.507035E+05 -1.191926E+04  3.001582E+04  2.059673E+03  3.146103E+04  1.044316E-01
        58   3 -3.401693E+05 -1.982913E+03  1.955881E+04 -3.844550E+03  1.508129E+04 -9.344100E-02
        58   4 -3.401586E+05  5.391177E+04  7.008419E+04  3.754986E-08  4.784045E+04 -5.986811E-10
        58   5 -3.507035E+05 -1.191927E+04  3.001582E+04  8.478667E-09  3.146103E+04 -5.108057E-10
        58   6 -3.401693E+05 -1.982941E+03  1.955881E+04  3.001825E-08  1.508129E+04 -5.458128E-10
        58   7 -3.401586E+05  5.391188E+04  7.008421E+04 -7.963894E+03  4.784045E+04 -6.140128E-01
        58   8 -3.507035E+05 -1.191926E+04  3.001582E+04 -2.059673E+03  3.146103E+04 -1.044316E-01
        58   9 -3.401693E+05 -1.982913E+03  1.955881E+04  3.844550E+03  1.508129E+04  9.344100E-02
        58  10 -3.401610E+05  5.391127E+04  7.007991E+04  7.963894E+03  6.012845E-11  1.166334E-10
        58  11 -3.507045E+05 -1.191953E+04  3.001396E+04  2.059673E+03 -2.286627E-09 -1.981366E-10
        58  12 -3.401695E+05 -1.982974E+03  1.955838E+04 -3.844550E+03  4.449447E-10 -4.631142E-10
        58  13 -3.401611E+05  5.391115E+04  7.007989E+04  1.170355E-08  9.319730E-10 -2.367002E-11
        58  14 -3.507045E+05 -1.191954E+04  3.001396E+04  3.862615E-08  9.487858E-10 -1.946643E-10
        58  15 -3.401696E+05 -1.983002E+03  1.955838E+04 -7.675577E-09  3.374609E-09 -5.555855E-10
        58  16 -3.401610E+05  5.391127E+04  7.007991E+04 -7.963894E+03  1.478517E-09 -5.776027E-12
        58  17 -3.507045E+05 -1.191953E+04  3.001396E+04 -2.059673E+03  2.244083E-09 -3.921735E-10
        58  18 -3.401695E+05 -1.982974E+03  1.955838E+04  3.844550E+03  1.963514E-10 -6.011881E-10
        58  19 -3.401586E+05  5.391188E+04  7.008421E+04  7.963894E+03 -4.784045E+04 -6.140128E-01
        58  20 -3.507035E+05 -1.191926E+04  3.001582E+04  2.059673E+03 -3.146103E+04 -1.044316E-01
        58  21 -3.401693E+05 -1.982913E+03  1.955881E+04 -3.844550E+03 -1.508129E+04  9.344100E-02
        58  22 -3.401586E+05  5.391177E+04  7.008419E+04  6.339068E-08 -4.784045E+04  5.508465E-10
        58  23 -3.507035E+05 -1.191927E+04  3.001582E+04  6.015897E-08 -3.146103E+04  6.901957E-11
        58  24 -3.401693E+05 -1.982941E+03  1.955881E+04  3.754572E-08 -1.508129E+04 -5.341578E-10
        58  25 -3.401586E+05  5.391188E+04  7.008421E+04 -7.963894E+03 -4.784045E+04  6.140128E-01
        58  26 -3.507035E+05 -1.191926E+04  3.001582E+04 -2.059673E+03 -3.146103E+04  1.044316E-01
        58  27 -3.401693E+05 -1.982913E+03  1.955881E+04  3.844550E+03 -1.508129E+04 -9.344100E-02
        59   1 -3.441221E+05  7.820527E+03  1.614994E+04  1.096084E+03  1.187469E+04  2.097600E-02
        59   2 -3.457633E+05 -1.734349E+03  7.753853E+03  2.619361E+02  7.819364E+03  3.300834E-03
        59   3 -3.441240E+05 -2.824213E+02  4.750845E+03 -5.722118E+02  3.764046E+03 -3.471103E-03
        59   4 -3.441221E+05  7.820525E+03  1.614994E+04  4.808896E-08  1.187469E+04 -3.280004E-10
        59   5 -3.457633E+05 -1.734350E+03  7.753853E+03  4.441380E-09  7.819364E+03  3.065810E-10
        59   6 -3.441240E+05 -2.824220E+02  4.750845E+03 -1.443928E-08  3.764046E+03  8.909479E-10
        59   7 -3.441221E+05  7.820527E+03  1.614994E+04 -1.096084E+03  1.187469E+04 -2.097600E-02
        59   8 -3.457633E+05 -1.734349E+03  7.753853E+03 -2.619361E+02  7.819364E+03 -3.300834E-03
        59   9 -3.441240E+05 -2.824213E+02  4.750845E+03  5.722118E+02  3.764046E+03  3.471104E-03
        59  10 -3.441223E+05  7.820489E+03  1.614968E+04  1.096084E+03  1.507372E-09 -6.353431E-10
        59  11 -3.457634E+05 -1.734366E+03  7.753738E+03  2.619361E+02  1.401271E-09  8.888866E-11
        59  12 -3.441240E+05 -2.824252E+02  4.750818E+03 -5.722118E+02  7.039398E-10  3.853000E-10
        59  13 -3.441223E+05  7.820487E+03  1.614968E+04 -1.220493E-08  3.109306E-09 -4.215130E-10
        59  14 -3.457634E+05 -1.734366E+03  7.753738E+03 -3.431860E-08 -3.414397E-09  1.755204E-10
        59  15 -3.441240E+05 -2.824258E+02  4.750818E+03 -1.766726E-08 -1.346823E-09  4.015309E-10
        59  16 -3.441223E+05  7.820489E+03  1.614968E+04 -1.096084E+03 -8.999432E-10 -3.092192E-10
        59  17 -3.457634E+05 -1.734366E+03  7.753738E+03 -2.619361E+02  2.950757E-10  2.622820E-10
        59  18 -3.441240E+05 -2.824252E+02  4.750818E+03  5.722118E+02 -4.622715E-10  3.751581E-10
        59  19 -3.441221E+05  7.820527E+03  1.614994E+04  1.096084E+03 -1.187469E+04 -2.097600E-02
        59  20 -3.457633E+05 -1.734349E+03  7.753853E+03  2.619361E+02 -7.819364E+03 -3.300834E-03
        59  21 -3.441240E+05 -2.824213E+02  4.750845E+03 -5.722118E+02 -3.764046E+03  3.471103E-03
        59  22 -3.441221E+05  7.820525E+03  1.614994E+04 -2.081203E-08 -1.187469E+04 -5.472476E-10
        59  23 -3.457633E+05 -1.734350E+03  7.753853E+03 -3.431413E-08 -7.819364E+03 -5.004325E-11
        59  24 -3.441240E+05 -2.824220E+02  4.750845E+03  1.140879E-08 -3.764046E+03 -8.223561E-11
        59  25 -3.441221E+05  7.820527E+03  1.614994E+04 -1.096084E+03 -1.187469E+04  2.097600E-02
        59  26 -3.457633E+05 -1.734349E+03  7.753853E+03 -2.619361E+02 -7.819364E+03  3.300834E-03
        59  27 -3.441240E+05 -2.824213E+02  4.750845E+03  5.722118E+02 -3.764046E+03 -3.471104E-03
        60   1 -3.447377E+05  1.127621E+03  3.762099E+03  1.419586E+02  2.996977E+03  6.856487E-04
        60   2 -3.449966E+05 -2.486761E+02  1.858223E+03  2.785654E+01  2.046982E+03  9.189570E-05
        60   3 -3.447381E+05 -5.074094E+01  9.666369E+02 -8.624389E+01  1.097002E+03 -1.524722E-04
        60   4 -3.447377E+05  1.127621E+03  3.762099E+03  2.746751E-08  2.996977E+03  4.912777E-10
        60   5 -3.449966E+05 -2.486761E+02  1.858223E+03  1.351892E-08  2.046982E+03 -4.371925E-10
        60   6 -3.447381E+05 -5.074095E+01  9.666369E+02  3.295151E-08  1.097002E+03  3.682952E-10
        60   7 -3.447377E+05  1.127621E+03  3.762099E+03 -1.419586E+02  2.996977E+03 -6.856477E-04
        60   8 -3.449966E+05 -2.486761E+02  1.858223E+03 -2.785654E+01  2.046982E+03 -9.189672E-05
        60   9 -3.447381E+05 -5.074094E+01  9.666369E+02  8.624389E+01  1.097002E+03  1.524729E-04
        60  10 -3.447377E+05  1.127619E+03  3.762082E+03  1.419586E+02 -9.072255E-10  3.315666E-10
        60  11 -3.449966E+05 -2.486772E+02  1.858215E+03  2.785654E+01  2.944077E-09  6.199835E-13
        60  12 -3.447381E+05 -5.074126E+01  9.666347E+02 -8.624389E+01  1.309352E-09  1.252988E-10
        60  13 -3.447377E+05  1.127619E+03  3.762082E+03 -2.422490E-08  1.458386E-10  2.564190E-10
        60  14 -3.449966E+05 -2.486772E+02  1.858215E+03 -4.678516E-08  1.845923E-27 -2.824032E-11
        60  15 -3.447381E+05 -5.074128E+01  9.666347E+02 -5.211628E-08  2.537870E-09 -5.258369E-11
        60  16 -3.447377E+05  1.127619E+03  3.762082E+03 -1.419586E+02 -4.997721E-10  2.484632E-10
        60  17 -3.449966E+05 -2.486772E+02  1.858215E+03 -2.785654E+01 -6.518996E-10 -7.018018E-11
        60  18 -3.447381E+05 -5.074126E+01  9.666347E+02  8.624389E+01 -3.170014E-10 -2.538603E-10
        60  19 -3.447377E+05  1.127621E+03  3.762099E+03  1.419586E+02 -2.996977E+03 -6.856478E-04
        60  20 -3.449966E+05 -2.486761E+02  1.858223E+03  2.785654E+01 -2.046982E+03 -9.189554E-05
        60  21 -3.447381E+05 -5.074094E+01  9.666369E+02 -8.624389E+01 -1.097002E+03  1.524727E-04
        60  22 -3.447377E+05  1.127621E+03  3.762099E+03  3.607120E-08 -2.996977E+03  3.173438E-11
        60  23 -3.449966E+05 -2.486761E+02  1.858223E+03 -5.970954E-08 -2.046982E+03  3.514889E-10
        60  24 -3.447381E+05 -5.074095E+01  9.666369E+02 -4.734707E-09 -1.097002E+03 -5.037377E-10
        60  25 -3.447377E+05  1.127621E+03  3.762099E+03 -1.419586E+02 -2.996977E+03  6.856481E-04
        60  26 -3.449966E+05 -2.486761E+02  1.858223E+03 -2.785654E+01 -2.046982E+03  9.189618E-05
        60  27 -3.447381E+05 -5.074094E+01  9.666369E+02  8.624389E+01 -1.097002E+03 -1.524737E-04
        61   1 -3.448472E+05  1.631493E+02  6.397569E+02  8.576509E+00  9.520205E+02  1.315929E-05
        61   2 -3.448603E+05 -1.594508E+01  7.941573E+00  4.409221E-01  9.460096E+02  6.715534E-07
        61   3 -3.448473E+05 -9.351179E+01 -5.945714E+02 -7.694789E+00  9.399985E+02 -1.165640E-05
        61   4 -3.448472E+05  1.631493E+02  6.397569E+02  1.369700E-08  9.520205E+02  4.084757E-10
        61   5 -3.448603E+05 -1.594508E+01  7.941573E+00 -1.106333E-09  9.460096E+02 -4.365215E-10
        61   6 -3.448473E+05 -9.351179E+01 -5.945714E+02  3.039327E-08  9.399985E+02  4.103492E-10
        61   7 -3.448472E+05  1.631493E+02  6.397569E+02 -8.576509E+00  9.520205E+02 -1.315864E-05
        61   8 -3.448603E+05 -1.594508E+01  7.941573E+00 -4.409219E-01  9.460096E+02 -6.728735E-07
        61   9 -3.448473E+05 -9.351179E+01 -5.945714E+02  7.694789E+00  9.399985E+02  1.165736E-05
        61  10 -3.448472E+05  1.631490E+02  6.397552E+02  8.576508E+00  5.227240E-11  8.899611E-11
        61  11 -3.448603E+05 -1.594532E+01  7.939890E+00  4.409220E-01 -2.115142E-09 -1.193225E-10
        61  12 -3.448473E+05 -9.351202E+01 -5.945731E+02 -7.694789E+00 -3.244684E-10  2.998036E-10
        61  13 -3.448472E+05  1.631490E+02  6.397552E+02 -2.937861E-08 -1.093648E-09 -9.451053E-11
        61  14 -3.448603E+05 -1.594532E+01  7.939890E+00  1.181845E-08 -1.014503E-09 -7.176273E-11
        61  15 -3.448473E+05 -9.351202E+01 -5.945731E+02  4.009390E-08 -6.462359E-09  4.178847E-10
        61  16 -3.448472E+05  1.631490E+02  6.397552E+02 -8.576509E+00 -6.698287E-10 -2.108182E-10
        61  17 -3.448603E+05 -1.594532E+01  7.939890E+00 -4.409219E-01  6.245478E-10 -9.899977E-11
        61  18 -3.448473E+05 -9.351202E+01 -5.945731E+02  7.694789E+00  6.494484E-10  4.572365E-10
        61  19 -3.448472E+05  1.631493E+02  6.397569E+02  8.576509E+00 -9.520205E+02 -1.315906E-05
        61  20 -3.448603E+05 -1.594508E+01  7.941573E+00  4.409220E-01 -9.460096E+02 -6.716987E-07
        61  21 -3.448473E+05 -9.351179E+01 -5.945714E+02 -7.694789E+00 -9.399985E+02  1.165732E-05
        61  22 -3.448472E+05  1.631493E+02  6.397569E+02  2.230568E-08 -9.520205E+02 -5.881341E-10
        61  23 -3.448603E+05 -1.594508E+01  7.941573E+00 -1.099893E-09 -9.460096E+02  2.321940E-10
        61  24 -3.448473E+05 -9.351179E+01 -5.945714E+02  2.933564E-08 -9.399985E+02  3.828488E-10
        61  25 -3.448472E+05  1.631493E+02  6.397569E+02 -8.576508E+00 -9.520205E+02  1.315777E-05
        61  26 -3.448603E+05 -1.594508E+01  7.941573E+00 -4.409220E-01 -9.460096E+02  6.722301E-07
        61  27 -3.448473E+05 -9.351179E+01 -5.945714E+02  7.694789E+00 -9.399985E+02 -1.165644E-05
        62   1 -3.449279E+05  4.259021E+01 -9.259182E+02 -5.037465E+01  1.077487E+03 -8.747395E-05
        62   2 -3.447598E+05  1.372887E+02 -1.836026E+03  6.643744E+00  2.001933E+03  2.143394E-05
        62   3 -3.449282E+05 -6.328008E+02 -3.564431E+03  6.366218E+01  2.926378E+03  3.002408E-04
        62   4 -3.449279E+05  4.259020E+01 -9.259182E+02  1.091856E-08  1.077487E+03  2.065846E-10
        62   5 -3.447598E+05  1.372887E+02 -1.836026E+03 -7.393406E-08  2.001933E+03 -6.553088E-10
        62   6 -3.449282E+05 -6.328008E+02 -3.564431E+03 -2.849172E-08  2.926378E+03  1.093894E-09
        62   7 -3.449279E+05  4.259021E+01 -9.259182E+02  5.037465E+01  1.077487E+03  8.747429E-05
        62   8 -3.447598E+05  1.372887E+02 -1.836026E+03 -6.643744E+00  2.001933E+03 -2.143572E-05
        62   9 -3.449282E+05 -6.328008E+02 -3.564431E+03 -6.366218E+01  2.926378E+03 -3.002388E-04
        62  10 -3.449279E+05  4.258990E+01 -9.259203E+02 -5.037465E+01 -2.295302E-09  6.882228E-11
        62  11 -3.447598E+05  1.372876E+02 -1.836033E+03  6.643744E+00 -6.000738E-10 -4.312001E-10
        62  12 -3.449282E+05 -6.328031E+02 -3.564447E+03  6.366218E+01 -2.427492E-09  5.244764E-10
        62  13 -3.449279E+05  4.258989E+01 -9.259203E+02  1.090265E-08 -2.402615E-09  2.112761E-10
        62  14 -3.447598E+05  1.372876E+02 -1.836033E+03 -3.085933E-08  8.320617E-10 -3.978342E-10
        62  15 -3.449282E+05 -6.328031E+02 -3.564447E+03 -6.400804E-08 -1.241283E-09  5.053677E-10
        62  16 -3.449279E+05  4.258990E+01 -9.259203E+02  5.037465E+01 -1.550542E-09  3.203704E-10
        62  17 -3.447598E+05  1.372876E+02 -1.836033E+03 -6.643744E+00 -5.389909E-10 -2.466398E-10
        62  18 -3.449282E+05 -6.328031E+02 -3.564447E+03 -6.366218E+01  2.122515E-09  5.078641E-10
        62  19 -3.449279E+05  4.259021E+01 -9.259182E+02 -5.037465E+01 -1.077487E+03  8.747458E-05
        62  20 -3.447598E+05  1.372887E+02 -1.836026E+03  6.643744E+00 -2.001933E+03 -2.143445E-05
        62  21 -3.449282E+05 -6.328008E+02 -3.564431E+03  6.366218E+01 -2.926378E+03 -3.002397E-04
        62  22 -3.449279E+05  4.259020E+01 -9.259182E+02  5.396067E-08 -1.077487E+03  2.302896E-10
        62  23 -3.447598E+05  1.372887E+02 -1.836026E+03 -5.014469E-09 -2.001933E+03 -8.391419E-11
        62  24 -3.449282E+05 -6.328008E+02 -3.564431E+03 -4.764625E-09 -2.926378E+03 -8.124471E-11
        62  25 -3.449279E+05  4.259021E+01 -9.259182E+02  5.037465E+01 -1.077487E+03 -8.747429E-05
        62  26 -3.447598E+05  1.372887E+02 -1.836026E+03 -6.643745E+00 -2.001933E+03  2.143458E-05
        62  27 -3.449282E+05 -6.328008E+02 -3.564431E+03 -6.366218E+01 -2.926378E+03  3.002391E-04
        63   1 -3.453154E+05  1.557155E+02 -4.602919E+03 -3.383155E+02  3.663904E+03 -1.997662E-03
        63   2 -3.442763E+05  9.883467E+02 -7.756988E+03  1.124198E+02  7.623166E+03  1.381128E-03
        63   3 -3.453168E+05 -4.433601E+03 -1.505334E+04  5.631493E+02  1.158235E+04  1.051178E-02
        63   4 -3.453154E+05  1.557153E+02 -4.602919E+03  1.767604E-08  3.663904E+03  1.108010E-09
        63   5 -3.442763E+05  9.883467E+02 -7.756988E+03 -4.233064E-08  7.623166E+03 -5.401959E-10
        63   6 -3.453168E+05 -4.433602E+03 -1.505334E+04 -1.403833E-08  1.158235E+04  1.626136E-10
        63   7 -3.453154E+05  1.557155E+02 -4.602919E+03  3.383155E+02  3.663904E+03  1.997664E-03
        63   8 -3.442763E+05  9.883467E+02 -7.756988E+03 -1.124198E+02  7.623166E+03 -1.381129E-03
        63   9 -3.453168E+05 -4.433601E+03 -1.505334E+04 -5.631493E+02  1.158235E+04 -1.051178E-02
        63  10 -3.453154E+05  1.557119E+02 -4.602944E+03 -3.383155E+02 -3.089330E-10  6.522855E-10
        63  11 -3.442763E+05  9.883311E+02 -7.757097E+03  1.124198E+02 -2.052854E-09 -2.258215E-10
        63  12 -3.453169E+05 -4.433638E+03 -1.505360E+04  5.631493E+02  4.359605E-10  5.580775E-12
        63  13 -3.453154E+05  1.557116E+02 -4.602944E+03 -8.181334E-09 -1.081026E-09  5.760320E-10
        63  14 -3.442763E+05  9.883311E+02 -7.757097E+03 -3.567814E-09  1.200759E-09 -1.845864E-10
        63  15 -3.453169E+05 -4.433638E+03 -1.505360E+04  1.046187E-09 -1.427060E-09  5.162198E-11
        63  16 -3.453154E+05  1.557119E+02 -4.602944E+03  3.383155E+02 -7.122246E-10  4.994591E-10
        63  17 -3.442763E+05  9.883311E+02 -7.757097E+03 -1.124198E+02  3.770701E-09 -2.076890E-10
        63  18 -3.453169E+05 -4.433638E+03 -1.505360E+04 -5.631493E+02 -4.138068E-10  3.442674E-11
        63  19 -3.453154E+05  1.557155E+02 -4.602919E+03 -3.383155E+02 -3.663904E+03  1.997664E-03
        63  20 -3.442763E+05  9.883467E+02 -7.756988E+03  1.124198E+02 -7.623166E+03 -1.381127E-03
        63  21 -3.453168E+05 -4.433601E+03 -1.505334E+04  5.631493E+02 -1.158235E+04 -1.051178E-02
        63  22 -3.453154E+05  1.557153E+02 -4.602919E+03  4.349044E-08 -3.663904E+03  7.304393E-11
        63  23 -3.442763E+05  9.883467E+02 -7.756988E+03  2.658038E-08 -7.623166E+03  1.256352E-10
        63  24 -3.453168E+05 -4.433602E+03 -1.505334E+04 -5.405444E-09 -1.158235E+04  3.886016E-11
        63  25 -3.453154E+05  1.557155E+02 -4.602919E+03  3.383155E+02 -3.663904E+03 -1.997664E-03
        63  26 -3.442763E+05  9.883467E+02 -7.756988E+03 -1.124198E+02 -7.623166E+03  1.381127E-03
        63  27 -3.453168E+05 -4.433601E+03 -1.505334E+04 -5.631493E+02 -1.158235E+04  1.051178E-02
        64   1 -3.477220E+05  1.105273E+03 -1.887901E+04 -2.249178E+03  1.464016E+04 -5.306734E-02
        64   2 -3.412706E+05  6.821917E+03 -3.059995E+04  1.031092E+03  3.064251E+04  5.091840E-02
        64   3 -3.477282E+05 -3.075470E+04 -6.356525E+04  4.311407E+03  4.664496E+04  3.241001E-01
        64   4 -3.477220E+05  1.105263E+03 -1.887901E+04  6.901362E-08  1.464016E+04  5.584105E-10
        64   5 -3.412706E+05  6.821915E+03 -3.059995E+04  2.158884E-08  3.064251E+04 -7.925765E-11
        64   6 -3.477282E+05 -3.075473E+04 -6.356525E+04  2.908349E-08  4.664496E+04 -9.186806E-10
        64   7 -3.477220E+05  1.105273E+03 -1.887901E+04  2.249178E+03  1.464016E+04  5.306735E-02
        64   8 -3.412706E+05  6.821917E+03 -3.059995E+04 -1.031092E+03  3.064251E+04 -5.091840E-02
        64   9 -3.477282E+05 -3.075470E+04 -6.356525E+04 -4.311407E+03  4.664496E+04 -3.241001E-01
        64  10 -3.477222E+05  1.105215E+03 -1.887941E+04 -2.249178E+03  2.434521E-09 -2.884842E-10
        64  11 -3.412716E+05  6.821664E+03 -3.060171E+04  1.031092E+03  1.188542E-09 -1.002894E-09
        64  12 -3.477305E+05 -3.075528E+04 -6.356934E+04  4.311407E+03 -1.261376E-09  4.742330E-10
        64  13 -3.477222E+05  1.105206E+03 -1.887941E+04  4.315215E-08 -1.085218E-09 -1.980397E-10
        64  14 -3.412716E+05  6.821662E+03 -3.060171E+04 -3.009586E-08  1.081002E-09 -8.091835E-10
        64  15 -3.477305E+05 -3.075532E+04 -6.356934E+04 -3.873248E-08 -4.372143E-09  4.091027E-10
        64  16 -3.477222E+05  1.105215E+03 -1.887941E+04  2.249178E+03 -3.025324E-09 -1.568393E-10
        64  17 -3.412716E+05  6.821664E+03 -3.060171E+04 -1.031092E+03 -3.107794E-09 -6.165162E-10
        64  18 -3.477305E+05 -3.075528E+04 -6.356934E+04 -4.311407E+03 -2.131993E-09  3.610319E-10
        64  19 -3.477220E+05  1.105273E+03 -1.887901E+04 -2.249178E+03 -1.464016E+04  5.306734E-02
        64  20 -3.412706E+05  6.821917E+03 -3.059995E+04  1.031092E+03 -3.064251E+04 -5.091840E-02
        64  21 -3.477282E+05 -3.075470E+04 -6.356525E+04  4.311407E+03 -4.664496E+04 -3.241001E-01
        64  22 -3.477220E+05  1.105263E+03 -1.887901E+04 -8.555510E-09 -1.464016E+04 -9.718728E-10
        64  23 -3.412706E+05  6.821915E+03 -3.059995E+04 -3.870703E-08 -3.064251E+04 -1.546928E-09
        64  24 -3.477282E+05 -3.075473E+04 -6.356525E+04 -6.400285E-09 -4.664496E+04  1.738240E-09
        64  25 -3.477220E+05  1.105273E+03 -1.887901E+04  2.249178E+03 -1.464016E+04 -5.306734E-02
        64  26 -3.412706E+05  6.821917E+03 -3.059995E+04 -1.031092E+03 -3.064251E+04  5.091840E-02
        64  27 -3.477282E+05 -3.075470E+04 -6.356525E+04 -4.311407E+03 -4.664496E+04  3.241001E-01
        65   1 -3.632692E+05  7.798801E+03 -7.694869E+04 -1.511850E+04  5.926039E+04 -1.443909E+00
        65   2 -3.218378E+05  4.687525E+04 -1.180149E+05  8.101398E+03  1.236896E+05  1.614848E+00
        65   3 -3.632944E+05 -2.120091E+05 -2.755185E+05  3.131997E+04  1.881201E+05  9.495347E+00
        65   4 -3.632694E+05  7.798372E+03 -7.694875E+04  2.410574E-09  5.926039E+04  4.122457E-10
        65   5 -3.218379E+05  4.687513E+04 -1.180149E+05 -6.849628E-08  1.236896E+05  3.124454E-09
        65   6 -3.632955E+05 -2.120109E+05 -2.755188E+05 -2.416969E-08  1.881201E+05 -1.964693E-09
        65   7 -3.632692E+05  7.798801E+03 -7.694869E+04  1.511850E+04  5.926039E+04  1.443909E+00
        65   8 -3.218378E+05  4.687525E+04 -1.180149E+05 -8.101398E+03  1.236896E+05 -1.614848E+00
        65   9 -3.632944E+05 -2.120091E+05 -2.755185E+05 -3.131997E+04  1.881201E+05 -9.495347E+00
        65  10 -3.632730E+05  7.797858E+03 -7.695529E+04 -1.511850E+04 -2.349502E-09  7.647286E-10
        65  11 -3.218543E+05  4.687114E+04 -1.180437E+05  8.101397E+03 -3.809199E-09 -4.141680E-10
        65  12 -3.633324E+05 -2.120186E+05 -2.755850E+05  3.131997E+04 -4.438288E-10 -1.773806E-10
        65  13 -3.632732E+05  7.797428E+03 -7.695535E+04  2.823527E-08 -2.888316E-09  6.178361E-10
        65  14 -3.218543E+05  4.687101E+04 -1.180437E+05 -2.542467E-08 -1.414156E-09 -4.200488E-10
        65  15 -3.633335E+05 -2.120204E+05 -2.755853E+05 -1.016386E-08 -2.867943E-09 -2.506218E-10
        65  16 -3.632730E+05  7.797858E+03 -7.695529E+04  1.511850E+04 -4.024211E-10  4.731656E-10
        65  17 -3.218543E+05  4.687114E+04 -1.180437E+05 -8.101397E+03  1.543886E-09 -5.454209E-10
        65  18 -3.633324E+05 -2.120186E+05 -2.755850E+05 -3.131997E+04 -4.424565E-10 -1.725715E-10
        65  19 -3.632692E+05  7.798801E+03 -7.694869E+04 -1.511850E+04 -5.926039E+04  1.443909E+00
        65  20 -3.218378E+05  4.687525E+04 -1.180149E+05  8.101398E+03 -1.236896E+05 -1.614848E+00
        65  21 -3.632944E+05 -2.120091E+05 -2.755185E+05  3.131997E+04 -1.881201E+05 -9.495347E+00
        65  22 -3.632694E+05  7.798372E+03 -7.694875E+04  1.960217E-08 -5.926039E+04  8.189348E-10
        65  23 -3.218379E+05  4.687513E+04 -1.180149E+05  4.163712E-10 -1.236896E+05 -3.917884E-09
        65  24 -3.632955E+05 -2.120109E+05 -2.755188E+05  7.073182E-09 -1.881201E+05 -1.185006E-11
        65  25 -3.632692E+05  7.798801E+03 -7.694869E+04  1.511850E+04 -5.926039E+04 -1.443909E+00
        65  26 -3.218378E+05  4.687525E+04 -1.180149E+05 -8.101398E+03 -1.236896E+05  1.614848E+00
        65  27 -3.632944E+05 -2.120091E+05 -2.755185E+05 -3.131997E+04 -1.881201E+05  9.495347E+00
        66   1  3.395787E+04 -4.907262E+05  4.142419E+04  2.900491E+03  2.177167E+02  1.904628E+04
        66   2  7.729410E+03 -4.864349E+05  2.762001E+04 -2.362314E+03  7.742347E+02  1.107388E+04
        66   3  1.576001E+04 -4.725175E+05  2.757845E+04  8.215465E+03  1.035003E+03  3.101284E+03
        66   4  2.310018E+04 -5.341569E+05  3.059111E+04  6.419364E+03  2.178268E+02  1.889327E+04
        66   5 -5.389554E+03 -5.389673E+05  1.458851E+04 -1.501132E+03  7.742619E+02  1.098518E+04
        66   6  3.700231E+02 -5.341625E+05  1.230448E+04  6.418981E+03  1.035004E+03  3.077004E+03
        66   7  1.224240E+04 -5.775859E+05  1.975790E+04  9.937991E+03  2.179351E+02  1.874027E+04
        66   8 -1.850872E+04 -5.914973E+05  1.556806E+03 -6.400219E+02  7.742888E+02  1.089648E+04
        66   9 -1.502024E+04 -5.958041E+05 -2.969779E+03  4.622676E+03  1.035006E+03  3.052727E+03
        66  10  3.395777E+04 -4.907266E+05  4.142351E+04  2.900487E+03  3.354174E-10  6.550363E-10
        66  11  7.729376E+03 -4.864350E+05  2.761978E+04 -2.362321E+03 -1.562192E-09 -3.853588E-10
        66  12  1.576001E+04 -4.725175E+05  2.757843E+04  8.215462E+03 -3.009632E-09 -7.586625E-10
        66  13  2.310008E+04 -5.341573E+05  3.059044E+04  6.419361E+03  1.171238E-10 -4.614643E-11
        66  14 -5.389587E+03 -5.389675E+05  1.458828E+04 -1.501138E+03  3.474399E-10 -1.130700E-10
        66  15  3.700195E+02 -5.341625E+05  1.230446E+04  6.418978E+03 -9.722176E-10 -6.812272E-11
        66  16  1.224230E+04 -5.775863E+05  1.975724E+04  9.937987E+03  3.970701E-09 -6.279194E-10
        66  17 -1.850876E+04 -5.914974E+05  1.556582E+03 -6.400287E+02  1.238858E-09  4.630630E-10
        66  18 -1.502024E+04 -5.958041E+05 -2.969798E+03  4.622673E+03  2.171788E-10  8.510235E-10
        66  19  3.395787E+04 -4.907262E+05  4.142419E+04  2.900491E+03 -2.177167E+02 -1.904628E+04
        66  20  7.729410E+03 -4.864349E+05  2.762001E+04 -2.362314E+03 -7.742347E+02 -1.107388E+04
        66  21  1.576001E+04 -4.725175E+05  2.757845E+04  8.215465E+03 -1.035003E+03 -3.101284E+03
        66  22  2.310018E+04 -5.341569E+05  3.059111E+04  6.419364E+03 -2.178268E+02 -1.889327E+04
        66  23 -5.389554E+03 -5.389673E+05  1.458851E+04 -1.501132E+03 -7.742619E+02 -1.098518E+04
        66  24  3.700231E+02 -5.341625E+05  1.230448E+04  6.418981E+03 -1.035004E+03 -3.077004E+03
        66  25  1.224240E+04 -5.775859E+05  1.975790E+04  9.937991E+03 -2.179351E+02 -1.874027E+04
        66  26 -1.850872E+04 -5.914973E+05  1.556806E+03 -6.400219E+02 -7.742888E+02 -1.089648E+04
        66  27 -1.502024E+04 -5.958041E+05 -2.969779E+03  4.622676E+03 -1.035006E+03 -3.052727E+03
        67   1  2.898238E+04 -4.313684E+05  3.775435E+04  5.109746E+03  1.236703E+03  1.018164E+03
        67   2  2.543162E+04 -4.253058E+05  3.955578E+04 -1.114453E+03  1.623303E+03 -5.169439E+03
        67   3  3.861264E+04 -4.141620E+05  4.958915E+04  7.615779E+03  1.640936E+03 -1.135718E+04
        67   4  3.051333E+03 -5.351743E+05  1.196304E+04  6.221494E+03  1.236745E+03  8.950793E+02
        67   5 -2.637781E+03 -5.377069E+05  1.166883E+04 -1.253936E+03  1.623339E+03 -5.211919E+03
        67   6  8.392523E+03 -5.351714E+05  1.955158E+04  6.225217E+03  1.640962E+03 -1.131897E+04
        67   7 -2.288052E+04 -6.389704E+05 -1.382907E+04  7.333057E+03  1.236787E+03  7.720150E+02
        67   8 -3.070813E+04 -6.500965E+05 -1.621907E+04 -1.393392E+03  1.623375E+03 -5.254392E+03
        67   9 -2.182869E+04 -6.561676E+05 -1.048709E+04  4.834928E+03  1.640988E+03 -1.128077E+04
        67  10  2.898238E+04 -4.313684E+05  3.775434E+04  5.109745E+03 -3.987958E-09  2.007834E-09
        67  11  2.543161E+04 -4.253058E+05  3.955573E+04 -1.114446E+03 -1.510830E-09  1.898350E-10
        67  12  3.861260E+04 -4.141621E+05  4.958891E+04  7.615794E+03  2.981113E-10 -7.502773E-10
        67  13  3.051331E+03 -5.351743E+05  1.196304E+04  6.221493E+03 -1.996784E-09 -2.165278E-10
        67  14 -2.637791E+03 -5.377069E+05  1.166877E+04 -1.253929E+03 -1.310925E-09 -3.494591E-10
        67  15  8.392486E+03 -5.351716E+05  1.955133E+04  6.225232E+03 -3.778645E-09 -2.223154E-10
        67  16 -2.288052E+04 -6.389704E+05 -1.382907E+04  7.333056E+03  1.196743E-09 -1.965891E-09
        67  17 -3.070814E+04 -6.500965E+05 -1.621913E+04 -1.393385E+03  4.528574E-09  2.384990E-10
        67  18 -2.182872E+04 -6.561677E+05 -1.048733E+04  4.834943E+03 -1.599436E-09  9.824408E-10
        67  19  2.898238E+04 -4.313684E+05  3.775435E+04  5.109746E+03 -1.236703E+03 -1.018164E+03
        67  20  2.543162E+04 -4.253058E+05  3.955578E+04 -1.114453E+03 -1.623303E+03  5.169439E+03
        67  21  3.861264E+04 -4.141620E+05  4.958915E+04  7.615779E+03 -1.640936E+03  1.135718E+04
        67  22  3.051333E+03 -5.351743E+05  1.196304E+04  6.221494E+03 -1.236745E+03 -8.950793E+02
        67  23 -2.637781E+03 -5.377069E+05  1.166883E+04 -1.253936E+03 -1.623339E+03  5.211919E+03
        67  24  8.392523E+03 -5.351714E+05  1.955158E+04  6.225217E+03 -1.640962E+03  1.131897E+04
        67  25 -2.288052E+04 -6.389704E+05 -1.382907E+04  7.333057E+03 -1.236787E+03 -7.720150E+02
        67  26 -3.070813E+04 -6.500965E+05 -1.621907E+04 -1.393392E+03 -1.623375E+03  5.254392E+03
        67  27 -2.182869E+04 -6.561676E+05 -1.048709E+04  4.834928E+03 -1.640988E+03  1.128077E+04
        68   1  3.824961E+04 -3.712411E+05  6.252983E+04  1.550163E+03  2.150518E+03 -1.477597E+04
        68   2  2.872756E+04 -3.752051E+05  7.491515E+04  1.283894E+03  2.685537E+03 -3.345614E+04
        68   3  1.025756E+05 -3.556893E+05  1.203512E+05  1.451907E+04  9.831421E+02 -5.213841E+04
        68   4 -1.682875E+03 -5.311049E+05  2.284422E+04  5.878998E+03  2.150680E+03 -1.512761E+04
        68   5 -1.311189E+04 -5.427963E+05  3.337139E+04 -8.386273E+02  2.685582E+03 -3.332044E+04
        68   6  5.875646E+04 -5.310862E+05  7.661705E+04  5.945328E+03  9.831924E+02 -5.151515E+04
        68   7 -4.161721E+04 -6.909455E+05 -1.684329E+04  1.020672E+04  2.150838E+03 -1.547915E+04
        68   8 -5.495342E+04 -7.103619E+05 -8.174462E+03 -2.960569E+03  2.685626E+03 -3.318478E+04
        68   9  1.493523E+04 -7.064551E+05  3.288064E+04 -2.625977E+03  9.832257E+02 -5.089205E+04
        68  10  3.824955E+04 -3.712413E+05  6.252941E+04  1.550188E+03  1.161835E-09  6.493489E-10
        68  11  2.872725E+04 -3.752063E+05  7.491304E+04  1.283967E+03  2.384559E-09 -5.774436E-10
        68  12  1.025749E+05 -3.556922E+05  1.203461E+05  1.451911E+04  2.178932E-09 -1.449967E-09
        68  13 -1.682941E+03 -5.311052E+05  2.284378E+04  5.879024E+03 -5.648729E-10 -6.942541E-10
        68  14 -1.311219E+04 -5.427975E+05  3.336929E+04 -8.385552E+02  3.101377E-09 -9.250224E-10
        68  15  5.875574E+04 -5.310891E+05  7.661206E+04  5.945369E+03  1.473221E-09 -5.034953E-10
        68  16 -4.161728E+04 -6.909457E+05 -1.684375E+04  1.020675E+04 -1.590679E-09 -6.650237E-10
        68  17 -5.495373E+04 -7.103631E+05 -8.176547E+03 -2.960498E+03  3.656235E-10  1.498713E-09
        68  18  1.493453E+04 -7.064579E+05  3.287577E+04 -2.625937E+03  2.032963E-09  1.902323E-09
        68  19  3.824961E+04 -3.712411E+05  6.252983E+04  1.550163E+03 -2.150518E+03  1.477597E+04
        68  20  2.872756E+04 -3.752051E+05  7.491515E+04  1.283894E+03 -2.685537E+03  3.345614E+04
        68  21  1.025756E+05 -3.556893E+05  1.203512E+05  1.451907E+04 -9.831421E+02  5.213841E+04
        68  22 -1.682875E+03 -5.311049E+05  2.284422E+04  5.878998E+03 -2.150680E+03  1.512761E+04
        68  23 -1.311189E+04 -5.427963E+05  3.337139E+04 -8.386273E+02 -2.685582E+03  3.332044E+04
        68  24  5.875646E+04 -5.310862E+05  7.661705E+04  5.945328E+03 -9.831924E+02  5.151515E+04
        68  25 -4.161721E+04 -6.909455E+05 -1.684329E+04  1.020672E+04 -2.150838E+03  1.547915E+04
        68  26 -5.495342E+04 -7.103619E+05 -8.174462E+03 -2.960569E+03 -2.685626E+03  3.318478E+04
        68  27  1.493523E+04 -7.064551E+05  3.288064E+04 -2.625977E+03 -9.832257E+02  5.089205E+04
        69   1 -7.054974E+05 -1.212255E+05 -2.634084E+04 -2.602147E+05 -1.193417E+04 -4.294822E+03
        69   2 -7.009636E+05 -1.018170E+05 -1.460839E+04 -2.613435E+05 -7.750743E+03 -2.415265E+03
        69   3 -7.005787E+05 -1.043103E+05 -1.114388E+04 -2.615277E+05 -3.409714E+03 -9.557723E+02
        69   4 -6.786261E+05 -1.092835E+05 -1.859549E+04 -2.510619E+05 -1.183704E+04 -4.258441E+03
        69   5 -6.756384E+05 -9.180374E+04 -7.597794E+03 -2.539844E+05 -7.738313E+03 -2.410613E+03
        69   6 -6.767827E+05 -9.620863E+04 -4.800627E+03 -2.559626E+05 -3.482002E+03 -9.828671E+02
        69   7 -6.517542E+05 -9.734144E+04 -1.085022E+04 -2.419087E+05 -1.173989E+04 -4.222058E+03
        69   8 -6.503127E+05 -8.179045E+04 -5.872659E+02 -2.466251E+05 -7.725883E+03 -2.405961E+03
        69   9 -6.529861E+05 -8.810690E+04  1.542588E+03 -2.503973E+05 -3.554293E+03 -1.009963E+03
        69  10 -7.054975E+05 -1.212256E+05 -2.634114E+04 -2.602148E+05 -1.600066E-10 -2.492737E-10
        69  11 -7.009636E+05 -1.018170E+05 -1.460851E+04 -2.613435E+05 -3.582281E-09 -2.576058E-10
        69  12 -7.005787E+05 -1.043104E+05 -1.114391E+04 -2.615277E+05 -2.653591E-09 -1.084817E-09
        69  13 -6.786263E+05 -1.092836E+05 -1.859578E+04 -2.510619E+05  3.217909E-09  2.541355E-11
        69  14 -6.756385E+05 -9.180376E+04 -7.597918E+03 -2.539845E+05 -2.204316E-09 -2.727916E-10
        69  15 -6.767827E+05 -9.620864E+04 -4.800651E+03 -2.559626E+05 -8.167809E-10 -6.448777E-10
        69  16 -6.517544E+05 -9.734149E+04 -1.085051E+04 -2.419087E+05 -8.684821E-11  9.484353E-11
        69  17 -6.503128E+05 -8.179047E+04 -5.873891E+02 -2.466252E+05  1.009674E-09  1.098833E-10
        69  18 -6.529861E+05 -8.810691E+04  1.542562E+03 -2.503973E+05  1.912825E-09 -1.102232E-09
        69  19 -7.054974E+05 -1.212255E+05 -2.634084E+04 -2.602147E+05  1.193417E+04  4.294822E+03
        69  20 -7.009636E+05 -1.018170E+05 -1.460839E+04 -2.613435E+05  7.750743E+03  2.415265E+03
        69  21 -7.005787E+05 -1.043103E+05 -1.114388E+04 -2.615277E+05  3.409714E+03  9.557723E+02
        69  22 -6.786261E+05 -1.092835E+05 -1.859549E+04 -2.510619E+05  1.183704E+04  4.258441E+03
        69  23 -6.756384E+05 -9.180374E+04 -7.597794E+03 -2.539844E+05  7.738313E+03  2.410613E+03
        69  24 -6.767827E+05 -9.620863E+04 -4.800627E+03 -2.559626E+05  3.482002E+03  9.828671E+02
        69  25 -6.517542E+05 -9.734144E+04 -1.085022E+04 -2.419087E+05  1.173989E+04  4.222058E+03
        69  26 -6.503127E+05 -8.179045E+04 -5.872659E+02 -2.466251E+05  7.725883E+03  2.405961E+03
        69  27 -6.529861E+05 -8.810690E+04  1.542588E+03 -2.503973E+05  3.554293E+03  1.009963E+03
        70   1 -6.852486E+05 -1.021184E+05 -6.501279E+03 -2.575426E+05 -2.704617E+03 -8.344490E+02
        70   2 -6.838080E+05 -9.686905E+04 -3.622139E+03 -2.553097E+05 -1.712455E+03 -5.224972E+02
        70   3 -6.799356E+05 -9.792527E+04 -2.211563E+03 -2.564927E+05 -6.970285E+02 -2.725869E+02
        70   4 -6.761229E+05 -9.842484E+04 -3.958351E+03 -2.548028E+05 -2.709000E+03 -8.360938E+02
        70   5 -6.772055E+05 -9.431812E+04 -1.805276E+03 -2.534528E+05 -1.729360E+03 -5.288343E+02
        70   6 -6.758536E+05 -9.651446E+04 -1.110822E+03 -2.555185E+05 -7.264596E+02 -2.836185E+02
        70   7 -6.669973E+05 -9.473128E+04 -1.415432E+03 -2.520630E+05 -2.713384E+03 -8.377386E+02
        70   8 -6.706029E+05 -9.176720E+04  1.158073E+01 -2.515958E+05 -1.746264E+03 -5.351714E+02
        70   9 -6.717717E+05 -9.510366E+04 -1.008432E+01 -2.545444E+05 -7.558909E+02 -2.946502E+02
        70  10 -6.852486E+05 -1.021184E+05 -6.501294E+03 -2.575426E+05 -2.127723E-09 -5.636311E-10
        70  11 -6.838080E+05 -9.686905E+04 -3.622145E+03 -2.553097E+05 -1.534156E-09  5.209461E-10
        70  12 -6.799356E+05 -9.792527E+04 -2.211564E+03 -2.564927E+05 -1.413892E-09 -1.063758E-10
        70  13 -6.761230E+05 -9.842484E+04 -3.958366E+03 -2.548028E+05 -8.760574E-10 -7.250118E-10
        70  14 -6.772055E+05 -9.431813E+04 -1.805282E+03 -2.534528E+05 -9.566386E-10  5.920704E-10
        70  15 -6.758536E+05 -9.651446E+04 -1.110823E+03 -2.555185E+05 -1.133440E-09 -3.299240E-10
        70  16 -6.669973E+05 -9.473128E+04 -1.415447E+03 -2.520630E+05 -1.445040E-10 -6.754750E-10
        70  17 -6.706029E+05 -9.176720E+04  1.157446E+01 -2.515958E+05  6.394560E-10  4.775992E-10
        70  18 -6.717717E+05 -9.510366E+04 -1.008556E+01 -2.545444E+05  1.365760E-10 -2.357254E-10
        70  19 -6.852486E+05 -1.021184E+05 -6.501279E+03 -2.575426E+05  2.704617E+03  8.344490E+02
        70  20 -6.838080E+05 -9.686905E+04 -3.622139E+03 -2.553097E+05  1.712455E+03  5.224972E+02
        70  21 -6.799356E+05 -9.792527E+04 -2.211563E+03 -2.564927E+05  6.970285E+02  2.725869E+02
        70  22 -6.761229E+05 -9.842484E+04 -3.958351E+03 -2.548028E+05  2.709000E+03  8.360938E+02
        70  23 -6.772055E+05 -9.431812E+04 -1.805276E+03 -2.534528E+05  1.729360E+03  5.288343E+02
        70  24 -6.758536E+05 -9.651446E+04 -1.110822E+03 -2.555185E+05  7.264596E+02  2.836185E+02
        70  25 -6.669973E+05 -9.473128E+04 -1.415432E+03 -2.520630E+05  2.713384E+03  8.377386E+02
        70  26 -6.706029E+05 -9.176720E+04  1.158073E+01 -2.515958E+05  1.746264E+03  5.351714E+02
        70  27 -6.717717E+05 -9.510366E+04 -1.008432E+01 -2.545444E+05  7.558909E+02  2.946502E+02
        71   1 -6.655007E+05 -9.297900E+04  1.904095E+03 -2.525781E+05 -5.112216E+02 -2.872658E+02
        71   2 -6.645484E+05 -8.985919E+04  3.012566E+03 -2.499126E+05 -2.109488E+02 -2.900734E+02
        71   3 -6.602495E+05 -9.069725E+04  3.811612E+03 -2.512002E+05  9.032873E+01 -2.955506E+02
        71   4 -6.757667E+05 -9.681611E+04 -9.063484E+02 -2.553296E+05 -5.313827E+02 -2.948230E+02
        71   5 -6.774216E+05 -9.470610E+04 -5.071747E+02 -2.534022E+05 -2.316535E+02 -2.978353E+02
        71   6 -6.757296E+05 -9.655386E+04 -4.169838E+02 -2.554278E+05  6.907903E+01 -3.035176E+02
        71   7 -6.860326E+05 -1.006532E+05 -3.716808E+03 -2.580810E+05 -5.515434E+02 -3.023802E+02
        71   8 -6.902946E+05 -9.955301E+04 -4.026937E+03 -2.568916E+05 -2.523577E+02 -3.055971E+02
        71   9 -6.912095E+05 -1.024105E+05 -4.645608E+03 -2.596553E+05  4.782990E+01 -3.114845E+02
        71  10 -6.655007E+05 -9.297900E+04  1.904094E+03 -2.525781E+05  2.886258E-09 -2.130575E-10
        71  11 -6.645484E+05 -8.985919E+04  3.012565E+03 -2.499126E+05  5.358712E-09  3.191465E-10
        71  12 -6.602495E+05 -9.069725E+04  3.811612E+03 -2.512002E+05 -1.002170E-10  5.434003E-10
        71  13 -6.757667E+05 -9.681611E+04 -9.063491E+02 -2.553296E+05  1.632499E-10 -4.352594E-10
        71  14 -6.774216E+05 -9.470610E+04 -5.071749E+02 -2.534022E+05 -4.272245E-09  1.703592E-10
        71  15 -6.757296E+05 -9.655386E+04 -4.169839E+02 -2.554278E+05  5.750778E-10  3.376617E-10
        71  16 -6.860326E+05 -1.006532E+05 -3.716809E+03 -2.580810E+05 -3.617246E-10 -4.755955E-10
        71  17 -6.902946E+05 -9.955301E+04 -4.026937E+03 -2.568916E+05 -6.144499E-09 -2.352495E-11
        71  18 -6.912095E+05 -1.024105E+05 -4.645608E+03 -2.596553E+05 -3.330519E-09  7.193324E-10
        71  19 -6.655007E+05 -9.297900E+04  1.904095E+03 -2.525781E+05  5.112216E+02  2.872658E+02
        71  20 -6.645484E+05 -8.985919E+04  3.012566E+03 -2.499126E+05  2.109488E+02  2.900734E+02
        71  21 -6.602495E+05 -9.069725E+04  3.811612E+03 -2.512002E+05 -9.032873E+01  2.955506E+02
        71  22 -6.757667E+05 -9.681611E+04 -9.063484E+02 -2.553296E+05  5.313827E+02  2.948230E+02
        71  23 -6.774216E+05 -9.470610E+04 -5.071747E+02 -2.534022E+05  2.316535E+02  2.978353E+02
        71  24 -6.757296E+05 -9.655386E+04 -4.169838E+02 -2.554278E+05 -6.907903E+01  3.035176E+02
        71  25 -6.860326E+05 -1.006532E+05 -3.716808E+03 -2.580810E+05  5.515434E+02  3.023802E+02
        71  26 -6.902946E+05 -9.955301E+04 -4.026937E+03 -2.568916E+05  2.523577E+02  3.055971E+02
        71  27 -6.912095E+05 -1.024105E+05 -4.645608E+03 -2.596553E+05 -4.782990E+01  3.114845E+02
        72   1 -6.467629E+05 -8.558579E+04  7.526365E+03 -2.474695E+05  1.840728E+02 -3.321631E+02
        72   2 -6.459323E+05 -8.296228E+04  8.089376E+03 -2.449439E+05  4.777390E+02 -3.393531E+02
        72   3 -6.419520E+05 -8.381275E+04  8.405545E+03 -2.461031E+05  7.668838E+02 -3.344304E+02
        72   4 -6.757840E+05 -9.651942E+04 -4.192327E+02 -2.553409E+05  1.620693E+02 -3.404140E+02
        72   5 -6.773636E+05 -9.481719E+04 -5.081036E+02 -2.534854E+05  4.581695E+02 -3.466931E+02
        72   6 -6.757939E+05 -9.658943E+04 -8.457668E+02 -2.553147E+05  7.497476E+02 -3.408595E+02
        72   7 -7.048043E+05 -1.074530E+05 -8.364889E+03 -2.632120E+05  1.400670E+02 -3.486645E+02
        72   8 -7.087939E+05 -1.066720E+05 -9.105667E+03 -2.620265E+05  4.386011E+02 -3.540327E+02
        72   9 -7.096347E+05 -1.093660E+05 -1.009719E+04 -2.645258E+05  7.326124E+02 -3.472882E+02
        72  10 -6.467629E+05 -8.558579E+04  7.526364E+03 -2.474695E+05  2.830749E-10  1.797188E-11
        72  11 -6.459323E+05 -8.296228E+04  8.089376E+03 -2.449439E+05  3.163313E-09 -3.053994E-10
        72  12 -6.419520E+05 -8.381275E+04  8.405544E+03 -2.461031E+05  2.340688E-10  3.460135E-10
        72  13 -6.757840E+05 -9.651942E+04 -4.192329E+02 -2.553409E+05  2.597703E-10  1.411810E-10
        72  14 -6.773636E+05 -9.481719E+04 -5.081042E+02 -2.534854E+05  1.152434E-09 -1.022676E-09
        72  15 -6.757939E+05 -9.658943E+04 -8.457681E+02 -2.553147E+05  1.733171E-09  3.978014E-10
        72  16 -7.048043E+05 -1.074530E+05 -8.364890E+03 -2.632120E+05 -2.579291E-09 -1.444114E-10
        72  17 -7.087939E+05 -1.066720E+05 -9.105668E+03 -2.620265E+05 -2.676760E-10 -7.006202E-10
        72  18 -7.096347E+05 -1.093660E+05 -1.009719E+04 -2.645258E+05  1.551226E-09  1.336705E-10
        72  19 -6.467629E+05 -8.558579E+04  7.526365E+03 -2.474695E+05 -1.840728E+02  3.321631E+02
        72  20 -6.459323E+05 -8.296228E+04  8.089376E+03 -2.449439E+05 -4.777390E+02  3.393531E+02
        72  21 -6.419520E+05 -8.381275E+04  8.405545E+03 -2.461031E+05 -7.668838E+02  3.344304E+02
        72  22 -6.757840E+05 -9.651942E+04 -4.192327E+02 -2.553409E+05 -1.620693E+02  3.404140E+02
        72  23 -6.773636E+05 -9.481719E+04 -5.081036E+02 -2.534854E+05 -4.581695E+02  3.466931E+02
        72  24 -6.757939E+05 -9.658943E+04 -8.457668E+02 -2.553147E+05 -7.497476E+02  3.408595E+02
        72  25 -7.048043E+05 -1.074530E+05 -8.364889E+03 -2.632120E+05 -1.400670E+02  3.486645E+02
        72  26 -7.087939E+05 -1.066720E+05 -9.105667E+03 -2.620265E+05 -4.386011E+02  3.540327E+02
        72  27 -7.096347E+05 -1.093660E+05 -1.009719E+04 -2.645258E+05 -7.326124E+02  3.472882E+02
        73   1 -6.300707E+05 -7.911169E+04  1.147719E+04 -2.428466E+05  9.505721E+02 -3.285684E+02
        73   2 -6.292470E+05 -7.672925E+04  1.126909E+04 -2.406317E+05  1.916555E+03 -7.172243E+01
        73   3 -6.261813E+05 -7.821952E+04  1.007039E+04 -2.413230E+05  2.874128E+03  2.076084E+02
        73   4 -6.759519E+05 -9.636477E+04 -1.071417E+03 -2.552593E+05  9.295770E+02 -3.364467E+02
        73   5 -6.771261E+05 -9.480787E+04 -1.831221E+03 -2.536638E+05  1.900032E+03 -7.792564E+01
        73   6 -6.760594E+05 -9.712460E+04 -3.585237E+03 -2.549744E+05  2.862075E+03  2.030800E+02
        73   7 -7.218310E+05 -1.136177E+05 -1.362020E+04 -2.676713E+05  9.085837E+02 -3.443243E+02
        73   8 -7.250030E+05 -1.128864E+05 -1.493174E+04 -2.666950E+05  1.883511E+03 -8.412832E+01
        73   9 -7.259351E+05 -1.160296E+05 -1.724111E+04 -2.686249E+05  2.850023E+03  1.985519E+02
        73  10 -6.300707E+05 -7.911169E+04  1.147719E+04 -2.428466E+05 -1.367189E-09  6.169712E-10
        73  11 -6.292470E+05 -7.672926E+04  1.126909E+04 -2.406317E+05 -2.578045E-09 -9.150937E-10
        73  12 -6.261813E+05 -7.821952E+04  1.007037E+04 -2.413230E+05 -3.277823E-09 -1.138412E-10
        73  13 -6.759519E+05 -9.636477E+04 -1.071419E+03 -2.552593E+05 -8.541693E-10  1.453450E-10
        73  14 -6.771261E+05 -9.480787E+04 -1.831228E+03 -2.536638E+05  5.633298E-10 -1.109670E-09
        73  15 -6.760594E+05 -9.712460E+04 -3.585253E+03 -2.549744E+05 -5.269132E-09  1.541813E-10
        73  16 -7.218310E+05 -1.136177E+05 -1.362020E+04 -2.676713E+05  1.455407E-09 -4.961016E-10
        73  17 -7.250030E+05 -1.128864E+05 -1.493175E+04 -2.666950E+05  3.591746E-09 -1.073944E-09
        73  18 -7.259351E+05 -1.160296E+05 -1.724112E+04 -2.686249E+05  2.546995E-09  4.241403E-10
        73  19 -6.300707E+05 -7.911169E+04  1.147719E+04 -2.428466E+05 -9.505721E+02  3.285684E+02
        73  20 -6.292470E+05 -7.672925E+04  1.126909E+04 -2.406317E+05 -1.916555E+03  7.172243E+01
        73  21 -6.261813E+05 -7.821952E+04  1.007039E+04 -2.413230E+05 -2.874128E+03 -2.076084E+02
        73  22 -6.759519E+05 -9.636477E+04 -1.071417E+03 -2.552593E+05 -9.295770E+02  3.364467E+02
        73  23 -6.771261E+05 -9.480787E+04 -1.831221E+03 -2.536638E+05 -1.900032E+03  7.792564E+01
        73  24 -6.760594E+05 -9.712460E+04 -3.585237E+03 -2.549744E+05 -2.862075E+03 -2.030800E+02
        73  25 -7.218310E+05 -1.136177E+05 -1.362020E+04 -2.676713E+05 -9.085837E+02  3.443243E+02
        73  26 -7.250030E+05 -1.128864E+05 -1.493174E+04 -2.666950E+05 -1.883511E+03  8.412832E+01
        73  27 -7.259351E+05 -1.160296E+05 -1.724111E+04 -2.686249E+05 -2.850023E+03 -1.985519E+02
        74   1 -6.166890E+05 -7.390896E+04  1.171066E+04 -2.394141E+05  3.578076E+03  4.186986E+02
        74   2 -6.152658E+05 -7.077657E+04  8.828793E+03 -2.373124E+05  7.691293E+03  1.876120E+03
        74   3 -6.151185E+05 -7.729705E+04  8.466937E+02 -2.357284E+05  1.178780E+04  3.377974E+03
        74   4 -6.765182E+05 -9.611762E+04 -4.590862E+03 -2.553040E+05  3.558047E+03  4.111777E+02
        74   5 -6.762544E+05 -9.393939E+04 -7.884683E+03 -2.540510E+05  7.679858E+03  1.871818E+03
        74   6 -6.772684E+05 -1.014162E+05 -1.628593E+04 -2.533155E+05  1.178495E+04  3.376880E+03
        74   7 -7.363440E+05 -1.183261E+05 -2.089271E+04 -2.711927E+05  3.538021E+03  4.036575E+02
        74   8 -7.372394E+05 -1.171020E+05 -2.459849E+04 -2.707881E+05  7.668424E+03  1.867516E+03
        74   9 -7.394146E+05 -1.255351E+05 -3.341889E+04 -2.709011E+05  1.178210E+04  3.375785E+03
        74  10 -6.166890E+05 -7.390897E+04  1.171064E+04 -2.394141E+05 -2.686822E-09  4.316501E-10
        74  11 -6.152659E+05 -7.077659E+04  8.828675E+03 -2.373124E+05  1.626479E-09 -1.519048E-09
        74  12 -6.151187E+05 -7.729710E+04  8.464109E+02 -2.357284E+05  5.448579E-10 -7.394104E-10
        74  13 -6.765182E+05 -9.611763E+04 -4.590886E+03 -2.553040E+05 -5.817959E-09  8.213277E-10
        74  14 -6.762545E+05 -9.393941E+04 -7.884800E+03 -2.540510E+05  1.169007E-09 -4.714292E-10
        74  15 -6.772686E+05 -1.014163E+05 -1.628621E+04 -2.533156E+05 -9.261220E-10 -1.018833E-09
        74  16 -7.363440E+05 -1.183261E+05 -2.089273E+04 -2.711927E+05  3.440308E-10  8.024825E-10
        74  17 -7.372395E+05 -1.171020E+05 -2.459860E+04 -2.707881E+05 -9.247764E-10 -8.912627E-10
        74  18 -7.394148E+05 -1.255351E+05 -3.341917E+04 -2.709011E+05  5.473357E-10 -1.003858E-09
        74  19 -6.166890E+05 -7.390896E+04  1.171066E+04 -2.394141E+05 -3.578076E+03 -4.186986E+02
        74  20 -6.152658E+05 -7.077657E+04  8.828793E+03 -2.373124E+05 -7.691293E+03 -1.876120E+03
        74  21 -6.151185E+05 -7.729705E+04  8.466937E+02 -2.357284E+05 -1.178780E+04 -3.377974E+03
        74  22 -6.765182E+05 -9.611762E+04 -4.590862E+03 -2.553040E+05 -3.558047E+03 -4.111777E+02
        74  23 -6.762544E+05 -9.393939E+04 -7.884683E+03 -2.540510E+05 -7.679858E+03 -1.871818E+03
        74  24 -6.772684E+05 -1.014162E+05 -1.628593E+04 -2.533155E+05 -1.178495E+04 -3.376880E+03
        74  25 -7.363440E+05 -1.183261E+05 -2.089271E+04 -2.711927E+05 -3.538021E+03 -4.036575E+02
        74  26 -7.372394E+05 -1.171020E+05 -2.459849E+04 -2.707881E+05 -7.668424E+03 -1.867516E+03
        74  27 -7.394146E+05 -1.255351E+05 -3.341889E+04 -2.709011E+05 -1.178210E+04 -3.375785E+03
        75   1 -6.082713E+05 -7.091741E+04 -1.475290E+03 -2.397471E+05  1.487817E+04  4.482911E+03
        75   2 -6.023185E+05 -5.960206E+04 -1.482189E+04 -2.354807E+05  3.296611E+04  1.120784E+04
        75   3 -6.169057E+05 -1.013302E+05 -5.577398E+04 -2.194850E+05  5.099372E+04  1.809392E+04
        75   4 -6.793165E+05 -9.525830E+04 -2.042537E+04 -2.565303E+05  1.484835E+04  4.471777E+03
        75   5 -6.716237E+05 -8.694573E+04 -3.401533E+04 -2.555526E+05  3.296686E+04  1.120803E+04
        75   6 -6.844791E+05 -1.316864E+05 -7.523740E+04 -2.428450E+05  5.102510E+04  1.810521E+04
        75   7 -7.503569E+05 -1.195992E+05 -3.937591E+04 -2.733120E+05  1.481854E+04  4.460644E+03
        75   8 -7.409242E+05 -1.142890E+05 -5.320922E+04 -2.756225E+05  3.296762E+04  1.120823E+04
        75   9 -7.520481E+05 -1.620419E+05 -9.470127E+04 -2.662026E+05  5.105647E+04  1.811650E+04
        75  10 -6.082716E+05 -7.091749E+04 -1.475744E+03 -2.397471E+05 -1.889776E-09 -8.852170E-10
        75  11 -6.023197E+05 -5.960248E+04 -1.482417E+04 -2.354810E+05  1.078096E-09 -1.653643E-09
        75  12 -6.169086E+05 -1.013312E+05 -5.577949E+04 -2.194857E+05  1.451867E-10 -1.591377E-09
        75  13 -6.793167E+05 -9.525838E+04 -2.042583E+04 -2.565304E+05 -1.334337E-09 -1.963587E-09
        75  14 -6.716249E+05 -8.694615E+04 -3.401761E+04 -2.555529E+05 -1.786318E-09 -1.467032E-09
        75  15 -6.844820E+05 -1.316875E+05 -7.524292E+04 -2.428458E+05  3.625975E-09  3.713367E-10
        75  16 -7.503571E+05 -1.195992E+05 -3.937636E+04 -2.733120E+05  1.381844E-09 -1.241803E-09
        75  17 -7.409254E+05 -1.142895E+05 -5.321151E+04 -2.756228E+05  4.612739E-10 -8.772408E-10
        75  18 -7.520510E+05 -1.620430E+05 -9.470679E+04 -2.662033E+05 -7.106683E-10  5.281254E-10
        75  19 -6.082713E+05 -7.091741E+04 -1.475290E+03 -2.397471E+05 -1.487817E+04 -4.482911E+03
        75  20 -6.023185E+05 -5.960206E+04 -1.482189E+04 -2.354807E+05 -3.296611E+04 -1.120784E+04
        75  21 -6.169057E+05 -1.013302E+05 -5.577398E+04 -2.194850E+05 -5.099372E+04 -1.809392E+04
        75  22 -6.793165E+05 -9.525830E+04 -2.042537E+04 -2.565303E+05 -1.484835E+04 -4.471777E+03
        75  23 -6.716237E+05 -8.694573E+04 -3.401533E+04 -2.555526E+05 -3.296686E+04 -1.120803E+04
        75  24 -6.844791E+05 -1.316864E+05 -7.523740E+04 -2.428450E+05 -5.102510E+04 -1.810521E+04
        75  25 -7.503569E+05 -1.195992E+05 -3.937591E+04 -2.733120E+05 -1.481854E+04 -4.460644E+03
        75  26 -7.409242E+05 -1.142890E+05 -5.320922E+04 -2.756225E+05 -3.296762E+04 -1.120823E+04
        75  27 -7.520481E+05 -1.620419E+05 -9.470127E+04 -2.662026E+05 -5.105647E+04 -1.811650E+04
        76   1 -6.100048E+05 -7.425109E+04 -7.104329E+04 -2.594217E+05  6.500087E+04  2.319139E+04
        76   2 -5.745275E+05 -3.594340E+03 -1.243638E+05 -2.370867E+05  1.448874E+05  5.312015E+04
        76   3 -6.819576E+05 -2.859778E+05 -3.338293E+05 -1.232777E+05  2.244220E+05  8.399039E+04
        76   4 -6.963533E+05 -9.017587E+04 -9.135501E+04 -2.658030E+05  6.488027E+04  2.314823E+04
        76   5 -6.425381E+05 -3.814938E+04 -1.447171E+05 -2.647113E+05  1.449479E+05  5.314030E+04
        76   6 -7.316841E+05 -3.392253E+05 -3.543813E+05 -1.721397E+05  2.246661E+05  8.406657E+04
        76   7 -7.826942E+05 -1.061007E+05 -1.116670E+05 -2.721841E+05  6.475970E+04  2.310507E+04
        76   8 -7.105439E+05 -7.270285E+04 -1.650708E+05 -2.923328E+05  1.450083E+05  5.316043E+04
        76   9 -7.814050E+05 -3.924639E+05 -3.749329E+05 -2.209964E+05  2.249101E+05  8.414270E+04
        76  10 -6.100095E+05 -7.425280E+04 -7.105225E+04 -2.594229E+05  2.060644E-09 -6.055718E-10
        76  11 -5.745508E+05 -3.603017E+03 -1.244086E+05 -2.370929E+05 -1.073851E-09  2.306716E-09
        76  12 -6.820136E+05 -2.859989E+05 -3.339373E+05 -1.232929E+05 -4.531552E-10  1.260845E-09
        76  13 -6.963580E+05 -9.017758E+04 -9.136394E+04 -2.658042E+05  1.266206E-09 -6.586220E-10
        76  14 -6.425614E+05 -3.815806E+04 -1.447619E+05 -2.647175E+05 -3.209702E-09  3.480758E-09
        76  15 -7.317402E+05 -3.392465E+05 -3.544895E+05 -1.721550E+05 -1.034900E-09  2.551941E-09
        76  16 -7.826988E+05 -1.061024E+05 -1.116759E+05 -2.721853E+05  2.686322E-10  1.598612E-10
        76  17 -7.105673E+05 -7.271154E+04 -1.651157E+05 -2.923390E+05 -2.252265E-09  6.761693E-10
        76  18 -7.814613E+05 -3.924851E+05 -3.750414E+05 -2.210116E+05  2.952233E-10  8.949651E-11
        76  19 -6.100048E+05 -7.425109E+04 -7.104329E+04 -2.594217E+05 -6.500087E+04 -2.319139E+04
        76  20 -5.745275E+05 -3.594340E+03 -1.243638E+05 -2.370867E+05 -1.448874E+05 -5.312015E+04
        76  21 -6.819576E+05 -2.859778E+05 -3.338293E+05 -1.232777E+05 -2.244220E+05 -8.399039E+04
        76  22 -6.963533E+05 -9.017587E+04 -9.135501E+04 -2.658030E+05 -6.488027E+04 -2.314823E+04
        76  23 -6.425381E+05 -3.814938E+04 -1.447171E+05 -2.647113E+05 -1.449479E+05 -5.314030E+04
        76  24 -7.316841E+05 -3.392253E+05 -3.543813E+05 -1.721397E+05 -2.246661E+05 -8.406657E+04
        76  25 -7.826942E+05 -1.061007E+05 -1.116670E+05 -2.721841E+05 -6.475970E+04 -2.310507E+04
        76  26 -7.105439E+05 -7.270285E+04 -1.650708E+05 -2.923328E+05 -1.450083E+05 -5.316043E+04
        76  27 -7.814050E+05 -3.924639E+05 -3.749329E+05 -2.209964E+05 -2.249101E+05 -8.414270E+04
        77   1  2.980565E+05  2.215960E+06  2.813114E+05 -4.778124E+04  1.603307E+04  1.268804E+05
        77   2  2.657772E+05  2.182333E+06  2.069771E+05 -4.008528E+04  5.580052E+04  6.926998E+04
        77   3  2.512338E+05  2.160691E+06  1.745208E+05 -3.532816E+04  7.176116E+04  1.166869E+04
        77   4  1.897949E+04  1.079258E+06  2.046721E+04 -3.475717E+04  1.604926E+04  1.372812E+04
        77   5  6.033233E+03  1.077790E+06  1.072312E+04 -3.329274E+04  5.582553E+04  8.276928E+03
        77   6  1.801062E+03  1.079284E+06  6.721599E+03 -3.476406E+04  7.177671E+04  2.829929E+03
        77   7 -2.601799E+05 -5.622444E+04 -2.404140E+05 -2.175701E+04  1.606074E+04 -9.921927E+04
        77   8 -2.537757E+05 -2.555720E+04 -1.855626E+05 -2.651251E+04  5.584924E+04 -5.261105E+04
        77   9 -2.476885E+05 -9.589500E+02 -1.611044E+05 -3.420083E+04  7.179227E+04 -5.994060E+03
        77  10  2.980519E+05  2.215943E+06  2.812808E+05 -4.778288E+04  2.795775E-10 -2.371976E-09
        77  11  2.657726E+05  2.182327E+06  2.069622E+05 -4.008839E+04 -6.040444E-11 -3.059288E-09
        77  12  2.512282E+05  2.160689E+06  1.745108E+05 -3.532884E+04 -6.980809E-10 -4.799560E-09
        77  13  1.897916E+04  1.079257E+06  2.046638E+04 -3.475735E+04 -2.395299E-10 -1.715009E-11
        77  14  6.029866E+03  1.077789E+06  1.071713E+04 -3.329312E+04 -4.408531E-09  2.698920E-11
        77  15  1.795524E+03  1.079282E+06  6.711897E+03 -3.476423E+04  4.587085E-10 -2.099615E-10
        77  16 -2.601828E+05 -5.623508E+04 -2.404330E+05 -2.175572E+04 -1.963867E-09  2.358070E-09
        77  17 -2.537798E+05 -2.556101E+04 -1.855737E+05 -2.651014E+04 -1.297922E-09  3.144359E-09
        77  18 -2.476941E+05 -9.603731E+02 -1.611142E+05 -3.420049E+04 -1.717782E-09  4.371002E-09
        77  19  2.980565E+05  2.215960E+06  2.813114E+05 -4.778124E+04 -1.603307E+04 -1.268804E+05
        77  20  2.657772E+05  2.182333E+06  2.069771E+05 -4.008528E+04 -5.580052E+04 -6.926998E+04
        77  21  2.512338E+05  2.160691E+06  1.745208E+05 -3.532816E+04 -7.176116E+04 -1.166869E+04
        77  22  1.897949E+04  1.079258E+06  2.046721E+04 -3.475717E+04 -1.604926E+04 -1.372812E+04
        77  23  6.033233E+03  1.077790E+06  1.072312E+04 -3.329274E+04 -5.582553E+04 -8.276928E+03
        77  24  1.801062E+03  1.079284E+06  6.721599E+03 -3.476406E+04 -7.177671E+04 -2.829929E+03
        77  25 -2.601799E+05 -5.622444E+04 -2.404140E+05 -2.175701E+04 -1.606074E+04  9.921927E+04
        77  26 -2.537757E+05 -2.555720E+04 -1.855626E+05 -2.651251E+04 -5.584924E+04  5.261105E+04
        77  27 -2.476885E+05 -9.589500E+02 -1.611044E+05 -3.420083E+04 -7.179227E+04  5.994060E+03
        78   1  2.458225E+05  2.141792E+06  1.668688E+05 -3.647089E+04  7.324761E+04  1.014257E+04
        78   2  2.378661E+05  2.113221E+06  1.576689E+05 -3.315933E+04  7.441195E+04 -3.948882E+03
        78   3  2.336414E+05  2.087474E+06  1.585727E+05 -3.459857E+04  7.034140E+04 -1.804371E+04
        78   4  1.408769E+03  1.078818E+06  5.780466E+03 -3.516766E+04  7.326388E+04  1.874870E+03
        78   5  8.053249E+02  1.078408E+06  5.248385E+03 -3.279213E+04  7.442204E+04 -7.455891E+02
        78   6  1.949118E+03  1.078837E+06  6.875231E+03 -3.516787E+04  7.034086E+04 -3.370005E+03
        78   7 -2.430588E+05  1.697410E+04 -1.553312E+05 -3.386659E+04  7.328013E+04 -6.379269E+03
        78   8 -2.363052E+05  4.466960E+04 -1.471913E+05 -3.242537E+04  7.443214E+04  2.452599E+03
        78   9 -2.297912E+05  7.121773E+04 -1.448418E+05 -3.573599E+04  7.034029E+04  1.128088E+04
        78  10  2.458167E+05  2.141790E+06  1.668586E+05 -3.647149E+04 -3.205141E-09 -4.690731E-09
        78  11  2.378601E+05  2.113220E+06  1.576585E+05 -3.315909E+04 -4.554849E-09 -3.863790E-08
        78  12  2.336360E+05  2.087472E+06  1.585628E+05 -3.459755E+04 -5.335984E-09 -6.811745E-08
        78  13  1.403001E+03  1.078817E+06  5.770368E+03 -3.516777E+04  9.748420E-11 -3.684208E-10
        78  14  7.993742E+02  1.078407E+06  5.237971E+03 -3.279208E+04  4.791836E-09 -4.896742E-11
        78  15  1.943799E+03  1.078835E+06  6.865907E+03 -3.516768E+04  1.044369E-08 -3.787721E-10
        78  16 -2.430646E+05  1.697261E+04 -1.553413E+05 -3.386621E+04 -4.360250E-09  4.741074E-09
        78  17 -2.363112E+05  4.466811E+04 -1.472018E+05 -3.242551E+04 -6.157281E-09  3.879937E-08
        78  18 -2.297966E+05  7.121627E+04 -1.448514E+05 -3.573663E+04 -7.896711E-09  6.718701E-08
        78  19  2.458225E+05  2.141792E+06  1.668688E+05 -3.647089E+04 -7.324761E+04 -1.014257E+04
        78  20  2.378661E+05  2.113221E+06  1.576689E+05 -3.315933E+04 -7.441195E+04  3.948882E+03
        78  21  2.336414E+05  2.087474E+06  1.585727E+05 -3.459857E+04 -7.034140E+04  1.804371E+04
        78  22  1.408769E+03  1.078818E+06  5.780466E+03 -3.516766E+04 -7.326388E+04 -1.874870E+03
        78  23  8.053249E+02  1.078408E+06  5.248385E+03 -3.279213E+04 -7.442204E+04  7.455891E+02
        78  24  1.949118E+03  1.078837E+06  6.875231E+03 -3.516787E+04 -7.034086E+04  3.370005E+03
        78  25 -2.430588E+05  1.697410E+04 -1.553312E+05 -3.386659E+04 -7.328013E+04  6.379269E+03
        78  26 -2.363052E+05  4.466960E+04 -1.471913E+05 -3.242537E+04 -7.443214E+04 -2.452599E+03
        78  27 -2.297912E+05  7.121773E+04 -1.448418E+05 -3.573599E+04 -7.034029E+04 -1.128088E+04
        79   1  2.312461E+05  2.072394E+06  1.610028E+05 -3.585752E+04  6.698225E+04 -1.968751E+04
        79   2  2.342807E+05  2.040013E+06  1.830486E+05 -2.409725E+04  5.037565E+04 -6.966926E+04
        79   3  2.565702E+05  2.018977E+06  2.423886E+05 -1.861613E+04  1.430719E+04 -1.196767E+05
        79   4  2.531452E+03  1.079539E+06  8.460248E+03 -3.551007E+04  6.697923E+04 -4.529460E+03
        79   5  8.429441E+03  1.077559E+06  1.439616E+04 -3.235927E+04  5.032519E+04 -1.188379E+04
        79   6  2.620918E+04  1.079546E+06  2.808822E+04 -3.549033E+04  1.419686E+04 -1.926377E+04
        79   7 -2.262306E+05  8.766653E+04 -1.441034E+05 -3.516296E+04  6.697622E+04  1.060535E+04
        79   8 -2.174701E+05  1.160162E+05 -1.542771E+05 -4.060790E+04  5.027315E+04  4.581503E+04
        79   9 -2.042064E+05  1.409531E+05 -1.862318E+05 -5.233862E+04  1.408099E+04  8.099891E+04
        79  10  2.312411E+05  2.072393E+06  1.609937E+05 -3.585646E+04 -5.425265E-09  7.120327E-08
        79  11  2.342767E+05  2.040007E+06  1.830348E+05 -2.409442E+04 -2.772695E-10  3.760970E-08
        79  12  2.565662E+05  2.018961E+06  2.423614E+05 -1.861475E+04  2.538491E-10 -1.697132E-09
        79  13  2.526626E+03  1.079538E+06  8.451775E+03 -3.550982E+04  1.349284E-08 -8.478803E-10
        79  14  8.426683E+03  1.077558E+06  1.439114E+04 -3.235879E+04  1.239520E-08 -5.649903E-11
        79  15  2.620886E+04  1.079546E+06  2.808715E+04 -3.549011E+04  3.462420E-10 -6.995269E-10
        79  16 -2.262355E+05  8.766520E+04 -1.441120E+05 -3.516353E+04 -4.888969E-09 -7.125773E-08
        79  17 -2.174734E+05  1.160133E+05 -1.542858E+05 -4.060975E+04 -1.424933E-09 -3.701752E-08
        79  18 -2.042084E+05  1.409460E+05 -1.862445E+05 -5.233954E+04  1.550427E-09  4.490921E-10
        79  19  2.312461E+05  2.072394E+06  1.610028E+05 -3.585752E+04 -6.698225E+04  1.968751E+04
        79  20  2.342807E+05  2.040013E+06  1.830486E+05 -2.409725E+04 -5.037565E+04  6.966926E+04
        79  21  2.565702E+05  2.018977E+06  2.423886E+05 -1.861613E+04 -1.430719E+04  1.196767E+05
        79  22  2.531452E+03  1.079539E+06  8.460248E+03 -3.551007E+04 -6.697923E+04  4.529460E+03
        79  23  8.429441E+03  1.077559E+06  1.439616E+04 -3.235927E+04 -5.032519E+04  1.188379E+04
        79  24  2.620918E+04  1.079546E+06  2.808822E+04 -3.549033E+04 -1.419686E+04  1.926377E+04
        79  25 -2.262306E+05  8.766653E+04 -1.441034E+05 -3.516296E+04 -6.697622E+04 -1.060535E+04
        79  26 -2.174701E+05  1.160162E+05 -1.542771E+05 -4.060790E+04 -5.027315E+04 -4.581503E+04
        79  27 -2.042064E+05  1.409531E+05 -1.862318E+05 -5.233862E+04 -1.408099E+04 -8.099891E+04
        80   1 -3.204572E+06 -3.784306E+05 -4.351484E+05 -3.950231E+04 -1.723949E+05  3.158145E+03
        80   2 -3.167135E+06 -1.438313E+05 -2.915355E+05 -1.763093E+04 -1.122924E+05  1.127303E+04
        80   3 -3.201631E+06 -1.786239E+05 -2.538866E+05  2.712283E+03 -5.215139E+04  1.031037E+04
        80   4 -2.460341E+06 -1.915428E+05 -2.489659E+05 -8.730128E+03 -1.698696E+05  3.161401E+03
        80   5 -2.424463E+06  4.216216E+04 -1.069004E+05 -8.399555E+03 -1.116591E+05  1.127302E+04
        80   6 -2.460100E+06  6.976004E+03 -6.939137E+04 -9.598711E+03 -5.341059E+04  1.030767E+04
        80   7 -1.715603E+06 -4.693695E+03 -6.282484E+04  2.207856E+04 -1.673412E+05  3.164910E+03
        80   8 -1.681286E+06  2.281143E+05  7.769339E+04  8.424880E+02 -1.110250E+05  1.127303E+04
        80   9 -1.718068E+06  1.925351E+05  1.150626E+05 -2.192479E+04 -5.467126E+04  1.030501E+04
        80  10 -3.204604E+06 -3.784386E+05 -4.352045E+05 -3.950187E+04  3.453616E-11  8.829818E-10
        80  11 -3.167149E+06 -1.438348E+05 -2.915596E+05 -1.762991E+04 -7.469474E-09  9.289414E-10
        80  12 -3.201634E+06 -1.786248E+05 -2.538919E+05  2.712717E+03 -3.383292E-09 -9.829844E-10
        80  13 -2.460372E+06 -1.915506E+05 -2.490203E+05 -8.729695E+03  9.928207E-11  2.940811E-10
        80  14 -2.424476E+06  4.215866E+04 -1.069241E+05 -8.398540E+03  8.259938E-10  5.464127E-10
        80  15 -2.460104E+06  6.975120E+03 -6.939695E+04 -9.598267E+03 -2.025084E-10 -5.233856E-10
        80  16 -1.715633E+06 -4.701249E+03 -6.287763E+04  2.207899E+04  5.190432E-09  3.162189E-10
        80  17 -1.681300E+06  2.281108E+05  7.766992E+04  8.434964E+02 -2.731889E-09  6.255444E-10
        80  18 -1.718071E+06  1.925341E+05  1.150568E+05 -2.192433E+04  2.704936E-09 -2.468133E-10
        80  19 -3.204572E+06 -3.784306E+05 -4.351484E+05 -3.950231E+04  1.723949E+05 -3.158145E+03
        80  20 -3.167135E+06 -1.438313E+05 -2.915355E+05 -1.763093E+04  1.122924E+05 -1.127303E+04
        80  21 -3.201631E+06 -1.786239E+05 -2.538866E+05  2.712283E+03  5.215139E+04 -1.031037E+04
        80  22 -2.460341E+06 -1.915428E+05 -2.489659E+05 -8.730128E+03  1.698696E+05 -3.161401E+03
        80  23 -2.424463E+06  4.216216E+04 -1.069004E+05 -8.399555E+03  1.116591E+05 -1.127302E+04
        80  24 -2.460100E+06  6.976004E+03 -6.939137E+04 -9.598711E+03  5.341059E+04 -1.030767E+04
        80  25 -1.715603E+06 -4.693695E+03 -6.282484E+04  2.207856E+04  1.673412E+05 -3.164910E+03
        80  26 -1.681286E+06  2.281143E+05  7.769339E+04  8.424880E+02  1.110250E+05 -1.127303E+04
        80  27 -1.718068E+06  1.925351E+05  1.150626E+05 -2.192479E+04  5.467126E+04 -1.030501E+04
        81   1 -3.131559E+06 -1.995916E+05 -2.279653E+05 -2.214653E+04 -4.239170E+04  8.848089E+03
        81   2 -3.105535E+06 -1.601427E+05 -1.929489E+05  2.293432E+01 -2.751316E+04  9.524154E+03
        81   3 -3.088477E+06 -1.598037E+05 -1.768722E+05 -1.523987E+04 -1.263340E+04  8.339364E+03
        81   4 -2.446218E+06 -2.794779E+04 -5.733975E+04 -1.727326E+04 -4.208347E+04  8.847759E+03
        81   5 -2.441761E+06  6.052310E+03 -2.782805E+04  1.416966E+03 -2.759111E+04  9.523390E+03
        81   6 -2.446187E+06  1.033765E+03 -1.697176E+04 -1.732270E+04 -1.309806E+04  8.338872E+03
        81   7 -1.760449E+06  1.436607E+05  1.132505E+05 -1.239477E+04 -4.177488E+04  8.847434E+03
        81   8 -1.777584E+06  1.722141E+05  1.372597E+05  2.812403E+03 -2.766913E+04  9.522627E+03
        81   9 -1.803521E+06  1.618401E+05  1.428977E+05 -1.940769E+04 -1.356319E+04  8.338384E+03
        81  10 -3.131561E+06 -1.995922E+05 -2.279689E+05 -2.214623E+04 -3.987160E-09 -6.125761E-10
        81  11 -3.105536E+06 -1.601430E+05 -1.929505E+05  2.314563E+01 -4.172426E-09  1.345065E-09
        81  12 -3.088477E+06 -1.598039E+05 -1.768726E+05 -1.523979E+04 -2.018097E-09  2.519143E-10
        81  13 -2.446220E+06 -2.794835E+04 -5.734324E+04 -1.727296E+04  5.483671E-11 -9.834989E-10
        81  14 -2.441762E+06  6.052008E+03 -2.782966E+04  1.417178E+03  7.232017E-11  6.152736E-10
        81  15 -2.446187E+06  1.033644E+03 -1.697221E+04 -1.732261E+04  2.604569E-09  9.509639E-10
        81  16 -1.760451E+06  1.436601E+05  1.132471E+05 -1.239447E+04  7.849915E-10  8.507464E-11
        81  17 -1.777585E+06  1.722137E+05  1.372581E+05  2.812616E+03 -1.559014E-09  1.140916E-09
        81  18 -1.803521E+06  1.618400E+05  1.428972E+05 -1.940759E+04  4.539508E-09  5.358420E-10
        81  19 -3.131559E+06 -1.995916E+05 -2.279653E+05 -2.214653E+04  4.239170E+04 -8.848089E+03
        81  20 -3.105535E+06 -1.601427E+05 -1.929489E+05  2.293432E+01  2.751316E+04 -9.524154E+03
        81  21 -3.088477E+06 -1.598037E+05 -1.768722E+05 -1.523987E+04  1.263340E+04 -8.339364E+03
        81  22 -2.446218E+06 -2.794779E+04 -5.733975E+04 -1.727326E+04  4.208347E+04 -8.847759E+03
        81  23 -2.441761E+06  6.052310E+03 -2.782805E+04  1.416966E+03  2.759111E+04 -9.523390E+03
        81  24 -2.446187E+06  1.033765E+03 -1.697176E+04 -1.732270E+04  1.309806E+04 -8.338872E+03
        81  25 -1.760449E+06  1.436607E+05  1.132505E+05 -1.239477E+04  4.177488E+04 -8.847434E+03
        81  26 -1.777584E+06  1.722141E+05  1.372597E+05  2.812403E+03  2.766913E+04 -9.522627E+03
        81  27 -1.803521E+06  1.618401E+05  1.428977E+05 -1.940769E+04  1.356319E+04 -8.338384E+03
        82   1 -2.943363E+06 -1.290435E+05 -1.377190E+05 -2.387385E+04 -1.022954E+04  7.492974E+03
        82   2 -2.905432E+06 -1.146936E+05 -1.220105E+05  9.452534E+03 -6.435769E+03  6.554621E+03
        82   3 -2.868272E+06 -1.058963E+05 -1.099432E+05 -2.261697E+04 -2.644837E+03  4.977154E+03
        82   4 -2.444333E+06 -4.120074E+03 -1.363693E+04 -2.352469E+04 -1.036787E+04  7.492652E+03
        82   5 -2.443964E+06  8.354155E+02 -7.217886E+03  9.173102E+03 -6.709017E+03  6.554620E+03
        82   6 -2.444341E+06  2.648303E+02 -4.343444E+03 -2.352197E+04 -3.053231E+03  4.977679E+03
        82   7 -1.945076E+06  1.207846E+05  1.104264E+05 -2.317522E+04 -1.050630E+04  7.492330E+03
        82   8 -1.982302E+06  1.163483E+05  1.075587E+05  8.893514E+03 -6.982467E+03  6.554620E+03
        82   9 -2.020245E+06  1.064124E+05  1.012428E+05 -2.442752E+04 -3.461905E+03  4.978206E+03
        82  10 -2.943363E+06 -1.290436E+05 -1.377193E+05 -2.387379E+04 -1.041773E-09  5.999610E-11
        82  11 -2.905432E+06 -1.146936E+05 -1.220107E+05  9.452568E+03 -3.958573E-09  4.824619E-10
        82  12 -2.868272E+06 -1.058964E+05 -1.099432E+05 -2.261696E+04  3.900725E-10  3.568703E-10
        82  13 -2.444333E+06 -4.120163E+03 -1.363724E+04 -2.352463E+04  2.173903E-09  4.849203E-10
        82  14 -2.443964E+06  8.353573E+02 -7.218051E+03  9.173137E+03  3.304068E-09  2.550427E-10
        82  15 -2.444341E+06  2.648012E+02 -4.343508E+03 -2.352196E+04 -1.574346E-09  2.969559E-10
        82  16 -1.945077E+06  1.207845E+05  1.104261E+05 -2.317515E+04  3.736246E-09  9.478423E-10
        82  17 -1.982302E+06  1.163483E+05  1.075586E+05  8.893551E+03  1.274217E-10 -9.458608E-11
        82  18 -2.020245E+06  1.064124E+05  1.012427E+05 -2.442751E+04  1.241268E-09  2.863730E-10
        82  19 -2.943363E+06 -1.290435E+05 -1.377190E+05 -2.387385E+04  1.022954E+04 -7.492974E+03
        82  20 -2.905432E+06 -1.146936E+05 -1.220105E+05  9.452534E+03  6.435769E+03 -6.554621E+03
        82  21 -2.868272E+06 -1.058963E+05 -1.099432E+05 -2.261697E+04  2.644837E+03 -4.977154E+03
        82  22 -2.444333E+06 -4.120074E+03 -1.363693E+04 -2.352469E+04  1.036787E+04 -7.492652E+03
        82  23 -2.443964E+06  8.354155E+02 -7.217886E+03  9.173102E+03  6.709017E+03 -6.554620E+03
        82  24 -2.444341E+06  2.648303E+02 -4.343444E+03 -2.352197E+04  3.053231E+03 -4.977679E+03
        82  25 -1.945076E+06  1.207846E+05  1.104264E+05 -2.317522E+04  1.050630E+04 -7.492330E+03
        82  26 -1.982302E+06  1.163483E+05  1.075587E+05  8.893514E+03  6.982467E+03 -6.554620E+03
        82  27 -2.020245E+06  1.064124E+05  1.012428E+05 -2.442752E+04  3.461905E+03 -4.978206E+03
        83   1 -2.664208E+06 -5.557330E+04 -5.815024E+04 -2.676256E+04 -2.041783E+03  3.990128E+03
        83   2 -2.617329E+06 -4.327998E+04 -4.537042E+04  1.383045E+04 -8.716661E+02  2.455390E+03
        83   3 -2.571056E+06 -3.169016E+04 -3.358876E+04 -2.671095E+04  2.970011E+02  7.230335E+02
        83   4 -2.444266E+06 -5.426104E+02 -3.568260E+03 -2.702192E+04 -2.350949E+03  3.990681E+03
        83   5 -2.443968E+06  1.141771E+02 -2.252853E+03  1.354521E+04 -1.223044E+03  2.456152E+03
        83   6 -2.444273E+06  7.502121E+01 -1.905944E+03 -2.702064E+04 -9.667741E+01  7.240357E+02
        83   7 -2.224280E+06  5.448444E+04  5.101010E+04 -2.728136E+04 -2.660225E+03  3.991234E+03
        83   8 -2.270581E+06  4.350607E+04  4.086246E+04  1.325991E+04 -1.574520E+03  2.456914E+03
        83   9 -2.317475E+06  3.183898E+04  2.977565E+04 -2.733039E+04 -4.904366E+02  7.250382E+02
        83  10 -2.664208E+06 -5.557332E+04 -5.815028E+04 -2.676255E+04 -2.572552E-09 -5.769003E-10
        83  11 -2.617329E+06 -4.327999E+04 -4.537044E+04  1.383045E+04 -6.316258E-09  6.813266E-10
        83  12 -2.571056E+06 -3.169016E+04 -3.358876E+04 -2.671095E+04 -8.899775E-10  1.292347E-10
        83  13 -2.444266E+06 -5.426290E+02 -3.568300E+03 -2.702191E+04 -2.192604E-09  1.534310E-10
        83  14 -2.443968E+06  1.141702E+02 -2.252868E+03  1.354521E+04 -4.034949E-09  1.319583E-09
        83  15 -2.444273E+06  7.502065E+01 -1.905945E+03 -2.702064E+04 -1.058422E-09  4.152097E-10
        83  16 -2.224280E+06  5.448442E+04  5.101006E+04 -2.728135E+04  4.366555E-09  7.896756E-10
        83  17 -2.270581E+06  4.350606E+04  4.086245E+04  1.325991E+04  6.703547E-10  4.420598E-10
        83  18 -2.317475E+06  3.183898E+04  2.977565E+04 -2.733039E+04 -1.770222E-10 -3.742100E-10
        83  19 -2.664208E+06 -5.557330E+04 -5.815024E+04 -2.676256E+04  2.041783E+03 -3.990128E+03
        83  20 -2.617329E+06 -4.327998E+04 -4.537042E+04  1.383045E+04  8.716661E+02 -2.455390E+03
        83  21 -2.571056E+06 -3.169016E+04 -3.358876E+04 -2.671095E+04 -2.970011E+02 -7.230335E+02
        83  22 -2.444266E+06 -5.426104E+02 -3.568260E+03 -2.702192E+04  2.350949E+03 -3.990681E+03
        83  23 -2.443968E+06  1.141771E+02 -2.252853E+03  1.354521E+04  1.223044E+03 -2.456152E+03
        83  24 -2.444273E+06  7.502121E+01 -1.905944E+03 -2.702064E+04  9.667741E+01 -7.240357E+02
        83  25 -2.224280E+06  5.448444E+04  5.101010E+04 -2.728136E+04  2.660225E+03 -3.991234E+03
        83  26 -2.270581E+06  4.350607E+04  4.086246E+04  1.325991E+04  1.574520E+03 -2.456914E+03
        83  27 -2.317475E+06  3.183898E+04  2.977565E+04 -2.733039E+04  4.904366E+02 -7.250382E+02
        84   1 -2.344213E+06  2.515682E+04  2.310299E+04 -2.742801E+04  6.351915E+02 -3.533673E+02
        84   2 -2.296899E+06  3.692599E+04  3.418194E+04  1.348028E+04  1.791633E+03 -2.085217E+03
        84   3 -2.250268E+06  4.794026E+04  4.424493E+04 -2.739345E+04  2.949504E+03 -3.646453E+03
        84   4 -2.444291E+06  7.982845E+01 -1.933597E+03 -2.716509E+04  2.443818E+02 -3.523622E+02
        84   5 -2.443942E+06  1.263791E+02 -2.383045E+03  1.372581E+04  1.437324E+03 -2.084419E+03
        84   6 -2.444286E+06 -5.883360E+02 -3.873932E+03 -2.716653E+04  2.631607E+03 -3.645837E+03
        84   7 -2.544359E+06 -2.499793E+04 -2.697094E+04 -2.690221E+04 -1.463647E+02 -3.513574E+02
        84   8 -2.590966E+06 -3.667486E+04 -3.894966E+04  1.397130E+04  1.083098E+03 -2.083621E+03
        84   9 -2.638269E+06 -4.911976E+04 -5.199560E+04 -2.693966E+04  2.313809E+03 -3.645222E+03
        84  10 -2.344213E+06  2.515682E+04  2.310299E+04 -2.742801E+04 -3.700987E-09  1.660536E-10
        84  11 -2.296899E+06  3.692598E+04  3.418193E+04  1.348028E+04 -6.127256E-09  7.031690E-10
        84  12 -2.250268E+06  4.794024E+04  4.424488E+04 -2.739345E+04 -3.352917E-09 -4.614468E-10
        84  13 -2.444291E+06  7.982830E+01 -1.933597E+03 -2.716509E+04 -6.200358E-09  6.733872E-10
        84  14 -2.443942E+06  1.263739E+02 -2.383057E+03  1.372581E+04 -4.037168E-09  8.247015E-10
        84  15 -2.444286E+06 -5.883521E+02 -3.873970E+03 -2.716652E+04 -2.451826E-09 -4.203452E-10
        84  16 -2.544359E+06 -2.499793E+04 -2.697094E+04 -2.690221E+04  2.433799E-09  4.158223E-10
        84  17 -2.590966E+06 -3.667487E+04 -3.894967E+04  1.397130E+04  2.405993E-10  2.577471E-10
        84  18 -2.638269E+06 -4.911978E+04 -5.199564E+04 -2.693965E+04 -3.209486E-09 -1.290789E-09
        84  19 -2.344213E+06  2.515682E+04  2.310299E+04 -2.742801E+04 -6.351915E+02  3.533673E+02
        84  20 -2.296899E+06  3.692599E+04  3.418194E+04  1.348028E+04 -1.791633E+03  2.085217E+03
        84  21 -2.250268E+06  4.794026E+04  4.424493E+04 -2.739345E+04 -2.949504E+03  3.646453E+03
        84  22 -2.444291E+06  7.982845E+01 -1.933597E+03 -2.716509E+04 -2.443818E+02  3.523622E+02
        84  23 -2.443942E+06  1.263791E+02 -2.383045E+03  1.372581E+04 -1.437324E+03  2.084419E+03
        84  24 -2.444286E+06 -5.883360E+02 -3.873932E+03 -2.716653E+04 -2.631607E+03  3.645837E+03
        84  25 -2.544359E+06 -2.499793E+04 -2.697094E+04 -2.690221E+04  1.463647E+02  3.513574E+02
        84  26 -2.590966E+06 -3.667486E+04 -3.894966E+04  1.397130E+04 -1.083098E+03  2.083621E+03
        84  27 -2.638269E+06 -4.911976E+04 -5.199560E+04 -2.693966E+04 -2.313809E+03  3.645222E+03
        85   1 -2.042815E+06  1.008048E+05  9.524259E+04 -2.486906E+04  3.811194E+03 -4.650096E+03
        85   2 -2.003663E+06  1.110743E+05  1.015365E+05  9.390980E+03  7.690049E+03 -6.253488E+03
        85   3 -1.965563E+06  1.152827E+05  1.039779E+05 -2.358918E+04  1.157211E+04 -7.238929E+03
        85   4 -2.444411E+06  2.848578E+02 -4.752781E+03 -2.393280E+04  3.399084E+03 -4.649495E+03
        85   5 -2.443869E+06  9.284882E+02 -7.907116E+03  9.686942E+03  7.408578E+03 -6.253413E+03
        85   6 -2.444405E+06 -4.514313E+03 -1.500676E+04 -2.393652E+04  1.142103E+04 -7.239193E+03
        85   7 -2.845861E+06 -1.002473E+05 -1.047603E+05 -2.299708E+04  2.987241E+03 -4.648894E+03
        85   8 -2.883898E+06 -1.092319E+05 -1.173652E+05  9.982749E+03  7.127305E+03 -6.253339E+03
        85   9 -2.923037E+06 -1.243286E+05 -1.340087E+05 -2.428356E+04  1.127007E+04 -7.239457E+03
        85  10 -2.042815E+06  1.008048E+05  9.524253E+04 -2.486904E+04 -3.066349E-09 -1.309402E-09
        85  11 -2.003663E+06  1.110742E+05  1.015363E+05  9.391019E+03 -8.770658E-09  1.298083E-09
        85  12 -1.965563E+06  1.152826E+05  1.039776E+05 -2.358911E+04 -3.394886E-09 -7.821386E-10
        85  13 -2.444411E+06  2.848315E+02 -4.752844E+03 -2.393279E+04 -4.559235E-09 -1.153158E-09
        85  14 -2.443869E+06  9.284315E+02 -7.907293E+03  9.686980E+03 -1.364051E-10  1.056694E-09
        85  15 -2.444405E+06 -4.514405E+03 -1.500711E+04 -2.393645E+04 -6.139499E-10 -1.312719E-09
        85  16 -2.845861E+06 -1.002473E+05 -1.047603E+05 -2.299707E+04 -1.317483E-09 -5.493816E-10
        85  17 -2.883898E+06 -1.092320E+05 -1.173654E+05  9.982785E+03  1.556575E-09  1.524211E-09
        85  18 -2.923037E+06 -1.243287E+05 -1.340090E+05 -2.428349E+04  2.737580E-09 -1.949160E-09
        85  19 -2.042815E+06  1.008048E+05  9.524259E+04 -2.486906E+04 -3.811194E+03  4.650096E+03
        85  20 -2.003663E+06  1.110743E+05  1.015365E+05  9.390980E+03 -7.690049E+03  6.253488E+03
        85  21 -1.965563E+06  1.152827E+05  1.039779E+05 -2.358918E+04 -1.157211E+04  7.238929E+03
        85  22 -2.444411E+06  2.848578E+02 -4.752781E+03 -2.393280E+04 -3.399084E+03  4.649495E+03
        85  23 -2.443869E+06  9.284882E+02 -7.907116E+03  9.686942E+03 -7.408578E+03  6.253413E+03
        85  24 -2.444405E+06 -4.514313E+03 -1.500676E+04 -2.393652E+04 -1.142103E+04  7.239193E+03
        85  25 -2.845861E+06 -1.002473E+05 -1.047603E+05 -2.299708E+04 -2.987241E+03  4.648894E+03
        85  26 -2.883898E+06 -1.092319E+05 -1.173652E+05  9.982749E+03 -7.127305E+03  6.253339E+03
        85  27 -2.923037E+06 -1.243286E+05 -1.340087E+05 -2.428356E+04 -1.127007E+04  7.239457E+03
        86   1 -1.817926E+06  1.584217E+05  1.376749E+05 -2.028805E+04  1.490573E+04 -8.115994E+03
        86   2 -1.789797E+06  1.696965E+05  1.313590E+05  3.543174E+03  3.046628E+04 -9.349572E+03
        86   3 -1.771761E+06  1.380971E+05  1.047131E+05 -1.272192E+04  4.602741E+04 -8.727324E+03
        86   4 -2.446472E+06  1.144639E+03 -1.868976E+04 -1.791501E+04  1.443021E+04 -8.116360E+03
        86   5 -2.441401E+06  6.679353E+03 -3.060465E+04  2.158420E+03  3.037597E+04 -9.350314E+03
        86   6 -2.446507E+06 -3.075307E+04 -6.313359E+04 -1.786732E+04  4.632175E+04 -8.727776E+03
        86   7 -3.074658E+06 -1.561622E+05 -1.750841E+05 -1.554435E+04  1.395516E+04 -8.116730E+03
        86   8 -3.092619E+06 -1.563698E+05 -1.926001E+05  7.750538E+02  3.028575E+04 -9.351056E+03
        86   9 -3.120838E+06 -1.996375E+05 -2.310145E+05 -2.300727E+04  4.661574E+04 -8.728234E+03
        86  10 -1.817926E+06  1.584216E+05  1.376744E+05 -2.028796E+04 -4.298077E-09 -1.610404E-09
        86  11 -1.789798E+06  1.696962E+05  1.313571E+05  3.543403E+03 -4.008623E-09 -4.833670E-10
        86  12 -1.771763E+06  1.380964E+05  1.047090E+05 -1.272160E+04  1.414712E-09  7.220861E-10
        86  13 -2.446472E+06  1.144512E+03 -1.869028E+04 -1.791491E+04  2.536836E-10 -1.792893E-09
        86  14 -2.441402E+06  6.679011E+03 -3.060655E+04  2.158649E+03  1.958232E-09 -2.513300E-11
        86  15 -2.446509E+06 -3.075373E+04 -6.313778E+04 -1.786699E+04 -4.001900E-09 -6.401760E-11
        86  16 -3.074659E+06 -1.561623E+05 -1.750846E+05 -1.554426E+04  2.689686E-09 -2.128186E-09
        86  17 -3.092620E+06 -1.563701E+05 -1.926020E+05  7.752822E+02  2.312980E-10  2.336456E-11
        86  18 -3.120841E+06 -1.996381E+05 -2.310187E+05 -2.300694E+04 -1.067007E-11 -2.132602E-10
        86  19 -1.817926E+06  1.584217E+05  1.376749E+05 -2.028805E+04 -1.490573E+04  8.115994E+03
        86  20 -1.789797E+06  1.696965E+05  1.313590E+05  3.543174E+03 -3.046628E+04  9.349572E+03
        86  21 -1.771761E+06  1.380971E+05  1.047131E+05 -1.272192E+04 -4.602741E+04  8.727324E+03
        86  22 -2.446472E+06  1.144639E+03 -1.868976E+04 -1.791501E+04 -1.443021E+04  8.116360E+03
        86  23 -2.441401E+06  6.679353E+03 -3.060465E+04  2.158420E+03 -3.037597E+04  9.350314E+03
        86  24 -2.446507E+06 -3.075307E+04 -6.313359E+04 -1.786732E+04 -4.632175E+04  8.727776E+03
        86  25 -3.074658E+06 -1.561622E+05 -1.750841E+05 -1.554435E+04 -1.395516E+04  8.116730E+03
        86  26 -3.092619E+06 -1.563698E+05 -1.926001E+05  7.750538E+02 -3.028575E+04  9.351056E+03
        86  27 -3.120838E+06 -1.996375E+05 -2.310145E+05 -2.300727E+04 -4.661574E+04  8.728234E+03
        87   1 -1.722822E+06  1.924826E+05  1.072963E+05 -2.409592E+04  6.007973E+04 -1.022848E+04
        87   2 -1.680542E+06  2.320584E+05  6.660711E+04  2.282965E+03  1.222935E+05 -1.124928E+04
        87   3 -1.716909E+06 -2.392418E+04 -8.784061E+04  2.417595E+04  1.844731E+05 -3.131848E+03
        87   4 -2.461779E+06  7.692144E+03 -7.639881E+04 -1.026596E+04  5.879654E+04 -1.023065E+04
        87   5 -2.422373E+06  4.644292E+04 -1.176517E+05 -7.569822E+03  1.229122E+05 -1.124974E+04
        87   6 -2.462041E+06 -2.108873E+05 -2.740845E+05 -9.358507E+03  1.869930E+05 -3.130578E+03
        87   7 -3.200238E+06 -1.771387E+05 -2.601348E+05  3.547224E+03  5.751485E+04 -1.023287E+04
        87   8 -3.163701E+06 -1.392137E+05 -3.019517E+05 -1.741120E+04  1.235301E+05 -1.125021E+04
        87   9 -3.206665E+06 -3.978884E+05 -4.603698E+05 -4.285313E+04  1.895099E+05 -3.129585E+03
        87  10 -1.722826E+06  1.924815E+05  1.072893E+05 -2.409543E+04 -2.217683E-09  1.230085E-09
        87  11 -1.680558E+06  2.320543E+05  6.657869E+04  2.284073E+03 -2.014835E-09  1.648002E-09
        87  12 -1.716945E+06 -2.393336E+04 -8.790476E+04  2.417642E+04 -6.890067E-10 -8.038351E-11
        87  13 -2.461783E+06  7.691099E+03 -7.640553E+04 -1.026547E+04  1.311396E-12  7.532090E-10
        87  14 -2.422389E+06  4.643871E+04 -1.176804E+05 -7.568708E+03 -1.151166E-10  1.106958E-09
        87  15 -2.462078E+06 -2.108967E+05 -2.741505E+05 -9.358036E+03 -2.076201E-09  7.239924E-10
        87  16 -3.200241E+06 -1.771397E+05 -2.601413E+05  3.547698E+03  4.377910E-10  7.135069E-11
        87  17 -3.163718E+06 -1.392180E+05 -3.019808E+05 -1.741008E+04  2.032863E-09  2.321451E-09
        87  18 -3.206704E+06 -3.978981E+05 -4.604376E+05 -4.285265E+04 -1.254782E-09  9.267747E-10
        87  19 -1.722822E+06  1.924826E+05  1.072963E+05 -2.409592E+04 -6.007973E+04  1.022848E+04
        87  20 -1.680542E+06  2.320584E+05  6.660711E+04  2.282965E+03 -1.222935E+05  1.124928E+04
        87  21 -1.716909E+06 -2.392418E+04 -8.784061E+04  2.417595E+04 -1.844731E+05  3.131848E+03
        87  22 -2.461779E+06  7.692144E+03 -7.639881E+04 -1.026596E+04 -5.879654E+04  1.023065E+04
        87  23 -2.422373E+06  4.644292E+04 -1.176517E+05 -7.569822E+03 -1.229122E+05  1.124974E+04
        87  24 -2.462041E+06 -2.108873E+05 -2.740845E+05 -9.358507E+03 -1.869930E+05  3.130578E+03
        87  25 -3.200238E+06 -1.771387E+05 -2.601348E+05  3.547224E+03 -5.751485E+04  1.023287E+04
        87  26 -3.163701E+06 -1.392137E+05 -3.019517E+05 -1.741120E+04 -1.235301E+05  1.125021E+04
        87  27 -3.206665E+06 -3.978884E+05 -4.603698E+05 -4.285313E+04 -1.895099E+05  3.129585E+03
        88   1  5.522210E+05  1.252177E+06  5.872114E+05 -1.673156E+05  8.370764E+03  1.203850E+05
        88   2  3.416390E+05  1.014451E+06  4.358670E+05  2.533315E+04  2.362004E+04  7.763640E+04
        88   3  3.162452E+05  8.350862E+05  3.599592E+05 -1.429222E+05  1.422595E+04  3.471467E+04
        88   4  1.287602E+05 -4.424014E+05  1.650326E+05 -1.413562E+05  8.411143E+03  1.142727E+05
        88   5 -2.916277E+04 -4.713171E+05  6.794457E+04  3.873466E+04  2.362960E+04  7.695004E+04
        88   6 -2.612911E+03 -4.427344E+05  4.266842E+04 -1.421273E+05  1.418046E+04  3.943948E+04
        88   7 -2.949148E+05 -2.134376E+06 -2.573618E+05 -1.154636E+05  8.451075E+03  1.081767E+05
        88   8 -4.001294E+05 -1.955082E+06 -3.001423E+05  5.210789E+04  2.363914E+04  7.626515E+04
        88   9 -3.215935E+05 -1.719073E+06 -2.747444E+05 -1.413303E+05  1.413494E+04  4.415452E+04
        88  10  5.522171E+05  1.252161E+06  5.871841E+05 -1.673165E+05  3.804784E-09  1.448070E-09
        88  11  3.416368E+05  1.014445E+06  4.358546E+05  2.533167E+04  2.976198E-10  3.620541E-10
        88  12  3.162447E+05  8.350848E+05  3.599566E+05 -1.429226E+05  1.575551E-09 -1.070895E-09
        88  13  1.287566E+05 -4.424154E+05  1.650079E+05 -1.413570E+05 -1.167402E-09  2.470841E-12
        88  14 -2.916496E+04 -4.713236E+05  6.793239E+04  3.873319E+04  7.208810E-09  1.326926E-10
        88  15 -2.613545E+03 -4.427361E+05  4.266512E+04 -1.421278E+05  4.173294E-09  4.127905E-11
        88  16 -2.949180E+05 -2.134389E+06 -2.573840E+05 -1.154643E+05  2.475573E-09 -1.344515E-09
        88  17 -4.001316E+05 -1.955088E+06 -3.001543E+05  5.210644E+04  7.150316E-09 -2.590105E-10
        88  18 -3.215942E+05 -1.719076E+06 -2.747484E+05 -1.413308E+05  2.845932E-09  1.103005E-09
        88  19  5.522210E+05  1.252177E+06  5.872114E+05 -1.673156E+05 -8.370764E+03 -1.203850E+05
        88  20  3.416390E+05  1.014451E+06  4.358670E+05  2.533315E+04 -2.362004E+04 -7.763640E+04
        88  21  3.162452E+05  8.350862E+05  3.599592E+05 -1.429222E+05 -1.422595E+04 -3.471467E+04
        88  22  1.287602E+05 -4.424014E+05  1.650326E+05 -1.413562E+05 -8.411143E+03 -1.142727E+05
        88  23 -2.916277E+04 -4.713171E+05  6.794457E+04  3.873466E+04 -2.362960E+04 -7.695004E+04
        88  24 -2.612911E+03 -4.427344E+05  4.266842E+04 -1.421273E+05 -1.418046E+04 -3.943948E+04
        88  25 -2.949148E+05 -2.134376E+06 -2.573618E+05 -1.154636E+05 -8.451075E+03 -1.081767E+05
        88  26 -4.001294E+05 -1.955082E+06 -3.001423E+05  5.210789E+04 -2.363914E+04 -7.626515E+04
        88  27 -3.215935E+05 -1.719073E+06 -2.747444E+05 -1.413303E+05 -1.413494E+04 -4.415452E+04
        89   1  9.045656E+04 -1.777626E+05  1.013199E+05 -1.472950E+05  5.417583E+03  3.149708E+04
        89   2  1.393151E+04 -3.877548E+05  2.591265E+04  3.932395E+04  6.757495E+02  2.646261E+04
        89   3 -4.348337E+04 -6.018961E+05 -4.341278E+04 -1.425238E+05 -4.294369E+03  2.142606E+04
        89   4  2.098403E+04 -4.559082E+05  3.255504E+04 -1.433403E+05  5.407227E+03  3.250154E+04
        89   5 -2.597271E+03 -4.538243E+05  9.515763E+03  4.074675E+04  6.646811E+02  2.752047E+04
        89   6 -7.071177E+03 -4.559331E+05 -7.468954E+03 -1.436346E+05 -4.306229E+03  2.253561E+04
        89   7 -4.849425E+04 -7.339834E+05 -3.621558E+04 -1.393873E+05  5.396881E+03  3.350554E+04
        89   8 -1.912637E+04 -5.198897E+05 -6.881448E+03  4.216942E+04  6.536171E+02  2.857821E+04
        89   9  2.933943E+04 -3.099507E+05  2.847330E+04 -1.447456E+05 -4.318092E+03  2.364543E+04
        89  10  9.045626E+04 -1.777637E+05  1.013180E+05 -1.472951E+05 -4.676252E-10  1.201827E-10
        89  11  1.393132E+04 -3.877556E+05  2.591133E+04  3.932393E+04  2.951465E-09 -5.164223E-10
        89  12 -4.348351E+04 -6.018966E+05 -4.341368E+04 -1.425238E+05  1.807642E-09 -2.218572E-10
        89  13  2.098371E+04 -4.559093E+05  3.255300E+04 -1.433405E+05  3.516221E-09  8.800266E-11
        89  14 -2.597475E+03 -4.538251E+05  9.514338E+03  4.074674E+04  4.367482E-09  5.344004E-11
        89  15 -7.071333E+03 -4.559337E+05 -7.469944E+03 -1.436345E+05  3.288744E-09  1.442303E-10
        89  16 -4.849458E+04 -7.339846E+05 -3.621775E+04 -1.393874E+05 -1.709678E-09 -1.375573E-10
        89  17 -1.912659E+04 -5.198906E+05 -6.882985E+03  4.216941E+04  9.453440E-10  5.104827E-10
        89  18  2.933926E+04 -3.099513E+05  2.847222E+04 -1.447455E+05 -1.568175E-09  1.603010E-10
        89  19  9.045656E+04 -1.777626E+05  1.013199E+05 -1.472950E+05 -5.417583E+03 -3.149708E+04
        89  20  1.393151E+04 -3.877548E+05  2.591265E+04  3.932395E+04 -6.757495E+02 -2.646261E+04
        89  21 -4.348337E+04 -6.018961E+05 -4.341278E+04 -1.425238E+05  4.294369E+03 -2.142606E+04
        89  22  2.098403E+04 -4.559082E+05  3.255504E+04 -1.433403E+05 -5.407227E+03 -3.250154E+04
        89  23 -2.597271E+03 -4.538243E+05  9.515763E+03  4.074675E+04 -6.646811E+02 -2.752047E+04
        89  24 -7.071177E+03 -4.559331E+05 -7.468954E+03 -1.436346E+05  4.306229E+03 -2.253561E+04
        89  25 -4.849425E+04 -7.339834E+05 -3.621558E+04 -1.393873E+05 -5.396881E+03 -3.350554E+04
        89  26 -1.912637E+04 -5.198897E+05 -6.881448E+03  4.216942E+04 -6.536171E+02 -2.857821E+04
        89  27  2.933943E+04 -3.099507E+05  2.847330E+04 -1.447456E+05  4.318092E+03 -2.364543E+04
        90   1 -2.785204E+05 -1.605298E+06 -2.981524E+05 -1.291128E+05 -1.291031E+04  1.961236E+04
        90   2 -3.267763E+05 -1.804880E+06 -3.669751E+05  4.498753E+04 -2.254872E+04  4.135494E+04
        90   3 -4.504164E+05 -2.022361E+06 -4.681326E+05 -1.438438E+05 -8.804921E+03  6.328113E+04
        90   4  8.206547E+03 -4.592076E+05 -1.302803E+04 -1.420809E+05 -1.295580E+04  2.419705E+04
        90   5  1.165348E+04 -4.505832E+05 -3.106579E+04  3.913283E+04 -2.254205E+04  4.093497E+04
        90   6 -5.930445E+04 -4.589573E+05 -7.789860E+04 -1.425382E+05 -8.767898E+03  5.786389E+04
        90   7  2.948350E+05  6.880773E+05  2.719979E+05 -1.550698E+05 -1.300145E+04  2.879018E+04
        90   8  3.499457E+05  9.053833E+05  3.047066E+05  3.326868E+04 -2.253538E+04  4.051401E+04
        90   9  3.316231E+05  1.106668E+06  3.121514E+05 -1.412255E+05 -8.730946E+03  5.243283E+04
        90  10 -2.785207E+05 -1.605299E+06 -2.981535E+05 -1.291126E+05 -2.296191E-09  9.119115E-10
        90  11 -3.267773E+05 -1.804882E+06 -3.669793E+05  4.498829E+04 -3.874222E-09  1.776361E-10
        90  12 -4.504175E+05 -2.022365E+06 -4.681403E+05 -1.438433E+05 -8.631347E-10  1.775505E-11
        90  13  8.206209E+03 -4.592083E+05 -1.302944E+04 -1.420806E+05 -3.905988E-09  6.441626E-11
        90  14  1.165248E+04 -4.505851E+05 -3.106989E+04  3.913358E+04 -2.582965E-09 -1.872386E-10
        90  15 -5.930544E+04 -4.589609E+05 -7.790504E+04 -1.425378E+05 -9.265923E-10 -4.086078E-11
        90  16  2.948346E+05  6.880764E+05  2.719961E+05 -1.550695E+05 -6.049553E-10 -8.579883E-10
        90  17  3.499447E+05  9.053814E+05  3.047026E+05  3.326942E+04 -2.853947E-09 -1.829742E-10
        90  18  3.316223E+05  1.106665E+06  3.121461E+05 -1.412252E+05  1.131544E-09 -3.718742E-11
        90  19 -2.785204E+05 -1.605298E+06 -2.981524E+05 -1.291128E+05  1.291031E+04 -1.961236E+04
        90  20 -3.267763E+05 -1.804880E+06 -3.669751E+05  4.498753E+04  2.254872E+04 -4.135494E+04
        90  21 -4.504164E+05 -2.022361E+06 -4.681326E+05 -1.438438E+05  8.804921E+03 -6.328113E+04
        90  22  8.206547E+03 -4.592076E+05 -1.302803E+04 -1.420809E+05  1.295580E+04 -2.419705E+04
        90  23  1.165348E+04 -4.505832E+05 -3.106579E+04  3.913283E+04  2.254205E+04 -4.093497E+04
        90  24 -5.930445E+04 -4.589573E+05 -7.789860E+04 -1.425382E+05  8.767898E+03 -5.786389E+04
        90  25  2.948350E+05  6.880773E+05  2.719979E+05 -1.550698E+05  1.300145E+04 -2.879018E+04
        90  26  3.499457E+05  9.053833E+05  3.047066E+05  3.326868E+04  2.253538E+04 -4.051401E+04
        90  27  3.316231E+05  1.106668E+06  3.121514E+05 -1.412255E+05  8.730946E+03 -5.243283E+04
        91   1 -6.727261E+06 -2.109838E+06 -1.369382E+06 -2.340120E+06 -7.053648E+05 -2.572861E+05
        91   2 -6.550543E+06 -1.084692E+06 -7.164894E+05 -2.500143E+06 -4.570907E+05 -1.411256E+05
        91   3 -6.789218E+06 -1.104198E+06 -5.393197E+05 -2.399396E+06 -2.009503E+05 -4.565514E+04
        91   4 -5.876341E+06 -1.589336E+06 -1.095776E+06 -1.908766E+06 -6.949054E+05 -2.535887E+05
        91   5 -5.611567E+06 -6.739907E+05 -4.524688E+05 -2.188300E+06 -4.541912E+05 -1.400782E+05
        91   6 -5.760108E+06 -8.009117E+05 -2.783327E+05 -2.207256E+06 -2.055781E+05 -4.737480E+04
        91   7 -5.024616E+06 -1.068361E+06 -8.222377E+05 -1.476758E+06 -6.844296E+05 -2.498764E+05
        91   8 -4.671722E+06 -2.631503E+05 -1.885323E+05 -1.875997E+06 -4.512862E+05 -1.390281E+05
        91   9 -4.729956E+06 -4.976455E+05 -1.742376E+04 -2.014872E+06 -2.102142E+05 -4.909600E+04
        91  10 -6.727819E+06 -2.110046E+06 -1.370454E+06 -2.340268E+06  2.462681E-10  1.987822E-10
        91  11 -6.550775E+06 -1.084771E+06 -7.169248E+05 -2.500195E+06  7.627179E-10  1.177306E-09
        91  12 -6.789263E+06 -1.104211E+06 -5.394005E+05 -2.399403E+06  7.153535E-10  1.740529E-09
        91  13 -5.876881E+06 -1.589537E+06 -1.096816E+06 -1.908909E+06  2.779917E-09  1.452005E-10
        91  14 -5.611796E+06 -6.740681E+05 -4.528979E+05 -2.188351E+06  1.629500E-09  1.046822E-09
        91  15 -5.760154E+06 -8.009256E+05 -2.784172E+05 -2.207264E+06  4.092395E-09  1.254293E-09
        91  16 -5.025140E+06 -1.068556E+06 -8.232442E+05 -1.476896E+06  3.951735E-09  7.001365E-11
        91  17 -4.671948E+06 -2.632265E+05 -1.889551E+05 -1.876048E+06  2.835931E-09 -1.103811E-10
        91  18 -4.730005E+06 -4.976602E+05 -1.751211E+04 -2.014880E+06  2.366050E-09  1.247203E-09
        91  19 -6.727261E+06 -2.109838E+06 -1.369382E+06 -2.340120E+06  7.053648E+05  2.572861E+05
        91  20 -6.550543E+06 -1.084692E+06 -7.164894E+05 -2.500143E+06  4.570907E+05  1.411256E+05
        91  21 -6.789218E+06 -1.104198E+06 -5.393197E+05 -2.399396E+06  2.009503E+05  4.565514E+04
        91  22 -5.876341E+06 -1.589336E+06 -1.095776E+06 -1.908766E+06  6.949054E+05  2.535887E+05
        91  23 -5.611567E+06 -6.739907E+05 -4.524688E+05 -2.188300E+06  4.541912E+05  1.400782E+05
        91  24 -5.760108E+06 -8.009117E+05 -2.783327E+05 -2.207256E+06  2.055781E+05  4.737480E+04
        91  25 -5.024616E+06 -1.068361E+06 -8.222377E+05 -1.476758E+06  6.844296E+05  2.498764E+05
        91  26 -4.671722E+06 -2.631503E+05 -1.885323E+05 -1.875997E+06  4.512862E+05  1.390281E+05
        91  27 -4.729956E+06 -4.976455E+05 -1.742376E+04 -2.014872E+06  2.102142E+05  4.909600E+04
        92   1 -6.602640E+06 -1.285318E+06 -4.714086E+05 -2.410406E+06 -1.644166E+05 -3.596483E+04
        92   2 -6.547264E+06 -1.120950E+06 -3.357549E+05 -2.395148E+06 -1.077391E+05 -1.429033E+04
        92   3 -6.508745E+06 -1.122852E+06 -2.775493E+05 -2.390051E+06 -5.000348E+04  4.587943E+03
        92   4 -5.718672E+06 -9.271720E+05 -2.276186E+05 -2.145955E+06 -1.639609E+05 -3.580264E+04
        92   5 -5.703215E+06 -7.953547E+05 -1.066177E+05 -2.159209E+06 -1.082649E+05 -1.449225E+04
        92   6 -5.704345E+06 -8.294963E+05 -6.219319E+04 -2.182640E+06 -5.151552E+04  4.018288E+03
        92   7 -4.833942E+06 -5.689488E+05  1.609817E+04 -1.881149E+06 -1.635043E+05 -3.564007E+04
        92   8 -4.858472E+06 -4.697096E+05  1.224551E+05 -1.922975E+06 -1.087915E+05 -1.469445E+04
        92   9 -4.899314E+06 -5.361135E+05  1.531066E+05 -1.974989E+06 -5.302970E+04  3.447897E+03
        92  10 -6.602669E+06 -1.285327E+06 -4.714624E+05 -2.410411E+06  2.779615E-09  1.253520E-09
        92  11 -6.547277E+06 -1.120954E+06 -3.357773E+05 -2.395149E+06 -7.068111E-10  2.150646E-10
        92  12 -6.508748E+06 -1.122853E+06 -2.775541E+05 -2.390051E+06  3.251421E-09  2.340547E-10
        92  13 -5.718701E+06 -9.271807E+05 -2.276721E+05 -2.145960E+06  6.651516E-09  1.054692E-09
        92  14 -5.703227E+06 -7.953581E+05 -1.066403E+05 -2.159210E+06  1.688630E-09  2.159451E-10
        92  15 -5.704348E+06 -8.294970E+05 -6.219825E+04 -2.182640E+06 -1.971754E-09  6.826833E-10
        92  16 -4.833972E+06 -5.689574E+05  1.604508E+04 -1.881154E+06  2.585989E-09  1.304669E-09
        92  17 -4.858484E+06 -4.697130E+05  1.224323E+05 -1.922976E+06 -6.618714E-10 -6.300384E-10
        92  18 -4.899317E+06 -5.361143E+05  1.531012E+05 -1.974989E+06 -7.763710E-11  1.042193E-09
        92  19 -6.602640E+06 -1.285318E+06 -4.714086E+05 -2.410406E+06  1.644166E+05  3.596483E+04
        92  20 -6.547264E+06 -1.120950E+06 -3.357549E+05 -2.395148E+06  1.077391E+05  1.429033E+04
        92  21 -6.508745E+06 -1.122852E+06 -2.775493E+05 -2.390051E+06  5.000348E+04 -4.587943E+03
        92  22 -5.718672E+06 -9.271720E+05 -2.276186E+05 -2.145955E+06  1.639609E+05  3.580264E+04
        92  23 -5.703215E+06 -7.953547E+05 -1.066177E+05 -2.159209E+06  1.082649E+05  1.449225E+04
        92  24 -5.704345E+06 -8.294963E+05 -6.219319E+04 -2.182640E+06  5.151552E+04 -4.018288E+03
        92  25 -4.833942E+06 -5.689488E+05  1.609817E+04 -1.881149E+06  1.635043E+05  3.564007E+04
        92  26 -4.858472E+06 -4.697096E+05  1.224551E+05 -1.922975E+06  1.087915E+05  1.469445E+04
        92  27 -4.899314E+06 -5.361135E+05  1.531066E+05 -1.974989E+06  5.302970E+04 -3.447897E+03
        93   1 -6.356565E+06 -1.101711E+06 -2.280212E+05 -2.362020E+06 -4.082344E+04  5.826867E+03
        93   2 -6.300796E+06 -1.025358E+06 -1.817726E+05 -2.308129E+06 -2.677981E+04  7.837401E+03
        93   3 -6.192813E+06 -1.024120E+06 -1.494246E+05 -2.318105E+06 -1.246346E+04  9.109733E+03
        93   4 -5.694690E+06 -8.490018E+05 -4.901448E+04 -2.179612E+06 -4.179314E+04  5.460931E+03
        93   5 -5.719927E+06 -8.054003E+05 -2.488661E+04 -2.149943E+06 -2.801535E+04  7.372900E+03
        93   6 -5.692897E+06 -8.368455E+05 -1.443408E+04 -2.184140E+06 -1.396685E+04  8.546215E+03
        93   7 -5.032389E+06 -5.962645E+05  1.299529E+05 -1.997026E+06 -4.276396E+04  5.094562E+03
        93   8 -5.138731E+06 -5.854225E+05  1.319690E+05 -1.991622E+06 -2.925215E+04  6.907921E+03
        93   9 -5.192739E+06 -6.495578E+05  1.205338E+05 -2.050078E+06 -1.547157E+04  7.982206E+03
        93  10 -6.356566E+06 -1.101711E+06 -2.280244E+05 -2.362020E+06  2.552515E-09  1.110839E-09
        93  11 -6.300797E+06 -1.025358E+06 -1.817740E+05 -2.308128E+06 -9.856403E-10  2.631175E-10
        93  12 -6.192814E+06 -1.024120E+06 -1.494251E+05 -2.318105E+06 -1.768198E-09 -2.565636E-10
        93  13 -5.694692E+06 -8.490023E+05 -4.901784E+04 -2.179612E+06  2.041903E-09  8.963043E-11
        93  14 -5.719928E+06 -8.054005E+05 -2.488819E+04 -2.149943E+06  3.588244E-09 -1.737742E-09
        93  15 -5.692897E+06 -8.368457E+05 -1.443459E+04 -2.184140E+06  1.787328E-09  3.305546E-10
        93  16 -5.032391E+06 -5.962651E+05  1.299494E+05 -1.997026E+06 -4.245053E-09 -5.102223E-10
        93  17 -5.138732E+06 -5.854228E+05  1.319673E+05 -1.991622E+06 -2.594824E-09 -2.905477E-09
        93  18 -5.192740E+06 -6.495580E+05  1.205333E+05 -2.050078E+06  8.003483E-10  9.695235E-10
        93  19 -6.356565E+06 -1.101711E+06 -2.280212E+05 -2.362020E+06  4.082344E+04 -5.826867E+03
        93  20 -6.300796E+06 -1.025358E+06 -1.817726E+05 -2.308129E+06  2.677981E+04 -7.837401E+03
        93  21 -6.192813E+06 -1.024120E+06 -1.494246E+05 -2.318105E+06  1.246346E+04 -9.109733E+03
        93  22 -5.694690E+06 -8.490018E+05 -4.901448E+04 -2.179612E+06  4.179314E+04 -5.460931E+03
        93  23 -5.719927E+06 -8.054003E+05 -2.488661E+04 -2.149943E+06  2.801535E+04 -7.372900E+03
        93  24 -5.692897E+06 -8.368455E+05 -1.443408E+04 -2.184140E+06  1.396685E+04 -8.546215E+03
        93  25 -5.032389E+06 -5.962645E+05  1.299529E+05 -1.997026E+06  4.276396E+04 -5.094562E+03
        93  26 -5.138731E+06 -5.854225E+05  1.319690E+05 -1.991622E+06  2.925215E+04 -6.907921E+03
        93  27 -5.192739E+06 -6.495578E+05  1.205338E+05 -2.050078E+06  1.547157E+04 -7.982206E+03
        94   1 -6.008888E+06 -9.619598E+05 -9.728691E+04 -2.272969E+06 -9.572481E+03  7.602421E+03
        94   2 -5.944407E+06 -8.868762E+05 -6.624796E+04 -2.205344E+06 -4.548291E+03  5.051610E+03
        94   3 -5.809971E+06 -8.852521E+05 -3.847838E+04 -2.219080E+06  5.563330E+02  2.280010E+03
        94   4 -5.689608E+06 -8.413279E+05 -1.144475E+04 -2.186197E+06 -1.100555E+04  7.065935E+03
        94   5 -5.724484E+06 -8.039214E+05 -6.923211E+03 -2.145768E+06 -6.063296E+03  4.484984E+03
        94   6 -5.689401E+06 -8.399564E+05 -5.604113E+03 -2.186704E+06 -1.041286E+03  1.683086E+03
        94   7 -5.370228E+06 -7.206895E+05  7.438867E+04 -2.099384E+06 -1.243945E+04  6.529139E+03
        94   8 -5.504514E+06 -7.209638E+05  5.239715E+04 -2.086174E+06 -7.578894E+03  3.918137E+03
        94   9 -5.568817E+06 -7.946602E+05  2.726863E+04 -2.154322E+06 -2.639239E+03  1.086037E+03
        94  10 -6.008888E+06 -9.619599E+05 -9.728719E+04 -2.272969E+06  2.390334E-10  1.105643E-09
        94  11 -5.944407E+06 -8.868763E+05 -6.624805E+04 -2.205344E+06  3.470683E-09 -4.037504E-11
        94  12 -5.809971E+06 -8.852521E+05 -3.847839E+04 -2.219080E+06 -2.699831E-10  3.306094E-10
        94  13 -5.689608E+06 -8.413280E+05 -1.144507E+04 -2.186197E+06  4.236737E-09  6.206296E-10
        94  14 -5.724484E+06 -8.039214E+05 -6.923318E+03 -2.145768E+06  1.242528E-09 -4.978871E-10
        94  15 -5.689401E+06 -8.399564E+05 -5.604121E+03 -2.186704E+06  6.433057E-10  1.859673E-09
        94  16 -5.370228E+06 -7.206896E+05  7.438830E+04 -2.099384E+06 -2.050217E-09  1.024018E-10
        94  17 -5.504514E+06 -7.209639E+05  5.239701E+04 -2.086174E+06  3.084152E-09 -1.275422E-09
        94  18 -5.568817E+06 -7.946602E+05  2.726862E+04 -2.154322E+06  1.733370E-11  1.307526E-09
        94  19 -6.008888E+06 -9.619598E+05 -9.728691E+04 -2.272969E+06  9.572481E+03 -7.602421E+03
        94  20 -5.944407E+06 -8.868762E+05 -6.624796E+04 -2.205344E+06  4.548291E+03 -5.051610E+03
        94  21 -5.809971E+06 -8.852521E+05 -3.847838E+04 -2.219080E+06 -5.563330E+02 -2.280010E+03
        94  22 -5.689608E+06 -8.413279E+05 -1.144475E+04 -2.186197E+06  1.100555E+04 -7.065935E+03
        94  23 -5.724484E+06 -8.039214E+05 -6.923211E+03 -2.145768E+06  6.063296E+03 -4.484984E+03
        94  24 -5.689401E+06 -8.399564E+05 -5.604113E+03 -2.186704E+06  1.041286E+03 -1.683086E+03
        94  25 -5.370228E+06 -7.206895E+05  7.438867E+04 -2.099384E+06  1.243945E+04 -6.529139E+03
        94  26 -5.504514E+06 -7.209638E+05  5.239715E+04 -2.086174E+06  7.578894E+03 -3.918137E+03
        94  27 -5.568817E+06 -7.946602E+05  2.726863E+04 -2.154322E+06  2.639239E+03 -1.086037E+03
        95   1 -5.612278E+06 -8.112394E+05  1.547089E+04 -2.166307E+06  2.401761E+03  1.541480E+02
        95   2 -5.547332E+06 -7.368502E+05  4.068344E+04 -2.097520E+06  7.468364E+03 -2.651112E+03
        95   3 -5.411832E+06 -7.366358E+05  6.263607E+04 -2.110855E+06  1.246892E+04 -5.271425E+03
        95   4 -5.689268E+06 -8.400976E+05 -5.643959E+03 -2.186882E+06  8.038949E+02 -4.428212E+02
        95   5 -5.724641E+06 -8.037175E+05 -7.132955E+03 -2.145553E+06  5.939332E+03 -3.222833E+03
        95   6 -5.689482E+06 -8.415286E+05 -1.193660E+04 -2.186353E+06  1.100808E+04 -5.818073E+03
        95   7 -5.766252E+06 -8.689556E+05 -2.675940E+04 -2.207455E+06 -7.937560E+02 -1.039711E+03
        95   8 -5.901920E+06 -8.705833E+05 -5.495239E+04 -2.193574E+06  4.410776E+03 -3.794376E+03
        95   9 -5.967058E+06 -9.464175E+05 -8.651664E+04 -2.261820E+06  9.547953E+03 -6.364453E+03
        95  10 -5.612278E+06 -8.112394E+05  1.547088E+04 -2.166307E+06  2.633936E-10  2.369924E-09
        95  11 -5.547332E+06 -7.368502E+05  4.068332E+04 -2.097520E+06  5.500877E-11 -2.378597E-09
        95  12 -5.411832E+06 -7.366359E+05  6.263572E+04 -2.110855E+06 -2.478416E-09  7.374981E-11
        95  13 -5.689268E+06 -8.400976E+05 -5.643960E+03 -2.186882E+06 -1.523495E-10  1.599241E-09
        95  14 -5.724641E+06 -8.037175E+05 -7.133041E+03 -2.145553E+06  4.320745E-09 -7.040716E-11
        95  15 -5.689482E+06 -8.415287E+05 -1.193689E+04 -2.186353E+06 -1.799924E-10  4.650798E-10
        95  16 -5.766252E+06 -8.689556E+05 -2.675940E+04 -2.207455E+06 -2.919339E-10  7.085835E-10
        95  17 -5.901920E+06 -8.705833E+05 -5.495245E+04 -2.193574E+06  1.607929E-09  3.853830E-10
        95  18 -5.967059E+06 -9.464176E+05 -8.651689E+04 -2.261820E+06 -1.338844E-09  1.717234E-10
        95  19 -5.612278E+06 -8.112394E+05  1.547089E+04 -2.166307E+06 -2.401761E+03 -1.541480E+02
        95  20 -5.547332E+06 -7.368502E+05  4.068344E+04 -2.097520E+06 -7.468364E+03  2.651112E+03
        95  21 -5.411832E+06 -7.366358E+05  6.263607E+04 -2.110855E+06 -1.246892E+04  5.271425E+03
        95  22 -5.689268E+06 -8.400976E+05 -5.643959E+03 -2.186882E+06 -8.038949E+02  4.428212E+02
        95  23 -5.724641E+06 -8.037175E+05 -7.132955E+03 -2.145553E+06 -5.939332E+03  3.222833E+03
        95  24 -5.689482E+06 -8.415286E+05 -1.193660E+04 -2.186353E+06 -1.100808E+04  5.818073E+03
        95  25 -5.766252E+06 -8.689556E+05 -2.675940E+04 -2.207455E+06  7.937560E+02  1.039711E+03
        95  26 -5.901920E+06 -8.705833E+05 -5.495239E+04 -2.193574E+06 -4.410776E+03  3.794376E+03
        95  27 -5.967058E+06 -9.464175E+05 -8.651664E+04 -2.261820E+06 -9.547953E+03  6.364453E+03
        96   1 -5.230951E+06 -6.645810E+05  1.094629E+05 -2.061150E+06  1.560956E+04 -6.729911E+03
        96   2 -5.175120E+06 -5.984073E+05  1.210688E+05 -2.000850E+06  3.004277E+04 -5.508881E+03
        96   3 -5.065648E+06 -6.098632E+05  1.185077E+05 -2.006406E+06  4.422046E+04 -3.585117E+03
        96   4 -5.692572E+06 -8.372310E+05 -1.510042E+04 -2.184656E+06  1.407983E+04 -7.302976E+03
        96   5 -5.720299E+06 -8.047522E+05 -2.606881E+04 -2.149354E+06  2.876739E+04 -5.987976E+03
        96   6 -5.694447E+06 -8.499676E+05 -5.141692E+04 -2.179914E+06  4.319741E+04 -3.970752E+03
        96   7 -6.153983E+06 -1.009869E+06 -1.396819E+05 -2.308079E+06  1.255137E+04 -7.875575E+03
        96   8 -6.265188E+06 -1.011079E+06 -1.732324E+05 -2.297740E+06  2.749325E+04 -6.466605E+03
        96   9 -6.322862E+06 -1.090046E+06 -2.213769E+05 -2.353261E+06  4.217550E+04 -4.355952E+03
        96  10 -5.230951E+06 -6.645811E+05  1.094623E+05 -2.061150E+06  6.995988E-11  7.376162E-10
        96  11 -5.175121E+06 -5.984076E+05  1.210670E+05 -2.000850E+06 -3.859878E-09  5.338260E-10
        96  12 -5.065650E+06 -6.098637E+05  1.185040E+05 -2.006406E+06  1.229875E-09  4.544643E-10
        96  13 -5.692572E+06 -8.372311E+05 -1.510090E+04 -2.184656E+06 -2.699598E-10  4.909966E-10
        96  14 -5.720300E+06 -8.047524E+05 -2.607044E+04 -2.149354E+06 -5.335786E-09 -1.997903E-09
        96  15 -5.694449E+06 -8.499682E+05 -5.142049E+04 -2.179914E+06 -1.534658E-09 -4.357148E-10
        96  16 -6.153983E+06 -1.009869E+06 -1.396823E+05 -2.308079E+06 -2.228802E-10 -3.006998E-10
        96  17 -6.265188E+06 -1.011079E+06 -1.732339E+05 -2.297740E+06 -2.722516E-09 -2.243092E-09
        96  18 -6.322864E+06 -1.090047E+06 -2.213803E+05 -2.353261E+06  6.850040E-10  1.266032E-10
        96  19 -5.230951E+06 -6.645810E+05  1.094629E+05 -2.061150E+06 -1.560956E+04  6.729911E+03
        96  20 -5.175120E+06 -5.984073E+05  1.210688E+05 -2.000850E+06 -3.004277E+04  5.508881E+03
        96  21 -5.065648E+06 -6.098632E+05  1.185077E+05 -2.006406E+06 -4.422046E+04  3.585117E+03
        96  22 -5.692572E+06 -8.372310E+05 -1.510042E+04 -2.184656E+06 -1.407983E+04  7.302976E+03
        96  23 -5.720299E+06 -8.047522E+05 -2.606881E+04 -2.149354E+06 -2.876739E+04  5.987976E+03
        96  24 -5.694447E+06 -8.499676E+05 -5.141692E+04 -2.179914E+06 -4.319741E+04  3.970752E+03
        96  25 -6.153983E+06 -1.009869E+06 -1.396819E+05 -2.308079E+06 -1.255137E+04  7.875575E+03
        96  26 -6.265188E+06 -1.011079E+06 -1.732324E+05 -2.297740E+06 -2.749325E+04  6.466605E+03
        96  27 -6.322862E+06 -1.090046E+06 -2.213769E+05 -2.353261E+06 -4.217550E+04  4.355952E+03
        97   1 -4.925763E+06 -5.472709E+05  1.427498E+05 -1.983851E+06  5.496079E+04 -1.853821E+03
        97   2 -4.881951E+06 -4.767412E+05  1.109449E+05 -1.928461E+06  1.135252E+05  1.716865E+04
        97   3 -4.854619E+06 -5.809244E+05 -3.828797E+02 -1.884838E+06  1.710489E+05  3.898075E+04
        97   4 -5.704156E+06 -8.299338E+05 -6.525091E+04 -2.183576E+06  5.339475E+04 -2.443108E+03
        97   5 -5.703287E+06 -7.936674E+05 -1.118416E+05 -2.158461E+06  1.129397E+05  1.694439E+04
        97   6 -5.719172E+06 -9.324331E+05 -2.388231E+05 -2.145105E+06  1.714388E+05  3.911741E+04
        97   7 -6.481964E+06 -1.112574E+06 -2.733051E+05 -2.383078E+06  5.183085E+04 -3.031667E+03
        97   8 -6.523968E+06 -1.110547E+06 -3.346894E+05 -2.388182E+06  1.123549E+05  1.672044E+04
        97   9 -6.582996E+06 -1.283866E+06 -4.773328E+05 -2.405030E+06  1.718278E+05  3.925374E+04
        97  10 -4.925766E+06 -5.472717E+05  1.427441E+05 -1.983851E+06  9.066542E-10  2.729117E-10
        97  11 -4.881965E+06 -4.767450E+05  1.109200E+05 -1.928463E+06 -1.919444E-10  7.874084E-10
        97  12 -4.854651E+06 -5.809340E+05 -4.412271E+02 -1.884843E+06  1.176179E-09  1.260921E-09
        97  13 -5.704159E+06 -8.299346E+05 -6.525632E+04 -2.183575E+06  2.485697E-09 -4.791789E-11
        97  14 -5.703301E+06 -7.936712E+05 -1.118664E+05 -2.158463E+06  1.543324E-09  2.249881E-10
        97  15 -5.719204E+06 -9.324428E+05 -2.388818E+05 -2.145110E+06  5.099796E-09  4.990676E-11
        97  16 -6.481967E+06 -1.112574E+06 -2.733102E+05 -2.383078E+06 -7.336981E-10 -4.451364E-10
        97  17 -6.523982E+06 -1.110550E+06 -3.347139E+05 -2.388184E+06 -1.125086E-09 -7.950671E-10
        97  18 -6.583028E+06 -1.283875E+06 -4.773919E+05 -2.405036E+06  1.804308E-09  3.104139E-10
        97  19 -4.925763E+06 -5.472709E+05  1.427498E+05 -1.983851E+06 -5.496079E+04  1.853821E+03
        97  20 -4.881951E+06 -4.767412E+05  1.109449E+05 -1.928461E+06 -1.135252E+05 -1.716865E+04
        97  21 -4.854619E+06 -5.809244E+05 -3.828797E+02 -1.884838E+06 -1.710489E+05 -3.898075E+04
        97  22 -5.704156E+06 -8.299338E+05 -6.525091E+04 -2.183576E+06 -5.339475E+04  2.443108E+03
        97  23 -5.703287E+06 -7.936674E+05 -1.118416E+05 -2.158461E+06 -1.129397E+05 -1.694439E+04
        97  24 -5.719172E+06 -9.324331E+05 -2.388231E+05 -2.145105E+06 -1.714388E+05 -3.911741E+04
        97  25 -6.481964E+06 -1.112574E+06 -2.733051E+05 -2.383078E+06 -5.183085E+04  3.031667E+03
        97  26 -6.523968E+06 -1.110547E+06 -3.346894E+05 -2.388182E+06 -1.123549E+05 -1.672044E+04
        97  27 -6.582996E+06 -1.283866E+06 -4.773328E+05 -2.405030E+06 -1.718278E+05 -3.925374E+04
        98   1 -4.740227E+06 -5.046031E+05 -3.416703E+04 -2.024304E+06  2.197999E+05  5.307025E+04
        98   2 -4.676461E+06 -2.558147E+05 -2.126198E+05 -1.875942E+06  4.731616E+05  1.474040E+05
        98   3 -5.041427E+06 -1.100933E+06 -8.767656E+05 -1.457725E+06  7.185857E+05  2.627232E+05
        98   4 -5.762253E+06 -8.003441E+05 -2.920299E+05 -2.209857E+06  2.150811E+05  5.132272E+04
        98   5 -5.607675E+06 -6.657934E+05 -4.746985E+05 -2.188384E+06  4.759905E+05  1.484198E+05
        98   6 -5.884047E+06 -1.627762E+06 -1.149664E+06 -1.896837E+06  7.289945E+05  2.663796E+05
        98   7 -6.783251E+06 -1.096107E+06 -5.499682E+05 -2.395179E+06  2.103706E+05  4.957665E+04
        98   8 -6.538032E+06 -1.075630E+06 -7.368595E+05 -2.500368E+06  4.788143E+05  1.494328E+05
        98   9 -6.725866E+06 -2.154090E+06 -1.422626E+06 -2.335285E+06  7.393871E+05  2.700207E+05
        98  10 -4.740280E+06 -5.046192E+05 -3.426396E+04 -2.024314E+06  2.370289E-09 -7.119998E-11
        98  11 -4.676709E+06 -2.558990E+05 -2.130854E+05 -1.875999E+06 -1.919016E-09 -7.848886E-10
        98  12 -5.042004E+06 -1.101148E+06 -8.778754E+05 -1.457878E+06  5.066341E-10 -1.191053E-09
        98  13 -5.762304E+06 -8.003595E+05 -2.921227E+05 -2.209866E+06  3.456719E-09  9.565750E-10
        98  14 -5.607926E+06 -6.658789E+05 -4.751706E+05 -2.188441E+06  1.293820E-09 -1.870370E-09
        98  15 -5.884642E+06 -1.627983E+06 -1.150808E+06 -1.896994E+06  2.045106E-09  6.535987E-10
        98  16 -6.783300E+06 -1.096122E+06 -5.500570E+05 -2.395187E+06  1.486049E-09  6.446183E-10
        98  17 -6.538287E+06 -1.075716E+06 -7.373381E+05 -2.500426E+06  1.934162E-09 -3.744642E-10
        98  18 -6.726479E+06 -2.154318E+06 -1.423805E+06 -2.335447E+06 -3.058151E-10  8.568399E-11
        98  19 -4.740227E+06 -5.046031E+05 -3.416703E+04 -2.024304E+06 -2.197999E+05 -5.307025E+04
        98  20 -4.676461E+06 -2.558147E+05 -2.126198E+05 -1.875942E+06 -4.731616E+05 -1.474040E+05
        98  21 -5.041427E+06 -1.100933E+06 -8.767656E+05 -1.457725E+06 -7.185857E+05 -2.627232E+05
        98  22 -5.762253E+06 -8.003441E+05 -2.920299E+05 -2.209857E+06 -2.150811E+05 -5.132272E+04
        98  23 -5.607675E+06 -6.657934E+05 -4.746985E+05 -2.188384E+06 -4.759905E+05 -1.484198E+05
        98  24 -5.884047E+06 -1.627762E+06 -1.149664E+06 -1.896837E+06 -7.289945E+05 -2.663796E+05
        98  25 -6.783251E+06 -1.096107E+06 -5.499682E+05 -2.395179E+06 -2.103706E+05 -4.957665E+04
        98  26 -6.538032E+06 -1.075630E+06 -7.368595E+05 -2.500368E+06 -4.788143E+05 -1.494328E+05
        98  27 -6.725866E+06 -2.154090E+06 -1.422626E+06 -2.335285E+06 -7.393871E+05 -2.700207E+05
        99   1 -1.785655E+06 -1.741102E+05 -1.689972E+05 -1.468411E+04  1.081504E+04  4.025907E+03
        99   2 -1.774347E+06 -1.888131E+05 -1.756393E+05 -1.891269E+03  8.196389E+03  1.169096E+04
        99   3 -1.753739E+06 -1.819573E+05 -1.744810E+05 -1.668021E+04  5.613801E+03  1.008076E+04
        99   4 -1.028459E+06  1.536763E+04  2.004144E+04 -1.449696E+04  1.348036E+04  4.036971E+03
        99   5 -1.033291E+06 -3.578618E+03  8.280044E+03 -6.737955E+02  8.858045E+03  1.169222E+04
        99   6 -1.028479E+06 -6.297063E+02  5.706119E+03 -1.443034E+04  4.271893E+03  1.007707E+04
        99   7 -2.707416E+05  2.048021E+05  2.090369E+05 -1.431014E+04  1.614893E+04  4.048030E+03
        99   8 -2.917350E+05  1.816146E+05  1.921583E+05  5.447300E+02  9.520487E+03  1.169348E+04
        99   9 -3.027405E+05  1.806583E+05  1.858539E+05 -1.217808E+04  2.928411E+03  1.007338E+04
        99  10 -1.785655E+06 -1.741102E+05 -1.689975E+05 -1.468415E+04  8.625793E-10 -1.198409E-10
        99  11 -1.774347E+06 -1.888132E+05 -1.756396E+05 -1.891346E+03 -5.479360E-09 -2.264819E-09
        99  12 -1.753739E+06 -1.819574E+05 -1.744812E+05 -1.668026E+04 -1.206674E-09 -9.607441E-10
        99  13 -1.028459E+06  1.536757E+04  2.004106E+04 -1.449701E+04  2.198399E-09 -1.512780E-09
        99  14 -1.033291E+06 -3.578785E+03  8.279640E+03 -6.738790E+02 -1.294464E-09 -4.903626E-10
        99  15 -1.028479E+06 -6.298202E+02  5.705894E+03 -1.443037E+04 -1.258948E-09 -1.227985E-09
        99  16 -2.707418E+05  2.048021E+05  2.090364E+05 -1.431019E+04 -1.036453E-09  1.772939E-09
        99  17 -2.917351E+05  1.816144E+05  1.921579E+05  5.446404E+02 -1.821872E-09 -1.287792E-09
        99  18 -3.027405E+05  1.806582E+05  1.858536E+05 -1.217811E+04 -2.855229E-09 -1.601079E-09
        99  19 -1.785655E+06 -1.741102E+05 -1.689972E+05 -1.468411E+04 -1.081504E+04 -4.025907E+03
        99  20 -1.774347E+06 -1.888131E+05 -1.756393E+05 -1.891269E+03 -8.196389E+03 -1.169096E+04
        99  21 -1.753739E+06 -1.819573E+05 -1.744810E+05 -1.668021E+04 -5.613801E+03 -1.008076E+04
        99  22 -1.028459E+06  1.536763E+04  2.004144E+04 -1.449696E+04 -1.348036E+04 -4.036971E+03
        99  23 -1.033291E+06 -3.578618E+03  8.280044E+03 -6.737955E+02 -8.858045E+03 -1.169222E+04
        99  24 -1.028479E+06 -6.297063E+02  5.706119E+03 -1.443034E+04 -4.271893E+03 -1.007707E+04
        99  25 -2.707416E+05  2.048021E+05  2.090369E+05 -1.431014E+04 -1.614893E+04 -4.048030E+03
        99  26 -2.917350E+05  1.816146E+05  1.921583E+05  5.447300E+02 -9.520487E+03 -1.169348E+04
        99  27 -3.027405E+05  1.806583E+05  1.858539E+05 -1.217808E+04 -2.928411E+03 -1.007338E+04
       100   1 -1.660051E+06 -1.554950E+05 -1.519532E+05 -1.807358E+04  3.054382E+03  8.274911E+03
       100   2 -1.637760E+06 -1.521334E+05 -1.484816E+05  2.931950E+03  2.251542E+03  8.689088E+03
       100   3 -1.612261E+06 -1.456487E+05 -1.432359E+05 -1.766440E+04  1.448761E+03  7.573017E+03
       100   4 -1.029851E+06  2.063005E+03  4.673885E+03 -1.756865E+04  3.311177E+03  8.274799E+03
       100   5 -1.031491E+06 -5.810720E+02  2.093104E+03  3.232774E+03  2.177499E+03  8.688489E+03
       100   6 -1.029866E+06 -4.525782E+01  1.515563E+03 -1.756516E+04  1.043906E+03  7.572592E+03
       100   7 -3.992897E+05  1.595911E+05  1.612712E+05 -1.706336E+04  3.568231E+03  8.274688E+03
       100   8 -4.248882E+05  1.509437E+05  1.526403E+05  3.533824E+03  2.103383E+03  8.687892E+03
       100   9 -4.471628E+05  1.455327E+05  1.462416E+05 -1.746582E+04  6.386705E+02  7.572166E+03
       100  10 -1.660051E+06 -1.554950E+05 -1.519533E+05 -1.807360E+04 -1.333688E-09  2.225430E-10
       100  11 -1.637760E+06 -1.521335E+05 -1.484817E+05  2.931934E+03  3.221396E-10  1.231221E-09
       100  12 -1.612261E+06 -1.456488E+05 -1.432360E+05 -1.766441E+04  8.480387E-10  2.633600E-10
       100  13 -1.029851E+06  2.062928E+03  4.673736E+03 -1.756867E+04  1.874159E-10 -7.442125E-10
       100  14 -1.031492E+06 -5.811543E+02  2.092954E+03  3.232758E+03 -3.642611E-09  1.780824E-09
       100  15 -1.029866E+06 -4.531966E+01  1.515453E+03 -1.756517E+04 -1.844066E-09 -1.384728E-10
       100  16 -3.992897E+05  1.595910E+05  1.612710E+05 -1.706338E+04  7.935231E-10 -5.077979E-10
       100  17 -4.248882E+05  1.509436E+05  1.526401E+05  3.533809E+03 -2.337470E-09  8.590995E-10
       100  18 -4.471628E+05  1.455327E+05  1.462415E+05 -1.746582E+04  5.158201E-10 -2.948166E-10
       100  19 -1.660051E+06 -1.554950E+05 -1.519532E+05 -1.807358E+04 -3.054382E+03 -8.274911E+03
       100  20 -1.637760E+06 -1.521334E+05 -1.484816E+05  2.931950E+03 -2.251542E+03 -8.689088E+03
       100  21 -1.612261E+06 -1.456487E+05 -1.432359E+05 -1.766440E+04 -1.448761E+03 -7.573017E+03
       100  22 -1.029851E+06  2.063005E+03  4.673885E+03 -1.756865E+04 -3.311177E+03 -8.274799E+03
       100  23 -1.031491E+06 -5.810720E+02  2.093104E+03  3.232774E+03 -2.177499E+03 -8.688489E+03
       100  24 -1.029866E+06 -4.525782E+01  1.515563E+03 -1.756516E+04 -1.043906E+03 -7.572592E+03
       100  25 -3.992897E+05  1.595911E+05  1.612712E+05 -1.706336E+04 -3.568231E+03 -8.274688E+03
       100  26 -4.248882E+05  1.509437E+05  1.526403E+05  3.533824E+03 -2.103383E+03 -8.687892E+03
       100  27 -4.471628E+05  1.455327E+05  1.462416E+05 -1.746582E+04 -6.386705E+02 -7.572166E+03
       101   1 -1.483636E+06 -1.130831E+05 -1.113685E+05 -1.976136E+04  9.203156E+02  6.789365E+03
       101   2 -1.454158E+06 -1.059242E+05 -1.045276E+05  6.539174E+03  6.751519E+02  5.964718E+03
       101   3 -1.423556E+06 -9.821163E+04 -9.719558E+04 -1.945019E+04  4.279057E+02  4.775283E+03
       101   4 -1.030294E+06  2.222801E+02  1.172906E+03 -1.994127E+04  7.821945E+02  6.789118E+03
       101   5 -1.030869E+06 -1.209382E+02  6.041395E+02  6.202609E+03  4.581726E+02  5.964690E+03
       101   6 -1.030306E+06  1.033303E+02  5.812351E+02 -1.994119E+04  1.320802E+02  4.775587E+03
       101   7 -5.767649E+05  1.135123E+05  1.136990E+05 -2.012128E+04  6.439723E+02  6.788871E+03
       101   8 -6.074166E+05  1.056688E+05  1.057225E+05  5.865856E+03  2.410451E+02  5.964662E+03
       101   9 -6.369160E+05  9.840665E+04  9.834646E+04 -2.043244E+04 -1.639330E+02  4.775891E+03
       101  10 -1.483636E+06 -1.130832E+05 -1.113686E+05 -1.976136E+04 -1.166645E-09 -1.273513E-10
       101  11 -1.454158E+06 -1.059242E+05 -1.045277E+05  6.539171E+03 -4.946134E-09 -6.297257E-10
       101  12 -1.423556E+06 -9.821165E+04 -9.719563E+04 -1.945019E+04 -2.004730E-10 -1.211219E-09
       101  13 -1.030294E+06  2.222304E+02  1.172818E+03 -1.994127E+04  2.153470E-09 -4.506716E-10
       101  14 -1.030869E+06 -1.209765E+02  6.040722E+02  6.202607E+03 -2.880651E-09  2.267574E-10
       101  15 -1.030306E+06  1.033058E+02  5.811922E+02 -1.994119E+04 -1.062344E-09  9.182666E-10
       101  16 -5.767650E+05  1.135122E+05  1.136989E+05 -2.012129E+04 -5.701497E-10 -5.803513E-10
       101  17 -6.074166E+05  1.056688E+05  1.057224E+05  5.865855E+03 -2.320633E-09 -7.458426E-10
       101  18 -6.369160E+05  9.840663E+04  9.834642E+04 -2.043244E+04  7.177190E-10 -5.717796E-10
       101  19 -1.483636E+06 -1.130831E+05 -1.113685E+05 -1.976136E+04 -9.203156E+02 -6.789365E+03
       101  20 -1.454158E+06 -1.059242E+05 -1.045276E+05  6.539174E+03 -6.751519E+02 -5.964718E+03
       101  21 -1.423556E+06 -9.821163E+04 -9.719558E+04 -1.945019E+04 -4.279057E+02 -4.775283E+03
       101  22 -1.030294E+06  2.222801E+02  1.172906E+03 -1.994127E+04 -7.821945E+02 -6.789118E+03
       101  23 -1.030869E+06 -1.209382E+02  6.041395E+02  6.202609E+03 -4.581726E+02 -5.964690E+03
       101  24 -1.030306E+06  1.033303E+02  5.812351E+02 -1.994119E+04 -1.320802E+02 -4.775587E+03
       101  25 -5.767649E+05  1.135123E+05  1.136990E+05 -2.012128E+04 -6.439723E+02 -6.788871E+03
       101  26 -6.074166E+05  1.056688E+05  1.057225E+05  5.865856E+03 -2.410451E+02 -5.964662E+03
       101  27 -6.369160E+05  9.840665E+04  9.834646E+04 -2.043244E+04  1.639330E+02 -4.775891E+03
       102   1 -1.271007E+06 -6.003567E+04 -5.912654E+04 -2.104644E+04  2.594043E+02  4.048618E+03
       102   2 -1.237228E+06 -5.171042E+04 -5.077370E+04  8.356574E+03  2.447152E+00  2.903275E+03
       102   3 -1.203390E+06 -4.302924E+04 -4.217812E+04 -2.106604E+04 -2.557365E+02  1.644683E+03
       102   4 -1.030513E+06  5.234767E+01  5.052724E+02 -2.139396E+04  2.449894E+01  4.048973E+03
       102   5 -1.030548E+06 -5.541308E+01  5.539364E+02  8.018417E+03 -2.569709E+02  2.903785E+03
       102   6 -1.030519E+06  1.972338E+02  8.625573E+02 -2.139360E+04 -5.396528E+02  1.645368E+03
       102   7 -7.899658E+05  6.013602E+04  6.013276E+04 -2.174159E+04 -2.104975E+02  4.049328E+03
       102   8 -8.238281E+05  5.159638E+04  5.187838E+04  7.680169E+03 -5.164753E+02  2.904295E+03
       102   9 -8.576209E+05  4.342146E+04  4.390099E+04 -2.172125E+04 -8.236483E+02  1.646054E+03
       102  10 -1.271007E+06 -6.003569E+04 -5.912657E+04 -2.104644E+04  3.008118E-09 -7.429832E-11
       102  11 -1.237228E+06 -5.171043E+04 -5.077372E+04  8.356574E+03  2.726369E-09  4.329612E-10
       102  12 -1.203390E+06 -4.302924E+04 -4.217813E+04 -2.106604E+04  6.816913E-10 -1.405465E-09
       102  13 -1.030513E+06  5.233007E+01  5.052416E+02 -2.139396E+04 -2.193923E-10 -1.716941E-09
       102  14 -1.030548E+06 -5.542215E+01  5.539205E+02  8.018418E+03 -6.126508E-09  5.639148E-10
       102  15 -1.030519E+06  1.972308E+02  8.625517E+02 -2.139360E+04 -3.328455E-09 -1.930206E-09
       102  16 -7.899658E+05  6.013601E+04  6.013273E+04 -2.174159E+04 -3.314195E-09  7.082361E-11
       102  17 -8.238281E+05  5.159637E+04  5.187836E+04  7.680170E+03 -1.353293E-10 -6.469546E-11
       102  18 -8.576209E+05  4.342145E+04  4.390099E+04 -2.172125E+04 -3.508670E-09 -2.532419E-09
       102  19 -1.271007E+06 -6.003567E+04 -5.912654E+04 -2.104644E+04 -2.594043E+02 -4.048618E+03
       102  20 -1.237228E+06 -5.171042E+04 -5.077370E+04  8.356574E+03 -2.447152E+00 -2.903275E+03
       102  21 -1.203390E+06 -4.302924E+04 -4.217812E+04 -2.106604E+04  2.557365E+02 -1.644683E+03
       102  22 -1.030513E+06  5.234767E+01  5.052724E+02 -2.139396E+04 -2.449894E+01 -4.048973E+03
       102  23 -1.030548E+06 -5.541308E+01  5.539364E+02  8.018417E+03  2.569709E+02 -2.903785E+03
       102  24 -1.030519E+06  1.972338E+02  8.625573E+02 -2.139360E+04  5.396528E+02 -1.645368E+03
       102  25 -7.899658E+05  6.013602E+04  6.013276E+04 -2.174159E+04  2.104975E+02 -4.049328E+03
       102  26 -8.238281E+05  5.159638E+04  5.187838E+04  7.680169E+03  5.164753E+02 -2.904295E+03
       102  27 -8.576209E+05  4.342146E+04  4.390099E+04 -2.172125E+04  8.236483E+02 -1.646054E+03
       103   1 -1.039042E+06 -2.024492E+03 -9.546828E+02 -2.175620E+04 -4.420839E+02  8.857522E+02
       103   2 -1.004144E+06  6.443825E+03  8.278549E+03  8.483236E+03 -1.320316E+03 -3.694124E+02
       103   3 -9.692576E+05  1.591335E+04  1.825643E+04 -2.197422E+04 -2.198406E+03 -1.593718E+03
       103   4 -1.030527E+06  8.232880E+01  1.052381E+03 -2.181042E+04 -7.166629E+02  8.864627E+02
       103   5 -1.030518E+06 -1.469333E+02  1.729886E+03  8.538789E+03 -1.588210E+03 -3.687359E+02
       103   6 -1.030525E+06  6.238403E+02  3.147393E+03 -2.180906E+04 -2.459566E+03 -1.593071E+03
       103   7 -1.022011E+06  2.189144E+03  3.059441E+03 -2.186463E+04 -9.912456E+02  8.871733E+02
       103   8 -1.056892E+06 -6.737744E+03 -4.818830E+03  8.594340E+03 -1.856093E+03 -3.680594E+02
       103   9 -1.091789E+06 -1.466595E+04 -1.196192E+04 -2.164391E+04 -2.720700E+03 -1.592424E+03
       103  10 -1.039042E+06 -2.024493E+03 -9.546847E+02 -2.175620E+04 -2.173938E-09  1.007330E-09
       103  11 -1.004144E+06  6.443825E+03  8.278546E+03  8.483236E+03 -8.665722E-11  4.758096E-09
       103  12 -9.692576E+05  1.591335E+04  1.825641E+04 -2.197423E+04  2.632232E-09 -2.725358E-09
       103  13 -1.030527E+06  8.232782E+01  1.052379E+03 -2.181042E+04 -2.035983E-09 -1.784950E-10
       103  14 -1.030518E+06 -1.469341E+02  1.729881E+03  8.538789E+03  3.120374E-09 -1.890950E-10
       103  15 -1.030525E+06  6.238360E+02  3.147377E+03 -2.180906E+04  5.935149E-10 -7.730724E-10
       103  16 -1.022011E+06  2.189143E+03  3.059437E+03 -2.186463E+04  2.954408E-10 -2.014120E-10
       103  17 -1.056892E+06 -6.737745E+03 -4.818836E+03  8.594339E+03 -1.881512E-09  3.966494E-10
       103  18 -1.091789E+06 -1.466595E+04 -1.196194E+04 -2.164391E+04 -3.277132E-09 -1.243170E-09
       103  19 -1.039042E+06 -2.024492E+03 -9.546828E+02 -2.175620E+04  4.420839E+02 -8.857522E+02
       103  20 -1.004144E+06  6.443825E+03  8.278549E+03  8.483236E+03  1.320316E+03  3.694124E+02
       103  21 -9.692576E+05  1.591335E+04  1.825643E+04 -2.197422E+04  2.198406E+03  1.593718E+03
       103  22 -1.030527E+06  8.232880E+01  1.052381E+03 -2.181042E+04  7.166629E+02 -8.864627E+02
       103  23 -1.030518E+06 -1.469333E+02  1.729886E+03  8.538789E+03  1.588210E+03  3.687359E+02
       103  24 -1.030525E+06  6.238403E+02  3.147393E+03 -2.180906E+04  2.459566E+03  1.593071E+03
       103  25 -1.022011E+06  2.189144E+03  3.059441E+03 -2.186463E+04  9.912456E+02 -8.871733E+02
       103  26 -1.056892E+06 -6.737744E+03 -4.818830E+03  8.594340E+03  1.856093E+03  3.680594E+02
       103  27 -1.091789E+06 -1.466595E+04 -1.196192E+04 -2.164391E+04  2.720700E+03  1.592424E+03
       104   1 -8.059220E+05  5.602749E+04  5.981951E+04 -2.128054E+04 -2.812265E+03 -2.362841E+03
       104   2 -7.736922E+05  6.342389E+04  7.059607E+04  7.240197E+03 -6.297788E+03 -3.620578E+03
       104   3 -7.394981E+05  7.640327E+04  8.506082E+04 -2.198652E+04 -9.781821E+03 -4.606208E+03
       104   4 -1.030103E+06 -7.223152E+00  4.051101E+03 -2.115714E+04 -3.113972E+03 -2.362170E+03
       104   5 -1.031074E+06 -8.845626E+02  6.697720E+03  7.720565E+03 -6.539513E+03 -3.620187E+03
       104   6 -1.030092E+06  3.811960E+03  1.299203E+04 -2.115066E+04 -9.963378E+03 -4.606048E+03
       104   7 -1.254239E+06 -5.604572E+04 -5.172108E+04 -2.103376E+04 -3.415570E+03 -2.361499E+03
       104   8 -1.288396E+06 -6.519799E+04 -5.720559E+04  8.200763E+03 -6.781137E+03 -3.619797E+03
       104   9 -1.320609E+06 -6.878568E+04 -5.908307E+04 -2.031516E+04 -1.014485E+04 -4.605889E+03
       104  10 -8.059220E+05  5.602748E+04  5.981949E+04 -2.128055E+04  8.097565E-10 -3.221111E-09
       104  11 -7.736922E+05  6.342386E+04  7.059597E+04  7.240179E+03 -4.411302E-09  1.058246E-09
       104  12 -7.394982E+05  7.640322E+04  8.506060E+04 -2.198655E+04 -1.490107E-09  5.170614E-10
       104  13 -1.030104E+06 -7.231750E+00  4.051073E+03 -2.115715E+04 -1.953547E-09 -8.590461E-10
       104  14 -1.031074E+06 -8.845882E+02  6.697615E+03  7.720546E+03  2.118266E-09 -8.458942E-11
       104  15 -1.030092E+06  3.811911E+03  1.299180E+04 -2.115070E+04 -5.996237E-10 -3.843285E-10
       104  16 -1.254239E+06 -5.604573E+04 -5.172111E+04 -2.103376E+04  4.556462E-10 -5.375825E-10
       104  17 -1.288397E+06 -6.519802E+04 -5.720570E+04  8.200743E+03  2.204279E-09  3.456803E-09
       104  18 -1.320609E+06 -6.878573E+04 -5.908331E+04 -2.031520E+04  1.641527E-09  6.779339E-10
       104  19 -8.059220E+05  5.602749E+04  5.981951E+04 -2.128054E+04  2.812265E+03  2.362841E+03
       104  20 -7.736922E+05  6.342389E+04  7.059607E+04  7.240197E+03  6.297788E+03  3.620578E+03
       104  21 -7.394981E+05  7.640327E+04  8.506082E+04 -2.198652E+04  9.781821E+03  4.606208E+03
       104  22 -1.030103E+06 -7.223152E+00  4.051101E+03 -2.115714E+04  3.113972E+03  2.362170E+03
       104  23 -1.031074E+06 -8.845626E+02  6.697720E+03  7.720565E+03  6.539513E+03  3.620187E+03
       104  24 -1.030092E+06  3.811960E+03  1.299203E+04 -2.115066E+04  9.963378E+03  4.606048E+03
       104  25 -1.254239E+06 -5.604572E+04 -5.172108E+04 -2.103376E+04  3.415570E+03  2.361499E+03
       104  26 -1.288396E+06 -6.519799E+04 -5.720559E+04  8.200763E+03  6.781137E+03  3.619797E+03
       104  27 -1.320609E+06 -6.878568E+04 -5.908307E+04 -2.031516E+04  1.014485E+04  4.605889E+03
       105   1 -5.886821E+05  1.088565E+05  1.254557E+05 -1.802693E+04 -1.220713E+04 -5.458612E+03
       105   2 -5.660013E+05  1.109705E+05  1.424499E+05  4.504962E+03 -2.627521E+04 -6.706249E+03
       105   3 -5.308691E+05  1.505699E+05  1.782310E+05 -2.319844E+04 -4.034167E+04 -6.624759E+03
       105   4 -1.027808E+06 -8.613231E+02  1.634998E+04 -1.948903E+04 -1.261760E+04 -5.458255E+03
       105   5 -1.033996E+06 -5.942227E+03  2.629659E+04  5.631537E+03 -2.638958E+04 -6.706528E+03
       105   6 -1.027777E+06  2.642590E+04  5.483449E+04 -1.948546E+04 -4.015928E+04 -6.625346E+03
       105   7 -1.466759E+06 -1.105936E+05 -9.277015E+04 -2.095003E+04 -1.302777E+04 -5.457895E+03
       105   8 -1.501792E+06 -1.228714E+05 -8.987306E+04  6.757296E+03 -2.650386E+04 -6.706807E+03
       105   9 -1.524459E+06 -9.773661E+04 -6.858047E+04 -1.577545E+04 -3.997704E+04 -6.625932E+03
       105  10 -5.886822E+05  1.088564E+05  1.254553E+05 -1.802698E+04 -3.534038E-10  4.718787E-10
       105  11 -5.660020E+05  1.109703E+05  1.424485E+05  4.504820E+03 -3.476603E-09 -6.512443E-10
       105  12 -5.308709E+05  1.505694E+05  1.782278E+05 -2.319865E+04 -1.862530E-09  4.065934E-10
       105  13 -1.027808E+06 -8.613979E+02  1.634963E+04 -1.948908E+04 -2.169831E-09  5.162784E-11
       105  14 -1.033997E+06 -5.942463E+03  2.629520E+04  5.631395E+03  2.573609E-09  5.220029E-10
       105  15 -1.027778E+06  2.642542E+04  5.483137E+04 -1.948567E+04  1.305105E-09  2.914553E-10
       105  16 -1.466759E+06 -1.105937E+05 -9.277053E+04 -2.095009E+04 -1.286319E-09 -9.901203E-11
       105  17 -1.501793E+06 -1.228717E+05 -8.987447E+04  6.757152E+03  1.357625E-09 -5.600775E-11
       105  18 -1.524461E+06 -9.773709E+04 -6.858356E+04 -1.577566E+04  2.844594E-09 -5.149498E-10
       105  19 -5.886821E+05  1.088565E+05  1.254557E+05 -1.802693E+04  1.220713E+04  5.458612E+03
       105  20 -5.660013E+05  1.109705E+05  1.424499E+05  4.504962E+03  2.627521E+04  6.706249E+03
       105  21 -5.308691E+05  1.505699E+05  1.782310E+05 -2.319844E+04  4.034167E+04  6.624759E+03
       105  22 -1.027808E+06 -8.613231E+02  1.634998E+04 -1.948903E+04  1.261760E+04  5.458255E+03
       105  23 -1.033996E+06 -5.942227E+03  2.629659E+04  5.631537E+03  2.638958E+04  6.706528E+03
       105  24 -1.027777E+06  2.642590E+04  5.483449E+04 -1.948546E+04  4.015928E+04  6.625346E+03
       105  25 -1.466759E+06 -1.105936E+05 -9.277015E+04 -2.095003E+04  1.302777E+04  5.457895E+03
       105  26 -1.501792E+06 -1.228714E+05 -8.987306E+04  6.757296E+03  2.650386E+04  6.706807E+03
       105  27 -1.524459E+06 -9.773661E+04 -6.858047E+04 -1.577545E+04  3.997704E+04  6.625932E+03
       106   1 -3.950503E+05  1.479433E+05  2.201516E+05 -3.725803E+03 -4.982305E+04 -8.434517E+03
       106   2 -4.097377E+05  1.196157E+05  2.606500E+05 -3.878231E+03 -1.071283E+05 -1.026956E+04
       106   3 -3.499704E+05  3.487057E+05  4.033620E+05 -4.320124E+04 -1.644506E+05 -3.852786E+03
       106   4 -1.014114E+06 -6.715938E+03  6.645447E+04 -1.691433E+04 -5.106907E+04 -8.434498E+03
       106   5 -1.051155E+06 -4.055944E+04  1.016063E+05  2.473501E+03 -1.065427E+05 -1.027066E+04
       106   6 -1.013990E+06  1.828356E+05  2.377731E+05 -1.730984E+04 -1.620312E+05 -3.854862E+03
       106   7 -1.632828E+06 -1.614033E+05 -8.727126E+04 -3.008972E+04 -5.231383E+04 -8.434425E+03
       106   8 -1.692198E+06 -2.007653E+05 -5.746803E+04  8.818536E+03 -1.059577E+05 -1.027175E+04
       106   9 -1.677608E+06  1.693490E+04  7.215143E+04  8.553634E+03 -1.596143E+05 -3.856739E+03
       106  10 -3.950530E+05  1.479425E+05  2.201468E+05 -3.726142E+03 -1.067558E-09  9.411304E-10
       106  11 -4.097501E+05  1.196125E+05  2.606282E+05 -3.879117E+03  2.671198E-09  4.970268E-11
       106  12 -3.499994E+05  3.486984E+05  4.033111E+05 -4.320175E+04  1.346909E-09 -7.736787E-10
       106  13 -1.014116E+06 -6.716715E+03  6.644942E+04 -1.691468E+04 -4.190732E-10  2.882736E-10
       106  14 -1.051167E+06 -4.056260E+04  1.015848E+05  2.472619E+03 -1.744369E-09  2.197614E-09
       106  15 -1.014018E+06  1.828285E+05  2.377237E+05 -1.731034E+04 -3.161179E-09 -3.644596E-10
       106  16 -1.632831E+06 -1.614041E+05 -8.727655E+04 -3.009008E+04  8.097224E-10 -6.434946E-10
       106  17 -1.692210E+06 -2.007684E+05 -5.748938E+04  8.817659E+03 -6.884368E-09  2.876553E-10
       106  18 -1.677635E+06  1.692802E+04  7.210340E+04  8.553138E+03 -9.357958E-10 -9.602785E-10
       106  19 -3.950503E+05  1.479433E+05  2.201516E+05 -3.725803E+03  4.982305E+04  8.434517E+03
       106  20 -4.097377E+05  1.196157E+05  2.606500E+05 -3.878231E+03  1.071283E+05  1.026956E+04
       106  21 -3.499704E+05  3.487057E+05  4.033620E+05 -4.320124E+04  1.644506E+05  3.852786E+03
       106  22 -1.014114E+06 -6.715938E+03  6.645447E+04 -1.691433E+04  5.106907E+04  8.434498E+03
       106  23 -1.051155E+06 -4.055944E+04  1.016063E+05  2.473501E+03  1.065427E+05  1.027066E+04
       106  24 -1.013990E+06  1.828356E+05  2.377731E+05 -1.730984E+04  1.620312E+05  3.854862E+03
       106  25 -1.632828E+06 -1.614033E+05 -8.727126E+04 -3.008972E+04  5.231383E+04  8.434425E+03
       106  26 -1.692198E+06 -2.007653E+05 -5.746803E+04  8.818536E+03  1.059577E+05  1.027175E+04
       106  27 -1.677608E+06  1.693490E+04  7.215143E+04  8.553634E+03  1.596143E+05  3.856739E+03
       107   1  2.668722E+05  2.173148E+05  2.862497E+05 -1.912111E+05 -3.276295E+02  1.870260E+05
       107   2  8.309165E+04  1.733431E+05  1.468675E+05 -1.064516E+05  1.029134E+03  1.131936E+05
       107   3  2.343253E+04  1.699727E+05  8.658330E+04 -2.590505E+04  7.320715E+02  3.935602E+04
       107   4  2.481686E+05  1.496085E+05  2.697187E+05 -2.811329E+04 -2.618689E+02  1.834370E+05
       107   5  7.162741E+04  1.296020E+05  1.377880E+05 -2.654365E+04  1.045200E+03  1.128674E+05
       107   6  1.862174E+04  1.496216E+05  8.269214E+04 -2.917950E+04  7.181646E+02  4.228960E+04
       107   7  2.295645E+05  8.196334E+04  2.532016E+05  1.349665E+05 -1.979880E+02  1.798484E+05
       107   8  6.018699E+04  8.587644E+04  1.287118E+05  5.335856E+04  1.061183E+03  1.125412E+05
       107   9  1.381096E+04  1.292709E+05  7.880099E+04 -3.245383E+04  7.042265E+02  4.522309E+04
       107  10  2.668628E+05  2.172772E+05  2.861840E+05 -1.912111E+05  4.584637E-10  4.837027E-09
       107  11  8.308821E+04  1.733293E+05  1.468434E+05 -1.064517E+05 -4.779711E-10  1.568873E-09
       107  12  2.343211E+04  1.699710E+05  8.658039E+04 -2.590507E+04 -3.906503E-09 -4.368010E-09
       107  13  2.481596E+05  1.495723E+05  2.696554E+05 -2.811325E+04 -1.989652E-09 -1.285239E-09
       107  14  7.162399E+04  1.295883E+05  1.377640E+05 -2.654374E+04  4.054922E-09 -4.721006E-11
       107  15  1.862126E+04  1.496197E+05  8.268878E+04 -2.917952E+04 -2.724166E-09 -1.478498E-09
       107  16  2.295559E+05  8.192861E+04  2.531408E+05  1.349665E+05  1.047496E-09 -4.868679E-09
       107  17  6.018359E+04  8.586284E+04  1.286880E+05  5.335846E+04  9.280484E-10  1.572488E-09
       107  18  1.381042E+04  1.292687E+05  7.879715E+04 -3.245386E+04 -8.617598E-10  4.337167E-09
       107  19  2.668722E+05  2.173148E+05  2.862497E+05 -1.912111E+05  3.276295E+02 -1.870260E+05
       107  20  8.309165E+04  1.733431E+05  1.468675E+05 -1.064516E+05 -1.029134E+03 -1.131936E+05
       107  21  2.343253E+04  1.699727E+05  8.658330E+04 -2.590505E+04 -7.320715E+02 -3.935602E+04
       107  22  2.481686E+05  1.496085E+05  2.697187E+05 -2.811329E+04  2.618689E+02 -1.834370E+05
       107  23  7.162741E+04  1.296020E+05  1.377880E+05 -2.654365E+04 -1.045200E+03 -1.128674E+05
       107  24  1.862174E+04  1.496216E+05  8.269214E+04 -2.917950E+04 -7.181646E+02 -4.228960E+04
       107  25  2.295645E+05  8.196334E+04  2.532016E+05  1.349665E+05  1.979880E+02 -1.798484E+05
       107  26  6.018699E+04  8.587644E+04  1.287118E+05  5.335856E+04 -1.061183E+03 -1.125412E+05
       107  27  1.381096E+04  1.292709E+05  7.880099E+04 -3.245383E+04 -7.042265E+02 -4.522309E+04
       108   1  1.745373E+04  1.471149E+05  6.980541E+04 -3.820833E+04 -1.396748E+02  2.793064E+04
       108   2  2.577626E+03  1.189502E+05  5.234128E+04 -2.711891E+04 -1.416125E+03  4.044595E+02
       108   3  4.145762E+03  9.842721E+04  5.689450E+04 -2.067542E+04 -2.599361E+03 -2.712020E+04
       108   4  1.617522E+04  1.424302E+05  6.860244E+04 -2.917860E+04 -1.527837E+02  3.082432E+04
       108   5  7.117445E+03  1.385933E+05  5.541644E+04 -2.685959E+04 -1.428746E+03  3.110588E+03
       108   6  1.453601E+04  1.424299E+05  6.437795E+04 -2.918614E+04 -2.610721E+03 -2.460264E+04
       108   7  1.489701E+04  1.377457E+05  6.739953E+04 -2.014894E+04 -1.658085E+02  3.371798E+04
       108   8  1.165725E+04  1.582368E+05  5.849161E+04 -2.660025E+04 -1.441364E+03  5.816799E+03
       108   9  2.492643E+04  1.864347E+05  7.186140E+04 -3.769749E+04 -2.622150E+03 -2.208490E+04
       108  10  1.745352E+04  1.471140E+05  6.980395E+04 -3.820833E+04 -5.038623E-09  1.273750E-07
       108  11  2.577624E+03  1.189502E+05  5.234128E+04 -2.711891E+04  6.561923E-11  3.316753E-09
       108  12  4.145557E+03  9.842642E+04  5.689311E+04 -2.067547E+04 -1.096133E-09 -1.247030E-07
       108  13  1.617496E+04  1.424292E+05  6.860065E+04 -2.917860E+04 -1.054468E-09 -1.031285E-09
       108  14  7.117440E+03  1.385933E+05  5.541641E+04 -2.685958E+04 -3.063400E-09  4.007854E-10
       108  15  1.453584E+04  1.424293E+05  6.437680E+04 -2.918619E+04 -2.548214E-09 -1.317009E-09
       108  16  1.489671E+04  1.377445E+05  6.739740E+04 -2.014893E+04 -3.126700E-09 -1.271965E-07
       108  17  1.165724E+04  1.582368E+05  5.849154E+04 -2.660024E+04 -3.262966E-09  1.395372E-09
       108  18  2.492629E+04  1.864341E+05  7.186047E+04 -3.769754E+04 -3.875201E-09  1.251080E-07
       108  19  1.745373E+04  1.471149E+05  6.980541E+04 -3.820833E+04  1.396748E+02 -2.793064E+04
       108  20  2.577626E+03  1.189502E+05  5.234128E+04 -2.711891E+04  1.416125E+03 -4.044595E+02
       108  21  4.145762E+03  9.842721E+04  5.689450E+04 -2.067542E+04  2.599361E+03  2.712020E+04
       108  22  1.617522E+04  1.424302E+05  6.860244E+04 -2.917860E+04  1.527837E+02 -3.082432E+04
       108  23  7.117445E+03  1.385933E+05  5.541644E+04 -2.685959E+04  1.428746E+03 -3.110588E+03
       108  24  1.453601E+04  1.424299E+05  6.437795E+04 -2.918614E+04  2.610721E+03  2.460264E+04
       108  25  1.489701E+04  1.377457E+05  6.739953E+04 -2.014894E+04  1.658085E+02 -3.371798E+04
       108  26  1.165725E+04  1.582368E+05  5.849161E+04 -2.660025E+04  1.441364E+03 -5.816799E+03
       108  27  2.492643E+04  1.864347E+05  7.186140E+04 -3.769749E+04  2.622150E+03  2.208490E+04
       109   1  2.741158E+03  8.895719E+04  6.572092E+04 -3.181129E+04 -3.396115E+03 -3.788321E+04
       109   2  4.310580E+04  4.777830E+04  1.074775E+05  4.476184E+04 -3.187903E+03 -9.624914E+04
       109   3  1.926449E+05  4.145744E+04  2.145278E+05  1.171512E+05 -4.997946E+02 -1.546003E+05
       109   4  1.670615E+04  1.486599E+05  7.600389E+04 -2.916930E+04 -3.408302E+03 -3.529841E+04
       109   5  6.373684E+04  1.308025E+05  1.236953E+05 -2.660421E+04 -3.165747E+03 -9.863895E+04
       109   6  2.207761E+05  1.486476E+05  2.401265E+05 -2.822347E+04 -4.295377E+02 -1.619673E+05
       109   7  3.067098E+04  2.083661E+05  8.628676E+04 -2.652704E+04 -3.420467E+03 -3.271337E+04
       109   8  8.438653E+04  2.138443E+05  1.399154E+05 -9.798006E+04 -3.143043E+03 -1.010291E+05
       109   9  2.489857E+05  2.558936E+05  2.657359E+05 -1.736235E+05 -3.558393E+02 -1.693356E+05
       109  10  2.740760E+03  8.895565E+04  6.571820E+04 -3.181140E+04 -3.068814E-09  2.111167E-09
       109  11  4.310331E+04  4.776836E+04  1.074601E+05  4.476160E+04  2.157913E-09  1.014773E-09
       109  12  1.926385E+05  4.143178E+04  2.144828E+05  1.171511E+05  2.270392E-09 -4.527942E-09
       109  13  1.670580E+04  1.486586E+05  7.600152E+04 -2.916940E+04 -4.509204E-09 -1.108863E-09
       109  14  6.373422E+04  1.307921E+05  1.236770E+05 -2.660447E+04  3.872753E-10  2.125636E-10
       109  15  2.207690E+05  1.486194E+05  2.400772E+05 -2.822353E+04  6.263862E-10 -1.456907E-09
       109  16  3.067068E+04  2.083650E+05  8.628473E+04 -2.652713E+04 -1.399702E-09 -2.169446E-09
       109  17  8.438378E+04  2.138333E+05  1.398962E+05 -9.798032E+04  2.313275E-09  3.273144E-09
       109  18  2.489780E+05  2.558629E+05  2.656820E+05 -1.736235E+05  1.919563E-09  4.500803E-09
       109  19  2.741158E+03  8.895719E+04  6.572092E+04 -3.181129E+04  3.396115E+03  3.788321E+04
       109  20  4.310580E+04  4.777830E+04  1.074775E+05  4.476184E+04  3.187903E+03  9.624914E+04
       109  21  1.926449E+05  4.145744E+04  2.145278E+05  1.171512E+05  4.997946E+02  1.546003E+05
       109  22  1.670615E+04  1.486599E+05  7.600389E+04 -2.916930E+04  3.408302E+03  3.529841E+04
       109  23  6.373684E+04  1.308025E+05  1.236953E+05 -2.660421E+04  3.165747E+03  9.863895E+04
       109  24  2.207761E+05  1.486476E+05  2.401265E+05 -2.822347E+04  4.295377E+02  1.619673E+05
       109  25  3.067098E+04  2.083661E+05  8.628676E+04 -2.652704E+04  3.420467E+03  3.271337E+04
       109  26  8.438653E+04  2.138443E+05  1.399154E+05 -9.798006E+04  3.143043E+03  1.010291E+05
       109  27  2.489857E+05  2.558936E+05  2.657359E+05 -1.736235E+05  3.558393E+02  1.693356E+05
       110   1 -5.884925E+06 -1.848681E+06 -1.198196E+06 -2.032240E+06 -5.848404E+05 -2.105287E+05
       110   2 -5.737155E+06 -1.001127E+06 -6.582155E+05 -2.160628E+06 -3.802138E+05 -1.092486E+05
       110   3 -5.927505E+06 -1.016774E+06 -5.111092E+05 -2.077861E+06 -1.671163E+05 -3.027711E+04
       110   4 -4.925964E+06 -1.321806E+06 -9.020493E+05 -1.606056E+06 -5.734423E+05 -2.063889E+05
       110   5 -4.710375E+06 -5.669501E+05 -3.726867E+05 -1.834369E+06 -3.769995E+05 -1.080681E+05
       110   6 -4.830756E+06 -6.728510E+05 -2.291938E+05 -1.851693E+06 -1.720688E+05 -3.212910E+04
       110   7 -3.966045E+06 -7.945303E+05 -6.059945E+05 -1.179175E+06 -5.620243E+05 -2.022339E+05
       110   8 -3.682566E+06 -1.326368E+05 -8.725802E+04 -1.507593E+06 -3.737789E+05 -1.068845E+05
       110   9 -3.732835E+06 -3.289374E+05  5.262746E+04 -1.625202E+06 -1.770307E+05 -3.398325E+04
       110  10 -5.885307E+06 -1.848822E+06 -1.198930E+06 -2.032340E+06  6.757907E-10  3.823996E-10
       110  11 -5.737314E+06 -1.001179E+06 -6.585127E+05 -2.160662E+06  4.359064E-10  7.242153E-10
       110  12 -5.927535E+06 -1.016783E+06 -5.111640E+05 -2.077865E+06 -3.151795E-09  8.382710E-10
       110  13 -4.926331E+06 -1.321941E+06 -9.027535E+05 -1.606152E+06 -2.663494E-09 -2.714116E-10
       110  14 -4.710532E+06 -5.670013E+05 -3.729783E+05 -1.834402E+06  1.113563E-09 -1.823022E-09
       110  15 -4.830789E+06 -6.728602E+05 -2.292519E+05 -1.851697E+06  2.499150E-09  9.022260E-10
       110  16 -3.966397E+06 -7.946600E+05 -6.066697E+05 -1.179266E+06 -1.915232E-09  8.757687E-10
       110  17 -3.682720E+06 -1.326870E+05 -8.754402E+04 -1.507626E+06 -3.238339E-09  7.590665E-10
       110  18 -3.732869E+06 -3.289471E+05  5.256598E+04 -1.625207E+06  2.085780E-09  8.821295E-10
       110  19 -5.884925E+06 -1.848681E+06 -1.198196E+06 -2.032240E+06  5.848404E+05  2.105287E+05
       110  20 -5.737155E+06 -1.001127E+06 -6.582155E+05 -2.160628E+06  3.802138E+05  1.092486E+05
       110  21 -5.927505E+06 -1.016774E+06 -5.111092E+05 -2.077861E+06  1.671163E+05  3.027711E+04
       110  22 -4.925964E+06 -1.321806E+06 -9.020493E+05 -1.606056E+06  5.734423E+05  2.063889E+05
       110  23 -4.710375E+06 -5.669501E+05 -3.726867E+05 -1.834369E+06  3.769995E+05  1.080681E+05
       110  24 -4.830756E+06 -6.728510E+05 -2.291938E+05 -1.851693E+06  1.720688E+05  3.212910E+04
       110  25 -3.966045E+06 -7.945303E+05 -6.059945E+05 -1.179175E+06  5.620243E+05  2.022339E+05
       110  26 -3.682566E+06 -1.326368E+05 -8.725802E+04 -1.507593E+06  3.737789E+05  1.068845E+05
       110  27 -3.732835E+06 -3.289374E+05  5.262746E+04 -1.625202E+06  1.770307E+05  3.398325E+04
       111   1 -5.761285E+06 -1.161841E+06 -4.521158E+05 -2.084348E+06 -1.379788E+05 -2.371267E+04
       111   2 -5.711073E+06 -1.020653E+06 -3.382557E+05 -2.066315E+06 -9.111193E+04 -5.559258E+03
       111   3 -5.668540E+06 -1.021847E+06 -2.881803E+05 -2.062963E+06 -4.315198E+04  9.697473E+03
       111   4 -4.796041E+06 -7.773605E+05 -1.874417E+05 -1.801917E+06 -1.374189E+05 -2.350961E+04
       111   5 -4.786477E+06 -6.660994E+05 -8.788992E+04 -1.809669E+06 -9.158016E+04 -5.739336E+03
       111   6 -4.784323E+06 -6.969121E+05 -5.122428E+04 -1.832113E+06 -4.465258E+04  9.132289E+03
       111   7 -3.829889E+06 -3.927961E+05  7.714728E+04 -1.519076E+06 -1.368580E+05 -2.330607E+04
       111   8 -3.861050E+06 -3.114888E+05  1.623993E+05 -1.552672E+06 -9.204908E+04 -5.919676E+03
       111   9 -3.899348E+06 -3.719419E+05  1.856630E+05 -1.600969E+06 -4.615552E+04  8.566287E+03
       111  10 -5.761305E+06 -1.161847E+06 -4.521530E+05 -2.084350E+06  1.072426E-09  3.200285E-10
       111  11 -5.711082E+06 -1.020655E+06 -3.382715E+05 -2.066315E+06  2.568327E-09 -1.100412E-09
       111  12 -5.668542E+06 -1.021848E+06 -2.881840E+05 -2.062963E+06  2.266365E-09 -4.948594E-10
       111  13 -4.796062E+06 -7.773663E+05 -1.874786E+05 -1.801920E+06  1.126115E-09  5.691181E-10
       111  14 -4.786486E+06 -6.661017E+05 -8.790587E+04 -1.809669E+06  4.203699E-09 -4.951362E-10
       111  15 -4.784325E+06 -6.969127E+05 -5.122820E+04 -1.832113E+06 -9.587897E-10 -4.712927E-10
       111  16 -3.829909E+06 -3.928018E+05  7.711082E+04 -1.519079E+06  2.538345E-09  6.838282E-10
       111  17 -3.861059E+06 -3.114911E+05  1.623832E+05 -1.552672E+06 -2.053712E-09 -6.982977E-10
       111  18 -3.899350E+06 -3.719425E+05  1.856588E+05 -1.600969E+06 -1.317746E-09 -1.251194E-09
       111  19 -5.761285E+06 -1.161841E+06 -4.521158E+05 -2.084348E+06  1.379788E+05  2.371267E+04
       111  20 -5.711073E+06 -1.020653E+06 -3.382557E+05 -2.066315E+06  9.111193E+04  5.559258E+03
       111  21 -5.668540E+06 -1.021847E+06 -2.881803E+05 -2.062963E+06  4.315198E+04 -9.697473E+03
       111  22 -4.796041E+06 -7.773605E+05 -1.874417E+05 -1.801917E+06  1.374189E+05  2.350961E+04
       111  23 -4.786477E+06 -6.660994E+05 -8.788992E+04 -1.809669E+06  9.158016E+04  5.739336E+03
       111  24 -4.784323E+06 -6.969121E+05 -5.122428E+04 -1.832113E+06  4.465258E+04 -9.132289E+03
       111  25 -3.829889E+06 -3.927961E+05  7.714728E+04 -1.519076E+06  1.368580E+05  2.330607E+04
       111  26 -3.861050E+06 -3.114888E+05  1.623993E+05 -1.552672E+06  9.204908E+04  5.919676E+03
       111  27 -3.899348E+06 -3.719419E+05  1.856630E+05 -1.600969E+06  4.615552E+04 -8.566287E+03
       112   1 -5.524436E+06 -9.980877E+05 -2.424449E+05 -2.035548E+06 -3.561079E+04  1.036372E+04
       112   2 -5.471443E+06 -9.269172E+05 -2.013798E+05 -1.983426E+06 -2.383450E+04  1.167201E+04
       112   3 -5.367099E+06 -9.255140E+05 -1.717137E+05 -1.993108E+06 -1.178722E+04  1.224242E+04
       112   4 -4.775866E+06 -7.135397E+05 -4.038239E+04 -1.830268E+06 -3.652814E+04  1.001769E+04
       112   5 -4.800832E+06 -6.736495E+05 -2.054696E+04 -1.801241E+06 -2.501878E+04  1.122726E+04
       112   6 -4.774393E+06 -7.034596E+05 -1.188611E+04 -1.834019E+06 -1.324002E+04  1.169873E+04
       112   7 -4.026753E+06 -4.289573E+05  1.616296E+05 -1.624761E+06 -3.744671E+04  9.671198E+03
       112   8 -4.129784E+06 -4.203553E+05  1.602457E+05 -1.618878E+06 -2.620446E+04  1.078198E+04
       112   9 -4.181346E+06 -4.813856E+05  1.479105E+05 -1.674792E+06 -1.469437E+04  1.115447E+04
       112  10 -5.524437E+06 -9.980882E+05 -2.424475E+05 -2.035548E+06  5.249280E-10  8.860552E-10
       112  11 -5.471444E+06 -9.269175E+05 -2.013811E+05 -1.983426E+06  7.919032E-10  2.192706E-09
       112  12 -5.367099E+06 -9.255142E+05 -1.717142E+05 -1.993107E+06 -1.883587E-09  1.338887E-09
       112  13 -4.775867E+06 -7.135401E+05 -4.038510E+04 -1.830267E+06 -1.054807E-09  5.792014E-10
       112  14 -4.800832E+06 -6.736498E+05 -2.054838E+04 -1.801241E+06  1.298003E-09  6.679289E-10
       112  15 -4.774393E+06 -7.034598E+05 -1.188670E+04 -1.834018E+06  2.104718E-09  2.540394E-09
       112  16 -4.026755E+06 -4.289578E+05  1.616268E+05 -1.624761E+06  3.154406E-09  7.964263E-10
       112  17 -4.129785E+06 -4.203556E+05  1.602442E+05 -1.618877E+06  2.374036E-09  1.014324E-09
       112  18 -4.181346E+06 -4.813858E+05  1.479099E+05 -1.674791E+06  1.838045E-09  1.978489E-09
       112  19 -5.524436E+06 -9.980877E+05 -2.424449E+05 -2.035548E+06  3.561079E+04 -1.036372E+04
       112  20 -5.471443E+06 -9.269172E+05 -2.013798E+05 -1.983426E+06  2.383450E+04 -1.167201E+04
       112  21 -5.367099E+06 -9.255140E+05 -1.717137E+05 -1.993108E+06  1.178722E+04 -1.224242E+04
       112  22 -4.775866E+06 -7.135397E+05 -4.038239E+04 -1.830268E+06  3.652814E+04 -1.001769E+04
       112  23 -4.800832E+06 -6.736495E+05 -2.054696E+04 -1.801241E+06  2.501878E+04 -1.122726E+04
       112  24 -4.774393E+06 -7.034596E+05 -1.188611E+04 -1.834019E+06  1.324002E+04 -1.169873E+04
       112  25 -4.026753E+06 -4.289573E+05  1.616296E+05 -1.624761E+06  3.744671E+04 -9.671198E+03
       112  26 -4.129784E+06 -4.203553E+05  1.602457E+05 -1.618878E+06  2.620446E+04 -1.078198E+04
       112  27 -4.181346E+06 -4.813856E+05  1.479105E+05 -1.674792E+06  1.469437E+04 -1.115447E+04
       113   1 -5.190183E+06 -8.656021E+05 -1.220273E+05 -1.949910E+06 -9.308553E+03  1.067886E+04
       113   2 -5.127465E+06 -7.929397E+05 -9.252916E+04 -1.884065E+06 -4.918282E+03  8.036471E+03
       113   3 -4.996543E+06 -7.912163E+05 -6.572352E+04 -1.897488E+06 -4.307194E+02  5.123392E+03
       113   4 -4.771170E+06 -7.077436E+05 -9.441575E+03 -1.836376E+06 -1.068521E+04  1.016447E+04
       113   5 -4.805186E+06 -6.716864E+05 -5.730536E+03 -1.796963E+06 -6.395597E+03  7.485251E+03
       113   6 -4.770990E+06 -7.065444E+05 -4.629578E+03 -1.836818E+06 -2.009258E+03  4.535267E+03
       113   7 -4.351985E+06 -5.498747E+05  1.031288E+05 -1.722772E+06 -1.206290E+04  9.649683E+03
       113   8 -4.482808E+06 -5.504276E+05  8.105853E+04 -1.709819E+06 -7.873755E+03  6.933716E+03
       113   9 -4.545390E+06 -6.218703E+05  5.645927E+04 -1.776127E+06 -3.588418E+03  3.946911E+03
       113  10 -5.190183E+06 -8.656023E+05 -1.220277E+05 -1.949910E+06 -1.553081E-10  1.193813E-09
       113  11 -5.127465E+06 -7.929398E+05 -9.252933E+04 -1.884065E+06 -2.087181E-09 -1.217441E-09
       113  12 -4.996543E+06 -7.912164E+05 -6.572357E+04 -1.897488E+06 -3.620872E-09 -9.337970E-11
       113  13 -4.771170E+06 -7.077438E+05 -9.441984E+03 -1.836376E+06 -2.249489E-09 -8.345627E-10
       113  14 -4.805187E+06 -6.716865E+05 -5.730717E+03 -1.796963E+06  3.916045E-10 -1.359830E-10
       113  15 -4.770990E+06 -7.065444E+05 -4.629624E+03 -1.836818E+06 -8.472412E-10  2.833382E-09
       113  16 -4.351986E+06 -5.498749E+05  1.031283E+05 -1.722772E+06 -2.049328E-10 -1.766859E-10
       113  17 -4.482808E+06 -5.504277E+05  8.105833E+04 -1.709819E+06  1.064117E-10 -8.872287E-10
       113  18 -4.545390E+06 -6.218703E+05  5.645922E+04 -1.776127E+06  4.744071E-10 -4.254149E-10
       113  19 -5.190183E+06 -8.656021E+05 -1.220273E+05 -1.949910E+06  9.308553E+03 -1.067886E+04
       113  20 -5.127465E+06 -7.929397E+05 -9.252916E+04 -1.884065E+06  4.918282E+03 -8.036471E+03
       113  21 -4.996543E+06 -7.912163E+05 -6.572352E+04 -1.897488E+06  4.307194E+02 -5.123392E+03
       113  22 -4.771170E+06 -7.077436E+05 -9.441575E+03 -1.836376E+06  1.068521E+04 -1.016447E+04
       113  23 -4.805186E+06 -6.716864E+05 -5.730536E+03 -1.796963E+06  6.395597E+03 -7.485251E+03
       113  24 -4.770990E+06 -7.065444E+05 -4.629578E+03 -1.836818E+06  2.009258E+03 -4.535267E+03
       113  25 -4.351985E+06 -5.498747E+05  1.031288E+05 -1.722772E+06  1.206290E+04 -9.649683E+03
       113  26 -4.482808E+06 -5.504276E+05  8.105853E+04 -1.709819E+06  7.873755E+03 -6.933716E+03
       113  27 -4.545390E+06 -6.218703E+05  5.645927E+04 -1.776127E+06  3.588418E+03 -3.946911E+03
       114   1 -4.800947E+06 -7.188897E+05 -1.257038E+04 -1.846128E+06  1.234396E+03  2.973767E+03
       114   2 -4.735295E+06 -6.441728E+05  1.310698E+04 -1.776825E+06  5.722388E+03 -3.333443E+01
       114   3 -4.598563E+06 -6.436297E+05  3.604054E+04 -1.790541E+06  1.018328E+04 -2.963246E+03
       114   4 -4.770341E+06 -7.072672E+05 -4.683804E+03 -1.837647E+06 -3.394891E+02  2.387628E+03
       114   5 -4.805957E+06 -6.707516E+05 -5.918540E+03 -1.795922E+06  4.177262E+03 -6.089774E+02
       114   6 -4.770509E+06 -7.084178E+05 -9.919824E+03 -1.837222E+06  8.666362E+03 -3.528547E+03
       114   7 -4.739735E+06 -6.956446E+05  3.202769E+03 -1.829166E+06 -1.913471E+03  1.801451E+03
       114   8 -4.876615E+06 -6.973302E+05 -2.494462E+04 -1.815017E+06  2.632321E+03 -1.184551E+03
       114   9 -4.942427E+06 -7.732045E+05 -5.588302E+04 -1.883891E+06  7.149900E+03 -4.093676E+03
       114  10 -4.800947E+06 -7.188897E+05 -1.257040E+04 -1.846128E+06  3.362559E-10  2.655658E-09
       114  11 -4.735295E+06 -6.441728E+05  1.310692E+04 -1.776825E+06  3.207439E-09  3.618155E-09
       114  12 -4.598563E+06 -6.436298E+05  3.604032E+04 -1.790541E+06  9.835113E-10  1.514702E-09
       114  13 -4.770341E+06 -7.072672E+05 -4.683815E+03 -1.837647E+06 -1.126518E-09 -9.792954E-10
       114  14 -4.805957E+06 -6.707516E+05 -5.918574E+03 -1.795922E+06 -8.768644E-10  1.601764E-09
       114  15 -4.770509E+06 -7.084178E+05 -9.919989E+03 -1.837222E+06  9.406687E-10  6.934893E-10
       114  16 -4.739735E+06 -6.956446E+05  3.202756E+03 -1.829166E+06 -8.579932E-10 -1.643417E-11
       114  17 -4.876615E+06 -6.973302E+05 -2.494463E+04 -1.815017E+06  1.127809E-09  1.626747E-09
       114  18 -4.942427E+06 -7.732045E+05 -5.588315E+04 -1.883891E+06  7.382485E-10 -1.449271E-09
       114  19 -4.800947E+06 -7.188897E+05 -1.257038E+04 -1.846128E+06 -1.234396E+03 -2.973767E+03
       114  20 -4.735295E+06 -6.441728E+05  1.310698E+04 -1.776825E+06 -5.722388E+03  3.333443E+01
       114  21 -4.598563E+06 -6.436297E+05  3.604054E+04 -1.790541E+06 -1.018328E+04  2.963246E+03
       114  22 -4.770341E+06 -7.072672E+05 -4.683804E+03 -1.837647E+06  3.394891E+02 -2.387628E+03
       114  23 -4.805957E+06 -6.707516E+05 -5.918540E+03 -1.795922E+06 -4.177262E+03  6.089774E+02
       114  24 -4.770509E+06 -7.084178E+05 -9.919824E+03 -1.837222E+06 -8.666362E+03  3.528547E+03
       114  25 -4.739735E+06 -6.956446E+05  3.202769E+03 -1.829166E+06  1.913471E+03 -1.801451E+03
       114  26 -4.876615E+06 -6.973302E+05 -2.494462E+04 -1.815017E+06 -2.632321E+03  1.184551E+03
       114  27 -4.942427E+06 -7.732045E+05 -5.588302E+04 -1.883891E+06 -7.149900E+03  4.093676E+03
       115   1 -4.409923E+06 -5.702811E+05  8.519549E+04 -1.739827E+06  1.297869E+04 -4.646034E+03
       115   2 -4.349578E+06 -4.998622E+05  1.004981E+05 -1.675193E+06  2.529351E+04 -4.471989E+03
       115   3 -4.229727E+06 -5.089898E+05  1.040052E+05 -1.682937E+06  3.740594E+04 -3.736278E+03
       115   4 -4.772530E+06 -7.054072E+05 -1.255420E+04 -1.836442E+06  1.139587E+04 -5.236372E+03
       115   5 -4.803025E+06 -6.709071E+05 -2.165962E+04 -1.798284E+06  2.391530E+04 -4.987127E+03
       115   6 -4.774068E+06 -7.160047E+05 -4.273039E+04 -1.832509E+06  3.623058E+04 -4.176704E+03
       115   7 -5.135007E+06 -8.405254E+05 -1.103147E+05 -1.933005E+06  9.814090E+03 -5.826333E+03
       115   8 -5.256272E+06 -8.419396E+05 -1.438353E+05 -1.921292E+06  2.253821E+04 -5.501849E+03
       115   9 -5.318122E+06 -9.230017E+05 -1.894929E+05 -1.981962E+06  3.505635E+04 -4.616701E+03
       115  10 -4.409923E+06 -5.702811E+05  8.519513E+04 -1.739827E+06  2.090512E-09  2.123786E-09
       115  11 -4.349578E+06 -4.998624E+05  1.004968E+05 -1.675193E+06  2.792797E-09  2.669417E-09
       115  12 -4.229729E+06 -5.089902E+05  1.040025E+05 -1.682937E+06  7.239097E-10  1.163388E-09
       115  13 -4.772530E+06 -7.054073E+05 -1.255449E+04 -1.836442E+06  6.269459E-10  1.343840E-09
       115  14 -4.803025E+06 -6.709073E+05 -2.166075E+04 -1.798283E+06 -2.013338E-09  1.824059E-10
       115  15 -4.774069E+06 -7.160051E+05 -4.273291E+04 -1.832509E+06 -1.797276E-09 -4.862527E-10
       115  16 -5.135007E+06 -8.405255E+05 -1.103150E+05 -1.933005E+06 -1.000287E-09  1.151322E-09
       115  17 -5.256272E+06 -8.419398E+05 -1.438363E+05 -1.921292E+06 -3.327343E-09  3.630876E-10
       115  18 -5.318124E+06 -9.230020E+05 -1.894953E+05 -1.981962E+06  1.027794E-09  1.430156E-09
       115  19 -4.409923E+06 -5.702811E+05  8.519549E+04 -1.739827E+06 -1.297869E+04  4.646034E+03
       115  20 -4.349578E+06 -4.998622E+05  1.004981E+05 -1.675193E+06 -2.529351E+04  4.471989E+03
       115  21 -4.229727E+06 -5.089898E+05  1.040052E+05 -1.682937E+06 -3.740594E+04  3.736278E+03
       115  22 -4.772530E+06 -7.054072E+05 -1.255420E+04 -1.836442E+06 -1.139587E+04  5.236372E+03
       115  23 -4.803025E+06 -6.709071E+05 -2.165962E+04 -1.798284E+06 -2.391530E+04  4.987127E+03
       115  24 -4.774068E+06 -7.160047E+05 -4.273039E+04 -1.832509E+06 -3.623058E+04  4.176704E+03
       115  25 -5.135007E+06 -8.405254E+05 -1.103147E+05 -1.933005E+06 -9.814090E+03  5.826333E+03
       115  26 -5.256272E+06 -8.419396E+05 -1.438353E+05 -1.921292E+06 -2.253821E+04  5.501849E+03
       115  27 -5.318122E+06 -9.230017E+05 -1.894929E+05 -1.981962E+06 -3.505635E+04  4.616701E+03
       116   1 -4.069550E+06 -4.410492E+05  1.359871E+05 -1.652943E+06  4.668042E+04 -2.871539E+03
       116   2 -4.017852E+06 -3.652700E+05  1.158293E+05 -1.590724E+06  9.557185E+04  1.185305E+04
       116   3 -3.962809E+06 -4.513782E+05  2.980196E+04 -1.557889E+06  1.434506E+05  2.930645E+04
       116   4 -4.781739E+06 -6.997243E+05 -5.421403E+04 -1.835939E+06  4.493996E+04 -3.523379E+03
       116   5 -4.789442E+06 -6.612493E+05 -9.292552E+04 -1.805319E+06  9.480717E+04  1.156337E+04
       116   6 -4.794056E+06 -7.849537E+05 -1.983509E+05 -1.804079E+06  1.436560E+05  2.937576E+04
       116   7 -5.493438E+06 -9.583792E+05 -2.444594E+05 -2.018749E+06  4.320169E+04 -4.174472E+03
       116   8 -5.560453E+06 -9.571882E+05 -3.017336E+05 -2.019669E+06  9.404347E+04  1.127407E+04
       116   9 -5.624629E+06 -1.118463E+06 -4.265668E+05 -2.049959E+06  1.438610E+05  2.944489E+04
       116  10 -4.069552E+06 -4.410498E+05  1.359830E+05 -1.652943E+06  6.710740E-10  2.253823E-09
       116  11 -4.017862E+06 -3.652726E+05  1.158118E+05 -1.590725E+06  1.657558E-09 -3.292021E-10
       116  12 -3.962831E+06 -4.513847E+05  2.976139E+04 -1.557892E+06  1.356946E-10  1.045968E-09
       116  13 -4.781741E+06 -6.997248E+05 -5.421787E+04 -1.835939E+06 -1.376179E-09  5.487710E-10
       116  14 -4.789451E+06 -6.612519E+05 -9.294280E+04 -1.805320E+06 -2.702382E-09  1.831634E-10
       116  15 -4.794078E+06 -7.849603E+05 -1.983916E+05 -1.804082E+06 -1.653311E-09  1.169370E-09
       116  16 -5.493440E+06 -9.583797E+05 -2.444630E+05 -2.018748E+06 -1.276872E-09  1.033686E-09
       116  17 -5.560463E+06 -9.571907E+05 -3.017506E+05 -2.019670E+06 -5.598908E-09 -2.338201E-09
       116  18 -5.624651E+06 -1.118470E+06 -4.266077E+05 -2.049963E+06  1.420417E-09  8.517816E-11
       116  19 -4.069550E+06 -4.410492E+05  1.359871E+05 -1.652943E+06 -4.668042E+04  2.871539E+03
       116  20 -4.017852E+06 -3.652700E+05  1.158293E+05 -1.590724E+06 -9.557185E+04 -1.185305E+04
       116  21 -3.962809E+06 -4.513782E+05  2.980196E+04 -1.557889E+06 -1.434506E+05 -2.930645E+04
       116  22 -4.781739E+06 -6.997243E+05 -5.421403E+04 -1.835939E+06 -4.493996E+04  3.523379E+03
       116  23 -4.789442E+06 -6.612493E+05 -9.292552E+04 -1.805319E+06 -9.480717E+04 -1.156337E+04
       116  24 -4.794056E+06 -7.849537E+05 -1.983509E+05 -1.804079E+06 -1.436560E+05 -2.937576E+04
       116  25 -5.493438E+06 -9.583792E+05 -2.444594E+05 -2.018749E+06 -4.320169E+04  4.174472E+03
       116  26 -5.560453E+06 -9.571882E+05 -3.017336E+05 -2.019669E+06 -9.404347E+04 -1.127407E+04
       116  27 -5.624629E+06 -1.118463E+06 -4.265668E+05 -2.049959E+06 -1.438610E+05 -2.944489E+04
       117   1 -3.821500E+06 -3.701306E+05  1.430274E+04 -1.661089E+06  1.856287E+05  4.015039E+04
       117   2 -3.753189E+06 -1.463547E+05 -1.276404E+05 -1.521164E+06  3.948823E+05  1.164114E+05
       117   3 -4.021900E+06 -8.477709E+05 -6.711217E+05 -1.177505E+06  5.958809E+05  2.146193E+05
       117   4 -4.829927E+06 -6.751637E+05 -2.425098E+05 -1.857630E+06  1.804258E+05  3.821746E+04
       117   5 -4.710295E+06 -5.550938E+05 -3.942628E+05 -1.830062E+06  3.976705E+05  1.174229E+05
       117   6 -4.929872E+06 -1.362746E+06 -9.544188E+05 -1.598597E+06  6.066690E+05  2.184934E+05
       117   7 -5.837365E+06 -9.802131E+05 -4.994002E+05 -2.053921E+06  1.752320E+05  3.628639E+04
       117   8 -5.666503E+06 -9.637045E+05 -6.609709E+05 -2.138501E+06  4.004536E+05  1.184320E+05
       117   9 -5.836961E+06 -1.877306E+06 -1.237793E+06 -2.019024E+06  6.174392E+05  2.223529E+05
       117  10 -3.821538E+06 -3.701417E+05  1.423448E+04 -1.661095E+06 -3.088758E-09 -7.078291E-10
       117  11 -3.753361E+06 -1.464116E+05 -1.279612E+05 -1.521201E+06 -2.306880E-09 -2.630765E-10
       117  12 -4.022296E+06 -8.479168E+05 -6.718809E+05 -1.177609E+06 -1.172312E-09  6.902291E-11
       117  13 -4.829962E+06 -6.751741E+05 -2.425743E+05 -1.857635E+06 -2.763321E-09  1.735545E-09
       117  14 -4.710470E+06 -5.551517E+05 -3.945887E+05 -1.830100E+06 -3.388146E-09 -5.517597E-10
       117  15 -4.930283E+06 -1.362898E+06 -9.552071E+05 -1.598704E+06 -3.580688E-09 -1.471914E-10
       117  16 -5.837399E+06 -9.802229E+05 -4.994610E+05 -2.053926E+06  3.181460E-09  1.540863E-09
       117  17 -5.666680E+06 -9.637633E+05 -6.613021E+05 -2.138539E+06 -7.223728E-10  2.066707E-09
       117  18 -5.837387E+06 -1.877464E+06 -1.238611E+06 -2.019136E+06  3.219329E-10 -3.176183E-10
       117  19 -3.821500E+06 -3.701306E+05  1.430274E+04 -1.661089E+06 -1.856287E+05 -4.015039E+04
       117  20 -3.753189E+06 -1.463547E+05 -1.276404E+05 -1.521164E+06 -3.948823E+05 -1.164114E+05
       117  21 -4.021900E+06 -8.477709E+05 -6.711217E+05 -1.177505E+06 -5.958809E+05 -2.146193E+05
       117  22 -4.829927E+06 -6.751637E+05 -2.425098E+05 -1.857630E+06 -1.804258E+05 -3.821746E+04
       117  23 -4.710295E+06 -5.550938E+05 -3.942628E+05 -1.830062E+06 -3.976705E+05 -1.174229E+05
       117  24 -4.929872E+06 -1.362746E+06 -9.544188E+05 -1.598597E+06 -6.066690E+05 -2.184934E+05
       117  25 -5.837365E+06 -9.802131E+05 -4.994002E+05 -2.053921E+06 -1.752320E+05 -3.628639E+04
       117  26 -5.666503E+06 -9.637045E+05 -6.609709E+05 -2.138501E+06 -4.004536E+05 -1.184320E+05
       117  27 -5.836961E+06 -1.877306E+06 -1.237793E+06 -2.019024E+06 -6.174392E+05 -2.223529E+05
       118   1 -1.085812E+06  1.413679E+05  2.084812E+05  2.512413E+04  1.968255E+05  2.195236E+03
       118   2 -1.122108E+06 -1.294636E+05  4.479645E+04  7.930507E+03  1.298845E+05  5.291997E+03
       118   3 -1.070481E+06 -8.648257E+04  3.365029E+03 -2.296775E+04  6.294981E+04  4.430372E+03
       118   4 -7.574271E+05  2.232997E+05  2.903730E+05 -7.253991E+03  1.980283E+05  2.187537E+03
       118   5 -8.014980E+05 -4.940403E+04  1.243148E+05 -1.361462E+02  1.302006E+05  5.290647E+03
       118   6 -7.575366E+05 -8.229710E+03  8.108037E+04 -6.723612E+03  6.238017E+04  4.431023E+03
       118   7 -4.289423E+05  3.052275E+05  3.722572E+05 -3.964933E+04  1.992316E+05  2.179717E+03
       118   8 -4.807942E+05  3.064804E+04  2.038254E+05 -8.207020E+03  1.305168E+05  5.289290E+03
       118   9 -4.445023E+05  7.001677E+04  1.587885E+05  9.528698E+03  6.181024E+04  4.431643E+03
       118  10 -1.085853E+06  1.413575E+05  2.084082E+05  2.512379E+04 -6.291688E-10  6.818614E-10
       118  11 -1.122126E+06 -1.294681E+05  4.476464E+04  7.929954E+03 -3.521128E-09 -1.115577E-10
       118  12 -1.070486E+06 -8.648366E+04  3.357533E+03 -2.296797E+04 -6.807747E-10  2.774288E-10
       118  13 -7.574692E+05  2.232892E+05  2.902992E+05 -7.254340E+03 -1.010513E-09  2.826151E-10
       118  14 -8.015163E+05 -4.940862E+04  1.242828E+05 -1.367011E+02 -5.068506E-09 -2.340280E-09
       118  15 -7.575408E+05 -8.230777E+03  8.107301E+04 -6.723834E+03  5.778646E-10  1.738487E-10
       118  16 -4.289849E+05  3.052168E+05  3.721826E+05 -3.964968E+04  2.293704E-09 -6.117879E-12
       118  17 -4.808125E+05  3.064344E+04  2.037934E+05 -8.207576E+03  3.449549E-09 -2.531146E-10
       118  18 -4.445064E+05  7.001572E+04  1.587813E+05  9.528477E+03  2.431927E-10 -8.114106E-10
       118  19 -1.085812E+06  1.413679E+05  2.084812E+05  2.512413E+04 -1.968255E+05 -2.195236E+03
       118  20 -1.122108E+06 -1.294636E+05  4.479645E+04  7.930507E+03 -1.298845E+05 -5.291997E+03
       118  21 -1.070481E+06 -8.648257E+04  3.365029E+03 -2.296775E+04 -6.294981E+04 -4.430372E+03
       118  22 -7.574271E+05  2.232997E+05  2.903730E+05 -7.253991E+03 -1.980283E+05 -2.187537E+03
       118  23 -8.014980E+05 -4.940403E+04  1.243148E+05 -1.361462E+02 -1.302006E+05 -5.290647E+03
       118  24 -7.575366E+05 -8.229710E+03  8.108037E+04 -6.723612E+03 -6.238017E+04 -4.431023E+03
       118  25 -4.289423E+05  3.052275E+05  3.722572E+05 -3.964933E+04 -1.992316E+05 -2.179717E+03
       118  26 -4.807942E+05  3.064804E+04  2.038254E+05 -8.207020E+03 -1.305168E+05 -5.289290E+03
       118  27 -4.445023E+05  7.001677E+04  1.587885E+05  9.528698E+03 -6.181024E+04 -4.431643E+03
       119   1 -1.044825E+06 -3.531921E+04 -3.202994E+02 -3.522819E+03  4.896533E+04  3.612628E+03
       119   2 -1.041673E+06 -7.233299E+04 -3.250726E+04  1.985681E+03  3.226253E+04  3.758362E+03
       119   3 -1.024492E+06 -6.377078E+04 -4.231933E+04 -1.021836E+04  1.556019E+04  3.275355E+03
       119   4 -7.739465E+05  3.235544E+04  6.696438E+04 -7.807206E+03  4.908356E+04  3.612315E+03
       119   5 -7.809811E+05 -7.200089E+03  3.220657E+04  1.068359E+03  3.223857E+04  3.758185E+03
       119   6 -7.739668E+05 -1.165308E+03  1.991565E+04 -7.768142E+03  1.539432E+04  3.275251E+03
       119   7 -5.030014E+05  1.000246E+05  1.342436E+05 -1.209349E+04  4.920183E+04  3.612001E+03
       119   8 -5.202273E+05  5.792771E+04  9.691532E+04  1.506384E+02  3.221459E+04  3.758010E+03
       119   9 -5.233850E+05  6.143547E+04  8.214593E+04 -5.316944E+03  1.522837E+04  3.275146E+03
       119  10 -1.044827E+06 -3.531987E+04 -3.248370E+02 -3.522962E+03  1.894338E-11 -4.105824E-10
       119  11 -1.041674E+06 -7.233329E+04 -3.250925E+04  1.985584E+03 -4.455348E-09  1.018198E-09
       119  12 -1.024492E+06 -6.377085E+04 -4.231981E+04 -1.021840E+04 -8.055633E-10 -5.338503E-10
       119  13 -7.739491E+05  3.235477E+04  6.695983E+04 -7.807349E+03 -1.667242E-11 -1.350277E-10
       119  14 -7.809823E+05 -7.200384E+03  3.220459E+04  1.068262E+03  1.018429E-09  3.876573E-10
       119  15 -7.739671E+05 -1.165384E+03  1.991518E+04 -7.768183E+03 -3.352439E-10 -5.602534E-10
       119  16 -5.030040E+05  1.000240E+05  1.342390E+05 -1.209363E+04  1.605808E-09  5.876400E-10
       119  17 -5.202284E+05  5.792742E+04  9.691334E+04  1.505409E+02 -7.365083E-10 -4.083277E-10
       119  18 -5.233853E+05  6.143539E+04  8.214547E+04 -5.316984E+03 -3.245703E-10 -2.266589E-10
       119  19 -1.044825E+06 -3.531921E+04 -3.202994E+02 -3.522819E+03 -4.896533E+04 -3.612628E+03
       119  20 -1.041673E+06 -7.233299E+04 -3.250726E+04  1.985681E+03 -3.226253E+04 -3.758362E+03
       119  21 -1.024492E+06 -6.377078E+04 -4.231933E+04 -1.021836E+04 -1.556019E+04 -3.275355E+03
       119  22 -7.739465E+05  3.235544E+04  6.696438E+04 -7.807206E+03 -4.908356E+04 -3.612315E+03
       119  23 -7.809811E+05 -7.200089E+03  3.220657E+04  1.068359E+03 -3.223857E+04 -3.758185E+03
       119  24 -7.739668E+05 -1.165308E+03  1.991565E+04 -7.768142E+03 -1.539432E+04 -3.275251E+03
       119  25 -5.030014E+05  1.000246E+05  1.342436E+05 -1.209349E+04 -4.920183E+04 -3.612001E+03
       119  26 -5.202273E+05  5.792771E+04  9.691532E+04  1.506384E+02 -3.221459E+04 -3.758010E+03
       119  27 -5.233850E+05  6.143547E+04  8.214593E+04 -5.316944E+03 -1.522837E+04 -3.275146E+03
       120   1 -9.738175E+05 -4.464041E+04 -3.307405E+04 -8.003077E+03  1.222173E+04  2.944942E+03
       120   2 -9.628602E+05 -4.729841E+04 -3.775885E+04  2.145334E+03  8.066757E+03  2.605244E+03
       120   3 -9.495021E+05 -4.336978E+04 -3.804580E+04 -8.869147E+03  3.911371E+03  2.127466E+03
       120   4 -7.765433E+05  4.643292E+03  1.587886E+04 -8.547554E+03  1.216619E+04  2.944855E+03
       120   5 -7.777486E+05 -1.048652E+03  8.197685E+03  2.034327E+03  7.980245E+03  2.605190E+03
       120   6 -7.765488E+05 -1.497177E+02  4.934879E+03 -8.546275E+03  3.793963E+03  2.127457E+03
       120   7 -5.792337E+05  5.392407E+04  6.482885E+04 -9.092207E+03  1.211064E+04  2.944768E+03
       120   8 -5.926058E+05  4.519853E+04  5.415166E+04  1.923286E+03  7.893707E+03  2.605135E+03
       120   9 -6.035683E+05  4.306809E+04  4.791332E+04 -8.223311E+03  3.676521E+03  2.127448E+03
       120  10 -9.738177E+05 -4.464046E+04 -3.307434E+04 -8.003106E+03  3.210027E-10 -2.134891E-10
       120  11 -9.628602E+05 -4.729843E+04 -3.775899E+04  2.145317E+03 -2.743154E-09 -2.964895E-10
       120  12 -9.495021E+05 -4.336978E+04 -3.804584E+04 -8.869154E+03 -1.385074E-09  3.291813E-11
       120  13 -7.765435E+05  4.643243E+03  1.587856E+04 -8.547583E+03  8.542844E-12 -4.262099E-10
       120  14 -7.777487E+05 -1.048676E+03  8.197553E+03  2.034310E+03 -1.221151E-09  7.962621E-11
       120  15 -7.765488E+05 -1.497264E+02  4.934844E+03 -8.546282E+03  3.946757E-09  6.867602E-11
       120  16 -5.792339E+05  5.392402E+04  6.482856E+04 -9.092236E+03 -4.329347E-10 -3.468365E-10
       120  17 -5.926059E+05  4.519851E+04  5.415153E+04  1.923269E+03  5.306358E-10  9.937571E-11
       120  18 -6.035683E+05  4.306808E+04  4.791328E+04 -8.223318E+03  2.005867E-09  2.598840E-10
       120  19 -9.738175E+05 -4.464041E+04 -3.307405E+04 -8.003077E+03 -1.222173E+04 -2.944942E+03
       120  20 -9.628602E+05 -4.729841E+04 -3.775885E+04  2.145334E+03 -8.066757E+03 -2.605244E+03
       120  21 -9.495021E+05 -4.336978E+04 -3.804580E+04 -8.869147E+03 -3.911371E+03 -2.127466E+03
       120  22 -7.765433E+05  4.643292E+03  1.587886E+04 -8.547554E+03 -1.216619E+04 -2.944855E+03
       120  23 -7.777486E+05 -1.048652E+03  8.197685E+03  2.034327E+03 -7.980245E+03 -2.605190E+03
       120  24 -7.765488E+05 -1.497177E+02  4.934879E+03 -8.546275E+03 -3.793963E+03 -2.127457E+03
       120  25 -5.792337E+05  5.392407E+04  6.482885E+04 -9.092207E+03 -1.211064E+04 -2.944768E+03
       120  26 -5.926058E+05  4.519853E+04  5.415166E+04  1.923286E+03 -7.893707E+03 -2.605135E+03
       120  27 -6.035683E+05  4.306809E+04  4.791332E+04 -8.223311E+03 -3.676521E+03 -2.127448E+03
       121   1 -8.888422E+05 -2.728103E+04 -2.387634E+04 -8.941952E+03  3.092651E+03  1.837118E+03
       121   2 -8.756112E+05 -2.474309E+04 -2.232528E+04  2.690458E+03  2.040772E+03  1.379473E+03
       121   3 -8.619696E+05 -2.123903E+04 -1.984080E+04 -9.052068E+03  9.886684E+02  8.793378E+02
       121   4 -7.769855E+05  6.575048E+02  3.855308E+03 -9.038016E+03  2.998765E+03  1.837128E+03
       121   5 -7.771925E+05 -1.545172E+02  2.107953E+03  2.649220E+03  1.937545E+03  1.379507E+03
       121   6 -7.769874E+05  1.123741E+00  1.300396E+03 -9.038246E+03  8.761228E+02  8.793997E+02
       121   7 -6.651174E+05  2.859510E+04  3.158602E+04 -9.134097E+03  2.904861E+03  1.837139E+03
       121   8 -6.787649E+05  2.443333E+04  2.654046E+04  2.607977E+03  1.834301E+03  1.379542E+03
       121   9 -6.919987E+05  2.124074E+04  2.244105E+04 -9.024422E+03  7.635618E+02  8.794617E+02
       121  10 -8.888422E+05 -2.728104E+04 -2.387636E+04 -8.941956E+03 -4.639142E-10  3.473182E-10
       121  11 -8.756112E+05 -2.474309E+04 -2.232529E+04  2.690456E+03  1.954608E-09  5.251067E-10
       121  12 -8.619696E+05 -2.123903E+04 -1.984080E+04 -9.052068E+03 -1.062646E-09  2.162652E-11
       121  13 -7.769855E+05  6.574988E+02  3.855284E+03 -9.038021E+03  2.811965E-10  3.783525E-10
       121  14 -7.771925E+05 -1.545203E+02  2.107942E+03  2.649218E+03  2.043483E-09 -2.922328E-10
       121  15 -7.769874E+05  1.122704E+00  1.300393E+03 -9.038247E+03 -1.992547E-09 -9.739377E-11
       121  16 -6.651175E+05  2.859510E+04  3.158600E+04 -9.134102E+03  1.319349E-09 -6.510102E-10
       121  17 -6.787649E+05  2.443333E+04  2.654045E+04  2.607975E+03 -2.481064E-09  4.674263E-11
       121  18 -6.919987E+05  2.124073E+04  2.244104E+04 -9.024423E+03 -3.013896E-10  1.734205E-10
       121  19 -8.888422E+05 -2.728103E+04 -2.387634E+04 -8.941952E+03 -3.092651E+03 -1.837118E+03
       121  20 -8.756112E+05 -2.474309E+04 -2.232528E+04  2.690458E+03 -2.040772E+03 -1.379473E+03
       121  21 -8.619696E+05 -2.123903E+04 -1.984080E+04 -9.052068E+03 -9.886684E+02 -8.793378E+02
       121  22 -7.769855E+05  6.575048E+02  3.855308E+03 -9.038016E+03 -2.998765E+03 -1.837128E+03
       121  23 -7.771925E+05 -1.545172E+02  2.107953E+03  2.649220E+03 -1.937545E+03 -1.379507E+03
       121  24 -7.769874E+05  1.123741E+00  1.300396E+03 -9.038246E+03 -8.761228E+02 -8.793997E+02
       121  25 -6.651174E+05  2.859510E+04  3.158602E+04 -9.134097E+03 -2.904861E+03 -1.837139E+03
       121  26 -6.787649E+05  2.443333E+04  2.654046E+04  2.607977E+03 -1.834301E+03 -1.379542E+03
       121  27 -6.919987E+05  2.124074E+04  2.244105E+04 -9.024422E+03 -7.635618E+02 -8.794617E+02
       122   1 -7.967844E+05 -4.820677E+03 -3.809898E+03 -9.199934E+03  7.720324E+02  5.793683E+02
       122   2 -7.829104E+05 -1.489064E+03 -7.384091E+02  2.876266E+03  4.180065E+02  8.013961E+01
       122   3 -7.689706E+05  2.079456E+03  2.614810E+03 -9.237007E+03  6.397047E+01 -4.134577E+02
       122   4 -7.770621E+05  9.793459E+01  1.043457E+03 -9.219191E+03  6.636535E+02  5.794387E+02
       122   5 -7.770950E+05 -3.620419E+01  7.054043E+02  2.875528E+03  3.108336E+02  8.021015E+01
       122   6 -7.770622E+05  6.641700E+01  6.483015E+02 -9.219212E+03 -4.198863E+01 -4.133863E+02
       122   7 -7.573394E+05  5.016518E+03  5.896783E+03 -9.238449E+03  5.552712E+02  5.795091E+02
       122   8 -7.712795E+05  1.416653E+03  2.149215E+03  2.874789E+03  2.036596E+02  8.028070E+01
       122   9 -7.851538E+05 -1.946627E+03 -1.318211E+03 -9.201417E+03 -1.479463E+02 -4.133150E+02
       122  10 -7.967844E+05 -4.820678E+03 -3.809899E+03 -9.199934E+03  1.280563E-10  2.271900E-11
       122  11 -7.829104E+05 -1.489064E+03 -7.384095E+02  2.876266E+03 -2.653132E-10 -1.696598E-10
       122  12 -7.689706E+05  2.079456E+03  2.614809E+03 -9.237007E+03  1.816306E-10 -4.517092E-10
       122  13 -7.770621E+05  9.793411E+01  1.043456E+03 -9.219191E+03  1.324295E-09  8.797241E-10
       122  14 -7.770950E+05 -3.620422E+01  7.054041E+02  2.875528E+03  3.554481E-09  5.154291E-10
       122  15 -7.770622E+05  6.641682E+01  6.483012E+02 -9.219212E+03 -2.165525E-09 -1.178788E-09
       122  16 -7.573394E+05  5.016517E+03  5.896782E+03 -9.238450E+03  1.462885E-09  3.547992E-10
       122  17 -7.712795E+05  1.416653E+03  2.149215E+03  2.874789E+03 -6.752748E-10 -5.197323E-12
       122  18 -7.851538E+05 -1.946627E+03 -1.318212E+03 -9.201417E+03  3.301411E-11 -2.726658E-11
       122  19 -7.967844E+05 -4.820677E+03 -3.809898E+03 -9.199934E+03 -7.720324E+02 -5.793683E+02
       122  20 -7.829104E+05 -1.489064E+03 -7.384091E+02  2.876266E+03 -4.180065E+02 -8.013961E+01
       122  21 -7.689706E+05  2.079456E+03  2.614810E+03 -9.237007E+03 -6.397047E+01  4.134577E+02
       122  22 -7.770621E+05  9.793459E+01  1.043457E+03 -9.219191E+03 -6.636535E+02 -5.794387E+02
       122  23 -7.770950E+05 -3.620419E+01  7.054043E+02  2.875528E+03 -3.108336E+02 -8.021015E+01
       122  24 -7.770622E+05  6.641700E+01  6.483015E+02 -9.219212E+03  4.198863E+01  4.133863E+02
       122  25 -7.573394E+05  5.016518E+03  5.896783E+03 -9.238449E+03 -5.552712E+02 -5.795091E+02
       122  26 -7.712795E+05  1.416653E+03  2.149215E+03  2.874789E+03 -2.036596E+02 -8.028070E+01
       122  27 -7.851538E+05 -1.946627E+03 -1.318211E+03 -9.201417E+03  1.479463E+02  4.133150E+02
       123   1 -7.034246E+05  1.840679E+04  1.899315E+04 -9.082491E+03 -4.262880E+01 -7.215919E+02
       123   2 -6.899978E+05  2.166889E+04  2.250488E+04  2.654180E+03 -5.079811E+02 -1.229806E+03
       123   3 -6.763348E+05  2.556702E+04  2.648193E+04 -9.160853E+03 -9.731448E+02 -1.644374E+03
       123   4 -7.770270E+05  1.147557E+01  6.790074E+02 -9.077598E+03 -1.624635E+02 -7.215203E+02
       123   5 -7.771425E+05 -1.003511E+02  8.740558E+02  2.698438E+03 -6.075526E+02 -1.229766E+03
       123   6 -7.770256E+05  4.203405E+02  1.520356E+03 -9.077435E+03 -1.052443E+03 -1.644359E+03
       123   7 -8.506245E+05 -1.838425E+04 -1.763554E+04 -9.072704E+03 -2.822840E+02 -7.214486E+02
       123   8 -8.642803E+05 -2.187016E+04 -2.075734E+04  2.742691E+03 -7.071101E+02 -1.229726E+03
       123   9 -8.777072E+05 -2.472710E+04 -2.344198E+04 -8.994030E+03 -1.131728E+03 -1.644345E+03
       123  10 -7.034246E+05  1.840679E+04  1.899315E+04 -9.082491E+03  6.346120E-10  5.525814E-10
       123  11 -6.899978E+05  2.166889E+04  2.250488E+04  2.654179E+03 -1.502756E-09  6.703610E-11
       123  12 -6.763348E+05  2.556702E+04  2.648193E+04 -9.160854E+03 -1.228052E-09 -1.736831E-10
       123  13 -7.770270E+05  1.147501E+01  6.790063E+02 -9.077598E+03 -1.366052E-09 -4.617327E-10
       123  14 -7.771425E+05 -1.003528E+02  8.740523E+02  2.698437E+03 -2.541253E-09 -4.938574E-10
       123  15 -7.770256E+05  4.203373E+02  1.520348E+03 -9.077437E+03  1.957900E-09 -1.013734E-11
       123  16 -8.506245E+05 -1.838425E+04 -1.763555E+04 -9.072705E+03  2.608958E-10  7.916317E-10
       123  17 -8.642803E+05 -2.187017E+04 -2.075734E+04  2.742690E+03 -9.113957E-11 -5.522421E-10
       123  18 -8.777072E+05 -2.472710E+04 -2.344199E+04 -8.994032E+03  5.787738E-10 -4.819113E-10
       123  19 -7.034246E+05  1.840679E+04  1.899315E+04 -9.082491E+03  4.262880E+01  7.215919E+02
       123  20 -6.899978E+05  2.166889E+04  2.250488E+04  2.654180E+03  5.079811E+02  1.229806E+03
       123  21 -6.763348E+05  2.556702E+04  2.648193E+04 -9.160853E+03  9.731448E+02  1.644374E+03
       123  22 -7.770270E+05  1.147557E+01  6.790074E+02 -9.077598E+03  1.624635E+02  7.215203E+02
       123  23 -7.771425E+05 -1.003511E+02  8.740558E+02  2.698438E+03  6.075526E+02  1.229766E+03
       123  24 -7.770256E+05  4.203405E+02  1.520356E+03 -9.077435E+03  1.052443E+03  1.644359E+03
       123  25 -8.506245E+05 -1.838425E+04 -1.763554E+04 -9.072704E+03  2.822840E+02  7.214486E+02
       123  26 -8.642803E+05 -2.187016E+04 -2.075734E+04  2.742691E+03  7.071101E+02  1.229726E+03
       123  27 -8.777072E+05 -2.472710E+04 -2.344198E+04 -8.994030E+03  1.131728E+03  1.644345E+03
       124   1 -6.142449E+05  4.051112E+04  4.225979E+04 -8.445147E+03 -1.192618E+03 -1.995647E+03
       124   2 -6.025965E+05  4.302009E+04  4.635808E+04  2.026080E+03 -2.853765E+03 -2.514700E+03
       124   3 -5.895008E+05  4.971383E+04  5.262189E+04 -9.004614E+03 -4.514719E+03 -2.517027E+03
       124   4 -7.767657E+05 -9.381607E+01  1.879320E+03 -8.621981E+03 -1.360260E+03 -1.995631E+03
       124   5 -7.774779E+05 -6.626423E+02  2.958340E+03  2.128898E+03 -2.909485E+03 -2.514743E+03
       124   6 -7.767621E+05  2.934490E+03  6.125516E+03 -8.622516E+03 -4.458485E+03 -2.517066E+03
       124   7 -9.392625E+05 -4.070074E+04 -3.850313E+04 -8.798768E+03 -1.527859E+03 -1.995615E+03
       124   8 -9.523315E+05 -4.434767E+04 -4.044369E+04  2.231688E+03 -2.965190E+03 -2.514787E+03
       124   9 -9.639915E+05 -4.384748E+04 -4.037348E+04 -8.240534E+03 -4.402267E+03 -2.517106E+03
       124  10 -6.142449E+05  4.051112E+04  4.225978E+04 -8.445149E+03  8.856297E-10 -4.991261E-10
       124  11 -6.025965E+05  4.302008E+04  4.635806E+04  2.026074E+03 -2.050886E-09  2.235096E-10
       124  12 -5.895008E+05  4.971382E+04  5.262184E+04 -9.004623E+03  9.184724E-10 -3.867101E-10
       124  13 -7.767657E+05 -9.382084E+01  1.879309E+03 -8.621984E+03  8.348275E-12 -1.550719E-10
       124  14 -7.774779E+05 -6.626513E+02  2.958312E+03  2.128892E+03 -1.223921E-09 -4.291173E-11
       124  15 -7.767621E+05  2.934478E+03  6.125467E+03 -8.622525E+03  1.993302E-09 -2.590575E-10
       124  16 -9.392625E+05 -4.070074E+04 -3.850314E+04 -8.798770E+03  1.537277E-09 -1.890533E-10
       124  17 -9.523315E+05 -4.434768E+04 -4.044372E+04  2.231682E+03 -2.047662E-09 -2.413225E-10
       124  18 -9.639915E+05 -4.384749E+04 -4.037353E+04 -8.240543E+03  1.042972E-10  1.436862E-11
       124  19 -6.142449E+05  4.051112E+04  4.225979E+04 -8.445147E+03  1.192618E+03  1.995647E+03
       124  20 -6.025965E+05  4.302009E+04  4.635808E+04  2.026080E+03  2.853765E+03  2.514700E+03
       124  21 -5.895008E+05  4.971383E+04  5.262189E+04 -9.004614E+03  4.514719E+03  2.517027E+03
       124  22 -7.767657E+05 -9.381607E+01  1.879320E+03 -8.621981E+03  1.360260E+03  1.995631E+03
       124  23 -7.774779E+05 -6.626423E+02  2.958340E+03  2.128898E+03  2.909485E+03  2.514743E+03
       124  24 -7.767621E+05  2.934490E+03  6.125516E+03 -8.622516E+03  4.458485E+03  2.517066E+03
       124  25 -9.392625E+05 -4.070074E+04 -3.850313E+04 -8.798768E+03  1.527859E+03  1.995615E+03
       124  26 -9.523315E+05 -4.434767E+04 -4.044369E+04  2.231688E+03  2.965190E+03  2.514787E+03
       124  27 -9.639915E+05 -4.384748E+04 -4.037348E+04 -8.240534E+03  4.402267E+03  2.517106E+03
       125   1 -5.335341E+05  5.962539E+04  6.742692E+04 -6.359042E+03 -5.160591E+03 -3.260948E+03
       125   2 -5.273052E+05  5.843605E+04  7.382310E+04  5.596341E+02 -1.206269E+04 -3.999432E+03
       125   3 -5.125621E+05  8.602012E+04  9.199379E+04 -1.068818E+04 -1.896784E+04 -1.405505E+03
       125   4 -7.752245E+05 -7.500787E+02  7.419415E+03 -7.874397E+03 -5.677540E+03 -3.261211E+03
       125   5 -7.794149E+05 -4.522845E+03  1.131250E+04  1.198073E+03 -1.185804E+04 -3.999399E+03
       125   6 -7.752134E+05  2.035862E+04  2.648196E+04 -7.896384E+03 -1.804147E+04 -1.404631E+03
       125   7 -1.016862E+06 -6.112993E+04 -5.259246E+04 -9.389167E+03 -6.194288E+03 -3.261471E+03
       125   8 -1.031467E+06 -6.748651E+04 -5.120284E+04  1.836242E+03 -1.165347E+04 -3.999366E+03
       125   9 -1.037802E+06 -4.530805E+04 -3.903506E+04 -5.105792E+03 -1.711549E+04 -1.403748E+03
       125  10 -5.335342E+05  5.962538E+04  6.742685E+04 -6.359055E+03 -5.959293E-10 -3.051831E-10
       125  11 -5.273054E+05  5.843600E+04  7.382279E+04  5.595952E+02  1.258226E-10  1.365560E-10
       125  12 -5.125625E+05  8.602002E+04  9.199311E+04 -1.068820E+04  4.464849E-11  8.823489E-10
       125  13 -7.752245E+05 -7.500988E+02  7.419335E+03 -7.874412E+03 -5.031849E-10 -7.995988E-10
       125  14 -7.794151E+05 -4.522900E+03  1.131220E+04  1.198035E+03 -3.288916E-09  4.578046E-10
       125  15 -7.752138E+05  2.035853E+04  2.648134E+04 -7.896405E+03  3.110255E-09 -2.339347E-10
       125  16 -1.016862E+06 -6.112995E+04 -5.259255E+04 -9.389183E+03 -3.763560E-10  4.739865E-11
       125  17 -1.031467E+06 -6.748656E+04 -5.120313E+04  1.836204E+03 -7.014227E-10  1.553822E-10
       125  18 -1.037802E+06 -4.530813E+04 -3.903562E+04 -5.105811E+03 -9.763526E-10  8.568219E-10
       125  19 -5.335341E+05  5.962539E+04  6.742692E+04 -6.359042E+03  5.160591E+03  3.260948E+03
       125  20 -5.273052E+05  5.843605E+04  7.382310E+04  5.596341E+02  1.206269E+04  3.999432E+03
       125  21 -5.125621E+05  8.602012E+04  9.199379E+04 -1.068818E+04  1.896784E+04  1.405505E+03
       125  22 -7.752245E+05 -7.500787E+02  7.419415E+03 -7.874397E+03  5.677540E+03  3.261211E+03
       125  23 -7.794149E+05 -4.522845E+03  1.131250E+04  1.198073E+03  1.185804E+04  3.999399E+03
       125  24 -7.752134E+05  2.035862E+04  2.648196E+04 -7.896384E+03  1.804147E+04  1.404631E+03
       125  25 -1.016862E+06 -6.112993E+04 -5.259246E+04 -9.389167E+03  6.194288E+03  3.261471E+03
       125  26 -1.031467E+06 -6.748651E+04 -5.120284E+04  1.836242E+03  1.165347E+04  3.999366E+03
       125  27 -1.037802E+06 -4.530805E+04 -3.903506E+04 -5.105792E+03  1.711549E+04  1.403748E+03
       126   1  2.497709E+05 -1.248711E+06  2.367883E+05 -9.876586E+04  9.297315E+03 -8.925767E+03
       126   2  2.321452E+05 -1.455833E+06  1.964360E+05 -7.478058E+03  2.542127E+04 -5.841142E+03
       126   3  1.726510E+05 -1.674036E+06  1.435874E+05 -1.116390E+05  1.716719E+04 -2.841349E+03
       126   4 -3.073213E+04 -2.370705E+06 -4.178937E+04 -1.051140E+05  9.332129E+03 -2.043865E+04
       126   5  5.930908E+03 -2.364235E+06 -2.439109E+04 -7.336546E+03  2.542935E+04 -7.440459E+03
       126   6 -1.031341E+03 -2.370634E+06 -2.640436E+04 -1.050278E+05  1.713287E+04  5.474082E+03
       126   7 -3.113296E+05 -3.491551E+06 -3.204608E+05 -1.114498E+05  9.367213E+03 -3.193067E+04
       126   8 -2.203443E+05 -3.271882E+06 -2.452780E+05 -7.194577E+03  2.543744E+04 -9.037431E+03
       126   9 -1.747495E+05 -3.066786E+06 -1.964313E+05 -9.842346E+04  1.709870E+04  1.378018E+04
       126  10  2.497708E+05 -1.248711E+06  2.367880E+05 -9.876579E+04  1.375040E-09 -1.077137E-09
       126  11  2.321445E+05 -1.455833E+06  1.964347E+05 -7.477939E+03  1.256004E-09 -5.490632E-09
       126  12  1.726507E+05 -1.674036E+06  1.435868E+05 -1.116390E+05 -5.135266E-10 -7.664671E-10
       126  13 -3.073233E+04 -2.370705E+06 -4.179032E+04 -1.051139E+05  2.663032E-09  1.206301E-09
       126  14  5.930199E+03 -2.364236E+06 -2.439241E+04 -7.336394E+03  4.354917E-09  1.825298E-09
       126  15 -1.031664E+03 -2.370634E+06 -2.640497E+04 -1.050279E+05 -2.115318E-09  1.455131E-09
       126  16 -3.113300E+05 -3.491552E+06 -3.204629E+05 -1.114496E+05  3.422711E-09  8.231742E-10
       126  17 -2.203450E+05 -3.271882E+06 -2.452793E+05 -7.194392E+03  2.072338E-09 -2.348865E-09
       126  18 -1.747499E+05 -3.066787E+06 -1.964322E+05 -9.842365E+04 -4.207268E-10  3.284533E-11
       126  19  2.497709E+05 -1.248711E+06  2.367883E+05 -9.876586E+04 -9.297315E+03  8.925767E+03
       126  20  2.321452E+05 -1.455833E+06  1.964360E+05 -7.478058E+03 -2.542127E+04  5.841142E+03
       126  21  1.726510E+05 -1.674036E+06  1.435874E+05 -1.116390E+05 -1.716719E+04  2.841349E+03
       126  22 -3.073213E+04 -2.370705E+06 -4.178937E+04 -1.051140E+05 -9.332129E+03  2.043865E+04
       126  23  5.930908E+03 -2.364235E+06 -2.439109E+04 -7.336546E+03 -2.542935E+04  7.440459E+03
       126  24 -1.031341E+03 -2.370634E+06 -2.640436E+04 -1.050278E+05 -1.713287E+04 -5.474082E+03
       126  25 -3.113296E+05 -3.491551E+06 -3.204608E+05 -1.114498E+05 -9.367213E+03  3.193067E+04
       126  26 -2.203443E+05 -3.271882E+06 -2.452780E+05 -7.194577E+03 -2.543744E+04  9.037431E+03
       126  27 -1.747495E+05 -3.066786E+06 -1.964313E+05 -9.842346E+04 -1.709870E+04 -1.378018E+04
       127   1  7.705031E+04 -2.055449E+06  4.756561E+04 -1.030586E+05  8.465881E+03  7.961461E+03
       127   2  2.994194E+04 -2.267198E+06 -1.553337E+04 -7.266134E+03  2.395052E+03  2.792762E+04
       127   3 -5.860950E+04 -2.494094E+06 -1.024968E+05 -1.138351E+05 -4.029304E+03  4.788334E+04
       127   4 -1.544680E+03 -2.371042E+06 -2.925983E+04 -1.065529E+05  8.455485E+03  1.032250E+04
       127   5  5.930809E+03 -2.363456E+06 -3.899410E+04 -5.430410E+03  2.383918E+03  3.042914E+04
       127   6 -2.805956E+04 -2.371081E+06 -7.268620E+04 -1.066732E+05 -4.040962E+03  5.053233E+04
       127   7 -8.014696E+04 -2.686543E+06 -1.060925E+05 -1.100453E+05  8.445059E+03  1.268233E+04
       127   8 -1.808099E+04 -2.459705E+06 -6.245549E+04 -3.594963E+03  2.372798E+03  3.293027E+04
       127   9  2.489467E+03 -2.248054E+06 -4.287659E+04 -9.950990E+04 -4.052558E+03  5.318185E+04
       127  10  7.705021E+04 -2.055449E+06  4.756536E+04 -1.030586E+05 -1.044022E-09 -3.184359E-09
       127  11  2.994172E+04 -2.267199E+06 -1.553485E+04 -7.266188E+03  1.332165E-09 -9.050773E-09
       127  12 -5.861013E+04 -2.494097E+06 -1.025012E+05 -1.138349E+05  2.259448E-10 -1.146703E-09
       127  13 -1.544785E+03 -2.371042E+06 -2.926017E+04 -1.065530E+05  1.195652E-09  2.715553E-09
       127  14  5.930553E+03 -2.363457E+06 -3.899586E+04 -5.430469E+03  2.522299E-09  2.410308E-09
       127  15 -2.806027E+04 -2.371084E+06 -7.269105E+04 -1.066730E+05  2.084916E-09  1.665264E-09
       127  16 -8.014708E+04 -2.686544E+06 -1.060929E+05 -1.100454E+05 -1.454760E-09  2.885607E-09
       127  17 -1.808129E+04 -2.459706E+06 -6.245755E+04 -3.595026E+03  2.461487E-09 -5.721241E-10
       127  18  2.488687E+03 -2.248057E+06 -4.288195E+04 -9.950973E+04 -1.694359E-09  7.245023E-10
       127  19  7.705031E+04 -2.055449E+06  4.756561E+04 -1.030586E+05 -8.465881E+03 -7.961461E+03
       127  20  2.994194E+04 -2.267198E+06 -1.553337E+04 -7.266134E+03 -2.395052E+03 -2.792762E+04
       127  21 -5.860950E+04 -2.494094E+06 -1.024968E+05 -1.138351E+05  4.029304E+03 -4.788334E+04
       127  22 -1.544680E+03 -2.371042E+06 -2.925983E+04 -1.065529E+05 -8.455485E+03 -1.032250E+04
       127  23  5.930809E+03 -2.363456E+06 -3.899410E+04 -5.430410E+03 -2.383918E+03 -3.042914E+04
       127  24 -2.805956E+04 -2.371081E+06 -7.268620E+04 -1.066732E+05  4.040962E+03 -5.053233E+04
       127  25 -8.014696E+04 -2.686543E+06 -1.060925E+05 -1.100453E+05 -8.445059E+03 -1.268233E+04
       127  26 -1.808099E+04 -2.459705E+06 -6.245549E+04 -3.594963E+03 -2.372798E+03 -3.293027E+04
       127  27  2.489467E+03 -2.248054E+06 -4.287659E+04 -9.950990E+04  4.052558E+03 -5.318185E+04
       128   1 -1.145066E+05 -2.893519E+06 -2.112666E+05 -7.503997E+04 -1.229454E+04  5.678908E+04
       128   2 -1.370631E+05 -3.063355E+06 -3.112105E+05 -2.232566E+04 -2.083117E+04  1.388469E+05
       128   3 -4.771635E+05 -3.324397E+06 -5.443957E+05 -1.681944E+05 -8.394741E+03  2.209572E+05
       128   4  1.203110E+04 -2.387623E+06 -8.754572E+04 -1.054492E+05 -1.233091E+04  6.442146E+04
       128   5  4.233990E+04 -2.342962E+06 -1.359743E+05 -6.598827E+03 -2.082244E+04  1.380272E+05
       128   6 -2.432199E+05 -2.387949E+06 -3.116311E+05 -1.063369E+05 -8.339325E+03  2.117150E+05
       128   7  1.385532E+05 -1.881490E+06  3.615712E+04 -1.358831E+05 -1.236802E+04  7.206004E+04
       128   8  2.217056E+05 -1.622093E+06  3.922446E+04  9.146851E+03 -2.081375E+04  1.372066E+05
       128   9 -9.327370E+03 -1.450692E+06 -7.892970E+04 -4.438487E+04 -8.285815E+03  2.024587E+05
       128  10 -1.145077E+05 -2.893522E+06 -2.112730E+05 -7.503940E+04 -6.047513E-10 -3.384586E-09
       128  11 -1.370687E+05 -3.063375E+06 -3.112477E+05 -2.232333E+04  1.611726E-09 -6.999483E-09
       128  12 -4.771768E+05 -3.324450E+06 -5.444880E+05 -1.681929E+05  6.041021E-10  1.120606E-10
       128  13  1.202982E+04 -2.387627E+06 -8.755383E+04 -1.054486E+05 -3.254636E-09  1.942046E-09
       128  14  4.233429E+04 -2.342983E+06 -1.360110E+05 -6.596510E+03 -1.036895E-11  1.918897E-09
       128  15 -2.432321E+05 -2.387997E+06 -3.117158E+05 -1.063355E+05  1.477026E-09  1.179999E-09
       128  16  1.385516E+05 -1.881496E+06  3.614705E+04 -1.358824E+05 -2.018998E-10  2.816108E-09
       128  17  2.217000E+05 -1.622113E+06  3.918817E+04  9.149152E+03 -1.596499E-10 -1.756623E-09
       128  18 -9.338480E+03 -1.450736E+06 -7.900704E+04 -4.438352E+04  3.971855E-10 -6.057424E-10
       128  19 -1.145066E+05 -2.893519E+06 -2.112666E+05 -7.503997E+04  1.229454E+04 -5.678908E+04
       128  20 -1.370631E+05 -3.063355E+06 -3.112105E+05 -2.232566E+04  2.083117E+04 -1.388469E+05
       128  21 -4.771635E+05 -3.324397E+06 -5.443957E+05 -1.681944E+05  8.394741E+03 -2.209572E+05
       128  22  1.203110E+04 -2.387623E+06 -8.754572E+04 -1.054492E+05  1.233091E+04 -6.442146E+04
       128  23  4.233990E+04 -2.342962E+06 -1.359743E+05 -6.598827E+03  2.082244E+04 -1.380272E+05
       128  24 -2.432199E+05 -2.387949E+06 -3.116311E+05 -1.063369E+05  8.339325E+03 -2.117150E+05
       128  25  1.385532E+05 -1.881490E+06  3.615712E+04 -1.358831E+05  1.236802E+04 -7.206004E+04
       128  26  2.217056E+05 -1.622093E+06  3.922446E+04  9.146851E+03  2.081375E+04 -1.372066E+05
       128  27 -9.327370E+03 -1.450692E+06 -7.892970E+04 -4.438487E+04  8.285815E+03 -2.024587E+05
       129   1 -2.866758E+06 -5.747297E+05 -2.270215E+05 -1.026066E+06 -1.252277E+05 -4.665028E+04
       129   2 -2.830487E+06 -4.079954E+05 -1.129402E+05 -1.076980E+06 -8.104613E+04 -2.847324E+04
       129   3 -2.888299E+06 -4.234260E+05 -8.608602E+04 -1.060519E+06 -3.645673E+04 -1.137837E+04
       129   4 -2.772948E+06 -5.198964E+05 -1.972891E+05 -9.808444E+05 -1.248716E+05 -4.652060E+04
       129   5 -2.715943E+06 -3.595963E+05 -8.052687E+04 -1.040643E+06 -8.090237E+04 -2.841979E+04
       129   6 -2.752968E+06 -3.813988E+05 -5.081247E+04 -1.033069E+06 -3.652369E+04 -1.140300E+04
       129   7 -2.679128E+06 -4.650582E+05 -1.675576E+05 -9.356159E+05 -1.245154E+05 -4.639088E+04
       129   8 -2.601387E+06 -3.111957E+05 -4.811476E+04 -1.004298E+06 -8.075858E+04 -2.836634E+04
       129   9 -2.617620E+06 -3.393717E+05 -1.554034E+04 -1.005615E+06 -3.659066E+04 -1.142763E+04
       129  10 -2.866775E+06 -5.747363E+05 -2.270553E+05 -1.026070E+06 -7.591468E-10  4.121667E-10
       129  11 -2.830494E+06 -4.079980E+05 -1.129542E+05 -1.076982E+06  4.301460E-10  6.900678E-10
       129  12 -2.888301E+06 -4.234265E+05 -8.608878E+04 -1.060519E+06 -2.809730E-09  1.364818E-09
       129  13 -2.772965E+06 -5.199029E+05 -1.973227E+05 -9.808491E+05 -7.861724E-10  1.344921E-09
       129  14 -2.715951E+06 -3.595990E+05 -8.054075E+04 -1.040645E+06 -1.702420E-09  2.487129E-09
       129  15 -2.752970E+06 -3.813993E+05 -5.081524E+04 -1.033069E+06 -1.834672E-09  3.008856E-10
       129  16 -2.679146E+06 -4.650647E+05 -1.675909E+05 -9.356205E+05  2.652072E-10  1.231929E-10
       129  17 -2.601395E+06 -3.111983E+05 -4.812860E+04 -1.004300E+06 -6.624421E-10 -8.703066E-10
       129  18 -2.617621E+06 -3.393722E+05 -1.554311E+04 -1.005615E+06 -3.863248E-10  4.106072E-10
       129  19 -2.866758E+06 -5.747297E+05 -2.270215E+05 -1.026066E+06  1.252277E+05  4.665028E+04
       129  20 -2.830487E+06 -4.079954E+05 -1.129402E+05 -1.076980E+06  8.104613E+04  2.847324E+04
       129  21 -2.888299E+06 -4.234260E+05 -8.608602E+04 -1.060519E+06  3.645673E+04  1.137837E+04
       129  22 -2.772948E+06 -5.198964E+05 -1.972891E+05 -9.808444E+05  1.248716E+05  4.652060E+04
       129  23 -2.715943E+06 -3.595963E+05 -8.052687E+04 -1.040643E+06  8.090237E+04  2.841979E+04
       129  24 -2.752968E+06 -3.813988E+05 -5.081247E+04 -1.033069E+06  3.652369E+04  1.140300E+04
       129  25 -2.679128E+06 -4.650582E+05 -1.675576E+05 -9.356159E+05  1.245154E+05  4.639088E+04
       129  26 -2.601387E+06 -3.111957E+05 -4.811476E+04 -1.004298E+06  8.075858E+04  2.836634E+04
       129  27 -2.617620E+06 -3.393717E+05 -1.554034E+04 -1.005615E+06  3.659066E+04  1.142763E+04
       130   1 -2.913364E+06 -4.726636E+05 -8.870138E+04 -1.070813E+06 -2.902294E+04 -8.488907E+03
       130   2 -2.908987E+06 -4.517109E+05 -6.707344E+04 -1.081644E+06 -1.904822E+04 -4.217755E+03
       130   3 -2.923084E+06 -4.530419E+05 -6.085835E+04 -1.077631E+06 -8.917900E+03 -3.593182E+02
       130   4 -2.744809E+06 -4.060373E+05 -4.183967E+04 -1.022054E+06 -2.889750E+04 -8.441798E+03
       130   5 -2.734122E+06 -3.847821E+05 -1.894929E+04 -1.033285E+06 -1.900329E+04 -4.200905E+03
       130   6 -2.741890E+06 -3.857897E+05 -1.140453E+04 -1.029672E+06 -8.953380E+03 -3.727158E+02
       130   7 -2.576227E+06 -3.394086E+05  5.019376E+03 -9.732821E+05 -2.877203E+04 -8.394673E+03
       130   8 -2.559228E+06 -3.178514E+05  2.917202E+04 -9.849131E+05 -1.895834E+04 -4.184049E+03
       130   9 -2.560665E+06 -3.185360E+05  3.804625E+04 -9.817015E+05 -8.988871E+03 -3.861173E+02
       130  10 -2.913365E+06 -4.726639E+05 -8.870311E+04 -1.070813E+06 -2.549412E-09  1.440978E-09
       130  11 -2.908987E+06 -4.517110E+05 -6.707416E+04 -1.081644E+06  4.092052E-09 -6.613730E-10
       130  12 -2.923084E+06 -4.530420E+05 -6.085850E+04 -1.077631E+06 -2.294772E-10 -2.898602E-10
       130  13 -2.744810E+06 -4.060376E+05 -4.184138E+04 -1.022054E+06 -2.099092E-09 -1.029478E-09
       130  14 -2.734122E+06 -3.847822E+05 -1.895000E+04 -1.033285E+06  9.688420E-10 -1.496271E-09
       130  15 -2.741890E+06 -3.857897E+05 -1.140468E+04 -1.029672E+06  3.992959E-09  7.001871E-11
       130  16 -2.576228E+06 -3.394089E+05  5.017680E+03 -9.732823E+05 -1.804316E-09  9.464142E-10
       130  17 -2.559228E+06 -3.178515E+05  2.917131E+04 -9.849132E+05  2.888906E-10 -1.439157E-09
       130  18 -2.560665E+06 -3.185360E+05  3.804610E+04 -9.817015E+05 -8.248260E-10 -1.572838E-10
       130  19 -2.913364E+06 -4.726636E+05 -8.870138E+04 -1.070813E+06  2.902294E+04  8.488907E+03
       130  20 -2.908987E+06 -4.517109E+05 -6.707344E+04 -1.081644E+06  1.904822E+04  4.217755E+03
       130  21 -2.923084E+06 -4.530419E+05 -6.085835E+04 -1.077631E+06  8.917900E+03  3.593182E+02
       130  22 -2.744809E+06 -4.060373E+05 -4.183967E+04 -1.022054E+06  2.889750E+04  8.441798E+03
       130  23 -2.734122E+06 -3.847821E+05 -1.894929E+04 -1.033285E+06  1.900329E+04  4.200905E+03
       130  24 -2.741890E+06 -3.857897E+05 -1.140453E+04 -1.029672E+06  8.953380E+03  3.727158E+02
       130  25 -2.576227E+06 -3.394086E+05  5.019376E+03 -9.732821E+05  2.877203E+04  8.394673E+03
       130  26 -2.559228E+06 -3.178514E+05  2.917202E+04 -9.849131E+05  1.895834E+04  4.184049E+03
       130  27 -2.560665E+06 -3.185360E+05  3.804625E+04 -9.817015E+05  8.988871E+03  3.861173E+02
       131   1 -2.926112E+06 -4.624966E+05 -6.062485E+04 -1.081542E+06 -7.311764E+03  2.655270E+02
       131   2 -2.924644E+06 -4.564708E+05 -5.546904E+04 -1.080188E+06 -4.921120E+03  1.261035E+03
       131   3 -2.921988E+06 -4.575032E+05 -5.322084E+04 -1.080947E+06 -2.411840E+03  1.940968E+03
       131   4 -2.738777E+06 -3.911838E+05 -9.127113E+03 -1.030137E+06 -7.264480E+03  2.832516E+02
       131   5 -2.739167E+06 -3.861983E+05 -4.564793E+03 -1.029630E+06 -4.936700E+03  1.255111E+03
       131   6 -2.738357E+06 -3.882576E+05 -2.859403E+03 -1.031235E+06 -2.490312E+03  1.911434E+03
       131   7 -2.551408E+06 -3.198688E+05  4.236746E+04 -9.787179E+05 -7.217179E+03  3.009824E+02
       131   8 -2.553657E+06 -3.159238E+05  4.633634E+04 -9.790581E+05 -4.952286E+03  1.249186E+03
       131   9 -2.554693E+06 -3.190102E+05  4.749896E+04 -9.815104E+05 -2.568811E+03  1.881891E+03
       131  10 -2.926112E+06 -4.624966E+05 -6.062495E+04 -1.081542E+06  3.971678E-10  1.242571E-09
       131  11 -2.924644E+06 -4.564708E+05 -5.546909E+04 -1.080188E+06 -4.372761E-10  7.784422E-10
       131  12 -2.921988E+06 -4.575032E+05 -5.322086E+04 -1.080947E+06  2.920779E-09 -9.036279E-10
       131  13 -2.738777E+06 -3.911838E+05 -9.127213E+03 -1.030137E+06  5.003660E-10 -2.225472E-10
       131  14 -2.739167E+06 -3.861983E+05 -4.564842E+03 -1.029630E+06  3.260289E-09  3.144415E-10
       131  15 -2.738357E+06 -3.882576E+05 -2.859422E+03 -1.031235E+06  2.135848E-10  1.376306E-10
       131  16 -2.551408E+06 -3.198688E+05  4.236736E+04 -9.787179E+05  1.843821E-10  9.727329E-10
       131  17 -2.553657E+06 -3.159238E+05  4.633629E+04 -9.790581E+05  8.143706E-10 -6.272331E-10
       131  18 -2.554693E+06 -3.190102E+05  4.749894E+04 -9.815104E+05  1.453149E-09  4.362438E-10
       131  19 -2.926112E+06 -4.624966E+05 -6.062485E+04 -1.081542E+06  7.311764E+03 -2.655270E+02
       131  20 -2.924644E+06 -4.564708E+05 -5.546904E+04 -1.080188E+06  4.921120E+03 -1.261035E+03
       131  21 -2.921988E+06 -4.575032E+05 -5.322084E+04 -1.080947E+06  2.411840E+03 -1.940968E+03
       131  22 -2.738777E+06 -3.911838E+05 -9.127113E+03 -1.030137E+06  7.264480E+03 -2.832516E+02
       131  23 -2.739167E+06 -3.861983E+05 -4.564793E+03 -1.029630E+06  4.936700E+03 -1.255111E+03
       131  24 -2.738357E+06 -3.882576E+05 -2.859403E+03 -1.031235E+06  2.490312E+03 -1.911434E+03
       131  25 -2.551408E+06 -3.198688E+05  4.236746E+04 -9.787179E+05  7.217179E+03 -3.009824E+02
       131  26 -2.553657E+06 -3.159238E+05  4.633634E+04 -9.790581E+05  4.952286E+03 -1.249186E+03
       131  27 -2.554693E+06 -3.190102E+05  4.749896E+04 -9.815104E+05  2.568811E+03 -1.881891E+03
       132   1 -2.890742E+06 -4.490728E+05 -4.476954E+04 -1.075200E+06 -1.984593E+03  1.938651E+03
       132   2 -2.887884E+06 -4.395407E+05 -4.183779E+04 -1.066466E+06 -9.516989E+02  2.088056E+03
       132   3 -2.873907E+06 -4.423222E+05 -3.982754E+04 -1.070548E+06  1.696018E+02  2.001195E+03
       132   4 -2.736317E+06 -3.906236E+05 -2.411781E+03 -1.033162E+06 -2.003083E+03  1.931662E+03
       132   5 -2.741865E+06 -3.843517E+05 -1.789935E+03 -1.026800E+06 -1.017554E+03  2.063310E+03
       132   6 -2.736284E+06 -3.903834E+05 -2.051759E+03 -1.033253E+06  5.635606E+01  1.958714E+03
       132   7 -2.581869E+06 -3.321730E+05  3.994378E+04 -9.911149E+05 -2.021578E+03  1.924672E+03
       132   8 -2.595825E+06 -3.291615E+05  3.825592E+04 -9.871252E+05 -1.083426E+03  2.038558E+03
       132   9 -2.598643E+06 -3.384437E+05  3.572220E+04 -9.959507E+05 -5.691726E+01  1.916223E+03
       132  10 -2.890742E+06 -4.490728E+05 -4.476956E+04 -1.075200E+06  6.831408E-10 -1.923754E-10
       132  11 -2.887884E+06 -4.395407E+05 -4.183780E+04 -1.066466E+06 -1.089906E-09 -4.939893E-11
       132  12 -2.873907E+06 -4.423222E+05 -3.982754E+04 -1.070548E+06  5.334055E-10 -1.654957E-10
       132  13 -2.736317E+06 -3.906236E+05 -2.411795E+03 -1.033162E+06  1.561524E-10 -2.922639E-11
       132  14 -2.741865E+06 -3.843517E+05 -1.789945E+03 -1.026800E+06 -6.427463E-10  1.580505E-10
       132  15 -2.736284E+06 -3.903834E+05 -2.051766E+03 -1.033253E+06  2.523999E-09  2.256151E-10
       132  16 -2.581869E+06 -3.321730E+05  3.994377E+04 -9.911149E+05  2.536600E-09  8.739854E-10
       132  17 -2.595825E+06 -3.291615E+05  3.825591E+04 -9.871252E+05 -1.463148E-09 -1.007435E-09
       132  18 -2.598643E+06 -3.384437E+05  3.572220E+04 -9.959507E+05 -2.137241E-09  1.759564E-10
       132  19 -2.890742E+06 -4.490728E+05 -4.476954E+04 -1.075200E+06  1.984593E+03 -1.938651E+03
       132  20 -2.887884E+06 -4.395407E+05 -4.183779E+04 -1.066466E+06  9.516989E+02 -2.088056E+03
       132  21 -2.873907E+06 -4.423222E+05 -3.982754E+04 -1.070548E+06 -1.696018E+02 -2.001195E+03
       132  22 -2.736317E+06 -3.906236E+05 -2.411781E+03 -1.033162E+06  2.003083E+03 -1.931662E+03
       132  23 -2.741865E+06 -3.843517E+05 -1.789935E+03 -1.026800E+06  1.017554E+03 -2.063310E+03
       132  24 -2.736284E+06 -3.903834E+05 -2.051759E+03 -1.033253E+06 -5.635606E+01 -1.958714E+03
       132  25 -2.581869E+06 -3.321730E+05  3.994378E+04 -9.911149E+05  2.021578E+03 -1.924672E+03
       132  26 -2.595825E+06 -3.291615E+05  3.825592E+04 -9.871252E+05  1.083426E+03 -2.038558E+03
       132  27 -2.598643E+06 -3.384437E+05  3.572220E+04 -9.959507E+05  5.691726E+01 -1.916223E+03
       133   1 -2.814756E+06 -4.216205E+05 -2.418735E+04 -1.056469E+06  6.049484E+02  1.843499E+03
       133   2 -2.810350E+06 -4.079369E+05 -2.204341E+04 -1.043256E+06  2.644276E+03  2.112741E+03
       133   3 -2.790088E+06 -4.133330E+05 -2.188703E+04 -1.048911E+06  4.720902E+03  2.282001E+03
       133   4 -2.735168E+06 -3.914601E+05 -2.380099E+03 -1.034756E+06  5.276677E+02  1.814525E+03
       133   5 -2.743197E+06 -3.826087E+05 -3.636903E+03 -1.025066E+06  2.547051E+03  2.076310E+03
       133   6 -2.735366E+06 -3.928327E+05 -6.865208E+03 -1.034245E+06  4.603690E+03  2.238101E+03
       133   7 -2.655575E+06 -3.612993E+05  1.942663E+04 -1.013041E+06  4.503758E+02  1.785547E+03
       133   8 -2.676040E+06 -3.572802E+05  1.476923E+04 -1.006876E+06  2.449815E+03  2.039874E+03
       133   9 -2.680641E+06 -3.723321E+05  8.156363E+03 -1.019578E+06  4.486466E+03  2.194198E+03
       133  10 -2.814756E+06 -4.216205E+05 -2.418735E+04 -1.056469E+06 -1.291079E-09 -1.254500E-09
       133  11 -2.810350E+06 -4.079369E+05 -2.204343E+04 -1.043256E+06 -1.295157E-09 -8.096334E-10
       133  12 -2.790088E+06 -4.133330E+05 -2.188708E+04 -1.048911E+06  9.793955E-10 -6.507343E-10
       133  13 -2.735168E+06 -3.914601E+05 -2.380106E+03 -1.034756E+06 -1.985364E-09 -2.130720E-10
       133  14 -2.743197E+06 -3.826087E+05 -3.636924E+03 -1.025066E+06 -2.320416E-09 -1.696804E-09
       133  15 -2.735366E+06 -3.928327E+05 -6.865258E+03 -1.034245E+06  1.276737E-09 -7.917365E-11
       133  16 -2.655575E+06 -3.612993E+05  1.942662E+04 -1.013041E+06 -1.369375E-09 -3.704498E-10
       133  17 -2.676040E+06 -3.572802E+05  1.476921E+04 -1.006876E+06  2.475149E-09  5.223285E-10
       133  18 -2.680641E+06 -3.723321E+05  8.156316E+03 -1.019578E+06 -1.609861E-10 -1.085844E-10
       133  19 -2.814756E+06 -4.216205E+05 -2.418735E+04 -1.056469E+06 -6.049484E+02 -1.843499E+03
       133  20 -2.810350E+06 -4.079369E+05 -2.204341E+04 -1.043256E+06 -2.644276E+03 -2.112741E+03
       133  21 -2.790088E+06 -4.133330E+05 -2.188703E+04 -1.048911E+06 -4.720902E+03 -2.282001E+03
       133  22 -2.735168E+06 -3.914601E+05 -2.380099E+03 -1.034756E+06 -5.276677E+02 -1.814525E+03
       133  23 -2.743197E+06 -3.826087E+05 -3.636903E+03 -1.025066E+06 -2.547051E+03 -2.076310E+03
       133  24 -2.735366E+06 -3.928327E+05 -6.865208E+03 -1.034245E+06 -4.603690E+03 -2.238101E+03
       133  25 -2.655575E+06 -3.612993E+05  1.942663E+04 -1.013041E+06 -4.503758E+02 -1.785547E+03
       133  26 -2.676040E+06 -3.572802E+05  1.476923E+04 -1.006876E+06 -2.449815E+03 -2.039874E+03
       133  27 -2.680641E+06 -3.723321E+05  8.156363E+03 -1.019578E+06 -4.486466E+03 -2.194198E+03
       134   1 -2.718980E+06 -3.858150E+05 -4.236134E+03 -1.031628E+06  6.145313E+03  2.417850E+03
       134   2 -2.712876E+06 -3.690082E+05 -6.826892E+03 -1.016846E+06  1.406937E+04  4.768551E+03
       134   3 -2.695301E+06 -3.844497E+05 -1.909589E+04 -1.019064E+06  2.195945E+04  7.210947E+03
       134   4 -2.735733E+06 -3.914450E+05 -8.739937E+03 -1.035444E+06  6.026927E+03  2.373528E+03
       134   5 -2.742182E+06 -3.803376E+05 -1.491318E+04 -1.025069E+06  1.396907E+04  4.730975E+03
       134   6 -2.737165E+06 -4.014827E+05 -3.077955E+04 -1.031695E+06  2.187706E+04  7.180028E+03
       134   7 -2.752486E+06 -3.970750E+05 -1.324375E+04 -1.039260E+06  5.908544E+03  2.329206E+03
       134   8 -2.771487E+06 -3.916669E+05 -2.299954E+04 -1.033292E+06  1.386877E+04  4.693400E+03
       134   9 -2.779026E+06 -4.185155E+05 -4.246339E+04 -1.044324E+06  2.179468E+04  7.149112E+03
       134  10 -2.718980E+06 -3.858151E+05 -4.236217E+03 -1.031628E+06  3.633463E-09  7.808501E-10
       134  11 -2.712876E+06 -3.690083E+05 -6.827309E+03 -1.016846E+06  1.656657E-09 -4.579559E-10
       134  12 -2.695302E+06 -3.844499E+05 -1.909690E+04 -1.019065E+06 -3.061333E-09 -1.266428E-09
       134  13 -2.735733E+06 -3.914451E+05 -8.740016E+03 -1.035444E+06  1.047950E-09 -1.053809E-10
       134  14 -2.742182E+06 -3.803377E+05 -1.491359E+04 -1.025069E+06 -2.391951E-10 -1.391933E-09
       134  15 -2.737165E+06 -4.014828E+05 -3.078055E+04 -1.031695E+06 -7.543841E-10 -4.841728E-10
       134  16 -2.752486E+06 -3.970750E+05 -1.324383E+04 -1.039260E+06  6.793656E-10 -2.203352E-10
       134  17 -2.771487E+06 -3.916670E+05 -2.299994E+04 -1.033292E+06  2.304265E-09  1.324449E-09
       134  18 -2.779027E+06 -4.185156E+05 -4.246439E+04 -1.044324E+06  3.084103E-09  7.654218E-10
       134  19 -2.718980E+06 -3.858150E+05 -4.236134E+03 -1.031628E+06 -6.145313E+03 -2.417850E+03
       134  20 -2.712876E+06 -3.690082E+05 -6.826892E+03 -1.016846E+06 -1.406937E+04 -4.768551E+03
       134  21 -2.695301E+06 -3.844497E+05 -1.909589E+04 -1.019064E+06 -2.195945E+04 -7.210947E+03
       134  22 -2.735733E+06 -3.914450E+05 -8.739937E+03 -1.035444E+06 -6.026927E+03 -2.373528E+03
       134  23 -2.742182E+06 -3.803376E+05 -1.491318E+04 -1.025069E+06 -1.396907E+04 -4.730975E+03
       134  24 -2.737165E+06 -4.014827E+05 -3.077955E+04 -1.031695E+06 -2.187706E+04 -7.180028E+03
       134  25 -2.752486E+06 -3.970750E+05 -1.324375E+04 -1.039260E+06 -5.908544E+03 -2.329206E+03
       134  26 -2.771487E+06 -3.916669E+05 -2.299954E+04 -1.033292E+06 -1.386877E+04 -4.693400E+03
       134  27 -2.779026E+06 -4.185155E+05 -4.246339E+04 -1.044324E+06 -2.179468E+04 -7.149112E+03
       135   1 -2.630183E+06 -3.519503E+05 -8.946245E+03 -1.011816E+06  2.791364E+04  9.030722E+03
       135   2 -2.616116E+06 -3.214251E+05 -3.182461E+04 -9.946820E+05  6.218895E+04  2.128243E+04
       135   3 -2.629176E+06 -4.030744E+05 -1.069301E+05 -9.688102E+05  9.627297E+04  3.404548E+04
       135   4 -2.741516E+06 -3.893073E+05 -3.858551E+04 -1.037191E+06  2.775393E+04  8.971130E+03
       135   5 -2.732858E+06 -3.677221E+05 -6.426494E+04 -1.028641E+06  6.212589E+04  2.125849E+04
       135   6 -2.751354E+06 -4.583429E+05 -1.422563E+05 -1.011352E+06  9.630625E+04  3.405616E+04
       135   7 -2.852837E+06 -4.266641E+05 -6.822579E+04 -1.062562E+06  2.759425E+04  8.911546E+03
       135   8 -2.849587E+06 -4.140179E+05 -9.670654E+04 -1.062594E+06  6.206283E+04  2.123455E+04
       135   9 -2.873518E+06 -5.136085E+05 -1.775841E+05 -1.053885E+06  9.633953E+04  3.406684E+04
       135  10 -2.630183E+06 -3.519506E+05 -8.947871E+03 -1.011816E+06 -1.483616E-09 -6.944221E-10
       135  11 -2.616120E+06 -3.214267E+05 -3.183277E+04 -9.946830E+05  3.064918E-09 -5.685438E-10
       135  12 -2.629186E+06 -4.030782E+05 -1.069498E+05 -9.688129E+05 -1.726422E-09 -2.152619E-10
       135  13 -2.741517E+06 -3.893076E+05 -3.858711E+04 -1.037191E+06 -1.085463E-09  2.467834E-10
       135  14 -2.732862E+06 -3.677236E+05 -6.427308E+04 -1.028642E+06  8.848164E-10 -1.358931E-09
       135  15 -2.751365E+06 -4.583466E+05 -1.422761E+05 -1.011354E+06 -5.885451E-10 -1.489635E-10
       135  16 -2.852838E+06 -4.266643E+05 -6.822737E+04 -1.062562E+06  4.112134E-09  1.423148E-09
       135  17 -2.849591E+06 -4.140194E+05 -9.671466E+04 -1.062595E+06  2.153977E-10 -2.088773E-09
       135  18 -2.873529E+06 -5.136123E+05 -1.776038E+05 -1.053887E+06  1.521737E-09 -2.417474E-10
       135  19 -2.630183E+06 -3.519503E+05 -8.946245E+03 -1.011816E+06 -2.791364E+04 -9.030722E+03
       135  20 -2.616116E+06 -3.214251E+05 -3.182461E+04 -9.946820E+05 -6.218895E+04 -2.128243E+04
       135  21 -2.629176E+06 -4.030744E+05 -1.069301E+05 -9.688102E+05 -9.627297E+04 -3.404548E+04
       135  22 -2.741516E+06 -3.893073E+05 -3.858551E+04 -1.037191E+06 -2.775393E+04 -8.971130E+03
       135  23 -2.732858E+06 -3.677221E+05 -6.426494E+04 -1.028641E+06 -6.212589E+04 -2.125849E+04
       135  24 -2.751354E+06 -4.583429E+05 -1.422563E+05 -1.011352E+06 -9.630625E+04 -3.405616E+04
       135  25 -2.852837E+06 -4.266641E+05 -6.822579E+04 -1.062562E+06 -2.759425E+04 -8.911546E+03
       135  26 -2.849587E+06 -4.140179E+05 -9.670654E+04 -1.062594E+06 -6.206283E+04 -2.123455E+04
       135  27 -2.873518E+06 -5.136085E+05 -1.775841E+05 -1.053885E+06 -9.633953E+04 -3.406684E+04
       136   1 -2.581431E+06 -3.366549E+05 -1.258665E+05 -1.032958E+06  1.229096E+05  4.344393E+04
       136   2 -2.513025E+06 -1.985320E+05 -2.256312E+05 -9.863518E+05  2.739536E+05  9.961627E+04
       136   3 -2.709279E+06 -7.346371E+05 -6.209671E+05 -7.733071E+05  4.240506E+05  1.583257E+05
       136   4 -2.775075E+06 -3.783569E+05 -1.727295E+05 -1.053199E+06  1.225346E+05  4.331097E+04
       136   5 -2.676323E+06 -2.769857E+05 -2.736986E+05 -1.047926E+06  2.740487E+05  9.964268E+04
       136   6 -2.842405E+06 -8.500542E+05 -6.706754E+05 -8.761890E+05  4.246238E+05  1.584851E+05
       136   7 -2.968682E+06 -4.200599E+05 -2.195946E+05 -1.073436E+06  1.221597E+05  4.317802E+04
       136   8 -2.839595E+06 -3.554324E+05 -3.217685E+05 -1.109483E+06  2.741439E+05  9.966906E+04
       136   9 -2.975501E+06 -9.654355E+05 -7.203836E+05 -9.790430E+05  4.251968E+05  1.586443E+05
       136  10 -2.581447E+06 -3.366610E+05 -1.258986E+05 -1.032963E+06 -1.929386E-09  8.466994E-10
       136  11 -2.513109E+06 -1.985630E+05 -2.257916E+05 -9.863739E+05 -7.166105E-10  1.689246E-09
       136  12 -2.709480E+06 -7.347127E+05 -6.213540E+05 -7.733614E+05 -2.515474E-10  3.682945E-10
       136  13 -2.775092E+06 -3.783630E+05 -1.727614E+05 -1.053203E+06 -4.519576E-10  1.451463E-09
       136  14 -2.676407E+06 -2.770167E+05 -2.738592E+05 -1.047948E+06  3.365887E-09  1.716740E-09
       136  15 -2.842606E+06 -8.501300E+05 -6.710634E+05 -8.762434E+05 -1.350514E-10  9.523275E-10
       136  16 -2.968698E+06 -4.200659E+05 -2.196263E+05 -1.073441E+06  1.044105E-09  1.292564E-09
       136  17 -2.839678E+06 -3.554634E+05 -3.219293E+05 -1.109505E+06 -1.484007E-09  2.103766E-09
       136  18 -2.975703E+06 -9.655116E+05 -7.207727E+05 -9.790975E+05 -3.731303E-10  4.478317E-10
       136  19 -2.581431E+06 -3.366549E+05 -1.258665E+05 -1.032958E+06 -1.229096E+05 -4.344393E+04
       136  20 -2.513025E+06 -1.985320E+05 -2.256312E+05 -9.863518E+05 -2.739536E+05 -9.961627E+04
       136  21 -2.709279E+06 -7.346371E+05 -6.209671E+05 -7.733071E+05 -4.240506E+05 -1.583257E+05
       136  22 -2.775075E+06 -3.783569E+05 -1.727295E+05 -1.053199E+06 -1.225346E+05 -4.331097E+04
       136  23 -2.676323E+06 -2.769857E+05 -2.736986E+05 -1.047926E+06 -2.740487E+05 -9.964268E+04
       136  24 -2.842405E+06 -8.500542E+05 -6.706754E+05 -8.761890E+05 -4.246238E+05 -1.584851E+05
       136  25 -2.968682E+06 -4.200599E+05 -2.195946E+05 -1.073436E+06 -1.221597E+05 -4.317802E+04
       136  26 -2.839595E+06 -3.554324E+05 -3.217685E+05 -1.109483E+06 -2.741439E+05 -9.966906E+04
       136  27 -2.975501E+06 -9.654355E+05 -7.203836E+05 -9.790430E+05 -4.251968E+05 -1.586443E+05
       137   1 -6.966500E+05  1.608878E+04  3.455518E+04  4.163657E+03  5.368625E+04  1.010441E+03
       137   2 -7.026522E+05 -5.714444E+04 -9.209424E+03  2.789611E+03  3.557458E+04  2.786935E+03
       137   3 -6.845759E+05 -4.437337E+04 -1.962789E+04 -9.100454E+03  1.746463E+04  2.316040E+03
       137   4 -5.159735E+05  6.123557E+04  7.961517E+04 -4.726393E+03  5.432745E+04  1.010360E+03
       137   5 -5.280614E+05 -1.354886E+04  3.407936E+04  5.661435E+02  3.572591E+04  2.786885E+03
       137   6 -5.159925E+05 -2.256956E+03  2.222322E+04 -4.657100E+03  1.712626E+04  2.315909E+03
       137   7 -3.352672E+05  1.063802E+05  1.246727E+05 -1.361904E+04  5.496884E+04  1.010261E+03
       137   8 -3.534428E+05  3.004447E+04  7.736588E+04 -1.657957E+03  3.587727E+04  2.786834E+03
       137   9 -3.473833E+05  3.985740E+04  6.407222E+04 -2.125407E+02  1.678780E+04  2.315774E+03
       137  10 -6.966531E+05  1.608800E+04  3.454976E+04  4.163613E+03 -5.226786E-12 -1.260798E-09
       137  11 -7.026536E+05 -5.714479E+04 -9.211820E+03  2.789531E+03 -1.049473E-09 -2.581498E-10
       137  12 -6.845762E+05 -4.437346E+04 -1.962847E+04 -9.100487E+03  4.790215E-10 -1.075224E-09
       137  13 -5.159766E+05  6.123477E+04  7.960961E+04 -4.726437E+03 -2.006564E-10  7.462360E-10
       137  14 -5.280627E+05 -1.354921E+04  3.407695E+04  5.660633E+02  8.253442E-10 -2.159740E-10
       137  15 -5.159928E+05 -2.257040E+03  2.222266E+04 -4.657132E+03  1.565602E-09 -1.395070E-09
       137  16 -3.352704E+05  1.063794E+05  1.246671E+05 -1.361909E+04  1.648353E-09  8.740206E-10
       137  17 -3.534442E+05  3.004411E+04  7.736344E+04 -1.658037E+03 -1.343197E-09  2.271667E-10
       137  18 -3.473836E+05  3.985732E+04  6.407168E+04 -2.125720E+02  5.593711E-10  3.941508E-10
       137  19 -6.966500E+05  1.608878E+04  3.455518E+04  4.163657E+03 -5.368625E+04 -1.010441E+03
       137  20 -7.026522E+05 -5.714444E+04 -9.209424E+03  2.789611E+03 -3.557458E+04 -2.786935E+03
       137  21 -6.845759E+05 -4.437337E+04 -1.962789E+04 -9.100454E+03 -1.746463E+04 -2.316040E+03
       137  22 -5.159735E+05  6.123557E+04  7.961517E+04 -4.726393E+03 -5.432745E+04 -1.010360E+03
       137  23 -5.280614E+05 -1.354886E+04  3.407936E+04  5.661435E+02 -3.572591E+04 -2.786885E+03
       137  24 -5.159925E+05 -2.256956E+03  2.222322E+04 -4.657100E+03 -1.712626E+04 -2.315909E+03
       137  25 -3.352672E+05  1.063802E+05  1.246727E+05 -1.361904E+04 -5.496884E+04 -1.010261E+03
       137  26 -3.534428E+05  3.004447E+04  7.736588E+04 -1.657957E+03 -3.587727E+04 -2.786834E+03
       137  27 -3.473833E+05  3.985740E+04  6.407222E+04 -2.125407E+02 -1.678780E+04 -2.315774E+03
       138   1 -6.583045E+05 -2.554916E+04 -1.587005E+04 -3.833807E+03  1.343366E+04  1.835093E+03
       138   2 -6.532859E+05 -3.465806E+04 -2.367316E+04  1.271082E+03  8.903857E+03  1.878188E+03
       138   3 -6.444400E+05 -3.127991E+04 -2.537983E+04 -5.680524E+03  4.374049E+03  1.580456E+03
       138   4 -5.205001E+05  8.871588E+03  1.834613E+04 -5.024029E+03  1.348226E+04  1.835065E+03
       138   5 -5.224219E+05 -1.973454E+03  8.800518E+03  1.006365E+03  8.877987E+03  1.878150E+03
       138   6 -5.205042E+05 -3.199352E+02  5.402156E+03 -5.019566E+03  4.273759E+03  1.580427E+03
       138   7 -3.826786E+05  4.329092E+04  5.256088E+04 -6.214517E+03  1.353087E+04  1.835037E+03
       138   8 -3.915423E+05  3.070987E+04  4.127292E+04  7.415913E+02  8.852111E+03  1.878112E+03
       138   9 -3.965544E+05  3.063888E+04  3.618299E+04 -4.358477E+03  4.173450E+03  1.580397E+03
       138  10 -6.583047E+05 -2.554921E+04 -1.587039E+04 -3.833827E+03  7.490656E-10 -5.464192E-10
       138  11 -6.532860E+05 -3.465809E+04 -2.367332E+04  1.271068E+03  1.067396E-09 -2.100770E-10
       138  12 -6.444401E+05 -3.127991E+04 -2.537987E+04 -5.680530E+03 -4.649206E-10  2.518950E-10
       138  13 -5.205003E+05  8.871535E+03  1.834578E+04 -5.024049E+03 -1.274419E-09  2.623159E-10
       138  14 -5.224220E+05 -1.973479E+03  8.800364E+03  1.006352E+03 -1.383250E-09  2.088771E-10
       138  15 -5.205042E+05 -3.199428E+02  5.402117E+03 -5.019572E+03 -3.055249E-09  3.786759E-10
       138  16 -3.826788E+05  4.329086E+04  5.256053E+04 -6.214537E+03 -2.239711E-09 -3.314617E-10
       138  17 -3.915424E+05  3.070985E+04  4.127277E+04  7.415779E+02 -3.530560E-09 -3.579591E-11
       138  18 -3.965544E+05  3.063888E+04  3.618295E+04 -4.358482E+03 -2.418656E-09  8.435361E-10
       138  19 -6.583045E+05 -2.554916E+04 -1.587005E+04 -3.833807E+03 -1.343366E+04 -1.835093E+03
       138  20 -6.532859E+05 -3.465806E+04 -2.367316E+04  1.271082E+03 -8.903857E+03 -1.878188E+03
       138  21 -6.444400E+05 -3.127991E+04 -2.537983E+04 -5.680524E+03 -4.374049E+03 -1.580456E+03
       138  22 -5.205001E+05  8.871588E+03  1.834613E+04 -5.024029E+03 -1.348226E+04 -1.835065E+03
       138  23 -5.224219E+05 -1.973454E+03  8.800518E+03  1.006365E+03 -8.877987E+03 -1.878150E+03
       138  24 -5.205042E+05 -3.199352E+02  5.402156E+03 -5.019566E+03 -4.273759E+03 -1.580427E+03
       138  25 -3.826786E+05  4.329092E+04  5.256088E+04 -6.214517E+03 -1.353087E+04 -1.835037E+03
       138  26 -3.915423E+05  3.070987E+04  4.127292E+04  7.415913E+02 -8.852111E+03 -1.878112E+03
       138  27 -3.965544E+05  3.063888E+04  3.618299E+04 -4.358477E+03 -4.173450E+03 -1.580397E+03
       139   1 -6.106300E+05 -2.105499E+04 -1.789911E+04 -5.111152E+03  3.442540E+03  1.376141E+03
       139   2 -6.033701E+05 -2.072441E+04 -1.819951E+04  1.350393E+03  2.376113E+03  1.151248E+03
       139   3 -5.954858E+05 -1.860842E+04 -1.735092E+04 -5.354730E+03  1.309605E+03  8.640377E+02
       139   4 -5.212151E+05  1.274144E+03  4.275215E+03 -5.267635E+03  3.401061E+03  1.376125E+03
       139   5 -5.215290E+05 -2.836786E+02  2.111663E+03  1.315671E+03  2.321043E+03  1.151242E+03
       139   6 -5.212163E+05 -5.383630E+01  1.106466E+03 -5.267584E+03  1.240957E+03  8.640436E+02
       139   7 -4.317929E+05  2.360268E+04  2.644895E+04 -5.424141E+03  3.359576E+03  1.376109E+03
       139   8 -4.396819E+05  2.015655E+04  2.242234E+04  1.280944E+03  2.265966E+03  1.151235E+03
       139   9 -4.469418E+05  1.850034E+04  1.956343E+04 -5.180427E+03  1.172300E+03  8.640494E+02
       139  10 -6.106301E+05 -2.105500E+04 -1.789914E+04 -5.111156E+03 -6.381814E-10  1.382560E-10
       139  11 -6.033701E+05 -2.072441E+04 -1.819953E+04  1.350391E+03 -2.548227E-09 -1.861244E-10
       139  12 -5.954858E+05 -1.860843E+04 -1.735092E+04 -5.354731E+03  1.166808E-09  2.233417E-10
       139  13 -5.212151E+05  1.274139E+03  4.275189E+03 -5.267639E+03 -8.629103E-10  3.654171E-10
       139  14 -5.215290E+05 -2.836815E+02  2.111650E+03  1.315669E+03 -5.055912E-12 -3.982743E-10
       139  15 -5.212163E+05 -5.383751E+01  1.106461E+03 -5.267585E+03  3.492793E-10  3.885362E-10
       139  16 -4.317929E+05  2.360268E+04  2.644892E+04 -5.424145E+03 -1.767360E-09  5.613615E-10
       139  17 -4.396819E+05  2.015655E+04  2.242233E+04  1.280942E+03 -1.139014E-09 -2.426602E-10
       139  18 -4.469418E+05  1.850034E+04  1.956343E+04 -5.180428E+03  2.042445E-10 -1.004762E-10
       139  19 -6.106300E+05 -2.105499E+04 -1.789911E+04 -5.111152E+03 -3.442540E+03 -1.376141E+03
       139  20 -6.033701E+05 -2.072441E+04 -1.819951E+04  1.350393E+03 -2.376113E+03 -1.151248E+03
       139  21 -5.954858E+05 -1.860842E+04 -1.735092E+04 -5.354730E+03 -1.309605E+03 -8.640377E+02
       139  22 -5.212151E+05  1.274144E+03  4.275215E+03 -5.267635E+03 -3.401061E+03 -1.376125E+03
       139  23 -5.215290E+05 -2.836786E+02  2.111663E+03  1.315671E+03 -2.321043E+03 -1.151242E+03
       139  24 -5.212163E+05 -5.383630E+01  1.106466E+03 -5.267584E+03 -1.240957E+03 -8.640436E+02
       139  25 -4.317929E+05  2.360268E+04  2.644895E+04 -5.424141E+03 -3.359576E+03 -1.376109E+03
       139  26 -4.396819E+05  2.015655E+04  2.242234E+04  1.280944E+03 -2.265966E+03 -1.151235E+03
       139  27 -4.469418E+05  1.850034E+04  1.956343E+04 -5.180427E+03 -1.172300E+03 -8.640494E+02
       140   1 -5.587667E+05 -9.156597E+03 -8.528540E+03 -5.381926E+03  1.132930E+03  6.903944E+02
       140   2 -5.508745E+05 -7.389710E+03 -7.300555E+03  1.484361E+03  1.121342E+03  4.134127E+02
       140   3 -5.429539E+05 -5.501654E+03 -6.035445E+03 -5.401185E+03  1.109718E+03  1.243648E+02
       140   4 -5.213477E+05  1.843491E+02  7.347007E+02 -5.397597E+03  1.074484E+03  6.904047E+02
       140   5 -5.213623E+05 -1.889772E+01  2.371394E+01  1.478262E+03  1.060285E+03  4.134273E+02
       140   6 -5.213482E+05 -1.005526E+02 -6.483675E+02 -5.397669E+03  1.046051E+03  1.243840E+02
       140   7 -4.839275E+05  9.525191E+03  9.997837E+03 -5.413269E+03  1.016034E+03  6.904151E+02
       140   8 -4.918493E+05  7.351850E+03  7.347918E+03  1.472164E+03  9.992258E+02  4.134418E+02
       140   9 -4.997421E+05  5.300514E+03  4.738675E+03 -5.394153E+03  9.823820E+02  1.244032E+02
       140  10 -5.587667E+05 -9.156598E+03 -8.528543E+03 -5.381926E+03 -1.570688E-09  4.026560E-10
       140  11 -5.508745E+05 -7.389711E+03 -7.300558E+03  1.484360E+03 -1.488071E-09  3.766455E-10
       140  12 -5.429539E+05 -5.501655E+03 -6.035447E+03 -5.401185E+03 -8.966245E-10  7.386819E-10
       140  13 -5.213477E+05  1.843482E+02  7.346976E+02 -5.397598E+03  8.479214E-14  4.050166E-10
       140  14 -5.213623E+05 -1.889820E+01  2.371151E+01  1.478262E+03  3.341485E-09  4.522346E-10
       140  15 -5.213482E+05 -1.005529E+02 -6.483696E+02 -5.397669E+03 -1.672180E-09 -8.285289E-11
       140  16 -4.839275E+05  9.525190E+03  9.997834E+03 -5.413270E+03  3.102932E-09  3.180895E-10
       140  17 -4.918493E+05  7.351849E+03  7.347916E+03  1.472164E+03  1.950750E-09  4.987732E-10
       140  18 -4.997421E+05  5.300514E+03  4.738673E+03 -5.394153E+03  1.499667E-09  2.391388E-11
       140  19 -5.587667E+05 -9.156597E+03 -8.528540E+03 -5.381926E+03 -1.132930E+03 -6.903944E+02
       140  20 -5.508745E+05 -7.389710E+03 -7.300555E+03  1.484361E+03 -1.121342E+03 -4.134127E+02
       140  21 -5.429539E+05 -5.501654E+03 -6.035445E+03 -5.401185E+03 -1.109718E+03 -1.243648E+02
       140  22 -5.213477E+05  1.843491E+02  7.347007E+02 -5.397597E+03 -1.074484E+03 -6.904047E+02
       140  23 -5.213623E+05 -1.889772E+01  2.371394E+01  1.478262E+03 -1.060285E+03 -4.134273E+02
       140  24 -5.213482E+05 -1.005526E+02 -6.483675E+02 -5.397669E+03 -1.046051E+03 -1.243840E+02
       140  25 -4.839275E+05  9.525191E+03  9.997837E+03 -5.413269E+03 -1.016034E+03 -6.904151E+02
       140  26 -4.918493E+05  7.351850E+03  7.347918E+03  1.472164E+03 -9.992258E+02 -4.134418E+02
       140  27 -4.997421E+05  5.300514E+03  4.738675E+03 -5.394153E+03 -9.823820E+02 -1.244032E+02
       141   1 -5.053526E+05  4.072985E+03  3.000127E+03 -5.463701E+03  1.260009E+03 -4.811926E+01
       141   2 -4.972405E+05  6.147832E+03  3.932166E+03  1.488817E+03  2.277878E+03 -3.372829E+02
       141   3 -4.895048E+05  7.270219E+03  3.961820E+03 -5.338984E+03  3.295789E+03 -6.157881E+02
       141   4 -5.214382E+05  5.058972E+01 -1.016865E+03 -5.403914E+03  1.196475E+03 -4.809968E+01
       141   5 -5.212499E+05  1.515623E+02 -2.026237E+03  1.486170E+03  2.216608E+03 -3.372673E+02
       141   6 -5.214386E+05 -7.003408E+02 -3.939597E+03 -5.404098E+03  3.236769E+03 -6.157763E+02
       141   7 -5.375236E+05 -3.971825E+03 -5.033876E+03 -5.344128E+03  1.132943E+03 -4.808011E+01
       141   8 -5.452589E+05 -5.844751E+03 -7.984683E+03  1.483524E+03  2.155340E+03 -3.372517E+02
       141   9 -5.533714E+05 -8.670977E+03 -1.184109E+04 -5.469209E+03  3.177752E+03 -6.157645E+02
       141  10 -5.053526E+05  4.072985E+03  3.000124E+03 -5.463701E+03 -1.391957E-09  5.217510E-10
       141  11 -4.972405E+05  6.147831E+03  3.932156E+03  1.488818E+03 -3.292317E-09 -6.520555E-10
       141  12 -4.895048E+05  7.270216E+03  3.961799E+03 -5.338982E+03 -9.373974E-10 -9.742409E-11
       141  13 -5.214382E+05  5.058933E+01 -1.016867E+03 -5.403914E+03  6.917748E-10 -4.813545E-10
       141  14 -5.212499E+05  1.515608E+02 -2.026246E+03  1.486171E+03  1.786047E-09 -6.149842E-10
       141  15 -5.214386E+05 -7.003440E+02 -3.939617E+03 -5.404097E+03  4.555161E-10 -9.117658E-11
       141  16 -5.375236E+05 -3.971825E+03 -5.033878E+03 -5.344128E+03  7.294592E-10 -3.590972E-10
       141  17 -5.452589E+05 -5.844752E+03 -7.984692E+03  1.483524E+03  1.311616E-09  2.073453E-10
       141  18 -5.533714E+05 -8.670980E+03 -1.184111E+04 -5.469208E+03 -4.159419E-10  3.888120E-11
       141  19 -5.053526E+05  4.072985E+03  3.000127E+03 -5.463701E+03 -1.260009E+03  4.811926E+01
       141  20 -4.972405E+05  6.147832E+03  3.932166E+03  1.488817E+03 -2.277878E+03  3.372829E+02
       141  21 -4.895048E+05  7.270219E+03  3.961820E+03 -5.338984E+03 -3.295789E+03  6.157881E+02
       141  22 -5.214382E+05  5.058972E+01 -1.016865E+03 -5.403914E+03 -1.196475E+03  4.809968E+01
       141  23 -5.212499E+05  1.515623E+02 -2.026237E+03  1.486170E+03 -2.216608E+03  3.372673E+02
       141  24 -5.214386E+05 -7.003408E+02 -3.939597E+03 -5.404098E+03 -3.236769E+03  6.157763E+02
       141  25 -5.375236E+05 -3.971825E+03 -5.033876E+03 -5.344128E+03 -1.132943E+03  4.808011E+01
       141  26 -5.452589E+05 -5.844751E+03 -7.984683E+03  1.483524E+03 -2.155340E+03  3.372517E+02
       141  27 -5.533714E+05 -8.670977E+03 -1.184109E+04 -5.469209E+03 -3.177752E+03  6.157645E+02
       142   1 -4.529138E+05  1.739959E+04  1.204873E+04 -5.672116E+03  4.120344E+03 -7.900017E+02
       142   2 -4.441614E+05  2.021336E+04  1.042146E+04  1.459689E+03  8.485451E+03 -1.078090E+03
       142   3 -4.376742E+05  1.611134E+04  4.228543E+03 -4.661870E+03  1.285061E+04 -1.305005E+03
       142   4 -5.218597E+05  1.758602E+02 -5.086109E+03 -5.286838E+03  4.051397E+03 -7.899910E+02
       142   5 -5.207268E+05  1.092194E+03 -8.578600E+03  1.339906E+03  8.429229E+03 -1.078095E+03
       142   6 -5.218614E+05 -4.909930E+03 -1.664597E+04 -5.286817E+03  1.280706E+04 -1.305030E+03
       142   7 -5.908013E+05 -1.704823E+04 -2.222130E+04 -4.901603E+03  3.982457E+03 -7.899804E+02
       142   8 -5.972868E+05 -1.802941E+04 -2.757910E+04  1.220136E+03  8.373014E+03 -1.078100E+03
       142   9 -6.060422E+05 -2.593173E+04 -3.752102E+04 -5.911680E+03  1.276352E+04 -1.305055E+03
       142  10 -4.529138E+05  1.739959E+04  1.204869E+04 -5.672113E+03  4.667309E-10  6.450893E-12
       142  11 -4.441615E+05  2.021334E+04  1.042132E+04  1.459697E+03  4.562838E-10  4.545026E-12
       142  12 -4.376744E+05  1.611129E+04  4.228230E+03 -4.661857E+03  1.319789E-09 -5.051065E-10
       142  13 -5.218597E+05  1.758551E+02 -5.086141E+03 -5.286835E+03 -1.068321E-09  6.637332E-11
       142  14 -5.207268E+05  1.092173E+03 -8.578736E+03  1.339913E+03  1.269768E-09  2.972860E-11
       142  15 -5.218616E+05 -4.909975E+03 -1.664629E+04 -5.286804E+03  1.448643E-09 -4.794908E-10
       142  16 -5.908014E+05 -1.704823E+04 -2.222133E+04 -4.901600E+03  7.433428E-10  1.567177E-10
       142  17 -5.972868E+05 -1.802943E+04 -2.757923E+04  1.220144E+03 -2.094406E-09  3.135768E-11
       142  18 -6.060424E+05 -2.593178E+04 -3.752133E+04 -5.911666E+03 -1.321766E-09 -4.343442E-10
       142  19 -4.529138E+05  1.739959E+04  1.204873E+04 -5.672116E+03 -4.120344E+03  7.900017E+02
       142  20 -4.441614E+05  2.021336E+04  1.042146E+04  1.459689E+03 -8.485451E+03  1.078090E+03
       142  21 -4.376742E+05  1.611134E+04  4.228543E+03 -4.661870E+03 -1.285061E+04  1.305005E+03
       142  22 -5.218597E+05  1.758602E+02 -5.086109E+03 -5.286838E+03 -4.051397E+03  7.899910E+02
       142  23 -5.207268E+05  1.092194E+03 -8.578600E+03  1.339906E+03 -8.429229E+03  1.078095E+03
       142  24 -5.218614E+05 -4.909930E+03 -1.664597E+04 -5.286817E+03 -1.280706E+04  1.305030E+03
       142  25 -5.908013E+05 -1.704823E+04 -2.222130E+04 -4.901603E+03 -3.982457E+03  7.899804E+02
       142  26 -5.972868E+05 -1.802941E+04 -2.757910E+04  1.220136E+03 -8.373014E+03  1.078100E+03
       142  27 -6.060422E+05 -2.593173E+04 -3.752102E+04 -5.911680E+03 -1.276352E+04  1.305055E+03
       143   1 -4.054768E+05  3.095349E+04  8.688256E+03 -7.529986E+03  1.628861E+04 -1.508011E+03
       143   2 -3.913904E+05  3.901679E+04 -2.575135E+03  2.208475E+03  3.391567E+04 -1.797206E+03
       143   3 -3.914637E+05 -7.916758E+02 -3.726448E+04 -2.191204E+02  5.154303E+04 -1.745547E+03
       143   4 -5.245078E+05  1.223655E+03 -2.087251E+04 -5.049669E+03  1.618676E+04 -1.507974E+03
       143   5 -5.174252E+05  7.542517E+03 -3.384604E+04  1.041088E+03  3.388420E+04 -1.797300E+03
       143   6 -5.245178E+05 -3.402802E+04 -7.029790E+04 -5.034457E+03  5.158172E+04 -1.745950E+03
       143   7 -6.435259E+05 -2.850722E+04 -5.043433E+04 -2.569829E+03  1.608493E+04 -1.507938E+03
       143   8 -6.434455E+05 -2.393295E+04 -6.511813E+04 -1.260625E+02  3.385272E+04 -1.797395E+03
       143   9 -6.575557E+05 -6.726560E+04 -1.033326E+05 -9.848761E+03  5.162041E+04 -1.746354E+03
       143  10 -4.054771E+05  3.095342E+04  8.687753E+03 -7.529966E+03  2.051743E-09 -7.300101E-10
       143  11 -3.913916E+05  3.901648E+04 -2.577304E+03  2.208524E+03 -2.779718E-09 -5.787881E-10
       143  12 -3.914666E+05 -7.923928E+02 -3.726948E+04 -2.190479E+02 -2.263784E-09 -2.246445E-10
       143  13 -5.245081E+05  1.223582E+03 -2.087301E+04 -5.049650E+03 -8.347659E-12 -5.631432E-10
       143  14 -5.174264E+05  7.542205E+03 -3.384821E+04  1.041137E+03  5.364440E-09 -4.718525E-10
       143  15 -5.245206E+05 -3.402873E+04 -7.030291E+04 -5.034384E+03 -8.795133E-10 -1.658912E-10
       143  16 -6.435262E+05 -2.850729E+04 -5.043482E+04 -2.569810E+03  2.149011E-11 -4.136490E-10
       143  17 -6.434468E+05 -2.393326E+04 -6.512029E+04 -1.260134E+02 -3.376668E-09  3.937096E-10
       143  18 -6.575585E+05 -6.726632E+04 -1.033376E+05 -9.848689E+03  1.851418E-09  6.470893E-11
       143  19 -4.054768E+05  3.095349E+04  8.688256E+03 -7.529986E+03 -1.628861E+04  1.508011E+03
       143  20 -3.913904E+05  3.901679E+04 -2.575135E+03  2.208475E+03 -3.391567E+04  1.797206E+03
       143  21 -3.914637E+05 -7.916758E+02 -3.726448E+04 -2.191204E+02 -5.154303E+04  1.745547E+03
       143  22 -5.245078E+05  1.223655E+03 -2.087251E+04 -5.049669E+03 -1.618676E+04  1.507974E+03
       143  23 -5.174252E+05  7.542517E+03 -3.384604E+04  1.041088E+03 -3.388420E+04  1.797300E+03
       143  24 -5.245178E+05 -3.402802E+04 -7.029790E+04 -5.034457E+03 -5.158172E+04  1.745950E+03
       143  25 -6.435259E+05 -2.850722E+04 -5.043433E+04 -2.569829E+03 -1.608493E+04  1.507938E+03
       143  26 -6.434455E+05 -2.393295E+04 -6.511813E+04 -1.260625E+02 -3.385272E+04  1.797395E+03
       143  27 -6.575557E+05 -6.726560E+04 -1.033326E+05 -9.848761E+03 -5.162041E+04  1.746354E+03
       144   1 -3.772968E+05  4.965205E+04 -4.429576E+04 -2.136314E+04  6.587412E+04 -2.206199E+03
       144   2 -3.255596E+05  9.440117E+04 -8.828683E+04  9.636618E+03  1.366656E+05 -2.578613E+03
       144   3 -3.652025E+05 -1.902747E+05 -2.606780E+05  3.031710E+04  2.074573E+05 -6.989474E+02
       144   4 -5.416850E+05  8.621152E+03 -8.509475E+04 -4.711118E+03  6.552935E+04 -2.204659E+03
       144   5 -4.959653E+05  5.183878E+04 -1.305346E+05  5.721702E+02  1.367886E+05 -2.580533E+03
       144   6 -5.417335E+05 -2.345006E+05 -3.047253E+05 -4.462603E+03  2.080473E+05 -7.099254E+02
       144   7 -7.060480E+05 -3.241073E+04 -1.258956E+05  1.193649E+04  6.518467E+04 -2.203137E+03
       144   8 -6.663445E+05  9.274507E+03 -1.727846E+05 -8.489792E+03  1.369116E+05 -2.582457E+03
       144   9 -7.182336E+05 -2.787242E+05 -3.487743E+05 -3.923242E+04  2.086372E+05 -7.209724E+02
       144  10 -3.773015E+05  4.965088E+04 -4.430392E+04 -2.136303E+04  1.010453E-09 -1.160791E-09
       144  11 -3.255796E+05  9.439615E+04 -8.832196E+04  9.636902E+03  3.187696E-09 -3.649771E-09
       144  12 -3.652488E+05 -1.902863E+05 -2.607589E+05  3.031722E+04 -1.858886E-10 -1.482987E-09
       144  13 -5.416896E+05  8.619992E+03 -8.510284E+04 -4.711001E+03  3.781801E-09 -2.912599E-09
       144  14 -4.959854E+05  5.183374E+04 -1.305698E+05  5.724546E+02  1.586217E-09  6.651038E-10
       144  15 -5.417800E+05 -2.345122E+05 -3.048067E+05 -4.462484E+03 -9.822629E-10 -3.846618E-10
       144  16 -7.060526E+05 -3.241187E+04 -1.259036E+05  1.193660E+04  1.031571E-09 -6.315681E-10
       144  17 -6.663647E+05  9.269460E+03 -1.728198E+05 -8.489507E+03 -4.627393E-09  4.576103E-10
       144  18 -7.182804E+05 -2.787359E+05 -3.488562E+05 -3.923230E+04  1.224878E-09 -1.157730E-09
       144  19 -3.772968E+05  4.965205E+04 -4.429576E+04 -2.136314E+04 -6.587412E+04  2.206199E+03
       144  20 -3.255596E+05  9.440117E+04 -8.828683E+04  9.636618E+03 -1.366656E+05  2.578613E+03
       144  21 -3.652025E+05 -1.902747E+05 -2.606780E+05  3.031710E+04 -2.074573E+05  6.989474E+02
       144  22 -5.416850E+05  8.621152E+03 -8.509475E+04 -4.711118E+03 -6.552935E+04  2.204659E+03
       144  23 -4.959653E+05  5.183878E+04 -1.305346E+05  5.721702E+02 -1.367886E+05  2.580533E+03
       144  24 -5.417335E+05 -2.345006E+05 -3.047253E+05 -4.462603E+03 -2.080473E+05  7.099254E+02
       144  25 -7.060480E+05 -3.241073E+04 -1.258956E+05  1.193649E+04 -6.518467E+04  2.203137E+03
       144  26 -6.663445E+05  9.274507E+03 -1.727846E+05 -8.489792E+03 -1.369116E+05  2.582457E+03
       144  27 -7.182336E+05 -2.787242E+05 -3.487743E+05 -3.923242E+04 -2.086372E+05  7.209724E+02
       145   1  2.446259E+05  2.416156E+05  2.649681E+05 -7.409227E+04  3.574340E+03  6.945473E+04
       145   2  1.328089E+05  1.354417E+05  1.851208E+05  1.268793E+04  9.640908E+03  4.659814E+04
       145   3  1.217865E+05  5.866841E+04  1.455978E+05 -5.915854E+04  5.514597E+03  2.372054E+04
       145   4  7.290045E+04 -4.454942E+05  9.369332E+04 -6.270606E+04  3.579673E+03  6.700310E+04
       145   5 -1.583258E+04 -4.600489E+05  3.759532E+04  1.654719E+04  9.642249E+03  4.637010E+04
       145   6 -4.104115E+03 -4.455657E+05  2.030976E+04 -6.283455E+04  5.508207E+03  2.571267E+04
       145   7 -9.886011E+04 -1.132175E+06 -7.761691E+04 -5.133226E+04  3.584919E+03  6.455415E+04
       145   8 -1.645005E+05 -1.055217E+06 -1.099566E+05  2.040293E+04  9.643588E+03  4.614226E+04
       145   9 -1.300138E+05 -9.495690E+05 -1.049973E+05 -6.650737E+04  5.501791E+03  2.770317E+04
       145  10  2.446246E+05  2.416104E+05  2.649590E+05 -7.409247E+04 -2.541631E-10  1.639031E-10
       145  11  1.328082E+05  1.354393E+05  1.851165E+05  1.268757E+04 -2.585860E-09  1.482852E-11
       145  12  1.217863E+05  5.866780E+04  1.455967E+05 -5.915864E+04 -2.575568E-09 -2.031095E-10
       145  13  7.289923E+04 -4.454990E+05  9.368485E+04 -6.270626E+04  1.573039E-09 -1.575418E-09
       145  14 -1.583325E+04 -4.600513E+05  3.759110E+04  1.654683E+04  3.510550E-10 -2.610980E-09
       145  15 -4.104325E+03 -4.455665E+05  2.030846E+04 -6.283466E+04 -1.218133E-09 -1.304270E-09
       145  16 -9.886125E+04 -1.132180E+06 -7.762478E+04 -5.133245E+04  2.865630E-10 -1.861896E-10
       145  17 -1.645012E+05 -1.055220E+06 -1.099608E+05  2.040257E+04  2.806261E-09  2.528390E-09
       145  18 -1.300140E+05 -9.495698E+05 -1.049988E+05 -6.650750E+04  1.919726E-09  1.458623E-09
       145  19  2.446259E+05  2.416156E+05  2.649681E+05 -7.409227E+04 -3.574340E+03 -6.945473E+04
       145  20  1.328089E+05  1.354417E+05  1.851208E+05  1.268793E+04 -9.640908E+03 -4.659814E+04
       145  21  1.217865E+05  5.866841E+04  1.455978E+05 -5.915854E+04 -5.514597E+03 -2.372054E+04
       145  22  7.290045E+04 -4.454942E+05  9.369332E+04 -6.270606E+04 -3.579673E+03 -6.700310E+04
       145  23 -1.583258E+04 -4.600489E+05  3.759532E+04  1.654719E+04 -9.642249E+03 -4.637010E+04
       145  24 -4.104115E+03 -4.455657E+05  2.030976E+04 -6.283455E+04 -5.508207E+03 -2.571267E+04
       145  25 -9.886011E+04 -1.132175E+06 -7.761691E+04 -5.133226E+04 -3.584919E+03 -6.455415E+04
       145  26 -1.645005E+05 -1.055217E+06 -1.099566E+05  2.040293E+04 -9.643588E+03 -4.614226E+04
       145  27 -1.300138E+05 -9.495690E+05 -1.049973E+05 -6.650737E+04 -5.501791E+03 -2.770317E+04
       146   1  2.783150E+04 -3.862755E+05  3.010814E+04 -6.398191E+04  1.729743E+03  2.214324E+04
       146   2 -6.082113E+03 -4.779259E+05 -9.303496E+03  1.655625E+04 -4.639227E+02  2.357200E+04
       146   3 -4.320426E+04 -5.719146E+05 -5.072834E+04 -6.424529E+04 -2.574414E+03  2.500107E+04
       146   4  1.132647E+04 -4.524494E+05  1.381032E+04 -6.334204E+04  1.728093E+03  2.262436E+04
       146   5  5.651354E+02 -4.512816E+05 -2.694232E+03  1.728569E+04 -4.654642E+02  2.403621E+04
       146   6 -1.340019E+04 -4.524545E+05 -2.119751E+04 -6.342586E+04 -2.575867E+03  2.544860E+04
       146   7 -5.178874E+03 -5.186193E+05 -2.487813E+03 -6.270224E+04  1.726443E+03  2.310543E+04
       146   8  7.212333E+03 -4.246366E+05  3.914980E+03  1.801517E+04 -4.670046E+02  2.450045E+04
       146   9  1.640281E+04 -3.329814E+05  8.332263E+03 -6.260626E+04 -2.577319E+03  2.589621E+04
       146  10  2.783136E+04 -3.862760E+05  3.010721E+04 -6.398194E+04 -2.019817E-09  1.416496E-09
       146  11 -6.082263E+03 -4.779265E+05 -9.304541E+03  1.655626E+04 -2.110465E-10 -1.398575E-09
       146  12 -4.320443E+04 -5.719152E+05 -5.072953E+04 -6.424524E+04  1.688328E-09  2.346803E-10
       146  13  1.132633E+04 -4.524499E+05  1.380936E+04 -6.334207E+04 -3.760349E-09 -3.642051E-09
       146  14  5.649799E+02 -4.512822E+05 -2.695319E+03  1.728570E+04 -9.237331E-10 -3.643520E-09
       146  15 -1.340037E+04 -4.524552E+05 -2.119874E+04 -6.342581E+04 -1.401858E-09 -1.280170E-09
       146  16 -5.179021E+03 -5.186199E+05 -2.488822E+03 -6.270227E+04 -1.578518E-09 -1.436971E-09
       146  17  7.212171E+03 -4.246372E+05  3.913851E+03  1.801518E+04 -8.781051E-10  5.029672E-09
       146  18  1.640262E+04 -3.329822E+05  8.330990E+03 -6.260621E+04 -8.621631E-10  1.142349E-09
       146  19  2.783150E+04 -3.862755E+05  3.010814E+04 -6.398191E+04 -1.729743E+03 -2.214324E+04
       146  20 -6.082113E+03 -4.779259E+05 -9.303496E+03  1.655625E+04  4.639227E+02 -2.357200E+04
       146  21 -4.320426E+04 -5.719146E+05 -5.072834E+04 -6.424529E+04  2.574414E+03 -2.500107E+04
       146  22  1.132647E+04 -4.524494E+05  1.381032E+04 -6.334204E+04 -1.728093E+03 -2.262436E+04
       146  23  5.651354E+02 -4.512816E+05 -2.694232E+03  1.728569E+04  4.654642E+02 -2.403621E+04
       146  24 -1.340019E+04 -4.524545E+05 -2.119751E+04 -6.342586E+04  2.575867E+03 -2.544860E+04
       146  25 -5.178874E+03 -5.186193E+05 -2.487813E+03 -6.270224E+04 -1.726443E+03 -2.310543E+04
       146  26  7.212333E+03 -4.246366E+05  3.914980E+03  1.801517E+04  4.670046E+02 -2.450045E+04
       146  27  1.640281E+04 -3.329814E+05  8.332263E+03 -6.260626E+04  2.577319E+03 -2.589621E+04
       147   1 -1.337884E+05 -1.016093E+06 -1.666380E+05 -5.494439E+04 -6.436377E+03  2.775835E+04
       147   2 -1.419976E+05 -1.090333E+06 -2.096296E+05  1.392384E+04 -1.069583E+04  5.687243E+04
       147   3 -2.763167E+05 -1.198214E+06 -3.027986E+05 -7.546005E+04 -4.074879E+03  8.600516E+04
       147   4  5.376846E+03 -4.594065E+05 -2.822909E+04 -6.263593E+04 -6.442874E+03  2.985187E+04
       147   5  1.971683E+04 -4.427866E+05 -4.908695E+04  1.641723E+04 -1.069431E+04  5.664413E+04
       147   6 -9.157675E+04 -4.593710E+05 -1.184679E+05 -6.277326E+04 -4.069347E+03  8.345944E+04
       147   7  1.445190E+05  9.756162E+04  1.101567E+05 -7.033415E+04 -6.449420E+03  3.194725E+04
       147   8  1.813998E+05  2.051408E+05  1.114245E+05  1.891343E+04 -1.069280E+04  5.641556E+04
       147   9  9.312270E+04  2.799681E+05  6.582188E+04 -5.007115E+04 -4.063923E+03  8.091063E+04
       147  10 -1.337887E+05 -1.016094E+06 -1.666395E+05 -5.494425E+04  2.287393E-09  2.808367E-09
       147  11 -1.419986E+05 -1.090336E+06 -2.096359E+05  1.392433E+04  1.210051E-09 -6.121203E-10
       147  12 -2.763187E+05 -1.198222E+06 -3.028126E+05 -7.545977E+04 -3.169233E-10 -1.487411E-09
       147  13  5.376562E+03 -4.594074E+05 -2.823084E+04 -6.263578E+04 -2.489089E-09 -3.190745E-09
       147  14  1.971584E+04 -4.427901E+05 -4.909320E+04  1.641772E+04 -1.104926E-09 -2.220745E-09
       147  15 -9.157864E+04 -4.593785E+05 -1.184810E+05 -6.277299E+04  6.414269E-10 -5.321302E-10
       147  16  1.445187E+05  9.756051E+04  1.101547E+05 -7.033399E+04 -4.740377E-10 -2.761181E-09
       147  17  1.813988E+05  2.051374E+05  1.114183E+05  1.891391E+04 -1.230803E-09  3.037498E-09
       147  18  9.312092E+04  2.799611E+05  6.580955E+04 -5.007089E+04  3.284647E-10  1.986962E-09
       147  19 -1.337884E+05 -1.016093E+06 -1.666380E+05 -5.494439E+04  6.436377E+03 -2.775835E+04
       147  20 -1.419976E+05 -1.090333E+06 -2.096296E+05  1.392384E+04  1.069583E+04 -5.687243E+04
       147  21 -2.763167E+05 -1.198214E+06 -3.027986E+05 -7.546005E+04  4.074879E+03 -8.600516E+04
       147  22  5.376846E+03 -4.594065E+05 -2.822909E+04 -6.263593E+04  6.442874E+03 -2.985187E+04
       147  23  1.971683E+04 -4.427866E+05 -4.908695E+04  1.641723E+04  1.069431E+04 -5.664413E+04
       147  24 -9.157675E+04 -4.593710E+05 -1.184679E+05 -6.277326E+04  4.069347E+03 -8.345944E+04
       147  25  1.445190E+05  9.756162E+04  1.101567E+05 -7.033415E+04  6.449420E+03 -3.194725E+04
       147  26  1.813998E+05  2.051408E+05  1.114245E+05  1.891343E+04  1.069280E+04 -5.641556E+04
       147  27  9.312270E+04  2.799681E+05  6.582188E+04 -5.007115E+04  4.063923E+03 -8.091063E+04
       148   1 -1.611193E+06 -3.783372E+05 -1.948455E+05 -5.655133E+05 -1.029222E+05 -3.796923E+04
       148   2 -1.578120E+06 -2.301498E+05 -9.838212E+04 -5.956882E+05 -6.662866E+04 -2.285031E+04
       148   3 -1.607183E+06 -2.460437E+05 -7.343599E+04 -5.876013E+05 -2.974145E+04 -9.307695E+03
       148   4 -1.501790E+06 -3.212396E+05 -1.615868E+05 -5.196309E+05 -1.025181E+05 -3.782043E+04
       148   5 -1.462674E+06 -1.824665E+05 -6.598357E+04 -5.601016E+05 -6.653692E+04 -2.281638E+04
       148   6 -1.485621E+06 -2.076953E+05 -4.163945E+04 -5.623139E+05 -2.996179E+04 -9.390087E+03
       148   7 -1.392374E+06 -2.641376E+05 -1.283294E+05 -4.737401E+05 -1.021138E+05 -3.767157E+04
       148   8 -1.347215E+06 -1.347818E+05 -3.358626E+04 -5.245087E+05 -6.644515E+04 -2.278243E+04
       148   9 -1.364044E+06 -1.693471E+05 -9.844097E+03 -5.370225E+05 -3.018218E+04 -9.472489E+03
       148  10 -1.611204E+06 -3.783416E+05 -1.948681E+05 -5.655165E+05 -5.725223E-10  3.203685E-10
       148  11 -1.578125E+06 -2.301516E+05 -9.839147E+04 -5.956894E+05  2.894030E-09 -1.178699E-09
       148  12 -1.607184E+06 -2.460441E+05 -7.343782E+04 -5.876015E+05 -2.448811E-10  5.140739E-10
       148  13 -1.501801E+06 -3.212440E+05 -1.616093E+05 -5.196341E+05 -1.015832E-09 -4.866768E-10
       148  14 -1.462679E+06 -1.824683E+05 -6.599289E+04 -5.601028E+05  5.914381E-09 -1.057658E-09
       148  15 -1.485622E+06 -2.076957E+05 -4.164131E+04 -5.623141E+05  2.221977E-09 -1.380728E-09
       148  16 -1.392386E+06 -2.641420E+05 -1.283517E+05 -4.737432E+05  1.818956E-10 -5.240830E-10
       148  17 -1.347220E+06 -1.347835E+05 -3.359555E+04 -5.245099E+05 -1.732407E-09 -3.051967E-09
       148  18 -1.364045E+06 -1.693474E+05 -9.845982E+03 -5.370228E+05 -2.211435E-10 -9.950386E-10
       148  19 -1.611193E+06 -3.783372E+05 -1.948455E+05 -5.655133E+05  1.029222E+05  3.796923E+04
       148  20 -1.578120E+06 -2.301498E+05 -9.838212E+04 -5.956882E+05  6.662866E+04  2.285031E+04
       148  21 -1.607183E+06 -2.460437E+05 -7.343599E+04 -5.876013E+05  2.974145E+04  9.307695E+03
       148  22 -1.501790E+06 -3.212396E+05 -1.615868E+05 -5.196309E+05  1.025181E+05  3.782043E+04
       148  23 -1.462674E+06 -1.824665E+05 -6.598357E+04 -5.601016E+05  6.653692E+04  2.281638E+04
       148  24 -1.485621E+06 -2.076953E+05 -4.163945E+04 -5.623139E+05  2.996179E+04  9.390087E+03
       148  25 -1.392374E+06 -2.641376E+05 -1.283294E+05 -4.737401E+05  1.021138E+05  3.767157E+04
       148  26 -1.347215E+06 -1.347818E+05 -3.358626E+04 -5.245087E+05  6.644515E+04  2.278243E+04
       148  27 -1.364044E+06 -1.693471E+05 -9.844097E+03 -5.370225E+05  3.018218E+04  9.472489E+03
       149   1 -1.575341E+06 -2.655509E+05 -6.095690E+04 -5.807962E+05 -2.359852E+04 -7.349199E+03
       149   2 -1.568944E+06 -2.394201E+05 -4.091697E+04 -5.807783E+05 -1.530514E+04 -4.173750E+03
       149   3 -1.566304E+06 -2.430626E+05 -3.352190E+04 -5.817714E+05 -6.900810E+03 -1.293466E+03
       149   4 -1.479661E+06 -2.271902E+05 -3.429851E+04 -5.524991E+05 -2.356087E+04 -7.335173E+03
       149   5 -1.476608E+06 -2.040029E+05 -1.552560E+04 -5.551112E+05 -1.532584E+04 -4.181556E+03
       149   6 -1.477299E+06 -2.105751E+05 -9.349703E+03 -5.587345E+05 -6.979901E+03 -1.323154E+03
       149   7 -1.383972E+06 -1.888287E+05 -7.641014E+03 -5.241979E+05 -2.352322E+04 -7.321145E+03
       149   8 -1.384264E+06 -1.685851E+05  9.864992E+03 -5.294405E+05 -1.534654E+04 -4.189363E+03
       149   9 -1.388287E+06 -1.780872E+05  1.482181E+04 -5.356947E+05 -7.059005E+03 -1.352846E+03
       149  10 -1.575342E+06 -2.655511E+05 -6.095805E+04 -5.807963E+05 -9.980601E-10  3.458507E-10
       149  11 -1.568945E+06 -2.394202E+05 -4.091745E+04 -5.807784E+05 -1.559824E-10 -5.039042E-10
       149  12 -1.566304E+06 -2.430626E+05 -3.352199E+04 -5.817714E+05  1.233753E-09 -4.175937E-10
       149  13 -1.479661E+06 -2.271904E+05 -3.429966E+04 -5.524992E+05 -1.050144E-09 -2.062711E-11
       149  14 -1.476609E+06 -2.040030E+05 -1.552607E+04 -5.551112E+05 -3.475775E-10 -6.132645E-10
       149  15 -1.477299E+06 -2.105751E+05 -9.349798E+03 -5.587345E+05 -4.611488E-10  4.858743E-10
       149  16 -1.383972E+06 -1.888289E+05 -7.642158E+03 -5.241981E+05 -9.330701E-10 -2.668153E-10
       149  17 -1.384265E+06 -1.685852E+05  9.864515E+03 -5.294406E+05  7.309286E-10 -1.400479E-09
       149  18 -1.388287E+06 -1.780872E+05  1.482171E+04 -5.356947E+05  5.512132E-10  9.317840E-11
       149  19 -1.575341E+06 -2.655509E+05 -6.095690E+04 -5.807962E+05  2.359852E+04  7.349199E+03
       149  20 -1.568944E+06 -2.394201E+05 -4.091697E+04 -5.807783E+05  1.530514E+04  4.173750E+03
       149  21 -1.566304E+06 -2.430626E+05 -3.352190E+04 -5.817714E+05  6.900810E+03  1.293466E+03
       149  22 -1.479661E+06 -2.271902E+05 -3.429851E+04 -5.524991E+05  2.356087E+04  7.335173E+03
       149  23 -1.476608E+06 -2.040029E+05 -1.552560E+04 -5.551112E+05  1.532584E+04  4.181556E+03
       149  24 -1.477299E+06 -2.105751E+05 -9.349703E+03 -5.587345E+05  6.979901E+03  1.323154E+03
       149  25 -1.383972E+06 -1.888287E+05 -7.641014E+03 -5.241979E+05  2.352322E+04  7.321145E+03
       149  26 -1.384264E+06 -1.685851E+05  9.864992E+03 -5.294405E+05  1.534654E+04  4.189363E+03
       149  27 -1.388287E+06 -1.780872E+05  1.482181E+04 -5.356947E+05  7.059005E+03  1.352846E+03
       150   1 -1.535272E+06 -2.364262E+05 -2.375572E+04 -5.741108E+05 -5.492574E+03 -9.538387E+02
       150   2 -1.532535E+06 -2.269492E+05 -1.833946E+04 -5.684771E+05 -3.483046E+03 -4.149739E+02
       150   3 -1.523180E+06 -2.291151E+05 -1.531310E+04 -5.713224E+05 -1.444192E+03  4.557857E+01
       150   4 -1.476014E+06 -2.137502E+05 -7.483646E+03 -5.576900E+05 -5.523120E+03 -9.653132E+02
       150   5 -1.479154E+06 -2.067292E+05 -3.709408E+03 -5.539007E+05 -3.529213E+03 -4.323019E+02
       150   6 -1.475673E+06 -2.113475E+05 -2.312479E+03 -5.585905E+05 -1.506003E+03  2.239077E+01
       150   7 -1.416752E+06 -1.910741E+05  8.788107E+03 -5.412677E+05 -5.553669E+03 -9.767891E+02
       150   8 -1.425770E+06 -1.865090E+05  1.092037E+04 -5.393233E+05 -3.575385E+03 -4.496316E+02
       150   9 -1.428163E+06 -1.935799E+05  1.068792E+04 -5.458578E+05 -1.567818E+03 -7.989048E-01
       150  10 -1.535272E+06 -2.364262E+05 -2.375578E+04 -5.741108E+05 -1.077022E-10 -6.884646E-10
       150  11 -1.532535E+06 -2.269493E+05 -1.833948E+04 -5.684771E+05 -5.871838E-10  1.086810E-10
       150  12 -1.523180E+06 -2.291151E+05 -1.531310E+04 -5.713224E+05 -1.305272E-09 -1.232412E-10
       150  13 -1.476014E+06 -2.137502E+05 -7.483705E+03 -5.576900E+05 -2.952867E-09  7.602912E-10
       150  14 -1.479154E+06 -2.067292E+05 -3.709432E+03 -5.539007E+05 -1.647590E-10  5.200099E-10
       150  15 -1.475673E+06 -2.113475E+05 -2.312483E+03 -5.585905E+05  2.797514E-09  1.014291E-10
       150  16 -1.416752E+06 -1.910741E+05  8.788047E+03 -5.412677E+05  6.081149E-10  1.852737E-10
       150  17 -1.425770E+06 -1.865090E+05  1.092035E+04 -5.393233E+05  6.122938E-11  3.053174E-10
       150  18 -1.428163E+06 -1.935799E+05  1.068791E+04 -5.458578E+05  1.052696E-09  2.145736E-10
       150  19 -1.535272E+06 -2.364262E+05 -2.375572E+04 -5.741108E+05  5.492574E+03  9.538387E+02
       150  20 -1.532535E+06 -2.269492E+05 -1.833946E+04 -5.684771E+05  3.483046E+03  4.149739E+02
       150  21 -1.523180E+06 -2.291151E+05 -1.531310E+04 -5.713224E+05  1.444192E+03 -4.557857E+01
       150  22 -1.476014E+06 -2.137502E+05 -7.483646E+03 -5.576900E+05  5.523120E+03  9.653132E+02
       150  23 -1.479154E+06 -2.067292E+05 -3.709408E+03 -5.539007E+05  3.529213E+03  4.323019E+02
       150  24 -1.475673E+06 -2.113475E+05 -2.312479E+03 -5.585905E+05  1.506003E+03 -2.239077E+01
       150  25 -1.416752E+06 -1.910741E+05  8.788107E+03 -5.412677E+05  5.553669E+03  9.767891E+02
       150  26 -1.425770E+06 -1.865090E+05  1.092037E+04 -5.393233E+05  3.575385E+03  4.496316E+02
       150  27 -1.428163E+06 -1.935799E+05  1.068792E+04 -5.458578E+05  1.567818E+03  7.989048E-01
       151   1 -1.488236E+06 -2.168057E+05 -5.436215E+03 -5.621350E+05 -1.041323E+03  7.839961E+00
       151   2 -1.485901E+06 -2.093131E+05 -3.064917E+03 -5.552627E+05 -2.524202E+02  9.589688E+00
       151   3 -1.474945E+06 -2.115122E+05 -1.402188E+03 -5.585162E+05  5.400855E+02  1.773212E+00
       151   4 -1.475367E+06 -2.119026E+05 -1.926764E+03 -5.585856E+05 -1.092416E+03 -1.132383E+01
       151   5 -1.479663E+06 -2.069526E+05 -1.355762E+03 -5.535618E+05 -3.054325E+02 -1.029336E+01
       151   6 -1.475337E+06 -2.116941E+05 -1.491829E+03 -5.586638E+05  4.851431E+02 -1.883238E+01
       151   7 -1.462498E+06 -2.069995E+05  1.582678E+03 -5.550362E+05 -1.143509E+03 -3.048810E+01
       151   8 -1.473425E+06 -2.045922E+05  3.533881E+02 -5.518609E+05 -3.584454E+02 -3.017661E+01
       151   9 -1.475730E+06 -2.118759E+05 -1.581469E+03 -5.588113E+05  4.302010E+02 -3.943787E+01
       151  10 -1.488236E+06 -2.168057E+05 -5.436217E+03 -5.621350E+05 -8.723862E-10  2.872587E-10
       151  11 -1.485901E+06 -2.093131E+05 -3.064917E+03 -5.552627E+05 -6.369419E-11 -7.228080E-10
       151  12 -1.474945E+06 -2.115122E+05 -1.402189E+03 -5.585162E+05  2.981081E-10 -1.296980E-09
       151  13 -1.475367E+06 -2.119026E+05 -1.926767E+03 -5.585856E+05  6.497609E-10  7.037043E-11
       151  14 -1.479663E+06 -2.069526E+05 -1.355762E+03 -5.535618E+05 -2.434224E-09 -9.709953E-10
       151  15 -1.475337E+06 -2.116941E+05 -1.491829E+03 -5.586638E+05 -7.378032E-10 -1.150353E-09
       151  16 -1.462498E+06 -2.069995E+05  1.582676E+03 -5.550362E+05  1.310475E-09  3.106279E-10
       151  17 -1.473425E+06 -2.045922E+05  3.533878E+02 -5.518609E+05 -9.518583E-10 -5.547735E-10
       151  18 -1.475730E+06 -2.118759E+05 -1.581469E+03 -5.588113E+05 -1.350459E-09 -1.621435E-09
       151  19 -1.488236E+06 -2.168057E+05 -5.436215E+03 -5.621350E+05  1.041323E+03 -7.839961E+00
       151  20 -1.485901E+06 -2.093131E+05 -3.064917E+03 -5.552627E+05  2.524202E+02 -9.589688E+00
       151  21 -1.474945E+06 -2.115122E+05 -1.402188E+03 -5.585162E+05 -5.400855E+02 -1.773212E+00
       151  22 -1.475367E+06 -2.119026E+05 -1.926764E+03 -5.585856E+05  1.092416E+03  1.132383E+01
       151  23 -1.479663E+06 -2.069526E+05 -1.355762E+03 -5.535618E+05  3.054325E+02  1.029336E+01
       151  24 -1.475337E+06 -2.116941E+05 -1.491829E+03 -5.586638E+05 -4.851431E+02  1.883238E+01
       151  25 -1.462498E+06 -2.069995E+05  1.582678E+03 -5.550362E+05  1.143509E+03  3.048810E+01
       151  26 -1.473425E+06 -2.045922E+05  3.533881E+02 -5.518609E+05  3.584454E+02  3.017661E+01
       151  27 -1.475730E+06 -2.118759E+05 -1.581469E+03 -5.588113E+05 -4.302010E+02  3.943787E+01
       152   1 -1.439797E+06 -1.980861E+05  8.092155E+03 -5.489871E+05  8.698555E+02 -6.368124E+01
       152   2 -1.437522E+06 -1.911140E+05  8.956905E+03 -5.423237E+05  2.251491E+03  1.478354E+02
       152   3 -1.427465E+06 -1.941378E+05  8.464299E+03 -5.450423E+05  3.617288E+03  4.017346E+02
       152   4 -1.475485E+06 -2.114844E+05 -1.690490E+03 -5.586029E+05  8.112786E+02 -8.565238E+01
       152   5 -1.479443E+06 -2.069576E+05 -2.524919E+03 -5.537350E+05  2.201380E+03  1.290332E+02
       152   6 -1.475619E+06 -2.124284E+05 -4.723482E+03 -5.582491E+05  3.575631E+03  3.860975E+02
       152   7 -1.511173E+06 -2.248826E+05 -1.147327E+04 -5.682182E+05  7.527054E+02 -1.076222E+02
       152   8 -1.521362E+06 -2.228011E+05 -1.400693E+04 -5.651456E+05  2.151273E+03  1.102323E+02
       152   9 -1.523771E+06 -2.307190E+05 -1.791153E+04 -5.714551E+05  3.533977E+03  3.704617E+02
       152  10 -1.439797E+06 -1.980861E+05  8.092154E+03 -5.489871E+05 -3.931493E-10 -9.280766E-10
       152  11 -1.437522E+06 -1.911140E+05  8.956895E+03 -5.423237E+05  3.599231E-10  1.052890E-09
       152  12 -1.427465E+06 -1.941378E+05  8.464274E+03 -5.450423E+05  1.928822E-09  5.487802E-10
       152  13 -1.475485E+06 -2.114844E+05 -1.690491E+03 -5.586029E+05 -3.067959E-10 -9.159105E-10
       152  14 -1.479443E+06 -2.069576E+05 -2.524928E+03 -5.537350E+05  3.112716E-09  6.223187E-10
       152  15 -1.475619E+06 -2.124284E+05 -4.723507E+03 -5.582491E+05  1.950505E-09  1.342275E-09
       152  16 -1.511173E+06 -2.248826E+05 -1.147327E+04 -5.682182E+05 -3.829915E-09 -8.469057E-10
       152  17 -1.521362E+06 -2.228011E+05 -1.400694E+04 -5.651456E+05  1.783210E-09 -2.850779E-10
       152  18 -1.523772E+06 -2.307190E+05 -1.791155E+04 -5.714551E+05  1.997532E-09  2.958220E-10
       152  19 -1.439797E+06 -1.980861E+05  8.092155E+03 -5.489871E+05 -8.698555E+02  6.368124E+01
       152  20 -1.437522E+06 -1.911140E+05  8.956905E+03 -5.423237E+05 -2.251491E+03 -1.478354E+02
       152  21 -1.427465E+06 -1.941378E+05  8.464299E+03 -5.450423E+05 -3.617288E+03 -4.017346E+02
       152  22 -1.475485E+06 -2.114844E+05 -1.690490E+03 -5.586029E+05 -8.112786E+02  8.565238E+01
       152  23 -1.479443E+06 -2.069576E+05 -2.524919E+03 -5.537350E+05 -2.201380E+03 -1.290332E+02
       152  24 -1.475619E+06 -2.124284E+05 -4.723482E+03 -5.582491E+05 -3.575631E+03 -3.860975E+02
       152  25 -1.511173E+06 -2.248826E+05 -1.147327E+04 -5.682182E+05 -7.527054E+02  1.076222E+02
       152  26 -1.521362E+06 -2.228011E+05 -1.400693E+04 -5.651456E+05 -2.151273E+03 -1.102323E+02
       152  27 -1.523771E+06 -2.307190E+05 -1.791153E+04 -5.714551E+05 -3.533977E+03 -3.704617E+02
       153   1 -1.397292E+06 -1.815454E+05  1.558890E+04 -5.374439E+05  4.578672E+03  5.950607E+02
       153   2 -1.394478E+06 -1.743160E+05  1.270540E+04 -5.315797E+05  9.954764E+03  2.342304E+03
       153   3 -1.389239E+06 -1.836525E+05  3.217882E+03 -5.310296E+05  1.529124E+04  4.195177E+03
       153   4 -1.476395E+06 -2.109379E+05 -5.999919E+03 -5.584533E+05  4.519750E+03  5.729413E+02
       153   5 -1.478093E+06 -2.060817E+05 -1.022803E+04 -5.545102E+05  9.916470E+03  2.327910E+03
       153   6 -1.477370E+06 -2.177962E+05 -2.107723E+04 -5.558810E+05  1.527354E+04  4.188487E+03
       153   7 -1.555491E+06 -2.403300E+05 -2.758922E+04 -5.794603E+05  4.460836E+03  5.508249E+02
       153   8 -1.561701E+06 -2.378468E+05 -3.316206E+04 -5.774379E+05  9.878182E+03  2.313518E+03
       153   9 -1.565495E+06 -2.519393E+05 -4.537305E+04 -5.807292E+05  1.525584E+04  4.181798E+03
       153  10 -1.397292E+06 -1.815454E+05  1.558885E+04 -5.374439E+05  3.927577E-10 -1.051865E-09
       153  11 -1.394478E+06 -1.743160E+05  1.270521E+04 -5.315797E+05  3.105675E-10 -2.355561E-09
       153  12 -1.389239E+06 -1.836526E+05  3.217409E+03 -5.310296E+05  1.267938E-09 -1.359929E-09
       153  13 -1.476395E+06 -2.109379E+05 -5.999958E+03 -5.584533E+05 -1.721588E-09  7.808805E-10
       153  14 -1.478093E+06 -2.060817E+05 -1.022823E+04 -5.545102E+05  3.270623E-10 -6.014008E-10
       153  15 -1.477371E+06 -2.177962E+05 -2.107771E+04 -5.558811E+05  1.019967E-09 -9.058186E-10
       153  16 -1.555491E+06 -2.403301E+05 -2.758926E+04 -5.794603E+05  3.394113E-09 -2.592745E-11
       153  17 -1.561701E+06 -2.378469E+05 -3.316225E+04 -5.774379E+05  2.743821E-09 -6.453805E-10
       153  18 -1.565495E+06 -2.519393E+05 -4.537352E+04 -5.807293E+05 -2.075999E-09 -6.123253E-10
       153  19 -1.397292E+06 -1.815454E+05  1.558890E+04 -5.374439E+05 -4.578672E+03 -5.950607E+02
       153  20 -1.394478E+06 -1.743160E+05  1.270540E+04 -5.315797E+05 -9.954764E+03 -2.342304E+03
       153  21 -1.389239E+06 -1.836525E+05  3.217882E+03 -5.310296E+05 -1.529124E+04 -4.195177E+03
       153  22 -1.476395E+06 -2.109379E+05 -5.999919E+03 -5.584533E+05 -4.519750E+03 -5.729413E+02
       153  23 -1.478093E+06 -2.060817E+05 -1.022803E+04 -5.545102E+05 -9.916470E+03 -2.327910E+03
       153  24 -1.477370E+06 -2.177962E+05 -2.107723E+04 -5.558810E+05 -1.527354E+04 -4.188487E+03
       153  25 -1.555491E+06 -2.403300E+05 -2.758922E+04 -5.794603E+05 -4.460836E+03 -5.508249E+02
       153  26 -1.561701E+06 -2.378468E+05 -3.316206E+04 -5.774379E+05 -9.878182E+03 -2.313518E+03
       153  27 -1.565495E+06 -2.519393E+05 -4.537305E+04 -5.807292E+05 -1.525584E+04 -4.181798E+03
       154   1 -1.367633E+06 -1.700620E+05  3.834443E+03 -5.322367E+05  1.933086E+04  5.562028E+03
       154   2 -1.359388E+06 -1.535443E+05 -1.295064E+04 -5.248636E+05  4.273723E+04  1.414870E+04
       154   3 -1.375282E+06 -2.080671E+05 -6.543787E+04 -5.050347E+05  6.602290E+04  2.305740E+04
       154   4 -1.480378E+06 -2.094530E+05 -2.642210E+04 -5.596174E+05  1.925903E+04  5.535141E+03
       154   5 -1.471658E+06 -1.974968E+05 -4.399816E+04 -5.569892E+05  4.272624E+04  1.414441E+04
       154   6 -1.487094E+06 -2.566011E+05 -9.732971E+04 -5.419041E+05  6.607275E+04  2.307530E+04
       154   7 -1.593111E+06 -2.488438E+05 -5.667979E+04 -5.869939E+05  1.918721E+04  5.508258E+03
       154   8 -1.583916E+06 -2.414484E+05 -7.504686E+04 -5.891095E+05  4.271525E+04  1.414013E+04
       154   9 -1.598894E+06 -3.051333E+05 -1.292228E+05 -5.787671E+05  6.612259E+04  2.309319E+04
       154  10 -1.367633E+06 -1.700621E+05  3.833681E+03 -5.322367E+05  2.561827E-09 -7.009222E-10
       154  11 -1.359390E+06 -1.535450E+05 -1.295446E+04 -5.248641E+05  3.594452E-09 -1.403266E-09
       154  12 -1.375287E+06 -2.080689E+05 -6.544708E+04 -5.050359E+05  1.457848E-09 -1.448839E-09
       154  13 -1.480378E+06 -2.094531E+05 -2.642286E+04 -5.596175E+05  2.456563E-09 -1.601026E-09
       154  14 -1.471660E+06 -1.974975E+05 -4.400197E+04 -5.569897E+05  1.190468E-09 -1.047827E-09
       154  15 -1.487099E+06 -2.566029E+05 -9.733894E+04 -5.419053E+05  3.637062E-09  1.151281E-09
       154  16 -1.593111E+06 -2.488439E+05 -5.668054E+04 -5.869940E+05 -1.377616E-09 -3.791802E-10
       154  17 -1.583918E+06 -2.414491E+05 -7.505067E+04 -5.891099E+05  3.300192E-09  4.054528E-10
       154  18 -1.598899E+06 -3.051350E+05 -1.292320E+05 -5.787683E+05  3.575104E-10  1.223555E-09
       154  19 -1.367633E+06 -1.700620E+05  3.834443E+03 -5.322367E+05 -1.933086E+04 -5.562028E+03
       154  20 -1.359388E+06 -1.535443E+05 -1.295064E+04 -5.248636E+05 -4.273723E+04 -1.414870E+04
       154  21 -1.375282E+06 -2.080671E+05 -6.543787E+04 -5.050347E+05 -6.602290E+04 -2.305740E+04
       154  22 -1.480378E+06 -2.094530E+05 -2.642210E+04 -5.596174E+05 -1.925903E+04 -5.535141E+03
       154  23 -1.471658E+06 -1.974968E+05 -4.399816E+04 -5.569892E+05 -4.272624E+04 -1.414441E+04
       154  24 -1.487094E+06 -2.566011E+05 -9.732971E+04 -5.419041E+05 -6.607275E+04 -2.307530E+04
       154  25 -1.593111E+06 -2.488438E+05 -5.667979E+04 -5.869939E+05 -1.918721E+04 -5.508258E+03
       154  26 -1.583916E+06 -2.414484E+05 -7.504686E+04 -5.891095E+05 -4.271525E+04 -1.414013E+04
       154  27 -1.598894E+06 -3.051333E+05 -1.292228E+05 -5.787671E+05 -6.612259E+04 -2.309319E+04
       155   1 -1.361352E+06 -1.704811E+05 -8.369759E+04 -5.546633E+05  8.422059E+04  2.960249E+04
       155   2 -1.315464E+06 -7.884815E+04 -1.526619E+05 -5.256282E+05  1.874956E+05  6.825829E+04
       155   3 -1.454350E+06 -4.442589E+05 -4.236664E+05 -3.783632E+05  2.901569E+05  1.085531E+05
       155   4 -1.502893E+06 -2.024080E+05 -1.181801E+05 -5.710786E+05  8.400465E+04  2.952487E+04
       155   5 -1.433446E+06 -1.349515E+05 -1.872344E+05 -5.695539E+05  1.875903E+05  6.828957E+04
       155   6 -1.548872E+06 -5.246579E+05 -4.586060E+05 -4.497871E+05  2.905664E+05  1.086811E+05
       155   7 -1.644415E+06 -2.343356E+05 -1.526637E+05 -5.874918E+05  8.378877E+04  2.944725E+04
       155   8 -1.551414E+06 -1.910514E+05 -2.218083E+05 -6.134712E+05  1.876849E+05  6.832084E+04
       155   9 -1.643381E+06 -6.050399E+05 -4.935457E+05 -5.211974E+05  2.909759E+05  1.088091E+05
       155  10 -1.361360E+06 -1.704839E+05 -8.371261E+04 -5.546653E+05  1.229122E-09 -4.151175E-10
       155  11 -1.315503E+06 -7.886263E+04 -1.527369E+05 -5.256385E+05  1.396585E-09  3.479945E-09
       155  12 -1.454444E+06 -4.442943E+05 -4.238472E+05 -3.783886E+05  5.854663E-10  1.528086E-09
       155  13 -1.502901E+06 -2.024109E+05 -1.181950E+05 -5.710806E+05  2.431283E-09 -1.991294E-10
       155  14 -1.433485E+06 -1.349660E+05 -1.873095E+05 -5.695642E+05 -2.389283E-09  4.553339E-09
       155  15 -1.548966E+06 -5.246934E+05 -4.587873E+05 -4.498126E+05  5.569313E-10  3.820454E-09
       155  16 -1.644423E+06 -2.343384E+05 -1.526786E+05 -5.874938E+05  8.039314E-10  9.899596E-10
       155  17 -1.551453E+06 -1.910659E+05 -2.218835E+05 -6.134816E+05 -2.749574E-09  1.088350E-09
       155  18 -1.643475E+06 -6.050755E+05 -4.937276E+05 -5.212229E+05  1.479157E-09  1.322005E-10
       155  19 -1.361352E+06 -1.704811E+05 -8.369759E+04 -5.546633E+05 -8.422059E+04 -2.960249E+04
       155  20 -1.315464E+06 -7.884815E+04 -1.526619E+05 -5.256282E+05 -1.874956E+05 -6.825829E+04
       155  21 -1.454350E+06 -4.442589E+05 -4.236664E+05 -3.783632E+05 -2.901569E+05 -1.085531E+05
       155  22 -1.502893E+06 -2.024080E+05 -1.181801E+05 -5.710786E+05 -8.400465E+04 -2.952487E+04
       155  23 -1.433446E+06 -1.349515E+05 -1.872344E+05 -5.695539E+05 -1.875903E+05 -6.828957E+04
       155  24 -1.548872E+06 -5.246579E+05 -4.586060E+05 -4.497871E+05 -2.905664E+05 -1.086811E+05
       155  25 -1.644415E+06 -2.343356E+05 -1.526637E+05 -5.874918E+05 -8.378877E+04 -2.944725E+04
       155  26 -1.551414E+06 -1.910514E+05 -2.218083E+05 -6.134712E+05 -1.876849E+05 -6.832084E+04
       155  27 -1.643381E+06 -6.050399E+05 -4.935457E+05 -5.211974E+05 -2.909759E+05 -1.088091E+05
       156   1  2.413811E+05  1.946347E+06  2.306564E+05 -1.769755E+05  1.057876E+04  8.780918E+04
       156   2  1.878977E+05  1.814553E+06  1.541038E+05 -1.595677E+05  3.504061E+04  3.903945E+04
       156   3  1.514377E+05  1.693333E+06  1.135035E+05 -1.628960E+05  4.030912E+04 -9.739618E+03
       156   4  2.120672E+04  1.052140E+06  2.269037E+04 -1.617652E+05  1.068786E+04  1.339842E+04
       156   5  7.161037E+03  1.050531E+06  1.331572E+04 -1.514115E+05  3.509408E+04  6.662854E+03
       156   6  2.867953E+03  1.052212E+06  1.076977E+04 -1.617931E+05  4.029719E+04 -9.280122E+01
       156   7 -1.990202E+05  1.586813E+05 -1.853087E+05 -1.465767E+05  1.079341E+04 -6.090619E+04
       156   8 -1.736080E+05  2.870760E+05 -1.274926E+05 -1.432654E+05  3.514674E+04 -2.567504E+04
       156   9 -1.457224E+05  4.114983E+05 -9.197450E+04 -1.606912E+05  4.028529E+04  9.544433E+03
       156  10  2.413789E+05  1.946339E+06  2.306417E+05 -1.769762E+05  6.459093E-10  2.713725E-08
       156  11  1.878959E+05  1.814551E+06  1.540986E+05 -1.595688E+05  2.052240E-09 -8.458941E-09
       156  12  1.514360E+05  1.693332E+06  1.135002E+05 -1.628957E+05  5.749581E-09 -4.600865E-08
       156  13  2.120655E+04  1.052140E+06  2.268981E+04 -1.617653E+05 -1.174835E-09 -1.181986E-09
       156  14  7.159702E+03  1.050531E+06  1.331332E+04 -1.514117E+05 -6.463542E-09 -1.534071E-10
       156  15  2.866209E+03  1.052211E+06  1.076671E+04 -1.617931E+05 -1.270344E-08 -1.051090E-09
       156  16 -1.990213E+05  1.586773E+05 -1.853159E+05 -1.465761E+05  4.984816E-10 -2.720417E-08
       156  17 -1.736095E+05  2.870750E+05 -1.274962E+05 -1.432647E+05  4.085876E-09  9.479620E-09
       156  18 -1.457241E+05  4.114977E+05 -9.197772E+04 -1.606916E+05  3.258666E-09  4.412569E-08
       156  19  2.413811E+05  1.946347E+06  2.306564E+05 -1.769755E+05 -1.057876E+04 -8.780918E+04
       156  20  1.878977E+05  1.814553E+06  1.541038E+05 -1.595677E+05 -3.504061E+04 -3.903945E+04
       156  21  1.514377E+05  1.693333E+06  1.135035E+05 -1.628960E+05 -4.030912E+04  9.739618E+03
       156  22  2.120672E+04  1.052140E+06  2.269037E+04 -1.617652E+05 -1.068786E+04 -1.339842E+04
       156  23  7.161037E+03  1.050531E+06  1.331572E+04 -1.514115E+05 -3.509408E+04 -6.662854E+03
       156  24  2.867953E+03  1.052212E+06  1.076977E+04 -1.617931E+05 -4.029719E+04  9.280122E+01
       156  25 -1.990202E+05  1.586813E+05 -1.853087E+05 -1.465767E+05 -1.079341E+04  6.090619E+04
       156  26 -1.736080E+05  2.870760E+05 -1.274926E+05 -1.432654E+05 -3.514674E+04  2.567504E+04
       156  27 -1.457224E+05  4.114983E+05 -9.197450E+04 -1.606912E+05 -4.028529E+04 -9.544433E+03
       157   1  1.320955E+05  1.613024E+06  9.852149E+04 -1.641143E+05  3.697175E+04 -1.190266E+04
       157   2  1.026302E+05  1.485366E+06  7.834155E+04 -1.501187E+05  3.129162E+04 -2.390060E+04
       157   3  7.873846E+04  1.360609E+06  6.733524E+04 -1.582099E+05  2.341285E+04 -3.590129E+04
       157   4  2.545852E+03  1.051954E+06  1.101016E+04 -1.620929E+05  3.695789E+04 -1.833054E+03
       157   5  3.076211E+03  1.050944E+06  1.433010E+04 -1.510448E+05  3.126790E+04 -9.016287E+03
       157   6  8.348050E+03  1.051986E+06  2.348752E+04 -1.620840E+05  2.337856E+04 -1.620451E+04
       157   7 -1.270192E+05  4.911972E+05 -7.650827E+04 -1.600733E+05  3.694408E+04  8.227818E+03
       157   8 -9.648646E+04  6.167119E+05 -4.968391E+04 -1.519702E+05  3.124412E+04  5.858063E+03
       157   9 -6.204638E+04  7.434593E+05 -2.036010E+04 -1.659560E+05  2.334401E+04  3.482921E+03
       157  10  1.320940E+05  1.613023E+06  9.851866E+04 -1.641139E+05  2.889975E-09  4.286401E-08
       157  11  1.026290E+05  1.485365E+06  7.833864E+04 -1.501181E+05  3.612785E-09  8.124798E-09
       157  12  7.873753E+04  1.360607E+06  6.733179E+04 -1.582092E+05  1.613905E-09 -2.664235E-08
       157  13  2.544383E+03  1.051953E+06  1.100758E+04 -1.620929E+05 -1.162725E-08 -1.702134E-09
       157  14  3.075139E+03  1.050944E+06  1.432811E+04 -1.510446E+05 -3.216434E-09 -2.077550E-12
       157  15  8.347393E+03  1.051985E+06  2.348600E+04 -1.620837E+05 -4.006125E-09 -1.157026E-09
       157  16 -1.270206E+05  4.911968E+05 -7.651096E+04 -1.600735E+05  2.851111E-09 -4.301960E-08
       157  17 -9.648752E+04  6.167116E+05 -4.968581E+04 -1.519703E+05  6.775707E-09 -7.388990E-09
       157  18 -6.204697E+04  7.434591E+05 -2.036115E+04 -1.659560E+05 -9.825367E-10  2.451330E-08
       157  19  1.320955E+05  1.613024E+06  9.852149E+04 -1.641143E+05 -3.697175E+04  1.190266E+04
       157  20  1.026302E+05  1.485366E+06  7.834155E+04 -1.501187E+05 -3.129162E+04  2.390060E+04
       157  21  7.873846E+04  1.360609E+06  6.733524E+04 -1.582099E+05 -2.341285E+04  3.590129E+04
       157  22  2.545852E+03  1.051954E+06  1.101016E+04 -1.620929E+05 -3.695789E+04  1.833054E+03
       157  23  3.076211E+03  1.050944E+06  1.433010E+04 -1.510448E+05 -3.126790E+04  9.016287E+03
       157  24  8.348050E+03  1.051986E+06  2.348752E+04 -1.620840E+05 -2.337856E+04  1.620451E+04
       157  25 -1.270192E+05  4.911972E+05 -7.650827E+04 -1.600733E+05 -3.694408E+04 -8.227818E+03
       157  26 -9.648646E+04  6.167119E+05 -4.968391E+04 -1.519702E+05 -3.124412E+04 -5.858063E+03
       157  27 -6.204638E+04  7.434593E+05 -2.036010E+04 -1.659560E+05 -2.334401E+04 -3.482921E+03
       158   1  6.287990E+04  1.284595E+06  6.240230E+04 -1.613071E+05  1.804294E+04 -3.996283E+04
       158   2  5.680474E+04  1.151226E+06  6.762542E+04 -1.163177E+05  9.585793E+03 -6.594523E+04
       158   3  9.639402E+04  1.032586E+06  1.011392E+05 -9.343825E+04  2.147149E+03 -9.192184E+04
       158   4  1.064654E+04  1.054893E+06  3.060488E+04 -1.620992E+05  1.800751E+04 -2.024767E+04
       158   5  3.370963E+04  1.047328E+06  5.517164E+04 -1.509692E+05  9.557478E+03 -4.846309E+04
       158   6  1.028219E+05  1.054854E+06  1.095740E+05 -1.619425E+05  2.128850E+03 -7.667730E+04
       158   7 -4.158892E+04  8.252451E+05 -1.191712E+03 -1.628909E+05  1.797203E+04 -5.394541E+02
       158   8  1.061879E+04  9.434439E+05  4.271967E+04 -1.856146E+05  9.527211E+03 -3.098372E+04
       158   9  1.092674E+05  1.077132E+06  1.180122E+05 -2.304491E+05  2.107193E+03 -6.143220E+04
       158  10  6.287912E+04  1.284593E+06  6.239869E+04 -1.613065E+05  1.002802E-09  3.195795E-09
       158  11  5.680347E+04  1.151221E+06  6.761709E+04 -1.163172E+05  2.266382E-09  1.087043E-10
       158  12  9.639175E+04  1.032577E+06  1.011233E+05 -9.343809E+04  4.104598E-10 -3.578519E-09
       158  13  1.064609E+04  1.054892E+06  3.060350E+04 -1.620989E+05 -2.530233E-09 -1.540306E-09
       158  14  3.370891E+04  1.047325E+06  5.516706E+04 -1.509688E+05 -5.477640E-10 -2.423955E-10
       158  15  1.028203E+05  1.054847E+06  1.095630E+05 -1.619424E+05  2.546313E-09 -1.193003E-09
       158  16 -4.158927E+04  8.252450E+05 -1.192319E+03 -1.628909E+05 -1.211956E-09 -3.114502E-09
       158  17  1.061844E+04  9.434428E+05  4.271770E+04 -1.856144E+05  2.897537E-10  7.692815E-10
       158  18  1.092664E+05  1.077128E+06  1.180051E+05 -2.304490E+05  8.145485E-10  1.529558E-09
       158  19  6.287990E+04  1.284595E+06  6.240230E+04 -1.613071E+05 -1.804294E+04  3.996283E+04
       158  20  5.680474E+04  1.151226E+06  6.762542E+04 -1.163177E+05 -9.585793E+03  6.594523E+04
       158  21  9.639402E+04  1.032586E+06  1.011392E+05 -9.343825E+04 -2.147149E+03  9.192184E+04
       158  22  1.064654E+04  1.054893E+06  3.060488E+04 -1.620992E+05 -1.800751E+04  2.024767E+04
       158  23  3.370963E+04  1.047328E+06  5.517164E+04 -1.509692E+05 -9.557478E+03  4.846309E+04
       158  24  1.028219E+05  1.054854E+06  1.095740E+05 -1.619425E+05 -2.128850E+03  7.667730E+04
       158  25 -4.158892E+04  8.252451E+05 -1.191712E+03 -1.628909E+05 -1.797203E+04  5.394541E+02
       158  26  1.061879E+04  9.434439E+05  4.271967E+04 -1.856146E+05 -9.527211E+03  3.098372E+04
       158  27  1.092674E+05  1.077132E+06  1.180122E+05 -2.304491E+05 -2.107193E+03  6.143220E+04
       159   1  1.228933E+06  1.066354E+05  2.194440E+05  9.579415E+03  3.276783E+05  7.257671E+03
       159   2  1.222225E+06 -3.319423E+05 -3.985667E+04  3.172314E+04  2.172572E+05  1.667211E+04
       159   3  1.368177E+06 -2.460531E+05 -9.474235E+04 -6.788754E+04  1.068750E+05  1.260764E+04
       159   4  2.299462E+06  3.728892E+05  4.856001E+05 -4.161268E+04  3.316803E+05  7.248057E+03
       159   5  2.223155E+06 -8.273044E+04  2.076359E+05  2.020208E+04  2.181671E+05  1.666885E+04
       159   6  2.299797E+06 -1.380355E+04  1.359792E+05 -3.972405E+04  1.047057E+05  1.260621E+04
       159   7  3.371035E+06  6.390677E+05  7.516722E+05 -9.289417E+04  3.356887E+05  7.237809E+03
       159   8  3.224994E+06  1.664074E+05  4.550542E+05  8.661622E+03  2.190783E+05  1.666556E+04
       159   9  3.232204E+06  2.183841E+05  3.666367E+05 -1.151876E+04  1.025330E+05  1.260458E+04
       159  10  1.228818E+06  1.066066E+05  2.192426E+05  9.577502E+03 -7.701942E-10  5.528866E-11
       159  11  1.222174E+06 -3.319553E+05 -3.994570E+04  3.172023E+04  6.567971E-11 -1.384000E-11
       159  12  1.368164E+06 -2.460564E+05 -9.476407E+04 -6.788863E+04  1.136384E-09 -5.482593E-10
       159  13  2.299345E+06  3.728597E+05  4.853940E+05 -4.161462E+04 -9.996936E-11 -2.012077E-11
       159  14  2.223104E+06 -8.274346E+04  2.075462E+05  2.019916E+04 -1.015526E-09  2.848405E-10
       159  15  2.299785E+06 -1.380665E+04  1.359584E+05 -3.972511E+04  9.146551E-10 -5.200604E-10
       159  16  3.370914E+06  6.390376E+05  7.514615E+05 -9.289612E+04 -5.054557E-10  7.189134E-11
       159  17  3.224942E+06  1.663943E+05  4.549640E+05  8.658687E+03  6.993460E-10  2.511938E-10
       159  18  3.232193E+06  2.183811E+05  3.666167E+05 -1.151980E+04 -1.247233E-09 -2.760276E-11
       159  19  1.228933E+06  1.066354E+05  2.194440E+05  9.579415E+03 -3.276783E+05 -7.257671E+03
       159  20  1.222225E+06 -3.319423E+05 -3.985667E+04  3.172314E+04 -2.172572E+05 -1.667211E+04
       159  21  1.368177E+06 -2.460531E+05 -9.474235E+04 -6.788754E+04 -1.068750E+05 -1.260764E+04
       159  22  2.299462E+06  3.728892E+05  4.856001E+05 -4.161268E+04 -3.316803E+05 -7.248057E+03
       159  23  2.223155E+06 -8.273044E+04  2.076359E+05  2.020208E+04 -2.181671E+05 -1.666885E+04
       159  24  2.299797E+06 -1.380355E+04  1.359792E+05 -3.972405E+04 -1.047057E+05 -1.260621E+04
       159  25  3.371035E+06  6.390677E+05  7.516722E+05 -9.289417E+04 -3.356887E+05 -7.237809E+03
       159  26  3.224994E+06  1.664074E+05  4.550542E+05  8.661622E+03 -2.190783E+05 -1.666556E+04
       159  27  3.232204E+06  2.183841E+05  3.666367E+05 -1.151876E+04 -1.025330E+05 -1.260458E+04
       160   1  1.609749E+06 -1.110429E+05 -5.164921E+04 -2.506593E+04  8.217483E+04  9.108531E+03
       160   2  1.645198E+06 -1.649064E+05 -9.791780E+04  1.132308E+04  5.424572E+04  8.790577E+03
       160   3  1.705709E+06 -1.428024E+05 -1.065459E+05 -3.560431E+04  2.631328E+04  7.058608E+03
       160   4  2.271426E+06  5.374224E+04  1.121452E+05 -3.181478E+04  8.232724E+04  9.107179E+03
       160   5  2.258904E+06 -1.205450E+04  5.394835E+04  9.882974E+03  5.406520E+04  8.789736E+03
       160   6  2.271477E+06 -1.866537E+03  3.359429E+04 -3.173015E+04  2.580199E+04  7.058425E+03
       160   7  2.933500E+06  2.184949E+05  2.759071E+05 -3.857095E+04  8.247977E+04  9.105825E+03
       160   8  2.872952E+06  1.407694E+05  2.057865E+05  8.441377E+03  5.388448E+04  8.788896E+03
       160   9  2.837535E+06  1.390455E+05  1.737107E+05 -2.785247E+04  2.529023E+04  7.058235E+03
       160  10  1.609742E+06 -1.110448E+05 -5.166202E+04 -2.506654E+04  3.374602E-10  1.213140E-10
       160  11  1.645194E+06 -1.649073E+05 -9.792346E+04  1.132270E+04  2.217767E-09  2.522924E-10
       160  12  1.705708E+06 -1.428027E+05 -1.065473E+05 -3.560445E+04  8.951344E-10 -3.569097E-10
       160  13  2.271419E+06  5.374034E+04  1.121323E+05 -3.181538E+04 -1.176975E-10 -3.652795E-10
       160  14  2.258901E+06 -1.205536E+04  5.394273E+04  9.882592E+03 -1.273044E-10  5.056216E-10
       160  15  2.271476E+06 -1.866768E+03  3.359295E+04 -3.173030E+04 -2.375918E-10 -1.713754E-10
       160  16  2.933492E+06  2.184930E+05  2.758942E+05 -3.857155E+04 -6.235715E-10 -3.151828E-10
       160  17  2.872949E+06  1.407685E+05  2.057810E+05  8.440996E+03  1.608824E-11  5.984820E-10
       160  18  2.837535E+06  1.390453E+05  1.737094E+05 -2.785261E+04 -1.426981E-10  2.947863E-10
       160  19  1.609749E+06 -1.110429E+05 -5.164921E+04 -2.506593E+04 -8.217483E+04 -9.108531E+03
       160  20  1.645198E+06 -1.649064E+05 -9.791780E+04  1.132308E+04 -5.424572E+04 -8.790577E+03
       160  21  1.705709E+06 -1.428024E+05 -1.065459E+05 -3.560431E+04 -2.631328E+04 -7.058608E+03
       160  22  2.271426E+06  5.374224E+04  1.121452E+05 -3.181478E+04 -8.232724E+04 -9.107179E+03
       160  23  2.258904E+06 -1.205450E+04  5.394835E+04  9.882974E+03 -5.406520E+04 -8.789736E+03
       160  24  2.271477E+06 -1.866537E+03  3.359429E+04 -3.173015E+04 -2.580199E+04 -7.058425E+03
       160  25  2.933500E+06  2.184949E+05  2.759071E+05 -3.857095E+04 -8.247977E+04 -9.105825E+03
       160  26  2.872952E+06  1.407694E+05  2.057865E+05  8.441377E+03 -5.388448E+04 -8.788896E+03
       160  27  2.837535E+06  1.390455E+05  1.737107E+05 -2.785247E+04 -2.529023E+04 -7.058235E+03
       161   1  1.894758E+06 -8.499098E+04 -6.521158E+04 -2.587437E+04  2.060124E+04  5.913907E+03
       161   2  1.928257E+06 -8.556498E+04 -6.924885E+04  4.356156E+03  1.342242E+04  4.664163E+03
       161   3  1.965994E+06 -7.508901E+04 -6.575082E+04 -2.723590E+04  6.241787E+03  3.474041E+03
       161   4  2.266890E+06  7.664074E+03  2.677532E+04 -2.697489E+04  2.033149E+04  5.913780E+03
       161   5  2.264775E+06 -1.759671E+03  1.402923E+04  3.933337E+03  1.316173E+04  4.664240E+03
       161   6  2.266894E+06 -1.381294E+02  8.809139E+03 -2.697890E+04  5.990565E+03  3.474296E+03
       161   7  2.639147E+06  1.003088E+05  1.187520E+05 -2.807605E+04  2.006157E+04  5.913655E+03
       161   8  2.601396E+06  8.203719E+04  9.729891E+04  3.510313E+03  1.290089E+04  4.664317E+03
       161   9  2.567876E+06  7.480599E+04  8.336236E+04 -2.672175E+04  5.739221E+03  3.474551E+03
       161  10  1.894758E+06 -8.499113E+04 -6.521244E+04 -2.587447E+04  4.750298E-10 -2.342299E-10
       161  11  1.928257E+06 -8.556505E+04 -6.924923E+04  4.356106E+03  1.023017E-09  1.125094E-10
       161  12  1.965994E+06 -7.508903E+04 -6.575091E+04 -2.723591E+04 -1.671547E-10 -3.089029E-11
       161  13  2.266890E+06  7.663926E+03  2.677448E+04 -2.697499E+04 -1.186321E-10 -1.595418E-10
       161  14  2.264775E+06 -1.759741E+03  1.402886E+04  3.933288E+03  3.695661E-14 -1.615877E-10
       161  15  2.266894E+06 -1.381520E+02  8.809049E+03 -2.697891E+04 -1.222472E-10  3.313210E-10
       161  16  2.639147E+06  1.003087E+05  1.187512E+05 -2.807615E+04 -7.809353E-10  1.742217E-10
       161  17  2.601396E+06  8.203713E+04  9.729855E+04  3.510265E+03 -4.067595E-10  4.916978E-10
       161  18  2.567876E+06  7.480597E+04  8.336228E+04 -2.672176E+04  1.674325E-09  4.565244E-10
       161  19  1.894758E+06 -8.499098E+04 -6.521158E+04 -2.587437E+04 -2.060124E+04 -5.913907E+03
       161  20  1.928257E+06 -8.556498E+04 -6.924885E+04  4.356156E+03 -1.342242E+04 -4.664163E+03
       161  21  1.965994E+06 -7.508901E+04 -6.575082E+04 -2.723590E+04 -6.241787E+03 -3.474041E+03
       161  22  2.266890E+06  7.664074E+03  2.677532E+04 -2.697489E+04 -2.033149E+04 -5.913780E+03
       161  23  2.264775E+06 -1.759671E+03  1.402923E+04  3.933337E+03 -1.316173E+04 -4.664240E+03
       161  24  2.266894E+06 -1.381294E+02  8.809139E+03 -2.697890E+04 -5.990565E+03 -3.474296E+03
       161  25  2.639147E+06  1.003088E+05  1.187520E+05 -2.807605E+04 -2.006157E+04 -5.913655E+03
       161  26  2.601396E+06  8.203719E+04  9.729891E+04  3.510313E+03 -1.290089E+04 -4.664317E+03
       161  27  2.567876E+06  7.480599E+04  8.336236E+04 -2.672175E+04 -5.739221E+03 -3.474551E+03
       162   1  2.116692E+06 -3.607556E+04 -2.975026E+04 -2.439348E+04  4.798620E+03  2.788965E+03
       162   2  2.146059E+06 -3.011369E+04 -2.494853E+04  1.253011E+03  2.427285E+03  1.649846E+03
       162   3  2.176094E+06 -2.217037E+04 -1.813996E+04 -2.466531E+04  5.545071E+01  5.990406E+02
       162   4  2.266123E+06  1.114181E+03  7.124080E+03 -2.469698E+04  4.542250E+03  2.789330E+03
       162   5  2.265791E+06 -2.997294E+02  4.678971E+03  1.084467E+03  2.189547E+03  1.650239E+03
       162   6  2.266121E+06  2.643091E+02  4.227405E+03 -2.469828E+04 -1.635414E+02  5.994569E+02
       162   7  2.415574E+06  3.830226E+04  4.399677E+04 -2.500054E+04  4.285818E+03  2.789695E+03
       162   8  2.385535E+06  2.951316E+04  3.430541E+04  9.158967E+02  1.951764E+03  1.650632E+03
       162   9  2.356156E+06  2.269838E+04  2.659416E+04 -2.473124E+04 -3.825651E+02  5.998732E+02
       162  10  2.116692E+06 -3.607557E+04 -2.975032E+04 -2.439349E+04 -7.770697E-10  9.723959E-10
       162  11  2.146059E+06 -3.011370E+04 -2.494855E+04  1.253008E+03  2.043665E-09  5.246248E-10
       162  12  2.176094E+06 -2.217037E+04 -1.813996E+04 -2.466531E+04  8.541391E-10  5.015922E-10
       162  13  2.266123E+06  1.114167E+03  7.124027E+03 -2.469699E+04 -1.008607E-09  2.835143E-10
       162  14  2.265791E+06 -2.997336E+02  4.678957E+03  1.084465E+03  1.515863E-09  7.281652E-10
       162  15  2.266121E+06  2.643087E+02  4.227404E+03 -2.469828E+04 -1.188789E-10  3.235321E-10
       162  16  2.415574E+06  3.830225E+04  4.399672E+04 -2.500055E+04  7.049003E-10  6.695029E-10
       162  17  2.385535E+06  2.951316E+04  3.430540E+04  9.158941E+02 -1.210408E-09  7.375694E-10
       162  18  2.356156E+06  2.269838E+04  2.659416E+04 -2.473124E+04 -1.067897E-10  2.920511E-10
       162  19  2.116692E+06 -3.607556E+04 -2.975026E+04 -2.439348E+04 -4.798620E+03 -2.788965E+03
       162  20  2.146059E+06 -3.011369E+04 -2.494853E+04  1.253011E+03 -2.427285E+03 -1.649846E+03
       162  21  2.176094E+06 -2.217037E+04 -1.813996E+04 -2.466531E+04 -5.545071E+01 -5.990406E+02
       162  22  2.266123E+06  1.114181E+03  7.124080E+03 -2.469698E+04 -4.542250E+03 -2.789330E+03
       162  23  2.265791E+06 -2.997294E+02  4.678971E+03  1.084467E+03 -2.189547E+03 -1.650239E+03
       162  24  2.266121E+06  2.643091E+02  4.227405E+03 -2.469828E+04  1.635414E+02 -5.994569E+02
       162  25  2.415574E+06  3.830226E+04  4.399677E+04 -2.500054E+04 -4.285818E+03 -2.789695E+03
       162  26  2.385535E+06  2.951316E+04  3.430541E+04  9.158967E+02 -1.951764E+03 -1.650632E+03
       162  27  2.356156E+06  2.269838E+04  2.659416E+04 -2.473124E+04  3.825651E+02 -5.998732E+02
       163   1  2.312591E+06  1.176038E+04  1.598671E+04 -2.441508E+04 -7.245674E+02  1.162568E+01
       163   2  2.341324E+06  1.843338E+04  2.439456E+04  6.875192E+02 -3.580972E+03 -1.038658E+03
       163   3  2.370862E+06  2.762127E+04  3.524510E+04 -2.477788E+04 -6.437286E+03 -2.135732E+03
       163   4  2.266155E+06  1.810078E+02  4.405834E+03 -2.447739E+04 -9.481092E+02  1.206018E+01
       163   5  2.265752E+06 -3.825000E+02  5.696558E+03  8.079927E+02 -3.814360E+03 -1.038242E+03
       163   6  2.266154E+06  1.570841E+03  9.437099E+03 -2.447500E+04 -6.680389E+03 -2.135336E+03
       163   7  2.219722E+06 -1.139853E+04 -7.175204E+03 -2.453970E+04 -1.171634E+03  1.249475E+01
       163   8  2.190184E+06 -1.919881E+04 -1.300187E+04  9.284539E+02 -4.047720E+03 -1.037826E+03
       163   9  2.161456E+06 -2.448040E+04 -1.637171E+04 -2.417216E+04 -6.923450E+03 -2.134939E+03
       163  10  2.312591E+06  1.176038E+04  1.598671E+04 -2.441508E+04 -6.559846E-10  4.457660E-10
       163  11  2.341324E+06  1.843338E+04  2.439453E+04  6.875162E+02  7.813497E-10  4.500884E-10
       163  12  2.370862E+06  2.762125E+04  3.524501E+04 -2.477789E+04 -1.773630E-09 -3.848021E-12
       163  13  2.266155E+06  1.810076E+02  4.405832E+03 -2.447739E+04  9.076072E-10  5.238741E-10
       163  14  2.265752E+06 -3.825051E+02  5.696529E+03  8.079895E+02  4.369510E-10  2.283540E-10
       163  15  2.266154E+06  1.570824E+03  9.437006E+03 -2.447501E+04  4.717766E-10  3.082713E-10
       163  16  2.219722E+06 -1.139853E+04 -7.175207E+03 -2.453970E+04 -1.525733E-10 -1.342500E-11
       163  17  2.190184E+06 -1.919881E+04 -1.300190E+04  9.284505E+02 -2.384443E-10 -1.327737E-10
       163  18  2.161456E+06 -2.448042E+04 -1.637181E+04 -2.417217E+04  7.910043E-10 -3.106736E-10
       163  19  2.312591E+06  1.176038E+04  1.598671E+04 -2.441508E+04  7.245674E+02 -1.162568E+01
       163  20  2.341324E+06  1.843338E+04  2.439456E+04  6.875192E+02  3.580972E+03  1.038658E+03
       163  21  2.370862E+06  2.762127E+04  3.524510E+04 -2.477788E+04  6.437286E+03  2.135732E+03
       163  22  2.266155E+06  1.810078E+02  4.405834E+03 -2.447739E+04  9.481092E+02 -1.206018E+01
       163  23  2.265752E+06 -3.825000E+02  5.696558E+03  8.079927E+02  3.814360E+03  1.038242E+03
       163  24  2.266154E+06  1.570841E+03  9.437099E+03 -2.447500E+04  6.680389E+03  2.135336E+03
       163  25  2.219722E+06 -1.139853E+04 -7.175204E+03 -2.453970E+04  1.171634E+03 -1.249475E+01
       163  26  2.190184E+06 -1.919881E+04 -1.300187E+04  9.284539E+02  4.047720E+03  1.037826E+03
       163  27  2.161456E+06 -2.448040E+04 -1.637171E+04 -2.417216E+04  6.923450E+03  2.134939E+03
       164   1  2.517857E+06  6.217169E+04  7.397264E+04 -2.576496E+04 -8.368498E+03 -2.792113E+03
       164   2  2.548937E+06  6.838977E+04  8.970425E+04  2.538503E+03 -1.824040E+04 -3.933263E+03
       164   3  2.585455E+06  8.997565E+04  1.157482E+05 -2.782345E+04 -2.811152E+04 -5.108798E+03
       164   4  2.267168E+06 -2.526116E+02  1.186216E+04 -2.627995E+04 -8.612772E+03 -2.791784E+03
       164   5  2.264442E+06 -2.434129E+03  1.932682E+04  3.058163E+03 -1.848813E+04 -3.933094E+03
       164   6  2.267155E+06  1.075689E+04  3.710992E+04 -2.627077E+04 -2.836218E+04 -5.108824E+03
       164   7  2.016536E+06 -6.268160E+04 -5.025300E+04 -2.679472E+04 -8.856947E+03 -2.791455E+03
       164   8  1.980019E+06 -7.326406E+04 -5.105662E+04  3.577607E+03 -1.873575E+04 -3.932925E+03
       164   9  1.948947E+06 -6.846939E+04 -4.153584E+04 -2.471885E+04 -2.861271E+04 -5.108851E+03
       164  10  2.517857E+06  6.217166E+04  7.397250E+04 -2.576497E+04 -2.793741E-11 -4.153758E-10
       164  11  2.548937E+06  6.838967E+04  8.970360E+04  2.538446E+03  2.097807E-09 -2.173068E-10
       164  12  2.585454E+06  8.997541E+04  1.157467E+05 -2.782357E+04  2.500556E-10 -4.850198E-10
       164  13  2.267168E+06 -2.526398E+02  1.186200E+04 -2.627997E+04  1.416736E-09 -5.189862E-10
       164  14  2.264441E+06 -2.434237E+03  1.932615E+04  3.058105E+03 -8.739784E-10 -2.161201E-10
       164  15  2.267154E+06  1.075665E+04  3.710837E+04 -2.627088E+04 -1.641088E-09 -2.595129E-10
       164  16  2.016536E+06 -6.268163E+04 -5.025317E+04 -2.679474E+04 -1.479780E-10  1.728477E-10
       164  17  1.980019E+06 -7.326417E+04 -5.105731E+04  3.577548E+03 -1.788643E-09  3.410387E-10
       164  18  1.948946E+06 -6.846964E+04 -4.153742E+04 -2.471897E+04 -1.864622E-09 -1.605373E-10
       164  19  2.517857E+06  6.217169E+04  7.397264E+04 -2.576496E+04  8.368498E+03  2.792113E+03
       164  20  2.548937E+06  6.838977E+04  8.970425E+04  2.538503E+03  1.824040E+04  3.933263E+03
       164  21  2.585455E+06  8.997565E+04  1.157482E+05 -2.782345E+04  2.811152E+04  5.108798E+03
       164  22  2.267168E+06 -2.526116E+02  1.186216E+04 -2.627995E+04  8.612772E+03  2.791784E+03
       164  23  2.264442E+06 -2.434129E+03  1.932682E+04  3.058163E+03  1.848813E+04  3.933094E+03
       164  24  2.267155E+06  1.075689E+04  3.710992E+04 -2.627077E+04  2.836218E+04  5.108824E+03
       164  25  2.016536E+06 -6.268160E+04 -5.025300E+04 -2.679472E+04  8.856947E+03  2.791455E+03
       164  26  1.980019E+06 -7.326406E+04 -5.105662E+04  3.577607E+03  1.873575E+04  3.932925E+03
       164  27  1.948947E+06 -6.846939E+04 -4.153584E+04 -2.471885E+04  2.861271E+04  5.108851E+03
       165   1  2.773326E+06  1.218496E+05  1.703248E+05 -2.511961E+04 -3.546183E+04 -6.170794E+03
       165   2  2.801190E+06  1.188105E+05  2.097124E+05  5.857472E+03 -7.506109E+04 -7.785801E+03
       165   3  2.862469E+06  2.215924E+05  3.016256E+05 -4.057700E+04 -1.146627E+05 -8.123737E+03
       165   4  2.273335E+06 -2.616612E+03  4.655213E+04 -3.042457E+04 -3.593308E+04 -6.170569E+03
       165   5  2.256598E+06 -1.673435E+04  7.504443E+04  8.245510E+03 -7.522529E+04 -7.786583E+03
       165   6  2.273249E+06  7.496578E+04  1.558833E+05 -3.049951E+04 -1.145170E+05 -8.125999E+03
       165   7  1.773570E+06 -1.271014E+05 -7.723911E+04 -3.572524E+04 -3.640394E+04 -6.170336E+03
       165   8  1.712274E+06 -1.523013E+05 -5.964549E+04  1.063144E+04 -7.538933E+04 -7.787366E+03
       165   9  1.684343E+06 -7.168634E+04  1.011534E+04 -2.043163E+04 -1.143715E+05 -8.128259E+03
       165  10  2.773324E+06  1.218492E+05  1.703224E+05 -2.511978E+04 -4.494722E-10 -3.877992E-10
       165  11  2.801184E+06  1.188090E+05  2.097017E+05  5.857002E+03  2.504842E-09  2.086355E-10
       165  12  2.862455E+06  2.215889E+05  3.016009E+05 -4.057775E+04  6.063019E-10  3.687255E-10
       165  13  2.273333E+06 -2.616998E+03  4.654964E+04 -3.042474E+04 -2.459829E-09  1.691020E-10
       165  14  2.256592E+06 -1.673592E+04  7.503373E+04  8.245038E+03  1.013130E-10  7.664402E-11
       165  15  2.273235E+06  7.496221E+04  1.558586E+05 -3.050026E+04 -4.341194E-10  2.778381E-10
       165  16  1.773568E+06 -1.271018E+05 -7.724167E+04 -3.572542E+04 -5.524756E-10  6.882829E-10
       165  17  1.712268E+06 -1.523029E+05 -5.965626E+04  1.063096E+04  4.640847E-10 -9.282282E-11
       165  18  1.684329E+06 -7.168991E+04  1.009070E+04 -2.043238E+04 -1.248186E-09  3.867959E-10
       165  19  2.773326E+06  1.218496E+05  1.703248E+05 -2.511961E+04  3.546183E+04  6.170794E+03
       165  20  2.801190E+06  1.188105E+05  2.097124E+05  5.857472E+03  7.506109E+04  7.785801E+03
       165  21  2.862469E+06  2.215924E+05  3.016256E+05 -4.057700E+04  1.146627E+05  8.123737E+03
       165  22  2.273335E+06 -2.616612E+03  4.655213E+04 -3.042457E+04  3.593308E+04  6.170569E+03
       165  23  2.256598E+06 -1.673435E+04  7.504443E+04  8.245510E+03  7.522529E+04  7.786583E+03
       165  24  2.273249E+06  7.496578E+04  1.558833E+05 -3.049951E+04  1.145170E+05  8.125999E+03
       165  25  1.773570E+06 -1.271014E+05 -7.723911E+04 -3.572524E+04  3.640394E+04  6.170336E+03
       165  26  1.712274E+06 -1.523013E+05 -5.964549E+04  1.063144E+04  7.538933E+04  7.787366E+03
       165  27  1.684343E+06 -7.168634E+04  1.011534E+04 -2.043163E+04  1.143715E+05  8.128259E+03
       166   1  3.150728E+06  1.897234E+05  3.963445E+05  5.015433E+02 -1.436462E+05 -1.133648E+04
       166   2  3.110264E+06  1.095410E+05  5.119030E+05 -3.604104E+02 -3.042835E+05 -1.516967E+04
       166   3  3.278415E+06  7.586086E+05  9.151653E+05 -1.136711E+05 -4.649715E+05 -6.892776E+03
       166   4  2.312174E+06 -1.911769E+04  1.888931E+05 -3.758839E+04 -1.455919E+05 -1.133199E+04
       166   5  2.207723E+06 -1.148937E+05  2.890041E+05  1.756124E+04 -3.034071E+05 -1.517814E+04
       166   6  2.311689E+06  5.186441E+05  6.751670E+05 -3.973479E+04 -4.612557E+05 -6.935310E+03
       166   7  1.474258E+06 -2.280059E+05 -1.860960E+04 -7.562730E+04 -1.475349E+05 -1.132726E+04
       166   8  1.305920E+06 -3.393876E+05  6.604521E+04  3.545637E+04 -3.025316E+05 -1.518656E+04
       166   9  1.345819E+06  2.786309E+05  4.351024E+05  3.408606E+04 -4.575453E+05 -6.977027E+03
       166  10  3.150706E+06  1.897178E+05  3.963056E+05  5.002339E+02  7.603066E-10  8.430836E-10
       166  11  3.110165E+06  1.095161E+05  5.117295E+05 -3.641218E+02 -1.551519E-11 -8.068006E-11
       166  12  3.278184E+06  7.585509E+05  9.147610E+05 -1.136737E+05 -3.405765E-11 -7.575526E-10
       166  13  2.312151E+06 -1.912349E+04  1.888532E+05 -3.758972E+04  1.094474E-09  1.817386E-10
       166  14  2.207624E+06 -1.149185E+05  2.888314E+05  1.755753E+04 -6.536414E-10 -3.613291E-10
       166  15  2.311461E+06  5.185872E+05  6.747686E+05 -3.973736E+04 -1.344297E-10  3.533265E-11
       166  16  1.474234E+06 -2.280118E+05 -1.865065E+04 -7.562865E+04  4.865608E-10  6.161522E-12
       166  17  1.305821E+06 -3.394124E+05  6.587317E+04  3.545267E+04  2.259843E-10  9.974527E-10
       166  18  1.345595E+06  2.785748E+05  4.347097E+05  3.408349E+04  9.459242E-10  1.035738E-10
       166  19  3.150728E+06  1.897234E+05  3.963445E+05  5.015433E+02  1.436462E+05  1.133648E+04
       166  20  3.110264E+06  1.095410E+05  5.119030E+05 -3.604104E+02  3.042835E+05  1.516967E+04
       166  21  3.278415E+06  7.586086E+05  9.151653E+05 -1.136711E+05  4.649715E+05  6.892776E+03
       166  22  2.312174E+06 -1.911769E+04  1.888931E+05 -3.758839E+04  1.455919E+05  1.133199E+04
       166  23  2.207723E+06 -1.148937E+05  2.890041E+05  1.756124E+04  3.034071E+05  1.517814E+04
       166  24  2.311689E+06  5.186441E+05  6.751670E+05 -3.973479E+04  4.612557E+05  6.935310E+03
       166  25  1.474258E+06 -2.280059E+05 -1.860960E+04 -7.562730E+04  1.475349E+05  1.132726E+04
       166  26  1.305920E+06 -3.393876E+05  6.604521E+04  3.545637E+04  3.025316E+05  1.518656E+04
       166  27  1.345819E+06  2.786309E+05  4.351024E+05  3.408606E+04  4.575453E+05  6.977027E+03
       167   1 -2.524997E+04  1.709585E+04 -2.607478E+02 -4.036100E+03 -2.621732E+03  7.035491E+04
       167   2 -1.222927E+05  1.211782E+04 -5.712405E+04 -5.712988E+03 -6.780486E+03  4.625371E+04
       167   3 -1.038024E+05  4.046281E+04 -6.915971E+04  1.309183E+04 -5.707801E+03  2.217825E+04
       167   4  8.174062E+04  4.460295E+05  1.065974E+05  6.371394E+03 -2.628419E+03  7.188012E+04
       167   5 -1.823640E+04  4.292842E+05  4.621422E+04 -4.091616E+03 -6.781788E+03  4.663352E+04
       167   6 -2.523077E+03  4.460395E+05  3.143189E+04  5.926062E+03 -5.704580E+03  2.141315E+04
       167   7  1.887179E+05  8.751302E+05  2.134419E+05  1.678630E+04 -2.635052E+03  7.340637E+04
       167   8  8.580687E+04  8.466086E+05  1.495395E+05 -2.468963E+03 -6.783088E+03  4.701358E+04
       167   9  9.874410E+04  8.517655E+05  1.320112E+05 -1.244231E+03 -5.701342E+03  2.064754E+04
       167  10 -2.525131E+04  1.709053E+04 -2.700620E+02 -4.035952E+03  1.240678E-09  5.703385E-10
       167  11 -1.222933E+05  1.211551E+04 -5.712816E+04 -5.712736E+03 -2.737332E-10 -3.347927E-10
       167  12 -1.038026E+05  4.046228E+04 -6.916070E+04  1.309193E+04  4.328839E-10 -9.326800E-10
       167  13  8.173923E+04  4.460239E+05  1.065877E+05  6.371546E+03  2.806527E-09 -1.035665E-10
       167  14 -1.823704E+04  4.292819E+05  4.621005E+04 -4.091361E+03  1.707737E-09  2.940463E-11
       167  15 -2.523235E+03  4.460390E+05  3.143097E+04  5.926160E+03  8.531559E-10  1.491681E-11
       167  16  1.887164E+05  8.751244E+05  2.134318E+05  1.678646E+04  1.524689E-09 -6.063812E-10
       167  17  8.580622E+04  8.466063E+05  1.495353E+05 -2.468707E+03  6.785400E-09  9.293324E-11
       167  18  9.874395E+04  8.517650E+05  1.320104E+05 -1.244137E+03  2.783011E-10  8.062208E-10
       167  19 -2.524997E+04  1.709585E+04 -2.607478E+02 -4.036100E+03  2.621732E+03 -7.035491E+04
       167  20 -1.222927E+05  1.211782E+04 -5.712405E+04 -5.712988E+03  6.780486E+03 -4.625371E+04
       167  21 -1.038024E+05  4.046281E+04 -6.915971E+04  1.309183E+04  5.707801E+03 -2.217825E+04
       167  22  8.174062E+04  4.460295E+05  1.065974E+05  6.371394E+03  2.628419E+03 -7.188012E+04
       167  23 -1.823640E+04  4.292842E+05  4.621422E+04 -4.091616E+03  6.781788E+03 -4.663352E+04
       167  24 -2.523077E+03  4.460395E+05  3.143189E+04  5.926062E+03  5.704580E+03 -2.141315E+04
       167  25  1.887179E+05  8.751302E+05  2.134419E+05  1.678630E+04  2.635052E+03 -7.340637E+04
       167  26  8.580687E+04  8.466086E+05  1.495395E+05 -2.468963E+03  6.783088E+03 -4.701358E+04
       167  27  9.874410E+04  8.517655E+05  1.320112E+05 -1.244231E+03  5.701342E+03 -2.064754E+04
       168   1 -7.714306E+04  8.440486E+04 -6.155659E+04  4.373385E+03 -4.717244E+03  1.598520E+04
       168   2 -8.987632E+04  9.033751E+04 -7.047833E+04 -2.509111E+03 -5.011917E+03  8.177950E+03
       168   3 -8.068304E+04  1.036389E+05 -6.866072E+04  7.357265E+03 -4.212197E+03  3.739803E+02
       168   4  1.164897E+04  4.402501E+05  2.672213E+04  5.267250E+03 -4.717780E+03  1.617993E+04
       168   5 -3.486506E+03  4.365461E+05  1.534891E+04 -3.124382E+03 -5.011583E+03  8.132249E+03
       168   6  3.339808E+03  4.402491E+05  1.487777E+04  5.232244E+03 -4.211223E+03  8.796473E+01
       168   7  1.004315E+05  7.962103E+05  1.149914E+05  6.161739E+03 -4.718316E+03  1.637478E+04
       168   8  8.289433E+04  7.828635E+05  1.011672E+05 -3.739903E+03 -5.011248E+03  8.086522E+03
       168   9  8.735418E+04  7.769621E+05  9.840780E+04  3.106144E+03 -4.210247E+03 -1.982057E+02
       168  10 -7.714315E+04  8.440458E+04 -6.155711E+04  4.373445E+03 -1.383360E-09  1.102916E-09
       168  11 -8.987636E+04  9.033743E+04 -7.047851E+04 -2.509078E+03 -1.826165E-09  1.548272E-10
       168  12 -8.068306E+04  1.036389E+05 -6.866076E+04  7.357266E+03 -1.331904E-10 -9.132112E-10
       168  13  1.164888E+04  4.402499E+05  2.672160E+04  5.267311E+03 -1.495333E-09  3.204601E-11
       168  14 -3.486551E+03  4.365460E+05  1.534874E+04 -3.124349E+03 -1.061651E-10 -8.258786E-11
       168  15  3.339789E+03  4.402491E+05  1.487774E+04  5.232244E+03 -1.160800E-09  9.354827E-11
       168  16  1.004314E+05  7.962100E+05  1.149909E+05  6.161801E+03 -1.914715E-09 -1.093917E-09
       168  17  8.289429E+04  7.828634E+05  1.011671E+05 -3.739871E+03 -1.270126E-09 -1.177730E-11
       168  18  8.735416E+04  7.769621E+05  9.840777E+04  3.106144E+03 -2.244728E-10  8.597477E-10
       168  19 -7.714306E+04  8.440486E+04 -6.155659E+04  4.373385E+03  4.717244E+03 -1.598520E+04
       168  20 -8.987632E+04  9.033751E+04 -7.047833E+04 -2.509111E+03  5.011917E+03 -8.177950E+03
       168  21 -8.068304E+04  1.036389E+05 -6.866072E+04  7.357265E+03  4.212197E+03 -3.739803E+02
       168  22  1.164897E+04  4.402501E+05  2.672213E+04  5.267250E+03  4.717780E+03 -1.617993E+04
       168  23 -3.486506E+03  4.365461E+05  1.534891E+04 -3.124382E+03  5.011583E+03 -8.132249E+03
       168  24  3.339808E+03  4.402491E+05  1.487777E+04  5.232244E+03  4.211223E+03 -8.796473E+01
       168  25  1.004315E+05  7.962103E+05  1.149914E+05  6.161739E+03  4.718316E+03 -1.637478E+04
       168  26  8.289433E+04  7.828635E+05  1.011672E+05 -3.739903E+03  5.011248E+03 -8.086522E+03
       168  27  8.735418E+04  7.769621E+05  9.840780E+04  3.106144E+03  4.210247E+03  1.982057E+02
       169   1 -7.292584E+04  1.461012E+05 -5.817285E+04  3.123561E+03 -4.363145E+03 -2.946891E+03
       169   2 -7.779971E+04  1.483613E+05 -5.420358E+04 -9.060517E+02 -4.408085E+03 -1.145260E+04
       169   3 -4.361390E+04  1.620731E+05 -3.481512E+04  9.048296E+03 -1.406934E+03 -1.995263E+04
       169   4  6.867489E+02  4.411823E+05  1.495701E+04  4.609572E+03 -4.363932E+03 -2.604078E+03
       169   5 -6.180510E+03  4.353977E+05  1.691069E+04 -2.358503E+03 -4.407218E+03 -1.177154E+04
       169   6  2.611732E+04  4.411750E+05  3.473801E+04  4.656946E+03 -1.404952E+03 -2.093323E+04
       169   7  7.429283E+04  7.363423E+05  8.808040E+04  6.096341E+03 -4.364717E+03 -2.261102E+03
       169   8  6.543253E+04  7.225088E+05  8.801882E+04 -3.811584E+03 -4.406350E+03 -1.209063E+04
       169   9  9.584275E+04  7.203476E+05  1.042853E+05  2.636548E+02 -1.402956E+03 -2.191427E+04
       169  10 -7.292586E+04  1.461012E+05 -5.817290E+04  3.123551E+03  5.607716E-10  8.997047E-11
       169  11 -7.779977E+04  1.483612E+05 -5.420386E+04 -9.060924E+02  2.430360E-09  8.572002E-11
       169  12 -4.361401E+04  1.620726E+05 -3.481587E+04  9.048274E+03  5.237579E-10 -2.030638E-10
       169  13  6.867267E+02  4.411822E+05  1.495697E+04  4.609563E+03  1.000833E-09  4.531881E-11
       169  14 -6.180568E+03  4.353975E+05  1.691039E+04 -2.358545E+03  2.223077E-09 -1.485827E-11
       169  15  2.611720E+04  4.411745E+05  3.473718E+04  4.656923E+03  1.642745E-10  1.938194E-11
       169  16  7.429281E+04  7.363423E+05  8.808035E+04  6.096333E+03 -1.458032E-09  4.890488E-11
       169  17  6.543247E+04  7.225086E+05  8.801850E+04 -3.811627E+03  1.572747E-09 -9.473089E-11
       169  18  9.584262E+04  7.203471E+05  1.042844E+05  2.636301E+02  9.700630E-10  1.246699E-10
       169  19 -7.292584E+04  1.461012E+05 -5.817285E+04  3.123561E+03  4.363145E+03  2.946891E+03
       169  20 -7.779971E+04  1.483613E+05 -5.420358E+04 -9.060517E+02  4.408085E+03  1.145260E+04
       169  21 -4.361390E+04  1.620731E+05 -3.481512E+04  9.048296E+03  1.406934E+03  1.995263E+04
       169  22  6.867489E+02  4.411823E+05  1.495701E+04  4.609572E+03  4.363932E+03  2.604078E+03
       169  23 -6.180510E+03  4.353977E+05  1.691069E+04 -2.358503E+03  4.407218E+03  1.177154E+04
       169  24  2.611732E+04  4.411750E+05  3.473801E+04  4.656946E+03  1.404952E+03  2.093323E+04
       169  25  7.429283E+04  7.363423E+05  8.808040E+04  6.096341E+03  4.364717E+03  2.261102E+03
       169  26  6.543253E+04  7.225088E+05  8.801882E+04 -3.811584E+03  4.406350E+03  1.209063E+04
       169  27  9.584275E+04  7.203476E+05  1.042853E+05  2.636548E+02  1.402956E+03  2.191427E+04
       170   1 -2.592154E+06 -8.226225E+05 -5.996991E+05 -8.407261E+05 -3.168491E+05 -1.184717E+05
       170   2 -2.497091E+06 -3.911032E+05 -3.085814E+05 -9.598193E+05 -2.053555E+05 -7.110303E+04
       170   3 -2.626154E+06 -4.328135E+05 -2.379330E+05 -9.231844E+05 -9.224087E+04 -2.799909E+04
       170   4 -2.261245E+06 -6.472632E+05 -4.984683E+05 -7.000597E+05 -3.156904E+05 -1.180613E+05
       170   5 -2.123760E+06 -2.362251E+05 -2.035631E+05 -8.443408E+05 -2.050034E+05 -7.097453E+04
       170   6 -2.210133E+06 -2.980838E+05 -1.283929E+05 -8.329310E+05 -9.268719E+04 -2.816458E+04
       170   7 -1.930224E+06 -4.718628E+05 -3.972487E+05 -5.593154E+05 -3.145309E+05 -1.176504E+05
       170   8 -1.750293E+06 -8.133139E+04 -9.855809E+04 -7.287970E+05 -2.046510E+05 -7.084592E+04
       170   9 -1.793946E+06 -1.633543E+05 -1.886685E+04 -7.426280E+05 -9.313383E+04 -2.833014E+04
       170  10 -2.592266E+06 -8.226648E+05 -5.999151E+05 -8.407564E+05  5.777266E-10  5.427069E-13
       170  11 -2.497138E+06 -3.911201E+05 -3.086706E+05 -9.598311E+05  1.101182E-09 -1.679856E-11
       170  12 -2.626163E+06 -4.328166E+05 -2.379506E+05 -9.231864E+05  1.705089E-09  3.708970E-10
       170  13 -2.261356E+06 -6.473051E+05 -4.986827E+05 -7.000898E+05  4.203816E-10 -7.867494E-12
       170  14 -2.123806E+06 -2.362419E+05 -2.036519E+05 -8.443526E+05 -1.124463E-09 -3.672741E-10
       170  15 -2.210143E+06 -2.980870E+05 -1.284106E+05 -8.329331E+05  3.016264E-09 -1.846810E-11
       170  16 -1.930335E+06 -4.719044E+05 -3.974613E+05 -5.593452E+05 -1.126440E-09 -2.963558E-10
       170  17 -1.750340E+06 -8.134809E+04 -9.864652E+04 -7.288087E+05  9.912829E-10  1.444765E-10
       170  18 -1.793955E+06 -1.633575E+05 -1.888472E+04 -7.426301E+05 -1.023711E-09  3.055108E-10
       170  19 -2.592154E+06 -8.226225E+05 -5.996991E+05 -8.407261E+05  3.168491E+05  1.184717E+05
       170  20 -2.497091E+06 -3.911032E+05 -3.085814E+05 -9.598193E+05  2.053555E+05  7.110303E+04
       170  21 -2.626154E+06 -4.328135E+05 -2.379330E+05 -9.231844E+05  9.224087E+04  2.799909E+04
       170  22 -2.261245E+06 -6.472632E+05 -4.984683E+05 -7.000597E+05  3.156904E+05  1.180613E+05
       170  23 -2.123760E+06 -2.362251E+05 -2.035631E+05 -8.443408E+05  2.050034E+05  7.097453E+04
       170  24 -2.210133E+06 -2.980838E+05 -1.283929E+05 -8.329310E+05  9.268719E+04  2.816458E+04
       170  25 -1.930224E+06 -4.718628E+05 -3.972487E+05 -5.593154E+05  3.145309E+05  1.176504E+05
       170  26 -1.750293E+06 -8.133139E+04 -9.855809E+04 -7.287970E+05  2.046510E+05  7.084592E+04
       170  27 -1.793946E+06 -1.633543E+05 -1.886685E+04 -7.426280E+05  9.313383E+04  2.833014E+04
       171   1 -2.636877E+06 -5.367228E+05 -2.299229E+05 -9.340365E+05 -7.353099E+04 -2.120110E+04
       171   2 -2.623540E+06 -4.744934E+05 -1.729221E+05 -9.523313E+05 -4.825597E+04 -1.055378E+04
       171   3 -2.644063E+06 -4.802356E+05 -1.546360E+05 -9.462857E+05 -2.254539E+04 -1.055201E+03
       171   4 -2.189983E+06 -3.598131E+05 -1.056940E+05 -8.044528E+05 -7.326700E+04 -2.110232E+04
       171   5 -2.169373E+06 -3.003062E+05 -4.791317E+04 -8.262922E+05 -4.820582E+04 -1.053536E+04
       171   6 -2.182560E+06 -3.086958E+05 -2.865547E+04 -8.237974E+05 -2.270889E+04 -1.117165E+03
       171   7 -1.742898E+06 -1.828873E+05  1.851604E+04 -6.747832E+05 -7.300278E+04 -2.100345E+04
       171   8 -1.715008E+06 -1.261059E+05  7.707675E+04 -7.001695E+05 -4.815563E+04 -1.051691E+04
       171   9 -1.720851E+06 -1.371455E+05  9.730596E+04 -7.012276E+05 -2.287252E+04 -1.179174E+03
       171  10 -2.636883E+06 -5.367248E+05 -2.299340E+05 -9.340378E+05  6.716710E-10  4.405608E-10
       171  11 -2.623542E+06 -4.744942E+05 -1.729267E+05 -9.523317E+05  2.048391E-09 -1.810669E-10
       171  12 -2.644064E+06 -4.802358E+05 -1.546370E+05 -9.462857E+05  2.414974E-09 -3.963693E-10
       171  13 -2.189989E+06 -3.598150E+05 -1.057050E+05 -8.044540E+05 -6.569160E-10  5.669644E-10
       171  14 -2.169376E+06 -3.003070E+05 -4.791777E+04 -8.262926E+05  1.265382E-11 -6.568634E-10
       171  15 -2.182560E+06 -3.086959E+05 -2.865644E+04 -8.237974E+05 -6.184173E-10 -3.483468E-11
       171  16 -1.742903E+06 -1.828892E+05  1.850516E+04 -6.747844E+05 -7.656174E-10  2.133460E-10
       171  17 -1.715011E+06 -1.261066E+05  7.707217E+04 -7.001699E+05 -1.667108E-09 -1.988587E-11
       171  18 -1.720852E+06 -1.371457E+05  9.730497E+04 -7.012276E+05  1.386852E-09 -3.350735E-10
       171  19 -2.636877E+06 -5.367228E+05 -2.299229E+05 -9.340365E+05  7.353099E+04  2.120110E+04
       171  20 -2.623540E+06 -4.744934E+05 -1.729221E+05 -9.523313E+05  4.825597E+04  1.055378E+04
       171  21 -2.644063E+06 -4.802356E+05 -1.546360E+05 -9.462857E+05  2.254539E+04  1.055201E+03
       171  22 -2.189983E+06 -3.598131E+05 -1.056940E+05 -8.044528E+05  7.326700E+04  2.110232E+04
       171  23 -2.169373E+06 -3.003062E+05 -4.791317E+04 -8.262922E+05  4.820582E+04  1.053536E+04
       171  24 -2.182560E+06 -3.086958E+05 -2.865547E+04 -8.237974E+05  2.270889E+04  1.117165E+03
       171  25 -1.742898E+06 -1.828873E+05  1.851604E+04 -6.747832E+05  7.300278E+04  2.100345E+04
       171  26 -1.715008E+06 -1.261059E+05  7.707675E+04 -7.001695E+05  4.815563E+04  1.051691E+04
       171  27 -1.720851E+06 -1.371455E+05  9.730596E+04 -7.012276E+05  2.287252E+04  1.179174E+03
       172   1 -2.615807E+06 -4.888216E+05 -1.437539E+05 -9.445871E+05 -1.845135E+04  3.066707E+02
       172   2 -2.611018E+06 -4.684803E+05 -1.293546E+05 -9.361863E+05 -1.249845E+04  2.500106E+03
       172   3 -2.595910E+06 -4.722462E+05 -1.219574E+05 -9.402807E+05 -6.306044E+03  4.054896E+03
       172   4 -2.175939E+06 -3.211624E+05 -2.286700E+04 -8.235837E+05 -1.840442E+04  3.239692E+02
       172   5 -2.180574E+06 -3.053703E+05 -1.126325E+04 -8.187491E+05 -1.257614E+04  2.470528E+03
       172   6 -2.174863E+06 -3.136545E+05 -6.558399E+03 -8.264093E+05 -6.508526E+03  3.978594E+03
       172   7 -1.735885E+06 -1.534914E+05  9.800211E+04 -7.025027E+05 -1.835745E+04  3.412834E+02
       172   8 -1.749953E+06 -1.422497E+05  1.068111E+05 -7.012384E+05 -1.265388E+04  2.440928E+03
       172   9 -1.753648E+06 -1.550534E+05  1.088243E+05 -7.124685E+05 -6.711160E+03  3.902236E+03
       172  10 -2.615807E+06 -4.888217E+05 -1.437545E+05 -9.445871E+05  6.274097E-10  1.944190E-10
       172  11 -2.611018E+06 -4.684804E+05 -1.293549E+05 -9.361863E+05 -5.410780E-10  2.765920E-10
       172  12 -2.595910E+06 -4.722462E+05 -1.219575E+05 -9.402807E+05  1.505506E-10 -4.314310E-10
       172  13 -2.175939E+06 -3.211625E+05 -2.286764E+04 -8.235837E+05  1.676801E-09  3.214816E-11
       172  14 -2.180575E+06 -3.053704E+05 -1.126356E+04 -8.187491E+05  1.186567E-09  1.110261E-09
       172  15 -2.174863E+06 -3.136545E+05 -6.558509E+03 -8.264093E+05  4.893139E-10 -2.861809E-10
       172  16 -1.735885E+06 -1.534915E+05  9.800148E+04 -7.025027E+05  7.556413E-10  3.051940E-10
       172  17 -1.749954E+06 -1.422498E+05  1.068108E+05 -7.012384E+05  9.015280E-10  2.324466E-10
       172  18 -1.753648E+06 -1.550534E+05  1.088242E+05 -7.124685E+05  5.761280E-10 -4.551304E-10
       172  19 -2.615807E+06 -4.888216E+05 -1.437539E+05 -9.445871E+05  1.845135E+04 -3.066707E+02
       172  20 -2.611018E+06 -4.684803E+05 -1.293546E+05 -9.361863E+05  1.249845E+04 -2.500106E+03
       172  21 -2.595910E+06 -4.722462E+05 -1.219574E+05 -9.402807E+05  6.306044E+03 -4.054896E+03
       172  22 -2.175939E+06 -3.211624E+05 -2.286700E+04 -8.235837E+05  1.840442E+04 -3.239692E+02
       172  23 -2.180574E+06 -3.053703E+05 -1.126325E+04 -8.187491E+05  1.257614E+04 -2.470528E+03
       172  24 -2.174863E+06 -3.136545E+05 -6.558399E+03 -8.264093E+05  6.508526E+03 -3.978594E+03
       172  25 -1.735885E+06 -1.534914E+05  9.800211E+04 -7.025027E+05  1.835745E+04 -3.412834E+02
       172  26 -1.749953E+06 -1.422497E+05  1.068111E+05 -7.012384E+05  1.265388E+04 -2.440928E+03
       172  27 -1.753648E+06 -1.550534E+05  1.088243E+05 -7.124685E+05  6.711160E+03 -3.902236E+03
       173   1 -2.505555E+06 -4.447128E+05 -9.687791E+04 -9.205504E+05 -5.299480E+03  3.952098E+03
       173   2 -2.498594E+06 -4.206755E+05 -8.885284E+04 -8.984907E+05 -3.431377E+03  3.936239E+03
       173   3 -2.462897E+06 -4.271448E+05 -8.234725E+04 -9.089143E+05 -1.409669E+03  3.506744E+03
       173   4 -2.171212E+06 -3.183200E+05 -5.260825E+03 -8.296230E+05 -5.385708E+03  3.919544E+03
       173   5 -2.185516E+06 -3.025424E+05 -3.065164E+03 -8.135830E+05 -3.600107E+03  3.872889E+03
       173   6 -2.171068E+06 -3.172533E+05 -2.322822E+03 -8.300254E+05 -1.661004E+03  3.412677E+03
       173   7 -1.836761E+06 -1.919207E+05  8.634618E+04 -7.386512E+05 -5.471987E+03  3.886970E+03
       173   8 -1.872343E+06 -1.844038E+05  8.271363E+04 -7.286367E+05 -3.768932E+03  3.809504E+03
       173   9 -1.879157E+06 -2.073572E+05  7.769384E+04 -7.511031E+05 -1.912470E+03  3.318560E+03
       173  10 -2.505555E+06 -4.447128E+05 -9.687799E+04 -9.205504E+05  2.832541E-10 -1.853841E-10
       173  11 -2.498594E+06 -4.206755E+05 -8.885289E+04 -8.984907E+05  1.744879E-09  1.250929E-11
       173  12 -2.462897E+06 -4.271448E+05 -8.234728E+04 -9.089143E+05  1.005757E-09 -3.035652E-10
       173  13 -2.171212E+06 -3.183200E+05 -5.260909E+03 -8.296230E+05 -5.694301E-10 -7.739852E-10
       173  14 -2.185516E+06 -3.025424E+05 -3.065217E+03 -8.135830E+05  1.699621E-09 -3.344880E-10
       173  15 -2.171068E+06 -3.172533E+05 -2.322849E+03 -8.300254E+05  1.195171E-09  1.987792E-10
       173  16 -1.836761E+06 -1.919208E+05  8.634609E+04 -7.386512E+05 -1.438783E-09 -2.184830E-09
       173  17 -1.872343E+06 -1.844039E+05  8.271358E+04 -7.286367E+05  9.036137E-10 -1.543375E-09
       173  18 -1.879157E+06 -2.073572E+05  7.769382E+04 -7.511031E+05 -2.433432E-11  1.099456E-09
       173  19 -2.505555E+06 -4.447128E+05 -9.687791E+04 -9.205504E+05  5.299480E+03 -3.952098E+03
       173  20 -2.498594E+06 -4.206755E+05 -8.885284E+04 -8.984907E+05  3.431377E+03 -3.936239E+03
       173  21 -2.462897E+06 -4.271448E+05 -8.234725E+04 -9.089143E+05  1.409669E+03 -3.506744E+03
       173  22 -2.171212E+06 -3.183200E+05 -5.260825E+03 -8.296230E+05  5.385708E+03 -3.919544E+03
       173  23 -2.185516E+06 -3.025424E+05 -3.065164E+03 -8.135830E+05  3.600107E+03 -3.872889E+03
       173  24 -2.171068E+06 -3.172533E+05 -2.322822E+03 -8.300254E+05  1.661004E+03 -3.412677E+03
       173  25 -1.836761E+06 -1.919207E+05  8.634618E+04 -7.386512E+05  5.471987E+03 -3.886970E+03
       173  26 -1.872343E+06 -1.844038E+05  8.271363E+04 -7.286367E+05  3.768932E+03 -3.809504E+03
       173  27 -1.879157E+06 -2.073572E+05  7.769384E+04 -7.511031E+05  1.912470E+03 -3.318560E+03
       174   1 -2.325356E+06 -3.782649E+05 -4.500855E+04 -8.746881E+05 -8.495035E+02  2.976496E+03
       174   2 -2.315906E+06 -3.482298E+05 -3.775846E+04 -8.452388E+05  9.343732E+02  2.479230E+03
       174   3 -2.269281E+06 -3.575824E+05 -3.195343E+04 -8.589835E+05  2.774249E+03  1.830197E+03
       174   4 -2.169195E+06 -3.193734E+05 -2.315602E+03 -8.323424E+05 -1.040064E+03  2.905265E+03
       174   5 -2.187834E+06 -3.000214E+05 -2.691428E+03 -8.106205E+05  7.135184E+02  2.396759E+03
       174   6 -2.169295E+06 -3.200507E+05 -4.488027E+03 -8.320925E+05  2.523025E+03  1.736479E+03
       174   7 -2.013010E+06 -2.604805E+05  4.037508E+04 -7.899871E+05 -1.230677E+03  2.834015E+03
       174   8 -2.059747E+06 -2.518121E+05  3.237411E+04 -7.759958E+05  4.926132E+02  2.314270E+03
       174   9 -2.069299E+06 -2.825183E+05  2.297650E+04 -8.051976E+05  2.271756E+03  1.642745E+03
       174  10 -2.325356E+06 -3.782650E+05 -4.500856E+04 -8.746881E+05 -7.155309E-11 -6.608415E-10
       174  11 -2.315906E+06 -3.482298E+05 -3.775848E+04 -8.452388E+05 -6.528828E-11 -9.653296E-11
       174  12 -2.269281E+06 -3.575825E+05 -3.195345E+04 -8.589835E+05 -5.474544E-10 -2.306552E-10
       174  13 -2.169195E+06 -3.193734E+05 -2.315619E+03 -8.323424E+05  5.318701E-10  2.711100E-10
       174  14 -2.187834E+06 -3.000214E+05 -2.691440E+03 -8.106205E+05  1.314349E-09  6.345273E-10
       174  15 -2.169295E+06 -3.200507E+05 -4.488045E+03 -8.320925E+05 -2.190757E-10  1.569389E-10
       174  16 -2.013010E+06 -2.604805E+05  4.037506E+04 -7.899871E+05 -1.650591E-10 -2.389963E-13
       174  17 -2.059747E+06 -2.518121E+05  3.237410E+04 -7.759958E+05 -4.925840E-10 -4.165470E-10
       174  18 -2.069299E+06 -2.825183E+05  2.297648E+04 -8.051976E+05 -1.143885E-09 -1.088577E-10
       174  19 -2.325356E+06 -3.782649E+05 -4.500855E+04 -8.746881E+05  8.495035E+02 -2.976496E+03
       174  20 -2.315906E+06 -3.482298E+05 -3.775846E+04 -8.452388E+05 -9.343732E+02 -2.479230E+03
       174  21 -2.269281E+06 -3.575824E+05 -3.195343E+04 -8.589835E+05 -2.774249E+03 -1.830197E+03
       174  22 -2.169195E+06 -3.193734E+05 -2.315602E+03 -8.323424E+05  1.040064E+03 -2.905265E+03
       174  23 -2.187834E+06 -3.000214E+05 -2.691428E+03 -8.106205E+05 -7.135184E+02 -2.396759E+03
       174  24 -2.169295E+06 -3.200507E+05 -4.488027E+03 -8.320925E+05 -2.523025E+03 -1.736479E+03
       174  25 -2.013010E+06 -2.604805E+05  4.037508E+04 -7.899871E+05  1.230677E+03 -2.834015E+03
       174  26 -2.059747E+06 -2.518121E+05  3.237411E+04 -7.759958E+05 -4.926132E+02 -2.314270E+03
       174  27 -2.069299E+06 -2.825183E+05  2.297650E+04 -8.051976E+05 -2.271756E+03 -1.642745E+03
       175   1 -2.113290E+06 -2.985581E+05  9.809972E+03 -8.181740E+05  3.903012E+03  1.388306E+03
       175   2 -2.102715E+06 -2.665651E+05  1.385462E+04 -7.874905E+05  9.147541E+03  1.985893E+03
       175   3 -2.057393E+06 -2.822261E+05  1.188906E+04 -7.992221E+05  1.431157E+04  2.800986E+03
       175   4 -2.169470E+06 -3.192785E+05 -5.595025E+03 -8.328928E+05  3.640236E+03  1.290297E+03
       175   5 -2.187277E+06 -2.985615E+05 -9.327000E+03 -8.105241E+05  8.927949E+03  1.903931E+03
       175   6 -2.170347E+06 -3.255081E+05 -1.910412E+04 -8.305712E+05  1.413491E+04  2.734986E+03
       175   7 -2.225646E+06 -3.399988E+05 -2.100031E+04 -8.476105E+05  3.377485E+03  1.192298E+03
       175   8 -2.271832E+06 -3.305573E+05 -3.250926E+04 -8.335549E+05  8.708389E+03  1.821982E+03
       175   9 -2.283287E+06 -3.687892E+05 -5.009843E+04 -8.619150E+05  1.395829E+04  2.668999E+03
       175  10 -2.113290E+06 -2.985581E+05  9.809939E+03 -8.181740E+05  2.365804E-10 -2.070008E-10
       175  11 -2.102715E+06 -2.665652E+05  1.385445E+04 -7.874905E+05  9.100429E-10 -4.087313E-10
       175  12 -2.057393E+06 -2.822262E+05  1.188866E+04 -7.992221E+05  5.345315E-10  2.152399E-12
       175  13 -2.169470E+06 -3.192785E+05 -5.595053E+03 -8.328929E+05 -3.352286E-10 -2.402177E-10
       175  14 -2.187277E+06 -2.985615E+05 -9.327157E+03 -8.105241E+05 -6.192217E-10  4.279918E-12
       175  15 -2.170347E+06 -3.255082E+05 -1.910451E+04 -8.305712E+05 -1.837732E-09 -4.425523E-10
       175  16 -2.225646E+06 -3.399988E+05 -2.100033E+04 -8.476105E+05 -8.730794E-10 -3.330645E-10
       175  17 -2.271832E+06 -3.305574E+05 -3.250940E+04 -8.335549E+05 -5.566634E-10 -3.071376E-10
       175  18 -2.283288E+06 -3.687893E+05 -5.009881E+04 -8.619150E+05 -1.738130E-10 -1.121395E-10
       175  19 -2.113290E+06 -2.985581E+05  9.809972E+03 -8.181740E+05 -3.903012E+03 -1.388306E+03
       175  20 -2.102715E+06 -2.665651E+05  1.385462E+04 -7.874905E+05 -9.147541E+03 -1.985893E+03
       175  21 -2.057393E+06 -2.822261E+05  1.188906E+04 -7.992221E+05 -1.431157E+04 -2.800986E+03
       175  22 -2.169470E+06 -3.192785E+05 -5.595025E+03 -8.328928E+05 -3.640236E+03 -1.290297E+03
       175  23 -2.187277E+06 -2.985615E+05 -9.327000E+03 -8.105241E+05 -8.927949E+03 -1.903931E+03
       175  24 -2.170347E+06 -3.255081E+05 -1.910412E+04 -8.305712E+05 -1.413491E+04 -2.734986E+03
       175  25 -2.225646E+06 -3.399988E+05 -2.100031E+04 -8.476105E+05 -3.377485E+03 -1.192298E+03
       175  26 -2.271832E+06 -3.305573E+05 -3.250926E+04 -8.335549E+05 -8.708389E+03 -1.821982E+03
       175  27 -2.283287E+06 -3.687892E+05 -5.009843E+04 -8.619150E+05 -1.395829E+04 -2.668999E+03
       176   1 -1.915956E+06 -2.224545E+05  4.631560E+04 -7.657921E+05  1.833892E+04  3.405761E+03
       176   2 -1.902049E+06 -1.859821E+05  3.663107E+04 -7.376204E+05  3.972425E+04  1.008393E+04
       176   3 -1.881753E+06 -2.413465E+05 -5.106309E+03 -7.298813E+05  6.069024E+04  1.788895E+04
       176   4 -2.174067E+06 -3.167805E+05 -2.388345E+04 -8.326306E+05  1.798784E+04  3.274631E+03
       176   5 -2.180262E+06 -2.922209E+05 -3.981504E+04 -8.144159E+05  3.959112E+04  1.003387E+04
       176   6 -2.180122E+06 -3.595602E+05 -8.798437E+04 -8.166331E+05  6.077421E+04  1.791956E+04
       176   7 -2.432114E+06 -4.111040E+05 -9.408856E+04 -8.994446E+05  1.763692E+04  3.143557E+03
       176   8 -2.458400E+06 -3.984549E+05 -1.162683E+05 -8.911803E+05  3.945805E+04  9.983844E+03
       176   9 -2.478406E+06 -4.777665E+05 -1.708707E+05 -9.033465E+05  6.085814E+04  1.795015E+04
       176  10 -1.915956E+06 -2.224546E+05  4.631495E+04 -7.657922E+05  1.051020E-09  3.915008E-10
       176  11 -1.902051E+06 -1.859826E+05  3.662790E+04 -7.376207E+05 -8.307064E-10 -1.107574E-09
       176  12 -1.881757E+06 -2.413478E+05 -5.113858E+03 -7.298822E+05 -8.281667E-10  1.348355E-10
       176  13 -2.174067E+06 -3.167806E+05 -2.388408E+04 -8.326307E+05 -8.267936E-10 -1.876314E-10
       176  14 -2.180263E+06 -2.922214E+05 -3.981819E+04 -8.144162E+05 -2.067596E-09  2.197345E-10
       176  15 -2.180126E+06 -3.595616E+05 -8.799194E+04 -8.166340E+05 -9.950774E-10  2.513846E-10
       176  16 -2.432114E+06 -4.111041E+05 -9.408917E+04 -8.994447E+05 -1.193993E-09 -3.517927E-10
       176  17 -2.458402E+06 -3.984554E+05 -1.162714E+05 -8.911806E+05 -1.483450E-09  7.914039E-11
       176  18 -2.478410E+06 -4.777679E+05 -1.708783E+05 -9.033473E+05 -1.594074E-10  5.450930E-10
       176  19 -1.915956E+06 -2.224545E+05  4.631560E+04 -7.657921E+05 -1.833892E+04 -3.405761E+03
       176  20 -1.902049E+06 -1.859821E+05  3.663107E+04 -7.376204E+05 -3.972425E+04 -1.008393E+04
       176  21 -1.881753E+06 -2.413465E+05 -5.106309E+03 -7.298813E+05 -6.069024E+04 -1.788895E+04
       176  22 -2.174067E+06 -3.167805E+05 -2.388345E+04 -8.326306E+05 -1.798784E+04 -3.274631E+03
       176  23 -2.180262E+06 -2.922209E+05 -3.981504E+04 -8.144159E+05 -3.959112E+04 -1.003387E+04
       176  24 -2.180122E+06 -3.595602E+05 -8.798437E+04 -8.166331E+05 -6.077421E+04 -1.791956E+04
       176  25 -2.432114E+06 -4.111040E+05 -9.408856E+04 -8.994446E+05 -1.763692E+04 -3.143557E+03
       176  26 -2.458400E+06 -3.984549E+05 -1.162683E+05 -8.911803E+05 -3.945805E+04 -9.983844E+03
       176  27 -2.478406E+06 -4.777665E+05 -1.708707E+05 -9.033465E+05 -6.085814E+04 -1.795015E+04
       177   1 -1.781606E+06 -1.706223E+05  3.144059E+03 -7.473198E+05  7.820585E+04  2.303899E+04
       177   2 -1.736926E+06 -7.507490E+04 -5.619650E+04 -7.083607E+05  1.711564E+05  5.656022E+04
       177   3 -1.841440E+06 -4.087230E+05 -2.972556E+05 -5.809966E+05  2.619093E+05  9.593878E+04
       177   4 -2.196796E+06 -3.079032E+05 -1.067845E+05 -8.400250E+05  7.734046E+04  2.271723E+04
       177   5 -2.142855E+06 -2.388575E+05 -1.693906E+05 -8.294511E+05  1.714125E+05  5.665254E+04
       177   6 -2.238438E+06 -5.994004E+05 -4.147006E+05 -7.304428E+05  2.632876E+05  9.643632E+04
       177   7 -2.611820E+06 -4.451834E+05 -2.167273E+05 -9.326785E+05  7.647568E+04  2.239564E+04
       177   8 -2.548625E+06 -4.026243E+05 -2.826002E+05 -9.504679E+05  1.716684E+05  5.674476E+04
       177   9 -2.635279E+06 -7.900386E+05 -5.321614E+05 -8.797931E+05  2.646650E+05  9.693323E+04
       177  10 -1.781613E+06 -1.706245E+05  3.131526E+03 -7.473213E+05 -3.697522E-10  5.484841E-10
       177  11 -1.736958E+06 -7.508624E+04 -5.625777E+04 -7.083685E+05 -1.266629E-09 -2.919328E-10
       177  12 -1.841516E+06 -4.087514E+05 -2.974023E+05 -5.810169E+05  3.115581E-10 -5.773186E-10
       177  13 -2.196803E+06 -3.079054E+05 -1.067967E+05 -8.400264E+05  4.320531E-10  1.785443E-10
       177  14 -2.142888E+06 -2.388689E+05 -1.694521E+05 -8.294590E+05 -5.135246E-10  7.335732E-11
       177  15 -2.238515E+06 -5.994291E+05 -4.148490E+05 -7.304633E+05  1.129255E-10 -8.853029E-11
       177  16 -2.611827E+06 -4.451856E+05 -2.167393E+05 -9.326799E+05 -1.172229E-10 -9.053503E-11
       177  17 -2.548658E+06 -4.026358E+05 -2.826620E+05 -9.504757E+05  2.724450E-10  1.062367E-10
       177  18 -2.635357E+06 -7.900676E+05 -5.323114E+05 -8.798138E+05  4.166973E-10 -1.091868E-10
       177  19 -1.781606E+06 -1.706223E+05  3.144059E+03 -7.473198E+05 -7.820585E+04 -2.303899E+04
       177  20 -1.736926E+06 -7.507490E+04 -5.619650E+04 -7.083607E+05 -1.711564E+05 -5.656022E+04
       177  21 -1.841440E+06 -4.087230E+05 -2.972556E+05 -5.809966E+05 -2.619093E+05 -9.593878E+04
       177  22 -2.196796E+06 -3.079032E+05 -1.067845E+05 -8.400250E+05 -7.734046E+04 -2.271723E+04
       177  23 -2.142855E+06 -2.388575E+05 -1.693906E+05 -8.294511E+05 -1.714125E+05 -5.665254E+04
       177  24 -2.238438E+06 -5.994004E+05 -4.147006E+05 -7.304428E+05 -2.632876E+05 -9.643632E+04
       177  25 -2.611820E+06 -4.451834E+05 -2.167273E+05 -9.326785E+05 -7.647568E+04 -2.239564E+04
       177  26 -2.548625E+06 -4.026243E+05 -2.826002E+05 -9.504679E+05 -1.716684E+05 -5.674476E+04
       177  27 -2.635279E+06 -7.900386E+05 -5.321614E+05 -8.797931E+05 -2.646650E+05 -9.693323E+04
       178   1 -1.148462E+06 -1.085383E+05 -7.317312E+04 -8.761059E+03  9.952179E+04  5.135270E+03
       178   2 -1.142101E+06 -2.423408E+05 -1.507165E+05  7.035210E+03  6.679016E+04  1.388173E+04
       178   3 -1.085701E+06 -2.130876E+05 -1.651595E+05 -3.186164E+04  3.409755E+04  1.149076E+04
       178   4 -2.500926E+05  1.159306E+05  1.508947E+05 -2.303788E+04  1.027405E+05  5.145552E+03
       178   5 -2.753183E+05 -2.587379E+04  6.422410E+04  4.549070E+03  6.756180E+04  1.388235E+04
       178   6 -2.501400E+05 -4.316649E+03  4.229061E+04 -2.255220E+04  3.242391E+04  1.148730E+04
       178   7  6.490104E+05  3.403395E+05  3.749019E+05 -3.733616E+04  1.059639E+05  5.155680E+03
       178   8  5.921474E+05  1.905369E+05  2.791087E+05  2.058938E+03  6.833447E+04  1.388296E+04
       178   9  5.860554E+05  2.044022E+05  2.496886E+05 -1.323048E+04  3.074801E+04  1.148380E+04
       178  10 -1.148473E+06 -1.085410E+05 -7.319181E+04 -8.761471E+03 -9.434369E-10  4.800000E-10
       178  11 -1.142106E+06 -2.423422E+05 -1.507253E+05  7.034463E+03  8.368943E-10 -1.760593E-09
       178  12 -1.085702E+06 -2.130881E+05 -1.651620E+05 -3.186195E+04  1.670316E-09 -8.270137E-10
       178  13 -2.501040E+05  1.159277E+05  1.508748E+05 -2.303831E+04 -1.049129E-09 -1.416645E-09
       178  14 -2.753232E+05 -2.587522E+04  6.421516E+04  4.548315E+03 -1.613224E-09 -7.928446E-10
       178  15 -2.501412E+05 -4.317073E+03  4.228839E+04 -2.255250E+04  7.278955E-10 -6.603762E-10
       178  16  6.489984E+05  3.403365E+05  3.748808E+05 -3.733660E+04 -6.244457E-10  1.600305E-09
       178  17  5.921424E+05  1.905355E+05  2.790996E+05  2.058174E+03 -8.923072E-10 -1.127822E-09
       178  18  5.860543E+05  2.044018E+05  2.496866E+05 -1.323076E+04 -4.886148E-10 -5.592872E-10
       178  19 -1.148462E+06 -1.085383E+05 -7.317312E+04 -8.761059E+03 -9.952179E+04 -5.135270E+03
       178  20 -1.142101E+06 -2.423408E+05 -1.507165E+05  7.035210E+03 -6.679016E+04 -1.388173E+04
       178  21 -1.085701E+06 -2.130876E+05 -1.651595E+05 -3.186164E+04 -3.409755E+04 -1.149076E+04
       178  22 -2.500926E+05  1.159306E+05  1.508947E+05 -2.303788E+04 -1.027405E+05 -5.145552E+03
       178  23 -2.753183E+05 -2.587379E+04  6.422410E+04  4.549070E+03 -6.756180E+04 -1.388235E+04
       178  24 -2.501400E+05 -4.316649E+03  4.229061E+04 -2.255220E+04 -3.242391E+04 -1.148730E+04
       178  25  6.490104E+05  3.403395E+05  3.749019E+05 -3.733616E+04 -1.059639E+05 -5.155680E+03
       178  26  5.921474E+05  1.905369E+05  2.791087E+05  2.058938E+03 -6.833447E+04 -1.388296E+04
       178  27  5.860554E+05  2.044022E+05  2.496886E+05 -1.323048E+04 -3.074801E+04 -1.148380E+04
       179   1 -9.414821E+05 -1.538541E+05 -1.345955E+05 -2.176923E+04  2.521418E+04  9.077669E+03
       179   2 -9.128441E+05 -1.658991E+05 -1.444332E+05  6.051144E+03  1.685411E+04  9.294750E+03
       179   3 -8.745929E+05 -1.542636E+05 -1.423753E+05 -2.434480E+04  8.492047E+03  7.882901E+03
       179   4 -2.591094E+05  1.659708E+04  3.484106E+04 -2.349454E+04  2.545768E+04  9.077222E+03
       179   5 -2.639552E+05 -3.827122E+03  1.659247E+04  5.620653E+03  1.673768E+04  9.294091E+03
       179   6 -2.591332E+05 -5.207209E+02  1.048076E+04 -2.347660E+04  8.016147E+03  7.882749E+03
       179   7  4.236866E+05  1.870134E+05  2.042428E+05 -2.522185E+04  2.570143E+04  9.076774E+03
       179   8  3.853164E+05  1.582133E+05  1.775867E+05  5.189686E+03  1.662112E+04  9.293433E+03
       179   9  3.566708E+05  1.531937E+05  1.633085E+05 -2.260748E+04  7.539772E+03  7.882595E+03
       179  10 -9.414828E+05 -1.538544E+05 -1.345968E+05 -2.176941E+04  7.908661E-10 -4.950019E-11
       179  11 -9.128444E+05 -1.658993E+05 -1.444339E+05  6.051018E+03  4.008964E-10  9.405807E-10
       179  12 -8.745930E+05 -1.542636E+05 -1.423755E+05 -2.434485E+04  1.181198E-09  4.666330E-10
       179  13 -2.591101E+05  1.659682E+04  3.483969E+04 -2.349472E+04 -2.100312E-09 -6.347542E-10
       179  14 -2.639555E+05 -3.827290E+03  1.659179E+04  5.620528E+03 -2.249774E-09  6.282645E-10
       179  15 -2.591333E+05 -5.208049E+02  1.048053E+04 -2.347665E+04 -7.638940E-10 -4.072310E-11
       179  16  4.236859E+05  1.870131E+05  2.042414E+05 -2.522204E+04 -7.956579E-10 -1.173662E-10
       179  17  3.853160E+05  1.582131E+05  1.775860E+05  5.189561E+03 -6.758182E-10  3.437555E-10
       179  18  3.566707E+05  1.531936E+05  1.633083E+05 -2.260753E+04  5.338366E-11  3.692485E-10
       179  19 -9.414821E+05 -1.538541E+05 -1.345955E+05 -2.176923E+04 -2.521418E+04 -9.077669E+03
       179  20 -9.128441E+05 -1.658991E+05 -1.444332E+05  6.051144E+03 -1.685411E+04 -9.294750E+03
       179  21 -8.745929E+05 -1.542636E+05 -1.423753E+05 -2.434480E+04 -8.492047E+03 -7.882901E+03
       179  22 -2.591094E+05  1.659708E+04  3.484106E+04 -2.349454E+04 -2.545768E+04 -9.077222E+03
       179  23 -2.639552E+05 -3.827122E+03  1.659247E+04  5.620653E+03 -1.673768E+04 -9.294091E+03
       179  24 -2.591332E+05 -5.207209E+02  1.048076E+04 -2.347660E+04 -8.016147E+03 -7.882749E+03
       179  25  4.236866E+05  1.870134E+05  2.042428E+05 -2.522185E+04 -2.570143E+04 -9.076774E+03
       179  26  3.853164E+05  1.582133E+05  1.775867E+05  5.189686E+03 -1.662112E+04 -9.293433E+03
       179  27  3.566708E+05  1.531937E+05  1.633085E+05 -2.260748E+04 -7.539772E+03 -7.882595E+03
       180   1 -7.135594E+05 -1.107357E+05 -1.039941E+05 -2.343639E+04  6.497267E+03  6.910058E+03
       180   2 -6.794942E+05 -1.049113E+05 -9.940279E+04  6.973520E+03  4.367872E+03  5.861499E+03
       180   3 -6.434513E+05 -9.551464E+04 -9.236834E+04 -2.360090E+04  2.235967E+03  4.546741E+03
       180   4 -2.607809E+05  2.329319E+03  8.291394E+03 -2.409452E+04  6.302237E+03  6.909954E+03
       180   5 -2.617813E+05 -5.900673E+02  4.256893E+03  6.395100E+03  4.113965E+03  5.861676E+03
       180   6 -2.607954E+05  7.206558E+01  2.705400E+03 -2.409704E+04  1.923303E+03  4.547281E+03
       180   7  1.921840E+05  1.153789E+05  1.205616E+05 -2.475308E+04  6.107063E+03  6.909851E+03
       180   8  1.560901E+05  1.037180E+05  1.079035E+05  5.816356E+03  3.859887E+03  5.861853E+03
       180   9  1.219936E+05  9.564777E+04  9.776818E+04 -2.459342E+04  1.610447E+03  4.547821E+03
       180  10 -7.135595E+05 -1.107357E+05 -1.039942E+05 -2.343642E+04  1.078306E-09  3.088453E-10
       180  11 -6.794942E+05 -1.049113E+05 -9.940289E+04  6.973499E+03  1.350130E-09  8.360974E-10
       180  12 -6.434513E+05 -9.551466E+04 -9.236839E+04 -2.360091E+04 -1.041344E-09 -1.568141E-09
       180  13 -2.607809E+05  2.329257E+03  8.291230E+03 -2.409455E+04  8.337765E-12 -6.998392E-11
       180  14 -2.617813E+05 -5.901087E+02  4.256796E+03  6.395081E+03  1.148591E-09  1.011533E-09
       180  15 -2.607954E+05  7.204238E+01  2.705354E+03 -2.409705E+04 -6.577480E-10  1.425987E-09
       180  16  1.921839E+05  1.153789E+05  1.205614E+05 -2.475311E+04 -6.031908E-10 -3.391494E-10
       180  17  1.560901E+05  1.037180E+05  1.079034E+05  5.816338E+03 -1.035472E-09 -1.425390E-09
       180  18  1.219936E+05  9.564775E+04  9.776814E+04 -2.459342E+04 -1.119223E-09 -3.724068E-10
       180  19 -7.135594E+05 -1.107357E+05 -1.039941E+05 -2.343639E+04 -6.497267E+03 -6.910058E+03
       180  20 -6.794942E+05 -1.049113E+05 -9.940279E+04  6.973520E+03 -4.367872E+03 -5.861499E+03
       180  21 -6.434513E+05 -9.551464E+04 -9.236834E+04 -2.360090E+04 -2.235967E+03 -4.546741E+03
       180  22 -2.607809E+05  2.329319E+03  8.291394E+03 -2.409452E+04 -6.302237E+03 -6.909954E+03
       180  23 -2.617813E+05 -5.900673E+02  4.256893E+03  6.395100E+03 -4.113965E+03 -5.861676E+03
       180  24 -2.607954E+05  7.206558E+01  2.705400E+03 -2.409704E+04 -1.923303E+03 -4.547281E+03
       180  25  1.921840E+05  1.153789E+05  1.205616E+05 -2.475308E+04 -6.107063E+03 -6.909851E+03
       180  26  1.560901E+05  1.037180E+05  1.079035E+05  5.816356E+03 -3.859887E+03 -5.861853E+03
       180  27  1.219936E+05  9.564777E+04  9.776818E+04 -2.459342E+04 -1.610447E+03 -4.547821E+03
       181   1 -4.751734E+05 -5.302656E+04 -5.087505E+04 -2.400967E+04  1.746507E+03  3.753945E+03
       181   2 -4.392319E+05 -4.456647E+04 -4.287646E+04  7.196366E+03  1.102502E+03  2.488310E+03
       181   3 -4.032446E+05 -3.531025E+04 -3.430894E+04 -2.414017E+04  4.574469E+02  1.175398E+03
       181   4 -2.611923E+05  3.868548E+02  2.114346E+03 -2.444227E+04  1.478358E+03  3.754543E+03
       181   5 -2.612188E+05 -1.143233E+02  1.294362E+03  6.828214E+03  8.239440E+02  2.489034E+03
       181   6 -2.611985E+05  1.825787E+02  1.050635E+03 -2.444275E+04  1.685177E+02  1.176257E+03
       181   7 -4.716959E+04  5.379684E+04  5.510033E+04 -2.487499E+04  1.210116E+03  3.755140E+03
       181   8 -8.317697E+04  4.433544E+04  4.546282E+04  6.459977E+03  5.453063E+02  2.489757E+03
       181   9 -1.191340E+05  3.567389E+04  3.640869E+04 -2.474539E+04 -1.204775E+02  1.177117E+03
       181  10 -4.751734E+05 -5.302658E+04 -5.087508E+04 -2.400968E+04 -5.289557E-10 -2.103675E-10
       181  11 -4.392319E+05 -4.456647E+04 -4.287648E+04  7.196364E+03  1.290995E-09  8.177034E-10
       181  12 -4.032446E+05 -3.531025E+04 -3.430894E+04 -2.414017E+04  6.819210E-10 -1.060311E-09
       181  13 -2.611923E+05  3.868391E+02  2.114315E+03 -2.444227E+04 -1.127511E-09 -1.904272E-09
       181  14 -2.612188E+05 -1.143301E+02  1.294349E+03  6.828213E+03 -1.029483E-09  9.898756E-10
       181  15 -2.611985E+05  1.825772E+02  1.050633E+03 -2.444275E+04  1.419245E-09 -2.051461E-09
       181  16 -4.716960E+04  5.379683E+04  5.510030E+04 -2.487499E+04 -4.949482E-10  5.973617E-10
       181  17 -8.317697E+04  4.433544E+04  4.546281E+04  6.459976E+03 -8.184012E-10 -5.299555E-10
       181  18 -1.191340E+05  3.567389E+04  3.640869E+04 -2.474539E+04  3.321791E-10 -3.249853E-09
       181  19 -4.751734E+05 -5.302656E+04 -5.087505E+04 -2.400967E+04 -1.746507E+03 -3.753945E+03
       181  20 -4.392319E+05 -4.456647E+04 -4.287646E+04  7.196366E+03 -1.102502E+03 -2.488310E+03
       181  21 -4.032446E+05 -3.531025E+04 -3.430894E+04 -2.414017E+04 -4.574469E+02 -1.175398E+03
       181  22 -2.611923E+05  3.868548E+02  2.114346E+03 -2.444227E+04 -1.478358E+03 -3.754543E+03
       181  23 -2.612188E+05 -1.143233E+02  1.294362E+03  6.828214E+03 -8.239440E+02 -2.489034E+03
       181  24 -2.611985E+05  1.825787E+02  1.050635E+03 -2.444275E+04 -1.685177E+02 -1.176257E+03
       181  25 -4.716959E+04  5.379684E+04  5.510033E+04 -2.487499E+04 -1.210116E+03 -3.755140E+03
       181  26 -8.317697E+04  4.433544E+04  4.546282E+04  6.459977E+03 -5.453063E+02 -2.489757E+03
       181  27 -1.191340E+05  3.567389E+04  3.640869E+04 -2.474539E+04  1.204775E+02 -1.177117E+03
       182   1 -2.320360E+05  7.485383E+03  8.374812E+03 -2.455759E+04  2.644785E+02  3.963895E+02
       182   2 -1.958063E+05  1.621528E+04  1.739066E+04  6.763094E+03 -3.365687E+02 -9.153741E+02
       182   3 -1.597466E+05  2.569989E+04  2.689603E+04 -2.475373E+04 -9.372384E+02 -2.196014E+03
       182   4 -2.612408E+05  1.709205E+02  1.015761E+03 -2.450868E+04 -2.253707E+01  3.972745E+02
       182   5 -2.611531E+05 -1.003046E+02  1.178622E+03  6.910578E+03 -6.168239E+02 -9.145499E+02
       182   6 -2.612385E+05  3.819971E+02  1.826296E+03 -2.450808E+04 -1.210699E+03 -2.195245E+03
       182   7 -2.904448E+05 -7.143607E+03 -6.343356E+03 -2.445977E+04 -3.095391E+02  3.981594E+02
       182   8 -3.264961E+05 -1.641621E+04 -1.503374E+04  7.058048E+03 -8.970497E+02 -9.137258E+02
       182   9 -3.627210E+05 -2.493666E+04 -2.324420E+04 -2.426246E+04 -1.484114E+03 -2.194476E+03
       182  10 -2.320360E+05  7.485383E+03  8.374812E+03 -2.455759E+04 -1.508202E-09  1.308492E-09
       182  11 -1.958063E+05  1.621528E+04  1.739066E+04  6.763094E+03  3.001853E-09  5.294548E-09
       182  12 -1.597466E+05  2.569988E+04  2.689602E+04 -2.475373E+04  2.732006E-09 -2.777886E-09
       182  13 -2.612408E+05  1.709203E+02  1.015760E+03 -2.450868E+04 -2.150224E-09 -2.003731E-10
       182  14 -2.611531E+05 -1.003056E+02  1.178619E+03  6.910577E+03 -1.145831E-09 -4.704120E-10
       182  15 -2.612385E+05  3.819916E+02  1.826284E+03 -2.450808E+04 -9.452964E-10 -2.646940E-10
       182  16 -2.904448E+05 -7.143607E+03 -6.343356E+03 -2.445977E+04  2.637611E-09 -9.453041E-11
       182  17 -3.264961E+05 -1.641621E+04 -1.503374E+04  7.058048E+03 -2.290632E-09 -1.731514E-10
       182  18 -3.627210E+05 -2.493667E+04 -2.324422E+04 -2.426246E+04 -1.754682E-09 -6.423065E-10
       182  19 -2.320360E+05  7.485383E+03  8.374812E+03 -2.455759E+04 -2.644785E+02 -3.963895E+02
       182  20 -1.958063E+05  1.621528E+04  1.739066E+04  6.763094E+03  3.365687E+02  9.153741E+02
       182  21 -1.597466E+05  2.569989E+04  2.689603E+04 -2.475373E+04  9.372384E+02  2.196014E+03
       182  22 -2.612408E+05  1.709205E+02  1.015761E+03 -2.450868E+04  2.253707E+01 -3.972745E+02
       182  23 -2.611531E+05 -1.003046E+02  1.178622E+03  6.910578E+03  6.168239E+02  9.145499E+02
       182  24 -2.612385E+05  3.819971E+02  1.826296E+03 -2.450808E+04  1.210699E+03  2.195245E+03
       182  25 -2.904448E+05 -7.143607E+03 -6.343356E+03 -2.445977E+04  3.095391E+02 -3.981594E+02
       182  26 -3.264961E+05 -1.641621E+04 -1.503374E+04  7.058048E+03  8.970497E+02  9.137258E+02
       182  27 -3.627210E+05 -2.493666E+04 -2.324420E+04 -2.426246E+04  1.484114E+03  2.194476E+03
       183   1  1.090303E+04  6.798271E+04  6.985026E+04 -2.471164E+04 -1.278188E+03 -2.992550E+03
       183   2  4.587338E+04  7.625212E+04  7.988955E+04  6.066744E+03 -3.192595E+03 -4.315564E+03
       183   3  8.209401E+04  8.763641E+04  9.199643E+04 -2.501288E+04 -5.105120E+03 -5.405964E+03
       183   4 -2.609459E+05  9.531149E+01  2.300741E+03 -2.429248E+04 -1.589697E+03 -2.991778E+03
       183   5 -2.615608E+05 -4.946198E+02  3.630669E+03  6.639290E+03 -3.453042E+03 -4.315104E+03
       183   6 -2.609350E+05  2.022245E+03  6.993517E+03 -2.428885E+04 -5.314397E+03 -5.405761E+03
       183   7 -5.327277E+05 -6.779764E+04 -6.525431E+04 -2.387346E+04 -1.901070E+03 -2.991006E+03
       183   8 -5.689091E+05 -7.724845E+04 -7.263526E+04  7.211601E+03 -3.713361E+03 -4.314644E+03
       183   9 -6.038571E+05 -8.360073E+04 -7.801817E+04 -2.356517E+04 -5.523557E+03 -5.405559E+03
       183  10  1.090302E+04  6.798270E+04  6.985024E+04 -2.471164E+04 -1.678296E-09 -3.561930E-09
       183  11  4.587336E+04  7.625210E+04  7.988949E+04  6.066733E+03 -6.553939E-11 -2.496764E-10
       183  12  8.209398E+04  8.763637E+04  9.199633E+04 -2.501291E+04  9.566472E-11  5.190627E-10
       183  13 -2.609459E+05  9.530120E+01  2.300719E+03 -2.429248E+04 -2.102252E-09 -3.528876E-10
       183  14 -2.615608E+05 -4.946430E+02  3.630612E+03  6.639278E+03 -1.125428E-09 -1.329799E-09
       183  15 -2.609350E+05  2.022206E+03  6.993409E+03 -2.428888E+04  6.533726E-10 -4.945772E-11
       183  16 -5.327277E+05 -6.779765E+04 -6.525433E+04 -2.387347E+04 -1.457646E-09 -1.027863E-09
       183  17 -5.689091E+05 -7.724847E+04 -7.263533E+04  7.211588E+03 -1.632622E-09  2.291486E-09
       183  18 -6.038572E+05 -8.360077E+04 -7.801828E+04 -2.356519E+04  1.037682E-09  4.410035E-10
       183  19  1.090303E+04  6.798271E+04  6.985026E+04 -2.471164E+04  1.278188E+03  2.992550E+03
       183  20  4.587338E+04  7.625212E+04  7.988955E+04  6.066744E+03  3.192595E+03  4.315564E+03
       183  21  8.209401E+04  8.763641E+04  9.199643E+04 -2.501288E+04  5.105120E+03  5.405964E+03
       183  22 -2.609459E+05  9.531149E+01  2.300741E+03 -2.429248E+04  1.589697E+03  2.991778E+03
       183  23 -2.615608E+05 -4.946198E+02  3.630669E+03  6.639290E+03  3.453042E+03  4.315104E+03
       183  24 -2.609350E+05  2.022245E+03  6.993517E+03 -2.428885E+04  5.314397E+03  5.405761E+03
       183  25 -5.327277E+05 -6.779764E+04 -6.525431E+04 -2.387346E+04  1.901070E+03  2.991006E+03
       183  26 -5.689091E+05 -7.724845E+04 -7.263526E+04  7.211601E+03  3.713361E+03  4.314644E+03
       183  27 -6.038571E+05 -8.360073E+04 -7.801817E+04 -2.356517E+04  5.523557E+03  5.405559E+03
       184   1  2.494833E+05  1.266868E+05  1.351935E+05 -2.338023E+04 -6.294932E+03 -6.367903E+03
       184   2  2.799545E+05  1.323881E+05  1.487576E+05  5.249534E+03 -1.398389E+04 -7.778059E+03
       184   3  3.181463E+05  1.582384E+05  1.727009E+05 -2.575604E+04 -2.167039E+04 -7.722077E+03
       184   4 -2.595548E+05 -3.881069E+02  8.834387E+03 -2.379932E+04 -6.756563E+03 -6.367514E+03
       184   5 -2.633789E+05 -3.222631E+03  1.402498E+04  6.020529E+03 -1.412299E+04 -7.778396E+03
       184   6 -2.595345E+05  1.404502E+04  2.937724E+04 -2.379815E+04 -2.148652E+04 -7.722601E+03
       184   7 -7.683577E+05 -1.274825E+05 -1.175441E+05 -2.421798E+04 -7.217813E+03 -6.367124E+03
       184   8 -8.064443E+05 -1.388555E+05 -1.207297E+05  6.790899E+03 -1.426196E+04 -7.778733E+03
       184   9 -8.369122E+05 -1.301734E+05 -1.139713E+05 -2.184208E+04 -2.130282E+04 -7.723125E+03
       184  10  2.494832E+05  1.266868E+05  1.351934E+05 -2.338026E+04  1.918132E-09  7.367009E-10
       184  11  2.799543E+05  1.323880E+05  1.487571E+05  5.249446E+03  3.867234E-09 -1.150669E-09
       184  12  3.181458E+05  1.582382E+05  1.726999E+05 -2.575617E+04 -8.362078E-10 -2.482023E-10
       184  13 -2.595549E+05 -3.881627E+02  8.834225E+03 -2.379936E+04  1.949746E-13  6.775508E-10
       184  14 -2.633791E+05 -3.222749E+03  1.402449E+04  6.020441E+03 -1.520790E-09  7.761887E-10
       184  15 -2.595350E+05  1.404483E+04  2.937626E+04 -2.379828E+04 -1.079996E-09  2.555755E-10
       184  16 -7.683577E+05 -1.274825E+05 -1.175443E+05 -2.421802E+04 -3.085607E-09  8.038292E-10
       184  17 -8.064445E+05 -1.388556E+05 -1.207302E+05  6.790810E+03 -3.939327E-09 -1.780276E-10
       184  18 -8.369127E+05 -1.301735E+05 -1.139723E+05 -2.184221E+04  4.184061E-10  7.707857E-10
       184  19  2.494833E+05  1.266868E+05  1.351935E+05 -2.338023E+04  6.294932E+03  6.367903E+03
       184  20  2.799545E+05  1.323881E+05  1.487576E+05  5.249534E+03  1.398389E+04  7.778059E+03
       184  21  3.181463E+05  1.582384E+05  1.727009E+05 -2.575604E+04  2.167039E+04  7.722077E+03
       184  22 -2.595548E+05 -3.881069E+02  8.834387E+03 -2.379932E+04  6.756563E+03  6.367514E+03
       184  23 -2.633789E+05 -3.222631E+03  1.402498E+04  6.020529E+03  1.412299E+04  7.778396E+03
       184  24 -2.595345E+05  1.404502E+04  2.937724E+04 -2.379815E+04  2.148652E+04  7.722601E+03
       184  25 -7.683577E+05 -1.274825E+05 -1.175441E+05 -2.421798E+04  7.217813E+03  6.367124E+03
       184  26 -8.064443E+05 -1.388555E+05 -1.207297E+05  6.790899E+03  1.426196E+04  7.778733E+03
       184  27 -8.369122E+05 -1.301734E+05 -1.139713E+05 -2.184208E+04  2.130282E+04  7.723125E+03
       185   1  4.838811E+05  1.800709E+05  2.181930E+05 -1.578528E+04 -2.581223E+04 -9.973475E+03
       185   2  4.951852E+05  1.698432E+05  2.444971E+05  2.270348E+03 -5.766539E+04 -1.223353E+04
       185   3  5.489757E+05  2.977705E+05  3.268324E+05 -3.610654E+04 -8.954231E+04 -4.445632E+03
       185   4 -2.519461E+05 -3.585113E+03  3.566798E+04 -2.301241E+04 -2.735982E+04 -9.974740E+03
       185   5 -2.729995E+05 -2.181903E+04  5.419599E+04  5.076266E+03 -5.700873E+04 -1.223377E+04
       185   6 -2.519058E+05  9.780829E+04  1.272727E+05 -2.327102E+04 -8.667960E+04 -4.440405E+03
       185   7 -9.872818E+05 -1.872815E+05 -1.468974E+05 -3.023102E+04 -2.890556E+04 -9.975969E+03
       185   8 -1.040648E+06 -2.135254E+05 -1.361491E+05  7.878493E+03 -5.635286E+04 -1.223400E+04
       185   9 -1.052205E+06 -1.022015E+05 -7.233504E+04 -1.045243E+04 -8.382053E+04 -4.435056E+03
       185  10  4.838803E+05  1.800706E+05  2.181915E+05 -1.578548E+04 -6.518893E-10  6.735806E-10
       185  11  4.951816E+05  1.698421E+05  2.444906E+05  2.269781E+03  1.539552E-09 -3.374212E-10
       185  12  5.489671E+05  2.977683E+05  3.268173E+05 -3.610686E+04  1.752182E-09 -8.484651E-10
       185  13 -2.519470E+05 -3.585421E+03  3.566638E+04 -2.301263E+04 -1.524382E-10  1.692860E-09
       185  14 -2.730030E+05 -2.182007E+04  5.418960E+04  5.075705E+03  3.852192E-10  2.648160E-09
       185  15 -2.519138E+05  9.780626E+04  1.272585E+05 -2.327133E+04 -1.008432E-09 -1.877207E-10
       185  16 -9.872827E+05 -1.872819E+05 -1.468992E+05 -3.023126E+04 -4.837126E-11  7.068992E-10
       185  17 -1.040652E+06 -2.135264E+05 -1.361553E+05  7.877937E+03  4.037820E-10 -6.451996E-10
       185  18 -1.052213E+06 -1.022034E+05 -7.234830E+04 -1.045273E+04 -5.567471E-10 -1.091560E-09
       185  19  4.838811E+05  1.800709E+05  2.181930E+05 -1.578528E+04  2.581223E+04  9.973475E+03
       185  20  4.951852E+05  1.698432E+05  2.444971E+05  2.270348E+03  5.766539E+04  1.223353E+04
       185  21  5.489757E+05  2.977705E+05  3.268324E+05 -3.610654E+04  8.954231E+04  4.445632E+03
       185  22 -2.519461E+05 -3.585113E+03  3.566798E+04 -2.301241E+04  2.735982E+04  9.974740E+03
       185  23 -2.729995E+05 -2.181903E+04  5.419599E+04  5.076266E+03  5.700873E+04  1.223377E+04
       185  24 -2.519058E+05  9.780829E+04  1.272727E+05 -2.327102E+04  8.667960E+04  4.440405E+03
       185  25 -9.872818E+05 -1.872815E+05 -1.468974E+05 -3.023102E+04  2.890556E+04  9.975969E+03
       185  26 -1.040648E+06 -2.135254E+05 -1.361491E+05  7.878493E+03  5.635286E+04  1.223400E+04
       185  27 -1.052205E+06 -1.022015E+05 -7.233504E+04 -1.045243E+04  8.382053E+04  4.435056E+03
       186   1  3.520487E+05  9.498408E+05  4.197622E+05 -1.075269E+05  1.749141E+03  1.979524E+05
       186   2  4.977008E+04  8.043388E+05  2.292023E+05  4.555058E+03  6.096036E+03  1.255331E+05
       186   3  7.055174E+04  7.476124E+05  1.662434E+05 -5.815834E+04  2.230504E+03  5.307748E+04
       186   4  2.259076E+05  4.462138E+05  2.942712E+05 -7.210188E+04  1.769036E+03  1.961044E+05
       186   5 -5.069638E+04  4.019485E+05  1.296067E+05  1.473248E+04  6.098153E+03  1.255121E+05
       186   6 -4.441317E+03  4.462053E+05  9.135079E+04 -7.323007E+04  2.218353E+03  5.487179E+04
       186   7  9.975191E+04 -5.718090E+04  1.687618E+05 -3.670531E+04  1.788731E+03  1.942578E+05
       186   8 -1.511746E+05 -2.947281E+02  2.999917E+04  2.490351E+04  6.100270E+03  1.254912E+05
       186   9 -7.944026E+04  1.448810E+05  1.645152E+04 -8.829437E+04  2.206112E+03  5.666523E+04
       186  10  3.520382E+05  9.497987E+05  4.196886E+05 -1.075272E+05  1.541788E-09  7.580209E-10
       186  11  4.976582E+04  8.043219E+05  2.291726E+05  4.554442E+03  7.366730E-11  1.767254E-09
       186  12  7.055098E+04  7.476094E+05  1.662381E+05 -5.815844E+04 -1.216428E-10 -3.758188E-09
       186  13  2.258973E+05  4.461726E+05  2.941990E+05 -7.210216E+04  3.027717E-09 -9.090870E-11
       186  14 -5.070065E+04  4.019316E+05  1.295771E+05  1.473187E+04  6.525082E-10  1.548722E-09
       186  15 -4.442130E+03  4.462020E+05  9.134513E+04 -7.323017E+04  1.393035E-09 -7.541558E-10
       186  16  9.974177E+04 -5.722142E+04  1.686909E+05 -3.670559E+04  1.545718E-09 -2.634551E-09
       186  17 -1.511789E+05 -3.116469E+02  2.996951E+04  2.490289E+04  5.978028E-09 -1.675161E-09
       186  18 -7.944113E+04  1.448776E+05  1.644547E+04 -8.829447E+04  1.518658E-10  1.546062E-09
       186  19  3.520487E+05  9.498408E+05  4.197622E+05 -1.075269E+05 -1.749141E+03 -1.979524E+05
       186  20  4.977008E+04  8.043388E+05  2.292023E+05  4.555058E+03 -6.096036E+03 -1.255331E+05
       186  21  7.055174E+04  7.476124E+05  1.662434E+05 -5.815834E+04 -2.230504E+03 -5.307748E+04
       186  22  2.259076E+05  4.462138E+05  2.942712E+05 -7.210188E+04 -1.769036E+03 -1.961044E+05
       186  23 -5.069638E+04  4.019485E+05  1.296067E+05  1.473248E+04 -6.098153E+03 -1.255121E+05
       186  24 -4.441317E+03  4.462053E+05  9.135079E+04 -7.323007E+04 -2.218353E+03 -5.487179E+04
       186  25  9.975191E+04 -5.718090E+04  1.687618E+05 -3.670531E+04 -1.788731E+03 -1.942578E+05
       186  26 -1.511746E+05 -2.947281E+02  2.999917E+04  2.490351E+04 -6.100270E+03 -1.254912E+05
       186  27 -7.944026E+04  1.448810E+05  1.645152E+04 -8.829437E+04 -2.206112E+03 -5.666523E+04
       187   1 -1.098935E+04  2.555807E+05  3.608537E+04 -7.806633E+04 -1.442529E+03  3.875233E+04
       187   2 -8.098759E+04  1.443458E+05 -1.581885E+04  1.542741E+04 -4.042832E+03  1.134542E+04
       187   3 -7.403219E+04  5.393347E+04 -3.105492E+04 -6.609983E+04 -5.786677E+03 -1.604931E+04
       187   4  3.277253E+04  4.311757E+05  7.977988E+04 -7.279213E+04 -1.446385E+03  3.945205E+04
       187   5 -1.201123E+04  4.207705E+05  5.270613E+04  1.467071E+04 -4.045564E+03  1.185203E+04
       187   6  2.017574E+04  4.312044E+05  6.242676E+04 -7.288164E+04 -5.787957E+03 -1.574025E+04
       187   7  7.653221E+04  6.067987E+05  1.234721E+05 -6.751639E+04 -1.450229E+03  4.015197E+04
       187   8  5.695942E+04  6.972645E+05  1.212254E+05  1.391378E+04 -4.048296E+03  1.235885E+04
       187   9  1.143732E+05  8.086046E+05  1.558978E+05 -7.966740E+04 -5.789243E+03 -1.543099E+04
       187  10 -1.098975E+04  2.555791E+05  3.608255E+04 -7.806629E+04 -3.075725E-09 -2.604625E-09
       187  11 -8.098764E+04  1.443456E+05 -1.581912E+04  1.542745E+04 -1.786621E-09  1.830812E-09
       187  12 -7.403229E+04  5.393319E+04 -3.105547E+04 -6.609990E+04 -6.199400E-10 -1.199788E-09
       187  13  3.277211E+04  4.311740E+05  7.977696E+04 -7.279208E+04 -9.628288E-10  5.677891E-11
       187  14 -1.201128E+04  4.207703E+05  5.270584E+04  1.467075E+04  1.464658E-09  1.533303E-09
       187  15  2.017564E+04  4.312041E+05  6.242623E+04 -7.288171E+04 -1.270817E-09 -7.653844E-10
       187  16  7.653178E+04  6.067969E+05  1.234691E+05 -6.751634E+04 -2.265612E-09  2.044034E-10
       187  17  5.695936E+04  6.972644E+05  1.212251E+05  1.391382E+04 -4.050957E-09 -1.804232E-09
       187  18  1.143731E+05  8.086043E+05  1.558973E+05 -7.966747E+04 -1.114350E-09 -7.597595E-10
       187  19 -1.098935E+04  2.555807E+05  3.608537E+04 -7.806633E+04  1.442529E+03 -3.875233E+04
       187  20 -8.098759E+04  1.443458E+05 -1.581885E+04  1.542741E+04  4.042832E+03 -1.134542E+04
       187  21 -7.403219E+04  5.393347E+04 -3.105492E+04 -6.609983E+04  5.786677E+03  1.604931E+04
       187  22  3.277253E+04  4.311757E+05  7.977988E+04 -7.279213E+04  1.446385E+03 -3.945205E+04
       187  23 -1.201123E+04  4.207705E+05  5.270613E+04  1.467071E+04  4.045564E+03 -1.185203E+04
       187  24  2.017574E+04  4.312044E+05  6.242676E+04 -7.288164E+04  5.787957E+03  1.574025E+04
       187  25  7.653221E+04  6.067987E+05  1.234721E+05 -6.751639E+04  1.450229E+03 -4.015197E+04
       187  26  5.695942E+04  6.972645E+05  1.212254E+05  1.391378E+04  4.048296E+03 -1.235885E+04
       187  27  1.143732E+05  8.086046E+05  1.558978E+05 -7.966740E+04  5.789243E+03  1.543099E+04
       188   1 -2.143556E+05 -4.198594E+05 -1.459429E+05 -8.191168E+04 -1.037478E+04 -3.017595E+04
       188   2 -2.740511E+05 -5.551384E+05 -1.523924E+05  2.398056E+04 -1.529900E+04 -7.404955E+04
       188   3 -1.225705E+05 -6.277334E+05 -7.662243E+04 -5.052202E+04 -5.429415E+03 -1.178679E+05
       188   4  3.112227E+02  4.404086E+05  6.762352E+04 -7.420024E+04 -1.038725E+04 -2.749978E+04
       188   5 -3.339567E+04  4.088705E+05  8.645719E+04  1.614115E+04 -1.529486E+04 -7.463059E+04
       188   6  1.444666E+05  4.404793E+05  1.896783E+05 -7.389298E+04 -5.416558E+03 -1.217136E+05
       188   7  2.149229E+05  1.301349E+06  2.811347E+05 -6.647726E+04 -1.039966E+04 -2.481989E+04
       188   8  2.071903E+05  1.373724E+06  3.252376E+05  8.290256E+03 -1.529071E+04 -7.521247E+04
       188   9  4.114197E+05  1.509728E+06  4.558937E+05 -9.730360E+04 -5.403425E+03 -1.255659E+05
       188  10 -2.143560E+05 -4.198604E+05 -1.459448E+05 -8.191193E+04 -1.178288E-09 -2.057782E-09
       188  11 -2.740528E+05 -5.551444E+05 -1.524032E+05  2.397965E+04  1.013030E-09  1.419620E-09
       188  12 -1.225743E+05 -6.277483E+05 -7.664862E+04 -5.052253E+04  4.557425E-10  1.304147E-10
       188  13  3.109039E+02  4.404078E+05  6.762189E+04 -7.420047E+04  1.816271E-09 -4.123806E-11
       188  14 -3.339741E+04  4.088645E+05  8.644629E+04  1.614023E+04  1.608037E-09  9.108695E-10
       188  15  1.444626E+05  4.404634E+05  1.896505E+05 -7.389351E+04  9.457087E-10 -3.111801E-10
       188  16  2.149226E+05  1.301348E+06  2.811334E+05 -6.647746E+04 -2.347384E-09  2.265216E-10
       188  17  2.071886E+05  1.373718E+06  3.252265E+05  8.289331E+03  3.647210E-09 -1.382313E-09
       188  18  4.114154E+05  1.509711E+06  4.558640E+05 -9.730414E+04  1.151925E-09 -9.758775E-10
       188  19 -2.143556E+05 -4.198594E+05 -1.459429E+05 -8.191168E+04  1.037478E+04  3.017595E+04
       188  20 -2.740511E+05 -5.551384E+05 -1.523924E+05  2.398056E+04  1.529900E+04  7.404955E+04
       188  21 -1.225705E+05 -6.277334E+05 -7.662243E+04 -5.052202E+04  5.429415E+03  1.178679E+05
       188  22  3.112227E+02  4.404086E+05  6.762352E+04 -7.420024E+04  1.038725E+04  2.749978E+04
       188  23 -3.339567E+04  4.088705E+05  8.645719E+04  1.614115E+04  1.529486E+04  7.463059E+04
       188  24  1.444666E+05  4.404793E+05  1.896783E+05 -7.389298E+04  5.416558E+03  1.217136E+05
       188  25  2.149229E+05  1.301349E+06  2.811347E+05 -6.647726E+04  1.039966E+04  2.481989E+04
       188  26  2.071903E+05  1.373724E+06  3.252376E+05  8.290256E+03  1.529071E+04  7.521247E+04
       188  27  4.114197E+05  1.509728E+06  4.558937E+05 -9.730360E+04  5.403425E+03  1.255659E+05
       189   1 -5.744481E+06 -1.832158E+06 -1.197546E+06 -1.977333E+06 -5.717558E+05 -2.047015E+05
       189   2 -5.595241E+06 -9.994532E+05 -6.682771E+05 -2.096658E+06 -3.720902E+05 -1.037458E+05
       189   3 -5.769270E+06 -1.014406E+06 -5.225920E+05 -2.016908E+06 -1.632846E+05 -2.685374E+04
       189   4 -4.702401E+06 -1.277685E+06 -8.793855E+05 -1.532412E+06 -5.595410E+05 -2.002435E+05
       189   5 -4.495567E+06 -5.388306E+05 -3.633957E+05 -1.751590E+06 -3.687047E+05 -1.024998E+05
       189   6 -4.609695E+06 -6.450196E+05 -2.234425E+05 -1.771862E+06 -1.687180E+05 -2.888803E+04
       189   7 -3.659199E+06 -7.227902E+05 -5.613314E+05 -1.086706E+06 -5.473028E+05 -1.957685E+05
       189   8 -3.394711E+06 -7.805876E+04 -5.862757E+04 -1.405939E+06 -3.653120E+05 -1.012505E+05
       189   9 -3.448814E+06 -2.756402E+05  7.559994E+04 -1.526443E+06 -1.741623E+05 -3.092494E+04
       189  10 -5.744846E+06 -1.832293E+06 -1.198247E+06 -1.977428E+06  6.778830E-10  3.923845E-10
       189  11 -5.595394E+06 -9.995026E+05 -6.685604E+05 -2.096689E+06  2.524188E-09 -8.483425E-11
       189  12 -5.769299E+06 -1.014414E+06 -5.226440E+05 -2.016911E+06  2.074086E-09 -7.678253E-10
       189  13 -4.702751E+06 -1.277813E+06 -8.800548E+05 -1.532503E+06  2.638936E-09 -9.963976E-10
       189  14 -4.495717E+06 -5.388789E+05 -3.636732E+05 -1.751621E+06  2.090450E-09 -3.590116E-09
       189  15 -4.609726E+06 -6.450282E+05 -2.234980E+05 -1.771866E+06  2.966755E-09  2.911569E-10
       189  16 -3.659532E+06 -7.229126E+05 -5.619704E+05 -1.086792E+06 -1.250994E-09 -8.410916E-10
       189  17 -3.394857E+06 -7.810595E+04 -5.889936E+04 -1.405969E+06  2.720450E-09 -2.640448E-09
       189  18 -3.448847E+06 -2.756494E+05  7.554078E+04 -1.526447E+06  8.606246E-10  1.177069E-09
       189  19 -5.744481E+06 -1.832158E+06 -1.197546E+06 -1.977333E+06  5.717558E+05  2.047015E+05
       189  20 -5.595241E+06 -9.994532E+05 -6.682771E+05 -2.096658E+06  3.720902E+05  1.037458E+05
       189  21 -5.769270E+06 -1.014406E+06 -5.225920E+05 -2.016908E+06  1.632846E+05  2.685374E+04
       189  22 -4.702401E+06 -1.277685E+06 -8.793855E+05 -1.532412E+06  5.595410E+05  2.002435E+05
       189  23 -4.495567E+06 -5.388306E+05 -3.633957E+05 -1.751590E+06  3.687047E+05  1.024998E+05
       189  24 -4.609695E+06 -6.450196E+05 -2.234425E+05 -1.771862E+06  1.687180E+05  2.888803E+04
       189  25 -3.659199E+06 -7.227902E+05 -5.613314E+05 -1.086706E+06  5.473028E+05  1.957685E+05
       189  26 -3.394711E+06 -7.805876E+04 -5.862757E+04 -1.405939E+06  3.653120E+05  1.012505E+05
       189  27 -3.448814E+06 -2.756402E+05  7.559994E+04 -1.526443E+06  1.741623E+05  3.092494E+04
       190   1 -5.589395E+06 -1.149302E+06 -4.603345E+05 -2.018656E+06 -1.352470E+05 -2.123101E+04
       190   2 -5.534405E+06 -1.004509E+06 -3.467179E+05 -1.994471E+06 -8.938986E+04 -3.664173E+03
       190   3 -5.479797E+06 -1.005397E+06 -2.953038E+05 -1.992452E+06 -4.237688E+04  1.083558E+04
       190   4 -4.575673E+06 -7.471233E+05 -1.827480E+05 -1.723590E+06 -1.347225E+05 -2.104149E+04
       190   5 -4.569919E+06 -6.352027E+05 -8.571060E+04 -1.727224E+06 -8.995640E+04 -3.881320E+03
       190   6 -4.564265E+06 -6.686367E+05 -4.992506E+04 -1.753036E+06 -4.403946E+04  1.020991E+04
       190   7 -3.560949E+06 -3.448553E+05  9.474478E+04 -1.428075E+06 -1.341969E+05 -2.085151E+04
       190   8 -3.604529E+06 -2.658342E+05  1.752134E+05 -1.459597E+06 -9.052383E+04 -4.098804E+03
       190   9 -3.647921E+06 -3.318387E+05  1.953800E+05 -1.513303E+06 -4.570473E+04  9.583297E+03
       190  10 -5.589415E+06 -1.149307E+06 -4.603700E+05 -2.018658E+06  3.120826E-09  1.410296E-09
       190  11 -5.534414E+06 -1.004512E+06 -3.467331E+05 -1.994472E+06  4.716810E-10  8.283240E-10
       190  12 -5.479799E+06 -1.005397E+06 -2.953075E+05 -1.992452E+06  5.469738E-09  1.108038E-09
       190  13 -4.575693E+06 -7.471287E+05 -1.827833E+05 -1.723593E+06  1.700350E-09  1.601466E-09
       190  14 -4.569928E+06 -6.352049E+05 -8.572595E+04 -1.727224E+06 -5.787485E-11  1.625589E-09
       190  15 -4.564268E+06 -6.686373E+05 -4.992892E+04 -1.753035E+06  1.686883E-09  2.208455E-09
       190  16 -3.560969E+06 -3.448606E+05  9.470991E+04 -1.428077E+06 -6.731821E-10  1.231416E-09
       190  17 -3.604538E+06 -2.658364E+05  1.751979E+05 -1.459597E+06 -1.367966E-09 -1.130542E-09
       190  18 -3.647923E+06 -3.318394E+05  1.953759E+05 -1.513302E+06 -2.669921E-10 -4.602729E-10
       190  19 -5.589395E+06 -1.149302E+06 -4.603345E+05 -2.018656E+06  1.352470E+05  2.123101E+04
       190  20 -5.534405E+06 -1.004509E+06 -3.467179E+05 -1.994471E+06  8.938986E+04  3.664173E+03
       190  21 -5.479797E+06 -1.005397E+06 -2.953038E+05 -1.992452E+06  4.237688E+04 -1.083558E+04
       190  22 -4.575673E+06 -7.471233E+05 -1.827480E+05 -1.723590E+06  1.347225E+05  2.104149E+04
       190  23 -4.569919E+06 -6.352027E+05 -8.571060E+04 -1.727224E+06  8.995640E+04  3.881320E+03
       190  24 -4.564265E+06 -6.686367E+05 -4.992506E+04 -1.753036E+06  4.403946E+04 -1.020991E+04
       190  25 -3.560949E+06 -3.448553E+05  9.474478E+04 -1.428075E+06  1.341969E+05  2.085151E+04
       190  26 -3.604529E+06 -2.658342E+05  1.752134E+05 -1.459597E+06  9.052383E+04  4.098804E+03
       190  27 -3.647921E+06 -3.318387E+05  1.953800E+05 -1.513303E+06  4.570473E+04 -9.583297E+03
       191   1 -5.320348E+06 -9.751339E+05 -2.455505E+05 -1.960651E+06 -3.498445E+04  1.119162E+04
       191   2 -5.262347E+06 -8.985239E+05 -2.028792E+05 -1.903114E+06 -2.336620E+04  1.208385E+04
       191   3 -5.147236E+06 -8.969295E+05 -1.713063E+05 -1.913937E+06 -1.147808E+04  1.223880E+04
       191   4 -4.556020E+06 -6.849013E+05 -3.936168E+04 -1.751287E+06 -3.601962E+04  1.080168E+04
       191   5 -4.583882E+06 -6.424927E+05 -2.000796E+04 -1.718942E+06 -2.466816E+04  1.159546E+04
       191   6 -4.554582E+06 -6.750324E+05 -1.152834E+04 -1.754957E+06 -1.304857E+04  1.165171E+04
       191   7 -3.791127E+06 -3.946332E+05  1.667746E+05 -1.541688E+06 -3.705617E+04  1.041122E+04
       191   8 -3.904970E+06 -3.864346E+05  1.628222E+05 -1.534588E+06 -2.597169E+04  1.110649E+04
       191   9 -3.961587E+06 -4.531159E+05  1.482187E+05 -1.595839E+06 -1.462072E+04  1.106401E+04
       191  10 -5.320350E+06 -9.751343E+05 -2.455531E+05 -1.960651E+06  1.583630E-09 -3.855031E-10
       191  11 -5.262348E+06 -8.985242E+05 -2.028805E+05 -1.903114E+06  1.106198E-09  6.186495E-10
       191  12 -5.147236E+06 -8.969297E+05 -1.713068E+05 -1.913937E+06 -3.584659E-09 -1.210700E-09
       191  13 -4.556022E+06 -6.849018E+05 -3.936434E+04 -1.751287E+06  1.097813E-09  1.252652E-09
       191  14 -4.583882E+06 -6.424931E+05 -2.000936E+04 -1.718942E+06 -1.491538E-09  1.163354E-09
       191  15 -4.554582E+06 -6.750326E+05 -1.152892E+04 -1.754957E+06 -4.298598E-09 -7.770325E-10
       191  16 -3.791129E+06 -3.946337E+05  1.667718E+05 -1.541688E+06  3.514779E-09  7.935291E-10
       191  17 -3.904970E+06 -3.864349E+05  1.628207E+05 -1.534587E+06  2.176704E-09  9.623869E-10
       191  18 -3.961587E+06 -4.531160E+05  1.482180E+05 -1.595839E+06 -2.027443E-09 -1.219364E-09
       191  19 -5.320348E+06 -9.751339E+05 -2.455505E+05 -1.960651E+06  3.498445E+04 -1.119162E+04
       191  20 -5.262347E+06 -8.985239E+05 -2.028792E+05 -1.903114E+06  2.336620E+04 -1.208385E+04
       191  21 -5.147236E+06 -8.969295E+05 -1.713063E+05 -1.913937E+06  1.147808E+04 -1.223880E+04
       191  22 -4.556020E+06 -6.849013E+05 -3.936168E+04 -1.751287E+06  3.601962E+04 -1.080168E+04
       191  23 -4.583882E+06 -6.424927E+05 -2.000796E+04 -1.718942E+06  2.466816E+04 -1.159546E+04
       191  24 -4.554582E+06 -6.750324E+05 -1.152834E+04 -1.754957E+06  1.304857E+04 -1.165171E+04
       191  25 -3.791127E+06 -3.946332E+05  1.667746E+05 -1.541688E+06  3.705617E+04 -1.041122E+04
       191  26 -3.904970E+06 -3.864346E+05  1.628222E+05 -1.534588E+06  2.597169E+04 -1.110649E+04
       191  27 -3.961587E+06 -4.531159E+05  1.482187E+05 -1.595839E+06  1.462072E+04 -1.106401E+04
       192   1 -4.956286E+06 -8.314842E+05 -1.177931E+05 -1.866738E+06 -8.990764E+03  1.047433E+04
       192   2 -4.889112E+06 -7.539055E+05 -8.651265E+04 -1.796231E+06 -4.646943E+03  7.485658E+03
       192   3 -4.748904E+06 -7.520287E+05 -5.780177E+04 -1.810664E+06 -2.159398E+02  4.253186E+03
       192   4 -4.551548E+06 -6.791261E+05 -9.131083E+03 -1.757149E+06 -1.048221E+04  9.917643E+03
       192   5 -4.587980E+06 -6.406891E+05 -5.443891E+03 -1.714898E+06 -6.229048E+03  6.895908E+03
       192   6 -4.551370E+06 -6.779328E+05 -4.251727E+03 -1.757588E+06 -1.889264E+03  3.630275E+03
       192   7 -4.146651E+06 -5.267586E+05  9.951646E+04 -1.647495E+06 -1.197473E+04  9.360556E+03
       192   8 -4.286760E+06 -5.274677E+05  7.561672E+04 -1.633529E+06 -7.812000E+03  6.305842E+03
       192   9 -4.353799E+06 -6.038350E+05  4.929470E+04 -1.704497E+06 -3.563174E+03  3.007148E+03
       192  10 -4.956287E+06 -8.314844E+05 -1.177935E+05 -1.866738E+06 -3.472443E-09 -1.739325E-09
       192  11 -4.889112E+06 -7.539055E+05 -8.651280E+04 -1.796231E+06 -3.274468E-11 -1.955460E-09
       192  12 -4.748904E+06 -7.520287E+05 -5.780180E+04 -1.810664E+06 -1.003222E-09  5.820248E-10
       192  13 -4.551549E+06 -6.791263E+05 -9.131474E+03 -1.757149E+06 -3.673376E-09 -2.080504E-09
       192  14 -4.587980E+06 -6.406891E+05 -5.444053E+03 -1.714898E+06 -1.787015E-09 -2.611218E-11
       192  15 -4.551370E+06 -6.779328E+05 -4.251759E+03 -1.757588E+06 -1.490191E-09 -1.539724E-09
       192  16 -4.146652E+06 -5.267587E+05  9.951602E+04 -1.647495E+06 -3.919859E-10  1.297259E-09
       192  17 -4.286760E+06 -5.274677E+05  7.561653E+04 -1.633529E+06  1.867739E-10  1.451813E-09
       192  18 -4.353799E+06 -6.038350E+05  4.929465E+04 -1.704497E+06 -4.422871E-10 -2.428036E-09
       192  19 -4.956286E+06 -8.314842E+05 -1.177931E+05 -1.866738E+06  8.990764E+03 -1.047433E+04
       192  20 -4.889112E+06 -7.539055E+05 -8.651265E+04 -1.796231E+06  4.646943E+03 -7.485658E+03
       192  21 -4.748904E+06 -7.520287E+05 -5.780177E+04 -1.810664E+06  2.159398E+02 -4.253186E+03
       192  22 -4.551548E+06 -6.791261E+05 -9.131083E+03 -1.757149E+06  1.048221E+04 -9.917643E+03
       192  23 -4.587980E+06 -6.406891E+05 -5.443891E+03 -1.714898E+06  6.229048E+03 -6.895908E+03
       192  24 -4.551370E+06 -6.779328E+05 -4.251727E+03 -1.757588E+06  1.889264E+03 -3.630275E+03
       192  25 -4.146651E+06 -5.267586E+05  9.951646E+04 -1.647495E+06  1.197473E+04 -9.360556E+03
       192  26 -4.286760E+06 -5.274677E+05  7.561672E+04 -1.633529E+06  7.812000E+03 -6.305842E+03
       192  27 -4.353799E+06 -6.038350E+05  4.929470E+04 -1.704497E+06  3.563174E+03 -3.007148E+03
       193   1 -4.541762E+06 -6.751205E+05 -1.374233E+03 -1.755888E+06  1.434392E+03  1.932562E+03
       193   2 -4.472567E+06 -5.964733E+05  2.605951E+04 -1.682849E+06  5.610496E+03 -1.460421E+03
       193   3 -4.328250E+06 -5.956191E+05  5.112052E+04 -1.697427E+06  9.749161E+03 -4.746938E+03
       193   4 -4.550908E+06 -6.784630E+05 -4.217705E+03 -1.758157E+06 -2.354211E+02  1.311154E+03
       193   5 -4.588532E+06 -6.400555E+05 -5.149049E+03 -1.714163E+06  3.980388E+03 -2.067385E+03
       193   6 -4.551054E+06 -6.794517E+05 -8.484838E+03 -1.757793E+06  8.158253E+03 -5.339584E+03
       193   7 -4.560054E+06 -6.818054E+05 -7.061178E+03 -1.760427E+06 -1.905211E+03  6.897531E+02
       193   8 -4.704484E+06 -6.836369E+05 -3.635883E+04 -1.745472E+06  2.350616E+03 -2.674225E+03
       193   9 -4.773809E+06 -7.632815E+05 -6.809456E+04 -1.818139E+06  6.567976E+03 -5.931993E+03
       193  10 -4.541762E+06 -6.751205E+05 -1.374244E+03 -1.755888E+06  2.358912E-10  2.351664E-09
       193  11 -4.472567E+06 -5.964733E+05  2.605945E+04 -1.682849E+06 -1.505107E-09 -3.281491E-09
       193  12 -4.328250E+06 -5.956191E+05  5.112030E+04 -1.697427E+06 -3.344975E-09 -1.303259E-09
       193  13 -4.550908E+06 -6.784630E+05 -4.217708E+03 -1.758157E+06 -5.575168E-10 -1.805530E-09
       193  14 -4.588532E+06 -6.400555E+05 -5.149087E+03 -1.714163E+06  2.506570E-09  2.024633E-09
       193  15 -4.551054E+06 -6.794518E+05 -8.485017E+03 -1.757793E+06 -3.843951E-09 -5.022354E-10
       193  16 -4.560054E+06 -6.818054E+05 -7.061186E+03 -1.760427E+06 -4.175904E-10 -2.300279E-09
       193  17 -4.704484E+06 -6.836369E+05 -3.635886E+04 -1.745472E+06  8.660677E-10  2.578383E-09
       193  18 -4.773809E+06 -7.632815E+05 -6.809471E+04 -1.818139E+06 -1.394764E-09 -5.981600E-10
       193  19 -4.541762E+06 -6.751205E+05 -1.374233E+03 -1.755888E+06 -1.434392E+03 -1.932562E+03
       193  20 -4.472567E+06 -5.964733E+05  2.605951E+04 -1.682849E+06 -5.610496E+03  1.460421E+03
       193  21 -4.328250E+06 -5.956191E+05  5.112052E+04 -1.697427E+06 -9.749161E+03  4.746938E+03
       193  22 -4.550908E+06 -6.784630E+05 -4.217705E+03 -1.758157E+06  2.354211E+02 -1.311154E+03
       193  23 -4.588532E+06 -6.400555E+05 -5.149049E+03 -1.714163E+06 -3.980388E+03  2.067385E+03
       193  24 -4.551054E+06 -6.794517E+05 -8.484838E+03 -1.757793E+06 -8.158253E+03  5.339584E+03
       193  25 -4.560054E+06 -6.818054E+05 -7.061178E+03 -1.760427E+06  1.905211E+03 -6.897531E+02
       193  26 -4.704484E+06 -6.836369E+05 -3.635883E+04 -1.745472E+06 -2.350616E+03  2.674225E+03
       193  27 -4.773809E+06 -7.632815E+05 -6.809456E+04 -1.818139E+06 -6.567976E+03  5.931993E+03
       194   1 -4.130466E+06 -5.185943E+05  1.032558E+05 -1.643594E+06  1.232241E+04 -6.646586E+03
       194   2 -4.067769E+06 -4.456525E+05  1.210191E+05 -1.576409E+06  2.301898E+04 -7.285728E+03
       194   3 -3.941526E+06 -4.529980E+05  1.288583E+05 -1.585403E+06  3.349535E+04 -7.312991E+03
       194   4 -4.553171E+06 -6.764320E+05 -1.068485E+04 -1.756604E+06  1.066004E+04 -7.266473E+03
       194   5 -4.585573E+06 -6.407862E+05 -1.840420E+04 -1.716831E+06  2.158061E+04 -7.823418E+03
       194   6 -4.554484E+06 -6.854839E+05 -3.623255E+04 -1.753245E+06  3.227936E+04 -7.768832E+03
       194   7 -4.975703E+06 -8.342600E+05 -1.246411E+05 -1.869545E+06  8.998928E+03 -7.885900E+03
       194   8 -5.103117E+06 -8.359043E+05 -1.578513E+05 -1.857148E+06  2.014356E+04 -8.360614E+03
       194   9 -5.167080E+06 -9.179472E+05 -2.013572E+05 -1.920937E+06  3.106468E+04 -8.224175E+03
       194  10 -4.130466E+06 -5.185944E+05  1.032554E+05 -1.643594E+06 -2.098685E-09 -5.942698E-10
       194  11 -4.067770E+06 -4.456527E+05  1.210180E+05 -1.576409E+06  8.253225E-10 -7.660508E-10
       194  12 -3.941527E+06 -4.529983E+05  1.288561E+05 -1.585403E+06  1.376258E-09  8.701428E-10
       194  13 -4.553171E+06 -6.764321E+05 -1.068516E+04 -1.756604E+06 -1.764597E-09 -3.710481E-10
       194  14 -4.585573E+06 -6.407864E+05 -1.840520E+04 -1.716831E+06 -2.610469E-09 -6.814289E-10
       194  15 -4.554485E+06 -6.854843E+05 -3.623463E+04 -1.753245E+06  8.149011E-10 -1.239698E-09
       194  16 -4.975703E+06 -8.342601E+05 -1.246414E+05 -1.869545E+06 -3.593511E-11 -6.173017E-10
       194  17 -5.103118E+06 -8.359045E+05 -1.578522E+05 -1.857147E+06  1.315682E-09  1.035455E-09
       194  18 -5.167081E+06 -9.179475E+05 -2.013592E+05 -1.920937E+06 -3.807943E-10 -6.403165E-10
       194  19 -4.130466E+06 -5.185943E+05  1.032558E+05 -1.643594E+06 -1.232241E+04  6.646586E+03
       194  20 -4.067769E+06 -4.456525E+05  1.210191E+05 -1.576409E+06 -2.301898E+04  7.285728E+03
       194  21 -3.941526E+06 -4.529980E+05  1.288583E+05 -1.585403E+06 -3.349535E+04  7.312991E+03
       194  22 -4.553171E+06 -6.764320E+05 -1.068485E+04 -1.756604E+06 -1.066004E+04  7.266473E+03
       194  23 -4.585573E+06 -6.407862E+05 -1.840420E+04 -1.716831E+06 -2.158061E+04  7.823418E+03
       194  24 -4.554484E+06 -6.854839E+05 -3.623255E+04 -1.753245E+06 -3.227936E+04  7.768832E+03
       194  25 -4.975703E+06 -8.342600E+05 -1.246411E+05 -1.869545E+06 -8.998928E+03  7.885900E+03
       194  26 -5.103117E+06 -8.359043E+05 -1.578513E+05 -1.857148E+06 -2.014356E+04  8.360614E+03
       194  27 -5.167080E+06 -9.179472E+05 -2.013572E+05 -1.920937E+06 -3.106468E+04  8.224175E+03
       195   1 -3.775693E+06 -3.830110E+05  1.643661E+05 -1.550734E+06  4.165610E+04 -6.984450E+03
       195   2 -3.723612E+06 -3.089182E+05  1.507605E+05 -1.488784E+06  8.311098E+04  4.807377E+03
       195   3 -3.658573E+06 -3.814379E+05  8.163441E+04 -1.462568E+06  1.234792E+05  1.952584E+04
       195   4 -4.561677E+06 -6.709085E+05 -4.594084E+04 -1.755280E+06  3.982926E+04 -7.669232E+03
       195   5 -4.573244E+06 -6.335922E+05 -7.880601E+04 -1.723897E+06  8.233980E+04  4.514976E+03
       195   6 -4.572122E+06 -7.431904E+05 -1.680945E+05 -1.728246E+06  1.237584E+05  1.962395E+04
       195   7 -5.347063E+06 -9.587790E+05 -2.563019E+05 -1.959596E+06  3.800496E+04 -8.353129E+03
       195   8 -5.422176E+06 -9.582187E+05 -3.084370E+05 -1.958715E+06  8.156972E+04  4.222998E+03
       195   9 -5.484860E+06 -1.104870E+06 -4.178991E+05 -1.993559E+06  1.240369E+05  1.972181E+04
       195  10 -3.775695E+06 -3.830115E+05  1.643627E+05 -1.550734E+06  3.028348E-09  2.489414E-09
       195  11 -3.723619E+06 -3.089201E+05  1.507474E+05 -1.488784E+06 -6.976235E-10 -4.994992E-10
       195  12 -3.658589E+06 -3.814424E+05  8.160485E+04 -1.462570E+06 -1.915772E-09  1.838029E-10
       195  13 -4.561678E+06 -6.709090E+05 -4.594394E+04 -1.755280E+06 -3.729672E-10 -4.510498E-11
       195  14 -4.573252E+06 -6.335941E+05 -7.881889E+04 -1.723897E+06  6.850293E-10 -3.676669E-10
       195  15 -4.572139E+06 -7.431949E+05 -1.681242E+05 -1.728248E+06  3.657750E-10  8.310843E-10
       195  16 -5.347064E+06 -9.587795E+05 -2.563048E+05 -1.959595E+06  2.660024E-10  1.653954E-10
       195  17 -5.422184E+06 -9.582205E+05 -3.084496E+05 -1.958716E+06 -1.076601E-09 -1.923933E-09
       195  18 -5.484876E+06 -1.104875E+06 -4.179290E+05 -1.993561E+06  1.069124E-09 -7.983148E-11
       195  19 -3.775693E+06 -3.830110E+05  1.643661E+05 -1.550734E+06 -4.165610E+04  6.984450E+03
       195  20 -3.723612E+06 -3.089182E+05  1.507605E+05 -1.488784E+06 -8.311098E+04 -4.807377E+03
       195  21 -3.658573E+06 -3.814379E+05  8.163441E+04 -1.462568E+06 -1.234792E+05 -1.952584E+04
       195  22 -4.561677E+06 -6.709085E+05 -4.594084E+04 -1.755280E+06 -3.982926E+04  7.669232E+03
       195  23 -4.573244E+06 -6.335922E+05 -7.880601E+04 -1.723897E+06 -8.233980E+04 -4.514976E+03
       195  24 -4.572122E+06 -7.431904E+05 -1.680945E+05 -1.728246E+06 -1.237584E+05 -1.962395E+04
       195  25 -5.347063E+06 -9.587790E+05 -2.563019E+05 -1.959596E+06 -3.800496E+04  8.353129E+03
       195  26 -5.422176E+06 -9.582187E+05 -3.084370E+05 -1.958715E+06 -8.156972E+04 -4.222998E+03
       195  27 -5.484860E+06 -1.104870E+06 -4.178991E+05 -1.993559E+06 -1.240369E+05 -1.972181E+04
       196   1 -3.519468E+06 -3.039296E+05  7.385269E+04 -1.543263E+06  1.608530E+05  2.822921E+04
       196   2 -3.457565E+06 -1.088917E+05 -4.470946E+04 -1.419687E+06  3.364820E+05  9.169920E+04
       196   3 -3.674991E+06 -7.021693E+05 -5.017798E+05 -1.129010E+06  5.032050E+05  1.787988E+05
       196   4 -4.603446E+06 -6.491760E+05 -2.055037E+05 -1.772507E+06  1.552864E+05  2.615012E+04
       196   5 -4.505038E+06 -5.449507E+05 -3.342273E+05 -1.746297E+06  3.395827E+05  9.283918E+04
       196   6 -4.688219E+06 -1.231622E+06 -8.088216E+05 -1.552842E+06  5.149731E+05  1.831061E+05
       196   7 -5.686287E+06 -9.944286E+05 -4.849541E+05 -2.001426E+06  1.497304E+05  2.407355E+04
       196   8 -5.551438E+06 -9.808778E+05 -6.238470E+05 -2.072381E+06  3.426772E+05  9.397627E+04
       196   9 -5.700390E+06 -1.760702E+06 -1.115963E+06 -1.975950E+06  5.267193E+05  1.873980E+05
       196  10 -3.519496E+06 -3.039375E+05  7.380225E+04 -1.543267E+06 -8.224272E-13  2.695690E-10
       196  11 -3.457690E+06 -1.089314E+05 -4.493952E+04 -1.419712E+06  2.475723E-09  1.596911E-10
       196  12 -3.675273E+06 -7.022723E+05 -5.023193E+05 -1.129083E+06  8.737070E-10  4.607717E-10
       196  13 -4.603473E+06 -6.491833E+05 -2.055507E+05 -1.772511E+06 -8.338046E-10 -2.523379E-10
       196  14 -4.505165E+06 -5.449913E+05 -3.344622E+05 -1.746322E+06  9.778079E-11  3.796086E-10
       196  15 -4.688515E+06 -1.231730E+06 -8.093877E+05 -1.552918E+06  1.458215E-09  7.070077E-10
       196  16 -5.686311E+06 -9.944353E+05 -4.849977E+05 -2.001429E+06 -7.372014E-10  4.522883E-10
       196  17 -5.551568E+06 -9.809193E+05 -6.240867E+05 -2.072407E+06 -2.416634E-09  7.366517E-10
       196  18 -5.700699E+06 -1.760815E+06 -1.116556E+06 -1.976030E+06 -9.010281E-10 -4.440781E-10
       196  19 -3.519468E+06 -3.039296E+05  7.385269E+04 -1.543263E+06 -1.608530E+05 -2.822921E+04
       196  20 -3.457565E+06 -1.088917E+05 -4.470946E+04 -1.419687E+06 -3.364820E+05 -9.169920E+04
       196  21 -3.674991E+06 -7.021693E+05 -5.017798E+05 -1.129010E+06 -5.032050E+05 -1.787988E+05
       196  22 -4.603446E+06 -6.491760E+05 -2.055037E+05 -1.772507E+06 -1.552864E+05 -2.615012E+04
       196  23 -4.505038E+06 -5.449507E+05 -3.342273E+05 -1.746297E+06 -3.395827E+05 -9.283918E+04
       196  24 -4.688219E+06 -1.231622E+06 -8.088216E+05 -1.552842E+06 -5.149731E+05 -1.831061E+05
       196  25 -5.686287E+06 -9.944286E+05 -4.849541E+05 -2.001426E+06 -1.497304E+05 -2.407355E+04
       196  26 -5.551438E+06 -9.808778E+05 -6.238470E+05 -2.072381E+06 -3.426772E+05 -9.397627E+04
       196  27 -5.700390E+06 -1.760702E+06 -1.115963E+06 -1.975950E+06 -5.267193E+05 -1.873980E+05
       197   1 -1.142593E+04  7.594463E+04  1.471112E+05  4.278539E+04  2.124794E+05  6.752028E+03
       197   2 -1.318816E+04 -2.086602E+05 -2.110592E+04  1.568562E+04  1.423188E+05  1.854055E+04
       197   3  7.696653E+04 -1.662311E+05 -6.166572E+04 -5.216064E+04  7.218797E+04  1.651575E+04
       197   4  6.969298E+05  2.521525E+05  3.223998E+05 -2.235260E+04  2.203666E+05  6.751204E+03
       197   5  6.505680E+05 -4.384500E+04  1.399153E+05 -1.622057E+03  1.444895E+05  1.854019E+04
       197   6  6.970085E+05 -1.201300E+04  8.895252E+04 -2.163529E+04  6.864784E+04  1.651155E+04
       197   7  1.405751E+06  4.283392E+05  4.976537E+05 -8.756527E+04  2.282627E+05  6.748735E+03
       197   8  1.314727E+06  1.209391E+05  3.009049E+05 -1.894852E+04  1.466624E+05  1.853971E+04
       197   9  1.317403E+06  1.421803E+05  2.395435E+05  8.920473E+03  6.510417E+04  1.650700E+04
       197  10 -1.147442E+04  7.593247E+04  1.470262E+05  4.278423E+04  8.967298E-10  1.266979E-09
       197  11 -1.321000E+04 -2.086661E+05 -2.114462E+04  1.568349E+04 -6.624352E-10 -5.028776E-10
       197  12  7.696086E+04 -1.662328E+05 -6.167602E+04 -5.216160E+04 -5.534830E-10 -6.522336E-11
       197  13  6.968777E+05  2.521395E+05  3.223085E+05 -2.235380E+04 -1.332453E-12  4.593348E-10
       197  14  6.505455E+05 -4.385096E+04  1.398754E+05 -1.624213E+03 -5.555318E-10 -2.673211E-09
       197  15  6.970034E+05 -1.201456E+04  8.894317E+04 -2.163620E+04  8.948114E-10  1.325382E-10
       197  16  1.405695E+06  4.283253E+05  4.975559E+05 -8.756652E+04  1.346669E-09 -1.494997E-10
       197  17  1.314704E+06  1.209330E+05  3.008639E+05 -1.895071E+04 -8.522695E-10 -6.927317E-11
       197  18  1.317399E+06  1.421788E+05  2.395350E+05  8.919608E+03 -2.204959E-10 -8.434817E-10
       197  19 -1.142593E+04  7.594463E+04  1.471112E+05  4.278539E+04 -2.124794E+05 -6.752028E+03
       197  20 -1.318816E+04 -2.086602E+05 -2.110592E+04  1.568562E+04 -1.423188E+05 -1.854055E+04
       197  21  7.696653E+04 -1.662311E+05 -6.166572E+04 -5.216064E+04 -7.218797E+04 -1.651575E+04
       197  22  6.969298E+05  2.521525E+05  3.223998E+05 -2.235260E+04 -2.203666E+05 -6.751204E+03
       197  23  6.505680E+05 -4.384500E+04  1.399153E+05 -1.622057E+03 -1.444895E+05 -1.854019E+04
       197  24  6.970085E+05 -1.201300E+04  8.895252E+04 -2.163529E+04 -6.864784E+04 -1.651155E+04
       197  25  1.405751E+06  4.283392E+05  4.976537E+05 -8.756527E+04 -2.282627E+05 -6.748735E+03
       197  26  1.314727E+06  1.209391E+05  3.009049E+05 -1.894852E+04 -1.466624E+05 -1.853971E+04
       197  27  1.317403E+06  1.421803E+05  2.395435E+05  8.920473E+03 -6.510417E+04 -1.650700E+04
       198   1  1.332841E+05 -1.056524E+05 -5.993696E+04 -1.465247E+04  5.436304E+04  1.349307E+04
       198   2  1.684158E+05 -1.307227E+05 -8.621136E+04 -8.536554E+02  3.612129E+04  1.316641E+04
       198   3  2.162971E+05 -1.165318E+05 -9.067891E+04 -2.528232E+04  1.787898E+04  1.158089E+04
       198   4  6.792418E+05  3.003705E+04  7.292414E+04 -2.132590E+04  5.453090E+04  1.349194E+04
       198   5  6.728363E+05 -5.375021E+03  3.634976E+04 -2.189460E+03  3.576054E+04  1.316517E+04
       198   6  6.792601E+05 -1.451848E+03  2.193548E+04 -2.127828E+04  1.699085E+04  1.157967E+04
       198   7  1.225472E+06  1.657048E+05  2.057637E+05 -2.800532E+04  5.469889E+04  1.349080E+04
       198   8  1.177489E+06  1.199540E+05  1.588925E+05 -3.526425E+03  3.539949E+04  1.316392E+04
       198   9  1.142419E+06  1.136124E+05  1.345344E+05 -1.727128E+04  1.610206E+04  1.157844E+04
       198  10  1.332808E+05 -1.056534E+05 -5.994285E+04 -1.465306E+04 -1.564464E-09 -9.534753E-10
       198  11  1.684143E+05 -1.307232E+05 -8.621414E+04 -8.540385E+02 -1.504968E-09  1.280393E-09
       198  12  2.162967E+05 -1.165320E+05 -9.067976E+04 -2.528249E+04 -2.358444E-10 -5.837816E-10
       198  13  6.792386E+05  3.003605E+04  7.291821E+04 -2.132649E+04 -1.173802E-11 -4.015021E-10
       198  14  6.728349E+05 -5.375550E+03  3.634703E+04 -2.189839E+03 -9.043093E-10 -2.162346E-10
       198  15  6.792598E+05 -1.452069E+03  2.193469E+04 -2.127844E+04 -1.470285E-09 -5.301595E-10
       198  16  1.225468E+06  1.657038E+05  2.057577E+05 -2.800591E+04  1.870494E-09  3.679586E-10
       198  17  1.177488E+06  1.199535E+05  1.588898E+05 -3.526801E+03 -8.215700E-10 -1.946845E-09
       198  18  1.142418E+06  1.136121E+05  1.345336E+05 -1.727143E+04 -1.178298E-09  7.117804E-10
       198  19  1.332841E+05 -1.056524E+05 -5.993696E+04 -1.465247E+04 -5.436304E+04 -1.349307E+04
       198  20  1.684158E+05 -1.307227E+05 -8.621136E+04 -8.536554E+02 -3.612129E+04 -1.316641E+04
       198  21  2.162971E+05 -1.165318E+05 -9.067891E+04 -2.528232E+04 -1.787898E+04 -1.158089E+04
       198  22  6.792418E+05  3.003705E+04  7.292414E+04 -2.132590E+04 -5.453090E+04 -1.349194E+04
       198  23  6.728363E+05 -5.375021E+03  3.634976E+04 -2.189460E+03 -3.576054E+04 -1.316517E+04
       198  24  6.792601E+05 -1.451848E+03  2.193548E+04 -2.127828E+04 -1.699085E+04 -1.157967E+04
       198  25  1.225472E+06  1.657048E+05  2.057637E+05 -2.800532E+04 -5.469889E+04 -1.349080E+04
       198  26  1.177489E+06  1.199540E+05  1.588925E+05 -3.526425E+03 -3.539949E+04 -1.316392E+04
       198  27  1.142419E+06  1.136124E+05  1.345344E+05 -1.727128E+04 -1.610206E+04 -1.157844E+04
       199   1  2.847352E+05 -9.393430E+04 -7.792154E+04 -2.044543E+04  1.404097E+04  1.049879E+04
       199   2  3.235121E+05 -8.823452E+04 -7.635720E+04 -2.616804E+03  9.407696E+03  9.108676E+03
       199   3  3.643163E+05 -7.786111E+04 -7.055596E+04 -2.145612E+04  4.772844E+03  7.623951E+03
       199   4  6.768765E+05  3.492203E+03  1.727622E+04 -2.094768E+04  1.349983E+04  1.049798E+04
       199   5  6.758638E+05 -6.776282E+02  9.264621E+03 -2.613260E+03  8.825261E+03  9.108087E+03
       199   6  6.768822E+05 -1.683271E+02  5.516546E+03 -2.094545E+04  4.149409E+03  7.623608E+03
       199   7  1.069158E+06  1.009074E+05  1.124629E+05 -2.145027E+04  1.295834E+04  1.049717E+04
       199   8  1.028329E+06  8.687015E+04  9.487747E+04 -2.609725E+03  8.242495E+03  9.107499E+03
       199   9  9.895372E+05  7.751727E+04  8.158197E+04 -2.043452E+04  3.525662E+03  7.623264E+03
       199  10  2.847349E+05 -9.393447E+04 -7.792211E+04 -2.044555E+04 -1.144044E-10  3.538047E-10
       199  11  3.235120E+05 -8.823464E+04 -7.635752E+04 -2.616873E+03 -2.673015E-09  4.676731E-10
       199  12  3.643163E+05 -7.786118E+04 -7.055611E+04 -2.145615E+04 -1.025581E-09  2.627955E-10
       199  13  6.768762E+05  3.492036E+03  1.727567E+04 -2.094780E+04 -1.043529E-09 -1.731360E-10
       199  14  6.758636E+05 -6.777381E+02  9.264319E+03 -2.613324E+03 -8.930630E-10 -1.426670E-10
       199  15  6.768822E+05 -1.683942E+02  5.516404E+03 -2.094547E+04  2.853385E-09  1.292234E-10
       199  16  1.069158E+06  1.009073E+05  1.124624E+05 -2.145038E+04 -6.166534E-10  2.388967E-11
       199  17  1.028329E+06  8.687004E+04  9.487718E+04 -2.609786E+03 -1.368324E-10 -1.027684E-09
       199  18  9.895372E+05  7.751721E+04  8.158184E+04 -2.043454E+04  9.746281E-11 -2.314421E-10
       199  19  2.847352E+05 -9.393430E+04 -7.792154E+04 -2.044543E+04 -1.404097E+04 -1.049879E+04
       199  20  3.235121E+05 -8.823452E+04 -7.635720E+04 -2.616804E+03 -9.407696E+03 -9.108676E+03
       199  21  3.643163E+05 -7.786111E+04 -7.055596E+04 -2.145612E+04 -4.772844E+03 -7.623951E+03
       199  22  6.768765E+05  3.492203E+03  1.727622E+04 -2.094768E+04 -1.349983E+04 -1.049798E+04
       199  23  6.758638E+05 -6.776282E+02  9.264621E+03 -2.613260E+03 -8.825261E+03 -9.108087E+03
       199  24  6.768822E+05 -1.683271E+02  5.516546E+03 -2.094545E+04 -4.149409E+03 -7.623608E+03
       199  25  1.069158E+06  1.009074E+05  1.124629E+05 -2.145027E+04 -1.295834E+04 -1.049717E+04
       199  26  1.028329E+06  8.687015E+04  9.487747E+04 -2.609725E+03 -8.242495E+03 -9.107499E+03
       199  27  9.895372E+05  7.751727E+04  8.158197E+04 -2.043452E+04 -3.525662E+03 -7.623264E+03
       200   1  4.323832E+05 -6.025539E+04 -5.490691E+04 -2.068735E+04  3.857360E+03  6.751834E+03
       200   2  4.708956E+05 -5.113799E+04 -4.740121E+04 -2.891360E+03  2.599309E+03  5.303313E+03
       200   3  5.097822E+05 -4.144324E+04 -3.891922E+04 -2.074847E+04  1.340437E+03  3.859537E+03
       200   4  6.765248E+05  3.845020E+02  4.298142E+03 -2.072070E+04  3.265928E+03  6.751639E+03
       200   5  6.763397E+05 -9.086159E+01  2.518849E+03 -2.894520E+03  2.009355E+03  5.303258E+03
       200   6  6.765271E+05  1.082945E+01  1.714615E+03 -2.072070E+04  7.520385E+02  3.859627E+03
       200   7  9.207208E+05  6.102002E+04  6.349889E+04 -2.075406E+04  2.674264E+03  6.751444E+03
       200   8  8.818224E+05  5.095316E+04  5.243585E+04 -2.897679E+03  1.419206E+03  5.303203E+03
       200   9  8.432974E+05  4.146285E+04  4.234643E+04 -2.069293E+04  1.634825E+02  3.859716E+03
       200  10  4.323832E+05 -6.025544E+04 -5.490702E+04 -2.068737E+04  1.410290E-09 -2.666412E-11
       200  11  4.708955E+05 -5.113802E+04 -4.740127E+04 -2.891371E+03 -3.797492E-10 -2.901983E-10
       200  12  5.097822E+05 -4.144326E+04 -3.891925E+04 -2.074847E+04 -1.224566E-09  1.984464E-10
       200  13  6.765248E+05  3.844502E+02  4.298036E+03 -2.072072E+04  3.004433E-09  3.723942E-11
       200  14  6.763397E+05 -9.089289E+01  2.518789E+03 -2.894528E+03 -9.647550E-10 -3.275522E-10
       200  15  6.765271E+05  1.081330E+01  1.714586E+03 -2.072070E+04 -2.982529E-09  1.155064E-10
       200  16  9.207208E+05  6.101997E+04  6.349880E+04 -2.075408E+04  1.043772E-09  4.374195E-10
       200  17  8.818224E+05  5.095313E+04  5.243580E+04 -2.897685E+03 -1.220765E-09 -3.383732E-10
       200  18  8.432974E+05  4.146283E+04  4.234640E+04 -2.069293E+04  8.676904E-10  3.435462E-11
       200  19  4.323832E+05 -6.025539E+04 -5.490691E+04 -2.068735E+04 -3.857360E+03 -6.751834E+03
       200  20  4.708956E+05 -5.113799E+04 -4.740121E+04 -2.891360E+03 -2.599309E+03 -5.303313E+03
       200  21  5.097822E+05 -4.144324E+04 -3.891922E+04 -2.074847E+04 -1.340437E+03 -3.859537E+03
       200  22  6.765248E+05  3.845020E+02  4.298142E+03 -2.072070E+04 -3.265928E+03 -6.751639E+03
       200  23  6.763397E+05 -9.086159E+01  2.518849E+03 -2.894520E+03 -2.009355E+03 -5.303258E+03
       200  24  6.765271E+05  1.082945E+01  1.714615E+03 -2.072070E+04 -7.520385E+02 -3.859627E+03
       200  25  9.207208E+05  6.102002E+04  6.349889E+04 -2.075406E+04 -2.674264E+03 -6.751444E+03
       200  26  8.818224E+05  5.095316E+04  5.243585E+04 -2.897679E+03 -1.419206E+03 -5.303203E+03
       200  27  8.432974E+05  4.146285E+04  4.234643E+04 -2.069293E+04 -1.634825E+02 -3.859716E+03
       201   1  5.767538E+05 -2.471139E+04 -2.260554E+04 -2.057353E+04  1.047758E+03  3.021177E+03
       201   2  6.148640E+05 -1.532770E+04 -1.354515E+04 -3.017214E+03  3.418974E+02  1.587926E+03
       201   3  6.531127E+05 -5.667560E+03 -3.961695E+03 -2.062915E+04 -3.642132E+02  1.651735E+02
       201   4  6.764801E+05  4.247182E+01  1.506221E+03 -2.061308E+04  4.603826E+02  3.021335E+03
       201   5  6.764118E+05 -3.607878E+01  1.408999E+03 -3.029039E+03 -2.412809E+02  1.588122E+03
       201   6  6.764805E+05  1.613171E+02  1.832128E+03 -2.061303E+04 -9.431510E+02  1.654130E+02
       201   7  7.762155E+05  2.479561E+04  2.561727E+04 -2.065263E+04 -1.270872E+02  3.021493E+03
       201   8  7.379631E+05  1.525526E+04  1.636288E+04 -3.040866E+03 -8.245168E+02  1.588319E+03
       201   9  6.998489E+05  5.990153E+03  7.625911E+03 -2.059691E+04 -1.522111E+03  1.656523E+02
       201  10  5.767538E+05 -2.471140E+04 -2.260556E+04 -2.057353E+04 -2.486785E-09  2.712931E-10
       201  11  6.148640E+05 -1.532770E+04 -1.354515E+04 -3.017214E+03 -3.368421E-09  5.837492E-11
       201  12  6.531127E+05 -5.667560E+03 -3.961696E+03 -2.062915E+04  3.155244E-11  1.324297E-10
       201  13  6.764801E+05  4.246195E+01  1.506204E+03 -2.061308E+04  8.583266E-10  6.086082E-10
       201  14  6.764118E+05 -3.608150E+01  1.408995E+03 -3.029039E+03  7.890289E-10  2.755893E-10
       201  15  6.764805E+05  1.613168E+02  1.832126E+03 -2.061303E+04  1.835255E-09 -1.712595E-10
       201  16  7.762155E+05  2.479560E+04  2.561725E+04 -2.065263E+04 -8.397966E-10  3.738708E-10
       201  17  7.379631E+05  1.525526E+04  1.636287E+04 -3.040865E+03 -2.942750E-11  5.221632E-11
       201  18  6.998489E+05  5.990153E+03  7.625907E+03 -2.059691E+04  5.093583E-10  4.154044E-10
       201  19  5.767538E+05 -2.471139E+04 -2.260554E+04 -2.057353E+04 -1.047758E+03 -3.021177E+03
       201  20  6.148640E+05 -1.532770E+04 -1.354515E+04 -3.017214E+03 -3.418974E+02 -1.587926E+03
       201  21  6.531127E+05 -5.667560E+03 -3.961695E+03 -2.062915E+04  3.642132E+02 -1.651735E+02
       201  22  6.764801E+05  4.247182E+01  1.506221E+03 -2.061308E+04 -4.603826E+02 -3.021335E+03
       201  23  6.764118E+05 -3.607878E+01  1.408999E+03 -3.029039E+03  2.412809E+02 -1.588122E+03
       201  24  6.764805E+05  1.613171E+02  1.832128E+03 -2.061303E+04  9.431510E+02 -1.654130E+02
       201  25  7.762155E+05  2.479561E+04  2.561727E+04 -2.065263E+04  1.270872E+02 -3.021493E+03
       201  26  7.379631E+05  1.525526E+04  1.636288E+04 -3.040866E+03  8.245168E+02 -1.588319E+03
       201  27  6.998489E+05  5.990153E+03  7.625911E+03 -2.059691E+04  1.522111E+03 -1.656523E+02
       202   1  7.198284E+05  1.072737E+04  1.281695E+04 -2.046677E+04 -7.078209E+02 -6.760741E+02
       202   2  7.577301E+05  2.000419E+04  2.324045E+04 -3.082946E+03 -2.476264E+03 -2.107018E+03
       202   3  7.962747E+05  3.099295E+04  3.523833E+04 -2.090099E+04 -4.244536E+03 -3.470480E+03
       202   4  6.765912E+05 -3.744601E+01  2.195741E+03 -2.062078E+04 -1.306127E+03 -6.758317E+02
       202   5  6.762722E+05 -2.320823E+02  3.452170E+03 -3.019512E+03 -3.046827E+03 -2.106844E+03
       202   6  6.765895E+05  1.280530E+03  6.263871E+03 -2.062038E+04 -4.787247E+03 -3.470368E+03
       202   7  6.333557E+05 -1.080240E+04 -8.425605E+03 -2.077478E+04 -1.904392E+03 -6.755889E+02
       202   8  5.948203E+05 -2.046884E+04 -1.633659E+04 -2.956087E+03 -3.617314E+03 -2.106671E+03
       202   9  5.569174E+05 -2.843294E+04 -2.271161E+04 -2.033983E+04 -5.329853E+03 -3.470257E+03
       202  10  7.198284E+05  1.072737E+04  1.281695E+04 -2.046677E+04 -9.448770E-10  6.857391E-10
       202  11  7.577301E+05  2.000418E+04  2.324043E+04 -3.082950E+03 -5.692936E-10 -3.990383E-11
       202  12  7.962747E+05  3.099293E+04  3.523827E+04 -2.090100E+04  1.789741E-09 -3.459238E-10
       202  13  6.765912E+05 -3.744696E+01  2.195737E+03 -2.062078E+04 -1.927145E-09  6.011469E-11
       202  14  6.762722E+05 -2.320895E+02  3.452144E+03 -3.019517E+03 -7.441946E-10 -7.363705E-10
       202  15  6.765895E+05  1.280511E+03  6.263805E+03 -2.062039E+04  2.063052E-09 -7.867953E-11
       202  16  6.333557E+05 -1.080240E+04 -8.425612E+03 -2.077478E+04 -5.798115E-11  7.201401E-10
       202  17  5.948203E+05 -2.046885E+04 -1.633662E+04 -2.956093E+03  4.048005E-10 -6.178328E-10
       202  18  5.569174E+05 -2.843296E+04 -2.271169E+04 -2.033984E+04 -1.542734E-10 -3.616602E-10
       202  19  7.198284E+05  1.072737E+04  1.281695E+04 -2.046677E+04  7.078209E+02  6.760741E+02
       202  20  7.577301E+05  2.000419E+04  2.324045E+04 -3.082946E+03  2.476264E+03  2.107018E+03
       202  21  7.962747E+05  3.099295E+04  3.523833E+04 -2.090099E+04  4.244536E+03  3.470480E+03
       202  22  6.765912E+05 -3.744601E+01  2.195741E+03 -2.062078E+04  1.306127E+03  6.758317E+02
       202  23  6.762722E+05 -2.320823E+02  3.452170E+03 -3.019512E+03  3.046827E+03  2.106844E+03
       202  24  6.765895E+05  1.280530E+03  6.263871E+03 -2.062038E+04  4.787247E+03  3.470368E+03
       202  25  6.333557E+05 -1.080240E+04 -8.425605E+03 -2.077478E+04  1.904392E+03  6.755889E+02
       202  26  5.948203E+05 -2.046884E+04 -1.633659E+04 -2.956087E+03  3.617314E+03  2.106671E+03
       202  27  5.569174E+05 -2.843294E+04 -2.271161E+04 -2.033983E+04  5.329853E+03  3.470257E+03
       203   1  8.643005E+05  4.594663E+04  5.341505E+04 -1.944408E+04 -5.297890E+03 -4.423688E+03
       203   2  9.008627E+05  5.414065E+04  6.787191E+04 -3.525519E+03 -1.236034E+04 -5.883188E+03
       203   3  9.419726E+05  7.651491E+04  9.048365E+04 -2.335230E+04 -1.942257E+04 -6.575534E+03
       203   4  6.774413E+05 -4.920338E+02  7.916269E+03 -2.074140E+04 -6.049855E+03 -4.423595E+03
       203   5  6.751910E+05 -1.914899E+03  1.306709E+04 -2.868812E+03 -1.279678E+04 -5.883321E+03
       203   6  6.774342E+05  1.079078E+04  2.615626E+04 -2.074225E+04 -1.954304E+04 -6.575810E+03
       203   7  4.906140E+05 -4.693326E+04 -3.758504E+04 -2.203834E+04 -6.801594E+03 -4.423498E+03
       203   8  4.495657E+05 -5.797419E+04 -4.174141E+04 -2.212344E+03 -1.323306E+04 -5.883455E+03
       203   9  4.129595E+05 -5.493846E+04 -3.817620E+04 -1.813331E+04 -1.966346E+04 -6.576088E+03
       203  10  8.643004E+05  4.594660E+04  5.341496E+04 -1.944410E+04 -1.479785E-09 -4.064702E-10
       203  11  9.008626E+05  5.414057E+04  6.787156E+04 -3.525578E+03 -3.124941E-09  5.553818E-11
       203  12  9.419722E+05  7.651476E+04  9.048287E+04 -2.335240E+04 -5.918973E-10 -4.450951E-10
       203  13  6.774413E+05 -4.920646E+02  7.916164E+03 -2.074143E+04 -8.449512E-12 -1.048064E-10
       203  14  6.751908E+05 -1.914980E+03  1.306672E+04 -2.868873E+03  2.812952E-09  1.233146E-11
       203  15  6.774338E+05  1.079063E+04  2.615546E+04 -2.074235E+04  1.016546E-09 -1.556131E-10
       203  16  4.906139E+05 -4.693329E+04 -3.758517E+04 -2.203836E+04 -4.584749E-10 -2.978576E-11
       203  17  4.495655E+05 -5.797427E+04 -4.174181E+04 -2.212406E+03  2.245253E-09 -7.736829E-11
       203  18  4.129591E+05 -5.493861E+04 -3.817701E+04 -1.813341E+04 -2.610943E-10  3.614621E-10
       203  19  8.643005E+05  4.594663E+04  5.341505E+04 -1.944408E+04  5.297890E+03  4.423688E+03
       203  20  9.008627E+05  5.414065E+04  6.787191E+04 -3.525519E+03  1.236034E+04  5.883188E+03
       203  21  9.419726E+05  7.651491E+04  9.048365E+04 -2.335230E+04  1.942257E+04  6.575534E+03
       203  22  6.774413E+05 -4.920338E+02  7.916269E+03 -2.074140E+04  6.049855E+03  4.423595E+03
       203  23  6.751910E+05 -1.914899E+03  1.306709E+04 -2.868812E+03  1.279678E+04  5.883321E+03
       203  24  6.774342E+05  1.079078E+04  2.615626E+04 -2.074225E+04  1.954304E+04  6.575810E+03
       203  25  4.906140E+05 -4.693326E+04 -3.758504E+04 -2.203834E+04  6.801594E+03  4.423498E+03
       203  26  4.495657E+05 -5.797419E+04 -4.174141E+04 -2.212344E+03  1.323306E+04  5.883455E+03
       203  27  4.129595E+05 -5.493846E+04 -3.817620E+04 -1.813331E+04  1.966346E+04  6.576088E+03
       204   1  1.017080E+06  7.850401E+04  1.128354E+05 -1.024272E+04 -2.225271E+04 -8.670176E+03
       204   2  1.040298E+06  7.692013E+04  1.406120E+05 -9.090447E+03 -5.286596E+04 -1.029745E+04
       204   3  1.097294E+06  1.934421E+05  2.178792E+05 -4.468318E+04 -8.348623E+04 -3.592465E+03
       204   4  6.838101E+05 -4.280142E+03  3.189918E+04 -2.094404E+04 -2.460644E+04 -8.670659E+03
       204   5  6.671902E+05 -1.571307E+04  5.015673E+04 -2.605918E+03 -5.180170E+04 -1.029785E+04
       204   6  6.837765E+05  9.040454E+04  1.155548E+05 -2.101287E+04 -7.900189E+04 -3.592276E+03
       204   7  3.506415E+05 -8.707202E+04 -4.904497E+04 -3.163961E+04 -2.695891E+04 -8.671061E+03
       204   8  2.942098E+05 -1.083563E+05 -4.030852E+04  3.874691E+03 -5.073808E+04 -1.029823E+04
       204   9  2.704152E+05 -1.264371E+04  1.321807E+04  2.641649E+03 -7.452051E+04 -3.591746E+03
       204  10  1.017079E+06  7.850380E+04  1.128343E+05 -1.024287E+04 -7.851007E-10 -5.167669E-10
       204  11  1.040295E+06  7.691927E+04  1.406065E+05 -9.090885E+03  1.309817E-09  7.017738E-11
       204  12  1.097287E+06  1.934403E+05  2.178661E+05 -4.468342E+04  6.346995E-10  5.157081E-10
       204  13  6.838094E+05 -4.280385E+03  3.189790E+04 -2.094421E+04 -4.684573E-10 -5.517726E-10
       204  14  6.671873E+05 -1.571391E+04  5.015150E+04 -2.606348E+03  1.152583E-09 -2.262455E-11
       204  15  6.837698E+05  9.040285E+04  1.155431E+05 -2.101310E+04  6.493334E-11 -3.903531E-10
       204  16  3.506407E+05 -8.707229E+04 -4.904648E+04 -3.163980E+04  1.742532E-10  2.768665E-10
       204  17  2.942070E+05 -1.083571E+05 -4.031356E+04  3.874271E+03 -2.726824E-09 -2.658253E-10
       204  18  2.704092E+05 -1.264521E+04  1.320761E+04  2.641434E+03 -7.154488E-10  5.930211E-10
       204  19  1.017080E+06  7.850401E+04  1.128354E+05 -1.024272E+04  2.225271E+04  8.670176E+03
       204  20  1.040298E+06  7.692013E+04  1.406120E+05 -9.090447E+03  5.286596E+04  1.029745E+04
       204  21  1.097294E+06  1.934421E+05  2.178792E+05 -4.468318E+04  8.348623E+04  3.592465E+03
       204  22  6.838101E+05 -4.280142E+03  3.189918E+04 -2.094404E+04  2.460644E+04  8.670659E+03
       204  23  6.671902E+05 -1.571307E+04  5.015673E+04 -2.605918E+03  5.180170E+04  1.029785E+04
       204  24  6.837765E+05  9.040454E+04  1.155548E+05 -2.101287E+04  7.900189E+04  3.592276E+03
       204  25  3.506415E+05 -8.707202E+04 -4.904497E+04 -3.163961E+04  2.695891E+04  8.671061E+03
       204  26  2.942098E+05 -1.083563E+05 -4.030852E+04  3.874691E+03  5.073808E+04  1.029823E+04
       204  27  2.704152E+05 -1.264371E+04  1.321807E+04  2.641649E+03  7.452051E+04  3.591746E+03
       205   1  7.470891E+05  2.212713E+06  7.195582E+05 -8.175651E+05  2.709713E+04  2.336206E+05
       205   2  5.089696E+05  1.547110E+06  4.393157E+05 -7.281949E+05  8.469187E+04  8.656588E+04
       205   3  3.345130E+05  9.162416E+05  2.704516E+05 -7.590325E+05  8.079529E+04 -6.050491E+04
       205   4  8.735233E+04 -4.560334E+05  8.945093E+04 -7.548248E+05  2.789225E+04  5.840351E+04
       205   5  2.874150E+04 -4.621861E+05  4.764724E+04 -6.948882E+05  8.496033E+04  3.430753E+04
       205   6  1.262550E+04 -4.551966E+05  3.208584E+04 -7.551520E+05  8.045889E+04  1.003493E+04
       205   7 -5.728649E+05 -3.118171E+06 -5.410324E+05 -6.923445E+05  2.865415E+04 -1.160669E+05
       205   8 -4.517240E+05 -2.467605E+06 -3.442030E+05 -6.616852E+05  8.522375E+04 -1.778584E+04
       205   9 -3.093610E+05 -1.824781E+06 -2.063272E+05 -7.512772E+05  8.012289E+04  8.042384E+04
       205  10  7.470737E+05  2.212654E+06  7.194546E+05 -8.175702E+05  7.784984E-10  1.116555E-09
       205  11  5.089599E+05  1.547100E+06  4.392882E+05 -7.282008E+05 -2.107832E-09 -3.140667E-09
       205  12  3.345050E+05  9.162359E+05  2.704325E+05 -7.590286E+05 -1.990147E-09 -5.415894E-09
       205  13  8.735057E+04 -4.560372E+05  8.944304E+04 -7.548262E+05  1.316837E-09  3.631763E-11
       205  14  2.873343E+04 -4.621893E+05  4.763145E+04 -6.948906E+05 -1.260789E-09 -2.147245E-09
       205  15  1.261853E+04 -4.551985E+05  3.207348E+04 -7.551527E+05 -3.969290E-10 -5.611572E-11
       205  16 -5.728694E+05 -3.118186E+06 -5.410594E+05 -6.923418E+05  7.987552E-10  9.603159E-10
       205  17 -4.517318E+05 -2.467608E+06 -3.442172E+05 -6.616840E+05  4.145577E-09 -9.053671E-10
       205  18 -3.093696E+05 -1.824790E+06 -2.063515E+05 -7.512824E+05 -9.131465E-10  4.146657E-09
       205  19  7.470891E+05  2.212713E+06  7.195582E+05 -8.175651E+05 -2.709713E+04 -2.336206E+05
       205  20  5.089696E+05  1.547110E+06  4.393157E+05 -7.281949E+05 -8.469187E+04 -8.656588E+04
       205  21  3.345130E+05  9.162416E+05  2.704516E+05 -7.590325E+05 -8.079529E+04  6.050491E+04
       205  22  8.735233E+04 -4.560334E+05  8.945093E+04 -7.548248E+05 -2.789225E+04 -5.840351E+04
       205  23  2.874150E+04 -4.621861E+05  4.764724E+04 -6.948882E+05 -8.496033E+04 -3.430753E+04
       205  24  1.262550E+04 -4.551966E+05  3.208584E+04 -7.551520E+05 -8.045889E+04 -1.003493E+04
       205  25 -5.728649E+05 -3.118171E+06 -5.410324E+05 -6.923445E+05 -2.865415E+04  1.160669E+05
       205  26 -4.517240E+05 -2.467605E+06 -3.442030E+05 -6.616852E+05 -8.522375E+04  1.778584E+04
       205  27 -3.093610E+05 -1.824781E+06 -2.063272E+05 -7.512772E+05 -8.012289E+04 -8.042384E+04
       206   1  2.366238E+05  5.004832E+05  1.938568E+05 -7.630160E+05  5.792452E+04 -6.370487E+04
       206   2  8.156651E+04 -1.492223E+05  7.851703E+04 -6.939057E+05  2.272182E+04 -8.179218E+04
       206   3 -6.306903E+04 -7.946685E+05 -2.277343E+04 -7.490562E+05 -1.396200E+04 -9.987492E+04
       206   4  1.209700E+04 -4.571967E+05  2.913692E+04 -7.560310E+05  5.758089E+04  5.145144E+03
       206   5  9.940079E+03 -4.587945E+05  3.001621E+04 -6.938893E+05  2.235695E+04 -1.001584E+04
       206   6  1.771552E+04 -4.570595E+05  4.290607E+04 -7.560054E+05 -1.434874E+04 -2.518977E+04
       206   7 -2.124763E+05 -1.413966E+06 -1.355963E+05 -7.490556E+05  5.723846E+04  7.389232E+04
       206   8 -6.168830E+04 -7.682601E+05 -1.846754E+04 -6.938727E+05  2.199196E+04  6.172604E+04
       206   9  9.849639E+04 -1.193289E+05  1.086012E+05 -7.629584E+05 -1.473701E+04  4.953513E+04
       206  10  2.366192E+05  5.004780E+05  1.938429E+05 -7.630130E+05 -1.393780E-09  1.848122E-09
       206  11  8.156416E+04 -1.492296E+05  7.850349E+04 -6.939042E+05  1.116721E-09 -4.041335E-09
       206  12 -6.307193E+04 -7.946793E+05 -2.279257E+04 -7.490573E+05  5.378675E-10 -5.369086E-09
       206  13  1.209343E+04 -4.571976E+05  2.913064E+04 -7.560313E+05 -3.360044E-09  1.836973E-11
       206  14  9.939516E+03 -4.587948E+05  3.001508E+04 -6.938891E+05 -3.664448E-09 -1.572970E-09
       206  15  1.771513E+04 -4.570603E+05  4.290449E+04 -7.560057E+05 -6.967700E-10 -9.152438E-11
       206  16 -2.124813E+05 -1.413973E+06 -1.356127E+05 -7.490590E+05 -7.139596E-10  7.143359E-10
       206  17 -6.168985E+04 -7.682643E+05 -1.847563E+04 -6.938738E+05 -2.149210E-09 -1.385675E-09
       206  18  9.849550E+04 -1.193316E+05  1.085962E+05 -7.629578E+05  9.067113E-10  4.629556E-09
       206  19  2.366238E+05  5.004832E+05  1.938568E+05 -7.630160E+05 -5.792452E+04  6.370487E+04
       206  20  8.156651E+04 -1.492223E+05  7.851703E+04 -6.939057E+05 -2.272182E+04  8.179218E+04
       206  21 -6.306903E+04 -7.946685E+05 -2.277343E+04 -7.490562E+05  1.396200E+04  9.987492E+04
       206  22  1.209700E+04 -4.571967E+05  2.913692E+04 -7.560310E+05 -5.758089E+04 -5.145144E+03
       206  23  9.940079E+03 -4.587945E+05  3.001621E+04 -6.938893E+05 -2.235695E+04  1.001584E+04
       206  24  1.771552E+04 -4.570595E+05  4.290607E+04 -7.560054E+05  1.434874E+04  2.518977E+04
       206  25 -2.124763E+05 -1.413966E+06 -1.355963E+05 -7.490556E+05 -5.723846E+04 -7.389232E+04
       206  26 -6.168830E+04 -7.682601E+05 -1.846754E+04 -6.938727E+05 -2.199196E+04 -6.172604E+04
       206  27  9.849639E+04 -1.193289E+05  1.086012E+05 -7.629584E+05  1.473701E+04 -4.953513E+04
       207   1 -1.583781E+05 -1.201917E+06 -8.373564E+04 -7.551557E+05 -3.804053E+04 -1.084646E+05
       207   2 -2.794688E+05 -1.853955E+06 -1.856538E+05 -6.348314E+05 -5.245711E+04 -6.083627E+04
       207   3 -3.306650E+05 -2.495147E+06 -3.013903E+05 -6.357370E+05 -1.881995E+04 -1.309953E+04
       207   4  1.928149E+04 -4.518918E+05  5.386813E+04 -7.553747E+05 -3.842769E+04 -3.258728E+04
       207   5  5.505359E+04 -4.656528E+05  9.358472E+04 -6.944425E+05 -5.234613E+04 -8.053369E+04
       207   6  1.772386E+05 -4.524465E+05  1.858807E+05 -7.546621E+05 -1.826947E+04 -1.283245E+05
       207   7  1.969123E+05  2.986928E+05  1.914706E+05 -7.555931E+05 -3.881461E+04  4.337937E+04
       207   8  3.894694E+05  9.244994E+05  3.727279E+05 -7.541867E+05 -5.223152E+04 -1.002743E+05
       207   9  6.848975E+05  1.594150E+06  6.729151E+05 -8.739752E+05 -1.767582E+04 -2.439274E+05
       207  10 -1.583829E+05 -1.201930E+06 -8.376053E+04 -7.551590E+05  3.020594E-09  4.121040E-09
       207  11 -2.794728E+05 -1.853960E+06 -1.856660E+05 -6.348340E+05  5.349649E-09 -2.347043E-09
       207  12 -3.306654E+05 -2.495148E+06 -3.013913E+05 -6.357372E+05  1.234482E-09 -6.733432E-09
       207  13  1.927962E+04 -4.518933E+05  5.386335E+04 -7.553757E+05  2.475883E-09  5.719321E-10
       207  14  5.504889E+04 -4.656605E+05  9.356735E+04 -6.944459E+05 -1.999986E-10 -1.738862E-09
       207  15  1.772338E+05 -4.524642E+05  1.858491E+05 -7.546640E+05  1.438472E-09 -6.491495E-10
       207  16  1.969101E+05  2.986904E+05  1.914642E+05 -7.555917E+05 -4.378101E-10 -1.246914E-09
       207  17  3.894637E+05  9.244879E+05  3.727039E+05 -7.541909E+05  3.714192E-09 -2.822313E-09
       207  18  6.848813E+05  1.594086E+06  6.728029E+05 -8.739786E+05  2.503109E-09  5.517968E-09
       207  19 -1.583781E+05 -1.201917E+06 -8.373564E+04 -7.551557E+05  3.804053E+04  1.084646E+05
       207  20 -2.794688E+05 -1.853955E+06 -1.856538E+05 -6.348314E+05  5.245711E+04  6.083627E+04
       207  21 -3.306650E+05 -2.495147E+06 -3.013903E+05 -6.357370E+05  1.881995E+04  1.309953E+04
       207  22  1.928149E+04 -4.518918E+05  5.386813E+04 -7.553747E+05  3.842769E+04  3.258728E+04
       207  23  5.505359E+04 -4.656528E+05  9.358472E+04 -6.944425E+05  5.234613E+04  8.053369E+04
       207  24  1.772386E+05 -4.524465E+05  1.858807E+05 -7.546621E+05  1.826947E+04  1.283245E+05
       207  25  1.969123E+05  2.986928E+05  1.914706E+05 -7.555931E+05  3.881461E+04 -4.337937E+04
       207  26  3.894694E+05  9.244994E+05  3.727279E+05 -7.541867E+05  5.223152E+04  1.002743E+05
       207  27  6.848975E+05  1.594150E+06  6.729151E+05 -8.739752E+05  1.767582E+04  2.439274E+05
       208   1 -2.900522E+06 -1.107090E+06 -5.866628E+05 -1.057016E+06 -1.982949E+05 -3.285839E+04
       208   2 -2.706753E+06 -1.040004E+06 -4.387631E+05 -9.969682E+05 -1.294101E+05  9.241971E+04
       208   3 -2.499020E+06 -9.964427E+05 -3.655992E+05 -9.714791E+05 -3.712884E+04  1.560502E+05
       208   4 -3.825241E+05 -1.880726E+05  5.295136E+04 -3.942693E+05  2.039338E+04  4.978053E+04
       208   5 -4.036404E+05 -2.079517E+05  2.484143E+04 -3.692836E+05 -2.519512E+04  1.317057E+05
       208   6 -3.880493E+05 -2.286223E+05  1.304379E+04 -3.788635E+05 -4.747305E+04  1.520913E+05
       208   7  2.141692E+06  7.312767E+05  6.922391E+05  2.708857E+05  2.400506E+05  1.327602E+05
       208   8  1.904955E+06  6.245239E+05  4.882269E+05  2.605456E+05  7.943626E+04  1.711433E+05
       208   9  1.727668E+06  5.396485E+05  3.915461E+05  2.156506E+05 -5.785525E+04  1.481182E+05
       208  10 -2.900565E+06 -1.107102E+06 -5.867391E+05 -1.057021E+06  3.219217E-09  2.132535E-09
       208  11 -2.706773E+06 -1.040017E+06 -4.388106E+05 -9.969585E+05  3.036339E-08  1.161734E-08
       208  12 -2.499028E+06 -9.964692E+05 -3.656475E+05 -9.714745E+05  5.979492E-08  2.025468E-08
       208  13 -3.825252E+05 -1.880754E+05  5.294591E+04 -3.942701E+05  8.089835E-10  2.494770E-09
       208  14 -4.036457E+05 -2.079705E+05  2.480764E+04 -3.692809E+05  5.482371E-09  9.913223E-09
       208  15 -3.880579E+05 -2.286478E+05  1.299609E+04 -3.788577E+05  1.482099E-08  1.822297E-08
       208  16  2.141626E+06  7.312424E+05  6.920981E+05  2.708601E+05 -2.903020E-09 -4.796119E-09
       208  17  1.904940E+06  6.244907E+05  4.881601E+05  2.605347E+05 -2.244939E-08 -1.905082E-08
       208  18  1.727658E+06  5.396240E+05  3.914986E+05  2.156575E+05 -3.271237E-08 -1.657347E-08
       208  19 -2.900522E+06 -1.107090E+06 -5.866628E+05 -1.057016E+06  1.982949E+05  3.285839E+04
       208  20 -2.706753E+06 -1.040004E+06 -4.387631E+05 -9.969682E+05  1.294101E+05 -9.241971E+04
       208  21 -2.499020E+06 -9.964427E+05 -3.655992E+05 -9.714791E+05  3.712884E+04 -1.560502E+05
       208  22 -3.825241E+05 -1.880726E+05  5.295136E+04 -3.942693E+05 -2.039338E+04 -4.978053E+04
       208  23 -4.036404E+05 -2.079517E+05  2.484143E+04 -3.692836E+05  2.519512E+04 -1.317057E+05
       208  24 -3.880493E+05 -2.286223E+05  1.304379E+04 -3.788635E+05  4.747305E+04 -1.520913E+05
       208  25  2.141692E+06  7.312767E+05  6.922391E+05  2.708857E+05 -2.400506E+05 -1.327602E+05
       208  26  1.904955E+06  6.245239E+05  4.882269E+05  2.605456E+05 -7.943626E+04 -1.711433E+05
       208  27  1.727668E+06  5.396485E+05  3.915461E+05  2.156506E+05  5.785525E+04 -1.481182E+05
       209   1 -2.376531E+06 -9.486033E+05 -3.407960E+05 -9.357840E+05 -4.209443E+04  1.487205E+05
       209   2 -2.199241E+06 -8.647960E+05 -3.002911E+05 -8.664551E+05 -3.130585E+04  1.462340E+05
       209   3 -1.994416E+06 -8.099927E+05 -2.662290E+05 -8.297064E+05 -1.827039E+04  1.377481E+05
       209   4 -3.887789E+05 -2.293908E+05  9.743493E+03 -3.802677E+05 -4.714422E+04  1.467633E+05
       209   5 -4.036325E+05 -2.168555E+05  5.052441E+03 -3.635982E+05 -4.750683E+04  1.400884E+05
       209   6 -3.887789E+05 -2.311076E+05  2.774109E+03 -3.795156E+05 -4.562903E+04  1.274232E+05
       209   7  1.603160E+06  4.902059E+05  3.601579E+05  1.769144E+05 -5.221144E+04  1.447996E+05
       209   8  1.395405E+06  4.314040E+05  3.103071E+05  1.406218E+05 -6.375778E+04  1.339242E+05
       209   9  1.219597E+06  3.480327E+05  2.717105E+05  7.176528E+04 -7.306279E+04  1.170700E+05
       209  10 -2.376538E+06 -9.486276E+05 -3.408409E+05 -9.357790E+05 -3.753178E-08 -1.881493E-08
       209  11 -2.199248E+06 -8.648192E+05 -3.003332E+05 -8.664514E+05 -2.509783E-08 -1.542284E-08
       209  12 -1.994421E+06 -8.100132E+05 -2.662653E+05 -8.297043E+05 -3.580229E-09 -5.238409E-09
       209  13 -3.887871E+05 -2.294145E+05  9.698851E+03 -3.802621E+05  1.383820E-08  1.988919E-08
       209  14 -4.036402E+05 -2.168771E+05  5.011332E+03 -3.635928E+05  8.888214E-10  8.934021E-09
       209  15 -3.887855E+05 -2.311256E+05  2.739694E+03 -3.795109E+05 -3.074050E-10  1.316366E-09
       209  16  1.603152E+06  4.901827E+05  3.601134E+05  1.769205E+05  6.456727E-08  2.426126E-08
       209  17  1.395395E+06  4.313836E+05  3.102658E+05  1.406287E+05  3.042277E-08  1.406533E-08
       209  18  1.219588E+06  3.480165E+05  2.716747E+05  7.177217E+04  2.259759E-10  2.650632E-09
       209  19 -2.376531E+06 -9.486033E+05 -3.407960E+05 -9.357840E+05  4.209443E+04 -1.487205E+05
       209  20 -2.199241E+06 -8.647960E+05 -3.002911E+05 -8.664551E+05  3.130585E+04 -1.462340E+05
       209  21 -1.994416E+06 -8.099927E+05 -2.662290E+05 -8.297064E+05  1.827039E+04 -1.377481E+05
       209  22 -3.887789E+05 -2.293908E+05  9.743493E+03 -3.802677E+05  4.714422E+04 -1.467633E+05
       209  23 -4.036325E+05 -2.168555E+05  5.052441E+03 -3.635982E+05  4.750683E+04 -1.400884E+05
       209  24 -3.887789E+05 -2.311076E+05  2.774109E+03 -3.795156E+05  4.562903E+04 -1.274232E+05
       209  25  1.603160E+06  4.902059E+05  3.601579E+05  1.769144E+05  5.221144E+04 -1.447996E+05
       209  26  1.395405E+06  4.314040E+05  3.103071E+05  1.406218E+05  6.375778E+04 -1.339242E+05
       209  27  1.219597E+06  3.480327E+05  2.717105E+05  7.176528E+04  7.306279E+04 -1.170700E+05
       210   1 -1.872255E+06 -7.653243E+05 -2.450980E+05 -7.953872E+05 -1.585911E+04  1.287023E+05
       210   2 -1.695597E+06 -6.816663E+05 -2.135260E+05 -7.253169E+05 -9.741720E+03  1.141701E+05
       210   3 -1.490047E+06 -6.268413E+05 -1.823386E+05 -6.880430E+05 -3.417040E+03  9.904327E+04
       210   4 -3.887928E+05 -2.310739E+05  2.060333E+03 -3.797012E+05 -4.272488E+04  1.185732E+05
       210   5 -4.032083E+05 -2.165831E+05  1.082900E+03 -3.633263E+05 -3.771444E+04  1.036403E+05
       210   6 -3.885615E+05 -2.307087E+05  5.908116E+02 -3.797598E+05 -3.249717E+04  8.811337E+04
       210   7  1.097042E+06  3.034067E+05  2.491725E+05  3.692366E+04 -6.965933E+04  1.084184E+05
       210   8  8.909771E+05  2.486730E+05  2.156570E+05 -6.247860E+02 -6.574929E+04  9.308717E+04
       210   9  7.142242E+05  1.655474E+05  1.834947E+05 -7.096201E+04 -6.163219E+04  7.716287E+04
       210  10 -1.872260E+06 -7.653422E+05 -2.451296E+05 -7.953856E+05 -2.055609E-09 -3.444674E-09
       210  11 -1.695601E+06 -6.816804E+05 -2.135506E+05 -7.253160E+05 -3.079505E-09 -3.478926E-09
       210  12 -1.490050E+06 -6.268518E+05 -1.823570E+05 -6.880427E+05 -1.622239E-09 -6.881372E-10
       210  13 -3.887986E+05 -2.310895E+05  2.030490E+03 -3.796971E+05  6.092357E-10 -2.601828E-09
       210  14 -4.032127E+05 -2.165950E+05  1.060049E+03 -3.633231E+05  1.462375E-09 -1.960890E-09
       210  15 -3.885647E+05 -2.307173E+05  5.742418E+02 -3.797575E+05  7.268933E-09  6.601861E-10
       210  16  1.097033E+06  3.033928E+05  2.491413E+05  3.692974E+04  5.880849E-10 -3.146446E-10
       210  17  8.909701E+05  2.486626E+05  2.156326E+05 -6.198600E+02  4.111315E-09 -2.604913E-10
       210  18  7.142185E+05  1.655400E+05  1.834763E+05 -7.095818E+04  1.203848E-08  1.710537E-09
       210  19 -1.872255E+06 -7.653243E+05 -2.450980E+05 -7.953872E+05  1.585911E+04 -1.287023E+05
       210  20 -1.695597E+06 -6.816663E+05 -2.135260E+05 -7.253169E+05  9.741720E+03 -1.141701E+05
       210  21 -1.490047E+06 -6.268413E+05 -1.823386E+05 -6.880430E+05  3.417040E+03 -9.904327E+04
       210  22 -3.887928E+05 -2.310739E+05  2.060333E+03 -3.797012E+05  4.272488E+04 -1.185732E+05
       210  23 -4.032083E+05 -2.165831E+05  1.082900E+03 -3.633263E+05  3.771444E+04 -1.036403E+05
       210  24 -3.885615E+05 -2.307087E+05  5.908116E+02 -3.797598E+05  3.249717E+04 -8.811337E+04
       210  25  1.097042E+06  3.034067E+05  2.491725E+05  3.692366E+04  6.965933E+04 -1.084184E+05
       210  26  8.909771E+05  2.486730E+05  2.156570E+05 -6.247860E+02  6.574929E+04 -9.308717E+04
       210  27  7.142242E+05  1.655474E+05  1.834947E+05 -7.096201E+04  6.163219E+04 -7.716287E+04
       211   1 -1.367676E+06 -5.825244E+05 -1.612544E+05 -6.538390E+05 -1.112935E+02  8.988602E+04
       211   2 -1.190560E+06 -4.991292E+05 -1.301523E+05 -5.837213E+05  5.798824E+03  7.426330E+04
       211   3 -9.845302E+05 -4.445295E+05 -9.905480E+04 -5.465318E+05  1.172183E+04  5.857835E+04
       211   4 -3.885302E+05 -2.306397E+05  4.162673E+02 -3.798051E+05 -2.915886E+04  7.897592E+04
       211   5 -4.029067E+05 -2.161083E+05  1.574624E+02 -3.633659E+05 -2.336639E+04  6.331883E+04
       211   6 -3.883873E+05 -2.303521E+05 -1.779863E+01 -3.798683E+05 -1.756101E+04  4.759945E+04
       211   7  5.916333E+05  1.213388E+05  1.620652E+05 -1.053675E+05 -5.825483E+04  6.804767E+04
       211   8  3.854124E+05  6.697607E+04  1.304562E+05 -1.427474E+05 -5.257092E+04  5.235960E+04
       211   9  2.081438E+05 -1.613585E+04  9.901607E+04 -2.130523E+05 -4.687404E+04  3.660921E+04
       211  10 -1.367679E+06 -5.825331E+05 -1.612696E+05 -6.538389E+05  4.712492E-09  3.334204E-09
       211  11 -1.190562E+06 -4.991352E+05 -1.301628E+05 -5.837216E+05  2.627796E-08  1.249429E-08
       211  12 -9.845313E+05 -4.445332E+05 -9.906151E+04 -5.465324E+05  5.247871E-08  1.835152E-08
       211  13 -3.885328E+05 -2.306467E+05  4.029525E+02 -3.798032E+05  4.896589E-09  3.339127E-09
       211  14 -4.029084E+05 -2.161127E+05  1.489047E+02 -3.633647E+05  2.262745E-09  1.099000E-08
       211  15 -3.883882E+05 -2.303546E+05 -2.263448E+01 -3.798676E+05  1.168330E-08  2.037332E-08
       211  16  5.916284E+05  1.213329E+05  1.620501E+05 -1.053643E+05  4.965912E-09 -8.460764E-10
       211  17  3.854087E+05  6.697239E+04  1.304459E+05 -1.427452E+05 -2.147371E-08 -1.036651E-08
       211  18  2.081411E+05 -1.613787E+04  9.900943E+04 -2.130509E+05 -3.170810E-08 -1.284838E-08
       211  19 -1.367676E+06 -5.825244E+05 -1.612544E+05 -6.538390E+05  1.112935E+02 -8.988602E+04
       211  20 -1.190560E+06 -4.991292E+05 -1.301523E+05 -5.837213E+05 -5.798824E+03 -7.426330E+04
       211  21 -9.845302E+05 -4.445295E+05 -9.905480E+04 -5.465318E+05 -1.172183E+04 -5.857835E+04
       211  22 -3.885302E+05 -2.306397E+05  4.162673E+02 -3.798051E+05  2.915886E+04 -7.897592E+04
       211  23 -4.029067E+05 -2.161083E+05  1.574624E+02 -3.633659E+05  2.336639E+04 -6.331883E+04
       211  24 -3.883873E+05 -2.303521E+05 -1.779863E+01 -3.798683E+05  1.756101E+04 -4.759945E+04
       211  25  5.916333E+05  1.213388E+05  1.620652E+05 -1.053675E+05  5.825483E+04 -6.804767E+04
       211  26  3.854124E+05  6.697607E+04  1.304562E+05 -1.427474E+05  5.257092E+04 -5.235960E+04
       211  27  2.081438E+05 -1.613585E+04  9.901607E+04 -2.130523E+05  4.687404E+04 -3.660921E+04
       212   1 -8.619256E+05 -4.002953E+05 -7.792699E+04 -5.123427E+05  1.517212E+04  4.942859E+04
       212   2 -6.844901E+05 -3.170357E+05 -4.687993E+04 -4.422143E+05  2.119532E+04  3.376588E+04
       212   3 -4.782003E+05 -2.625762E+05 -1.592229E+04 -4.050768E+05  2.720564E+04  1.812696E+04
       212   4 -3.883719E+05 -2.303129E+05 -1.131510E+02 -3.798875E+05 -1.411912E+04  3.845041E+04
       212   5 -4.027472E+05 -2.158481E+05 -3.486344E+02 -3.633989E+05 -8.054977E+03  2.280655E+04
       212   6 -3.883175E+05 -2.301951E+05 -7.097528E+02 -3.799152E+05 -2.003764E+03  7.186490E+03
       212   7  8.542347E+04 -6.030712E+04  7.769919E+04 -2.473369E+05 -4.343406E+04  2.746333E+04
       212   8 -1.209192E+05 -1.146524E+05  4.618402E+04 -2.845497E+05 -3.731920E+04  1.184200E+04
       212   9 -2.984253E+05 -1.978130E+05  1.450595E+04 -3.547500E+05 -3.121734E+04 -3.755553E+03
       212  10 -8.619265E+05 -4.002980E+05 -7.793202E+04 -5.123433E+05 -1.253855E-07 -5.073032E-08
       212  11 -6.844909E+05 -3.170371E+05 -4.688293E+04 -4.422149E+05 -6.468112E-08 -2.707794E-08
       212  12 -4.782012E+05 -2.625767E+05 -1.592431E+04 -4.050772E+05  1.744983E-08  1.135842E-08
       212  13 -3.883725E+05 -2.303145E+05 -1.163030E+02 -3.798871E+05  9.129207E-09  1.469965E-08
       212  14 -4.027475E+05 -2.158487E+05 -3.497335E+02 -3.633987E+05 -3.259176E-10 -1.109776E-08
       212  15 -3.883176E+05 -2.301952E+05 -7.098574E+02 -3.799152E+05  7.873612E-10 -3.076830E-08
       212  16  8.542124E+04 -6.030843E+04  7.769423E+04 -2.473360E+05  1.407395E-07  5.425821E-08
       212  17 -1.209208E+05 -1.146530E+05  4.618114E+04 -2.845494E+05  4.629146E-08  2.425660E-08
       212  18 -2.984263E+05 -1.978132E+05  1.450410E+04 -3.547501E+05 -4.006595E-08 -7.702487E-09
       212  19 -8.619256E+05 -4.002953E+05 -7.792699E+04 -5.123427E+05 -1.517212E+04 -4.942859E+04
       212  20 -6.844901E+05 -3.170357E+05 -4.687993E+04 -4.422143E+05 -2.119532E+04 -3.376588E+04
       212  21 -4.782003E+05 -2.625762E+05 -1.592229E+04 -4.050768E+05 -2.720564E+04 -1.812696E+04
       212  22 -3.883719E+05 -2.303129E+05 -1.131510E+02 -3.798875E+05  1.411912E+04 -3.845041E+04
       212  23 -4.027472E+05 -2.158481E+05 -3.486344E+02 -3.633989E+05  8.054977E+03 -2.280655E+04
       212  24 -3.883175E+05 -2.301951E+05 -7.097528E+02 -3.799152E+05  2.003764E+03 -7.186490E+03
       212  25  8.542347E+04 -6.030712E+04  7.769919E+04 -2.473369E+05  4.343406E+04 -2.746333E+04
       212  26 -1.209192E+05 -1.146524E+05  4.618402E+04 -2.845497E+05  3.731920E+04 -1.184200E+04
       212  27 -2.984253E+05 -1.978130E+05  1.450595E+04 -3.547500E+05  3.121734E+04  3.755553E+03
       213   1 -3.554603E+05 -2.183800E+05  5.076547E+03 -3.708880E+05  3.079972E+04  9.051138E+03
       213   2 -1.779258E+05 -1.351813E+05  3.576914E+04 -3.007178E+05  3.689248E+04 -6.360665E+03
       213   3  2.841387E+04 -8.079265E+04  6.625568E+04 -2.635193E+05  4.286052E+04 -2.143256E+04
       213   4 -3.883481E+05 -2.301842E+05 -9.714647E+02 -3.799262E+05  1.558298E+03 -1.901114E+03
       213   5 -4.026956E+05 -2.158137E+05 -1.812133E+03 -3.634004E+05  8.278698E+03 -1.708061E+04
       213   6 -3.884065E+05 -2.303850E+05 -3.360349E+03 -3.798642E+05  1.487427E+04 -3.192012E+04
       213   7 -4.212333E+05 -2.419877E+05 -7.015950E+03 -3.889635E+05 -2.768179E+04 -1.285288E+04
       213   8 -6.274111E+05 -2.964409E+05 -3.939152E+04 -4.260617E+05 -2.032425E+04 -2.779650E+04
       213   9 -8.050401E+05 -3.799594E+05 -7.297740E+04 -4.961356E+05 -1.309206E+04 -4.240022E+04
       213  10 -3.554614E+05 -2.183803E+05  5.074609E+03 -3.708882E+05  1.038926E-08  1.086387E-08
       213  11 -1.779273E+05 -1.351817E+05  3.576650E+04 -3.007176E+05  2.372164E-08  1.264855E-08
       213  12  2.841177E+04 -8.079364E+04  6.625137E+04 -2.635185E+05  2.813522E-08  1.054743E-08
       213  13 -3.883481E+05 -2.301842E+05 -9.714761E+02 -3.799262E+05  6.005109E-09 -3.132569E-08
       213  14 -4.026958E+05 -2.158140E+05 -1.812810E+03 -3.634003E+05  6.467322E-09 -1.652907E-08
       213  15 -3.884070E+05 -2.303861E+05 -3.362679E+03 -3.798639E+05  1.636677E-09 -3.590775E-09
       213  16 -4.212341E+05 -2.419880E+05 -7.017703E+03 -3.889638E+05 -2.498759E-08 -3.361228E-09
       213  17 -6.274118E+05 -2.964418E+05 -3.939376E+04 -4.260621E+05 -2.743106E-08 -7.580455E-09
       213  18 -8.050408E+05 -3.799614E+05 -7.298111E+04 -4.961361E+05 -2.519027E-08 -8.511147E-09
       213  19 -3.554603E+05 -2.183800E+05  5.076547E+03 -3.708880E+05 -3.079972E+04 -9.051138E+03
       213  20 -1.779258E+05 -1.351813E+05  3.576914E+04 -3.007178E+05 -3.689248E+04  6.360665E+03
       213  21  2.841387E+04 -8.079265E+04  6.625568E+04 -2.635193E+05 -4.286052E+04  2.143256E+04
       213  22 -3.883481E+05 -2.301842E+05 -9.714647E+02 -3.799262E+05 -1.558298E+03  1.901114E+03
       213  23 -4.026956E+05 -2.158137E+05 -1.812133E+03 -3.634004E+05 -8.278698E+03  1.708061E+04
       213  24 -3.884065E+05 -2.303850E+05 -3.360349E+03 -3.798642E+05 -1.487427E+04  3.192012E+04
       213  25 -4.212333E+05 -2.419877E+05 -7.015950E+03 -3.889635E+05  2.768179E+04  1.285288E+04
       213  26 -6.274111E+05 -2.964409E+05 -3.939152E+04 -4.260617E+05  2.032425E+04  2.779650E+04
       213  27 -8.050401E+05 -3.799594E+05 -7.297740E+04 -4.961356E+05  1.309206E+04  4.240022E+04
       214   1  1.513175E+05 -3.667163E+04  8.673155E+04 -2.295225E+05  4.711573E+04 -3.000204E+04
       214   2  3.279070E+05  4.690345E+04  1.171874E+05 -1.582977E+05  4.982916E+04 -4.428606E+04
       214   3  5.330568E+05  1.007371E+05  1.490531E+05 -1.193532E+05  5.123882E+04 -5.507940E+04
       214   4 -3.886775E+05 -2.303781E+05 -4.492884E+03 -3.798991E+05  1.882955E+04 -4.060528E+04
       214   5 -4.026182E+05 -2.168190E+05 -8.296597E+03 -3.630368E+05  2.804726E+04 -5.245937E+04
       214   6 -3.893245E+05 -2.342968E+05 -1.584548E+04 -3.784723E+05  3.596107E+04 -6.082019E+04
       214   7 -9.283547E+05 -4.240532E+05 -9.571997E+04 -5.301513E+05 -9.430194E+03 -5.119867E+04
       214   8 -1.132576E+06 -4.804879E+05 -1.337937E+05 -5.675501E+05  6.292599E+03 -6.062241E+04
       214   9 -1.310819E+06 -5.692506E+05 -1.807743E+05 -6.372342E+05  2.070732E+04 -6.655186E+04
       214  10  1.513148E+05 -3.667319E+04  8.672569E+04 -2.295214E+05  7.284236E-09  2.706157E-09
       214  11  3.279038E+05  4.690067E+04  1.171790E+05 -1.582960E+05 -2.346761E-09 -3.671177E-11
       214  12  5.330532E+05  1.007332E+05  1.490424E+05 -1.193509E+05 -3.837707E-09  1.281512E-09
       214  13 -3.886784E+05 -2.303800E+05 -4.496648E+03 -3.798985E+05 -4.304259E-09 -2.533239E-10
       214  14 -4.026198E+05 -2.168222E+05 -8.303244E+03 -3.630356E+05 -4.929964E-09 -1.013486E-09
       214  15 -3.893269E+05 -2.343011E+05 -1.585486E+04 -3.784706E+05 -3.012849E-09  6.484378E-10
       214  16 -9.283555E+05 -4.240560E+05 -9.572507E+04 -5.301517E+05 -1.408032E-08 -3.053497E-09
       214  17 -1.132577E+06 -4.804919E+05 -1.338007E+05 -5.675498E+05 -1.218531E-08 -2.004041E-09
       214  18 -1.310820E+06 -5.692555E+05 -1.807834E+05 -6.372331E+05 -2.745072E-09  1.767602E-10
       214  19  1.513175E+05 -3.667163E+04  8.673155E+04 -2.295225E+05 -4.711573E+04  3.000204E+04
       214  20  3.279070E+05  4.690345E+04  1.171874E+05 -1.582977E+05 -4.982916E+04  4.428606E+04
       214  21  5.330568E+05  1.007371E+05  1.490531E+05 -1.193532E+05 -5.123882E+04  5.507940E+04
       214  22 -3.886775E+05 -2.303781E+05 -4.492884E+03 -3.798991E+05 -1.882955E+04  4.060528E+04
       214  23 -4.026182E+05 -2.168190E+05 -8.296597E+03 -3.630368E+05 -2.804726E+04  5.245937E+04
       214  24 -3.893245E+05 -2.342968E+05 -1.584548E+04 -3.784723E+05 -3.596107E+04  6.082019E+04
       214  25 -9.283547E+05 -4.240532E+05 -9.571997E+04 -5.301513E+05  9.430194E+03  5.119867E+04
       214  26 -1.132576E+06 -4.804879E+05 -1.337937E+05 -5.675501E+05 -6.292599E+03  6.062241E+04
       214  27 -1.310819E+06 -5.692506E+05 -1.807743E+05 -6.372342E+05 -2.070732E+04  6.655186E+04
       215   1  6.580263E+05  1.433457E+05  1.689958E+05 -8.856274E+04  5.921811E+04 -5.963757E+04
       215   2  8.175600E+05  2.331532E+05  2.122251E+05  4.536797E+03  1.020692E+04 -6.876424E+04
       215   3  1.000171E+06  2.709258E+05  2.824073E+05  7.645984E+04 -5.232973E+04 -4.199222E+04
       215   4 -3.921813E+05 -2.343058E+05 -2.117046E+04 -3.788883E+05  4.082390E+04 -6.655178E+04
       215   5 -4.017895E+05 -2.345202E+05 -4.053702E+04 -3.559860E+05  5.885807E+04 -5.051340E+04
       215   6 -4.016519E+05 -3.000979E+05 -8.607210E+04 -3.542787E+05  6.336786E+04  1.469172E+03
       215   7 -1.441237E+06 -6.118591E+05 -2.113760E+05 -6.687597E+05  2.246275E+04 -7.345377E+04
       215   8 -1.619580E+06 -7.020158E+05 -2.933607E+05 -7.158324E+05  1.074057E+05 -3.230576E+04
       215   9 -1.801464E+06 -8.708606E+05 -4.546454E+05 -7.840755E+05  1.787750E+05  4.479985E+04
       215  10  6.580216E+05  1.433409E+05  1.689825E+05 -8.855990E+04  1.980634E-09  3.748884E-09
       215  11  8.175586E+05  2.331481E+05  2.122161E+05  4.537362E+03  1.396062E-09  3.246593E-09
       215  12  1.000168E+06  2.709232E+05  2.823989E+05  7.645807E+04  2.947070E-09  2.253404E-09
       215  13 -3.921843E+05 -2.343110E+05 -2.118191E+04 -3.788861E+05  1.061444E-09  1.528295E-09
       215  14 -4.017939E+05 -2.345239E+05 -4.054832E+04 -3.559836E+05  5.568064E-10  1.606245E-09
       215  15 -4.016563E+05 -3.000990E+05 -8.607966E+04 -3.542788E+05  8.935508E-10  4.548374E-10
       215  16 -1.441239E+06 -6.118650E+05 -2.113871E+05 -6.687583E+05 -2.938335E-09 -2.028266E-10
       215  17 -1.619593E+06 -7.020200E+05 -2.933844E+05 -7.158296E+05 -1.587210E-09  3.658419E-10
       215  18 -1.801499E+06 -8.708714E+05 -4.547094E+05 -7.840820E+05 -3.624800E-09 -1.311045E-10
       215  19  6.580263E+05  1.433457E+05  1.689958E+05 -8.856274E+04 -5.921811E+04  5.963757E+04
       215  20  8.175600E+05  2.331532E+05  2.122251E+05  4.536797E+03 -1.020692E+04  6.876424E+04
       215  21  1.000171E+06  2.709258E+05  2.824073E+05  7.645984E+04  5.232973E+04  4.199222E+04
       215  22 -3.921813E+05 -2.343058E+05 -2.117046E+04 -3.788883E+05 -4.082390E+04  6.655178E+04
       215  23 -4.017895E+05 -2.345202E+05 -4.053702E+04 -3.559860E+05 -5.885807E+04  5.051340E+04
       215  24 -4.016519E+05 -3.000979E+05 -8.607210E+04 -3.542787E+05 -6.336786E+04 -1.469172E+03
       215  25 -1.441237E+06 -6.118591E+05 -2.113760E+05 -6.687597E+05 -2.246275E+04  7.345377E+04
       215  26 -1.619580E+06 -7.020158E+05 -2.933607E+05 -7.158324E+05 -1.074057E+05  3.230576E+04
       215  27 -1.801464E+06 -8.708606E+05 -4.546454E+05 -7.840755E+05 -1.787750E+05 -4.479985E+04
       216   1 -5.342068E+05 -1.896099E+05 -1.642786E+05 -1.070754E+05 -2.187735E+04  1.516124E+04
       216   2 -3.945743E+05 -2.177937E+05 -1.366002E+05 -1.319351E+05  4.636314E+03  5.050136E+04
       216   3 -2.482102E+05 -2.058137E+05 -1.161437E+05 -1.799428E+05  3.118231E+04  5.976150E+04
       216   4  6.854968E+05  1.108533E+05  1.190248E+05 -1.808811E+05  8.377840E+04  1.522248E+04
       216   5  6.772790E+05  3.572654E+04  5.951204E+04 -1.692901E+05  5.335063E+04  5.051468E+04
       216   6  6.856308E+05  1.060251E+04  3.229880E+04 -1.808400E+05  2.294986E+04  5.975073E+04
       216   7  1.906610E+06  4.112382E+05  4.022730E+05 -2.548329E+05  1.896402E+05  1.525856E+04
       216   8  1.750256E+06  2.891884E+05  2.555873E+05 -2.067113E+05  1.021468E+05  5.052212E+04
       216   9  1.620339E+06  2.269753E+05  1.807192E+05 -1.817385E+05  1.470545E+04  5.973999E+04
       216  10 -5.342073E+05 -1.896103E+05 -1.642799E+05 -1.070751E+05  1.435541E-09 -1.571524E-10
       216  11 -3.945750E+05 -2.177965E+05 -1.366050E+05 -1.319353E+05 -1.032370E-09 -7.682773E-10
       216  12 -2.482122E+05 -2.058178E+05 -1.161523E+05 -1.799443E+05 -1.905227E-09 -1.413027E-09
       216  13  6.854892E+05  1.108511E+05  1.190112E+05 -1.808821E+05  2.168466E-10  2.238023E-10
       216  14  6.772753E+05  3.572304E+04  5.950189E+04 -1.692923E+05 -5.029525E-10 -7.077905E-10
       216  15  6.856293E+05  1.059853E+04  3.229110E+04 -1.808411E+05  6.588348E-10 -1.426120E-09
       216  16  1.906571E+06  4.112284E+05  4.022052E+05 -2.548352E+05 -7.926905E-10  3.113277E-10
       216  17  1.750244E+06  2.891828E+05  2.555629E+05 -2.067155E+05  2.551445E-09 -3.484449E-10
       216  18  1.620338E+06  2.269714E+05  1.807121E+05 -1.817392E+05  1.477311E-09  5.965578E-11
       216  19 -5.342068E+05 -1.896099E+05 -1.642786E+05 -1.070754E+05  2.187735E+04 -1.516124E+04
       216  20 -3.945743E+05 -2.177937E+05 -1.366002E+05 -1.319351E+05 -4.636314E+03 -5.050136E+04
       216  21 -2.482102E+05 -2.058137E+05 -1.161437E+05 -1.799428E+05 -3.118231E+04 -5.976150E+04
       216  22  6.854968E+05  1.108533E+05  1.190248E+05 -1.808811E+05 -8.377840E+04 -1.522248E+04
       216  23  6.772790E+05  3.572654E+04  5.951204E+04 -1.692901E+05 -5.335063E+04 -5.051468E+04
       216  24  6.856308E+05  1.060251E+04  3.229880E+04 -1.808400E+05 -2.294986E+04 -5.975073E+04
       216  25  1.906610E+06  4.112382E+05  4.022730E+05 -2.548329E+05 -1.896402E+05 -1.525856E+04
       216  26  1.750256E+06  2.891884E+05  2.555873E+05 -2.067113E+05 -1.021468E+05 -5.052212E+04
       216  27  1.620339E+06  2.269753E+05  1.807192E+05 -1.817385E+05 -1.470545E+04 -5.973999E+04
       217   1 -1.607658E+05 -1.865341E+05 -1.061888E+05 -1.768973E+05  2.757812E+04  5.651407E+04
       217   2 -1.851306E+04 -1.582911E+05 -8.947822E+04 -1.668581E+05  2.801438E+04  5.086529E+04
       217   3  1.245158E+05 -1.270496E+05 -7.228456E+04 -1.817852E+05  2.844898E+04  4.201297E+04
       217   4  6.824141E+05  8.131473E+03  2.419636E+04 -1.812517E+05  1.875983E+04  5.650477E+04
       217   5  6.814657E+05  2.176530E+03  1.313100E+04 -1.687694E+05  1.219219E+04  5.085782E+04
       217   6  6.824857E+05  4.335559E+02  7.406326E+03 -1.812511E+05  5.622832E+03  4.200921E+04
       217   7  1.526304E+06  2.027626E+05  1.545656E+05 -1.856123E+05  9.930016E+03  5.649560E+04
       217   8  1.381938E+06  1.626216E+05  1.157327E+05 -1.706830E+05 -3.647103E+03  5.085044E+04
       217   9  1.240771E+06  1.279028E+05  8.709456E+04 -1.807165E+05 -1.722295E+04  4.200542E+04
       217  10 -1.607675E+05 -1.865378E+05 -1.061962E+05 -1.768986E+05  2.823881E-08 -1.961146E-09
       217  11 -1.851460E+04 -1.582941E+05 -8.948456E+04 -1.668592E+05 -4.970227E-09 -4.236764E-09
       217  12  1.245145E+05 -1.270517E+05 -7.228940E+04 -1.817862E+05 -4.084174E-08 -6.793363E-09
       217  13  6.824128E+05  8.127948E+03  2.418969E+04 -1.812526E+05 -8.134258E-10  1.188995E-09
       217  14  6.814649E+05  2.173712E+03  1.312586E+04 -1.687699E+05  2.541381E-10  6.126548E-09
       217  15  6.824852E+05  4.316516E+02  7.402949E+03 -1.812513E+05 -2.409683E-10  1.119778E-08
       217  16  1.526303E+06  2.027592E+05  1.545594E+05 -1.856127E+05 -2.873596E-08 -1.023263E-09
       217  17  1.381938E+06  1.626188E+05  1.157278E+05 -1.706828E+05  7.551524E-09 -3.635493E-09
       217  18  1.240770E+06  1.279009E+05  8.709069E+04 -1.807159E+05  3.952844E-08 -5.539085E-09
       217  19 -1.607658E+05 -1.865341E+05 -1.061888E+05 -1.768973E+05 -2.757812E+04 -5.651407E+04
       217  20 -1.851306E+04 -1.582911E+05 -8.947822E+04 -1.668581E+05 -2.801438E+04 -5.086529E+04
       217  21  1.245158E+05 -1.270496E+05 -7.228456E+04 -1.817852E+05 -2.844898E+04 -4.201297E+04
       217  22  6.824141E+05  8.131473E+03  2.419636E+04 -1.812517E+05 -1.875983E+04 -5.650477E+04
       217  23  6.814657E+05  2.176530E+03  1.313100E+04 -1.687694E+05 -1.219219E+04 -5.085782E+04
       217  24  6.824857E+05  4.335559E+02  7.406326E+03 -1.812511E+05 -5.622832E+03 -4.200921E+04
       217  25  1.526304E+06  2.027626E+05  1.545656E+05 -1.856123E+05 -9.930016E+03 -5.649560E+04
       217  26  1.381938E+06  1.626216E+05  1.157327E+05 -1.706830E+05  3.647103E+03 -5.085044E+04
       217  27  1.240771E+06  1.279028E+05  8.709456E+04 -1.807165E+05  1.722295E+04 -4.200542E+04
       218   1  2.132830E+05 -1.066514E+05 -6.064847E+04 -1.814117E+05  2.741333E+04  3.580180E+04
       218   2  3.557415E+05 -7.440854E+04 -4.263002E+04 -1.688584E+05  2.670789E+04  2.512422E+04
       218   3  4.983810E+05 -4.198712E+04 -2.410009E+04 -1.814814E+05  2.600042E+04  1.405491E+04
       218   4  6.821346E+05  3.216141E+02  5.596646E+03 -1.812985E+05  4.517287E+03  3.580006E+04
       218   5  6.819954E+05 -3.815628E+01  3.157698E+03 -1.687107E+05  2.952528E+03  2.512476E+04
       218   6  6.821670E+05 -6.943047E+01  1.824994E+03 -1.812986E+05  1.385904E+03  1.405782E+04
       218   7  1.151210E+06  1.072850E+05  7.184071E+04 -1.811851E+05 -1.839529E+04  3.579831E+04
       218   8  1.008358E+06  7.432779E+04  4.894614E+04 -1.685630E+05 -2.081476E+04  2.512529E+04
       218   9  8.659885E+05  4.184707E+04  2.775190E+04 -1.811157E+05 -2.323558E+04  1.406071E+04
       218  10  2.132819E+05 -1.066529E+05 -6.065229E+04 -1.814125E+05  4.017589E-08 -6.218868E-09
       218  11  3.557406E+05 -7.440941E+04 -4.263255E+04 -1.688589E+05  7.280819E-09 -2.765579E-09
       218  12  4.983803E+05 -4.198752E+04 -2.410173E+04 -1.814817E+05 -2.509476E-08 -5.306897E-10
       218  13  6.821342E+05  3.202319E+02  5.594199E+03 -1.812986E+05 -2.741237E-10  1.165032E-08
       218  14  6.819952E+05 -3.883672E+01  3.156495E+03 -1.687108E+05 -1.124982E-09  6.909474E-09
       218  15  6.821670E+05 -6.964327E+01  1.824619E+03 -1.812986E+05  1.926060E-10  1.627308E-09
       218  16  1.151209E+06  1.072835E+05  7.183767E+04 -1.811846E+05 -3.953816E-08 -5.393917E-09
       218  17  1.008358E+06  7.432699E+04  4.894414E+04 -1.685626E+05 -9.315911E-09 -3.315381E-09
       218  18  8.659878E+05  4.184672E+04  2.775051E+04 -1.811154E+05  2.638650E-08 -6.225656E-10
       218  19  2.132830E+05 -1.066514E+05 -6.064847E+04 -1.814117E+05 -2.741333E+04 -3.580180E+04
       218  20  3.557415E+05 -7.440854E+04 -4.263002E+04 -1.688584E+05 -2.670789E+04 -2.512422E+04
       218  21  4.983810E+05 -4.198712E+04 -2.410009E+04 -1.814814E+05 -2.600042E+04 -1.405491E+04
       218  22  6.821346E+05  3.216141E+02  5.596646E+03 -1.812985E+05 -4.517287E+03 -3.580006E+04
       218  23  6.819954E+05 -3.815628E+01  3.157698E+03 -1.687107E+05 -2.952528E+03 -2.512476E+04
       218  24  6.821670E+05 -6.943047E+01  1.824994E+03 -1.812986E+05 -1.385904E+03 -1.405782E+04
       218  25  1.151210E+06  1.072850E+05  7.184071E+04 -1.811851E+05  1.839529E+04 -3.579831E+04
       218  26  1.008358E+06  7.432779E+04  4.894614E+04 -1.685630E+05  2.081476E+04 -2.512529E+04
       218  27  8.659885E+05  4.184707E+04  2.775190E+04 -1.811157E+05  2.323558E+04 -1.406071E+04
       219   1  5.872636E+05 -2.162183E+04 -1.165308E+04 -1.814284E+05  2.572118E+04  7.483640E+03
       219   2  7.297777E+05  1.077270E+04  7.344746E+03 -1.687870E+05  2.540180E+04 -3.802481E+03
       219   3  8.723715E+05  4.316625E+04  2.655511E+04 -1.813452E+05  2.508267E+04 -1.512916E+04
       219   4  6.821187E+05 -5.457123E+01  1.396173E+03 -1.813040E+05  1.097483E+03  7.487136E+03
       219   5  6.820803E+05 -6.154326E+01  8.310618E+02 -1.687041E+05  6.864350E+02 -3.799305E+03
       219   6  6.821142E+05 -5.378469E+01  5.396538E+02 -1.813040E+05  2.757010E+02 -1.512634E+04
       219   7  7.769842E+05  2.151262E+04  1.444761E+04 -1.811796E+05 -2.352980E+04  7.490622E+03
       219   8  6.343866E+05 -1.089556E+04 -5.680353E+03 -1.686213E+05 -2.402712E+04 -3.796136E+03
       219   9  4.918950E+05 -4.327507E+04 -2.547387E+04 -1.812628E+05 -2.452402E+04 -1.512351E+04
       219  10  5.872629E+05 -2.162206E+04 -1.165443E+04 -1.814285E+05 -6.531917E-11 -3.600992E-10
       219  11  7.297770E+05  1.077251E+04  7.343508E+03 -1.687869E+05  1.668679E-10 -1.059541E-09
       219  12  8.723708E+05  4.316584E+04  2.655350E+04 -1.813449E+05 -6.917757E-10 -1.714998E-09
       219  13  6.821187E+05 -5.463177E+01  1.396066E+03 -1.813040E+05 -1.035141E-09 -1.412501E-10
       219  14  6.820803E+05 -6.155889E+01  8.310337E+02 -1.687041E+05 -1.781742E-09 -6.904967E-10
       219  15  6.821141E+05 -5.403048E+01  5.392236E+02 -1.813040E+05 -1.184127E-09 -9.422942E-10
       219  16  7.769836E+05  2.151241E+04  1.444646E+04 -1.811794E+05  6.386667E-10  5.941827E-11
       219  17  6.343859E+05 -1.089573E+04 -5.681464E+03 -1.686214E+05  1.819505E-10 -2.967766E-10
       219  18  4.918943E+05 -4.327548E+04 -2.547543E+04 -1.812631E+05 -2.724968E-09 -1.628076E-10
       219  19  5.872636E+05 -2.162183E+04 -1.165308E+04 -1.814284E+05 -2.572118E+04 -7.483640E+03
       219  20  7.297777E+05  1.077270E+04  7.344746E+03 -1.687870E+05 -2.540180E+04  3.802481E+03
       219  21  8.723715E+05  4.316625E+04  2.655511E+04 -1.813452E+05 -2.508267E+04  1.512916E+04
       219  22  6.821187E+05 -5.457123E+01  1.396173E+03 -1.813040E+05 -1.097483E+03 -7.487136E+03
       219  23  6.820803E+05 -6.154326E+01  8.310618E+02 -1.687041E+05 -6.864350E+02  3.799305E+03
       219  24  6.821142E+05 -5.378469E+01  5.396538E+02 -1.813040E+05 -2.757010E+02  1.512634E+04
       219  25  7.769842E+05  2.151262E+04  1.444761E+04 -1.811796E+05  2.352980E+04 -7.490622E+03
       219  26  6.343866E+05 -1.089556E+04 -5.680353E+03 -1.686213E+05  2.402712E+04  3.796136E+03
       219  27  4.918950E+05 -4.327507E+04 -2.547387E+04 -1.812628E+05  2.452402E+04  1.512351E+04
       220   1  9.613090E+05  6.349218E+04  3.929343E+04 -1.813323E+05  2.499507E+04 -2.173666E+04
       220   2  1.103898E+06  9.585042E+04  5.875357E+04 -1.686758E+05  2.467474E+04 -3.305288E+04
       220   3  1.246586E+06  1.282269E+05  7.843538E+04 -1.812256E+05  2.435702E+04 -4.431095E+04
       220   4  6.821029E+05 -6.213732E+01  4.602371E+02 -1.813057E+05  1.845484E+02 -2.173483E+04
       220   5  6.820541E+05 -1.014711E+02  3.968854E+02 -1.687021E+05 -1.126192E+01 -3.305409E+04
       220   6  6.820619E+05 -1.437346E+02  4.672258E+02 -1.813057E+05 -2.043966E+02 -4.431519E+04
       220   7  4.029770E+05 -6.361958E+04 -3.837160E+04 -1.812791E+05 -2.461533E+04 -2.173301E+04
       220   8  2.603922E+05 -9.606087E+04 -5.795960E+04 -1.687283E+05 -2.468127E+04 -3.305529E+04
       220   9  1.178625E+05 -1.285280E+05 -7.750235E+04 -1.813857E+05 -2.474452E+04 -4.431943E+04
       220  10  9.613082E+05  6.349151E+04  3.929137E+04 -1.813319E+05  2.423479E-08 -2.355922E-09
       220  11  1.103897E+06  9.584908E+04  5.875038E+04 -1.686751E+05 -6.068624E-09 -4.272802E-09
       220  12  1.246584E+06  1.282246E+05  7.843057E+04 -1.812247E+05 -3.985086E-08 -7.115090E-09
       220  13  6.821028E+05 -6.264477E+01  4.593490E+02 -1.813057E+05 -1.669433E-09  5.962277E-10
       220  14  6.820538E+05 -1.026447E+02  3.948316E+02 -1.687021E+05 -3.872771E-09  5.655465E-09
       220  15  6.820613E+05 -1.458441E+02  4.635341E+02 -1.813057E+05 -4.128185E-09  9.982239E-09
       220  16  4.029762E+05 -6.362025E+04 -3.837363E+04 -1.812795E+05 -2.653932E-08 -9.786341E-10
       220  17  2.603912E+05 -9.606221E+04 -5.796280E+04 -1.687289E+05  3.867955E-09 -4.478947E-09
       220  18  1.178614E+05 -1.285303E+05 -7.750719E+04 -1.813866E+05  4.019228E-08 -8.128802E-09
       220  19  9.613090E+05  6.349218E+04  3.929343E+04 -1.813323E+05 -2.499507E+04  2.173666E+04
       220  20  1.103898E+06  9.585042E+04  5.875357E+04 -1.686758E+05 -2.467474E+04  3.305288E+04
       220  21  1.246586E+06  1.282269E+05  7.843538E+04 -1.812256E+05 -2.435702E+04  4.431095E+04
       220  22  6.821029E+05 -6.213732E+01  4.602371E+02 -1.813057E+05 -1.845484E+02  2.173483E+04
       220  23  6.820541E+05 -1.014711E+02  3.968854E+02 -1.687021E+05  1.126192E+01  3.305409E+04
       220  24  6.820619E+05 -1.437346E+02  4.672258E+02 -1.813057E+05  2.043966E+02  4.431519E+04
       220  25  4.029770E+05 -6.361958E+04 -3.837160E+04 -1.812791E+05  2.461533E+04  2.173301E+04
       220  26  2.603922E+05 -9.606087E+04 -5.795960E+04 -1.687283E+05  2.468127E+04  3.305529E+04
       220  27  1.178625E+05 -1.285280E+05 -7.750235E+04 -1.813857E+05  2.474452E+04  4.431943E+04
       221   1  1.335650E+06  1.485622E+05  9.143448E+04 -1.811743E+05  2.426259E+04 -5.086471E+04
       221   2  1.478265E+06  1.810067E+05  1.117788E+05 -1.684844E+05  2.267029E+04 -6.182046E+04
       221   3  1.621250E+06  2.137278E+05  1.332478E+05 -1.809856E+05  2.108227E+04 -7.224050E+04
       221   4  6.820620E+05 -1.765861E+02  5.543585E+02 -1.813025E+05 -2.944113E+02 -5.087152E+04
       221   5  6.819488E+05 -2.383426E+02  8.575943E+02 -1.687060E+05 -7.162782E+02 -6.183268E+04
       221   6  6.819845E+05 -2.251862E+02  1.473458E+03 -1.813025E+05 -1.133533E+03 -7.225779E+04
       221   7  2.890773E+04 -1.489339E+05 -9.032872E+04 -1.814306E+05 -2.482675E+04 -5.087832E+04
       221   8 -1.137242E+05 -1.815112E+05 -1.100694E+05 -1.689272E+05 -2.407423E+04 -6.184490E+04
       221   9 -2.563876E+05 -2.142172E+05 -1.303106E+05 -1.816188E+05 -2.331727E+04 -7.227507E+04
       221  10  1.335649E+06  1.485592E+05  9.142851E+04 -1.811733E+05  3.714843E-08 -6.467848E-09
       221  11  1.478263E+06  1.810025E+05  1.117707E+05 -1.684832E+05  7.578343E-09 -3.461318E-09
       221  12  1.621248E+06  2.137221E+05  1.332371E+05 -1.809844E+05 -2.557479E-08 -3.756236E-11
       221  13  6.820614E+05 -1.793660E+02  5.494936E+02 -1.813026E+05 -1.096529E-09  1.014485E-08
       221  14  6.819478E+05 -2.424496E+02  8.504063E+02 -1.687060E+05 -1.968832E-09  5.736906E-09
       221  15  6.819831E+05 -2.307950E+02  1.463641E+03 -1.813026E+05  5.497292E-10  7.532461E-10
       221  16  2.890637E+04 -1.489369E+05 -9.033475E+04 -1.814316E+05 -4.000003E-08 -8.361518E-09
       221  17 -1.137258E+05 -1.815154E+05 -1.100777E+05 -1.689284E+05 -8.104187E-09 -5.119227E-09
       221  18 -2.563896E+05 -2.142230E+05 -1.303214E+05 -1.816202E+05  2.563702E-08 -2.209447E-09
       221  19  1.335650E+06  1.485622E+05  9.143448E+04 -1.811743E+05 -2.426259E+04  5.086471E+04
       221  20  1.478265E+06  1.810067E+05  1.117788E+05 -1.684844E+05 -2.267029E+04  6.182046E+04
       221  21  1.621250E+06  2.137278E+05  1.332478E+05 -1.809856E+05 -2.108227E+04  7.224050E+04
       221  22  6.820620E+05 -1.765861E+02  5.543585E+02 -1.813025E+05  2.944113E+02  5.087152E+04
       221  23  6.819488E+05 -2.383426E+02  8.575943E+02 -1.687060E+05  7.162782E+02  6.183268E+04
       221  24  6.819845E+05 -2.251862E+02  1.473458E+03 -1.813025E+05  1.133533E+03  7.225779E+04
       221  25  2.890773E+04 -1.489339E+05 -9.032872E+04 -1.814306E+05  2.482675E+04  5.087832E+04
       221  26 -1.137242E+05 -1.815112E+05 -1.100694E+05 -1.689272E+05  2.407423E+04  6.184490E+04
       221  27 -2.563876E+05 -2.142172E+05 -1.303106E+05 -1.816188E+05  2.331727E+04  7.227507E+04
       222   1  1.710779E+06  2.343084E+05  1.474141E+05 -1.807291E+05  2.070807E+04 -7.829964E+04
       222   2  1.852676E+06  2.679099E+05  1.731133E+05 -1.687202E+05  9.399377E+03 -8.621657E+04
       222   3  1.996896E+06  3.042636E+05  2.068859E+05 -1.816101E+05 -1.910894E+03 -8.974148E+04
       222   4  6.820599E+05 -2.404763E+02  1.938064E+03 -1.812376E+05 -1.419462E+03 -7.832072E+04
       222   5  6.816851E+05  1.191736E+02  3.398052E+03 -1.687872E+05 -3.109575E+03 -8.623942E+04
       222   6  6.819464E+05  1.566485E+03  6.266208E+03 -1.812384E+05 -4.798616E+03 -8.976179E+04
       222   7 -3.455890E+05 -2.348365E+05 -1.435508E+05 -1.817450E+05 -2.351200E+04 -7.834177E+04
       222   8 -4.879262E+05 -2.677344E+05 -1.663390E+05 -1.688540E+05 -1.559597E+04 -8.626229E+04
       222   9 -6.312772E+05 -3.012136E+05 -1.943906E+05 -1.808676E+05 -7.680468E+03 -8.978214E+04
       222  10  1.710776E+06  2.343017E+05  1.474018E+05 -1.807278E+05 -1.261190E-08  1.693607E-10
       222  11  1.852674E+06  2.679019E+05  1.730991E+05 -1.687196E+05  2.347214E-08 -8.659243E-10
       222  12  1.996894E+06  3.042549E+05  2.068708E+05 -1.816102E+05  5.408048E-08 -1.291796E-09
       222  13  6.820582E+05 -2.470660E+02  1.926529E+03 -1.812376E+05  2.161994E-09 -7.085680E-10
       222  14  6.816830E+05  1.111821E+02  3.384053E+03 -1.687874E+05  3.158153E-10 -8.826566E-10
       222  15  6.819442E+05  1.557824E+03  6.251018E+03 -1.812387E+05 -2.767414E-11 -4.859822E-10
       222  16 -3.455913E+05 -2.348433E+05 -1.435634E+05 -1.817465E+05  1.257362E-08 -1.350383E-09
       222  17 -4.879285E+05 -2.677425E+05 -1.663534E+05 -1.688551E+05 -2.071921E-08  1.194204E-09
       222  18 -6.312794E+05 -3.012223E+05 -1.944059E+05 -1.808681E+05 -5.426918E-08  6.254873E-10
       222  19  1.710779E+06  2.343084E+05  1.474141E+05 -1.807291E+05 -2.070807E+04  7.829964E+04
       222  20  1.852676E+06  2.679099E+05  1.731133E+05 -1.687202E+05 -9.399377E+03  8.621657E+04
       222  21  1.996896E+06  3.042636E+05  2.068859E+05 -1.816101E+05  1.910894E+03  8.974148E+04
       222  22  6.820599E+05 -2.404763E+02  1.938064E+03 -1.812376E+05  1.419462E+03  7.832072E+04
       222  23  6.816851E+05  1.191736E+02  3.398052E+03 -1.687872E+05  3.109575E+03  8.623942E+04
       222  24  6.819464E+05  1.566485E+03  6.266208E+03 -1.812384E+05  4.798616E+03  8.976179E+04
       222  25 -3.455890E+05 -2.348365E+05 -1.435508E+05 -1.817450E+05  2.351200E+04  7.834177E+04
       222  26 -4.879262E+05 -2.677344E+05 -1.663390E+05 -1.688540E+05  1.559597E+04  8.626229E+04
       222  27 -6.312772E+05 -3.012136E+05 -1.943906E+05 -1.808676E+05  7.680468E+03  8.978214E+04
       223   1  2.089393E+06  3.271539E+05  2.290186E+05 -1.799880E+05 -3.789908E+03 -9.173552E+04
       223   2  2.223925E+06  3.725425E+05  2.942514E+05 -1.780780E+05 -8.997655E+04 -7.488833E+04
       223   3  2.376537E+06  4.445534E+05  4.221739E+05 -1.985412E+05 -1.762539E+05 -2.228185E+04
       223   4  6.827629E+05  2.156970E+03  8.367084E+03 -1.806724E+05 -5.883701E+03 -9.175691E+04
       223   5  6.804324E+05  8.622999E+03  1.538146E+04 -1.695002E+05 -1.371540E+04 -7.482685E+04
       223   6  6.826126E+05  2.816613E+04  3.079457E+04 -1.806970E+05 -2.161197E+04 -2.209922E+04
       223   7 -7.218998E+05 -3.229373E+05 -2.123326E+05 -1.813554E+05 -7.972929E+03 -9.177832E+04
       223   8 -8.607356E+05 -3.554262E+05 -2.635603E+05 -1.609446E+05  6.236196E+04 -7.476320E+04
       223   9 -1.008616E+06 -3.884080E+05 -3.606863E+05 -1.629022E+05  1.326125E+05 -2.190752E+04
       223  10  2.089390E+06  3.271448E+05  2.290028E+05 -1.799883E+05 -5.268494E-08 -1.983933E-09
       223  11  2.223915E+06  3.725343E+05  2.942257E+05 -1.780834E+05 -2.413584E-08 -3.804341E-09
       223  12  2.376504E+06  4.445446E+05  4.221148E+05 -1.985443E+05  8.278797E-09 -1.139294E-09
       223  13  6.827606E+05  2.147916E+03  8.351191E+03 -1.806729E+05  3.513366E-10 -4.399806E-09
       223  14  6.804307E+05  8.616934E+03  1.537058E+04 -1.695011E+05  3.657463E-10  2.174139E-09
       223  15  6.826120E+05  2.816548E+04  3.079278E+04 -1.806974E+05 -2.134808E-09  4.665109E-11
       223  16 -7.219022E+05 -3.229463E+05 -2.123485E+05 -1.813560E+05  5.585188E-08  3.748181E-11
       223  17 -8.607413E+05 -3.554332E+05 -2.635781E+05 -1.609408E+05  2.011469E-08  2.196331E-09
       223  18 -1.008635E+06 -3.884133E+05 -3.607203E+05 -1.628998E+05 -9.555546E-09 -1.288769E-09
       223  19  2.089393E+06  3.271539E+05  2.290186E+05 -1.799880E+05  3.789908E+03  9.173552E+04
       223  20  2.223925E+06  3.725425E+05  2.942514E+05 -1.780780E+05  8.997655E+04  7.488833E+04
       223  21  2.376537E+06  4.445534E+05  4.221739E+05 -1.985412E+05  1.762539E+05  2.228185E+04
       223  22  6.827629E+05  2.156970E+03  8.367084E+03 -1.806724E+05  5.883701E+03  9.175691E+04
       223  23  6.804324E+05  8.622999E+03  1.538146E+04 -1.695002E+05  1.371540E+04  7.482685E+04
       223  24  6.826126E+05  2.816613E+04  3.079457E+04 -1.806970E+05  2.161197E+04  2.209922E+04
       223  25 -7.218998E+05 -3.229373E+05 -2.123326E+05 -1.813554E+05  7.972929E+03  9.177832E+04
       223  26 -8.607356E+05 -3.554262E+05 -2.635603E+05 -1.609446E+05 -6.236196E+04  7.476320E+04
       223  27 -1.008616E+06 -3.884080E+05 -3.606863E+05 -1.629022E+05 -1.326125E+05  2.190752E+04
       224   1  4.399814E+05  1.912027E+06  4.208476E+05 -5.802453E+05  1.648811E+04  1.242849E+05
       224   2  3.062915E+05  1.457072E+06  2.531024E+05 -5.364369E+05  4.983786E+04  3.665523E+04
       224   3  1.948266E+05  1.019155E+06  1.478296E+05 -5.682796E+05  4.558046E+04 -5.093809E+04
       224   4  1.787919E+04  2.026434E+05  1.779366E+04 -5.667822E+05  1.670956E+04  1.049220E+04
       224   5  6.878668E+03  2.015241E+05  1.049037E+04 -5.289666E+05  4.991077E+04  5.225653E+03
       224   6  3.865106E+03  2.030142E+05  8.584802E+03 -5.668078E+05  4.547128E+04 -6.863534E+01
       224   7 -4.044242E+05 -1.504030E+06 -3.854132E+05 -5.533539E+05  1.692651E+04 -1.029897E+05
       224   8 -2.926273E+05 -1.052509E+06 -2.321915E+05 -5.215105E+05  4.998302E+04 -2.614192E+04
       224   9 -1.871304E+05 -6.124673E+05 -1.306723E+05 -5.653374E+05  4.536225E+04  5.073615E+04
       224  10  4.399770E+05  1.912010E+06  4.208181E+05 -5.802470E+05  4.490254E-10  1.312191E-07
       224  11  3.062885E+05  1.457070E+06  2.530952E+05 -5.364384E+05 -4.471850E-10 -5.221366E-09
       224  12  1.948237E+05  1.019152E+06  1.478208E+05 -5.682777E+05  1.607720E-09 -1.402304E-07
       224  13  1.787886E+04  2.026432E+05  1.779292E+04 -5.667823E+05  2.222185E-09 -1.103935E-09
       224  14  6.875985E+03  2.015234E+05  1.048564E+04 -5.289668E+05  1.973083E-09 -1.231102E-09
       224  15  3.862885E+03  2.030136E+05  8.580917E+03 -5.668078E+05  7.742717E-10 -3.347948E-09
       224  16 -4.044274E+05 -1.504042E+06 -3.854337E+05 -5.533525E+05  4.130013E-10 -1.313572E-07
       224  17 -2.926301E+05 -1.052510E+06 -2.321975E+05 -5.215094E+05 -1.911359E-09  5.349458E-09
       224  18 -1.871333E+05 -6.124706E+05 -1.306810E+05 -5.653393E+05 -1.726354E-09  1.400260E-07
       224  19  4.399814E+05  1.912027E+06  4.208476E+05 -5.802453E+05 -1.648811E+04 -1.242849E+05
       224  20  3.062915E+05  1.457072E+06  2.531024E+05 -5.364369E+05 -4.983786E+04 -3.665523E+04
       224  21  1.948266E+05  1.019155E+06  1.478296E+05 -5.682796E+05 -4.558046E+04  5.093809E+04
       224  22  1.787919E+04  2.026434E+05  1.779366E+04 -5.667822E+05 -1.670956E+04 -1.049220E+04
       224  23  6.878668E+03  2.015241E+05  1.049037E+04 -5.289666E+05 -4.991077E+04 -5.225653E+03
       224  24  3.865106E+03  2.030142E+05  8.584802E+03 -5.668078E+05 -4.547128E+04  6.863534E+01
       224  25 -4.044242E+05 -1.504030E+06 -3.854132E+05 -5.533539E+05 -1.692651E+04  1.029897E+05
       224  26 -2.926273E+05 -1.052509E+06 -2.321915E+05 -5.215105E+05 -4.998302E+04  2.614192E+04
       224  27 -1.871304E+05 -6.124673E+05 -1.306723E+05 -5.653374E+05 -4.536225E+04 -5.073615E+04
       225   1  1.287992E+05  7.379322E+05  9.949077E+04 -5.692016E+05  3.037291E+04 -5.311130E+04
       225   2  2.445190E+04  2.911003E+05  2.462309E+04 -5.272375E+05  6.548185E+03 -5.987344E+04
       225   3 -7.574083E+04 -1.538394E+05 -4.488079E+04 -5.633842E+05 -1.772660E+04 -6.663294E+04
       225   4  3.696378E+03  2.028426E+05  8.799693E+03 -5.673524E+05  3.025605E+04 -1.499658E+03
       225   5  4.035809E+03  2.020935E+05  1.148899E+04 -5.282929E+05  6.427999E+03 -7.295259E+03
       225   6  8.369125E+03  2.028686E+05  1.886408E+04 -5.673431E+05 -1.785031E+04 -1.309273E+04
       225   7 -1.214201E+05 -3.319597E+05 -8.189065E+04 -5.655045E+05  3.013942E+04  5.006898E+04
       225   8 -1.637916E+04  1.131007E+05 -1.634866E+03 -5.293482E+05  6.307622E+03  4.527569E+04
       225   9  9.247361E+04  5.597070E+05  8.261489E+04 -5.713041E+05 -1.797465E+04  4.047737E+04
       225  10  1.287974E+05  7.379289E+05  9.948375E+04 -5.692003E+05  6.295012E-10 -1.552694E-09
       225  11  2.445089E+04  2.910964E+05  2.461628E+04 -5.272372E+05  2.701674E-09 -6.757992E-09
       225  12 -7.574236E+04 -1.538443E+05 -4.488973E+04 -5.633852E+05  2.751715E-09 -9.366704E-09
       225  13  3.695394E+03  2.028423E+05  8.797968E+03 -5.673523E+05 -6.741031E-10 -1.479604E-09
       225  14  4.035750E+03  2.020935E+05  1.148881E+04 -5.282929E+05  1.492715E-09 -1.429481E-09
       225  15  8.368736E+03  2.028684E+05  1.886316E+04 -5.673433E+05  1.179879E-09 -3.679123E-09
       225  16 -1.214217E+05 -3.319627E+05 -8.189708E+04 -5.655057E+05  6.513642E-10  7.883415E-10
       225  17 -1.637975E+04  1.130985E+05 -1.638793E+03 -5.293484E+05  2.227903E-09  6.042928E-09
       225  18  9.247283E+04  5.597051E+05  8.261121E+04 -5.713035E+05  1.189836E-09  9.148340E-09
       225  19  1.287992E+05  7.379322E+05  9.949077E+04 -5.692016E+05 -3.037291E+04  5.311130E+04
       225  20  2.445190E+04  2.911003E+05  2.462309E+04 -5.272375E+05 -6.548185E+03  5.987344E+04
       225  21 -7.574083E+04 -1.538394E+05 -4.488079E+04 -5.633842E+05  1.772660E+04  6.663294E+04
       225  22  3.696378E+03  2.028426E+05  8.799693E+03 -5.673524E+05 -3.025605E+04  1.499658E+03
       225  23  4.035809E+03  2.020935E+05  1.148899E+04 -5.282929E+05 -6.427999E+03  7.295259E+03
       225  24  8.369125E+03  2.028686E+05  1.886408E+04 -5.673431E+05  1.785031E+04  1.309273E+04
       225  25 -1.214201E+05 -3.319597E+05 -8.189065E+04 -5.655045E+05 -3.013942E+04 -5.006898E+04
       225  26 -1.637916E+04  1.131007E+05 -1.634866E+03 -5.293482E+05 -6.307622E+03 -4.527569E+04
       225  27  9.247361E+04  5.597070E+05  8.261489E+04 -5.713041E+05  1.797465E+04 -4.047737E+04
       226   1 -1.396791E+05 -4.320460E+05 -8.707795E+04 -5.650356E+05 -3.336032E+04 -6.923681E+04
       226   2 -2.294861E+05 -8.775041E+05 -1.670004E+05 -4.994238E+05 -4.074443E+04 -1.777046E+04
       226   3 -2.948435E+05 -1.323459E+06 -2.743802E+05 -5.097779E+05 -1.419190E+04  3.368731E+04
       226   4  1.012575E+04  2.051784E+05  2.458404E+04 -5.668675E+05 -3.347837E+04 -1.637768E+04
       226   5  2.827835E+04  1.989427E+05  4.425506E+04 -5.288309E+05 -4.069316E+04 -3.896519E+04
       226   6  8.371809E+04  2.048535E+05  8.789702E+04 -5.667319E+05 -1.400303E+04 -6.152420E+04
       226   7  1.599100E+05  8.428064E+05  1.362419E+05 -5.687009E+05 -3.359665E+04  3.653411E+04
       226   8  2.859761E+05  1.276503E+06  2.554567E+05 -5.582891E+05 -4.063993E+04 -6.019588E+04
       226   9  4.621284E+05  1.735340E+06  4.500475E+05 -6.238252E+05 -1.379699E+04 -1.569691E+05
       226  10 -1.396815E+05 -4.320514E+05 -8.708906E+04 -5.650375E+05  2.386348E-09  2.739072E-09
       226  11 -2.294880E+05 -8.775049E+05 -1.670042E+05 -4.994244E+05  2.917583E-09 -2.686367E-09
       226  12 -2.948440E+05 -1.323460E+06 -2.743828E+05 -5.097775E+05  1.113389E-09 -5.753569E-09
       226  13  1.012448E+04  2.051778E+05  2.458142E+04 -5.668679E+05  2.195046E-09 -1.548176E-09
       226  14  2.827616E+04  1.989406E+05  4.424909E+04 -5.288321E+05  2.045243E-10 -1.233185E-09
       226  15  8.371687E+04  2.048494E+05  8.788954E+04 -5.667326E+05  2.673615E-10 -2.706349E-09
       226  16  1.599084E+05  8.428046E+05  1.362373E+05 -5.686999E+05  2.461748E-10 -3.244303E-09
       226  17  2.859734E+05  1.276499E+06  2.554467E+05 -5.582910E+05 -3.634227E-10  2.516795E-09
       226  18  4.621216E+05  1.735313E+06  4.500010E+05 -6.238270E+05 -7.275708E-10  5.738634E-09
       226  19 -1.396791E+05 -4.320460E+05 -8.707795E+04 -5.650356E+05  3.336032E+04  6.923681E+04
       226  20 -2.294861E+05 -8.775041E+05 -1.670004E+05 -4.994238E+05  4.074443E+04  1.777046E+04
       226  21 -2.948435E+05 -1.323459E+06 -2.743802E+05 -5.097779E+05  1.419190E+04 -3.368731E+04
       226  22  1.012575E+04  2.051784E+05  2.458404E+04 -5.668675E+05  3.347837E+04  1.637768E+04
       226  23  2.827835E+04  1.989427E+05  4.425506E+04 -5.288309E+05  4.069316E+04  3.896519E+04
       226  24  8.371809E+04  2.048535E+05  8.789702E+04 -5.667319E+05  1.400303E+04  6.152420E+04
       226  25  1.599100E+05  8.428064E+05  1.362419E+05 -5.687009E+05  3.359665E+04 -3.653411E+04
       226  26  2.859761E+05  1.276503E+06  2.554567E+05 -5.582891E+05  4.063993E+04  6.019588E+04
       226  27  4.621284E+05  1.735340E+06  4.500475E+05 -6.238252E+05  1.379699E+04  1.569691E+05
       227   1 -8.595449E+05 -4.493567E+05 -2.597137E+05 -3.630802E+05 -1.222557E+05 -3.612647E+04
       227   2 -8.027843E+05 -3.305746E+05 -1.587657E+05 -3.384359E+05 -7.614846E+04  3.851624E+03
       227   3 -7.639092E+05 -2.730775E+05 -1.118877E+05 -3.121615E+05 -2.437751E+04  2.879740E+04
       227   4 -2.948554E+05 -1.818610E+05 -1.046095E+05 -1.510809E+05 -7.130441E+04 -1.698952E+04
       227   5 -2.830442E+05 -1.140865E+05 -4.925912E+04 -1.668836E+05 -5.318990E+04  1.247240E+04
       227   6 -2.835504E+05 -1.020242E+05 -2.575907E+04 -1.810648E+05 -2.942020E+04  2.690020E+04
       227   7  2.701504E+05  8.571239E+04  5.047450E+04  6.110995E+04 -2.030350E+04  2.177675E+03
       227   8  2.369758E+05  1.024475E+05  6.023464E+04  4.808996E+03 -3.021084E+04  2.110336E+04
       227   9  1.970549E+05  6.905031E+04  6.036275E+04 -4.987336E+04 -3.446710E+04  2.500148E+04
       227  10 -8.595613E+05 -4.493621E+05 -2.597443E+05 -3.630838E+05  9.051388E-10 -4.270957E-10
       227  11 -8.027905E+05 -3.305762E+05 -1.587767E+05 -3.384356E+05  6.934175E-10 -1.966800E-09
       227  12 -7.639101E+05 -2.730785E+05 -1.118904E+05 -3.121609E+05 -1.548820E-09 -3.048943E-09
       227  13 -2.948610E+05 -1.818627E+05 -1.046196E+05 -1.510819E+05  2.430891E-09 -1.095034E-10
       227  14 -2.830473E+05 -1.140875E+05 -4.926473E+04 -1.668831E+05 -2.945387E-09 -9.308728E-10
       227  15 -2.835515E+05 -1.020252E+05 -2.576206E+04 -1.810642E+05 -1.029368E-08 -6.095349E-09
       227  16  2.701500E+05  8.571228E+04  5.047372E+04  6.110999E+04  1.579963E-09 -3.239142E-10
       227  17  2.369747E+05  1.024468E+05  6.023209E+04  4.809509E+03 -2.882904E-09 -1.379087E-09
       227  18  1.970534E+05  6.904932E+04  6.035934E+04 -4.987267E+04 -1.253818E-08 -6.947125E-09
       227  19 -8.595449E+05 -4.493567E+05 -2.597137E+05 -3.630802E+05  1.222557E+05  3.612647E+04
       227  20 -8.027843E+05 -3.305746E+05 -1.587657E+05 -3.384359E+05  7.614846E+04 -3.851624E+03
       227  21 -7.639092E+05 -2.730775E+05 -1.118877E+05 -3.121615E+05  2.437751E+04 -2.879740E+04
       227  22 -2.948554E+05 -1.818610E+05 -1.046095E+05 -1.510809E+05  7.130441E+04  1.698952E+04
       227  23 -2.830442E+05 -1.140865E+05 -4.925912E+04 -1.668836E+05  5.318990E+04 -1.247240E+04
       227  24 -2.835504E+05 -1.020242E+05 -2.575907E+04 -1.810648E+05  2.942020E+04 -2.690020E+04
       227  25  2.701504E+05  8.571239E+04  5.047450E+04  6.110995E+04  2.030350E+04 -2.177675E+03
       227  26  2.369758E+05  1.024475E+05  6.023464E+04  4.808996E+03  3.021084E+04 -2.110336E+04
       227  27  1.970549E+05  6.905031E+04  6.036275E+04 -4.987336E+04  3.446710E+04 -2.500148E+04
       228   1 -7.160287E+05 -2.614043E+05 -9.674887E+04 -3.040876E+05 -2.204994E+04  2.745317E+04
       228   2 -6.573229E+05 -2.286891E+05 -7.389967E+04 -2.812166E+05 -1.321303E+04  2.765196E+04
       228   3 -5.915134E+05 -2.088640E+05 -5.778130E+04 -2.685215E+05 -3.827826E+03  2.639041E+04
       228   4 -2.804312E+05 -1.017596E+05 -1.927804E+04 -1.801602E+05 -2.579046E+04  2.604561E+04
       228   5 -2.839245E+05 -9.332262E+04 -1.010182E+04 -1.759174E+05 -1.967109E+04  2.522477E+04
       228   6 -2.797775E+05 -9.723580E+04 -5.498880E+03 -1.818519E+05 -1.300438E+04  2.294374E+04
       228   7  1.553623E+05  5.790315E+04  5.818536E+04 -5.615245E+04 -2.953373E+04  2.463699E+04
       228   8  8.962223E+04  4.205815E+04  5.369236E+04 -7.055865E+04 -2.613329E+04  2.279601E+04
       228   9  3.206549E+04  1.440323E+04  4.678236E+04 -9.514059E+04 -2.218593E+04  1.949522E+04
       228  10 -7.160294E+05 -2.614053E+05 -9.675120E+04 -3.040871E+05 -1.123396E-08 -6.387138E-09
       228  11 -6.573233E+05 -2.286900E+05 -7.390143E+04 -2.812163E+05 -2.725064E-09 -7.381837E-10
       228  12 -5.915136E+05 -2.088648E+05 -5.778263E+04 -2.685214E+05  1.436853E-09  1.092199E-09
       228  13 -2.804321E+05 -1.017605E+05 -1.928057E+04 -1.801597E+05 -1.140189E-08 -5.215014E-09
       228  14 -2.839251E+05 -9.332341E+04 -1.010374E+04 -1.759170E+05 -3.355387E-09 -4.116022E-09
       228  15 -2.797778E+05 -9.723641E+04 -5.500186E+03 -1.818516E+05  6.012807E-10 -9.228970E-10
       228  16  1.553612E+05  5.790227E+04  5.818258E+04 -5.615186E+04 -2.879164E-09 -3.978773E-09
       228  17  8.962135E+04  4.205741E+04  5.369010E+04 -7.055817E+04  1.043497E-09 -1.835536E-09
       228  18  3.206486E+04  1.440269E+04  4.678072E+04 -9.514024E+04 -3.034351E-10 -3.718681E-09
       228  19 -7.160287E+05 -2.614043E+05 -9.674887E+04 -3.040876E+05  2.204994E+04 -2.745317E+04
       228  20 -6.573229E+05 -2.286891E+05 -7.389967E+04 -2.812166E+05  1.321303E+04 -2.765196E+04
       228  21 -5.915134E+05 -2.088640E+05 -5.778130E+04 -2.685215E+05  3.827826E+03 -2.639041E+04
       228  22 -2.804312E+05 -1.017596E+05 -1.927804E+04 -1.801602E+05  2.579046E+04 -2.604561E+04
       228  23 -2.839245E+05 -9.332262E+04 -1.010182E+04 -1.759174E+05  1.967109E+04 -2.522477E+04
       228  24 -2.797775E+05 -9.723580E+04 -5.498880E+03 -1.818519E+05  1.300438E+04 -2.294374E+04
       228  25  1.553623E+05  5.790315E+04  5.818536E+04 -5.615245E+04  2.953373E+04 -2.463699E+04
       228  26  8.962223E+04  4.205815E+04  5.369236E+04 -7.055865E+04  2.613329E+04 -2.279601E+04
       228  27  3.206549E+04  1.440323E+04  4.678236E+04 -9.514059E+04  2.218593E+04 -1.949522E+04
       229   1 -5.506539E+05 -1.945866E+05 -4.928596E+04 -2.574925E+05 -2.109162E+03  2.372454E+04
       229   2 -4.922860E+05 -1.670374E+05 -3.684298E+04 -2.345147E+05  1.136624E+03  1.932035E+04
       229   3 -4.247164E+05 -1.491779E+05 -2.549354E+04 -2.223554E+05  4.435110E+03  1.477367E+04
       229   4 -2.795006E+05 -9.724719E+04 -4.126201E+03 -1.817613E+05 -1.116146E+04  2.032519E+04
       229   5 -2.841081E+05 -9.233899E+04 -2.263833E+03 -1.763829E+05 -8.180939E+03  1.582223E+04
       229   6 -2.794657E+05 -9.706808E+04 -1.284734E+03 -1.818242E+05 -5.147884E+03  1.117678E+04
       229   7 -8.268880E+03  9.959961E+01  4.103207E+04 -1.059991E+05 -2.021795E+04  1.692426E+04
       229   8 -7.588504E+04 -1.763669E+04  3.231430E+04 -1.182331E+05 -1.750177E+04  1.232290E+04
       229   9 -1.341940E+05 -4.495665E+04  2.292349E+04 -1.412846E+05 -1.473315E+04  7.579045E+03
       229  10 -5.506540E+05 -1.945872E+05 -4.928702E+04 -2.574925E+05  2.339348E-08  8.852749E-09
       229  11 -4.922861E+05 -1.670378E+05 -3.684368E+04 -2.345147E+05 -1.239849E-09 -4.376994E-09
       229  12 -4.247165E+05 -1.491782E+05 -2.549398E+04 -2.223555E+05 -3.297283E-08 -1.808372E-08
       229  13 -2.795009E+05 -9.724767E+04 -4.127211E+03 -1.817611E+05  6.036272E-10  9.206691E-10
       229  14 -2.841083E+05 -9.233928E+04 -2.264429E+03 -1.763828E+05 -7.366171E-10  6.851365E-09
       229  15 -2.794658E+05 -9.706822E+04 -1.285019E+03 -1.818242E+05 -2.216653E-09  1.218914E-08
       229  16 -8.269396E+03  9.918241E+01  4.103076E+04 -1.059988E+05 -2.267894E-08 -1.084181E-08
       229  17 -7.588541E+04 -1.763693E+04  3.231344E+04 -1.182330E+05  7.504450E-09 -1.627289E-09
       229  18 -1.341942E+05 -4.495677E+04  2.292297E+04 -1.412845E+05  3.375464E-08  7.157535E-09
       229  19 -5.506539E+05 -1.945866E+05 -4.928596E+04 -2.574925E+05  2.109162E+03 -2.372454E+04
       229  20 -4.922860E+05 -1.670374E+05 -3.684298E+04 -2.345147E+05 -1.136624E+03 -1.932035E+04
       229  21 -4.247164E+05 -1.491779E+05 -2.549354E+04 -2.223554E+05 -4.435110E+03 -1.477367E+04
       229  22 -2.795006E+05 -9.724719E+04 -4.126201E+03 -1.817613E+05  1.116146E+04 -2.032519E+04
       229  23 -2.841081E+05 -9.233899E+04 -2.263833E+03 -1.763829E+05  8.180939E+03 -1.582223E+04
       229  24 -2.794657E+05 -9.706808E+04 -1.284734E+03 -1.818242E+05  5.147884E+03 -1.117678E+04
       229  25 -8.268880E+03  9.959961E+01  4.103207E+04 -1.059991E+05  2.021795E+04 -1.692426E+04
       229  26 -7.588504E+04 -1.763669E+04  3.231430E+04 -1.182331E+05  1.750177E+04 -1.232290E+04
       229  27 -1.341940E+05 -4.495665E+04  2.292349E+04 -1.412846E+05  1.473315E+04 -7.579045E+03
       230   1 -3.843918E+05 -1.346922E+05 -1.822743E+04 -2.111284E+05  5.736846E+03  1.184434E+04
       230   2 -3.261115E+05 -1.073837E+05 -7.592541E+03 -1.881019E+05  8.011420E+03  6.832758E+03
       230   3 -2.584113E+05 -8.955254E+04  2.784228E+03 -1.759119E+05  1.029048E+04  1.808774E+03
       230   4 -2.794328E+05 -9.707355E+04 -9.968045E+02 -1.818121E+05 -3.835112E+03  8.251888E+03
       230   5 -2.841413E+05 -9.233936E+04 -6.453508E+02 -1.763914E+05 -1.584162E+03  3.231591E+03
       230   6 -2.794311E+05 -9.707892E+04 -5.341082E+02 -1.818091E+05  6.712271E+02 -1.801114E+03
       230   7 -1.744607E+05 -5.945331E+04  1.623430E+04 -1.524909E+05 -1.340889E+04  4.658759E+03
       230   8 -2.421688E+05 -7.729470E+04  6.302261E+03 -1.646800E+05 -1.118049E+04 -3.698529E+02
       230   9 -3.004503E+05 -1.046052E+05 -3.852058E+03 -1.877060E+05 -8.947681E+03 -5.410875E+03
       230  10 -3.843919E+05 -1.346923E+05 -1.822776E+04 -2.111284E+05  3.400548E-08  7.290728E-09
       230  11 -3.261116E+05 -1.073837E+05 -7.592750E+03 -1.881020E+05  6.841769E-09 -5.922149E-10
       230  12 -2.584114E+05 -8.955257E+04  2.784023E+03 -1.759119E+05 -2.185414E-08 -9.944081E-09
       230  13 -2.794328E+05 -9.707362E+04 -9.969601E+02 -1.818121E+05 -2.877154E-09  1.213686E-08
       230  14 -2.841413E+05 -9.233937E+04 -6.453751E+02 -1.763914E+05 -2.204403E-09  7.538991E-09
       230  15 -2.794312E+05 -9.707892E+04 -5.341151E+02 -1.818091E+05  1.443396E-09  1.787988E-09
       230  16 -1.744609E+05 -5.945338E+04  1.623392E+04 -1.524908E+05 -3.253766E-08 -1.833436E-08
       230  17 -2.421690E+05 -7.729473E+04  6.302026E+03 -1.646800E+05 -4.972798E-09 -3.705193E-09
       230  18 -3.004504E+05 -1.046052E+05 -3.852263E+03 -1.877060E+05  2.086929E-08  7.774152E-09
       230  19 -3.843918E+05 -1.346922E+05 -1.822743E+04 -2.111284E+05 -5.736846E+03 -1.184434E+04
       230  20 -3.261115E+05 -1.073837E+05 -7.592541E+03 -1.881019E+05 -8.011420E+03 -6.832758E+03
       230  21 -2.584113E+05 -8.955254E+04  2.784228E+03 -1.759119E+05 -1.029048E+04 -1.808774E+03
       230  22 -2.794328E+05 -9.707355E+04 -9.968045E+02 -1.818121E+05  3.835112E+03 -8.251888E+03
       230  23 -2.841413E+05 -9.233936E+04 -6.453508E+02 -1.763914E+05  1.584162E+03 -3.231591E+03
       230  24 -2.794311E+05 -9.707892E+04 -5.341082E+02 -1.818091E+05 -6.712271E+02  1.801114E+03
       230  25 -1.744607E+05 -5.945331E+04  1.623430E+04 -1.524909E+05  1.340889E+04 -4.658759E+03
       230  26 -2.421688E+05 -7.729470E+04  6.302261E+03 -1.646800E+05  1.118049E+04  3.698529E+02
       230  27 -3.004503E+05 -1.046052E+05 -3.852058E+03 -1.877060E+05  8.947681E+03  5.410875E+03
       231   1 -2.181396E+05 -7.504715E+04  9.733006E+03 -1.646745E+05  1.150875E+04 -1.160931E+03
       231   2 -1.598565E+05 -4.774000E+04  1.981348E+04 -1.416496E+05  1.378135E+04 -6.185334E+03
       231   3 -9.215241E+04 -2.990263E+04  2.964175E+04 -1.294613E+05  1.604885E+04 -1.119481E+04
       231   4 -2.794338E+05 -9.707946E+04 -5.502291E+02 -1.818095E+05  1.889258E+03 -4.770996E+03
       231   5 -2.841419E+05 -9.234035E+04 -7.348831E+02 -1.763919E+05  4.188943E+03 -9.785723E+03
       231   6 -2.794383E+05 -9.707673E+04 -1.193331E+03 -1.818126E+05  6.483494E+03 -1.478556E+04
       231   7 -3.407231E+05 -1.191111E+05 -1.083298E+04 -1.989426E+05 -7.729118E+03 -8.380645E+03
       231   8 -4.084106E+05 -1.369391E+05 -2.128322E+04 -2.111276E+05 -5.401429E+03 -1.338535E+04
       231   9 -4.666885E+05 -1.642480E+05 -3.202940E+04 -2.341496E+05 -3.078900E+03 -1.837521E+04
       231  10 -2.181398E+05 -7.504718E+04  9.732755E+03 -1.646745E+05 -3.594792E-09 -2.678806E-09
       231  11 -1.598568E+05 -4.774009E+04  1.981305E+04 -1.416495E+05  7.871827E-10 -1.096061E-09
       231  12 -9.215272E+04 -2.990283E+04  2.964103E+04 -1.294612E+05  1.053936E-09 -3.583480E-10
       231  13 -2.794338E+05 -9.707949E+04 -5.502786E+02 -1.818094E+05  1.124002E-09 -5.483777E-10
       231  14 -2.841420E+05 -9.234045E+04 -7.350960E+02 -1.763918E+05  1.012622E-09 -6.269303E-10
       231  15 -2.794384E+05 -9.707698E+04 -1.193821E+03 -1.818125E+05  9.434047E-10 -8.278357E-10
       231  16 -3.407232E+05 -1.191112E+05 -1.083322E+04 -1.989426E+05  3.658488E-09  9.746776E-10
       231  17 -4.084107E+05 -1.369393E+05 -2.128361E+04 -2.111277E+05  2.171252E-10 -2.810343E-11
       231  18 -4.666886E+05 -1.642484E+05 -3.203005E+04 -2.341496E+05 -6.973426E-10 -1.068281E-09
       231  19 -2.181396E+05 -7.504715E+04  9.733006E+03 -1.646745E+05 -1.150875E+04  1.160931E+03
       231  20 -1.598565E+05 -4.774000E+04  1.981348E+04 -1.416496E+05 -1.378135E+04  6.185334E+03
       231  21 -9.215241E+04 -2.990263E+04  2.964175E+04 -1.294613E+05 -1.604885E+04  1.119481E+04
       231  22 -2.794338E+05 -9.707946E+04 -5.502291E+02 -1.818095E+05 -1.889258E+03  4.770996E+03
       231  23 -2.841419E+05 -9.234035E+04 -7.348831E+02 -1.763919E+05 -4.188943E+03  9.785723E+03
       231  24 -2.794383E+05 -9.707673E+04 -1.193331E+03 -1.818126E+05 -6.483494E+03  1.478556E+04
       231  25 -3.407231E+05 -1.191111E+05 -1.083298E+04 -1.989426E+05  7.729118E+03  8.380645E+03
       231  26 -4.084106E+05 -1.369391E+05 -2.128322E+04 -2.111276E+05  5.401429E+03  1.338535E+04
       231  27 -4.666885E+05 -1.642480E+05 -3.202940E+04 -2.341496E+05  3.078900E+03  1.837521E+04
       232   1 -5.189583E+04 -1.541219E+04  3.625706E+04 -1.182638E+05  1.741232E+04 -1.409797E+04
       232   2  6.415123E+03  1.190562E+04  4.542604E+04 -9.520806E+04  2.039360E+04 -1.874603E+04
       232   3  7.398908E+04  2.960394E+04  5.375093E+04 -8.296737E+04  2.331547E+04 -2.323260E+04
       232   4 -2.794820E+05 -9.707183E+04 -1.555839E+03 -1.818284E+05  7.834292E+03 -1.769399E+04
       232   5 -2.841048E+05 -9.234353E+04 -2.769843E+03 -1.763812E+05  1.111530E+04 -2.223067E+04
       232   6 -2.795279E+05 -9.729495E+04 -5.065851E+03 -1.817510E+05  1.433674E+04 -2.660587E+04
       232   7 -5.070126E+05 -1.787262E+05 -3.936958E+04 -2.453711E+05 -1.740005E+03 -2.128860E+04
       232   8 -5.745327E+05 -1.965835E+05 -5.096692E+04 -2.575182E+05  1.841647E+03 -2.571357E+04
       232   9 -6.329073E+05 -2.241798E+05 -6.388424E+04 -2.804809E+05  5.363530E+03 -2.997707E+04
       232  10 -5.189621E+04 -1.541249E+04  3.625612E+04 -1.182636E+05 -1.280791E-09 -1.350044E-09
       232  11  6.414582E+03  1.190513E+04  4.542460E+04 -9.520775E+04 -1.103195E-09 -6.273936E-10
       232  12  7.398835E+04  2.960322E+04  5.374889E+04 -8.296694E+04 -1.148749E-09  1.370243E-09
       232  13 -2.794822E+05 -9.707218E+04 -1.556543E+03 -1.818283E+05 -1.919781E-10  1.541311E-10
       232  14 -2.841051E+05 -9.234409E+04 -2.771003E+03 -1.763810E+05 -1.810433E-09  9.037835E-10
       232  15 -2.795283E+05 -9.729577E+04 -5.067567E+03 -1.817507E+05  1.431173E-09  3.602673E-10
       232  16 -5.070128E+05 -1.787267E+05 -3.937044E+04 -2.453711E+05  1.381824E-09  6.203834E-10
       232  17 -5.745329E+05 -1.965842E+05 -5.096817E+04 -2.575181E+05 -4.130628E-10  1.012611E-09
       232  18 -6.329076E+05 -2.241808E+05 -6.388598E+04 -2.804807E+05 -6.968021E-10  6.869897E-10
       232  19 -5.189583E+04 -1.541219E+04  3.625706E+04 -1.182638E+05 -1.741232E+04  1.409797E+04
       232  20  6.415123E+03  1.190562E+04  4.542604E+04 -9.520806E+04 -2.039360E+04  1.874603E+04
       232  21  7.398908E+04  2.960394E+04  5.375093E+04 -8.296737E+04 -2.331547E+04  2.323260E+04
       232  22 -2.794820E+05 -9.707183E+04 -1.555839E+03 -1.818284E+05 -7.834292E+03  1.769399E+04
       232  23 -2.841048E+05 -9.234353E+04 -2.769843E+03 -1.763812E+05 -1.111530E+04  2.223067E+04
       232  24 -2.795279E+05 -9.729495E+04 -5.065851E+03 -1.817510E+05 -1.433674E+04  2.660587E+04
       232  25 -5.070126E+05 -1.787262E+05 -3.936958E+04 -2.453711E+05  1.740005E+03  2.128860E+04
       232  26 -5.745327E+05 -1.965835E+05 -5.096692E+04 -2.575182E+05 -1.841647E+03  2.571357E+04
       232  27 -6.329073E+05 -2.241798E+05 -6.388424E+04 -2.804809E+05 -5.363530E+03  2.997707E+04
       233   1  1.143183E+05  4.385191E+04  5.920349E+04 -7.219821E+04  2.546652E+04 -2.571784E+04
       233   2  1.717155E+05  7.157027E+04  6.521857E+04 -4.724850E+04  3.017384E+04 -2.858470E+04
       233   3  2.369544E+05  8.688671E+04  6.805430E+04 -3.232742E+04  3.426215E+04 -2.979937E+04
       233   4 -2.798638E+05 -9.728131E+04 -6.754057E+03 -1.818618E+05  1.634663E+04 -2.914495E+04
       233   5 -2.838801E+05 -9.355335E+04 -1.241449E+04 -1.758070E+05  2.413091E+04 -3.085774E+04
       233   6 -2.806709E+05 -1.028406E+05 -2.369554E+04 -1.797839E+05  3.129560E+04 -3.091778E+04
       233   7 -6.738847E+05 -2.384010E+05 -7.271640E+04 -2.914615E+05  7.232792E+03 -3.256981E+04
       233   8 -7.392576E+05 -2.586567E+05 -9.005380E+04 -3.042777E+05  1.809266E+04 -3.312901E+04
       233   9 -7.980131E+05 -2.925400E+05 -1.154540E+05 -3.271248E+05  2.833168E+04 -3.203518E+04
       233  10  1.143174E+05  4.385102E+04  5.920103E+04 -7.219768E+04 -6.825996E-10  1.652231E-09
       233  11  1.717143E+05  7.156915E+04  6.521533E+04 -4.724781E+04 -1.269361E-09  5.921021E-10
       233  12  2.369529E+05  8.688544E+04  6.805043E+04 -3.232660E+04  1.809224E-09 -4.248773E-10
       233  13 -2.798643E+05 -9.728230E+04 -6.756155E+03 -1.818614E+05 -5.195561E-10  4.291891E-10
       233  14 -2.838810E+05 -9.355453E+04 -1.241737E+04 -1.758064E+05  2.952849E-09  4.273226E-10
       233  15 -2.806722E+05 -1.028419E+05 -2.369917E+04 -1.797831E+05 -1.232238E-10 -6.790111E-10
       233  16 -6.738850E+05 -2.384021E+05 -7.271849E+04 -2.914613E+05 -2.175947E-09  5.612962E-10
       233  17 -7.392582E+05 -2.586579E+05 -9.005648E+04 -3.042772E+05 -2.811738E-09  5.864999E-10
       233  18 -7.980143E+05 -2.925413E+05 -1.154575E+05 -3.271241E+05 -3.436833E-10 -9.224760E-10
       233  19  1.143183E+05  4.385191E+04  5.920349E+04 -7.219821E+04 -2.546652E+04  2.571784E+04
       233  20  1.717155E+05  7.157027E+04  6.521857E+04 -4.724850E+04 -3.017384E+04  2.858470E+04
       233  21  2.369544E+05  8.688671E+04  6.805430E+04 -3.232742E+04 -3.426215E+04  2.979937E+04
       233  22 -2.798638E+05 -9.728131E+04 -6.754057E+03 -1.818618E+05 -1.634663E+04  2.914495E+04
       233  23 -2.838801E+05 -9.355335E+04 -1.241449E+04 -1.758070E+05 -2.413091E+04  3.085774E+04
       233  24 -2.806709E+05 -1.028406E+05 -2.369554E+04 -1.797839E+05 -3.129560E+04  3.091778E+04
       233  25 -6.738847E+05 -2.384010E+05 -7.271640E+04 -2.914615E+05 -7.232792E+03  3.256981E+04
       233  26 -7.392576E+05 -2.586567E+05 -9.005380E+04 -3.042777E+05 -1.809266E+04  3.312901E+04
       233  27 -7.980131E+05 -2.925400E+05 -1.154540E+05 -3.271248E+05 -2.833168E+04  3.203518E+04
       234   1  2.788873E+05  9.718613E+04  6.896567E+04 -2.721973E+04  3.998029E+04 -2.970779E+04
       234   2  3.147518E+05  1.318826E+05  6.517663E+04  3.490254E+04  3.740017E+04 -2.367705E+04
       234   3  3.396859E+05  1.065166E+05  4.738478E+04  1.014149E+05  2.842229E+04 -6.392064E+02
       234   4 -2.844862E+05 -1.031806E+05 -3.166166E+04 -1.809142E+05  3.553710E+04 -3.138146E+04
       234   5 -2.828218E+05 -1.190476E+05 -6.054772E+04 -1.646807E+05  6.467296E+04 -1.342999E+04
       234   6 -2.983980E+05 -2.013016E+05 -1.285846E+05 -1.440559E+05  8.740637E+04  2.153636E+04
       234   7 -8.475246E+05 -3.035195E+05 -1.322993E+05 -3.344796E+05  3.109821E+04 -3.305357E+04
       234   8 -8.800110E+05 -3.699083E+05 -1.862847E+05 -3.640710E+05  9.191718E+04 -3.197280E+03
       234   9 -9.360425E+05 -5.089954E+05 -3.045692E+05 -3.892617E+05  1.463226E+05  4.366995E+04
       234  10  2.788853E+05  9.718475E+04  6.896101E+04 -2.721877E+04  1.469663E-09 -1.239069E-09
       234  11  3.147502E+05  1.318816E+05  6.517294E+04  3.490325E+04 -9.633495E-10 -1.808493E-09
       234  12  3.396851E+05  1.065164E+05  4.738326E+04  1.014149E+05 -3.330387E-09 -1.175032E-09
       234  13 -2.844879E+05 -1.031820E+05 -3.166589E+04 -1.809133E+05 -6.198611E-10 -1.801372E-09
       234  14 -2.828264E+05 -1.190489E+05 -6.055592E+04 -1.646800E+05  2.145530E-09 -5.327563E-10
       234  15 -2.984063E+05 -2.013041E+05 -1.285999E+05 -1.440574E+05 -4.198002E-10  1.722600E-09
       234  16 -8.475260E+05 -3.035210E+05 -1.323031E+05 -3.344788E+05  1.130849E-09 -1.537885E-09
       234  17 -8.800200E+05 -3.699105E+05 -1.863006E+05 -3.640708E+05  8.362232E-10  5.223712E-10
       234  18 -9.360661E+05 -5.090032E+05 -3.046131E+05 -3.892669E+05  2.652872E-09  1.509228E-10
       234  19  2.788873E+05  9.718613E+04  6.896567E+04 -2.721973E+04 -3.998029E+04  2.970779E+04
       234  20  3.147518E+05  1.318826E+05  6.517663E+04  3.490254E+04 -3.740017E+04  2.367705E+04
       234  21  3.396859E+05  1.065166E+05  4.738478E+04  1.014149E+05 -2.842229E+04  6.392064E+02
       234  22 -2.844862E+05 -1.031806E+05 -3.166166E+04 -1.809142E+05 -3.553710E+04  3.138146E+04
       234  23 -2.828218E+05 -1.190476E+05 -6.054772E+04 -1.646807E+05 -6.467296E+04  1.342999E+04
       234  24 -2.983980E+05 -2.013016E+05 -1.285846E+05 -1.440559E+05 -8.740637E+04 -2.153636E+04
       234  25 -8.475246E+05 -3.035195E+05 -1.322993E+05 -3.344796E+05 -3.109821E+04  3.305357E+04
       234  26 -8.800110E+05 -3.699083E+05 -1.862847E+05 -3.640710E+05 -9.191718E+04  3.197280E+03
       234  27 -9.360425E+05 -5.089954E+05 -3.045692E+05 -3.892617E+05 -1.463226E+05 -4.366995E+04
       235   1  1.055695E+06  1.458334E+05  1.268623E+05  7.589668E+03  3.091249E+04 -1.212837E+04
       235   2  1.014189E+06  1.746571E+05  1.115316E+05  2.833995E+04  1.020558E+04 -4.202110E+04
       235   3  9.690504E+05  1.780569E+05  1.033496E+05  5.519812E+04 -1.052758E+04 -5.333659E+04
       235   4  1.676320E+05 -7.236343E+04 -7.763948E+04  5.488986E+04 -5.464844E+04 -1.227506E+04
       235   5  1.729855E+05 -2.343279E+04 -3.882687E+04  5.177292E+04 -3.473741E+04 -4.210857E+04
       235   6  1.676492E+05 -6.995093E+03 -2.105894E+04  5.476361E+04 -1.485404E+04 -5.335168E+04
       235   7 -7.196820E+05 -2.906029E+05 -2.821648E+05  1.021216E+05 -1.400881E+05 -1.243489E+04
       235   8 -6.675229E+05 -2.215587E+05 -1.892044E+05  7.517296E+04 -7.962130E+04 -4.219949E+04
       235   9 -6.331115E+05 -1.920784E+05 -1.454823E+05  5.432936E+04 -1.917513E+04 -5.336678E+04
       235  10  1.055694E+06  1.458330E+05  1.268603E+05  7.589970E+03  1.955101E-07  3.371528E-10
       235  11  1.014188E+06  1.746552E+05  1.115281E+05  2.834029E+04 -2.397889E-09 -2.232604E-09
       235  12  9.690496E+05  1.780538E+05  1.033440E+05  5.519766E+04 -2.005081E-07 -3.396283E-09
       235  13  1.676288E+05 -7.236439E+04 -7.764537E+04  5.488932E+04 -9.795879E-10  1.935350E-09
       235  14  1.729837E+05 -2.343502E+04 -3.883247E+04  5.177174E+04  1.282899E-09 -1.013862E-09
       235  15  1.676482E+05 -6.998209E+03 -2.106471E+04  5.476297E+04 -1.394448E-09  2.989014E-10
       235  16 -7.197031E+05 -2.906083E+05 -2.822021E+05  1.021202E+05 -1.928620E-07  5.475186E-10
       235  17 -6.675302E+05 -2.215623E+05 -1.892197E+05  7.517026E+04  3.753439E-09 -3.732139E-09
       235  18 -6.331126E+05 -1.920816E+05 -1.454884E+05  5.432854E+04  2.016903E-07 -4.587759E-09
       235  19  1.055695E+06  1.458334E+05  1.268623E+05  7.589668E+03 -3.091249E+04  1.212837E+04
       235  20  1.014189E+06  1.746571E+05  1.115316E+05  2.833995E+04 -1.020558E+04  4.202110E+04
       235  21  9.690504E+05  1.780569E+05  1.033496E+05  5.519812E+04  1.052758E+04  5.333659E+04
       235  22  1.676320E+05 -7.236343E+04 -7.763948E+04  5.488986E+04  5.464844E+04  1.227506E+04
       235  23  1.729855E+05 -2.343279E+04 -3.882687E+04  5.177292E+04  3.473741E+04  4.210857E+04
       235  24  1.676492E+05 -6.995093E+03 -2.105894E+04  5.476361E+04  1.485404E+04  5.335168E+04
       235  25 -7.196820E+05 -2.906029E+05 -2.821648E+05  1.021216E+05  1.400881E+05  1.243489E+04
       235  26 -6.675229E+05 -2.215587E+05 -1.892044E+05  7.517296E+04  7.962130E+04  4.219949E+04
       235  27 -6.331115E+05 -1.920784E+05 -1.454823E+05  5.432936E+04  1.917513E+04  5.336678E+04
       236   1  9.430749E+05  1.725627E+05  1.010312E+05  5.328615E+04 -8.203608E+03 -5.374245E+04
       236   2  9.001881E+05  1.654430E+05  9.644463E+04  5.119841E+04 -8.898692E+03 -5.440021E+04
       236   3  8.569302E+05  1.564838E+05  9.185357E+04  5.653707E+04 -9.599068E+03 -5.277537E+04
       236   4  1.697572E+05 -5.348065E+03 -1.577833E+04  5.506480E+04 -1.212304E+04 -5.375694E+04
       236   5  1.703865E+05 -1.422012E+03 -8.566768E+03  5.134558E+04 -7.830890E+03 -5.440431E+04
       236   6  1.697774E+05 -2.019690E+02 -4.822254E+03  5.505338E+04 -3.543980E+03 -5.276768E+04
       236   7 -6.029615E+05 -1.832873E+05 -1.326000E+05  5.684084E+04 -1.603778E+04 -5.377146E+04
       236   8 -5.588778E+05 -1.683113E+05 -1.135864E+05  5.149228E+04 -6.764285E+03 -5.440842E+04
       236   9 -5.168975E+05 -1.569088E+05 -1.015042E+05  5.357113E+04  2.504708E+03 -5.276003E+04
       236  10  9.430741E+05  1.725596E+05  1.010257E+05  5.328580E+04 -1.209514E-08 -5.334099E-09
       236  11  9.001872E+05  1.654398E+05  9.643892E+04  5.119802E+04 -4.668767E-09 -1.235533E-09
       236  12  8.569294E+05  1.564808E+05  9.184817E+04  5.653666E+04  8.914713E-10 -7.774354E-10
       236  13  1.697563E+05 -5.351207E+03 -1.578404E+04  5.506427E+04  1.077397E-09 -3.921096E-09
       236  14  1.703857E+05 -1.425207E+03 -8.572446E+03  5.134523E+04 -2.167932E-09 -2.251040E-09
       236  15  1.697766E+05 -2.049626E+02 -4.827511E+03  5.505323E+04  1.711605E-09 -5.140289E-09
       236  16 -6.029625E+05 -1.832905E+05 -1.326060E+05  5.684014E+04  1.258218E-08 -3.869188E-10
       236  17 -5.588787E+05 -1.683145E+05 -1.135921E+05  5.149198E+04  7.243110E-09  3.646817E-11
       236  18 -5.168983E+05 -1.569118E+05 -1.015095E+05  5.357123E+04  2.228333E-09 -1.957807E-09
       236  19  9.430749E+05  1.725627E+05  1.010312E+05  5.328615E+04  8.203608E+03  5.374245E+04
       236  20  9.001881E+05  1.654430E+05  9.644463E+04  5.119841E+04  8.898692E+03  5.440021E+04
       236  21  8.569302E+05  1.564838E+05  9.185357E+04  5.653707E+04  9.599068E+03  5.277537E+04
       236  22  1.697572E+05 -5.348065E+03 -1.577833E+04  5.506480E+04  1.212304E+04  5.375694E+04
       236  23  1.703865E+05 -1.422012E+03 -8.566768E+03  5.134558E+04  7.830890E+03  5.440431E+04
       236  24  1.697774E+05 -2.019690E+02 -4.822254E+03  5.505338E+04  3.543980E+03  5.276768E+04
       236  25 -6.029615E+05 -1.832873E+05 -1.326000E+05  5.684084E+04  1.603778E+04  5.377146E+04
       236  26 -5.588778E+05 -1.683113E+05 -1.135864E+05  5.149228E+04  6.764285E+03  5.440842E+04
       236  27 -5.168975E+05 -1.569088E+05 -1.015042E+05  5.357113E+04 -2.504708E+03  5.276003E+04
       237   1  8.301731E+05  1.503255E+05  8.871184E+04  5.629189E+04 -8.930102E+03 -5.107164E+04
       237   2  7.872037E+05  1.406595E+05  8.371182E+04  5.250052E+04 -8.527896E+03 -4.814042E+04
       237   3  7.441468E+05  1.309217E+05  7.842716E+04  5.629018E+04 -8.127472E+03 -4.492944E+04
       237   4  1.700159E+05 -1.008836E+02 -3.642437E+03  5.508861E+04 -2.826896E+03 -5.106312E+04
       237   5  1.701227E+05  1.579514E+02 -2.051209E+03  5.129747E+04 -1.814152E+03 -4.812929E+04
       237   6  1.700338E+05  2.388902E+02 -1.168926E+03  5.508779E+04 -8.031629E+02 -4.491556E+04
       237   7 -4.896998E+05 -1.505467E+05 -9.600214E+04  5.388642E+04  3.270113E+03 -5.105461E+04
       237   8 -4.465723E+05 -1.403605E+05 -8.781869E+04  5.009544E+04  4.893223E+03 -4.811818E+04
       237   9 -4.037448E+05 -1.304584E+05 -8.076873E+04  5.388636E+04  6.514682E+03 -4.490170E+04
       237  10  8.301723E+05  1.503227E+05  8.870679E+04  5.629152E+04 -3.835177E-09  5.334398E-10
       237  11  7.872030E+05  1.406570E+05  8.370733E+04  5.250019E+04  1.477555E-09 -6.544119E-10
       237  12  7.441462E+05  1.309195E+05  7.842324E+04  5.628989E+04  4.854267E-09 -4.182212E-09
       237  13  1.700152E+05 -1.036858E+02 -3.647352E+03  5.508850E+04 -1.123413E-10 -6.426726E-09
       237  14  1.701221E+05  1.554628E+02 -2.055568E+03  5.129740E+04  4.602388E-10 -6.593567E-10
       237  15  1.700333E+05  2.367235E+02 -1.172719E+03  5.508776E+04 -1.372591E-09  1.640643E-09
       237  16 -4.897005E+05 -1.505495E+05 -9.600706E+04  5.388655E+04  4.285594E-09 -1.114280E-09
       237  17 -4.465729E+05 -1.403630E+05 -8.782309E+04  5.009563E+04  2.482201E-09  5.616266E-10
       237  18 -4.037453E+05 -1.304606E+05 -8.077260E+04  5.388659E+04 -5.506592E-09 -2.575547E-09
       237  19  8.301731E+05  1.503255E+05  8.871184E+04  5.629189E+04  8.930102E+03  5.107164E+04
       237  20  7.872037E+05  1.406595E+05  8.371182E+04  5.250052E+04  8.527896E+03  4.814042E+04
       237  21  7.441468E+05  1.309217E+05  7.842716E+04  5.629018E+04  8.127472E+03  4.492944E+04
       237  22  1.700159E+05 -1.008836E+02 -3.642437E+03  5.508861E+04  2.826896E+03  5.106312E+04
       237  23  1.701227E+05  1.579514E+02 -2.051209E+03  5.129747E+04  1.814152E+03  4.812929E+04
       237  24  1.700338E+05  2.388902E+02 -1.168926E+03  5.508779E+04  8.031629E+02  4.491556E+04
       237  25 -4.896998E+05 -1.505467E+05 -9.600214E+04  5.388642E+04 -3.270113E+03  5.105461E+04
       237  26 -4.465723E+05 -1.403605E+05 -8.781869E+04  5.009544E+04 -4.893223E+03  4.811818E+04
       237  27 -4.037448E+05 -1.304584E+05 -8.076873E+04  5.388636E+04 -6.514682E+03  4.490170E+04
       238   1  7.173412E+05  1.247783E+05  7.479542E+04  5.622113E+04 -7.952603E+03 -4.296829E+04
       238   2  6.743825E+05  1.149942E+05  6.923034E+04  5.234431E+04 -7.785356E+03 -3.959868E+04
       238   3  6.313832E+05  1.052509E+05  6.355734E+04  5.606178E+04 -7.619177E+03 -3.619531E+04
       238   4  1.700705E+05  2.427143E+02 -8.842826E+02  5.509083E+04 -6.237381E+02 -4.295369E+04
       238   5  1.701059E+05  2.401763E+02 -5.009965E+02  5.129350E+04 -3.831822E+02 -3.958281E+04
       238   6  1.700853E+05  2.654894E+02 -2.769745E+02  5.509080E+04 -1.436834E+02 -3.617815E+04
       238   7 -3.768963E+05 -1.243060E+05 -7.656727E+04  5.396138E+04  6.698961E+03 -4.293912E+04
       238   8 -3.339127E+05 -1.145251E+05 -7.023509E+04  5.024341E+04  7.013253E+03 -3.956696E+04
       238   9 -2.909966E+05 -1.047293E+05 -6.411357E+04  5.412043E+04  7.326508E+03 -3.616101E+04
       238  10  7.173407E+05  1.247763E+05  7.479183E+04  5.622085E+04 -1.268855E-08 -3.558659E-09
       238  11  6.743821E+05  1.149925E+05  6.922728E+04  5.234406E+04  2.067431E-08  6.304487E-09
       238  12  6.313828E+05  1.052495E+05  6.355476E+04  5.606155E+04  5.370651E-08  6.395953E-09
       238  13  1.700700E+05  2.407328E+02 -8.877507E+02  5.509081E+04  1.073513E-09 -2.690737E-09
       238  14  1.701055E+05  2.384936E+02 -5.039413E+02  5.129348E+04  1.057091E-09  6.424485E-09
       238  15  1.700849E+05  2.640838E+02 -2.794343E+02  5.509079E+04 -1.427645E-09  1.764891E-09
       238  16 -3.768968E+05 -1.243080E+05 -7.657082E+04  5.396161E+04  1.288919E-08 -2.520981E-09
       238  17 -3.339131E+05 -1.145268E+05 -7.023812E+04  5.024363E+04 -2.109376E-08  2.953560E-10
       238  18 -2.909971E+05 -1.047307E+05 -6.411612E+04  5.412064E+04 -5.487609E-08  3.400606E-10
       238  19  7.173412E+05  1.247783E+05  7.479542E+04  5.622113E+04  7.952603E+03  4.296829E+04
       238  20  6.743825E+05  1.149942E+05  6.923034E+04  5.234431E+04  7.785356E+03  3.959868E+04
       238  21  6.313832E+05  1.052509E+05  6.355734E+04  5.606178E+04  7.619177E+03  3.619531E+04
       238  22  1.700705E+05  2.427143E+02 -8.842826E+02  5.509083E+04  6.237381E+02  4.295369E+04
       238  23  1.701059E+05  2.401763E+02 -5.009965E+02  5.129350E+04  3.831822E+02  3.958281E+04
       238  24  1.700853E+05  2.654894E+02 -2.769745E+02  5.509080E+04  1.436834E+02  3.617815E+04
       238  25 -3.768963E+05 -1.243060E+05 -7.656727E+04  5.396138E+04 -6.698961E+03  4.293912E+04
       238  26 -3.339127E+05 -1.145251E+05 -7.023509E+04  5.024341E+04 -7.013253E+03  3.956696E+04
       238  27 -2.909966E+05 -1.047293E+05 -6.411357E+04  5.412043E+04 -7.326508E+03  3.616101E+04
       239   1  6.045841E+05  9.912343E+04  5.976707E+04  5.601215E+04 -7.579774E+03 -3.420361E+04
       239   2  5.616480E+05  8.934981E+04  5.400814E+04  5.213387E+04 -7.548985E+03 -3.078186E+04
       239   3  5.186792E+05  7.962110E+04  4.822762E+04  5.585192E+04 -7.518966E+03 -2.735657E+04
       239   4  1.700944E+05  2.687651E+02 -2.022720E+02  5.509125E+04 -1.048210E+02 -3.418588E+04
       239   5  1.701178E+05  2.545748E+02 -9.447761E+01  5.129294E+04 -6.652244E+01 -3.076326E+04
       239   6  1.701058E+05  2.842039E+02 -1.345412E+01  5.509123E+04 -2.899063E+01 -2.733710E+04
       239   7 -2.642036E+05 -9.859417E+04 -6.017357E+04  5.417088E+04  7.365139E+03 -3.416817E+04
       239   8 -2.212568E+05 -8.884738E+04 -5.419866E+04  5.045246E+04  7.411436E+03 -3.074467E+04
       239   9 -1.783441E+05 -7.905802E+04 -4.825574E+04  5.433091E+04  7.456970E+03 -2.731764E+04
       239  10  6.045837E+05  9.912216E+04  5.976476E+04  5.601194E+04 -3.811879E-08  1.930752E-09
       239  11  5.616477E+05  8.934878E+04  5.400625E+04  5.213368E+04 -1.516105E-08 -1.066194E-09
       239  12  5.186789E+05  7.962028E+04  4.822611E+04  5.585175E+04  1.080536E-08 -5.512602E-11
       239  13  1.700940E+05  2.675101E+02 -2.044684E+02  5.509124E+04  1.619036E-10  6.371841E-09
       239  14  1.701176E+05  2.535584E+02 -9.625619E+01  5.129294E+04 -1.172520E-10 -5.197133E-10
       239  15  1.701056E+05  2.834014E+02 -1.485858E+01  5.509123E+04  2.929483E-10 -1.385023E-09
       239  16 -2.642040E+05 -9.859544E+04 -6.017586E+04  5.417109E+04  3.672661E-08  3.027538E-09
       239  17 -2.212571E+05 -8.884841E+04 -5.420054E+04  5.045264E+04  1.431553E-08 -3.129274E-09
       239  18 -1.783444E+05 -7.905884E+04 -4.825725E+04  5.433107E+04 -9.825023E-09 -2.169906E-09
       239  19  6.045841E+05  9.912343E+04  5.976707E+04  5.601215E+04  7.579774E+03  3.420361E+04
       239  20  5.616480E+05  8.934981E+04  5.400814E+04  5.213387E+04  7.548985E+03  3.078186E+04
       239  21  5.186792E+05  7.962110E+04  4.822762E+04  5.585192E+04  7.518966E+03  2.735657E+04
       239  22  1.700944E+05  2.687651E+02 -2.022720E+02  5.509125E+04  1.048210E+02  3.418588E+04
       239  23  1.701178E+05  2.545748E+02 -9.447761E+01  5.129294E+04  6.652244E+01  3.076326E+04
       239  24  1.701058E+05  2.842039E+02 -1.345412E+01  5.509123E+04  2.899063E+01  2.733710E+04
       239  25 -2.642036E+05 -9.859417E+04 -6.017357E+04  5.417088E+04 -7.365139E+03  3.416817E+04
       239  26 -2.212568E+05 -8.884738E+04 -5.419866E+04  5.045246E+04 -7.411436E+03  3.074467E+04
       239  27 -1.783441E+05 -7.905802E+04 -4.825574E+04  5.433091E+04 -7.456970E+03  2.731764E+04
       240   1  4.918946E+05  7.349869E+04  4.440695E+04  5.580086E+04 -7.523880E+03 -2.536197E+04
       240   2  4.489744E+05  6.373310E+04  3.863324E+04  5.191463E+04 -7.583467E+03 -2.193559E+04
       240   3  4.060298E+05  5.402575E+04  3.289791E+04  5.562057E+04 -7.643589E+03 -1.850994E+04
       240   4  1.701113E+05  2.881237E+02  2.301783E+01  5.509030E+04 -3.481722E+01 -2.534207E+04
       240   5  1.701284E+05  2.766149E+02  1.051817E+02  5.129408E+04 -9.623229E+01 -2.191508E+04
       240   6  1.701195E+05  3.237060E+02  2.268602E+02  5.509022E+04 -1.581855E+02 -1.848883E+04
       240   7 -1.515668E+05 -7.292696E+04 -4.436189E+04  5.438005E+04  7.450540E+03 -2.532217E+04
       240   8 -1.086386E+05 -6.318326E+04 -3.842356E+04  5.067376E+04  7.387792E+03 -2.189458E+04
       240   9 -6.573429E+04 -5.338076E+04 -3.244464E+04  5.456004E+04  7.324502E+03 -1.846773E+04
       240  10  4.918944E+05  7.349798E+04  4.440564E+04  5.580071E+04  1.934604E-07  7.752238E-09
       240  11  4.489742E+05  6.373256E+04  3.863222E+04  5.191449E+04 -3.978370E-09  9.002244E-09
       240  12  4.060296E+05  5.402537E+04  3.289716E+04  5.562046E+04 -2.019546E-07  7.818541E-09
       240  13  1.701111E+05  2.874340E+02  2.181087E+01  5.509030E+04 -1.014207E-09  2.738473E-09
       240  14  1.701283E+05  2.760992E+02  1.042791E+02  5.129408E+04 -1.763605E-11  8.739966E-09
       240  15  1.701194E+05  3.233389E+02  2.262177E+02  5.509022E+04 -2.581283E-09  7.166513E-09
       240  16 -1.515670E+05 -7.292766E+04 -4.436320E+04  5.438020E+04 -1.922888E-07  4.723065E-09
       240  17 -1.086388E+05 -6.318379E+04 -3.842457E+04  5.067389E+04  4.380306E-09 -2.805798E-09
       240  18 -6.573444E+04 -5.338114E+04 -3.244538E+04  5.456015E+04  2.023965E-07  2.794184E-09
       240  19  4.918946E+05  7.349869E+04  4.440695E+04  5.580086E+04  7.523880E+03  2.536197E+04
       240  20  4.489744E+05  6.373310E+04  3.863324E+04  5.191463E+04  7.583467E+03  2.193559E+04
       240  21  4.060298E+05  5.402575E+04  3.289791E+04  5.562057E+04  7.643589E+03  1.850994E+04
       240  22  1.701113E+05  2.881237E+02  2.301783E+01  5.509030E+04  3.481722E+01  2.534207E+04
       240  23  1.701284E+05  2.766149E+02  1.051817E+02  5.129408E+04  9.623229E+01  2.191508E+04
       240  24  1.701195E+05  3.237060E+02  2.268602E+02  5.509022E+04  1.581855E+02  1.848883E+04
       240  25 -1.515668E+05 -7.292696E+04 -4.436189E+04  5.438005E+04 -7.450540E+03  2.532217E+04
       240  26 -1.086386E+05 -6.318326E+04 -3.842356E+04  5.067376E+04 -7.387792E+03  2.189458E+04
       240  27 -6.573429E+04 -5.338076E+04 -3.244464E+04  5.456004E+04 -7.324502E+03  1.846773E+04
       241   1  3.792690E+05  4.791065E+04  2.912529E+04  5.558009E+04 -7.693892E+03 -1.651627E+04
       241   2  3.363309E+05  3.821972E+04  2.352281E+04  5.158050E+04 -7.972411E+03 -1.309522E+04
       241   3  2.934348E+05  2.875529E+04  1.814189E+04  5.516970E+04 -8.251212E+03 -9.681148E+03
       241   4  1.701368E+05  3.330681E+02  3.105484E+02  5.508954E+04 -2.093078E+02 -1.649488E+04
       241   5  1.701182E+05  3.954417E+02  5.679217E+02  5.129459E+04 -5.033231E+02 -1.307351E+04
       241   6  1.701417E+05  6.868930E+02  1.057287E+03  5.508852E+04 -7.976361E+02 -9.659126E+03
       241   7 -3.895080E+04 -4.724641E+04 -2.850448E+04  5.459912E+04  7.272870E+03 -1.647350E+04
       241   8  3.933646E+03 -3.743002E+04 -2.238707E+04  5.100873E+04  6.963856E+03 -1.305181E+04
       241   9  4.686405E+04 -2.738215E+04 -1.602728E+04  5.500735E+04  6.654526E+03 -9.637104E+03
       241  10  3.792689E+05  4.791034E+04  2.912467E+04  5.557999E+04 -9.703193E-09  8.650926E-09
       241  11  3.363308E+05  3.821952E+04  2.352236E+04  5.158042E+04 -4.411531E-09  2.417298E-10
       241  12  2.934347E+05  2.875518E+04  1.814158E+04  5.516964E+04  5.519612E-09  6.051351E-09
       241  13  1.701368E+05  3.327759E+02  3.100370E+02  5.508953E+04 -1.083884E-11  6.807424E-09
       241  14  1.701182E+05  3.952581E+02  5.676000E+02  5.129458E+04  2.963249E-10  5.244233E-09
       241  15  1.701416E+05  6.867926E+02  1.057110E+03  5.508852E+04  1.067289E-09 -2.597603E-09
       241  16 -3.895093E+04 -4.724671E+04 -2.850509E+04  5.459922E+04  9.584850E-09  4.929046E-09
       241  17  3.933548E+03 -3.743022E+04 -2.238748E+04  5.100880E+04  5.975343E-09  2.237201E-09
       241  18  4.686397E+04 -2.738226E+04 -1.602754E+04  5.500740E+04 -6.981224E-09 -8.863185E-09
       241  19  3.792690E+05  4.791065E+04  2.912529E+04  5.558009E+04  7.693892E+03  1.651627E+04
       241  20  3.363309E+05  3.821972E+04  2.352281E+04  5.158050E+04  7.972411E+03  1.309522E+04
       241  21  2.934348E+05  2.875529E+04  1.814189E+04  5.516970E+04  8.251212E+03  9.681148E+03
       241  22  1.701368E+05  3.330681E+02  3.105484E+02  5.508954E+04  2.093078E+02  1.649488E+04
       241  23  1.701182E+05  3.954417E+02  5.679217E+02  5.129459E+04  5.033231E+02  1.307351E+04
       241  24  1.701417E+05  6.868930E+02  1.057287E+03  5.508852E+04  7.976361E+02  9.659126E+03
       241  25 -3.895080E+04 -4.724641E+04 -2.850448E+04  5.459912E+04 -7.272870E+03  1.647350E+04
       241  26  3.933646E+03 -3.743002E+04 -2.238707E+04  5.100873E+04 -6.963856E+03  1.305181E+04
       241  27  4.686405E+04 -2.738215E+04 -1.602728E+04  5.500735E+04 -6.654526E+03  9.637104E+03
       242   1  2.668025E+05  2.274166E+04  1.463284E+04  5.525698E+04 -8.438410E+03 -7.694376E+03
       242   2  2.235735E+05  1.405629E+04  9.917875E+03  4.975704E+04 -9.661189E+03 -4.314765E+03
       242   3  1.810028E+05  7.585317E+03  6.535073E+03  5.183789E+04 -1.088386E+04 -9.906387E+02
       242   4  1.702841E+05  7.986877E+02  1.413716E+03  5.508770E+04 -9.864931E+02 -7.672217E+03
       242   5  1.699457E+05  1.883065E+03  2.610106E+03  5.129085E+04 -2.330623E+03 -4.292876E+03
       242   6  1.702853E+05  5.203177E+03  5.222956E+03  5.507474E+04 -3.674718E+03 -9.690319E+02
       242   7  7.377524E+04 -2.114466E+04 -1.180530E+04  5.491844E+04  6.464318E+03 -7.650060E+03
       242   8  1.163209E+05 -1.029024E+04 -4.697488E+03  5.282452E+04  4.999339E+03 -4.270950E+03
       242   9  1.595681E+05  2.821100E+03  3.911039E+03  5.831153E+04  3.534307E+03 -9.473497E+02
       242  10  2.668025E+05  2.274158E+04  1.463260E+04  5.525693E+04 -2.704476E-09  4.171978E-09
       242  11  2.235734E+05  1.405624E+04  9.917664E+03  4.975700E+04 -5.393609E-09 -4.341355E-09
       242  12  1.810027E+05  7.585285E+03  6.534849E+03  5.183788E+04 -4.240973E-09 -2.043690E-09
       242  13  1.702841E+05  7.986243E+02  1.413603E+03  5.508770E+04  1.190291E-09  6.012945E-09
       242  14  1.699457E+05  1.883044E+03  2.610061E+03  5.129084E+04 -1.968043E-09 -1.019099E-08
       242  15  1.702853E+05  5.203173E+03  5.222929E+03  5.507474E+04  1.988886E-09  2.972791E-09
       242  16  7.377518E+04 -2.114474E+04 -1.180549E+04  5.491848E+04  3.211896E-09 -2.012428E-09
       242  17  1.163209E+05 -1.029027E+04 -4.697570E+03  5.282454E+04  6.557241E-09  1.553675E-09
       242  18  1.595681E+05  2.821096E+03  3.911014E+03  5.831153E+04  3.799383E-09 -5.023458E-10
       242  19  2.668025E+05  2.274166E+04  1.463284E+04  5.525698E+04  8.438410E+03  7.694376E+03
       242  20  2.235735E+05  1.405629E+04  9.917875E+03  4.975704E+04  9.661189E+03  4.314765E+03
       242  21  1.810028E+05  7.585317E+03  6.535073E+03  5.183789E+04  1.088386E+04  9.906387E+02
       242  22  1.702841E+05  7.986877E+02  1.413716E+03  5.508770E+04  9.864931E+02  7.672217E+03
       242  23  1.699457E+05  1.883065E+03  2.610106E+03  5.129085E+04  2.330623E+03  4.292876E+03
       242  24  1.702853E+05  5.203177E+03  5.222956E+03  5.507474E+04  3.674718E+03  9.690319E+02
       242  25  7.377524E+04 -2.114466E+04 -1.180530E+04  5.491844E+04 -6.464318E+03  7.650060E+03
       242  26  1.163209E+05 -1.029024E+04 -4.697488E+03  5.282452E+04 -4.999339E+03  4.270950E+03
       242  27  1.595681E+05  2.821100E+03  3.911039E+03  5.831153E+04 -3.534307E+03  9.473497E+02
       243   1 -2.772937E+04  4.419330E+05 -2.172815E+04 -9.459284E+04 -4.140119E+03 -1.416564E+04
       243   2 -5.585762E+04  3.722075E+05 -3.292433E+04 -8.108104E+04 -1.591964E+04 -1.265465E+04
       243   3 -7.529497E+04  3.044129E+05 -4.295205E+04 -8.114187E+04 -2.376967E+04 -1.113689E+04
       243   4  2.007022E+04  6.377937E+05  2.179574E+04 -8.164124E+04 -4.187605E+03  1.322343E+04
       243   5  5.928911E+03  6.361476E+05  1.234438E+04 -7.486993E+04 -1.595202E+04  6.901221E+03
       243   6  1.835828E+03  6.377866E+05  9.496900E+03 -8.166994E+04 -2.378773E+04  5.859146E+02
       243   7  6.786827E+04  8.336923E+05  6.532015E+04 -6.868549E+04 -4.233941E+03  4.062105E+04
       243   8  6.771209E+04  9.001570E+05  5.761221E+04 -6.865607E+04 -1.598400E+04  2.646514E+04
       243   9  7.896121E+04  9.712714E+05  6.194364E+04 -8.219827E+04 -2.380582E+04  1.231478E+04
       243  10 -2.772944E+04  4.419328E+05 -2.172856E+04 -9.459289E+04 -1.907234E-09  4.951516E-08
       243  11 -5.585794E+04  3.722073E+05 -3.292511E+04 -8.108120E+04 -1.194039E-09 -2.008366E-08
       243  12 -7.529561E+04  3.044126E+05 -4.295335E+04 -8.114208E+04 -4.967949E-09 -8.085560E-08
       243  13  2.007016E+04  6.377936E+05  2.179538E+04 -8.164120E+04  2.934979E-09  1.673161E-09
       243  14  5.928625E+03  6.361475E+05  1.234381E+04 -7.486984E+04  3.864286E-09 -3.420301E-09
       243  15  1.835221E+03  6.377865E+05  9.495835E+03 -8.166993E+04  1.116798E-08  1.849140E-09
       243  16  6.786781E+04  8.336905E+05  6.531702E+04 -6.868536E+04 -5.699083E-10 -5.220971E-08
       243  17  6.771162E+04  9.001562E+05  5.761041E+04 -6.865573E+04 -2.799006E-09  1.564379E-08
       243  18  7.896056E+04  9.712711E+05  6.194229E+04 -8.219803E+04 -8.265922E-09  7.960285E-08
       243  19 -2.772937E+04  4.419330E+05 -2.172815E+04 -9.459284E+04  4.140119E+03  1.416564E+04
       243  20 -5.585762E+04  3.722075E+05 -3.292433E+04 -8.108104E+04  1.591964E+04  1.265465E+04
       243  21 -7.529497E+04  3.044129E+05 -4.295205E+04 -8.114187E+04  2.376967E+04  1.113689E+04
       243  22  2.007022E+04  6.377937E+05  2.179574E+04 -8.164124E+04  4.187605E+03 -1.322343E+04
       243  23  5.928911E+03  6.361476E+05  1.234438E+04 -7.486993E+04  1.595202E+04 -6.901221E+03
       243  24  1.835828E+03  6.377866E+05  9.496900E+03 -8.166994E+04  2.378773E+04 -5.859146E+02
       243  25  6.786827E+04  8.336923E+05  6.532015E+04 -6.868549E+04  4.233941E+03 -4.062105E+04
       243  26  6.771209E+04  9.001570E+05  5.761221E+04 -6.865607E+04  1.598400E+04 -2.646514E+04
       243  27  7.896121E+04  9.712714E+05  6.194364E+04 -8.219827E+04  2.380582E+04 -1.231478E+04
       244   1 -8.545785E+04  2.606453E+05 -4.947725E+04 -8.225490E+04 -2.713870E+04 -1.280791E+04
       244   2 -1.013281E+05  1.913229E+05 -5.804180E+04 -7.376256E+04 -3.203494E+04 -1.438551E+04
       244   3 -1.144370E+05  1.228700E+05 -6.489891E+04 -7.848501E+04 -3.479747E+04 -1.595886E+04
       244   4  1.637277E+03  6.374064E+05  9.441988E+03 -8.158837E+04 -2.715632E+04 -9.224330E+02
       244   5  1.627605E+03  6.365942E+05  1.165048E+04 -7.497853E+04 -3.204448E+04 -6.755033E+03
       244   6  5.116331E+03  6.373838E+05  1.851785E+04 -8.158267E+04 -3.479969E+04 -1.258357E+04
       244   7  8.872551E+04  1.014309E+06  6.835836E+04 -8.092135E+04 -2.717391E+04  1.096999E+04
       244   8  1.045736E+05  1.082063E+06  8.133821E+04 -7.619533E+04 -3.205404E+04  8.807103E+02
       244   9  1.246563E+05  1.152160E+06  1.019273E+05 -8.468287E+04 -3.480195E+04 -9.205573E+03
       244  10 -8.545868E+04  2.606449E+05 -4.947894E+04 -8.225518E+04 -5.424721E-09  1.032359E-08
       244  11 -1.013292E+05  1.913224E+05 -5.804411E+04 -7.376293E+04 -3.452053E-09  1.089161E-08
       244  12 -1.144384E+05  1.228694E+05 -6.490167E+04 -7.848546E+04 -8.487814E-11  1.338123E-08
       244  13  1.636484E+03  6.374062E+05  9.440600E+03 -8.158839E+04  1.315460E-08  1.277556E-09
       244  14  1.626490E+03  6.365939E+05  1.164846E+04 -7.497870E+04  5.858851E-09 -3.009643E-09
       244  15  5.114988E+03  6.373833E+05  1.851527E+04 -8.158302E+04 -6.348421E-10  1.469613E-09
       244  16  8.872468E+04  1.014309E+06  6.835674E+04 -8.092111E+04 -7.010672E-09 -1.287457E-08
       244  17  1.045725E+05  1.082063E+06  8.133628E+04 -7.619530E+04 -5.284001E-09 -1.432084E-08
       244  18  1.246550E+05  1.152160E+06  1.019249E+05 -8.468312E+04 -1.668259E-09 -1.428377E-08
       244  19 -8.545785E+04  2.606453E+05 -4.947725E+04 -8.225490E+04  2.713870E+04  1.280791E+04
       244  20 -1.013281E+05  1.913229E+05 -5.804180E+04 -7.376256E+04  3.203494E+04  1.438551E+04
       244  21 -1.144370E+05  1.228700E+05 -6.489891E+04 -7.848501E+04  3.479747E+04  1.595886E+04
       244  22  1.637277E+03  6.374064E+05  9.441988E+03 -8.158837E+04  2.715632E+04  9.224330E+02
       244  23  1.627605E+03  6.365942E+05  1.165048E+04 -7.497853E+04  3.204448E+04  6.755033E+03
       244  24  5.116331E+03  6.373838E+05  1.851785E+04 -8.158267E+04  3.479969E+04  1.258357E+04
       244  25  8.872551E+04  1.014309E+06  6.835836E+04 -8.092135E+04  2.717391E+04 -1.096999E+04
       244  26  1.045736E+05  1.082063E+06  8.133821E+04 -7.619533E+04  3.205404E+04 -8.807103E+02
       244  27  1.246563E+05  1.152160E+06  1.019273E+05 -8.468287E+04  3.480195E+04  9.205573E+03
       245   1 -1.243478E+05  8.084184E+04 -6.855333E+04 -8.193075E+04 -3.641848E+04 -1.958748E+04
       245   2 -1.256314E+05  8.167265E+03 -7.400518E+04 -4.944315E+04 -3.057924E+04 -1.038003E+04
       245   3 -9.315422E+04 -5.726166E+04 -7.700486E+04 -2.905713E+04 -9.161044E+03 -1.157276E+03
       245   4  5.886492E+03  6.398236E+05  2.386810E+04 -8.134322E+04 -3.642098E+04 -1.574273E+04
       245   5  2.279245E+04  6.334908E+05  4.261235E+04 -7.524424E+04 -3.054019E+04 -3.757856E+04
       245   6  7.882418E+04  6.397729E+05  8.534910E+04 -8.124454E+04 -9.088442E+03 -5.939848E+04
       245   7  1.361047E+05  1.199114E+06  1.162803E+05 -8.075501E+04 -3.642347E+04 -1.189464E+04
       245   8  1.711966E+05  1.259196E+06  1.592163E+05 -1.010718E+05 -3.049891E+04 -6.480377E+04
       245   9  2.507802E+05  1.337268E+06  2.476844E+05 -1.334908E+05 -9.006097E+03 -1.177046E+05
       245  10 -1.243493E+05  8.084107E+04 -6.855654E+04 -8.193133E+04  2.861132E-10  2.813826E-09
       245  11 -1.256324E+05  8.166898E+03 -7.400714E+04 -4.944341E+04 -2.071100E-09 -7.089872E-10
       245  12 -9.315432E+04 -5.726169E+04 -7.700502E+04 -2.905714E+04 -1.146602E-09 -8.759117E-11
       245  13  5.885001E+03  6.398230E+05  2.386514E+04 -8.134368E+04  1.110642E-09  1.613934E-09
       245  14  2.279107E+04  6.334890E+05  4.260794E+04 -7.524517E+04  1.862315E-10 -2.434097E-09
       245  15  7.882314E+04  6.397691E+05  8.534232E+04 -8.124497E+04  1.446216E-09  1.582772E-09
       245  16  1.361032E+05  1.199114E+06  1.162775E+05 -8.075536E+04 -2.376224E-09 -4.602950E-09
       245  17  1.711945E+05  1.259191E+06  1.592067E+05 -1.010734E+05 -9.258637E-10 -1.993260E-09
       245  18  2.507764E+05  1.337254E+06  2.476583E+05 -1.334916E+05 -7.405096E-10 -7.742152E-10
       245  19 -1.243478E+05  8.084184E+04 -6.855333E+04 -8.193075E+04  3.641848E+04  1.958748E+04
       245  20 -1.256314E+05  8.167265E+03 -7.400518E+04 -4.944315E+04  3.057924E+04  1.038003E+04
       245  21 -9.315422E+04 -5.726166E+04 -7.700486E+04 -2.905713E+04  9.161044E+03  1.157276E+03
       245  22  5.886492E+03  6.398236E+05  2.386810E+04 -8.134322E+04  3.642098E+04  1.574273E+04
       245  23  2.279245E+04  6.334908E+05  4.261235E+04 -7.524424E+04  3.054019E+04  3.757856E+04
       245  24  7.882418E+04  6.397729E+05  8.534910E+04 -8.124454E+04  9.088442E+03  5.939848E+04
       245  25  1.361047E+05  1.199114E+06  1.162803E+05 -8.075501E+04  3.642347E+04  1.189464E+04
       245  26  1.711966E+05  1.259196E+06  1.592163E+05 -1.010718E+05  3.049891E+04  6.480377E+04
       245  27  2.507802E+05  1.337268E+06  2.476844E+05 -1.334908E+05  9.006097E+03  1.177046E+05
       246   1  1.054042E+06  3.403913E+05  1.610102E+05  3.799307E+05  5.128080E+04  5.910802E+03
       246   2  9.908719E+05  3.419025E+05  1.252345E+05  3.634852E+05  3.400123E+04 -3.260656E+04
       246   3  9.198796E+05  3.391461E+05  1.068764E+05  3.596234E+05  9.514817E+03 -5.198224E+04
       246   4  2.194116E+05  5.307754E+04 -4.608223E+04  1.768794E+05 -2.567704E+04 -2.310351E+04
       246   5  2.296893E+05  7.641597E+04 -2.193605E+04  1.640597E+05 -3.757200E+03 -4.685231E+04
       246   6  2.243753E+05  8.771784E+04 -1.141209E+04  1.638262E+05  1.094712E+04 -5.144844E+04
       246   7 -6.144905E+05 -2.341990E+05 -2.531925E+05 -2.592479E+04 -1.025183E+05 -5.208182E+04
       246   8 -5.308735E+05 -1.890240E+05 -1.691211E+05 -3.513973E+04 -4.146509E+04 -6.108094E+04
       246   9 -4.706133E+05 -1.636608E+05 -1.297132E+05 -3.176546E+04  1.237772E+04 -5.091529E+04
       246  10  1.054039E+06  3.403906E+05  1.610052E+05  3.799305E+05 -5.598822E-08 -2.264209E-08
       246  11  9.908704E+05  3.419010E+05  1.252304E+05  3.634861E+05  8.562237E-09 -9.664517E-10
       246  12  9.198788E+05  3.391432E+05  1.068712E+05  3.596238E+05  6.580288E-08  2.260118E-08
       246  13  2.194108E+05  5.307679E+04 -4.608447E+04  1.768789E+05  2.210312E-09  3.450855E-09
       246  14  2.296887E+05  7.641361E+04 -2.194020E+04  1.640595E+05  4.869772E-09 -2.933169E-09
       246  15  2.243744E+05  8.771497E+04 -1.141729E+04  1.638266E+05  1.490198E-09  5.218064E-10
       246  16 -6.145025E+05 -2.342048E+05 -2.532174E+05 -2.592909E+04  5.848826E-08  2.310183E-08
       246  17 -5.308764E+05 -1.890285E+05 -1.691313E+05 -3.514177E+04 -4.088522E-10 -2.819445E-09
       246  18 -4.706142E+05 -1.636636E+05 -1.297183E+05 -3.176496E+04 -6.426052E-08 -2.350988E-08
       246  19  1.054042E+06  3.403913E+05  1.610102E+05  3.799307E+05 -5.128080E+04 -5.910802E+03
       246  20  9.908719E+05  3.419025E+05  1.252345E+05  3.634852E+05 -3.400123E+04  3.260656E+04
       246  21  9.198796E+05  3.391461E+05  1.068764E+05  3.596234E+05 -9.514817E+03  5.198224E+04
       246  22  2.194116E+05  5.307754E+04 -4.608223E+04  1.768794E+05  2.567704E+04  2.310351E+04
       246  23  2.296893E+05  7.641597E+04 -2.193605E+04  1.640597E+05  3.757200E+03  4.685231E+04
       246  24  2.243753E+05  8.771784E+04 -1.141209E+04  1.638262E+05 -1.094712E+04  5.144844E+04
       246  25 -6.144905E+05 -2.341990E+05 -2.531925E+05 -2.592479E+04  1.025183E+05  5.208182E+04
       246  26 -5.308735E+05 -1.890240E+05 -1.691211E+05 -3.513973E+04  4.146509E+04  6.108094E+04
       246  27 -4.706133E+05 -1.636608E+05 -1.297132E+05 -3.176546E+04 -1.237772E+04  5.091529E+04
       247   1  8.836299E+05  3.245711E+05  1.007291E+05  3.481808E+05  1.123063E+04 -5.017868E+04
       247   2  8.281208E+05  3.008486E+05  9.041086E+04  3.272828E+05  8.736233E+03 -4.960014E+04
       247   3  7.646455E+05  2.845693E+05  8.141000E+04  3.157761E+05  5.461572E+03 -4.695714E+04
       247   4  2.254356E+05  8.862344E+04 -8.488649E+03  1.643419E+05  1.184840E+04 -4.995176E+04
       247   5  2.300200E+05  8.651625E+04 -4.422646E+03  1.591997E+05  1.357980E+04 -4.777736E+04
       247   6  2.257984E+05  9.101530E+04 -2.386985E+03  1.634484E+05  1.453040E+04 -4.353738E+04
       247   7 -4.323052E+05 -1.472844E+05 -1.177191E+05 -1.931732E+04  1.246550E+04 -4.972510E+04
       247   8 -3.677004E+05 -1.277805E+05 -9.926377E+04 -8.732539E+03  1.841847E+04 -4.595642E+04
       247   9 -3.127358E+05 -1.025076E+05 -8.618839E+04  1.124509E+04  2.359091E+04 -4.012077E+04
       247  10  8.836291E+05  3.245684E+05  1.007241E+05  3.481812E+05  4.843080E-09  1.646602E-09
       247  11  8.281201E+05  3.008460E+05  9.040609E+04  3.272831E+05  5.244069E-09  2.776010E-09
       247  12  7.646449E+05  2.845669E+05  8.140581E+04  3.157763E+05  4.007163E-09  4.176505E-10
       247  13  2.254348E+05  8.862072E+04 -8.493602E+03  1.643424E+05  1.309442E-09 -3.653817E-09
       247  14  2.300192E+05  8.651374E+04 -4.427283E+03  1.592002E+05 -7.673534E-10  1.046322E-08
       247  15  2.257977E+05  9.101321E+04 -2.390944E+03  1.634489E+05 -2.754183E-12 -2.688974E-09
       247  16 -4.323060E+05 -1.472871E+05 -1.177240E+05 -1.931682E+04 -4.879261E-09 -3.653797E-09
       247  17 -3.677014E+05 -1.277828E+05 -9.926838E+04 -8.731857E+03 -3.308529E-09  1.472481E-09
       247  18 -3.127369E+05 -1.025095E+05 -8.619246E+04  1.124586E+04 -2.350555E-09 -3.001597E-09
       247  19  8.836299E+05  3.245711E+05  1.007291E+05  3.481808E+05 -1.123063E+04  5.017868E+04
       247  20  8.281208E+05  3.008486E+05  9.041086E+04  3.272828E+05 -8.736233E+03  4.960014E+04
       247  21  7.646455E+05  2.845693E+05  8.141000E+04  3.157761E+05 -5.461572E+03  4.695714E+04
       247  22  2.254356E+05  8.862344E+04 -8.488649E+03  1.643419E+05 -1.184840E+04  4.995176E+04
       247  23  2.300200E+05  8.651625E+04 -4.422646E+03  1.591997E+05 -1.357980E+04  4.777736E+04
       247  24  2.257984E+05  9.101530E+04 -2.386985E+03  1.634484E+05 -1.453040E+04  4.353738E+04
       247  25 -4.323052E+05 -1.472844E+05 -1.177191E+05 -1.931732E+04 -1.246550E+04  4.972510E+04
       247  26 -3.677004E+05 -1.277805E+05 -9.926377E+04 -8.732539E+03 -1.841847E+04  4.595642E+04
       247  27 -3.127358E+05 -1.025076E+05 -8.618839E+04  1.124509E+04 -2.359091E+04  4.012077E+04
       248   1  7.275900E+05  2.710884E+05  7.573813E+04  3.052404E+05  4.876967E+03 -4.415877E+04
       248   2  6.727217E+05  2.459662E+05  6.710115E+04  2.839954E+05  3.205383E+03 -3.965383E+04
       248   3  6.097409E+05  2.289592E+05  5.844766E+04  2.719813E+05  1.448805E+03 -3.492780E+04
       248   4  2.259023E+05  9.108172E+04 -1.782242E+03  1.635094E+05  1.385487E+04 -4.077225E+04
       248   5  2.300277E+05  8.714693E+04 -9.557193E+02  1.588696E+05  1.263556E+04 -3.609487E+04
       248   6  2.259459E+05  9.123757E+04 -5.050769E+02  1.634599E+05  1.133122E+04 -3.119630E+04
       248   7 -2.755076E+05 -8.889560E+04 -7.930449E+04  2.188783E+04  2.282500E+04 -3.738866E+04
       248   8 -2.124545E+05 -7.165120E+04 -6.901511E+04  3.382782E+04  2.205863E+04 -3.253860E+04
       248   9 -1.576945E+05 -4.646980E+04 -5.946083E+04  5.500038E+04  2.120730E+04 -2.746719E+04
       248  10  7.275895E+05  2.710863E+05  7.573442E+04  3.052405E+05  2.584876E-08  1.028014E-08
       248  11  6.727212E+05  2.459646E+05  6.709817E+04  2.839955E+05 -7.224328E-09  1.214425E-09
       248  12  6.097406E+05  2.289579E+05  5.844537E+04  2.719813E+05 -4.041884E-08 -2.198534E-08
       248  13  2.259017E+05  9.107988E+04 -1.785727E+03  1.635098E+05  9.895182E-10  1.737942E-09
       248  14  2.300271E+05  8.714549E+04 -9.584680E+02  1.588700E+05 -3.601886E-09  6.551977E-11
       248  15  2.259455E+05  9.123649E+04 -5.071473E+02  1.634601E+05 -4.811399E-09  1.479260E-08
       248  16 -2.755086E+05 -8.889724E+04 -7.930810E+04  2.188851E+04 -2.415804E-08 -9.191614E-09
       248  17 -2.124553E+05 -7.165246E+04 -6.901801E+04  3.382840E+04  6.580064E-09  4.258553E-09
       248  18 -1.576952E+05 -4.647073E+04 -5.946310E+04  5.500085E+04  3.780882E-08  1.345807E-08
       248  19  7.275900E+05  2.710884E+05  7.573813E+04  3.052404E+05 -4.876967E+03  4.415877E+04
       248  20  6.727217E+05  2.459662E+05  6.710115E+04  2.839954E+05 -3.205383E+03  3.965383E+04
       248  21  6.097409E+05  2.289592E+05  5.844766E+04  2.719813E+05 -1.448805E+03  3.492780E+04
       248  22  2.259023E+05  9.108172E+04 -1.782242E+03  1.635094E+05 -1.385487E+04  4.077225E+04
       248  23  2.300277E+05  8.714693E+04 -9.557193E+02  1.588696E+05 -1.263556E+04  3.609487E+04
       248  24  2.259459E+05  9.123757E+04 -5.050769E+02  1.634599E+05 -1.133122E+04  3.119630E+04
       248  25 -2.755076E+05 -8.889560E+04 -7.930449E+04  2.188783E+04 -2.282500E+04  3.738866E+04
       248  26 -2.124545E+05 -7.165120E+04 -6.901511E+04  3.382782E+04 -2.205863E+04  3.253860E+04
       248  27 -1.576945E+05 -4.646980E+04 -5.946083E+04  5.500038E+04 -2.120730E+04  2.746719E+04
       249   1  5.726710E+05  2.156105E+05  5.261736E+04  2.615166E+05  4.679377E+02 -3.207997E+04
       249   2  5.178847E+05  1.904641E+05  4.389726E+04  2.402597E+05 -1.323961E+03 -2.723386E+04
       249   3  4.549725E+05  1.734538E+05  3.515506E+04  2.282301E+05 -3.124994E+03 -2.236612E+04
       249   4  2.259628E+05  9.124510E+04 -3.638823E+02  1.634663E+05  1.033849E+04 -2.835210E+04
       249   5  2.300393E+05  8.719086E+04 -1.563744E+02  1.588525E+05  8.590523E+03 -2.348827E+04
       249   6  2.259770E+05  9.126344E+04 -6.495750E+00  1.634645E+05  6.833428E+03 -1.860283E+04
       249   7 -1.206151E+05 -3.310712E+04 -5.334635E+04  6.546768E+04  2.020322E+04 -2.462644E+04
       249   8 -5.771450E+04 -1.607262E+04 -4.421025E+04  7.748134E+04  1.850009E+04 -1.974454E+04
       249   9 -2.958774E+03  9.079937E+03 -3.516760E+04  9.872219E+04  1.678785E+04 -1.484106E+04
       249  10  5.726707E+05  2.156094E+05  5.261542E+04  2.615166E+05  4.046352E-08  1.224358E-08
       249  11  5.178845E+05  1.904633E+05  4.389586E+04  2.402597E+05  1.109036E-08  7.965956E-10
       249  12  4.549723E+05  1.734532E+05  3.515410E+04  2.282300E+05 -1.663130E-08 -7.405325E-09
       249  13  2.259625E+05  9.124421E+04 -3.655939E+02  1.634666E+05 -5.101814E-09  1.522576E-08
       249  14  2.300391E+05  8.719025E+04 -1.575500E+02  1.588526E+05 -5.386445E-09  1.335752E-08
       249  15  2.259768E+05  9.126306E+04 -7.233933E+00  1.634646E+05 -1.326207E-09  4.372634E-09
       249  16 -1.206157E+05 -3.310789E+04 -5.334826E+04  6.546808E+04 -4.308124E-08 -1.606512E-08
       249  17 -5.771497E+04 -1.607313E+04 -4.421163E+04  7.748164E+04 -1.312639E-08 -7.716402E-09
       249  18 -2.959136E+03  9.079625E+03 -3.516855E+04  9.872240E+04  2.488264E-08  3.787321E-09
       249  19  5.726710E+05  2.156105E+05  5.261736E+04  2.615166E+05 -4.679377E+02  3.207997E+04
       249  20  5.178847E+05  1.904641E+05  4.389726E+04  2.402597E+05  1.323961E+03  2.723386E+04
       249  21  4.549725E+05  1.734538E+05  3.515506E+04  2.282301E+05  3.124994E+03  2.236612E+04
       249  22  2.259628E+05  9.124510E+04 -3.638823E+02  1.634663E+05 -1.033849E+04  2.835210E+04
       249  23  2.300393E+05  8.719086E+04 -1.563744E+02  1.588525E+05 -8.590523E+03  2.348827E+04
       249  24  2.259770E+05  9.126344E+04 -6.495750E+00  1.634645E+05 -6.833428E+03  1.860283E+04
       249  25 -1.206151E+05 -3.310712E+04 -5.334635E+04  6.546768E+04 -2.020322E+04  2.462644E+04
       249  26 -5.771450E+04 -1.607262E+04 -4.421025E+04  7.748134E+04 -1.850009E+04  1.974454E+04
       249  27 -2.958774E+03  9.079937E+03 -3.516760E+04  9.872219E+04 -1.678785E+04  1.484106E+04
       250   1  4.179211E+05  1.601207E+05  2.928376E+04  2.177759E+05 -4.198291E+03 -1.953393E+04
       250   2  3.631544E+05  1.349814E+05  2.056875E+04  1.965329E+05 -6.126874E+03 -1.470778E+04
       250   3  3.002729E+05  1.179792E+05  1.192301E+04  1.845185E+05 -8.052171E+03 -9.891494E+03
       250   4  2.259871E+05  9.126621E+04  6.183702E+01  1.634670E+05  5.757906E+03 -1.577100E+04
       250   5  2.300462E+05  8.719624E+04  2.250243E+02  1.588540E+05  3.808853E+03 -1.095203E+04
       250   6  2.259920E+05  9.126757E+04  4.736964E+02  1.634686E+05  1.863086E+03 -6.142960E+03
       250   7  3.409072E+04  2.241490E+04 -2.916082E+04  1.091734E+05  1.571097E+04 -1.200925E+04
       250   8  9.695651E+04  3.941277E+04 -2.011876E+04  1.211825E+05  1.374239E+04 -7.197116E+03
       250   9  1.517174E+05  6.455664E+04 -1.097528E+04  1.424211E+05  1.177709E+04 -2.394900E+03
       250  10  4.179210E+05  1.601203E+05  2.928301E+04  2.177758E+05  1.370461E-08  2.715863E-09
       250  11  3.631543E+05  1.349812E+05  2.056827E+04  1.965328E+05  1.221133E-08  5.088963E-09
       250  12  3.002728E+05  1.179791E+05  1.192270E+04  1.845184E+05  1.906222E-08 -1.983698E-09
       250  13  2.259870E+05  9.126593E+04  6.130724E+01  1.634671E+05 -2.237531E-09  2.238535E-09
       250  14  2.300461E+05  8.719611E+04  2.247716E+02  1.588540E+05 -2.459044E-09  5.618491E-09
       250  15  2.259920E+05  9.126753E+04  4.736189E+02  1.634686E+05  4.527426E-09  1.251154E-08
       250  16  3.409042E+04  2.241468E+04 -2.916155E+04  1.091735E+05 -5.522776E-09 -4.734174E-09
       250  17  9.695629E+04  3.941266E+04 -2.011921E+04  1.211826E+05 -1.168293E-08 -1.945423E-09
       250  18  1.517172E+05  6.455659E+04 -1.097556E+04  1.424212E+05 -8.780124E-09 -1.268218E-08
       250  19  4.179211E+05  1.601207E+05  2.928376E+04  2.177759E+05  4.198291E+03  1.953393E+04
       250  20  3.631544E+05  1.349814E+05  2.056875E+04  1.965329E+05  6.126874E+03  1.470778E+04
       250  21  3.002729E+05  1.179792E+05  1.192301E+04  1.845185E+05  8.052171E+03  9.891494E+03
       250  22  2.259871E+05  9.126621E+04  6.183702E+01  1.634670E+05 -5.757906E+03  1.577100E+04
       250  23  2.300462E+05  8.719624E+04  2.250243E+02  1.588540E+05 -3.808853E+03  1.095203E+04
       250  24  2.259920E+05  9.126757E+04  4.736964E+02  1.634686E+05 -1.863086E+03  6.142960E+03
       250  25  3.409072E+04  2.241490E+04 -2.916082E+04  1.091734E+05 -1.571097E+04  1.200925E+04
       250  26  9.695651E+04  3.941277E+04 -2.011876E+04  1.211825E+05 -1.374239E+04  7.197116E+03
       250  27  1.517174E+05  6.455664E+04 -1.097528E+04  1.424211E+05 -1.177709E+04  2.394900E+03
       251   1  2.632352E+05  1.046556E+05  6.148084E+03  1.740898E+05 -9.216001E+03 -7.102357E+03
       251   2  2.084646E+05  7.950051E+04 -2.269631E+03  1.528251E+05 -1.140551E+04 -2.451008E+03
       251   3  1.456528E+05  6.255854E+04 -1.038431E+04  1.407745E+05 -1.355346E+04  2.090871E+03
       251   4  2.260139E+05  9.126499E+04  6.482480E+02  1.634763E+05  7.031774E+02 -3.352221E+03
       251   5  2.300235E+05  8.720476E+04  1.205052E+03  1.588440E+05 -1.710856E+03  1.214148E+03
       251   6  2.260322E+05  9.140142E+04  2.242327E+03  1.634242E+05 -4.083387E+03  5.671057E+03
       251   7  1.887948E+05  7.787481E+04 -4.851056E+03  1.528636E+05  1.062161E+04  3.976305E+02
       251   8  2.515832E+05  9.490913E+04  4.680128E+03  1.648632E+05  7.984155E+03  4.879437E+03
       251   9  3.064198E+05  1.202454E+05  1.486951E+04  1.860769E+05  5.388098E+03  9.251774E+03
       251  10  2.632351E+05  1.046555E+05  6.147830E+03  1.740898E+05 -3.593193E-09 -1.145370E-08
       251  11  2.084645E+05  7.950047E+04 -2.269887E+03  1.528251E+05 -1.054616E-08 -1.248081E-08
       251  12  1.456526E+05  6.255848E+04 -1.038467E+04  1.407745E+05 -1.849045E-08 -6.383639E-09
       251  13  2.260139E+05  9.126498E+04  6.482259E+02  1.634763E+05  5.878710E-09  1.690104E-08
       251  14  2.300235E+05  8.720475E+04  1.205043E+03  1.588440E+05  5.107897E-10  7.944723E-09
       251  15  2.260322E+05  9.140138E+04  2.242235E+03  1.634242E+05 -6.539059E-09 -1.769475E-09
       251  16  1.887946E+05  7.787478E+04 -4.851268E+03  1.528636E+05  1.646331E-08 -8.495953E-10
       251  17  2.515831E+05  9.490908E+04  4.679964E+03  1.648632E+05  1.806180E-08  8.886819E-09
       251  18  3.064197E+05  1.202453E+05  1.486929E+04  1.860769E+05  1.479922E-08  7.185268E-09
       251  19  2.632352E+05  1.046556E+05  6.148084E+03  1.740898E+05  9.216001E+03  7.102357E+03
       251  20  2.084646E+05  7.950051E+04 -2.269631E+03  1.528251E+05  1.140551E+04  2.451008E+03
       251  21  1.456528E+05  6.255854E+04 -1.038431E+04  1.407745E+05  1.355346E+04 -2.090871E+03
       251  22  2.260139E+05  9.126499E+04  6.482480E+02  1.634763E+05 -7.031774E+02  3.352221E+03
       251  23  2.300235E+05  8.720476E+04  1.205052E+03  1.588440E+05  1.710856E+03 -1.214148E+03
       251  24  2.260322E+05  9.140142E+04  2.242327E+03  1.634242E+05  4.083387E+03 -5.671057E+03
       251  25  1.887948E+05  7.787481E+04 -4.851056E+03  1.528636E+05 -1.062161E+04 -3.976305E+02
       251  26  2.515832E+05  9.490913E+04  4.680128E+03  1.648632E+05 -7.984155E+03 -4.879437E+03
       251  27  3.064198E+05  1.202454E+05  1.486951E+04  1.860769E+05 -5.388098E+03 -9.251774E+03
       252   1  1.085748E+05  4.934459E+04 -1.572099E+04  1.305126E+05 -1.503677E+04  4.660704E+03
       252   2  5.433885E+04  2.397403E+04 -2.309403E+04  1.082513E+05 -1.732419E+04  8.531472E+03
       252   3 -7.347240E+03  8.064484E+03 -2.955064E+04  9.481065E+04 -1.922705E+04  1.138620E+04
       252   4  2.261964E+05  9.142817E+04  3.003261E+03  1.634616E+05 -5.523645E+03  8.256962E+03
       252   5  2.299226E+05  8.795266E+04  5.553660E+03  1.584985E+05 -9.890428E+03  1.134105E+04
       252   6  2.266066E+05  9.434913E+04  1.066805E+04  1.623543E+05 -1.387277E+04  1.340923E+04
       252   7  3.438331E+05  1.335132E+05  2.172762E+04  1.964166E+05  3.991384E+03  1.185393E+04
       252   8  4.055385E+05  1.519343E+05  3.420061E+04  2.087589E+05 -2.454487E+03  1.415147E+04
       252   9  4.606159E+05  1.806388E+05  5.088451E+04  2.299213E+05 -8.516411E+03  1.543308E+04
       252  10  1.085745E+05  4.934451E+04 -1.572145E+04  1.305126E+05 -9.548894E-09 -1.627765E-09
       252  11  5.433851E+04  2.397387E+04 -2.309473E+04  1.082514E+05 -5.987161E-09 -1.725047E-09
       252  12 -7.347672E+03  8.064246E+03 -2.955157E+04  9.481082E+04 -2.495487E-10  8.022017E-10
       252  13  2.261964E+05  9.142808E+04  3.003075E+03  1.634617E+05 -9.951582E-09  4.973092E-09
       252  14  2.299225E+05  8.795249E+04  5.553235E+03  1.584986E+05 -3.272296E-09 -2.569909E-09
       252  15  2.266064E+05  9.434889E+04  1.066735E+04  1.623545E+05 -1.383447E-09 -1.653206E-11
       252  16  3.438330E+05  1.335131E+05  2.172732E+04  1.964165E+05  2.789852E-09  3.597514E-10
       252  17  4.055384E+05  1.519341E+05  3.420022E+04  2.087590E+05  2.893208E-09  3.688821E-09
       252  18  4.606158E+05  1.806385E+05  5.088393E+04  2.299214E+05  1.492061E-09 -2.655355E-09
       252  19  1.085748E+05  4.934459E+04 -1.572099E+04  1.305126E+05  1.503677E+04 -4.660704E+03
       252  20  5.433885E+04  2.397403E+04 -2.309403E+04  1.082513E+05  1.732419E+04 -8.531472E+03
       252  21 -7.347240E+03  8.064484E+03 -2.955064E+04  9.481065E+04  1.922705E+04 -1.138620E+04
       252  22  2.261964E+05  9.142817E+04  3.003261E+03  1.634616E+05  5.523645E+03 -8.256962E+03
       252  23  2.299226E+05  8.795266E+04  5.553660E+03  1.584985E+05  9.890428E+03 -1.134105E+04
       252  24  2.266066E+05  9.434913E+04  1.066805E+04  1.623543E+05  1.387277E+04 -1.340923E+04
       252  25  3.438331E+05  1.335132E+05  2.172762E+04  1.964166E+05 -3.991384E+03 -1.185393E+04
       252  26  4.055385E+05  1.519343E+05  3.420061E+04  2.087589E+05  2.454487E+03 -1.415147E+04
       252  27  4.606159E+05  1.806388E+05  5.088451E+04  2.299213E+05  8.516411E+03 -1.543308E+04
       253   1 -4.481952E+04 -3.506396E+03 -3.334419E+04  8.620339E+04 -2.196920E+04  1.256285E+04
       253   2 -8.894399E+04 -3.165380E+04 -3.883227E+04  4.762664E+04 -1.623939E+04  1.256588E+04
       253   3 -1.335882E+05 -3.200257E+04 -4.244394E+04  1.185576E+04 -6.954212E+03  3.153680E+03
       253   4  2.283114E+05  9.507491E+04  1.434344E+04  1.625659E+05 -1.621832E+04  1.473548E+04
       253   5  2.297662E+05  1.010348E+05  2.755622E+04  1.529357E+05 -2.974289E+04  7.461798E+03
       253   6  2.345100E+05  1.386006E+05  5.790588E+04  1.461116E+05 -3.971350E+04 -9.224267E+03
       253   7  5.015263E+05  1.936653E+05  6.203027E+04  2.389610E+05 -1.046464E+04  1.690915E+04
       253   8  5.485818E+05  2.337407E+05  9.394002E+04  2.582975E+05 -4.325378E+04  2.354051E+03
       253   9  6.027376E+05  3.092315E+05  1.582458E+05  2.804441E+05 -7.249322E+04 -2.161421E+04
       253  10 -4.482008E+04 -3.506695E+03 -3.334539E+04  8.620361E+04 -1.110528E-08 -8.438987E-10
       253  11 -8.894432E+04 -3.165404E+04 -3.883306E+04  4.762680E+04  9.818217E-09  6.729377E-09
       253  12 -1.335882E+05 -3.200259E+04 -4.244405E+04  1.185578E+04  1.672836E-08  5.809626E-09
       253  13  2.283111E+05  9.507460E+04  1.434254E+04  1.625660E+05  7.610228E-09 -1.585016E-10
       253  14  2.297652E+05  1.010345E+05  2.755445E+04  1.529358E+05  1.355822E-08  5.293684E-09
       253  15  2.345083E+05  1.386001E+05  5.790276E+04  1.461113E+05  6.812816E-09  3.958695E-09
       253  16  5.015261E+05  1.936650E+05  6.202953E+04  2.389611E+05  2.359188E-08  6.430495E-09
       253  17  5.485798E+05  2.337402E+05  9.393649E+04  2.582976E+05  1.967950E-08  7.624809E-09
       253  18  6.027318E+05  3.092296E+05  1.582351E+05  2.804429E+05 -4.665427E-09 -5.457056E-09
       253  19 -4.481952E+04 -3.506396E+03 -3.334419E+04  8.620339E+04  2.196920E+04 -1.256285E+04
       253  20 -8.894399E+04 -3.165380E+04 -3.883227E+04  4.762664E+04  1.623939E+04 -1.256588E+04
       253  21 -1.335882E+05 -3.200257E+04 -4.244394E+04  1.185576E+04  6.954212E+03 -3.153680E+03
       253  22  2.283114E+05  9.507491E+04  1.434344E+04  1.625659E+05  1.621832E+04 -1.473548E+04
       253  23  2.297662E+05  1.010348E+05  2.755622E+04  1.529357E+05  2.974289E+04 -7.461798E+03
       253  24  2.345100E+05  1.386006E+05  5.790588E+04  1.461116E+05  3.971350E+04  9.224267E+03
       253  25  5.015263E+05  1.936653E+05  6.203027E+04  2.389610E+05  1.046464E+04 -1.690915E+04
       253  26  5.485818E+05  2.337407E+05  9.394002E+04  2.582975E+05  4.325378E+04 -2.354051E+03
       253  27  6.027376E+05  3.092315E+05  1.582458E+05  2.804441E+05  7.249322E+04  2.161421E+04
       254   1  2.108917E+05  2.915401E+04  2.242171E+04  2.937796E+03 -1.881154E+04 -1.130255E+03
       254   2  2.069517E+05  5.386358E+04  3.641622E+04 -1.700500E+03 -1.267128E+04 -3.145429E+03
       254   3  1.946651E+05  4.789667E+04  3.877407E+04  7.733432E+03 -6.539208E+03 -2.585965E+03
       254   4  6.238431E+03 -2.195018E+04 -2.857995E+04  5.727545E+03 -1.952467E+04 -1.132523E+03
       254   5  1.046051E+04  4.839482E+03 -1.226296E+04 -1.343416E+03 -1.283008E+04 -3.146029E+03
       254   6  6.236908E+03  8.511717E+02 -7.970318E+03  5.658154E+03 -6.143596E+03 -2.584589E+03
       254   7 -1.983768E+05 -7.305748E+04 -7.958474E+04  8.516345E+03 -2.023757E+04 -1.134797E+03
       254   8 -1.859956E+05 -4.418751E+04 -6.094502E+04 -9.864727E+02 -1.298883E+04 -3.146629E+03
       254   9 -1.821590E+05 -4.619697E+04 -5.471735E+04  3.583478E+03 -5.748103E+03 -2.583215E+03
       254  10  2.108913E+05  2.915391E+04  2.242104E+04  2.937779E+03 -3.532109E-09  1.895441E-09
       254  11  2.069515E+05  5.386353E+04  3.641590E+04 -1.700533E+03  1.303494E-09  1.296363E-08
       254  12  1.946650E+05  4.789665E+04  3.877397E+04  7.733418E+03  1.225086E-09  7.053793E-09
       254  13  6.238021E+03 -2.195028E+04 -2.858067E+04  5.727527E+03  1.068847E-09 -4.834988E-09
       254  14  1.046033E+04  4.839427E+03 -1.226329E+04 -1.343448E+03 -3.348521E-11 -7.355514E-09
       254  15  6.236866E+03  8.511544E+02 -7.970401E+03  5.658141E+03 -2.175900E-09  3.351442E-09
       254  16 -1.983773E+05 -7.305759E+04 -7.958551E+04  8.516327E+03  1.821788E-09  2.787035E-09
       254  17 -1.859958E+05 -4.418756E+04 -6.094535E+04 -9.865056E+02  1.554287E-09  1.332472E-08
       254  18 -1.821591E+05 -4.619699E+04 -5.471743E+04  3.583466E+03 -1.286613E-09  2.573839E-09
       254  19  2.108917E+05  2.915401E+04  2.242171E+04  2.937796E+03  1.881154E+04  1.130255E+03
       254  20  2.069517E+05  5.386358E+04  3.641622E+04 -1.700500E+03  1.267128E+04  3.145429E+03
       254  21  1.946651E+05  4.789667E+04  3.877407E+04  7.733432E+03  6.539208E+03  2.585965E+03
       254  22  6.238431E+03 -2.195018E+04 -2.857995E+04  5.727545E+03  1.952467E+04  1.132523E+03
       254  23  1.046051E+04  4.839482E+03 -1.226296E+04 -1.343416E+03  1.283008E+04  3.146029E+03
       254  24  6.236908E+03  8.511717E+02 -7.970318E+03  5.658154E+03  6.143596E+03  2.584589E+03
       254  25 -1.983768E+05 -7.305748E+04 -7.958474E+04  8.516345E+03  2.023757E+04  1.134797E+03
       254  26 -1.859956E+05 -4.418751E+04 -6.094502E+04 -9.864727E+02  1.298883E+04  3.146629E+03
       254  27 -1.821590E+05 -4.619697E+04 -5.471735E+04  3.583478E+03  5.748103E+03  2.583215E+03
       255   1  1.580504E+05  3.433692E+04  3.068409E+04  5.644254E+03 -4.794288E+03 -2.017879E+03
       255   2  1.506379E+05  3.617095E+04  3.207583E+04 -1.028264E+03 -3.214521E+03 -2.046805E+03
       255   3  1.419157E+05  3.364092E+04  3.134600E+04  6.312856E+03 -1.636310E+03 -1.712897E+03
       255   4  7.823851E+03 -3.157552E+03 -6.587208E+03  5.677362E+03 -4.840203E+03 -2.018083E+03
       255   5  8.485203E+03  6.924019E+02 -3.173142E+03 -1.335745E+03 -3.182403E+03 -2.046710E+03
       255   6  7.822783E+03  1.641622E+02 -1.935230E+03  5.664996E+03 -1.526140E+03 -1.712468E+03
       255   7 -1.423823E+05 -4.065372E+04 -4.386019E+04  5.710444E+03 -4.886107E+03 -2.018287E+03
       255   8 -1.336492E+05 -3.478766E+04 -3.842362E+04 -1.643174E+03 -3.150292E+03 -2.046615E+03
       255   9 -1.262538E+05 -3.331395E+04 -3.521780E+04  5.017259E+03 -1.415993E+03 -1.712040E+03
       255  10  1.580504E+05  3.433691E+04  3.068404E+04  5.644246E+03 -1.614967E-09 -3.201284E-09
       255  11  1.506379E+05  3.617094E+04  3.207580E+04 -1.028269E+03 -6.993666E-10  9.774835E-10
       255  12  1.419157E+05  3.364092E+04  3.134599E+04  6.312854E+03  1.505181E-09  1.003336E-08
       255  13  7.823824E+03 -3.157563E+03 -6.587259E+03  5.677355E+03  1.048581E-09  1.033913E-08
       255  14  8.485191E+03  6.923947E+02 -3.173169E+03 -1.335750E+03  2.518924E-11 -2.901731E-08
       255  15  7.822780E+03  1.641585E+02 -1.935240E+03  5.664994E+03  1.469347E-09  1.021849E-08
       255  16 -1.423823E+05 -4.065373E+04 -4.386024E+04  5.710436E+03  1.083123E-09 -7.459640E-09
       255  17 -1.336492E+05 -3.478767E+04 -3.842365E+04 -1.643179E+03  1.804181E-09 -5.638978E-09
       255  18 -1.262538E+05 -3.331395E+04 -3.521781E+04  5.017257E+03  1.885035E-10 -8.940850E-10
       255  19  1.580504E+05  3.433692E+04  3.068409E+04  5.644254E+03  4.794288E+03  2.017879E+03
       255  20  1.506379E+05  3.617095E+04  3.207583E+04 -1.028264E+03  3.214521E+03  2.046805E+03
       255  21  1.419157E+05  3.364092E+04  3.134600E+04  6.312856E+03  1.636310E+03  1.712897E+03
       255  22  7.823851E+03 -3.157552E+03 -6.587208E+03  5.677362E+03  4.840203E+03  2.018083E+03
       255  23  8.485203E+03  6.924019E+02 -3.173142E+03 -1.335745E+03  3.182403E+03  2.046710E+03
       255  24  7.822783E+03  1.641622E+02 -1.935230E+03  5.664996E+03  1.526140E+03  1.712468E+03
       255  25 -1.423823E+05 -4.065372E+04 -4.386019E+04  5.710444E+03  4.886107E+03  2.018287E+03
       255  26 -1.336492E+05 -3.478766E+04 -3.842362E+04 -1.643174E+03  3.150292E+03  2.046615E+03
       255  27 -1.262538E+05 -3.331395E+04 -3.521780E+04  5.017259E+03  1.415993E+03  1.712040E+03
       256   1  1.039973E+05  2.352281E+04  2.223770E+04  5.907856E+03 -1.262974E+03 -1.485640E+03
       256   2  9.609160E+04  2.202741E+04  2.103207E+04 -1.059153E+03 -8.837426E+02 -1.237208E+03
       256   3  8.790175E+04  2.000797E+04  1.942723E+04  5.965666E+03 -5.048235E+02 -9.379655E+02
       256   4  8.056342E+03 -4.201366E+02 -1.537956E+03  5.665731E+03 -1.215014E+03 -1.485453E+03
       256   5  8.199038E+03  8.892596E+01 -7.665429E+02 -1.331282E+03 -8.248599E+02 -1.236965E+03
       256   6  8.055675E+03  7.203839E+01 -4.019415E+02  5.663658E+03 -4.350135E+02 -9.376634E+02
       256   7 -8.787621E+04 -2.436378E+04 -2.531430E+04  5.423635E+03 -1.167061E+03 -1.485267E+03
       256   8 -7.968651E+04 -2.185014E+04 -2.256573E+04 -1.603379E+03 -7.659855E+02 -1.236723E+03
       256   9 -7.178462E+04 -1.986438E+04 -2.023159E+04  5.361682E+03 -3.652124E+02 -9.373614E+02
       256  10  1.039973E+05  2.352281E+04  2.223769E+04  5.907854E+03  1.993854E-09 -4.315057E-09
       256  11  9.609159E+04  2.202741E+04  2.103207E+04 -1.059154E+03 -1.524726E-09 -9.834929E-09
       256  12  8.790175E+04  2.000797E+04  1.942723E+04  5.965666E+03  1.199571E-09 -6.990403E-09
       256  13  8.056340E+03 -4.201394E+02 -1.537963E+03  5.665730E+03  1.082635E-09 -3.448339E-09
       256  14  8.199037E+03  8.892413E+01 -7.665471E+02 -1.331282E+03  3.248525E-09 -4.407676E-09
       256  15  8.055675E+03  7.203740E+01 -4.019435E+02  5.663657E+03 -2.418224E-09 -6.763757E-09
       256  16 -8.787621E+04 -2.436378E+04 -2.531431E+04  5.423634E+03 -8.918020E-10 -9.703129E-09
       256  17 -7.968651E+04 -2.185014E+04 -2.256574E+04 -1.603380E+03  3.732997E-09  7.935877E-09
       256  18 -7.178462E+04 -1.986438E+04 -2.023159E+04  5.361681E+03 -4.525361E-10  9.299173E-09
       256  19  1.039973E+05  2.352281E+04  2.223770E+04  5.907856E+03  1.262974E+03  1.485640E+03
       256  20  9.609160E+04  2.202741E+04  2.103207E+04 -1.059153E+03  8.837426E+02  1.237208E+03
       256  21  8.790175E+04  2.000797E+04  1.942723E+04  5.965666E+03  5.048235E+02  9.379655E+02
       256  22  8.056342E+03 -4.201366E+02 -1.537956E+03  5.665731E+03  1.215014E+03  1.485453E+03
       256  23  8.199038E+03  8.892596E+01 -7.665429E+02 -1.331282E+03  8.248599E+02  1.236965E+03
       256  24  8.055675E+03  7.203839E+01 -4.019415E+02  5.663658E+03  4.350135E+02  9.376634E+02
       256  25 -8.787621E+04 -2.436378E+04 -2.531430E+04  5.423635E+03  1.167061E+03  1.485267E+03
       256  26 -7.968651E+04 -2.185014E+04 -2.256573E+04 -1.603379E+03  7.659855E+02  1.236723E+03
       256  27 -7.178462E+04 -1.986438E+04 -2.023159E+04  5.361682E+03  3.652124E+02  9.373614E+02
       257   1  4.982214E+04  1.039218E+04  1.005157E+04  5.797779E+03 -4.363026E+02 -7.593265E+02
       257   2  4.184741E+04  8.405299E+03  8.330282E+03 -1.214105E+03 -4.252229E+02 -4.728270E+02
       257   3  3.373853E+04  6.492957E+03  6.589338E+03  5.753345E+03 -4.142090E+02 -1.802016E+02
       257   4  8.090936E+03 -1.969743E+01 -2.745234E+02  5.661843E+03 -3.750733E+02 -7.590551E+02
       257   5  8.158025E+03 -4.198198E+00 -2.572546E+01 -1.328087E+03 -3.626729E+02 -4.725455E+02
       257   6  8.090680E+03  8.561710E+01  2.024965E+02  5.661366E+03 -3.503380E+02 -1.799096E+02
       257   7 -3.363869E+04 -1.043171E+04 -1.060074E+04  5.525913E+03 -3.138481E+02 -7.587838E+02
       257   8 -2.553033E+04 -8.413780E+03 -8.381817E+03 -1.442063E+03 -3.001262E+02 -4.722640E+02
       257   9 -1.755658E+04 -6.321772E+03 -6.184394E+03  5.569389E+03 -2.864697E+02 -1.796176E+02
       257  10  4.982214E+04  1.039218E+04  1.005156E+04  5.797779E+03  5.559389E-10 -1.245947E-08
       257  11  4.184741E+04  8.405298E+03  8.330281E+03 -1.214105E+03 -1.105432E-09  5.641254E-09
       257  12  3.373853E+04  6.492957E+03  6.589337E+03  5.753345E+03 -1.578362E-09 -3.713001E-10
       257  13  8.090936E+03 -1.969809E+01 -2.745248E+02  5.661842E+03  1.074610E-09  2.656237E-09
       257  14  8.158025E+03 -4.198473E+00 -2.572613E+01 -1.328087E+03  2.154549E-09 -6.307364E-09
       257  15  8.090680E+03  8.561703E+01  2.024962E+02  5.661366E+03  1.213952E-09 -8.304716E-09
       257  16 -3.363869E+04 -1.043171E+04 -1.060074E+04  5.525913E+03 -5.623720E-12  3.170928E-09
       257  17 -2.553033E+04 -8.413780E+03 -8.381818E+03 -1.442063E+03  1.658270E-09  1.291215E-08
       257  18 -1.755658E+04 -6.321772E+03 -6.184394E+03  5.569389E+03  1.786814E-09 -2.276782E-09
       257  19  4.982214E+04  1.039218E+04  1.005157E+04  5.797779E+03  4.363026E+02  7.593265E+02
       257  20  4.184741E+04  8.405299E+03  8.330282E+03 -1.214105E+03  4.252229E+02  4.728270E+02
       257  21  3.373853E+04  6.492957E+03  6.589338E+03  5.753345E+03  4.142090E+02  1.802016E+02
       257  22  8.090936E+03 -1.969743E+01 -2.745234E+02  5.661843E+03  3.750733E+02  7.590551E+02
       257  23  8.158025E+03 -4.198198E+00 -2.572546E+01 -1.328087E+03  3.626729E+02  4.725455E+02
       257  24  8.090680E+03  8.561710E+01  2.024965E+02  5.661366E+03  3.503380E+02  1.799096E+02
       257  25 -3.363869E+04 -1.043171E+04 -1.060074E+04  5.525913E+03  3.138481E+02  7.587838E+02
       257  26 -2.553033E+04 -8.413780E+03 -8.381817E+03 -1.442063E+03  3.001262E+02  4.722640E+02
       257  27 -1.755658E+04 -6.321772E+03 -6.184394E+03  5.569389E+03  2.864697E+02  1.796176E+02
       258   1 -4.330042E+03 -3.078135E+03 -2.787906E+03  5.636507E+03 -4.627462E+02 -7.938855E+00
       258   2 -1.236776E+04 -5.175861E+03 -4.422316E+03 -1.399989E+03 -7.951126E+02  2.830729E+02
       258   3 -2.041019E+04 -6.839963E+03 -5.764071E+03  5.541083E+03 -1.127421E+03  5.683784E+02
       258   4  8.119682E+03  3.449676E+01  3.253459E+02  5.661551E+03 -3.989519E+02 -7.646378E+00
       258   5  8.122101E+03 -6.101675E+01  6.599350E+02 -1.327767E+03 -7.325621E+02  2.833569E+02
       258   6  8.119842E+03  2.772768E+02  1.288007E+03  5.660452E+03 -1.066119E+03  5.686542E+02
       258   7  2.056955E+04  3.147117E+03  3.438587E+03  5.686597E+03 -3.351563E+02 -7.353898E+00
       258   8  2.861235E+04  5.053796E+03  5.742155E+03 -1.255543E+03 -6.700095E+02  2.836409E+02
       258   9  3.665062E+04  7.394456E+03  8.340025E+03  5.779825E+03 -1.004813E+03  5.689300E+02
       258  10 -4.330042E+03 -3.078135E+03 -2.787907E+03  5.636507E+03 -2.851349E-09 -4.875213E-10
       258  11 -1.236776E+04 -5.175861E+03 -4.422318E+03 -1.399988E+03  1.137443E-09 -7.931005E-09
       258  12 -2.041020E+04 -6.839964E+03 -5.764074E+03  5.541083E+03 -1.945058E-09 -7.148489E-09
       258  13  8.119682E+03  3.449672E+01  3.253456E+02  5.661551E+03  2.159254E-09  9.319827E-09
       258  14  8.122101E+03 -6.101698E+01  6.599338E+02 -1.327766E+03 -1.603101E-09  4.998315E-10
       258  15  8.119840E+03  2.772762E+02  1.288004E+03  5.660452E+03  1.751090E-09 -2.431961E-09
       258  16  2.056955E+04  3.147117E+03  3.438586E+03  5.686597E+03  3.432015E-09 -3.117122E-09
       258  17  2.861235E+04  5.053796E+03  5.742154E+03 -1.255543E+03 -2.069555E-10 -1.277201E-08
       258  18  3.665062E+04  7.394455E+03  8.340023E+03  5.779826E+03  2.110307E-09 -6.203068E-09
       258  19 -4.330042E+03 -3.078135E+03 -2.787906E+03  5.636507E+03  4.627462E+02  7.938855E+00
       258  20 -1.236776E+04 -5.175861E+03 -4.422316E+03 -1.399989E+03  7.951126E+02 -2.830729E+02
       258  21 -2.041019E+04 -6.839963E+03 -5.764071E+03  5.541083E+03  1.127421E+03 -5.683784E+02
       258  22  8.119682E+03  3.449676E+01  3.253459E+02  5.661551E+03  3.989519E+02  7.646378E+00
       258  23  8.122101E+03 -6.101675E+01  6.599350E+02 -1.327767E+03  7.325621E+02 -2.833569E+02
       258  24  8.119842E+03  2.772768E+02  1.288007E+03  5.660452E+03  1.066119E+03 -5.686542E+02
       258  25  2.056955E+04  3.147117E+03  3.438587E+03  5.686597E+03  3.351563E+02  7.353898E+00
       258  26  2.861235E+04  5.053796E+03  5.742155E+03 -1.255543E+03  6.700095E+02 -2.836409E+02
       258  27  3.665062E+04  7.394456E+03  8.340025E+03  5.779825E+03  1.004813E+03 -5.689300E+02
       259   1 -5.836815E+04 -1.664255E+04 -1.488621E+04  5.561026E+03 -1.403446E+03  7.450701E+02
       259   2 -6.674350E+04 -1.901299E+04 -1.571553E+04 -1.614542E+03 -2.828057E+03  1.036345E+03
       259   3 -7.445711E+04 -1.900148E+04 -1.504644E+04  5.188200E+03 -4.252385E+03  1.280111E+03
       259   4  8.267084E+03 -4.461839E+00  1.667420E+03  5.663720E+03 -1.334133E+03  7.453764E+02
       259   5  7.935633E+03 -3.702405E+02  2.807791E+03 -1.328925E+03 -2.769159E+03  1.036595E+03
       259   6  8.267680E+03  1.647626E+03  5.453696E+03  5.656636E+03 -4.203920E+03  1.280306E+03
       259   7  7.490635E+04  1.663329E+04  1.822072E+04  5.766420E+03 -1.264813E+03  7.456826E+02
       259   8  8.261983E+04  1.827209E+04  2.133069E+04 -1.043279E+03 -2.710254E+03  1.036845E+03
       259   9  9.099869E+04  2.229622E+04  2.595332E+04  6.125127E+03 -4.155448E+03  1.280501E+03
       259  10 -5.836816E+04 -1.664255E+04 -1.488622E+04  5.561027E+03 -3.759891E-09 -1.303696E-09
       259  11 -6.674351E+04 -1.901300E+04 -1.571555E+04 -1.614539E+03 -1.049269E-09 -8.129132E-09
       259  12 -7.445713E+04 -1.900148E+04 -1.504648E+04  5.188205E+03  2.770633E-09 -9.604054E-10
       259  13  8.267082E+03 -4.462913E+00  1.667415E+03  5.663721E+03 -1.065740E-09 -2.375810E-09
       259  14  7.935624E+03 -3.702437E+02  2.807774E+03 -1.328923E+03 -1.161521E-11  4.744376E-09
       259  15  8.267661E+03  1.647619E+03  5.453659E+03  5.656640E+03 -7.139363E-10  1.101328E-08
       259  16  7.490635E+04  1.663329E+04  1.822072E+04  5.766421E+03  4.890975E-09  1.029307E-08
       259  17  8.261982E+04  1.827209E+04  2.133068E+04 -1.043277E+03  8.539561E-10  1.238783E-09
       259  18  9.099867E+04  2.229621E+04  2.595329E+04  6.125132E+03 -1.533924E-09  1.547489E-08
       259  19 -5.836815E+04 -1.664255E+04 -1.488621E+04  5.561026E+03  1.403446E+03 -7.450701E+02
       259  20 -6.674350E+04 -1.901299E+04 -1.571553E+04 -1.614542E+03  2.828057E+03 -1.036345E+03
       259  21 -7.445711E+04 -1.900148E+04 -1.504644E+04  5.188200E+03  4.252385E+03 -1.280111E+03
       259  22  8.267084E+03 -4.461839E+00  1.667420E+03  5.663720E+03  1.334133E+03 -7.453764E+02
       259  23  7.935633E+03 -3.702405E+02  2.807791E+03 -1.328925E+03  2.769159E+03 -1.036595E+03
       259  24  8.267680E+03  1.647626E+03  5.453696E+03  5.656636E+03  4.203920E+03 -1.280306E+03
       259  25  7.490635E+04  1.663329E+04  1.822072E+04  5.766420E+03  1.264813E+03 -7.456826E+02
       259  26  8.261983E+04  1.827209E+04  2.133069E+04 -1.043279E+03  2.710254E+03 -1.036845E+03
       259  27  9.099869E+04  2.229622E+04  2.595332E+04  6.125127E+03  4.155448E+03 -1.280501E+03
       260   1 -1.117109E+05 -3.051913E+04 -2.315801E+04  6.104794E+03 -5.420916E+03  1.498079E+03
       260   2 -1.220848E+05 -3.466806E+04 -2.088967E+04 -2.090357E+03 -1.114449E+04  1.802050E+03
       260   3 -1.278064E+05 -2.303420E+04 -1.095700E+04  3.673972E+03 -1.686655E+04  1.767085E+03
       260   4  9.154017E+03 -3.503156E+02  6.844857E+03  5.672322E+03 -5.314231E+03  1.498515E+03
       260   5  6.822539E+03 -2.485182E+03  1.108072E+04 -1.329534E+03 -1.111207E+04  1.802149E+03
       260   6  9.155227E+03  1.117387E+04  2.303135E+04  5.627896E+03 -1.690847E+04  1.766856E+03
       260   7  1.300322E+05  2.981741E+04  3.684663E+04  5.239752E+03 -5.207525E+03  1.498951E+03
       260   8  1.357450E+05  2.969646E+04  4.304988E+04 -5.685677E+02 -1.107964E+04  1.802248E+03
       260   9  1.461339E+05  4.538054E+04  5.701831E+04  7.582235E+03 -1.695040E+04  1.766627E+03
       260  10 -1.117109E+05 -3.051914E+04 -2.315807E+04  6.104800E+03  4.730191E-09  3.566319E-09
       260  11 -1.220850E+05 -3.466810E+04 -2.088991E+04 -2.090341E+03 -1.607417E-09  1.138604E-08
       260  12 -1.278067E+05 -2.303428E+04 -1.095754E+04  3.673996E+03 -3.887731E-09 -5.747825E-09
       260  13  9.153986E+03 -3.503256E+02  6.844800E+03  5.672329E+03  1.083925E-09 -8.321937E-09
       260  14  6.822406E+03 -2.485219E+03  1.108049E+04 -1.329518E+03 -2.682379E-09  2.242575E-09
       260  15  9.154919E+03  1.117379E+04  2.303081E+04  5.627920E+03  2.682534E-10  3.161688E-09
       260  16  1.300321E+05  2.981740E+04  3.684657E+04  5.239759E+03 -5.864487E-09 -1.862603E-09
       260  17  1.357449E+05  2.969642E+04  4.304965E+04 -5.685517E+02  2.535847E-09 -2.313976E-08
       260  18  1.461336E+05  4.538046E+04  5.701777E+04  7.582259E+03  1.759773E-09  5.182986E-09
       260  19 -1.117109E+05 -3.051913E+04 -2.315801E+04  6.104794E+03  5.420916E+03 -1.498079E+03
       260  20 -1.220848E+05 -3.466806E+04 -2.088967E+04 -2.090357E+03  1.114449E+04 -1.802050E+03
       260  21 -1.278064E+05 -2.303420E+04 -1.095700E+04  3.673972E+03  1.686655E+04 -1.767085E+03
       260  22  9.154017E+03 -3.503156E+02  6.844857E+03  5.672322E+03  5.314231E+03 -1.498515E+03
       260  23  6.822539E+03 -2.485182E+03  1.108072E+04 -1.329534E+03  1.111207E+04 -1.802149E+03
       260  24  9.155227E+03  1.117387E+04  2.303135E+04  5.627896E+03  1.690847E+04 -1.766856E+03
       260  25  1.300322E+05  2.981741E+04  3.684663E+04  5.239752E+03  5.207525E+03 -1.498951E+03
       260  26  1.357450E+05  2.969646E+04  4.304988E+04 -5.685677E+02  1.107964E+04 -1.802248E+03
       260  27  1.461339E+05  4.538054E+04  5.701831E+04  7.582235E+03  1.695040E+04 -1.766627E+03
       261   1 -1.603676E+05 -4.646362E+04 -1.556700E+04  1.069267E+04 -2.185795E+04  2.289442E+03
       261   2 -1.834316E+05 -6.274325E+04 -2.646504E+03 -4.719180E+03 -4.466868E+04  2.743197E+03
       261   3 -1.764429E+05  2.894875E+04  5.214052E+04 -6.355295E+03 -6.747058E+04  7.905300E+02
       261   4  1.481108E+04 -2.780187E+03  2.788801E+04  5.705247E+03 -2.148620E+04  2.290972E+03
       261   5 -2.546003E+02 -1.699776E+04  4.275013E+04 -1.310869E+03 -4.482276E+04  2.742401E+03
       261   6  1.481465E+04  7.683036E+04  9.983499E+04  5.448462E+03 -6.815082E+04  7.871032E+02
       261   7  1.900177E+05  4.090105E+04  7.134074E+04  7.163929E+02 -2.111433E+04  2.292495E+03
       261   8  1.829529E+05  2.874525E+04  8.814427E+04  2.098423E+03 -4.497690E+04  2.741603E+03
       261   9  2.061056E+05  1.247097E+05  1.475268E+05  1.725583E+04 -6.883128E+04  7.836512E+02
       261  10 -1.603681E+05 -4.646376E+04 -1.556791E+04  1.069271E+04  2.725011E-09 -6.790838E-09
       261  11 -1.834338E+05 -6.274380E+04 -2.650268E+03 -4.719082E+03  3.678117E-09 -2.284370E-09
       261  12 -1.764477E+05  2.894753E+04  5.213196E+04 -6.355252E+03  1.623360E-09  7.702350E-09
       261  13  1.481059E+04 -2.780316E+03  2.788713E+04  5.705287E+03 -1.102797E-09  1.812556E-09
       261  14 -2.567596E+02 -1.699831E+04  4.274634E+04 -1.310770E+03 -5.401690E-10  2.005355E-09
       261  15  1.480966E+04  7.682911E+04  9.982626E+04  5.448505E+03 -1.158969E-10  2.890549E-09
       261  16  1.900172E+05  4.090093E+04  7.133990E+04  7.164318E+02 -3.893596E-09  1.640931E-08
       261  17  1.829507E+05  2.874470E+04  8.814046E+04  2.098523E+03 -1.046999E-09  9.745441E-09
       261  18  2.061005E+05  1.247084E+05  1.475179E+05  1.725587E+04 -1.310131E-09 -3.427231E-09
       261  19 -1.603676E+05 -4.646362E+04 -1.556700E+04  1.069267E+04  2.185795E+04 -2.289442E+03
       261  20 -1.834316E+05 -6.274325E+04 -2.646504E+03 -4.719180E+03  4.466868E+04 -2.743197E+03
       261  21 -1.764429E+05  2.894875E+04  5.214052E+04 -6.355295E+03  6.747058E+04 -7.905300E+02
       261  22  1.481108E+04 -2.780187E+03  2.788801E+04  5.705247E+03  2.148620E+04 -2.290972E+03
       261  23 -2.546003E+02 -1.699776E+04  4.275013E+04 -1.310869E+03  4.482276E+04 -2.742401E+03
       261  24  1.481465E+04  7.683036E+04  9.983499E+04  5.448462E+03  6.815082E+04 -7.871032E+02
       261  25  1.900177E+05  4.090105E+04  7.134074E+04  7.163929E+02  2.111433E+04 -2.292495E+03
       261  26  1.829529E+05  2.874525E+04  8.814427E+04  2.098423E+03  4.497690E+04 -2.741603E+03
       261  27  2.061056E+05  1.247097E+05  1.475268E+05  1.725583E+04  6.883128E+04 -7.836512E+02
       262   1 -2.585593E+05 -1.227233E+06 -3.007421E+05  7.873466E+04 -3.161984E+03 -1.339027E+05
       262   2 -6.150073E+04 -1.132155E+06 -1.746327E+05  1.879731E+04 -9.655589E+03 -8.245396E+04
       262   3 -6.651208E+04 -1.093727E+06 -1.324737E+05  1.984664E+04 -7.186619E+03 -3.097617E+04
       262   4 -1.529400E+05 -8.056474E+05 -1.960961E+05  3.725633E+04 -3.165126E+03 -1.295420E+05
       262   5  2.677577E+04 -7.776215E+05 -8.850566E+04  6.976841E+03 -9.655603E+03 -8.171670E+04
       262   6  5.112610E+03 -8.055846E+05 -6.230715E+04  3.768688E+04 -7.180837E+03 -3.386819E+04
       262   7 -4.732780E+04 -3.838968E+05 -9.146249E+04 -4.250135E+03 -3.168853E+03 -1.251783E+05
       262   8  1.150435E+05 -4.229730E+05 -2.387661E+03 -4.850336E+03 -9.655646E+03 -8.097901E+04
       262   9  7.673241E+04 -5.173653E+05  7.853573E+03  5.553547E+04 -7.175222E+03 -3.676155E+04
       262  10 -2.585641E+05 -1.227252E+06 -3.007758E+05  7.873432E+04  1.629699E-09  3.798323E-09
       262  11 -6.150266E+04 -1.132162E+06 -1.746457E+05  1.879667E+04  2.415963E-09  4.742938E-09
       262  12 -6.651239E+04 -1.093728E+06 -1.324756E+05  1.984646E+04 -3.368760E-10  3.075275E-09
       262  13 -1.529446E+05 -8.056655E+05 -1.961277E+05  3.725600E+04  2.687559E-09  5.121362E-09
       262  14  2.677388E+04 -7.776287E+05 -8.851840E+04  6.976205E+03  3.142694E-09  1.223224E-08
       262  15  5.112246E+03 -8.055859E+05 -6.230940E+04  3.768669E+04  1.313453E-09 -8.681950E-10
       262  16 -4.733202E+04 -3.839136E+05 -9.149198E+04 -4.250455E+03  2.571745E-09 -6.341434E-10
       262  17  1.150417E+05 -4.229801E+05 -2.400168E+03 -4.850966E+03  3.004281E-09 -6.174269E-09
       262  18  7.673199E+04 -5.173668E+05  7.850935E+03  5.553526E+04 -7.168410E-10 -2.323661E-09
       262  19 -2.585593E+05 -1.227233E+06 -3.007421E+05  7.873466E+04  3.161984E+03  1.339027E+05
       262  20 -6.150073E+04 -1.132155E+06 -1.746327E+05  1.879731E+04  9.655589E+03  8.245396E+04
       262  21 -6.651208E+04 -1.093727E+06 -1.324737E+05  1.984664E+04  7.186619E+03  3.097617E+04
       262  22 -1.529400E+05 -8.056474E+05 -1.960961E+05  3.725633E+04  3.165126E+03  1.295420E+05
       262  23  2.677577E+04 -7.776215E+05 -8.850566E+04  6.976841E+03  9.655603E+03  8.171670E+04
       262  24  5.112610E+03 -8.055846E+05 -6.230715E+04  3.768688E+04  7.180837E+03  3.386819E+04
       262  25 -4.732780E+04 -3.838968E+05 -9.146249E+04 -4.250135E+03  3.168853E+03  1.251783E+05
       262  26  1.150435E+05 -4.229730E+05 -2.387661E+03 -4.850336E+03  9.655646E+03  8.097901E+04
       262  27  7.673241E+04 -5.173653E+05  7.853573E+03  5.553547E+04  7.175222E+03  3.676155E+04
       263   1 -6.002649E+04 -9.660837E+05 -9.660019E+04  4.460068E+04 -4.336786E+03 -2.296593E+04
       263   2 -1.933192E+04 -8.913452E+05 -6.580115E+04  6.915684E+03 -2.662833E+03 -1.658016E+03
       263   3 -2.405709E+04 -8.303898E+05 -6.017209E+04  3.171129E+04 -6.267854E+02  1.965244E+04
       263   4 -1.771045E+04 -7.961983E+05 -5.524354E+04  3.786913E+04 -4.335119E+03 -2.359667E+04
       263   5  6.058437E+03 -7.893170E+05 -4.097772E+04  6.631984E+03 -2.661186E+03 -2.432238E+03
       263   6 -1.556301E+04 -7.961956E+05 -5.177809E+04  3.787550E+04 -6.247563E+02  1.873244E+04
       263   7  2.460363E+04 -6.262863E+05 -1.388897E+04  3.113575E+04 -4.333438E+03 -2.422759E+04
       263   8  3.144802E+04 -6.872793E+05 -1.615504E+04  6.348243E+03 -2.659538E+03 -3.206587E+03
       263   9 -7.068867E+03 -7.620004E+05 -4.338416E+04  4.404005E+04 -6.227457E+02  1.781239E+04
       263  10 -6.002665E+04 -9.660843E+05 -9.660122E+04  4.460060E+04 -2.427935E-09  8.620502E-09
       263  11 -1.933192E+04 -8.913452E+05 -6.580117E+04  6.915681E+03 -3.391511E-11  4.903863E-09
       263  12 -2.405719E+04 -8.303902E+05 -6.017282E+04  3.171130E+04  4.447940E-10  2.480639E-10
       263  13 -1.771062E+04 -7.961989E+05 -5.524463E+04  3.786905E+04 -4.947619E-10  4.769979E-09
       263  14  6.058428E+03 -7.893170E+05 -4.097775E+04  6.631979E+03 -1.893159E-09  1.127754E-08
       263  15 -1.556310E+04 -7.961960E+05 -5.177876E+04  3.787551E+04 -7.310834E-10  2.970965E-10
       263  16  2.460346E+04 -6.262870E+05 -1.389011E+04  3.113567E+04 -8.684004E-10 -5.776214E-09
       263  17  3.144801E+04 -6.872793E+05 -1.615507E+04  6.348236E+03 -2.238487E-09 -5.316040E-09
       263  18 -7.068952E+03 -7.620007E+05 -4.338476E+04  4.404006E+04 -2.548104E-09  1.672882E-09
       263  19 -6.002649E+04 -9.660837E+05 -9.660019E+04  4.460068E+04  4.336786E+03  2.296593E+04
       263  20 -1.933192E+04 -8.913452E+05 -6.580115E+04  6.915684E+03  2.662833E+03  1.658016E+03
       263  21 -2.405709E+04 -8.303898E+05 -6.017209E+04  3.171129E+04  6.267854E+02 -1.965244E+04
       263  22 -1.771045E+04 -7.961983E+05 -5.524354E+04  3.786913E+04  4.335119E+03  2.359667E+04
       263  23  6.058437E+03 -7.893170E+05 -4.097772E+04  6.631984E+03  2.661186E+03  2.432238E+03
       263  24 -1.556301E+04 -7.961956E+05 -5.177809E+04  3.787550E+04  6.247563E+02 -1.873244E+04
       263  25  2.460363E+04 -6.262863E+05 -1.388897E+04  3.113575E+04  4.333438E+03  2.422759E+04
       263  26  3.144802E+04 -6.872793E+05 -1.615504E+04  6.348243E+03  2.659538E+03  3.206587E+03
       263  27 -7.068867E+03 -7.620004E+05 -4.338416E+04  4.404005E+04  6.227457E+02 -1.781239E+04
       264   1  2.514674E+04 -7.194088E+05 -3.670306E+04  5.415048E+04  1.734068E+03  3.037311E+04
       264   2  6.186299E+04 -6.268466E+05 -4.261185E+04 -3.445305E+03  4.185559E+03  7.128018E+04
       264   3 -8.073693E+04 -5.840658E+05 -1.199143E+05  1.012904E+03  1.471626E+03  1.121808E+05
       264   4  4.089074E+03 -8.042761E+05 -5.744512E+04  3.788870E+04  1.737462E+03  2.828276E+04
       264   5  2.391753E+04 -7.792188E+05 -7.959389E+04  6.704442E+03  4.186757E+03  7.128489E+04
       264   6 -1.359615E+05 -8.043293E+05 -1.746076E+05  3.757653E+04  1.473546E+03  1.142760E+05
       264   7 -1.696812E+04 -8.891363E+05 -7.818755E+04  2.162916E+04  1.740966E+03  2.619270E+04
       264   8 -1.402925E+04 -9.315695E+05 -1.165776E+05  1.685170E+04  4.187955E+03  7.128959E+04
       264   9 -1.911848E+05 -1.024546E+06 -2.293039E+05  7.412719E+04  1.475715E+03  1.163704E+05
       264  10  2.514649E+04 -7.194097E+05 -3.670480E+04  5.415043E+04  1.136383E-09  2.023850E-09
       264  11  6.186160E+04 -6.268521E+05 -4.262144E+04 -3.445546E+03  1.870232E-09  4.098002E-09
       264  12 -8.074032E+04 -5.840794E+05 -1.199379E+05  1.012771E+03  4.657280E-10  3.091632E-09
       264  13  4.088856E+03 -8.042769E+05 -5.744663E+04  3.788866E+04 -3.710082E-11  6.698648E-09
       264  14  2.391614E+04 -7.792243E+05 -7.960348E+04  6.704201E+03  4.376078E-10  1.339309E-08
       264  15 -1.359650E+05 -8.043434E+05 -1.746322E+05  3.757640E+04  1.256773E-09  1.391077E-09
       264  16 -1.696831E+04 -8.891370E+05 -7.818885E+04  2.162912E+04 -3.678579E-09  5.084348E-11
       264  17 -1.403064E+04 -9.315750E+05 -1.165872E+05  1.685146E+04  1.193680E-09 -3.238009E-09
       264  18 -1.911884E+05 -1.024560E+06 -2.293294E+05  7.412705E+04  2.855475E-09 -1.169540E-09
       264  19  2.514674E+04 -7.194088E+05 -3.670306E+04  5.415048E+04 -1.734068E+03 -3.037311E+04
       264  20  6.186299E+04 -6.268466E+05 -4.261185E+04 -3.445305E+03 -4.185559E+03 -7.128018E+04
       264  21 -8.073693E+04 -5.840658E+05 -1.199143E+05  1.012904E+03 -1.471626E+03 -1.121808E+05
       264  22  4.089074E+03 -8.042761E+05 -5.744512E+04  3.788870E+04 -1.737462E+03 -2.828276E+04
       264  23  2.391753E+04 -7.792188E+05 -7.959389E+04  6.704442E+03 -4.186757E+03 -7.128489E+04
       264  24 -1.359615E+05 -8.043293E+05 -1.746076E+05  3.757653E+04 -1.473546E+03 -1.142760E+05
       264  25 -1.696812E+04 -8.891363E+05 -7.818755E+04  2.162916E+04 -1.740966E+03 -2.619270E+04
       264  26 -1.402925E+04 -9.315695E+05 -1.165776E+05  1.685170E+04 -4.187955E+03 -7.128959E+04
       264  27 -1.911848E+05 -1.024546E+06 -2.293039E+05  7.412719E+04 -1.475715E+03 -1.163704E+05
       265   1  1.112209E+06  3.727006E+05  2.440232E+05  3.868543E+05  1.090394E+05  3.830387E+04
       265   2  1.073429E+06  2.038554E+05  1.396825E+05  3.978205E+05  7.105228E+04  1.819103E+04
       265   3  1.083916E+06  2.064286E+05  1.079120E+05  3.852255E+05  3.078986E+04  4.093036E+03
       265   4  8.459153E+05  2.422443E+05  1.654642E+05  2.836573E+05  1.059374E+05  3.712344E+04
       265   5  8.130047E+05  9.726949E+04  6.843281E+04  3.179650E+05  7.026625E+04  1.789199E+04
       265   6  8.289281E+05  1.232932E+05  4.216141E+04  3.287050E+05  3.231854E+04  4.672904E+03
       265   7  5.796934E+05  1.118084E+05  8.689895E+04  1.805056E+05  1.028370E+05  3.594394E+04
       265   8  5.526466E+05 -9.308846E+03 -2.822976E+03  2.381410E+05  6.948059E+04  1.759311E+04
       265   9  5.740022E+05  4.015780E+04 -2.359462E+04  2.722034E+05  3.384652E+04  5.252594E+03
       265  10  1.112196E+06  3.726958E+05  2.439981E+05  3.868510E+05 -2.716166E-11 -8.126166E-09
       265  11  1.073423E+06  2.038537E+05  1.396725E+05  3.978195E+05 -3.486335E-09 -4.098357E-09
       265  12  1.083915E+06  2.064283E+05  1.079102E+05  3.852254E+05  2.545139E-09  8.122961E-10
       265  13  8.459029E+05  2.422398E+05  1.654406E+05  2.836542E+05  1.301109E-10 -8.693720E-09
       265  14  8.129993E+05  9.726782E+04  6.842294E+04  3.179640E+05 -1.081625E-09  6.435147E-09
       265  15  8.289270E+05  1.232929E+05  4.215941E+04  3.287049E+05  6.718441E-10  2.086325E-09
       265  16  5.796817E+05  1.118042E+05  8.687667E+04  1.805026E+05  1.485844E-09 -1.538422E-09
       265  17  5.526413E+05 -9.310473E+03 -2.832619E+03  2.381400E+05  2.492443E-10  3.417705E-09
       265  18  5.740010E+05  4.015746E+04 -2.359682E+04  2.722033E+05 -2.547449E-09 -6.343120E-09
       265  19  1.112209E+06  3.727006E+05  2.440232E+05  3.868543E+05 -1.090394E+05 -3.830387E+04
       265  20  1.073429E+06  2.038554E+05  1.396825E+05  3.978205E+05 -7.105228E+04 -1.819103E+04
       265  21  1.083916E+06  2.064286E+05  1.079120E+05  3.852255E+05 -3.078986E+04 -4.093036E+03
       265  22  8.459153E+05  2.422443E+05  1.654642E+05  2.836573E+05 -1.059374E+05 -3.712344E+04
       265  23  8.130047E+05  9.726949E+04  6.843281E+04  3.179650E+05 -7.026625E+04 -1.789199E+04
       265  24  8.289281E+05  1.232932E+05  4.216141E+04  3.287050E+05 -3.231854E+04 -4.672904E+03
       265  25  5.796934E+05  1.118084E+05  8.689895E+04  1.805056E+05 -1.028370E+05 -3.594394E+04
       265  26  5.526466E+05 -9.308846E+03 -2.822976E+03  2.381410E+05 -6.948059E+04 -1.759311E+04
       265  27  5.740022E+05  4.015780E+04 -2.359462E+04  2.722034E+05 -3.384652E+04 -5.252594E+03
       266   1  1.027695E+06  2.217676E+05  8.991062E+04  3.776947E+05  2.567905E+04  3.735927E+03
       266   2  1.011603E+06  1.883349E+05  6.622255E+04  3.673689E+05  1.689219E+04  6.592547E+02
       266   3  9.898211E+05  1.885130E+05  5.432335E+04  3.682354E+05  7.885890E+03 -1.838558E+03
       266   4  8.237327E+05  1.411345E+05  3.447699E+04  3.181041E+05  2.564786E+04  3.723798E+03
       266   5  8.255514E+05  1.170314E+05  1.617068E+04  3.152849E+05  1.708516E+04  7.322936E+02
       266   6  8.216382E+05  1.264985E+05  9.478708E+03  3.236574E+05  8.302716E+03 -1.680455E+03
       266   7  6.198105E+05  6.050497E+04 -2.096040E+04  2.585315E+05  2.561668E+04  3.711672E+03
       266   8  6.395335E+05  4.573034E+04 -3.388420E+04  2.632151E+05  1.727806E+04  8.053073E+02
       266   9  6.534828E+05  6.448548E+04 -3.536829E+04  2.790902E+05  8.719416E+03 -1.522398E+03
       266  10  1.027694E+06  2.217674E+05  8.990936E+04  3.776946E+05  5.113673E-09  1.036885E-08
       266  11  1.011603E+06  1.883348E+05  6.622201E+04  3.673689E+05  4.500517E-09  1.552482E-08
       266  12  9.898211E+05  1.885129E+05  5.432323E+04  3.682354E+05  3.835000E-09  6.641484E-10
       266  13  8.237320E+05  1.411343E+05  3.447573E+04  3.181040E+05 -1.682493E-09  8.124425E-10
       266  14  8.255511E+05  1.170313E+05  1.617013E+04  3.152849E+05  2.762490E-09  2.044329E-08
       266  15  8.216381E+05  1.264984E+05  9.478573E+03  3.236574E+05  3.513424E-09 -3.793722E-10
       266  16  6.198098E+05  6.050478E+04 -2.096165E+04  2.585314E+05 -4.993671E-09 -2.990782E-09
       266  17  6.395332E+05  4.573026E+04 -3.388476E+04  2.632151E+05 -5.965008E-09 -9.355677E-09
       266  18  6.534827E+05  6.448546E+04 -3.536844E+04  2.790903E+05  4.672030E-09  2.274452E-09
       266  19  1.027695E+06  2.217676E+05  8.991062E+04  3.776947E+05 -2.567905E+04 -3.735927E+03
       266  20  1.011603E+06  1.883349E+05  6.622255E+04  3.673689E+05 -1.689219E+04 -6.592547E+02
       266  21  9.898211E+05  1.885130E+05  5.432335E+04  3.682354E+05 -7.885890E+03  1.838558E+03
       266  22  8.237327E+05  1.411345E+05  3.447699E+04  3.181041E+05 -2.564786E+04 -3.723798E+03
       266  23  8.255514E+05  1.170314E+05  1.617068E+04  3.152849E+05 -1.708516E+04 -7.322936E+02
       266  24  8.216382E+05  1.264985E+05  9.478708E+03  3.236574E+05 -8.302716E+03  1.680455E+03
       266  25  6.198105E+05  6.050497E+04 -2.096040E+04  2.585315E+05 -2.561668E+04 -3.711672E+03
       266  26  6.395335E+05  4.573034E+04 -3.388420E+04  2.632151E+05 -1.727806E+04 -8.053073E+02
       266  27  6.534828E+05  6.448548E+04 -3.536829E+04  2.790902E+05 -8.719416E+03  1.522398E+03
       267   1  9.509787E+05  1.781272E+05  4.233876E+04  3.583656E+05  6.453633E+03 -1.763384E+03
       267   2  9.384344E+05  1.619261E+05  3.368934E+04  3.459057E+05  4.220741E+03 -1.798572E+03
       267   3  9.134990E+05  1.617052E+05  2.715785E+04  3.481967E+05  1.970464E+03 -1.788576E+03
       267   4  8.210153E+05  1.285362E+05  7.465087E+03  3.221937E+05  6.715809E+03 -1.663940E+03
       267   5  8.270858E+05  1.196615E+05  3.805215E+03  3.151549E+05  4.500619E+03 -1.692357E+03
       267   6  8.207618E+05  1.267642E+05  2.249746E+03  3.228671E+05  2.267980E+03 -1.675610E+03
       267   7  6.910678E+05  7.894615E+04 -2.741016E+04  2.860285E+05  6.977925E+03 -1.564519E+03
       267   8  7.157489E+05  7.739772E+04 -2.608004E+04  2.844090E+05  4.780443E+03 -1.586163E+03
       267   9  7.280328E+05  9.182367E+04 -2.265912E+04  2.975408E+05  2.565448E+03 -1.562663E+03
       267  10  9.509787E+05  1.781271E+05  4.233868E+04  3.583656E+05 -3.126142E-09 -7.388923E-09
       267  11  9.384344E+05  1.619261E+05  3.368930E+04  3.459058E+05 -1.060478E-09  5.071059E-09
       267  12  9.134990E+05  1.617052E+05  2.715784E+04  3.481967E+05 -7.775999E-10  6.258607E-09
       267  13  8.210152E+05  1.285361E+05  7.464997E+03  3.221937E+05  2.279760E-09 -1.494167E-09
       267  14  8.270857E+05  1.196615E+05  3.805171E+03  3.151549E+05 -9.228613E-10  6.761475E-09
       267  15  8.207618E+05  1.267642E+05  2.249731E+03  3.228671E+05 -1.630888E-09 -1.576052E-09
       267  16  6.910677E+05  7.894614E+04 -2.741026E+04  2.860285E+05  7.493786E-09  3.208363E-10
       267  17  7.157489E+05  7.739771E+04 -2.608008E+04  2.844090E+05 -6.450360E-09  1.162604E-08
       267  18  7.280328E+05  9.182367E+04 -2.265914E+04  2.975408E+05 -2.962746E-09 -2.066750E-09
       267  19  9.509787E+05  1.781272E+05  4.233876E+04  3.583656E+05 -6.453633E+03  1.763384E+03
       267  20  9.384344E+05  1.619261E+05  3.368934E+04  3.459057E+05 -4.220741E+03  1.798572E+03
       267  21  9.134990E+05  1.617052E+05  2.715785E+04  3.481967E+05 -1.970464E+03  1.788576E+03
       267  22  8.210153E+05  1.285362E+05  7.465087E+03  3.221937E+05 -6.715809E+03  1.663940E+03
       267  23  8.270858E+05  1.196615E+05  3.805215E+03  3.151549E+05 -4.500619E+03  1.692357E+03
       267  24  8.207618E+05  1.267642E+05  2.249746E+03  3.228671E+05 -2.267980E+03  1.675610E+03
       267  25  6.910678E+05  7.894615E+04 -2.741016E+04  2.860285E+05 -6.977925E+03  1.564519E+03
       267  26  7.157489E+05  7.739772E+04 -2.608004E+04  2.844090E+05 -4.780443E+03  1.586163E+03
       267  27  7.280328E+05  9.182367E+04 -2.265912E+04  2.975408E+05 -2.565448E+03  1.562663E+03
       268   1  8.778563E+05  1.486249E+05  1.706184E+04  3.384151E+05  1.483550E+03 -1.465943E+03
       268   2  8.660228E+05  1.347640E+05  1.155604E+04  3.259206E+05  6.244529E+02 -9.458237E+02
       268   3  8.411412E+05  1.345022E+05  6.572611E+03  3.282913E+05 -2.348009E+02 -4.254620E+02
       268   4  8.207199E+05  1.269427E+05  1.795664E+03  3.226247E+05  1.766364E+03 -1.358536E+03
       268   5  8.272318E+05  1.200565E+05  1.147566E+03  3.152251E+05  9.074093E+02 -8.383470E+02
       268   6  8.206952E+05  1.267693E+05  1.021801E+03  3.226907E+05  4.827732E+01 -3.179205E+02
       268   7  7.635867E+05  1.052608E+05 -1.347076E+04  3.068357E+05  2.049149E+03 -1.251141E+03
       268   8  7.884422E+05  1.053491E+05 -9.261040E+03  3.045302E+05  1.190346E+03 -7.308776E+02
       268   9  8.002496E+05  1.190365E+05 -4.529058E+03  3.170904E+05  3.313459E+02 -2.103826E+02
       268  10  8.778563E+05  1.486249E+05  1.706183E+04  3.384151E+05 -6.381629E-09  6.118418E-10
       268  11  8.660228E+05  1.347640E+05  1.155604E+04  3.259206E+05 -2.828014E-09  6.955823E-09
       268  12  8.411412E+05  1.345022E+05  6.572611E+03  3.282913E+05  5.569503E-09  5.313647E-10
       268  13  8.207199E+05  1.269427E+05  1.795655E+03  3.226247E+05 -5.947180E-10  1.773056E-09
       268  14  8.272318E+05  1.200565E+05  1.147563E+03  3.152251E+05 -1.533266E-09  1.052397E-08
       268  15  8.206952E+05  1.267693E+05  1.021801E+03  3.226907E+05  3.530946E-10 -4.424361E-09
       268  16  7.635867E+05  1.052608E+05 -1.347077E+04  3.068357E+05  2.154639E-09 -1.016387E-08
       268  17  7.884422E+05  1.053491E+05 -9.261044E+03  3.045302E+05  9.023035E-10 -5.295116E-09
       268  18  8.002496E+05  1.190365E+05 -4.529058E+03  3.170904E+05 -2.096227E-09  6.757873E-09
       268  19  8.778563E+05  1.486249E+05  1.706184E+04  3.384151E+05 -1.483550E+03  1.465943E+03
       268  20  8.660228E+05  1.347640E+05  1.155604E+04  3.259206E+05 -6.244529E+02  9.458237E+02
       268  21  8.411412E+05  1.345022E+05  6.572611E+03  3.282913E+05  2.348009E+02  4.254620E+02
       268  22  8.207199E+05  1.269427E+05  1.795664E+03  3.226247E+05 -1.766364E+03  1.358536E+03
       268  23  8.272318E+05  1.200565E+05  1.147566E+03  3.152251E+05 -9.074093E+02  8.383470E+02
       268  24  8.206952E+05  1.267693E+05  1.021801E+03  3.226907E+05 -4.827732E+01  3.179205E+02
       268  25  7.635867E+05  1.052608E+05 -1.347076E+04  3.068357E+05 -2.049149E+03  1.251141E+03
       268  26  7.884422E+05  1.053491E+05 -9.261040E+03  3.045302E+05 -1.190346E+03  7.308776E+02
       268  27  8.002496E+05  1.190365E+05 -4.529058E+03  3.170904E+05 -3.313459E+02  2.103826E+02
       269   1  8.061383E+05  1.212606E+05 -2.893230E+03  3.187306E+05 -5.721023E+02 -6.068618E+01
       269   2  7.943284E+05  1.075739E+05 -7.353114E+03  3.061646E+05 -1.593974E+03  3.974354E+02
       269   3  7.695561E+05  1.075978E+05 -1.113505E+04  3.084208E+05 -2.615420E+03  8.547782E+02
       269   4  8.207082E+05  1.267520E+05  1.078358E+03  3.226971E+05 -2.890996E+02  4.682805E+01
       269   5  8.272104E+05  1.200417E+05  1.470276E+03  3.152310E+05 -1.311322E+03  5.048005E+02
       269   6  8.207496E+05  1.270420E+05  2.540379E+03  3.225868E+05 -2.333143E+03  9.619862E+02
       269   7  8.352784E+05  1.322434E+05  5.049927E+03  3.266638E+05 -6.089584E+00  1.543450E+02
       269   8  8.600933E+05  1.325096E+05  1.029356E+04  3.242978E+05 -1.028654E+03  6.121717E+02
       269   9  8.719456E+05  1.464863E+05  1.621555E+04  3.367538E+05 -2.050842E+03  1.069204E+03
       269  10  8.061383E+05  1.212606E+05 -2.893230E+03  3.187306E+05  9.822739E-10 -3.275741E-09
       269  11  7.943284E+05  1.075739E+05 -7.353119E+03  3.061646E+05 -6.250759E-09  3.704478E-09
       269  12  7.695561E+05  1.075978E+05 -1.113506E+04  3.084208E+05 -3.289310E-09 -4.485944E-09
       269  13  8.207082E+05  1.267520E+05  1.078358E+03  3.226971E+05 -3.935109E-09 -9.942212E-09
       269  14  8.272104E+05  1.200417E+05  1.470272E+03  3.152310E+05 -6.704997E-09 -2.941088E-09
       269  15  8.207496E+05  1.270420E+05  2.540367E+03  3.225868E+05 -4.523049E-09 -1.350969E-08
       269  16  8.352784E+05  1.322434E+05  5.049927E+03  3.266638E+05  1.699571E-10  4.366370E-09
       269  17  8.600933E+05  1.325096E+05  1.029356E+04  3.242978E+05  9.329837E-10  1.074789E-08
       269  18  8.719456E+05  1.464863E+05  1.621554E+04  3.367538E+05  1.132390E-10 -5.526894E-09
       269  19  8.061383E+05  1.212606E+05 -2.893230E+03  3.187306E+05  5.721023E+02  6.068618E+01
       269  20  7.943284E+05  1.075739E+05 -7.353114E+03  3.061646E+05  1.593974E+03 -3.974354E+02
       269  21  7.695561E+05  1.075978E+05 -1.113505E+04  3.084208E+05  2.615420E+03 -8.547782E+02
       269  22  8.207082E+05  1.267520E+05  1.078358E+03  3.226971E+05  2.890996E+02 -4.682805E+01
       269  23  8.272104E+05  1.200417E+05  1.470276E+03  3.152310E+05  1.311322E+03 -5.048005E+02
       269  24  8.207496E+05  1.270420E+05  2.540379E+03  3.225868E+05  2.333143E+03 -9.619862E+02
       269  25  8.352784E+05  1.322434E+05  5.049927E+03  3.266638E+05  6.089584E+00 -1.543450E+02
       269  26  8.600933E+05  1.325096E+05  1.029356E+04  3.242978E+05  1.028654E+03 -6.121717E+02
       269  27  8.719456E+05  1.464863E+05  1.621555E+04  3.367538E+05  2.050842E+03 -1.069204E+03
       270   1  7.340343E+05  9.413724E+04 -2.005485E+04  2.993156E+05 -3.274485E+03  1.111045E+03
       270   2  7.216695E+05  7.949971E+04 -2.265622E+04  2.860730E+05 -6.411470E+03  7.826212E+02
       270   3  6.975067E+05  8.196364E+04 -2.216346E+04  2.872639E+05 -9.531134E+03  4.093697E+02
       270   4  8.208542E+05  1.267306E+05  3.247464E+03  3.229044E+05 -2.977751E+03  1.223722E+03
       270   5  8.269409E+05  1.195012E+05  5.608587E+03  3.151849E+05 -6.132380E+03  8.885470E+02
       270   6  8.212328E+05  1.293764E+05  1.107750E+04  3.218989E+05 -9.269781E+03  5.085101E+02
       270   7  9.076815E+05  1.593245E+05  2.654917E+04  3.464963E+05 -2.680970E+03  1.336416E+03
       270   8  9.322231E+05  1.595035E+05  3.387245E+04  3.443014E+05 -5.853239E+03  9.944929E+02
       270   9  9.449737E+05  1.767902E+05  4.431711E+04  3.565401E+05 -9.008371E+03  6.076728E+02
       270  10  7.340343E+05  9.413723E+04 -2.005487E+04  2.993156E+05  7.489666E-09 -1.426126E-08
       270  11  7.216695E+05  7.949969E+04 -2.265629E+04  2.860730E+05  3.836023E-09 -1.443320E-08
       270  12  6.975066E+05  8.196361E+04 -2.216363E+04  2.872639E+05 -1.192169E-08  7.592186E-09
       270  13  8.208542E+05  1.267306E+05  3.247444E+03  3.229044E+05  2.967523E-09 -1.130996E-08
       270  14  8.269409E+05  1.195012E+05  5.608515E+03  3.151849E+05  5.233087E-10 -1.019098E-08
       270  15  8.212327E+05  1.293764E+05  1.107733E+04  3.218989E+05 -4.252894E-09  2.925530E-09
       270  16  9.076815E+05  1.593245E+05  2.654915E+04  3.464963E+05 -2.052769E-09  9.310023E-09
       270  17  9.322230E+05  1.595035E+05  3.387238E+04  3.443014E+05  7.288736E-10  9.219264E-10
       270  18  9.449736E+05  1.767902E+05  4.431695E+04  3.565401E+05  9.496725E-09  3.498232E-09
       270  19  7.340343E+05  9.413724E+04 -2.005485E+04  2.993156E+05  3.274485E+03 -1.111045E+03
       270  20  7.216695E+05  7.949971E+04 -2.265622E+04  2.860730E+05  6.411470E+03 -7.826212E+02
       270  21  6.975067E+05  8.196364E+04 -2.216346E+04  2.872639E+05  9.531134E+03 -4.093697E+02
       270  22  8.208542E+05  1.267306E+05  3.247464E+03  3.229044E+05  2.977751E+03 -1.223722E+03
       270  23  8.269409E+05  1.195012E+05  5.608587E+03  3.151849E+05  6.132380E+03 -8.885470E+02
       270  24  8.212328E+05  1.293764E+05  1.107750E+04  3.218989E+05  9.269781E+03 -5.085101E+02
       270  25  9.076815E+05  1.593245E+05  2.654917E+04  3.464963E+05  2.680970E+03 -1.336416E+03
       270  26  9.322231E+05  1.595035E+05  3.387245E+04  3.443014E+05  5.853239E+03 -9.944929E+02
       270  27  9.449737E+05  1.767902E+05  4.431711E+04  3.565401E+05  9.008371E+03 -6.076728E+02
       271   1  6.597188E+05  6.722147E+04 -2.909191E+04  2.818237E+05 -1.193713E+04  1.107828E+02
       271   2  6.451919E+05  4.647285E+04 -2.430642E+04  2.648101E+05 -2.462958E+04 -3.788751E+03
       271   3  6.290588E+05  6.864228E+04 -2.419886E+03  2.565528E+05 -3.710716E+04 -8.252931E+03
       271   4  8.222311E+05  1.262686E+05  1.407968E+04  3.239947E+05 -1.152471E+04  2.672687E+02
       271   5  8.245735E+05  1.156829E+05  2.405033E+04  3.154834E+05 -2.443672E+04 -3.715767E+03
       271   6  8.253495E+05  1.480529E+05  5.129199E+04  3.157283E+05 -3.713428E+04 -8.263705E+03
       271   7  9.847685E+05  1.853166E+05  5.724890E+04  3.661754E+05 -1.111216E+04  4.237952E+02
       271   8  1.003986E+06  1.848953E+05  7.240422E+04  3.661700E+05 -2.424379E+04 -3.642758E+03
       271   9  1.021678E+06  2.274675E+05  1.050005E+05  3.749213E+05 -3.716140E+04 -8.274483E+03
       271  10  6.597187E+05  6.722143E+04 -2.909218E+04  2.818237E+05  1.827070E-09  1.307109E-08
       271  11  6.451913E+05  4.647268E+04 -2.430759E+04  2.648100E+05  5.842294E-09 -1.164078E-09
       271  12  6.290573E+05  6.864183E+04 -2.422598E+03  2.565525E+05 -2.961245E-09 -1.100291E-09
       271  13  8.222310E+05  1.262685E+05  1.407943E+04  3.239947E+05 -4.536841E-09 -1.367585E-09
       271  14  8.245729E+05  1.156828E+05  2.404918E+04  3.154833E+05  4.152640E-09  4.786463E-09
       271  15  8.253480E+05  1.480524E+05  5.128927E+04  3.157280E+05  3.045759E-09  1.477383E-09
       271  16  9.847683E+05  1.853166E+05  5.724866E+04  3.661754E+05 -4.754274E-09  7.289386E-09
       271  17  1.003985E+06  1.848951E+05  7.240309E+04  3.661699E+05 -3.845965E-09 -1.126970E-08
       271  18  1.021676E+06  2.274671E+05  1.049977E+05  3.749210E+05  4.769111E-09  5.107729E-09
       271  19  6.597188E+05  6.722147E+04 -2.909191E+04  2.818237E+05  1.193713E+04 -1.107828E+02
       271  20  6.451919E+05  4.647285E+04 -2.430642E+04  2.648101E+05  2.462958E+04  3.788751E+03
       271  21  6.290588E+05  6.864228E+04 -2.419886E+03  2.565528E+05  3.710716E+04  8.252931E+03
       271  22  8.222311E+05  1.262686E+05  1.407968E+04  3.239947E+05  1.152471E+04 -2.672687E+02
       271  23  8.245735E+05  1.156829E+05  2.405033E+04  3.154834E+05  2.443672E+04  3.715767E+03
       271  24  8.253495E+05  1.480529E+05  5.129199E+04  3.157283E+05  3.713428E+04  8.263705E+03
       271  25  9.847685E+05  1.853166E+05  5.724890E+04  3.661754E+05  1.111216E+04 -4.237952E+02
       271  26  1.003986E+06  1.848953E+05  7.240422E+04  3.661700E+05  2.424379E+04  3.642758E+03
       271  27  1.021678E+06  2.274675E+05  1.050005E+05  3.749213E+05  3.716140E+04  8.274483E+03
       272   1  5.801703E+05  4.550347E+04 -1.249193E+03  2.820375E+05 -4.828971E+04 -1.094021E+04
       272   2  5.550683E+05 -2.047473E+04  3.238663E+04  2.384105E+05 -1.022979E+05 -3.024598E+04
       272   3  6.096100E+05  1.601066E+05  1.695310E+05  1.512581E+05 -1.540844E+05 -5.541075E+04
       272   4  8.331756E+05  1.214032E+05  6.272612E+04  3.313812E+05 -4.679487E+04 -1.037200E+04
       272   5  8.057929E+05  8.642035E+04  1.018322E+05  3.196241E+05 -1.030670E+05 -3.053993E+04
       272   6  8.584609E+05  2.983813E+05  2.462066E+05  2.643522E+05 -1.571175E+05 -5.657241E+04
       272   7  1.086243E+06  1.973021E+05  1.266968E+05  3.807405E+05 -4.529935E+04 -9.803652E+03
       272   8  1.056578E+06  1.933238E+05  1.712717E+05  4.008686E+05 -1.038364E+05 -3.083404E+04
       272   9  1.107374E+06  4.366835E+05  3.228757E+05  3.774933E+05 -1.601519E+05 -5.773510E+04
       272  10  5.801678E+05  4.550272E+04 -1.253795E+03  2.820371E+05 -3.091166E-09  1.718815E-08
       272  11  5.550569E+05 -2.047852E+04  3.236527E+04  2.384080E+05 -1.246520E-09 -5.539880E-09
       272  12  6.095837E+05  1.600970E+05  1.694806E+05  1.512512E+05  7.321208E-10 -1.877200E-09
       272  13  8.331733E+05  1.214025E+05  6.272181E+04  3.313808E+05  2.345927E-09  6.496944E-09
       272  14  8.057813E+05  8.641650E+04  1.018105E+05  3.196215E+05  3.298611E-09  1.968352E-08
       272  15  8.584335E+05  2.983712E+05  2.461543E+05  2.643450E+05  1.864835E-09 -1.081683E-09
       272  16  1.086241E+06  1.973014E+05  1.266927E+05  3.807401E+05 -5.058180E-10  1.083000E-08
       272  17  1.056566E+06  1.933199E+05  1.712497E+05  4.008660E+05 -5.547460E-09 -6.496844E-09
       272  18  1.107346E+06  4.366730E+05  3.228213E+05  3.774859E+05 -3.504720E-09  3.329917E-09
       272  19  5.801703E+05  4.550347E+04 -1.249193E+03  2.820375E+05  4.828971E+04  1.094021E+04
       272  20  5.550683E+05 -2.047473E+04  3.238663E+04  2.384105E+05  1.022979E+05  3.024598E+04
       272  21  6.096100E+05  1.601066E+05  1.695310E+05  1.512581E+05  1.540844E+05  5.541075E+04
       272  22  8.331756E+05  1.214032E+05  6.272612E+04  3.313812E+05  4.679487E+04  1.037200E+04
       272  23  8.057929E+05  8.642035E+04  1.018322E+05  3.196241E+05  1.030670E+05  3.053993E+04
       272  24  8.584609E+05  2.983813E+05  2.462066E+05  2.643522E+05  1.571175E+05  5.657241E+04
       272  25  1.086243E+06  1.973021E+05  1.266968E+05  3.807405E+05  4.529935E+04  9.803652E+03
       272  26  1.056578E+06  1.933238E+05  1.712717E+05  4.008686E+05  1.038364E+05  3.083404E+04
       272  27  1.107374E+06  4.366835E+05  3.228757E+05  3.774933E+05  1.601519E+05  5.773510E+04
       273   1 -5.591709E+04 -7.909425E+05 -6.810701E+04  1.696888E+04 -3.464301E+02 -3.539208E+04
       273   2 -4.223290E+03 -7.767021E+05 -3.727074E+04  5.913461E+03 -1.243401E+03 -2.104695E+04
       273   3 -9.336555E+03 -7.784911E+05 -2.997634E+04  4.778755E+02 -1.036964E+03 -6.698121E+03
       273   4 -4.246074E+04 -7.374200E+05 -5.481794E+04  5.461737E+03 -3.475424E+02 -3.482133E+04
       273   5  7.557379E+03 -7.294371E+05 -2.578699E+04  2.718460E+03 -1.243662E+03 -2.092504E+04
       273   6  8.485190E+02 -7.374046E+05 -1.998458E+04  5.595311E+03 -1.036027E+03 -7.025208E+03
       273   7 -2.900411E+04 -6.838946E+05 -4.152902E+04 -6.046400E+03 -3.486759E+02 -3.425054E+04
       273   8  1.933792E+04 -6.821700E+05 -1.430339E+04 -4.767834E+02 -1.243925E+03 -2.080312E+04
       273   9  1.103357E+04 -6.963164E+05 -9.992934E+03  1.071309E+04 -1.035096E+03 -7.352317E+03
       273  10 -5.591743E+04 -7.909439E+05 -6.810937E+04  1.696887E+04 -4.771094E-10  1.244698E-09
       273  11 -4.223410E+03 -7.767026E+05 -3.727158E+04  5.913440E+03 -3.867167E-09 -1.178409E-08
       273  12 -9.336569E+03 -7.784912E+05 -2.997642E+04  4.778699E+02 -1.447063E-09 -6.851685E-09
       273  13 -4.246107E+04 -7.374213E+05 -5.482023E+04  5.461728E+03  1.980942E-09 -2.123989E-09
       273  14  7.557260E+03 -7.294376E+05 -2.578782E+04  2.718439E+03 -5.438847E-11  5.417352E-09
       273  15  8.485046E+02 -7.374046E+05 -1.998468E+04  5.595305E+03  1.043241E-09 -2.396553E-09
       273  16 -2.900443E+04 -6.838959E+05 -4.153123E+04 -6.046410E+03 -4.431244E-10  7.585066E-09
       273  17  1.933780E+04 -6.821705E+05 -1.430421E+04 -4.768042E+02  5.526648E-09  1.676165E-08
       273  18  1.103355E+04 -6.963164E+05 -9.993037E+03  1.071308E+04 -1.085980E-09  5.141449E-09
       273  19 -5.591709E+04 -7.909425E+05 -6.810701E+04  1.696888E+04  3.464301E+02  3.539208E+04
       273  20 -4.223290E+03 -7.767021E+05 -3.727074E+04  5.913461E+03  1.243401E+03  2.104695E+04
       273  21 -9.336555E+03 -7.784911E+05 -2.997634E+04  4.778755E+02  1.036964E+03  6.698121E+03
       273  22 -4.246074E+04 -7.374200E+05 -5.481794E+04  5.461737E+03  3.475424E+02  3.482133E+04
       273  23  7.557379E+03 -7.294371E+05 -2.578699E+04  2.718460E+03  1.243662E+03  2.092504E+04
       273  24  8.485190E+02 -7.374046E+05 -1.998458E+04  5.595311E+03  1.036027E+03  7.025208E+03
       273  25 -2.900411E+04 -6.838946E+05 -4.152902E+04 -6.046400E+03  3.486759E+02  3.425054E+04
       273  26  1.933792E+04 -6.821700E+05 -1.430339E+04 -4.767834E+02  1.243925E+03  2.080312E+04
       273  27  1.103357E+04 -6.963164E+05 -9.992934E+03  1.071309E+04  1.035096E+03  7.352317E+03
       274   1 -1.213682E+04 -7.651038E+05 -2.612752E+04  8.087798E+03 -7.419065E+02 -3.585347E+03
       274   2 -3.290830E+03 -7.557569E+05 -2.305610E+04  2.454163E+03 -6.309490E+02  5.398627E+03
       274   3 -1.356202E+04 -7.523168E+05 -3.060869E+04  2.688266E+03 -4.368540E+02  1.438291E+04
       274   4 -4.669779E+03 -7.351743E+05 -1.883507E+04  5.607631E+03 -7.417717E+02 -3.624743E+03
       274   5  2.562554E+03 -7.322251E+05 -1.733188E+04  2.666900E+03 -6.307269E+02  5.325638E+03
       274   6 -9.316092E+03 -7.351766E+05 -2.642909E+04  5.593924E+03 -4.364681E+02  1.427624E+04
       274   7  2.797221E+03 -7.052439E+05 -1.154269E+04  3.127344E+03 -7.416367E+02 -3.664141E+03
       274   8  8.415896E+03 -7.086927E+05 -1.160770E+04  2.879646E+03 -6.305049E+02  5.252647E+03
       274   9 -5.070157E+03 -7.180361E+05 -2.224950E+04  8.499662E+03 -4.360832E+02  1.416956E+04
       274  10 -1.213683E+04 -7.651038E+05 -2.612755E+04  8.087796E+03  1.646939E-09  2.894794E-09
       274  11 -3.290838E+03 -7.557570E+05 -2.305615E+04  2.454165E+03  5.199089E-09 -5.700651E-09
       274  12 -1.356207E+04 -7.523170E+05 -3.060908E+04  2.688271E+03 -3.494555E-10 -9.227033E-09
       274  13 -4.669783E+03 -7.351743E+05 -1.883510E+04  5.607629E+03  2.699302E-09 -2.176857E-09
       274  14  2.562546E+03 -7.322251E+05 -1.733193E+04  2.666903E+03  2.402986E-09  8.384154E-09
       274  15 -9.316147E+03 -7.351768E+05 -2.642947E+04  5.593929E+03 -2.259886E-09 -5.919586E-09
       274  16  2.797217E+03 -7.052439E+05 -1.154271E+04  3.127342E+03  1.195292E-09  3.611073E-09
       274  17  8.415888E+03 -7.086927E+05 -1.160775E+04  2.879649E+03  5.038346E-09  1.208227E-08
       274  18 -5.070211E+03 -7.180363E+05 -2.224988E+04  8.499667E+03 -1.035867E-09  7.753701E-09
       274  19 -1.213682E+04 -7.651038E+05 -2.612752E+04  8.087798E+03  7.419065E+02  3.585347E+03
       274  20 -3.290830E+03 -7.557569E+05 -2.305610E+04  2.454163E+03  6.309490E+02 -5.398627E+03
       274  21 -1.356202E+04 -7.523168E+05 -3.060869E+04  2.688266E+03  4.368540E+02 -1.438291E+04
       274  22 -4.669779E+03 -7.351743E+05 -1.883507E+04  5.607631E+03  7.417717E+02  3.624743E+03
       274  23  2.562554E+03 -7.322251E+05 -1.733188E+04  2.666900E+03  6.307269E+02 -5.325638E+03
       274  24 -9.316092E+03 -7.351766E+05 -2.642909E+04  5.593924E+03  4.364681E+02 -1.427624E+04
       274  25  2.797221E+03 -7.052439E+05 -1.154269E+04  3.127344E+03  7.416367E+02  3.664141E+03
       274  26  8.415896E+03 -7.086927E+05 -1.160770E+04  2.879646E+03  6.305049E+02 -5.252647E+03
       274  27 -5.070157E+03 -7.180361E+05 -2.224950E+04  8.499662E+03  4.360832E+02 -1.416956E+04
       275   1  1.616654E+03 -7.461368E+05 -3.207740E+04  1.513925E+04 -2.598305E+02  1.940138E+04
       275   2  1.408739E+04 -7.251733E+05 -4.515925E+04 -3.147009E+03 -9.700122E+01  4.382498E+04
       275   3 -7.771394E+04 -7.334249E+05 -1.002127E+05 -1.570616E+04 -1.639642E+02  6.824797E+04
       275   4  3.122885E+03 -7.403542E+05 -3.067028E+04  5.655732E+03 -2.597032E+02  1.925860E+04
       275   5  1.390092E+04 -7.257529E+05 -4.530402E+04  2.669570E+03 -9.644290E+01  4.377535E+04
       275   6 -7.961031E+04 -7.403837E+05 -1.019744E+05  5.410094E+03 -1.617703E+02  6.829123E+04
       275   7  4.629451E+03 -7.345714E+05 -2.926311E+04 -3.827877E+03 -2.595716E+02  1.911582E+04
       275   8  1.371458E+04 -7.263325E+05 -4.544877E+04  8.486142E+03 -9.588551E+01  4.372572E+04
       275   9 -8.150500E+04 -7.473415E+05 -1.037359E+05  2.652611E+04 -1.595734E+02  6.833449E+04
       275  10  1.616553E+03 -7.461372E+05 -3.207811E+04  1.513926E+04  6.878944E-10  3.883659E-09
       275  11  1.408687E+04 -7.251754E+05 -4.516287E+04 -3.147005E+03  7.696511E-09 -3.510884E-09
       275  12 -7.771519E+04 -7.334300E+05 -1.002214E+05 -1.570615E+04  2.086937E-09 -7.306125E-09
       275  13  3.122785E+03 -7.403546E+05 -3.067098E+04  5.655736E+03 -4.099798E-10  6.522357E-09
       275  14  1.390041E+04 -7.257550E+05 -4.530763E+04  2.669573E+03  5.388796E-09  1.069304E-09
       275  15 -7.961156E+04 -7.403887E+05 -1.019832E+05  5.410103E+03  1.955310E-09 -1.829302E-09
       275  16  4.629353E+03 -7.345718E+05 -2.926380E+04 -3.827873E+03  4.314342E-11  8.039574E-09
       275  17  1.371407E+04 -7.263345E+05 -4.545237E+04  8.486146E+03  5.396465E-09  1.065482E-08
       275  18 -8.150625E+04 -7.473465E+05 -1.037447E+05  2.652612E+04  4.874704E-10  1.618353E-09
       275  19  1.616654E+03 -7.461368E+05 -3.207740E+04  1.513925E+04  2.598305E+02 -1.940138E+04
       275  20  1.408739E+04 -7.251733E+05 -4.515925E+04 -3.147009E+03  9.700122E+01 -4.382498E+04
       275  21 -7.771394E+04 -7.334249E+05 -1.002127E+05 -1.570616E+04  1.639642E+02 -6.824797E+04
       275  22  3.122885E+03 -7.403542E+05 -3.067028E+04  5.655732E+03  2.597032E+02 -1.925860E+04
       275  23  1.390092E+04 -7.257529E+05 -4.530402E+04  2.669570E+03  9.644290E+01 -4.377535E+04
       275  24 -7.961031E+04 -7.403837E+05 -1.019744E+05  5.410094E+03  1.617703E+02 -6.829123E+04
       275  25  4.629451E+03 -7.345714E+05 -2.926311E+04 -3.827877E+03  2.595716E+02 -1.911582E+04
       275  26  1.371458E+04 -7.263325E+05 -4.544877E+04  8.486142E+03  9.588551E+01 -4.372572E+04
       275  27 -8.150500E+04 -7.473415E+05 -1.037359E+05  2.652611E+04  1.595734E+02 -6.833449E+04
       276   1  4.558255E+05  2.272916E+03  2.462773E+04  1.626347E+03  6.462969E+04  1.609496E+03
       276   2  4.552084E+05 -8.445711E+04 -2.645050E+04  5.861132E+03  4.294170E+04  4.373925E+03
       276   3  4.838933E+05 -6.737446E+04 -3.735519E+04 -1.427637E+04  2.125785E+04  3.510170E+03
       276   4  7.429683E+05  7.392400E+04  9.614399E+04 -8.958731E+03  6.564743E+04  1.609954E+03
       276   5  7.282669E+05 -1.636573E+04  4.115995E+04  3.287135E+03  4.316603E+04  4.373887E+03
       276   6  7.429918E+05 -2.729792E+03  2.688673E+04 -8.838473E+03  2.068929E+04  3.509777E+03
       276   7  1.030186E+06  1.455693E+05  1.676541E+05 -1.954873E+04  6.666563E+04  1.610378E+03
       276   8  1.001393E+06  5.172011E+04  1.087649E+05  7.119835E+02  4.339046E+04  4.373848E+03
       276   9  1.002151E+06  6.190996E+04  9.112367E+04 -3.398323E+03  2.012049E+04  3.509373E+03
       276  10  4.558210E+05  2.271793E+03  2.461988E+04  1.626263E+03  5.160491E-10 -1.129058E-10
       276  11  4.552064E+05 -8.445762E+04 -2.645400E+04  5.860981E+03 -6.168713E-10  1.392591E-11
       276  12  4.838928E+05 -6.737460E+04 -3.735607E+04 -1.427643E+04  1.184049E-10 -2.001885E-10
       276  13  7.429637E+05  7.392284E+04  9.613590E+04 -8.958816E+03  8.585097E-10  4.176195E-11
       276  14  7.282649E+05 -1.636625E+04  4.115642E+04  3.286983E+03  5.941518E-10 -5.789481E-11
       276  15  7.429913E+05 -2.729920E+03  2.688590E+04 -8.838532E+03  1.541163E-10 -4.296281E-11
       276  16  1.030181E+06  1.455681E+05  1.676458E+05 -1.954882E+04 -3.623403E-10  1.000253E-10
       276  17  1.001391E+06  5.171958E+04  1.087613E+05  7.118307E+02 -1.044557E-09  5.076058E-12
       276  18  1.002151E+06  6.190984E+04  9.112288E+04 -3.398380E+03 -6.331274E-10  4.915452E-11
       276  19  4.558255E+05  2.272916E+03  2.462773E+04  1.626347E+03 -6.462969E+04 -1.609496E+03
       276  20  4.552084E+05 -8.445711E+04 -2.645050E+04  5.861132E+03 -4.294170E+04 -4.373925E+03
       276  21  4.838933E+05 -6.737446E+04 -3.735519E+04 -1.427637E+04 -2.125785E+04 -3.510170E+03
       276  22  7.429683E+05  7.392400E+04  9.614399E+04 -8.958731E+03 -6.564743E+04 -1.609954E+03
       276  23  7.282669E+05 -1.636573E+04  4.115995E+04  3.287135E+03 -4.316603E+04 -4.373887E+03
       276  24  7.429918E+05 -2.729792E+03  2.688673E+04 -8.838473E+03 -2.068929E+04 -3.509777E+03
       276  25  1.030186E+06  1.455693E+05  1.676541E+05 -1.954873E+04 -6.666563E+04 -1.610378E+03
       276  26  1.001393E+06  5.172011E+04  1.087649E+05  7.119835E+02 -4.339046E+04 -4.373848E+03
       276  27  1.002151E+06  6.190996E+04  9.112367E+04 -3.398323E+03 -2.012049E+04 -3.509373E+03
       277   1  5.394645E+05 -3.870306E+04 -2.689697E+04 -6.703732E+03  1.621991E+04  2.666179E+03
       277   2  5.491311E+05 -4.877985E+04 -3.539590E+04  2.641723E+03  1.072197E+04  2.663461E+03
       277   3  5.635115E+05 -4.378806E+04 -3.650352E+04 -8.898403E+03  5.223937E+03  2.197416E+03
       277   4  7.375062E+05  1.069553E+04  2.220458E+04 -8.105638E+03  1.627367E+04  2.666122E+03
       277   5  7.351427E+05 -2.384657E+03  1.070018E+04  2.340471E+03  1.067400E+04  2.663385E+03
       277   6  7.375092E+05 -3.810616E+02  6.655997E+03 -8.098590E+03  5.074335E+03  2.197362E+03
       277   7  9.355834E+05  6.009119E+04  7.130322E+04 -9.507996E+03  1.632744E+04  2.666065E+03
       277   8  9.211857E+05  4.400795E+04  5.679368E+04  2.039125E+03  1.062601E+04  2.663308E+03
       277   9  9.115344E+05  4.302367E+04  4.981326E+04 -7.298554E+03  4.924690E+03  2.197308E+03
       277  10  5.394643E+05 -3.870314E+04 -2.689748E+04 -6.703767E+03  2.131298E-10 -2.111963E-11
       277  11  5.491310E+05 -4.877989E+04 -3.539613E+04  2.641700E+03  2.347720E-11 -4.713026E-12
       277  12  5.635115E+05 -4.378807E+04 -3.650358E+04 -8.898412E+03 -6.985917E-10  1.355136E-10
       277  13  7.375059E+05  1.069545E+04  2.220407E+04 -8.105673E+03  8.310169E-10 -6.647403E-11
       277  14  7.351426E+05 -2.384695E+03  1.069995E+04  2.340448E+03 -6.219252E-11 -9.963642E-11
       277  15  7.375092E+05 -3.810737E+02  6.655940E+03 -8.098599E+03  2.216343E-10 -6.729401E-11
       277  16  9.355831E+05  6.009111E+04  7.130270E+04 -9.508031E+03 -5.031237E-11  8.024418E-11
       277  17  9.211856E+05  4.400791E+04  5.679345E+04  2.039102E+03  1.899452E-10 -1.445209E-10
       277  18  9.115344E+05  4.302366E+04  4.981320E+04 -7.298563E+03  2.206283E-10 -9.375060E-11
       277  19  5.394645E+05 -3.870306E+04 -2.689697E+04 -6.703732E+03 -1.621991E+04 -2.666179E+03
       277  20  5.491311E+05 -4.877985E+04 -3.539590E+04  2.641723E+03 -1.072197E+04 -2.663461E+03
       277  21  5.635115E+05 -4.378806E+04 -3.650352E+04 -8.898403E+03 -5.223937E+03 -2.197416E+03
       277  22  7.375062E+05  1.069553E+04  2.220458E+04 -8.105638E+03 -1.627367E+04 -2.666122E+03
       277  23  7.351427E+05 -2.384657E+03  1.070018E+04  2.340471E+03 -1.067400E+04 -2.663385E+03
       277  24  7.375092E+05 -3.810616E+02  6.655997E+03 -8.098590E+03 -5.074335E+03 -2.197362E+03
       277  25  9.355834E+05  6.009119E+04  7.130322E+04 -9.507996E+03 -1.632744E+04 -2.666065E+03
       277  26  9.211857E+05  4.400795E+04  5.679368E+04  2.039125E+03 -1.062601E+04 -2.663308E+03
       277  27  9.115344E+05  4.302367E+04  4.981326E+04 -7.298554E+03 -4.924690E+03 -2.197308E+03
       278   1  6.162282E+05 -2.849599E+04 -2.448875E+04 -7.422649E+03  4.062228E+03  1.880956E+03
       278   2  6.265928E+05 -2.769704E+04 -2.434636E+04  1.784709E+03  2.627027E+03  1.533722E+03
       278   3  6.377598E+05 -2.470441E+04 -2.270829E+04 -7.710834E+03  1.191661E+03  1.148578E+03
       278   4  7.366412E+05  1.531966E+03  5.327578E+03 -7.615656E+03  3.991786E+03  1.880930E+03
       278   5  7.362392E+05 -3.490851E+02  2.828965E+03  1.735701E+03  2.548140E+03  1.533714E+03
       278   6  7.366411E+05 -3.517060E+01  1.831740E+03 -7.615636E+03  1.104355E+03  1.148592E+03
       278   7  8.570674E+05  3.155884E+04  3.514282E+04 -7.808701E+03  3.921329E+03  1.880904E+03
       278   8  8.458966E+05  2.699797E+04  3.000340E+04  1.686684E+03  2.469239E+03  1.533707E+03
       278   9  8.355312E+05  2.463334E+04  2.637104E+04 -7.520422E+03  1.017035E+03  1.148605E+03
       278  10  6.162282E+05 -2.849600E+04 -2.448878E+04 -7.422655E+03 -5.196794E-10 -1.557994E-10
       278  11  6.265928E+05 -2.769704E+04 -2.434638E+04  1.784706E+03  1.092743E-10 -2.328308E-10
       278  12  6.377598E+05 -2.470441E+04 -2.270830E+04 -7.710835E+03  1.782583E-10 -1.434300E-10
       278  13  7.366412E+05  1.531958E+03  5.327542E+03 -7.615662E+03  5.364922E-10 -3.960000E-11
       278  14  7.362392E+05 -3.490893E+02  2.828949E+03  1.735698E+03 -8.462408E-10 -5.821105E-11
       278  15  7.366411E+05 -3.517234E+01  1.831735E+03 -7.615637E+03  2.488254E-10  6.026851E-11
       278  16  8.570673E+05  3.155883E+04  3.514279E+04 -7.808707E+03  3.486710E-10  6.191529E-11
       278  17  8.458966E+05  2.699797E+04  3.000338E+04  1.686681E+03 -2.388921E-10 -1.619595E-10
       278  18  8.355312E+05  2.463334E+04  2.637103E+04 -7.520423E+03  3.840932E-10  1.033535E-10
       278  19  6.162282E+05 -2.849599E+04 -2.448875E+04 -7.422649E+03 -4.062228E+03 -1.880956E+03
       278  20  6.265928E+05 -2.769704E+04 -2.434636E+04  1.784709E+03 -2.627027E+03 -1.533722E+03
       278  21  6.377598E+05 -2.470441E+04 -2.270829E+04 -7.710834E+03 -1.191661E+03 -1.148578E+03
       278  22  7.366412E+05  1.531966E+03  5.327578E+03 -7.615656E+03 -3.991786E+03 -1.880930E+03
       278  23  7.362392E+05 -3.490851E+02  2.828965E+03  1.735701E+03 -2.548140E+03 -1.533714E+03
       278  24  7.366411E+05 -3.517060E+01  1.831740E+03 -7.615636E+03 -1.104355E+03 -1.148592E+03
       278  25  8.570674E+05  3.155884E+04  3.514282E+04 -7.808701E+03 -3.921329E+03 -1.880904E+03
       278  26  8.458966E+05  2.699797E+04  3.000340E+04  1.686684E+03 -2.469239E+03 -1.533707E+03
       278  27  8.355312E+05  2.463334E+04  2.637104E+04 -7.520422E+03 -1.017035E+03 -1.148605E+03
       279   1  6.867833E+05 -1.217761E+04 -1.075885E+04 -7.330001E+03  8.799730E+02  9.209780E+02
       279   2  6.968273E+05 -9.942297E+03 -8.675621E+03  1.446246E+03  3.089828E+02  5.512446E+02
       279   3  7.070466E+05 -7.273046E+03 -6.114043E+03 -7.384409E+03 -2.620799E+02  1.854183E+02
       279   4  7.365037E+05  2.168459E+02  1.531933E+03 -7.372053E+03  7.996210E+02  9.210007E+02
       279   5  7.364161E+05 -6.842643E+01  1.136210E+03  1.431343E+03  2.294367E+02  5.512734E+02
       279   6  7.365034E+05  8.005363E+01  1.218222E+03 -7.372092E+03 -3.408110E+02  1.854533E+02
       279   7  7.862264E+05  1.261112E+04  1.382253E+04 -7.414109E+03  7.192626E+02  9.210234E+02
       279   8  7.760063E+05  9.805327E+03  1.094792E+04  1.416440E+03  1.498854E+02  5.513021E+02
       279   9  7.659610E+05  7.433088E+03  8.550423E+03 -7.359774E+03 -4.195458E+02  1.854883E+02
       279  10  6.867833E+05 -1.217761E+04 -1.075885E+04 -7.330002E+03 -4.753633E-10 -7.039835E-11
       279  11  6.968273E+05 -9.942297E+03 -8.675621E+03  1.446246E+03  4.466247E-10 -1.373994E-10
       279  12  7.070466E+05 -7.273046E+03 -6.114043E+03 -7.384409E+03  3.224801E-10 -4.790505E-11
       279  13  7.365037E+05  2.168448E+02  1.531931E+03 -7.372054E+03  3.380347E-10  2.776023E-11
       279  14  7.364161E+05 -6.842677E+01  1.136209E+03  1.431343E+03 -1.356388E-10 -9.627638E-12
       279  15  7.365034E+05  8.005357E+01  1.218222E+03 -7.372092E+03 -1.685234E-10  6.492076E-11
       279  16  7.862264E+05  1.261111E+04  1.382253E+04 -7.414109E+03  6.441830E-10  7.123690E-11
       279  17  7.760063E+05  9.805327E+03  1.094792E+04  1.416440E+03  7.989005E-11 -6.747196E-11
       279  18  7.659610E+05  7.433088E+03  8.550422E+03 -7.359774E+03  2.331819E-10 -7.661394E-11
       279  19  6.867833E+05 -1.217761E+04 -1.075885E+04 -7.330001E+03 -8.799730E+02 -9.209780E+02
       279  20  6.968273E+05 -9.942297E+03 -8.675621E+03  1.446246E+03 -3.089828E+02 -5.512446E+02
       279  21  7.070466E+05 -7.273046E+03 -6.114043E+03 -7.384409E+03  2.620799E+02 -1.854183E+02
       279  22  7.365037E+05  2.168459E+02  1.531933E+03 -7.372053E+03 -7.996210E+02 -9.210007E+02
       279  23  7.364161E+05 -6.842643E+01  1.136210E+03  1.431343E+03 -2.294367E+02 -5.512734E+02
       279  24  7.365034E+05  8.005363E+01  1.218222E+03 -7.372092E+03  3.408110E+02 -1.854533E+02
       279  25  7.862264E+05  1.261112E+04  1.382253E+04 -7.414109E+03 -7.192626E+02 -9.210234E+02
       279  26  7.760063E+05  9.805327E+03  1.094792E+04  1.416440E+03 -1.498854E+02 -5.513021E+02
       279  27  7.659610E+05  7.433088E+03  8.550423E+03 -7.359774E+03  4.195458E+02 -1.854883E+02
       280   1  7.546465E+05  4.540159E+03  5.887523E+03 -7.310884E+03 -4.960691E+02 -2.664910E+01
       280   2  7.645641E+05  6.893479E+03  8.959570E+03  1.392606E+03 -1.488309E+03 -3.922983E+02
       280   3  7.748156E+05  1.011849E+04  1.289219E+04 -7.426191E+03 -2.480525E+03 -7.587436E+02
       280   4  7.365389E+05  1.780844E+01  1.368158E+03 -7.353382E+03 -5.751153E+02 -2.661306E+01
       280   5  7.363719E+05 -1.376684E+02  1.972640E+03  1.407891E+03 -1.567488E+03 -3.922670E+02
       280   6  7.365387E+05  5.785995E+02  3.437833E+03 -7.353170E+03 -2.559822E+03 -7.587169E+02
       280   7  7.184316E+05 -4.504566E+03 -3.151233E+03 -7.395878E+03 -6.541593E+02 -2.657700E+01
       280   8  7.081804E+05 -7.168876E+03 -5.014349E+03  1.423176E+03 -1.646664E+03 -3.922357E+02
       280   9  6.982631E+05 -8.961398E+03 -6.016637E+03 -7.280155E+03 -2.639114E+03 -7.586902E+02
       280  10  7.546465E+05  4.540159E+03  5.887523E+03 -7.310884E+03 -3.208003E-10  5.931372E-11
       280  11  7.645641E+05  6.893479E+03  8.959566E+03  1.392605E+03  6.734674E-10 -2.170049E-10
       280  12  7.748156E+05  1.011849E+04  1.289218E+04 -7.426192E+03  3.646683E-10  9.278674E-11
       280  13  7.365389E+05  1.780835E+01  1.368157E+03 -7.353382E+03 -3.119410E-10  1.262482E-10
       280  14  7.363719E+05 -1.376692E+02  1.972635E+03  1.407891E+03  1.281254E-10 -6.019792E-11
       280  15  7.365387E+05  5.785971E+02  3.437820E+03 -7.353172E+03 -2.184353E-10  5.065766E-11
       280  16  7.184316E+05 -4.504567E+03 -3.151234E+03 -7.395878E+03 -2.529151E-10  9.758859E-11
       280  17  7.081804E+05 -7.168877E+03 -5.014354E+03  1.423176E+03 -8.967666E-10 -1.679482E-10
       280  18  6.982631E+05 -8.961400E+03 -6.016651E+03 -7.280156E+03  2.205326E-10  1.327368E-10
       280  19  7.546465E+05  4.540159E+03  5.887523E+03 -7.310884E+03  4.960691E+02  2.664910E+01
       280  20  7.645641E+05  6.893479E+03  8.959570E+03  1.392606E+03  1.488309E+03  3.922983E+02
       280  21  7.748156E+05  1.011849E+04  1.289219E+04 -7.426191E+03  2.480525E+03  7.587436E+02
       280  22  7.365389E+05  1.780844E+01  1.368158E+03 -7.353382E+03  5.751153E+02  2.661306E+01
       280  23  7.363719E+05 -1.376684E+02  1.972640E+03  1.407891E+03  1.567488E+03  3.922670E+02
       280  24  7.365387E+05  5.785995E+02  3.437833E+03 -7.353170E+03  2.559822E+03  7.587169E+02
       280  25  7.184316E+05 -4.504566E+03 -3.151233E+03 -7.395878E+03  6.541593E+02  2.657700E+01
       280  26  7.081804E+05 -7.168876E+03 -5.014349E+03  1.423176E+03  1.646664E+03  3.922357E+02
       280  27  6.982631E+05 -8.961398E+03 -6.016637E+03 -7.280155E+03  2.639114E+03  7.586902E+02
       281   1  8.238830E+05  2.157080E+04  2.594449E+04 -7.272043E+03 -3.178431E+03 -9.836697E+02
       281   2  8.335182E+05  2.343206E+04  3.137506E+04  1.549204E+03 -6.857026E+03 -1.364695E+03
       281   3  8.451160E+05  3.103439E+04  4.064331E+04 -8.078773E+03 -1.053550E+04 -1.708167E+03
       281   4  7.368986E+05 -1.284805E+02  4.355832E+03 -7.559490E+03 -3.264789E+03 -9.836485E+02
       281   5  7.359170E+05 -9.085683E+02  7.188223E+03  1.665354E+03 -6.934754E+03 -1.364696E+03
       281   6  7.368969E+05  4.051483E+03  1.385280E+04 -7.559208E+03 -1.060453E+04 -1.708191E+03
       281   7  6.499211E+05 -2.182833E+04 -1.723339E+04 -7.846895E+03 -3.351136E+03 -9.836273E+02
       281   8  6.383245E+05 -2.524991E+04 -1.699932E+04  1.781485E+03 -7.012470E+03 -1.364696E+03
       281   9  6.286884E+05 -2.293230E+04 -1.293858E+04 -7.039734E+03 -1.067355E+04 -1.708215E+03
       281  10  8.238829E+05  2.157080E+04  2.594447E+04 -7.272046E+03 -1.928244E-10 -1.883376E-10
       281  11  8.335182E+05  2.343205E+04  3.137497E+04  1.549197E+03  3.560190E-12 -2.453042E-10
       281  12  8.451159E+05  3.103436E+04  4.064310E+04 -8.078788E+03 -3.866946E-10  2.972574E-11
       281  13  7.368986E+05 -1.284844E+02  4.355810E+03 -7.559492E+03 -1.175328E-10 -1.153902E-10
       281  14  7.359170E+05 -9.085832E+02  7.188129E+03  1.665346E+03 -1.151100E-10 -2.119536E-10
       281  15  7.368968E+05  4.051450E+03  1.385258E+04 -7.559223E+03 -2.184106E-11  3.505003E-12
       281  16  6.499211E+05 -2.182833E+04 -1.723341E+04 -7.846898E+03  2.939329E-10  4.510893E-11
       281  17  6.383244E+05 -2.524993E+04 -1.699942E+04  1.781477E+03  1.406032E-10 -2.874725E-10
       281  18  6.286883E+05 -2.293233E+04 -1.293880E+04 -7.039748E+03 -1.667974E-10 -1.790149E-10
       281  19  8.238830E+05  2.157080E+04  2.594449E+04 -7.272043E+03  3.178431E+03  9.836697E+02
       281  20  8.335182E+05  2.343206E+04  3.137506E+04  1.549204E+03  6.857026E+03  1.364695E+03
       281  21  8.451160E+05  3.103439E+04  4.064331E+04 -8.078773E+03  1.053550E+04  1.708167E+03
       281  22  7.368986E+05 -1.284805E+02  4.355832E+03 -7.559490E+03  3.264789E+03  9.836485E+02
       281  23  7.359170E+05 -9.085683E+02  7.188223E+03  1.665354E+03  6.934754E+03  1.364696E+03
       281  24  7.368969E+05  4.051483E+03  1.385280E+04 -7.559208E+03  1.060453E+04  1.708191E+03
       281  25  6.499211E+05 -2.182833E+04 -1.723339E+04 -7.846895E+03  3.351136E+03  9.836273E+02
       281  26  6.383245E+05 -2.524991E+04 -1.699932E+04  1.781485E+03  7.012470E+03  1.364696E+03
       281  27  6.286884E+05 -2.293230E+04 -1.293858E+04 -7.039734E+03  1.067355E+04  1.708215E+03
       282   1  8.999958E+05  3.911517E+04  5.725754E+04 -5.932828E+03 -1.327752E+04 -2.016935E+03
       282   2  9.057484E+05  3.679308E+04  7.085041E+04  1.312348E+03 -2.806470E+04 -2.477146E+03
       282   3  9.235345E+05  7.414341E+04  1.040181E+05 -1.189276E+04 -4.285243E+04 -2.500818E+03
       282   4  7.391297E+05 -1.008159E+03  1.736157E+04 -7.999865E+03 -1.342153E+04 -2.016932E+03
       282   5  7.331143E+05 -6.255905E+03  2.807920E+04  2.217952E+03 -2.811073E+04 -2.477246E+03
       282   6  7.391185E+05  2.815773E+04  5.830762E+04 -8.014765E+03 -4.280021E+04 -2.501109E+03
       282   7  5.782871E+05 -4.113341E+04 -2.253632E+04 -1.006637E+04 -1.356550E+04 -2.016928E+03
       282   8  5.605072E+05 -4.930712E+04 -1.469423E+04  3.123302E+03 -2.815675E+04 -2.477346E+03
       282   9  5.547334E+05 -1.783044E+04  1.259458E+04 -4.137928E+03 -4.274799E+04 -2.501399E+03
       282  10  8.999956E+05  3.911511E+04  5.725720E+04 -5.932849E+03  2.283272E-10  4.310812E-11
       282  11  9.057475E+05  3.679286E+04  7.084892E+04  1.312292E+03  5.023446E-10  1.105205E-10
       282  12  9.235325E+05  7.414291E+04  1.040147E+05 -1.189284E+04 -4.393187E-10  8.520670E-11
       282  13  7.391295E+05 -1.008212E+03  1.736123E+04 -7.999887E+03 -2.669229E-11  5.233157E-11
       282  14  7.331134E+05 -6.256124E+03  2.807770E+04  2.217896E+03  1.194815E-09 -4.501271E-11
       282  15  7.391165E+05  2.815723E+04  5.830417E+04 -8.014852E+03 -4.890398E-10  1.766387E-12
       282  16  5.782869E+05 -4.113346E+04 -2.253667E+04 -1.006639E+04 -3.054949E-10  7.757889E-13
       282  17  5.605064E+05 -4.930733E+04 -1.469573E+04  3.123245E+03 -8.046920E-10 -1.743546E-10
       282  18  5.547314E+05 -1.783094E+04  1.259114E+04 -4.138015E+03 -2.664423E-10  1.080053E-10
       282  19  8.999958E+05  3.911517E+04  5.725754E+04 -5.932828E+03  1.327752E+04  2.016935E+03
       282  20  9.057484E+05  3.679308E+04  7.085041E+04  1.312348E+03  2.806470E+04  2.477146E+03
       282  21  9.235345E+05  7.414341E+04  1.040181E+05 -1.189276E+04  4.285243E+04  2.500818E+03
       282  22  7.391297E+05 -1.008159E+03  1.736157E+04 -7.999865E+03  1.342153E+04  2.016932E+03
       282  23  7.331143E+05 -6.255905E+03  2.807920E+04  2.217952E+03  2.811073E+04  2.477246E+03
       282  24  7.391185E+05  2.815773E+04  5.830762E+04 -8.014765E+03  4.280021E+04  2.501109E+03
       282  25  5.782871E+05 -4.113341E+04 -2.253632E+04 -1.006637E+04  1.356550E+04  2.016928E+03
       282  26  5.605072E+05 -4.930712E+04 -1.469423E+04  3.123302E+03  2.815675E+04  2.477346E+03
       282  27  5.547334E+05 -1.783044E+04  1.259458E+04 -4.137928E+03  4.274799E+04  2.501399E+03
       283   1  9.973790E+05  5.370501E+04  1.310634E+05  5.312782E+03 -5.385506E+04 -3.317478E+03
       283   2  9.727958E+05  2.123476E+04  1.719800E+05 -4.097545E+03 -1.136855E+05 -4.196939E+03
       283   3  1.024713E+06  2.618990E+05  3.201890E+05 -3.741890E+04 -1.735204E+05 -1.661138E+03
       283   4  7.534353E+05 -7.154157E+03  7.059516E+04 -8.687557E+03 -5.439012E+04 -3.316737E+03
       283   5  7.152048E+05 -4.296885E+04  1.082231E+05  3.127580E+03 -1.134612E+05 -4.198163E+03
       283   6  7.533739E+05  1.942780E+05  2.526487E+05 -8.967363E+03 -1.725354E+05 -1.667791E+03
       283   7  5.095460E+05 -6.801705E+04  1.012255E+04 -2.268241E+04 -5.492497E+04 -3.315971E+03
       283   8  4.576740E+05 -1.071772E+05  4.446131E+04  1.034969E+04 -1.132370E+05 -4.199382E+03
       283   9  4.821028E+05  1.266546E+05  1.851032E+05  1.947173E+04 -1.715508E+05 -1.674356E+03
       283  10  9.973759E+05  5.370422E+04  1.310580E+05  5.312639E+03  2.661303E-10  2.978116E-10
       283  11  9.727820E+05  2.123127E+04  1.719557E+05 -4.097929E+03 -4.822930E-10 -2.322743E-11
       283  12  1.024681E+06  2.618910E+05  3.201325E+05 -3.741913E+04 -1.314415E-10 -2.110483E-10
       283  13  7.534322E+05 -7.154961E+03  7.058959E+04 -8.687702E+03  4.143436E-10  1.384198E-10
       283  14  7.151909E+05 -4.297232E+04  1.081989E+05  3.127196E+03  5.314902E-10 -1.615360E-10
       283  15  7.533419E+05  1.942700E+05  2.525928E+05 -8.967595E+03 -1.338930E-09 -6.227922E-11
       283  16  5.095428E+05 -6.801787E+04  1.011687E+04 -2.268255E+04  3.935386E-10  3.838770E-11
       283  17  4.576602E+05 -1.071807E+05  4.443720E+04  1.034931E+04 -6.256989E-11  3.299123E-10
       283  18  4.820712E+05  1.266467E+05  1.850479E+05  1.947150E+04 -3.096525E-10 -2.189995E-10
       283  19  9.973790E+05  5.370501E+04  1.310634E+05  5.312782E+03  5.385506E+04  3.317478E+03
       283  20  9.727958E+05  2.123476E+04  1.719800E+05 -4.097545E+03  1.136855E+05  4.196939E+03
       283  21  1.024713E+06  2.618990E+05  3.201890E+05 -3.741890E+04  1.735204E+05  1.661138E+03
       283  22  7.534353E+05 -7.154157E+03  7.059516E+04 -8.687557E+03  5.439012E+04  3.316737E+03
       283  23  7.152048E+05 -4.296885E+04  1.082231E+05  3.127580E+03  1.134612E+05  4.198163E+03
       283  24  7.533739E+05  1.942780E+05  2.526487E+05 -8.967363E+03  1.725354E+05  1.667791E+03
       283  25  5.095460E+05 -6.801705E+04  1.012255E+04 -2.268241E+04  5.492497E+04  3.315971E+03
       283  26  4.576740E+05 -1.071772E+05  4.446131E+04  1.034969E+04  1.132370E+05  4.199382E+03
       283  27  4.821028E+05  1.266546E+05  1.851032E+05  1.947173E+04  1.715508E+05  1.674356E+03
       284   1  1.122578E+05  8.878044E+05  1.329978E+05 -2.842378E+04  7.661161E+02  6.442888E+04
       284   2  1.987036E+04  8.505829E+05  7.357883E+04 -4.173743E+02  2.241007E+03  4.286489E+04
       284   3  2.630584E+04  8.407785E+05  5.287546E+04 -1.314343E+04  1.241821E+03  2.129626E+04
       284   4  7.090518E+04  7.223348E+05  9.178396E+04 -1.777663E+04  7.682932E+02  6.384037E+04
       284   5 -1.552337E+04  7.086808E+05  3.845922E+04  2.521030E+03  2.241327E+03  4.281638E+04
       284   6 -3.210338E+03  7.223573E+05  2.348293E+04 -1.791402E+04  1.240570E+03  2.178692E+04
       284   7  2.955095E+04  5.568902E+05  5.056817E+04 -7.132309E+03  7.704505E+02  6.325202E+04
       284   8 -5.091858E+04  5.667970E+05  3.338107E+03  5.458772E+03  2.241646E+03  4.276788E+04
       284   9 -3.272748E+04  6.039489E+05 -5.910620E+03 -2.268369E+04  1.239310E+03  2.227749E+04
       284  10  1.122567E+05  8.878000E+05  1.329900E+05 -2.842382E+04 -2.120067E-10 -2.181178E-10
       284  11  1.986986E+04  8.505810E+05  7.357538E+04 -4.174516E+02 -5.461737E-10  3.098272E-11
       284  12  2.630572E+04  8.407781E+05  5.287460E+04 -1.314345E+04  9.409465E-10  1.989651E-10
       284  13  7.090409E+04  7.223304E+05  9.177631E+04 -1.777667E+04  8.610951E-10 -1.223263E-10
       284  14 -1.552387E+04  7.086789E+05  3.845577E+04  2.520953E+03 -2.687185E-09  3.019525E-10
       284  15 -3.210467E+03  7.223568E+05  2.348204E+04 -1.791404E+04  5.502195E-10 -4.010543E-11
       284  16  2.954987E+04  5.568859E+05  5.056066E+04 -7.132349E+03 -3.134588E-10  1.733802E-10
       284  17 -5.091908E+04  5.667950E+05  3.334663E+03  5.458694E+03 -1.014494E-09  7.656073E-11
       284  18 -3.272762E+04  6.039484E+05 -5.911555E+03 -2.268371E+04  2.424016E-11 -2.786526E-10
       284  19  1.122578E+05  8.878044E+05  1.329978E+05 -2.842378E+04 -7.661161E+02 -6.442888E+04
       284  20  1.987036E+04  8.505829E+05  7.357883E+04 -4.173743E+02 -2.241007E+03 -4.286489E+04
       284  21  2.630584E+04  8.407785E+05  5.287546E+04 -1.314343E+04 -1.241821E+03 -2.129626E+04
       284  22  7.090518E+04  7.223348E+05  9.178396E+04 -1.777663E+04 -7.682932E+02 -6.384037E+04
       284  23 -1.552337E+04  7.086808E+05  3.845922E+04  2.521030E+03 -2.241327E+03 -4.281638E+04
       284  24 -3.210338E+03  7.223573E+05  2.348293E+04 -1.791402E+04 -1.240570E+03 -2.178692E+04
       284  25  2.955095E+04  5.568902E+05  5.056817E+04 -7.132309E+03 -7.704505E+02 -6.325202E+04
       284  26 -5.091858E+04  5.667970E+05  3.338107E+03  5.458772E+03 -2.241646E+03 -4.276788E+04
       284  27 -3.272748E+04  6.039489E+05 -5.910620E+03 -2.268369E+04 -1.239310E+03 -2.227749E+04
       285   1  1.274323E+04  7.256982E+05  2.054111E+04 -1.877405E+04  3.106904E+02  1.790079E+04
       285   2 -4.735431E+03  7.016399E+05  1.941715E+03  1.803621E+03 -2.360677E+02  1.507036E+04
       285   3 -1.430001E+04  6.797046E+05 -1.288384E+04 -1.755714E+04 -7.394141E+02  1.224019E+04
       285   4  1.051256E+04  7.167538E+05  1.835504E+04 -1.766916E+04  3.104377E+02  1.802514E+04
       285   5 -1.232779E+03  7.156953E+05  5.423834E+03  2.282413E+03 -2.363145E+02  1.518550E+04
       285   6 -5.062343E+03  7.167612E+05 -3.726790E+03 -1.770437E+04 -7.396509E+02  1.234600E+04
       285   7  8.281887E+03  7.078095E+05  1.616896E+04 -1.656428E+04  3.101854E+02  1.814948E+04
       285   8  2.269859E+03  7.297509E+05  8.905939E+03  2.761216E+03 -2.365611E+02  1.530063E+04
       285   9  4.175218E+03  7.538191E+05  5.430161E+03 -1.785161E+04 -7.398878E+02  1.245182E+04
       285  10  1.274314E+04  7.256979E+05  2.054051E+04 -1.877406E+04  1.736217E-10 -2.697977E-10
       285  11 -4.735492E+03  7.016397E+05  1.941289E+03  1.803624E+03  4.297209E-11 -2.146306E-10
       285  12 -1.430005E+04  6.797044E+05 -1.288412E+04 -1.755713E+04 -6.573153E-10  3.649129E-10
       285  13  1.051247E+04  7.167535E+05  1.835443E+04 -1.766917E+04 -1.147801E-11  9.002024E-12
       285  14 -1.232841E+03  7.156951E+05  5.423401E+03  2.282416E+03  9.780957E-10 -1.680195E-10
       285  15 -5.062384E+03  7.167610E+05 -3.727077E+03 -1.770436E+04  1.582613E-09 -1.418728E-10
       285  16  8.281798E+03  7.078092E+05  1.616834E+04 -1.656429E+04  2.064339E-10  3.210856E-10
       285  17  2.269796E+03  7.297507E+05  8.905499E+03  2.761219E+03 -1.336638E-09  1.885796E-10
       285  18  4.175176E+03  7.538189E+05  5.429869E+03 -1.785160E+04 -2.095083E-10 -3.038408E-10
       285  19  1.274323E+04  7.256982E+05  2.054111E+04 -1.877405E+04 -3.106904E+02 -1.790079E+04
       285  20 -4.735431E+03  7.016399E+05  1.941715E+03  1.803621E+03  2.360677E+02 -1.507036E+04
       285  21 -1.430001E+04  6.797046E+05 -1.288384E+04 -1.755714E+04  7.394141E+02 -1.224019E+04
       285  22  1.051256E+04  7.167538E+05  1.835504E+04 -1.766916E+04 -3.104377E+02 -1.802514E+04
       285  23 -1.232779E+03  7.156953E+05  5.423834E+03  2.282413E+03  2.363145E+02 -1.518550E+04
       285  24 -5.062343E+03  7.167612E+05 -3.726790E+03 -1.770437E+04  7.396509E+02 -1.234600E+04
       285  25  8.281887E+03  7.078095E+05  1.616896E+04 -1.656428E+04 -3.101854E+02 -1.814948E+04
       285  26  2.269859E+03  7.297509E+05  8.905939E+03  2.761216E+03  2.365611E+02 -1.530063E+04
       285  27  4.175218E+03  7.538191E+05  5.430161E+03 -1.785161E+04  7.398878E+02 -1.245182E+04
       286   1 -3.393520E+04  5.665244E+05 -4.365183E+04 -1.557011E+04 -1.725158E+03  1.277597E+04
       286   2 -3.568402E+04  5.488652E+05 -5.848497E+04  1.609168E+03 -2.822465E+03  2.229308E+04
       286   3 -8.137933E+04  5.189628E+05 -9.050257E+04 -2.251308E+04 -1.091666E+03  3.181510E+04
       286   4  2.767929E+03  7.135818E+05 -7.149384E+03 -1.796892E+04 -1.726353E+03  1.331674E+04
       286   5  6.900641E+03  7.196579E+05 -1.620814E+04  2.650792E+03 -2.822240E+03  2.222481E+04
       286   6 -3.280094E+04  7.135994E+05 -4.202512E+04 -1.803051E+04 -1.090255E+03  3.113817E+04
       286   7  3.946946E+04  8.606588E+05  2.935145E+04 -2.036829E+04 -1.727551E+03  1.385763E+04
       286   8  4.948313E+04  8.904770E+05  2.606652E+04  3.692716E+03 -2.822014E+03  2.215651E+04
       286   9  1.577468E+04  9.082703E+05  6.449505E+03 -1.354653E+04 -1.088854E+03  3.046102E+04
       286  10 -3.393525E+04  5.665242E+05 -4.365214E+04 -1.557009E+04  1.045000E-10 -2.290391E-10
       286  11 -3.568417E+04  5.488646E+05 -5.848591E+04  1.609218E+03  1.693369E-10 -2.134807E-10
       286  12 -8.137960E+04  5.189617E+05 -9.050448E+04 -2.251305E+04 -3.404776E-10  1.902876E-10
       286  13  2.767879E+03  7.135816E+05 -7.149722E+03 -1.796890E+04 -1.364547E-09  1.629155E-10
       286  14  6.900500E+03  7.196573E+05 -1.620908E+04  2.650843E+03  3.397498E-10 -1.305652E-10
       286  15 -3.280120E+04  7.135984E+05 -4.202694E+04 -1.803049E+04 -6.212515E-10  8.592587E-11
       286  16  3.946941E+04  8.606586E+05  2.935108E+04 -2.036827E+04  1.112189E-09  1.229656E-10
       286  17  4.948299E+04  8.904765E+05  2.606558E+04  3.692766E+03 -6.259320E-10  6.931768E-11
       286  18  1.577443E+04  9.082694E+05  6.447762E+03 -1.354650E+04 -1.124314E-09  1.106763E-11
       286  19 -3.393520E+04  5.665244E+05 -4.365183E+04 -1.557011E+04  1.725158E+03 -1.277597E+04
       286  20 -3.568402E+04  5.488652E+05 -5.848497E+04  1.609168E+03  2.822465E+03 -2.229308E+04
       286  21 -8.137933E+04  5.189628E+05 -9.050257E+04 -2.251308E+04  1.091666E+03 -3.181510E+04
       286  22  2.767929E+03  7.135818E+05 -7.149384E+03 -1.796892E+04  1.726353E+03 -1.331674E+04
       286  23  6.900641E+03  7.196579E+05 -1.620814E+04  2.650792E+03  2.822240E+03 -2.222481E+04
       286  24 -3.280094E+04  7.135994E+05 -4.202512E+04 -1.803051E+04  1.090255E+03 -3.113817E+04
       286  25  3.946946E+04  8.606588E+05  2.935145E+04 -2.036829E+04  1.727551E+03 -1.385763E+04
       286  26  4.948313E+04  8.904770E+05  2.606652E+04  3.692716E+03  2.822014E+03 -2.215651E+04
       286  27  1.577468E+04  9.082703E+05  6.449505E+03 -1.354653E+04  1.088854E+03 -3.046102E+04
       287   1 -8.392448E+05 -3.150562E+05 -2.555307E+05 -2.628496E+05 -1.378255E+05 -5.105984E+04
       287   2 -7.954014E+05 -1.180048E+05 -1.267439E+05 -3.047194E+05 -8.918774E+04 -3.098954E+04
       287   3 -8.365677E+05 -1.388765E+05 -9.367376E+04 -2.932366E+05 -3.986947E+04 -1.272365E+04
       287   4 -7.124104E+05 -2.459626E+05 -2.164233E+05 -2.066770E+05 -1.373564E+05 -5.088890E+04
       287   5 -6.591277E+05 -6.104537E+04 -8.839558E+04 -2.619836E+05 -8.907445E+04 -3.094788E+04
       287   6 -6.907664E+05 -9.395324E+04 -5.578678E+04 -2.639435E+05 -4.011118E+04 -1.281386E+04
       287   7 -5.855597E+05 -1.768623E+05 -1.773176E+05 -1.504924E+05 -1.368872E+05 -5.071789E+04
       287   8 -5.228362E+05 -4.083753E+03 -5.004907E+04 -2.192390E+05 -8.896113E+04 -3.090621E+04
       287   9 -5.449445E+05 -4.903021E+04 -1.790145E+04 -2.346451E+05 -4.035296E+04 -1.290407E+04
       287  10 -8.392659E+05 -3.150642E+05 -2.555714E+05 -2.628553E+05 -3.592962E-10  1.183853E-11
       287  11 -7.954102E+05 -1.180080E+05 -1.267607E+05 -3.047216E+05 -1.290942E-09 -7.844553E-11
       287  12 -8.365695E+05 -1.388771E+05 -9.367706E+04 -2.932370E+05  5.879843E-10 -2.211177E-10
       287  13 -7.124314E+05 -2.459705E+05 -2.164637E+05 -2.066826E+05  4.130128E-10  5.515567E-11
       287  14 -6.591365E+05 -6.104854E+04 -8.841231E+04 -2.619858E+05 -2.778180E-10 -4.260200E-11
       287  15 -6.907682E+05 -9.395385E+04 -5.579012E+04 -2.639439E+05  1.282306E-10 -1.456578E-10
       287  16 -5.855805E+05 -1.768701E+05 -1.773577E+05 -1.504979E+05 -5.062458E-10  4.492351E-11
       287  17 -5.228450E+05 -4.086907E+03 -5.006575E+04 -2.192412E+05  5.256381E-10 -2.705402E-11
       287  18 -5.449463E+05 -4.903083E+04 -1.790483E+04 -2.346455E+05 -4.328016E-10 -2.884124E-10
       287  19 -8.392448E+05 -3.150562E+05 -2.555307E+05 -2.628496E+05  1.378255E+05  5.105984E+04
       287  20 -7.954014E+05 -1.180048E+05 -1.267439E+05 -3.047194E+05  8.918774E+04  3.098954E+04
       287  21 -8.365677E+05 -1.388765E+05 -9.367376E+04 -2.932366E+05  3.986947E+04  1.272365E+04
       287  22 -7.124104E+05 -2.459626E+05 -2.164233E+05 -2.066770E+05  1.373564E+05  5.088890E+04
       287  23 -6.591277E+05 -6.104537E+04 -8.839558E+04 -2.619836E+05  8.907445E+04  3.094788E+04
       287  24 -6.907664E+05 -9.395324E+04 -5.578678E+04 -2.639435E+05  4.011118E+04  1.281386E+04
       287  25 -5.855597E+05 -1.768623E+05 -1.773176E+05 -1.504924E+05  1.368872E+05  5.071789E+04
       287  26 -5.228362E+05 -4.083753E+03 -5.004907E+04 -2.192390E+05  8.896113E+04  3.090621E+04
       287  27 -5.449445E+05 -4.903021E+04 -1.790145E+04 -2.346451E+05  4.035296E+04  1.290407E+04
       288   1 -8.061405E+05 -1.689455E+05 -8.018391E+04 -2.867175E+05 -3.161707E+04 -9.982093E+03
       288   2 -7.985694E+05 -1.370947E+05 -5.414683E+04 -2.898232E+05 -2.055061E+04 -5.672796E+03
       288   3 -8.000289E+05 -1.410754E+05 -4.501610E+04 -2.896519E+05 -9.369728E+03 -1.667421E+03
       288   4 -6.832818E+05 -1.195468E+05 -4.594751E+04 -2.502013E+05 -3.156515E+04 -9.962773E+03
       288   5 -6.771946E+05 -9.051654E+04 -2.079031E+04 -2.560216E+05 -2.055801E+04 -5.675634E+03
       288   6 -6.801239E+05 -9.730221E+04 -1.248983E+04 -2.585657E+05 -9.436460E+03 -1.692495E+03
       288   7 -5.604088E+05 -7.014687E+04 -1.171257E+04 -2.136784E+05 -3.151323E+04 -9.943448E+03
       288   8 -5.558058E+05 -4.393745E+04  1.256487E+04 -2.222141E+05 -2.056540E+04 -5.678472E+03
       288   9 -5.602050E+05 -5.352842E+04  2.003519E+04 -2.274742E+05 -9.503206E+03 -1.717574E+03
       288  10 -8.061416E+05 -1.689458E+05 -8.018597E+04 -2.867177E+05 -1.183225E-10 -2.650873E-10
       288  11 -7.985698E+05 -1.370948E+05 -5.414768E+04 -2.898233E+05  4.851738E-10  1.975920E-10
       288  12 -8.000290E+05 -1.410754E+05 -4.501627E+04 -2.896519E+05  2.530975E-09  5.437000E-10
       288  13 -6.832829E+05 -1.195472E+05 -4.594957E+04 -2.502015E+05  3.633809E-10 -5.501683E-11
       288  14 -6.771951E+05 -9.051669E+04 -2.079116E+04 -2.560217E+05 -9.492942E-10  2.197728E-10
       288  15 -6.801240E+05 -9.730224E+04 -1.249001E+04 -2.585657E+05  2.275539E-09  1.435143E-09
       288  16 -5.604099E+05 -7.014724E+04 -1.171462E+04 -2.136787E+05 -2.468390E-10 -4.936495E-10
       288  17 -5.558063E+05 -4.393760E+04  1.256401E+04 -2.222142E+05  3.513019E-10 -8.748343E-10
       288  18 -5.602051E+05 -5.352845E+04  2.003501E+04 -2.274742E+05  1.501071E-09  1.284267E-10
       288  19 -8.061405E+05 -1.689455E+05 -8.018391E+04 -2.867175E+05  3.161707E+04  9.982093E+03
       288  20 -7.985694E+05 -1.370947E+05 -5.414683E+04 -2.898232E+05  2.055061E+04  5.672796E+03
       288  21 -8.000289E+05 -1.410754E+05 -4.501610E+04 -2.896519E+05  9.369728E+03  1.667421E+03
       288  22 -6.832818E+05 -1.195468E+05 -4.594751E+04 -2.502013E+05  3.156515E+04  9.962773E+03
       288  23 -6.771946E+05 -9.051654E+04 -2.079031E+04 -2.560216E+05  2.055801E+04  5.675634E+03
       288  24 -6.801239E+05 -9.730221E+04 -1.248983E+04 -2.585657E+05  9.436460E+03  1.692495E+03
       288  25 -5.604088E+05 -7.014687E+04 -1.171257E+04 -2.136784E+05  3.151323E+04  9.943448E+03
       288  26 -5.558058E+05 -4.393745E+04  1.256487E+04 -2.222141E+05  2.056540E+04  5.678472E+03
       288  27 -5.602050E+05 -5.352842E+04  2.003519E+04 -2.274742E+05  9.503206E+03  1.717574E+03
       289   1 -7.777698E+05 -1.390769E+05 -3.715617E+04 -2.842087E+05 -7.511271E+03 -1.112622E+03
       289   2 -7.754316E+05 -1.305610E+05 -3.093211E+04 -2.808114E+05 -4.926655E+03 -2.714964E+02
       289   3 -7.695196E+05 -1.322523E+05 -2.784883E+04 -2.826291E+05 -2.313428E+03  4.932396E+02
       289   4 -6.786902E+05 -1.012596E+05 -9.972328E+03 -2.568246E+05 -7.527362E+03 -1.118692E+03
       289   5 -6.802498E+05 -9.454077E+04 -4.871735E+03 -2.548242E+05 -4.957781E+03 -2.832014E+02
       289   6 -6.782324E+05 -9.802567E+04 -2.899591E+03 -2.580388E+05 -2.359611E+03  4.758943E+02
       289   7 -5.796011E+05 -6.344163E+04  1.721061E+04 -2.294366E+05 -7.543456E+03 -1.124762E+03
       289   8 -5.850594E+05 -5.852007E+04  2.118780E+04 -2.288335E+05 -4.988913E+03 -2.949084E+02
       289   9 -5.869373E+05 -6.379866E+04  2.204886E+04 -2.334452E+05 -2.405801E+03  4.585463E+02
       289  10 -7.777699E+05 -1.390769E+05 -3.715627E+04 -2.842087E+05  1.683409E-09  1.511903E-10
       289  11 -7.754316E+05 -1.305610E+05 -3.093216E+04 -2.808114E+05  5.409039E-11 -4.109294E-10
       289  12 -7.695196E+05 -1.322523E+05 -2.784884E+04 -2.826291E+05  2.448335E-10 -1.073767E-10
       289  13 -6.786902E+05 -1.012596E+05 -9.972437E+03 -2.568246E+05  2.030678E-09  1.379527E-09
       289  14 -6.802498E+05 -9.454078E+04 -4.871781E+03 -2.548242E+05  1.623198E-09  6.313994E-10
       289  15 -6.782324E+05 -9.802568E+04 -2.899602E+03 -2.580388E+05  3.027060E-10 -1.719060E-10
       289  16 -5.796012E+05 -6.344165E+04  1.721050E+04 -2.294367E+05  1.974341E-09  4.860211E-10
       289  17 -5.850594E+05 -5.852008E+04  2.118775E+04 -2.288335E+05  5.287079E-10  4.207645E-10
       289  18 -5.869373E+05 -6.379867E+04  2.204885E+04 -2.334452E+05 -3.503285E-10 -3.432923E-10
       289  19 -7.777698E+05 -1.390769E+05 -3.715617E+04 -2.842087E+05  7.511271E+03  1.112622E+03
       289  20 -7.754316E+05 -1.305610E+05 -3.093211E+04 -2.808114E+05  4.926655E+03  2.714964E+02
       289  21 -7.695196E+05 -1.322523E+05 -2.784883E+04 -2.826291E+05  2.313428E+03 -4.932396E+02
       289  22 -6.786902E+05 -1.012596E+05 -9.972328E+03 -2.568246E+05  7.527362E+03  1.118692E+03
       289  23 -6.802498E+05 -9.454077E+04 -4.871735E+03 -2.548242E+05  4.957781E+03  2.832014E+02
       289  24 -6.782324E+05 -9.802567E+04 -2.899591E+03 -2.580388E+05  2.359611E+03 -4.758943E+02
       289  25 -5.796011E+05 -6.344163E+04  1.721061E+04 -2.294366E+05  7.543456E+03  1.124762E+03
       289  26 -5.850594E+05 -5.852007E+04  2.118780E+04 -2.288335E+05  4.988913E+03  2.949084E+02
       289  27 -5.869373E+05 -6.379866E+04  2.204886E+04 -2.334452E+05  2.405801E+03 -4.585463E+02
       290   1 -7.447324E+05 -1.240613E+05 -2.061601E+04 -2.762409E+05 -1.850406E+03  5.349591E+02
       290   2 -7.429782E+05 -1.183164E+05 -1.833145E+04 -2.712793E+05 -1.087513E+03  6.171542E+02
       290   3 -7.350059E+05 -1.199050E+05 -1.676643E+04 -2.736532E+05 -3.131915E+02  6.687730E+02
       290   4 -6.778385E+05 -9.876516E+04 -2.319986E+03 -2.579923E+05 -1.883572E+03  5.225058E+02
       290   5 -6.809194E+05 -9.489518E+04 -1.352659E+03 -2.544010E+05 -1.126783E+03  6.024167E+02
       290   6 -6.777811E+05 -9.835730E+04 -1.099987E+03 -2.581453E+05 -3.585746E+02  6.517503E+02
       290   7 -6.109402E+05 -7.346873E+04  1.597565E+04 -2.397418E+05 -1.916741E+03  5.100510E+02
       290   8 -6.188568E+05 -7.147369E+04  1.562580E+04 -2.375213E+05 -1.166059E+03  5.876775E+02
       290   9 -6.205532E+05 -7.680944E+04  1.456616E+04 -2.426362E+05 -4.039624E+02  6.347258E+02
       290  10 -7.447324E+05 -1.240613E+05 -2.061601E+04 -2.762409E+05  1.845153E-10 -3.946379E-10
       290  11 -7.429782E+05 -1.183164E+05 -1.833146E+04 -2.712793E+05  1.525025E-11  1.259498E-10
       290  12 -7.350059E+05 -1.199050E+05 -1.676643E+04 -2.736532E+05  6.352183E-11  8.309396E-12
       290  13 -6.778385E+05 -9.876516E+04 -2.319993E+03 -2.579923E+05  4.346900E-10 -2.606455E-10
       290  14 -6.809194E+05 -9.489518E+04 -1.352662E+03 -2.544010E+05  2.677095E-10 -7.197562E-12
       290  15 -6.777811E+05 -9.835730E+04 -1.099988E+03 -2.581453E+05 -4.392906E-10 -2.925941E-10
       290  16 -6.109402E+05 -7.346874E+04  1.597564E+04 -2.397418E+05  4.267053E-11 -2.473538E-10
       290  17 -6.188568E+05 -7.147369E+04  1.562579E+04 -2.375213E+05  5.778802E-10 -8.320290E-11
       290  18 -6.205532E+05 -7.680945E+04  1.456616E+04 -2.426362E+05 -1.241945E-10 -4.951269E-10
       290  19 -7.447324E+05 -1.240613E+05 -2.061601E+04 -2.762409E+05  1.850406E+03 -5.349591E+02
       290  20 -7.429782E+05 -1.183164E+05 -1.833145E+04 -2.712793E+05  1.087513E+03 -6.171542E+02
       290  21 -7.350059E+05 -1.199050E+05 -1.676643E+04 -2.736532E+05  3.131915E+02 -6.687730E+02
       290  22 -6.778385E+05 -9.876516E+04 -2.319986E+03 -2.579923E+05  1.883572E+03 -5.225058E+02
       290  23 -6.809194E+05 -9.489518E+04 -1.352659E+03 -2.544010E+05  1.126783E+03 -6.024167E+02
       290  24 -6.777811E+05 -9.835730E+04 -1.099987E+03 -2.581453E+05  3.585746E+02 -6.517503E+02
       290  25 -6.109402E+05 -7.346873E+04  1.597565E+04 -2.397418E+05  1.916741E+03 -5.100510E+02
       290  26 -6.188568E+05 -7.147369E+04  1.562580E+04 -2.375213E+05  1.166059E+03 -5.876775E+02
       290  27 -6.205532E+05 -7.680944E+04  1.456616E+04 -2.426362E+05  4.039624E+02 -6.347258E+02
       291   1 -7.075686E+05 -1.098009E+05 -9.267360E+03 -2.664542E+05 -8.792832E+01  6.099293E+02
       291   2 -7.057195E+05 -1.040313E+05 -8.073495E+03 -2.609114E+05  6.707486E+02  6.576845E+02
       291   3 -6.971193E+05 -1.061366E+05 -7.590244E+03 -2.633537E+05  1.432195E+03  6.979990E+02
       291   4 -6.776631E+05 -9.848586E+04 -1.098711E+03 -2.582863E+05 -1.291044E+02  5.944890E+02
       291   5 -6.810662E+05 -9.474175E+04 -1.331526E+03 -2.542214E+05  6.280958E+02  6.416934E+02
       291   6 -6.777179E+05 -9.887240E+04 -2.273769E+03 -2.581416E+05  1.388060E+03  6.814551E+02
       291   7 -6.477569E+05 -8.717074E+04  7.069847E+03 -2.501180E+05 -1.702827E+02  5.790479E+02
       291   8 -6.564124E+05 -8.545221E+04  5.410388E+03 -2.475312E+05  5.854412E+02  6.257016E+02
       291   9 -6.583162E+05 -9.160814E+04  3.042678E+03 -2.529293E+05  1.343923E+03  6.649106E+02
       291  10 -7.075686E+05 -1.098009E+05 -9.267361E+03 -2.664542E+05  3.007936E-10 -5.201224E-11
       291  11 -7.057195E+05 -1.040313E+05 -8.073497E+03 -2.609114E+05  3.773241E-10  1.588381E-11
       291  12 -6.971193E+05 -1.061366E+05 -7.590249E+03 -2.633537E+05 -1.109929E-09 -5.557267E-10
       291  13 -6.776631E+05 -9.848586E+04 -1.098712E+03 -2.582863E+05  3.395113E-11 -3.437651E-11
       291  14 -6.810662E+05 -9.474175E+04 -1.331528E+03 -2.542214E+05 -8.303597E-10  2.910923E-11
       291  15 -6.777179E+05 -9.887240E+04 -2.273774E+03 -2.581416E+05 -1.348814E-09 -4.048898E-10
       291  16 -6.477569E+05 -8.717074E+04  7.069846E+03 -2.501180E+05  1.318955E-10 -2.538470E-10
       291  17 -6.564124E+05 -8.545221E+04  5.410386E+03 -2.475312E+05 -2.800642E-10  2.382404E-10
       291  18 -6.583162E+05 -9.160815E+04  3.042674E+03 -2.529294E+05 -7.985028E-10 -5.482675E-10
       291  19 -7.075686E+05 -1.098009E+05 -9.267360E+03 -2.664542E+05  8.792832E+01 -6.099293E+02
       291  20 -7.057195E+05 -1.040313E+05 -8.073495E+03 -2.609114E+05 -6.707486E+02 -6.576845E+02
       291  21 -6.971193E+05 -1.061366E+05 -7.590244E+03 -2.633537E+05 -1.432195E+03 -6.979990E+02
       291  22 -6.776631E+05 -9.848586E+04 -1.098711E+03 -2.582863E+05  1.291044E+02 -5.944890E+02
       291  23 -6.810662E+05 -9.474175E+04 -1.331526E+03 -2.542214E+05 -6.280958E+02 -6.416934E+02
       291  24 -6.777179E+05 -9.887240E+04 -2.273769E+03 -2.581416E+05 -1.388060E+03 -6.814551E+02
       291  25 -6.477569E+05 -8.717074E+04  7.069847E+03 -2.501180E+05  1.702827E+02 -5.790479E+02
       291  26 -6.564124E+05 -8.545221E+04  5.410388E+03 -2.475312E+05 -5.854412E+02 -6.257016E+02
       291  27 -6.583162E+05 -9.160814E+04  3.042678E+03 -2.529293E+05 -1.343923E+03 -6.649106E+02
       292   1 -6.685947E+05 -9.510330E+04 -3.250659E+02 -2.561590E+05  1.910644E+03  7.246887E+02
       292   2 -6.662865E+05 -8.859068E+04 -8.038927E+02 -2.503008E+05  4.457025E+03  1.428075E+03
       292   3 -6.588215E+05 -9.379729E+04 -4.353054E+03 -2.515666E+05  6.991758E+03  2.162559E+03
       292   4 -6.778839E+05 -9.838749E+04 -2.842542E+03 -2.584522E+05  1.862987E+03  7.068261E+02
       292   5 -6.806842E+05 -9.410446E+04 -4.758235E+03 -2.542993E+05  4.415595E+03  1.412544E+03
       292   6 -6.783290E+05 -1.015420E+05 -9.749258E+03 -2.572704E+05  6.956533E+03  2.149347E+03
       292   7 -6.871730E+05 -1.016717E+05 -5.360025E+03 -2.607454E+05  1.815330E+03  6.889637E+02
       292   8 -6.950818E+05 -9.961823E+04 -8.712594E+03 -2.582978E+05  4.374167E+03  1.397013E+03
       292   9 -6.978362E+05 -1.092866E+05 -1.514549E+04 -2.629742E+05  6.921309E+03  2.136135E+03
       292  10 -6.685947E+05 -9.510330E+04 -3.250738E+02 -2.561590E+05 -1.233652E-09 -6.436702E-10
       292  11 -6.662865E+05 -8.859069E+04 -8.039339E+02 -2.503008E+05 -1.138186E-09 -1.798955E-10
       292  12 -6.588215E+05 -9.379731E+04 -4.353155E+03 -2.515666E+05 -1.471658E-09 -3.280791E-10
       292  13 -6.778839E+05 -9.838749E+04 -2.842549E+03 -2.584522E+05 -1.590671E-09 -5.597919E-10
       292  14 -6.806843E+05 -9.410447E+04 -4.758276E+03 -2.542993E+05 -1.252186E-09 -6.444618E-10
       292  15 -6.783291E+05 -1.015420E+05 -9.749358E+03 -2.572705E+05 -1.767165E-09 -1.194320E-09
       292  16 -6.871730E+05 -1.016717E+05 -5.360032E+03 -2.607454E+05 -6.119028E-10 -2.049848E-10
       292  17 -6.950818E+05 -9.961823E+04 -8.712634E+03 -2.582978E+05 -1.196883E-10 -1.054663E-10
       292  18 -6.978362E+05 -1.092866E+05 -1.514559E+04 -2.629742E+05 -7.532762E-10  3.760047E-10
       292  19 -6.685947E+05 -9.510330E+04 -3.250659E+02 -2.561590E+05 -1.910644E+03 -7.246887E+02
       292  20 -6.662865E+05 -8.859068E+04 -8.038927E+02 -2.503008E+05 -4.457025E+03 -1.428075E+03
       292  21 -6.588215E+05 -9.379729E+04 -4.353054E+03 -2.515666E+05 -6.991758E+03 -2.162559E+03
       292  22 -6.778839E+05 -9.838749E+04 -2.842542E+03 -2.584522E+05 -1.862987E+03 -7.068261E+02
       292  23 -6.806842E+05 -9.410446E+04 -4.758235E+03 -2.542993E+05 -4.415595E+03 -1.412544E+03
       292  24 -6.783290E+05 -1.015420E+05 -9.749258E+03 -2.572704E+05 -6.956533E+03 -2.149347E+03
       292  25 -6.871730E+05 -1.016717E+05 -5.360025E+03 -2.607454E+05 -1.815330E+03 -6.889637E+02
       292  26 -6.950818E+05 -9.961823E+04 -8.712594E+03 -2.582978E+05 -4.374167E+03 -1.397013E+03
       292  27 -6.978362E+05 -1.092866E+05 -1.514549E+04 -2.629742E+05 -6.921309E+03 -2.136135E+03
       293   1 -6.308808E+05 -8.100847E+04  8.226854E+02 -2.475079E+05  8.902823E+03  2.704425E+03
       293   2 -6.258642E+05 -6.957214E+04 -5.928904E+03 -2.403009E+05  1.975596E+04  6.512403E+03
       293   3 -6.270830E+05 -9.580883E+04 -2.914312E+04 -2.329952E+05  3.053500E+04  1.051880E+04
       293   4 -6.795344E+05 -9.787990E+04 -1.221103E+04 -2.592019E+05  8.835972E+03  2.679384E+03
       293   5 -6.779473E+05 -8.991396E+04 -2.031022E+04 -2.551738E+05  1.972830E+04  6.501995E+03
       293   6 -6.826046E+05 -1.196306E+05 -4.490426E+04 -2.510471E+05  3.054645E+04  1.052291E+04
       293   7 -7.281858E+05 -1.147513E+05 -2.524498E+04 -2.708951E+05  8.769127E+03  2.654345E+03
       293   8 -7.300279E+05 -1.102556E+05 -3.469180E+04 -2.700457E+05  1.970064E+04  6.491588E+03
       293   9 -7.381232E+05 -1.434520E+05 -6.066569E+04 -2.690975E+05  3.055789E+04  1.052703E+04
       293  10 -6.308809E+05 -8.100850E+04  8.225225E+02 -2.475080E+05 -4.061091E-10  3.651243E-10
       293  11 -6.258646E+05 -6.957229E+04 -5.929718E+03 -2.403010E+05 -2.972386E-10  2.086874E-10
       293  12 -6.270840E+05 -9.580920E+04 -2.914508E+04 -2.329955E+05 -2.946632E-10 -7.975126E-12
       293  13 -6.795345E+05 -9.787993E+04 -1.221120E+04 -2.592019E+05 -1.593872E-09 -1.098799E-09
       293  14 -6.779478E+05 -8.991411E+04 -2.031103E+04 -2.551740E+05 -9.587534E-10 -3.880268E-10
       293  15 -6.826056E+05 -1.196310E+05 -4.490622E+04 -2.510474E+05 -1.912827E-10  3.487273E-11
       293  16 -7.281859E+05 -1.147513E+05 -2.524513E+04 -2.708951E+05 -1.731103E-09 -2.501183E-10
       293  17 -7.300283E+05 -1.102557E+05 -3.469260E+04 -2.700458E+05 -9.823995E-10 -1.092782E-10
       293  18 -7.381242E+05 -1.434524E+05 -6.066766E+04 -2.690977E+05  4.047230E-11  1.074803E-10
       293  19 -6.308808E+05 -8.100847E+04  8.226854E+02 -2.475079E+05 -8.902823E+03 -2.704425E+03
       293  20 -6.258642E+05 -6.957214E+04 -5.928904E+03 -2.403009E+05 -1.975596E+04 -6.512403E+03
       293  21 -6.270830E+05 -9.580883E+04 -2.914312E+04 -2.329952E+05 -3.053500E+04 -1.051880E+04
       293  22 -6.795344E+05 -9.787990E+04 -1.221103E+04 -2.592019E+05 -8.835972E+03 -2.679384E+03
       293  23 -6.779473E+05 -8.991396E+04 -2.031022E+04 -2.551738E+05 -1.972830E+04 -6.501995E+03
       293  24 -6.826046E+05 -1.196306E+05 -4.490426E+04 -2.510471E+05 -3.054645E+04 -1.052291E+04
       293  25 -7.281858E+05 -1.147513E+05 -2.524498E+04 -2.708951E+05 -8.769127E+03 -2.654345E+03
       293  26 -7.300279E+05 -1.102556E+05 -3.469180E+04 -2.700457E+05 -1.970064E+04 -6.491588E+03
       293  27 -7.381232E+05 -1.434520E+05 -6.066569E+04 -2.690975E+05 -3.055789E+04 -1.052703E+04
       294   1 -5.997800E+05 -7.074859E+04 -3.186294E+04 -2.503976E+05  3.908967E+04  1.338872E+04
       294   2 -5.772433E+05 -2.419035E+04 -6.256986E+04 -2.326669E+05  8.672321E+04  3.091643E+04
       294   3 -6.341854E+05 -1.939952E+05 -1.863372E+05 -1.669105E+05  1.338845E+05  4.970568E+04
       294   4 -6.897780E+05 -9.476214E+04 -5.451934E+04 -2.646356E+05  3.889685E+04  1.331715E+04
       294   5 -6.605162E+05 -6.088952E+04 -8.637327E+04 -2.607456E+05  8.677887E+04  3.093638E+04
       294   6 -7.107944E+05 -2.434476E+05 -2.114947E+05 -2.088267E+05  1.341891E+05  4.981450E+04
       294   7 -7.797681E+05 -1.187759E+05 -7.717629E+04 -2.788721E+05  3.870406E+04  1.324557E+04
       294   8 -7.437822E+05 -9.758749E+04 -1.101773E+05 -2.888206E+05  8.683452E+04  3.095633E+04
       294   9 -7.873963E+05 -2.928952E+05 -2.366526E+05 -2.507370E+05  1.344937E+05  4.992328E+04
       294  10 -5.997817E+05 -7.074919E+04 -3.186616E+04 -2.503980E+05 -5.574373E-10 -2.868539E-10
       294  11 -5.772516E+05 -2.419340E+04 -6.258580E+04 -2.326690E+05 -1.005919E-09 -4.095548E-10
       294  12 -6.342054E+05 -1.940027E+05 -1.863755E+05 -1.669158E+05  3.054903E-10 -8.558139E-11
       294  13 -6.897797E+05 -9.476273E+04 -5.452252E+04 -2.646360E+05 -2.195153E-10 -8.179138E-11
       294  14 -6.605246E+05 -6.089258E+04 -8.638924E+04 -2.607477E+05 -8.606449E-10 -1.332058E-10
       294  15 -7.108144E+05 -2.434551E+05 -2.115332E+05 -2.088321E+05 -1.329929E-09 -1.754044E-10
       294  16 -7.797698E+05 -1.187765E+05 -7.717944E+04 -2.788725E+05  1.211315E-10  2.642083E-10
       294  17 -7.437906E+05 -9.759055E+04 -1.101933E+05 -2.888227E+05 -1.085221E-09 -2.195418E-10
       294  18 -7.874164E+05 -2.929028E+05 -2.366913E+05 -2.507424E+05 -1.029751E-09 -3.351863E-10
       294  19 -5.997800E+05 -7.074859E+04 -3.186294E+04 -2.503976E+05 -3.908967E+04 -1.338872E+04
       294  20 -5.772433E+05 -2.419035E+04 -6.256986E+04 -2.326669E+05 -8.672321E+04 -3.091643E+04
       294  21 -6.341854E+05 -1.939952E+05 -1.863372E+05 -1.669105E+05 -1.338845E+05 -4.970568E+04
       294  22 -6.897780E+05 -9.476214E+04 -5.451934E+04 -2.646356E+05 -3.889685E+04 -1.331715E+04
       294  23 -6.605162E+05 -6.088952E+04 -8.637327E+04 -2.607456E+05 -8.677887E+04 -3.093638E+04
       294  24 -7.107944E+05 -2.434476E+05 -2.114947E+05 -2.088267E+05 -1.341891E+05 -4.981450E+04
       294  25 -7.797681E+05 -1.187759E+05 -7.717629E+04 -2.788721E+05 -3.870406E+04 -1.324557E+04
       294  26 -7.437822E+05 -9.758749E+04 -1.101773E+05 -2.888206E+05 -8.683452E+04 -3.095633E+04
       294  27 -7.873963E+05 -2.928952E+05 -2.366526E+05 -2.507370E+05 -1.344937E+05 -4.992328E+04
       295   1 -2.496512E+05 -1.608893E+04  2.202204E+04 -1.223265E+03  1.096164E+05  3.130412E+03
       295   2 -2.473951E+05 -1.628036E+05 -6.395790E+04  9.437812E+03  7.297517E+04  8.603037E+03
       295   3 -1.942874E+05 -1.326307E+05 -8.147326E+04 -2.797225E+04  3.633886E+04  6.877455E+03
       295   4  3.186689E+05  1.258386E+05  1.636601E+05 -1.925874E+04  1.116551E+05  3.129590E+03
       295   5  2.931279E+05 -2.791843E+04  6.996394E+04  4.854340E+03  7.342831E+04  8.602251E+03
       295   6  3.186706E+05 -4.595083E+03  4.578897E+04 -1.910119E+04  3.520821E+04  6.877870E+03
       295   7  8.872825E+05  2.677431E+05  3.052740E+05 -3.731082E+04  1.136956E+05  3.128650E+03
       295   8  8.339163E+05  1.069449E+05  2.038640E+05  2.668352E+02  7.388183E+04  8.601459E+03
       295   9  8.318677E+05  1.234211E+05  1.730316E+05 -1.022276E+04  3.407663E+04  6.878252E+03
       295  10 -2.496641E+05 -1.609217E+04  2.199943E+04 -1.223542E+03  6.150079E-10  5.959296E-11
       295  11 -2.474008E+05 -1.628051E+05 -6.396805E+04  9.437306E+03  1.615491E-10 -3.922306E-10
       295  12 -1.942889E+05 -1.326311E+05 -8.147584E+04 -2.797246E+04  5.498209E-10 -4.625931E-10
       295  13  3.186555E+05  1.258353E+05  1.636366E+05 -1.925902E+04  1.232115E-09 -3.751666E-10
       295  14  2.931221E+05 -2.791996E+04  6.995368E+04  4.853831E+03  4.256724E-10  1.433458E-10
       295  15  3.186693E+05 -4.595467E+03  4.578655E+04 -1.910138E+04  2.146297E-10  5.581033E-10
       295  16  8.872687E+05  2.677397E+05  3.052498E+05 -3.731111E+04 -1.559248E-10  4.046435E-10
       295  17  8.339104E+05  1.069434E+05  2.038537E+05  2.663237E+02 -8.824037E-10 -6.913407E-10
       295  18  8.318664E+05  1.234208E+05  1.730293E+05 -1.022295E+04  1.718651E-10 -2.338579E-10
       295  19 -2.496512E+05 -1.608893E+04  2.202204E+04 -1.223265E+03 -1.096164E+05 -3.130412E+03
       295  20 -2.473951E+05 -1.628036E+05 -6.395790E+04  9.437812E+03 -7.297517E+04 -8.603037E+03
       295  21 -1.942874E+05 -1.326307E+05 -8.147326E+04 -2.797225E+04 -3.633886E+04 -6.877455E+03
       295  22  3.186689E+05  1.258386E+05  1.636601E+05 -1.925874E+04 -1.116551E+05 -3.129590E+03
       295  23  2.931279E+05 -2.791843E+04  6.996394E+04  4.854340E+03 -7.342831E+04 -8.602251E+03
       295  24  3.186706E+05 -4.595083E+03  4.578897E+04 -1.910119E+04 -3.520821E+04 -6.877870E+03
       295  25  8.872825E+05  2.677431E+05  3.052740E+05 -3.731082E+04 -1.136956E+05 -3.128650E+03
       295  26  8.339163E+05  1.069449E+05  2.038640E+05  2.668352E+02 -7.388183E+04 -8.601459E+03
       295  27  8.318677E+05  1.234211E+05  1.730316E+05 -1.022276E+04 -3.407663E+04 -6.878252E+03
       296   1 -7.748549E+04 -7.832113E+04 -5.814817E+04 -1.576888E+04  2.757604E+04  5.193766E+03
       296   2 -5.569082E+04 -9.411079E+04 -7.127531E+04  4.971452E+03  1.827956E+04  5.151217E+03
       296   3 -2.557102E+04 -8.413320E+04 -7.177076E+04 -1.941198E+04  8.980675E+03  4.132026E+03
       296   4  3.092093E+05  1.819861E+04  3.778163E+04 -1.848047E+04  2.768268E+04  5.193385E+03
       296   5  3.050280E+05 -4.085170E+03  1.816616E+04  4.074586E+03  1.816999E+04  5.151126E+03
       296   6  3.092039E+05 -5.722726E+02  1.132686E+04 -1.849239E+04  8.655273E+03  4.132423E+03
       296   7  6.960399E+05  1.147072E+05  1.337003E+05 -2.119374E+04  2.778939E+04  5.193005E+03
       296   8  6.658650E+05  8.593071E+04  1.075979E+05  3.177230E+03  1.806035E+04  5.151037E+03
       296   9  6.440805E+05  8.298026E+04  9.441611E+04 -1.757226E+04  8.329695E+03  4.132819E+03
       296  10 -7.748631E+04 -7.832136E+04 -5.814965E+04 -1.576900E+04 -1.091289E-09 -4.761320E-10
       296  11 -5.569119E+04 -9.411091E+04 -7.127599E+04  4.971376E+03 -9.450592E-10 -6.379689E-10
       296  12 -2.557111E+04 -8.413324E+04 -7.177094E+04 -1.941201E+04 -7.982735E-10  6.870035E-10
       296  13  3.092085E+05  1.819837E+04  3.778014E+04 -1.848059E+04 -6.107815E-10  7.273647E-10
       296  14  3.050277E+05 -4.085287E+03  1.816549E+04  4.074510E+03 -1.747038E-10 -9.546483E-10
       296  15  3.092038E+05 -5.723111E+02  1.132669E+04 -1.849242E+04  6.544705E-10  5.084028E-10
       296  16  6.960391E+05  1.147069E+05  1.336988E+05 -2.119385E+04  9.453263E-10 -4.341129E-10
       296  17  6.658647E+05  8.593059E+04  1.075973E+05  3.177155E+03  8.596356E-10 -6.893804E-10
       296  18  6.440804E+05  8.298022E+04  9.441595E+04 -1.757229E+04  1.474688E-09  5.537054E-11
       296  19 -7.748549E+04 -7.832113E+04 -5.814817E+04 -1.576888E+04 -2.757604E+04 -5.193766E+03
       296  20 -5.569082E+04 -9.411079E+04 -7.127531E+04  4.971452E+03 -1.827956E+04 -5.151217E+03
       296  21 -2.557102E+04 -8.413320E+04 -7.177076E+04 -1.941198E+04 -8.980675E+03 -4.132026E+03
       296  22  3.092093E+05  1.819861E+04  3.778163E+04 -1.848047E+04 -2.768268E+04 -5.193385E+03
       296  23  3.050280E+05 -4.085170E+03  1.816616E+04  4.074586E+03 -1.816999E+04 -5.151126E+03
       296  24  3.092039E+05 -5.722726E+02  1.132686E+04 -1.849239E+04 -8.655273E+03 -4.132423E+03
       296  25  6.960399E+05  1.147072E+05  1.337003E+05 -2.119374E+04 -2.778939E+04 -5.193005E+03
       296  26  6.658650E+05  8.593071E+04  1.075979E+05  3.177230E+03 -1.806035E+04 -5.151037E+03
       296  27  6.440805E+05  8.298026E+04  9.441611E+04 -1.757226E+04 -8.329695E+03 -4.132819E+03
       297   1  9.320889E+04 -5.086292E+04 -4.407700E+04 -1.748910E+04  6.969490E+03  3.441691E+03
       297   2  1.175550E+05 -4.788694E+04 -4.221204E+04  3.962303E+03  4.560558E+03  2.650160E+03
       297   3  1.431770E+05 -4.104221E+04 -3.781339E+04 -1.801706E+04  2.150655E+03  1.739926E+03
       297   4  3.076529E+05  2.641670E+03  9.037113E+03 -1.810807E+04  6.811911E+03  3.441899E+03
       297   5  3.070113E+05 -6.072713E+02  4.767452E+03  3.604492E+03  4.376579E+03  2.650488E+03
       297   6  3.076490E+05  1.651500E+01  3.049205E+03 -1.811288E+04  1.940371E+03  1.740392E+03
       297   7  5.221386E+05  5.614282E+04  6.214780E+04 -1.872723E+04  6.654277E+03  3.442106E+03
       297   8  4.965001E+05  4.666971E+04  5.174426E+04  3.246588E+03  4.192543E+03  2.650817E+03
       297   9  4.721457E+05  4.107321E+04  4.390978E+04 -1.820870E+04  1.730032E+03  1.740857E+03
       297  10  9.320884E+04 -5.086295E+04 -4.407711E+04 -1.748912E+04 -3.322252E-10  2.148941E-12
       297  11  1.175550E+05 -4.788695E+04 -4.221209E+04  3.962294E+03  1.335226E-09  2.021743E-10
       297  12  1.431770E+05 -4.104222E+04 -3.781340E+04 -1.801706E+04 -4.633512E-11 -8.855659E-10
       297  13  3.076528E+05  2.641644E+03  9.037004E+03 -1.810809E+04 -1.753850E-09  4.085613E-11
       297  14  3.070113E+05 -6.072840E+02  4.767403E+03  3.604483E+03 -9.019902E-10  9.317059E-10
       297  15  3.076490E+05  1.651074E+01  3.049193E+03 -1.811288E+04  8.117495E-10  2.222406E-09
       297  16  5.221385E+05  5.614279E+04  6.214770E+04 -1.872725E+04 -8.180391E-10 -8.166468E-11
       297  17  4.965001E+05  4.666970E+04  5.174422E+04  3.246579E+03 -4.416471E-10 -1.769554E-09
       297  18  4.721457E+05  4.107321E+04  4.390977E+04 -1.820870E+04  3.829972E-10  1.051314E-10
       297  19  9.320889E+04 -5.086292E+04 -4.407700E+04 -1.748910E+04 -6.969490E+03 -3.441691E+03
       297  20  1.175550E+05 -4.788694E+04 -4.221204E+04  3.962303E+03 -4.560558E+03 -2.650160E+03
       297  21  1.431770E+05 -4.104221E+04 -3.781339E+04 -1.801706E+04 -2.150655E+03 -1.739926E+03
       297  22  3.076529E+05  2.641670E+03  9.037113E+03 -1.810807E+04 -6.811911E+03 -3.441899E+03
       297  23  3.070113E+05 -6.072713E+02  4.767452E+03  3.604492E+03 -4.376579E+03 -2.650488E+03
       297  24  3.076490E+05  1.651500E+01  3.049205E+03 -1.811288E+04 -1.940371E+03 -1.740392E+03
       297  25  5.221386E+05  5.614282E+04  6.214780E+04 -1.872723E+04 -6.654277E+03 -3.442106E+03
       297  26  4.965001E+05  4.666971E+04  5.174426E+04  3.246588E+03 -4.192543E+03 -2.650817E+03
       297  27  4.721457E+05  4.107321E+04  4.390978E+04 -1.820870E+04 -1.730032E+03 -1.740857E+03
       298   1  2.600796E+05 -1.135396E+04 -9.145107E+03 -1.783519E+04  1.624477E+03  1.197920E+03
       298   2  2.846585E+05 -5.783495E+03 -3.852865E+03  3.470470E+03  7.358744E+02  3.167100E+02
       298   3  3.093067E+05  6.341394E+02  2.176252E+03 -1.800395E+04 -1.528613E+02 -5.784080E+02
       298   4  3.073886E+05  4.363207E+02  2.509527E+03 -1.796625E+04  1.435168E+03  1.198375E+03
       298   5  3.073535E+05 -1.203777E+02  1.774286E+03  3.423414E+03  5.435065E+02  3.171800E+02
       298   6  3.073881E+05  1.707362E+02  1.778139E+03 -1.796689E+04 -3.482540E+02 -5.779204E+02
       298   7  3.546996E+05  1.222644E+04  1.416400E+04 -1.809733E+04  1.245846E+03  1.198830E+03
       298   8  3.300491E+05  5.542701E+03  7.401400E+03  3.376357E+03  3.511316E+02  3.176501E+02
       298   9  3.054696E+05 -2.926671E+02  1.380026E+03 -1.792984E+04 -5.436461E+02 -5.774329E+02
       298  10  2.600796E+05 -1.135396E+04 -9.145114E+03 -1.783519E+04 -7.933334E-10  2.151355E-10
       298  11  2.846585E+05 -5.783495E+03 -3.852867E+03  3.470470E+03  1.887404E-09 -5.607075E-11
       298  12  3.093067E+05  6.341390E+02  2.176252E+03 -1.800395E+04  1.231936E-09 -8.884488E-10
       298  13  3.073886E+05  4.363186E+02  2.509520E+03 -1.796626E+04 -7.047558E-10 -1.221793E-09
       298  14  3.073535E+05 -1.203779E+02  1.774286E+03  3.423414E+03 -4.442300E-10  1.406120E-10
       298  15  3.073881E+05  1.707358E+02  1.778138E+03 -1.796689E+04  5.032948E-10 -1.772924E-09
       298  16  3.546996E+05  1.222643E+04  1.416399E+04 -1.809733E+04 -3.171908E-10  1.180001E-09
       298  17  3.300491E+05  5.542701E+03  7.401400E+03  3.376357E+03 -9.398836E-10 -7.873519E-10
       298  18  3.054696E+05 -2.926676E+02  1.380025E+03 -1.792984E+04 -4.704666E-11 -2.777700E-09
       298  19  2.600796E+05 -1.135396E+04 -9.145107E+03 -1.783519E+04 -1.624477E+03 -1.197920E+03
       298  20  2.846585E+05 -5.783495E+03 -3.852865E+03  3.470470E+03 -7.358744E+02 -3.167100E+02
       298  21  3.093067E+05  6.341394E+02  2.176252E+03 -1.800395E+04  1.528613E+02  5.784080E+02
       298  22  3.073886E+05  4.363207E+02  2.509527E+03 -1.796625E+04 -1.435168E+03 -1.198375E+03
       298  23  3.073535E+05 -1.203777E+02  1.774286E+03  3.423414E+03 -5.435065E+02 -3.171800E+02
       298  24  3.073881E+05  1.707362E+02  1.778139E+03 -1.796689E+04  3.482540E+02  5.779204E+02
       298  25  3.546996E+05  1.222644E+04  1.416400E+04 -1.809733E+04 -1.245846E+03 -1.198830E+03
       298  26  3.300491E+05  5.542701E+03  7.401400E+03  3.376357E+03 -3.511316E+02 -3.176501E+02
       298  27  3.054696E+05 -2.926671E+02  1.380026E+03 -1.792984E+04  5.436461E+02  5.774329E+02
       299   1  4.261725E+05  2.975426E+04  3.146801E+04 -1.820586E+04 -4.941030E+02 -1.103186E+03
       299   2  4.508099E+05  3.561515E+04  3.829831E+04  3.279530E+03 -1.859682E+03 -1.998264E+03
       299   3  4.758419E+05  4.280032E+04  4.632394E+04 -1.838453E+04 -3.224832E+03 -2.890801E+03
       299   4  3.074553E+05  1.179910E+02  1.956241E+03 -1.804944E+04 -6.884273E+02 -1.102724E+03
       299   5  3.072601E+05 -2.013770E+02  2.707665E+03  3.526290E+03 -2.053187E+03 -1.997862E+03
       299   6  3.074585E+05  8.035146E+02  4.654005E+03 -1.804805E+04 -3.417464E+03 -2.890457E+03
       299   7  1.887510E+05 -2.951934E+04 -2.755659E+04 -1.789303E+04 -8.827145E+02 -1.102261E+03
       299   8  1.637290E+05 -3.601944E+04 -3.288452E+04  3.773004E+03 -2.246647E+03 -1.997460E+03
       299   9  1.391007E+05 -4.119541E+04 -3.701804E+04 -1.771165E+04 -3.610043E+03 -2.890113E+03
       299  10  4.261725E+05  2.975426E+04  3.146801E+04 -1.820586E+04 -1.344101E-09  1.342266E-09
       299  11  4.508099E+05  3.561514E+04  3.829830E+04  3.279527E+03  1.169993E-09  3.682875E-09
       299  12  4.758419E+05  4.280031E+04  4.632390E+04 -1.838454E+04  2.250837E-09 -2.366403E-09
       299  13  3.074553E+05  1.179896E+02  1.956238E+03 -1.804944E+04 -1.284098E-09  2.629862E-10
       299  14  3.072601E+05 -2.013825E+02  2.707650E+03  3.526287E+03 -5.137619E-10 -9.908602E-10
       299  15  3.074584E+05  8.035025E+02  4.653967E+03 -1.804806E+04 -3.249363E-11  1.565774E-12
       299  16  1.887510E+05 -2.951934E+04 -2.755659E+04 -1.789304E+04  5.024428E-10 -1.547325E-10
       299  17  1.637290E+05 -3.601945E+04 -3.288453E+04  3.773000E+03 -5.834057E-10  4.513274E-10
       299  18  1.391007E+05 -4.119543E+04 -3.701808E+04 -1.771166E+04 -1.375217E-09  6.976395E-10
       299  19  4.261725E+05  2.975426E+04  3.146801E+04 -1.820586E+04  4.941030E+02  1.103186E+03
       299  20  4.508099E+05  3.561515E+04  3.829831E+04  3.279530E+03  1.859682E+03  1.998264E+03
       299  21  4.758419E+05  4.280032E+04  4.632394E+04 -1.838453E+04  3.224832E+03  2.890801E+03
       299  22  3.074553E+05  1.179910E+02  1.956241E+03 -1.804944E+04  6.884273E+02  1.102724E+03
       299  23  3.072601E+05 -2.013770E+02  2.707665E+03  3.526290E+03  2.053187E+03  1.997862E+03
       299  24  3.074585E+05  8.035146E+02  4.654005E+03 -1.804805E+04  3.417464E+03  2.890457E+03
       299  25  1.887510E+05 -2.951934E+04 -2.755659E+04 -1.789303E+04  8.827145E+02  1.102261E+03
       299  26  1.637290E+05 -3.601944E+04 -3.288452E+04  3.773004E+03  2.246647E+03  1.997460E+03
       299  27  1.391007E+05 -4.119541E+04 -3.701804E+04 -1.771165E+04  3.610043E+03  2.890113E+03
       300   1  5.956408E+05  7.167551E+04  7.728920E+04 -1.836146E+04 -4.162009E+03 -3.446673E+03
       300   2  6.197692E+05  7.690399E+04  8.730379E+04  3.453478E+03 -9.127171E+03 -4.374669E+03
       300   3  6.469373E+05  8.994823E+04  1.025902E+05 -1.928610E+04 -1.409131E+04 -5.170082E+03
       300   4  3.080271E+05 -9.281765E+01  5.908922E+03 -1.836359E+04 -4.377436E+03 -3.446370E+03
       300   5  3.065127E+05 -1.246438E+03  9.648150E+03  3.917175E+03 -9.311740E+03 -4.374551E+03
       300   6  3.080333E+05  5.412487E+03  1.863968E+04 -1.835796E+04 -1.424482E+04 -5.170124E+03
       300   7  2.048840E+04 -7.186734E+04 -6.547753E+04 -1.836568E+04 -4.592763E+03 -3.446068E+03
       300   8 -6.654745E+03 -7.940421E+04 -6.801481E+04  4.380669E+03 -9.496215E+03 -4.374434E+03
       300   9 -3.076645E+04 -7.913184E+04 -6.531937E+04 -1.743030E+04 -1.439824E+04 -5.170168E+03
       300  10  5.956408E+05  7.167549E+04  7.728915E+04 -1.836147E+04  8.510699E-10 -2.796154E-09
       300  11  6.197691E+05  7.690395E+04  8.730360E+04  3.453446E+03  1.217537E-09  6.444814E-11
       300  12  6.469370E+05  8.994814E+04  1.025897E+05 -1.928616E+04  7.536328E-10 -2.674588E-10
       300  13  3.080271E+05 -9.283554E+01  5.908863E+03 -1.836360E+04 -1.020042E-09  2.334015E-10
       300  14  3.065126E+05 -1.246481E+03  9.647951E+03  3.917142E+03 -5.909210E-10 -1.694898E-10
       300  15  3.080331E+05  5.412404E+03  1.863925E+04 -1.835802E+04  1.483915E-09 -3.156070E-10
       300  16  2.048837E+04 -7.186736E+04 -6.547760E+04 -1.836569E+04 -4.479557E-10 -1.819677E-10
       300  17 -6.654847E+03 -7.940426E+04 -6.801501E+04  4.380635E+03 -7.489612E-10  1.426095E-09
       300  18 -3.076668E+04 -7.913193E+04 -6.531981E+04 -1.743036E+04  6.233462E-11  2.663806E-10
       300  19  5.956408E+05  7.167551E+04  7.728920E+04 -1.836146E+04  4.162009E+03  3.446673E+03
       300  20  6.197692E+05  7.690399E+04  8.730379E+04  3.453478E+03  9.127171E+03  4.374669E+03
       300  21  6.469373E+05  8.994823E+04  1.025902E+05 -1.928610E+04  1.409131E+04  5.170082E+03
       300  22  3.080271E+05 -9.281765E+01  5.908922E+03 -1.836359E+04  4.377436E+03  3.446370E+03
       300  23  3.065127E+05 -1.246438E+03  9.648150E+03  3.917175E+03  9.311740E+03  4.374551E+03
       300  24  3.080333E+05  5.412487E+03  1.863968E+04 -1.835796E+04  1.424482E+04  5.170124E+03
       300  25  2.048840E+04 -7.186734E+04 -6.547753E+04 -1.836568E+04  4.592763E+03  3.446068E+03
       300  26 -6.654745E+03 -7.940421E+04 -6.801481E+04  4.380669E+03  9.496215E+03  4.374434E+03
       300  27 -3.076645E+04 -7.913184E+04 -6.531937E+04 -1.743030E+04  1.439824E+04  5.170168E+03
       301   1  7.745975E+05  1.143029E+05  1.383491E+05 -1.639781E+04 -1.769203E+04 -5.918217E+03
       301   2  7.929809E+05  1.138846E+05  1.592331E+05  3.361719E+03 -3.769006E+04 -7.009505E+03
       301   3  8.287784E+05  1.668751E+05  2.067721E+05 -2.395403E+04 -5.768780E+04 -6.923093E+03
       301   4  3.111885E+05 -1.306039E+03  2.340503E+04 -1.891669E+04 -1.804845E+04 -5.918182E+03
       301   5  3.025017E+05 -8.461019E+03  3.767809E+04  4.609596E+03 -3.777812E+04 -7.009935E+03
       301   6  3.111946E+05  3.776887E+04  7.843504E+04 -1.894159E+04 -5.750661E+04 -6.923817E+03
       301   7 -1.520258E+05 -1.169310E+05 -9.155509E+04 -2.143366E+04 -1.840461E+04 -5.918145E+03
       301   8 -1.877593E+05 -1.308246E+05 -8.389485E+04  5.856485E+03 -3.786609E+04 -7.010366E+03
       301   9 -2.061461E+05 -9.135733E+04 -4.992202E+04 -1.393337E+04 -5.732555E+04 -6.924538E+03
       301  10  7.745972E+05  1.143028E+05  1.383485E+05 -1.639789E+04 -4.479090E-10  3.212166E-10
       301  11  7.929793E+05  1.138842E+05  1.592303E+05  3.361506E+03 -9.781757E-11 -1.642065E-11
       301  12  8.287748E+05  1.668742E+05  2.067658E+05 -2.395435E+04 -5.644209E-10 -1.771648E-10
       301  13  3.111881E+05 -1.306164E+03  2.340435E+04 -1.891678E+04 -3.303852E-10  4.900846E-10
       301  14  3.025001E+05 -8.461454E+03  3.767532E+04  4.609383E+03 -1.433071E-09 -1.134121E-10
       301  15  3.111911E+05  3.776793E+04  7.842874E+04 -1.894191E+04  8.519943E-11 -4.594861E-10
       301  16 -1.520262E+05 -1.169312E+05 -9.155579E+04 -2.143374E+04 -5.386488E-11 -7.771055E-10
       301  17 -1.877609E+05 -1.308251E+05 -8.389763E+04  5.856271E+03 -1.416776E-10 -1.150660E-09
       301  18 -2.061496E+05 -9.135826E+04 -4.992829E+04 -1.393369E+04  2.952680E-10 -4.797736E-10
       301  19  7.745975E+05  1.143029E+05  1.383491E+05 -1.639781E+04  1.769203E+04  5.918217E+03
       301  20  7.929809E+05  1.138846E+05  1.592331E+05  3.361719E+03  3.769006E+04  7.009505E+03
       301  21  8.287784E+05  1.668751E+05  2.067721E+05 -2.395403E+04  5.768780E+04  6.923093E+03
       301  22  3.111885E+05 -1.306039E+03  2.340503E+04 -1.891669E+04  1.804845E+04  5.918182E+03
       301  23  3.025017E+05 -8.461019E+03  3.767809E+04  4.609596E+03  3.777812E+04  7.009935E+03
       301  24  3.111946E+05  3.776887E+04  7.843504E+04 -1.894159E+04  5.750661E+04  6.923817E+03
       301  25 -1.520258E+05 -1.169310E+05 -9.155509E+04 -2.143366E+04  1.840461E+04  5.918145E+03
       301  26 -1.877593E+05 -1.308246E+05 -8.389485E+04  5.856485E+03  3.786609E+04  7.010366E+03
       301  27 -2.061461E+05 -9.135733E+04 -4.992202E+04 -1.393337E+04  5.732555E+04  6.924538E+03
       302   1  9.807210E+05  1.525605E+05  2.561764E+05 -4.754032E+02 -7.178869E+04 -8.925123E+03
       302   2  9.574438E+05  1.114699E+05  3.135758E+05 -3.198930E+03 -1.531322E+05 -1.104829E+04
       302   3  1.039674E+06  4.379762E+05  5.163998E+05 -5.748261E+04 -2.345022E+05 -4.420061E+03
       302   4  3.306843E+05 -9.634377E+03  9.502844E+04 -1.967844E+04 -7.311888E+04 -8.925131E+03
       302   5  2.780466E+05 -5.790921E+04  1.453761E+05  5.698686E+03 -1.524946E+05 -1.105012E+04
       302   6  3.306821E+05  2.612816E+05  3.398957E+05 -2.048423E+04 -2.318928E+05 -4.426854E+03
       302   7 -3.189685E+05 -1.718595E+05 -6.615084E+04 -3.886149E+04 -7.444764E+04 -8.925056E+03
       302   8 -4.009316E+05 -2.273225E+05 -2.285785E+04  1.458634E+04 -1.518576E+05 -1.105194E+04
       302   9 -3.778511E+05  8.455458E+04  1.633548E+05  1.647160E+04 -2.292861E+05 -4.433345E+03
       302  10  9.807155E+05  1.525590E+05  2.561666E+05 -4.759189E+02 -3.658355E-10  6.853459E-10
       302  11  9.574186E+05  1.114635E+05  3.135316E+05 -3.200292E+03 -9.961943E-10 -4.155216E-11
       302  12  1.039615E+06  4.379615E+05  5.162966E+05 -5.748345E+04 -7.631243E-10 -6.808094E-10
       302  13  3.306785E+05 -9.635896E+03  9.501825E+04 -1.967897E+04  7.667021E-10  1.683382E-09
       302  14  2.780216E+05 -5.791558E+04  1.453322E+05  5.697329E+03  1.535613E-09  4.093616E-09
       302  15  3.306244E+05  2.612672E+05  3.397947E+05 -2.048506E+04 -1.663914E-09 -2.549521E-10
       302  16 -3.189745E+05 -1.718611E+05 -6.616141E+04 -3.886202E+04  5.531323E-10 -1.584433E-10
       302  17 -4.009565E+05 -2.273289E+05 -2.290143E+04  1.458499E+04  1.119592E-09  4.988246E-10
       302  18 -3.779076E+05  8.454043E+04  1.632559E+05  1.647078E+04 -5.615096E-10 -1.427260E-09
       302  19  9.807210E+05  1.525605E+05  2.561764E+05 -4.754032E+02  7.178869E+04  8.925123E+03
       302  20  9.574438E+05  1.114699E+05  3.135758E+05 -3.198930E+03  1.531322E+05  1.104829E+04
       302  21  1.039674E+06  4.379762E+05  5.163998E+05 -5.748261E+04  2.345022E+05  4.420061E+03
       302  22  3.306843E+05 -9.634377E+03  9.502844E+04 -1.967844E+04  7.311888E+04  8.925131E+03
       302  23  2.780466E+05 -5.790921E+04  1.453761E+05  5.698686E+03  1.524946E+05  1.105012E+04
       302  24  3.306821E+05  2.612816E+05  3.398957E+05 -2.048423E+04  2.318928E+05  4.426854E+03
       302  25 -3.189685E+05 -1.718595E+05 -6.615084E+04 -3.886149E+04  7.444764E+04  8.925056E+03
       302  26 -4.009316E+05 -2.273225E+05 -2.285785E+04  1.458634E+04  1.518576E+05  1.105194E+04
       302  27 -3.778511E+05  8.455458E+04  1.633548E+05  1.647160E+04  2.292861E+05  4.433345E+03
       303   1  1.719743E+05  4.897911E+05  2.078622E+05 -4.574442E+04  9.302802E+02  1.075636E+05
       303   2  1.495427E+04  4.271384E+05  1.083926E+05  1.251785E+03  2.661699E+03  7.021311E+04
       303   3  2.760017E+04  4.116027E+05  7.561609E+04 -1.949844E+04  1.075423E+03  3.285759E+04
       303   4  1.204772E+05  2.838797E+05  1.565519E+05 -2.767933E+04  9.346339E+02  1.068229E+05
       303   5 -2.666320E+04  2.603805E+05  6.710906E+04  6.088601E+03  2.662291E+03  7.020034E+04
       303   6 -4.238830E+03  2.838865E+05  4.387024E+04 -2.788996E+04  1.073449E+03  3.357036E+04
       303   7  6.897808E+04  7.800745E+04  1.052387E+05 -9.620215E+03  9.389456E+02  1.060825E+05
       303   8 -6.828266E+04  9.364781E+04  2.582346E+04  1.092413E+04  2.662882E+03  7.018757E+04
       303   9 -3.607879E+04  1.561852E+05  1.212321E+04 -3.627973E+04  1.071456E+03  3.428297E+04
       303  10  1.719712E+05  4.897787E+05  2.078404E+05 -4.574450E+04 -3.632045E-10 -3.659943E-10
       303  11  1.495294E+04  4.271331E+05  1.083833E+05  1.251634E+03 -4.607584E-10  4.883551E-10
       303  12  2.759988E+04  4.116016E+05  7.561406E+04 -1.949847E+04  1.073977E-09 -3.565862E-10
       303  13  1.204741E+05  2.838675E+05  1.565305E+05 -2.767941E+04  6.928578E-10 -4.517072E-11
       303  14 -2.666453E+04  2.603752E+05  6.709979E+04  6.088451E+03 -2.640993E-09  4.785405E-10
       303  15 -4.239134E+03  2.838853E+05  4.386812E+04 -2.788999E+04  1.312483E-09 -2.186791E-10
       303  16  6.897506E+04  7.799536E+04  1.052176E+05 -9.620295E+03 -9.811416E-11 -1.877335E-10
       303  17 -6.828399E+04  9.364252E+04  2.581419E+04  1.092398E+04 -3.360099E-10 -4.949787E-10
       303  18 -3.607911E+04  1.561840E+05  1.212100E+04 -3.627976E+04  7.036699E-10 -5.560884E-10
       303  19  1.719743E+05  4.897911E+05  2.078622E+05 -4.574442E+04 -9.302802E+02 -1.075636E+05
       303  20  1.495427E+04  4.271384E+05  1.083926E+05  1.251785E+03 -2.661699E+03 -7.021311E+04
       303  21  2.760017E+04  4.116027E+05  7.561609E+04 -1.949844E+04 -1.075423E+03 -3.285759E+04
       303  22  1.204772E+05  2.838797E+05  1.565519E+05 -2.767933E+04 -9.346339E+02 -1.068229E+05
       303  23 -2.666320E+04  2.603805E+05  6.710906E+04  6.088601E+03 -2.662291E+03 -7.020034E+04
       303  24 -4.238830E+03  2.838865E+05  4.387024E+04 -2.788996E+04 -1.073449E+03 -3.357036E+04
       303  25  6.897808E+04  7.800745E+04  1.052387E+05 -9.620215E+03 -9.389456E+02 -1.060825E+05
       303  26 -6.828266E+04  9.364781E+04  2.582346E+04  1.092413E+04 -2.662882E+03 -7.018757E+04
       303  27 -3.607879E+04  1.561852E+05  1.212321E+04 -3.627973E+04 -1.071456E+03 -3.428297E+04
       304   1  3.382442E+03  2.182557E+05  2.214324E+04 -3.016872E+04 -3.812841E+02  2.610055E+04
       304   2 -2.790229E+04  1.756308E+05 -6.079095E+03  5.630990E+03 -1.413375E+03  1.691840E+04
       304   3 -3.369436E+04  1.402899E+05 -2.201067E+04 -2.628084E+04 -2.142636E+03  7.737860E+03
       304   4  1.755773E+04  2.750619E+05  3.629258E+04 -2.778196E+04 -3.817498E+02  2.636277E+04
       304   5 -4.002508E+03  2.714183E+05  1.766733E+04  6.054534E+03 -1.413742E+03  1.711455E+04
       304   6 -6.029672E+01  2.750682E+05  1.137834E+04 -2.781974E+04 -2.142872E+03  7.867372E+03
       304   7  3.173279E+04  3.318711E+05  5.044168E+04 -2.539498E+04 -3.822134E+02  2.662501E+04
       304   8  1.989659E+04  3.672140E+05  4.141307E+04  6.478147E+03 -1.414109E+03  1.731074E+04
       304   9  3.357242E+04  4.098630E+05  4.476600E+04 -2.935897E+04 -2.143108E+03  7.996912E+03
       304  10  3.382259E+03  2.182549E+05  2.214196E+04 -3.016871E+04  4.902486E-11 -9.970127E-10
       304  11 -2.790237E+04  1.756305E+05 -6.079637E+03  5.631010E+03 -8.049016E-11  4.930353E-10
       304  12 -3.369438E+04  1.402899E+05 -2.201080E+04 -2.628083E+04 -8.593628E-10  2.428563E-11
       304  13  1.755754E+04  2.750612E+05  3.629127E+04 -2.778195E+04  9.666227E-10  6.716124E-11
       304  14 -4.002589E+03  2.714179E+05  1.766677E+04  6.054553E+03  4.033387E-10  3.926382E-10
       304  15 -6.031826E+01  2.750682E+05  1.137821E+04 -2.781973E+04  1.733775E-09 -2.366765E-10
       304  16  3.173260E+04  3.318704E+05  5.044035E+04 -2.539498E+04  9.782509E-10  1.686220E-10
       304  17  1.989650E+04  3.672137E+05  4.141250E+04  6.478166E+03 -1.081250E-09 -3.764411E-10
       304  18  3.357240E+04  4.098630E+05  4.476587E+04 -2.935895E+04 -1.586847E-10 -6.320003E-10
       304  19  3.382442E+03  2.182557E+05  2.214324E+04 -3.016872E+04  3.812841E+02 -2.610055E+04
       304  20 -2.790229E+04  1.756308E+05 -6.079095E+03  5.630990E+03  1.413375E+03 -1.691840E+04
       304  21 -3.369436E+04  1.402899E+05 -2.201067E+04 -2.628084E+04  2.142636E+03 -7.737860E+03
       304  22  1.755773E+04  2.750619E+05  3.629258E+04 -2.778196E+04  3.817498E+02 -2.636277E+04
       304  23 -4.002508E+03  2.714183E+05  1.766733E+04  6.054534E+03  1.413742E+03 -1.711455E+04
       304  24 -6.029672E+01  2.750682E+05  1.137834E+04 -2.781974E+04  2.142872E+03 -7.867372E+03
       304  25  3.173279E+04  3.318711E+05  5.044168E+04 -2.539498E+04  3.822134E+02 -2.662501E+04
       304  26  1.989659E+04  3.672140E+05  4.141307E+04  6.478147E+03  1.414109E+03 -1.731074E+04
       304  27  3.357242E+04  4.098630E+05  4.476600E+04 -2.935897E+04  2.143108E+03 -7.996912E+03
       305   1 -7.753707E+04 -4.655885E+04 -7.026115E+04 -2.822316E+04 -3.908264E+03  4.969431E+03
       305   2 -9.130516E+04 -8.776265E+04 -8.385152E+04  6.794280E+03 -5.821425E+03  3.322070E+03
       305   3 -9.651272E+04 -1.260259E+05 -9.411323E+04 -2.714563E+04 -2.128445E+03  1.681082E+03
       305   4  2.512009E+03  2.741178E+05  9.350210E+03 -2.808218E+04 -3.909897E+03  5.990928E+03
       305   5 -1.397286E+03  2.725507E+05  5.401064E+03  6.394392E+03 -5.820984E+03  3.131555E+03
       305   6  3.461939E+03  2.741315E+05  5.620831E+03 -2.808386E+04 -2.127351E+03  2.784689E+02
       305   7  8.255337E+04  5.948877E+05  8.895389E+04 -2.794109E+04 -3.911530E+03  7.012951E+03
       305   8  8.850087E+04  6.329819E+05  9.464399E+04  5.994306E+03 -5.820543E+03  2.940929E+03
       305   9  1.034246E+05  6.744341E+05  1.053429E+05 -2.902266E+04 -2.126253E+03 -1.125048E+03
       305  10 -7.753709E+04 -4.655888E+04 -7.026122E+04 -2.822315E+04  1.472039E-10  2.483392E-11
       305  11 -9.130520E+04 -8.776267E+04 -8.385161E+04  6.794296E+03 -1.672602E-11  3.258067E-10
       305  12 -9.651273E+04 -1.260259E+05 -9.411324E+04 -2.714563E+04 -3.301775E-11 -3.797013E-10
       305  13  2.511983E+03  2.741177E+05  9.350113E+03 -2.808216E+04 -9.515272E-10  1.215592E-10
       305  14 -1.397325E+03  2.725506E+05  5.400982E+03  6.394406E+03  4.685445E-10  3.329015E-10
       305  15  3.461934E+03  2.741315E+05  5.620823E+03 -2.808386E+04 -3.322760E-10  8.066761E-12
       305  16  8.255334E+04  5.948876E+05  8.895377E+04 -2.794107E+04  5.547152E-10 -7.362161E-10
       305  17  8.850083E+04  6.329819E+05  9.464391E+04  5.994319E+03 -2.050671E-10 -5.015767E-10
       305  18  1.034245E+05  6.744341E+05  1.053429E+05 -2.902266E+04 -4.075792E-10  2.665402E-10
       305  19 -7.753707E+04 -4.655885E+04 -7.026115E+04 -2.822316E+04  3.908264E+03 -4.969431E+03
       305  20 -9.130516E+04 -8.776265E+04 -8.385152E+04  6.794280E+03  5.821425E+03 -3.322070E+03
       305  21 -9.651272E+04 -1.260259E+05 -9.411323E+04 -2.714563E+04  2.128445E+03 -1.681082E+03
       305  22  2.512009E+03  2.741178E+05  9.350210E+03 -2.808218E+04  3.909897E+03 -5.990928E+03
       305  23 -1.397286E+03  2.725507E+05  5.401064E+03  6.394392E+03  5.820984E+03 -3.131555E+03
       305  24  3.461939E+03  2.741315E+05  5.620831E+03 -2.808386E+04  2.127351E+03 -2.784689E+02
       305  25  8.255337E+04  5.948877E+05  8.895389E+04 -2.794109E+04  3.911530E+03 -7.012951E+03
       305  26  8.850087E+04  6.329819E+05  9.464399E+04  5.994306E+03  5.820543E+03 -2.940929E+03
       305  27  1.034246E+05  6.744341E+05  1.053429E+05 -2.902266E+04  2.126253E+03  1.125048E+03
       306   1 -2.000829E+06 -5.640815E+05 -3.724021E+05 -6.719075E+05 -2.061865E+05 -7.657596E+04
       306   2 -1.937162E+06 -2.756147E+05 -1.811883E+05 -7.414777E+05 -1.333274E+05 -4.690319E+04
       306   3 -2.009795E+06 -3.049830E+05 -1.333966E+05 -7.209787E+05 -5.968154E+04 -1.932566E+04
       306   4 -1.849443E+06 -4.752093E+05 -3.243886E+05 -5.983715E+05 -2.056192E+05 -7.637545E+04
       306   5 -1.765072E+06 -2.024008E+05 -1.324451E+05 -6.862729E+05 -1.331674E+05 -4.684524E+04
       306   6 -1.816890E+06 -2.472947E+05 -8.357252E+04 -6.841156E+05 -5.992634E+04 -1.941596E+04
       306   7 -1.698033E+06 -3.863239E+05 -2.763772E+05 -5.248160E+05 -2.050518E+05 -7.617481E+04
       306   8 -1.592954E+06 -1.291829E+05 -8.370491E+04 -6.310534E+05 -1.330074E+05 -4.678725E+04
       306   9 -1.623948E+06 -1.896071E+05 -3.375132E+04 -6.472438E+05 -6.017123E+04 -1.950627E+04
       306  10 -2.000877E+06 -5.640992E+05 -3.724933E+05 -6.719202E+05 -3.199305E-10  9.388092E-11
       306  11 -1.937181E+06 -2.756219E+05 -1.812259E+05 -7.414828E+05 -8.910428E-10  4.524272E-10
       306  12 -2.009799E+06 -3.049844E+05 -1.334041E+05 -7.209797E+05  7.759050E-10  1.375037E-10
       306  13 -1.849490E+06 -4.752269E+05 -3.244793E+05 -5.983842E+05  1.610756E-09 -2.362916E-10
       306  14 -1.765092E+06 -2.024079E+05 -1.324827E+05 -6.862779E+05 -4.138590E-10 -5.303420E-10
       306  15 -1.816893E+06 -2.472961E+05 -8.358000E+04 -6.841166E+05 -2.846404E-10  5.548258E-11
       306  16 -1.698079E+06 -3.863415E+05 -2.764674E+05 -5.248286E+05 -4.241149E-10  2.180675E-10
       306  17 -1.592974E+06 -1.291900E+05 -8.374238E+04 -6.310584E+05 -1.989629E-10  2.935088E-10
       306  18 -1.623952E+06 -1.896085E+05 -3.375886E+04 -6.472447E+05 -6.453378E-10 -2.353078E-10
       306  19 -2.000829E+06 -5.640815E+05 -3.724021E+05 -6.719075E+05  2.061865E+05  7.657596E+04
       306  20 -1.937162E+06 -2.756147E+05 -1.811883E+05 -7.414777E+05  1.333274E+05  4.690319E+04
       306  21 -2.009795E+06 -3.049830E+05 -1.333966E+05 -7.209787E+05  5.968154E+04  1.932566E+04
       306  22 -1.849443E+06 -4.752093E+05 -3.243886E+05 -5.983715E+05  2.056192E+05  7.637545E+04
       306  23 -1.765072E+06 -2.024008E+05 -1.324451E+05 -6.862729E+05  1.331674E+05  4.684524E+04
       306  24 -1.816890E+06 -2.472947E+05 -8.357252E+04 -6.841156E+05  5.992634E+04  1.941596E+04
       306  25 -1.698033E+06 -3.863239E+05 -2.763772E+05 -5.248160E+05  2.050518E+05  7.617481E+04
       306  26 -1.592954E+06 -1.291829E+05 -8.370491E+04 -6.310534E+05  1.330074E+05  4.678725E+04
       306  27 -1.623948E+06 -1.896071E+05 -3.375132E+04 -6.472438E+05  6.017123E+04  1.950627E+04
       307   1 -1.991346E+06 -3.614223E+05 -1.208542E+05 -7.197674E+05 -4.733178E+04 -1.495232E+04
       307   2 -1.981296E+06 -3.177096E+05 -8.288639E+04 -7.284109E+05 -3.080950E+04 -8.379514E+03
       307   3 -1.989863E+06 -3.225245E+05 -7.024253E+04 -7.262116E+05 -1.410616E+04 -2.287457E+03
       307   4 -1.804843E+06 -2.864880E+05 -6.882287E+04 -6.644801E+05 -4.722953E+04 -1.491437E+04
       307   5 -1.793171E+06 -2.455619E+05 -3.113413E+04 -6.761579E+05 -3.079947E+04 -8.375882E+03
       307   6 -1.800093E+06 -2.531363E+05 -1.869028E+04 -6.769944E+05 -1.418834E+04 -2.318288E+03
       307   7 -1.618306E+06 -2.115503E+05 -1.679471E+04 -6.091773E+05 -4.712724E+04 -1.487640E+04
       307   8 -1.605013E+06 -1.734119E+05  2.061491E+04 -6.238906E+05 -3.078944E+04 -8.372248E+03
       307   9 -1.610289E+06 -1.837466E+05  3.285875E+04 -6.277639E+05 -1.427055E+04 -2.349128E+03
       307  10 -1.991348E+06 -3.614231E+05 -1.208589E+05 -7.197680E+05  5.315210E-10  3.143112E-10
       307  11 -1.981297E+06 -3.177100E+05 -8.288831E+04 -7.284111E+05 -2.267067E-10 -6.678956E-10
       307  12 -1.989863E+06 -3.225245E+05 -7.024292E+04 -7.262116E+05  4.640378E-10  1.197477E-10
       307  13 -1.804845E+06 -2.864888E+05 -6.882749E+04 -6.644807E+05 -2.758040E-10 -3.661717E-10
       307  14 -1.793172E+06 -2.455623E+05 -3.113605E+04 -6.761581E+05  4.589021E-10 -2.951413E-10
       307  15 -1.800093E+06 -2.531363E+05 -1.869067E+04 -6.769944E+05 -3.741896E-10 -7.284563E-11
       307  16 -1.618308E+06 -2.115511E+05 -1.679932E+04 -6.091778E+05 -4.491639E-10 -3.881751E-10
       307  17 -1.605014E+06 -1.734122E+05  2.061299E+04 -6.238908E+05  4.645345E-10 -2.731585E-10
       307  18 -1.610289E+06 -1.837466E+05  3.285836E+04 -6.277639E+05 -2.000538E-10 -3.541731E-10
       307  19 -1.991346E+06 -3.614223E+05 -1.208542E+05 -7.197674E+05  4.733178E+04  1.495232E+04
       307  20 -1.981296E+06 -3.177096E+05 -8.288639E+04 -7.284109E+05  3.080950E+04  8.379514E+03
       307  21 -1.989863E+06 -3.225245E+05 -7.024253E+04 -7.262116E+05  1.410616E+04  2.287457E+03
       307  22 -1.804843E+06 -2.864880E+05 -6.882287E+04 -6.644801E+05  4.722953E+04  1.491437E+04
       307  23 -1.793171E+06 -2.455619E+05 -3.113413E+04 -6.761579E+05  3.079947E+04  8.375882E+03
       307  24 -1.800093E+06 -2.531363E+05 -1.869028E+04 -6.769944E+05  1.418834E+04  2.318288E+03
       307  25 -1.618306E+06 -2.115503E+05 -1.679471E+04 -6.091773E+05  4.712724E+04  1.487640E+04
       307  26 -1.605013E+06 -1.734119E+05  2.061491E+04 -6.238906E+05  3.078944E+04  8.372248E+03
       307  27 -1.610289E+06 -1.837466E+05  3.285875E+04 -6.277639E+05  1.427055E+04  2.349128E+03
       308   1 -1.968151E+06 -3.251285E+05 -6.190128E+04 -7.224717E+05 -1.136588E+04 -1.393374E+03
       308   2 -1.965004E+06 -3.133188E+05 -5.282382E+04 -7.183256E+05 -7.513207E+03 -4.325745E+01
       308   3 -1.957632E+06 -3.155558E+05 -4.844150E+04 -7.205759E+05 -3.578673E+03  1.088068E+03
       308   4 -1.797066E+06 -2.599472E+05 -1.491979E+04 -6.753949E+05 -1.136262E+04 -1.392218E+03
       308   5 -1.798839E+06 -2.505006E+05 -7.289844E+03 -6.731054E+05 -7.553052E+03 -5.823660E+01
       308   6 -1.796378E+06 -2.550910E+05 -4.319813E+03 -6.772124E+05 -3.661670E+03  1.056964E+03
       308   7 -1.625954E+06 -1.947642E+05  3.205898E+04 -6.283064E+05 -1.135935E+04 -1.391062E+03
       308   8 -1.632648E+06 -1.876809E+05  3.824162E+04 -6.278743E+05 -7.592910E+03 -7.322008E+01
       308   9 -1.635098E+06 -1.946248E+05  3.979957E+04 -6.338388E+05 -3.744690E+03  1.025850E+03
       308  10 -1.968151E+06 -3.251285E+05 -6.190153E+04 -7.224717E+05  1.410317E-09  6.268321E-10
       308  11 -1.965004E+06 -3.133188E+05 -5.282393E+04 -7.183256E+05  1.099438E-09  5.028407E-10
       308  12 -1.957632E+06 -3.155558E+05 -4.844153E+04 -7.205759E+05 -1.452480E-10 -7.900144E-10
       308  13 -1.797067E+06 -2.599472E+05 -1.492003E+04 -6.753949E+05  4.475235E-10  3.700549E-10
       308  14 -1.798839E+06 -2.505007E+05 -7.289952E+03 -6.731054E+05  1.480765E-09  7.747389E-10
       308  15 -1.796378E+06 -2.550910E+05 -4.319841E+03 -6.772124E+05  1.296856E-10 -3.327093E-10
       308  16 -1.625954E+06 -1.947642E+05  3.205873E+04 -6.283064E+05 -1.377874E-09  7.931501E-11
       308  17 -1.632648E+06 -1.876809E+05  3.824151E+04 -6.278743E+05  3.625334E-10  1.171605E-10
       308  18 -1.635098E+06 -1.946248E+05  3.979954E+04 -6.338388E+05  7.794531E-10  5.668173E-10
       308  19 -1.968151E+06 -3.251285E+05 -6.190128E+04 -7.224717E+05  1.136588E+04  1.393374E+03
       308  20 -1.965004E+06 -3.133188E+05 -5.282382E+04 -7.183256E+05  7.513207E+03  4.325745E+01
       308  21 -1.957632E+06 -3.155558E+05 -4.844150E+04 -7.205759E+05  3.578673E+03 -1.088068E+03
       308  22 -1.797066E+06 -2.599472E+05 -1.491979E+04 -6.753949E+05  1.136262E+04  1.392218E+03
       308  23 -1.798839E+06 -2.505006E+05 -7.289844E+03 -6.731054E+05  7.553052E+03  5.823660E+01
       308  24 -1.796378E+06 -2.550910E+05 -4.319813E+03 -6.772124E+05  3.661670E+03 -1.056964E+03
       308  25 -1.625954E+06 -1.947642E+05  3.205898E+04 -6.283064E+05  1.135935E+04  1.391062E+03
       308  26 -1.632648E+06 -1.876809E+05  3.824162E+04 -6.278743E+05  7.592910E+03  7.322008E+01
       308  27 -1.635098E+06 -1.946248E+05  3.979957E+04 -6.338388E+05  3.744690E+03 -1.025850E+03
       309   1 -1.917799E+06 -3.032592E+05 -3.704718E+04 -7.113121E+05 -2.905730E+03  1.128138E+03
       309   2 -1.914708E+06 -2.931057E+05 -3.320969E+04 -7.023320E+05 -1.757457E+03  1.238286E+03
       309   3 -1.900271E+06 -2.958911E+05 -3.043608E+04 -7.066344E+05 -5.617004E+02  1.220910E+03
       309   4 -1.795084E+06 -2.569202E+05 -3.452609E+03 -6.779643E+05 -2.949711E+03  1.111653E+03
       309   5 -1.800716E+06 -2.501393E+05 -1.998423E+03 -6.714407E+05 -1.826959E+03  1.212276E+03
       309   6 -1.794996E+06 -2.562917E+05 -1.587669E+03 -6.781994E+05 -6.567426E+02  1.185378E+03
       309   7 -1.672355E+06 -2.105804E+05  3.014059E+04 -6.446105E+05 -2.993703E+03  1.095165E+03
       309   8 -1.686711E+06 -2.071721E+05  2.921164E+04 -6.405444E+05 -1.896474E+03  1.186260E+03
       309   9 -1.689711E+06 -2.166918E+05  2.725970E+04 -6.497602E+05 -7.518025E+02  1.149840E+03
       309  10 -1.917799E+06 -3.032592E+05 -3.704720E+04 -7.113121E+05  2.049451E-10 -4.299395E-10
       309  11 -1.914708E+06 -2.931057E+05 -3.320970E+04 -7.023320E+05  1.195134E-09 -3.550646E-10
       309  12 -1.900271E+06 -2.958911E+05 -3.043609E+04 -7.066344E+05  1.136989E-09 -5.634126E-10
       309  13 -1.795084E+06 -2.569202E+05 -3.452627E+03 -6.779643E+05 -3.295553E-11 -2.679308E-10
       309  14 -1.800716E+06 -2.501393E+05 -1.998432E+03 -6.714407E+05  3.432342E-10  1.533239E-09
       309  15 -1.794996E+06 -2.562917E+05 -1.587673E+03 -6.781994E+05  1.491214E-09  1.901021E-09
       309  16 -1.672355E+06 -2.105804E+05  3.014057E+04 -6.446105E+05 -2.611852E-10 -3.250596E-10
       309  17 -1.686711E+06 -2.071721E+05  2.921164E+04 -6.405444E+05 -5.341460E-10 -2.712408E-10
       309  18 -1.689711E+06 -2.166918E+05  2.725970E+04 -6.497602E+05 -9.730104E-11 -7.904150E-10
       309  19 -1.917799E+06 -3.032592E+05 -3.704718E+04 -7.113121E+05  2.905730E+03 -1.128138E+03
       309  20 -1.914708E+06 -2.931057E+05 -3.320969E+04 -7.023320E+05  1.757457E+03 -1.238286E+03
       309  21 -1.900271E+06 -2.958911E+05 -3.043608E+04 -7.066344E+05  5.617004E+02 -1.220910E+03
       309  22 -1.795084E+06 -2.569202E+05 -3.452609E+03 -6.779643E+05  2.949711E+03 -1.111653E+03
       309  23 -1.800716E+06 -2.501393E+05 -1.998423E+03 -6.714407E+05  1.826959E+03 -1.212276E+03
       309  24 -1.794996E+06 -2.562917E+05 -1.587669E+03 -6.781994E+05  6.567426E+02 -1.185378E+03
       309  25 -1.672355E+06 -2.105804E+05  3.014059E+04 -6.446105E+05  2.993703E+03 -1.095165E+03
       309  26 -1.686711E+06 -2.071721E+05  2.921164E+04 -6.405444E+05  1.896474E+03 -1.186260E+03
       309  27 -1.689711E+06 -2.166918E+05  2.725970E+04 -6.497602E+05  7.518025E+02 -1.149840E+03
       310   1 -1.846502E+06 -2.765543E+05 -1.580166E+04 -6.930191E+05 -2.240436E+02  1.059941E+03
       310   2 -1.842808E+06 -2.649945E+05 -1.319646E+04 -6.817827E+05  8.875044E+02  1.018018E+03
       310   3 -1.825217E+06 -2.689118E+05 -1.159420E+04 -6.868957E+05  2.013468E+03  9.373606E+02
       310   4 -1.794433E+06 -2.568954E+05 -1.574030E+03 -6.788652E+05 -3.010674E+02  1.031159E+03
       310   5 -1.801419E+06 -2.494201E+05 -1.869581E+03 -6.705928E+05  8.027301E+02  9.863504E+02
       310   6 -1.794508E+06 -2.574203E+05 -3.161923E+03 -6.786698E+05  1.920924E+03  9.028008E+02
       310   7 -1.742361E+06 -2.372363E+05  1.265337E+04 -6.647102E+05 -3.780984E+02  1.002375E+03
       310   8 -1.760029E+06 -2.338456E+05  9.457146E+03 -6.594023E+05  7.179496E+02  9.546802E+02
       310   9 -1.763797E+06 -2.459287E+05  5.270264E+03 -6.704437E+05  1.828374E+03  8.682392E+02
       310  10 -1.846502E+06 -2.765543E+05 -1.580166E+04 -6.930191E+05  6.725341E-10  6.062046E-10
       310  11 -1.842808E+06 -2.649945E+05 -1.319646E+04 -6.817827E+05 -6.933392E-10  4.161149E-11
       310  12 -1.825217E+06 -2.689118E+05 -1.159420E+04 -6.868957E+05 -3.368407E-10 -5.927657E-10
       310  13 -1.794433E+06 -2.568954E+05 -1.574032E+03 -6.788652E+05  1.523738E-10 -6.406623E-10
       310  14 -1.801419E+06 -2.494201E+05 -1.869584E+03 -6.705928E+05  1.865963E-09  1.480367E-09
       310  15 -1.794508E+06 -2.574203E+05 -3.161931E+03 -6.786698E+05 -2.548421E-10 -3.676832E-10
       310  16 -1.742361E+06 -2.372363E+05  1.265337E+04 -6.647102E+05 -1.152306E-10 -6.456198E-10
       310  17 -1.760029E+06 -2.338456E+05  9.457143E+03 -6.594023E+05 -4.838291E-10  1.090478E-09
       310  18 -1.763797E+06 -2.459287E+05  5.270257E+03 -6.704437E+05 -1.070007E-11 -5.082886E-10
       310  19 -1.846502E+06 -2.765543E+05 -1.580166E+04 -6.930191E+05  2.240436E+02 -1.059941E+03
       310  20 -1.842808E+06 -2.649945E+05 -1.319646E+04 -6.817827E+05 -8.875044E+02 -1.018018E+03
       310  21 -1.825217E+06 -2.689118E+05 -1.159420E+04 -6.868957E+05 -2.013468E+03 -9.373606E+02
       310  22 -1.794433E+06 -2.568954E+05 -1.574030E+03 -6.788652E+05  3.010674E+02 -1.031159E+03
       310  23 -1.801419E+06 -2.494201E+05 -1.869581E+03 -6.705928E+05 -8.027301E+02 -9.863504E+02
       310  24 -1.794508E+06 -2.574203E+05 -3.161923E+03 -6.786698E+05 -1.920924E+03 -9.028008E+02
       310  25 -1.742361E+06 -2.372363E+05  1.265337E+04 -6.647102E+05  3.780984E+02 -1.002375E+03
       310  26 -1.760029E+06 -2.338456E+05  9.457146E+03 -6.594023E+05 -7.179496E+02 -9.546802E+02
       310  27 -1.763797E+06 -2.459287E+05  5.270264E+03 -6.704437E+05 -1.828374E+03 -8.682392E+02
       311   1 -1.766699E+06 -2.464837E+05  3.711985E+03 -6.718252E+05  2.715061E+03  8.779833E+02
       311   2 -1.762378E+06 -2.339281E+05  3.969791E+03 -6.601666E+05  6.288341E+03  1.700416E+03
       311   3 -1.746383E+06 -2.421462E+05 -2.432527E+01 -6.636400E+05  9.829862E+03  2.608283E+03
       311   4 -1.794743E+06 -2.567417E+05 -3.945103E+03 -6.790925E+05  2.615688E+03  8.408760E+02
       311   5 -1.800887E+06 -2.485448E+05 -6.592545E+03 -6.707090E+05  6.205986E+03  1.669651E+03
       311   6 -1.795361E+06 -2.611253E+05 -1.350566E+04 -6.774576E+05  9.764464E+03  2.583836E+03
       311   7 -1.822786E+06 -2.669997E+05 -1.160225E+04 -6.863594E+05  2.516320E+03  8.037704E+02
       311   8 -1.839395E+06 -2.631614E+05 -1.715502E+04 -6.812508E+05  6.123636E+03  1.638889E+03
       311   9 -1.844336E+06 -2.801042E+05 -2.698723E+04 -6.912743E+05  9.699072E+03  2.559391E+03
       311  10 -1.766699E+06 -2.464837E+05  3.711969E+03 -6.718252E+05  1.921947E-10  2.896803E-10
       311  11 -1.762378E+06 -2.339281E+05  3.969711E+03 -6.601666E+05  1.576339E-09  1.544082E-09
       311  12 -1.746383E+06 -2.421462E+05 -2.452024E+01 -6.636400E+05  9.866801E-10  7.305097E-11
       311  13 -1.794743E+06 -2.567417E+05 -3.945117E+03 -6.790925E+05  5.874682E-10  1.846853E-10
       311  14 -1.800887E+06 -2.485448E+05 -6.592623E+03 -6.707090E+05  8.522623E-11 -3.053641E-10
       311  15 -1.795361E+06 -2.611253E+05 -1.350585E+04 -6.774576E+05 -6.943940E-10 -1.020868E-10
       311  16 -1.822786E+06 -2.669997E+05 -1.160227E+04 -6.863594E+05  6.309602E-10  1.178313E-09
       311  17 -1.839395E+06 -2.631614E+05 -1.715509E+04 -6.812508E+05 -5.059515E-10  2.268615E-09
       311  18 -1.844336E+06 -2.801042E+05 -2.698742E+04 -6.912743E+05 -1.188900E-09  4.972655E-10
       311  19 -1.766699E+06 -2.464837E+05  3.711985E+03 -6.718252E+05 -2.715061E+03 -8.779833E+02
       311  20 -1.762378E+06 -2.339281E+05  3.969791E+03 -6.601666E+05 -6.288341E+03 -1.700416E+03
       311  21 -1.746383E+06 -2.421462E+05 -2.432527E+01 -6.636400E+05 -9.829862E+03 -2.608283E+03
       311  22 -1.794743E+06 -2.567417E+05 -3.945103E+03 -6.790925E+05 -2.615688E+03 -8.408760E+02
       311  23 -1.800887E+06 -2.485448E+05 -6.592545E+03 -6.707090E+05 -6.205986E+03 -1.669651E+03
       311  24 -1.795361E+06 -2.611253E+05 -1.350566E+04 -6.774576E+05 -9.764464E+03 -2.583836E+03
       311  25 -1.822786E+06 -2.669997E+05 -1.160225E+04 -6.863594E+05 -2.516320E+03 -8.037704E+02
       311  26 -1.839395E+06 -2.631614E+05 -1.715502E+04 -6.812508E+05 -6.123636E+03 -1.638889E+03
       311  27 -1.844336E+06 -2.801042E+05 -2.698723E+04 -6.912743E+05 -9.699072E+03 -2.559391E+03
       312   1 -1.693145E+06 -2.183533E+05  1.127405E+04 -6.535023E+05  1.252915E+04  3.278212E+03
       312   2 -1.685588E+06 -2.004994E+05  2.428599E+03 -6.414935E+05  2.757988E+04  8.405616E+03
       312   3 -1.684030E+06 -2.374676E+05 -2.921075E+04 -6.323528E+05  4.247071E+04  1.396114E+04
       312   4 -1.797456E+06 -2.556002E+05 -1.691041E+04 -6.796265E+05  1.239644E+04  3.228655E+03
       312   5 -1.796578E+06 -2.432776E+05 -2.813845E+04 -6.725525E+05  2.753094E+04  8.387240E+03
       312   6 -1.801718E+06 -2.857986E+05 -6.223016E+04 -6.683461E+05  4.250534E+04  1.397373E+04
       312   7 -1.901757E+06 -2.928468E+05 -4.509583E+04 -7.057468E+05  1.226375E+04  3.179107E+03
       312   8 -1.907555E+06 -2.860549E+05 -5.870661E+04 -7.036064E+05  2.748200E+04  8.368868E+03
       312   9 -1.919392E+06 -3.341281E+05 -9.525084E+04 -7.043330E+05  4.253996E+04  1.398632E+04
       312  10 -1.693146E+06 -2.183533E+05  1.127373E+04 -6.535023E+05  1.677544E-10  4.948963E-11
       312  11 -1.685589E+06 -2.004997E+05  2.427032E+03 -6.414937E+05 -1.096100E-09 -1.844476E-09
       312  12 -1.684032E+06 -2.374683E+05 -2.921452E+04 -6.323533E+05 -6.210125E-12 -7.048417E-10
       312  13 -1.797457E+06 -2.556003E+05 -1.691072E+04 -6.796265E+05  5.185819E-11  8.975550E-10
       312  14 -1.796579E+06 -2.432779E+05 -2.814001E+04 -6.725527E+05  6.127925E-10  2.121009E-10
       312  15 -1.801720E+06 -2.857993E+05 -6.223393E+04 -6.683466E+05  1.259419E-11 -6.388222E-10
       312  16 -1.901757E+06 -2.928469E+05 -4.509613E+04 -7.057468E+05 -5.232557E-10 -9.172797E-10
       312  17 -1.907556E+06 -2.860552E+05 -5.870817E+04 -7.036066E+05  1.247280E-10  1.697057E-10
       312  18 -1.919394E+06 -3.341288E+05 -9.525462E+04 -7.043335E+05  1.051513E-09  1.026673E-09
       312  19 -1.693145E+06 -2.183533E+05  1.127405E+04 -6.535023E+05 -1.252915E+04 -3.278212E+03
       312  20 -1.685588E+06 -2.004994E+05  2.428599E+03 -6.414935E+05 -2.757988E+04 -8.405616E+03
       312  21 -1.684030E+06 -2.374676E+05 -2.921075E+04 -6.323528E+05 -4.247071E+04 -1.396114E+04
       312  22 -1.797456E+06 -2.556002E+05 -1.691041E+04 -6.796265E+05 -1.239644E+04 -3.228655E+03
       312  23 -1.796578E+06 -2.432776E+05 -2.813845E+04 -6.725525E+05 -2.753094E+04 -8.387240E+03
       312  24 -1.801718E+06 -2.857986E+05 -6.223016E+04 -6.683461E+05 -4.250534E+04 -1.397373E+04
       312  25 -1.901757E+06 -2.928468E+05 -4.509583E+04 -7.057468E+05 -1.226375E+04 -3.179107E+03
       312  26 -1.907555E+06 -2.860549E+05 -5.870661E+04 -7.036064E+05 -2.748200E+04 -8.368868E+03
       312  27 -1.919392E+06 -3.341281E+05 -9.525084E+04 -7.043330E+05 -4.253996E+04 -1.398632E+04
       313   1 -1.642873E+06 -2.003230E+05 -3.184579E+04 -6.544651E+05  5.444067E+04  1.787058E+04
       313   2 -1.611904E+06 -1.364969E+05 -7.462970E+04 -6.305681E+05  1.203868E+05  4.200413E+04
       313   3 -1.691828E+06 -3.718805E+05 -2.463768E+05 -5.391663E+05  1.854665E+05  6.845921E+04
       313   4 -1.812425E+06 -2.505014E+05 -7.555390E+04 -6.862576E+05  5.409859E+04  1.774402E+04
       313   5 -1.771511E+06 -2.039831E+05 -1.197380E+05 -6.813932E+05  1.204962E+05  4.204325E+04
       313   6 -1.841610E+06 -4.568129E+05 -2.932701E+05 -6.090157E+05  1.860282E+05  6.865905E+04
       313   7 -1.981948E+06 -3.006805E+05 -1.192643E+05 -7.180435E+05  5.375662E+04  1.761748E+04
       313   8 -1.931093E+06 -2.714660E+05 -1.648487E+05 -7.322057E+05  1.206055E+05  4.208236E+04
       313   9 -1.991368E+06 -5.417337E+05 -3.401654E+05 -6.788469E+05  1.865897E+05  6.885877E+04
       313  10 -1.642877E+06 -2.003242E+05 -3.185197E+04 -6.544659E+05  4.630750E-10  2.062189E-10
       313  11 -1.611920E+06 -1.365027E+05 -7.466034E+04 -6.305722E+05 -1.216795E-10 -3.887096E-10
       313  12 -1.691866E+06 -3.718948E+05 -2.464504E+05 -5.391765E+05 -3.514695E-10 -3.544719E-10
       313  13 -1.812428E+06 -2.505025E+05 -7.556001E+04 -6.862584E+05  8.709144E-10  9.446053E-10
       313  14 -1.771527E+06 -2.039889E+05 -1.197687E+05 -6.813972E+05  2.884781E-10 -2.931057E-11
       313  15 -1.841649E+06 -4.568273E+05 -2.933442E+05 -6.090260E+05 -3.115289E-10 -6.081704E-10
       313  16 -1.981951E+06 -3.006816E+05 -1.192703E+05 -7.180442E+05  1.177485E-10 -1.189467E-10
       313  17 -1.931109E+06 -2.714718E+05 -1.648795E+05 -7.322098E+05 -4.743211E-10 -2.195718E-10
       313  18 -1.991407E+06 -5.417482E+05 -3.402400E+05 -6.788572E+05 -2.539958E-11 -2.667956E-10
       313  19 -1.642873E+06 -2.003230E+05 -3.184579E+04 -6.544651E+05 -5.444067E+04 -1.787058E+04
       313  20 -1.611904E+06 -1.364969E+05 -7.462970E+04 -6.305681E+05 -1.203868E+05 -4.200413E+04
       313  21 -1.691828E+06 -3.718805E+05 -2.463768E+05 -5.391663E+05 -1.854665E+05 -6.845921E+04
       313  22 -1.812425E+06 -2.505014E+05 -7.555390E+04 -6.862576E+05 -5.409859E+04 -1.774402E+04
       313  23 -1.771511E+06 -2.039831E+05 -1.197380E+05 -6.813932E+05 -1.204962E+05 -4.204325E+04
       313  24 -1.841610E+06 -4.568129E+05 -2.932701E+05 -6.090157E+05 -1.860282E+05 -6.865905E+04
       313  25 -1.981948E+06 -3.006805E+05 -1.192643E+05 -7.180435E+05 -5.375662E+04 -1.761748E+04
       313  26 -1.931093E+06 -2.714660E+05 -1.648487E+05 -7.322057E+05 -1.206055E+05 -4.208236E+04
       313  27 -1.991368E+06 -5.417337E+05 -3.401654E+05 -6.788469E+05 -1.865897E+05 -6.885877E+04
       314   1  3.154885E+06  6.579846E+05  8.948568E+05  9.502624E+04  6.982476E+05  5.027983E+03
       314   2  3.040630E+06 -2.933591E+05  3.202811E+05  4.518652E+04  4.602244E+05  8.800665E+03
       314   3  3.235250E+06 -1.390841E+05  1.771409E+05 -7.485564E+04  2.221844E+05  6.201312E+03
       314   4  3.675602E+06  7.866234E+05  1.023936E+06 -2.044808E+04  7.003379E+05  4.903785E+03
       314   5  3.521815E+06 -1.738889E+05  4.390144E+05  1.591731E+04  4.607401E+05  8.779321E+03
       314   6  3.676907E+06 -2.899815E+04  2.863572E+05 -1.792891E+04  2.211410E+05  6.219222E+03
       314   7  4.196593E+06  9.152922E+05  1.153001E+06 -1.360190E+05  7.024298E+05  4.778905E+03
       314   8  4.003211E+06 -5.443268E+04  5.577312E+05 -1.337464E+04  4.612560E+05  8.757942E+03
       314   9  4.118748E+06  8.108534E+04  3.955608E+05  3.903810E+04  2.200968E+05  6.236930E+03
       314  10  3.154364E+06  6.578546E+05  8.939451E+05  9.502344E+04  6.562432E-10  2.335858E-09
       314  11  3.040403E+06 -2.934157E+05  3.198850E+05  4.518327E+04 -7.855553E-10  1.017308E-09
       314  12  3.235197E+06 -1.390973E+05  1.770485E+05 -7.485675E+04  3.434893E-10 -1.180645E-10
       314  13  3.675078E+06  7.864926E+05  1.023019E+06 -2.045084E+04  1.694401E-09  1.132054E-09
       314  14  3.521588E+06 -1.739456E+05  4.386177E+05  1.591406E+04 -1.736938E-09 -8.102132E-10
       314  15  3.676855E+06 -2.901122E+04  2.862658E+05 -1.793001E+04 -1.833457E-09 -2.610853E-11
       314  16  4.196066E+06  9.151608E+05  1.152080E+06 -1.360217E+05 -1.527624E-10  4.851001E-10
       314  17  4.002984E+06 -5.448940E+04  5.573338E+05 -1.337788E+04 -1.477433E-09  1.869153E-09
       314  18  4.118696E+06  8.107240E+04  3.954703E+05  3.903700E+04 -2.009586E-09 -3.496642E-10
       314  19  3.154885E+06  6.579846E+05  8.948568E+05  9.502624E+04 -6.982476E+05 -5.027983E+03
       314  20  3.040630E+06 -2.933591E+05  3.202811E+05  4.518652E+04 -4.602244E+05 -8.800665E+03
       314  21  3.235250E+06 -1.390841E+05  1.771409E+05 -7.485564E+04 -2.221844E+05 -6.201312E+03
       314  22  3.675602E+06  7.866234E+05  1.023936E+06 -2.044808E+04 -7.003379E+05 -4.903785E+03
       314  23  3.521815E+06 -1.738889E+05  4.390144E+05  1.591731E+04 -4.607401E+05 -8.779321E+03
       314  24  3.676907E+06 -2.899815E+04  2.863572E+05 -1.792891E+04 -2.211410E+05 -6.219222E+03
       314  25  4.196593E+06  9.152922E+05  1.153001E+06 -1.360190E+05 -7.024298E+05 -4.778905E+03
       314  26  4.003211E+06 -5.443268E+04  5.577312E+05 -1.337464E+04 -4.612560E+05 -8.757942E+03
       314  27  4.118748E+06  8.108534E+04  3.955608E+05  3.903810E+04 -2.200968E+05 -6.236930E+03
       315   1  3.318264E+06  3.936289E+04  1.623038E+05  3.477514E+03  1.739274E+05  4.364557E+03
       315   2  3.317498E+06 -9.419734E+04  4.561372E+04  1.170711E+04  1.143643E+05  4.067493E+03
       315   3  3.365113E+06 -6.724484E+04  7.813101E+03 -2.057050E+04  5.480169E+04  3.215079E+03
       315   4  3.618683E+06  1.140019E+05  2.365272E+05 -1.223000E+04  1.739996E+05  4.360070E+03
       315   5  3.594620E+06 -2.530060E+04  1.140725E+05  8.110865E+03  1.142899E+05  4.066594E+03
       315   6  3.618940E+06 -4.104926E+03  7.058129E+04 -1.205411E+04  5.458282E+04  3.215568E+03
       315   7  3.919184E+06  1.886351E+05  3.107440E+05 -2.794511E+04  1.740719E+05  4.355580E+03
       315   8  3.871811E+06  4.359050E+04  1.825256E+05  4.512999E+03  1.142154E+05  4.065696E+03
       315   9  3.872825E+06  5.903046E+04  1.333447E+05 -3.534264E+03  5.436387E+04  3.216051E+03
       315  10  3.318232E+06  3.935480E+04  1.622473E+05  3.476904E+03 -1.515592E-09 -2.050978E-09
       315  11  3.317484E+06 -9.420085E+04  4.558924E+04  1.170674E+04 -4.702347E-11  7.902423E-10
       315  12  3.365110E+06 -6.724565E+04  7.807468E+03 -2.057065E+04  3.627964E-10 -2.619403E-10
       315  13  3.618651E+06  1.139938E+05  2.364706E+05 -1.223061E+04  2.376572E-10 -1.173666E-09
       315  14  3.594606E+06 -2.530409E+04  1.140480E+05  8.110491E+03  8.109005E-11  4.080084E-10
       315  15  3.618937E+06 -4.105731E+03  7.057570E+04 -1.205425E+04 -1.005755E-09 -4.357394E-10
       315  16  3.919152E+06  1.886270E+05  3.106874E+05 -2.794572E+04  2.044985E-09 -1.550251E-10
       315  17  3.871798E+06  4.358701E+04  1.825012E+05  4.512626E+03 -1.544632E-09 -1.100286E-09
       315  18  3.872822E+06  5.902966E+04  1.333392E+05 -3.534405E+03 -4.921299E-10  1.154244E-09
       315  19  3.318264E+06  3.936289E+04  1.623038E+05  3.477514E+03 -1.739274E+05 -4.364557E+03
       315  20  3.317498E+06 -9.419734E+04  4.561372E+04  1.170711E+04 -1.143643E+05 -4.067493E+03
       315  21  3.365113E+06 -6.724484E+04  7.813101E+03 -2.057050E+04 -5.480169E+04 -3.215079E+03
       315  22  3.618683E+06  1.140019E+05  2.365272E+05 -1.223000E+04 -1.739996E+05 -4.360070E+03
       315  23  3.594620E+06 -2.530060E+04  1.140725E+05  8.110865E+03 -1.142899E+05 -4.066594E+03
       315  24  3.618940E+06 -4.104926E+03  7.058129E+04 -1.205411E+04 -5.458282E+04 -3.215568E+03
       315  25  3.919184E+06  1.886351E+05  3.107440E+05 -2.794511E+04 -1.740719E+05 -4.355580E+03
       315  26  3.871811E+06  4.359050E+04  1.825256E+05  4.512999E+03 -1.142154E+05 -4.065696E+03
       315  27  3.872825E+06  5.903046E+04  1.333447E+05 -3.534264E+03 -5.436387E+04 -3.216051E+03
       316   1  3.442234E+06 -2.527614E+04  1.499093E+04 -6.647105E+03  4.322472E+04  2.686767E+03
       316   2  3.452708E+06 -4.178379E+04 -8.458013E+03  4.209006E+03  2.817864E+04  2.125598E+03
       316   3  3.471097E+06 -3.506416E+04 -1.630967E+04 -9.932243E+03  1.313187E+04  1.679076E+03
       316   4  3.609909E+06  1.640183E+04  5.637127E+04 -8.668122E+03  4.310020E+04  2.686503E+03
       316   5  3.605980E+06 -3.674306E+03  2.941336E+04  3.835173E+03  2.807536E+04  2.125507E+03
       316   6  3.609960E+06 -5.302082E+02  1.803494E+04 -8.658436E+03  1.305017E+04  1.679065E+03
       316   7  3.777610E+06  5.807773E+04  9.774954E+04 -1.068969E+04  4.297565E+04  2.686240E+03
       316   8  3.759274E+06  3.443344E+04  6.728300E+04  3.461246E+03  2.797205E+04  2.125415E+03
       316   9  3.748841E+06  3.400232E+04  5.237813E+04 -7.384346E+03  1.296845E+04  1.679054E+03
       316  10  3.442232E+06 -2.527664E+04  1.498742E+04 -6.647198E+03  1.548702E-09  3.974385E-10
       316  11  3.452707E+06 -4.178401E+04 -8.459505E+03  4.208958E+03  1.752249E-09 -2.573490E-10
       316  12  3.471096E+06 -3.506421E+04 -1.631000E+04 -9.932260E+03 -2.052143E-09  1.071436E-10
       316  13  3.609907E+06  1.640133E+04  5.636779E+04 -8.668215E+03 -8.816349E-10  1.923033E-11
       316  14  3.605979E+06 -3.674521E+03  2.941188E+04  3.835125E+03  1.837191E-09 -3.935457E-10
       316  15  3.609960E+06 -5.302566E+02  1.803462E+04 -8.658453E+03  6.659697E-10  5.287954E-10
       316  16  3.777608E+06  5.807723E+04  9.774608E+04 -1.068978E+04  5.139766E-11 -7.373845E-11
       316  17  3.759273E+06  3.443322E+04  6.728153E+04  3.461198E+03 -1.216639E-09 -1.719759E-10
       316  18  3.748841E+06  3.400227E+04  5.237781E+04 -7.384363E+03 -4.510625E-10  1.198848E-09
       316  19  3.442234E+06 -2.527614E+04  1.499093E+04 -6.647105E+03 -4.322472E+04 -2.686767E+03
       316  20  3.452708E+06 -4.178379E+04 -8.458013E+03  4.209006E+03 -2.817864E+04 -2.125598E+03
       316  21  3.471097E+06 -3.506416E+04 -1.630967E+04 -9.932243E+03 -1.313187E+04 -1.679076E+03
       316  22  3.609909E+06  1.640183E+04  5.637127E+04 -8.668122E+03 -4.310020E+04 -2.686503E+03
       316  23  3.605980E+06 -3.674306E+03  2.941336E+04  3.835173E+03 -2.807536E+04 -2.125507E+03
       316  24  3.609960E+06 -5.302082E+02  1.803494E+04 -8.658436E+03 -1.305017E+04 -1.679065E+03
       316  25  3.777610E+06  5.807773E+04  9.774954E+04 -1.068969E+04 -4.297565E+04 -2.686240E+03
       316  26  3.759274E+06  3.443344E+04  6.728300E+04  3.461246E+03 -2.797205E+04 -2.125415E+03
       316  27  3.748841E+06  3.400232E+04  5.237813E+04 -7.384346E+03 -1.296845E+04 -1.679054E+03
       317   1  3.524982E+06 -1.844288E+04 -6.197587E+03 -6.601221E+03  1.021059E+04  1.429495E+03
       317   2  3.533967E+06 -1.893833E+04 -9.485552E+03  1.617067E+03  5.783294E+03  1.010896E+03
       317   3  3.544478E+06 -1.575251E+04 -8.976430E+03 -7.062825E+03  1.355840E+03  6.982168E+02
       317   4  3.608539E+06  2.323970E+03  1.440847E+04 -6.861657E+03  1.010927E+04  1.429470E+03
       317   5  3.607783E+06 -5.854946E+02  8.753472E+03  1.587465E+03  5.704423E+03  1.010890E+03
       317   6  3.608547E+06  1.821558E+02  6.879673E+03 -6.861462E+03  1.299493E+03  6.982198E+02
       317   7  3.692102E+06  2.309030E+04  3.501401E+04 -7.122128E+03  1.000793E+04  1.429446E+03
       317   8  3.681603E+06  1.776693E+04  2.699209E+04  1.557861E+03  5.625542E+03  1.010883E+03
       317   9  3.672621E+06  1.611651E+04  2.273547E+04 -6.660079E+03  1.243140E+03  6.982227E+02
       317  10  3.524982E+06 -1.844291E+04 -6.197785E+03 -6.601233E+03  8.019009E-10  4.260281E-10
       317  11  3.533967E+06 -1.893834E+04 -9.485617E+03  1.617062E+03 -1.661614E-09 -6.567641E-10
       317  12  3.544478E+06 -1.575251E+04 -8.976434E+03 -7.062825E+03 -7.556429E-10  4.475880E-10
       317  13  3.608539E+06  2.323941E+03  1.440828E+04 -6.861669E+03  1.308868E-10  5.729514E-10
       317  14  3.607783E+06 -5.855044E+02  8.753409E+03  1.587461E+03  1.154713E-09 -5.455512E-10
       317  15  3.608547E+06  1.821548E+02  6.879668E+03 -6.861463E+03  5.872729E-10  4.927993E-10
       317  16  3.692102E+06  2.309027E+04  3.501382E+04 -7.122140E+03  8.538411E-10  1.889807E-10
       317  17  3.681603E+06  1.776692E+04  2.699203E+04  1.557856E+03 -7.949078E-12 -1.364109E-09
       317  18  3.672621E+06  1.611651E+04  2.273547E+04 -6.660080E+03  2.748368E-09 -6.962534E-11
       317  19  3.524982E+06 -1.844288E+04 -6.197587E+03 -6.601221E+03 -1.021059E+04 -1.429495E+03
       317  20  3.533967E+06 -1.893833E+04 -9.485552E+03  1.617067E+03 -5.783294E+03 -1.010896E+03
       317  21  3.544478E+06 -1.575251E+04 -8.976430E+03 -7.062825E+03 -1.355840E+03 -6.982168E+02
       317  22  3.608539E+06  2.323970E+03  1.440847E+04 -6.861657E+03 -1.010927E+04 -1.429470E+03
       317  23  3.607783E+06 -5.854946E+02  8.753472E+03  1.587465E+03 -5.704423E+03 -1.010890E+03
       317  24  3.608547E+06  1.821558E+02  6.879673E+03 -6.861462E+03 -1.299493E+03 -6.982198E+02
       317  25  3.692102E+06  2.309030E+04  3.501401E+04 -7.122128E+03 -1.000793E+04 -1.429446E+03
       317  26  3.681603E+06  1.776693E+04  2.699209E+04  1.557861E+03 -5.625542E+03 -1.010883E+03
       317  27  3.672621E+06  1.611651E+04  2.273547E+04 -6.660079E+03 -1.243140E+03 -6.982227E+02
       318   1  3.584839E+06 -5.605712E+03  8.390531E+02 -5.981185E+03  1.433664E+02  5.293083E+02
       318   2  3.592119E+06 -4.397074E+03  3.618989E+03  6.786105E+02 -3.639513E+03  2.148184E+02
       318   3  3.600643E+06 -1.477260E+02  9.610376E+03 -6.369972E+03 -7.422405E+03 -6.688583E+01
       318   4  3.608487E+06  2.679472E+02  6.653093E+03 -6.152775E+03  7.146575E+01  5.293184E+02
       318   5  3.607862E+06 -4.829655E+02  7.508998E+03  7.015620E+02 -3.704394E+03  2.148292E+02
       318   6  3.608481E+06  1.805613E+03  1.157149E+04 -6.152458E+03 -7.480219E+03 -6.687667E+01
       318   7  3.632135E+06  6.141565E+03  1.246709E+04 -6.324372E+03 -4.375929E-01  5.293286E+02
       318   8  3.623605E+06  3.431124E+03  1.139899E+04  7.245141E+02 -3.769277E+03  2.148401E+02
       318   9  3.616318E+06  3.758947E+03  1.353260E+04 -5.934941E+03 -7.538034E+03 -6.686755E+01
       318  10  3.584839E+06 -5.605712E+03  8.390526E+02 -5.981185E+03  3.388292E-10  1.079514E-09
       318  11  3.592119E+06 -4.397077E+03  3.618964E+03  6.786111E+02  5.043093E-10 -1.231557E-09
       318  12  3.600643E+06 -1.477407E+02  9.610273E+03 -6.369972E+03 -1.136237E-09 -4.076117E-10
       318  13  3.608487E+06  2.679469E+02  6.653092E+03 -6.152775E+03 -1.414775E-09  8.847614E-10
       318  14  3.607862E+06 -4.829692E+02  7.508972E+03  7.015626E+02 -2.156585E-09 -2.035763E-10
       318  15  3.608480E+06  1.805598E+03  1.157139E+04 -6.152458E+03  1.916299E-09 -8.477209E-10
       318  16  3.632135E+06  6.141565E+03  1.246709E+04 -6.324372E+03 -5.776054E-10  5.690158E-10
       318  17  3.623605E+06  3.431121E+03  1.139896E+04  7.245148E+02 -2.828867E-09  7.328193E-10
       318  18  3.616318E+06  3.758931E+03  1.353249E+04 -5.934941E+03  3.043232E-10 -5.896287E-10
       318  19  3.584839E+06 -5.605712E+03  8.390531E+02 -5.981185E+03 -1.433664E+02 -5.293083E+02
       318  20  3.592119E+06 -4.397074E+03  3.618989E+03  6.786105E+02  3.639513E+03 -2.148184E+02
       318  21  3.600643E+06 -1.477260E+02  9.610376E+03 -6.369972E+03  7.422405E+03  6.688583E+01
       318  22  3.608487E+06  2.679472E+02  6.653093E+03 -6.152775E+03 -7.146575E+01 -5.293184E+02
       318  23  3.607862E+06 -4.829655E+02  7.508998E+03  7.015620E+02  3.704394E+03 -2.148292E+02
       318  24  3.608481E+06  1.805613E+03  1.157149E+04 -6.152458E+03  7.480219E+03  6.687667E+01
       318  25  3.632135E+06  6.141565E+03  1.246709E+04 -6.324372E+03  4.375929E-01 -5.293286E+02
       318  26  3.623605E+06  3.431124E+03  1.139899E+04  7.245141E+02  3.769277E+03 -2.148401E+02
       318  27  3.616318E+06  3.758947E+03  1.353260E+04 -5.934941E+03  7.538034E+03  6.686755E+01
       319   1  3.638957E+06  6.924331E+03  2.155919E+04 -5.357615E+03 -9.758586E+03 -2.280654E+02
       319   2  3.644286E+06  6.543547E+03  3.226348E+04  5.890747E+02 -2.146964E+04 -5.216674E+02
       319   3  3.655633E+06  2.417645E+04  5.506351E+04 -7.955921E+03 -3.318110E+04 -8.177892E+02
       319   4  3.609546E+06 -3.920544E+02  1.426834E+04 -6.327251E+03 -9.822107E+03 -2.280385E+02
       319   5  3.606517E+06 -2.846426E+03  2.293272E+04  9.192108E+02 -2.153308E+04 -5.216720E+02
       319   6  3.609505E+06  1.271350E+04  4.369336E+04 -6.326037E+03 -3.324431E+04 -8.178739E+02
       319   7  3.580136E+06 -7.708501E+03  6.977428E+03 -7.296841E+03 -9.885625E+03 -2.280114E+02
       319   8  3.568749E+06 -1.223650E+04  1.360185E+04  1.249327E+03 -2.159652E+04 -5.216767E+02
       319   9  3.563379E+06  1.250401E+03  3.232304E+04 -4.696274E+03 -3.330752E+04 -8.179588E+02
       319  10  3.638956E+06  6.924305E+03  2.155901E+04 -5.357617E+03 -1.696722E-09 -2.973372E-10
       319  11  3.644286E+06  6.543424E+03  3.226262E+04  5.890657E+02 -2.318021E-11  3.555304E-10
       319  12  3.655632E+06  2.417615E+04  5.506146E+04 -7.955942E+03  4.405982E-10  7.867330E-11
       319  13  3.609546E+06 -3.920802E+02  1.426816E+04 -6.327253E+03 -8.527093E-10 -4.897738E-10
       319  14  3.606517E+06 -2.846549E+03  2.293185E+04  9.192018E+02  1.377314E-09 -8.106052E-10
       319  15  3.609504E+06  1.271320E+04  4.369129E+04 -6.326059E+03 -5.972727E-10  5.699604E-11
       319  16  3.580136E+06 -7.708527E+03  6.977246E+03 -7.296843E+03 -3.690010E-10  8.127681E-10
       319  17  3.568748E+06 -1.223663E+04  1.360098E+04  1.249318E+03  4.636430E-10 -6.304485E-10
       319  18  3.563378E+06  1.250104E+03  3.232097E+04 -4.696296E+03  2.999491E-10 -4.292821E-10
       319  19  3.638957E+06  6.924331E+03  2.155919E+04 -5.357615E+03  9.758586E+03  2.280654E+02
       319  20  3.644286E+06  6.543547E+03  3.226348E+04  5.890747E+02  2.146964E+04  5.216674E+02
       319  21  3.655633E+06  2.417645E+04  5.506351E+04 -7.955921E+03  3.318110E+04  8.177892E+02
       319  22  3.609546E+06 -3.920544E+02  1.426834E+04 -6.327251E+03  9.822107E+03  2.280385E+02
       319  23  3.606517E+06 -2.846426E+03  2.293272E+04  9.192108E+02  2.153308E+04  5.216720E+02
       319  24  3.609505E+06  1.271350E+04  4.369336E+04 -6.326037E+03  3.324431E+04  8.178739E+02
       319  25  3.580136E+06 -7.708501E+03  6.977428E+03 -7.296841E+03  9.885625E+03  2.280114E+02
       319  26  3.568749E+06 -1.223650E+04  1.360185E+04  1.249327E+03  2.159652E+04  5.216767E+02
       319  27  3.563379E+06  1.250401E+03  3.232304E+04 -4.696274E+03  3.330752E+04  8.179588E+02
       320   1  3.707422E+06  1.945913E+04  7.714256E+04 -9.559982E+02 -4.202520E+04 -1.069944E+03
       320   2  3.700033E+06  5.844088E+03  1.135080E+05 -6.551112E+02 -8.828391E+04 -1.467910E+03
       320   3  3.729704E+06  1.164206E+05  2.109276E+05 -1.986069E+04 -1.345444E+05 -1.604878E+03
       320   4  3.616439E+06 -3.164078E+03  5.463999E+04 -7.435488E+03 -4.213561E+04 -1.069513E+03
       320   5  3.597809E+06 -1.956737E+04  8.826107E+04  2.306983E+03 -8.833126E+04 -1.468351E+03
       320   6  3.616234E+06  8.822093E+04  1.829002E+05 -7.457015E+03 -1.345279E+05 -1.607569E+03
       320   7  3.525464E+06 -2.578774E+04  3.213683E+04 -1.391403E+04 -4.224599E+04 -1.069080E+03
       320   8  3.495594E+06 -4.497956E+04  6.301339E+04  5.268591E+03 -8.837860E+04 -1.468792E+03
       320   9  3.502776E+06  6.002090E+04  1.548720E+05  4.944399E+03 -1.345114E+05 -1.610260E+03
       320  10  3.707420E+06  1.945866E+04  7.713926E+04 -9.560344E+02  2.865943E-09 -4.740099E-10
       320  11  3.700024E+06  5.842009E+03  1.134934E+05 -6.552154E+02  1.403035E-09 -8.386906E-10
       320  12  3.729685E+06  1.164158E+05  2.108937E+05 -1.986086E+04 -3.154076E-10 -4.543995E-10
       320  13  3.616437E+06 -3.164553E+03  5.463667E+04 -7.435525E+03 -5.833379E-10  1.036382E-10
       320  14  3.597800E+06 -1.956945E+04  8.824649E+04  2.306878E+03  1.412486E-10 -1.222364E-09
       320  15  3.616215E+06  8.821611E+04  1.828664E+05 -7.457189E+03 -7.097946E-10  1.751349E-11
       320  16  3.525462E+06 -2.578822E+04  3.213349E+04 -1.391407E+04 -9.027028E-10 -1.610881E-10
       320  17  3.495586E+06 -4.498165E+04  6.299879E+04  5.268486E+03 -1.072707E-09 -1.815699E-09
       320  18  3.502757E+06  6.001608E+04  1.548382E+05  4.944225E+03  1.180946E-09  2.193611E-11
       320  19  3.707422E+06  1.945913E+04  7.714256E+04 -9.559982E+02  4.202520E+04  1.069944E+03
       320  20  3.700033E+06  5.844088E+03  1.135080E+05 -6.551112E+02  8.828391E+04  1.467910E+03
       320  21  3.729704E+06  1.164206E+05  2.109276E+05 -1.986069E+04  1.345444E+05  1.604878E+03
       320  22  3.616439E+06 -3.164078E+03  5.463999E+04 -7.435488E+03  4.213561E+04  1.069513E+03
       320  23  3.597809E+06 -1.956737E+04  8.826107E+04  2.306983E+03  8.833126E+04  1.468351E+03
       320  24  3.616234E+06  8.822093E+04  1.829002E+05 -7.457015E+03  1.345279E+05  1.607569E+03
       320  25  3.525464E+06 -2.578774E+04  3.213683E+04 -1.391403E+04  4.224599E+04  1.069080E+03
       320  26  3.495594E+06 -4.497956E+04  6.301339E+04  5.268591E+03  8.837860E+04  1.468792E+03
       320  27  3.502776E+06  6.002090E+04  1.548720E+05  4.944399E+03  1.345114E+05  1.610260E+03
       321   1  3.839849E+06  2.208717E+04  2.655536E+05  3.385254E+04 -1.705111E+05 -2.391239E+03
       321   2  3.737997E+06 -8.569958E+04  3.878614E+05 -1.792215E+04 -3.564506E+05 -3.336050E+03
       321   3  3.873900E+06  6.613226E+05  8.445517E+05 -1.004912E+05 -5.423832E+05 -1.524995E+03
       321   4  3.661108E+06 -2.239112E+04  2.213753E+05 -9.781156E+03 -1.709653E+05 -2.379544E+03
       321   5  3.541723E+06 -1.344490E+05  3.394430E+05  5.332273E+03 -3.562638E+05 -3.349321E+03
       321   6  3.660052E+06  6.083192E+05  7.915259E+05 -1.033744E+04 -5.415501E+05 -1.602693E+03
       321   7  3.482399E+06 -6.686468E+04  1.771956E+05 -5.340235E+04 -1.714194E+05 -2.367783E+03
       321   8  3.345484E+06 -1.831992E+05  2.910221E+05  2.857938E+04 -3.560771E+05 -3.362582E+03
       321   9  3.446263E+06  5.553428E+05  7.385010E+05  7.978541E+04 -5.407173E+05 -1.680173E+03
       321  10  3.839818E+06  2.207942E+04  2.654993E+05  3.385221E+04  2.145731E-10  1.693526E-10
       321  11  3.737861E+06 -8.573344E+04  3.876240E+05 -1.792311E+04  8.923908E-10 -8.946005E-10
       321  12  3.873585E+06  6.612442E+05  8.440022E+05 -1.004919E+05  4.970961E-10  1.855664E-10
       321  13  3.661076E+06 -2.239891E+04  2.213207E+05 -9.781484E+03 -3.398796E-09  5.363713E-11
       321  14  3.541587E+06 -1.344828E+05  3.392058E+05  5.331314E+03 -8.667450E-10 -2.863156E-10
       321  15  3.659738E+06  6.082410E+05  7.909779E+05 -1.033814E+04 -8.226208E-10 -7.878212E-10
       321  16  3.482367E+06 -6.687252E+04  1.771407E+05 -5.340267E+04 -4.541966E-10  6.071909E-10
       321  17  3.345349E+06 -1.832331E+05  2.907851E+05  2.857841E+04 -1.056722E-09 -8.445486E-10
       321  18  3.445950E+06  5.552648E+05  7.379546E+05  7.978469E+04  8.590487E-10  4.438065E-10
       321  19  3.839849E+06  2.208717E+04  2.655536E+05  3.385254E+04  1.705111E+05  2.391239E+03
       321  20  3.737997E+06 -8.569958E+04  3.878614E+05 -1.792215E+04  3.564506E+05  3.336050E+03
       321  21  3.873900E+06  6.613226E+05  8.445517E+05 -1.004912E+05  5.423832E+05  1.524995E+03
       321  22  3.661108E+06 -2.239112E+04  2.213753E+05 -9.781156E+03  1.709653E+05  2.379544E+03
       321  23  3.541723E+06 -1.344490E+05  3.394430E+05  5.332273E+03  3.562638E+05  3.349321E+03
       321  24  3.660052E+06  6.083192E+05  7.915259E+05 -1.033744E+04  5.415501E+05  1.602693E+03
       321  25  3.482399E+06 -6.686468E+04  1.771956E+05 -5.340235E+04  1.714194E+05  2.367783E+03
       321  26  3.345484E+06 -1.831992E+05  2.910221E+05  2.857938E+04  3.560771E+05  3.362582E+03
       321  27  3.446263E+06  5.553428E+05  7.385010E+05  7.978541E+04  5.407173E+05  1.680173E+03
       322   1  2.391660E+05  3.998992E+05  3.394129E+05 -4.431478E+04 -2.786578E+03  2.833227E+05
       322   2 -1.597670E+05  3.414948E+05  1.026100E+05 -1.494461E+04 -5.936875E+03  1.816056E+05
       322   3 -9.248594E+04  4.137054E+05  4.876449E+04  2.699791E+04 -4.950414E+03  7.989526E+04
       322   4  3.270606E+05  7.535392E+05  4.274161E+05  3.571121E+03 -2.768558E+03  2.846378E+05
       322   5 -7.336519E+04  6.882296E+05  1.884590E+05 -3.252155E+03 -5.934073E+03  1.819728E+05
       322   6 -7.555619E+03  7.536263E+05  1.330433E+05  2.498727E+03 -4.952000E+03  7.931583E+04
       322   7  4.149546E+05  1.107298E+06  5.154112E+05  5.148437E+04 -2.750344E+03  2.859537E+05
       322   8  1.302815E+04  1.035074E+06  2.742992E+05  8.446908E+03 -5.931258E+03  1.823402E+05
       322   9  7.736826E+04  1.093653E+06  2.173138E+05 -2.201382E+04 -4.953541E+03  7.873607E+04
       322  10  2.391444E+05  3.998131E+05  3.392621E+05 -4.431415E+04  2.348234E-10 -2.108299E-09
       322  11 -1.597759E+05  3.414594E+05  1.025480E+05 -1.494374E+04  9.140490E-10 -2.933022E-09
       322  12 -9.248768E+04  4.136985E+05  4.875246E+04  2.699823E+04  1.074910E-09  9.583142E-10
       322  13  3.270389E+05  7.534523E+05  4.272640E+05  3.571755E+03  2.206924E-09 -1.175674E-10
       322  14 -7.337411E+04  6.881941E+05  1.883968E+05 -3.251286E+03 -2.544236E-09 -3.718173E-09
       322  15 -7.557331E+03  7.536195E+05  1.330314E+05  2.499043E+03  2.417264E-10  1.742507E-10
       322  16  4.149327E+05  1.107210E+06  5.152578E+05  5.148501E+04 -2.272918E-10  4.841786E-10
       322  17  1.301921E+04  1.035038E+06  2.742368E+05  8.447779E+03  8.084487E-10 -1.348375E-09
       322  18  7.736658E+04  1.093647E+06  2.173021E+05 -2.201351E+04  2.819274E-10 -1.844900E-09
       322  19  2.391660E+05  3.998992E+05  3.394129E+05 -4.431478E+04  2.786578E+03 -2.833227E+05
       322  20 -1.597670E+05  3.414948E+05  1.026100E+05 -1.494461E+04  5.936875E+03 -1.816056E+05
       322  21 -9.248594E+04  4.137054E+05  4.876449E+04  2.699791E+04  4.950414E+03 -7.989526E+04
       322  22  3.270606E+05  7.535392E+05  4.274161E+05  3.571121E+03  2.768558E+03 -2.846378E+05
       322  23 -7.336519E+04  6.882296E+05  1.884590E+05 -3.252155E+03  5.934073E+03 -1.819728E+05
       322  24 -7.555619E+03  7.536263E+05  1.330433E+05  2.498727E+03  4.952000E+03 -7.931583E+04
       322  25  4.149546E+05  1.107298E+06  5.154112E+05  5.148437E+04  2.750344E+03 -2.859537E+05
       322  26  1.302815E+04  1.035074E+06  2.742992E+05  8.446908E+03  5.931258E+03 -1.823402E+05
       322  27  7.736826E+04  1.093653E+06  2.173138E+05 -2.201382E+04  4.953541E+03 -7.873607E+04
       323   1 -3.243873E+04  4.161686E+05  3.805875E+04 -6.869762E+03 -4.199512E+03  5.667016E+04
       323   2 -9.530880E+04  4.032255E+05  6.909131E+01 -1.979418E+03 -4.513950E+03  1.637366E+04
       323   3 -4.735452E+04  4.238503E+05  1.613950E+04  9.664299E+03 -3.881271E+03 -2.392152E+04
       323   4  4.631534E+04  7.320225E+05  1.163864E+05  1.594280E+03 -4.198985E+03  5.687820E+04
       323   5 -1.748187E+04  7.152300E+05  7.738923E+04 -1.810913E+03 -4.513770E+03  1.635879E+04
       323   6  2.955383E+04  7.320280E+05  9.258790E+04  1.536991E+03 -3.880573E+03 -2.415905E+04
       323   7  1.250622E+05  1.047967E+06  1.947067E+05  1.006267E+04 -4.198454E+03  5.708634E+04
       323   8  6.033779E+04  1.027323E+06  1.547021E+05 -1.642288E+03 -4.513590E+03  1.634392E+04
       323   9  1.064553E+05  1.040292E+06  1.690292E+05 -6.594328E+03 -3.879869E+03 -2.439669E+04
       323  10 -3.243961E+04  4.161652E+05  3.805269E+04 -6.869570E+03 -2.372854E-10 -3.917191E-10
       323  11 -9.530890E+04  4.032252E+05  6.854955E+01 -1.979359E+03  2.496857E-10 -1.534386E-09
       323  12 -4.735469E+04  4.238497E+05  1.613840E+04  9.664225E+03 -6.619444E-10  6.099263E-11
       323  13  4.631445E+04  7.320190E+05  1.163803E+05  1.594472E+03  1.941154E-10 -1.589866E-11
       323  14 -1.748196E+04  7.152297E+05  7.738869E+04 -1.810854E+03  1.258338E-09 -1.629388E-09
       323  15  2.955366E+04  7.320273E+05  9.258678E+04  1.536915E+03  1.613326E-09 -4.583317E-10
       323  16  1.250613E+05  1.047964E+06  1.947006E+05  1.006287E+04 -1.089169E-10 -1.962976E-11
       323  17  6.033769E+04  1.027322E+06  1.547016E+05 -1.642229E+03 -1.101205E-09 -4.704244E-10
       323  18  1.064551E+05  1.040291E+06  1.690281E+05 -6.594404E+03 -1.196444E-09 -3.380183E-10
       323  19 -3.243873E+04  4.161686E+05  3.805875E+04 -6.869762E+03  4.199512E+03 -5.667016E+04
       323  20 -9.530880E+04  4.032255E+05  6.909131E+01 -1.979418E+03  4.513950E+03 -1.637366E+04
       323  21 -4.735452E+04  4.238503E+05  1.613950E+04  9.664299E+03  3.881271E+03  2.392152E+04
       323  22  4.631534E+04  7.320225E+05  1.163864E+05  1.594280E+03  4.198985E+03 -5.687820E+04
       323  23 -1.748187E+04  7.152300E+05  7.738923E+04 -1.810913E+03  4.513770E+03 -1.635879E+04
       323  24  2.955383E+04  7.320280E+05  9.258790E+04  1.536991E+03  3.880573E+03  2.415905E+04
       323  25  1.250622E+05  1.047967E+06  1.947067E+05  1.006267E+04  4.198454E+03 -5.708634E+04
       323  26  6.033779E+04  1.027323E+06  1.547021E+05 -1.642288E+03  4.513590E+03 -1.634392E+04
       323  27  1.064553E+05  1.040292E+06  1.690292E+05 -6.594328E+03  3.879869E+03  2.439669E+04
       324   1 -7.495134E+04  4.479211E+05  2.662143E+04 -1.552393E+04 -4.238314E+03 -4.191249E+04
       324   2 -1.227595E+05  4.052566E+05  5.648694E+04  7.630866E+03 -4.531367E+03 -1.115739E+05
       324   3  1.419916E+05  4.503276E+05  2.099519E+05  3.298979E+04 -1.518652E+03 -1.812322E+05
       324   4 -1.111885E+03  7.440991E+05  1.000062E+05  5.137542E+02 -4.239662E+03 -4.149179E+04
       324   5 -4.919674E+04  7.001540E+05  1.295207E+05 -5.750049E+02 -4.529615E+03 -1.118979E+05
       324   6  2.153264E+05  7.440335E+05  2.831102E+05  5.390671E+02 -1.509058E+03 -1.823010E+05
       324   7  7.272199E+04  1.040357E+06  1.733846E+05  1.655911E+04 -4.240987E+03 -4.107087E+04
       324   8  2.435980E+04  9.951305E+05  2.025479E+05 -8.784765E+03 -4.527855E+03 -1.122222E+05
       324   9  2.886587E+05  1.037820E+06  3.562626E+05 -3.192700E+04 -1.499355E+03 -1.833703E+05
       324  10 -7.495183E+04  4.479193E+05  2.661810E+04 -1.552407E+04 -5.988887E-10 -9.373012E-10
       324  11 -1.227629E+05  4.052433E+05  5.646353E+04  7.630459E+03 -5.638278E-10 -8.524166E-10
       324  12  1.419828E+05  4.502924E+05  2.098903E+05  3.298957E+04 -1.255366E-10  1.816677E-10
       324  13 -1.112366E+03  7.440972E+05  1.000030E+05  5.136126E+02  2.320130E-10  3.926085E-10
       324  14 -4.920012E+04  7.001406E+05  1.294971E+05 -5.754130E+02 -5.578465E-11 -5.367823E-10
       324  15  2.153175E+05  7.439978E+05  2.830478E+05  5.388457E+02  2.574606E-11 -5.625540E-10
       324  16  7.272151E+04  1.040355E+06  1.733814E+05  1.655897E+04 -4.908522E-10  6.566342E-10
       324  17  2.435640E+04  9.951170E+05  2.025243E+05 -8.785174E+03 -1.527808E-10 -2.992122E-10
       324  18  2.886497E+05  1.037784E+06  3.561995E+05 -3.192722E+04 -3.891216E-10 -2.964356E-11
       324  19 -7.495134E+04  4.479211E+05  2.662143E+04 -1.552393E+04  4.238314E+03  4.191249E+04
       324  20 -1.227595E+05  4.052566E+05  5.648694E+04  7.630866E+03  4.531367E+03  1.115739E+05
       324  21  1.419916E+05  4.503276E+05  2.099519E+05  3.298979E+04  1.518652E+03  1.812322E+05
       324  22 -1.111885E+03  7.440991E+05  1.000062E+05  5.137542E+02  4.239662E+03  4.149179E+04
       324  23 -4.919674E+04  7.001540E+05  1.295207E+05 -5.750049E+02  4.529615E+03  1.118979E+05
       324  24  2.153264E+05  7.440335E+05  2.831102E+05  5.390671E+02  1.509058E+03  1.823010E+05
       324  25  7.272199E+04  1.040357E+06  1.733846E+05  1.655911E+04  4.240987E+03  4.107087E+04
       324  26  2.435980E+04  9.951305E+05  2.025479E+05 -8.784765E+03  4.527855E+03  1.122222E+05
       324  27  2.886587E+05  1.037820E+06  3.562626E+05 -3.192700E+04  1.499355E+03  1.833703E+05
       325   1 -3.800563E+06 -1.335959E+06 -6.958750E+05 -1.407111E+06 -3.164607E+05 -8.598112E+04
       325   2 -3.705817E+06 -1.108995E+06 -4.618041E+05 -1.370048E+06 -2.061834E+05  3.669528E+04
       325   3 -3.656104E+06 -1.001953E+06 -3.589750E+05 -1.325023E+06 -7.781244E+04  1.117800E+05
       325   4 -1.940997E+06 -5.278143E+05 -2.000744E+05 -7.860600E+05 -1.411339E+05 -1.968468E+04
       325   5 -1.916320E+06 -4.005760E+05 -9.420911E+04 -8.187413E+05 -1.190346E+05  6.960288E+04
       325   6 -1.918977E+06 -3.755337E+05 -4.922363E+04 -8.435029E+05 -7.889931E+04  1.113287E+05
       325   7 -7.798124E+04  2.809013E+05  2.955419E+05 -1.631945E+05  3.476545E+04  4.690487E+04
       325   8 -1.234770E+05  3.082750E+05  2.732530E+05 -2.658998E+05 -3.161507E+04  1.026310E+05
       325   9 -1.786215E+05  2.511787E+05  2.604356E+05 -3.607146E+05 -7.998943E+04  1.108762E+05
       325  10 -3.800673E+06 -1.335995E+06 -6.960785E+05 -1.407134E+06  3.252830E-09  2.019616E-09
       325  11 -3.705863E+06 -1.109008E+06 -4.618869E+05 -1.370042E+06  6.561544E-10  3.551000E-10
       325  12 -3.656114E+06 -1.001968E+06 -3.590098E+05 -1.325016E+06 -2.975895E-09 -5.207412E-10
       325  13 -1.941018E+06 -5.278200E+05 -2.001126E+05 -7.860623E+05  2.226062E-09  1.348871E-09
       325  14 -1.916336E+06 -4.005850E+05 -9.424486E+04 -8.187346E+05 -6.519336E-11  2.430062E-09
       325  15 -1.918987E+06 -3.755486E+05 -4.925859E+04 -8.434959E+05 -9.419374E-10 -1.107406E-09
       325  16 -7.798312E+04  2.808986E+05  2.955355E+05 -1.631958E+05 -2.107080E-09 -6.070567E-10
       325  17 -1.234809E+05  3.082635E+05  2.732313E+05 -2.658972E+05  5.167610E-10 -4.702119E-09
       325  18 -1.786316E+05  2.511638E+05  2.604005E+05 -3.607075E+05  3.172042E-09  2.142513E-09
       325  19 -3.800563E+06 -1.335959E+06 -6.958750E+05 -1.407111E+06  3.164607E+05  8.598112E+04
       325  20 -3.705817E+06 -1.108995E+06 -4.618041E+05 -1.370048E+06  2.061834E+05 -3.669528E+04
       325  21 -3.656104E+06 -1.001953E+06 -3.589750E+05 -1.325023E+06  7.781244E+04 -1.117800E+05
       325  22 -1.940997E+06 -5.278143E+05 -2.000744E+05 -7.860600E+05  1.411339E+05  1.968468E+04
       325  23 -1.916320E+06 -4.005760E+05 -9.420911E+04 -8.187413E+05  1.190346E+05 -6.960288E+04
       325  24 -1.918977E+06 -3.755337E+05 -4.922363E+04 -8.435029E+05  7.889931E+04 -1.113287E+05
       325  25 -7.798124E+04  2.809013E+05  2.955419E+05 -1.631945E+05 -3.476545E+04 -4.690487E+04
       325  26 -1.234770E+05  3.082750E+05  2.732530E+05 -2.658998E+05  3.161507E+04 -1.026310E+05
       325  27 -1.786215E+05  2.511787E+05  2.604356E+05 -3.607146E+05  7.998943E+04 -1.108762E+05
       326   1 -3.575687E+06 -9.833295E+05 -3.300186E+05 -1.312889E+06 -7.580812E+04  1.108197E+05
       326   2 -3.480612E+06 -9.276029E+05 -2.850394E+05 -1.275986E+06 -5.719773E+04  1.170606E+05
       326   3 -3.375227E+06 -8.942951E+05 -2.556143E+05 -1.255146E+06 -3.683335E+04  1.186476E+05
       326   4 -1.912745E+06 -3.752546E+05 -3.684385E+04 -8.420648E+05 -7.280682E+04  1.119133E+05
       326   5 -1.918063E+06 -3.605041E+05 -1.933016E+04 -8.356640E+05 -6.280131E+04  1.149091E+05
       326   6 -1.911359E+06 -3.664445E+05 -1.049869E+04 -8.453274E+05 -5.104764E+04  1.132563E+05
       326   7 -2.468596E+05  2.331050E+05  2.562441E+05 -3.700500E+05 -6.979689E+04  1.130102E+05
       326   8 -3.529103E+05  2.068427E+05  2.463112E+05 -3.942985E+05 -6.841994E+04  1.127519E+05
       326   9 -4.452084E+05  1.616166E+05  2.345597E+05 -4.346027E+05 -6.529760E+04  1.078516E+05
       326  10 -3.575696E+06 -9.833442E+05 -3.300524E+05 -1.312882E+06  3.577072E-10  3.401067E-10
       326  11 -3.480619E+06 -9.276184E+05 -2.850713E+05 -1.275980E+06 -2.851469E-10  4.728047E-10
       326  12 -3.375233E+06 -8.943105E+05 -2.556433E+05 -1.255142E+06 -3.437899E-10 -3.602712E-11
       326  13 -1.912754E+06 -3.752694E+05 -3.687732E+04 -8.420582E+05 -1.337027E-09  5.837663E-10
       326  14 -1.918071E+06 -3.605193E+05 -1.936235E+04 -8.356582E+05  2.318877E-11  3.230877E-10
       326  15 -1.911365E+06 -3.664589E+05 -1.052766E+04 -8.453228E+05 -1.110931E-09  1.275025E-09
       326  16 -2.468682E+05  2.330900E+05  2.562110E+05 -3.700437E+05 -2.495454E-09  1.598736E-09
       326  17 -3.529188E+05  2.068278E+05  2.462786E+05 -3.942923E+05  9.889183E-11  6.011707E-10
       326  18 -4.452160E+05  1.616029E+05  2.345299E+05 -4.345970E+05  6.577602E-10  1.135652E-09
       326  19 -3.575687E+06 -9.833295E+05 -3.300186E+05 -1.312889E+06  7.580812E+04 -1.108197E+05
       326  20 -3.480612E+06 -9.276029E+05 -2.850394E+05 -1.275986E+06  5.719773E+04 -1.170606E+05
       326  21 -3.375227E+06 -8.942951E+05 -2.556143E+05 -1.255146E+06  3.683335E+04 -1.186476E+05
       326  22 -1.912745E+06 -3.752546E+05 -3.684385E+04 -8.420648E+05  7.280682E+04 -1.119133E+05
       326  23 -1.918063E+06 -3.605041E+05 -1.933016E+04 -8.356640E+05  6.280131E+04 -1.149091E+05
       326  24 -1.911359E+06 -3.664445E+05 -1.049869E+04 -8.453274E+05  5.104764E+04 -1.132563E+05
       326  25 -2.468596E+05  2.331050E+05  2.562441E+05 -3.700500E+05  6.979689E+04 -1.130102E+05
       326  26 -3.529103E+05  2.068427E+05  2.463112E+05 -3.942985E+05  6.841994E+04 -1.127519E+05
       326  27 -4.452084E+05  1.616166E+05  2.345597E+05 -4.346027E+05  6.529760E+04 -1.078516E+05
       327   1 -3.308536E+06 -8.708731E+05 -2.411110E+05 -1.237174E+06 -3.400978E+04  1.144817E+05
       327   2 -3.213291E+06 -8.252609E+05 -2.196747E+05 -1.199450E+06 -2.804059E+04  1.079219E+05
       327   3 -3.102906E+06 -7.956517E+05 -2.005877E+05 -1.179377E+06 -2.189721E+04  1.008780E+05
       327   4 -1.910761E+06 -3.664891E+05 -7.882927E+03 -8.452424E+05 -4.788035E+04  1.092251E+05
       327   5 -1.918324E+06 -3.583095E+05 -4.337285E+03 -8.364942E+05 -4.280356E+04  1.023372E+05
       327   6 -1.910583E+06 -3.659544E+05 -2.430953E+03 -8.453987E+05 -3.755337E+04  9.496558E+04
       327   7 -5.108733E+05  1.381001E+05  2.253025E+05 -4.524739E+05 -6.178442E+04  1.039559E+05
       327   8 -6.215480E+05  1.088159E+05  2.109627E+05 -4.728218E+05 -5.759950E+04  9.674010E+04
       327   9 -7.167336E+05  6.388789E+04  1.956928E+05 -5.108152E+05 -5.324163E+04  8.904109E+04
       327  10 -3.308541E+06 -8.708875E+05 -2.411378E+05 -1.237171E+06  1.822526E-09 -3.320118E-11
       327  11 -3.213295E+06 -8.252736E+05 -2.196981E+05 -1.199448E+06  1.963512E-09 -1.261329E-09
       327  12 -3.102909E+06 -7.956627E+05 -2.006077E+05 -1.179375E+06  6.796373E-10 -5.544584E-10
       327  13 -1.910766E+06 -3.665025E+05 -7.909625E+03 -8.452382E+05  3.644431E-10 -1.301367E-09
       327  14 -1.918328E+06 -3.583212E+05 -4.360384E+03 -8.364907E+05  2.139470E-09  1.967920E-10
       327  15 -1.910587E+06 -3.659645E+05 -2.450530E+03 -8.453958E+05 -9.118073E-10  2.153176E-10
       327  16 -5.108803E+05  1.380875E+05  2.252750E+05 -4.524687E+05 -1.779255E-09  2.122049E-10
       327  17 -6.215540E+05  1.088050E+05  2.109389E+05 -4.728173E+05 -5.170009E-10  1.837891E-09
       327  18 -7.167388E+05  6.387863E+04  1.956726E+05 -5.108114E+05 -6.487881E-10  4.436394E-11
       327  19 -3.308536E+06 -8.708731E+05 -2.411110E+05 -1.237174E+06  3.400978E+04 -1.144817E+05
       327  20 -3.213291E+06 -8.252609E+05 -2.196747E+05 -1.199450E+06  2.804059E+04 -1.079219E+05
       327  21 -3.102906E+06 -7.956517E+05 -2.005877E+05 -1.179377E+06  2.189721E+04 -1.008780E+05
       327  22 -1.910761E+06 -3.664891E+05 -7.882927E+03 -8.452424E+05  4.788035E+04 -1.092251E+05
       327  23 -1.918324E+06 -3.583095E+05 -4.337285E+03 -8.364942E+05  4.280356E+04 -1.023372E+05
       327  24 -1.910583E+06 -3.659544E+05 -2.430953E+03 -8.453987E+05  3.755337E+04 -9.496558E+04
       327  25 -5.108733E+05  1.381001E+05  2.253025E+05 -4.524739E+05  6.178442E+04 -1.039559E+05
       327  26 -6.215480E+05  1.088159E+05  2.109627E+05 -4.728218E+05  5.759950E+04 -9.674010E+04
       327  27 -7.167336E+05  6.388789E+04  1.956928E+05 -5.108152E+05  5.324163E+04 -8.904109E+04
       328   1 -3.036603E+06 -7.716694E+05 -1.884893E+05 -1.160872E+06 -1.967451E+04  9.608877E+04
       328   2 -2.940481E+06 -7.262245E+05 -1.706831E+05 -1.122730E+06 -1.575953E+04  8.788780E+04
       328   3 -2.828649E+06 -6.964774E+05 -1.533849E+05 -1.102486E+06 -1.182440E+04  7.961407E+04
       328   4 -1.910461E+06 -3.659576E+05 -1.874192E+03 -8.454247E+05 -3.534101E+04  9.017702E+04
       328   5 -1.918276E+06 -3.580381E+05 -1.185493E+03 -8.364906E+05 -3.155939E+04  8.193280E+04
       328   6 -1.910367E+06 -3.657904E+05 -9.005170E+02 -8.454567E+05 -2.775775E+04  7.361577E+04
       328   7 -7.829688E+05  3.987906E+04  1.847085E+05 -5.294415E+05 -5.103766E+04  8.425398E+04
       328   8 -8.949487E+05  1.025490E+04  1.682883E+05 -5.498064E+05 -4.738699E+04  7.596738E+04
       328   9 -9.911701E+05 -3.501377E+04  1.515675E+05 -5.880664E+05 -4.371639E+04  6.760798E+04
       328  10 -3.036606E+06 -7.716794E+05 -1.885073E+05 -1.160870E+06  1.836254E-11  8.506727E-11
       328  11 -2.940483E+06 -7.262329E+05 -1.706980E+05 -1.122729E+06 -3.952750E-10 -3.075092E-10
       328  12 -2.828651E+06 -6.964842E+05 -1.533970E+05 -1.102485E+06 -1.049108E-09 -4.257962E-10
       328  13 -1.910464E+06 -3.659666E+05 -1.891801E+03 -8.454222E+05 -4.045374E-10  7.309052E-10
       328  14 -1.918278E+06 -3.580455E+05 -1.199964E+03 -8.364885E+05 -3.111507E-10  1.192610E-10
       328  15 -1.910369E+06 -3.657964E+05 -9.121363E+02 -8.454551E+05  2.129503E-10  1.083161E-10
       328  16 -7.829735E+05  3.987075E+04  1.846903E+05 -5.294380E+05 -1.243506E-09 -5.450630E-10
       328  17 -8.949526E+05  1.024810E+04  1.682732E+05 -5.498035E+05  2.142821E-11  8.560073E-10
       328  18 -9.911734E+05 -3.501919E+04  1.515553E+05 -5.880640E+05  8.876610E-10  7.593721E-10
       328  19 -3.036603E+06 -7.716694E+05 -1.884893E+05 -1.160872E+06  1.967451E+04 -9.608877E+04
       328  20 -2.940481E+06 -7.262245E+05 -1.706831E+05 -1.122730E+06  1.575953E+04 -8.788780E+04
       328  21 -2.828649E+06 -6.964774E+05 -1.533849E+05 -1.102486E+06  1.182440E+04 -7.961407E+04
       328  22 -1.910461E+06 -3.659576E+05 -1.874192E+03 -8.454247E+05  3.534101E+04 -9.017702E+04
       328  23 -1.918276E+06 -3.580381E+05 -1.185493E+03 -8.364906E+05  3.155939E+04 -8.193280E+04
       328  24 -1.910367E+06 -3.657904E+05 -9.005170E+02 -8.454567E+05  2.775775E+04 -7.361577E+04
       328  25 -7.829688E+05  3.987906E+04  1.847085E+05 -5.294415E+05  5.103766E+04 -8.425398E+04
       328  26 -8.949487E+05  1.025490E+04  1.682883E+05 -5.498064E+05  4.738699E+04 -7.596738E+04
       328  27 -9.911701E+05 -3.501377E+04  1.515675E+05 -5.880664E+05  4.371639E+04 -6.760798E+04
       329   1 -2.761811E+06 -6.722878E+05 -1.417751E+05 -1.083833E+06 -9.760008E+03  7.468286E+04
       329   2 -2.664826E+06 -6.265846E+05 -1.248458E+05 -1.045453E+06 -5.930220E+03  6.630001E+04
       329   3 -2.552049E+06 -5.966823E+05 -1.083402E+05 -1.025136E+06 -2.097803E+03  5.789576E+04
       329   4 -1.910321E+06 -3.657802E+05 -8.920977E+02 -8.454957E+05 -2.572791E+04  6.867511E+04
       329   5 -1.918174E+06 -3.578029E+05 -1.117461E+03 -8.364805E+05 -2.193695E+04  6.028277E+04
       329   6 -1.910241E+06 -3.656187E+05 -1.737491E+03 -8.455315E+05 -1.814347E+04  5.186903E+04
       329   7 -1.058052E+06 -5.919884E+04  1.399748E+05 -6.068502E+05 -4.171914E+04  6.265861E+04
       329   8 -1.170928E+06 -8.896608E+04  1.225975E+05 -6.272724E+05 -3.796409E+04  5.425787E+04
       329   9 -1.267999E+06 -1.345159E+05  1.048544E+05 -6.657539E+05 -3.420664E+04  4.583572E+04
       329  10 -2.761812E+06 -6.722938E+05 -1.417857E+05 -1.083832E+06 -1.134625E-09 -5.075418E-10
       329  11 -2.664827E+06 -6.265894E+05 -1.248541E+05 -1.045452E+06 -1.769386E-09  1.856520E-10
       329  12 -2.552050E+06 -5.966859E+05 -1.083465E+05 -1.025136E+06 -8.153293E-10  2.216850E-11
       329  13 -1.910323E+06 -3.657854E+05 -9.021935E+02 -8.454943E+05 -1.867578E-10  2.396906E-10
       329  14 -1.918175E+06 -3.578070E+05 -1.125186E+03 -8.364794E+05  3.682898E-10  2.609729E-10
       329  15 -1.910242E+06 -3.656217E+05 -1.743160E+03 -8.455308E+05  7.805432E-10  2.196739E-10
       329  16 -1.058055E+06 -5.920352E+04  1.399642E+05 -6.068481E+05  1.149022E-09  8.282625E-10
       329  17 -1.170930E+06 -8.896962E+04  1.225893E+05 -6.272707E+05  1.047430E-09  4.765699E-10
       329  18 -1.268000E+06 -1.345185E+05  1.048483E+05 -6.657526E+05 -4.253779E-11  6.407452E-10
       329  19 -2.761811E+06 -6.722878E+05 -1.417751E+05 -1.083833E+06  9.760008E+03 -7.468286E+04
       329  20 -2.664826E+06 -6.265846E+05 -1.248458E+05 -1.045453E+06  5.930220E+03 -6.630001E+04
       329  21 -2.552049E+06 -5.966823E+05 -1.083402E+05 -1.025136E+06  2.097803E+03 -5.789576E+04
       329  22 -1.910321E+06 -3.657802E+05 -8.920977E+02 -8.454957E+05  2.572791E+04 -6.867511E+04
       329  23 -1.918174E+06 -3.578029E+05 -1.117461E+03 -8.364805E+05  2.193695E+04 -6.028277E+04
       329  24 -1.910241E+06 -3.656187E+05 -1.737491E+03 -8.455315E+05  1.814347E+04 -5.186903E+04
       329  25 -1.058052E+06 -5.919884E+04  1.399748E+05 -6.068502E+05  4.171914E+04 -6.265861E+04
       329  26 -1.170928E+06 -8.896608E+04  1.225975E+05 -6.272724E+05  3.796409E+04 -5.425787E+04
       329  27 -1.267999E+06 -1.345159E+05  1.048544E+05 -6.657539E+05  3.420664E+04 -4.583572E+04
       330   1 -2.484732E+06 -5.723887E+05 -9.717097E+04 -1.006448E+06  1.504191E+02  5.299732E+04
       330   2 -2.387029E+06 -5.264932E+05 -8.162861E+04 -9.678337E+05  5.306268E+03  4.508461E+04
       330   3 -2.273769E+06 -4.967752E+05 -6.758022E+04 -9.473928E+05  1.044502E+04  3.720940E+04
       330   4 -1.910271E+06 -3.656027E+05 -2.252549E+03 -8.455900E+05 -1.592548E+04  4.696170E+04
       330   5 -1.918030E+06 -3.575983E+05 -3.982064E+03 -8.364592E+05 -1.069931E+04  3.907853E+04
       330   6 -1.910262E+06 -3.657871E+05 -7.263406E+03 -8.455059E+05 -5.490586E+03  3.123271E+04
       330   7 -1.335449E+06 -1.587803E+05  9.266107E+04 -6.845901E+05 -3.201740E+04  4.092005E+04
       330   8 -1.448793E+06 -1.886798E+05  7.366115E+04 -7.049903E+05 -2.671786E+04  3.306756E+04
       330   9 -1.546614E+06 -2.347852E+05  5.305139E+04 -7.435626E+05 -2.143613E+04  2.525229E+04
       330  10 -2.484732E+06 -5.723917E+05 -9.717625E+04 -1.006448E+06  4.050581E-10 -3.813832E-11
       330  11 -2.387029E+06 -5.264954E+05 -8.163249E+04 -9.678339E+05  3.891862E-10 -5.561918E-10
       330  12 -2.273769E+06 -4.967767E+05 -6.758303E+04 -9.473931E+05  6.221639E-11 -4.986994E-10
       330  13 -1.910272E+06 -3.656051E+05 -2.257165E+03 -8.455894E+05  2.447453E-10 -2.230347E-11
       330  14 -1.918031E+06 -3.576000E+05 -3.985146E+03 -8.364589E+05 -1.467013E-09 -8.352596E-10
       330  15 -1.910263E+06 -3.657881E+05 -7.265295E+03 -8.455058E+05 -4.221350E-10 -4.845388E-10
       330  16 -1.335451E+06 -1.587824E+05  9.265600E+04 -6.845890E+05 -6.860989E-10 -1.983297E-10
       330  17 -1.448794E+06 -1.886812E+05  7.365776E+04 -7.049896E+05  1.722241E-10 -4.456212E-10
       330  18 -1.546614E+06 -2.347860E+05  5.304933E+04 -7.435622E+05 -2.968028E-10 -8.522046E-11
       330  19 -2.484732E+06 -5.723887E+05 -9.717097E+04 -1.006448E+06 -1.504191E+02 -5.299732E+04
       330  20 -2.387029E+06 -5.264932E+05 -8.162861E+04 -9.678337E+05 -5.306268E+03 -4.508461E+04
       330  21 -2.273769E+06 -4.967752E+05 -6.758022E+04 -9.473928E+05 -1.044502E+04 -3.720940E+04
       330  22 -1.910271E+06 -3.656027E+05 -2.252549E+03 -8.455900E+05  1.592548E+04 -4.696170E+04
       330  23 -1.918030E+06 -3.575983E+05 -3.982064E+03 -8.364592E+05  1.069931E+04 -3.907853E+04
       330  24 -1.910262E+06 -3.657871E+05 -7.263406E+03 -8.455059E+05  5.490586E+03 -3.123271E+04
       330  25 -1.335449E+06 -1.587803E+05  9.266107E+04 -6.845901E+05  3.201740E+04 -4.092005E+04
       330  26 -1.448793E+06 -1.886798E+05  7.366115E+04 -7.049903E+05  2.671786E+04 -3.306756E+04
       330  27 -1.546614E+06 -2.347852E+05  5.305139E+04 -7.435626E+05  2.143613E+04 -2.525229E+04
       331   1 -2.206090E+06 -4.728341E+05 -5.822065E+04 -9.292986E+05  1.371294E+04  3.270889E+04
       331   2 -2.109065E+06 -4.263852E+05 -4.859559E+04 -8.876473E+05  2.482276E+04  2.736161E+04
       331   3 -1.999038E+06 -4.008826E+05 -4.626638E+04 -8.632371E+05  3.573379E+04  2.254402E+04
       331   4 -1.910704E+06 -3.657740E+05 -9.685380E+03 -8.457122E+05 -2.284116E+03  2.671055E+04
       331   5 -1.917656E+06 -3.591407E+05 -1.780031E+04 -8.356134E+05  9.811201E+03  2.173386E+04
       331   6 -1.911815E+06 -3.736503E+05 -3.399441E+04 -8.427608E+05  2.170651E+04  1.728617E+04
       331   7 -1.615226E+06 -2.587056E+05  3.884813E+04 -7.620889E+05 -1.828910E+04  2.070917E+04
       331   8 -1.726208E+06 -2.918926E+05  1.299518E+04 -7.835643E+05 -5.205278E+03  1.610436E+04
       331   9 -1.824581E+06 -3.464172E+05 -2.172139E+04 -8.222817E+05  7.676993E+03  1.202770E+04
       331  10 -2.206090E+06 -4.728353E+05 -5.822302E+04 -9.292990E+05  3.249475E-10 -6.824440E-11
       331  11 -2.109066E+06 -4.263862E+05 -4.859816E+04 -8.876479E+05 -8.898046E-10 -1.093088E-10
       331  12 -1.999040E+06 -4.008835E+05 -4.626975E+04 -8.632377E+05 -8.528638E-10 -3.123993E-10
       331  13 -1.910704E+06 -3.657747E+05 -9.686730E+03 -8.457122E+05 -1.335912E-10 -1.362435E-11
       331  14 -1.917657E+06 -3.591412E+05 -1.780138E+04 -8.356135E+05  2.331083E-10  1.011741E-10
       331  15 -1.911815E+06 -3.736508E+05 -3.399586E+04 -8.427611E+05 -3.619462E-11 -7.246828E-11
       331  16 -1.615227E+06 -2.587061E+05  3.884670E+04 -7.620886E+05  1.136540E-11  1.669135E-10
       331  17 -1.726208E+06 -2.918928E+05  1.299465E+04 -7.835642E+05  4.286566E-10  4.446099E-11
       331  18 -1.824582E+06 -3.464173E+05 -2.172178E+04 -8.222818E+05 -7.922553E-11 -2.529508E-10
       331  19 -2.206090E+06 -4.728341E+05 -5.822065E+04 -9.292986E+05 -1.371294E+04 -3.270889E+04
       331  20 -2.109065E+06 -4.263852E+05 -4.859559E+04 -8.876473E+05 -2.482276E+04 -2.736161E+04
       331  21 -1.999038E+06 -4.008826E+05 -4.626638E+04 -8.632371E+05 -3.573379E+04 -2.254402E+04
       331  22 -1.910704E+06 -3.657740E+05 -9.685380E+03 -8.457122E+05  2.284116E+03 -2.671055E+04
       331  23 -1.917656E+06 -3.591407E+05 -1.780031E+04 -8.356134E+05 -9.811201E+03 -2.173386E+04
       331  24 -1.911815E+06 -3.736503E+05 -3.399441E+04 -8.427608E+05 -2.170651E+04 -1.728617E+04
       331  25 -1.615226E+06 -2.587056E+05  3.884813E+04 -7.620889E+05  1.828910E+04 -2.070917E+04
       331  26 -1.726208E+06 -2.918926E+05  1.299518E+04 -7.835643E+05  5.205278E+03 -1.610436E+04
       331  27 -1.824581E+06 -3.464172E+05 -2.172139E+04 -8.222817E+05 -7.676993E+03 -1.202770E+04
       332   1 -1.929705E+06 -3.834114E+05 -4.533591E+04 -8.536416E+05  4.307829E+04  1.996047E+04
       332   2 -1.861439E+06 -3.283261E+05 -6.470003E+04 -7.562737E+05  7.977478E+04  2.798183E+04
       332   3 -1.812528E+06 -3.701026E+05 -1.321784E+05 -6.565740E+05  1.143988E+05  4.154866E+04
       332   4 -1.917071E+06 -3.743158E+05 -4.542919E+04 -8.446401E+05  2.856233E+04  1.452042E+04
       332   5 -1.916353E+06 -3.953859E+05 -8.690209E+04 -8.193912E+05  7.555540E+04  2.639277E+04
       332   6 -1.937066E+06 -5.153918E+05 -1.846765E+05 -7.918235E+05  1.204706E+05  4.380164E+04
       332   7 -1.904436E+06 -3.652196E+05 -4.552148E+04 -8.356381E+05  1.404599E+04  9.079925E+03
       332   8 -1.971258E+06 -4.624291E+05 -1.091028E+05 -8.824996E+05  7.133649E+04  2.480469E+04
       332   9 -2.061559E+06 -6.606053E+05 -2.371692E+05 -9.270297E+05  1.265409E+05  4.605158E+04
       332  10 -1.929707E+06 -3.834124E+05 -4.534016E+04 -8.536423E+05 -1.512535E-09 -3.467964E-10
       332  11 -1.861446E+06 -3.283286E+05 -6.471350E+04 -7.562755E+05 -1.362717E-09 -2.036254E-10
       332  12 -1.812543E+06 -3.701080E+05 -1.322064E+05 -6.565778E+05 -3.292663E-10  3.829683E-11
       332  13 -1.917072E+06 -3.743162E+05 -4.543113E+04 -8.446404E+05  9.137992E-10  5.453618E-10
       332  14 -1.916359E+06 -3.953882E+05 -8.691417E+04 -8.193928E+05  2.462753E-10  3.093270E-10
       332  15 -1.937083E+06 -5.153978E+05 -1.847075E+05 -7.918278E+05  1.016955E-10  1.712160E-10
       332  16 -1.904436E+06 -3.652198E+05 -4.552201E+04 -8.356382E+05  1.367383E-09  6.348527E-10
       332  17 -1.971264E+06 -4.624311E+05 -1.091136E+05 -8.825010E+05  7.684341E-10  5.592285E-10
       332  18 -2.061577E+06 -6.606119E+05 -2.372034E+05 -9.270344E+05 -1.077182E-09 -2.160545E-10
       332  19 -1.929705E+06 -3.834114E+05 -4.533591E+04 -8.536416E+05 -4.307829E+04 -1.996047E+04
       332  20 -1.861439E+06 -3.283261E+05 -6.470003E+04 -7.562737E+05 -7.977478E+04 -2.798183E+04
       332  21 -1.812528E+06 -3.701026E+05 -1.321784E+05 -6.565740E+05 -1.143988E+05 -4.154866E+04
       332  22 -1.917071E+06 -3.743158E+05 -4.542919E+04 -8.446401E+05 -2.856233E+04 -1.452042E+04
       332  23 -1.916353E+06 -3.953859E+05 -8.690209E+04 -8.193912E+05 -7.555540E+04 -2.639277E+04
       332  24 -1.937066E+06 -5.153918E+05 -1.846765E+05 -7.918235E+05 -1.204706E+05 -4.380164E+04
       332  25 -1.904436E+06 -3.652196E+05 -4.552148E+04 -8.356381E+05 -1.404599E+04 -9.079925E+03
       332  26 -1.971258E+06 -4.624291E+05 -1.091028E+05 -8.824996E+05 -7.133649E+04 -2.480469E+04
       332  27 -2.061559E+06 -6.606053E+05 -2.371692E+05 -9.270297E+05 -1.265409E+05 -4.605158E+04
       333   1  7.832786E+05  1.403063E+05  1.947436E+05  4.293551E+04  1.678569E+05  2.057121E+03
       333   2  7.650735E+05 -8.390870E+04  5.913895E+04  1.371437E+04  1.110353E+05  5.638164E+03
       333   3  8.175843E+05 -5.519481E+04  2.376238E+04 -3.125427E+04  5.421399E+04  4.890795E+03
       333   4  1.002542E+06  1.948374E+05  2.489766E+05 -8.421986E+03  1.702713E+05  2.045463E+03
       333   5  9.670894E+05 -3.377576E+04  1.081139E+05 -4.549154E+02  1.116607E+05  5.635999E+03
       333   6  1.002635E+06 -9.199517E+03  6.869460E+04 -8.235505E+03  5.305221E+04  4.891943E+03
       333   7  1.221855E+06  2.493748E+05  3.032075E+05 -5.979763E+04  1.726865E+05  2.033410E+03
       333   8  1.169143E+06  1.635494E+04  1.570859E+05 -1.462883E+04  1.122864E+05  5.633806E+03
       333   9  1.187718E+06  3.679524E+04  1.136246E+05  1.479013E+04  5.189009E+04  4.893005E+03
       333  10  7.832484E+05  1.402987E+05  1.946907E+05  4.293524E+04  2.377096E-10 -1.186304E-09
       333  11  7.650603E+05 -8.391204E+04  5.911575E+04  1.371387E+04 -6.889598E-10 -3.135981E-10
       333  12  8.175811E+05 -5.519562E+04  2.375681E+04 -3.125448E+04 -1.729734E-09 -9.354478E-10
       333  13  1.002511E+06  1.948296E+05  2.489222E+05 -8.422266E+03 -1.833875E-09  4.028311E-10
       333  14  9.670760E+05 -3.377914E+04  1.080904E+05 -4.554220E+02  1.742317E-09 -6.038709E-10
       333  15  1.002632E+06 -9.200297E+03  6.868928E+04 -8.235714E+03  5.984263E-10 -9.122562E-10
       333  16  1.221823E+06  2.493668E+05  3.031515E+05 -5.979791E+04  1.796213E-09  3.322734E-10
       333  17  1.169129E+06  1.635153E+04  1.570622E+05 -1.462934E+04  2.024660E-09 -4.028084E-10
       333  18  1.187715E+06  3.679450E+04  1.136196E+05  1.478992E+04  3.036862E-09  1.345672E-09
       333  19  7.832786E+05  1.403063E+05  1.947436E+05  4.293551E+04 -1.678569E+05 -2.057121E+03
       333  20  7.650735E+05 -8.390870E+04  5.913895E+04  1.371437E+04 -1.110353E+05 -5.638164E+03
       333  21  8.175843E+05 -5.519481E+04  2.376238E+04 -3.125427E+04 -5.421399E+04 -4.890795E+03
       333  22  1.002542E+06  1.948374E+05  2.489766E+05 -8.421986E+03 -1.702713E+05 -2.045463E+03
       333  23  9.670894E+05 -3.377576E+04  1.081139E+05 -4.549154E+02 -1.116607E+05 -5.635999E+03
       333  24  1.002635E+06 -9.199517E+03  6.869460E+04 -8.235505E+03 -5.305221E+04 -4.891943E+03
       333  25  1.221855E+06  2.493748E+05  3.032075E+05 -5.979763E+04 -1.726865E+05 -2.033410E+03
       333  26  1.169143E+06  1.635494E+04  1.570859E+05 -1.462883E+04 -1.122864E+05 -5.633806E+03
       333  27  1.187718E+06  3.679524E+04  1.136246E+05  1.479013E+04 -5.189009E+04 -4.893005E+03
       334   1  8.325992E+05 -1.554801E+04  1.830615E+04 -2.470838E+03  4.214504E+04  3.879748E+03
       334   2  8.438751E+05 -3.895696E+04 -5.962846E+03  6.566874E+02  2.779471E+04  3.664755E+03
       334   3  8.646655E+05 -3.197350E+04 -1.328832E+04 -1.097204E+04  1.344419E+04  3.057298E+03
       334   4  9.889568E+05  2.328881E+04  5.632982E+04 -8.081240E+03  4.214794E+04  3.879302E+03
       334   5  9.841951E+05 -4.107854E+03  2.811119E+04 -6.965323E+02  2.763394E+04  3.664561E+03
       334   6  9.889735E+05 -1.087701E+03  1.694647E+04 -8.067750E+03  1.312012E+04  3.057200E+03
       334   7  1.145337E+06  6.212395E+04  9.435175E+04 -1.369306E+04  4.215084E+04  3.878856E+03
       334   8  1.124533E+06  3.073982E+04  6.218381E+04 -2.050060E+03  2.747314E+04  3.664368E+03
       334   9  1.113296E+06  2.979700E+04  4.718014E+04 -5.162881E+03  1.279599E+04  3.057100E+03
       334  10  8.325973E+05 -1.554850E+04  1.830279E+04 -2.470970E+03  9.923824E-10 -5.894480E-10
       334  11  8.438743E+05 -3.895719E+04 -5.964321E+03  6.566054E+02  3.362096E-10  1.546613E-12
       334  12  8.646653E+05 -3.197356E+04 -1.328868E+04 -1.097207E+04 -1.045139E-09  2.419101E-10
       334  13  9.889549E+05  2.328831E+04  5.632646E+04 -8.081372E+03 -7.070423E-10  9.673334E-10
       334  14  9.841943E+05 -4.108073E+03  2.810973E+04 -6.966138E+02  9.451925E-10  4.274402E-10
       334  15  9.889733E+05 -1.087757E+03  1.694613E+04 -8.067783E+03 -8.354234E-10 -4.012946E-10
       334  16  1.145335E+06  6.212345E+04  9.434839E+04 -1.369319E+04 -3.442990E-10  8.770170E-10
       334  17  1.124532E+06  3.073960E+04  6.218237E+04 -2.050142E+03  3.417822E-10 -6.665176E-11
       334  18  1.113295E+06  2.979694E+04  4.717982E+04 -5.162913E+03  9.646968E-10 -1.517336E-10
       334  19  8.325992E+05 -1.554801E+04  1.830615E+04 -2.470838E+03 -4.214504E+04 -3.879748E+03
       334  20  8.438751E+05 -3.895696E+04 -5.962846E+03  6.566874E+02 -2.779471E+04 -3.664755E+03
       334  21  8.646655E+05 -3.197350E+04 -1.328832E+04 -1.097204E+04 -1.344419E+04 -3.057298E+03
       334  22  9.889568E+05  2.328881E+04  5.632982E+04 -8.081240E+03 -4.214794E+04 -3.879302E+03
       334  23  9.841951E+05 -4.107854E+03  2.811119E+04 -6.965323E+02 -2.763394E+04 -3.664561E+03
       334  24  9.889735E+05 -1.087701E+03  1.694647E+04 -8.067750E+03 -1.312012E+04 -3.057200E+03
       334  25  1.145337E+06  6.212395E+04  9.435175E+04 -1.369306E+04 -4.215084E+04 -3.878856E+03
       334  26  1.124533E+06  3.073982E+04  6.218381E+04 -2.050060E+03 -2.747314E+04 -3.664368E+03
       334  27  1.113296E+06  2.979700E+04  4.718014E+04 -5.162881E+03 -1.279599E+04 -3.057100E+03
       335   1  8.901887E+05 -2.133047E+04 -1.015185E+04 -7.414039E+03  1.063797E+04  2.654705E+03
       335   2  9.048739E+05 -2.076830E+04 -1.261825E+04 -7.844799E+02  7.019374E+03  2.109707E+03
       335   3  9.209576E+05 -1.657822E+04 -1.181995E+04 -8.320079E+03  3.400655E+03  1.535405E+03
       335   4  9.871640E+05  2.746915E+03  1.336238E+04 -7.941156E+03  1.042288E+04  2.654599E+03
       335   5  9.864655E+05 -5.037372E+02  7.198367E+03 -8.581943E+02  6.791795E+03  2.109627E+03
       335   6  9.871674E+05 -1.245591E+02  4.307401E+03 -7.940270E+03  3.160676E+03  1.535348E+03
       335   7  1.084148E+06  2.682361E+04  3.687592E+04 -8.468355E+03  1.020775E+04  2.654493E+03
       335   8  1.068063E+06  1.976034E+04  2.701451E+04 -9.319188E+02  6.564186E+03  2.109547E+03
       335   9  1.053381E+06  1.632878E+04  2.043443E+04 -7.560421E+03  2.920672E+03  1.535290E+03
       335  10  8.901886E+05 -2.133050E+04 -1.015207E+04 -7.414062E+03 -5.690920E-10 -9.803663E-11
       335  11  9.048739E+05 -2.076832E+04 -1.261836E+04 -7.844918E+02 -2.456081E-09 -9.883214E-10
       335  12  9.209576E+05 -1.657823E+04 -1.181998E+04 -8.320083E+03 -8.964600E-11 -1.512268E-10
       335  13  9.871639E+05  2.746878E+03  1.336216E+04 -7.941178E+03 -3.138619E-10 -1.925979E-10
       335  14  9.864655E+05 -5.037543E+02  7.198273E+03 -8.582058E+02  4.631600E-10 -1.342633E-10
       335  15  9.871674E+05 -1.245644E+02  4.307377E+03 -7.940274E+03 -1.305425E-09 -3.532759E-10
       335  16  1.084148E+06  2.682357E+04  3.687571E+04 -8.468377E+03 -1.496380E-10 -5.056102E-11
       335  17  1.068063E+06  1.976032E+04  2.701442E+04 -9.319299E+02 -3.666122E-10 -2.595752E-10
       335  18  1.053381E+06  1.632878E+04  2.043441E+04 -7.560424E+03 -3.718842E-10  2.755971E-10
       335  19  8.901887E+05 -2.133047E+04 -1.015185E+04 -7.414039E+03 -1.063797E+04 -2.654705E+03
       335  20  9.048739E+05 -2.076830E+04 -1.261825E+04 -7.844799E+02 -7.019374E+03 -2.109707E+03
       335  21  9.209576E+05 -1.657822E+04 -1.181995E+04 -8.320079E+03 -3.400655E+03 -1.535405E+03
       335  22  9.871640E+05  2.746915E+03  1.336238E+04 -7.941156E+03 -1.042288E+04 -2.654599E+03
       335  23  9.864655E+05 -5.037372E+02  7.198367E+03 -8.581943E+02 -6.791795E+03 -2.109627E+03
       335  24  9.871674E+05 -1.245591E+02  4.307401E+03 -7.940270E+03 -3.160676E+03 -1.535348E+03
       335  25  1.084148E+06  2.682361E+04  3.687592E+04 -8.468355E+03 -1.020775E+04 -2.654493E+03
       335  26  1.068063E+06  1.976034E+04  2.701451E+04 -9.319188E+02 -6.564186E+03 -2.109547E+03
       335  27  1.053381E+06  1.632878E+04  2.043443E+04 -7.560421E+03 -2.920672E+03 -1.535290E+03
       336   1  9.472236E+05 -9.535151E+03 -6.203282E+03 -7.846765E+03  2.698456E+03  1.199030E+03
       336   2  9.621746E+05 -6.179693E+03 -3.907987E+03 -9.440047E+02  1.666958E+03  6.354417E+02
       336   3  9.773805E+05 -2.370946E+03 -8.270646E+02 -7.927687E+03  6.353872E+02  7.127323E+01
       336   4  9.869134E+05  3.129722E+02  3.390148E+03 -7.878663E+03  2.468534E+03  1.198984E+03
       336   5  9.867864E+05 -6.710938E+01  2.069615E+03 -9.354330E+02  1.436736E+03  6.354014E+02
       336   6  9.869140E+05  6.088600E+00  1.534828E+03 -7.878610E+03  4.048897E+02  7.123999E+01
       336   7  1.026605E+06  1.016098E+04  1.298347E+04 -7.910563E+03  2.238597E+03  1.198937E+03
       336   8  1.011399E+06  6.045430E+03  8.047174E+03 -9.268611E+02  1.206505E+03  6.353612E+02
       336   9  9.964477E+05  2.383116E+03  3.896713E+03 -7.829532E+03  1.743886E+02  7.120672E+01
       336  10  9.472236E+05 -9.535155E+03 -6.203299E+03 -7.846768E+03 -1.348906E-09 -5.369587E-11
       336  11  9.621746E+05 -6.179694E+03 -3.907993E+03 -9.440056E+02  4.369557E-10 -1.563984E-10
       336  12  9.773805E+05 -2.370946E+03 -8.270654E+02 -7.927687E+03  1.050590E-09  9.941810E-11
       336  13  9.869134E+05  3.129690E+02  3.390134E+03 -7.878666E+03 -1.682184E-11 -1.289430E-10
       336  14  9.867864E+05 -6.711037E+01  2.069611E+03 -9.354338E+02 -1.859289E-09 -4.897895E-10
       336  15  9.869140E+05  6.088551E+00  1.534827E+03 -7.878610E+03 -1.135887E-09  4.518168E-10
       336  16  1.026605E+06  1.016098E+04  1.298345E+04 -7.910566E+03 -4.550378E-10 -8.959065E-11
       336  17  1.011399E+06  6.045429E+03  8.047171E+03 -9.268617E+02  1.060120E-09 -9.278113E-10
       336  18  9.964477E+05  2.383116E+03  3.896713E+03 -7.829532E+03 -6.121376E-10  5.830515E-10
       336  19  9.472236E+05 -9.535151E+03 -6.203282E+03 -7.846765E+03 -2.698456E+03 -1.199030E+03
       336  20  9.621746E+05 -6.179693E+03 -3.907987E+03 -9.440047E+02 -1.666958E+03 -6.354417E+02
       336  21  9.773805E+05 -2.370946E+03 -8.270646E+02 -7.927687E+03 -6.353872E+02 -7.127323E+01
       336  22  9.869134E+05  3.129722E+02  3.390148E+03 -7.878663E+03 -2.468534E+03 -1.198984E+03
       336  23  9.867864E+05 -6.710938E+01  2.069615E+03 -9.354330E+02 -1.436736E+03 -6.354014E+02
       336  24  9.869140E+05  6.088600E+00  1.534828E+03 -7.878610E+03 -4.048897E+02 -7.123999E+01
       336  25  1.026605E+06  1.016098E+04  1.298347E+04 -7.910563E+03 -2.238597E+03 -1.198937E+03
       336  26  1.011399E+06  6.045430E+03  8.047174E+03 -9.268611E+02 -1.206505E+03 -6.353612E+02
       336  27  9.964477E+05  2.383116E+03  3.896713E+03 -7.829532E+03 -1.743886E+02 -7.120672E+01
       337   1  1.003640E+06  4.191038E+03  5.556188E+03 -7.853563E+03  3.663679E+02 -2.572117E+02
       337   2  1.018646E+06  7.860678E+03  9.303402E+03 -9.261583E+02 -4.158633E+02 -8.217127E+02
       337   3  1.033840E+06  1.184220E+04  1.363886E+04 -7.903911E+03 -1.198069E+03 -1.386304E+03
       337   4  9.868991E+05  2.396880E+01  1.443798E+03 -7.882794E+03  1.358354E+02 -2.572457E+02
       337   5  9.868051E+05 -4.707498E+01  1.570254E+03 -9.302102E+02 -6.464044E+02 -8.217557E+02
       337   6  9.868988E+05  1.937918E+02  2.284991E+03 -7.882827E+03 -1.428599E+03 -1.386355E+03
       337   7  9.701580E+05 -4.143121E+03 -2.668612E+03 -7.912025E+03 -9.469089E+01 -2.572797E+02
       337   8  9.549650E+05 -7.954902E+03 -6.162967E+03 -9.342619E+02 -8.769336E+02 -8.217987E+02
       337   9  9.399598E+05 -1.145478E+04 -9.069031E+03 -7.861744E+03 -1.659113E+03 -1.386406E+03
       337  10  1.003640E+06  4.191038E+03  5.556188E+03 -7.853563E+03  2.441171E-10  1.607132E-10
       337  11  1.018646E+06  7.860677E+03  9.303400E+03 -9.261586E+02 -3.739196E-10  4.275780E-10
       337  12  1.033840E+06  1.184220E+04  1.363885E+04 -7.903912E+03 -1.652132E-09 -7.120074E-11
       337  13  9.868991E+05  2.396873E+01  1.443798E+03 -7.882794E+03  2.918095E-09  8.886123E-10
       337  14  9.868051E+05 -4.707582E+01  1.570252E+03 -9.302106E+02 -9.533366E-10  4.425664E-10
       337  15  9.868987E+05  1.937892E+02  2.284984E+03 -7.882828E+03  6.272848E-10  1.656594E-10
       337  16  9.701580E+05 -4.143121E+03 -2.668612E+03 -7.912025E+03 -1.192862E-09  8.602365E-10
       337  17  9.549650E+05 -7.954903E+03 -6.162970E+03 -9.342625E+02  7.839158E-10 -5.020729E-10
       337  18  9.399598E+05 -1.145478E+04 -9.069040E+03 -7.861746E+03  3.000191E-09  1.173278E-10
       337  19  1.003640E+06  4.191038E+03  5.556188E+03 -7.853563E+03 -3.663679E+02  2.572117E+02
       337  20  1.018646E+06  7.860678E+03  9.303402E+03 -9.261583E+02  4.158633E+02  8.217127E+02
       337  21  1.033840E+06  1.184220E+04  1.363886E+04 -7.903911E+03  1.198069E+03  1.386304E+03
       337  22  9.868991E+05  2.396880E+01  1.443798E+03 -7.882794E+03 -1.358354E+02  2.572457E+02
       337  23  9.868051E+05 -4.707498E+01  1.570254E+03 -9.302102E+02  6.464044E+02  8.217557E+02
       337  24  9.868988E+05  1.937918E+02  2.284991E+03 -7.882827E+03  1.428599E+03  1.386355E+03
       337  25  9.701580E+05 -4.143121E+03 -2.668612E+03 -7.912025E+03  9.469089E+01  2.572797E+02
       337  26  9.549650E+05 -7.954902E+03 -6.162967E+03 -9.342619E+02  8.769336E+02  8.217987E+02
       337  27  9.399598E+05 -1.145478E+04 -9.069031E+03 -7.861744E+03  1.659113E+03  1.386406E+03
       338   1  1.060592E+06  1.819416E+04  2.072960E+04 -7.711135E+03 -1.647170E+03 -1.723701E+03
       338   2  1.075589E+06  2.177995E+04  2.619729E+04 -8.797789E+02 -3.973419E+03 -2.299531E+03
       338   3  1.091482E+06  2.764682E+04  3.375268E+04 -8.273058E+03 -6.299578E+03 -2.845384E+03
       338   4  9.870550E+05 -7.770199E+01  2.824072E+03 -7.953631E+03 -1.888150E+03 -1.723766E+03
       338   5  9.866066E+05 -3.179651E+02  4.587806E+03 -8.415515E+02 -4.201857E+03 -2.299619E+03
       338   6  9.870527E+05  1.720951E+03  8.430840E+03 -7.954231E+03 -6.515418E+03 -2.845494E+03
       338   7  9.135231E+05 -1.834996E+04 -1.508184E+04 -8.196099E+03 -2.129101E+03 -1.723831E+03
       338   8  8.976316E+05 -2.241646E+04 -1.702225E+04 -8.033302E+02 -4.430263E+03 -2.299707E+03
       338   9  8.826330E+05 -2.420571E+04 -1.689179E+04 -7.635458E+03 -6.731222E+03 -2.845604E+03
       338  10  1.060592E+06  1.819415E+04  2.072958E+04 -7.711137E+03  8.074782E-11  3.628297E-10
       338  11  1.075589E+06  2.177994E+04  2.619726E+04 -8.797863E+02 -1.751273E-10 -2.195272E-10
       338  12  1.091482E+06  2.764680E+04  3.375259E+04 -8.273072E+03  7.188528E-10  4.088785E-10
       338  13  9.870550E+05 -7.770614E+01  2.824059E+03 -7.953634E+03  2.154740E-09  2.907679E-10
       338  14  9.866066E+05 -3.179755E+02  4.587763E+03 -8.415593E+02  1.734218E-09  2.220301E-10
       338  15  9.870527E+05  1.720931E+03  8.430746E+03 -7.954246E+03  5.804087E-10  1.109657E-10
       338  16  9.135231E+05 -1.834996E+04 -1.508186E+04 -8.196102E+03  2.911874E-10  1.025084E-10
       338  17  8.976315E+05 -2.241647E+04 -1.702230E+04 -8.033384E+02  3.343677E-10  2.176711E-10
       338  18  8.826329E+05 -2.420573E+04 -1.689189E+04 -7.635474E+03 -1.117009E-09  2.885931E-10
       338  19  1.060592E+06  1.819416E+04  2.072960E+04 -7.711135E+03  1.647170E+03  1.723701E+03
       338  20  1.075589E+06  2.177995E+04  2.619729E+04 -8.797789E+02  3.973419E+03  2.299531E+03
       338  21  1.091482E+06  2.764682E+04  3.375268E+04 -8.273058E+03  6.299578E+03  2.845384E+03
       338  22  9.870550E+05 -7.770199E+01  2.824072E+03 -7.953631E+03  1.888150E+03  1.723766E+03
       338  23  9.866066E+05 -3.179651E+02  4.587806E+03 -8.415515E+02  4.201857E+03  2.299619E+03
       338  24  9.870527E+05  1.720951E+03  8.430840E+03 -7.954231E+03  6.515418E+03  2.845494E+03
       338  25  9.135231E+05 -1.834996E+04 -1.508184E+04 -8.196099E+03  2.129101E+03  1.723831E+03
       338  26  8.976316E+05 -2.241646E+04 -1.702225E+04 -8.033302E+02  4.430263E+03  2.299707E+03
       338  27  8.826330E+05 -2.420571E+04 -1.689179E+04 -7.635458E+03  6.731222E+03  2.845604E+03
       339   1  1.120107E+06  3.208354E+04  4.275105E+04 -6.247747E+03 -7.886799E+03 -3.251494E+03
       339   2  1.133215E+06  3.417750E+04  5.361244E+04 -1.495064E+03 -1.717824E+04 -3.859914E+03
       339   3  1.152366E+06  5.539647E+04  7.530785E+04 -1.158869E+04 -2.647015E+04 -4.060812E+03
       339   4  9.881904E+05 -6.862375E+02  1.067317E+04 -8.089203E+03 -8.215787E+03 -3.251647E+03
       339   5  9.851771E+05 -2.582509E+03  1.767023E+04 -6.705289E+02 -1.733882E+04 -3.860081E+03
       339   6  9.881795E+05  1.461954E+04  3.538639E+04 -8.098274E+03 -2.646208E+04 -4.061027E+03
       339   7  8.562893E+05 -3.345728E+04 -2.140597E+04 -9.930269E+03 -8.544705E+03 -3.251799E+03
       339   8  8.371596E+05 -3.934412E+04 -1.827355E+04  1.538069E+02 -1.749936E+04 -3.860248E+03
       339   9  8.240180E+05 -2.615933E+04 -4.537010E+03 -4.608789E+03 -2.645400E+04 -4.061243E+03
       339  10  1.120107E+06  3.208351E+04  4.275091E+04 -6.247767E+03  1.083678E-09  3.548268E-11
       339  11  1.133214E+06  3.417740E+04  5.361185E+04 -1.495117E+03  6.710987E-10 -1.210056E-09
       339  12  1.152365E+06  5.539627E+04  7.530650E+04 -1.158877E+04 -5.833364E-10 -8.185822E-10
       339  13  9.881903E+05 -6.862669E+02  1.067302E+04 -8.089225E+03 -2.129516E-09 -2.427325E-10
       339  14  9.851768E+05 -2.582605E+03  1.766964E+04 -6.705828E+02 -6.805440E-10 -9.505814E-10
       339  15  9.881788E+05  1.461934E+04  3.538505E+04 -8.098360E+03  2.097965E-10 -4.630783E-10
       339  16  8.562892E+05 -3.345731E+04 -2.140612E+04 -9.930292E+03 -1.122650E-09  8.460618E-11
       339  17  8.371593E+05 -3.934422E+04 -1.827416E+04  1.537525E+02 -1.015504E-09  6.396065E-10
       339  18  8.240173E+05 -2.615953E+04 -4.538354E+03 -4.608875E+03  5.498447E-10  1.433571E-10
       339  19  1.120107E+06  3.208354E+04  4.275105E+04 -6.247747E+03  7.886799E+03  3.251494E+03
       339  20  1.133215E+06  3.417750E+04  5.361244E+04 -1.495064E+03  1.717824E+04  3.859914E+03
       339  21  1.152366E+06  5.539647E+04  7.530785E+04 -1.158869E+04  2.647015E+04  4.060812E+03
       339  22  9.881904E+05 -6.862375E+02  1.067317E+04 -8.089203E+03  8.215787E+03  3.251647E+03
       339  23  9.851771E+05 -2.582509E+03  1.767023E+04 -6.705289E+02  1.733882E+04  3.860081E+03
       339  24  9.881795E+05  1.461954E+04  3.538639E+04 -8.098274E+03  2.646208E+04  4.061027E+03
       339  25  8.562893E+05 -3.345728E+04 -2.140597E+04 -9.930269E+03  8.544705E+03  3.251799E+03
       339  26  8.371596E+05 -3.934412E+04 -1.827355E+04  1.538069E+02  1.749936E+04  3.860248E+03
       339  27  8.240180E+05 -2.615933E+04 -4.537010E+03 -4.608789E+03  2.645400E+04  4.061243E+03
       340   1  1.189905E+06  4.219584E+04  9.003023E+04  6.234862E+03 -3.211116E+04 -5.096518E+03
       340   2  1.184650E+06  3.094920E+04  1.188498E+05 -9.266824E+03 -7.077023E+04 -5.829275E+03
       340   3  1.224337E+06  1.790095E+05  2.126542E+05 -4.058799E+04 -1.094344E+05 -2.061368E+03
       340   4  9.967732E+05 -5.784259E+03  4.314983E+04 -8.270156E+03 -3.331148E+04 -5.096713E+03
       340   5  9.744256E+05 -2.121852E+04  6.789478E+04 -4.230346E+02 -7.012172E+04 -5.829867E+03
       340   6  9.967124E+05  1.223605E+05  1.563576E+05 -8.394277E+03 -1.069358E+05 -2.064590E+03
       340   7  8.036761E+05 -5.376631E+04 -3.733138E+03 -2.277066E+04 -3.451143E+04 -5.096851E+03
       340   8  7.642412E+05 -7.338919E+04  1.693664E+04  8.417748E+03 -6.947343E+04 -5.830440E+03
       340   9  7.691372E+05  6.571157E+04  1.000578E+05  2.378763E+04 -1.044382E+05 -2.067556E+03
       340  10  1.189904E+06  4.219553E+04  9.002825E+04  6.234731E+03 -1.089821E-10 -1.026942E-09
       340  11  1.184645E+06  3.094783E+04  1.188403E+05 -9.267157E+03 -4.067657E-10 -2.838211E-09
       340  12  1.224324E+06  1.790063E+05  2.126317E+05 -4.058817E+04  7.575375E-11 -1.015188E-09
       340  13  9.967720E+05 -5.784584E+03  4.314770E+04 -8.270293E+03  7.999605E-12 -3.383516E-09
       340  14  9.744203E+05 -2.121988E+04  6.788549E+04 -4.233637E+02  1.897724E-09  7.413658E-10
       340  15  9.967001E+05  1.223574E+05  1.563362E+05 -8.394455E+03  2.539480E-10 -3.965249E-10
       340  16  8.036748E+05 -5.376665E+04 -3.735423E+03 -2.277080E+04 -1.140969E-09 -7.370299E-10
       340  17  7.642360E+05 -7.339052E+04  1.692751E+04  8.417422E+03 -2.351154E-09  4.224313E-10
       340  18  7.691255E+05  6.570864E+04  1.000373E+05  2.378745E+04  1.158509E-09 -1.138623E-09
       340  19  1.189905E+06  4.219584E+04  9.003023E+04  6.234862E+03  3.211116E+04  5.096518E+03
       340  20  1.184650E+06  3.094920E+04  1.188498E+05 -9.266824E+03  7.077023E+04  5.829275E+03
       340  21  1.224337E+06  1.790095E+05  2.126542E+05 -4.058799E+04  1.094344E+05  2.061368E+03
       340  22  9.967732E+05 -5.784259E+03  4.314983E+04 -8.270156E+03  3.331148E+04  5.096713E+03
       340  23  9.744256E+05 -2.121852E+04  6.789478E+04 -4.230346E+02  7.012172E+04  5.829867E+03
       340  24  9.967124E+05  1.223605E+05  1.563576E+05 -8.394277E+03  1.069358E+05  2.064590E+03
       340  25  8.036761E+05 -5.376631E+04 -3.733138E+03 -2.277066E+04  3.451143E+04  5.096851E+03
       340  26  7.642412E+05 -7.338919E+04  1.693664E+04  8.417748E+03  6.947343E+04  5.830440E+03
       340  27  7.691372E+05  6.571157E+04  1.000578E+05  2.378763E+04  1.044382E+05  2.067556E+03
       341   1  1.363633E+06  5.679749E+06  1.408286E+06 -6.167551E+05  3.781956E+04  1.978603E+05
       341   2  8.815169E+05  4.593288E+06  1.005009E+06 -1.086112E+05  1.027649E+05  9.525183E+04
       341   3  6.663823E+05  3.599391E+06  7.371258E+05 -5.520665E+05  6.415610E+04 -7.723260E+03
       341   4  1.837755E+05  9.349199E+05  2.369193E+05 -5.568592E+05  3.799687E+04  1.493542E+05
       341   5 -3.536347E+04  8.930453E+05  1.103430E+05 -8.117633E+04  1.028360E+05  8.972938E+04
       341   6  5.937076E+03  9.358238E+05  9.009544E+04 -5.573907E+05  6.385994E+04  2.956319E+04
       341   7 -9.977448E+05 -3.789571E+06 -9.361045E+05 -4.973946E+05  3.816576E+04  1.012123E+05
       341   8 -9.532417E+05 -2.794754E+06 -7.853051E+05 -5.388729E+04  1.029068E+05  8.423831E+04
       341   9 -6.550269E+05 -1.721293E+06 -5.574420E+05 -5.626759E+05  6.356246E+04  6.669062E+04
       341  10  1.363621E+06  5.679707E+06  1.408211E+06 -6.167611E+05  1.729377E-10 -6.977108E-10
       341  11  8.815031E+05  4.593276E+06  1.004972E+06 -1.086191E+05 -1.847040E-09 -1.514243E-09
       341  12  6.663778E+05  3.599390E+06  7.371179E+05 -5.520661E+05 -7.519968E-10  2.588203E-09
       341  13  1.837679E+05  9.348956E+05  2.368747E+05 -5.568637E+05  2.998750E-10 -1.270633E-10
       341  14 -3.537699E+04  8.930338E+05  1.103080E+05 -8.118376E+04 -2.014658E-09  2.800765E-09
       341  15  5.932459E+03  9.358218E+05  9.008613E+04 -5.573922E+05 -7.925462E-10 -1.075936E-09
       341  16 -9.977491E+05 -3.789582E+06 -9.361266E+05 -4.973977E+05 -1.193248E-09 -2.674853E-09
       341  17 -9.532550E+05 -2.794765E+06 -7.853384E+05 -5.389429E+04  6.288179E-10  4.912152E-09
       341  18 -6.550325E+05 -1.721299E+06 -5.574580E+05 -5.626793E+05 -2.029663E-09  3.905506E-09
       341  19  1.363633E+06  5.679749E+06  1.408286E+06 -6.167551E+05 -3.781956E+04 -1.978603E+05
       341  20  8.815169E+05  4.593288E+06  1.005009E+06 -1.086112E+05 -1.027649E+05 -9.525183E+04
       341  21  6.663823E+05  3.599391E+06  7.371258E+05 -5.520665E+05 -6.415610E+04  7.723260E+03
       341  22  1.837755E+05  9.349199E+05  2.369193E+05 -5.568592E+05 -3.799687E+04 -1.493542E+05
       341  23 -3.536347E+04  8.930453E+05  1.103430E+05 -8.117633E+04 -1.028360E+05 -8.972938E+04
       341  24  5.937076E+03  9.358238E+05  9.009544E+04 -5.573907E+05 -6.385994E+04 -2.956319E+04
       341  25 -9.977448E+05 -3.789571E+06 -9.361045E+05 -4.973946E+05 -3.816576E+04 -1.012123E+05
       341  26 -9.532417E+05 -2.794754E+06 -7.853051E+05 -5.388729E+04 -1.029068E+05 -8.423831E+04
       341  27 -6.550269E+05 -1.721293E+06 -5.574420E+05 -5.626759E+05 -6.356246E+04 -6.669062E+04
       342   1  2.421856E+05  1.784851E+06  2.933479E+05 -5.714512E+05  2.461460E+04  1.740709E+03
       342   2 -5.033116E+04  7.524672E+05  4.066273E+04 -8.076024E+04 -3.918888E+03 -3.965648E+04
       342   3 -2.447481E+05 -2.684067E+05 -1.648206E+05 -5.347224E+05 -3.186398E+04 -8.096895E+04
       342   4  2.763405E+04  9.212327E+05  8.427365E+04 -5.555604E+05  2.450741E+04  1.365937E+04
       342   5 -9.689321E+03  9.159285E+05  8.036351E+04 -8.315621E+04 -4.020104E+03 -2.797814E+04
       342   6  5.118637E+04  9.211843E+05  1.238792E+05 -5.553618E+05 -3.195996E+04 -6.959813E+04
       342   7 -1.869713E+05  5.829423E+04 -1.248536E+05 -5.396900E+05  2.440076E+04  2.556152E+04
       342   8  3.095064E+04  1.079414E+06  1.200629E+05 -8.555275E+04 -4.121396E+03 -1.629674E+04
       342   9  3.470182E+05  2.112068E+06  4.124774E+05 -5.760374E+05 -3.205659E+04 -5.820548E+04
       342  10  2.421849E+05  1.784851E+06  2.933467E+05 -5.714512E+05 -1.212929E-09 -6.000738E-09
       342  11 -5.033160E+04  7.524655E+05  4.065975E+04 -8.076036E+04  4.584188E-09 -1.249125E-09
       342  12 -2.447509E+05 -2.684140E+05 -1.648348E+05 -5.347245E+05 -5.366882E-09  3.297229E-09
       342  13  2.763335E+04  9.212323E+05  8.427217E+04 -5.555607E+05 -1.828068E-10 -2.221455E-11
       342  14 -9.689548E+03  9.159276E+05  8.036201E+04 -8.315630E+04  6.999479E-09  4.316308E-09
       342  15  5.118397E+04  9.211788E+05  1.238682E+05 -5.553636E+05  2.898430E-09 -1.471834E-09
       342  16 -1.869721E+05  5.829337E+04 -1.248559E+05 -5.396905E+05  5.064932E-10 -7.368990E-09
       342  17  3.095056E+04  1.079414E+06  1.200623E+05 -8.555281E+04 -4.462553E-09  5.866981E-09
       342  18  3.470161E+05  2.112064E+06  4.124691E+05 -5.760389E+05 -2.886212E-09  4.211233E-09
       342  19  2.421856E+05  1.784851E+06  2.933479E+05 -5.714512E+05 -2.461460E+04 -1.740709E+03
       342  20 -5.033116E+04  7.524672E+05  4.066273E+04 -8.076024E+04  3.918888E+03  3.965648E+04
       342  21 -2.447481E+05 -2.684067E+05 -1.648206E+05 -5.347224E+05  3.186398E+04  8.096895E+04
       342  22  2.763405E+04  9.212327E+05  8.427365E+04 -5.555604E+05 -2.450741E+04 -1.365937E+04
       342  23 -9.689321E+03  9.159285E+05  8.036351E+04 -8.315621E+04  4.020104E+03  2.797814E+04
       342  24  5.118637E+04  9.211843E+05  1.238792E+05 -5.553618E+05  3.195996E+04  6.959813E+04
       342  25 -1.869713E+05  5.829423E+04 -1.248536E+05 -5.396900E+05 -2.440076E+04 -2.556152E+04
       342  26  3.095064E+04  1.079414E+06  1.200629E+05 -8.555275E+04  4.121396E+03  1.629674E+04
       342  27  3.470182E+05  2.112068E+06  4.124774E+05 -5.760374E+05  3.205659E+04  5.820548E+04
       343   1 -7.484191E+05 -2.032485E+06 -5.809766E+05 -5.842514E+05 -7.183969E+04 -1.321147E+05
       343   2 -1.069362E+06 -3.144969E+06 -7.637723E+05 -3.985756E+04 -1.113786E+05 -2.022446E+05
       343   3 -8.875782E+05 -4.103550E+06 -7.715143E+05 -4.494769E+05 -4.086891E+04 -2.717599E+05
       343   4 -6.274198E+03  9.521447E+05  1.461819E+05 -5.579406E+05 -7.213453E+04 -9.382217E+04
       343   5 -6.926714E+04  8.717184E+05  2.120222E+05 -8.072487E+04 -1.112893E+05 -2.093350E+05
       343   6  3.767084E+05  9.510944E+05  4.835534E+05 -5.570410E+05 -4.069420E+04 -3.243578E+05
       343   7  7.352198E+05  3.944918E+06  8.727006E+05 -5.314830E+05 -7.242535E+04 -5.534472E+04
       343   8  9.296455E+05  4.903174E+06  1.186652E+06 -1.218402E+05 -1.111995E+05 -2.164678E+05
       343   9  1.639120E+06  6.029046E+06  1.736729E+06 -6.654642E+05 -4.050225E+04 -3.773769E+05
       343  10 -7.484294E+05 -2.032505E+06 -5.810193E+05 -5.842590E+05 -2.172544E-09 -7.733108E-09
       343  11 -1.069386E+06 -3.145017E+06 -7.638729E+05 -3.987574E+04  3.422973E-09 -1.686302E-09
       343  12 -8.876000E+05 -4.103631E+06 -7.716572E+05 -4.494858E+05  1.522687E-09  6.984979E-10
       343  13 -6.282155E+03  9.521338E+05  1.461555E+05 -5.579461E+05 -8.638887E-09  6.339949E-11
       343  14 -6.929219E+04  8.716680E+05  2.119167E+05 -8.074362E+04  2.558110E-09  2.243886E-09
       343  15  3.766784E+05  9.509812E+05  4.833528E+05 -5.570517E+05  4.257405E-10 -1.188414E-10
       343  16  7.352134E+05  3.944913E+06  8.726850E+05 -5.314862E+05  1.479661E-09 -4.016009E-09
       343  17  9.296198E+05  4.903121E+06  1.186541E+06 -1.218596E+05  1.627433E-09  3.715694E-09
       343  18  1.639080E+06  6.028894E+06  1.736460E+06 -6.654765E+05 -3.399113E-10  5.279174E-10
       343  19 -7.484191E+05 -2.032485E+06 -5.809766E+05 -5.842514E+05  7.183969E+04  1.321147E+05
       343  20 -1.069362E+06 -3.144969E+06 -7.637723E+05 -3.985756E+04  1.113786E+05  2.022446E+05
       343  21 -8.875782E+05 -4.103550E+06 -7.715143E+05 -4.494769E+05  4.086891E+04  2.717599E+05
       343  22 -6.274198E+03  9.521447E+05  1.461819E+05 -5.579406E+05  7.213453E+04  9.382217E+04
       343  23 -6.926714E+04  8.717184E+05  2.120222E+05 -8.072487E+04  1.112893E+05  2.093350E+05
       343  24  3.767084E+05  9.510944E+05  4.835534E+05 -5.570410E+05  4.069420E+04  3.243578E+05
       343  25  7.352198E+05  3.944918E+06  8.727006E+05 -5.314830E+05  7.242535E+04  5.534472E+04
       343  26  9.296455E+05  4.903174E+06  1.186652E+06 -1.218402E+05  1.111995E+05  2.164678E+05
       343  27  1.639120E+06  6.029046E+06  1.736729E+06 -6.654642E+05  4.050225E+04  3.773769E+05
       344   1 -1.085452E+06 -4.709803E+05 -2.419025E+05 -4.663936E+05 -1.267112E+05 -4.110145E+04
       344   2 -1.043326E+06 -3.388997E+05 -1.372350E+05 -4.442784E+05 -7.811648E+04 -7.837620E+03
       344   3 -1.024039E+06 -2.728697E+05 -8.857127E+04 -4.160216E+05 -2.572310E+04  1.535058E+04
       344   4 -7.170287E+05 -2.587064E+05 -1.339892E+05 -2.891932E+05 -8.960856E+04 -2.716941E+04
       344   5 -7.005000E+05 -1.772749E+05 -6.374760E+04 -3.112171E+05 -6.158590E+04 -1.629543E+03
       344   6 -7.027153E+05 -1.577991E+05 -3.317370E+04 -3.271062E+05 -2.976936E+04  1.382838E+04
       344   7 -3.484617E+05 -4.635982E+04 -2.608357E+04 -1.118816E+05 -5.248273E+04 -1.321745E+04
       344   8 -3.575486E+05 -1.561517E+04  9.734682E+03 -1.780802E+05 -4.504566E+04  4.584628E+03
       344   9 -3.812789E+05 -4.271789E+04  2.222166E+04 -2.381472E+05 -3.381788E+04  1.230534E+04
       344  10 -1.085469E+06 -4.709865E+05 -2.419359E+05 -4.663978E+05  2.688714E-09  3.739931E-10
       344  11 -1.043333E+06 -3.389014E+05 -1.372466E+05 -4.442789E+05  3.115137E-08  8.663943E-09
       344  12 -1.024040E+06 -2.728701E+05 -8.857296E+04 -4.160213E+05  6.087421E-08  1.684475E-08
       344  13 -7.170376E+05 -2.587094E+05 -1.340057E+05 -2.891952E+05  2.846444E-10  1.994363E-09
       344  14 -7.005041E+05 -1.772759E+05 -6.375474E+04 -3.112172E+05 -2.888687E-09  6.745505E-09
       344  15 -7.027163E+05 -1.577996E+05 -3.317572E+04 -3.271059E+05 -2.734304E-09  1.400284E-08
       344  16 -3.484647E+05 -4.636075E+04 -2.608907E+04 -1.118822E+05 -3.896544E-09 -1.560823E-09
       344  17 -3.575508E+05 -1.561574E+04  9.730828E+03 -1.780801E+05 -2.940787E-08 -1.504462E-08
       344  18 -3.812801E+05 -4.271836E+04  2.221923E+04 -2.381468E+05 -4.446490E-08 -2.133463E-08
       344  19 -1.085452E+06 -4.709803E+05 -2.419025E+05 -4.663936E+05  1.267112E+05  4.110145E+04
       344  20 -1.043326E+06 -3.388997E+05 -1.372350E+05 -4.442784E+05  7.811648E+04  7.837620E+03
       344  21 -1.024039E+06 -2.728697E+05 -8.857127E+04 -4.160216E+05  2.572310E+04 -1.535058E+04
       344  22 -7.170287E+05 -2.587064E+05 -1.339892E+05 -2.891932E+05  8.960856E+04  2.716941E+04
       344  23 -7.005000E+05 -1.772749E+05 -6.374760E+04 -3.112171E+05  6.158590E+04  1.629543E+03
       344  24 -7.027153E+05 -1.577991E+05 -3.317370E+04 -3.271062E+05  2.976936E+04 -1.382838E+04
       344  25 -3.484617E+05 -4.635982E+04 -2.608357E+04 -1.118816E+05  5.248273E+04  1.321745E+04
       344  26 -3.575486E+05 -1.561517E+04  9.734682E+03 -1.780802E+05  4.504566E+04 -4.584628E+03
       344  27 -3.812789E+05 -4.271789E+04  2.222166E+04 -2.381472E+05  3.381788E+04 -1.230534E+04
       345   1 -9.843434E+05 -2.626158E+05 -7.334836E+04 -4.103528E+05 -2.187139E+04  1.511959E+04
       345   2 -9.370264E+05 -2.334971E+05 -5.102927E+04 -3.922159E+05 -1.229525E+04  1.607796E+04
       345   3 -8.856335E+05 -2.158540E+05 -3.640688E+04 -3.811524E+05 -2.309420E+03  1.594714E+04
       345   4 -6.988860E+05 -1.559758E+05 -2.467504E+04 -3.264699E+05 -2.548942E+04  1.375854E+04
       345   5 -7.006564E+05 -1.470474E+05 -1.285256E+04 -3.242121E+05 -1.813499E+04  1.388253E+04
       345   6 -6.979107E+05 -1.491526E+05 -6.961873E+03 -3.290288E+05 -1.037158E+04  1.291726E+04
       345   7 -4.133450E+05 -4.932733E+04  2.399523E+04 -2.425512E+05 -2.910917E+04  1.239678E+04
       345   8 -4.642261E+05 -6.059119E+04  2.532317E+04 -2.561837E+05 -2.397708E+04  1.168618E+04
       345   9 -5.101475E+05 -8.244677E+04  2.248342E+04 -2.768898E+05 -1.843642E+04  9.886387E+03
       345  10 -9.843440E+05 -2.626162E+05 -7.334969E+04 -4.103526E+05 -1.078244E-07 -4.578120E-08
       345  11 -9.370266E+05 -2.334975E+05 -5.103004E+04 -3.922157E+05 -4.409099E-08 -1.936716E-08
       345  12 -8.856335E+05 -2.158542E+05 -3.640737E+04 -3.811524E+05  4.346226E-08  1.534414E-08
       345  13 -6.988868E+05 -1.559762E+05 -2.467661E+04 -3.264697E+05 -5.097098E-09  1.298444E-08
       345  14 -7.006568E+05 -1.470477E+05 -1.285354E+04 -3.242119E+05 -1.015655E-08  4.553988E-10
       345  15 -6.979108E+05 -1.491528E+05 -6.962389E+03 -3.290287E+05  2.213828E-09 -1.411096E-09
       345  16 -4.133459E+05 -4.932772E+04  2.399335E+04 -2.425509E+05  1.170315E-07  3.677288E-08
       345  17 -4.642268E+05 -6.059149E+04  2.532183E+04 -2.561835E+05  2.963139E-08  4.464725E-09
       345  18 -5.101479E+05 -8.244697E+04  2.248260E+04 -2.768896E+05 -4.770594E-08 -2.241590E-08
       345  19 -9.843434E+05 -2.626158E+05 -7.334836E+04 -4.103528E+05  2.187139E+04 -1.511959E+04
       345  20 -9.370264E+05 -2.334971E+05 -5.102927E+04 -3.922159E+05  1.229525E+04 -1.607796E+04
       345  21 -8.856335E+05 -2.158540E+05 -3.640688E+04 -3.811524E+05  2.309420E+03 -1.594714E+04
       345  22 -6.988860E+05 -1.559758E+05 -2.467504E+04 -3.264699E+05  2.548942E+04 -1.375854E+04
       345  23 -7.006564E+05 -1.470474E+05 -1.285256E+04 -3.242121E+05  1.813499E+04 -1.388253E+04
       345  24 -6.979107E+05 -1.491526E+05 -6.961873E+03 -3.290288E+05  1.037158E+04 -1.291726E+04
       345  25 -4.133450E+05 -4.932733E+04  2.399523E+04 -2.425512E+05  2.910917E+04 -1.239678E+04
       345  26 -4.642261E+05 -6.059119E+04  2.532317E+04 -2.561837E+05  2.397708E+04 -1.168618E+04
       345  27 -5.101475E+05 -8.244677E+04  2.248342E+04 -2.768898E+05  1.843642E+04 -9.886387E+03
       346   1 -8.530886E+05 -2.046409E+05 -2.938771E+04 -3.725034E+05 -5.379437E+02  1.395147E+04
       346   2 -8.059092E+05 -1.827505E+05 -1.909753E+04 -3.544101E+05  2.619565E+03  1.059087E+04
       346   3 -7.521194E+05 -1.681505E+05 -1.012887E+04 -3.442409E+05  5.821178E+03  7.112263E+03
       346   4 -6.975396E+05 -1.490697E+05 -5.211609E+03 -3.289309E+05 -8.556074E+03  1.093844E+04
       346   5 -7.008414E+05 -1.452806E+05 -2.841015E+03 -3.250305E+05 -5.639487E+03  7.487670E+03
       346   6 -6.974877E+05 -1.487341E+05 -1.600780E+03 -3.290550E+05 -2.678948E+03  3.918858E+03
       346   7 -5.419643E+05 -9.349591E+04  1.896435E+04 -2.853482E+05 -1.657633E+04  7.924623E+03
       346   8 -5.957622E+05 -1.078098E+05  1.341543E+04 -2.956464E+05 -1.389997E+04  4.383940E+03
       346   9 -6.428534E+05 -1.293177E+05  6.927388E+03 -3.138679E+05 -1.117976E+04  7.251982E+02
       346  10 -8.530887E+05 -2.046411E+05 -2.938807E+04 -3.725034E+05  3.845121E-09  2.580286E-10
       346  11 -8.059093E+05 -1.827507E+05 -1.909775E+04 -3.544102E+05  2.385367E-09 -1.260849E-09
       346  12 -7.521194E+05 -1.681505E+05 -1.012903E+04 -3.442409E+05  2.109171E-09 -3.992023E-10
       346  13 -6.975397E+05 -1.490698E+05 -5.211971E+03 -3.289309E+05  7.737804E-09 -5.543322E-10
       346  14 -7.008415E+05 -1.452807E+05 -2.841180E+03 -3.250305E+05  3.355671E-09 -4.834608E-10
       346  15 -6.974877E+05 -1.487342E+05 -1.600822E+03 -3.290550E+05  6.700777E-10 -1.394820E-09
       346  16 -5.419647E+05 -9.349605E+04  1.896372E+04 -2.853481E+05  4.930921E-09 -1.603695E-09
       346  17 -5.957624E+05 -1.078099E+05  1.341504E+04 -2.956464E+05  2.274940E-09 -1.010683E-09
       346  18 -6.428535E+05 -1.293177E+05  6.927152E+03 -3.138679E+05  4.934297E-11 -2.594367E-09
       346  19 -8.530886E+05 -2.046409E+05 -2.938771E+04 -3.725034E+05  5.379437E+02 -1.395147E+04
       346  20 -8.059092E+05 -1.827505E+05 -1.909753E+04 -3.544101E+05 -2.619565E+03 -1.059087E+04
       346  21 -7.521194E+05 -1.681505E+05 -1.012887E+04 -3.442409E+05 -5.821178E+03 -7.112263E+03
       346  22 -6.975396E+05 -1.490697E+05 -5.211609E+03 -3.289309E+05  8.556074E+03 -1.093844E+04
       346  23 -7.008414E+05 -1.452806E+05 -2.841015E+03 -3.250305E+05  5.639487E+03 -7.487670E+03
       346  24 -6.974877E+05 -1.487341E+05 -1.600780E+03 -3.290550E+05  2.678948E+03 -3.918858E+03
       346  25 -5.419643E+05 -9.349591E+04  1.896435E+04 -2.853482E+05  1.657633E+04 -7.924623E+03
       346  26 -5.957622E+05 -1.078098E+05  1.341543E+04 -2.956464E+05  1.389997E+04 -4.383940E+03
       346  27 -6.428534E+05 -1.293177E+05  6.927388E+03 -3.138679E+05  1.117976E+04 -7.251982E+02
       347   1 -7.202227E+05 -1.567808E+05 -4.645800E+03 -3.353463E+05  6.960620E+03  4.772282E+03
       347   2 -6.731556E+05 -1.352948E+05  3.454922E+03 -3.172063E+05  8.933182E+03  7.615892E+02
       347   3 -6.191943E+05 -1.207819E+05  1.124827E+04 -3.070198E+05  1.090974E+04 -3.259469E+03
       347   4 -6.974437E+05 -1.487395E+05 -1.233508E+03 -3.290368E+05 -1.535226E+03  1.580562E+03
       347   5 -7.008920E+05 -1.452599E+05 -7.761025E+02 -3.250574E+05  4.156903E+02 -2.438375E+03
       347   6 -6.974458E+05 -1.487500E+05 -6.095219E+02 -3.290331E+05  2.370563E+03 -6.467683E+03
       347   7 -6.746637E+05 -1.406981E+05  2.179165E+03 -3.227269E+05 -1.003150E+04 -1.611318E+03
       347   8 -7.286276E+05 -1.552249E+05 -5.006875E+03 -3.329082E+05 -8.101452E+03 -5.638206E+03
       347   9 -7.756905E+05 -1.767174E+05 -1.246709E+04 -3.510437E+05 -6.167479E+03 -9.675471E+03
       347  10 -7.202227E+05 -1.567808E+05 -4.645934E+03 -3.353463E+05  1.361836E-09 -1.281678E-09
       347  11 -6.731557E+05 -1.352948E+05  3.454771E+03 -3.172063E+05 -1.497060E-09 -1.414127E-09
       347  12 -6.191944E+05 -1.207820E+05  1.124803E+04 -3.070198E+05  4.236155E-10  1.444577E-10
       347  13 -6.974437E+05 -1.487395E+05 -1.233517E+03 -3.290368E+05  1.005424E-09 -3.091801E-09
       347  14 -7.008920E+05 -1.452599E+05 -7.761140E+02 -3.250574E+05  1.931657E-09 -3.142217E-09
       347  15 -6.974458E+05 -1.487500E+05 -6.096110E+02 -3.290331E+05  3.320852E-10 -1.163092E-09
       347  16 -6.746638E+05 -1.406981E+05  2.178971E+03 -3.227269E+05  1.654525E-10 -3.144093E-09
       347  17 -7.286277E+05 -1.552250E+05 -5.007059E+03 -3.329083E+05  1.944134E-10 -3.084659E-09
       347  18 -7.756906E+05 -1.767175E+05 -1.246734E+04 -3.510438E+05 -1.283962E-11 -2.686813E-09
       347  19 -7.202227E+05 -1.567808E+05 -4.645800E+03 -3.353463E+05 -6.960620E+03 -4.772282E+03
       347  20 -6.731556E+05 -1.352948E+05  3.454922E+03 -3.172063E+05 -8.933182E+03 -7.615892E+02
       347  21 -6.191943E+05 -1.207819E+05  1.124827E+04 -3.070198E+05 -1.090974E+04  3.259469E+03
       347  22 -6.974437E+05 -1.487395E+05 -1.233508E+03 -3.290368E+05  1.535226E+03 -1.580562E+03
       347  23 -7.008920E+05 -1.452599E+05 -7.761025E+02 -3.250574E+05 -4.156903E+02  2.438375E+03
       347  24 -6.974458E+05 -1.487500E+05 -6.095219E+02 -3.290331E+05 -2.370563E+03  6.467683E+03
       347  25 -6.746637E+05 -1.406981E+05  2.179165E+03 -3.227269E+05  1.003150E+04  1.611318E+03
       347  26 -7.286276E+05 -1.552249E+05 -5.006875E+03 -3.329082E+05  8.101452E+03  5.638206E+03
       347  27 -7.756905E+05 -1.767174E+05 -1.246709E+04 -3.510437E+05  6.167479E+03  9.675471E+03
       348   1 -5.873822E+05 -1.093867E+05  1.634822E+04 -2.981109E+05  1.192505E+04 -5.654971E+03
       348   2 -5.403438E+05 -8.790946E+04  2.380821E+04 -2.799761E+05  1.384103E+04 -9.693477E+03
       348   3 -4.864031E+05 -7.339097E+04  3.100740E+04 -2.697899E+05  1.575063E+04 -1.371373E+04
       348   4 -6.974483E+05 -1.487513E+05 -6.092805E+02 -3.290319E+05  3.386676E+03 -8.863061E+03
       348   5 -7.008975E+05 -1.452714E+05 -7.746138E+02 -3.250569E+05  5.339325E+03 -1.288831E+04
       348   6 -6.974541E+05 -1.487577E+05 -1.229881E+03 -3.290316E+05  7.285572E+03 -1.689534E+04
       348   7 -8.074998E+05 -1.881141E+05 -1.756629E+04 -3.599472E+05 -5.149997E+03 -1.207051E+04
       348   8 -8.614231E+05 -2.026306E+05 -2.535749E+04 -3.701267E+05 -3.160057E+03 -1.608227E+04
       348   9 -9.084592E+05 -2.241206E+05 -3.346818E+04 -3.882550E+05 -1.176538E+03 -2.007585E+04
       348  10 -5.873824E+05 -1.093868E+05  1.634790E+04 -2.981109E+05  5.473810E-08  2.301141E-08
       348  11 -5.403440E+05 -8.790961E+04  2.380767E+04 -2.799760E+05  9.240283E-09  7.867130E-09
       348  12 -4.864034E+05 -7.339123E+04  3.100658E+04 -2.697897E+05 -4.808096E-08 -1.560279E-08
       348  13 -6.974483E+05 -1.487514E+05 -6.094496E+02 -3.290318E+05  5.036544E-09  2.502007E-09
       348  14 -7.008975E+05 -1.452716E+05 -7.749794E+02 -3.250569E+05  1.257906E-08  6.044121E-09
       348  15 -6.974542E+05 -1.487580E+05 -1.230517E+03 -3.290315E+05  1.389339E-09  3.126779E-09
       348  16 -8.074999E+05 -1.881143E+05 -1.756661E+04 -3.599473E+05 -4.746411E-08 -1.883229E-08
       348  17 -8.614231E+05 -2.026309E+05 -2.535800E+04 -3.701268E+05  1.128812E-08  5.550299E-09
       348  18 -9.084593E+05 -2.241211E+05 -3.346894E+04 -3.882550E+05  5.544089E-08  2.155869E-08
       348  19 -5.873822E+05 -1.093867E+05  1.634822E+04 -2.981109E+05 -1.192505E+04  5.654971E+03
       348  20 -5.403438E+05 -8.790946E+04  2.380821E+04 -2.799761E+05 -1.384103E+04  9.693477E+03
       348  21 -4.864031E+05 -7.339097E+04  3.100740E+04 -2.697899E+05 -1.575063E+04  1.371373E+04
       348  22 -6.974483E+05 -1.487513E+05 -6.092805E+02 -3.290319E+05 -3.386676E+03  8.863061E+03
       348  23 -7.008975E+05 -1.452714E+05 -7.746138E+02 -3.250569E+05 -5.339325E+03  1.288831E+04
       348  24 -6.974541E+05 -1.487577E+05 -1.229881E+03 -3.290316E+05 -7.285572E+03  1.689534E+04
       348  25 -8.074998E+05 -1.881141E+05 -1.756629E+04 -3.599472E+05  5.149997E+03  1.207051E+04
       348  26 -8.614231E+05 -2.026306E+05 -2.535749E+04 -3.701267E+05  3.160057E+03  1.608227E+04
       348  27 -9.084592E+05 -2.241206E+05 -3.346818E+04 -3.882550E+05  1.176538E+03  2.007585E+04
       349   1 -4.546278E+05 -6.201835E+04  3.575922E+04 -2.609303E+05  1.689538E+04 -1.604273E+04
       349   2 -4.076257E+05 -4.053593E+04  4.229059E+04 -2.427290E+05  1.948969E+04 -1.970016E+04
       349   3 -3.539048E+05 -2.621366E+04  4.797130E+04 -2.324332E+05  2.202096E+04 -2.318751E+04
       349   4 -6.975032E+05 -1.487545E+05 -1.595692E+03 -3.290468E+05  8.426168E+03 -1.922636E+04
       349   5 -7.008581E+05 -1.453153E+05 -2.831541E+03 -3.250302E+05  1.136682E+04 -2.275458E+04
       349   6 -6.975653E+05 -1.491057E+05 -5.193102E+03 -3.289204E+05  1.424432E+04 -2.611270E+04
       349   7 -9.403145E+05 -2.354843E+05 -3.895114E+04 -3.971382E+05 -3.953777E+01 -2.240868E+04
       349   8 -9.939954E+05 -2.500849E+05 -4.795415E+04 -4.072942E+05  3.248058E+03 -2.580746E+04
       349   9 -1.041094E+06 -2.719836E+05 -5.835790E+04 -4.253561E+05  6.472318E+03 -2.903615E+04
       349  10 -4.546281E+05 -6.201871E+04  3.575820E+04 -2.609300E+05  2.114591E-08  9.214419E-09
       349  11 -4.076262E+05 -4.053645E+04  4.228914E+04 -2.427287E+05 -1.480949E-09 -2.468255E-09
       349  12 -3.539054E+05 -2.621437E+04  4.796938E+04 -2.324328E+05 -3.224005E-08 -1.776770E-08
       349  13 -6.975034E+05 -1.487549E+05 -1.596519E+03 -3.290467E+05 -9.049803E-10  4.141717E-09
       349  14 -7.008583E+05 -1.453159E+05 -2.832757E+03 -3.250300E+05  2.079551E-09  8.219222E-09
       349  15 -6.975657E+05 -1.491065E+05 -5.194764E+03 -3.289201E+05 -2.083366E-09  8.388315E-09
       349  16 -9.403147E+05 -2.354849E+05 -3.895208E+04 -3.971382E+05 -1.880080E-08 -7.443372E-09
       349  17 -9.939956E+05 -2.500856E+05 -4.795542E+04 -4.072941E+05  5.746111E-09 -2.244632E-09
       349  18 -1.041094E+06 -2.719845E+05 -5.835956E+04 -4.253559E+05  2.972755E-08  3.074226E-09
       349  19 -4.546278E+05 -6.201835E+04  3.575922E+04 -2.609303E+05 -1.689538E+04  1.604273E+04
       349  20 -4.076257E+05 -4.053593E+04  4.229059E+04 -2.427290E+05 -1.948969E+04  1.970016E+04
       349  21 -3.539048E+05 -2.621366E+04  4.797130E+04 -2.324332E+05 -2.202096E+04  2.318751E+04
       349  22 -6.975032E+05 -1.487545E+05 -1.595692E+03 -3.290468E+05 -8.426168E+03  1.922636E+04
       349  23 -7.008581E+05 -1.453153E+05 -2.831541E+03 -3.250302E+05 -1.136682E+04  2.275458E+04
       349  24 -6.975653E+05 -1.491057E+05 -5.193102E+03 -3.289204E+05 -1.424432E+04  2.611270E+04
       349  25 -9.403145E+05 -2.354843E+05 -3.895114E+04 -3.971382E+05  3.953777E+01  2.240868E+04
       349  26 -9.939954E+05 -2.500849E+05 -4.795415E+04 -4.072942E+05 -3.248058E+03  2.580746E+04
       349  27 -1.041094E+06 -2.719836E+05 -5.835790E+04 -4.253561E+05 -6.472318E+03  2.903615E+04
       350   1 -3.221346E+05 -1.515161E+04  5.156226E+04 -2.239657E+05  2.387713E+04 -2.509355E+04
       350   2 -2.764087E+05  6.699389E+03  5.488741E+04 -2.033697E+05  2.830965E+04 -2.691447E+04
       350   3 -2.255596E+05  1.821597E+04  5.482869E+04 -1.897897E+05  3.215777E+04 -2.717842E+04
       350   4 -6.979409E+05 -1.491837E+05 -6.935483E+03 -3.290070E+05  1.603863E+04 -2.804264E+04
       350   5 -7.006768E+05 -1.471051E+05 -1.280481E+04 -3.242222E+05  2.364890E+04 -2.866994E+04
       350   6 -6.989246E+05 -1.559942E+05 -2.458080E+04 -3.264555E+05  3.067429E+04 -2.773976E+04
       350   7 -1.073599E+06 -2.832030E+05 -6.543656E+04 -4.339897E+05  8.205060E+03 -3.098990E+04
       350   8 -1.124754E+06 -3.008908E+05 -8.050112E+04 -4.449973E+05  1.899150E+04 -3.042412E+04
       350   9 -1.172050E+06 -3.301791E+05 -1.039959E+05 -4.630227E+05  2.919201E+04 -2.830063E+04
       350  10 -3.221354E+05 -1.515244E+04  5.156000E+04 -2.239652E+05  2.919004E-08  4.088258E-09
       350  11 -2.764097E+05  6.698396E+03  5.488454E+04 -2.033691E+05  6.404118E-09 -2.748627E-09
       350  12 -2.255609E+05  1.821490E+04  5.482535E+04 -1.897890E+05 -1.916380E-08 -9.546087E-09
       350  13 -6.979414E+05 -1.491846E+05 -6.937443E+03 -3.290066E+05 -1.597633E-09  8.150644E-09
       350  14 -7.006776E+05 -1.471061E+05 -1.280741E+04 -3.242216E+05  2.171205E-09  7.392952E-09
       350  15 -6.989258E+05 -1.559953E+05 -2.458401E+04 -3.264549E+05  1.224244E-09  1.876836E-09
       350  16 -1.073600E+06 -2.832040E+05 -6.543849E+04 -4.339895E+05 -3.154071E-08 -1.759556E-08
       350  17 -1.124754E+06 -3.008918E+05 -8.050353E+04 -4.449968E+05 -1.599259E-09 -1.408361E-09
       350  18 -1.172051E+06 -3.301801E+05 -1.039990E+05 -4.630220E+05  2.173006E-08  1.134807E-08
       350  19 -3.221346E+05 -1.515161E+04  5.156226E+04 -2.239657E+05 -2.387713E+04  2.509355E+04
       350  20 -2.764087E+05  6.699389E+03  5.488741E+04 -2.033697E+05 -2.830965E+04  2.691447E+04
       350  21 -2.255596E+05  1.821597E+04  5.482869E+04 -1.897897E+05 -3.215777E+04  2.717842E+04
       350  22 -6.979409E+05 -1.491837E+05 -6.935483E+03 -3.290070E+05 -1.603863E+04  2.804264E+04
       350  23 -7.006768E+05 -1.471051E+05 -1.280481E+04 -3.242222E+05 -2.364890E+04  2.866994E+04
       350  24 -6.989246E+05 -1.559942E+05 -2.458080E+04 -3.264555E+05 -3.067429E+04  2.773976E+04
       350  25 -1.073599E+06 -2.832030E+05 -6.543656E+04 -4.339897E+05 -8.205060E+03  3.098990E+04
       350  26 -1.124754E+06 -3.008908E+05 -8.050112E+04 -4.449973E+05 -1.899150E+04  3.042412E+04
       350  27 -1.172050E+06 -3.301791E+05 -1.039959E+05 -4.630227E+05 -2.919201E+04  2.830063E+04
       351   1 -1.933603E+05  2.508362E+04  5.377410E+04 -1.852842E+05  3.687796E+04 -2.660195E+04
       351   2 -1.702732E+05  5.254375E+04  4.587968E+04 -1.261046E+05  3.797154E+04 -1.913007E+04
       351   3 -1.602481E+05  2.443389E+04  2.181893E+04 -6.050985E+04  3.364401E+04  2.742565E+03
       351   4 -7.027915E+05 -1.577608E+05 -3.304574E+04 -3.270288E+05  3.478204E+04 -2.739384E+04
       351   5 -7.004764E+05 -1.772860E+05 -6.350436E+04 -3.113489E+05  6.529825E+04 -8.852760E+03
       351   6 -7.170805E+05 -2.582507E+05 -1.334750E+05 -2.892524E+05  9.038919E+04  2.409415E+04
       351   7 -1.211946E+06 -3.405796E+05 -1.198724E+05 -4.686645E+05  3.268796E+04 -2.818504E+04
       351   8 -1.230371E+06 -4.070505E+05 -1.728958E+05 -4.964309E+05  9.259952E+04  1.410922E+03
       351   9 -1.273567E+06 -5.408167E+05 -2.887762E+05 -5.177732E+05  1.470770E+05  4.540710E+04
       351  10 -1.933619E+05  2.508249E+04  5.377021E+04 -1.852834E+05  9.470892E-10 -2.160982E-09
       351  11 -1.702749E+05  5.254297E+04  4.587628E+04 -1.261040E+05 -1.234489E-10 -1.115692E-09
       351  12 -1.602493E+05  2.443358E+04  2.181679E+04 -6.050992E+04 -3.647626E-09 -6.453331E-10
       351  13 -7.027930E+05 -1.577619E+05 -3.304942E+04 -3.270281E+05  2.725697E-09 -8.744565E-10
       351  14 -7.004810E+05 -1.772872E+05 -6.351252E+04 -3.113485E+05  1.836845E-09 -1.498478E-09
       351  15 -7.170894E+05 -2.582535E+05 -1.334914E+05 -2.892542E+05  1.700004E-10  1.199020E-09
       351  16 -1.211947E+06 -3.405807E+05 -1.198759E+05 -4.686637E+05 -1.359017E-09  1.365258E-09
       351  17 -1.230380E+06 -4.070528E+05 -1.729120E+05 -4.964310E+05  2.120784E-09  6.126740E-10
       351  18 -1.273591E+06 -5.408247E+05 -2.888208E+05 -5.177786E+05  3.017370E-09  3.414852E-10
       351  19 -1.933603E+05  2.508362E+04  5.377410E+04 -1.852842E+05 -3.687796E+04  2.660195E+04
       351  20 -1.702732E+05  5.254375E+04  4.587968E+04 -1.261046E+05 -3.797154E+04  1.913007E+04
       351  21 -1.602481E+05  2.443389E+04  2.181893E+04 -6.050985E+04 -3.364401E+04 -2.742565E+03
       351  22 -7.027915E+05 -1.577608E+05 -3.304574E+04 -3.270288E+05 -3.478204E+04  2.739384E+04
       351  23 -7.004764E+05 -1.772860E+05 -6.350436E+04 -3.113489E+05 -6.529825E+04  8.852760E+03
       351  24 -7.170805E+05 -2.582507E+05 -1.334750E+05 -2.892524E+05 -9.038919E+04 -2.409415E+04
       351  25 -1.211946E+06 -3.405796E+05 -1.198724E+05 -4.686645E+05 -3.268796E+04  2.818504E+04
       351  26 -1.230371E+06 -4.070505E+05 -1.728958E+05 -4.964309E+05 -9.259952E+04 -1.410922E+03
       351  27 -1.273567E+06 -5.408167E+05 -2.887762E+05 -5.177732E+05 -1.470770E+05 -4.540710E+04
       352   1 -4.338400E+05 -8.002176E+04 -1.241547E+05 -3.452422E+04 -1.340026E+05 -2.853133E+03
       352   2 -4.198712E+05  1.008168E+05 -1.545256E+04 -1.115639E+04 -8.912312E+04 -8.235251E+03
       352   3 -4.626645E+05  7.756753E+04  1.303406E+04  2.541263E+04 -4.425357E+04 -7.551417E+03
       352   4 -7.443618E+05 -1.574465E+05 -2.010966E+05  6.772802E+03 -1.374049E+05 -2.866114E+03
       352   5 -7.157250E+05  2.727833E+04 -8.730079E+04  7.221204E+01 -9.007450E+04 -8.238459E+03
       352   6 -7.443059E+05  7.433816E+03 -5.545237E+04  6.573019E+03 -4.275279E+04 -7.547930E+03
       352   7 -1.054792E+06 -2.348721E+05 -2.780447E+05  4.804912E+04 -1.408055E+05 -2.879552E+03
       352   8 -1.011498E+06 -4.626610E+04 -1.591553E+05  1.129542E+04 -9.102542E+04 -8.241702E+03
       352   9 -1.025874E+06 -6.270442E+04 -1.239444E+05 -1.225805E+04 -4.125268E+04 -7.544534E+03
       352  10 -4.338593E+05 -8.002659E+04 -1.241885E+05 -3.452453E+04 -1.826085E-09  4.495220E-10
       352  11 -4.198797E+05  1.008146E+05 -1.546762E+04 -1.115698E+04  3.970127E-10 -7.589202E-10
       352  12 -4.626666E+05  7.756694E+04  1.303027E+04  2.541236E+04  1.680192E-09 -3.018408E-09
       352  13 -7.443821E+05 -1.574516E+05 -2.011321E+05  6.772485E+03 -1.338557E-09  1.256110E-09
       352  14 -7.157337E+05  2.727608E+04 -8.731618E+04  7.161420E+01 -1.981654E-09  1.507553E-10
       352  15 -7.443079E+05  7.433264E+03 -5.545592E+04  6.572759E+03 -8.203148E-11 -1.734514E-10
       352  16 -1.054814E+06 -2.348774E+05 -2.780820E+05  4.804879E+04 -6.994886E-10  9.194353E-10
       352  17 -1.011507E+06 -4.626840E+04 -1.591710E+05  1.129481E+04 -3.164779E-09 -2.725837E-09
       352  18 -1.025876E+06 -6.270494E+04 -1.239477E+05 -1.225830E+04 -2.331440E-09 -3.941462E-09
       352  19 -4.338400E+05 -8.002176E+04 -1.241547E+05 -3.452422E+04  1.340026E+05  2.853133E+03
       352  20 -4.198712E+05  1.008168E+05 -1.545256E+04 -1.115639E+04  8.912312E+04  8.235251E+03
       352  21 -4.626645E+05  7.756753E+04  1.303406E+04  2.541263E+04  4.425357E+04  7.551417E+03
       352  22 -7.443618E+05 -1.574465E+05 -2.010966E+05  6.772802E+03  1.374049E+05  2.866114E+03
       352  23 -7.157250E+05  2.727833E+04 -8.730079E+04  7.221204E+01  9.007450E+04  8.238459E+03
       352  24 -7.443059E+05  7.433816E+03 -5.545237E+04  6.573019E+03  4.275279E+04  7.547930E+03
       352  25 -1.054792E+06 -2.348721E+05 -2.780447E+05  4.804912E+04  1.408055E+05  2.879552E+03
       352  26 -1.011498E+06 -4.626610E+04 -1.591553E+05  1.129542E+04  9.102542E+04  8.241702E+03
       352  27 -1.025874E+06 -6.270442E+04 -1.239444E+05 -1.225805E+04  4.125268E+04  7.544534E+03
       353   1 -4.777033E+05  4.476312E+04  1.679899E+04  2.637851E+03 -3.386104E+04 -6.323039E+03
       353   2 -4.893633E+05  6.303825E+04  3.571305E+04 -1.042371E+03 -2.238609E+04 -6.294569E+03
       353   3 -5.086103E+05  5.681998E+04  4.103672E+04  9.530025E+03 -1.091252E+04 -5.678214E+03
       353   4 -7.332969E+05 -1.882625E+04 -4.547475E+04  6.897693E+03 -3.396774E+04 -6.323639E+03
       353   5 -7.294760E+05  3.306911E+03 -2.269394E+04 -2.461330E+02 -2.225744E+04 -6.294525E+03
       353   6 -7.332863E+05  9.004603E+02 -1.367105E+04  6.863046E+03 -1.054821E+04 -5.677554E+03
       353   7 -9.888307E+05 -8.242037E+04 -1.077532E+05  1.115575E+04 -3.407440E+04 -6.324241E+03
       353   8 -9.695361E+05 -5.642867E+04 -8.110511E+04  5.497716E+02 -2.212883E+04 -6.294481E+03
       353   9 -9.579163E+05 -5.502276E+04 -6.838247E+04  4.197012E+03 -1.018404E+04 -5.676897E+03
       353  10 -4.777045E+05  4.476277E+04  1.679676E+04  2.637679E+03 -7.708521E-10 -4.747445E-09
       353  11 -4.893638E+05  6.303808E+04  3.571203E+04 -1.042485E+03  1.994768E-11  1.074500E-09
       353  12 -5.086104E+05  5.681992E+04  4.103643E+04  9.529975E+03 -9.652080E-10  2.489783E-09
       353  13 -7.332981E+05 -1.882660E+04 -4.547700E+04  6.897520E+03 -1.103364E-11 -3.426929E-09
       353  14 -7.294766E+05  3.306736E+03 -2.269495E+04 -2.462458E+02  1.660559E-09 -1.121937E-09
       353  15 -7.332865E+05  9.003958E+02 -1.367132E+04  6.862998E+03 -4.380341E-10 -1.054801E-09
       353  16 -9.888320E+05 -8.242072E+04 -1.077555E+05  1.115558E+04  6.387200E-10 -1.063109E-09
       353  17 -9.695366E+05 -5.642885E+04 -8.110610E+04  5.496594E+02 -4.349704E-10 -9.720251E-10
       353  18 -9.579164E+05 -5.502282E+04 -6.838273E+04  4.196965E+03 -2.238475E-10  8.356848E-10
       353  19 -4.777033E+05  4.476312E+04  1.679899E+04  2.637851E+03  3.386104E+04  6.323039E+03
       353  20 -4.893633E+05  6.303825E+04  3.571305E+04 -1.042371E+03  2.238609E+04  6.294569E+03
       353  21 -5.086103E+05  5.681998E+04  4.103672E+04  9.530025E+03  1.091252E+04  5.678214E+03
       353  22 -7.332969E+05 -1.882625E+04 -4.547475E+04  6.897693E+03  3.396774E+04  6.323639E+03
       353  23 -7.294760E+05  3.306911E+03 -2.269394E+04 -2.461330E+02  2.225744E+04  6.294525E+03
       353  24 -7.332863E+05  9.004603E+02 -1.367105E+04  6.863046E+03  1.054821E+04  5.677554E+03
       353  25 -9.888307E+05 -8.242037E+04 -1.077532E+05  1.115575E+04  3.407440E+04  6.324241E+03
       353  26 -9.695361E+05 -5.642867E+04 -8.110511E+04  5.497716E+02  2.212883E+04  6.294481E+03
       353  27 -9.579163E+05 -5.502276E+04 -6.838247E+04  4.197012E+03  1.018404E+04  5.676897E+03
       354   1 -5.350229E+05  4.675411E+04  3.706463E+04  6.928686E+03 -8.589806E+03 -5.242515E+03
       354   2 -5.507990E+05  4.530349E+04  3.808731E+04 -2.416797E+02 -5.683170E+03 -4.683864E+03
       354   3 -5.677005E+05  4.098566E+04  3.649330E+04  7.651711E+03 -2.777024E+03 -4.057056E+03
       354   4 -7.318398E+05 -2.205245E+03 -1.078605E+04  7.058207E+03 -8.376703E+03 -5.242169E+03
       354   5 -7.312732E+05  4.008955E+02 -5.822481E+03 -4.763785E+02 -5.443113E+03 -4.683405E+03
       354   6 -7.318373E+05  1.346237E+02 -3.494931E+03  7.053076E+03 -2.509939E+03 -4.056477E+03
       354   7 -9.286214E+05 -5.116745E+04 -5.863954E+04  7.187667E+03 -8.163666E+03 -5.241824E+03
       354   8 -9.117176E+05 -4.450410E+04 -4.973464E+04 -7.110257E+02 -5.203127E+03 -4.682946E+03
       354   9 -8.959495E+05 -4.071840E+04 -4.348512E+04  6.454585E+03 -2.242925E+03 -4.055899E+03
       354  10 -5.350230E+05  4.675406E+04  3.706444E+04  6.928649E+03  3.878962E-09  5.048825E-09
       354  11 -5.507990E+05  4.530346E+04  3.808721E+04 -2.417012E+02 -1.375313E-11  4.970933E-09
       354  12 -5.677005E+05  4.098564E+04  3.649326E+04  7.651702E+03 -4.077861E-09  1.395678E-10
       354  13 -7.318399E+05 -2.205293E+03 -1.078624E+04  7.058171E+03 -5.437643E-10 -1.412916E-09
       354  14 -7.312732E+05  4.008640E+02 -5.822578E+03 -4.763991E+02 -6.042404E-10  4.653674E-09
       354  15 -7.318373E+05  1.346044E+02 -3.494974E+03  7.053068E+03 -1.265114E-09  6.623543E-09
       354  16 -9.286214E+05 -5.116749E+04 -5.863972E+04  7.187633E+03 -4.286653E-09  3.342100E-09
       354  17 -9.117176E+05 -4.450413E+04 -4.973473E+04 -7.110454E+02  3.291343E-10  4.730320E-09
       354  18 -8.959495E+05 -4.071842E+04 -4.348516E+04  6.454577E+03  6.258494E-09  4.785996E-09
       354  19 -5.350229E+05  4.675411E+04  3.706463E+04  6.928686E+03  8.589806E+03  5.242515E+03
       354  20 -5.507990E+05  4.530349E+04  3.808731E+04 -2.416797E+02  5.683170E+03  4.683864E+03
       354  21 -5.677005E+05  4.098566E+04  3.649330E+04  7.651711E+03  2.777024E+03  4.057056E+03
       354  22 -7.318398E+05 -2.205245E+03 -1.078605E+04  7.058207E+03  8.376703E+03  5.242169E+03
       354  23 -7.312732E+05  4.008955E+02 -5.822481E+03 -4.763785E+02  5.443113E+03  4.683405E+03
       354  24 -7.318373E+05  1.346237E+02 -3.494931E+03  7.053076E+03  2.509939E+03  4.056477E+03
       354  25 -9.286214E+05 -5.116745E+04 -5.863954E+04  7.187667E+03  8.163666E+03  5.241824E+03
       354  26 -9.117176E+05 -4.450410E+04 -4.973464E+04 -7.110257E+02  5.203127E+03  4.682946E+03
       354  27 -8.959495E+05 -4.071840E+04 -4.348512E+04  6.454585E+03  2.242925E+03  4.055899E+03
       355   1 -5.967107E+05  3.334008E+04  3.001374E+04  7.403834E+03 -2.201857E+03 -3.682859E+03
       355   2 -6.135535E+05  2.940364E+04  2.697087E+04 -4.086575E+02 -1.347369E+03 -3.054096E+03
       355   3 -6.306583E+05  2.516920E+04  2.328070E+04  7.425257E+03 -4.931403E+02 -2.410959E+03
       355   4 -7.316421E+05 -2.226607E+02 -2.767136E+03  7.184659E+03 -1.949025E+03 -3.682282E+03
       355   5 -7.315100E+05  5.397710E+01 -1.729955E+03 -6.389553E+02 -1.088846E+03 -3.053470E+03
       355   6 -7.316414E+05  3.153274E+01 -1.344186E+03  7.184023E+03 -2.289033E+02 -2.410280E+03
       355   7 -8.665569E+05 -3.378674E+04 -3.554933E+04  6.965521E+03 -1.696249E+03 -3.681705E+03
       355   8 -8.494537E+05 -2.929671E+04 -3.043179E+04 -8.692173E+02 -8.303723E+02 -3.052843E+03
       355   9 -8.326151E+05 -2.510688E+04 -2.596981E+04  6.942822E+03  3.529085E+01 -2.409602E+03
       355  10 -5.967107E+05  3.334007E+04  3.001371E+04  7.403828E+03  8.383528E-10 -5.289522E-10
       355  11 -6.135535E+05  2.940362E+04  2.697085E+04 -4.086608E+02  2.789970E-12  6.855921E-09
       355  12 -6.306583E+05  2.516919E+04  2.328069E+04  7.425256E+03 -1.546771E-09  6.019228E-09
       355  13 -7.316421E+05 -2.226762E+02 -2.767169E+03  7.184653E+03 -1.198351E-11  1.448988E-09
       355  14 -7.315100E+05  5.396677E+01 -1.729975E+03 -6.389580E+02 -6.830100E-10  5.001702E-09
       355  15 -7.316414E+05  3.152649E+01 -1.344197E+03  7.184023E+03  7.827185E-10  1.809392E-09
       355  16 -8.665569E+05 -3.378676E+04 -3.554936E+04  6.965516E+03 -6.933854E-10  2.533348E-09
       355  17 -8.494537E+05 -2.929672E+04 -3.043181E+04 -8.692193E+02 -1.913883E-09 -3.359775E-09
       355  18 -8.326151E+05 -2.510689E+04 -2.596982E+04  6.942822E+03 -8.138277E-10 -1.808006E-09
       355  19 -5.967107E+05  3.334008E+04  3.001374E+04  7.403834E+03  2.201857E+03  3.682859E+03
       355  20 -6.135535E+05  2.940364E+04  2.697087E+04 -4.086575E+02  1.347369E+03  3.054096E+03
       355  21 -6.306583E+05  2.516920E+04  2.328070E+04  7.425257E+03  4.931403E+02  2.410959E+03
       355  22 -7.316421E+05 -2.226607E+02 -2.767136E+03  7.184659E+03  1.949025E+03  3.682282E+03
       355  23 -7.315100E+05  5.397710E+01 -1.729955E+03 -6.389553E+02  1.088846E+03  3.053470E+03
       355  24 -7.316414E+05  3.153274E+01 -1.344186E+03  7.184023E+03  2.289033E+02  2.410280E+03
       355  25 -8.665569E+05 -3.378674E+04 -3.554933E+04  6.965521E+03  1.696249E+03  3.681705E+03
       355  26 -8.494537E+05 -2.929671E+04 -3.043179E+04 -8.692173E+02  8.303723E+02  3.052843E+03
       355  27 -8.326151E+05 -2.510688E+04 -2.596981E+04  6.942822E+03 -3.529085E+01  2.409602E+03
       356   1 -6.607403E+05  1.765266E+04  1.589224E+04  7.373222E+03 -2.545201E+02 -2.033123E+03
       356   2 -6.779478E+05  1.337515E+04  1.151993E+04 -6.246073E+02  4.964633E+02 -1.383576E+03
       356   3 -6.954155E+05  8.865408E+03  6.578224E+03  7.363674E+03  1.247343E+03 -7.318087E+02
       356   4 -7.316391E+05  2.197999E+01 -1.306332E+03  7.259544E+03  9.003084E+00 -2.032427E+03
       356   5 -7.315089E+05  4.761290E+01 -1.513020E+03 -7.333033E+02  7.608295E+02 -1.382861E+03
       356   6 -7.316391E+05 -1.590564E+02 -2.289635E+03  7.260047E+03  1.512573E+03 -7.310739E+02
       356   7 -8.025334E+05 -1.760907E+04 -1.850527E+04  7.145875E+03  2.724962E+02 -2.031730E+03
       356   8 -7.850675E+05 -1.328013E+04 -1.454618E+04 -8.419916E+02  1.025173E+03 -1.382146E+03
       356   9 -7.678616E+05 -9.183618E+03 -1.115759E+04  7.156425E+03  1.777788E+03 -7.303393E+02
       356  10 -6.607403E+05  1.765265E+04  1.589223E+04  7.373222E+03  3.700804E-09  2.934061E-09
       356  11 -6.779478E+05  1.337514E+04  1.151993E+04 -6.246067E+02  2.276626E-09  1.526762E-09
       356  12 -6.954155E+05  8.865407E+03  6.578220E+03  7.363675E+03 -3.062465E-10 -3.842289E-09
       356  13 -7.316391E+05  2.197556E+01 -1.306340E+03  7.259544E+03 -5.440641E-10  9.207635E-09
       356  14 -7.315089E+05  4.761069E+01 -1.513025E+03 -7.333024E+02 -2.623932E-09  2.252693E-09
       356  15 -7.316391E+05 -1.590576E+02 -2.289640E+03  7.260048E+03 -1.626169E-09 -3.627241E-09
       356  16 -8.025334E+05 -1.760907E+04 -1.850528E+04  7.145875E+03 -4.222818E-09  4.723563E-09
       356  17 -7.850675E+05 -1.328013E+04 -1.454618E+04 -8.419905E+02 -4.317849E-09 -2.697449E-10
       356  18 -7.678616E+05 -9.183620E+03 -1.115760E+04  7.156426E+03 -2.724484E-09 -5.253160E-09
       356  19 -6.607403E+05  1.765266E+04  1.589224E+04  7.373222E+03  2.545201E+02  2.033123E+03
       356  20 -6.779478E+05  1.337515E+04  1.151993E+04 -6.246073E+02 -4.964633E+02  1.383576E+03
       356  21 -6.954155E+05  8.865408E+03  6.578224E+03  7.363674E+03 -1.247343E+03  7.318087E+02
       356  22 -7.316391E+05  2.197999E+01 -1.306332E+03  7.259544E+03 -9.003084E+00  2.032427E+03
       356  23 -7.315089E+05  4.761290E+01 -1.513020E+03 -7.333033E+02 -7.608295E+02  1.382861E+03
       356  24 -7.316391E+05 -1.590564E+02 -2.289635E+03  7.260047E+03 -1.512573E+03  7.310739E+02
       356  25 -8.025334E+05 -1.760907E+04 -1.850527E+04  7.145875E+03 -2.724962E+02  2.031730E+03
       356  26 -7.850675E+05 -1.328013E+04 -1.454618E+04 -8.419916E+02 -1.025173E+03  1.382146E+03
       356  27 -7.678616E+05 -9.183618E+03 -1.115759E+04  7.156425E+03 -1.777788E+03  7.303393E+02
       357   1 -7.260571E+05  1.539494E+03 -1.513218E+03  7.050466E+03  1.700942E+03 -3.452184E+02
       357   2 -7.429914E+05 -2.579666E+03 -7.533284E+03 -7.207251E+02  4.075537E+03  3.156403E+02
       357   3 -7.609148E+05 -8.972306E+03 -1.569252E+04  7.579052E+03  6.450159E+03  9.473971E+02
       357   4 -7.318002E+05  1.227802E+02 -2.856863E+03  7.276848E+03  1.973582E+03 -3.444573E+02
       357   5 -7.313073E+05  3.272564E+02 -4.690758E+03 -7.560514E+02  4.336354E+03  3.163633E+02
       357   6 -7.318017E+05 -1.739626E+03 -8.655514E+03  7.282006E+03  6.699220E+03  9.480811E+02
       357   7 -7.375432E+05 -1.293936E+03 -4.200509E+03  7.503227E+03  2.246218E+03 -3.436960E+02
       357   8 -7.196231E+05  3.234169E+03 -1.848242E+03 -7.913786E+02  4.597176E+03  3.170862E+02
       357   9 -7.026878E+05  5.492993E+03 -1.618572E+03  6.984946E+03  6.948293E+03  9.487648E+02
       357  10 -7.260571E+05  1.539494E+03 -1.513224E+03  7.050467E+03 -4.075123E-09  2.534834E-09
       357  11 -7.429915E+05 -2.579671E+03 -7.533316E+03 -7.207261E+02 -1.419185E-09  2.200926E-09
       357  12 -7.609148E+05 -8.972318E+03 -1.569260E+04  7.579047E+03 -1.427992E-09  1.932570E-09
       357  13 -7.318002E+05  1.227790E+02 -2.856870E+03  7.276848E+03 -1.081169E-09 -1.407221E-09
       357  14 -7.313074E+05  3.272512E+02 -4.690794E+03 -7.560525E+02 -1.827756E-09  4.116486E-09
       357  15 -7.318018E+05 -1.739639E+03 -8.655600E+03  7.282001E+03 -6.562416E-10  3.292013E-09
       357  16 -7.375432E+05 -1.293938E+03 -4.200519E+03  7.503228E+03  2.071670E-09  8.167756E-10
       357  17 -7.196231E+05  3.234163E+03 -1.848282E+03 -7.913797E+02  2.994740E-10 -5.975281E-09
       357  18 -7.026879E+05  5.492979E+03 -1.618664E+03  6.984941E+03  9.535037E-10 -1.150465E-11
       357  19 -7.260571E+05  1.539494E+03 -1.513218E+03  7.050466E+03 -1.700942E+03  3.452184E+02
       357  20 -7.429914E+05 -2.579666E+03 -7.533284E+03 -7.207251E+02 -4.075537E+03 -3.156403E+02
       357  21 -7.609148E+05 -8.972306E+03 -1.569252E+04  7.579052E+03 -6.450159E+03 -9.473971E+02
       357  22 -7.318002E+05  1.227802E+02 -2.856863E+03  7.276848E+03 -1.973582E+03  3.444573E+02
       357  23 -7.313073E+05  3.272564E+02 -4.690758E+03 -7.560514E+02 -4.336354E+03 -3.163633E+02
       357  24 -7.318017E+05 -1.739626E+03 -8.655514E+03  7.282006E+03 -6.699220E+03 -9.480811E+02
       357  25 -7.375432E+05 -1.293936E+03 -4.200509E+03  7.503227E+03 -2.246218E+03  3.436960E+02
       357  26 -7.196231E+05  3.234169E+03 -1.848242E+03 -7.913786E+02 -4.597176E+03 -3.170862E+02
       357  27 -7.026878E+05  5.492993E+03 -1.618572E+03  6.984946E+03 -6.948293E+03 -9.487648E+02
       358   1 -7.924608E+05 -1.408310E+04 -2.549254E+04  5.254849E+03  8.111691E+03  1.376244E+03
       358   2 -8.065959E+05 -1.643166E+04 -3.684044E+04  4.478375E+01  1.761300E+04  2.055212E+03
       358   3 -8.269771E+05 -3.841659E+04 -5.930943E+04  1.075817E+04  2.711478E+04  2.426237E+03
       358   4 -7.329650E+05  7.447318E+02 -1.096288E+04  7.232201E+03  8.441223E+03  1.377167E+03
       358   5 -7.298571E+05  2.657214E+03 -1.817357E+04 -7.086081E+02  1.781803E+04  2.055721E+03
       358   6 -7.329732E+05 -1.504369E+04 -3.641774E+04  7.274022E+03  2.719557E+04  2.426266E+03
       358   7 -6.734660E+05  1.557231E+04  3.566516E+03  9.209741E+03  8.770787E+03  1.378092E+03
       358   8 -6.531130E+05  2.174565E+04  4.928728E+02 -1.462097E+03  1.802309E+04  2.056230E+03
       358   9 -6.389612E+05  8.328610E+03 -1.352667E+04  3.789342E+03  2.727637E+04  2.426295E+03
       358  10 -7.924608E+05 -1.408312E+04 -2.549267E+04  5.254840E+03 -3.244048E-09  6.791134E-09
       358  11 -8.065963E+05 -1.643175E+04 -3.684103E+04  4.475459E+01  1.083719E-09  5.611027E-09
       358  12 -8.269779E+05 -3.841679E+04 -5.931083E+04  1.075811E+04  3.446803E-09  4.133737E-09
       358  13 -7.329651E+05  7.447106E+02 -1.096302E+04  7.232192E+03 -1.027568E-12  3.455259E-09
       358  14 -7.298575E+05  2.657124E+03 -1.817417E+04 -7.086376E+02 -7.321199E-10  5.897870E-09
       358  15 -7.329740E+05 -1.504389E+04 -3.641914E+04  7.273969E+03  9.667333E-10 -6.126196E-10
       358  16 -6.734661E+05  1.557229E+04  3.566368E+03  9.209731E+03  3.086098E-09  1.719678E-10
       358  17 -6.531133E+05  2.174556E+04  4.922538E+02 -1.462127E+03 -1.652030E-09 -2.333418E-09
       358  18 -6.389620E+05  8.328404E+03 -1.352809E+04  3.789289E+03 -3.353327E-09 -4.411453E-09
       358  19 -7.924608E+05 -1.408310E+04 -2.549254E+04  5.254849E+03 -8.111691E+03 -1.376244E+03
       358  20 -8.065959E+05 -1.643166E+04 -3.684044E+04  4.478375E+01 -1.761300E+04 -2.055212E+03
       358  21 -8.269771E+05 -3.841659E+04 -5.930943E+04  1.075817E+04 -2.711478E+04 -2.426237E+03
       358  22 -7.329650E+05  7.447318E+02 -1.096288E+04  7.232201E+03 -8.441223E+03 -1.377167E+03
       358  23 -7.298571E+05  2.657214E+03 -1.817357E+04 -7.086081E+02 -1.781803E+04 -2.055721E+03
       358  24 -7.329732E+05 -1.504369E+04 -3.641774E+04  7.274022E+03 -2.719557E+04 -2.426266E+03
       358  25 -6.734660E+05  1.557231E+04  3.566516E+03  9.209741E+03 -8.770787E+03 -1.378092E+03
       358  26 -6.531130E+05  2.174565E+04  4.928728E+02 -1.462097E+03 -1.802309E+04 -2.056230E+03
       358  27 -6.389612E+05  8.328610E+03 -1.352667E+04  3.789342E+03 -2.727637E+04 -2.426295E+03
       359   1 -8.655389E+05 -2.490840E+04 -7.454112E+04 -7.964077E+03  3.329387E+04  3.286341E+03
       359   2 -8.593901E+05 -1.305095E+04 -1.040252E+05  8.378892E+03  7.248832E+04  4.063066E+03
       359   3 -8.994322E+05 -1.652084E+05 -2.000666E+05  4.039069E+04  1.116905E+05  1.615506E+03
       359   4 -7.417922E+05  5.982260E+03 -4.440690E+04  7.086073E+03  3.423118E+04  3.289524E+03
       359   5 -7.188385E+05  2.185487E+04 -6.989774E+04 -5.899648E+02  7.211794E+04  4.061011E+03
       359   6 -7.418383E+05 -1.260421E+05 -1.610261E+05  7.403736E+03  1.100135E+05  1.605494E+03
       359   7 -6.180311E+05  3.687264E+04 -1.427368E+04  2.213923E+04  3.516868E+04  3.292753E+03
       359   8 -5.782687E+05  5.675955E+04 -3.577165E+04 -9.560871E+03  7.174748E+04  4.058966E+03
       359   9 -5.842195E+05 -8.687350E+04 -1.219869E+05 -2.559162E+04  1.083362E+05  1.595663E+03
       359  10 -8.655401E+05 -2.490871E+04 -7.454322E+04 -7.964165E+03  1.763431E-09  1.671249E-09
       359  11 -8.593957E+05 -1.305238E+04 -1.040351E+05  8.378655E+03  7.141043E-10  1.410307E-09
       359  12 -8.994456E+05 -1.652117E+05 -2.000901E+05  4.039054E+04 -5.085697E-10 -3.078979E-10
       359  13 -7.417935E+05  5.981933E+03 -4.440913E+04  7.085982E+03  1.632517E-09  5.865714E-09
       359  14 -7.188441E+05  2.185346E+04 -6.990755E+04 -5.902007E+02  4.003404E-10 -2.899757E-09
       359  15 -7.418513E+05 -1.260453E+05 -1.610489E+05  7.403594E+03 -1.574032E-09  2.757961E-09
       359  16 -6.180325E+05  3.687229E+04 -1.427603E+04  2.213913E+04 -2.774094E-09  3.172313E-09
       359  17 -5.782742E+05  5.675815E+04 -3.578136E+04 -9.561106E+03 -2.231176E-09  2.738028E-09
       359  18 -5.842321E+05 -8.687666E+04 -1.220090E+05 -2.559176E+04  1.855285E-09 -6.931788E-10
       359  19 -8.655389E+05 -2.490840E+04 -7.454112E+04 -7.964077E+03 -3.329387E+04 -3.286341E+03
       359  20 -8.593901E+05 -1.305095E+04 -1.040252E+05  8.378892E+03 -7.248832E+04 -4.063066E+03
       359  21 -8.994322E+05 -1.652084E+05 -2.000666E+05  4.039069E+04 -1.116905E+05 -1.615506E+03
       359  22 -7.417922E+05  5.982260E+03 -4.440690E+04  7.086073E+03 -3.423118E+04 -3.289524E+03
       359  23 -7.188385E+05  2.185487E+04 -6.989774E+04 -5.899648E+02 -7.211794E+04 -4.061011E+03
       359  24 -7.418383E+05 -1.260421E+05 -1.610261E+05  7.403736E+03 -1.100135E+05 -1.605494E+03
       359  25 -6.180311E+05  3.687264E+04 -1.427368E+04  2.213923E+04 -3.516868E+04 -3.292753E+03
       359  26 -5.782687E+05  5.675955E+04 -3.577165E+04 -9.560871E+03 -7.174748E+04 -4.058966E+03
       359  27 -5.842195E+05 -8.687350E+04 -1.219869E+05 -2.559162E+04 -1.083362E+05 -1.595663E+03
       360   1  5.982607E+05  3.342941E+06  6.867777E+05 -2.134437E+05  8.746303E+03  2.777285E+05
       360   2  1.666942E+05  3.051604E+06  4.038660E+05 -4.618574E+04  2.464891E+04  1.667502E+05
       360   3  1.565119E+05  2.880174E+06  2.983348E+05 -9.091542E+04  1.613248E+04  5.575973E+04
       360   4  3.167256E+05  2.212483E+06  4.074711E+05 -1.273709E+05  8.802932E+03  2.659974E+05
       360   5 -5.597476E+04  2.153512E+06  1.866340E+05 -2.164026E+04  2.466072E+04  1.651819E+05
       360   6 -8.716322E+03  2.212853E+06  1.363674E+05 -1.278883E+05  1.610583E+04  6.431195E+04
       360   7  3.512276E+04  1.083196E+06  1.280743E+05 -4.145373E+04  8.856403E+03  2.542871E+05
       360   8 -2.787004E+05  1.256154E+06 -3.065549E+04  2.870153E+03  2.467242E+04  1.636157E+05
       360   9 -1.739718E+05  1.545940E+06 -2.563096E+04 -1.648212E+05  1.607814E+04  7.285501E+04
       360  10  5.982400E+05  3.342858E+06  6.866334E+05 -2.134456E+05  2.249455E-10 -1.408010E-09
       360  11  1.666861E+05  3.051574E+06  4.038129E+05 -4.618905E+04  1.810887E-09 -7.580258E-09
       360  12  1.565108E+05  2.880171E+06  2.983284E+05 -9.091615E+04  6.996660E-10  1.474944E-09
       360  13  3.167066E+05  2.212407E+06  4.073385E+05 -1.273728E+05 -1.921568E-10 -4.739722E-10
       360  14 -5.598271E+04  2.153483E+06  1.865818E+05 -2.164354E+04 -2.105376E-09  2.067690E-09
       360  15 -8.717707E+03  2.212849E+06  1.363592E+05 -1.278892E+05 -1.409262E-09 -3.872858E-09
       360  16  3.510536E+04  1.083127E+06  1.279528E+05 -4.145555E+04 -2.967641E-10  2.082885E-09
       360  17 -2.787082E+05  1.256126E+06 -3.070683E+04  2.866903E+03 -7.404829E-10  1.795101E-09
       360  18 -1.739735E+05  1.545935E+06 -2.564139E+04 -1.648221E+05 -1.638604E-09 -1.138562E-09
       360  19  5.982607E+05  3.342941E+06  6.867777E+05 -2.134437E+05 -8.746303E+03 -2.777285E+05
       360  20  1.666942E+05  3.051604E+06  4.038660E+05 -4.618574E+04 -2.464891E+04 -1.667502E+05
       360  21  1.565119E+05  2.880174E+06  2.983348E+05 -9.091542E+04 -1.613248E+04 -5.575973E+04
       360  22  3.167256E+05  2.212483E+06  4.074711E+05 -1.273709E+05 -8.802932E+03 -2.659974E+05
       360  23 -5.597476E+04  2.153512E+06  1.866340E+05 -2.164026E+04 -2.466072E+04 -1.651819E+05
       360  24 -8.716322E+03  2.212853E+06  1.363674E+05 -1.278883E+05 -1.610583E+04 -6.431195E+04
       360  25  3.512276E+04  1.083196E+06  1.280743E+05 -4.145373E+04 -8.856403E+03 -2.542871E+05
       360  26 -2.787004E+05  1.256154E+06 -3.065549E+04  2.870153E+03 -2.467242E+04 -1.636157E+05
       360  27 -1.739718E+05  1.545940E+06 -2.563096E+04 -1.648212E+05 -1.607814E+04 -7.285501E+04
       361   1  1.036917E+05  2.465208E+06  1.894160E+05 -1.421654E+05  7.257025E+03  3.898201E+04
       361   2 -3.323791E+03  2.223332E+06  1.116965E+05 -2.261860E+04  1.234101E+03 -1.307609E+04
       361   3  9.133723E+02  2.014554E+06  9.527695E+04 -1.101173E+05 -4.943420E+03 -6.511704E+04
       361   4  3.632837E+04  2.193941E+06  1.237165E+05 -1.265773E+05  7.250590E+03  4.147022E+04
       361   5 -1.470797E+04  2.177416E+06  1.005639E+05 -2.304223E+04  1.226442E+03 -1.051465E+04
       361   6  4.550344E+04  2.193930E+06  1.386709E+05 -1.265478E+05 -4.949796E+03 -6.250097E+04
       361   7 -3.103942E+04  1.922741E+06  5.801194E+04 -1.109960E+05  7.244277E+03  4.395734E+04
       361   8 -2.609230E+04  2.131501E+06  8.943112E+04 -2.346583E+04  1.218779E+03 -7.953401E+03
       361   9  9.009216E+04  2.373336E+06  1.820627E+05 -1.429831E+05 -4.956310E+03 -5.988414E+04
       361  10  1.036912E+05  2.465206E+06  1.894130E+05 -1.421657E+05 -9.444711E-10 -1.398979E-09
       361  11 -3.323839E+03  2.223332E+06  1.116962E+05 -2.261859E+04  1.387769E-09 -1.393008E-08
       361  12  9.122121E+02  2.014549E+06  9.526896E+04 -1.101176E+05 -1.443148E-09 -4.165103E-11
       361  13  3.632785E+04  2.193939E+06  1.237132E+05 -1.265776E+05 -1.943918E-09  5.123490E-10
       361  14 -1.470800E+04  2.177416E+06  1.005637E+05 -2.304222E+04  2.761354E-09  2.604446E-09
       361  15  4.550237E+04  2.193926E+06  1.386635E+05 -1.265481E+05  2.247111E-09 -5.159774E-09
       361  16 -3.103999E+04  1.922739E+06  5.800822E+04 -1.109962E+05 -2.232488E-10  3.455821E-09
       361  17 -2.609232E+04  2.131501E+06  8.943100E+04 -2.346582E+04  4.070249E-10  5.601019E-09
       361  18  9.009117E+04  2.373332E+06  1.820559E+05 -1.429833E+05  8.056445E-10  8.931254E-10
       361  19  1.036917E+05  2.465208E+06  1.894160E+05 -1.421654E+05 -7.257025E+03 -3.898201E+04
       361  20 -3.323791E+03  2.223332E+06  1.116965E+05 -2.261860E+04 -1.234101E+03  1.307609E+04
       361  21  9.133723E+02  2.014554E+06  9.527695E+04 -1.101173E+05  4.943420E+03  6.511704E+04
       361  22  3.632837E+04  2.193941E+06  1.237165E+05 -1.265773E+05 -7.250590E+03 -4.147022E+04
       361  23 -1.470797E+04  2.177416E+06  1.005639E+05 -2.304223E+04 -1.226442E+03  1.051465E+04
       361  24  4.550344E+04  2.193930E+06  1.386709E+05 -1.265478E+05  4.949796E+03  6.250097E+04
       361  25 -3.103942E+04  1.922741E+06  5.801194E+04 -1.109960E+05 -7.244277E+03 -4.395734E+04
       361  26 -2.609230E+04  2.131501E+06  8.943112E+04 -2.346583E+04 -1.218779E+03  7.953401E+03
       361  27  9.009216E+04  2.373336E+06  1.820627E+05 -1.429831E+05  4.956310E+03  5.988414E+04
       362   1 -1.553293E+05  1.644457E+06  1.790222E+04 -1.731738E+05 -1.351015E+04 -9.660470E+04
       362   2 -2.678288E+05  1.342965E+06  3.058057E+04  7.910050E+03 -2.198155E+04 -2.090008E+05
       362   3  1.318549E+05  1.184161E+06  2.444284E+05 -2.180256E+04 -7.855772E+03 -3.212969E+05
       362   4 -1.316874E+04  2.218598E+06  1.573929E+05 -1.276893E+05 -1.354063E+04 -8.846540E+04
       362   5 -6.838056E+04  2.146370E+06  2.251028E+05 -2.194228E+04 -2.196727E+04 -2.102468E+05
       362   6  3.898304E+05  2.218159E+06  5.002724E+05 -1.269548E+05 -7.782431E+03 -3.319709E+05
       362   7  1.289756E+05  2.793044E+06  2.968611E+05 -8.216246E+04 -1.356990E+04 -8.031858E+04
       362   8  1.310237E+05  2.950365E+06  4.195792E+05 -5.183294E+04 -2.195288E+04 -2.114942E+05
       362   9  6.477673E+05  3.253148E+06  7.560433E+05 -2.322816E+05 -7.705580E+03 -3.426622E+05
       362  10 -1.553320E+05  1.644447E+06  1.788439E+04 -1.731749E+05  1.366213E-09 -1.024492E-09
       362  11 -2.678410E+05  1.342918E+06  3.049777E+04  7.906351E+03  1.061742E-09 -1.040058E-08
       362  12  1.318272E+05  1.184051E+06  2.442347E+05 -2.180459E+04 -1.085586E-11 -9.193807E-10
       362  13 -1.317102E+04  2.218590E+06  1.573779E+05 -1.276903E+05 -2.173976E-09  2.633606E-10
       362  14 -6.839289E+04  2.146323E+06  2.250191E+05 -2.194600E+04 -5.207473E-10  1.213180E-09
       362  15  3.898009E+05  2.218041E+06  5.000659E+05 -1.269569E+05 -6.110215E-10 -2.049672E-09
       362  16  1.289737E+05  2.793037E+06  2.968487E+05 -8.216333E+04  7.691279E-10  2.203502E-09
       362  17  1.310113E+05  2.950317E+06  4.194946E+05 -5.183668E+04 -2.280519E-09  3.903335E-09
       362  18  6.477359E+05  3.253022E+06  7.558236E+05 -2.322837E+05 -1.878760E-09  1.795353E-09
       362  19 -1.553293E+05  1.644457E+06  1.790222E+04 -1.731738E+05  1.351015E+04  9.660470E+04
       362  20 -2.678288E+05  1.342965E+06  3.058057E+04  7.910050E+03  2.198155E+04  2.090008E+05
       362  21  1.318549E+05  1.184161E+06  2.444284E+05 -2.180256E+04  7.855772E+03  3.212969E+05
       362  22 -1.316874E+04  2.218598E+06  1.573929E+05 -1.276893E+05  1.354063E+04  8.846540E+04
       362  23 -6.838056E+04  2.146370E+06  2.251028E+05 -2.194228E+04  2.196727E+04  2.102468E+05
       362  24  3.898304E+05  2.218159E+06  5.002724E+05 -1.269548E+05  7.782431E+03  3.319709E+05
       362  25  1.289756E+05  2.793044E+06  2.968611E+05 -8.216246E+04  1.356990E+04  8.031858E+04
       362  26  1.310237E+05  2.950365E+06  4.195792E+05 -5.183294E+04  2.195288E+04  2.114942E+05
       362  27  6.477673E+05  3.253148E+06  7.560433E+05 -2.322816E+05  7.705580E+03  3.426622E+05
       363   1 -1.800571E+05 -7.980740E+04 -8.200216E+04 -5.786560E+04 -7.722093E+04 -2.998767E+04
       363   2 -1.567819E+05  2.745541E+04 -1.038175E+04 -8.634755E+04 -4.919962E+04 -2.124477E+04
       363   3 -1.877247E+05  1.696999E+04  7.285503E+03 -7.755383E+04 -2.190328E+04 -1.057791E+04
       363   4 -3.383736E+05 -1.277063E+05 -1.231396E+05 -8.874924E+04 -7.771950E+04 -3.017718E+04
       363   5 -3.050880E+05 -2.553146E+04 -5.030734E+04 -1.236645E+05 -4.931628E+04 -2.128905E+04
       363   6 -3.261072E+05 -4.119807E+04 -3.174158E+04 -1.213010E+05 -2.163754E+04 -1.047753E+04
       363   7 -4.966653E+05 -1.756054E+05 -1.642788E+05 -1.196267E+05 -7.821792E+04 -3.036667E+04
       363   8 -4.533726E+05 -7.851752E+04 -9.023476E+04 -1.609736E+05 -4.943290E+04 -2.133333E+04
       363   9 -4.644712E+05 -9.936372E+04 -7.077047E+04 -1.650389E+05 -2.137186E+04 -1.037719E+04
       363  10 -1.800637E+05 -7.980997E+04 -8.201506E+04 -5.786747E+04  8.122335E-11 -1.036400E-09
       363  11 -1.567847E+05  2.745427E+04 -1.038715E+04 -8.634839E+04 -2.817606E-09  1.286818E-09
       363  12 -1.877253E+05  1.696974E+04  7.284391E+03 -7.755402E+04 -1.493273E-09 -4.639664E-10
       363  13 -3.383803E+05 -1.277089E+05 -1.231527E+05 -8.875113E+04  7.117763E-10  5.744186E-10
       363  14 -3.050907E+05 -2.553260E+04 -5.031277E+04 -1.236654E+05 -2.673322E-09 -3.308856E-09
       363  15 -3.261078E+05 -4.119831E+04 -3.174266E+04 -1.213012E+05  5.772159E-11  2.553220E-09
       363  16 -4.966722E+05 -1.756080E+05 -1.642920E+05 -1.196286E+05 -2.347330E-09 -1.375677E-09
       363  17 -4.533754E+05 -7.851867E+04 -9.024022E+04 -1.609745E+05  2.595720E-09 -6.503623E-09
       363  18 -4.644717E+05 -9.936396E+04 -7.077154E+04 -1.650391E+05  3.179101E-10 -1.079374E-09
       363  19 -1.800571E+05 -7.980740E+04 -8.200216E+04 -5.786560E+04  7.722093E+04  2.998767E+04
       363  20 -1.567819E+05  2.745541E+04 -1.038175E+04 -8.634755E+04  4.919962E+04  2.124477E+04
       363  21 -1.877247E+05  1.696999E+04  7.285503E+03 -7.755383E+04  2.190328E+04  1.057791E+04
       363  22 -3.383736E+05 -1.277063E+05 -1.231396E+05 -8.874924E+04  7.771950E+04  3.017718E+04
       363  23 -3.050880E+05 -2.553146E+04 -5.030734E+04 -1.236645E+05  4.931628E+04  2.128905E+04
       363  24 -3.261072E+05 -4.119807E+04 -3.174158E+04 -1.213010E+05  2.163754E+04  1.047753E+04
       363  25 -4.966653E+05 -1.756054E+05 -1.642788E+05 -1.196267E+05  7.821792E+04  3.036667E+04
       363  26 -4.533726E+05 -7.851752E+04 -9.023476E+04 -1.609736E+05  4.943290E+04  2.133333E+04
       363  27 -4.644712E+05 -9.936372E+04 -7.077047E+04 -1.650389E+05  2.137186E+04  1.037719E+04
       364   1 -1.985904E+05 -1.024633E+04  7.381909E+03 -8.096834E+04 -1.693764E+04 -8.277672E+03
       364   2 -1.962052E+05  1.716948E+03  2.055983E+04 -8.882039E+04 -1.067239E+04 -6.022181E+03
       364   3 -2.067861E+05  1.210108E+03  2.420551E+04 -8.582168E+04 -4.519217E+03 -3.469454E+03
       364   4 -3.222539E+05 -5.535873E+04 -2.614325E+04 -1.130257E+05 -1.698391E+04 -8.295202E+03
       364   5 -3.148640E+05 -4.279066E+04 -1.182986E+04 -1.208359E+05 -1.065979E+04 -6.017464E+03
       364   6 -3.204533E+05 -4.270649E+04 -7.096835E+03 -1.177950E+05 -4.447707E+03 -3.442475E+03
       364   7 -4.459029E+05 -1.004706E+05 -5.966982E+04 -1.450774E+05 -1.703017E+04 -8.312728E+03
       364   8 -4.335094E+05 -8.729754E+04 -4.422083E+04 -1.528460E+05 -1.064720E+04 -6.012749E+03
       364   9 -4.341082E+05 -8.662220E+04 -3.840037E+04 -1.497631E+05 -4.376211E+03 -3.415503E+03
       364  10 -1.985907E+05 -1.024648E+04  7.381241E+03 -8.096845E+04  3.731138E-09 -3.388745E-09
       364  11 -1.962053E+05  1.716879E+03  2.055955E+04 -8.882044E+04  1.334540E-09 -9.497374E-10
       364  12 -2.067861E+05  1.210090E+03  2.420545E+04 -8.582170E+04 -2.008880E-09  3.399442E-10
       364  13 -3.222542E+05 -5.535888E+04 -2.614392E+04 -1.130258E+05  1.160197E-09 -1.390896E-09
       364  14 -3.148641E+05 -4.279073E+04 -1.183014E+04 -1.208360E+05  2.007691E-09  3.767516E-09
       364  15 -3.204533E+05 -4.270651E+04 -7.096895E+03 -1.177950E+05  5.048073E-10 -4.888856E-09
       364  16 -4.459033E+05 -1.004707E+05 -5.967049E+04 -1.450775E+05 -1.423935E-09 -2.277209E-09
       364  17 -4.335096E+05 -8.729761E+04 -4.422112E+04 -1.528460E+05  4.085803E-09 -7.298225E-09
       364  18 -4.341082E+05 -8.662222E+04 -3.840043E+04 -1.497631E+05  3.748386E-09  2.070214E-09
       364  19 -1.985904E+05 -1.024633E+04  7.381909E+03 -8.096834E+04  1.693764E+04  8.277672E+03
       364  20 -1.962052E+05  1.716948E+03  2.055983E+04 -8.882039E+04  1.067239E+04  6.022181E+03
       364  21 -2.067861E+05  1.210108E+03  2.420551E+04 -8.582168E+04  4.519217E+03  3.469454E+03
       364  22 -3.222539E+05 -5.535873E+04 -2.614325E+04 -1.130257E+05  1.698391E+04  8.295202E+03
       364  23 -3.148640E+05 -4.279066E+04 -1.182986E+04 -1.208359E+05  1.065979E+04  6.017464E+03
       364  24 -3.204533E+05 -4.270649E+04 -7.096835E+03 -1.177950E+05  4.447707E+03  3.442475E+03
       364  25 -4.459029E+05 -1.004706E+05 -5.966982E+04 -1.450774E+05  1.703017E+04  8.312728E+03
       364  26 -4.335094E+05 -8.729754E+04 -4.422083E+04 -1.528460E+05  1.064720E+04  6.012749E+03
       364  27 -4.341082E+05 -8.662220E+04 -3.840037E+04 -1.497631E+05  4.376211E+03  3.415503E+03
       365   1 -2.283952E+05 -1.020036E+04  1.934435E+04 -9.163551E+04 -3.467849E+03 -2.907807E+03
       365   2 -2.292946E+05 -1.258604E+04  2.103447E+04 -9.685842E+04 -2.106068E+03 -2.234943E+03
       365   3 -2.374222E+05 -1.149072E+04  2.096594E+04 -9.448864E+04 -7.657120E+02 -1.505567E+03
       365   4 -3.199558E+05 -4.464841E+04 -5.662434E+03 -1.164480E+05 -3.445039E+03 -2.899213E+03
       365   5 -3.162089E+05 -4.546549E+04 -2.749116E+03 -1.205927E+05 -2.072036E+03 -2.222103E+03
       365   6 -3.196928E+05 -4.280392E+04 -1.603553E+03 -1.171445E+05 -7.204456E+02 -1.488472E+03
       365   7 -4.115083E+05 -7.909595E+04 -3.066995E+04 -1.412573E+05 -3.422233E+03 -2.890621E+03
       365   8 -4.031161E+05 -7.834451E+04 -2.653339E+04 -1.443240E+05 -2.038009E+03 -2.209264E+03
       365   9 -4.019570E+05 -7.411673E+04 -2.417369E+04 -1.397976E+05 -6.751857E+02 -1.471380E+03
       365  10 -2.283952E+05 -1.020037E+04  1.934431E+04 -9.163552E+04 -9.373977E-10  2.254053E-09
       365  11 -2.292946E+05 -1.258605E+04  2.103445E+04 -9.685842E+04 -2.160998E-10  6.430233E-09
       365  12 -2.374222E+05 -1.149073E+04  2.096593E+04 -9.448864E+04 -1.083401E-09  2.766670E-09
       365  13 -3.199558E+05 -4.464842E+04 -5.662472E+03 -1.164481E+05 -2.416931E-09  5.307750E-09
       365  14 -3.162089E+05 -4.546550E+04 -2.749134E+03 -1.205927E+05  2.405469E-09  1.239526E-09
       365  15 -3.196928E+05 -4.280392E+04 -1.603558E+03 -1.171445E+05 -1.420331E-09 -2.880931E-09
       365  16 -4.115084E+05 -7.909596E+04 -3.066999E+04 -1.412573E+05 -3.467664E-09  4.333504E-09
       365  17 -4.031161E+05 -7.834451E+04 -2.653341E+04 -1.443240E+05 -3.832347E-10 -6.626721E-09
       365  18 -4.019570E+05 -7.411674E+04 -2.417369E+04 -1.397976E+05  3.775652E-09  6.458917E-10
       365  19 -2.283952E+05 -1.020036E+04  1.934435E+04 -9.163551E+04  3.467849E+03  2.907807E+03
       365  20 -2.292946E+05 -1.258604E+04  2.103447E+04 -9.685842E+04  2.106068E+03  2.234943E+03
       365  21 -2.374222E+05 -1.149072E+04  2.096594E+04 -9.448864E+04  7.657120E+02  1.505567E+03
       365  22 -3.199558E+05 -4.464841E+04 -5.662434E+03 -1.164480E+05  3.445039E+03  2.899213E+03
       365  23 -3.162089E+05 -4.546549E+04 -2.749116E+03 -1.205927E+05  2.072036E+03  2.222103E+03
       365  24 -3.196928E+05 -4.280392E+04 -1.603553E+03 -1.171445E+05  7.204456E+02  1.488472E+03
       365  25 -4.115083E+05 -7.909595E+04 -3.066995E+04 -1.412573E+05  3.422233E+03  2.890621E+03
       365  26 -4.031161E+05 -7.834451E+04 -2.653339E+04 -1.443240E+05  2.038009E+03  2.209264E+03
       365  27 -4.019570E+05 -7.411673E+04 -2.417369E+04 -1.397976E+05  6.751857E+02  1.471380E+03
       366   1 -2.622155E+05 -2.125935E+04  1.445323E+04 -1.011568E+05 -5.639966E+02 -1.294085E+03
       366   2 -2.636809E+05 -2.599668E+04  1.375091E+04 -1.062509E+05 -2.999520E+02 -9.826281E+02
       366   3 -2.718501E+05 -2.460007E+04  1.269621E+04 -1.038485E+05 -4.180261E+01 -6.557208E+02
       366   4 -3.196883E+05 -4.301047E+04 -1.259678E+03 -1.168645E+05 -5.280557E+02 -1.280507E+03
       366   5 -3.163175E+05 -4.594623E+04 -6.608160E+02 -1.206623E+05 -2.609161E+02 -9.678751E+02
       366   6 -3.196511E+05 -4.274871E+04 -4.168240E+02 -1.169636E+05  3.305118E-01 -6.397909E+02
       366   7 -3.771580E+05 -6.476139E+04 -1.697289E+04 -1.325709E+05 -4.921184E+02 -1.266931E+03
       366   8 -3.689514E+05 -6.589562E+04 -1.507279E+04 -1.350726E+05 -2.218840E+02 -9.531236E+02
       366   9 -3.674499E+05 -6.089719E+04 -1.353005E+04 -1.300777E+05  4.246000E+01 -6.238623E+02
       366  10 -2.622155E+05 -2.125936E+04  1.445323E+04 -1.011568E+05 -1.386683E-09  2.348208E-09
       366  11 -2.636809E+05 -2.599668E+04  1.375091E+04 -1.062509E+05 -1.073681E-09  4.246943E-09
       366  12 -2.718501E+05 -2.460007E+04  1.269621E+04 -1.038485E+05 -4.357954E-11 -5.347725E-09
       366  13 -3.196883E+05 -4.301047E+04 -1.259682E+03 -1.168645E+05 -5.857828E-10  2.780647E-09
       366  14 -3.163175E+05 -4.594623E+04 -6.608179E+02 -1.206623E+05  6.518988E-10  6.818877E-09
       366  15 -3.196511E+05 -4.274871E+04 -4.168248E+02 -1.169636E+05  5.545001E-11 -3.714410E-10
       366  16 -3.771580E+05 -6.476139E+04 -1.697289E+04 -1.325709E+05  1.186196E-09  3.689979E-09
       366  17 -3.689514E+05 -6.589562E+04 -1.507279E+04 -1.350726E+05  2.243782E-09  3.057595E-10
       366  18 -3.674499E+05 -6.089719E+04 -1.353005E+04 -1.300777E+05  6.193694E-10 -2.433965E-09
       366  19 -2.622155E+05 -2.125935E+04  1.445323E+04 -1.011568E+05  5.639966E+02  1.294085E+03
       366  20 -2.636809E+05 -2.599668E+04  1.375091E+04 -1.062509E+05  2.999520E+02  9.826281E+02
       366  21 -2.718501E+05 -2.460007E+04  1.269621E+04 -1.038485E+05  4.180261E+01  6.557208E+02
       366  22 -3.196883E+05 -4.301047E+04 -1.259678E+03 -1.168645E+05  5.280557E+02  1.280507E+03
       366  23 -3.163175E+05 -4.594623E+04 -6.608160E+02 -1.206623E+05  2.609161E+02  9.678751E+02
       366  24 -3.196511E+05 -4.274871E+04 -4.168240E+02 -1.169636E+05 -3.305118E-01  6.397909E+02
       366  25 -3.771580E+05 -6.476139E+04 -1.697289E+04 -1.325709E+05  4.921184E+02  1.266931E+03
       366  26 -3.689514E+05 -6.589562E+04 -1.507279E+04 -1.350726E+05  2.218840E+02  9.531236E+02
       366  27 -3.674499E+05 -6.089719E+04 -1.353005E+04 -1.300777E+05 -4.246000E+01  6.238623E+02
       367   1 -2.979918E+05 -3.452191E+04  5.567368E+03 -1.109539E+05 -2.131611E+01 -5.116398E+02
       367   2 -2.995619E+05 -3.970290E+04  4.300260E+03 -1.161373E+05  4.508520E+01 -2.584207E+02
       367   3 -3.079394E+05 -3.828675E+04  2.889818E+03 -1.136565E+05  1.113276E+02 -4.817488E+00
       367   4 -3.196865E+05 -4.273757E+04 -3.529723E+02 -1.168913E+05  1.899234E+01 -4.963961E+02
       367   5 -3.162842E+05 -4.604511E+04 -2.792888E+02 -1.207200E+05  8.546746E+01 -2.431473E+02
       367   6 -3.196892E+05 -4.275549E+04 -3.489734E+02 -1.168846E+05  1.517848E+02  1.048626E+01
       367   7 -3.413807E+05 -5.095321E+04 -6.273362E+03 -1.228285E+05  5.929928E+01 -4.811531E+02
       367   8 -3.330062E+05 -5.238731E+04 -4.858865E+03 -1.253026E+05  1.258485E+02 -2.278743E+02
       367   9 -3.314388E+05 -4.722422E+04 -3.587778E+03 -1.201125E+05  1.922411E+02  2.578969E+01
       367  10 -2.979918E+05 -3.452191E+04  5.567367E+03 -1.109539E+05  1.308482E-09 -3.322995E-09
       367  11 -2.995619E+05 -3.970290E+04  4.300259E+03 -1.161373E+05  1.911200E-09 -7.930197E-09
       367  12 -3.079394E+05 -3.828675E+04  2.889818E+03 -1.136565E+05  3.093166E-09 -3.057770E-09
       367  13 -3.196865E+05 -4.273757E+04 -3.529728E+02 -1.168913E+05  2.675039E-09 -3.723616E-09
       367  14 -3.162842E+05 -4.604511E+04 -2.792889E+02 -1.207200E+05 -6.366890E-10 -2.186295E-09
       367  15 -3.196892E+05 -4.275549E+04 -3.489735E+02 -1.168846E+05  5.481711E-10 -2.288390E-09
       367  16 -3.413807E+05 -5.095321E+04 -6.273363E+03 -1.228285E+05  3.847890E-09  4.163487E-09
       367  17 -3.330062E+05 -5.238731E+04 -4.858866E+03 -1.253026E+05  3.512989E-09  1.107499E-08
       367  18 -3.314388E+05 -4.722422E+04 -3.587778E+03 -1.201125E+05  1.392336E-10 -1.977268E-09
       367  19 -2.979918E+05 -3.452191E+04  5.567368E+03 -1.109539E+05  2.131611E+01  5.116398E+02
       367  20 -2.995619E+05 -3.970290E+04  4.300260E+03 -1.161373E+05 -4.508520E+01  2.584207E+02
       367  21 -3.079394E+05 -3.828675E+04  2.889818E+03 -1.136565E+05 -1.113276E+02  4.817488E+00
       367  22 -3.196865E+05 -4.273757E+04 -3.529723E+02 -1.168913E+05 -1.899234E+01  4.963961E+02
       367  23 -3.162842E+05 -4.604511E+04 -2.792888E+02 -1.207200E+05 -8.546746E+01  2.431473E+02
       367  24 -3.196892E+05 -4.275549E+04 -3.489734E+02 -1.168846E+05 -1.517848E+02 -1.048626E+01
       367  25 -3.413807E+05 -5.095321E+04 -6.273362E+03 -1.228285E+05 -5.929928E+01  4.811531E+02
       367  26 -3.330062E+05 -5.238731E+04 -4.858865E+03 -1.253026E+05 -1.258485E+02  2.278743E+02
       367  27 -3.314388E+05 -4.722422E+04 -3.587778E+03 -1.201125E+05 -1.922411E+02 -2.578969E+01
       368   1 -3.344495E+05 -4.832297E+04 -4.468070E+03 -1.209895E+05  1.228785E+02  1.410113E+02
       368   2 -3.359733E+05 -5.344141E+04 -6.024583E+03 -1.261232E+05  3.743067E+02  4.713208E+02
       368   3 -3.444800E+05 -5.241336E+04 -7.983457E+03 -1.234947E+05  6.370739E+02  7.717043E+02
       368   4 -3.197056E+05 -4.269961E+04 -4.052213E+02 -1.169217E+05  1.675040E+02  1.578916E+02
       368   5 -3.162430E+05 -4.597026E+04 -6.241158E+02 -1.207283E+05  4.128918E+02  4.859140E+02
       368   6 -3.197619E+05 -4.309325E+04 -1.240559E+03 -1.167728E+05  6.696216E+02  7.840121E+02
       368   7 -3.049616E+05 -3.707623E+04  3.657602E+03 -1.128538E+05  2.121306E+02  1.747723E+02
       368   8 -2.965123E+05 -3.849909E+04  4.776316E+03 -1.153333E+05  4.514782E+02  5.005076E+02
       368   9 -2.950432E+05 -3.377309E+04  5.502291E+03 -1.100506E+05  7.021707E+02  7.963205E+02
       368  10 -3.344495E+05 -4.832297E+04 -4.468070E+03 -1.209895E+05  9.709585E-10  1.947078E-09
       368  11 -3.359733E+05 -5.344141E+04 -6.024584E+03 -1.261232E+05 -2.536096E-09 -8.604685E-10
       368  12 -3.444800E+05 -5.241337E+04 -7.983459E+03 -1.234947E+05 -3.811603E-09  2.213763E-09
       368  13 -3.197056E+05 -4.269961E+04 -4.052214E+02 -1.169217E+05  1.656011E-09 -1.170960E-09
       368  14 -3.162430E+05 -4.597026E+04 -6.241165E+02 -1.207283E+05 -7.078168E-10 -1.135504E-09
       368  15 -3.197619E+05 -4.309325E+04 -1.240561E+03 -1.167728E+05 -1.357273E-09 -1.139604E-09
       368  16 -3.049616E+05 -3.707623E+04  3.657602E+03 -1.128538E+05 -2.766231E-10 -2.240118E-09
       368  17 -2.965123E+05 -3.849909E+04  4.776315E+03 -1.153333E+05 -8.880339E-11  7.387924E-09
       368  18 -2.950432E+05 -3.377309E+04  5.502289E+03 -1.100506E+05  2.919624E-09 -2.230116E-09
       368  19 -3.344495E+05 -4.832297E+04 -4.468070E+03 -1.209895E+05 -1.228785E+02 -1.410113E+02
       368  20 -3.359733E+05 -5.344141E+04 -6.024583E+03 -1.261232E+05 -3.743067E+02 -4.713208E+02
       368  21 -3.444800E+05 -5.241336E+04 -7.983457E+03 -1.234947E+05 -6.370739E+02 -7.717043E+02
       368  22 -3.197056E+05 -4.269961E+04 -4.052213E+02 -1.169217E+05 -1.675040E+02 -1.578916E+02
       368  23 -3.162430E+05 -4.597026E+04 -6.241158E+02 -1.207283E+05 -4.128918E+02 -4.859140E+02
       368  24 -3.197619E+05 -4.309325E+04 -1.240559E+03 -1.167728E+05 -6.696216E+02 -7.840121E+02
       368  25 -3.049616E+05 -3.707623E+04  3.657602E+03 -1.128538E+05 -2.121306E+02 -1.747723E+02
       368  26 -2.965123E+05 -3.849909E+04  4.776316E+03 -1.153333E+05 -4.514782E+02 -5.005076E+02
       368  27 -2.950432E+05 -3.377309E+04  5.502291E+03 -1.100506E+05 -7.021707E+02 -7.963205E+02
       369   1 -3.704530E+05 -6.207384E+04 -1.545961E+04 -1.311401E+05  7.818389E+02  9.923840E+02
       369   2 -3.715862E+05 -6.635975E+04 -1.776631E+04 -1.358917E+05  2.099167E+03  1.739847E+03
       369   3 -3.808421E+05 -6.803414E+04 -2.217465E+04 -1.322742E+05  3.489275E+03  2.294834E+03
       369   4 -3.198451E+05 -4.269326E+04 -1.545001E+03 -1.170858E+05  8.454574E+02  1.016438E+03
       369   5 -3.159830E+05 -4.536953E+04 -2.561734E+03 -1.207539E+05  2.123999E+03  1.749228E+03
       369   6 -3.202358E+05 -4.542640E+04 -5.649186E+03 -1.160529E+05  3.475330E+03  2.289554E+03
       369   7 -2.692348E+05 -2.331251E+04  1.236937E+04 -1.030305E+05  9.090817E+02  1.040494E+03
       369   8 -2.603769E+05 -2.437915E+04  1.264256E+04 -1.056149E+05  2.148834E+03  1.758611E+03
       369   9 -2.596261E+05 -2.281850E+04  1.087593E+04 -9.983026E+04  3.461383E+03  2.284273E+03
       369  10 -3.704530E+05 -6.207384E+04 -1.545961E+04 -1.311401E+05  1.770060E-10  2.232370E-09
       369  11 -3.715862E+05 -6.635975E+04 -1.776633E+04 -1.358917E+05  3.163839E-10  1.909573E-09
       369  12 -3.808421E+05 -6.803415E+04 -2.217469E+04 -1.322742E+05 -7.161815E-10  2.860865E-09
       369  13 -3.198451E+05 -4.269326E+04 -1.545004E+03 -1.170858E+05 -1.641834E-09  2.559098E-10
       369  14 -3.159830E+05 -4.536953E+04 -2.561748E+03 -1.207539E+05 -1.050803E-09 -5.056705E-09
       369  15 -3.202358E+05 -4.542641E+04 -5.649219E+03 -1.160529E+05  4.745287E-10  2.444588E-09
       369  16 -2.692348E+05 -2.331251E+04  1.236937E+04 -1.030305E+05  6.022728E-10  9.093799E-10
       369  17 -2.603769E+05 -2.437915E+04  1.264254E+04 -1.056149E+05 -7.750831E-10  2.258945E-09
       369  18 -2.596261E+05 -2.281851E+04  1.087590E+04 -9.983027E+04  1.141102E-09 -9.583679E-10
       369  19 -3.704530E+05 -6.207384E+04 -1.545961E+04 -1.311401E+05 -7.818389E+02 -9.923840E+02
       369  20 -3.715862E+05 -6.635975E+04 -1.776631E+04 -1.358917E+05 -2.099167E+03 -1.739847E+03
       369  21 -3.808421E+05 -6.803414E+04 -2.217465E+04 -1.322742E+05 -3.489275E+03 -2.294834E+03
       369  22 -3.198451E+05 -4.269326E+04 -1.545001E+03 -1.170858E+05 -8.454574E+02 -1.016438E+03
       369  23 -3.159830E+05 -4.536953E+04 -2.561734E+03 -1.207539E+05 -2.123999E+03 -1.749228E+03
       369  24 -3.202358E+05 -4.542640E+04 -5.649186E+03 -1.160529E+05 -3.475330E+03 -2.289554E+03
       369  25 -2.692348E+05 -2.331251E+04  1.236937E+04 -1.030305E+05 -9.090817E+02 -1.040494E+03
       369  26 -2.603769E+05 -2.437915E+04  1.264256E+04 -1.056149E+05 -2.148834E+03 -1.758611E+03
       369  27 -2.596261E+05 -2.281850E+04  1.087593E+04 -9.983026E+04 -3.461383E+03 -2.284273E+03
       370   1 -4.051904E+05 -7.559633E+04 -3.016880E+04 -1.422417E+05  4.203002E+03  2.910503E+03
       370   2 -4.040144E+05 -7.502227E+04 -3.536593E+04 -1.452479E+05  1.034355E+04  5.591333E+03
       370   3 -4.196431E+05 -9.487819E+04 -5.247870E+04 -1.344565E+05  1.696589E+04  6.996538E+03
       370   4 -3.209990E+05 -4.242727E+04 -6.854980E+03 -1.179096E+05  4.396211E+03  2.983508E+03
       370   5 -3.139546E+05 -4.157275E+04 -1.086763E+04 -1.212850E+05  1.027978E+04  5.567216E+03
       370   6 -3.236625E+05 -6.109482E+04 -2.659071E+04 -1.108630E+05  1.664516E+04  6.875359E+03
       370   7 -2.368006E+05 -9.257583E+03  1.645823E+04 -9.357434E+04  4.589449E+03  3.056526E+03
       370   8 -2.238871E+05 -8.122846E+03  1.362992E+04 -9.731891E+04  1.021600E+04  5.543095E+03
       370   9 -2.276734E+05 -2.731131E+04 -7.035880E+02 -8.726647E+04  1.632438E+04  6.754163E+03
       370  10 -4.051904E+05 -7.559635E+04 -3.016885E+04 -1.422417E+05  8.317308E-10 -3.904541E-10
       370  11 -4.040145E+05 -7.502234E+04 -3.536619E+04 -1.452480E+05 -5.148236E-10 -1.872038E-09
       370  12 -4.196434E+05 -9.487832E+04 -5.247934E+04 -1.344566E+05 -6.792424E-10 -3.262802E-09
       370  13 -3.209990E+05 -4.242728E+04 -6.855033E+03 -1.179096E+05 -1.425329E-09 -2.709315E-09
       370  14 -3.139547E+05 -4.157281E+04 -1.086789E+04 -1.212850E+05  4.341398E-09 -6.776631E-10
       370  15 -3.236628E+05 -6.109495E+04 -2.659132E+04 -1.108631E+05 -1.749439E-11 -3.471230E-09
       370  16 -2.368006E+05 -9.257598E+03  1.645817E+04 -9.357436E+04  1.361522E-09 -2.138070E-09
       370  17 -2.238872E+05 -8.122907E+03  1.362967E+04 -9.731896E+04 -6.933506E-11 -5.134812E-09
       370  18 -2.276737E+05 -2.731143E+04 -7.041748E+02 -8.726656E+04 -6.736636E-10 -1.011689E-09
       370  19 -4.051904E+05 -7.559633E+04 -3.016880E+04 -1.422417E+05 -4.203002E+03 -2.910503E+03
       370  20 -4.040144E+05 -7.502227E+04 -3.536593E+04 -1.452479E+05 -1.034355E+04 -5.591333E+03
       370  21 -4.196431E+05 -9.487819E+04 -5.247870E+04 -1.344565E+05 -1.696589E+04 -6.996538E+03
       370  22 -3.209990E+05 -4.242727E+04 -6.854980E+03 -1.179096E+05 -4.396211E+03 -2.983508E+03
       370  23 -3.139546E+05 -4.157275E+04 -1.086763E+04 -1.212850E+05 -1.027978E+04 -5.567216E+03
       370  24 -3.236625E+05 -6.109482E+04 -2.659071E+04 -1.108630E+05 -1.664516E+04 -6.875359E+03
       370  25 -2.368006E+05 -9.257583E+03  1.645823E+04 -9.357434E+04 -4.589449E+03 -3.056526E+03
       370  26 -2.238871E+05 -8.122846E+03  1.362992E+04 -9.731891E+04 -1.021600E+04 -5.543095E+03
       370  27 -2.276734E+05 -2.731131E+04 -7.035880E+02 -8.726647E+04 -1.632438E+04 -6.754163E+03
       371   1 -3.018739E+05 -6.846189E+03 -4.746533E+04 -2.144849E+04 -1.191084E+05 -5.036471E+03
       371   2 -3.093038E+05  1.525010E+05  4.527430E+04 -9.350914E+03 -8.037022E+04 -1.434283E+04
       371   3 -3.678215E+05  1.266865E+05  6.657415E+04  3.300340E+04 -4.166318E+04 -1.284456E+04
       371   4 -8.491016E+05 -1.432636E+05 -1.830565E+05  1.537067E+04 -1.250692E+05 -5.058789E+03
       371   5 -8.231230E+05  2.479044E+04 -7.949867E+04  4.755689E+01 -8.195920E+04 -1.434948E+04
       371   6 -8.490386E+05  6.837580E+03 -5.046402E+04  1.498313E+04 -3.887786E+04 -1.283504E+04
       371   7 -1.396054E+06 -2.796981E+05 -3.186691E+05  5.215716E+04 -1.310248E+05 -5.081827E+03
       371   8 -1.336701E+06 -1.029391E+05 -2.042907E+05  9.438052E+03 -8.354683E+04 -1.435618E+04
       371   9 -1.330043E+06 -1.130273E+05 -1.675188E+05 -3.023293E+03 -3.609469E+04 -1.282567E+04
       371  10 -3.018891E+05 -6.850027E+03 -4.749205E+04 -2.144897E+04 -3.390493E-09  1.643469E-09
       371  11 -3.093108E+05  1.524990E+05  4.526177E+04 -9.351842E+03 -1.579309E-09  7.156168E-09
       371  12 -3.678234E+05  1.266859E+05  6.657057E+04  3.300297E+04  2.022668E-10  1.667286E-09
       371  13 -8.491184E+05 -1.432678E+05 -1.830860E+05  1.537016E+04 -4.628210E-10 -2.497865E-09
       371  14 -8.231303E+05  2.478841E+04 -7.951170E+04  4.660938E+01  7.026939E-10 -5.135759E-09
       371  15 -8.490402E+05  6.836997E+03 -5.046717E+04  1.498273E+04  1.167963E-10 -1.942624E-09
       371  16 -1.396072E+06 -2.797028E+05 -3.187014E+05  5.215663E+04  3.301232E-09  9.568492E-10
       371  17 -1.336708E+06 -1.029412E+05 -2.043042E+05  9.437085E+03 -1.174776E-09  6.160341E-09
       371  18 -1.330045E+06 -1.130278E+05 -1.675216E+05 -3.023666E+03 -1.262015E-09 -1.306950E-09
       371  19 -3.018739E+05 -6.846189E+03 -4.746533E+04 -2.144849E+04  1.191084E+05  5.036471E+03
       371  20 -3.093038E+05  1.525010E+05  4.527430E+04 -9.350914E+03  8.037022E+04  1.434283E+04
       371  21 -3.678215E+05  1.266865E+05  6.657415E+04  3.300340E+04  4.166318E+04  1.284456E+04
       371  22 -8.491016E+05 -1.432636E+05 -1.830565E+05  1.537067E+04  1.250692E+05  5.058789E+03
       371  23 -8.231230E+05  2.479044E+04 -7.949867E+04  4.755689E+01  8.195920E+04  1.434948E+04
       371  24 -8.490386E+05  6.837580E+03 -5.046402E+04  1.498313E+04  3.887786E+04  1.283504E+04
       371  25 -1.396054E+06 -2.796981E+05 -3.186691E+05  5.215716E+04  1.310248E+05  5.081827E+03
       371  26 -1.336701E+06 -1.029391E+05 -2.042907E+05  9.438052E+03  8.354683E+04  1.435618E+04
       371  27 -1.330043E+06 -1.130273E+05 -1.675188E+05 -3.023293E+03  3.609469E+04  1.282567E+04
       372   1 -4.171470E+05  8.789234E+04  6.139497E+04  1.250195E+04 -3.081296E+04 -1.048906E+04
       372   2 -4.486753E+05  9.924385E+04  7.344442E+04 -5.107063E+02 -2.057271E+04 -1.015915E+04
       372   3 -4.870917E+05  8.853884E+04  7.330379E+04  1.870726E+04 -1.033796E+04 -8.781889E+03
       372   4 -8.390543E+05 -1.707379E+04 -4.139081E+04  1.559422E+04 -3.089223E+04 -1.049000E+04
       372   5 -8.355637E+05  2.994952E+03 -2.066660E+04 -5.534774E+02 -2.023141E+04 -1.015832E+04
       372   6 -8.390409E+05  9.260555E+02 -1.243096E+04  1.553094E+04 -9.575528E+03 -8.779113E+03
       372   7 -1.260799E+06 -1.220530E+05 -1.441895E+05  1.868423E+04 -3.097144E+04 -1.049094E+04
       372   8 -1.222315E+06 -9.326498E+04 -1.147885E+05 -5.963482E+02 -1.989032E+04 -1.015750E+04
       372   9 -1.190877E+06 -8.669584E+04 -9.817471E+04  1.235632E+04 -8.813525E+03 -8.776345E+03
       372  10 -4.171480E+05  8.789196E+04  6.139298E+04  1.250169E+04 -2.514804E-09 -4.650994E-09
       372  11 -4.486758E+05  9.924363E+04  7.344343E+04 -5.108746E+02  2.029663E-09  3.764586E-09
       372  12 -4.870918E+05  8.853873E+04  7.330344E+04  1.870719E+04  2.614768E-09  1.002751E-08
       372  13 -8.390553E+05 -1.707417E+04 -4.139282E+04  1.559396E+04 -6.323460E-10  1.243070E-08
       372  14 -8.355642E+05  2.994732E+03 -2.066757E+04 -5.536430E+02  3.014611E-09 -2.212583E-08
       372  15 -8.390411E+05  9.259481E+02 -1.243128E+04  1.553087E+04 -1.241362E-09  8.967030E-09
       372  16 -1.260800E+06 -1.220534E+05 -1.441915E+05  1.868397E+04  2.548687E-09 -9.748051E-09
       372  17 -1.222316E+06 -9.326519E+04 -1.147894E+05 -5.965110E+02 -1.923313E-10 -6.700935E-09
       372  18 -1.190877E+06 -8.669595E+04 -9.817500E+04  1.235626E+04 -2.934257E-09 -1.670809E-09
       372  19 -4.171470E+05  8.789234E+04  6.139497E+04  1.250195E+04  3.081296E+04  1.048906E+04
       372  20 -4.486753E+05  9.924385E+04  7.344442E+04 -5.107063E+02  2.057271E+04  1.015915E+04
       372  21 -4.870917E+05  8.853884E+04  7.330379E+04  1.870726E+04  1.033796E+04  8.781889E+03
       372  22 -8.390543E+05 -1.707379E+04 -4.139081E+04  1.559422E+04  3.089223E+04  1.049000E+04
       372  23 -8.355637E+05  2.994952E+03 -2.066660E+04 -5.534774E+02  2.023141E+04  1.015832E+04
       372  24 -8.390409E+05  9.260555E+02 -1.243096E+04  1.553094E+04  9.575528E+03  8.779113E+03
       372  25 -1.260799E+06 -1.220530E+05 -1.441895E+05  1.868423E+04  3.097144E+04  1.049094E+04
       372  26 -1.222315E+06 -9.326498E+04 -1.147885E+05 -5.963482E+02  1.989032E+04  1.015750E+04
       372  27 -1.190877E+06 -8.669584E+04 -9.817471E+04  1.235632E+04  8.813525E+03  8.776345E+03
       373   1 -5.484546E+05  7.005290E+04  6.049303E+04  1.636527E+04 -8.097824E+03 -7.842072E+03
       373   2 -5.843599E+05  6.326620E+04  5.621611E+04 -2.067912E+02 -5.483202E+03 -6.568558E+03
       373   3 -6.214546E+05  5.409861E+04  4.958710E+04  1.687650E+04 -2.870046E+03 -5.176547E+03
       373   4 -8.377486E+05 -1.910932E+03 -9.811449E+03  1.587432E+04 -7.604849E+03 -7.840267E+03
       373   5 -8.371472E+05  3.642544E+02 -5.292286E+03 -9.583266E+02 -4.943047E+03 -6.566393E+03
       373   6 -8.377446E+05  2.498793E+02 -3.158640E+03  1.586524E+04 -2.282557E+03 -5.174001E+03
       373   7 -1.126966E+06 -7.388093E+04 -8.012199E+04  1.538352E+04 -7.112102E+03 -7.838461E+03
       373   8 -1.089876E+06 -6.254240E+04 -6.680531E+04 -1.709618E+03 -4.403110E+03 -6.564229E+03
       373   9 -1.053992E+06 -5.360231E+04 -5.590779E+04  1.485429E+04 -1.695271E+03 -5.171456E+03
       373  10 -5.484547E+05  7.005282E+04  6.049279E+04  1.636522E+04  3.172286E-09 -4.285616E-09
       373  11 -5.843600E+05  6.326614E+04  5.621597E+04 -2.068202E+02  2.234724E-09 -7.082550E-09
       373  12 -6.214546E+05  5.409858E+04  4.958704E+04  1.687649E+04 -1.444747E-10 -7.805928E-09
       373  13 -8.377487E+05 -1.911014E+03 -9.811673E+03  1.587427E+04 -8.071151E-11 -3.947791E-09
       373  14 -8.371472E+05  3.642015E+02 -5.292413E+03 -9.583528E+02 -2.863551E-10 -4.678340E-09
       373  15 -8.377446E+05  2.498492E+02 -3.158700E+03  1.586523E+04  9.465316E-11 -3.861524E-09
       373  16 -1.126966E+06 -7.388101E+04 -8.012220E+04  1.538348E+04 -4.844575E-09 -1.015091E-08
       373  17 -1.089876E+06 -6.254245E+04 -6.680543E+04 -1.709641E+03 -1.354538E-09  5.814083E-09
       373  18 -1.053992E+06 -5.360234E+04 -5.590784E+04  1.485428E+04  6.288134E-10  9.785956E-09
       373  19 -5.484546E+05  7.005290E+04  6.049303E+04  1.636527E+04  8.097824E+03  7.842072E+03
       373  20 -5.843599E+05  6.326620E+04  5.621611E+04 -2.067912E+02  5.483202E+03  6.568558E+03
       373  21 -6.214546E+05  5.409861E+04  4.958710E+04  1.687650E+04  2.870046E+03  5.176547E+03
       373  22 -8.377486E+05 -1.910932E+03 -9.811449E+03  1.587432E+04  7.604849E+03  7.840267E+03
       373  23 -8.371472E+05  3.642544E+02 -5.292286E+03 -9.583266E+02  4.943047E+03  6.566393E+03
       373  24 -8.377446E+05  2.498793E+02 -3.158640E+03  1.586524E+04  2.282557E+03  5.174001E+03
       373  25 -1.126966E+06 -7.388093E+04 -8.012199E+04  1.538352E+04  7.112102E+03  7.838461E+03
       373  26 -1.089876E+06 -6.254240E+04 -6.680531E+04 -1.709618E+03  4.403110E+03  6.564229E+03
       373  27 -1.053992E+06 -5.360231E+04 -5.590779E+04  1.485429E+04  1.695271E+03  5.171456E+03
       374   1 -6.861050E+05  3.759107E+04  3.425348E+04  1.654403E+04 -2.341779E+03 -4.349941E+03
       374   2 -7.232536E+05  2.844602E+04  2.623007E+04 -7.837698E+02 -1.592398E+03 -2.958669E+03
       374   3 -7.608856E+05  1.927497E+04  1.763172E+04  1.636210E+04 -8.435486E+02 -1.548659E+03
       374   4 -8.375793E+05 -8.143763E+01 -2.494881E+03  1.605072E+04 -1.779588E+03 -4.347418E+03
       374   5 -8.373356E+05  5.535660E+01 -1.531594E+03 -1.186878E+03 -1.022747E+03 -2.956038E+03
       374   6 -8.375780E+05  1.648879E+02 -1.148470E+03  1.604958E+04 -2.663939E+02 -1.545912E+03
       374   7 -9.890326E+05 -3.775563E+04 -3.924489E+04  1.555751E+04 -1.217533E+03 -4.344896E+03
       374   8 -9.514057E+05 -2.833627E+04 -2.929420E+04 -1.589925E+03 -4.532012E+02 -2.953407E+03
       374   9 -9.142650E+05 -1.894563E+04 -1.992909E+04  1.573710E+04  3.106896E+02 -1.543166E+03
       374  10 -6.861050E+05  3.759104E+04  3.425343E+04  1.654402E+04 -3.809552E-09 -9.251802E-09
       374  11 -7.232536E+05  2.844601E+04  2.623005E+04 -7.837736E+02 -3.891689E-09  8.790742E-09
       374  12 -7.608856E+05  1.927497E+04  1.763172E+04  1.636210E+04 -2.621050E-09  2.665261E-10
       374  13 -8.375793E+05 -8.145877E+01 -2.494922E+03  1.605071E+04 -1.123860E-09  7.624234E-09
       374  14 -8.373356E+05  5.534694E+01 -1.531612E+03 -1.186880E+03  4.381516E-10 -3.018372E-09
       374  15 -8.375780E+05  1.648853E+02 -1.148475E+03  1.604958E+04  2.856740E-10 -8.076001E-09
       374  16 -9.890326E+05 -3.775565E+04 -3.924493E+04  1.555751E+04  1.459222E-09  6.342907E-09
       374  17 -9.514057E+05 -2.833628E+04 -2.929422E+04 -1.589926E+03  1.693142E-09  1.629537E-08
       374  18 -9.142650E+05 -1.894563E+04 -1.992910E+04  1.573710E+04  2.588492E-09  3.691454E-09
       374  19 -6.861050E+05  3.759107E+04  3.425348E+04  1.654403E+04  2.341779E+03  4.349941E+03
       374  20 -7.232536E+05  2.844602E+04  2.623007E+04 -7.837698E+02  1.592398E+03  2.958669E+03
       374  21 -7.608856E+05  1.927497E+04  1.763172E+04  1.636210E+04  8.435486E+02  1.548659E+03
       374  22 -8.375793E+05 -8.143763E+01 -2.494881E+03  1.605072E+04  1.779588E+03  4.347418E+03
       374  23 -8.373356E+05  5.535660E+01 -1.531594E+03 -1.186878E+03  1.022747E+03  2.956038E+03
       374  24 -8.375780E+05  1.648879E+02 -1.148470E+03  1.604958E+04  2.663939E+02  1.545912E+03
       374  25 -9.890326E+05 -3.775563E+04 -3.924489E+04  1.555751E+04  1.217533E+03  4.344896E+03
       374  26 -9.514057E+05 -2.833627E+04 -2.929420E+04 -1.589925E+03  4.532012E+02  2.953407E+03
       374  27 -9.142650E+05 -1.894563E+04 -1.992909E+04  1.573710E+04 -3.106896E+02  1.543166E+03
       375   1 -8.266608E+05  2.843608E+03  1.447908E+03  1.610897E+04 -6.453975E+02 -7.227298E+02
       375   2 -8.640249E+05 -6.597014E+03 -7.703594E+03 -1.336709E+03 -4.619101E+01  6.905967E+02
       375   3 -9.018593E+05 -1.596826E+04 -1.731492E+04  1.588835E+04  5.531083E+02  2.094571E+03
       375   4 -8.375730E+05  1.513137E+02 -1.091508E+03  1.609344E+04 -6.861622E+01 -7.199626E+02
       375   5 -8.373375E+05  4.502475E+01 -1.208800E+03 -1.241545E+03  5.267736E+02  6.933252E+02
       375   6 -8.375734E+05  8.740575E+00 -1.783302E+03  1.609411E+04  1.122293E+03  2.097266E+03
       375   7 -8.484851E+05 -2.540988E+03 -3.630930E+03  1.607790E+04  5.081550E+02 -7.171954E+02
       375   8 -8.106494E+05  6.687011E+03  5.285944E+03 -1.146377E+03  1.099763E+03  6.960538E+02
       375   9 -7.732838E+05  1.598544E+04  1.374802E+04  1.629989E+04  1.691536E+03  2.099961E+03
       375  10 -8.266608E+05  2.843607E+03  1.447907E+03  1.610897E+04 -6.152506E-09 -1.588016E-09
       375  11 -8.640249E+05 -6.597015E+03 -7.703595E+03 -1.336709E+03 -6.995127E-10 -1.013977E-08
       375  12 -9.018593E+05 -1.596827E+04 -1.731493E+04  1.588835E+04 -7.773448E-10 -2.441595E-09
       375  13 -8.375730E+05  1.513132E+02 -1.091508E+03  1.609344E+04  4.811045E-10  4.882093E-09
       375  14 -8.373375E+05  4.502416E+01 -1.208801E+03 -1.241545E+03 -1.255091E-09 -4.218909E-09
       375  15 -8.375734E+05  8.735515E+00 -1.783312E+03  1.609411E+04 -4.235284E-10 -7.974096E-09
       375  16 -8.484851E+05 -2.540989E+03 -3.630932E+03  1.607790E+04  4.771403E-09 -7.544388E-10
       375  17 -8.106494E+05  6.687011E+03  5.285941E+03 -1.146377E+03  3.209743E-10 -1.770979E-08
       375  18 -7.732838E+05  1.598544E+04  1.374801E+04  1.629989E+04  1.049576E-09 -9.793917E-09
       375  19 -8.266608E+05  2.843608E+03  1.447908E+03  1.610897E+04  6.453975E+02  7.227298E+02
       375  20 -8.640249E+05 -6.597014E+03 -7.703594E+03 -1.336709E+03  4.619101E+01 -6.905967E+02
       375  21 -9.018593E+05 -1.596826E+04 -1.731492E+04  1.588835E+04 -5.531083E+02 -2.094571E+03
       375  22 -8.375730E+05  1.513137E+02 -1.091508E+03  1.609344E+04  6.861622E+01  7.199626E+02
       375  23 -8.373375E+05  4.502475E+01 -1.208800E+03 -1.241545E+03 -5.267736E+02 -6.933252E+02
       375  24 -8.375734E+05  8.740575E+00 -1.783302E+03  1.609411E+04 -1.122293E+03 -2.097266E+03
       375  25 -8.484851E+05 -2.540988E+03 -3.630930E+03  1.607790E+04 -5.081550E+02  7.171954E+02
       375  26 -8.106494E+05  6.687011E+03  5.285944E+03 -1.146377E+03 -1.099763E+03 -6.960538E+02
       375  27 -7.732838E+05  1.598544E+04  1.374802E+04  1.629989E+04 -1.691536E+03 -2.099961E+03
       376   1 -9.675137E+05 -3.211068E+04 -3.392107E+04  1.535056E+04  8.852825E+02  2.928094E+03
       376   2 -1.004160E+06 -4.130197E+04 -4.423988E+04 -1.645538E+03  2.735676E+03  4.337540E+03
       376   3 -1.041768E+06 -5.200088E+04 -5.621475E+04  1.559395E+04  4.587001E+03  5.649218E+03
       376   4 -8.376846E+05  2.288947E+02 -2.206688E+03  1.599469E+04  1.476262E+03  2.930843E+03
       376   5 -8.372084E+05  2.519528E+02 -3.607130E+03 -1.119550E+03  3.287243E+03  4.339990E+03
       376   6 -8.376873E+05 -1.225219E+03 -6.635626E+03  1.600122E+04  5.099266E+03  5.651384E+03
       376   7 -7.078401E+05  3.256723E+04  2.950646E+04  1.663894E+04  2.067365E+03  2.933592E+03
       376   8 -6.702314E+05  4.180382E+04  3.702360E+04 -5.934485E+02  3.838958E+03  4.342440E+03
       376   9 -6.335687E+05  4.954738E+04  4.294048E+04  1.640859E+04  5.611698E+03  5.653551E+03
       376  10 -9.675137E+05 -3.211069E+04 -3.392108E+04  1.535055E+04 -4.486380E-09 -1.311643E-09
       376  11 -1.004160E+06 -4.130199E+04 -4.423993E+04 -1.645547E+03 -2.033216E-09 -9.062148E-09
       376  12 -1.041768E+06 -5.200092E+04 -5.621484E+04  1.559393E+04  2.491985E-10  1.389128E-09
       376  13 -8.376846E+05  2.288849E+02 -2.206708E+03  1.599469E+04 -1.074874E-09 -3.973132E-09
       376  14 -8.372084E+05  2.519297E+02 -3.607186E+03 -1.119561E+03 -6.819007E-10  8.597350E-09
       376  15 -8.376873E+05 -1.225260E+03 -6.635735E+03  1.600120E+04 -1.803853E-09  9.548979E-09
       376  16 -7.078401E+05  3.256722E+04  2.950644E+04  1.663893E+04  2.104860E-09  7.620427E-09
       376  17 -6.702314E+05  4.180379E+04  3.702354E+04 -5.934619E+02  1.486317E-09 -2.272328E-09
       376  18 -6.335687E+05  4.954734E+04  4.294036E+04  1.640857E+04  3.415247E-10  1.392401E-08
       376  19 -9.675137E+05 -3.211068E+04 -3.392107E+04  1.535056E+04 -8.852825E+02 -2.928094E+03
       376  20 -1.004160E+06 -4.130197E+04 -4.423988E+04 -1.645538E+03 -2.735676E+03 -4.337540E+03
       376  21 -1.041768E+06 -5.200088E+04 -5.621475E+04  1.559395E+04 -4.587001E+03 -5.649218E+03
       376  22 -8.376846E+05  2.288947E+02 -2.206688E+03  1.599469E+04 -1.476262E+03 -2.930843E+03
       376  23 -8.372084E+05  2.519528E+02 -3.607130E+03 -1.119550E+03 -3.287243E+03 -4.339990E+03
       376  24 -8.376873E+05 -1.225219E+03 -6.635626E+03  1.600122E+04 -5.099266E+03 -5.651384E+03
       376  25 -7.078401E+05  3.256723E+04  2.950646E+04  1.663894E+04 -2.067365E+03 -2.933592E+03
       376  26 -6.702314E+05  4.180382E+04  3.702360E+04 -5.934485E+02 -3.838958E+03 -4.342440E+03
       376  27 -6.335687E+05  4.954738E+04  4.294048E+04  1.640859E+04 -5.611698E+03 -5.653551E+03
       377   1 -1.106736E+06 -6.610394E+04 -7.377392E+04  1.344709E+04  5.683440E+03  6.584565E+03
       377   2 -1.140292E+06 -7.367431E+04 -8.794422E+04 -1.067124E+03  1.323016E+04  7.990306E+03
       377   3 -1.178734E+06 -9.611671E+04 -1.107923E+05  1.761425E+04  2.078095E+04  8.490351E+03
       377   4 -8.385545E+05  6.867377E+02 -8.393180E+03  1.574992E+04  6.429391E+03  6.587651E+03
       377   5 -8.361483E+05  2.022229E+03 -1.393158E+04 -8.233528E+02  1.361024E+04  7.991606E+03
       377   6 -8.385640E+05 -1.144642E+04 -2.789018E+04  1.579807E+04  2.079561E+04  8.490014E+03
       377   7 -5.703067E+05  6.747212E+04  5.698233E+04  1.805367E+04  7.175664E+03  6.590742E+03
       377   8 -5.319203E+05  7.771195E+04  6.007434E+04 -5.795488E+02  1.399052E+04  7.992907E+03
       377   9 -4.982882E+05  7.321535E+04  5.500356E+04  1.398078E+04  2.081027E+04  8.489677E+03
       377  10 -1.106737E+06 -6.610399E+04 -7.377406E+04  1.344706E+04  4.117821E-09 -5.707882E-10
       377  11 -1.140292E+06 -7.367442E+04 -8.794467E+04 -1.067209E+03 -3.860337E-09  1.102459E-08
       377  12 -1.178734E+06 -9.611691E+04 -1.107933E+05  1.761411E+04 -3.852438E-09 -8.228341E-09
       377  13 -8.385545E+05  6.866800E+02 -8.393339E+03  1.574988E+04 -4.493803E-10 -8.390025E-09
       377  14 -8.361485E+05  2.022111E+03 -1.393205E+04 -8.234405E+02 -3.627413E-09  6.721638E-09
       377  15 -8.385645E+05 -1.144661E+04 -2.789113E+04  1.579793E+04 -3.894292E-10 -1.233916E-09
       377  16 -5.703068E+05  6.747206E+04  5.698215E+04  1.805363E+04 -7.535727E-09 -6.738502E-10
       377  17 -5.319205E+05  7.771183E+04  6.007385E+04 -5.796388E+02  9.719071E-10 -2.037645E-08
       377  18 -4.982886E+05  7.321516E+04  5.500261E+04  1.398064E+04  3.995152E-09  3.785090E-09
       377  19 -1.106736E+06 -6.610394E+04 -7.377392E+04  1.344709E+04 -5.683440E+03 -6.584565E+03
       377  20 -1.140292E+06 -7.367431E+04 -8.794422E+04 -1.067124E+03 -1.323016E+04 -7.990306E+03
       377  21 -1.178734E+06 -9.611671E+04 -1.107923E+05  1.761425E+04 -2.078095E+04 -8.490351E+03
       377  22 -8.385545E+05  6.867377E+02 -8.393180E+03  1.574992E+04 -6.429391E+03 -6.587651E+03
       377  23 -8.361483E+05  2.022229E+03 -1.393158E+04 -8.233528E+02 -1.361024E+04 -7.991606E+03
       377  24 -8.385640E+05 -1.144642E+04 -2.789018E+04  1.579807E+04 -2.079561E+04 -8.490014E+03
       377  25 -5.703067E+05  6.747212E+04  5.698233E+04  1.805367E+04 -7.175664E+03 -6.590742E+03
       377  26 -5.319203E+05  7.771195E+04  6.007434E+04 -5.795488E+02 -1.399052E+04 -7.992907E+03
       377  27 -4.982882E+05  7.321535E+04  5.500356E+04  1.398078E+04 -2.081027E+04 -8.489677E+03
       378   1 -1.246910E+06 -9.541318E+04 -1.317450E+05  2.826986E+03  2.367196E+04  1.064235E+04
       378   2 -1.263444E+06 -9.165089E+04 -1.594109E+05  5.621235E+03  5.649617E+04  1.218429E+04
       378   3 -1.315700E+06 -2.137924E+05 -2.399458E+05  3.999442E+04  8.934837E+04  4.345621E+03
       378   4 -8.452813E+05  4.663208E+03 -3.399861E+04  1.530002E+04  2.617314E+04  1.065173E+04
       378   5 -8.277859E+05  1.669931E+04 -5.356107E+04 -3.284752E+02  5.519358E+04  1.217865E+04
       378   6 -8.453260E+05 -9.646082E+04 -1.233222E+05  1.562233E+04  8.424411E+04  4.325901E+03
       378   7 -4.435050E+05  1.047282E+05  6.373615E+04  2.778103E+04  2.867594E+04  1.066120E+04
       378   8 -3.919536E+05  1.250357E+05  5.227504E+04 -6.282528E+03  5.389008E+04  1.217303E+04
       378   9 -3.747496E+05  2.085653E+04 -6.714689E+03 -8.768428E+03  7.913596E+04  4.306591E+03
       378  10 -1.246910E+06 -9.541345E+04 -1.317463E+05  2.826783E+03  4.741595E-09 -5.198220E-09
       378  11 -1.263448E+06 -9.165190E+04 -1.594172E+05  5.620681E+03  5.086668E-09 -2.363648E-09
       378  12 -1.315708E+06 -2.137946E+05 -2.399609E+05  3.999410E+04  8.613347E-10  3.939540E-09
       378  13 -8.452821E+05  4.662902E+03 -3.400011E+04  1.529980E+04 -1.101696E-09  2.344429E-09
       378  14 -8.277892E+05  1.669833E+04 -5.356709E+04 -3.290167E+02 -1.999931E-09  4.167669E-09
       378  15 -8.453337E+05 -9.646275E+04 -1.233356E+05  1.562204E+04 -2.004982E-09  2.722933E-09
       378  16 -4.435059E+05  1.047279E+05  6.373439E+04  2.778078E+04 -6.377026E-09  1.052351E-08
       378  17 -3.919567E+05  1.250348E+05  5.226930E+04 -6.283056E+03 -6.547985E-09  4.350539E-09
       378  18 -3.747563E+05  2.085483E+04 -6.726500E+03 -8.768702E+03 -1.052324E-09  1.157133E-09
       378  19 -1.246910E+06 -9.541318E+04 -1.317450E+05  2.826986E+03 -2.367196E+04 -1.064235E+04
       378  20 -1.263444E+06 -9.165089E+04 -1.594109E+05  5.621235E+03 -5.649617E+04 -1.218429E+04
       378  21 -1.315700E+06 -2.137924E+05 -2.399458E+05  3.999442E+04 -8.934837E+04 -4.345621E+03
       378  22 -8.452813E+05  4.663208E+03 -3.399861E+04  1.530002E+04 -2.617314E+04 -1.065173E+04
       378  23 -8.277859E+05  1.669931E+04 -5.356107E+04 -3.284752E+02 -5.519358E+04 -1.217865E+04
       378  24 -8.453260E+05 -9.646082E+04 -1.233222E+05  1.562233E+04 -8.424411E+04 -4.325901E+03
       378  25 -4.435050E+05  1.047282E+05  6.373615E+04  2.778103E+04 -2.867594E+04 -1.066120E+04
       378  26 -3.919536E+05  1.250357E+05  5.227504E+04 -6.282528E+03 -5.389008E+04 -1.217303E+04
       378  27 -3.747496E+05  2.085653E+04 -6.714689E+03 -8.768428E+03 -7.913596E+04 -4.306591E+03
       379   1 -1.525466E+05 -5.896309E+05 -1.466822E+05  1.411035E+05 -6.094055E+03 -5.197966E+04
       379   2 -1.092273E+05 -4.752630E+05 -9.172430E+04  1.253162E+05 -1.935589E+04 -2.294588E+04
       379   3 -7.826051E+04 -3.676278E+05 -5.876337E+04  1.299733E+05 -2.004374E+04  6.123820E+03
       379   4 -1.675113E+04 -4.045752E+04 -1.737132E+04  1.297712E+05 -6.174278E+03 -1.319155E+04
       379   5 -5.193147E+03 -3.924401E+04 -7.842890E+03  1.195645E+05 -1.938267E+04 -9.181019E+03
       379   6 -1.635927E+03 -4.042543E+04 -2.921331E+03  1.298025E+05 -2.002063E+04 -5.140636E+03
       379   7  1.190241E+05  5.089971E+05  1.119246E+05  1.184289E+05 -6.255886E+03  2.563070E+04
       379   8  9.882994E+04  3.969584E+05  7.603047E+04  1.138087E+05 -1.940971E+04  4.593293E+03
       379   9  7.498303E+04  2.868826E+05  5.291764E+04  1.296317E+05 -1.999753E+04 -1.641084E+04
       379  10 -1.525474E+05 -5.896339E+05 -1.466874E+05  1.411032E+05  4.165277E-10 -1.413323E-09
       379  11 -1.092278E+05 -4.752636E+05 -9.172599E+04  1.253158E+05 -1.063019E-09  1.075139E-10
       379  12 -7.826095E+04 -3.676280E+05 -5.876419E+04  1.299734E+05 -1.082549E-09 -3.591842E-09
       379  13 -1.675122E+04 -4.045771E+04 -1.737172E+04  1.297711E+05  1.288987E-09  2.836396E-09
       379  14 -5.193573E+03 -3.924420E+04 -7.843754E+03  1.195643E+05 -7.776000E-10 -4.855956E-09
       379  15 -1.636364E+03 -4.042557E+04 -2.922134E+03  1.298024E+05 -1.109343E-10  1.279156E-09
       379  16  1.190238E+05  5.089964E+05  1.119233E+05  1.184290E+05 -9.333290E-10  1.050143E-09
       379  17  9.882953E+04  3.969583E+05  7.602972E+04  1.138087E+05 -1.190850E-09 -3.484536E-09
       379  18  7.498253E+04  2.868822E+05  5.291638E+04  1.296314E+05  1.344592E-10  1.600618E-09
       379  19 -1.525466E+05 -5.896309E+05 -1.466822E+05  1.411035E+05  6.094055E+03  5.197966E+04
       379  20 -1.092273E+05 -4.752630E+05 -9.172430E+04  1.253162E+05  1.935589E+04  2.294588E+04
       379  21 -7.826051E+04 -3.676278E+05 -5.876337E+04  1.299733E+05  2.004374E+04 -6.123820E+03
       379  22 -1.675113E+04 -4.045752E+04 -1.737132E+04  1.297712E+05  6.174278E+03  1.319155E+04
       379  23 -5.193147E+03 -3.924401E+04 -7.842890E+03  1.195645E+05  1.938267E+04  9.181019E+03
       379  24 -1.635927E+03 -4.042543E+04 -2.921331E+03  1.298025E+05  2.002063E+04  5.140636E+03
       379  25  1.190241E+05  5.089971E+05  1.119246E+05  1.184289E+05  6.255886E+03 -2.563070E+04
       379  26  9.882994E+04  3.969584E+05  7.603047E+04  1.138087E+05  1.940971E+04 -4.593293E+03
       379  27  7.498303E+04  2.868826E+05  5.291764E+04  1.296317E+05  1.999753E+04  1.641084E+04
       380   1 -6.132319E+04 -2.960733E+05 -4.405126E+04  1.306333E+05 -1.630031E+04  6.022516E+03
       380   2 -3.377053E+04 -1.852214E+05 -2.018527E+04  1.202169E+05 -1.047356E+04  6.144004E+03
       380   3 -5.789631E+03 -7.414684E+04  3.739238E+03  1.310950E+05 -3.950497E+03  6.266430E+03
       380   4 -1.460831E+03 -3.978515E+04 -1.090157E+03  1.299874E+05 -1.627854E+04 -4.888584E+03
       380   5 -1.714514E+02 -4.000559E+04  2.556738E+03  1.193435E+05 -1.044965E+04 -6.154669E+03
       380   6  1.787738E+03 -3.977420E+04  7.226186E+03  1.299938E+05 -3.924556E+03 -7.419844E+03
       380   7  5.839816E+04  2.165681E+05  4.186934E+04  1.293412E+05 -1.625675E+04 -1.580404E+04
       380   8  3.342667E+04  1.052315E+05  2.529881E+04  1.184699E+05 -1.042571E+04 -1.845611E+04
       380   9  9.365171E+03 -5.399898E+03  1.071386E+04  1.288925E+05 -3.898566E+03 -2.110683E+04
       380  10 -6.132349E+04 -2.960734E+05 -4.405183E+04  1.306334E+05  3.352455E-10 -1.875303E-09
       380  11 -3.377066E+04 -1.852214E+05 -2.018555E+04  1.202170E+05  1.721996E-09 -2.994080E-09
       380  12 -5.789658E+03 -7.414689E+04  3.739135E+03  1.310951E+05 -1.076633E-09 -2.913199E-09
       380  13 -1.461122E+03 -3.978525E+04 -1.090700E+03  1.299873E+05  1.416471E-09  4.647830E-09
       380  14 -1.715788E+02 -4.000566E+04  2.556462E+03  1.193435E+05  2.274652E-09 -6.193205E-09
       380  15  1.787706E+03 -3.977426E+04  7.226054E+03  1.299938E+05  1.742402E-09  2.821240E-09
       380  16  5.839781E+04  2.165678E+05  4.186838E+04  1.293410E+05  7.158597E-11  3.026477E-09
       380  17  3.342646E+04  1.052311E+05  2.529797E+04  1.184698E+05 -9.744213E-10 -5.773944E-10
       380  18  9.365035E+03 -5.400381E+03  1.071299E+04  1.288924E+05  1.157749E-09  2.234992E-09
       380  19 -6.132319E+04 -2.960733E+05 -4.405126E+04  1.306333E+05  1.630031E+04 -6.022516E+03
       380  20 -3.377053E+04 -1.852214E+05 -2.018527E+04  1.202169E+05  1.047356E+04 -6.144004E+03
       380  21 -5.789631E+03 -7.414684E+04  3.739238E+03  1.310950E+05  3.950497E+03 -6.266430E+03
       380  22 -1.460831E+03 -3.978515E+04 -1.090157E+03  1.299874E+05  1.627854E+04  4.888584E+03
       380  23 -1.714514E+02 -4.000559E+04  2.556738E+03  1.193435E+05  1.044965E+04  6.154669E+03
       380  24  1.787738E+03 -3.977420E+04  7.226186E+03  1.299938E+05  3.924556E+03  7.419844E+03
       380  25  5.839816E+04  2.165681E+05  4.186934E+04  1.293412E+05  1.625675E+04  1.580404E+04
       380  26  3.342667E+04  1.052315E+05  2.529881E+04  1.184699E+05  1.042571E+04  1.845611E+04
       380  27  9.365171E+03 -5.399898E+03  1.071386E+04  1.288925E+05  3.898566E+03  2.110683E+04
       381   1  1.112683E+04 -2.299246E+03  1.881415E+04  1.292340E+05  3.640825E+02  5.153200E+03
       381   2  4.578984E+04  1.046415E+05  5.096646E+04  1.312594E+05  4.249084E+03 -1.740925E+04
       381   3  1.012107E+05  2.198345E+05  1.030230E+05  1.542608E+05  1.929073E+03 -3.998916E+04
       381   4  2.165462E+03 -3.851916E+04  1.024325E+04  1.299152E+05  3.902968E+02 -8.679839E+03
       381   5  1.038936E+04 -4.157384E+04  1.989462E+04  1.194632E+05  4.252329E+03 -1.888050E+04
       381   6  3.722889E+04 -3.852900E+04  4.086879E+04  1.299855E+05  1.909582E+03 -2.909469E+04
       381   7 -6.795896E+03 -7.473746E+04  1.672971E+03  1.305963E+05  4.164816E+02 -2.251208E+04
       381   8 -2.501198E+04 -1.877687E+05 -1.117836E+04  1.076698E+05  4.255630E+03 -2.035141E+04
       381   9 -2.675547E+04 -2.968299E+05 -2.128944E+04  1.057204E+05  1.889236E+03 -1.820474E+04
       381  10  1.112682E+04 -2.299275E+03  1.881410E+04  1.292340E+05 -1.703161E-10 -3.875282E-10
       381  11  4.578974E+04  1.046412E+05  5.096586E+04  1.312595E+05  2.773461E-10  9.603846E-10
       381  12  1.012103E+05  2.198328E+05  1.030200E+05  1.542608E+05 -1.403177E-09 -7.131863E-10
       381  13  2.165442E+03 -3.851924E+04  1.024311E+04  1.299152E+05 -7.161320E-10  4.538278E-09
       381  14  1.038924E+04 -4.157423E+04  1.989391E+04  1.194633E+05  4.078948E-10 -2.967696E-09
       381  15  3.722866E+04 -3.852991E+04  4.086719E+04  1.299855E+05 -1.344846E-09  3.530412E-09
       381  16 -6.796032E+03 -7.473801E+04  1.672018E+03  1.305963E+05  1.087194E-10  4.668719E-10
       381  17 -2.501212E+04 -1.877692E+05 -1.117918E+04  1.076699E+05 -1.131960E-10 -2.358214E-09
       381  18 -2.675556E+04 -2.968302E+05 -2.129007E+04  1.057204E+05 -3.684455E-10 -8.759319E-11
       381  19  1.112683E+04 -2.299246E+03  1.881415E+04  1.292340E+05 -3.640825E+02 -5.153200E+03
       381  20  4.578984E+04  1.046415E+05  5.096646E+04  1.312594E+05 -4.249084E+03  1.740925E+04
       381  21  1.012107E+05  2.198345E+05  1.030230E+05  1.542608E+05 -1.929073E+03  3.998916E+04
       381  22  2.165462E+03 -3.851916E+04  1.024325E+04  1.299152E+05 -3.902968E+02  8.679839E+03
       381  23  1.038936E+04 -4.157384E+04  1.989462E+04  1.194632E+05 -4.252329E+03  1.888050E+04
       381  24  3.722889E+04 -3.852900E+04  4.086879E+04  1.299855E+05 -1.909582E+03  2.909469E+04
       381  25 -6.795896E+03 -7.473746E+04  1.672971E+03  1.305963E+05 -4.164816E+02  2.251208E+04
       381  26 -2.501198E+04 -1.877687E+05 -1.117836E+04  1.076698E+05 -4.255630E+03  2.035141E+04
       381  27 -2.675547E+04 -2.968299E+05 -2.128944E+04  1.057204E+05 -1.889236E+03  1.820474E+04
       382   1  1.317035E+06  4.679386E+05  3.189183E+05  4.507830E+05  1.359814E+05  4.707643E+04
       382   2  1.267291E+06  2.569208E+05  1.886581E+05  4.626410E+05  8.885442E+04  2.090560E+04
       382   3  1.277017E+06  2.601266E+05  1.486880E+05  4.474067E+05  3.844972E+04  3.414082E+03
       382   4  9.259881E+05  2.833860E+05  2.049659E+05  3.063061E+05  1.314616E+05  4.535861E+04
       382   5  8.860735E+05  1.028730E+05  8.475702E+04  3.477257E+05  8.768328E+04  2.046041E+04
       382   6  9.050111E+05  1.359915E+05  5.223078E+04  3.620412E+05  4.062494E+04  4.238302E+03
       382   7  5.350943E+05  9.887018E+04  9.099939E+04  1.619205E+05  1.269448E+05  4.364263E+04
       382   8  5.049969E+05 -5.115997E+04 -1.915703E+04  2.328762E+05  8.651291E+04  2.001555E+04
       382   9  5.331371E+05  1.185738E+04 -4.423795E+04  2.767179E+05  4.279873E+04  5.062125E+03
       382  10  1.317015E+06  4.679313E+05  3.188795E+05  4.507778E+05 -1.008840E-09 -6.238088E-09
       382  11  1.267283E+06  2.569183E+05  1.886425E+05  4.626395E+05 -2.349007E-10 -1.278509E-09
       382  12  1.277015E+06  2.601262E+05  1.486852E+05  4.474066E+05 -8.712547E-10 -1.252744E-09
       382  13  9.259691E+05  2.833792E+05  2.049296E+05  3.063013E+05 -1.046139E-09 -5.784963E-09
       382  14  8.860652E+05  1.028705E+05  8.474181E+04  3.477243E+05  5.494787E-10  8.147409E-09
       382  15  9.050094E+05  1.359910E+05  5.222765E+04  3.620410E+05 -3.642593E-09 -5.842630E-10
       382  16  5.350765E+05  9.886382E+04  9.096556E+04  1.619161E+05 -1.130312E-11  9.919560E-10
       382  17  5.049887E+05 -5.116240E+04 -1.917183E+04  2.328748E+05  1.082383E-09  5.064759E-09
       382  18  5.331352E+05  1.185686E+04 -4.424143E+04  2.767178E+05  1.908375E-09 -4.296104E-09
       382  19  1.317035E+06  4.679386E+05  3.189183E+05  4.507830E+05 -1.359814E+05 -4.707643E+04
       382  20  1.267291E+06  2.569208E+05  1.886581E+05  4.626410E+05 -8.885442E+04 -2.090560E+04
       382  21  1.277017E+06  2.601266E+05  1.486880E+05  4.474067E+05 -3.844972E+04 -3.414082E+03
       382  22  9.259881E+05  2.833860E+05  2.049659E+05  3.063061E+05 -1.314616E+05 -4.535861E+04
       382  23  8.860735E+05  1.028730E+05  8.475702E+04  3.477257E+05 -8.768328E+04 -2.046041E+04
       382  24  9.050111E+05  1.359915E+05  5.223078E+04  3.620412E+05 -4.062494E+04 -4.238302E+03
       382  25  5.350943E+05  9.887018E+04  9.099939E+04  1.619205E+05 -1.269448E+05 -4.364263E+04
       382  26  5.049969E+05 -5.115997E+04 -1.915703E+04  2.328762E+05 -8.651291E+04 -2.001555E+04
       382  27  5.331371E+05  1.185738E+04 -4.423795E+04  2.767179E+05 -4.279873E+04 -5.062125E+03
       383   1  1.203289E+06  2.775057E+05  1.253159E+05  4.368880E+05  3.234685E+04  3.332117E+03
       383   2  1.182054E+06  2.346886E+05  9.542183E+04  4.227830E+05  2.143369E+04 -5.289113E+02
       383   3  1.152472E+06  2.349060E+05  8.017942E+04  4.241441E+05  1.020587E+04 -3.559728E+03
       383   4  8.986314E+05  1.580148E+05  4.270694E+04  3.488263E+05  3.226890E+04  3.302025E+03
       383   5  9.015417E+05  1.274668E+05  2.002183E+04  3.445286E+05  2.167847E+04 -4.364458E+02
       383   6  8.960439E+05  1.398966E+05  1.173839E+04  3.556962E+05  1.077285E+04 -3.344828E+03
       383   7  5.940634E+05  3.853141E+04 -3.991034E+04  2.608041E+05  3.219099E+04  3.271949E+03
       383   8  6.211053E+05  2.025035E+04 -5.538504E+04  2.663063E+05  2.192313E+04 -3.440284E+02
       383   9  6.396800E+05  4.489072E+04 -5.670821E+04  2.872735E+05  1.133958E+04 -3.130022E+03
       383  10  1.203287E+06  2.775054E+05  1.253139E+05  4.368879E+05  4.802657E-09  1.148709E-08
       383  11  1.182053E+06  2.346884E+05  9.542097E+04  4.227830E+05  1.161514E-09  1.534502E-08
       383  12  1.152471E+06  2.349059E+05  8.017920E+04  4.241441E+05 -7.695324E-10 -1.285357E-09
       383  13  8.986303E+05  1.580145E+05  4.270496E+04  3.488262E+05  1.511155E-09  1.581150E-09
       383  14  9.015412E+05  1.274666E+05  2.002095E+04  3.445286E+05  7.105108E-10  2.070314E-08
       383  15  8.960438E+05  1.398965E+05  1.173815E+04  3.556962E+05  1.124905E-09  4.860019E-10
       383  16  5.940623E+05  3.853112E+04 -3.991231E+04  2.608040E+05 -4.476870E-09 -4.738107E-09
       383  17  6.211048E+05  2.025022E+04 -5.538594E+04  2.663063E+05  2.203750E-09 -1.149528E-08
       383  18  6.396798E+05  4.489068E+04 -5.670847E+04  2.872736E+05  4.831395E-09  7.098091E-09
       383  19  1.203289E+06  2.775057E+05  1.253159E+05  4.368880E+05 -3.234685E+04 -3.332117E+03
       383  20  1.182054E+06  2.346886E+05  9.542183E+04  4.227830E+05 -2.143369E+04  5.289113E+02
       383  21  1.152472E+06  2.349060E+05  8.017942E+04  4.241441E+05 -1.020587E+04  3.559728E+03
       383  22  8.986314E+05  1.580148E+05  4.270694E+04  3.488263E+05 -3.226890E+04 -3.302025E+03
       383  23  9.015417E+05  1.274668E+05  2.002183E+04  3.445286E+05 -2.167847E+04  4.364458E+02
       383  24  8.960439E+05  1.398966E+05  1.173839E+04  3.556962E+05 -1.077285E+04  3.344828E+03
       383  25  5.940634E+05  3.853141E+04 -3.991034E+04  2.608041E+05 -3.219099E+04 -3.271949E+03
       383  26  6.211053E+05  2.025035E+04 -5.538504E+04  2.663063E+05 -2.192313E+04  3.440284E+02
       383  27  6.396800E+05  4.489072E+04 -5.670821E+04  2.872735E+05 -1.133958E+04  3.130022E+03
       384   1  1.101141E+06  2.207415E+05  6.444707E+04  4.109527E+05  8.441121E+03 -3.395740E+03
       384   2  1.084604E+06  1.995645E+05  5.331868E+04  3.944839E+05  5.662552E+03 -3.382743E+03
       384   3  1.051657E+06  1.992799E+05  4.481573E+04  3.975349E+05  2.860630E+03 -3.309560E+03
       384   4  8.953281E+05  1.423505E+05  9.238247E+03  3.538088E+05  8.785039E+03 -3.265393E+03
       384   5  9.033790E+05  1.308136E+05  4.693391E+03  3.444641E+05  6.030313E+03 -3.243238E+03
       384   6  8.950161E+05  1.401655E+05  2.755961E+03  3.546393E+05  3.252130E+03 -3.160929E+03
       384   7  6.895553E+05  6.396207E+04 -4.597444E+04  2.966819E+05  9.128832E+03 -3.135094E+03
       384   8  7.221857E+05  6.206462E+04 -4.393485E+04  2.944573E+05  6.397957E+03 -3.103779E+03
       384   9  7.383989E+05  8.105243E+04 -3.930598E+04  3.117534E+05  3.643521E+03 -3.012340E+03
       384  10  1.101141E+06  2.207415E+05  6.444692E+04  4.109527E+05 -4.919732E-09  1.899754E-09
       384  11  1.084604E+06  1.995645E+05  5.331860E+04  3.944839E+05 -2.981956E-09  1.685058E-08
       384  12  1.051657E+06  1.992799E+05  4.481570E+04  3.975349E+05 -3.558863E-11 -7.665495E-10
       384  13  8.953281E+05  1.423505E+05  9.238082E+03  3.538089E+05 -1.233440E-09  1.477552E-09
       384  14  9.033790E+05  1.308135E+05  4.693303E+03  3.444641E+05 -1.780411E-09 -2.116779E-09
       384  15  8.950161E+05  1.401654E+05  2.755923E+03  3.546393E+05 -1.014108E-09  5.157545E-09
       384  16  6.895552E+05  6.396204E+04 -4.597462E+04  2.966819E+05  3.786513E-09 -3.613931E-10
       384  17  7.221857E+05  6.206460E+04 -4.393494E+04  2.944573E+05 -4.805643E-09 -8.085614E-10
       384  18  7.383989E+05  8.105242E+04 -3.930602E+04  3.117534E+05 -1.456431E-09 -1.654810E-09
       384  19  1.101141E+06  2.207415E+05  6.444707E+04  4.109527E+05 -8.441121E+03  3.395740E+03
       384  20  1.084604E+06  1.995645E+05  5.331868E+04  3.944839E+05 -5.662552E+03  3.382743E+03
       384  21  1.051657E+06  1.992799E+05  4.481573E+04  3.975349E+05 -2.860630E+03  3.309560E+03
       384  22  8.953281E+05  1.423505E+05  9.238247E+03  3.538088E+05 -8.785039E+03  3.265393E+03
       384  23  9.033790E+05  1.308136E+05  4.693391E+03  3.444641E+05 -6.030313E+03  3.243238E+03
       384  24  8.950161E+05  1.401655E+05  2.755961E+03  3.546393E+05 -3.252130E+03  3.160929E+03
       384  25  6.895553E+05  6.396207E+04 -4.597444E+04  2.966819E+05 -9.128832E+03  3.135094E+03
       384  26  7.221857E+05  6.206462E+04 -4.393485E+04  2.944573E+05 -6.397957E+03  3.103779E+03
       384  27  7.383989E+05  8.105243E+04 -3.930598E+04  3.117534E+05 -3.643521E+03  3.012340E+03
       385   1  1.004976E+06  1.820463E+05  3.159786E+04  3.846476E+05  2.253448E+03 -2.873379E+03
       385   2  9.895497E+05  1.639965E+05  2.442587E+04  3.683538E+05  1.211847E+03 -2.162869E+03
       385   3  9.570903E+05  1.636464E+05  1.786796E+04  3.714499E+05  1.717660E+02 -1.456966E+03
       385   4  8.950083E+05  1.403327E+05  2.180300E+03  3.542795E+05  2.623973E+03 -2.732657E+03
       385   5  9.035096E+05  1.313736E+05  1.341509E+03  3.446262E+05  1.580732E+03 -2.022722E+03
       385   6  8.949776E+05  1.401147E+05  1.118236E+03  3.543627E+05  5.389801E+02 -1.317402E+03
       385   7  7.850524E+05  9.861988E+04 -2.723825E+04  3.239164E+05  2.994425E+03 -2.591963E+03
       385   8  8.174767E+05  9.875107E+04 -2.174350E+04  3.209015E+05  1.949561E+03 -1.882596E+03
       385   9  8.328684E+05  1.165833E+05 -1.563186E+04  3.372769E+05  9.061545E+02 -1.177853E+03
       385  10  1.004976E+06  1.820463E+05  3.159783E+04  3.846476E+05 -1.398990E-09 -3.616374E-09
       385  11  9.895497E+05  1.639965E+05  2.442586E+04  3.683538E+05  2.253190E-09  3.277348E-09
       385  12  9.570903E+05  1.636464E+05  1.786795E+04  3.714499E+05  3.461199E-09  1.760835E-09
       385  13  8.950083E+05  1.403327E+05  2.180273E+03  3.542795E+05 -2.080603E-10 -1.184529E-09
       385  14  9.035096E+05  1.313735E+05  1.341497E+03  3.446262E+05  3.237566E-09  4.496574E-09
       385  15  8.949776E+05  1.401147E+05  1.118233E+03  3.543627E+05 -2.201490E-09 -2.284011E-09
       385  16  7.850524E+05  9.861987E+04 -2.723828E+04  3.239164E+05  1.808501E-09 -6.063031E-09
       385  17  8.174767E+05  9.875106E+04 -2.174352E+04  3.209015E+05 -1.257702E-09 -3.557873E-09
       385  18  8.328684E+05  1.165833E+05 -1.563187E+04  3.372769E+05 -2.939907E-09  8.486939E-09
       385  19  1.004976E+06  1.820463E+05  3.159786E+04  3.846476E+05 -2.253448E+03  2.873379E+03
       385  20  9.895497E+05  1.639965E+05  2.442587E+04  3.683538E+05 -1.211847E+03  2.162869E+03
       385  21  9.570903E+05  1.636464E+05  1.786796E+04  3.714499E+05 -1.717660E+02  1.456966E+03
       385  22  8.950083E+05  1.403327E+05  2.180300E+03  3.542795E+05 -2.623973E+03  2.732657E+03
       385  23  9.035096E+05  1.313736E+05  1.341509E+03  3.446262E+05 -1.580732E+03  2.022722E+03
       385  24  8.949776E+05  1.401147E+05  1.118236E+03  3.543627E+05 -5.389801E+02  1.317402E+03
       385  25  7.850524E+05  9.861988E+04 -2.723825E+04  3.239164E+05 -2.994425E+03  2.591963E+03
       385  26  8.174767E+05  9.875107E+04 -2.174350E+04  3.209015E+05 -1.949561E+03  1.882596E+03
       385  27  8.328684E+05  1.165833E+05 -1.563186E+04  3.372769E+05 -9.061545E+02  1.177853E+03
       386   1  9.117277E+05  1.464273E+05  5.538915E+03  3.589764E+05 -2.272395E+02 -9.693567E+02
       386   2  8.965104E+05  1.287843E+05 -3.918558E+02  3.427687E+05 -1.331133E+03 -2.935561E+02
       386   3  8.644625E+05  1.287027E+05 -5.648869E+03  3.457181E+05 -2.433096E+03  3.773818E+02
       386   4  8.950209E+05  1.400647E+05  1.139809E+03  3.543186E+05  1.397937E+02 -8.298434E+02
       386   5  9.034560E+05  1.314216E+05  1.472344E+03  3.446878E+05 -9.659821E+02 -1.547639E+02
       386   6  8.950603E+05  1.403400E+05  2.480109E+03  3.542139E+05 -2.069858E+03  5.154431E+02
       386   7  8.783143E+05  1.337023E+05 -3.259320E+03  3.496610E+05  5.068162E+02 -6.903343E+02
       386   8  9.104017E+05  1.340588E+05  3.336539E+03  3.466070E+05 -6.008270E+02 -1.597013E+01
       386   9  9.256590E+05  1.519773E+05  1.060899E+04  3.627100E+05 -1.706601E+03  6.535117E+02
       386  10  9.117277E+05  1.464273E+05  5.538913E+03  3.589764E+05  1.260897E-09 -3.901447E-09
       386  11  8.965104E+05  1.287843E+05 -3.918593E+02  3.427687E+05 -1.864832E-09 -1.576697E-09
       386  12  8.644625E+05  1.287027E+05 -5.648880E+03  3.457181E+05 -4.877041E-10 -7.415233E-09
       386  13  8.950209E+05  1.400647E+05  1.139808E+03  3.543186E+05 -1.195544E-09 -8.801766E-09
       386  14  9.034560E+05  1.314216E+05  1.472343E+03  3.446878E+05  6.092858E-09 -6.238279E-10
       386  15  8.950603E+05  1.403400E+05  2.480101E+03  3.542139E+05  3.913900E-09 -1.392174E-08
       386  16  8.783143E+05  1.337023E+05 -3.259321E+03  3.496610E+05  2.023140E-09  5.643422E-09
       386  17  9.104017E+05  1.340588E+05  3.336538E+03  3.466070E+05  3.713475E-09  1.155519E-08
       386  18  9.256590E+05  1.519773E+05  1.060898E+04  3.627100E+05  7.425242E-10 -5.730061E-09
       386  19  9.117277E+05  1.464273E+05  5.538915E+03  3.589764E+05  2.272395E+02  9.693567E+02
       386  20  8.965104E+05  1.287843E+05 -3.918558E+02  3.427687E+05  1.331133E+03  2.935561E+02
       386  21  8.644625E+05  1.287027E+05 -5.648869E+03  3.457181E+05  2.433096E+03 -3.773818E+02
       386  22  8.950209E+05  1.400647E+05  1.139809E+03  3.543186E+05 -1.397937E+02  8.298434E+02
       386  23  9.034560E+05  1.314216E+05  1.472344E+03  3.446878E+05  9.659821E+02  1.547639E+02
       386  24  8.950603E+05  1.403400E+05  2.480109E+03  3.542139E+05  2.069858E+03 -5.154431E+02
       386  25  8.783143E+05  1.337023E+05 -3.259320E+03  3.496610E+05 -5.068162E+02  6.903343E+02
       386  26  9.104017E+05  1.340588E+05  3.336539E+03  3.466070E+05  6.008270E+02  1.597013E+01
       386  27  9.256590E+05  1.519773E+05  1.060899E+04  3.627100E+05  1.706601E+03 -6.535117E+02
       387   1  8.188605E+05  1.113969E+05 -1.735012E+04  3.337934E+05 -3.129781E+03  7.625106E+02
       387   2  8.031420E+05  9.287839E+04 -2.144029E+04  3.169668E+05 -6.248967E+03  6.844593E+02
       387   3  7.717469E+05  9.514669E+04 -2.254585E+04  3.188842E+05 -9.347309E+03  5.525676E+02
       387   4  8.951684E+05  1.400329E+05  3.154907E+03  3.545108E+05 -2.749619E+03  9.069823E+02
       387   5  9.031872E+05  1.309113E+05  5.422226E+03  3.446544E+05 -5.889871E+03  8.208644E+02
       387   6  8.955332E+05  1.425804E+05  1.069061E+04  3.535418E+05 -9.009393E+03  6.808649E+02
       387   7  9.714821E+05  1.686693E+05  2.365947E+04  3.752305E+05 -2.369404E+03  1.051473E+03
       387   8  1.003242E+06  1.689450E+05  3.228390E+04  3.723460E+05 -5.530710E+03  9.572941E+02
       387   9  1.019334E+06  1.900151E+05  4.392571E+04  3.882056E+05 -8.671402E+03  8.091912E+02
       387  10  8.188605E+05  1.113969E+05 -1.735014E+04  3.337934E+05  3.117476E-09 -1.874855E-08
       387  11  8.031419E+05  9.287838E+04 -2.144037E+04  3.169668E+05  4.447202E-09 -1.732516E-08
       387  12  7.717468E+05  9.514667E+04 -2.254601E+04  3.188842E+05 -1.270153E-08  9.926637E-09
       387  13  8.951684E+05  1.400329E+05  3.154892E+03  3.545108E+05  8.896940E-11 -6.233709E-09
       387  14  9.031871E+05  1.309113E+05  5.422159E+03  3.446544E+05 -5.322277E-11 -1.351411E-08
       387  15  8.955331E+05  1.425803E+05  1.069045E+04  3.535418E+05 -3.535519E-10  1.147901E-09
       387  16  9.714821E+05  1.686693E+05  2.365946E+04  3.752305E+05  3.319060E-09  1.387503E-08
       387  17  1.003242E+06  1.689450E+05  3.228384E+04  3.723460E+05  1.133742E-09  5.132426E-09
       387  18  1.019334E+06  1.900151E+05  4.392557E+04  3.882056E+05  9.835804E-09  9.409226E-09
       387  19  8.188605E+05  1.113969E+05 -1.735012E+04  3.337934E+05  3.129781E+03 -7.625106E+02
       387  20  8.031420E+05  9.287839E+04 -2.144029E+04  3.169668E+05  6.248967E+03 -6.844593E+02
       387  21  7.717469E+05  9.514669E+04 -2.254585E+04  3.188842E+05  9.347309E+03 -5.525676E+02
       387  22  8.951684E+05  1.400329E+05  3.154907E+03  3.545108E+05  2.749619E+03 -9.069823E+02
       387  23  9.031872E+05  1.309113E+05  5.422226E+03  3.446544E+05  5.889871E+03 -8.208644E+02
       387  24  8.955332E+05  1.425804E+05  1.069061E+04  3.535418E+05  9.009393E+03 -6.808649E+02
       387  25  9.714821E+05  1.686693E+05  2.365947E+04  3.752305E+05  2.369404E+03 -1.051473E+03
       387  26  1.003242E+06  1.689450E+05  3.228390E+04  3.723460E+05  5.530710E+03 -9.572941E+02
       387  27  1.019334E+06  1.900151E+05  4.392571E+04  3.882056E+05  8.671402E+03 -8.091912E+02
       388   1  7.238440E+05  7.660794E+04 -3.233914E+04  3.105073E+05 -1.175874E+04  4.098173E+02
       388   2  7.059363E+05  5.209233E+04 -2.933713E+04  2.899499E+05 -2.405194E+04 -3.091211E+03
       388   3  6.820931E+05  7.335343E+04 -9.872338E+03  2.827828E+05 -3.609541E+04 -7.247577E+03
       388   4  8.964760E+05  1.396094E+05  1.358590E+04  3.555901E+05 -1.124539E+04  6.047354E+02
       388   5  9.009246E+05  1.271977E+05  2.319761E+04  3.449083E+05 -2.379304E+04 -2.993130E+03
       388   6  8.994842E+05  1.606066E+05  4.946949E+04  3.476165E+05 -3.609151E+04 -7.246593E+03
       388   7  1.069136E+06  2.026121E+05  5.950826E+04  4.006840E+05 -1.073188E+04  7.997078E+02
       388   8  1.095950E+06  2.023057E+05  7.572897E+04  3.998824E+05 -2.353405E+04 -2.895013E+03
       388   9  1.116921E+06  2.478645E+05  1.088072E+05  4.124714E+05 -3.608759E+04 -7.245607E+03
       388  10  7.238439E+05  7.660790E+04 -3.233940E+04  3.105073E+05 -5.497735E-10  1.677673E-08
       388  11  7.059356E+05  5.209216E+04 -2.933823E+04  2.899498E+05  1.199615E-09 -3.925165E-10
       388  12  6.820916E+05  7.335303E+04 -9.874882E+03  2.827825E+05 -7.733709E-09 -2.435939E-09
       388  13  8.964759E+05  1.396094E+05  1.358566E+04  3.555902E+05 -1.056129E-09  3.191858E-09
       388  14  9.009240E+05  1.271975E+05  2.319653E+04  3.449083E+05  1.321535E-09  5.983960E-09
       388  15  8.994828E+05  1.606062E+05  4.946695E+04  3.476163E+05 -2.506611E-09 -4.249454E-10
       388  16  1.069136E+06  2.026120E+05  5.950804E+04  4.006840E+05 -1.852859E-09  1.343125E-08
       388  17  1.095949E+06  2.023055E+05  7.572791E+04  3.998824E+05  1.493739E-09 -1.596777E-08
       388  18  1.116920E+06  2.478641E+05  1.088046E+05  4.124712E+05  4.156204E-09  4.023309E-09
       388  19  7.238440E+05  7.660794E+04 -3.233914E+04  3.105073E+05  1.175874E+04 -4.098173E+02
       388  20  7.059363E+05  5.209233E+04 -2.933713E+04  2.899499E+05  2.405194E+04  3.091211E+03
       388  21  6.820931E+05  7.335343E+04 -9.872338E+03  2.827828E+05  3.609541E+04  7.247577E+03
       388  22  8.964760E+05  1.396094E+05  1.358590E+04  3.555901E+05  1.124539E+04 -6.047354E+02
       388  23  9.009246E+05  1.271977E+05  2.319761E+04  3.449083E+05  2.379304E+04  2.993130E+03
       388  24  8.994842E+05  1.606066E+05  4.946949E+04  3.476165E+05  3.609151E+04  7.246593E+03
       388  25  1.069136E+06  2.026121E+05  5.950826E+04  4.006840E+05  1.073188E+04 -7.997078E+02
       388  26  1.095950E+06  2.023057E+05  7.572897E+04  3.998824E+05  2.353405E+04  2.895013E+03
       388  27  1.116921E+06  2.478645E+05  1.088072E+05  4.124714E+05  3.608759E+04  7.245607E+03
       389   1  6.229865E+05  4.660002E+04 -1.193294E+04  3.041431E+05 -4.730206E+04 -9.636010E+03
       389   2  5.946514E+05 -2.177629E+04  1.880986E+04  2.577063E+05 -9.905155E+04 -2.780704E+04
       389   3  6.384881E+05  1.521727E+05  1.490406E+05  1.745012E+05 -1.482202E+05 -5.278113E+04
       389   4  9.069835E+05  1.349674E+05  6.049908E+04  3.627792E+05 -4.553093E+04 -8.962841E+03
       389   5  8.828574E+05  9.890592E+04  9.820416E+04  3.488257E+05 -9.990757E+04 -2.813400E+04
       389   6  9.313781E+05  3.056195E+05  2.374411E+05  2.981146E+05 -1.517043E+05 -5.411309E+04
       389   7  1.191059E+06  2.233343E+05  1.329250E+05  4.214367E+05 -4.375890E+04 -8.289467E+03
       389   8  1.171143E+06  2.195981E+05  1.775905E+05  4.399846E+05 -1.007640E+05 -2.846116E+04
       389   9  1.224353E+06  4.590965E+05  3.258325E+05  4.217873E+05 -1.551902E+05 -5.544630E+04
       389  10  6.229841E+05  4.659932E+04 -1.193731E+04  3.041427E+05 -5.947817E-09  1.692965E-08
       389  11  5.946407E+05 -2.177975E+04  1.878999E+04  2.577041E+05 -6.160236E-09 -4.037436E-09
       389  12  6.384638E+05  1.521639E+05  1.489941E+05  1.744949E+05  4.938403E-10 -3.609203E-09
       389  13  9.069813E+05  1.349668E+05  6.049504E+04  3.627789E+05 -2.204356E-09 -5.403599E-09
       389  14  8.828465E+05  9.890239E+04  9.818395E+04  3.488234E+05 -2.222355E-09  1.635415E-08
       389  15  9.313526E+05  3.056102E+05  2.373924E+05  2.981080E+05 -1.111142E-09 -1.874821E-09
       389  16  1.191057E+06  2.233337E+05  1.329213E+05  4.214364E+05  1.193443E-09  1.226897E-08
       389  17  1.171132E+06  2.195945E+05  1.775700E+05  4.399823E+05 -4.918376E-09 -1.543673E-11
       389  18  1.224326E+06  4.590867E+05  3.257816E+05  4.217804E+05 -1.989110E-09  6.717567E-09
       389  19  6.229865E+05  4.660002E+04 -1.193294E+04  3.041431E+05  4.730206E+04  9.636010E+03
       389  20  5.946514E+05 -2.177629E+04  1.880986E+04  2.577063E+05  9.905155E+04  2.780704E+04
       389  21  6.384881E+05  1.521727E+05  1.490406E+05  1.745012E+05  1.482202E+05  5.278113E+04
       389  22  9.069835E+05  1.349674E+05  6.049908E+04  3.627792E+05  4.553093E+04  8.962841E+03
       389  23  8.828574E+05  9.890592E+04  9.820416E+04  3.488257E+05  9.990757E+04  2.813400E+04
       389  24  9.313781E+05  3.056195E+05  2.374411E+05  2.981146E+05  1.517043E+05  5.411309E+04
       389  25  1.191059E+06  2.233343E+05  1.329250E+05  4.214367E+05  4.375890E+04  8.289467E+03
       389  26  1.171143E+06  2.195981E+05  1.775905E+05  4.399846E+05  1.007640E+05  2.846116E+04
       389  27  1.224353E+06  4.590965E+05  3.258325E+05  4.217873E+05  1.551902E+05  5.544630E+04
       390   1 -1.950759E+05 -1.073706E+06 -1.999200E+05  8.786262E+04 -5.547523E+03 -2.534209E+04
       390   2 -1.302472E+05 -9.202499E+05 -1.446243E+05  1.449978E+04 -1.508424E+04 -1.179741E+04
       390   3 -9.704229E+04 -7.751272E+05 -1.058184E+05  7.829514E+04 -9.426945E+03  1.786718E+03
       390   4 -2.291670E+04 -3.846455E+05 -2.899024E+04  8.044784E+04 -5.565608E+03 -1.838770E+04
       390   5  3.876001E+03 -3.809991E+05 -1.372139E+04  1.190244E+04 -1.508517E+04 -1.102603E+04
       390   6  1.357837E+02 -3.846236E+05 -1.063291E+04  8.050909E+04 -9.416308E+03 -3.628356E+03
       390   7  1.492071E+05  3.048467E+05  1.419043E+05  7.302507E+04 -5.583850E+03 -1.142557E+04
       390   8  1.379778E+05  1.585176E+05  1.171606E+05  9.302978E+03 -1.508610E+04 -1.025399E+04
       390   9  9.730264E+04  6.019314E+03  8.454160E+04  8.272449E+04 -9.405713E+03 -9.046829E+03
       390  10 -1.950761E+05 -1.073706E+06 -1.999213E+05  8.786251E+04  9.483899E-10  7.329906E-09
       390  11 -1.302475E+05 -9.202501E+05 -1.446250E+05  1.449964E+04  6.339387E-10 -5.344968E-09
       390  12 -9.704239E+04 -7.751273E+05 -1.058186E+05  7.829515E+04 -2.039114E-09 -4.781956E-09
       390  13 -2.291683E+04 -3.846458E+05 -2.899094E+04  8.044775E+04  1.922078E-09  1.128562E-10
       390  14  3.875724E+03 -3.809993E+05 -1.372205E+04  1.190230E+04 -8.437123E-10  4.670067E-09
       390  15  1.356850E+02 -3.846237E+05 -1.063311E+04  8.050906E+04 -2.625619E-09  2.958278E-09
       390  16  1.492070E+05  3.048466E+05  1.419040E+05  7.302502E+04  4.208893E-10  9.689946E-10
       390  17  1.379776E+05  1.585174E+05  1.171599E+05  9.302853E+03  3.596795E-10  5.786366E-09
       390  18  9.730253E+04  6.019203E+03  8.454128E+04  8.272442E+04 -2.177710E-09  2.672068E-09
       390  19 -1.950759E+05 -1.073706E+06 -1.999200E+05  8.786262E+04  5.547523E+03  2.534209E+04
       390  20 -1.302472E+05 -9.202499E+05 -1.446243E+05  1.449978E+04  1.508424E+04  1.179741E+04
       390  21 -9.704229E+04 -7.751272E+05 -1.058184E+05  7.829514E+04  9.426945E+03 -1.786718E+03
       390  22 -2.291670E+04 -3.846455E+05 -2.899024E+04  8.044784E+04  5.565608E+03  1.838770E+04
       390  23  3.876001E+03 -3.809991E+05 -1.372139E+04  1.190244E+04  1.508517E+04  1.102603E+04
       390  24  1.357837E+02 -3.846236E+05 -1.063291E+04  8.050909E+04  9.416308E+03  3.628356E+03
       390  25  1.492071E+05  3.048467E+05  1.419043E+05  7.302507E+04  5.583850E+03  1.142557E+04
       390  26  1.379778E+05  1.585176E+05  1.171606E+05  9.302978E+03  1.508610E+04  1.025399E+04
       390  27  9.730264E+04  6.019314E+03  8.454160E+04  8.272449E+04  9.405713E+03  9.046829E+03
       391   1 -3.478270E+04 -5.122673E+05 -4.130488E+04  8.217165E+04 -3.672791E+03 -7.000880E+01
       391   2  6.617835E+03 -3.611050E+05 -4.241008E+03  1.149378E+04  5.425466E+02  4.751974E+03
       391   3  3.706069E+04 -2.126258E+05  2.707569E+04  7.881693E+04  4.684095E+03  9.575206E+03
       391   4 -2.780982E+03 -3.835703E+05 -1.008855E+04  8.067937E+04 -3.669649E+03 -1.807769E+03
       391   5  1.366336E+03 -3.822164E+05 -9.374773E+03  1.167600E+04  5.457093E+02  3.044309E+03
       391   6 -5.447917E+03 -3.835717E+05 -1.442776E+04  8.067434E+04  4.687244E+03  7.896489E+03
       391   7  2.921952E+04 -2.548582E+05  2.112660E+04  7.918680E+04 -3.666499E+03 -3.545889E+03
       391   8 -3.885195E+03 -4.033273E+05 -1.450856E+04  1.185821E+04  5.488710E+02  1.336702E+03
       391   9 -4.795866E+04 -5.544910E+05 -5.593331E+04  8.253124E+04  4.690383E+03  6.218232E+03
       391  10 -3.478271E+04 -5.122673E+05 -4.130490E+04  8.217165E+04 -2.131249E-09  1.209482E-09
       391  11  6.617828E+03 -3.611050E+05 -4.241051E+03  1.149377E+04  9.576339E-10 -8.393855E-09
       391  12  3.706064E+04 -2.126259E+05  2.707548E+04  7.881690E+04 -9.383353E-10 -6.337974E-09
       391  13 -2.780998E+03 -3.835703E+05 -1.008858E+04  8.067937E+04 -2.734525E-09  4.316382E-09
       391  14  1.366333E+03 -3.822164E+05 -9.374791E+03  1.167600E+04  1.316435E-09  7.604988E-09
       391  15 -5.447957E+03 -3.835718E+05 -1.442792E+04  8.067431E+04 -5.703322E-11 -1.501965E-09
       391  16  2.921951E+04 -2.548582E+05  2.112655E+04  7.918679E+04 -1.913496E-09  5.118853E-09
       391  17 -3.885195E+03 -4.033273E+05 -1.450856E+04  1.185821E+04 -1.209531E-09  6.199315E-09
       391  18 -4.795869E+04 -5.544910E+05 -5.593343E+04  8.253121E+04 -1.172432E-09  1.488150E-09
       391  19 -3.478270E+04 -5.122673E+05 -4.130488E+04  8.217165E+04  3.672791E+03  7.000880E+01
       391  20  6.617835E+03 -3.611050E+05 -4.241008E+03  1.149378E+04 -5.425466E+02 -4.751974E+03
       391  21  3.706069E+04 -2.126258E+05  2.707569E+04  7.881693E+04 -4.684095E+03 -9.575206E+03
       391  22 -2.780982E+03 -3.835703E+05 -1.008855E+04  8.067937E+04  3.669649E+03  1.807769E+03
       391  23  1.366336E+03 -3.822164E+05 -9.374773E+03  1.167600E+04 -5.457093E+02 -3.044309E+03
       391  24 -5.447917E+03 -3.835717E+05 -1.442776E+04  8.067434E+04 -4.687244E+03 -7.896489E+03
       391  25  2.921952E+04 -2.548582E+05  2.112660E+04  7.918680E+04  3.666499E+03  3.545889E+03
       391  26 -3.885195E+03 -4.033273E+05 -1.450856E+04  1.185821E+04 -5.488710E+02 -1.336702E+03
       391  27 -4.795866E+04 -5.544910E+05 -5.593331E+04  8.253124E+04 -4.690383E+03 -6.218232E+03
       392   1  1.090681E+05  4.653497E+04  8.868470E+04  8.506564E+04  1.052365E+04  1.620959E+04
       392   2  1.520429E+05  2.026323E+05  1.162120E+05  7.666468E+03  1.620159E+04  2.316543E+04
       392   3  1.384850E+05  3.451520E+05  1.253753E+05  6.724343E+04  5.903242E+03  3.008364E+04
       392   4  1.428296E+03 -3.862912E+05 -1.673225E+04  8.049201E+04  1.053484E+04  1.062088E+04
       392   5  7.482880E+03 -3.789328E+05 -2.487697E+04  1.193637E+04  1.620046E+04  2.408581E+04
       392   6 -4.415289E+04 -3.863186E+05 -5.592068E+04  8.036669E+04  5.883417E+03  3.751122E+04
       392   7 -1.062253E+05 -8.189462E+05 -1.221627E+05  7.592165E+04  1.054612E+04  5.036057E+03
       392   8 -1.371019E+05 -9.601889E+05 -1.659903E+05  1.620245E+04  1.619935E+04  2.500532E+04
       392   9 -2.268303E+05 -1.117303E+06 -2.372563E+05  9.347480E+04  5.863895E+03  4.493003E+04
       392  10  1.090680E+05  4.653466E+04  8.868400E+04  8.506550E+04  7.428448E-10  1.408746E-09
       392  11  1.520424E+05  2.026316E+05  1.162105E+05  7.666166E+03  1.345155E-09 -7.266781E-09
       392  12  1.384847E+05  3.451510E+05  1.253736E+05  6.724328E+04 -2.471489E-10 -4.275319E-09
       392  13  1.428147E+03 -3.862913E+05 -1.673268E+04  8.049192E+04 -1.750382E-09 -6.738935E-11
       392  14  7.482443E+03 -3.789335E+05 -2.487855E+04  1.193606E+04  2.348440E-09  2.805006E-09
       392  15 -4.415330E+04 -3.863202E+05 -5.592339E+04  8.036652E+04  2.936891E-10 -2.165460E-09
       392  16 -1.062254E+05 -8.189463E+05 -1.221629E+05  7.592161E+04 -8.354637E-10  3.193578E-09
       392  17 -1.371023E+05 -9.601897E+05 -1.659920E+05  1.620212E+04  2.732006E-09  8.502140E-09
       392  18 -2.268309E+05 -1.117305E+06 -2.372602E+05  9.347459E+04 -7.329481E-10 -3.798716E-09
       392  19  1.090681E+05  4.653497E+04  8.868470E+04  8.506564E+04 -1.052365E+04 -1.620959E+04
       392  20  1.520429E+05  2.026323E+05  1.162120E+05  7.666468E+03 -1.620159E+04 -2.316543E+04
       392  21  1.384850E+05  3.451520E+05  1.253753E+05  6.724343E+04 -5.903242E+03 -3.008364E+04
       392  22  1.428296E+03 -3.862912E+05 -1.673225E+04  8.049201E+04 -1.053484E+04 -1.062088E+04
       392  23  7.482880E+03 -3.789328E+05 -2.487697E+04  1.193637E+04 -1.620046E+04 -2.408581E+04
       392  24 -4.415289E+04 -3.863186E+05 -5.592068E+04  8.036669E+04 -5.883417E+03 -3.751122E+04
       392  25 -1.062253E+05 -8.189462E+05 -1.221627E+05  7.592165E+04 -1.054612E+04 -5.036057E+03
       392  26 -1.371019E+05 -9.601889E+05 -1.659903E+05  1.620245E+04 -1.619935E+04 -2.500532E+04
       392  27 -2.268303E+05 -1.117303E+06 -2.372563E+05  9.347480E+04 -5.863895E+03 -4.493003E+04
       393   1  9.151846E+05 -2.151112E+04 -1.105086E+04 -1.550469E+03  2.976148E+04  1.215458E+03
       393   2  9.194135E+05 -6.069264E+04 -3.355527E+04  4.349790E+03  1.991375E+04  3.390645E+03
       393   3  9.373126E+05 -5.163103E+04 -3.752834E+04 -8.925927E+03  1.006942E+04  2.739231E+03
       393   4  1.139235E+06  3.438630E+04  4.472945E+04 -6.389151E+03  3.054807E+04  1.216355E+03
       393   5  1.132358E+06 -7.614504E+03  1.914645E+04  3.224492E+03  2.008579E+04  3.390735E+03
       393   6  1.139253E+06 -1.274523E+03  1.251623E+04 -6.337345E+03  9.627082E+03  2.738821E+03
       393   7  1.363331E+06  9.028005E+04  1.005060E+05 -1.122959E+04  3.133495E+04  1.217241E+03
       393   8  1.345344E+06  4.546026E+04  7.184481E+04  2.098795E+03  2.025789E+04  3.390825E+03
       393   9  1.341231E+06  4.907896E+04  6.255777E+04 -3.747929E+03  9.184601E+03  2.738407E+03
       393  10  9.151836E+05 -2.151136E+04 -1.105253E+04 -1.550498E+03  7.631454E-10 -1.642406E-10
       393  11  9.194130E+05 -6.069276E+04 -3.355604E+04  4.349736E+03  1.130297E-10 -3.542400E-11
       393  12  9.373125E+05 -5.163106E+04 -3.752854E+04 -8.925949E+03 -1.068797E-10  8.258516E-11
       393  13  1.139234E+06  3.438605E+04  4.472769E+04 -6.389181E+03  8.056999E-12 -1.073815E-10
       393  14  1.132358E+06 -7.614624E+03  1.914567E+04  3.224437E+03  3.416853E-10 -1.478442E-10
       393  15  1.139253E+06 -1.274556E+03  1.251604E+04 -6.337366E+03  1.901984E-11  2.622854E-11
       393  16  1.363330E+06  9.027979E+04  1.005042E+05 -1.122962E+04  4.449139E-10 -2.249012E-10
       393  17  1.345344E+06  4.546013E+04  7.184401E+04  2.098740E+03 -1.328328E-10 -1.725884E-10
       393  18  1.341231E+06  4.907893E+04  6.255760E+04 -3.747949E+03 -2.861063E-10 -3.670834E-11
       393  19  9.151846E+05 -2.151112E+04 -1.105086E+04 -1.550469E+03 -2.976148E+04 -1.215458E+03
       393  20  9.194135E+05 -6.069264E+04 -3.355527E+04  4.349790E+03 -1.991375E+04 -3.390645E+03
       393  21  9.373126E+05 -5.163103E+04 -3.752834E+04 -8.925927E+03 -1.006942E+04 -2.739231E+03
       393  22  1.139235E+06  3.438630E+04  4.472945E+04 -6.389151E+03 -3.054807E+04 -1.216355E+03
       393  23  1.132358E+06 -7.614504E+03  1.914645E+04  3.224492E+03 -2.008579E+04 -3.390735E+03
       393  24  1.139253E+06 -1.274523E+03  1.251623E+04 -6.337345E+03 -9.627082E+03 -2.738821E+03
       393  25  1.363331E+06  9.028005E+04  1.005060E+05 -1.122959E+04 -3.133495E+04 -1.217241E+03
       393  26  1.345344E+06  4.546026E+04  7.184481E+04  2.098795E+03 -2.025789E+04 -3.390825E+03
       393  27  1.341231E+06  4.907896E+04  6.255777E+04 -3.747929E+03 -9.184601E+03 -2.738407E+03
       394   1  9.808665E+05 -3.388146E+04 -2.828082E+04 -4.831197E+03  7.529223E+03  2.087436E+03
       394   2  9.884255E+05 -3.779387E+04 -3.146348E+04  2.196743E+03  4.993675E+03  2.101233E+03
       394   3  9.982149E+05 -3.470896E+04 -3.121728E+04 -5.835550E+03  2.458171E+03  1.776037E+03
       394   4  1.136692E+06  4.969657E+03  1.033699E+04 -5.441529E+03  7.570547E+03  2.087426E+03
       394   5  1.135572E+06 -1.109466E+03  4.984895E+03  2.090340E+03  4.961111E+03  2.101182E+03
       394   6  1.136694E+06 -1.793620E+02  3.112304E+03 -5.437795E+03  2.351753E+03  1.775978E+03
       394   7  1.292539E+06  4.381896E+04  4.895300E+04 -6.052019E+03  7.611882E+03  2.087415E+03
       394   8  1.282737E+06  3.557332E+04  4.143166E+04  1.983908E+03  4.928538E+03  2.101132E+03
       394   9  1.275191E+06  3.434880E+04  3.744046E+04 -5.039953E+03  2.245311E+03  1.775919E+03
       394  10  9.808665E+05 -3.388148E+04 -2.828093E+04 -4.831210E+03  4.442648E-10  3.179670E-10
       394  11  9.884254E+05 -3.779388E+04 -3.146354E+04  2.196735E+03  4.946794E-11 -1.973922E-11
       394  12  9.982149E+05 -3.470897E+04 -3.121730E+04 -5.835553E+03 -8.038994E-11 -2.184038E-10
       394  13  1.136692E+06  4.969637E+03  1.033688E+04 -5.441542E+03 -7.616633E-11  1.294217E-12
       394  14  1.135572E+06 -1.109478E+03  4.984840E+03  2.090331E+03  7.716227E-11 -1.668453E-10
       394  15  1.136694E+06 -1.793669E+02  3.112288E+03 -5.437798E+03 -1.634388E-11 -9.596626E-11
       394  16  1.292539E+06  4.381894E+04  4.895288E+04 -6.052032E+03  1.325275E-10 -1.520847E-11
       394  17  1.282737E+06  3.557331E+04  4.143161E+04  1.983900E+03 -7.987917E-11 -4.293380E-10
       394  18  1.275191E+06  3.434880E+04  3.744045E+04 -5.039956E+03 -4.258813E-11 -9.923447E-11
       394  19  9.808665E+05 -3.388146E+04 -2.828082E+04 -4.831197E+03 -7.529223E+03 -2.087436E+03
       394  20  9.884255E+05 -3.779387E+04 -3.146348E+04  2.196743E+03 -4.993675E+03 -2.101233E+03
       394  21  9.982149E+05 -3.470896E+04 -3.121728E+04 -5.835550E+03 -2.458171E+03 -1.776037E+03
       394  22  1.136692E+06  4.969657E+03  1.033699E+04 -5.441529E+03 -7.570547E+03 -2.087426E+03
       394  23  1.135572E+06 -1.109466E+03  4.984895E+03  2.090340E+03 -4.961111E+03 -2.101182E+03
       394  24  1.136694E+06 -1.793620E+02  3.112304E+03 -5.437795E+03 -2.351753E+03 -1.775978E+03
       394  25  1.292539E+06  4.381896E+04  4.895300E+04 -6.052019E+03 -7.611882E+03 -2.087415E+03
       394  26  1.282737E+06  3.557332E+04  4.143166E+04  1.983908E+03 -4.928538E+03 -2.101132E+03
       394  27  1.275191E+06  3.434880E+04  3.744046E+04 -5.039953E+03 -2.245311E+03 -1.775919E+03
       395   1  1.034744E+06 -2.460314E+04 -2.264014E+04 -4.757598E+03  1.893824E+03  1.551706E+03
       395   2  1.041637E+06 -2.371016E+04 -2.205334E+04  1.340001E+03  1.209656E+03  1.317782E+03
       395   3  1.048932E+06 -2.179722E+04 -2.075505E+04 -4.881884E+03  5.254028E+02  1.073609E+03
       395   4  1.136288E+06  7.086964E+02  2.497197E+03 -4.830013E+03  1.844577E+03  1.551678E+03
       395   5  1.136087E+06 -1.632529E+02  1.345323E+03  1.329754E+03  1.158094E+03  1.317764E+03
       395   6  1.136288E+06 -1.488155E+01  9.064974E+02 -4.829847E+03  4.715326E+02  1.073601E+03
       395   7  1.237840E+06  2.601976E+04  2.763377E+04 -4.902441E+03  1.795323E+03  1.551650E+03
       395   8  1.230544E+06  2.338299E+04  2.474332E+04  1.319505E+03  1.106524E+03  1.317745E+03
       395   9  1.223650E+06  2.176688E+04  2.256747E+04 -4.777802E+03  4.176548E+02  1.073593E+03
       395  10  1.034744E+06 -2.460314E+04 -2.264015E+04 -4.757600E+03  1.045425E-10 -5.884838E-11
       395  11  1.041637E+06 -2.371017E+04 -2.205335E+04  1.340000E+03  5.518212E-11  2.788847E-10
       395  12  1.048932E+06 -2.179722E+04 -2.075505E+04 -4.881885E+03 -5.134106E-11  2.043273E-10
       395  13  1.136288E+06  7.086929E+02  2.497186E+03 -4.830015E+03 -1.098292E-10  3.979410E-11
       395  14  1.136087E+06 -1.632551E+02  1.345317E+03  1.329753E+03 -5.198824E-11 -8.342210E-11
       395  15  1.136288E+06 -1.488285E+01  9.064949E+02 -4.829847E+03 -2.438934E-11  2.527868E-10
       395  16  1.237840E+06  2.601976E+04  2.763376E+04 -4.902443E+03  8.305918E-11 -6.445893E-11
       395  17  1.230544E+06  2.338299E+04  2.474332E+04  1.319504E+03 -1.162348E-10 -2.788566E-11
       395  18  1.223650E+06  2.176688E+04  2.256747E+04 -4.777802E+03  6.723900E-11 -5.856812E-11
       395  19  1.034744E+06 -2.460314E+04 -2.264014E+04 -4.757598E+03 -1.893824E+03 -1.551706E+03
       395  20  1.041637E+06 -2.371016E+04 -2.205334E+04  1.340001E+03 -1.209656E+03 -1.317782E+03
       395  21  1.048932E+06 -2.179722E+04 -2.075505E+04 -4.881884E+03 -5.254028E+02 -1.073609E+03
       395  22  1.136288E+06  7.086964E+02  2.497197E+03 -4.830013E+03 -1.844577E+03 -1.551678E+03
       395  23  1.136087E+06 -1.632529E+02  1.345323E+03  1.329754E+03 -1.158094E+03 -1.317764E+03
       395  24  1.136288E+06 -1.488155E+01  9.064974E+02 -4.829847E+03 -4.715326E+02 -1.073601E+03
       395  25  1.237840E+06  2.601976E+04  2.763377E+04 -4.902441E+03 -1.795323E+03 -1.551650E+03
       395  26  1.230544E+06  2.338299E+04  2.474332E+04  1.319505E+03 -1.106524E+03 -1.317745E+03
       395  27  1.223650E+06  2.176688E+04  2.256747E+04 -4.777802E+03 -4.176548E+02 -1.073593E+03
       396   1  1.079904E+06 -1.393921E+04 -1.314970E+04 -4.447340E+03  3.706101E+02  9.294887E+02
       396   2  1.085996E+06 -1.254508E+04 -1.178264E+04  8.824241E+02  4.210651E+01  6.966215E+02
       396   3  1.092200E+06 -1.092056E+04 -1.014210E+04 -4.470406E+03 -2.864461E+02  4.817096E+02
       396   4  1.136224E+06  9.756191E+01  7.824918E+02 -4.466151E+03  3.183172E+02  9.294876E+02
       396   5  1.136169E+06 -3.689630E+01  6.471645E+02  8.751216E+02 -6.328131E+00  6.966250E+02
       396   6  1.136224E+06  5.833822E+01  7.826162E+02 -4.466146E+03 -3.310192E+02  4.817174E+02
       396   7  1.192548E+06  1.413409E+04  1.471445E+04 -4.484963E+03  2.660196E+02  9.294865E+02
       396   8  1.186344E+06  1.247110E+04  1.307678E+04  8.678186E+02 -5.476668E+01  6.966286E+02
       396   9  1.180250E+06  1.103709E+04  1.170718E+04 -4.461886E+03 -3.755954E+02  4.817251E+02
       396  10  1.079904E+06 -1.393921E+04 -1.314970E+04 -4.447340E+03  8.097059E-12  3.040422E-10
       396  11  1.085996E+06 -1.254508E+04 -1.178264E+04  8.824241E+02  2.242263E-10 -2.222475E-10
       396  12  1.092200E+06 -1.092056E+04 -1.014210E+04 -4.470405E+03  7.121893E-11 -1.206023E-10
       396  13  1.136224E+06  9.756096E+01  7.824900E+02 -4.466151E+03 -1.338886E-10  1.726763E-10
       396  14  1.136169E+06 -3.689682E+01  6.471636E+02  8.751216E+02 -5.571245E-11  1.413204E-10
       396  15  1.136224E+06  5.833794E+01  7.826156E+02 -4.466146E+03 -3.045079E-10 -3.070937E-10
       396  16  1.192548E+06  1.413409E+04  1.471444E+04 -4.484963E+03 -6.903203E-11  3.582021E-10
       396  17  1.186344E+06  1.247110E+04  1.307678E+04  8.678187E+02 -1.391207E-10 -1.247775E-11
       396  18  1.180250E+06  1.103709E+04  1.170718E+04 -4.461886E+03 -1.547824E-11 -4.019874E-10
       396  19  1.079904E+06 -1.393921E+04 -1.314970E+04 -4.447340E+03 -3.706101E+02 -9.294887E+02
       396  20  1.085996E+06 -1.254508E+04 -1.178264E+04  8.824241E+02 -4.210651E+01 -6.966215E+02
       396  21  1.092200E+06 -1.092056E+04 -1.014210E+04 -4.470406E+03  2.864461E+02 -4.817096E+02
       396  22  1.136224E+06  9.756191E+01  7.824918E+02 -4.466151E+03 -3.183172E+02 -9.294876E+02
       396  23  1.136169E+06 -3.689630E+01  6.471645E+02  8.751216E+02  6.328131E+00 -6.966250E+02
       396  24  1.136224E+06  5.833822E+01  7.826162E+02 -4.466146E+03  3.310192E+02 -4.817174E+02
       396  25  1.192548E+06  1.413409E+04  1.471445E+04 -4.484963E+03 -2.660196E+02 -9.294865E+02
       396  26  1.186344E+06  1.247110E+04  1.307678E+04  8.678186E+02  5.476668E+01 -6.966286E+02
       396  27  1.180250E+06  1.103709E+04  1.170718E+04 -4.461886E+03  3.755954E+02 -4.817251E+02
       397   1  1.120129E+06 -4.014613E+03 -3.060304E+03 -4.275326E+03 -4.374254E+02  3.583387E+02
       397   2  1.125762E+06 -2.683679E+03 -1.176438E+03  6.813903E+02 -1.140220E+03  1.435510E+02
       397   3  1.131637E+06 -7.310607E+02  1.318594E+03 -4.357447E+03 -1.843027E+03 -6.234951E+01
       397   4  1.136254E+06  1.402744E+00  9.153907E+02 -4.313522E+03 -4.848864E+02  3.583498E+02
       397   5  1.136133E+06 -9.833825E+01  1.392787E+03  6.843068E+02 -1.185769E+03  1.435625E+02
       397   6  1.136253E+06  4.232726E+02  2.480022E+03 -4.313407E+03 -1.886658E+03 -6.233765E+01
       397   7  1.152378E+06  4.017399E+03  4.891067E+03 -4.351719E+03 -5.323487E+02  3.583609E+02
       397   8  1.146504E+06  2.486995E+03  3.962004E+03  6.872233E+02 -1.231319E+03  1.435740E+02
       397   9  1.140869E+06  1.577604E+03  3.641448E+03 -4.269367E+03 -1.930289E+03 -6.232580E+01
       397  10  1.120129E+06 -4.014613E+03 -3.060305E+03 -4.275326E+03 -3.758459E-11  9.783044E-11
       397  11  1.125762E+06 -2.683680E+03 -1.176440E+03  6.813904E+02  4.318122E-11 -2.038602E-10
       397  12  1.131637E+06 -7.310616E+02  1.318587E+03 -4.357447E+03  9.034144E-12  1.536414E-10
       397  13  1.136254E+06  1.402543E+00  9.153900E+02 -4.313522E+03 -1.868124E-10 -1.564019E-10
       397  14  1.136133E+06 -9.833865E+01  1.392784E+03  6.843069E+02 -5.145061E-11  9.960996E-12
       397  15  1.136253E+06  4.232716E+02  2.480015E+03 -4.313407E+03 -1.120131E-10 -6.391004E-11
       397  16  1.152378E+06  4.017399E+03  4.891066E+03 -4.351719E+03  4.098067E-11 -1.344192E-10
       397  17  1.146503E+06  2.486994E+03  3.962001E+03  6.872235E+02 -8.985719E-11 -1.468026E-10
       397  18  1.140869E+06  1.577603E+03  3.641441E+03 -4.269367E+03  1.933900E-10  1.920294E-10
       397  19  1.120129E+06 -4.014613E+03 -3.060304E+03 -4.275326E+03  4.374254E+02 -3.583387E+02
       397  20  1.125762E+06 -2.683679E+03 -1.176438E+03  6.813903E+02  1.140220E+03 -1.435510E+02
       397  21  1.131637E+06 -7.310607E+02  1.318594E+03 -4.357447E+03  1.843027E+03  6.234951E+01
       397  22  1.136254E+06  1.402744E+00  9.153907E+02 -4.313522E+03  4.848864E+02 -3.583498E+02
       397  23  1.136133E+06 -9.833825E+01  1.392787E+03  6.843068E+02  1.185769E+03 -1.435625E+02
       397  24  1.136253E+06  4.232726E+02  2.480022E+03 -4.313407E+03  1.886658E+03  6.233765E+01
       397  25  1.152378E+06  4.017399E+03  4.891067E+03 -4.351719E+03  5.323487E+02 -3.583609E+02
       397  26  1.146504E+06  2.486995E+03  3.962004E+03  6.872233E+02  1.231319E+03 -1.435740E+02
       397  27  1.140869E+06  1.577604E+03  3.641448E+03 -4.269367E+03  1.930289E+03  6.232580E+01
       398   1  1.159144E+06  5.548534E+03  8.778101E+03 -4.137957E+03 -2.347939E+03 -1.861358E+02
       398   2  1.164319E+06  6.445936E+03  1.229131E+04  6.614261E+02 -5.022102E+03 -3.987867E+02
       398   3  1.170886E+06  1.152613E+04  1.858860E+04 -4.740081E+03 -7.696231E+03 -5.926114E+02
       398   4  1.136509E+06 -9.773958E+01  3.152727E+03 -4.359334E+03 -2.396054E+03 -1.861225E+02
       398   5  1.135812E+06 -6.606878E+02  5.229731E+03  7.414173E+02 -5.066035E+03 -3.987787E+02
       398   6  1.136506E+06  2.958568E+03  1.008804E+04 -4.358752E+03 -7.735958E+03 -5.926107E+02
       398   7  1.113874E+06 -5.744051E+03 -2.472685E+03 -4.580703E+03 -2.444167E+03 -1.861092E+02
       398   8  1.107305E+06 -7.767372E+03 -1.831911E+03  8.214049E+02 -5.109967E+03 -3.987707E+02
       398   9  1.102127E+06 -5.609080E+03  1.587394E+03 -3.977445E+03 -7.775682E+03 -5.926101E+02
       398  10  1.159144E+06  5.548532E+03  8.778091E+03 -4.137957E+03 -6.840570E-11  2.745264E-10
       398  11  1.164319E+06  6.445929E+03  1.229126E+04  6.614245E+02 -9.209774E-11  2.300380E-10
       398  12  1.170886E+06  1.152611E+04  1.858849E+04 -4.740085E+03 -7.735980E-11  1.783572E-10
       398  13  1.136509E+06 -9.774116E+01  3.152716E+03 -4.359334E+03  2.876963E-10  4.064150E-11
       398  14  1.135812E+06 -6.606948E+02  5.229682E+03  7.414157E+02  4.382242E-11  2.741246E-11
       398  15  1.136506E+06  2.958552E+03  1.008793E+04 -4.358756E+03  1.730364E-10  2.539788E-11
       398  16  1.113874E+06 -5.744053E+03 -2.472696E+03 -4.580704E+03  6.298082E-11 -1.422950E-10
       398  17  1.107305E+06 -7.767379E+03 -1.831960E+03  8.214033E+02  3.113166E-10 -1.725722E-10
       398  18  1.102127E+06 -5.609096E+03  1.587280E+03 -3.977448E+03 -2.763590E-11  2.128281E-11
       398  19  1.159144E+06  5.548534E+03  8.778101E+03 -4.137957E+03  2.347939E+03  1.861358E+02
       398  20  1.164319E+06  6.445936E+03  1.229131E+04  6.614261E+02  5.022102E+03  3.987867E+02
       398  21  1.170886E+06  1.152613E+04  1.858860E+04 -4.740081E+03  7.696231E+03  5.926114E+02
       398  22  1.136509E+06 -9.773958E+01  3.152727E+03 -4.359334E+03  2.396054E+03  1.861225E+02
       398  23  1.135812E+06 -6.606878E+02  5.229731E+03  7.414173E+02  5.066035E+03  3.987787E+02
       398  24  1.136506E+06  2.958568E+03  1.008804E+04 -4.358752E+03  7.735958E+03  5.926107E+02
       398  25  1.113874E+06 -5.744051E+03 -2.472685E+03 -4.580703E+03  2.444167E+03  1.861092E+02
       398  26  1.107305E+06 -7.767372E+03 -1.831911E+03  8.214049E+02  5.109967E+03  3.987707E+02
       398  27  1.102127E+06 -5.609080E+03  1.587394E+03 -3.977445E+03  7.775682E+03  5.926101E+02
       399   1  1.201532E+06  1.507574E+04  2.836769E+04 -3.110588E+03 -9.712413E+03 -7.552993E+02
       399   2  1.203719E+06  1.287723E+04  3.778206E+04  3.592135E+02 -2.046218E+04 -1.001947E+03
       399   3  1.214555E+06  3.958265E+04  6.141688E+04 -7.487249E+03 -3.121222E+04 -1.047672E+03
       399   4  1.138119E+06 -7.350899E+02  1.264164E+04 -4.606965E+03 -9.787099E+03 -7.552696E+02
       399   5  1.133791E+06 -4.554100E+03  2.046380E+04  1.050778E+03 -2.049235E+04 -1.001975E+03
       399   6  1.138104E+06  2.052485E+04  4.247670E+04 -4.607765E+03 -3.119776E+04 -1.047824E+03
       399   7  1.074710E+06 -1.654621E+04 -3.084710E+03 -6.103190E+03 -9.861779E+03 -7.552395E+02
       399   8  1.063867E+06 -2.198580E+04  3.145178E+03  1.742265E+03 -2.052252E+04 -1.002004E+03
       399   9  1.061659E+06  1.466643E+03  2.353610E+04 -1.728635E+03 -3.118331E+04 -1.047976E+03
       399  10  1.201532E+06  1.507571E+04  2.836751E+04 -3.110594E+03 -4.561515E-11 -1.144464E-10
       399  11  1.203719E+06  1.287712E+04  3.778128E+04  3.591970E+02  1.093681E-10  2.285244E-11
       399  12  1.214554E+06  3.958239E+04  6.141505E+04 -7.487275E+03 -1.371071E-10  1.364692E-10
       399  13  1.138119E+06 -7.351161E+02  1.264146E+04 -4.606971E+03  2.177750E-10  7.992768E-11
       399  14  1.133790E+06 -4.554214E+03  2.046301E+04  1.050762E+03  1.075453E-10 -1.198899E-10
       399  15  1.138103E+06  2.052459E+04  4.247488E+04 -4.607791E+03 -3.447080E-13 -5.576351E-12
       399  16  1.074709E+06 -1.654624E+04 -3.084894E+03 -6.103196E+03 -6.591901E-11  1.075092E-10
       399  17  1.063867E+06 -2.198591E+04  3.144386E+03  1.742249E+03 -2.482480E-11  1.099992E-10
       399  18  1.061658E+06  1.466381E+03  2.353427E+04 -1.728661E+03  2.419571E-10  3.069872E-10
       399  19  1.201532E+06  1.507574E+04  2.836769E+04 -3.110588E+03  9.712413E+03  7.552993E+02
       399  20  1.203719E+06  1.287723E+04  3.778206E+04  3.592135E+02  2.046218E+04  1.001947E+03
       399  21  1.214555E+06  3.958265E+04  6.141688E+04 -7.487249E+03  3.121222E+04  1.047672E+03
       399  22  1.138119E+06 -7.350899E+02  1.264164E+04 -4.606965E+03  9.787099E+03  7.552696E+02
       399  23  1.133791E+06 -4.554100E+03  2.046380E+04  1.050778E+03  2.049235E+04  1.001975E+03
       399  24  1.138104E+06  2.052485E+04  4.247670E+04 -4.607765E+03  3.119776E+04  1.047824E+03
       399  25  1.074710E+06 -1.654621E+04 -3.084710E+03 -6.103190E+03  9.861779E+03  7.552395E+02
       399  26  1.063867E+06 -2.198580E+04  3.145178E+03  1.742265E+03  2.052252E+04  1.002004E+03
       399  27  1.061659E+06  1.466643E+03  2.353610E+04 -1.728635E+03  3.118331E+04  1.047976E+03
       400   1  1.258338E+06  2.217609E+04  7.863668E+04  5.043557E+03 -3.937790E+04 -1.454010E+03
       400   2  1.238351E+06 -1.990487E+03  1.079416E+05 -3.744061E+03 -8.277876E+04 -1.890712E+03
       400   3  1.273808E+06  1.727816E+05  2.152189E+05 -2.604259E+04 -1.261802E+05 -7.104108E+02
       400   4  1.148512E+06 -5.206258E+03  5.142060E+04 -5.076125E+03 -3.964110E+04 -1.453418E+03
       400   5  1.120777E+06 -3.128954E+04  7.885086E+04  1.647259E+03 -8.268543E+04 -1.891428E+03
       400   6  1.148433E+06  1.415233E+05  1.840168E+05 -5.139646E+03 -1.257297E+05 -7.144653E+02
       400   7  1.038698E+06 -3.258912E+04  2.420367E+04 -1.519402E+04 -3.990425E+04 -1.452817E+03
       400   8  1.003215E+06 -6.058951E+04  4.975908E+04  7.037558E+03 -8.259211E+04 -1.892143E+03
       400   9  1.023074E+06  1.102654E+05  1.528138E+05  1.575909E+04 -1.252794E+05 -7.184903E+02
       400  10  1.258336E+06  2.217567E+04  7.863377E+04  5.043511E+03  2.130979E-10  1.395180E-10
       400  11  1.238344E+06 -1.992326E+03  1.079288E+05 -3.744187E+03 -4.084728E-11 -1.480106E-10
       400  12  1.273791E+06  1.727773E+05  2.151890E+05 -2.604267E+04 -3.000799E-10 -1.754942E-10
       400  13  1.148510E+06 -5.206681E+03  5.141765E+04 -5.076171E+03 -1.094058E-10 -1.381786E-10
       400  14  1.120769E+06 -3.129137E+04  7.883803E+04  1.647133E+03 -3.065442E-10 -4.041458E-10
       400  15  1.148417E+06  1.415190E+05  1.839872E+05 -5.139719E+03  9.092836E-11 -1.514251E-10
       400  16  1.038696E+06 -3.258955E+04  2.420068E+04 -1.519407E+04 -3.834551E-11 -2.741063E-11
       400  17  1.003208E+06 -6.059134E+04  4.974628E+04  7.037433E+03 -5.520932E-12 -3.413298E-11
       400  18  1.023057E+06  1.102612E+05  1.527844E+05  1.575901E+04 -7.142462E-11 -3.665114E-10
       400  19  1.258338E+06  2.217609E+04  7.863668E+04  5.043557E+03  3.937790E+04  1.454010E+03
       400  20  1.238351E+06 -1.990487E+03  1.079416E+05 -3.744061E+03  8.277876E+04  1.890712E+03
       400  21  1.273808E+06  1.727816E+05  2.152189E+05 -2.604259E+04  1.261802E+05  7.104108E+02
       400  22  1.148512E+06 -5.206258E+03  5.142060E+04 -5.076125E+03  3.964110E+04  1.453418E+03
       400  23  1.120777E+06 -3.128954E+04  7.885086E+04  1.647259E+03  8.268543E+04  1.891428E+03
       400  24  1.148433E+06  1.415233E+05  1.840168E+05 -5.139646E+03  1.257297E+05  7.144653E+02
       400  25  1.038698E+06 -3.258912E+04  2.420367E+04 -1.519402E+04  3.990425E+04  1.452817E+03
       400  26  1.003215E+06 -6.058951E+04  4.975908E+04  7.037558E+03  8.259211E+04  1.892143E+03
       400  27  1.023074E+06  1.102654E+05  1.528138E+05  1.575909E+04  1.252794E+05  7.184903E+02
       401   1  1.841631E+05 -3.011985E+04 -2.290636E+04 -2.904297E+03  2.019836E+04  1.135789E+03
       401   2  1.886097E+05 -5.661838E+04 -3.788004E+04  2.474326E+03  1.360756E+04  3.256060E+03
       401   3  2.024590E+05 -4.998903E+04 -4.022869E+04 -7.975960E+03  7.017474E+03  2.673406E+03
       401   4  3.993228E+05  2.361746E+04  3.070688E+04 -6.327470E+03  2.095394E+04  1.135962E+03
       401   5  3.945736E+05 -5.235225E+03  1.313686E+04  1.591467E+03  1.377699E+04  3.255994E+03
       401   6  3.993258E+05 -8.641404E+02  8.595672E+03 -6.318196E+03  6.600869E+03  2.673440E+03
       401   7  6.145244E+05  7.735133E+04  8.431665E+04 -9.751833E+03  2.170978E+04  1.136127E+03
       401   8  6.005760E+05  4.614476E+04  6.415060E+04  7.083129E+02  1.394648E+04  3.255927E+03
       401   9  5.962278E+05  4.825786E+04  5.741714E+04 -4.659904E+03  6.184132E+03  2.673471E+03
       401  10  1.841627E+05 -3.011996E+04 -2.290713E+04 -2.904315E+03  2.743418E-10  1.486152E-10
       401  11  1.886095E+05 -5.661844E+04 -3.788041E+04  2.474291E+03  1.438871E-10  1.272483E-10
       401  12  2.024589E+05 -4.998906E+04 -4.022879E+04 -7.975975E+03  1.107348E-10  6.547491E-11
       401  13  3.993223E+05  2.361734E+04  3.070605E+04 -6.327489E+03  1.033481E-10 -9.337441E-11
       401  14  3.945734E+05 -5.235287E+03  1.313648E+04  1.591431E+03 -9.744588E-11  1.446807E-10
       401  15  3.993257E+05 -8.641598E+02  8.595576E+03 -6.318210E+03 -3.611044E-10 -1.726933E-10
       401  16  6.145239E+05  7.735121E+04  8.431576E+04 -9.751853E+03  1.124563E-10  2.213360E-10
       401  17  6.005758E+05  4.614469E+04  6.415021E+04  7.082764E+02 -2.848422E-10  7.706767E-12
       401  18  5.962277E+05  4.825784E+04  5.741706E+04 -4.659917E+03 -1.345488E-11 -1.463410E-11
       401  19  1.841631E+05 -3.011985E+04 -2.290636E+04 -2.904297E+03 -2.019836E+04 -1.135789E+03
       401  20  1.886097E+05 -5.661838E+04 -3.788004E+04  2.474326E+03 -1.360756E+04 -3.256060E+03
       401  21  2.024590E+05 -4.998903E+04 -4.022869E+04 -7.975960E+03 -7.017474E+03 -2.673406E+03
       401  22  3.993228E+05  2.361746E+04  3.070688E+04 -6.327470E+03 -2.095394E+04 -1.135962E+03
       401  23  3.945736E+05 -5.235225E+03  1.313686E+04  1.591467E+03 -1.377699E+04 -3.255994E+03
       401  24  3.993258E+05 -8.641404E+02  8.595672E+03 -6.318196E+03 -6.600869E+03 -2.673440E+03
       401  25  6.145244E+05  7.735133E+04  8.431665E+04 -9.751833E+03 -2.170978E+04 -1.136127E+03
       401  26  6.005760E+05  4.614476E+04  6.415060E+04  7.083129E+02 -1.394648E+04 -3.255927E+03
       401  27  5.962278E+05  4.825786E+04  5.741714E+04 -4.659904E+03 -6.184132E+03 -2.673471E+03
       402   1  2.417975E+05 -3.545128E+04 -3.153672E+04 -5.496616E+03  5.141347E+03  2.073238E+03
       402   2  2.493331E+05 -3.755727E+04 -3.312725E+04  1.377715E+03  3.425899E+03  2.105703E+03
       402   3  2.584129E+05 -3.483564E+04 -3.237123E+04 -6.184457E+03  1.710115E+03  1.777749E+03
       402   4  3.975641E+05  3.418868E+03  7.099645E+03 -6.010359E+03  5.188061E+03  2.073187E+03
       402   5  3.967854E+05 -7.661949E+02  3.426533E+03  1.207200E+03  3.394342E+03  2.105687E+03
       402   6  3.975639E+05 -1.106919E+02  2.153857E+03 -6.011520E+03  1.600308E+03  1.777803E+03
       402   7  5.533528E+05  4.228720E+04  4.573420E+04 -6.524230E+03  5.234785E+03  2.073135E+03
       402   8  5.442574E+05  3.602325E+04  3.997869E+04  1.036647E+03  3.362777E+03  2.105671E+03
       402   9  5.367325E+05  3.461281E+04  3.667750E+04 -5.838542E+03  1.490477E+03  1.777858E+03
       402  10  2.417975E+05 -3.545129E+04 -3.153678E+04 -5.496624E+03 -7.755778E-11  1.899998E-10
       402  11  2.493331E+05 -3.755728E+04 -3.312728E+04  1.377709E+03  6.770469E-11 -3.116965E-11
       402  12  2.584128E+05 -3.483564E+04 -3.237124E+04 -6.184459E+03  5.905625E-11  1.351202E-10
       402  13  3.975641E+05  3.418856E+03  7.099586E+03 -6.010368E+03 -1.977743E-10  2.637892E-12
       402  14  3.967854E+05 -7.662028E+02  3.426504E+03  1.207195E+03  1.430435E-10 -4.886903E-10
       402  15  3.975639E+05 -1.106960E+02  2.153846E+03 -6.011523E+03  4.383586E-10  1.206311E-10
       402  16  5.533528E+05  4.228718E+04  4.573414E+04 -6.524239E+03  4.851314E-11 -1.732600E-10
       402  17  5.442574E+05  3.602325E+04  3.997866E+04  1.036642E+03  4.130671E-11 -5.297018E-11
       402  18  5.367324E+05  3.461280E+04  3.667749E+04 -5.838544E+03  1.394191E-10 -1.260746E-10
       402  19  2.417975E+05 -3.545128E+04 -3.153672E+04 -5.496616E+03 -5.141347E+03 -2.073238E+03
       402  20  2.493331E+05 -3.755727E+04 -3.312725E+04  1.377715E+03 -3.425899E+03 -2.105703E+03
       402  21  2.584129E+05 -3.483564E+04 -3.237123E+04 -6.184457E+03 -1.710115E+03 -1.777749E+03
       402  22  3.975641E+05  3.418868E+03  7.099645E+03 -6.010359E+03 -5.188061E+03 -2.073187E+03
       402  23  3.967854E+05 -7.661949E+02  3.426533E+03  1.207200E+03 -3.394342E+03 -2.105687E+03
       402  24  3.975639E+05 -1.106919E+02  2.153857E+03 -6.011520E+03 -1.600308E+03 -1.777803E+03
       402  25  5.533528E+05  4.228720E+04  4.573420E+04 -6.524230E+03 -5.234785E+03 -2.073135E+03
       402  26  5.442574E+05  3.602325E+04  3.997869E+04  1.036647E+03 -3.362777E+03 -2.105671E+03
       402  27  5.367325E+05  3.461281E+04  3.667750E+04 -5.838542E+03 -1.490477E+03 -1.777858E+03
       403   1  2.960394E+05 -2.476234E+04 -2.334699E+04 -5.673966E+03  1.296585E+03  1.550983E+03
       403   2  3.036618E+05 -2.344108E+04 -2.221762E+04  1.020108E+03  8.149569E+02  1.308397E+03
       403   3  3.115510E+05 -2.138882E+04 -2.058780E+04 -5.765557E+03  3.331912E+02  1.027866E+03
       403   4  3.972804E+05  4.948394E+02  1.735412E+03 -5.798184E+03  1.248317E+03  1.551006E+03
       403   5  3.971460E+05 -1.156932E+02  9.603861E+02  9.414213E+02  7.584199E+02  1.308438E+03
       403   6  3.972798E+05  6.155465E+00  6.914956E+02 -5.798586E+03  2.683903E+02  1.027927E+03
       403   7  4.985306E+05  2.575125E+04  2.681705E+04 -5.922421E+03  1.200042E+03  1.551029E+03
       403   8  4.906382E+05  2.320904E+04  2.413774E+04  8.627242E+02  7.018743E+02  1.308478E+03
       403   9  4.830154E+05  2.140058E+04  2.197024E+04 -5.831618E+03  2.035805E+02  1.027988E+03
       403  10  2.960394E+05 -2.476234E+04 -2.334700E+04 -5.673968E+03 -2.380203E-10  1.882815E-10
       403  11  3.036618E+05 -2.344108E+04 -2.221762E+04  1.020107E+03  1.627056E-10  2.587303E-10
       403  12  3.115510E+05 -2.138882E+04 -2.058780E+04 -5.765557E+03 -1.169066E-10 -5.999943E-10
       403  13  3.972804E+05  4.948364E+02  1.735404E+03 -5.798186E+03 -1.304513E-10 -2.003786E-11
       403  14  3.971460E+05 -1.156952E+02  9.603818E+02  9.414205E+02 -3.634442E-10  5.440693E-10
       403  15  3.972798E+05  6.154310E+00  6.914935E+02 -5.798586E+03 -1.672574E-10  7.635780E-10
       403  16  4.985306E+05  2.575125E+04  2.681705E+04 -5.922422E+03 -1.913513E-10 -1.484964E-10
       403  17  4.906382E+05  2.320903E+04  2.413774E+04  8.627235E+02 -3.967403E-10 -6.374622E-10
       403  18  4.830154E+05  2.140058E+04  2.197024E+04 -5.831618E+03  6.697899E-10 -2.043554E-10
       403  19  2.960394E+05 -2.476234E+04 -2.334699E+04 -5.673966E+03 -1.296585E+03 -1.550983E+03
       403  20  3.036618E+05 -2.344108E+04 -2.221762E+04  1.020108E+03 -8.149569E+02 -1.308397E+03
       403  21  3.115510E+05 -2.138882E+04 -2.058780E+04 -5.765557E+03 -3.331912E+02 -1.027866E+03
       403  22  3.972804E+05  4.948394E+02  1.735412E+03 -5.798184E+03 -1.248317E+03 -1.551006E+03
       403  23  3.971460E+05 -1.156932E+02  9.603861E+02  9.414213E+02 -7.584199E+02 -1.308438E+03
       403  24  3.972798E+05  6.155465E+00  6.914956E+02 -5.798586E+03 -2.683903E+02 -1.027927E+03
       403  25  4.985306E+05  2.575125E+04  2.681705E+04 -5.922421E+03 -1.200042E+03 -1.551029E+03
       403  26  4.906382E+05  2.320904E+04  2.413774E+04  8.627242E+02 -7.018743E+02 -1.308478E+03
       403  27  4.830154E+05  2.140058E+04  2.197024E+04 -5.831618E+03 -2.035805E+02 -1.027988E+03
       404   1  3.473844E+05 -1.235719E+04 -1.171037E+04 -5.623041E+03  2.069233E+02  8.605585E+02
       404   2  3.547962E+05 -1.061440E+04 -9.914891E+03  8.306395E+02 -9.363863E+01  5.914429E+02
       404   3  3.622756E+05 -8.647392E+03 -7.873458E+03 -5.655017E+03 -3.942432E+02  3.229828E+02
       404   4  3.972369E+05  7.670928E+01  6.266102E+02 -5.678352E+03  1.486332E+02  8.606201E+02
       404   5  3.972029E+05 -3.367867E+01  5.992542E+02  7.912952E+02 -1.518062E+02  5.915094E+02
       404   6  3.972366E+05  8.015074E+01  8.177848E+02 -5.678340E+03 -4.522846E+02  3.230543E+02
       404   7  4.470917E+05  1.251043E+04  1.296341E+04 -5.733667E+03  9.033832E+01  8.606818E+02
       404   8  4.396113E+05  1.054691E+04  1.111327E+04  7.519487E+02 -2.099777E+02  5.915759E+02
       404   9  4.321987E+05  8.807602E+03  9.508936E+03 -5.701664E+03 -5.103292E+02  3.231258E+02
       404  10  3.473844E+05 -1.235719E+04 -1.171038E+04 -5.623041E+03 -8.981869E-10 -5.526550E-12
       404  11  3.547962E+05 -1.061440E+04 -9.914892E+03  8.306395E+02  2.824870E-10  1.689963E-10
       404  12  3.622756E+05 -8.647392E+03 -7.873458E+03 -5.655017E+03  3.864721E-10 -6.087206E-10
       404  13  3.972369E+05  7.670848E+01  6.266088E+02 -5.678352E+03  1.931834E-10 -7.810217E-10
       404  14  3.972029E+05 -3.367905E+01  5.992535E+02  7.912953E+02 -4.568702E-10  3.165580E-10
       404  15  3.972366E+05  8.015057E+01  8.177842E+02 -5.678340E+03  1.092153E-10 -1.050129E-09
       404  16  4.470917E+05  1.251043E+04  1.296341E+04 -5.733667E+03 -1.359220E-10  2.982967E-10
       404  17  4.396113E+05  1.054691E+04  1.111326E+04  7.519488E+02 -5.508067E-11 -1.503234E-10
       404  18  4.321987E+05  8.807601E+03  9.508935E+03 -5.701664E+03  3.728027E-10 -1.603216E-09
       404  19  3.473844E+05 -1.235719E+04 -1.171037E+04 -5.623041E+03 -2.069233E+02 -8.605585E+02
       404  20  3.547962E+05 -1.061440E+04 -9.914891E+03  8.306395E+02  9.363863E+01 -5.914429E+02
       404  21  3.622756E+05 -8.647392E+03 -7.873458E+03 -5.655017E+03  3.942432E+02 -3.229828E+02
       404  22  3.972369E+05  7.670928E+01  6.266102E+02 -5.678352E+03 -1.486332E+02 -8.606201E+02
       404  23  3.972029E+05 -3.367867E+01  5.992542E+02  7.912952E+02  1.518062E+02 -5.915094E+02
       404  24  3.972366E+05  8.015074E+01  8.177848E+02 -5.678340E+03  4.522846E+02 -3.230543E+02
       404  25  4.470917E+05  1.251043E+04  1.296341E+04 -5.733667E+03 -9.033832E+01 -8.606818E+02
       404  26  4.396113E+05  1.054691E+04  1.111327E+04  7.519487E+02  2.099777E+02 -5.915759E+02
       404  27  4.321987E+05  8.807602E+03  9.508936E+03 -5.701664E+03  5.103292E+02 -3.231258E+02
       405   1  3.972717E+05  9.880873E+00  1.014430E+03 -5.607237E+03 -5.578967E+02  1.661672E+02
       405   2  4.045130E+05  1.721860E+03  3.401117E+03  7.402926E+02 -1.352265E+03 -1.015023E+02
       405   3  4.120022E+05  4.170503E+03  6.480738E+03 -5.712238E+03 -2.146642E+03 -3.652601E+02
       405   4  3.972770E+05  6.681189E+00  9.925134E+02 -5.647640E+03 -6.163763E+02  1.662412E+02
       405   5  3.971531E+05 -1.144153E+02  1.576475E+03  7.527021E+02 -1.409891E+03 -1.014304E+02
       405   6  3.972768E+05  5.009880E+02  2.852764E+03 -5.647024E+03 -2.203405E+03 -3.651902E+02
       405   7  3.972823E+05  3.481513E+00  9.705972E+02 -5.688043E+03 -6.748559E+02  1.663153E+02
       405   8  3.897933E+05 -1.950695E+03 -2.481715E+02  7.651114E+02 -1.467516E+03 -1.013584E+02
       405   9  3.825517E+05 -3.168544E+03 -7.752260E+02 -5.581812E+03 -2.260168E+03 -3.651203E+02
       405  10  3.972717E+05  9.880760E+00  1.014429E+03 -5.607237E+03 -1.457737E-09  6.117022E-10
       405  11  4.045129E+05  1.721860E+03  3.401114E+03  7.402925E+02 -1.474639E-10  2.078991E-09
       405  12  4.120022E+05  4.170502E+03  6.480729E+03 -5.712239E+03  1.273259E-09 -1.555052E-09
       405  13  3.972770E+05  6.681057E+00  9.925126E+02 -5.647640E+03 -1.432528E-10 -1.538470E-10
       405  14  3.971531E+05 -1.144158E+02  1.576471E+03  7.527020E+02 -9.209992E-11 -2.534169E-10
       405  15  3.972768E+05  5.009865E+02  2.852754E+03 -5.647025E+03  1.006076E-10 -3.854427E-10
       405  16  3.972823E+05  3.481361E+00  9.705963E+02 -5.688043E+03  1.459094E-10 -2.235125E-10
       405  17  3.897933E+05 -1.950695E+03 -2.481755E+02  7.651113E+02  1.084988E-10  1.044139E-10
       405  18  3.825517E+05 -3.168545E+03 -7.752358E+02 -5.581813E+03 -5.797447E-10 -6.274820E-10
       405  19  3.972717E+05  9.880873E+00  1.014430E+03 -5.607237E+03  5.578967E+02 -1.661672E+02
       405  20  4.045130E+05  1.721860E+03  3.401117E+03  7.402926E+02  1.352265E+03  1.015023E+02
       405  21  4.120022E+05  4.170503E+03  6.480738E+03 -5.712238E+03  2.146642E+03  3.652601E+02
       405  22  3.972770E+05  6.681189E+00  9.925134E+02 -5.647640E+03  6.163763E+02 -1.662412E+02
       405  23  3.971531E+05 -1.144153E+02  1.576475E+03  7.527021E+02  1.409891E+03  1.014304E+02
       405  24  3.972768E+05  5.009880E+02  2.852764E+03 -5.647024E+03  2.203405E+03  3.651902E+02
       405  25  3.972823E+05  3.481513E+00  9.705972E+02 -5.688043E+03  6.748559E+02 -1.663153E+02
       405  26  3.897933E+05 -1.950695E+03 -2.481715E+02  7.651114E+02  1.467516E+03  1.013584E+02
       405  27  3.825517E+05 -3.168544E+03 -7.752260E+02 -5.581812E+03  2.260168E+03  3.651203E+02
       406   1  4.474207E+05  1.233645E+04  1.601914E+04 -5.489190E+03 -2.727505E+03 -5.271588E+02
       406   2  4.541310E+05  1.354088E+04  2.027243E+04  6.880315E+02 -5.825464E+03 -7.980898E+02
       406   3  4.624466E+05  1.962304E+04  2.775740E+04 -6.189202E+03 -8.923374E+03 -1.035096E+03
       406   4  3.975776E+05 -1.028229E+02  3.638980E+03 -5.705286E+03 -2.790366E+03 -5.270838E+02
       406   5  3.967752E+05 -7.689767E+02  6.053398E+03  8.238665E+02 -5.880741E+03 -7.980326E+02
       406   6  3.975768E+05  3.441548E+03  1.169446E+04 -5.701507E+03 -8.971028E+03 -1.035059E+03
       406   7  3.477368E+05 -1.254228E+04 -8.741362E+03 -5.921364E+03 -2.853223E+03 -5.270086E+02
       406   8  3.394223E+05 -1.507908E+04 -8.165884E+03  9.596898E+02 -5.936012E+03 -7.979755E+02
       406   9  3.327108E+05 -1.274026E+04 -4.368807E+03 -5.213862E+03 -9.018678E+03 -1.035022E+03
       406  10  4.474207E+05  1.233645E+04  1.601912E+04 -5.489191E+03 -5.873076E-10 -1.932287E-09
       406  11  4.541310E+05  1.354087E+04  2.027237E+04  6.880278E+02 -3.912442E-10  3.628198E-10
       406  12  4.624465E+05  1.962302E+04  2.775725E+04 -6.189210E+03 -7.046301E-12 -1.322714E-10
       406  13  3.975776E+05 -1.028253E+02  3.638965E+03 -5.705287E+03  1.842286E-10 -5.838886E-10
       406  14  3.967751E+05 -7.689867E+02  6.053331E+03  8.238627E+02 -1.643646E-10  1.615548E-10
       406  15  3.975767E+05  3.441525E+03  1.169430E+04 -5.701515E+03  2.873486E-10 -5.023662E-10
       406  16  3.477367E+05 -1.254228E+04 -8.741378E+03 -5.921365E+03 -6.033902E-11 -5.026058E-10
       406  17  3.394222E+05 -1.507909E+04 -8.165951E+03  9.596860E+02  3.406876E-10  1.800727E-09
       406  18  3.327108E+05 -1.274028E+04 -4.368961E+03 -5.213870E+03  4.495915E-10  5.498656E-11
       406  19  4.474207E+05  1.233645E+04  1.601914E+04 -5.489190E+03  2.727505E+03  5.271588E+02
       406  20  4.541310E+05  1.354088E+04  2.027243E+04  6.880315E+02  5.825464E+03  7.980898E+02
       406  21  4.624466E+05  1.962304E+04  2.775740E+04 -6.189202E+03  8.923374E+03  1.035096E+03
       406  22  3.975776E+05 -1.028229E+02  3.638980E+03 -5.705286E+03  2.790366E+03  5.270838E+02
       406  23  3.967752E+05 -7.689767E+02  6.053398E+03  8.238665E+02  5.880741E+03  7.980326E+02
       406  24  3.975768E+05  3.441548E+03  1.169446E+04 -5.701507E+03  8.971028E+03  1.035059E+03
       406  25  3.477368E+05 -1.254228E+04 -8.741362E+03 -5.921364E+03  2.853223E+03  5.270086E+02
       406  26  3.394223E+05 -1.507908E+04 -8.165884E+03  9.596898E+02  5.936012E+03  7.979755E+02
       406  27  3.327108E+05 -1.274026E+04 -4.368807E+03 -5.213862E+03  9.018678E+03  1.035022E+03
       407   1  5.006907E+05  2.441472E+04  3.977883E+04 -4.187400E+03 -1.125001E+04 -1.242605E+03
       407   2  5.035523E+05  2.193631E+04  5.077983E+04  1.392145E+02 -2.372831E+04 -1.543703E+03
       407   3  5.164727E+05  5.303089E+04  7.830230E+04 -9.239619E+03 -3.620634E+04 -1.551757E+03
       407   4  3.994526E+05 -8.425923E+02  1.465935E+04 -5.854955E+03 -1.134808E+04 -1.242489E+03
       407   5  3.944255E+05 -5.289513E+03  2.373162E+04  1.006510E+03 -2.376113E+04 -1.543723E+03
       407   6  3.994476E+05  2.382847E+04  4.928222E+04 -5.837626E+03 -3.617375E+04 -1.551993E+03
       407   7  2.982238E+05 -2.610066E+04 -1.046089E+04 -7.522236E+03 -1.144613E+04 -1.242372E+03
       407   8  2.853094E+05 -3.251622E+04 -3.317483E+03  1.873655E+03 -2.379395E+04 -1.543744E+03
       407   9  2.824350E+05 -5.374924E+03  2.026112E+04 -2.436271E+03 -3.614118E+04 -1.552228E+03
       407  10  5.006906E+05  2.441468E+04  3.977859E+04 -4.187411E+03 -7.425604E-10  1.996622E-10
       407  11  5.035517E+05  2.193616E+04  5.077877E+04  1.391851E+02 -4.954970E-12 -1.019513E-09
       407  12  5.164713E+05  5.303054E+04  7.829983E+04 -9.239664E+03  1.985894E-11  8.927835E-11
       407  13  3.994525E+05 -8.426285E+02  1.465911E+04 -5.854966E+03 -8.580781E-12  1.026605E-10
       407  14  3.944249E+05 -5.289667E+03  2.373055E+04  1.006481E+03 -4.981292E-10  9.583951E-10
       407  15  3.994462E+05  2.382812E+04  4.927976E+04 -5.837671E+03  4.159562E-10  9.217573E-11
       407  16  2.982237E+05 -2.610070E+04 -1.046114E+04 -7.522247E+03  8.101454E-11 -4.446026E-10
       407  17  2.853088E+05 -3.251638E+04 -3.318551E+03  1.873626E+03  1.142636E-10  4.133805E-12
       407  18  2.824336E+05 -5.375277E+03  2.025867E+04 -2.436317E+03  2.572524E-10 -1.869435E-10
       407  19  5.006907E+05  2.441472E+04  3.977883E+04 -4.187400E+03  1.125001E+04  1.242605E+03
       407  20  5.035523E+05  2.193631E+04  5.077983E+04  1.392145E+02  2.372831E+04  1.543703E+03
       407  21  5.164727E+05  5.303089E+04  7.830230E+04 -9.239619E+03  3.620634E+04  1.551757E+03
       407  22  3.994526E+05 -8.425923E+02  1.465935E+04 -5.854955E+03  1.134808E+04  1.242489E+03
       407  23  3.944255E+05 -5.289513E+03  2.373162E+04  1.006510E+03  2.376113E+04  1.543723E+03
       407  24  3.994476E+05  2.382847E+04  4.928222E+04 -5.837626E+03  3.617375E+04  1.551993E+03
       407  25  2.982238E+05 -2.610066E+04 -1.046089E+04 -7.522236E+03  1.144613E+04  1.242372E+03
       407  26  2.853094E+05 -3.251622E+04 -3.317483E+03  1.873655E+03  2.379395E+04  1.543744E+03
       407  27  2.824350E+05 -5.374924E+03  2.026112E+04 -2.436271E+03  3.614118E+04  1.552228E+03
       408   1  5.672617E+05  3.280518E+04  9.827954E+04  5.552051E+03 -4.562284E+04 -2.063020E+03
       408   2  5.435821E+05  4.651054E+03  1.321726E+05 -5.017804E+03 -9.604105E+04 -2.567253E+03
       408   3  5.843342E+05  2.074347E+05  2.566394E+05 -3.038429E+04 -1.464594E+05 -8.846058E+02
       408   4  4.115227E+05 -6.032987E+03  5.966418E+04 -6.103850E+03 -4.596624E+04 -2.061994E+03
       408   5  3.793279E+05 -3.632406E+04  9.149651E+04  1.306035E+03 -9.590074E+04 -2.568315E+03
       408   6  4.114971E+05  1.642701E+05  2.135840E+05 -6.079635E+03 -1.458347E+05 -8.904195E+02
       408   7  2.558060E+05 -4.487245E+04  2.104709E+04 -1.775682E+04 -4.630956E+04 -2.060956E+03
       408   8  2.150982E+05 -7.730104E+04  5.081847E+04  7.628204E+03 -9.576047E+04 -2.569375E+03
       408   9  2.386883E+05  1.211054E+05  1.705267E+05  1.821826E+04 -1.452101E+05 -8.961858E+02
       408  10  5.672595E+05  3.280461E+04  9.827562E+04  5.551976E+03 -1.289677E-10 -5.438543E-10
       408  11  5.435722E+05  4.648574E+03  1.321552E+05 -5.018003E+03 -2.729437E-10 -2.626996E-10
       408  12  5.843112E+05  2.074290E+05  2.565991E+05 -3.038440E+04  2.000456E-11 -3.211865E-10
       408  13  4.115204E+05 -6.033558E+03  5.966020E+04 -6.103927E+03  3.855122E-10 -3.523454E-10
       408  14  3.793180E+05 -3.632653E+04  9.147922E+04  1.305837E+03  2.467519E-10 -2.322276E-10
       408  15  4.114743E+05  1.642644E+05  2.135441E+05 -6.079739E+03  9.239137E-12  1.367607E-10
       408  16  2.558037E+05 -4.487303E+04  2.104305E+04 -1.775690E+04 -4.377019E-11 -3.594236E-10
       408  17  2.150884E+05 -7.730351E+04  5.080124E+04  7.628006E+03  1.562352E-10  5.552524E-10
       408  18  2.386657E+05  1.210998E+05  1.704871E+05  1.821815E+04 -1.522196E-10  6.912532E-10
       408  19  5.672617E+05  3.280518E+04  9.827954E+04  5.552051E+03  4.562284E+04  2.063020E+03
       408  20  5.435821E+05  4.651054E+03  1.321726E+05 -5.017804E+03  9.604105E+04  2.567253E+03
       408  21  5.843342E+05  2.074347E+05  2.566394E+05 -3.038429E+04  1.464594E+05  8.846058E+02
       408  22  4.115227E+05 -6.032987E+03  5.966418E+04 -6.103850E+03  4.596624E+04  2.061994E+03
       408  23  3.793279E+05 -3.632406E+04  9.149651E+04  1.306035E+03  9.590074E+04  2.568315E+03
       408  24  4.114971E+05  1.642701E+05  2.135840E+05 -6.079635E+03  1.458347E+05  8.904195E+02
       408  25  2.558060E+05 -4.487245E+04  2.104709E+04 -1.775682E+04  4.630956E+04  2.060956E+03
       408  26  2.150982E+05 -7.730104E+04  5.081847E+04  7.628204E+03  9.576047E+04  2.569375E+03
       408  27  2.386883E+05  1.211054E+05  1.705267E+05  1.821826E+04  1.452101E+05  8.961858E+02
       409   1 -1.436329E+06 -1.178546E+05 -1.606721E+05 -2.012398E+04 -1.261573E+05 -5.192453E+02
       409   2 -1.410070E+06  5.595064E+04 -5.519539E+04 -5.925765E+03 -8.307736E+04 -1.546953E+03
       409   3 -1.439525E+06  2.925528E+04 -2.791842E+04  1.111017E+04 -3.999827E+04 -1.346496E+03
       409   4 -1.535627E+06 -1.427071E+05 -1.854656E+05  9.297432E+02 -1.264965E+05 -5.235404E+02
       409   5 -1.507688E+06  3.155196E+04 -7.942387E+04 -4.906193E+02 -8.315834E+04 -1.547710E+03
       409   6 -1.535518E+06  5.247799E+03 -5.177048E+04  9.261982E+02 -3.982088E+04 -1.345803E+03
       409   7 -1.634915E+06 -1.675587E+05 -2.102596E+05  2.198009E+04 -1.268356E+05 -5.278591E+02
       409   8 -1.605298E+06  7.152679E+03 -1.036530E+05  4.943669E+03 -8.323930E+04 -1.548469E+03
       409   9 -1.631502E+06 -1.875999E+04 -7.562317E+04 -9.256191E+03 -3.964350E+04 -1.345116E+03
       409  10 -1.436346E+06 -1.178589E+05 -1.607021E+05 -2.012404E+04  9.271481E-10 -4.185319E-10
       409  11 -1.410077E+06  5.594878E+04 -5.520839E+04 -5.925868E+03  1.431967E-10 -5.298086E-10
       409  12 -1.439527E+06  2.925485E+04 -2.792144E+04  1.111012E+04 -9.030929E-10  3.666961E-11
       409  13 -1.535644E+06 -1.427114E+05 -1.854957E+05  9.296899E+02 -2.522408E-10 -3.190267E-10
       409  14 -1.507696E+06  3.155010E+04 -7.943690E+04 -4.907230E+02  1.254103E-09 -9.516370E-10
       409  15 -1.535520E+06  5.247370E+03 -5.177347E+04  9.261550E+02  9.061405E-11 -2.961905E-10
       409  16 -1.634933E+06 -1.675630E+05 -2.102899E+05  2.198004E+04 -7.095974E-10 -2.968710E-10
       409  17 -1.605306E+06  7.150811E+03 -1.036661E+05  4.943565E+03  5.311749E-11 -9.373023E-10
       409  18 -1.631504E+06 -1.876041E+04 -7.562613E+04 -9.256234E+03  1.089503E-09  1.852813E-10
       409  19 -1.436329E+06 -1.178546E+05 -1.606721E+05 -2.012398E+04  1.261573E+05  5.192453E+02
       409  20 -1.410070E+06  5.595064E+04 -5.519539E+04 -5.925765E+03  8.307736E+04  1.546953E+03
       409  21 -1.439525E+06  2.925528E+04 -2.791842E+04  1.111017E+04  3.999827E+04  1.346496E+03
       409  22 -1.535627E+06 -1.427071E+05 -1.854656E+05  9.297432E+02  1.264965E+05  5.235404E+02
       409  23 -1.507688E+06  3.155196E+04 -7.942387E+04 -4.906193E+02  8.315834E+04  1.547710E+03
       409  24 -1.535518E+06  5.247799E+03 -5.177048E+04  9.261982E+02  3.982088E+04  1.345803E+03
       409  25 -1.634915E+06 -1.675587E+05 -2.102596E+05  2.198009E+04  1.268356E+05  5.278591E+02
       409  26 -1.605298E+06  7.152679E+03 -1.036530E+05  4.943669E+03  8.323930E+04  1.548469E+03
       409  27 -1.631502E+06 -1.875999E+04 -7.562317E+04 -9.256191E+03  3.964350E+04  1.345116E+03
       410   1 -1.440800E+06  3.673939E+02 -2.181708E+04 -1.324938E+03 -3.130816E+04 -1.116081E+03
       410   2 -1.439693E+06  2.485070E+04 -4.567496E+02 -1.924120E+03 -2.059245E+04 -1.172543E+03
       410   3 -1.447237E+06  2.020721E+04  6.641072E+03  3.090453E+03 -9.877019E+03 -1.011822E+03
       410   4 -1.525077E+06 -2.070295E+04 -4.276532E+04  1.551874E+03 -3.134165E+04 -1.116249E+03
       410   5 -1.520737E+06  4.590090E+03 -2.058737E+04 -1.258999E+03 -2.058042E+04 -1.172570E+03
       410   6 -1.525057E+06  7.462995E+02 -1.270498E+04  1.543970E+03 -9.819418E+03 -1.011773E+03
       410   7 -1.609347E+06 -4.177379E+04 -6.371409E+04  4.428295E+03 -3.137514E+04 -1.116417E+03
       410   8 -1.601775E+06 -1.567101E+04 -4.071848E+04 -5.939667E+02 -2.056840E+04 -1.172597E+03
       410   9 -1.602871E+06 -1.871506E+04 -3.205149E+04 -2.318551E+00 -9.761824E+03 -1.011723E+03
       410  10 -1.440801E+06  3.671286E+02 -2.181893E+04 -1.324966E+03  4.714680E-10 -8.749491E-11
       410  11 -1.439694E+06  2.485058E+04 -4.575509E+02 -1.924139E+03 -5.798337E-11 -3.499225E-10
       410  12 -1.447237E+06  2.020718E+04  6.640886E+03  3.090445E+03  2.482068E-10 -3.253560E-10
       410  13 -1.525078E+06 -2.070321E+04 -4.276717E+04  1.551846E+03  2.521358E-10  3.668377E-10
       410  14 -1.520738E+06  4.589975E+03 -2.058817E+04 -1.259019E+03 -2.788218E-10 -6.912747E-11
       410  15 -1.525057E+06  7.462724E+02 -1.270516E+04  1.543962E+03  3.377112E-10 -3.170380E-10
       410  16 -1.609348E+06 -4.177406E+04 -6.371594E+04  4.428266E+03 -1.862247E-10  4.660661E-10
       410  17 -1.601775E+06 -1.567113E+04 -4.071928E+04 -5.939861E+02  2.162307E-10 -3.593909E-10
       410  18 -1.602871E+06 -1.871508E+04 -3.205167E+04 -2.326509E+00 -7.059264E-10  4.472399E-10
       410  19 -1.440800E+06  3.673939E+02 -2.181708E+04 -1.324938E+03  3.130816E+04  1.116081E+03
       410  20 -1.439693E+06  2.485070E+04 -4.567496E+02 -1.924120E+03  2.059245E+04  1.172543E+03
       410  21 -1.447237E+06  2.020721E+04  6.641072E+03  3.090453E+03  9.877019E+03  1.011822E+03
       410  22 -1.525077E+06 -2.070295E+04 -4.276532E+04  1.551874E+03  3.134165E+04  1.116249E+03
       410  23 -1.520737E+06  4.590090E+03 -2.058737E+04 -1.258999E+03  2.058042E+04  1.172570E+03
       410  24 -1.525057E+06  7.462995E+02 -1.270498E+04  1.543970E+03  9.819418E+03  1.011773E+03
       410  25 -1.609347E+06 -4.177379E+04 -6.371409E+04  4.428295E+03  3.137514E+04  1.116417E+03
       410  26 -1.601775E+06 -1.567101E+04 -4.071848E+04 -5.939667E+02  2.056840E+04  1.172597E+03
       410  27 -1.602871E+06 -1.871506E+04 -3.205149E+04 -2.318551E+00  9.761824E+03  1.011723E+03
       411   1 -1.464017E+06  1.187264E+04  4.617299E+03  1.661988E+03 -7.783083E+03 -9.012626E+02
       411   2 -1.467744E+06  1.441493E+04  8.417859E+03 -1.887213E+03 -5.119719E+03 -7.805757E+02
       411   3 -1.472865E+06  1.275516E+04  9.431806E+03  2.268809E+03 -2.456401E+03 -6.010468E+02
       411   4 -1.523446E+06 -2.983456E+03 -1.013848E+04  2.012990E+03 -7.763275E+03 -9.012601E+02
       411   5 -1.522745E+06  6.636992E+02 -5.246086E+03 -1.840642E+03 -5.087453E+03 -7.805577E+02
       411   6 -1.523442E+06  1.064348E+02 -3.149152E+03  2.010990E+03 -2.411658E+03 -6.010135E+02
       411   7 -1.582871E+06 -1.783982E+04 -2.489452E+04  2.363957E+03 -7.743469E+03 -9.012577E+02
       411   8 -1.577744E+06 -1.308776E+04 -1.891026E+04 -1.794076E+03 -5.055190E+03 -7.805396E+02
       411   9 -1.574016E+06 -1.254248E+04 -1.573030E+04  1.753191E+03 -2.366919E+03 -6.009802E+02
       411  10 -1.464017E+06  1.187262E+04  4.617183E+03  1.661983E+03  2.769344E-10  5.887519E-10
       411  11 -1.467744E+06  1.441492E+04  8.417809E+03 -1.887216E+03 -5.136988E-10  8.909571E-10
       411  12 -1.472865E+06  1.275516E+04  9.431794E+03  2.268808E+03  3.352078E-11 -4.565582E-10
       411  13 -1.523446E+06 -2.983473E+03 -1.013859E+04  2.012984E+03  1.008625E-10 -1.726833E-10
       411  14 -1.522746E+06  6.636915E+02 -5.246136E+03 -1.840645E+03 -1.684489E-11 -8.380452E-11
       411  15 -1.523442E+06  1.064329E+02 -3.149163E+03  2.010989E+03 -5.294088E-12 -1.850752E-10
       411  16 -1.582872E+06 -1.783984E+04 -2.489463E+04  2.363951E+03  5.996419E-11 -2.525595E-11
       411  17 -1.577744E+06 -1.308776E+04 -1.891031E+04 -1.794079E+03 -6.977857E-12 -2.722869E-10
       411  18 -1.574016E+06 -1.254248E+04 -1.573031E+04  1.753190E+03  1.993315E-10 -1.181170E-09
       411  19 -1.464017E+06  1.187264E+04  4.617299E+03  1.661988E+03  7.783083E+03  9.012626E+02
       411  20 -1.467744E+06  1.441493E+04  8.417859E+03 -1.887213E+03  5.119719E+03  7.805757E+02
       411  21 -1.472865E+06  1.275516E+04  9.431806E+03  2.268809E+03  2.456401E+03  6.010468E+02
       411  22 -1.523446E+06 -2.983456E+03 -1.013848E+04  2.012990E+03  7.763275E+03  9.012601E+02
       411  23 -1.522745E+06  6.636992E+02 -5.246086E+03 -1.840642E+03  5.087453E+03  7.805577E+02
       411  24 -1.523442E+06  1.064348E+02 -3.149152E+03  2.010990E+03  2.411658E+03  6.010135E+02
       411  25 -1.582871E+06 -1.783982E+04 -2.489452E+04  2.363957E+03  7.743469E+03  9.012577E+02
       411  26 -1.577744E+06 -1.308776E+04 -1.891026E+04 -1.794076E+03  5.055190E+03  7.805396E+02
       411  27 -1.574016E+06 -1.254248E+04 -1.573030E+04  1.753191E+03  2.366919E+03  6.009802E+02
       412   1 -1.495538E+06  6.488223E+03  4.385020E+03  2.248343E+03 -1.940203E+03 -4.911525E+02
       412   2 -1.500522E+06  5.730365E+03  4.236651E+03 -2.161978E+03 -1.258814E+03 -3.185089E+02
       412   3 -1.505761E+06  4.370990E+03  3.490222E+03  2.323174E+03 -5.774614E+02 -1.284507E+02
       412   4 -1.523188E+06 -4.219521E+02 -2.470148E+03  2.276426E+03 -1.904925E+03 -4.911249E+02
       412   5 -1.523060E+06  9.535833E+01 -1.362644E+03 -2.171500E+03 -1.219809E+03 -3.184763E+02
       412   6 -1.523187E+06  1.049005E+01 -8.558128E+02  2.276068E+03 -5.347239E+02 -1.284129E+02
       412   7 -1.550837E+06 -7.332185E+03 -9.325373E+03  2.304507E+03 -1.869648E+03 -4.910973E+02
       412   8 -1.545597E+06 -5.539686E+03 -6.961977E+03 -2.181022E+03 -1.180805E+03 -3.184437E+02
       412   9 -1.540614E+06 -4.350033E+03 -5.201871E+03  2.228963E+03 -4.919876E+02 -1.283751E+02
       412  10 -1.495538E+06  6.488222E+03  4.385012E+03  2.248342E+03  5.374508E-10 -3.317111E-10
       412  11 -1.500522E+06  5.730364E+03  4.236648E+03 -2.161978E+03  7.519134E-10 -7.596313E-10
       412  12 -1.505761E+06  4.370990E+03  3.490222E+03  2.323174E+03  6.637043E-10 -5.777384E-11
       412  13 -1.523188E+06 -4.219533E+02 -2.470155E+03  2.276425E+03  5.172407E-10 -8.266356E-10
       412  14 -1.523060E+06  9.535782E+01 -1.362647E+03 -2.171500E+03 -1.985810E-10  1.156808E-09
       412  15 -1.523187E+06  1.048996E+01 -8.558134E+02  2.276068E+03 -4.190822E-10  7.143903E-10
       412  16 -1.550837E+06 -7.332186E+03 -9.325380E+03  2.304507E+03 -1.141338E-10  8.600205E-10
       412  17 -1.545597E+06 -5.539687E+03 -6.961980E+03 -2.181022E+03 -1.259573E-10  4.439158E-10
       412  18 -1.540614E+06 -4.350033E+03 -5.201871E+03  2.228963E+03 -1.411385E-09  7.705945E-10
       412  19 -1.495538E+06  6.488223E+03  4.385020E+03  2.248343E+03  1.940203E+03  4.911525E+02
       412  20 -1.500522E+06  5.730365E+03  4.236651E+03 -2.161978E+03  1.258814E+03  3.185089E+02
       412  21 -1.505761E+06  4.370990E+03  3.490222E+03  2.323174E+03  5.774614E+02  1.284507E+02
       412  22 -1.523188E+06 -4.219521E+02 -2.470148E+03  2.276426E+03  1.904925E+03  4.911249E+02
       412  23 -1.523060E+06  9.535833E+01 -1.362644E+03 -2.171500E+03  1.219809E+03  3.184763E+02
       412  24 -1.523187E+06  1.049005E+01 -8.558128E+02  2.276068E+03  5.347239E+02  1.284129E+02
       412  25 -1.550837E+06 -7.332185E+03 -9.325373E+03  2.304507E+03  1.869648E+03  4.910973E+02
       412  26 -1.545597E+06 -5.539686E+03 -6.961977E+03 -2.181022E+03  1.180805E+03  3.184437E+02
       412  27 -1.540614E+06 -4.350033E+03 -5.201871E+03  2.228963E+03  4.919876E+02  1.283751E+02
       413   1 -1.530508E+06 -1.895400E+03 -2.547379E+03  2.296679E+03 -4.360326E+02 -1.276751E+01
       413   2 -1.535662E+06 -3.114920E+03 -3.631730E+03 -2.220782E+03 -1.775392E+02  1.768624E+02
       413   3 -1.540906E+06 -4.490011E+03 -4.927426E+03  2.310659E+03  8.096673E+01  3.556245E+02
       413   4 -1.523151E+06 -5.260473E+01 -7.032114E+02  2.310294E+03 -3.940304E+02 -1.272996E+01
       413   5 -1.523105E+06  2.453246E+01 -5.121956E+02 -2.214152E+03 -1.378774E+02  1.768968E+02
       413   6 -1.523151E+06 -5.350879E+01 -5.309130E+02  2.310293E+03  1.182903E+02  3.556559E+02
       413   7 -1.515793E+06  1.790186E+03  1.140952E+03  2.323910E+03 -3.520277E+02 -1.269240E+01
       413   8 -1.510549E+06  3.163973E+03  2.607327E+03 -2.207521E+03 -9.821485E+01  1.769311E+02
       413   9 -1.505395E+06  4.382969E+03  3.865577E+03  2.309927E+03  1.556148E+02  3.556873E+02
       413  10 -1.530508E+06 -1.895400E+03 -2.547380E+03  2.296679E+03  5.444234E-10  1.643883E-10
       413  11 -1.535662E+06 -3.114920E+03 -3.631730E+03 -2.220782E+03 -2.962868E-10  1.110215E-09
       413  12 -1.540906E+06 -4.490011E+03 -4.927426E+03  2.310659E+03  7.691576E-11 -7.886517E-11
       413  13 -1.523151E+06 -5.260477E+01 -7.032117E+02  2.310294E+03  6.854445E-10 -8.503840E-10
       413  14 -1.523105E+06  2.453242E+01 -5.121957E+02 -2.214152E+03  7.844073E-10 -7.890604E-10
       413  15 -1.523151E+06 -5.350893E+01 -5.309133E+02  2.310293E+03 -8.835212E-10  1.163929E-09
       413  16 -1.515793E+06  1.790186E+03  1.140952E+03  2.323910E+03  3.825848E-10 -1.333818E-10
       413  17 -1.510549E+06  3.163973E+03  2.607327E+03 -2.207521E+03  5.791881E-10 -3.803964E-10
       413  18 -1.505395E+06  4.382969E+03  3.865576E+03  2.309927E+03 -8.515768E-10 -2.737572E-10
       413  19 -1.530508E+06 -1.895400E+03 -2.547379E+03  2.296679E+03  4.360326E+02  1.276751E+01
       413  20 -1.535662E+06 -3.114920E+03 -3.631730E+03 -2.220782E+03  1.775392E+02 -1.768624E+02
       413  21 -1.540906E+06 -4.490011E+03 -4.927426E+03  2.310659E+03 -8.096673E+01 -3.556245E+02
       413  22 -1.523151E+06 -5.260473E+01 -7.032114E+02  2.310294E+03  3.940304E+02  1.272996E+01
       413  23 -1.523105E+06  2.453246E+01 -5.121956E+02 -2.214152E+03  1.378774E+02 -1.768968E+02
       413  24 -1.523151E+06 -5.350879E+01 -5.309130E+02  2.310293E+03 -1.182903E+02 -3.556559E+02
       413  25 -1.515793E+06  1.790186E+03  1.140952E+03  2.323910E+03  3.520277E+02  1.269240E+01
       413  26 -1.510549E+06  3.163973E+03  2.607327E+03 -2.207521E+03  9.821485E+01 -1.769311E+02
       413  27 -1.505395E+06  4.382969E+03  3.865577E+03  2.309927E+03 -1.556148E+02 -3.556873E+02
       414   1 -1.564679E+06 -1.036919E+04 -1.090807E+04  2.051595E+03  1.731103E+02  4.689878E+02
       414   2 -1.569258E+06 -1.145539E+04 -1.228380E+04 -1.978351E+03  5.960665E+02  6.533059E+02
       414   3 -1.574042E+06 -1.312895E+04 -1.408285E+04  2.136638E+03  1.019095E+03  7.852455E+02
       414   4 -1.523176E+06  1.134068E+01 -5.803576E+02  2.109286E+03  2.184286E+02  4.690237E+02
       414   5 -1.523075E+06  9.197938E+01 -8.098678E+02 -1.963012E+03  6.301197E+02  6.533288E+02
       414   6 -1.523176E+06 -4.127387E+02 -1.454831E+03  2.109587E+03  1.041886E+03  7.852573E+02
       414   7 -1.481671E+06  1.039174E+04  9.747230E+03  2.166981E+03  2.637500E+02  4.690595E+02
       414   8 -1.476889E+06  1.163919E+04  1.066390E+04 -1.947673E+03  6.641755E+02  6.533518E+02
       414   9 -1.472308E+06  1.230328E+04  1.117299E+04  2.082532E+03  1.064679E+03  7.852692E+02
       414  10 -1.564679E+06 -1.036919E+04 -1.090807E+04  2.051595E+03  1.177599E-09 -8.840278E-10
       414  11 -1.569258E+06 -1.145539E+04 -1.228380E+04 -1.978352E+03 -2.467894E-10  7.479386E-10
       414  12 -1.574042E+06 -1.312895E+04 -1.408285E+04  2.136638E+03  4.354349E-10 -2.850975E-10
       414  13 -1.523176E+06  1.134043E+01 -5.803581E+02  2.109286E+03 -6.852260E-10  8.242193E-10
       414  14 -1.523075E+06  9.197882E+01 -8.098693E+02 -1.963013E+03 -6.215451E-10  1.461552E-09
       414  15 -1.523176E+06 -4.127397E+02 -1.454835E+03  2.109586E+03  3.530149E-10 -2.470702E-10
       414  16 -1.481671E+06  1.039174E+04  9.747229E+03  2.166981E+03  1.402621E-10 -7.049156E-10
       414  17 -1.476889E+06  1.163919E+04  1.066390E+04 -1.947673E+03 -6.559421E-10  1.122691E-09
       414  18 -1.472308E+06  1.230328E+04  1.117299E+04  2.082532E+03 -9.540775E-10  4.806317E-10
       414  19 -1.564679E+06 -1.036919E+04 -1.090807E+04  2.051595E+03 -1.731103E+02 -4.689878E+02
       414  20 -1.569258E+06 -1.145539E+04 -1.228380E+04 -1.978351E+03 -5.960665E+02 -6.533059E+02
       414  21 -1.574042E+06 -1.312895E+04 -1.408285E+04  2.136638E+03 -1.019095E+03 -7.852455E+02
       414  22 -1.523176E+06  1.134068E+01 -5.803576E+02  2.109286E+03 -2.184286E+02 -4.690237E+02
       414  23 -1.523075E+06  9.197938E+01 -8.098678E+02 -1.963012E+03 -6.301197E+02 -6.533288E+02
       414  24 -1.523176E+06 -4.127387E+02 -1.454831E+03  2.109587E+03 -1.041886E+03 -7.852573E+02
       414  25 -1.481671E+06  1.039174E+04  9.747230E+03  2.166981E+03 -2.637500E+02 -4.690595E+02
       414  26 -1.476889E+06  1.163919E+04  1.066390E+04 -1.947673E+03 -6.641755E+02 -6.533518E+02
       414  27 -1.472308E+06  1.230328E+04  1.117299E+04  2.082532E+03 -1.064679E+03 -7.852692E+02
       415   1 -1.594198E+06 -1.760072E+04 -1.940396E+04  1.451756E+03  1.275765E+03  9.017945E+02
       415   2 -1.597220E+06 -1.797032E+04 -2.136788E+04 -1.381714E+03  2.825584E+03  1.070868E+03
       415   3 -1.601433E+06 -2.238993E+04 -2.535024E+04  2.075601E+03  4.375529E+03  1.032268E+03
       415   4 -1.523394E+06  1.058564E+02 -1.799020E+03  1.696857E+03  1.334491E+03  9.018269E+02
       415   5 -1.522804E+06  6.357835E+02 -2.881964E+03 -1.447832E+03  2.839698E+03  1.070868E+03
       415   6 -1.523397E+06 -2.876282E+03 -5.952125E+03  1.698219E+03  4.345042E+03  1.032244E+03
       415   7 -1.452586E+06  1.781206E+04  1.580554E+04  1.941985E+03  1.393223E+03  9.018592E+02
       415   8 -1.448383E+06  1.924147E+04  1.560354E+04 -1.513958E+03  2.853815E+03  1.070867E+03
       415   9 -1.445355E+06  1.663691E+04  1.344553E+04  1.320789E+03  4.314551E+03  1.032219E+03
       415  10 -1.594198E+06 -1.760073E+04 -1.940396E+04  1.451755E+03  1.281317E-10  6.968528E-11
       415  11 -1.597220E+06 -1.797032E+04 -2.136790E+04 -1.381716E+03 -2.937312E-10 -3.017312E-10
       415  12 -1.601433E+06 -2.238994E+04 -2.535027E+04  2.075597E+03 -4.392293E-11 -1.570961E-10
       415  13 -1.523394E+06  1.058551E+02 -1.799025E+03  1.696856E+03  3.385008E-11 -2.651254E-10
       415  14 -1.522804E+06  6.357801E+02 -2.881981E+03 -1.447834E+03 -2.296238E-10 -2.319983E-10
       415  15 -1.523397E+06 -2.876288E+03 -5.952163E+03  1.698215E+03  1.978885E-10 -1.576809E-10
       415  16 -1.452586E+06  1.781206E+04  1.580554E+04  1.941984E+03 -1.887925E-10 -1.937330E-10
       415  17 -1.448383E+06  1.924146E+04  1.560352E+04 -1.513960E+03  2.342733E-10 -3.351445E-10
       415  18 -1.445355E+06  1.663690E+04  1.344549E+04  1.320785E+03 -2.244556E-10  1.583071E-10
       415  19 -1.594198E+06 -1.760072E+04 -1.940396E+04  1.451756E+03 -1.275765E+03 -9.017945E+02
       415  20 -1.597220E+06 -1.797032E+04 -2.136788E+04 -1.381714E+03 -2.825584E+03 -1.070868E+03
       415  21 -1.601433E+06 -2.238993E+04 -2.535024E+04  2.075601E+03 -4.375529E+03 -1.032268E+03
       415  22 -1.523394E+06  1.058564E+02 -1.799020E+03  1.696857E+03 -1.334491E+03 -9.018269E+02
       415  23 -1.522804E+06  6.357835E+02 -2.881964E+03 -1.447832E+03 -2.839698E+03 -1.070868E+03
       415  24 -1.523397E+06 -2.876282E+03 -5.952125E+03  1.698219E+03 -4.345042E+03 -1.032244E+03
       415  25 -1.452586E+06  1.781206E+04  1.580554E+04  1.941985E+03 -1.393223E+03 -9.018592E+02
       415  26 -1.448383E+06  1.924147E+04  1.560354E+04 -1.513958E+03 -2.853815E+03 -1.070867E+03
       415  27 -1.445355E+06  1.663691E+04  1.344553E+04  1.320789E+03 -4.314551E+03 -1.032219E+03
       416   1 -1.616680E+06 -2.223521E+04 -3.002126E+04 -3.193634E+02  5.349329E+03  1.267916E+03
       416   2 -1.614950E+06 -1.910594E+04 -3.436448E+04  1.324066E+01  1.162882E+04  1.483707E+03
       416   3 -1.620969E+06 -4.387956E+04 -4.976929E+04  4.038338E+03  1.790841E+04  5.088525E+02
       416   4 -1.524843E+06  7.300118E+02 -7.199445E+03  1.118753E+03  5.524254E+03  1.267982E+03
       416   5 -1.520999E+06  4.380677E+03 -1.104396E+04 -7.261930E+02  1.154787E+04  1.483659E+03
       416   6 -1.524858E+06 -1.982482E+04 -2.577087E+04  1.121371E+03  1.757160E+04  5.087257E+02
       416   7 -1.432998E+06  2.369460E+04  1.562174E+04  2.557083E+03  5.699206E+03  1.268048E+03
       416   8 -1.427040E+06  2.786663E+04  1.227590E+04 -1.465739E+03  1.146690E+04  1.483611E+03
       416   9 -1.428740E+06  4.229258E+03 -1.773133E+03 -1.796050E+03  1.723475E+04  5.086022E+02
       416  10 -1.616680E+06 -2.223522E+04 -3.002132E+04 -3.193689E+02  4.730432E-10 -3.146387E-10
       416  11 -1.614950E+06 -1.910598E+04 -3.436474E+04  1.322676E+01  8.276631E-11  6.416468E-11
       416  12 -1.620969E+06 -4.387965E+04 -4.976990E+04  4.038331E+03 -6.463063E-11  2.901367E-11
       416  13 -1.524843E+06  7.300018E+02 -7.199505E+03  1.118748E+03  9.138665E-10 -5.297399E-10
       416  14 -1.520999E+06  4.380638E+03 -1.104422E+04 -7.262068E+02  3.064754E-11  1.575512E-10
       416  15 -1.524859E+06 -1.982490E+04 -2.577145E+04  1.121363E+03  1.609854E-10  9.406049E-12
       416  16 -1.432998E+06  2.369459E+04  1.562168E+04  2.557077E+03  1.246518E-10  1.587472E-11
       416  17 -1.427040E+06  2.786659E+04  1.227565E+04 -1.465753E+03  3.090446E-10 -2.401626E-10
       416  18 -1.428740E+06  4.229178E+03 -1.773693E+03 -1.796057E+03 -3.283153E-10 -2.095183E-11
       416  19 -1.616680E+06 -2.223521E+04 -3.002126E+04 -3.193634E+02 -5.349329E+03 -1.267916E+03
       416  20 -1.614950E+06 -1.910594E+04 -3.436448E+04  1.324066E+01 -1.162882E+04 -1.483707E+03
       416  21 -1.620969E+06 -4.387956E+04 -4.976929E+04  4.038338E+03 -1.790841E+04 -5.088525E+02
       416  22 -1.524843E+06  7.300118E+02 -7.199445E+03  1.118753E+03 -5.524254E+03 -1.267982E+03
       416  23 -1.520999E+06  4.380677E+03 -1.104396E+04 -7.261930E+02 -1.154787E+04 -1.483659E+03
       416  24 -1.524858E+06 -1.982482E+04 -2.577087E+04  1.121371E+03 -1.757160E+04 -5.087257E+02
       416  25 -1.432998E+06  2.369460E+04  1.562174E+04  2.557083E+03 -5.699206E+03 -1.268048E+03
       416  26 -1.427040E+06  2.786663E+04  1.227590E+04 -1.465739E+03 -1.146690E+04 -1.483611E+03
       416  27 -1.428740E+06  4.229258E+03 -1.773133E+03 -1.796050E+03 -1.723475E+04 -5.086022E+02
       417   1  5.364602E+06  1.069100E+06  1.386436E+06  1.614195E+05  9.375149E+05 -3.348885E+01
       417   2  5.154856E+06 -2.161394E+05  6.033537E+05  4.042162E+04  6.168016E+05 -8.726485E+02
       417   3  5.355228E+06 -2.408243E+04  3.974984E+05 -7.024898E+04  2.960515E+05 -7.250638E+02
       417   4  5.293556E+06  1.051380E+06  1.368831E+06  5.079750E+03  9.372173E+05 -2.677010E+02
       417   5  5.089803E+06 -2.323056E+05  5.873268E+05 -5.969683E+00  6.167252E+05 -9.125097E+02
       417   6  5.296146E+06 -3.870037E+04  3.829363E+05  5.203629E+03  2.961934E+05 -6.893355E+02
       417   7  5.222566E+06  1.033752E+06  1.351239E+06 -1.512423E+05  9.369197E+05 -5.017876E+02
       417   8  5.024756E+06 -2.484660E+05  5.713005E+05 -4.042935E+04  6.166489E+05 -9.523646E+02
       417   9  5.237079E+06 -5.329734E+04  3.683769E+05  8.064911E+04  2.963352E+05 -6.535701E+02
       417  10  5.363665E+06  1.068866E+06  1.384798E+06  1.614196E+05 -3.729567E-10 -6.193789E-10
       417  11  5.154451E+06 -2.162404E+05  6.026448E+05  4.042206E+04  2.647648E-09 -7.929409E-10
       417  12  5.355134E+06 -2.410571E+04  3.973352E+05 -7.024881E+04 -2.152910E-09 -1.952397E-09
       417  13  5.292619E+06  1.051147E+06  1.367194E+06  5.079953E+03  1.500570E-09 -4.929482E-10
       417  14  5.089397E+06 -2.324066E+05  5.866180E+05 -5.517486E+00  1.863217E-09 -1.467213E-09
       417  15  5.296052E+06 -3.872367E+04  3.827728E+05  5.203794E+03 -2.057222E-09 -1.881250E-09
       417  16  5.221630E+06  1.033518E+06  1.349603E+06 -1.512419E+05  1.306277E-09 -7.982395E-10
       417  17  5.024351E+06 -2.485670E+05  5.705918E+05 -4.042888E+04  1.962813E-09 -1.453317E-09
       417  18  5.236985E+06 -5.332067E+04  3.682132E+05  8.064927E+04  3.813861E-09 -9.584587E-10
       417  19  5.364602E+06  1.069100E+06  1.386436E+06  1.614195E+05 -9.375149E+05  3.348885E+01
       417  20  5.154856E+06 -2.161394E+05  6.033537E+05  4.042162E+04 -6.168016E+05  8.726485E+02
       417  21  5.355228E+06 -2.408243E+04  3.974984E+05 -7.024898E+04 -2.960515E+05  7.250638E+02
       417  22  5.293556E+06  1.051380E+06  1.368831E+06  5.079750E+03 -9.372173E+05  2.677010E+02
       417  23  5.089803E+06 -2.323056E+05  5.873268E+05 -5.969683E+00 -6.167252E+05  9.125097E+02
       417  24  5.296146E+06 -3.870037E+04  3.829363E+05  5.203629E+03 -2.961934E+05  6.893355E+02
       417  25  5.222566E+06  1.033752E+06  1.351239E+06 -1.512423E+05 -9.369197E+05  5.017876E+02
       417  26  5.024756E+06 -2.484660E+05  5.713005E+05 -4.042935E+04 -6.166489E+05  9.523646E+02
       417  27  5.237079E+06 -5.329734E+04  3.683769E+05  8.064911E+04 -2.963352E+05  6.535701E+02
       418   1  5.257396E+06  1.621675E+05  3.259789E+05  2.549290E+04  2.330721E+05 -4.479519E+02
       418   2  5.222726E+06 -2.488838E+04  1.615688E+05  6.580155E+03  1.530989E+05 -4.491582E+02
       418   3  5.251940E+06  2.688422E+03  1.025876E+05 -7.194254E+03  7.312908E+04 -3.903922E+02
       418   4  5.218487E+06  1.524935E+05  3.163800E+05  3.970389E+03  2.330633E+05 -4.559685E+02
       418   5  5.186800E+06 -3.380929E+04  1.527095E+05  1.427222E+03  1.531066E+05 -4.504153E+02
       418   6  5.218997E+06 -5.476501E+03  9.446100E+04  4.022270E+03  7.315296E+04 -3.890717E+02
       418   7  5.179579E+06  1.428212E+05  3.067812E+05 -1.755079E+04  2.330544E+05 -4.639849E+02
       418   8  5.150874E+06 -4.273020E+04  1.438501E+05 -3.725415E+03  1.531142E+05 -4.516726E+02
       418   9  5.186055E+06 -1.364103E+04  8.633438E+04  1.523820E+04  7.317684E+04 -3.877503E+02
       418  10  5.257338E+06  1.621530E+05  3.258776E+05  2.549299E+04 -2.333483E-09 -1.315960E-09
       418  11  5.222701E+06 -2.489460E+04  1.615251E+05  6.580210E+03  2.136136E-09 -2.752938E-10
       418  12  5.251934E+06  2.687001E+03  1.025776E+05 -7.194231E+03  7.867454E-11  5.493250E-10
       418  13  5.218429E+06  1.524791E+05  3.162787E+05  3.970474E+03  1.796822E-09 -9.467713E-10
       418  14  5.186775E+06 -3.381552E+04  1.526658E+05  1.427277E+03  2.929070E-09 -4.156006E-10
       418  15  5.218991E+06 -5.477923E+03  9.445103E+04  4.022293E+03 -2.111426E-09 -8.805329E-10
       418  16  5.179521E+06  1.428068E+05  3.066800E+05 -1.755070E+04  1.383100E-09 -1.218425E-09
       418  17  5.150849E+06 -4.273643E+04  1.438064E+05 -3.725360E+03  8.352151E-10 -1.902512E-09
       418  18  5.186049E+06 -1.364246E+04  8.632440E+04  1.523823E+04  6.578654E-12 -3.564312E-10
       418  19  5.257396E+06  1.621675E+05  3.259789E+05  2.549290E+04 -2.330721E+05  4.479519E+02
       418  20  5.222726E+06 -2.488838E+04  1.615688E+05  6.580155E+03 -1.530989E+05  4.491582E+02
       418  21  5.251940E+06  2.688422E+03  1.025876E+05 -7.194254E+03 -7.312908E+04  3.903922E+02
       418  22  5.218487E+06  1.524935E+05  3.163800E+05  3.970389E+03 -2.330633E+05  4.559685E+02
       418  23  5.186800E+06 -3.380929E+04  1.527095E+05  1.427222E+03 -1.531066E+05  4.504153E+02
       418  24  5.218997E+06 -5.476501E+03  9.446100E+04  4.022270E+03 -7.315296E+04  3.890717E+02
       418  25  5.179579E+06  1.428212E+05  3.067812E+05 -1.755079E+04 -2.330544E+05  4.639849E+02
       418  26  5.150874E+06 -4.273020E+04  1.438501E+05 -3.725415E+03 -1.531142E+05  4.516726E+02
       418  27  5.186055E+06 -1.364103E+04  8.633438E+04  1.523820E+04 -7.317684E+04  3.877503E+02
       419   1  5.230295E+06  2.776190E+04  8.121772E+04  6.169811E+03  5.775153E+04 -3.333978E+02
       419   2  5.223883E+06  5.502161E+02  4.486250E+04  2.815194E+03  3.760666E+04 -2.826563E+02
       419   3  5.227830E+06  4.432996E+03  2.931561E+04  1.677969E+03  1.746253E+04 -2.667304E+02
       419   4  5.207007E+06  2.198031E+04  7.547919E+04  3.348149E+03  5.776691E+04 -3.336515E+02
       419   5  5.201878E+06 -4.911749E+03  3.943497E+04  2.244548E+03  3.761510E+04 -2.826868E+02
       419   6  5.207109E+06 -7.075435E+02  2.420442E+04  3.358325E+03  1.746400E+04 -2.666831E+02
       419   7  5.183720E+06  1.619871E+04  6.974062E+04  5.265931E+02  5.778228E+04 -3.339053E+02
       419   8  5.179873E+06 -1.037375E+04  3.400741E+04  1.673922E+03  3.762354E+04 -2.827173E+02
       419   9  5.186389E+06 -5.848105E+03  1.909320E+04  5.038625E+03  1.746546E+04 -2.666358E+02
       419  10  5.230292E+06  2.776101E+04  8.121151E+04  6.169826E+03 -1.073329E-09 -4.912932E-10
       419  11  5.223882E+06  5.498402E+02  4.485986E+04  2.815202E+03 -3.867466E-09 -7.145973E-10
       419  12  5.227830E+06  4.432915E+03  2.931504E+04  1.677973E+03 -7.014864E-10  1.139473E-09
       419  13  5.207004E+06  2.197942E+04  7.547297E+04  3.348165E+03 -2.212794E-09 -6.785319E-10
       419  14  5.201877E+06 -4.912125E+03  3.943233E+04  2.244557E+03  5.995221E-11 -3.772924E-10
       419  15  5.207109E+06 -7.076247E+02  2.420385E+04  3.358329E+03 -3.598486E-09 -8.754746E-10
       419  16  5.183716E+06  1.619782E+04  6.973439E+04  5.266086E+02 -1.142772E-09  2.288801E-10
       419  17  5.179872E+06 -1.037412E+04  3.400477E+04  1.673931E+03 -2.430734E-09 -1.448331E-09
       419  18  5.186389E+06 -5.848186E+03  1.909263E+04  5.038629E+03 -2.292529E-10 -7.219964E-10
       419  19  5.230295E+06  2.776190E+04  8.121772E+04  6.169811E+03 -5.775153E+04  3.333978E+02
       419  20  5.223883E+06  5.502161E+02  4.486250E+04  2.815194E+03 -3.760666E+04  2.826563E+02
       419  21  5.227830E+06  4.432996E+03  2.931561E+04  1.677969E+03 -1.746253E+04  2.667304E+02
       419  22  5.207007E+06  2.198031E+04  7.547919E+04  3.348149E+03 -5.776691E+04  3.336515E+02
       419  23  5.201878E+06 -4.911749E+03  3.943497E+04  2.244548E+03 -3.761510E+04  2.826868E+02
       419  24  5.207109E+06 -7.075435E+02  2.420442E+04  3.358325E+03 -1.746400E+04  2.666831E+02
       419  25  5.183720E+06  1.619871E+04  6.974062E+04  5.265931E+02 -5.778228E+04  3.339053E+02
       419  26  5.179873E+06 -1.037375E+04  3.400741E+04  1.673922E+03 -3.762354E+04  2.827173E+02
       419  27  5.186389E+06 -5.848105E+03  1.909320E+04  5.038625E+03 -1.746546E+04  2.666358E+02
       420   1  5.222779E+06  7.477373E+03  2.369686E+04  3.275494E+03  1.350008E+04 -2.529702E+02
       420   2  5.221660E+06  3.535134E+03  1.614729E+04  2.848834E+03  7.542296E+03 -2.317831E+02
       420   3  5.222548E+06  4.550654E+03  1.369215E+04  2.636968E+03  1.584480E+03 -2.511816E+02
       420   4  5.205242E+06  3.125140E+03  1.937428E+04  2.908777E+03  1.350951E+04 -2.529736E+02
       420   5  5.204246E+06 -7.867097E+02  1.185205E+04  2.802121E+03  7.543049E+03 -2.317836E+02
       420   6  5.205260E+06  2.607774E+02  9.430337E+03  2.910265E+03  1.576555E+03 -2.511858E+02
       420   7  5.187705E+06 -1.227114E+03  1.505168E+04  2.542071E+03  1.351893E+04 -2.529769E+02
       420   8  5.186833E+06 -5.108576E+03  7.556786E+03  2.755409E+03  7.543802E+03 -2.317841E+02
       420   9  5.187971E+06 -4.029121E+03  5.168500E+03  3.183554E+03  1.568631E+03 -2.511900E+02
       420  10  5.222779E+06  7.477324E+03  2.369652E+04  3.275497E+03  1.546093E-10  6.277842E-10
       420  11  5.221660E+06  3.535119E+03  1.614718E+04  2.848835E+03 -7.114110E-10 -2.834412E-10
       420  12  5.222548E+06  4.550653E+03  1.369215E+04  2.636968E+03 -1.812120E-09 -1.766660E-09
       420  13  5.205242E+06  3.125092E+03  1.937394E+04  2.908780E+03 -2.024157E-10  3.494749E-10
       420  14  5.204246E+06 -7.867249E+02  1.185194E+04  2.802122E+03 -3.876383E-10 -8.061830E-10
       420  15  5.205260E+06  2.607767E+02  9.430332E+03  2.910265E+03  1.230609E-09  4.123070E-10
       420  16  5.187705E+06 -1.227163E+03  1.505134E+04  2.542073E+03  1.807350E-09  1.097493E-09
       420  17  5.186833E+06 -5.108591E+03  7.556680E+03  2.755410E+03 -1.910995E-09 -3.136102E-10
       420  18  5.187971E+06 -4.029122E+03  5.168495E+03  3.183554E+03  2.161496E-10 -1.310619E-09
       420  19  5.222779E+06  7.477373E+03  2.369686E+04  3.275494E+03 -1.350008E+04  2.529702E+02
       420  20  5.221660E+06  3.535134E+03  1.614729E+04  2.848834E+03 -7.542296E+03  2.317831E+02
       420  21  5.222548E+06  4.550654E+03  1.369215E+04  2.636968E+03 -1.584480E+03  2.511816E+02
       420  22  5.205242E+06  3.125140E+03  1.937428E+04  2.908777E+03 -1.350951E+04  2.529736E+02
       420  23  5.204246E+06 -7.867097E+02  1.185205E+04  2.802121E+03 -7.543049E+03  2.317836E+02
       420  24  5.205260E+06  2.607774E+02  9.430337E+03  2.910265E+03 -1.576555E+03  2.511858E+02
       420  25  5.187705E+06 -1.227114E+03  1.505168E+04  2.542071E+03 -1.351893E+04  2.529769E+02
       420  26  5.186833E+06 -5.108576E+03  7.556786E+03  2.755409E+03 -7.543802E+03  2.317841E+02
       420  27  5.187971E+06 -4.029121E+03  5.168500E+03  3.183554E+03 -1.568631E+03  2.511900E+02
       421   1  5.224428E+06  5.128941E+03  1.393399E+04  2.730974E+03 -1.171666E+02 -2.599217E+02
       421   2  5.224528E+06  4.338493E+03  1.551075E+04  3.309711E+03 -5.403532E+03 -2.771754E+02
       421   3  5.226381E+06  7.815402E+03  2.157561E+04  2.184074E+03 -1.068989E+04 -3.404659E+02
       421   4  5.205203E+06  3.572551E+02  9.191832E+03  2.483726E+03 -1.152422E+02 -2.599210E+02
       421   5  5.204319E+06 -6.770450E+02  1.052601E+04  3.335203E+03 -5.411466E+03 -2.771811E+02
       421   6  5.205190E+06  2.557795E+03  1.635519E+04  2.482303E+03 -1.070768E+04 -3.404832E+02
       421   7  5.185978E+06 -4.414458E+03  4.449652E+03  2.236485E+03 -1.133179E+02 -2.599204E+02
       421   8  5.184111E+06 -5.692613E+03  5.541245E+03  3.360694E+03 -5.419401E+03 -2.771868E+02
       421   9  5.183999E+06 -2.699844E+03  1.113473E+04  2.780522E+03 -1.072546E+04 -3.405005E+02
       421  10  5.224428E+06  5.128941E+03  1.393399E+04  2.730974E+03 -1.794920E-09 -2.930938E-10
       421  11  5.224528E+06  4.338485E+03  1.551070E+04  3.309710E+03  1.624732E-09  2.646488E-09
       421  12  5.226381E+06  7.815372E+03  2.157540E+04  2.184071E+03 -3.109366E-10  2.347401E-10
       421  13  5.205203E+06  3.572550E+02  9.191832E+03  2.483726E+03  3.485362E-09  1.445349E-09
       421  14  5.204319E+06 -6.770528E+02  1.052596E+04  3.335201E+03  3.110198E-09  1.763081E-09
       421  15  5.205190E+06  2.557765E+03  1.635497E+04  2.482300E+03  8.761839E-11  3.818382E-10
       421  16  5.185978E+06 -4.414458E+03  4.449652E+03  2.236485E+03  2.547881E-09  9.358915E-10
       421  17  5.184111E+06 -5.692621E+03  5.541190E+03  3.360693E+03 -1.968435E-09 -9.249541E-10
       421  18  5.183999E+06 -2.699875E+03  1.113452E+04  2.780519E+03 -1.526779E-09  2.623407E-12
       421  19  5.224428E+06  5.128941E+03  1.393399E+04  2.730974E+03  1.171666E+02  2.599217E+02
       421  20  5.224528E+06  4.338493E+03  1.551075E+04  3.309711E+03  5.403532E+03  2.771754E+02
       421  21  5.226381E+06  7.815402E+03  2.157561E+04  2.184074E+03  1.068989E+04  3.404659E+02
       421  22  5.205203E+06  3.572551E+02  9.191832E+03  2.483726E+03  1.152422E+02  2.599210E+02
       421  23  5.204319E+06 -6.770450E+02  1.052601E+04  3.335203E+03  5.411466E+03  2.771811E+02
       421  24  5.205190E+06  2.557795E+03  1.635519E+04  2.482303E+03  1.070768E+04  3.404832E+02
       421  25  5.185978E+06 -4.414458E+03  4.449652E+03  2.236485E+03  1.133179E+02  2.599204E+02
       421  26  5.184111E+06 -5.692613E+03  5.541245E+03  3.360694E+03  5.419401E+03  2.771868E+02
       421  27  5.183999E+06 -2.699844E+03  1.113473E+04  2.780522E+03  1.072546E+04  3.405005E+02
       422   1  5.235771E+06  6.654880E+03  2.737835E+04  3.296226E+03 -1.401680E+04 -3.786368E+02
       422   2  5.233978E+06  3.806973E+03  4.032229E+04  3.624045E+03 -3.063018E+04 -4.531625E+02
       422   3  5.240708E+06  2.647200E+04  7.039691E+04 -4.055714E+02 -4.724359E+04 -5.735058E+02
       422   4  5.206704E+06 -5.620642E+02  2.020486E+04  1.898268E+03 -1.402517E+04 -3.786123E+02
       422   5  5.202399E+06 -4.029420E+03  3.253395E+04  4.070121E+03 -3.064779E+04 -4.531989E+02
       422   6  5.206621E+06  1.801849E+04  6.200074E+04  1.884493E+03 -4.727038E+04 -5.737018E+02
       422   7  5.177638E+06 -7.779063E+03  1.303130E+04  5.003745E+02 -1.403354E+04 -3.785879E+02
       422   8  5.170822E+06 -1.186589E+04  2.474553E+04  4.516174E+03 -3.066540E+04 -4.532353E+02
       422   9  5.172534E+06  9.564904E+03  5.360448E+04  4.174431E+03 -4.729716E+04 -5.738980E+02
       422  10  5.235771E+06  6.654827E+03  2.737799E+04  3.296222E+03  1.843065E-09  1.882238E-09
       422  11  5.233977E+06  3.806724E+03  4.032054E+04  3.624034E+03 -3.764063E-09 -3.129375E-10
       422  12  5.240706E+06  2.647141E+04  7.039275E+04 -4.055932E+02  9.699118E-10  1.753985E-09
       422  13  5.206704E+06 -5.621166E+02  2.020449E+04  1.898264E+03  2.012567E-10  7.401176E-10
       422  14  5.202398E+06 -4.029670E+03  3.253220E+04  4.070110E+03 -1.956819E-09  4.066465E-10
       422  15  5.206618E+06  1.801789E+04  6.199658E+04  1.884471E+03 -3.808089E-10 -3.901035E-10
       422  16  5.177637E+06 -7.779116E+03  1.303093E+04  5.003702E+02 -1.827606E-09 -8.677893E-10
       422  17  5.170821E+06 -1.186614E+04  2.474378E+04  4.516163E+03 -2.221619E-09 -1.131579E-10
       422  18  5.172531E+06  9.564309E+03  5.360031E+04  4.174409E+03 -3.826642E-10 -7.672626E-10
       422  19  5.235771E+06  6.654880E+03  2.737835E+04  3.296226E+03  1.401680E+04  3.786368E+02
       422  20  5.233978E+06  3.806973E+03  4.032229E+04  3.624045E+03  3.063018E+04  4.531625E+02
       422  21  5.240708E+06  2.647200E+04  7.039691E+04 -4.055714E+02  4.724359E+04  5.735058E+02
       422  22  5.206704E+06 -5.620642E+02  2.020486E+04  1.898268E+03  1.402517E+04  3.786123E+02
       422  23  5.202399E+06 -4.029420E+03  3.253395E+04  4.070121E+03  3.064779E+04  4.531989E+02
       422  24  5.206621E+06  1.801849E+04  6.200074E+04  1.884493E+03  4.727038E+04  5.737018E+02
       422  25  5.177638E+06 -7.779063E+03  1.303130E+04  5.003745E+02  1.403354E+04  3.785879E+02
       422  26  5.170822E+06 -1.186589E+04  2.474553E+04  4.516174E+03  3.066540E+04  4.532353E+02
       422  27  5.172534E+06  9.564904E+03  5.360448E+04  4.174431E+03  4.729716E+04  5.738980E+02
       423   1  5.267671E+06  8.239851E+03  9.018001E+04  1.014668E+04 -5.986182E+04 -6.901066E+02
       423   2  5.246381E+06 -1.374169E+04  1.391392E+05  1.145930E+03 -1.254664E+05 -9.028866E+02
       423   3  5.277503E+06  1.402380E+05  2.745600E+05 -1.680373E+04 -1.910746E+05 -1.015196E+03
       423   4  5.216451E+06 -4.491445E+03  7.753589E+04  9.125376E+02 -5.990436E+04 -6.892625E+02
       423   5  5.190034E+06 -2.771636E+04  1.252479E+05  5.326863E+03 -1.254824E+05 -9.037503E+02
       423   6  5.216030E+06  1.250234E+05  2.594088E+05  7.925792E+02 -1.910637E+05 -1.020576E+03
       423   7  5.165232E+06 -1.722262E+04  6.489162E+04 -8.320853E+03 -5.994690E+04 -6.884171E+02
       423   8  5.133690E+06 -4.169121E+04  1.113563E+05  9.507418E+03 -1.254985E+05 -9.046143E+02
       423   9  5.154561E+06  1.098097E+05  2.442575E+05  1.838716E+04 -1.910527E+05 -1.025956E+03
       423  10  5.267668E+06  8.238899E+03  9.017333E+04  1.014665E+04  9.978523E-10  2.117596E-09
       423  11  5.246365E+06 -1.374587E+04  1.391099E+05  1.145839E+03 -8.914571E-10  2.102899E-10
       423  12  5.277464E+06  1.402283E+05  2.744920E+05 -1.680389E+04  1.628024E-09 -1.421413E-09
       423  13  5.216447E+06 -4.492399E+03  7.752920E+04  9.125044E+02  1.388358E-13 -4.292951E-11
       423  14  5.190018E+06 -2.772055E+04  1.252185E+05  5.326771E+03 -3.826112E-11  6.230692E-10
       423  15  5.215991E+06  1.250137E+05  2.593408E+05  7.924225E+02  1.956722E-10 -3.779070E-11
       423  16  5.165228E+06 -1.722357E+04  6.488492E+04 -8.320886E+03  2.729478E-10 -3.316943E-10
       423  17  5.133673E+06 -4.169539E+04  1.113269E+05  9.507327E+03  5.537759E-09  3.235556E-09
       423  18  5.154522E+06  1.098000E+05  2.441894E+05  1.838700E+04  1.602062E-09  1.156126E-09
       423  19  5.267671E+06  8.239851E+03  9.018001E+04  1.014668E+04  5.986182E+04  6.901066E+02
       423  20  5.246381E+06 -1.374169E+04  1.391392E+05  1.145930E+03  1.254664E+05  9.028866E+02
       423  21  5.277503E+06  1.402380E+05  2.745600E+05 -1.680373E+04  1.910746E+05  1.015196E+03
       423  22  5.216451E+06 -4.491445E+03  7.753589E+04  9.125376E+02  5.990436E+04  6.892625E+02
       423  23  5.190034E+06 -2.771636E+04  1.252479E+05  5.326863E+03  1.254824E+05  9.037503E+02
       423  24  5.216030E+06  1.250234E+05  2.594088E+05  7.925792E+02  1.910637E+05  1.020576E+03
       423  25  5.165232E+06 -1.722262E+04  6.489162E+04 -8.320853E+03  5.994690E+04  6.884171E+02
       423  26  5.133690E+06 -4.169121E+04  1.113563E+05  9.507418E+03  1.254985E+05  9.046143E+02
       423  27  5.154561E+06  1.098097E+05  2.442575E+05  1.838716E+04  1.910527E+05  1.025956E+03
       424   1  5.374613E+06 -8.028350E+03  3.373974E+05  6.111346E+04 -2.425800E+05 -1.504441E+03
       424   2  5.215506E+06 -1.644921E+05  5.072793E+05 -2.531866E+04 -5.057503E+05 -2.214871E+03
       424   3  5.392729E+06  8.902355E+05  1.150488E+06 -1.300440E+05 -7.689031E+05 -1.419867E+03
       424   4  5.279708E+06 -3.174038E+04  3.139572E+05 -8.322460E+02 -2.428163E+05 -1.480709E+03
       424   5  5.110469E+06 -1.904648E+05  4.814271E+05  7.734933E+03 -5.056375E+05 -2.241545E+03
       424   6  5.277540E+06  8.620179E+05  1.122037E+06 -1.967832E+03 -7.684369E+05 -1.576748E+03
       424   7  5.184819E+06 -5.543878E+04  2.905183E+05 -6.276854E+04 -2.430525E+05 -1.456926E+03
       424   8  5.005444E+06 -2.164342E+05  4.555746E+05  4.078297E+04 -5.055248E+05 -2.268210E+03
       424   9  5.162398E+06  8.338604E+05  1.093594E+06  1.260848E+05 -7.679709E+05 -1.733463E+03
       424  10  5.374550E+06 -8.043980E+03  3.372878E+05  6.111317E+04  1.423018E-09 -7.609336E-10
       424  11  5.215233E+06 -1.645601E+05  5.068027E+05 -2.531957E+04 -2.366688E-09 -1.791296E-09
       424  12  5.392099E+06  8.900785E+05  1.149386E+06 -1.300449E+05 -4.394539E-10 -4.584062E-10
       424  13  5.279645E+06 -3.175604E+04  3.138473E+05 -8.325349E+02 -6.617035E-09 -4.181329E-09
       424  14  5.110196E+06 -1.905327E+05  4.809506E+05  7.734023E+03  4.703419E-09  3.378516E-09
       424  15  5.276910E+06  8.618610E+05  1.120937E+06 -1.968805E+03 -3.476367E-10  4.917233E-10
       424  16  5.184756E+06 -5.545448E+04  2.904082E+05 -6.276883E+04  1.131517E-09 -6.653123E-10
       424  17  5.005171E+06 -2.165021E+05  4.550983E+05  4.078205E+04  3.650942E-09  1.953389E-09
       424  18  5.161769E+06  8.337037E+05  1.092495E+06  1.260837E+05 -1.580227E-09 -1.179659E-09
       424  19  5.374613E+06 -8.028350E+03  3.373974E+05  6.111346E+04  2.425800E+05  1.504441E+03
       424  20  5.215506E+06 -1.644921E+05  5.072793E+05 -2.531866E+04  5.057503E+05  2.214871E+03
       424  21  5.392729E+06  8.902355E+05  1.150488E+06 -1.300440E+05  7.689031E+05  1.419867E+03
       424  22  5.279708E+06 -3.174038E+04  3.139572E+05 -8.322460E+02  2.428163E+05  1.480709E+03
       424  23  5.110469E+06 -1.904648E+05  4.814271E+05  7.734933E+03  5.056375E+05  2.241545E+03
       424  24  5.277540E+06  8.620179E+05  1.122037E+06 -1.967832E+03  7.684369E+05  1.576748E+03
       424  25  5.184819E+06 -5.543878E+04  2.905183E+05 -6.276854E+04  2.430525E+05  1.456926E+03
       424  26  5.005444E+06 -2.164342E+05  4.555746E+05  4.078297E+04  5.055248E+05  2.268210E+03
       424  27  5.162398E+06  8.338604E+05  1.093594E+06  1.260848E+05  7.679709E+05  1.733463E+03
       425   1  4.675918E+05  1.721767E+05  1.597657E+05  4.746601E+04  5.484934E+04 -1.045603E+04
       425   2  4.162885E+05  1.640537E+05  1.227225E+05  4.877364E+04  2.576425E+04 -3.580874E+04
       425   3  3.682400E+05  1.537465E+05  1.040878E+05  5.833309E+04 -3.338572E+03 -4.429510E+04
       425   4 -2.969925E+05 -1.617606E+04 -1.769102E+04  5.726133E+04 -1.239801E+04 -1.055458E+04
       425   5 -2.956880E+05 -4.606640E+03 -8.761120E+03  5.312325E+04 -7.860484E+03 -3.586491E+04
       425   6 -2.969680E+05 -1.059866E+03 -4.766922E+03  5.723672E+04 -3.344039E+03 -4.429951E+04
       425   7 -1.061027E+06 -2.045672E+05 -1.951700E+05  6.704431E+04 -7.956316E+04 -1.065532E+04
       425   8 -1.007170E+06 -1.732952E+05 -1.402616E+05  5.746754E+04 -4.144768E+04 -3.592160E+04
       425   9 -9.617379E+05 -1.558889E+05 -1.136343E+05  5.614137E+04 -3.349500E+03 -4.430392E+04
       425  10  4.675886E+05  1.721758E+05  1.597598E+05  4.746647E+04  3.032945E-09 -5.838712E-10
       425  11  4.162874E+05  1.640521E+05  1.227189E+05  4.877438E+04  2.114252E-09 -4.466729E-09
       425  12  3.682395E+05  1.537444E+05  1.040841E+05  5.833297E+04 -8.153447E-10 -3.347532E-09
       425  13 -2.969927E+05 -1.617623E+04 -1.769152E+04  5.726123E+04  4.341921E-10  1.129132E-09
       425  14 -2.956884E+05 -4.608037E+03 -8.763653E+03  5.312302E+04  5.409718E-10 -1.767911E-09
       425  15 -2.969686E+05 -1.061976E+03 -4.770630E+03  5.723660E+04  6.113299E-10 -2.058908E-10
       425  16 -1.061034E+06 -2.045691E+05 -1.951821E+05  6.704362E+04 -4.563423E-09  3.751436E-10
       425  17 -1.007173E+06 -1.732971E+05 -1.402673E+05  5.746634E+04 -2.546035E-09 -4.662342E-09
       425  18 -9.617385E+05 -1.558911E+05 -1.136381E+05  5.614125E+04  9.851219E-10 -4.110274E-09
       425  19  4.675918E+05  1.721767E+05  1.597657E+05  4.746601E+04 -5.484934E+04  1.045603E+04
       425  20  4.162885E+05  1.640537E+05  1.227225E+05  4.877364E+04 -2.576425E+04  3.580874E+04
       425  21  3.682400E+05  1.537465E+05  1.040878E+05  5.833309E+04  3.338572E+03  4.429510E+04
       425  22 -2.969925E+05 -1.617606E+04 -1.769102E+04  5.726133E+04  1.239801E+04  1.055458E+04
       425  23 -2.956880E+05 -4.606640E+03 -8.761120E+03  5.312325E+04  7.860484E+03  3.586491E+04
       425  24 -2.969680E+05 -1.059866E+03 -4.766922E+03  5.723672E+04  3.344039E+03  4.429951E+04
       425  25 -1.061027E+06 -2.045672E+05 -1.951700E+05  6.704431E+04  7.956316E+04  1.065532E+04
       425  26 -1.007170E+06 -1.732952E+05 -1.402616E+05  5.746754E+04  4.144768E+04  3.592160E+04
       425  27 -9.617379E+05 -1.558889E+05 -1.136343E+05  5.614137E+04  3.349500E+03  4.430392E+04
       426   1  3.364188E+05  1.459804E+05  9.790715E+04  5.783562E+04 -2.223639E+03 -4.373319E+04
       426   2  2.866246E+05  1.344517E+05  8.793753E+04  5.338439E+04 -4.966290E+03 -4.305736E+04
       426   3  2.372036E+05  1.230392E+05  7.978039E+04  5.837783E+04 -7.712890E+03 -4.051197E+04
       426   4 -2.964473E+05 -8.861921E+02 -3.591394E+03  5.750412E+04 -2.727750E+03 -4.373826E+04
       426   5 -2.962999E+05 -1.124957E+02 -1.964047E+03  5.278055E+04 -1.744996E+03 -4.305534E+04
       426   6 -2.964278E+05  1.309631E+02 -1.110865E+03  5.750222E+04 -7.663449E+02 -4.050196E+04
       426   7 -9.289156E+05 -1.477730E+05 -1.051006E+05  5.717278E+04 -3.231365E+03 -4.374333E+04
       426   8 -8.788849E+05 -1.346932E+05 -9.187322E+04  5.217715E+04  1.473391E+03 -4.305333E+04
       426   9 -8.297737E+05 -1.227908E+05 -8.200784E+04  5.662725E+04  6.174466E+03 -4.049197E+04
       426  10  3.364183E+05  1.459784E+05  9.790355E+04  5.783554E+04 -5.551889E-09 -3.429046E-09
       426  11  2.866241E+05  1.344497E+05  8.793400E+04  5.338422E+04 -1.826323E-09  2.386937E-09
       426  12  2.372031E+05  1.230374E+05  7.977719E+04  5.837757E+04  1.013114E-09  2.378218E-09
       426  13 -2.964479E+05 -8.882480E+02 -3.595003E+03  5.750402E+04 -1.074646E-09 -1.646151E-09
       426  14 -2.963004E+05 -1.144869E+02 -1.967536E+03  5.278049E+04 -5.391180E-10  2.706650E-10
       426  15 -2.964282E+05  1.292017E+02 -1.113948E+03  5.750219E+04  2.229692E-09 -2.218816E-09
       426  16 -9.289161E+05 -1.477750E+05 -1.051042E+05  5.717267E+04  4.382100E-09  8.285573E-10
       426  17 -8.788854E+05 -1.346951E+05 -9.187671E+04  5.217720E+04  1.195830E-09  2.388849E-09
       426  18 -8.297742E+05 -1.227926E+05 -8.201099E+04  5.662745E+04 -6.438584E-10  2.678264E-12
       426  19  3.364188E+05  1.459804E+05  9.790715E+04  5.783562E+04  2.223639E+03  4.373319E+04
       426  20  2.866246E+05  1.344517E+05  8.793753E+04  5.338439E+04  4.966290E+03  4.305736E+04
       426  21  2.372036E+05  1.230392E+05  7.978039E+04  5.837783E+04  7.712890E+03  4.051197E+04
       426  22 -2.964473E+05 -8.861921E+02 -3.591394E+03  5.750412E+04  2.727750E+03  4.373826E+04
       426  23 -2.962999E+05 -1.124957E+02 -1.964047E+03  5.278055E+04  1.744996E+03  4.305534E+04
       426  24 -2.964278E+05  1.309631E+02 -1.110865E+03  5.750222E+04  7.663449E+02  4.050196E+04
       426  25 -9.289156E+05 -1.477730E+05 -1.051006E+05  5.717278E+04  3.231365E+03  4.374333E+04
       426  26 -8.788849E+05 -1.346932E+05 -9.187322E+04  5.217715E+04 -1.473391E+03  4.305333E+04
       426  27 -8.297737E+05 -1.227908E+05 -8.200784E+04  5.662725E+04 -6.174466E+03  4.049197E+04
       427   1  2.057733E+05  1.157245E+05  7.489205E+04  5.831110E+04 -7.494748E+03 -3.842034E+04
       427   2  1.561220E+05  1.042665E+05  6.745519E+04  5.346567E+04 -7.675967E+03 -3.485748E+04
       427   3  1.064844E+05  9.288330E+04  6.014625E+04  5.820358E+04 -7.858624E+03 -3.108649E+04
       427   4 -2.963740E+05  1.428680E+02 -8.428023E+02  5.753319E+04 -6.016069E+02 -3.840976E+04
       427   5 -2.963360E+05  1.798965E+02 -4.819457E+02  5.274125E+04 -3.685169E+02 -3.484505E+04
       427   6 -2.963588E+05  2.199103E+02 -2.810998E+02  5.753306E+04 -1.368776E+02 -3.107213E+04
       427   7 -7.982682E+05 -1.154507E+05 -7.658257E+04  5.675581E+04  6.286182E+03 -3.839919E+04
       427   8 -7.485883E+05 -1.039163E+05 -6.842293E+04  5.201728E+04  6.933822E+03 -3.483263E+04
       427   9 -6.990389E+05 -9.245113E+04 -6.071141E+04  5.686290E+04  7.580059E+03 -3.105778E+04
       427  10  2.057728E+05  1.157229E+05  7.488917E+04  5.831087E+04 -2.680444E-09  3.505208E-09
       427  11  1.561216E+05  1.042651E+05  6.745280E+04  5.346545E+04  6.247962E-10  3.771723E-09
       427  12  1.064841E+05  9.288224E+04  6.014431E+04  5.820338E+04  4.017505E-09  8.070495E-10
       427  13 -2.963744E+05  1.412839E+02 -8.455750E+02  5.753317E+04 -3.225399E-10 -2.275994E-09
       427  14 -2.963363E+05  1.785928E+02 -4.842273E+02  5.274124E+04 -4.060117E-12  3.500777E-09
       427  15 -2.963590E+05  2.188736E+02 -2.829139E+02  5.753305E+04  4.929558E-10  4.283321E-09
       427  16 -7.982687E+05 -1.154523E+05 -7.658541E+04  5.675601E+04  2.690452E-09  5.462062E-10
       427  17 -7.485887E+05 -1.039177E+05 -6.842530E+04  5.201747E+04  5.065301E-11  2.953296E-09
       427  18 -6.990392E+05 -9.245218E+04 -6.071333E+04  5.686309E+04 -2.482535E-09  4.669977E-10
       427  19  2.057733E+05  1.157245E+05  7.489205E+04  5.831110E+04  7.494748E+03  3.842034E+04
       427  20  1.561220E+05  1.042665E+05  6.745519E+04  5.346567E+04  7.675967E+03  3.485748E+04
       427  21  1.064844E+05  9.288330E+04  6.014625E+04  5.820358E+04  7.858624E+03  3.108649E+04
       427  22 -2.963740E+05  1.428680E+02 -8.428023E+02  5.753319E+04  6.016069E+02  3.840976E+04
       427  23 -2.963360E+05  1.798965E+02 -4.819457E+02  5.274125E+04  3.685169E+02  3.484505E+04
       427  24 -2.963588E+05  2.199103E+02 -2.810998E+02  5.753306E+04  1.368776E+02  3.107213E+04
       427  25 -7.982682E+05 -1.154507E+05 -7.658257E+04  5.675581E+04 -6.286182E+03  3.839919E+04
       427  26 -7.485883E+05 -1.039163E+05 -6.842293E+04  5.201728E+04 -6.933822E+03  3.483263E+04
       427  27 -6.990389E+05 -9.245113E+04 -6.071141E+04  5.686290E+04 -7.580059E+03  3.105778E+04
       428   1  7.508234E+04  8.562345E+04  5.529153E+04  5.815822E+04 -7.813468E+03 -2.882364E+04
       428   2  2.541788E+04  7.420050E+04  4.798700E+04  5.327885E+04 -7.796993E+03 -2.493853E+04
       428   3 -2.427635E+04  6.282594E+04  4.067133E+04  5.800379E+04 -7.781343E+03 -2.103039E+04
       428   4 -2.963497E+05  2.249554E+02 -2.188689E+02  5.753770E+04 -9.622786E+01 -2.880874E+04
       428   5 -2.963238E+05  2.159898E+02 -1.406596E+02  5.273539E+04 -3.426120E+01 -2.492275E+04
       428   6 -2.963389E+05  2.473663E+02 -1.055994E+02  5.753768E+04  2.688105E+01 -2.101372E+04
       428   7 -6.676431E+05 -8.518002E+04 -5.573171E+04  5.691750E+04  7.616581E+03 -2.879385E+04
       428   8 -6.179614E+05 -7.377339E+04 -4.827010E+04  5.219217E+04  7.724609E+03 -2.490698E+04
       428   9 -5.683270E+05 -6.233468E+04 -4.088374E+04  5.707173E+04  7.831821E+03 -2.099706E+04
       428  10  7.508205E+04  8.562254E+04  5.528986E+04  5.815804E+04  1.452839E-09  3.665797E-10
       428  11  2.541765E+04  7.419982E+04  4.798572E+04  5.327869E+04 -1.164645E-09  5.723493E-09
       428  12 -2.427654E+04  6.282545E+04  4.067038E+04  5.800366E+04 -2.102823E-09  3.910623E-09
       428  13 -2.963500E+05  2.240643E+02 -2.204283E+02  5.753770E+04 -5.401077E-10  8.387435E-10
       428  14 -2.963240E+05  2.153229E+02 -1.418267E+02  5.273539E+04 -7.552444E-10  5.436602E-09
       428  15 -2.963390E+05  2.468922E+02 -1.064291E+02  5.753768E+04  8.390401E-10  1.476542E-09
       428  16 -6.676434E+05 -8.518093E+04 -5.573338E+04  5.691767E+04 -1.183471E-09  9.742415E-10
       428  17 -6.179617E+05 -7.377407E+04 -4.827138E+04  5.219233E+04 -1.481093E-09  2.041036E-09
       428  18 -5.683272E+05 -6.233517E+04 -4.088469E+04  5.707186E+04  2.002239E-09  1.791232E-09
       428  19  7.508234E+04  8.562345E+04  5.529153E+04  5.815822E+04  7.813468E+03  2.882364E+04
       428  20  2.541788E+04  7.420050E+04  4.798700E+04  5.327885E+04  7.796993E+03  2.493853E+04
       428  21 -2.427635E+04  6.282594E+04  4.067133E+04  5.800379E+04  7.781343E+03  2.103039E+04
       428  22 -2.963497E+05  2.249554E+02 -2.188689E+02  5.753770E+04  9.622786E+01  2.880874E+04
       428  23 -2.963238E+05  2.159898E+02 -1.406596E+02  5.273539E+04  3.426120E+01  2.492275E+04
       428  24 -2.963389E+05  2.473663E+02 -1.055994E+02  5.753768E+04 -2.688105E+01  2.101372E+04
       428  25 -6.676431E+05 -8.518002E+04 -5.573171E+04  5.691750E+04 -7.616581E+03  2.879385E+04
       428  26 -6.179614E+05 -7.377339E+04 -4.827010E+04  5.219217E+04 -7.724609E+03  2.490698E+04
       428  27 -5.683270E+05 -6.233468E+04 -4.088374E+04  5.707173E+04 -7.831821E+03  2.099706E+04
       429   1 -5.569364E+04  5.556739E+04  3.578054E+04  5.795310E+04 -7.767934E+03 -1.874781E+04
       429   2 -1.053720E+05  4.414330E+04  2.841876E+04  5.305834E+04 -7.708529E+03 -1.482975E+04
       429   3 -1.550970E+05  3.275894E+04  2.101290E+04  5.777645E+04 -7.649579E+03 -1.091645E+04
       429   4 -2.963371E+05  2.518484E+02 -1.017745E+02  5.753955E+04  4.083500E+01 -1.873077E+04
       429   5 -2.963105E+05  2.389510E+02 -1.175886E+02  5.273302E+04  9.048171E+01 -1.481226E+04
       429   6 -2.963307E+05  2.677321E+02 -1.706406E+02  5.753953E+04  1.396774E+02 -1.089853E+04
       429   7 -5.369223E+05 -5.506639E+04 -3.598496E+04  5.712613E+04  7.846699E+03 -1.871374E+04
       429   8 -4.872123E+05 -4.366709E+04 -2.865441E+04  5.240779E+04  7.887189E+03 -1.479479E+04
       429   9 -4.375442E+05 -3.222439E+04 -2.135435E+04  5.730265E+04  7.927233E+03 -1.088060E+04
       429  10 -5.569380E+04  5.556699E+04  3.577976E+04  5.795298E+04  9.964276E-09  1.314210E-09
       429  11 -1.053721E+05  4.414305E+04  2.841823E+04  5.305825E+04  2.795095E-09 -1.017541E-09
       429  12 -1.550971E+05  3.275880E+04  2.101257E+04  5.777638E+04 -4.026486E-09 -1.310896E-09
       429  13 -2.963372E+05  2.514717E+02 -1.024337E+02  5.753955E+04 -7.637453E-10  6.832965E-09
       429  14 -2.963106E+05  2.387154E+02 -1.180009E+02  5.273302E+04  1.587433E-10  8.739526E-10
       429  15 -2.963308E+05  2.676045E+02 -1.708638E+02  5.753953E+04  2.326391E-09 -4.367468E-10
       429  16 -5.369225E+05 -5.506678E+04 -3.598573E+04  5.712625E+04 -9.300261E-09  1.968026E-09
       429  17 -4.872125E+05 -4.366734E+04 -2.865494E+04  5.240788E+04 -3.815507E-09 -1.824247E-09
       429  18 -4.375443E+05 -3.222453E+04 -2.135469E+04  5.730272E+04  5.420013E-09 -2.066039E-09
       429  19 -5.569364E+04  5.556739E+04  3.578054E+04  5.795310E+04  7.767934E+03  1.874781E+04
       429  20 -1.053720E+05  4.414330E+04  2.841876E+04  5.305834E+04  7.708529E+03  1.482975E+04
       429  21 -1.550970E+05  3.275894E+04  2.101290E+04  5.777645E+04  7.649579E+03  1.091645E+04
       429  22 -2.963371E+05  2.518484E+02 -1.017745E+02  5.753955E+04 -4.083500E+01  1.873077E+04
       429  23 -2.963105E+05  2.389510E+02 -1.175886E+02  5.273302E+04 -9.048171E+01  1.481226E+04
       429  24 -2.963307E+05  2.677321E+02 -1.706406E+02  5.753953E+04 -1.396774E+02  1.089853E+04
       429  25 -5.369223E+05 -5.506639E+04 -3.598496E+04  5.712613E+04 -7.846699E+03  1.871374E+04
       429  26 -4.872123E+05 -4.366709E+04 -2.865441E+04  5.240779E+04 -7.887189E+03  1.479479E+04
       429  27 -4.375442E+05 -3.222439E+04 -2.135435E+04  5.730265E+04 -7.927233E+03  1.088060E+04
       430   1 -1.865306E+05  2.549488E+04  1.606477E+04  5.771390E+04 -7.622479E+03 -8.637096E+03
       430   2 -2.361945E+05  1.405087E+04  8.518101E+03  5.281924E+04 -7.310986E+03 -4.759172E+03
       430   3 -2.859535E+05  2.597205E+03  7.498360E+02  5.753462E+04 -6.999506E+03 -9.517434E+02
       430   4 -2.963351E+05  2.714244E+02 -2.160105E+02  5.753886E+04  1.691943E+02 -8.618984E+03
       430   5 -2.962975E+05  2.503346E+02 -3.625795E+02  5.273385E+04  3.399845E+02 -4.741243E+03
       430   6 -2.963331E+05  2.440786E+02 -6.331609E+02  5.753893E+04  5.107853E+02 -9.340021E+02
       430   7 -4.061273E+05 -2.495256E+04 -1.649679E+04  5.736383E+04  7.959545E+03 -8.600874E+03
       430   8 -3.563968E+05 -1.355034E+04 -9.243106E+03  5.264846E+04  7.990244E+03 -4.723316E+03
       430   9 -3.067125E+05 -2.109022E+03 -2.015947E+03  5.754324E+04  8.020957E+03 -9.162606E+02
       430  10 -1.865307E+05  2.549478E+04  1.606452E+04  5.771385E+04 -2.204118E-09  2.629800E-09
       430  11 -2.361946E+05  1.405084E+04  8.517958E+03  5.281921E+04 -2.488431E-09  1.674682E-09
       430  12 -2.859535E+05  2.597191E+03  7.497422E+02  5.753461E+04 -2.034644E-09  1.821184E-09
       430  13 -2.963351E+05  2.713446E+02 -2.161501E+02  5.753886E+04 -9.028276E-12  1.929430E-09
       430  14 -2.962975E+05  2.503104E+02 -3.626220E+02  5.273385E+04  1.074014E-09  1.775943E-10
       430  15 -2.963331E+05  2.440776E+02 -6.331631E+02  5.753893E+04  1.254887E-09  3.646790E-10
       430  16 -4.061273E+05 -2.495266E+04 -1.649705E+04  5.736389E+04  1.193874E-09  1.992634E-09
       430  17 -3.563968E+05 -1.355038E+04 -9.243268E+03  5.264849E+04  3.110172E-09 -5.806875E-09
       430  18 -3.067125E+05 -2.109040E+03 -2.016069E+03  5.754324E+04  4.520664E-09  9.051183E-10
       430  19 -1.865306E+05  2.549488E+04  1.606477E+04  5.771390E+04  7.622479E+03  8.637096E+03
       430  20 -2.361945E+05  1.405087E+04  8.518101E+03  5.281924E+04  7.310986E+03  4.759172E+03
       430  21 -2.859535E+05  2.597205E+03  7.498360E+02  5.753462E+04  6.999506E+03  9.517434E+02
       430  22 -2.963351E+05  2.714244E+02 -2.160105E+02  5.753886E+04 -1.691943E+02  8.618984E+03
       430  23 -2.962975E+05  2.503346E+02 -3.625795E+02  5.273385E+04 -3.399845E+02  4.741243E+03
       430  24 -2.963331E+05  2.440786E+02 -6.331609E+02  5.753893E+04 -5.107853E+02  9.340021E+02
       430  25 -4.061273E+05 -2.495256E+04 -1.649679E+04  5.736383E+04 -7.959545E+03  8.600874E+03
       430  26 -3.563968E+05 -1.355034E+04 -9.243106E+03  5.264846E+04 -7.990244E+03  4.723316E+03
       430  27 -3.067125E+05 -2.109022E+03 -2.015947E+03  5.754324E+04 -8.020957E+03  9.162606E+02
       431   1 -3.174545E+05 -4.697353E+03 -4.438438E+03  5.741605E+04 -6.897389E+03  1.270440E+03
       431   2 -3.669346E+05 -1.638067E+04 -1.299306E+04  5.277200E+04 -4.893048E+03  4.735890E+03
       431   3 -4.168787E+05 -2.867171E+04 -2.302072E+04  5.769388E+04 -2.887330E+03  7.560330E+03
       431   4 -2.963714E+05  2.420626E+02 -8.345182E+02  5.752890E+04  6.317471E+02  1.288219E+03
       431   5 -2.962500E+05  6.535938E+01 -1.472032E+03  5.274683E+04  1.359538E+03  4.750517E+03
       431   6 -2.963740E+05 -4.974249E+02 -2.695978E+03  5.753062E+04  2.088876E+03  7.571843E+03
       431   7 -2.752878E+05  5.181485E+03  2.769600E+03  5.764176E+04  8.161131E+03  1.306001E+03
       431   8 -2.255604E+05  1.651115E+04  1.004900E+04  5.272166E+04  7.612812E+03  4.765143E+03
       431   9 -1.758549E+05  2.767611E+04  1.762840E+04  5.736732E+04  7.066018E+03  7.583352E+03
       431  10 -3.174545E+05 -4.697368E+03 -4.438530E+03  5.741605E+04 -7.991305E-09  5.800862E-09
       431  11 -3.669347E+05 -1.638070E+04 -1.299315E+04  5.277202E+04  1.380077E-09  3.534259E-09
       431  12 -4.168787E+05 -2.867177E+04 -2.302085E+04  5.769390E+04  1.035497E-08  4.028240E-09
       431  13 -2.963714E+05  2.420607E+02 -8.345221E+02  5.752890E+04 -1.979449E-11  3.230779E-09
       431  14 -2.962500E+05  6.533465E+01 -1.472078E+03  5.274683E+04  7.982276E-10  5.338205E-09
       431  15 -2.963740E+05 -4.974877E+02 -2.696094E+03  5.753061E+04  3.707428E-09  2.725266E-09
       431  16 -2.752879E+05  5.181465E+03  2.769471E+03  5.764175E+04  8.464914E-09  3.509936E-09
       431  17 -2.255605E+05  1.651111E+04  1.004885E+04  5.272163E+04 -1.179838E-09  2.723458E-09
       431  18 -1.758550E+05  2.767603E+04  1.762819E+04  5.736728E+04 -9.160336E-09 -5.473314E-09
       431  19 -3.174545E+05 -4.697353E+03 -4.438438E+03  5.741605E+04  6.897389E+03 -1.270440E+03
       431  20 -3.669346E+05 -1.638067E+04 -1.299306E+04  5.277200E+04  4.893048E+03 -4.735890E+03
       431  21 -4.168787E+05 -2.867171E+04 -2.302072E+04  5.769388E+04  2.887330E+03 -7.560330E+03
       431  22 -2.963714E+05  2.420626E+02 -8.345182E+02  5.752890E+04 -6.317471E+02 -1.288219E+03
       431  23 -2.962500E+05  6.535938E+01 -1.472032E+03  5.274683E+04 -1.359538E+03 -4.750517E+03
       431  24 -2.963740E+05 -4.974249E+02 -2.695978E+03  5.753062E+04 -2.088876E+03 -7.571843E+03
       431  25 -2.752878E+05  5.181485E+03  2.769600E+03  5.764176E+04 -8.161131E+03 -1.306001E+03
       431  26 -2.255604E+05  1.651115E+04  1.004900E+04  5.272166E+04 -7.612812E+03 -4.765143E+03
       431  27 -1.758549E+05  2.767611E+04  1.762840E+04  5.736732E+04 -7.066018E+03 -7.583352E+03
       432   1 -4.490281E+05 -3.630330E+04 -2.964735E+04  5.698142E+04 -2.599206E+03  9.258468E+03
       432   2 -4.967846E+05 -5.122598E+04 -4.523212E+04  5.643338E+04  1.229557E+04  8.984428E+03
       432   3 -5.485372E+05 -7.418612E+04 -7.253774E+04  6.505030E+04  2.720167E+04  2.922703E+03
       432   4 -2.967643E+05 -6.220723E+02 -3.579476E+03  5.743907E+04  2.548097E+03  9.270244E+03
       432   5 -2.957710E+05 -3.293870E+03 -6.574944E+03  5.286947E+04  5.921776E+03  8.969495E+03
       432   6 -2.967726E+05 -1.200024E+04 -1.328542E+04  5.746495E+04  9.307915E+03  2.881731E+03
       432   7 -1.444777E+05  3.505794E+04  2.248772E+04  5.789681E+04  7.696622E+03  9.282025E+03
       432   8 -9.471824E+04  4.463591E+04  3.208053E+04  4.930435E+04 -4.540411E+02  8.954638E+03
       432   9 -4.494887E+04  5.018152E+04  4.596378E+04  4.987648E+04 -8.593059E+03  2.841206E+03
       432  10 -4.490282E+05 -3.630340E+04 -2.964752E+04  5.698144E+04 -3.177189E-09  2.491285E-09
       432  11 -4.967848E+05 -5.122610E+04 -4.523256E+04  5.643329E+04 -3.761409E-10 -3.027849E-10
       432  12 -5.485380E+05 -7.418633E+04 -7.253914E+04  6.505023E+04  2.859257E-10 -1.385380E-09
       432  13 -2.967644E+05 -6.221664E+02 -3.579650E+03  5.743905E+04  8.737169E-10  5.192855E-09
       432  14 -2.957710E+05 -3.293965E+03 -6.575161E+03  5.286942E+04  1.024810E-09 -4.739399E-09
       432  15 -2.967727E+05 -1.200027E+04 -1.328560E+04  5.746493E+04  2.224738E-09  1.407539E-09
       432  16 -1.444778E+05  3.505783E+04  2.248745E+04  5.789676E+04  4.034228E-09 -1.880388E-10
       432  17 -9.471826E+04  4.463583E+04  3.208038E+04  4.930435E+04  1.730270E-10  2.455696E-10
       432  18 -4.494895E+04  5.018150E+04  4.596363E+04  4.987650E+04 -4.892640E-10 -4.101085E-10
       432  19 -4.490281E+05 -3.630330E+04 -2.964735E+04  5.698142E+04  2.599206E+03 -9.258468E+03
       432  20 -4.967846E+05 -5.122598E+04 -4.523212E+04  5.643338E+04 -1.229557E+04 -8.984428E+03
       432  21 -5.485372E+05 -7.418612E+04 -7.253774E+04  6.505030E+04 -2.720167E+04 -2.922703E+03
       432  22 -2.967643E+05 -6.220723E+02 -3.579476E+03  5.743907E+04 -2.548097E+03 -9.270244E+03
       432  23 -2.957710E+05 -3.293870E+03 -6.574944E+03  5.286947E+04 -5.921776E+03 -8.969495E+03
       432  24 -2.967726E+05 -1.200024E+04 -1.328542E+04  5.746495E+04 -9.307915E+03 -2.881731E+03
       432  25 -1.444777E+05  3.505794E+04  2.248772E+04  5.789681E+04 -7.696622E+03 -9.282025E+03
       432  26 -9.471824E+04  4.463591E+04  3.208053E+04  4.930435E+04  4.540411E+02 -8.954638E+03
       432  27 -4.494887E+04  5.018152E+04  4.596378E+04  4.987648E+04  8.593059E+03 -2.841206E+03
       433   1 -4.682671E+05  1.154986E+04 -2.466061E+04 -1.849688E+04 -1.049579E+05 -5.072706E+03
       433   2 -4.770287E+05  1.524187E+05  5.681109E+04 -8.662034E+03 -7.111364E+04 -1.459679E+04
       433   3 -5.309890E+05  1.289877E+05  7.524673E+04  2.991141E+04 -3.729849E+04 -1.316791E+04
       433   4 -1.024620E+06 -1.272111E+05 -1.625448E+05  1.413067E+04 -1.110369E+05 -5.092693E+03
       433   5 -1.001580E+06  2.200187E+04 -7.059623E+04 -4.002920E+02 -7.275757E+04 -1.460306E+04
       433   6 -1.024552E+06  6.067044E+03 -4.480719E+04  1.380924E+04 -3.450524E+04 -1.315906E+04
       433   7 -1.580689E+06 -2.659911E+05 -3.004512E+05  4.672877E+04 -1.171105E+05 -5.113331E+03
       433   8 -1.525880E+06 -1.084349E+05 -1.980234E+05  7.854277E+03 -7.440009E+04 -1.460939E+04
       433   9 -1.517891E+06 -1.168707E+05 -1.648786E+05 -2.280256E+03 -3.171419E+04 -1.315036E+04
       433  10 -4.682789E+05  1.154687E+04 -2.468137E+04 -1.849731E+04 -3.449316E-09  7.636425E-10
       433  11 -4.770342E+05  1.524171E+05  5.680118E+04 -8.662870E+03 -3.712542E-09  8.590496E-09
       433  12 -5.309905E+05  1.289872E+05  7.524378E+04  2.991101E+04 -2.363866E-10  2.797267E-09
       433  13 -1.024633E+06 -1.272144E+05 -1.625680E+05  1.413021E+04  1.362618E-09 -3.273622E-09
       433  14 -1.001586E+06  2.200021E+04 -7.060659E+04 -4.011480E+02  5.434907E-10 -7.843262E-09
       433  15 -1.024553E+06  6.066537E+03 -4.480976E+04  1.380887E+04  9.655145E-10 -1.211149E-09
       433  16 -1.580704E+06 -2.659949E+05 -3.004771E+05  4.672829E+04  3.654410E-09 -1.766627E-10
       433  17 -1.525886E+06 -1.084367E+05 -1.980342E+05  7.853400E+03 -1.096045E-09  5.635781E-09
       433  18 -1.517892E+06 -1.168711E+05 -1.648808E+05 -2.280592E+03 -4.686756E-10  3.094576E-10
       433  19 -4.682671E+05  1.154986E+04 -2.466061E+04 -1.849688E+04  1.049579E+05  5.072706E+03
       433  20 -4.770287E+05  1.524187E+05  5.681109E+04 -8.662034E+03  7.111364E+04  1.459679E+04
       433  21 -5.309890E+05  1.289877E+05  7.524673E+04  2.991141E+04  3.729849E+04  1.316791E+04
       433  22 -1.024620E+06 -1.272111E+05 -1.625448E+05  1.413067E+04  1.110369E+05  5.092693E+03
       433  23 -1.001580E+06  2.200187E+04 -7.059623E+04 -4.002920E+02  7.275757E+04  1.460306E+04
       433  24 -1.024552E+06  6.067044E+03 -4.480719E+04  1.380924E+04  3.450524E+04  1.315906E+04
       433  25 -1.580689E+06 -2.659911E+05 -3.004512E+05  4.672877E+04  1.171105E+05  5.113331E+03
       433  26 -1.525880E+06 -1.084349E+05 -1.980234E+05  7.854277E+03  7.440009E+04  1.460939E+04
       433  27 -1.517891E+06 -1.168707E+05 -1.648786E+05 -2.280256E+03  3.171419E+04  1.315036E+04
       434   1 -5.791923E+05  9.345919E+04  6.961158E+04  1.187853E+04 -2.730862E+04 -1.082392E+04
       434   2 -6.100845E+05  1.028110E+05  7.957391E+04 -9.850070E+02 -1.826889E+04 -1.055606E+04
       434   3 -6.470440E+05  9.260284E+04  7.875938E+04  1.741597E+04 -9.234512E+03 -9.218590E+03
       434   4 -1.015694E+06 -1.516483E+04 -3.675329E+04  1.451492E+04 -2.741659E+04 -1.082493E+04
       434   5 -1.012612E+06  2.651154E+03 -1.836036E+04 -1.145004E+03 -1.794676E+04 -1.055537E+04
       434   6 -1.015679E+06  8.249157E+02 -1.104893E+04  1.446106E+04 -8.481790E+03 -9.215989E+03
       434   7 -1.452021E+06 -1.238029E+05 -1.431320E+05  1.714930E+04 -2.752448E+04 -1.082594E+04
       434   8 -1.414992E+06 -9.752068E+04 -1.163064E+05 -1.305028E+03 -1.762483E+04 -1.055469E+04
       434   9 -1.384191E+06 -9.096302E+04 -1.008671E+05  1.150779E+04 -7.729512E+03 -9.213395E+03
       434  10 -5.791931E+05  9.345887E+04  6.960996E+04  1.187829E+04 -2.829207E-09 -4.157787E-09
       434  11 -6.100849E+05  1.028108E+05  7.957307E+04 -9.851623E+02 -2.935796E-09  2.800994E-09
       434  12 -6.470441E+05  9.260273E+04  7.875906E+04  1.741590E+04  3.317871E-09  1.359548E-08
       434  13 -1.015694E+06 -1.516516E+04 -3.675493E+04  1.451468E+04  4.463179E-10  1.062193E-08
       434  14 -1.012613E+06  2.650948E+03 -1.836118E+04 -1.145156E+03  1.265778E-09 -2.163550E-08
       434  15 -1.015679E+06  8.248052E+02 -1.104923E+04  1.446100E+04 -2.739651E-10  1.158157E-08
       434  16 -1.452022E+06 -1.238032E+05 -1.431337E+05  1.714906E+04  4.355915E-09 -8.302517E-09
       434  17 -1.414992E+06 -9.752089E+04 -1.163072E+05 -1.305178E+03 -1.154360E-09 -2.876267E-09
       434  18 -1.384191E+06 -9.096313E+04 -1.008674E+05  1.150773E+04 -4.711235E-09  1.403357E-09
       434  19 -5.791923E+05  9.345919E+04  6.961158E+04  1.187853E+04  2.730862E+04  1.082392E+04
       434  20 -6.100845E+05  1.028110E+05  7.957391E+04 -9.850070E+02  1.826889E+04  1.055606E+04
       434  21 -6.470440E+05  9.260284E+04  7.875938E+04  1.741597E+04  9.234512E+03  9.218590E+03
       434  22 -1.015694E+06 -1.516483E+04 -3.675329E+04  1.451492E+04  2.741659E+04  1.082493E+04
       434  23 -1.012612E+06  2.651154E+03 -1.836036E+04 -1.145004E+03  1.794676E+04  1.055537E+04
       434  24 -1.015679E+06  8.249157E+02 -1.104893E+04  1.446106E+04  8.481790E+03  9.215989E+03
       434  25 -1.452021E+06 -1.238029E+05 -1.431320E+05  1.714930E+04  2.752448E+04  1.082594E+04
       434  26 -1.414992E+06 -9.752068E+04 -1.163064E+05 -1.305028E+03  1.762483E+04  1.055469E+04
       434  27 -1.384191E+06 -9.096302E+04 -1.008671E+05  1.150779E+04  7.729512E+03  9.213395E+03
       435   1 -7.071544E+05  7.478462E+04  6.599338E+04  1.545517E+04 -7.209994E+03 -8.295198E+03
       435   2 -7.425192E+05  6.788512E+04  6.133609E+04 -8.638307E+02 -4.880388E+03 -7.050845E+03
       435   3 -7.789324E+05  5.889361E+04  5.459093E+04  1.591274E+04 -2.552303E+03 -5.679711E+03
       435   4 -1.014538E+06 -1.695485E+03 -8.729644E+03  1.489087E+04 -6.730219E+03 -8.293533E+03
       435   5 -1.014006E+06  3.175951E+02 -4.734584E+03 -1.661309E+03 -4.350003E+03 -7.048805E+03
       435   6 -1.014533E+06  2.294137E+02 -2.863172E+03  1.488300E+04 -1.971175E+03 -5.677270E+03
       435   7 -1.321835E+06 -7.818255E+04 -8.345951E+04  1.432675E+04 -6.250679E+03 -8.291868E+03
       435   8 -1.285426E+06 -6.725537E+04 -7.081061E+04 -2.458508E+03 -3.819849E+03 -7.046766E+03
       435   9 -1.250084E+06 -5.843889E+04 -6.032132E+04  1.385360E+04 -1.390266E+03 -5.674831E+03
       435  10 -7.071545E+05  7.478454E+04  6.599315E+04  1.545513E+04  6.195322E-09 -3.199805E-09
       435  11 -7.425192E+05  6.788506E+04  6.133595E+04 -8.638584E+02 -3.429913E-09 -8.836790E-09
       435  12 -7.789325E+05  5.889358E+04  5.459086E+04  1.591272E+04 -3.734887E-09 -6.156479E-09
       435  13 -1.014538E+06 -1.695571E+03 -8.729859E+03  1.489082E+04  2.160655E-09 -1.375629E-09
       435  14 -1.014006E+06  3.175367E+02 -4.734713E+03 -1.661334E+03  9.826039E-11 -8.467761E-09
       435  15 -1.014533E+06  2.293781E+02 -2.863240E+03  1.488299E+04  2.274781E-09 -5.939577E-09
       435  16 -1.321835E+06 -7.818264E+04 -8.345971E+04  1.432671E+04 -5.417952E-09 -8.008609E-09
       435  17 -1.285426E+06 -6.725542E+04 -7.081073E+04 -2.458530E+03 -2.108352E-09  5.801616E-09
       435  18 -1.250084E+06 -5.843892E+04 -6.032138E+04  1.385359E+04  2.773028E-09  1.268292E-08
       435  19 -7.071544E+05  7.478462E+04  6.599338E+04  1.545517E+04  7.209994E+03  8.295198E+03
       435  20 -7.425192E+05  6.788512E+04  6.133609E+04 -8.638307E+02  4.880388E+03  7.050845E+03
       435  21 -7.789324E+05  5.889361E+04  5.459093E+04  1.591274E+04  2.552303E+03  5.679711E+03
       435  22 -1.014538E+06 -1.695485E+03 -8.729644E+03  1.489087E+04  6.730219E+03  8.293533E+03
       435  23 -1.014006E+06  3.175951E+02 -4.734584E+03 -1.661309E+03  4.350003E+03  7.048805E+03
       435  24 -1.014533E+06  2.294137E+02 -2.863172E+03  1.488300E+04  1.971175E+03  5.677270E+03
       435  25 -1.321835E+06 -7.818255E+04 -8.345951E+04  1.432675E+04  6.250679E+03  8.291868E+03
       435  26 -1.285426E+06 -6.725537E+04 -7.081061E+04 -2.458508E+03  3.819849E+03  7.046766E+03
       435  27 -1.250084E+06 -5.843889E+04 -6.032132E+04  1.385360E+04  1.390266E+03  5.674831E+03
       436   1 -8.428522E+05  4.260959E+04  3.934630E+04  1.568316E+04 -2.068157E+03 -4.862358E+03
       436   2 -8.797078E+05  3.351375E+04  3.122622E+04 -1.502734E+03 -1.337278E+03 -3.485128E+03
       436   3 -9.170226E+05  2.440858E+04  2.255106E+04  1.550739E+04 -6.070172E+02 -2.084467E+03
       436   4 -1.014393E+06 -6.475126E+01 -2.294477E+03  1.513068E+04 -1.512694E+03 -4.859931E+03
       436   5 -1.014162E+06  4.729436E+01 -1.498846E+03 -1.968044E+03 -7.724579E+02 -3.482571E+03
       436   6 -1.014392E+06  1.484220E+02 -1.264846E+03  1.512972E+04 -3.279693E+01 -2.081774E+03
       436   7 -1.185908E+06 -4.274126E+04 -4.393738E+04  1.457832E+04 -9.573844E+02 -4.857505E+03
       436   8 -1.148599E+06 -3.342050E+04 -3.422523E+04 -2.433271E+03 -2.077604E+02 -3.480015E+03
       436   9 -1.111753E+06 -2.411244E+04 -2.508144E+04  1.475209E+04  5.413334E+02 -2.079081E+03
       436  10 -8.428522E+05  4.260957E+04  3.934625E+04  1.568315E+04 -1.978000E-09 -1.243695E-08
       436  11 -8.797078E+05  3.351374E+04  3.122620E+04 -1.502738E+03 -7.283636E-09  7.900527E-09
       436  12 -9.170226E+05  2.440858E+04  2.255105E+04  1.550739E+04 -5.972655E-09 -5.244742E-10
       436  13 -1.014393E+06 -6.477722E+01 -2.294525E+03  1.513067E+04  2.436350E-09  2.743372E-09
       436  14 -1.014162E+06  4.728119E+01 -1.498870E+03 -1.968046E+03 -1.020714E-09 -4.343527E-09
       436  15 -1.014392E+06  1.484173E+02 -1.264854E+03  1.512972E+04  2.025610E-09 -6.994771E-09
       436  16 -1.185908E+06 -4.274129E+04 -4.393742E+04  1.457831E+04  2.203678E-09  7.514022E-09
       436  17 -1.148599E+06 -3.342051E+04 -3.422525E+04 -2.433272E+03  5.485076E-10  1.691000E-08
       436  18 -1.111753E+06 -2.411245E+04 -2.508145E+04  1.475209E+04  4.525239E-09 -3.679409E-10
       436  19 -8.428522E+05  4.260959E+04  3.934630E+04  1.568316E+04  2.068157E+03  4.862358E+03
       436  20 -8.797078E+05  3.351375E+04  3.122622E+04 -1.502734E+03  1.337278E+03  3.485128E+03
       436  21 -9.170226E+05  2.440858E+04  2.255106E+04  1.550739E+04  6.070172E+02  2.084467E+03
       436  22 -1.014393E+06 -6.475126E+01 -2.294477E+03  1.513068E+04  1.512694E+03  4.859931E+03
       436  23 -1.014162E+06  4.729436E+01 -1.498846E+03 -1.968044E+03  7.724579E+02  3.482571E+03
       436  24 -1.014392E+06  1.484220E+02 -1.264846E+03  1.512972E+04  3.279693E+01  2.081774E+03
       436  25 -1.185908E+06 -4.274126E+04 -4.393738E+04  1.457832E+04  9.573844E+02  4.857505E+03
       436  26 -1.148599E+06 -3.342050E+04 -3.422523E+04 -2.433271E+03  2.077604E+02  3.480015E+03
       436  27 -1.111753E+06 -2.411244E+04 -2.508144E+04  1.475209E+04 -5.413334E+02  2.079081E+03
       437   1 -9.824737E+05  8.074714E+03  6.365020E+03  1.528452E+04 -3.802042E+02 -1.262436E+03
       437   2 -1.019675E+06 -1.321059E+03 -2.975874E+03 -2.088107E+03  4.278067E+02  1.456906E+02
       437   3 -1.057399E+06 -1.075651E+04 -1.293945E+04  1.508730E+04  1.235809E+03  1.546741E+03
       437   4 -1.014403E+06  1.502640E+02 -1.291367E+03  1.520779E+04  1.934937E+02 -1.259712E+03
       437   5 -1.014142E+06  5.644677E+01 -1.629014E+03 -2.065672E+03  9.986024E+02  1.483948E+02
       437   6 -1.014403E+06 -7.658052E+01 -2.587363E+03  1.520887E+04  1.803751E+03  1.549430E+03
       437   7 -1.046331E+06 -7.774260E+03 -8.947825E+03  1.513107E+04  7.671622E+02 -1.256988E+03
       437   8 -1.008608E+06  1.433950E+03 -2.821541E+02 -2.043237E+03  1.569403E+03  1.510989E+02
       437   9 -9.714064E+05  1.060322E+04  7.764596E+03  1.533045E+04  2.371733E+03  1.552120E+03
       437  10 -9.824737E+05  8.074712E+03  6.365017E+03  1.528452E+04 -4.753825E-09 -3.909449E-09
       437  11 -1.019675E+06 -1.321059E+03 -2.975874E+03 -2.088107E+03 -1.949365E-09 -8.765420E-09
       437  12 -1.057399E+06 -1.075652E+04 -1.293946E+04  1.508729E+04 -5.533286E-09 -1.912416E-09
       437  13 -1.014403E+06  1.502623E+02 -1.291370E+03  1.520779E+04  1.782130E-09  4.116859E-09
       437  14 -1.014142E+06  5.644648E+01 -1.629015E+03 -2.065672E+03 -4.342841E-10 -5.482544E-09
       437  15 -1.014403E+06 -7.658397E+01 -2.587374E+03  1.520887E+04  1.381233E-09 -3.212036E-09
       437  16 -1.046331E+06 -7.774261E+03 -8.947829E+03  1.513107E+04  4.724997E-09 -2.052034E-09
       437  17 -1.008608E+06  1.433950E+03 -2.821588E+02 -2.043237E+03 -1.759848E-09 -1.725983E-08
       437  18 -9.714064E+05  1.060321E+04  7.764581E+03  1.533045E+04  3.918949E-09 -6.223305E-09
       437  19 -9.824737E+05  8.074714E+03  6.365020E+03  1.528452E+04  3.802042E+02  1.262436E+03
       437  20 -1.019675E+06 -1.321059E+03 -2.975874E+03 -2.088107E+03 -4.278067E+02 -1.456906E+02
       437  21 -1.057399E+06 -1.075651E+04 -1.293945E+04  1.508730E+04 -1.235809E+03 -1.546741E+03
       437  22 -1.014403E+06  1.502640E+02 -1.291367E+03  1.520779E+04 -1.934937E+02  1.259712E+03
       437  23 -1.014142E+06  5.644677E+01 -1.629014E+03 -2.065672E+03 -9.986024E+02 -1.483948E+02
       437  24 -1.014403E+06 -7.658052E+01 -2.587363E+03  1.520887E+04 -1.803751E+03 -1.549430E+03
       437  25 -1.046331E+06 -7.774260E+03 -8.947825E+03  1.513107E+04 -7.671622E+02  1.256988E+03
       437  26 -1.008608E+06  1.433950E+03 -2.821541E+02 -2.043237E+03 -1.569403E+03 -1.510989E+02
       437  27 -9.714064E+05  1.060322E+04  7.764596E+03  1.533045E+04 -2.371733E+03 -1.552120E+03
       438   1 -1.122951E+06 -2.674779E+04 -2.975682E+04  1.445112E+04  1.735786E+03  2.378592E+03
       438   2 -1.159306E+06 -3.581297E+04 -4.080992E+04 -2.381354E+03  4.499403E+03  3.788306E+03
       438   3 -1.196987E+06 -4.731982E+04 -5.435056E+04  1.492623E+04  7.263819E+03  5.103370E+03
       438   4 -1.014583E+06  2.561769E+02 -3.260961E+03  1.511413E+04  2.324472E+03  2.381341E+03
       438   5 -1.013925E+06  3.783462E+02 -5.420774E+03 -1.950708E+03  5.050093E+03  3.790777E+03
       438   6 -1.014587E+06 -1.933886E+03 -1.004098E+04  1.512402E+04  7.776676E+03  5.105575E+03
       438   7 -9.062043E+05  2.725928E+04  2.323404E+04  1.577724E+04  2.913261E+03  2.384091E+03
       438   8 -8.685249E+05  3.656811E+04  2.996684E+04 -1.519983E+03  5.600912E+03  3.793249E+03
       438   9 -8.321562E+05  4.344960E+04  3.426620E+04  1.532184E+04  8.289684E+03  5.107779E+03
       438  10 -1.122951E+06 -2.674780E+04 -2.975684E+04  1.445111E+04 -9.090445E-09 -8.313522E-10
       438  11 -1.159306E+06 -3.581299E+04 -4.080999E+04 -2.381368E+03 -6.466044E-09 -1.224318E-08
       438  12 -1.196987E+06 -4.731986E+04 -5.435071E+04  1.492620E+04  1.573814E-09  3.588823E-09
       438  13 -1.014583E+06  2.561693E+02 -3.260982E+03  1.511412E+04  2.508064E-09  1.460841E-10
       438  14 -1.013925E+06  3.783239E+02 -5.420849E+03 -1.950723E+03 -9.797946E-10  6.567258E-09
       438  15 -1.014587E+06 -1.933930E+03 -1.004114E+04  1.512399E+04  1.116850E-09  3.321878E-09
       438  16 -9.062043E+05  2.725927E+04  2.323402E+04  1.577724E+04  9.038629E-09  7.875247E-09
       438  17 -8.685249E+05  3.656808E+04  2.996676E+04 -1.520000E+03  3.427052E-09 -4.912492E-09
       438  18 -8.321563E+05  4.344955E+04  3.426602E+04  1.532181E+04 -2.224047E-09  1.679118E-08
       438  19 -1.122951E+06 -2.674779E+04 -2.975682E+04  1.445112E+04 -1.735786E+03 -2.378592E+03
       438  20 -1.159306E+06 -3.581297E+04 -4.080992E+04 -2.381354E+03 -4.499403E+03 -3.788306E+03
       438  21 -1.196987E+06 -4.731982E+04 -5.435056E+04  1.492623E+04 -7.263819E+03 -5.103370E+03
       438  22 -1.014583E+06  2.561769E+02 -3.260961E+03  1.511413E+04 -2.324472E+03 -2.381341E+03
       438  23 -1.013925E+06  3.783462E+02 -5.420774E+03 -1.950708E+03 -5.050093E+03 -3.790777E+03
       438  24 -1.014587E+06 -1.933886E+03 -1.004098E+04  1.512402E+04 -7.776676E+03 -5.105575E+03
       438  25 -9.062043E+05  2.725928E+04  2.323404E+04  1.577724E+04 -2.913261E+03 -2.384091E+03
       438  26 -8.685249E+05  3.656811E+04  2.996684E+04 -1.519983E+03 -5.600912E+03 -3.793249E+03
       438  27 -8.321562E+05  4.344960E+04  3.426620E+04  1.532184E+04 -8.289684E+03 -5.107779E+03
       439   1 -1.262166E+06 -6.038839E+04 -7.277513E+04  1.187032E+04  9.058281E+03  6.032485E+03
       439   2 -1.294277E+06 -6.711631E+04 -8.975668E+04 -1.453984E+03  2.029917E+04  7.446151E+03
       439   3 -1.333737E+06 -9.652907E+04 -1.197839E+05  1.823582E+04  3.154371E+04  7.992446E+03
       439   4 -1.015919E+06  9.618925E+02 -1.272047E+04  1.484287E+04  9.793633E+03  6.035602E+03
       439   5 -1.012284E+06  3.075858E+03 -2.112286E+04 -1.626706E+03  2.068560E+04  7.447515E+03
       439   6 -1.015934E+06 -1.742838E+04 -4.232376E+04  1.491706E+04  3.158186E+04  7.992119E+03
       439   7 -7.696162E+05  6.230772E+04  4.732977E+04  1.781655E+04  1.052928E+04  6.038725E+03
       439   8 -7.302173E+05  7.326216E+04  4.750519E+04 -1.799582E+03  2.107220E+04  7.448878E+03
       439   9 -6.980381E+05  6.166491E+04  3.512910E+04  1.159650E+04  3.162002E+04  7.991791E+03
       439  10 -1.262166E+06 -6.038845E+04 -7.277535E+04  1.187027E+04  9.831434E-09  3.524282E-09
       439  11 -1.294277E+06 -6.711648E+04 -8.975756E+04 -1.454106E+03 -3.816033E-09  1.520894E-08
       439  12 -1.333738E+06 -9.652941E+04 -1.197859E+05  1.823562E+04 -6.175658E-09 -7.326196E-09
       439  13 -1.015919E+06  9.618276E+02 -1.272072E+04  1.484282E+04  2.044655E-09 -8.884895E-09
       439  14 -1.012284E+06  3.075683E+03 -2.112377E+04 -1.626830E+03 -3.288338E-09  1.310450E-08
       439  15 -1.015935E+06 -1.742871E+04 -4.232575E+04  1.491685E+04  1.193421E-09  2.540643E-09
       439  16 -7.696163E+05  6.230765E+04  4.732949E+04  1.781650E+04 -9.485387E-09 -1.109568E-09
       439  17 -7.302178E+05  7.326198E+04  4.750425E+04 -1.799708E+03 -2.734501E-10 -2.081012E-08
       439  18 -6.980392E+05  6.166457E+04  3.512710E+04  1.159630E+04  4.739990E-09  3.684571E-09
       439  19 -1.262166E+06 -6.038839E+04 -7.277513E+04  1.187032E+04 -9.058281E+03 -6.032485E+03
       439  20 -1.294277E+06 -6.711631E+04 -8.975668E+04 -1.453984E+03 -2.029917E+04 -7.446151E+03
       439  21 -1.333737E+06 -9.652907E+04 -1.197839E+05  1.823582E+04 -3.154371E+04 -7.992446E+03
       439  22 -1.015919E+06  9.618925E+02 -1.272047E+04  1.484287E+04 -9.793633E+03 -6.035602E+03
       439  23 -1.012284E+06  3.075858E+03 -2.112286E+04 -1.626706E+03 -2.068560E+04 -7.447515E+03
       439  24 -1.015934E+06 -1.742838E+04 -4.232376E+04  1.491706E+04 -3.158186E+04 -7.992119E+03
       439  25 -7.696162E+05  6.230772E+04  4.732977E+04  1.781655E+04 -1.052928E+04 -6.038725E+03
       439  26 -7.302173E+05  7.326216E+04  4.750519E+04 -1.799582E+03 -2.107220E+04 -7.448878E+03
       439  27 -6.980381E+05  6.166491E+04  3.512910E+04  1.159650E+04 -3.162002E+04 -7.991791E+03
       440   1 -1.404797E+06 -8.741290E+04 -1.437906E+05 -3.977904E+03  3.734330E+04  1.008003E+04
       440   2 -1.411821E+06 -7.714213E+04 -1.814476E+05  8.556266E+03  8.499909E+04  1.165382E+04
       440   3 -1.472800E+06 -2.577606E+05 -2.979022E+05  5.240036E+04  1.326817E+05  4.290977E+03
       440   4 -1.026151E+06  7.019566E+03 -5.160291E+04  1.432186E+04  3.974768E+04  1.008989E+04
       440   5 -9.995442E+05  2.537362E+04 -8.126836E+04 -1.080931E+03  8.378811E+04  1.164760E+04
       440   6 -1.026229E+06 -1.464675E+05 -1.871806E+05  1.482793E+04  1.278583E+05  4.266985E+03
       440   7 -6.473732E+05  1.014427E+05  4.057455E+04  3.263271E+04  4.215352E+04  1.009989E+04
       440   8 -5.871111E+05  1.278772E+05  1.889869E+04 -1.072469E+04  8.257631E+04  1.164142E+04
       440   9 -5.794728E+05 -3.518394E+04 -7.647304E+04 -2.277176E+04  1.230314E+05  4.243589E+03
       440  10 -1.404798E+06 -8.741339E+04 -1.437934E+05 -3.978207E+03  6.252792E-09 -1.311938E-09
       440  11 -1.411829E+06 -7.714422E+04 -1.814615E+05  8.555467E+03  2.881487E-09  9.384684E-10
       440  12 -1.472819E+06 -2.577654E+05 -2.979354E+05  5.239990E+04 -4.347578E-11  1.072082E-08
       440  13 -1.026153E+06  7.019032E+03 -5.160607E+04  1.432154E+04  2.028202E-09  8.376441E-09
       440  14 -9.995518E+05  2.537159E+04 -8.128183E+04 -1.081718E+03 -1.755395E-09  3.457415E-10
       440  15 -1.026246E+06 -1.464719E+05 -1.872114E+05  1.482749E+04 -4.035032E-11 -5.801186E-10
       440  16 -6.473752E+05  1.014421E+05  4.057102E+04  3.263237E+04 -6.186791E-09  7.827507E-09
       440  17 -5.871185E+05  1.278753E+05  1.888561E+04 -1.072547E+04 -6.032024E-09  9.815743E-09
       440  18 -5.794890E+05 -3.518803E+04 -7.650155E+04 -2.277218E+04 -1.312914E-09 -4.446537E-09
       440  19 -1.404797E+06 -8.741290E+04 -1.437906E+05 -3.977904E+03 -3.734330E+04 -1.008003E+04
       440  20 -1.411821E+06 -7.714213E+04 -1.814476E+05  8.556266E+03 -8.499909E+04 -1.165382E+04
       440  21 -1.472800E+06 -2.577606E+05 -2.979022E+05  5.240036E+04 -1.326817E+05 -4.290977E+03
       440  22 -1.026151E+06  7.019566E+03 -5.160291E+04  1.432186E+04 -3.974768E+04 -1.008989E+04
       440  23 -9.995442E+05  2.537362E+04 -8.126836E+04 -1.080931E+03 -8.378811E+04 -1.164760E+04
       440  24 -1.026229E+06 -1.464675E+05 -1.871806E+05  1.482793E+04 -1.278583E+05 -4.266985E+03
       440  25 -6.473732E+05  1.014427E+05  4.057455E+04  3.263271E+04 -4.215352E+04 -1.009989E+04
       440  26 -5.871111E+05  1.278772E+05  1.889869E+04 -1.072469E+04 -8.257631E+04 -1.164142E+04
       440  27 -5.794728E+05 -3.518394E+04 -7.647304E+04 -2.277176E+04 -1.230314E+05 -4.243589E+03
