
 stresses (elem, integ.pnt.,sxx,syy,szz,sxy,sxz,syz) for set ELALL and time  0.1000000E+01

         1   1  2.873036E+06  1.054897E+07  2.724417E+06 -1.989685E+06  1.323166E+05  1.032391E+06
         1   2  2.324052E+06  8.997749E+06  1.841596E+06 -1.830813E+06  4.460150E+05  4.710316E+05
         1   3  1.926742E+06  7.563536E+06  1.359569E+06 -1.914692E+06  5.207334E+05 -8.852649E+04
         1   4  1.152648E+05 -7.016569E+05  1.203748E+05 -1.880511E+06  1.359376E+05  7.833211E+04
         1   5  3.647374E+04 -7.092673E+05  6.409157E+04 -1.759399E+06  4.486480E+05  4.783950E+04
         1   6  1.919495E+04 -6.923280E+05  4.386216E+04 -1.881014E+06  5.207212E+05  1.762038E+04
         1   7 -2.650858E+06 -1.183462E+07 -2.488772E+06 -1.773047E+06  1.392805E+05 -8.587916E+05
         1   8 -2.256323E+06 -1.032522E+07 -1.716605E+06 -1.688903E+06  4.512153E+05 -3.689864E+05
         1   9 -1.891745E+06 -8.880894E+06 -1.273582E+06 -1.847606E+06  5.207200E+05  1.224184E+05
         1  10  2.872736E+06  1.054783E+07  2.722411E+06 -1.989795E+06  1.894187E-09 -4.455093E-08
         1  11  2.323779E+06  8.997459E+06  1.840808E+06 -1.830982E+06  1.543716E-08  3.242568E-09
         1  12  1.926449E+06  7.563455E+06  1.359045E+06 -1.914655E+06  8.888244E-09  5.043271E-08
         1  13  1.152433E+05 -7.016685E+05  1.203284E+05 -1.880520E+06  6.036483E-09  3.813039E-11
         1  14  3.625697E+04 -7.093238E+05  6.370887E+04 -1.759416E+06  1.302730E-08 -1.899802E-10
         1  15  1.890376E+04 -6.924011E+05  4.335208E+04 -1.881021E+06  9.950230E-10  3.140516E-12
         1  16 -2.651081E+06 -1.183543E+07 -2.490219E+06 -1.772950E+06  3.724476E-09  4.375345E-08
         1  17 -2.256579E+06 -1.032542E+07 -1.717245E+06 -1.688768E+06  6.727959E-09 -3.348282E-09
         1  18 -1.892040E+06 -8.880983E+06 -1.274121E+06 -1.847657E+06  7.401164E-09 -5.011294E-08
         1  19  2.873036E+06  1.054897E+07  2.724417E+06 -1.989685E+06 -1.323166E+05 -1.032391E+06
         1  20  2.324052E+06  8.997749E+06  1.841596E+06 -1.830813E+06 -4.460150E+05 -4.710316E+05
         1  21  1.926742E+06  7.563536E+06  1.359569E+06 -1.914692E+06 -5.207334E+05  8.852649E+04
         1  22  1.152648E+05 -7.016569E+05  1.203748E+05 -1.880511E+06 -1.359376E+05 -7.833211E+04
         1  23  3.647374E+04 -7.092673E+05  6.409157E+04 -1.759399E+06 -4.486480E+05 -4.783950E+04
         1  24  1.919495E+04 -6.923280E+05  4.386216E+04 -1.881014E+06 -5.207212E+05 -1.762038E+04
         1  25 -2.650858E+06 -1.183462E+07 -2.488772E+06 -1.773047E+06 -1.392805E+05  8.587916E+05
         1  26 -2.256323E+06 -1.032522E+07 -1.716605E+06 -1.688903E+06 -4.512153E+05  3.689864E+05
         1  27 -1.891745E+06 -8.880894E+06 -1.273582E+06 -1.847606E+06 -5.207200E+05 -1.224184E+05
         2   1  1.703946E+06  6.613303E+06  1.173479E+06 -1.922713E+06  4.831634E+05 -1.007847E+05
         2   2  1.351671E+06  5.112825E+06  8.947779E+05 -1.780805E+06  4.184817E+05 -1.853263E+05
         2   3  1.027147E+06  3.632091E+06  6.776021E+05 -1.899061E+06  3.245683E+05 -2.700768E+05
         2   4  2.076502E+04 -6.936756E+05  3.931567E+04 -1.884914E+06  4.829380E+05  1.074138E+04
         2   5  2.238682E+04 -6.940031E+05  3.998164E+04 -1.754726E+06  4.175324E+05 -9.354982E+03
         2   6  4.080671E+04 -6.878550E+05  5.772608E+04 -1.884843E+06  3.227532E+05 -2.985038E+04
         2   7 -1.665010E+06 -7.947658E+06 -1.096048E+06 -1.847416E+06  4.827239E+05  1.210144E+05
         2   8 -1.308449E+06 -6.466994E+06 -8.153039E+05 -1.728798E+06  4.165914E+05  1.650482E+05
         2   9 -9.463511E+05 -4.988888E+06 -5.622203E+05 -1.870666E+06  3.209400E+05  2.087832E+05
         2  10  1.703693E+06  6.613229E+06  1.173022E+06 -1.922674E+06  5.793405E-09 -3.834561E-08
         2  11  1.351474E+06  5.112742E+06  8.943858E+05 -1.780743E+06  5.122956E-09 -4.876146E-09
         2  12  1.027014E+06  3.631985E+06  6.772691E+05 -1.898991E+06  7.013146E-09  2.792387E-08
         2  13  2.051461E+04 -6.937383E+05  3.887725E+04 -1.884918E+06  3.781253E-09  1.617279E-11
         2  14  2.219968E+04 -6.940500E+05  3.965404E+04 -1.754723E+06  1.115631E-09 -1.168426E-10
         2  15  4.069470E+04 -6.878839E+05  5.752887E+04 -1.884836E+06 -8.543790E-09 -7.003249E-11
         2  16 -1.665264E+06 -7.947737E+06 -1.096515E+06 -1.847463E+06 -3.387464E-09  3.746081E-08
         2  17 -1.308643E+06 -6.467070E+06 -8.156825E+05 -1.728854E+06 -3.783653E-09  4.314468E-09
         2  18 -9.464738E+05 -4.988963E+06 -5.624973E+05 -1.870720E+06  1.113848E-09 -2.763525E-08
         2  19  1.703946E+06  6.613303E+06  1.173479E+06 -1.922713E+06 -4.831634E+05  1.007847E+05
         2  20  1.351671E+06  5.112825E+06  8.947779E+05 -1.780805E+06 -4.184817E+05  1.853263E+05
         2  21  1.027147E+06  3.632091E+06  6.776021E+05 -1.899061E+06 -3.245683E+05  2.700768E+05
         2  22  2.076502E+04 -6.936756E+05  3.931567E+04 -1.884914E+06 -4.829380E+05 -1.074138E+04
         2  23  2.238682E+04 -6.940031E+05  3.998164E+04 -1.754726E+06 -4.175324E+05  9.354982E+03
         2  24  4.080671E+04 -6.878550E+05  5.772608E+04 -1.884843E+06 -3.227532E+05  2.985038E+04
         2  25 -1.665010E+06 -7.947658E+06 -1.096048E+06 -1.847416E+06 -4.827239E+05 -1.210144E+05
         2  26 -1.308449E+06 -6.466994E+06 -8.153039E+05 -1.728798E+06 -4.165914E+05 -1.650482E+05
         2  27 -9.463511E+05 -4.988888E+06 -5.622203E+05 -1.870666E+06 -3.209400E+05 -2.087832E+05
         3   1  8.207372E+05  2.706743E+06  5.526148E+05 -1.902232E+06  2.597620E+05 -2.808674E+05
         3   2  5.317500E+05  1.202674E+06  3.924285E+05 -1.685755E+06  1.494769E+05 -3.503539E+05
         3   3  3.511282E+05 -2.660302E+05  3.036580E+05 -1.731471E+06  3.713938E+04 -4.198308E+05
         3   4  4.800479E+04 -6.807989E+05  7.251476E+04 -1.885336E+06  2.577798E+05 -4.014932E+04
         3   5  1.004712E+05 -6.958959E+05  1.261430E+05 -1.753556E+06  1.473634E+05 -1.053295E+05
         3   6  2.606922E+05 -6.787993E+05  2.480271E+05 -1.883816E+06  3.491084E+04 -1.706410E+05
         3   7 -7.252130E+05 -4.056632E+06 -4.075299E+05 -1.868497E+06  2.558029E+05  1.993167E+05
         3   8 -3.309156E+05 -2.590673E+06 -1.399608E+05 -1.821130E+06  1.451919E+05  1.389798E+05
         3   9  1.703713E+05 -1.091210E+06  1.926410E+05 -2.036055E+06  3.255888E+04  7.839076E+04
         3  10  8.206440E+05  2.706641E+06  5.523414E+05 -1.902174E+06  3.071056E-09  1.077781E-07
         3  11  5.316934E+05  1.202536E+06  3.921570E+05 -1.685713E+06 -1.849793E-09  1.225290E-08
         3  12  3.510794E+05 -2.662198E+05  3.033242E+05 -1.731459E+06 -4.687375E-09 -8.290426E-08
         3  13  4.793309E+04 -6.808184E+05  7.238705E+04 -1.885328E+06 -1.240851E-08  2.133336E-10
         3  14  1.004450E+05 -6.959135E+05  1.260816E+05 -1.753544E+06 -6.792556E-09  4.794028E-10
         3  15  2.606831E+05 -6.788309E+05  2.479701E+05 -1.883811E+06 -2.177595E-09  6.602066E-11
         3  16 -7.252942E+05 -4.056692E+06 -4.077287E+05 -1.868538E+06  7.588948E-09 -1.069570E-07
         3  17 -3.309435E+05 -2.590700E+06 -1.400371E+05 -1.821146E+06  7.031123E-09 -1.176078E-08
         3  18  1.703685E+05 -1.091217E+06  1.926274E+05 -2.036057E+06 -1.233116E-10  8.331413E-08
         3  19  8.207372E+05  2.706743E+06  5.526148E+05 -1.902232E+06 -2.597620E+05  2.808674E+05
         3  20  5.317500E+05  1.202674E+06  3.924285E+05 -1.685755E+06 -1.494769E+05  3.503539E+05
         3  21  3.511282E+05 -2.660302E+05  3.036580E+05 -1.731471E+06 -3.713938E+04  4.198308E+05
         3  22  4.800479E+04 -6.807989E+05  7.251476E+04 -1.885336E+06 -2.577798E+05  4.014932E+04
         3  23  1.004712E+05 -6.958959E+05  1.261430E+05 -1.753556E+06 -1.473634E+05  1.053295E+05
         3  24  2.606922E+05 -6.787993E+05  2.480271E+05 -1.883816E+06 -3.491084E+04  1.706410E+05
         3  25 -7.252130E+05 -4.056632E+06 -4.075299E+05 -1.868497E+06 -2.558029E+05 -1.993167E+05
         3  26 -3.309156E+05 -2.590673E+06 -1.399608E+05 -1.821130E+06 -1.451919E+05 -1.389798E+05
         3  27  1.703713E+05 -1.091210E+06  1.926410E+05 -2.036055E+06 -3.255888E+04 -7.839076E+04
         4   1 -7.711346E+06 -2.133130E+06 -1.473697E+06 -2.662137E+06 -1.125551E+06 -4.301399E+05
         4   2 -7.371560E+06 -5.672254E+05 -4.271046E+05 -3.078119E+06 -7.193255E+05 -2.929562E+05
         4   3 -7.818415E+06 -7.182656E+05 -1.689891E+05 -2.947929E+06 -3.203684E+05 -1.367103E+05
         4   4 -8.994469E+06 -2.447889E+06 -1.795153E+06 -2.832606E+06 -1.128368E+06 -4.315993E+05
         4   5 -8.507904E+06 -9.554688E+05 -7.319261E+05 -3.342402E+06 -7.192130E+05 -2.929829E+05
         4   6 -8.809856E+06 -1.182673E+06 -4.607866E+05 -3.305705E+06 -3.172220E+05 -1.354604E+05
         4   7 -1.027594E+07 -2.762702E+06 -2.116713E+06 -3.002858E+06 -1.131175E+06 -4.330581E+05
         4   8 -9.642994E+06 -1.343696E+06 -1.036859E+06 -3.606269E+06 -7.190995E+05 -2.930093E+05
         4   9 -9.800317E+06 -1.646867E+06 -7.526832E+05 -3.662907E+06 -3.140808E+05 -1.342134E+05
         4  10 -7.712772E+06 -2.133677E+06 -1.476464E+06 -2.662530E+06  4.299579E-09 -7.882069E-11
         4  11 -7.372145E+06 -5.674600E+05 -4.282545E+05 -3.078291E+06  4.548142E-09  4.820731E-11
         4  12 -7.818531E+06 -7.183140E+05 -1.692204E+05 -2.947965E+06  1.613915E-09 -4.719345E-10
         4  13 -8.995905E+06 -2.448440E+06 -1.797940E+06 -2.833002E+06 -8.527381E-09 -2.098127E-10
         4  14 -8.508490E+06 -9.557038E+05 -7.330779E+05 -3.342573E+06  2.331634E-09 -8.244190E-11
         4  15 -8.809970E+06 -1.182721E+06 -4.610139E+05 -3.305740E+06  9.623069E-10  1.137944E-10
         4  16 -1.027739E+07 -2.763258E+06 -2.119521E+06 -3.003257E+06  2.896203E-10  1.826517E-10
         4  17 -9.643581E+06 -1.343932E+06 -1.038013E+06 -3.606440E+06 -1.031842E-08  6.479752E-10
         4  18 -9.800430E+06 -1.646914E+06 -7.529065E+05 -3.662941E+06  3.703427E-09 -7.121311E-11
         4  19 -7.711346E+06 -2.133130E+06 -1.473697E+06 -2.662137E+06  1.125551E+06  4.301399E+05
         4  20 -7.371560E+06 -5.672254E+05 -4.271046E+05 -3.078119E+06  7.193255E+05  2.929562E+05
         4  21 -7.818415E+06 -7.182656E+05 -1.689891E+05 -2.947929E+06  3.203684E+05  1.367103E+05
         4  22 -8.994469E+06 -2.447889E+06 -1.795153E+06 -2.832606E+06  1.128368E+06  4.315993E+05
         4  23 -8.507904E+06 -9.554688E+05 -7.319261E+05 -3.342402E+06  7.192130E+05  2.929829E+05
         4  24 -8.809856E+06 -1.182673E+06 -4.607866E+05 -3.305705E+06  3.172220E+05  1.354604E+05
         4  25 -1.027594E+07 -2.762702E+06 -2.116713E+06 -3.002858E+06  1.131175E+06  4.330581E+05
         4  26 -9.642994E+06 -1.343696E+06 -1.036859E+06 -3.606269E+06  7.190995E+05  2.930093E+05
         4  27 -9.800317E+06 -1.646867E+06 -7.526832E+05 -3.662907E+06  3.140808E+05  1.342134E+05
         5   1 -8.288460E+06 -1.200213E+06 -2.482793E+05 -3.046171E+06 -2.505631E+05 -1.045745E+05
         5   2 -8.276961E+06 -1.114143E+06 -7.869041E+04 -3.247757E+06 -1.614295E+05 -6.768583E+04
         5   3 -8.571022E+06 -1.096597E+06 -4.890466E+04 -3.163501E+06 -7.359506E+04 -2.746612E+04
         5   4 -8.782170E+06 -1.364794E+06 -3.799448E+05 -3.156898E+06 -2.502473E+05 -1.044674E+05
         5   5 -8.615350E+06 -1.237984E+06 -1.711770E+05 -3.334803E+06 -1.605234E+05 -6.734246E+04
         5   6 -8.754326E+06 -1.179915E+06 -1.027838E+05 -3.226855E+06 -7.207390E+04 -2.688283E+04
         5   7 -9.275643E+06 -1.529375E+06 -5.116310E+05 -3.267551E+06 -2.499317E+05 -1.043604E+05
         5   8 -8.953627E+06 -1.361820E+06 -2.636738E+05 -3.421807E+06 -1.596179E+05 -6.699928E+04
         5   9 -8.937596E+06 -1.263227E+06 -1.566663E+05 -3.290190E+06 -7.055323E+04 -2.629980E+04
         5  10 -8.288532E+06 -1.200242E+06 -2.484200E+05 -3.046192E+06 -6.547333E-09  1.779356E-09
         5  11 -8.276991E+06 -1.114155E+06 -7.874889E+04 -3.247766E+06 -4.522809E-09 -1.579050E-09
         5  12 -8.571028E+06 -1.096599E+06 -4.891644E+04 -3.163503E+06  2.216875E-09 -4.579847E-09
         5  13 -8.782241E+06 -1.364823E+06 -3.800853E+05 -3.156919E+06 -6.572420E-11 -3.226196E-10
         5  14 -8.615379E+06 -1.237996E+06 -1.712349E+05 -3.334812E+06 -1.217257E-09 -1.953126E-09
         5  15 -8.754332E+06 -1.179917E+06 -1.027951E+05 -3.226856E+06  4.935647E-09 -2.470257E-09
         5  16 -9.275714E+06 -1.529404E+06 -5.117712E+05 -3.267572E+06  3.912267E-09 -5.303788E-10
         5  17 -8.953656E+06 -1.361832E+06 -2.637311E+05 -3.421816E+06 -1.594971E-09 -1.000906E-09
         5  18 -8.937602E+06 -1.263229E+06 -1.566771E+05 -3.290191E+06 -8.022572E-10  8.791409E-10
         5  19 -8.288460E+06 -1.200213E+06 -2.482793E+05 -3.046171E+06  2.505631E+05  1.045745E+05
         5  20 -8.276961E+06 -1.114143E+06 -7.869041E+04 -3.247757E+06  1.614295E+05  6.768583E+04
         5  21 -8.571022E+06 -1.096597E+06 -4.890466E+04 -3.163501E+06  7.359506E+04  2.746612E+04
         5  22 -8.782170E+06 -1.364794E+06 -3.799448E+05 -3.156898E+06  2.502473E+05  1.044674E+05
         5  23 -8.615350E+06 -1.237984E+06 -1.711770E+05 -3.334803E+06  1.605234E+05  6.734246E+04
         5  24 -8.754326E+06 -1.179915E+06 -1.027838E+05 -3.226855E+06  7.207390E+04  2.688283E+04
         5  25 -9.275643E+06 -1.529375E+06 -5.116310E+05 -3.267551E+06  2.499317E+05  1.043604E+05
         5  26 -8.953627E+06 -1.361820E+06 -2.636738E+05 -3.421807E+06  1.596179E+05  6.699928E+04
         5  27 -8.937596E+06 -1.263227E+06 -1.566663E+05 -3.290190E+06  7.055323E+04  2.629980E+04
         6   1 -9.313568E+06 -1.441463E+06 -2.427221E+05 -3.378931E+06 -6.004294E+04 -1.714065E+04
         6   2 -9.344197E+06 -1.534101E+06 -2.333463E+05 -3.510955E+06 -4.096565E+04 -3.479431E+03
         6   3 -9.552017E+06 -1.501822E+06 -2.497438E+05 -3.448514E+06 -2.077359E+04  7.278027E+03
         6   4 -8.737628E+06 -1.216628E+06 -8.181620E+04 -3.216891E+06 -5.868643E+04 -1.662332E+04
         6   5 -8.647063E+06 -1.266234E+06 -4.007802E+04 -3.318976E+06 -4.017067E+04 -3.177983E+03
         6   6 -8.733565E+06 -1.190794E+06 -2.364487E+04 -3.226620E+06 -2.053618E+04  7.366694E+03
         6   7 -8.161364E+06 -9.917694E+05  7.905869E+04 -3.054711E+06 -5.732848E+04 -1.610542E+04
         6   8 -7.949455E+06 -9.983352E+05  1.531452E+05 -3.126799E+06 -3.937468E+04 -2.876143E+03
         6   9 -7.914459E+06 -8.797279E+05  2.023922E+05 -3.004459E+06 -2.029840E+04  7.455499E+03
         6  10 -9.313572E+06 -1.441464E+06 -2.427295E+05 -3.378932E+06 -1.919988E-09 -2.085682E-09
         6  11 -9.344199E+06 -1.534102E+06 -2.333495E+05 -3.510956E+06 -1.206873E-09 -2.125531E-11
         6  12 -9.552017E+06 -1.501822E+06 -2.497447E+05 -3.448514E+06  2.269211E-09 -4.571150E-10
         6  13 -8.737632E+06 -1.216629E+06 -8.182330E+04 -3.216891E+06  4.327795E-09 -2.320322E-09
         6  14 -8.647065E+06 -1.266234E+06 -4.008112E+04 -3.318976E+06 -2.552036E-09  1.901554E-09
         6  15 -8.733565E+06 -1.190794E+06 -2.364577E+04 -3.226620E+06  3.628070E-10  5.015130E-10
         6  16 -8.161367E+06 -9.917706E+05  7.905192E+04 -3.054711E+06  7.256060E-09 -8.131282E-10
         6  17 -7.949457E+06 -9.983356E+05  1.531422E+05 -3.126799E+06  4.988512E-09  2.399547E-09
         6  18 -7.914460E+06 -8.797280E+05  2.023913E+05 -3.004459E+06  2.773976E-10  1.614838E-10
         6  19 -9.313568E+06 -1.441463E+06 -2.427221E+05 -3.378931E+06  6.004294E+04  1.714065E+04
         6  20 -9.344197E+06 -1.534101E+06 -2.333463E+05 -3.510955E+06  4.096565E+04  3.479431E+03
         6  21 -9.552017E+06 -1.501822E+06 -2.497438E+05 -3.448514E+06  2.077359E+04 -7.278027E+03
         6  22 -8.737628E+06 -1.216628E+06 -8.181620E+04 -3.216891E+06  5.868643E+04  1.662332E+04
         6  23 -8.647063E+06 -1.266234E+06 -4.007802E+04 -3.318976E+06  4.017067E+04  3.177983E+03
         6  24 -8.733565E+06 -1.190794E+06 -2.364487E+04 -3.226620E+06  2.053618E+04 -7.366694E+03
         6  25 -8.161364E+06 -9.917694E+05  7.905869E+04 -3.054711E+06  5.732848E+04  1.610542E+04
         6  26 -7.949455E+06 -9.983352E+05  1.531452E+05 -3.126799E+06  3.937468E+04  2.876143E+03
         6  27 -7.914459E+06 -8.797279E+05  2.023922E+05 -3.004459E+06  2.029840E+04 -7.455499E+03
         7   1 -9.870314E+06 -1.679159E+06 -3.441962E+05 -3.585071E+06 -1.897773E+04  1.025533E+04
         7   2 -9.876148E+06 -1.676038E+06 -3.376399E+05 -3.588233E+06 -1.323333E+04  1.547904E+04
         7   3 -9.876818E+06 -1.673973E+06 -3.350869E+05 -3.583604E+06 -5.519144E+03  1.546149E+04
         7   4 -8.694876E+06 -1.229867E+06 -1.834636E+04 -3.263985E+06 -1.793950E+04  1.064542E+04
         7   5 -8.697317E+06 -1.227779E+06 -1.169554E+04 -3.268504E+06 -1.322885E+04  1.547793E+04
         7   6 -8.694365E+06 -1.226522E+06 -8.208134E+03 -3.265232E+06 -6.550232E+03  1.507402E+04
         7   7 -7.518096E+06 -7.804935E+05  3.073737E+05 -2.942341E+06 -1.689905E+04  1.103635E+04
         7   8 -7.517135E+06 -7.794400E+05  3.141193E+05 -2.948218E+06 -1.322435E+04  1.547683E+04
         7   9 -7.510553E+06 -7.789944E+05  3.185409E+05 -2.946305E+06 -7.583517E+03  1.468573E+04
         7  10 -9.870315E+06 -1.679159E+06 -3.441971E+05 -3.585071E+06 -2.018370E-09 -2.530654E-09
         7  11 -9.876149E+06 -1.676038E+06 -3.376407E+05 -3.588233E+06 -2.266043E-09  4.713042E-10
         7  12 -9.876818E+06 -1.673973E+06 -3.350874E+05 -3.583604E+06  2.171212E-09  3.278927E-09
         7  13 -8.694877E+06 -1.229867E+06 -1.834718E+04 -3.263985E+06 -4.727996E-09  3.925989E-10
         7  14 -8.697317E+06 -1.227779E+06 -1.169632E+04 -3.268503E+06  2.327978E-09  9.345694E-10
         7  15 -8.694365E+06 -1.226522E+06 -8.208640E+03 -3.265232E+06  3.945555E-09  1.157757E-09
         7  16 -7.518096E+06 -7.804937E+05  3.073729E+05 -2.942341E+06  2.096700E-10 -1.983458E-09
         7  17 -7.517135E+06 -7.794403E+05  3.141185E+05 -2.948217E+06 -4.606177E-10  4.782052E-09
         7  18 -7.510553E+06 -7.789947E+05  3.185404E+05 -2.946305E+06 -5.861645E-09 -7.193032E-10
         7  19 -9.870314E+06 -1.679159E+06 -3.441962E+05 -3.585071E+06  1.897773E+04 -1.025533E+04
         7  20 -9.876148E+06 -1.676038E+06 -3.376399E+05 -3.588233E+06  1.323333E+04 -1.547904E+04
         7  21 -9.876818E+06 -1.673973E+06 -3.350869E+05 -3.583604E+06  5.519144E+03 -1.546149E+04
         7  22 -8.694876E+06 -1.229867E+06 -1.834636E+04 -3.263985E+06  1.793950E+04 -1.064542E+04
         7  23 -8.697317E+06 -1.227779E+06 -1.169554E+04 -3.268504E+06  1.322885E+04 -1.547793E+04
         7  24 -8.694365E+06 -1.226522E+06 -8.208134E+03 -3.265232E+06  6.550232E+03 -1.507402E+04
         7  25 -7.518096E+06 -7.804935E+05  3.073737E+05 -2.942341E+06  1.689905E+04 -1.103635E+04
         7  26 -7.517135E+06 -7.794400E+05  3.141193E+05 -2.948218E+06  1.322435E+04 -1.547683E+04
         7  27 -7.510553E+06 -7.789944E+05  3.185409E+05 -2.946305E+06  7.583517E+03 -1.468573E+04
         8   1 -9.501366E+06 -1.581132E+06 -2.406993E+05 -3.533233E+06 -4.385097E+03  1.376682E+04
         8   2 -9.464233E+06 -1.455722E+06 -2.105052E+05 -3.410526E+06  2.559549E+03  1.346879E+04
         8   3 -9.268985E+06 -1.493381E+06 -1.856166E+05 -3.467773E+06  1.068508E+04  9.948992E+03
         8   4 -8.660247E+06 -1.262940E+06 -8.612685E+03 -3.306703E+06 -4.568836E+03  1.369693E+04
         8   5 -8.739569E+06 -1.182550E+06 -1.066523E+04 -3.216364E+06  1.739794E+03  1.316366E+04
         8   6 -8.660669E+06 -1.265083E+06 -1.750768E+04 -3.305971E+06  9.227367E+03  9.410022E+03
         8   7 -7.818442E+06 -9.447086E+05  2.234081E+05 -3.079892E+06 -4.752855E+03  1.362694E+04
         8   8 -8.014396E+06 -9.093493E+05  1.891262E+05 -3.021995E+06  9.189665E+02  1.285813E+04
         8   9 -8.051993E+06 -1.036767E+06  1.505671E+05 -3.144024E+06  7.768055E+03  8.870464E+03
         8  10 -9.501366E+06 -1.581133E+06 -2.406997E+05 -3.533233E+06  5.473174E-09 -2.360927E-09
         8  11 -9.464233E+06 -1.455722E+06 -2.105056E+05 -3.410526E+06  2.960971E-09 -1.238115E-09
         8  12 -9.268985E+06 -1.493381E+06 -1.856170E+05 -3.467773E+06 -3.274068E-09  4.752149E-09
         8  13 -8.660247E+06 -1.262940E+06 -8.613075E+03 -3.306703E+06  4.820339E-09  2.212792E-10
         8  14 -8.739570E+06 -1.182550E+06 -1.066556E+04 -3.216364E+06  2.010508E-09  2.163350E-09
         8  15 -8.660669E+06 -1.265083E+06 -1.750801E+04 -3.305971E+06 -9.341201E-10  4.622295E-09
         8  16 -7.818442E+06 -9.447088E+05  2.234077E+05 -3.079892E+06 -6.746654E-09  1.088054E-09
         8  17 -8.014396E+06 -9.093495E+05  1.891259E+05 -3.021995E+06  2.052531E-09  3.977588E-09
         8  18 -8.051993E+06 -1.036767E+06  1.505668E+05 -3.144024E+06  1.050316E-09  9.833968E-09
         8  19 -9.501366E+06 -1.581132E+06 -2.406993E+05 -3.533233E+06  4.385097E+03 -1.376682E+04
         8  20 -9.464233E+06 -1.455722E+06 -2.105052E+05 -3.410526E+06 -2.559549E+03 -1.346879E+04
         8  21 -9.268985E+06 -1.493381E+06 -1.856166E+05 -3.467773E+06 -1.068508E+04 -9.948992E+03
         8  22 -8.660247E+06 -1.262940E+06 -8.612685E+03 -3.306703E+06  4.568836E+03 -1.369693E+04
         8  23 -8.739569E+06 -1.182550E+06 -1.066523E+04 -3.216364E+06 -1.739794E+03 -1.316366E+04
         8  24 -8.660669E+06 -1.265083E+06 -1.750768E+04 -3.305971E+06 -9.227367E+03 -9.410022E+03
         8  25 -7.818442E+06 -9.447086E+05  2.234081E+05 -3.079892E+06  4.752855E+03 -1.362694E+04
         8  26 -8.014396E+06 -9.093493E+05  1.891262E+05 -3.021995E+06 -9.189665E+02 -1.285813E+04
         8  27 -8.051993E+06 -1.036767E+06  1.505671E+05 -3.144024E+06 -7.768055E+03 -8.870464E+03
         9   1 -8.489172E+06 -1.208574E+06  2.369787E+04 -3.275117E+06  1.531930E+04  6.854469E+03
         9   2 -8.437529E+06 -1.051306E+06  4.771210E+04 -3.122626E+06  3.640358E+04  8.128338E+03
         9   3 -8.209735E+06 -1.122610E+06  4.759084E+04 -3.184622E+06  5.693762E+04  1.092464E+04
         9   4 -8.655134E+06 -1.269205E+06 -2.217191E+04 -3.317472E+06  1.401716E+04  6.373841E+03
         9   5 -8.744986E+06 -1.167634E+06 -3.711107E+04 -3.205525E+06  3.539560E+04  7.755251E+03
         9   6 -8.658770E+06 -1.294716E+06 -7.643165E+04 -3.308080E+06  5.621882E+04  1.065755E+04
         9   7 -8.821069E+06 -1.329835E+06 -6.804422E+04 -3.359816E+06  1.271542E+04  5.893346E+03
         9   8 -9.052351E+06 -1.283956E+06 -1.219429E+05 -3.288386E+06  3.438817E+04  7.382371E+03
         9   9 -9.107609E+06 -1.466808E+06 -2.004727E+05 -3.431456E+06  5.550059E+04  1.039069E+04
         9  10 -8.489173E+06 -1.208574E+06  2.369733E+04 -3.275117E+06  2.237727E-09  3.189297E-09
         9  11 -8.437530E+06 -1.051307E+06  4.770945E+04 -3.122626E+06 -5.470874E-09 -5.366403E-09
         9  12 -8.209738E+06 -1.122611E+06  4.758443E+04 -3.184623E+06  3.064329E-09 -1.849463E-09
         9  13 -8.655134E+06 -1.269205E+06 -2.217236E+04 -3.317472E+06 -1.202031E-09  2.827249E-09
         9  14 -8.744987E+06 -1.167634E+06 -3.711357E+04 -3.205525E+06 -1.567282E-10 -1.131420E-09
         9  15 -8.658774E+06 -1.294717E+06 -7.643790E+04 -3.308081E+06 -4.010779E-09  3.613589E-10
         9  16 -8.821069E+06 -1.329835E+06 -6.804459E+04 -3.359816E+06 -5.210091E-10  3.845473E-09
         9  17 -9.052352E+06 -1.283957E+06 -1.219453E+05 -3.288386E+06 -7.660600E-09 -1.152046E-09
         9  18 -9.107613E+06 -1.466809E+06 -2.004788E+05 -3.431456E+06 -6.345211E-09  3.792353E-09
         9  19 -8.489172E+06 -1.208574E+06  2.369787E+04 -3.275117E+06 -1.531930E+04 -6.854469E+03
         9  20 -8.437529E+06 -1.051306E+06  4.771210E+04 -3.122626E+06 -3.640358E+04 -8.128338E+03
         9  21 -8.209735E+06 -1.122610E+06  4.759084E+04 -3.184622E+06 -5.693762E+04 -1.092464E+04
         9  22 -8.655134E+06 -1.269205E+06 -2.217191E+04 -3.317472E+06 -1.401716E+04 -6.373841E+03
         9  23 -8.744986E+06 -1.167634E+06 -3.711107E+04 -3.205525E+06 -3.539560E+04 -7.755251E+03
         9  24 -8.658770E+06 -1.294716E+06 -7.643165E+04 -3.308080E+06 -5.621882E+04 -1.065755E+04
         9  25 -8.821069E+06 -1.329835E+06 -6.804422E+04 -3.359816E+06 -1.271542E+04 -5.893346E+03
         9  26 -9.052351E+06 -1.283956E+06 -1.219429E+05 -3.288386E+06 -3.438817E+04 -7.382371E+03
         9  27 -9.107609E+06 -1.466808E+06 -2.004727E+05 -3.431456E+06 -5.550059E+04 -1.039069E+04
        10   1 -7.641882E+06 -8.551060E+05  1.923386E+05 -3.023577E+06  7.305302E+04  1.313192E+04
        10   2 -7.603109E+06 -7.487101E+05  1.422110E+05 -2.950232E+06  1.583290E+05  4.000283E+04
        10   3 -7.583158E+06 -9.588775E+05 -3.508625E+04 -2.898085E+06  2.413239E+05  7.303019E+04
        10   4 -8.691765E+06 -1.239325E+06 -9.511893E+04 -3.293179E+06  7.150496E+04  1.255715E+04
        10   5 -8.694789E+06 -1.167184E+06 -1.599283E+05 -3.250381E+06  1.578664E+05  3.982593E+04
        10   6 -8.717032E+06 -1.412117E+06 -3.529589E+05 -3.228755E+06  2.419383E+05  7.324762E+04
        10   7 -9.740582E+06 -1.623502E+06 -3.826772E+05 -3.562373E+06  6.995972E+04  1.198335E+04
        10   8 -9.785313E+06 -1.585585E+06 -4.621789E+05 -3.550045E+06  1.574044E+05  3.964929E+04
        10   9 -9.849654E+06 -1.865245E+06 -6.709542E+05 -3.558857E+06  2.425511E+05  7.346435E+04
        10  10 -7.641888E+06 -8.551076E+05  1.923281E+05 -3.023577E+06  4.099809E-09  3.235883E-09
        10  11 -7.603137E+06 -7.487187E+05  1.421602E+05 -2.950237E+06 -3.811092E-09 -3.511147E-09
        10  12 -7.583223E+06 -9.588992E+05 -3.520739E+04 -2.898100E+06 -3.573902E-09  2.685598E-09
        10  13 -8.691771E+06 -1.239327E+06 -9.512899E+04 -3.293180E+06 -5.653952E-09  1.567232E-09
        10  14 -8.694817E+06 -1.167193E+06 -1.599789E+05 -3.250387E+06  6.655369E-09 -9.775447E-11
        10  15 -8.717097E+06 -1.412139E+06 -3.530809E+05 -3.228769E+06  3.664037E-09  5.942656E-10
        10  16 -9.740588E+06 -1.623504E+06 -3.826869E+05 -3.562374E+06 -1.024150E-08  5.164303E-10
        10  17 -9.785340E+06 -1.585593E+06 -4.622293E+05 -3.550051E+06 -3.259045E-09  3.722379E-09
        10  18 -9.849720E+06 -1.865267E+06 -6.710771E+05 -3.558872E+06 -3.458492E-09  1.078402E-09
        10  19 -7.641882E+06 -8.551060E+05  1.923386E+05 -3.023577E+06 -7.305302E+04 -1.313192E+04
        10  20 -7.603109E+06 -7.487101E+05  1.422110E+05 -2.950232E+06 -1.583290E+05 -4.000283E+04
        10  21 -7.583158E+06 -9.588775E+05 -3.508625E+04 -2.898085E+06 -2.413239E+05 -7.303019E+04
        10  22 -8.691765E+06 -1.239325E+06 -9.511893E+04 -3.293179E+06 -7.150496E+04 -1.255715E+04
        10  23 -8.694789E+06 -1.167184E+06 -1.599283E+05 -3.250381E+06 -1.578664E+05 -3.982593E+04
        10  24 -8.717032E+06 -1.412117E+06 -3.529589E+05 -3.228755E+06 -2.419383E+05 -7.324762E+04
        10  25 -9.740582E+06 -1.623502E+06 -3.826772E+05 -3.562373E+06 -6.995972E+04 -1.198335E+04
        10  26 -9.785313E+06 -1.585585E+06 -4.621789E+05 -3.550045E+06 -1.574044E+05 -3.964929E+04
        10  27 -9.849654E+06 -1.865245E+06 -6.709542E+05 -3.558857E+06 -2.425511E+05 -7.346435E+04
        11   1 -7.663779E+06 -8.191134E+05 -1.274297E+05 -3.060419E+06  3.076275E+05  9.745825E+04
        11   2 -7.527560E+06 -5.692391E+05 -4.012116E+05 -3.039148E+06  6.811045E+05  2.392698E+05
        11   3 -8.168911E+06 -1.872840E+06 -1.409655E+06 -2.460002E+06  1.049674E+06  3.939238E+05
        11   4 -8.811196E+06 -1.177433E+06 -4.288403E+05 -3.292472E+06  3.061286E+05  9.693943E+04
        11   5 -8.509295E+06 -9.857088E+05 -6.808719E+05 -3.349896E+06  6.815866E+05  2.393929E+05
        11   6 -8.986380E+06 -2.349489E+06 -1.670023E+06 -2.849071E+06  1.052244E+06  3.945544E+05
        11   7 -9.957330E+06 -1.535768E+06 -7.303573E+05 -3.524179E+06  3.046322E+05  9.642119E+04
        11   8 -9.490085E+06 -1.402055E+06 -9.606259E+05 -3.660171E+06  6.820671E+05  2.395151E+05
        11   9 -9.803123E+06 -2.825773E+06 -1.930456E+06 -3.237578E+06  1.054809E+06  3.951812E+05
        11  10 -7.663884E+06 -8.191495E+05 -1.276282E+05 -3.060443E+06  4.147462E-09  2.411990E-09
        11  11 -7.528079E+06 -5.694281E+05 -4.022052E+05 -3.039280E+06  2.144012E-10 -9.624681E-10
        11  12 -8.170150E+06 -1.873310E+06 -1.412052E+06 -2.460338E+06  6.309297E-10 -2.392254E-09
        11  13 -8.811301E+06 -1.177469E+06 -4.290372E+05 -3.292496E+06  2.257246E-09  1.723039E-09
        11  14 -8.509816E+06 -9.858984E+05 -6.818686E+05 -3.350029E+06 -4.688650E-09  2.084646E-09
        11  15 -8.987627E+06 -2.349962E+06 -1.672435E+06 -2.849408E+06  3.774009E-09 -4.694495E-10
        11  16 -9.957433E+06 -1.535804E+06 -7.305527E+05 -3.524203E+06 -5.687045E-09  1.717352E-09
        11  17 -9.490607E+06 -1.402245E+06 -9.616257E+05 -3.660304E+06  6.420026E-09  2.924806E-09
        11  18 -9.804377E+06 -2.826249E+06 -1.932883E+06 -3.237918E+06  1.220987E-09 -5.658720E-10
        11  19 -7.663779E+06 -8.191134E+05 -1.274297E+05 -3.060419E+06 -3.076275E+05 -9.745825E+04
        11  20 -7.527560E+06 -5.692391E+05 -4.012116E+05 -3.039148E+06 -6.811045E+05 -2.392698E+05
        11  21 -8.168911E+06 -1.872840E+06 -1.409655E+06 -2.460002E+06 -1.049674E+06 -3.939238E+05
        11  22 -8.811196E+06 -1.177433E+06 -4.288403E+05 -3.292472E+06 -3.061286E+05 -9.693943E+04
        11  23 -8.509295E+06 -9.857088E+05 -6.808719E+05 -3.349896E+06 -6.815866E+05 -2.393929E+05
        11  24 -8.986380E+06 -2.349489E+06 -1.670023E+06 -2.849071E+06 -1.052244E+06 -3.945544E+05
        11  25 -9.957330E+06 -1.535768E+06 -7.303573E+05 -3.524179E+06 -3.046322E+05 -9.642119E+04
        11  26 -9.490085E+06 -1.402055E+06 -9.606259E+05 -3.660171E+06 -6.820671E+05 -2.395151E+05
        11  27 -9.803123E+06 -2.825773E+06 -1.930456E+06 -3.237578E+06 -1.054809E+06 -3.951812E+05
        12   1  8.319179E+03 -2.626980E+06  3.805189E+03 -2.933236E+03  4.852171E+01  4.458148E+02
        12   2  9.488455E+03 -2.627205E+06  2.792925E+03  3.686180E+03  6.499068E+01  3.385525E+03
        12   3  4.932999E+03 -2.628693E+06 -1.459471E+03 -3.054408E+03 -2.525522E+00  6.325205E+03
        12   4 -4.299672E+02 -2.661875E+06 -4.943376E+03 -2.967957E+03  4.852205E+01  4.443905E+02
        12   5  9.531208E+02 -2.661247E+06 -5.741577E+03  3.710395E+03  6.499072E+01  3.385968E+03
        12   6 -3.389031E+03 -2.661883E+06 -9.781334E+03 -2.971302E+03 -2.527220E+00  6.327519E+03
        12   7 -9.179206E+03 -2.696769E+06 -1.369203E+04 -3.002675E+03  4.852238E+01  4.429663E+02
        12   8 -7.582301E+03 -2.695288E+06 -1.427617E+04  3.734609E+03  6.499076E+01  3.386411E+03
        12   9 -1.171114E+04 -2.695072E+06 -1.810328E+04 -2.888200E+03 -2.528917E+00  6.329833E+03
        12  10  8.319179E+03 -2.626980E+06  3.805188E+03 -2.933236E+03 -4.776558E-10  7.836354E-11
        12  11  9.488452E+03 -2.627205E+06  2.792903E+03  3.686180E+03 -1.055653E-08  3.294985E-10
        12  12  4.932988E+03 -2.628693E+06 -1.459546E+03 -3.054408E+03 -1.970328E-09 -9.578786E-11
        12  13 -4.299673E+02 -2.661875E+06 -4.943377E+03 -2.967957E+03 -5.914641E-09  6.666188E-11
        12  14  9.531177E+02 -2.661247E+06 -5.741599E+03  3.710395E+03 -7.002058E-09 -1.669279E-10
        12  15 -3.389042E+03 -2.661883E+06 -9.781410E+03 -2.971302E+03 -2.136364E-09 -2.290526E-10
        12  16 -9.179206E+03 -2.696769E+06 -1.369203E+04 -3.002675E+03 -8.051616E-09  1.657176E-11
        12  17 -7.582305E+03 -2.695288E+06 -1.427619E+04  3.734609E+03 -3.623868E-09  3.632960E-10
        12  18 -1.171116E+04 -2.695072E+06 -1.810336E+04 -2.888200E+03  2.068446E-09  6.042975E-11
        12  19  8.319179E+03 -2.626980E+06  3.805189E+03 -2.933236E+03 -4.852171E+01 -4.458148E+02
        12  20  9.488455E+03 -2.627205E+06  2.792925E+03  3.686180E+03 -6.499068E+01 -3.385525E+03
        12  21  4.932999E+03 -2.628693E+06 -1.459471E+03 -3.054408E+03  2.525522E+00 -6.325205E+03
        12  22 -4.299672E+02 -2.661875E+06 -4.943376E+03 -2.967957E+03 -4.852205E+01 -4.443905E+02
        12  23  9.531208E+02 -2.661247E+06 -5.741577E+03  3.710395E+03 -6.499072E+01 -3.385968E+03
        12  24 -3.389031E+03 -2.661883E+06 -9.781334E+03 -2.971302E+03  2.527220E+00 -6.327519E+03
        12  25 -9.179206E+03 -2.696769E+06 -1.369203E+04 -3.002675E+03 -4.852238E+01 -4.429663E+02
        12  26 -7.582301E+03 -2.695288E+06 -1.427617E+04  3.734609E+03 -6.499076E+01 -3.386411E+03
        12  27 -1.171114E+04 -2.695072E+06 -1.810328E+04 -2.888200E+03  2.528917E+00 -6.329833E+03
        13   1 -2.869550E+04 -2.779561E+06 -4.092158E+04  4.457566E+03 -1.249887E+02  8.200561E+03
        13   2 -2.433193E+04 -2.777423E+06 -4.779837E+04 -5.419649E+03 -2.183413E+02  1.788758E+04
        13   3 -4.904767E+04 -2.777190E+06 -6.694007E+04  3.721996E+03  1.897020E+01  2.757427E+04
        13   4  7.810503E+02 -2.662011E+06 -1.144666E+04  4.214855E+03 -1.249945E+02  8.207656E+03
        13   5  4.839778E+03 -2.661086E+06 -1.862947E+04 -5.272521E+03 -2.183356E+02  1.788835E+04
        13   6 -2.017623E+04 -2.662063E+06 -3.807096E+04  4.258740E+03  1.897322E+01  2.756871E+04
        13   7  3.025655E+04 -2.544449E+06  1.802721E+04  3.972100E+03 -1.250003E+02  8.214751E+03
        13   8  3.401046E+04 -2.544737E+06  1.053840E+04 -5.125367E+03 -2.183300E+02  1.788913E+04
        13   9  8.694213E+03 -2.546924E+06 -9.202857E+03  4.795577E+03  1.897624E+01  2.756315E+04
        13  10 -2.869552E+04 -2.779562E+06 -4.092170E+04  4.457567E+03 -6.648295E-09  2.044494E-10
        13  11 -2.433202E+04 -2.777423E+06 -4.779897E+04 -5.419645E+03  5.191511E-09 -4.634205E-10
        13  12 -4.904788E+04 -2.777191E+06 -6.694151E+04  3.721996E+03  1.185866E-09  5.001605E-10
        13  13  7.810321E+02 -2.662011E+06 -1.144678E+04  4.214856E+03  3.124554E-09 -1.240215E-10
        13  14  4.839692E+03 -2.661086E+06 -1.863007E+04 -5.272517E+03 -3.823204E-09  3.763163E-10
        13  15 -2.017643E+04 -2.662064E+06 -3.807239E+04  4.258740E+03 -2.033701E-09  7.421699E-10
        13  16  3.025653E+04 -2.544449E+06  1.802708E+04  3.972101E+03 -1.280953E-09 -1.343322E-10
        13  17  3.401037E+04 -2.544737E+06  1.053780E+04 -5.125364E+03 -5.616066E-09 -5.883680E-10
        13  18  8.694008E+03 -2.546925E+06 -9.204290E+03  4.795577E+03 -2.691392E-09 -1.999924E-10
        13  19 -2.869550E+04 -2.779561E+06 -4.092158E+04  4.457566E+03  1.249887E+02 -8.200561E+03
        13  20 -2.433193E+04 -2.777423E+06 -4.779837E+04 -5.419649E+03  2.183413E+02 -1.788758E+04
        13  21 -4.904767E+04 -2.777190E+06 -6.694007E+04  3.721996E+03 -1.897020E+01 -2.757427E+04
        13  22  7.810503E+02 -2.662011E+06 -1.144666E+04  4.214855E+03  1.249945E+02 -8.207656E+03
        13  23  4.839778E+03 -2.661086E+06 -1.862947E+04 -5.272521E+03  2.183356E+02 -1.788835E+04
        13  24 -2.017623E+04 -2.662063E+06 -3.807096E+04  4.258740E+03 -1.897322E+01 -2.756871E+04
        13  25  3.025655E+04 -2.544449E+06  1.802721E+04  3.972100E+03  1.250003E+02 -8.214751E+03
        13  26  3.401046E+04 -2.544737E+06  1.053840E+04 -5.125367E+03  2.183300E+02 -1.788913E+04
        13  27  8.694213E+03 -2.546924E+06 -9.202857E+03  4.795577E+03 -1.897624E+01 -2.756315E+04
        14   1  6.730101E+04 -2.416438E+06  1.805963E+04 -5.935935E+03  2.983593E+02  3.485484E+04
        14   2  9.132518E+04 -2.409142E+06 -9.556346E+03  8.434541E+03  3.760954E+02  7.328059E+04
        14   3 -6.086897E+04 -2.420920E+06 -1.002820E+05 -1.081954E+04 -3.193298E+02  1.117061E+05
        14   4  4.776671E+03 -2.665816E+06 -4.445863E+04 -7.340430E+03  2.982711E+02  3.483576E+04
        14   5  2.934089E+04 -2.656387E+06 -7.153548E+04  9.203300E+03  3.761877E+02  7.326658E+04
        14   6 -1.223567E+05 -2.666057E+06 -1.617456E+05 -7.878461E+03 -3.189041E+02  1.116972E+05
        14   7 -5.775239E+04 -2.915137E+06 -1.069816E+05 -8.744383E+03  2.981829E+02  3.481669E+04
        14   8 -3.264805E+04 -2.903575E+06 -1.335193E+05  9.971771E+03  3.762800E+02  7.325256E+04
        14   9 -1.838489E+05 -2.911140E+06 -2.232138E+05 -4.938482E+03 -3.184782E+02  1.116884E+05
        14  10  6.730069E+04 -2.416439E+06  1.805734E+04 -5.935944E+03 -6.330748E-09  3.681897E-10
        14  11  9.132373E+04 -2.409148E+06 -9.566477E+03  8.434518E+03  4.392908E-11  5.771967E-10
        14  12 -6.087234E+04 -2.420933E+06 -1.003056E+05 -1.081951E+04 -4.359779E-09 -2.796451E-10
        14  13  4.776344E+03 -2.665817E+06 -4.446092E+04 -7.340438E+03 -2.744631E-09  5.382470E-10
        14  14  2.933944E+04 -2.656392E+06 -7.154561E+04  9.203278E+03  5.991328E-10 -4.619685E-10
        14  15 -1.223600E+05 -2.666071E+06 -1.617692E+05 -7.878432E+03  2.606073E-09 -1.349175E-09
        14  16 -5.775272E+04 -2.915138E+06 -1.069839E+05 -8.744392E+03  2.409635E-11 -1.154988E-10
        14  17 -3.264950E+04 -2.903581E+06 -1.335294E+05  9.971749E+03  2.724539E-09  1.111608E-09
        14  18 -1.838523E+05 -2.911153E+06 -2.232373E+05 -4.938453E+03  3.590523E-09 -4.529700E-10
        14  19  6.730101E+04 -2.416438E+06  1.805963E+04 -5.935935E+03 -2.983593E+02 -3.485484E+04
        14  20  9.132518E+04 -2.409142E+06 -9.556346E+03  8.434541E+03 -3.760954E+02 -7.328059E+04
        14  21 -6.086897E+04 -2.420920E+06 -1.002820E+05 -1.081954E+04  3.193298E+02 -1.117061E+05
        14  22  4.776671E+03 -2.665816E+06 -4.445863E+04 -7.340430E+03 -2.982711E+02 -3.483576E+04
        14  23  2.934089E+04 -2.656387E+06 -7.153548E+04  9.203300E+03 -3.761877E+02 -7.326658E+04
        14  24 -1.223567E+05 -2.666057E+06 -1.617456E+05 -7.878461E+03  3.189041E+02 -1.116972E+05
        14  25 -5.775239E+04 -2.915137E+06 -1.069816E+05 -8.744383E+03 -2.981829E+02 -3.481669E+04
        14  26 -3.264805E+04 -2.903575E+06 -1.335193E+05  9.971771E+03 -3.762800E+02 -7.325256E+04
        14  27 -1.838489E+05 -2.911140E+06 -2.232138E+05 -4.938482E+03  3.184782E+02 -1.116884E+05
        15   1  1.940607E+05 -6.847322E+05  1.870420E+05 -4.073066E+02  2.678616E+04 -4.413414E+01
        15   2  1.934713E+05 -6.872089E+05  1.865897E+05  8.636509E+01  2.673130E+04 -4.534335E+02
        15   3  1.931680E+05 -6.889894E+05  1.865973E+05 -8.868894E+02  2.653067E+04 -8.629916E+02
        15   4 -9.778045E+01 -1.468157E+06  5.845671E+02 -3.260461E+02  2.678842E+04 -5.400099E+01
        15   5 -1.570022E+02 -1.468497E+06  6.468262E+02  4.075621E+02  2.673352E+04 -3.825001E+02
        15   6  5.574623E+01 -1.468156E+06  1.112932E+03 -3.258621E+02  2.653275E+04 -7.112581E+02
        15   7 -1.943006E+05 -2.251017E+06 -1.859159E+05 -2.448710E+02  2.679069E+04 -6.385539E+01
        15   8 -1.938294E+05 -2.249225E+06 -1.853389E+05  7.284296E+02  2.673574E+04 -3.116553E+02
        15   9 -1.931004E+05 -2.246764E+06 -1.844140E+05  2.345936E+02  2.653483E+04 -5.597139E+02
        15  10  1.940599E+05 -6.847323E+05  1.870406E+05 -4.073057E+02  1.878103E-10 -2.594939E-09
        15  11  1.934705E+05 -6.872091E+05  1.865884E+05  8.637485E+01 -2.147364E-09 -2.404065E-09
        15  12  1.931673E+05 -6.889895E+05  1.865959E+05 -8.868709E+02 -4.537674E-09 -3.043267E-10
        15  13 -9.855052E+01 -1.468157E+06  5.832194E+02 -3.260449E+02  2.439293E-09  1.239758E-11
        15  14 -1.577691E+02 -1.468498E+06  6.454838E+02  4.075703E+02  4.407027E-10 -2.654964E-10
        15  15  5.499066E+01 -1.468156E+06  1.111609E+03 -3.258469E+02  4.227688E-09 -9.353776E-11
        15  16 -1.943014E+05 -2.251018E+06 -1.859172E+05 -2.448696E+02 -3.088789E-09  2.331803E-09
        15  17 -1.938302E+05 -2.249225E+06 -1.853402E+05  7.284364E+02 -1.797631E-09  1.515940E-09
        15  18 -1.931012E+05 -2.246765E+06 -1.844153E+05  2.346056E+02  4.286078E-09 -4.717213E-10
        15  19  1.940607E+05 -6.847322E+05  1.870420E+05 -4.073066E+02 -2.678616E+04  4.413414E+01
        15  20  1.934713E+05 -6.872089E+05  1.865897E+05  8.636509E+01 -2.673130E+04  4.534335E+02
        15  21  1.931680E+05 -6.889894E+05  1.865973E+05 -8.868894E+02 -2.653067E+04  8.629916E+02
        15  22 -9.778045E+01 -1.468157E+06  5.845671E+02 -3.260461E+02 -2.678842E+04  5.400099E+01
        15  23 -1.570022E+02 -1.468497E+06  6.468262E+02  4.075621E+02 -2.673352E+04  3.825001E+02
        15  24  5.574623E+01 -1.468156E+06  1.112932E+03 -3.258621E+02 -2.653275E+04  7.112581E+02
        15  25 -1.943006E+05 -2.251017E+06 -1.859159E+05 -2.448710E+02 -2.679069E+04  6.385539E+01
        15  26 -1.938294E+05 -2.249225E+06 -1.853389E+05  7.284296E+02 -2.673574E+04  3.116553E+02
        15  27 -1.931004E+05 -2.246764E+06 -1.844140E+05  2.345936E+02 -2.653483E+04  5.597139E+02
        16   1  1.916267E+05 -6.940737E+05  1.855472E+05 -1.909877E+03  2.657021E+04 -7.879805E+02
        16   2  1.898876E+05 -7.010706E+05  1.848636E+05  3.857265E+02  2.627219E+04 -2.539236E+03
        16   3  1.902858E+05 -7.067694E+05  1.859693E+05 -1.688105E+03  2.484120E+04 -4.293266E+03
        16   4 -1.831672E+02 -1.468041E+06  1.377516E+03 -9.719394E+02  2.657262E+04 -9.340159E+02
        16   5 -3.415838E+02 -1.468634E+06  2.187793E+03  1.214577E+03  2.627357E+04 -2.059013E+03
        16   6  1.529580E+03 -1.468037E+06  4.353070E+03 -9.686766E+02  2.484093E+04 -3.186800E+03
        16   7 -1.920363E+05 -2.241458E+06 -1.828341E+05 -3.500888E+01  2.657502E+04 -1.079869E+03
        16   8 -1.906133E+05 -2.235656E+06 -1.805293E+05  2.042619E+03  2.627495E+04 -1.579379E+03
        16   9 -1.872686E+05 -2.228772E+06 -1.773039E+05 -2.498598E+02  2.484067E+04 -2.081685E+03
        16  10  1.916260E+05 -6.940739E+05  1.855459E+05 -1.909860E+03 -4.789937E-09  4.700021E-09
        16  11  1.898869E+05 -7.010708E+05  1.848623E+05  3.857803E+02 -9.397832E-10  4.227410E-09
        16  12  1.902851E+05 -7.067696E+05  1.859681E+05 -1.688019E+03 -1.525447E-09  8.206750E-10
        16  13 -1.839251E+02 -1.468041E+06  1.376188E+03 -9.719194E+02  4.029130E-09 -7.334545E-11
        16  14 -3.423257E+02 -1.468634E+06  2.186489E+03  1.214621E+03  1.149368E-08 -7.252315E-10
        16  15  1.528915E+03 -1.468037E+06  4.351892E+03 -9.686129E+02 -1.136482E-09 -1.614669E-10
        16  16 -1.920371E+05 -2.241458E+06 -1.828355E+05 -3.498574E+01  2.715471E-09 -5.734852E-09
        16  17 -1.906141E+05 -2.235656E+06 -1.805306E+05  2.042652E+03 -3.514721E-09 -6.796193E-09
        16  18 -1.872693E+05 -2.228773E+06 -1.773051E+05 -2.498181E+02 -9.989864E-09 -2.465001E-09
        16  19  1.916267E+05 -6.940737E+05  1.855472E+05 -1.909877E+03 -2.657021E+04  7.879805E+02
        16  20  1.898876E+05 -7.010706E+05  1.848636E+05  3.857265E+02 -2.627219E+04  2.539236E+03
        16  21  1.902858E+05 -7.067694E+05  1.859693E+05 -1.688105E+03 -2.484120E+04  4.293266E+03
        16  22 -1.831672E+02 -1.468041E+06  1.377516E+03 -9.719394E+02 -2.657262E+04  9.340159E+02
        16  23 -3.415838E+02 -1.468634E+06  2.187793E+03  1.214577E+03 -2.627357E+04  2.059013E+03
        16  24  1.529580E+03 -1.468037E+06  4.353070E+03 -9.686766E+02 -2.484093E+04  3.186800E+03
        16  25 -1.920363E+05 -2.241458E+06 -1.828341E+05 -3.500888E+01 -2.657502E+04  1.079869E+03
        16  26 -1.906133E+05 -2.235656E+06 -1.805293E+05  2.042619E+03 -2.627495E+04  1.579379E+03
        16  27 -1.872686E+05 -2.228772E+06 -1.773039E+05 -2.498598E+02 -2.484067E+04  2.081685E+03
        17   1  1.851239E+05 -7.158868E+05  1.836719E+05 -5.250375E+03  2.680270E+04 -3.583173E+02
        17   2  1.811820E+05 -7.299467E+05  1.845239E+05  2.255884E+03  2.545845E+04 -1.374956E+04
        17   3  1.986173E+05 -7.364527E+05  1.995434E+05  2.200826E+03  8.141009E+03 -2.719189E+04
        17   4 -9.568146E+02 -1.466961E+06  5.310718E+03 -1.695231E+03  2.681335E+04 -4.001171E+03
        17   5 -2.209965E+03 -1.469966E+06  8.436238E+03  2.111294E+03  2.544639E+04 -8.576187E+03
        17   6  1.639450E+04 -1.466945E+06  1.960644E+04 -1.644145E+03  8.097910E+03 -1.320253E+04
        17   7 -1.870781E+05 -2.217516E+06 -1.730898E+05  1.855885E+03  2.682397E+04 -7.639633E+03
        17   8 -1.856414E+05 -2.209482E+06 -1.676897E+05  1.967217E+03  2.543432E+04 -3.408953E+03
        17   9 -1.658679E+05 -2.196950E+06 -1.603692E+05 -5.484200E+03  8.054612E+03  7.703854E+02
        17  10  1.851231E+05 -7.158870E+05  1.836705E+05 -5.250367E+03  3.106722E-10 -6.247395E-09
        17  11  1.811812E+05 -7.299471E+05  1.845224E+05  2.256166E+03 -5.405910E-09 -4.671290E-09
        17  12  1.986170E+05 -7.364535E+05  1.995419E+05  2.201005E+03 -3.123279E-09 -2.428816E-09
        17  13 -9.575904E+02 -1.466961E+06  5.309338E+03 -1.695144E+03 -1.698777E-09 -4.490214E-11
        17  14 -2.210679E+03 -1.469967E+06  8.434883E+03  2.111470E+03  6.331775E-10 -1.334959E-09
        17  15  1.639438E+04 -1.466945E+06  1.960599E+04 -1.644059E+03 -5.159003E-09 -1.761766E-10
        17  16 -1.870789E+05 -2.217516E+06 -1.730912E+05  1.856050E+03 -5.045569E-09  4.460186E-09
        17  17 -1.856421E+05 -2.209482E+06 -1.676910E+05  1.967287E+03 -2.298424E-09  1.334505E-10
        17  18 -1.658680E+05 -2.196950E+06 -1.603694E+05 -5.484205E+03 -7.576860E-09 -2.766458E-10
        17  19  1.851239E+05 -7.158868E+05  1.836719E+05 -5.250375E+03 -2.680270E+04  3.583173E+02
        17  20  1.811820E+05 -7.299467E+05  1.845239E+05  2.255884E+03 -2.545845E+04  1.374956E+04
        17  21  1.986173E+05 -7.364527E+05  1.995434E+05  2.200826E+03 -8.141009E+03  2.719189E+04
        17  22 -9.568146E+02 -1.466961E+06  5.310718E+03 -1.695231E+03 -2.681335E+04  4.001171E+03
        17  23 -2.209965E+03 -1.469966E+06  8.436238E+03  2.111294E+03 -2.544639E+04  8.576187E+03
        17  24  1.639450E+04 -1.466945E+06  1.960644E+04 -1.644145E+03 -8.097910E+03  1.320253E+04
        17  25 -1.870781E+05 -2.217516E+06 -1.730898E+05  1.855885E+03 -2.682397E+04  7.639633E+03
        17  26 -1.856414E+05 -2.209482E+06 -1.676897E+05  1.967217E+03 -2.543432E+04  3.408953E+03
        17  27 -1.658679E+05 -2.196950E+06 -1.603692E+05 -5.484200E+03 -8.054612E+03 -7.703854E+02
        18   1  8.649030E+04  9.446284E+05  4.858542E+04 -3.794424E+00  3.035999E+04  2.154715E-01
        18   2  8.649523E+04  9.446508E+05  4.859324E+04 -2.207981E+01  3.036114E+04 -5.372854E+00
        18   3  8.650127E+04  9.446821E+05  4.860750E+04 -3.744511E+01  3.036347E+04 -1.096087E+01
        18   4 -2.988875E+01  5.602585E+05  1.493411E+01  6.491842E-01  3.036197E+04 -1.166607E+00
        18   5 -3.136291E+01  5.602538E+05  1.779180E+01 -8.106093E-01  3.036313E+04 -9.548399E+00
        18   6 -3.123953E+01  5.602585E+05  2.903594E+01  6.503709E-01  3.036545E+04 -1.792992E+01
        18   7 -8.655608E+04  1.760401E+05 -4.855602E+04  5.090426E+00  3.036396E+04 -2.547872E+00
        18   8 -8.656396E+04  1.760083E+05 -4.855812E+04  2.044709E+01  3.036511E+04 -1.372149E+01
        18   9 -8.656976E+04  1.759864E+05 -4.854989E+04  3.872521E+01  3.036744E+04 -2.489488E+01
        18  10  8.648931E+04  9.446281E+05  4.858369E+04 -3.794429E+00 -7.982188E-09  2.975707E-08
        18  11  8.649424E+04  9.446505E+05  4.859150E+04 -2.207968E+01 -5.640262E-09 -3.268477E-09
        18  12  8.650028E+04  9.446818E+05  4.860576E+04 -3.744485E+01 -4.702444E-10 -3.647930E-08
        18  13 -3.087892E+01  5.602582E+05  1.320132E+01  6.492125E-01  3.069564E-08  2.293080E-11
        18  14 -3.235316E+01  5.602535E+05  1.605888E+01 -8.103759E-01  1.966783E-08 -1.349088E-10
        18  15 -3.222992E+01  5.602582E+05  2.730275E+01  6.508093E-01  1.660550E-08  1.399601E-10
        18  16 -8.655707E+04  1.760398E+05 -4.855776E+04  5.090488E+00 -1.231812E-08 -2.982023E-08
        18  17 -8.656495E+04  1.760081E+05 -4.855986E+04  2.044743E+01 -7.925752E-09  3.212573E-09
        18  18 -8.657075E+04  1.759862E+05 -4.855163E+04  3.872582E+01 -4.991095E-09  3.646648E-08
        18  19  8.649030E+04  9.446284E+05  4.858542E+04 -3.794424E+00 -3.035999E+04 -2.154714E-01
        18  20  8.649523E+04  9.446508E+05  4.859324E+04 -2.207981E+01 -3.036114E+04  5.372854E+00
        18  21  8.650127E+04  9.446821E+05  4.860750E+04 -3.744511E+01 -3.036347E+04  1.096087E+01
        18  22 -2.988875E+01  5.602585E+05  1.493411E+01  6.491840E-01 -3.036197E+04  1.166607E+00
        18  23 -3.136291E+01  5.602538E+05  1.779180E+01 -8.106093E-01 -3.036313E+04  9.548399E+00
        18  24 -3.123953E+01  5.602585E+05  2.903594E+01  6.503710E-01 -3.036545E+04  1.792992E+01
        18  25 -8.655608E+04  1.760401E+05 -4.855602E+04  5.090426E+00 -3.036396E+04  2.547872E+00
        18  26 -8.656396E+04  1.760083E+05 -4.855812E+04  2.044709E+01 -3.036511E+04  1.372149E+01
        18  27 -8.656976E+04  1.759864E+05 -4.854989E+04  3.872521E+01 -3.036744E+04  2.489488E+01
        19   1  8.650819E+04  9.447158E+05  4.862085E+04 -4.479342E+01  3.036556E+04 -1.403023E+01
        19   2  8.652358E+04  9.447895E+05  4.866095E+04 -7.093799E+01  3.036906E+04 -4.713299E+01
        19   3  8.654160E+04  9.448762E+05  4.872576E+04 -8.436603E+01  3.037157E+04 -8.023502E+01
        19   4 -3.191397E+01  5.602591E+05  3.741656E+01  2.827471E+00  3.036755E+04 -2.359421E+01
        19   5 -3.542029E+01  5.602529E+05  6.299026E+01 -3.530765E+00  3.037105E+04 -5.431432E+01
        19   6 -3.671904E+01  5.602591E+05  1.116392E+02  2.827975E+00  3.037356E+04 -8.503370E+01
        19   7 -8.657803E+04  1.759541E+05 -4.854649E+04  5.042257E+01  3.036954E+04 -3.315258E+01
        19   8 -8.660044E+04  1.758679E+05 -4.853544E+04  6.383960E+01  3.037304E+04 -6.149142E+01
        19   9 -8.662105E+04  1.757938E+05 -4.850296E+04  8.997405E+01  3.037555E+04 -8.982954E+01
        19  10  8.650720E+04  9.447155E+05  4.861912E+04 -4.479308E+01 -1.613817E-09  7.173560E-08
        19  11  8.652259E+04  9.447893E+05  4.865922E+04 -7.093684E+01 -7.461189E-09  7.066348E-08
        19  12  8.654060E+04  9.448759E+05  4.872403E+04 -8.436407E+01 -1.312439E-09  6.706786E-08
        19  13 -3.290450E+01  5.602589E+05  3.568313E+01  2.828048E+00  1.233490E-08  1.293407E-10
        19  14 -3.641105E+01  5.602526E+05  6.125643E+01 -3.529437E+00  4.417530E-09 -4.324559E-10
        19  15 -3.770996E+01  5.602589E+05  1.099050E+02  2.830055E+00  9.639870E-10  3.641704E-10
        19  16 -8.657903E+04  1.759539E+05 -4.854822E+04  5.042338E+01 -4.847210E-09 -7.197064E-08
        19  17 -8.660143E+04  1.758677E+05 -4.853717E+04  6.384110E+01 -5.416286E-09 -7.082861E-08
        19  18 -8.662204E+04  1.757935E+05 -4.850469E+04  8.997624E+01 -2.721162E-09 -6.688225E-08
        19  19  8.650819E+04  9.447158E+05  4.862085E+04 -4.479342E+01 -3.036556E+04  1.403023E+01
        19  20  8.652358E+04  9.447895E+05  4.866095E+04 -7.093799E+01 -3.036906E+04  4.713299E+01
        19  21  8.654160E+04  9.448762E+05  4.872576E+04 -8.436603E+01 -3.037157E+04  8.023502E+01
        19  22 -3.191397E+01  5.602591E+05  3.741656E+01  2.827471E+00 -3.036755E+04  2.359421E+01
        19  23 -3.542029E+01  5.602529E+05  6.299026E+01 -3.530765E+00 -3.037105E+04  5.431432E+01
        19  24 -3.671904E+01  5.602591E+05  1.116392E+02  2.827975E+00 -3.037356E+04  8.503370E+01
        19  25 -8.657803E+04  1.759541E+05 -4.854649E+04  5.042257E+01 -3.036954E+04  3.315258E+01
        19  26 -8.660044E+04  1.758679E+05 -4.853544E+04  6.383960E+01 -3.037304E+04  6.149142E+01
        19  27 -8.662105E+04  1.757938E+05 -4.850296E+04  8.997405E+01 -3.037555E+04  8.982954E+01
        20   1  8.655599E+04  9.449470E+05  4.877518E+04 -9.547074E+01  3.037360E+04 -1.019630E+02
        20   2  8.658572E+04  9.450631E+05  4.892600E+04 -1.302568E+02  3.036761E+04 -2.697371E+02
        20   3  8.663663E+04  9.452142E+05  4.919376E+04 -1.437384E+02  3.034445E+04 -4.375148E+02
        20   4 -3.853676E+01  5.602625E+05  1.473712E+02  4.735341E+00  3.037558E+04 -1.080577E+02
        20   5 -4.320840E+01  5.602485E+05  2.562583E+02 -5.915796E+00  3.036959E+04 -2.344876E+02
        20   6 -3.385615E+01  5.602625E+05  4.534460E+02  4.737519E+00  3.034641E+04 -3.609216E+02
        20   7 -8.663908E+04  1.757299E+05 -4.848091E+04  1.048861E+02  3.037757E+04 -1.141488E+02
        20   8 -8.667816E+04  1.755859E+05 -4.841396E+04  1.183559E+02  3.037156E+04 -1.992588E+02
        20   9 -8.671038E+04  1.754626E+05 -4.828736E+04  1.531303E+02  3.034837E+04 -2.843734E+02
        20  10  8.655500E+04  9.449467E+05  4.877345E+04 -9.546825E+01 -5.840169E-09  1.812242E-07
        20  11  8.658473E+04  9.450628E+05  4.892426E+04 -1.302502E+02 -7.684945E-10 -2.609054E-08
        20  12  8.663564E+04  9.452140E+05  4.919203E+04 -1.437277E+02 -3.598566E-10 -2.297781E-07
        20  13 -3.952782E+01  5.602623E+05  1.456369E+02  4.737984E+00 -9.069444E-09  3.266486E-10
        20  14 -4.419908E+01  5.602483E+05  2.545245E+02 -5.910061E+00 -1.906181E-08 -6.795933E-10
        20  15 -3.484534E+01  5.602622E+05  4.517148E+02  4.746338E+00 -1.607629E-08  3.945805E-10
        20  16 -8.664008E+04  1.757296E+05 -4.848265E+04  1.048889E+02 -3.588941E-09 -1.814516E-07
        20  17 -8.667915E+04  1.755856E+05 -4.841570E+04  1.183608E+02 -1.061407E-08  2.589847E-08
        20  18 -8.671137E+04  1.754624E+05 -4.828909E+04  1.531372E+02 -5.867761E-09  2.298978E-07
        20  19  8.655599E+04  9.449470E+05  4.877518E+04 -9.547074E+01 -3.037360E+04  1.019630E+02
        20  20  8.658572E+04  9.450631E+05  4.892600E+04 -1.302568E+02 -3.036761E+04  2.697371E+02
        20  21  8.663663E+04  9.452142E+05  4.919376E+04 -1.437384E+02 -3.034445E+04  4.375148E+02
        20  22 -3.853676E+01  5.602625E+05  1.473712E+02  4.735341E+00 -3.037558E+04  1.080577E+02
        20  23 -4.320840E+01  5.602485E+05  2.562583E+02 -5.915795E+00 -3.036959E+04  2.344876E+02
        20  24 -3.385615E+01  5.602625E+05  4.534460E+02  4.737519E+00 -3.034641E+04  3.609216E+02
        20  25 -8.663908E+04  1.757299E+05 -4.848091E+04  1.048861E+02 -3.037757E+04  1.141488E+02
        20  26 -8.667816E+04  1.755859E+05 -4.841396E+04  1.183559E+02 -3.037156E+04  1.992588E+02
        20  27 -8.671038E+04  1.754626E+05 -4.828736E+04  1.531303E+02 -3.034837E+04  2.843734E+02
        21   1 -4.921706E+06 -5.102694E+05 -6.478672E+05  1.681941E+04 -3.934398E+05 -1.881932E+03
        21   2 -4.860144E+06  3.124043E+04 -3.226807E+05 -2.494089E+04 -2.585514E+05  1.681689E+02
        21   3 -4.932182E+06 -6.078317E+04 -2.355433E+05  2.731801E+04 -1.236710E+05  5.647139E+02
        21   4 -4.632184E+06 -4.373838E+05 -5.750656E+05  2.538451E+04 -3.935165E+05 -1.887075E+03
        21   5 -4.564803E+06  1.054676E+05 -2.484561E+05 -2.276158E+04 -2.586124E+05  1.672860E+02
        21   6 -4.630934E+06  1.495164E+04 -1.598241E+05  2.310806E+04 -1.237152E+05  5.655475E+02
        21   7 -4.342586E+06 -3.645043E+05 -5.022704E+05  3.395352E+04 -3.935931E+05 -1.892217E+03
        21   8 -4.269382E+06  1.796882E+05 -1.742382E+05 -2.058127E+04 -2.586734E+05  1.664031E+02
        21   9 -4.329604E+06  9.067957E+04 -8.411175E+04  1.889610E+04 -1.237593E+05  5.663815E+02
        21  10 -4.921874E+06 -5.103114E+05 -6.481604E+05  1.681882E+04  2.840726E-09  4.511449E-10
        21  11 -4.860217E+06  3.122231E+04 -3.228073E+05 -2.494085E+04  1.156275E-08  2.517718E-09
        21  12 -4.932199E+06 -6.078732E+04 -2.355723E+05  2.731806E+04 -2.439040E-09 -8.228117E-09
        21  13 -4.632352E+06 -4.374257E+05 -5.753588E+05  2.538391E+04  4.415251E-09  1.004649E-10
        21  14 -4.564875E+06  1.054495E+05 -2.485827E+05 -2.276155E+04  6.541106E-09 -7.409602E-11
        21  15 -4.630951E+06  1.494749E+04 -1.598531E+05  2.310812E+04  2.242242E-09  5.505992E-10
        21  16 -4.342753E+06 -3.645462E+05 -5.025635E+05  3.395293E+04 -2.511743E-09  3.829289E-09
        21  17 -4.269454E+06  1.796701E+05 -1.743648E+05 -2.058123E+04 -8.962462E-09  2.672939E-09
        21  18 -4.329620E+06  9.067542E+04 -8.414073E+04  1.889616E+04  2.938198E-09  6.492303E-09
        21  19 -4.921706E+06 -5.102694E+05 -6.478672E+05  1.681941E+04  3.934398E+05  1.881932E+03
        21  20 -4.860144E+06  3.124043E+04 -3.226807E+05 -2.494089E+04  2.585514E+05 -1.681689E+02
        21  21 -4.932182E+06 -6.078317E+04 -2.355433E+05  2.731801E+04  1.236710E+05 -5.647139E+02
        21  22 -4.632184E+06 -4.373838E+05 -5.750656E+05  2.538451E+04  3.935165E+05  1.887075E+03
        21  23 -4.564803E+06  1.054676E+05 -2.484561E+05 -2.276158E+04  2.586124E+05 -1.672860E+02
        21  24 -4.630934E+06  1.495164E+04 -1.598241E+05  2.310806E+04  1.237152E+05 -5.655475E+02
        21  25 -4.342586E+06 -3.645043E+05 -5.022704E+05  3.395352E+04  3.935931E+05  1.892217E+03
        21  26 -4.269382E+06  1.796882E+05 -1.742382E+05 -2.058127E+04  2.586734E+05 -1.664031E+02
        21  27 -4.329604E+06  9.067957E+04 -8.411175E+04  1.889610E+04  1.237593E+05 -5.663815E+02
        22   1 -4.493310E+06 -4.159404E+04 -1.057264E+05 -6.465600E+03 -9.736109E+04  2.607980E+02
        22   2 -4.479325E+06  4.598485E+04 -3.478900E+04  1.197363E+04 -6.389600E+04 -1.453495E+02
        22   3 -4.488675E+06  3.196219E+04 -9.845662E+03 -4.265751E+03 -3.042982E+04 -1.192095E+02
        22   4 -4.606815E+06 -7.012400E+04 -1.342494E+05 -5.076258E+03 -9.736118E+04  2.606179E+02
        22   5 -4.595027E+06  1.691298E+04 -6.385792E+04  1.236396E+04 -6.389114E+04 -1.453869E+02
        22   6 -4.606581E+06  2.336832E+03 -3.947001E+04 -4.874853E+03 -3.042012E+04 -1.191807E+02
        22   7 -4.720308E+06 -9.865494E+04 -1.627734E+05 -3.687162E+03 -9.736127E+04  2.604378E+02
        22   8 -4.710717E+06 -1.215992E+04 -9.292786E+04  1.275422E+04 -6.388628E+04 -1.454243E+02
        22   9 -4.724474E+06 -2.728959E+04 -6.909543E+04 -5.483838E+03 -3.041043E+04 -1.191520E+02
        22  10 -4.493320E+06 -4.159660E+04 -1.057443E+05 -6.465579E+03 -1.164747E-08  4.741553E-10
        22  11 -4.479329E+06  4.598374E+04 -3.479673E+04  1.197362E+04 -2.188067E-09  7.489629E-09
        22  12 -4.488676E+06  3.196194E+04 -9.847414E+03 -4.265754E+03 -1.130646E-09 -4.376125E-09
        22  13 -4.606825E+06 -7.012657E+04 -1.342673E+05 -5.076237E+03  3.750910E-11  5.499427E-10
        22  14 -4.595031E+06  1.691187E+04 -6.386565E+04  1.236395E+04  4.461674E-09 -8.205932E-10
        22  15 -4.606582E+06  2.336581E+03 -3.947177E+04 -4.874855E+03  6.823476E-09  4.116804E-10
        22  16 -4.720318E+06 -9.865751E+04 -1.627913E+05 -3.687142E+03  6.529636E-09 -4.903137E-09
        22  17 -4.710721E+06 -1.216102E+04 -9.293559E+04  1.275421E+04  3.203420E-09 -6.806203E-09
        22  18 -4.724475E+06 -2.728984E+04 -6.909718E+04 -5.483841E+03  1.357973E-09  1.286122E-08
        22  19 -4.493310E+06 -4.159404E+04 -1.057264E+05 -6.465600E+03  9.736109E+04 -2.607980E+02
        22  20 -4.479325E+06  4.598485E+04 -3.478900E+04  1.197363E+04  6.389600E+04  1.453495E+02
        22  21 -4.488675E+06  3.196219E+04 -9.845662E+03 -4.265751E+03  3.042982E+04  1.192095E+02
        22  22 -4.606815E+06 -7.012400E+04 -1.342494E+05 -5.076258E+03  9.736118E+04 -2.606179E+02
        22  23 -4.595027E+06  1.691298E+04 -6.385792E+04  1.236396E+04  6.389114E+04  1.453869E+02
        22  24 -4.606581E+06  2.336832E+03 -3.947001E+04 -4.874853E+03  3.042012E+04  1.191807E+02
        22  25 -4.720308E+06 -9.865494E+04 -1.627734E+05 -3.687162E+03  9.736127E+04 -2.604378E+02
        22  26 -4.710717E+06 -1.215992E+04 -9.292786E+04  1.275422E+04  6.388628E+04  1.454243E+02
        22  27 -4.724474E+06 -2.728959E+04 -6.909543E+04 -5.483838E+03  3.041043E+04  1.191520E+02
        23   1 -4.648589E+06 -2.280543E+04 -4.365678E+04  5.441402E+03 -2.399613E+04  1.435317E+01
        23   2 -4.647339E+06 -9.107344E+03 -2.823749E+04 -8.033162E+02 -1.558263E+04  9.832779E+01
        23   3 -4.650173E+06 -1.171600E+04 -2.218075E+04  5.751510E+03 -7.169239E+03  5.272221E+01
        23   4 -4.602354E+06 -1.118695E+04 -3.203858E+04  5.623074E+03 -2.399389E+04  1.434711E+01
        23   5 -4.600290E+06  2.715357E+03 -1.641585E+04 -7.782421E+02 -1.558293E+04  9.832654E+01
        23   6 -4.602308E+06  3.120653E+02 -1.015341E+04  5.619928E+03 -7.172073E+03  5.272566E+01
        23   7 -4.556117E+06  4.313779E+02 -2.042054E+04  5.804759E+03 -2.399165E+04  1.434106E+01
        23   8 -4.553238E+06  1.453789E+04 -4.594380E+03 -7.531660E+02 -1.558323E+04  9.832528E+01
        23   9 -4.554441E+06  1.233996E+04  1.873752E+03  5.488337E+03 -7.174906E+03  5.272912E+01
        23  10 -4.648590E+06 -2.280559E+04 -4.365787E+04  5.441402E+03  1.162135E-09  3.244851E-09
        23  11 -4.647340E+06 -9.107410E+03 -2.823795E+04 -8.033149E+02  3.208873E-09  2.492278E-08
        23  12 -4.650173E+06 -1.171602E+04 -2.218084E+04  5.751510E+03  2.759265E-09 -6.329107E-08
        23  13 -4.602355E+06 -1.118710E+04 -3.203967E+04  5.623074E+03  3.631159E-11  2.161995E-09
        23  14 -4.600290E+06  2.715292E+03 -1.641631E+04 -7.782409E+02  4.281965E-09  7.665688E-09
        23  15 -4.602308E+06  3.120514E+02 -1.015351E+04  5.619928E+03 -2.228709E-09  3.615943E-09
        23  16 -4.556118E+06  4.312219E+02 -2.042163E+04  5.804760E+03  2.265379E-09 -2.978715E-09
        23  17 -4.553239E+06  1.453782E+04 -4.594840E+03 -7.531647E+02  1.523287E-09 -7.519628E-09
        23  18 -4.554441E+06  1.233995E+04  1.873654E+03  5.488337E+03 -1.337669E-09  5.137289E-08
        23  19 -4.648589E+06 -2.280543E+04 -4.365678E+04  5.441402E+03  2.399613E+04 -1.435317E+01
        23  20 -4.647339E+06 -9.107344E+03 -2.823749E+04 -8.033162E+02  1.558263E+04 -9.832779E+01
        23  21 -4.650173E+06 -1.171600E+04 -2.218075E+04  5.751510E+03  7.169239E+03 -5.272221E+01
        23  22 -4.602354E+06 -1.118695E+04 -3.203858E+04  5.623074E+03  2.399389E+04 -1.434711E+01
        23  23 -4.600290E+06  2.715357E+03 -1.641585E+04 -7.782421E+02  1.558293E+04 -9.832654E+01
        23  24 -4.602308E+06  3.120653E+02 -1.015341E+04  5.619928E+03  7.172073E+03 -5.272566E+01
        23  25 -4.556117E+06  4.313778E+02 -2.042054E+04  5.804759E+03  2.399165E+04 -1.434106E+01
        23  26 -4.553238E+06  1.453789E+04 -4.594380E+03 -7.531660E+02  1.558323E+04 -9.832528E+01
        23  27 -4.554441E+06  1.233996E+04  1.873752E+03  5.488337E+03  7.174906E+03 -5.272911E+01
        24   1 -4.578485E+06  4.043465E+03 -2.453671E+03  1.954343E+03 -5.513979E+03 -6.322530E+00
        24   2 -4.577852E+06  6.352145E+03  7.972805E+02  3.730080E+03 -2.962379E+03 -4.492820E+01
        24   3 -4.578031E+06  5.703169E+03  1.691292E+03  2.012458E+03 -4.106898E+02 -1.989549E+01
        24   4 -4.601589E+06 -1.762104E+03 -8.259039E+03  1.998283E+03 -5.515457E+03 -6.321340E+00
        24   5 -4.601179E+06  4.907017E+02 -5.063575E+03  3.745780E+03 -2.962422E+03 -4.492829E+01
        24   6 -4.601582E+06 -2.144670E+02 -4.226116E+03  1.999910E+03 -4.092985E+02 -1.989607E+01
        24   7 -4.624693E+06 -7.567714E+03 -1.406445E+04  2.042221E+03 -5.516935E+03 -6.320150E+00
        24   8 -4.624506E+06 -5.370783E+03 -1.092447E+04  3.761480E+03 -2.962465E+03 -4.492839E+01
        24   9 -4.625132E+06 -6.132146E+03 -1.014357E+04  1.987362E+03 -4.079073E+02 -1.989665E+01
        24  10 -4.578485E+06  4.043457E+03 -2.453729E+03  1.954342E+03 -3.703352E-06 -2.805289E-07
        24  11 -4.577852E+06  6.352143E+03  7.972640E+02  3.730072E+03 -1.650598E-05 -6.299183E-07
        24  12 -4.578031E+06  5.703170E+03  1.691291E+03  2.012444E+03 -2.933788E-05 -6.074998E-07
        24  13 -4.601589E+06 -1.762112E+03 -8.259097E+03  1.998283E+03 -9.327033E-06  8.328893E-08
        24  14 -4.601179E+06  4.906994E+02 -5.063592E+03  3.745780E+03 -4.135220E-05  3.596987E-07
        24  15 -4.601582E+06 -2.144671E+02 -4.226117E+03  1.999910E+03 -7.340711E-05  6.200326E-07
        24  16 -4.624693E+06 -7.567722E+03 -1.406451E+04  2.042223E+03 -3.752098E-06  1.633557E-07
        24  17 -4.624506E+06 -5.370786E+03 -1.092449E+04  3.761488E+03 -1.658509E-05  1.317019E-07
        24  18 -4.625132E+06 -6.132147E+03 -1.014357E+04  1.987376E+03 -2.938311E-05 -3.093840E-07
        24  19 -4.578485E+06  4.043466E+03 -2.453671E+03  1.954340E+03  5.513979E+03  6.322529E+00
        24  20 -4.577852E+06  6.352146E+03  7.972808E+02  3.730064E+03  2.962379E+03  4.492819E+01
        24  21 -4.578031E+06  5.703171E+03  1.691292E+03  2.012430E+03  4.106897E+02  1.989549E+01
        24  22 -4.601589E+06 -1.762104E+03 -8.259039E+03  1.998283E+03  5.515457E+03  6.321340E+00
        24  23 -4.601179E+06  4.907019E+02 -5.063576E+03  3.745780E+03  2.962422E+03  4.492830E+01
        24  24 -4.601582E+06 -2.144670E+02 -4.226116E+03  1.999910E+03  4.092984E+02  1.989607E+01
        24  25 -4.624693E+06 -7.567714E+03 -1.406445E+04  2.042225E+03  5.516935E+03  6.320150E+00
        24  26 -4.624506E+06 -5.370784E+03 -1.092447E+04  3.761496E+03  2.962465E+03  4.492839E+01
        24  27 -4.625132E+06 -6.132148E+03 -1.014357E+04  1.987390E+03  4.079072E+02  1.989665E+01
        25   1 -4.623588E+06 -5.756007E+03 -9.748042E+03  2.213084E+03  3.494079E+02  1.779455E+01
        25   2 -4.623021E+06 -5.008276E+03 -1.049810E+04  3.477713E+03  2.876440E+03  4.206206E+01
        25   3 -4.623279E+06 -7.159791E+03 -1.358072E+04  2.265724E+03  5.403428E+03  6.830447E+00
        25   4 -4.601585E+06 -2.269947E+02 -4.219232E+03  2.225825E+03  3.507288E+02  1.779401E+01
        25   5 -4.601176E+06  4.809722E+02 -5.009401E+03  3.463385E+03  2.876420E+03  4.206196E+01
        25   6 -4.601592E+06 -1.710010E+03 -8.131140E+03  2.224331E+03  5.402065E+03  6.831476E+00
        25   7 -4.579581E+06  5.301980E+03  1.309540E+03  2.238566E+03  3.520497E+02  1.779347E+01
        25   8 -4.579330E+06  5.970184E+03  4.792618E+02  3.449056E+03  2.876399E+03  4.206186E+01
        25   9 -4.579904E+06  3.739735E+03 -2.681594E+03  2.182937E+03  5.400702E+03  6.832505E+00
        25  10 -4.623588E+06 -5.756006E+03 -9.748042E+03  2.213070E+03 -2.938615E-05 -3.157770E-07
        25  11 -4.623021E+06 -5.008278E+03 -1.049812E+04  3.477705E+03 -1.657820E-05  1.360580E-07
        25  12 -4.623279E+06 -7.159799E+03 -1.358078E+04  2.265722E+03 -3.755603E-06  1.735446E-07
        25  13 -4.601585E+06 -2.269947E+02 -4.219232E+03  2.225825E+03 -7.339892E-05  6.174416E-07
        25  14 -4.601176E+06  4.809699E+02 -5.009417E+03  3.463385E+03 -4.135863E-05  3.552878E-07
        25  15 -4.601592E+06 -1.710018E+03 -8.131196E+03  2.224331E+03 -9.318722E-06  8.084376E-08
        25  16 -4.579581E+06  5.301980E+03  1.309540E+03  2.238580E+03 -2.933935E-05 -6.152790E-07
        25  17 -4.579330E+06  5.970181E+03  4.792460E+02  3.449064E+03 -1.650314E-05 -6.516896E-07
        25  18 -4.579904E+06  3.739727E+03 -2.681649E+03  2.182939E+03 -3.706059E-06 -2.915547E-07
        25  19 -4.623588E+06 -5.756005E+03 -9.748041E+03  2.213056E+03 -3.494080E+02 -1.779455E+01
        25  20 -4.623021E+06 -5.008275E+03 -1.049810E+04  3.477698E+03 -2.876440E+03 -4.206206E+01
        25  21 -4.623279E+06 -7.159791E+03 -1.358072E+04  2.265720E+03 -5.403428E+03 -6.830446E+00
        25  22 -4.601585E+06 -2.269947E+02 -4.219232E+03  2.225825E+03 -3.507289E+02 -1.779401E+01
        25  23 -4.601176E+06  4.809721E+02 -5.009401E+03  3.463385E+03 -2.876420E+03 -4.206196E+01
        25  24 -4.601592E+06 -1.710010E+03 -8.131140E+03  2.224331E+03 -5.402065E+03 -6.831476E+00
        25  25 -4.579581E+06  5.301979E+03  1.309540E+03  2.238594E+03 -3.520498E+02 -1.779348E+01
        25  26 -4.579330E+06  5.970183E+03  4.792615E+02  3.449072E+03 -2.876399E+03 -4.206186E+01
        25  27 -4.579904E+06  3.739735E+03 -2.681594E+03  2.182941E+03 -5.400702E+03 -6.832506E+00
        26   1 -4.560454E+06  1.081867E+04  5.215999E+02  5.054233E+03  7.037614E+03 -4.622434E+01
        26   2 -4.559056E+06  1.300142E+04 -5.778407E+03 -2.023379E+02  1.530094E+04 -8.731967E+01
        26   3 -4.561878E+06 -7.297601E+02 -2.129547E+04  5.351545E+03  2.356410E+04 -1.505551E+01
        26   4 -4.602340E+06  2.937421E+02 -1.000268E+04  5.178268E+03  7.035127E+03 -4.622126E+01
        26   5 -4.600250E+06  2.650439E+03 -1.612846E+04 -2.261530E+02  1.530067E+04 -8.732078E+01
        26   6 -4.602383E+06 -1.090778E+04 -3.147327E+04  5.179927E+03  2.356607E+04 -1.506156E+01
        26   7 -4.644223E+06 -1.023132E+04 -2.052710E+04  5.302295E+03  7.032640E+03 -4.621818E+01
        26   8 -4.641444E+06 -7.700671E+03 -2.647864E+04 -2.499663E+02  1.530041E+04 -8.732189E+01
        26   9 -4.642886E+06 -2.108593E+04 -4.165120E+04  5.008320E+03  2.356804E+04 -1.506761E+01
        26  10 -4.560454E+06  1.081866E+04  5.215061E+02  5.054233E+03 -4.523588E-09  7.577483E-08
        26  11 -4.559056E+06  1.300136E+04 -5.778851E+03 -2.023368E+02 -1.595061E-09 -1.013076E-08
        26  12 -4.561878E+06 -7.299105E+02 -2.129652E+04  5.351545E+03 -1.547138E-09  2.655085E-09
        26  13 -4.602340E+06  2.937287E+02 -1.000278E+04  5.178268E+03 -2.496435E-09  2.686284E-09
        26  14 -4.600251E+06  2.650376E+03 -1.612890E+04 -2.261519E+02 -4.736930E-09  5.885168E-09
        26  15 -4.602384E+06 -1.090793E+04 -3.147432E+04  5.179927E+03 -3.996239E-11 -1.629654E-09
        26  16 -4.644223E+06 -1.023134E+04 -2.052720E+04  5.302295E+03  9.846681E-09 -6.823428E-08
        26  17 -4.641444E+06 -7.700734E+03 -2.647909E+04 -2.499653E+02  9.266816E-09  2.178534E-08
        26  18 -4.642887E+06 -2.108608E+04 -4.165225E+04  5.008320E+03  7.679130E-09 -1.590974E-09
        26  19 -4.560454E+06  1.081867E+04  5.215998E+02  5.054233E+03 -7.037614E+03  4.622434E+01
        26  20 -4.559056E+06  1.300142E+04 -5.778407E+03 -2.023379E+02 -1.530094E+04  8.731967E+01
        26  21 -4.561878E+06 -7.297601E+02 -2.129547E+04  5.351545E+03 -2.356410E+04  1.505551E+01
        26  22 -4.602340E+06  2.937421E+02 -1.000268E+04  5.178268E+03 -7.035127E+03  4.622126E+01
        26  23 -4.600250E+06  2.650439E+03 -1.612846E+04 -2.261530E+02 -1.530067E+04  8.732078E+01
        26  24 -4.602383E+06 -1.090778E+04 -3.147327E+04  5.179927E+03 -2.356607E+04  1.506156E+01
        26  25 -4.644223E+06 -1.023132E+04 -2.052710E+04  5.302295E+03 -7.032640E+03  4.621818E+01
        26  26 -4.641444E+06 -7.700671E+03 -2.647864E+04 -2.499663E+02 -1.530041E+04  8.732189E+01
        26  27 -4.642886E+06 -2.108593E+04 -4.165120E+04  5.008320E+03 -2.356804E+04  1.506761E+01
        27   1 -4.708584E+06 -2.333615E+04 -6.443333E+04 -4.379365E+03  2.989024E+04  1.003172E+02
        27   2 -4.694588E+06 -8.507737E+03 -8.776227E+04  1.136626E+04  6.276540E+04  1.219831E+02
        27   3 -4.705032E+06 -9.334510E+04 -1.565547E+05 -2.663083E+03  9.564029E+04 -2.277739E+02
        27   4 -4.606826E+06  2.235089E+03 -3.886288E+04 -3.791656E+03  2.989857E+04  1.003444E+02
        27   5 -4.594720E+06  1.658896E+04 -6.266814E+04  1.100759E+04  6.276951E+04  1.219491E+02
        27   6 -4.607048E+06 -6.871325E+04 -1.319288E+05 -3.967854E+03  9.564009E+04 -2.279464E+02
        27   7 -4.505059E+06  2.780553E+04 -1.329321E+04 -3.203851E+03  2.990690E+04  1.003716E+02
        27   8 -4.494843E+06  4.168489E+04 -3.757477E+04  1.064886E+04  6.277363E+04  1.219151E+02
        27   9 -4.509054E+06 -4.408212E+04 -1.073036E+05 -5.272827E+03  9.563988E+04 -2.281188E+02
        27  10 -4.708585E+06 -2.333639E+04 -6.443502E+04 -4.379367E+03 -9.730353E-11  2.347957E-08
        27  11 -4.694592E+06 -8.508804E+03 -8.776973E+04  1.136626E+04  4.884047E-09 -1.281072E-08
        27  12 -4.705042E+06 -9.334758E+04 -1.565721E+05 -2.663065E+03 -1.842202E-09 -8.272626E-09
        27  13 -4.606827E+06  2.234847E+03 -3.886457E+04 -3.791659E+03 -3.750807E-09 -3.159549E-09
        27  14 -4.594724E+06  1.658789E+04 -6.267560E+04  1.100758E+04 -2.443740E-09  9.808651E-10
        27  15 -4.607057E+06 -6.871573E+04 -1.319461E+05 -3.967836E+03 -1.805347E-09 -2.413634E-09
        27  16 -4.505060E+06  2.780529E+04 -1.329491E+04 -3.203853E+03  2.303840E-09 -8.417145E-09
        27  17 -4.494847E+06  4.168382E+04 -3.758223E+04  1.064885E+04  1.587194E-09  7.155270E-09
        27  18 -4.509064E+06 -4.408460E+04 -1.073209E+05 -5.272809E+03  4.044636E-09 -6.913912E-09
        27  19 -4.708584E+06 -2.333615E+04 -6.443333E+04 -4.379365E+03 -2.989024E+04 -1.003172E+02
        27  20 -4.694588E+06 -8.507737E+03 -8.776227E+04  1.136626E+04 -6.276540E+04 -1.219831E+02
        27  21 -4.705032E+06 -9.334510E+04 -1.565547E+05 -2.663083E+03 -9.564029E+04  2.277739E+02
        27  22 -4.606826E+06  2.235089E+03 -3.886288E+04 -3.791656E+03 -2.989857E+04 -1.003444E+02
        27  23 -4.594720E+06  1.658896E+04 -6.266814E+04  1.100759E+04 -6.276951E+04 -1.219491E+02
        27  24 -4.607048E+06 -6.871325E+04 -1.319288E+05 -3.967854E+03 -9.564009E+04  2.279464E+02
        27  25 -4.505059E+06  2.780553E+04 -1.329321E+04 -3.203851E+03 -2.990690E+04 -1.003716E+02
        27  26 -4.494843E+06  4.168489E+04 -3.757477E+04  1.064886E+04 -6.277363E+04 -1.219151E+02
        27  27 -4.509054E+06 -4.408212E+04 -1.073036E+05 -5.272827E+03 -9.563988E+04  2.281188E+02
        28   1 -4.373263E+06  7.960524E+04 -9.237438E+04  1.624592E+04  1.216989E+05 -4.943656E+02
        28   2 -4.307954E+06  1.679060E+05 -1.795626E+05 -1.714410E+04  2.541591E+05 -1.708012E+02
        28   3 -4.384517E+06 -3.679746E+05 -5.030192E+05  3.028693E+04  3.866261E+05  1.565697E+03
        28   4 -4.632826E+06  1.437200E+04 -1.575939E+05  2.027365E+04  1.216613E+05 -4.935788E+02
        28   5 -4.562440E+06  1.039689E+05 -2.434978E+05 -1.919090E+04  2.541075E+05 -1.716242E+02
        28   6 -4.633998E+06 -4.307550E+05 -5.657308E+05  2.216832E+04  3.865615E+05  1.560842E+03
        28   7 -4.892327E+06 -5.086632E+04 -2.228186E+05  2.429971E+04  1.216237E+05 -4.927922E+02
        28   8 -4.816868E+06  4.002685E+04 -3.074379E+05 -2.123687E+04  2.540559E+05 -1.724471E+02
        28   9 -4.883423E+06 -4.935398E+05 -6.284472E+05  1.405293E+04  3.864969E+05  1.555986E+03
        28  10 -4.373279E+06  7.960122E+04 -9.240241E+04  1.624597E+04 -4.585613E-09  5.358627E-09
        28  11 -4.308024E+06  1.678885E+05 -1.796848E+05 -1.714406E+04 -1.639058E-09  5.848970E-09
        28  12 -4.384678E+06 -3.680151E+05 -5.033021E+05  3.028644E+04 -8.762773E-10  2.538522E-09
        28  13 -4.632842E+06  1.436799E+04 -1.576220E+05  2.027370E+04  1.309507E-10 -1.858402E-09
        28  14 -4.562510E+06  1.039514E+05 -2.436200E+05 -1.919086E+04  1.103074E-08  2.787556E-09
        28  15 -4.634160E+06 -4.307955E+05 -5.660137E+05  2.216784E+04 -3.010030E-09  2.775711E-09
        28  16 -4.892343E+06 -5.087033E+04 -2.228466E+05  2.429976E+04  2.560388E-09  1.648499E-09
        28  17 -4.816938E+06  4.000935E+04 -3.075602E+05 -2.123683E+04  8.302673E-10  6.734886E-09
        28  18 -4.883584E+06 -4.935803E+05 -6.287302E+05  1.405245E+04 -4.834870E-10  4.800463E-09
        28  19 -4.373263E+06  7.960524E+04 -9.237438E+04  1.624592E+04 -1.216989E+05  4.943656E+02
        28  20 -4.307954E+06  1.679060E+05 -1.795626E+05 -1.714410E+04 -2.541591E+05  1.708012E+02
        28  21 -4.384517E+06 -3.679746E+05 -5.030192E+05  3.028693E+04 -3.866261E+05 -1.565697E+03
        28  22 -4.632826E+06  1.437200E+04 -1.575939E+05  2.027365E+04 -1.216613E+05  4.935788E+02
        28  23 -4.562440E+06  1.039689E+05 -2.434978E+05 -1.919090E+04 -2.541075E+05  1.716242E+02
        28  24 -4.633998E+06 -4.307550E+05 -5.657308E+05  2.216832E+04 -3.865615E+05 -1.560842E+03
        28  25 -4.892327E+06 -5.086632E+04 -2.228186E+05  2.429971E+04 -1.216237E+05  4.927922E+02
        28  26 -4.816868E+06  4.002685E+04 -3.074379E+05 -2.123687E+04 -2.540559E+05  1.724471E+02
        28  27 -4.883423E+06 -4.935398E+05 -6.284472E+05  1.405293E+04 -3.864969E+05 -1.555986E+03
        29   1  2.895485E+05  2.591174E+04  3.793992E+05 -3.197584E+03 -1.640885E+03  2.586639E+05
        29   2 -7.004927E+04 -3.242055E+04  1.617187E+05 -1.457979E+03 -1.078599E+03  1.701845E+05
        29   3 -8.949574E+03  2.597046E+04  1.068552E+05  2.207420E+03 -5.173274E+02  8.170123E+04
        29   4  2.894868E+05  2.597352E+04  3.793992E+05  1.669650E+03 -1.638857E+03  2.586639E+05
        29   5 -7.006469E+04 -3.240497E+04  1.617188E+05 -2.386174E+02 -1.078264E+03  1.701845E+05
        29   6 -8.918765E+03  2.593981E+04  1.068553E+05 -2.208658E+02 -5.176469E+02  8.170122E+04
        29   7  2.894252E+05  2.603535E+04  3.793992E+05  6.536884E+03 -1.636829E+03  2.586640E+05
        29   8 -7.008010E+04 -3.238939E+04  1.617188E+05  9.807441E+02 -1.077930E+03  1.701845E+05
        29   9 -8.887934E+03  2.590917E+04  1.068553E+05 -2.649151E+03 -5.179666E+02  8.170122E+04
        29  10  2.895306E+05  2.583991E+04  3.792734E+05 -3.197242E+03 -3.950303E-06 -1.620532E-06
        29  11 -7.005708E+04 -3.245165E+04  1.616643E+05 -1.457831E+03 -1.751620E-05 -3.124821E-06
        29  12 -8.951426E+03  2.596328E+04  1.068427E+05  2.207454E+03 -3.107499E-05 -2.677999E-06
        29  13  2.894689E+05  2.590169E+04  3.792735E+05  1.669991E+03  4.939250E-06 -2.596383E-07
        29  14 -7.007246E+04 -3.243607E+04  1.616643E+05 -2.384697E+02  2.193540E-05 -1.151617E-06
        29  15 -8.920557E+03  2.593264E+04  1.068427E+05 -2.208316E+02  3.897659E-05 -2.043156E-06
        29  16  2.894073E+05  2.596352E+04  3.792735E+05  6.537225E+03 -3.978957E-06  1.337622E-06
        29  17 -7.008784E+04 -3.242048E+04  1.616644E+05  9.808915E+02 -1.757242E-05  1.869972E-06
        29  18 -8.889666E+03  2.590202E+04  1.068428E+05 -2.649118E+03 -3.110453E-05  4.518817E-07
        29  19  2.895485E+05  2.591174E+04  3.793992E+05 -3.197584E+03  1.640885E+03 -2.586639E+05
        29  20 -7.004934E+04 -3.242057E+04  1.617187E+05 -1.457979E+03  1.078599E+03 -1.701845E+05
        29  21 -8.949694E+03  2.597043E+04  1.068552E+05  2.207420E+03  5.173274E+02 -8.170123E+04
        29  22  2.894868E+05  2.597352E+04  3.793992E+05  1.669650E+03  1.638857E+03 -2.586639E+05
        29  23 -7.006469E+04 -3.240497E+04  1.617188E+05 -2.386175E+02  1.078264E+03 -1.701845E+05
        29  24 -8.918765E+03  2.593981E+04  1.068553E+05 -2.208656E+02  5.176470E+02 -8.170122E+04
        29  25  2.894253E+05  2.603535E+04  3.793992E+05  6.536884E+03  1.636829E+03 -2.586640E+05
        29  26 -7.008003E+04 -3.238938E+04  1.617188E+05  9.807435E+02  1.077930E+03 -1.701845E+05
        29  27 -8.887815E+03  2.590920E+04  1.068553E+05 -2.649152E+03  5.179665E+02 -8.170122E+04
        30   1  4.548616E+04  4.332764E+03  8.867848E+04 -4.739635E+02 -4.049191E+02  6.389723E+04
        30   2 -1.104920E+04 -5.414461E+03  4.245894E+04 -2.077862E+02 -2.633645E+02  4.156551E+04
        30   3 -1.199264E+03  4.345744E+03  2.737788E+04  3.554144E+02 -1.218517E+02  1.923398E+04
        30   4  4.547689E+04  4.342146E+03  8.867851E+04  2.606343E+02 -4.048434E+02  6.389723E+04
        30   5 -1.105135E+04 -5.412208E+03  4.245896E+04 -3.573068E+01 -2.633530E+02  4.156551E+04
        30   6 -1.194289E+03  4.340866E+03  2.737790E+04 -3.507067E+01 -1.218637E+02  1.923398E+04
        30   7  4.546762E+04  4.351529E+03  8.867853E+04  9.952322E+02 -4.047679E+02  6.389723E+04
        30   8 -1.105350E+04 -5.409956E+03  4.245898E+04  1.363248E+02 -2.633415E+02  4.156551E+04
        30   9 -1.189313E+03  4.335989E+03  2.737792E+04 -4.255556E+02 -1.218759E+02  1.923398E+04
        30  10  4.548500E+04  4.328364E+03  8.867080E+04 -4.739425E+02 -3.288278E-05 -5.155697E-07
        30  11 -1.104971E+04 -5.416328E+03  4.245568E+04 -2.077771E+02 -2.549634E-05  3.832830E-07
        30  12 -1.199398E+03  4.345338E+03  2.737717E+04  3.554164E+02 -1.811315E-05  5.035819E-07
        30  13  4.547579E+04  4.337762E+03  8.867083E+04  2.606551E+02  4.122401E-05 -2.172843E-06
        30  14 -1.105181E+04 -5.414064E+03  4.245571E+04 -3.572183E+01  3.189372E-05 -1.727407E-06
        30  15 -1.194388E+03  4.340469E+03  2.737720E+04 -3.506877E+01  2.257403E-05 -1.281899E-06
        30  16  4.546658E+04  4.347161E+03  8.867087E+04  9.952528E+02 -3.287596E-05 -1.848382E-06
        30  17 -1.105391E+04 -5.411799E+03  4.245575E+04  1.363336E+02 -2.547352E-05 -2.249766E-06
        30  18 -1.189378E+03  4.335601E+03  2.737723E+04 -4.255538E+02 -1.808213E-05 -1.872808E-06
        30  19  4.548604E+04  4.332732E+03  8.867845E+04 -4.739632E+02  4.049191E+02 -6.389723E+04
        30  20 -1.104930E+04 -5.414486E+03  4.245891E+04 -2.077857E+02  2.633645E+02 -4.156551E+04
        30  21 -1.199333E+03  4.345726E+03  2.737786E+04  3.554147E+02  1.218516E+02 -1.923398E+04
        30  22  4.547689E+04  4.342146E+03  8.867851E+04  2.606342E+02  4.048435E+02 -6.389723E+04
        30  23 -1.105135E+04 -5.412208E+03  4.245896E+04 -3.573062E+01  2.633530E+02 -4.156551E+04
        30  24 -1.194289E+03  4.340866E+03  2.737790E+04 -3.507064E+01  1.218638E+02 -1.923398E+04
        30  25  4.546774E+04  4.351561E+03  8.867856E+04  9.952318E+02  4.047678E+02 -6.389723E+04
        30  26 -1.105340E+04 -5.409931E+03  4.245901E+04  1.363248E+02  2.633414E+02 -4.156551E+04
        30  27 -1.189244E+03  4.336007E+03  2.737793E+04 -4.255557E+02  1.218758E+02 -1.923398E+04
        31   1  7.088006E+03  8.678032E+02  2.257893E+04 -7.742923E+01 -9.310637E+01  1.469472E+04
        31   2 -1.984914E+03 -1.070656E+03  1.332493E+04 -2.563095E+01 -4.985965E+01  7.869401E+03
        31   3  9.040554E+02  8.705365E+02  1.150528E+04  7.737800E+01 -6.615909E+00  1.044211E+03
        31   4  7.086539E+03  8.693070E+02  2.257894E+04  3.939359E+01 -9.310357E+01  1.469472E+04
        31   5 -1.985153E+03 -1.070382E+03  1.332494E+04 -5.796590E+00 -4.985938E+01  7.869401E+03
        31   6  9.050432E+02  8.695811E+02  1.150528E+04  2.252473E-01 -6.616019E+00  1.044211E+03
        31   7  7.085072E+03  8.708109E+02  2.257894E+04  1.562164E+02 -9.310084E+01  1.469472E+04
        31   8 -1.985392E+03 -1.070108E+03  1.332495E+04  1.403779E+01 -4.985915E+01  7.869401E+03
        31   9  9.060311E+02  8.686257E+02  1.150529E+04 -7.692749E+01 -6.616168E+00  1.044211E+03
        31  10  7.087919E+03  8.675641E+02  2.257852E+04 -7.742800E+01 -1.502225E-05 -6.386017E-08
        31  11 -1.984953E+03 -1.070728E+03  1.332481E+04 -2.563055E+01 -1.185337E-05 -1.305185E-07
        31  12  9.040383E+02  8.705311E+02  1.150527E+04  7.737821E+01 -8.803039E-06  7.733396E-07
        31  13  7.086481E+03  8.690752E+02  2.257853E+04  3.939470E+01  1.873727E-05 -1.093316E-06
        31  14 -1.985170E+03 -1.070449E+03  1.332482E+04 -5.796295E+00  1.486920E-05 -8.914596E-07
        31  15  9.050430E+02  8.695799E+02  1.150528E+04  2.253595E-01  1.089260E-05 -6.902802E-07
        31  16  7.085043E+03  8.705862E+02  2.257855E+04  1.562175E+02 -1.500463E-05 -1.095970E-06
        31  17 -1.985386E+03 -1.070169E+03  1.332484E+04  1.403803E+01 -1.184740E-05 -8.081890E-07
        31  18  9.060476E+02  8.686287E+02  1.150529E+04 -7.692742E+01 -8.769128E-06 -1.492116E-06
        31  19  7.087948E+03  8.677888E+02  2.257892E+04 -7.742897E+01  9.310634E+01 -1.469472E+04
        31  20 -1.984959E+03 -1.070668E+03  1.332492E+04 -2.563078E+01  4.985963E+01 -7.869401E+03
        31  21  9.040218E+02  8.705281E+02  1.150527E+04  7.737840E+01  6.615891E+00 -1.044211E+03
        31  22  7.086539E+03  8.693070E+02  2.257894E+04  3.939361E+01  9.310361E+01 -1.469472E+04
        31  23 -1.985153E+03 -1.070382E+03  1.332494E+04 -5.796631E+00  4.985941E+01 -7.869401E+03
        31  24  9.050432E+02  8.695811E+02  1.150528E+04  2.254605E-01  6.616041E+00 -1.044211E+03
        31  25  7.085130E+03  8.708253E+02  2.257896E+04  1.562163E+02  9.310081E+01 -1.469472E+04
        31  26 -1.985347E+03 -1.070096E+03  1.332496E+04  1.403764E+01  4.985913E+01 -7.869401E+03
        31  27  9.060647E+02  8.686341E+02  1.150530E+04 -7.692736E+01  6.616151E+00 -1.044211E+03
        32   1 -9.698358E+06 -3.039709E+06 -1.966605E+06 -3.386983E+06 -1.036534E+06 -3.807939E+05
        32   2 -9.472383E+06 -1.556373E+06 -1.016428E+06 -3.644101E+06 -6.711294E+05 -2.107942E+05
        32   3 -9.885970E+06 -1.570868E+06 -7.647110E+05 -3.485032E+06 -2.953772E+05 -6.795864E+04
        32   4 -8.648818E+06 -2.332891E+06 -1.615514E+06 -2.792226E+06 -1.021681E+06 -3.757602E+05
        32   5 -8.243120E+06 -1.002873E+06 -6.677284E+05 -3.221382E+06 -6.666596E+05 -2.092116E+05
        32   6 -8.473872E+06 -1.166973E+06 -4.091549E+05 -3.234730E+06 -3.011842E+05 -7.009150E+04
        32   7 -7.597961E+06 -1.625081E+06 -1.264514E+06 -2.196311E+06 -1.006798E+06 -3.706961E+05
        32   8 -7.012351E+06 -4.490968E+05 -3.191743E+05 -2.797831E+06 -6.621787E+05 -2.076230E+05
        32   9 -7.059794E+06 -7.631239E+05 -5.374191E+04 -2.983999E+06 -3.070053E+05 -7.222667E+04
        32  10 -9.699567E+06 -3.040162E+06 -1.968938E+06 -3.387305E+06  9.275869E-10 -3.692452E-10
        32  11 -9.472886E+06 -1.556545E+06 -1.017375E+06 -3.644216E+06 -3.517080E-09 -3.809769E-10
        32  12 -9.886066E+06 -1.570897E+06 -7.648867E+05 -3.485049E+06  6.684016E-10  1.525485E-09
        32  13 -8.649992E+06 -2.333330E+06 -1.617775E+06 -2.792538E+06 -2.739900E-09 -5.337725E-11
        32  14 -8.243615E+06 -1.003042E+06 -6.686602E+05 -3.221496E+06 -1.208720E-08  1.938691E-10
        32  15 -8.473972E+06 -1.167003E+06 -4.093374E+05 -3.234748E+06  3.378960E-10  7.117051E-10
        32  16 -7.599099E+06 -1.625507E+06 -1.266706E+06 -2.196614E+06 -1.976971E-09  1.062453E-10
        32  17 -7.012838E+06 -4.492633E+05 -3.200914E+05 -2.797942E+06 -1.063855E-09  1.298445E-09
        32  18 -7.059898E+06 -7.631553E+05 -5.393130E+04 -2.984017E+06  7.107246E-10  6.548123E-10
        32  19 -9.698358E+06 -3.039709E+06 -1.966605E+06 -3.386983E+06  1.036534E+06  3.807939E+05
        32  20 -9.472383E+06 -1.556373E+06 -1.016428E+06 -3.644101E+06  6.711294E+05  2.107942E+05
        32  21 -9.885970E+06 -1.570868E+06 -7.647110E+05 -3.485032E+06  2.953772E+05  6.795864E+04
        32  22 -8.648818E+06 -2.332891E+06 -1.615514E+06 -2.792226E+06  1.021681E+06  3.757602E+05
        32  23 -8.243120E+06 -1.002873E+06 -6.677284E+05 -3.221382E+06  6.666596E+05  2.092116E+05
        32  24 -8.473872E+06 -1.166973E+06 -4.091549E+05 -3.234730E+06  3.011842E+05  7.009150E+04
        32  25 -7.597961E+06 -1.625081E+06 -1.264514E+06 -2.196311E+06  1.006798E+06  3.706961E+05
        32  26 -7.012351E+06 -4.490968E+05 -3.191743E+05 -2.797831E+06  6.621787E+05  2.076230E+05
        32  27 -7.059794E+06 -7.631239E+05 -5.374191E+04 -2.983999E+06  3.070053E+05  7.222667E+04
        33   1 -9.674130E+06 -1.868368E+06 -6.831926E+05 -3.527187E+06 -2.419919E+05 -5.212163E+04
        33   2 -9.610221E+06 -1.650536E+06 -4.915613E+05 -3.521731E+06 -1.589872E+05 -1.942760E+04
        33   3 -9.588945E+06 -1.650694E+06 -4.122832E+05 -3.509071E+06 -7.446109E+04  9.260328E+03
        33   4 -8.411163E+06 -1.353193E+06 -3.341660E+05 -3.147264E+06 -2.410974E+05 -5.180484E+04
        33   5 -8.379558E+06 -1.174103E+06 -1.571943E+05 -3.177272E+06 -1.595298E+05 -1.964098E+04
        33   6 -8.390145E+06 -1.212477E+06 -9.124348E+04 -3.200110E+06 -7.644704E+04  8.509946E+03
        33   7 -7.146630E+06 -8.378549E+05  1.471079E+04 -2.766606E+06 -2.402004E+05 -5.148693E+04
        33   8 -7.147412E+06 -6.975617E+05  1.770351E+05 -2.832180E+06 -1.600734E+05 -1.985471E+04
        33   9 -7.189937E+06 -7.741987E+05  2.296705E+05 -2.890611E+06 -7.843716E+04  7.758135E+03
        33  10 -9.674195E+06 -1.868387E+06 -6.833097E+05 -3.527198E+06 -1.743994E-09  1.164410E-09
        33  11 -9.610249E+06 -1.650543E+06 -4.916103E+05 -3.521733E+06 -2.196947E-09 -2.726556E-10
        33  12 -9.588951E+06 -1.650696E+06 -4.122940E+05 -3.509070E+06  5.264291E-09 -4.605999E-10
        33  13 -8.411227E+06 -1.353212E+06 -3.342820E+05 -3.147274E+06  5.907965E-11  5.739310E-10
        33  14 -8.379586E+06 -1.174110E+06 -1.572436E+05 -3.177275E+06 -5.204101E-09 -8.062705E-10
        33  15 -8.390151E+06 -1.212479E+06 -9.125473E+04 -3.200109E+06 -5.297939E-09 -9.524086E-10
        33  16 -7.146693E+06 -8.378736E+05  1.459591E+04 -2.766616E+06 -2.327023E-09 -7.750511E-10
        33  17 -7.147439E+06 -6.975691E+05  1.769856E+05 -2.832183E+06 -7.255427E-09 -1.679055E-09
        33  18 -7.189944E+06 -7.742005E+05  2.296587E+05 -2.890610E+06 -7.124852E-09 -9.038598E-11
        33  19 -9.674130E+06 -1.868368E+06 -6.831926E+05 -3.527187E+06  2.419919E+05  5.212163E+04
        33  20 -9.610221E+06 -1.650536E+06 -4.915613E+05 -3.521731E+06  1.589872E+05  1.942760E+04
        33  21 -9.588945E+06 -1.650694E+06 -4.122832E+05 -3.509071E+06  7.446109E+04 -9.260328E+03
        33  22 -8.411163E+06 -1.353193E+06 -3.341660E+05 -3.147264E+06  2.410974E+05  5.180484E+04
        33  23 -8.379558E+06 -1.174103E+06 -1.571943E+05 -3.177272E+06  1.595298E+05  1.964098E+04
        33  24 -8.390145E+06 -1.212477E+06 -9.124348E+04 -3.200110E+06  7.644704E+04 -8.509946E+03
        33  25 -7.146630E+06 -8.378549E+05  1.471079E+04 -2.766606E+06  2.402004E+05  5.148693E+04
        33  26 -7.147412E+06 -6.975617E+05  1.770351E+05 -2.832180E+06  1.600734E+05  1.985471E+04
        33  27 -7.189937E+06 -7.741987E+05  2.296705E+05 -2.890611E+06  7.843716E+04 -7.758135E+03
        34   1 -9.406476E+06 -1.637652E+06 -3.511833E+05 -3.482835E+06 -6.109489E+04  1.153180E+04
        34   2 -9.327900E+06 -1.534073E+06 -2.854502E+05 -3.410986E+06 -4.052903E+04  1.483873E+04
        34   3 -9.181363E+06 -1.529637E+06 -2.397363E+05 -3.421964E+06 -1.946527E+04  1.679368E+04
        34   4 -8.373753E+06 -1.242799E+06 -7.174623E+04 -3.198746E+06 -6.243220E+04  1.102486E+04
        34   5 -8.406485E+06 -1.184695E+06 -3.655638E+04 -3.160523E+06 -4.237467E+04  1.414368E+04
        34   6 -8.371152E+06 -1.225599E+06 -2.094938E+04 -3.205124E+06 -2.182344E+04  1.590986E+04
        34   7 -7.339986E+06 -8.478764E+05  2.075948E+05 -2.914221E+06 -6.377193E+04  1.051701E+04
        34   8 -7.484240E+06 -8.352657E+05  2.122609E+05 -2.909718E+06 -4.422333E+04  1.344749E+04
        34   9 -7.560302E+06 -9.215264E+05  1.977782E+05 -2.988026E+06 -2.418503E+04  1.502479E+04
        34  10 -9.406480E+06 -1.637653E+06 -3.511907E+05 -3.482834E+06  2.169445E-09 -1.871941E-09
        34  11 -9.327902E+06 -1.534074E+06 -2.854537E+05 -3.410985E+06  1.111883E-09 -1.849196E-09
        34  12 -9.181363E+06 -1.529638E+06 -2.397376E+05 -3.421964E+06 -1.039488E-10  1.725670E-09
        34  13 -8.373757E+06 -1.242800E+06 -7.175386E+04 -3.198745E+06 -2.263436E-09 -1.753410E-09
        34  14 -8.406487E+06 -1.184695E+06 -3.656016E+04 -3.160522E+06  4.522831E-09 -1.926047E-09
        34  15 -8.371152E+06 -1.225600E+06 -2.095075E+04 -3.205124E+06 -1.873290E-09  1.678501E-09
        34  16 -7.339990E+06 -8.478776E+05  2.075869E+05 -2.914221E+06 -7.870779E-09 -1.313067E-09
        34  17 -7.484242E+06 -8.352665E+05  2.122569E+05 -2.909718E+06  5.008610E-09 -1.572789E-09
        34  18 -7.560302E+06 -9.215268E+05  1.977767E+05 -2.988026E+06  8.174110E-10  1.481355E-09
        34  19 -9.406476E+06 -1.637652E+06 -3.511833E+05 -3.482835E+06  6.109489E+04 -1.153180E+04
        34  20 -9.327900E+06 -1.534073E+06 -2.854502E+05 -3.410986E+06  4.052903E+04 -1.483873E+04
        34  21 -9.181363E+06 -1.529637E+06 -2.397363E+05 -3.421964E+06  1.946527E+04 -1.679368E+04
        34  22 -8.373753E+06 -1.242799E+06 -7.174623E+04 -3.198746E+06  6.243220E+04 -1.102486E+04
        34  23 -8.406485E+06 -1.184695E+06 -3.655638E+04 -3.160523E+06  4.237467E+04 -1.414368E+04
        34  24 -8.371152E+06 -1.225599E+06 -2.094938E+04 -3.205124E+06  2.182344E+04 -1.590986E+04
        34  25 -7.339986E+06 -8.478764E+05  2.075948E+05 -2.914221E+06  6.377193E+04 -1.051701E+04
        34  26 -7.484240E+06 -8.352657E+05  2.122609E+05 -2.909718E+06  4.422333E+04 -1.344749E+04
        34  27 -7.560302E+06 -9.215264E+05  1.977782E+05 -2.988026E+06  2.418503E+04 -1.502479E+04
        35   1 -8.927824E+06 -1.446813E+06 -1.680228E+05 -3.362942E+06 -1.521524E+04  1.449647E+04
        35   2 -8.826269E+06 -1.335009E+06 -1.206027E+05 -3.262718E+06 -7.882413E+03  1.041863E+04
        35   3 -8.623166E+06 -1.329259E+06 -7.776679E+04 -3.280588E+06 -3.640848E+02  5.826363E+03
        35   4 -8.364573E+06 -1.233933E+06 -1.651038E+04 -3.210384E+06 -1.750908E+04  1.363852E+04
        35   5 -8.415189E+06 -1.179897E+06 -9.739873E+03 -3.151711E+06 -1.037732E+04  9.487100E+03
        35   6 -8.364245E+06 -1.231870E+06 -7.388222E+03 -3.211137E+06 -3.061585E+03  4.820999E+03
        35   7 -7.801009E+06 -1.021033E+06  1.349744E+05 -3.057699E+06 -1.980524E+04  1.277970E+04
        35   8 -8.003944E+06 -1.024775E+06  1.011077E+05 -3.040638E+06 -1.287407E+04  8.554888E+03
        35   9 -8.105261E+06 -1.134477E+06  6.298383E+04 -3.141660E+06 -5.760319E+03  3.815178E+03
        35  10 -8.927824E+06 -1.446813E+06 -1.680237E+05 -3.362942E+06  1.855572E-09  1.856367E-09
        35  11 -8.826269E+06 -1.335009E+06 -1.206031E+05 -3.262718E+06 -3.533310E-09 -2.455716E-09
        35  12 -8.623166E+06 -1.329259E+06 -7.776685E+04 -3.280588E+06 -2.222746E-09 -1.722542E-09
        35  13 -8.364573E+06 -1.233933E+06 -1.651130E+04 -3.210384E+06  2.963552E-09  2.176295E-09
        35  14 -8.415189E+06 -1.179897E+06 -9.740245E+03 -3.151711E+06  2.964754E-09 -1.923625E-11
        35  15 -8.364245E+06 -1.231870E+06 -7.388283E+03 -3.211137E+06 -7.737686E-09 -3.252988E-10
        35  16 -7.801010E+06 -1.021033E+06  1.349734E+05 -3.057699E+06  3.892771E-10  1.108736E-09
        35  17 -8.003944E+06 -1.024776E+06  1.011073E+05 -3.040638E+06  3.962451E-09 -2.535487E-10
        35  18 -8.105261E+06 -1.134478E+06  6.298374E+04 -3.141660E+06  5.261752E-10 -1.822394E-09
        35  19 -8.927824E+06 -1.446813E+06 -1.680228E+05 -3.362942E+06  1.521524E+04 -1.449647E+04
        35  20 -8.826269E+06 -1.335009E+06 -1.206027E+05 -3.262718E+06  7.882413E+03 -1.041863E+04
        35  21 -8.623166E+06 -1.329259E+06 -7.776679E+04 -3.280588E+06  3.640848E+02 -5.826363E+03
        35  22 -8.364573E+06 -1.233933E+06 -1.651038E+04 -3.210384E+06  1.750908E+04 -1.363852E+04
        35  23 -8.415189E+06 -1.179897E+06 -9.739873E+03 -3.151711E+06  1.037732E+04 -9.487100E+03
        35  24 -8.364245E+06 -1.231870E+06 -7.388222E+03 -3.211137E+06  3.061585E+03 -4.820999E+03
        35  25 -7.801009E+06 -1.021033E+06  1.349744E+05 -3.057699E+06  1.980524E+04 -1.277970E+04
        35  26 -8.003944E+06 -1.024775E+06  1.011077E+05 -3.040638E+06  1.287407E+04 -8.554888E+03
        35  27 -8.105261E+06 -1.134477E+06  6.298383E+04 -3.141660E+06  5.760319E+03 -3.815178E+03
        36   1 -8.334525E+06 -1.222236E+06  1.115045E+03 -3.204800E+06  2.304462E+03  2.309871E+03
        36   2 -8.228696E+06 -1.107916E+06  4.200165E+04 -3.099614E+06  8.991244E+03 -2.744279E+03
        36   3 -8.016965E+06 -1.103581E+06  7.902238E+04 -3.117804E+06  1.558946E+04 -7.546761E+03
        36   4 -8.363293E+06 -1.232922E+06 -7.210280E+03 -3.212243E+06 -3.950757E+02  1.304124E+03
        36   5 -8.416341E+06 -1.178681E+06 -8.579169E+03 -3.150269E+06  6.390521E+03 -3.714036E+03
        36   6 -8.363529E+06 -1.234448E+06 -1.389175E+04 -3.211684E+06  1.308632E+04 -8.480847E+03
        36   7 -8.392061E+06 -1.243608E+06 -1.553568E+04 -3.219687E+06 -3.094481E+03  2.984225E+02
        36   8 -8.603953E+06 -1.249443E+06 -5.916338E+04 -3.200911E+06  3.790659E+03 -4.683472E+03
        36   9 -8.709978E+06 -1.365309E+06 -1.068172E+05 -3.305518E+06  1.058471E+04 -9.414358E+03
        36  10 -8.334525E+06 -1.222236E+06  1.115025E+03 -3.204800E+06 -2.323776E-10  3.932220E-10
        36  11 -8.228696E+06 -1.107917E+06  4.200148E+04 -3.099614E+06 -5.866765E-09  3.601574E-09
        36  12 -8.016965E+06 -1.103581E+06  7.902181E+04 -3.117804E+06  1.406031E-09  2.423682E-09
        36  13 -8.363293E+06 -1.232922E+06 -7.210283E+03 -3.212243E+06 -4.846971E-09  4.651897E-11
        36  14 -8.416341E+06 -1.178681E+06 -8.579272E+03 -3.150269E+06  3.524743E-09  1.886088E-09
        36  15 -8.363529E+06 -1.234448E+06 -1.389221E+04 -3.211684E+06  3.960853E-10  1.513144E-09
        36  16 -8.392061E+06 -1.243608E+06 -1.553570E+04 -3.219687E+06  8.626200E-10  4.735507E-10
        36  17 -8.603953E+06 -1.249443E+06 -5.916345E+04 -3.200911E+06  4.863876E-09  1.444573E-09
        36  18 -8.709978E+06 -1.365309E+06 -1.068176E+05 -3.305518E+06 -5.344650E-10  6.369706E-10
        36  19 -8.334525E+06 -1.222236E+06  1.115045E+03 -3.204800E+06 -2.304462E+03 -2.309871E+03
        36  20 -8.228696E+06 -1.107916E+06  4.200165E+04 -3.099614E+06 -8.991244E+03  2.744279E+03
        36  21 -8.016965E+06 -1.103581E+06  7.902238E+04 -3.117804E+06 -1.558946E+04  7.546761E+03
        36  22 -8.363293E+06 -1.232922E+06 -7.210280E+03 -3.212243E+06  3.950757E+02 -1.304124E+03
        36  23 -8.416341E+06 -1.178681E+06 -8.579169E+03 -3.150269E+06 -6.390521E+03  3.714036E+03
        36  24 -8.363529E+06 -1.234448E+06 -1.389175E+04 -3.211684E+06 -1.308632E+04  8.480847E+03
        36  25 -8.392061E+06 -1.243608E+06 -1.553568E+04 -3.219687E+06  3.094481E+03 -2.984225E+02
        36  26 -8.603953E+06 -1.249443E+06 -5.916338E+04 -3.200911E+06 -3.790659E+03  4.683472E+03
        36  27 -8.709978E+06 -1.365309E+06 -1.068172E+05 -3.305518E+06 -1.058471E+04  9.414358E+03
        37   1 -7.752409E+06 -9.977096E+05  1.487818E+05 -3.043689E+06  1.959207E+04 -1.028896E+04
        37   2 -7.664187E+06 -8.994822E+05  1.710558E+05 -2.954040E+06  3.667481E+04 -1.055494E+04
        37   3 -7.494413E+06 -9.085148E+05  1.774629E+05 -2.962487E+06  5.334678E+04 -9.679947E+03
        37   4 -8.368250E+06 -1.228328E+06 -1.746407E+04 -3.208167E+06  1.702211E+04 -1.124936E+04
        37   5 -8.410039E+06 -1.181732E+06 -3.012139E+04 -3.156489E+06  3.454181E+04 -1.135486E+04
        37   6 -8.370386E+06 -1.242507E+06 -5.901039E+04 -3.202922E+06  5.164707E+04 -1.032011E+04
        37   7 -8.983717E+06 -1.458924E+06 -1.837427E+05 -3.372494E+06  1.445499E+04 -1.220871E+04
        37   8 -9.155344E+06 -1.463947E+06 -2.313476E+05 -3.358715E+06  3.241165E+04 -1.215372E+04
        37   9 -9.245609E+06 -1.576449E+06 -2.955523E+05 -3.443044E+06  4.994999E+04 -1.095926E+04
        37  10 -7.752410E+06 -9.977098E+05  1.487808E+05 -3.043689E+06  1.083997E-09  6.314174E-10
        37  11 -7.664188E+06 -8.994827E+05  1.710531E+05 -2.954040E+06  1.878559E-09  1.697594E-10
        37  12 -7.494416E+06 -9.085157E+05  1.774574E+05 -2.962486E+06 -2.506893E-09  1.989602E-09
        37  13 -8.368250E+06 -1.228328E+06 -1.746485E+04 -3.208166E+06 -2.532372E-09  4.435357E-10
        37  14 -8.410040E+06 -1.181732E+06 -3.012390E+04 -3.156489E+06 -2.095960E-11 -1.473938E-09
        37  15 -8.370389E+06 -1.242507E+06 -5.901565E+04 -3.202921E+06  1.307494E-09  1.112040E-09
        37  16 -8.983717E+06 -1.458924E+06 -1.837433E+05 -3.372494E+06 -9.542393E-10  1.719569E-09
        37  17 -9.155345E+06 -1.463947E+06 -2.313499E+05 -3.358715E+06  2.753829E-09  1.248050E-09
        37  18 -9.245611E+06 -1.576450E+06 -2.955573E+05 -3.443044E+06  4.835187E-09  2.609336E-09
        37  19 -7.752409E+06 -9.977096E+05  1.487818E+05 -3.043689E+06 -1.959207E+04  1.028896E+04
        37  20 -7.664187E+06 -8.994822E+05  1.710558E+05 -2.954040E+06 -3.667481E+04  1.055494E+04
        37  21 -7.494413E+06 -9.085148E+05  1.774629E+05 -2.962487E+06 -5.334678E+04  9.679947E+03
        37  22 -8.368250E+06 -1.228328E+06 -1.746407E+04 -3.208167E+06 -1.702211E+04  1.124936E+04
        37  23 -8.410039E+06 -1.181732E+06 -3.012139E+04 -3.156489E+06 -3.454181E+04  1.135486E+04
        37  24 -8.370386E+06 -1.242507E+06 -5.901039E+04 -3.202922E+06 -5.164707E+04  1.032011E+04
        37  25 -8.983717E+06 -1.458924E+06 -1.837427E+05 -3.372494E+06 -1.445499E+04  1.220871E+04
        37  26 -9.155344E+06 -1.463947E+06 -2.313476E+05 -3.358715E+06 -3.241165E+04  1.215372E+04
        37  27 -9.245609E+06 -1.576449E+06 -2.955523E+05 -3.443044E+06 -4.994999E+04  1.095926E+04
        38   1 -7.303816E+06 -8.218206E+05  2.141812E+05 -2.924187E+06  6.593092E+04 -8.381914E+03
        38   2 -7.245776E+06 -7.339287E+05  1.802342E+05 -2.853057E+06  1.332915E+05  1.260215E+04
        38   3 -7.198140E+06 -8.478942E+05  5.642904E+04 -2.803265E+06  1.991649E+05  3.758253E+04
        38   4 -8.384288E+06 -1.217034E+06 -7.497275E+04 -3.203386E+06  6.355244E+04 -9.277036E+03
        38   5 -8.387479E+06 -1.173760E+06 -1.291295E+05 -3.171050E+06  1.323881E+05  1.225528E+04
        38   6 -8.401493E+06 -1.332833E+06 -2.744603E+05 -3.160038E+06  1.997279E+05  3.777896E+04
        38   7 -9.463624E+06 -1.612199E+06 -3.642301E+05 -3.482149E+06  6.117849E+04 -1.017060E+04
        38   8 -9.527910E+06 -1.613502E+06 -4.386114E+05 -3.488501E+06  1.314863E+05  1.190904E+04
        38   9 -9.603428E+06 -1.817633E+06 -6.054838E+05 -3.516159E+06  2.002893E+05  3.797471E+04
        38  10 -7.303821E+06 -8.218219E+05  2.141728E+05 -2.924186E+06 -1.010918E-09  2.509150E-09
        38  11 -7.245795E+06 -7.339338E+05  1.802001E+05 -2.853059E+06 -3.079195E-09 -1.399566E-09
        38  12 -7.198183E+06 -8.479065E+05  5.635084E+04 -2.803271E+06 -1.613050E-09 -1.193137E-09
        38  13 -8.384292E+06 -1.217035E+06 -7.498059E+04 -3.203385E+06 -7.179397E-10  1.196242E-09
        38  14 -8.387498E+06 -1.173765E+06 -1.291632E+05 -3.171051E+06  3.953814E-10 -4.002339E-10
        38  15 -8.401537E+06 -1.332845E+06 -2.745391E+05 -3.160045E+06 -8.156132E-10 -1.204085E-09
        38  16 -9.463628E+06 -1.612200E+06 -3.642374E+05 -3.482148E+06  7.082635E-10  3.326222E-10
        38  17 -9.527929E+06 -1.613507E+06 -4.386447E+05 -3.488503E+06  1.449285E-09 -3.054931E-10
        38  18 -9.603472E+06 -1.817646E+06 -6.055632E+05 -3.516165E+06  4.708806E-09  4.369899E-10
        38  19 -7.303816E+06 -8.218206E+05  2.141812E+05 -2.924187E+06 -6.593092E+04  8.381914E+03
        38  20 -7.245776E+06 -7.339287E+05  1.802342E+05 -2.853057E+06 -1.332915E+05 -1.260215E+04
        38  21 -7.198140E+06 -8.478942E+05  5.642904E+04 -2.803265E+06 -1.991649E+05 -3.758253E+04
        38  22 -8.384288E+06 -1.217034E+06 -7.497275E+04 -3.203386E+06 -6.355244E+04  9.277036E+03
        38  23 -8.387479E+06 -1.173760E+06 -1.291295E+05 -3.171050E+06 -1.323881E+05 -1.225528E+04
        38  24 -8.401493E+06 -1.332833E+06 -2.744603E+05 -3.160038E+06 -1.997279E+05 -3.777896E+04
        38  25 -9.463624E+06 -1.612199E+06 -3.642301E+05 -3.482149E+06 -6.117849E+04  1.017060E+04
        38  26 -9.527910E+06 -1.613502E+06 -4.386114E+05 -3.488501E+06 -1.314863E+05 -1.190904E+04
        38  27 -9.603428E+06 -1.817633E+06 -6.054838E+05 -3.516159E+06 -2.002893E+05 -3.797471E+04
        39   1 -7.074302E+06 -7.637033E+05  1.492749E+04 -2.964947E+06  2.561945E+05  5.354260E+04
        39   2 -7.019654E+06 -4.888058E+05 -1.969217E+05 -2.795843E+06  5.460339E+05  1.622437E+05
        39   3 -7.466585E+06 -1.453928E+06 -9.650567E+05 -2.304804E+06  8.249635E+05  2.997035E+05
        39   4 -8.454677E+06 -1.178072E+06 -3.360164E+05 -3.229755E+06  2.497092E+05  5.113784E+04
        39   5 -8.273737E+06 -1.035268E+06 -5.485690E+05 -3.209635E+06  5.504243E+05  1.638284E+05
        39   6 -8.597638E+06 -2.136354E+06 -1.327005E+06 -2.867237E+06  8.402778E+05  3.051166E+05
        39   7 -9.833173E+06 -1.592471E+06 -6.871029E+05 -3.494100E+06  2.432393E+05  4.873613E+04
        39   8 -9.526262E+06 -1.581486E+06 -9.003656E+05 -3.622609E+06  5.548037E+05  1.654075E+05
        39   9 -9.727276E+06 -2.817987E+06 -1.689073E+06 -3.428536E+06  8.555601E+05  3.105013E+05
        39  10 -7.074374E+06 -7.637244E+05  1.479708E+04 -2.964958E+06 -3.230291E-09  7.518934E-10
        39  11 -7.019985E+06 -4.889158E+05 -1.975396E+05 -2.795915E+06 -7.984163E-10  1.620718E-09
        39  12 -7.467348E+06 -1.454211E+06 -9.665237E+05 -2.305005E+06  3.560767E-09  3.320676E-10
        39  13 -8.454745E+06 -1.178092E+06 -3.361403E+05 -3.229765E+06  3.529926E-09  6.709000E-10
        39  14 -8.274073E+06 -1.035380E+06 -5.491985E+05 -3.209709E+06  1.827497E-09  5.094385E-09
        39  15 -8.598431E+06 -2.136648E+06 -1.328530E+06 -2.867446E+06  1.684281E-09  6.411176E-10
        39  16 -9.833238E+06 -1.592490E+06 -6.872206E+05 -3.494109E+06  5.990400E-10  1.257741E-09
        39  17 -9.526605E+06 -1.581601E+06 -9.010067E+05 -3.622684E+06 -7.403594E-10  4.373352E-10
        39  18 -9.728100E+06 -2.818293E+06 -1.690658E+06 -3.428753E+06 -1.980055E-10  1.477136E-09
        39  19 -7.074302E+06 -7.637033E+05  1.492749E+04 -2.964947E+06 -2.561945E+05 -5.354260E+04
        39  20 -7.019654E+06 -4.888058E+05 -1.969217E+05 -2.795843E+06 -5.460339E+05 -1.622437E+05
        39  21 -7.466585E+06 -1.453928E+06 -9.650567E+05 -2.304804E+06 -8.249635E+05 -2.997035E+05
        39  22 -8.454677E+06 -1.178072E+06 -3.360164E+05 -3.229755E+06 -2.497092E+05 -5.113784E+04
        39  23 -8.273737E+06 -1.035268E+06 -5.485690E+05 -3.209635E+06 -5.504243E+05 -1.638284E+05
        39  24 -8.597638E+06 -2.136354E+06 -1.327005E+06 -2.867237E+06 -8.402778E+05 -3.051166E+05
        39  25 -9.833173E+06 -1.592471E+06 -6.871029E+05 -3.494100E+06 -2.432393E+05 -4.873613E+04
        39  26 -9.526262E+06 -1.581486E+06 -9.003656E+05 -3.622609E+06 -5.548037E+05 -1.654075E+05
        39  27 -9.727276E+06 -2.817987E+06 -1.689073E+06 -3.428536E+06 -8.555601E+05 -3.105013E+05
        40   1  3.892419E+05  1.516542E+05  4.325833E+05 -2.580791E+05  1.472711E+01  2.641945E+05
        40   2  8.572659E+04  6.182715E+04  2.233186E+05 -1.338984E+05  3.270869E+03  1.535577E+05
        40   3  1.380687E+04  4.414587E+04  1.439806E+05 -2.271982E+04  2.262124E+03  4.290553E+04
        40   4  3.477345E+05 -3.910615E+03  3.946308E+05 -4.818050E+04  1.421795E+02  2.571679E+05
        40   5  5.995509E+04 -3.943703E+04  2.017642E+05 -4.263076E+04  3.297325E+03  1.528391E+05
        40   6  2.649128E+03 -3.922580E+03  1.344584E+05 -5.006168E+04  2.229518E+03  4.848483E+04
        40   7  3.063904E+05 -1.593591E+05  3.567002E+05  1.616650E+05  2.649050E+02  2.501432E+05
        40   8  3.421410E+04 -1.406738E+05  1.802137E+05  4.862168E+04  3.323572E+03  1.521207E+05
        40   9 -8.505910E+03 -5.198713E+04  1.249365E+05 -7.740138E+04  2.196418E+03  5.406371E+04
        40  10  3.892232E+05  1.515792E+05  4.324522E+05 -2.580791E+05  2.279864E-10 -1.003494E-08
        40  11  8.572025E+04  6.180184E+04  2.232743E+05 -1.338988E+05  3.150368E-11 -1.136765E-08
        40  12  1.380637E+04  4.414389E+04  1.439771E+05 -2.271990E+04 -2.939192E-09 -1.260982E-08
        40  13  3.477167E+05 -3.981613E+03  3.945065E+05 -4.818053E+04 -2.830111E-10 -1.480771E-09
        40  14  5.994880E+04 -3.946212E+04  2.017203E+05 -4.263117E+04  3.383016E-09 -1.626800E-09
        40  15  2.648492E+03 -3.925105E+03  1.344539E+05 -5.006176E+04  6.515745E-09  1.533406E-09
        40  16  3.063736E+05 -1.594263E+05  3.565825E+05  1.616649E+05 -2.114488E-09  1.152415E-08
        40  17  3.420787E+04 -1.406986E+05  1.801702E+05  4.862127E+04 -1.320077E-08  1.374879E-08
        40  18 -8.506700E+03 -5.199027E+04  1.249310E+05 -7.740148E+04 -7.794700E-09  1.228760E-08
        40  19  3.892419E+05  1.516542E+05  4.325833E+05 -2.580791E+05 -1.472711E+01 -2.641945E+05
        40  20  8.572659E+04  6.182715E+04  2.233186E+05 -1.338984E+05 -3.270869E+03 -1.535577E+05
        40  21  1.380687E+04  4.414587E+04  1.439806E+05 -2.271982E+04 -2.262124E+03 -4.290553E+04
        40  22  3.477345E+05 -3.910615E+03  3.946308E+05 -4.818050E+04 -1.421795E+02 -2.571679E+05
        40  23  5.995509E+04 -3.943703E+04  2.017642E+05 -4.263076E+04 -3.297325E+03 -1.528391E+05
        40  24  2.649128E+03 -3.922580E+03  1.344584E+05 -5.006168E+04 -2.229518E+03 -4.848483E+04
        40  25  3.063904E+05 -1.593591E+05  3.567002E+05  1.616650E+05 -2.649050E+02 -2.501432E+05
        40  26  3.421410E+04 -1.406738E+05  1.802137E+05  4.862168E+04 -3.323572E+03 -1.521207E+05
        40  27 -8.505910E+03 -5.198713E+04  1.249365E+05 -7.740138E+04 -2.196418E+03 -5.406371E+04
        41   1  1.608413E+04 -5.882135E+03  1.237143E+05 -5.954596E+04  1.195171E+02  2.353250E+04
        41   2 -6.368211E+03 -6.808098E+04  1.105009E+05 -4.211222E+04 -2.807703E+03 -3.543121E+04
        41   3 -1.810891E+02 -1.156220E+05  1.428055E+05 -3.866862E+04 -5.576415E+03 -9.439026E+04
        41   4  1.336059E+04 -1.644496E+04  1.212900E+05 -4.998444E+04  9.256048E+01  2.849081E+04
        41   5  4.133544E+03 -2.379108E+04  1.186662E+05 -4.296173E+04 -2.833566E+03 -3.071404E+04
        41   6  2.358618E+04 -1.644256E+04  1.617261E+05 -4.992805E+04 -5.599237E+03 -8.991921E+04
        41   7  1.063740E+04 -2.700743E+04  1.188658E+05 -4.042308E+04  6.575639E+01  3.344904E+04
        41   8  1.463520E+04  2.050078E+04  1.268316E+05 -4.381131E+04 -2.859441E+03 -2.599655E+04
        41   9  4.735334E+04  8.274665E+04  1.806463E+05 -6.118931E+04 -5.622219E+03 -8.544745E+04
        41  10  1.608398E+04 -5.882729E+03  1.237133E+05 -5.954597E+04 -5.289195E-09  1.293833E-08
        41  11 -6.368557E+03 -6.808233E+04  1.104985E+05 -4.211230E+04  9.084665E-10  1.890594E-08
        41  12 -1.835146E+02 -1.156316E+05  1.427887E+05 -3.866905E+04 -8.363406E-10  1.637220E-08
        41  13  1.336038E+04 -1.644583E+04  1.212885E+05 -4.998444E+04  1.564314E-08 -1.556653E-09
        41  14  4.133283E+03 -2.379209E+04  1.186644E+05 -4.296180E+04  6.530457E-09 -1.445806E-09
        41  15  2.358397E+04 -1.645125E+04  1.617108E+05 -4.992846E+04 -1.506581E-10  1.415922E-09
        41  16  1.063710E+04 -2.700863E+04  1.188637E+05 -4.042309E+04 -8.760669E-09 -1.194199E-08
        41  17  1.463501E+04  2.050005E+04  1.268303E+05 -4.381137E+04 -1.174206E-08 -1.678558E-08
        41  18  4.735134E+04  8.273881E+04  1.806326E+05 -6.118970E+04 -7.592434E-09 -1.599993E-08
        41  19  1.608413E+04 -5.882135E+03  1.237143E+05 -5.954596E+04 -1.195171E+02 -2.353250E+04
        41  20 -6.368211E+03 -6.808098E+04  1.105009E+05 -4.211222E+04  2.807703E+03  3.543121E+04
        41  21 -1.810891E+02 -1.156220E+05  1.428055E+05 -3.866862E+04  5.576415E+03  9.439026E+04
        41  22  1.336059E+04 -1.644496E+04  1.212900E+05 -4.998444E+04 -9.256048E+01 -2.849081E+04
        41  23  4.133544E+03 -2.379108E+04  1.186662E+05 -4.296173E+04  2.833566E+03  3.071404E+04
        41  24  2.358618E+04 -1.644256E+04  1.617261E+05 -4.992805E+04  5.599237E+03  8.991921E+04
        41  25  1.063740E+04 -2.700743E+04  1.188658E+05 -4.042308E+04 -6.575639E+01 -3.344904E+04
        41  26  1.463520E+04  2.050078E+04  1.268316E+05 -4.381131E+04  2.859441E+03  2.599655E+04
        41  27  4.735334E+04  8.274665E+04  1.806463E+05 -6.118931E+04  5.622219E+03  8.544745E+04
        42   1 -2.804047E+04 -1.297194E+05  1.711497E+05 -9.918531E+04 -7.621758E+03 -1.226501E+05
        42   2  5.589471E+04 -2.424113E+05  2.929769E+05  1.133033E+05 -7.319107E+03 -2.851945E+05
        42   3  5.351984E+05 -2.351410E+05  6.195638E+05  3.135671E+05 -7.549936E+02 -4.476850E+05
        42   4  3.927594E+03  7.290118E+03  1.972216E+05 -5.008530E+04 -7.661344E+03 -1.171862E+05
        42   5  1.035066E+05 -5.343173E+04  3.321205E+05 -4.235190E+04 -7.225712E+03 -2.892479E+05
        42   6  5.998784E+05  7.317946E+03  6.783262E+05 -4.685914E+04 -4.222595E+02 -4.612721E+05
        42   7  3.590373E+04  1.443231E+05  2.232941E+05 -9.741991E+02 -7.700060E+03 -1.117211E+05
        42   8  1.512069E+05  1.356335E+05  3.712751E+05 -1.980555E+05 -7.130306E+03 -2.933026E+05
        42   9  6.650414E+05  2.501089E+05  7.371545E+05 -4.074280E+05 -7.384618E+01 -4.748645E+05
        42  10 -2.804457E+04 -1.297356E+05  1.711213E+05 -9.918606E+04 -8.502106E-10  5.959762E-09
        42  11  5.587282E+04 -2.424987E+05  2.928239E+05  1.133016E+05 -5.197771E-09  5.595900E-09
        42  12  5.351446E+05 -2.353561E+05  6.191870E+05  3.135668E+05  2.436150E-09  5.874337E-10
        42  13  3.923845E+03  7.275359E+03  1.971957E+05 -5.008603E+04  2.073690E-10 -1.336742E-09
        42  14  1.034841E+05 -5.352156E+04  3.319632E+05 -4.235358E+04  2.748835E-09 -1.105452E-09
        42  15  5.998213E+05  7.089580E+03  6.779264E+05 -4.685930E+04 -1.825412E-09  1.208874E-09
        42  16  3.590032E+04  1.443096E+05  2.232705E+05 -9.748917E+02 -4.072222E-09 -4.075740E-09
        42  17  1.511838E+05  1.355411E+05  3.711133E+05 -1.980572E+05 -2.246490E-09 -2.904818E-09
        42  18  6.649809E+05  2.498670E+05  7.367309E+05 -4.074280E+05 -2.457270E-10 -5.223591E-10
        42  19 -2.804047E+04 -1.297194E+05  1.711497E+05 -9.918531E+04  7.621758E+03  1.226501E+05
        42  20  5.589471E+04 -2.424113E+05  2.929769E+05  1.133033E+05  7.319107E+03  2.851945E+05
        42  21  5.351984E+05 -2.351410E+05  6.195638E+05  3.135671E+05  7.549936E+02  4.476850E+05
        42  22  3.927594E+03  7.290118E+03  1.972216E+05 -5.008530E+04  7.661344E+03  1.171862E+05
        42  23  1.035066E+05 -5.343173E+04  3.321205E+05 -4.235190E+04  7.225712E+03  2.892479E+05
        42  24  5.998784E+05  7.317946E+03  6.783262E+05 -4.685914E+04  4.222595E+02  4.612721E+05
        42  25  3.590373E+04  1.443231E+05  2.232941E+05 -9.741991E+02  7.700060E+03  1.117211E+05
        42  26  1.512069E+05  1.356335E+05  3.712751E+05 -1.980555E+05  7.130306E+03  2.933026E+05
        42  27  6.650414E+05  2.501089E+05  7.371545E+05 -4.074280E+05  7.384618E+01  4.748645E+05
        43   1 -6.105249E+06 -1.863140E+06 -1.126713E+06 -2.120156E+06 -4.458351E+05 -1.510845E+05
        43   2 -5.959605E+06 -1.190462E+06 -7.063127E+05 -2.169879E+06 -2.929942E+05 -5.580271E+04
        43   3 -6.017688E+06 -1.191499E+06 -5.801553E+05 -2.111815E+06 -1.261843E+05  2.796401E+03
        43   4 -4.518045E+06 -1.131565E+06 -6.649996E+05 -1.557271E+06 -4.262501E+05 -1.437451E+05
        43   5 -4.382646E+06 -5.566493E+05 -2.756807E+05 -1.702049E+06 -2.877577E+05 -5.384725E+04
        43   6 -4.447492E+06 -6.516252E+05 -1.685646E+05 -1.739212E+06 -1.353202E+05 -6.494099E+02
        43   7 -2.928363E+06 -3.994858E+05 -2.035382E+05 -9.929596E+05 -4.066083E+05 -1.363740E+05
        43   8 -2.803266E+06  7.739722E+04  1.547222E+05 -1.233107E+06 -2.825057E+05 -5.188507E+04
        43   9 -2.874902E+06 -1.117066E+05  2.428201E+05 -1.365799E+06 -1.444814E+05 -4.102723E+03
        43  10 -6.105471E+06 -1.863218E+06 -1.127134E+06 -2.120211E+06 -2.924097E-09 -3.797845E-11
        43  11 -5.959699E+06 -1.190489E+06 -7.064816E+05 -2.169893E+06 -5.127231E-09  9.306960E-10
        43  12 -6.017705E+06 -1.191503E+06 -5.801855E+05 -2.111814E+06 -2.508301E-09 -1.677989E-10
        43  13 -4.518247E+06 -1.131636E+06 -6.653830E+05 -1.557321E+06 -2.029205E-09 -4.346865E-10
        43  14 -4.382736E+06 -5.566749E+05 -2.758430E+05 -1.702062E+06 -5.647263E-09 -7.046092E-10
        43  15 -4.447512E+06 -6.516302E+05 -1.685992E+05 -1.739213E+06 -2.878602E-09 -8.628313E-10
        43  16 -2.928546E+06 -3.995505E+05 -2.038857E+05 -9.930044E+05 -1.446231E-09 -1.232301E-09
        43  17 -2.803352E+06  7.737275E+04  1.545664E+05 -1.233119E+06  4.912108E-09 -8.524282E-10
        43  18 -2.874924E+06 -1.117123E+05  2.427807E+05 -1.365799E+06 -3.009895E-09 -2.106771E-09
        43  19 -6.105249E+06 -1.863140E+06 -1.126713E+06 -2.120156E+06  4.458351E+05  1.510845E+05
        43  20 -5.959605E+06 -1.190462E+06 -7.063127E+05 -2.169879E+06  2.929942E+05  5.580271E+04
        43  21 -6.017688E+06 -1.191499E+06 -5.801553E+05 -2.111815E+06  1.261843E+05 -2.796401E+03
        43  22 -4.518045E+06 -1.131565E+06 -6.649996E+05 -1.557271E+06  4.262501E+05  1.437451E+05
        43  23 -4.382646E+06 -5.566493E+05 -2.756807E+05 -1.702049E+06  2.877577E+05  5.384725E+04
        43  24 -4.447492E+06 -6.516252E+05 -1.685646E+05 -1.739212E+06  1.353202E+05  6.494099E+02
        43  25 -2.928363E+06 -3.994858E+05 -2.035382E+05 -9.929596E+05  4.066083E+05  1.363740E+05
        43  26 -2.803266E+06  7.739722E+04  1.547222E+05 -1.233107E+06  2.825057E+05  5.188507E+04
        43  27 -2.874902E+06 -1.117066E+05  2.428201E+05 -1.365799E+06  1.444814E+05  4.102723E+03
        44   1 -5.765846E+06 -1.254142E+06 -5.031818E+05 -2.087235E+06 -1.084732E+05  8.820657E+02
        44   2 -5.676860E+06 -1.094641E+06 -3.980559E+05 -2.020952E+06 -7.246306E+04  1.318860E+04
        44   3 -5.538245E+06 -1.090113E+06 -3.395511E+05 -2.026168E+06 -3.488169E+04  2.129907E+04
        44   4 -4.419800E+06 -7.304930E+05 -1.377932E+05 -1.705769E+06 -1.082225E+05  9.671531E+02
        44   5 -4.440549E+06 -6.240170E+05 -6.509172E+04 -1.680959E+06 -7.382235E+04  1.267175E+04
        44   6 -4.411300E+06 -6.720821E+05 -3.764513E+04 -1.727656E+06 -3.785955E+04  2.018013E+04
        44   7 -3.071988E+06 -2.067066E+05  2.274325E+05 -1.323539E+06 -1.079709E+05  1.052579E+03
        44   8 -3.202752E+06 -1.532949E+05  2.677367E+05 -1.340347E+06 -7.518453E+04  1.215381E+04
        44   9 -3.283123E+06 -2.539880E+05  2.641490E+05 -1.428656E+06 -4.084337E+04  1.905904E+04
        44  10 -5.765859E+06 -1.254145E+06 -5.032041E+05 -2.087235E+06 -1.897861E-09 -2.158959E-10
        44  11 -5.676866E+06 -1.094643E+06 -3.980662E+05 -2.020951E+06 -5.343260E-09  4.630902E-10
        44  12 -5.538247E+06 -1.090113E+06 -3.395542E+05 -2.026168E+06  1.958860E-10 -1.008650E-09
        44  13 -4.419812E+06 -7.304962E+05 -1.378154E+05 -1.705769E+06 -3.590349E-09 -5.704397E-11
        44  14 -4.440555E+06 -6.240186E+05 -6.510232E+04 -1.680958E+06  1.617892E-09  8.152269E-10
        44  15 -4.411302E+06 -6.720829E+05 -3.764859E+04 -1.727655E+06 -6.997004E-09 -6.544125E-10
        44  16 -3.072001E+06 -2.067097E+05  2.274105E+05 -1.323539E+06 -2.021413E-09 -3.960804E-10
        44  17 -3.202758E+06 -1.532966E+05  2.677258E+05 -1.340347E+06  5.144546E-09  7.558186E-10
        44  18 -3.283125E+06 -2.539889E+05  2.641452E+05 -1.428655E+06  2.208225E-10 -1.136011E-11
        44  19 -5.765846E+06 -1.254142E+06 -5.031818E+05 -2.087235E+06  1.084732E+05 -8.820657E+02
        44  20 -5.676860E+06 -1.094641E+06 -3.980559E+05 -2.020952E+06  7.246306E+04 -1.318860E+04
        44  21 -5.538245E+06 -1.090113E+06 -3.395511E+05 -2.026168E+06  3.488169E+04 -2.129907E+04
        44  22 -4.419800E+06 -7.304930E+05 -1.377932E+05 -1.705769E+06  1.082225E+05 -9.671531E+02
        44  23 -4.440549E+06 -6.240170E+05 -6.509172E+04 -1.680959E+06  7.382235E+04 -1.267175E+04
        44  24 -4.411300E+06 -6.720821E+05 -3.764513E+04 -1.727656E+06  3.785955E+04 -2.018013E+04
        44  25 -3.071988E+06 -2.067066E+05  2.274325E+05 -1.323539E+06  1.079709E+05 -1.052579E+03
        44  26 -3.202752E+06 -1.532949E+05  2.677367E+05 -1.340347E+06  7.518453E+04 -1.215381E+04
        44  27 -3.283123E+06 -2.539880E+05  2.641490E+05 -1.428656E+06  4.084337E+04 -1.905904E+04
        45   1 -5.285186E+06 -1.018521E+06 -2.661648E+05 -1.968080E+06 -2.894087E+04  1.922790E+04
        45   2 -5.185922E+06 -9.037599E+05 -2.123392E+05 -1.871913E+06 -1.880891E+04  1.672290E+04
        45   3 -4.990451E+06 -8.977736E+05 -1.668155E+05 -1.888193E+06 -8.393357E+03  1.342725E+04
        45   4 -4.404213E+06 -6.853465E+05 -2.971068E+04 -1.727895E+06 -3.101996E+04  1.844760E+04
        45   5 -4.451792E+06 -6.273024E+05 -1.522684E+04 -1.673039E+06 -2.119393E+04  1.583088E+04
        45   6 -4.403125E+06 -6.779576E+05 -8.789759E+03 -1.730630E+06 -1.108657E+04  1.242322E+04
        45   7 -3.522489E+06 -3.521257E+05  2.066742E+05 -1.487400E+06 -3.310230E+04  1.766608E+04
        45   8 -3.717139E+06 -3.508136E+05  1.818378E+05 -1.473951E+06 -2.358206E+04  1.493770E+04
        45   9 -3.815462E+06 -4.581222E+05  1.492058E+05 -1.572932E+06 -1.378262E+04  1.141815E+04
        45  10 -5.285187E+06 -1.018522E+06 -2.661671E+05 -1.968080E+06 -1.745978E-09 -8.850738E-10
        45  11 -5.185922E+06 -9.037603E+05 -2.123404E+05 -1.871913E+06 -6.700134E-09 -7.563315E-10
        45  12 -4.990452E+06 -8.977738E+05 -1.668160E+05 -1.888193E+06 -1.254581E-09 -2.260956E-09
        45  13 -4.404214E+06 -6.853471E+05 -2.971313E+04 -1.727894E+06  2.629926E-10 -1.387388E-09
        45  14 -4.451792E+06 -6.273028E+05 -1.522816E+04 -1.673039E+06  1.910208E-09 -2.326392E-09
        45  15 -4.403125E+06 -6.779578E+05 -8.790279E+03 -1.730630E+06 -6.702837E-10  5.900712E-10
        45  16 -3.522490E+06 -3.521263E+05  2.066715E+05 -1.487399E+06 -7.206363E-10 -1.517284E-09
        45  17 -3.717140E+06 -3.508140E+05  1.818363E+05 -1.473950E+06  3.345150E-09 -1.755594E-09
        45  18 -3.815462E+06 -4.581224E+05  1.492052E+05 -1.572932E+06 -1.885546E-09 -9.490649E-11
        45  19 -5.285186E+06 -1.018521E+06 -2.661648E+05 -1.968080E+06  2.894087E+04 -1.922790E+04
        45  20 -5.185922E+06 -9.037599E+05 -2.123392E+05 -1.871913E+06  1.880891E+04 -1.672290E+04
        45  21 -4.990451E+06 -8.977736E+05 -1.668155E+05 -1.888193E+06  8.393357E+03 -1.342725E+04
        45  22 -4.404213E+06 -6.853465E+05 -2.971068E+04 -1.727895E+06  3.101996E+04 -1.844760E+04
        45  23 -4.451792E+06 -6.273024E+05 -1.522684E+04 -1.673039E+06  2.119393E+04 -1.583088E+04
        45  24 -4.403125E+06 -6.779576E+05 -8.789759E+03 -1.730630E+06  1.108657E+04 -1.242322E+04
        45  25 -3.522489E+06 -3.521257E+05  2.066742E+05 -1.487400E+06  3.310230E+04 -1.766608E+04
        45  26 -3.717139E+06 -3.508136E+05  1.818378E+05 -1.473951E+06  2.358206E+04 -1.493770E+04
        45  27 -3.815462E+06 -4.581222E+05  1.492058E+05 -1.572932E+06  1.378262E+04 -1.141815E+04
        46   1 -4.707964E+06 -7.963907E+05 -8.883875E+04 -1.815424E+06 -5.755426E+03  1.001108E+04
        46   2 -4.600424E+06 -6.804564E+05 -4.345874E+04 -1.709271E+06 -1.068707E+03  4.306141E+03
        46   3 -4.385257E+06 -6.743685E+05 -1.479973E+02 -1.728270E+06  3.660892E+03 -1.520616E+03
        46   4 -4.400920E+06 -6.810463E+05 -7.037492E+03 -1.732364E+06 -8.361727E+03  9.040753E+03
        46   5 -4.454664E+06 -6.257272E+05 -4.365677E+03 -1.669932E+06 -3.723117E+03  3.318447E+03
        46   6 -4.400799E+06 -6.802435E+05 -3.721872E+03 -1.732659E+06  9.576695E+02 -2.525792E+03
        46   7 -4.093784E+06 -5.656962E+05  7.475566E+04 -1.649268E+06 -1.096946E+04  8.069897E+03
        46   8 -4.308884E+06 -5.709970E+05  3.472538E+04 -1.630585E+06 -6.378206E+03  2.330500E+03
        46   9 -4.416340E+06 -6.861184E+05 -7.295691E+03 -1.737048E+06 -1.745454E+03 -3.530930E+03
        46  10 -4.707964E+06 -7.963909E+05 -8.883900E+04 -1.815424E+06 -4.631924E-09 -1.434814E-09
        46  11 -4.600424E+06 -6.804564E+05 -4.345877E+04 -1.709271E+06 -1.218304E-09 -4.990666E-10
        46  12 -4.385257E+06 -6.743685E+05 -1.480269E+02 -1.728270E+06  4.233821E-09  1.734654E-10
        46  13 -4.400920E+06 -6.810464E+05 -7.037777E+03 -1.732364E+06 -2.991306E-09 -1.633178E-09
        46  14 -4.454664E+06 -6.257272E+05 -4.365724E+03 -1.669932E+06  2.056291E-09  3.048921E-09
        46  15 -4.400799E+06 -6.802435E+05 -3.721885E+03 -1.732659E+06  1.492039E-09 -8.330488E-10
        46  16 -4.093784E+06 -5.656963E+05  7.475531E+04 -1.649268E+06  2.176248E-09  1.314654E-09
        46  17 -4.308884E+06 -5.709970E+05  3.472529E+04 -1.630585E+06 -2.545901E-09  2.449975E-09
        46  18 -4.416340E+06 -6.861184E+05 -7.295720E+03 -1.737048E+06  3.320181E-09 -1.193687E-10
        46  19 -4.707964E+06 -7.963907E+05 -8.883875E+04 -1.815424E+06  5.755426E+03 -1.001108E+04
        46  20 -4.600424E+06 -6.804564E+05 -4.345874E+04 -1.709271E+06  1.068707E+03 -4.306141E+03
        46  21 -4.385257E+06 -6.743685E+05 -1.479973E+02 -1.728270E+06 -3.660892E+03  1.520616E+03
        46  22 -4.400920E+06 -6.810463E+05 -7.037492E+03 -1.732364E+06  8.361727E+03 -9.040753E+03
        46  23 -4.454664E+06 -6.257272E+05 -4.365677E+03 -1.669932E+06  3.723117E+03 -3.318447E+03
        46  24 -4.400799E+06 -6.802435E+05 -3.721872E+03 -1.732659E+06 -9.576695E+02  2.525792E+03
        46  25 -4.093784E+06 -5.656962E+05  7.475566E+04 -1.649268E+06  1.096946E+04 -8.069897E+03
        46  26 -4.308884E+06 -5.709970E+05  3.472538E+04 -1.630585E+06  6.378206E+03 -2.330500E+03
        46  27 -4.416340E+06 -6.861184E+05 -7.295691E+03 -1.737048E+06  1.745454E+03  3.530930E+03
        47   1 -4.097933E+06 -5.656506E+05  7.815034E+04 -1.650218E+06  5.740400E+03 -5.223967E+03
        47   2 -3.993941E+06 -4.538972E+05  1.182181E+05 -1.546747E+06  1.063059E+04 -1.087765E+04
        47   3 -3.785171E+06 -4.489877E+05  1.561111E+05 -1.564468E+06  1.540966E+04 -1.620547E+04
        47   4 -4.401448E+06 -6.794540E+05 -3.816698E+03 -1.731843E+06  3.034831E+03 -6.230508E+03
        47   5 -4.453914E+06 -6.266567E+05 -5.118738E+03 -1.671003E+06  8.053279E+03 -1.183838E+04
        47   6 -4.401648E+06 -6.807382E+05 -8.697239E+03 -1.731374E+06  1.295984E+04 -1.712042E+04
        47   7 -4.704876E+06 -7.932533E+05 -8.579257E+04 -1.813432E+06  3.307035E+02 -7.236516E+03
        47   8 -4.913684E+06 -7.994053E+05 -1.284750E+05 -1.795177E+06  5.478055E+03 -1.279832E+04
        47   9 -5.017759E+06 -9.124679E+05 -1.735399E+05 -1.898130E+06  1.051268E+04 -1.803437E+04
        47  10 -4.097933E+06 -5.656506E+05  7.815023E+04 -1.650218E+06  3.002531E-09 -1.220807E-09
        47  11 -3.993941E+06 -4.538974E+05  1.182176E+05 -1.546747E+06  2.468208E-10 -2.651757E-09
        47  12 -3.785172E+06 -4.489881E+05  1.561101E+05 -1.564468E+06  1.592486E-09  3.819893E-10
        47  13 -4.401448E+06 -6.794541E+05 -3.816788E+03 -1.731843E+06  6.088951E-09 -2.513512E-10
        47  14 -4.453914E+06 -6.266569E+05 -5.119122E+03 -1.671003E+06  2.513323E-09  4.677702E-09
        47  15 -4.401648E+06 -6.807386E+05 -8.698104E+03 -1.731374E+06  1.503471E-09  9.538564E-10
        47  16 -4.704876E+06 -7.932534E+05 -8.579267E+04 -1.813432E+06  5.342832E-09  1.381932E-09
        47  17 -4.913684E+06 -7.994054E+05 -1.284754E+05 -1.795177E+06  2.427907E-09  4.052341E-09
        47  18 -5.017760E+06 -9.124683E+05 -1.735407E+05 -1.898130E+06  3.579698E-09  1.217039E-09
        47  19 -4.097933E+06 -5.656506E+05  7.815034E+04 -1.650218E+06 -5.740400E+03  5.223967E+03
        47  20 -3.993941E+06 -4.538972E+05  1.182181E+05 -1.546747E+06 -1.063059E+04  1.087765E+04
        47  21 -3.785171E+06 -4.489877E+05  1.561111E+05 -1.564468E+06 -1.540966E+04  1.620547E+04
        47  22 -4.401448E+06 -6.794540E+05 -3.816698E+03 -1.731843E+06 -3.034831E+03  6.230508E+03
        47  23 -4.453914E+06 -6.266567E+05 -5.118738E+03 -1.671003E+06 -8.053279E+03  1.183838E+04
        47  24 -4.401648E+06 -6.807382E+05 -8.697239E+03 -1.731374E+06 -1.295984E+04  1.712042E+04
        47  25 -4.704876E+06 -7.932533E+05 -8.579257E+04 -1.813432E+06 -3.307035E+02  7.236516E+03
        47  26 -4.913684E+06 -7.994053E+05 -1.284750E+05 -1.795177E+06 -5.478055E+03  1.279832E+04
        47  27 -5.017759E+06 -9.124679E+05 -1.735399E+05 -1.898130E+06 -1.051268E+04  1.803437E+04
        48   1 -3.525008E+06 -3.460894E+05  2.254294E+05 -1.491283E+06  1.845450E+04 -1.920460E+04
        48   2 -3.436413E+06 -2.478265E+05  2.524649E+05 -1.400884E+06  3.009159E+04 -2.148068E+04
        48   3 -3.260837E+06 -2.513485E+05  2.697719E+05 -1.411204E+06  4.137962E+04 -2.277156E+04
        48   4 -4.405221E+06 -6.759599E+05 -1.097413E+04 -1.728249E+06  1.591052E+04 -2.015678E+04
        48   5 -4.449358E+06 -6.297154E+05 -1.934108E+04 -1.676136E+06  2.792686E+04 -2.229477E+04
        48   6 -4.406612E+06 -6.853555E+05 -3.775053E+04 -1.724758E+06  3.959168E+04 -2.344761E+04
        48   7 -5.284677E+06 -1.005784E+06 -2.474440E+05 -1.964908E+06  1.337054E+04 -2.110749E+04
        48   8 -5.461307E+06 -1.011543E+06 -2.912371E+05 -1.950980E+06  2.576602E+04 -2.310740E+04
        48   9 -5.551119E+06 -1.119284E+06 -3.453904E+05 -2.037787E+06  3.780734E+04 -2.412230E+04
        48  10 -3.525008E+06 -3.460899E+05  2.254280E+05 -1.491283E+06  6.232555E-09 -5.905979E-10
        48  11 -3.436414E+06 -2.478272E+05  2.524623E+05 -1.400884E+06  2.821208E-09 -4.401742E-10
        48  12 -3.260839E+06 -2.513495E+05  2.697677E+05 -1.411203E+06  1.910639E-09 -2.595597E-10
        48  13 -4.405222E+06 -6.759604E+05 -1.097536E+04 -1.728249E+06  7.741077E-09 -2.010930E-09
        48  14 -4.449359E+06 -6.297162E+05 -1.934348E+04 -1.676136E+06  8.326973E-09  1.863993E-09
        48  15 -4.406614E+06 -6.853565E+05 -3.775451E+04 -1.724757E+06  3.802068E-09 -9.790632E-10
        48  16 -5.284677E+06 -1.005785E+06 -2.474452E+05 -1.964908E+06  3.252932E-09  2.253219E-10
        48  17 -5.461308E+06 -1.011544E+06 -2.912393E+05 -1.950980E+06 -4.739596E-09 -8.521293E-10
        48  18 -5.551121E+06 -1.119285E+06 -3.453942E+05 -2.037786E+06 -3.020117E-09  5.718213E-10
        48  19 -3.525008E+06 -3.460894E+05  2.254294E+05 -1.491283E+06 -1.845450E+04  1.920460E+04
        48  20 -3.436413E+06 -2.478265E+05  2.524649E+05 -1.400884E+06 -3.009159E+04  2.148068E+04
        48  21 -3.260837E+06 -2.513485E+05  2.697719E+05 -1.411204E+06 -4.137962E+04  2.277156E+04
        48  22 -4.405221E+06 -6.759599E+05 -1.097413E+04 -1.728249E+06 -1.591052E+04  2.015678E+04
        48  23 -4.449358E+06 -6.297154E+05 -1.934108E+04 -1.676136E+06 -2.792686E+04  2.229477E+04
        48  24 -4.406612E+06 -6.853555E+05 -3.775053E+04 -1.724758E+06 -3.959168E+04  2.344761E+04
        48  25 -5.284677E+06 -1.005784E+06 -2.474440E+05 -1.964908E+06 -1.337054E+04  2.110749E+04
        48  26 -5.461307E+06 -1.011543E+06 -2.912371E+05 -1.950980E+06 -2.576602E+04  2.310740E+04
        48  27 -5.551119E+06 -1.119284E+06 -3.453904E+05 -2.037787E+06 -3.780734E+04  2.412230E+04
        49   1 -3.053509E+06 -1.630392E+05  3.164225E+05 -1.362662E+06  5.047967E+04 -2.317009E+04
        49   2 -2.986891E+06 -7.267458E+04  3.068430E+05 -1.285463E+06  9.369734E+04 -1.193313E+04
        49   3 -2.891970E+06 -1.424613E+05  2.411833E+05 -1.257628E+06  1.352378E+05  3.801598E+03
        49   4 -4.415610E+06 -6.686253E+05 -4.789921E+04 -1.724634E+06  4.774960E+04 -2.420230E+04
        49   5 -4.434977E+06 -6.253347E+05 -8.288000E+04 -1.686004E+06  9.267861E+04 -1.232628E+04
        49   6 -4.426482E+06 -7.426980E+05 -1.754108E+05 -1.696737E+06  1.359220E+05  4.047741E+03
        49   7 -5.775915E+06 -1.174118E+06 -4.123839E+05 -2.085893E+06  4.502608E+04 -2.523217E+04
        49   8 -5.881028E+06 -1.177858E+06 -4.727892E+05 -2.085693E+06  9.166232E+04 -1.271851E+04
        49   9 -5.958705E+06 -1.342749E+06 -5.922169E+05 -2.134844E+06  1.366040E+05  4.292967E+03
        49  10 -3.053512E+06 -1.630405E+05  3.164167E+05 -1.362661E+06  9.423621E-11  3.679896E-11
        49  11 -2.986901E+06 -7.267709E+04  3.068262E+05 -1.285462E+06  5.852864E-09 -1.571225E-09
        49  12 -2.891990E+06 -1.424663E+05  2.411488E+05 -1.257628E+06  9.641316E-10  3.673683E-10
        49  13 -4.415613E+06 -6.686266E+05 -4.790461E+04 -1.724633E+06  1.503174E-09  3.215627E-10
        49  14 -4.434987E+06 -6.253372E+05 -8.289652E+04 -1.686003E+06 -2.044250E-09  9.962901E-10
        49  15 -4.426501E+06 -7.427030E+05 -1.754458E+05 -1.696738E+06  2.364437E-09  3.829391E-09
        49  16 -5.775917E+06 -1.174119E+06 -4.123889E+05 -2.085892E+06  2.214922E-09  1.406000E-09
        49  17 -5.881038E+06 -1.177860E+06 -4.728055E+05 -2.085692E+06  4.597585E-09  2.969123E-09
        49  18 -5.958725E+06 -1.342754E+06 -5.922523E+05 -2.134845E+06 -1.720433E-09  1.602605E-09
        49  19 -3.053509E+06 -1.630392E+05  3.164225E+05 -1.362662E+06 -5.047967E+04  2.317009E+04
        49  20 -2.986891E+06 -7.267458E+04  3.068430E+05 -1.285463E+06 -9.369734E+04  1.193313E+04
        49  21 -2.891970E+06 -1.424613E+05  2.411833E+05 -1.257628E+06 -1.352378E+05 -3.801598E+03
        49  22 -4.415610E+06 -6.686253E+05 -4.789921E+04 -1.724634E+06 -4.774960E+04  2.420230E+04
        49  23 -4.434977E+06 -6.253347E+05 -8.288000E+04 -1.686004E+06 -9.267861E+04  1.232628E+04
        49  24 -4.426482E+06 -7.426980E+05 -1.754108E+05 -1.696737E+06 -1.359220E+05 -4.047741E+03
        49  25 -5.775915E+06 -1.174118E+06 -4.123839E+05 -2.085893E+06 -4.502608E+04  2.523217E+04
        49  26 -5.881028E+06 -1.177858E+06 -4.727892E+05 -2.085693E+06 -9.166232E+04  1.271851E+04
        49  27 -5.958705E+06 -1.342749E+06 -5.922169E+05 -2.134844E+06 -1.366040E+05 -4.292967E+03
        50   1 -2.730329E+06 -5.715259E+04  2.364019E+05 -1.337258E+06  1.786213E+05  1.207108E+04
        50   2 -2.669690E+06  1.508181E+05  1.121548E+05 -1.199336E+06  3.568038E+05  7.669481E+04
        50   3 -2.893309E+06 -4.577151E+05 -3.589136E+05 -8.879665E+05  5.203391E+05  1.797126E+05
        50   4 -4.460744E+06 -6.435743E+05 -2.146601E+05 -1.740775E+06  1.694925E+05  8.618068E+03
        50   5 -4.362027E+06 -5.381294E+05 -3.508902E+05 -1.711316E+06  3.626289E+05  7.887356E+04
        50   6 -4.551417E+06 -1.253574E+06 -8.466168E+05 -1.508176E+06  5.411034E+05  1.874931E+05
        50   7 -6.188263E+06 -1.229956E+06 -6.659703E+05 -2.143338E+06  1.603912E+05  5.172936E+03
        50   8 -6.051571E+06 -1.226780E+06 -8.141973E+05 -2.221984E+06  3.684353E+05  8.104400E+04
        50   9 -6.206779E+06 -2.048756E+06 -1.334589E+06 -2.126714E+06  5.618044E+05  1.952356E+05
        50  10 -2.730363E+06 -5.716136E+04  2.363414E+05 -1.337260E+06  4.222544E-09 -1.304997E-09
        50  11 -2.669829E+06  1.507773E+05  1.119032E+05 -1.199358E+06  1.812980E-09 -9.135191E-09
        50  12 -2.893610E+06 -4.578231E+05 -3.594860E+05 -8.880421E+05 -2.295843E-09 -2.244890E-09
        50  13 -4.460775E+06 -6.435821E+05 -2.147146E+05 -1.740776E+06  2.332243E-10  2.746306E-09
        50  14 -4.362171E+06 -5.381718E+05 -3.511511E+05 -1.711339E+06  2.705910E-09 -6.202706E-10
        50  15 -4.551743E+06 -1.253691E+06 -8.472382E+05 -1.508258E+06 -4.807449E-10 -2.355426E-11
        50  16 -6.188291E+06 -1.229963E+06 -6.660191E+05 -2.143338E+06 -9.109205E-10  1.030192E-09
        50  17 -6.051720E+06 -1.226824E+06 -8.144676E+05 -2.222009E+06 -7.018128E-09  6.127663E-09
        50  18 -6.207132E+06 -2.048883E+06 -1.335261E+06 -2.126803E+06  2.836004E-09  4.859067E-10
        50  19 -2.730329E+06 -5.715259E+04  2.364019E+05 -1.337258E+06 -1.786213E+05 -1.207108E+04
        50  20 -2.669690E+06  1.508181E+05  1.121548E+05 -1.199336E+06 -3.568038E+05 -7.669481E+04
        50  21 -2.893309E+06 -4.577151E+05 -3.589136E+05 -8.879665E+05 -5.203391E+05 -1.797126E+05
        50  22 -4.460744E+06 -6.435743E+05 -2.146601E+05 -1.740775E+06 -1.694925E+05 -8.618068E+03
        50  23 -4.362027E+06 -5.381294E+05 -3.508902E+05 -1.711316E+06 -3.626289E+05 -7.887356E+04
        50  24 -4.551417E+06 -1.253574E+06 -8.466168E+05 -1.508176E+06 -5.411034E+05 -1.874931E+05
        50  25 -6.188263E+06 -1.229956E+06 -6.659703E+05 -2.143338E+06 -1.603912E+05 -5.172936E+03
        50  26 -6.051571E+06 -1.226780E+06 -8.141973E+05 -2.221984E+06 -3.684353E+05 -8.104400E+04
        50  27 -6.206779E+06 -2.048756E+06 -1.334589E+06 -2.126714E+06 -5.618044E+05 -1.952356E+05
        51   1  2.160210E+05 -7.454915E+05  2.066232E+05  4.934878E+02  9.360299E+03 -7.678344E+02
        51   2  2.326016E+05 -7.623756E+05  2.075777E+05  2.938742E+03  2.872238E+04 -2.343348E+03
        51   3  2.246486E+05 -7.842652E+05  2.036632E+05 -9.212593E+03  2.825196E+04 -3.987878E+03
        51   4 -1.980334E+04 -1.690059E+06 -2.689637E+04 -3.292828E+03  9.409401E+03 -1.479046E+04
        51   5  3.010025E+03 -1.686714E+06 -1.483975E+04  4.041091E+03  2.874337E+04 -6.862823E+03
        51   6 -3.830257E+02 -1.690038E+06 -1.427074E+04 -3.222781E+03  2.823171E+04  9.959107E+02
        51   7 -2.556943E+05 -2.633813E+06 -2.604815E+05 -7.072673E+03  9.458712E+03 -2.879174E+04
        51   8 -2.266439E+05 -2.610269E+06 -2.373181E+05  5.142569E+03  2.876435E+04 -1.137558E+04
        51   9 -2.254744E+05 -2.595059E+06 -2.322631E+05  2.759108E+03  2.821153E+04  5.972446E+03
        51  10  2.160209E+05 -7.454915E+05  2.066230E+05  4.934936E+02 -7.491716E-09  2.157429E-09
        51  11  2.326007E+05 -7.623758E+05  2.075762E+05  2.938797E+03 -6.790645E-09 -4.962054E-09
        51  12  2.246477E+05 -7.842654E+05  2.036617E+05 -9.212502E+03 -9.663308E-11  5.888167E-10
        51  13 -1.980350E+04 -1.690059E+06 -2.689695E+04 -3.292716E+03 -5.740846E-09 -2.032823E-11
        51  14  3.009125E+03 -1.686714E+06 -1.484139E+04  4.041250E+03 -3.056856E-10 -4.367429E-09
        51  15 -3.838812E+02 -1.690039E+06 -1.427224E+04 -3.222804E+03  7.073045E-09  5.176796E-10
        51  16 -2.556946E+05 -2.633814E+06 -2.604833E+05 -7.072453E+03 -3.251132E-09 -3.296828E-09
        51  17 -2.266448E+05 -2.610269E+06 -2.373199E+05  5.142833E+03  1.647321E-09 -1.459278E-09
        51  18 -2.254753E+05 -2.595059E+06 -2.322647E+05  2.758972E+03 -2.466058E-09 -6.495439E-10
        51  19  2.160210E+05 -7.454915E+05  2.066232E+05  4.934878E+02 -9.360299E+03  7.678344E+02
        51  20  2.326016E+05 -7.623756E+05  2.075777E+05  2.938742E+03 -2.872238E+04  2.343348E+03
        51  21  2.246486E+05 -7.842652E+05  2.036632E+05 -9.212593E+03 -2.825196E+04  3.987878E+03
        51  22 -1.980334E+04 -1.690059E+06 -2.689637E+04 -3.292828E+03 -9.409401E+03  1.479046E+04
        51  23  3.010025E+03 -1.686714E+06 -1.483975E+04  4.041091E+03 -2.874337E+04  6.862823E+03
        51  24 -3.830257E+02 -1.690038E+06 -1.427074E+04 -3.222781E+03 -2.823171E+04 -9.959107E+02
        51  25 -2.556943E+05 -2.633813E+06 -2.604815E+05 -7.072673E+03 -9.458712E+03  2.879174E+04
        51  26 -2.266439E+05 -2.610269E+06 -2.373181E+05  5.142569E+03 -2.876435E+04  1.137558E+04
        51  27 -2.254744E+05 -2.595059E+06 -2.322631E+05  2.759108E+03 -2.821153E+04 -5.972446E+03
        52   1  2.154555E+05 -8.163936E+05  1.956169E+05 -5.463938E+03  2.503713E+04  4.487016E+03
        52   2  2.125746E+05 -8.400390E+05  1.849281E+05  1.510659E+03  2.556594E+04  1.296998E+04
        52   3  1.919277E+05 -8.686207E+05  1.644027E+05 -1.202341E+04  2.330189E+04  2.143564E+04
        52   4 -1.589653E+03 -1.689692E+06 -1.517177E+04 -4.542508E+03  2.504411E+04  3.540658E+03
        52   5  2.087673E+03 -1.687107E+06 -1.912507E+04  5.681250E+03  2.556619E+04  1.335129E+04
        52   6 -1.224581E+04 -1.689698E+06 -3.384810E+04 -4.605562E+03  2.329379E+04  2.314495E+04
        52   7 -2.186907E+05 -2.562291E+06 -2.260151E+05 -3.621521E+03  2.505109E+04  2.595625E+03
        52   8 -2.084517E+05 -2.533517E+06 -2.232296E+05  9.847010E+03  2.556643E+04  1.373207E+04
        52   9 -2.164686E+05 -2.510157E+06 -2.321472E+05  2.803349E+03  2.328572E+04  2.485200E+04
        52  10  2.154548E+05 -8.163938E+05  1.956156E+05 -5.464029E+03  1.121834E-09  3.310083E-09
        52  11  2.125739E+05 -8.400394E+05  1.849266E+05  1.510392E+03 -2.459480E-09 -8.251662E-09
        52  12  1.919270E+05 -8.686213E+05  1.644008E+05 -1.202381E+04 -7.871027E-10 -8.992977E-10
        52  13 -1.590329E+03 -1.689692E+06 -1.517297E+04 -4.542580E+03 -5.171922E-09  1.048859E-10
        52  14  2.086924E+03 -1.687107E+06 -1.912664E+04  5.680974E+03  7.795777E-10 -5.709898E-09
        52  15 -1.224653E+04 -1.689699E+06 -3.385013E+04 -4.605997E+03 -3.776617E-11  5.334444E-10
        52  16 -2.186913E+05 -2.562292E+06 -2.260163E+05 -3.621573E+03 -3.755980E-09 -4.742778E-09
        52  17 -2.084525E+05 -2.533517E+06 -2.232312E+05  9.846727E+03  1.840678E-09 -2.334244E-10
        52  18 -2.164693E+05 -2.510158E+06 -2.321494E+05  2.802883E+03 -4.925425E-09  3.780190E-10
        52  19  2.154555E+05 -8.163936E+05  1.956169E+05 -5.463938E+03 -2.503713E+04 -4.487016E+03
        52  20  2.125746E+05 -8.400390E+05  1.849281E+05  1.510659E+03 -2.556594E+04 -1.296998E+04
        52  21  1.919277E+05 -8.686207E+05  1.644027E+05 -1.202341E+04 -2.330189E+04 -2.143564E+04
        52  22 -1.589653E+03 -1.689692E+06 -1.517177E+04 -4.542508E+03 -2.504411E+04 -3.540658E+03
        52  23  2.087673E+03 -1.687107E+06 -1.912507E+04  5.681250E+03 -2.556619E+04 -1.335129E+04
        52  24 -1.224581E+04 -1.689698E+06 -3.384810E+04 -4.605562E+03 -2.329379E+04 -2.314495E+04
        52  25 -2.186907E+05 -2.562291E+06 -2.260151E+05 -3.621521E+03 -2.505109E+04 -2.595625E+03
        52  26 -2.084517E+05 -2.533517E+06 -2.232296E+05  9.847010E+03 -2.556643E+04 -1.373207E+04
        52  27 -2.164686E+05 -2.510157E+06 -2.321472E+05  2.803349E+03 -2.328572E+04 -2.485200E+04
        53   1  1.989665E+05 -9.177609E+05  1.467369E+05  5.451576E+03  2.435189E+04  3.233380E+04
        53   2  2.027271E+05 -9.310028E+05  1.161238E+05 -6.451505E+03  2.272247E+04  5.976125E+04
        53   3  6.548115E+04 -9.828290E+05  3.244003E+04 -4.478095E+04  6.670003E+03  8.708153E+04
        53   4  5.529939E+03 -1.697355E+06 -4.072778E+04 -5.616319E+03  2.437073E+04  2.954942E+04
        53   5  1.708925E+04 -1.677489E+06 -6.357894E+04  7.179302E+03  2.269753E+04  6.385680E+04
        53   6 -1.136464E+05 -1.697450E+06 -1.443302E+05 -6.456340E+03  6.595760E+03  9.805770E+04
        53   7 -1.879503E+05 -2.476390E+06 -2.282357E+05 -1.666937E+04  2.438968E+04  2.676851E+04
        53   8 -1.685887E+05 -2.423464E+06 -2.433213E+05  2.079449E+04  2.267275E+04  6.794740E+04
        53   9 -2.928071E+05 -2.411603E+06 -3.211374E+05  3.182485E+04  6.522834E+03  1.090212E+05
        53  10  1.989656E+05 -9.177622E+05  1.467338E+05  5.450942E+03 -4.057662E-09  2.697158E-09
        53  11  2.027255E+05 -9.310067E+05  1.161161E+05 -6.452599E+03 -3.908750E-09 -9.513684E-09
        53  12  6.547907E+04 -9.828372E+05  3.242567E+04 -4.478142E+04 -1.125618E-09  3.530412E-10
        53  13  5.529066E+03 -1.697356E+06 -4.073054E+04 -5.616899E+03 -8.560452E-09 -3.759662E-11
        53  14  1.708760E+04 -1.677494E+06 -6.358759E+04  7.178134E+03 -2.434132E-09 -7.764553E-09
        53  15 -1.136490E+05 -1.697460E+06 -1.443484E+05 -6.456861E+03  1.462193E-09  3.143782E-10
        53  16 -1.879512E+05 -2.476391E+06 -2.282381E+05 -1.666989E+04 -3.987611E-09 -4.349083E-09
        53  17 -1.685905E+05 -2.423469E+06 -2.433310E+05  2.079324E+04 -5.230247E-09 -1.523036E-09
        53  18 -2.928103E+05 -2.411616E+06 -3.211599E+05  3.182428E+04  7.581158E-10 -6.311903E-10
        53  19  1.989665E+05 -9.177609E+05  1.467369E+05  5.451576E+03 -2.435189E+04 -3.233380E+04
        53  20  2.027271E+05 -9.310028E+05  1.161238E+05 -6.451505E+03 -2.272247E+04 -5.976125E+04
        53  21  6.548115E+04 -9.828290E+05  3.244003E+04 -4.478095E+04 -6.670003E+03 -8.708153E+04
        53  22  5.529939E+03 -1.697355E+06 -4.072778E+04 -5.616319E+03 -2.437073E+04 -2.954942E+04
        53  23  1.708925E+04 -1.677489E+06 -6.357894E+04  7.179302E+03 -2.269753E+04 -6.385680E+04
        53  24 -1.136464E+05 -1.697450E+06 -1.443302E+05 -6.456340E+03 -6.595760E+03 -9.805770E+04
        53  25 -1.879503E+05 -2.476390E+06 -2.282357E+05 -1.666937E+04 -2.438968E+04 -2.676851E+04
        53  26 -1.685887E+05 -2.423464E+06 -2.433213E+05  2.079449E+04 -2.267275E+04 -6.794740E+04
        53  27 -2.928071E+05 -2.411603E+06 -3.211374E+05  3.182485E+04 -6.522834E+03 -1.090212E+05
        54   1  8.667113E+04  9.453422E+05  4.938974E+04 -1.735833E+02  3.033005E+04 -5.385554E+02
        54   2  8.679176E+04  9.454447E+05  5.004463E+04 -1.433611E+02  3.022669E+04 -1.390510E+03
        54   3  8.712185E+04  9.457184E+05  5.130843E+04 -9.630656E+01  2.998640E+04 -2.242556E+03
        54   4 -3.109647E+01  5.602816E+05  5.996679E+02  3.730469E+00  3.033200E+04 -4.536666E+02
        54   5  1.724784E+01  5.602244E+05  1.052549E+03 -4.637801E+00  3.022848E+04 -9.762848E+02
        54   6  2.180084E+02  5.602813E+05  1.886049E+03  3.826567E+00  2.998799E+04 -1.498989E+03
        54   7 -8.673937E+04  1.753729E+05 -4.819092E+04  1.809433E+02  3.033395E+04 -3.688277E+02
        54   8 -8.676334E+04  1.751562E+05 -4.794009E+04  1.340115E+02  3.023027E+04 -5.623038E+02
        54   9 -8.669196E+04  1.749964E+05 -4.753700E+04  1.039125E+02  2.998957E+04 -7.558611E+02
        54  10  8.667014E+04  9.453420E+05  4.938802E+04 -1.735701E+02  7.990357E-11  1.408986E-07
        54  11  8.679078E+04  9.454445E+05  5.004291E+04 -1.433273E+02  4.886711E-09 -3.886339E-10
        54  12  8.712089E+04  9.457181E+05  5.130673E+04 -9.625242E+01  2.906045E-09 -1.406279E-07
        54  13 -3.208473E+01  5.602813E+05  5.979382E+02  3.741549E+00 -1.828340E-08  3.589442E-10
        54  14  1.626611E+01  5.602242E+05  1.050830E+03 -4.614038E+00 -1.971799E-08 -1.006857E-09
        54  15  2.170418E+02  5.602811E+05  1.884355E+03  3.862763E+00 -1.671016E-08  5.461231E-10
        54  16 -8.674035E+04  1.753727E+05 -4.819265E+04  1.809523E+02 -3.056749E-09 -1.415330E-07
        54  17 -8.676432E+04  1.751559E+05 -4.794181E+04  1.340252E+02  3.716288E-09  1.500244E-10
        54  18 -8.669292E+04  1.749961E+05 -4.753869E+04  1.039308E+02  5.567778E-09  1.407060E-07
        54  19  8.667113E+04  9.453422E+05  4.938974E+04 -1.735833E+02 -3.033005E+04  5.385554E+02
        54  20  8.679176E+04  9.454447E+05  5.004463E+04 -1.433611E+02 -3.022669E+04  1.390510E+03
        54  21  8.712185E+04  9.457184E+05  5.130843E+04 -9.630656E+01 -2.998640E+04  2.242556E+03
        54  22 -3.109647E+01  5.602816E+05  5.996679E+02  3.730468E+00 -3.033200E+04  4.536666E+02
        54  23  1.724784E+01  5.602244E+05  1.052549E+03 -4.637801E+00 -3.022848E+04  9.762848E+02
        54  24  2.180084E+02  5.602813E+05  1.886049E+03  3.826567E+00 -2.998799E+04  1.498989E+03
        54  25 -8.673937E+04  1.753729E+05 -4.819092E+04  1.809433E+02 -3.033395E+04  3.688277E+02
        54  26 -8.676334E+04  1.751562E+05 -4.794009E+04  1.340115E+02 -3.023027E+04  5.623038E+02
        54  27 -8.669196E+04  1.749964E+05 -4.753700E+04  1.039125E+02 -2.998957E+04  7.558612E+02
        55   1  8.732698E+04  9.460523E+05  5.221621E+04 -2.204995E+02  2.983463E+04 -2.689858E+03
        55   2  8.840743E+04  9.457404E+05  5.552690E+04  8.573210E+02  2.898387E+04 -7.389764E+03
        55   3  9.148922E+04  9.465474E+05  6.239660E+04  1.885657E+03  2.711073E+04 -1.209043E+04
        55   4  3.242111E+02  5.604100E+05  2.504965E+03 -1.105638E+01  2.983613E+04 -1.867079E+03
        55   5  1.130483E+03  5.600627E+05  4.473297E+03  1.450832E+01  2.898384E+04 -4.108880E+03
        55   6  3.512408E+03  5.604087E+05  8.296195E+03 -9.419290E+00  2.710885E+04 -6.351420E+03
        55   7 -8.668471E+04  1.749199E+05 -4.720702E+04  1.982695E+02  2.983764E+04 -1.044786E+03
        55   8 -8.615276E+04  1.745368E+05 -4.658138E+04 -8.277361E+02  2.898380E+04 -8.299358E+02
        55   9 -8.447101E+04  1.744210E+05 -4.580602E+04 -1.903244E+03  2.710694E+04 -6.158154E+02
        55  10  8.732602E+04  9.460520E+05  5.221452E+04 -2.204349E+02  7.116888E-09  8.444969E-09
        55  11  8.840651E+04  9.457401E+05  5.552522E+04  8.574934E+02  3.455038E-09  9.501020E-09
        55  12  9.148839E+04  9.465471E+05  6.239495E+04  1.885921E+03 -1.660892E-09  1.423927E-08
        55  13  3.232540E+02  5.604098E+05  2.503285E+03 -1.101152E+01 -9.037261E-09  5.173976E-10
        55  14  1.129576E+03  5.600625E+05  4.471686E+03  1.460421E+01  3.006995E-09 -1.166291E-09
        55  15  3.511608E+03  5.604085E+05  8.294738E+03 -9.280650E+00  1.278741E-08  7.350165E-10
        55  16 -8.668567E+04  1.749196E+05 -4.720870E+04  1.982946E+02  2.684343E-09 -9.385121E-09
        55  17 -8.615366E+04  1.745365E+05 -4.658296E+04 -8.277167E+02 -3.103209E-09 -9.879220E-09
        55  18 -8.447180E+04  1.744208E+05 -4.580740E+04 -1.903231E+03 -5.283109E-09 -1.396825E-08
        55  19  8.732698E+04  9.460523E+05  5.221621E+04 -2.204995E+02 -2.983463E+04  2.689858E+03
        55  20  8.840743E+04  9.457404E+05  5.552690E+04  8.573210E+02 -2.898387E+04  7.389764E+03
        55  21  9.148922E+04  9.465474E+05  6.239660E+04  1.885657E+03 -2.711073E+04  1.209043E+04
        55  22  3.242111E+02  5.604100E+05  2.504965E+03 -1.105638E+01 -2.983613E+04  1.867079E+03
        55  23  1.130483E+03  5.600627E+05  4.473297E+03  1.450832E+01 -2.898384E+04  4.108880E+03
        55  24  3.512408E+03  5.604087E+05  8.296195E+03 -9.419290E+00 -2.710885E+04  6.351420E+03
        55  25 -8.668471E+04  1.749199E+05 -4.720702E+04  1.982695E+02 -2.983764E+04  1.044786E+03
        55  26 -8.615276E+04  1.745368E+05 -4.658138E+04 -8.277361E+02 -2.898380E+04  8.299358E+02
        55  27 -8.447101E+04  1.744210E+05 -4.580602E+04 -1.903244E+03 -2.710694E+04  6.158154E+02
        56   1  9.336737E+04  9.482704E+05  6.725517E+04  1.163674E+03  2.592703E+04 -1.414196E+04
        56   2  1.040899E+05  9.444179E+05  8.642362E+04  1.384857E+04  1.952251E+04 -4.281542E+04
        56   3  1.335329E+05  9.489792E+05  1.289223E+05  2.593333E+04  5.546997E+03 -7.149578E+04
        56   4  4.842567E+03  5.614240E+05  1.112574E+04 -1.333773E+02  2.592448E+04 -7.799927E+03
        56   5  1.388259E+04  5.587889E+05  2.056136E+04  1.776911E+02  1.950717E+04 -1.827810E+04
        56   6  3.849243E+04  5.614148E+05  4.070619E+04 -1.116333E+02  5.517853E+03 -2.876255E+04
        56   7 -8.368908E+04  1.747284E+05 -4.500599E+04 -1.429564E+03  2.592191E+04 -1.461674E+03
        56   8 -7.633163E+04  1.733076E+05 -4.530347E+04 -1.348442E+04  1.949074E+04  6.244483E+03
        56   9 -5.655491E+04  1.739949E+05 -4.751246E+04 -2.614019E+04  5.485119E+03  1.394429E+04
        56  10  9.336659E+04  9.482700E+05  6.725353E+04  1.163969E+03 -2.663432E-09 -5.017823E-08
        56  11  1.040890E+05  9.444158E+05  8.641946E+04  1.384924E+04  2.554405E-10 -1.272841E-08
        56  12  1.335315E+05  9.489737E+05  1.289126E+05  2.593365E+04  5.396964E-10  2.589944E-08
        56  13  4.841829E+03  5.614237E+05  1.112436E+04 -1.332145E+02  1.109252E-08  6.793478E-10
        56  14  1.388209E+04  5.587884E+05  2.056002E+04  1.779782E+02  1.033187E-08 -1.423800E-09
        56  15  3.849217E+04  5.614139E+05  4.070458E+04 -1.115055E+02  4.231525E-09  9.959726E-10
        56  16 -8.368980E+04  1.747282E+05 -4.500726E+04 -1.429533E+03 -5.975296E-09  4.905421E-08
        56  17 -7.633205E+04  1.733074E+05 -4.530426E+04 -1.348451E+04 -6.965238E-09  1.224860E-08
        56  18 -5.655499E+04  1.739947E+05 -4.751288E+04 -2.614025E+04 -7.228862E-10 -2.556532E-08
        56  19  9.336737E+04  9.482704E+05  6.725517E+04  1.163674E+03 -2.592703E+04  1.414196E+04
        56  20  1.040899E+05  9.444179E+05  8.642362E+04  1.384857E+04 -1.952251E+04  4.281542E+04
        56  21  1.335329E+05  9.489792E+05  1.289223E+05  2.593333E+04 -5.546997E+03  7.149578E+04
        56  22  4.842567E+03  5.614240E+05  1.112574E+04 -1.333773E+02 -2.592448E+04  7.799927E+03
        56  23  1.388259E+04  5.587889E+05  2.056136E+04  1.776911E+02 -1.950717E+04  1.827810E+04
        56  24  3.849243E+04  5.614148E+05  4.070619E+04 -1.116333E+02 -5.517853E+03  2.876255E+04
        56  25 -8.368908E+04  1.747284E+05 -4.500599E+04 -1.429564E+03 -2.592191E+04  1.461674E+03
        56  26 -7.633163E+04  1.733076E+05 -4.530347E+04 -1.348442E+04 -1.949074E+04 -6.244483E+03
        56  27 -5.655491E+04  1.739949E+05 -4.751246E+04 -2.614019E+04 -5.485119E+03 -1.394429E+04
        57   1 -1.011482E+07 -2.969490E+06 -1.792258E+06 -3.556786E+06 -8.819831E+05 -3.178149E+05
        57   2 -9.894789E+06 -1.683254E+06 -9.748762E+05 -3.742112E+06 -5.725573E+05 -1.643050E+05
        57   3 -1.018148E+07 -1.693428E+06 -7.500725E+05 -3.611906E+06 -2.501725E+05 -4.484883E+04
        57   4 -8.749069E+06 -2.190601E+06 -1.363402E+06 -2.924004E+06 -8.640607E+05 -3.114527E+05
        57   5 -8.424120E+06 -1.052192E+06 -5.637244E+05 -3.267768E+06 -5.676490E+05 -1.625335E+05
        57   6 -8.602175E+06 -1.205852E+06 -3.451641E+05 -3.296358E+06 -2.582396E+05 -4.785006E+04
        57   7 -7.381307E+06 -1.410768E+06 -9.347260E+05 -2.289706E+06 -8.460925E+05 -3.050535E+05
        57   8 -6.951309E+06 -4.208251E+05 -1.527780E+05 -2.792329E+06 -5.627262E+05 -1.607548E+05
        57   9 -7.020416E+06 -7.183059E+05  5.955038E+04 -2.980165E+06 -2.663289E+05 -5.085604E+04
        57  10 -1.011570E+07 -2.969814E+06 -1.793941E+06 -3.557014E+06 -5.096988E-09 -1.708290E-09
        57  11 -9.895153E+06 -1.683373E+06 -9.755554E+05 -3.742189E+06  3.380774E-09 -1.961909E-09
        57  12 -1.018155E+07 -1.693448E+06 -7.501961E+05 -3.611916E+06 -1.264544E-09  1.227268E-10
        57  13 -8.749907E+06 -2.190911E+06 -1.365013E+06 -2.924223E+06  5.102362E-10 -1.307515E-09
        57  14 -8.424477E+06 -1.052309E+06 -5.643900E+05 -3.267843E+06 -2.733017E-09 -3.714256E-09
        57  15 -8.602248E+06 -1.205872E+06 -3.452957E+05 -3.296369E+06  1.703381E-09 -1.376646E-09
        57  16 -7.382109E+06 -1.411064E+06 -9.362663E+05 -2.289916E+06  5.368672E-11 -1.474546E-10
        57  17 -6.951660E+06 -4.209395E+05 -1.534301E+05 -2.792402E+06 -5.441302E-09 -3.357019E-09
        57  18 -7.020494E+06 -7.183281E+05  5.941044E+04 -2.980176E+06 -5.166816E-09 -4.117430E-09
        57  19 -1.011482E+07 -2.969490E+06 -1.792258E+06 -3.556786E+06  8.819831E+05  3.178149E+05
        57  20 -9.894789E+06 -1.683254E+06 -9.748762E+05 -3.742112E+06  5.725573E+05  1.643050E+05
        57  21 -1.018148E+07 -1.693428E+06 -7.500725E+05 -3.611906E+06  2.501725E+05  4.484883E+04
        57  22 -8.749069E+06 -2.190601E+06 -1.363402E+06 -2.924004E+06  8.640607E+05  3.114527E+05
        57  23 -8.424120E+06 -1.052192E+06 -5.637244E+05 -3.267768E+06  5.676490E+05  1.625335E+05
        57  24 -8.602175E+06 -1.205852E+06 -3.451641E+05 -3.296358E+06  2.582396E+05  4.785006E+04
        57  25 -7.381307E+06 -1.410768E+06 -9.347260E+05 -2.289706E+06  8.460925E+05  3.050535E+05
        57  26 -6.951309E+06 -4.208251E+05 -1.527780E+05 -2.792329E+06  5.627262E+05  1.607548E+05
        57  27 -7.020416E+06 -7.183059E+05  5.955038E+04 -2.980165E+06  2.663289E+05  5.085604E+04
        58   1 -9.896248E+06 -1.907838E+06 -6.532223E+05 -3.623232E+06 -2.067636E+05 -3.558316E+04
        58   2 -9.798819E+06 -1.675964E+06 -4.735004E+05 -3.574558E+06 -1.355707E+05 -9.529475E+03
        58   3 -9.691698E+06 -1.673220E+06 -3.888732E+05 -3.571485E+06 -6.262167E+04  1.186840E+04
        58   4 -8.546191E+06 -1.366441E+06 -2.819678E+05 -3.226516E+06 -2.064116E+05 -3.546869E+04
        58   5 -8.542430E+06 -1.192535E+06 -1.326817E+05 -3.225979E+06 -1.369284E+05 -1.004755E+04
        58   6 -8.528508E+06 -1.247201E+06 -7.695194E+04 -3.271066E+06 -6.570292E+04  1.071145E+04
        58   7 -7.194340E+06 -8.248755E+05  8.911884E+04 -2.828985E+06 -2.060582E+05 -3.535365E+04
        58   8 -7.284492E+06 -7.089983E+05  2.079946E+05 -2.876746E+06 -1.382890E+05 -1.056670E+04
        58   9 -7.363995E+06 -8.211252E+05  2.348499E+05 -2.970139E+06 -6.879053E+04  9.552316E+03
        58  10 -9.896295E+06 -1.907851E+06 -6.533065E+05 -3.623238E+06 -4.535143E-09  2.058367E-09
        58  11 -9.798839E+06 -1.675969E+06 -4.735356E+05 -3.574559E+06  2.918242E-09  2.378402E-09
        58  12 -9.691702E+06 -1.673221E+06 -3.888809E+05 -3.571485E+06  1.449795E-10 -2.983940E-09
        58  13 -8.546237E+06 -1.366454E+06 -2.820514E+05 -3.226522E+06 -2.730610E-09  1.193352E-09
        58  14 -8.542450E+06 -1.192540E+06 -1.327176E+05 -3.225980E+06 -3.447620E-09  9.066512E-10
        58  15 -8.528512E+06 -1.247203E+06 -7.696036E+04 -3.271065E+06 -3.752314E-09 -6.244724E-10
        58  16 -7.194386E+06 -8.248885E+05  8.903565E+04 -2.828991E+06 -1.399692E-09 -3.883445E-10
        58  17 -7.284513E+06 -7.090037E+05  2.079580E+05 -2.876747E+06 -6.918757E-09  8.893657E-10
        58  18 -7.364000E+06 -8.211266E+05  2.348408E+05 -2.970138E+06  1.214731E-09  2.346268E-10
        58  19 -9.896248E+06 -1.907838E+06 -6.532223E+05 -3.623232E+06  2.067636E+05  3.558316E+04
        58  20 -9.798819E+06 -1.675964E+06 -4.735004E+05 -3.574558E+06  1.355707E+05  9.529475E+03
        58  21 -9.691698E+06 -1.673220E+06 -3.888732E+05 -3.571485E+06  6.262167E+04 -1.186840E+04
        58  22 -8.546191E+06 -1.366441E+06 -2.819678E+05 -3.226516E+06  2.064116E+05  3.546869E+04
        58  23 -8.542430E+06 -1.192535E+06 -1.326817E+05 -3.225979E+06  1.369284E+05  1.004755E+04
        58  24 -8.528508E+06 -1.247201E+06 -7.695194E+04 -3.271066E+06  6.570292E+04 -1.071145E+04
        58  25 -7.194340E+06 -8.248755E+05  8.911884E+04 -2.828985E+06  2.060582E+05  3.535365E+04
        58  26 -7.284492E+06 -7.089983E+05  2.079946E+05 -2.876746E+06  1.382890E+05  1.056670E+04
        58  27 -7.363995E+06 -8.211252E+05  2.348499E+05 -2.970139E+06  6.879053E+04 -9.552316E+03
        59   1 -9.408761E+06 -1.614753E+06 -3.022529E+05 -3.516050E+06 -5.088919E+04  1.174951E+04
        59   2 -9.293966E+06 -1.475563E+06 -2.274157E+05 -3.407610E+06 -3.241359E+04  1.161790E+04
        59   3 -9.073400E+06 -1.469086E+06 -1.696335E+05 -3.425871E+06 -1.350588E+04  1.030179E+04
        59   4 -8.513971E+06 -1.273806E+06 -6.058539E+04 -3.271062E+06 -5.316133E+04  1.089668E+04
        59   5 -8.565787E+06 -1.200165E+06 -3.085093E+04 -3.210418E+06 -3.513551E+04  1.060010E+04
        59   6 -8.511762E+06 -1.259124E+06 -1.778750E+04 -3.276478E+06 -1.668263E+04  9.117860E+03
        59   7 -7.618399E+06 -9.328090E+05  1.810097E+05 -3.025749E+06 -5.543706E+04  1.004248E+04
        59   8 -7.837089E+06 -9.247364E+05  1.656663E+05 -3.013014E+06 -3.786096E+04  9.580985E+03
        59   9 -7.949815E+06 -1.049144E+06  1.340306E+05 -3.126962E+06 -1.986258E+04  7.932758E+03
        59  10 -9.408764E+06 -1.614753E+06 -3.022581E+05 -3.516049E+06  7.580869E-10 -5.583764E-10
        59  11 -9.293968E+06 -1.475563E+06 -2.274179E+05 -3.407609E+06  2.547816E-09  1.002130E-09
        59  12 -9.073401E+06 -1.469086E+06 -1.696340E+05 -3.425871E+06  1.357928E-09  4.007530E-10
        59  13 -8.513974E+06 -1.273807E+06 -6.059098E+04 -3.271062E+06  2.650515E-09 -1.707361E-09
        59  14 -8.565789E+06 -1.200166E+06 -3.085349E+04 -3.210418E+06  2.547360E-09 -1.110381E-09
        59  15 -8.511763E+06 -1.259124E+06 -1.778819E+04 -3.276478E+06  5.370294E-09  3.811900E-09
        59  16 -7.618402E+06 -9.328099E+05  1.810037E+05 -3.025749E+06  4.351199E-09 -2.945923E-09
        59  17 -7.837091E+06 -9.247369E+05  1.656634E+05 -3.013014E+06  1.287039E-09  5.812776E-11
        59  18 -7.949815E+06 -1.049144E+06  1.340297E+05 -3.126962E+06  2.274325E-09  1.535570E-09
        59  19 -9.408761E+06 -1.614753E+06 -3.022529E+05 -3.516050E+06  5.088919E+04 -1.174951E+04
        59  20 -9.293966E+06 -1.475563E+06 -2.274157E+05 -3.407610E+06  3.241359E+04 -1.161790E+04
        59  21 -9.073400E+06 -1.469086E+06 -1.696335E+05 -3.425871E+06  1.350588E+04 -1.030179E+04
        59  22 -8.513971E+06 -1.273806E+06 -6.058539E+04 -3.271062E+06  5.316133E+04 -1.089668E+04
        59  23 -8.565787E+06 -1.200165E+06 -3.085093E+04 -3.210418E+06  3.513551E+04 -1.060010E+04
        59  24 -8.511762E+06 -1.259124E+06 -1.778750E+04 -3.276478E+06  1.668263E+04 -9.117860E+03
        59  25 -7.618399E+06 -9.328090E+05  1.810097E+05 -3.025749E+06  5.543706E+04 -1.004248E+04
        59  26 -7.837089E+06 -9.247364E+05  1.656663E+05 -3.013014E+06  3.786096E+04 -9.580985E+03
        59  27 -7.949815E+06 -1.049144E+06  1.340306E+05 -3.126962E+06  1.986258E+04 -7.932758E+03
        60   1 -8.736156E+06 -1.350859E+06 -7.502209E+04 -3.341076E+06 -9.280332E+03  6.625442E+03
        60   2 -8.608615E+06 -1.212118E+06 -1.852448E+04 -3.215238E+06 -2.096506E+03  4.351774E+02
        60   3 -8.353713E+06 -1.205068E+06  3.400082E+04 -3.237990E+06  5.113995E+03 -5.825228E+03
        60   4 -8.507713E+06 -1.264625E+06 -1.407424E+04 -3.279186E+06 -1.237920E+04  5.471926E+03
        60   5 -8.571264E+06 -1.198032E+06 -8.453940E+03 -3.205159E+06 -5.222471E+03 -7.283172E+02
        60   6 -8.507483E+06 -1.263125E+06 -6.779323E+03 -3.279735E+06  1.959414E+03 -6.999104E+03
        60   7 -8.279218E+06 -1.178387E+06  4.686904E+04 -3.217276E+06 -1.547933E+04  4.317936E+03
        60   8 -8.533912E+06 -1.183946E+06  1.616503E+03 -3.195080E+06 -8.348641E+03 -1.891889E+03
        60   9 -8.661231E+06 -1.321181E+06 -4.756139E+04 -3.321471E+06 -1.194292E+03 -8.172652E+03
        60  10 -8.736157E+06 -1.350859E+06 -7.502233E+04 -3.341076E+06  2.825855E-09 -4.498900E-10
        60  11 -8.608615E+06 -1.212118E+06 -1.852449E+04 -3.215238E+06 -1.340972E-09 -4.020588E-09
        60  12 -8.353713E+06 -1.205068E+06  3.400071E+04 -3.237990E+06 -4.675055E-09 -1.449129E-09
        60  13 -8.507713E+06 -1.264625E+06 -1.407459E+04 -3.279186E+06 -2.110105E-09 -6.672446E-10
        60  14 -8.571264E+06 -1.198032E+06 -8.453993E+03 -3.205159E+06 -2.014554E-10  1.562480E-09
        60  15 -8.507483E+06 -1.263125E+06 -6.779422E+03 -3.279735E+06  3.407072E-09  1.927400E-09
        60  16 -8.279218E+06 -1.178387E+06  4.686855E+04 -3.217276E+06  1.199138E-09  4.640978E-09
        60  17 -8.533912E+06 -1.183946E+06  1.616363E+03 -3.195080E+06  4.190334E-09  2.183184E-09
        60  18 -8.661231E+06 -1.321181E+06 -4.756151E+04 -3.321471E+06  1.686918E-09  2.777515E-09
        60  19 -8.736156E+06 -1.350859E+06 -7.502209E+04 -3.341076E+06  9.280332E+03 -6.625442E+03
        60  20 -8.608615E+06 -1.212118E+06 -1.852448E+04 -3.215238E+06  2.096506E+03 -4.351774E+02
        60  21 -8.353713E+06 -1.205068E+06  3.400082E+04 -3.237990E+06 -5.113995E+03  5.825228E+03
        60  22 -8.507713E+06 -1.264625E+06 -1.407424E+04 -3.279186E+06  1.237920E+04 -5.471926E+03
        60  23 -8.571264E+06 -1.198032E+06 -8.453940E+03 -3.205159E+06  5.222471E+03  7.283172E+02
        60  24 -8.507483E+06 -1.263125E+06 -6.779323E+03 -3.279735E+06 -1.959414E+03  6.999104E+03
        60  25 -8.279218E+06 -1.178387E+06  4.686904E+04 -3.217276E+06  1.547933E+04 -4.317936E+03
        60  26 -8.533912E+06 -1.183946E+06  1.616503E+03 -3.195080E+06  8.348641E+03  1.891889E+03
        60  27 -8.661231E+06 -1.321181E+06 -4.756139E+04 -3.321471E+06  1.194292E+03  8.172652E+03
        61   1 -8.020016E+06 -1.075860E+06  1.260380E+05 -3.144818E+06  7.935033E+03 -1.004604E+04
        61   2 -7.905686E+06 -9.518311E+05  1.700313E+05 -3.030368E+06  1.467378E+04 -1.604606E+04
        61   3 -7.675333E+06 -9.468780E+05  2.105593E+05 -3.049685E+06  2.111775E+04 -2.121237E+04
        61   4 -8.510071E+06 -1.260260E+06 -6.713588E+03 -3.276503E+06  4.779487E+03 -1.122148E+04
        61   5 -8.568199E+06 -1.201678E+06 -8.536668E+03 -3.209245E+06  1.184602E+04 -1.710246E+04
        61   6 -8.510396E+06 -1.262252E+06 -1.408882E+04 -3.275779E+06  1.861637E+04 -2.214964E+04
        61   7 -8.999893E+06 -1.444647E+06 -1.394871E+05 -3.408092E+06  1.626704E+03 -1.239589E+04
        61   8 -9.230284E+06 -1.451499E+06 -1.871441E+05 -3.387948E+06  9.021612E+03 -1.815761E+04
        61   9 -9.344777E+06 -1.577585E+06 -2.387991E+05 -3.501594E+06  1.611871E+04 -2.308552E+04
        61  10 -8.020016E+06 -1.075860E+06  1.260377E+05 -3.144818E+06 -1.668945E-09  1.166555E-09
        61  11 -7.905686E+06 -9.518314E+05  1.700304E+05 -3.030368E+06 -2.926152E-09 -3.088247E-09
        61  12 -7.675334E+06 -9.468786E+05  2.105576E+05 -3.049685E+06 -5.417705E-09 -3.297590E-10
        61  13 -8.510071E+06 -1.260260E+06 -6.713866E+03 -3.276502E+06 -2.779392E-09 -1.715402E-09
        61  14 -8.568199E+06 -1.201678E+06 -8.537479E+03 -3.209245E+06  4.193633E-09  3.212923E-09
        61  15 -8.510396E+06 -1.262253E+06 -1.409039E+04 -3.275779E+06  3.798820E-09 -8.879336E-10
        61  16 -8.999894E+06 -1.444647E+06 -1.394874E+05 -3.408092E+06  2.051924E-09  1.008348E-09
        61  17 -9.230284E+06 -1.451500E+06 -1.871448E+05 -3.387948E+06  5.333463E-09  5.277726E-09
        61  18 -9.344778E+06 -1.577586E+06 -2.388006E+05 -3.501594E+06  2.636642E-09  2.440345E-09
        61  19 -8.020016E+06 -1.075860E+06  1.260380E+05 -3.144818E+06 -7.935033E+03  1.004604E+04
        61  20 -7.905686E+06 -9.518311E+05  1.700313E+05 -3.030368E+06 -1.467378E+04  1.604606E+04
        61  21 -7.675333E+06 -9.468780E+05  2.105593E+05 -3.049685E+06 -2.111775E+04  2.121237E+04
        61  22 -8.510071E+06 -1.260260E+06 -6.713588E+03 -3.276503E+06 -4.779487E+03  1.122148E+04
        61  23 -8.568199E+06 -1.201678E+06 -8.536668E+03 -3.209245E+06 -1.184602E+04  1.710246E+04
        61  24 -8.510396E+06 -1.262252E+06 -1.408882E+04 -3.275779E+06 -1.861637E+04  2.214964E+04
        61  25 -8.999893E+06 -1.444647E+06 -1.394871E+05 -3.408092E+06 -1.626704E+03  1.239589E+04
        61  26 -9.230284E+06 -1.451499E+06 -1.871441E+05 -3.387948E+06 -9.021612E+03  1.815761E+04
        61  27 -9.344777E+06 -1.577585E+06 -2.387991E+05 -3.501594E+06 -1.611871E+04  2.308552E+04
        62   1 -7.415345E+06 -8.364734E+05  2.801437E+05 -2.970478E+06  2.515052E+04 -2.393361E+04
        62   2 -7.338336E+06 -7.483746E+05  2.977665E+05 -2.890172E+06  4.231746E+04 -2.379466E+04
        62   3 -7.187865E+06 -7.577432E+05  2.997417E+05 -2.895650E+06  5.884545E+04 -2.189601E+04
        62   4 -8.519200E+06 -1.251676E+06 -1.772784E+04 -3.267353E+06  2.257687E+04 -2.490074E+04
        62   5 -8.556975E+06 -1.210235E+06 -3.104111E+04 -3.221714E+06  4.041638E+04 -2.451400E+04
        62   6 -8.521451E+06 -1.266435E+06 -6.056564E+04 -3.261874E+06  5.761323E+04 -2.236717E+04
        62   7 -9.621864E+06 -1.666809E+06 -3.157078E+05 -3.563746E+06  2.000831E+04 -2.586599E+04
        62   8 -9.774164E+06 -1.672005E+06 -3.599818E+05 -3.552660E+06  3.851940E+04 -2.523180E+04
        62   9 -9.853302E+06 -1.775015E+06 -4.210337E+05 -3.627376E+06  5.638386E+04 -2.283726E+04
        62  10 -7.415346E+06 -8.364742E+05  2.801414E+05 -2.970477E+06  2.031465E-09  2.156620E-09
        62  11 -7.338338E+06 -7.483757E+05  2.977621E+05 -2.890171E+06  3.035649E-09  1.447439E-09
        62  12 -7.187869E+06 -7.577446E+05  2.997342E+05 -2.895649E+06  5.774323E-09 -7.660737E-10
        62  13 -8.519201E+06 -1.251677E+06 -1.772996E+04 -3.267353E+06  4.570589E-09 -2.651909E-09
        62  14 -8.556977E+06 -1.210236E+06 -3.104532E+04 -3.221714E+06  2.201591E-09 -7.712144E-10
        62  15 -8.521454E+06 -1.266436E+06 -6.057287E+04 -3.261873E+06 -1.561853E-09 -3.285283E-10
        62  16 -9.621864E+06 -1.666810E+06 -3.157098E+05 -3.563745E+06 -1.053623E-09 -1.571650E-10
        62  17 -9.774166E+06 -1.672006E+06 -3.599858E+05 -3.552659E+06 -1.851628E-09 -8.680406E-10
        62  18 -9.853305E+06 -1.775017E+06 -4.210407E+05 -3.627375E+06  2.207131E-09  1.870036E-09
        62  19 -7.415345E+06 -8.364734E+05  2.801437E+05 -2.970478E+06 -2.515052E+04  2.393361E+04
        62  20 -7.338336E+06 -7.483746E+05  2.977665E+05 -2.890172E+06 -4.231746E+04  2.379466E+04
        62  21 -7.187865E+06 -7.577432E+05  2.997417E+05 -2.895650E+06 -5.884545E+04  2.189601E+04
        62  22 -8.519200E+06 -1.251676E+06 -1.772784E+04 -3.267353E+06 -2.257687E+04  2.490074E+04
        62  23 -8.556975E+06 -1.210235E+06 -3.104111E+04 -3.221714E+06 -4.041638E+04  2.451400E+04
        62  24 -8.521451E+06 -1.266435E+06 -6.056564E+04 -3.261874E+06 -5.761323E+04  2.236717E+04
        62  25 -9.621864E+06 -1.666809E+06 -3.157078E+05 -3.563746E+06 -2.000831E+04  2.586599E+04
        62  26 -9.774164E+06 -1.672005E+06 -3.599818E+05 -3.552660E+06 -3.851940E+04  2.523180E+04
        62  27 -9.853302E+06 -1.775015E+06 -4.210337E+05 -3.627376E+06 -5.638386E+04  2.283726E+04
        63   1 -7.052149E+06 -6.859428E+05  3.220634E+05 -2.866941E+06  7.147176E+04 -1.977037E+04
        63   2 -7.022253E+06 -6.258162E+05  2.755036E+05 -2.821859E+06  1.399550E+05  3.441155E+03
        63   3 -7.030266E+06 -7.435320E+05  1.371894E+05 -2.764751E+06  2.066885E+05  3.128390E+04
        63   4 -8.539416E+06 -1.236570E+06 -7.698384E+04 -3.258237E+06  6.952458E+04 -2.051160E+04
        63   5 -8.529150E+06 -1.206694E+06 -1.328840E+05 -3.241897E+06  1.396962E+05  3.332399E+03
        63   6 -8.557293E+06 -1.355251E+06 -2.820680E+05 -3.213504E+06  2.081135E+05  3.180584E+04
        63   7 -1.002452E+07 -1.787092E+06 -4.762269E+05 -3.648685E+06  6.758245E+04 -2.125106E+04
        63   8 -1.003383E+07 -1.787416E+06 -5.414764E+05 -3.660994E+06  1.394378E+05  3.223762E+03
        63   9 -1.008203E+07 -1.966757E+06 -7.015402E+05 -3.661217E+06  2.095340E+05  3.232586E+04
        63  10 -7.052155E+06 -6.859446E+05  3.220530E+05 -2.866940E+06  3.658990E-09 -2.138867E-09
        63  11 -7.022274E+06 -6.258216E+05  2.754664E+05 -2.821859E+06 -1.994711E-09 -2.781760E-09
        63  12 -7.030313E+06 -7.435448E+05  1.371063E+05 -2.764756E+06 -2.998905E-10  6.505069E-10
        63  13 -8.539422E+06 -1.236572E+06 -7.699380E+04 -3.258236E+06  3.462690E-09 -4.363954E-10
        63  14 -8.529171E+06 -1.206700E+06 -1.329211E+05 -3.241898E+06  2.103566E-09  6.368004E-10
        63  15 -8.557340E+06 -1.355264E+06 -2.821526E+05 -3.213509E+06 -3.941137E-09  3.860457E-09
        63  16 -1.002453E+07 -1.787093E+06 -4.762364E+05 -3.648684E+06  1.090625E-09  1.372889E-09
        63  17 -1.003385E+07 -1.787421E+06 -5.415135E+05 -3.660994E+06 -2.574003E-09  2.327441E-09
        63  18 -1.008208E+07 -1.966770E+06 -7.016261E+05 -3.661223E+06 -1.763287E-09  2.449858E-09
        63  19 -7.052149E+06 -6.859428E+05  3.220634E+05 -2.866941E+06 -7.147176E+04  1.977037E+04
        63  20 -7.022253E+06 -6.258162E+05  2.755036E+05 -2.821859E+06 -1.399550E+05 -3.441155E+03
        63  21 -7.030266E+06 -7.435320E+05  1.371894E+05 -2.764751E+06 -2.066885E+05 -3.128390E+04
        63  22 -8.539416E+06 -1.236570E+06 -7.698384E+04 -3.258237E+06 -6.952458E+04  2.051160E+04
        63  23 -8.529150E+06 -1.206694E+06 -1.328840E+05 -3.241897E+06 -1.396962E+05 -3.332399E+03
        63  24 -8.557293E+06 -1.355251E+06 -2.820680E+05 -3.213504E+06 -2.081135E+05 -3.180584E+04
        63  25 -1.002452E+07 -1.787092E+06 -4.762269E+05 -3.648685E+06 -6.758245E+04  2.125106E+04
        63  26 -1.003383E+07 -1.787416E+06 -5.414764E+05 -3.660994E+06 -1.394378E+05 -3.223762E+03
        63  27 -1.008203E+07 -1.966757E+06 -7.015402E+05 -3.661217E+06 -2.095340E+05 -3.232586E+04
        64   1 -6.997293E+06 -6.907505E+05  6.904646E+04 -2.953441E+06  2.649355E+05  4.909945E+04
        64   2 -6.980752E+06 -4.492047E+05 -1.643805E+05 -2.818624E+06  5.614659E+05  1.638510E+05
        64   3 -7.520826E+06 -1.440081E+06 -9.692066E+05 -2.305725E+06  8.463184E+05  3.090284E+05
        64   4 -8.614160E+06 -1.194242E+06 -3.454291E+05 -3.283066E+06  2.589713E+05  4.687445E+04
        64   5 -8.408627E+06 -1.067277E+06 -5.640309E+05 -3.284890E+06  5.669507E+05  1.658617E+05
        64   6 -8.763231E+06 -2.176959E+06 -1.364220E+06 -2.908210E+06  8.633304E+05  3.151200E+05
        64   7 -1.022847E+07 -1.697759E+06 -7.601092E+05 -3.611999E+06  2.530236E+05  4.465308E+04
        64   8 -9.834483E+06 -1.685049E+06 -9.638746E+05 -3.750110E+06  5.724200E+05  1.678648E+05
        64   9 -1.000394E+07 -2.912945E+06 -1.759378E+06 -3.509365E+06  8.803029E+05  3.211779E+05
        64  10 -6.997369E+06 -6.907723E+05  6.890829E+04 -2.953452E+06  1.226703E-09 -7.767665E-10
        64  11 -6.981101E+06 -4.493199E+05 -1.650319E+05 -2.818699E+06  4.153869E-10 -1.124439E-08
        64  12 -7.521629E+06 -1.440380E+06 -9.707526E+05 -2.305937E+06 -4.592728E-09 -3.394704E-09
        64  13 -8.614234E+06 -1.194263E+06 -3.455613E+05 -3.283076E+06  5.954403E-10  3.973397E-09
        64  14 -8.408983E+06 -1.067395E+06 -5.646971E+05 -3.284966E+06 -8.363819E-09 -1.393273E-09
        64  15 -8.764068E+06 -2.177271E+06 -1.365832E+06 -2.908431E+06  2.412088E-10 -9.547318E-10
        64  16 -1.022854E+07 -1.697779E+06 -7.602355E+05 -3.612008E+06 -2.296337E-09  1.386047E-09
        64  17 -9.834848E+06 -1.685170E+06 -9.645556E+05 -3.750188E+06 -5.660793E-09  3.755008E-09
        64  18 -1.000481E+07 -2.913270E+06 -1.761058E+06 -3.509595E+06 -9.075242E-10  7.633706E-10
        64  19 -6.997293E+06 -6.907505E+05  6.904646E+04 -2.953441E+06 -2.649355E+05 -4.909945E+04
        64  20 -6.980752E+06 -4.492047E+05 -1.643805E+05 -2.818624E+06 -5.614659E+05 -1.638510E+05
        64  21 -7.520826E+06 -1.440081E+06 -9.692066E+05 -2.305725E+06 -8.463184E+05 -3.090284E+05
        64  22 -8.614160E+06 -1.194242E+06 -3.454291E+05 -3.283066E+06 -2.589713E+05 -4.687445E+04
        64  23 -8.408627E+06 -1.067277E+06 -5.640309E+05 -3.284890E+06 -5.669507E+05 -1.658617E+05
        64  24 -8.763231E+06 -2.176959E+06 -1.364220E+06 -2.908210E+06 -8.633304E+05 -3.151200E+05
        64  25 -1.022847E+07 -1.697759E+06 -7.601092E+05 -3.611999E+06 -2.530236E+05 -4.465308E+04
        64  26 -9.834483E+06 -1.685049E+06 -9.638746E+05 -3.750110E+06 -5.724200E+05 -1.678648E+05
        64  27 -1.000394E+07 -2.912945E+06 -1.759378E+06 -3.509365E+06 -8.803029E+05 -3.211779E+05
        65   1 -1.649501E+06 -2.502804E+05 -2.035710E+05 -1.423722E+04  1.198191E+05  1.437127E+04
        65   2 -1.598449E+06 -4.127676E+05 -2.899492E+05 -2.916585E+02  8.465945E+04  4.079831E+04
        65   3 -1.486219E+06 -3.720417E+05 -3.014998E+05 -6.617744E+04  4.969326E+04  3.674932E+04
        65   4 -2.401748E+04  1.551942E+05  1.996791E+05 -4.481667E+04  1.361230E+05  1.447413E+04
        65   5 -5.555749E+04 -2.877804E+04  8.604524E+04 -4.369571E+03  8.917874E+04  4.081621E+04
        65   6 -2.401386E+04 -7.758728E+03  5.528832E+04 -4.373905E+04  4.243346E+04  3.671266E+04
        65   7  1.603873E+06  5.604752E+05  6.027337E+05 -7.548048E+04  1.524692E+05  1.457525E+04
        65   8  1.489509E+06  3.550361E+05  4.618668E+05 -8.460765E+03  9.370903E+04  4.083403E+04
        65   9  1.440145E+06  3.563679E+05  4.119212E+05 -2.124968E+04  3.515647E+04  3.667552E+04
        65  10 -1.649517E+06 -2.502844E+05 -2.035984E+05 -1.423861E+04 -3.766964E-09  2.162737E-09
        65  11 -1.598457E+06 -4.127713E+05 -2.899658E+05 -2.944430E+02 -1.196692E-09 -3.422191E-09
        65  12 -1.486222E+06 -3.720438E+05 -3.015070E+05 -6.617891E+04  7.465675E-10 -1.912290E-09
        65  13 -2.403744E+04  1.551890E+05  1.996438E+05 -4.481826E+04 -4.552941E-12  7.830022E-10
        65  14 -5.556648E+04 -2.878197E+04  8.602717E+04 -4.372503E+03 -1.798588E-09 -8.262255E-09
        65  15 -2.401615E+04 -7.760659E+03  5.528240E+04 -4.374030E+04  3.895211E-10 -1.244010E-09
        65  16  1.603848E+06  5.604687E+05  6.026897E+05 -7.548227E+04  5.430841E-10 -8.673924E-10
        65  17  1.489500E+06  3.550319E+05  4.618472E+05 -8.463844E+03  2.851435E-09 -1.666584E-09
        65  18  1.440143E+06  3.563661E+05  4.119163E+05 -2.125072E+04 -3.581100E-09 -3.045836E-09
        65  19 -1.649501E+06 -2.502804E+05 -2.035710E+05 -1.423722E+04 -1.198191E+05 -1.437127E+04
        65  20 -1.598449E+06 -4.127676E+05 -2.899492E+05 -2.916585E+02 -8.465945E+04 -4.079831E+04
        65  21 -1.486219E+06 -3.720417E+05 -3.014998E+05 -6.617744E+04 -4.969326E+04 -3.674932E+04
        65  22 -2.401748E+04  1.551942E+05  1.996791E+05 -4.481667E+04 -1.361230E+05 -1.447413E+04
        65  23 -5.555749E+04 -2.877804E+04  8.604524E+04 -4.369571E+03 -8.917874E+04 -4.081621E+04
        65  24 -2.401386E+04 -7.758728E+03  5.528832E+04 -4.373905E+04 -4.243346E+04 -3.671266E+04
        65  25  1.603873E+06  5.604752E+05  6.027337E+05 -7.548048E+04 -1.524692E+05 -1.457525E+04
        65  26  1.489509E+06  3.550361E+05  4.618668E+05 -8.460765E+03 -9.370903E+04 -4.083403E+04
        65  27  1.440145E+06  3.563679E+05  4.119212E+05 -2.124968E+04 -3.515647E+04 -3.667552E+04
        66   1 -1.343874E+06 -3.073736E+05 -2.745126E+05 -4.349942E+04  3.300858E+04  3.037548E+04
        66   2 -1.268041E+06 -3.093556E+05 -2.771984E+05 -5.827684E+03  2.264904E+04  3.027781E+04
        66   3 -1.181128E+06 -2.864334E+05 -2.661834E+05 -4.784184E+04  1.229054E+04  2.715565E+04
        66   4 -3.539635E+04  1.847886E+04  4.530566E+04 -4.408526E+04  3.361411E+04  3.037346E+04
        66   5 -4.102274E+04 -3.867392E+03  2.224234E+04 -4.211745E+03  2.207355E+04  3.027224E+04
        66   6 -3.538168E+04 -1.129030E+03  1.368122E+04 -4.401403E+04  1.053541E+04  2.714911E+04
        66   7  1.274644E+06  3.442047E+05  3.649989E+05 -4.467379E+04  3.422086E+04  3.037144E+04
        66   8  1.187371E+06  3.015096E+05  3.215735E+05 -2.593591E+03  2.149689E+04  3.026667E+04
        66   9  1.111563E+06  2.840783E+05  2.934501E+05 -4.017965E+04  8.777027E+03  2.714256E+04
        66  10 -1.343875E+06 -3.073749E+05 -2.745164E+05 -4.350023E+04 -5.030658E-09 -3.400116E-09
        66  11 -1.268042E+06 -3.093567E+05 -2.772011E+05 -5.828236E+03  2.214916E-09  3.128924E-09
        66  12 -1.181129E+06 -2.864342E+05 -2.661850E+05 -4.784211E+04 -4.061445E-10 -1.100981E-09
        66  13 -3.539781E+04  1.847756E+04  4.530181E+04 -4.408609E+04  2.152522E-09 -1.762669E-09
        66  14 -4.102351E+04 -3.868507E+03  2.223971E+04 -4.212283E+03 -4.048532E-10  3.628589E-10
        66  15 -3.538199E+04 -1.129851E+03  1.367963E+04 -4.401426E+04 -6.289501E-11 -8.891213E-10
        66  16  1.274643E+06  3.442034E+05  3.649950E+05 -4.467463E+04 -5.681835E-11  7.104567E-10
        66  17  1.187370E+06  3.015085E+05  3.215709E+05 -2.594114E+03 -1.098274E-09 -3.124935E-09
        66  18  1.111563E+06  2.840775E+05  2.934486E+05 -4.017985E+04 -1.182210E-09  1.441834E-10
        66  19 -1.343874E+06 -3.073736E+05 -2.745126E+05 -4.349942E+04 -3.300858E+04 -3.037548E+04
        66  20 -1.268041E+06 -3.093556E+05 -2.771984E+05 -5.827684E+03 -2.264904E+04 -3.027781E+04
        66  21 -1.181128E+06 -2.864334E+05 -2.661834E+05 -4.784184E+04 -1.229054E+04 -2.715565E+04
        66  22 -3.539635E+04  1.847886E+04  4.530566E+04 -4.408526E+04 -3.361411E+04 -3.037346E+04
        66  23 -4.102274E+04 -3.867392E+03  2.224234E+04 -4.211745E+03 -2.207355E+04 -3.027224E+04
        66  24 -3.538168E+04 -1.129030E+03  1.368122E+04 -4.401403E+04 -1.053541E+04 -2.714911E+04
        66  25  1.274644E+06  3.442047E+05  3.649989E+05 -4.467379E+04 -3.422086E+04 -3.037144E+04
        66  26  1.187371E+06  3.015096E+05  3.215735E+05 -2.593591E+03 -2.149689E+04 -3.026667E+04
        66  27  1.111563E+06  2.840783E+05  2.934501E+05 -4.017965E+04 -8.777027E+03 -2.714256E+04
        67   1 -1.028263E+06 -2.447652E+05 -2.309845E+05 -4.476546E+04  9.318022E+03  2.494611E+04
        67   2 -9.481089E+05 -2.270260E+05 -2.163843E+05 -4.574687E+03  6.606122E+03  2.222702E+04
        67   3 -8.650886E+05 -2.062696E+05 -1.988994E+05 -4.433821E+04  3.887118E+03  1.920509E+04
        67   4 -3.714531E+04  1.926685E+03  1.071946E+04 -4.409743E+04  8.343656E+03  2.494215E+04
        67   5 -3.857883E+04 -6.193561E+02  5.576928E+03 -4.122479E+03  5.511491E+03  2.222411E+04
        67   6 -3.713365E+04 -1.289992E+02  3.399881E+03 -4.409459E+04  2.672577E+03  1.920346E+04
        67   7  9.548696E+05  2.485461E+05  2.523520E+05 -4.342861E+04  7.367727E+03  2.493819E+04
        67   8  8.717063E+05  2.257262E+05  2.274779E+05 -3.669741E+03  4.415254E+03  2.222120E+04
        67   9  7.914467E+05  2.059609E+05  2.056491E+05 -4.385062E+04  1.456416E+03  1.920183E+04
        67  10 -1.028264E+06 -2.447659E+05 -2.309858E+05 -4.476565E+04 -3.291150E-09 -1.327906E-10
        67  11 -9.481091E+05 -2.270265E+05 -2.163853E+05 -4.574805E+03  4.074487E-10 -1.503554E-10
        67  12 -8.650887E+05 -2.062700E+05 -1.989001E+05 -4.433827E+04  1.306617E-09  8.019890E-10
        67  13 -3.714555E+04  1.925998E+03  1.071816E+04 -4.409760E+04  5.092022E-13 -7.933633E-10
        67  14 -3.857900E+04 -6.198947E+02  5.575943E+03 -4.122577E+03 -3.346412E-09  2.403844E-10
        67  15 -3.713375E+04 -1.293971E+02  3.399175E+03 -4.409463E+04  3.492789E-09  6.525330E-10
        67  16  9.548694E+05  2.485454E+05  2.523507E+05 -4.342876E+04  4.219476E-09 -9.186909E-10
        67  17  8.717062E+05  2.257256E+05  2.274770E+05 -3.669820E+03  2.492483E-10 -1.298315E-09
        67  18  7.914466E+05  2.059605E+05  2.056485E+05 -4.385064E+04  1.636297E-09 -3.553128E-10
        67  19 -1.028263E+06 -2.447652E+05 -2.309845E+05 -4.476546E+04 -9.318022E+03 -2.494611E+04
        67  20 -9.481089E+05 -2.270260E+05 -2.163843E+05 -4.574687E+03 -6.606122E+03 -2.222702E+04
        67  21 -8.650886E+05 -2.062696E+05 -1.988994E+05 -4.433821E+04 -3.887118E+03 -1.920509E+04
        67  22 -3.714531E+04  1.926685E+03  1.071946E+04 -4.409743E+04 -8.343656E+03 -2.494215E+04
        67  23 -3.857883E+04 -6.193561E+02  5.576928E+03 -4.122479E+03 -5.511491E+03 -2.222411E+04
        67  24 -3.713365E+04 -1.289992E+02  3.399881E+03 -4.409459E+04 -2.672577E+03 -1.920346E+04
        67  25  9.548696E+05  2.485461E+05  2.523520E+05 -4.342861E+04 -7.367727E+03 -2.493819E+04
        67  26  8.717063E+05  2.257262E+05  2.274779E+05 -3.669741E+03 -4.415254E+03 -2.222120E+04
        67  27  7.914467E+05  2.059609E+05  2.056491E+05 -4.385062E+04 -1.456416E+03 -1.920183E+04
        68   1 -7.103842E+05 -1.672762E+05 -1.613767E+05 -4.395723E+04  3.263017E+03  1.740609E+04
        68   2 -6.289571E+05 -1.472174E+05 -1.428971E+05 -3.748452E+03  2.608772E+03  1.442199E+04
        68   3 -5.467999E+05 -1.266914E+05 -1.237672E+05 -4.365686E+04  1.949765E+03  1.140709E+04
        68   4 -3.754130E+04  1.396512E+02  2.557498E+03 -4.413208E+04  2.125427E+03  1.740528E+04
        68   5 -3.790051E+04 -1.151938E+02  1.320011E+03 -4.075817E+03  1.458632E+03  1.442202E+04
        68   6 -3.753364E+04  9.991305E+01  7.415927E+02 -4.413202E+04  7.871610E+02  1.140799E+04
        68   7  6.357149E+05  1.675221E+05  1.664588E+05 -4.430707E+04  9.866047E+02  1.740447E+04
        68   8  5.534748E+05  1.469613E+05  1.455117E+05 -4.403430E+03  3.073974E+02  1.442205E+04
        68   9  4.719692E+05  1.268720E+05  1.252314E+05 -4.460748E+04 -3.763958E+02  1.140889E+04
        68  10 -7.103843E+05 -1.672765E+05 -1.613772E+05 -4.395727E+04 -5.942637E-10  4.618750E-10
        68  11 -6.289571E+05 -1.472177E+05 -1.428975E+05 -3.748483E+03  1.747825E-09  6.031150E-10
        68  12 -5.468000E+05 -1.266915E+05 -1.237674E+05 -4.365688E+04 -9.272111E-11  3.778011E-10
        68  13 -3.754139E+04  1.393247E+02  2.556921E+03 -4.413211E+04  2.171780E-09  1.509876E-09
        68  14 -3.790057E+04 -1.154177E+02  1.319616E+03 -4.075834E+03  3.322653E-09  2.029790E-11
        68  15 -3.753367E+04  9.977314E+01  7.413470E+02 -4.413203E+04 -5.108938E-10 -9.588580E-10
        68  16  6.357149E+05  1.675218E+05  1.664582E+05 -4.430708E+04 -1.328087E-09 -3.405229E-10
        68  17  5.534747E+05  1.469610E+05  1.455113E+05 -4.403433E+03 -7.073659E-10  1.343845E-10
        68  18  4.719691E+05  1.268719E+05  1.252312E+05 -4.460748E+04 -5.623772E-10 -1.070157E-09
        68  19 -7.103842E+05 -1.672762E+05 -1.613767E+05 -4.395723E+04 -3.263017E+03 -1.740609E+04
        68  20 -6.289571E+05 -1.472174E+05 -1.428971E+05 -3.748452E+03 -2.608772E+03 -1.442199E+04
        68  21 -5.467999E+05 -1.266914E+05 -1.237672E+05 -4.365686E+04 -1.949765E+03 -1.140709E+04
        68  22 -3.754130E+04  1.396512E+02  2.557498E+03 -4.413208E+04 -2.125427E+03 -1.740528E+04
        68  23 -3.790051E+04 -1.151938E+02  1.320011E+03 -4.075817E+03 -1.458632E+03 -1.442202E+04
        68  24 -3.753364E+04  9.991305E+01  7.415927E+02 -4.413202E+04 -7.871610E+02 -1.140799E+04
        68  25  6.357149E+05  1.675221E+05  1.664588E+05 -4.430707E+04 -9.866047E+02 -1.740447E+04
        68  26  5.534748E+05  1.469613E+05  1.455117E+05 -4.403430E+03 -3.073974E+02 -1.442205E+04
        68  27  4.719692E+05  1.268720E+05  1.252314E+05 -4.460748E+04  3.763958E+02 -1.140889E+04
        69   1 -3.915359E+05 -8.791792E+04 -8.560856E+04 -4.378612E+04  1.829915E+03  9.644572E+03
        69   2 -3.095518E+05 -6.765666E+04 -6.627627E+04 -3.721932E+03  1.790650E+03  6.630024E+03
        69   3 -2.276999E+05 -4.721849E+04 -4.691466E+04 -4.386800E+04  1.749251E+03  3.626007E+03
        69   4 -3.768487E+04  8.570398E+01  4.650778E+02 -4.415328E+04  6.710258E+02  9.645945E+03
        69   5 -3.761426E+04  1.074879E+01  6.400943E+01 -4.049239E+03  6.357027E+02  6.631769E+03
        69   6 -3.768133E+04  1.128269E+02 -3.097860E+02 -4.415326E+04  5.982509E+02  3.628146E+03
        69   7  3.162805E+05  8.808011E+04  8.652965E+04 -4.452061E+04 -4.885224E+02  9.647318E+03
        69   8  2.343908E+05  6.767270E+04  6.639891E+04 -4.376662E+03 -5.197490E+02  6.633516E+03
        69   9  1.523701E+05  4.744146E+04  4.629244E+04 -4.443860E+04 -5.531008E+02  3.630286E+03
        69  10 -3.915359E+05 -8.791802E+04 -8.560874E+04 -4.378614E+04 -5.498508E-10 -3.346611E-10
        69  11 -3.095519E+05 -6.765671E+04 -6.627635E+04 -3.721941E+03  2.381643E-09 -7.179462E-10
        69  12 -2.276999E+05 -4.721850E+04 -4.691469E+04 -4.386800E+04 -1.701962E-09 -8.773104E-12
        69  13 -3.768489E+04  8.560395E+01  4.649021E+02 -4.415329E+04  1.436225E-11  1.418877E-09
        69  14 -3.761427E+04  1.070145E+01  6.392603E+01 -4.049243E+03  2.313922E-10  1.846108E-09
        69  15 -3.768134E+04  1.128127E+02 -3.098114E+02 -4.415326E+04 -2.653038E-09 -2.366703E-09
        69  16  3.162804E+05  8.808001E+04  8.652947E+04 -4.452061E+04 -4.818226E-10 -6.952038E-10
        69  17  2.343908E+05  6.767265E+04  6.639882E+04 -4.376660E+03 -3.298525E-10  2.280347E-10
        69  18  1.523701E+05  4.744145E+04  4.629242E+04 -4.443860E+04  6.012611E-09  5.570451E-10
        69  19 -3.915359E+05 -8.791792E+04 -8.560856E+04 -4.378612E+04 -1.829915E+03 -9.644572E+03
        69  20 -3.095518E+05 -6.765666E+04 -6.627627E+04 -3.721932E+03 -1.790650E+03 -6.630024E+03
        69  21 -2.276999E+05 -4.721849E+04 -4.691466E+04 -4.386800E+04 -1.749251E+03 -3.626007E+03
        69  22 -3.768487E+04  8.570398E+01  4.650778E+02 -4.415328E+04 -6.710258E+02 -9.645945E+03
        69  23 -3.761426E+04  1.074879E+01  6.400943E+01 -4.049239E+03 -6.357027E+02 -6.631769E+03
        69  24 -3.768133E+04  1.128269E+02 -3.097860E+02 -4.415326E+04 -5.982509E+02 -3.628146E+03
        69  25  3.162805E+05  8.808011E+04  8.652965E+04 -4.452061E+04  4.885224E+02 -9.647318E+03
        69  26  2.343908E+05  6.767270E+04  6.639891E+04 -4.376662E+03  5.197490E+02 -6.633516E+03
        69  27  1.523701E+05  4.744146E+04  4.629244E+04 -4.443860E+04  5.531008E+02 -3.630286E+03
        70   1 -7.219341E+04 -8.338877E+03 -8.672304E+03 -4.418068E+04  1.857050E+03  1.846131E+03
        70   2  1.003349E+04  1.193529E+04  1.051906E+04 -4.093941E+03  2.336143E+03 -1.176627E+03
        70   3  9.173916E+04  3.182814E+04  2.922421E+04 -4.424184E+04  2.815952E+03 -4.049833E+03
        70   4 -3.775984E+04  1.773336E+02 -5.258673E+02 -4.415891E+04  6.680019E+02  1.848469E+03
        70   5 -3.749083E+04  1.125750E+02 -1.069159E+03 -4.041891E+03  1.204395E+03 -1.174480E+03
        70   6 -3.776048E+04 -3.433296E+02 -2.138431E+03 -4.415989E+04  1.741442E+03 -4.047850E+03
        70   7 -3.325180E+03  8.693460E+03  7.620492E+03 -4.413714E+04 -5.211117E+02  1.850807E+03
        70   8 -8.501309E+04 -1.171030E+04 -1.265754E+04 -3.989845E+03  7.273343E+01 -1.172333E+03
        70   9 -1.672448E+05 -3.251602E+04 -3.350227E+04 -4.407795E+04  6.671543E+02 -4.045867E+03
        70  10 -7.219341E+04 -8.338882E+03 -8.672317E+03 -4.418068E+04 -2.123999E-09  1.846186E-09
        70  11  1.003348E+04  1.193528E+04  1.051905E+04 -4.093938E+03 -3.769044E-09 -1.515797E-09
        70  12  9.173914E+04  3.182812E+04  2.922416E+04 -4.424183E+04 -1.541330E-09  7.829921E-10
        70  13 -3.775984E+04  1.773298E+02 -5.258746E+02 -4.415891E+04 -1.349669E-11 -1.329880E-09
        70  14 -3.749083E+04  1.125731E+02 -1.069164E+03 -4.041890E+03  2.237444E-10 -3.423404E-09
        70  15 -3.776049E+04 -3.433480E+02 -2.138468E+03 -4.415988E+04  3.834835E-09  1.336807E-09
        70  16 -3.325181E+03  8.693456E+03  7.620485E+03 -4.413714E+04 -1.248222E-11  2.549542E-09
        70  17 -8.501309E+04 -1.171030E+04 -1.265754E+04 -3.989845E+03  2.528435E-09 -2.912326E-09
        70  18 -1.672448E+05 -3.251604E+04 -3.350230E+04 -4.407795E+04  2.659220E-10 -1.158420E-09
        70  19 -7.219341E+04 -8.338877E+03 -8.672304E+03 -4.418068E+04 -1.857050E+03 -1.846131E+03
        70  20  1.003349E+04  1.193529E+04  1.051906E+04 -4.093941E+03 -2.336143E+03  1.176627E+03
        70  21  9.173916E+04  3.182814E+04  2.922421E+04 -4.424184E+04 -2.815952E+03  4.049833E+03
        70  22 -3.775984E+04  1.773336E+02 -5.258673E+02 -4.415891E+04 -6.680019E+02 -1.848469E+03
        70  23 -3.749083E+04  1.125750E+02 -1.069159E+03 -4.041891E+03 -1.204395E+03  1.174480E+03
        70  24 -3.776048E+04 -3.433296E+02 -2.138431E+03 -4.415989E+04 -1.741442E+03  4.047850E+03
        70  25 -3.325180E+03  8.693460E+03  7.620492E+03 -4.413714E+04  5.211117E+02 -1.850807E+03
        70  26 -8.501309E+04 -1.171030E+04 -1.265754E+04 -3.989845E+03 -7.273343E+01  1.172333E+03
        70  27 -1.672448E+05 -3.251602E+04 -3.350227E+04 -4.407795E+04 -6.671543E+02  4.045867E+03
        71   1  2.470977E+05  7.131029E+04  6.704472E+04 -4.500161E+04  3.632128E+03 -6.031593E+03
        71   2  3.297894E+05  9.198756E+04  8.487886E+04 -4.235681E+03  5.417479E+03 -9.089552E+03
        71   3  4.110080E+05  1.077967E+05  1.003247E+05 -4.363054E+04  7.207687E+03 -1.063769E+04
        71   4 -3.801169E+04  3.404814E+02 -2.717774E+03 -4.414155E+04  2.167859E+03 -6.029130E+03
        71   5 -3.722356E+04  7.050692E+02 -4.587639E+03 -4.062343E+03  4.531915E+03 -9.088590E+03
        71   6 -3.801656E+04 -3.900307E+03 -9.248532E+03 -4.414697E+04  6.900594E+03 -1.063782E+04
        71   7 -3.230470E+05 -7.063534E+04 -7.248620E+04 -4.328185E+04  7.042600E+02 -6.026670E+03
        71   8 -4.041137E+05 -9.058735E+04 -9.406393E+04 -3.889062E+03  3.646872E+03 -9.087628E+03
        71   9 -4.868573E+05 -1.156122E+05 -1.188364E+05 -4.466297E+04  6.593722E+03 -1.063795E+04
        71  10  2.470977E+05  7.131024E+04  6.704463E+04 -4.500160E+04 -9.020225E-11 -1.088241E-09
        71  11  3.297894E+05  9.198746E+04  8.487865E+04 -4.235642E+03 -1.638539E-09 -2.156087E-10
        71  12  4.110079E+05  1.077965E+05  1.003244E+05 -4.363048E+04 -5.054535E-09  3.498758E-10
        71  13 -3.801170E+04  3.404411E+02 -2.717851E+03 -4.414154E+04 -1.443015E-12  1.090654E-09
        71  14 -3.722360E+04  7.049750E+02 -4.587833E+03 -4.062310E+03  6.641614E-09  1.279017E-10
        71  15 -3.801664E+04 -3.900441E+03 -9.248834E+03 -4.414691E+04  3.272468E-09  7.667932E-10
        71  16 -3.230471E+05 -7.063537E+04 -7.248627E+04 -4.328185E+04 -3.157594E-09  1.002480E-09
        71  17 -4.041138E+05 -9.058744E+04 -9.406411E+04 -3.889035E+03  1.951956E-09  2.080119E-09
        71  18 -4.868574E+05 -1.156123E+05 -1.188367E+05 -4.466291E+04  4.542197E-09  1.683878E-10
        71  19  2.470977E+05  7.131029E+04  6.704472E+04 -4.500161E+04 -3.632128E+03  6.031593E+03
        71  20  3.297894E+05  9.198756E+04  8.487886E+04 -4.235681E+03 -5.417479E+03  9.089552E+03
        71  21  4.110080E+05  1.077967E+05  1.003247E+05 -4.363054E+04 -7.207687E+03  1.063769E+04
        71  22 -3.801169E+04  3.404814E+02 -2.717774E+03 -4.414155E+04 -2.167859E+03  6.029130E+03
        71  23 -3.722356E+04  7.050692E+02 -4.587639E+03 -4.062343E+03 -4.531915E+03  9.088590E+03
        71  24 -3.801656E+04 -3.900307E+03 -9.248532E+03 -4.414697E+04 -6.900594E+03  1.063782E+04
        71  25 -3.230470E+05 -7.063534E+04 -7.248620E+04 -4.328185E+04 -7.042600E+02  6.026670E+03
        71  26 -4.041137E+05 -9.058735E+04 -9.406393E+04 -3.889062E+03 -3.646872E+03  9.087628E+03
        71  27 -4.868573E+05 -1.156122E+05 -1.188364E+05 -4.466297E+04 -6.593722E+03  1.063795E+04
        72   1  5.644290E+05  1.519041E+05  1.362036E+05 -4.810851E+04  1.291137E+04 -1.465214E+04
        72   2  6.513177E+05  1.761643E+05  1.491657E+05 -2.180073E+03  1.670494E+04 -1.805555E+04
        72   3  7.284093E+05  1.598337E+05  1.496830E+05 -3.600215E+04  2.050199E+04 -6.274517E+03
        72   4 -4.012069E+04  1.537900E+03 -1.122815E+04 -4.405097E+04  8.680857E+03 -1.464883E+04
        72   5 -3.471176E+04  5.626281E+03 -1.776585E+04 -4.172949E+03  1.830134E+04 -1.805756E+04
        72   6 -4.013000E+04 -3.191155E+04 -4.080531E+04 -4.405153E+04  2.792462E+04 -6.274540E+03
        72   7 -6.443372E+05 -1.488552E+05 -1.586864E+05 -3.999730E+04  4.454451E+03 -1.464558E+04
        72   8 -7.203121E+05 -1.649463E+05 -1.847315E+05 -6.163573E+03  1.989598E+04 -1.805958E+04
        72   9 -8.081331E+05 -2.237007E+05 -2.313374E+05 -5.209095E+04  3.533806E+04 -6.274755E+03
        72  10  5.644287E+05  1.519038E+05  1.362029E+05 -4.810835E+04 -7.029215E-10  2.055719E-10
        72  11  6.513173E+05  1.761638E+05  1.491646E+05 -2.179831E+03 -1.155323E-09 -6.065702E-10
        72  12  7.284089E+05  1.598335E+05  1.496821E+05 -3.600205E+04 -4.497324E-10 -2.358470E-10
        72  13 -4.012083E+04  1.537649E+03 -1.122870E+04 -4.405087E+04  1.934762E-11  1.719266E-09
        72  14 -3.471221E+04  5.625841E+03 -1.776709E+04 -4.172683E+03  1.124311E-09 -7.787150E-10
        72  15 -4.013085E+04 -3.191180E+04 -4.080685E+04 -4.405139E+04  2.153232E-09 -3.835744E-10
        72  16 -6.443373E+05 -1.488554E+05 -1.586869E+05 -3.999725E+04  2.746519E-09 -3.144375E-10
        72  17 -7.203126E+05 -1.649468E+05 -1.847329E+05 -6.163284E+03 -2.573941E-09 -6.561137E-10
        72  18 -8.081345E+05 -2.237011E+05 -2.313398E+05 -5.209077E+04 -2.219076E-09 -2.251073E-10
        72  19  5.644290E+05  1.519041E+05  1.362036E+05 -4.810851E+04 -1.291137E+04  1.465214E+04
        72  20  6.513177E+05  1.761643E+05  1.491657E+05 -2.180073E+03 -1.670494E+04  1.805555E+04
        72  21  7.284093E+05  1.598337E+05  1.496830E+05 -3.600215E+04 -2.050199E+04  6.274517E+03
        72  22 -4.012069E+04  1.537900E+03 -1.122815E+04 -4.405097E+04 -8.680857E+03  1.464883E+04
        72  23 -3.471176E+04  5.626281E+03 -1.776585E+04 -4.172949E+03 -1.830134E+04  1.805756E+04
        72  24 -4.013000E+04 -3.191155E+04 -4.080531E+04 -4.405153E+04 -2.792462E+04  6.274540E+03
        72  25 -6.443372E+05 -1.488552E+05 -1.586864E+05 -3.999730E+04 -4.454451E+03  1.464558E+04
        72  26 -7.203121E+05 -1.649463E+05 -1.847315E+05 -6.163573E+03 -1.989598E+04  1.805958E+04
        72  27 -8.081331E+05 -2.237007E+05 -2.313374E+05 -5.209095E+04 -3.533806E+04  6.274755E+03
        73   1  1.463049E+06  4.900116E+06  1.402207E+06 -1.326839E+06  6.036461E+04  3.326542E+05
        73   2  1.034961E+06  3.493163E+06  9.045083E+05 -1.125166E+06  1.875247E+05  9.386629E+04
        73   3  6.952970E+05  2.136380E+06  5.830690E+05 -1.267478E+06  1.698667E+05 -1.454856E+05
        73   4  8.278539E+04 -6.795111E+05  7.221129E+04 -1.247942E+06  6.329068E+04  3.742237E+04
        73   5  2.840770E+04 -6.832407E+05  4.471811E+04 -1.076214E+06  1.884401E+05  1.580203E+04
        73   6  2.531159E+04 -6.758481E+05  4.356595E+04 -1.248542E+06  1.683471E+05 -6.929462E+03
        73   7 -1.299664E+06 -6.230519E+06 -1.259646E+06 -1.169659E+06  6.615755E+04 -2.551849E+05
        73   8 -9.792374E+05 -4.843131E+06 -8.159871E+05 -1.027540E+06  1.893470E+05 -6.174868E+04
        73   9 -6.451307E+05 -3.480435E+06 -4.962280E+05 -1.229666E+06  1.668318E+05  1.310152E+05
        73  10  1.463015E+06  4.899997E+06  1.401994E+06 -1.326855E+06  1.970829E-09  1.006710E-08
        73  11  1.034921E+06  3.493145E+06  9.044256E+05 -1.125180E+06 -1.936182E-09 -1.645191E-08
        73  12  6.952605E+05  2.136350E+06  5.829754E+05 -1.267458E+06  1.772999E-09 -8.831003E-09
        73  13  8.278071E+04 -6.795137E+05  7.220111E+04 -1.247944E+06  2.474843E-09  8.661578E-11
        73  14  2.836951E+04 -6.832505E+05  4.465091E+04 -1.076216E+06  4.533294E-09 -5.227257E-09
        73  15  2.528116E+04 -6.758557E+05  4.351263E+04 -1.248541E+06  3.348601E-09 -8.138895E-10
        73  16 -1.299686E+06 -6.230590E+06 -1.259777E+06 -1.169646E+06  3.235063E-09 -8.034684E-09
        73  17 -9.792769E+05 -4.843144E+06 -8.160616E+05 -1.027531E+06  1.513755E-08 -3.592942E-09
        73  18 -6.451653E+05 -3.480461E+06 -4.963130E+05 -1.229684E+06  6.718056E-10  1.145822E-08
        73  19  1.463049E+06  4.900116E+06  1.402207E+06 -1.326839E+06 -6.036461E+04 -3.326542E+05
        73  20  1.034961E+06  3.493163E+06  9.045083E+05 -1.125166E+06 -1.875247E+05 -9.386629E+04
        73  21  6.952970E+05  2.136380E+06  5.830690E+05 -1.267478E+06 -1.698667E+05  1.454856E+05
        73  22  8.278539E+04 -6.795111E+05  7.221129E+04 -1.247942E+06 -6.329068E+04 -3.742237E+04
        73  23  2.840770E+04 -6.832407E+05  4.471811E+04 -1.076214E+06 -1.884401E+05 -1.580203E+04
        73  24  2.531159E+04 -6.758481E+05  4.356595E+04 -1.248542E+06 -1.683471E+05  6.929462E+03
        73  25 -1.299664E+06 -6.230519E+06 -1.259646E+06 -1.169659E+06 -6.615755E+04  2.551849E+05
        73  26 -9.792374E+05 -4.843131E+06 -8.159871E+05 -1.027540E+06 -1.893470E+05  6.174868E+04
        73  27 -6.451307E+05 -3.480435E+06 -4.962280E+05 -1.229666E+06 -1.668318E+05 -1.310152E+05
        74   1  4.757045E+05  1.201075E+06  4.084574E+05 -1.270530E+06  1.139994E+05 -1.311822E+05
        74   2  1.431007E+05 -1.801104E+05  1.600873E+05 -1.076939E+06  3.573778E+04 -1.685808E+05
        74   3 -1.658236E+05 -1.556841E+06 -6.025965E+04 -1.236040E+06 -4.429032E+04 -2.059539E+05
        74   4  2.782511E+04 -6.769886E+05  4.798836E+04 -1.250389E+06  1.126690E+05 -1.529214E+04
        74   5  2.513797E+04 -6.778167E+05  6.827509E+04 -1.073949E+06  3.435747E+04 -5.015931E+04
        74   6  4.577415E+04 -6.765217E+05  1.148029E+05 -1.250186E+06 -4.572438E+04 -8.507884E+04
        74   7 -4.202552E+05 -2.551631E+06 -3.125923E+05 -1.230298E+06  1.113436E+05  1.002560E+05
        74   8 -9.283136E+04 -1.175253E+06 -2.349469E+04 -1.070961E+06  3.297762E+04  6.816971E+04
        74   9  2.573327E+05  2.045713E+05  2.898819E+05 -1.264350E+06 -4.716274E+04  3.596455E+04
        74  10  4.756860E+05  1.201054E+06  4.084009E+05 -1.270518E+06 -3.587799E-09 -1.478559E-08
        74  11  1.430917E+05 -1.801412E+05  1.600315E+05 -1.076934E+06  1.219126E-09 -1.633085E-08
        74  12 -1.658371E+05 -1.556887E+06 -6.034333E+04 -1.236048E+06  2.440187E-10  2.342403E-08
        74  13  2.781143E+04 -6.769922E+05  4.796409E+04 -1.250388E+06 -1.213960E-09 -2.625548E-10
        74  14  2.513603E+04 -6.778197E+05  6.826816E+04 -1.073948E+06 -7.893645E-09 -6.075701E-09
        74  15  4.576995E+04 -6.765300E+05  1.147853E+05 -1.250189E+06 -2.235764E-10 -1.304840E-09
        74  16 -4.202712E+05 -2.551645E+06 -3.126346E+05 -1.230307E+06  8.938467E-10  1.730397E-08
        74  17 -9.283379E+04 -1.175258E+06 -2.350550E+04 -1.070963E+06  3.256909E-10 -8.595902E-09
        74  18  2.573300E+05  2.045693E+05  2.898753E+05 -1.264349E+06  2.762411E-09 -2.200537E-08
        74  19  4.757045E+05  1.201075E+06  4.084574E+05 -1.270530E+06 -1.139994E+05  1.311822E+05
        74  20  1.431007E+05 -1.801104E+05  1.600873E+05 -1.076939E+06 -3.573778E+04  1.685808E+05
        74  21 -1.658236E+05 -1.556841E+06 -6.025965E+04 -1.236040E+06  4.429032E+04  2.059539E+05
        74  22  2.782511E+04 -6.769886E+05  4.798836E+04 -1.250389E+06 -1.126690E+05  1.529214E+04
        74  23  2.513797E+04 -6.778167E+05  6.827509E+04 -1.073949E+06 -3.435747E+04  5.015931E+04
        74  24  4.577415E+04 -6.765217E+05  1.148029E+05 -1.250186E+06  4.572438E+04  8.507884E+04
        74  25 -4.202552E+05 -2.551631E+06 -3.125923E+05 -1.230298E+06 -1.113436E+05 -1.002560E+05
        74  26 -9.283136E+04 -1.175253E+06 -2.349469E+04 -1.070961E+06 -3.297762E+04 -6.816971E+04
        74  27  2.573327E+05  2.045713E+05  2.898819E+05 -1.264350E+06  4.716274E+04 -3.596455E+04
        75   1 -4.037381E+05 -2.467877E+06 -2.064461E+05 -1.274238E+06 -1.000104E+05 -2.443194E+05
        75   2 -6.687087E+05 -3.872591E+06 -4.027390E+05 -9.266959E+05 -1.339710E+05 -1.992883E+05
        75   3 -6.387968E+05 -5.213260E+06 -5.561788E+05 -9.238037E+05 -4.678110E+04 -1.533142E+05
        75   4  2.895937E+04 -6.568725E+05  1.471762E+05 -1.249101E+06 -1.016355E+05 -1.054440E+05
        75   5  1.026001E+05 -7.045873E+05  2.601033E+05 -1.074550E+06 -1.334280E+05 -2.403671E+05
        75   6  5.015288E+05 -6.594713E+05  5.406706E+05 -1.244185E+06 -4.437752E+04 -3.742723E+05
        75   7  4.614739E+05  1.157333E+06  5.007157E+05 -1.223878E+06 -1.032464E+05  3.382919E+04
        75   8  8.733354E+05  2.472993E+06  9.224033E+05 -1.223143E+06 -1.328671E+05 -2.816509E+05
        75   9  1.640713E+06  3.913706E+06  1.636267E+06 -1.566876E+06 -4.175515E+04 -5.968476E+05
        75  10 -4.037650E+05 -2.467944E+06 -2.065778E+05 -1.274258E+06  2.940937E-09  8.261252E-09
        75  11 -6.687388E+05 -3.872639E+06 -4.028480E+05 -9.267175E+05  6.879113E-09 -1.508638E-08
        75  12 -6.388055E+05 -5.213286E+06 -5.562275E+05 -9.238095E+05  8.964673E-10 -1.977564E-09
        75  13  2.894526E+04 -6.568872E+05  1.471358E+05 -1.249110E+06  2.762096E-09 -1.793459E-10
        75  14  1.025654E+05 -7.046542E+05  2.599609E+05 -1.074576E+06 -6.467986E-09 -4.872193E-09
        75  15  5.014889E+05 -6.596224E+05  5.404032E+05 -1.244198E+06  6.312040E-10 -6.818080E-10
        75  16  4.614622E+05  1.157329E+06  5.006936E+05 -1.223875E+06 -7.830428E-10 -5.248759E-09
        75  17  8.732951E+05  2.472903E+06  9.222213E+05 -1.223173E+06  4.650551E-09 -7.060998E-09
        75  18  1.640616E+06  3.913325E+06  1.635598E+06 -1.566897E+06  3.137516E-09  3.489769E-09
        75  19 -4.037381E+05 -2.467877E+06 -2.064461E+05 -1.274238E+06  1.000104E+05  2.443194E+05
        75  20 -6.687087E+05 -3.872591E+06 -4.027390E+05 -9.266959E+05  1.339710E+05  1.992883E+05
        75  21 -6.387968E+05 -5.213260E+06 -5.561788E+05 -9.238037E+05  4.678110E+04  1.533142E+05
        75  22  2.895937E+04 -6.568725E+05  1.471762E+05 -1.249101E+06  1.016355E+05  1.054440E+05
        75  23  1.026001E+05 -7.045873E+05  2.601033E+05 -1.074550E+06  1.334280E+05  2.403671E+05
        75  24  5.015288E+05 -6.594713E+05  5.406706E+05 -1.244185E+06  4.437752E+04  3.742723E+05
        75  25  4.614739E+05  1.157333E+06  5.007157E+05 -1.223878E+06  1.032464E+05 -3.382919E+04
        75  26  8.733354E+05  2.472993E+06  9.224033E+05 -1.223143E+06  1.328671E+05  2.816509E+05
        75  27  1.640713E+06  3.913706E+06  1.636267E+06 -1.566876E+06  4.175515E+04  5.968476E+05
        76   1 -5.100590E+06 -2.008567E+06 -1.168848E+06 -1.727122E+06 -2.816943E+05 -1.913409E+04
        76   2 -4.766752E+06 -1.927579E+06 -9.606511E+05 -1.602111E+06 -1.922648E+05  2.184581E+05
        76   3 -4.368280E+06 -1.864961E+06 -8.561892E+05 -1.567606E+06 -5.007732E+04  3.188818E+05
        76   4 -5.130454E+04 -1.546823E+05  1.387467E+05 -3.937245E+05  5.922095E+04  1.112142E+05
        76   5 -1.098542E+05 -2.186752E+05  6.251502E+04 -3.275510E+05 -4.100596E+04  2.759201E+05
        76   6 -6.612014E+04 -2.634485E+05  3.385161E+04 -3.518558E+05 -8.878610E+04  3.039599E+05
        76   7  5.022984E+06  1.700534E+06  1.444696E+06  9.494034E+05  4.031981E+05  2.426419E+05
        76   8  4.569125E+06  1.491872E+06  1.084455E+06  9.557891E+05  1.114883E+05  3.338375E+05
        76   9  4.255202E+06  1.339798E+06  9.229424E+05  8.717728E+05 -1.277878E+05  2.889261E+05
        76  10 -5.100676E+06 -2.008589E+06 -1.168999E+06 -1.727127E+06 -1.645995E-08 -2.822391E-09
        76  11 -4.766805E+06 -1.927640E+06 -9.608103E+05 -1.602077E+06 -8.052846E-09  7.228460E-09
        76  12 -4.368310E+06 -1.865071E+06 -8.563850E+05 -1.567593E+06  1.307998E-08  1.256154E-08
        76  13 -5.131163E+04 -1.546965E+05  1.387169E+05 -3.937299E+05  9.537713E-10  3.971445E-10
        76  14 -1.098764E+05 -2.187574E+05  6.236878E+04 -3.275419E+05  3.194093E-09 -9.170139E-09
        76  15 -6.615339E+04 -2.635498E+05  3.366319E+04 -3.518341E+05  4.734110E-09 -3.197442E-09
        76  16  5.022795E+06  1.700428E+06  1.444283E+06  9.493250E+05  8.997270E-09  5.928240E-09
        76  17  4.569082E+06  1.491750E+06  1.084223E+06  9.557593E+05 -1.266430E-08 -1.256403E-09
        76  18  4.255162E+06  1.339704E+06  9.227549E+05  8.718025E+05 -2.181051E-08 -5.555687E-09
        76  19 -5.100590E+06 -2.008567E+06 -1.168848E+06 -1.727122E+06  2.816943E+05  1.913409E+04
        76  20 -4.766752E+06 -1.927579E+06 -9.606511E+05 -1.602111E+06  1.922648E+05 -2.184581E+05
        76  21 -4.368280E+06 -1.864961E+06 -8.561892E+05 -1.567606E+06  5.007732E+04 -3.188818E+05
        76  22 -5.130454E+04 -1.546823E+05  1.387467E+05 -3.937245E+05 -5.922095E+04 -1.112142E+05
        76  23 -1.098542E+05 -2.186752E+05  6.251502E+04 -3.275510E+05  4.100596E+04 -2.759201E+05
        76  24 -6.612014E+04 -2.634485E+05  3.385161E+04 -3.518558E+05  8.878610E+04 -3.039599E+05
        76  25  5.022984E+06  1.700534E+06  1.444696E+06  9.494034E+05 -4.031981E+05 -2.426419E+05
        76  26  4.569125E+06  1.491872E+06  1.084455E+06  9.557891E+05 -1.114883E+05 -3.338375E+05
        76  27  4.255202E+06  1.339798E+06  9.229424E+05  8.717728E+05  1.277878E+05 -2.889261E+05
        77   1 -4.140557E+06 -1.761991E+06 -8.138214E+05 -1.493989E+06 -7.531361E+04  2.909815E+05
        77   2 -3.832042E+06 -1.599873E+06 -7.434441E+05 -1.357521E+06 -6.443893E+04  2.804235E+05
        77   3 -3.452038E+06 -1.504917E+06 -6.763620E+05 -1.299077E+06 -5.020325E+04  2.607765E+05
        77   4 -6.881433E+04 -2.601386E+05  2.580743E+04 -3.572649E+05 -8.664246E+04  2.864887E+05
        77   5 -1.054387E+05 -2.287989E+05  1.331491E+04 -3.176813E+05 -8.836912E+04  2.712003E+05
        77   6 -6.821790E+04 -2.621023E+05  7.530586E+03 -3.561352E+05 -8.674939E+04  2.468516E+05
        77   7  4.020031E+06  1.243168E+06  8.645730E+05  7.863857E+05 -9.805304E+04  2.819659E+05
        77   8  3.635513E+06  1.143500E+06  7.693770E+05  7.279577E+05 -1.124555E+05  2.619189E+05
        77   9  3.327422E+06  9.817154E+05  6.908552E+05  5.915775E+05 -1.235110E+05  2.328458E+05
        77  10 -4.140586E+06 -1.762084E+06 -8.139912E+05 -1.493971E+06  1.062242E-08  1.022908E-08
        77  11 -3.832068E+06 -1.599959E+06 -7.435996E+05 -1.357507E+06  1.237217E-08  6.276535E-09
        77  12 -3.452059E+06 -1.504991E+06 -6.764945E+05 -1.299067E+06  1.221545E-09 -3.470049E-09
        77  13 -6.884441E+04 -2.602287E+05  2.563909E+04 -3.572449E+05  1.375121E-08 -2.418822E-09
        77  14 -1.054668E+05 -2.288800E+05  1.316204E+04 -3.176620E+05  1.250766E-08  2.876971E-09
        77  15 -6.824232E+04 -2.621698E+05  7.401950E+03 -3.561179E+05 -9.223702E-11  3.380110E-09
        77  16  4.019999E+06  1.243080E+06  8.644056E+05  7.864079E+05  1.976872E-09  3.643996E-09
        77  17  3.635481E+06  1.143422E+06  7.692244E+05  7.279814E+05  9.723260E-09  1.042296E-08
        77  18  3.327391E+06  9.816531E+05  6.907247E+05  5.916006E+05  1.047079E-08  1.102753E-08
        77  19 -4.140557E+06 -1.761991E+06 -8.138214E+05 -1.493989E+06  7.531361E+04 -2.909815E+05
        77  20 -3.832042E+06 -1.599873E+06 -7.434441E+05 -1.357521E+06  6.443893E+04 -2.804235E+05
        77  21 -3.452038E+06 -1.504917E+06 -6.763620E+05 -1.299077E+06  5.020325E+04 -2.607765E+05
        77  22 -6.881433E+04 -2.601386E+05  2.580743E+04 -3.572649E+05  8.664246E+04 -2.864887E+05
        77  23 -1.054387E+05 -2.287989E+05  1.331491E+04 -3.176813E+05  8.836912E+04 -2.712003E+05
        77  24 -6.821790E+04 -2.621023E+05  7.530586E+03 -3.561352E+05  8.674939E+04 -2.468516E+05
        77  25  4.020031E+06  1.243168E+06  8.645730E+05  7.863857E+05  9.805304E+04 -2.819659E+05
        77  26  3.635513E+06  1.143500E+06  7.693770E+05  7.279577E+05  1.124555E+05 -2.619189E+05
        77  27  3.327422E+06  9.817154E+05  6.908552E+05  5.915775E+05  1.235110E+05 -2.328458E+05
        78   1 -3.216594E+06 -1.416068E+06 -6.285049E+05 -1.232557E+06 -4.719988E+04  2.443634E+05
        78   2 -2.906562E+06 -1.252795E+06 -5.615073E+05 -1.096032E+06 -3.812403E+04  2.187366E+05
        78   3 -2.525526E+06 -1.158422E+06 -4.936435E+05 -1.038105E+06 -2.888791E+04  1.924711E+05
        78   4 -6.834444E+04 -2.616932E+05  5.588859E+03 -3.566254E+05 -8.198356E+04  2.311399E+05
        78   5 -1.033976E+05 -2.264559E+05  2.884426E+03 -3.174952E+05 -7.379182E+04  2.052329E+05
        78   6 -6.742813E+04 -2.599401E+05  1.725255E+03 -3.569910E+05 -6.544014E+04  1.786892E+05
        78   7  3.090190E+06  8.935654E+05  6.392097E+05  5.234410E+05 -1.169584E+05  2.178448E+05
        78   8  2.707907E+06  8.005752E+05  5.669003E+05  4.643091E+05 -1.096338E+05  1.916640E+05
        78   9  2.396916E+06  6.390654E+05  4.968033E+05  3.266251E+05 -1.021486E+05  1.648488E+05
        78  10 -3.216613E+06 -1.416133E+06 -6.286213E+05 -1.232548E+06 -3.672902E-09 -4.360972E-09
        78  11 -2.906576E+06 -1.252847E+06 -5.615999E+05 -1.096026E+06 -2.696134E-09  9.980674E-10
        78  12 -2.525537E+06 -1.158462E+06 -4.937147E+05 -1.038101E+06  7.868231E-09  7.971826E-09
        78  13 -6.836598E+04 -2.617524E+05  5.475845E+03 -3.566102E+05 -6.370413E-09 -2.727628E-09
        78  14 -1.034148E+05 -2.265026E+05  2.795053E+03 -3.174830E+05 -2.863634E-09 -6.193181E-09
        78  15 -6.744129E+04 -2.599755E+05  1.657215E+03 -3.569816E+05 -1.696930E-09 -8.233072E-09
        78  16  3.090162E+06  8.935108E+05  6.390949E+05  5.234615E+05 -4.161826E-09  3.607947E-09
        78  17  2.707884E+06  8.005325E+05  5.668087E+05  4.643260E+05 -1.506972E-08 -6.901604E-09
        78  18  2.396897E+06  6.390334E+05  4.967327E+05  3.266387E+05 -1.329335E-08 -6.753150E-09
        78  19 -3.216594E+06 -1.416068E+06 -6.285049E+05 -1.232557E+06  4.719988E+04 -2.443634E+05
        78  20 -2.906562E+06 -1.252795E+06 -5.615073E+05 -1.096032E+06  3.812403E+04 -2.187366E+05
        78  21 -2.525526E+06 -1.158422E+06 -4.936435E+05 -1.038105E+06  2.888791E+04 -1.924711E+05
        78  22 -6.834444E+04 -2.616932E+05  5.588859E+03 -3.566254E+05  8.198356E+04 -2.311399E+05
        78  23 -1.033976E+05 -2.264559E+05  2.884426E+03 -3.174952E+05  7.379182E+04 -2.052329E+05
        78  24 -6.742813E+04 -2.599401E+05  1.725255E+03 -3.569910E+05  6.544014E+04 -1.786892E+05
        78  25  3.090190E+06  8.935654E+05  6.392097E+05  5.234410E+05  1.169584E+05 -2.178448E+05
        78  26  2.707907E+06  8.005752E+05  5.669003E+05  4.643091E+05  1.096338E+05 -1.916640E+05
        78  27  2.396916E+06  6.390654E+05  4.968033E+05  3.266251E+05  1.021486E+05 -1.648488E+05
        79   1 -2.288626E+06 -1.070717E+06 -4.443078E+05 -9.722851E+05 -2.345458E+04  1.770053E+05
        79   2 -1.976487E+06 -9.084083E+05 -3.760384E+05 -8.361466E+05 -1.377450E+04  1.506313E+05
        79   3 -1.594287E+06 -8.151434E+05 -3.074150E+05 -7.791859E+05 -4.123560E+03  1.241898E+05
        79   4 -6.738691E+04 -2.596997E+05  1.242535E+03 -3.571330E+05 -5.992244E+04  1.632821E+05
        79   5 -1.020510E+05 -2.245591E+05  5.913541E+02 -3.176659E+05 -5.033497E+04  1.369094E+05
        79   6 -6.677607E+04 -2.584459E+05  3.546982E+02 -3.574127E+05 -4.077657E+04  1.104696E+05
        79   7  2.158937E+06  5.517386E+05  4.465544E+05  2.600558E+05 -9.653070E+04  1.495063E+05
        79   8  1.776016E+06  4.595930E+05  3.770556E+05  2.022658E+05 -8.701435E+04  1.231431E+05
        79   9  1.463157E+06  2.984559E+05  3.080189E+05  6.532513E+04 -7.752694E+04  9.671310E+04
        79  10 -2.288635E+06 -1.070751E+06 -4.443677E+05 -9.722818E+05 -1.929439E-08 -1.879647E-09
        79  11 -1.976493E+06 -9.084327E+05 -3.760814E+05 -8.361450E+05 -1.738926E-09  1.791404E-09
        79  12 -1.594291E+06 -8.151600E+05 -3.074440E+05 -7.791855E+05  6.307638E-09  4.342195E-09
        79  13 -6.739791E+04 -2.597293E+05  1.185694E+03 -3.571252E+05  3.015032E-09 -5.910650E-09
        79  14 -1.020587E+05 -2.245799E+05  5.513748E+02 -3.176604E+05  2.469618E-09 -2.322873E-09
        79  15 -6.678112E+04 -2.584595E+05  3.286446E+02 -3.574091E+05 -1.046690E-08 -3.095788E-09
        79  16  2.158921E+06  5.517121E+05  4.464949E+05  2.600674E+05  1.321309E-08  7.139205E-09
        79  17  1.776004E+06  4.595747E+05  3.770129E+05  2.022744E+05 -4.295858E-09  3.287886E-09
        79  18  1.463148E+06  2.984442E+05  3.079901E+05  6.533116E+04 -1.993703E-08 -5.365042E-09
        79  19 -2.288626E+06 -1.070717E+06 -4.443078E+05 -9.722851E+05  2.345458E+04 -1.770053E+05
        79  20 -1.976487E+06 -9.084083E+05 -3.760384E+05 -8.361466E+05  1.377450E+04 -1.506313E+05
        79  21 -1.594287E+06 -8.151434E+05 -3.074150E+05 -7.791859E+05  4.123560E+03 -1.241898E+05
        79  22 -6.738691E+04 -2.596997E+05  1.242535E+03 -3.571330E+05  5.992244E+04 -1.632821E+05
        79  23 -1.020510E+05 -2.245591E+05  5.913541E+02 -3.176659E+05  5.033497E+04 -1.369094E+05
        79  24 -6.677607E+04 -2.584459E+05  3.546982E+02 -3.574127E+05  4.077657E+04 -1.104696E+05
        79  25  2.158937E+06  5.517386E+05  4.465544E+05  2.600558E+05  9.653070E+04 -1.495063E+05
        79  26  1.776016E+06  4.595930E+05  3.770556E+05  2.022658E+05  8.701435E+04 -1.231431E+05
        79  27  1.463157E+06  2.984559E+05  3.080189E+05  6.532513E+04  7.752694E+04 -9.671310E+04
        80   1 -1.356462E+06 -7.278476E+05 -2.577075E+05 -7.136248E+05  1.585520E+03  1.088200E+05
        80   2 -1.042976E+06 -5.662367E+05 -1.890356E+05 -5.776631E+05  1.147138E+04  8.245706E+04
        80   3 -6.600115E+05 -4.737323E+05 -1.203292E+05 -5.212170E+05  2.132967E+04  5.609407E+04
        80   4 -6.673945E+04 -2.583018E+05  1.969567E+02 -3.574863E+05 -3.508686E+04  9.510883E+04
        80   5 -1.012564E+05 -2.234304E+05 -4.451392E+01 -3.177774E+05 -2.520504E+04  6.876246E+04
        80   6 -6.642820E+04 -2.576703E+05 -2.557151E+02 -3.576252E+05 -1.535091E+04  4.241633E+04
        80   7  1.224703E+06  2.113872E+05  2.580270E+05 -6.621441E+02 -7.184115E+04  8.136709E+04
        80   8  8.413770E+05  1.194509E+05  1.889081E+05 -5.752744E+04 -6.194111E+04  5.504559E+04
        80   9  5.275157E+05 -4.157948E+04  1.198047E+05 -1.938896E+05 -5.206888E+04  2.872463E+04
        80  10 -1.356465E+06 -7.278603E+05 -2.577298E+05 -7.136250E+05 -8.302369E-09 -8.988065E-10
        80  11 -1.042978E+06 -5.662441E+05 -1.890487E+05 -5.776638E+05 -9.186709E-12  2.129626E-09
        80  12 -6.600128E+05 -4.737358E+05 -1.203360E+05 -5.212179E+05  6.081244E-09  1.832088E-10
        80  13 -6.674320E+04 -2.583119E+05  1.776475E+02 -3.574836E+05 -8.406279E-09 -1.049759E-09
        80  14 -1.012584E+05 -2.234356E+05 -5.459165E+01 -3.177760E+05 -2.863520E-09  2.648222E-09
        80  15 -6.642894E+04 -2.576723E+05 -2.595383E+02 -3.576247E+05 -2.875581E-10  8.148920E-10
        80  16  1.224696E+06  2.113787E+05  2.580049E+05 -6.574400E+02 -2.266765E-09  1.764750E-09
        80  17  8.413720E+05  1.194466E+05  1.888952E+05 -5.752470E+04 -1.199110E-09 -2.419686E-10
        80  18  5.275126E+05 -4.158109E+04  1.197981E+05 -1.938884E+05 -5.413036E-09 -4.575934E-09
        80  19 -1.356462E+06 -7.278476E+05 -2.577075E+05 -7.136248E+05 -1.585520E+03 -1.088200E+05
        80  20 -1.042976E+06 -5.662367E+05 -1.890356E+05 -5.776631E+05 -1.147138E+04 -8.245706E+04
        80  21 -6.600115E+05 -4.737323E+05 -1.203292E+05 -5.212170E+05 -2.132967E+04 -5.609407E+04
        80  22 -6.673945E+04 -2.583018E+05  1.969567E+02 -3.574863E+05  3.508686E+04 -9.510883E+04
        80  23 -1.012564E+05 -2.234304E+05 -4.451392E+01 -3.177774E+05  2.520504E+04 -6.876246E+04
        80  24 -6.642820E+04 -2.576703E+05 -2.557151E+02 -3.576252E+05  1.535091E+04 -4.241633E+04
        80  25  1.224703E+06  2.113872E+05  2.580270E+05 -6.621441E+02  7.184115E+04 -8.136709E+04
        80  26  8.413770E+05  1.194509E+05  1.889081E+05 -5.752744E+04  6.194111E+04 -5.504559E+04
        80  27  5.275157E+05 -4.157948E+04  1.198047E+05 -1.938896E+05  5.206888E+04 -2.872463E+04
        81   1 -4.216159E+05 -3.866581E+05 -7.060855E+04 -4.557158E+05  2.717587E+04  4.077379E+04
        81   2 -1.075364E+05 -2.254567E+05 -2.056945E+03 -3.197047E+05  3.705770E+04  1.455022E+04
        81   3  2.758188E+05 -1.333528E+05  6.643476E+04 -2.633110E+05  4.683857E+04 -1.140422E+04
        81   4 -6.643487E+04 -2.576197E+05 -4.256846E+02 -3.576556E+05 -9.571079E+03  2.707680E+04
        81   5 -1.009685E+05 -2.230356E+05 -9.036210E+02 -3.178169E+05  6.748357E+02  9.888194E+02
        81   6 -6.643403E+04 -2.576370E+05 -1.735465E+03 -3.576479E+05  1.081963E+04 -2.482973E+04
        81   7  2.888826E+05 -1.285682E+05  6.975791E+04 -2.595419E+05 -4.634087E+04  1.337127E+04
        81   8 -9.439752E+04 -2.206134E+05  2.553785E+02 -3.159282E+05 -3.570860E+04 -1.257280E+04
        81   9 -4.085633E+05 -3.819103E+05 -6.990575E+04 -4.519360E+05 -2.517803E+04 -3.824730E+04
        81  10 -4.216171E+05 -3.866601E+05 -7.061307E+04 -4.557167E+05 -6.421972E-10 -2.536483E-09
        81  11 -1.075379E+05 -2.254573E+05 -2.059925E+03 -3.197051E+05 -2.527048E-09 -1.888904E-09
        81  12  2.758164E+05 -1.333535E+05  6.643040E+04 -2.633105E+05  1.101331E-09 -6.175895E-09
        81  13 -6.643516E+04 -2.576205E+05 -4.272343E+02 -3.576554E+05 -1.304443E-09 -2.519012E-09
        81  14 -1.009685E+05 -2.230357E+05 -9.036237E+02 -3.178169E+05  1.053890E-09  2.394261E-09
        81  15 -6.643432E+04 -2.576377E+05 -1.736844E+03 -3.576477E+05 -9.505131E-10 -4.204386E-09
        81  16  2.888802E+05 -1.285689E+05  6.975354E+04 -2.595414E+05  2.488647E-09 -1.489340E-09
        81  17 -9.439894E+04 -2.206139E+05  2.526840E+02 -3.159286E+05 -5.963002E-10 -6.328303E-10
        81  18 -4.085644E+05 -3.819121E+05 -6.990970E+04 -4.519368E+05 -2.286129E-10 -6.251545E-11
        81  19 -4.216159E+05 -3.866581E+05 -7.060855E+04 -4.557158E+05 -2.717587E+04 -4.077379E+04
        81  20 -1.075364E+05 -2.254567E+05 -2.056945E+03 -3.197047E+05 -3.705770E+04 -1.455022E+04
        81  21  2.758188E+05 -1.333528E+05  6.643476E+04 -2.633110E+05 -4.683857E+04  1.140422E+04
        81  22 -6.643487E+04 -2.576197E+05 -4.256846E+02 -3.576556E+05  9.571079E+03 -2.707680E+04
        81  23 -1.009685E+05 -2.230356E+05 -9.036210E+02 -3.178169E+05 -6.748357E+02 -9.888194E+02
        81  24 -6.643403E+04 -2.576370E+05 -1.735465E+03 -3.576479E+05 -1.081963E+04  2.482973E+04
        81  25  2.888826E+05 -1.285682E+05  6.975791E+04 -2.595419E+05  4.634087E+04 -1.337127E+04
        81  26 -9.439752E+04 -2.206134E+05  2.553785E+02 -3.159282E+05  3.570860E+04  1.257280E+04
        81  27 -4.085633E+05 -3.819103E+05 -6.990575E+04 -4.519360E+05  2.517803E+04  3.824730E+04
        82   1  5.145737E+05 -4.633821E+04  1.157409E+05 -1.977862E+05  5.372347E+04 -2.635078E+04
        82   2  8.281180E+05  1.149314E+05  1.845061E+05 -6.135151E+04  5.930527E+04 -5.203454E+04
        82   3  1.211358E+06  2.073116E+05  2.559036E+05 -4.027984E+03  6.337230E+04 -7.361031E+04
        82   4 -6.658827E+04 -2.575934E+05 -2.328947E+03 -3.576446E+05  1.687545E+04 -4.009054E+04
        82   5 -1.010537E+05 -2.235396E+05 -4.355903E+03 -3.177472E+05  2.817124E+04 -6.366020E+04
        82   6 -6.707257E+04 -2.595239E+05 -8.271090E+03 -3.570180E+05  3.795302E+04 -8.311755E+04
        82   7 -6.473957E+05 -4.688177E+05 -1.204087E+05 -5.173631E+05 -1.993526E+04 -5.381642E+04
        82   8 -1.029337E+06 -5.619375E+05 -1.932573E+05 -5.737886E+05 -2.912797E+03 -7.526718E+04
        82   9 -1.343841E+06 -7.262271E+05 -2.725319E+05 -7.093412E+05  1.258975E+04 -9.260382E+04
        82  10  5.145704E+05 -4.633973E+04  1.157341E+05 -1.977851E+05  5.501504E-10 -3.382185E-09
        82  11  8.281135E+05  1.149275E+05  1.844945E+05 -6.134902E+04 -6.933792E-09 -4.575680E-09
        82  12  1.211352E+06  2.073047E+05  2.558859E+05 -4.024230E+03 -4.204399E-09 -3.946202E-09
        82  13 -6.658901E+04 -2.575952E+05 -2.332501E+03 -3.576441E+05 -4.217599E-10 -3.036212E-09
        82  14 -1.010556E+05 -2.235442E+05 -4.365008E+03 -3.177457E+05 -8.329821E-09 -6.109571E-09
        82  15 -6.707597E+04 -2.595317E+05 -8.286776E+03 -3.570154E+05 -1.788476E-09 -2.547960E-09
        82  16 -6.473970E+05 -4.688209E+05 -1.204148E+05 -5.173639E+05 -5.051592E-10  7.632913E-11
        82  17 -1.029338E+06 -5.619435E+05 -1.932680E+05 -5.737887E+05 -4.301430E-09 -5.279970E-09
        82  18 -1.343843E+06 -7.262364E+05 -2.725483E+05 -7.093403E+05 -8.643697E-10 -4.846744E-09
        82  19  5.145737E+05 -4.633821E+04  1.157409E+05 -1.977862E+05 -5.372347E+04  2.635078E+04
        82  20  8.281180E+05  1.149314E+05  1.845061E+05 -6.135151E+04 -5.930527E+04  5.203454E+04
        82  21  1.211358E+06  2.073116E+05  2.559036E+05 -4.027984E+03 -6.337230E+04  7.361031E+04
        82  22 -6.658827E+04 -2.575934E+05 -2.328947E+03 -3.576446E+05 -1.687545E+04  4.009054E+04
        82  23 -1.010537E+05 -2.235396E+05 -4.355903E+03 -3.177472E+05 -2.817124E+04  6.366020E+04
        82  24 -6.707257E+04 -2.595239E+05 -8.271090E+03 -3.570180E+05 -3.795302E+04  8.311755E+04
        82  25 -6.473957E+05 -4.688177E+05 -1.204087E+05 -5.173631E+05  1.993526E+04  5.381642E+04
        82  26 -1.029337E+06 -5.619375E+05 -1.932573E+05 -5.737886E+05  2.912797E+03  7.526718E+04
        82  27 -1.343841E+06 -7.262271E+05 -2.725319E+05 -7.093412E+05 -1.258975E+04  9.260382E+04
        83   1  1.453291E+06  2.944176E+05  3.035839E+05  5.907162E+04  8.302234E+04 -8.413718E+04
        83   2  1.755621E+06  4.608275E+05  3.921154E+05  2.034030E+05  5.486806E+03 -1.086521E+05
        83   3  2.131521E+06  5.535528E+05  5.347260E+05  2.779973E+05 -9.542184E+04 -7.102522E+04
        83   4 -6.902070E+04 -2.577912E+05 -1.079363E+04 -3.573810E+05  4.504874E+04 -9.834665E+04
        83   5 -9.984976E+04 -2.299020E+05 -2.034453E+04 -3.160096E+05  5.435977E+04 -9.039886E+04
        83   6 -7.439515E+04 -2.929233E+05 -4.451292E+04 -3.444360E+05  4.031111E+04 -2.019432E+04
        83   7 -1.588968E+06 -8.098179E+05 -3.252889E+05 -7.728985E+05  7.174956E+03 -1.125193E+05
        83   8 -1.951821E+06 -9.203329E+05 -4.330022E+05 -8.339858E+05  1.030745E+05 -7.220660E+04
        83   9 -2.275495E+06 -1.138996E+06 -6.240694E+05 -9.648245E+05  1.755125E+05  3.042603E+04
        83  10  1.453281E+06  2.944081E+05  3.035577E+05  5.907724E+04  1.377476E-09 -2.638312E-09
        83  11  1.755618E+06  4.608148E+05  3.920931E+05  2.034035E+05  1.369075E-09 -4.614871E-10
        83  12  2.131510E+06  5.535450E+05  5.346995E+05  2.779918E+05  8.092490E-10 -1.083296E-10
        83  13 -6.902547E+04 -2.578022E+05 -1.081562E+04 -3.573775E+05  9.300515E-10 -1.188118E-09
        83  14 -9.985512E+04 -2.299116E+05 -2.036543E+04 -3.160057E+05  5.258324E-10 -1.154568E-09
        83  15 -7.439700E+04 -2.929242E+05 -4.451674E+04 -3.444353E+05 -7.134649E-10 -1.667488E-10
        83  16 -1.588971E+06 -8.098315E+05 -3.253128E+05 -7.728978E+05  3.457725E-09 -2.032592E-09
        83  17 -1.951834E+06 -9.203413E+05 -4.330320E+05 -8.339798E+05  1.400416E-09 -2.318220E-09
        83  18 -2.275528E+06 -1.139005E+06 -6.241292E+05 -9.648288E+05 -9.091252E-12 -6.198678E-10
        83  19  1.453291E+06  2.944176E+05  3.035839E+05  5.907162E+04 -8.302234E+04  8.413718E+04
        83  20  1.755621E+06  4.608275E+05  3.921154E+05  2.034030E+05 -5.486806E+03  1.086521E+05
        83  21  2.131521E+06  5.535528E+05  5.347260E+05  2.779973E+05  9.542184E+04  7.102522E+04
        83  22 -6.902070E+04 -2.577912E+05 -1.079363E+04 -3.573810E+05 -4.504874E+04  9.834665E+04
        83  23 -9.984976E+04 -2.299020E+05 -2.034453E+04 -3.160096E+05 -5.435977E+04  9.039886E+04
        83  24 -7.439515E+04 -2.929233E+05 -4.451292E+04 -3.444360E+05 -4.031111E+04  2.019432E+04
        83  25 -1.588968E+06 -8.098179E+05 -3.252889E+05 -7.728985E+05 -7.174956E+03  1.125193E+05
        83  26 -1.951821E+06 -9.203329E+05 -4.330022E+05 -8.339858E+05 -1.030745E+05  7.220660E+04
        83  27 -2.275495E+06 -1.138996E+06 -6.240694E+05 -9.648245E+05 -1.755125E+05 -3.042603E+04
        84   1 -1.893835E+05 -9.590982E+04 -8.498991E+04 -6.898700E+04 -1.863088E+04  6.693149E+03
        84   2 -1.185831E+05 -1.004808E+05 -6.501965E+04 -7.772341E+04 -2.886994E+03  2.228425E+04
        84   3 -4.658980E+04 -9.218798E+04 -5.208370E+04 -9.698333E+04  1.286359E+04  2.636717E+04
        84   4  3.770245E+05  4.356972E+04  4.613054E+04 -9.864395E+04  3.259545E+04  6.702230E+03
        84   5  3.740512E+05  1.569196E+04  2.330102E+04 -9.338093E+04  2.072428E+04  2.228536E+04
        84   6  3.770548E+05  5.464728E+03  1.260998E+04 -9.863989E+04  8.857785E+03  2.636523E+04
        84   7  9.437365E+05  1.830314E+05  1.772399E+05 -1.283282E+05  8.386816E+04  6.706416E+03
        84   8  8.669238E+05  1.318524E+05  1.116146E+05 -1.090512E+05  4.435376E+04  2.228528E+04
        84   9  8.008791E+05  1.031088E+05  7.729987E+04 -1.002976E+05  4.849348E+03  2.636332E+04
        84  10 -1.893839E+05 -9.590996E+04 -8.499065E+04 -6.898690E+04  4.698666E-09 -6.044386E-10
        84  11 -1.185833E+05 -1.004813E+05 -6.502059E+04 -7.772335E+04  2.800280E-09 -1.830398E-09
        84  12 -4.659016E+04 -9.218877E+04 -5.208531E+04 -9.698361E+04  2.660920E-09 -1.744467E-09
        84  13  3.770234E+05  4.356939E+04  4.612846E+04 -9.864413E+04 -2.015562E-09 -1.988191E-10
        84  14  3.740506E+05  1.569131E+04  2.329928E+04 -9.338130E+04 -1.985718E-09 -1.196968E-09
        84  15  3.770545E+05  5.463960E+03  1.260853E+04 -9.864008E+04 -1.332924E-10 -1.411654E-09
        84  16  9.437290E+05  1.830295E+05  1.772266E+05 -1.283286E+05 -2.130367E-09  5.590836E-11
        84  17  8.669216E+05  1.318514E+05  1.116100E+05 -1.090520E+05 -7.615638E-09 -4.680210E-10
        84  18  8.008789E+05  1.031081E+05  7.729852E+04 -1.002977E+05 -3.526975E-09 -6.737917E-10
        84  19 -1.893835E+05 -9.590982E+04 -8.498991E+04 -6.898700E+04  1.863088E+04 -6.693149E+03
        84  20 -1.185831E+05 -1.004808E+05 -6.501965E+04 -7.772341E+04  2.886994E+03 -2.228425E+04
        84  21 -4.658980E+04 -9.218798E+04 -5.208370E+04 -9.698333E+04 -1.286359E+04 -2.636717E+04
        84  22  3.770245E+05  4.356972E+04  4.613054E+04 -9.864395E+04 -3.259545E+04 -6.702230E+03
        84  23  3.740512E+05  1.569196E+04  2.330102E+04 -9.338093E+04 -2.072428E+04 -2.228536E+04
        84  24  3.770548E+05  5.464728E+03  1.260998E+04 -9.863989E+04 -8.857785E+03 -2.636523E+04
        84  25  9.437365E+05  1.830314E+05  1.772399E+05 -1.283282E+05 -8.386816E+04 -6.706416E+03
        84  26  8.669238E+05  1.318524E+05  1.116146E+05 -1.090512E+05 -4.435376E+04 -2.228528E+04
        84  27  8.008791E+05  1.031088E+05  7.729987E+04 -1.002976E+05 -4.849348E+03 -2.636332E+04
        85   1 -2.952704E+03 -8.295863E+04 -4.644512E+04 -9.649377E+04  1.213922E+04  2.486224E+04
        85   2  6.826650E+04 -6.862467E+04 -3.729752E+04 -9.200372E+04  1.333290E+04  2.203201E+04
        85   3  1.396296E+05 -5.315563E+04 -2.864032E+04 -9.888770E+04  1.452634E+04  1.764645E+04
        85   4  3.759077E+05  3.967721E+03  9.402987E+03 -9.882995E+04  7.216446E+03  2.486064E+04
        85   5  3.755224E+05  1.285350E+03  5.071431E+03 -9.314324E+04  4.675719E+03  2.203109E+04
        85   6  3.759236E+05  3.859279E+02  2.841392E+03 -9.883003E+04  2.134635E+03  1.764660E+04
        85   7  7.549125E+05  9.088741E+04  6.524862E+04 -1.011676E+05  2.290787E+03  2.485909E+04
        85   8  6.828743E+05  7.119127E+04  4.743959E+04 -9.428334E+04 -3.985551E+03  2.203019E+04
        85   9  6.122748E+05  5.392519E+04  3.432323E+04 -9.877233E+04 -1.026156E+04  1.764675E+04
        85  10 -2.953028E+03 -8.295933E+04 -4.644656E+04 -9.649401E+04 -3.958289E-11 -1.011022E-09
        85  11  6.826617E+04 -6.862524E+04 -3.729877E+04 -9.200396E+04  4.072037E-08 -1.434625E-09
        85  12  1.396293E+05 -5.315602E+04 -2.864131E+04 -9.888791E+04  6.879664E-08 -4.341479E-09
        85  13  3.759075E+05  3.967044E+03  9.401728E+03 -9.883010E+04 -4.169293E-09  1.348324E-09
        85  14  3.755223E+05  1.284822E+03  5.070478E+03 -9.314332E+04 -8.603333E-10  8.140753E-09
        85  15  3.759235E+05  3.855922E+02  2.840798E+03 -9.883006E+04 -3.887951E-09  1.312630E-08
        85  16  7.549124E+05  9.088675E+04  6.524744E+04 -1.011677E+05 -3.160628E-09 -9.618742E-10
        85  17  6.828742E+05  7.119074E+04  4.743865E+04 -9.428327E+04 -3.530662E-08 -2.126989E-09
        85  18  6.122746E+05  5.392483E+04  3.432245E+04 -9.877218E+04 -7.295027E-08 -4.360681E-09
        85  19 -2.952704E+03 -8.295863E+04 -4.644512E+04 -9.649377E+04 -1.213922E+04 -2.486224E+04
        85  20  6.826650E+04 -6.862467E+04 -3.729752E+04 -9.200372E+04 -1.333290E+04 -2.203201E+04
        85  21  1.396296E+05 -5.315563E+04 -2.864032E+04 -9.888770E+04 -1.452634E+04 -1.764645E+04
        85  22  3.759077E+05  3.967721E+03  9.402987E+03 -9.882995E+04 -7.216446E+03 -2.486064E+04
        85  23  3.755224E+05  1.285350E+03  5.071431E+03 -9.314324E+04 -4.675719E+03 -2.203109E+04
        85  24  3.759236E+05  3.859279E+02  2.841392E+03 -9.883003E+04 -2.134635E+03 -1.764660E+04
        85  25  7.549125E+05  9.088741E+04  6.524862E+04 -1.011676E+05 -2.290787E+03 -2.485909E+04
        85  26  6.828743E+05  7.119127E+04  4.743959E+04 -9.428334E+04  3.985551E+03 -2.203019E+04
        85  27  6.122748E+05  5.392519E+04  3.432323E+04 -9.877233E+04  1.026156E+04 -1.764675E+04
        86   1  1.835465E+05 -4.321827E+04 -2.313530E+04 -9.879712E+04  1.423197E+04  1.456992E+04
        86   2  2.547961E+05 -2.727702E+04 -1.456557E+04 -9.311443E+04  1.414087E+04  9.251622E+03
        86   3  3.260864E+05 -1.125365E+04 -5.914925E+03 -9.891819E+04  1.404946E+04  3.723973E+03
        86   4  3.757798E+05  2.713816E+02  2.139982E+03 -9.885514E+04  1.716644E+03  1.457050E+04
        86   5  3.757210E+05  5.176414E+01  1.196625E+03 -9.311201E+04  1.122173E+03  9.252678E+03
        86   6  3.757859E+05  1.958784E+00  6.833714E+02 -9.885518E+04  5.273992E+02  3.725509E+03
        86   7  5.680512E+05  4.375956E+04  2.741560E+04 -9.891318E+04 -1.080237E+04  1.457109E+04
        86   8  4.966612E+05  2.738003E+04  1.695937E+04 -9.310958E+04 -1.189894E+04  9.253733E+03
        86   9  4.254884E+05  1.125756E+04  7.282335E+03 -9.879216E+04 -1.299569E+04  3.727043E+03
        86  10  1.835462E+05 -4.321855E+04 -2.313608E+04 -9.879728E+04 -7.387641E-08 -4.575404E-09
        86  11  2.547959E+05 -2.727716E+04 -1.456610E+04 -9.311453E+04 -3.836073E-08 -1.998184E-09
        86  12  3.260861E+05 -1.125372E+04 -5.915321E+03 -9.891823E+04 -3.858196E-09 -1.059037E-09
        86  13  3.757797E+05  2.711528E+02  2.139577E+03 -9.885516E+04  2.011241E-09  1.291250E-08
        86  14  3.757210E+05  5.167185E+01  1.196462E+03 -9.311201E+04 -1.073215E-09  7.715134E-09
        86  15  3.757859E+05  1.943802E+00  6.833448E+02 -9.885518E+04 -2.171806E-09  1.955263E-09
        86  16  5.680510E+05  4.375930E+04  2.741498E+04 -9.891306E+04  7.266027E-08 -4.558623E-09
        86  17  4.966611E+05  2.737990E+04  1.695894E+04 -9.310949E+04  3.788745E-08 -2.232070E-09
        86  18  4.254882E+05  1.125750E+04  7.281992E+03 -9.879213E+04  2.442634E-09  3.718436E-10
        86  19  1.835465E+05 -4.321827E+04 -2.313530E+04 -9.879712E+04 -1.423197E+04 -1.456992E+04
        86  20  2.547961E+05 -2.727702E+04 -1.456557E+04 -9.311443E+04 -1.414087E+04 -9.251622E+03
        86  21  3.260864E+05 -1.125365E+04 -5.914925E+03 -9.891819E+04 -1.404946E+04 -3.723973E+03
        86  22  3.757798E+05  2.713816E+02  2.139982E+03 -9.885514E+04 -1.716644E+03 -1.457050E+04
        86  23  3.757210E+05  5.176414E+01  1.196625E+03 -9.311201E+04 -1.122173E+03 -9.252678E+03
        86  24  3.757859E+05  1.958784E+00  6.833714E+02 -9.885518E+04 -5.273992E+02 -3.725509E+03
        86  25  5.680512E+05  4.375956E+04  2.741560E+04 -9.891318E+04  1.080237E+04 -1.457109E+04
        86  26  4.966612E+05  2.738003E+04  1.695937E+04 -9.310958E+04  1.189894E+04 -9.253733E+03
        86  27  4.254884E+05  1.125756E+04  7.282335E+03 -9.879216E+04  1.299569E+04 -3.727043E+03
        87   1  3.700324E+05 -1.295997E+03 -2.297648E+02 -9.890090E+04  1.395959E+04  4.363614E+02
        87   2  4.412963E+05  1.473670E+04  8.531476E+03 -9.314106E+04  1.386814E+04 -5.213355E+03
        87   3  5.125826E+05  3.077304E+04  1.735437E+04 -9.888259E+04  1.377686E+04 -1.088574E+04
        87   4  3.757645E+05 -4.600711E-01  5.179579E+02 -9.885855E+04  4.208740E+02  4.379580E+02
        87   5  3.757502E+05 -1.332659E+01  2.960158E+02 -9.310783E+04  2.741195E+02 -5.211989E+03
        87   6  3.757613E+05 -1.318505E+01  1.732470E+02 -9.885856E+04  1.275589E+02 -1.088461E+04
        87   7  3.814971E+05  1.295174E+03  1.266369E+03 -9.881619E+04 -1.311796E+04  4.395527E+02
        87   8  3.102090E+05 -1.476343E+04 -7.938762E+03 -9.307460E+04 -1.331853E+04 -5.210624E+03
        87   9  2.389597E+05 -3.080006E+04 -1.700722E+04 -9.883452E+04 -1.351889E+04 -1.088349E+04
        87  10  3.700321E+05 -1.296049E+03 -2.301312E+02 -9.890091E+04  8.212958E-11 -1.289437E-09
        87  11  4.412961E+05  1.473662E+04  8.531064E+03 -9.314100E+04 -2.680405E-09 -1.691286E-09
        87  12  5.125823E+05  3.077286E+04  1.735379E+04 -9.888247E+04 -1.308682E-09 -1.410227E-09
        87  13  3.757645E+05 -4.603247E-01  5.179572E+02 -9.885855E+04 -1.260922E-11 -1.402576E-10
        87  14  3.757502E+05 -1.335578E+01  2.959646E+02 -9.310783E+04  1.020657E-09 -6.628585E-10
        87  15  3.757613E+05 -1.331230E+01  1.730243E+02 -9.885855E+04 -6.361073E-10 -9.461278E-10
        87  16  3.814969E+05  1.295127E+03  1.266045E+03 -9.881619E+04 -2.624596E-11  9.820456E-10
        87  17  3.102088E+05 -1.476351E+04 -7.939146E+03 -9.307465E+04 -2.039273E-10  3.331778E-10
        87  18  2.389595E+05 -3.080024E+04 -1.700779E+04 -9.883464E+04  1.759469E-09 -4.233559E-10
        87  19  3.700324E+05 -1.295997E+03 -2.297648E+02 -9.890090E+04 -1.395959E+04 -4.363614E+02
        87  20  4.412963E+05  1.473670E+04  8.531476E+03 -9.314106E+04 -1.386814E+04  5.213355E+03
        87  21  5.125826E+05  3.077304E+04  1.735437E+04 -9.888259E+04 -1.377686E+04  1.088574E+04
        87  22  3.757645E+05 -4.600711E-01  5.179579E+02 -9.885855E+04 -4.208740E+02 -4.379580E+02
        87  23  3.757502E+05 -1.332659E+01  2.960158E+02 -9.310783E+04 -2.741195E+02  5.211989E+03
        87  24  3.757613E+05 -1.318505E+01  1.732470E+02 -9.885856E+04 -1.275589E+02  1.088461E+04
        87  25  3.814971E+05  1.295174E+03  1.266369E+03 -9.881619E+04  1.311796E+04 -4.395527E+02
        87  26  3.102090E+05 -1.476343E+04 -7.938762E+03 -9.307460E+04  1.331853E+04  5.210624E+03
        87  27  2.389597E+05 -3.080006E+04 -1.700722E+04 -9.883452E+04  1.351889E+04  1.088349E+04
        88   1  5.565449E+05  4.072118E+04  2.312762E+04 -9.887794E+04  1.374894E+04 -1.419599E+04
        88   2  6.278270E+05  5.675177E+04  3.203744E+04 -9.311328E+04  1.361458E+04 -1.985924E+04
        88   3  6.991436E+05  7.279815E+04  4.104091E+04 -9.885138E+04  1.348093E+04 -2.548316E+04
        88   4  3.757560E+05 -1.555708E+01  1.339783E+02 -9.885891E+04  9.964643E+01 -1.419521E+04
        88   5  3.757433E+05 -2.626623E+01  8.216295E+01 -9.310739E+04  5.898857E+01 -1.985939E+04
        88   6  3.757436E+05 -3.735650E+01  5.846737E+01 -9.885891E+04  1.906129E+01 -2.548425E+04
        88   7  1.950010E+05 -4.075353E+04 -2.285908E+04 -9.883988E+04 -1.354587E+04 -1.419443E+04
        88   8  1.237252E+05 -5.680680E+04 -3.187264E+04 -9.310151E+04 -1.349137E+04 -1.985954E+04
        88   9  5.245125E+04 -7.287704E+04 -4.092365E+04 -9.886643E+04 -1.343615E+04 -2.548533E+04
        88  10  5.565446E+05  4.072091E+04  2.312689E+04 -9.887778E+04 -2.265467E-09 -3.450624E-10
        88  11  6.278267E+05  5.675130E+04  3.203635E+04 -9.311306E+04 -2.298204E-09  5.782258E-10
        88  12  6.991433E+05  7.279741E+04  4.103935E+04 -9.885110E+04  7.949026E-11 -1.619393E-09
        88  13  3.757559E+05 -1.577350E+01  1.335995E+02 -9.885891E+04 -1.886871E-09 -5.414080E-10
        88  14  3.757432E+05 -2.668982E+01  8.142167E+01 -9.310739E+04 -4.018505E-09  2.049737E-11
        88  15  3.757434E+05 -3.805401E+01  5.724672E+01 -9.885891E+04 -6.954056E-09 -9.115438E-10
        88  16  1.950007E+05 -4.075380E+04 -2.285981E+04 -9.884003E+04  3.246914E-09 -7.017591E-10
        88  17  1.237249E+05 -5.680727E+04 -3.187373E+04 -9.310172E+04  4.436079E-09 -6.698665E-10
        88  18  5.245089E+04 -7.287778E+04 -4.092521E+04 -9.886671E+04  1.301599E-09 -2.748106E-10
        88  19  5.565449E+05  4.072118E+04  2.312762E+04 -9.887794E+04 -1.374894E+04  1.419599E+04
        88  20  6.278270E+05  5.675177E+04  3.203744E+04 -9.311328E+04 -1.361458E+04  1.985924E+04
        88  21  6.991436E+05  7.279815E+04  4.104091E+04 -9.885138E+04 -1.348093E+04  2.548316E+04
        88  22  3.757560E+05 -1.555708E+01  1.339783E+02 -9.885891E+04 -9.964643E+01  1.419521E+04
        88  23  3.757433E+05 -2.626623E+01  8.216295E+01 -9.310739E+04 -5.898857E+01  1.985939E+04
        88  24  3.757436E+05 -3.735650E+01  5.846737E+01 -9.885891E+04 -1.906129E+01  2.548425E+04
        88  25  1.950010E+05 -4.075353E+04 -2.285908E+04 -9.883988E+04  1.354587E+04  1.419443E+04
        88  26  1.237252E+05 -5.680680E+04 -3.187264E+04 -9.310151E+04  1.349137E+04  1.985954E+04
        88  27  5.245125E+04 -7.287704E+04 -4.092365E+04 -9.886643E+04  1.343615E+04  2.548533E+04
        89   1  7.431491E+05  8.276035E+04  4.691843E+04 -9.883772E+04  1.344778E+04 -2.875367E+04
        89   2  8.144108E+05  9.884726E+04  5.623376E+04 -9.306870E+04  1.264752E+04 -3.418603E+04
        89   3  8.858331E+05  1.150714E+05  6.610893E+04 -9.878480E+04  1.184833E+04 -3.929589E+04
        89   4  3.757400E+05 -4.588954E+01  5.377350E+01 -9.885504E+04  9.317176E+00 -2.875549E+04
        89   5  3.757181E+05 -6.550989E+01  5.393946E+01 -9.311223E+04 -1.666118E+01 -3.418938E+04
        89   6  3.757185E+05 -8.178587E+01  7.663080E+01 -9.885504E+04 -4.150206E+01 -3.930065E+04
        89   7  8.469598E+03 -8.285757E+04 -4.681075E+04 -9.887233E+04 -1.342159E+04 -2.875732E+04
        89   8 -6.277701E+04 -9.898611E+04 -5.612613E+04 -9.315573E+04 -1.267234E+04 -3.419273E+04
        89   9 -1.341296E+05 -1.152457E+05 -6.595654E+04 -9.892520E+04 -1.192204E+04 -3.930541E+04
        89  10  7.431487E+05  8.275942E+04  4.691654E+04 -9.883741E+04 -2.389649E-09 -2.307634E-09
        89  11  8.144103E+05  9.884596E+04  5.623127E+04 -9.306835E+04 -3.230198E-09 -1.452764E-09
        89  12  8.858325E+05  1.150697E+05  6.610576E+04 -9.878442E+04 -1.254393E-09 -1.959915E-10
        89  13  3.757398E+05 -4.677762E+01  5.221936E+01 -9.885504E+04 -2.158168E-09 -1.609611E-09
        89  14  3.757178E+05 -6.676533E+01  5.174245E+01 -9.311223E+04 -1.182671E-09 -1.539417E-09
        89  15  3.757181E+05 -8.344474E+01  7.372779E+01 -9.885504E+04  3.433783E-09 -2.769993E-11
        89  16  8.469183E+03 -8.285851E+04 -4.681264E+04 -9.887264E+04  4.995781E-10 -9.481435E-10
        89  17 -6.277750E+04 -9.898741E+04 -5.612863E+04 -9.315608E+04 -3.461084E-10 -1.777866E-09
        89  18 -1.341302E+05 -1.152474E+05 -6.595971E+04 -9.892558E+04  5.540561E-09  4.460490E-10
        89  19  7.431491E+05  8.276035E+04  4.691843E+04 -9.883772E+04 -1.344778E+04  2.875367E+04
        89  20  8.144108E+05  9.884726E+04  5.623376E+04 -9.306870E+04 -1.264752E+04  3.418603E+04
        89  21  8.858331E+05  1.150714E+05  6.610893E+04 -9.878480E+04 -1.184833E+04  3.929589E+04
        89  22  3.757400E+05 -4.588954E+01  5.377350E+01 -9.885504E+04 -9.317176E+00  2.875549E+04
        89  23  3.757181E+05 -6.550989E+01  5.393946E+01 -9.311223E+04  1.666118E+01  3.418938E+04
        89  24  3.757185E+05 -8.178587E+01  7.663080E+01 -9.885504E+04  4.150206E+01  3.930065E+04
        89  25  8.469598E+03 -8.285757E+04 -4.681075E+04 -9.887233E+04  1.342159E+04  2.875732E+04
        89  26 -6.277701E+04 -9.898611E+04 -5.612613E+04 -9.315573E+04  1.267234E+04  3.419273E+04
        89  27 -1.341296E+05 -1.152457E+05 -6.595654E+04 -9.892520E+04  1.192204E+04  3.930541E+04
        90   1  9.300250E+05  1.251772E+05  7.256327E+04 -9.871969E+04  1.164641E+04 -4.224067E+04
        90   2  1.000908E+06  1.417410E+05  8.459955E+04 -9.305010E+04  5.811875E+03 -4.591315E+04
        90   3  1.072853E+06  1.593598E+05  1.007030E+05 -9.868953E+04 -2.329063E+01 -4.718988E+04
        90   4  3.757177E+05 -9.190936E+01  9.656449E+01 -9.881595E+04 -5.508386E+01 -4.224643E+04
        90   5  3.756737E+05 -9.202137E+01  1.590221E+02 -9.316109E+04 -1.320565E+02 -4.591933E+04
        90   6  3.756875E+05 -3.555079E+01  2.943504E+02 -9.881597E+04 -2.089355E+02 -4.719521E+04
        90   7 -1.782756E+05 -1.253738E+05 -7.237157E+04 -9.891211E+04 -1.174664E+04 -4.225219E+04
        90   8 -2.491630E+05 -1.419419E+05 -8.428504E+04 -9.327195E+04 -6.070285E+03 -4.592551E+04
        90   9 -3.209880E+05 -1.594531E+05 -1.001219E+05 -9.894226E+04 -3.943810E+02 -4.720054E+04
        90  10  9.300244E+05  1.251752E+05  7.255967E+04 -9.871929E+04  6.596306E-08  7.244044E-10
        90  11  1.000908E+06  1.417388E+05  8.459552E+04 -9.304988E+04  3.827738E-09  1.574272E-09
        90  12  1.072852E+06  1.593574E+05  1.006988E+05 -9.868953E+04 -6.555783E-08  4.292829E-10
        90  13  3.757172E+05 -9.382622E+01  9.320997E+01 -9.881595E+04  2.148482E-09  1.199689E-09
        90  14  3.756732E+05 -9.428603E+01  1.550589E+02 -9.316109E+04 -3.173104E-09  1.775621E-09
        90  15  3.756869E+05 -3.794305E+01  2.901638E+02 -9.881598E+04 -3.143220E-09  1.029136E-09
        90  16 -1.782762E+05 -1.253758E+05 -7.237519E+04 -9.891251E+04 -6.881436E-08  1.803274E-09
        90  17 -2.491636E+05 -1.419442E+05 -8.428908E+04 -9.327218E+04 -2.412651E-10  2.828912E-09
        90  18 -3.209886E+05 -1.594555E+05 -1.001261E+05 -9.894227E+04  6.774873E-08  1.745527E-09
        90  19  9.300250E+05  1.251772E+05  7.256327E+04 -9.871969E+04 -1.164641E+04  4.224067E+04
        90  20  1.000908E+06  1.417410E+05  8.459955E+04 -9.305010E+04 -5.811875E+03  4.591315E+04
        90  21  1.072853E+06  1.593598E+05  1.007030E+05 -9.868953E+04  2.329063E+01  4.718988E+04
        90  22  3.757177E+05 -9.190936E+01  9.656449E+01 -9.881595E+04  5.508386E+01  4.224643E+04
        90  23  3.756737E+05 -9.202137E+01  1.590221E+02 -9.316109E+04  1.320565E+02  4.591933E+04
        90  24  3.756875E+05 -3.555079E+01  2.943504E+02 -9.881597E+04  2.089355E+02  4.719521E+04
        90  25 -1.782756E+05 -1.253738E+05 -7.237157E+04 -9.891211E+04  1.174664E+04  4.225219E+04
        90  26 -2.491630E+05 -1.419419E+05 -8.428504E+04 -9.327195E+04  6.070285E+03  4.592551E+04
        90  27 -3.209880E+05 -1.594531E+05 -1.001219E+05 -9.894226E+04  3.943810E+02  4.720054E+04
        91   1  1.118220E+06  1.705483E+05  1.113058E+05 -9.833270E+04 -1.486760E+03 -4.771366E+04
        91   2  1.185990E+06  1.907411E+05  1.432417E+05 -9.372310E+04 -4.446102E+04 -3.835649E+04
        91   3  1.261395E+06  2.189084E+05  2.051265E+05 -9.910533E+04 -8.745756E+04 -1.127224E+04
        91   4  3.757173E+05 -3.240099E+00  3.950965E+02 -9.852284E+04 -2.606655E+02 -4.771877E+04
        91   5  3.755768E+05  3.039009E+02  7.195042E+02 -9.352762E+04 -6.179518E+02 -3.833984E+04
        91   6  3.756800E+05  1.198769E+03  1.430625E+03 -9.852337E+04 -9.911099E+02 -1.122324E+04
        91   7 -3.662322E+05 -1.705807E+05 -1.105263E+05 -9.871276E+04  9.640235E+02 -4.772388E+04
        91   8 -4.341908E+05 -1.901681E+05 -1.418194E+05 -9.333244E+04  4.316966E+04 -3.832316E+04
        91   9 -5.092939E+05 -2.165616E+05 -2.022892E+05 -9.794230E+04  8.535316E+04 -1.117405E+04
        91  10  1.118219E+06  1.705458E+05  1.113016E+05 -9.833276E+04  1.960719E-09 -6.734010E-10
        91  11  1.185987E+06  1.907390E+05  1.432352E+05 -9.372448E+04 -2.510504E-09 -1.976584E-09
        91  12  1.261386E+06  2.189062E+05  2.051120E+05 -9.910612E+04 -3.399095E-09 -6.460508E-10
        91  13  3.757167E+05 -5.685739E+00  3.908166E+02 -9.852285E+04 -3.891819E-10 -1.784929E-09
        91  14  3.755764E+05  3.023221E+02  7.167407E+02 -9.352764E+04  4.970464E-10  5.927912E-10
        91  15  3.756799E+05  1.198634E+03  1.430386E+03 -9.852338E+04  5.926711E-11 -3.812743E-10
        91  16 -3.662328E+05 -1.705832E+05 -1.105306E+05 -9.871272E+04 -7.734897E-10  2.414924E-10
        91  17 -4.341932E+05 -1.901702E+05 -1.418256E+05 -9.333110E+04 -2.038416E-09 -3.755168E-11
        91  18 -5.093018E+05 -2.165637E+05 -2.023031E+05 -9.794153E+04  5.864688E-09 -1.034186E-09
        91  19  1.118220E+06  1.705483E+05  1.113058E+05 -9.833270E+04  1.486760E+03  4.771366E+04
        91  20  1.185990E+06  1.907411E+05  1.432417E+05 -9.372310E+04  4.446102E+04  3.835649E+04
        91  21  1.261395E+06  2.189084E+05  2.051265E+05 -9.910533E+04  8.745756E+04  1.127224E+04
        91  22  3.757173E+05 -3.240099E+00  3.950965E+02 -9.852284E+04  2.606655E+02  4.771877E+04
        91  23  3.755768E+05  3.039009E+02  7.195042E+02 -9.352762E+04  6.179518E+02  3.833984E+04
        91  24  3.756800E+05  1.198769E+03  1.430625E+03 -9.852337E+04  9.911099E+02  1.122324E+04
        91  25 -3.662322E+05 -1.705807E+05 -1.105263E+05 -9.871276E+04 -9.640235E+02  4.772388E+04
        91  26 -4.341908E+05 -1.901681E+05 -1.418194E+05 -9.333244E+04 -4.316966E+04  3.832316E+04
        91  27 -5.092939E+05 -2.165616E+05 -2.022892E+05 -9.794230E+04 -8.535316E+04  1.117405E+04
        92   1  1.960723E+05  9.521891E+05  1.879269E+05 -2.964411E+05  7.131527E+03  4.859369E+04
        92   2  1.321997E+05  7.168027E+05  1.099946E+05 -2.758737E+05  2.059511E+04  9.470693E+03
        92   3  7.604913E+04  4.884677E+05  5.943097E+04 -2.947914E+05  1.668207E+04 -2.964243E+04
        92   4  2.326277E+03  1.685400E+05  2.339420E+03 -2.944949E+05  7.173604E+03  2.362403E+02
        92   5  1.021322E+03  1.683735E+05  2.254510E+03 -2.747519E+05  2.060609E+04 -8.866846E+02
        92   6  8.541354E+02  1.686240E+05  3.176795E+03 -2.944961E+05  1.665495E+04 -2.014052E+03
        92   7 -1.914626E+05 -6.145405E+05 -1.832819E+05 -2.925510E+05  7.215416E+03 -4.806056E+04
        92   8 -1.301752E+05 -3.797676E+05 -1.054997E+05 -2.736309E+05  2.061704E+04 -1.123512E+04
        92   9 -7.434604E+04 -1.511180E+05 -5.307823E+04 -2.942008E+05  1.662784E+04  2.560053E+04
        92  10  1.960716E+05  9.521865E+05  1.879223E+05 -2.964414E+05  1.876975E-11 -2.062688E-08
        92  11  1.321993E+05  7.168025E+05  1.099936E+05 -2.758739E+05  9.169728E-10  5.597396E-09
        92  12  7.604860E+04  4.884667E+05  5.942880E+04 -2.947910E+05 -6.665322E-09  3.390218E-08
        92  13  2.326222E+03  1.685400E+05  2.339323E+03 -2.944949E+05  7.738699E-09 -4.363052E-10
        92  14  1.020866E+03  1.683734E+05  2.253711E+03 -2.747519E+05  5.457448E-09 -5.249158E-10
        92  15  8.538365E+02  1.686239E+05  3.176266E+03 -2.944960E+05  1.530102E-08 -1.386001E-09
        92  16 -1.914633E+05 -6.145430E+05 -1.832864E+05 -2.925507E+05 -5.984314E-12  2.034136E-08
        92  17 -1.301757E+05 -3.797678E+05 -1.055008E+05 -2.736308E+05  1.726846E-10 -5.663435E-09
        92  18 -7.434651E+04 -1.511188E+05 -5.307998E+04 -2.942011E+05 -6.337921E-09 -3.394570E-08
        92  19  1.960723E+05  9.521891E+05  1.879269E+05 -2.964411E+05 -7.131527E+03 -4.859369E+04
        92  20  1.321997E+05  7.168027E+05  1.099946E+05 -2.758737E+05 -2.059511E+04 -9.470693E+03
        92  21  7.604913E+04  4.884677E+05  5.943097E+04 -2.947914E+05 -1.668207E+04  2.964243E+04
        92  22  2.326277E+03  1.685400E+05  2.339420E+03 -2.944949E+05 -7.173604E+03 -2.362403E+02
        92  23  1.021322E+03  1.683735E+05  2.254510E+03 -2.747519E+05 -2.060609E+04  8.866846E+02
        92  24  8.541354E+02  1.686240E+05  3.176795E+03 -2.944961E+05 -1.665495E+04  2.014052E+03
        92  25 -1.914626E+05 -6.145405E+05 -1.832819E+05 -2.925510E+05 -7.215416E+03  4.806056E+04
        92  26 -1.301752E+05 -3.797676E+05 -1.054997E+05 -2.736309E+05 -2.061704E+04  1.123512E+04
        92  27 -7.434604E+04 -1.511180E+05 -5.307823E+04 -2.942008E+05 -1.662784E+04 -2.560053E+04
        93   1  4.196437E+04  3.427521E+05  3.539649E+04 -2.951968E+05  8.532012E+03 -3.058425E+04
        93   2 -1.157198E+04  1.106345E+05 -1.749270E+03 -2.734350E+05 -4.118293E+03 -3.332978E+04
        93   3 -6.296876E+04 -1.205784E+05 -3.658793E+04 -2.922622E+05 -1.647568E+04 -3.607381E+04
        93   4  8.952866E+02  1.687583E+05  3.996100E+03 -2.947409E+05  8.503409E+03 -2.621891E+03
        93   5  1.656857E+03  1.682726E+05  6.753182E+03 -2.744451E+05 -4.145664E+03 -6.012671E+03
        93   6  4.671524E+03  1.687488E+05  1.226264E+04 -2.947376E+05 -1.650188E+04 -9.402897E+03
        93   7 -4.017507E+04 -5.204352E+03 -2.740254E+04 -2.942851E+05  8.474841E+03  2.533285E+04
        93   8  1.488594E+04  2.259156E+05  1.525838E+04 -2.754553E+05 -4.173122E+03  2.130687E+04
        93   9  7.230780E+04  4.581599E+05  6.111321E+04 -2.972141E+05 -1.652828E+04  1.728004E+04
        93  10  4.196405E+04  3.427510E+05  3.539460E+04 -2.951966E+05 -9.646459E-09 -3.227667E-08
        93  11 -1.157230E+04  1.106333E+05 -1.751389E+03 -2.734351E+05 -2.958412E-09 -6.537920E-09
        93  12 -6.296940E+04 -1.205798E+05 -3.659088E+04 -2.922627E+05 -1.720571E-09  1.986511E-08
        93  13  8.952071E+02  1.687583E+05  3.995951E+03 -2.947409E+05  1.176471E-08 -6.252550E-10
        93  14  1.656828E+03  1.682725E+05  6.753081E+03 -2.744451E+05  8.824739E-09 -6.052893E-10
        93  15  4.671208E+03  1.687486E+05  1.226196E+04 -2.947377E+05 -3.146876E-09 -1.362429E-09
        93  16 -4.017532E+04 -5.205061E+03 -2.740388E+04 -2.942852E+05 -7.550880E-09  3.189775E-08
        93  17  1.488580E+04  2.259151E+05  1.525749E+04 -2.754552E+05 -1.009682E-08  6.252476E-09
        93  18  7.230743E+04  4.581595E+05  6.111214E+04 -2.972139E+05  1.653787E-09 -1.988000E-08
        93  19  4.196437E+04  3.427521E+05  3.539649E+04 -2.951968E+05 -8.532012E+03  3.058425E+04
        93  20 -1.157198E+04  1.106345E+05 -1.749270E+03 -2.734350E+05  4.118293E+03  3.332978E+04
        93  21 -6.296876E+04 -1.205784E+05 -3.658793E+04 -2.922622E+05  1.647568E+04  3.607381E+04
        93  22  8.952866E+02  1.687583E+05  3.996100E+03 -2.947409E+05 -8.503409E+03  2.621891E+03
        93  23  1.656857E+03  1.682726E+05  6.753182E+03 -2.744451E+05  4.145664E+03  6.012671E+03
        93  24  4.671524E+03  1.687488E+05  1.226264E+04 -2.947376E+05  1.650188E+04  9.402897E+03
        93  25 -4.017507E+04 -5.204352E+03 -2.740254E+04 -2.942851E+05 -8.474841E+03 -2.533285E+04
        93  26  1.488594E+04  2.259156E+05  1.525838E+04 -2.754553E+05  4.173122E+03 -2.130687E+04
        93  27  7.230780E+04  4.581599E+05  6.111321E+04 -2.972141E+05  1.652828E+04 -1.728004E+04
        94   1 -9.597610E+04 -2.648670E+05 -5.780559E+04 -2.935984E+05 -2.435656E+04 -3.780124E+04
        94   2 -1.398493E+05 -4.969884E+05 -9.812056E+04 -2.554102E+05 -2.651876E+04 -9.877193E+03
        94   3 -1.659739E+05 -7.282503E+05 -1.521879E+05 -2.565235E+05 -8.873795E+03  1.804017E+04
        94   4  5.902958E+03  1.703610E+05  1.632126E+04 -2.944512E+05 -2.438081E+04 -1.153328E+04
        94   5  1.846479E+04  1.661563E+05  2.998574E+04 -2.747862E+05 -2.650129E+04 -2.684735E+04
        94   6  5.627114E+04  1.702552E+05  5.992260E+04 -2.944135E+05 -8.826042E+03 -4.215746E+04
        94   7  1.077723E+05  6.057769E+05  9.044448E+04 -2.953044E+05 -2.440512E+04  1.475251E+04
        94   8  1.767543E+05  8.297254E+05  1.580728E+05 -2.941832E+05 -2.648277E+04 -4.383523E+04
        94   9  2.784657E+05  1.069514E+06  2.719917E+05 -3.323584E+05 -8.770987E+03 -1.024418E+05
        94  10 -9.597712E+04 -2.648687E+05 -5.780939E+04 -2.935992E+05 -5.395115E-09  3.015489E-09
        94  11 -1.398501E+05 -4.969886E+05 -9.812206E+04 -2.554104E+05 -7.099600E-10  1.600254E-09
        94  12 -1.659741E+05 -7.282507E+05 -1.521886E+05 -2.565233E+05  7.208398E-12  1.701350E-09
        94  13  5.902283E+03  1.703607E+05  1.631989E+04 -2.944514E+05 -3.309841E-09 -5.415004E-10
        94  14  1.846384E+04  1.661554E+05  2.998307E+04 -2.747868E+05  2.306707E-09 -4.854526E-10
        94  15  5.627058E+04  1.702533E+05  5.991911E+04 -2.944138E+05 -3.134300E-09 -8.394780E-10
        94  16  1.077716E+05  6.057765E+05  9.044295E+04 -2.953041E+05  2.704141E-09 -3.177308E-09
        94  17  1.767530E+05  8.297231E+05  1.580679E+05 -2.941842E+05 -2.535580E-09 -1.578394E-09
        94  18  2.784628E+05  1.069503E+06  2.719718E+05 -3.323591E+05 -1.778502E-09 -1.658279E-09
        94  19 -9.597610E+04 -2.648670E+05 -5.780559E+04 -2.935984E+05  2.435656E+04  3.780124E+04
        94  20 -1.398493E+05 -4.969884E+05 -9.812056E+04 -2.554102E+05  2.651876E+04  9.877193E+03
        94  21 -1.659739E+05 -7.282503E+05 -1.521879E+05 -2.565235E+05  8.873795E+03 -1.804017E+04
        94  22  5.902958E+03  1.703610E+05  1.632126E+04 -2.944512E+05  2.438081E+04  1.153328E+04
        94  23  1.846479E+04  1.661563E+05  2.998574E+04 -2.747862E+05  2.650129E+04  2.684735E+04
        94  24  5.627114E+04  1.702552E+05  5.992260E+04 -2.944135E+05  8.826042E+03  4.215746E+04
        94  25  1.077723E+05  6.057769E+05  9.044448E+04 -2.953044E+05  2.440512E+04 -1.475251E+04
        94  26  1.767543E+05  8.297254E+05  1.580728E+05 -2.941832E+05  2.648277E+04  4.383523E+04
        94  27  2.784657E+05  1.069514E+06  2.719917E+05 -3.323584E+05  8.770987E+03  1.024418E+05
        95   1 -3.826561E+05 -2.157454E+05 -1.370719E+05 -1.606722E+05 -6.640455E+04 -2.121753E+04
        95   2 -3.589585E+05 -1.326464E+05 -7.903132E+04 -1.500795E+05 -4.157703E+04 -3.731087E+03
        95   3 -3.511994E+05 -1.011859E+05 -5.413172E+04 -1.340688E+05 -1.442674E+04  7.573930E+03
        95   4 -1.864790E+05 -1.054014E+05 -7.897152E+04 -6.924612E+04 -5.213647E+04 -1.586716E+04
        95   5 -1.750213E+05 -4.962668E+04 -3.595941E+04 -8.351490E+04 -3.591425E+04 -1.607445E+03
        95   6 -1.777914E+05 -4.377911E+04 -1.926294E+04 -9.236856E+04 -1.737047E+04  6.469166E+03
        95   7  9.736967E+03  4.960696E+03 -2.087451E+04  2.220975E+04 -3.786368E+04 -1.051289E+04
        95   8  8.950333E+03  3.340063E+04  7.110192E+03 -1.693076E+04 -3.024968E+04  5.172188E+02
        95   9 -4.351732E+03  1.362922E+04  1.560465E+04 -5.065794E+04 -2.031510E+04  5.364136E+03
        95  10 -3.826609E+05 -2.157470E+05 -1.370810E+05 -1.606734E+05  2.098533E-09 -1.096137E-10
        95  11 -3.589604E+05 -1.326469E+05 -7.903460E+04 -1.500796E+05  4.655120E-10  6.860383E-10
        95  12 -3.511996E+05 -1.011860E+05 -5.413222E+04 -1.340687E+05  2.066198E-10  1.057826E-09
        95  13 -1.864820E+05 -1.054024E+05 -7.897710E+04 -6.924678E+04 -2.058467E-09  2.102540E-11
        95  14 -1.750226E+05 -4.962703E+04 -3.596184E+04 -8.351495E+04  1.780848E-09  8.418776E-10
        95  15 -1.777917E+05 -4.377924E+04 -1.926359E+04 -9.236847E+04  2.900124E-09  1.576149E-09
        95  16  9.735398E+03  4.960192E+03 -2.087741E+04  2.220943E+04  2.046158E-10  1.659387E-11
        95  17  8.949351E+03  3.340038E+04  7.108472E+03 -1.693075E+04  6.037865E-10  1.218184E-09
        95  18 -4.352182E+03  1.362908E+04  1.560382E+04 -5.065785E+04 -1.457075E-09  2.975475E-09
        95  19 -3.826561E+05 -2.157454E+05 -1.370719E+05 -1.606722E+05  6.640455E+04  2.121753E+04
        95  20 -3.589585E+05 -1.326464E+05 -7.903132E+04 -1.500795E+05  4.157703E+04  3.731087E+03
        95  21 -3.511994E+05 -1.011859E+05 -5.413172E+04 -1.340688E+05  1.442674E+04 -7.573930E+03
        95  22 -1.864790E+05 -1.054014E+05 -7.897152E+04 -6.924612E+04  5.213647E+04  1.586716E+04
        95  23 -1.750213E+05 -4.962668E+04 -3.595941E+04 -8.351490E+04  3.591425E+04  1.607445E+03
        95  24 -1.777914E+05 -4.377911E+04 -1.926294E+04 -9.236856E+04  1.737047E+04 -6.469166E+03
        95  25  9.736967E+03  4.960696E+03 -2.087451E+04  2.220975E+04  3.786368E+04  1.051289E+04
        95  26  8.950333E+03  3.340063E+04  7.110192E+03 -1.693076E+04  3.024968E+04 -5.172188E+02
        95  27 -4.351732E+03  1.362922E+04  1.560465E+04 -5.065794E+04  2.031510E+04 -5.364136E+03
        96   1 -3.252031E+05 -1.017929E+05 -4.573708E+04 -1.327242E+05 -1.298477E+04  6.730507E+03
        96   2 -3.006888E+05 -8.656175E+04 -3.284593E+04 -1.223603E+05 -7.966060E+03  6.990751E+03
        96   3 -2.722064E+05 -7.876564E+04 -2.384703E+04 -1.177484E+05 -2.794443E+03  6.843446E+03
        96   4 -1.753908E+05 -4.615907E+04 -1.473837E+04 -9.040320E+04 -1.468373E+04  6.092783E+03
        96   5 -1.772598E+05 -4.129016E+04 -7.785979E+03 -8.797967E+04 -1.023171E+04  6.140564E+03
        96   6 -1.750485E+05 -4.374372E+04 -4.276007E+03 -9.130830E+04 -5.626975E+03  5.780761E+03
        96   7 -2.555655E+04  9.476384E+03  1.625883E+04 -4.807309E+04 -1.638311E+04  5.454893E+03
        96   8 -5.381498E+04  3.982777E+03  1.727323E+04 -5.359266E+04 -1.249785E+04  5.290195E+03
        96   9 -7.788010E+04 -8.720764E+03  1.529480E+04 -6.486419E+04 -8.460006E+03  4.717894E+03
        96  10 -3.252033E+05 -1.017930E+05 -4.573748E+04 -1.327241E+05 -2.176539E-09  2.432092E-09
        96  11 -3.006889E+05 -8.656182E+04 -3.284614E+04 -1.223603E+05 -1.484840E-10  1.956591E-09
        96  12 -2.722064E+05 -7.876569E+04 -2.384713E+04 -1.177484E+05  4.486659E-09 -2.179750E-09
        96  13 -1.753910E+05 -4.615917E+04 -1.473885E+04 -9.040313E+04 -3.161499E-09  2.452904E-09
        96  14 -1.772599E+05 -4.129022E+04 -7.786246E+03 -8.797962E+04 -5.388918E-10  1.433717E-09
        96  15 -1.750485E+05 -4.374377E+04 -4.276129E+03 -9.130828E+04  1.390591E-09 -1.471186E-09
        96  16 -2.555685E+04  9.476280E+03  1.625827E+04 -4.807302E+04 -2.919960E-09  3.024002E-09
        96  17 -5.381516E+04  3.982705E+03  1.727288E+04 -5.359261E+04  5.975634E-10  1.540310E-09
        96  18 -7.788019E+04 -8.720807E+03  1.529462E+04 -6.486416E+04  1.111694E-09 -9.577310E-10
        96  19 -3.252031E+05 -1.017929E+05 -4.573708E+04 -1.327242E+05  1.298477E+04 -6.730507E+03
        96  20 -3.006888E+05 -8.656175E+04 -3.284593E+04 -1.223603E+05  7.966060E+03 -6.990751E+03
        96  21 -2.722064E+05 -7.876564E+04 -2.384703E+04 -1.177484E+05  2.794443E+03 -6.843446E+03
        96  22 -1.753908E+05 -4.615907E+04 -1.473837E+04 -9.040320E+04  1.468373E+04 -6.092783E+03
        96  23 -1.772598E+05 -4.129016E+04 -7.785979E+03 -8.797967E+04  1.023171E+04 -6.140564E+03
        96  24 -1.750485E+05 -4.374372E+04 -4.276007E+03 -9.130830E+04  5.626975E+03 -5.780761E+03
        96  25 -2.555655E+04  9.476384E+03  1.625883E+04 -4.807309E+04  1.638311E+04 -5.454893E+03
        96  26 -5.381498E+04  3.982777E+03  1.727323E+04 -5.359266E+04  1.249785E+04 -5.290195E+03
        96  27 -7.788010E+04 -8.720764E+03  1.529480E+04 -6.486419E+04  8.460006E+03 -4.717894E+03
        97   1 -2.534562E+05 -7.238221E+04 -1.895172E+04 -1.128377E+05 -1.831510E+03  5.855627E+03
        97   2 -2.292193E+05 -5.989142E+04 -1.216081E+04 -1.023803E+05 -1.651229E+02  4.212317E+03
        97   3 -1.997985E+05 -5.284469E+04 -6.078455E+03 -9.805390E+04  1.511295E+03  2.541980E+03
        97   4 -1.748737E+05 -4.384281E+04 -3.219123E+03 -9.119766E+04 -4.582500E+03  4.823604E+03
        97   5 -1.774652E+05 -4.110057E+04 -1.770414E+03 -8.814089E+04 -2.953663E+03  3.166286E+03
        97   6 -1.748659E+05 -4.379488E+04 -1.000396E+03 -9.121518E+04 -1.314844E+03  1.481930E+03
        97   7 -9.628487E+04 -1.530289E+04  1.251321E+04 -6.955513E+04 -7.333863E+03  3.791443E+03
        97   8 -1.257085E+05 -2.230957E+04  8.619827E+03 -7.390041E+04 -5.742441E+03  2.120167E+03
        97   9 -1.499330E+05 -3.474508E+04  4.077609E+03 -8.437626E+04 -4.141081E+03  4.218444E+02
        97  10 -2.534562E+05 -7.238225E+04 -1.895180E+04 -1.128377E+05 -2.357411E-08 -1.453617E-08
        97  11 -2.292193E+05 -5.989144E+04 -1.216085E+04 -1.023803E+05 -5.154241E-09 -4.328635E-09
        97  12 -1.997985E+05 -5.284470E+04 -6.078471E+03 -9.805390E+04  1.425812E-08  8.765217E-09
        97  13 -1.748737E+05 -4.384284E+04 -3.219206E+03 -9.119765E+04 -3.094636E-09 -3.402039E-09
        97  14 -1.774652E+05 -4.110058E+04 -1.770450E+03 -8.814089E+04 -4.371465E-09 -2.986204E-09
        97  15 -1.748659E+05 -4.379488E+04 -1.000403E+03 -9.121518E+04 -3.430751E-09  5.880566E-10
        97  16 -9.628493E+04 -1.530292E+04  1.251308E+04 -6.955511E+04  2.585930E-08  7.741208E-09
        97  17 -1.257086E+05 -2.230958E+04  8.619756E+03 -7.390040E+04 -5.313101E-09 -1.625928E-09
        97  18 -1.499330E+05 -3.474509E+04  4.077577E+03 -8.437626E+04 -1.439927E-08 -7.727970E-09
        97  19 -2.534562E+05 -7.238221E+04 -1.895172E+04 -1.128377E+05  1.831510E+03 -5.855627E+03
        97  20 -2.292193E+05 -5.989142E+04 -1.216081E+04 -1.023803E+05  1.651229E+02 -4.212317E+03
        97  21 -1.997985E+05 -5.284469E+04 -6.078455E+03 -9.805390E+04 -1.511295E+03 -2.541980E+03
        97  22 -1.748737E+05 -4.384281E+04 -3.219123E+03 -9.119766E+04  4.582500E+03 -4.823604E+03
        97  23 -1.774652E+05 -4.110057E+04 -1.770414E+03 -8.814089E+04  2.953663E+03 -3.166286E+03
        97  24 -1.748659E+05 -4.379488E+04 -1.000396E+03 -9.121518E+04  1.314844E+03 -1.481930E+03
        97  25 -9.628487E+04 -1.530289E+04  1.251321E+04 -6.955513E+04  7.333863E+03 -3.791443E+03
        97  26 -1.257085E+05 -2.230957E+04  8.619827E+03 -7.390041E+04  5.742441E+03 -2.120167E+03
        97  27 -1.499330E+05 -3.474508E+04  4.077609E+03 -8.437626E+04  4.141081E+03 -4.218444E+02
        98   1 -1.814302E+05 -4.614630E+04 -2.010734E+03 -9.299107E+04  2.096063E+03  1.414336E+03
        98   2 -1.572681E+05 -3.372372E+04  3.579106E+03 -8.250941E+04  3.098863E+03 -5.204897E+02
        98   3 -1.278001E+05 -2.664745E+04  8.987511E+03 -7.815115E+04  4.102259E+03 -2.456784E+03
        98   4 -1.748438E+05 -4.379819E+04 -7.704248E+02 -9.120479E+04 -7.248078E+02  3.562764E+02
        98   5 -1.774971E+05 -4.112969E+04 -4.835781E+02 -8.814117E+04  2.758522E+02 -1.579390E+03
        98   6 -1.748453E+05 -4.380742E+04 -3.766577E+02 -9.120144E+04  1.277094E+03 -3.516524E+03
        98   7 -1.682572E+05 -4.145004E+04  4.699316E+02 -8.941848E+04 -3.545734E+03 -7.018036E+02
        98   8 -1.977257E+05 -4.853564E+04 -4.546272E+03 -9.377277E+04 -2.547072E+03 -2.638258E+03
        98   9 -2.218883E+05 -6.096719E+04 -9.740901E+03 -1.042508E+05 -1.547842E+03 -4.576179E+03
        98  10 -1.814302E+05 -4.614631E+04 -2.010746E+03 -9.299108E+04 -1.450864E-08  1.238910E-09
        98  11 -1.572682E+05 -3.372373E+04  3.579087E+03 -8.250941E+04 -7.580175E-09  4.712670E-09
        98  12 -1.278001E+05 -2.664747E+04  8.987468E+03 -7.815114E+04  1.615082E-08  1.099184E-08
        98  13 -1.748438E+05 -4.379819E+04 -7.704260E+02 -9.120479E+04 -3.387388E-09  7.077050E-10
        98  14 -1.774971E+05 -4.112969E+04 -4.835829E+02 -8.814117E+04  3.481085E-09 -2.437318E-09
        98  15 -1.748453E+05 -4.380743E+04 -3.766840E+02 -9.120144E+04  1.043448E-08 -3.144473E-09
        98  16 -1.682572E+05 -4.145004E+04  4.699071E+02 -8.941848E+04  9.720278E-09  2.399780E-09
        98  17 -1.977257E+05 -4.853565E+04 -4.546297E+03 -9.377278E+04  4.270176E-09  3.860559E-10
        98  18 -2.218883E+05 -6.096722E+04 -9.740945E+03 -1.042508E+05 -4.090578E-09  1.723154E-10
        98  19 -1.814302E+05 -4.614630E+04 -2.010734E+03 -9.299107E+04 -2.096063E+03 -1.414336E+03
        98  20 -1.572681E+05 -3.372372E+04  3.579106E+03 -8.250941E+04 -3.098863E+03  5.204897E+02
        98  21 -1.278001E+05 -2.664745E+04  8.987511E+03 -7.815115E+04 -4.102259E+03  2.456784E+03
        98  22 -1.748438E+05 -4.379819E+04 -7.704248E+02 -9.120479E+04  7.248078E+02 -3.562764E+02
        98  23 -1.774971E+05 -4.112969E+04 -4.835781E+02 -8.814117E+04 -2.758522E+02  1.579390E+03
        98  24 -1.748453E+05 -4.380742E+04 -3.766577E+02 -9.120144E+04 -1.277094E+03  3.516524E+03
        98  25 -1.682572E+05 -4.145004E+04  4.699316E+02 -8.941848E+04  3.545734E+03  7.018036E+02
        98  26 -1.977257E+05 -4.853564E+04 -4.546272E+03 -9.377277E+04  2.547072E+03  2.638258E+03
        98  27 -2.218883E+05 -6.096719E+04 -9.740901E+03 -1.042508E+05  1.547842E+03  4.576179E+03
        99   1 -1.094698E+05 -1.993540E+04  1.282628E+04 -7.308504E+04  4.607830E+03 -3.613750E+03
        99   2 -8.531632E+04 -7.508746E+03  1.802811E+04 -6.260651E+04  5.599390E+03 -5.553534E+03
        99   3 -5.585612E+04 -4.259554E+02  2.305741E+04 -5.824886E+04  6.590028E+03 -7.490371E+03
        99   4 -1.748460E+05 -4.380762E+04 -3.746473E+02 -9.120091E+04  1.782723E+03 -4.673516E+03
        99   5 -1.774991E+05 -4.113379E+04 -4.725288E+02 -8.814119E+04  2.778243E+03 -6.611947E+03
        99   6 -1.748469E+05 -4.380462E+04 -7.460580E+02 -9.120261E+04  3.772837E+03 -8.547440E+03
        99   7 -2.402173E+05 -6.767927E+04 -1.357561E+04 -1.093149E+05 -1.042043E+03 -5.733153E+03
        99   8 -2.696731E+05 -7.475809E+04 -1.897354E+04 -1.136724E+05 -4.245291E+01 -7.670191E+03
        99   9 -2.938240E+05 -8.718242E+04 -2.455044E+04 -1.241508E+05  9.562032E+02 -9.604301E+03
        99  10 -1.094699E+05 -1.993542E+04  1.282622E+04 -7.308503E+04 -1.902857E-09  1.562512E-09
        99  11 -8.531636E+04 -7.508787E+03  1.802799E+04 -6.260648E+04  4.224039E-09  8.541226E-10
        99  12 -5.585618E+04 -4.260273E+02  2.305722E+04 -5.824882E+04  8.891552E-09  3.664432E-09
        99  13 -1.748460E+05 -4.380764E+04 -3.746943E+02 -9.120090E+04  1.493699E-08 -3.103484E-09
        99  14 -1.774991E+05 -4.113383E+04 -4.726254E+02 -8.814117E+04  3.687779E-09 -2.793672E-09
        99  15 -1.748469E+05 -4.380470E+04 -7.462221E+02 -9.120258E+04  1.339222E-09 -1.059011E-09
        99  16 -2.402173E+05 -6.767930E+04 -1.357567E+04 -1.093149E+05  2.230904E-08  9.660650E-09
        99  17 -2.696731E+05 -7.475815E+04 -1.897366E+04 -1.136724E+05  2.717826E-09  3.858364E-09
        99  18 -2.938241E+05 -8.718252E+04 -2.455061E+04 -1.241508E+05 -1.191732E-08 -3.027874E-09
        99  19 -1.094698E+05 -1.993540E+04  1.282628E+04 -7.308504E+04 -4.607830E+03  3.613750E+03
        99  20 -8.531632E+04 -7.508746E+03  1.802811E+04 -6.260651E+04 -5.599390E+03  5.553534E+03
        99  21 -5.585612E+04 -4.259554E+02  2.305741E+04 -5.824886E+04 -6.590028E+03  7.490371E+03
        99  22 -1.748460E+05 -4.380762E+04 -3.746473E+02 -9.120091E+04 -1.782723E+03  4.673516E+03
        99  23 -1.774991E+05 -4.113379E+04 -4.725288E+02 -8.814119E+04 -2.778243E+03  6.611947E+03
        99  24 -1.748469E+05 -4.380462E+04 -7.460580E+02 -9.120261E+04 -3.772837E+03  8.547440E+03
        99  25 -2.402173E+05 -6.767927E+04 -1.357561E+04 -1.093149E+05  1.042043E+03  5.733153E+03
        99  26 -2.696731E+05 -7.475809E+04 -1.897354E+04 -1.136724E+05  4.245291E+01  7.670191E+03
        99  27 -2.938240E+05 -8.718242E+04 -2.455044E+04 -1.241508E+05 -9.562032E+02  9.604301E+03
       100   1 -3.754512E+04  6.276706E+03  2.667169E+04 -5.320487E+04  7.182533E+03 -8.614156E+03
       100   2 -1.335321E+04  1.870354E+04  3.124364E+04 -4.273311E+04  8.731235E+03 -1.032278E+04
       100   3  1.604369E+04  2.571289E+04  3.520587E+04 -3.838355E+04  1.026508E+04 -1.199088E+04
       100   4 -1.748699E+05 -4.380178E+04 -9.667144E+02 -9.121153E+04  4.357961E+03 -9.674111E+03
       100   5 -1.774720E+05 -4.111336E+04 -1.707690E+03 -8.814126E+04  5.962774E+03 -1.136192E+04
       100   6 -1.748808E+05 -4.385372E+04 -3.102921E+03 -9.119361E+04  7.552689E+03 -1.300921E+04
       100   7 -3.121752E+05 -9.387864E+04 -2.860600E+04 -1.292104E+05  1.534060E+03 -1.073382E+04
       100   8 -3.415623E+05 -1.009277E+05 -3.466011E+04 -1.335381E+05  3.195112E+03 -1.240077E+04
       100   9 -3.657661E+05 -1.134166E+05 -4.141301E+04 -1.439883E+05  4.841215E+03 -1.402720E+04
       100  10 -3.754519E+04  6.276613E+03  2.667146E+04 -5.320482E+04 -1.942290E-09  6.200868E-10
       100  11 -1.335332E+04  1.870340E+04  3.124330E+04 -4.273304E+04  1.105624E-09  1.671941E-09
       100  12  1.604353E+04  2.571271E+04  3.520540E+04 -3.838345E+04  1.161047E-09  1.498199E-09
       100  13 -1.748700E+05 -4.380189E+04 -9.669260E+02 -9.121150E+04 -2.575422E-09  7.384272E-10
       100  14 -1.774721E+05 -4.111350E+04 -1.708000E+03 -8.814120E+04  5.374612E-10  1.369822E-09
       100  15 -1.748809E+05 -4.385392E+04 -3.103346E+03 -9.119353E+04  5.543716E-10  1.926121E-09
       100  16 -3.121753E+05 -9.387876E+04 -2.860622E+04 -1.292104E+05 -2.708367E-09  2.372468E-10
       100  17 -3.415624E+05 -1.009278E+05 -3.466041E+04 -1.335381E+05  5.054201E-09  1.101540E-09
       100  18 -3.657662E+05 -1.134168E+05 -4.141342E+04 -1.439882E+05  3.222913E-10  3.079482E-09
       100  19 -3.754512E+04  6.276706E+03  2.667169E+04 -5.320487E+04 -7.182533E+03  8.614156E+03
       100  20 -1.335321E+04  1.870354E+04  3.124364E+04 -4.273311E+04 -8.731235E+03  1.032278E+04
       100  21  1.604369E+04  2.571289E+04  3.520587E+04 -3.838355E+04 -1.026508E+04  1.199088E+04
       100  22 -1.748699E+05 -4.380178E+04 -9.667144E+02 -9.121153E+04 -4.357961E+03  9.674111E+03
       100  23 -1.774720E+05 -4.111336E+04 -1.707690E+03 -8.814126E+04 -5.962774E+03  1.136192E+04
       100  24 -1.748808E+05 -4.385372E+04 -3.102921E+03 -9.119361E+04 -7.552689E+03  1.300921E+04
       100  25 -3.121752E+05 -9.387864E+04 -2.860600E+04 -1.292104E+05 -1.534060E+03  1.073382E+04
       100  26 -3.415623E+05 -1.009277E+05 -3.466011E+04 -1.335381E+05 -3.195112E+03  1.240077E+04
       100  27 -3.657661E+05 -1.134166E+05 -4.141301E+04 -1.439883E+05 -4.841215E+03  1.402720E+04
       101   1  3.442589E+04  3.230044E+04  3.802256E+04 -3.367299E+04  1.140885E+04 -1.291001E+04
       101   2  5.842713E+04  4.498334E+04  4.021243E+04 -2.245804E+04  1.499255E+04 -1.353915E+04
       101   3  8.670979E+04  5.060455E+04  3.975480E+04 -1.698141E+04  1.834964E+04 -1.356303E+04
       101   4 -1.750513E+05 -4.375590E+04 -4.120532E+03 -9.129561E+04  8.575632E+03 -1.397385E+04
       101   5 -1.772748E+05 -4.130721E+04 -7.502883E+03 -8.798952E+04  1.300105E+04 -1.428739E+04
       101   6 -1.753851E+05 -4.608807E+04 -1.420068E+04 -9.042254E+04  1.719968E+04 -1.399560E+04
       101   7 -3.844851E+05 -1.198093E+05 -4.626622E+04 -1.489008E+05  5.743416E+03 -1.503733E+04
       101   8 -4.129205E+05 -1.275933E+05 -5.522123E+04 -1.534983E+05  1.101035E+04 -1.503534E+04
       101   9 -4.374096E+05 -1.427746E+05 -6.815975E+04 -1.638350E+05  1.605023E+04 -1.442796E+04
       101  10  3.442571E+04  3.230023E+04  3.802200E+04 -3.367287E+04 -7.760454E-09 -1.778445E-09
       101  11  5.842684E+04  4.498308E+04  4.021167E+04 -2.245787E+04 -3.541263E-09  2.935160E-09
       101  12  8.670938E+04  5.060426E+04  3.975382E+04 -1.698121E+04  1.045404E-08  8.088017E-09
       101  13 -1.750515E+05 -4.375613E+04 -4.121038E+03 -9.129552E+04  6.293669E-10  1.073190E-09
       101  14 -1.772750E+05 -4.130748E+04 -7.503585E+03 -8.798937E+04 -1.905166E-09 -1.392669E-09
       101  15 -1.753855E+05 -4.608836E+04 -1.420161E+04 -9.042235E+04  1.651692E-09 -4.061676E-09
       101  16 -3.844852E+05 -1.198095E+05 -4.626671E+04 -1.489007E+05  1.016768E-08  6.755555E-09
       101  17 -4.129207E+05 -1.275936E+05 -5.522188E+04 -1.534982E+05 -5.630486E-12  3.557613E-09
       101  18 -4.374099E+05 -1.427749E+05 -6.816063E+04 -1.638348E+05 -7.672729E-09  1.561730E-09
       101  19  3.442589E+04  3.230044E+04  3.802256E+04 -3.367299E+04 -1.140885E+04  1.291001E+04
       101  20  5.842713E+04  4.498334E+04  4.021243E+04 -2.245804E+04 -1.499255E+04  1.353915E+04
       101  21  8.670979E+04  5.060455E+04  3.975480E+04 -1.698141E+04 -1.834964E+04  1.356303E+04
       101  22 -1.750513E+05 -4.375590E+04 -4.120532E+03 -9.129561E+04 -8.575632E+03  1.397385E+04
       101  23 -1.772748E+05 -4.130721E+04 -7.502883E+03 -8.798952E+04 -1.300105E+04  1.428739E+04
       101  24 -1.753851E+05 -4.608807E+04 -1.420068E+04 -9.042254E+04 -1.719968E+04  1.399560E+04
       101  25 -3.844851E+05 -1.198093E+05 -4.626622E+04 -1.489008E+05 -5.743416E+03  1.503733E+04
       101  26 -4.129205E+05 -1.275933E+05 -5.522123E+04 -1.534983E+05 -1.101035E+04  1.503534E+04
       101  27 -4.374096E+05 -1.427746E+05 -6.815975E+04 -1.638350E+05 -1.605023E+04  1.442796E+04
       102   1  1.078749E+05  5.491902E+04  3.927589E+04 -1.921261E+04  2.280883E+04 -1.328973E+04
       102   2  1.212373E+05  7.448147E+04  3.278771E+04  1.335210E+04  2.733479E+04 -8.805900E+03
       102   3  1.234691E+05  4.846560E+04  1.107849E+04  5.110614E+04  2.841426E+04  4.853376E+03
       102   4 -1.777291E+05 -4.376526E+04 -1.855973E+04 -9.227988E+04  1.981058E+04 -1.441624E+04
       102   5 -1.750859E+05 -4.938190E+04 -3.464781E+04 -8.373226E+04  3.711538E+04 -5.134143E+03
       102   6 -1.861138E+05 -1.031231E+05 -7.608821E+04 -6.999448E+04  5.097229E+04  1.332488E+04
       102   7 -4.632492E+05 -1.424447E+05 -7.639928E+04 -1.653170E+05  1.681382E+04 -1.554227E+04
       102   8 -4.713154E+05 -1.732293E+05 -1.020875E+05 -1.807703E+05  4.689082E+04 -1.464908E+03
       102   9 -4.955917E+05 -2.546802E+05 -1.632593E+05 -1.910307E+05  7.351753E+04  2.178833E+04
       102  10  1.078743E+05  5.491869E+04  3.927458E+04 -1.921236E+04 -3.614727E-08 -1.048162E-08
       102  11  1.212365E+05  7.448119E+04  3.278616E+04  1.335229E+04 -1.251691E-08 -3.481730E-09
       102  12  1.234682E+05  4.846536E+04  1.107692E+04  5.110603E+04  2.270980E-08  8.054225E-09
       102  13 -1.777296E+05 -4.376559E+04 -1.856086E+04 -9.227965E+04 -6.275732E-10 -6.384830E-09
       102  14 -1.750874E+05 -4.938229E+04 -3.465045E+04 -8.373211E+04 -4.298873E-09 -1.016111E-08
       102  15 -1.861167E+05 -1.031240E+05 -7.609343E+04 -6.999503E+04  5.977883E-10 -1.194578E-09
       102  16 -4.632495E+05 -1.424451E+05 -7.640026E+04 -1.653168E+05  3.707069E-08  1.506213E-08
       102  17 -4.713178E+05 -1.732299E+05 -1.020916E+05 -1.807702E+05 -3.233117E-09 -1.457669E-09
       102  18 -4.955976E+05 -2.546822E+05 -1.632704E+05 -1.910320E+05 -2.650230E-08 -1.133328E-08
       102  19  1.078749E+05  5.491902E+04  3.927589E+04 -1.921261E+04 -2.280883E+04  1.328973E+04
       102  20  1.212373E+05  7.448147E+04  3.278771E+04  1.335210E+04 -2.733479E+04  8.805900E+03
       102  21  1.234691E+05  4.846560E+04  1.107849E+04  5.110614E+04 -2.841426E+04 -4.853376E+03
       102  22 -1.777291E+05 -4.376526E+04 -1.855973E+04 -9.227988E+04 -1.981058E+04  1.441624E+04
       102  23 -1.750859E+05 -4.938190E+04 -3.464781E+04 -8.373226E+04 -3.711538E+04  5.134143E+03
       102  24 -1.861138E+05 -1.031231E+05 -7.608821E+04 -6.999448E+04 -5.097229E+04 -1.332488E+04
       102  25 -4.632492E+05 -1.424447E+05 -7.639928E+04 -1.653170E+05 -1.681382E+04  1.554227E+04
       102  26 -4.713154E+05 -1.732293E+05 -1.020875E+05 -1.807703E+05 -4.689082E+04  1.464908E+03
       102  27 -4.955917E+05 -2.546802E+05 -1.632593E+05 -1.910307E+05 -7.351753E+04 -2.178833E+04
       103   1  8.997355E+05  1.432544E+05  1.275172E+05  1.506753E+04  3.675677E+04 -1.080482E+04
       103   2  8.618506E+05  1.595852E+05  1.070970E+05  2.875414E+04  1.490893E+04 -3.732321E+04
       103   3  8.226610E+05  1.592072E+05  9.673135E+04  4.802013E+04 -6.948351E+03 -4.721847E+04
       103   4  1.147306E+05 -4.979934E+04 -5.353873E+04  4.768678E+04 -3.765528E+04 -1.086946E+04
       103   5  1.184773E+05 -1.572630E+04 -2.670952E+04  4.487318E+04 -2.395889E+04 -3.736506E+04
       103   6  1.147457E+05 -4.542078E+03 -1.449745E+04  4.763869E+04 -1.027365E+04 -4.722723E+04
       103   7 -6.696908E+05 -2.428892E+05 -2.346143E+05  8.026438E+04 -1.119740E+05 -1.094195E+04
       103   8 -6.243544E+05 -1.910668E+05 -1.605317E+05  6.097226E+04 -6.278150E+04 -3.740895E+04
       103   9 -5.926706E+05 -1.683161E+05 -1.257385E+05  4.725755E+04 -1.359530E+04 -4.723598E+04
       103  10  8.997340E+05  1.432539E+05  1.275145E+05  1.506785E+04  6.822167E-08 -4.709452E-10
       103  11  8.618500E+05  1.595837E+05  1.070940E+05  2.875458E+04  1.322243E-09 -2.032940E-09
       103  12  8.226603E+05  1.592048E+05  9.672707E+04  4.801987E+04 -6.672680E-08 -2.271031E-10
       103  13  1.147291E+05 -4.979985E+04 -5.354162E+04  4.768645E+04 -4.241646E-09  5.811320E-10
       103  14  1.184763E+05 -1.572795E+04 -2.671322E+04  4.487246E+04 -2.248816E-09 -9.613776E-10
       103  15  1.147450E+05 -4.544502E+03 -1.450184E+04  4.763830E+04  1.380311E-09  5.937557E-10
       103  16 -6.697043E+05 -2.428927E+05 -2.346381E+05  8.026339E+04 -6.265111E-08  4.453524E-10
       103  17 -6.243590E+05 -1.910694E+05 -1.605418E+05  6.097037E+04 -2.340450E-09 -2.629814E-09
       103  18 -5.926714E+05 -1.683185E+05 -1.257430E+05  4.725703E+04  6.639707E-08 -3.368034E-09
       103  19  8.997355E+05  1.432544E+05  1.275172E+05  1.506753E+04 -3.675677E+04  1.080482E+04
       103  20  8.618506E+05  1.595852E+05  1.070970E+05  2.875414E+04 -1.490893E+04  3.732321E+04
       103  21  8.226610E+05  1.592072E+05  9.673135E+04  4.802013E+04  6.948351E+03  4.721847E+04
       103  22  1.147306E+05 -4.979934E+04 -5.353873E+04  4.768678E+04  3.765528E+04  1.086946E+04
       103  23  1.184773E+05 -1.572630E+04 -2.670952E+04  4.487318E+04  2.395889E+04  3.736506E+04
       103  24  1.147457E+05 -4.542078E+03 -1.449745E+04  4.763869E+04  1.027365E+04  4.722723E+04
       103  25 -6.696908E+05 -2.428892E+05 -2.346143E+05  8.026438E+04  1.119740E+05  1.094195E+04
       103  26 -6.243544E+05 -1.910668E+05 -1.605317E+05  6.097226E+04  6.278150E+04  3.740895E+04
       103  27 -5.926706E+05 -1.683161E+05 -1.257385E+05  4.725755E+04  1.359530E+04  4.723598E+04
       104   1  7.990730E+05  1.538518E+05  9.371962E+04  4.659251E+04 -5.220733E+03 -4.748353E+04
       104   2  7.607522E+05  1.466594E+05  8.832275E+04  4.429107E+04 -6.520417E+03 -4.797573E+04
       104   3  7.223377E+05  1.383779E+05  8.350350E+04  4.875766E+04 -7.822925E+03 -4.647390E+04
       104   4  1.162282E+05 -3.556627E+03 -1.087521E+04  4.790594E+04 -8.394775E+03 -4.749224E+04
       104   5  1.166535E+05 -9.378763E+02 -5.913153E+03  4.451944E+04 -5.433107E+03 -4.797930E+04
       104   6  1.162443E+05 -1.483530E+02 -3.331844E+03  4.790142E+04 -2.474264E+03 -4.647124E+04
       104   7 -5.661504E+05 -1.609875E+05 -1.154802E+05  4.921773E+04 -1.156546E+04 -4.750097E+04
       104   8 -5.270276E+05 -1.485544E+05 -1.001562E+05  4.474742E+04 -4.346875E+03 -4.798287E+04
       104   9 -4.894781E+05 -1.386913E+05 -9.017263E+04  4.704593E+04  2.869402E+03 -4.646860E+04
       104  10  7.990724E+05  1.538493E+05  9.371533E+04  4.659231E+04 -5.868456E-09 -1.359461E-09
       104  11  7.607516E+05  1.466569E+05  8.831835E+04  4.429082E+04 -3.862981E-09 -1.121711E-09
       104  12  7.223370E+05  1.383756E+05  8.349932E+04  4.875736E+04 -1.610207E-09 -1.173989E-10
       104  13  1.162276E+05 -3.559068E+03 -1.087958E+04  4.790562E+04 -1.102316E-12 -1.311961E-09
       104  14  1.166529E+05 -9.403563E+02 -5.917535E+03  4.451923E+04 -1.231732E-09 -1.040116E-09
       104  15  1.162437E+05 -1.506737E+02 -3.335913E+03  4.790133E+04  7.107702E-10 -2.350476E-09
       104  16 -5.661512E+05 -1.609899E+05 -1.154847E+05  4.921729E+04  5.822221E-09 -6.141889E-10
       104  17 -5.270283E+05 -1.485569E+05 -1.001605E+05  4.474725E+04  4.413857E-11  7.436338E-10
       104  18 -4.894787E+05 -1.386936E+05 -9.017670E+04  4.704604E+04 -1.033259E-09 -3.495004E-10
       104  19  7.990730E+05  1.538518E+05  9.371962E+04  4.659251E+04  5.220733E+03  4.748353E+04
       104  20  7.607522E+05  1.466594E+05  8.832275E+04  4.429107E+04  6.520417E+03  4.797573E+04
       104  21  7.223377E+05  1.383779E+05  8.350350E+04  4.875766E+04  7.822925E+03  4.647390E+04
       104  22  1.162282E+05 -3.556627E+03 -1.087521E+04  4.790594E+04  8.394775E+03  4.749224E+04
       104  23  1.166535E+05 -9.378763E+02 -5.913153E+03  4.451944E+04  5.433107E+03  4.797930E+04
       104  24  1.162443E+05 -1.483530E+02 -3.331844E+03  4.790142E+04  2.474264E+03  4.647124E+04
       104  25 -5.661504E+05 -1.609875E+05 -1.154802E+05  4.921773E+04  1.156546E+04  4.750097E+04
       104  26 -5.270276E+05 -1.485544E+05 -1.001562E+05  4.474742E+04  4.346875E+03  4.798287E+04
       104  27 -4.894781E+05 -1.386913E+05 -9.017263E+04  4.704593E+04 -2.869402E+03  4.646860E+04
       105   1  6.983819E+05  1.328347E+05  8.042381E+04  4.859668E+04 -7.342146E+03 -4.494114E+04
       105   2  6.600714E+05  1.241453E+05  7.559119E+04  4.515114E+04 -7.150290E+03 -4.231249E+04
       105   3  6.217260E+05  1.154271E+05  7.062576E+04  4.861010E+04 -6.959674E+03 -3.944508E+04
       105   4  1.164074E+05 -9.267027E+01 -2.517830E+03  4.793209E+04 -1.976557E+03 -4.493788E+04
       105   5  1.164769E+05  7.385092E+01 -1.418988E+03  4.447950E+04 -1.274972E+03 -4.230757E+04
       105   6  1.164214E+05  1.230584E+02 -8.071030E+02  4.793176E+04 -5.746158E+02 -3.943840E+04
       105   7 -4.652250E+05 -1.330353E+05 -8.546430E+04  4.726803E+04  3.384224E+03 -4.493463E+04
       105   8 -4.268188E+05 -1.240109E+05 -7.843317E+04  4.380836E+04  4.595429E+03 -4.230267E+04
       105   9 -3.886248E+05 -1.151925E+05 -7.224334E+04  4.725390E+04  5.805475E+03 -3.943174E+04
       105  10  6.983813E+05  1.328325E+05  8.041991E+04  4.859641E+04  1.341462E-07  2.218437E-09
       105  11  6.600709E+05  1.241434E+05  7.558773E+04  4.515090E+04 -2.596851E-08  3.113093E-09
       105  12  6.217255E+05  1.154255E+05  7.062275E+04  4.860988E+04 -1.810411E-07  3.200255E-09
       105  13  1.164068E+05 -9.483993E+01 -2.521632E+03  4.793202E+04 -2.200141E-09 -1.621368E-09
       105  14  1.164764E+05  7.192831E+01 -1.422355E+03  4.447946E+04 -1.212545E-10  3.700189E-09
       105  15  1.164210E+05  1.213880E+02 -8.100266E+02  4.793175E+04  1.054939E-09  4.434961E-09
       105  16 -4.652256E+05 -1.330375E+05 -8.546812E+04  4.726816E+04 -1.367212E-07  1.140262E-09
       105  17 -4.268193E+05 -1.240128E+05 -7.843657E+04  4.380852E+04  1.948946E-08  4.742737E-09
       105  18 -3.886252E+05 -1.151941E+05 -7.224632E+04  4.725408E+04  1.797445E-07  1.128272E-09
       105  19  6.983819E+05  1.328347E+05  8.042381E+04  4.859668E+04  7.342146E+03  4.494114E+04
       105  20  6.600714E+05  1.241453E+05  7.559119E+04  4.515114E+04  7.150290E+03  4.231249E+04
       105  21  6.217260E+05  1.154271E+05  7.062576E+04  4.861010E+04  6.959674E+03  3.944508E+04
       105  22  1.164074E+05 -9.267027E+01 -2.517830E+03  4.793209E+04  1.976557E+03  4.493788E+04
       105  23  1.164769E+05  7.385092E+01 -1.418988E+03  4.447950E+04  1.274972E+03  4.230757E+04
       105  24  1.164214E+05  1.230584E+02 -8.071030E+02  4.793176E+04  5.746158E+02  3.943840E+04
       105  25 -4.652250E+05 -1.330353E+05 -8.546430E+04  4.726803E+04 -3.384224E+03  4.493463E+04
       105  26 -4.268188E+05 -1.240109E+05 -7.843317E+04  4.380836E+04 -4.595429E+03  4.230267E+04
       105  27 -3.886248E+05 -1.151925E+05 -7.224334E+04  4.725390E+04 -5.805475E+03  3.943174E+04
       106   1  5.977596E+05  1.099220E+05  6.726025E+04  4.857191E+04 -6.836140E+03 -3.769764E+04
       106   2  5.594635E+05  1.011841E+05  6.212966E+04  4.507164E+04 -6.731079E+03 -3.469607E+04
       106   3  5.211483E+05  9.247321E+04  5.693341E+04  4.848806E+04 -6.626845E+03 -3.166627E+04
       106   4  1.164466E+05  1.254489E+02 -6.092230E+02  4.793450E+04 -4.499066E+02 -3.769041E+04
       106   5  1.164682E+05  1.255409E+02 -3.413807E+02  4.447601E+04 -2.848571E+02 -3.468789E+04
       106   6  1.164581E+05  1.419939E+02 -1.811842E+02  4.793449E+04 -1.206288E+02 -3.165714E+04
       106   7 -3.646319E+05 -1.096815E+05 -6.848168E+04  4.729751E+04  5.931596E+03 -3.768319E+04
       106   8 -3.263284E+05 -1.009418E+05 -6.281492E+04  4.388073E+04  6.156969E+03 -3.467973E+04
       106   9 -2.880662E+05 -9.219655E+04 -5.729785E+04  4.738122E+04  6.381534E+03 -3.164802E+04
       106  10  5.977592E+05  1.099204E+05  6.725749E+04  4.857171E+04  5.383706E-08  1.903719E-09
       106  11  5.594632E+05  1.011828E+05  6.212731E+04  4.507145E+04  2.314277E-08  3.003562E-09
       106  12  5.211480E+05  9.247213E+04  5.693144E+04  4.848789E+04 -1.238212E-08  3.317646E-09
       106  13  1.164462E+05  1.239233E+02 -6.118930E+02  4.793449E+04  2.124345E-09  1.003933E-09
       106  14  1.164679E+05  1.242487E+02 -3.436421E+02  4.447600E+04  2.021353E-09  2.924304E-09
       106  15  1.164579E+05  1.409176E+02 -1.830677E+02  4.793448E+04 -4.641683E-09 -9.179587E-10
       106  16 -3.646323E+05 -1.096830E+05 -6.848441E+04  4.729769E+04 -5.354833E-08 -7.633140E-10
       106  17 -3.263288E+05 -1.009431E+05 -6.281725E+04  4.388091E+04 -1.836693E-08  3.354170E-10
       106  18 -2.880665E+05 -9.219764E+04 -5.729981E+04  4.738138E+04  1.890629E-08 -1.970405E-09
       106  19  5.977596E+05  1.099220E+05  6.726025E+04  4.857191E+04  6.836140E+03  3.769764E+04
       106  20  5.594635E+05  1.011841E+05  6.212966E+04  4.507164E+04  6.731079E+03  3.469607E+04
       106  21  5.211483E+05  9.247322E+04  5.693341E+04  4.848806E+04  6.626845E+03  3.166627E+04
       106  22  1.164466E+05  1.254489E+02 -6.092230E+02  4.793450E+04  4.499066E+02  3.769041E+04
       106  23  1.164682E+05  1.255409E+02 -3.413807E+02  4.447601E+04  2.848571E+02  3.468789E+04
       106  24  1.164581E+05  1.419939E+02 -1.811842E+02  4.793449E+04  1.206288E+02  3.165714E+04
       106  25 -3.646319E+05 -1.096815E+05 -6.848168E+04  4.729751E+04 -5.931596E+03  3.768319E+04
       106  26 -3.263284E+05 -1.009418E+05 -6.281492E+04  4.388073E+04 -6.156969E+03  3.467973E+04
       106  27 -2.880662E+05 -9.219655E+04 -5.729785E+04  4.738122E+04 -6.381534E+03  3.164802E+04
       107   1  4.971884E+05  8.698100E+04  5.346579E+04  4.846192E+04 -6.600922E+03 -2.989373E+04
       107   2  4.589079E+05  7.825265E+04  4.821803E+04  4.495968E+04 -6.591140E+03 -2.684861E+04
       107   3  4.206118E+05  6.955216E+04  4.296404E+04  4.837679E+04 -6.581967E+03 -2.380077E+04
       107   4  1.164648E+05  1.447575E+02 -1.259714E+02  4.793507E+04 -9.527046E+01 -2.988416E+04
       107   5  1.164781E+05  1.374126E+02 -4.074811E+01  4.447528E+04 -7.980965E+01 -2.683837E+04
       107   6  1.164738E+05  1.571106E+02  3.434875E+01  4.793506E+04 -6.495587E+01 -2.378986E+04
       107   7 -2.641119E+05 -8.669795E+04 -5.371951E+04  4.740848E+04  6.406568E+03 -2.987460E+04
       107   8 -2.258330E+05 -7.798306E+04 -4.830095E+04  4.399110E+04  6.428088E+03 -2.682814E+04
       107   9 -1.875705E+05 -6.924206E+04 -4.289645E+04  4.749350E+04  6.449003E+03 -2.377895E+04
       107  10  4.971881E+05  8.698003E+04  5.346403E+04  4.846176E+04  5.173879E-09 -4.981063E-10
       107  11  4.589077E+05  7.825187E+04  4.821660E+04  4.495954E+04  2.721385E-09 -2.566832E-09
       107  12  4.206116E+05  6.955154E+04  4.296290E+04  4.837667E+04  5.864239E-10 -3.248918E-09
       107  13  1.164646E+05  1.437985E+02 -1.276497E+02  4.793506E+04 -2.058468E-09  3.032719E-09
       107  14  1.164779E+05  1.366391E+02 -4.210178E+01  4.447528E+04  4.122847E-09 -2.217623E-09
       107  15  1.164736E+05  1.565028E+02  3.328514E+01  4.793506E+04 -8.599496E-10 -2.900810E-09
       107  16 -2.641122E+05 -8.669892E+04 -5.372126E+04  4.740864E+04 -5.939158E-09 -4.975281E-10
       107  17 -2.258332E+05 -7.798384E+04 -4.830238E+04  4.399124E+04 -4.056369E-09 -3.579175E-09
       107  18 -1.875707E+05 -6.924268E+04 -4.289759E+04  4.749363E+04  4.296542E-09 -3.916521E-09
       107  19  4.971884E+05  8.698100E+04  5.346579E+04  4.846192E+04  6.600922E+03  2.989373E+04
       107  20  4.589079E+05  7.825265E+04  4.821803E+04  4.495968E+04  6.591140E+03  2.684861E+04
       107  21  4.206118E+05  6.955216E+04  4.296404E+04  4.837679E+04  6.581967E+03  2.380077E+04
       107  22  1.164648E+05  1.447575E+02 -1.259714E+02  4.793507E+04  9.527046E+01  2.988416E+04
       107  23  1.164781E+05  1.374126E+02 -4.074811E+01  4.447528E+04  7.980965E+01  2.683837E+04
       107  24  1.164738E+05  1.571106E+02  3.434875E+01  4.793506E+04  6.495587E+01  2.378986E+04
       107  25 -2.641119E+05 -8.669795E+04 -5.371951E+04  4.740848E+04 -6.406568E+03  2.987460E+04
       107  26 -2.258330E+05 -7.798306E+04 -4.830095E+04  4.399110E+04 -6.428088E+03  2.682814E+04
       107  27 -1.875705E+05 -6.924206E+04 -4.289645E+04  4.749350E+04 -6.449003E+03  2.377895E+04
       108   1  3.966630E+05  6.406296E+04  3.948593E+04  4.834988E+04 -6.593836E+03 -2.202597E+04
       108   2  3.583897E+05  5.534105E+04  3.425919E+04  4.483914E+04 -6.679406E+03 -1.897826E+04
       108   3  3.201122E+05  4.666425E+04  2.909086E+04  4.824463E+04 -6.765392E+03 -1.593319E+04
       108   4  1.164793E+05  1.599134E+02  7.355454E+01  4.793436E+04 -7.744706E+01 -2.201473E+04
       108   5  1.164848E+05  1.557376E+02  1.734991E+02  4.447614E+04 -1.688290E+02 -1.896656E+04
       108   6  1.164856E+05  1.977112E+02  3.357827E+02  4.793430E+04 -2.606320E+02 -1.592104E+04
       108   7 -1.636249E+05 -6.374662E+04 -3.933970E+04  4.751900E+04  6.436131E+03 -2.200349E+04
       108   8 -1.253609E+05 -5.503218E+04 -3.391282E+04  4.411325E+04  6.339323E+03 -1.895487E+04
       108   9 -8.709908E+04 -4.627066E+04 -2.841970E+04  4.762405E+04  6.242088E+03 -1.590889E+04
       108  10  3.966628E+05  6.406243E+04  3.948493E+04  4.834977E+04 -1.266346E-09 -2.160322E-10
       108  11  3.583896E+05  5.534065E+04  3.425843E+04  4.483904E+04  1.377061E-09 -1.766842E-09
       108  12  3.201121E+05  4.666396E+04  2.909030E+04  4.824455E+04 -1.117562E-10  1.747896E-09
       108  13  1.164791E+05  1.593929E+02  7.264373E+01  4.793436E+04 -1.912165E-13 -1.084410E-09
       108  14  1.164847E+05  1.553512E+02  1.728230E+02  4.447613E+04 -2.484221E-10  1.836570E-09
       108  15  1.164855E+05  1.974390E+02  3.353062E+02  4.793430E+04 -1.692296E-09  2.374608E-09
       108  16 -1.636251E+05 -6.374715E+04 -3.934069E+04  4.751911E+04  5.005849E-09  5.361424E-10
       108  17 -1.253610E+05 -5.503257E+04 -3.391357E+04  4.411335E+04  4.834822E-09 -3.649809E-09
       108  18 -8.709919E+04 -4.627095E+04 -2.842025E+04  4.762413E+04 -5.848540E-10  9.884308E-10
       108  19  3.966630E+05  6.406296E+04  3.948593E+04  4.834988E+04  6.593836E+03  2.202597E+04
       108  20  3.583897E+05  5.534105E+04  3.425919E+04  4.483914E+04  6.679406E+03  1.897826E+04
       108  21  3.201122E+05  4.666425E+04  2.909086E+04  4.824463E+04  6.765392E+03  1.593319E+04
       108  22  1.164793E+05  1.599134E+02  7.355454E+01  4.793436E+04  7.744706E+01  2.201473E+04
       108  23  1.164848E+05  1.557376E+02  1.734991E+02  4.447614E+04  1.688290E+02  1.896656E+04
       108  24  1.164856E+05  1.977112E+02  3.357827E+02  4.793430E+04  2.606320E+02  1.592104E+04
       108  25 -1.636249E+05 -6.374662E+04 -3.933970E+04  4.751900E+04 -6.436131E+03  2.200349E+04
       108  26 -1.253609E+05 -5.503218E+04 -3.391282E+04  4.411325E+04 -6.339323E+03  1.895487E+04
       108  27 -8.709908E+04 -4.627066E+04 -2.841970E+04  4.762405E+04 -6.242088E+03  1.590889E+04
       109   1  2.961883E+05  4.118173E+04  2.568666E+04  4.823618E+04 -6.835057E+03 -1.416095E+04
       109   2  2.578800E+05  3.255724E+04  2.070089E+04  4.457508E+04 -7.196853E+03 -1.112953E+04
       109   3  2.196576E+05  2.420757E+04  1.600969E+04  4.782648E+04 -7.558828E+03 -8.121507E+03
       109   4  1.165089E+05  2.067981E+02  4.513615E+02  4.793354E+04 -3.309374E+02 -1.414858E+04
       109   5  1.164645E+05  3.026208E+02  8.118472E+02  4.447679E+04 -7.428916E+02 -1.111699E+04
       109   6  1.165125E+05  6.818799E+02  1.501455E+03  4.793263E+04 -1.155044E+03 -8.108796E+03
       109   7 -6.313770E+04 -4.076955E+04 -2.478421E+04  4.763098E+04  6.171383E+03 -1.413622E+04
       109   8 -2.493073E+04 -3.195287E+04 -1.907731E+04  4.437853E+04  5.709664E+03 -1.110445E+04
       109   9  1.337828E+04 -2.284427E+04 -1.300677E+04  4.803875E+04  5.247722E+03 -8.096082E+03
       109  10  2.961882E+05  4.118150E+04  2.568620E+04  4.823610E+04 -4.810862E-09  5.561749E-09
       109  11  2.578799E+05  3.255709E+04  2.070056E+04  4.457501E+04 -4.100352E-10  1.004053E-09
       109  12  2.196575E+05  2.420749E+04  1.600946E+04  4.782643E+04  9.162168E-09  4.053412E-09
       109  13  1.165088E+05  2.065831E+02  4.509851E+02  4.793354E+04 -5.912287E-12  3.176685E-09
       109  14  1.164644E+05  3.024879E+02  8.116139E+02  4.447679E+04 -2.417405E-09  3.765257E-09
       109  15  1.165125E+05  6.818089E+02  1.501329E+03  4.793262E+04  4.222902E-09 -9.102469E-11
       109  16 -6.313779E+04 -4.076978E+04 -2.478465E+04  4.763105E+04  3.201993E-09  3.185046E-09
       109  17 -2.493080E+04 -3.195301E+04 -1.907760E+04  4.437858E+04 -4.762322E-10  3.136374E-09
       109  18  1.337824E+04 -2.284434E+04 -1.300694E+04  4.803878E+04 -8.058478E-09 -5.993705E-09
       109  19  2.961883E+05  4.118173E+04  2.568666E+04  4.823618E+04  6.835057E+03  1.416095E+04
       109  20  2.578800E+05  3.255724E+04  2.070089E+04  4.457508E+04  7.196853E+03  1.112953E+04
       109  21  2.196576E+05  2.420757E+04  1.600969E+04  4.782648E+04  7.558828E+03  8.121507E+03
       109  22  1.165089E+05  2.067981E+02  4.513615E+02  4.793354E+04  3.309374E+02  1.414858E+04
       109  23  1.164645E+05  3.026208E+02  8.118472E+02  4.447679E+04  7.428916E+02  1.111699E+04
       109  24  1.165125E+05  6.818799E+02  1.501455E+03  4.793263E+04  1.155044E+03  8.108796E+03
       109  25 -6.313770E+04 -4.076955E+04 -2.478421E+04  4.763098E+04 -6.171383E+03  1.413622E+04
       109  26 -2.493073E+04 -3.195287E+04 -1.907731E+04  4.437853E+04 -5.709664E+03  1.110445E+04
       109  27  1.337828E+04 -2.284427E+04 -1.300677E+04  4.803875E+04 -5.247722E+03  8.096082E+03
       110   1  1.959088E+05  1.884508E+04  1.296022E+04  4.802312E+04 -7.819589E+03 -6.370757E+03
       110   2  1.571854E+05  1.162116E+04  9.127005E+03  4.223094E+04 -9.299426E+03 -3.474482E+03
       110   3  1.194041E+05  7.526200E+03  7.029013E+03  4.333367E+04 -1.077891E+04 -7.724486E+02
       110   4  1.167180E+05  8.183161E+02  2.003423E+03  4.792970E+04 -1.417898E+03 -6.357944E+03
       110   5  1.162117E+05  2.351915E+03  3.692987E+03  4.447609E+04 -3.312811E+03 -3.462462E+03
       110   6  1.167187E+05  7.086761E+03  7.406019E+03  4.791732E+04 -5.207453E+03 -7.612397E+02
       110   7  3.753356E+04 -1.720871E+04 -8.953290E+03  4.783628E+04  4.983012E+03 -6.345133E+03
       110   8  7.523990E+04 -6.917364E+03 -1.740906E+03  4.672109E+04  2.673428E+03 -3.450399E+03
       110   9  1.140334E+05  6.647418E+03  7.783154E+03  5.250095E+04  3.639842E+02 -7.499485E+02
       110  10  1.959087E+05  1.884502E+04  1.296003E+04  4.802308E+04 -2.362714E-09  2.989320E-09
       110  11  1.571853E+05  1.162112E+04  9.126820E+03  4.223091E+04  8.122353E-10 -1.881004E-09
       110  12  1.194039E+05  7.526168E+03  7.028794E+03  4.333367E+04  2.075860E-09 -7.254503E-10
       110  13  1.167180E+05  8.182722E+02  2.003344E+03  4.792969E+04  4.383981E-09  2.703505E-09
       110  14  1.162117E+05  2.351899E+03  3.692944E+03  4.447608E+04  5.045357E-09 -3.872172E-09
       110  15  1.167187E+05  7.086753E+03  7.405967E+03  4.791732E+04  2.405248E-09  2.074919E-09
       110  16  3.753352E+04 -1.720876E+04 -8.953413E+03  4.783630E+04  6.187701E-09 -1.040630E-09
       110  17  7.523989E+04 -6.917379E+03 -1.740942E+03  4.672110E+04 -8.772481E-12  1.464565E-09
       110  18  1.140334E+05  6.647417E+03  7.783153E+03  5.250095E+04  2.823517E-09 -5.206571E-10
       110  19  1.959088E+05  1.884508E+04  1.296022E+04  4.802312E+04  7.819589E+03  6.370757E+03
       110  20  1.571854E+05  1.162116E+04  9.127005E+03  4.223094E+04  9.299426E+03  3.474482E+03
       110  21  1.194041E+05  7.526200E+03  7.029013E+03  4.333367E+04  1.077891E+04  7.724486E+02
       110  22  1.167180E+05  8.183161E+02  2.003423E+03  4.792970E+04  1.417898E+03  6.357944E+03
       110  23  1.162117E+05  2.351915E+03  3.692987E+03  4.447609E+04  3.312811E+03  3.462462E+03
       110  24  1.167187E+05  7.086761E+03  7.406019E+03  4.791732E+04  5.207453E+03  7.612397E+02
       110  25  3.753356E+04 -1.720871E+04 -8.953290E+03  4.783628E+04 -4.983012E+03  6.345133E+03
       110  26  7.523990E+04 -6.917364E+03 -1.740906E+03  4.672109E+04 -2.673428E+03  3.450399E+03
       110  27  1.140334E+05  6.647418E+03  7.783154E+03  5.250095E+04 -3.639842E+02  7.499485E+02
       111   1  1.368433E+04  4.327384E+05  1.479690E+04 -3.348456E+04 -9.347354E+01  3.468452E+03
       111   2  2.058275E+02  4.001410E+05  4.606272E+03 -2.710975E+04 -9.740685E+02 -3.368514E+02
       111   3 -8.452531E+03  3.692285E+05 -1.906912E+03 -2.882053E+04 -2.741457E+03 -4.142679E+03
       111   4  6.871693E+03  4.055798E+05  7.921016E+03 -2.926389E+04 -9.398882E+01  4.123958E+03
       111   5  1.190541E+03  4.048525E+05  4.838959E+03 -2.522384E+04 -9.756832E+02  1.638864E+03
       111   6  1.006223E+02  4.055808E+05  4.518213E+03 -2.926926E+04 -2.744141E+03 -8.469191E+02
       111   7  5.907142E+01  3.784218E+05  1.045083E+03 -2.504341E+04 -9.449520E+01  4.779435E+03
       111   8  2.175270E+03  4.095641E+05  5.071664E+03 -2.333790E+04 -9.772859E+02  3.614594E+03
       111   9  8.653710E+03  4.419344E+05  1.094333E+04 -2.971803E+04 -2.746830E+03  2.449028E+03
       111  10  1.368432E+04  4.327384E+05  1.479688E+04 -3.348456E+04 -3.010178E-10  3.151480E-09
       111  11  2.058264E+02  4.001410E+05  4.606270E+03 -2.710975E+04  5.388104E-09 -2.025936E-09
       111  12 -8.452544E+03  3.692285E+05 -1.906959E+03 -2.882054E+04  6.884792E-09 -2.897618E-09
       111  13  6.871688E+03  4.055797E+05  7.920984E+03 -2.926389E+04  9.924034E-10 -9.891897E-11
       111  14  1.190540E+03  4.048525E+05  4.838952E+03 -2.522383E+04  2.950861E-09 -1.676518E-09
       111  15  1.006140E+02  4.055808E+05  4.518198E+03 -2.926927E+04  7.789132E-10  1.928383E-09
       111  16  5.906529E+01  3.784217E+05  1.045040E+03 -2.504341E+04 -1.372143E-09 -4.037133E-09
       111  17  2.175266E+03  4.095640E+05  5.071638E+03 -2.333790E+04  4.023059E-10 -2.984549E-11
       111  18  8.653700E+03  4.419343E+05  1.094331E+04 -2.971802E+04 -9.956144E-10  5.070340E-09
       111  19  1.368433E+04  4.327384E+05  1.479690E+04 -3.348456E+04  9.347354E+01 -3.468452E+03
       111  20  2.058275E+02  4.001410E+05  4.606272E+03 -2.710975E+04  9.740685E+02  3.368514E+02
       111  21 -8.452531E+03  3.692285E+05 -1.906912E+03 -2.882053E+04  2.741457E+03  4.142679E+03
       111  22  6.871693E+03  4.055798E+05  7.921016E+03 -2.926389E+04  9.398882E+01 -4.123958E+03
       111  23  1.190541E+03  4.048525E+05  4.838959E+03 -2.522384E+04  9.756832E+02 -1.638864E+03
       111  24  1.006223E+02  4.055808E+05  4.518213E+03 -2.926926E+04  2.744141E+03  8.469191E+02
       111  25  5.907142E+01  3.784218E+05  1.045083E+03 -2.504341E+04  9.449520E+01 -4.779435E+03
       111  26  2.175270E+03  4.095641E+05  5.071664E+03 -2.333790E+04  9.772859E+02 -3.614594E+03
       111  27  8.653710E+03  4.419344E+05  1.094333E+04 -2.971803E+04  2.746830E+03 -2.449028E+03
       112   1 -1.338618E+04  3.477312E+05 -5.537752E+03 -2.972861E+04 -4.063851E+03 -4.839897E+03
       112   2 -2.092422E+04  3.155781E+05 -9.517569E+03 -2.505180E+04 -6.055821E+03 -7.831160E+03
       112   3 -2.686040E+04  2.842018E+05 -1.115392E+04 -2.849730E+04 -7.723873E+03 -1.082191E+04
       112   4  2.477341E+02  4.054477E+05  4.944307E+03 -2.927679E+04 -4.066434E+03 -1.630150E+03
       112   5  2.521248E+02  4.050167E+05  6.960338E+03 -2.521500E+04 -6.057906E+03 -5.104106E+03
       112   6  1.942004E+03  4.054450E+05  1.165456E+04 -2.927542E+04 -7.725478E+03 -8.577693E+03
       112   7  1.388147E+04  4.631675E+05  1.542627E+04 -2.882494E+04 -4.069013E+03  1.579887E+03
       112   8  2.142802E+04  4.944631E+05  2.343794E+04 -2.537823E+04 -6.059991E+03 -2.376670E+03
       112   9  3.074356E+04  5.267024E+05  3.446243E+04 -3.005370E+04 -7.727088E+03 -6.333052E+03
       112  10 -1.338620E+04  3.477312E+05 -5.537827E+03 -2.972863E+04  2.470603E-09 -8.358669E-09
       112  11 -2.092428E+04  3.155781E+05 -9.517753E+03 -2.505183E+04 -4.209931E-10  1.345187E-10
       112  12 -2.686050E+04  2.842016E+05 -1.115425E+04 -2.849737E+04 -7.935450E-09  1.345692E-08
       112  13  2.477157E+02  4.054477E+05  4.944271E+03 -2.927680E+04 -1.774578E-09 -1.527976E-10
       112  14  2.520784E+02  4.050167E+05  6.960220E+03 -2.521503E+04  1.112587E-09 -1.730061E-09
       112  15  1.941920E+03  4.054449E+05  1.165431E+04 -2.927548E+04  4.772042E-09  1.859886E-09
       112  16  1.388145E+04  4.631675E+05  1.542624E+04 -2.882493E+04 -2.942086E-09  7.348084E-09
       112  17  2.142798E+04  4.944631E+05  2.343786E+04 -2.537825E+04  1.307594E-09 -2.165370E-09
       112  18  3.074349E+04  5.267024E+05  3.446224E+04 -3.005374E+04 -2.612030E-09 -1.138525E-08
       112  19 -1.338618E+04  3.477312E+05 -5.537752E+03 -2.972861E+04  4.063851E+03  4.839897E+03
       112  20 -2.092422E+04  3.155781E+05 -9.517569E+03 -2.505180E+04  6.055821E+03  7.831160E+03
       112  21 -2.686040E+04  2.842018E+05 -1.115392E+04 -2.849730E+04  7.723873E+03  1.082191E+04
       112  22  2.477341E+02  4.054477E+05  4.944307E+03 -2.927679E+04  4.066434E+03  1.630150E+03
       112  23  2.521248E+02  4.050167E+05  6.960338E+03 -2.521500E+04  6.057906E+03  5.104106E+03
       112  24  1.942004E+03  4.054450E+05  1.165456E+04 -2.927542E+04  7.725478E+03  8.577693E+03
       112  25  1.388147E+04  4.631675E+05  1.542627E+04 -2.882494E+04  4.069013E+03 -1.579887E+03
       112  26  2.142802E+04  4.944631E+05  2.343794E+04 -2.537823E+04  6.059991E+03  2.376670E+03
       112  27  3.074356E+04  5.267024E+05  3.446243E+04 -3.005370E+04  7.727088E+03  6.333052E+03
       113   1 -3.363058E+04  2.646363E+05 -1.204744E+04 -3.323138E+04 -8.974893E+03 -1.366619E+04
       113   2 -3.343927E+04  2.285808E+05 -8.831303E+03 -1.266742E+04 -8.433350E+03 -1.959115E+04
       113   3 -2.403667E+03  2.010008E+05  5.951408E+03  9.166345E+01 -2.650416E+03 -2.551222E+04
       113   4  3.076989E+02  4.074372E+05  1.493292E+04 -2.921054E+04 -8.977169E+03 -1.056746E+04
       113   5  8.415436E+03  4.025183E+05  2.645886E+04 -2.529118E+04 -8.429370E+03 -2.429711E+04
       113   6  4.871589E+04  4.074242E+05  5.496640E+04 -2.917578E+04 -2.640532E+03 -3.802323E+04
       113   7  3.424485E+04  5.502578E+05  4.191243E+04 -2.518875E+04 -8.979404E+03 -7.468025E+03
       113   8  5.026887E+04  5.764849E+05  6.174762E+04 -3.791854E+04 -8.425199E+03 -2.900435E+04
       113   9  9.983567E+04  6.138888E+05  1.039795E+05 -5.845300E+04 -2.629470E+03 -5.053839E+04
       113  10 -3.363071E+04  2.646361E+05 -1.204794E+04 -3.323148E+04 -6.138306E-09 -1.463764E-08
       113  11 -3.343945E+04  2.285804E+05 -8.832158E+03 -1.266755E+04 -6.062669E-10 -3.789748E-09
       113  12 -2.403850E+03  2.010001E+05  5.950172E+03  9.160900E+01 -1.337620E-09  1.072193E-08
       113  13  3.075824E+02  4.074371E+05  1.493256E+04 -2.921062E+04  3.449773E-09 -3.075396E-11
       113  14  8.415202E+03  4.025176E+05  2.645762E+04 -2.529135E+04  4.067185E-12 -1.015163E-09
       113  15  4.871549E+04  4.074226E+05  5.496367E+04 -2.917586E+04  1.049584E-09  1.687548E-09
       113  16  3.424475E+04  5.502577E+05  4.191217E+04 -2.518881E+04 -2.403410E-09  1.387835E-08
       113  17  5.026856E+04  5.764840E+05  6.174591E+04 -3.791873E+04 -1.763811E-10  1.983481E-09
       113  18  9.983497E+04  6.138861E+05  1.039746E+05 -5.845310E+04  2.229090E-09 -8.944751E-09
       113  19 -3.363058E+04  2.646363E+05 -1.204744E+04 -3.323138E+04  8.974893E+03  1.366619E+04
       113  20 -3.343927E+04  2.285808E+05 -8.831303E+03 -1.266742E+04  8.433350E+03  1.959115E+04
       113  21 -2.403667E+03  2.010008E+05  5.951408E+03  9.166345E+01  2.650416E+03  2.551222E+04
       113  22  3.076989E+02  4.074372E+05  1.493292E+04 -2.921054E+04  8.977169E+03  1.056746E+04
       113  23  8.415436E+03  4.025183E+05  2.645886E+04 -2.529118E+04  8.429370E+03  2.429711E+04
       113  24  4.871589E+04  4.074242E+05  5.496640E+04 -2.917578E+04  2.640532E+03  3.802323E+04
       113  25  3.424485E+04  5.502578E+05  4.191243E+04 -2.518875E+04  8.979404E+03  7.468025E+03
       113  26  5.026887E+04  5.764849E+05  6.174762E+04 -3.791854E+04  8.425199E+03  2.900435E+04
       113  27  9.983567E+04  6.138888E+05  1.039795E+05 -5.845300E+04  2.629470E+03  5.053839E+04
       114   1  9.883751E+05  3.555514E+05  1.801385E+05  3.664985E+05  7.016414E+04  1.466834E+04
       114   2  9.356277E+05  3.254836E+05  1.284233E+05  3.504677E+05  4.547944E+04 -2.252193E+04
       114   3  8.834020E+05  3.082531E+05  1.035105E+05  3.415289E+05  1.450039E+04 -4.294769E+04
       114   4  2.775452E+05  8.963867E+04 -2.737857E+02  1.717972E+05  3.672751E+03 -1.033710E+04
       114   5  2.806726E+05  8.667260E+04 -1.338386E+02  1.682227E+05  1.294603E+04 -3.476396E+04
       114   6  2.776026E+05  8.982766E+04 -6.521633E+01  1.717395E+05  1.591672E+04 -4.241973E+04
       114   7 -4.327515E+05 -1.762260E+05 -1.806993E+05 -2.269184E+04 -6.273256E+04 -3.531020E+04
       114   8 -3.738210E+05 -1.520937E+05 -1.287018E+05 -1.383986E+04 -1.954987E+04 -4.699190E+04
       114   9 -3.278058E+05 -1.285608E+05 -1.036507E+05  2.105330E+03  1.733157E+04 -4.189233E+04
       114  10  9.883697E+05  3.555499E+05  1.801289E+05  3.664977E+05  1.101061E-08  2.260032E-09
       114  11  9.356253E+05  3.254825E+05  1.284184E+05  3.504685E+05 -2.110958E-09 -6.677388E-09
       114  12  8.834013E+05  3.082511E+05  1.035067E+05  3.415294E+05 -4.013080E-09 -2.797287E-09
       114  13  2.775452E+05  8.963855E+04 -2.740119E+02  1.717972E+05 -1.114209E-09 -1.721902E-09
       114  14  2.806721E+05  8.667126E+04 -1.364250E+02  1.682231E+05 -8.228596E-09 -8.824686E-09
       114  15  2.776019E+05  8.982566E+04 -6.907456E+01  1.717401E+05 -5.680101E-09 -5.134688E-09
       114  16 -4.327561E+05 -1.762284E+05 -1.807090E+05 -2.269363E+04 -1.720762E-08 -5.943443E-09
       114  17 -3.738221E+05 -1.520962E+05 -1.287067E+05 -1.384060E+04 -1.272532E-08 -9.014719E-09
       114  18 -3.278066E+05 -1.285627E+05 -1.036546E+05  2.105915E+03 -3.747389E-09 -5.638277E-09
       114  19  9.883751E+05  3.555514E+05  1.801385E+05  3.664985E+05 -7.016414E+04 -1.466834E+04
       114  20  9.356277E+05  3.254836E+05  1.284233E+05  3.504677E+05 -4.547944E+04  2.252193E+04
       114  21  8.834020E+05  3.082531E+05  1.035105E+05  3.415289E+05 -1.450039E+04  4.294769E+04
       114  22  2.775452E+05  8.963867E+04 -2.737857E+02  1.717972E+05 -3.672751E+03  1.033710E+04
       114  23  2.806726E+05  8.667260E+04 -1.338386E+02  1.682227E+05 -1.294603E+04  3.476396E+04
       114  24  2.776026E+05  8.982766E+04 -6.521633E+01  1.717395E+05 -1.591672E+04  4.241973E+04
       114  25 -4.327515E+05 -1.762260E+05 -1.806993E+05 -2.269184E+04  6.273256E+04  3.531020E+04
       114  26 -3.738210E+05 -1.520937E+05 -1.287018E+05 -1.383986E+04  1.954987E+04  4.699190E+04
       114  27 -3.278058E+05 -1.285608E+05 -1.036507E+05  2.105330E+03 -1.733157E+04  4.189233E+04
       115   1  8.495913E+05  2.959974E+05  9.565133E+04  3.324939E+05  1.496271E+04 -4.171755E+04
       115   2  8.011796E+05  2.731937E+05  8.316159E+04  3.141996E+05  1.091122E+04 -4.187849E+04
       115   3  7.464449E+05  2.581673E+05  7.353037E+04  3.039626E+05  6.186807E+03 -4.025352E+04
       115   4  2.774246E+05  9.003487E+04 -4.871957E+01  1.719590E+05  1.557541E+04 -4.149163E+04
       115   5  2.809570E+05  8.653086E+04 -2.652939E+01  1.679240E+05  1.514105E+04 -4.029036E+04
       115   6  2.774491E+05  9.008897E+04 -8.965092E+00  1.719460E+05  1.403320E+04 -3.730240E+04
       115   7 -2.944006E+05 -1.158974E+05 -9.575893E+04  1.156046E+04  1.618753E+04 -4.126593E+04
       115   8 -2.389786E+05 -1.001051E+05 -8.322080E+04  2.176252E+04  1.936715E+04 -3.870363E+04
       115   9 -1.913102E+05 -7.796627E+04 -7.355189E+04  4.002306E+04  2.187332E+04 -3.435364E+04
       115  10  8.495906E+05  2.959955E+05  9.564763E+04  3.324944E+05  7.556136E-08  2.967173E-08
       115  11  8.011790E+05  2.731918E+05  8.315807E+04  3.142000E+05  4.673558E-08  1.762329E-08
       115  12  7.464444E+05  2.581656E+05  7.352725E+04  3.039628E+05  1.661671E-08  1.718197E-09
       115  13  2.774238E+05  9.003296E+04 -5.241122E+01  1.719595E+05 -3.552698E-09  3.856664E-09
       115  14  2.809563E+05  8.652905E+04 -3.001132E+01  1.679245E+05 -2.792590E-09  2.121536E-08
       115  15  2.774485E+05  9.008742E+04 -1.195052E+01  1.719464E+05  1.174100E-09  2.840554E-08
       115  16 -2.944014E+05 -1.158993E+05 -9.576263E+04  1.156100E+04 -8.319817E-08 -3.658322E-08
       115  17 -2.389794E+05 -1.001068E+05 -8.322432E+04  2.176313E+04 -4.468743E-08 -2.698320E-08
       115  18 -1.913110E+05 -7.796767E+04 -7.355501E+04  4.002367E+04  3.748140E-11 -1.382900E-08
       115  19  8.495913E+05  2.959974E+05  9.565133E+04  3.324939E+05 -1.496271E+04  4.171755E+04
       115  20  8.011796E+05  2.731937E+05  8.316159E+04  3.141996E+05 -1.091122E+04  4.187849E+04
       115  21  7.464449E+05  2.581673E+05  7.353037E+04  3.039626E+05 -6.186807E+03  4.025352E+04
       115  22  2.774246E+05  9.003487E+04 -4.871957E+01  1.719590E+05 -1.557541E+04  4.149163E+04
       115  23  2.809570E+05  8.653086E+04 -2.652939E+01  1.679240E+05 -1.514105E+04  4.029036E+04
       115  24  2.774491E+05  9.008897E+04 -8.965092E+00  1.719460E+05 -1.403320E+04  3.730240E+04
       115  25 -2.944006E+05 -1.158974E+05 -9.575893E+04  1.156046E+04 -1.618753E+04  4.126593E+04
       115  26 -2.389786E+05 -1.001051E+05 -8.322080E+04  2.176252E+04 -1.936715E+04  3.870363E+04
       115  27 -1.913102E+05 -7.796627E+04 -7.355189E+04  4.002306E+04 -2.187332E+04  3.435364E+04
       116   1  7.138601E+05  2.464689E+05  6.801540E+04  2.948568E+05  5.406873E+03 -3.790977E+04
       116   2  6.659755E+05  2.244469E+05  5.971466E+04  2.763292E+05  3.544302E+03 -3.412867E+04
       116   3  6.110357E+05  2.096499E+05  5.172272E+04  2.659484E+05  1.609526E+03 -3.015876E+04
       116   4  2.774340E+05  9.011688E+04 -4.705815E+00  1.719647E+05  1.316474E+04 -3.499116E+04
       116   5  2.810120E+05  8.655939E+04  5.092963E+00  1.678887E+05  1.168446E+04 -3.106485E+04
       116   6  2.774553E+05  9.015130E+04  2.033702E+01  1.719590E+05  1.013191E+04 -2.694966E+04
       116   7 -1.587817E+05 -6.621303E+04 -6.802627E+04  4.915525E+04  2.091676E+04 -3.207475E+04
       116   8 -1.037916E+05 -5.131235E+04 -5.970655E+04  5.951143E+04  1.981929E+04 -2.800304E+04
       116   9 -5.600889E+04 -2.933693E+04 -5.168459E+04  7.801597E+04  1.864956E+04 -2.374235E+04
       116  10  7.138597E+05  2.464674E+05  6.801264E+04  2.948569E+05 -3.667958E-08 -2.513886E-08
       116  11  6.659751E+05  2.244456E+05  5.971245E+04  2.763293E+05 -3.687062E-08 -3.262797E-08
       116  12  6.110355E+05  2.096489E+05  5.172101E+04  2.659485E+05 -5.496024E-08 -3.401911E-08
       116  13  2.774335E+05  9.011552E+04 -7.332803E+00  1.719651E+05  4.341949E-09  2.950587E-08
       116  14  2.810116E+05  8.655831E+04  3.022576E+00  1.678890E+05  1.207601E-09  2.041284E-08
       116  15  2.774550E+05  9.015050E+04  1.877901E+01  1.719592E+05 -1.546244E-08  1.171324E-08
       116  16 -1.587825E+05 -6.621426E+04 -6.802903E+04  4.915579E+04  5.822295E-08  9.561376E-09
       116  17 -1.037922E+05 -5.131330E+04 -5.970876E+04  5.951187E+04  5.186598E-08  1.515881E-08
       116  18 -5.600942E+04 -2.933763E+04 -5.168630E+04  7.801633E+04  4.384704E-08  1.396061E-08
       116  19  7.138601E+05  2.464689E+05  6.801540E+04  2.948568E+05 -5.406873E+03  3.790977E+04
       116  20  6.659755E+05  2.244469E+05  5.971466E+04  2.763292E+05 -3.544302E+03  3.412867E+04
       116  21  6.110357E+05  2.096499E+05  5.172272E+04  2.659484E+05 -1.609526E+03  3.015876E+04
       116  22  2.774340E+05  9.011688E+04 -4.705815E+00  1.719647E+05 -1.316474E+04  3.499116E+04
       116  23  2.810120E+05  8.655939E+04  5.092963E+00  1.678887E+05 -1.168446E+04  3.106485E+04
       116  24  2.774553E+05  9.015130E+04  2.033702E+01  1.719590E+05 -1.013191E+04  2.694966E+04
       116  25 -1.587817E+05 -6.621303E+04 -6.802627E+04  4.915525E+04 -2.091676E+04  3.207475E+04
       116  26 -1.037916E+05 -5.131235E+04 -5.970655E+04  5.951143E+04 -1.981929E+04  2.800304E+04
       116  27 -5.600889E+04 -2.933693E+04 -5.168459E+04  7.801597E+04 -1.864956E+04  2.374235E+04
       117   1  5.786173E+05  1.980114E+05  4.646639E+04  2.568377E+05  6.919410E+02 -2.770035E+04
       117   2  5.308374E+05  1.760746E+05  3.863486E+04  2.382944E+05 -9.586978E+02 -2.351064E+04
       117   3  4.759235E+05  1.612982E+05  3.085378E+04  2.278995E+05 -2.616888E+03 -1.930280E+04
       117   4  2.774568E+05  9.015812E+04  2.813948E+01  1.719581E+05  9.202947E+03 -2.449490E+04
       117   5  2.810347E+05  8.659094E+04  5.406414E+01  1.678829E+05  7.588815E+03 -2.029060E+04
       117   6  2.774681E+05  9.017643E+04  1.010151E+02  1.719551E+05  5.967131E+03 -1.606817E+04
       117   7 -2.360545E+04 -1.768535E+04 -4.641115E+04  8.711742E+04  1.770959E+04 -2.129109E+04
       117   8  3.130106E+04 -2.885451E+03 -3.852694E+04  9.749861E+04  1.613264E+04 -1.707194E+04
       117   9  7.905784E+04  1.905979E+04 -3.065138E+04  1.160281E+05  1.454815E+04 -1.283468E+04
       117  10  5.786171E+05  1.980105E+05  4.646495E+04  2.568377E+05  2.176727E-08 -5.285292E-10
       117  11  5.308373E+05  1.760740E+05  3.863382E+04  2.382944E+05  4.009121E-09 -4.519788E-09
       117  12  4.759234E+05  1.612978E+05  3.085307E+04  2.278995E+05 -2.954512E-08 -1.418130E-08
       117  13  2.774566E+05  9.015746E+04  2.685258E+01  1.719583E+05 -1.973730E-08  1.087139E-08
       117  14  2.810345E+05  8.659048E+04  5.318208E+01  1.678831E+05 -8.271252E-09  9.890472E-09
       117  15  2.774680E+05  9.017614E+04  1.004629E+02  1.719551E+05 -8.743965E-09  1.671032E-09
       117  16 -2.360591E+04 -1.768592E+04 -4.641259E+04  8.711772E+04 -3.724368E-08 -1.167216E-08
       117  17  3.130071E+04 -2.885834E+03 -3.852798E+04  9.749883E+04 -8.585529E-09 -2.922156E-09
       117  18  7.905757E+04  1.905956E+04 -3.065209E+04  1.160283E+05  2.017117E-08  1.188428E-08
       117  19  5.786173E+05  1.980114E+05  4.646639E+04  2.568377E+05 -6.919410E+02  2.770035E+04
       117  20  5.308374E+05  1.760746E+05  3.863486E+04  2.382944E+05  9.586978E+02  2.351064E+04
       117  21  4.759235E+05  1.612982E+05  3.085378E+04  2.278995E+05  2.616888E+03  1.930280E+04
       117  22  2.774568E+05  9.015812E+04  2.813948E+01  1.719581E+05 -9.202947E+03  2.449490E+04
       117  23  2.810347E+05  8.659094E+04  5.406414E+01  1.678829E+05 -7.588815E+03  2.029060E+04
       117  24  2.774681E+05  9.017643E+04  1.010151E+02  1.719551E+05 -5.967131E+03  1.606817E+04
       117  25 -2.360545E+04 -1.768535E+04 -4.641115E+04  8.711742E+04 -1.770959E+04  2.129109E+04
       117  26  3.130106E+04 -2.885451E+03 -3.852694E+04  9.749861E+04 -1.613264E+04  1.707194E+04
       117  27  7.905784E+04  1.905979E+04 -3.065138E+04  1.160281E+05 -1.454815E+04  1.283468E+04
       118   1  4.435432E+05  1.496647E+05  2.565067E+04  2.187932E+05 -3.565202E+03 -1.684033E+04
       118   2  3.957911E+05  1.277339E+05  1.794481E+04  2.002601E+05 -5.266297E+03 -1.264344E+04
       118   3  3.409057E+05  1.129584E+05  1.031753E+04  1.898742E+05 -6.964526E+03 -8.455020E+03
       118   4  2.774747E+05  9.017906E+04  1.352752E+02  1.719559E+05  5.016749E+03 -1.360612E+04
       118   5  2.810425E+05  8.660076E+04  2.450624E+02  1.678831E+05  3.298303E+03 -9.415351E+03
       118   6  2.774785E+05  9.018140E+04  4.472430E+02  1.719566E+05  1.582719E+03 -5.233080E+03
       118   7  1.114341E+05  3.069561E+04 -2.538077E+04  1.251300E+05  1.359638E+04 -1.037278E+04
       118   8  1.663074E+05  4.546878E+04 -1.745477E+04  1.355114E+05  1.186128E+04 -6.187876E+03
       118   9  2.140558E+05  6.740486E+04 -9.422804E+03  1.540407E+05  1.012905E+04 -2.011488E+03
       118  10  4.435431E+05  1.496644E+05  2.565011E+04  2.187931E+05 -7.484405E-09 -3.692736E-09
       118  11  3.957911E+05  1.277337E+05  1.794445E+04  2.002601E+05 -2.116853E-08 -8.628730E-09
       118  12  3.409056E+05  1.129583E+05  1.031730E+04  1.898741E+05 -2.417853E-08 -9.912401E-09
       118  13  2.774746E+05  9.017885E+04  1.348800E+02  1.719560E+05 -1.441105E-08 -5.851225E-09
       118  14  2.810424E+05  8.660066E+04  2.448754E+02  1.678831E+05 -2.248447E-08 -7.724149E-09
       118  15  2.774785E+05  9.018137E+04  4.471868E+02  1.719566E+05 -4.963684E-09 -1.949286E-09
       118  16  1.114338E+05  3.069545E+04 -2.538132E+04  1.251301E+05 -1.469019E-08 -2.145204E-09
       118  17  1.663072E+05  4.546870E+04 -1.745510E+04  1.355115E+05 -1.024305E-08 -5.868185E-09
       118  18  2.140556E+05  6.740483E+04 -9.423004E+03  1.540407E+05  1.258311E-08 -3.235233E-09
       118  19  4.435432E+05  1.496647E+05  2.565067E+04  2.187932E+05  3.565202E+03  1.684033E+04
       118  20  3.957911E+05  1.277339E+05  1.794481E+04  2.002601E+05  5.266297E+03  1.264344E+04
       118  21  3.409057E+05  1.129584E+05  1.031753E+04  1.898742E+05  6.964526E+03  8.455020E+03
       118  22  2.774747E+05  9.017906E+04  1.352752E+02  1.719559E+05 -5.016749E+03  1.360612E+04
       118  23  2.810425E+05  8.660076E+04  2.450624E+02  1.678831E+05 -3.298303E+03  9.415351E+03
       118  24  2.774785E+05  9.018140E+04  4.472430E+02  1.719566E+05 -1.582719E+03  5.233080E+03
       118  25  1.114341E+05  3.069561E+04 -2.538077E+04  1.251300E+05 -1.359638E+04  1.037278E+04
       118  26  1.663074E+05  4.546878E+04 -1.745477E+04  1.355114E+05 -1.186128E+04  6.187876E+03
       118  27  2.140558E+05  6.740486E+04 -9.422804E+03  1.540407E+05 -1.012905E+04  2.011488E+03
       119   1  3.085412E+05  1.013324E+05  5.222104E+03  1.807905E+05 -7.982295E+03 -6.026292E+03
       119   2  2.607853E+05  7.938671E+04 -2.186165E+03  1.622393E+05 -9.908958E+03 -1.979635E+03
       119   3  2.059600E+05  6.466256E+04 -9.313786E+03  1.518225E+05 -1.180001E+04  1.972924E+03
       119   4  2.774972E+05  9.017893E+04  5.969641E+02  1.719632E+05  5.688392E+02 -2.802801E+03
       119   5  2.810224E+05  8.660732E+04  1.085631E+03  1.678747E+05 -1.548662E+03  1.171839E+03
       119   6  2.775127E+05  9.029449E+04  2.005739E+03  1.719192E+05 -3.630592E+03  5.052390E+03
       119   7  2.464548E+05  7.902579E+04 -4.027771E+03  1.631365E+05  9.119424E+03  4.204814E+02
       119   8  3.012601E+05  9.382803E+04  4.357719E+03  1.735103E+05  6.811922E+03  4.323421E+03
       119   9  3.490719E+05  1.159273E+05  1.332569E+04  1.920184E+05  4.539912E+03  8.132266E+03
       119  10  3.085411E+05  1.013323E+05  5.221916E+03  1.807904E+05 -2.654547E-08 -9.559169E-09
       119  11  2.607852E+05  7.938668E+04 -2.186357E+03  1.622393E+05 -1.619720E-08 -1.846331E-09
       119  12  2.059598E+05  6.466252E+04 -9.314055E+03  1.518225E+05 -1.337745E-08 -1.486383E-09
       119  13  2.774972E+05  9.017892E+04  5.969487E+02  1.719632E+05  4.292187E-09 -5.190319E-11
       119  14  2.810224E+05  8.660732E+04  1.085624E+03  1.678747E+05  1.129443E-08 -5.318072E-09
       119  15  2.775126E+05  9.029446E+04  2.005667E+03  1.719192E+05 -7.506816E-10 -1.787548E-08
       119  16  2.464547E+05  7.902577E+04 -4.027927E+03  1.631365E+05  3.089669E-08  7.980128E-09
       119  17  3.012600E+05  9.382800E+04  4.357596E+03  1.735103E+05  2.315771E-08  1.172714E-08
       119  18  3.490718E+05  1.159272E+05  1.332553E+04  1.920184E+05  7.669724E-09  5.603907E-09
       119  19  3.085412E+05  1.013324E+05  5.222104E+03  1.807905E+05  7.982295E+03  6.026292E+03
       119  20  2.607853E+05  7.938671E+04 -2.186165E+03  1.622393E+05  9.908958E+03  1.979635E+03
       119  21  2.059600E+05  6.466256E+04 -9.313786E+03  1.518225E+05  1.180001E+04 -1.972924E+03
       119  22  2.774972E+05  9.017893E+04  5.969641E+02  1.719632E+05 -5.688392E+02  2.802801E+03
       119  23  2.810224E+05  8.660732E+04  1.085631E+03  1.678747E+05  1.548662E+03 -1.171839E+03
       119  24  2.775127E+05  9.029449E+04  2.005739E+03  1.719192E+05  3.630592E+03 -5.052390E+03
       119  25  2.464548E+05  7.902579E+04 -4.027771E+03  1.631365E+05 -9.119424E+03 -4.204814E+02
       119  26  3.012601E+05  9.382803E+04  4.357719E+03  1.735103E+05 -6.811922E+03 -4.323421E+03
       119  27  3.490719E+05  1.159273E+05  1.332569E+04  1.920184E+05 -4.539912E+03 -8.132266E+03
       120   1  1.735580E+05  5.313301E+04 -1.400639E+04  1.428909E+05 -1.310586E+04  4.209950E+03
       120   2  1.262575E+05  3.099749E+04 -2.044400E+04  1.234681E+05 -1.517745E+04  7.560367E+03
       120   3  7.241657E+04  1.719423E+04 -2.601840E+04  1.118349E+05 -1.691541E+04  1.002667E+04
       120   4  2.776572E+05  9.031383E+04  2.682405E+03  1.719543E+05 -4.894004E+03  7.305262E+03
       120   5  2.809302E+05  8.724676E+04  4.951981E+03  1.675781E+05 -8.755156E+03  9.980659E+03
       120   6  2.780141E+05  9.286560E+04  9.502132E+03  1.709901E+05 -1.228277E+04  1.177205E+04
       120   7  3.817682E+05  1.274958E+05  1.937126E+04  2.010223E+05  3.319310E+03  1.040111E+04
       120   8  4.356277E+05  1.434983E+05  3.034733E+04  2.116981E+05 -2.331205E+03  1.240159E+04
       120   9  4.836541E+05  1.685407E+05  4.502084E+04  2.301630E+05 -7.648554E+03  1.351804E+04
       120  10  1.735578E+05  5.313295E+04 -1.400675E+04  1.428909E+05 -9.460805E-10  1.644974E-09
       120  11  1.262572E+05  3.099737E+04 -2.044454E+04  1.234682E+05 -1.868076E-08 -1.199207E-08
       120  12  7.241623E+04  1.719405E+04 -2.601913E+04  1.118351E+05 -5.079749E-08 -2.041979E-08
       120  13  2.776572E+05  9.031377E+04  2.682260E+03  1.719543E+05 -4.101367E-09 -1.723907E-08
       120  14  2.809301E+05  8.724664E+04  4.951650E+03  1.675781E+05  5.249880E-09 -1.413473E-08
       120  15  2.780139E+05  9.286541E+04  9.501588E+03  1.709902E+05 -9.731346E-09 -2.303216E-08
       120  16  3.817682E+05  1.274957E+05  1.937104E+04  2.010223E+05 -4.059892E-09  5.687426E-09
       120  17  4.356277E+05  1.434981E+05  3.034703E+04  2.116982E+05  2.270399E-08  1.211389E-08
       120  18  4.836540E+05  1.685405E+05  4.502039E+04  2.301631E+05  3.201834E-08  1.483794E-08
       120  19  1.735580E+05  5.313301E+04 -1.400639E+04  1.428909E+05  1.310586E+04 -4.209950E+03
       120  20  1.262575E+05  3.099749E+04 -2.044400E+04  1.234681E+05  1.517745E+04 -7.560367E+03
       120  21  7.241657E+04  1.719423E+04 -2.601840E+04  1.118349E+05  1.691541E+04 -1.002667E+04
       120  22  2.776572E+05  9.031383E+04  2.682405E+03  1.719543E+05  4.894004E+03 -7.305262E+03
       120  23  2.809302E+05  8.724676E+04  4.951981E+03  1.675781E+05  8.755156E+03 -9.980659E+03
       120  24  2.780141E+05  9.286560E+04  9.502132E+03  1.709901E+05  1.228277E+04 -1.177205E+04
       120  25  3.817682E+05  1.274958E+05  1.937126E+04  2.010223E+05 -3.319310E+03 -1.040111E+04
       120  26  4.356277E+05  1.434983E+05  3.034733E+04  2.116981E+05  2.331205E+03 -1.240159E+04
       120  27  4.836541E+05  1.685407E+05  4.502084E+04  2.301630E+05  7.648554E+03 -1.351804E+04
       121   1  3.962201E+04  7.137134E+03 -2.928663E+04  1.044695E+05 -1.938970E+04  1.104022E+04
       121   2  1.264474E+03 -1.749480E+04 -3.383186E+04  7.045978E+04 -1.466479E+04  1.092641E+04
       121   3 -3.733099E+04 -1.715237E+04 -3.635470E+04  3.883623E+04 -6.816493E+03  2.518458E+03
       121   4  2.795344E+05  9.345046E+04  1.276612E+04  1.712085E+05 -1.436174E+04  1.293435E+04
       121   5  2.807461E+05  9.873605E+04  2.451219E+04  1.626906E+05 -2.641406E+04  6.498229E+03
       121   6  2.850379E+05  1.323129E+05  5.157217E+04  1.565594E+05 -3.534416E+04 -8.229868E+03
       121   7  5.195120E+05  1.797709E+05  5.481836E+04  2.379725E+05 -9.331615E+03  1.482928E+04
       121   8  5.603087E+05  2.149802E+05  8.285257E+04  2.549620E+05 -3.816897E+04  2.067260E+03
       121   9  6.075050E+05  2.817990E+05  1.394912E+05  2.743412E+05 -6.388733E+04 -1.898733E+04
       121  10  3.962157E+04  7.136902E+03 -2.928756E+04  1.044697E+05 -1.128574E-08 -4.070805E-09
       121  11  1.264211E+03 -1.749498E+04 -3.383248E+04  7.045990E+04  1.962267E-08  1.029411E-08
       121  12 -3.733104E+04 -1.715239E+04 -3.635479E+04  3.883625E+04  5.051817E-08  2.089554E-08
       121  13  2.795342E+05  9.345023E+04  1.276542E+04  1.712086E+05 -1.594655E-08 -2.642328E-08
       121  14  2.807453E+05  9.873582E+04  2.451080E+04  1.626908E+05 -9.085301E-09 -1.142998E-08
       121  15  2.850365E+05  1.323124E+05  5.156970E+04  1.565592E+05 -4.569581E-09 -5.771109E-09
       121  16  5.195118E+05  1.797706E+05  5.481778E+04  2.379726E+05 -1.631031E-08 -1.267766E-09
       121  17  5.603071E+05  2.149798E+05  8.284983E+04  2.549621E+05 -3.996041E-08 -1.832510E-08
       121  18  6.075005E+05  2.817975E+05  1.394828E+05  2.743402E+05 -5.652080E-08 -2.446096E-08
       121  19  3.962201E+04  7.137134E+03 -2.928663E+04  1.044695E+05  1.938970E+04 -1.104022E+04
       121  20  1.264474E+03 -1.749480E+04 -3.383186E+04  7.045978E+04  1.466479E+04 -1.092641E+04
       121  21 -3.733099E+04 -1.715237E+04 -3.635470E+04  3.883623E+04  6.816493E+03 -2.518458E+03
       121  22  2.795344E+05  9.345046E+04  1.276612E+04  1.712085E+05  1.436174E+04 -1.293435E+04
       121  23  2.807461E+05  9.873605E+04  2.451219E+04  1.626906E+05  2.641406E+04 -6.498229E+03
       121  24  2.850379E+05  1.323129E+05  5.157217E+04  1.565594E+05  3.534416E+04  8.229868E+03
       121  25  5.195120E+05  1.797709E+05  5.481836E+04  2.379725E+05  9.331615E+03 -1.482928E+04
       121  26  5.603087E+05  2.149802E+05  8.285257E+04  2.549620E+05  3.816897E+04 -2.067260E+03
       121  27  6.075050E+05  2.817990E+05  1.394912E+05  2.743412E+05  6.388733E+04  1.898733E+04
       122   1 -2.504725E+05 -1.228689E+06 -2.891668E+05  7.586945E+04 -3.406363E+03 -1.204986E+05
       122   2 -6.876352E+04 -1.129401E+06 -1.722741E+05  1.475737E+04 -9.913933E+03 -7.349062E+04
       122   3 -7.165785E+04 -1.081870E+06 -1.320783E+05  2.509179E+04 -7.086497E+03 -2.646213E+04
       122   4 -1.376399E+05 -7.777931E+05 -1.771796E+05  4.051662E+04 -3.406917E+03 -1.162969E+05
       122   5  2.516831E+04 -7.522114E+05 -8.037189E+04  4.915785E+03 -9.913403E+03 -7.284075E+04
       122   6  4.050804E+03 -7.777392E+05 -5.775325E+04  4.076320E+04 -7.083507E+03 -2.936989E+04
       122   7 -2.481786E+04 -3.267100E+05 -6.520697E+04  5.138135E+03 -3.407953E+03 -1.120922E+05
       122   8  1.190900E+05 -3.748918E+05  1.152001E+04 -4.931755E+03 -9.912894E+03 -7.219047E+04
       122   9  7.975356E+04 -4.735232E+05  1.656523E+04  5.644234E+04 -7.080666E+03 -3.227908E+04
       122  10 -2.504764E+05 -1.228704E+06 -2.891942E+05  7.586912E+04 -6.863930E-10 -1.535686E-09
       122  11 -6.876508E+04 -1.129407E+06 -1.722844E+05  1.475678E+04 -4.575573E-09  3.621896E-09
       122  12 -7.165810E+04 -1.081871E+06 -1.320797E+05  2.509164E+04 -2.865148E-09  4.939789E-09
       122  13 -1.376435E+05 -7.778077E+05 -1.772051E+05  4.051631E+04  4.694318E-09  4.065678E-09
       122  14  2.516678E+04 -7.522172E+05 -8.038206E+04  4.915203E+03  3.491302E-09  1.105257E-09
       122  15  4.050518E+03 -7.777402E+05 -5.775496E+04  4.076303E+04  4.264151E-09  2.077939E-09
       122  16 -2.482125E+04 -3.267235E+05 -6.523061E+04  5.137827E+03  2.123233E-09  2.365969E-09
       122  17  1.190885E+05 -3.748974E+05  1.151003E+04 -4.932331E+03  8.149923E-09 -1.915510E-09
       122  18  7.975323E+04 -4.735244E+05  1.656318E+04  5.644216E+04 -8.711953E-10 -4.933209E-09
       122  19 -2.504725E+05 -1.228689E+06 -2.891668E+05  7.586945E+04  3.406363E+03  1.204986E+05
       122  20 -6.876352E+04 -1.129401E+06 -1.722741E+05  1.475737E+04  9.913933E+03  7.349062E+04
       122  21 -7.165785E+04 -1.081870E+06 -1.320783E+05  2.509179E+04  7.086497E+03  2.646213E+04
       122  22 -1.376399E+05 -7.777931E+05 -1.771796E+05  4.051662E+04  3.406917E+03  1.162969E+05
       122  23  2.516831E+04 -7.522114E+05 -8.037189E+04  4.915785E+03  9.913403E+03  7.284075E+04
       122  24  4.050804E+03 -7.777392E+05 -5.775325E+04  4.076320E+04  7.083507E+03  2.936989E+04
       122  25 -2.481786E+04 -3.267100E+05 -6.520697E+04  5.138135E+03  3.407953E+03  1.120922E+05
       122  26  1.190900E+05 -3.748918E+05  1.152001E+04 -4.931755E+03  9.912894E+03  7.219047E+04
       122  27  7.975356E+04 -4.735232E+05  1.656523E+04  5.644234E+04  7.080666E+03  3.227908E+04
       123   1 -5.690798E+04 -9.326476E+05 -9.164968E+04  4.718083E+04 -4.023608E+03 -1.910329E+04
       123   2 -1.572975E+04 -8.511131E+05 -6.165778E+04  4.570224E+03 -2.193364E+03  1.725553E+03
       123   3 -2.060253E+04 -7.835953E+05 -5.670995E+04  3.489359E+04 -4.271818E+01  2.255667E+04
       123   4 -1.626363E+04 -7.694844E+05 -5.182655E+04  4.101188E+04 -4.022651E+03 -1.975550E+04
       123   5  6.337688E+03 -7.624845E+05 -4.002820E+04  4.545324E+03 -2.192544E+03  9.540521E+02
       123   6 -1.708726E+04 -7.694837E+05 -5.318742E+04  4.101283E+04 -4.165857E+01  2.166341E+04
       123   7  2.437889E+04 -6.062967E+05 -1.200534E+04  3.484131E+04 -4.021681E+03 -2.040788E+04
       123   8  2.840455E+04 -6.738487E+05 -1.839919E+04  4.520423E+03 -2.191724E+03  1.824410E+02
       123   9 -1.357185E+04 -7.553719E+05 -4.966489E+04  4.713221E+04 -4.061661E+01  2.077012E+04
       123  10 -5.690810E+04 -9.326480E+05 -9.165039E+04  4.718077E+04  2.257431E-10 -2.159805E-09
       123  11 -1.572976E+04 -8.511131E+05 -6.165780E+04  4.570227E+03  2.052351E-09 -2.606216E-09
       123  12 -2.060267E+04 -7.835958E+05 -5.671090E+04  3.489359E+04 -1.870248E-09 -2.760647E-10
       123  13 -1.626376E+04 -7.694848E+05 -5.182731E+04  4.101182E+04 -6.880852E-10  2.514556E-09
       123  14  6.337682E+03 -7.624845E+05 -4.002821E+04  4.545326E+03  5.111322E-09  9.369082E-10
       123  15 -1.708738E+04 -7.694842E+05 -5.318831E+04  4.101283E+04  2.111366E-09 -7.175221E-10
       123  16  2.437876E+04 -6.062972E+05 -1.200615E+04  3.484124E+04 -9.471043E-10  2.725645E-09
       123  17  2.840454E+04 -6.738487E+05 -1.839920E+04  4.520423E+03 -5.638530E-10  1.770682E-09
       123  18 -1.357197E+04 -7.553724E+05 -4.966570E+04  4.713221E+04 -9.831972E-10 -1.142329E-09
       123  19 -5.690798E+04 -9.326476E+05 -9.164968E+04  4.718083E+04  4.023608E+03  1.910329E+04
       123  20 -1.572975E+04 -8.511131E+05 -6.165778E+04  4.570224E+03  2.193364E+03 -1.725553E+03
       123  21 -2.060253E+04 -7.835953E+05 -5.670995E+04  3.489359E+04  4.271818E+01 -2.255667E+04
       123  22 -1.626363E+04 -7.694844E+05 -5.182655E+04  4.101188E+04  4.022651E+03  1.975550E+04
       123  23  6.337688E+03 -7.624845E+05 -4.002820E+04  4.545324E+03  2.192544E+03 -9.540521E+02
       123  24 -1.708726E+04 -7.694837E+05 -5.318742E+04  4.101283E+04  4.165857E+01 -2.166341E+04
       123  25  2.437889E+04 -6.062967E+05 -1.200534E+04  3.484131E+04  4.021681E+03  2.040788E+04
       123  26  2.840455E+04 -6.738487E+05 -1.839919E+04  4.520423E+03  2.191724E+03 -1.824410E+02
       123  27 -1.357185E+04 -7.553719E+05 -4.966489E+04  4.713221E+04  4.061661E+01 -2.077012E+04
       124   1  3.624060E+04 -6.506301E+05 -2.840249E+04  5.754673E+04  2.613356E+03  3.382813E+04
       124   2  7.660271E+04 -5.497263E+05 -3.473120E+04 -5.388014E+03  5.371883E+03  7.684108E+04
       124   3 -7.511462E+04 -5.021494E+05 -1.170303E+05  4.085413E+03  1.965178E+03  1.198523E+05
       124   4  4.467203E+03 -7.783129E+05 -5.967956E+04  4.096126E+04  2.614662E+03  3.156393E+04
       124   5  2.637868E+04 -7.514576E+05 -8.384217E+04  4.660560E+03  5.373121E+03  7.692819E+04
       124   6 -1.442352E+05 -7.783669E+05 -1.856301E+05  4.077114E+04  1.969157E+03  1.222854E+05
       124   7 -2.730636E+04 -9.059803E+05 -9.095766E+04  2.437923E+04  2.616089E+03  2.930020E+04
       124   8 -2.384797E+04 -9.531515E+05 -1.329560E+05  1.470587E+04  5.374363E+03  7.701527E+04
       124   9 -2.133565E+05 -1.054512E+06 -2.542349E+05  7.744054E+04  1.973426E+03  1.247175E+05
       124  10  3.624028E+04 -6.506313E+05 -2.840466E+04  5.754665E+04 -1.763387E-09  2.413565E-09
       124  11  7.660109E+04 -5.497327E+05 -3.474236E+04 -5.388347E+03 -9.813940E-09  1.010212E-09
       124  12 -7.511849E+04 -5.021649E+05 -1.170573E+05  4.085223E+03 -3.109641E-10 -4.963714E-10
       124  13  4.466927E+03 -7.783140E+05 -5.968145E+04  4.096120E+04  3.080373E-09  2.322277E-09
       124  14  2.637706E+04 -7.514640E+05 -8.385336E+04  4.660227E+03 -1.613847E-09  1.300349E-09
       124  15 -1.442392E+05 -7.783830E+05 -1.856582E+05  4.077095E+04  1.613327E-09  3.603330E-10
       124  16 -2.730659E+04 -9.059812E+05 -9.095929E+04  2.437916E+04 -1.045705E-09 -2.276691E-09
       124  17 -2.384960E+04 -9.531579E+05 -1.329673E+05  1.470553E+04  4.064300E-09 -4.751741E-10
       124  18 -2.133606E+05 -1.054529E+06 -2.542642E+05  7.744035E+04  1.045402E-11  9.481874E-11
       124  19  3.624060E+04 -6.506301E+05 -2.840249E+04  5.754673E+04 -2.613356E+03 -3.382813E+04
       124  20  7.660271E+04 -5.497263E+05 -3.473120E+04 -5.388014E+03 -5.371883E+03 -7.684108E+04
       124  21 -7.511462E+04 -5.021494E+05 -1.170303E+05  4.085413E+03 -1.965178E+03 -1.198523E+05
       124  22  4.467203E+03 -7.783129E+05 -5.967956E+04  4.096126E+04 -2.614662E+03 -3.156393E+04
       124  23  2.637868E+04 -7.514576E+05 -8.384217E+04  4.660560E+03 -5.373121E+03 -7.692819E+04
       124  24 -1.442352E+05 -7.783669E+05 -1.856301E+05  4.077114E+04 -1.969157E+03 -1.222854E+05
       124  25 -2.730636E+04 -9.059803E+05 -9.095766E+04  2.437923E+04 -2.616089E+03 -2.930020E+04
       124  26 -2.384797E+04 -9.531515E+05 -1.329560E+05  1.470587E+04 -5.374363E+03 -7.701527E+04
       124  27 -2.133565E+05 -1.054512E+06 -2.542349E+05  7.744054E+04 -1.973426E+03 -1.247175E+05
       125   1  4.484436E+05  1.518516E+05  9.335935E+04  1.654820E+05  4.748798E+04  1.689781E+04
       125   2  4.322626E+05  7.767536E+04  4.794417E+04  1.671012E+05  3.052100E+04  8.542968E+03
       125   3  4.366591E+05  7.187956E+04  3.287935E+04  1.586529E+05  1.276226E+04  2.287938E+03
       125   4  3.816757E+05  1.087135E+05  7.174558E+04  1.288892E+05  4.593352E+04  1.630966E+04
       125   5  3.677295E+05  4.809009E+04  3.017156E+04  1.439419E+05  3.014817E+04  8.401957E+03
       125   6  3.741294E+05  5.561637E+04  1.801433E+04  1.489263E+05  1.357079E+04  2.593192E+03
       125   7  3.149136E+05  6.557947E+04  5.013168E+04  9.230115E+04  4.437925E+04  1.572169E+04
       125   8  3.032007E+05  1.850580E+04  1.239862E+04  1.207850E+05  2.977537E+04  8.260969E+03
       125   9  3.116032E+05  3.935300E+04  3.148995E+03  1.392004E+05  1.437924E+04  2.898437E+03
       125  10  4.484411E+05  1.518507E+05  9.335458E+04  1.654813E+05 -2.326551E-09 -6.618553E-10
       125  11  4.322616E+05  7.767503E+04  4.794229E+04  1.671010E+05 -8.742329E-09  7.634563E-09
       125  12  4.366589E+05  7.187951E+04  3.287903E+04  1.586529E+05 -1.480108E-08  2.928685E-09
       125  13  3.816733E+05  1.087127E+05  7.174112E+04  1.288886E+05  1.901960E-10 -3.575598E-09
       125  14  3.677285E+05  4.808977E+04  3.016972E+04  1.439417E+05 -2.124137E-09 -5.402725E-09
       125  15  3.741292E+05  5.561631E+04  1.801397E+04  1.489263E+05  1.713792E-09 -1.132087E-09
       125  16  3.149114E+05  6.557868E+04  5.012751E+04  9.230059E+04  1.444952E-09  4.284245E-10
       125  17  3.031997E+05  1.850549E+04  1.239683E+04  1.207848E+05 -6.668648E-10  2.016990E-09
       125  18  3.116030E+05  3.935293E+04  3.148591E+03  1.392004E+05  5.490752E-09  4.633039E-09
       125  19  4.484436E+05  1.518516E+05  9.335935E+04  1.654820E+05 -4.748798E+04 -1.689781E+04
       125  20  4.322626E+05  7.767536E+04  4.794417E+04  1.671012E+05 -3.052100E+04 -8.542968E+03
       125  21  4.366591E+05  7.187956E+04  3.287935E+04  1.586529E+05 -1.276226E+04 -2.287938E+03
       125  22  3.816757E+05  1.087135E+05  7.174558E+04  1.288892E+05 -4.593352E+04 -1.630966E+04
       125  23  3.677295E+05  4.809009E+04  3.017156E+04  1.439419E+05 -3.014817E+04 -8.401957E+03
       125  24  3.741294E+05  5.561637E+04  1.801433E+04  1.489263E+05 -1.357079E+04 -2.593192E+03
       125  25  3.149136E+05  6.557947E+04  5.013168E+04  9.230115E+04 -4.437925E+04 -1.572169E+04
       125  26  3.032007E+05  1.850580E+04  1.239862E+04  1.207850E+05 -2.977537E+04 -8.260969E+03
       125  27  3.116032E+05  3.935300E+04  3.148995E+03  1.392004E+05 -1.437924E+04 -2.898437E+03
       126   1  4.145516E+05  8.030172E+04  2.600034E+04  1.581142E+05  1.067238E+04  2.175856E+03
       126   2  4.052052E+05  6.692538E+04  1.562215E+04  1.527261E+05  6.773533E+03  1.135823E+03
       126   3  3.932143E+05  6.514825E+04  9.713391E+03  1.520394E+05  2.822990E+03  2.330338E+02
       126   4  3.718093E+05  6.267703E+04  1.458156E+04  1.448008E+05  1.084556E+04  2.241168E+03
       126   5  3.727759E+05  5.432774E+04  7.118734E+03  1.434156E+05  7.024084E+03  1.230366E+03
       126   6  3.710827E+05  5.756250E+04  4.064298E+03  1.467317E+05  3.150847E+03  3.567717E+02
       126   7  3.290688E+05  4.505257E+04  3.162626E+03  1.314884E+05  1.101873E+04  2.306475E+03
       126   8  3.403476E+05  4.173020E+04 -1.384754E+03  1.341056E+05  7.274620E+03  1.324904E+03
       126   9  3.489516E+05  4.997679E+04 -1.584814E+03  1.414242E+05  3.478691E+03  4.805054E+02
       126  10  4.145515E+05  8.030168E+04  2.600011E+04  1.581142E+05 -4.117796E-11  1.351099E-08
       126  11  4.052052E+05  6.692537E+04  1.562206E+04  1.527261E+05  5.729621E-09  1.236328E-08
       126  12  3.932143E+05  6.514825E+04  9.713376E+03  1.520394E+05  2.869741E-09  1.124822E-08
       126  13  3.718092E+05  6.267700E+04  1.458133E+04  1.448008E+05 -6.983161E-10  5.069424E-09
       126  14  3.727758E+05  5.432772E+04  7.118639E+03  1.434156E+05  2.598700E-09 -6.402734E-09
       126  15  3.710827E+05  5.756250E+04  4.064279E+03  1.467317E+05  4.026756E-09  8.889869E-09
       126  16  3.290687E+05  4.505253E+04  3.162388E+03  1.314883E+05 -6.219288E-09  1.137932E-09
       126  17  3.403476E+05  4.173018E+04 -1.384856E+03  1.341056E+05 -2.962432E-09 -4.416998E-09
       126  18  3.489516E+05  4.997679E+04 -1.584838E+03  1.414242E+05 -3.182165E-09 -1.016446E-09
       126  19  4.145516E+05  8.030172E+04  2.600034E+04  1.581142E+05 -1.067238E+04 -2.175856E+03
       126  20  4.052052E+05  6.692538E+04  1.562215E+04  1.527261E+05 -6.773533E+03 -1.135823E+03
       126  21  3.932143E+05  6.514825E+04  9.713391E+03  1.520394E+05 -2.822990E+03 -2.330338E+02
       126  22  3.718093E+05  6.267703E+04  1.458156E+04  1.448008E+05 -1.084556E+04 -2.241168E+03
       126  23  3.727759E+05  5.432774E+04  7.118734E+03  1.434156E+05 -7.024084E+03 -1.230366E+03
       126  24  3.710827E+05  5.756250E+04  4.064298E+03  1.467317E+05 -3.150847E+03 -3.567717E+02
       126  25  3.290688E+05  4.505257E+04  3.162626E+03  1.314884E+05 -1.101873E+04 -2.306475E+03
       126  26  3.403476E+05  4.173020E+04 -1.384754E+03  1.341056E+05 -7.274620E+03 -1.324904E+03
       126  27  3.489516E+05  4.997679E+04 -1.584814E+03  1.414242E+05 -3.478691E+03 -4.805054E+02
       127   1  3.790008E+05  6.140328E+04  5.265310E+03  1.486757E+05  2.162264E+03  3.529950E+02
       127   2  3.704718E+05  5.390301E+04  9.305122E+02  1.426111E+05  1.119460E+03  5.459701E+02
       127   3  3.568442E+05  5.243963E+04 -2.611237E+03  1.425990E+05  7.322470E+01  7.480607E+02
       127   4  3.708102E+05  5.822364E+04  3.154605E+03  1.463171E+05  2.448278E+03  4.609398E+02
       127   5  3.733257E+05  5.496440E+04  1.669949E+03  1.433820E+05  1.410609E+03  6.558530E+02
       127   6  3.707417E+05  5.774113E+04  9.743631E+02  1.464993E+05  3.694942E+02  8.598758E+02
       127   7  3.626196E+05  5.504400E+04  1.043887E+03  1.439586E+05  2.734288E+03  5.688834E+02
       127   8  3.761796E+05  5.602579E+04  2.409388E+03  1.441529E+05  1.701760E+03  7.657367E+02
       127   9  3.846394E+05  6.304263E+04  4.559948E+03  1.503998E+05  6.657710E+02  9.716939E+02
       127  10  3.790008E+05  6.140328E+04  5.265301E+03  1.486757E+05 -1.642646E-11  7.613892E-09
       127  11  3.704718E+05  5.390301E+04  9.305093E+02  1.426111E+05 -6.775757E-10  4.979490E-09
       127  12  3.568442E+05  5.243963E+04 -2.611238E+03  1.425990E+05 -1.071931E-09  2.431202E-09
       127  13  3.708102E+05  5.822364E+04  3.154593E+03  1.463171E+05 -2.332408E-09  4.955639E-10
       127  14  3.733257E+05  5.496440E+04  1.669945E+03  1.433820E+05  3.436379E-09  1.288605E-09
       127  15  3.707417E+05  5.774112E+04  9.743615E+02  1.464993E+05  3.950721E-09 -2.443221E-09
       127  16  3.626196E+05  5.504400E+04  1.043873E+03  1.439586E+05 -3.332464E-09 -2.449562E-09
       127  17  3.761796E+05  5.602579E+04  2.409381E+03  1.441529E+05  2.252299E-09 -6.126061E-09
       127  18  3.846394E+05  6.304263E+04  4.559946E+03  1.503998E+05  2.538748E-09  3.057023E-09
       127  19  3.790008E+05  6.140328E+04  5.265310E+03  1.486757E+05 -2.162264E+03 -3.529950E+02
       127  20  3.704718E+05  5.390301E+04  9.305122E+02  1.426111E+05 -1.119460E+03 -5.459701E+02
       127  21  3.568442E+05  5.243963E+04 -2.611237E+03  1.425990E+05 -7.322470E+01 -7.480607E+02
       127  22  3.708102E+05  5.822364E+04  3.154605E+03  1.463171E+05 -2.448278E+03 -4.609398E+02
       127  23  3.733257E+05  5.496440E+04  1.669949E+03  1.433820E+05 -1.410609E+03 -6.558530E+02
       127  24  3.707417E+05  5.774113E+04  9.743631E+02  1.464993E+05 -3.694942E+02 -8.598758E+02
       127  25  3.626196E+05  5.504400E+04  1.043887E+03  1.439586E+05 -2.734288E+03 -5.688834E+02
       127  26  3.761796E+05  5.602579E+04  2.409388E+03  1.441529E+05 -1.701760E+03 -7.657367E+02
       127  27  3.846394E+05  6.304263E+04  4.559948E+03  1.503998E+05 -6.657710E+02 -9.716939E+02
       128   1  3.434236E+05  4.753577E+04 -6.356889E+03  1.389785E+05 -1.833475E+02  1.000574E+03
       128   2  3.349724E+05  4.056950E+04 -9.467732E+03  1.328277E+05 -6.412173E+02  1.425796E+03
       128   3  3.211338E+05  3.912155E+04 -1.236681E+04  1.328637E+05 -1.099629E+03  1.852618E+03
       128   4  3.707028E+05  5.780340E+04  7.743809E+02  1.464622E+05  1.104450E+02  1.111449E+03
       128   5  3.733938E+05  5.502489E+04  5.186444E+02  1.433761E+05 -3.465451E+02  1.536989E+03
       128   6  3.706970E+05  5.776447E+04  4.739859E+02  1.464768E+05 -8.040833E+02  1.964130E+03
       128   7  3.979826E+05  6.807103E+04  7.905564E+03  1.539462E+05  4.042508E+02  1.222330E+03
       128   8  4.118165E+05  6.948037E+04  1.050490E+04  1.539252E+05 -5.185293E+01  1.648191E+03
       128   9  4.202628E+05  7.640762E+04  1.331462E+04  1.600908E+05 -5.085110E+02  2.075651E+03
       128  10  3.434236E+05  4.753577E+04 -6.356891E+03  1.389785E+05  3.998237E-09 -8.736392E-10
       128  11  3.349724E+05  4.056950E+04 -9.467737E+03  1.328277E+05  1.236896E-09  2.687131E-09
       128  12  3.211337E+05  3.912154E+04 -1.236682E+04  1.328637E+05 -3.656447E-09  8.266077E-10
       128  13  3.707028E+05  5.780340E+04  7.743785E+02  1.464622E+05 -2.244287E-09  3.033285E-09
       128  14  3.733938E+05  5.502489E+04  5.186397E+02  1.433761E+05  2.922547E-09  1.101561E-08
       128  15  3.706970E+05  5.776447E+04  4.739775E+02  1.464768E+05 -1.116900E-09 -3.276601E-09
       128  16  3.979826E+05  6.807103E+04  7.905561E+03  1.539462E+05 -1.463751E-09  1.787615E-09
       128  17  4.118165E+05  6.948037E+04  1.050489E+04  1.539252E+05  4.790814E-10  5.929310E-09
       128  18  4.202628E+05  7.640761E+04  1.331462E+04  1.600908E+05  3.687434E-10 -2.148761E-09
       128  19  3.434236E+05  4.753577E+04 -6.356889E+03  1.389785E+05  1.833475E+02 -1.000574E+03
       128  20  3.349724E+05  4.056950E+04 -9.467732E+03  1.328277E+05  6.412173E+02 -1.425796E+03
       128  21  3.211338E+05  3.912155E+04 -1.236681E+04  1.328637E+05  1.099629E+03 -1.852618E+03
       128  22  3.707028E+05  5.780340E+04  7.743809E+02  1.464622E+05 -1.104450E+02 -1.111449E+03
       128  23  3.733938E+05  5.502489E+04  5.186444E+02  1.433761E+05  3.465451E+02 -1.536989E+03
       128  24  3.706970E+05  5.776447E+04  4.739859E+02  1.464768E+05  8.040833E+02 -1.964130E+03
       128  25  3.979826E+05  6.807103E+04  7.905564E+03  1.539462E+05 -4.042508E+02 -1.222330E+03
       128  26  4.118165E+05  6.948037E+04  1.050490E+04  1.539252E+05  5.185293E+01 -1.648191E+03
       128  27  4.202628E+05  7.640762E+04  1.331462E+04  1.600908E+05  5.085110E+02 -2.075651E+03
       129   1  3.077219E+05  3.409100E+04 -1.589461E+04  1.292249E+05 -1.297626E+03  2.128000E+03
       129   2  2.991983E+05  2.710510E+04 -1.855696E+04  1.230070E+05 -1.860465E+03  2.518303E+03
       129   3  2.852790E+05  2.571836E+04 -2.091916E+04  1.230217E+05 -2.423486E+03  2.909399E+03
       129   4  3.706932E+05  5.777131E+04  5.112658E+02  1.464910E+05 -1.001333E+03  2.239782E+03
       129   5  3.733958E+05  5.500583E+04  7.258422E+02  1.433618E+05 -1.563786E+03  2.630205E+03
       129   6  3.707025E+05  5.783936E+04  1.240233E+03  1.464651E+05 -2.126427E+03  3.021418E+03
       129   7  4.336683E+05  8.145187E+04  1.691680E+04  1.637586E+05 -7.050066E+02  2.351575E+03
       129   8  4.475986E+05  8.290686E+04  2.000815E+04  1.637188E+05 -1.267069E+03  2.742121E+03
       129   9  4.561328E+05  8.996071E+04  2.339894E+04  1.699114E+05 -1.829326E+03  3.133454E+03
       129  10  3.077219E+05  3.409100E+04 -1.589462E+04  1.292249E+05 -1.990395E-09 -1.504206E-09
       129  11  2.991983E+05  2.710509E+04 -1.855698E+04  1.230070E+05  5.989485E-09 -7.256868E-09
       129  12  2.852790E+05  2.571835E+04 -2.091919E+04  1.230217E+05 -2.385108E-09  2.794574E-09
       129  13  3.706932E+05  5.777131E+04  5.112545E+02  1.464910E+05  2.178474E-09  3.806693E-09
       129  14  3.733958E+05  5.500582E+04  7.258246E+02  1.433619E+05 -4.171645E-09 -4.513049E-09
       129  15  3.707025E+05  5.783935E+04  1.240207E+03  1.464651E+05  1.726941E-10  1.742581E-09
       129  16  4.336683E+05  8.145186E+04  1.691679E+04  1.637586E+05  6.008709E-10 -2.822460E-10
       129  17  4.475986E+05  8.290685E+04  2.000813E+04  1.637188E+05 -1.040500E-09 -8.745341E-10
       129  18  4.561328E+05  8.996070E+04  2.339892E+04  1.699114E+05 -1.879002E-09 -2.936832E-09
       129  19  3.077219E+05  3.409100E+04 -1.589461E+04  1.292249E+05  1.297626E+03 -2.128000E+03
       129  20  2.991983E+05  2.710510E+04 -1.855696E+04  1.230070E+05  1.860465E+03 -2.518303E+03
       129  21  2.852790E+05  2.571836E+04 -2.091916E+04  1.230217E+05  2.423486E+03 -2.909399E+03
       129  22  3.706932E+05  5.777131E+04  5.112658E+02  1.464910E+05  1.001333E+03 -2.239782E+03
       129  23  3.733958E+05  5.500583E+04  7.258422E+02  1.433618E+05  1.563786E+03 -2.630205E+03
       129  24  3.707025E+05  5.783936E+04  1.240233E+03  1.464651E+05  2.126427E+03 -3.021418E+03
       129  25  4.336683E+05  8.145187E+04  1.691680E+04  1.637586E+05  7.050066E+02 -2.351575E+03
       129  26  4.475986E+05  8.290686E+04  2.000815E+04  1.637188E+05  1.267069E+03 -2.742121E+03
       129  27  4.561328E+05  8.996071E+04  2.339894E+04  1.699114E+05  1.829326E+03 -3.133454E+03
       130   1  2.716917E+05  2.063189E+04 -2.415295E+04  1.195205E+05 -2.782531E+03  3.130734E+03
       130   2  2.629752E+05  1.336584E+04 -2.584149E+04  1.130568E+05 -4.405422E+03  3.127119E+03
       130   3  2.492844E+05  1.269366E+04 -2.619193E+04  1.127098E+05 -6.021305E+03  3.105304E+03
       130   4  3.707523E+05  5.775448E+04  1.607954E+03  1.465546E+05 -2.478136E+03  3.245499E+03
       130   5  3.732966E+05  5.486948E+04  2.833495E+03  1.433403E+05 -4.111520E+03  3.237891E+03
       130   6  3.708687E+05  5.858037E+04  5.405344E+03  1.462428E+05 -5.737923E+03  3.212072E+03
       130   7  4.698226E+05  9.487779E+04  2.736812E+04  1.735927E+05 -2.173686E+03  3.360286E+03
       130   8  4.836300E+05  9.637397E+04  3.150751E+04  1.736288E+05 -3.817561E+03  3.348684E+03
       130   9  4.924674E+05  1.044680E+05  3.700138E+04  1.797816E+05 -5.454480E+03  3.318863E+03
       130  10  2.716917E+05  2.063188E+04 -2.415298E+04  1.195205E+05 -2.284108E-09  3.850775E-09
       130  11  2.629752E+05  1.336582E+04 -2.584154E+04  1.130568E+05 -1.675963E-09 -7.208187E-09
       130  12  2.492843E+05  1.269364E+04 -2.619201E+04  1.127098E+05 -3.186452E-09 -9.538446E-09
       130  13  3.707523E+05  5.775447E+04  1.607923E+03  1.465546E+05 -2.564368E-09 -2.239699E-10
       130  14  3.732966E+05  5.486947E+04  2.833443E+03  1.433403E+05 -1.151491E-09  1.203410E-08
       130  15  3.708687E+05  5.858035E+04  5.405262E+03  1.462428E+05 -1.961878E-09 -1.163004E-09
       130  16  4.698226E+05  9.487778E+04  2.736809E+04  1.735927E+05 -1.533513E-09  2.975766E-09
       130  17  4.836300E+05  9.637395E+04  3.150746E+04  1.736288E+05 -3.625671E-09 -8.820742E-09
       130  18  4.924674E+05  1.044680E+05  3.700130E+04  1.797817E+05 -3.790714E-09 -9.683678E-10
       130  19  2.716917E+05  2.063189E+04 -2.415295E+04  1.195205E+05  2.782531E+03 -3.130734E+03
       130  20  2.629752E+05  1.336584E+04 -2.584149E+04  1.130568E+05  4.405422E+03 -3.127119E+03
       130  21  2.492844E+05  1.269366E+04 -2.619193E+04  1.127098E+05  6.021305E+03 -3.105304E+03
       130  22  3.707523E+05  5.775448E+04  1.607954E+03  1.465546E+05  2.478136E+03 -3.245499E+03
       130  23  3.732966E+05  5.486948E+04  2.833495E+03  1.433403E+05  4.111520E+03 -3.237891E+03
       130  24  3.708687E+05  5.858037E+04  5.405344E+03  1.462428E+05  5.737923E+03 -3.212072E+03
       130  25  4.698226E+05  9.487779E+04  2.736812E+04  1.735927E+05  2.173686E+03 -3.360286E+03
       130  26  4.836300E+05  9.637397E+04  3.150751E+04  1.736288E+05  3.817561E+03 -3.348684E+03
       130  27  4.924674E+05  1.044680E+05  3.700138E+04  1.797816E+05  5.454480E+03 -3.318863E+03
       131   1  2.349373E+05  7.463428E+03 -2.825919E+04  1.108923E+05 -7.251757E+03  3.050822E+03
       131   2  2.258409E+05 -2.011037E+03 -2.597229E+04  1.024988E+05 -1.359089E+04  1.257868E+03
       131   3  2.158692E+05  4.701082E+03 -1.624234E+04  9.799542E+04 -1.980908E+04 -8.553060E+02
       131   4  3.713236E+05  5.746115E+04  6.976113E+03  1.469757E+05 -6.868944E+03  3.195060E+03
       131   5  3.723665E+05  5.374910E+04  1.223358E+04  1.433724E+05 -1.338953E+04  1.333628E+03
       131   6  3.725691E+05  6.625770E+04  2.507646E+04  1.436592E+05 -1.978933E+04 -8.480824E+02
       131   7  5.077275E+05  1.074596E+05  4.220976E+04  1.830659E+05 -6.486039E+03  3.339330E+03
       131   8  5.189130E+05  1.095107E+05  5.043764E+04  1.842548E+05 -1.318812E+04  1.409409E+03
       131   9  5.292933E+05  1.278167E+05  6.639329E+04  1.893337E+05 -1.976957E+04 -8.408563E+02
       131  10  2.349372E+05  7.463404E+03 -2.825930E+04  1.108924E+05 -8.480782E-09 -1.231743E-08
       131  11  2.258407E+05 -2.011088E+03 -2.597264E+04  1.024988E+05 -5.079316E-09  7.258540E-09
       131  12  2.158688E+05  4.700975E+03 -1.624308E+04  9.799541E+04  7.919504E-10  3.139795E-09
       131  13  3.713235E+05  5.746112E+04  6.976006E+03  1.469757E+05 -6.304622E-09 -5.049982E-09
       131  14  3.723664E+05  5.374905E+04  1.223324E+04  1.433724E+05 -6.047213E-10  1.574015E-09
       131  15  3.725687E+05  6.625759E+04  2.507572E+04  1.436592E+05 -4.320712E-09 -1.373047E-09
       131  16  5.077274E+05  1.074596E+05  4.220966E+04  1.830659E+05  3.193207E-09  3.024890E-10
       131  17  5.189129E+05  1.095107E+05  5.043731E+04  1.842548E+05  5.439604E-09 -4.406393E-09
       131  18  5.292929E+05  1.278166E+05  6.639256E+04  1.893337E+05 -3.156346E-09 -4.926277E-09
       131  19  2.349373E+05  7.463428E+03 -2.825919E+04  1.108923E+05  7.251757E+03 -3.050822E+03
       131  20  2.258409E+05 -2.011037E+03 -2.597229E+04  1.024988E+05  1.359089E+04 -1.257868E+03
       131  21  2.158692E+05  4.701082E+03 -1.624234E+04  9.799542E+04  1.980908E+04  8.553060E+02
       131  22  3.713236E+05  5.746115E+04  6.976113E+03  1.469757E+05  6.868944E+03 -3.195060E+03
       131  23  3.723665E+05  5.374910E+04  1.223358E+04  1.433724E+05  1.338953E+04 -1.333628E+03
       131  24  3.725691E+05  6.625770E+04  2.507646E+04  1.436592E+05  1.978933E+04  8.480824E+02
       131  25  5.077275E+05  1.074596E+05  4.220976E+04  1.830659E+05  6.486039E+03 -3.339330E+03
       131  26  5.189130E+05  1.095107E+05  5.043764E+04  1.842548E+05  1.318812E+04 -1.409409E+03
       131  27  5.292933E+05  1.278167E+05  6.639329E+04  1.893337E+05  1.976957E+04  8.408563E+02
       132   1  1.948373E+05 -1.702623E+03 -1.379328E+04  1.137385E+05 -2.598341E+04 -2.046395E+03
       132   2  1.859954E+05 -3.287368E+04  4.001622E+03  8.621321E+04 -5.155283E+04 -1.140733E+04
       132   3  2.152927E+05  4.901249E+04  7.021018E+04  3.725013E+04 -7.526323E+04 -2.570347E+04
       132   4  3.765624E+05  5.411398E+04  3.098307E+04  1.507549E+05 -2.446814E+04 -1.475120E+03
       132   5  3.636922E+05  4.300716E+04  5.189237E+04  1.442660E+05 -5.281963E+04 -1.188549E+04
       132   6  3.894983E+05  1.454868E+05  1.234083E+05  1.163434E+05 -7.931216E+04 -2.723245E+04
       132   7  5.583199E+05  1.099304E+05  7.575713E+04  1.877799E+05 -2.295238E+04 -9.037360E+02
       132   8  5.414191E+05  1.188923E+05  9.978006E+04  2.023345E+05 -5.408682E+04 -1.236384E+04
       132   9  5.637336E+05  2.419739E+05  1.766030E+05  1.954591E+05 -8.336228E+04 -2.876238E+04
       132  10  1.948366E+05 -1.702809E+03 -1.379455E+04  1.137384E+05 -1.798314E-09  2.385123E-09
       132  11  1.859925E+05 -3.287453E+04  3.996385E+03  8.621273E+04 -7.177802E-09  8.356271E-09
       132  12  2.152864E+05  4.901026E+04  7.019829E+04  3.724857E+04  9.086364E-10  3.155366E-09
       132  13  3.765617E+05  5.411382E+04  3.098194E+04  1.507548E+05 -4.342156E-09  8.973418E-11
       132  14  3.636892E+05  4.300626E+04  5.188687E+04  1.442655E+05 -3.752815E-09 -5.089611E-10
       132  15  3.894913E+05  1.454843E+05  1.233951E+05  1.163416E+05 -3.089344E-09  2.817075E-09
       132  16  5.583193E+05  1.099303E+05  7.575613E+04  1.877799E+05  6.806095E-10 -2.203840E-09
       132  17  5.414159E+05  1.188913E+05  9.977428E+04  2.023340E+05 -1.755216E-09 -1.025315E-09
       132  18  5.637259E+05  2.419712E+05  1.765884E+05  1.954572E+05 -2.804883E-09 -4.482428E-10
       132  19  1.948373E+05 -1.702623E+03 -1.379328E+04  1.137385E+05  2.598341E+04  2.046395E+03
       132  20  1.859954E+05 -3.287368E+04  4.001622E+03  8.621321E+04  5.155283E+04  1.140733E+04
       132  21  2.152927E+05  4.901249E+04  7.021018E+04  3.725013E+04  7.526323E+04  2.570347E+04
       132  22  3.765624E+05  5.411398E+04  3.098307E+04  1.507549E+05  2.446814E+04  1.475120E+03
       132  23  3.636922E+05  4.300716E+04  5.189237E+04  1.442660E+05  5.281963E+04  1.188549E+04
       132  24  3.894983E+05  1.454868E+05  1.234083E+05  1.163434E+05  7.931216E+04  2.723245E+04
       132  25  5.583199E+05  1.099304E+05  7.575713E+04  1.877799E+05  2.295238E+04  9.037360E+02
       132  26  5.414191E+05  1.188923E+05  9.978006E+04  2.023345E+05  5.408682E+04  1.236384E+04
       132  27  5.637336E+05  2.419739E+05  1.766030E+05  1.954591E+05  8.336228E+04  2.876238E+04
       133   1 -2.594208E+02 -5.218670E+05 -2.394856E+03 -1.570732E+02 -4.997099E+01  1.746940E+02
       133   2 -5.827370E+02 -5.233930E+05 -3.282646E+03  2.995806E+02 -9.769661E+01  1.480937E+03
       133   3 -1.592453E+03 -5.252644E+05 -5.193735E+03 -3.540259E+02 -1.698519E+02  2.787164E+03
       133   4 -1.469613E+01 -5.208749E+05 -2.165284E+03 -2.465471E+02 -4.999600E+01  1.941719E+02
       133   5  8.340109E+01 -5.207011E+05 -2.645222E+03  3.082671E+02 -9.773952E+01  1.514482E+03
       133   6 -5.073366E+02 -5.208752E+05 -4.158222E+03 -2.471774E+02 -1.699122E+02  2.834779E+03
       133   7  2.300285E+02 -5.198828E+05 -1.935711E+03 -3.360211E+02 -5.002100E+01  2.136497E+02
       133   8  7.495387E+02 -5.180093E+05 -2.007797E+03  3.169537E+02 -9.778243E+01  1.548027E+03
       133   9  5.777789E+02 -5.164860E+05 -3.122711E+03 -1.403281E+02 -1.699726E+02  2.882395E+03
       133  10 -2.594208E+02 -5.218670E+05 -2.394857E+03 -1.570732E+02 -1.312943E-10  1.536589E-09
       133  11 -5.827376E+02 -5.233930E+05 -3.282651E+03  2.995807E+02  1.086870E-08  3.237920E-09
       133  12 -1.592456E+03 -5.252644E+05 -5.193750E+03 -3.540256E+02  3.680510E-09  1.999401E-09
       133  13 -1.469614E+01 -5.208749E+05 -2.165284E+03 -2.465471E+02  1.273059E-09  2.232655E-09
       133  14  8.340047E+01 -5.207011E+05 -2.645226E+03  3.082672E+02  2.722238E-09  5.071314E-09
       133  15 -5.073388E+02 -5.208753E+05 -4.158238E+03 -2.471770E+02 -1.337736E-10  1.536089E-11
       133  16  2.300285E+02 -5.198828E+05 -1.935711E+03 -3.360211E+02 -2.325577E-09 -7.299561E-10
       133  17  7.495380E+02 -5.180093E+05 -2.007802E+03  3.169539E+02 -4.106653E-09  1.104836E-09
       133  18  5.777766E+02 -5.164860E+05 -3.122727E+03 -1.403277E+02 -8.498062E-10  2.285740E-09
       133  19 -2.594208E+02 -5.218670E+05 -2.394856E+03 -1.570732E+02  4.997099E+01 -1.746940E+02
       133  20 -5.827370E+02 -5.233930E+05 -3.282646E+03  2.995806E+02  9.769661E+01 -1.480937E+03
       133  21 -1.592453E+03 -5.252644E+05 -5.193735E+03 -3.540259E+02  1.698519E+02 -2.787164E+03
       133  22 -1.469613E+01 -5.208749E+05 -2.165284E+03 -2.465471E+02  4.999600E+01 -1.941719E+02
       133  23  8.340109E+01 -5.207011E+05 -2.645222E+03  3.082671E+02  9.773952E+01 -1.514482E+03
       133  24 -5.073366E+02 -5.208752E+05 -4.158222E+03 -2.471774E+02  1.699122E+02 -2.834779E+03
       133  25  2.300285E+02 -5.198828E+05 -1.935711E+03 -3.360211E+02  5.002100E+01 -2.136497E+02
       133  26  7.495387E+02 -5.180093E+05 -2.007797E+03  3.169537E+02  9.778243E+01 -1.548027E+03
       133  27  5.777789E+02 -5.164860E+05 -3.122711E+03 -1.403281E+02  1.699726E+02 -2.882395E+03
       134   1 -1.282074E+03 -5.276620E+05 -6.695359E+03  6.033172E+02 -2.204580E+02  3.612567E+03
       134   2 -1.291033E+03 -5.282368E+05 -1.043464E+04 -1.185366E+02 -2.962438E+02  7.971983E+03
       134   3 -7.958039E+03 -5.310480E+05 -1.867906E+04 -1.949603E+03 -3.506062E+02  1.233140E+04
       134   4  2.973277E+02 -5.212942E+05 -5.182864E+03 -2.442327E+02 -2.205223E+02  3.659181E+03
       134   5  7.019626E+02 -5.201782E+05 -8.526363E+03  3.066594E+02 -2.962817E+02  8.006305E+03
       134   6 -5.549269E+03 -5.212965E+05 -1.636642E+04 -2.516622E+02 -3.505999E+02  1.235344E+04
       134   7  1.876730E+03 -5.149263E+05 -3.670371E+03 -1.091791E+03 -2.205867E+02  3.705795E+03
       134   8  2.694954E+03 -5.121196E+05 -6.618095E+03  7.318610E+02 -2.963195E+02  8.040628E+03
       134   9 -3.140494E+03 -5.115450E+05 -1.405379E+04  1.446306E+03 -3.505934E+02  1.237549E+04
       134  10 -1.282078E+03 -5.276621E+05 -6.695384E+03  6.033178E+02 -2.140998E-09 -8.350353E-10
       134  11 -1.291050E+03 -5.282369E+05 -1.043475E+04 -1.185347E+02  3.939743E-09  1.361660E-09
       134  12 -7.958080E+03 -5.310481E+05 -1.867934E+04 -1.949600E+03 -3.709950E-09  5.176956E-09
       134  13  2.973241E+02 -5.212942E+05 -5.182889E+03 -2.442320E+02 -2.294242E-09  2.116918E-09
       134  14  7.019453E+02 -5.201783E+05 -8.526483E+03  3.066613E+02  3.072799E-10 -4.557269E-10
       134  15 -5.549310E+03 -5.212967E+05 -1.636671E+04 -2.516587E+02 -2.407239E-09 -4.852006E-09
       134  16  1.876726E+03 -5.149263E+05 -3.670396E+03 -1.091791E+03  7.385024E-10 -1.108179E-09
       134  17  2.694937E+03 -5.121197E+05 -6.618216E+03  7.318629E+02  5.134164E-09  4.176550E-10
       134  18 -3.140535E+03 -5.115451E+05 -1.405408E+04  1.446309E+03 -6.731088E-10 -1.445026E-09
       134  19 -1.282074E+03 -5.276620E+05 -6.695359E+03  6.033172E+02  2.204580E+02 -3.612567E+03
       134  20 -1.291033E+03 -5.282368E+05 -1.043464E+04 -1.185366E+02  2.962438E+02 -7.971983E+03
       134  21 -7.958039E+03 -5.310480E+05 -1.867906E+04 -1.949603E+03  3.506062E+02 -1.233140E+04
       134  22  2.973277E+02 -5.212942E+05 -5.182864E+03 -2.442327E+02  2.205223E+02 -3.659181E+03
       134  23  7.019626E+02 -5.201782E+05 -8.526363E+03  3.066594E+02  2.962817E+02 -8.006305E+03
       134  24 -5.549269E+03 -5.212965E+05 -1.636642E+04 -2.516622E+02  3.505999E+02 -1.235344E+04
       134  25  1.876730E+03 -5.149263E+05 -3.670371E+03 -1.091791E+03  2.205867E+02 -3.705795E+03
       134  26  2.694954E+03 -5.121196E+05 -6.618095E+03  7.318610E+02  2.963195E+02 -8.040628E+03
       134  27 -3.140494E+03 -5.115450E+05 -1.405379E+04  1.446306E+03  3.505934E+02 -1.237549E+04
       135   1  2.405966E+02 -5.368675E+05 -2.287930E+04  8.015659E+03 -4.453154E+02  1.529592E+04
       135   2  3.713773E+03 -5.287170E+05 -3.564601E+04 -5.832072E+03 -5.142292E+02  3.297499E+04
       135   3 -6.250609E+04 -5.403005E+05 -7.735296E+04 -2.082262E+04 -2.239289E+02  5.065427E+04
       135   4  3.159745E+03 -5.251739E+05 -2.010872E+04 -2.306522E+02 -4.456830E+02  1.542625E+04
       135   5  7.006992E+03 -5.153326E+05 -3.247894E+04  3.021376E+02 -5.138053E+02  3.289840E+04
       135   6 -5.880282E+04 -5.251894E+05 -7.364528E+04 -3.083933E+02 -2.218973E+02  5.037083E+04
       135   7  6.079139E+03 -5.134800E+05 -1.733811E+04 -8.477119E+03 -4.460540E+02  1.555658E+04
       135   8  1.030034E+04 -5.019480E+05 -2.931186E+04  6.436480E+03 -5.133830E+02  3.282181E+04
       135   9 -5.509798E+04 -5.100772E+05 -6.993739E+04  2.020634E+04 -2.198846E+02  5.008738E+04
       135  10  2.405335E+02 -5.368678E+05 -2.287974E+04  8.015664E+03 -5.358225E-09  5.663739E-09
       135  11  3.713480E+03 -5.287182E+05 -3.564806E+04 -5.832058E+03  1.137427E-09  5.894145E-09
       135  12 -6.250678E+04 -5.403032E+05 -7.735778E+04 -2.082262E+04 -1.162848E-09  1.828567E-11
       135  13  3.159681E+03 -5.251741E+05 -2.010917E+04 -2.306467E+02 -2.251341E-09  3.277431E-09
       135  14  7.006701E+03 -5.153338E+05 -3.248098E+04  3.021512E+02 -6.550021E-09 -1.536264E-09
       135  15 -5.880350E+04 -5.251921E+05 -7.365005E+04 -3.083843E+02 -1.549146E-09 -5.698951E-09
       135  16  6.079074E+03 -5.134803E+05 -1.733857E+04 -8.477114E+03 -4.216086E-09 -4.316023E-09
       135  17  1.030005E+04 -5.019492E+05 -2.931388E+04  6.436494E+03 -2.678480E-09 -3.377531E-09
       135  18 -5.509865E+04 -5.100799E+05 -6.994211E+04  2.020635E+04 -5.121607E-09 -6.911326E-10
       135  19  2.405966E+02 -5.368675E+05 -2.287930E+04  8.015659E+03  4.453154E+02 -1.529592E+04
       135  20  3.713773E+03 -5.287170E+05 -3.564601E+04 -5.832072E+03  5.142292E+02 -3.297499E+04
       135  21 -6.250609E+04 -5.403005E+05 -7.735296E+04 -2.082262E+04  2.239289E+02 -5.065427E+04
       135  22  3.159745E+03 -5.251739E+05 -2.010872E+04 -2.306522E+02  4.456830E+02 -1.542625E+04
       135  23  7.006992E+03 -5.153326E+05 -3.247894E+04  3.021376E+02  5.138053E+02 -3.289840E+04
       135  24 -5.880282E+04 -5.251894E+05 -7.364528E+04 -3.083933E+02  2.218973E+02 -5.037083E+04
       135  25  6.079139E+03 -5.134800E+05 -1.733811E+04 -8.477119E+03  4.460540E+02 -1.555658E+04
       135  26  1.030034E+04 -5.019480E+05 -2.931186E+04  6.436480E+03  5.133830E+02 -3.282181E+04
       135  27 -5.509798E+04 -5.100772E+05 -6.993739E+04  2.020634E+04  2.198846E+02 -5.008738E+04
       136   1 -7.813786E+06 -2.561025E+06 -1.342557E+06 -2.776739E+06 -4.586048E+05 -9.682607E+04
       136   2 -7.599518E+06 -2.245961E+06 -1.001289E+06 -2.698582E+06 -3.071349E+05  1.448191E+05
       136   3 -7.425503E+06 -2.115030E+06 -8.583901E+05 -2.634584E+06 -1.095643E+05  2.670128E+05
       136   4 -3.532967E+06 -8.314858E+05 -2.019580E+05 -1.492709E+06 -1.562645E+05  1.902487E+04
       136   5 -3.517708E+06 -6.782726E+05 -9.238066E+04 -1.515140E+06 -1.689302E+05  1.975009E+05
       136   6 -3.509368E+06 -6.757579E+05 -4.919154E+04 -1.551842E+06 -1.357583E+05  2.568409E+05
       136   7  7.660204E+05  8.999686E+05  9.374012E+05 -2.002893E+05  1.483907E+05  1.358795E+05
       136   8  5.812216E+05  8.910838E+05  8.155646E+05 -3.243394E+05 -2.972892E+04  2.505867E+05
       136   9  4.227394E+05  7.648268E+05  7.592203E+05 -4.627181E+05 -1.621331E+05  2.466025E+05
       136  10 -7.814016E+06 -2.561093E+06 -1.342975E+06 -2.776775E+06 -2.571614E-09 -2.360022E-10
       136  11 -7.599625E+06 -2.246009E+06 -1.001507E+06 -2.698546E+06  1.882577E-09 -1.085511E-09
       136  12 -7.425535E+06 -2.115109E+06 -8.585463E+05 -2.634560E+06 -7.352309E-10  1.788026E-09
       136  13 -3.532994E+06 -8.314927E+05 -2.020047E+05 -1.492706E+06  4.765396E-10  1.150569E-10
       136  14 -3.517749E+06 -6.783221E+05 -9.250744E+04 -1.515113E+06 -3.765607E-09  4.396491E-09
       136  15 -3.509405E+06 -6.758335E+05 -4.934983E+04 -1.551814E+06 -1.792439E-09  2.450211E-09
       136  16  7.659918E+05  8.999428E+05  9.373251E+05 -2.003055E+05  1.817689E-10  3.989534E-10
       136  17  5.812039E+05  8.910162E+05  8.154451E+05 -3.243334E+05 -3.410097E-09 -1.262383E-09
       136  18  4.226949E+05  7.647546E+05  7.590570E+05 -4.626859E+05 -2.785012E-09  1.126244E-09
       136  19 -7.813786E+06 -2.561025E+06 -1.342557E+06 -2.776739E+06  4.586048E+05  9.682607E+04
       136  20 -7.599518E+06 -2.245961E+06 -1.001289E+06 -2.698582E+06  3.071349E+05 -1.448191E+05
       136  21 -7.425503E+06 -2.115030E+06 -8.583901E+05 -2.634584E+06  1.095643E+05 -2.670128E+05
       136  22 -3.532967E+06 -8.314858E+05 -2.019580E+05 -1.492709E+06  1.562645E+05 -1.902487E+04
       136  23 -3.517708E+06 -6.782726E+05 -9.238066E+04 -1.515140E+06  1.689302E+05 -1.975009E+05
       136  24 -3.509368E+06 -6.757579E+05 -4.919154E+04 -1.551842E+06  1.357583E+05 -2.568409E+05
       136  25  7.660204E+05  8.999686E+05  9.374012E+05 -2.002893E+05 -1.483907E+05 -1.358795E+05
       136  26  5.812216E+05  8.910838E+05  8.155646E+05 -3.243394E+05  2.972892E+04 -2.505867E+05
       136  27  4.227394E+05  7.648268E+05  7.592203E+05 -4.627181E+05  1.621331E+05 -2.466025E+05
       137   1 -7.246803E+06 -2.074571E+06 -8.134945E+05 -2.599819E+06 -1.233605E+05  2.494294E+05
       137   2 -7.039182E+06 -1.954485E+06 -7.372861E+05 -2.508254E+06 -9.976480E+04  2.516252E+05
       137   3 -6.788153E+06 -1.887464E+06 -6.782469E+05 -2.467543E+06 -7.312013E+04  2.456912E+05
       137   4 -3.501766E+06 -6.829548E+05 -3.769429E+04 -1.548623E+06 -1.259990E+05  2.482544E+05
       137   5 -3.523725E+06 -6.537742E+05 -2.018739E+04 -1.524499E+06 -1.135309E+05  2.462407E+05
       137   6 -3.500083E+06 -6.753855E+05 -1.089759E+04 -1.551228E+06 -9.803216E+04  2.361188E+05
       137   7  2.578397E+05  7.099309E+05  7.373681E+05 -4.914791E+05 -1.286550E+05  2.470735E+05
       137   8  4.586187E+03  6.480473E+05  6.962836E+05 -5.355235E+05 -1.273822E+05  2.408245E+05
       137   9 -2.007801E+05  5.376458E+05  6.559076E+05 -6.303743E+05 -1.230878E+05  2.264926E+05
       137  10 -7.246836E+06 -2.074642E+06 -8.136397E+05 -2.599794E+06 -3.924758E-09  5.136706E-09
       137  11 -7.039210E+06 -1.954556E+06 -7.374235E+05 -2.508234E+06 -5.838052E-09  5.170240E-09
       137  12 -6.788174E+06 -1.887530E+06 -6.783702E+05 -2.467529E+06  3.998806E-09  4.506876E-09
       137  13 -3.501799E+06 -6.830251E+05 -3.783966E+04 -1.548598E+06 -1.483759E-09  2.505884E-09
       137  14 -3.523755E+06 -6.538426E+05 -2.032528E+04 -1.524476E+06 -1.894376E-09  3.234224E-09
       137  15 -3.500109E+06 -6.754478E+05 -1.102017E+04 -1.551210E+06  1.245671E-08  5.094993E-09
       137  16  2.578056E+05  7.098610E+05  7.372225E+05 -4.914535E+05  3.738993E-10  1.593747E-09
       137  17  4.553276E+03  6.479808E+05  6.961444E+05 -5.354988E+05  5.314664E-09  1.215738E-09
       137  18 -2.008101E+05  5.375867E+05  6.557830E+05 -6.303519E+05  9.424476E-09  3.307546E-09
       137  19 -7.246803E+06 -2.074571E+06 -8.134945E+05 -2.599819E+06  1.233605E+05 -2.494294E+05
       137  20 -7.039182E+06 -1.954485E+06 -7.372861E+05 -2.508254E+06  9.976480E+04 -2.516252E+05
       137  21 -6.788153E+06 -1.887464E+06 -6.782469E+05 -2.467543E+06  7.312013E+04 -2.456912E+05
       137  22 -3.501766E+06 -6.829548E+05 -3.769429E+04 -1.548623E+06  1.259990E+05 -2.482544E+05
       137  23 -3.523725E+06 -6.537742E+05 -2.018739E+04 -1.524499E+06  1.135309E+05 -2.462407E+05
       137  24 -3.500083E+06 -6.753855E+05 -1.089759E+04 -1.551228E+06  9.803216E+04 -2.361188E+05
       137  25  2.578397E+05  7.099309E+05  7.373681E+05 -4.914791E+05  1.286550E+05 -2.470735E+05
       137  26  4.586187E+03  6.480473E+05  6.962836E+05 -5.355235E+05  1.273822E+05 -2.408245E+05
       137  27 -2.007801E+05  5.376458E+05  6.559076E+05 -6.303743E+05  1.230878E+05 -2.264926E+05
       138   1 -6.625057E+06 -1.827688E+06 -6.412928E+05 -2.422640E+06 -6.882006E+04  2.352421E+05
       138   2 -6.409572E+06 -1.712822E+06 -5.887021E+05 -2.327151E+06 -5.876421E+04  2.190116E+05
       138   3 -6.144510E+06 -1.646515E+06 -5.382714E+05 -2.286394E+06 -4.847670E+04  2.020204E+05
       138   4 -3.499115E+06 -6.758861E+05 -8.256897E+03 -1.551603E+06 -9.247290E+04  2.261716E+05
       138   5 -3.523619E+06 -6.509945E+05 -4.720219E+03 -1.524396E+06 -8.344699E+04  2.095897E+05
       138   6 -3.498419E+06 -6.744461E+05 -2.525196E+03 -1.551929E+06 -7.419159E+04  1.922486E+05
       138   7 -3.629660E+05  4.767985E+05  6.243042E+05 -6.764498E+05 -1.162557E+05  2.170524E+05
       138   8 -6.289806E+05  4.115762E+05  5.788556E+05 -7.181434E+05 -1.082547E+05  2.001210E+05
       138   9 -8.450404E+05  2.982381E+05  5.328769E+05 -8.145339E+05 -1.000256E+05  1.824322E+05
       138  10 -6.625077E+06 -1.827749E+06 -6.414055E+05 -2.422627E+06  9.198604E-09  3.857840E-09
       138  11 -6.409588E+06 -1.712875E+06 -5.887985E+05 -2.327141E+06  6.031238E-09 -1.320974E-09
       138  12 -6.144523E+06 -1.646559E+06 -5.383524E+05 -2.286386E+06  2.149699E-09 -6.931821E-10
       138  13 -3.499138E+06 -6.759432E+05 -8.368872E+03 -1.551586E+06  1.284617E-08 -3.369152E-10
       138  14 -3.523639E+06 -6.510435E+05 -4.815665E+03 -1.524382E+06  3.796080E-09  4.566323E-10
       138  15 -3.498435E+06 -6.744872E+05 -2.604837E+03 -1.551917E+06  7.828613E-10  6.860239E-11
       138  16 -3.629931E+05  4.767444E+05  6.241905E+05 -6.764295E+05  5.439681E-09  5.169707E-10
       138  17 -6.290039E+05  4.115302E+05  5.787585E+05 -7.181260E+05 -1.435377E-09 -3.241696E-09
       138  18 -8.450601E+05  2.981997E+05  5.327957E+05 -8.145192E+05 -2.820180E-09 -1.386777E-09
       138  19 -6.625057E+06 -1.827688E+06 -6.412928E+05 -2.422640E+06  6.882006E+04 -2.352421E+05
       138  20 -6.409572E+06 -1.712822E+06 -5.887021E+05 -2.327151E+06  5.876421E+04 -2.190116E+05
       138  21 -6.144510E+06 -1.646515E+06 -5.382714E+05 -2.286394E+06  4.847670E+04 -2.020204E+05
       138  22 -3.499115E+06 -6.758861E+05 -8.256897E+03 -1.551603E+06  9.247290E+04 -2.261716E+05
       138  23 -3.523619E+06 -6.509945E+05 -4.720219E+03 -1.524396E+06  8.344699E+04 -2.095897E+05
       138  24 -3.498419E+06 -6.744461E+05 -2.525196E+03 -1.551929E+06  7.419159E+04 -1.922486E+05
       138  25 -3.629660E+05  4.767985E+05  6.243042E+05 -6.764498E+05  1.162557E+05 -2.170524E+05
       138  26 -6.289806E+05  4.115762E+05  5.788556E+05 -7.181434E+05  1.082547E+05 -2.001210E+05
       138  27 -8.450404E+05  2.982381E+05  5.328769E+05 -8.145339E+05  1.000256E+05 -1.824322E+05
       139   1 -5.976445E+06 -1.584218E+06 -5.022275E+05 -2.239844E+06 -4.382845E+04  1.913226E+05
       139   2 -5.753220E+06 -1.466903E+06 -4.517882E+05 -2.141810E+06 -3.575044E+04  1.728469E+05
       139   3 -5.479215E+06 -1.399315E+06 -4.017913E+05 -2.100562E+06 -2.763424E+04  1.541471E+05
       139   4 -3.497973E+06 -6.745890E+05 -1.973648E+03 -1.552360E+06 -6.969486E+04  1.815151E+05
       139   5 -3.523097E+06 -6.492381E+05 -1.320680E+03 -1.524073E+06 -6.191882E+04  1.629570E+05
       139   6 -3.497454E+06 -6.735512E+05 -8.768199E+02 -1.552586E+06 -5.410515E+04  1.441751E+05
       139   7 -1.013126E+06  2.355716E+05  4.979754E+05 -8.623141E+05 -9.567323E+04  1.716657E+05
       139   8 -1.287799E+06  1.688604E+05  4.489046E+05 -9.042615E+05 -8.818922E+04  1.530289E+05
       139   9 -1.511593E+06  5.255862E+04  3.998506E+05 -1.002972E+06 -8.066789E+04  1.341688E+05
       139  10 -5.976456E+06 -1.584257E+06 -5.022997E+05 -2.239838E+06  1.530841E-10  2.166426E-10
       139  11 -5.753229E+06 -1.466935E+06 -4.518467E+05 -2.141805E+06  5.624538E-10  2.131176E-09
       139  12 -5.479222E+06 -1.399341E+06 -4.018373E+05 -2.100559E+06  3.538308E-09  1.249376E-09
       139  13 -3.497987E+06 -6.746256E+05 -2.044551E+03 -1.552350E+06  1.154193E-09 -3.626195E-10
       139  14 -3.523108E+06 -6.492676E+05 -1.377675E+03 -1.524065E+06  1.639162E-09  1.196802E-09
       139  15 -3.497462E+06 -6.735742E+05 -9.212954E+02 -1.552580E+06 -8.380967E-10  2.362371E-10
       139  16 -1.013144E+06  2.355376E+05  4.979030E+05 -8.623009E+05  1.519746E-09 -1.269490E-09
       139  17 -1.287813E+06  1.688332E+05  4.488461E+05 -9.042506E+05 -1.823201E-09  3.733710E-10
       139  18 -1.511605E+06  5.253759E+04  3.998046E+05 -1.002963E+06 -2.336850E-09 -3.967752E-10
       139  19 -5.976445E+06 -1.584218E+06 -5.022275E+05 -2.239844E+06  4.382845E+04 -1.913226E+05
       139  20 -5.753220E+06 -1.466903E+06 -4.517882E+05 -2.141810E+06  3.575044E+04 -1.728469E+05
       139  21 -5.479215E+06 -1.399315E+06 -4.017913E+05 -2.100562E+06  2.763424E+04 -1.541471E+05
       139  22 -3.497973E+06 -6.745890E+05 -1.973648E+03 -1.552360E+06  6.969486E+04 -1.815151E+05
       139  23 -3.523097E+06 -6.492381E+05 -1.320680E+03 -1.524073E+06  6.191882E+04 -1.629570E+05
       139  24 -3.497454E+06 -6.735512E+05 -8.768199E+02 -1.552586E+06  5.410515E+04 -1.441751E+05
       139  25 -1.013126E+06  2.355716E+05  4.979754E+05 -8.623141E+05  9.567323E+04 -1.716657E+05
       139  26 -1.287799E+06  1.688604E+05  4.489046E+05 -9.042615E+05  8.818922E+04 -1.530289E+05
       139  27 -1.511593E+06  5.255862E+04  3.998506E+05 -1.002972E+06  8.066789E+04 -1.341688E+05
       140   1 -5.306357E+06 -1.335618E+06 -3.653553E+05 -2.052991E+06 -2.310000E+04  1.430796E+05
       140   2 -5.077185E+06 -1.216351E+06 -3.147646E+05 -1.953138E+06 -1.511125E+04  1.240103E+05
       140   3 -4.796664E+06 -1.147909E+06 -2.645805E+05 -1.911599E+06 -7.107058E+03  1.048119E+05
       140   4 -3.497167E+06 -6.736427E+05 -8.806745E+02 -1.552922E+06 -4.975526E+04  1.330546E+05
       140   5 -3.522629E+06 -6.478634E+05 -1.106654E+03 -1.523842E+06 -4.194187E+04  1.139419E+05
       140   6 -3.496785E+06 -6.728731E+05 -1.605722E+03 -1.553091E+06 -3.411348E+04  9.470015E+04
       140   7 -1.684572E+06 -1.138353E+04  3.634365E+05 -1.051492E+06 -7.649466E+04  1.229982E+05
       140   8 -1.965567E+06 -7.917025E+04  3.124336E+05 -1.093544E+06 -6.884512E+04  1.038463E+05
       140   9 -2.195162E+06 -1.976967E+05  2.612854E+05 -1.193886E+06 -6.118086E+04  8.456566E+04
       140  10 -5.306363E+06 -1.335640E+06 -3.653947E+05 -2.052989E+06 -1.529396E-08 -6.619706E-09
       140  11 -5.077189E+06 -1.216367E+06 -3.147939E+05 -1.953137E+06 -6.012033E-09 -3.278421E-09
       140  12 -4.796667E+06 -1.147920E+06 -2.646012E+05 -1.911598E+06  7.153427E-09 -1.467815E-09
       140  13 -3.497174E+06 -6.736623E+05 -9.185206E+02 -1.552917E+06 -1.696199E-09  2.460092E-10
       140  14 -3.522634E+06 -6.478778E+05 -1.134302E+03 -1.523838E+06 -3.084896E-09  2.810883E-09
       140  15 -3.496789E+06 -6.728830E+05 -1.624725E+03 -1.553089E+06 -2.416110E-09  3.499955E-09
       140  16 -1.684583E+06 -1.140131E+04  3.633972E+05 -1.051484E+06  1.296598E-08  4.534765E-09
       140  17 -1.965575E+06 -7.918308E+04  3.124045E+05 -1.093538E+06 -1.968729E-09 -3.553428E-09
       140  18 -2.195168E+06 -1.977054E+05  2.612649E+05 -1.193882E+06 -1.366066E-08 -1.122883E-08
       140  19 -5.306357E+06 -1.335618E+06 -3.653553E+05 -2.052991E+06  2.310000E+04 -1.430796E+05
       140  20 -5.077185E+06 -1.216351E+06 -3.147646E+05 -1.953138E+06  1.511125E+04 -1.240103E+05
       140  21 -4.796664E+06 -1.147909E+06 -2.645805E+05 -1.911599E+06  7.107058E+03 -1.048119E+05
       140  22 -3.497167E+06 -6.736427E+05 -8.806745E+02 -1.552922E+06  4.975526E+04 -1.330546E+05
       140  23 -3.522629E+06 -6.478634E+05 -1.106654E+03 -1.523842E+06  4.194187E+04 -1.139419E+05
       140  24 -3.496785E+06 -6.728731E+05 -1.605722E+03 -1.553091E+06  3.411348E+04 -9.470015E+04
       140  25 -1.684572E+06 -1.138353E+04  3.634365E+05 -1.051492E+06  7.649466E+04 -1.229982E+05
       140  26 -1.965567E+06 -7.917025E+04  3.124336E+05 -1.093544E+06  6.884512E+04 -1.038463E+05
       140  27 -2.195162E+06 -1.976967E+05  2.612854E+05 -1.193886E+06  6.118086E+04 -8.456566E+04
       141   1 -4.620369E+06 -1.083258E+06 -2.279664E+05 -1.863317E+06 -2.397642E+03  9.358125E+04
       141   2 -4.387204E+06 -9.627943E+05 -1.780492E+05 -1.762268E+06  6.746218E+03  7.465859E+04
       141   3 -4.102560E+06 -8.940389E+05 -1.294871E+05 -1.720540E+06  1.586221E+04  5.576290E+04
       141   4 -3.496660E+06 -6.729268E+05 -2.102737E+03 -1.553337E+06 -2.954676E+04  8.342673E+04
       141   5 -3.522255E+06 -6.469019E+05 -3.718438E+03 -1.523693E+06 -2.036525E+04  6.453049E+04
       141   6 -3.496462E+06 -6.725980E+05 -6.725155E+03 -1.553394E+06 -1.121247E+04  4.566108E+04
       141   7 -2.371628E+06 -2.624829E+05  2.237052E+05 -1.242831E+06 -5.674923E+04  7.325228E+04
       141   8 -2.656525E+06 -3.309433E+05  1.705798E+05 -1.284807E+06 -4.751766E+04  5.438709E+04
       141   9 -2.889981E+06 -4.511250E+05  1.160218E+05 -1.386095E+06 -3.831572E+04  3.554857E+04
       141  10 -4.620371E+06 -1.083268E+06 -2.279829E+05 -1.863316E+06  1.418459E-08  1.209063E-09
       141  11 -4.387205E+06 -9.628003E+05 -1.780598E+05 -1.762269E+06  4.014775E-09 -2.370982E-09
       141  12 -4.102562E+06 -8.940424E+05 -1.294935E+05 -1.720541E+06 -1.151924E-08 -9.165648E-09
       141  13 -3.496663E+06 -6.729345E+05 -2.117428E+03 -1.553335E+06 -2.595398E-10  3.184121E-09
       141  14 -3.522257E+06 -6.469064E+05 -3.727027E+03 -1.523692E+06  5.228644E-09  7.154140E-09
       141  15 -3.496463E+06 -6.726003E+05 -6.729302E+03 -1.553393E+06 -2.521838E-10 -9.934790E-10
       141  16 -2.371633E+06 -2.624895E+05  2.236891E+05 -1.242827E+06 -1.361164E-08 -9.426404E-09
       141  17 -2.656528E+06 -3.309471E+05  1.705700E+05 -1.284805E+06  1.371739E-09 -3.379326E-10
       141  18 -2.889983E+06 -4.511268E+05  1.160166E+05 -1.386094E+06  1.116627E-08  5.595142E-09
       141  19 -4.620369E+06 -1.083258E+06 -2.279664E+05 -1.863317E+06  2.397642E+03 -9.358125E+04
       141  20 -4.387204E+06 -9.627943E+05 -1.780492E+05 -1.762268E+06 -6.746218E+03 -7.465859E+04
       141  21 -4.102560E+06 -8.940389E+05 -1.294871E+05 -1.720540E+06 -1.586221E+04 -5.576290E+04
       141  22 -3.496660E+06 -6.729268E+05 -2.102737E+03 -1.553337E+06  2.954676E+04 -8.342673E+04
       141  23 -3.522255E+06 -6.469019E+05 -3.718438E+03 -1.523693E+06  2.036525E+04 -6.453049E+04
       141  24 -3.496462E+06 -6.725980E+05 -6.725155E+03 -1.553394E+06  1.121247E+04 -4.566108E+04
       141  25 -2.371628E+06 -2.624829E+05  2.237052E+05 -1.242831E+06  5.674923E+04 -7.325228E+04
       141  26 -2.656525E+06 -3.309433E+05  1.705798E+05 -1.284807E+06  4.751766E+04 -5.438709E+04
       141  27 -2.889981E+06 -4.511250E+05  1.160218E+05 -1.386095E+06  3.831572E+04 -3.554857E+04
       142   1 -3.924170E+06 -8.290838E+05 -9.424062E+04 -1.672489E+06  2.177622E+04  4.484759E+04
       142   2 -3.689631E+06 -7.076339E+05 -4.913771E+04 -1.569251E+06  3.497166E+04  2.808069E+04
       142   3 -3.405445E+06 -6.417347E+05 -9.593483E+03 -1.524930E+06  4.759276E+04  1.284900E+04
       142   4 -3.496761E+06 -6.724048E+05 -8.952230E+03 -1.553713E+06 -5.666563E+03  3.461311E+04
       142   5 -3.521682E+06 -6.469130E+05 -1.633282E+04 -1.523309E+06  9.652192E+03  1.864016E+04
       142   6 -3.497453E+06 -6.774017E+05 -3.096486E+04 -1.551849E+06  2.439404E+04  4.201270E+03
       142   7 -3.069164E+06 -5.157101E+05  7.632974E+04 -1.434862E+06 -3.312951E+04  2.437099E+04
       142   8 -3.353702E+06 -5.861893E+05  1.647356E+04 -1.477354E+06 -1.567465E+04  9.196909E+03
       142   9 -3.589451E+06 -7.130677E+05 -5.233470E+04 -1.578764E+06  1.198878E+03 -4.444974E+03
       142  10 -3.924171E+06 -8.290861E+05 -9.424531E+04 -1.672490E+06  2.305510E-10 -1.089237E-09
       142  11 -3.689633E+06 -7.076351E+05 -4.914151E+04 -1.569252E+06 -2.412706E-10 -3.646237E-09
       142  12 -3.405448E+06 -6.417355E+05 -9.598079E+03 -1.524931E+06 -1.015203E-09 -1.643247E-09
       142  13 -3.496761E+06 -6.724061E+05 -8.954538E+03 -1.553713E+06  4.745383E-10 -5.571662E-10
       142  14 -3.521682E+06 -6.469134E+05 -1.633365E+04 -1.523309E+06 -1.630653E-09 -4.501972E-09
       142  15 -3.497453E+06 -6.774019E+05 -3.096602E+04 -1.551849E+06 -5.950405E-11  3.642748E-10
       142  16 -3.069165E+06 -5.157111E+05  7.632656E+04 -1.434861E+06  2.249316E-09  3.690692E-09
       142  17 -3.353703E+06 -5.861895E+05  1.647294E+04 -1.477354E+06 -1.305065E-09 -2.310700E-09
       142  18 -3.589451E+06 -7.130677E+05 -5.233474E+04 -1.578764E+06 -1.759663E-09 -3.892371E-09
       142  19 -3.924170E+06 -8.290838E+05 -9.424062E+04 -1.672489E+06 -2.177622E+04 -4.484759E+04
       142  20 -3.689631E+06 -7.076339E+05 -4.913771E+04 -1.569251E+06 -3.497166E+04 -2.808069E+04
       142  21 -3.405445E+06 -6.417347E+05 -9.593483E+03 -1.524930E+06 -4.759276E+04 -1.284900E+04
       142  22 -3.496761E+06 -6.724048E+05 -8.952230E+03 -1.553713E+06  5.666563E+03 -3.461311E+04
       142  23 -3.521682E+06 -6.469130E+05 -1.633282E+04 -1.523309E+06 -9.652192E+03 -1.864016E+04
       142  24 -3.497453E+06 -6.774017E+05 -3.096486E+04 -1.551849E+06 -2.439404E+04 -4.201270E+03
       142  25 -3.069164E+06 -5.157101E+05  7.632974E+04 -1.434862E+06  3.312951E+04 -2.437099E+04
       142  26 -3.353702E+06 -5.861893E+05  1.647356E+04 -1.477354E+06  1.567465E+04 -9.196909E+03
       142  27 -3.589451E+06 -7.130677E+05 -5.233470E+04 -1.578764E+06 -1.198878E+03  4.444974E+03
       143   1 -3.220465E+06 -5.814054E+05  1.854752E+04 -1.491752E+06  6.136964E+04  4.690035E+03
       143   2 -3.009558E+06 -4.454716E+05  4.605411E+04 -1.342272E+06  7.144141E+04 -1.010053E+03
       143   3 -2.781958E+06 -4.482709E+05  4.415420E+04 -1.227584E+06  7.267515E+04  1.696613E+04
       143   4 -3.502638E+06 -6.722329E+05 -4.048255E+04 -1.555827E+06  3.340969E+04 -5.732445E+03
       143   5 -3.516910E+06 -6.646738E+05 -7.567218E+04 -1.514191E+06  7.629947E+04  7.957283E+02
       143   6 -3.521131E+06 -8.024614E+05 -1.664025E+05 -1.507395E+06  1.103427E+05  3.100707E+04
       143   7 -3.784729E+06 -7.630583E+05 -9.951388E+04 -1.619876E+06  5.463411E+03 -1.615129E+04
       143   8 -4.023991E+06 -8.838254E+05 -1.974145E+05 -1.685969E+06  8.115313E+04  2.599227E+03
       143   9 -4.259727E+06 -1.156497E+06 -3.769970E+05 -1.786859E+06  1.479598E+05  4.501728E+04
       143  10 -3.220469E+06 -5.814064E+05  1.854036E+04 -1.491752E+06  2.768346E-10 -1.584988E-10
       143  11 -3.009563E+06 -4.454730E+05  4.604448E+04 -1.342272E+06 -2.828578E-10 -7.500927E-10
       143  12 -2.781964E+06 -4.482727E+05  4.414368E+04 -1.227585E+06 -9.848785E-11 -1.499541E-12
       143  13 -3.502639E+06 -6.722332E+05 -4.048472E+04 -1.555826E+06  1.824590E-09  2.223261E-09
       143  14 -3.516916E+06 -6.646754E+05 -7.568318E+04 -1.514191E+06 -3.398597E-10 -3.938262E-11
       143  15 -3.521145E+06 -8.024657E+05 -1.664274E+05 -1.507398E+06  1.670040E-10  3.375943E-10
       143  16 -3.784729E+06 -7.630586E+05 -9.951442E+04 -1.619876E+06 -1.646647E-10  2.525069E-11
       143  17 -4.023999E+06 -8.838272E+05 -1.974270E+05 -1.685969E+06 -4.858259E-10 -4.274767E-10
       143  18 -4.259751E+06 -1.156505E+06 -3.770423E+05 -1.786865E+06 -6.024445E-10 -1.078442E-09
       143  19 -3.220465E+06 -5.814054E+05  1.854752E+04 -1.491752E+06 -6.136964E+04 -4.690035E+03
       143  20 -3.009558E+06 -4.454716E+05  4.605411E+04 -1.342272E+06 -7.144141E+04  1.010053E+03
       143  21 -2.781958E+06 -4.482709E+05  4.415420E+04 -1.227584E+06 -7.267515E+04 -1.696613E+04
       143  22 -3.502638E+06 -6.722329E+05 -4.048255E+04 -1.555827E+06 -3.340969E+04  5.732445E+03
       143  23 -3.516910E+06 -6.646738E+05 -7.567218E+04 -1.514191E+06 -7.629947E+04 -7.957283E+02
       143  24 -3.521131E+06 -8.024614E+05 -1.664025E+05 -1.507395E+06 -1.103427E+05 -3.100707E+04
       143  25 -3.784729E+06 -7.630583E+05 -9.951388E+04 -1.619876E+06 -5.463411E+03  1.615129E+04
       143  26 -4.023991E+06 -8.838254E+05 -1.974145E+05 -1.685969E+06 -8.115313E+04 -2.599227E+03
       143  27 -4.259727E+06 -1.156497E+06 -3.769970E+05 -1.786859E+06 -1.479598E+05 -4.501728E+04
       144   1  2.571778E+05  5.282409E+04  7.294957E+04  1.435411E+04  6.166463E+04  6.250653E+02
       144   2  2.507294E+05 -2.957951E+04  2.317602E+04  4.628586E+03  4.075668E+04  1.774417E+03
       144   3  2.704159E+05 -1.837529E+04  1.041723E+04 -1.154061E+04  1.984837E+04  1.489392E+03
       144   4  3.311281E+05  7.126253E+04  9.127646E+04 -3.499146E+03  6.238935E+04  6.234768E+02
       144   5  3.180199E+05 -1.285298E+04  3.955123E+04 -2.680215E+02  4.092780E+04  1.774119E+03
       144   6  3.311391E+05 -3.270755E+03  2.522184E+04 -3.480455E+03  1.946613E+04  1.489581E+03
       144   7  4.050839E+05  8.970176E+04  1.096031E+05 -2.135453E+04  6.311416E+04  6.218469E+02
       144   8  3.853145E+05  3.873312E+03  5.592612E+04 -5.165161E+03  4.109894E+04  1.773819E+03
       144   9  3.918658E+05  1.183375E+04  4.002621E+04  4.580487E+03  1.908386E+04  1.489759E+03
       144  10  2.571738E+05  5.282307E+04  7.294242E+04  1.435408E+04 -1.833210E-09 -5.787003E-10
       144  11  2.507276E+05 -2.957996E+04  2.317290E+04  4.628528E+03 -6.469593E-10 -4.148663E-10
       144  12  2.704155E+05 -1.837540E+04  1.041649E+04 -1.154063E+04 -1.881683E-09  7.550784E-10
       144  13  3.311239E+05  7.126149E+04  9.126915E+04 -3.499177E+03 -1.894894E-09 -5.850028E-11
       144  14  3.180181E+05 -1.285343E+04  3.954808E+04 -2.680800E+02 -3.179899E-09 -3.621111E-10
       144  15  3.311387E+05 -3.270859E+03  2.522112E+04 -3.480478E+03  1.252324E-09  3.657650E-10
       144  16  4.050797E+05  8.970070E+04  1.095956E+05 -2.135456E+04 -3.052521E-10  3.131069E-11
       144  17  3.853127E+05  3.872856E+03  5.592294E+04 -5.165220E+03 -2.627275E-10 -2.151758E-10
       144  18  3.918654E+05  1.183365E+04  4.002552E+04  4.580464E+03  3.364959E-10  5.360583E-10
       144  19  2.571778E+05  5.282409E+04  7.294957E+04  1.435411E+04 -6.166463E+04 -6.250653E+02
       144  20  2.507294E+05 -2.957951E+04  2.317602E+04  4.628586E+03 -4.075668E+04 -1.774417E+03
       144  21  2.704159E+05 -1.837529E+04  1.041723E+04 -1.154061E+04 -1.984837E+04 -1.489392E+03
       144  22  3.311281E+05  7.126253E+04  9.127646E+04 -3.499146E+03 -6.238935E+04 -6.234768E+02
       144  23  3.180199E+05 -1.285298E+04  3.955123E+04 -2.680215E+02 -4.092780E+04 -1.774119E+03
       144  24  3.311391E+05 -3.270755E+03  2.522184E+04 -3.480455E+03 -1.946613E+04 -1.489581E+03
       144  25  4.050839E+05  8.970176E+04  1.096031E+05 -2.135453E+04 -6.311416E+04 -6.218469E+02
       144  26  3.853145E+05  3.873312E+03  5.592612E+04 -5.165161E+03 -4.109894E+04 -1.773819E+03
       144  27  3.918658E+05  1.183375E+04  4.002621E+04  4.580487E+03 -1.908386E+04 -1.489759E+03
       145   1  2.777715E+05 -3.246132E+03  8.908801E+03 -1.430238E+03  1.545604E+04  1.134900E+03
       145   2  2.824626E+05 -1.201117E+04  7.990766E+01  2.059693E+02  1.019443E+04  1.033649E+03
       145   3  2.907383E+05 -9.196384E+03 -2.428407E+03 -4.499124E+03  4.932779E+03  7.913640E+02
       145   4  3.261069E+05  8.776334E+03  2.070518E+04 -3.464157E+03  1.544530E+04  1.134843E+03
       145   5  3.243110E+05 -1.604307E+03  1.028030E+04 -2.929561E+02  1.012913E+04  1.033629E+03
       145   6  3.261089E+05 -3.961098E+02  6.213496E+03 -3.463012E+03  4.812972E+03  7.913615E+02
       145   7  3.744444E+05  2.079864E+04  3.250140E+04 -5.498234E+03  1.543456E+04  1.134785E+03
       145   8  3.661611E+05  8.802430E+03  2.048056E+04 -7.919153E+02  1.006382E+04  1.033610E+03
       145   9  3.614807E+05  8.404076E+03  1.485531E+04 -2.426842E+03  4.693159E+03  7.913585E+02
       145  10  2.777713E+05 -3.246197E+03  8.908350E+03 -1.430252E+03 -2.027557E-09  7.021627E-11
       145  11  2.824625E+05 -1.201120E+04  7.971044E+01  2.059608E+02 -1.225100E-09 -1.577762E-09
       145  12  2.907382E+05 -9.196391E+03 -2.428454E+03 -4.499127E+03 -5.582588E-09  1.424564E-09
       145  13  3.261067E+05  8.776268E+03  2.070473E+04 -3.464171E+03 -1.958738E-09  1.980679E-10
       145  14  3.243109E+05 -1.604336E+03  1.028010E+04 -2.929646E+02  2.300723E-09 -1.078458E-09
       145  15  3.261089E+05 -3.961167E+02  6.213452E+03 -3.463015E+03 -3.871855E-09  1.105878E-09
       145  16  3.744442E+05  2.079858E+04  3.250095E+04 -5.498248E+03  8.647485E-10  3.534171E-11
       145  17  3.661610E+05  8.802402E+03  2.048037E+04 -7.919237E+02 -1.887873E-09 -7.959528E-10
       145  18  3.614807E+05  8.404069E+03  1.485527E+04 -2.426845E+03  1.203074E-11  9.328038E-10
       145  19  2.777715E+05 -3.246132E+03  8.908801E+03 -1.430238E+03 -1.545604E+04 -1.134900E+03
       145  20  2.824626E+05 -1.201117E+04  7.990766E+01  2.059693E+02 -1.019443E+04 -1.033649E+03
       145  21  2.907383E+05 -9.196384E+03 -2.428407E+03 -4.499124E+03 -4.932779E+03 -7.913640E+02
       145  22  3.261069E+05  8.776334E+03  2.070518E+04 -3.464157E+03 -1.544530E+04 -1.134843E+03
       145  23  3.243110E+05 -1.604307E+03  1.028030E+04 -2.929561E+02 -1.012913E+04 -1.033629E+03
       145  24  3.261089E+05 -3.961098E+02  6.213496E+03 -3.463012E+03 -4.812972E+03 -7.913615E+02
       145  25  3.744444E+05  2.079864E+04  3.250140E+04 -5.498234E+03 -1.543456E+04 -1.134785E+03
       145  26  3.661611E+05  8.802430E+03  2.048056E+04 -7.919153E+02 -1.006382E+04 -1.033610E+03
       145  27  3.614807E+05  8.404076E+03  1.485531E+04 -2.426842E+03 -4.693159E+03 -7.913585E+02
       146   1  3.022856E+05 -4.682567E+03 -7.195479E+02 -3.243478E+03  3.905432E+03  6.320573E+02
       146   2  3.084420E+05 -4.359347E+03 -1.451543E+03 -2.734958E+02  2.584740E+03  4.089697E+02
       146   3  3.151276E+05 -2.611759E+03 -9.677043E+02 -3.587154E+03  1.264047E+03  1.723934E+02
       146   4  3.254280E+05  1.069414E+03  4.906074E+03 -3.450587E+03  3.822438E+03  6.320501E+02
       146   5  3.251632E+05 -2.009726E+02  2.625056E+03 -3.087444E+02  2.496518E+03  4.089652E+02
       146   6  3.254284E+05 -4.608586E+01  1.563487E+03 -3.450532E+03  1.170610E+03  1.723911E+02
       146   7  3.485709E+05  6.821356E+03  1.053166E+04 -3.657705E+03  3.739441E+03  6.320430E+02
       146   8  3.418846E+05  3.957381E+03  6.701634E+03 -3.439940E+02  2.408294E+03  4.089607E+02
       146   9  3.357293E+05  2.519579E+03  4.094671E+03 -3.313907E+03  1.077173E+03  1.723887E+02
       146  10  3.022855E+05 -4.682571E+03 -7.195773E+02 -3.243480E+03 -1.791962E-09  1.460908E-09
       146  11  3.084420E+05 -4.359349E+03 -1.451556E+03 -2.734966E+02 -5.084869E-10 -1.717243E-09
       146  12  3.151276E+05 -2.611759E+03 -9.677073E+02 -3.587154E+03 -4.769371E-09 -3.159458E-11
       146  13  3.254280E+05  1.069410E+03  4.906045E+03 -3.450589E+03 -8.538293E-11  1.336415E-09
       146  14  3.251632E+05 -2.009744E+02  2.625044E+03 -3.087453E+02  2.141806E-09 -9.369512E-10
       146  15  3.254284E+05 -4.608626E+01  1.563485E+03 -3.450532E+03 -2.117130E-09  4.072476E-11
       146  16  3.485709E+05  6.821351E+03  1.053163E+04 -3.657706E+03 -5.592794E-10  1.112732E-09
       146  17  3.418846E+05  3.957379E+03  6.701623E+03 -3.439948E+02  1.724584E-09 -3.049838E-10
       146  18  3.357293E+05  2.519579E+03  4.094669E+03 -3.313907E+03  2.319392E-09  2.142755E-10
       146  19  3.022856E+05 -4.682567E+03 -7.195479E+02 -3.243478E+03 -3.905432E+03 -6.320573E+02
       146  20  3.084420E+05 -4.359347E+03 -1.451543E+03 -2.734958E+02 -2.584740E+03 -4.089697E+02
       146  21  3.151276E+05 -2.611759E+03 -9.677043E+02 -3.587154E+03 -1.264047E+03 -1.723934E+02
       146  22  3.254280E+05  1.069414E+03  4.906074E+03 -3.450587E+03 -3.822438E+03 -6.320501E+02
       146  23  3.251632E+05 -2.009726E+02  2.625056E+03 -3.087444E+02 -2.496518E+03 -4.089652E+02
       146  24  3.254284E+05 -4.608586E+01  1.563487E+03 -3.450532E+03 -1.170610E+03 -1.723911E+02
       146  25  3.485709E+05  6.821356E+03  1.053166E+04 -3.657705E+03 -3.739441E+03 -6.320430E+02
       146  26  3.418846E+05  3.957381E+03  6.701634E+03 -3.439940E+02 -2.408294E+03 -4.089607E+02
       146  27  3.357293E+05  2.519579E+03  4.094671E+03 -3.313907E+03 -1.077173E+03 -1.723887E+02
       147   1  3.271941E+05  5.944541E+02  1.697990E+03 -3.433080E+03  1.009844E+03  3.303755E+01
       147   2  3.335598E+05  2.031315E+03  2.739491E+03 -3.122387E+02  6.501425E+02 -2.015997E+02
       147   3  3.400184E+05  3.648858E+03  4.060411E+03 -3.466865E+03  2.904370E+02 -4.377801E+02
       147   4  3.253312E+05  1.272545E+02  1.224188E+03 -3.448738E+03  9.200032E+02  3.303538E+01
       147   5  3.252849E+05 -2.658565E+01  7.219145E+02 -3.110006E+02  5.597080E+02 -2.016028E+02
       147   6  3.253313E+05  3.378768E-01  4.994476E+02 -3.448735E+03  1.994128E+02 -4.377842E+02
       147   7  3.234684E+05 -3.399455E+02  7.503865E+02 -3.464397E+03  8.301623E+02  3.303321E+01
       147   8  3.170100E+05 -2.084492E+03 -1.295667E+03 -3.097624E+02  4.692747E+02 -2.016060E+02
       147   9  3.106444E+05 -3.648199E+03 -3.061531E+03 -3.430605E+03  1.083907E+02 -4.377882E+02
       147  10  3.271941E+05  5.944539E+02  1.697988E+03 -3.433080E+03 -2.594802E-09  5.713040E-10
       147  11  3.335598E+05  2.031315E+03  2.739490E+03 -3.122386E+02  2.715268E-09 -8.869318E-10
       147  12  3.400184E+05  3.648858E+03  4.060410E+03 -3.466865E+03  5.630216E-10 -4.675694E-10
       147  13  3.253312E+05  1.272542E+02  1.224187E+03 -3.448738E+03 -2.133236E-09  4.778957E-10
       147  14  3.252849E+05 -2.658578E+01  7.219139E+02 -3.110005E+02 -2.223119E-09 -5.178825E-10
       147  15  3.253313E+05  3.376604E-01  4.994471E+02 -3.448735E+03 -2.286590E-09 -1.969677E-10
       147  16  3.234684E+05 -3.399456E+02  7.503852E+02 -3.464397E+03  1.562444E-09  3.981956E-10
       147  17  3.170100E+05 -2.084492E+03 -1.295667E+03 -3.097623E+02  2.533731E-09 -2.547017E-10
       147  18  3.106444E+05 -3.648199E+03 -3.061531E+03 -3.430605E+03 -2.514816E-09  1.435854E-10
       147  19  3.271941E+05  5.944541E+02  1.697990E+03 -3.433080E+03 -1.009844E+03 -3.303755E+01
       147  20  3.335598E+05  2.031315E+03  2.739491E+03 -3.122387E+02 -6.501425E+02  2.015997E+02
       147  21  3.400184E+05  3.648858E+03  4.060411E+03 -3.466865E+03 -2.904370E+02  4.377801E+02
       147  22  3.253312E+05  1.272545E+02  1.224188E+03 -3.448738E+03 -9.200032E+02 -3.303538E+01
       147  23  3.252849E+05 -2.658565E+01  7.219145E+02 -3.110006E+02 -5.597080E+02  2.016028E+02
       147  24  3.253313E+05  3.378769E-01  4.994476E+02 -3.448735E+03 -1.994128E+02  4.377842E+02
       147  25  3.234684E+05 -3.399455E+02  7.503865E+02 -3.464397E+03 -8.301623E+02 -3.303321E+01
       147  26  3.170100E+05 -2.084492E+03 -1.295667E+03 -3.097624E+02 -4.692747E+02  2.016060E+02
       147  27  3.106444E+05 -3.648199E+03 -3.061531E+03 -3.430605E+03 -1.083907E+02  4.377882E+02
       148   1  3.522057E+05  6.701619E+03  7.021212E+03 -3.450402E+03  2.051318E+02 -5.758813E+02
       148   2  3.586335E+05  8.276846E+03  8.560594E+03 -2.983859E+02 -1.064421E+01 -8.128734E+02
       148   3  3.651155E+05  9.942557E+03  1.026370E+04 -3.463766E+03 -2.264018E+02 -1.049198E+03
       148   4  3.253225E+05  1.215204E+01  4.469255E+02 -3.458056E+03  1.139600E+02 -5.758872E+02
       148   5  3.252955E+05 -1.384781E+01  4.324760E+02 -2.993501E+02 -1.015505E+02 -8.128831E+02
       148   6  3.253225E+05  5.059604E+01  5.815755E+02 -3.458060E+03 -3.170403E+02 -1.049211E+03
       148   7  2.984400E+05 -6.677368E+03 -6.127414E+03 -3.465710E+03  2.279222E+01 -5.758930E+02
       148   8  2.919585E+05 -8.304624E+03 -7.695723E+03 -3.003142E+02 -1.924519E+02 -8.128927E+02
       148   9  2.855309E+05 -9.841482E+03 -9.100665E+03 -3.452356E+03 -4.076731E+02 -1.049224E+03
       148  10  3.522057E+05  6.701618E+03  7.021212E+03 -3.450402E+03 -2.780239E-09  5.851545E-10
       148  11  3.586335E+05  8.276846E+03  8.560593E+03 -2.983859E+02 -4.556860E-09  1.231534E-09
       148  12  3.651155E+05  9.942556E+03  1.026370E+04 -3.463766E+03 -2.533985E-09 -1.076292E-09
       148  13  3.253225E+05  1.215168E+01  4.469248E+02 -3.458056E+03  2.409777E-09  7.862503E-10
       148  14  3.252955E+05 -1.384852E+01  4.324747E+02 -2.993502E+02  6.671907E-09  1.082423E-09
       148  15  3.253225E+05  5.059484E+01  5.815733E+02 -3.458061E+03  3.517375E-10 -8.804078E-10
       148  16  2.984400E+05 -6.677369E+03 -6.127415E+03 -3.465710E+03  1.726434E-09  6.228038E-10
       148  17  2.919585E+05 -8.304625E+03 -7.695724E+03 -3.003144E+02  4.036973E-09  6.638396E-10
       148  18  2.855309E+05 -9.841483E+03 -9.100667E+03 -3.452356E+03  3.927428E-10 -8.074678E-10
       148  19  3.522057E+05  6.701619E+03  7.021212E+03 -3.450402E+03 -2.051318E+02  5.758813E+02
       148  20  3.586335E+05  8.276846E+03  8.560594E+03 -2.983859E+02  1.064421E+01  8.128734E+02
       148  21  3.651155E+05  9.942557E+03  1.026370E+04 -3.463766E+03  2.264018E+02  1.049198E+03
       148  22  3.253225E+05  1.215204E+01  4.469255E+02 -3.458056E+03 -1.139600E+02  5.758872E+02
       148  23  3.252955E+05 -1.384781E+01  4.324760E+02 -2.993501E+02  1.015505E+02  8.128831E+02
       148  24  3.253225E+05  5.059604E+01  5.815755E+02 -3.458060E+03  3.170403E+02  1.049211E+03
       148  25  2.984400E+05 -6.677368E+03 -6.127414E+03 -3.465710E+03 -2.279222E+01  5.758930E+02
       148  26  2.919585E+05 -8.304624E+03 -7.695723E+03 -3.003142E+02  1.924519E+02  8.128927E+02
       148  27  2.855309E+05 -9.841482E+03 -9.100665E+03 -3.452356E+03  4.076731E+02  1.049224E+03
       149   1  3.774809E+05  1.294677E+04  1.342961E+04 -3.418747E+03 -3.364152E+02 -1.191545E+03
       149   2  3.839149E+05  1.450595E+04  1.541582E+04 -2.812351E+02 -9.056596E+02 -1.432231E+03
       149   3  3.905792E+05  1.665242E+04  1.792118E+04 -3.554001E+03 -1.474869E+03 -1.653327E+03
       149   4  3.253610E+05 -1.852450E+01  7.026321E+02 -3.478674E+03 -4.325919E+02 -1.191563E+03
       149   5  3.252464E+05 -8.376187E+01  1.112527E+03 -2.735618E+02 -9.942625E+02 -1.432255E+03
       149   6  3.253608E+05  4.370464E+02  2.036391E+03 -3.478765E+03 -1.555892E+03 -1.653356E+03
       149   7  2.732436E+05 -1.298402E+04 -1.202454E+04 -3.538595E+03 -5.287605E+02 -1.191581E+03
       149   8  2.665811E+05 -1.467372E+04 -1.319101E+04 -2.658894E+02 -1.082857E+03 -1.432279E+03
       149   9  2.601463E+05 -1.577864E+04 -1.384871E+04 -3.403538E+03 -1.636907E+03 -1.653384E+03
       149  10  3.774809E+05  1.294677E+04  1.342961E+04 -3.418748E+03 -4.532962E-09 -1.302889E-09
       149  11  3.839149E+05  1.450594E+04  1.541581E+04 -2.812362E+02 -3.038591E-09  1.872226E-11
       149  12  3.905792E+05  1.665242E+04  1.792118E+04 -3.554002E+03  9.332546E-10  1.120962E-09
       149  13  3.253610E+05 -1.852607E+01  7.026291E+02 -3.478674E+03  7.697479E-11 -1.331363E-09
       149  14  3.252464E+05 -8.376434E+01  1.112522E+03 -2.735630E+02 -1.241986E-09 -1.760338E-10
       149  15  3.253608E+05  4.370428E+02  2.036381E+03 -3.478767E+03  1.874208E-09  1.100520E-09
       149  16  2.732436E+05 -1.298402E+04 -1.202455E+04 -3.538596E+03  3.386942E-09 -1.547562E-09
       149  17  2.665811E+05 -1.467373E+04 -1.319102E+04 -2.658906E+02  1.489711E-09 -5.129103E-10
       149  18  2.601463E+05 -1.577864E+04 -1.384872E+04 -3.403540E+03 -1.264558E-09  1.407793E-09
       149  19  3.774809E+05  1.294677E+04  1.342961E+04 -3.418747E+03  3.364152E+02  1.191545E+03
       149  20  3.839149E+05  1.450595E+04  1.541582E+04 -2.812351E+02  9.056596E+02  1.432231E+03
       149  21  3.905792E+05  1.665242E+04  1.792118E+04 -3.554001E+03  1.474869E+03  1.653327E+03
       149  22  3.253610E+05 -1.852450E+01  7.026321E+02 -3.478674E+03  4.325919E+02  1.191563E+03
       149  23  3.252464E+05 -8.376187E+01  1.112527E+03 -2.735618E+02  9.942625E+02  1.432255E+03
       149  24  3.253608E+05  4.370464E+02  2.036391E+03 -3.478765E+03  1.555892E+03  1.653356E+03
       149  25  2.732436E+05 -1.298402E+04 -1.202454E+04 -3.538595E+03  5.287605E+02  1.191581E+03
       149  26  2.665811E+05 -1.467372E+04 -1.319101E+04 -2.658894E+02  1.082857E+03  1.432279E+03
       149  27  2.601463E+05 -1.577864E+04 -1.384871E+04 -3.403538E+03  1.636907E+03  1.653384E+03
       150   1  4.034153E+05  1.917971E+04  2.154825E+04 -3.070084E+03 -1.828170E+03 -1.828058E+03
       150   2  4.093604E+05  2.034268E+04  2.482190E+04 -4.217369E+02 -4.101518E+03 -2.079582E+03
       150   3  4.168142E+05  2.628166E+04  3.077276E+04 -4.322538E+03 -6.374956E+03 -2.112865E+03
       150   4  3.256415E+05 -1.646798E+02  2.569612E+03 -3.509146E+03 -1.966330E+03 -1.828105E+03
       150   5  3.248940E+05 -6.611715E+02  4.233621E+03 -2.352336E+02 -4.155568E+03 -2.079618E+03
       150   6  3.256406E+05  3.604085E+03  8.516704E+03 -3.510509E+03 -6.344871E+03 -2.112882E+03
       150   7  2.478733E+05 -1.950952E+04 -1.640946E+04 -3.948152E+03 -2.104473E+03 -1.828152E+03
       150   8  2.404341E+05 -2.166555E+04 -1.635517E+04 -4.875626E+01 -4.209612E+03 -2.079655E+03
       150   9  2.344746E+05 -1.907410E+04 -1.373996E+04 -2.698601E+03 -6.314791E+03 -2.112900E+03
       150  10  4.034153E+05  1.917971E+04  2.154823E+04 -3.070087E+03 -1.140038E-09  3.803655E-10
       150  11  4.093604E+05  2.034267E+04  2.482186E+04 -4.217437E+02  7.477124E-10 -9.581872E-10
       150  12  4.168142E+05  2.628165E+04  3.077268E+04 -4.322549E+03 -2.506747E-09 -1.776189E-10
       150  13  3.256415E+05 -1.646845E+02  2.569598E+03 -3.509149E+03 -2.014186E-09  6.676430E-10
       150  14  3.248940E+05 -6.611808E+02  4.233581E+03 -2.352406E+02  2.064366E-09 -8.657336E-10
       150  15  3.256406E+05  3.604069E+03  8.516620E+03 -3.510520E+03  2.307648E-09 -2.944221E-10
       150  16  2.478733E+05 -1.950952E+04 -1.640948E+04 -3.948156E+03 -1.006002E-09  1.147093E-09
       150  17  2.404341E+05 -2.166556E+04 -1.635521E+04 -4.876331E+01  2.060428E-09  1.505623E-10
       150  18  2.344746E+05 -1.907412E+04 -1.374004E+04 -2.698612E+03  2.363660E-09  4.347408E-11
       150  19  4.034153E+05  1.917971E+04  2.154825E+04 -3.070084E+03  1.828170E+03  1.828058E+03
       150  20  4.093604E+05  2.034268E+04  2.482190E+04 -4.217369E+02  4.101518E+03  2.079582E+03
       150  21  4.168142E+05  2.628166E+04  3.077276E+04 -4.322538E+03  6.374956E+03  2.112865E+03
       150  22  3.256415E+05 -1.646798E+02  2.569612E+03 -3.509146E+03  1.966330E+03  1.828105E+03
       150  23  3.248940E+05 -6.611715E+02  4.233621E+03 -2.352336E+02  4.155568E+03  2.079618E+03
       150  24  3.256406E+05  3.604085E+03  8.516704E+03 -3.510509E+03  6.344871E+03  2.112882E+03
       150  25  2.478733E+05 -1.950952E+04 -1.640946E+04 -3.948152E+03  2.104473E+03  1.828152E+03
       150  26  2.404341E+05 -2.166555E+04 -1.635517E+04 -4.875626E+01  4.209612E+03  2.079655E+03
       150  27  2.344746E+05 -1.907410E+04 -1.373996E+04 -2.698601E+03  6.314791E+03  2.112900E+03
       151   1  4.317671E+05  2.452892E+04  3.572921E+04 -1.987093E+02 -7.451821E+03 -2.591027E+03
       151   2  4.332137E+05  2.228132E+04  4.324913E+04 -2.165493E+03 -1.713256E+04 -2.906496E+03
       151   3  4.456164E+05  5.869766E+04  6.674103E+04 -1.085417E+04 -2.681466E+04 -9.933657E+02
       151   4  3.277110E+05 -1.348160E+03  1.037267E+04 -3.542512E+03 -7.998598E+03 -2.591247E+03
       151   5  3.223040E+05 -5.286951E+03  1.625860E+04 -1.904044E+02 -1.682175E+04 -2.906426E+03
       151   6  3.277061E+05  2.929296E+04  3.752321E+04 -3.560165E+03 -2.564615E+04 -9.929966E+02
       151   7  2.236649E+05 -2.722600E+04 -1.498465E+04 -6.885755E+03 -8.545283E+03 -2.591460E+03
       151   8  2.114055E+05 -3.285612E+04 -1.073281E+04  1.784330E+03 -1.651100E+04 -2.906354E+03
       151   9  2.098085E+05 -1.125711E+02  8.304394E+03  3.732458E+03 -2.447786E+04 -9.926001E+02
       151  10  4.317670E+05  2.452890E+04  3.572909E+04 -1.987249E+02  5.226650E-10 -3.475143E-10
       151  11  4.332134E+05  2.228124E+04  4.324856E+04 -2.165534E+03 -3.044072E-09 -1.990015E-09
       151  12  4.456157E+05  5.869746E+04  6.673968E+04 -1.085420E+04  2.149876E-09 -7.670442E-10
       151  13  3.277110E+05 -1.348184E+03  1.037254E+04 -3.542529E+03 -2.268928E-09 -1.716799E-09
       151  14  3.223037E+05 -5.287036E+03  1.625805E+04 -1.904438E+02  1.284887E-09  5.848172E-10
       151  15  3.277054E+05  2.929278E+04  3.752198E+04 -3.560185E+03 -1.984275E-09 -2.809982E-10
       151  16  2.236648E+05 -2.722603E+04 -1.498480E+04 -6.885773E+03  2.634886E-09 -1.771205E-10
       151  17  2.114052E+05 -3.285620E+04 -1.073334E+04  1.784291E+03  5.482637E-09  5.202565E-10
       151  18  2.098079E+05 -1.127329E+02  8.303267E+03  3.732438E+03  8.647564E-11 -7.924487E-10
       151  19  4.317671E+05  2.452892E+04  3.572921E+04 -1.987093E+02  7.451821E+03  2.591027E+03
       151  20  4.332137E+05  2.228132E+04  4.324913E+04 -2.165493E+03  1.713256E+04  2.906496E+03
       151  21  4.456164E+05  5.869766E+04  6.674103E+04 -1.085417E+04  2.681466E+04  9.933657E+02
       151  22  3.277110E+05 -1.348160E+03  1.037267E+04 -3.542512E+03  7.998598E+03  2.591247E+03
       151  23  3.223040E+05 -5.286951E+03  1.625860E+04 -1.904044E+02  1.682175E+04  2.906426E+03
       151  24  3.277061E+05  2.929296E+04  3.752321E+04 -3.560165E+03  2.564615E+04  9.929966E+02
       151  25  2.236649E+05 -2.722600E+04 -1.498465E+04 -6.885755E+03  8.545283E+03  2.591460E+03
       151  26  2.114055E+05 -3.285612E+04 -1.073281E+04  1.784330E+03  1.651100E+04  2.906354E+03
       151  27  2.098085E+05 -1.125711E+02  8.304394E+03  3.732458E+03  2.447786E+04  9.926001E+02
       152   1  3.000177E+06  1.217867E+07  3.009242E+06 -1.393294E+06  9.150149E+04  1.539936E+05
       152   2  2.274447E+06  9.610517E+06  2.301226E+06 -2.098060E+05  2.478032E+05  3.180824E+04
       152   3  1.762061E+06  7.221508E+06  1.745646E+06 -1.423642E+06  1.558300E+05 -9.270549E+04
       152   4  6.981958E+04  3.523005E+05  9.778332E+04 -1.328313E+06  9.218346E+04  4.454920E+04
       152   5 -3.423308E+04  2.759907E+05  4.320270E+04 -1.282085E+05  2.481821E+05  1.975265E+04
       152   6  5.900018E+04  3.559494E+05  7.517691E+04 -1.327765E+06  1.542580E+05 -7.879262E+03
       152   7 -2.870887E+06 -1.134847E+07 -2.823948E+06 -1.264265E+06  9.285152E+04 -6.284988E+04
       152   8 -2.349259E+06 -8.979729E+06 -2.221080E+06 -4.759380E+04  2.485616E+05  7.874233E+03
       152   9 -1.647503E+06 -6.466918E+06 -1.598682E+06 -1.232688E+06  1.527027E+05  7.601985E+04
       152  10  3.000161E+06  1.217864E+07  3.009182E+06 -1.393306E+06 -2.893898E-09  8.373543E-09
       152  11  2.274380E+06  9.610499E+06  2.301109E+06 -2.098123E+05 -1.246613E-08  2.350118E-08
       152  12  1.762032E+06  7.221493E+06  1.745584E+06 -1.423631E+06  2.220290E-09  3.147506E-09
       152  13  6.980990E+04  3.522961E+05  9.776358E+04 -1.328316E+06  1.170673E-09 -3.338708E-09
       152  14 -3.429934E+04  2.759738E+05  4.308619E+04 -1.282124E+05 -8.524852E-09 -1.046493E-11
       152  15  5.897461E+04  3.559429E+05  7.513209E+04 -1.327764E+06 -3.320850E-09 -5.015676E-08
       152  16 -2.870897E+06 -1.134848E+07 -2.823972E+06 -1.264260E+06  3.720062E-10 -6.692243E-09
       152  17 -2.349326E+06 -8.979746E+06 -2.221196E+06 -4.759539E+04  5.889244E-09 -2.464062E-08
       152  18 -1.647530E+06 -6.466930E+06 -1.598737E+06 -1.232698E+06 -7.580079E-09 -2.490042E-08
       152  19  3.000177E+06  1.217867E+07  3.009242E+06 -1.393294E+06 -9.150149E+04 -1.539936E+05
       152  20  2.274447E+06  9.610517E+06  2.301226E+06 -2.098060E+05 -2.478032E+05 -3.180824E+04
       152  21  1.762061E+06  7.221508E+06  1.745646E+06 -1.423642E+06 -1.558300E+05  9.270549E+04
       152  22  6.981958E+04  3.523005E+05  9.778332E+04 -1.328313E+06 -9.218346E+04 -4.454920E+04
       152  23 -3.423308E+04  2.759907E+05  4.320270E+04 -1.282085E+05 -2.481821E+05 -1.975265E+04
       152  24  5.900018E+04  3.559494E+05  7.517691E+04 -1.327765E+06 -1.542580E+05  7.879262E+03
       152  25 -2.870887E+06 -1.134847E+07 -2.823948E+06 -1.264265E+06 -9.285152E+04  6.284988E+04
       152  26 -2.349259E+06 -8.979729E+06 -2.221080E+06 -4.759380E+04 -2.485616E+05 -7.874233E+03
       152  27 -1.647503E+06 -6.466918E+06 -1.598682E+06 -1.232688E+06 -1.527027E+05 -7.601985E+04
       153   1  5.951997E+05  2.519907E+06  6.058960E+05 -1.366984E+06  6.125455E+04 -5.022047E+04
       153   2 -6.627476E+04  1.065634E+05  4.018281E+04 -1.231819E+05 -3.975922E+03 -1.021135E+05
       153   3 -5.579374E+05 -2.369779E+06 -4.749428E+05 -1.269651E+06 -6.813595E+04 -1.537415E+05
       153   4  4.763419E+04  3.187235E+05  7.136359E+04 -1.326226E+06  6.070474E+04 -2.450476E+04
       153   5 -4.713915E+03  3.529623E+05  1.002901E+05 -1.305228E+05 -4.498931E+03 -7.686970E+04
       153   6  1.131860E+05  3.186455E+05  1.804101E+05 -1.324875E+06 -6.864195E+04 -1.291677E+05
       153   7 -5.002838E+05 -1.878047E+06 -4.635164E+05 -1.285584E+06  6.015726E+04  1.120418E+03
       153   8  5.684292E+04  5.994180E+05  1.603953E+05 -1.378664E+05 -5.022433E+03 -5.161587E+04
       153   9  7.837818E+05  3.013681E+06  8.352400E+05 -1.380297E+06 -6.915119E+04 -1.044864E+05
       153  10  5.951950E+05  2.519903E+06  6.058842E+05 -1.366981E+06 -6.518617E-10  2.777693E-08
       153  11 -6.627758E+04  1.065522E+05  4.016319E+04 -1.231823E+05  8.391586E-09  4.059713E-08
       153  12 -5.579488E+05 -2.369805E+06 -4.749962E+05 -1.269660E+06 -1.295204E-08  7.138044E-09
       153  13  4.763007E+04  3.187218E+05  7.135555E+04 -1.326225E+06 -1.307004E-10 -2.128411E-08
       153  14 -4.715522E+03  3.529560E+05  1.002789E+05 -1.305231E+05  1.603742E-08  2.001148E-10
       153  15  1.131764E+05  3.186263E+05  1.803698E+05 -1.324882E+06  1.400770E-08 -5.479791E-08
       153  16 -5.002877E+05 -1.878048E+06 -4.635233E+05 -1.285584E+06 -6.223216E-09 -1.702171E-08
       153  17  5.684218E+04  5.994151E+05  1.603902E+05 -1.378666E+05 -6.375211E-09 -4.568905E-08
       153  18  7.837738E+05  3.013668E+06  8.352105E+05 -1.380303E+06 -6.801325E-09 -2.940182E-08
       153  19  5.951997E+05  2.519907E+06  6.058960E+05 -1.366984E+06 -6.125455E+04  5.022047E+04
       153  20 -6.627476E+04  1.065634E+05  4.018281E+04 -1.231819E+05  3.975922E+03  1.021135E+05
       153  21 -5.579374E+05 -2.369779E+06 -4.749428E+05 -1.269651E+06  6.813595E+04  1.537415E+05
       153  22  4.763419E+04  3.187235E+05  7.136359E+04 -1.326226E+06 -6.070474E+04  2.450476E+04
       153  23 -4.713915E+03  3.529623E+05  1.002901E+05 -1.305228E+05  4.498931E+03  7.686970E+04
       153  24  1.131860E+05  3.186455E+05  1.804101E+05 -1.324875E+06  6.864195E+04  1.291677E+05
       153  25 -5.002838E+05 -1.878047E+06 -4.635164E+05 -1.285584E+06 -6.015726E+04 -1.120418E+03
       153  26  5.684292E+04  5.994180E+05  1.603953E+05 -1.378664E+05  5.022433E+03  5.161587E+04
       153  27  7.837818E+05  3.013681E+06  8.352400E+05 -1.380297E+06  6.915119E+04  1.044864E+05
       154   1 -1.800941E+06 -6.909902E+06 -1.563613E+06 -1.288667E+06 -1.616582E+05 -2.534543E+05
       154   2 -2.570826E+06 -9.531251E+06 -2.063606E+06 -1.399868E+04 -2.577788E+05 -3.321211E+05
       154   3 -2.466775E+06 -1.178965E+07 -2.267985E+06 -1.143239E+06 -9.524886E+04 -4.078552E+05
       154   4  2.553868E+04  4.024941E+05  2.297783E+05 -1.329473E+06 -1.631844E+05 -1.688641E+05
       154   5 -1.314895E+05  2.143838E+05  3.214335E+05 -1.277394E+05 -2.573219E+05 -3.481406E+05
       154   6  5.974242E+05  3.986441E+05  7.755858E+05 -1.327389E+06 -9.458578E+04 -5.248355E+05
       154   7  1.848053E+06  7.763956E+06  2.019278E+06 -1.370478E+06 -1.647124E+05 -8.326158E+04
       154   8  2.300819E+06  1.004745E+07  2.699532E+06 -2.430527E+05 -2.568643E+05 -3.643793E+05
       154   9  3.650491E+06  1.272340E+07  3.808026E+06 -1.514942E+06 -9.386256E+04 -6.440618E+05
       154  10 -1.800987E+06 -6.909978E+06 -1.563785E+06 -1.288701E+06 -5.961772E-09  2.353379E-08
       154  11 -2.570928E+06 -9.531388E+06 -2.063941E+06 -1.406808E+04  4.929195E-09  2.018047E-08
       154  12 -2.466831E+06 -1.178984E+07 -2.268321E+06 -1.143271E+06  1.983617E-09  1.232553E-09
       154  13  2.550235E+04  4.024563E+05  2.296744E+05 -1.329495E+06 -1.668721E-08 -1.847890E-08
       154  14 -1.315931E+05  2.142359E+05  3.210813E+05 -1.278116E+05  5.480287E-09 -3.142624E-11
       154  15  5.973405E+05  3.983461E+05  7.750512E+05 -1.327429E+06  5.379807E-11 -4.640578E-09
       154  16  1.848022E+06  7.763941E+06  2.019214E+06 -1.370489E+06  9.892718E-10 -1.469261E-08
       154  17  2.300713E+06  1.004729E+07  2.699162E+06 -2.431276E+05  3.249893E-10 -2.389297E-08
       154  18  3.650373E+06  1.272296E+07  3.807244E+06 -1.514991E+06 -1.520996E-09 -3.274808E-09
       154  19 -1.800941E+06 -6.909902E+06 -1.563613E+06 -1.288667E+06  1.616582E+05  2.534543E+05
       154  20 -2.570826E+06 -9.531251E+06 -2.063606E+06 -1.399868E+04  2.577788E+05  3.321211E+05
       154  21 -2.466775E+06 -1.178965E+07 -2.267985E+06 -1.143239E+06  9.524886E+04  4.078552E+05
       154  22  2.553868E+04  4.024941E+05  2.297783E+05 -1.329473E+06  1.631844E+05  1.688641E+05
       154  23 -1.314895E+05  2.143838E+05  3.214335E+05 -1.277394E+05  2.573219E+05  3.481406E+05
       154  24  5.974242E+05  3.986441E+05  7.755858E+05 -1.327389E+06  9.458578E+04  5.248355E+05
       154  25  1.848053E+06  7.763956E+06  2.019278E+06 -1.370478E+06  1.647124E+05  8.326158E+04
       154  26  2.300819E+06  1.004745E+07  2.699532E+06 -2.430527E+05  2.568643E+05  3.643793E+05
       154  27  3.650491E+06  1.272340E+07  3.808026E+06 -1.514942E+06  9.386256E+04  6.440618E+05
       155   1 -4.748022E+05 -2.100312E+05 -1.029677E+05 -2.139941E+05 -5.209466E+04 -1.688049E+04
       155   2 -4.480970E+05 -1.507358E+05 -5.734107E+04 -2.013131E+05 -3.127953E+04 -3.215458E+03
       155   3 -4.296797E+05 -1.205723E+05 -3.542124E+04 -1.876068E+05 -8.779900E+03  5.966773E+03
       155   4 -3.127153E+05 -1.187084E+05 -5.563175E+04 -1.381204E+05 -3.719322E+04 -1.129204E+04
       155   5 -3.065098E+05 -8.404904E+04 -2.643731E+04 -1.465071E+05 -2.543836E+04 -1.024831E+03
       155   6 -3.067943E+05 -7.672388E+04 -1.376559E+04 -1.538701E+05 -1.200013E+04  4.758414E+03
       155   7 -1.506031E+05 -2.737375E+04 -8.298126E+03 -6.222693E+04 -2.228787E+04 -5.700265E+03
       155   8 -1.649020E+05 -1.735675E+04  4.465289E+03 -9.168845E+04 -1.959580E+04  1.166674E+03
       155   9 -1.838919E+05 -3.287373E+04  7.889892E+03 -1.201270E+05 -1.522106E+04  3.549797E+03
       155  10 -4.748052E+05 -2.100322E+05 -1.029733E+05 -2.139948E+05  5.363544E-08  2.159993E-08
       155  11 -4.480981E+05 -1.507360E+05 -5.734293E+04 -2.013132E+05  4.461197E-10  3.304214E-09
       155  12 -4.296798E+05 -1.205724E+05 -3.542146E+04 -1.876068E+05 -5.894235E-08 -1.837969E-08
       155  13 -3.127168E+05 -1.187089E+05 -5.563459E+04 -1.381208E+05  3.401737E-09  1.682715E-09
       155  14 -3.065105E+05 -8.404921E+04 -2.643853E+04 -1.465071E+05  5.105339E-10  4.628820E-09
       155  15 -3.067944E+05 -7.672394E+04 -1.376590E+04 -1.538701E+05  5.072915E-09  4.874781E-09
       155  16 -1.506036E+05 -2.737392E+04 -8.299121E+03 -6.222703E+04 -5.230742E-08 -1.884295E-08
       155  17 -1.649024E+05 -1.735685E+04  4.464565E+03 -9.168843E+04  7.602089E-09  5.653363E-09
       155  18 -1.838922E+05 -3.287381E+04  7.889433E+03 -1.201269E+05  6.843605E-08  2.838889E-08
       155  19 -4.748022E+05 -2.100312E+05 -1.029677E+05 -2.139941E+05  5.209466E+04  1.688049E+04
       155  20 -4.480970E+05 -1.507358E+05 -5.734107E+04 -2.013131E+05  3.127953E+04  3.215458E+03
       155  21 -4.296797E+05 -1.205723E+05 -3.542124E+04 -1.876068E+05  8.779900E+03 -5.966773E+03
       155  22 -3.127153E+05 -1.187084E+05 -5.563175E+04 -1.381204E+05  3.719322E+04  1.129204E+04
       155  23 -3.065098E+05 -8.404904E+04 -2.643731E+04 -1.465071E+05  2.543836E+04  1.024831E+03
       155  24 -3.067943E+05 -7.672388E+04 -1.376559E+04 -1.538701E+05  1.200013E+04 -4.758414E+03
       155  25 -1.506031E+05 -2.737375E+04 -8.298126E+03 -6.222693E+04  2.228787E+04  5.700265E+03
       155  26 -1.649020E+05 -1.735675E+04  4.465289E+03 -9.168845E+04  1.959580E+04 -1.166674E+03
       155  27 -1.838919E+05 -3.287373E+04  7.889892E+03 -1.201270E+05  1.522106E+04 -3.549797E+03
       156   1 -4.069147E+05 -1.142214E+05 -2.806838E+04 -1.835673E+05 -7.046922E+03  5.401354E+03
       156   2 -3.781617E+05 -9.800311E+04 -1.723725E+04 -1.725128E+05 -2.738590E+03  5.049112E+03
       156   3 -3.463370E+05 -8.792325E+04 -9.631044E+03 -1.659915E+05  1.749230E+03  4.218711E+03
       156   4 -3.051989E+05 -7.603835E+04 -1.024578E+04 -1.535782E+05 -1.005248E+04  4.273604E+03
       156   5 -3.066342E+05 -7.167893E+04 -5.339696E+03 -1.518309E+05 -6.710399E+03  3.558980E+03
       156   6 -3.048067E+05 -7.326634E+04 -2.892330E+03 -1.546172E+05 -3.188986E+03  2.366150E+03
       156   7 -2.034732E+05 -3.785452E+04  7.576219E+03 -1.235846E+05 -1.305853E+04  3.145652E+03
       156   8 -2.351011E+05 -4.535416E+04  6.557801E+03 -1.311468E+05 -1.068269E+04  2.068655E+03
       156   9 -2.632741E+05 -5.860907E+04  3.846587E+03 -1.432421E+05 -8.127609E+03  5.134404E+02
       156  10 -4.069148E+05 -1.142214E+05 -2.806853E+04 -1.835673E+05  5.815880E-08  2.274549E-08
       156  11 -3.781617E+05 -9.800314E+04 -1.723731E+04 -1.725128E+05 -1.249773E-08 -7.043572E-09
       156  12 -3.463370E+05 -8.792327E+04 -9.631084E+03 -1.659915E+05 -1.099718E-07 -4.331688E-08
       156  13 -3.051990E+05 -7.603839E+04 -1.024600E+04 -1.535781E+05  1.063606E-08  5.175637E-09
       156  14 -3.066342E+05 -7.167896E+04 -5.339804E+03 -1.518309E+05  7.718434E-09 -1.661366E-09
       156  15 -3.048067E+05 -7.326635E+04 -2.892359E+03 -1.546172E+05 -1.769638E-08 -2.094560E-08
       156  16 -2.034734E+05 -3.785458E+04  7.575879E+03 -1.235846E+05 -3.485586E-08 -8.165585E-09
       156  17 -2.351012E+05 -4.535419E+04  6.557579E+03 -1.311468E+05  4.209383E-08  2.389652E-08
       156  18 -2.632741E+05 -5.860909E+04  3.846462E+03 -1.432421E+05  8.123670E-08  3.653934E-08
       156  19 -4.069147E+05 -1.142214E+05 -2.806838E+04 -1.835673E+05  7.046922E+03 -5.401354E+03
       156  20 -3.781617E+05 -9.800311E+04 -1.723725E+04 -1.725128E+05  2.738590E+03 -5.049112E+03
       156  21 -3.463370E+05 -8.792325E+04 -9.631044E+03 -1.659915E+05 -1.749230E+03 -4.218711E+03
       156  22 -3.051989E+05 -7.603835E+04 -1.024578E+04 -1.535782E+05  1.005248E+04 -4.273604E+03
       156  23 -3.066342E+05 -7.167893E+04 -5.339696E+03 -1.518309E+05  6.710399E+03 -3.558980E+03
       156  24 -3.048067E+05 -7.326634E+04 -2.892330E+03 -1.546172E+05  3.188986E+03 -2.366150E+03
       156  25 -2.034732E+05 -3.785452E+04  7.576219E+03 -1.235846E+05  1.305853E+04 -3.145652E+03
       156  26 -2.351011E+05 -4.535416E+04  6.557801E+03 -1.311468E+05  1.068269E+04 -2.068655E+03
       156  27 -2.632741E+05 -5.860907E+04  3.846587E+03 -1.432421E+05  8.127609E+03 -5.134404E+02
       157   1 -3.266351E+05 -8.106125E+04 -5.695001E+03 -1.606742E+05  2.656533E+03  2.920356E+03
       157   2 -2.979705E+05 -6.781112E+04  9.894979E+01 -1.496347E+05  4.268095E+03  7.221709E+02
       157   3 -2.651796E+05 -5.896702E+04  5.344807E+03 -1.434755E+05  5.898712E+03 -1.526781E+03
       157   4 -3.046549E+05 -7.323838E+04 -2.163855E+03 -1.545745E+05 -2.259023E+03  1.076326E+03
       157   5 -3.067190E+05 -7.098223E+04 -1.174825E+03 -1.521580E+05 -7.501773E+02 -1.160404E+03
       157   6 -3.046374E+05 -7.311181E+04 -6.524993E+02 -1.546221E+05  7.776848E+02 -3.447911E+03
       157   7 -2.826741E+05 -6.541544E+04  1.367382E+03 -1.484745E+05 -7.174762E+03 -7.677706E+02
       157   8 -3.154673E+05 -7.415328E+04 -2.448477E+03 -1.546812E+05 -5.768344E+03 -3.042939E+03
       157   9 -3.440929E+05 -8.725623E+04 -6.649580E+03 -1.657678E+05 -4.342938E+03 -5.368886E+03
       157  10 -3.266351E+05 -8.106127E+04 -5.695030E+03 -1.606742E+05  2.578203E-08  1.091214E-08
       157  11 -2.979705E+05 -6.781113E+04  9.891456E+01 -1.496347E+05  1.637482E-08  1.404662E-08
       157  12 -2.651796E+05 -5.896703E+04  5.344737E+03 -1.434755E+05 -5.726929E-09  6.518608E-09
       157  13 -3.046549E+05 -7.323838E+04 -2.163867E+03 -1.545745E+05 -2.257275E-08 -2.518035E-08
       157  14 -3.067190E+05 -7.098223E+04 -1.174829E+03 -1.521580E+05 -5.837590E-09 -1.218514E-08
       157  15 -3.046374E+05 -7.311182E+04 -6.525228E+02 -1.546221E+05 -4.866685E-10 -1.068465E-09
       157  16 -2.826742E+05 -6.541545E+04  1.367284E+03 -1.484745E+05 -6.373300E-08 -2.609931E-08
       157  17 -3.154674E+05 -7.415330E+04 -2.448557E+03 -1.546812E+05 -2.508937E-08 -1.943941E-08
       157  18 -3.440929E+05 -8.725627E+04 -6.649669E+03 -1.657679E+05  7.059572E-09 -4.092381E-09
       157  19 -3.266351E+05 -8.106125E+04 -5.695001E+03 -1.606742E+05 -2.656533E+03 -2.920356E+03
       157  20 -2.979705E+05 -6.781112E+04  9.894979E+01 -1.496347E+05 -4.268095E+03 -7.221709E+02
       157  21 -2.651796E+05 -5.896702E+04  5.344807E+03 -1.434755E+05 -5.898712E+03  1.526781E+03
       157  22 -3.046549E+05 -7.323838E+04 -2.163855E+03 -1.545745E+05  2.259023E+03 -1.076326E+03
       157  23 -3.067190E+05 -7.098223E+04 -1.174825E+03 -1.521580E+05  7.501773E+02  1.160404E+03
       157  24 -3.046374E+05 -7.311181E+04 -6.524993E+02 -1.546221E+05 -7.776848E+02  3.447911E+03
       157  25 -2.826741E+05 -6.541544E+04  1.367382E+03 -1.484745E+05  7.174762E+03  7.677706E+02
       157  26 -3.154673E+05 -7.415328E+04 -2.448477E+03 -1.546812E+05  5.768344E+03  3.042939E+03
       157  27 -3.440929E+05 -8.725623E+04 -6.649580E+03 -1.657678E+05  4.342938E+03  5.368886E+03
       158   1 -2.457589E+05 -5.203513E+04  8.643871E+03 -1.380561E+05  6.543880E+03 -2.968265E+03
       158   2 -2.171575E+05 -3.894929E+04  1.353509E+04 -1.269976E+05  7.645858E+03 -5.444915E+03
       158   3 -1.843104E+05 -3.013772E+04  1.831247E+04 -1.208273E+05  8.749368E+03 -7.925210E+03
       158   4 -3.046193E+05 -7.311500E+04 -4.945794E+02 -1.546134E+05  1.425536E+03 -4.888446E+03
       158   5 -3.067438E+05 -7.098413E+04 -2.887074E+02 -1.521672E+05  2.519905E+03 -7.368145E+03
       158   6 -3.046229E+05 -7.312652E+04 -1.909416E+02 -1.546099E+05  3.615795E+03 -9.851486E+03
       158   7 -3.634766E+05 -9.419475E+04 -9.633173E+03 -1.711694E+05 -3.692357E+03 -6.808458E+03
       158   8 -3.963220E+05 -1.030183E+05 -1.411267E+04 -1.773335E+05 -2.605298E+03 -9.291093E+03
       158   9 -4.249197E+05 -1.161138E+05 -1.869447E+04 -1.883864E+05 -1.516728E+03 -1.177737E+04
       158  10 -2.457589E+05 -5.203515E+04  8.643774E+03 -1.380560E+05  5.878496E-08  2.824486E-08
       158  11 -2.171575E+05 -3.894934E+04  1.353493E+04 -1.269976E+05  9.448599E-09  7.156079E-09
       158  12 -1.843105E+05 -3.013781E+04  1.831221E+04 -1.208272E+05 -5.167784E-08 -1.647040E-08
       158  13 -3.046193E+05 -7.311502E+04 -4.946281E+02 -1.546134E+05  4.835519E-09  3.750764E-09
       158  14 -3.067438E+05 -7.098419E+04 -2.888214E+02 -1.521672E+05  1.513205E-08  6.236800E-09
       158  15 -3.046229E+05 -7.312662E+04 -1.911485E+02 -1.546099E+05  2.996394E-09  3.595898E-09
       158  16 -3.634766E+05 -9.419480E+04 -9.633286E+03 -1.711694E+05 -5.227026E-08 -2.076403E-08
       158  17 -3.963220E+05 -1.030184E+05 -1.411285E+04 -1.773335E+05  9.558314E-09  5.155165E-09
       158  18 -4.249197E+05 -1.161139E+05 -1.869474E+04 -1.883864E+05  5.752527E-08  2.334662E-08
       158  19 -2.457589E+05 -5.203513E+04  8.643871E+03 -1.380561E+05 -6.543880E+03  2.968265E+03
       158  20 -2.171575E+05 -3.894929E+04  1.353509E+04 -1.269976E+05 -7.645858E+03  5.444915E+03
       158  21 -1.843104E+05 -3.013772E+04  1.831247E+04 -1.208273E+05 -8.749368E+03  7.925210E+03
       158  22 -3.046193E+05 -7.311500E+04 -4.945794E+02 -1.546134E+05 -1.425536E+03  4.888446E+03
       158  23 -3.067438E+05 -7.098413E+04 -2.887074E+02 -1.521672E+05 -2.519905E+03  7.368145E+03
       158  24 -3.046229E+05 -7.312652E+04 -1.909416E+02 -1.546099E+05 -3.615795E+03  9.851486E+03
       158  25 -3.634766E+05 -9.419475E+04 -9.633173E+03 -1.711694E+05  3.692357E+03  6.808458E+03
       158  26 -3.963220E+05 -1.030183E+05 -1.411267E+04 -1.773335E+05  2.605298E+03  9.291093E+03
       158  27 -4.249197E+05 -1.161138E+05 -1.869447E+04 -1.883864E+05  1.516728E+03  1.177737E+04
       159   1 -1.649302E+05 -2.319510E+04  2.146822E+04 -1.154006E+05  9.333874E+03 -9.392292E+03
       159   2 -1.363576E+05 -1.011186E+04  2.614912E+04 -1.043417E+05  1.034312E+04 -1.190239E+04
       159   3 -1.035256E+05 -1.290288E+03  3.078745E+04 -9.816574E+04  1.134782E+04 -1.439957E+04
       159   4 -3.046232E+05 -7.312858E+04 -1.697290E+02 -1.546080E+05  4.200683E+03 -1.131858E+04
       159   5 -3.067520E+05 -7.100037E+04 -1.701470E+02 -1.521651E+05  5.235804E+03 -1.381931E+04
       159   6 -3.046273E+05 -7.313891E+04 -2.335734E+02 -1.546053E+05  6.266375E+03 -1.630713E+04
       159   7 -4.442934E+05 -1.230594E+05 -2.180742E+04 -1.938067E+05 -9.312269E+02 -1.324438E+04
       159   8 -4.771149E+05 -1.318858E+05 -2.648975E+04 -1.999761E+05  1.299655E+02 -1.573566E+04
       159   9 -5.056877E+05 -1.449841E+05 -3.125576E+04 -2.110283E+05  1.186609E+03 -1.821406E+04
       159  10 -1.649304E+05 -2.319522E+04  2.146789E+04 -1.154005E+05 -4.400802E-09  2.236928E-09
       159  11 -1.363578E+05 -1.011204E+04  2.614865E+04 -1.043416E+05  4.145713E-11  2.668624E-09
       159  12 -1.035258E+05 -1.290545E+03  3.078682E+04 -9.816561E+04  8.768268E-09  1.707304E-09
       159  13 -3.046232E+05 -7.312872E+04 -1.700029E+02 -1.546080E+05 -5.659420E-10  1.733936E-09
       159  14 -3.067520E+05 -7.100058E+04 -1.705574E+02 -1.521650E+05  5.016872E-09  6.562919E-10
       159  15 -3.046274E+05 -7.313920E+04 -2.341468E+02 -1.546052E+05  1.524791E-08  1.048693E-10
       159  16 -4.442934E+05 -1.230595E+05 -2.180775E+04 -1.938067E+05  2.461577E-09  9.063654E-10
       159  17 -4.771149E+05 -1.318861E+05 -2.649021E+04 -1.999761E+05  2.122909E-09 -3.054685E-10
       159  18 -5.056878E+05 -1.449845E+05 -3.125639E+04 -2.110283E+05  3.205533E-09 -1.179119E-09
       159  19 -1.649302E+05 -2.319510E+04  2.146822E+04 -1.154006E+05 -9.333874E+03  9.392292E+03
       159  20 -1.363576E+05 -1.011186E+04  2.614912E+04 -1.043417E+05 -1.034312E+04  1.190239E+04
       159  21 -1.035256E+05 -1.290288E+03  3.078745E+04 -9.816574E+04 -1.134782E+04  1.439957E+04
       159  22 -3.046232E+05 -7.312858E+04 -1.697290E+02 -1.546080E+05 -4.200683E+03  1.131858E+04
       159  23 -3.067520E+05 -7.100037E+04 -1.701470E+02 -1.521651E+05 -5.235804E+03  1.381931E+04
       159  24 -3.046273E+05 -7.313891E+04 -2.335734E+02 -1.546053E+05 -6.266375E+03  1.630713E+04
       159  25 -4.442934E+05 -1.230594E+05 -2.180742E+04 -1.938067E+05  9.312269E+02  1.324438E+04
       159  26 -4.771149E+05 -1.318858E+05 -2.648975E+04 -1.999761E+05 -1.299655E+02  1.573566E+04
       159  27 -5.056877E+05 -1.449841E+05 -3.125576E+04 -2.110283E+05 -1.186609E+03  1.821406E+04
       160   1 -8.415999E+04  5.653267E+03  3.387690E+04 -9.274521E+04  1.194657E+04 -1.584924E+04
       160   2 -5.562303E+04  1.874285E+04  3.845277E+04 -8.168903E+04  1.287571E+04 -1.830120E+04
       160   3 -2.282885E+04  2.757605E+04  4.302353E+04 -7.549933E+04  1.376009E+04 -2.063283E+04
       160   4 -3.046383E+05 -7.313898E+04 -2.924073E+02 -1.546058E+05  6.860721E+03 -1.775870E+04
       160   5 -3.067505E+05 -7.102041E+04 -5.012411E+02 -1.521610E+05  8.032879E+03 -2.011994E+04
       160   6 -3.046544E+05 -7.320662E+04 -9.077425E+02 -1.545833E+05  9.160273E+03 -2.236083E+04
       160   7 -5.250640E+05 -1.519261E+05 -3.446234E+04 -2.164457E+05  1.776781E+03 -1.966745E+04
       160   8 -5.578083E+05 -1.607764E+05 -3.945571E+04 -2.226058E+05  3.192151E+03 -2.193790E+04
       160   9 -5.863908E+05 -1.739797E+05 -4.483928E+04 -2.336326E+05  4.562714E+03 -2.408797E+04
       160  10 -8.416021E+04  5.652959E+03  3.387616E+04 -9.274506E+04  1.470649E-08  1.649412E-09
       160  11 -5.562330E+04  1.874245E+04  3.845183E+04 -8.168884E+04  1.060105E-08 -2.287247E-09
       160  12 -2.282916E+04  2.757554E+04  4.302237E+04 -7.549910E+04  6.583781E-09  3.166824E-10
       160  13 -3.046385E+05 -7.313933E+04 -2.930883E+02 -1.546057E+05  1.314641E-08 -8.195762E-10
       160  14 -3.067507E+05 -7.102086E+04 -5.021229E+02 -1.521609E+05  6.784341E-09 -1.154764E-09
       160  15 -3.046546E+05 -7.320718E+04 -9.088396E+02 -1.545831E+05  4.873715E-09  1.161492E-09
       160  16 -5.250641E+05 -1.519265E+05 -3.446307E+04 -2.164457E+05  1.495644E-10 -3.030931E-09
       160  17 -5.578084E+05 -1.607769E+05 -3.945664E+04 -2.226057E+05  1.883065E-10 -1.444413E-09
       160  18 -5.863910E+05 -1.739803E+05 -4.484041E+04 -2.336325E+05  2.176684E-09  2.545551E-09
       160  19 -8.415999E+04  5.653267E+03  3.387690E+04 -9.274521E+04 -1.194657E+04  1.584924E+04
       160  20 -5.562303E+04  1.874285E+04  3.845277E+04 -8.168903E+04 -1.287571E+04  1.830120E+04
       160  21 -2.282885E+04  2.757605E+04  4.302353E+04 -7.549933E+04 -1.376009E+04  2.063283E+04
       160  22 -3.046383E+05 -7.313898E+04 -2.924073E+02 -1.546058E+05 -6.860721E+03  1.775870E+04
       160  23 -3.067505E+05 -7.102041E+04 -5.012411E+02 -1.521610E+05 -8.032879E+03  2.011994E+04
       160  24 -3.046544E+05 -7.320662E+04 -9.077425E+02 -1.545833E+05 -9.160273E+03  2.236083E+04
       160  25 -5.250640E+05 -1.519261E+05 -3.446234E+04 -2.164457E+05 -1.776781E+03  1.966745E+04
       160  26 -5.578083E+05 -1.607764E+05 -3.945571E+04 -2.226058E+05 -3.192151E+03  2.193790E+04
       160  27 -5.863908E+05 -1.739797E+05 -4.483928E+04 -2.336326E+05 -4.562714E+03  2.408797E+04
       161   1 -3.435663E+03  3.451030E+04  4.602304E+04 -7.013171E+04  1.449179E+04 -2.192523E+04
       161   2  2.477330E+04  4.772837E+04  5.080512E+04 -5.878771E+04  1.400386E+04 -2.409351E+04
       161   3  5.722564E+04  5.649875E+04  5.636065E+04 -5.210083E+04  1.309549E+04 -2.514151E+04
       161   4 -3.047288E+05 -7.320919E+04 -1.208524E+03 -1.545855E+05  9.840131E+03 -2.367301E+04
       161   5 -3.067118E+05 -7.134448E+04 -2.226296E+03 -1.520391E+05  1.161750E+04 -2.499127E+04
       161   6 -3.049018E+05 -7.437707E+04 -4.265956E+03 -1.541507E+05  1.297442E+04 -2.518886E+04
       161   7 -6.059278E+05 -1.809206E+05 -4.844257E+04 -2.390018E+05  5.190802E+03 -2.541991E+04
       161   8 -6.380811E+05 -1.904066E+05 -5.526043E+04 -2.452442E+05  9.232486E+03 -2.588854E+04
       161   9 -6.668895E+05 -2.052395E+05 -6.489590E+04 -2.561447E+05  1.285342E+04 -2.523619E+04
       161  10 -3.436018E+03  3.450973E+04  4.602174E+04 -7.013146E+04  3.982329E-08  1.381501E-08
       161  11  2.477293E+04  4.772769E+04  5.080367E+04 -5.878744E+04  3.223239E-08  7.470686E-09
       161  12  5.722528E+04  5.649803E+04  5.635914E+04 -5.210056E+04  2.593302E-08  1.220849E-09
       161  13 -3.047291E+05 -7.320982E+04 -1.209759E+03 -1.545853E+05  8.860198E-09  5.661165E-09
       161  14 -3.067121E+05 -7.134518E+04 -2.227723E+03 -1.520388E+05  7.221712E-10  1.593570E-08
       161  15 -3.049021E+05 -7.437780E+04 -4.267465E+03 -1.541504E+05  2.837569E-09  3.035357E-08
       161  16 -6.059280E+05 -1.809213E+05 -4.844384E+04 -2.390017E+05 -3.096064E-08 -1.192074E-08
       161  17 -6.380813E+05 -1.904074E+05 -5.526185E+04 -2.452440E+05 -2.169614E-08 -1.500441E-08
       161  18 -6.668899E+05 -2.052402E+05 -6.489741E+04 -2.561445E+05 -8.783894E-09 -1.101714E-08
       161  19 -3.435663E+03  3.451030E+04  4.602304E+04 -7.013171E+04 -1.449179E+04  2.192523E+04
       161  20  2.477330E+04  4.772837E+04  5.080512E+04 -5.878771E+04 -1.400386E+04  2.409351E+04
       161  21  5.722564E+04  5.649875E+04  5.636065E+04 -5.210083E+04 -1.309549E+04  2.514151E+04
       161  22 -3.047288E+05 -7.320919E+04 -1.208524E+03 -1.545855E+05 -9.840131E+03  2.367301E+04
       161  23 -3.067118E+05 -7.134448E+04 -2.226296E+03 -1.520391E+05 -1.161750E+04  2.499127E+04
       161  24 -3.049018E+05 -7.437707E+04 -4.265956E+03 -1.541507E+05 -1.297442E+04  2.518886E+04
       161  25 -6.059278E+05 -1.809206E+05 -4.844257E+04 -2.390018E+05 -5.190802E+03  2.541991E+04
       161  26 -6.380811E+05 -1.904066E+05 -5.526043E+04 -2.452442E+05 -9.232486E+03  2.588854E+04
       161  27 -6.668895E+05 -2.052395E+05 -6.489590E+04 -2.561447E+05 -1.285342E+04  2.523619E+04
       162   1  7.709241E+04  6.312999E+04  5.966032E+04 -4.730954E+04  1.443073E+04 -2.521486E+04
       162   2  1.005230E+05  7.799943E+04  6.975991E+04 -3.034775E+04 -2.957844E+03 -2.610782E+04
       162   3  1.274480E+05  8.374648E+04  8.980981E+04 -1.521050E+04 -2.429278E+04 -1.650590E+04
       162   4 -3.056682E+05 -7.456487E+04 -5.729900E+03 -1.541561E+05  1.380796E+04 -2.545076E+04
       162   5 -3.065504E+05 -7.662944E+04 -1.100553E+04 -1.499677E+05  1.764960E+04 -1.836772E+04
       162   6 -3.081470E+05 -9.202574E+04 -2.315485E+04 -1.476043E+05  1.754475E+04 -7.856659E+02
       162   7 -6.882723E+05 -2.122450E+05 -7.112395E+04 -2.609409E+05  1.318561E+04 -2.568651E+04
       162   8 -7.134438E+05 -2.312366E+05 -9.177491E+04 -2.695112E+05  3.824222E+04 -1.063372E+04
       162   9 -7.435381E+05 -2.677700E+05 -1.361240E+05 -2.799056E+05  5.934888E+04  1.491985E+04
       162  10  7.709202E+04  6.312925E+04  5.965874E+04 -4.730925E+04 -8.714488E-10 -1.254644E-08
       162  11  1.005228E+05  7.799870E+04  6.975861E+04 -3.034781E+04 -2.752677E-08 -1.972031E-08
       162  12  1.274472E+05  8.374603E+04  8.980819E+04 -1.521082E+04 -3.525064E-08 -1.603472E-08
       162  13 -3.056686E+05 -7.456562E+04 -5.731476E+03 -1.541558E+05 -1.670349E-09  2.730511E-08
       162  14 -3.065509E+05 -7.662989E+04 -1.100675E+04 -1.499674E+05 -4.964236E-09  1.103858E-08
       162  15 -3.081473E+05 -9.202583E+04 -2.315543E+04 -1.476043E+05 -3.659628E-10  2.268836E-09
       162  16 -6.882727E+05 -2.122458E+05 -7.112552E+04 -2.609407E+05  1.795353E-08 -8.869208E-10
       162  17 -7.134454E+05 -2.312371E+05 -9.177787E+04 -2.695108E+05  2.524942E-08  3.394850E-09
       162  18 -7.435419E+05 -2.677711E+05 -1.361310E+05 -2.799063E+05  3.128893E-08  9.484182E-09
       162  19  7.709241E+04  6.312999E+04  5.966032E+04 -4.730954E+04 -1.443073E+04  2.521486E+04
       162  20  1.005230E+05  7.799943E+04  6.975991E+04 -3.034775E+04  2.957844E+03  2.610782E+04
       162  21  1.274480E+05  8.374648E+04  8.980981E+04 -1.521050E+04  2.429278E+04  1.650590E+04
       162  22 -3.056682E+05 -7.456487E+04 -5.729900E+03 -1.541561E+05 -1.380796E+04  2.545076E+04
       162  23 -3.065504E+05 -7.662944E+04 -1.100553E+04 -1.499677E+05 -1.764960E+04  1.836772E+04
       162  24 -3.081470E+05 -9.202574E+04 -2.315485E+04 -1.476043E+05 -1.754475E+04  7.856659E+02
       162  25 -6.882723E+05 -2.122450E+05 -7.112395E+04 -2.609409E+05 -1.318561E+04  2.568651E+04
       162  26 -7.134438E+05 -2.312366E+05 -9.177491E+04 -2.695112E+05 -3.824222E+04  1.063372E+04
       162  27 -7.435381E+05 -2.677700E+05 -1.361240E+05 -2.799056E+05 -5.934888E+04 -1.491985E+04
       163   1 -2.354264E+05 -4.362187E+04 -6.976529E+04 -1.828255E+04 -7.868634E+04 -1.670948E+03
       163   2 -2.279692E+05  6.260385E+04 -6.077768E+03 -6.091185E+03 -5.234410E+04 -4.873368E+03
       163   3 -2.541063E+05  4.798236E+04  1.025968E+04  1.516729E+04 -2.600561E+04 -4.414386E+03
       163   4 -4.298354E+05 -9.212393E+04 -1.179740E+05  4.702843E+03 -8.060720E+04 -1.675220E+03
       163   5 -4.129020E+05  1.660937E+04 -5.111766E+04  1.344906E+02 -5.286759E+04 -4.874429E+03
       163   6 -4.298166E+05  4.232338E+03 -3.259279E+04  4.633477E+03 -2.513128E+04 -4.413178E+03
       163   7 -6.242088E+05 -1.406268E+05 -1.661852E+05  2.768103E+04 -8.252744E+04 -1.679634E+03
       163   8 -5.978035E+05 -2.938749E+04 -9.616002E+04  6.358300E+03 -5.339092E+04 -4.875500E+03
       163   9 -6.054985E+05 -3.951955E+04 -7.544745E+04 -5.897349E+03 -2.425720E+04 -4.412000E+03
       163  10 -2.354331E+05 -4.362353E+04 -6.977694E+04 -1.828266E+04  4.117116E-10  4.612841E-10
       163  11 -2.279722E+05  6.260309E+04 -6.082964E+03 -6.091390E+03 -1.863286E-09 -3.582119E-10
       163  12 -2.541070E+05  4.798216E+04  1.025838E+04  1.516719E+04  2.814969E-09 -2.040193E-09
       163  13 -4.298423E+05 -9.212568E+04 -1.179862E+05  4.702734E+03 -4.081656E-09  1.189435E-09
       163  14 -4.129050E+05  1.660859E+04 -5.112296E+04  1.342830E+02  1.932421E-09  5.477213E-10
       163  15 -4.298173E+05  4.232147E+03 -3.259401E+04  4.633388E+03  3.997515E-09 -3.906952E-11
       163  16 -6.242161E+05 -1.406287E+05 -1.661980E+05  2.768092E+04  2.536742E-09  1.176879E-09
       163  17 -5.978065E+05 -2.938828E+04 -9.616543E+04  6.358090E+03 -2.940930E-09 -1.098619E-10
       163  18 -6.054991E+05 -3.951973E+04 -7.544859E+04 -5.897435E+03 -2.189038E-09 -2.539334E-09
       163  19 -2.354264E+05 -4.362187E+04 -6.976529E+04 -1.828255E+04  7.868634E+04  1.670948E+03
       163  20 -2.279692E+05  6.260385E+04 -6.077768E+03 -6.091185E+03  5.234410E+04  4.873368E+03
       163  21 -2.541063E+05  4.798236E+04  1.025968E+04  1.516729E+04  2.600561E+04  4.414386E+03
       163  22 -4.298354E+05 -9.212393E+04 -1.179740E+05  4.702843E+03  8.060720E+04  1.675220E+03
       163  23 -4.129020E+05  1.660937E+04 -5.111766E+04  1.344906E+02  5.286759E+04  4.874429E+03
       163  24 -4.298166E+05  4.232338E+03 -3.259279E+04  4.633477E+03  2.513128E+04  4.413178E+03
       163  25 -6.242088E+05 -1.406268E+05 -1.661852E+05  2.768103E+04  8.252744E+04  1.679634E+03
       163  26 -5.978035E+05 -2.938749E+04 -9.616002E+04  6.358300E+03  5.339092E+04  4.875500E+03
       163  27 -6.054985E+05 -3.951955E+04 -7.544745E+04 -5.897349E+03  2.425720E+04  4.412000E+03
       164   1 -2.656890E+05  2.789071E+04  1.175326E+04  2.257572E+03 -1.987232E+04 -3.663462E+03
       164   2 -2.731253E+05  3.887183E+04  2.278387E+04 -5.231173E+02 -1.314193E+04 -3.655979E+03
       164   3 -2.851577E+05  3.491828E+04  2.570107E+04  6.226756E+03 -6.412043E+03 -3.277381E+03
       164   4 -4.233249E+05 -1.134435E+04 -2.675893E+04  4.768892E+03 -1.993996E+04 -3.663678E+03
       164   5 -4.210124E+05  2.069857E+03 -1.329157E+04 -2.875855E+00 -1.306868E+04 -3.655963E+03
       164   6 -4.233214E+05  5.229504E+02 -8.036950E+03  4.756064E+03 -6.197794E+03 -3.277139E+03
       164   7 -5.809382E+05 -5.058123E+04 -6.527292E+04  7.279566E+03 -2.000757E+04 -3.663894E+03
       164   8 -5.688794E+05 -3.473373E+04 -4.936861E+04  5.172355E+02 -1.299544E+04 -3.655948E+03
       164   9 -5.614677E+05 -3.387378E+04 -4.177636E+04  3.285695E+03 -5.983592E+03 -3.276898E+03
       164  10 -2.656894E+05  2.789059E+04  1.175249E+04  2.257513E+03 -3.105384E-09 -2.874852E-09
       164  11 -2.731255E+05  3.887177E+04  2.278352E+04 -5.231560E+02 -6.983292E-10  1.563803E-09
       164  12 -2.851577E+05  3.491826E+04  2.570097E+04  6.226739E+03  1.019202E-09  6.551837E-10
       164  13 -4.233254E+05 -1.134448E+04 -2.675970E+04  4.768833E+03  5.755947E-10 -2.578121E-09
       164  14 -4.210125E+05  2.069797E+03 -1.329192E+04 -2.914340E+00  2.919076E-09 -5.634098E-10
       164  15 -4.233214E+05  5.229286E+02 -8.037042E+03  4.756048E+03  3.696997E-09 -5.441920E-10
       164  16 -5.809387E+05 -5.058135E+04 -6.527370E+04  7.279507E+03  5.503529E-10 -1.658713E-09
       164  17 -5.688796E+05 -3.473379E+04 -4.936895E+04  5.171972E+02 -3.254509E-09 -3.512445E-10
       164  18 -5.614678E+05 -3.387380E+04 -4.177645E+04  3.285679E+03  9.717105E-11  2.313593E-09
       164  19 -2.656890E+05  2.789071E+04  1.175326E+04  2.257572E+03  1.987232E+04  3.663462E+03
       164  20 -2.731253E+05  3.887183E+04  2.278387E+04 -5.231173E+02  1.314193E+04  3.655979E+03
       164  21 -2.851577E+05  3.491828E+04  2.570107E+04  6.226756E+03  6.412043E+03  3.277381E+03
       164  22 -4.233249E+05 -1.134435E+04 -2.675893E+04  4.768892E+03  1.993996E+04  3.663678E+03
       164  23 -4.210124E+05  2.069857E+03 -1.329157E+04 -2.875855E+00  1.306868E+04  3.655963E+03
       164  24 -4.233214E+05  5.229504E+02 -8.036950E+03  4.756064E+03  6.197794E+03  3.277139E+03
       164  25 -5.809382E+05 -5.058123E+04 -6.527292E+04  7.279566E+03  2.000757E+04  3.663894E+03
       164  26 -5.688794E+05 -3.473373E+04 -4.936861E+04  5.172355E+02  1.299544E+04  3.655948E+03
       164  27 -5.614677E+05 -3.387378E+04 -4.177636E+04  3.285695E+03  5.983592E+03  3.276898E+03
       165   1 -3.031127E+05  2.832038E+04  2.274111E+04  4.685616E+03 -5.037638E+03 -3.009308E+03
       165   2 -3.128410E+05  2.745077E+04  2.323825E+04 -2.705057E+01 -3.327190E+03 -2.674369E+03
       165   3 -3.232577E+05  2.476695E+04  2.216532E+04  5.122803E+03 -1.616928E+03 -2.297475E+03
       165   4 -4.224471E+05 -1.374229E+03 -6.353617E+03  4.835443E+03 -4.917375E+03 -3.009186E+03
       165   5 -4.221010E+05  2.582282E+02 -3.420380E+03 -9.686134E+01 -3.191120E+03 -2.674206E+03
       165   6 -4.224462E+05  7.353087E+01 -2.068409E+03  4.833466E+03 -1.465024E+03 -2.297267E+03
       165   7 -5.417684E+05 -3.106989E+04 -3.544938E+04  4.985237E+03 -4.797134E+03 -3.009064E+03
       165   8 -5.313500E+05 -2.693520E+04 -3.007988E+04 -1.666637E+02 -3.055074E+03 -2.674042E+03
       165   9 -5.216259E+05 -2.462062E+04 -2.630286E+04  4.544172E+03 -1.313144E+03 -2.297060E+03
       165  10 -3.031128E+05  2.832036E+04  2.274105E+04  4.685604E+03  1.198298E-09  1.753581E-09
       165  11 -3.128410E+05  2.745076E+04  2.323822E+04 -2.705774E+01  1.758181E-09  3.228306E-09
       165  12 -3.232577E+05  2.476695E+04  2.216531E+04  5.122800E+03 -3.174499E-09 -2.224947E-11
       165  13 -4.224471E+05 -1.374246E+03 -6.353680E+03  4.835431E+03  1.036068E-09 -4.736209E-10
       165  14 -4.221010E+05  2.582178E+02 -3.420412E+03 -9.686822E+01 -1.453071E-09  3.212294E-09
       165  15 -4.224462E+05  7.352463E+01 -2.068423E+03  4.833463E+03  6.970186E-10  3.738131E-09
       165  16 -5.417684E+05 -3.106991E+04 -3.544944E+04  4.985226E+03 -1.634487E-09  3.716280E-09
       165  17 -5.313500E+05 -2.693521E+04 -3.007991E+04 -1.666702E+02  2.392466E-09  2.720820E-09
       165  18 -5.216259E+05 -2.462062E+04 -2.630287E+04  4.544169E+03  2.738267E-09  1.729012E-09
       165  19 -3.031127E+05  2.832038E+04  2.274111E+04  4.685616E+03  5.037638E+03  3.009308E+03
       165  20 -3.128410E+05  2.745077E+04  2.323825E+04 -2.705057E+01  3.327190E+03  2.674369E+03
       165  21 -3.232577E+05  2.476695E+04  2.216532E+04  5.122803E+03  1.616928E+03  2.297475E+03
       165  22 -4.224471E+05 -1.374229E+03 -6.353617E+03  4.835443E+03  4.917375E+03  3.009186E+03
       165  23 -4.221010E+05  2.582282E+02 -3.420380E+03 -9.686134E+01  3.191120E+03  2.674206E+03
       165  24 -4.224462E+05  7.353087E+01 -2.068409E+03  4.833466E+03  1.465024E+03  2.297267E+03
       165  25 -5.417684E+05 -3.106989E+04 -3.544938E+04  4.985237E+03  4.797134E+03  3.009064E+03
       165  26 -5.313500E+05 -2.693520E+04 -3.007988E+04 -1.666637E+02  3.055074E+03  2.674042E+03
       165  27 -5.216259E+05 -2.462062E+04 -2.630286E+04  4.544172E+03  1.313144E+03  2.297060E+03
       166   1 -3.425196E+05  1.970570E+04  1.779499E+04  4.956308E+03 -1.274038E+03 -2.072595E+03
       166   2 -3.527537E+05  1.733290E+04  1.590889E+04 -7.740762E+01 -7.546155E+02 -1.697573E+03
       166   3 -3.631407E+05  1.474319E+04  1.362373E+04  4.983339E+03 -2.352897E+02 -1.315432E+03
       166   4 -4.223257E+05 -1.508082E+02 -1.647332E+03  4.885826E+03 -1.131670E+03 -2.072391E+03
       166   5 -4.222488E+05  3.634463E+01 -1.048262E+03 -1.615627E+02 -6.095756E+02 -1.697352E+03
       166   6 -4.223255E+05  6.077528E+00 -8.501769E+02  4.885581E+03 -8.756942E+01 -1.315193E+03
       166   7 -5.021261E+05 -2.000778E+04 -2.109012E+04  4.815351E+03 -9.893199E+02 -2.072186E+03
       166   8 -4.917396E+05 -1.726057E+04 -1.800577E+04 -2.457100E+02 -4.645519E+02 -1.697131E+03
       166   9 -4.815072E+05 -1.473130E+04 -1.532434E+04  4.787832E+03  6.013684E+01 -1.314955E+03
       166  10 -3.425196E+05  1.970569E+04  1.779498E+04  4.956306E+03 -1.344147E-10 -1.027922E-09
       166  11 -3.527537E+05  1.733289E+04  1.590889E+04 -7.740865E+01 -2.425863E-09  4.005465E-09
       166  12 -3.631407E+05  1.474319E+04  1.362373E+04  4.983338E+03 -1.702421E-09  3.323646E-09
       166  13 -4.223257E+05 -1.508132E+02 -1.647343E+03  4.885825E+03  8.234968E-10  2.805824E-10
       166  14 -4.222488E+05  3.634144E+01 -1.048268E+03 -1.615635E+02 -2.891235E-09  2.895837E-09
       166  15 -4.223255E+05  6.075669E+00 -8.501801E+02  4.885581E+03 -5.281809E-09  5.400523E-10
       166  16 -5.021261E+05 -2.000779E+04 -2.109013E+04  4.815350E+03 -1.285314E-09  1.222687E-09
       166  17 -4.917396E+05 -1.726057E+04 -1.800577E+04 -2.457107E+02 -3.514347E-09 -1.010572E-09
       166  18 -4.815072E+05 -1.473130E+04 -1.532435E+04  4.787832E+03  2.940226E-10 -7.431727E-10
       166  19 -3.425196E+05  1.970570E+04  1.779499E+04  4.956308E+03  1.274038E+03  2.072595E+03
       166  20 -3.527537E+05  1.733290E+04  1.590889E+04 -7.740762E+01  7.546155E+02  1.697573E+03
       166  21 -3.631407E+05  1.474319E+04  1.362373E+04  4.983339E+03  2.352897E+02  1.315432E+03
       166  22 -4.223257E+05 -1.508082E+02 -1.647332E+03  4.885826E+03  1.131670E+03  2.072391E+03
       166  23 -4.222488E+05  3.634463E+01 -1.048262E+03 -1.615627E+02  6.095756E+02  1.697352E+03
       166  24 -4.223255E+05  6.077528E+00 -8.501769E+02  4.885581E+03  8.756942E+01  1.315193E+03
       166  25 -5.021261E+05 -2.000778E+04 -2.109012E+04  4.815351E+03  9.893199E+02  2.072186E+03
       166  26 -4.917396E+05 -1.726057E+04 -1.800577E+04 -2.457100E+02  4.645519E+02  1.697131E+03
       166  27 -4.815072E+05 -1.473130E+04 -1.532434E+04  4.787832E+03 -6.013684E+01  1.314955E+03
       167   1 -3.828761E+05  9.816654E+03  8.747945E+03  4.942014E+03 -8.208007E+01 -1.091330E+03
       167   2 -3.932369E+05  7.256387E+03  6.055849E+03 -1.609117E+02  4.273463E+02 -7.071323E+02
       167   3 -4.037582E+05  4.488365E+03  2.971150E+03  4.960876E+03  9.367424E+02 -3.229787E+02
       167   4 -4.223264E+05  4.230936E+00 -8.462351E+02  4.914518E+03  6.505912E+01 -1.091086E+03
       167   5 -4.222463E+05  3.609436E+01 -1.022812E+03 -1.977293E+02  5.744464E+02 -7.068831E+02
       167   6 -4.223265E+05 -1.397500E+02 -1.591929E+03  4.914767E+03  1.083812E+03 -3.227240E+02
       167   7 -4.617753E+05 -9.808307E+03 -1.044053E+04  4.887022E+03  2.121890E+02 -1.090842E+03
       167   8 -4.512549E+05 -7.184261E+03 -8.101535E+03 -2.345455E+02  7.215397E+02 -7.066339E+02
       167   9 -4.408945E+05 -4.767891E+03 -6.155032E+03  4.868660E+03  1.230877E+03 -3.224695E+02
       167  10 -3.828761E+05  9.816653E+03  8.747943E+03  4.942014E+03  1.838568E-09  1.193156E-09
       167  11 -3.932369E+05  7.256387E+03  6.055848E+03 -1.609115E+02 -2.357087E-09  1.038095E-10
       167  12 -4.037582E+05  4.488365E+03  2.971148E+03  4.960876E+03 -1.722804E-09 -2.830705E-09
       167  13 -4.223264E+05  4.229656E+00 -8.462373E+02  4.914518E+03 -3.701444E-09  5.511813E-09
       167  14 -4.222463E+05  3.609373E+01 -1.022814E+03 -1.977290E+02 -4.917954E-09  1.801500E-09
       167  15 -4.223265E+05 -1.397505E+02 -1.591931E+03  4.914768E+03 -2.568756E-09 -3.622581E-09
       167  16 -4.617753E+05 -9.808308E+03 -1.044053E+04  4.887022E+03 -1.279674E-09  2.779648E-09
       167  17 -4.512549E+05 -7.184261E+03 -8.101537E+03 -2.345450E+02 -6.750209E-10 -2.976262E-10
       167  18 -4.408945E+05 -4.767891E+03 -6.155036E+03  4.868661E+03  2.789924E-09 -4.291075E-09
       167  19 -3.828761E+05  9.816654E+03  8.747945E+03  4.942014E+03  8.208007E+01  1.091330E+03
       167  20 -3.932369E+05  7.256387E+03  6.055849E+03 -1.609117E+02 -4.273463E+02  7.071323E+02
       167  21 -4.037582E+05  4.488365E+03  2.971150E+03  4.960876E+03 -9.367424E+02  3.229787E+02
       167  22 -4.223264E+05  4.230935E+00 -8.462351E+02  4.914518E+03 -6.505912E+01  1.091086E+03
       167  23 -4.222463E+05  3.609436E+01 -1.022812E+03 -1.977293E+02 -5.744464E+02  7.068831E+02
       167  24 -4.223265E+05 -1.397500E+02 -1.591929E+03  4.914767E+03 -1.083812E+03  3.227240E+02
       167  25 -4.617753E+05 -9.808307E+03 -1.044053E+04  4.887022E+03 -2.121890E+02  1.090842E+03
       167  26 -4.512549E+05 -7.184261E+03 -8.101535E+03 -2.345455E+02 -7.215397E+02  7.066339E+02
       167  27 -4.408945E+05 -4.767891E+03 -6.155032E+03  4.868660E+03 -1.230877E+03  3.224695E+02
       168   1 -4.237572E+05 -2.597777E+02 -2.347892E+03  4.748442E+03  1.253627E+03 -9.472867E+01
       168   2 -4.338741E+05 -2.680166E+03 -6.161661E+03 -1.741012E+02  2.921169E+03  2.941848E+02
       168   3 -4.446873E+05 -6.841194E+03 -1.150603E+04  5.151623E+03  4.588726E+03  6.626245E+02
       168   4 -4.224452E+05  7.398036E+01 -1.995342E+03  4.919038E+03  1.405723E+03 -9.446373E+01
       168   5 -4.220979E+05  2.506562E+02 -3.288532E+03 -2.038987E+02  3.065436E+03  2.944333E+02
       168   6 -4.224458E+05 -1.311911E+03 -6.106837E+03  4.921423E+03  4.725192E+03  6.628559E+02
       168   7 -4.211331E+05  4.077384E+02 -1.642791E+03  5.089635E+03  1.557820E+03 -9.419870E+01
       168   8 -4.103217E+05  3.181469E+03 -4.154125E+02 -2.336969E+02  3.209705E+03  2.946817E+02
       168   9 -4.002038E+05  4.217335E+03 -7.076794E+02  4.691214E+03  4.861662E+03  6.630872E+02
       168  10 -4.237572E+05 -2.597782E+02 -2.347895E+03  4.748442E+03 -9.583218E-09  3.974775E-11
       168  11 -4.338741E+05 -2.680169E+03 -6.161678E+03 -1.741019E+02 -3.023929E-09  2.673357E-09
       168  12 -4.446873E+05 -6.841200E+03 -1.150607E+04  5.151621E+03 -1.704209E-09  2.823893E-09
       168  13 -4.224452E+05  7.397982E+01 -1.995345E+03  4.919038E+03  3.074384E-09 -2.123187E-09
       168  14 -4.220979E+05  2.506536E+02 -3.288550E+03 -2.038994E+02  6.029819E-10  8.198384E-10
       168  15 -4.224458E+05 -1.311918E+03 -6.106880E+03  4.921420E+03  8.818386E-10 -9.624753E-10
       168  16 -4.211331E+05  4.077378E+02 -1.642796E+03  5.089635E+03  4.592415E-09 -8.644474E-10
       168  17 -4.103217E+05  3.181466E+03 -4.154321E+02 -2.336976E+02  5.344199E-09 -2.050386E-09
       168  18 -4.002038E+05  4.217328E+03 -7.077247E+02  4.691212E+03  2.788988E-09  1.850154E-09
       168  19 -4.237572E+05 -2.597777E+02 -2.347892E+03  4.748442E+03 -1.253627E+03  9.472867E+01
       168  20 -4.338741E+05 -2.680166E+03 -6.161661E+03 -1.741012E+02 -2.921169E+03 -2.941848E+02
       168  21 -4.446873E+05 -6.841194E+03 -1.150603E+04  5.151623E+03 -4.588726E+03 -6.626245E+02
       168  22 -4.224452E+05  7.398036E+01 -1.995342E+03  4.919038E+03 -1.405723E+03  9.446373E+01
       168  23 -4.220979E+05  2.506562E+02 -3.288532E+03 -2.038987E+02 -3.065436E+03 -2.944333E+02
       168  24 -4.224458E+05 -1.311911E+03 -6.106837E+03  4.921423E+03 -4.725192E+03 -6.628559E+02
       168  25 -4.211331E+05  4.077384E+02 -1.642791E+03  5.089635E+03 -1.557820E+03  9.419870E+01
       168  26 -4.103217E+05  3.181469E+03 -4.154125E+02 -2.336969E+02 -3.209705E+03 -2.946817E+02
       168  27 -4.002038E+05  4.217335E+03 -7.076794E+02  4.691214E+03 -4.861662E+03 -6.630872E+02
       169   1 -4.653465E+05 -9.970467E+03 -1.801818E+04  3.559817E+03  5.767673E+03  9.183504E+02
       169   2 -4.734827E+05 -1.105561E+04 -2.555893E+04  3.774706E+02  1.244577E+04  1.317943E+03
       169   3 -4.861212E+05 -2.651928E+04 -4.105217E+04  7.370437E+03  1.912401E+04  1.514087E+03
       169   4 -4.232887E+05  5.093506E+02 -7.724496E+03  4.897541E+03  5.956028E+03  9.186798E+02
       169   5 -4.210460E+05  1.992778E+03 -1.276795E+04 -1.808254E+02  1.255653E+04  1.318107E+03
       169   6 -4.232920E+05 -1.088819E+04 -2.570947E+04  4.916126E+03  1.915729E+04  1.514054E+03
       169   7 -3.812292E+05  1.098904E+04  2.569059E+03  6.235355E+03  6.144397E+03  9.190099E+02
       169   8 -3.686068E+05  1.504096E+04  2.283696E+01 -7.391697E+02  1.266731E+04  1.318271E+03
       169   9 -3.604591E+05  4.742627E+03 -1.036705E+04  2.461564E+03  1.919058E+04  1.514020E+03
       169  10 -4.653465E+05 -9.970477E+03 -1.801824E+04  3.559812E+03 -5.067114E-10  4.551320E-09
       169  11 -4.734829E+05 -1.105565E+04 -2.555922E+04  3.774574E+02  6.994743E-12  2.238799E-09
       169  12 -4.861216E+05 -2.651938E+04 -4.105286E+04  7.370414E+03  1.126060E-09  3.117397E-09
       169  13 -4.232887E+05  5.093402E+02 -7.724564E+03  4.897536E+03  3.063928E-09 -9.049753E-10
       169  14 -4.210462E+05  1.992734E+03 -1.276825E+04 -1.808387E+02  6.006617E-09  3.305400E-10
       169  15 -4.232924E+05 -1.088829E+04 -2.571016E+04  4.916103E+03  9.593359E-10 -5.689037E-10
       169  16 -3.812293E+05  1.098903E+04  2.568986E+03  6.235351E+03  2.075458E-09  2.992145E-09
       169  17 -3.686070E+05  1.504092E+04  2.253198E+01 -7.391831E+02  1.653494E-09  8.346892E-10
       169  18 -3.604595E+05  4.742526E+03 -1.036775E+04  2.461541E+03 -2.097962E-09 -3.186946E-09
       169  19 -4.653465E+05 -9.970467E+03 -1.801818E+04  3.559817E+03 -5.767673E+03 -9.183504E+02
       169  20 -4.734827E+05 -1.105561E+04 -2.555893E+04  3.774706E+02 -1.244577E+04 -1.317943E+03
       169  21 -4.861212E+05 -2.651928E+04 -4.105217E+04  7.370437E+03 -1.912401E+04 -1.514087E+03
       169  22 -4.232887E+05  5.093506E+02 -7.724496E+03  4.897541E+03 -5.956028E+03 -9.186798E+02
       169  23 -4.210460E+05  1.992778E+03 -1.276795E+04 -1.808254E+02 -1.255653E+04 -1.318107E+03
       169  24 -4.232920E+05 -1.088819E+04 -2.570947E+04  4.916126E+03 -1.915729E+04 -1.514054E+03
       169  25 -3.812292E+05  1.098904E+04  2.569059E+03  6.235355E+03 -6.144397E+03 -9.190099E+02
       169  26 -3.686068E+05  1.504096E+04  2.283696E+01 -7.391697E+02 -1.266731E+04 -1.318271E+03
       169  27 -3.604591E+05  4.742627E+03 -1.036705E+04  2.461564E+03 -1.919058E+04 -1.514020E+03
       170   1 -5.118838E+05 -1.646207E+04 -5.142103E+04 -5.261063E+03  2.359074E+04  2.040942E+03
       170   2 -5.057841E+05 -7.037445E+03 -7.163957E+04  5.859288E+03  5.100978E+04  2.511740E+03
       170   3 -5.324076E+05 -1.141046E+05 -1.388456E+05  2.702800E+04  7.843195E+04  9.587586E+02
       170   4 -4.295315E+05  4.076361E+03 -3.131480E+04  4.831098E+03  2.414537E+04  2.042187E+03
       170   5 -4.132486E+05  1.596361E+04 -4.910638E+04 -1.256950E+02  5.079076E+04  2.510884E+03
       170   6 -4.295496E+05 -8.849802E+04 -1.133429E+05  4.966197E+03  7.743977E+04  9.545133E+02
       170   7 -3.471727E+05  2.461467E+04 -1.120900E+04  1.492460E+04  2.470007E+04  2.043450E+03
       170   8 -3.207051E+05  3.896417E+04 -2.657380E+04 -6.111576E+03  5.057171E+04  2.510033E+03
       170   9 -3.266810E+05 -6.289042E+04 -8.784071E+04 -1.709927E+04  7.644741E+04  9.503391E+02
       170  10 -5.118844E+05 -1.646222E+04 -5.142209E+04 -5.261102E+03  1.690959E-09  2.311522E-09
       170  11 -5.057869E+05 -7.038151E+03 -7.164447E+04  5.859185E+03 -2.131248E-09 -7.683265E-11
       170  12 -5.324142E+05 -1.141062E+05 -1.388572E+05  2.702794E+04  6.623352E-10 -1.076194E-10
       170  13 -4.295321E+05  4.076199E+03 -3.131590E+04  4.831059E+03  5.542116E-10  2.811036E-09
       170  14 -4.132513E+05  1.596291E+04 -4.911125E+04 -1.257977E+02  2.044457E-09 -2.913805E-09
       170  15 -4.295561E+05 -8.849963E+04 -1.133542E+05  4.966138E+03 -9.770422E-10  1.991093E-09
       170  16 -3.471734E+05  2.461450E+04 -1.121015E+04  1.492456E+04  1.898242E-09  8.935427E-10
       170  17 -3.207078E+05  3.896348E+04 -2.657862E+04 -6.111678E+03  1.994695E-09  1.281920E-09
       170  18 -3.266873E+05 -6.289199E+04 -8.785170E+04 -1.709933E+04 -2.100423E-09 -8.869843E-10
       170  19 -5.118838E+05 -1.646207E+04 -5.142103E+04 -5.261063E+03 -2.359074E+04 -2.040942E+03
       170  20 -5.057841E+05 -7.037445E+03 -7.163957E+04  5.859288E+03 -5.100978E+04 -2.511740E+03
       170  21 -5.324076E+05 -1.141046E+05 -1.388456E+05  2.702800E+04 -7.843195E+04 -9.587586E+02
       170  22 -4.295315E+05  4.076361E+03 -3.131480E+04  4.831098E+03 -2.414537E+04 -2.042187E+03
       170  23 -4.132486E+05  1.596361E+04 -4.910638E+04 -1.256950E+02 -5.079076E+04 -2.510884E+03
       170  24 -4.295496E+05 -8.849802E+04 -1.133429E+05  4.966197E+03 -7.743977E+04 -9.545133E+02
       170  25 -3.471727E+05  2.461467E+04 -1.120900E+04  1.492460E+04 -2.470007E+04 -2.043450E+03
       170  26 -3.207051E+05  3.896417E+04 -2.657380E+04 -6.111576E+03 -5.057171E+04 -2.510033E+03
       170  27 -3.266810E+05 -6.289042E+04 -8.784071E+04 -1.709927E+04 -7.644741E+04 -9.503391E+02
       171   1  1.714446E+05  9.536937E+05  1.835500E+05 -9.364735E+04  4.758819E+03  6.375084E+04
       171   2  7.802272E+04  8.432922E+05  1.126967E+05 -5.199219E+04  1.376152E+04  3.269260E+04
       171   3  5.192475E+04  7.537162E+05  7.886606E+04 -5.350100E+04  1.106593E+04  1.630180E+03
       171   4  6.594046E+04  5.293817E+05  8.025855E+04 -6.278610E+04  4.772133E+03  5.090711E+04
       171   5 -1.243799E+03  5.198620E+05  3.965603E+04 -4.123310E+04  1.376494E+04  2.997973E+04
       171   6 -2.841366E+03  5.294165E+05  2.906259E+04 -6.284205E+04  1.105876E+04  9.043038E+03
       171   7 -3.957324E+04  1.052362E+05 -2.304488E+04 -3.194593E+04  4.784177E+03  3.807211E+04
       171   8 -8.051707E+04  1.965291E+05 -3.339127E+04 -3.047963E+04  1.376828E+04  2.726825E+04
       171   9 -5.761052E+04  3.051640E+05 -2.074375E+04 -7.217968E+04  1.105136E+04  1.645325E+04
       171  10  1.714434E+05  9.536893E+05  1.835424E+05 -9.364759E+04  3.799315E-11  5.497298E-11
       171  11  7.802223E+04  8.432910E+05  1.126943E+05 -5.199255E+04  2.282991E-09 -1.720397E-09
       171  12  5.192462E+04  7.537162E+05  7.886582E+04 -5.350102E+04 -2.404293E-09 -5.507159E-10
       171  13  6.593975E+04  5.293789E+05  8.025364E+04 -6.278630E+04 -3.835939E-09  6.184504E-10
       171  14 -1.244243E+03  5.198609E+05  3.965398E+04 -4.123343E+04 -8.588837E-10  8.375051E-10
       171  15 -2.841519E+03  5.294164E+05  2.906221E+04 -6.284213E+04 -1.252241E-09  9.783242E-10
       171  16 -3.957366E+04  1.052346E+05 -2.304764E+04 -3.194608E+04 -1.049825E-09  3.692722E-10
       171  17 -8.051747E+04  1.965283E+05 -3.339302E+04 -3.047994E+04  1.667039E-09 -2.047948E-10
       171  18 -5.761072E+04  3.051637E+05 -2.074449E+04 -7.217983E+04 -8.423025E-10 -1.494595E-09
       171  19  1.714446E+05  9.536937E+05  1.835500E+05 -9.364735E+04 -4.758819E+03 -6.375084E+04
       171  20  7.802272E+04  8.432922E+05  1.126967E+05 -5.199219E+04 -1.376152E+04 -3.269260E+04
       171  21  5.192475E+04  7.537162E+05  7.886606E+04 -5.350100E+04 -1.106593E+04 -1.630180E+03
       171  22  6.594046E+04  5.293817E+05  8.025855E+04 -6.278610E+04 -4.772133E+03 -5.090711E+04
       171  23 -1.243799E+03  5.198620E+05  3.965603E+04 -4.123310E+04 -1.376494E+04 -2.997973E+04
       171  24 -2.841366E+03  5.294165E+05  2.906259E+04 -6.284205E+04 -1.105876E+04 -9.043038E+03
       171  25 -3.957324E+04  1.052362E+05 -2.304488E+04 -3.194593E+04 -4.784177E+03 -3.807211E+04
       171  26 -8.051707E+04  1.965291E+05 -3.339127E+04 -3.047963E+04 -1.376828E+04 -2.726825E+04
       171  27 -5.761052E+04  3.051640E+05 -2.074375E+04 -7.217968E+04 -1.105136E+04 -1.645325E+04
       172   1  3.774027E+04  6.661267E+05  5.862075E+04 -6.590102E+04  6.716375E+03  3.313224E+02
       172   2  9.367507E+03  5.639625E+05  3.671969E+04 -4.081835E+04  1.998118E+03 -1.374293E+04
       172   3 -6.564193E+03  4.666471E+05  2.706205E+04 -5.931483E+04 -2.809221E+03 -2.781543E+04
       172   4  3.543851E+03  5.262542E+05  2.745340E+04 -6.291990E+04  6.712269E+03  4.384360E+03
       172   5 -4.326297E+02  5.238414E+05  2.781161E+04 -4.112818E+04  1.993851E+03 -9.611895E+03
       172   6  8.019328E+03  5.262543E+05  4.035991E+04 -6.291525E+04 -2.813537E+03 -2.360859E+04
       172   7 -3.065385E+04  3.864000E+05 -3.715103E+03 -5.993945E+04  6.708201E+03  8.436495E+03
       172   8 -1.023287E+04  4.837219E+05  1.890349E+04 -4.143799E+04  1.989580E+03 -5.481125E+03
       172   9  2.260266E+04  5.858649E+05  5.365761E+04 -6.651602E+04 -2.817903E+03 -1.940135E+04
       172  10  3.774022E+04  6.661267E+05  5.862066E+04 -6.590103E+04 -7.627662E-10 -3.449307E-09
       172  11  9.367452E+03  5.639623E+05  3.671933E+04 -4.081833E+04  4.384404E-09 -4.267457E-09
       172  12 -6.564409E+03  4.666463E+05  2.706058E+04 -5.931490E+04 -2.019439E-09 -2.529646E-10
       172  13  3.543798E+03  5.262542E+05  2.745328E+04 -6.291992E+04 -4.986596E-09  9.447644E-10
       172  14 -4.326588E+02  5.238413E+05  2.781143E+04 -4.112817E+04 -4.633346E-09  7.709198E-10
       172  15  8.019170E+03  5.262537E+05  4.035885E+04 -6.291531E+04  1.369668E-09  8.878821E-10
       172  16 -3.065392E+04  3.863999E+05 -3.715322E+03 -5.993950E+04 -4.961553E-09  3.964066E-09
       172  17 -1.023288E+04  4.837219E+05  1.890343E+04 -4.143799E+04 -8.112765E-09  1.909985E-09
       172  18  2.260256E+04  5.858645E+05  5.365689E+04 -6.651606E+04 -3.605026E-09 -1.625843E-09
       172  19  3.774027E+04  6.661267E+05  5.862075E+04 -6.590102E+04 -6.716375E+03 -3.313224E+02
       172  20  9.367507E+03  5.639625E+05  3.671969E+04 -4.081835E+04 -1.998118E+03  1.374293E+04
       172  21 -6.564193E+03  4.666471E+05  2.706205E+04 -5.931483E+04  2.809221E+03  2.781543E+04
       172  22  3.543851E+03  5.262542E+05  2.745340E+04 -6.291990E+04 -6.712269E+03 -4.384360E+03
       172  23 -4.326297E+02  5.238414E+05  2.781161E+04 -4.112818E+04 -1.993851E+03  9.611895E+03
       172  24  8.019328E+03  5.262543E+05  4.035991E+04 -6.291525E+04  2.813537E+03  2.360859E+04
       172  25 -3.065385E+04  3.864000E+05 -3.715103E+03 -5.993945E+04 -6.708201E+03 -8.436495E+03
       172  26 -1.023287E+04  4.837219E+05  1.890349E+04 -4.143799E+04 -1.989580E+03  5.481125E+03
       172  27  2.260266E+04  5.858649E+05  5.365761E+04 -6.651602E+04  2.817903E+03  1.940135E+04
       173   1 -4.185282E+04  3.899377E+05  1.608578E+04 -8.275324E+04 -6.962998E+03 -3.766807E+04
       173   2 -6.218810E+04  2.712037E+05  2.195135E+04 -1.932261E+04 -1.012773E+04 -7.010431E+04
       173   3  5.195150E+04  1.902619E+05  8.253869E+04  9.273404E+02 -3.625919E+03 -1.025258E+05
       173   4 -6.720896E+03  5.338976E+05  4.810674E+04 -6.286302E+04 -6.971357E+03 -3.073486E+04
       173   5 -2.544034E+03  5.142695E+05  7.696677E+04 -4.121161E+04 -1.012364E+04 -7.154378E+04
       173   6  1.375235E+05  5.338496E+05  1.663407E+05 -6.273433E+04 -3.606707E+03 -1.123435E+05
       173   7  2.841115E+04  6.778777E+05  8.012681E+04 -4.296813E+04 -6.979271E+03 -2.380007E+04
       173   8  5.709776E+04  7.573912E+05  1.319786E+05 -6.310924E+04 -1.011944E+04 -7.298382E+04
       173   9  2.231020E+05  8.775537E+05  2.501366E+05 -1.264313E+05 -3.585491E+03 -1.221666E+05
       173  10 -4.185326E+04  3.899362E+05  1.608302E+04 -8.275345E+04  5.639217E-10  1.044144E-09
       173  11 -6.218953E+04  2.711984E+05  2.194192E+04 -1.932319E+04  1.609616E-09 -3.063854E-09
       173  12  5.194867E+04  1.902506E+05  8.251891E+04  9.270411E+02  9.585099E-10 -2.842918E-09
       173  13 -6.721201E+03  5.338965E+05  4.810488E+04 -6.286319E+04  3.032330E-09  1.231714E-09
       173  14 -2.545517E+03  5.142640E+05  7.695697E+04 -4.121220E+04  2.498161E-09  1.167424E-09
       173  15  1.375201E+05  5.338360E+05  1.663169E+05 -6.273465E+04  1.697057E-09  1.133403E-09
       173  16  2.841094E+04  6.778771E+05  8.012565E+04 -4.296827E+04 -5.140992E-10 -5.625575E-10
       173  17  5.709622E+04  7.573855E+05  1.319685E+05 -6.310984E+04  1.857012E-09  1.130866E-09
       173  18  2.230980E+05  8.775377E+05  2.501085E+05 -1.264316E+05  2.338272E-09  1.453545E-09
       173  19 -4.185282E+04  3.899377E+05  1.608578E+04 -8.275324E+04  6.962998E+03  3.766807E+04
       173  20 -6.218810E+04  2.712037E+05  2.195135E+04 -1.932261E+04  1.012773E+04  7.010431E+04
       173  21  5.195150E+04  1.902619E+05  8.253869E+04  9.273404E+02  3.625919E+03  1.025258E+05
       173  22 -6.720896E+03  5.338976E+05  4.810674E+04 -6.286302E+04  6.971357E+03  3.073486E+04
       173  23 -2.544034E+03  5.142695E+05  7.696677E+04 -4.121161E+04  1.012364E+04  7.154378E+04
       173  24  1.375235E+05  5.338496E+05  1.663407E+05 -6.273433E+04  3.606707E+03  1.123435E+05
       173  25  2.841115E+04  6.778777E+05  8.012681E+04 -4.296813E+04  6.979271E+03  2.380007E+04
       173  26  5.709776E+04  7.573912E+05  1.319786E+05 -6.310924E+04  1.011944E+04  7.298382E+04
       173  27  2.231020E+05  8.775537E+05  2.501366E+05 -1.264313E+05  3.585491E+03  1.221666E+05
       174   1  4.879677E+04  1.905386E+04 -4.543396E+02 -9.129844E+03 -5.525334E+04 -4.144195E+03
       174   2  2.822517E+04  9.191278E+04  3.938986E+04 -7.050465E+02 -3.876955E+04 -1.235814E+04
       174   3 -1.567138E+04  7.998938E+04  4.732211E+04  2.767078E+04 -2.230052E+04 -1.167830E+04
       174   4 -3.228884E+05 -7.346841E+04 -9.178327E+04  1.692563E+04 -6.283855E+04 -4.158044E+03
       174   5 -3.107477E+05  8.150587E+03 -4.055771E+04  6.888750E+03 -4.103005E+04 -1.236284E+04
       174   6 -3.228720E+05  4.036159E+03 -2.495646E+04  1.680409E+04 -1.923521E+04 -1.167268E+04
       174   7 -6.944462E+05 -1.659983E+05 -1.831218E+05  4.296543E+04 -7.041921E+04 -4.172534E+03
       174   8 -6.496147E+05 -7.561960E+04 -1.205132E+05  1.447833E+04 -4.328931E+04 -1.236760E+04
       174   9 -6.299856E+05 -7.192337E+04 -9.724143E+04  5.942765E+03 -1.617141E+04 -1.166717E+04
       174  10  4.879349E+04  1.905302E+04 -4.601086E+02 -9.130028E+03 -3.598563E-09  3.954534E-10
       174  11  2.822351E+04  9.191221E+04  3.938675E+04 -7.054323E+02 -8.383606E-10  4.268581E-09
       174  12 -1.567195E+04  7.998910E+04  4.732092E+04  2.767057E+04 -1.019220E-09  2.297482E-09
       174  13 -3.228926E+05 -7.346949E+04 -9.179072E+04  1.692542E+04 -1.154377E-09 -1.113015E-09
       174  14 -3.107495E+05  8.149971E+03 -4.056116E+04  6.888342E+03  2.902083E-09 -5.547140E-09
       174  15 -3.228725E+05  4.035913E+03 -2.495742E+04  1.680391E+04 -1.147185E-09 -2.166239E-10
       174  16 -6.944515E+05 -1.659997E+05 -1.831311E+05  4.296520E+04  2.321180E-09 -5.097653E-10
       174  17 -6.496167E+05 -7.562026E+04 -1.205170E+05  1.447790E+04  2.865745E-09  5.434179E-09
       174  18 -6.299859E+05 -7.192358E+04 -9.724218E+04  5.942613E+03 -2.882691E-09  5.953559E-11
       174  19  4.879677E+04  1.905386E+04 -4.543396E+02 -9.129844E+03  5.525334E+04  4.144195E+03
       174  20  2.822517E+04  9.191278E+04  3.938986E+04 -7.050465E+02  3.876955E+04  1.235814E+04
       174  21 -1.567138E+04  7.998938E+04  4.732211E+04  2.767078E+04  2.230052E+04  1.167830E+04
       174  22 -3.228884E+05 -7.346841E+04 -9.178327E+04  1.692563E+04  6.283855E+04  4.158044E+03
       174  23 -3.107477E+05  8.150587E+03 -4.055771E+04  6.888750E+03  4.103005E+04  1.236284E+04
       174  24 -3.228720E+05  4.036159E+03 -2.495646E+04  1.680409E+04  1.923521E+04  1.167268E+04
       174  25 -6.944462E+05 -1.659983E+05 -1.831218E+05  4.296543E+04  7.041921E+04  4.172534E+03
       174  26 -6.496147E+05 -7.561960E+04 -1.205132E+05  1.447833E+04  4.328931E+04  1.236760E+04
       174  27 -6.299856E+05 -7.192337E+04 -9.724143E+04  5.942765E+03  1.617141E+04  1.166717E+04
       175   1 -4.713977E+04  6.035302E+04  4.373602E+04  1.522232E+04 -1.580545E+04 -9.658689E+03
       175   2 -7.820573E+04  5.976572E+04  4.572730E+04  6.599029E+03 -1.078818E+04 -8.793784E+03
       175   3 -1.119212E+05  5.141519E+04  4.249976E+04  1.829650E+04 -5.772862E+03 -7.387378E+03
       175   4 -3.180788E+05 -6.633470E+03 -2.024937E+04  1.693286E+04 -1.545029E+04 -9.658343E+03
       175   5 -3.167220E+05  8.113041E+02 -1.048767E+04  6.765203E+03 -1.011027E+04 -8.792642E+03
       175   6 -3.180735E+05  4.349073E+02 -6.170808E+03  1.691890E+04 -4.771954E+03 -7.385367E+03
       175   7 -5.889504E+05 -7.362520E+04 -8.423984E+04  1.864262E+04 -1.509527E+04 -9.657995E+03
       175   8 -5.551860E+05 -5.814718E+04 -6.670657E+04  6.931286E+03 -9.432619E+03 -8.791499E+03
       175   9 -5.241868E+05 -5.054841E+04 -5.484431E+04  1.554173E+04 -3.771376E+03 -7.383361E+03
       175  10 -4.714006E+04  6.035285E+04  4.373538E+04  1.522219E+04 -9.480267E-10 -8.147774E-10
       175  11 -7.820587E+04  5.976561E+04  4.572693E+04  6.598953E+03 -5.609382E-10  3.009017E-10
       175  12 -1.119212E+05  5.141512E+04  4.249960E+04  1.829647E+04  6.205444E-09  6.976687E-09
       175  13 -3.180791E+05 -6.633634E+03 -2.024999E+04  1.693274E+04  7.725273E-10  4.947266E-09
       175  14 -3.167222E+05  8.111937E+02 -1.048801E+04  6.765131E+03 -3.615215E-09 -1.737523E-08
       175  15 -3.180736E+05  4.348426E+02 -6.170954E+03  1.691887E+04  2.591798E-09  2.548046E-09
       175  16 -5.889507E+05 -7.362536E+04 -8.424044E+04  1.864250E+04  2.319426E-09 -5.424069E-09
       175  17 -5.551861E+05 -5.814729E+04 -6.670688E+04  6.931219E+03 -3.690279E-09 -4.053848E-09
       175  18 -5.241868E+05 -5.054847E+04 -5.484444E+04  1.554171E+04 -4.974243E-09  1.934218E-09
       175  19 -4.713977E+04  6.035302E+04  4.373602E+04  1.522232E+04  1.580545E+04  9.658689E+03
       175  20 -7.820573E+04  5.976572E+04  4.572730E+04  6.599029E+03  1.078818E+04  8.793784E+03
       175  21 -1.119212E+05  5.141519E+04  4.249976E+04  1.829650E+04  5.772862E+03  7.387378E+03
       175  22 -3.180788E+05 -6.633470E+03 -2.024937E+04  1.693286E+04  1.545029E+04  9.658343E+03
       175  23 -3.167220E+05  8.113041E+02 -1.048767E+04  6.765203E+03  1.011027E+04  8.792642E+03
       175  24 -3.180735E+05  4.349073E+02 -6.170808E+03  1.691890E+04  4.771954E+03  7.385367E+03
       175  25 -5.889504E+05 -7.362520E+04 -8.423984E+04  1.864262E+04  1.509527E+04  9.657995E+03
       175  26 -5.551860E+05 -5.814718E+04 -6.670657E+04  6.931286E+03  9.432619E+03  8.791499E+03
       175  27 -5.241868E+05 -5.054841E+04 -5.484431E+04  1.554173E+04  3.771376E+03  7.383361E+03
       176   1 -1.478920E+05  4.140142E+04  3.510431E+04  1.712667E+04 -4.645851E+03 -6.472270E+03
       176   2 -1.802474E+05  3.400279E+04  2.965762E+04  6.962894E+03 -3.343534E+03 -5.055742E+03
       176   3 -2.130302E+05  2.597412E+04  2.318331E+04  1.725269E+04 -2.041705E+03 -3.604408E+03
       176   4 -3.175642E+05 -5.226372E+02 -4.800344E+03  1.695356E+04 -3.807611E+03 -6.470530E+03
       176   5 -3.173472E+05  1.122715E+02 -2.654869E+03  6.725915E+03 -2.484760E+03 -5.053860E+03
       176   6 -3.175618E+05  1.136361E+02 -1.551344E+03  1.695213E+04 -1.162330E+03 -3.602375E+03
       176   7 -4.872099E+05 -4.244875E+04 -4.470697E+04  1.678048E+04 -2.969599E+03 -6.468791E+03
       176   8 -4.544297E+05 -3.377959E+04 -3.496865E+04  6.488979E+03 -1.626175E+03 -5.051977E+03
       176   9 -4.220833E+05 -2.574763E+04 -2.628676E+04  1.665161E+04 -2.831021E+02 -3.600343E+03
       176  10 -1.478920E+05  4.140137E+04  3.510419E+04  1.712665E+04  7.352828E-10 -1.686909E-09
       176  11 -1.802474E+05  3.400276E+04  2.965755E+04  6.962880E+03  1.658877E-09 -6.213166E-09
       176  12 -2.130302E+05  2.597410E+04  2.318328E+04  1.725269E+04  2.935423E-09 -5.980864E-10
       176  13 -3.175642E+05 -5.226861E+02 -4.800450E+03  1.695354E+04  1.184378E-09 -3.839293E-09
       176  14 -3.173472E+05  1.122424E+02 -2.654929E+03  6.725905E+03  2.134930E-09 -5.051079E-09
       176  15 -3.175618E+05  1.136218E+02 -1.551371E+03  1.695212E+04 -9.997999E-10 -3.284251E-09
       176  16 -4.872100E+05 -4.244879E+04 -4.470707E+04  1.678047E+04 -1.343713E-09 -1.446811E-09
       176  17 -4.544297E+05 -3.377962E+04 -3.496871E+04  6.488973E+03 -3.474513E-09  2.127743E-09
       176  18 -4.220833E+05 -2.574765E+04 -2.628678E+04  1.665161E+04 -1.699179E-09  5.245334E-09
       176  19 -1.478920E+05  4.140142E+04  3.510431E+04  1.712667E+04  4.645851E+03  6.472270E+03
       176  20 -1.802474E+05  3.400279E+04  2.965762E+04  6.962894E+03  3.343534E+03  5.055742E+03
       176  21 -2.130302E+05  2.597412E+04  2.318331E+04  1.725269E+04  2.041705E+03  3.604408E+03
       176  22 -3.175642E+05 -5.226372E+02 -4.800344E+03  1.695356E+04  3.807611E+03  6.470530E+03
       176  23 -3.173472E+05  1.122715E+02 -2.654869E+03  6.725915E+03  2.484760E+03  5.053860E+03
       176  24 -3.175618E+05  1.136361E+02 -1.551344E+03  1.695213E+04  1.162330E+03  3.602375E+03
       176  25 -4.872099E+05 -4.244875E+04 -4.470697E+04  1.678048E+04  2.969599E+03  6.468791E+03
       176  26 -4.544297E+05 -3.377959E+04 -3.496865E+04  6.488979E+03  1.626175E+03  5.051977E+03
       176  27 -4.220833E+05 -2.574763E+04 -2.628676E+04  1.665161E+04  2.831021E+02  3.600343E+03
       177   1 -2.496017E+05  1.679728E+04  1.470595E+04  1.709594E+04 -1.787635E+03 -2.753840E+03
       177   2 -2.821777E+05  8.756921E+03  7.592258E+03  6.785483E+03 -1.438301E+03 -1.301282E+03
       177   3 -3.149122E+05  7.441816E+02  2.314915E+02  1.698313E+04 -1.089086E+03  1.536857E+02
       177   4 -3.174997E+05  3.185845E+01 -1.199912E+03  1.696472E+04 -9.175489E+02 -2.751787E+03
       177   5 -3.174195E+05  4.466617E+01 -7.142222E+02  6.710570E+03 -5.668261E+02 -1.299202E+03
       177   6 -3.174991E+05  8.491443E+01 -4.765491E+02  1.696459E+04 -2.162034E+02  1.557971E+02
       177   7 -3.853935E+05 -1.673389E+04 -1.710608E+04  1.683351E+04 -4.755772E+01 -2.749734E+03
       177   8 -3.526602E+05 -8.667677E+03 -9.020785E+03  6.635660E+03  3.045997E+02 -1.297122E+03
       177   9 -3.200861E+05 -5.743529E+02 -1.184587E+03  1.694606E+04  6.566754E+02  1.579085E+02
       177  10 -2.496017E+05  1.679727E+04  1.470593E+04  1.709594E+04  3.332936E-09 -3.984827E-09
       177  11 -2.821777E+05  8.756919E+03  7.592251E+03  6.785482E+03 -4.276374E-09  7.246419E-10
       177  12 -3.149122E+05  7.441813E+02  2.314892E+02  1.698313E+04 -4.448749E-09  9.068758E-11
       177  13 -3.174997E+05  3.185009E+01 -1.199928E+03  1.696472E+04  1.271260E-09  4.655956E-10
       177  14 -3.174195E+05  4.466427E+01 -7.142260E+02  6.710569E+03  2.188715E-09 -2.871354E-09
       177  15 -3.174991E+05  8.491439E+01 -4.765492E+02  1.696459E+04  9.095984E-10 -4.088691E-09
       177  16 -3.853935E+05 -1.673390E+04 -1.710610E+04  1.683351E+04 -5.045213E-09  2.746998E-09
       177  17 -3.526602E+05 -8.667679E+03 -9.020788E+03  6.635660E+03  1.703382E-09  7.717219E-09
       177  18 -3.200861E+05 -5.743530E+02 -1.184588E+03  1.694606E+04  1.420102E-09 -1.048527E-09
       177  19 -2.496017E+05  1.679728E+04  1.470595E+04  1.709594E+04  1.787635E+03  2.753840E+03
       177  20 -2.821777E+05  8.756921E+03  7.592258E+03  6.785483E+03  1.438301E+03  1.301282E+03
       177  21 -3.149122E+05  7.441816E+02  2.314915E+02  1.698313E+04  1.089086E+03 -1.536857E+02
       177  22 -3.174997E+05  3.185845E+01 -1.199912E+03  1.696472E+04  9.175489E+02  2.751787E+03
       177  23 -3.174195E+05  4.466617E+01 -7.142222E+02  6.710570E+03  5.668261E+02  1.299202E+03
       177  24 -3.174991E+05  8.491443E+01 -4.765491E+02  1.696459E+04  2.162034E+02 -1.557971E+02
       177  25 -3.853935E+05 -1.673389E+04 -1.710608E+04  1.683351E+04  4.755772E+01  2.749734E+03
       177  26 -3.526602E+05 -8.667677E+03 -9.020785E+03  6.635660E+03 -3.045997E+02  1.297122E+03
       177  27 -3.200861E+05 -5.743529E+02 -1.184587E+03  1.694606E+04 -6.566754E+02 -1.579085E+02
       178   1 -3.515754E+05 -8.364506E+03 -8.548316E+03  1.690118E+04 -1.010485E+03  1.001094E+03
       178   2 -3.841498E+05 -1.645704E+04 -1.611458E+04  6.594773E+03 -8.200243E+02  2.455298E+03
       178   3 -4.168483E+05 -2.448344E+04 -2.381407E+04  1.678712E+04 -6.293901E+02  3.906371E+03
       178   4 -3.174918E+05  8.137405E+01 -4.161860E+02  1.696250E+04 -1.376922E+02  1.003198E+03
       178   5 -3.174296E+05  3.794897E+01 -3.877631E+02  6.713215E+03  5.087736E+01  2.457346E+03
       178   6 -3.174928E+05  6.093019E+01 -4.913079E+02  1.696254E+04  2.396304E+02  3.908367E+03
       178   7 -2.834071E+05  8.527170E+03  7.715865E+03  1.702382E+04  7.351483E+02  1.005301E+03
       178   8 -2.507054E+05  1.653262E+04  1.533875E+04  6.831668E+03  9.218721E+02  2.459395E+03
       178   9 -2.181282E+05  2.460460E+04  2.283078E+04  1.713799E+04  1.108789E+03  3.910365E+03
       178  10 -3.515754E+05 -8.364507E+03 -8.548320E+03  1.690118E+04 -3.136800E-09 -5.140512E-10
       178  11 -3.841498E+05 -1.645704E+04 -1.611460E+04  6.594775E+03 -2.028133E-09 -2.731471E-09
       178  12 -4.168483E+05 -2.448346E+04 -2.381410E+04  1.678712E+04 -3.096128E-09  6.726081E-10
       178  13 -3.174918E+05  8.137296E+01 -4.161879E+02  1.696250E+04  1.073579E-09  3.483664E-09
       178  14 -3.174296E+05  3.794248E+01 -3.877745E+02  6.713215E+03  3.052235E-09 -1.874125E-09
       178  15 -3.174928E+05  6.091377E+01 -4.913368E+02  1.696254E+04  1.359407E-09 -3.841945E-10
       178  16 -2.834071E+05  8.527169E+03  7.715862E+03  1.702382E+04  2.197061E-09 -1.231074E-09
       178  17 -2.507054E+05  1.653261E+04  1.533874E+04  6.831666E+03  5.025293E-09 -1.001506E-08
       178  18 -2.181282E+05  2.460458E+04  2.283075E+04  1.713799E+04  4.596919E-09 -8.407294E-09
       178  19 -3.515754E+05 -8.364506E+03 -8.548316E+03  1.690118E+04  1.010485E+03 -1.001094E+03
       178  20 -3.841498E+05 -1.645704E+04 -1.611458E+04  6.594773E+03  8.200243E+02 -2.455298E+03
       178  21 -4.168483E+05 -2.448344E+04 -2.381407E+04  1.678712E+04  6.293901E+02 -3.906371E+03
       178  22 -3.174918E+05  8.137405E+01 -4.161860E+02  1.696250E+04  1.376922E+02 -1.003198E+03
       178  23 -3.174296E+05  3.794897E+01 -3.877631E+02  6.713215E+03 -5.087736E+01 -2.457346E+03
       178  24 -3.174928E+05  6.093019E+01 -4.913079E+02  1.696254E+04 -2.396304E+02 -3.908367E+03
       178  25 -2.834071E+05  8.527170E+03  7.715865E+03  1.702382E+04 -7.351483E+02 -1.005301E+03
       178  26 -2.507054E+05  1.653262E+04  1.533875E+04  6.831668E+03 -9.218721E+02 -2.459395E+03
       178  27 -2.181282E+05  2.460460E+04  2.283078E+04  1.713799E+04 -1.108789E+03 -3.910365E+03
       179   1 -4.534556E+05 -3.354092E+04 -3.273281E+04  1.667035E+04 -5.441609E+02  4.756151E+03
       179   2 -4.858737E+05 -4.159540E+04 -4.065081E+04  6.455924E+03 -5.562425E+01  6.203782E+03
       179   3 -5.184852E+05 -4.981111E+04 -4.894745E+04  1.666110E+04  4.334238E+02  7.613549E+03
       179   4 -3.175094E+05  8.964637E+01 -5.896374E+02  1.694473E+04  3.346439E+02  4.758112E+03
       179   5 -3.174158E+05  5.434147E+01 -9.403831E+02  6.735348E+03  8.005757E+02  6.205568E+03
       179   6 -3.175121E+05 -1.380231E+02 -1.653790E+03  1.694522E+04  1.267044E+03  7.615168E+03
       179   7 -1.815463E+05  3.371889E+04  3.155226E+04  1.721916E+04  1.213640E+03  4.760074E+03
       179   8 -1.489317E+05  4.170206E+04  3.876809E+04  7.014833E+03  1.657007E+03  6.207354E+03
       179   9 -1.165017E+05  4.953218E+04  4.563710E+04  1.722942E+04  2.100933E+03  7.616787E+03
       179  10 -4.534556E+05 -3.354095E+04 -3.273285E+04  1.667036E+04 -1.325136E-08  4.788972E-10
       179  11 -4.858737E+05 -4.159544E+04 -4.065089E+04  6.455925E+03 -1.265494E-09 -6.380074E-09
       179  12 -5.184853E+05 -4.981117E+04 -4.894756E+04  1.666110E+04  4.872236E-09 -4.625252E-10
       179  13 -3.175094E+05  8.962204E+01 -5.896802E+02  1.694473E+04  3.392867E-09 -2.179530E-09
       179  14 -3.174158E+05  5.429995E+01 -9.404567E+02  6.735344E+03 -4.426952E-09 -9.438913E-10
       179  15 -3.175121E+05 -1.380858E+02 -1.653902E+03  1.694522E+04 -6.557193E-10  8.729994E-10
       179  16 -1.815463E+05  3.371887E+04  3.155221E+04  1.721915E+04  1.228852E-08  4.345876E-10
       179  17 -1.489317E+05  4.170201E+04  3.876802E+04  7.014825E+03  3.311511E-09 -4.647896E-09
       179  18 -1.165017E+05  4.953212E+04  4.563698E+04  1.722941E+04 -3.142125E-09  2.561758E-09
       179  19 -4.534556E+05 -3.354092E+04 -3.273281E+04  1.667035E+04  5.441609E+02 -4.756151E+03
       179  20 -4.858737E+05 -4.159540E+04 -4.065081E+04  6.455924E+03  5.562425E+01 -6.203782E+03
       179  21 -5.184852E+05 -4.981111E+04 -4.894745E+04  1.666110E+04 -4.334238E+02 -7.613549E+03
       179  22 -3.175094E+05  8.964637E+01 -5.896374E+02  1.694473E+04 -3.346439E+02 -4.758112E+03
       179  23 -3.174158E+05  5.434147E+01 -9.403831E+02  6.735348E+03 -8.005757E+02 -6.205568E+03
       179  24 -3.175121E+05 -1.380231E+02 -1.653790E+03  1.694522E+04 -1.267044E+03 -7.615168E+03
       179  25 -1.815463E+05  3.371889E+04  3.155226E+04  1.721916E+04 -1.213640E+03 -4.760074E+03
       179  26 -1.489317E+05  4.170206E+04  3.876809E+04  7.014833E+03 -1.657007E+03 -6.207354E+03
       179  27 -1.165017E+05  4.953218E+04  4.563710E+04  1.722942E+04 -2.100933E+03 -7.616787E+03
       180   1 -5.550497E+05 -5.851900E+04 -5.815389E+04  1.618381E+04  5.881266E+02  8.530728E+03
       180   2 -5.868505E+05 -6.638566E+04 -6.714904E+04  6.569584E+03  2.757777E+03  9.924794E+03
       180   3 -6.196397E+05 -7.692005E+04 -7.823379E+04  1.722154E+04  4.929044E+03  1.073499E+04
       180   4 -3.176802E+05  1.893066E+02 -2.113231E+03  1.690939E+04  1.596776E+03  8.532603E+03
       180   5 -3.172185E+05  2.822472E+02 -3.580888E+03  6.778816E+03  3.417067E+03  9.925776E+03
       180   6 -3.176849E+05 -2.231074E+03 -6.894702E+03  1.691391E+04  5.239086E+03  1.073519E+04
       180   7 -8.025889E+04  5.889358E+04  5.392354E+04  1.763523E+04  2.605808E+03  8.534480E+03
       180   8 -4.751953E+04  6.694496E+04  5.998225E+04  6.988107E+03  4.076641E+03  9.926758E+03
       180   9 -1.564617E+04  7.245136E+04  6.443807E+04  1.660608E+04  5.549278E+03  1.073539E+04
       180  10 -5.550497E+05 -5.851908E+04 -5.815403E+04  1.618381E+04 -1.950955E-09 -1.820959E-09
       180  11 -5.868506E+05 -6.638577E+04 -6.714924E+04  6.569562E+03 -3.235439E-10  2.978695E-10
       180  12 -6.196397E+05 -7.692018E+04 -7.823405E+04  1.722150E+04  7.388219E-09 -6.305886E-09
       180  13 -3.176803E+05  1.892277E+02 -2.113373E+03  1.690938E+04  1.322448E-09 -5.419359E-09
       180  14 -3.172185E+05  2.821383E+02 -3.581095E+03  6.778789E+03 -4.616251E-09  2.714244E-09
       180  15 -3.176849E+05 -2.231205E+03 -6.894970E+03  1.691386E+04  1.970722E-09 -4.540349E-09
       180  16 -8.025892E+04  5.889350E+04  5.392339E+04  1.763521E+04  4.391284E-09 -1.692728E-09
       180  17 -4.751958E+04  6.694485E+04  5.998204E+04  6.988075E+03 -2.980199E-09 -7.616237E-09
       180  18 -1.564623E+04  7.245123E+04  6.443780E+04  1.660603E+04 -8.458216E-09  1.111045E-09
       180  19 -5.550497E+05 -5.851900E+04 -5.815389E+04  1.618381E+04 -5.881266E+02 -8.530728E+03
       180  20 -5.868505E+05 -6.638566E+04 -6.714904E+04  6.569584E+03 -2.757777E+03 -9.924794E+03
       180  21 -6.196397E+05 -7.692005E+04 -7.823379E+04  1.722154E+04 -4.929044E+03 -1.073499E+04
       180  22 -3.176802E+05  1.893066E+02 -2.113231E+03  1.690939E+04 -1.596776E+03 -8.532603E+03
       180  23 -3.172185E+05  2.822472E+02 -3.580888E+03  6.778816E+03 -3.417067E+03 -9.925776E+03
       180  24 -3.176849E+05 -2.231074E+03 -6.894702E+03  1.691391E+04 -5.239086E+03 -1.073519E+04
       180  25 -8.025889E+04  5.889358E+04  5.392354E+04  1.763523E+04 -2.605808E+03 -8.534480E+03
       180  26 -4.751953E+04  6.694496E+04  5.998225E+04  6.988107E+03 -4.076641E+03 -9.926758E+03
       180  27 -1.564617E+04  7.245136E+04  6.443807E+04  1.660608E+04 -5.549278E+03 -1.073539E+04
       181   1 -6.574315E+05 -8.219369E+04 -8.806515E+04  1.281123E+04  3.293624E+03  1.283004E+04
       181   2 -6.849028E+05 -8.865489E+04 -1.010457E+05  9.218958E+03  1.645996E+04  1.344084E+04
       181   3 -7.215854E+05 -1.252279E+05 -1.301256E+05  2.542897E+04  2.963840E+04  4.458939E+03
       181   4 -3.193080E+05  1.398622E+03 -8.492901E+03  1.679631E+04  6.524513E+03  1.283511E+04
       181   5 -3.152083E+05  2.764097E+03 -1.381094E+04  6.913974E+03  1.394427E+04  1.343642E+04
       181   6 -3.193175E+05 -2.497445E+04 -3.122991E+04  1.683370E+04  2.137699E+04  4.447289E+03
       181   7  1.892089E+04  8.498283E+04  7.107153E+04  2.078353E+04  9.757152E+03  1.284022E+04
       181   8  5.461198E+04  9.417332E+04  7.341439E+04  4.607560E+03  1.142708E+04  1.343202E+04
       181   9  8.309803E+04  7.526727E+04  6.765420E+04  8.232801E+03  1.311023E+04  4.435871E+03
       181  10 -6.574316E+05 -8.219387E+04 -8.806548E+04  1.281120E+04 -1.542941E-09 -3.149340E-09
       181  11 -6.849031E+05 -8.865515E+04 -1.010465E+05  9.218779E+03 -1.657513E-09  2.211318E-09
       181  12 -7.215863E+05 -1.252281E+05 -1.301273E+05  2.542887E+04  3.019480E-09  4.450280E-09
       181  13 -3.193081E+05  1.398434E+03 -8.493291E+03  1.679624E+04  3.037671E-09  3.308699E-09
       181  14 -3.152086E+05  2.763851E+03 -1.381165E+04  6.913823E+03  1.344155E-09  4.928793E-09
       181  15 -3.193180E+05 -2.497460E+04 -3.123081E+04  1.683363E+04  3.656466E-10  3.022237E-09
       181  16  1.892074E+04  8.498262E+04  7.107104E+04  2.078342E+04  7.645146E-10  1.707180E-09
       181  17  5.461179E+04  9.417309E+04  7.341380E+04  4.607436E+03  3.023498E-09  5.984780E-09
       181  18  8.309784E+04  7.526720E+04  6.765384E+04  8.232754E+03 -4.994181E-09  1.857835E-09
       181  19 -6.574315E+05 -8.219369E+04 -8.806515E+04  1.281123E+04 -3.293624E+03 -1.283004E+04
       181  20 -6.849028E+05 -8.865489E+04 -1.010457E+05  9.218958E+03 -1.645996E+04 -1.344084E+04
       181  21 -7.215854E+05 -1.252279E+05 -1.301256E+05  2.542897E+04 -2.963840E+04 -4.458939E+03
       181  22 -3.193080E+05  1.398622E+03 -8.492901E+03  1.679631E+04 -6.524513E+03 -1.283511E+04
       181  23 -3.152083E+05  2.764097E+03 -1.381094E+04  6.913974E+03 -1.394427E+04 -1.343642E+04
       181  24 -3.193175E+05 -2.497445E+04 -3.122991E+04  1.683370E+04 -2.137699E+04 -4.447289E+03
       181  25  1.892089E+04  8.498283E+04  7.107153E+04  2.078353E+04 -9.757152E+03 -1.284022E+04
       181  26  5.461198E+04  9.417332E+04  7.341439E+04  4.607560E+03 -1.142708E+04 -1.343202E+04
       181  27  8.309803E+04  7.526727E+04  6.765420E+04  8.232801E+03 -1.311023E+04 -4.435871E+03
       182   1 -2.541164E+05 -9.427475E+05 -2.492218E+05  2.154187E+05 -1.026491E+04 -7.491867E+04
       182   2 -1.699109E+05 -7.246108E+05 -1.554021E+05  1.782970E+05 -3.090983E+04 -3.164114E+04
       182   3 -1.125762E+05 -5.185719E+05 -9.648314E+04  1.931975E+05 -2.840259E+04  1.168455E+04
       182   4 -3.245883E+04 -4.872984E+04 -3.575507E+04  1.956117E+05 -1.031224E+04 -2.633936E+04
       182   5 -6.163672E+03 -4.565558E+04 -1.603490E+04  1.696160E+05 -3.091939E+04 -1.801162E+04
       182   6 -6.478551E+02 -4.863671E+04 -6.910393E+03  1.956434E+05 -2.838437E+04 -9.651972E+03
       182   7  1.891436E+05  8.460273E+05  1.776645E+05  1.757761E+05 -1.036266E+04  2.230970E+04
       182   8  1.575549E+05  6.337383E+05  1.233084E+05  1.609253E+05 -3.092932E+04 -4.367431E+03
       182   9  1.112678E+05  4.215125E+05  8.265411E+04  1.980912E+05 -2.836631E+04 -3.100427E+04
       182  10 -2.541180E+05 -9.427536E+05 -2.492325E+05  2.154181E+05 -1.792691E-10  1.038550E-10
       182  11 -1.699121E+05 -7.246121E+05 -1.554058E+05  1.782962E+05  2.590500E-09 -3.277660E-09
       182  12 -1.125771E+05 -5.185723E+05 -9.648491E+04  1.931978E+05 -9.153559E-10 -1.013148E-08
       182  13 -3.245913E+04 -4.873061E+04 -3.575657E+04  1.956115E+05  1.461367E-09  1.137882E-11
       182  14 -6.164786E+03 -4.565619E+04 -1.603731E+04  1.696155E+05  3.879278E-09 -5.189229E-10
       182  15 -6.487451E+02 -4.863702E+04 -6.912082E+03  1.956432E+05  8.090331E-10 -7.966661E-10
       182  16  1.891433E+05  8.460268E+05  1.776633E+05  1.757763E+05  1.964277E-09 -1.782342E-09
       182  17  1.575538E+05  6.337380E+05  1.233066E+05  1.609252E+05  4.311691E-09  3.549590E-09
       182  18  1.112667E+05  4.215112E+05  8.265079E+04  1.980905E+05 -1.380429E-09  8.118819E-09
       182  19 -2.541164E+05 -9.427475E+05 -2.492218E+05  2.154187E+05  1.026491E+04  7.491867E+04
       182  20 -1.699109E+05 -7.246108E+05 -1.554021E+05  1.782970E+05  3.090983E+04  3.164114E+04
       182  21 -1.125762E+05 -5.185719E+05 -9.648314E+04  1.931975E+05  2.840259E+04 -1.168455E+04
       182  22 -3.245883E+04 -4.872984E+04 -3.575507E+04  1.956117E+05  1.031224E+04  2.633936E+04
       182  23 -6.163672E+03 -4.565558E+04 -1.603490E+04  1.696160E+05  3.091939E+04  1.801162E+04
       182  24 -6.478551E+02 -4.863671E+04 -6.910393E+03  1.956434E+05  2.838437E+04  9.651972E+03
       182  25  1.891436E+05  8.460273E+05  1.776645E+05  1.757761E+05  1.036266E+04 -2.230970E+04
       182  26  1.575549E+05  6.337383E+05  1.233084E+05  1.609253E+05  3.092932E+04  4.367431E+03
       182  27  1.112678E+05  4.215125E+05  8.265411E+04  1.980912E+05  2.836631E+04  3.100427E+04
       183   1 -7.961216E+04 -3.743799E+05 -6.596099E+04  1.961746E+05 -1.989120E+04  8.920537E+03
       183   2 -2.746319E+04 -1.625515E+05 -1.854939E+04  1.695631E+05 -7.860390E+03  8.321282E+03
       183   3  2.507003E+04  4.964283E+04  2.938069E+04  1.963373E+05  4.595130E+03  7.721072E+03
       183   4 -1.704110E+03 -4.717212E+04 -3.712334E+03  1.959395E+05 -1.987746E+04 -8.943633E+03
       183   5 -2.130160E+02 -4.738191E+04  2.515036E+03  1.692483E+05 -7.846972E+03 -1.018698E+04
       183   6  1.776936E+03 -4.715597E+04  9.710004E+03  1.959420E+05  4.608079E+03 -1.143110E+04
       183   7  7.619783E+04  2.801396E+05  5.853272E+04  1.957043E+05 -1.986370E+04 -2.681700E+04
       183   8  2.703660E+04  6.780133E+04  2.358021E+04  1.689333E+05 -7.833536E+03 -2.869859E+04
       183   9 -2.151655E+04 -1.439451E+05 -9.959798E+03  1.955468E+05  4.621054E+03 -3.058033E+04
       183  10 -7.961261E+04 -3.743801E+05 -6.596189E+04  1.961748E+05 -8.137402E-10  2.242207E-09
       183  11 -2.746328E+04 -1.625516E+05 -1.854963E+04  1.695632E+05  2.155267E-09 -1.568787E-09
       183  12  2.506999E+04  4.964276E+04  2.938054E+04  1.963373E+05 -1.202716E-09 -1.153000E-08
       183  13 -1.704555E+03 -4.717231E+04 -3.713226E+03  1.959394E+05  1.470005E-09 -2.054046E-12
       183  14 -2.131099E+02 -4.738204E+04  2.514725E+03  1.692482E+05  1.475165E-10 -8.226261E-10
       183  15  1.776878E+03 -4.715611E+04  9.709718E+03  1.959421E+05 -1.561899E-09 -5.916829E-10
       183  16  7.619721E+04  2.801388E+05  5.853063E+04  1.957039E+05 -1.214971E-09 -3.144999E-09
       183  17  2.703631E+04  6.780043E+04  2.357855E+04  1.689332E+05  2.152397E-09  3.755497E-09
       183  18 -2.151682E+04 -1.439461E+05 -9.961596E+03  1.955469E+05  3.166219E-11  9.514915E-09
       183  19 -7.961216E+04 -3.743799E+05 -6.596099E+04  1.961746E+05  1.989120E+04 -8.920537E+03
       183  20 -2.746319E+04 -1.625515E+05 -1.854939E+04  1.695631E+05  7.860390E+03 -8.321282E+03
       183  21  2.507003E+04  4.964283E+04  2.938069E+04  1.963373E+05 -4.595130E+03 -7.721072E+03
       183  22 -1.704110E+03 -4.717212E+04 -3.712334E+03  1.959395E+05  1.987746E+04  8.943633E+03
       183  23 -2.130160E+02 -4.738191E+04  2.515036E+03  1.692483E+05  7.846972E+03  1.018698E+04
       183  24  1.776936E+03 -4.715597E+04  9.710004E+03  1.959420E+05 -4.608079E+03  1.143110E+04
       183  25  7.619783E+04  2.801396E+05  5.853272E+04  1.957043E+05  1.986370E+04  2.681700E+04
       183  26  2.703660E+04  6.780133E+04  2.358021E+04  1.689333E+05  7.833536E+03  2.869859E+04
       183  27 -2.151655E+04 -1.439451E+05 -9.959798E+03  1.955468E+05 -4.621054E+03  3.058033E+04
       184   1  5.732273E+04  1.944246E+05  6.076884E+04  1.912365E+05  1.321290E+04  8.542832E+03
       184   2  1.175259E+05  3.991101E+05  1.211317E+05  1.826705E+05  1.880361E+04 -3.218503E+04
       184   3  2.160769E+05  6.188959E+05  2.176207E+05  2.265490E+05  6.846800E+03 -7.294787E+04
       184   4  8.223553E+01 -4.493616E+04  1.394500E+04  1.957230E+05  1.322841E+04 -1.313377E+04
       184   5  8.948190E+03 -5.019965E+04  2.732150E+04  1.695258E+05  1.880143E+04 -2.731100E+04
       184   6  5.157267E+04 -4.499601E+04  5.840292E+04  1.957696E+05  6.823426E+03 -4.150910E+04
       184   7 -5.716138E+04 -2.842409E+05 -3.287981E+04  2.002078E+05  1.324361E+04 -3.480219E+04
       184   8 -9.964173E+04 -4.993181E+05 -6.649972E+04  1.563908E+05  1.879903E+04 -2.244044E+04
       184   9 -1.129594E+05 -7.084803E+05 -1.008419E+05  1.650233E+05  6.796930E+03 -1.010377E+04
       184  10  5.732252E+04  1.944244E+05  6.076838E+04  1.912364E+05  7.008575E-10  3.734521E-09
       184  11  1.175252E+05  3.991089E+05  1.211291E+05  1.826710E+05  7.589671E-09  8.929033E-10
       184  12  2.160754E+05  6.188902E+05  2.176106E+05  2.265494E+05  3.014212E-09 -8.085158E-09
       184  13  8.200123E+01 -4.493639E+04  1.394435E+04  1.957232E+05 -1.117444E-09  7.811765E-14
       184  14  8.947610E+03 -5.020055E+04  2.731943E+04  1.695262E+05  9.016114E-09 -9.137847E-10
       184  15  5.157216E+04 -4.499787E+04  5.839959E+04  1.957699E+05  4.791362E-09 -1.530342E-09
       184  16 -5.716189E+04 -2.842422E+05 -3.288242E+04  2.002081E+05  1.943195E-10 -5.382803E-09
       184  17 -9.964225E+04 -4.993187E+05 -6.650133E+04  1.563911E+05  2.922415E-10  2.516626E-09
       184  18 -1.129595E+05 -7.084804E+05 -1.008421E+05  1.650233E+05  2.734453E-09  5.670577E-09
       184  19  5.732273E+04  1.944246E+05  6.076884E+04  1.912365E+05 -1.321290E+04 -8.542832E+03
       184  20  1.175259E+05  3.991101E+05  1.211317E+05  1.826705E+05 -1.880361E+04  3.218503E+04
       184  21  2.160769E+05  6.188959E+05  2.176207E+05  2.265490E+05 -6.846800E+03  7.294787E+04
       184  22  8.223553E+01 -4.493616E+04  1.394500E+04  1.957230E+05 -1.322841E+04  1.313377E+04
       184  23  8.948190E+03 -5.019965E+04  2.732150E+04  1.695258E+05 -1.880143E+04  2.731100E+04
       184  24  5.157267E+04 -4.499601E+04  5.840292E+04  1.957696E+05 -6.823426E+03  4.150910E+04
       184  25 -5.716138E+04 -2.842409E+05 -3.287981E+04  2.002078E+05 -1.324361E+04  3.480219E+04
       184  26 -9.964173E+04 -4.993181E+05 -6.649972E+04  1.563908E+05 -1.879903E+04  2.244044E+04
       184  27 -1.129594E+05 -7.084803E+05 -1.008419E+05  1.650233E+05 -6.796930E+03  1.010377E+04
       185   1  7.434931E+05  2.704529E+05  1.635082E+05  2.710964E+05  6.831993E+04  2.128677E+04
       185   2  7.200369E+05  1.753035E+05  1.018348E+05  2.664259E+05  4.424914E+04  2.738275E+03
       185   3  7.191874E+05  1.562031E+05  7.927630E+04  2.522512E+05  1.720922E+04 -7.922868E+03
       185   4  4.853102E+05  1.431145E+05  8.876641E+04  1.696516E+05  5.811244E+04  1.743760E+04
       185   5  4.698413E+05  7.176399E+04  3.837029E+04  1.872083E+05  4.061343E+04  1.367118E+03
       185   6  4.756889E+05  7.517690E+04  2.189590E+04  1.952577E+05  2.014378E+04 -6.816987E+03
       185   7  2.271983E+05  1.579741E+04  1.401988E+04  6.825129E+04  4.790973E+04  1.359147E+04
       185   8  2.197089E+05 -3.176674E+04 -2.509887E+04  1.080213E+05  3.697934E+04 -3.285340E+00
       185   9  2.322471E+05 -5.848524E+03 -3.548902E+04  1.382828E+05  2.307711E+04 -5.711457E+03
       185  10  7.434880E+05  2.704512E+05  1.634986E+05  2.710952E+05  2.099791E-09  5.877355E-10
       185  11  7.200348E+05  1.753030E+05  1.018311E+05  2.664258E+05 -3.636346E-09 -4.240079E-10
       185  12  7.191871E+05  1.562029E+05  7.927562E+04  2.522513E+05 -2.722722E-09 -1.211752E-09
       185  13  4.853064E+05  1.431132E+05  8.875950E+04  1.696508E+05  5.820073E-10 -3.745255E-09
       185  14  4.698396E+05  7.176355E+04  3.836718E+04  1.872082E+05  2.949584E-09  3.521563E-09
       185  15  4.756884E+05  7.517675E+04  2.189505E+04  1.952578E+05  3.178742E-10 -1.972165E-09
       185  16  2.271957E+05  1.579659E+04  1.401523E+04  6.825077E+04 -9.534453E-10 -5.237332E-10
       185  17  2.197074E+05 -3.176711E+04 -2.510144E+04  1.080213E+05  2.356167E-09  2.248405E-09
       185  18  2.322465E+05 -5.848702E+03 -3.549008E+04  1.382829E+05 -1.566963E-09 -3.479940E-10
       185  19  7.434931E+05  2.704529E+05  1.635082E+05  2.710964E+05 -6.831993E+04 -2.128677E+04
       185  20  7.200369E+05  1.753035E+05  1.018348E+05  2.664259E+05 -4.424914E+04 -2.738275E+03
       185  21  7.191874E+05  1.562031E+05  7.927630E+04  2.522512E+05 -1.720922E+04  7.922868E+03
       185  22  4.853102E+05  1.431145E+05  8.876641E+04  1.696516E+05 -5.811244E+04 -1.743760E+04
       185  23  4.698413E+05  7.176399E+04  3.837029E+04  1.872083E+05 -4.061343E+04 -1.367118E+03
       185  24  4.756889E+05  7.517690E+04  2.189590E+04  1.952577E+05 -2.014378E+04  6.816987E+03
       185  25  2.271983E+05  1.579741E+04  1.401988E+04  6.825129E+04 -4.790973E+04 -1.359147E+04
       185  26  2.197089E+05 -3.176674E+04 -2.509887E+04  1.080213E+05 -3.697934E+04  3.285340E+00
       185  27  2.322471E+05 -5.848524E+03 -3.548902E+04  1.382828E+05 -2.307711E+04  5.711457E+03
       186   1  6.893959E+05  1.643690E+05  7.055210E+04  2.522044E+05  1.621289E+04 -6.546581E+03
       186   2  6.708685E+05  1.476707E+05  5.665055E+04  2.426584E+05  1.108511E+04 -7.543923E+03
       186   3  6.475655E+05  1.425441E+05  4.754313E+04  2.402082E+05  5.824277E+03 -8.188601E+03
       186   4  4.728500E+05  8.206775E+04  1.739353E+04  1.910537E+05  1.674491E+04 -6.346414E+03
       186   5  4.749682E+05  7.419438E+04  8.895991E+03  1.883049E+05  1.191218E+04 -7.232372E+03
       186   6  4.722527E+05  7.783530E+04  4.960169E+03  1.926515E+05  6.946210E+03 -7.765692E+03
       186   7  2.563503E+05 -2.298143E+02 -3.576859E+04  1.299226E+05  1.727672E+04 -6.146328E+03
       186   8  2.791063E+05  7.210351E+02 -3.886131E+04  1.339670E+05  1.273896E+04 -6.920930E+03
       186   9  2.969711E+05  1.312879E+04 -3.762484E+04  1.451071E+05  8.067791E+03 -7.342913E+03
       186  10  6.893956E+05  1.643689E+05  7.055152E+04  2.522044E+05  4.906926E-09 -4.795725E-10
       186  11  6.708683E+05  1.476706E+05  5.665021E+04  2.426585E+05 -6.529879E-10 -2.835682E-09
       186  12  6.475654E+05  1.425440E+05  4.754294E+04  2.402082E+05 -3.779520E-09 -9.009583E-10
       186  13  4.728497E+05  8.206763E+04  1.739293E+04  1.910538E+05  2.308407E-09 -4.035972E-10
       186  14  4.749681E+05  7.419428E+04  8.895626E+03  1.883049E+05  2.916538E-09  8.284855E-09
       186  15  4.722526E+05  7.783522E+04  4.959964E+03  1.926515E+05 -3.677046E-09 -1.111125E-09
       186  16  2.563500E+05 -2.299350E+02 -3.576922E+04  1.299227E+05 -7.717431E-10 -8.334121E-10
       186  17  2.791061E+05  7.209401E+02 -3.886170E+04  1.339671E+05 -7.743768E-10 -2.777176E-09
       186  18  2.969710E+05  1.312871E+04 -3.762506E+04  1.451071E+05  6.835442E-10  5.164086E-09
       186  19  6.893959E+05  1.643690E+05  7.055210E+04  2.522044E+05 -1.621289E+04  6.546581E+03
       186  20  6.708685E+05  1.476707E+05  5.665055E+04  2.426584E+05 -1.108511E+04  7.543923E+03
       186  21  6.475655E+05  1.425441E+05  4.754313E+04  2.402082E+05 -5.824277E+03  8.188601E+03
       186  22  4.728500E+05  8.206775E+04  1.739353E+04  1.910537E+05 -1.674491E+04  6.346414E+03
       186  23  4.749682E+05  7.419438E+04  8.895991E+03  1.883049E+05 -1.191218E+04  7.232372E+03
       186  24  4.722527E+05  7.783530E+04  4.960169E+03  1.926515E+05 -6.946210E+03  7.765692E+03
       186  25  2.563503E+05 -2.298143E+02 -3.576859E+04  1.299226E+05 -1.727672E+04  6.146328E+03
       186  26  2.791063E+05  7.210351E+02 -3.886131E+04  1.339670E+05 -1.273896E+04  6.920930E+03
       186  27  2.969711E+05  1.312879E+04 -3.762484E+04  1.451071E+05 -8.067791E+03  7.342913E+03
       187   1  6.283602E+05  1.365758E+05  4.175425E+04  2.354371E+05  4.948424E+03 -7.650209E+03
       187   2  6.105250E+05  1.248536E+05  3.493073E+04  2.256144E+05  3.445205E+03 -6.821490E+03
       187   3  5.858989E+05  1.204761E+05  2.896109E+04  2.237721E+05  1.936731E+03 -5.979525E+03
       187   4  4.720080E+05  7.823685E+04  3.782836E+03  1.923479E+05  5.959264E+03 -7.269116E+03
       187   5  4.753886E+05  7.444690E+04  2.060324E+03  1.884029E+05  4.467354E+03 -6.436019E+03
       187   6  4.719760E+05  7.799968E+04  1.183040E+03  1.924382E+05  2.970151E+03 -5.589688E+03
       187   7  3.156791E+05  1.989931E+04 -3.419061E+04  1.492684E+05  6.969832E+03 -6.888125E+03
       187   8  3.402698E+05  2.404133E+04 -3.081153E+04  1.511986E+05  5.489263E+03 -6.050639E+03
       187   9  3.580660E+05  3.552413E+04 -2.659598E+04  1.611096E+05  4.003365E+03 -5.199929E+03
       187  10  6.283602E+05  1.365757E+05  4.175409E+04  2.354371E+05 -2.514219E-09  6.950107E-10
       187  11  6.105250E+05  1.248536E+05  3.493062E+04  2.256144E+05  6.646606E-09  4.575761E-09
       187  12  5.858989E+05  1.204761E+05  2.896101E+04  2.237721E+05  3.315718E-09 -1.000852E-09
       187  13  4.720079E+05  7.823679E+04  3.782670E+03  1.923480E+05 -5.447380E-10  8.812633E-10
       187  14  4.753885E+05  7.444685E+04  2.060208E+03  1.884029E+05  5.597719E-09  5.562848E-09
       187  15  4.719760E+05  7.799965E+04  1.182965E+03  1.924382E+05 -1.688436E-09 -4.647454E-09
       187  16  3.156790E+05  1.989925E+04 -3.419079E+04  1.492685E+05  2.145392E-10 -3.787044E-09
       187  17  3.402697E+05  2.404128E+04 -3.081166E+04  1.511986E+05  1.986332E-09 -3.570763E-09
       187  18  3.580659E+05  3.552409E+04 -2.659606E+04  1.611096E+05 -3.867681E-09 -9.150608E-11
       187  19  6.283602E+05  1.365758E+05  4.175425E+04  2.354371E+05 -4.948424E+03  7.650209E+03
       187  20  6.105250E+05  1.248536E+05  3.493073E+04  2.256144E+05 -3.445205E+03  6.821490E+03
       187  21  5.858989E+05  1.204761E+05  2.896109E+04  2.237721E+05 -1.936731E+03  5.979525E+03
       187  22  4.720080E+05  7.823685E+04  3.782836E+03  1.923479E+05 -5.959264E+03  7.269116E+03
       187  23  4.753886E+05  7.444690E+04  2.060324E+03  1.884029E+05 -4.467354E+03  6.436019E+03
       187  24  4.719760E+05  7.799968E+04  1.183040E+03  1.924382E+05 -2.970151E+03  5.589688E+03
       187  25  3.156791E+05  1.989931E+04 -3.419061E+04  1.492684E+05 -6.969832E+03  6.888125E+03
       187  26  3.402698E+05  2.404133E+04 -3.081153E+04  1.511986E+05 -5.489263E+03  6.050639E+03
       187  27  3.580660E+05  3.552413E+04 -2.659598E+04  1.611096E+05 -4.003365E+03  5.199929E+03
       188   1  5.675414E+05  1.136671E+05  2.410382E+04  2.187454E+05  1.497076E+03 -5.321630E+03
       188   2  5.498861E+05  1.022812E+05  1.872650E+04  2.089404E+05  7.267416E+02 -4.202915E+03
       188   3  5.252725E+05  9.792855E+04  1.358136E+04  2.071083E+05 -4.340370E+01 -3.085046E+03
       188   4  4.719516E+05  7.801202E+04  9.258323E+02  1.924063E+05  2.523971E+03 -4.934203E+03
       188   5  4.754311E+05  7.449194E+04  6.133649E+02  1.884214E+05  1.752980E+03 -3.815677E+03
       188   6  4.719518E+05  7.800525E+04  5.336357E+02  1.924094E+05  9.821628E+02 -2.697997E+03
       188   7  3.763713E+05  4.235775E+04 -2.225270E+04  1.660711E+05  3.550690E+03 -4.546842E+03
       188   8  4.009815E+05  4.670302E+04 -1.750018E+04  1.679047E+05  2.779084E+03 -3.428489E+03
       188   9  4.186337E+05  5.808206E+04 -1.251437E+04  1.777116E+05  2.007638E+03 -2.310983E+03
       188  10  5.675414E+05  1.136671E+05  2.410376E+04  2.187454E+05 -2.320179E-09 -6.333710E-09
       188  11  5.498861E+05  1.022812E+05  1.872647E+04  2.089404E+05  1.345347E-09  2.157504E-09
       188  12  5.252725E+05  9.792854E+04  1.358135E+04  2.071083E+05  5.308765E-09  4.834773E-09
       188  13  4.719516E+05  7.801199E+04  9.257745E+02  1.924063E+05  1.323754E-10 -3.254932E-09
       188  14  4.754311E+05  7.449192E+04  6.133318E+02  1.884214E+05  1.882789E-09  1.153707E-09
       188  15  4.719518E+05  7.800525E+04  5.336202E+02  1.924094E+05 -1.148044E-09 -5.060695E-09
       188  16  3.763713E+05  4.235772E+04 -2.225277E+04  1.660711E+05  1.673565E-09  2.414783E-09
       188  17  4.009815E+05  4.670301E+04 -1.750022E+04  1.679047E+05  2.578543E-09 -8.370164E-09
       188  18  4.186337E+05  5.808205E+04 -1.251439E+04  1.777116E+05  6.787163E-10 -3.848715E-09
       188  19  5.675414E+05  1.136671E+05  2.410382E+04  2.187454E+05 -1.497076E+03  5.321630E+03
       188  20  5.498861E+05  1.022812E+05  1.872650E+04  2.089404E+05 -7.267416E+02  4.202915E+03
       188  21  5.252725E+05  9.792855E+04  1.358136E+04  2.071083E+05  4.340370E+01  3.085046E+03
       188  22  4.719516E+05  7.801202E+04  9.258323E+02  1.924063E+05 -2.523971E+03  4.934203E+03
       188  23  4.754311E+05  7.449194E+04  6.133649E+02  1.884214E+05 -1.752980E+03  3.815677E+03
       188  24  4.719518E+05  7.800525E+04  5.336357E+02  1.924094E+05 -9.821628E+02  2.697997E+03
       188  25  3.763713E+05  4.235775E+04 -2.225270E+04  1.660711E+05 -3.550690E+03  4.546842E+03
       188  26  4.009815E+05  4.670302E+04 -1.750018E+04  1.679047E+05 -2.779084E+03  3.428489E+03
       188  27  4.186337E+05  5.808206E+04 -1.251437E+04  1.777116E+05 -2.007638E+03  2.310983E+03
       189   1  5.070426E+05  9.109829E+04  9.026882E+03  2.020948E+05 -4.044615E+02 -2.402152E+03
       189   2  4.894226E+05  7.974328E+04  4.191853E+03  1.923071E+05 -1.258241E+03 -1.317797E+03
       189   3  4.648715E+05  7.541584E+04 -3.466305E+02  1.904754E+05 -2.111739E+03 -2.341529E+02
       189   4  4.719579E+05  7.800204E+04  5.636822E+02  1.924065E+05  6.202653E+02 -2.015396E+03
       189   5  4.754248E+05  7.449562E+04  7.823500E+02  1.884258E+05 -2.341262E+02 -9.312623E+02
       189   6  4.719601E+05  7.801680E+04  1.298026E+03  1.924010E+05 -1.088249E+03  1.521557E+02
       189   7  4.368744E+05  6.490589E+04 -7.899602E+03  1.827186E+05  1.644929E+03 -1.628664E+03
       189   8  4.614271E+05  6.924799E+04 -2.627153E+03  1.845446E+05  7.899613E+02 -5.447384E+02
       189   9  4.790487E+05  8.061775E+04  2.942675E+03  1.943265E+05 -6.475127E+01  5.384671E+02
       189  10  5.070426E+05  9.109829E+04  9.026871E+03  2.020948E+05 -3.154661E-09 -1.640894E-09
       189  11  4.894226E+05  7.974327E+04  4.191846E+03  1.923071E+05  5.334649E-09 -2.968898E-09
       189  12  4.648715E+05  7.541584E+04 -3.466390E+02  1.904754E+05 -3.399159E-10 -2.778348E-09
       189  13  4.719579E+05  7.800204E+04  5.636738E+02  1.924065E+05 -4.475454E-11 -3.784226E-09
       189  14  4.754248E+05  7.449562E+04  7.823482E+02  1.884258E+05  2.952084E-09  2.571210E-09
       189  15  4.719601E+05  7.801680E+04  1.298024E+03  1.924010E+05 -5.650859E-09  3.532985E-09
       189  16  4.368744E+05  6.490588E+04 -7.899612E+03  1.827186E+05  3.325145E-09 -3.285443E-09
       189  17  4.614271E+05  6.924799E+04 -2.627155E+03  1.845446E+05 -2.878915E-09 -4.896038E-09
       189  18  4.790487E+05  8.061775E+04  2.942674E+03  1.943265E+05 -8.827725E-09 -1.172890E-08
       189  19  5.070426E+05  9.109829E+04  9.026882E+03  2.020948E+05  4.044615E+02  2.402152E+03
       189  20  4.894226E+05  7.974328E+04  4.191853E+03  1.923071E+05  1.258241E+03  1.317797E+03
       189  21  4.648715E+05  7.541584E+04 -3.466305E+02  1.904754E+05  2.111739E+03  2.341529E+02
       189  22  4.719579E+05  7.800204E+04  5.636822E+02  1.924065E+05 -6.202653E+02  2.015396E+03
       189  23  4.754248E+05  7.449562E+04  7.823500E+02  1.884258E+05  2.341262E+02  9.312623E+02
       189  24  4.719601E+05  7.801680E+04  1.298026E+03  1.924010E+05  1.088249E+03 -1.521557E+02
       189  25  4.368744E+05  6.490589E+04 -7.899602E+03  1.827186E+05 -1.644929E+03  1.628664E+03
       189  26  4.614271E+05  6.924799E+04 -2.627153E+03  1.845446E+05 -7.899613E+02  5.447384E+02
       189  27  4.790487E+05  8.061775E+04  2.942675E+03  1.943265E+05  6.475127E+01 -5.384671E+02
       190   1  4.466475E+05  6.860806E+04 -4.532990E+03  1.855528E+05 -2.633053E+03  3.889375E+02
       190   2  4.289341E+05  5.717088E+04 -8.274343E+03  1.756716E+05 -4.595623E+03  1.052822E+03
       190   3  4.045760E+05  5.317096E+04 -1.078879E+04  1.737020E+05 -6.554217E+03  1.706526E+03
       190   4  4.720070E+05  7.798875E+04  1.693710E+03  1.924361E+05 -1.605973E+03  7.765928E+02
       190   5  4.753534E+05  7.444765E+04  3.011568E+03  1.884128E+05 -3.577159E+03  1.437189E+03
       190   6  4.720567E+05  7.834561E+04  5.563212E+03  1.923009E+05 -5.544421E+03  2.087586E+03
       190   7  4.973673E+05  8.736953E+04  7.920401E+03  1.993197E+05 -5.788427E+02  1.164267E+03
       190   8  5.217749E+05  9.172462E+04  1.429736E+04  2.011549E+05 -2.558610E+03  1.821588E+03
       190   9  5.395420E+05  1.035206E+05  2.191488E+04  2.109017E+05 -4.534505E+03  2.468691E+03
       190  10  4.466475E+05  6.860806E+04 -4.533004E+03  1.855528E+05 -5.268787E-09  2.429749E-09
       190  11  4.289340E+05  5.717087E+04 -8.274385E+03  1.756716E+05 -9.482361E-09  1.851182E-09
       190  12  4.045759E+05  5.317095E+04 -1.078887E+04  1.737020E+05 -5.550845E-09 -2.157450E-09
       190  13  4.720070E+05  7.798875E+04  1.693704E+03  1.924361E+05 -7.082287E-09 -4.015955E-09
       190  14  4.753534E+05  7.444765E+04  3.011540E+03  1.884128E+05 -7.934936E-09  1.693717E-09
       190  15  4.720567E+05  7.834559E+04  5.563146E+03  1.923009E+05 -1.370219E-09  9.256246E-09
       190  16  4.973673E+05  8.736953E+04  7.920397E+03  1.993197E+05 -4.790187E-09 -4.673010E-09
       190  17  5.217749E+05  9.172461E+04  1.429734E+04  2.011549E+05  3.072675E-09  1.085213E-09
       190  18  5.395420E+05  1.035206E+05  2.191483E+04  2.109017E+05  1.418762E-09  1.361410E-09
       190  19  4.466475E+05  6.860806E+04 -4.532990E+03  1.855528E+05  2.633053E+03 -3.889375E+02
       190  20  4.289341E+05  5.717088E+04 -8.274343E+03  1.756716E+05  4.595623E+03 -1.052822E+03
       190  21  4.045760E+05  5.317096E+04 -1.078879E+04  1.737020E+05  6.554217E+03 -1.706526E+03
       190  22  4.720070E+05  7.798875E+04  1.693710E+03  1.924361E+05  1.605973E+03 -7.765928E+02
       190  23  4.753534E+05  7.444765E+04  3.011568E+03  1.884128E+05  3.577159E+03 -1.437189E+03
       190  24  4.720567E+05  7.834561E+04  5.563212E+03  1.923009E+05  5.544421E+03 -2.087586E+03
       190  25  4.973673E+05  8.736953E+04  7.920401E+03  1.993197E+05  5.788427E+02 -1.164267E+03
       190  26  5.217749E+05  9.172462E+04  1.429736E+04  2.011549E+05  2.558610E+03 -1.821588E+03
       190  27  5.395420E+05  1.035206E+05  2.191488E+04  2.109017E+05  4.534505E+03 -2.468691E+03
       191   1  3.859079E+05  4.650596E+04 -1.362693E+04  1.699972E+05 -7.940384E+03  2.032280E+03
       191   2  3.682326E+05  3.378239E+04 -1.292111E+04  1.583632E+05 -1.485239E+04  7.767250E+02
       191   3  3.468041E+05  3.456688E+04 -5.653771E+03  1.532811E+05 -2.167241E+04 -7.214669E+02
       191   4  4.724284E+05  7.774431E+04  7.302927E+03  1.927376E+05 -6.854913E+03  2.441871E+03
       191   5  4.747279E+05  7.409485E+04  1.311403E+04  1.882820E+05 -1.397002E+04  1.109560E+03
       191   6  4.733133E+05  8.399258E+04  2.564658E+04  1.903780E+05 -2.099340E+04 -4.655015E+02
       191   7  5.589559E+05  1.089829E+05  2.823212E+04  2.154808E+05 -5.769283E+03  2.851517E+03
       191   8  5.812343E+05  1.144082E+05  3.914832E+04  2.182056E+05 -1.308748E+04  1.442458E+03
       191   9  5.998389E+05  1.334201E+05  5.694586E+04  2.274821E+05 -2.031425E+04 -2.094719E+02
       191  10  3.859079E+05  4.650594E+04 -1.362705E+04  1.699972E+05  1.384547E-09 -2.779972E-09
       191  11  3.682324E+05  3.378233E+04 -1.292153E+04  1.583632E+05  1.074914E-09  2.248608E-09
       191  12  3.468036E+05  3.456676E+04 -5.654654E+03  1.532811E+05  1.763657E-09 -2.323316E-09
       191  13  4.724284E+05  7.774429E+04  7.302828E+03  1.927376E+05 -4.176550E-09 -2.976084E-09
       191  14  4.747277E+05  7.409479E+04  1.311366E+04  1.882820E+05 -9.281338E-10  3.350488E-09
       191  15  4.733128E+05  8.399246E+04  2.564575E+04  1.903780E+05  3.956402E-09  2.204943E-09
       191  16  5.589559E+05  1.089829E+05  2.823205E+04  2.154808E+05 -2.730965E-09  2.595891E-09
       191  17  5.812341E+05  1.144081E+05  3.914799E+04  2.182056E+05  7.699790E-11 -2.624670E-09
       191  18  5.998385E+05  1.334199E+05  5.694509E+04  2.274821E+05  3.215024E-09 -4.677277E-09
       191  19  3.859079E+05  4.650596E+04 -1.362693E+04  1.699972E+05  7.940384E+03 -2.032280E+03
       191  20  3.682326E+05  3.378239E+04 -1.292111E+04  1.583632E+05  1.485239E+04 -7.767250E+02
       191  21  3.468041E+05  3.456688E+04 -5.653771E+03  1.532811E+05  2.167241E+04  7.214669E+02
       191  22  4.724284E+05  7.774431E+04  7.302927E+03  1.927376E+05  6.854913E+03 -2.441871E+03
       191  23  4.747279E+05  7.409485E+04  1.311403E+04  1.882820E+05  1.397002E+04 -1.109560E+03
       191  24  4.733133E+05  8.399258E+04  2.564658E+04  1.903780E+05  2.099340E+04  4.655015E+02
       191  25  5.589559E+05  1.089829E+05  2.823212E+04  2.154808E+05  5.769283E+03 -2.851517E+03
       191  26  5.812343E+05  1.144082E+05  3.914832E+04  2.182056E+05  1.308748E+04 -1.442458E+03
       191  27  5.998389E+05  1.334201E+05  5.694586E+04  2.274821E+05  2.031425E+04  2.094719E+02
       192   1  3.204049E+05  2.968213E+04 -3.318723E+03  1.681707E+05 -2.795978E+04 -1.639978E+03
       192   2  3.105139E+05 -2.979741E+03  1.525423E+04  1.281794E+05 -5.389759E+04 -1.131216E+04
       192   3  3.344735E+05  7.039256E+04  8.027830E+04  7.036634E+04 -7.779371E+04 -2.639500E+04
       192   4  4.774681E+05  7.386297E+04  3.228644E+04  1.966091E+05 -2.563253E+04 -7.614715E+02
       192   5  4.672121E+05  7.048718E+04  5.658704E+04  1.866273E+05 -5.608066E+04 -1.213726E+04
       192   6  4.916860E+05  1.740177E+05  1.309024E+05  1.588269E+05 -8.448734E+04 -2.892598E+04
       192   7  6.345562E+05  1.180436E+05  6.789027E+04  2.250531E+05 -2.330462E+04  1.171438E+02
       192   8  6.239339E+05  1.439597E+05  9.791749E+04  2.450895E+05 -5.826431E+04 -1.296270E+04
       192   9  6.489248E+05  2.776623E+05  1.815239E+05  2.473111E+05 -9.118270E+04 -3.145880E+04
       192  10  3.204041E+05  2.968192E+04 -3.320196E+03  1.681706E+05 -6.916904E-09  4.537709E-10
       192  11  3.105107E+05 -2.980657E+03  1.524854E+04  1.281789E+05 -4.834772E-09  3.051402E-09
       192  12  3.344668E+05  7.039019E+04  8.026563E+04  7.036469E+04  8.630817E-09  5.056353E-09
       192  13  4.774674E+05  7.386279E+04  3.228520E+04  1.966091E+05  9.839802E-10 -3.681419E-09
       192  14  4.672087E+05  7.048618E+04  5.658086E+04  1.866267E+05 -4.629972E-09 -2.389705E-09
       192  15  4.916781E+05  1.740149E+05  1.308874E+05  1.588249E+05 -1.259729E-09  2.486805E-09
       192  16  6.345556E+05  1.180434E+05  6.788925E+04  2.250531E+05  1.271686E-08  7.600742E-09
       192  17  6.239303E+05  1.439586E+05  9.791080E+04  2.450889E+05 -1.774326E-09  6.786945E-09
       192  18  6.489156E+05  2.776590E+05  1.815064E+05  2.473088E+05 -1.041617E-08  8.248038E-10
       192  19  3.204049E+05  2.968213E+04 -3.318723E+03  1.681707E+05  2.795978E+04  1.639978E+03
       192  20  3.105139E+05 -2.979741E+03  1.525423E+04  1.281794E+05  5.389759E+04  1.131216E+04
       192  21  3.344735E+05  7.039256E+04  8.027830E+04  7.036634E+04  7.779371E+04  2.639500E+04
       192  22  4.774681E+05  7.386297E+04  3.228644E+04  1.966091E+05  2.563253E+04  7.614715E+02
       192  23  4.672121E+05  7.048718E+04  5.658704E+04  1.866273E+05  5.608066E+04  1.213726E+04
       192  24  4.916860E+05  1.740177E+05  1.309024E+05  1.588269E+05  8.448734E+04  2.892598E+04
       192  25  6.345562E+05  1.180436E+05  6.789027E+04  2.250531E+05  2.330462E+04 -1.171438E+02
       192  26  6.239339E+05  1.439597E+05  9.791749E+04  2.450895E+05  5.826431E+04  1.296270E+04
       192  27  6.489248E+05  2.776623E+05  1.815239E+05  2.473111E+05  9.118270E+04  3.145880E+04
       193   1 -1.011679E+05 -6.026131E+05 -1.032984E+05  8.519199E+04 -3.275228E+03 -1.987403E+04
       193   2 -5.087606E+04 -4.675348E+05 -5.771198E+04  4.829305E+04 -8.238136E+03 -7.307097E+03
       193   3 -1.865060E+04 -3.383902E+05 -2.479534E+04  7.591353E+04 -3.316570E+03  5.273592E+03
       193   4 -1.584603E+04 -2.602550E+05 -1.931025E+04  7.815464E+04 -3.283101E+03 -1.228615E+04
       193   5  7.280398E+02 -2.579309E+05 -9.410580E+03  4.590404E+04 -8.237921E+03 -7.302453E+03
       193   6  5.575124E+02 -2.602379E+05 -6.907688E+03  7.817257E+04 -3.309579E+03 -2.307810E+03
       193   7  6.946735E+04  8.221017E+04  6.466954E+04  7.111342E+04 -3.291145E+03 -4.694101E+03
       193   8  5.232909E+04 -4.828635E+04  3.888790E+04  4.351423E+04 -8.237706E+03 -7.297808E+03
       193   9  1.976525E+04 -1.820798E+05  1.097978E+04  8.043189E+04 -3.302643E+03 -9.890160E+03
       193  10 -1.011680E+05 -6.026135E+05 -1.032992E+05  8.519194E+04  2.335537E-09  5.886162E-09
       193  11 -5.087615E+04 -4.675349E+05 -5.771220E+04  4.829300E+04  3.141135E-10  9.430351E-09
       193  12 -1.865062E+04 -3.383902E+05 -2.479542E+04  7.591355E+04  5.130867E-10  7.251506E-09
       193  13 -1.584609E+04 -2.602552E+05 -1.931055E+04  7.815461E+04 -9.058028E-10 -4.753818E-09
       193  14  7.279526E+02 -2.579310E+05 -9.410808E+03  4.590399E+04  1.039895E-09  1.080399E-09
       193  15  5.574992E+02 -2.602379E+05 -6.907719E+03  7.817256E+04 -4.712832E-09 -6.107979E-09
       193  16  6.946733E+04  8.221014E+04  6.466948E+04  7.111341E+04  1.233178E-09 -2.940791E-09
       193  17  5.232900E+04 -4.828643E+04  3.888767E+04  4.351418E+04  3.059540E-09 -9.791923E-09
       193  18  1.976521E+04 -1.820799E+05  1.097958E+04  8.043187E+04 -2.717409E-09 -7.021402E-09
       193  19 -1.011679E+05 -6.026131E+05 -1.032984E+05  8.519199E+04  3.275228E+03  1.987403E+04
       193  20 -5.087606E+04 -4.675348E+05 -5.771198E+04  4.829305E+04  8.238136E+03  7.307097E+03
       193  21 -1.865060E+04 -3.383902E+05 -2.479534E+04  7.591353E+04  3.316570E+03 -5.273592E+03
       193  22 -1.584603E+04 -2.602550E+05 -1.931025E+04  7.815464E+04  3.283101E+03  1.228615E+04
       193  23  7.280398E+02 -2.579309E+05 -9.410580E+03  4.590404E+04  8.237921E+03  7.302453E+03
       193  24  5.575124E+02 -2.602379E+05 -6.907688E+03  7.817257E+04  3.309579E+03  2.307810E+03
       193  25  6.946735E+04  8.221017E+04  6.466954E+04  7.111342E+04  3.291145E+03  4.694101E+03
       193  26  5.232909E+04 -4.828635E+04  3.888790E+04  4.351423E+04  8.237706E+03  7.297808E+03
       193  27  1.976525E+04 -1.820798E+05  1.097978E+04  8.043189E+04  3.302643E+03  9.890160E+03
       194   1  9.352596E+03 -2.168689E+05  3.242709E+03  7.896916E+04  1.818210E+03  3.622236E+03
       194   2  4.299789E+04 -8.426817E+04  3.332163E+04  4.558196E+04  7.880162E+03  6.549971E+03
       194   3  7.308588E+04  4.727656E+04  6.064582E+04  7.706677E+04  1.353616E+04  9.479466E+03
       194   4 -1.113740E+03 -2.594585E+05 -6.496415E+03  7.824624E+04  1.822601E+03 -1.190363E+03
       194   5  1.197930E+02 -2.589016E+05 -6.401640E+03  4.580897E+04  7.884852E+03  2.048043E+03
       194   6 -2.257394E+03 -2.594714E+05 -9.277155E+03  7.824503E+04  1.354105E+04  5.287603E+03
       194   7 -1.158019E+04 -3.020464E+05 -1.623557E+04  7.752338E+04  1.827004E+03 -6.002634E+03
       194   8 -4.276040E+04 -4.335066E+05 -4.612682E+04  4.603592E+04  7.889539E+03 -2.452630E+03
       194   9 -7.760718E+04 -5.661320E+05 -7.920620E+04  7.942273E+04  1.354592E+04  1.097793E+03
       194  10  9.352589E+03 -2.168689E+05  3.242678E+03  7.896915E+04  1.874389E-10  3.931881E-09
       194  11  4.299781E+04 -8.426824E+04  3.332144E+04  4.558192E+04  3.580735E-09  1.154913E-09
       194  12  7.308566E+04  4.727641E+04  6.064531E+04  7.706667E+04  9.739849E-10 -6.702246E-09
       194  13 -1.113744E+03 -2.594585E+05 -6.496424E+03  7.824625E+04 -4.032949E-09 -1.183511E-09
       194  14  1.197251E+02 -2.589016E+05 -6.401764E+03  4.580896E+04  4.942630E-09  6.145113E-10
       194  15 -2.257599E+03 -2.594715E+05 -9.277552E+03  7.824498E+04  2.638893E-09 -8.003109E-09
       194  16 -1.158020E+04 -3.020464E+05 -1.623565E+04  7.752339E+04 -2.929869E-09 -1.715200E-09
       194  17 -4.276047E+04 -4.335066E+05 -4.612695E+04  4.603593E+04  5.128990E-09  2.559606E-09
       194  18 -7.760737E+04 -5.661320E+05 -7.920654E+04  7.942271E+04  4.272050E-09  3.883964E-09
       194  19  9.352596E+03 -2.168689E+05  3.242709E+03  7.896916E+04 -1.818210E+03 -3.622236E+03
       194  20  4.299789E+04 -8.426817E+04  3.332163E+04  4.558196E+04 -7.880162E+03 -6.549971E+03
       194  21  7.308588E+04  4.727656E+04  6.064582E+04  7.706677E+04 -1.353616E+04 -9.479466E+03
       194  22 -1.113740E+03 -2.594585E+05 -6.496415E+03  7.824624E+04 -1.822601E+03  1.190363E+03
       194  23  1.197930E+02 -2.589016E+05 -6.401640E+03  4.580897E+04 -7.884852E+03 -2.048043E+03
       194  24 -2.257394E+03 -2.594714E+05 -9.277155E+03  7.824503E+04 -1.354105E+04 -5.287603E+03
       194  25 -1.158019E+04 -3.020464E+05 -1.623557E+04  7.752338E+04 -1.827004E+03  6.002634E+03
       194  26 -4.276040E+04 -4.335066E+05 -4.612682E+04  4.603592E+04 -7.889539E+03  2.452630E+03
       194  27 -7.760718E+04 -5.661320E+05 -7.920620E+04  7.942273E+04 -1.354592E+04 -1.097793E+03
       195   1  1.063165E+05  1.663791E+05  8.615274E+04  8.223258E+04  1.956161E+04  1.666249E+04
       195   2  1.387324E+05  3.016409E+05  1.108542E+05  4.111758E+04  2.296026E+04  1.165114E+04
       195   3  1.412341E+05  4.304874E+05  1.314209E+05  6.406235E+04  7.860055E+03  6.610212E+03
       195   4  1.383717E+03 -2.612203E+05 -1.095871E+04  7.807971E+04  1.957346E+04  6.945941E+03
       195   5  1.413438E+03 -2.567899E+05 -1.726249E+04  4.602326E+04  2.295558E+04  1.614121E+04
       195   6 -3.095134E+04 -2.612644E+05 -3.757282E+04  7.803168E+04  7.831285E+03  2.530758E+04
       195   7 -1.035616E+05 -6.886497E+05 -1.080816E+05  7.392976E+04  1.958545E+04 -2.763976E+03
       195   8 -1.359272E+05 -8.149318E+05 -1.453997E+05  5.092458E+04  2.295097E+04  2.062727E+04
       195   9 -2.031713E+05 -9.525789E+05 -2.066000E+05  9.198556E+04  7.803340E+03  4.398417E+04
       195  10  1.063160E+05  1.663787E+05  8.615150E+04  8.223232E+04 -8.927048E-11  6.117159E-10
       195  11  1.387318E+05  3.016406E+05  1.108530E+05  4.111737E+04  5.200670E-10  8.111553E-09
       195  12  1.412340E+05  4.304873E+05  1.314207E+05  6.406231E+04  1.721626E-09  3.698724E-10
       195  13  1.383292E+03 -2.612204E+05 -1.095952E+04  7.807960E+04 -2.896537E-09 -3.883062E-09
       195  14  1.412803E+03 -2.567903E+05 -1.726397E+04  4.602296E+04  2.145403E-09  1.120638E-09
       195  15 -3.095158E+04 -2.612651E+05 -3.757413E+04  7.803152E+04  1.542110E-09 -9.070754E-09
       195  16 -1.035620E+05 -6.886498E+05 -1.080824E+05  7.392981E+04 -1.731939E-09  2.767061E-10
       195  17 -1.359279E+05 -8.149324E+05 -1.454015E+05  5.092420E+04 -2.222757E-10 -6.405395E-09
       195  18 -2.031719E+05 -9.525810E+05 -2.066038E+05  9.198528E+04  2.929277E-10 -5.347966E-09
       195  19  1.063165E+05  1.663791E+05  8.615274E+04  8.223258E+04 -1.956161E+04 -1.666249E+04
       195  20  1.387324E+05  3.016409E+05  1.108542E+05  4.111758E+04 -2.296026E+04 -1.165114E+04
       195  21  1.412341E+05  4.304874E+05  1.314209E+05  6.406235E+04 -7.860055E+03 -6.610212E+03
       195  22  1.383717E+03 -2.612203E+05 -1.095871E+04  7.807971E+04 -1.957346E+04 -6.945941E+03
       195  23  1.413438E+03 -2.567899E+05 -1.726249E+04  4.602326E+04 -2.295558E+04 -1.614121E+04
       195  24 -3.095134E+04 -2.612644E+05 -3.757282E+04  7.803168E+04 -7.831285E+03 -2.530758E+04
       195  25 -1.035616E+05 -6.886497E+05 -1.080816E+05  7.392976E+04 -1.958545E+04  2.763976E+03
       195  26 -1.359272E+05 -8.149318E+05 -1.453997E+05  5.092458E+04 -2.295097E+04 -2.062727E+04
       195  27 -2.031713E+05 -9.525789E+05 -2.066000E+05  9.198556E+04 -7.803340E+03 -4.398417E+04
       196   1  2.288884E+05  1.337090E+05  1.212296E+05  3.212659E+04  2.420040E+04 -9.596968E+03
       196   2  1.756837E+05  1.427043E+05  1.028107E+05  3.900800E+04  6.494069E+03 -3.211658E+04
       196   3  1.207515E+05  1.354720E+05  9.187761E+04  5.685466E+04 -1.122171E+04 -3.830670E+04
       196   4 -4.596256E+05 -3.625777E+04 -4.024024E+04  5.441207E+04 -2.805610E+04 -9.641961E+03
       196   5 -4.563266E+05 -8.168359E+03 -1.957332E+04  4.891133E+04 -1.793085E+04 -3.214294E+04
       196   6 -4.595962E+05 -1.149128E+03 -1.075357E+04  5.437666E+04 -7.816854E+03 -3.830610E+04
       196   7 -1.147696E+06 -2.062549E+05 -2.017319E+05  7.667257E+04 -8.025501E+04 -9.690734E+03
       196   8 -1.087952E+06 -1.590641E+05 -1.419737E+05  5.880425E+04 -4.233146E+04 -3.217009E+04
       196   9 -1.039614E+06 -1.377887E+05 -1.133971E+05  5.190094E+04 -4.415081E+03 -3.830553E+04
       196  10  2.288877E+05  1.337088E+05  1.212283E+05  3.212678E+04  4.212560E-09 -1.272736E-09
       196  11  1.756834E+05  1.427031E+05  1.028087E+05  3.900816E+04 -9.795841E-10 -3.853062E-09
       196  12  1.207509E+05  1.354703E+05  9.187461E+04  5.685431E+04 -5.706614E-10 -1.442509E-09
       196  13 -4.596265E+05 -3.625808E+04 -4.024189E+04  5.441185E+04  4.182235E-09 -3.477811E-10
       196  14 -4.563272E+05 -8.169555E+03 -1.957586E+04  4.891086E+04 -4.751059E-10 -3.188714E-09
       196  15 -4.595966E+05 -1.150720E+03 -1.075644E+04  5.437642E+04  6.916270E-11 -4.096721E-10
       196  16 -1.147703E+06 -2.062568E+05 -2.017442E+05  7.667194E+04 -2.851785E-09 -4.701997E-10
       196  17 -1.087954E+06 -1.590657E+05 -1.419791E+05  5.880315E+04 -3.725129E-10 -4.957376E-09
       196  18 -1.039615E+06 -1.377903E+05 -1.133999E+05  5.190081E+04  4.077525E-09 -3.818263E-09
       196  19  2.288884E+05  1.337090E+05  1.212296E+05  3.212659E+04 -2.420040E+04  9.596968E+03
       196  20  1.756837E+05  1.427043E+05  1.028107E+05  3.900800E+04 -6.494069E+03  3.211658E+04
       196  21  1.207515E+05  1.354720E+05  9.187761E+04  5.685466E+04  1.122171E+04  3.830670E+04
       196  22 -4.596256E+05 -3.625777E+04 -4.024024E+04  5.441207E+04  2.805610E+04  9.641961E+03
       196  23 -4.563266E+05 -8.168359E+03 -1.957332E+04  4.891133E+04  1.793085E+04  3.214294E+04
       196  24 -4.595962E+05 -1.149128E+03 -1.075357E+04  5.437666E+04  7.816854E+03  3.830610E+04
       196  25 -1.147696E+06 -2.062549E+05 -2.017319E+05  7.667257E+04  8.025501E+04  9.690734E+03
       196  26 -1.087952E+06 -1.590641E+05 -1.419737E+05  5.880425E+04  4.233146E+04  3.217009E+04
       196  27 -1.039614E+06 -1.377887E+05 -1.133971E+05  5.190094E+04  4.415081E+03  3.830553E+04
       197   1  8.616411E+04  1.263537E+05  8.712071E+04  5.440759E+04 -8.069021E+03 -3.681304E+04
       197   2  3.219222E+04  1.145866E+05  7.912843E+04  4.883968E+04 -8.348615E+03 -3.510631E+04
       197   3 -2.191589E+04  1.021573E+05  7.115132E+04  5.532616E+04 -8.630948E+03 -3.191614E+04
       197   4 -4.582578E+05 -1.610646E+03 -8.182250E+03  5.462306E+04 -6.419739E+03 -3.681402E+04
       197   5 -4.579599E+05 -1.920198E+02 -4.503114E+03  4.859445E+04 -4.172874E+03 -3.510365E+04
       197   6 -4.582395E+05  1.255883E+02 -2.564197E+03  5.462083E+04 -1.928728E+03 -3.190927E+04
       197   7 -1.002389E+06 -1.295912E+05 -1.034958E+05  5.483824E+04 -4.771858E+03 -3.681499E+04
       197   8 -9.478756E+05 -1.149834E+05 -8.814254E+04  4.834933E+04 -3.243741E-01 -3.510100E+04
       197   9 -8.943753E+05 -1.019161E+05 -7.628564E+04  5.391595E+04  4.768934E+03 -3.190241E+04
       197  10  8.616368E+04  1.263523E+05  8.711804E+04  5.440735E+04 -1.656144E-09 -1.241535E-09
       197  11  3.219181E+04  1.145853E+05  7.912598E+04  4.883945E+04 -2.781095E-09  6.811427E-10
       197  12 -2.191624E+04  1.021562E+05  7.114927E+04  5.532593E+04 -3.499640E-09  2.247966E-09
       197  13 -4.582582E+05 -1.612112E+03 -8.184874E+03  5.462287E+04 -2.160993E-09 -9.383451E-10
       197  14 -4.579603E+05 -1.933474E+02 -4.505462E+03  4.859433E+04  1.535088E-09  6.264054E-10
       197  15 -4.582397E+05  1.244942E+02 -2.566117E+03  5.462078E+04 -1.358493E-09 -1.430080E-10
       197  16 -1.002390E+06 -1.295926E+05 -1.034984E+05  5.483810E+04  1.041719E-09  9.774989E-11
       197  17 -9.478760E+05 -1.149847E+05 -8.814485E+04  4.834933E+04  1.385752E-09  1.560718E-09
       197  18 -8.943756E+05 -1.019172E+05 -7.628760E+04  5.391608E+04  3.496022E-09  1.549227E-09
       197  19  8.616411E+04  1.263537E+05  8.712071E+04  5.440759E+04  8.069021E+03  3.681304E+04
       197  20  3.219222E+04  1.145866E+05  7.912843E+04  4.883968E+04  8.348615E+03  3.510631E+04
       197  21 -2.191589E+04  1.021573E+05  7.115132E+04  5.532616E+04  8.630948E+03  3.191614E+04
       197  22 -4.582578E+05 -1.610646E+03 -8.182250E+03  5.462306E+04  6.419739E+03  3.681402E+04
       197  23 -4.579599E+05 -1.920198E+02 -4.503114E+03  4.859445E+04  4.172874E+03  3.510365E+04
       197  24 -4.582395E+05  1.255883E+02 -2.564197E+03  5.462083E+04  1.928728E+03  3.190927E+04
       197  25 -1.002389E+06 -1.295912E+05 -1.034958E+05  5.483824E+04  4.771858E+03  3.681499E+04
       197  26 -9.478756E+05 -1.149834E+05 -8.814254E+04  4.834933E+04  3.243741E-01  3.510100E+04
       197  27 -8.943753E+05 -1.019161E+05 -7.628564E+04  5.391595E+04 -4.768934E+03  3.190241E+04
       198   1 -5.704814E+04  9.383064E+04  6.552883E+04  5.515650E+04 -8.083338E+03 -2.959634E+04
       198   2 -1.111321E+05  8.120915E+04  5.716289E+04  4.900823E+04 -7.767306E+03 -2.568661E+04
       198   3 -1.652786E+05  6.860378E+04  4.858747E+04  5.502899E+04 -7.452481E+03 -2.164063E+04
       198   4 -4.581289E+05  9.569786E+01 -1.948797E+03  5.464659E+04 -1.537554E+03 -2.958909E+04
       198   5 -4.580697E+05  1.435482E+02 -1.115266E+03  4.856181E+04 -9.899460E+02 -2.567822E+04
       198   6 -4.581163E+05  1.673681E+02 -6.523724E+02  5.464648E+04 -4.435184E+02 -2.163105E+04
       198   7 -8.590510E+05 -9.364768E+04 -6.943134E+04  5.413695E+04  5.004139E+03 -2.958185E+04
       198   8 -8.048885E+05 -8.092834E+04 -5.939703E+04  4.811561E+04  5.783750E+03 -2.566983E+04
       198   9 -7.508693E+05 -6.827352E+04 -4.989473E+04  5.426412E+04  6.562245E+03 -2.162148E+04
       198  10 -5.704844E+04  9.382969E+04  6.552706E+04  5.515631E+04 -1.586131E-08  4.057386E-09
       198  11 -1.111324E+05  8.120842E+04  5.716154E+04  4.900807E+04  2.511746E-09  4.700389E-09
       198  12 -1.652788E+05  6.860326E+04  4.858649E+04  5.502886E+04  2.344849E-08  2.512146E-09
       198  13 -4.581292E+05  9.475728E+01 -1.950446E+03  5.464655E+04 -3.962849E-09 -1.010685E-09
       198  14 -4.580699E+05  1.428400E+02 -1.116507E+03  4.856179E+04 -7.193383E-09 -1.218945E-10
       198  15 -4.581164E+05  1.668657E+02 -6.532518E+02  5.464647E+04  1.061207E-09 -3.414686E-09
       198  16 -8.590513E+05 -9.364862E+04 -6.943303E+04  5.413707E+04  1.477110E-08  2.629450E-09
       198  17 -8.048887E+05 -8.092906E+04 -5.939833E+04  4.811573E+04 -3.606979E-09  5.177718E-09
       198  18 -7.508694E+05 -6.827403E+04 -4.989569E+04  5.426424E+04 -2.355229E-08  3.648539E-09
       198  19 -5.704814E+04  9.383064E+04  6.552883E+04  5.515650E+04  8.083338E+03  2.959634E+04
       198  20 -1.111321E+05  8.120915E+04  5.716289E+04  4.900823E+04  7.767306E+03  2.568661E+04
       198  21 -1.652786E+05  6.860378E+04  4.858747E+04  5.502899E+04  7.452481E+03  2.164063E+04
       198  22 -4.581289E+05  9.569786E+01 -1.948797E+03  5.464659E+04  1.537554E+03  2.958909E+04
       198  23 -4.580697E+05  1.435482E+02 -1.115266E+03  4.856181E+04  9.899460E+02  2.567822E+04
       198  24 -4.581163E+05  1.673681E+02 -6.523724E+02  5.464648E+04  4.435184E+02  2.163105E+04
       198  25 -8.590510E+05 -9.364768E+04 -6.943134E+04  5.413695E+04 -5.004139E+03  2.958185E+04
       198  26 -8.048885E+05 -8.092834E+04 -5.939703E+04  4.811561E+04 -5.783750E+03  2.566983E+04
       198  27 -7.508693E+05 -6.827352E+04 -4.989473E+04  5.426412E+04 -6.562245E+03  2.162148E+04
       199   1 -2.004823E+05  6.032934E+04  4.258659E+04  5.498241E+04 -7.338814E+03 -1.924311E+04
       199   2 -2.546296E+05  4.768216E+04  3.378710E+04  4.881416E+04 -7.206878E+03 -1.512967E+04
       199   3 -3.088216E+05  3.507286E+04  2.489985E+04  5.483637E+04 -7.075573E+03 -1.100352E+04
       199   4 -4.581006E+05  1.675643E+02 -5.065206E+02  5.465123E+04 -3.421675E+02 -1.923315E+04
       199   5 -4.580709E+05  1.554289E+02 -3.217540E+02  4.855588E+04 -1.889698E+02 -1.511917E+04
       199   6 -4.580933E+05  1.773578E+02 -2.399082E+02  5.465122E+04 -3.639319E+01 -1.099248E+04
       199   7 -7.156533E+05 -5.999765E+04 -4.360150E+04  5.432016E+04  6.651671E+03 -1.922319E+04
       199   8 -6.614711E+05 -4.737344E+04 -3.443171E+04  4.829767E+04  6.826713E+03 -1.510868E+04
       199   9 -6.073428E+05 -3.471929E+04 -2.538019E+04  5.446611E+04  7.001148E+03 -1.098145E+04
       199  10 -2.004824E+05  6.032892E+04  4.258579E+04  5.498230E+04 -1.602067E-08  2.561092E-09
       199  11 -2.546297E+05  4.768190E+04  3.378657E+04  4.881407E+04 -1.827624E-09  5.875438E-09
       199  12 -3.088217E+05  3.507272E+04  2.489953E+04  5.483630E+04  5.926955E-09  4.773351E-09
       199  13 -4.581007E+05  1.671671E+02 -5.072158E+02  5.465122E+04 -2.154970E-09 -6.164566E-09
       199  14 -4.580709E+05  1.551835E+02 -3.221836E+02  4.855588E+04 -5.435474E-09 -3.790549E-10
       199  15 -4.580933E+05  1.772281E+02 -2.401352E+02  5.465122E+04  1.634025E-09  4.287599E-10
       199  16 -7.156535E+05 -5.999806E+04 -4.360227E+04  5.432026E+04  1.110880E-08  2.361821E-09
       199  17 -6.614712E+05 -4.737370E+04 -3.443223E+04  4.829775E+04  3.183361E-09  1.040418E-09
       199  18 -6.073429E+05 -3.471943E+04 -2.538051E+04  5.446617E+04 -7.613618E-09  1.219467E-09
       199  19 -2.004823E+05  6.032934E+04  4.258659E+04  5.498241E+04  7.338814E+03  1.924311E+04
       199  20 -2.546296E+05  4.768216E+04  3.378710E+04  4.881416E+04  7.206878E+03  1.512967E+04
       199  21 -3.088216E+05  3.507286E+04  2.489985E+04  5.483637E+04  7.075573E+03  1.100352E+04
       199  22 -4.581006E+05  1.675643E+02 -5.065206E+02  5.465123E+04  3.421675E+02  1.923315E+04
       199  23 -4.580709E+05  1.554289E+02 -3.217540E+02  4.855588E+04  1.889698E+02  1.511917E+04
       199  24 -4.580933E+05  1.773578E+02 -2.399082E+02  5.465122E+04  3.639319E+01  1.099248E+04
       199  25 -7.156533E+05 -5.999765E+04 -4.360150E+04  5.432016E+04 -6.651671E+03  1.922319E+04
       199  26 -6.614711E+05 -4.737344E+04 -3.443171E+04  4.829767E+04 -6.826713E+03  1.510868E+04
       199  27 -6.073428E+05 -3.471929E+04 -2.538019E+04  5.446611E+04 -7.001148E+03  1.098145E+04
       200   1 -3.440591E+05  2.679582E+04  1.876739E+04  5.479195E+04 -7.037148E+03 -8.597498E+03
       200   2 -3.982258E+05  1.414428E+04  9.764252E+03  4.861450E+04 -6.904771E+03 -4.467372E+03
       200   3 -4.524459E+05  1.526081E+03  6.697339E+02  5.463578E+04 -6.772570E+03 -3.434530E+02
       200   4 -4.580918E+05  1.794917E+02 -2.286391E+02  5.465302E+04  2.429400E+00 -8.586269E+03
       200   5 -4.580639E+05  1.660997E+02 -2.590806E+02  4.855362E+04  1.239841E+02 -4.456014E+03
       200   6 -4.580896E+05  1.882521E+02 -3.732646E+02  5.465301E+04  2.453729E+02 -3.319624E+02
       200   7 -5.721115E+05 -2.643749E+04 -1.922488E+04  5.451411E+04  7.040757E+03 -8.575042E+03
       200   8 -5.178984E+05 -1.381224E+04 -1.028234E+04  4.849274E+04  7.152083E+03 -4.444656E+03
       200   9 -4.637332E+05 -1.149552E+03 -1.416079E+03  5.467024E+04  7.263254E+03 -3.204713E+02
       200  10 -3.440592E+05  2.679573E+04  1.876716E+04  5.479190E+04  1.691930E-09  2.790192E-09
       200  11 -3.982259E+05  1.414424E+04  9.764125E+03  4.861447E+04 -1.020606E-09  4.128331E-09
       200  12 -4.524460E+05  1.526069E+03  6.696474E+02  5.463578E+04 -4.642387E-09  2.831323E-09
       200  13 -4.580918E+05  1.794125E+02 -2.287776E+02  5.465302E+04 -3.280727E-10  5.683438E-09
       200  14 -4.580639E+05  1.660784E+02 -2.591180E+02  4.855362E+04  2.239705E-09  3.824906E-09
       200  15 -4.580896E+05  1.882519E+02 -3.732649E+02  5.465301E+04  3.009526E-09  1.128001E-09
       200  16 -5.721116E+05 -2.643758E+04 -1.922511E+04  5.451416E+04 -3.600198E-09  3.462146E-09
       200  17 -5.178984E+05 -1.381227E+04 -1.028247E+04  4.849277E+04  3.236471E-09  4.974316E-10
       200  18 -4.637333E+05 -1.149566E+03 -1.416179E+03  5.467025E+04  6.967486E-09  9.553941E-10
       200  19 -3.440591E+05  2.679582E+04  1.876739E+04  5.479195E+04  7.037148E+03  8.597498E+03
       200  20 -3.982258E+05  1.414428E+04  9.764252E+03  4.861450E+04  6.904771E+03  4.467372E+03
       200  21 -4.524459E+05  1.526081E+03  6.697339E+02  5.463578E+04  6.772570E+03  3.434530E+02
       200  22 -4.580918E+05  1.794917E+02 -2.286391E+02  5.465302E+04 -2.429400E+00  8.586269E+03
       200  23 -4.580639E+05  1.660997E+02 -2.590806E+02  4.855362E+04 -1.239841E+02  4.456014E+03
       200  24 -4.580896E+05  1.882521E+02 -3.732646E+02  5.465301E+04 -2.453729E+02  3.319624E+02
       200  25 -5.721115E+05 -2.643749E+04 -1.922488E+04  5.451411E+04 -7.040757E+03  8.575042E+03
       200  26 -5.178984E+05 -1.381224E+04 -1.028234E+04  4.849274E+04 -7.152083E+03  4.444656E+03
       200  27 -4.637332E+05 -1.149552E+03 -1.416079E+03  5.467024E+04 -7.263254E+03  3.204713E+02
       201   1 -4.877005E+05 -6.753704E+03 -5.577652E+03  5.457866E+04 -6.708905E+03  2.059747E+03
       201   2 -5.418276E+05 -1.941573E+04 -1.491467E+04  4.840137E+04 -6.181714E+03  6.144438E+03
       201   3 -5.960739E+05 -3.210714E+04 -2.461575E+04  5.441678E+04 -5.654198E+03  1.014440E+04
       201   4 -4.580994E+05  1.913352E+02 -4.706259E+02  5.465162E+04  3.176994E+02  2.071235E+03
       201   5 -4.580525E+05  1.749499E+02 -7.864246E+02  4.855535E+04  7.003782E+02  6.155483E+03
       201   6 -4.581026E+05  1.543974E+02 -1.365933E+03  5.465168E+04  1.083426E+03  1.015502E+04
       201   7 -4.284974E+05  7.136354E+03  4.636555E+03  5.472457E+04  7.344629E+03  2.082723E+03
       201   8 -3.742704E+05  1.976528E+04  1.334177E+04  4.870935E+04  7.583370E+03  6.166531E+03
       201   9 -3.201124E+05  3.241496E+04  2.188345E+04  5.488663E+04  7.822501E+03  1.016563E+04
       201  10 -4.877006E+05 -6.753720E+03 -5.577744E+03  5.457867E+04  8.068750E-09  4.686451E-09
       201  11 -5.418276E+05 -1.941578E+04 -1.491481E+04  4.840140E+04 -3.645400E-08  1.531967E-09
       201  12 -5.960739E+05 -3.210726E+04 -2.461600E+04  5.441682E+04 -7.858786E-08  1.123854E-09
       201  13 -4.580994E+05  1.913305E+02 -4.706342E+02  5.465162E+04  2.179818E-09  9.737785E-10
       201  14 -4.580525E+05  1.749090E+02 -7.864967E+02  4.855535E+04 -6.209623E-09 -4.401298E-09
       201  15 -4.581026E+05  1.542864E+02 -1.366129E+03  5.465167E+04 -1.416070E-09 -8.108688E-09
       201  16 -4.284975E+05  7.136334E+03  4.636446E+03  5.472456E+04 -3.591678E-09  3.601698E-09
       201  17 -3.742705E+05  1.976523E+04  1.334160E+04  4.870931E+04  4.352175E-08 -2.308525E-09
       201  18 -3.201125E+05  3.241483E+04  2.188314E+04  5.488657E+04  7.976166E-08 -2.721794E-10
       201  19 -4.877005E+05 -6.753704E+03 -5.577652E+03  5.457866E+04  6.708905E+03 -2.059747E+03
       201  20 -5.418276E+05 -1.941573E+04 -1.491467E+04  4.840137E+04  6.181714E+03 -6.144438E+03
       201  21 -5.960739E+05 -3.210714E+04 -2.461575E+04  5.441678E+04  5.654198E+03 -1.014440E+04
       201  22 -4.580994E+05  1.913352E+02 -4.706259E+02  5.465162E+04 -3.176994E+02 -2.071235E+03
       201  23 -4.580525E+05  1.749499E+02 -7.864246E+02  4.855535E+04 -7.003782E+02 -6.155483E+03
       201  24 -4.581026E+05  1.543974E+02 -1.365933E+03  5.465168E+04 -1.083426E+03 -1.015502E+04
       201  25 -4.284974E+05  7.136354E+03  4.636555E+03  5.472457E+04 -7.344629E+03 -2.082723E+03
       201  26 -3.742704E+05  1.976528E+04  1.334177E+04  4.870935E+04 -7.583370E+03 -6.166531E+03
       201  27 -3.201124E+05  3.241496E+04  2.188345E+04  5.488663E+04 -7.822501E+03 -1.016563E+04
       202   1 -6.314208E+05 -4.038550E+04 -3.125571E+04  5.423998E+04 -5.480822E+03  1.250028E+04
       202   2 -6.852245E+05 -5.333500E+04 -4.218430E+04  4.845560E+04 -2.330027E+03  1.605452E+04
       202   3 -7.397325E+05 -6.731699E+04 -5.543484E+04  5.479730E+04  8.223390E+02  1.867718E+04
       202   4 -4.581792E+05  1.777984E+02 -1.795065E+03  5.463656E+04  1.355521E+03  1.251083E+04
       202   5 -4.579675E+05 -4.619878E+01 -3.146938E+03  4.857458E+04  2.920562E+03  1.606209E+04
       202   6 -4.581879E+05 -1.027031E+03 -5.718600E+03  5.463843E+04  4.487462E+03  1.868195E+04
       202   7 -2.849079E+05  4.073953E+04  2.766477E+04  5.503324E+04  8.193713E+03  1.252138E+04
       202   8 -2.306597E+05  5.323985E+04  3.588879E+04  4.869359E+04  8.173015E+03  1.606967E+04
       202   9 -1.765658E+05  6.525859E+04  4.399478E+04  5.447946E+04  8.154199E+03  1.868672E+04
       202  10 -6.314208E+05 -4.038568E+04 -3.125606E+04  5.424004E+04  6.942088E-08  4.908439E-09
       202  11 -6.852246E+05 -5.333528E+04 -4.218480E+04  4.845563E+04  2.052693E-08  2.482816E-09
       202  12 -7.397326E+05 -6.731737E+04 -5.543550E+04  5.479728E+04 -3.329116E-08  4.110503E-09
       202  13 -4.581792E+05  1.776299E+02 -1.795363E+03  5.463655E+04 -4.371082E-09 -8.542094E-09
       202  14 -4.579676E+05 -4.647805E+01 -3.147438E+03  4.857454E+04 -4.021426E-09 -7.094693E-09
       202  15 -4.581880E+05 -1.027411E+03 -5.719293E+03  5.463836E+04  1.319014E-09 -9.513119E-09
       202  16 -2.849080E+05  4.073935E+04  2.766435E+04  5.503316E+04 -7.245960E-08 -4.293081E-10
       202  17 -2.306598E+05  5.323955E+04  3.588818E+04  4.869348E+04 -1.958602E-08 -4.488190E-10
       202  18 -1.765660E+05  6.525820E+04  4.399400E+04  5.447934E+04  3.187387E-08 -2.352849E-09
       202  19 -6.314208E+05 -4.038550E+04 -3.125571E+04  5.423998E+04  5.480822E+03 -1.250028E+04
       202  20 -6.852245E+05 -5.333500E+04 -4.218430E+04  4.845560E+04  2.330027E+03 -1.605452E+04
       202  21 -7.397325E+05 -6.731699E+04 -5.543484E+04  5.479730E+04 -8.223390E+02 -1.867718E+04
       202  22 -4.581792E+05  1.777984E+02 -1.795065E+03  5.463656E+04 -1.355521E+03 -1.251083E+04
       202  23 -4.579675E+05 -4.619878E+01 -3.146938E+03  4.857458E+04 -2.920562E+03 -1.606209E+04
       202  24 -4.581879E+05 -1.027031E+03 -5.718600E+03  5.463843E+04 -4.487462E+03 -1.868195E+04
       202  25 -2.849079E+05  4.073953E+04  2.766477E+04  5.503324E+04 -8.193713E+03 -1.252138E+04
       202  26 -2.306597E+05  5.323985E+04  3.588879E+04  4.869359E+04 -8.173015E+03 -1.606967E+04
       202  27 -1.765658E+05  6.525859E+04  4.399478E+04  5.447946E+04 -8.154199E+03 -1.868672E+04
       203   1 -7.763689E+05 -7.552545E+04 -6.412996E+04  5.273124E+04  6.953067E+02  2.051274E+04
       203   2 -8.267322E+05 -9.410457E+04 -8.604925E+04  5.562808E+04  2.522367E+04  1.821664E+04
       203   3 -8.847572E+05 -1.304481E+05 -1.283949E+05  6.997535E+04  4.976225E+04  5.658691E+03
       203   4 -4.591233E+05 -7.026539E+02 -7.515609E+03  5.448387E+04  5.462164E+03  2.051885E+04
       203   5 -4.568201E+05 -5.616353E+03 -1.367710E+04  4.877568E+04  1.252589E+04  1.819763E+04
       203   6 -4.591417E+05 -2.525407E+04 -2.812335E+04  5.451839E+04  1.960215E+04  5.616682E+03
       203   7 -1.417793E+05  7.411458E+04  4.909502E+04  5.623738E+04  1.023139E+04  2.052499E+04
       203   8 -8.677620E+04  8.286389E+04  5.868911E+04  4.191906E+04 -1.792949E+02  1.817891E+04
       203   9 -3.335693E+04  7.992837E+04  7.213925E+04  3.905070E+04 -1.057853E+04  5.576193E+03
       203  10 -7.763690E+05 -7.552590E+04 -6.413075E+04  5.273123E+04  2.570774E-08  4.939730E-09
       203  11 -8.267330E+05 -9.410510E+04 -8.605107E+04  5.562771E+04  1.907833E-08  1.650281E-09
       203  12 -8.847599E+05 -1.304488E+05 -1.283996E+05  6.997513E+04  4.202573E-09  1.725936E-10
       203  13 -4.591234E+05 -7.031140E+02 -7.516456E+03  5.448378E+04 -3.517083E-10 -2.529930E-09
       203  14 -4.568204E+05 -5.616750E+03 -1.367802E+04  4.877550E+04 -2.544567E-09 -4.863165E-09
       203  15 -4.591422E+05 -2.525421E+04 -2.812413E+04  5.451831E+04  4.105158E-09  1.035074E-09
       203  16 -1.417795E+05  7.411410E+04  4.909403E+04  5.623721E+04 -2.619278E-08  3.242184E-09
       203  17 -8.677629E+04  8.286354E+04  5.868849E+04  4.191906E+04 -1.791628E-08  5.626284E-09
       203  18 -3.335706E+04  7.992831E+04  7.213898E+04  3.905075E+04 -6.448115E-09  1.161740E-09
       203  19 -7.763689E+05 -7.552545E+04 -6.412996E+04  5.273124E+04 -6.953067E+02 -2.051274E+04
       203  20 -8.267322E+05 -9.410457E+04 -8.604925E+04  5.562808E+04 -2.522367E+04 -1.821664E+04
       203  21 -8.847572E+05 -1.304481E+05 -1.283949E+05  6.997535E+04 -4.976225E+04 -5.658691E+03
       203  22 -4.591233E+05 -7.026539E+02 -7.515609E+03  5.448387E+04 -5.462164E+03 -2.051885E+04
       203  23 -4.568201E+05 -5.616353E+03 -1.367710E+04  4.877568E+04 -1.252589E+04 -1.819763E+04
       203  24 -4.591417E+05 -2.525407E+04 -2.812335E+04  5.451839E+04 -1.960215E+04 -5.616682E+03
       203  25 -1.417793E+05  7.411458E+04  4.909502E+04  5.623738E+04 -1.023139E+04 -2.052499E+04
       203  26 -8.677620E+04  8.286389E+04  5.868911E+04  4.191906E+04  1.792949E+02 -1.817891E+04
       203  27 -3.335693E+04  7.992837E+04  7.213925E+04  3.905070E+04  1.057853E+04 -5.576193E+03
       204   1 -8.589598E+04  7.802430E+04  6.656079E+04  3.197855E+03 -1.695314E+04 -6.344097E+03
       204   2 -1.176695E+05  1.093113E+05  7.675365E+04  8.480969E+03 -1.593734E+04 -1.996223E+04
       204   3 -1.591974E+05  1.020137E+05  7.665711E+04  2.878617E+04 -1.493789E+04 -2.101467E+04
       204   4 -5.681334E+05 -4.178431E+04 -5.037300E+04  2.229355E+04 -3.460605E+04 -6.368185E+03
       204   5 -5.622723E+05  4.497037E+02 -2.290597E+04  1.475066E+04 -2.244003E+04 -1.997293E+04
       204   6 -5.681120E+05  2.146885E+03 -1.348222E+04  2.223091E+04 -1.029005E+04 -2.100799E+04
       204   7 -1.050157E+06 -1.616084E+05 -1.673222E+05  4.137429E+04 -5.224527E+04 -6.393370E+03
       204   8 -1.006691E+06 -1.084252E+05 -1.225779E+05  2.101575E+04 -2.893810E+04 -1.998378E+04
       204   9 -9.768701E+05 -9.773101E+04 -1.036317E+05  1.567995E+04 -5.645227E+03 -2.100142E+04
       204  10 -8.589630E+04  7.802418E+04  6.656018E+04  3.197769E+03 -1.025577E-08 -5.163771E-10
       204  11 -1.176699E+05  1.093108E+05  7.675242E+04  8.480713E+03  1.510069E-09  3.073671E-09
       204  12 -1.591977E+05  1.020132E+05  7.665586E+04  2.878592E+04  9.842404E-09  1.698973E-09
       204  13 -5.681347E+05 -4.178467E+04 -5.037533E+04  2.229337E+04 -1.777989E-09 -2.102285E-09
       204  14 -5.622730E+05  4.491402E+02 -2.290766E+04  1.475030E+04 -1.546540E-09 -3.970975E-09
       204  15 -5.681122E+05  2.146382E+03 -1.348325E+04  2.223073E+04  7.687183E-10 -1.377246E-10
       204  16 -1.050160E+06 -1.616092E+05 -1.673274E+05  4.137402E+04  9.494734E-09  5.058184E-10
       204  17 -1.006692E+06 -1.084258E+05 -1.225802E+05  2.101528E+04  3.241325E-10  2.407618E-09
       204  18 -9.768703E+05 -9.773149E+04 -1.036326E+05  1.567985E+04 -9.424088E-09  6.477404E-10
       204  19 -8.589598E+04  7.802430E+04  6.656079E+04  3.197855E+03  1.695314E+04  6.344097E+03
       204  20 -1.176695E+05  1.093113E+05  7.675365E+04  8.480969E+03  1.593734E+04  1.996223E+04
       204  21 -1.591974E+05  1.020137E+05  7.665711E+04  2.878617E+04  1.493789E+04  2.101467E+04
       204  22 -5.681334E+05 -4.178431E+04 -5.037300E+04  2.229355E+04  3.460605E+04  6.368185E+03
       204  23 -5.622723E+05  4.497037E+02 -2.290597E+04  1.475066E+04  2.244003E+04  1.997293E+04
       204  24 -5.681120E+05  2.146885E+03 -1.348222E+04  2.223091E+04  1.029005E+04  2.100799E+04
       204  25 -1.050157E+06 -1.616084E+05 -1.673222E+05  4.137429E+04  5.224527E+04  6.393370E+03
       204  26 -1.006691E+06 -1.084252E+05 -1.225779E+05  2.101575E+04  2.893810E+04  1.998378E+04
       204  27 -9.768701E+05 -9.773101E+04 -1.036317E+05  1.567995E+04  5.645227E+03  2.100142E+04
       205   1 -1.875281E+05  9.010075E+04  7.307137E+04  2.204587E+04 -9.330827E+03 -1.866275E+04
       205   2 -2.239357E+05  8.347983E+04  6.956304E+04  1.482519E+04 -6.919810E+03 -1.730094E+04
       205   3 -2.612493E+05  7.459082E+04  6.391231E+04  2.327795E+04 -4.510779E+03 -1.537215E+04
       205   4 -5.657298E+05 -2.329442E+03 -1.073709E+04  2.239475E+04 -8.373648E+03 -1.866196E+04
       205   5 -5.652275E+05  1.192867E+02 -5.801784E+03  1.455546E+04 -5.460887E+03 -1.729899E+04
       205   6 -5.657210E+05  2.118831E+02 -3.358647E+03  2.239020E+04 -2.549979E+03 -1.536890E+04
       205   7 -9.437978E+05 -9.476930E+04 -9.455442E+04  2.274336E+04 -7.417044E+03 -1.866117E+04
       205   8 -9.064104E+05 -8.324909E+04 -8.117378E+04  1.428584E+04 -4.002757E+03 -1.729704E+04
       205   9 -8.701060E+05 -7.417329E+04 -7.063531E+04  2.150284E+04 -5.901293E+02 -1.536566E+04
       205  10 -1.875283E+05  9.010035E+04  7.307055E+04  2.204573E+04 -1.110138E-09  7.083285E-11
       205  11 -2.239358E+05  8.347949E+04  6.956239E+04  1.482509E+04  1.052965E-08  3.575389E-09
       205  12 -2.612494E+05  7.459056E+04  6.391183E+04  2.327790E+04  1.141692E-08  6.167790E-09
       205  13 -5.657299E+05 -2.329835E+03 -1.073788E+04  2.239463E+04 -4.070306E-10  6.487928E-09
       205  14 -5.652276E+05  1.189574E+02 -5.802402E+03  1.455539E+04  2.907543E-09 -9.104257E-09
       205  15 -5.657211E+05  2.116278E+02 -3.359103E+03  2.239017E+04  1.759694E-09  3.621292E-09
       205  16 -9.437980E+05 -9.476968E+04 -9.455518E+04  2.274325E+04 -1.353735E-09 -3.534561E-09
       205  17 -9.064105E+05 -8.324942E+04 -8.117437E+04  1.428578E+04 -9.909596E-09 -5.343246E-09
       205  18 -8.701061E+05 -7.417355E+04 -7.063576E+04  2.150284E+04 -9.676609E-09 -8.694985E-10
       205  19 -1.875281E+05  9.010075E+04  7.307137E+04  2.204587E+04  9.330827E+03  1.866275E+04
       205  20 -2.239357E+05  8.347983E+04  6.956304E+04  1.482519E+04  6.919810E+03  1.730094E+04
       205  21 -2.612493E+05  7.459082E+04  6.391231E+04  2.327795E+04  4.510779E+03  1.537215E+04
       205  22 -5.657298E+05 -2.329442E+03 -1.073709E+04  2.239475E+04  8.373648E+03  1.866196E+04
       205  23 -5.652275E+05  1.192867E+02 -5.801784E+03  1.455546E+04  5.460887E+03  1.729899E+04
       205  24 -5.657210E+05  2.118831E+02 -3.358647E+03  2.239020E+04  2.549979E+03  1.536890E+04
       205  25 -9.437978E+05 -9.476930E+04 -9.455442E+04  2.274336E+04  7.417044E+03  1.866117E+04
       205  26 -9.064104E+05 -8.324909E+04 -8.117378E+04  1.428584E+04  4.002757E+03  1.729704E+04
       205  27 -8.701060E+05 -7.417329E+04 -7.063531E+04  2.150284E+04  5.901293E+02  1.536566E+04
       206   1 -2.917874E+05  6.679771E+04  5.772689E+04  2.286320E+04 -3.829012E+03 -1.411581E+04
       206   2 -3.288193E+05  5.786311E+04  5.071972E+04  1.491992E+04 -3.119674E+03 -1.207284E+04
       206   3 -3.660218E+05  4.885307E+04  4.321761E+04  2.279078E+04 -2.411067E+03 -1.000065E+04
       206   4 -5.655348E+05 -4.106932E+01 -2.586051E+03  2.242281E+04 -2.029125E+03 -1.411268E+04
       206   5 -5.654442E+05  7.193537E+01 -1.489914E+03  1.451540E+04 -1.294178E+03 -1.206940E+04
       206   6 -5.655294E+05  1.052170E+02 -9.065014E+02  2.242251E+04 -5.599179E+02 -9.996896E+03
       206   7 -8.392121E+05 -6.688488E+04 -6.290357E+04  2.198258E+04 -2.300237E+02 -1.410955E+04
       206   8 -8.020167E+05 -5.772300E+04 -5.370298E+04  1.411102E+04  5.306313E+02 -1.206597E+04
       206   9 -7.649998E+05 -4.864532E+04 -4.503306E+04  2.205434E+04  1.290643E+03 -9.993143E+03
       206  10 -2.917875E+05  6.679749E+04  5.772648E+04  2.286315E+04 -6.413711E-10 -1.845132E-09
       206  11 -3.288194E+05  5.786295E+04  5.071943E+04  1.491989E+04  5.905188E-09 -1.696260E-09
       206  12 -3.660219E+05  4.885296E+04  4.321741E+04  2.279076E+04  5.715572E-09  1.596473E-09
       206  13 -5.655349E+05 -4.128424E+01 -2.586433E+03  2.242278E+04  7.737057E-12 -2.364286E-09
       206  14 -5.654442E+05  7.177854E+01 -1.490191E+03  1.451539E+04  7.510166E-10 -6.879714E-10
       206  15 -5.655295E+05  1.051097E+02 -9.066898E+02  2.242250E+04  3.470788E-09 -8.179519E-11
       206  16 -8.392122E+05 -6.688510E+04 -6.290395E+04  2.198258E+04 -3.137038E-09 -5.333711E-09
       206  17 -8.020167E+05 -5.772316E+04 -5.370325E+04  1.411102E+04 -5.812113E-09  2.224283E-09
       206  18 -7.649999E+05 -4.864542E+04 -4.503325E+04  2.205435E+04 -2.671663E-09  8.694142E-09
       206  19 -2.917874E+05  6.679771E+04  5.772689E+04  2.286320E+04  3.829012E+03  1.411581E+04
       206  20 -3.288193E+05  5.786311E+04  5.071972E+04  1.491992E+04  3.119674E+03  1.207284E+04
       206  21 -3.660218E+05  4.885307E+04  4.321761E+04  2.279078E+04  2.411067E+03  1.000065E+04
       206  22 -5.655348E+05 -4.106932E+01 -2.586051E+03  2.242281E+04  2.029125E+03  1.411268E+04
       206  23 -5.654442E+05  7.193537E+01 -1.489914E+03  1.451540E+04  1.294178E+03  1.206940E+04
       206  24 -5.655294E+05  1.052170E+02 -9.065014E+02  2.242251E+04  5.599179E+02  9.996896E+03
       206  25 -8.392121E+05 -6.688488E+04 -6.290357E+04  2.198258E+04  2.300237E+02  1.410955E+04
       206  26 -8.020167E+05 -5.772300E+04 -5.370298E+04  1.411102E+04 -5.306313E+02  1.206597E+04
       206  27 -7.649998E+05 -4.864532E+04 -4.503306E+04  2.205434E+04 -1.290643E+03  9.993143E+03
       207   1 -3.968949E+05  4.125502E+04  3.636633E+04  2.273414E+04 -2.261172E+03 -8.787085E+03
       207   2 -4.341309E+05  3.214715E+04  2.843763E+04  1.472183E+04 -2.002025E+03 -6.704542E+03
       207   3 -4.714657E+05  2.309875E+04  2.033599E+04  2.259548E+04 -1.743261E+03 -4.618614E+03
       207   4 -5.655101E+05  9.338382E+01 -7.329314E+02  2.243852E+04 -4.147126E+02 -8.783213E+03
       207   5 -5.654583E+05  7.114732E+01 -5.390971E+02  1.449543E+04 -1.526704E+02 -6.700522E+03
       207   6 -5.655072E+05  1.079543E+02 -5.202000E+02  2.243850E+04  1.090053E+02 -4.614439E+03
       207   7 -7.340988E+05 -4.107016E+04 -3.783392E+04  2.214297E+04  1.431251E+03 -8.779343E+03
       207   8 -6.967697E+05 -3.200601E+04 -2.951687E+04  1.426907E+04  1.696298E+03 -6.696502E+03
       207   9 -6.595405E+05 -2.288343E+04 -2.137693E+04  2.228153E+04  1.960994E+03 -4.610264E+03
       207  10 -3.968949E+05  4.125494E+04  3.636617E+04  2.273412E+04 -1.082213E-08 -3.156642E-09
       207  11 -4.341309E+05  3.214710E+04  2.843754E+04  1.472182E+04 -8.603408E-09  2.789350E-10
       207  12 -4.714657E+05  2.309872E+04  2.033595E+04  2.259547E+04 -5.117023E-09 -1.982947E-09
       207  13 -5.655101E+05  9.330096E+01 -7.330766E+02  2.243852E+04  7.833288E-12  3.251902E-09
       207  14 -5.654584E+05  7.109911E+01 -5.391815E+02  1.449543E+04  3.056290E-09 -7.667562E-09
       207  15 -5.655073E+05  1.079315E+02 -5.202401E+02  2.243850E+04  8.352138E-10 -2.771468E-09
       207  16 -7.340988E+05 -4.107025E+04 -3.783407E+04  2.214298E+04  1.005618E-08  3.879613E-09
       207  17 -6.967697E+05 -3.200606E+04 -2.951696E+04  1.426908E+04  7.689386E-09  2.197848E-09
       207  18 -6.595405E+05 -2.288346E+04 -2.137698E+04  2.228154E+04  4.020076E-09  1.992767E-09
       207  19 -3.968949E+05  4.125502E+04  3.636633E+04  2.273414E+04  2.261172E+03  8.787085E+03
       207  20 -4.341309E+05  3.214715E+04  2.843763E+04  1.472183E+04  2.002025E+03  6.704542E+03
       207  21 -4.714657E+05  2.309875E+04  2.033599E+04  2.259548E+04  1.743261E+03  4.618614E+03
       207  22 -5.655101E+05  9.338382E+01 -7.329314E+02  2.243852E+04  4.147126E+02  8.783213E+03
       207  23 -5.654583E+05  7.114732E+01 -5.390971E+02  1.449543E+04  1.526704E+02  6.700522E+03
       207  24 -5.655072E+05  1.079543E+02 -5.202000E+02  2.243850E+04 -1.090053E+02  4.614439E+03
       207  25 -7.340988E+05 -4.107016E+04 -3.783392E+04  2.214297E+04 -1.431251E+03  8.779343E+03
       207  26 -6.967697E+05 -3.200601E+04 -2.951687E+04  1.426907E+04 -1.696298E+03  6.696502E+03
       207  27 -6.595405E+05 -2.288343E+04 -2.137693E+04  2.228153E+04 -1.960994E+03  4.610264E+03
       208   1 -5.024603E+05  1.548793E+04  1.323569E+04  2.254369E+04 -1.648196E+03 -3.403233E+03
       208   2 -5.397521E+05  6.356827E+03  4.856642E+03  1.450451E+04 -1.250682E+03 -1.314101E+03
       208   3 -5.771713E+05 -2.722686E+03 -3.789566E+03  2.238207E+04 -8.532681E+02  7.747853E+02
       208   4 -5.655125E+05  1.082945E+02 -5.715111E+02  2.244529E+04  2.050998E+02 -3.399001E+03
       208   5 -5.654476E+05  8.060729E+01 -8.131644E+02  1.448692E+04  6.023166E+02 -1.309844E+03
       208   6 -5.655120E+05  1.045050E+02 -1.321869E+03  2.244531E+04  9.994573E+02  7.790727E+02
       208   7 -6.285610E+05 -1.527160E+04 -1.437894E+04  2.234691E+04  2.058210E+03 -3.394769E+03
       208   8 -5.911426E+05 -6.195655E+03 -6.482999E+03  1.446933E+04  2.455239E+03 -1.305587E+03
       208   9 -5.538526E+05  2.931689E+03  1.145833E+03  2.250855E+04  2.852217E+03  7.833604E+02
       208  10 -5.024603E+05  1.548792E+04  1.323567E+04  2.254368E+04 -8.474792E-09  1.464883E-09
       208  11 -5.397521E+05  6.356825E+03  4.856636E+03  1.450451E+04  2.545937E-09 -1.484107E-09
       208  12 -5.771713E+05 -2.722686E+03 -3.789569E+03  2.238207E+04  2.770867E-09 -7.922636E-10
       208  13 -5.655125E+05  1.082821E+02 -5.715329E+02  2.244529E+04  1.741516E-09  6.613744E-09
       208  14 -5.654477E+05  8.060535E+01 -8.131683E+02  1.448692E+04  1.533630E-09 -2.909777E-09
       208  15 -5.655120E+05  1.045040E+02 -1.321872E+03  2.244531E+04  9.873017E-10 -1.930192E-09
       208  16 -6.285610E+05 -1.527162E+04 -1.437897E+04  2.234691E+04  6.356784E-09  2.047062E-09
       208  17 -5.911426E+05 -6.195659E+03 -6.483013E+03  1.446933E+04  2.056521E-09 -1.200781E-08
       208  18 -5.538526E+05  2.931686E+03  1.145817E+03  2.250855E+04 -3.853132E-09 -5.293946E-09
       208  19 -5.024603E+05  1.548793E+04  1.323569E+04  2.254369E+04  1.648196E+03  3.403233E+03
       208  20 -5.397521E+05  6.356827E+03  4.856642E+03  1.450451E+04  1.250682E+03  1.314101E+03
       208  21 -5.771713E+05 -2.722686E+03 -3.789566E+03  2.238207E+04  8.532681E+02 -7.747853E+02
       208  22 -5.655125E+05  1.082945E+02 -5.715111E+02  2.244529E+04 -2.050998E+02  3.399001E+03
       208  23 -5.654476E+05  8.060729E+01 -8.131644E+02  1.448692E+04 -6.023166E+02  1.309844E+03
       208  24 -5.655120E+05  1.045050E+02 -1.321869E+03  2.244531E+04 -9.994573E+02 -7.790727E+02
       208  25 -6.285610E+05 -1.527160E+04 -1.437894E+04  2.234691E+04 -2.058210E+03  3.394769E+03
       208  26 -5.911426E+05 -6.195655E+03 -6.482999E+03  1.446933E+04 -2.455239E+03  1.305587E+03
       208  27 -5.538526E+05  2.931689E+03  1.145833E+03  2.250855E+04 -2.852217E+03 -7.833604E+02
       209   1 -6.082237E+05 -1.031449E+04 -1.123315E+04  2.227338E+04 -5.872916E+02  1.992830E+03
       209   2 -6.453850E+05 -1.943165E+04 -2.058966E+04  1.427347E+04  8.798022E+02  4.080010E+03
       209   3 -6.828808E+05 -2.877662E+04 -3.097971E+04  2.217869E+04  2.347088E+03  6.148505E+03
       209   4 -5.655576E+05  1.292577E+02 -1.712310E+03  2.244250E+04  1.270080E+03  1.997109E+03
       209   5 -5.653925E+05  1.094137E+02 -2.935308E+03  1.449030E+04  2.720733E+03  4.084160E+03
       209   6 -5.655599E+05 -1.351022E+02 -5.180066E+03  2.244311E+04  4.171664E+03  6.152533E+03
       209   7 -5.228898E+05  1.057288E+04  7.808426E+03  2.261163E+04  3.127577E+03  2.001389E+03
       209   8 -4.853941E+05  1.965005E+04  1.471867E+04  1.470716E+04  4.561898E+03  4.088312E+03
       209   9 -4.482261E+05  2.850550E+04  2.061875E+04  2.270758E+04  5.996582E+03  6.156563E+03
       209  10 -6.082238E+05 -1.031449E+04 -1.123316E+04  2.227338E+04  5.177640E-09  2.005289E-10
       209  11 -6.453850E+05 -1.943167E+04 -2.058970E+04  1.427347E+04 -5.967859E-09 -3.502469E-09
       209  12 -6.828809E+05 -2.877667E+04 -3.097979E+04  2.217868E+04 -9.188129E-09  1.978172E-09
       209  13 -5.655576E+05  1.292530E+02 -1.712321E+03  2.244250E+04  2.496216E-11 -3.579669E-10
       209  14 -5.653925E+05  1.093938E+02 -2.935353E+03  1.449029E+04 -3.818894E-09 -3.366921E-10
       209  15 -5.655599E+05 -1.351476E+02 -5.180170E+03  2.244309E+04 -1.294733E-09  2.955028E-09
       209  16 -5.228898E+05  1.057287E+04  7.808400E+03  2.261163E+04 -6.340222E-09  5.603293E-09
       209  17 -4.853941E+05  1.965003E+04  1.471860E+04  1.470715E+04  3.406787E-09 -6.266490E-09
       209  18 -4.482261E+05  2.850545E+04  2.061861E+04  2.270755E+04  1.081427E-08  2.910156E-09
       209  19 -6.082237E+05 -1.031449E+04 -1.123315E+04  2.227338E+04  5.872916E+02 -1.992830E+03
       209  20 -6.453850E+05 -1.943165E+04 -2.058966E+04  1.427347E+04 -8.798022E+02 -4.080010E+03
       209  21 -6.828808E+05 -2.877662E+04 -3.097971E+04  2.217869E+04 -2.347088E+03 -6.148505E+03
       209  22 -5.655576E+05  1.292577E+02 -1.712310E+03  2.244250E+04 -1.270080E+03 -1.997109E+03
       209  23 -5.653925E+05  1.094137E+02 -2.935308E+03  1.449030E+04 -2.720733E+03 -4.084160E+03
       209  24 -5.655599E+05 -1.351022E+02 -5.180066E+03  2.244311E+04 -4.171664E+03 -6.152533E+03
       209  25 -5.228898E+05  1.057288E+04  7.808426E+03  2.261163E+04 -3.127577E+03 -2.001389E+03
       209  26 -4.853941E+05  1.965005E+04  1.471867E+04  1.470716E+04 -4.561898E+03 -4.088312E+03
       209  27 -4.482261E+05  2.850550E+04  2.061875E+04  2.270758E+04 -5.996582E+03 -6.156563E+03
       210   1 -7.142086E+05 -3.586719E+04 -3.957265E+04  2.127976E+04  3.282182E+03  7.399453E+03
       210   2 -7.503726E+05 -4.507354E+04 -5.265921E+04  1.459836E+04  9.493128E+03  9.399596E+03
       210   3 -7.886365E+05 -5.915536E+04 -7.102884E+04  2.376009E+04  1.570496E+04  1.100904E+04
       210   4 -5.659411E+05  3.774366E+02 -6.751272E+03  2.242602E+04  5.218774E+03  7.403643E+03
       210   5 -5.649245E+05  2.372784E+02 -1.168486E+04  1.451002E+04  1.108464E+04  9.402820E+03
       210   6 -5.659481E+05 -4.717343E+03 -2.166038E+04  2.243695E+04  1.695176E+04  1.101133E+04
       210   7 -4.176531E+05  3.662059E+04  2.606876E+04  2.357254E+04  7.155823E+03  7.407841E+03
       210   8 -3.794442E+05  4.554578E+04  2.928738E+04  1.442165E+04  1.267663E+04  9.406043E+03
       210   9 -3.432134E+05  4.971733E+04  2.770501E+04  2.111331E+04  1.819900E+04  1.101361E+04
       210  10 -7.142086E+05 -3.586725E+04 -3.957277E+04  2.127974E+04  8.601923E-09  4.270816E-10
       210  11 -7.503728E+05 -4.507366E+04 -5.265954E+04  1.459828E+04  4.984604E-09  2.277084E-09
       210  12 -7.886368E+05 -5.915555E+04 -7.102953E+04  2.375995E+04 -2.166709E-09 -5.649318E-09
       210  13 -5.659412E+05  3.773704E+02 -6.751426E+03  2.242599E+04 -1.759586E-09 -5.311148E-09
       210  14 -5.649247E+05  2.371505E+02 -1.168526E+04  1.450994E+04 -2.245402E-09  5.882201E-09
       210  15 -5.659484E+05 -4.717550E+03 -2.166115E+04  2.243680E+04 -9.149065E-11  3.542955E-10
       210  16 -4.176532E+05  3.662051E+04  2.606856E+04  2.357250E+04 -1.189920E-08 -1.378224E-09
       210  17 -3.794444E+05  4.554564E+04  2.928691E+04  1.442155E+04 -4.475783E-09 -1.062158E-08
       210  18 -3.432137E+05  4.971711E+04  2.770416E+04  2.111314E+04  1.059723E-09 -7.207418E-10
       210  19 -7.142086E+05 -3.586719E+04 -3.957265E+04  2.127976E+04 -3.282182E+03 -7.399453E+03
       210  20 -7.503726E+05 -4.507354E+04 -5.265921E+04  1.459836E+04 -9.493128E+03 -9.399596E+03
       210  21 -7.886365E+05 -5.915536E+04 -7.102884E+04  2.376009E+04 -1.570496E+04 -1.100904E+04
       210  22 -5.659411E+05  3.774366E+02 -6.751272E+03  2.242602E+04 -5.218774E+03 -7.403643E+03
       210  23 -5.649245E+05  2.372784E+02 -1.168486E+04  1.451002E+04 -1.108464E+04 -9.402820E+03
       210  24 -5.659481E+05 -4.717343E+03 -2.166038E+04  2.243695E+04 -1.695176E+04 -1.101133E+04
       210  25 -4.176531E+05  3.662059E+04  2.606876E+04  2.357254E+04 -7.155823E+03 -7.407841E+03
       210  26 -3.794442E+05  4.554578E+04  2.928738E+04  1.442165E+04 -1.267663E+04 -9.406043E+03
       210  27 -3.432134E+05  4.971733E+04  2.770501E+04  2.111331E+04 -1.819900E+04 -1.101361E+04
       211   1 -8.243894E+05 -5.769333E+04 -8.317268E+04  9.690690E+03  1.702778E+04  1.301265E+04
       211   2 -8.490394E+05 -7.008688E+04 -1.113207E+05  2.786180E+04  4.922553E+04  1.300960E+04
       211   3 -8.987540E+05 -1.657466E+05 -1.812751E+05  6.151320E+04  8.143645E+04  4.328505E+03
       211   4 -5.707645E+05  4.325728E+03 -2.720546E+04  2.230582E+04  2.082235E+04  1.302039E+04
       211   5 -5.589202E+05  9.424510E+02 -4.620980E+04  1.464964E+04  4.533007E+04  1.300050E+04
       211   6 -5.707947E+05 -8.435203E+04 -1.016644E+05  2.247588E+04  6.985345E+04  4.301700E+03
       211   7 -3.170791E+05  6.634104E+04  2.875793E+04  3.492615E+04  2.461844E+04  1.302828E+04
       211   8 -2.687221E+05  7.196671E+04  1.889591E+04  1.431191E+03  4.143281E+04  1.299156E+04
       211   9 -2.427335E+05 -2.959487E+03 -2.206006E+04 -1.658218E+04  5.826433E+04  4.276363E+03
       211  10 -8.243897E+05 -5.769359E+04 -8.317355E+04  9.690512E+03 -1.924509E-09 -3.629767E-09
       211  11 -8.490421E+05 -7.008771E+04 -1.113256E+05  2.786129E+04  9.007423E-10  2.135380E-09
       211  12 -8.987611E+05 -1.657484E+05 -1.812876E+05  6.151291E+04  3.123473E-09  3.771725E-09
       211  13 -5.707650E+05  4.325429E+03 -2.720660E+04  2.230561E+04 -5.363216E-12  4.994989E-09
       211  14 -5.589224E+05  9.417174E+02 -4.621399E+04  1.464916E+04  5.517925E-10  3.214107E-09
       211  15 -5.708000E+05 -8.435336E+04 -1.016736E+05  2.247564E+04  1.606438E-09  2.586667E-09
       211  16 -3.170798E+05  6.634070E+04  2.875648E+04  3.492589E+04 -1.221802E-09  1.870437E-09
       211  17 -2.687239E+05  7.196607E+04  1.889237E+04  1.430757E+03 -1.402413E-10  7.493176E-09
       211  18 -2.427371E+05 -2.960418E+03 -2.206648E+04 -1.658238E+04 -7.134855E-10  3.846661E-11
       211  19 -8.243894E+05 -5.769333E+04 -8.317268E+04  9.690690E+03 -1.702778E+04 -1.301265E+04
       211  20 -8.490394E+05 -7.008688E+04 -1.113207E+05  2.786180E+04 -4.922553E+04 -1.300960E+04
       211  21 -8.987540E+05 -1.657466E+05 -1.812751E+05  6.151320E+04 -8.143645E+04 -4.328505E+03
       211  22 -5.707645E+05  4.325728E+03 -2.720546E+04  2.230582E+04 -2.082235E+04 -1.302039E+04
       211  23 -5.589202E+05  9.424510E+02 -4.620980E+04  1.464964E+04 -4.533007E+04 -1.300050E+04
       211  24 -5.707947E+05 -8.435203E+04 -1.016644E+05  2.247588E+04 -6.985345E+04 -4.301700E+03
       211  25 -3.170791E+05  6.634104E+04  2.875793E+04  3.492615E+04 -2.461844E+04 -1.302828E+04
       211  26 -2.687221E+05  7.196671E+04  1.889591E+04  1.431191E+03 -4.143281E+04 -1.299156E+04
       211  27 -2.427335E+05 -2.959487E+03 -2.206006E+04 -1.658218E+04 -5.826433E+04 -4.276363E+03
