    1C
    1UUSER                                                              
    1UDATE              11.october.2022                                 
    1UTIME              18:34:53                                        
    1UHOST                                                              
    1UPGM               CalculiX                                        
    1UVERSION           Version 2.20                             
    1UCOMPILETIME       Sun Jul 31 18:08:37 CEST 2022                    
    1UDIR                                                               
    1UDBN                                                               
    1UMAT    1MESH_MATERIAL                                             
    2C                           409                                     1
 -1         1 0.00000E+00 0.00000E+00 0.00000E+00
 -1         2 1.66667E-02 0.00000E+00 0.00000E+00
 -1         3 3.33333E-02 0.00000E+00 0.00000E+00
 -1         5 6.66667E-02 0.00000E+00 0.00000E+00
 -1         8 0.00000E+00 6.25000E-03 0.00000E+00
 -1         9 1.66667E-02 6.25000E-03 0.00000E+00
 -1        10 3.33333E-02 6.25000E-03 0.00000E+00
 -1        12 6.66667E-02 6.25000E-03 0.00000E+00
 -1        15 0.00000E+00 1.25000E-02 0.00000E+00
 -1        16 1.66667E-02 1.25000E-02 0.00000E+00
 -1        17 3.33333E-02 1.25000E-02 0.00000E+00
 -1        18 5.00000E-02 1.25000E-02 0.00000E+00
 -1        19 6.66667E-02 1.25000E-02 0.00000E+00
 -1        20 8.33333E-02 1.25000E-02 0.00000E+00
 -1        21 1.00000E-01 1.25000E-02 0.00000E+00
 -1        24 3.33333E-02 1.87500E-02 0.00000E+00
 -1        25 5.00000E-02 1.87500E-02 0.00000E+00
 -1        26 6.66667E-02 1.87500E-02 0.00000E+00
 -1        27 8.33333E-02 1.87500E-02 0.00000E+00
 -1        28 1.00000E-01 1.87500E-02 0.00000E+00
 -1        32 5.00000E-02 2.50000E-02 0.00000E+00
 -1        33 6.66667E-02 2.50000E-02 0.00000E+00
 -1        34 8.33333E-02 2.50000E-02 0.00000E+00
 -1        35 1.00000E-01 2.50000E-02 0.00000E+00
 -1        51 0.00000E+00 1.04167E-03 0.00000E+00
 -1        52 0.00000E+00 2.08333E-03 0.00000E+00
 -1        53 0.00000E+00 3.12500E-03 0.00000E+00
 -1        54 0.00000E+00 4.16667E-03 0.00000E+00
 -1        55 0.00000E+00 5.20833E-03 0.00000E+00
 -1        56 1.04167E-03 3.90630E-04 0.00000E+00
 -1        57 2.08333E-03 7.81250E-04 0.00000E+00
 -1        58 3.12500E-03 1.17188E-03 0.00000E+00
 -1        59 4.16667E-03 1.56250E-03 0.00000E+00
 -1        60 5.20833E-03 1.95312E-03 0.00000E+00
 -1        61 6.25000E-03 2.34375E-03 0.00000E+00
 -1        62 7.29167E-03 2.73438E-03 0.00000E+00
 -1        63 8.33333E-03 3.12500E-03 0.00000E+00
 -1        64 9.37500E-03 3.51563E-03 0.00000E+00
 -1        65 1.04167E-02 3.90625E-03 0.00000E+00
 -1        66 1.14583E-02 4.29688E-03 0.00000E+00
 -1        67 1.25000E-02 4.68750E-03 0.00000E+00
 -1        68 1.35417E-02 5.07813E-03 0.00000E+00
 -1        69 1.45833E-02 5.46875E-03 0.00000E+00
 -1        70 1.56250E-02 5.85938E-03 0.00000E+00
 -1        86 1.66667E-02 1.04167E-03 0.00000E+00
 -1        87 1.66667E-02 2.08333E-03 0.00000E+00
 -1        88 1.66667E-02 3.12500E-03 0.00000E+00
 -1        89 1.66667E-02 4.16667E-03 0.00000E+00
 -1        90 1.66667E-02 5.20833E-03 0.00000E+00
 -1       121 3.33333E-02 1.04167E-03 0.00000E+00
 -1       122 3.33333E-02 2.08333E-03 0.00000E+00
 -1       123 3.33333E-02 3.12500E-03 0.00000E+00
 -1       124 3.33333E-02 4.16667E-03 0.00000E+00
 -1       125 3.33333E-02 5.20833E-03 0.00000E+00
 -1       191 6.66667E-02 1.04167E-03 0.00000E+00
 -1       192 6.66667E-02 2.08333E-03 0.00000E+00
 -1       193 6.66667E-02 3.12500E-03 0.00000E+00
 -1       194 6.66667E-02 4.16667E-03 0.00000E+00
 -1       195 6.66667E-02 5.20833E-03 0.00000E+00
 -1       251 1.04167E-03 6.25000E-03 0.00000E+00
 -1       252 2.08333E-03 6.25000E-03 0.00000E+00
 -1       253 3.12500E-03 6.25000E-03 0.00000E+00
 -1       254 4.16667E-03 6.25000E-03 0.00000E+00
 -1       255 5.20833E-03 6.25000E-03 0.00000E+00
 -1       256 6.25000E-03 6.25000E-03 0.00000E+00
 -1       257 7.29167E-03 6.25000E-03 0.00000E+00
 -1       258 8.33333E-03 6.25000E-03 0.00000E+00
 -1       259 9.37500E-03 6.25000E-03 0.00000E+00
 -1       260 1.04167E-02 6.25000E-03 0.00000E+00
 -1       261 1.14583E-02 6.25000E-03 0.00000E+00
 -1       262 1.25000E-02 6.25000E-03 0.00000E+00
 -1       263 1.35417E-02 6.25000E-03 0.00000E+00
 -1       264 1.45833E-02 6.25000E-03 0.00000E+00
 -1       265 1.56250E-02 6.25000E-03 0.00000E+00
 -1       266 0.00000E+00 7.29167E-03 0.00000E+00
 -1       267 0.00000E+00 8.33333E-03 0.00000E+00
 -1       268 0.00000E+00 9.37500E-03 0.00000E+00
 -1       269 0.00000E+00 1.04167E-02 0.00000E+00
 -1       270 0.00000E+00 1.14583E-02 0.00000E+00
 -1       271 1.04167E-03 6.64063E-03 0.00000E+00
 -1       272 2.08333E-03 7.03125E-03 0.00000E+00
 -1       273 3.12500E-03 7.42188E-03 0.00000E+00
 -1       274 4.16667E-03 7.81250E-03 0.00000E+00
 -1       275 5.20833E-03 8.20313E-03 0.00000E+00
 -1       276 6.25000E-03 8.59375E-03 0.00000E+00
 -1       277 7.29167E-03 8.98438E-03 0.00000E+00
 -1       278 8.33333E-03 9.37500E-03 0.00000E+00
 -1       279 9.37500E-03 9.76562E-03 0.00000E+00
 -1       280 1.04167E-02 1.01562E-02 0.00000E+00
 -1       281 1.14583E-02 1.05469E-02 0.00000E+00
 -1       282 1.25000E-02 1.09375E-02 0.00000E+00
 -1       283 1.35417E-02 1.13281E-02 0.00000E+00
 -1       284 1.45833E-02 1.17188E-02 0.00000E+00
 -1       285 1.56250E-02 1.21094E-02 0.00000E+00
 -1       301 1.66667E-02 7.29167E-03 0.00000E+00
 -1       302 1.66667E-02 8.33333E-03 0.00000E+00
 -1       303 1.66667E-02 9.37500E-03 0.00000E+00
 -1       304 1.66667E-02 1.04167E-02 0.00000E+00
 -1       305 1.66667E-02 1.14583E-02 0.00000E+00
 -1       306 1.77083E-02 6.64063E-03 0.00000E+00
 -1       307 1.87500E-02 7.03125E-03 0.00000E+00
 -1       308 1.97917E-02 7.42188E-03 0.00000E+00
 -1       309 2.08333E-02 7.81250E-03 0.00000E+00
 -1       310 2.18750E-02 8.20313E-03 0.00000E+00
 -1       311 2.29167E-02 8.59375E-03 0.00000E+00
 -1       312 2.39583E-02 8.98438E-03 0.00000E+00
 -1       313 2.50000E-02 9.37500E-03 0.00000E+00
 -1       314 2.60417E-02 9.76562E-03 0.00000E+00
 -1       315 2.70833E-02 1.01562E-02 0.00000E+00
 -1       316 2.81250E-02 1.05469E-02 0.00000E+00
 -1       317 2.91667E-02 1.09375E-02 0.00000E+00
 -1       318 3.02083E-02 1.13281E-02 0.00000E+00
 -1       319 3.12500E-02 1.17188E-02 0.00000E+00
 -1       320 3.22917E-02 1.21094E-02 0.00000E+00
 -1       336 3.33333E-02 7.29167E-03 0.00000E+00
 -1       337 3.33333E-02 8.33333E-03 0.00000E+00
 -1       338 3.33333E-02 9.37500E-03 0.00000E+00
 -1       339 3.33333E-02 1.04167E-02 0.00000E+00
 -1       340 3.33333E-02 1.14583E-02 0.00000E+00
 -1       406 6.66667E-02 7.29167E-03 0.00000E+00
 -1       407 6.66667E-02 8.33333E-03 0.00000E+00
 -1       408 6.66667E-02 9.37500E-03 0.00000E+00
 -1       409 6.66667E-02 1.04167E-02 0.00000E+00
 -1       410 6.66667E-02 1.14583E-02 0.00000E+00
 -1       521 1.77083E-02 1.28906E-02 0.00000E+00
 -1       522 1.87500E-02 1.32813E-02 0.00000E+00
 -1       523 1.97917E-02 1.36719E-02 0.00000E+00
 -1       524 2.08333E-02 1.40625E-02 0.00000E+00
 -1       525 2.18750E-02 1.44531E-02 0.00000E+00
 -1       526 2.29167E-02 1.48437E-02 0.00000E+00
 -1       527 2.39583E-02 1.52344E-02 0.00000E+00
 -1       528 2.50000E-02 1.56250E-02 0.00000E+00
 -1       529 2.60417E-02 1.60156E-02 0.00000E+00
 -1       530 2.70833E-02 1.64062E-02 0.00000E+00
 -1       531 2.81250E-02 1.67969E-02 0.00000E+00
 -1       532 2.91667E-02 1.71875E-02 0.00000E+00
 -1       533 3.02083E-02 1.75781E-02 0.00000E+00
 -1       534 3.12500E-02 1.79687E-02 0.00000E+00
 -1       535 3.22917E-02 1.83594E-02 0.00000E+00
 -1       536 3.43750E-02 1.25000E-02 0.00000E+00
 -1       537 3.54167E-02 1.25000E-02 0.00000E+00
 -1       538 3.64583E-02 1.25000E-02 0.00000E+00
 -1       539 3.75000E-02 1.25000E-02 0.00000E+00
 -1       540 3.85417E-02 1.25000E-02 0.00000E+00
 -1       541 3.95833E-02 1.25000E-02 0.00000E+00
 -1       542 4.06250E-02 1.25000E-02 0.00000E+00
 -1       543 4.16667E-02 1.25000E-02 0.00000E+00
 -1       544 4.27083E-02 1.25000E-02 0.00000E+00
 -1       545 4.37500E-02 1.25000E-02 0.00000E+00
 -1       546 4.47917E-02 1.25000E-02 0.00000E+00
 -1       547 4.58333E-02 1.25000E-02 0.00000E+00
 -1       548 4.68750E-02 1.25000E-02 0.00000E+00
 -1       549 4.79167E-02 1.25000E-02 0.00000E+00
 -1       550 4.89583E-02 1.25000E-02 0.00000E+00
 -1       551 3.33333E-02 1.35417E-02 0.00000E+00
 -1       552 3.33333E-02 1.45833E-02 0.00000E+00
 -1       553 3.33333E-02 1.56250E-02 0.00000E+00
 -1       554 3.33333E-02 1.66667E-02 0.00000E+00
 -1       555 3.33333E-02 1.77083E-02 0.00000E+00
 -1       556 3.43750E-02 1.28906E-02 0.00000E+00
 -1       557 3.54167E-02 1.32813E-02 0.00000E+00
 -1       558 3.64583E-02 1.36719E-02 0.00000E+00
 -1       559 3.75000E-02 1.40625E-02 0.00000E+00
 -1       560 3.85417E-02 1.44531E-02 0.00000E+00
 -1       561 3.95833E-02 1.48437E-02 0.00000E+00
 -1       562 4.06250E-02 1.52344E-02 0.00000E+00
 -1       563 4.16667E-02 1.56250E-02 0.00000E+00
 -1       564 4.27083E-02 1.60156E-02 0.00000E+00
 -1       565 4.37500E-02 1.64062E-02 0.00000E+00
 -1       566 4.47917E-02 1.67969E-02 0.00000E+00
 -1       567 4.58333E-02 1.71875E-02 0.00000E+00
 -1       568 4.68750E-02 1.75781E-02 0.00000E+00
 -1       569 4.79167E-02 1.79687E-02 0.00000E+00
 -1       570 4.89583E-02 1.83594E-02 0.00000E+00
 -1       571 5.10417E-02 1.25000E-02 0.00000E+00
 -1       572 5.20833E-02 1.25000E-02 0.00000E+00
 -1       573 5.31250E-02 1.25000E-02 0.00000E+00
 -1       574 5.41667E-02 1.25000E-02 0.00000E+00
 -1       575 5.52083E-02 1.25000E-02 0.00000E+00
 -1       576 5.62500E-02 1.25000E-02 0.00000E+00
 -1       577 5.72917E-02 1.25000E-02 0.00000E+00
 -1       578 5.83333E-02 1.25000E-02 0.00000E+00
 -1       579 5.93750E-02 1.25000E-02 0.00000E+00
 -1       580 6.04167E-02 1.25000E-02 0.00000E+00
 -1       581 6.14583E-02 1.25000E-02 0.00000E+00
 -1       582 6.25000E-02 1.25000E-02 0.00000E+00
 -1       583 6.35417E-02 1.25000E-02 0.00000E+00
 -1       584 6.45833E-02 1.25000E-02 0.00000E+00
 -1       585 6.56250E-02 1.25000E-02 0.00000E+00
 -1       586 5.00000E-02 1.35417E-02 0.00000E+00
 -1       587 5.00000E-02 1.45833E-02 0.00000E+00
 -1       588 5.00000E-02 1.56250E-02 0.00000E+00
 -1       589 5.00000E-02 1.66667E-02 0.00000E+00
 -1       590 5.00000E-02 1.77083E-02 0.00000E+00
 -1       591 5.10417E-02 1.28906E-02 0.00000E+00
 -1       592 5.20833E-02 1.32813E-02 0.00000E+00
 -1       593 5.31250E-02 1.36719E-02 0.00000E+00
 -1       594 5.41667E-02 1.40625E-02 0.00000E+00
 -1       595 5.52083E-02 1.44531E-02 0.00000E+00
 -1       596 5.62500E-02 1.48437E-02 0.00000E+00
 -1       597 5.72917E-02 1.52344E-02 0.00000E+00
 -1       598 5.83333E-02 1.56250E-02 0.00000E+00
 -1       599 5.93750E-02 1.60156E-02 0.00000E+00
 -1       600 6.04167E-02 1.64062E-02 0.00000E+00
 -1       601 6.14583E-02 1.67969E-02 0.00000E+00
 -1       602 6.25000E-02 1.71875E-02 0.00000E+00
 -1       603 6.35417E-02 1.75781E-02 0.00000E+00
 -1       604 6.45833E-02 1.79687E-02 0.00000E+00
 -1       605 6.56250E-02 1.83594E-02 0.00000E+00
 -1       606 6.77083E-02 1.25000E-02 0.00000E+00
 -1       607 6.87500E-02 1.25000E-02 0.00000E+00
 -1       608 6.97917E-02 1.25000E-02 0.00000E+00
 -1       609 7.08333E-02 1.25000E-02 0.00000E+00
 -1       610 7.18750E-02 1.25000E-02 0.00000E+00
 -1       611 7.29167E-02 1.25000E-02 0.00000E+00
 -1       612 7.39583E-02 1.25000E-02 0.00000E+00
 -1       613 7.50000E-02 1.25000E-02 0.00000E+00
 -1       614 7.60417E-02 1.25000E-02 0.00000E+00
 -1       615 7.70833E-02 1.25000E-02 0.00000E+00
 -1       616 7.81250E-02 1.25000E-02 0.00000E+00
 -1       617 7.91667E-02 1.25000E-02 0.00000E+00
 -1       618 8.02083E-02 1.25000E-02 0.00000E+00
 -1       619 8.12500E-02 1.25000E-02 0.00000E+00
 -1       620 8.22917E-02 1.25000E-02 0.00000E+00
 -1       621 6.66667E-02 1.35417E-02 0.00000E+00
 -1       622 6.66667E-02 1.45833E-02 0.00000E+00
 -1       623 6.66667E-02 1.56250E-02 0.00000E+00
 -1       624 6.66667E-02 1.66667E-02 0.00000E+00
 -1       625 6.66667E-02 1.77083E-02 0.00000E+00
 -1       626 6.77083E-02 1.28906E-02 0.00000E+00
 -1       627 6.87500E-02 1.32813E-02 0.00000E+00
 -1       628 6.97917E-02 1.36719E-02 0.00000E+00
 -1       629 7.08333E-02 1.40625E-02 0.00000E+00
 -1       630 7.18750E-02 1.44531E-02 0.00000E+00
 -1       631 7.29167E-02 1.48437E-02 0.00000E+00
 -1       632 7.39583E-02 1.52344E-02 0.00000E+00
 -1       633 7.50000E-02 1.56250E-02 0.00000E+00
 -1       634 7.60417E-02 1.60156E-02 0.00000E+00
 -1       635 7.70833E-02 1.64062E-02 0.00000E+00
 -1       636 7.81250E-02 1.67969E-02 0.00000E+00
 -1       637 7.91667E-02 1.71875E-02 0.00000E+00
 -1       638 8.02083E-02 1.75781E-02 0.00000E+00
 -1       639 8.12500E-02 1.79687E-02 0.00000E+00
 -1       640 8.22917E-02 1.83594E-02 0.00000E+00
 -1       656 8.33333E-02 1.35417E-02 0.00000E+00
 -1       657 8.33333E-02 1.45833E-02 0.00000E+00
 -1       658 8.33333E-02 1.56250E-02 0.00000E+00
 -1       659 8.33333E-02 1.66667E-02 0.00000E+00
 -1       660 8.33333E-02 1.77083E-02 0.00000E+00
 -1       661 8.43750E-02 1.28906E-02 0.00000E+00
 -1       662 8.54167E-02 1.32813E-02 0.00000E+00
 -1       663 8.64583E-02 1.36719E-02 0.00000E+00
 -1       664 8.75000E-02 1.40625E-02 0.00000E+00
 -1       665 8.85417E-02 1.44531E-02 0.00000E+00
 -1       666 8.95833E-02 1.48437E-02 0.00000E+00
 -1       667 9.06250E-02 1.52344E-02 0.00000E+00
 -1       668 9.16667E-02 1.56250E-02 0.00000E+00
 -1       669 9.27083E-02 1.60156E-02 0.00000E+00
 -1       670 9.37500E-02 1.64062E-02 0.00000E+00
 -1       671 9.47917E-02 1.67969E-02 0.00000E+00
 -1       672 9.58333E-02 1.71875E-02 0.00000E+00
 -1       673 9.68750E-02 1.75781E-02 0.00000E+00
 -1       674 9.79167E-02 1.79687E-02 0.00000E+00
 -1       675 9.89583E-02 1.83594E-02 0.00000E+00
 -1       676 1.00000E-01 1.35417E-02 0.00000E+00
 -1       677 1.00000E-01 1.45833E-02 0.00000E+00
 -1       678 1.00000E-01 1.56250E-02 0.00000E+00
 -1       679 1.00000E-01 1.66667E-02 0.00000E+00
 -1       680 1.00000E-01 1.77083E-02 0.00000E+00
 -1       771 3.43750E-02 1.91406E-02 0.00000E+00
 -1       772 3.54167E-02 1.95312E-02 0.00000E+00
 -1       773 3.64583E-02 1.99219E-02 0.00000E+00
 -1       774 3.75000E-02 2.03125E-02 0.00000E+00
 -1       775 3.85417E-02 2.07031E-02 0.00000E+00
 -1       776 3.95833E-02 2.10938E-02 0.00000E+00
 -1       777 4.06250E-02 2.14844E-02 0.00000E+00
 -1       778 4.16667E-02 2.18750E-02 0.00000E+00
 -1       779 4.27083E-02 2.22656E-02 0.00000E+00
 -1       780 4.37500E-02 2.26563E-02 0.00000E+00
 -1       781 4.47917E-02 2.30469E-02 0.00000E+00
 -1       782 4.58333E-02 2.34375E-02 0.00000E+00
 -1       783 4.68750E-02 2.38281E-02 0.00000E+00
 -1       784 4.79167E-02 2.42187E-02 0.00000E+00
 -1       785 4.89583E-02 2.46094E-02 0.00000E+00
 -1       786 5.10417E-02 1.87500E-02 0.00000E+00
 -1       787 5.20833E-02 1.87500E-02 0.00000E+00
 -1       788 5.31250E-02 1.87500E-02 0.00000E+00
 -1       789 5.41667E-02 1.87500E-02 0.00000E+00
 -1       790 5.52083E-02 1.87500E-02 0.00000E+00
 -1       791 5.62500E-02 1.87500E-02 0.00000E+00
 -1       792 5.72917E-02 1.87500E-02 0.00000E+00
 -1       793 5.83333E-02 1.87500E-02 0.00000E+00
 -1       794 5.93750E-02 1.87500E-02 0.00000E+00
 -1       795 6.04167E-02 1.87500E-02 0.00000E+00
 -1       796 6.14583E-02 1.87500E-02 0.00000E+00
 -1       797 6.25000E-02 1.87500E-02 0.00000E+00
 -1       798 6.35417E-02 1.87500E-02 0.00000E+00
 -1       799 6.45833E-02 1.87500E-02 0.00000E+00
 -1       800 6.56250E-02 1.87500E-02 0.00000E+00
 -1       801 5.00000E-02 1.97917E-02 0.00000E+00
 -1       802 5.00000E-02 2.08333E-02 0.00000E+00
 -1       803 5.00000E-02 2.18750E-02 0.00000E+00
 -1       804 5.00000E-02 2.29167E-02 0.00000E+00
 -1       805 5.00000E-02 2.39583E-02 0.00000E+00
 -1       806 5.10417E-02 1.91406E-02 0.00000E+00
 -1       807 5.20833E-02 1.95312E-02 0.00000E+00
 -1       808 5.31250E-02 1.99219E-02 0.00000E+00
 -1       809 5.41667E-02 2.03125E-02 0.00000E+00
 -1       810 5.52083E-02 2.07031E-02 0.00000E+00
 -1       811 5.62500E-02 2.10938E-02 0.00000E+00
 -1       812 5.72917E-02 2.14844E-02 0.00000E+00
 -1       813 5.83333E-02 2.18750E-02 0.00000E+00
 -1       814 5.93750E-02 2.22656E-02 0.00000E+00
 -1       815 6.04167E-02 2.26563E-02 0.00000E+00
 -1       816 6.14583E-02 2.30469E-02 0.00000E+00
 -1       817 6.25000E-02 2.34375E-02 0.00000E+00
 -1       818 6.35417E-02 2.38281E-02 0.00000E+00
 -1       819 6.45833E-02 2.42187E-02 0.00000E+00
 -1       820 6.56250E-02 2.46094E-02 0.00000E+00
 -1       821 6.77083E-02 1.87500E-02 0.00000E+00
 -1       822 6.87500E-02 1.87500E-02 0.00000E+00
 -1       823 6.97917E-02 1.87500E-02 0.00000E+00
 -1       824 7.08333E-02 1.87500E-02 0.00000E+00
 -1       825 7.18750E-02 1.87500E-02 0.00000E+00
 -1       826 7.29167E-02 1.87500E-02 0.00000E+00
 -1       827 7.39583E-02 1.87500E-02 0.00000E+00
 -1       828 7.50000E-02 1.87500E-02 0.00000E+00
 -1       829 7.60417E-02 1.87500E-02 0.00000E+00
 -1       830 7.70833E-02 1.87500E-02 0.00000E+00
 -1       831 7.81250E-02 1.87500E-02 0.00000E+00
 -1       832 7.91667E-02 1.87500E-02 0.00000E+00
 -1       833 8.02083E-02 1.87500E-02 0.00000E+00
 -1       834 8.12500E-02 1.87500E-02 0.00000E+00
 -1       835 8.22917E-02 1.87500E-02 0.00000E+00
 -1       836 6.66667E-02 1.97917E-02 0.00000E+00
 -1       837 6.66667E-02 2.08333E-02 0.00000E+00
 -1       838 6.66667E-02 2.18750E-02 0.00000E+00
 -1       839 6.66667E-02 2.29167E-02 0.00000E+00
 -1       840 6.66667E-02 2.39583E-02 0.00000E+00
 -1       856 8.43750E-02 1.87500E-02 0.00000E+00
 -1       857 8.54167E-02 1.87500E-02 0.00000E+00
 -1       858 8.64583E-02 1.87500E-02 0.00000E+00
 -1       859 8.75000E-02 1.87500E-02 0.00000E+00
 -1       860 8.85417E-02 1.87500E-02 0.00000E+00
 -1       861 8.95833E-02 1.87500E-02 0.00000E+00
 -1       862 9.06250E-02 1.87500E-02 0.00000E+00
 -1       863 9.16667E-02 1.87500E-02 0.00000E+00
 -1       864 9.27083E-02 1.87500E-02 0.00000E+00
 -1       865 9.37500E-02 1.87500E-02 0.00000E+00
 -1       866 9.47917E-02 1.87500E-02 0.00000E+00
 -1       867 9.58333E-02 1.87500E-02 0.00000E+00
 -1       868 9.68750E-02 1.87500E-02 0.00000E+00
 -1       869 9.79167E-02 1.87500E-02 0.00000E+00
 -1       870 9.89583E-02 1.87500E-02 0.00000E+00
 -1       871 8.33333E-02 1.97917E-02 0.00000E+00
 -1       872 8.33333E-02 2.08333E-02 0.00000E+00
 -1       873 8.33333E-02 2.18750E-02 0.00000E+00
 -1       874 8.33333E-02 2.29167E-02 0.00000E+00
 -1       875 8.33333E-02 2.39583E-02 0.00000E+00
 -1       876 8.43750E-02 1.91406E-02 0.00000E+00
 -1       877 8.54167E-02 1.95312E-02 0.00000E+00
 -1       878 8.64583E-02 1.99219E-02 0.00000E+00
 -1       879 8.75000E-02 2.03125E-02 0.00000E+00
 -1       880 8.85417E-02 2.07031E-02 0.00000E+00
 -1       881 8.95833E-02 2.10938E-02 0.00000E+00
 -1       882 9.06250E-02 2.14844E-02 0.00000E+00
 -1       883 9.16667E-02 2.18750E-02 0.00000E+00
 -1       884 9.27083E-02 2.22656E-02 0.00000E+00
 -1       885 9.37500E-02 2.26563E-02 0.00000E+00
 -1       886 9.47917E-02 2.30469E-02 0.00000E+00
 -1       887 9.58333E-02 2.34375E-02 0.00000E+00
 -1       888 9.68750E-02 2.38281E-02 0.00000E+00
 -1       889 9.79167E-02 2.42187E-02 0.00000E+00
 -1       890 9.89583E-02 2.46094E-02 0.00000E+00
 -1       891 1.00000E-01 1.97917E-02 0.00000E+00
 -1       892 1.00000E-01 2.08333E-02 0.00000E+00
 -1       893 1.00000E-01 2.18750E-02 0.00000E+00
 -1       894 1.00000E-01 2.29167E-02 0.00000E+00
 -1       895 1.00000E-01 2.39583E-02 0.00000E+00
 -1       956 6.77083E-02 2.50000E-02 0.00000E+00
 -1       957 6.87500E-02 2.50000E-02 0.00000E+00
 -1       958 6.97917E-02 2.50000E-02 0.00000E+00
 -1       959 7.08333E-02 2.50000E-02 0.00000E+00
 -1       960 7.18750E-02 2.50000E-02 0.00000E+00
 -1       961 7.29167E-02 2.50000E-02 0.00000E+00
 -1       962 7.39583E-02 2.50000E-02 0.00000E+00
 -1       963 7.50000E-02 2.50000E-02 0.00000E+00
 -1       964 7.60417E-02 2.50000E-02 0.00000E+00
 -1       965 7.70833E-02 2.50000E-02 0.00000E+00
 -1       966 7.81250E-02 2.50000E-02 0.00000E+00
 -1       967 7.91667E-02 2.50000E-02 0.00000E+00
 -1       968 8.02083E-02 2.50000E-02 0.00000E+00
 -1       969 8.12500E-02 2.50000E-02 0.00000E+00
 -1       970 8.22917E-02 2.50000E-02 0.00000E+00
 -1       971 8.43750E-02 2.50000E-02 0.00000E+00
 -1       972 8.54167E-02 2.50000E-02 0.00000E+00
 -1       973 8.64583E-02 2.50000E-02 0.00000E+00
 -1       974 8.75000E-02 2.50000E-02 0.00000E+00
 -1       975 8.85417E-02 2.50000E-02 0.00000E+00
 -1       976 8.95833E-02 2.50000E-02 0.00000E+00
 -1       977 9.06250E-02 2.50000E-02 0.00000E+00
 -1       978 9.16667E-02 2.50000E-02 0.00000E+00
 -1       979 9.27083E-02 2.50000E-02 0.00000E+00
 -1       980 9.37500E-02 2.50000E-02 0.00000E+00
 -1       981 9.47917E-02 2.50000E-02 0.00000E+00
 -1       982 9.58333E-02 2.50000E-02 0.00000E+00
 -1       983 9.68750E-02 2.50000E-02 0.00000E+00
 -1       984 9.79167E-02 2.50000E-02 0.00000E+00
 -1       985 9.89583E-02 2.50000E-02 0.00000E+00
 -3
    3C                           211                                     1
 -1         1   12    0    1
 -2         1        52        51
 -1         2   12    0    1
 -2        52        54        53
 -1         3   12    0    1
 -2        54         8        55
 -1         4   12    0    1
 -2         1        57        56
 -1         5   12    0    1
 -2        57        59        58
 -1         6   12    0    1
 -2        59        61        60
 -1         7   12    0    1
 -2        61        63        62
 -1         8   12    0    1
 -2        63        65        64
 -1         9   12    0    1
 -2        65        67        66
 -1        10   12    0    1
 -2        67        69        68
 -1        11   12    0    1
 -2        69         9        70
 -1        12   12    0    1
 -2         2        87        86
 -1        13   12    0    1
 -2        87        89        88
 -1        14   12    0    1
 -2        89         9        90
 -1        15   12    0    1
 -2         3       122       121
 -1        16   12    0    1
 -2       122       124       123
 -1        17   12    0    1
 -2       124        10       125
 -1        18   12    0    1
 -2         5       192       191
 -1        19   12    0    1
 -2       192       194       193
 -1        20   12    0    1
 -2       194        12       195
 -1        21   12    0    1
 -2         8       252       251
 -1        22   12    0    1
 -2       252       254       253
 -1        23   12    0    1
 -2       254       256       255
 -1        24   12    0    1
 -2       256       258       257
 -1        25   12    0    1
 -2       258       260       259
 -1        26   12    0    1
 -2       260       262       261
 -1        27   12    0    1
 -2       262       264       263
 -1        28   12    0    1
 -2       264         9       265
 -1        29   12    0    1
 -2         8       267       266
 -1        30   12    0    1
 -2       267       269       268
 -1        31   12    0    1
 -2       269        15       270
 -1        32   12    0    1
 -2         8       272       271
 -1        33   12    0    1
 -2       272       274       273
 -1        34   12    0    1
 -2       274       276       275
 -1        35   12    0    1
 -2       276       278       277
 -1        36   12    0    1
 -2       278       280       279
 -1        37   12    0    1
 -2       280       282       281
 -1        38   12    0    1
 -2       282       284       283
 -1        39   12    0    1
 -2       284        16       285
 -1        40   12    0    1
 -2         9       302       301
 -1        41   12    0    1
 -2       302       304       303
 -1        42   12    0    1
 -2       304        16       305
 -1        43   12    0    1
 -2         9       307       306
 -1        44   12    0    1
 -2       307       309       308
 -1        45   12    0    1
 -2       309       311       310
 -1        46   12    0    1
 -2       311       313       312
 -1        47   12    0    1
 -2       313       315       314
 -1        48   12    0    1
 -2       315       317       316
 -1        49   12    0    1
 -2       317       319       318
 -1        50   12    0    1
 -2       319        17       320
 -1        51   12    0    1
 -2        10       337       336
 -1        52   12    0    1
 -2       337       339       338
 -1        53   12    0    1
 -2       339        17       340
 -1        54   12    0    1
 -2        12       407       406
 -1        55   12    0    1
 -2       407       409       408
 -1        56   12    0    1
 -2       409        19       410
 -1        57   12    0    1
 -2        16       522       521
 -1        58   12    0    1
 -2       522       524       523
 -1        59   12    0    1
 -2       524       526       525
 -1        60   12    0    1
 -2       526       528       527
 -1        61   12    0    1
 -2       528       530       529
 -1        62   12    0    1
 -2       530       532       531
 -1        63   12    0    1
 -2       532       534       533
 -1        64   12    0    1
 -2       534        24       535
 -1        65   12    0    1
 -2        17       537       536
 -1        66   12    0    1
 -2       537       539       538
 -1        67   12    0    1
 -2       539       541       540
 -1        68   12    0    1
 -2       541       543       542
 -1        69   12    0    1
 -2       543       545       544
 -1        70   12    0    1
 -2       545       547       546
 -1        71   12    0    1
 -2       547       549       548
 -1        72   12    0    1
 -2       549        18       550
 -1        73   12    0    1
 -2        17       552       551
 -1        74   12    0    1
 -2       552       554       553
 -1        75   12    0    1
 -2       554        24       555
 -1        76   12    0    1
 -2        17       557       556
 -1        77   12    0    1
 -2       557       559       558
 -1        78   12    0    1
 -2       559       561       560
 -1        79   12    0    1
 -2       561       563       562
 -1        80   12    0    1
 -2       563       565       564
 -1        81   12    0    1
 -2       565       567       566
 -1        82   12    0    1
 -2       567       569       568
 -1        83   12    0    1
 -2       569        25       570
 -1        84   12    0    1
 -2        18       572       571
 -1        85   12    0    1
 -2       572       574       573
 -1        86   12    0    1
 -2       574       576       575
 -1        87   12    0    1
 -2       576       578       577
 -1        88   12    0    1
 -2       578       580       579
 -1        89   12    0    1
 -2       580       582       581
 -1        90   12    0    1
 -2       582       584       583
 -1        91   12    0    1
 -2       584        19       585
 -1        92   12    0    1
 -2        18       587       586
 -1        93   12    0    1
 -2       587       589       588
 -1        94   12    0    1
 -2       589        25       590
 -1        95   12    0    1
 -2        18       592       591
 -1        96   12    0    1
 -2       592       594       593
 -1        97   12    0    1
 -2       594       596       595
 -1        98   12    0    1
 -2       596       598       597
 -1        99   12    0    1
 -2       598       600       599
 -1       100   12    0    1
 -2       600       602       601
 -1       101   12    0    1
 -2       602       604       603
 -1       102   12    0    1
 -2       604        26       605
 -1       103   12    0    1
 -2        19       607       606
 -1       104   12    0    1
 -2       607       609       608
 -1       105   12    0    1
 -2       609       611       610
 -1       106   12    0    1
 -2       611       613       612
 -1       107   12    0    1
 -2       613       615       614
 -1       108   12    0    1
 -2       615       617       616
 -1       109   12    0    1
 -2       617       619       618
 -1       110   12    0    1
 -2       619        20       620
 -1       111   12    0    1
 -2        19       622       621
 -1       112   12    0    1
 -2       622       624       623
 -1       113   12    0    1
 -2       624        26       625
 -1       114   12    0    1
 -2        19       627       626
 -1       115   12    0    1
 -2       627       629       628
 -1       116   12    0    1
 -2       629       631       630
 -1       117   12    0    1
 -2       631       633       632
 -1       118   12    0    1
 -2       633       635       634
 -1       119   12    0    1
 -2       635       637       636
 -1       120   12    0    1
 -2       637       639       638
 -1       121   12    0    1
 -2       639        27       640
 -1       122   12    0    1
 -2        20       657       656
 -1       123   12    0    1
 -2       657       659       658
 -1       124   12    0    1
 -2       659        27       660
 -1       125   12    0    1
 -2        20       662       661
 -1       126   12    0    1
 -2       662       664       663
 -1       127   12    0    1
 -2       664       666       665
 -1       128   12    0    1
 -2       666       668       667
 -1       129   12    0    1
 -2       668       670       669
 -1       130   12    0    1
 -2       670       672       671
 -1       131   12    0    1
 -2       672       674       673
 -1       132   12    0    1
 -2       674        28       675
 -1       133   12    0    1
 -2        21       677       676
 -1       134   12    0    1
 -2       677       679       678
 -1       135   12    0    1
 -2       679        28       680
 -1       136   12    0    1
 -2        24       772       771
 -1       137   12    0    1
 -2       772       774       773
 -1       138   12    0    1
 -2       774       776       775
 -1       139   12    0    1
 -2       776       778       777
 -1       140   12    0    1
 -2       778       780       779
 -1       141   12    0    1
 -2       780       782       781
 -1       142   12    0    1
 -2       782       784       783
 -1       143   12    0    1
 -2       784        32       785
 -1       144   12    0    1
 -2        25       787       786
 -1       145   12    0    1
 -2       787       789       788
 -1       146   12    0    1
 -2       789       791       790
 -1       147   12    0    1
 -2       791       793       792
 -1       148   12    0    1
 -2       793       795       794
 -1       149   12    0    1
 -2       795       797       796
 -1       150   12    0    1
 -2       797       799       798
 -1       151   12    0    1
 -2       799        26       800
 -1       152   12    0    1
 -2        25       802       801
 -1       153   12    0    1
 -2       802       804       803
 -1       154   12    0    1
 -2       804        32       805
 -1       155   12    0    1
 -2        25       807       806
 -1       156   12    0    1
 -2       807       809       808
 -1       157   12    0    1
 -2       809       811       810
 -1       158   12    0    1
 -2       811       813       812
 -1       159   12    0    1
 -2       813       815       814
 -1       160   12    0    1
 -2       815       817       816
 -1       161   12    0    1
 -2       817       819       818
 -1       162   12    0    1
 -2       819        33       820
 -1       163   12    0    1
 -2        26       822       821
 -1       164   12    0    1
 -2       822       824       823
 -1       165   12    0    1
 -2       824       826       825
 -1       166   12    0    1
 -2       826       828       827
 -1       167   12    0    1
 -2       828       830       829
 -1       168   12    0    1
 -2       830       832       831
 -1       169   12    0    1
 -2       832       834       833
 -1       170   12    0    1
 -2       834        27       835
 -1       171   12    0    1
 -2        26       837       836
 -1       172   12    0    1
 -2       837       839       838
 -1       173   12    0    1
 -2       839        33       840
 -1       174   12    0    1
 -2        27       857       856
 -1       175   12    0    1
 -2       857       859       858
 -1       176   12    0    1
 -2       859       861       860
 -1       177   12    0    1
 -2       861       863       862
 -1       178   12    0    1
 -2       863       865       864
 -1       179   12    0    1
 -2       865       867       866
 -1       180   12    0    1
 -2       867       869       868
 -1       181   12    0    1
 -2       869        28       870
 -1       182   12    0    1
 -2        27       872       871
 -1       183   12    0    1
 -2       872       874       873
 -1       184   12    0    1
 -2       874        34       875
 -1       185   12    0    1
 -2        27       877       876
 -1       186   12    0    1
 -2       877       879       878
 -1       187   12    0    1
 -2       879       881       880
 -1       188   12    0    1
 -2       881       883       882
 -1       189   12    0    1
 -2       883       885       884
 -1       190   12    0    1
 -2       885       887       886
 -1       191   12    0    1
 -2       887       889       888
 -1       192   12    0    1
 -2       889        35       890
 -1       193   12    0    1
 -2        28       892       891
 -1       194   12    0    1
 -2       892       894       893
 -1       195   12    0    1
 -2       894        35       895
 -1       196   12    0    1
 -2        33       957       956
 -1       197   12    0    1
 -2       957       959       958
 -1       198   12    0    1
 -2       959       961       960
 -1       199   12    0    1
 -2       961       963       962
 -1       200   12    0    1
 -2       963       965       964
 -1       201   12    0    1
 -2       965       967       966
 -1       202   12    0    1
 -2       967       969       968
 -1       203   12    0    1
 -2       969        34       970
 -1       204   12    0    1
 -2        34       972       971
 -1       205   12    0    1
 -2       972       974       973
 -1       206   12    0    1
 -2       974       976       975
 -1       207   12    0    1
 -2       976       978       977
 -1       208   12    0    1
 -2       978       980       979
 -1       209   12    0    1
 -2       980       982       981
 -1       210   12    0    1
 -2       982       984       983
 -1       211   12    0    1
 -2       984        35       985
 -3
    1PSTEP                         1           1           1          
  100CL  101 1.000000000         409                     0    1           1
 -4  DISP        4    1
 -5  D1          1    2    1    0
 -5  D2          1    2    2    0
 -5  D3          1    2    3    0
 -5  ALL         1    2    0    0    1ALL
 -1         1 1.86611E-04 0.00000E+00 0.00000E+00
 -1         2 1.27675E-04-3.21357E-31 0.00000E+00
 -1         3 1.37468E-04-3.78835E-26 1.32349E-23
 -1         5 9.99975E-05 5.72310E-25-6.61744E-24
 -1         8 1.51023E-04-1.59375E-06 0.00000E+00
 -1         9 1.25325E-04-5.58186E-06 0.00000E+00
 -1        10 1.27176E-04-3.09605E-06-6.61744E-24
 -1        12 9.87890E-05 1.17442E-06-3.30872E-24
 -1        15 1.11425E-04-1.76518E-06 8.27181E-25
 -1        16 9.13640E-05-5.86925E-06 0.00000E+00
 -1        17 9.33561E-05-6.71622E-06 0.00000E+00
 -1        18 9.30699E-05-2.05269E-07 0.00000E+00
 -1        19 9.51619E-05 2.34102E-06 0.00000E+00
 -1        20 9.57993E-05 2.89754E-05 0.00000E+00
 -1        21 9.42226E-05 6.25659E-05 6.61744E-24
 -1        24 2.99021E-05-8.50684E-06 0.00000E+00
 -1        25 8.86268E-05 1.36939E-07 0.00000E+00
 -1        26 9.04294E-05 3.17997E-06 0.00000E+00
 -1        27 8.80773E-05 2.74059E-05 0.00000E+00
 -1        28 8.62816E-05 6.14776E-05 0.00000E+00
 -1        32 0.00000E+00 0.00000E+00 0.00000E+00
 -1        33 8.46881E-05 4.24673E-06 0.00000E+00
 -1        34 8.21202E-05 2.72997E-05 0.00000E+00
 -1        35 7.89425E-05 6.09363E-05 0.00000E+00
 -1        51 1.84050E-04-2.60968E-07 0.00000E+00
 -1        52 1.79657E-04-5.15344E-07 0.00000E+00
 -1        53 1.73788E-04-7.72052E-07 0.00000E+00
 -1        54 1.66811E-04-1.03434E-06 0.00000E+00
 -1        55 1.59099E-04-1.30439E-06-4.96308E-24
 -1        56 1.82783E-04 3.11861E-08 5.29396E-23
 -1        57 1.77893E-04 2.49511E-06 0.00000E+00
 -1        58 1.72363E-04 6.66551E-06 0.00000E+00
 -1        59 1.66525E-04 1.15787E-05 0.00000E+00
 -1        60 1.60851E-04 1.60610E-05 1.05879E-22
 -1        61 1.55769E-04 1.89724E-05 5.29396E-23
 -1        62 1.51529E-04 1.96608E-05 1.05879E-22
 -1        63 1.48283E-04 1.76982E-05-5.29396E-23
 -1        64 1.45879E-04 1.34806E-05 0.00000E+00
 -1        65 1.44080E-04 7.63531E-06 5.29396E-23
 -1        66 1.42463E-04 1.29657E-06 1.05879E-22
 -1        67 1.40595E-04-4.34952E-06 0.00000E+00
 -1        68 1.38110E-04-8.33416E-06 0.00000E+00
 -1        69 1.34727E-04-9.85114E-06 0.00000E+00
 -1        70 1.30398E-04-8.87556E-06 0.00000E+00
 -1        86 1.27379E-04-9.31675E-07 0.00000E+00
 -1        87 1.26505E-04-1.86331E-06 0.00000E+00
 -1        88 1.26346E-04-2.79474E-06-2.64698E-23
 -1        89 1.28163E-04-3.72559E-06 0.00000E+00
 -1        90 1.28844E-04-4.65639E-06 0.00000E+00
 -1       121 1.37178E-04-5.13819E-07 0.00000E+00
 -1       122 1.36311E-04-1.02799E-06-6.61744E-24
 -1       123 1.34869E-04-1.54282E-06 0.00000E+00
 -1       124 1.32860E-04-2.05880E-06 6.61744E-24
 -1       125 1.30292E-04-2.57596E-06 0.00000E+00
 -1       191 9.99639E-05 1.95770E-07 0.00000E+00
 -1       192 9.98632E-05 3.91534E-07-3.30872E-24
 -1       193 9.96954E-05 5.87289E-07 0.00000E+00
 -1       194 9.94605E-05 7.83028E-07-3.30872E-24
 -1       195 9.91584E-05 9.78742E-07 0.00000E+00
 -1       251 1.49447E-04 2.54887E-06 0.00000E+00
 -1       252 1.47840E-04 1.65767E-06 0.00000E+00
 -1       253 1.46233E-04-8.23887E-07 0.00000E+00
 -1       254 1.44622E-04-1.33383E-06 0.00000E+00
 -1       255 1.43011E-04-1.23674E-06 0.00000E+00
 -1       256 1.41398E-04-1.94145E-06-2.64698E-23
 -1       257 1.39785E-04-2.85592E-06 5.29396E-23
 -1       258 1.38172E-04-3.37286E-06 0.00000E+00
 -1       259 1.36559E-04-3.87671E-06 0.00000E+00
 -1       260 1.34946E-04-4.75284E-06 2.64698E-23
 -1       261 1.33334E-04-5.45787E-06 0.00000E+00
 -1       262 1.31723E-04-5.46092E-06 0.00000E+00
 -1       263 1.30112E-04-5.98285E-06 0.00000E+00
 -1       264 1.28506E-04-8.20673E-06 0.00000E+00
 -1       265 1.26899E-04-9.06250E-06-2.64698E-23
 -1       266 1.44423E-04-1.64528E-06-1.32349E-23
 -1       267 1.37823E-04-1.67104E-06 0.00000E+00
 -1       268 1.31224E-04-1.69847E-06-3.30872E-24
 -1       269 1.24624E-04-1.72103E-06 0.00000E+00
 -1       270 1.18024E-04-1.74350E-06-8.27181E-25
 -1       271 1.45560E-04 3.06515E-06 0.00000E+00
 -1       272 1.40536E-04 6.22738E-06 5.29396E-23
 -1       273 1.36069E-04 7.93245E-06-1.05879E-22
 -1       274 1.32110E-04 8.23811E-06-5.29396E-23
 -1       275 1.28619E-04 7.29783E-06 0.00000E+00
 -1       276 1.25513E-04 5.31894E-06 0.00000E+00
 -1       277 1.22693E-04 2.57112E-06 0.00000E+00
 -1       278 1.20046E-04-6.39241E-07 5.29396E-23
 -1       279 1.17447E-04-3.97851E-06 1.05879E-22
 -1       280 1.14770E-04-7.10663E-06-5.29396E-23
 -1       281 1.11892E-04-9.69637E-06 1.05879E-22
 -1       282 1.08703E-04-1.14462E-05 5.29396E-23
 -1       283 1.05105E-04-1.21046E-05 0.00000E+00
 -1       284 1.01038E-04-1.14680E-05-5.29396E-23
 -1       285 9.64319E-05-9.41984E-06-5.29396E-23
 -1       301 1.19668E-04-5.64278E-06 1.32349E-23
 -1       302 1.13982E-04-5.67653E-06 0.00000E+00
 -1       303 1.08289E-04-5.70765E-06 0.00000E+00
 -1       304 1.02608E-04-5.74099E-06 1.98523E-23
 -1       305 9.69594E-05-5.78095E-06-1.32349E-23
 -1       306 1.21847E-04-1.59368E-06 5.29396E-23
 -1       307 1.19003E-04 5.84301E-07-2.64698E-23
 -1       308 1.16767E-04 1.15279E-06 0.00000E+00
 -1       309 1.15045E-04 3.33393E-07-2.64698E-23
 -1       310 1.13740E-04-1.60363E-06 0.00000E+00
 -1       311 1.12740E-04-4.36167E-06 0.00000E+00
 -1       312 1.11926E-04-7.61790E-06 0.00000E+00
 -1       313 1.11172E-04-1.10370E-05 0.00000E+00
 -1       314 1.10352E-04-1.42785E-05 0.00000E+00
 -1       315 1.09340E-04-1.70061E-05 2.64698E-23
 -1       316 1.08018E-04-1.89004E-05 0.00000E+00
 -1       317 1.06274E-04-1.96626E-05 0.00000E+00
 -1       318 1.04007E-04-1.90303E-05 0.00000E+00
 -1       319 1.01138E-04-1.67734E-05 0.00000E+00
 -1       320 9.75843E-05-1.27196E-05 0.00000E+00
 -1       336 1.23391E-04-3.69155E-06 1.32349E-23
 -1       337 1.18819E-04-4.29163E-06 0.00000E+00
 -1       338 1.13492E-04-4.89504E-06 1.32349E-23
 -1       339 1.07445E-04-5.50106E-06 0.00000E+00
 -1       340 1.00718E-04-6.11152E-06 0.00000E+00
 -1       406 9.83525E-05 1.37005E-06-6.61744E-24
 -1       407 9.78487E-05 1.56558E-06-3.30872E-24
 -1       408 9.72777E-05 1.76093E-06 6.61744E-24
 -1       409 9.66394E-05 1.95585E-06 0.00000E+00
 -1       410 9.59339E-05 2.14988E-06-6.61744E-24
 -1       521 8.62900E-05-2.47942E-06 0.00000E+00
 -1       522 8.17691E-05-8.40616E-07 5.29396E-23
 -1       523 7.78592E-05-8.08405E-07-1.05879E-22
 -1       524 7.44675E-05-2.20237E-06 0.00000E+00
 -1       525 7.15049E-05-4.74562E-06 0.00000E+00
 -1       526 6.88456E-05-8.10971E-06 0.00000E+00
 -1       527 6.63506E-05-1.19159E-05 1.05879E-22
 -1       528 6.38707E-05-1.57643E-05 5.29396E-23
 -1       529 6.12566E-05-1.92522E-05 0.00000E+00
 -1       530 5.83650E-05-2.19949E-05 0.00000E+00
 -1       531 5.50679E-05-2.36526E-05-1.05879E-22
 -1       532 5.12588E-05-2.39384E-05 0.00000E+00
 -1       533 4.68570E-05-2.26486E-05-1.05879E-22
 -1       534 4.18262E-05-1.96520E-05 0.00000E+00
 -1       535 3.61341E-05-1.49304E-05 0.00000E+00
 -1       536 9.33039E-05 6.82757E-08 6.61744E-24
 -1       537 9.32750E-05 5.21697E-06 0.00000E+00
 -1       538 9.32519E-05 8.89699E-06 0.00000E+00
 -1       539 9.32350E-05 1.12763E-05 0.00000E+00
 -1       540 9.32203E-05 1.25232E-05 8.27181E-25
 -1       541 9.32067E-05 1.28060E-05-4.13590E-25
 -1       542 9.31933E-05 1.22936E-05-8.27181E-25
 -1       543 9.31794E-05 1.11548E-05-4.13590E-25
 -1       544 9.31650E-05 9.55875E-06 4.13590E-25
 -1       545 9.31502E-05 7.67452E-06 0.00000E+00
 -1       546 9.31352E-05 5.67139E-06 0.00000E+00
 -1       547 9.31204E-05 3.71863E-06 1.03398E-25
 -1       548 9.31060E-05 1.98544E-06 1.29247E-26
 -1       549 9.30926E-05 6.41033E-07 0.00000E+00
 -1       550 9.30797E-05-1.45450E-07-8.27181E-25
 -1       551 8.39721E-05-6.99732E-06 0.00000E+00
 -1       552 7.34359E-05-7.28355E-06 2.48154E-24
 -1       553 6.22503E-05-7.57628E-06-6.61744E-24
 -1       554 5.09264E-05-7.87409E-06 0.00000E+00
 -1       555 3.99753E-05-8.17458E-06 0.00000E+00
 -1       556 9.07307E-05-1.74304E-07 0.00000E+00
 -1       557 8.86951E-05 4.85413E-06 0.00000E+00
 -1       558 8.71838E-05 8.50796E-06 0.00000E+00
 -1       559 8.61373E-05 1.09383E-05 0.00000E+00
 -1       560 8.54960E-05 1.22961E-05 0.00000E+00
 -1       561 8.52013E-05 1.27337E-05 0.00000E+00
 -1       562 8.51950E-05 1.24036E-05-1.32349E-23
 -1       563 8.54193E-05 1.14585E-05 1.32349E-23
 -1       564 8.58164E-05 1.00515E-05 0.00000E+00
 -1       565 8.63290E-05 8.33571E-06 0.00000E+00
 -1       566 8.68996E-05 6.46448E-06 0.00000E+00
 -1       567 8.74712E-05 4.59111E-06-1.65436E-24
 -1       568 8.79863E-05 2.86888E-06 0.00000E+00
 -1       569 8.83882E-05 1.45092E-06 1.65436E-24
 -1       570 8.86194E-05 4.90254E-07-3.30872E-24
 -1       571 9.31962E-05 2.93270E-08 2.48154E-24
 -1       572 9.33258E-05 1.79009E-07 0.00000E+00
 -1       573 9.34564E-05 2.59073E-07 1.65436E-24
 -1       574 9.35874E-05 2.85610E-07 1.65436E-24
 -1       575 9.37186E-05 2.74778E-07 0.00000E+00
 -1       576 9.38498E-05 2.42841E-07 0.00000E+00
 -1       577 9.39811E-05 2.06070E-07-3.30872E-24
 -1       578 9.41124E-05 1.80752E-07 3.30872E-24
 -1       579 9.42437E-05 1.83174E-07 0.00000E+00
 -1       580 9.43750E-05 2.29626E-07 0.00000E+00
 -1       581 9.45063E-05 3.36393E-07 0.00000E+00
 -1       582 9.46375E-05 5.19751E-07 0.00000E+00
 -1       583 9.47688E-05 7.95957E-07 6.61744E-24
 -1       584 9.48999E-05 1.18111E-06 3.30872E-24
 -1       585 9.50310E-05 1.69121E-06 0.00000E+00
 -1       586 9.23974E-05-1.46782E-07 0.00000E+00
 -1       587 9.16215E-05-8.82965E-08 3.30872E-24
 -1       588 9.07989E-05-2.99829E-08-8.27181E-25
 -1       589 8.99873E-05 2.77913E-08 0.00000E+00
 -1       590 8.92445E-05 8.44705E-08 0.00000E+00
 -1       591 9.28857E-05 7.63375E-08 0.00000E+00
 -1       592 9.27196E-05 2.92132E-07-8.27181E-25
 -1       593 9.25723E-05 4.55394E-07 0.00000E+00
 -1       594 9.24395E-05 5.77954E-07 0.00000E+00
 -1       595 9.23174E-05 6.71723E-07 0.00000E+00
 -1       596 9.22015E-05 7.48516E-07-8.27181E-25
 -1       597 9.20875E-05 8.20143E-07-1.65436E-24
 -1       598 9.19709E-05 8.98398E-07 0.00000E+00
 -1       599 9.18475E-05 9.95077E-07 1.65436E-24
 -1       600 9.17128E-05 1.12197E-06-8.27181E-25
 -1       601 9.15623E-05 1.29087E-06 0.00000E+00
 -1       602 9.13918E-05 1.51357E-06-4.13590E-25
 -1       603 9.11968E-05 1.80186E-06 8.27181E-25
 -1       604 9.09734E-05 2.16763E-06-5.16988E-25
 -1       605 9.07174E-05 2.62267E-06 0.00000E+00
 -1       606 9.52078E-05 3.25968E-06 0.00000E+00
 -1       607 9.52498E-05 4.32224E-06 0.00000E+00
 -1       608 9.52906E-05 5.52019E-06 0.00000E+00
 -1       609 9.53308E-05 6.84392E-06 0.00000E+00
 -1       610 9.53707E-05 8.28377E-06 6.61744E-24
 -1       611 9.54104E-05 9.82992E-06 0.00000E+00
 -1       612 9.54499E-05 1.14725E-05 0.00000E+00
 -1       613 9.54892E-05 1.32018E-05 0.00000E+00
 -1       614 9.55285E-05 1.50079E-05 3.30872E-24
 -1       615 9.55675E-05 1.68809E-05 0.00000E+00
 -1       616 9.56065E-05 1.88111E-05 0.00000E+00
 -1       617 9.56454E-05 2.07886E-05 0.00000E+00
 -1       618 9.56842E-05 2.28036E-05-1.65436E-24
 -1       619 9.57228E-05 2.48463E-05 8.27181E-25
 -1       620 9.57613E-05 2.69069E-05 0.00000E+00
 -1       621 9.43307E-05 2.48154E-06-3.30872E-24
 -1       622 9.35008E-05 2.62251E-06-1.65436E-24
 -1       623 9.26840E-05 2.76343E-06 0.00000E+00
 -1       624 9.18921E-05 2.90399E-06 1.65436E-24
 -1       625 9.11367E-05 3.04396E-06 0.00000E+00
 -1       626 9.49380E-05 3.32746E-06 0.00000E+00
 -1       627 9.46585E-05 4.46180E-06 0.00000E+00
 -1       628 9.43286E-05 5.72999E-06 0.00000E+00
 -1       629 9.39541E-05 7.11679E-06 0.00000E+00
 -1       630 9.35407E-05 8.60692E-06-6.61744E-24
 -1       631 9.30942E-05 1.01849E-05 3.30872E-24
 -1       632 9.26204E-05 1.18354E-05 0.00000E+00
 -1       633 9.21251E-05 1.35430E-05-3.30872E-24
 -1       634 9.16141E-05 1.52922E-05 0.00000E+00
 -1       635 9.10933E-05 1.70675E-05 0.00000E+00
 -1       636 9.05683E-05 1.88537E-05 0.00000E+00
 -1       637 9.00450E-05 2.06353E-05 0.00000E+00
 -1       638 8.95291E-05 2.23968E-05-3.30872E-24
 -1       639 8.90260E-05 2.41227E-05 8.27181E-25
 -1       640 8.85412E-05 2.57977E-05 1.65436E-24
 -1       656 9.40224E-05 2.87206E-05 0.00000E+00
 -1       657 9.26456E-05 2.84546E-05 0.00000E+00
 -1       658 9.15166E-05 2.81896E-05-6.61744E-24
 -1       659 9.04816E-05 2.79249E-05 3.30872E-24
 -1       660 8.93865E-05 2.76593E-05-3.30872E-24
 -1       661 9.51661E-05 3.10946E-05 0.00000E+00
 -1       662 9.45174E-05 3.32703E-05-1.65436E-24
 -1       663 9.38534E-05 3.54865E-05 0.00000E+00
 -1       664 9.31802E-05 3.77292E-05 0.00000E+00
 -1       665 9.25027E-05 3.99838E-05 0.00000E+00
 -1       666 9.18261E-05 4.22361E-05-1.65436E-24
 -1       667 9.11557E-05 4.44720E-05 0.00000E+00
 -1       668 9.04970E-05 4.66772E-05 1.65436E-24
 -1       669 8.98552E-05 4.88374E-05 0.00000E+00
 -1       670 8.92358E-05 5.09382E-05 0.00000E+00
 -1       671 8.86442E-05 5.29653E-05 0.00000E+00
 -1       672 8.80856E-05 5.49040E-05 0.00000E+00
 -1       673 8.75656E-05 5.67398E-05-3.30872E-24
 -1       674 8.70887E-05 5.84576E-05-1.65436E-24
 -1       675 8.66618E-05 6.00430E-05 0.00000E+00
 -1       676 9.28880E-05 6.23831E-05-6.61744E-24
 -1       677 9.15553E-05 6.22004E-05-3.30872E-24
 -1       678 9.02265E-05 6.20178E-05 6.61744E-24
 -1       679 8.89033E-05 6.18360E-05-1.65436E-24
 -1       680 8.75877E-05 6.16542E-05-3.30872E-24
 -1       771 2.55763E-05-1.44894E-06-5.29396E-23
 -1       772 2.17537E-05 4.25046E-06 2.64698E-23
 -1       773 1.84107E-05 8.68642E-06-5.29396E-23
 -1       774 1.55077E-05 1.19602E-05 0.00000E+00
 -1       775 1.30056E-05 1.41746E-05-5.29396E-23
 -1       776 1.08634E-05 1.54358E-05 7.94093E-23
 -1       777 9.03982E-06 1.58511E-05 0.00000E+00
 -1       778 7.49293E-06 1.55303E-05 0.00000E+00
 -1       779 6.18071E-06 1.45840E-05-5.29396E-23
 -1       780 5.06063E-06 1.31249E-05 2.64698E-23
 -1       781 4.09013E-06 1.12663E-05 5.29396E-23
 -1       782 3.22647E-06 9.12240E-06 0.00000E+00
 -1       783 2.42687E-06 6.80817E-06-5.29396E-23
 -1       784 1.64918E-06 4.43904E-06 0.00000E+00
 -1       785 8.50812E-07 2.13046E-06 5.29396E-23
 -1       786 8.87329E-05 3.93671E-07 0.00000E+00
 -1       787 8.88453E-05 5.79142E-07 0.00000E+00
 -1       788 8.89575E-05 7.06867E-07 3.30872E-24
 -1       789 8.90708E-05 7.90278E-07 0.00000E+00
 -1       790 8.91841E-05 8.42705E-07 3.30872E-24
 -1       791 8.92977E-05 8.77428E-07 0.00000E+00
 -1       792 8.94113E-05 9.07682E-07 0.00000E+00
 -1       793 8.95250E-05 9.46698E-07 0.00000E+00
 -1       794 8.96386E-05 1.00773E-06 3.30872E-24
 -1       795 8.97523E-05 1.10405E-06 0.00000E+00
 -1       796 8.98659E-05 1.24905E-06 0.00000E+00
 -1       797 8.99794E-05 1.45616E-06 1.65436E-24
 -1       798 9.00929E-05 1.73899E-06 3.30872E-24
 -1       799 9.02059E-05 2.11125E-06 0.00000E+00
 -1       800 9.03190E-05 2.58689E-06 3.30872E-24
 -1       801 8.16226E-05 2.15650E-07 0.00000E+00
 -1       802 6.47742E-05 1.94483E-07 0.00000E+00
 -1       803 4.31371E-05 9.27241E-08 0.00000E+00
 -1       804 2.17613E-05-1.18201E-08-3.30872E-24
 -1       805 5.69590E-06-2.88776E-08 0.00000E+00
 -1       806 8.84088E-05 3.33997E-07 0.00000E+00
 -1       807 8.81996E-05 4.95099E-07 0.00000E+00
 -1       808 8.79991E-05 6.30257E-07 0.00000E+00
 -1       809 8.78043E-05 7.48824E-07 1.65436E-24
 -1       810 8.76120E-05 8.60118E-07-3.30872E-24
 -1       811 8.74190E-05 9.73401E-07 1.65436E-24
 -1       812 8.72216E-05 1.09792E-06 0.00000E+00
 -1       813 8.70166E-05 1.24292E-06 0.00000E+00
 -1       814 8.68004E-05 1.41764E-06-3.30872E-24
 -1       815 8.65696E-05 1.63130E-06-8.27181E-25
 -1       816 8.63207E-05 1.89315E-06-1.65436E-24
 -1       817 8.60504E-05 2.21240E-06 8.27181E-25
 -1       818 8.57550E-05 2.59826E-06 1.65436E-24
 -1       819 8.54315E-05 3.05990E-06 0.00000E+00
 -1       820 8.50764E-05 3.60647E-06 0.00000E+00
 -1       821 9.02913E-05 3.94128E-06 0.00000E+00
 -1       822 9.01448E-05 4.89863E-06-1.65436E-24
 -1       823 8.99984E-05 6.03262E-06-3.30872E-24
 -1       824 8.98505E-05 7.32335E-06 0.00000E+00
 -1       825 8.97023E-05 8.75054E-06 3.30872E-24
 -1       826 8.95537E-05 1.02935E-05 0.00000E+00
 -1       827 8.94048E-05 1.19314E-05-3.30872E-24
 -1       828 8.92558E-05 1.36429E-05 0.00000E+00
 -1       829 8.91068E-05 1.54067E-05 0.00000E+00
 -1       830 8.89577E-05 1.72012E-05-1.65436E-24
 -1       831 8.88086E-05 1.90049E-05-3.30872E-24
 -1       832 8.86598E-05 2.07961E-05 0.00000E+00
 -1       833 8.85112E-05 2.25533E-05 3.30872E-24
 -1       834 8.83640E-05 2.42548E-05-1.65436E-24
 -1       835 8.82166E-05 2.58794E-05-1.65436E-24
 -1       836 8.96316E-05 3.35595E-06 0.00000E+00
 -1       837 8.86810E-05 3.53724E-06 1.65436E-24
 -1       838 8.76442E-05 3.71828E-06-3.30872E-24
 -1       839 8.65884E-05 3.89853E-06-1.65436E-24
 -1       840 8.55808E-05 4.07850E-06 0.00000E+00
 -1       856 8.79729E-05 2.90113E-05 8.27181E-25
 -1       857 8.78617E-05 3.08471E-05-8.27181E-25
 -1       858 8.77502E-05 3.28793E-05-3.30872E-24
 -1       859 8.76373E-05 3.50737E-05 1.65436E-24
 -1       860 8.75241E-05 3.73958E-05 0.00000E+00
 -1       861 8.74104E-05 3.98111E-05-1.65436E-24
 -1       862 8.72966E-05 4.22850E-05 3.30872E-24
 -1       863 8.71827E-05 4.47829E-05-1.65436E-24
 -1       864 8.70687E-05 4.72700E-05 0.00000E+00
 -1       865 8.69549E-05 4.97118E-05-1.65436E-24
 -1       866 8.68413E-05 5.20736E-05-3.30872E-24
 -1       867 8.67280E-05 5.43209E-05-1.65436E-24
 -1       868 8.66151E-05 5.64192E-05 3.30872E-24
 -1       869 8.65028E-05 5.83341E-05 0.00000E+00
 -1       870 8.63909E-05 6.00315E-05 3.30872E-24
 -1       871 8.68779E-05 2.73920E-05 0.00000E+00
 -1       872 8.58632E-05 2.73756E-05 0.00000E+00
 -1       873 8.49572E-05 2.73587E-05-8.27181E-25
 -1       874 8.40827E-05 2.73411E-05-2.06795E-25
 -1       875 8.31625E-05 2.73226E-05-1.65436E-24
 -1       876 8.76770E-05 2.90302E-05 3.30872E-24
 -1       877 8.72307E-05 3.07966E-05-3.30872E-24
 -1       878 8.67381E-05 3.26861E-05-6.61744E-24
 -1       879 8.62062E-05 3.46824E-05 0.00000E+00
 -1       880 8.56406E-05 3.67687E-05 0.00000E+00
 -1       881 8.50475E-05 3.89282E-05 0.00000E+00
 -1       882 8.44329E-05 4.11446E-05 0.00000E+00
 -1       883 8.38032E-05 4.34014E-05 0.00000E+00
 -1       884 8.31643E-05 4.56822E-05 0.00000E+00
 -1       885 8.25226E-05 4.79706E-05 0.00000E+00
 -1       886 8.18841E-05 5.02502E-05-6.61744E-24
 -1       887 8.12549E-05 5.25045E-05-3.30872E-24
 -1       888 8.06412E-05 5.47172E-05-6.61744E-24
 -1       889 8.00482E-05 5.68715E-05 1.65436E-24
 -1       890 7.94830E-05 5.89511E-05 0.00000E+00
 -1       891 8.51203E-05 6.13880E-05 3.30872E-24
 -1       892 8.40705E-05 6.12972E-05-1.65436E-24
 -1       893 8.30301E-05 6.12065E-05-1.65436E-24
 -1       894 8.18968E-05 6.11158E-05-8.27181E-25
 -1       895 8.05681E-05 6.10249E-05 8.27181E-25
 -1       956 8.45316E-05 5.14274E-06 1.65436E-24
 -1       957 8.43721E-05 6.19170E-06-1.65436E-24
 -1       958 8.42118E-05 7.37733E-06-1.65436E-24
 -1       959 8.40511E-05 8.68230E-06-1.65436E-24
 -1       960 8.38901E-05 1.00893E-05 3.30872E-24
 -1       961 8.37290E-05 1.15808E-05-3.30872E-24
 -1       962 8.35677E-05 1.31394E-05-3.30872E-24
 -1       963 8.34064E-05 1.47476E-05 1.65436E-24
 -1       964 8.32450E-05 1.63879E-05-3.30872E-24
 -1       965 8.30836E-05 1.80428E-05 0.00000E+00
 -1       966 8.29222E-05 1.96947E-05 0.00000E+00
 -1       967 8.27609E-05 2.13263E-05-3.30872E-24
 -1       968 8.25997E-05 2.29199E-05 0.00000E+00
 -1       969 8.24388E-05 2.44582E-05-3.30872E-24
 -1       970 8.22785E-05 2.59237E-05 0.00000E+00
 -1       971 8.19261E-05 2.87074E-05-6.61744E-24
 -1       972 8.17280E-05 3.03200E-05 1.65436E-24
 -1       973 8.15295E-05 3.21140E-05-6.61744E-24
 -1       974 8.13302E-05 3.40655E-05 0.00000E+00
 -1       975 8.11305E-05 3.61503E-05 0.00000E+00
 -1       976 8.09306E-05 3.83442E-05 0.00000E+00
 -1       977 8.07304E-05 4.06231E-05-6.61744E-24
 -1       978 8.05301E-05 4.29626E-05 3.30872E-24
 -1       979 8.03298E-05 4.53383E-05 6.61744E-24
 -1       980 8.01294E-05 4.77258E-05 0.00000E+00
 -1       981 7.99291E-05 5.01008E-05 0.00000E+00
 -1       982 7.97291E-05 5.24389E-05 0.00000E+00
 -1       983 7.95294E-05 5.47158E-05 6.61744E-24
 -1       984 7.93309E-05 5.69071E-05-3.30872E-24
 -1       985 7.91329E-05 5.89885E-05 0.00000E+00
 -3
    1PSTEP                         2           1           1          
  100CL  101 1.000000000         409                     0    1           1
 -4  STRESS      6    1
 -5  SXX         1    4    1    1
 -5  SYY         1    4    2    2
 -5  SZZ         1    4    3    3
 -5  SXY         1    4    1    2
 -5  SYZ         1    4    2    3
 -5  SZX         1    4    3    1
 -1         1-4.56960E+06-1.89766E+06-1.05625E+06-2.27197E+06-1.60071E-10 2.11876E-08
 -1         2-1.90788E+03-2.66219E+06-5.31979E+03-7.42079E+03-6.22492E-10-4.62493E-09
 -1         3-6.59609E+01-1.46740E+06 6.07269E+02-8.15092E+02-1.50386E-10-4.58203E-09
 -1         5-3.35065E+01 5.60366E+05 1.64422E+01 1.62286E+00 2.78782E-10-3.47027E-08
 -1         8-3.18998E+06-1.07932E+06-4.90973E+05-1.12475E+06-1.22236E-09-6.25732E-09
 -1         9-3.65365E+06-1.56358E+06-6.71002E+05-8.22650E+05-1.10304E-09 8.39937E-09
 -1        10-2.95750E+03-1.57800E+06-4.14049E+03-6.15710E+03-2.60388E-09-8.18312E-09
 -1        12-2.68893E+01 5.60400E+05 5.34111E+02 1.04959E+01 3.62377E-10 1.11977E-08
 -1        15 3.99284E+03 2.16278E+03 1.23715E+04 1.15969E+01-1.24573E-07-1.96588E-05
 -1        16-5.63364E+06-1.80150E+06-8.48012E+05-1.83984E+06 1.53280E-09 1.00493E-08
 -1        17-9.44923E+05-7.71923E+05-1.47373E+05-6.57325E+05-8.44157E-09 8.03266E-10
 -1        18 3.66091E+04 1.06232E+04-2.23772E+04-1.36123E+05 8.43102E-10-5.83805E-09
 -1        19 1.64598E+05 1.99697E+05-9.67962E+02 1.79515E+04-1.38025E-09 7.61065E-10
 -1        20 9.56763E+04-2.15468E+05-4.03468E+04 7.90331E+04 1.17113E-09 6.52411E-10
 -1        21-1.72623E+02-5.20970E+05-2.21955E+03-6.16539E+02-1.28933E-08 9.47098E-09
 -1        24-3.93829E+06-1.41476E+06-4.33288E+05-1.85599E+06-7.04798E-09-8.77966E-09
 -1        25 3.43452E+04 6.88064E+04 3.67507E+04-5.88330E+05-2.38979E-09 2.29193E-09
 -1        26-2.74523E+04 1.43780E+05-5.73113E+03-3.44002E+04 1.30240E-09 2.66358E-09
 -1        27-4.40902E+04-1.29165E+05-5.92253E+04 1.04624E+05 6.61294E-09-2.21553E-09
 -1        28-8.12101E+03-1.58823E+05 1.32930E+02 5.66483E+04 3.52156E-09-3.04901E-10
 -1        32-1.27696E+06-1.11333E+05 3.81396E+05-1.82113E+06-1.52504E-08 9.57243E-11
 -1        33-1.88720E+05 1.33204E+05 4.24136E+04-5.54216E+04-1.32422E-09 4.02785E-09
 -1        34-3.20685E+05-4.55244E+04-8.30246E+03 9.96347E+04 8.21255E-10-1.00399E-08
 -1        35-3.99114E+04-5.47154E+04-2.95343E+03 9.14695E+04 6.50081E-09-2.34528E-09
 -1        51 3.20356E+04-6.32825E+05 6.16963E+04-1.76027E+06-3.78350E-10 2.15659E-08
 -1        52 2.24669E+04-6.38307E+05 4.27390E+04-1.96693E+06 2.91038E-10-1.50176E-08
 -1        53 2.11659E+04-6.65099E+05 3.97472E+04-1.75495E+06-8.14907E-10 6.98492E-10
 -1        54 5.07250E+04-6.66056E+05 6.80614E+04-1.97223E+06-2.18279E-10 1.84446E-08
 -1        55 1.00390E+05-6.91999E+05 1.26365E+05-1.75353E+06 8.14907E-10 1.48138E-08
 -1        56-8.50676E+06-9.55300E+05-7.31056E+05-3.34208E+06-1.74623E-10-6.37374E-09
 -1        57-8.96622E+06-1.49305E+06-4.98990E+05-3.12149E+06-1.02591E-09-1.38243E-09
 -1        58-8.61566E+06-1.23803E+06-1.71146E+05-3.33492E+06-3.17596E-09-4.69299E-09
 -1        59-8.82426E+06-1.17726E+06-1.03993E+05-3.14602E+06-1.01863E-09-1.47138E-08
 -1        60-8.64710E+06-1.26627E+06-4.01156E+04-3.31897E+06-1.66506E-09-1.35351E-08
 -1        61-8.74138E+06-1.18789E+06-2.23265E+04-3.21173E+06-3.15640E-09 2.33922E-09
 -1        62-8.69663E+06-1.22777E+06-1.18037E+04-3.26820E+06 6.82121E-10 6.52108E-09
 -1        63-8.64875E+06-1.27153E+06-8.43391E+03-3.31432E+06 5.41058E-09 7.77118E-09
 -1        64-8.73958E+06-1.18259E+06-1.07065E+04-3.21635E+06-1.29967E-09 7.70990E-09
 -1        65-8.60147E+06-1.33065E+06-2.14130E+04-3.37791E+06 4.50882E-10 1.28300E-08
 -1        66-8.74534E+06-1.16769E+06-3.71188E+04-3.20565E+06-1.78215E-09 1.33241E-08
 -1        67-8.64668E+06-1.34719E+06-9.64473E+04-3.34358E+06 8.11269E-10-7.57973E-09
 -1        68-8.69424E+06-1.16718E+06-1.59986E+05-3.25013E+06-1.63709E-11-1.08412E-09
 -1        69-8.88483E+06-1.53412E+06-4.63747E+05-3.19818E+06 2.48838E-09-7.13044E-09
 -1        70-8.50847E+06-9.85484E+05-6.80119E+05-3.34955E+06-1.62981E-09 2.56114E-09
 -1        86 9.53041E+02-2.66138E+06-5.74194E+03 3.71045E+03 6.49607E-10 2.94716E-09
 -1        87-5.79498E+03-2.66236E+06-1.16123E+04 1.56140E+03 6.96105E-10 6.56643E-09
 -1        88 4.83895E+03-2.66121E+06-1.86309E+04-5.27257E+03-1.52158E-09 3.86555E-09
 -1        89-3.42000E+04-2.66729E+06-4.72351E+04-3.93258E+03-1.69530E-09-4.74953E-09
 -1        90 2.93380E+04-2.65647E+06-7.15349E+04 9.20318E+03 2.56841E-09 1.34177E-09
 -1       121-1.93261E+02-1.46810E+06 6.12090E+02 4.07288E+02-5.02979E-10 5.94446E-09
 -1       122 1.70592E+02-1.46727E+06 1.32589E+03-1.62264E+03-6.90775E-10 1.24091E-08
 -1       123-3.76603E+02-1.46826E+06 2.15431E+03 1.21389E+03-1.09810E-09-9.60426E-10
 -1       124 2.76261E+03-1.46580E+06 5.54232E+03-3.32657E+03-9.02332E-10-1.13309E-08
 -1       125-2.24273E+03-1.46962E+06 8.40524E+03 2.11167E+03-2.08092E-09-9.75342E-09
 -1       191-3.57136E+01 5.60408E+05 1.85578E+01-8.20364E-01 3.29779E-10-2.30684E-08
 -1       192-3.50397E+01 5.60366E+05 3.48595E+01 4.32584E+00 4.38014E-10-1.26965E-08
 -1       193-3.97750E+01 5.60407E+05 6.37576E+01-3.56242E+00 6.23167E-10-5.92991E-09
 -1       194-3.99667E+01 5.60372E+05 1.31957E+02 9.40770E+00 4.66629E-10 9.68703E-09
 -1       195-4.75748E+01 5.60403E+05 2.57025E+02-5.97741E+00 9.86915E-10 1.13505E-09
 -1       251-4.56490E+06 1.05476E+05-2.48369E+05-2.27608E+04-8.57295E-09 8.73115E-11
 -1       252-4.64472E+06-1.22449E+05-1.71055E+05 1.87234E+04 3.44669E-09-1.18689E-08
 -1       253-4.59524E+06 1.69129E+04-6.38559E+04 1.23642E+04 3.20610E-09-8.36735E-11
 -1       254-4.60884E+06-1.96434E+04-3.96775E+04-3.25760E+03 5.26338E-09 5.53882E-09
 -1       255-4.60052E+06 2.71525E+03-1.64165E+04-7.78152E+02 2.71606E-09 1.34378E-08
 -1       256-4.60258E+06-3.21168E+03-9.86014E+03 5.35965E+03 7.05543E-09 7.57518E-09
 -1       257-4.60141E+06 4.90665E+02-5.06387E+03 3.74593E+03-6.53609E-07-1.23464E-10
 -1       258-4.60167E+06-9.76420E+02-4.42610E+03 1.11799E+03-1.33859E-06 4.32370E-09
 -1       259-4.60141E+06 4.80939E+02-5.00969E+03 3.46353E+03-6.60820E-07-2.95802E-09
 -1       260-4.60262E+06-3.13677E+03-9.71422E+03 5.08993E+03 7.57175E-09-4.88353E-09
 -1       261-4.60048E+06 2.65036E+03-1.61291E+04-2.26055E+02-1.71980E-08-3.63889E-09
 -1       262-4.60918E+06-1.92517E+04-3.90708E+04-2.45364E+03-1.37562E-08 1.61890E-09
 -1       263-4.59494E+06 1.65891E+04-6.26660E+04 1.10078E+04-9.17559E-10 4.15821E-09
 -1       264-4.64739E+06-1.20613E+05-1.68805E+05 1.65090E+04-2.80716E-09 4.03452E-09
 -1       265-4.56256E+06 1.03979E+05-2.43413E+05-1.91902E+04-1.40514E-08 2.76486E-09
 -1       266-7.00574E+04-3.23791E+04 1.61775E+05-2.38735E+02-2.76843E-07-4.38548E-05
 -1       267 8.11438E+04 3.78420E+04 1.14717E+05 2.74367E+02-5.55032E-07-8.76756E-05
 -1       268-1.10508E+04-5.41069E+03 4.24642E+04-3.57369E+01-4.03905E-07-6.37432E-05
 -1       269 1.30581E+04 6.50266E+03 2.77516E+04 4.15372E+01-2.52309E-07-3.98002E-05
 -1       270-1.98511E+03-1.07032E+03 1.33258E+04-5.79670E+00-1.88018E-07-2.96490E-05
 -1       271-8.24181E+06-1.00249E+06-6.67066E+05-3.22075E+06 1.45519E-11-5.93718E-09
 -1       272-8.54259E+06-1.47073E+06-4.35127E+05-3.14829E+06 1.38880E-09 7.61793E-09
 -1       273-8.37872E+06-1.17407E+06-1.57276E+05-3.17690E+06-1.80353E-09-4.71482E-09
 -1       274-8.37492E+06-1.27130E+06-8.93762E+04-3.21489E+06 7.83984E-10-3.41970E-09
 -1       275-8.40621E+06-1.18471E+06-3.66196E+04-3.16040E+06-1.68711E-09 1.89539E-09
 -1       276-8.33870E+06-1.26276E+06-1.97324E+04-3.24137E+06 2.26919E-09-1.67270E-08
 -1       277-8.41546E+06-1.17995E+06-9.75340E+03-3.15181E+06-2.42335E-09-8.77662E-11
 -1       278-8.32882E+06-1.26809E+06-7.54388E+03-3.25190E+06-4.20187E-10 1.54826E-08
 -1       279-8.41672E+06-1.17874E+06-8.58308E+03-3.15041E+06 2.24782E-09 5.35692E-10
 -1       280-8.33401E+06-1.26664E+06-1.65201E+04-3.24698E+06-1.25056E-10-4.85261E-09
 -1       281-8.41000E+06-1.18176E+06-3.01624E+04-3.15646E+06 2.39788E-09 1.00590E-09
 -1       282-8.36334E+06-1.27391E+06-7.34721E+04-3.22540E+06 2.50952E-09 3.86171E-09
 -1       283-8.38682E+06-1.17374E+06-1.29207E+05-3.17075E+06 4.18368E-10 2.77214E-09
 -1       284-8.50315E+06-1.43516E+06-3.57320E+05-3.16741E+06 1.08048E-09-1.05065E-08
 -1       285-8.27254E+06-1.03498E+06-5.48171E+05-3.20904E+06-2.43745E-09 9.05129E-09
 -1       301 6.00095E+04-3.93800E+04 2.01824E+05-4.26491E+04 8.25821E-09 2.65709E-09
 -1       302 2.53365E+04 4.09365E+03 1.34525E+05-5.46530E+04 3.41242E-09-5.33572E-09
 -1       303 4.13484E+03-2.37863E+04 1.18678E+05-4.29642E+04 7.34144E-09-8.47876E-10
 -1       304 4.20284E+04 1.81032E+04 1.90212E+05-5.45937E+04 4.70391E-09 7.10406E-09
 -1       305 1.03662E+05-5.32501E+04 3.32298E+05-4.24000E+04 7.71252E-09 2.00362E-09
 -1       306-4.38077E+06-5.56450E+05-2.75749E+05-1.70119E+06 2.98314E-10-1.23691E-09
 -1       307-4.45224E+06-7.97719E+05-1.79081E+05-1.72742E+06 2.12526E-09-1.08048E-09
 -1       308-4.43952E+06-6.23966E+05-6.52005E+04-1.68053E+06 7.96717E-10 1.58980E-09
 -1       309-4.38185E+06-7.18806E+05-3.68701E+04-1.75943E+06-3.24007E-09 4.03816E-09
 -1       310-4.45157E+06-6.27308E+05-1.52671E+04-1.67294E+06 3.31238E-09-1.40426E-09
 -1       311-4.36764E+06-7.15409E+05-8.32560E+03-1.77114E+06 1.84900E-09 3.72893E-10
 -1       312-4.45486E+06-6.25758E+05-4.36816E+03-1.67001E+06-1.34696E-09-2.47780E-09
 -1       313-4.36552E+06-7.15789E+05-3.89201E+03-1.77329E+06-3.37286E-09-3.27827E-09
 -1       314-4.45396E+06-6.26679E+05-5.13564E+03-1.67102E+06-4.43788E-09-1.93813E-09
 -1       315-4.37078E+06-7.12499E+05-1.03353E+04-1.76677E+06 4.30646E-10 6.39602E-09
 -1       316-4.44874E+06-6.29696E+05-1.94161E+04-1.67588E+06 2.40107E-10-4.38195E-09
 -1       317-4.38984E+06-7.15946E+05-4.68756E+04-1.75091E+06 7.38510E-10-1.99179E-10
 -1       318-4.43349E+06-6.25250E+05-8.30269E+04-1.68538E+06-1.46883E-10 3.75439E-09
 -1       319-4.47881E+06-8.17652E+05-2.28045E+05-1.71208E+06 3.71188E-09 3.31784E-09
 -1       320-4.35979E+06-5.37855E+05-3.50903E+05-1.71028E+06-7.73798E-09 5.52973E-10
 -1       336 2.95799E+03-1.68615E+06-1.48910E+04 4.04044E+03-7.68870E-09-4.81486E-09
 -1       337-6.21516E+03-1.69116E+06-1.61988E+04-9.72816E+03-1.22234E-08-1.04906E-08
 -1       338 2.04434E+03-1.68664E+06-1.91679E+04 5.67752E+03-1.05074E-08-1.91831E-08
 -1       339-2.22185E+04-1.70046E+06-4.25902E+04-1.28719E+04-1.58147E-08-1.22564E-08
 -1       340 1.70570E+04-1.67714E+06-6.36089E+04 7.16719E+03-1.18889E-08 6.79302E-09
 -1       406 1.28387E+01 5.60379E+05 1.05327E+03-4.71531E+00 1.39562E-09 2.22772E-08
 -1       407 3.40829E+02 5.60585E+05 2.24079E+03-9.34336E+00 9.89075E-11 9.06130E-09
 -1       408 1.12587E+03 5.60217E+05 4.47363E+03 1.49205E+01 1.47429E-09 5.45697E-11
 -1       409 4.81345E+03 5.62013E+05 1.00727E+04-1.81303E+02-2.22371E-10-1.13605E-08
 -1       410 1.38781E+04 5.58940E+05 2.05617E+04 1.84862E+02 1.47702E-09-6.31917E-09
 -1       521-8.42243E+06-1.05184E+06-5.63343E+05-3.26694E+06 7.13044E-10 2.29920E-09
 -1       522-8.64478E+06-1.47657E+06-3.67042E+05-3.23967E+06-3.45608E-11-8.41101E-09
 -1       523-8.54155E+06-1.19250E+06-1.32778E+05-3.22559E+06 2.22281E-09 3.10683E-09
 -1       524-8.49956E+06-1.31300E+06-7.54161E+04-3.30216E+06-4.99313E-09 7.80437E-09
 -1       525-8.56577E+06-1.20020E+06-3.08910E+04-3.21040E+06 3.58614E-09 1.02264E-08
 -1       526-8.47026E+06-1.30491E+06-1.67945E+04-3.32389E+06 1.04876E-08 9.16179E-09
 -1       527-8.57168E+06-1.19809E+06-8.45538E+03-3.20532E+06-2.56424E-09-1.50095E-09
 -1       528-8.46777E+06-1.30319E+06-6.96545E+03-3.32511E+06-3.99041E-10 2.04454E-09
 -1       529-8.56826E+06-1.20172E+06-8.57025E+03-3.20926E+06 8.37645E-10-9.85892E-10
 -1       530-8.48200E+06-1.29207E+06-1.67205E+04-3.30807E+06 3.61251E-09-4.06180E-09
 -1       531-8.55619E+06-1.21022E+06-3.11511E+04-3.22138E+06 1.03319E-09 3.26327E-09
 -1       532-8.52149E+06-1.28982E+06-7.53677E+04-3.27442E+06 7.23958E-10 9.21864E-09
 -1       533-8.52771E+06-1.20662E+06-1.33031E+05-3.24127E+06 4.60659E-10-5.00586E-09
 -1       534-8.67354E+06-1.44766E+06-3.67246E+05-3.20640E+06 1.98361E-09-8.17454E-09
 -1       535-8.40703E+06-1.06694E+06-5.63638E+05-3.28411E+06-9.45874E-09-2.91038E-10
 -1       536-5.37376E+04-2.89211E+04 8.59193E+04-4.38185E+03 1.80444E-09-3.39423E-09
 -1       537-1.58527E+04 3.31605E+04 5.82053E+04-7.03910E+04-1.01736E-08 8.00355E-11
 -1       538-3.98765E+04-3.95950E+03 2.21538E+04-4.21065E+03 1.26238E-09 6.21367E-09
 -1       539-3.30363E+04 3.73897E+03 1.32744E+04-7.06496E+04 4.28918E-09 1.34585E-08
 -1       540-3.79493E+04-6.70072E+02 5.52754E+03-4.12296E+03-2.61934E-10 5.37784E-09
 -1       541-3.63074E+04 4.08692E+02 3.14852E+03-7.07884E+04-3.19687E-10 3.25690E-09
 -1       542-3.76347E+04-1.36696E+02 1.29901E+03-4.07701E+03-5.21140E-10-3.17686E-09
 -1       543-3.73686E+04 1.84447E+02 6.30842E+02-7.08617E+04-1.64846E-10 1.22941E-09
 -1       544-3.75579E+04 6.07812E+00 5.94393E+01-4.05034E+03 2.29647E-10-2.37696E-09
 -1       545-3.78228E+04 1.48529E+02-4.40688E+02-7.08953E+04-5.29781E-10 2.55068E-09
 -1       546-3.74889E+04 1.12282E+02-1.06950E+03-4.04290E+03 5.92308E-10-6.42808E-09
 -1       547-3.82058E+04-6.26846E+02-2.62552E+03-7.08825E+04-2.55795E-09-2.22144E-09
 -1       548-3.71210E+04 6.96665E+02-4.59610E+03-4.06339E+03-2.84172E-09-3.37718E-09
 -1       549-4.09248E+04-6.83888E+03-1.17930E+04-7.07538E+04-7.95126E-10 2.09434E-09
 -1       550-3.43538E+04 5.59719E+03-1.77950E+04-4.17189E+03-7.22139E-10-3.40697E-09
 -1       551 2.74379E+04-6.68959E+05 4.39463E+04-1.07652E+06-2.55386E-09-7.45058E-09
 -1       552 3.33443E+04-6.70358E+05 4.75315E+04-1.36562E+06 1.30094E-08 6.66478E-09
 -1       553 2.51025E+04-6.77010E+05 6.83010E+04-1.07402E+06-4.26371E-09 1.12232E-08
 -1       554 6.23638E+04-6.50015E+05 1.39570E+05-1.36591E+06 1.29367E-08-4.20368E-09
 -1       555 1.02121E+05-6.96005E+05 2.59741E+05-1.07534E+06-5.13683E-09-5.88625E-09
 -1       556-9.14314E+04-2.17310E+05 6.15684E+04-3.20245E+05-9.14588E-09-1.45810E-08
 -1       557-2.41338E+04-2.75674E+05 3.19666E+04-3.73497E+05 7.66158E-09-1.30740E-08
 -1       558-9.34304E+04-2.27737E+05 1.28279E+04-3.12861E+05 8.52742E-09 2.13186E-09
 -1       559-3.49999E+04-2.83562E+05 6.54084E+03-3.78698E+05 4.25644E-09 2.15368E-09
 -1       560-9.65649E+04-2.25856E+05 2.63004E+03-3.14780E+05 3.81260E-09-5.90262E-09
 -1       561-3.92360E+04-2.82325E+05 1.41661E+03-3.81507E+05 8.65839E-09-4.86716E-09
 -1       562-9.89829E+04-2.24301E+05 4.79245E+02-3.16461E+05 5.81349E-09-1.26784E-09
 -1       563-4.18621E+04-2.81196E+05 2.61233E+02-3.83251E+05-1.97906E-09-2.14504E-09
 -1       564-1.00455E+05-2.23372E+05-7.03169E+01-3.17475E+05 4.28554E-09 9.08312E-09
 -1       565-4.32043E+04-2.80626E+05-3.33406E+02-3.84123E+05-2.43199E-09 1.52795E-09
 -1       566-1.00928E+05-2.23042E+05-8.99430E+02-3.17816E+05-1.19690E-09-1.81717E-09
 -1       567-4.34274E+04-2.80658E+05-2.06792E+03-3.84101E+05-4.62160E-09 9.56788E-10
 -1       568-1.00276E+05-2.23484E+05-4.38515E+03-3.17453E+05-2.39015E-09-6.49015E-09
 -1       569-4.52826E+04-2.82925E+05-1.03262E+04-3.82278E+05-4.14730E-09 2.97950E-09
 -1       570-9.69034E+04-2.29663E+05-2.05044E+04-3.14812E+05-4.37285E-09-3.51247E-09
 -1       571 3.74270E+05 1.56828E+04 2.32979E+04-9.33967E+04-1.05047E-09-2.32103E-09
 -1       572 3.77728E+05 5.43752E+03 1.14162E+04-1.02379E+05-1.42609E-09-7.21957E-09
 -1       573 3.75623E+05 1.28223E+03 5.07156E+03-9.31485E+04-8.50014E-09 4.22551E-09
 -1       574 3.76026E+05 4.11872E+02 2.54175E+03-1.02649E+05-1.85551E-08 5.10045E-09
 -1       575 3.75754E+05 5.13477E+01 1.19731E+03-9.31168E+04-8.76116E-09 2.24918E-09
 -1       576 3.75784E+05 1.26793E+01 6.08526E+02-1.02684E+05-5.17275E-11 5.66706E-09
 -1       577 3.75775E+05-1.34100E+01 2.96709E+02-9.31126E+04-7.42375E-10-3.29874E-09
 -1       578 3.75770E+05-1.21910E+01 1.55936E+02-1.02689E+05-1.03751E-09-2.81943E-09
 -1       579 3.75819E+05-2.81061E+01 8.31249E+01-9.31122E+04-6.27551E-11-3.85444E-09
 -1       580 3.75833E+05-4.34703E+01 5.85489E+01-1.02685E+05-1.06502E-09-2.39379E-09
 -1       581 3.75903E+05-7.12747E+01 5.52186E+01-9.31170E+04-1.91358E-09 2.13277E-09
 -1       582 3.75957E+05-9.19210E+01 9.12700E+01-1.02631E+05 4.79304E-10-3.71983E-10
 -1       583 3.76026E+05-1.04838E+02 1.58290E+02-9.31658E+04 1.86083E-09 3.51656E-09
 -1       584 3.76172E+05-1.28438E+01 3.55825E+02-1.02215E+05-1.45519E-09 9.06834E-09
 -1       585 3.76135E+05 2.74751E+02 7.08128E+02-9.35326E+04 3.52884E-10 9.02219E-10
 -1       586 1.00454E+03 1.68638E+05 2.24259E+03-2.74767E+05 2.86946E-10-1.47284E-08
 -1       587 1.05760E+03 1.68948E+05 3.67477E+03-3.07953E+05-9.53150E-10-2.43049E-08
 -1       588 1.65636E+03 1.68303E+05 6.75564E+03-2.74459E+05 2.60115E-10-1.77852E-08
 -1       589 6.47675E+03 1.71184E+05 1.48920E+04-3.07896E+05-8.47649E-10 1.15506E-10
 -1       590 1.84441E+04 1.66535E+05 2.99728E+04-2.74820E+05 6.05269E-10-1.20417E-09
 -1       591-1.75000E+05-4.96222E+04-3.59613E+04-8.35024E+04 8.42419E-10-8.25821E-09
 -1       592-1.77646E+05-5.02008E+04-1.83777E+04-9.30478E+04 1.95064E-09 5.67661E-09
 -1       593-1.77255E+05-4.12911E+04-7.78686E+03-8.79788E+04 1.45974E-09 1.74123E-09
 -1       594-1.73378E+05-4.57451E+04-3.83457E+03-9.32919E+04-2.95222E-09-2.02061E-09
 -1       595-1.77472E+05-4.11025E+04-1.77061E+03-8.81444E+04-3.02953E-09-8.71864E-09
 -1       596-1.73098E+05-4.55878E+04-8.95684E+02-9.32505E+04 2.13640E-09 2.42335E-09
 -1       597-1.77505E+05-4.11318E+04-4.83603E+02-8.81454E+04 5.83826E-09-1.92699E-09
 -1       598-1.73068E+05-4.55882E+04-3.79211E+02-9.32370E+04 1.40013E-08 5.38489E-09
 -1       599-1.77500E+05-4.11353E+04-4.72829E+02-8.81427E+04 5.66206E-09 1.63845E-09
 -1       600-1.73088E+05-4.55921E+04-8.66925E+02-9.32402E+04-1.78943E-10-3.86581E-09
 -1       601-1.77457E+05-4.11132E+04-1.70847E+03-8.81363E+04 1.17279E-09-4.98676E-09
 -1       602-1.73350E+05-4.57440E+04-3.69651E+03-9.32668E+04 2.92857E-09 2.23508E-10
 -1       603-1.77236E+05-4.13055E+04-7.50536E+03-8.79750E+04 6.61021E-09-1.59253E-09
 -1       604-1.77492E+05-4.99983E+04-1.77081E+04-9.29741E+04 1.06156E-08 1.50485E-08
 -1       605-1.75015E+05-4.93704E+04-3.46511E+04-8.36974E+04 5.11136E-10 1.75896E-09
 -1       606 1.18936E+05-1.57509E+04-2.67209E+04 4.48588E+04-6.03904E-09-2.35013E-09
 -1       607 1.14500E+05-5.14165E+03-1.32336E+04 4.98274E+04-1.35606E-09-9.43874E-09
 -1       608 1.17008E+05-9.52484E+02-5.91681E+03 4.45215E+04 4.03998E-09 5.81576E-09
 -1       609 1.16458E+05-2.24328E+02-2.97970E+03 5.01942E+04-2.50657E-09 9.17134E-09
 -1       610 1.16733E+05 6.40350E+01-1.42019E+03 4.44822E+04-6.57928E-09 1.68257E-09
 -1       611 1.16608E+05 1.13936E+02-7.14659E+02 5.02353E+04-1.39507E-08 4.75484E-09
 -1       612 1.16640E+05 1.19081E+02-3.41966E+02 4.44786E+04-7.89805E-09-4.10409E-09
 -1       613 1.16578E+05 1.45873E+02-1.54134E+02 5.02392E+04-1.24965E-08 3.07909E-09
 -1       614 1.16584E+05 1.33563E+02-4.10183E+01 4.44778E+04-4.54020E-09 6.63022E-09
 -1       615 1.16540E+05 1.66085E+02 5.50693E+01 5.02390E+04 5.47470E-09 2.95404E-09
 -1       616 1.16541E+05 1.53824E+02 1.73450E+02 4.44785E+04-6.63840E-09-2.90584E-10
 -1       617 1.16538E+05 2.24195E+02 4.01481E+02 5.02370E+04 7.80346E-10 7.31234E-10
 -1       618 1.16488E+05 3.01987E+02 8.11971E+02 4.44791E+04 6.94399E-10 4.63479E-09
 -1       619 1.16801E+05 9.09103E+02 1.82789E+03 5.02314E+04-3.21143E-09 5.15593E-09
 -1       620 1.16220E+05 2.35204E+03 3.69334E+03 4.44783E+04 1.33673E-09 9.84073E-10
 -1       621 1.19065E+03 4.04873E+05 4.83925E+03-2.52252E+04 1.38357E-09 1.52568E-09
 -1       622 6.04308E+02 4.05885E+05 4.90183E+03-3.19737E+04 3.52111E-09 1.56433E-10
 -1       623 2.51791E+02 4.05044E+05 6.96054E+03-2.52164E+04 1.72668E-09-5.37193E-09
 -1       624 3.37151E+03 4.08220E+05 1.41447E+04-3.18976E+04 3.94539E-09-1.39632E-08
 -1       625 8.41557E+03 4.02564E+05 2.64602E+04-2.52957E+04 1.67529E-09 4.48836E-10
 -1       626 2.81072E+05 8.67144E+04-1.40929E+02 1.68384E+05-1.03400E-08-5.49335E-10
 -1       627 2.75602E+05 9.21639E+04-6.33628E+01 1.74484E+05-1.04046E-09-3.16709E-09
 -1       628 2.81211E+05 8.65587E+04-2.96605E+01 1.68028E+05-1.33368E-08 3.16413E-09
 -1       629 2.75254E+05 9.24895E+04-5.35127E+00 1.74721E+05-3.82170E-08 1.51922E-08
 -1       630 2.81161E+05 8.65778E+04 4.79905E+00 1.67950E+05-3.07791E-08 8.49025E-09
 -1       631 2.75153E+05 9.25445E+04 2.44617E+01 1.74702E+05-2.91593E-08 5.50600E-09
 -1       632 2.81107E+05 8.66018E+04 5.44825E+01 1.67914E+05-1.43518E-08 2.41425E-09
 -1       633 2.75110E+05 9.25637E+04 1.19845E+02 1.74675E+05-4.68935E-09 1.56172E-09
 -1       634 2.81069E+05 8.66063E+04 2.45131E+02 1.67896E+05-1.50067E-09-1.14187E-08
 -1       635 2.75116E+05 9.25715E+04 5.29909E+02 1.74670E+05 8.17090E-09-3.69619E-09
 -1       636 2.81038E+05 8.66120E+04 1.08602E+03 1.67884E+05 1.53889E-08-9.71340E-10
 -1       637 2.75351E+05 9.27816E+04 2.40266E+03 1.74653E+05 2.54481E-08-1.43827E-08
 -1       638 2.80966E+05 8.72532E+04 4.95188E+03 1.67595E+05 3.01034E-08 7.18774E-09
 -1       639 2.77915E+05 9.66792E+04 1.17384E+04 1.73801E+05 1.52240E-08-7.48923E-09
 -1       640 2.80829E+05 9.87528E+04 2.45116E+04 1.62733E+05 6.27006E-09-9.51923E-09
 -1       656 2.51612E+04-7.52134E+05-8.03762E+04 4.91094E+03 2.32831E-09 9.95897E-11
 -1       657-3.40661E+04-7.84388E+05-6.25287E+04 6.49725E+04 9.90894E-10 1.07002E-09
 -1       658 6.33705E+03-7.62515E+05-4.00305E+04 4.54605E+03 3.63525E-09 4.69822E-09
 -1       659-3.53096E+04-7.85157E+05-6.44653E+04 6.52268E+04 5.07498E-10-1.23840E-09
 -1       660 2.63781E+04-7.51457E+05-8.38396E+04 4.65782E+03 6.23550E-09 3.16777E-09
 -1       661 3.67753E+05 4.80946E+04 3.01747E+04 1.43951E+05 1.09103E-08 9.62245E-10
 -1       662 3.75408E+05 6.89421E+04 1.87903E+04 1.47281E+05 6.31019E-09-1.39335E-08
 -1       663 3.72795E+05 5.43307E+04 7.11915E+03 1.43423E+05-3.11974E-09 3.28328E-09
 -1       664 3.69591E+05 6.04905E+04 3.86895E+03 1.48438E+05-1.54823E-08-2.17506E-09
 -1       665 3.73344E+05 5.49672E+04 1.67004E+03 1.43389E+05-1.09777E-08-4.89371E-09
 -1       666 3.68955E+05 5.96634E+04 9.04215E+02 1.48527E+05-7.60875E-09 3.13638E-09
 -1       667 3.73414E+05 5.50278E+04 5.18573E+02 1.43384E+05 2.76839E-09 2.88654E-09
 -1       668 3.68884E+05 5.96109E+04 5.02676E+02 1.48552E+05 6.94325E-09-1.58883E-09
 -1       669 3.73419E+05 5.50089E+04 7.25475E+02 1.43371E+05 5.76244E-09-1.50783E-09
 -1       670 3.68984E+05 5.97724E+04 1.47457E+03 1.48586E+05 5.17321E-09 1.74737E-09
 -1       671 3.73325E+05 5.48730E+04 2.83288E+03 1.43352E+05 2.26942E-09 6.95672E-09
 -1       672 3.70044E+05 6.12420E+04 6.63724E+03 1.48495E+05 3.29237E-10 9.03435E-09
 -1       673 3.72403E+05 5.37533E+04 1.22330E+04 1.43387E+05-2.90026E-09 4.07908E-09
 -1       674 3.80030E+05 7.58103E+04 3.23175E+04 1.46547E+05 1.61415E-09-4.83851E-09
 -1       675 3.63739E+05 4.30156E+04 5.18978E+04 1.44287E+05 3.22871E-09 5.24233E-09
 -1       676 8.33986E+01-5.20727E+05-2.64536E+03 3.08271E+02-9.52315E-09 7.15467E-10
 -1       677-9.39590E+02-5.21494E+05-4.92328E+03-6.15125E+02-1.28009E-08-6.44466E-10
 -1       678 7.01945E+02-5.20204E+05-8.52673E+03 3.06668E+02 1.75305E-09 2.85348E-09
 -1       679-9.83076E+03-5.26869E+05-2.07042E+04-6.11557E+02-8.63838E-09 5.30977E-09
 -1       680 7.00726E+03-5.15357E+05-3.24791E+04 3.02260E+02 2.86127E-09-6.05985E-09
 -1       771-3.50360E+06-6.76905E+05-9.31191E+04-1.50908E+06-4.89672E-09-4.01633E-09
 -1       772-3.48457E+06-7.01021E+05-4.72250E+04-1.56006E+06-6.28643E-09 1.70567E-08
 -1       773-3.51315E+06-6.52837E+05-2.06266E+04-1.52023E+06 1.01863E-09-2.12458E-09
 -1       774-3.47458E+06-6.90883E+05-9.97872E+03-1.56554E+06 9.66247E-09 8.25094E-09
 -1       775-3.51652E+06-6.50374E+05-4.99598E+03-1.52156E+06 3.27418E-09-2.16460E-09
 -1       776-3.47563E+06-6.90297E+05-2.39059E+03-1.56841E+06-3.00497E-09 3.71074E-10
 -1       777-3.51893E+06-6.48888E+05-1.48523E+03-1.52242E+06-6.91216E-10 1.00954E-09
 -1       778-3.47705E+06-6.90019E+05-9.40728E+02-1.57065E+06-9.31323E-10 2.64799E-09
 -1       779-3.52069E+06-6.47713E+05-1.18659E+03-1.52308E+06-1.40426E-09-3.07864E-10
 -1       780-3.47821E+06-6.89819E+05-1.89360E+03-1.57228E+06-9.95351E-09-2.06256E-09
 -1       781-3.52175E+06-6.46874E+05-3.74024E+03-1.52350E+06-4.32556E-09 3.44153E-09
 -1       782-3.47945E+06-6.90021E+05-8.01927E+03-1.57327E+06-2.45745E-09-8.03993E-10
 -1       783-3.52181E+06-6.46941E+05-1.63325E+04-1.52337E+06 1.26420E-09 1.59343E-09
 -1       784-3.48874E+06-6.99242E+05-3.86261E+04-1.57281E+06-9.01036E-09-5.07862E-09
 -1       785-3.51684E+06-6.64655E+05-7.56815E+04-1.51413E+06-1.47588E-09-2.62662E-09
 -1       786 3.18041E+05-1.28523E+04 3.95560E+04-2.68570E+02 6.36646E-11 6.25914E-09
 -1       787 3.33583E+05 1.55450E+04 2.65030E+04-5.60129E+03 9.49512E-10 5.84896E-09
 -1       788 3.24329E+05-1.60435E+03 1.02809E+04-2.93062E+02-1.24868E-09-3.25008E-09
 -1       789 3.26444E+05 1.91943E+03 6.01124E+03-5.56074E+03 2.56964E-09 3.56272E-09
 -1       790 3.25180E+05-2.00985E+02 2.62519E+03-3.08823E+02-9.03043E-10 1.62254E-09
 -1       791 3.25471E+05 2.36331E+02 1.45319E+03-5.54272E+03 1.17154E-09-3.06196E-09
 -1       792 3.25301E+05-2.65902E+01 7.21949E+02-3.11079E+02-4.04370E-10 1.25507E-09
 -1       793 3.25339E+05 3.93892E+01 4.84507E+02-5.55211E+03 9.39337E-11 3.08430E-09
 -1       794 3.25313E+05-1.39164E+01 4.32432E+02-2.99428E+02 6.27779E-10-4.87710E-09
 -1       795 3.25378E+05 9.83070E+01 6.67627E+02-5.58955E+03-1.48100E-09 4.94973E-09
 -1       796 3.25265E+05-8.39710E+01 1.11238E+03-2.73640E+02-6.76607E-10-6.81410E-09
 -1       797 3.25779E+05 7.86116E+02 2.48912E+03-5.65365E+03 1.32513E-09 1.64607E-09
 -1       798 3.24916E+05-6.61589E+02 4.23346E+03-2.35330E+02-8.34575E-10 1.59162E-12
 -1       799 3.28721E+05 6.38567E+03 1.09006E+04-5.73677E+03-9.86347E-10-1.83195E-09
 -1       800 3.22330E+05-5.28747E+03 1.62593E+04-1.90784E+02 1.42336E-10-2.58478E-09
 -1       801-3.96926E+04 3.43465E+05 3.78243E+04-1.29019E+05 2.11403E-08-1.07684E-08
 -1       802 1.07858E+05 3.66983E+05 8.55252E+04-2.12567E+06 3.20833E-08-2.00089E-08
 -1       803-4.85656E+03 3.54852E+05 1.00166E+05-1.30605E+05 5.11500E-08 1.97779E-08
 -1       804 2.07103E+05 4.29799E+05 2.40851E+05-2.12573E+06 2.53640E-08 1.22509E-08
 -1       805-1.37477E+05 2.89148E+05 3.15696E+05-1.29136E+05 3.02098E-08 1.63272E-08
 -1       806-3.06507E+05-8.40483E+04-2.64387E+04-1.46504E+05 4.50814E-09 7.69433E-09
 -1       807-3.06109E+05-7.90714E+04-1.26580E+04-1.55370E+05 4.58795E-09 1.32459E-08
 -1       808-3.06645E+05-7.16821E+04-5.33999E+03-1.51837E+05 1.52311E-08 1.81186E-08
 -1       809-3.03456E+05-7.47789E+04-2.59034E+03-1.56231E+05 3.93629E-09-2.30800E-08
 -1       810-3.06734E+05-7.09857E+04-1.17476E+03-1.52165E+05 3.74553E-09 6.02995E-10
 -1       811-3.03214E+05-7.45435E+04-5.81388E+02-1.56243E+05 1.85179E-09 3.28032E-09
 -1       812-3.06752E+05-7.09871E+04-2.88759E+02-1.52172E+05 6.23822E-09 1.00663E-08
 -1       813-3.03179E+05-7.45462E+04-1.81811E+02-1.56225E+05 1.78534E-09-1.21290E-08
 -1       814-3.06741E+05-7.10013E+04-1.70185E+02-1.52162E+05 6.91216E-10-7.08906E-09
 -1       815-3.03171E+05-7.45569E+04-2.66746E+02-1.56211E+05 3.50610E-10 9.23501E-09
 -1       816-3.06707E+05-7.10176E+04-5.01050E+02-1.52146E+05-2.41016E-09-4.85579E-09
 -1       817-3.03258E+05-7.46509E+04-1.08394E+03-1.56166E+05 2.77396E-09-6.81848E-09
 -1       818-3.06630E+05-7.13387E+04-2.22783E+03-1.52008E+05-1.60353E-08 1.03955E-09
 -1       819-3.04468E+05-7.63090E+04-5.27033E+03-1.55625E+05-3.05704E-08 1.53368E-08
 -1       820-3.06415E+05-7.66151E+04-1.10085E+04-1.49911E+05-1.91449E-08 2.00725E-09
 -1       821-4.12894E+05 1.66080E+04-5.11182E+04 1.33016E+02-3.07136E-09-9.82254E-11
 -1       822-4.32943E+05-2.00891E+04-3.42507E+04 7.79823E+03-3.05522E-09-4.15821E-09
 -1       823-4.21017E+05 2.06852E+03-1.32934E+04-2.87446E+00 4.67458E-09-1.52431E-09
 -1       824-4.23740E+05-2.46494E+03-7.77795E+03 8.02724E+03-7.97797E-10-1.13915E-08
 -1       825-4.22113E+05 2.57493E+02-3.42127E+03-9.67569E+01-7.42853E-09-1.16302E-09
 -1       826-4.22504E+05-2.84305E+02-1.93487E+03 8.18561E+03-1.54831E-08 5.91376E-09
 -1       827-4.22266E+05 3.60467E+01-1.04861E+03-1.61463E+02-8.03948E-09-1.06033E-08
 -1       828-4.22360E+05-4.39590E+01-8.68317E+02 8.28643E+03-9.95053E-09-4.21979E-09
 -1       829-4.22267E+05 3.60402E+01-1.02292E+03-1.97636E+02 4.44601E-10-4.90360E-09
 -1       830-4.22511E+05-2.67024E+02-1.86829E+03 8.32879E+03 4.45194E-09-8.29485E-09
 -1       831-4.22119E+05 2.50643E+02-3.28871E+03-2.03807E+02-2.28354E-09-1.14738E-08
 -1       832-4.23713E+05-2.35687E+03-7.47659E+03 8.31216E+03 2.03835E-09-9.73034E-09
 -1       833-4.21065E+05 1.99261E+03-1.27686E+04-1.80774E+02 1.80455E-09 1.53204E-09
 -1       834-4.32569E+05-1.92856E+04-3.29091E+04 8.23644E+03-2.02928E-09-2.53704E-09
 -1       835-4.13260E+05 1.59637E+04-4.91056E+04-1.26404E+02 2.93232E-09-6.66842E-09
 -1       836-1.24839E+03 5.19973E+05 3.96543E+04-4.12413E+04-4.07454E-10 4.73210E-09
 -1       837 8.02235E+03 5.31821E+05 3.06245E+04-7.73374E+04-1.27875E-09-3.14094E-09
 -1       838-4.32750E+02 5.23872E+05 2.78133E+04-4.11308E+04-6.74845E-10-2.34922E-09
 -1       839 1.51996E+04 5.37400E+05 4.86844E+04-7.73506E+04-2.34286E-09 3.17038E-09
 -1       840-2.54159E+03 5.14351E+05 7.69769E+04-4.12234E+04-9.78616E-10 2.65663E-09
 -1       856-3.10673E+05 8.14426E+03-4.05639E+04 6.88560E+03-8.35416E-09-1.00790E-08
 -1       857-3.24894E+05-1.17712E+04-2.56138E+04 2.35756E+04-5.37239E-09-5.40240E-10
 -1       858-3.16694E+05 8.07929E+02-1.04913E+04 6.76569E+03-6.62294E-09-2.93767E-09
 -1       859-3.18303E+05-9.87046E+02-5.78049E+03 2.37309E+04 7.24322E-09-4.69902E-09
 -1       860-3.17348E+05 1.11147E+02-2.65607E+03 6.72650E+03 2.09411E-09-1.05663E-08
 -1       861-3.17611E+05 1.37550E+01-1.40719E+03 2.37848E+04-5.95560E-09-7.48173E-09
 -1       862-3.17434E+05 4.45727E+01-7.14348E+02 6.71111E+03 1.02870E-08 3.25679E-09
 -1       863-3.17530E+05 1.04146E+02-4.51568E+02 2.37975E+04 1.80904E-08-6.39278E-09
 -1       864-3.17442E+05 3.76674E+01-3.88051E+02 6.71377E+03 7.01846E-09-7.41471E-09
 -1       865-3.17531E+05 7.44730E+01-5.51671E+02 2.37727E+04 1.36566E-08-1.31365E-09
 -1       866-3.17410E+05 5.26556E+01-9.42035E+02 6.73594E+03-9.13360E-10-2.67350E-09
 -1       867-3.17733E+05-2.78163E+02-1.98375E+03 2.37075E+04-4.33965E-09-5.74389E-09
 -1       868-3.17178E+05 2.77944E+02-3.58516E+03 6.77942E+03 8.01083E-09-4.76155E-09
 -1       869-3.19928E+05-3.96447E+03-8.71721E+03 2.35314E+04-2.08252E-09-9.06255E-10
 -1       870-3.15119E+05 2.75588E+03-1.38193E+04 6.91327E+03 4.03179E-09 3.42243E-09
 -1       871-6.18934E+03-4.52790E+04-1.60554E+04 1.69616E+05 7.80346E-10 5.26961E-09
 -1       872-2.50008E+03-4.87249E+04-5.79595E+03 2.13357E+05-2.83308E-09 5.69025E-09
 -1       873-2.14210E+02-4.73584E+04 2.51556E+03 1.69257E+05 2.35650E-09 9.09949E-09
 -1       874 3.14635E+03-4.42189E+04 1.26827E+04 2.13457E+05-3.22871E-10 1.12013E-08
 -1       875 8.93799E+03-5.00282E+04 2.73145E+04 1.69545E+05 1.56979E-09 2.47019E-09
 -1       876 4.69919E+05 7.17769E+04 3.83713E+04 1.87244E+05 8.45830E-10-7.23958E-10
 -1       877 4.76384E+05 8.83646E+04 2.20936E+04 1.94507E+05 6.83849E-09 3.26327E-09
 -1       878 4.75024E+05 7.42008E+04 8.89445E+03 1.88328E+05-2.21462E-09-2.86400E-09
 -1       879 4.70155E+05 8.08867E+04 4.55544E+03 1.95123E+05-9.55060E-09 1.17097E-09
 -1       880 4.75427E+05 7.44517E+04 2.05929E+03 1.88418E+05 4.28054E-09-3.92856E-09
 -1       881 4.69660E+05 8.03828E+04 1.07288E+03 1.95084E+05-1.45837E-09-3.18806E-09
 -1       882 4.75460E+05 7.44961E+04 6.13079E+02 1.88433E+05 9.26730E-09 1.06808E-08
 -1       883 4.69622E+05 8.03426E+04 5.54826E+02 1.95056E+05 4.77831E-09 1.10175E-08
 -1       884 4.75449E+05 7.44994E+04 7.82380E+02 1.88435E+05 4.72829E-09 2.52106E-09
 -1       885 4.69699E+05 8.03859E+04 1.52284E+03 1.95065E+05 2.26858E-08-1.43983E-08
 -1       886 4.75379E+05 7.44516E+04 3.01164E+03 1.88423E+05-4.31669E-09-3.42834E-09
 -1       887 4.70441E+05 8.11111E+04 6.70516E+03 1.95086E+05-8.11769E-09 1.69211E-09
 -1       888 4.74761E+05 7.40995E+04 1.31143E+04 1.88296E+05 6.14878E-09-1.59525E-09
 -1       889 4.79589E+05 9.21675E+04 3.25795E+04 1.94190E+05 1.75318E-08 1.40722E-08
 -1       890 4.67259E+05 7.04988E+04 5.65939E+04 1.86649E+05 9.25866E-10 3.32147E-09
 -1       891 7.24929E+02-2.57905E+05-9.41387E+03 4.59060E+04 1.11118E-08-7.16682E-10
 -1       892-2.39339E+03-2.60803E+05-7.32425E+03 9.97739E+04-5.29690E-09-1.29390E-08
 -1       893 1.17680E+02-2.58885E+05-6.40382E+03 4.58118E+04 8.32915E-09 7.80938E-09
 -1       894-4.17509E+03-2.61908E+05-1.12189E+04 9.96549E+04 4.05635E-10 2.07365E-10
 -1       895 1.39476E+03-2.56557E+05-1.72804E+04 4.60220E+04 7.58791E-09-1.16597E-09
 -1       956-4.56027E+05-8.18799E+03-1.95864E+04 4.89051E+04-8.23275E-09-5.07589E-09
 -1       957-4.59841E+05-2.65990E+03-1.00030E+04 5.83348E+04-1.53523E-09-1.04346E-08
 -1       958-4.57785E+05-2.01929E+02-4.50853E+03 4.85972E+04 5.40786E-09-1.39648E-08
 -1       959-4.58136E+05 3.73688E+01-2.29696E+03 5.86692E+04-1.62618E-09-4.98494E-09
 -1       960-4.57992E+05 1.38743E+02-1.11752E+03 4.85646E+04-1.46247E-09 9.95897E-11
 -1       961-4.58055E+05 1.70711E+02-5.84686E+02 5.87069E+04-5.74119E-09 4.98949E-09
 -1       962-4.58059E+05 1.53779E+02-3.22405E+02 4.85585E+04-3.14958E-09-9.09495E-10
 -1       963-4.58078E+05 1.89488E+02-2.35606E+02 5.87150E+04-7.84598E-09 2.17506E-09
 -1       964-4.58083E+05 1.65952E+02-2.59005E+02 4.85562E+04 3.95175E-09-3.58159E-09
 -1       965-4.58102E+05 1.98417E+02-4.25042E+02 5.87154E+04 1.06766E-08-1.16461E-09
 -1       966-4.58069E+05 1.74660E+02-7.86457E+02 4.85579E+04 3.29464E-10-1.41335E-09
 -1       967-4.58192E+05 1.23357E+02-1.60764E+03 5.86950E+04 8.15430E-09-3.65435E-09
 -1       968-4.57947E+05-4.83849E+01-3.14820E+03 4.85772E+04 1.01172E-08-5.15615E-09
 -1       969-4.59407E+05-1.74993E+03-6.98911E+03 5.84872E+04 8.92805E-09-9.45874E-11
 -1       970-4.56732E+05-5.62339E+03-1.36822E+04 4.87745E+04 7.39874E-09 1.59889E-09
 -1       971-5.62146E+05 4.38531E+02-2.29165E+04 1.47476E+04-4.23461E-09 6.21458E-09
 -1       972-5.68893E+05-4.23696E+03-1.33918E+04 2.74269E+04-2.94949E-09 5.85442E-09
 -1       973-5.65165E+05 1.12914E+02-5.80770E+03 1.45565E+04-6.25005E-09 2.98769E-10
 -1       974-5.65736E+05-1.50801E+02-3.06236E+03 2.76538E+04 1.21508E-09-1.34355E-09
 -1       975-5.65428E+05 6.88770E+01-1.49269E+03 1.45164E+04 3.32784E-09-5.23528E-09
 -1       976-5.65517E+05 1.03638E+02-8.29154E+02 2.77132E+04-2.33058E-10 6.00494E-09
 -1       977-5.65473E+05 7.01904E+01-5.39965E+02 1.44963E+04 7.62066E-09 4.50825E-09
 -1       978-5.65521E+05 1.27602E+02-5.49678E+02 2.77416E+04 2.43289E-08 5.79575E-09
 -1       979-5.65475E+05 8.05500E+01-8.13250E+02 1.44878E+04 1.41632E-08 1.95882E-09
 -1       980-5.65589E+05 1.06989E+02-1.53411E+03 2.77467E+04 1.61964E-08 6.30143E-09
 -1       981-5.65415E+05 1.09045E+02-2.93577E+03 1.44912E+04 2.54568E-09 5.82205E-09
 -1       982-5.66110E+05-3.68161E+02-6.14440E+03 2.77245E+04 3.08683E-09 4.85096E-09
 -1       983-5.64925E+05 2.35372E+02-1.16870E+04 1.45109E+04 7.35781E-10-1.72213E-09
 -1       984-5.72582E+05-8.57188E+03-2.70175E+04 2.75835E+04-1.47650E-08-2.08729E-10
 -1       985-5.58880E+05 9.38728E+02-4.62133E+04 1.46449E+04 3.32875E-10 8.85848E-10
 -3
 9999
