
 stresses (elem, integ.pnt.,sxx,syy,szz,sxy,sxz,syz) for set ELALL and time  0.1000000E+01

         1   1  3.365777E+06  1.238342E+07  3.207706E+06 -2.140441E+06  1.609366E+05  1.121378E+06
         1   2  2.722995E+06  1.053688E+07  2.213016E+06 -1.936160E+06  5.376584E+05  4.992064E+05
         1   3  2.260205E+06  8.826382E+06  1.665411E+06 -2.058543E+06  6.170800E+05 -1.206862E+05
         1   4  1.269784E+05 -8.286901E+05  1.352289E+05 -2.014804E+06  1.652975E+05  8.910334E+04
         1   5  3.190889E+04 -8.387803E+05  6.940853E+04 -1.851796E+06  5.409470E+05  5.647351E+04
         1   6  1.718050E+04 -8.157600E+05  4.645925E+04 -2.015477E+06  6.168707E+05  2.413385E+04
         1   7 -3.123490E+06 -1.387941E+07 -2.945096E+06 -1.891435E+06  1.693207E+05 -9.216926E+05
         1   8 -2.666562E+06 -1.209034E+07 -2.079179E+06 -1.768670E+06  5.441603E+05 -3.784532E+05
         1   9 -2.230689E+06 -1.036698E+07 -1.575354E+06 -1.972803E+06  6.166787E+05  1.667999E+05
         1  10  3.365418E+06  1.238208E+07  3.205336E+06 -2.140586E+06  3.072349E-09 -1.969457E-08
         1  11  2.722618E+06  1.053654E+07  2.212008E+06 -1.936375E+06 -8.381483E-11  4.685852E-09
         1  12  2.259793E+06  8.826264E+06  1.664669E+06 -2.058483E+06 -6.719611E-09  3.063513E-08
         1  13  1.269469E+05 -8.287060E+05  1.351624E+05 -2.014816E+06  9.564021E-09 -8.481818E-11
         1  14  3.159382E+04 -8.388624E+05  6.885245E+04 -1.851821E+06  6.150195E-09 -8.151359E-11
         1  15  1.677183E+04 -8.158627E+05  4.574313E+04 -2.015490E+06  2.605288E-08  1.461064E-10
         1  16 -3.123754E+06 -1.388035E+07 -2.946780E+06 -1.891309E+06  8.597665E-10  1.911381E-08
         1  17 -2.666918E+06 -1.209057E+07 -2.080007E+06 -1.768503E+06 -3.486409E-09 -4.634143E-09
         1  18 -2.231105E+06 -1.036711E+07 -1.576123E+06 -1.972887E+06  5.408156E-09 -2.984725E-08
         1  19  3.365777E+06  1.238342E+07  3.207706E+06 -2.140441E+06 -1.609366E+05 -1.121378E+06
         1  20  2.722995E+06  1.053688E+07  2.213016E+06 -1.936160E+06 -5.376584E+05 -4.992064E+05
         1  21  2.260205E+06  8.826382E+06  1.665411E+06 -2.058543E+06 -6.170800E+05  1.206862E+05
         1  22  1.269784E+05 -8.286901E+05  1.352289E+05 -2.014804E+06 -1.652975E+05 -8.910334E+04
         1  23  3.190889E+04 -8.387803E+05  6.940853E+04 -1.851796E+06 -5.409470E+05 -5.647351E+04
         1  24  1.718050E+04 -8.157600E+05  4.645925E+04 -2.015477E+06 -6.168707E+05 -2.413385E+04
         1  25 -3.123490E+06 -1.387941E+07 -2.945096E+06 -1.891435E+06 -1.693207E+05  9.216926E+05
         1  26 -2.666562E+06 -1.209034E+07 -2.079179E+06 -1.768670E+06 -5.441603E+05  3.784532E+05
         1  27 -2.230689E+06 -1.036698E+07 -1.575354E+06 -1.972803E+06 -6.166787E+05 -1.667999E+05
         2   1  1.994000E+06  7.675082E+06  1.441348E+06 -2.070612E+06  5.647105E+05 -1.152661E+05
         2   2  1.573801E+06  5.889451E+06  1.101049E+06 -1.885660E+06  4.824157E+05 -1.958562E+05
         2   3  1.180973E+06  4.123229E+06  8.193759E+05 -2.048211E+06  3.688053E+05 -2.768493E+05
         2   4  2.191697E+04 -8.180113E+05  4.040598E+04 -2.020115E+06  5.643241E+05  1.677207E+04
         2   5  2.378697E+04 -8.169292E+05  3.785915E+04 -1.846209E+06  4.811247E+05 -2.309836E+03
         2   6  4.263455E+04 -8.100848E+05  5.157709E+04 -2.020028E+06  3.664342E+05 -2.201243E+04
         2   7 -1.953865E+06 -9.240266E+06 -1.362614E+06 -1.970083E+06  5.639553E+05  1.470807E+05
         2   8 -1.528440E+06 -7.478717E+06 -1.026338E+06 -1.807040E+06  4.798487E+05  1.892368E+05
         2   9 -1.096858E+06 -5.719058E+06 -7.165520E+05 -1.991982E+06  3.640732E+05  2.308861E+05
         2  10  1.993654E+06  7.674982E+06  1.440725E+06 -2.070560E+06 -5.221927E-09 -2.776157E-08
         2  11  1.573542E+06  5.889348E+06  1.100541E+06 -1.885584E+06  2.081323E-09 -6.725981E-09
         2  12  1.180807E+06  4.123111E+06  8.189789E+05 -2.048129E+06 -7.268170E-09  1.339960E-08
         2  13  2.157502E+04 -8.180970E+05  3.980710E+04 -2.020123E+06  2.090564E-08  5.232976E-11
         2  14  2.353851E+04 -8.169913E+05  3.742434E+04 -1.846208E+06  7.823094E-09  2.398835E-11
         2  15  4.249034E+04 -8.101213E+05  5.132409E+04 -2.020021E+06 -5.718013E-09  4.434124E-10
         2  16 -1.954213E+06 -9.240375E+06 -1.363254E+06 -1.970151E+06  2.922701E-09  2.777789E-08
         2  17 -1.528698E+06 -7.478818E+06 -1.026840E+06 -1.807114E+06 -5.754491E-09  6.480911E-09
         2  18 -1.097015E+06 -5.719151E+06 -7.169033E+05 -1.992050E+06 -4.783798E-09 -1.313241E-08
         2  19  1.994000E+06  7.675082E+06  1.441348E+06 -2.070612E+06 -5.647105E+05  1.152661E+05
         2  20  1.573801E+06  5.889451E+06  1.101049E+06 -1.885660E+06 -4.824157E+05  1.958562E+05
         2  21  1.180973E+06  4.123229E+06  8.193759E+05 -2.048211E+06 -3.688053E+05  2.768493E+05
         2  22  2.191697E+04 -8.180113E+05  4.040598E+04 -2.020115E+06 -5.643241E+05 -1.677207E+04
         2  23  2.378697E+04 -8.169292E+05  3.785915E+04 -1.846209E+06 -4.811247E+05  2.309836E+03
         2  24  4.263455E+04 -8.100848E+05  5.157709E+04 -2.020028E+06 -3.664342E+05  2.201243E+04
         2  25 -1.953865E+06 -9.240266E+06 -1.362614E+06 -1.970083E+06 -5.639553E+05 -1.470807E+05
         2  26 -1.528440E+06 -7.478717E+06 -1.026338E+06 -1.807040E+06 -4.798487E+05 -1.892368E+05
         2  27 -1.096858E+06 -5.719058E+06 -7.165520E+05 -1.991982E+06 -3.640732E+05 -2.308861E+05
         3   1  9.235079E+05  2.999942E+06  6.474685E+05 -2.051681E+06  2.917328E+05 -2.850409E+05
         3   2  5.531386E+05  1.214586E+06  4.113587E+05 -1.798404E+06  1.640451E+05 -3.337293E+05
         3   3  2.862461E+05 -5.410516E+05  2.311156E+05 -1.894437E+06  3.996053E+04 -3.824494E+05
         3   4  4.669719E+04 -8.033587E+05  6.311510E+04 -2.020502E+06  2.891596E+05 -3.143999E+04
         3   5  8.770956E+04 -8.159317E+05  1.069680E+05 -1.845082E+06  1.614204E+05 -8.738918E+04
         3   6  2.336411E+05 -8.008527E+05  2.115500E+05 -2.018818E+06  3.729990E+04 -1.434875E+05
         3   7 -8.307775E+05 -4.592091E+06 -5.213184E+05 -1.989464E+06  2.866010E+05  2.206730E+05
         3   8 -3.778708E+05 -2.842175E+06 -1.972740E+05 -1.891586E+06  1.587529E+05  1.581788E+05
         3   9  1.811243E+05 -1.060424E+06  1.922103E+05 -2.143144E+06  3.454260E+04  9.538125E+04
         3  10  9.233953E+05  2.999833E+06  6.471579E+05 -2.051614E+06 -1.189010E-08 -2.797628E-09
         3  11  5.530802E+05  1.214460E+06  4.111000E+05 -1.798360E+06 -3.965817E-09  2.421638E-09
         3  12  2.862051E+05 -5.412091E+05  2.308377E+05 -1.894425E+06 -5.148633E-09  8.482530E-09
         3  13  4.660723E+04 -8.033821E+05  6.295632E+04 -2.020495E+06 -1.226049E-08  5.474726E-10
         3  14  8.767961E+04 -8.159469E+05  1.069049E+05 -1.845070E+06 -8.846947E-09  3.132638E-10
         3  15  2.336341E+05 -8.008752E+05  2.115088E+05 -2.018814E+06  3.921462E-09 -3.941526E-11
         3  16 -8.308792E+05 -4.592166E+06 -5.215658E+05 -1.989516E+06 -3.987597E-09  3.225742E-09
         3  17 -3.779047E+05 -2.842209E+06 -1.973689E+05 -1.891606E+06 -1.018735E-08 -1.741437E-09
         3  18  1.811206E+05 -1.060434E+06  1.921909E+05 -2.143146E+06  2.998007E-10 -8.795299E-09
         3  19  9.235079E+05  2.999942E+06  6.474685E+05 -2.051681E+06 -2.917328E+05  2.850409E+05
         3  20  5.531386E+05  1.214586E+06  4.113587E+05 -1.798404E+06 -1.640451E+05  3.337293E+05
         3  21  2.862461E+05 -5.410516E+05  2.311156E+05 -1.894437E+06 -3.996053E+04  3.824494E+05
         3  22  4.669719E+04 -8.033587E+05  6.311510E+04 -2.020502E+06 -2.891596E+05  3.143999E+04
         3  23  8.770956E+04 -8.159317E+05  1.069680E+05 -1.845082E+06 -1.614204E+05  8.738918E+04
         3  24  2.336411E+05 -8.008527E+05  2.115500E+05 -2.018818E+06 -3.729990E+04  1.434875E+05
         3  25 -8.307775E+05 -4.592091E+06 -5.213184E+05 -1.989464E+06 -2.866010E+05 -2.206730E+05
         3  26 -3.778708E+05 -2.842175E+06 -1.972740E+05 -1.891586E+06 -1.587529E+05 -1.581788E+05
         3  27  1.811243E+05 -1.060424E+06  1.922103E+05 -2.143144E+06 -3.454260E+04 -9.538125E+04
         4   1 -6.226677E+06 -1.893038E+06 -1.197746E+06 -2.187191E+06 -6.279608E+05 -2.271397E+05
         4   2 -6.021662E+06 -9.264574E+05 -5.964779E+05 -2.282926E+06 -4.053847E+05 -1.289292E+05
         4   3 -6.135043E+06 -9.547443E+05 -4.210486E+05 -2.208014E+06 -1.763099E+05 -4.799382E+04
         4   4 -5.545948E+06 -1.472720E+06 -9.779221E+05 -1.835465E+06 -6.206901E+05 -2.246248E+05
         4   5 -5.337162E+06 -6.242532E+05 -4.030312E+05 -2.052079E+06 -4.040785E+05 -1.284787E+05
         4   6 -5.445166E+06 -7.688810E+05 -2.488454E+05 -2.098173E+06 -1.809710E+05 -4.970835E+04
         4   7 -4.864699E+06 -1.052084E+06 -7.581403E+05 -1.483311E+06 -6.134102E+05 -2.221015E+05
         4   8 -4.652199E+06 -3.219700E+05 -2.096293E+05 -1.820981E+06 -4.027704E+05 -1.280272E+05
         4   9 -4.754819E+06 -5.830317E+05 -7.667459E+04 -1.988246E+06 -1.856377E+05 -5.142360E+04
         4  10 -6.227118E+06 -1.893201E+06 -1.198593E+06 -2.187307E+06 -2.003654E-09  1.180329E-11
         4  11 -6.021845E+06 -9.265202E+05 -5.968218E+05 -2.282969E+06 -2.089351E-09  7.914072E-10
         4  12 -6.135077E+06 -9.547552E+05 -4.211120E+05 -2.208021E+06 -3.787020E-09  3.285321E-09
         4  13 -5.546379E+06 -1.472880E+06 -9.787492E+05 -1.835578E+06 -4.251634E-09 -2.385385E-10
         4  14 -5.337343E+06 -6.243155E+05 -4.033724E+05 -2.052121E+06 -3.006299E-10  9.687974E-10
         4  15 -5.445203E+06 -7.688926E+05 -2.489123E+05 -2.098180E+06  9.046044E-11  4.224726E-09
         4  16 -4.865119E+06 -1.052239E+06 -7.589471E+05 -1.483421E+06 -1.993989E-09 -8.917654E-11
         4  17 -4.652379E+06 -3.220318E+05 -2.099679E+05 -1.821023E+06 -4.904908E-09  1.384710E-09
         4  18 -4.754857E+06 -5.830439E+05 -7.674494E+04 -1.988254E+06  2.608618E-10  4.523565E-09
         4  19 -6.226677E+06 -1.893038E+06 -1.197746E+06 -2.187191E+06  6.279608E+05  2.271397E+05
         4  20 -6.021662E+06 -9.264574E+05 -5.964779E+05 -2.282926E+06  4.053847E+05  1.289292E+05
         4  21 -6.135043E+06 -9.547443E+05 -4.210486E+05 -2.208014E+06  1.763099E+05  4.799382E+04
         4  22 -5.545948E+06 -1.472720E+06 -9.779221E+05 -1.835465E+06  6.206901E+05  2.246248E+05
         4  23 -5.337162E+06 -6.242532E+05 -4.030312E+05 -2.052079E+06  4.040785E+05  1.284787E+05
         4  24 -5.445166E+06 -7.688810E+05 -2.488454E+05 -2.098173E+06  1.809710E+05  4.970835E+04
         4  25 -4.864699E+06 -1.052084E+06 -7.581403E+05 -1.483311E+06  6.134102E+05  2.221015E+05
         4  26 -4.652199E+06 -3.219700E+05 -2.096293E+05 -1.820981E+06  4.027704E+05  1.280272E+05
         4  27 -4.754819E+06 -5.830317E+05 -7.667459E+04 -1.988246E+06  1.856377E+05  5.142360E+04
         5   1 -5.831808E+06 -1.059814E+06 -3.218095E+05 -2.175753E+06 -1.424565E+05 -4.066664E+04
         5   2 -5.745669E+06 -8.663072E+05 -1.845728E+05 -2.121186E+06 -9.107030E+04 -2.411123E+04
         5   3 -5.631621E+06 -8.708490E+05 -1.176315E+05 -2.128186E+06 -3.890464E+04 -9.624557E+03
         5   4 -5.409445E+06 -8.815008E+05 -2.037652E+05 -2.041743E+06 -1.429645E+05 -4.086215E+04
         5   5 -5.417096E+06 -7.378743E+05 -9.485178E+04 -2.027540E+06 -9.228368E+04 -2.456444E+04
         5   6 -5.396673E+06 -7.921106E+05 -5.562863E+04 -2.074911E+06 -4.083204E+04 -1.034106E+04
         5   7 -4.986907E+06 -7.031640E+05 -8.573774E+04 -1.907646E+06 -1.434729E+05 -4.105783E+04
         5   8 -5.088419E+06 -6.094333E+05 -5.140850E+03 -1.933848E+06 -9.349775E+04 -2.501793E+04
         5   9 -5.161673E+06 -7.133721E+05  6.369339E+03 -2.021618E+06 -4.276024E+04 -1.105778E+04
         5  10 -5.831830E+06 -1.059822E+06 -3.218512E+05 -2.175758E+06  8.517749E-10  4.627460E-09
         5  11 -5.745678E+06 -8.663100E+05 -1.845896E+05 -2.121188E+06 -1.581374E-08  1.667237E-09
         5  12 -5.631623E+06 -8.708495E+05 -1.176345E+05 -2.128187E+06 -1.055168E-08  1.831759E-10
         5  13 -5.409467E+06 -8.815081E+05 -2.038071E+05 -2.041748E+06  1.222761E-08  3.431165E-09
         5  14 -5.417105E+06 -7.378773E+05 -9.486909E+04 -2.027542E+06 -1.161314E-08  1.345616E-09
         5  15 -5.396675E+06 -7.921112E+05 -5.563200E+04 -2.074911E+06 -1.099511E-08  1.694405E-09
         5  16 -4.986930E+06 -7.031714E+05 -8.577998E+04 -1.907650E+06  4.188001E-09  1.660181E-09
         5  17 -5.088428E+06 -6.094364E+05 -5.158618E+03 -1.933850E+06  7.784065E-09  1.782995E-10
         5  18 -5.161675E+06 -7.133727E+05  6.365639E+03 -2.021619E+06  3.976269E-09  3.477634E-09
         5  19 -5.831808E+06 -1.059814E+06 -3.218095E+05 -2.175753E+06  1.424565E+05  4.066664E+04
         5  20 -5.745669E+06 -8.663072E+05 -1.845728E+05 -2.121186E+06  9.107030E+04  2.411123E+04
         5  21 -5.631621E+06 -8.708490E+05 -1.176315E+05 -2.128186E+06  3.890464E+04  9.624557E+03
         5  22 -5.409445E+06 -8.815008E+05 -2.037652E+05 -2.041743E+06  1.429645E+05  4.086215E+04
         5  23 -5.417096E+06 -7.378743E+05 -9.485178E+04 -2.027540E+06  9.228368E+04  2.456444E+04
         5  24 -5.396673E+06 -7.921106E+05 -5.562863E+04 -2.074911E+06  4.083204E+04  1.034106E+04
         5  25 -4.986907E+06 -7.031640E+05 -8.573774E+04 -1.907646E+06  1.434729E+05  4.105783E+04
         5  26 -5.088419E+06 -6.094333E+05 -5.140850E+03 -1.933848E+06  9.349775E+04  2.501793E+04
         5  27 -5.161673E+06 -7.133721E+05  6.369339E+03 -2.021618E+06  4.276024E+04  1.105778E+04
         6   1 -5.388348E+06 -8.074780E+05 -4.313345E+04 -2.069488E+06 -3.019740E+04 -9.637302E+03
         6   2 -5.317367E+06 -7.108588E+05  7.763818E+03 -1.994715E+06 -1.729062E+04 -9.612963E+03
         6   3 -5.171085E+06 -7.119501E+05  4.603462E+04 -2.011798E+06 -4.356403E+03 -9.651321E+03
         6   4 -5.391308E+06 -8.064901E+05 -4.388832E+04 -2.068013E+06 -3.168155E+04 -1.018952E+04
         6   5 -5.428157E+06 -7.520796E+05 -2.209023E+04 -2.024136E+06 -1.879737E+04 -1.017379E+04
         6   6 -5.389708E+06 -7.953773E+05 -1.289741E+04 -2.072121E+06 -5.887930E+03 -1.022160E+04
         6   7 -5.394267E+06 -8.055021E+05 -4.464318E+04 -2.066537E+06 -3.316569E+04 -1.074175E+04
         6   8 -5.538935E+06 -7.933000E+05 -5.194548E+04 -2.053553E+06 -2.030382E+04 -1.073451E+04
         6   9 -5.608285E+06 -8.788015E+05 -7.183385E+04 -2.132424E+06 -7.418864E+03 -1.079165E+04
         6  10 -5.388349E+06 -8.074784E+05 -4.313536E+04 -2.069488E+06 -5.814001E-10  1.916940E-09
         6  11 -5.317367E+06 -7.108590E+05  7.763075E+03 -1.994715E+06  8.985729E-09  6.634348E-10
         6  12 -5.171085E+06 -7.119502E+05  4.603441E+04 -2.011798E+06  7.825753E-09  1.059198E-09
         6  13 -5.391309E+06 -8.064905E+05 -4.389042E+04 -2.068013E+06  2.949341E-09  2.560660E-09
         6  14 -5.428157E+06 -7.520798E+05 -2.209110E+04 -2.024136E+06  1.229245E-08  1.676939E-09
         6  15 -5.389708E+06 -7.953774E+05 -1.289767E+04 -2.072121E+06 -5.295409E-09  2.778154E-09
         6  16 -5.394268E+06 -8.055025E+05 -4.464548E+04 -2.066538E+06 -9.677907E-09  2.754210E-09
         6  17 -5.538936E+06 -7.933002E+05 -5.194648E+04 -2.053553E+06 -4.022380E-09  1.452239E-09
         6  18 -5.608285E+06 -8.788017E+05 -7.183418E+04 -2.132424E+06 -6.189969E-09  4.130219E-09
         6  19 -5.388348E+06 -8.074780E+05 -4.313345E+04 -2.069488E+06  3.019740E+04  9.637302E+03
         6  20 -5.317367E+06 -7.108588E+05  7.763818E+03 -1.994715E+06  1.729062E+04  9.612963E+03
         6  21 -5.171085E+06 -7.119501E+05  4.603462E+04 -2.011798E+06  4.356403E+03  9.651321E+03
         6  22 -5.391308E+06 -8.064901E+05 -4.388832E+04 -2.068013E+06  3.168155E+04  1.018952E+04
         6  23 -5.428157E+06 -7.520796E+05 -2.209023E+04 -2.024136E+06  1.879737E+04  1.017379E+04
         6  24 -5.389708E+06 -7.953773E+05 -1.289741E+04 -2.072121E+06  5.887930E+03  1.022160E+04
         6  25 -5.394267E+06 -8.055021E+05 -4.464318E+04 -2.066537E+06  3.316569E+04  1.074175E+04
         6  26 -5.538935E+06 -7.933000E+05 -5.194548E+04 -2.053553E+06  2.030382E+04  1.073451E+04
         6  27 -5.608285E+06 -8.788015E+05 -7.183385E+04 -2.132424E+06  7.418864E+03  1.079165E+04
         7   1 -4.952302E+06 -6.296841E+05  1.088273E+05 -1.950251E+06 -1.553092E+03 -1.146997E+04
         7   2 -4.893156E+06 -5.561245E+05  1.381361E+05 -1.883124E+06  2.825872E+03 -1.439836E+04
         7   3 -4.762485E+06 -5.566126E+05  1.648697E+05 -1.898395E+06  7.020903E+03 -1.681366E+04
         7   4 -5.391225E+06 -7.945757E+05 -1.012642E+04 -2.068388E+06 -3.069984E+03 -1.203549E+04
         7   5 -5.426898E+06 -7.570618E+05 -6.096867E+03 -2.027358E+06  1.489562E+03 -1.489786E+04
         7   6 -5.391090E+06 -7.936376E+05 -4.787103E+03 -2.068735E+06  5.864610E+03 -1.724707E+04
         7   7 -5.829960E+06 -9.594560E+05 -1.290969E+05 -2.186448E+06 -4.585681E+03 -1.260057E+04
         7   8 -5.960363E+06 -9.579826E+05 -1.503551E+05 -2.171479E+06  1.545276E+02 -1.539688E+04
         7   9 -6.019313E+06 -1.030640E+06 -1.744794E+05 -2.238917E+06  4.709613E+03 -1.767999E+04
         7  10 -4.952302E+06 -6.296842E+05  1.088270E+05 -1.950251E+06  7.708736E-09  6.535040E-10
         7  11 -4.893156E+06 -5.561248E+05  1.381357E+05 -1.883124E+06  5.039445E-09 -4.371701E-10
         7  12 -4.762486E+06 -5.566129E+05  1.648690E+05 -1.898395E+06 -1.532169E-09  2.353962E-09
         7  13 -5.391225E+06 -7.945758E+05 -1.012671E+04 -2.068388E+06 -9.397231E-09  1.488445E-09
         7  14 -5.426898E+06 -7.570620E+05 -6.097288E+03 -2.027358E+06 -1.244024E-08  5.243123E-10
         7  15 -5.391090E+06 -7.936379E+05 -4.787725E+03 -2.068735E+06 -1.258428E-08  2.340421E-09
         7  16 -5.829960E+06 -9.594562E+05 -1.290973E+05 -2.186448E+06 -1.887634E-09  1.473667E-09
         7  17 -5.960363E+06 -9.579829E+05 -1.503556E+05 -2.171479E+06  1.254506E-08  1.100144E-09
         7  18 -6.019313E+06 -1.030640E+06 -1.744800E+05 -2.238917E+06  2.603817E-09  2.774621E-09
         7  19 -4.952302E+06 -6.296841E+05  1.088273E+05 -1.950251E+06  1.553092E+03  1.146997E+04
         7  20 -4.893156E+06 -5.561245E+05  1.381361E+05 -1.883124E+06 -2.825872E+03  1.439836E+04
         7  21 -4.762485E+06 -5.566126E+05  1.648697E+05 -1.898395E+06 -7.020903E+03  1.681366E+04
         7  22 -5.391225E+06 -7.945757E+05 -1.012642E+04 -2.068388E+06  3.069984E+03  1.203549E+04
         7  23 -5.426898E+06 -7.570618E+05 -6.096867E+03 -2.027358E+06 -1.489562E+03  1.489786E+04
         7  24 -5.391090E+06 -7.936376E+05 -4.787103E+03 -2.068735E+06 -5.864610E+03  1.724707E+04
         7  25 -5.829960E+06 -9.594560E+05 -1.290969E+05 -2.186448E+06  4.585681E+03  1.260057E+04
         7  26 -5.960363E+06 -9.579826E+05 -1.503551E+05 -2.171479E+06 -1.545276E+02  1.539688E+04
         7  27 -6.019313E+06 -1.030640E+06 -1.744794E+05 -2.238917E+06 -4.709613E+03  1.767999E+04
         8   1 -4.595401E+06 -4.866961E+05  2.120476E+05 -1.846192E+06  8.578116E+03 -1.845655E+04
         8   2 -4.556221E+06 -4.369749E+05  2.279069E+05 -1.799911E+06  1.236521E+04 -2.044008E+04
         8   3 -4.467016E+06 -4.381420E+05  2.416899E+05 -1.809113E+06  1.583328E+04 -2.155169E+04
         8   4 -5.395936E+06 -7.884019E+05 -4.656198E+03 -2.062824E+06  7.357471E+03 -1.891515E+04
         8   5 -5.421026E+06 -7.636486E+05 -5.962577E+03 -2.034809E+06  1.145174E+04 -2.078517E+04
         8   6 -5.396155E+06 -7.898527E+05 -9.592351E+03 -2.062285E+06  1.522646E+04 -2.178280E+04
         8   7 -6.195849E+06 -1.090071E+06 -2.214171E+05 -2.279201E+06  6.138573E+03 -1.937311E+04
         8   8 -6.285105E+06 -1.090279E+06 -2.398991E+05 -2.269410E+06  1.053967E+04 -2.112974E+04
         8   9 -6.324458E+06 -1.141513E+06 -2.609526E+05 -2.315112E+06  1.462063E+04 -2.201352E+04
         8  10 -4.595401E+06 -4.866965E+05  2.120469E+05 -1.846192E+06  4.974666E-09  5.034641E-09
         8  11 -4.556221E+06 -4.369754E+05  2.279058E+05 -1.799911E+06  2.341530E-09 -1.572712E-09
         8  12 -4.467016E+06 -4.381426E+05  2.416886E+05 -1.809113E+06  1.907446E-10 -4.419461E-09
         8  13 -5.395936E+06 -7.884023E+05 -4.656970E+03 -2.062823E+06  6.363615E-09  3.101408E-09
         8  14 -5.421026E+06 -7.636491E+05 -5.963632E+03 -2.034809E+06  2.181021E-08  9.345505E-10
         8  15 -5.396155E+06 -7.898533E+05 -9.593675E+03 -2.062284E+06  1.547022E-08 -1.927737E-09
         8  16 -6.195849E+06 -1.090071E+06 -2.214179E+05 -2.279201E+06 -1.362907E-08  1.339723E-09
         8  17 -6.285106E+06 -1.090279E+06 -2.399001E+05 -2.269410E+06  7.656210E-09  2.589981E-10
         8  18 -6.324458E+06 -1.141513E+06 -2.609539E+05 -2.315112E+06 -1.238268E-11 -3.934914E-09
         8  19 -4.595401E+06 -4.866961E+05  2.120476E+05 -1.846192E+06 -8.578116E+03  1.845655E+04
         8  20 -4.556221E+06 -4.369749E+05  2.279069E+05 -1.799911E+06 -1.236521E+04  2.044008E+04
         8  21 -4.467016E+06 -4.381420E+05  2.416899E+05 -1.809113E+06 -1.583328E+04  2.155169E+04
         8  22 -5.395936E+06 -7.884019E+05 -4.656198E+03 -2.062824E+06 -7.357471E+03  1.891515E+04
         8  23 -5.421026E+06 -7.636486E+05 -5.962577E+03 -2.034809E+06 -1.145174E+04  2.078517E+04
         8  24 -5.396155E+06 -7.898527E+05 -9.592351E+03 -2.062285E+06 -1.522646E+04  2.178280E+04
         8  25 -6.195849E+06 -1.090071E+06 -2.214171E+05 -2.279201E+06 -6.138573E+03  1.937311E+04
         8  26 -6.285105E+06 -1.090279E+06 -2.398991E+05 -2.269410E+06 -1.053967E+04  2.112974E+04
         8  27 -6.324458E+06 -1.141513E+06 -2.609526E+05 -2.315112E+06 -1.462063E+04  2.201352E+04
         9   1 -4.378944E+06 -3.944100E+05  2.651806E+05 -1.777169E+06  1.812103E+04 -2.193838E+04
         9   2 -4.365074E+06 -3.733658E+05  2.623115E+05 -1.758679E+06  2.895832E+04 -1.948771E+04
         9   3 -4.337299E+06 -3.837128E+05  2.485773E+05 -1.756319E+06  3.934509E+04 -1.583499E+04
         9   4 -5.403623E+06 -7.812007E+05 -1.206212E+04 -2.055195E+06  1.738714E+04 -2.221813E+04
         9   5 -5.411319E+06 -7.707567E+05 -2.102291E+04 -2.045136E+06  2.863643E+04 -1.961302E+04
         9   6 -5.405204E+06 -7.918065E+05 -4.119232E+04 -2.051209E+06  3.943442E+04 -1.580513E+04
         9   7 -6.427286E+06 -1.167931E+06 -2.893991E+05 -2.332806E+06  1.665459E+04 -2.249739E+04
         9   8 -6.456501E+06 -1.168081E+06 -3.044554E+05 -2.331154E+06  2.831512E+04 -1.973812E+04
         9   9 -6.472000E+06 -1.199827E+06 -3.310643E+05 -2.345634E+06  3.952353E+04 -1.577534E+04
         9  10 -4.378944E+06 -3.944106E+05  2.651791E+05 -1.777168E+06  8.935682E-09 -1.154052E-09
         9  11 -4.365075E+06 -3.733665E+05  2.623092E+05 -1.758678E+06  4.710346E-09  5.211356E-09
         9  12 -4.337301E+06 -3.837135E+05  2.485740E+05 -1.756318E+06  8.219827E-09  2.058340E-09
         9  13 -5.403624E+06 -7.812013E+05 -1.206362E+04 -2.055195E+06  1.816193E-08 -1.033196E-09
         9  14 -5.411320E+06 -7.707573E+05 -2.102518E+04 -2.045136E+06  3.950271E-09  4.150075E-09
         9  15 -5.405205E+06 -7.918071E+05 -4.119573E+04 -2.051208E+06 -1.483379E-09  3.817089E-09
         9  16 -6.427286E+06 -1.167932E+06 -2.894005E+05 -2.332805E+06  3.338860E-09 -3.015923E-09
         9  17 -6.456502E+06 -1.168081E+06 -3.044576E+05 -2.331154E+06  1.571966E-08  2.754878E-09
         9  18 -6.472001E+06 -1.199827E+06 -3.310677E+05 -2.345634E+06  1.080099E-08  4.624694E-09
         9  19 -4.378944E+06 -3.944100E+05  2.651806E+05 -1.777169E+06 -1.812103E+04  2.193838E+04
         9  20 -4.365074E+06 -3.733658E+05  2.623115E+05 -1.758679E+06 -2.895832E+04  1.948771E+04
         9  21 -4.337299E+06 -3.837128E+05  2.485773E+05 -1.756319E+06 -3.934509E+04  1.583499E+04
         9  22 -5.403623E+06 -7.812007E+05 -1.206212E+04 -2.055195E+06 -1.738714E+04  2.221813E+04
         9  23 -5.411319E+06 -7.707567E+05 -2.102291E+04 -2.045136E+06 -2.863643E+04  1.961302E+04
         9  24 -5.405204E+06 -7.918065E+05 -4.119232E+04 -2.051209E+06 -3.943442E+04  1.580513E+04
         9  25 -6.427286E+06 -1.167931E+06 -2.893991E+05 -2.332806E+06 -1.665459E+04  2.249739E+04
         9  26 -6.456501E+06 -1.168081E+06 -3.044554E+05 -2.331154E+06 -2.831512E+04  1.973812E+04
         9  27 -6.472000E+06 -1.199827E+06 -3.310643E+05 -2.345634E+06 -3.952353E+04  1.577534E+04
        10   1 -4.339704E+06 -3.705983E+05  2.379331E+05 -1.763499E+06  4.743988E+04 -1.301312E+04
        10   2 -4.347290E+06 -3.631038E+05  1.947300E+05 -1.765839E+06  9.327125E+04  4.807857E+03
        10   3 -4.417325E+06 -4.491250E+05  8.736164E+04 -1.720059E+06  1.381185E+05  2.519571E+04
        10   4 -5.417189E+06 -7.714137E+05 -5.224260E+04 -2.049931E+06  4.706792E+04 -1.315746E+04
        10   5 -5.392060E+06 -7.661395E+05 -8.939490E+04 -2.058195E+06  9.374003E+04  4.981742E+03
        10   6 -5.429626E+06 -8.546666E+05 -1.914662E+05 -2.018319E+06  1.394298E+05  2.568818E+04
        10   7 -6.493552E+06 -1.172172E+06 -3.425221E+05 -2.335916E+06  4.669661E+04 -1.330157E+04
        10   8 -6.435772E+06 -1.169101E+06 -3.736191E+05 -2.350101E+06  9.420782E+04  5.155236E+03
        10   9 -6.440931E+06 -1.260116E+06 -4.703892E+05 -2.316125E+06  1.407386E+05  2.617956E+04
        10  10 -4.339706E+06 -3.705991E+05  2.379286E+05 -1.763499E+06  6.078301E-09 -1.315707E-09
        10  11 -4.347299E+06 -3.631062E+05  1.947135E+05 -1.765839E+06  1.524854E-08 -1.602422E-09
        10  12 -4.417346E+06 -4.491308E+05  8.732430E+04 -1.720061E+06  4.473025E-09 -8.147111E-10
        10  13 -5.417192E+06 -7.714145E+05 -5.224711E+04 -2.049930E+06  1.248466E-08  2.153255E-10
        10  14 -5.392069E+06 -7.661419E+05 -8.941161E+04 -2.058195E+06  3.841308E-09 -1.207441E-09
        10  15 -5.429648E+06 -8.546726E+05 -1.915044E+05 -2.018322E+06 -9.990710E-09 -3.709290E-09
        10  16 -6.493554E+06 -1.172173E+06 -3.425266E+05 -2.335915E+06  9.078805E-09  2.450848E-09
        10  17 -6.435781E+06 -1.169103E+06 -3.736360E+05 -2.350101E+06 -8.180910E-09  2.662585E-09
        10  18 -6.440952E+06 -1.260122E+06 -4.704281E+05 -2.316128E+06  8.396307E-10 -3.349694E-09
        10  19 -4.339704E+06 -3.705983E+05  2.379331E+05 -1.763499E+06 -4.743988E+04  1.301312E+04
        10  20 -4.347290E+06 -3.631038E+05  1.947300E+05 -1.765839E+06 -9.327125E+04 -4.807857E+03
        10  21 -4.417325E+06 -4.491250E+05  8.736164E+04 -1.720059E+06 -1.381185E+05 -2.519571E+04
        10  22 -5.417189E+06 -7.714137E+05 -5.224260E+04 -2.049931E+06 -4.706792E+04  1.315746E+04
        10  23 -5.392060E+06 -7.661395E+05 -8.939490E+04 -2.058195E+06 -9.374003E+04 -4.981742E+03
        10  24 -5.429626E+06 -8.546666E+05 -1.914662E+05 -2.018319E+06 -1.394298E+05 -2.568818E+04
        10  25 -6.493552E+06 -1.172172E+06 -3.425221E+05 -2.335916E+06 -4.669661E+04  1.330157E+04
        10  26 -6.435772E+06 -1.169101E+06 -3.736191E+05 -2.350101E+06 -9.420782E+04 -5.155236E+03
        10  27 -6.440931E+06 -1.260116E+06 -4.703892E+05 -2.316125E+06 -1.407386E+05 -2.617956E+04
        11   1 -4.480386E+06 -4.406043E+05  1.923553E+04 -1.867871E+06  1.759503E+05  3.854965E+04
        11   2 -4.472404E+06 -2.998639E+05 -1.432343E+05 -1.810967E+06  3.779494E+05  1.179551E+05
        11   3 -4.871301E+06 -9.797856E+05 -6.966761E+05 -1.467796E+06  5.741810E+05  2.123300E+05
        11   4 -5.466221E+06 -7.463972E+05 -2.339960E+05 -2.068664E+06  1.737585E+05  3.773230E+04
        11   5 -5.311430E+06 -6.637025E+05 -3.790092E+05 -2.086173E+06  3.808192E+05  1.190208E+05
        11   6 -5.565012E+06 -1.403432E+06 -9.194320E+05 -1.817235E+06  5.821590E+05  2.152148E+05
        11   7 -6.451107E+06 -1.052199E+06 -4.873028E+05 -2.269203E+06  1.715704E+05  3.691576E+04
        11   8 -6.149763E+06 -1.027436E+06 -6.148504E+05 -2.361017E+06  3.836843E+05  1.200842E+05
        11   9 -6.258187E+06 -1.826769E+06 -1.142231E+06 -2.166240E+06  5.901266E+05  2.180906E+05
        11  10 -4.480420E+06 -4.406143E+05  1.917405E+04 -1.867876E+06 -7.922328E-10 -1.060736E-09
        11  11 -4.472562E+06 -2.999178E+05 -1.435313E+05 -1.811003E+06  6.088647E-09 -1.935184E-09
        11  12 -4.871669E+06 -9.799238E+05 -6.973865E+05 -1.467895E+06  3.546954E-09 -1.741570E-09
        11  13 -5.466254E+06 -7.464069E+05 -2.340560E+05 -2.068670E+06  6.490151E-09 -3.131677E-09
        11  14 -5.311591E+06 -6.637573E+05 -3.793113E+05 -2.086210E+06 -4.871366E-10 -3.343664E-09
        11  15 -5.565391E+06 -1.403575E+06 -9.201632E+05 -1.817337E+06  5.339936E-09 -3.633175E-09
        11  16 -6.451139E+06 -1.052209E+06 -4.873614E+05 -2.269209E+06 -1.718757E-09 -3.099299E-09
        11  17 -6.149926E+06 -1.027491E+06 -6.151577E+05 -2.361055E+06 -4.075884E-09  2.194916E-09
        11  18 -6.258577E+06 -1.826915E+06 -1.142984E+06 -2.166345E+06 -3.415590E-10  1.728054E-09
        11  19 -4.480386E+06 -4.406043E+05  1.923553E+04 -1.867871E+06 -1.759503E+05 -3.854965E+04
        11  20 -4.472404E+06 -2.998639E+05 -1.432343E+05 -1.810967E+06 -3.779494E+05 -1.179551E+05
        11  21 -4.871301E+06 -9.797856E+05 -6.966761E+05 -1.467796E+06 -5.741810E+05 -2.123300E+05
        11  22 -5.466221E+06 -7.463972E+05 -2.339960E+05 -2.068664E+06 -1.737585E+05 -3.773230E+04
        11  23 -5.311430E+06 -6.637025E+05 -3.790092E+05 -2.086173E+06 -3.808192E+05 -1.190208E+05
        11  24 -5.565012E+06 -1.403432E+06 -9.194320E+05 -1.817235E+06 -5.821590E+05 -2.152148E+05
        11  25 -6.451107E+06 -1.052199E+06 -4.873028E+05 -2.269203E+06 -1.715704E+05 -3.691576E+04
        11  26 -6.149763E+06 -1.027436E+06 -6.148504E+05 -2.361017E+06 -3.836843E+05 -1.200842E+05
        11  27 -6.258187E+06 -1.826769E+06 -1.142231E+06 -2.166240E+06 -5.901266E+05 -2.180906E+05
        12   1  1.481980E+05  1.638019E+06  1.640993E+05  8.236021E+02  7.331509E+03 -1.621411E+03
        12   2  1.455802E+05  1.637916E+06  1.678231E+05 -2.437201E+03  7.367559E+03 -1.204840E+04
        12   3  1.586090E+05  1.645810E+06  1.827841E+05  1.899935E+03  7.542468E+03 -2.247529E+04
        12   4  1.016699E+03  1.047669E+06  1.765251E+04  1.683080E+03  7.331943E+03 -1.613389E+03
        12   5 -2.574387E+03  1.043665E+06  2.040531E+04 -2.106310E+03  7.368018E+03 -1.205836E+04
        12   6  9.491453E+03  1.047665E+06  3.441458E+04  1.702695E+03  7.543022E+03 -2.250315E+04
        12   7 -1.461907E+05  4.576337E+05 -1.288203E+05  2.541763E+03  7.332377E+03 -1.605374E+03
        12   8 -1.507554E+05  4.497338E+05 -1.270388E+05 -1.775638E+03  7.368476E+03 -1.206830E+04
        12   9 -1.396529E+05  4.498439E+05 -1.139816E+05  1.505817E+03  7.543577E+03 -2.253099E+04
        12  10  1.481980E+05  1.638019E+06  1.640992E+05  8.236117E+02 -7.660022E-09  4.038764E-09
        12  11  1.455801E+05  1.637916E+06  1.678227E+05 -2.437130E+03  1.027905E-08 -7.944993E-10
        12  12  1.586088E+05  1.645810E+06  1.827830E+05  1.900071E+03 -5.203487E-10 -3.789770E-09
        12  13  1.016641E+03  1.047669E+06  1.765241E+04  1.683090E+03 -2.291445E-08  5.373720E-11
        12  14 -2.574484E+03  1.043665E+06  2.040494E+04 -2.106238E+03 -1.479840E-08  1.303263E-11
        12  15  9.491256E+03  1.047665E+06  3.441352E+04  1.702831E+03 -4.375959E-09  6.744609E-11
        12  16 -1.461908E+05  4.576337E+05 -1.288204E+05  2.541772E+03 -1.209715E-08 -4.100353E-09
        12  17 -1.507555E+05  4.497336E+05 -1.270392E+05 -1.775566E+03  1.349863E-09  9.550542E-10
        12  18 -1.396531E+05  4.498434E+05 -1.139826E+05  1.505954E+03 -6.833909E-09  3.608014E-09
        12  19  1.481980E+05  1.638019E+06  1.640993E+05  8.236021E+02 -7.331509E+03  1.621411E+03
        12  20  1.455802E+05  1.637916E+06  1.678231E+05 -2.437201E+03 -7.367559E+03  1.204840E+04
        12  21  1.586090E+05  1.645810E+06  1.827841E+05  1.899935E+03 -7.542468E+03  2.247529E+04
        12  22  1.016699E+03  1.047669E+06  1.765251E+04  1.683080E+03 -7.331943E+03  1.613389E+03
        12  23 -2.574387E+03  1.043665E+06  2.040531E+04 -2.106310E+03 -7.368018E+03  1.205836E+04
        12  24  9.491453E+03  1.047665E+06  3.441458E+04  1.702695E+03 -7.543022E+03  2.250315E+04
        12  25 -1.461907E+05  4.576337E+05 -1.288203E+05  2.541763E+03 -7.332377E+03  1.605374E+03
        12  26 -1.507554E+05  4.497338E+05 -1.270388E+05 -1.775638E+03 -7.368476E+03  1.206830E+04
        12  27 -1.396529E+05  4.498439E+05 -1.139816E+05  1.505817E+03 -7.543577E+03  2.253099E+04
        13   1  1.584414E+05  1.696868E+06  2.017102E+05 -3.736969E+02  7.943308E+03 -2.927772E+04
        13   2  1.485958E+05  1.693325E+06  2.280686E+05 -6.446321E+03  8.518538E+03 -6.372783E+04
        13   3  2.321411E+05  1.721112E+06  3.008709E+05  1.137534E+04  8.178802E+03 -9.818254E+04
        13   4 -2.153692E+03  1.052835E+06  4.193104E+04  5.212819E+03  7.944049E+03 -2.943729E+04
        13   5 -1.497662E+04  1.037160E+06  6.532181E+04 -6.577688E+03  8.519110E+03 -6.367969E+04
        13   6  6.560721E+04  1.052806E+06  1.350462E+05  5.527589E+03  8.179403E+03 -9.792602E+04
        13   7 -1.627798E+05  4.091772E+05 -1.178791E+05  1.079380E+04  7.944786E+03 -2.959668E+04
        13   8 -1.785812E+05  3.813843E+05 -9.745708E+04 -6.708552E+03  8.519682E+03 -6.363157E+04
        13   9 -1.009600E+05  3.849043E+05 -3.081180E+04 -3.133964E+02  8.180000E+03 -9.766973E+04
        13  10  1.584411E+05  1.696867E+06  2.017085E+05 -3.735098E+02 -6.281913E-09  2.219109E-09
        13  11  1.485946E+05  1.693320E+06  2.280609E+05 -6.445884E+03 -4.385075E-09 -3.103588E-10
        13  12  2.321385E+05  1.721101E+06  3.008527E+05  1.137598E+04  2.463729E-09 -1.136827E-09
        13  13 -2.153992E+03  1.052834E+06  4.192929E+04  5.213007E+03  1.696118E-10  6.536439E-10
        13  14 -1.497778E+04  1.037155E+06  6.531407E+04 -6.577251E+03  3.347363E-09 -1.396799E-10
        13  15  6.560457E+04  1.052796E+06  1.350281E+05  5.528233E+03 -4.275267E-09  2.668791E-10
        13  16 -1.627801E+05  4.091762E+05 -1.178809E+05  1.079399E+04 -6.524497E-11 -2.574995E-09
        13  17 -1.785824E+05  3.813800E+05 -9.746482E+04 -6.708115E+03  4.279045E-09  7.816920E-10
        13  18 -1.009626E+05  3.848941E+05 -3.082984E+04 -3.127530E+02 -1.388237E-09  7.444233E-10
        13  19  1.584414E+05  1.696868E+06  2.017102E+05 -3.736969E+02 -7.943308E+03  2.927772E+04
        13  20  1.485958E+05  1.693325E+06  2.280686E+05 -6.446321E+03 -8.518538E+03  6.372783E+04
        13  21  2.321411E+05  1.721112E+06  3.008709E+05  1.137534E+04 -8.178802E+03  9.818254E+04
        13  22 -2.153692E+03  1.052835E+06  4.193104E+04  5.212819E+03 -7.944049E+03  2.943729E+04
        13  23 -1.497662E+04  1.037160E+06  6.532181E+04 -6.577688E+03 -8.519110E+03  6.367969E+04
        13  24  6.560721E+04  1.052806E+06  1.350462E+05  5.527589E+03 -8.179403E+03  9.792602E+04
        13  25 -1.627798E+05  4.091772E+05 -1.178791E+05  1.079380E+04 -7.944786E+03  2.959668E+04
        13  26 -1.785812E+05  3.813843E+05 -9.745708E+04 -6.708552E+03 -8.519682E+03  6.363157E+04
        13  27 -1.009600E+05  3.849043E+05 -3.081180E+04 -3.133964E+02 -8.180000E+03  9.766973E+04
        14   1  1.748676E+05  1.850159E+06  3.527650E+05 -2.264196E+04  1.014801E+04 -1.237858E+05
        14   2  9.513636E+04  1.781937E+06  4.434840E+05 -8.747894E+02  1.276570E+04 -2.613822E+05
        14   3  6.467602E+05  1.894779E+06  7.825778E+05  6.685698E+04  6.873563E+03 -3.990395E+05
        14   4 -1.601138E+04  1.086065E+06  1.631748E+05  9.077412E+03  1.014883E+04 -1.248578E+05
        14   5 -1.006730E+05  9.955128E+05  2.486303E+05 -1.211664E+04  1.276821E+04 -2.606690E+05
        14   6  4.461262E+05  1.085926E+06  5.814447E+05  1.265238E+04  6.891984E+03 -3.965358E+05
        14   7 -2.069306E+05  3.225026E+05 -2.645845E+04  4.075852E+04  1.014955E+04 -1.259284E+05
        14   8 -2.965280E+05  2.096495E+05  5.373073E+04 -2.334333E+04  1.277070E+04 -2.599565E+05
        14   9  2.454552E+05  2.776722E+05  3.802646E+05 -4.148063E+04  6.909998E+03 -3.940351E+05
        14  10  1.748634E+05  1.850142E+06  3.527361E+05 -2.264095E+04 -9.045694E-11  2.794188E-09
        14  11  9.511792E+04  1.781863E+06  4.433557E+05 -8.721052E+02  7.962337E-09 -3.136817E-10
        14  12  6.467175E+05  1.894608E+06  7.822794E+05  6.685919E+04  5.354136E-09 -1.448840E-09
        14  13 -1.601567E+04  1.086049E+06  1.631454E+05  9.078432E+03 -2.504460E-09  1.359985E-09
        14  14 -1.006914E+05  9.954399E+05  2.485025E+05 -1.211396E+04  5.257365E-09  7.531024E-11
        14  15  4.460841E+05  1.085757E+06  5.811496E+05  1.265458E+04 -5.765681E-09  5.043037E-10
        14  16 -2.069349E+05  3.224856E+05 -2.648843E+04  4.075955E+04 -4.884563E-09 -3.653477E-09
        14  17 -2.965463E+05  2.095770E+05  5.360350E+04 -2.334066E+04  1.685369E-09  1.429611E-09
        14  18  2.454135E+05  2.775055E+05  3.799728E+05 -4.147844E+04 -4.401131E-10  1.023083E-09
        14  19  1.748676E+05  1.850159E+06  3.527650E+05 -2.264196E+04 -1.014801E+04  1.237858E+05
        14  20  9.513636E+04  1.781937E+06  4.434840E+05 -8.747894E+02 -1.276570E+04  2.613822E+05
        14  21  6.467602E+05  1.894779E+06  7.825778E+05  6.685698E+04 -6.873563E+03  3.990395E+05
        14  22 -1.601138E+04  1.086065E+06  1.631748E+05  9.077412E+03 -1.014883E+04  1.248578E+05
        14  23 -1.006730E+05  9.955128E+05  2.486303E+05 -1.211664E+04 -1.276821E+04  2.606690E+05
        14  24  4.461262E+05  1.085926E+06  5.814447E+05  1.265238E+04 -6.891984E+03  3.965358E+05
        14  25 -2.069306E+05  3.225026E+05 -2.645845E+04  4.075852E+04 -1.014955E+04  1.259284E+05
        14  26 -2.965280E+05  2.096495E+05  5.373073E+04 -2.334333E+04 -1.277070E+04  2.599565E+05
        14  27  2.454552E+05  2.776722E+05  3.802646E+05 -4.148063E+04 -6.909998E+03  3.940351E+05
        15   1  5.164758E+05  6.219173E+05  4.835999E+05 -7.699998E+02  9.056301E+04 -3.393483E+01
        15   2  5.153996E+05  6.169313E+05  4.825249E+05 -1.264877E+03  9.043242E+04 -2.767178E+02
        15   3  5.147478E+05  6.145225E+05  4.822515E+05 -3.726334E+03  9.005112E+04 -5.205296E+02
        15   4 -7.652376E+02 -1.480205E+06  3.200902E+02 -4.371921E+02  9.058439E+04 -2.993748E+01
        15   5 -9.285411E+02 -1.481473E+06  1.109390E+02  5.467203E+02  9.045352E+04 -9.158214E+01
        15   6 -7.016878E+02 -1.480200E+06  5.776736E+02 -4.363111E+02  9.007155E+04 -1.542549E+02
        15   7 -5.183154E+05 -3.578234E+06 -4.832523E+05 -1.052564E+02  9.060582E+04 -2.595330E+01
        15   8 -5.175646E+05 -3.575800E+06 -4.825946E+05  2.353300E+03  9.047467E+04  9.293418E+01
        15   9 -5.164581E+05 -3.570860E+06 -4.813868E+05  2.844568E+03  9.009204E+04  2.107963E+02
        15  10  5.164670E+05  6.219151E+05  4.835845E+05 -7.699973E+02 -9.904469E-09 -4.981808E-09
        15  11  5.153908E+05  6.169291E+05  4.825096E+05 -1.264857E+03 -1.025974E-08 -8.664450E-09
        15  12  5.147391E+05  6.145204E+05  4.822363E+05 -3.726296E+03 -9.713097E-10 -5.066219E-09
        15  13 -7.740428E+02 -1.480207E+06  3.046811E+02 -4.371899E+02 -3.354702E-09 -1.545222E-11
        15  14 -9.373208E+02 -1.481476E+06  9.557438E+01  5.467270E+02 -1.027406E-08 -1.223834E-09
        15  15 -7.103935E+02 -1.480203E+06  5.624385E+02 -4.362999E+02  3.583329E-10 -2.356184E-09
        15  16 -5.183242E+05 -3.578236E+06 -4.832677E+05 -1.052545E+02  1.391530E-08  4.797497E-09
        15  17 -5.175734E+05 -3.575802E+06 -4.826100E+05  2.353293E+03  2.776806E-09  7.411672E-09
        15  18 -5.164669E+05 -3.570862E+06 -4.814020E+05  2.844553E+03 -3.001668E-09  4.003299E-09
        15  19  5.164758E+05  6.219173E+05  4.835999E+05 -7.699998E+02 -9.056301E+04  3.393483E+01
        15  20  5.153996E+05  6.169313E+05  4.825249E+05 -1.264877E+03 -9.043242E+04  2.767178E+02
        15  21  5.147478E+05  6.145225E+05  4.822515E+05 -3.726334E+03 -9.005112E+04  5.205296E+02
        15  22 -7.652376E+02 -1.480205E+06  3.200902E+02 -4.371921E+02 -9.058439E+04  2.993748E+01
        15  23 -9.285411E+02 -1.481473E+06  1.109390E+02  5.467203E+02 -9.045352E+04  9.158214E+01
        15  24 -7.016878E+02 -1.480200E+06  5.776736E+02 -4.363111E+02 -9.007155E+04  1.542549E+02
        15  25 -5.183154E+05 -3.578234E+06 -4.832523E+05 -1.052564E+02 -9.060582E+04  2.595330E+01
        15  26 -5.175646E+05 -3.575800E+06 -4.825946E+05  2.353300E+03 -9.047467E+04 -9.293418E+01
        15  27 -5.164581E+05 -3.570860E+06 -4.813868E+05  2.844568E+03 -9.009204E+04 -2.107963E+02
        16   1  5.129018E+05  6.074892E+05  4.805876E+05 -5.341120E+03  9.011926E+04  2.620868E+01
        16   2  5.100216E+05  5.949474E+05  4.783697E+05 -3.661279E+03  8.927403E+04 -2.259500E+03
        16   3  5.085211E+05  5.853917E+05  4.784995E+05 -7.871308E+03  8.589967E+04 -4.558367E+03
        16   4 -7.800171E+02 -1.480166E+06  7.108498E+02 -1.309247E+03  9.014114E+04 -2.704512E+02
        16   5 -9.491306E+02 -1.481492E+06  8.917585E+02  1.638007E+03  8.928960E+04 -7.311041E+02
        16   6 -5.666949E+01 -1.480152E+06  2.154504E+03 -1.305854E+03  8.590508E+04 -1.204964E+03
        16   7 -5.147667E+05 -3.563784E+06 -4.794544E+05  2.711509E+03  9.016308E+04 -5.661196E+02
        16   8 -5.122215E+05 -3.553938E+06 -4.768717E+05  6.922805E+03  8.930524E+04  7.922290E+02
        16   9 -5.089336E+05 -3.541748E+06 -4.744745E+05  5.241798E+03  8.591058E+04  2.137382E+03
        16  10  5.128931E+05  6.074870E+05  4.805724E+05 -5.341122E+03 -6.556730E-09 -8.430686E-09
        16  11  5.100130E+05  5.949453E+05  4.783547E+05 -3.661116E+03 -2.188134E-09 -1.756650E-09
        16  12  5.085131E+05  5.853897E+05  4.784856E+05 -7.870993E+03  1.591293E-08  1.596223E-08
        16  13 -7.887363E+02 -1.480168E+06  6.955910E+02 -1.309228E+03 -1.059508E-08  8.457379E-11
        16  14 -9.576860E+02 -1.481494E+06  8.767857E+02  1.638059E+03 -5.325085E-09 -3.621151E-09
        16  15 -6.458883E+01 -1.480154E+06  2.140643E+03 -1.305771E+03  5.128624E-09 -5.078998E-09
        16  16 -5.147754E+05 -3.563786E+06 -4.794697E+05  2.711550E+03 -1.969085E-10  6.983196E-09
        16  17 -5.122300E+05 -3.553940E+06 -4.768867E+05  6.922748E+03 -4.783413E-11 -1.937821E-09
        16  18 -5.089415E+05 -3.541750E+06 -4.744883E+05  5.241650E+03  1.660550E-09 -1.790374E-08
        16  19  5.129018E+05  6.074892E+05  4.805876E+05 -5.341120E+03 -9.011926E+04 -2.620868E+01
        16  20  5.100216E+05  5.949474E+05  4.783697E+05 -3.661279E+03 -8.927403E+04  2.259500E+03
        16  21  5.085211E+05  5.853917E+05  4.784995E+05 -7.871308E+03 -8.589967E+04  4.558367E+03
        16  22 -7.800171E+02 -1.480166E+06  7.108498E+02 -1.309247E+03 -9.014114E+04  2.704512E+02
        16  23 -9.491306E+02 -1.481492E+06  8.917585E+02  1.638007E+03 -8.928960E+04  7.311041E+02
        16  24 -5.666949E+01 -1.480152E+06  2.154504E+03 -1.305854E+03 -8.590508E+04  1.204964E+03
        16  25 -5.147667E+05 -3.563784E+06 -4.794544E+05  2.711509E+03 -9.016308E+04  5.661196E+02
        16  26 -5.122215E+05 -3.553938E+06 -4.768717E+05  6.922805E+03 -8.930524E+04 -7.922290E+02
        16  27 -5.089336E+05 -3.541748E+06 -4.744745E+05  5.241798E+03 -8.591058E+04 -2.137382E+03
        17   1  5.036222E+05  5.725028E+05  4.731807E+05 -1.113753E+04  9.111097E+04  9.978260E+03
        17   2  4.988877E+05  5.492518E+05  4.732984E+05 -4.383726E+03  8.300135E+04 -2.735475E+04
        17   3  5.097944E+05  5.368930E+05  5.020658E+05 -8.972096E+03  2.619412E+04 -6.501961E+04
        17   4 -1.143791E+03 -1.479665E+06  2.646562E+03 -2.534725E+03  9.118777E+04 -1.587999E+03
        17   5 -1.433578E+03 -1.482052E+06  4.080222E+03  3.165871E+03  8.288665E+04 -3.806238E+03
        17   6  7.840095E+03 -1.479637E+06  9.788704E+03 -2.480721E+03  2.581657E+04 -6.357455E+03
        17   7 -5.062034E+05 -3.527929E+06 -4.681647E+05  6.044059E+03  9.126440E+04 -1.311635E+04
        17   8 -5.020444E+05 -3.509537E+06 -4.654113E+05  1.069592E+04  8.277235E+04  1.966587E+04
        17   9 -4.944131E+05 -3.492448E+06 -4.827721E+05  3.995528E+03  2.543962E+04  5.211471E+04
        17  10  5.036132E+05  5.725005E+05  4.731650E+05 -1.113826E+04  2.852052E-09  1.363501E-08
        17  11  4.988801E+05  5.492492E+05  4.732840E+05 -4.381899E+03 -4.622880E-09 -7.209678E-09
        17  12  5.097926E+05  5.368883E+05  5.020566E+05 -8.970726E+03 -1.628045E-08 -1.550779E-08
        17  13 -1.152715E+03 -1.479667E+06  2.630942E+03 -2.534608E+03 -1.652640E-09  3.249362E-11
        17  14 -1.440954E+03 -1.482054E+06  4.067294E+03  3.166125E+03 -1.296777E-08 -6.071728E-09
        17  15  7.839369E+03 -1.479637E+06  9.787376E+03 -2.480589E+03 -1.422121E-08 -7.595569E-09
        17  16 -5.062124E+05 -3.527931E+06 -4.681806E+05  6.045025E+03  2.913848E-10 -1.601259E-08
        17  17 -5.020519E+05 -3.509539E+06 -4.654249E+05  1.069461E+04 -9.879730E-09  1.073939E-09
        17  18 -4.944145E+05 -3.492451E+06 -4.827785E+05  3.994458E+03 -1.318012E-08  1.269071E-08
        17  19  5.036222E+05  5.725028E+05  4.731807E+05 -1.113753E+04 -9.111097E+04 -9.978260E+03
        17  20  4.988877E+05  5.492518E+05  4.732984E+05 -4.383726E+03 -8.300135E+04  2.735475E+04
        17  21  5.097944E+05  5.368930E+05  5.020658E+05 -8.972096E+03 -2.619412E+04  6.501961E+04
        17  22 -1.143791E+03 -1.479665E+06  2.646562E+03 -2.534725E+03 -9.118777E+04  1.587999E+03
        17  23 -1.433578E+03 -1.482052E+06  4.080222E+03  3.165871E+03 -8.288665E+04  3.806238E+03
        17  24  7.840095E+03 -1.479637E+06  9.788704E+03 -2.480721E+03 -2.581657E+04  6.357455E+03
        17  25 -5.062034E+05 -3.527929E+06 -4.681647E+05  6.044059E+03 -9.126440E+04  1.311635E+04
        17  26 -5.020444E+05 -3.509537E+06 -4.654113E+05  1.069592E+04 -8.277235E+04 -1.966587E+04
        17  27 -4.944131E+05 -3.492448E+06 -4.827721E+05  3.995528E+03 -2.543962E+04 -5.211471E+04
        18   1  6.919424E+04  8.380302E+05  3.886708E+04 -2.408131E+00  2.428712E+04  6.272149E-02
        18   2  6.919806E+04  8.380476E+05  3.887328E+04 -1.453522E+01  2.428799E+04 -4.796736E+00
        18   3  6.920251E+04  8.380708E+05  3.888441E+04 -2.450883E+01  2.428972E+04 -9.656034E+00
        18   4 -1.941443E+01  5.305703E+05  1.214033E+01  4.787125E-01  2.428839E+04 -9.834323E-01
        18   5 -2.044161E+01  5.305672E+05  1.457223E+01 -5.979342E-01  2.428926E+04 -7.920365E+00
        18   6 -2.048848E+01  5.305703E+05  2.338407E+01  4.793289E-01  2.429099E+04 -1.485717E+01
        18   7 -6.923691E+04  2.232074E+05 -3.884309E+04  3.364322E+00  2.428966E+04 -2.029094E+00
        18   8 -6.924279E+04  2.231838E+05 -3.884443E+04  1.333329E+01  2.429053E+04 -1.104252E+01
        18   9 -6.924734E+04  2.231668E+05 -3.883794E+04  2.545661E+01  2.429226E+04 -2.005586E+01
        18  10  6.919360E+04  8.380300E+05  3.886597E+04 -2.408132E+00 -7.495329E-09 -1.035534E-07
        18  11  6.919743E+04  8.380474E+05  3.887217E+04 -1.453513E+01  3.760752E-10 -5.260301E-09
        18  12  6.920188E+04  8.380707E+05  3.888330E+04 -2.450865E+01  2.609587E-09  9.169328E-08
        18  13 -2.004807E+01  5.305702E+05  1.103147E+01  4.787318E-01  9.650347E-09 -2.304505E-11
        18  14 -2.107529E+01  5.305670E+05  1.346329E+01 -5.977793E-01  1.760517E-08 -1.210617E-10
        18  15 -2.112225E+01  5.305702E+05  2.227497E+01  4.796194E-01  9.878256E-09  1.608991E-10
        18  16 -6.923755E+04  2.232073E+05 -3.884420E+04  3.364362E+00 -1.074818E-08  1.034975E-07
        18  17 -6.924343E+04  2.231837E+05 -3.884554E+04  1.333351E+01  2.411417E-09  5.196455E-09
        18  18 -6.924797E+04  2.231666E+05 -3.883905E+04  2.545700E+01  3.925786E-10 -9.169414E-08
        18  19  6.919424E+04  8.380302E+05  3.886708E+04 -2.408131E+00 -2.428712E+04 -6.272170E-02
        18  20  6.919806E+04  8.380476E+05  3.887328E+04 -1.453522E+01 -2.428799E+04  4.796736E+00
        18  21  6.920251E+04  8.380708E+05  3.888441E+04 -2.450883E+01 -2.428972E+04  9.656034E+00
        18  22 -1.941443E+01  5.305703E+05  1.214033E+01  4.787128E-01 -2.428839E+04  9.834323E-01
        18  23 -2.044161E+01  5.305672E+05  1.457223E+01 -5.979342E-01 -2.428926E+04  7.920365E+00
        18  24 -2.048848E+01  5.305703E+05  2.338407E+01  4.793286E-01 -2.429099E+04  1.485717E+01
        18  25 -6.923691E+04  2.232074E+05 -3.884309E+04  3.364323E+00 -2.428966E+04  2.029094E+00
        18  26 -6.924279E+04  2.231838E+05 -3.884443E+04  1.333329E+01 -2.429053E+04  1.104252E+01
        18  27 -6.924734E+04  2.231668E+05 -3.883794E+04  2.545661E+01 -2.429226E+04  2.005585E+01
        19   1  6.920774E+04  8.380964E+05  3.889489E+04 -2.912981E+01  2.429129E+04 -1.232156E+01
        19   2  6.921943E+04  8.381526E+05  3.892657E+04 -4.734937E+01  2.429385E+04 -3.912869E+01
        19   3  6.923294E+04  8.382179E+05  3.897777E+04 -5.594394E+01  2.429556E+04 -6.593541E+01
        19   4 -2.102462E+01  5.305709E+05  3.006603E+01  2.139711E+00  2.429257E+04 -1.947998E+01
        19   5 -2.366952E+01  5.305665E+05  5.061022E+01 -2.672831E+00  2.429513E+04 -4.422788E+01
        19   6 -2.484733E+01  5.305708E+05  8.924607E+01  2.139892E+00  2.429683E+04 -6.897538E+01
        19   7 -6.925363E+04  2.231423E+05 -3.883506E+04  3.339561E+01  2.429384E+04 -2.663503E+01
        19   8 -6.927062E+04  2.230774E+05 -3.882565E+04  4.198404E+01  2.429640E+04 -4.932468E+01
        19   9 -6.928649E+04  2.230208E+05 -3.879958E+04  6.019799E+01  2.429811E+04 -7.201391E+01
        19  10  6.920710E+04  8.380962E+05  3.889378E+04 -2.912957E+01  2.508246E-09  1.627236E-08
        19  11  6.921879E+04  8.381525E+05  3.892546E+04 -4.734860E+01  9.677441E-09  1.708799E-08
        19  12  6.923231E+04  8.382177E+05  3.897666E+04 -5.594265E+01  1.001802E-08  1.620430E-08
        19  13 -2.165847E+01  5.305707E+05  2.895679E+01  2.140092E+00 -7.789810E-10  1.288576E-10
        19  14 -2.430351E+01  5.305663E+05  4.950074E+01 -2.671966E+00 -8.457670E-12 -3.787393E-10
        19  15 -2.548140E+01  5.305707E+05  8.813643E+01  2.141241E+00 -1.381444E-08  2.404098E-10
        19  16 -6.925427E+04  2.231422E+05 -3.883617E+04  3.339613E+01 -8.259490E-09 -1.636836E-08
        19  17 -6.927125E+04  2.230773E+05 -3.882676E+04  4.198500E+01  4.165584E-09 -1.722922E-08
        19  18 -6.928713E+04  2.230207E+05 -3.880069E+04  6.019940E+01 -8.254072E-10 -1.614965E-08
        19  19  6.920774E+04  8.380964E+05  3.889489E+04 -2.912981E+01 -2.429129E+04  1.232156E+01
        19  20  6.921943E+04  8.381526E+05  3.892657E+04 -4.734937E+01 -2.429385E+04  3.912869E+01
        19  21  6.923294E+04  8.382179E+05  3.897777E+04 -5.594394E+01 -2.429556E+04  6.593541E+01
        19  22 -2.102462E+01  5.305709E+05  3.006603E+01  2.139711E+00 -2.429257E+04  1.947998E+01
        19  23 -2.366952E+01  5.305665E+05  5.061022E+01 -2.672831E+00 -2.429513E+04  4.422788E+01
        19  24 -2.484733E+01  5.305708E+05  8.924607E+01  2.139892E+00 -2.429683E+04  6.897538E+01
        19  25 -6.925363E+04  2.231423E+05 -3.883506E+04  3.339561E+01 -2.429384E+04  2.663503E+01
        19  26 -6.927062E+04  2.230774E+05 -3.882565E+04  4.198404E+01 -2.429640E+04  4.932468E+01
        19  27 -6.928649E+04  2.230208E+05 -3.879958E+04  6.019799E+01 -2.429811E+04  7.201391E+01
        20   1  6.924383E+04  8.382717E+05  3.901683E+04 -6.355665E+01  2.429697E+04 -8.347897E+01
        20   2  6.926649E+04  8.383596E+05  3.913658E+04 -8.848883E+01  2.429176E+04 -2.177434E+02
        20   3  6.930578E+04  8.384742E+05  3.934943E+04 -9.729124E+01  2.427275E+04 -3.520098E+02
        20   4 -2.629365E+01  5.305736E+05  1.177362E+02  3.584697E+00  2.429824E+04 -8.743933E+01
        20   5 -2.986660E+01  5.305630E+05  2.047101E+02 -4.479559E+00  2.429302E+04 -1.884999E+02
        20   6 -2.255119E+01  5.305735E+05  3.617833E+02  3.585946E+00  2.427400E+04 -2.895630E+02
        20   7 -6.930027E+04  2.229725E+05 -3.878166E+04  7.069614E+01  2.429951E+04 -9.139781E+01
        20   8 -6.933008E+04  2.228636E+05 -3.872747E+04  7.949195E+01  2.429429E+04 -1.592702E+02
        20   9 -6.935475E+04  2.227700E+05 -3.862618E+04  1.044175E+02  2.427525E+04 -2.271455E+02
        20  10  6.924320E+04  8.382716E+05  3.901572E+04 -6.355502E+01  5.176206E-09 -3.537732E-08
        20  11  6.926585E+04  8.383595E+05  3.913547E+04 -8.848457E+01  3.092916E-09 -2.074434E-08
        20  12  6.930515E+04  8.384740E+05  3.934833E+04 -9.728436E+01 -4.624804E-09 -3.229159E-09
        20  13 -2.692780E+01  5.305734E+05  1.166264E+02  3.586407E+00 -1.856166E-08  2.421056E-10
        20  14 -3.050048E+01  5.305629E+05  2.036008E+02 -4.475872E+00 -1.411942E-08 -5.637620E-10
        20  15 -2.318409E+01  5.305733E+05  3.606756E+02  3.591606E+00 -7.704670E-09  3.411794E-10
        20  16 -6.930091E+04  2.229723E+05 -3.878277E+04  7.069793E+01  4.091451E-09  3.508141E-08
        20  17 -6.933071E+04  2.228635E+05 -3.872858E+04  7.949507E+01 -3.488560E-09  2.061766E-08
        20  18 -6.935538E+04  2.227699E+05 -3.862729E+04  1.044219E+02 -1.726525E-09  3.336068E-09
        20  19  6.924383E+04  8.382717E+05  3.901683E+04 -6.355665E+01 -2.429697E+04  8.347897E+01
        20  20  6.926649E+04  8.383596E+05  3.913658E+04 -8.848883E+01 -2.429176E+04  2.177434E+02
        20  21  6.930578E+04  8.384742E+05  3.934943E+04 -9.729124E+01 -2.427275E+04  3.520098E+02
        20  22 -2.629365E+01  5.305736E+05  1.177362E+02  3.584697E+00 -2.429824E+04  8.743933E+01
        20  23 -2.986660E+01  5.305630E+05  2.047101E+02 -4.479559E+00 -2.429302E+04  1.884999E+02
        20  24 -2.255119E+01  5.305735E+05  3.617833E+02  3.585946E+00 -2.427400E+04  2.895630E+02
        20  25 -6.930027E+04  2.229725E+05 -3.878166E+04  7.069614E+01 -2.429951E+04  9.139781E+01
        20  26 -6.933008E+04  2.228636E+05 -3.872747E+04  7.949195E+01 -2.429429E+04  1.592702E+02
        20  27 -6.935475E+04  2.227700E+05 -3.862618E+04  1.044175E+02 -2.427525E+04  2.271455E+02
        21   1 -6.132180E+05  5.155124E+04  1.742379E+05 -1.614495E+03  3.538689E+05  9.354336E+03
        21   2 -6.361618E+05 -4.273705E+05 -1.103318E+05  2.660403E+04  2.346007E+05  2.036746E+04
        21   3 -4.849217E+05 -3.347728E+05 -1.710941E+05 -7.265819E+04  1.154156E+05  1.556970E+04
        21   4  7.972802E+05  4.030154E+05  5.257608E+05 -4.685476E+04  3.582237E+05  9.355601E+03
        21   5  7.100610E+05 -9.141888E+04  2.237862E+05  1.839442E+04  2.356739E+05  2.036547E+04
        21   6  7.972567E+05 -1.442026E+04  1.475407E+05 -4.381886E+04  1.132198E+05  1.556540E+04
        21   7  2.209589E+06  7.543390E+05  8.771359E+05 -9.220119E+04  3.625877E+05  9.356251E+03
        21   8  2.057929E+06  2.443973E+05  5.577690E+05  1.016474E+04  2.367489E+05  2.036346E+04
        21   9  2.080928E+06  3.058118E+05  4.660530E+05 -1.492105E+04  1.110193E+05  1.556090E+04
        21  10 -6.133525E+05  5.151749E+04  1.740022E+05 -1.617161E+03 -4.653547E-09 -5.956463E-10
        21  11 -6.362211E+05 -4.273857E+05 -1.104361E+05  2.660018E+04  5.743418E-09 -1.643157E-09
        21  12 -4.849360E+05 -3.347766E+05 -1.711196E+05 -7.265964E+04  4.209402E-09 -1.822550E-09
        21  13  7.971425E+05  4.029810E+05  5.255198E+05 -4.685746E+04 -8.618694E-09 -3.448775E-10
        21  14  7.100013E+05 -9.143421E+04  2.236812E+05  1.839056E+04 -8.995207E-09 -1.090102E-09
        21  15  7.972429E+05 -1.442396E+04  1.475162E+05 -4.382028E+04 -3.255111E-09 -2.071196E-09
        21  16  2.209448E+06  7.543038E+05  8.768896E+05 -9.220392E+04  6.793199E-09 -7.517761E-11
        21  17  2.057869E+06  2.443819E+05  5.576633E+05  1.016087E+04  9.412219E-10 -7.602153E-10
        21  18  2.080915E+06  3.058082E+05  4.660294E+05 -1.492244E+04  5.815902E-10 -1.801438E-09
        21  19 -6.132180E+05  5.155124E+04  1.742379E+05 -1.614495E+03 -3.538689E+05 -9.354336E+03
        21  20 -6.361618E+05 -4.273705E+05 -1.103318E+05  2.660403E+04 -2.346007E+05 -2.036746E+04
        21  21 -4.849217E+05 -3.347728E+05 -1.710941E+05 -7.265819E+04 -1.154156E+05 -1.556970E+04
        21  22  7.972802E+05  4.030154E+05  5.257608E+05 -4.685476E+04 -3.582237E+05 -9.355601E+03
        21  23  7.100610E+05 -9.141888E+04  2.237862E+05  1.839442E+04 -2.356739E+05 -2.036547E+04
        21  24  7.972567E+05 -1.442026E+04  1.475407E+05 -4.381886E+04 -1.132198E+05 -1.556540E+04
        21  25  2.209589E+06  7.543390E+05  8.771359E+05 -9.220119E+04 -3.625877E+05 -9.356251E+03
        21  26  2.057929E+06  2.443973E+05  5.577690E+05  1.016474E+04 -2.367489E+05 -2.036346E+04
        21  27  2.080928E+06  3.058118E+05  4.660530E+05 -1.492105E+04 -1.110193E+05 -1.556090E+04
        22   1 -1.821162E+05 -1.777948E+05 -1.138782E+05 -3.367452E+04  8.857534E+04  1.160303E+04
        22   2 -1.451013E+05 -2.370002E+05 -1.643154E+05  1.337614E+04  5.855022E+04  1.147179E+04
        22   3 -7.676378E+04 -2.121348E+05 -1.728871E+05 -4.272894E+04  2.852025E+04  9.317359E+03
        22   4  7.656918E+05  5.876448E+04  1.215638E+05 -3.942562E+04  8.884838E+04  1.160150E+04
        22   5  7.499917E+05 -1.357928E+04  5.795928E+04  1.221152E+04  5.839357E+04  1.147045E+04
        22   6  7.656531E+05 -1.840429E+03  3.647477E+04 -3.929743E+04  2.793645E+04  9.317079E+03
        22   7  1.714315E+06  2.952565E+05  3.569388E+05 -4.518595E+04  8.912176E+04  1.159996E+04
        22   8  1.645811E+06  2.097815E+05  2.801742E+05  1.104506E+04  5.823664E+04  1.146912E+04
        22   9  1.608713E+06  2.084008E+05  2.457836E+05 -3.586115E+04  2.735184E+04  9.316793E+03
        22  10 -1.821247E+05 -1.777970E+05 -1.138932E+05 -3.367535E+04  7.591862E-10  1.282100E-12
        22  11 -1.451050E+05 -2.370012E+05 -1.643221E+05  1.337560E+04 -6.546702E-09  2.826055E-09
        22  12 -7.676468E+04 -2.121351E+05 -1.728888E+05 -4.272915E+04 -3.215081E-10 -1.237196E-09
        22  13  7.656832E+05  5.876222E+04  1.215488E+05 -3.942645E+04 -3.785440E-11 -8.138487E-10
        22  14  7.499880E+05 -1.358033E+04  5.795263E+04  1.221098E+04  2.046352E-09  1.614109E-09
        22  15  7.656522E+05 -1.840732E+03  3.647314E+04 -3.929764E+04 -5.896430E-09 -2.214415E-09
        22  16  1.714306E+06  2.952542E+05  3.569236E+05 -4.518678E+04 -2.920138E-09 -3.583628E-10
        22  17  1.645808E+06  2.097805E+05  2.801675E+05  1.104452E+04 -1.013848E-09  1.954671E-09
        22  18  1.608713E+06  2.084005E+05  2.457820E+05 -3.586136E+04 -8.545642E-09  7.928765E-10
        22  19 -1.821162E+05 -1.777948E+05 -1.138782E+05 -3.367452E+04 -8.857534E+04 -1.160303E+04
        22  20 -1.451013E+05 -2.370002E+05 -1.643154E+05  1.337614E+04 -5.855022E+04 -1.147179E+04
        22  21 -7.676378E+04 -2.121348E+05 -1.728871E+05 -4.272894E+04 -2.852025E+04 -9.317359E+03
        22  22  7.656918E+05  5.876448E+04  1.215638E+05 -3.942562E+04 -8.884838E+04 -1.160150E+04
        22  23  7.499917E+05 -1.357928E+04  5.795928E+04  1.221152E+04 -5.839357E+04 -1.147045E+04
        22  24  7.656531E+05 -1.840429E+03  3.647477E+04 -3.929743E+04 -2.793645E+04 -9.317079E+03
        22  25  1.714315E+06  2.952565E+05  3.569388E+05 -4.518595E+04 -8.912176E+04 -1.159996E+04
        22  26  1.645811E+06  2.097815E+05  2.801742E+05  1.104506E+04 -5.823664E+04 -1.146912E+04
        22  27  1.608713E+06  2.084008E+05  2.457836E+05 -3.586115E+04 -2.735184E+04 -9.316793E+03
        23   1  2.031484E+05 -1.305391E+05 -1.092224E+05 -3.493838E+04  2.224796E+04  7.882639E+03
        23   2  2.462829E+05 -1.295448E+05 -1.119046E+05  9.507295E+03  1.460441E+04  6.335873E+03
        23   3  2.951039E+05 -1.160354E+05 -1.061687E+05 -3.595494E+04  6.956707E+03  4.653072E+03
        23   4  7.600814E+05  8.429188E+03  2.895075E+04 -3.638095E+04  2.197523E+04  7.882491E+03
        23   5  7.572239E+05 -2.033493E+03  1.496717E+04  8.565449E+03  1.429940E+04  6.336144E+03
        23   6  7.600545E+05  1.984324E+01  9.419105E+03 -3.639142E+04  6.619981E+03  4.653810E+03
        23   7  1.317296E+06  1.473742E+05  1.671008E+05 -3.782472E+04  2.170225E+04  7.882344E+03
        23   8  1.268402E+06  1.254583E+05  1.418194E+05  7.622944E+03  1.399414E+04  6.336417E+03
        23   9  1.225201E+06  1.160589E+05  1.249908E+05 -3.682808E+04  6.283001E+03  4.654547E+03
        23  10  2.031479E+05 -1.305393E+05 -1.092235E+05 -3.493852E+04 -2.374364E-09 -1.426859E-09
        23  11  2.462826E+05 -1.295449E+05 -1.119050E+05  9.507221E+03 -1.099872E-09  1.651623E-09
        23  12  2.951038E+05 -1.160354E+05 -1.061689E+05 -3.595496E+04 -1.279783E-09  8.985615E-10
        23  13  7.600808E+05  8.428992E+03  2.894972E+04 -3.638109E+04 -8.626982E-09 -2.804608E-09
        23  14  7.572237E+05 -2.033590E+03  1.496671E+04  8.565376E+03  1.090534E-08  1.842944E-10
        23  15  7.600544E+05  1.980823E+01  9.418982E+03 -3.639144E+04  1.678082E-09  2.034720E-10
        23  16  1.317295E+06  1.473740E+05  1.670998E+05 -3.782486E+04  4.528970E-09  7.327791E-10
        23  17  1.268402E+06  1.254582E+05  1.418190E+05  7.622873E+03 -1.099280E-09  1.414197E-09
        23  18  1.225201E+06  1.160588E+05  1.249907E+05 -3.682810E+04 -4.530836E-09 -3.709575E-10
        23  19  2.031484E+05 -1.305391E+05 -1.092224E+05 -3.493838E+04 -2.224796E+04 -7.882639E+03
        23  20  2.462829E+05 -1.295448E+05 -1.119046E+05  9.507295E+03 -1.460441E+04 -6.335873E+03
        23  21  2.951039E+05 -1.160354E+05 -1.061687E+05 -3.595494E+04 -6.956707E+03 -4.653072E+03
        23  22  7.600814E+05  8.429188E+03  2.895075E+04 -3.638095E+04 -2.197523E+04 -7.882491E+03
        23  23  7.572239E+05 -2.033493E+03  1.496717E+04  8.565449E+03 -1.429940E+04 -6.336144E+03
        23  24  7.600545E+05  1.984324E+01  9.419105E+03 -3.639142E+04 -6.619981E+03 -4.653810E+03
        23  25  1.317296E+06  1.473742E+05  1.671008E+05 -3.782472E+04 -2.170225E+04 -7.882344E+03
        23  26  1.268402E+06  1.254583E+05  1.418194E+05  7.622944E+03 -1.399414E+04 -6.336417E+03
        23  27  1.225201E+06  1.160589E+05  1.249908E+05 -3.682808E+04 -6.283001E+03 -4.654547E+03
        24   1  5.510548E+05 -5.054389E+04 -4.400233E+04 -3.439639E+04  5.388860E+03  3.657313E+03
        24   2  5.936301E+05 -4.154498E+04 -3.631627E+04  7.250056E+03  3.030931E+03  2.035713E+03
        24   3  6.366138E+05 -3.018374E+04 -2.660700E+04 -3.474465E+04  6.717784E+02  4.393755E+02
        24   4  7.589400E+05  1.301126E+03  7.472917E+03 -3.499316E+04  5.074526E+03  3.658218E+03
        24   5  7.587330E+05 -3.491325E+02  4.673457E+03  6.825293E+03  2.720752E+03  2.036720E+03
        24   6  7.589311E+05  3.618862E+02  3.893785E+03 -3.499601E+04  3.659168E+02  4.404859E+02
        24   7  9.668643E+05  5.314291E+04  5.894495E+04 -3.559010E+04  4.760087E+03  3.659124E+03
        24   8  9.238606E+05  4.084468E+04  4.566115E+04  6.400438E+03  2.410491E+03  2.037727E+03
        24   9  8.812620E+05  3.090638E+04  3.439344E+04 -3.524740E+04  5.999489E+01  4.415966E+02
        24  10  5.510547E+05 -5.054391E+04 -4.400241E+04 -3.439641E+04 -1.055145E-10 -3.702538E-10
        24  11  5.936301E+05 -4.154499E+04 -3.631629E+04  7.250051E+03  6.371009E-09  3.521072E-10
        24  12  6.366138E+05 -3.018374E+04 -2.660700E+04 -3.474465E+04  5.493707E-09  4.049961E-10
        24  13  7.589399E+05  1.301104E+03  7.472844E+03 -3.499318E+04 -4.285117E-09 -8.965223E-10
        24  14  7.587330E+05 -3.491390E+02  4.673436E+03  6.825289E+03 -8.425874E-09  1.444251E-09
        24  15  7.589311E+05  3.618860E+02  3.893784E+03 -3.499601E+04  2.202244E-09  4.586869E-10
        24  16  9.668643E+05  5.314289E+04  5.894488E+04 -3.559011E+04 -1.984613E-09 -6.339906E-10
        24  17  9.238606E+05  4.084467E+04  4.566113E+04  6.400434E+03  1.144715E-09  3.071197E-10
        24  18  8.812620E+05  3.090638E+04  3.439344E+04 -3.524740E+04 -7.302014E-09 -7.462161E-10
        24  19  5.510548E+05 -5.054389E+04 -4.400233E+04 -3.439639E+04 -5.388860E+03 -3.657313E+03
        24  20  5.936301E+05 -4.154498E+04 -3.631627E+04  7.250056E+03 -3.030931E+03 -2.035713E+03
        24  21  6.366138E+05 -3.018374E+04 -2.660700E+04 -3.474465E+04 -6.717784E+02 -4.393755E+02
        24  22  7.589400E+05  1.301126E+03  7.472917E+03 -3.499316E+04 -5.074526E+03 -3.658218E+03
        24  23  7.587330E+05 -3.491325E+02  4.673457E+03  6.825293E+03 -2.720752E+03 -2.036720E+03
        24  24  7.589311E+05  3.618862E+02  3.893785E+03 -3.499601E+04 -3.659168E+02 -4.404859E+02
        24  25  9.668643E+05  5.314291E+04  5.894495E+04 -3.559010E+04 -4.760087E+03 -3.659124E+03
        24  26  9.238606E+05  4.084468E+04  4.566115E+04  6.400438E+03 -2.410491E+03 -2.037727E+03
        24  27  8.812620E+05  3.090638E+04  3.439344E+04 -3.524740E+04 -5.999489E+01 -4.415966E+02
        25   1  8.845215E+05  3.172189E+04  3.519952E+04 -3.526310E+04 -4.009027E+01 -4.822025E+02
        25   2  9.271353E+05  4.166345E+04  4.645532E+04  6.401115E+03 -2.380863E+03 -2.078319E+03
        25   3  9.701602E+05  5.395371E+04  5.972014E+04 -3.560136E+04 -4.720751E+03 -3.700989E+03
        25   4  7.589320E+05  3.645222E+02  3.891082E+03 -3.500228E+04 -3.458782E+02 -4.810934E+02
        25   5  7.587313E+05 -3.476126E+02  4.654453E+03  6.833158E+03 -2.691231E+03 -2.077316E+03
        25   6  7.589411E+05  1.290176E+03  7.430530E+03 -3.499949E+04 -5.035539E+03 -3.700088E+03
        25   7  6.333569E+05 -3.099403E+04 -2.741854E+04 -3.474150E+04 -6.516044E+02 -4.799846E+02
        25   8  5.903530E+05 -4.236080E+04 -3.714853E+04  7.265105E+03 -3.001515E+03 -2.076312E+03
        25   9  5.477624E+05 -5.137669E+04 -4.486240E+04 -3.439781E+04 -5.350220E+03 -3.699188E+03
        25  10  8.845215E+05  3.172189E+04  3.519952E+04 -3.526310E+04  2.119338E-09  6.247028E-10
        25  11  9.271353E+05  4.166344E+04  4.645530E+04  6.401111E+03  4.202324E-09  2.865116E-10
        25  12  9.701602E+05  5.395369E+04  5.972007E+04 -3.560137E+04 -6.528647E-09 -9.359150E-10
        25  13  7.589320E+05  3.645219E+02  3.891081E+03 -3.500228E+04 -4.418743E-09  8.441260E-10
        25  14  7.587313E+05 -3.476191E+02  4.654431E+03  6.833153E+03  1.097267E-08  9.878484E-10
        25  15  7.589411E+05  1.290155E+03  7.430457E+03 -3.499951E+04  3.766866E-09  5.209490E-10
        25  16  6.333569E+05 -3.099403E+04 -2.741854E+04 -3.474150E+04 -4.269585E-09 -1.075106E-09
        25  17  5.903530E+05 -4.236081E+04 -3.714856E+04  7.265100E+03 -7.551322E-09  1.160076E-09
        25  18  5.477624E+05 -5.137671E+04 -4.486248E+04 -3.439782E+04  1.158309E-10  3.010479E-10
        25  19  8.845215E+05  3.172189E+04  3.519952E+04 -3.526310E+04  4.009027E+01  4.822025E+02
        25  20  9.271353E+05  4.166345E+04  4.645532E+04  6.401115E+03  2.380863E+03  2.078319E+03
        25  21  9.701602E+05  5.395371E+04  5.972014E+04 -3.560136E+04  4.720751E+03  3.700989E+03
        25  22  7.589320E+05  3.645222E+02  3.891082E+03 -3.500228E+04  3.458782E+02  4.810934E+02
        25  23  7.587313E+05 -3.476126E+02  4.654453E+03  6.833158E+03  2.691231E+03  2.077316E+03
        25  24  7.589411E+05  1.290176E+03  7.430530E+03 -3.499949E+04  5.035539E+03  3.700088E+03
        25  25  6.333569E+05 -3.099403E+04 -2.741854E+04 -3.474150E+04  6.516044E+02  4.799846E+02
        25  26  5.903530E+05 -4.236080E+04 -3.714853E+04  7.265105E+03  3.001515E+03  2.076312E+03
        25  27  5.477624E+05 -5.137669E+04 -4.486240E+04 -3.439781E+04  5.350220E+03  3.699188E+03
        26   1  1.228690E+06  1.169309E+05  1.258017E+05 -3.685868E+04 -6.235127E+03 -4.697331E+03
        26   2  1.271922E+06  1.263490E+05  1.425948E+05  7.657171E+03 -1.389654E+04 -6.380544E+03
        26   3  1.320850E+06  1.481978E+05  1.677932E+05 -3.783411E+04 -2.155467E+04 -7.928024E+03
        26   4  7.600546E+05  2.203968E+01  9.364421E+03 -3.641542E+04 -6.572303E+03 -4.696601E+03
        26   5  7.572222E+05 -2.020834E+03  1.486888E+04  8.595536E+03 -1.420204E+04 -6.380282E+03
        26   6  7.600819E+05  8.366909E+03  2.876166E+04 -3.640525E+04 -2.182792E+04 -7.928182E+03
        26   7  2.916186E+05 -1.169033E+05 -1.070892E+05 -3.597236E+04 -6.909224E+03 -4.695872E+03
        26   8  2.427626E+05 -1.304105E+05 -1.128768E+05  9.533240E+03 -1.450728E+04 -6.380021E+03
        26   9  1.995986E+05 -1.314875E+05 -1.102933E+05 -3.497759E+04 -2.210092E+04 -7.928341E+03
        26  10  1.228690E+06  1.169309E+05  1.258015E+05 -3.685870E+04 -6.256485E-09 -1.681235E-09
        26  11  1.271922E+06  1.263489E+05  1.425944E+05  7.657099E+03  3.059904E-09  2.353376E-10
        26  12  1.320850E+06  1.481976E+05  1.677922E+05 -3.783425E+04  7.496241E-09  5.847611E-11
        26  13  7.600546E+05  2.200440E+01  9.364299E+03 -3.641545E+04  1.298460E-08 -1.403722E-09
        26  14  7.572220E+05 -2.020932E+03  1.486842E+04  8.595463E+03 -1.958924E-09 -1.110747E-09
        26  15  7.600813E+05  8.366714E+03  2.876065E+04 -3.640539E+04  7.602866E-09  7.001824E-10
        26  16  2.916185E+05 -1.169033E+05 -1.070894E+05 -3.597238E+04  8.360620E-09 -5.301996E-10
        26  17  2.427624E+05 -1.304106E+05 -1.128773E+05  9.533166E+03  6.614466E-09 -2.118571E-09
        26  18  1.995981E+05 -1.314877E+05 -1.102943E+05 -3.497773E+04 -1.632137E-09  9.474284E-10
        26  19  1.228690E+06  1.169309E+05  1.258017E+05 -3.685868E+04  6.235127E+03  4.697331E+03
        26  20  1.271922E+06  1.263490E+05  1.425948E+05  7.657171E+03  1.389654E+04  6.380544E+03
        26  21  1.320850E+06  1.481978E+05  1.677932E+05 -3.783411E+04  2.155467E+04  7.928024E+03
        26  22  7.600546E+05  2.203968E+01  9.364421E+03 -3.641542E+04  6.572303E+03  4.696601E+03
        26  23  7.572222E+05 -2.020834E+03  1.486888E+04  8.595536E+03  1.420204E+04  6.380282E+03
        26  24  7.600819E+05  8.366909E+03  2.876166E+04 -3.640525E+04  2.182792E+04  7.928182E+03
        26  25  2.916186E+05 -1.169033E+05 -1.070892E+05 -3.597236E+04  6.909224E+03  4.695872E+03
        26  26  2.427626E+05 -1.304105E+05 -1.128768E+05  9.533240E+03  1.450728E+04  6.380021E+03
        26  27  1.995986E+05 -1.314875E+05 -1.102933E+05 -3.497759E+04  2.210092E+04  7.928341E+03
        27   1  1.612630E+06  2.093956E+05  2.465259E+05 -3.590408E+04 -2.716566E+04 -9.365338E+03
        27   2  1.649877E+06  2.108760E+05  2.807869E+05  1.112549E+04 -5.784875E+04 -1.152193E+04
        27   3  1.718427E+06  2.958872E+05  3.571629E+05 -4.513332E+04 -8.853266E+04 -1.165003E+04
        27   4  7.656289E+05 -1.828070E+03  3.623953E+04 -3.933045E+04 -2.775163E+04 -9.365651E+03
        27   5  7.500191E+05 -1.349108E+04  5.757081E+04  1.225327E+04 -5.800577E+04 -1.152328E+04
        27   6  7.656681E+05  5.836466E+04  1.207619E+05 -3.946028E+04 -8.825812E+04 -1.165155E+04
        27   7 -8.072293E+04 -2.131055E+05 -1.741004E+05 -4.275204E+04 -2.833679E+04 -9.365958E+03
        27   8 -1.491054E+05 -2.379187E+05 -1.657056E+05  1.337925E+04 -5.816252E+04 -1.152463E+04
        27   9 -1.862690E+05 -1.792257E+05 -1.157067E+05 -3.379637E+04 -8.798391E+04 -1.165306E+04
        27  10  1.612630E+06  2.093953E+05  2.465243E+05 -3.590429E+04  9.139970E-09 -4.767603E-10
        27  11  1.649873E+06  2.108749E+05  2.807804E+05  1.112495E+04 -1.931036E-09 -1.351139E-10
        27  12  1.718419E+06  2.958850E+05  3.571479E+05 -4.513415E+04  1.937954E-09 -2.690731E-10
        27  13  7.656280E+05 -1.828371E+03  3.623792E+04 -3.933066E+04 -8.677019E-09  2.970872E-10
        27  14  7.500154E+05 -1.349212E+04  5.756425E+04  1.225273E+04 -2.980263E-11 -2.735600E-10
        27  15  7.656597E+05  5.836242E+04  1.207471E+05 -3.946111E+04  4.739547E-09  5.004588E-10
        27  16 -8.072381E+04 -2.131058E+05 -1.741020E+05 -4.275226E+04 -4.786218E-10  1.280065E-09
        27  17 -1.491091E+05 -2.379198E+05 -1.657122E+05  1.337871E+04 -3.162242E-09 -1.947506E-09
        27  18 -1.862773E+05 -1.792279E+05 -1.157215E+05 -3.379720E+04 -2.300713E-09  1.598060E-09
        27  19  1.612630E+06  2.093956E+05  2.465259E+05 -3.590408E+04  2.716566E+04  9.365338E+03
        27  20  1.649877E+06  2.108760E+05  2.807869E+05  1.112549E+04  5.784875E+04  1.152193E+04
        27  21  1.718427E+06  2.958872E+05  3.571629E+05 -4.513332E+04  8.853266E+04  1.165003E+04
        27  22  7.656289E+05 -1.828070E+03  3.623953E+04 -3.933045E+04  2.775163E+04  9.365651E+03
        27  23  7.500191E+05 -1.349108E+04  5.757081E+04  1.225327E+04  5.800577E+04  1.152328E+04
        27  24  7.656681E+05  5.836466E+04  1.207619E+05 -3.946028E+04  8.825812E+04  1.165155E+04
        27  25 -8.072293E+04 -2.131055E+05 -1.741004E+05 -4.275204E+04  2.833679E+04  9.365958E+03
        27  26 -1.491054E+05 -2.379187E+05 -1.657056E+05  1.337925E+04  5.816252E+04  1.152463E+04
        27  27 -1.862690E+05 -1.792257E+05 -1.157067E+05 -3.379637E+04  8.798391E+04  1.165306E+04
        28   1  2.085431E+06  3.070793E+05  4.662536E+05 -1.508632E+04 -1.102630E+05 -1.562192E+04
        28   2  2.063042E+06  2.462055E+05  5.574770E+05  1.039216E+04 -2.351885E+05 -2.043595E+04
        28   3  2.214385E+06  7.529174E+05  8.749096E+05 -9.180859E+04 -3.602265E+05 -9.384398E+03
        28   4  7.970474E+05 -1.432840E+04  1.465731E+05 -4.386732E+04 -1.124709E+05 -1.562663E+04
        28   5  7.103173E+05 -9.082030E+04  2.222915E+05  1.845704E+04 -2.341109E+05 -2.043784E+04
        28   6  7.970722E+05  4.003463E+05  5.222892E+05 -4.690824E+04 -3.558498E+05 -9.382986E+03
        28   7 -4.898319E+05 -3.358575E+05 -1.732310E+05 -7.258990E+04 -1.146741E+05 -1.563113E+04
        28   8 -6.407500E+05 -4.279825E+05 -1.130302E+05  2.650209E+04 -2.330352E+05 -2.043971E+04
        28   9 -6.184181E+05  4.763333E+04  1.695198E+05 -2.113467E+03 -3.514824E+05 -9.380962E+03
        28  10  2.085418E+06  3.070758E+05  4.662304E+05 -1.508770E+04 -6.602116E-09  1.521041E-09
        28  11  2.062983E+06  2.461902E+05  5.573726E+05  1.038830E+04 -1.922733E-08  1.967657E-09
        28  12  2.214246E+06  7.528826E+05  8.746665E+05 -9.181131E+04 -5.306611E-09 -8.338851E-11
        28  13  7.970337E+05 -1.433205E+04  1.465489E+05 -4.386873E+04 -3.540151E-11  1.745808E-09
        28  14  7.102584E+05 -9.083544E+04  2.221878E+05  1.845319E+04  1.755307E-09  5.110679E-10
        28  15  7.969363E+05  4.003123E+05  5.220513E+05 -4.691093E+04 -6.584121E-09  6.192610E-10
        28  16 -4.898461E+05 -3.358613E+05 -1.732562E+05 -7.259134E+04 -1.949906E-09  2.973619E-09
        28  17 -6.408084E+05 -4.279975E+05 -1.131331E+05  2.649826E+04  9.438912E-09  3.057378E-09
        28  18 -6.185508E+05  4.760004E+04  1.692873E+05 -2.116123E+03  4.701013E-09  7.257210E-11
        28  19  2.085431E+06  3.070793E+05  4.662536E+05 -1.508632E+04  1.102630E+05  1.562192E+04
        28  20  2.063042E+06  2.462055E+05  5.574770E+05  1.039216E+04  2.351885E+05  2.043595E+04
        28  21  2.214385E+06  7.529174E+05  8.749096E+05 -9.180859E+04  3.602265E+05  9.384398E+03
        28  22  7.970474E+05 -1.432840E+04  1.465731E+05 -4.386732E+04  1.124709E+05  1.562663E+04
        28  23  7.103173E+05 -9.082030E+04  2.222915E+05  1.845704E+04  2.341109E+05  2.043784E+04
        28  24  7.970722E+05  4.003463E+05  5.222892E+05 -4.690824E+04  3.558498E+05  9.382986E+03
        28  25 -4.898319E+05 -3.358575E+05 -1.732310E+05 -7.258990E+04  1.146741E+05  1.563113E+04
        28  26 -6.407500E+05 -4.279825E+05 -1.130302E+05  2.650209E+04  2.330352E+05  2.043971E+04
        28  27 -6.184181E+05  4.763333E+04  1.695198E+05 -2.113467E+03  3.514824E+05  9.380962E+03
        29   1  2.827868E+05  2.410826E+04  3.675677E+05 -3.513629E+04 -2.070733E+03  2.506821E+05
        29   2 -6.344689E+04 -3.098959E+04  1.573949E+05 -9.839646E+03 -1.353765E+03  1.647756E+05
        29   3 -1.033243E+04  2.497265E+04  1.030268E+05  1.781953E+04 -6.444269E+02  7.886543E+04
        29   4  2.821732E+05  2.471770E+04  3.675674E+05  2.111377E+03 -2.055691E+03  2.506822E+05
        29   5 -6.360405E+04 -3.083270E+04  1.573949E+05 -2.687558E+02 -1.351224E+03  1.647757E+05
        29   6 -1.003610E+04  2.467535E+04  1.030267E+05 -2.846665E+02 -6.467269E+02  7.886541E+04
        29   7  2.815649E+05  2.533012E+04  3.675677E+05  3.935906E+04 -2.040649E+03  2.506824E+05
        29   8 -6.376086E+04 -3.067563E+04  1.573949E+05  9.302136E+03 -1.348683E+03  1.647757E+05
        29   9 -9.738542E+03  2.437876E+04  1.030268E+05 -1.838886E+04 -6.490270E+02  7.886540E+04
        29  10  2.827699E+05  2.404079E+04  3.674496E+05 -3.513587E+04 -3.462536E-09  4.334086E-10
        29  11 -6.345418E+04 -3.101874E+04  1.573439E+05 -9.839467E+03 -2.403504E-09 -1.655465E-09
        29  12 -1.033410E+04  2.496597E+04  1.030151E+05  1.781957E+04  5.574434E-09 -1.117734E-09
        29  13  2.821564E+05  2.465024E+04  3.674493E+05  2.111792E+03  5.237358E-09 -5.741930E-11
        29  14 -6.361134E+04 -3.086185E+04  1.573439E+05 -2.685765E+02  1.112493E-08 -4.820512E-11
        29  15 -1.003777E+04  2.466867E+04  1.030151E+05 -2.846254E+02  1.322013E-08 -2.534266E-10
        29  16  2.815480E+05  2.526266E+04  3.674496E+05  3.935947E+04 -2.904689E-09 -3.794131E-10
        29  17 -6.376814E+04 -3.070478E+04  1.573439E+05  9.302315E+03  1.508995E-09  1.516799E-09
        29  18 -9.740211E+03  2.437208E+04  1.030151E+05 -1.838882E+04  2.359686E-10  7.893894E-10
        29  19  2.827868E+05  2.410826E+04  3.675677E+05 -3.513629E+04  2.070733E+03 -2.506821E+05
        29  20 -6.344689E+04 -3.098959E+04  1.573949E+05 -9.839646E+03  1.353765E+03 -1.647756E+05
        29  21 -1.033243E+04  2.497265E+04  1.030268E+05  1.781953E+04  6.444269E+02 -7.886543E+04
        29  22  2.821732E+05  2.471770E+04  3.675674E+05  2.111377E+03  2.055691E+03 -2.506822E+05
        29  23 -6.360405E+04 -3.083270E+04  1.573949E+05 -2.687558E+02  1.351224E+03 -1.647757E+05
        29  24 -1.003610E+04  2.467535E+04  1.030267E+05 -2.846665E+02  6.467269E+02 -7.886541E+04
        29  25  2.815649E+05  2.533012E+04  3.675677E+05  3.935906E+04  2.040649E+03 -2.506824E+05
        29  26 -6.376086E+04 -3.067563E+04  1.573949E+05  9.302136E+03  1.348683E+03 -1.647757E+05
        29  27 -9.738542E+03  2.437876E+04  1.030268E+05 -1.838886E+04  6.490270E+02 -7.886540E+04
        30   1  4.170243E+04  3.832507E+03  8.529840E+04 -4.925978E+03 -5.081221E+02  6.189952E+04
        30   2 -9.415018E+03 -4.912585E+03  4.140208E+04 -1.283596E+03 -3.300427E+02  4.023736E+04
        30   3 -1.366442E+03  3.958900E+03  2.640379E+04  2.699523E+03 -1.522435E+02  1.857541E+04
        30   4  4.161651E+04  3.918343E+03  8.529839E+04  3.091604E+02 -5.076000E+02  6.189952E+04
        30   5 -9.435463E+03 -4.892144E+03  4.140208E+04 -3.725948E+01 -3.299619E+02  4.023736E+04
        30   6 -1.321474E+03  3.913911E+03  2.640379E+04 -4.293507E+01 -1.523256E+02  1.857541E+04
        30   7  4.153070E+04  4.004239E+03  8.529840E+04  5.544299E+03 -5.070780E+02  6.189952E+04
        30   8 -9.455903E+03 -4.871700E+03  4.140208E+04  1.209077E+03 -3.298811E+02  4.023736E+04
        30   9 -1.276479E+03  3.868938E+03  2.640379E+04 -2.785393E+03 -1.524076E+02  1.857541E+04
        30  10  4.170140E+04  3.828393E+03  8.529120E+04 -4.925952E+03  1.872062E-09  3.998961E-09
        30  11 -9.415453E+03 -4.914323E+03  4.139904E+04 -1.283585E+03 -2.761832E-09 -6.975307E-10
        30  12 -1.366534E+03  3.958530E+03  2.640314E+04  2.699525E+03 -1.022678E-08 -5.540495E-09
        30  13  4.161548E+04  3.914229E+03  8.529119E+04  3.091857E+02  1.695209E-08 -2.459336E-10
        30  14 -9.435898E+03 -4.893883E+03  4.139904E+04 -3.724879E+01  1.989300E-08 -8.316686E-11
        30  15 -1.321567E+03  3.913540E+03  2.640314E+04 -4.293279E+01  2.116613E-09 -1.918731E-10
        30  16  4.152967E+04  4.000125E+03  8.529120E+04  5.544324E+03 -5.172100E-09 -4.187277E-09
        30  17 -9.456337E+03 -4.873439E+03  4.139904E+04  1.209088E+03  1.032509E-08  5.588414E-10
        30  18 -1.276571E+03  3.868567E+03  2.640314E+04 -2.785391E+03 -6.357660E-09  5.316360E-09
        30  19  4.170243E+04  3.832507E+03  8.529840E+04 -4.925978E+03  5.081221E+02 -6.189952E+04
        30  20 -9.415018E+03 -4.912585E+03  4.140208E+04 -1.283596E+03  3.300427E+02 -4.023736E+04
        30  21 -1.366442E+03  3.958900E+03  2.640379E+04  2.699523E+03  1.522435E+02 -1.857541E+04
        30  22  4.161651E+04  3.918343E+03  8.529839E+04  3.091604E+02  5.076000E+02 -6.189952E+04
        30  23 -9.435463E+03 -4.892144E+03  4.140208E+04 -3.725948E+01  3.299619E+02 -4.023736E+04
        30  24 -1.321474E+03  3.913911E+03  2.640379E+04 -4.293507E+01  1.523256E+02 -1.857541E+04
        30  25  4.153070E+04  4.004239E+03  8.529840E+04  5.544299E+03  5.070780E+02 -6.189952E+04
        30  26 -9.455903E+03 -4.871700E+03  4.140208E+04  1.209077E+03  3.298811E+02 -4.023736E+04
        30  27 -1.276479E+03  3.868938E+03  2.640379E+04 -2.785393E+03  1.524076E+02 -1.857541E+04
        31   1  6.087738E+03  7.312815E+02  2.167966E+04 -7.196657E+02 -1.167408E+02  1.423387E+04
        31   2 -1.586023E+03 -9.313480E+02  1.298326E+04 -1.363118E+02 -6.246957E+01  7.617685E+03
        31   3  6.739910E+02  7.515732E+02  1.107810E+04  5.010632E+02 -8.212888E+00  1.001623E+03
        31   4  6.075216E+03  7.438018E+02  2.167966E+04  4.372260E+01 -1.167232E+02  1.423387E+04
        31   5 -1.588170E+03 -9.292009E+02  1.298326E+04 -5.404165E+00 -6.246797E+01  7.617685E+03
        31   6  6.822171E+02  7.433464E+02  1.107810E+04 -5.013162E-01 -8.213697E+00  1.001623E+03
        31   7  6.062696E+03  7.563235E+02  2.167966E+04  8.071109E+02 -1.167057E+02  1.423387E+04
        31   8 -1.590317E+03 -9.270537E+02  1.298326E+04  1.255034E+02 -6.246636E+01  7.617685E+03
        31   9  6.904442E+02  7.351200E+02  1.107810E+04 -5.020658E+02 -8.214507E+00  1.001623E+03
        31  10  6.087684E+03  7.310639E+02  2.167928E+04 -7.196644E+02 -1.757814E-08  2.423372E-09
        31  11 -1.586038E+03 -9.314103E+02  1.298315E+04 -1.363114E+02 -1.126879E-08  1.310084E-09
        31  12  6.739907E+02  7.515722E+02  1.107810E+04  5.010632E+02 -1.123013E-09 -3.496774E-09
        31  13  6.075162E+03  7.435843E+02  2.167928E+04  4.372394E+01 -1.274767E-08 -1.630847E-10
        31  14 -1.588186E+03 -9.292632E+02  1.298315E+04 -5.403782E+00 -5.384474E-09 -1.860075E-10
        31  15  6.822169E+02  7.433453E+02  1.107810E+04 -5.013095E-01 -8.869696E-09 -2.298093E-10
        31  16  6.062642E+03  7.561059E+02  2.167928E+04  8.071122E+02 -8.904858E-09 -2.570750E-09
        31  17 -1.590333E+03 -9.271161E+02  1.298315E+04  1.255038E+02  9.152835E-09 -1.509136E-09
        31  18  6.904439E+02  7.351190E+02  1.107810E+04 -5.020658E+02 -1.379586E-08  3.204594E-09
        31  19  6.087738E+03  7.312815E+02  2.167966E+04 -7.196657E+02  1.167408E+02 -1.423387E+04
        31  20 -1.586023E+03 -9.313480E+02  1.298326E+04 -1.363118E+02  6.246957E+01 -7.617685E+03
        31  21  6.739910E+02  7.515732E+02  1.107810E+04  5.010632E+02  8.212888E+00 -1.001623E+03
        31  22  6.075216E+03  7.438018E+02  2.167966E+04  4.372260E+01  1.167232E+02 -1.423387E+04
        31  23 -1.588170E+03 -9.292009E+02  1.298326E+04 -5.404165E+00  6.246797E+01 -7.617685E+03
        31  24  6.822171E+02  7.433464E+02  1.107810E+04 -5.013163E-01  8.213697E+00 -1.001623E+03
        31  25  6.062696E+03  7.563235E+02  2.167966E+04  8.071109E+02  1.167057E+02 -1.423387E+04
        31  26 -1.590317E+03 -9.270537E+02  1.298326E+04  1.255034E+02  6.246636E+01 -7.617685E+03
        31  27  6.904442E+02  7.351200E+02  1.107810E+04 -5.020658E+02  8.214507E+00 -1.001623E+03
        32   1 -9.192082E+06 -3.115739E+06 -1.946447E+06 -3.238926E+06 -7.945557E+05 -2.657149E+05
        32   2 -8.951723E+06 -1.939231E+06 -1.207307E+06 -3.293294E+06 -5.205510E+05 -8.086074E+04
        32   3 -9.060886E+06 -1.860043E+06 -9.746592E+05 -3.159818E+06 -2.182303E+05  3.041474E+04
        32   4 -6.503929E+06 -1.801903E+06 -1.152293E+06 -2.214407E+06 -7.401282E+05 -2.452906E+05
        32   5 -6.270165E+06 -8.342478E+05 -4.833915E+05 -2.469748E+06 -5.042685E+05 -7.476549E+04
        32   6 -6.376545E+06 -9.536558E+05 -2.887472E+05 -2.537754E+06 -2.401773E+05  2.208842E+04
        32   7 -3.808491E+06 -4.861494E+05 -3.588495E+05 -1.185348E+06 -6.854313E+05 -2.246994E+05
        32   8 -3.581494E+06  2.715594E+05  2.398782E+05 -1.642799E+06 -4.879036E+05 -6.863285E+04
        32   9 -3.685110E+06 -4.715733E+04  3.965927E+05 -1.913379E+06 -2.622284E+05  1.373275E+04
        32  10 -9.192789E+06 -3.115989E+06 -1.947789E+06 -3.239098E+06 -2.266052E-09  1.716836E-10
        32  11 -8.952019E+06 -1.939312E+06 -1.207837E+06 -3.293329E+06  4.812658E-09  1.362448E-09
        32  12 -9.060938E+06 -1.860057E+06 -9.747515E+05 -3.159812E+06  5.700139E-09 -6.576575E-10
        32  13 -6.504539E+06 -1.802117E+06 -1.153449E+06 -2.214554E+06 -9.488307E-09  4.575830E-11
        32  14 -6.270441E+06 -8.343231E+05 -4.838853E+05 -2.469779E+06  9.375671E-09  5.723421E-10
        32  15 -6.376608E+06 -9.536720E+05 -2.888575E+05 -2.537750E+06 -7.013220E-09  4.494352E-10
        32  16 -3.809012E+06 -4.863311E+05 -3.598340E+05 -1.185472E+06 -1.004334E-09 -4.669605E-10
        32  17 -3.581752E+06  2.714899E+05  2.394190E+05 -1.642826E+06 -1.936921E-09 -8.197198E-10
        32  18 -3.685184E+06 -4.717610E+04  3.964624E+05 -1.913376E+06  8.783478E-09  1.768576E-09
        32  19 -9.192082E+06 -3.115739E+06 -1.946447E+06 -3.238926E+06  7.945557E+05  2.657149E+05
        32  20 -8.951723E+06 -1.939231E+06 -1.207307E+06 -3.293294E+06  5.205510E+05  8.086074E+04
        32  21 -9.060886E+06 -1.860043E+06 -9.746592E+05 -3.159818E+06  2.182303E+05 -3.041474E+04
        32  22 -6.503929E+06 -1.801903E+06 -1.152293E+06 -2.214407E+06  7.401282E+05  2.452906E+05
        32  23 -6.270165E+06 -8.342478E+05 -4.833915E+05 -2.469748E+06  5.042685E+05  7.476549E+04
        32  24 -6.376545E+06 -9.536558E+05 -2.887472E+05 -2.537754E+06  2.401773E+05 -2.208842E+04
        32  25 -3.808491E+06 -4.861494E+05 -3.588495E+05 -1.185348E+06  6.854313E+05  2.246994E+05
        32  26 -3.581494E+06  2.715594E+05  2.398782E+05 -1.642799E+06  4.879036E+05  6.863285E+04
        32  27 -3.685110E+06 -4.715733E+04  3.965927E+05 -1.913379E+06  2.622284E+05 -1.373275E+04
        33   1 -8.684626E+06 -1.995580E+06 -8.611205E+05 -3.150686E+06 -1.936362E+05  2.289100E+04
        33   2 -8.511391E+06 -1.748620E+06 -6.821716E+05 -3.041350E+06 -1.302059E+05  4.213443E+04
        33   3 -8.269756E+06 -1.715134E+06 -5.768053E+05 -3.030876E+06 -6.445009E+04  5.517196E+04
        33   4 -6.332234E+06 -1.077431E+06 -2.341830E+05 -2.480151E+06 -1.946528E+05  2.247001E+04
        33   5 -6.360310E+06 -9.278988E+05 -1.139062E+05 -2.446907E+06 -1.343058E+05  4.056299E+04
        33   6 -6.319243E+06 -9.909560E+05 -6.451507E+04 -2.512550E+06 -7.165938E+04  5.244730E+04
        33   7 -3.974405E+06 -1.588431E+05  3.922657E+05 -1.807249E+06 -1.956725E+05  2.204782E+04
        33   8 -4.204681E+06 -1.068648E+05  4.539586E+05 -1.850565E+06 -1.384209E+05  3.898578E+04
        33   9 -4.364992E+06 -2.665724E+05  4.474517E+05 -1.992742E+06 -7.889367E+04  4.971366E+04
        33  10 -8.684667E+06 -1.995590E+06 -8.611927E+05 -3.150683E+06 -4.991321E-10 -4.634106E-10
        33  11 -8.511410E+06 -1.748626E+06 -6.822071E+05 -3.041345E+06  3.393957E-09  2.336803E-09
        33  12 -8.269762E+06 -1.715139E+06 -5.768189E+05 -3.030873E+06  2.900071E-10  1.966654E-09
        33  13 -6.332275E+06 -1.077442E+06 -2.342557E+05 -2.480148E+06  6.678430E-09  1.975992E-09
        33  14 -6.360330E+06 -9.279054E+05 -1.139434E+05 -2.446903E+06  1.633775E-09  3.594109E-09
        33  15 -6.319249E+06 -9.909603E+05 -6.452990E+04 -2.512547E+06  1.478999E-09  3.652697E-10
        33  16 -3.974447E+06 -1.588540E+05  3.921924E+05 -1.807245E+06  2.982069E-09  4.073726E-09
        33  17 -4.204702E+06 -1.068716E+05  4.539196E+05 -1.850561E+06 -2.010206E-10  2.987733E-09
        33  18 -4.365000E+06 -2.665767E+05  4.474353E+05 -1.992739E+06  3.798597E-10 -3.681323E-10
        33  19 -8.684626E+06 -1.995580E+06 -8.611205E+05 -3.150686E+06  1.936362E+05 -2.289100E+04
        33  20 -8.511391E+06 -1.748620E+06 -6.821716E+05 -3.041350E+06  1.302059E+05 -4.213443E+04
        33  21 -8.269756E+06 -1.715134E+06 -5.768053E+05 -3.030876E+06  6.445009E+04 -5.517196E+04
        33  22 -6.332234E+06 -1.077431E+06 -2.341830E+05 -2.480151E+06  1.946528E+05 -2.247001E+04
        33  23 -6.360310E+06 -9.278988E+05 -1.139062E+05 -2.446907E+06  1.343058E+05 -4.056299E+04
        33  24 -6.319243E+06 -9.909560E+05 -6.451507E+04 -2.512550E+06  7.165938E+04 -5.244730E+04
        33  25 -3.974405E+06 -1.588431E+05  3.922657E+05 -1.807249E+06  1.956725E+05 -2.204782E+04
        33  26 -4.204681E+06 -1.068648E+05  4.539586E+05 -1.850565E+06  1.384209E+05 -3.898578E+04
        33  27 -4.364992E+06 -2.665724E+05  4.474517E+05 -1.992742E+06  7.889367E+04 -4.971366E+04
        34   1 -7.942103E+06 -1.625319E+06 -4.796294E+05 -2.957891E+06 -5.377268E+04  5.081907E+04
        34   2 -7.742371E+06 -1.445496E+06 -3.861702E+05 -2.808675E+06 -3.556253E+04  4.434697E+04
        34   3 -7.410743E+06 -1.411512E+06 -3.054618E+05 -2.812415E+06 -1.698506E+04  3.679843E+04
        34   4 -6.309603E+06 -1.008250E+06 -5.026900E+04 -2.512330E+06 -5.977099E+04  4.855722E+04
        34   5 -6.374780E+06 -9.306120E+05 -2.635133E+04 -2.437591E+06 -4.209800E+04  4.189433E+04
        34   6 -6.308023E+06 -9.986668E+05 -1.472143E+04 -2.515813E+06 -2.406474E+04  3.415390E+04
        34   7 -4.674485E+06 -3.910130E+05  3.788625E+05 -2.065692E+06 -6.578671E+04  4.628882E+04
        34   8 -5.005357E+06 -4.156145E+05  3.333064E+05 -2.065758E+06 -4.864939E+04  3.943576E+04
        34   9 -5.204115E+06 -5.857528E+05  2.759134E+05 -2.218730E+06 -3.115832E+04  3.150423E+04
        34  10 -7.942107E+06 -1.625322E+06 -4.796396E+05 -2.957889E+06 -8.448237E-09 -1.855707E-09
        34  11 -7.742373E+06 -1.445498E+06 -3.861763E+05 -2.808674E+06  9.494321E-10 -2.107285E-09
        34  12 -7.410744E+06 -1.411513E+06 -3.054649E+05 -2.812415E+06  3.176622E-09  5.263992E-10
        34  13 -6.309607E+06 -1.008254E+06 -5.028014E+04 -2.512328E+06 -7.725552E-10 -1.801259E-09
        34  14 -6.374783E+06 -9.306143E+05 -2.635795E+04 -2.437589E+06 -3.414128E-10 -3.571544E-09
        34  15 -6.308024E+06 -9.986682E+05 -1.472470E+04 -2.515812E+06  1.482173E-09 -6.361132E-09
        34  16 -4.674490E+06 -3.910165E+05  3.788504E+05 -2.065690E+06  3.514371E-09  4.312130E-10
        34  17 -5.005360E+06 -4.156168E+05  3.332990E+05 -2.065756E+06 -1.216580E-08 -4.161535E-10
        34  18 -5.204116E+06 -5.857542E+05  2.759097E+05 -2.218729E+06 -4.075360E-09 -2.787401E-09
        34  19 -7.942103E+06 -1.625319E+06 -4.796294E+05 -2.957891E+06  5.377268E+04 -5.081907E+04
        34  20 -7.742371E+06 -1.445496E+06 -3.861702E+05 -2.808675E+06  3.556253E+04 -4.434697E+04
        34  21 -7.410743E+06 -1.411512E+06 -3.054618E+05 -2.812415E+06  1.698506E+04 -3.679843E+04
        34  22 -6.309603E+06 -1.008250E+06 -5.026900E+04 -2.512330E+06  5.977099E+04 -4.855722E+04
        34  23 -6.374780E+06 -9.306120E+05 -2.635133E+04 -2.437591E+06  4.209800E+04 -4.189433E+04
        34  24 -6.308023E+06 -9.986668E+05 -1.472143E+04 -2.515813E+06  2.406474E+04 -3.415390E+04
        34  25 -4.674485E+06 -3.910130E+05  3.788625E+05 -2.065692E+06  6.578671E+04 -4.628882E+04
        34  26 -5.005357E+06 -4.156145E+05  3.333064E+05 -2.065758E+06  4.864939E+04 -3.943576E+04
        34  27 -5.204115E+06 -5.857528E+05  2.759134E+05 -2.218730E+06  3.115832E+04 -3.150423E+04
        35   1 -7.048763E+06 -1.281885E+06 -2.059647E+05 -2.719716E+06 -1.193117E+04  2.983843E+04
        35   2 -6.829442E+06 -1.096541E+06 -1.251920E+05 -2.554912E+06 -3.409782E+03  1.769513E+04
        35   3 -6.462539E+06 -1.060791E+06 -4.737845E+04 -2.561265E+06  5.195106E+03  5.291410E+03
        35   4 -6.304839E+06 -1.002822E+06 -1.150262E+04 -2.518551E+06 -1.905190E+04  2.718404E+04
        35   5 -6.378476E+06 -9.274451E+05 -6.731738E+03 -2.433165E+06 -1.066616E+04  1.499388E+04
        35   6 -6.304603E+06 -1.001633E+06 -4.805292E+03 -2.518962E+06 -2.198958E+03  2.543119E+03
        35   7 -5.560369E+06 -7.237243E+05  1.829137E+05 -2.317164E+06 -2.618210E+04  2.452611E+04
        35   8 -5.927312E+06 -7.583372E+05  1.117111E+05 -2.311338E+06 -1.792837E+04  1.229047E+04
        35   9 -6.146643E+06 -9.424742E+05  3.776549E+04 -2.476650E+06 -9.595043E+03 -2.059169E+02
        35  10 -7.048763E+06 -1.281886E+06 -2.059667E+05 -2.719716E+06 -1.044487E-08 -1.846920E-09
        35  11 -6.829442E+06 -1.096542E+06 -1.251926E+05 -2.554912E+06 -7.683093E-09 -7.332606E-10
        35  12 -6.462539E+06 -1.060791E+06 -4.737856E+04 -2.561265E+06 -3.039291E-09  1.066979E-09
        35  13 -6.304840E+06 -1.002823E+06 -1.150468E+04 -2.518550E+06 -2.217619E-09 -6.159234E-09
        35  14 -6.378477E+06 -9.274454E+05 -6.732372E+03 -2.433165E+06 -8.594992E-12 -2.586502E-09
        35  15 -6.304603E+06 -1.001633E+06 -4.805313E+03 -2.518962E+06 -6.137769E-09  1.988378E-09
        35  16 -5.560370E+06 -7.237251E+05  1.829113E+05 -2.317163E+06  7.802921E-09 -1.725243E-09
        35  17 -5.927313E+06 -7.583374E+05  1.117102E+05 -2.311337E+06 -7.102685E-10 -1.190123E-09
        35  18 -6.146643E+06 -9.424742E+05  3.776532E+04 -2.476650E+06  1.024348E-09  1.957074E-09
        35  19 -7.048763E+06 -1.281885E+06 -2.059647E+05 -2.719716E+06  1.193117E+04 -2.983843E+04
        35  20 -6.829442E+06 -1.096541E+06 -1.251920E+05 -2.554912E+06  3.409782E+03 -1.769513E+04
        35  21 -6.462539E+06 -1.060791E+06 -4.737845E+04 -2.561265E+06 -5.195106E+03 -5.291410E+03
        35  22 -6.304839E+06 -1.002822E+06 -1.150262E+04 -2.518551E+06  1.905190E+04 -2.718404E+04
        35  23 -6.378476E+06 -9.274451E+05 -6.731738E+03 -2.433165E+06  1.066616E+04 -1.499388E+04
        35  24 -6.304603E+06 -1.001633E+06 -4.805292E+03 -2.518962E+06  2.198958E+03 -2.543119E+03
        35  25 -5.560369E+06 -7.237243E+05  1.829137E+05 -2.317164E+06  2.618210E+04 -2.452611E+04
        35  26 -5.927312E+06 -7.583372E+05  1.117111E+05 -2.311338E+06  1.792837E+04 -1.229047E+04
        35  27 -6.146643E+06 -9.424742E+05  3.776549E+04 -2.476650E+06  9.595043E+03  2.059169E+02
        36   1 -6.087842E+06 -9.202947E+05  5.351154E+04 -2.460573E+06  8.949439E+03 -2.500392E+03
        36   2 -5.869234E+06 -7.367092E+05  1.285283E+05 -2.295738E+06  1.646726E+04 -1.527457E+04
        36   3 -5.503112E+06 -7.019014E+05  2.015120E+05 -2.301583E+06  2.389431E+04 -2.775382E+04
        36   4 -6.304645E+06 -1.001563E+06 -4.520898E+03 -2.518828E+06  1.556426E+03 -5.248454E+03
        36   5 -6.378451E+06 -9.276294E+05 -5.160656E+03 -2.433303E+06  9.226743E+03 -1.797057E+04
        36   6 -6.304847E+06 -1.002519E+06 -7.949119E+03 -2.518502E+06  1.680489E+04 -3.039778E+04
        36   7 -6.521404E+06 -1.082829E+06 -6.255749E+04 -2.577065E+06 -5.833757E+03 -7.995468E+03
        36   8 -6.887417E+06 -1.118536E+06 -1.388726E+05 -2.570766E+06  1.992745E+03 -2.066415E+04
        36   9 -7.105959E+06 -1.303100E+06 -2.174669E+05 -2.735167E+06  9.725503E+03 -3.303800E+04
        36  10 -6.087842E+06 -9.202947E+05  5.351138E+04 -2.460573E+06 -9.836823E-09  1.079997E-09
        36  11 -5.869234E+06 -7.367095E+05  1.285273E+05 -2.295738E+06  1.719063E-09  1.018187E-10
        36  12 -5.503113E+06 -7.019024E+05  2.015095E+05 -2.301582E+06  7.347176E-09 -1.512323E-09
        36  13 -6.304645E+06 -1.001563E+06 -4.520954E+03 -2.518828E+06 -1.064845E-08  2.409028E-09
        36  14 -6.378451E+06 -9.276298E+05 -5.161420E+03 -2.433303E+06 -2.556825E-09 -1.578230E-09
        36  15 -6.304847E+06 -1.002520E+06 -7.951379E+03 -2.518502E+06 -1.302891E-08 -3.796447E-09
        36  16 -6.521404E+06 -1.082829E+06 -6.255767E+04 -2.577065E+06  1.120006E-09  3.802039E-09
        36  17 -6.887417E+06 -1.118536E+06 -1.388734E+05 -2.570766E+06  3.470164E-09 -3.721144E-09
        36  18 -7.105960E+06 -1.303101E+06 -2.174691E+05 -2.735167E+06 -1.086129E-08 -6.482502E-09
        36  19 -6.087842E+06 -9.202947E+05  5.351154E+04 -2.460573E+06 -8.949439E+03  2.500392E+03
        36  20 -5.869234E+06 -7.367092E+05  1.285283E+05 -2.295738E+06 -1.646726E+04  1.527457E+04
        36  21 -5.503112E+06 -7.019014E+05  2.015120E+05 -2.301583E+06 -2.389431E+04  2.775382E+04
        36  22 -6.304645E+06 -1.001563E+06 -4.520898E+03 -2.518828E+06 -1.556426E+03  5.248454E+03
        36  23 -6.378451E+06 -9.276294E+05 -5.160656E+03 -2.433303E+06 -9.226743E+03  1.797057E+04
        36  24 -6.304847E+06 -1.002519E+06 -7.949119E+03 -2.518502E+06 -1.680489E+04  3.039778E+04
        36  25 -6.521404E+06 -1.082829E+06 -6.255749E+04 -2.577065E+06  5.833757E+03  7.995468E+03
        36  26 -6.887417E+06 -1.118536E+06 -1.388726E+05 -2.570766E+06 -1.992745E+03  2.066415E+04
        36  27 -7.105959E+06 -1.303100E+06 -2.174669E+05 -2.735167E+06 -9.725503E+03  3.303800E+04
        37   1 -5.149470E+06 -5.645934E+05  2.951621E+05 -2.202873E+06  2.816198E+04 -3.494306E+04
        37   2 -4.952997E+06 -3.966646E+05  3.559624E+05 -2.051813E+06  4.111489E+04 -4.445708E+04
        37   3 -4.623580E+06 -3.694711E+05  4.092839E+05 -2.052955E+06  5.370412E+04 -5.287145E+04
        37   4 -6.307991E+06 -9.985420E+05 -9.898593E+03 -2.515311E+06  2.111889E+04 -3.757546E+04
        37   5 -6.374955E+06 -9.314638E+05 -1.748979E+04 -2.437973E+06  3.463510E+04 -4.689065E+04
        37   6 -6.309149E+06 -1.005271E+06 -3.301786E+04 -2.512886E+06  4.778327E+04 -5.510619E+04
        37   7 -7.465189E+06 -1.432408E+06 -3.150716E+05 -2.827216E+06  1.409040E+04 -4.020245E+04
        37   8 -7.794927E+06 -1.466137E+06 -3.911130E+05 -2.823324E+06  2.817172E+04 -4.931810E+04
        37   9 -7.991934E+06 -1.640892E+06 -4.755621E+05 -2.971675E+06  4.188014E+04 -5.733430E+04
        37  10 -5.149472E+06 -5.645949E+05  2.951583E+05 -2.202872E+06 -2.351713E-09 -3.797081E-09
        37  11 -4.953000E+06 -3.966672E+05  3.559556E+05 -2.051812E+06 -6.201948E-09  2.402674E-09
        37  12 -4.623584E+06 -3.694749E+05  4.092732E+05 -2.052953E+06  3.260277E-09  2.376980E-09
        37  13 -6.307992E+06 -9.985436E+05 -9.902073E+03 -2.515311E+06  8.411197E-10 -2.163549E-09
        37  14 -6.374957E+06 -9.314665E+05 -1.749616E+04 -2.437972E+06 -1.937142E-09  7.337725E-10
        37  15 -6.309152E+06 -1.005275E+06 -3.302784E+04 -2.512884E+06 -5.714536E-09  2.383956E-09
        37  16 -7.465190E+06 -1.432410E+06 -3.150750E+05 -2.827215E+06 -2.050503E-09 -8.278613E-10
        37  17 -7.794929E+06 -1.466140E+06 -3.911191E+05 -2.823322E+06 -9.885506E-09  6.269598E-10
        37  18 -7.991937E+06 -1.640896E+06 -4.755715E+05 -2.971673E+06  1.155572E-09  2.808198E-09
        37  19 -5.149470E+06 -5.645934E+05  2.951621E+05 -2.202873E+06 -2.816198E+04  3.494306E+04
        37  20 -4.952997E+06 -3.966646E+05  3.559624E+05 -2.051813E+06 -4.111489E+04  4.445708E+04
        37  21 -4.623580E+06 -3.694711E+05  4.092839E+05 -2.052955E+06 -5.370412E+04  5.287145E+04
        37  22 -6.307991E+06 -9.985420E+05 -9.898593E+03 -2.515311E+06 -2.111889E+04  3.757546E+04
        37  23 -6.374955E+06 -9.314638E+05 -1.748979E+04 -2.437973E+06 -3.463510E+04  4.689065E+04
        37  24 -6.309149E+06 -1.005271E+06 -3.301786E+04 -2.512886E+06 -4.778327E+04  5.510619E+04
        37  25 -7.465189E+06 -1.432408E+06 -3.150716E+05 -2.827216E+06 -1.409040E+04  4.020245E+04
        37  26 -7.794927E+06 -1.466137E+06 -3.911130E+05 -2.823324E+06 -2.817172E+04  4.931810E+04
        37  27 -7.991934E+06 -1.640892E+06 -4.755621E+05 -2.971675E+06 -4.188014E+04  5.733430E+04
        38   1 -4.320113E+06 -2.466946E+05  4.818446E+05 -1.974436E+06  6.362069E+04 -5.740873E+04
        38   2 -4.164007E+06 -9.707486E+04  5.041767E+05 -1.840803E+06  1.028176E+05 -5.417131E+04
        38   3 -3.923675E+06 -1.215419E+05  4.832169E+05 -1.812366E+06  1.397284E+05 -4.471650E+04
        38   4 -6.317380E+06 -9.917015E+05 -4.223645E+04 -2.510532E+06  5.648781E+04 -6.010746E+04
        38   5 -6.363435E+06 -9.327913E+05 -7.482576E+04 -2.447226E+06  9.887765E+04 -5.568361E+04
        38   6 -6.326044E+06 -1.048809E+06 -1.533854E+05 -2.489155E+06  1.389644E+05 -4.503820E+04
        38   7 -8.310755E+06 -1.736486E+06 -5.666600E+05 -3.045064E+06  4.938015E+04 -6.279698E+04
        38   8 -8.558132E+06 -1.768190E+06 -6.542458E+05 -3.051682E+06  9.495271E+04 -5.719022E+04
        38   9 -8.722764E+06 -1.975650E+06 -7.904907E+05 -3.163528E+06  1.382029E+05 -4.535898E+04
        38  10 -4.320118E+06 -2.466992E+05  4.818308E+05 -1.974433E+06 -3.613123E-09  5.318977E-10
        38  11 -4.164020E+06 -9.708084E+04  5.041513E+05 -1.840798E+06  5.396181E-10 -8.611302E-10
        38  12 -3.923696E+06 -1.215493E+05  4.831763E+05 -1.812361E+06  3.666100E-09 -9.816443E-10
        38  13 -6.317384E+06 -9.917062E+05 -4.224922E+04 -2.510530E+06  4.455386E-09  5.131538E-10
        38  14 -6.363446E+06 -9.327972E+05 -7.485003E+04 -2.447222E+06  3.992546E-10  3.550770E-10
        38  15 -6.326065E+06 -1.048817E+06 -1.534257E+05 -2.489150E+06  3.876567E-09 -1.394529E-09
        38  16 -8.310758E+06 -1.736491E+06 -5.666720E+05 -3.045062E+06 -8.374868E-09  1.249285E-09
        38  17 -8.558142E+06 -1.768196E+06 -6.542690E+05 -3.051678E+06  3.115972E-09 -5.717711E-10
        38  18 -8.722785E+06 -1.975657E+06 -7.905308E+05 -3.163523E+06  5.546588E-09 -1.141567E-10
        38  19 -4.320113E+06 -2.466946E+05  4.818446E+05 -1.974436E+06 -6.362069E+04  5.740873E+04
        38  20 -4.164007E+06 -9.707486E+04  5.041767E+05 -1.840803E+06 -1.028176E+05  5.417131E+04
        38  21 -3.923675E+06 -1.215419E+05  4.832169E+05 -1.812366E+06 -1.397284E+05  4.471650E+04
        38  22 -6.317380E+06 -9.917015E+05 -4.223645E+04 -2.510532E+06 -5.648781E+04  6.010746E+04
        38  23 -6.363435E+06 -9.327913E+05 -7.482576E+04 -2.447226E+06 -9.887765E+04  5.568361E+04
        38  24 -6.326044E+06 -1.048809E+06 -1.533854E+05 -2.489155E+06 -1.389644E+05  4.503820E+04
        38  25 -8.310755E+06 -1.736486E+06 -5.666600E+05 -3.045064E+06 -4.938015E+04  6.279698E+04
        38  26 -8.558132E+06 -1.768190E+06 -6.542458E+05 -3.051682E+06 -9.495271E+04  5.719022E+04
        38  27 -8.722764E+06 -1.975650E+06 -7.904907E+05 -3.163528E+06 -1.382029E+05  4.535898E+04
        39   1 -3.662669E+06 -1.684388E+04  5.048107E+05 -1.857252E+06  1.925460E+05 -4.154362E+04
        39   2 -3.564166E+06  2.208528E+05  4.136664E+05 -1.654244E+06  3.271666E+05  6.187550E+03
        39   3 -3.653316E+06 -2.652234E+05  4.478482E+04 -1.353637E+06  4.335671E+05  1.276399E+05
        39   4 -6.357819E+06 -9.647669E+05 -1.890606E+05 -2.523448E+06  1.706871E+05 -4.986237E+04
        39   5 -6.301324E+06 -8.756692E+05 -3.170595E+05 -2.466486E+06  3.441575E+05  1.260679E+04
        39   6 -6.441440E+06 -1.520047E+06 -7.548549E+05 -2.311655E+06  4.893194E+05  1.488782E+05
        39   7 -9.045865E+06 -1.912468E+06 -8.835247E+05 -3.187109E+06  1.489321E+05 -5.814833E+04
        39   8 -9.031111E+06 -1.971464E+06 -1.048443E+06 -3.275364E+06  3.610626E+05  1.898930E+04
        39   9 -9.221875E+06 -2.773472E+06 -1.555234E+06 -3.265433E+06  5.447887E+05  1.699658E+05
        39  10 -3.662709E+06 -1.685571E+04  5.047376E+05 -1.857246E+06 -2.504866E-09 -1.386597E-09
        39  11 -3.564281E+06  2.208238E+05  4.134640E+05 -1.654246E+06 -4.352885E-10 -3.601850E-10
        39  12 -3.653523E+06 -2.652919E+05  4.439838E+04 -1.353682E+06  5.245446E-09  6.830525E-10
        39  13 -6.357851E+06 -9.647774E+05 -1.891204E+05 -2.523442E+06  3.798123E-09  4.415267E-10
        39  14 -6.301452E+06 -8.757016E+05 -3.172847E+05 -2.466490E+06 -5.568504E-09 -1.587854E-09
        39  15 -6.441705E+06 -1.520136E+06 -7.553523E+05 -2.311714E+06  7.386536E-09  1.661494E-10
        39  16 -9.045890E+06 -1.912478E+06 -8.835731E+05 -3.187102E+06  6.745982E-09  4.650021E-10
        39  17 -9.031253E+06 -1.971500E+06 -1.048692E+06 -3.275369E+06  1.009828E-09  3.401494E-09
        39  18 -9.222206E+06 -2.773585E+06 -1.555857E+06 -3.265509E+06 -2.020824E-09 -1.213945E-10
        39  19 -3.662669E+06 -1.684388E+04  5.048107E+05 -1.857252E+06 -1.925460E+05  4.154362E+04
        39  20 -3.564166E+06  2.208528E+05  4.136664E+05 -1.654244E+06 -3.271666E+05 -6.187550E+03
        39  21 -3.653316E+06 -2.652234E+05  4.478482E+04 -1.353637E+06 -4.335671E+05 -1.276399E+05
        39  22 -6.357819E+06 -9.647669E+05 -1.890606E+05 -2.523448E+06 -1.706871E+05  4.986237E+04
        39  23 -6.301324E+06 -8.756692E+05 -3.170595E+05 -2.466486E+06 -3.441575E+05 -1.260679E+04
        39  24 -6.441440E+06 -1.520047E+06 -7.548549E+05 -2.311655E+06 -4.893194E+05 -1.488782E+05
        39  25 -9.045865E+06 -1.912468E+06 -8.835247E+05 -3.187109E+06 -1.489321E+05  5.814833E+04
        39  26 -9.031111E+06 -1.971464E+06 -1.048443E+06 -3.275364E+06 -3.610626E+05 -1.898930E+04
        39  27 -9.221875E+06 -2.773472E+06 -1.555234E+06 -3.265433E+06 -5.447887E+05 -1.699658E+05
        40   1  3.531574E+05  1.693159E+05  4.056576E+05 -1.729004E+05 -1.218141E+03  2.569631E+05
        40   2  5.220169E+04  1.518065E+05  2.143765E+05 -6.456434E+04  2.442740E+03  1.511649E+05
        40   3  1.265351E+04  2.135998E+05  1.574018E+05  5.150873E+04  5.094312E+03  4.535188E+04
        40   4  3.387590E+05  1.270299E+05  3.950932E+05  1.789544E+04 -1.106105E+03  2.529370E+05
        40   5  3.512865E+04  8.749069E+04  2.009958E+05  1.259109E+04  2.484652E+03  1.483561E+05
        40   6 -7.341391E+03  1.270170E+05  1.403560E+05  1.503120E+04  5.104811E+03  4.376372E+04
        40   7  3.244972E+05  8.482356E+04  3.845482E+05  2.086777E+05 -9.965387E+02  2.489112E+05
        40   8  1.807763E+04  2.319151E+04  1.876181E+05  8.973830E+04  2.525869E+03  1.455477E+05
        40   9 -2.733167E+04  4.044433E+04  1.233105E+05 -2.144115E+04  5.115497E+03  4.217578E+04
        40  10  3.531397E+05  1.692450E+05  4.055335E+05 -1.729001E+05 -2.306386E-09  8.187509E-09
        40  11  5.219555E+04  1.517820E+05  2.143336E+05 -6.456463E+04 -4.160293E-09 -3.317224E-09
        40  12  1.265293E+04  2.135976E+05  1.573979E+05  5.150854E+04  2.206066E-09 -5.333846E-09
        40  13  3.387419E+05  1.269612E+05  3.949730E+05  1.789567E+04 -7.101748E-09 -4.485295E-09
        40  14  3.512274E+04  8.746706E+04  2.009544E+05  1.259079E+04 -1.533558E-08 -2.084226E-09
        40  15 -7.341933E+03  1.270150E+05  1.403523E+05  1.503102E+04  1.030583E-10 -4.902569E-09
        40  16  3.244805E+05  8.475705E+04  3.844318E+05  2.086779E+05  2.358450E-11 -1.015356E-08
        40  17  1.807194E+04  2.316876E+04  1.875782E+05  8.973800E+04  2.894319E-09 -6.610256E-09
        40  18 -2.733218E+04  4.044241E+04  1.233071E+05 -2.144132E+04 -2.167594E-09  4.120551E-09
        40  19  3.531574E+05  1.693159E+05  4.056576E+05 -1.729004E+05  1.218141E+03 -2.569631E+05
        40  20  5.220169E+04  1.518065E+05  2.143765E+05 -6.456434E+04 -2.442740E+03 -1.511649E+05
        40  21  1.265351E+04  2.135998E+05  1.574018E+05  5.150873E+04 -5.094312E+03 -4.535188E+04
        40  22  3.387590E+05  1.270299E+05  3.950932E+05  1.789544E+04  1.106105E+03 -2.529370E+05
        40  23  3.512865E+04  8.749069E+04  2.009958E+05  1.259109E+04 -2.484652E+03 -1.483561E+05
        40  24 -7.341391E+03  1.270170E+05  1.403560E+05  1.503120E+04 -5.104811E+03 -4.376372E+04
        40  25  3.244972E+05  8.482356E+04  3.845482E+05  2.086777E+05  9.965387E+02 -2.489112E+05
        40  26  1.807763E+04  2.319151E+04  1.876181E+05  8.973830E+04 -2.525869E+03 -1.455477E+05
        40  27 -2.733167E+04  4.044433E+04  1.233105E+05 -2.144115E+04 -5.115497E+03 -4.217578E+04
        41   1  3.567320E+04  2.134593E+05  1.503896E+05  4.664634E+03  6.045418E+03  2.408605E+04
        41   2  3.035769E+04  2.252085E+05  1.576414E+05  1.209085E+04  7.922089E+03 -4.305682E+04
        41   3  5.936165E+04  2.544193E+05  2.172318E+05  2.583289E+04  9.446367E+03 -1.102067E+05
        41   4  1.144161E+04  1.133097E+05  1.303899E+05  1.528673E+04  6.061371E+03  2.221740E+04
        41   5  1.450704E+03  1.046176E+05  1.336486E+05  1.218798E+04  7.934071E+03 -4.447739E+04
        41   6  2.570538E+04  1.133126E+05  1.889413E+05  1.540496E+04  9.456630E+03 -1.111771E+05
        41   7 -1.279021E+04  1.316996E+04  1.103898E+05  2.590711E+04  6.077260E+03  2.034905E+04
        41   8 -2.745717E+04 -1.595930E+04  1.096550E+05  1.228511E+04  7.946053E+03 -4.589768E+04
        41   9 -7.951677E+03 -2.777483E+04  1.606499E+05  4.979476E+03  9.466928E+03 -1.121472E+05
        41  10  3.567301E+04  2.134587E+05  1.503884E+05  4.664517E+03  6.651809E-09  1.794703E-08
        41  11  3.035713E+04  2.252065E+05  1.576378E+05  1.209112E+04  2.797193E-09 -2.813548E-09
        41  12  5.935830E+04  2.544062E+05  2.172089E+05  2.583373E+04 -1.853201E-09 -1.693095E-08
        41  13  1.144143E+04  1.133092E+05  1.303889E+05  1.528663E+04  9.038730E-09 -4.359855E-09
        41  14  1.450106E+03  1.046155E+05  1.336447E+05  1.218826E+04  1.767921E-09 -2.275509E-09
        41  15  2.570197E+04  1.132993E+05  1.889179E+05  1.540580E+04 -3.799374E-09 -4.994493E-09
        41  16 -1.279036E+04  1.316950E+04  1.103889E+05  2.590701E+04 -6.577386E-09 -1.976433E-08
        41  17 -2.745781E+04 -1.596158E+04  1.096510E+05  1.228541E+04  9.547023E-10 -7.924879E-09
        41  18 -7.955149E+03 -2.778836E+04  1.606261E+05  4.980331E+03 -4.884723E-09  1.552959E-08
        41  19  3.567320E+04  2.134593E+05  1.503896E+05  4.664634E+03 -6.045418E+03 -2.408605E+04
        41  20  3.035769E+04  2.252085E+05  1.576414E+05  1.209085E+04 -7.922089E+03  4.305682E+04
        41  21  5.936165E+04  2.544193E+05  2.172318E+05  2.583289E+04 -9.446367E+03  1.102067E+05
        41  22  1.144161E+04  1.133097E+05  1.303899E+05  1.528673E+04 -6.061371E+03 -2.221740E+04
        41  23  1.450704E+03  1.046176E+05  1.336486E+05  1.218798E+04 -7.934071E+03  4.447739E+04
        41  24  2.570538E+04  1.133126E+05  1.889413E+05  1.540496E+04 -9.456630E+03  1.111771E+05
        41  25 -1.279021E+04  1.316996E+04  1.103898E+05  2.590711E+04 -6.077260E+03 -2.034905E+04
        41  26 -2.745717E+04 -1.595930E+04  1.096550E+05  1.228511E+04 -7.946053E+03  4.589768E+04
        41  27 -7.951677E+03 -2.777483E+04  1.606499E+05  4.979476E+03 -9.466928E+03  1.121472E+05
        42   1  2.328253E+04  2.989772E+05  2.609991E+05 -6.459522E+04  1.065668E+04 -1.412553E+05
        42   2  1.122362E+05  2.431669E+05  4.207410E+05  1.661381E+05  1.146351E+04 -3.480338E+05
        42   3  7.338298E+05  3.476825E+05  8.483944E+05  4.059882E+05  7.031894E+03 -5.548592E+05
        42   4 -1.537084E+04  1.448189E+05  2.298283E+05  1.473932E+04  1.065678E+04 -1.433763E+05
        42   5  7.236335E+04  6.526794E+04  3.839303E+05  1.318111E+04  1.151412E+04 -3.437597E+05
        42   6  6.915085E+05  1.448632E+05  8.015194E+05  2.068647E+04  7.287087E+03 -5.441792E+05
        42   7 -5.400229E+04 -9.303516E+03  1.986596E+05  9.405374E+04  1.065634E+04 -1.454967E+05
        42   8  3.257706E+04 -1.125502E+05  3.471308E+05 -1.397317E+05  1.156264E+04 -3.394868E+05
        42   9  6.497440E+05 -5.759787E+04  7.547223E+05 -3.644910E+05  7.529111E+03 -5.335028E+05
        42  10  2.327706E+04  2.989558E+05  2.609614E+05 -6.459401E+04 -7.321294E-09 -3.014621E-08
        42  11  1.122035E+05  2.430368E+05  4.205132E+05  1.661414E+05  5.405322E-09 -1.151670E-08
        42  12  7.337471E+05  3.473522E+05  8.478161E+05  4.059914E+05 -1.192214E-10  1.637843E-08
        42  13 -1.537647E+04  1.447968E+05  2.297894E+05  1.474055E+04 -2.004032E-08 -4.782155E-09
        42  14  7.233150E+04  6.514107E+04  3.837080E+05  1.318430E+04 -4.960516E-09 -2.463904E-09
        42  15  6.914290E+05  1.445454E+05  8.009629E+05  2.068966E+04 -1.978820E-09 -5.158179E-09
        42  16 -5.400809E+04 -9.326273E+03  1.986196E+05  9.405499E+04 -7.772989E-09  2.775887E-08
        42  17  3.254598E+04 -1.126739E+05  3.469139E+05 -1.397285E+05 -2.316504E-09  3.482921E-10
        42  18  6.496675E+05 -5.790337E+04  7.541873E+05 -3.644878E+05  3.113848E-09 -1.812184E-08
        42  19  2.328253E+04  2.989772E+05  2.609991E+05 -6.459522E+04 -1.065668E+04  1.412553E+05
        42  20  1.122362E+05  2.431669E+05  4.207410E+05  1.661381E+05 -1.146351E+04  3.480338E+05
        42  21  7.338298E+05  3.476825E+05  8.483944E+05  4.059882E+05 -7.031894E+03  5.548592E+05
        42  22 -1.537084E+04  1.448189E+05  2.298283E+05  1.473932E+04 -1.065678E+04  1.433763E+05
        42  23  7.236335E+04  6.526794E+04  3.839303E+05  1.318111E+04 -1.151412E+04  3.437597E+05
        42  24  6.915085E+05  1.448632E+05  8.015194E+05  2.068647E+04 -7.287087E+03  5.441792E+05
        42  25 -5.400229E+04 -9.303516E+03  1.986596E+05  9.405374E+04 -1.065634E+04  1.454967E+05
        42  26  3.257706E+04 -1.125502E+05  3.471308E+05 -1.397317E+05 -1.156264E+04  3.394868E+05
        42  27  6.497440E+05 -5.759787E+04  7.547223E+05 -3.644910E+05 -7.529111E+03  5.335028E+05
        43   1 -7.377166E+06 -1.720866E+06 -1.229316E+06 -2.418577E+06 -1.108339E+06 -4.411598E+05
        43   2 -7.144391E+06 -5.507472E+05 -2.899870E+05 -3.205408E+06 -7.079863E+05 -3.078934E+05
        43   3 -8.176420E+06 -5.872373E+05 -1.276196E+05 -2.908533E+06 -3.231777E+05 -1.357191E+05
        43   4 -9.481016E+06 -2.358996E+06 -1.780889E+06 -2.828251E+06 -1.113251E+06 -4.434548E+05
        43   5 -8.750947E+06 -1.129110E+06 -7.266267E+05 -3.610311E+06 -7.065287E+05 -3.073984E+05
        43   6 -9.289488E+06 -1.110103E+06 -4.565970E+05 -3.308176E+06 -3.150100E+05 -1.324593E+05
        43   7 -1.158053E+07 -2.997199E+06 -2.332809E+06 -3.236837E+06 -1.118138E+06 -4.457448E+05
        43   8 -1.035499E+07 -1.707390E+06 -1.163497E+06 -4.014287E+06 -7.050728E+05 -3.069040E+05
        43   9 -1.040132E+07 -1.632709E+06 -7.857010E+05 -3.707099E+06 -3.068583E+05 -1.292085E+05
        43  10 -7.378553E+06 -1.721413E+06 -1.232026E+06 -2.418974E+06  3.669528E-09 -1.120825E-09
        43  11 -7.144961E+06 -5.509869E+05 -2.911229E+05 -3.205585E+06 -1.249239E-08  2.807265E-09
        43  12 -8.176538E+06 -5.872858E+05 -1.278539E+05 -2.908569E+06 -1.428678E-09  4.123013E-10
        43  13 -9.482419E+06 -2.359550E+06 -1.783633E+06 -2.828653E+06  5.326157E-09 -5.287131E-09
        43  14 -8.751516E+06 -1.129350E+06 -7.277613E+05 -3.610487E+06  9.634250E-09 -1.415682E-08
        43  15 -9.289601E+06 -1.110149E+06 -4.568202E+05 -3.308210E+06 -3.140829E-09 -2.225586E-09
        43  16 -1.158195E+07 -2.997760E+06 -2.335588E+06 -3.237243E+06 -7.620215E-10 -3.155759E-09
        43  17 -1.035556E+07 -1.707630E+06 -1.164630E+06 -4.014464E+06 -2.303241E-09 -7.409778E-09
        43  18 -1.040143E+07 -1.632753E+06 -7.859133E+05 -3.707132E+06  5.324390E-09 -6.370114E-09
        43  19 -7.377166E+06 -1.720866E+06 -1.229316E+06 -2.418577E+06  1.108339E+06  4.411598E+05
        43  20 -7.144391E+06 -5.507472E+05 -2.899870E+05 -3.205408E+06  7.079863E+05  3.078934E+05
        43  21 -8.176420E+06 -5.872373E+05 -1.276196E+05 -2.908533E+06  3.231777E+05  1.357191E+05
        43  22 -9.481016E+06 -2.358996E+06 -1.780889E+06 -2.828251E+06  1.113251E+06  4.434548E+05
        43  23 -8.750947E+06 -1.129110E+06 -7.266267E+05 -3.610311E+06  7.065287E+05  3.073984E+05
        43  24 -9.289488E+06 -1.110103E+06 -4.565970E+05 -3.308176E+06  3.150100E+05  1.324593E+05
        43  25 -1.158053E+07 -2.997199E+06 -2.332809E+06 -3.236837E+06  1.118138E+06  4.457448E+05
        43  26 -1.035499E+07 -1.707390E+06 -1.163497E+06 -4.014287E+06  7.050728E+05  3.069040E+05
        43  27 -1.040132E+07 -1.632709E+06 -7.857010E+05 -3.707099E+06  3.068583E+05  1.292085E+05
        44   1 -1.040865E+07 -1.799374E+06 -7.092779E+05 -3.544834E+06 -2.571703E+05 -8.946958E+04
        44   2 -1.048183E+07 -1.997669E+06 -6.137332E+05 -4.014167E+06 -1.723574E+05 -3.974527E+04
        44   3 -1.120675E+07 -1.900756E+06 -6.550911E+05 -3.798531E+06 -8.608618E+04  6.328812E+03
        44   4 -9.235223E+06 -1.314007E+06 -3.756159E+05 -3.188485E+06 -2.543845E+05 -8.839136E+04
        44   5 -8.895178E+06 -1.374668E+06 -1.707200E+05 -3.564551E+06 -1.701445E+05 -3.889184E+04
        44   6 -9.206609E+06 -1.139695E+06 -1.020705E+05 -3.255897E+06 -8.438056E+04  6.980106E+03
        44   7 -8.060443E+06 -8.284989E+05 -4.208837E+04 -2.831495E+06 -2.515924E+05 -8.731032E+04
        44   8 -7.306068E+06 -7.514836E+05  2.720547E+05 -3.113869E+06 -1.679246E+05 -3.803566E+04
        44   9 -7.202566E+06 -3.784110E+05  4.505780E+05 -2.711664E+06 -8.266838E+04  7.633854E+03
        44  10 -1.040873E+07 -1.799401E+06 -7.094199E+05 -3.544853E+06 -1.815702E-09  4.647904E-09
        44  11 -1.048186E+07 -1.997679E+06 -6.137931E+05 -4.014172E+06 -3.774787E-09  6.419562E-10
        44  12 -1.120675E+07 -1.900758E+06 -6.551053E+05 -3.798530E+06 -2.925426E-09  3.297512E-09
        44  13 -9.235296E+06 -1.314034E+06 -3.757545E+05 -3.188503E+06 -1.214367E-09 -5.887567E-09
        44  14 -8.895209E+06 -1.374677E+06 -1.707782E+05 -3.564557E+06 -5.017746E-10  9.220930E-09
        44  15 -9.206617E+06 -1.139697E+06 -1.020841E+05 -3.255896E+06  3.083991E-09 -5.522057E-09
        44  16 -8.060514E+06 -8.285245E+05 -4.222361E+04 -2.831513E+06  4.379708E-09  3.316342E-09
        44  17 -7.306099E+06 -7.514928E+05  2.719983E+05 -3.113874E+06 -3.504393E-09 -1.038663E-09
        44  18 -7.202573E+06 -3.784129E+05  4.505649E+05 -2.711663E+06  1.211674E-09 -5.985688E-09
        44  19 -1.040865E+07 -1.799374E+06 -7.092779E+05 -3.544834E+06  2.571703E+05  8.946958E+04
        44  20 -1.048183E+07 -1.997669E+06 -6.137332E+05 -4.014167E+06  1.723574E+05  3.974527E+04
        44  21 -1.120675E+07 -1.900756E+06 -6.550911E+05 -3.798531E+06  8.608618E+04 -6.328812E+03
        44  22 -9.235223E+06 -1.314007E+06 -3.756159E+05 -3.188485E+06  2.543845E+05  8.839136E+04
        44  23 -8.895178E+06 -1.374668E+06 -1.707200E+05 -3.564551E+06  1.701445E+05  3.889184E+04
        44  24 -9.206609E+06 -1.139695E+06 -1.020705E+05 -3.255897E+06  8.438056E+04 -6.980106E+03
        44  25 -8.060443E+06 -8.284989E+05 -4.208837E+04 -2.831495E+06  2.515924E+05  8.731032E+04
        44  26 -7.306068E+06 -7.514836E+05  2.720547E+05 -3.113869E+06  1.679246E+05  3.803566E+04
        44  27 -7.202566E+06 -3.784110E+05  4.505780E+05 -2.711664E+06  8.266838E+04 -7.633854E+03
        45   1 -1.245782E+07 -2.568811E+06 -1.017295E+06 -4.282274E+06 -7.709326E+04  1.952183E+04
        45   2 -1.252980E+07 -2.610420E+06 -1.005304E+06 -4.363820E+06 -5.601179E+04  3.911394E+04
        45   3 -1.261945E+07 -2.570711E+06 -9.981133E+05 -4.297921E+06 -2.901916E+04  4.307691E+04
        45   4 -9.079520E+06 -1.262905E+06 -7.619099E+04 -3.346988E+06 -7.378088E+04  2.076968E+04
        45   5 -9.069241E+06 -1.292083E+06 -4.640159E+04 -3.425124E+06 -5.568037E+04  3.921428E+04
        45   6 -9.075579E+06 -1.238990E+06 -1.887990E+04 -3.355845E+06 -3.168110E+04  4.207188E+04
        45   7 -5.690075E+06  4.373013E+04  8.638361E+05 -2.406997E+06 -7.044738E+04  2.202575E+04
        45   8 -5.596998E+06  2.694426E+04  9.113823E+05 -2.481610E+06 -5.534639E+04  3.931570E+04
        45   9 -5.519471E+06  9.337532E+04  9.591892E+05 -2.408838E+06 -3.435990E+04  4.106075E+04
        45  10 -1.245783E+07 -2.568813E+06 -1.017307E+06 -4.282272E+06 -2.105788E-10 -1.074308E-09
        45  11 -1.252980E+07 -2.610422E+06 -1.005312E+06 -4.363819E+06 -6.901172E-09  3.444528E-10
        45  12 -1.261945E+07 -2.570713E+06 -9.981184E+05 -4.297920E+06 -2.687664E-10 -3.367415E-10
        45  13 -9.079526E+06 -1.262907E+06 -7.620213E+04 -3.346987E+06 -8.193823E-09 -3.271322E-09
        45  14 -9.069245E+06 -1.292085E+06 -4.641033E+04 -3.425123E+06  7.642465E-10  2.166635E-10
        45  15 -9.075581E+06 -1.238992E+06 -1.888510E+04 -3.355844E+06  5.168299E-09 -2.868788E-10
        45  16 -5.690081E+06  4.372827E+04  8.638258E+05 -2.406996E+06  2.172035E-09 -3.194613E-09
        45  17 -5.597002E+06  2.694179E+04  9.113736E+05 -2.481608E+06 -7.048154E-10 -2.272107E-10
        45  18 -5.519473E+06  9.337320E+04  9.591839E+05 -2.408837E+06  1.227382E-09  1.714812E-10
        45  19 -1.245782E+07 -2.568811E+06 -1.017295E+06 -4.282274E+06  7.709326E+04 -1.952183E+04
        45  20 -1.252980E+07 -2.610420E+06 -1.005304E+06 -4.363820E+06  5.601179E+04 -3.911394E+04
        45  21 -1.261945E+07 -2.570711E+06 -9.981133E+05 -4.297921E+06  2.901916E+04 -4.307691E+04
        45  22 -9.079520E+06 -1.262905E+06 -7.619099E+04 -3.346988E+06  7.378088E+04 -2.076968E+04
        45  23 -9.069241E+06 -1.292083E+06 -4.640159E+04 -3.425124E+06  5.568037E+04 -3.921428E+04
        45  24 -9.075579E+06 -1.238990E+06 -1.887990E+04 -3.355845E+06  3.168110E+04 -4.207188E+04
        45  25 -5.690075E+06  4.373013E+04  8.638361E+05 -2.406997E+06  7.044738E+04 -2.202575E+04
        45  26 -5.596998E+06  2.694426E+04  9.113823E+05 -2.481610E+06  5.534639E+04 -3.931570E+04
        45  27 -5.519471E+06  9.337532E+04  9.591892E+05 -2.408838E+06  3.435990E+04 -4.106075E+04
        46   1 -1.177648E+07 -2.413677E+06 -7.910548E+05 -4.233645E+06 -2.815503E+04  3.893456E+04
        46   2 -1.169422E+07 -2.074135E+06 -6.999037E+05 -3.901836E+06 -1.750001E+04  3.656081E+04
        46   3 -1.114989E+07 -2.152506E+06 -6.059249E+05 -4.056324E+06 -2.831123E+03  2.268017E+04
        46   4 -8.969493E+06 -1.363057E+06 -1.743461E+04 -3.491174E+06 -2.815173E+04  3.891975E+04
        46   5 -9.200424E+06 -1.148590E+06 -1.419214E+04 -3.250393E+06 -1.975011E+04  3.573630E+04
        46   6 -8.968896E+06 -1.351346E+06 -6.274964E+03 -3.495798E+06 -7.347689E+03  2.106679E+04
        46   7 -6.154837E+06 -3.120408E+05  7.554581E+05 -2.745627E+06 -2.814833E+04  3.890505E+04
        46   8 -6.700587E+06 -2.227576E+05  6.709461E+05 -2.596562E+06 -2.201026E+04  3.490821E+04
        46   9 -6.783307E+06 -5.499926E+05  5.929355E+05 -2.933481E+06 -1.188188E+04  1.944717E+04
        46  10 -1.177648E+07 -2.413679E+06 -7.910591E+05 -4.233644E+06  6.562581E-10 -1.979444E-09
        46  11 -1.169422E+07 -2.074136E+06 -6.999067E+05 -3.901836E+06  3.303307E-09 -8.278203E-09
        46  12 -1.114989E+07 -2.152506E+06 -6.059258E+05 -4.056324E+06  2.423292E-09 -1.669582E-08
        46  13 -8.969494E+06 -1.363059E+06 -1.743893E+04 -3.491173E+06 -9.417572E-10 -1.097805E-09
        46  14 -9.200424E+06 -1.148591E+06 -1.419526E+04 -3.250393E+06 -2.730637E-09  1.399153E-08
        46  15 -8.968896E+06 -1.351347E+06 -6.275895E+03 -3.495798E+06  2.743533E-09  1.506856E-08
        46  16 -6.154838E+06 -3.120426E+05  7.554538E+05 -2.745626E+06  5.563988E-09  1.042139E-10
        46  17 -6.700588E+06 -2.227590E+05  6.709429E+05 -2.596562E+06 -2.257728E-09 -3.593262E-10
        46  18 -6.783307E+06 -5.499931E+05  5.929345E+05 -2.933481E+06 -4.578263E-09 -2.004846E-08
        46  19 -1.177648E+07 -2.413677E+06 -7.910548E+05 -4.233645E+06  2.815503E+04 -3.893456E+04
        46  20 -1.169422E+07 -2.074135E+06 -6.999037E+05 -3.901836E+06  1.750001E+04 -3.656081E+04
        46  21 -1.114989E+07 -2.152506E+06 -6.059249E+05 -4.056324E+06  2.831123E+03 -2.268017E+04
        46  22 -8.969493E+06 -1.363057E+06 -1.743461E+04 -3.491174E+06  2.815173E+04 -3.891975E+04
        46  23 -9.200424E+06 -1.148590E+06 -1.419214E+04 -3.250393E+06  1.975011E+04 -3.573630E+04
        46  24 -8.968896E+06 -1.351346E+06 -6.274964E+03 -3.495798E+06  7.347689E+03 -2.106679E+04
        46  25 -6.154837E+06 -3.120408E+05  7.554581E+05 -2.745627E+06  2.814833E+04 -3.890505E+04
        46  26 -6.700587E+06 -2.227576E+05  6.709461E+05 -2.596562E+06  2.201026E+04 -3.490821E+04
        46  27 -6.783307E+06 -5.499926E+05  5.929355E+05 -2.933481E+06  1.188188E+04 -1.944717E+04
        47   1 -8.835510E+06 -1.353973E+06  2.107332E+04 -3.516625E+06  1.612332E+03  1.018260E+04
        47   2 -8.675732E+06 -8.943930E+05  1.408548E+05 -3.046804E+06  1.291762E+04 -4.877246E+03
        47   3 -7.942261E+06 -1.029340E+06  2.525621E+05 -3.280334E+06  2.336506E+04 -1.738885E+04
        47   4 -8.942994E+06 -1.392468E+06 -9.612634E+03 -3.542871E+06 -2.026448E+03  8.892243E+03
        47   5 -9.229967E+06 -1.098221E+06 -1.091459E+04 -3.189971E+06  9.781250E+03 -5.994780E+03
        47   6 -8.943516E+06 -1.398661E+06 -2.068173E+04 -3.540545E+06  2.072627E+04 -1.833327E+04
        47   7 -9.050467E+06 -1.430964E+06 -4.029976E+04 -3.569113E+06 -5.664541E+03  7.602117E+03
        47   8 -9.783905E+06 -1.302036E+06 -1.627125E+05 -3.333021E+06  6.647961E+03 -7.111214E+03
        47   9 -9.943803E+06 -1.767937E+06 -2.940174E+05 -3.800374E+06  1.809217E+04 -1.927601E+04
        47  10 -8.835510E+06 -1.353973E+06  2.107312E+04 -3.516625E+06  1.202644E-10  4.540820E-10
        47  11 -8.675732E+06 -8.943930E+05  1.408544E+05 -3.046804E+06  1.420716E-09 -1.134217E-11
        47  12 -7.942262E+06 -1.029341E+06  2.525605E+05 -3.280334E+06  7.847028E-09  1.271920E-08
        47  13 -8.942994E+06 -1.392468E+06 -9.612790E+03 -3.542871E+06 -3.742045E-09 -1.498501E-08
        47  14 -9.229967E+06 -1.098221E+06 -1.091484E+04 -3.189971E+06  8.156993E-09  2.108633E-08
        47  15 -8.943517E+06 -1.398661E+06 -2.068317E+04 -3.540544E+06  7.757883E-09 -3.801836E-09
        47  16 -9.050467E+06 -1.430964E+06 -4.029992E+04 -3.569113E+06  1.098666E-08 -6.489193E-09
        47  17 -9.783905E+06 -1.302036E+06 -1.627126E+05 -3.333021E+06 -2.901968E-09 -2.586434E-08
        47  18 -9.943804E+06 -1.767937E+06 -2.940187E+05 -3.800373E+06  2.509671E-10 -6.675646E-09
        47  19 -8.835510E+06 -1.353973E+06  2.107332E+04 -3.516625E+06 -1.612332E+03 -1.018260E+04
        47  20 -8.675732E+06 -8.943930E+05  1.408548E+05 -3.046804E+06 -1.291762E+04  4.877246E+03
        47  21 -7.942261E+06 -1.029340E+06  2.525621E+05 -3.280334E+06 -2.336506E+04  1.738885E+04
        47  22 -8.942994E+06 -1.392468E+06 -9.612634E+03 -3.542871E+06  2.026448E+03 -8.892243E+03
        47  23 -9.229967E+06 -1.098221E+06 -1.091459E+04 -3.189971E+06 -9.781250E+03  5.994780E+03
        47  24 -8.943516E+06 -1.398661E+06 -2.068173E+04 -3.540545E+06 -2.072627E+04  1.833327E+04
        47  25 -9.050467E+06 -1.430964E+06 -4.029976E+04 -3.569113E+06  5.664541E+03 -7.602117E+03
        47  26 -9.783905E+06 -1.302036E+06 -1.627125E+05 -3.333021E+06 -6.647961E+03  7.111214E+03
        47  27 -9.943803E+06 -1.767937E+06 -2.940174E+05 -3.800374E+06 -1.809217E+04  1.927601E+04
        48   1 -6.047947E+06 -2.306922E+05  7.881842E+05 -2.690084E+06  3.167838E+04 -2.630334E+04
        48   2 -6.020772E+06 -1.411907E+04  8.160077E+05 -2.471807E+06  5.698488E+04 -3.323571E+04
        48   3 -5.662882E+06 -8.996131E+04  8.373256E+05 -2.541056E+06  7.714908E+04 -2.574155E+04
        48   4 -8.997996E+06 -1.316727E+06 -2.044610E+04 -3.454568E+06  2.733226E+04 -2.787683E+04
        48   5 -9.165030E+06 -1.187572E+06 -4.725932E+04 -3.304162E+06  5.542405E+04 -3.382552E+04
        48   6 -9.002190E+06 -1.351805E+06 -8.291206E+04 -3.441414E+06  7.835364E+04 -2.531593E+04
        48   7 -1.193963E+07 -2.402380E+06 -8.298686E+05 -4.215761E+06  2.300884E+04 -2.944227E+04
        48   8 -1.229972E+07 -2.360534E+06 -9.114335E+05 -4.132683E+06  5.387156E+04 -3.441235E+04
        48   9 -1.233071E+07 -2.613037E+06 -1.004183E+06 -4.337354E+06  7.955019E+04 -2.489340E+04
        48  10 -6.047948E+06 -2.306932E+05  7.881810E+05 -2.690084E+06  1.543030E-09  1.472125E-09
        48  11 -6.020775E+06 -1.412112E+04  8.159996E+05 -2.471806E+06 -6.177373E-10 -1.109476E-09
        48  12 -5.662889E+06 -8.996362E+04  8.373131E+05 -2.541054E+06 -7.951532E-10 -9.169211E-09
        48  13 -8.997997E+06 -1.316728E+06 -2.044896E+04 -3.454568E+06  1.537233E-09 -5.051341E-09
        48  14 -9.165033E+06 -1.187575E+06 -4.726727E+04 -3.304160E+06  2.356479E-09 -7.260914E-09
        48  15 -9.002196E+06 -1.351808E+06 -8.292491E+04 -3.441412E+06  1.393411E-09 -4.391925E-09
        48  16 -1.193963E+07 -2.402381E+06 -8.298712E+05 -4.215760E+06 -1.371054E-09 -2.394514E-09
        48  17 -1.229973E+07 -2.360536E+06 -9.114412E+05 -4.132681E+06  6.782035E-09  9.793643E-09
        48  18 -1.233072E+07 -2.613039E+06 -1.004197E+06 -4.337352E+06 -8.590298E-10  5.948934E-09
        48  19 -6.047947E+06 -2.306922E+05  7.881842E+05 -2.690084E+06 -3.167838E+04  2.630334E+04
        48  20 -6.020772E+06 -1.411907E+04  8.160077E+05 -2.471807E+06 -5.698488E+04  3.323571E+04
        48  21 -5.662882E+06 -8.996131E+04  8.373256E+05 -2.541056E+06 -7.714908E+04  2.574155E+04
        48  22 -8.997996E+06 -1.316727E+06 -2.044610E+04 -3.454568E+06 -2.733226E+04  2.787683E+04
        48  23 -9.165030E+06 -1.187572E+06 -4.725932E+04 -3.304162E+06 -5.542405E+04  3.382552E+04
        48  24 -9.002190E+06 -1.351805E+06 -8.291206E+04 -3.441414E+06 -7.835364E+04  2.531593E+04
        48  25 -1.193963E+07 -2.402380E+06 -8.298686E+05 -4.215761E+06 -2.300884E+04  2.944227E+04
        48  26 -1.229972E+07 -2.360534E+06 -9.114335E+05 -4.132683E+06 -5.387156E+04  3.441235E+04
        48  27 -1.233071E+07 -2.613037E+06 -1.004183E+06 -4.337354E+06 -7.955019E+04  2.489340E+04
        49   1 -5.783865E+06  5.957711E+04  8.168724E+05 -2.424176E+06  9.414755E+04 -1.887252E+04
        49   2 -5.866376E+06 -1.000676E+05  6.793962E+05 -2.622881E+06  1.881976E+05  1.750405E+04
        49   3 -6.268647E+06 -2.341368E+05  4.156100E+05 -2.412032E+06  2.768513E+05  6.765813E+04
        49   4 -9.134478E+06 -1.197434E+06 -1.047253E+05 -3.318227E+06  9.266249E+04 -1.944848E+04
        49   5 -8.988765E+06 -1.302475E+06 -1.853466E+05 -3.487648E+06  1.890153E+05  1.779400E+04
        49   6 -9.164166E+06 -1.383336E+06 -3.946742E+05 -3.247284E+06  2.799969E+05  6.884914E+04
        49   7 -1.247422E+07 -2.453875E+06 -1.027358E+06 -4.207901E+06  9.118530E+04 -2.002164E+04
        49   8 -1.210169E+07 -2.504262E+06 -1.051000E+06 -4.348422E+06  1.898262E+05  1.808128E+04
        49   9 -1.205153E+07 -2.531872E+06 -1.205756E+06 -4.078914E+06  2.831233E+05  7.003220E+04
        49  10 -5.783875E+06  5.957434E+04  8.168549E+05 -2.424175E+06  1.207106E-09 -2.930462E-09
        49  11 -5.866414E+06 -1.000776E+05  6.793284E+05 -2.622883E+06 -2.437154E-09  1.416199E-08
        49  12 -6.268731E+06 -2.341627E+05  4.154557E+05 -2.412047E+06 -1.743368E-09  3.214280E-09
        49  13 -9.134487E+06 -1.197437E+06 -1.047424E+05 -3.318226E+06 -2.429473E-09  3.161594E-09
        49  14 -8.988804E+06 -1.302485E+06 -1.854153E+05 -3.487651E+06  8.699137E-09  2.207273E-09
        49  15 -9.164252E+06 -1.383363E+06 -3.948330E+05 -3.247299E+06  8.726720E-11  8.537939E-10
        49  16 -1.247423E+07 -2.453878E+06 -1.027374E+06 -4.207900E+06 -2.536979E-09  1.733053E-09
        49  17 -1.210173E+07 -2.504272E+06 -1.051070E+06 -4.348425E+06 -5.899342E-09  3.582928E-09
        49  18 -1.205162E+07 -2.531899E+06 -1.205920E+06 -4.078931E+06  3.711632E-09 -8.045664E-09
        49  19 -5.783865E+06  5.957711E+04  8.168724E+05 -2.424176E+06 -9.414755E+04  1.887252E+04
        49  20 -5.866376E+06 -1.000676E+05  6.793962E+05 -2.622881E+06 -1.881976E+05 -1.750405E+04
        49  21 -6.268647E+06 -2.341368E+05  4.156100E+05 -2.412032E+06 -2.768513E+05 -6.765813E+04
        49  22 -9.134478E+06 -1.197434E+06 -1.047253E+05 -3.318227E+06 -9.266249E+04  1.944848E+04
        49  23 -8.988765E+06 -1.302475E+06 -1.853466E+05 -3.487648E+06 -1.890153E+05 -1.779400E+04
        49  24 -9.164166E+06 -1.383336E+06 -3.946742E+05 -3.247284E+06 -2.799969E+05 -6.884914E+04
        49  25 -1.247422E+07 -2.453875E+06 -1.027358E+06 -4.207901E+06 -9.118530E+04  2.002164E+04
        49  26 -1.210169E+07 -2.504262E+06 -1.051000E+06 -4.348422E+06 -1.898262E+05 -1.808128E+04
        49  27 -1.205153E+07 -2.531872E+06 -1.205756E+06 -4.078914E+06 -2.831233E+05 -7.003220E+04
        50   1 -8.249194E+06 -7.775377E+05 -2.090743E+05 -3.087696E+06  3.427201E+05  1.079607E+05
        50   2 -8.195674E+06 -8.760846E+05 -6.133279E+05 -3.436739E+06  7.609378E+05  2.893003E+05
        50   3 -9.541474E+06 -2.228167E+06 -1.854804E+06 -2.607022E+06  1.181623E+06  4.633521E+05
        50   4 -9.313351E+06 -1.099856E+06 -4.856788E+05 -3.295938E+06  3.463310E+05  1.094270E+05
        50   5 -8.717239E+06 -1.127653E+06 -7.683735E+05 -3.630753E+06  7.627699E+05  2.899420E+05
        50   6 -9.520621E+06 -2.409370E+06 -1.887090E+06 -2.786400E+06  1.182095E+06  4.630904E+05
        50   7 -1.037639E+07 -1.422192E+06 -7.623719E+05 -3.503901E+06  3.499344E+05  1.108917E+05
        50   8 -9.238530E+06 -1.379155E+06 -9.234469E+05 -3.824602E+06  7.646000E+05  2.905826E+05
        50   9 -9.499687E+06 -2.590400E+06 -1.919354E+06 -2.965762E+06  1.182567E+06  4.628284E+05
        50  10 -8.249324E+06 -7.775825E+05 -2.093207E+05 -3.087726E+06 -4.655217E-09 -4.639838E-09
        50  11 -8.196327E+06 -8.763341E+05 -6.145932E+05 -3.436918E+06  1.785490E-09  7.504572E-09
        50  12 -9.543052E+06 -2.228783E+06 -1.857882E+06 -2.607468E+06  6.924342E-11  6.562980E-09
        50  13 -9.313484E+06 -1.099902E+06 -4.859310E+05 -3.295969E+06  4.907326E-09 -1.095483E-08
        50  14 -8.717894E+06 -1.127904E+06 -7.696461E+05 -3.630933E+06 -5.541638E-09 -7.964300E-09
        50  15 -9.522200E+06 -2.409987E+06 -1.890170E+06 -2.786845E+06  1.891596E-10  1.038809E-08
        50  16 -1.037653E+07 -1.422240E+06 -7.626299E+05 -3.503933E+06  1.182111E-08 -1.241771E-09
        50  17 -9.239190E+06 -1.379407E+06 -9.247268E+05 -3.824783E+06  2.919824E-09  7.580620E-09
        50  18 -9.501268E+06 -2.591016E+06 -1.922437E+06 -2.966208E+06  1.434627E-09  4.105762E-09
        50  19 -8.249194E+06 -7.775377E+05 -2.090743E+05 -3.087696E+06 -3.427201E+05 -1.079607E+05
        50  20 -8.195674E+06 -8.760846E+05 -6.133279E+05 -3.436739E+06 -7.609378E+05 -2.893003E+05
        50  21 -9.541474E+06 -2.228167E+06 -1.854804E+06 -2.607022E+06 -1.181623E+06 -4.633521E+05
        50  22 -9.313351E+06 -1.099856E+06 -4.856788E+05 -3.295938E+06 -3.463310E+05 -1.094270E+05
        50  23 -8.717239E+06 -1.127653E+06 -7.683735E+05 -3.630753E+06 -7.627699E+05 -2.899420E+05
        50  24 -9.520621E+06 -2.409370E+06 -1.887090E+06 -2.786400E+06 -1.182095E+06 -4.630904E+05
        50  25 -1.037639E+07 -1.422192E+06 -7.623719E+05 -3.503901E+06 -3.499344E+05 -1.108917E+05
        50  26 -9.238530E+06 -1.379155E+06 -9.234469E+05 -3.824602E+06 -7.646000E+05 -2.905826E+05
        50  27 -9.499687E+06 -2.590400E+06 -1.919354E+06 -2.965762E+06 -1.182567E+06 -4.628284E+05
        51   1  5.603524E+05  7.036924E+05  5.480090E+05 -1.166536E+04  2.750899E+04  5.223504E+04
        51   2  5.567071E+05  6.704397E+05  5.184719E+05 -8.518839E+03  8.802801E+04  1.963938E+04
        51   3  5.493144E+05  6.434930E+05  5.101282E+05 -2.009404E+04  9.362531E+04 -1.333314E+04
        51   4 -1.006774E+04 -1.586712E+06 -1.262686E+04 -3.321219E+03  2.793332E+04 -6.763326E+03
        51   5 -1.888169E+02 -1.586632E+06 -7.469702E+03  4.077023E+03  8.822859E+04 -2.406059E+03
        51   6 -4.905081E+02 -1.586673E+06 -6.786400E+03 -3.246982E+03  9.351239E+04  1.572148E+03
        51   7 -5.808749E+05 -3.872325E+06 -5.736339E+05  5.000482E+03  2.835687E+04 -6.554458E+04
        51   8 -5.574451E+05 -3.838999E+06 -5.337545E+05  1.663619E+04  8.842867E+04 -2.437192E+04
        51   9 -5.506454E+05 -3.812240E+06 -5.240341E+05  1.354952E+04  9.340010E+04  1.642431E+04
        51  10  5.603509E+05  7.036893E+05  5.480024E+05 -1.166652E+04 -1.008223E-08  6.940140E-09
        51  11  5.566987E+05  6.704372E+05  5.184566E+05 -8.520230E+03  7.988087E-10 -1.110207E-08
        51  12  5.493050E+05  6.434905E+05  5.101114E+05 -2.009304E+04 -4.035419E-09 -2.108276E-09
        51  13 -1.006859E+04 -1.586712E+06 -1.262841E+04 -3.321067E+03 -1.907397E-08  3.602507E-09
        51  14 -1.971712E+02 -1.586634E+06 -7.484330E+03  4.077194E+03  9.153124E-09  4.637733E-09
        51  15 -4.998920E+02 -1.586675E+06 -6.802825E+03 -3.247101E+03  1.462778E-08  2.906785E-09
        51  16 -5.808770E+05 -3.872330E+06 -5.736436E+05  5.001982E+03 -7.696583E-09 -6.766035E-09
        51  17 -5.574536E+05 -3.839001E+06 -5.337703E+05  1.663793E+04  1.485978E-09 -8.868419E-09
        51  18 -5.506548E+05 -3.812242E+06 -5.240510E+05  1.354828E+04 -2.762167E-09  6.388918E-09
        51  19  5.603524E+05  7.036924E+05  5.480090E+05 -1.166536E+04 -2.750899E+04 -5.223504E+04
        51  20  5.567071E+05  6.704397E+05  5.184719E+05 -8.518839E+03 -8.802801E+04 -1.963938E+04
        51  21  5.493144E+05  6.434930E+05  5.101282E+05 -2.009404E+04 -9.362531E+04  1.333314E+04
        51  22 -1.006774E+04 -1.586712E+06 -1.262686E+04 -3.321219E+03 -2.793332E+04  6.763326E+03
        51  23 -1.888169E+02 -1.586632E+06 -7.469702E+03  4.077023E+03 -8.822859E+04  2.406059E+03
        51  24 -4.905081E+02 -1.586673E+06 -6.786400E+03 -3.246982E+03 -9.351239E+04 -1.572148E+03
        51  25 -5.808749E+05 -3.872325E+06 -5.736339E+05  5.000482E+03 -2.835687E+04  6.554458E+04
        51  26 -5.574451E+05 -3.838999E+06 -5.337545E+05  1.663619E+04 -8.842867E+04  2.437192E+04
        51  27 -5.506454E+05 -3.812240E+06 -5.240341E+05  1.354952E+04 -9.340010E+04 -1.642431E+04
        52   1  5.404540E+05  6.081920E+05  5.039673E+05 -1.975587E+04  8.605188E+04  5.341646E+03
        52   2  5.313172E+05  5.687447E+05  4.910547E+05 -1.158390E+04  8.722509E+04  6.671380E+03
        52   3  5.174317E+05  5.303172E+05  4.766247E+05 -2.526638E+04  8.288262E+04  7.936251E+03
        52   4 -1.102131E+03 -1.586527E+06 -7.322013E+03 -4.843791E+03  8.609859E+04  2.685456E+03
        52   5 -3.949680E+02 -1.586691E+06 -9.916332E+03  6.063782E+03  8.723486E+04  7.711665E+03
        52   6 -5.093388E+03 -1.586491E+06 -1.660535E+04 -4.887993E+03  8.284679E+04  1.267298E+04
        52   7 -5.429990E+05 -3.776798E+06 -5.189374E+05  1.002592E+04  8.614527E+04  3.857940E+01
        52   8 -5.324350E+05 -3.737834E+06 -5.112007E+05  2.366109E+04  8.724471E+04  8.748333E+03
        52   9 -5.279352E+05 -3.699160E+06 -5.101388E+05  1.543240E+04  8.281123E+04  1.739361E+04
        52  10  5.404461E+05  6.081900E+05  5.039533E+05 -1.975624E+04 -9.725200E-09  1.587300E-08
        52  11  5.313091E+05  5.687426E+05  4.910403E+05 -1.158437E+04 -1.093913E-09 -6.417506E-09
        52  12  5.174243E+05  5.303153E+05  4.766117E+05 -2.526691E+04  3.530873E-10 -1.312568E-09
        52  13 -1.110087E+03 -1.586529E+06 -7.335947E+03 -4.843978E+03 -7.487003E-11  5.220294E-09
        52  14 -4.031497E+02 -1.586693E+06 -9.930734E+03  6.063240E+03 -1.671437E-09  6.050603E-09
        52  15 -5.100796E+03 -1.586493E+06 -1.661854E+04 -4.888840E+03 -1.297240E-08  4.159746E-09
        52  16 -5.430070E+05 -3.776800E+06 -5.189513E+05  1.002592E+04 -5.716531E-09 -1.603073E-08
        52  17 -5.324432E+05 -3.737836E+06 -5.112151E+05  2.366048E+04  5.777796E-09 -1.932794E-08
        52  18 -5.279426E+05 -3.699163E+06 -5.101523E+05  1.543123E+04  2.090049E-09  6.666326E-09
        52  19  5.404540E+05  6.081920E+05  5.039673E+05 -1.975587E+04 -8.605188E+04 -5.341646E+03
        52  20  5.313172E+05  5.687447E+05  4.910547E+05 -1.158390E+04 -8.722509E+04 -6.671380E+03
        52  21  5.174317E+05  5.303172E+05  4.766247E+05 -2.526638E+04 -8.288262E+04 -7.936251E+03
        52  22 -1.102131E+03 -1.586527E+06 -7.322013E+03 -4.843791E+03 -8.609859E+04 -2.685456E+03
        52  23 -3.949680E+02 -1.586691E+06 -9.916332E+03  6.063782E+03 -8.723486E+04 -7.711665E+03
        52  24 -5.093388E+03 -1.586491E+06 -1.660535E+04 -4.887993E+03 -8.284679E+04 -1.267298E+04
        52  25 -5.429990E+05 -3.776798E+06 -5.189374E+05  1.002592E+04 -8.614527E+04 -3.857940E+01
        52  26 -5.324350E+05 -3.737834E+06 -5.112007E+05  2.366109E+04 -8.724471E+04 -8.748333E+03
        52  27 -5.279352E+05 -3.699160E+06 -5.101388E+05  1.543240E+04 -8.281123E+04 -1.739361E+04
        53   1  5.138395E+05  4.833831E+05  4.602992E+05 -1.666528E+04  8.683484E+04  2.615252E+04
        53   2  5.039131E+05  4.412302E+05  4.385084E+05 -1.921078E+04  7.909031E+04  1.235534E+04
        53   3  4.353044E+05  3.878661E+05  4.113471E+05 -5.082270E+04  2.468641E+04 -2.110353E+03
        53   4  2.765849E+03 -1.590226E+06 -2.025715E+04 -6.222260E+03  8.698176E+04  1.575148E+04
        53   5  4.236750E+03 -1.581874E+06 -3.298990E+04  7.903731E+03  7.883321E+04  3.329782E+04
        53   6 -5.852865E+04 -1.590234E+06 -7.291772E+04 -7.047539E+03  2.395640E+04  5.017229E+04
        53   7 -5.086106E+05 -3.659859E+06 -5.011017E+05  4.197643E+03  8.712859E+04  5.384855E+03
        53   8 -4.957279E+05 -3.601197E+06 -5.047639E+05  3.494153E+04  7.857752E+04  5.417239E+04
        53   9 -5.526458E+05 -3.564758E+06 -5.574588E+05  3.660026E+04  2.323261E+04  1.022885E+05
        53  10  5.138312E+05  4.833804E+05  4.602838E+05 -1.666710E+04  1.650889E-09 -1.295251E-09
        53  11  5.039064E+05  4.412284E+05  4.384964E+05 -1.921157E+04  9.485119E-09 -2.324143E-08
        53  12  4.353037E+05  3.878659E+05  4.113460E+05 -5.082266E+04  1.609487E-09 -4.262002E-09
        53  13  2.757664E+03 -1.590228E+06 -2.027182E+04 -6.223364E+03 -7.316663E-09  6.951818E-09
        53  14  4.229783E+03 -1.581877E+06 -3.300366E+04  7.901616E+03 -6.037188E-10  6.962409E-09
        53  15 -5.852994E+04 -1.590237E+06 -7.292354E+04 -7.048508E+03 -2.102438E-10  4.491253E-09
        53  16 -5.086187E+05 -3.659861E+06 -5.011160E+05  4.197265E+03 -3.669958E-10  1.655090E-09
        53  17 -4.957354E+05 -3.601202E+06 -5.047810E+05  3.493809E+04 -4.036910E-09 -8.622734E-09
        53  18 -5.526492E+05 -3.564770E+06 -5.574796E+05  3.659834E+04  2.992424E-09  1.122195E-08
        53  19  5.138395E+05  4.833831E+05  4.602992E+05 -1.666528E+04 -8.683484E+04 -2.615252E+04
        53  20  5.039131E+05  4.412302E+05  4.385084E+05 -1.921078E+04 -7.909031E+04 -1.235534E+04
        53  21  4.353044E+05  3.878661E+05  4.113471E+05 -5.082270E+04 -2.468641E+04  2.110353E+03
        53  22  2.765849E+03 -1.590226E+06 -2.025715E+04 -6.222260E+03 -8.698176E+04 -1.575148E+04
        53  23  4.236750E+03 -1.581874E+06 -3.298990E+04  7.903731E+03 -7.883321E+04 -3.329782E+04
        53  24 -5.852865E+04 -1.590234E+06 -7.291772E+04 -7.047539E+03 -2.395640E+04 -5.017229E+04
        53  25 -5.086106E+05 -3.659859E+06 -5.011017E+05  4.197643E+03 -8.712859E+04 -5.384855E+03
        53  26 -4.957279E+05 -3.601197E+06 -5.047639E+05  3.494153E+04 -7.857752E+04 -5.417239E+04
        53  27 -5.526458E+05 -3.564758E+06 -5.574588E+05  3.660026E+04 -2.323261E+04 -1.022885E+05
        54   1  6.933242E+04  8.385723E+05  3.950527E+04 -1.198457E+02  2.426092E+04 -4.328039E+02
        54   2  6.942713E+04  8.386472E+05  4.002702E+04 -9.277109E+01  2.417761E+04 -1.113212E+03
        54   3  6.968872E+04  8.388574E+05  4.103463E+04 -5.351193E+01  2.398473E+04 -1.793680E+03
        54   4 -2.034830E+01  5.305887E+05  4.783724E+02  2.700721E+00  2.426216E+04 -3.636157E+02
        54   5  1.834375E+01  5.305438E+05  8.396346E+02 -3.360992E+00  2.417875E+04 -7.805740E+02
        54   6  1.782602E+02  5.305886E+05  1.504084E+03  2.761869E+00  2.398574E+04 -1.197589E+03
        54   7 -6.937698E+04  2.227024E+05 -3.854885E+04  1.251907E+02  2.426341E+04 -2.944601E+02
        54   8 -6.939433E+04  2.225377E+05 -3.834811E+04  8.601088E+01  2.417989E+04 -4.480932E+02
        54   9 -6.933612E+04  2.224170E+05 -3.802689E+04  5.901559E+01  2.398675E+04 -6.017788E+02
        54  10  6.933178E+04  8.385722E+05  3.950416E+04 -1.198372E+02 -1.234390E-09  7.543559E-09
        54  11  6.942650E+04  8.386471E+05  4.002592E+04 -9.274942E+01  9.771190E-09  3.842555E-09
        54  12  6.968810E+04  8.388572E+05  4.103354E+04 -5.347729E+01  2.734027E-09  6.816508E-10
        54  13 -2.098061E+01  5.305886E+05  4.772657E+02  2.707825E+00 -1.334501E-09  3.189641E-10
        54  14  1.771566E+01  5.305437E+05  8.385346E+02 -3.345795E+00  2.368876E-09 -7.506836E-10
        54  15  1.776419E+02  5.305884E+05  1.503000E+03  2.784999E+00  6.732541E-09  4.103058E-10
        54  16 -6.937761E+04  2.227023E+05 -3.854995E+04  1.251965E+02  9.149778E-10 -8.121320E-09
        54  17 -6.939496E+04  2.225376E+05 -3.834920E+04  8.601961E+01 -1.184313E-08 -3.975635E-09
        54  18 -6.933674E+04  2.224169E+05 -3.802797E+04  5.902721E+01  1.889544E-09 -6.175376E-10
        54  19  6.933242E+04  8.385723E+05  3.950527E+04 -1.198457E+02 -2.426092E+04  4.328039E+02
        54  20  6.942713E+04  8.386472E+05  4.002702E+04 -9.277109E+01 -2.417761E+04  1.113212E+03
        54  21  6.968872E+04  8.388574E+05  4.103463E+04 -5.351193E+01 -2.398473E+04  1.793680E+03
        54  22 -2.034830E+01  5.305887E+05  4.783724E+02  2.700721E+00 -2.426216E+04  3.636157E+02
        54  23  1.834375E+01  5.305438E+05  8.396346E+02 -3.360992E+00 -2.417875E+04  7.805740E+02
        54  24  1.782602E+02  5.305886E+05  1.504084E+03  2.761869E+00 -2.398574E+04  1.197589E+03
        54  25 -6.937698E+04  2.227024E+05 -3.854885E+04  1.251907E+02 -2.426341E+04  2.944601E+02
        54  26 -6.939433E+04  2.225377E+05 -3.834811E+04  8.601088E+01 -2.417989E+04  4.480932E+02
        54  27 -6.933612E+04  2.224170E+05 -3.802689E+04  5.901559E+01 -2.398675E+04  6.017788E+02
        55   1  6.985122E+04  8.391186E+05  4.175838E+04 -1.513176E+02  2.386291E+04 -2.150671E+03
        55   2  7.071135E+04  8.388604E+05  4.440016E+04  7.110631E+02  2.318136E+04 -5.903958E+03
        55   3  7.316797E+04  8.394942E+05  4.988363E+04  1.532134E+03  2.168209E+04 -9.657732E+03
        55   4  2.629282E+02  5.306912E+05  1.997584E+03 -9.218848E+00  2.386387E+04 -1.491170E+03
        55   5  9.058944E+02  5.304149E+05  3.567241E+03  1.196066E+01  2.318134E+04 -3.278918E+03
        55   6  2.804830E+03  5.306902E+05  6.615409E+03 -8.174892E+00  2.168089E+04 -5.067139E+03
        55   7 -6.932930E+04  2.223611E+05 -3.776369E+04  1.328158E+02  2.386483E+04 -8.319797E+02
        55   8 -6.890359E+04  2.220665E+05 -3.726637E+04 -6.867679E+02  2.318131E+04 -6.551195E+02
        55   9 -6.756254E+04  2.219828E+05 -3.665396E+04 -1.547673E+03  2.167966E+04 -4.787264E+02
        55  10  6.985061E+04  8.391184E+05  4.175730E+04 -1.512763E+02  1.134651E-09 -7.196478E-08
        55  11  7.071077E+04  8.388602E+05  4.439909E+04  7.111733E+02  9.706622E-09 -1.733001E-09
        55  12  7.316744E+04  8.394940E+05  4.988257E+04  1.532303E+03  3.358631E-09  7.089061E-08
        55  13  2.623160E+02  5.306910E+05  1.996509E+03 -9.190194E+00  7.549620E-09  4.070733E-10
        55  14  9.053143E+02  5.304148E+05  3.566211E+03  1.202186E+01  1.154970E-09 -1.017181E-09
        55  15  2.804318E+03  5.306901E+05  6.614478E+03 -8.086430E+00  8.567181E-10  5.670010E-10
        55  16 -6.932992E+04  2.223609E+05 -3.776476E+04  1.328317E+02  3.107792E-09  7.117166E-08
        55  17 -6.890417E+04  2.220664E+05 -3.726738E+04 -6.867557E+02  5.290786E-09  1.261477E-09
        55  18 -6.756304E+04  2.219827E+05 -3.665485E+04 -1.547665E+03  1.829697E-09 -7.062356E-08
        55  19  6.985122E+04  8.391186E+05  4.175838E+04 -1.513176E+02 -2.386291E+04  2.150671E+03
        55  20  7.071135E+04  8.388604E+05  4.440016E+04  7.110631E+02 -2.318136E+04  5.903958E+03
        55  21  7.316797E+04  8.394942E+05  4.988363E+04  1.532134E+03 -2.168209E+04  9.657732E+03
        55  22  2.629282E+02  5.306912E+05  1.997584E+03 -9.218848E+00 -2.386387E+04  1.491170E+03
        55  23  9.058944E+02  5.304149E+05  3.567241E+03  1.196066E+01 -2.318134E+04  3.278918E+03
        55  24  2.804830E+03  5.306902E+05  6.615409E+03 -8.174892E+00 -2.168089E+04  5.067139E+03
        55  25 -6.932930E+04  2.223611E+05 -3.776369E+04  1.328158E+02 -2.386483E+04  8.319797E+02
        55  26 -6.890359E+04  2.220665E+05 -3.726637E+04 -6.867679E+02 -2.318131E+04  6.551195E+02
        55  27 -6.756254E+04  2.219828E+05 -3.665396E+04 -1.547673E+03 -2.167966E+04  4.787264E+02
        56   1  7.466503E+04  8.408630E+05  5.376151E+04  9.573517E+02  2.073475E+04 -1.129472E+04
        56   2  8.321851E+04  8.377744E+05  6.906705E+04  1.107298E+04  1.560888E+04 -3.419909E+04
        56   3  1.067062E+05  8.414014E+05  1.030052E+05  2.070521E+04  4.428034E+03 -5.710781E+04
        56   4  3.865290E+03  5.314998E+05  8.871624E+03 -1.074234E+02  2.073312E+04 -6.222057E+03
        56   5  1.107313E+04  5.293993E+05  1.639569E+04  1.412734E+02  1.559906E+04 -1.457712E+04
        56   6  3.069483E+04  5.314928E+05  3.245901E+04 -9.355567E+01  4.409383E+03 -2.293616E+04
        56   7 -6.693883E+04  2.222330E+05 -3.601974E+04 -1.171634E+03  2.073147E+04 -1.151816E+03
        56   8 -6.107664E+04  2.211187E+05 -3.627731E+04 -1.078482E+04  1.558855E+04  5.035432E+03
        56   9 -4.532093E+04  2.216766E+05 -3.808881E+04 -2.088185E+04  4.388441E+03  1.121860E+04
        56  10  7.466453E+04  8.408628E+05  5.376047E+04  9.575403E+02  4.921878E-09  7.298063E-08
        56  11  8.321793E+04  8.377731E+05  6.906440E+04  1.107341E+04  6.011601E-09 -3.724847E-10
        56  12  1.067053E+05  8.413979E+05  1.029990E+05  2.070542E+04  3.190344E-09 -7.107075E-08
        56  13  3.864818E+03  5.314996E+05  8.870744E+03 -1.073195E+02 -1.029521E-08  5.711516E-10
        56  14  1.107282E+04  5.293991E+05  1.639484E+04  1.414565E+02 -2.710634E-09 -1.177101E-09
        56  15  3.069467E+04  5.314922E+05  3.245798E+04 -9.347423E+01 -7.389760E-09  7.726647E-10
        56  16 -6.693929E+04  2.222328E+05 -3.602055E+04 -1.171615E+03  1.753149E-09 -7.386650E-08
        56  17 -6.107690E+04  2.211187E+05 -3.627782E+04 -1.078489E+04 -6.232406E-10  1.086263E-11
        56  18 -4.532098E+04  2.216765E+05 -3.808908E+04 -2.088189E+04  1.814629E-09  7.126598E-08
        56  19  7.466503E+04  8.408630E+05  5.376151E+04  9.573517E+02 -2.073475E+04  1.129472E+04
        56  20  8.321851E+04  8.377744E+05  6.906705E+04  1.107298E+04 -1.560888E+04  3.419909E+04
        56  21  1.067062E+05  8.414014E+05  1.030052E+05  2.070521E+04 -4.428034E+03  5.710781E+04
        56  22  3.865290E+03  5.314998E+05  8.871624E+03 -1.074234E+02 -2.073312E+04  6.222057E+03
        56  23  1.107313E+04  5.293993E+05  1.639569E+04  1.412734E+02 -1.559906E+04  1.457712E+04
        56  24  3.069483E+04  5.314928E+05  3.245901E+04 -9.355567E+01 -4.409383E+03  2.293616E+04
        56  25 -6.693883E+04  2.222330E+05 -3.601974E+04 -1.171634E+03 -2.073147E+04  1.151816E+03
        56  26 -6.107664E+04  2.211187E+05 -3.627731E+04 -1.078482E+04 -1.558855E+04 -5.035432E+03
        56  27 -4.532093E+04  2.216766E+05 -3.808881E+04 -2.088185E+04 -4.388441E+03 -1.121860E+04
        57   1  1.460445E+06  3.620058E+06  2.137447E+06  8.819095E+05 -1.689132E+06 -8.000227E+05
        57   2  1.935164E+05  3.289038E+06  2.847926E+06 -2.393636E+06 -1.013312E+06 -7.615074E+05
        57   3 -4.430242E+06  4.300232E+06  2.734797E+06 -8.694399E+05 -4.913657E+05 -3.718959E+05
        57   4 -1.634814E+07 -3.069675E+06 -2.777393E+06 -3.891559E+06 -1.736257E+06 -8.201256E+05
        57   5 -1.446566E+07 -2.639424E+06 -1.257315E+06 -6.730816E+06 -9.994622E+05 -7.564547E+05
        57   6 -1.601974E+07 -9.324721E+05 -6.393497E+05 -4.761144E+06 -4.148552E+05 -3.373879E+05
        57   7 -3.384964E+07 -9.744433E+06 -7.721721E+06 -8.542713E+06 -1.781118E+06 -8.394305E+05
        57   8 -2.891417E+07 -8.549606E+06 -5.383261E+06 -1.097292E+07 -9.856442E+05 -7.514271E+05
        57   9 -2.747597E+07 -6.145573E+06 -4.027387E+06 -8.582603E+06 -3.398998E+05 -3.036358E+05
        57  10  1.457222E+06  3.618613E+06  2.130906E+06  8.808269E+05 -1.120970E-08  6.717855E-09
        57  11  1.922570E+05  3.288139E+06  2.844899E+06 -2.394256E+06 -2.760424E-08  1.509868E-08
        57  12 -4.430539E+06  4.300019E+06  2.734081E+06 -8.695868E+05  7.657703E-09 -6.066408E-10
        57  13 -1.635164E+07 -3.071247E+06 -2.784513E+06 -3.892724E+06  4.066464E-09 -3.646209E-10
        57  14 -1.446692E+07 -2.640326E+06 -1.260349E+06 -6.731434E+06 -1.754177E-08 -4.806814E-09
        57  15 -1.601996E+07 -9.326430E+05 -6.398995E+05 -4.761258E+06  5.518972E-09 -8.616461E-09
        57  16 -3.385342E+07 -9.746136E+06 -7.729445E+06 -8.543961E+06  5.153246E-09  4.831010E-09
        57  17 -2.891543E+07 -8.550511E+06 -5.386301E+06 -1.097353E+07  2.024321E-08 -7.611839E-09
        57  18 -2.747612E+07 -6.145707E+06 -4.027794E+06 -8.582688E+06 -7.597965E-09  1.620956E-08
        57  19  1.460445E+06  3.620058E+06  2.137447E+06  8.819095E+05  1.689132E+06  8.000227E+05
        57  20  1.935164E+05  3.289038E+06  2.847926E+06 -2.393636E+06  1.013312E+06  7.615074E+05
        57  21 -4.430242E+06  4.300232E+06  2.734797E+06 -8.694399E+05  4.913657E+05  3.718959E+05
        57  22 -1.634814E+07 -3.069675E+06 -2.777393E+06 -3.891559E+06  1.736257E+06  8.201256E+05
        57  23 -1.446566E+07 -2.639424E+06 -1.257315E+06 -6.730816E+06  9.994622E+05  7.564547E+05
        57  24 -1.601974E+07 -9.324721E+05 -6.393497E+05 -4.761144E+06  4.148552E+05  3.373879E+05
        57  25 -3.384964E+07 -9.744433E+06 -7.721721E+06 -8.542713E+06  1.781118E+06  8.394305E+05
        57  26 -2.891417E+07 -8.549606E+06 -5.383261E+06 -1.097292E+07  9.856442E+05  7.514271E+05
        57  27 -2.747597E+07 -6.145573E+06 -4.027387E+06 -8.582603E+06  3.398998E+05  3.036358E+05
        58   1 -2.035278E+07 -2.904942E+06 -1.747438E+06 -5.763918E+06 -4.216411E+05 -1.730292E+05
        58   2 -2.143051E+07 -6.318893E+06 -2.408090E+06 -9.114610E+06 -3.290457E+05  3.580506E+03
        58   3 -2.723807E+07 -5.515889E+06 -3.282650E+06 -7.693252E+06 -2.260231E+05  1.635281E+05
        58   4 -1.641677E+07 -1.080617E+06 -5.774298E+05 -4.418659E+06 -3.981860E+05 -1.624028E+05
        58   5 -1.402999E+07 -3.156739E+06 -2.735266E+05 -6.810927E+06 -3.086149E+05  1.240990E+04
        58   6 -1.637512E+07 -1.012961E+06 -1.780031E+05 -4.440760E+06 -2.077472E+05  1.710174E+05
        58   7 -1.246512E+07  7.462105E+05  5.909238E+05 -3.064923E+06 -3.745462E+05 -1.516841E+05
        58   8 -6.574379E+06  1.155034E+04  1.855489E+06 -4.480587E+06 -2.878784E+05  2.137496E+04
        58   9 -5.393117E+06  3.500926E+06  2.914907E+06 -1.133674E+06 -1.890795E+05  1.786747E+05
        58  10 -2.035299E+07 -2.905024E+06 -1.747842E+06 -5.763978E+06 -2.994872E-09  2.996119E-09
        58  11 -2.143063E+07 -6.318923E+06 -2.408300E+06 -9.114609E+06  2.217409E-08  2.299749E-08
        58  12 -2.723813E+07 -5.515931E+06 -3.282798E+06 -7.693222E+06  1.469431E-08 -3.537732E-08
        58  13 -1.641695E+07 -1.080690E+06 -5.777873E+05 -4.418712E+06  4.673977E-09  2.795462E-08
        58  14 -1.403009E+07 -3.156765E+06 -2.737096E+05 -6.810924E+06  1.779954E-08 -3.491995E-08
        58  15 -1.637517E+07 -1.013004E+06 -1.781397E+05 -4.440732E+06 -2.609489E-08  1.610703E-08
        58  16 -1.246528E+07  7.461469E+05  5.906104E+05 -3.064969E+06  3.262210E-09 -1.979130E-08
        58  17 -6.574468E+06  1.152743E+04  1.855331E+06 -4.480582E+06 -2.162434E-08 -7.013857E-08
        58  18 -5.393164E+06  3.500882E+06  2.914780E+06 -1.133647E+06  2.354058E-09  1.908199E-08
        58  19 -2.035278E+07 -2.904942E+06 -1.747438E+06 -5.763918E+06  4.216411E+05  1.730292E+05
        58  20 -2.143051E+07 -6.318893E+06 -2.408090E+06 -9.114610E+06  3.290457E+05 -3.580506E+03
        58  21 -2.723807E+07 -5.515889E+06 -3.282650E+06 -7.693252E+06  2.260231E+05 -1.635281E+05
        58  22 -1.641677E+07 -1.080617E+06 -5.774298E+05 -4.418659E+06  3.981860E+05  1.624028E+05
        58  23 -1.402999E+07 -3.156739E+06 -2.735266E+05 -6.810927E+06  3.086149E+05 -1.240990E+04
        58  24 -1.637512E+07 -1.012961E+06 -1.780031E+05 -4.440760E+06  2.077472E+05 -1.710174E+05
        58  25 -1.246512E+07  7.462105E+05  5.909238E+05 -3.064923E+06  3.745462E+05  1.516841E+05
        58  26 -6.574379E+06  1.155034E+04  1.855489E+06 -4.480587E+06  2.878784E+05 -2.137496E+04
        58  27 -5.393117E+06  3.500926E+06  2.914907E+06 -1.133674E+06  1.890795E+05 -1.786747E+05
        59   1 -3.567245E+07 -1.020607E+07 -5.931792E+06 -1.122894E+07 -2.770558E+05  2.289790E+05
        59   2 -3.775953E+07 -1.066323E+07 -6.381229E+06 -1.165935E+07 -1.981550E+05  3.525632E+05
        59   3 -3.739910E+07 -9.768223E+06 -6.110543E+06 -1.048681E+07 -6.837392E+04  3.416315E+05
        59   4 -1.486835E+07 -1.707096E+06  3.925261E+04 -5.161674E+06 -2.492623E+05  2.394340E+05
        59   5 -1.613172E+07 -2.424603E+06 -2.947401E+05 -5.952275E+06 -1.960091E+05  3.522395E+05
        59   6 -1.487311E+07 -1.733961E+06  1.175678E+05 -5.134020E+06 -9.255865E+04  3.326529E+05
        59   7  6.373602E+06  6.829317E+06  5.967108E+06  1.102826E+06 -2.203089E+05  2.503899E+05
        59   8  5.966588E+06  5.838838E+06  5.746812E+06 -5.520142E+04 -1.937635E+05  3.519846E+05
        59   9  8.157807E+06  6.312898E+06  6.298711E+06  4.004724E+05 -1.177753E+05  3.233636E+05
        59  10 -3.567255E+07 -1.020614E+07 -5.932037E+06 -1.122889E+07  1.294992E-08 -2.821490E-08
        59  11 -3.775960E+07 -1.066338E+07 -6.381534E+06 -1.165930E+07  7.111765E-09  2.555062E-08
        59  12 -3.739913E+07 -9.768349E+06 -6.110769E+06 -1.048679E+07 -4.503698E-09  3.110657E-08
        59  13 -1.486843E+07 -1.707174E+06  3.902827E+04 -5.161626E+06 -8.088918E-09  2.751279E-08
        59  14 -1.613179E+07 -2.424745E+06 -2.950432E+05 -5.952219E+06 -1.136318E-08 -7.531425E-09
        59  15 -1.487314E+07 -1.734081E+06  1.173455E+05 -5.133995E+06  3.277064E-09 -7.580925E-09
        59  16  6.373534E+06  6.829237E+06  5.966901E+06  1.102870E+06 -1.419788E-08  3.811110E-08
        59  17  5.966515E+06  5.838696E+06  5.746511E+06 -5.514707E+04 -6.253818E-09 -1.344361E-08
        59  18  8.157765E+06  6.312783E+06  6.298491E+06  4.005028E+05  1.409092E-08 -5.757109E-08
        59  19 -3.567245E+07 -1.020607E+07 -5.931792E+06 -1.122894E+07  2.770558E+05 -2.289790E+05
        59  20 -3.775953E+07 -1.066323E+07 -6.381229E+06 -1.165935E+07  1.981550E+05 -3.525632E+05
        59  21 -3.739910E+07 -9.768223E+06 -6.110543E+06 -1.048681E+07  6.837392E+04 -3.416315E+05
        59  22 -1.486835E+07 -1.707096E+06  3.925261E+04 -5.161674E+06  2.492623E+05 -2.394340E+05
        59  23 -1.613172E+07 -2.424603E+06 -2.947401E+05 -5.952275E+06  1.960091E+05 -3.522395E+05
        59  24 -1.487311E+07 -1.733961E+06  1.175678E+05 -5.134020E+06  9.255865E+04 -3.326529E+05
        59  25  6.373602E+06  6.829317E+06  5.967108E+06  1.102826E+06  2.203089E+05 -2.503899E+05
        59  26  5.966588E+06  5.838838E+06  5.746812E+06 -5.520142E+04  1.937635E+05 -3.519846E+05
        59  27  8.157807E+06  6.312898E+06  6.298711E+06  4.004724E+05  1.177753E+05 -3.233636E+05
        60   1 -3.037861E+07 -8.296761E+06 -4.358190E+06 -1.004766E+07 -1.057255E+05  2.805851E+05
        60   2 -2.937878E+07 -5.415420E+06 -3.559516E+06 -6.987907E+06 -4.441762E+04  2.257772E+05
        60   3 -2.434251E+07 -5.642167E+06 -2.598469E+06 -8.437524E+06  3.440981E+04  9.012279E+04
        60   4 -1.445967E+07 -2.795775E+06 -1.548926E+04 -6.451649E+06 -1.119997E+05  2.780603E+05
        60   5 -1.648448E+07 -1.100304E+06 -7.309041E+04 -4.248425E+06 -6.740597E+04  2.187413E+05
        60   6 -1.446781E+07 -2.493196E+06  4.808180E+04 -6.551362E+06 -5.731297E+03  7.930712E+04
        60   7  1.708776E+06  2.708991E+06  4.304292E+06 -2.770102E+06 -1.184549E+05  2.754906E+05
        60   8 -3.427291E+06  3.215094E+06  3.398548E+06 -1.457038E+06 -9.092623E+04  2.115558E+05
        60   9 -4.498724E+06  6.543196E+05  2.686134E+06 -4.638225E+06 -4.657216E+04  6.831049E+04
        60  10 -3.037864E+07 -8.296848E+06 -4.358357E+06 -1.004764E+07  1.963291E-08  2.926042E-08
        60  11 -2.937879E+07 -5.415475E+06 -3.559615E+06 -6.987899E+06  1.291300E-08 -6.163112E-09
        60  12 -2.434251E+07 -5.642176E+06 -2.598486E+06 -8.437527E+06 -2.651292E-08 -5.303192E-08
        60  13 -1.445970E+07 -2.795860E+06 -1.565673E+04 -6.451624E+06  2.517749E-09 -5.259921E-08
        60  14 -1.648450E+07 -1.100356E+06 -7.318805E+04 -4.248413E+06  2.095127E-08  2.681777E-08
        60  15 -1.446781E+07 -2.493203E+06  4.806997E+04 -6.551361E+06  1.497927E-08 -1.912053E-08
        60  16  1.708741E+06  2.708907E+06  4.304125E+06 -2.770076E+06 -4.614040E-09 -3.073284E-08
        60  17 -3.427312E+06  3.215044E+06  3.398449E+06 -1.457023E+06 -6.553168E-08 -1.215988E-08
        60  18 -4.498728E+06  6.543141E+05  2.686121E+06 -4.638222E+06 -7.476655E-09  2.065511E-08
        60  19 -3.037861E+07 -8.296761E+06 -4.358190E+06 -1.004766E+07  1.057255E+05 -2.805851E+05
        60  20 -2.937878E+07 -5.415420E+06 -3.559516E+06 -6.987907E+06  4.441762E+04 -2.257772E+05
        60  21 -2.434251E+07 -5.642167E+06 -2.598469E+06 -8.437524E+06 -3.440981E+04 -9.012279E+04
        60  22 -1.445967E+07 -2.795775E+06 -1.548926E+04 -6.451649E+06  1.119997E+05 -2.780603E+05
        60  23 -1.648448E+07 -1.100304E+06 -7.309041E+04 -4.248425E+06  6.740597E+04 -2.187413E+05
        60  24 -1.446781E+07 -2.493196E+06  4.808180E+04 -6.551362E+06  5.731297E+03 -7.930712E+04
        60  25  1.708776E+06  2.708991E+06  4.304292E+06 -2.770102E+06  1.184549E+05 -2.754906E+05
        60  26 -3.427291E+06  3.215094E+06  3.398548E+06 -1.457038E+06  9.092623E+04 -2.115558E+05
        60  27 -4.498724E+06  6.543196E+05  2.686134E+06 -4.638225E+06  4.657216E+04 -6.831049E+04
        61   1 -7.036746E+06 -2.213211E+05  2.003702E+06 -5.234358E+06  4.014121E+04 -2.824429E+04
        61   2 -5.610736E+06  2.545087E+06  2.828489E+06 -1.846822E+06  8.112221E+04 -1.735494E+05
        61   3 -2.940703E+05  1.936613E+06  3.751214E+06 -3.408614E+06  1.088159E+05 -2.531434E+05
        61   4 -1.449378E+07 -2.567363E+06  2.628627E+04 -6.646502E+06  5.701320E+02 -3.879140E+04
        61   5 -1.642587E+07 -1.006385E+06 -4.548725E+04 -4.122262E+06  5.588987E+04 -1.810010E+05
        61   6 -1.448641E+07 -2.836162E+06 -3.114194E+04 -6.558224E+06  9.775700E+04 -2.569281E+05
        61   7 -2.189791E+07 -4.914333E+06 -1.955894E+06 -8.043745E+06 -3.849317E+04 -4.920888E+04
        61   8 -2.712914E+07 -4.557967E+06 -2.929589E+06 -6.362637E+06  3.112953E+04 -1.883200E+05
        61   9 -2.848645E+07 -7.606960E+06 -3.831061E+06 -9.643588E+06  8.697000E+04 -2.606379E+05
        61  10 -7.036748E+06 -2.213224E+05  2.003698E+06 -5.234357E+06  2.457510E-08  8.348287E-09
        61  11 -5.610751E+06  2.545053E+06  2.828420E+06 -1.846811E+06 -2.591112E-08  3.499913E-08
        61  12 -2.940998E+05  1.936542E+06  3.751072E+06 -3.408592E+06 -1.241740E-08 -2.267660E-08
        61  13 -1.449378E+07 -2.567365E+06  2.628345E+04 -6.646502E+06  1.879276E-08  1.615398E-08
        61  14 -1.642589E+07 -1.006420E+06 -4.555413E+04 -4.122254E+06  2.143211E-08  5.161070E-08
        61  15 -1.448643E+07 -2.836235E+06 -3.128277E+04 -6.558204E+06  1.025802E-08  7.482166E-08
        61  16 -2.189792E+07 -4.914336E+06 -1.955902E+06 -8.043746E+06 -3.586614E-08  5.627446E-08
        61  17 -2.712915E+07 -4.558005E+06 -2.929657E+06 -6.362632E+06 -1.436350E-08 -6.086430E-08
        61  18 -2.848647E+07 -7.607035E+06 -3.831202E+06 -9.643570E+06  3.989176E-09  2.212671E-08
        61  19 -7.036746E+06 -2.213211E+05  2.003702E+06 -5.234358E+06 -4.014121E+04  2.824429E+04
        61  20 -5.610736E+06  2.545087E+06  2.828489E+06 -1.846822E+06 -8.112221E+04  1.735494E+05
        61  21 -2.940703E+05  1.936613E+06  3.751214E+06 -3.408614E+06 -1.088159E+05  2.531434E+05
        61  22 -1.449378E+07 -2.567363E+06  2.628627E+04 -6.646502E+06 -5.701320E+02  3.879140E+04
        61  23 -1.642587E+07 -1.006385E+06 -4.548725E+04 -4.122262E+06 -5.588987E+04  1.810010E+05
        61  24 -1.448641E+07 -2.836162E+06 -3.114194E+04 -6.558224E+06 -9.775700E+04  2.569281E+05
        61  25 -2.189791E+07 -4.914333E+06 -1.955894E+06 -8.043745E+06  3.849317E+04  4.920888E+04
        61  26 -2.712914E+07 -4.557967E+06 -2.929589E+06 -6.362637E+06 -3.112953E+04  1.883200E+05
        61  27 -2.848645E+07 -7.606960E+06 -3.831061E+06 -9.643588E+06 -8.697000E+04  2.606379E+05
        62   1  8.113557E+06  6.040202E+06  6.237858E+06  4.990503E+04  1.116189E+05 -3.121034E+05
        62   2  6.071572E+06  5.945808E+06  5.790818E+06  4.441619E+04  1.917017E+05 -3.565378E+05
        62   3  7.207879E+06  6.807646E+06  6.130507E+06  1.043692E+06  2.244373E+05 -2.687227E+05
        62   4 -1.474610E+07 -1.814131E+06  1.270606E+05 -5.282597E+06  8.285030E+04 -3.222310E+05
        62   5 -1.629534E+07 -2.283201E+06 -2.968743E+05 -5.781732E+06  1.907947E+05 -3.579595E+05
        62   6 -1.474228E+07 -1.855030E+06  3.979049E+04 -5.282822E+06  2.506014E+05 -2.592343E+05
        62   7 -3.710939E+07 -9.659307E+06 -6.029630E+06 -1.044194E+07  5.524173E+04 -3.320157E+05
        62   8 -3.818134E+07 -1.049020E+07 -6.430195E+06 -1.141876E+07  1.899122E+05 -3.594050E+05
        62   9 -3.622635E+07 -1.048167E+07 -6.096535E+06 -1.140462E+07  2.756838E+05 -2.502064E+05
        62  10  8.113518E+06  6.040095E+06  6.237653E+06  4.993276E+04  8.618643E-09 -2.046113E-10
        62  11  6.071500E+06  5.945663E+06  5.790512E+06  4.447066E+04  7.273344E-09 -1.045313E-08
        62  12  7.207806E+06  6.807556E+06  6.130278E+06  1.043741E+06 -2.349808E-08  1.077795E-09
        62  13 -1.474613E+07 -1.814243E+06  1.268542E+05 -5.282576E+06  7.375610E-09  5.525705E-09
        62  14 -1.629541E+07 -2.283347E+06 -2.971812E+05 -5.781677E+06  4.674756E-09 -1.752035E-08
        62  15 -1.474237E+07 -1.855118E+06  3.954666E+04 -5.282770E+06  2.609589E-09  6.873167E-09
        62  16 -3.710943E+07 -9.659426E+06 -6.029842E+06 -1.044192E+07 -6.838442E-10  2.130583E-08
        62  17 -3.818141E+07 -1.049035E+07 -6.430503E+06 -1.141870E+07  9.628385E-09  1.906802E-08
        62  18 -3.622645E+07 -1.048175E+07 -6.096798E+06 -1.140456E+07  2.553927E-08 -1.660524E-08
        62  19  8.113557E+06  6.040202E+06  6.237858E+06  4.990503E+04 -1.116189E+05  3.121034E+05
        62  20  6.071572E+06  5.945808E+06  5.790818E+06  4.441619E+04 -1.917017E+05  3.565378E+05
        62  21  7.207879E+06  6.807646E+06  6.130507E+06  1.043692E+06 -2.244373E+05  2.687227E+05
        62  22 -1.474610E+07 -1.814131E+06  1.270606E+05 -5.282597E+06 -8.285030E+04  3.222310E+05
        62  23 -1.629534E+07 -2.283201E+06 -2.968743E+05 -5.781732E+06 -1.907947E+05  3.579595E+05
        62  24 -1.474228E+07 -1.855030E+06  3.979049E+04 -5.282822E+06 -2.506014E+05  2.592343E+05
        62  25 -3.710939E+07 -9.659307E+06 -6.029630E+06 -1.044194E+07 -5.524173E+04  3.320157E+05
        62  26 -3.818134E+07 -1.049020E+07 -6.430195E+06 -1.141876E+07 -1.899122E+05  3.594050E+05
        62  27 -3.622635E+07 -1.048167E+07 -6.096535E+06 -1.140462E+07 -2.756838E+05  2.502064E+05
        63   1 -3.110717E+06  4.261359E+06  3.527600E+06 -5.500598E+05  1.973234E+05 -2.071524E+05
        63   2 -4.446150E+06  9.776568E+05  2.483131E+06 -3.762726E+06  3.002287E+05 -6.335166E+04
        63   3 -9.945950E+06  1.787620E+06  1.319918E+06 -2.324668E+06  3.834049E+05  1.118697E+05
        63   4 -1.626616E+07 -1.076511E+06 -1.616394E+05 -4.453777E+06  2.114443E+05 -2.016724E+05
        63   5 -1.418868E+07 -3.126950E+06 -2.883305E+05 -6.781466E+06  3.194574E+05 -5.521979E+04
        63   6 -1.630307E+07 -1.091129E+06 -5.405352E+05 -4.457067E+06  4.084622E+05  1.232010E+05
        63   7 -2.925153E+07 -6.399664E+06 -3.867586E+06 -8.280732E+06  2.252070E+05 -1.963473E+05
        63   8 -2.383743E+07 -7.221498E+06 -3.069203E+06 -9.755313E+06  3.383098E+05 -4.725450E+04
        63   9 -2.261986E+07 -3.963992E+06 -2.405204E+06 -6.568244E+06  4.331985E+05  1.343771E+05
        63  10 -3.110770E+06  4.261303E+06  3.527447E+06 -5.500270E+05 -1.038567E-08 -8.451721E-09
        63  11 -4.446248E+06  9.776283E+05  2.482953E+06 -3.762711E+06 -3.982537E-08  2.825893E-08
        63  12 -9.946114E+06  1.787567E+06  1.319613E+06 -2.324703E+06 -3.080149E-09 -1.431105E-08
        63  13 -1.626622E+07 -1.076566E+06 -1.618000E+05 -4.453743E+06 -7.573111E-09 -9.564230E-09
        63  14 -1.418879E+07 -3.126981E+06 -2.885312E+05 -6.781452E+06  1.029946E-08  1.972488E-09
        63  15 -1.630326E+07 -1.091192E+06 -5.408872E+05 -4.457108E+06 -4.736675E-09  5.479070E-08
        63  16 -2.925160E+07 -6.399719E+06 -3.867755E+06 -8.280696E+06  2.553122E-08  1.689562E-08
        63  17 -2.383755E+07 -7.221532E+06 -3.069429E+06 -9.755301E+06  3.070029E-08  1.323211E-08
        63  18 -2.262007E+07 -3.964065E+06 -2.405606E+06 -6.568292E+06 -1.658801E-08  3.002239E-08
        63  19 -3.110717E+06  4.261359E+06  3.527600E+06 -5.500598E+05 -1.973234E+05  2.071524E+05
        63  20 -4.446150E+06  9.776568E+05  2.483131E+06 -3.762726E+06 -3.002287E+05  6.335166E+04
        63  21 -9.945950E+06  1.787620E+06  1.319918E+06 -2.324668E+06 -3.834049E+05 -1.118697E+05
        63  22 -1.626616E+07 -1.076511E+06 -1.616394E+05 -4.453777E+06 -2.114443E+05  2.016724E+05
        63  23 -1.418868E+07 -3.126950E+06 -2.883305E+05 -6.781466E+06 -3.194574E+05  5.521979E+04
        63  24 -1.630307E+07 -1.091129E+06 -5.405352E+05 -4.457067E+06 -4.084622E+05 -1.232010E+05
        63  25 -2.925153E+07 -6.399664E+06 -3.867586E+06 -8.280732E+06 -2.252070E+05  1.963473E+05
        63  26 -2.383743E+07 -7.221498E+06 -3.069203E+06 -9.755313E+06 -3.383098E+05  4.725450E+04
        63  27 -2.261986E+07 -3.963992E+06 -2.405204E+06 -6.568244E+06 -4.331985E+05 -1.343771E+05
        64   1 -2.548382E+07 -5.164262E+06 -3.403824E+06 -7.861403E+06  3.497133E+05  2.654700E+05
        64   2 -2.676463E+07 -7.875700E+06 -4.772945E+06 -1.050787E+07  9.642580E+05  7.082784E+05
        64   3 -3.227564E+07 -9.015402E+06 -7.182348E+06 -8.131804E+06  1.718779E+06  8.194127E+05
        64   4 -1.617383E+07 -8.732648E+05 -6.405240E+05 -4.707705E+06  4.217859E+05  2.982284E+05
        64   5 -1.424714E+07 -2.713052E+06 -1.194691E+06 -6.787484E+06  9.784313E+05  7.136990E+05
        64   6 -1.650281E+07 -2.925741E+06 -2.715083E+06 -3.856467E+06  1.677915E+06  8.014011E+05
        64   7 -6.775881E+06  3.431448E+06  2.113550E+06 -1.506774E+06  4.950853E+05  3.315945E+05
        64   8 -1.571664E+06  2.463978E+06  2.367972E+06 -2.994886E+06  9.926889E+05  7.191624E+05
        64   9 -4.804270E+05  3.177383E+06  1.728072E+06  5.202437E+05  1.635215E+06  7.827299E+05
        64  10 -2.548398E+07 -5.164374E+06 -3.404202E+06 -7.861479E+06  1.979472E-09  1.795646E-08
        64  11 -2.676582E+07 -7.876521E+06 -4.775770E+06 -1.050844E+07 -3.080341E-09 -5.922936E-08
        64  12 -3.227916E+07 -9.017000E+06 -7.189551E+06 -8.132978E+06 -2.815441E-09 -2.360515E-08
        64  13 -1.617405E+07 -8.734106E+05 -6.410380E+05 -4.707808E+06  4.276358E-08 -4.501830E-08
        64  14 -1.424833E+07 -2.713874E+06 -1.197524E+06 -6.788055E+06  7.505276E-09  1.751994E-08
        64  15 -1.650608E+07 -2.927223E+06 -2.721761E+06 -3.857566E+06  9.099357E-09 -8.397291E-09
        64  16 -6.776175E+06  3.431263E+06  2.112877E+06 -1.506907E+06 -1.671819E-08 -3.683359E-08
        64  17 -1.572865E+06  2.463155E+06  2.365131E+06 -2.995461E+06  2.015938E-08 -4.399683E-08
        64  18 -4.834598E+05  3.176010E+06  1.721900E+06  5.192166E+05  2.175254E-08 -1.957851E-08
        64  19 -2.548382E+07 -5.164262E+06 -3.403824E+06 -7.861403E+06 -3.497133E+05 -2.654700E+05
        64  20 -2.676463E+07 -7.875700E+06 -4.772945E+06 -1.050787E+07 -9.642580E+05 -7.082784E+05
        64  21 -3.227564E+07 -9.015402E+06 -7.182348E+06 -8.131804E+06 -1.718779E+06 -8.194127E+05
        64  22 -1.617383E+07 -8.732648E+05 -6.405240E+05 -4.707705E+06 -4.217859E+05 -2.982284E+05
        64  23 -1.424714E+07 -2.713052E+06 -1.194691E+06 -6.787484E+06 -9.784313E+05 -7.136990E+05
        64  24 -1.650281E+07 -2.925741E+06 -2.715083E+06 -3.856467E+06 -1.677915E+06 -8.014011E+05
        64  25 -6.775881E+06  3.431448E+06  2.113550E+06 -1.506774E+06 -4.950853E+05 -3.315945E+05
        64  26 -1.571664E+06  2.463978E+06  2.367972E+06 -2.994886E+06 -9.926889E+05 -7.191624E+05
        64  27 -4.804270E+05  3.177383E+06  1.728072E+06  5.202437E+05 -1.635215E+06 -7.827299E+05
        65   1 -1.314045E+06 -1.132290E+05 -6.461229E+04 -1.131411E+04  1.390428E+05  5.834377E+03
        65   2 -1.341943E+06 -3.070825E+05 -1.814194E+05 -3.407334E+03  9.223821E+04  1.256150E+04
        65   3 -1.289734E+06 -2.723522E+05 -2.072131E+05 -2.861984E+04  4.554794E+04  1.025548E+04
        65   4 -2.234333E+05  1.592335E+05  2.078273E+05 -1.594560E+04  1.409206E+05  5.855920E+03
        65   5 -2.636074E+05 -3.744059E+04  8.733312E+04  1.714671E+03  9.274330E+04  1.256537E+04
        65   6 -2.235283E+05 -5.491824E+03  5.869821E+04 -1.374016E+04  4.468123E+04  1.024713E+04
        65   7  8.682590E+05  4.316066E+05  4.801773E+05 -2.058889E+04  1.428016E+05  5.877417E+03
        65   8  8.157840E+05  2.321137E+05  3.559982E+05  6.842597E+03  9.324914E+04  1.256923E+04
        65   9  8.437098E+05  2.612834E+05  3.245240E+05  1.162809E+03  4.381297E+04  1.023875E+04
        65  10 -1.314066E+06 -1.132343E+05 -6.464876E+04 -1.131476E+04 -5.826430E-09  4.799557E-09
        65  11 -1.341952E+06 -3.070849E+05 -1.814357E+05 -3.408268E+03 -9.971429E-09 -4.434657E-09
        65  12 -1.289736E+06 -2.723529E+05 -2.072172E+05 -2.862022E+04 -1.995407E-09 -2.123200E-09
        65  13 -2.234547E+05  1.592281E+05  2.077899E+05 -1.594626E+04 -2.563507E-11  1.883291E-09
        65  14 -2.636167E+05 -3.744307E+04  8.731666E+04  1.713732E+03 -8.401544E-09 -1.509404E-08
        65  15 -2.235304E+05 -5.492473E+03  5.869426E+04 -1.374053E+04  7.841150E-10 -1.759944E-09
        65  16  8.682371E+05  4.316011E+05  4.801389E+05 -2.058957E+04  6.161837E-09 -1.035579E-09
        65  17  8.157747E+05  2.321112E+05  3.559816E+05  6.841654E+03  1.996134E-08 -2.265758E-09
        65  18  8.437078E+05  2.612828E+05  3.245202E+05  1.162448E+03  9.995676E-10 -6.374118E-09
        65  19 -1.314045E+06 -1.132290E+05 -6.461229E+04 -1.131411E+04 -1.390428E+05 -5.834377E+03
        65  20 -1.341943E+06 -3.070825E+05 -1.814194E+05 -3.407334E+03 -9.223821E+04 -1.256150E+04
        65  21 -1.289734E+06 -2.723522E+05 -2.072131E+05 -2.861984E+04 -4.554794E+04 -1.025548E+04
        65  22 -2.234333E+05  1.592335E+05  2.078273E+05 -1.594560E+04 -1.409206E+05 -5.855920E+03
        65  23 -2.636074E+05 -3.744059E+04  8.733312E+04  1.714671E+03 -9.274330E+04 -1.256537E+04
        65  24 -2.235283E+05 -5.491824E+03  5.869821E+04 -1.374016E+04 -4.468123E+04 -1.024713E+04
        65  25  8.682590E+05  4.316066E+05  4.801773E+05 -2.058889E+04 -1.428016E+05 -5.877417E+03
        65  26  8.157840E+05  2.321137E+05  3.559982E+05  6.842597E+03 -9.324914E+04 -1.256923E+04
        65  27  8.437098E+05  2.612834E+05  3.245240E+05  1.162809E+03 -4.381297E+04 -1.023875E+04
        66   1 -1.168329E+06 -2.094555E+05 -1.840123E+05 -1.944328E+04  3.459684E+04  8.396313E+03
        66   2 -1.164121E+06 -2.350057E+05 -2.063265E+05  4.617729E+02  2.296916E+04  8.956049E+03
        66   3 -1.137707E+06 -2.261440E+05 -2.100283E+05 -1.968527E+04  1.134989E+04  7.949253E+03
        66   4 -2.363107E+05  2.359841E+04  4.842067E+04 -1.611355E+04  3.483886E+04  8.397321E+03
        66   5 -2.474556E+05 -5.792009E+03  2.220517E+04  4.004577E+03  2.297029E+04  8.955216E+03
        66   6 -2.363582E+05 -7.489740E+02  1.475332E+04 -1.592561E+04  1.111041E+04  7.947598E+03
        66   7  6.964959E+05  2.565869E+05  2.807883E+05 -1.278035E+04  3.508122E+04  8.398331E+03
        66   8  6.699725E+05  2.233584E+05  2.506737E+05  7.551490E+03  2.297140E+04  8.954385E+03
        66   9  6.657282E+05  2.245848E+05  2.394738E+05 -1.216121E+04  1.087058E+04  7.945941E+03
        66  10 -1.168330E+06 -2.094559E+05 -1.840147E+05 -1.944352E+04  3.108180E-09 -5.501836E-09
        66  11 -1.164121E+06 -2.350059E+05 -2.063277E+05  4.616071E+02 -1.609458E-09  6.432774E-09
        66  12 -1.137707E+06 -2.261441E+05 -2.100286E+05 -1.968534E+04  5.514955E-11 -3.977045E-09
        66  13 -2.363121E+05  2.359801E+04  4.841825E+04 -1.611379E+04 -4.295432E-09 -3.156155E-09
        66  14 -2.474562E+05 -5.792237E+03  2.220403E+04  4.004411E+03 -2.176230E-09 -4.853263E-11
        66  15 -2.363584E+05 -7.490750E+02  1.475297E+04 -1.592568E+04  1.007180E-09 -4.348999E-09
        66  16  6.964946E+05  2.565865E+05  2.807858E+05 -1.278058E+04 -3.921181E-09  9.167659E-10
        66  17  6.699719E+05  2.233581E+05  2.506726E+05  7.551324E+03  1.488301E-09 -6.603853E-09
        66  18  6.657281E+05  2.245847E+05  2.394734E+05 -1.216128E+04  4.936013E-10 -1.060318E-10
        66  19 -1.168329E+06 -2.094555E+05 -1.840123E+05 -1.944328E+04 -3.459684E+04 -8.396313E+03
        66  20 -1.164121E+06 -2.350057E+05 -2.063265E+05  4.617729E+02 -2.296916E+04 -8.956049E+03
        66  21 -1.137707E+06 -2.261440E+05 -2.100283E+05 -1.968527E+04 -1.134989E+04 -7.949253E+03
        66  22 -2.363107E+05  2.359841E+04  4.842067E+04 -1.611355E+04 -3.483886E+04 -8.397321E+03
        66  23 -2.474556E+05 -5.792009E+03  2.220517E+04  4.004577E+03 -2.297029E+04 -8.955216E+03
        66  24 -2.363582E+05 -7.489740E+02  1.475332E+04 -1.592561E+04 -1.111041E+04 -7.947598E+03
        66  25  6.964959E+05  2.565869E+05  2.807883E+05 -1.278035E+04 -3.508122E+04 -8.398331E+03
        66  26  6.699725E+05  2.233584E+05  2.506737E+05  7.551490E+03 -2.297140E+04 -8.954385E+03
        66  27  6.657282E+05  2.245848E+05  2.394738E+05 -1.216121E+04 -1.087058E+04 -7.945941E+03
        67   1 -9.738017E+05 -1.804736E+05 -1.714914E+05 -1.906359E+04  8.656568E+03  7.284434E+03
        67   2 -9.600725E+05 -1.800369E+05 -1.731970E+05  5.336516E+03  5.832298E+03  6.763783E+03
        67   3 -9.375095E+05 -1.745165E+05 -1.703431E+05 -1.770565E+04  3.005895E+03  5.877308E+03
        67   4 -2.392388E+05  3.165630E+03  1.159916E+04 -1.763260E+04  8.616157E+03  7.283770E+03
        67   5 -2.436813E+05 -9.383890E+02  5.393308E+03  6.091771E+03  5.736265E+03  6.763149E+03
        67   6 -2.392784E+05  5.105507E+01  3.783414E+03 -1.762276E+04  2.854322E+03  5.876898E+03
        67   7  4.958140E+05  1.867642E+05  1.946492E+05 -1.620026E+04  8.575692E+03  7.283107E+03
        67   8  4.731758E+05  1.781214E+05  1.839450E+05  6.847722E+03  5.640118E+03  6.762515E+03
        67   9  4.593952E+05  1.745819E+05  1.778732E+05 -1.753977E+04  2.702578E+03  5.876488E+03
        67  10 -9.738018E+05 -1.804737E+05 -1.714916E+05 -1.906364E+04 -6.632855E-09 -8.345547E-10
        67  11 -9.600725E+05 -1.800369E+05 -1.731972E+05  5.336485E+03  6.708726E-10  2.580975E-09
        67  12 -9.375096E+05 -1.745165E+05 -1.703432E+05 -1.770566E+04  7.194221E-10 -8.573638E-10
        67  13 -2.392389E+05  3.165553E+03  1.159892E+04 -1.763265E+04 -4.299965E-09 -2.501555E-09
        67  14 -2.436813E+05 -9.384470E+02  5.393161E+03  6.091740E+03  2.108671E-09  1.880030E-10
        67  15 -2.392785E+05  5.101580E+01  3.783334E+03 -1.762277E+04 -5.398702E-09  1.527598E-11
        67  16  4.958139E+05  1.867641E+05  1.946489E+05 -1.620032E+04  2.838402E-09 -1.902041E-09
        67  17  4.731758E+05  1.781214E+05  1.839449E+05  6.847692E+03  3.773077E-09 -2.174275E-09
        67  18  4.593952E+05  1.745818E+05  1.778731E+05 -1.753978E+04  1.234972E-10 -2.728363E-09
        67  19 -9.738017E+05 -1.804736E+05 -1.714914E+05 -1.906359E+04 -8.656568E+03 -7.284434E+03
        67  20 -9.600725E+05 -1.800369E+05 -1.731970E+05  5.336516E+03 -5.832298E+03 -6.763783E+03
        67  21 -9.375095E+05 -1.745165E+05 -1.703431E+05 -1.770565E+04 -3.005895E+03 -5.877308E+03
        67  22 -2.392388E+05  3.165630E+03  1.159916E+04 -1.763260E+04 -8.616157E+03 -7.283770E+03
        67  23 -2.436813E+05 -9.383890E+02  5.393308E+03  6.091771E+03 -5.736265E+03 -6.763149E+03
        67  24 -2.392784E+05  5.105507E+01  3.783414E+03 -1.762276E+04 -2.854322E+03 -5.876898E+03
        67  25  4.958140E+05  1.867642E+05  1.946492E+05 -1.620026E+04 -8.575692E+03 -7.283107E+03
        67  26  4.731758E+05  1.781214E+05  1.839450E+05  6.847722E+03 -5.640118E+03 -6.762515E+03
        67  27  4.593952E+05  1.745819E+05  1.778732E+05 -1.753977E+04 -2.702578E+03 -5.876488E+03
        68   1 -7.467603E+05 -1.262837E+05 -1.234158E+05 -1.858626E+04  2.304433E+03  5.346840E+03
        68   2 -7.281026E+05 -1.216614E+05 -1.200042E+05  8.267928E+03  1.697309E+03  4.560817E+03
        68   3 -7.061728E+05 -1.162487E+05 -1.153974E+05 -1.785708E+04  1.087808E+03  3.641006E+03
        68   4 -2.404351E+05  2.699958E+02  2.736422E+03 -1.885610E+04  2.202115E+03  5.346644E+03
        68   5 -2.420881E+05 -1.736445E+02  1.140088E+03  7.632366E+03  1.575286E+03  4.560808E+03
        68   6 -2.404647E+05  1.774036E+02  7.524957E+02 -1.885578E+04  9.460993E+02  3.641233E+03
        68   7  2.661227E+05  1.268044E+05  1.288694E+05 -1.912612E+04  2.099713E+03  5.346449E+03
        68   8  2.441408E+05  1.212963E+05  1.222666E+05  6.996399E+03  1.453167E+03  4.560800E+03
        68   9  2.254403E+05  1.165871E+05  1.168861E+05 -1.985509E+04  8.042841E+02  3.641459E+03
        68  10 -7.467603E+05 -1.262837E+05 -1.234159E+05 -1.858627E+04  2.644671E-09 -1.207591E-09
        68  11 -7.281026E+05 -1.216614E+05 -1.200043E+05  8.267921E+03  4.716954E-09  1.946236E-09
        68  12 -7.061728E+05 -1.162487E+05 -1.153974E+05 -1.785708E+04  3.037171E-09  3.232667E-10
        68  13 -2.404352E+05  2.699638E+02  2.736360E+03 -1.885611E+04  7.203357E-11 -8.206426E-10
        68  14 -2.420881E+05 -1.736675E+02  1.140044E+03  7.632360E+03 -2.194260E-09 -1.330257E-09
        68  15 -2.404647E+05  1.773891E+02  7.524691E+02 -1.885578E+04 -4.783693E-09 -2.819860E-09
        68  16  2.661227E+05  1.268044E+05  1.288693E+05 -1.912613E+04  5.129143E-09 -2.117919E-09
        68  17  2.441408E+05  1.212963E+05  1.222666E+05  6.996394E+03  1.724569E-09 -4.836925E-10
        68  18  2.254403E+05  1.165871E+05  1.168860E+05 -1.985509E+04 -4.821962E-10 -2.369611E-09
        68  19 -7.467603E+05 -1.262837E+05 -1.234158E+05 -1.858626E+04 -2.304433E+03 -5.346840E+03
        68  20 -7.281026E+05 -1.216614E+05 -1.200042E+05  8.267928E+03 -1.697309E+03 -4.560817E+03
        68  21 -7.061728E+05 -1.162487E+05 -1.153974E+05 -1.785708E+04 -1.087808E+03 -3.641006E+03
        68  22 -2.404351E+05  2.699958E+02  2.736422E+03 -1.885610E+04 -2.202115E+03 -5.346644E+03
        68  23 -2.420881E+05 -1.736445E+02  1.140088E+03  7.632366E+03 -1.575286E+03 -4.560808E+03
        68  24 -2.404647E+05  1.774036E+02  7.524957E+02 -1.885578E+04 -9.460993E+02 -3.641233E+03
        68  25  2.661227E+05  1.268044E+05  1.288694E+05 -1.912612E+04 -2.099713E+03 -5.346449E+03
        68  26  2.441408E+05  1.212963E+05  1.222666E+05  6.996399E+03 -1.453167E+03 -4.560800E+03
        68  27  2.254403E+05  1.165871E+05  1.168861E+05 -1.985509E+04 -8.042841E+02 -3.641459E+03
        69   1 -4.978977E+05 -6.414817E+04 -6.364045E+04 -1.900166E+04  9.508505E+02  3.094537E+03
        69   2 -4.764204E+05 -5.879251E+04 -5.890352E+04  9.205950E+03  1.089251E+03  2.199804E+03
        69   3 -4.547293E+05 -5.343814E+04 -5.421193E+04 -1.888440E+04  1.226423E+03  1.269166E+03
        69   4 -2.410923E+05  2.449181E+01  2.980642E+02 -1.959374E+04  8.249546E+02  3.094866E+03
        69   5 -2.412072E+05 -3.457049E+00 -2.821553E+02  8.554428E+03  9.582240E+02  2.200240E+03
        69   6 -2.411074E+05 -3.149413E+01 -9.039826E+02 -1.959403E+04  1.090259E+03  1.269716E+03
        69   7  1.577305E+04  6.419219E+04  6.423163E+04 -2.018602E+04  6.990066E+02  3.095195E+03
        69   8 -5.943892E+03  5.878143E+04  5.833505E+04  7.902705E+03  8.271471E+02  2.200675E+03
        69   9 -2.744418E+04  5.337171E+04  5.240053E+04 -2.030386E+04  9.540493E+02  1.270266E+03
        69  10 -4.978977E+05 -6.414818E+04 -6.364047E+04 -1.900166E+04  4.305223E-09 -4.488174E-10
        69  11 -4.764204E+05 -5.879252E+04 -5.890353E+04  9.205948E+03  1.812458E-09  1.758606E-09
        69  12 -4.547293E+05 -5.343814E+04 -5.421194E+04 -1.888440E+04 -2.694993E-10 -2.468231E-10
        69  13 -2.410923E+05  2.448134E+01  2.980449E+02 -1.959374E+04 -4.216941E-09  4.059012E-09
        69  14 -2.412072E+05 -3.462493E+00 -2.821662E+02  8.554426E+03  6.567335E-09  4.331800E-09
        69  15 -2.411074E+05 -3.149618E+01 -9.039879E+02 -1.959403E+04  1.071392E-09 -6.068687E-09
        69  16  1.577305E+04  6.419218E+04  6.423161E+04 -2.018602E+04  1.552034E-09  2.889831E-11
        69  17 -5.943894E+03  5.878143E+04  5.833504E+04  7.902703E+03  2.307043E-09  3.470505E-09
        69  18 -2.744418E+04  5.337171E+04  5.240052E+04 -2.030386E+04 -4.933739E-10  9.136520E-10
        69  19 -4.978977E+05 -6.414817E+04 -6.364045E+04 -1.900166E+04 -9.508505E+02 -3.094537E+03
        69  20 -4.764204E+05 -5.879251E+04 -5.890352E+04  9.205950E+03 -1.089251E+03 -2.199804E+03
        69  21 -4.547293E+05 -5.343814E+04 -5.421193E+04 -1.888440E+04 -1.226423E+03 -1.269166E+03
        69  22 -2.410923E+05  2.449181E+01  2.980642E+02 -1.959374E+04 -8.249546E+02 -3.094866E+03
        69  23 -2.412072E+05 -3.457049E+00 -2.821553E+02  8.554428E+03 -9.582240E+02 -2.200240E+03
        69  24 -2.411074E+05 -3.149413E+01 -9.039826E+02 -1.959403E+04 -1.090259E+03 -1.269716E+03
        69  25  1.577305E+04  6.419219E+04  6.423163E+04 -2.018602E+04 -6.990066E+02 -3.095195E+03
        69  26 -5.943892E+03  5.878143E+04  5.833505E+04  7.902705E+03 -8.271471E+02 -2.200675E+03
        69  27 -2.744418E+04  5.337171E+04  5.240053E+04 -2.030386E+04 -9.540493E+02 -1.270266E+03
        70   1 -2.378728E+05  1.068882E+03 -3.763104E+02 -1.990975E+04  1.431308E+03  6.889100E+02
        70   2 -2.152901E+05  6.690963E+03  4.000205E+03  8.768645E+03  2.619674E+03 -2.697983E+02
        70   3 -1.939417E+05  1.041548E+04  7.004551E+03 -1.982071E+04  3.808773E+03 -1.098237E+03
        70   4 -2.414144E+05  1.691763E+02 -1.327309E+03 -1.980724E+04  1.284636E+03  6.895513E+02
        70   5 -2.407945E+05  3.179655E+02 -2.353293E+03  8.823303E+03  2.491703E+03 -2.692498E+02
        70   6 -2.414130E+05 -1.434172E+03 -4.764558E+03 -1.981406E+04  3.699461E+03 -1.097777E+03
        70   7 -2.449559E+05 -7.305307E+02 -2.278308E+03 -1.970473E+04  1.137965E+03  6.901924E+02
        70   8 -2.662983E+05 -6.055081E+03 -8.706839E+03  8.877959E+03  2.363737E+03 -2.687013E+02
        70   9 -2.888823E+05 -1.328399E+04 -1.653383E+04 -1.980741E+04  3.590157E+03 -1.097318E+03
        70  10 -2.378728E+05  1.068881E+03 -3.763151E+02 -1.990976E+04  1.704776E-09  3.134409E-09
        70  11 -2.152901E+05  6.690961E+03  4.000192E+03  8.768646E+03  7.482891E-10 -1.614587E-09
        70  12 -1.939417E+05  1.041547E+04  7.004522E+03 -1.982071E+04 -1.383272E-09  1.691019E-09
        70  13 -2.414144E+05  1.691753E+02 -1.327313E+03 -1.980724E+04  8.524760E-09 -5.102927E-09
        70  14 -2.407945E+05  3.179638E+02 -2.353305E+03  8.823303E+03  4.163767E-09 -6.564741E-09
        70  15 -2.414131E+05 -1.434177E+03 -4.764586E+03 -1.981406E+04  1.041699E-08  3.004534E-09
        70  16 -2.449559E+05 -7.305315E+02 -2.278312E+03 -1.970473E+04  6.532142E-09  4.264671E-09
        70  17 -2.662983E+05 -6.055082E+03 -8.706850E+03  8.877959E+03 -2.283454E-09 -6.335917E-09
        70  18 -2.888823E+05 -1.328400E+04 -1.653386E+04 -1.980740E+04  4.236294E-09 -1.198373E-09
        70  19 -2.378728E+05  1.068882E+03 -3.763104E+02 -1.990975E+04 -1.431308E+03 -6.889100E+02
        70  20 -2.152901E+05  6.690963E+03  4.000205E+03  8.768645E+03 -2.619674E+03  2.697983E+02
        70  21 -1.939417E+05  1.041548E+04  7.004551E+03 -1.982071E+04 -3.808773E+03  1.098237E+03
        70  22 -2.414144E+05  1.691763E+02 -1.327309E+03 -1.980724E+04 -1.284636E+03 -6.895513E+02
        70  23 -2.407945E+05  3.179655E+02 -2.353293E+03  8.823303E+03 -2.491703E+03  2.692498E+02
        70  24 -2.414130E+05 -1.434172E+03 -4.764558E+03 -1.981406E+04 -3.699461E+03  1.097777E+03
        70  25 -2.449559E+05 -7.305307E+02 -2.278308E+03 -1.970473E+04 -1.137965E+03 -6.901924E+02
        70  26 -2.662983E+05 -6.055081E+03 -8.706839E+03  8.877959E+03 -2.363737E+03  2.687013E+02
        70  27 -2.888823E+05 -1.328399E+04 -1.653383E+04 -1.980741E+04 -3.590157E+03  1.097318E+03
        71   1  2.183980E+04  6.647364E+04  5.989497E+04 -2.081508E+04  4.867001E+03 -1.780948E+03
        71   2  4.505573E+04  7.356084E+04  6.136535E+04  7.923800E+03  9.804428E+03 -2.832639E+03
        71   3  6.471239E+04  6.645829E+04  5.619849E+04 -1.918788E+04  1.474597E+04 -3.016187E+03
        71   4 -2.419573E+05  5.407912E+02 -5.898399E+03 -1.948338E+04  4.654487E+03 -1.780126E+03
        71   5 -2.401573E+05  2.302270E+03 -9.682734E+03  8.427074E+03  9.714880E+03 -2.832414E+03
        71   6 -2.419408E+05 -1.015119E+04 -2.019204E+04 -1.951467E+04  1.477922E+04 -3.016398E+03
        71   7 -5.056913E+05 -6.539730E+04 -7.169701E+04 -1.815218E+04  4.442062E+03 -1.779304E+03
        71   8 -5.252966E+05 -6.896242E+04 -8.073693E+04  8.930181E+03  9.625372E+03 -2.832190E+03
        71   9 -5.485087E+05 -8.676776E+04 -9.658964E+04 -1.984124E+04  1.481245E+04 -3.016610E+03
        71  10  2.183977E+04  6.647363E+04  5.989492E+04 -2.081507E+04  1.760347E-09 -3.473007E-09
        71  11  4.505563E+04  7.356080E+04  6.136515E+04  7.923822E+03  1.048167E-08  5.915672E-10
        71  12  6.471215E+04  6.645822E+04  5.619807E+04 -1.918785E+04  6.951731E-09  1.244450E-09
        71  13 -2.419573E+05  5.407820E+02 -5.898446E+03 -1.948337E+04  8.619099E-09  2.392921E-09
        71  14 -2.401574E+05  2.302236E+03 -9.682927E+03  8.427096E+03  2.108265E-09  1.497288E-10
        71  15 -2.419410E+05 -1.015126E+04 -2.019247E+04 -1.951464E+04  9.286537E-09  1.482720E-09
        71  16 -5.056914E+05 -6.539731E+04 -7.169705E+04 -1.815218E+04  4.080717E-09  3.258943E-09
        71  17 -5.252967E+05 -6.896245E+04 -8.073712E+04  8.930203E+03 -3.417030E-11  3.934680E-09
        71  18 -5.485089E+05 -8.676782E+04 -9.659007E+04 -1.984120E+04  2.329990E-09 -3.661653E-10
        71  19  2.183980E+04  6.647364E+04  5.989497E+04 -2.081508E+04 -4.867001E+03  1.780948E+03
        71  20  4.505573E+04  7.356084E+04  6.136535E+04  7.923800E+03 -9.804428E+03  2.832639E+03
        71  21  6.471239E+04  6.645829E+04  5.619849E+04 -1.918788E+04 -1.474597E+04  3.016187E+03
        71  22 -2.419573E+05  5.407912E+02 -5.898399E+03 -1.948338E+04 -4.654487E+03  1.780126E+03
        71  23 -2.401573E+05  2.302270E+03 -9.682734E+03  8.427074E+03 -9.714880E+03  2.832414E+03
        71  24 -2.419408E+05 -1.015119E+04 -2.019204E+04 -1.951467E+04 -1.477922E+04  3.016398E+03
        71  25 -5.056913E+05 -6.539730E+04 -7.169701E+04 -1.815218E+04 -4.442062E+03  1.779304E+03
        71  26 -5.252966E+05 -6.896242E+04 -8.073693E+04  8.930181E+03 -9.625372E+03  2.832190E+03
        71  27 -5.485087E+05 -8.676776E+04 -9.658964E+04 -1.984124E+04 -1.481245E+04  3.016610E+03
        72   1  2.668903E+05  1.306693E+05  1.036505E+05 -2.283617E+04  1.936588E+04 -4.330625E+03
        72   2  2.981396E+05  1.484982E+05  9.521624E+04  8.560934E+03  3.902896E+04 -5.840597E+03
        72   3  3.068879E+05  7.163709E+04  5.106336E+04 -1.200493E+04  5.869699E+04 -2.074217E+03
        72   4 -2.462356E+05  2.450777E+03 -2.423024E+04 -1.861600E+04  1.876404E+04 -4.329317E+03
        72   5 -2.348961E+05  1.536142E+04 -3.749253E+04  7.358963E+03  3.917183E+04 -5.841193E+03
        72   6 -2.462113E+05 -6.659211E+04 -8.701350E+04 -1.863186E+04  5.958392E+04 -2.075084E+03
        72   7 -7.591229E+05 -1.257875E+05 -1.521308E+05 -1.439917E+04  1.816269E+04 -4.328017E+03
        72   8 -7.676741E+05 -1.177967E+05 -1.702226E+05  6.158102E+03  3.931458E+04 -5.841789E+03
        72   9 -7.990331E+05 -2.048442E+05 -2.251134E+05 -2.525287E+04  6.047004E+04 -2.075970E+03
        72  10  2.668899E+05  1.306692E+05  1.036498E+05 -2.283610E+04  3.621140E-09  5.617273E-10
        72  11  2.981379E+05  1.484978E+05  9.521331E+04  8.561117E+03  3.430996E-09 -6.836692E-10
        72  12  3.068842E+05  7.163616E+04  5.105688E+04 -1.200483E+04  8.206445E-09 -3.945713E-10
        72  13 -2.462360E+05  2.450663E+03 -2.423094E+04 -1.861593E+04 -4.140774E-09  4.278059E-09
        72  14 -2.348978E+05  1.536098E+04 -3.749548E+04  7.359147E+03 -4.310737E-09 -1.310321E-09
        72  15 -2.462151E+05 -6.659307E+04 -8.702018E+04 -1.863176E+04 -1.048578E-09 -3.350232E-10
        72  16 -7.591232E+05 -1.257876E+05 -1.521314E+05 -1.439910E+04  3.104977E-09 -7.776047E-10
        72  17 -7.676758E+05 -1.177972E+05 -1.702256E+05  6.158287E+03  8.974737E-10 -6.686081E-10
        72  18 -7.990371E+05 -2.048452E+05 -2.251203E+05 -2.525277E+04 -6.996398E-10 -6.235218E-10
        72  19  2.668903E+05  1.306693E+05  1.036505E+05 -2.283617E+04 -1.936588E+04  4.330625E+03
        72  20  2.981396E+05  1.484982E+05  9.521624E+04  8.560934E+03 -3.902896E+04  5.840597E+03
        72  21  3.068879E+05  7.163709E+04  5.106336E+04 -1.200493E+04 -5.869699E+04  2.074217E+03
        72  22 -2.462356E+05  2.450777E+03 -2.423024E+04 -1.861600E+04 -1.876404E+04  4.329317E+03
        72  23 -2.348961E+05  1.536142E+04 -3.749253E+04  7.358963E+03 -3.917183E+04  5.841193E+03
        72  24 -2.462113E+05 -6.659211E+04 -8.701350E+04 -1.863186E+04 -5.958392E+04  2.075084E+03
        72  25 -7.591229E+05 -1.257875E+05 -1.521308E+05 -1.439917E+04 -1.816269E+04  4.328017E+03
        72  26 -7.676741E+05 -1.177967E+05 -1.702226E+05  6.158102E+03 -3.931458E+04  5.841789E+03
        72  27 -7.990331E+05 -2.048442E+05 -2.251134E+05 -2.525287E+04 -6.047004E+04  2.075970E+03
        73   1  2.498481E+06  8.690527E+06  2.375545E+06 -1.885374E+06  1.067002E+05  5.023212E+05
        73   2  1.858238E+06  6.513606E+06  1.617072E+06 -1.537942E+06  3.434896E+05  1.466966E+05
        73   3  1.350806E+06  4.405336E+06  1.120079E+06 -1.800886E+06  3.232223E+05 -2.115841E+05
        73   4  1.092620E+05 -9.736105E+05  6.746444E+04 -1.722486E+06  1.151829E+05  3.238520E+04
        73   5  4.862274E+04 -9.720201E+05  4.370253E+04 -1.417662E+06  3.463569E+05  1.440664E+04
        73   6  6.351908E+04 -9.636270E+05  4.927915E+04 -1.723501E+06  3.191052E+05 -7.511742E+03
        73   7 -2.286539E+06 -1.055234E+07 -2.246380E+06 -1.561642E+06  1.234962E+05 -4.303446E+05
        73   8 -1.764558E+06 -8.404985E+06 -1.532749E+06 -1.298542E+06  3.491937E+05 -1.163258E+05
        73   9 -1.225502E+06 -6.305069E+06 -1.022814E+06 -1.646620E+06  3.150180E+05  1.948405E+05
        73  10  2.498402E+06  8.690256E+06  2.375055E+06 -1.885417E+06  3.769894E-09  1.788082E-08
        73  11  1.858106E+06  6.513551E+06  1.616810E+06 -1.537983E+06  2.847059E-09 -2.906892E-08
        73  12  1.350682E+06  4.405260E+06  1.119800E+06 -1.800832E+06  3.334888E-09 -3.874880E-08
        73  13  1.092474E+05 -9.736152E+05  6.743750E+04 -1.722489E+06  1.000638E-08  1.661010E-08
        73  14  4.849392E+04 -9.720525E+05  4.347678E+04 -1.417666E+06  1.520003E-08 -9.267444E-09
        73  15  6.340979E+04 -9.636543E+05  4.908782E+04 -1.723499E+06  4.779142E-09  1.067435E-08
        73  16 -2.286606E+06 -1.055255E+07 -2.246762E+06 -1.561599E+06  1.651607E-10 -2.106355E-08
        73  17 -1.764693E+06 -8.405032E+06 -1.533003E+06 -1.298509E+06  2.025687E-08  1.334164E-08
        73  18 -1.225619E+06 -6.305137E+06 -1.023073E+06 -1.646669E+06 -8.073690E-09  2.037340E-08
        73  19  2.498481E+06  8.690527E+06  2.375545E+06 -1.885374E+06 -1.067002E+05 -5.023212E+05
        73  20  1.858238E+06  6.513606E+06  1.617072E+06 -1.537942E+06 -3.434896E+05 -1.466966E+05
        73  21  1.350806E+06  4.405336E+06  1.120079E+06 -1.800886E+06 -3.232223E+05  2.115841E+05
        73  22  1.092620E+05 -9.736105E+05  6.746444E+04 -1.722486E+06 -1.151829E+05 -3.238520E+04
        73  23  4.862274E+04 -9.720201E+05  4.370253E+04 -1.417662E+06 -3.463569E+05 -1.440664E+04
        73  24  6.351908E+04 -9.636270E+05  4.927915E+04 -1.723501E+06 -3.191052E+05  7.511742E+03
        73  25 -2.286539E+06 -1.055234E+07 -2.246380E+06 -1.561642E+06 -1.234962E+05  4.303446E+05
        73  26 -1.764558E+06 -8.404985E+06 -1.532749E+06 -1.298542E+06 -3.491937E+05  1.163258E+05
        73  27 -1.225502E+06 -6.305069E+06 -1.022814E+06 -1.646620E+06 -3.150180E+05 -1.948405E+05
        74   1  9.959462E+05  2.894841E+06  8.271834E+05 -1.792685E+06  2.323560E+05 -1.694366E+05
        74   2  4.717458E+05  7.614775E+05  4.203594E+05 -1.439830E+06  1.148550E+05 -2.198257E+05
        74   3 -6.619701E+03 -1.378584E+06  5.017134E+04 -1.712489E+06 -7.819969E+03 -2.703602E+05
        74   4  6.897333E+04 -9.650616E+05  5.596807E+04 -1.726641E+06  2.291657E+05 -1.867570E+04
        74   5  5.986581E+04 -9.577155E+05  8.318037E+04 -1.413620E+06  1.114086E+05 -6.248848E+04
        74   6  9.569198E+04 -9.626777E+05  1.424986E+05 -1.726108E+06 -1.153866E+04 -1.066068E+05
        74   7 -8.588950E+05 -4.810719E+06 -7.159135E+05 -1.660922E+06  2.259959E+05  1.311700E+05
        74   8 -3.521784E+05 -2.674022E+06 -2.540485E+05 -1.387467E+06  1.079699E+05  9.442291E+04
        74   9  1.980068E+05 -5.465513E+05  2.349163E+05 -1.739736E+06 -1.526313E+04  5.725534E+04
        74  10  9.958808E+05  2.894796E+06  8.270288E+05 -1.792654E+06 -3.643130E-09  1.852436E-08
        74  11  4.717188E+05  7.614222E+05  4.202442E+05 -1.439810E+06  5.371290E-09 -2.759252E-08
        74  12 -6.639451E+03 -1.378663E+06  5.003353E+04 -1.712491E+06 -1.288714E-09 -2.955333E-08
        74  13  6.891689E+04 -9.650761E+05  5.586884E+04 -1.726638E+06 -1.691337E-09  2.000730E-08
        74  14  5.985147E+04 -9.577230E+05  8.314979E+04 -1.413614E+06 -1.537626E-08 -1.066853E-08
        74  15  9.568878E+04 -9.626899E+05  1.424770E+05 -1.726109E+06 -3.813606E-09  1.193246E-08
        74  16 -8.589546E+05 -4.810751E+06 -7.160424E+05 -1.660946E+06 -1.463103E-08 -2.400751E-08
        74  17 -3.521933E+05 -2.674035E+06 -2.540873E+05 -1.387475E+06 -4.158540E-09  6.016600E-09
        74  18  1.980057E+05 -5.465549E+05  2.349097E+05 -1.739735E+06  2.511423E-11  1.138747E-08
        74  19  9.959462E+05  2.894841E+06  8.271834E+05 -1.792685E+06 -2.323560E+05  1.694366E+05
        74  20  4.717458E+05  7.614775E+05  4.203594E+05 -1.439830E+06 -1.148550E+05  2.198257E+05
        74  21 -6.619701E+03 -1.378584E+06  5.017134E+04 -1.712489E+06  7.819969E+03  2.703602E+05
        74  22  6.897333E+04 -9.650616E+05  5.596807E+04 -1.726641E+06 -2.291657E+05  1.867570E+04
        74  23  5.986581E+04 -9.577155E+05  8.318037E+04 -1.413620E+06 -1.114086E+05  6.248848E+04
        74  24  9.569198E+04 -9.626777E+05  1.424986E+05 -1.726108E+06  1.153866E+04  1.066068E+05
        74  25 -8.588950E+05 -4.810719E+06 -7.159135E+05 -1.660922E+06 -2.259959E+05 -1.311700E+05
        74  26 -3.521784E+05 -2.674022E+06 -2.540485E+05 -1.387467E+06 -1.079699E+05 -9.442291E+04
        74  27  1.980068E+05 -5.465513E+05  2.349163E+05 -1.739736E+06  1.526313E+04 -5.725534E+04
        75   1 -3.974627E+05 -2.852569E+06 -2.115315E+05 -1.756923E+06 -9.522834E+04 -3.301595E+05
        75   2 -8.642749E+05 -5.013056E+06 -5.508028E+05 -1.218508E+06 -1.633697E+05 -2.727485E+05
        75   3 -9.080197E+05 -7.095243E+06 -8.278954E+05 -1.292578E+06 -5.896490E+04 -2.123689E+05
        75   4  6.277283E+04 -9.359317E+05  1.813619E+05 -1.725434E+06 -9.967877E+04 -1.333738E+05
        75   5  1.239268E+05 -9.941645E+05  3.162191E+05 -1.413688E+06 -1.626663E+05 -2.991695E+05
        75   6  6.454982E+05 -9.408424E+05  6.679101E+05 -1.713451E+06 -5.365804E+04 -4.618382E+05
        75   7  5.228066E+05  9.843002E+05  5.742085E+05 -1.693822E+06 -1.041012E+05  6.401132E+04
        75   8  1.111167E+06  3.040046E+06  1.182301E+06 -1.610063E+06 -1.619490E+05 -3.257556E+05
        75   9  2.196795E+06  5.248845E+06  2.161263E+06 -2.138331E+06 -4.804049E+04 -7.137774E+05
        75  10 -3.975020E+05 -2.852689E+06 -2.117547E+05 -1.756948E+06  4.542038E-09  1.822420E-08
        75  11 -8.643238E+05 -5.013144E+06 -5.509943E+05 -1.218544E+06  1.905425E-08 -2.443327E-08
        75  12 -9.080358E+05 -7.095293E+06 -8.279878E+05 -1.292588E+06  5.684796E-09 -2.587046E-08
        75  13  6.275732E+04 -9.359536E+05  1.813096E+05 -1.725444E+06  4.888833E-09  2.110056E-08
        75  14  1.238742E+05 -9.942680E+05  3.160004E+05 -1.413728E+06 -1.208614E-08 -9.905067E-09
        75  15  6.454376E+05 -9.410725E+05  6.675029E+05 -1.713471E+06  7.768017E-09  1.076304E-08
        75  16  5.227940E+05  9.842929E+05  5.741805E+05 -1.693817E+06 -7.127316E-09 -2.330422E-08
        75  17  1.111110E+06  3.039925E+06  1.182053E+06 -1.610106E+06  1.092622E-08  3.901149E-09
        75  18  2.196657E+06  5.248301E+06  2.160309E+06 -2.138359E+06  6.528985E-09  9.756849E-09
        75  19 -3.974627E+05 -2.852569E+06 -2.115315E+05 -1.756923E+06  9.522834E+04  3.301595E+05
        75  20 -8.642749E+05 -5.013056E+06 -5.508028E+05 -1.218508E+06  1.633697E+05  2.727485E+05
        75  21 -9.080197E+05 -7.095243E+06 -8.278954E+05 -1.292578E+06  5.896490E+04  2.123689E+05
        75  22  6.277283E+04 -9.359317E+05  1.813619E+05 -1.725434E+06  9.967877E+04  1.333738E+05
        75  23  1.239268E+05 -9.941645E+05  3.162191E+05 -1.413688E+06  1.626663E+05  2.991695E+05
        75  24  6.454982E+05 -9.408424E+05  6.679101E+05 -1.713451E+06  5.365804E+04  4.618382E+05
        75  25  5.228066E+05  9.843002E+05  5.742085E+05 -1.693822E+06  1.041012E+05 -6.401132E+04
        75  26  1.111167E+06  3.040046E+06  1.182301E+06 -1.610063E+06  1.619490E+05  3.257556E+05
        75  27  2.196795E+06  5.248845E+06  2.161263E+06 -2.138331E+06  4.804049E+04  7.137774E+05
        76   1 -8.512509E+06 -3.470717E+06 -2.074437E+06 -2.854003E+06 -4.244814E+05 -1.184351E+04
        76   2 -7.972049E+06 -3.315936E+06 -1.752759E+06 -2.619061E+06 -2.971886E+05  3.846414E+05
        76   3 -7.285846E+06 -3.198839E+06 -1.586088E+06 -2.556872E+06 -7.371991E+04  5.363298E+05
        76   4  2.006828E+05 -2.065519E+05  2.162846E+05 -4.967926E+05  8.498546E+04  1.865695E+05
        76   5  8.738768E+04 -3.018476E+05  9.445870E+04 -3.768800E+05 -8.096340E+04  4.677898E+05
        76   6  1.781024E+05 -3.767059E+05  5.282113E+04 -4.295877E+05 -1.516506E+05  5.057594E+05
        76   7  8.988539E+06  3.062123E+06  2.501622E+06  1.890398E+06  6.024243E+05  3.878872E+05
        76   8  8.212726E+06  2.717383E+06  1.937554E+06  1.892182E+06  1.383450E+05  5.521053E+05
        76   9  7.699209E+06  2.450607E+06  1.688411E+06  1.721638E+06 -2.306165E+05  4.747892E+05
        76  10 -8.512704E+06 -3.470766E+06 -2.074780E+06 -2.854007E+06  2.521823E-09  7.800921E-11
        76  11 -7.972184E+06 -3.316119E+06 -1.753204E+06 -2.618969E+06  3.720074E-09 -6.366034E-09
        76  12 -7.285928E+06 -3.199150E+06 -1.586639E+06 -2.556840E+06 -1.127605E-08  7.439877E-10
        76  13  2.006657E+05 -2.065912E+05  2.162055E+05 -4.968053E+05  3.914269E-09 -1.029295E-09
        76  14  8.732190E+04 -3.020844E+05  9.403507E+04 -3.768495E+05  4.159299E-09  3.474022E-09
        76  15  1.780091E+05 -3.769868E+05  5.229718E+04 -4.295260E+05  4.369912E-09 -1.118466E-09
        76  16  8.988115E+06  3.061867E+06  2.500671E+06  1.890212E+06 -2.457872E-10  5.487618E-09
        76  17  8.212624E+06  2.717052E+06  1.936947E+06  1.892121E+06  1.288664E-08 -2.778743E-10
        76  18  7.699091E+06  2.450350E+06  1.687887E+06  1.721726E+06  7.372522E-09 -2.411309E-11
        76  19 -8.512509E+06 -3.470717E+06 -2.074437E+06 -2.854003E+06  4.244814E+05  1.184351E+04
        76  20 -7.972049E+06 -3.315936E+06 -1.752759E+06 -2.619061E+06  2.971886E+05 -3.846414E+05
        76  21 -7.285846E+06 -3.198839E+06 -1.586088E+06 -2.556872E+06  7.371991E+04 -5.363298E+05
        76  22  2.006828E+05 -2.065519E+05  2.162846E+05 -4.967926E+05 -8.498546E+04 -1.865695E+05
        76  23  8.738768E+04 -3.018476E+05  9.445870E+04 -3.768800E+05  8.096340E+04 -4.677898E+05
        76  24  1.781024E+05 -3.767059E+05  5.282113E+04 -4.295877E+05  1.516506E+05 -5.057594E+05
        76  25  8.988539E+06  3.062123E+06  2.501622E+06  1.890398E+06 -6.024243E+05 -3.878872E+05
        76  26  8.212726E+06  2.717383E+06  1.937554E+06  1.892182E+06 -1.383450E+05 -5.521053E+05
        76  27  7.699209E+06  2.450607E+06  1.688411E+06  1.721638E+06  2.306165E+05 -4.747892E+05
        77   1 -6.885478E+06 -3.008538E+06 -1.509387E+06 -2.423085E+06 -1.255298E+05  4.778341E+05
        77   2 -6.376421E+06 -2.717463E+06 -1.386727E+06 -2.177949E+06 -1.100604E+05  4.569214E+05
        77   3 -5.720562E+06 -2.556299E+06 -1.264864E+06 -2.083175E+06 -8.967634E+04  4.224179E+05
        77   4  1.736382E+05 -3.676325E+05  4.053266E+04 -4.401832E+05 -1.450715E+05  4.698081E+05
        77   5  1.000965E+05 -3.042067E+05  2.016736E+04 -3.644685E+05 -1.459666E+05  4.427653E+05
        77   6  1.762074E+05 -3.673631E+05  1.199465E+04 -4.391442E+05 -1.419819E+05  4.022055E+05
        77   7  7.283698E+06  2.277571E+06  1.587439E+06  1.563681E+06 -1.648623E+05  4.616915E+05
        77   8  6.619523E+06  2.112641E+06  1.424583E+06  1.466585E+06 -1.822859E+05  4.284553E+05
        77   9  6.108500E+06  1.824498E+06  1.286814E+06  1.219369E+06 -1.948314E+05  3.817893E+05
        77  10 -6.885556E+06 -3.008788E+06 -1.509846E+06 -2.423037E+06  5.160184E-09  1.263008E-08
        77  11 -6.376490E+06 -2.717691E+06 -1.387142E+06 -2.177909E+06  2.596587E-09  3.614010E-09
        77  12 -5.720618E+06 -2.556493E+06 -1.265215E+06 -2.083145E+06 -1.202675E-08 -6.598956E-09
        77  13  1.735564E+05 -3.678752E+05  4.007831E+04 -4.401284E+05  7.852705E-11 -6.198940E-09
        77  14  1.000210E+05 -3.044229E+05  1.975892E+04 -3.644164E+05  1.613390E-08 -4.147745E-09
        77  15  1.761424E+05 -3.675423E+05  1.165278E+04 -4.390983E+05  1.871935E-08 -2.861490E-09
        77  16  7.283612E+06  2.277335E+06  1.586987E+06  1.563743E+06 -8.766388E-09 -3.561081E-09
        77  17  6.619438E+06  2.112435E+06  1.424176E+06  1.466648E+06  1.524881E-08  1.026700E-08
        77  18  6.108420E+06  1.824331E+06  1.286469E+06  1.219429E+06  3.396719E-08  1.484605E-08
        77  19 -6.885478E+06 -3.008538E+06 -1.509387E+06 -2.423085E+06  1.255298E+05 -4.778341E+05
        77  20 -6.376421E+06 -2.717463E+06 -1.386727E+06 -2.177949E+06  1.100604E+05 -4.569214E+05
        77  21 -5.720562E+06 -2.556299E+06 -1.264864E+06 -2.083175E+06  8.967634E+04 -4.224179E+05
        77  22  1.736382E+05 -3.676325E+05  4.053266E+04 -4.401832E+05  1.450715E+05 -4.698081E+05
        77  23  1.000965E+05 -3.042067E+05  2.016736E+04 -3.644685E+05  1.459666E+05 -4.427653E+05
        77  24  1.762074E+05 -3.673631E+05  1.199465E+04 -4.391442E+05  1.419819E+05 -4.022055E+05
        77  25  7.283698E+06  2.277571E+06  1.587439E+06  1.563681E+06  1.648623E+05 -4.616915E+05
        77  26  6.619523E+06  2.112641E+06  1.424583E+06  1.466585E+06  1.822859E+05 -4.284553E+05
        77  27  6.108500E+06  1.824498E+06  1.286814E+06  1.219369E+06  1.948314E+05 -3.817893E+05
        78   1 -5.302816E+06 -2.394843E+06 -1.173423E+06 -1.963629E+06 -8.487627E+04  3.954513E+05
        78   2 -4.786890E+06 -2.103457E+06 -1.051399E+06 -1.720429E+06 -7.017396E+04  3.537400E+05
        78   3 -4.129121E+06 -1.945935E+06 -9.268339E+05 -1.629610E+06 -5.541012E+04  3.111833E+05
        78   4  1.758383E+05 -3.662421E+05  8.776236E+03 -4.401684E+05 -1.340457E+05  3.765300E+05
        78   5  1.063875E+05 -2.966728E+05  4.185783E+03 -3.645531E+05 -1.203512E+05  3.345827E+05
        78   6  1.785500E+05 -3.607320E+05  2.884578E+03 -4.413893E+05 -1.065954E+05  2.917949E+05
        78   7  5.685230E+06  1.664890E+06  1.189250E+06  1.095771E+06 -1.836902E+05  3.574310E+05
        78   8  5.024146E+06  1.512094E+06  1.058393E+06  1.001222E+06 -1.709601E+05  3.152641E+05
        78   9  4.505153E+06  1.225972E+06  9.315328E+05  7.544524E+05 -1.581673E+05  2.722625E+05
        78  10 -5.302866E+06 -2.395013E+06 -1.173730E+06 -1.963602E+06 -4.506171E-09 -6.204683E-09
        78  11 -4.786929E+06 -2.103593E+06 -1.051644E+06 -1.720409E+06  7.140274E-09 -3.897855E-09
        78  12 -4.129150E+06 -1.946040E+06 -9.270218E+05 -1.629597E+06  2.579291E-08  7.231516E-09
        78  13  1.757809E+05 -3.663991E+05  8.476059E+03 -4.401278E+05  5.458241E-09 -1.072768E-08
        78  14  1.063419E+05 -2.967969E+05  3.948209E+03 -3.645207E+05 -5.260241E-09 -7.983419E-09
        78  15  1.785150E+05 -3.608265E+05  2.703234E+03 -4.413643E+05 -1.212706E-09 -3.950561E-09
        78  16  5.685160E+06  1.664744E+06  1.188946E+06  1.095824E+06  1.825549E-08  8.300049E-09
        78  17  5.024088E+06  1.511979E+06  1.058152E+06  1.001265E+06 -1.205621E-08 -5.827362E-09
        78  18  4.505106E+06  1.225886E+06  9.313466E+05  7.544870E+05 -2.621526E-08 -1.067309E-08
        78  19 -5.302816E+06 -2.394843E+06 -1.173423E+06 -1.963629E+06  8.487627E+04 -3.954513E+05
        78  20 -4.786890E+06 -2.103457E+06 -1.051399E+06 -1.720429E+06  7.017396E+04 -3.537400E+05
        78  21 -4.129121E+06 -1.945935E+06 -9.268339E+05 -1.629610E+06  5.541012E+04 -3.111833E+05
        78  22  1.758383E+05 -3.662421E+05  8.776236E+03 -4.401684E+05  1.340457E+05 -3.765300E+05
        78  23  1.063875E+05 -2.966728E+05  4.185783E+03 -3.645531E+05  1.203512E+05 -3.345827E+05
        78  24  1.785500E+05 -3.607320E+05  2.884578E+03 -4.413893E+05  1.065954E+05 -2.917949E+05
        78  25  5.685230E+06  1.664890E+06  1.189250E+06  1.095771E+06  1.836902E+05 -3.574310E+05
        78  26  5.024146E+06  1.512094E+06  1.058393E+06  1.001222E+06  1.709601E+05 -3.152641E+05
        78  27  4.505153E+06  1.225972E+06  9.315328E+05  7.544524E+05  1.581673E+05 -2.722625E+05
        79   1 -3.707456E+06 -1.787678E+06 -8.326904E+05 -1.512334E+06 -4.663269E+04  2.862554E+05
        79   2 -3.185269E+06 -1.499839E+06 -7.080244E+05 -1.270917E+06 -3.100037E+04  2.437645E+05
        79   3 -2.525182E+06 -1.346162E+06 -5.823663E+05 -1.183758E+06 -1.550106E+04  2.011629E+05
        79   4  1.785074E+05 -3.601093E+05  2.000683E+03 -4.417535E+05 -9.770489E+04  2.669843E+05
        79   5  1.106585E+05 -2.911142E+05  8.720559E+02 -3.650183E+05 -8.219848E+04  2.245451E+05
        79   6  1.803297E+05 -3.562473E+05  8.067982E+02 -4.426361E+05 -6.682502E+04  1.819964E+05
        79   7  4.079855E+06  1.068668E+06  8.358246E+05  6.350117E+05 -1.491241E+05  2.475838E+05
        79   8  3.417660E+06  9.184769E+05  7.091511E+05  5.453174E+05 -1.336914E+05  2.052159E+05
        79   9  2.893312E+06  6.342491E+05  5.835704E+05  3.014666E+05 -1.183915E+05  1.627398E+05
        79  10 -3.707480E+06 -1.787766E+06 -8.328486E+05 -1.512324E+06  6.847870E-09  3.261841E-09
        79  11 -3.185286E+06 -1.499903E+06 -7.081379E+05 -1.270911E+06 -1.011498E-08  2.233182E-09
        79  12 -2.525193E+06 -1.346205E+06 -5.824429E+05 -1.183756E+06  1.683535E-09 -1.900044E-11
        79  13  1.784780E+05 -3.601884E+05  1.848803E+03 -4.417325E+05 -2.446923E-10  1.625136E-10
        79  14  1.106377E+05 -2.911702E+05  7.646163E+02 -3.650034E+05 -2.634561E-09 -1.750803E-09
        79  15  1.803160E+05 -3.562841E+05  7.361675E+02 -4.426263E+05 -8.788639E-09  1.543409E-09
        79  16  4.079814E+06  1.068597E+06  8.356677E+05  6.350413E+05 -8.802665E-09 -2.213679E-09
        79  17  3.417630E+06  9.184269E+05  7.090384E+05  5.453395E+05 -9.282014E-09  1.650840E-09
        79  18  2.893290E+06  6.342169E+05  5.834944E+05  3.014820E+05 -3.569875E-09  3.326831E-09
        79  19 -3.707456E+06 -1.787678E+06 -8.326904E+05 -1.512334E+06  4.663269E+04 -2.862554E+05
        79  20 -3.185269E+06 -1.499839E+06 -7.080244E+05 -1.270917E+06  3.100037E+04 -2.437645E+05
        79  21 -2.525182E+06 -1.346162E+06 -5.823663E+05 -1.183758E+06  1.550106E+04 -2.011629E+05
        79  22  1.785074E+05 -3.601093E+05  2.000683E+03 -4.417535E+05  9.770489E+04 -2.669843E+05
        79  23  1.106585E+05 -2.911142E+05  8.720559E+02 -3.650183E+05  8.219848E+04 -2.245451E+05
        79  24  1.803297E+05 -3.562473E+05  8.067982E+02 -4.426361E+05  6.682502E+04 -1.819964E+05
        79  25  4.079855E+06  1.068668E+06  8.358246E+05  6.350117E+05  1.491241E+05 -2.475838E+05
        79  26  3.417660E+06  9.184769E+05  7.091511E+05  5.453174E+05  1.336914E+05 -2.052159E+05
        79  27  2.893312E+06  6.342491E+05  5.835704E+05  3.014666E+05  1.183915E+05 -1.627398E+05
        80   1 -2.101002E+06 -1.189407E+06 -4.875728E+05 -1.067595E+06 -6.380456E+03  1.763977E+05
        80   2 -1.574834E+06 -9.041371E+05 -3.620744E+05 -8.270653E+05  9.346601E+03  1.339018E+05
        80   3 -9.131392E+05 -7.531143E+05 -2.363269E+05 -7.419150E+05  2.499194E+04  9.138454E+04
        80   4  1.803258E+05 -3.558721E+05  5.163396E+02 -4.428366E+05 -5.774460E+04  1.572617E+05
        80   5  1.132224E+05 -2.877600E+05  2.425153E+02 -3.653129E+05 -4.205017E+04  1.148039E+05
        80   6  1.812634E+05 -3.538982E+05  2.299437E+02 -4.432828E+05 -2.643770E+04  7.232597E+04
        80   7  2.466958E+06  4.780737E+05  4.883189E+05  1.840373E+05 -1.093128E+05  1.380499E+05
        80   8  1.804176E+06  3.288386E+05  3.624047E+05  9.759379E+04 -9.359768E+04  9.565004E+04
        80   9  1.276878E+06  4.540867E+04  2.367257E+05 -1.441680E+05 -7.796481E+04  5.323124E+04
        80  10 -2.101010E+06 -1.189441E+06 -4.876314E+05 -1.067594E+06  1.013903E-09  2.929458E-09
        80  11 -1.574839E+06 -9.041564E+05 -3.621083E+05 -8.270663E+05 -4.850700E-10  1.350072E-10
        80  12 -9.131421E+05 -7.531234E+05 -2.363438E+05 -7.419169E+05 -4.384356E-09  1.529857E-09
        80  13  1.803156E+05 -3.558996E+05  4.636024E+02 -4.428293E+05 -4.544490E-09  1.163404E-09
        80  14  1.132169E+05 -2.877747E+05  2.144269E+02 -3.653090E+05 -1.064894E-08 -1.814810E-09
        80  15  1.812613E+05 -3.539040E+05  2.188009E+02 -4.432813E+05 -4.979307E-09 -1.226959E-09
        80  16  2.466940E+06  4.780501E+05  4.882607E+05  1.840494E+05 -2.370616E-09  1.248308E-09
        80  17  1.804164E+06  3.288264E+05  3.623711E+05  9.760099E+04 -1.104681E-08 -1.172628E-09
        80  18  1.276871E+06  4.540400E+04  2.367090E+05 -1.441647E+05 -6.033427E-09 -6.360111E-09
        80  19 -2.101002E+06 -1.189407E+06 -4.875728E+05 -1.067595E+06  6.380456E+03 -1.763977E+05
        80  20 -1.574834E+06 -9.041371E+05 -3.620744E+05 -8.270653E+05 -9.346601E+03 -1.339018E+05
        80  21 -9.131392E+05 -7.531143E+05 -2.363269E+05 -7.419150E+05 -2.499194E+04 -9.138454E+04
        80  22  1.803258E+05 -3.558721E+05  5.163396E+02 -4.428366E+05  5.774460E+04 -1.572617E+05
        80  23  1.132224E+05 -2.877600E+05  2.425153E+02 -3.653129E+05  4.205017E+04 -1.148039E+05
        80  24  1.812634E+05 -3.538982E+05  2.299437E+02 -4.432828E+05  2.643770E+04 -7.232597E+04
        80  25  2.466958E+06  4.780737E+05  4.883189E+05  1.840373E+05  1.093128E+05 -1.380499E+05
        80  26  1.804176E+06  3.288386E+05  3.624047E+05  9.759379E+04  9.359768E+04 -9.565004E+04
        80  27  1.276878E+06  4.540867E+04  2.367257E+05 -1.441680E+05  7.796481E+04 -5.323124E+04
        81   1 -4.873371E+05 -5.971804E+05 -1.413644E+05 -6.261107E+05  3.421694E+04  6.666338E+04
        81   2  4.057581E+04 -3.133741E+05 -1.570757E+04 -3.855397E+05  4.958282E+04  2.420719E+04
        81   3  7.032090E+05 -1.637639E+05  1.101789E+05 -3.007175E+05  6.482318E+04 -1.792393E+04
        81   4  1.812483E+05 -3.537661E+05  1.068061E+02 -4.433568E+05 -1.731913E+04  4.758144E+04
        81   5  1.141361E+05 -2.865713E+05 -7.948014E+01 -3.654179E+05 -1.583142E+03  5.263701E+03
        81   6  1.812913E+05 -3.536833E+05 -3.347657E+02 -4.433740E+05  1.402728E+04 -3.672766E+04
        81   7  8.502996E+05 -1.103127E+05  1.415658E+05 -2.604191E+05 -6.891532E+04  2.847718E+04
        81   8  1.877080E+05 -2.597657E+05  1.555957E+04 -3.452923E+05 -5.275582E+04 -1.368228E+04
        81   9 -3.403438E+05 -5.435794E+05 -1.108526E+05 -5.859189E+05 -3.672272E+04 -5.551435E+04
        81  10 -4.873395E+05 -5.971855E+05 -1.413750E+05 -6.261125E+05  1.021978E-08  7.581959E-09
        81  11  4.057302E+04 -3.133754E+05 -1.571329E+04 -3.855407E+05  2.226907E-09  5.144037E-09
        81  12  7.032044E+05 -1.637654E+05  1.101704E+05 -3.007166E+05 -2.420105E-08  3.057241E-10
        81  13  1.812473E+05 -3.537686E+05  1.019883E+02 -4.433562E+05 -2.189756E-09 -3.498308E-10
        81  14  1.141361E+05 -2.865713E+05 -7.953692E+01 -3.654179E+05 -3.079441E-09  9.106810E-09
        81  15  1.812908E+05 -3.536848E+05 -3.376701E+02 -4.433736E+05 -1.758116E-09  6.280681E-09
        81  16  8.502943E+05 -1.103148E+05  1.415554E+05 -2.604175E+05 -2.110803E-08 -6.444970E-09
        81  17  1.877049E+05 -2.597667E+05  1.555399E+04 -3.452929E+05  1.880855E-09  4.761785E-09
        81  18 -3.403460E+05 -5.435831E+05 -1.108610E+05 -5.859205E+05  2.880599E-08  5.867587E-09
        81  19 -4.873371E+05 -5.971804E+05 -1.413644E+05 -6.261107E+05 -3.421694E+04 -6.666338E+04
        81  20  4.057581E+04 -3.133741E+05 -1.570757E+04 -3.855397E+05 -4.958282E+04 -2.420719E+04
        81  21  7.032090E+05 -1.637639E+05  1.101789E+05 -3.007175E+05 -6.482318E+04  1.792393E+04
        81  22  1.812483E+05 -3.537661E+05  1.068061E+02 -4.433568E+05  1.731913E+04 -4.758144E+04
        81  23  1.141361E+05 -2.865713E+05 -7.948014E+01 -3.654179E+05  1.583142E+03 -5.263701E+03
        81  24  1.812913E+05 -3.536833E+05 -3.347657E+02 -4.433740E+05 -1.402728E+04  3.672766E+04
        81  25  8.502996E+05 -1.103127E+05  1.415658E+05 -2.604191E+05  6.891532E+04 -2.847718E+04
        81  26  1.877080E+05 -2.597657E+05  1.555957E+04 -3.452923E+05  5.275582E+04  1.368228E+04
        81  27 -3.403438E+05 -5.435794E+05 -1.108526E+05 -5.859189E+05  3.672272E+04  5.551435E+04
        82   1  1.129888E+06 -7.978497E+03  2.049404E+05 -1.844726E+05  7.556443E+04 -4.229253E+04
        82   2  1.656974E+06  2.755147E+05  3.318822E+05  5.679569E+04  8.377139E+04 -8.474600E+04
        82   3  2.320352E+06  4.261823E+05  4.641290E+05  1.429801E+05  8.981556E+04 -1.212098E+05
        82   4  1.812025E+05 -3.537275E+05 -4.828386E+02 -4.432748E+05  2.331243E+04 -6.164858E+04
        82   5  1.134979E+05 -2.876161E+05 -1.207217E+03 -3.653912E+05  3.877048E+04 -1.014597E+05
        82   6  1.803152E+05 -3.558134E+05 -2.342346E+03 -4.427593E+05  5.206922E+04 -1.352697E+05
        82   7 -7.665602E+05 -6.994036E+05 -2.059456E+05 -7.017117E+05 -2.885327E+04 -8.097265E+04
        82   8 -1.427564E+06 -8.505623E+05 -3.344273E+05 -7.866163E+05 -6.110071E+03 -1.181286E+05
        82   9 -1.955113E+06 -1.137465E+06 -4.690859E+05 -1.026656E+06  1.446266E+04 -1.492776E+05
        82  10  1.129881E+06 -7.981946E+03  2.049263E+05 -1.844700E+05 -2.319104E-09  8.419414E-09
        82  11  1.656965E+06  2.755051E+05  3.318555E+05  5.680140E+04  3.829546E-09  4.524654E-09
        82  12  2.320339E+06  4.261644E+05  4.640863E+05  1.429889E+05  2.455132E-08  4.010992E-09
        82  13  1.812009E+05 -3.537318E+05 -4.910011E+02 -4.432737E+05  6.261474E-10  2.232865E-09
        82  14  1.134935E+05 -2.876276E+05 -1.229384E+03 -3.653880E+05 -8.730361E-09 -4.457277E-10
        82  15  1.803074E+05 -3.558338E+05 -2.381822E+03 -4.427536E+05 -3.965438E-10  7.112253E-10
        82  16 -7.665629E+05 -6.994109E+05 -2.059595E+05 -7.017136E+05  7.614135E-09 -4.344767E-09
        82  17 -1.427568E+06 -8.505773E+05 -3.344536E+05 -7.866169E+05 -8.543794E-09 -4.657236E-09
        82  18 -1.955119E+06 -1.137489E+06 -4.691282E+05 -1.026655E+06 -1.193595E-08 -9.955415E-09
        82  19  1.129888E+06 -7.978497E+03  2.049404E+05 -1.844726E+05 -7.556443E+04  4.229253E+04
        82  20  1.656974E+06  2.755147E+05  3.318822E+05  5.679569E+04 -8.377139E+04  8.474600E+04
        82  21  2.320352E+06  4.261823E+05  4.641290E+05  1.429801E+05 -8.981556E+04  1.212098E+05
        82  22  1.812025E+05 -3.537275E+05 -4.828386E+02 -4.432748E+05 -2.331243E+04  6.164858E+04
        82  23  1.134979E+05 -2.876161E+05 -1.207217E+03 -3.653912E+05 -3.877048E+04  1.014597E+05
        82  24  1.803152E+05 -3.558134E+05 -2.342346E+03 -4.427593E+05 -5.206922E+04  1.352697E+05
        82  25 -7.665602E+05 -6.994036E+05 -2.059456E+05 -7.017117E+05  2.885327E+04  8.097265E+04
        82  26 -1.427564E+06 -8.505623E+05 -3.344273E+05 -7.866163E+05  6.110071E+03  1.181286E+05
        82  27 -1.955113E+06 -1.137465E+06 -4.690859E+05 -1.026656E+06 -1.446266E+04  1.492776E+05
        83   1  2.749985E+06  5.837604E+05  5.559425E+05  2.614899E+05  1.271095E+05 -1.400022E+05
        83   2  3.266232E+06  8.695772E+05  7.150010E+05  4.996805E+05 -2.312589E+03 -1.862730E+05
        83   3  3.938591E+06  1.045682E+06  9.747326E+05  5.902543E+05 -1.724578E+05 -1.242512E+05
        83   4  1.790139E+05 -3.547930E+05 -2.950020E+03 -4.417984E+05  6.304697E+04 -1.638810E+05
        83   5  1.127256E+05 -2.925092E+05 -6.085580E+03 -3.660684E+05  6.582711E+04 -1.609535E+05
        83   6  1.761980E+05 -3.660672E+05 -1.287898E+04 -4.381362E+05  2.792470E+04 -4.940311E+04
        83   7 -2.385290E+06 -1.292844E+06 -5.622212E+05 -1.142427E+06 -7.304533E+02 -1.876541E+05
        83   8 -3.030816E+06 -1.453846E+06 -7.278021E+05 -1.227803E+06  1.335928E+05 -1.357745E+05
        83   9 -3.572382E+06 -1.776876E+06 -1.001497E+06 -1.460878E+06  2.269769E+05  2.494317E+04
        83  10  2.749962E+06  5.837350E+05  5.558754E+05  2.615042E+05 -1.874067E-08 -6.755529E-09
        83  11  3.266223E+06  8.695400E+05  7.149358E+05  4.996802E+05 -1.317571E-09  1.224166E-09
        83  12  3.938555E+06  1.045657E+06  9.746481E+05  5.902371E+05  4.442537E-09  4.633288E-09
        83  13  1.790025E+05 -3.548229E+05 -3.007953E+03 -4.417901E+05  2.373121E-09 -2.005177E-09
        83  14  1.127140E+05 -2.925382E+05 -6.142398E+03 -3.660599E+05 -6.311616E-09  4.924989E-09
        83  15  1.761965E+05 -3.660700E+05 -1.288503E+04 -4.381351E+05  7.467021E-10  1.117223E-09
        83  16 -2.385299E+06 -1.292882E+06 -5.622875E+05 -1.142428E+06  2.372235E-08  7.499222E-09
        83  17 -3.030840E+06 -1.453870E+06 -7.278703E+05 -1.227788E+06  5.565944E-09  4.038348E-09
        83  18 -3.572437E+06 -1.776890E+06 -1.001596E+06 -1.460882E+06 -9.467817E-09 -1.521984E-09
        83  19  2.749985E+06  5.837604E+05  5.559425E+05  2.614899E+05 -1.271095E+05  1.400022E+05
        83  20  3.266232E+06  8.695772E+05  7.150010E+05  4.996805E+05  2.312589E+03  1.862730E+05
        83  21  3.938591E+06  1.045682E+06  9.747326E+05  5.902543E+05  1.724578E+05  1.242512E+05
        83  22  1.790139E+05 -3.547930E+05 -2.950020E+03 -4.417984E+05 -6.304697E+04  1.638810E+05
        83  23  1.127256E+05 -2.925092E+05 -6.085580E+03 -3.660684E+05 -6.582711E+04  1.609535E+05
        83  24  1.761980E+05 -3.660672E+05 -1.287898E+04 -4.381362E+05 -2.792470E+04  4.940311E+04
        83  25 -2.385290E+06 -1.292844E+06 -5.622212E+05 -1.142427E+06  7.304533E+02  1.876541E+05
        83  26 -3.030816E+06 -1.453846E+06 -7.278021E+05 -1.227803E+06 -1.335928E+05  1.357745E+05
        83  27 -3.572382E+06 -1.776876E+06 -1.001497E+06 -1.460878E+06 -2.269769E+05 -2.494317E+04
        84   1 -2.041602E+05 -1.040386E+05 -9.285923E+04 -7.165838E+04 -2.283588E+04  7.018349E+03
        84   2 -1.322856E+05 -1.066687E+05 -7.020432E+04 -7.962452E+04 -5.338663E+03  2.341508E+04
        84   3 -5.972653E+04 -9.754920E+04 -5.600331E+04 -9.820424E+04  1.216444E+04  2.783184E+04
        84   4  3.860957E+05  4.131110E+04  4.371946E+04 -9.981200E+04  3.089222E+04  7.021729E+03
        84   5  3.832789E+05  1.488770E+04  2.208304E+04 -9.450621E+04  1.964362E+04  2.341327E+04
        84   6  3.861271E+05  5.197437E+03  1.195117E+04 -9.981255E+04  8.398573E+03  2.783018E+04
        84   7  9.766814E+05  1.866408E+05  1.802861E+05 -1.279926E+05  8.467103E+04  7.020237E+03
        84   8  8.991044E+05  1.364305E+05  1.143627E+05 -1.094006E+05  4.464606E+04  2.341026E+04
        84   9  8.321797E+05  1.079345E+05  7.990147E+04 -1.014220E+05  4.630105E+03  2.782854E+04
        84  10 -2.041608E+05 -1.040388E+05 -9.286030E+04 -7.165825E+04  6.093165E-09 -3.026252E-10
        84  11 -1.322858E+05 -1.066693E+05 -7.020540E+04 -7.962442E+04 -2.700253E-09 -1.646031E-09
        84  12 -5.972690E+04 -9.755008E+04 -5.600505E+04 -9.820451E+04  3.851505E-09 -3.195348E-09
        84  13  3.860947E+05  4.131079E+04  4.371757E+04 -9.981217E+04  1.484970E-10 -4.450097E-11
        84  14  3.832784E+05  1.488700E+04  2.208129E+04 -9.450658E+04  4.464818E-09 -1.162328E-09
        84  15  3.861268E+05  5.196586E+03  1.194958E+04 -9.981274E+04  3.077560E-09 -2.171000E-09
        84  16  9.766737E+05  1.866389E+05  1.802726E+05 -1.279931E+05 -4.655924E-09 -2.315913E-11
        84  17  8.991021E+05  1.364294E+05  1.143579E+05 -1.094014E+05 -2.554579E-09 -5.260051E-10
        84  18  8.321795E+05  1.079337E+05  7.989998E+04 -1.014221E+05 -9.312178E-10 -1.160878E-09
        84  19 -2.041602E+05 -1.040386E+05 -9.285923E+04 -7.165838E+04  2.283588E+04 -7.018349E+03
        84  20 -1.322856E+05 -1.066687E+05 -7.020432E+04 -7.962452E+04  5.338663E+03 -2.341508E+04
        84  21 -5.972653E+04 -9.754920E+04 -5.600331E+04 -9.820424E+04 -1.216444E+04 -2.783184E+04
        84  22  3.860957E+05  4.131110E+04  4.371946E+04 -9.981200E+04 -3.089222E+04 -7.021729E+03
        84  23  3.832789E+05  1.488770E+04  2.208304E+04 -9.450621E+04 -1.964362E+04 -2.341327E+04
        84  24  3.861271E+05  5.197437E+03  1.195117E+04 -9.981255E+04 -8.398573E+03 -2.783018E+04
        84  25  9.766814E+05  1.866408E+05  1.802861E+05 -1.279926E+05 -8.467103E+04 -7.020237E+03
        84  26  8.991044E+05  1.364305E+05  1.143627E+05 -1.094006E+05 -4.464606E+04 -2.341026E+04
        84  27  8.321797E+05  1.079345E+05  7.990147E+04 -1.014220E+05 -4.630105E+03 -2.782854E+04
        85   1 -1.549084E+04 -8.809464E+04 -5.000571E+04 -9.776055E+04  1.156302E+04  2.636334E+04
        85   2  5.658010E+04 -7.339573E+04 -4.034202E+04 -9.315015E+04  1.304210E+04  2.358541E+04
        85   3  1.287259E+05 -5.767825E+04 -3.138442E+04 -1.000401E+05  1.452074E+04  1.918842E+04
        85   4  3.850403E+05  3.779720E+03  8.911661E+03 -1.000104E+05  6.842755E+03  2.636216E+04
        85   5  3.846769E+05  1.237792E+03  4.806344E+03 -9.426074E+04  4.434608E+03  2.358541E+04
        85   6  3.850573E+05  3.888514E+02  2.693032E+03 -1.000109E+05  2.025866E+03  1.919006E+04
        85   7  7.857329E+05  9.564665E+04  6.782627E+04 -1.022617E+05  2.119569E+03  2.636101E+04
        85   8  7.128831E+05  7.586664E+04  4.995379E+04 -9.537192E+04 -4.177228E+03  2.358544E+04
        85   9  6.414560E+05  5.845324E+04  3.677056E+04 -9.998168E+04 -1.047393E+04  1.919171E+04
        85  10 -1.549117E+04 -8.809542E+04 -5.000726E+04 -9.776080E+04  1.152453E-09 -1.690671E-09
        85  11  5.657977E+04 -7.339638E+04 -4.034339E+04 -9.315040E+04  7.292594E-09  1.021330E-09
        85  12  1.287256E+05 -5.767871E+04 -3.138551E+04 -1.000404E+05 -3.763656E-10 -1.633957E-09
        85  13  3.850400E+05  3.778961E+03  8.910267E+03 -1.000105E+05  1.388142E-10 -2.090714E-09
        85  14  3.846767E+05  1.237189E+03  4.805262E+03 -9.426082E+04 -6.253618E-09 -1.406433E-09
        85  15  3.850572E+05  3.884548E+02  2.692332E+03 -1.000109E+05 -1.033879E-08 -1.641480E-09
        85  16  7.857327E+05  9.564590E+04  6.782496E+04 -1.022618E+05 -3.329247E-09 -2.352950E-09
        85  17  7.128829E+05  7.586604E+04  4.995271E+04 -9.537184E+04 -1.037888E-08 -3.817527E-09
        85  18  6.414558E+05  5.845282E+04  3.676966E+04 -9.998151E+04 -7.392590E-09 -1.910052E-09
        85  19 -1.549084E+04 -8.809464E+04 -5.000571E+04 -9.776055E+04 -1.156302E+04 -2.636334E+04
        85  20  5.658010E+04 -7.339573E+04 -4.034202E+04 -9.315015E+04 -1.304210E+04 -2.358541E+04
        85  21  1.287259E+05 -5.767825E+04 -3.138442E+04 -1.000401E+05 -1.452074E+04 -1.918842E+04
        85  22  3.850403E+05  3.779720E+03  8.911661E+03 -1.000104E+05 -6.842755E+03 -2.636216E+04
        85  23  3.846769E+05  1.237792E+03  4.806344E+03 -9.426074E+04 -4.434608E+03 -2.358541E+04
        85  24  3.850573E+05  3.888514E+02  2.693032E+03 -1.000109E+05 -2.025866E+03 -1.919006E+04
        85  25  7.857329E+05  9.564665E+04  6.782627E+04 -1.022617E+05 -2.119569E+03 -2.636101E+04
        85  26  7.128831E+05  7.586664E+04  4.995379E+04 -9.537192E+04  4.177228E+03 -2.358544E+04
        85  27  6.414560E+05  5.845324E+04  3.677056E+04 -9.998168E+04  1.047393E+04 -1.919171E+04
        86   1  1.731580E+05 -4.761582E+04 -2.575956E+04 -9.996043E+04  1.425278E+04  1.608391E+04
        86   2  2.452288E+05 -3.147441E+04 -1.701351E+04 -9.421606E+04  1.421264E+04  1.071619E+04
        86   3  3.173277E+05 -1.526026E+04 -8.223164E+03 -1.000890E+05  1.417210E+04  5.130537E+03
        86   4  3.849214E+05  2.811905E+02  2.028236E+03 -1.000370E+05  1.629307E+03  1.608605E+04
        86   5  3.848676E+05  7.292659E+01  1.134156E+03 -9.422847E+04  1.065208E+03  1.071893E+04
        86   6  3.849285E+05  2.868317E+01  6.478486E+02 -1.000371E+05  5.007214E+02  5.133911E+03
        86   7  5.967309E+05  4.817640E+04  2.981633E+04 -1.001136E+05 -1.099827E+04  1.608819E+04
        86   8  5.245267E+05  3.161954E+04  1.928236E+04 -9.424088E+04 -1.208504E+04  1.072168E+04
        86   9  4.525343E+05  1.531753E+04  9.519533E+03 -9.998514E+04 -1.317207E+04  5.137284E+03
        86  10  1.731577E+05 -4.761615E+04 -2.576042E+04 -9.996061E+04  1.816079E-08 -3.048342E-09
        86  11  2.452285E+05 -3.147459E+04 -1.701410E+04 -9.421619E+04 -7.297089E-09 -2.594899E-09
        86  12  3.173275E+05 -1.526034E+04 -8.223591E+03 -1.000890E+05 -3.759379E-08 -3.748337E-09
        86  13  3.849213E+05  2.809118E+02  2.027745E+03 -1.000370E+05 -4.452044E-09  4.409203E-10
        86  14  3.848675E+05  7.280288E+01  1.133938E+03 -9.422848E+04 -2.168814E-09  7.383090E-09
        86  15  3.849284E+05  2.865480E+01  6.477986E+02 -1.000371E+05  3.488442E-09  1.278861E-08
        86  16  5.967307E+05  4.817609E+04  2.981562E+04 -1.001134E+05 -2.055303E-08 -5.523501E-10
        86  17  5.245265E+05  3.161938E+04  1.928187E+04 -9.424077E+04  4.757304E-09 -1.924746E-09
        86  18  4.525341E+05  1.531746E+04  9.519158E+03 -9.998509E+04  3.887619E-08 -6.543114E-09
        86  19  1.731580E+05 -4.761582E+04 -2.575956E+04 -9.996043E+04 -1.425278E+04 -1.608391E+04
        86  20  2.452288E+05 -3.147441E+04 -1.701351E+04 -9.421606E+04 -1.421264E+04 -1.071619E+04
        86  21  3.173277E+05 -1.526026E+04 -8.223164E+03 -1.000890E+05 -1.417210E+04 -5.130537E+03
        86  22  3.849214E+05  2.811905E+02  2.028236E+03 -1.000370E+05 -1.629307E+03 -1.608605E+04
        86  23  3.848676E+05  7.292659E+01  1.134156E+03 -9.422847E+04 -1.065208E+03 -1.071893E+04
        86  24  3.849285E+05  2.868317E+01  6.478486E+02 -1.000371E+05 -5.007214E+02 -5.133911E+03
        86  25  5.967309E+05  4.817640E+04  2.981633E+04 -1.001136E+05  1.099827E+04 -1.608819E+04
        86  26  5.245267E+05  3.161954E+04  1.928236E+04 -9.424088E+04  1.208504E+04 -1.072168E+04
        86  27  4.525343E+05  1.531753E+04  9.519533E+03 -9.998514E+04  1.317207E+04 -5.137284E+03
        87   1  3.617773E+05 -5.187744E+03 -2.460925E+03 -1.000776E+05  1.408792E+04  1.806304E+03
        87   2  4.338570E+05  1.102841E+04  6.416783E+03 -9.426055E+04  1.400605E+04 -3.906507E+03
        87   3  5.059542E+05  2.725014E+04  1.534908E+04 -1.000762E+05  1.392431E+04 -9.643153E+03
        87   4  3.849084E+05  2.692638E+01  4.910809E+02 -1.000405E+05  3.992634E+02  1.809781E+03
        87   5  3.848967E+05  1.385617E+01  2.808016E+02 -9.422416E+04  2.592676E+02 -3.903194E+03
        87   6  3.849060E+05  1.623015E+01  1.645869E+02 -1.000405E+05  1.194155E+02 -9.640016E+03
        87   7  4.080404E+05  5.241675E+03  3.443788E+03 -1.000035E+05 -1.328987E+04  1.813256E+03
        87   8  3.359393E+05 -1.100069E+04 -5.854475E+03 -9.418778E+04 -1.348648E+04 -3.899881E+03
        87   9  2.638733E+05 -2.721817E+04 -1.501923E+04 -1.000049E+05 -1.368293E+04 -9.636879E+03
        87  10  3.617771E+05 -5.187800E+03 -2.461304E+03 -1.000776E+05  1.260883E-07 -3.535896E-09
        87  11  4.338568E+05  1.102834E+04  6.416386E+03 -9.426051E+04 -1.239765E-08 -1.517037E-09
        87  12  5.059539E+05  2.724998E+04  1.534855E+04 -1.000761E+05 -1.491954E-07 -1.676412E-10
        87  13  3.849084E+05  2.692282E+01  4.910744E+02 -1.000405E+05  4.269012E-09  1.218106E-08
        87  14  3.848967E+05  1.383979E+01  2.807729E+02 -9.422416E+04 -8.416240E-11  7.254892E-09
        87  15  3.849060E+05  1.613034E+01  1.644122E+02 -1.000405E+05 -3.085844E-09  7.529077E-10
        87  16  4.080402E+05  5.241624E+03  3.443450E+03 -1.000034E+05 -1.293082E-07 -7.168660E-09
        87  17  3.359391E+05 -1.100076E+04 -5.854846E+03 -9.418782E+04  1.769559E-08 -3.741861E-09
        87  18  2.638731E+05 -2.721832E+04 -1.501976E+04 -1.000050E+05  1.534160E-07 -2.309749E-09
        87  19  3.617773E+05 -5.187744E+03 -2.460925E+03 -1.000776E+05 -1.408792E+04 -1.806304E+03
        87  20  4.338570E+05  1.102841E+04  6.416783E+03 -9.426055E+04 -1.400605E+04  3.906507E+03
        87  21  5.059542E+05  2.725014E+04  1.534908E+04 -1.000762E+05 -1.392431E+04  9.643153E+03
        87  22  3.849084E+05  2.692638E+01  4.910809E+02 -1.000405E+05 -3.992634E+02 -1.809781E+03
        87  23  3.848967E+05  1.385617E+01  2.808016E+02 -9.422416E+04 -2.592676E+02  3.903194E+03
        87  24  3.849060E+05  1.623015E+01  1.645869E+02 -1.000405E+05 -1.194155E+02  9.640016E+03
        87  25  4.080404E+05  5.241675E+03  3.443788E+03 -1.000035E+05  1.328987E+04 -1.813256E+03
        87  26  3.359393E+05 -1.100069E+04 -5.854475E+03 -9.418778E+04  1.348648E+04  3.899881E+03
        87  27  2.638733E+05 -2.721817E+04 -1.501923E+04 -1.000049E+05  1.368293E+04  9.636879E+03
        88   1  5.504179E+05  3.731202E+04  2.119072E+04 -1.000769E+05  1.389735E+04 -1.299118E+04
        88   2  6.225144E+05  5.352422E+04  3.020482E+04 -9.425563E+04  1.376509E+04 -1.871952E+04
        88   3  6.946414E+05  6.975518E+04  3.931050E+04 -1.000683E+05  1.363352E+04 -2.440901E+04
        88   4  3.849010E+05  1.413194E+01  1.274438E+02 -1.000409E+05  9.239003E+01 -1.298836E+04
        88   5  3.848905E+05  2.333263E+00  7.857286E+01 -9.422377E+04  5.268559E+01 -1.871760E+04
        88   6  3.848892E+05 -6.669441E+00  5.653878E+01 -1.000409E+05  1.368292E+01 -2.440799E+04
        88   7  2.194126E+05 -3.728478E+04 -2.093522E+04 -1.000048E+05 -1.370907E+04 -1.298554E+04
        88   8  1.473251E+05 -5.352175E+04 -3.004717E+04 -9.419191E+04 -1.365474E+04 -1.871568E+04
        88   9  7.523573E+04 -6.977234E+04 -3.919705E+04 -1.000134E+05 -1.359970E+04 -2.440697E+04
        88  10  5.504176E+05  3.731179E+04  2.119004E+04 -1.000768E+05  5.515740E-08 -1.077563E-09
        88  11  6.225141E+05  5.352379E+04  3.020381E+04 -9.425542E+04  6.203094E-08 -4.681805E-09
        88  12  6.946411E+05  6.975449E+04  3.930903E+04 -1.000680E+05  5.721999E-08 -7.146382E-09
        88  13  3.849009E+05  1.395075E+01  1.271267E+02 -1.000409E+05  8.896400E-09 -2.123947E-10
        88  14  3.848905E+05  1.956982E+00  7.791436E+01 -9.422377E+04  4.581157E-09  5.010637E-09
        88  15  3.848890E+05 -7.309288E+00  5.541905E+01 -1.000409E+05 -1.001135E-09  1.216901E-08
        88  16  2.194123E+05 -3.728501E+04 -2.093589E+04 -1.000050E+05 -6.178503E-08 -3.257822E-09
        88  17  1.473248E+05 -5.352218E+04 -3.004817E+04 -9.419212E+04 -6.298589E-08 -4.596110E-09
        88  18  7.523538E+04 -6.977303E+04 -3.919852E+04 -1.000137E+05 -5.397411E-08 -3.360757E-09
        88  19  5.504179E+05  3.731202E+04  2.119072E+04 -1.000769E+05 -1.389735E+04  1.299118E+04
        88  20  6.225144E+05  5.352422E+04  3.020482E+04 -9.425563E+04 -1.376509E+04  1.871952E+04
        88  21  6.946414E+05  6.975518E+04  3.931050E+04 -1.000683E+05 -1.363352E+04  2.440901E+04
        88  22  3.849010E+05  1.413194E+01  1.274438E+02 -1.000409E+05 -9.239003E+01  1.298836E+04
        88  23  3.848905E+05  2.333263E+00  7.857286E+01 -9.422377E+04 -5.268559E+01  1.871760E+04
        88  24  3.848892E+05 -6.669441E+00  5.653878E+01 -1.000409E+05 -1.368292E+01  2.440799E+04
        88  25  2.194126E+05 -3.728478E+04 -2.093522E+04 -1.000048E+05  1.370907E+04  1.298554E+04
        88  26  1.473251E+05 -5.352175E+04 -3.004717E+04 -9.419191E+04  1.365474E+04  1.871568E+04
        88  27  7.523573E+04 -6.977234E+04 -3.919705E+04 -1.000134E+05  1.359970E+04  2.440697E+04
        89   1  7.391476E+05  7.983073E+04  4.525393E+04 -1.000602E+05  1.360037E+04 -2.771774E+04
        89   2  8.112238E+05  9.609840E+04  5.466831E+04 -9.423490E+04  1.280558E+04 -3.321712E+04
        89   3  8.834558E+05  1.125055E+05  6.463799E+04 -1.000260E+05  1.201189E+04 -3.839653E+04
        89   4  3.848857E+05 -1.498161E+01  5.241419E+01 -1.000370E+05  3.733739E+00 -2.771745E+04
        89   5  3.848660E+05 -3.585197E+01  5.351082E+01 -9.422859E+04 -2.285804E+01 -3.321844E+04
        89   6  3.848646E+05 -5.010750E+01  7.682163E+01 -1.000370E+05 -4.828524E+01 -3.839935E+04
        89   7  3.075288E+04 -7.986575E+04 -4.514892E+04 -1.000138E+05 -1.358553E+04 -2.771715E+04
        89   8 -4.130521E+04 -9.617751E+04 -5.456147E+04 -9.422226E+04 -1.284293E+04 -3.321976E+04
        89   9 -1.134720E+05 -1.126160E+05 -6.448515E+04 -1.000480E+05 -1.209925E+04 -3.840217E+04
        89  10  7.391472E+05  7.982986E+04  4.525214E+04 -1.000599E+05  2.113174E-09 -6.942189E-09
        89  11  8.112233E+05  9.609718E+04  5.466593E+04 -9.423456E+04 -1.601449E-09 -5.845164E-09
        89  12  8.834552E+05  1.125039E+05  6.463495E+04 -1.000256E+05 -4.583227E-09 -7.692010E-09
        89  13  3.848855E+05 -1.580674E+01  5.097023E+01 -1.000370E+05  4.303751E-09  1.517037E-08
        89  14  3.848657E+05 -3.703712E+01  5.143682E+01 -9.422859E+04  8.489405E-09  1.610214E-08
        89  15  3.848642E+05 -5.169115E+01  7.405023E+01 -1.000370E+05  7.490934E-09  1.497655E-08
        89  16  3.075247E+04 -7.986662E+04 -4.515071E+04 -1.000141E+05  7.745137E-09 -2.076104E-09
        89  17 -4.130568E+04 -9.617874E+04 -5.456386E+04 -9.422261E+04  7.303775E-09 -1.420993E-09
        89  18 -1.134725E+05 -1.126176E+05 -6.448820E+04 -1.000484E+05  1.021661E-08 -1.824845E-09
        89  19  7.391476E+05  7.983073E+04  4.525393E+04 -1.000602E+05 -1.360037E+04  2.771774E+04
        89  20  8.112238E+05  9.609840E+04  5.466831E+04 -9.423490E+04 -1.280558E+04  3.321712E+04
        89  21  8.834558E+05  1.125055E+05  6.463799E+04 -1.000260E+05 -1.201189E+04  3.839653E+04
        89  22  3.848857E+05 -1.498161E+01  5.241419E+01 -1.000370E+05 -3.733739E+00  2.771745E+04
        89  23  3.848660E+05 -3.585197E+01  5.351082E+01 -9.422859E+04  2.285804E+01  3.321844E+04
        89  24  3.848646E+05 -5.010750E+01  7.682163E+01 -1.000370E+05  4.828524E+01  3.839935E+04
        89  25  3.075288E+04 -7.986575E+04 -4.514892E+04 -1.000138E+05  1.358553E+04  2.771715E+04
        89  26 -4.130521E+04 -9.617751E+04 -5.456147E+04 -9.422226E+04  1.284293E+04  3.321976E+04
        89  27 -1.134720E+05 -1.126160E+05 -6.448515E+04 -1.000480E+05  1.209925E+04  3.840217E+04
        90   1  9.281473E+05  1.227235E+05  7.115371E+04 -9.996693E+04  1.181093E+04 -4.138206E+04
        90   2  9.998485E+05  1.394647E+05  8.326841E+04 -9.424066E+04  6.019790E+03 -4.513446E+04
        90   3  1.072600E+06  1.572566E+05  9.941968E+04 -9.995616E+04  2.283765E+02 -4.650971E+04
        90   4  3.848639E+05 -6.008158E+01  9.707946E+01 -9.999826E+04 -6.239222E+01 -4.138590E+04
        90   5  3.848219E+05 -6.141781E+01  1.604265E+02 -9.427702E+04 -1.406693E+02 -4.513960E+04
        90   6  3.848338E+05 -2.552021E+00  2.970113E+02 -9.999827E+04 -2.184853E+02 -4.651490E+04
        90   7 -1.581178E+05 -1.228559E+05 -7.096090E+04 -1.000295E+05 -1.192584E+04 -4.138974E+04
        90   8 -2.298198E+05 -1.396038E+05 -8.295099E+04 -9.431332E+04 -6.295314E+03 -4.514475E+04
        90   9 -3.024554E+05 -1.572834E+05 -9.883309E+04 -1.000403E+05 -6.648735E+02 -4.652010E+04
        90  10  9.281467E+05  1.227216E+05  7.115023E+04 -9.996654E+04 -9.591461E-08 -6.803373E-09
        90  11  9.998479E+05  1.394625E+05  8.326451E+04 -9.424044E+04 -2.808528E-08 -9.904090E-10
        90  12  1.072599E+06  1.572543E+05  9.941561E+04 -9.995615E+04  3.754972E-08  3.176890E-09
        90  13  3.848634E+05 -6.192116E+01  9.386020E+01 -9.999827E+04  4.299237E-09  1.060363E-08
        90  14  3.848214E+05 -6.360623E+01  1.565967E+02 -9.427703E+04  2.188241E-09 -1.237333E-09
        90  15  3.848332E+05 -4.875823E+00  2.929446E+02 -9.999828E+04  7.606331E-09 -1.232371E-08
        90  16 -1.581184E+05 -1.228578E+05 -7.096439E+04 -1.000299E+05  9.827021E-08 -2.460113E-09
        90  17 -2.298204E+05 -1.396060E+05 -8.295490E+04 -9.431355E+04  3.123144E-08 -1.157253E-09
        90  18 -3.024560E+05 -1.572857E+05 -9.883716E+04 -1.000403E+05 -3.438355E-08  2.850223E-09
        90  19  9.281473E+05  1.227235E+05  7.115371E+04 -9.996693E+04 -1.181093E+04  4.138206E+04
        90  20  9.998485E+05  1.394647E+05  8.326841E+04 -9.424066E+04 -6.019790E+03  4.513446E+04
        90  21  1.072600E+06  1.572566E+05  9.941968E+04 -9.995616E+04 -2.283765E+02  4.650971E+04
        90  22  3.848639E+05 -6.008158E+01  9.707946E+01 -9.999826E+04  6.239222E+01  4.138590E+04
        90  23  3.848219E+05 -6.141781E+01  1.604265E+02 -9.427702E+04  1.406693E+02  4.513960E+04
        90  24  3.848338E+05 -2.552021E+00  2.970113E+02 -9.999827E+04  2.184853E+02  4.651490E+04
        90  25 -1.581178E+05 -1.228559E+05 -7.096090E+04 -1.000295E+05  1.192584E+04  4.138974E+04
        90  26 -2.298198E+05 -1.396038E+05 -8.295099E+04 -9.431332E+04  6.295314E+03  4.514475E+04
        90  27 -3.024554E+05 -1.572834E+05 -9.883309E+04 -1.000403E+05  6.648735E+02  4.652010E+04
        91   1  1.118458E+06  1.685495E+05  1.100531E+05 -9.960735E+04 -1.224698E+03 -4.709280E+04
        91   2  1.187071E+06  1.888965E+05  1.419176E+05 -9.493793E+04 -4.387068E+04 -3.791088E+04
        91   3  1.263258E+06  2.171679E+05  2.035050E+05 -1.004034E+05 -8.653606E+04 -1.113931E+04
        91   4  3.848640E+05  3.004878E+01  3.986894E+02 -9.970746E+04 -2.707712E+02 -4.709802E+04
        91   5  3.847245E+05  3.382070E+02  7.262866E+02 -9.464059E+04 -6.302400E+02 -3.790114E+04
        91   6  3.848266E+05  1.241226E+03  1.443854E+03 -9.970780E+04 -1.002707E+03 -1.110420E+04
        91   7 -3.481907E+05 -1.685147E+05 -1.092661E+05 -9.980743E+04  6.820759E+02 -4.710324E+04
        91   8 -4.169890E+05 -1.882542E+05 -1.404815E+05 -9.434366E+04  4.255605E+04 -3.789135E+04
        91   9 -4.928764E+05 -2.147354E+05 -2.006409E+05 -9.901322E+04  8.441078E+04 -1.106888E+04
        91  10  1.118458E+06  1.685471E+05  1.100489E+05 -9.960740E+04 -4.065791E-08  2.936360E-09
        91  11  1.187068E+06  1.888945E+05  1.419113E+05 -9.493927E+04 -2.296422E-09 -7.233106E-11
        91  12  1.263250E+06  2.171658E+05  2.034907E+05 -1.004042E+05  2.295715E-08 -2.750263E-10
        91  13  3.848634E+05  2.766635E+01  3.945200E+02 -9.970747E+04  8.220903E-09 -1.543610E-08
        91  14  3.847241E+05  3.366641E+02  7.235859E+02 -9.464061E+04  2.634406E-09 -8.301630E-09
        91  15  3.848266E+05  1.241093E+03  1.443621E+03 -9.970781E+04 -8.563640E-09 -2.304411E-09
        91  16 -3.481913E+05 -1.685171E+05 -1.092703E+05 -9.980740E+04  4.499916E-08  3.137419E-09
        91  17 -4.169913E+05 -1.882563E+05 -1.404876E+05 -9.434236E+04  3.256359E-09  8.975834E-10
        91  18 -4.928841E+05 -2.147374E+05 -2.006545E+05 -9.901247E+04 -2.019372E-08 -7.344732E-10
        91  19  1.118458E+06  1.685495E+05  1.100531E+05 -9.960735E+04  1.224698E+03  4.709280E+04
        91  20  1.187071E+06  1.888965E+05  1.419176E+05 -9.493793E+04  4.387068E+04  3.791088E+04
        91  21  1.263258E+06  2.171679E+05  2.035050E+05 -1.004034E+05  8.653606E+04  1.113931E+04
        91  22  3.848640E+05  3.004878E+01  3.986894E+02 -9.970746E+04  2.707712E+02  4.709802E+04
        91  23  3.847245E+05  3.382070E+02  7.262866E+02 -9.464059E+04  6.302400E+02  3.790114E+04
        91  24  3.848266E+05  1.241226E+03  1.443854E+03 -9.970780E+04  1.002707E+03  1.110420E+04
        91  25 -3.481907E+05 -1.685147E+05 -1.092661E+05 -9.980743E+04 -6.820759E+02  4.710324E+04
        91  26 -4.169890E+05 -1.882542E+05 -1.404815E+05 -9.434366E+04 -4.255605E+04  3.789135E+04
        91  27 -4.928764E+05 -2.147354E+05 -2.006409E+05 -9.901322E+04 -8.441078E+04  1.106888E+04
        92   1  1.401949E+05  7.341089E+05  1.345166E+05 -3.349832E+05  3.961121E+03  2.010480E+04
        92   2  8.252174E+04  4.858225E+05  6.981671E+04 -3.185858E+05  9.337557E+03 -8.745749E+03
        92   3  2.658926E+04  2.417721E+05  2.431250E+04 -3.407090E+05  1.835871E+03 -3.758651E+04
        92   4 -9.186517E+03  1.312632E+05 -9.904041E+03 -3.410567E+05  3.984040E+03 -8.215339E+03
        92   5 -3.009062E+03  1.318843E+05 -4.056918E+03 -3.217920E+05  9.335827E+03 -6.132579E+03
        92   6 -4.538426E+02  1.313204E+05 -4.808420E+02 -3.410512E+05  1.805814E+03 -4.050835E+03
        92   7 -1.585937E+05 -4.712480E+05 -1.543473E+05 -3.471241E+05  4.007529E+03 -3.650812E+04
        92   8 -8.854782E+04 -2.219354E+05 -7.793743E+04 -3.249962E+05  9.334069E+03 -3.520873E+03
        92   9 -2.749718E+04  2.088251E+04 -2.527074E+04 -3.413932E+05  1.775717E+03  2.947894E+04
        92  10  1.401948E+05  7.341085E+05  1.345158E+05 -3.349833E+05 -7.354568E-11  6.921271E-08
        92  11  8.252162E+04  4.858223E+05  6.981640E+04 -3.185858E+05  3.949125E-09 -3.227021E-09
        92  12  2.658888E+04  2.417706E+05  2.430984E+04 -3.407090E+05  2.459047E-09 -7.606875E-08
        92  13 -9.186552E+03  1.312632E+05 -9.904198E+03 -3.410567E+05  1.212318E-09  2.590518E-11
        92  14 -3.009166E+03  1.318842E+05 -4.057152E+03 -3.217919E+05  6.285686E-09  4.286520E-10
        92  15 -4.538505E+02  1.313204E+05 -4.808789E+02 -3.410511E+05  6.118772E-09  4.741219E-11
        92  16 -1.585941E+05 -4.712494E+05 -1.543499E+05 -3.471239E+05 -5.342305E-09 -6.925710E-08
        92  17 -8.854791E+04 -2.219355E+05 -7.793762E+04 -3.249962E+05  7.922990E-09  3.447831E-09
        92  18 -2.749742E+04  2.088158E+04 -2.527238E+04 -3.413932E+05 -3.436626E-09  7.647135E-08
        92  19  1.401949E+05  7.341089E+05  1.345166E+05 -3.349832E+05 -3.961121E+03 -2.010480E+04
        92  20  8.252174E+04  4.858225E+05  6.981671E+04 -3.185858E+05 -9.337557E+03  8.745749E+03
        92  21  2.658926E+04  2.417721E+05  2.431250E+04 -3.407090E+05 -1.835871E+03  3.758651E+04
        92  22 -9.186517E+03  1.312632E+05 -9.904041E+03 -3.410567E+05 -3.984040E+03  8.215339E+03
        92  23 -3.009062E+03  1.318843E+05 -4.056918E+03 -3.217920E+05 -9.335827E+03  6.132579E+03
        92  24 -4.538426E+02  1.313204E+05 -4.808420E+02 -3.410512E+05 -1.805814E+03  4.050835E+03
        92  25 -1.585937E+05 -4.712480E+05 -1.543473E+05 -3.471241E+05 -4.007529E+03  3.650812E+04
        92  26 -8.854782E+04 -2.219354E+05 -7.793743E+04 -3.249962E+05 -9.334069E+03  3.520873E+03
        92  27 -2.749718E+04  2.088251E+04 -2.527074E+04 -3.413932E+05 -1.775717E+03 -2.947894E+04
        93   1 -8.406631E+03  8.927628E+04  1.450154E+03 -3.407665E+05 -6.999818E+03 -3.848065E+04
        93   2 -6.403959E+04 -1.567972E+05 -3.525478E+04 -3.198910E+05 -2.054292E+04 -3.714691E+04
        93   3 -1.186191E+05 -4.027301E+05 -7.257133E+04 -3.382909E+05 -3.256118E+04 -3.581138E+04
        93   4  1.157874E+01  1.317443E+05  1.072139E+03 -3.412180E+05 -7.030627E+03 -4.153680E+03
        93   5  1.575598E+03  1.313626E+05  4.637368E+03 -3.215795E+05 -2.056784E+04 -6.486352E+03
        93   6  4.830863E+03  1.316957E+05  1.013302E+04 -3.412146E+05 -3.258064E+04 -8.816717E+03
        93   7  8.430416E+03  1.742171E+05  6.987619E+02 -3.416695E+05 -7.061483E+03  3.017539E+04
        93   8  6.718764E+04  4.196088E+05  4.453208E+04 -3.232688E+05 -2.059291E+04  2.418781E+04
        93   9  1.282673E+05  6.664085E+05  9.283360E+04 -3.441409E+05 -3.260033E+04  1.820031E+04
        93  10 -8.407081E+03  8.927467E+04  1.447279E+03 -3.407667E+05  1.538008E-09 -6.786846E-09
        93  11 -6.404042E+04 -1.567988E+05 -3.525817E+04 -3.198916E+05  3.452918E-09  2.377967E-08
        93  12 -1.186206E+05 -4.027317E+05 -7.257574E+04 -3.382918E+05  5.202180E-10  5.175205E-08
        93  13  1.152100E+01  1.317443E+05  1.072014E+03 -3.412180E+05  5.322947E-10 -2.461029E-11
        93  14  1.575133E+03  1.313625E+05  4.636493E+03 -3.215796E+05 -4.112270E-09  3.553338E-10
        93  15  4.829702E+03  1.316953E+05  1.013088E+04 -3.412149E+05  1.073335E-11  6.274942E-11
        93  16  8.430118E+03  1.742161E+05  6.969581E+02 -3.416694E+05 -1.700603E-09  6.657712E-09
        93  17  6.718703E+04  4.196080E+05  4.453019E+04 -3.232684E+05 -3.440611E-09 -2.345864E-08
        93  18  1.282661E+05  6.664079E+05  9.283098E+04 -3.441404E+05  1.240984E-09 -5.147217E-08
        93  19 -8.406631E+03  8.927628E+04  1.450154E+03 -3.407665E+05  6.999818E+03  3.848065E+04
        93  20 -6.403959E+04 -1.567972E+05 -3.525478E+04 -3.198910E+05  2.054292E+04  3.714691E+04
        93  21 -1.186191E+05 -4.027301E+05 -7.257133E+04 -3.382909E+05  3.256118E+04  3.581138E+04
        93  22  1.157874E+01  1.317443E+05  1.072139E+03 -3.412180E+05  7.030627E+03  4.153680E+03
        93  23  1.575598E+03  1.313626E+05  4.637368E+03 -3.215795E+05  2.056784E+04  6.486352E+03
        93  24  4.830863E+03  1.316957E+05  1.013302E+04 -3.412146E+05  3.258064E+04  8.816717E+03
        93  25  8.430416E+03  1.742171E+05  6.987619E+02 -3.416695E+05  7.061483E+03 -3.017539E+04
        93  26  6.718764E+04  4.196088E+05  4.453208E+04 -3.232688E+05  2.059291E+04 -2.418781E+04
        93  27  1.282673E+05  6.664085E+05  9.283360E+04 -3.441409E+05  3.260033E+04 -1.820031E+04
        94   1 -1.530431E+05 -5.549251E+05 -9.572708E+04 -3.385969E+05 -3.985967E+04 -3.578800E+04
        94   2 -2.022361E+05 -7.993742E+05 -1.461771E+05 -3.037170E+05 -3.820995E+04  9.208001E+03
        94   3 -2.413162E+05 -1.047045E+06 -2.234052E+05 -3.064170E+05 -1.218301E+04  5.418036E+04
        94   4  6.529293E+03  1.330280E+05  1.397952E+04 -3.408361E+05 -3.987502E+04 -1.061384E+04
        94   5  1.816790E+04  1.295194E+05  2.644789E+04 -3.220391E+05 -3.818389E+04 -2.406442E+04
        94   6  5.006073E+04  1.328737E+05  5.273800E+04 -3.408130E+05 -1.213474E+04 -3.751980E+04
        94   7  1.660784E+05  8.214533E+05  1.236762E+05 -3.430777E+05 -3.989054E+04  1.458722E+04
        94   8  2.385242E+05  1.059252E+06  1.990407E+05 -3.403889E+05 -3.815590E+04 -5.738537E+04
        94   9  3.413477E+05  1.314097E+06  3.288186E+05 -3.752743E+05 -1.207639E+04 -1.293933E+05
        94  10 -1.530451E+05 -5.549269E+05 -9.573248E+04 -3.385980E+05 -2.485442E-09 -5.950300E-08
        94  11 -2.022377E+05 -7.993747E+05 -1.461800E+05 -3.037168E+05  5.082811E-10 -2.425075E-08
        94  12 -2.413172E+05 -1.047048E+06 -2.234110E+05 -3.064165E+05 -1.506459E-09  1.291392E-08
        94  13  6.527555E+03  1.330274E+05  1.397631E+04 -3.408364E+05 -1.506484E-09  1.731545E-11
        94  14  1.816618E+04  1.295184E+05  2.644406E+04 -3.220398E+05  7.912112E-09  6.040234E-12
        94  15  5.006019E+04  1.328721E+05  5.273507E+04 -3.408133E+05  4.412574E-10  7.728188E-11
        94  16  1.660766E+05  8.214526E+05  1.236728E+05 -3.430772E+05 -2.886893E-09  5.961446E-08
        94  17  2.385217E+05  1.059248E+06  1.990318E+05 -3.403907E+05  3.259397E-11  2.461519E-08
        94  18  3.413431E+05  1.314079E+06  3.287869E+05 -3.752756E+05  1.632659E-09 -1.286560E-08
        94  19 -1.530431E+05 -5.549251E+05 -9.572708E+04 -3.385969E+05  3.985967E+04  3.578800E+04
        94  20 -2.022361E+05 -7.993742E+05 -1.461771E+05 -3.037170E+05  3.820995E+04 -9.208001E+03
        94  21 -2.413162E+05 -1.047045E+06 -2.234052E+05 -3.064170E+05  1.218301E+04 -5.418036E+04
        94  22  6.529293E+03  1.330280E+05  1.397952E+04 -3.408361E+05  3.987502E+04  1.061384E+04
        94  23  1.816790E+04  1.295194E+05  2.644789E+04 -3.220391E+05  3.818389E+04  2.406442E+04
        94  24  5.006073E+04  1.328737E+05  5.273800E+04 -3.408130E+05  1.213474E+04  3.751980E+04
        94  25  1.660784E+05  8.214533E+05  1.236762E+05 -3.430777E+05  3.989054E+04 -1.458722E+04
        94  26  2.385242E+05  1.059252E+06  1.990407E+05 -3.403889E+05  3.815590E+04  5.738537E+04
        94  27  3.413477E+05  1.314097E+06  3.288186E+05 -3.752743E+05  1.207639E+04  1.293933E+05
        95   1 -3.077643E+05 -1.792881E+05 -1.212946E+05 -1.230164E+05 -5.543209E+04 -1.737805E+04
        95   2 -2.865544E+05 -1.062942E+05 -7.185586E+04 -1.148220E+05 -3.507079E+04 -2.308232E+03
        95   3 -2.797834E+05 -8.291108E+04 -5.149133E+04 -1.016644E+05 -1.250819E+04  6.899883E+03
        95   4 -1.235495E+05 -8.170416E+04 -6.741738E+04 -4.348432E+04 -4.440704E+04 -1.324447E+04
        95   5 -1.133044E+05 -3.126880E+04 -3.011161E+04 -5.583468E+04 -3.088960E+04 -7.405973E+02
        95   6 -1.161377E+05 -2.908228E+04 -1.645205E+04 -6.322419E+04 -1.517182E+04  5.900621E+03
        95   7  6.069867E+04  1.589230E+04 -1.354342E+04  3.607155E+04 -3.337854E+04 -9.108324E+03
        95   8  5.997539E+04  4.376191E+04  1.163039E+04  3.168573E+03 -2.670717E+04  8.276920E+02
        95   9  4.753585E+04  2.474756E+04  1.858594E+04 -2.477514E+04 -1.783622E+04  4.901139E+03
        95  10 -3.077677E+05 -1.792893E+05 -1.213009E+05 -1.230172E+05  4.234545E-10 -1.856919E-10
        95  11 -2.865557E+05 -1.062946E+05 -7.185818E+04 -1.148220E+05 -2.885869E-10  1.043249E-09
        95  12 -2.797836E+05 -8.291117E+04 -5.149171E+04 -1.016643E+05  1.374282E-08  1.842762E-09
        95  13 -1.235516E+05 -8.170487E+04 -6.742142E+04 -4.348479E+04 -4.407440E-09  5.183419E-10
        95  14 -1.133055E+05 -3.126905E+04 -3.011340E+04 -5.583470E+04 -2.865775E-10  1.550414E-09
        95  15 -1.161379E+05 -2.908238E+04 -1.645255E+04 -6.322412E+04  1.027733E-08  2.813047E-10
        95  16  6.069745E+04  1.589191E+04 -1.354567E+04  3.607130E+04  2.241714E-10  1.155300E-09
        95  17  5.997462E+04  4.376172E+04  1.162905E+04  3.168591E+03 -5.864860E-09  1.165338E-09
        95  18  4.753550E+04  2.474745E+04  1.858529E+04 -2.477507E+04 -1.403179E-09 -1.165865E-09
        95  19 -3.077643E+05 -1.792881E+05 -1.212946E+05 -1.230164E+05  5.543209E+04  1.737805E+04
        95  20 -2.865544E+05 -1.062942E+05 -7.185586E+04 -1.148220E+05  3.507079E+04  2.308232E+03
        95  21 -2.797834E+05 -8.291108E+04 -5.149133E+04 -1.016644E+05  1.250819E+04 -6.899883E+03
        95  22 -1.235495E+05 -8.170416E+04 -6.741738E+04 -4.348432E+04  4.440704E+04  1.324447E+04
        95  23 -1.133044E+05 -3.126880E+04 -3.011161E+04 -5.583468E+04  3.088960E+04  7.405973E+02
        95  24 -1.161377E+05 -2.908228E+04 -1.645205E+04 -6.322419E+04  1.517182E+04 -5.900621E+03
        95  25  6.069867E+04  1.589230E+04 -1.354342E+04  3.607155E+04  3.337854E+04  9.108324E+03
        95  26  5.997539E+04  4.376191E+04  1.163039E+04  3.168573E+03  2.670717E+04 -8.276920E+02
        95  27  4.753585E+04  2.474756E+04  1.858594E+04 -2.477514E+04  1.783622E+04 -4.901139E+03
        96   1 -2.556968E+05 -8.526891E+04 -4.421353E+04 -1.007640E+05 -1.156336E+04  5.891310E+03
        96   2 -2.352010E+05 -7.162980E+04 -3.287222E+04 -9.150145E+04 -7.379290E+03  6.121119E+03
        96   3 -2.105493E+05 -6.541344E+04 -2.485395E+04 -8.805059E+04 -3.079512E+03  6.042277E+03
        96   4 -1.140336E+05 -3.237424E+04 -1.276354E+04 -6.097299E+04 -1.275625E+04  5.443682E+03
        96   5 -1.159937E+05 -2.761384E+04 -6.712646E+03 -5.847347E+04 -8.931980E+03  5.538663E+03
        96   6 -1.137268E+05 -3.020467E+04 -3.699098E+03 -6.178588E+04 -4.992142E+03  5.324967E+03
        96   7  2.764889E+04  2.052177E+04  1.868494E+04 -2.117385E+04 -1.394941E+04  4.995944E+03
        96   8  3.227895E+03  1.640325E+04  1.944608E+04 -2.543966E+04 -1.048499E+04  4.956085E+03
        96   9 -1.689411E+04  5.005029E+03  1.745539E+04 -3.551727E+04 -6.905107E+03  4.607534E+03
        96  10 -2.556969E+05 -8.526898E+04 -4.421384E+04 -1.007640E+05  7.511056E-09  6.885768E-10
        96  11 -2.352011E+05 -7.162985E+04 -3.287239E+04 -9.150141E+04  1.318362E-09  3.081963E-09
        96  12 -2.105493E+05 -6.541348E+04 -2.485404E+04 -8.805057E+04  5.947121E-09  2.172666E-09
        96  13 -1.140338E+05 -3.237431E+04 -1.276390E+04 -6.097294E+04  3.901538E-09  9.298405E-10
        96  14 -1.159938E+05 -2.761390E+04 -6.712853E+03 -5.847343E+04  5.244885E-09  3.650508E-09
        96  15 -1.137268E+05 -3.020471E+04 -3.699198E+03 -6.178586E+04  8.800303E-09  4.280283E-09
        96  16  2.764867E+04  2.052170E+04  1.868452E+04 -2.117380E+04  1.228837E-08  1.108378E-09
        96  17  3.227771E+03  1.640319E+04  1.944582E+04 -2.543962E+04  2.612400E-09  4.310220E-09
        96  18 -1.689417E+04  5.004993E+03  1.745526E+04 -3.551725E+04  2.323284E-09  6.244016E-09
        96  19 -2.556968E+05 -8.526891E+04 -4.421353E+04 -1.007640E+05  1.156336E+04 -5.891310E+03
        96  20 -2.352010E+05 -7.162980E+04 -3.287222E+04 -9.150145E+04  7.379290E+03 -6.121119E+03
        96  21 -2.105493E+05 -6.541344E+04 -2.485395E+04 -8.805059E+04  3.079512E+03 -6.042277E+03
        96  22 -1.140336E+05 -3.237424E+04 -1.276354E+04 -6.097299E+04  1.275625E+04 -5.443682E+03
        96  23 -1.159937E+05 -2.761384E+04 -6.712646E+03 -5.847347E+04  8.931980E+03 -5.538663E+03
        96  24 -1.137268E+05 -3.020467E+04 -3.699098E+03 -6.178588E+04  4.992142E+03 -5.324967E+03
        96  25  2.764889E+04  2.052177E+04  1.868494E+04 -2.117385E+04  1.394941E+04 -4.995944E+03
        96  26  3.227895E+03  1.640325E+04  1.944608E+04 -2.543966E+04  1.048499E+04 -4.956085E+03
        96  27 -1.689411E+04  5.005029E+03  1.745539E+04 -3.551727E+04  6.905107E+03 -4.607534E+03
        97   1 -1.935627E+05 -5.966117E+04 -2.019081E+04 -8.364037E+04 -2.280177E+03  5.263066E+03
        97   2 -1.733330E+05 -4.850399E+04 -1.400035E+04 -7.426626E+04 -9.032087E+02  3.977976E+03
        97   3 -1.478410E+05 -4.284806E+04 -8.417312E+03 -7.108906E+04  4.798055E+02  2.676451E+03
        97   4 -1.135717E+05 -3.033738E+04 -2.792292E+03 -6.166679E+04 -4.115790E+03  4.574694E+03
        97   5 -1.161998E+05 -2.755797E+04 -1.534600E+03 -5.857961E+04 -2.757921E+03  3.282507E+03
        97   6 -1.135621E+05 -3.027594E+04 -8.690957E+02 -6.168942E+04 -1.394041E+03  1.973878E+03
        97   7 -3.357423E+04 -1.013102E+03  1.460585E+04 -3.969063E+04 -5.951657E+03  3.886227E+03
        97   8 -5.906343E+04 -6.611786E+03  1.093091E+04 -4.289169E+04 -4.612811E+03  2.586972E+03
        97   9 -7.928237E+04 -1.770383E+04  6.678998E+03 -5.228936E+04 -3.267987E+03  1.271267E+03
        97  10 -1.935627E+05 -5.966120E+04 -2.019087E+04 -8.364036E+04 -9.411937E-09 -5.712055E-09
        97  11 -1.733330E+05 -4.850400E+04 -1.400038E+04 -7.426626E+04 -6.901543E-09 -4.549191E-09
        97  12 -1.478410E+05 -4.284806E+04 -8.417326E+03 -7.108906E+04  1.638654E-08  5.647309E-09
        97  13 -1.135717E+05 -3.033741E+04 -2.792363E+03 -6.166678E+04 -6.740122E-09  8.451807E-10
        97  14 -1.161998E+05 -2.755799E+04 -1.534634E+03 -5.857960E+04  2.714648E-09 -5.271043E-09
        97  15 -1.135622E+05 -3.027595E+04 -8.691067E+02 -6.168941E+04  3.808405E-09 -3.437443E-09
        97  16 -3.357427E+04 -1.013128E+03  1.460575E+04 -3.969061E+04  7.754032E-09  7.157291E-09
        97  17 -5.906345E+04 -6.611799E+03  1.093086E+04 -4.289168E+04 -7.028946E-09 -6.137576E-09
        97  18 -7.928239E+04 -1.770383E+04  6.678975E+03 -5.228936E+04 -2.335430E-08 -1.258134E-08
        97  19 -1.935627E+05 -5.966117E+04 -2.019081E+04 -8.364037E+04  2.280177E+03 -5.263066E+03
        97  20 -1.733330E+05 -4.850399E+04 -1.400035E+04 -7.426626E+04  9.032087E+02 -3.977976E+03
        97  21 -1.478410E+05 -4.284806E+04 -8.417312E+03 -7.108906E+04 -4.798055E+02 -2.676451E+03
        97  22 -1.135717E+05 -3.033738E+04 -2.792292E+03 -6.166679E+04  4.115790E+03 -4.574694E+03
        97  23 -1.161998E+05 -2.755797E+04 -1.534600E+03 -5.857961E+04  2.757921E+03 -3.282507E+03
        97  24 -1.135621E+05 -3.027594E+04 -8.690957E+02 -6.168942E+04  1.394041E+03 -1.973878E+03
        97  25 -3.357423E+04 -1.013102E+03  1.460585E+04 -3.969063E+04  5.951657E+03 -3.886227E+03
        97  26 -5.906343E+04 -6.611786E+03  1.093091E+04 -4.289169E+04  4.612811E+03 -2.586972E+03
        97  27 -7.928237E+04 -1.770383E+04  6.678998E+03 -5.228936E+04  3.267987E+03 -1.271267E+03
        98   1 -1.312179E+05 -3.673817E+04 -4.452667E+03 -6.652960E+04  9.535510E+02  1.789757E+03
        98   2 -1.110467E+05 -2.565695E+04  7.072431E+02 -5.713706E+04  1.766625E+03  2.686748E+02
        98   3 -8.550612E+04 -1.998245E+04  5.707785E+03 -5.393904E+04  2.579991E+03 -1.253158E+03
        98   4 -1.135425E+05 -3.027910E+04 -6.711377E+02 -6.168018E+04 -9.163522E+02  1.088680E+03
        98   5 -1.162270E+05 -2.757763E+04 -4.256088E+02 -5.858200E+04 -1.042029E+02 -4.327605E+02
        98   6 -1.135430E+05 -3.028295E+04 -3.388550E+02 -6.167872E+04  7.082279E+02 -1.954951E+03
        98   7 -9.586658E+04 -2.381996E+04  3.110423E+03 -5.683059E+04 -2.786326E+03  3.875763E+02
        98   8 -1.214073E+05 -2.949832E+04 -1.558453E+03 -6.002693E+04 -1.975020E+03 -1.134192E+03
        98   9 -1.415791E+05 -4.058339E+04 -6.385527E+03 -6.941808E+04 -1.163444E+03 -2.656709E+03
        98  10 -1.312179E+05 -3.673817E+04 -4.452675E+03 -6.652960E+04  2.085195E-08  8.881677E-09
        98  11 -1.110467E+05 -2.565695E+04  7.072371E+02 -5.713706E+04  3.402806E-09  1.935637E-09
        98  12 -8.550613E+04 -1.998245E+04  5.707769E+03 -5.393904E+04 -1.826521E-08 -6.517273E-09
        98  13 -1.135425E+05 -3.027911E+04 -6.711415E+02 -6.168018E+04  1.065060E-08  5.644883E-10
        98  14 -1.162270E+05 -2.757763E+04 -4.256092E+02 -5.858200E+04  9.862300E-11  3.447405E-09
        98  15 -1.135430E+05 -3.028296E+04 -3.388631E+02 -6.167872E+04 -4.355432E-09  2.788711E-10
        98  16 -9.586659E+04 -2.381997E+04  3.110408E+03 -5.683059E+04 -1.572607E-08 -7.775200E-09
        98  17 -1.214073E+05 -2.949832E+04 -1.558462E+03 -6.002694E+04 -2.224904E-09  4.757148E-09
        98  18 -1.415791E+05 -4.058340E+04 -6.385543E+03 -6.941809E+04  1.420723E-08  7.212238E-09
        98  19 -1.312179E+05 -3.673817E+04 -4.452667E+03 -6.652960E+04 -9.535510E+02 -1.789757E+03
        98  20 -1.110467E+05 -2.565695E+04  7.072431E+02 -5.713706E+04 -1.766625E+03 -2.686748E+02
        98  21 -8.550612E+04 -1.998245E+04  5.707785E+03 -5.393904E+04 -2.579991E+03  1.253158E+03
        98  22 -1.135425E+05 -3.027910E+04 -6.711377E+02 -6.168018E+04  9.163522E+02 -1.088680E+03
        98  23 -1.162270E+05 -2.757763E+04 -4.256088E+02 -5.858200E+04  1.042029E+02  4.327605E+02
        98  24 -1.135430E+05 -3.028295E+04 -3.388550E+02 -6.167872E+04 -7.082279E+02  1.954951E+03
        98  25 -9.586658E+04 -2.381996E+04  3.110423E+03 -5.683059E+04  2.786326E+03 -3.875763E+02
        98  26 -1.214073E+05 -2.949832E+04 -1.558453E+03 -6.002693E+04  1.975020E+03  1.134192E+03
        98  27 -1.415791E+05 -4.058339E+04 -6.385527E+03 -6.941808E+04  1.163444E+03  2.656709E+03
        99   1 -6.891551E+04 -1.385923E+04  9.471735E+03 -4.937639E+04  2.986348E+03 -2.164296E+03
        99   2 -4.874782E+04 -2.776895E+03  1.428524E+04 -3.998553E+04  3.804631E+03 -3.683859E+03
        99   3 -2.321233E+04  2.899492E+03  1.893565E+04 -3.678788E+04  4.622523E+03 -5.202049E+03
        99   4 -1.135438E+05 -3.028299E+04 -3.415142E+02 -6.167851E+04  1.114615E+03 -2.866101E+03
        99   5 -1.162276E+05 -2.757936E+04 -4.405646E+02 -5.858217E+04  1.934417E+03 -4.385168E+03
        99   6 -1.135444E+05 -3.028200E+04 -7.039064E+02 -6.167922E+04  2.753823E+03 -5.902868E+03
        99   7 -1.581697E+05 -4.670648E+04 -1.015479E+04 -7.397973E+04 -7.569608E+02 -3.567846E+03
        99   8 -1.837027E+05 -5.238147E+04 -1.516663E+04 -7.717695E+04  6.442252E+01 -5.086395E+03
        99   9 -2.038688E+05 -6.346308E+04 -2.034410E+04 -8.656741E+04  8.854032E+02 -6.603583E+03
        99  10 -6.891552E+04 -1.385924E+04  9.471709E+03 -4.937639E+04 -1.196638E-08 -1.931593E-09
        99  11 -4.874784E+04 -2.776913E+03  1.428519E+04 -3.998552E+04 -6.491051E-09  3.674105E-10
        99  12 -2.321236E+04  2.899457E+03  1.893556E+04 -3.678786E+04  8.632289E-10 -1.818960E-09
        99  13 -1.135438E+05 -3.028300E+04 -3.415320E+02 -6.167851E+04 -3.882753E-09 -1.111730E-09
        99  14 -1.162276E+05 -2.757938E+04 -4.406078E+02 -5.858216E+04 -6.150315E-09 -7.488692E-10
        99  15 -1.135444E+05 -3.028204E+04 -7.039862E+02 -6.167921E+04  9.611361E-10 -2.715918E-09
        99  16 -1.581697E+05 -4.670649E+04 -1.015481E+04 -7.397973E+04  1.975503E-09 -5.279658E-10
        99  17 -1.837027E+05 -5.238150E+04 -1.516668E+04 -7.717695E+04  1.587658E-09 -1.954376E-09
        99  18 -2.038688E+05 -6.346313E+04 -2.034418E+04 -8.656741E+04 -5.866261E-09 -3.546200E-09
        99  19 -6.891551E+04 -1.385923E+04  9.471735E+03 -4.937639E+04 -2.986348E+03  2.164296E+03
        99  20 -4.874782E+04 -2.776895E+03  1.428524E+04 -3.998553E+04 -3.804631E+03  3.683859E+03
        99  21 -2.321233E+04  2.899492E+03  1.893565E+04 -3.678788E+04 -4.622523E+03  5.202049E+03
        99  22 -1.135438E+05 -3.028299E+04 -3.415142E+02 -6.167851E+04 -1.114615E+03  2.866101E+03
        99  23 -1.162276E+05 -2.757936E+04 -4.405646E+02 -5.858217E+04 -1.934417E+03  4.385168E+03
        99  24 -1.135444E+05 -3.028200E+04 -7.039064E+02 -6.167922E+04 -2.753823E+03  5.902868E+03
        99  25 -1.581697E+05 -4.670648E+04 -1.015479E+04 -7.397973E+04  7.569608E+02  3.567846E+03
        99  26 -1.837027E+05 -5.238147E+04 -1.516663E+04 -7.717695E+04 -6.442252E+01  5.086395E+03
        99  27 -2.038688E+05 -6.346308E+04 -2.034410E+04 -8.656741E+04 -8.854032E+02  6.603583E+03
       100   1 -6.637703E+03  9.013388E+03  2.248980E+04 -3.224766E+04  5.111809E+03 -6.082605E+03
       100   2  1.356845E+04  2.010089E+04  2.670097E+04 -2.285238E+04  6.490935E+03 -7.381769E+03
       100   3  3.903646E+04  2.569279E+04  3.030794E+04 -1.964951E+04  7.861981E+03 -8.658695E+03
       100   4 -1.135664E+05 -3.027883E+04 -9.142048E+02 -6.168851E+04  3.238011E+03 -6.785406E+03
       100   5 -1.162006E+05 -2.756234E+04 -1.618691E+03 -5.857993E+04  4.642881E+03 -8.075061E+03
       100   6 -1.135783E+05 -3.034668E+04 -2.947821E+03 -6.166409E+04  6.039635E+03 -9.342482E+03
       100   7 -2.204835E+05 -6.957015E+04 -2.431888E+04 -9.112470E+04  1.364562E+03 -7.488076E+03
       100   8 -2.459520E+05 -7.522408E+04 -2.993922E+04 -9.430052E+04  2.795251E+03 -8.768193E+03
       100   9 -2.661684E+05 -8.638393E+04 -3.620466E+04 -1.036689E+05  4.217786E+03 -1.002608E+04
       100  10 -6.637741E+03  9.013341E+03  2.248968E+04 -3.224764E+04 -2.784677E-09 -3.099338E-09
       100  11  1.356839E+04  2.010082E+04  2.670079E+04 -2.285234E+04  1.000781E-08  4.512265E-09
       100  12  3.903638E+04  2.569270E+04  3.030768E+04 -1.964946E+04  2.434165E-08  7.831540E-09
       100  13 -1.135664E+05 -3.027889E+04 -9.143110E+02 -6.168849E+04 -7.642201E-09 -2.501915E-09
       100  14 -1.162006E+05 -2.756242E+04 -1.618854E+03 -5.857990E+04  3.882609E-09  3.293291E-09
       100  15 -1.135783E+05 -3.034678E+04 -2.948053E+03 -6.166405E+04  1.352311E-08  1.134840E-08
       100  16 -2.204835E+05 -6.957022E+04 -2.431899E+04 -9.112469E+04 -2.832552E-09 -4.145031E-09
       100  17 -2.459521E+05 -7.522417E+04 -2.993938E+04 -9.430050E+04 -1.077921E-08 -8.035779E-09
       100  18 -2.661684E+05 -8.638405E+04 -3.620488E+04 -1.036689E+05 -8.750909E-09 -2.556378E-09
       100  19 -6.637703E+03  9.013388E+03  2.248980E+04 -3.224766E+04 -5.111809E+03  6.082605E+03
       100  20  1.356845E+04  2.010089E+04  2.670097E+04 -2.285238E+04 -6.490935E+03  7.381769E+03
       100  21  3.903646E+04  2.569279E+04  3.030794E+04 -1.964951E+04 -7.861981E+03  8.658695E+03
       100  22 -1.135664E+05 -3.027883E+04 -9.142048E+02 -6.168851E+04 -3.238011E+03  6.785406E+03
       100  23 -1.162006E+05 -2.756234E+04 -1.618691E+03 -5.857993E+04 -4.642881E+03  8.075061E+03
       100  24 -1.135783E+05 -3.034668E+04 -2.947821E+03 -6.166409E+04 -6.039635E+03  9.342482E+03
       100  25 -2.204835E+05 -6.957015E+04 -2.431888E+04 -9.112470E+04 -1.364562E+03  7.488076E+03
       100  26 -2.459520E+05 -7.522408E+04 -2.993922E+04 -9.430052E+04 -2.795251E+03  8.768193E+03
       100  27 -2.661684E+05 -8.638393E+04 -3.620466E+04 -1.036689E+05 -4.217786E+03  1.002608E+04
       101   1  5.570722E+04  3.170383E+04  3.310005E+04 -1.549507E+04  8.872330E+03 -9.362959E+03
       101   2  7.579407E+04  4.311090E+04  3.494775E+04 -5.391314E+03  1.250329E+04 -9.643867E+03
       101   3  1.001328E+05  4.716494E+04  3.397235E+04 -1.063217E+03  1.597940E+04 -9.510723E+03
       101   4 -1.137427E+05 -3.020527E+04 -3.905327E+03 -6.178733E+04  6.946780E+03 -1.008557E+04
       101   5 -1.159834E+05 -2.762713E+04 -7.088366E+03 -5.846976E+04  1.106036E+04 -1.018563E+04
       101   6 -1.140690E+05 -3.249858E+04 -1.347771E+04 -6.092846E+04  1.501895E+04 -9.871619E+03
       101   7 -2.831648E+05 -9.211266E+04 -4.091273E+04 -1.080684E+05  5.021785E+03 -1.080797E+04
       101   8 -3.077243E+05 -9.836249E+04 -4.912689E+04 -1.115334E+05  9.617907E+03 -1.072721E+04
       101   9 -3.282245E+05 -1.121583E+05 -6.093063E+04 -1.207747E+05  1.405885E+04 -1.023238E+04
       101  10  5.570712E+04  3.170371E+04  3.309973E+04 -1.549500E+04 -1.821657E-08 -8.845841E-09
       101  11  7.579388E+04  4.311076E+04  3.494728E+04 -5.391216E+03 -7.264414E-09 -2.829266E-09
       101  12  1.001325E+05  4.716477E+04  3.397170E+04 -1.063094E+03  9.347288E-09  7.092063E-09
       101  13 -1.137428E+05 -3.020539E+04 -3.905609E+03 -6.178727E+04  1.234685E-08  1.160293E-08
       101  14 -1.159835E+05 -2.762727E+04 -7.088791E+03 -5.846967E+04  9.815057E-09  3.464683E-09
       101  15 -1.140693E+05 -3.249874E+04 -1.347832E+04 -6.092834E+04 -2.144659E-09 -4.761736E-09
       101  16 -2.831649E+05 -9.211279E+04 -4.091300E+04 -1.080683E+05  3.094767E-08  1.690681E-08
       101  17 -3.077245E+05 -9.836264E+04 -4.912728E+04 -1.115333E+05  4.866783E-09  9.797954E-09
       101  18 -3.282248E+05 -1.121585E+05 -6.093120E+04 -1.207746E+05 -9.457653E-09 -3.376030E-10
       101  19  5.570722E+04  3.170383E+04  3.310005E+04 -1.549507E+04 -8.872330E+03  9.362959E+03
       101  20  7.579407E+04  4.311090E+04  3.494775E+04 -5.391314E+03 -1.250329E+04  9.643867E+03
       101  21  1.001328E+05  4.716494E+04  3.397235E+04 -1.063217E+03 -1.597940E+04  9.510723E+03
       101  22 -1.137427E+05 -3.020527E+04 -3.905327E+03 -6.178733E+04 -6.946780E+03  1.008557E+04
       101  23 -1.159834E+05 -2.762713E+04 -7.088366E+03 -5.846976E+04 -1.106036E+04  1.018563E+04
       101  24 -1.140690E+05 -3.249858E+04 -1.347771E+04 -6.092846E+04 -1.501895E+04  9.871619E+03
       101  25 -2.831648E+05 -9.211266E+04 -4.091273E+04 -1.080684E+05 -5.021785E+03  1.080797E+04
       101  26 -3.077243E+05 -9.836249E+04 -4.912689E+04 -1.115334E+05 -9.617907E+03  1.072721E+04
       101  27 -3.282245E+05 -1.121583E+05 -6.093063E+04 -1.207747E+05 -1.405885E+04  1.023238E+04
       102   1  1.202221E+05  5.130132E+04  3.360233E+04 -5.084471E+03  2.051103E+04 -9.274303E+03
       102   2  1.320767E+05  7.075882E+04  2.648722E+04  2.376529E+04  2.765350E+04 -4.969604E+03
       102   3  1.315694E+05  4.148555E+04  1.681930E+03  5.829523E+04  3.184582E+04  7.193976E+03
       102   4 -1.163048E+05 -2.900904E+04 -1.737257E+04 -6.328892E+04  1.757802E+04 -1.037538E+04
       102   5 -1.131290E+05 -3.150640E+04 -3.179724E+04 -5.570432E+04  3.389961E+04 -2.626049E+03
       102   6 -1.241413E+05 -8.456552E+04 -7.118980E+04 -4.243876E+04  4.727001E+04  1.298292E+04
       102   7 -3.527749E+05 -1.093170E+05 -6.835059E+04 -1.214739E+05  1.464622E+04 -1.147609E+04
       102   8 -3.582714E+05 -1.337613E+05 -9.008506E+04 -1.351428E+05  4.014299E+04 -2.838148E+02
       102   9 -3.797805E+05 -2.105947E+05 -1.440651E+05 -1.431285E+05  6.268697E+04  1.876727E+04
       102  10  1.202216E+05  5.130111E+04  3.360138E+04 -5.084318E+03 -1.383424E-08 -2.267224E-09
       102  11  1.320759E+05  7.075859E+04  2.648573E+04  2.376540E+04 -4.565156E-09 -1.743187E-09
       102  12  1.315683E+05  4.148522E+04  1.679927E+03  5.829505E+04 -4.046328E-10  1.142069E-09
       102  13 -1.163052E+05 -2.900923E+04 -1.737335E+04 -6.328877E+04  5.945125E-09 -7.288389E-09
       102  14 -1.131303E+05 -3.150672E+04 -3.179941E+04 -5.570424E+04 -7.446828E-09 -5.863590E-09
       102  15 -1.241437E+05 -8.456630E+04 -7.119431E+04 -4.243925E+04 -3.134364E-10 -1.374430E-09
       102  16 -3.527752E+05 -1.093172E+05 -6.835125E+04 -1.214737E+05  1.606120E-08  5.870212E-09
       102  17 -3.582732E+05 -1.337618E+05 -9.008809E+04 -1.351428E+05 -1.510426E-09  4.029091E-10
       102  18 -3.797848E+05 -2.105961E+05 -1.440731E+05 -1.431294E+05 -4.131406E-09 -2.260634E-09
       102  19  1.202221E+05  5.130132E+04  3.360233E+04 -5.084471E+03 -2.051103E+04  9.274303E+03
       102  20  1.320767E+05  7.075882E+04  2.648722E+04  2.376529E+04 -2.765350E+04  4.969604E+03
       102  21  1.315694E+05  4.148555E+04  1.681930E+03  5.829523E+04 -3.184582E+04 -7.193976E+03
       102  22 -1.163048E+05 -2.900904E+04 -1.737257E+04 -6.328892E+04 -1.757802E+04  1.037538E+04
       102  23 -1.131290E+05 -3.150640E+04 -3.179724E+04 -5.570432E+04 -3.389961E+04  2.626049E+03
       102  24 -1.241413E+05 -8.456552E+04 -7.118980E+04 -4.243876E+04 -4.727001E+04 -1.298292E+04
       102  25 -3.527749E+05 -1.093170E+05 -6.835059E+04 -1.214739E+05 -1.464622E+04  1.147609E+04
       102  26 -3.582714E+05 -1.337613E+05 -9.008506E+04 -1.351428E+05 -4.014299E+04  2.838148E+02
       102  27 -3.797805E+05 -2.105947E+05 -1.440651E+05 -1.431285E+05 -6.268697E+04 -1.876727E+04
       103   1  9.989599E+05  1.691793E+05  1.506754E+05  1.311999E+04  3.665062E+04 -1.311380E+04
       103   2  9.551431E+05  1.918482E+05  1.309751E+05  2.947992E+04  1.298579E+04 -4.497489E+04
       103   3  9.086575E+05  1.913075E+05  1.208905E+05  5.314134E+04 -1.068751E+04 -5.623131E+04
       103   4  7.034050E+04 -5.943934E+04 -6.469432E+04  5.124190E+04 -4.534277E+04 -1.317381E+04
       103   5  7.517004E+04 -1.658392E+04 -3.194199E+04  4.756454E+04 -2.890774E+04 -4.501676E+04
       103   6  7.036294E+04 -3.916048E+03 -1.740921E+04  5.118840E+04 -1.248310E+04 -5.624012E+04
       103   7 -8.574659E+05 -2.881095E+05 -2.800959E+05  8.930628E+04 -1.272145E+05 -1.324392E+04
       103   8 -8.040489E+05 -2.250581E+05 -1.948848E+05  6.562271E+04 -7.074348E+04 -4.506110E+04
       103   9 -7.672374E+05 -1.991759E+05 -1.557297E+05  4.923798E+04 -1.427635E+04 -5.624892E+04
       103  10  9.989584E+05  1.691787E+05  1.506726E+05  1.312038E+04  3.927580E-09 -2.499836E-10
       103  11  9.551424E+05  1.918460E+05  1.309710E+05  2.948039E+04  7.581114E-09 -2.461637E-09
       103  12  9.086566E+05  1.913041E+05  1.208844E+05  5.314085E+04  1.827831E-09 -3.653779E-09
       103  13  7.033825E+04 -5.944008E+04 -6.469851E+04  5.124142E+04 -4.281716E-09  7.193518E-10
       103  14  7.516860E+04 -1.658632E+04 -3.194737E+04  4.756349E+04 -2.183419E-10 -1.181031E-09
       103  15  7.036192E+04 -3.919486E+03 -1.741545E+04  5.118783E+04 -2.777782E-09 -1.874892E-09
       103  16 -8.574833E+05 -2.881141E+05 -2.801267E+05  8.930492E+04 -1.729889E-09  5.967794E-10
       103  17 -8.040548E+05 -2.250617E+05 -1.948980E+05  6.562015E+04 -6.012261E-09 -2.328223E-09
       103  18 -7.672384E+05 -1.991793E+05 -1.557360E+05  4.923734E+04 -1.769744E-09 -4.295628E-09
       103  19  9.989599E+05  1.691793E+05  1.506754E+05  1.311999E+04 -3.665062E+04  1.311380E+04
       103  20  9.551431E+05  1.918482E+05  1.309751E+05  2.947992E+04 -1.298579E+04  4.497489E+04
       103  21  9.086575E+05  1.913075E+05  1.208905E+05  5.314134E+04  1.068751E+04  5.623131E+04
       103  22  7.034050E+04 -5.943934E+04 -6.469432E+04  5.124190E+04  4.534277E+04  1.317381E+04
       103  23  7.517004E+04 -1.658392E+04 -3.194199E+04  4.756454E+04  2.890774E+04  4.501676E+04
       103  24  7.036294E+04 -3.916048E+03 -1.740921E+04  5.118840E+04  1.248310E+04  5.624012E+04
       103  25 -8.574659E+05 -2.881095E+05 -2.800959E+05  8.930628E+04  1.272145E+05  1.324392E+04
       103  26 -8.040489E+05 -2.250581E+05 -1.948848E+05  6.562271E+04  7.074348E+04  4.506110E+04
       103  27 -7.672374E+05 -1.991759E+05 -1.557297E+05  4.923798E+04  1.427635E+04  5.624892E+04
       104   1  8.808781E+05  1.843035E+05  1.178796E+05  5.048443E+04 -7.549860E+03 -5.612124E+04
       104   2  8.360322E+05  1.756532E+05  1.121644E+05  4.718755E+04 -8.266787E+03 -5.639494E+04
       104   3  7.909884E+05  1.657421E+05  1.066088E+05  5.261321E+04 -8.987100E+03 -5.445234E+04
       104   4  7.230259E+04 -3.517196E+03 -1.313172E+04  5.150874E+04 -1.022777E+04 -5.613101E+04
       104   5  7.278764E+04 -7.801153E+02 -7.181623E+03  4.714485E+04 -6.634787E+03 -5.639956E+04
       104   6  7.232502E+04 -5.258536E+01 -4.064352E+03  5.150420E+04 -3.045154E+03 -5.445041E+04
       104   7 -7.356250E+05 -1.913711E+05 -1.441611E+05  5.253148E+04 -1.290232E+04 -5.614079E+04
       104   8 -6.898764E+05 -1.772421E+05 -1.265415E+05  4.710201E+04 -5.004712E+03 -5.640419E+04
       104   9 -6.458224E+05 -1.658723E+05 -1.147490E+05  5.039635E+04  2.890185E+03 -5.444851E+04
       104  10  8.808772E+05  1.843002E+05  1.178736E+05  5.048409E+04 -1.177238E-08 -2.951145E-09
       104  11  8.360312E+05  1.756498E+05  1.121583E+05  4.718717E+04  1.978526E-09  4.290523E-09
       104  12  7.909875E+05  1.657389E+05  1.066031E+05  5.261281E+04 -2.745632E-10  5.534116E-09
       104  13  7.230163E+04 -3.520607E+03 -1.313784E+04  5.150828E+04 -2.939654E-13 -2.771227E-09
       104  14  7.278674E+04 -7.835429E+02 -7.187683E+03  4.714454E+04 -3.009128E-10  2.060648E-09
       104  15  7.232421E+04 -5.577168E+01 -4.069941E+03  5.150407E+04 -1.108802E-09  1.038992E-09
       104  16 -7.356261E+05 -1.913745E+05 -1.441673E+05  5.253089E+04  9.510333E-09 -1.463172E-09
       104  17 -6.898772E+05 -1.772455E+05 -1.265476E+05  4.710178E+04  2.803789E-09  1.581961E-09
       104  18 -6.458232E+05 -1.658754E+05 -1.147546E+05  5.039647E+04 -4.346506E-09  1.142789E-09
       104  19  8.808781E+05  1.843035E+05  1.178796E+05  5.048443E+04  7.549860E+03  5.612124E+04
       104  20  8.360322E+05  1.756532E+05  1.121644E+05  4.718755E+04  8.266787E+03  5.639494E+04
       104  21  7.909884E+05  1.657421E+05  1.066088E+05  5.261321E+04  8.987100E+03  5.445234E+04
       104  22  7.230259E+04 -3.517196E+03 -1.313172E+04  5.150874E+04  1.022777E+04  5.613101E+04
       104  23  7.278764E+04 -7.801153E+02 -7.181623E+03  4.714485E+04  6.634787E+03  5.639956E+04
       104  24  7.232502E+04 -5.258536E+01 -4.064352E+03  5.150420E+04  3.045154E+03  5.445041E+04
       104  25 -7.356250E+05 -1.913711E+05 -1.441611E+05  5.253148E+04  1.290232E+04  5.614079E+04
       104  26 -6.898764E+05 -1.772421E+05 -1.265415E+05  4.710201E+04  5.004712E+03  5.640419E+04
       104  27 -6.458224E+05 -1.658723E+05 -1.147490E+05  5.039635E+04 -2.890185E+03  5.444851E+04
       105   1  7.625406E+05  1.590627E+05  1.027793E+05  5.239170E+04 -8.276055E+03 -5.260567E+04
       105   2  7.176625E+05  1.487628E+05  9.683755E+04  4.794504E+04 -7.876643E+03 -4.948305E+04
       105   3  6.727320E+05  1.384452E+05  9.063268E+04  5.236683E+04 -7.478961E+03 -4.612245E+04
       105   4  7.251329E+04 -4.614783E+01 -3.077825E+03  5.153706E+04 -2.430210E+03 -5.260308E+04
       105   5  7.259041E+04  9.216201E+01 -1.742978E+03  4.710243E+04 -1.568703E+03 -4.947851E+04
       105   6  7.253273E+04  1.325617E+02 -9.924536E+02  5.153678E+04 -7.088984E+02 -4.611584E+04
       105   7 -6.170381E+05 -1.591780E+05 -1.089453E+05  5.068323E+04  3.409396E+03 -5.260049E+04
       105   8 -5.720655E+05 -1.485985E+05 -1.003323E+05  4.626056E+04  4.732944E+03 -4.947399E+04
       105   9 -5.273061E+05 -1.381974E+05 -9.262515E+04  5.070741E+04  6.054879E+03 -4.610924E+04
       105  10  7.625398E+05  1.590597E+05  1.027740E+05  5.239135E+04  7.114593E-09  4.376890E-09
       105  11  7.176618E+05  1.487602E+05  9.683283E+04  4.794473E+04  4.334675E-09  3.640665E-10
       105  12  6.727314E+05  1.384429E+05  9.062858E+04  5.236655E+04 -3.149892E-10 -2.442948E-09
       105  13  7.251254E+04 -4.912087E+01 -3.083036E+03  5.153696E+04 -4.364476E-09 -5.193835E-10
       105  14  7.258975E+04  8.953240E+01 -1.747583E+03  4.710236E+04 -2.538425E-09  1.503627E-09
       105  15  7.253216E+04  1.302778E+02 -9.964511E+02  5.153675E+04 -5.220374E-09  1.548562E-09
       105  16 -6.170388E+05 -1.591810E+05 -1.089506E+05  5.068337E+04 -1.271146E-09  1.830019E-09
       105  17 -5.720661E+05 -1.486011E+05 -1.003370E+05  4.626075E+04 -2.717711E-09  2.579656E-09
       105  18 -5.273067E+05 -1.381997E+05 -9.262921E+04  5.070764E+04 -3.904183E-10 -7.167394E-10
       105  19  7.625406E+05  1.590627E+05  1.027793E+05  5.239170E+04  8.276055E+03  5.260567E+04
       105  20  7.176625E+05  1.487628E+05  9.683755E+04  4.794504E+04  7.876643E+03  4.948305E+04
       105  21  6.727320E+05  1.384452E+05  9.063268E+04  5.236683E+04  7.478961E+03  4.612245E+04
       105  22  7.251329E+04 -4.614783E+01 -3.077825E+03  5.153706E+04  2.430210E+03  5.260308E+04
       105  23  7.259041E+04  9.216201E+01 -1.742978E+03  4.710243E+04  1.568703E+03  4.947851E+04
       105  24  7.253273E+04  1.325617E+02 -9.924536E+02  5.153678E+04  7.088984E+02  4.611584E+04
       105  25 -6.170381E+05 -1.591780E+05 -1.089453E+05  5.068323E+04 -3.409396E+03  5.260049E+04
       105  26 -5.720655E+05 -1.485985E+05 -1.003323E+05  4.626056E+04 -4.732944E+03  4.947399E+04
       105  27 -5.273061E+05 -1.381974E+05 -9.262515E+04  5.070741E+04 -6.054879E+03  4.610924E+04
       106   1  6.442543E+05  1.318399E+05  8.632703E+04  5.232637E+04 -7.313268E+03 -4.409002E+04
       106   2  5.993829E+05  1.215027E+05  7.985276E+04  4.784093E+04 -7.158038E+03 -4.060351E+04
       106   3  5.544884E+05  1.112021E+05  7.328270E+04  5.223503E+04 -7.004030E+03 -3.709174E+04
       106   4  7.256139E+04  1.337405E+02 -7.495462E+02  5.153927E+04 -5.543190E+02 -4.408268E+04
       106   5  7.258655E+04  1.296722E+02 -4.210163E+02  4.709927E+04 -3.504060E+02 -4.059495E+04
       106   6  7.257732E+04  1.536594E+02 -2.224802E+02  5.153925E+04 -1.477054E+02 -3.708195E+04
       106   7 -4.988044E+05 -1.315881E+05 -8.783290E+04  5.075278E+04  6.198654E+03 -4.407535E+04
       106   8 -4.539320E+05 -1.212566E+05 -8.070052E+04  4.635814E+04  6.451679E+03 -4.058640E+04
       106   9 -4.091012E+05 -1.109059E+05 -7.373245E+04  5.084392E+04  6.703508E+03 -3.707217E+04
       106  10  6.442537E+05  1.318378E+05  8.632328E+04  5.232611E+04 -7.739284E-09 -1.371612E-09
       106  11  5.993824E+05  1.215009E+05  7.984956E+04  4.784070E+04 -2.087245E-09  5.323888E-09
       106  12  5.544879E+05  1.112006E+05  7.328002E+04  5.223482E+04 -5.086007E-09  8.428963E-09
       106  13  7.256086E+04  1.316536E+02 -7.531987E+02  5.153925E+04 -8.615447E-09 -3.843452E-10
       106  14  7.258611E+04  1.279025E+02 -4.241134E+02  4.709926E+04 -9.018833E-09  5.403012E-09
       106  15  7.257695E+04  1.521828E+02 -2.250643E+02  5.153925E+04 -1.002625E-08  4.305187E-09
       106  16 -4.988050E+05 -1.315902E+05 -8.783662E+04  5.075300E+04  3.743401E-09 -8.502749E-10
       106  17 -4.539325E+05 -1.212584E+05 -8.070370E+04  4.635836E+04  1.663112E-09  2.019031E-09
       106  18 -4.091017E+05 -1.109074E+05 -7.373512E+04  5.084412E+04  2.197742E-09  1.956220E-09
       106  19  6.442543E+05  1.318399E+05  8.632703E+04  5.232637E+04  7.313268E+03  4.409002E+04
       106  20  5.993829E+05  1.215027E+05  7.985276E+04  4.784093E+04  7.158038E+03  4.060351E+04
       106  21  5.544884E+05  1.112021E+05  7.328270E+04  5.223503E+04  7.004030E+03  3.709174E+04
       106  22  7.256139E+04  1.337405E+02 -7.495462E+02  5.153927E+04  5.543190E+02  4.408268E+04
       106  23  7.258655E+04  1.296722E+02 -4.210163E+02  4.709927E+04  3.504060E+02  4.059495E+04
       106  24  7.257732E+04  1.536594E+02 -2.224802E+02  5.153925E+04  1.477054E+02  3.708195E+04
       106  25 -4.988044E+05 -1.315881E+05 -8.783290E+04  5.075278E+04 -6.198654E+03  4.407535E+04
       106  26 -4.539320E+05 -1.212566E+05 -8.070052E+04  4.635814E+04 -6.451679E+03  4.058640E+04
       106  27 -4.091012E+05 -1.109059E+05 -7.373245E+04  5.084392E+04 -6.703508E+03  3.707217E+04
       107   1  5.260136E+05  1.046101E+05  6.883196E+04  5.220564E+04 -6.970915E+03 -3.503990E+04
       107   2  4.811571E+05  9.428174E+04  6.218722E+04  4.771563E+04 -6.956543E+03 -3.151521E+04
       107   3  4.362814E+05  8.399105E+04  5.553423E+04  5.210857E+04 -6.943087E+03 -2.798824E+04
       107   4  7.258529E+04  1.583469E+02 -1.543012E+02  5.153999E+04 -1.164248E+02 -3.502951E+04
       107   5  7.260212E+04  1.492636E+02 -4.889288E+01  4.709834E+04 -9.781532E+01 -3.150392E+04
       107   6  7.259765E+04  1.773706E+02  4.538539E+01  5.153997E+04 -8.011961E+01 -2.797604E+04
       107   7 -3.806371E+05 -1.043033E+05 -6.914473E+04  5.087474E+04  6.733259E+03 -3.501912E+04
       107   8 -3.357857E+05 -9.399120E+04 -6.228838E+04  4.648139E+04  6.756578E+03 -3.149263E+04
       107   9 -2.909536E+05 -8.364264E+04 -5.544611E+04  5.097165E+04  6.778986E+03 -2.796386E+04
       107  10  5.260132E+05  1.046088E+05  6.882957E+04  5.220544E+04 -1.773027E-08  6.032720E-09
       107  11  4.811568E+05  9.428066E+04  6.218527E+04  4.771546E+04  7.693639E-09  7.144662E-09
       107  12  4.362811E+05  8.399020E+04  5.553266E+04  5.210841E+04  2.533212E-08  8.248639E-09
       107  13  7.258497E+04  1.570292E+02 -1.566072E+02  5.153998E+04  4.318381E-11  6.865818E-09
       107  14  7.260185E+04  1.481978E+02 -5.075805E+01  4.709834E+04  3.819023E-09 -4.414702E-09
       107  15  7.259744E+04  1.765301E+02  4.391456E+01  5.153997E+04  8.573507E-10 -1.166419E-08
       107  16 -3.806375E+05 -1.043046E+05 -6.914712E+04  5.087493E+04  1.368427E-08  4.173035E-09
       107  17 -3.357860E+05 -9.399228E+04 -6.229033E+04  4.648157E+04 -1.765296E-09  2.221008E-09
       107  18 -2.909539E+05 -8.364350E+04 -5.544767E+04  5.097181E+04 -2.732657E-08  4.416634E-09
       107  19  5.260136E+05  1.046101E+05  6.883196E+04  5.220564E+04  6.970915E+03  3.503990E+04
       107  20  4.811571E+05  9.428174E+04  6.218722E+04  4.771563E+04  6.956543E+03  3.151521E+04
       107  21  4.362814E+05  8.399105E+04  5.553423E+04  5.210857E+04  6.943087E+03  2.798824E+04
       107  22  7.258529E+04  1.583469E+02 -1.543012E+02  5.153999E+04  1.164248E+02  3.502951E+04
       107  23  7.260212E+04  1.492636E+02 -4.889288E+01  4.709834E+04  9.781532E+01  3.150392E+04
       107  24  7.259765E+04  1.773706E+02  4.538539E+01  5.153997E+04  8.011961E+01  2.797604E+04
       107  25 -3.806371E+05 -1.043033E+05 -6.914473E+04  5.087474E+04 -6.733259E+03  3.501912E+04
       107  26 -3.357857E+05 -9.399120E+04 -6.228838E+04  4.648139E+04 -6.756578E+03  3.149263E+04
       107  27 -2.909536E+05 -8.364264E+04 -5.544611E+04  5.097165E+04 -6.778986E+03  2.796386E+04
       108   1  4.078176E+05  7.740071E+04  5.106850E+04  5.207527E+04 -6.958591E+03 -2.593480E+04
       108   2  3.629679E+05  6.707486E+04  4.444923E+04  4.757552E+04 -7.071489E+03 -2.240749E+04
       108   3  3.181107E+05  5.680447E+04  3.790611E+04  5.195532E+04 -7.185024E+03 -1.888139E+04
       108   4  7.260416E+04  1.811958E+02  9.445428E+01  5.153921E+04 -9.625455E+01 -2.592216E+04
       108   5  7.261307E+04  1.719353E+02  2.197723E+02  4.709928E+04 -2.117029E+02 -2.239422E+04
       108   6  7.261294E+04  2.186396E+02  4.229083E+02  5.153914E+04 -3.277956E+02 -1.886749E+04
       108   7 -2.624967E+05 -7.704368E+04 -5.088178E+04  5.100338E+04  6.762524E+03 -2.590952E+04
       108   8 -2.176572E+05 -6.673501E+04 -4.401130E+04  4.662323E+04  6.645002E+03 -2.238095E+04
       108   9 -1.728244E+05 -5.637007E+04 -3.706141E+04  5.112310E+04  6.526828E+03 -1.885360E+04
       108  10  4.078173E+05  7.739997E+04  5.106715E+04  5.207513E+04 -9.315928E-08  8.491656E-09
       108  11  3.629677E+05  6.707431E+04  4.444819E+04  4.757539E+04  4.279341E-11 -6.856368E-10
       108  12  3.181106E+05  5.680408E+04  3.790535E+04  5.195521E+04  8.400510E-08 -1.712630E-09
       108  13  7.260398E+04  1.804742E+02  9.319148E+01  5.153920E+04  4.292980E-09 -1.167484E-08
       108  14  7.261293E+04  1.713967E+02  2.188298E+02  4.709928E+04  1.553117E-09 -1.013138E-08
       108  15  7.261284E+04  2.182573E+02  4.222391E+02  5.153914E+04  6.793612E-09 -4.059676E-09
       108  16 -2.624969E+05 -7.704441E+04 -5.088313E+04  5.100352E+04  9.682908E-08  6.592829E-09
       108  17 -2.176574E+05 -6.673556E+04 -4.401232E+04  4.662335E+04  8.116749E-09 -6.783814E-09
       108  18 -1.728246E+05 -5.637046E+04 -3.706216E+04  5.112320E+04 -7.908785E-08 -5.212114E-09
       108  19  4.078176E+05  7.740071E+04  5.106850E+04  5.207527E+04  6.958591E+03  2.593480E+04
       108  20  3.629679E+05  6.707486E+04  4.444923E+04  4.757552E+04  7.071489E+03  2.240749E+04
       108  21  3.181107E+05  5.680447E+04  3.790611E+04  5.195532E+04  7.185024E+03  1.888139E+04
       108  22  7.260416E+04  1.811958E+02  9.445428E+01  5.153921E+04  9.625455E+01  2.592216E+04
       108  23  7.261307E+04  1.719353E+02  2.197723E+02  4.709928E+04  2.117029E+02  2.239422E+04
       108  24  7.261294E+04  2.186396E+02  4.229083E+02  5.153914E+04  3.277956E+02  1.886749E+04
       108  25 -2.624967E+05 -7.704368E+04 -5.088178E+04  5.100338E+04 -6.762524E+03  2.590952E+04
       108  26 -2.176572E+05 -6.673501E+04 -4.401130E+04  4.662323E+04 -6.645002E+03  2.238095E+04
       108  27 -1.728244E+05 -5.637007E+04 -3.706141E+04  5.112310E+04 -6.526828E+03  1.885360E+04
       109   1  2.896762E+05  5.021404E+04  3.353508E+04  5.194828E+04 -7.274534E+03 -1.682909E+04
       109   2  2.447817E+05  3.998128E+04  2.723029E+04  4.729132E+04 -7.765468E+03 -1.331003E+04
       109   3  1.999904E+05  3.007349E+04  2.131327E+04  5.151081E+04 -8.256722E+03 -9.802897E+03
       109   4  7.264069E+04  2.215106E+02  5.669694E+02  5.153856E+04 -4.172083E+02 -1.681489E+04
       109   5  7.259098E+04  3.062698E+02  1.014632E+03  4.709974E+04 -9.315181E+02 -1.329551E+04
       109   6  7.264587E+04  7.199624E+02  1.865999E+03  5.153750E+04 -1.446179E+03 -9.788053E+03
       109   7 -1.443476E+05 -4.977325E+04 -3.240195E+04  5.112896E+04  6.437815E+03 -1.680070E+04
       109   8 -9.956991E+04 -3.937014E+04 -2.520148E+04  4.690821E+04  5.900611E+03 -1.328098E+04
       109   9 -5.468233E+04 -2.863432E+04 -1.758145E+04  5.156418E+04  5.363021E+03 -9.773206E+03
       109  10  2.896761E+05  5.021372E+04  3.353444E+04  5.194818E+04  6.346747E-10  3.990274E-09
       109  11  2.447816E+05  3.998108E+04  2.722984E+04  4.729124E+04  5.619970E-09  1.683146E-09
       109  12  1.999903E+05  3.007337E+04  2.131296E+04  5.151075E+04  1.073985E-08  2.458416E-09
       109  13  7.264061E+04  2.212069E+02  5.664378E+02  5.153855E+04  4.309230E-09 -1.070465E-10
       109  14  7.259094E+04  3.060798E+02  1.014298E+03  4.709973E+04  8.048933E-09  2.640092E-09
       109  15  7.264584E+04  7.198589E+02  1.865815E+03  5.153749E+04  3.782277E-10 -2.357510E-09
       109  16 -1.443477E+05 -4.977356E+04 -3.240255E+04  5.112905E+04  4.260814E-09 -1.570114E-09
       109  17 -9.957000E+04 -3.937034E+04 -2.520188E+04  4.690827E+04 -6.634217E-10 -6.024112E-10
       109  18 -5.468239E+04 -2.863443E+04 -1.758168E+04  5.156422E+04 -1.263545E-08 -4.133774E-09
       109  19  2.896762E+05  5.021404E+04  3.353508E+04  5.194828E+04  7.274534E+03  1.682909E+04
       109  20  2.447817E+05  3.998128E+04  2.723029E+04  4.729132E+04  7.765468E+03  1.331003E+04
       109  21  1.999904E+05  3.007349E+04  2.131327E+04  5.151081E+04  8.256722E+03  9.802897E+03
       109  22  7.264069E+04  2.215106E+02  5.669694E+02  5.153856E+04  4.172083E+02  1.681489E+04
       109  23  7.259098E+04  3.062698E+02  1.014632E+03  4.709974E+04  9.315181E+02  1.329551E+04
       109  24  7.264587E+04  7.199624E+02  1.865999E+03  5.153750E+04  1.446179E+03  9.788053E+03
       109  25 -1.443476E+05 -4.977325E+04 -3.240195E+04  5.112896E+04 -6.437815E+03  1.680070E+04
       109  26 -9.956991E+04 -3.937014E+04 -2.520148E+04  4.690821E+04 -5.900611E+03  1.328098E+04
       109  27 -5.468233E+04 -2.863432E+04 -1.758145E+04  5.156418E+04 -5.363021E+03  9.773206E+03
       110   1  1.718028E+05  2.353519E+04  1.739527E+04  5.188992E+04 -8.586062E+03 -7.760448E+03
       110   2  1.263232E+05  1.497675E+04  1.262742E+04  4.452742E+04 -1.071300E+04 -4.315213E+03
       110   3  8.215208E+04  1.072918E+04  1.030765E+04  4.602839E+04 -1.283972E+04 -9.799233E+02
       110   4  7.292253E+04  7.767513E+02  2.476069E+03  5.153638E+04 -1.771138E+03 -7.745442E+03
       110   5  7.225121E+04  2.561014E+03  4.544991E+03  4.709610E+04 -4.111933E+03 -4.300614E+03
       110   6  7.292392E+04  8.693617E+03  9.210563E+03  5.151915E+04 -6.452652E+03 -9.657555E+02
       110   7 -2.594780E+04 -2.198213E+04 -1.244315E+04  5.118290E+04  5.042744E+03 -7.730444E+03
       110   8  1.818225E+04 -9.854807E+03 -3.537325E+03  4.966454E+04  2.488578E+03 -4.285960E+03
       110   9  6.369600E+04  6.658190E+03  8.113644E+03  5.700983E+04 -6.567388E+01 -9.514746E+02
       110  10  1.718027E+05  2.353511E+04  1.739502E+04  5.188987E+04 -2.251250E-09 -2.191768E-10
       110  11  1.263231E+05  1.497670E+04  1.262717E+04  4.452738E+04  9.891065E-09 -2.810735E-09
       110  12  8.215190E+04  1.072913E+04  1.030734E+04  4.602838E+04  3.278247E-09 -1.016968E-09
       110  13  7.292252E+04  7.766860E+02  2.475950E+03  5.153637E+04  4.355921E-09  2.955146E-09
       110  14  7.225119E+04  2.560990E+03  4.544924E+03  4.709608E+04  5.836883E-09 -4.860292E-09
       110  15  7.292388E+04  8.693605E+03  9.210483E+03  5.151915E+04  2.583989E-09  3.678942E-09
       110  16 -2.594784E+04 -2.198220E+04 -1.244331E+04  5.118293E+04  2.875930E-09  1.151351E-09
       110  17  1.818224E+04 -9.854828E+03 -3.537371E+03  4.966455E+04 -1.650657E-09  3.458118E-09
       110  18  6.369600E+04  6.658189E+03  8.113643E+03  5.700983E+04 -4.804434E-10  9.554736E-10
       110  19  1.718028E+05  2.353519E+04  1.739527E+04  5.188992E+04  8.586062E+03  7.760448E+03
       110  20  1.263232E+05  1.497675E+04  1.262742E+04  4.452742E+04  1.071300E+04  4.315213E+03
       110  21  8.215208E+04  1.072918E+04  1.030765E+04  4.602839E+04  1.283972E+04  9.799233E+02
       110  22  7.292253E+04  7.767513E+02  2.476069E+03  5.153638E+04  1.771138E+03  7.745442E+03
       110  23  7.225121E+04  2.561014E+03  4.544991E+03  4.709610E+04  4.111933E+03  4.300614E+03
       110  24  7.292392E+04  8.693617E+03  9.210563E+03  5.151915E+04  6.452652E+03  9.657555E+02
       110  25 -2.594780E+04 -2.198213E+04 -1.244315E+04  5.118290E+04 -5.042744E+03  7.730444E+03
       110  26  1.818225E+04 -9.854807E+03 -3.537325E+03  4.966454E+04 -2.488578E+03  4.285960E+03
       110  27  6.369600E+04  6.658190E+03  8.113644E+03  5.700983E+04  6.567388E+01  9.514746E+02
       111   1 -8.490344E+03  3.513182E+05 -6.881229E+03 -1.017790E+04 -9.681118E+02 -7.261037E+02
       111   2 -1.494235E+04  3.421069E+05 -9.468476E+03 -7.057103E+03 -3.439363E+03 -1.020627E+03
       111   3 -1.759961E+04  3.338789E+05 -1.091701E+04 -6.671976E+03 -4.582887E+03 -1.314298E+03
       111   4  5.247953E+03  4.069431E+05  6.231261E+03 -7.201763E+03 -9.705588E+02  3.188565E+03
       111   5  5.403061E+02  4.063078E+05  3.779668E+03 -5.835540E+03 -3.440712E+03  1.236229E+03
       111   6 -8.509441E+01  4.069436E+05  3.617468E+03 -7.204959E+03 -4.583198E+03 -7.152784E+02
       111   7  1.898607E+04  4.625708E+05  1.934360E+04 -4.225355E+03 -9.729681E+02  7.103581E+03
       111   8  1.602271E+04  4.705127E+05  1.702761E+04 -4.613847E+03 -3.442051E+03  3.493314E+03
       111   9  1.742910E+04  4.800133E+05  1.815168E+04 -7.738005E+03 -4.583511E+03 -1.161901E+02
       111  10 -8.490345E+03  3.513182E+05 -6.881232E+03 -1.017790E+04 -5.148595E-09 -2.096613E-08
       111  11 -1.494236E+04  3.421068E+05 -9.468500E+03 -7.057106E+03 -9.435809E-10 -8.442916E-09
       111  12 -1.759964E+04  3.338789E+05 -1.091705E+04 -6.671980E+03 -1.883719E-09  9.024122E-09
       111  13  5.247949E+03  4.069430E+05  6.231241E+03 -7.201760E+03 -7.109090E-10  7.812337E-10
       111  14  5.402930E+02  4.063078E+05  3.779643E+03 -5.835536E+03  1.398191E-09  4.624513E-12
       111  15 -8.511711E+01  4.069436E+05  3.617428E+03 -7.204961E+03 -2.200470E-10  7.927660E-10
       111  16  1.898605E+04  4.625708E+05  1.934350E+04 -4.225349E+03 -4.110785E-09  2.124384E-08
       111  17  1.602269E+04  4.705127E+05  1.702756E+04 -4.613837E+03 -2.103558E-10  7.828756E-09
       111  18  1.742908E+04  4.800133E+05  1.815164E+04 -7.738005E+03  1.242879E-09 -8.890438E-09
       111  19 -8.490344E+03  3.513182E+05 -6.881229E+03 -1.017790E+04  9.681118E+02  7.261037E+02
       111  20 -1.494235E+04  3.421069E+05 -9.468476E+03 -7.057103E+03  3.439363E+03  1.020627E+03
       111  21 -1.759961E+04  3.338789E+05 -1.091701E+04 -6.671976E+03  4.582887E+03  1.314298E+03
       111  22  5.247953E+03  4.069431E+05  6.231261E+03 -7.201763E+03  9.705588E+02 -3.188565E+03
       111  23  5.403061E+02  4.063078E+05  3.779668E+03 -5.835540E+03  3.440712E+03 -1.236229E+03
       111  24 -8.509441E+01  4.069436E+05  3.617468E+03 -7.204959E+03  4.583198E+03  7.152784E+02
       111  25  1.898607E+04  4.625708E+05  1.934360E+04 -4.225355E+03  9.729681E+02 -7.103581E+03
       111  26  1.602271E+04  4.705127E+05  1.702761E+04 -4.613847E+03  3.442051E+03 -3.493314E+03
       111  27  1.742910E+04  4.800133E+05  1.815168E+04 -7.738005E+03  4.583511E+03  1.161901E+02
       112   1 -1.886559E+04  3.276045E+05 -1.182889E+04 -7.539901E+03 -4.895005E+03 -2.286963E+03
       112   2 -2.100727E+04  3.185080E+05 -1.187223E+04 -5.756818E+03 -5.515424E+03 -4.772969E+03
       112   3 -2.175625E+04  3.100811E+05 -9.950094E+03 -6.637664E+03 -5.878617E+03 -7.258764E+03
       112   4  1.344463E+02  4.068219E+05  3.988910E+03 -7.188522E+03 -4.895503E+03 -1.350140E+03
       112   5  7.493537E+01  4.064588E+05  5.623036E+03 -5.856193E+03 -5.515705E+03 -4.157642E+03
       112   6  1.463772E+03  4.068207E+05  9.445588E+03 -7.187763E+03 -5.878697E+03 -6.964967E+03
       112   7  1.913410E+04  4.860454E+05  1.980640E+04 -6.837096E+03 -4.896000E+03 -4.131991E+02
       112   8  2.115666E+04  4.944169E+05  2.311792E+04 -5.955581E+03 -5.515987E+03 -3.542229E+03
       112   9  2.468322E+04  5.035693E+05  2.884080E+04 -7.737948E+03 -5.878777E+03 -6.671125E+03
       112  10 -1.886562E+04  3.276045E+05 -1.182894E+04 -7.539910E+03 -7.279645E-09  2.141161E-08
       112  11 -2.100730E+04  3.185080E+05 -1.187233E+04 -5.756839E+03 -2.880396E-09  7.021464E-09
       112  12 -2.175630E+04  3.100811E+05 -9.950258E+03 -6.637699E+03  3.557255E-09 -5.546045E-09
       112  13  1.344201E+02  4.068219E+05  3.988862E+03 -7.188527E+03 -4.146082E-09  5.812987E-10
       112  14  7.489806E+01  4.064587E+05  5.622946E+03 -5.856212E+03 -7.856956E-09  1.960840E-10
       112  15  1.463722E+03  4.068207E+05  9.445432E+03 -7.187796E+03 -5.790763E-09  7.959209E-10
       112  16  1.913408E+04  4.860454E+05  1.980635E+04 -6.837098E+03 -2.038506E-09 -2.119283E-08
       112  17  2.115663E+04  4.944169E+05  2.311783E+04 -5.955597E+03 -4.437051E-09 -7.350691E-09
       112  18  2.468317E+04  5.035692E+05  2.884065E+04 -7.737979E+03 -2.558617E-09  5.683672E-09
       112  19 -1.886559E+04  3.276045E+05 -1.182889E+04 -7.539901E+03  4.895005E+03  2.286963E+03
       112  20 -2.100727E+04  3.185080E+05 -1.187223E+04 -5.756818E+03  5.515424E+03  4.772969E+03
       112  21 -2.175625E+04  3.100811E+05 -9.950094E+03 -6.637664E+03  5.878617E+03  7.258764E+03
       112  22  1.344463E+02  4.068219E+05  3.988910E+03 -7.188522E+03  4.895503E+03  1.350140E+03
       112  23  7.493537E+01  4.064588E+05  5.623036E+03 -5.856193E+03  5.515705E+03  4.157642E+03
       112  24  1.463772E+03  4.068207E+05  9.445588E+03 -7.187763E+03  5.878697E+03  6.964967E+03
       112  25  1.913410E+04  4.860454E+05  1.980640E+04 -6.837096E+03  4.896000E+03  4.131991E+02
       112  26  2.115666E+04  4.944169E+05  2.311792E+04 -5.955581E+03  5.515987E+03  3.542229E+03
       112  27  2.468322E+04  5.035693E+05  2.884080E+04 -7.737948E+03  5.878777E+03  6.671125E+03
       113   1 -2.556117E+04  3.055347E+05 -8.675110E+03 -1.146728E+04 -6.302539E+03 -9.602799E+03
       113   2 -2.296863E+04  2.926898E+05 -2.540034E+03  2.608621E+03 -5.554379E+03 -1.660180E+04
       113   3  8.225402E+03  2.879055E+05  1.530099E+04  1.419143E+04 -1.696130E+03 -2.359909E+04
       113   4 -8.355668E+02  4.086009E+05  1.195488E+04 -7.153976E+03 -6.303054E+03 -8.592163E+03
       113   5  4.012245E+03  4.042305E+05  2.081684E+04 -5.897805E+03 -5.552645E+03 -1.947581E+04
       113   6  3.813222E+04  4.085927E+05  4.407976E+04 -7.134509E+03 -1.692112E+03 -3.035788E+04
       113   7  2.388945E+04  5.116773E+05  3.258434E+04 -2.839937E+03 -6.303555E+03 -7.581362E+03
       113   8  3.099259E+04  5.157831E+05  4.417310E+04 -1.440578E+04 -5.550834E+03 -2.235032E+04
       113   9  6.803971E+04  5.292943E+05  7.285793E+04 -2.846461E+04 -1.687631E+03 -3.711798E+04
       113  10 -2.556123E+04  3.055346E+05 -8.675358E+03 -1.146733E+04  4.924372E-09  1.173271E-08
       113  11 -2.296873E+04  2.926895E+05 -2.540609E+03  2.608547E+03  6.299215E-09 -8.572918E-10
       113  12  8.225249E+03  2.879049E+05  1.529994E+04  1.419140E+04  3.498097E-09 -1.018980E-08
       113  13 -8.356292E+02  4.086008E+05  1.195466E+04 -7.154019E+03  5.924924E-09  7.078430E-10
       113  14  4.012110E+03  4.042300E+05  2.081607E+04 -5.897892E+03 -5.177045E-09  2.818174E-10
       113  15  3.813197E+04  4.085917E+05  4.407803E+04 -7.134550E+03  3.685874E-09  6.932808E-10
       113  16  2.388939E+04  5.116772E+05  3.258416E+04 -2.839975E+03  2.330601E-10 -1.126875E-08
       113  17  3.099243E+04  5.157825E+05  4.417210E+04 -1.440588E+04 -2.176472E-10  4.585191E-10
       113  18  6.803934E+04  5.292928E+05  7.285534E+04 -2.846466E+04  2.130642E-09  1.029248E-08
       113  19 -2.556117E+04  3.055347E+05 -8.675110E+03 -1.146728E+04  6.302539E+03  9.602799E+03
       113  20 -2.296863E+04  2.926898E+05 -2.540034E+03  2.608621E+03  5.554379E+03  1.660180E+04
       113  21  8.225402E+03  2.879055E+05  1.530099E+04  1.419143E+04  1.696130E+03  2.359909E+04
       113  22 -8.355668E+02  4.086009E+05  1.195488E+04 -7.153976E+03  6.303054E+03  8.592163E+03
       113  23  4.012245E+03  4.042305E+05  2.081684E+04 -5.897805E+03  5.552645E+03  1.947581E+04
       113  24  3.813222E+04  4.085927E+05  4.407976E+04 -7.134509E+03  1.692112E+03  3.035788E+04
       113  25  2.388945E+04  5.116773E+05  3.258434E+04 -2.839937E+03  6.303555E+03  7.581362E+03
       113  26  3.099259E+04  5.157831E+05  4.417310E+04 -1.440578E+04  5.550834E+03  2.235032E+04
       113  27  6.803971E+04  5.292943E+05  7.285793E+04 -2.846461E+04  1.687631E+03  3.711798E+04
       114   1  1.147931E+06  4.195124E+05  2.198960E+05  4.222733E+05  8.467649E+04  1.830528E+04
       114   2  1.091010E+06  3.731776E+05  1.564623E+05  4.034903E+05  5.494252E+04 -2.482361E+04
       114   3  1.037007E+06  3.489154E+05  1.266945E+05  3.915792E+05  1.781435E+04 -4.824729E+04
       114   4  3.548315E+05  1.141027E+05  1.593905E+04  1.962799E+05  1.481630E+04 -7.957151E+03
       114   5  3.561253E+05  1.005601E+05  7.488964E+03  1.951477E+05  2.146127E+04 -3.741901E+04
       114   6  3.531445E+05  1.019022E+05  3.925891E+03  2.008857E+05  2.070145E+04 -4.716741E+04
       114   7 -4.376134E+05 -1.912404E+05 -1.880401E+05 -2.943752E+04 -5.494362E+04 -3.417949E+04
       114   8 -3.781858E+05 -1.719996E+05 -1.415022E+05 -1.296078E+04 -1.197675E+04 -4.999762E+04
       114   9 -3.302243E+05 -1.450662E+05 -1.188581E+05  1.038779E+04  2.358517E+04 -4.608881E+04
       114  10  1.147924E+06  4.195101E+05  2.198819E+05  4.222721E+05 -6.405332E-08 -2.394827E-08
       114  11  1.091007E+06  3.731762E+05  1.564555E+05  4.034914E+05  1.500439E-08  3.629736E-09
       114  12  1.037006E+06  3.489128E+05  1.266895E+05  3.915799E+05  1.030164E-07  4.016221E-08
       114  13  3.548312E+05  1.141026E+05  1.593852E+04  1.962800E+05 -8.275112E-09 -1.129182E-09
       114  14  3.561244E+05  1.005585E+05  7.485466E+03  1.951484E+05  4.781127E-09 -4.996120E-09
       114  15  3.531434E+05  1.018997E+05  3.920904E+03  2.008865E+05  1.366474E-08  3.191321E-09
       114  16 -4.376169E+05 -1.912425E+05 -1.880480E+05 -2.943904E+04  5.778628E-08  2.012251E-08
       114  17 -3.781866E+05 -1.720023E+05 -1.415071E+05 -1.296126E+04 -1.763944E-08 -1.464731E-08
       114  18 -3.302255E+05 -1.450686E+05 -1.188632E+05  1.038867E+04 -8.773654E-08 -3.811313E-08
       114  19  1.147931E+06  4.195124E+05  2.198960E+05  4.222733E+05 -8.467649E+04 -1.830528E+04
       114  20  1.091010E+06  3.731776E+05  1.564623E+05  4.034903E+05 -5.494252E+04  2.482361E+04
       114  21  1.037007E+06  3.489154E+05  1.266945E+05  3.915792E+05 -1.781435E+04  4.824729E+04
       114  22  3.548315E+05  1.141027E+05  1.593905E+04  1.962799E+05 -1.481630E+04  7.957151E+03
       114  23  3.561253E+05  1.005601E+05  7.488964E+03  1.951477E+05 -2.146127E+04  3.741901E+04
       114  24  3.531445E+05  1.019022E+05  3.925891E+03  2.008857E+05 -2.070145E+04  4.716741E+04
       114  25 -4.376134E+05 -1.912404E+05 -1.880401E+05 -2.943752E+04  5.494362E+04  3.417949E+04
       114  26 -3.781858E+05 -1.719996E+05 -1.415022E+05 -1.296078E+04  1.197675E+04  4.999762E+04
       114  27 -3.302243E+05 -1.450662E+05 -1.188581E+05  1.038779E+04 -2.358517E+04  4.608881E+04
       115   1  9.981346E+05  3.358208E+05  1.172320E+05  3.819535E+05  1.867150E+04 -4.635156E+04
       115   2  9.451257E+05  3.096210E+05  1.021474E+05  3.613566E+05  1.385443E+04 -4.642968E+04
       115   3  8.845677E+05  2.931121E+05  9.051742E+04  3.504284E+05  8.328388E+03 -4.462674E+04
       115   4  3.524864E+05  1.020897E+05  2.939688E+03  2.009509E+05  1.973986E+04 -4.595532E+04
       115   5  3.565725E+05  9.727932E+04  1.537957E+03  1.962374E+05  1.839568E+04 -4.472557E+04
       115   6  3.524206E+05  1.014737E+05  8.430232E+02  2.011923E+05  1.634182E+04 -4.161387E+04
       115   7 -2.927295E+05 -1.316037E+05 -1.113680E+05  2.012169E+04  2.080705E+04 -4.555953E+04
       115   8 -2.316166E+05 -1.150292E+05 -9.908198E+04  3.126350E+04  2.293239E+04 -4.302318E+04
       115   9 -1.794254E+05 -9.013644E+04 -8.883855E+04  5.207556E+04  2.434796E+04 -3.860374E+04
       115  10  9.981337E+05  3.358184E+05  1.172273E+05  3.819542E+05 -2.191509E-08 -1.075842E-08
       115  11  9.451250E+05  3.096187E+05  1.021430E+05  3.613571E+05 -4.477596E-09 -4.708658E-09
       115  12  8.845671E+05  2.931099E+05  9.051355E+04  3.504287E+05  2.765694E-08  3.178808E-09
       115  13  3.524854E+05  1.020873E+05  2.934986E+03  2.009516E+05  1.878242E-08  1.439537E-09
       115  14  3.565716E+05  9.727708E+04  1.533561E+03  1.962381E+05  1.688013E-08 -8.192678E-10
       115  15  3.524199E+05  1.014717E+05  8.392663E+02  2.011928E+05  5.841544E-09 -4.276981E-09
       115  16 -2.927306E+05 -1.316060E+05 -1.113727E+05  2.012245E+04  5.837068E-08  1.412116E-08
       115  17 -2.316177E+05 -1.150313E+05 -9.908645E+04  3.126429E+04  1.840310E-08  5.648336E-09
       115  18 -1.794264E+05 -9.013820E+04 -8.884246E+04  5.207632E+04 -1.369881E-08 -8.962139E-09
       115  19  9.981346E+05  3.358208E+05  1.172320E+05  3.819535E+05 -1.867150E+04  4.635156E+04
       115  20  9.451257E+05  3.096210E+05  1.021474E+05  3.613566E+05 -1.385443E+04  4.642968E+04
       115  21  8.845677E+05  2.931121E+05  9.051742E+04  3.504284E+05 -8.328388E+03  4.462674E+04
       115  22  3.524864E+05  1.020897E+05  2.939688E+03  2.009509E+05 -1.973986E+04  4.595532E+04
       115  23  3.565725E+05  9.727932E+04  1.537957E+03  1.962374E+05 -1.839568E+04  4.472557E+04
       115  24  3.524206E+05  1.014737E+05  8.430232E+02  2.011923E+05 -1.634182E+04  4.161387E+04
       115  25 -2.927295E+05 -1.316037E+05 -1.113680E+05  2.012169E+04 -2.080705E+04  4.555953E+04
       115  26 -2.316166E+05 -1.150292E+05 -9.908198E+04  3.126350E+04 -2.293239E+04  4.302318E+04
       115  27 -1.794254E+05 -9.013644E+04 -8.883855E+04  5.207556E+04 -2.434796E+04  3.860374E+04
       116   1  8.480119E+05  2.800047E+05  8.376907E+04  3.402936E+05  7.423106E+03 -4.203178E+04
       116   2  7.955745E+05  2.552500E+05  7.376486E+04  3.194971E+05  5.289444E+03 -3.788545E+04
       116   3  7.346345E+05  2.392160E+05  6.416286E+04  3.085333E+05  3.087494E+03 -3.356183E+04
       116   4  3.523679E+05  1.015035E+05  6.330586E+02  2.011910E+05  1.525842E+04 -3.908495E+04
       116   5  3.566655E+05  9.718635E+04  3.505207E+02  1.962753E+05  1.345209E+04 -3.481384E+04
       116   6  3.523910E+05  1.015252E+05  2.104459E+02  2.011917E+05  1.157739E+04 -3.036538E+04
       116   7 -1.430092E+05 -7.697078E+04 -8.250749E+04  6.219371E+04  2.308701E+04 -3.614064E+04
       116   8 -8.203831E+04 -6.085780E+04 -7.306838E+04  7.313491E+04  2.160861E+04 -3.174454E+04
       116   9 -2.970086E+04 -3.615240E+04 -6.374647E+04  9.391074E+04  2.006183E+04 -2.717097E+04
       116  10  8.480114E+05  2.800027E+05  8.376565E+04  3.402939E+05  2.891693E-08  6.559400E-09
       116  11  7.955741E+05  2.552485E+05  7.376211E+04  3.194973E+05  7.625663E-09 -2.800861E-09
       116  12  7.346341E+05  2.392148E+05  6.416073E+04  3.085334E+05 -2.106726E-08 -1.822518E-08
       116  13  3.523672E+05  1.015018E+05  6.297496E+02  2.011915E+05  1.654488E-09  6.923663E-10
       116  14  3.566650E+05  9.718500E+04  3.479025E+02  1.962756E+05  1.680178E-08  5.522189E-09
       116  15  3.523906E+05  1.015241E+05  2.084609E+02  2.011920E+05  1.020128E-08  1.203196E-08
       116  16 -1.430101E+05 -7.697233E+04 -8.251095E+04  6.219438E+04 -1.805316E-08 -7.973134E-09
       116  17 -8.203908E+04 -6.085901E+04 -7.307115E+04  7.313547E+04  4.425185E-09  7.552495E-10
       116  18 -2.970149E+04 -3.615330E+04 -6.374862E+04  9.391117E+04  1.475193E-08  3.857516E-09
       116  19  8.480119E+05  2.800047E+05  8.376907E+04  3.402936E+05 -7.423106E+03  4.203178E+04
       116  20  7.955745E+05  2.552500E+05  7.376486E+04  3.194971E+05 -5.289444E+03  3.788545E+04
       116  21  7.346345E+05  2.392160E+05  6.416286E+04  3.085333E+05 -3.087494E+03  3.356183E+04
       116  22  3.523679E+05  1.015035E+05  6.330586E+02  2.011910E+05 -1.525842E+04  3.908495E+04
       116  23  3.566655E+05  9.718635E+04  3.505207E+02  1.962753E+05 -1.345209E+04  3.481384E+04
       116  24  3.523910E+05  1.015252E+05  2.104459E+02  2.011917E+05 -1.157739E+04  3.036538E+04
       116  25 -1.430092E+05 -7.697078E+04 -8.250749E+04  6.219371E+04 -2.308701E+04  3.614064E+04
       116  26 -8.203831E+04 -6.085780E+04 -7.306838E+04  7.313491E+04 -2.160861E+04  3.174454E+04
       116  27 -2.970086E+04 -3.615240E+04 -6.374647E+04  9.391074E+04 -2.006183E+04  2.717097E+04
       117   1  6.983403E+05  2.261206E+05  5.777674E+04  2.983703E+05  2.065899E+03 -3.088403E+04
       117   2  6.460507E+05  2.014711E+05  4.840376E+04  2.775641E+05  2.421201E+02 -2.631946E+04
       117   3  5.851626E+05  1.854539E+05  3.910270E+04  2.665836E+05 -1.588173E+03 -2.174030E+04
       117   4  3.523892E+05  1.015333E+05  1.697760E+02  2.011862E+05  1.053582E+04 -2.769431E+04
       117   5  3.567005E+05  9.723447E+04  1.299644E+02  1.962710E+05  8.738821E+03 -2.311861E+04
       117   6  3.524043E+05  1.015621E+05  1.403117E+02  2.011802E+05  6.935305E+03 -1.852833E+04
       117   7  6.565894E+03 -2.304179E+04 -5.743978E+04  1.040528E+05  1.900073E+04 -2.450648E+04
       117   8  6.744143E+04 -6.993028E+03 -4.814513E+04  1.150138E+05  1.723127E+04 -1.991937E+04
       117   9  1.197065E+05  1.767678E+04 -3.882241E+04  1.358005E+05  1.545530E+04 -1.531768E+04
       117  10  6.983400E+05  2.261195E+05  5.777494E+04  2.983703E+05  2.958752E-08  3.258185E-09
       117  11  6.460505E+05  2.014704E+05  4.840245E+04  2.775641E+05  1.156915E-08  1.002377E-09
       117  12  5.851625E+05  1.854534E+05  3.910181E+04  2.665835E+05 -1.832466E-08 -7.966870E-09
       117  13  3.523888E+05  1.015324E+05  1.681258E+02  2.011864E+05  3.199632E-09  1.025603E-08
       117  14  3.567003E+05  9.723388E+04  1.288163E+02  1.962712E+05  6.349298E-09  4.184762E-09
       117  15  3.524042E+05  1.015617E+05  1.395760E+02  2.011803E+05 -7.264096E-09  3.409758E-09
       117  16  6.565345E+03 -2.304253E+04 -5.744159E+04  1.040531E+05 -4.365332E-08 -1.686691E-08
       117  17  6.744100E+04 -6.993534E+03 -4.814644E+04  1.150141E+05 -1.145607E-08 -1.793464E-09
       117  18  1.197062E+05  1.767646E+04 -3.882330E+04  1.358007E+05  1.339124E-08  1.018004E-08
       117  19  6.983403E+05  2.261206E+05  5.777674E+04  2.983703E+05 -2.065899E+03  3.088403E+04
       117  20  6.460507E+05  2.014711E+05  4.840376E+04  2.775641E+05 -2.421201E+02  2.631946E+04
       117  21  5.851626E+05  1.854539E+05  3.910270E+04  2.665836E+05  1.588173E+03  2.174030E+04
       117  22  3.523892E+05  1.015333E+05  1.697760E+02  2.011862E+05 -1.053582E+04  2.769431E+04
       117  23  3.567005E+05  9.723447E+04  1.299644E+02  1.962710E+05 -8.738821E+03  2.311861E+04
       117  24  3.524043E+05  1.015621E+05  1.403117E+02  2.011802E+05 -6.935305E+03  1.852833E+04
       117  25  6.565894E+03 -2.304179E+04 -5.743978E+04  1.040528E+05 -1.900073E+04  2.450648E+04
       117  26  6.744143E+04 -6.993028E+03 -4.814513E+04  1.150138E+05 -1.723127E+04  1.991937E+04
       117  27  1.197065E+05  1.767678E+04 -3.882241E+04  1.358005E+05 -1.545530E+04  1.531768E+04
       118   1  5.489299E+05  1.723602E+05  3.279994E+04  2.564253E+05 -2.624349E+03 -1.905863E+04
       118   2  4.966923E+05  1.477158E+05  2.359319E+04  2.356329E+05 -4.476031E+03 -1.448427E+04
       118   3  4.358539E+05  1.316947E+05  1.447014E+04  2.246597E+05 -6.325403E+03 -9.917345E+03
       118   4  3.524108E+05  1.015657E+05  1.621568E+02  2.011794E+05  5.896009E+03 -1.584738E+04
       118   5  3.567138E+05  9.725547E+04  2.526022E+02  1.962702E+05  4.030431E+03 -1.127773E+04
       118   6  3.524165E+05  1.015716E+05  4.378146E+02  2.011793E+05  2.167158E+03 -6.715535E+03
       118   7  1.559309E+05  3.077438E+04 -3.247685E+04  1.459493E+05  1.441360E+04 -1.263718E+04
       118   8  2.167556E+05  4.679693E+04 -2.308838E+04  1.569156E+05  1.253491E+04 -8.071943E+03
       118   9  2.689867E+05  7.144918E+04 -1.359439E+04  1.777018E+05  1.065851E+04 -3.514182E+03
       118  10  5.489298E+05  1.723598E+05  3.279924E+04  2.564252E+05  1.061105E-07  4.356971E-08
       118  11  4.966922E+05  1.477155E+05  2.359276E+04  2.356329E+05 -1.295369E-08  4.173584E-09
       118  12  4.358538E+05  1.316946E+05  1.446988E+04  2.246597E+05 -1.164664E-07 -4.221382E-08
       118  13  3.524107E+05  1.015654E+05  1.616195E+02  2.011794E+05 -5.700190E-09 -1.667544E-09
       118  14  3.567138E+05  9.725533E+04  2.523326E+02  1.962702E+05 -8.485053E-09  2.776984E-09
       118  15  3.524165E+05  1.015715E+05  4.377210E+02  2.011793E+05  9.914335E-09  5.145459E-09
       118  16  1.559307E+05  3.077415E+04 -3.247754E+04  1.459494E+05 -1.220236E-07 -3.928047E-08
       118  17  2.167554E+05  4.679682E+04 -2.308880E+04  1.569157E+05 -1.289596E-08  9.727621E-10
       118  18  2.689865E+05  7.144914E+04 -1.359463E+04  1.777018E+05  1.239123E-07  4.441303E-08
       118  19  5.489299E+05  1.723602E+05  3.279994E+04  2.564253E+05  2.624349E+03  1.905863E+04
       118  20  4.966923E+05  1.477158E+05  2.359319E+04  2.356329E+05  4.476031E+03  1.448427E+04
       118  21  4.358539E+05  1.316947E+05  1.447014E+04  2.246597E+05  6.325403E+03  9.917345E+03
       118  22  3.524108E+05  1.015657E+05  1.621568E+02  2.011794E+05 -5.896009E+03  1.584738E+04
       118  23  3.567138E+05  9.725547E+04  2.526022E+02  1.962702E+05 -4.030431E+03  1.127773E+04
       118  24  3.524165E+05  1.015716E+05  4.378146E+02  2.011793E+05 -2.167158E+03  6.715535E+03
       118  25  1.559309E+05  3.077438E+04 -3.247685E+04  1.459493E+05 -1.441360E+04  1.263718E+04
       118  26  2.167556E+05  4.679693E+04 -2.308838E+04  1.569156E+05 -1.253491E+04  8.071943E+03
       118  27  2.689867E+05  7.144918E+04 -1.359439E+04  1.777018E+05 -1.065851E+04  3.514182E+03
       119   1  3.996486E+05  1.186076E+05  8.283525E+03  2.145235E+05 -7.428422E+03 -7.266716E+03
       119   2  3.474046E+05  9.395025E+04 -6.133959E+02  1.937326E+05 -9.512824E+03 -2.835834E+03
       119   3  2.866161E+05  7.796169E+04 -9.227580E+03  1.827529E+05 -1.156519E+04  1.510421E+03
       119   4  3.524332E+05  1.015687E+05  5.782377E+02  2.011850E+05  1.070992E+03 -4.062192E+03
       119   5  3.566963E+05  9.725201E+04  1.040068E+03  1.962676E+05 -1.169900E+03  3.096451E+02
       119   6  3.524420E+05  1.016345E+05  1.908216E+03  2.011599E+05 -3.378807E+03  4.596863E+03
       119   7  3.052209E+05  8.453033E+04 -7.126648E+03  1.878476E+05  9.569631E+03 -8.579610E+02
       119   8  3.659883E+05  1.005538E+05  2.693827E+03  1.988027E+05  7.173157E+03  3.455172E+03
       119   9  4.182734E+05  1.253081E+05  1.304438E+04  2.195689E+05  4.808587E+03  7.683683E+03
       119  10  3.996486E+05  1.186075E+05  8.283322E+03  2.145234E+05 -6.674305E-09  1.946011E-09
       119  11  3.474045E+05  9.395021E+04 -6.135810E+02  1.937326E+05 -3.815060E-09  3.530013E-09
       119  12  2.866160E+05  7.796165E+04 -9.227836E+03  1.827529E+05 -9.567599E-09  3.337649E-10
       119  13  3.524332E+05  1.015687E+05  5.782045E+02  2.011850E+05  7.503145E-09  1.673514E-09
       119  14  3.566963E+05  9.725201E+04  1.040065E+03  1.962676E+05  1.004364E-09  3.631758E-09
       119  15  3.524420E+05  1.016345E+05  1.908155E+03  2.011599E+05  5.185034E-09  4.177711E-09
       119  16  3.052208E+05  8.453031E+04 -7.126822E+03  1.878476E+05  1.985119E-08  1.670986E-09
       119  17  3.659882E+05  1.005538E+05  2.693708E+03  1.988027E+05  4.069065E-09 -2.910616E-09
       119  18  4.182734E+05  1.253080E+05  1.304423E+04  2.195689E+05  8.111633E-09  9.152784E-09
       119  19  3.996486E+05  1.186076E+05  8.283525E+03  2.145235E+05  7.428422E+03  7.266716E+03
       119  20  3.474046E+05  9.395025E+04 -6.133959E+02  1.937326E+05  9.512824E+03  2.835834E+03
       119  21  2.866161E+05  7.796169E+04 -9.227580E+03  1.827529E+05  1.156519E+04 -1.510421E+03
       119  22  3.524332E+05  1.015687E+05  5.782377E+02  2.011850E+05 -1.070992E+03  4.062192E+03
       119  23  3.566963E+05  9.725201E+04  1.040068E+03  1.962676E+05  1.169900E+03 -3.096451E+02
       119  24  3.524420E+05  1.016345E+05  1.908216E+03  2.011599E+05  3.378807E+03 -4.596863E+03
       119  25  3.052209E+05  8.453033E+04 -7.126648E+03  1.878476E+05 -9.569631E+03  8.579610E+02
       119  26  3.659883E+05  1.005538E+05  2.693827E+03  1.988027E+05 -7.173157E+03 -3.455172E+03
       119  27  4.182734E+05  1.253081E+05  1.304438E+04  2.195689E+05 -4.808587E+03 -7.683683E+03
       120   1  2.503585E+05  6.494952E+04 -1.500395E+04  1.727821E+05 -1.298845E+04  3.979208E+03
       120   2  1.984303E+05  4.010629E+04 -2.292241E+04  1.513318E+05 -1.523402E+04  7.749967E+03
       120   3  1.384223E+05  2.487858E+04 -3.001956E+04  1.393966E+05 -1.714523E+04  1.063513E+04
       120   4  3.525678E+05  1.016194E+05  2.545768E+03  2.012030E+05 -4.720157E+03  7.096372E+03
       120   5  3.565878E+05  9.765731E+04  4.675058E+03  1.960652E+05 -8.599259E+03  1.025077E+04
       120   6  3.528477E+05  1.036334E+05  8.919293E+03  2.004410E+05 -1.214410E+04  1.251967E+04
       120   7  4.547883E+05  1.382902E+05  2.009547E+04  2.296284E+05  3.549582E+03  1.021407E+04
       120   8  5.147709E+05  1.552106E+05  3.227170E+04  2.408092E+05 -1.962735E+03  1.275224E+04
       120   9  5.673191E+05  1.823921E+05  4.785596E+04  2.615044E+05 -7.141180E+03  1.440490E+04
       120  10  2.503583E+05  6.494946E+04 -1.500430E+04  1.727821E+05  7.745209E-09  4.128387E-09
       120  11  1.984301E+05  4.010617E+04 -2.292296E+04  1.513319E+05  5.189350E-09 -5.306757E-09
       120  12  1.384220E+05  2.487838E+04 -3.002032E+04  1.393968E+05 -9.503848E-10 -6.416251E-09
       120  13  3.525678E+05  1.016193E+05  2.545631E+03  2.012031E+05  7.245827E-09  3.519740E-09
       120  14  3.565877E+05  9.765718E+04  4.674722E+03  1.960653E+05  2.107312E-09 -7.642442E-09
       120  15  3.528475E+05  1.036332E+05  8.918721E+03  2.004411E+05  4.170875E-09 -4.719119E-09
       120  16  4.547883E+05  1.382901E+05  2.009525E+04  2.296283E+05 -1.165346E-08  3.548790E-09
       120  17  5.147709E+05  1.552104E+05  3.227139E+04  2.408092E+05 -2.412041E-09  2.215014E-09
       120  18  5.673190E+05  1.823919E+05  4.785548E+04  2.615045E+05  7.865678E-09  6.593675E-10
       120  19  2.503585E+05  6.494952E+04 -1.500395E+04  1.727821E+05  1.298845E+04 -3.979208E+03
       120  20  1.984303E+05  4.010629E+04 -2.292241E+04  1.513318E+05  1.523402E+04 -7.749967E+03
       120  21  1.384223E+05  2.487858E+04 -3.001956E+04  1.393966E+05  1.714523E+04 -1.063513E+04
       120  22  3.525678E+05  1.016194E+05  2.545768E+03  2.012030E+05  4.720157E+03 -7.096372E+03
       120  23  3.565878E+05  9.765731E+04  4.675058E+03  1.960652E+05  8.599259E+03 -1.025077E+04
       120  24  3.528477E+05  1.036334E+05  8.919293E+03  2.004410E+05  1.214410E+04 -1.251967E+04
       120  25  4.547883E+05  1.382902E+05  2.009547E+04  2.296284E+05 -3.549582E+03 -1.021407E+04
       120  26  5.147709E+05  1.552106E+05  3.227170E+04  2.408092E+05  1.962735E+03 -1.275224E+04
       120  27  5.673191E+05  1.823921E+05  4.785596E+04  2.615044E+05  7.141180E+03 -1.440490E+04
       121   1  1.013433E+05  1.322749E+04 -3.435202E+04  1.315974E+05 -2.012060E+04  1.187683E+04
       121   2  5.769722E+04 -1.453418E+04 -4.073986E+04  9.649162E+04 -1.429882E+04  1.240899E+04
       121   3  1.236200E+04 -1.553521E+04 -4.587500E+04  6.525474E+04 -4.986485E+03  3.672706E+03
       121   4  3.543091E+05  1.036574E+05  1.190839E+04  2.008666E+05 -1.426683E+04  1.408248E+04
       121   5  3.560783E+05  1.070518E+05  2.274759E+04  1.919709E+05 -2.552767E+04  8.176338E+03
       121   6  3.595360E+05  1.405834E+05  4.837182E+04  1.869441E+05 -3.329912E+04 -6.995621E+03
       121   7  6.073459E+05  1.940944E+05  5.816772E+04  2.701628E+05 -8.410410E+03  1.628909E+04
       121   8  6.545508E+05  2.286511E+05  8.623045E+04  2.874944E+05 -3.676229E+04  3.940960E+03
       121   9  7.068239E+05  2.967230E+05  1.426093E+05  3.086983E+05 -6.162844E+04 -1.767319E+04
       121  10  1.013429E+05  1.322723E+04 -3.435304E+04  1.315976E+05 -5.928608E-09 -4.045976E-09
       121  11  5.769696E+04 -1.453440E+04 -4.074053E+04  9.649177E+04 -9.691066E-09  1.270462E-09
       121  12  1.236197E+04 -1.553523E+04 -4.587507E+04  6.525476E+04 -1.973430E-09  8.011411E-10
       121  13  3.543088E+05  1.036572E+05  1.190764E+04  2.008667E+05  1.528216E-09 -2.399865E-09
       121  14  3.560775E+05  1.070515E+05  2.274624E+04  1.919710E+05 -9.058262E-10  3.370635E-09
       121  15  3.595348E+05  1.405831E+05  4.836965E+04  1.869439E+05  5.611577E-10 -1.266975E-09
       121  16  6.073458E+05  1.940941E+05  5.816709E+04  2.701629E+05  1.073600E-08  3.083369E-09
       121  17  6.545494E+05  2.286507E+05  8.622788E+04  2.874945E+05  6.595097E-09 -1.341645E-09
       121  18  7.068198E+05  2.967217E+05  1.426016E+05  3.086974E+05  6.401968E-10 -4.486969E-09
       121  19  1.013433E+05  1.322749E+04 -3.435202E+04  1.315974E+05  2.012060E+04 -1.187683E+04
       121  20  5.769722E+04 -1.453418E+04 -4.073986E+04  9.649162E+04  1.429882E+04 -1.240899E+04
       121  21  1.236200E+04 -1.553521E+04 -4.587500E+04  6.525474E+04  4.986485E+03 -3.672706E+03
       121  22  3.543091E+05  1.036574E+05  1.190839E+04  2.008666E+05  1.426683E+04 -1.408248E+04
       121  23  3.560783E+05  1.070518E+05  2.274759E+04  1.919709E+05  2.552767E+04 -8.176338E+03
       121  24  3.595360E+05  1.405834E+05  4.837182E+04  1.869441E+05  3.329912E+04  6.995621E+03
       121  25  6.073459E+05  1.940944E+05  5.816772E+04  2.701628E+05  8.410410E+03 -1.628909E+04
       121  26  6.545508E+05  2.286511E+05  8.623045E+04  2.874944E+05  3.676229E+04 -3.940960E+03
       121  27  7.068239E+05  2.967230E+05  1.426093E+05  3.086983E+05  6.162844E+04  1.767319E+04
       122   1 -2.974322E+05 -1.675826E+06 -3.649155E+05  5.217353E+04 -1.207579E+03 -1.868264E+05
       122   2 -2.313724E+04 -1.604494E+06 -2.009253E+05  3.600598E+03 -4.081844E+03 -1.163355E+05
       122   3 -6.399308E+04 -1.620339E+06 -1.615252E+05  8.810012E+03 -2.723720E+03 -4.583515E+04
       122   4 -2.170056E+05 -1.355109E+06 -2.847580E+05  2.269472E+04 -1.200488E+03 -1.859586E+05
       122   5  5.013920E+04 -1.311548E+06 -1.280920E+05 -3.982474E+03 -4.080490E+03 -1.162475E+05
       122   6  2.347845E+03 -1.354986E+06 -9.542831E+04  2.312376E+04 -2.723993E+03 -4.653009E+04
       122   7 -1.365837E+05 -1.034297E+06 -2.046078E+05 -6.799307E+03 -1.193483E+03 -1.850904E+05
       122   8  1.234094E+05 -1.018524E+06 -5.526510E+04 -1.156911E+04 -4.079139E+03 -1.161594E+05
       122   9  6.868425E+04 -1.089569E+06 -2.933657E+04  3.744367E+04 -2.724297E+03 -4.722533E+04
       122  10 -2.974416E+05 -1.675864E+06 -3.649813E+05  5.217335E+04 -4.376667E-09  1.159428E-11
       122  11 -2.314091E+04 -1.604509E+06 -2.009508E+05  3.600216E+03 -1.245446E-08 -1.905169E-09
       122  12 -6.399366E+04 -1.620341E+06 -1.615292E+05  8.809912E+03 -1.214298E-08 -2.875844E-09
       122  13 -2.170149E+05 -1.355146E+06 -2.848231E+05  2.269454E+04 -6.152598E-09  1.211931E-10
       122  14  5.013555E+04 -1.311563E+06 -1.281175E+05 -3.982856E+03 -5.416322E-09 -8.765643E-10
       122  15  2.347254E+03 -1.354988E+06 -9.543240E+04  2.312366E+04 -6.294526E-09  2.957381E-10
       122  16 -1.365929E+05 -1.034334E+06 -2.046723E+05 -6.799485E+03 -3.287721E-09  3.770000E-09
       122  17  1.234057E+05 -1.018539E+06 -5.529053E+04 -1.156949E+04  3.901796E-10  9.794600E-10
       122  18  6.868364E+04 -1.089571E+06 -2.934078E+04  3.744356E+04 -2.436039E-10 -1.359461E-10
       122  19 -2.974322E+05 -1.675826E+06 -3.649155E+05  5.217353E+04  1.207579E+03  1.868264E+05
       122  20 -2.313724E+04 -1.604494E+06 -2.009253E+05  3.600598E+03  4.081844E+03  1.163355E+05
       122  21 -6.399308E+04 -1.620339E+06 -1.615252E+05  8.810012E+03  2.723720E+03  4.583515E+04
       122  22 -2.170056E+05 -1.355109E+06 -2.847580E+05  2.269472E+04  1.200488E+03  1.859586E+05
       122  23  5.013920E+04 -1.311548E+06 -1.280920E+05 -3.982474E+03  4.080490E+03  1.162475E+05
       122  24  2.347845E+03 -1.354986E+06 -9.542831E+04  2.312376E+04  2.723993E+03  4.653009E+04
       122  25 -1.365837E+05 -1.034297E+06 -2.046078E+05 -6.799307E+03  1.193483E+03  1.850904E+05
       122  26  1.234094E+05 -1.018524E+06 -5.526510E+04 -1.156911E+04  4.079139E+03  1.161594E+05
       122  27  6.868425E+04 -1.089569E+06 -2.933657E+04  3.744367E+04  2.724297E+03  4.722533E+04
       123   1 -5.377577E+04 -1.433768E+06 -1.092228E+05  3.088138E+04 -1.385266E+03 -3.006342E+04
       123   2  2.902140E+02 -1.388643E+06 -8.143411E+04 -5.768037E+03 -7.913594E+02  4.688462E+03
       123   3 -4.310077E+04 -1.372278E+06 -1.006385E+05  1.771015E+04  6.620946E+00  3.944198E+04
       123   4 -3.083266E+04 -1.342054E+06 -8.643157E+04  2.439292E+04 -1.384850E+03 -3.016627E+04
       123   5  1.553355E+04 -1.327682E+06 -6.626883E+04 -5.669757E+03 -7.912418E+02  4.550140E+03
       123   6 -3.554588E+04 -1.342061E+06 -9.307077E+04  2.439513E+04  7.168046E+00  3.926646E+04
       123   7 -7.890027E+03 -1.250333E+06 -6.364098E+04  1.790350E+04 -1.384432E+03 -3.026913E+04
       123   8  3.077661E+04 -1.266717E+06 -5.110383E+04 -5.571466E+03 -7.911242E+02  4.411805E+03
       123   9 -2.799089E+04 -1.311843E+06 -8.550309E+04  3.108043E+04  7.711337E+00  3.909094E+04
       123  10 -5.377601E+04 -1.433769E+06 -1.092245E+05  3.088134E+04 -1.332570E-08 -1.987900E-10
       123  11  2.902074E+02 -1.388643E+06 -8.143415E+04 -5.768034E+03  1.420742E-09  1.611834E-09
       123  12 -4.310119E+04 -1.372279E+06 -1.006414E+05  1.771015E+04  5.987165E-09  1.867879E-09
       123  13 -3.083291E+04 -1.342055E+06 -8.643329E+04  2.439289E+04 -1.190605E-08  4.323311E-11
       123  14  1.553355E+04 -1.327682E+06 -6.626887E+04 -5.669754E+03 -4.918754E-09  1.131931E-09
       123  15 -3.554629E+04 -1.342062E+06 -9.307368E+04  2.439512E+04 -2.181195E-10  1.137171E-09
       123  16 -7.890275E+03 -1.250334E+06 -6.364271E+04  1.790347E+04 -6.321595E-09  2.457784E-10
       123  17  3.077660E+04 -1.266717E+06 -5.110387E+04 -5.571463E+03 -1.181918E-08 -8.503674E-10
       123  18 -2.799130E+04 -1.311844E+06 -8.550596E+04  3.108043E+04  3.572102E-11 -2.089392E-09
       123  19 -5.377577E+04 -1.433768E+06 -1.092228E+05  3.088138E+04  1.385266E+03  3.006342E+04
       123  20  2.902140E+02 -1.388643E+06 -8.143411E+04 -5.768037E+03  7.913594E+02 -4.688462E+03
       123  21 -4.310077E+04 -1.372278E+06 -1.006385E+05  1.771015E+04 -6.620946E+00 -3.944198E+04
       123  22 -3.083266E+04 -1.342054E+06 -8.643157E+04  2.439292E+04  1.384850E+03  3.016627E+04
       123  23  1.553355E+04 -1.327682E+06 -6.626883E+04 -5.669757E+03  7.912418E+02 -4.550140E+03
       123  24 -3.554588E+04 -1.342061E+06 -9.307077E+04  2.439513E+04 -7.168046E+00 -3.926646E+04
       123  25 -7.890027E+03 -1.250333E+06 -6.364098E+04  1.790350E+04  1.384432E+03  3.026913E+04
       123  26  3.077661E+04 -1.266717E+06 -5.110383E+04 -5.571466E+03  7.911242E+02 -4.411805E+03
       123  27 -2.799089E+04 -1.311843E+06 -8.550309E+04  3.108043E+04 -7.711337E+00 -3.909094E+04
       124   1  4.143998E+04 -1.208412E+06 -6.743885E+04  4.034865E+04  1.239779E+03  5.762052E+04
       124   2  1.017739E+05 -1.129137E+06 -9.997766E+04 -1.353812E+04  2.525041E+03  1.357476E+05
       124   3 -1.957766E+05 -1.149150E+06 -2.728127E+05 -9.610430E+03  7.491092E+02  2.138763E+05
       124   4  4.119307E+03 -1.357733E+06 -1.046571E+05  2.399040E+04  1.238688E+03  5.705832E+04
       124   5  5.701988E+04 -1.308096E+06 -1.444507E+05 -5.081578E+03  2.526907E+03  1.357511E+05
       124   6 -2.481208E+05 -1.357878E+06 -3.249654E+05  2.366104E+04  7.598034E+02  2.144416E+05
       124   7 -3.320204E+04 -1.507033E+06 -1.418769E+05  7.636098E+03  1.237625E+03  5.649626E+04
       124   8  1.226375E+04 -1.487025E+06 -1.889261E+05  3.372531E+03  2.528774E+03  1.357546E+05
       124   9 -3.004640E+05 -1.566564E+06 -3.771209E+05  5.692132E+04  7.705616E+02  2.150068E+05
       124  10  4.143909E+04 -1.208415E+06 -6.744511E+04  4.034860E+04 -2.171027E-10 -5.591197E-10
       124  11  1.017689E+05 -1.129157E+06 -1.000124E+05 -1.353840E+04 -7.991384E-09 -2.040736E-09
       124  12 -1.957889E+05 -1.149199E+06 -2.728988E+05 -9.610559E+03 -5.812213E-09 -1.012394E-09
       124  13  4.118428E+03 -1.357736E+06 -1.046632E+05  2.399035E+04  1.312990E-09  1.260085E-10
       124  14  5.701492E+04 -1.308116E+06 -1.444854E+05 -5.081855E+03 -1.813307E-09 -5.338326E-10
       124  15 -2.481331E+05 -1.357928E+06 -3.250520E+05  2.366091E+04 -3.394976E-09  1.855134E-09
       124  16 -3.320290E+04 -1.507036E+06 -1.418829E+05  7.636042E+03 -3.594703E-09  1.461152E-09
       124  17  1.225878E+04 -1.487045E+06 -1.889609E+05  3.372254E+03  2.775336E-09  2.963799E-09
       124  18 -3.004765E+05 -1.566614E+06 -3.772080E+05  5.692118E+04  7.865992E-10  7.540560E-10
       124  19  4.143998E+04 -1.208412E+06 -6.743885E+04  4.034865E+04 -1.239779E+03 -5.762052E+04
       124  20  1.017739E+05 -1.129137E+06 -9.997766E+04 -1.353812E+04 -2.525041E+03 -1.357476E+05
       124  21 -1.957766E+05 -1.149150E+06 -2.728127E+05 -9.610430E+03 -7.491092E+02 -2.138763E+05
       124  22  4.119307E+03 -1.357733E+06 -1.046571E+05  2.399040E+04 -1.238688E+03 -5.705832E+04
       124  23  5.701988E+04 -1.308096E+06 -1.444507E+05 -5.081578E+03 -2.526907E+03 -1.357511E+05
       124  24 -2.481208E+05 -1.357878E+06 -3.249654E+05  2.366104E+04 -7.598034E+02 -2.144416E+05
       124  25 -3.320204E+04 -1.507033E+06 -1.418769E+05  7.636098E+03 -1.237625E+03 -5.649626E+04
       124  26  1.226375E+04 -1.487025E+06 -1.889261E+05  3.372531E+03 -2.528774E+03 -1.357546E+05
       124  27 -3.004640E+05 -1.566564E+06 -3.771209E+05  5.692132E+04 -7.705616E+02 -2.150068E+05
       125   1  3.131103E+05  9.900108E+04  6.634870E+04  1.140607E+05  4.656357E+04  1.786532E+04
       125   2  3.003653E+05  2.923131E+04  2.249218E+04  1.243522E+05  2.973613E+04  1.214108E+04
       125   3  3.147981E+05  3.128030E+04  1.028977E+04  1.180433E+05  1.309299E+04  5.928541E+03
       125   4  3.502458E+05  1.005861E+05  7.402540E+04  1.114699E+05  4.685134E+04  1.797277E+04
       125   5  3.328637E+05  3.812073E+04  3.056086E+04  1.297895E+05  2.984704E+04  1.218273E+04
       125   6  3.426932E+05  4.750639E+04  1.888928E+04  1.315090E+05  1.302712E+04  5.903834E+03
       125   7  3.873827E+05  1.021714E+05  8.170207E+04  1.088788E+05  4.713913E+04  1.808021E+04
       125   8  3.653631E+05  4.701011E+04  3.862946E+04  1.352270E+05  2.995797E+04  1.222439E+04
       125   9  3.705893E+05  6.373296E+04  2.748874E+04  1.449753E+05  1.296125E+04  5.879125E+03
       125  10  3.131079E+05  9.900016E+04  6.634403E+04  1.140601E+05 -3.023198E-09  1.215202E-10
       125  11  3.003643E+05  2.923091E+04  2.249024E+04  1.243519E+05 -3.258804E-09 -2.100995E-10
       125  12  3.147979E+05  3.128021E+04  1.028938E+04  1.180432E+05  5.587832E-09 -7.472145E-10
       125  13  3.502434E+05  1.005852E+05  7.402067E+04  1.114693E+05  4.695842E-09 -3.786048E-09
       125  14  3.328627E+05  3.812033E+04  3.055891E+04  1.297892E+05 -8.748458E-10  4.614712E-09
       125  15  3.426930E+05  4.750630E+04  1.888889E+04  1.315089E+05 -3.106517E-09  3.130591E-09
       125  16  3.873802E+05  1.021705E+05  8.169729E+04  1.088782E+05 -1.561462E-09 -1.771315E-09
       125  17  3.653621E+05  4.700971E+04  3.862749E+04  1.352267E+05 -2.299841E-09 -4.571864E-10
       125  18  3.705892E+05  6.373288E+04  2.748836E+04  1.449753E+05 -2.626444E-09 -3.722597E-09
       125  19  3.131103E+05  9.900108E+04  6.634870E+04  1.140607E+05 -4.656357E+04 -1.786532E+04
       125  20  3.003653E+05  2.923131E+04  2.249218E+04  1.243522E+05 -2.973613E+04 -1.214108E+04
       125  21  3.147981E+05  3.128030E+04  1.028977E+04  1.180433E+05 -1.309299E+04 -5.928541E+03
       125  22  3.502458E+05  1.005861E+05  7.402540E+04  1.114699E+05 -4.685134E+04 -1.797277E+04
       125  23  3.328637E+05  3.812073E+04  3.056086E+04  1.297895E+05 -2.984704E+04 -1.218273E+04
       125  24  3.426932E+05  4.750639E+04  1.888928E+04  1.315090E+05 -1.302712E+04 -5.903834E+03
       125  25  3.873827E+05  1.021714E+05  8.170207E+04  1.088788E+05 -4.713913E+04 -1.808021E+04
       125  26  3.653631E+05  4.701011E+04  3.862946E+04  1.352270E+05 -2.995797E+04 -1.222439E+04
       125  27  3.705893E+05  6.373296E+04  2.748874E+04  1.449753E+05 -1.296125E+04 -5.879125E+03
       126   1  3.029555E+05  4.308101E+04  5.700374E+03  1.181682E+05  1.021241E+04  4.810662E+03
       126   2  3.000753E+05  3.286996E+04 -3.080270E+03  1.181802E+05  6.387825E+03  3.516646E+03
       126   3  2.994866E+05  3.319753E+04 -6.602386E+03  1.177376E+05  2.581839E+03  2.173543E+03
       126   4  3.402604E+05  5.569197E+04  1.546539E+04  1.268643E+05  1.026874E+04  4.831886E+03
       126   5  3.386356E+05  4.706310E+04  7.218550E+03  1.283590E+05  6.426267E+03  3.531141E+03
       126   6  3.393057E+05  4.897604E+04  4.244178E+03  1.293993E+05  2.602381E+03  2.181292E+03
       126   7  3.775666E+05  6.830296E+04  2.523029E+04  1.355608E+05  1.032508E+04  4.853112E+03
       126   8  3.771973E+05  6.125630E+04  1.751723E+04  1.385385E+05  6.464712E+03  3.545638E+03
       126   9  3.791263E+05  6.475466E+04  1.509058E+04  1.410617E+05  2.622925E+03  2.189042E+03
       126  10  3.029554E+05  4.308095E+04  5.700134E+03  1.181682E+05  1.066002E-08  5.279579E-09
       126  11  3.000752E+05  3.286993E+04 -3.080369E+03  1.181801E+05  9.850881E-09  3.051834E-10
       126  12  2.994866E+05  3.319752E+04 -6.602408E+03  1.177376E+05  2.939673E-09 -9.154390E-10
       126  13  3.402603E+05  5.569192E+04  1.546515E+04  1.268643E+05 -3.469675E-10  4.181165E-09
       126  14  3.386355E+05  4.706308E+04  7.218449E+03  1.283590E+05  9.834657E-09 -7.706250E-09
       126  15  3.393057E+05  4.897603E+04  4.244157E+03  1.293993E+05  3.254242E-09 -4.491183E-09
       126  16  3.775664E+05  6.830290E+04  2.523005E+04  1.355608E+05 -8.493539E-09 -7.332636E-09
       126  17  3.771972E+05  6.125627E+04  1.751713E+04  1.385384E+05 -5.021052E-09 -2.666559E-09
       126  18  3.791262E+05  6.475465E+04  1.509055E+04  1.410617E+05  3.448098E-09 -5.709904E-09
       126  19  3.029555E+05  4.308101E+04  5.700374E+03  1.181682E+05 -1.021241E+04 -4.810662E+03
       126  20  3.000753E+05  3.286996E+04 -3.080270E+03  1.181802E+05 -6.387825E+03 -3.516646E+03
       126  21  2.994866E+05  3.319753E+04 -6.602386E+03  1.177376E+05 -2.581839E+03 -2.173543E+03
       126  22  3.402604E+05  5.569197E+04  1.546539E+04  1.268643E+05 -1.026874E+04 -4.831886E+03
       126  23  3.386356E+05  4.706310E+04  7.218550E+03  1.283590E+05 -6.426267E+03 -3.531141E+03
       126  24  3.393057E+05  4.897604E+04  4.244178E+03  1.293993E+05 -2.602381E+03 -2.181292E+03
       126  25  3.775666E+05  6.830296E+04  2.523029E+04  1.355608E+05 -1.032508E+04 -4.853112E+03
       126  26  3.771973E+05  6.125630E+04  1.751723E+04  1.385385E+05 -6.464712E+03 -3.545638E+03
       126  27  3.791263E+05  6.475466E+04  1.509058E+04  1.410617E+05 -2.622925E+03 -2.189042E+03
       127   1  2.940444E+05  3.322087E+04 -8.702588E+03  1.166999E+05  1.932990E+03  1.975881E+03
       127   2  2.924564E+05  3.048385E+04 -1.092900E+04  1.153428E+05  1.027950E+03  1.737923E+03
       127   3  2.897558E+05  3.054976E+04 -1.219624E+04  1.156089E+05  1.238730E+02  1.497413E+03
       127   4  3.389404E+05  5.001223E+04  3.350979E+03  1.288210E+05  1.966168E+03  1.988391E+03
       127   5  3.394370E+05  4.819048E+04  1.701117E+03  1.281679E+05  1.060150E+03  1.750062E+03
       127   6  3.388211E+05  4.917183E+04  1.011152E+03  1.291381E+05  1.550927E+02  1.509179E+03
       127   7  3.838385E+05  6.680374E+04  1.540439E+04  1.409429E+05  1.999349E+03  2.000901E+03
       127   8  3.864198E+05  6.589726E+04  1.433105E+04  1.409940E+05  1.092352E+03  1.762202E+03
       127   9  3.878888E+05  6.779405E+04  1.421834E+04  1.426683E+05  1.863151E+02  1.520947E+03
       127  10  2.940444E+05  3.322086E+04 -8.702602E+03  1.166999E+05  1.991399E-09  4.779868E-09
       127  11  2.924564E+05  3.048385E+04 -1.092900E+04  1.153428E+05  1.221704E-08  5.961791E-09
       127  12  2.897558E+05  3.054976E+04 -1.219625E+04  1.156089E+05  5.425566E-10  3.489691E-09
       127  13  3.389404E+05  5.001223E+04  3.350964E+03  1.288210E+05  1.616548E-09 -2.922568E-09
       127  14  3.394370E+05  4.819048E+04  1.701109E+03  1.281679E+05 -4.549400E-10  2.265085E-09
       127  15  3.388211E+05  4.917182E+04  1.011148E+03  1.291381E+05 -1.985732E-09  5.799157E-10
       127  16  3.838385E+05  6.680374E+04  1.540438E+04  1.409429E+05  1.246028E-09 -6.054236E-09
       127  17  3.864197E+05  6.589726E+04  1.433104E+04  1.409940E+05  1.980987E-09 -1.145875E-09
       127  18  3.878888E+05  6.779404E+04  1.421833E+04  1.426683E+05 -2.044616E-09 -2.188304E-09
       127  19  2.940444E+05  3.322087E+04 -8.702588E+03  1.166999E+05 -1.932990E+03 -1.975881E+03
       127  20  2.924564E+05  3.048385E+04 -1.092900E+04  1.153428E+05 -1.027950E+03 -1.737923E+03
       127  21  2.897558E+05  3.054976E+04 -1.219624E+04  1.156089E+05 -1.238730E+02 -1.497413E+03
       127  22  3.389404E+05  5.001223E+04  3.350979E+03  1.288210E+05 -1.966168E+03 -1.988391E+03
       127  23  3.394370E+05  4.819048E+04  1.701117E+03  1.281679E+05 -1.060150E+03 -1.750062E+03
       127  24  3.388211E+05  4.917183E+04  1.011152E+03  1.291381E+05 -1.550927E+02 -1.509179E+03
       127  25  3.838385E+05  6.680374E+04  1.540439E+04  1.409429E+05 -1.999349E+03 -2.000901E+03
       127  26  3.864198E+05  6.589726E+04  1.433105E+04  1.409940E+05 -1.092352E+03 -1.762202E+03
       127  27  3.878888E+05  6.779405E+04  1.421834E+04  1.426683E+05 -1.863151E+02 -1.520947E+03
       128   1  2.849242E+05  2.901236E+04 -1.367016E+04  1.143792E+05 -4.682281E+01  1.491426E+03
       128   2  2.834391E+05  2.711658E+04 -1.457348E+04  1.127600E+05 -3.464227E+02  1.482507E+03
       128   3  2.802969E+05  2.716079E+04 -1.523101E+04  1.131185E+05 -6.470251E+02  1.476300E+03
       128   4  3.387479E+05  4.931711E+04  8.119620E+02  1.290897E+05 -1.450227E+01  1.503605E+03
       128   5  3.395705E+05  4.830499E+04  5.233601E+02  1.281167E+05 -3.131505E+02  1.495043E+03
       128   6  3.387358E+05  4.923261E+04  4.797743E+02  1.291215E+05 -6.128027E+02  1.489190E+03
       128   7  3.925743E+05  6.962198E+04  1.529380E+04  1.438012E+05  1.782128E+01  1.515786E+03
       128   8  3.957049E+05  6.949358E+04  1.561992E+04  1.434747E+05 -2.798749E+02  1.507579E+03
       128   9  3.971782E+05  7.130467E+04  1.619029E+04  1.451259E+05 -5.785768E+02  1.502082E+03
       128  10  2.849241E+05  2.901236E+04 -1.367017E+04  1.143792E+05  2.696656E-09  6.378229E-10
       128  11  2.834391E+05  2.711658E+04 -1.457348E+04  1.127600E+05  3.629877E-09  2.269791E-09
       128  12  2.802969E+05  2.716079E+04 -1.523102E+04  1.131185E+05  3.298177E-09 -8.720143E-10
       128  13  3.387479E+05  4.931710E+04  8.119577E+02  1.290897E+05  2.717001E-09  7.140862E-10
       128  14  3.395705E+05  4.830499E+04  5.233557E+02  1.281167E+05  1.222024E-09  4.462872E-09
       128  15  3.387358E+05  4.923261E+04  4.797694E+02  1.291215E+05  6.096128E-09 -2.935804E-09
       128  16  3.925743E+05  6.962198E+04  1.529379E+04  1.438012E+05  3.157884E-09 -9.660074E-10
       128  17  3.957049E+05  6.949358E+04  1.561991E+04  1.434747E+05  1.840208E-10  2.311498E-09
       128  18  3.971782E+05  7.130467E+04  1.619029E+04  1.451259E+05 -2.141423E-09  3.410331E-09
       128  19  2.849242E+05  2.901236E+04 -1.367016E+04  1.143792E+05  4.682281E+01 -1.491426E+03
       128  20  2.834391E+05  2.711658E+04 -1.457348E+04  1.127600E+05  3.464227E+02 -1.482507E+03
       128  21  2.802969E+05  2.716079E+04 -1.523101E+04  1.131185E+05  6.470251E+02 -1.476300E+03
       128  22  3.387479E+05  4.931711E+04  8.119620E+02  1.290897E+05  1.450227E+01 -1.503605E+03
       128  23  3.395705E+05  4.830499E+04  5.233601E+02  1.281167E+05  3.131505E+02 -1.495043E+03
       128  24  3.387358E+05  4.923261E+04  4.797743E+02  1.291215E+05  6.128027E+02 -1.489190E+03
       128  25  3.925743E+05  6.962198E+04  1.529380E+04  1.438012E+05 -1.782128E+01 -1.515786E+03
       128  26  3.957049E+05  6.949358E+04  1.561992E+04  1.434747E+05  2.798749E+02 -1.507579E+03
       128  27  3.971782E+05  7.130467E+04  1.619029E+04  1.451259E+05  5.785768E+02 -1.502082E+03
       129   1  2.752623E+05  2.532140E+04 -1.655823E+04  1.118242E+05 -7.505256E+02  1.500846E+03
       129   2  2.736773E+05  2.337903E+04 -1.702038E+04  1.100475E+05 -1.145384E+03  1.462627E+03
       129   3  2.703581E+05  2.357848E+04 -1.714538E+04  1.103739E+05 -1.540886E+03  1.426193E+03
       129   4  3.387148E+05  4.925149E+04  5.122676E+02  1.291591E+05 -7.160091E+02  1.513845E+03
       129   5  3.395930E+05  4.825823E+04  7.075566E+02  1.280783E+05 -1.110264E+03  1.475849E+03
       129   6  3.387368E+05  4.940665E+04  1.239479E+03  1.291006E+05 -1.505165E+03  1.439638E+03
       129   7  4.021712E+05  7.318183E+04  1.758241E+04  1.464957E+05 -6.814887E+02  1.526845E+03
       129   8  4.055128E+05  7.313766E+04  1.843509E+04  1.461108E+05 -1.075141E+03  1.489073E+03
       129   9  4.071199E+05  7.523504E+04  1.962389E+04  1.478291E+05 -1.469440E+03  1.453085E+03
       129  10  2.752623E+05  2.532139E+04 -1.655824E+04  1.118242E+05 -9.965660E-10 -4.101440E-09
       129  11  2.736773E+05  2.337903E+04 -1.702038E+04  1.100475E+05  1.878151E-09 -1.167852E-08
       129  12  2.703581E+05  2.357847E+04 -1.714539E+04  1.103739E+05 -8.506015E-10 -6.708796E-09
       129  13  3.387148E+05  4.925149E+04  5.122623E+02  1.291591E+05  4.649114E-09  1.106497E-09
       129  14  3.395930E+05  4.825823E+04  7.075502E+02  1.280783E+05  2.259905E-09  1.693308E-09
       129  15  3.387368E+05  4.940664E+04  1.239471E+03  1.291006E+05 -8.372174E-09 -6.701143E-10
       129  16  4.021712E+05  7.318182E+04  1.758241E+04  1.464957E+05  1.216978E-09  1.734091E-09
       129  17  4.055128E+05  7.313766E+04  1.843508E+04  1.461108E+05  2.908951E-10  1.010016E-09
       129  18  4.071199E+05  7.523504E+04  1.962388E+04  1.478291E+05  2.889375E-09  2.999075E-09
       129  19  2.752623E+05  2.532140E+04 -1.655823E+04  1.118242E+05  7.505256E+02 -1.500846E+03
       129  20  2.736773E+05  2.337903E+04 -1.702038E+04  1.100475E+05  1.145384E+03 -1.462627E+03
       129  21  2.703581E+05  2.357848E+04 -1.714538E+04  1.103739E+05  1.540886E+03 -1.426193E+03
       129  22  3.387148E+05  4.925149E+04  5.122676E+02  1.291591E+05  7.160091E+02 -1.513845E+03
       129  23  3.395930E+05  4.825823E+04  7.075566E+02  1.280783E+05  1.110264E+03 -1.475849E+03
       129  24  3.387368E+05  4.940665E+04  1.239479E+03  1.291006E+05  1.505165E+03 -1.439638E+03
       129  25  4.021712E+05  7.318183E+04  1.758241E+04  1.464957E+05  6.814887E+02 -1.526845E+03
       129  26  4.055128E+05  7.313766E+04  1.843509E+04  1.461108E+05  1.075141E+03 -1.489073E+03
       129  27  4.071199E+05  7.523504E+04  1.962389E+04  1.478291E+05  1.469440E+03 -1.453085E+03
       130   1  2.649176E+05  2.152200E+04 -1.826164E+04  1.092257E+05 -1.802408E+03  1.399446E+03
       130   2  2.630667E+05  1.910518E+04 -1.782178E+04  1.071224E+05 -3.235843E+03  9.792700E+02
       130   3  2.600749E+05  2.057296E+04 -1.583917E+04  1.069054E+05 -4.662701E+03  5.416380E+02
       130   4  3.387899E+05  4.923932E+04  1.583249E+03  1.292614E+05 -1.761590E+03  1.414808E+03
       130   5  3.394564E+05  4.797929E+04  2.730864E+03  1.280609E+05 -3.201470E+03  9.921991E+02
       130   6  3.389832E+05  5.060501E+04  5.426202E+03  1.287468E+05 -4.634778E+03  5.521318E+02
       130   7  4.126676E+05  7.695701E+04  2.142770E+04  1.492992E+05 -1.720766E+03  1.430173E+03
       130   8  4.158519E+05  7.685377E+04  2.328301E+04  1.490017E+05 -3.167092E+03  1.005130E+03
       130   9  4.178976E+05  8.063746E+04  2.669102E+04  1.505907E+05 -4.606850E+03  5.626272E+02
       130  10  2.649176E+05  2.152200E+04 -1.826165E+04  1.092257E+05 -3.406399E-09 -7.417981E-09
       130  11  2.630667E+05  1.910518E+04 -1.782180E+04  1.071224E+05  1.230813E-08 -6.862403E-09
       130  12  2.600748E+05  2.057295E+04 -1.583921E+04  1.069054E+05  2.382636E-09 -2.938390E-09
       130  13  3.387899E+05  4.923932E+04  1.583240E+03  1.292614E+05  1.520195E-09 -5.100016E-09
       130  14  3.394564E+05  4.797928E+04  2.730843E+03  1.280609E+05 -3.446547E-09  1.664815E-10
       130  15  3.389832E+05  5.060500E+04  5.426161E+03  1.287468E+05 -2.044896E-09  5.834861E-09
       130  16  4.126676E+05  7.695700E+04  2.142769E+04  1.492992E+05  2.967973E-09 -3.295035E-09
       130  17  4.158518E+05  7.685377E+04  2.328299E+04  1.490017E+05  1.768347E-09  2.884054E-09
       130  18  4.178975E+05  8.063745E+04  2.669098E+04  1.505907E+05 -7.734423E-10  4.631404E-09
       130  19  2.649176E+05  2.152200E+04 -1.826164E+04  1.092257E+05  1.802408E+03 -1.399446E+03
       130  20  2.630667E+05  1.910518E+04 -1.782178E+04  1.071224E+05  3.235843E+03 -9.792700E+02
       130  21  2.600749E+05  2.057296E+04 -1.583917E+04  1.069054E+05  4.662701E+03 -5.416380E+02
       130  22  3.387899E+05  4.923932E+04  1.583249E+03  1.292614E+05  1.761590E+03 -1.414808E+03
       130  23  3.394564E+05  4.797929E+04  2.730864E+03  1.280609E+05  3.201470E+03 -9.921991E+02
       130  24  3.389832E+05  5.060501E+04  5.426202E+03  1.287468E+05  4.634778E+03 -5.521318E+02
       130  25  4.126676E+05  7.695701E+04  2.142770E+04  1.492992E+05  1.720766E+03 -1.430173E+03
       130  26  4.158519E+05  7.685377E+04  2.328301E+04  1.490017E+05  3.167092E+03 -1.005130E+03
       130  27  4.178976E+05  8.063746E+04  2.669102E+04  1.505907E+05  4.606850E+03 -5.626272E+02
       131   1  2.537582E+05  1.784510E+04 -1.594945E+04  1.075618E+05 -5.757087E+03  2.391721E+02
       131   2  2.509012E+05  1.252533E+04 -1.187593E+04  1.037959E+05 -1.188807E+04 -1.931109E+03
       131   3  2.521280E+05  2.396351E+04  7.053153E+02  9.889756E+04 -1.794167E+04 -4.306940E+03
       131   4  3.395124E+05  4.898898E+04  6.882425E+03  1.297625E+05 -5.677014E+03  2.693146E+02
       131   5  3.382354E+05  4.606104E+04  1.171923E+04  1.282737E+05 -1.188277E+04 -1.929153E+03
       131   6  3.410562E+05  5.990446E+04  2.512208E+04  1.256526E+05 -1.801118E+04 -4.333211E+03
       131   7  4.252735E+05  8.013309E+04  2.971361E+04  1.519658E+05 -5.596928E+03  2.994613E+02
       131   8  4.255770E+05  7.959727E+04  3.531372E+04  1.527546E+05 -1.187747E+04 -1.927197E+03
       131   9  4.299923E+05  9.584627E+04  4.953817E+04  1.524112E+05 -1.808070E+04 -4.359488E+03
       131  10  2.537582E+05  1.784509E+04 -1.594951E+04  1.075618E+05  1.596998E-10 -6.198099E-11
       131  11  2.509010E+05  1.252529E+04 -1.187620E+04  1.037959E+05 -6.599021E-10 -4.340796E-09
       131  12  2.521276E+05  2.396340E+04  7.046759E+02  9.889750E+04 -5.026745E-09 -1.039458E-09
       131  13  3.395124E+05  4.898897E+04  6.882365E+03  1.297625E+05 -9.336979E-09 -2.746249E-09
       131  14  3.382353E+05  4.606100E+04  1.171896E+04  1.282737E+05  1.117000E-09  2.359024E-09
       131  15  3.410559E+05  5.990435E+04  2.512144E+04  1.256525E+05 -9.492133E-10  4.006700E-09
       131  16  4.252734E+05  8.013309E+04  2.971355E+04  1.519658E+05 -3.758440E-09  5.497803E-10
       131  17  4.255768E+05  7.959722E+04  3.531345E+04  1.527546E+05  4.110827E-09  2.791449E-09
       131  18  4.299920E+05  9.584616E+04  4.953752E+04  1.524111E+05 -1.858834E-09 -8.297598E-11
       131  19  2.537582E+05  1.784510E+04 -1.594945E+04  1.075618E+05  5.757087E+03 -2.391721E+02
       131  20  2.509012E+05  1.252533E+04 -1.187593E+04  1.037959E+05  1.188807E+04  1.931109E+03
       131  21  2.521280E+05  2.396351E+04  7.053153E+02  9.889756E+04  1.794167E+04  4.306940E+03
       131  22  3.395124E+05  4.898898E+04  6.882425E+03  1.297625E+05  5.677014E+03 -2.693146E+02
       131  23  3.382354E+05  4.606104E+04  1.171923E+04  1.282737E+05  1.188277E+04  1.929153E+03
       131  24  3.410562E+05  5.990446E+04  2.512208E+04  1.256526E+05  1.801118E+04  4.333211E+03
       131  25  4.252735E+05  8.013309E+04  2.971361E+04  1.519658E+05  5.596928E+03 -2.994613E+02
       131  26  4.255770E+05  7.959727E+04  3.531372E+04  1.527546E+05  1.187747E+04  1.927197E+03
       131  27  4.299923E+05  9.584627E+04  4.953817E+04  1.524112E+05  1.808070E+04  4.359488E+03
       132   1  2.413342E+05  1.680626E+04  4.643934E+03  1.144125E+05 -2.308056E+04 -5.817367E+03
       132   2  2.328737E+05 -1.023346E+04  2.280335E+04  9.864419E+04 -4.973008E+04 -1.561413E+04
       132   3  2.685382E+05  7.930716E+04  9.205397E+04  5.589285E+04 -7.562704E+04 -2.741030E+04
       132   4  3.449657E+05  4.665306E+04  3.068678E+04  1.332511E+05 -2.265051E+04 -5.655145E+03
       132   5  3.289337E+05  3.145169E+04  4.964877E+04  1.305062E+05 -5.002371E+04 -1.572518E+04
       132   6  3.571621E+05  1.329618E+05  1.202689E+05  1.007807E+05 -7.664395E+04 -2.779586E+04
       132   7  4.486078E+05  7.649968E+04  5.672889E+04  1.520922E+05 -2.222039E+04 -5.492910E+03
       132   8  4.250023E+05  7.313812E+04  7.649322E+04  1.623728E+05 -5.031740E+04 -1.583625E+04
       132   9  4.457939E+05  1.866211E+05  1.484830E+05  1.456751E+05 -7.766102E+04 -2.818157E+04
       132  10  2.413336E+05  1.680608E+04  4.642870E+03  1.144124E+05 -2.111399E-09 -1.770323E-10
       132  11  2.328710E+05 -1.023438E+04  2.279825E+04  9.864356E+04  3.629452E-09  3.675470E-09
       132  12  2.685319E+05  7.930482E+04  9.204182E+04  5.589118E+04  1.971052E-09  1.423191E-09
       132  13  3.449652E+05  4.665289E+04  3.068576E+04  1.332510E+05  4.315873E-10 -2.207599E-09
       132  14  3.289309E+05  3.145075E+04  4.964360E+04  1.305055E+05  1.115163E-09 -1.872277E-09
       132  15  3.571556E+05  1.329594E+05  1.202564E+05  1.007789E+05 -5.170969E-09 -3.024739E-10
       132  16  4.486072E+05  7.649951E+04  5.672791E+04  1.520921E+05 -2.588357E-09 -1.687288E-09
       132  17  4.249995E+05  7.313717E+04  7.648800E+04  1.623721E+05 -6.238078E-10 -2.879577E-09
       132  18  4.457873E+05  1.866186E+05  1.484701E+05  1.456734E+05 -2.521850E-09 -3.382675E-09
       132  19  2.413342E+05  1.680626E+04  4.643934E+03  1.144125E+05  2.308056E+04  5.817367E+03
       132  20  2.328737E+05 -1.023346E+04  2.280335E+04  9.864419E+04  4.973008E+04  1.561413E+04
       132  21  2.685382E+05  7.930716E+04  9.205397E+04  5.589285E+04  7.562704E+04  2.741030E+04
       132  22  3.449657E+05  4.665306E+04  3.068678E+04  1.332511E+05  2.265051E+04  5.655145E+03
       132  23  3.289337E+05  3.145169E+04  4.964877E+04  1.305062E+05  5.002371E+04  1.572518E+04
       132  24  3.571621E+05  1.329618E+05  1.202689E+05  1.007807E+05  7.664395E+04  2.779586E+04
       132  25  4.486078E+05  7.649968E+04  5.672889E+04  1.520922E+05  2.222039E+04  5.492910E+03
       132  26  4.250023E+05  7.313812E+04  7.649322E+04  1.623728E+05  5.031740E+04  1.583625E+04
       132  27  4.457939E+05  1.866211E+05  1.484830E+05  1.456751E+05  7.766102E+04  2.818157E+04
       133   1 -8.172364E+01 -3.909928E+05 -1.269440E+03 -5.604271E+01 -2.885071E+01  9.338027E+01
       133   2 -2.551750E+02 -3.917030E+05 -1.730099E+03  1.175841E+02 -5.418240E+01  8.145471E+02
       133   3 -6.179735E+02 -3.925554E+05 -2.708025E+03 -9.237277E+01 -9.214222E+01  1.535711E+03
       133   4  4.520265E+00 -3.906368E+05 -1.194756E+03 -8.519557E+01 -2.886426E+01  1.074458E+02
       133   5  2.415581E+01 -3.905649E+05 -1.472148E+03  1.065231E+02 -5.420528E+01  8.383075E+02
       133   6 -1.472363E+02 -3.906369E+05 -2.273537E+03 -8.534161E+01 -9.217437E+01  1.569168E+03
       133   7  9.076417E+01 -3.902807E+05 -1.120072E+03 -1.143484E+02 -2.887781E+01  1.215113E+02
       133   8  3.034865E+02 -3.894268E+05 -1.214196E+03  9.546213E+01 -5.422816E+01  8.620680E+02
       133   9  3.235006E+02 -3.887185E+05 -1.839051E+03 -7.831042E+01 -9.220653E+01  1.602624E+03
       133  10 -8.172365E+01 -3.909928E+05 -1.269440E+03 -5.604271E+01  5.523009E-10  8.118722E-09
       133  11 -2.551752E+02 -3.917030E+05 -1.730100E+03  1.175842E+02  1.247013E-08 -2.108998E-10
       133  12 -6.179741E+02 -3.925554E+05 -2.708029E+03 -9.237265E+01  4.648933E-09 -1.217447E-08
       133  13  4.520261E+00 -3.906368E+05 -1.194756E+03 -8.519556E+01 -8.934663E-09 -4.179069E-09
       133  14  2.415562E+01 -3.905649E+05 -1.472149E+03  1.065232E+02 -4.492798E-09 -5.499320E-10
       133  15 -1.472370E+02 -3.906369E+05 -2.273542E+03 -8.534149E+01  7.480779E-09 -5.013024E-09
       133  16  9.076416E+01 -3.902807E+05 -1.120072E+03 -1.143484E+02 -1.566712E-09 -1.031170E-08
       133  17  3.034863E+02 -3.894268E+05 -1.214198E+03  9.546217E+01  6.563253E-10  1.364249E-09
       133  18  3.234999E+02 -3.887185E+05 -1.839055E+03 -7.831030E+01 -2.883260E-09  1.244908E-08
       133  19 -8.172364E+01 -3.909928E+05 -1.269440E+03 -5.604271E+01  2.885071E+01 -9.338027E+01
       133  20 -2.551750E+02 -3.917030E+05 -1.730099E+03  1.175841E+02  5.418240E+01 -8.145471E+02
       133  21 -6.179735E+02 -3.925554E+05 -2.708025E+03 -9.237277E+01  9.214222E+01 -1.535711E+03
       133  22  4.520265E+00 -3.906368E+05 -1.194756E+03 -8.519557E+01  2.886426E+01 -1.074458E+02
       133  23  2.415581E+01 -3.905649E+05 -1.472148E+03  1.065231E+02  5.420528E+01 -8.383075E+02
       133  24 -1.472363E+02 -3.906369E+05 -2.273537E+03 -8.534161E+01  9.217437E+01 -1.569168E+03
       133  25  9.076417E+01 -3.902807E+05 -1.120072E+03 -1.143484E+02  2.887781E+01 -1.215113E+02
       133  26  3.034865E+02 -3.894268E+05 -1.214196E+03  9.546213E+01  5.422816E+01 -8.620680E+02
       133  27  3.235006E+02 -3.887185E+05 -1.839051E+03 -7.831042E+01  9.220653E+01 -1.602624E+03
       134   1 -5.125050E+02 -3.934445E+05 -3.461408E+03  3.189920E+02 -1.181809E+02  1.989569E+03
       134   2 -6.755686E+02 -3.937540E+05 -5.555864E+03 -9.048857E+01 -1.583465E+02  4.407158E+03
       134   3 -3.345711E+03 -3.950062E+05 -9.851969E+03 -8.842849E+02 -1.911885E+02  6.824745E+03
       134   4  1.347178E+02 -3.908142E+05 -2.861466E+03 -8.473962E+01 -1.182128E+02  2.021434E+03
       134   5  1.614852E+02 -3.903437E+05 -4.780073E+03  1.062414E+02 -1.583702E+02  4.433410E+03
       134   6 -2.317844E+03 -3.908150E+05 -8.896418E+03 -8.709327E+01 -1.911994E+02  6.845386E+03
       134   7  7.819406E+02 -3.881838E+05 -2.261525E+03 -4.884729E+02 -1.182447E+02  2.053300E+03
       134   8  9.985383E+02 -3.869334E+05 -4.004282E+03  3.029725E+02 -1.583940E+02  4.459662E+03
       134   9 -1.289975E+03 -3.866239E+05 -7.940868E+03  7.101037E+02 -1.912102E+02  6.866028E+03
       134  10 -5.125060E+02 -3.934445E+05 -3.461416E+03  3.189922E+02  2.386878E-09  5.691665E-09
       134  11 -6.755738E+02 -3.937540E+05 -5.555901E+03 -9.048800E+01 -5.045343E-09  4.199964E-09
       134  12 -3.345724E+03 -3.950062E+05 -9.852057E+03 -8.842838E+02 -2.759988E-09  1.955756E-10
       134  13  1.347167E+02 -3.908142E+05 -2.861474E+03 -8.473943E+01 -1.887519E-09 -1.024167E-09
       134  14  1.614799E+02 -3.903437E+05 -4.780110E+03  1.062420E+02  7.776167E-09  1.045218E-11
       134  15 -2.317856E+03 -3.908151E+05 -8.896506E+03 -8.709222E+01 -9.870885E-10 -5.968410E-09
       134  16  7.819395E+02 -3.881838E+05 -2.261533E+03 -4.884727E+02 -3.855091E-09 -5.238775E-09
       134  17  9.985330E+02 -3.869334E+05 -4.004319E+03  3.029730E+02 -1.632102E-09 -6.659270E-09
       134  18 -1.289988E+03 -3.866239E+05 -7.940957E+03  7.101048E+02  1.512978E-09 -1.024920E-09
       134  19 -5.125050E+02 -3.934445E+05 -3.461408E+03  3.189920E+02  1.181809E+02 -1.989569E+03
       134  20 -6.755686E+02 -3.937540E+05 -5.555864E+03 -9.048857E+01  1.583465E+02 -4.407158E+03
       134  21 -3.345711E+03 -3.950062E+05 -9.851969E+03 -8.842849E+02  1.911885E+02 -6.824745E+03
       134  22  1.347178E+02 -3.908142E+05 -2.861466E+03 -8.473962E+01  1.182128E+02 -2.021434E+03
       134  23  1.614852E+02 -3.903437E+05 -4.780073E+03  1.062414E+02  1.583702E+02 -4.433410E+03
       134  24 -2.317844E+03 -3.908150E+05 -8.896418E+03 -8.709327E+01  1.911994E+02 -6.845386E+03
       134  25  7.819406E+02 -3.881838E+05 -2.261525E+03 -4.884729E+02  1.182447E+02 -2.053300E+03
       134  26  9.985383E+02 -3.869334E+05 -4.004282E+03  3.029725E+02  1.583940E+02 -4.459662E+03
       134  27 -1.289975E+03 -3.866239E+05 -7.940868E+03  7.101037E+02  1.912102E+02 -6.866028E+03
       135   1  6.063689E+02 -3.977401E+05 -1.217792E+04  4.878541E+03 -2.344068E+02  8.392237E+03
       135   2  3.692318E+02 -3.934815E+05 -1.973322E+04 -4.591362E+03 -2.536133E+02  1.834910E+04
       135   3 -3.512893E+04 -3.993377E+05 -4.258911E+04 -1.445972E+04 -1.052482E+02  2.830598E+04
       135   4  1.819312E+03 -3.928472E+05 -1.106500E+04 -7.938544E+01 -2.345425E+02  8.463988E+03
       135   5  1.754295E+03 -3.878043E+05 -1.843351E+04  1.030845E+02 -2.534197E+02  1.829206E+04
       135   6 -3.354955E+04 -3.928539E+05 -4.101308E+04 -1.131524E+02 -1.044162E+02  2.812016E+04
       135   7  3.032346E+03 -3.879543E+05 -9.952068E+03 -5.037352E+03 -2.346792E+02  8.535740E+03
       135   8  3.139439E+03 -3.821271E+05 -1.713378E+04  4.797575E+03 -2.532269E+02  1.823502E+04
       135   9 -3.196940E+04 -3.863697E+05 -3.943695E+04  1.423357E+04 -1.035928E+02  2.793434E+04
       135  10  6.063499E+02 -3.977402E+05 -1.217806E+04  4.878543E+03 -3.003301E-10  6.015094E-09
       135  11  3.691413E+02 -3.934819E+05 -1.973385E+04 -4.591359E+03 -5.791429E-10  5.541199E-09
       135  12 -3.512915E+04 -3.993385E+05 -4.259061E+04 -1.445972E+04 -2.031820E-09  1.498513E-09
       135  13  1.819293E+03 -3.928473E+05 -1.106514E+04 -7.938384E+01 -2.671924E-09 -3.119052E-09
       135  14  1.754205E+03 -3.878047E+05 -1.843414E+04  1.030882E+02  2.262320E-09  1.076893E-09
       135  15 -3.354977E+04 -3.928548E+05 -4.101457E+04 -1.131501E+02 -3.839593E-09 -5.116431E-09
       135  16  3.032326E+03 -3.879544E+05 -9.952205E+03 -5.037350E+03 -3.124685E-11 -4.462581E-09
       135  17  3.139350E+03 -3.821274E+05 -1.713441E+04  4.797578E+03  1.457833E-09 -7.462335E-09
       135  18 -3.196961E+04 -3.863705E+05 -3.943841E+04  1.423357E+04  5.229407E-09 -1.312873E-09
       135  19  6.063689E+02 -3.977401E+05 -1.217792E+04  4.878541E+03  2.344068E+02 -8.392237E+03
       135  20  3.692318E+02 -3.934815E+05 -1.973322E+04 -4.591362E+03  2.536133E+02 -1.834910E+04
       135  21 -3.512893E+04 -3.993377E+05 -4.258911E+04 -1.445972E+04  1.052482E+02 -2.830598E+04
       135  22  1.819312E+03 -3.928472E+05 -1.106500E+04 -7.938544E+01  2.345425E+02 -8.463988E+03
       135  23  1.754295E+03 -3.878043E+05 -1.843351E+04  1.030845E+02  2.534197E+02 -1.829206E+04
       135  24 -3.354955E+04 -3.928539E+05 -4.101308E+04 -1.131524E+02  1.044162E+02 -2.812016E+04
       135  25  3.032346E+03 -3.879543E+05 -9.952068E+03 -5.037352E+03  2.346792E+02 -8.535740E+03
       135  26  3.139439E+03 -3.821271E+05 -1.713378E+04  4.797575E+03  2.532269E+02 -1.823502E+04
       135  27 -3.196940E+04 -3.863697E+05 -3.943695E+04  1.423357E+04  1.035928E+02 -2.793434E+04
       136   1 -1.173360E+07 -3.983798E+06 -2.214872E+06 -4.041972E+06 -6.323555E+05 -1.127855E+05
       136   2 -1.148378E+07 -3.588308E+06 -1.767610E+06 -3.947862E+06 -4.398324E+05  2.757374E+05
       136   3 -1.128018E+07 -3.440558E+06 -1.596275E+06 -3.870790E+06 -1.638991E+05  4.540313E+05
       136   4 -4.417961E+06 -1.027528E+06 -2.417633E+05 -1.863350E+06 -2.014276E+05  5.670710E+04
       136   5 -4.404980E+06 -8.375732E+05 -1.100133E+05 -1.889964E+06 -2.493134E+05  3.498504E+05
       136   6 -4.388563E+06 -8.454913E+05 -5.899989E+04 -1.933846E+06 -2.144625E+05  4.338382E+05
       136   7  2.950863E+06  1.934045E+06  1.727320E+06  3.395863E+05  2.352186E+05  2.286296E+05
       136   8  2.725087E+06  1.918038E+06  1.544253E+06  1.901402E+05 -5.637734E+04  4.249442E+05
       136   9  2.552043E+06  1.753683E+06  1.475328E+06  2.326674E+04 -2.656492E+05  4.134118E+05
       136  10 -1.173404E+07 -3.983922E+06 -2.215663E+06 -4.042031E+06  7.066036E-09 -2.142226E-09
       136  11 -1.148401E+07 -3.588441E+06 -1.768120E+06 -3.947764E+06  1.974110E-09 -4.373540E-09
       136  12 -1.128027E+07 -3.440786E+06 -1.596711E+06 -3.870730E+06 -1.702354E-09 -7.614910E-10
       136  13 -4.418006E+06 -1.027543E+06 -2.418459E+05 -1.863341E+06  1.056192E-09  6.284026E-09
       136  14 -4.405080E+06 -8.377208E+05 -1.103595E+05 -1.889894E+06 -3.849874E-10 -2.620214E-08
       136  15 -4.388663E+06 -8.457052E+05 -5.943895E+04 -1.933771E+06 -1.553488E-09 -7.747446E-09
       136  16  2.950790E+06  1.933974E+06  1.727119E+06  3.395432E+05 -5.904592E-09 -4.763566E-09
       136  17  2.725035E+06  1.917844E+06  1.543908E+06  1.901594E+05 -1.092310E-09 -1.253984E-08
       136  18  2.551922E+06  1.753481E+06  1.474875E+06  2.335492E+04  1.856706E-09 -5.089023E-10
       136  19 -1.173360E+07 -3.983798E+06 -2.214872E+06 -4.041972E+06  6.323555E+05  1.127855E+05
       136  20 -1.148378E+07 -3.588308E+06 -1.767610E+06 -3.947862E+06  4.398324E+05 -2.757374E+05
       136  21 -1.128018E+07 -3.440558E+06 -1.596275E+06 -3.870790E+06  1.638991E+05 -4.540313E+05
       136  22 -4.417961E+06 -1.027528E+06 -2.417633E+05 -1.863350E+06  2.014276E+05 -5.670710E+04
       136  23 -4.404980E+06 -8.375732E+05 -1.100133E+05 -1.889964E+06  2.493134E+05 -3.498504E+05
       136  24 -4.388563E+06 -8.454913E+05 -5.899989E+04 -1.933846E+06  2.144625E+05 -4.338382E+05
       136  25  2.950863E+06  1.934045E+06  1.727320E+06  3.395863E+05 -2.352186E+05 -2.286296E+05
       136  26  2.725087E+06  1.918038E+06  1.544253E+06  1.901402E+05  5.637734E+04 -4.249442E+05
       136  27  2.552043E+06  1.753683E+06  1.475328E+06  2.326674E+04  2.656492E+05 -4.134118E+05
       137   1 -1.104730E+07 -3.391018E+06 -1.542847E+06 -3.823150E+06 -1.998953E+05  4.159016E+05
       137   2 -1.079780E+07 -3.225783E+06 -1.444062E+06 -3.696207E+06 -1.713514E+05  4.208097E+05
       137   3 -1.047335E+07 -3.138273E+06 -1.364465E+06 -3.643758E+06 -1.383368E+05  4.138418E+05
       137   4 -4.377854E+06 -8.597281E+05 -4.594041E+04 -1.930038E+06 -1.993432E+05  4.156351E+05
       137   5 -4.415208E+06 -8.167195E+05 -2.546484E+04 -1.894648E+06 -1.842691E+05  4.153730E+05
       137   6 -4.374899E+06 -8.485720E+05 -1.322413E+04 -1.933726E+06 -1.647629E+05  4.032938E+05
       137   7  2.337351E+06  1.675559E+06  1.448140E+06 -1.779447E+04 -1.987860E+05  4.153746E+05
       137   8  2.009316E+06  1.595936E+06  1.390593E+06 -7.569074E+04 -1.973353E+05  4.098826E+05
       137   9  1.761787E+06  1.444316E+06  1.335710E+06 -2.079483E+05 -1.914771E+05  3.926386E+05
       137  10 -1.104739E+07 -3.391214E+06 -1.543246E+06 -3.823083E+06  8.215702E-09  1.022604E-08
       137  11 -1.079788E+07 -3.225981E+06 -1.444449E+06 -3.696149E+06  5.398467E-09  4.280976E-09
       137  12 -1.047341E+07 -3.138461E+06 -1.364822E+06 -3.643712E+06  1.499001E-09  1.552852E-09
       137  13 -4.377942E+06 -8.599238E+05 -4.633875E+04 -1.929971E+06  1.907849E-09 -1.116774E-08
       137  14 -4.415290E+06 -8.169133E+05 -2.585192E+04 -1.894586E+06 -5.704113E-09 -3.485468E-09
       137  15 -4.374972E+06 -8.487535E+05 -1.357991E+04 -1.933672E+06 -1.430107E-09  3.159410E-10
       137  16  2.337263E+06  1.675364E+06  1.447742E+06 -1.772817E+04 -6.980332E-09 -1.735474E-09
       137  17  2.009230E+06  1.595746E+06  1.390205E+06 -7.562579E+04 -8.919878E-10 -8.836637E-09
       137  18  1.761706E+06  1.444141E+06  1.335353E+06 -2.078880E+05 -2.121198E-09 -3.038170E-09
       137  19 -1.104730E+07 -3.391018E+06 -1.542847E+06 -3.823150E+06  1.998953E+05 -4.159016E+05
       137  20 -1.079780E+07 -3.225783E+06 -1.444062E+06 -3.696207E+06  1.713514E+05 -4.208097E+05
       137  21 -1.047335E+07 -3.138273E+06 -1.364465E+06 -3.643758E+06  1.383368E+05 -4.138418E+05
       137  22 -4.377854E+06 -8.597281E+05 -4.594041E+04 -1.930038E+06  1.993432E+05 -4.156351E+05
       137  23 -4.415208E+06 -8.167195E+05 -2.546484E+04 -1.894648E+06  1.842691E+05 -4.153730E+05
       137  24 -4.374899E+06 -8.485720E+05 -1.322413E+04 -1.933726E+06  1.647629E+05 -4.032938E+05
       137  25  2.337351E+06  1.675559E+06  1.448140E+06 -1.779447E+04  1.987860E+05 -4.153746E+05
       137  26  2.009316E+06  1.595936E+06  1.390593E+06 -7.569074E+04  1.973353E+05 -4.098826E+05
       137  27  1.761787E+06  1.444316E+06  1.335710E+06 -2.079483E+05  1.914771E+05 -3.926386E+05
       138   1 -1.024707E+07 -3.052450E+06 -1.309517E+06 -3.579912E+06 -1.331540E+05  4.005024E+05
       138   2 -9.968828E+06 -2.885116E+06 -1.233735E+06 -3.440872E+06 -1.198581E+05  3.803708E+05
       138   3 -9.604781E+06 -2.794742E+06 -1.159272E+06 -3.387948E+06 -1.062152E+05  3.589033E+05
       138   4 -4.372670E+06 -8.503155E+05 -1.016354E+04 -1.935527E+06 -1.576618E+05  3.907474E+05
       138   5 -4.414769E+06 -8.100862E+05 -6.519936E+03 -1.892928E+06 -1.458491E+05  3.701386E+05
       138   6 -4.370888E+06 -8.464570E+05 -3.009930E+03 -1.936435E+06 -1.336944E+05  3.481993E+05
       138   7  1.537286E+06  1.354792E+06  1.287080E+06 -2.765400E+05 -1.824272E+05  3.808967E+05
       138   8  1.171029E+06  1.267547E+06  1.218809E+06 -3.320103E+05 -1.720977E+05  3.598107E+05
       138   9  8.911431E+05  1.104086E+06  1.151573E+06 -4.734791E+05 -1.614296E+05  3.374004E+05
       138  10 -1.024713E+07 -3.052627E+06 -1.309851E+06 -3.579869E+06  6.039806E-08  2.600903E-08
       138  11 -9.968882E+06 -2.885275E+06 -1.234033E+06 -3.440835E+06  7.508618E-09  1.329363E-08
       138  12 -9.604827E+06 -2.794883E+06 -1.159535E+06 -3.387918E+06 -4.944742E-08 -1.735007E-08
       138  13 -4.372737E+06 -8.504857E+05 -1.049636E+04 -1.935477E+06  5.279479E-09 -1.698216E-09
       138  14 -4.414828E+06 -8.102387E+05 -6.816635E+03 -1.892884E+06  1.091634E-08  1.397557E-08
       138  15 -4.370939E+06 -8.465916E+05 -3.270718E+03 -1.936398E+06  1.666700E-09  6.955545E-09
       138  16  1.537211E+06  1.354628E+06  1.286746E+06 -2.764842E+05 -4.632411E-08 -1.042548E-08
       138  17  1.170963E+06  1.267401E+06  1.218510E+06 -3.319606E+05  9.352696E-09  1.463349E-08
       138  18  8.910847E+05  1.103958E+06  1.151311E+06 -4.734354E+05  6.003250E-08  2.592595E-08
       138  19 -1.024707E+07 -3.052450E+06 -1.309517E+06 -3.579912E+06  1.331540E+05 -4.005024E+05
       138  20 -9.968828E+06 -2.885116E+06 -1.233735E+06 -3.440872E+06  1.198581E+05 -3.803708E+05
       138  21 -9.604781E+06 -2.794742E+06 -1.159272E+06 -3.387948E+06  1.062152E+05 -3.589033E+05
       138  22 -4.372670E+06 -8.503155E+05 -1.016354E+04 -1.935527E+06  1.576618E+05 -3.907474E+05
       138  23 -4.414769E+06 -8.100862E+05 -6.519936E+03 -1.892928E+06  1.458491E+05 -3.701386E+05
       138  24 -4.370888E+06 -8.464570E+05 -3.009930E+03 -1.936435E+06  1.336944E+05 -3.481993E+05
       138  25  1.537286E+06  1.354792E+06  1.287080E+06 -2.765400E+05  1.824272E+05 -3.808967E+05
       138  26  1.171029E+06  1.267547E+06  1.218809E+06 -3.320103E+05  1.720977E+05 -3.598107E+05
       138  27  8.911431E+05  1.104086E+06  1.151573E+06 -4.734791E+05  1.614296E+05 -3.374004E+05
       139   1 -9.358004E+06 -2.701013E+06 -1.101727E+06 -3.319012E+06 -9.978670E+04  3.452238E+05
       139   2 -9.052797E+06 -2.523560E+06 -1.024206E+06 -3.170744E+06 -8.857612E+04  3.212283E+05
       139   3 -8.657927E+06 -2.428965E+06 -9.463821E+05 -3.117060E+06 -7.726460E+04  2.965693E+05
       139   4 -4.369440E+06 -8.474268E+05 -2.442076E+03 -1.938211E+06 -1.278291E+05  3.343608E+05
       139   5 -4.413502E+06 -8.044448E+05 -2.073250E+03 -1.891294E+06 -1.173554E+05  3.101696E+05
       139   6 -4.367897E+06 -8.441365E+05 -8.266316E+02 -1.938968E+06 -1.067827E+05  2.853173E+05
       139   7  6.446490E+05  1.008185E+06  1.095317E+06 -5.470486E+05 -1.561199E+05  3.234057E+05
       139   8  2.478791E+05  9.164044E+05  1.018749E+06 -6.029194E+05 -1.463714E+05  2.990233E+05
       139   9 -5.897517E+04  7.421587E+05  9.436150E+05 -7.532794E+05 -1.365252E+05  2.739824E+05
       139  10 -9.358046E+06 -2.701143E+06 -1.101970E+06 -3.318984E+06 -3.373164E-09 -3.892220E-09
       139  11 -9.052833E+06 -2.523672E+06 -1.024415E+06 -3.170722E+06 -4.500653E-12 -4.702543E-09
       139  12 -8.657956E+06 -2.429061E+06 -9.465582E+05 -3.117041E+06 -9.887950E-10 -5.958408E-09
       139  13 -4.369487E+06 -8.475509E+05 -2.682282E+03 -1.938176E+06  6.018735E-11  1.916344E-09
       139  14 -4.413542E+06 -8.045516E+05 -2.279414E+03 -1.891265E+06  2.842100E-09 -2.510477E-09
       139  15 -4.367931E+06 -8.442268E+05 -1.000610E+03 -1.938943E+06  1.489765E-09 -4.977003E-09
       139  16  6.445949E+05  1.008066E+06  1.095075E+06 -5.470080E+05  4.117268E-09  1.748497E-09
       139  17  2.478322E+05  9.163029E+05  1.018541E+06 -6.028842E+05  1.108518E-09  3.502086E-10
       139  18 -5.901519E+04  7.420733E+05  9.434393E+05 -7.532493E+05  2.191014E-09 -6.999921E-10
       139  19 -9.358004E+06 -2.701013E+06 -1.101727E+06 -3.319012E+06  9.978670E+04 -3.452238E+05
       139  20 -9.052797E+06 -2.523560E+06 -1.024206E+06 -3.170744E+06  8.857612E+04 -3.212283E+05
       139  21 -8.657927E+06 -2.428965E+06 -9.463821E+05 -3.117060E+06  7.726460E+04 -2.965693E+05
       139  22 -4.369440E+06 -8.474268E+05 -2.442076E+03 -1.938211E+06  1.278291E+05 -3.343608E+05
       139  23 -4.413502E+06 -8.044448E+05 -2.073250E+03 -1.891294E+06  1.173554E+05 -3.101696E+05
       139  24 -4.367897E+06 -8.441365E+05 -8.266316E+02 -1.938968E+06  1.067827E+05 -2.853173E+05
       139  25  6.446490E+05  1.008185E+06  1.095317E+06 -5.470486E+05  1.561199E+05 -3.234057E+05
       139  26  2.478791E+05  9.164044E+05  1.018749E+06 -6.029194E+05  1.463714E+05 -2.990233E+05
       139  27 -5.897517E+04  7.421587E+05  9.436150E+05 -7.532794E+05  1.365252E+05 -2.739824E+05
       140   1 -8.392600E+06 -2.329723E+06 -8.854410E+05 -3.044317E+06 -7.086631E+04  2.817828E+05
       140   2 -8.064999E+06 -2.144075E+06 -8.040968E+05 -2.888732E+06 -5.978323E+04  2.559022E+05
       140   3 -7.645199E+06 -2.046348E+06 -7.226182E+05 -2.834689E+06 -4.863763E+04  2.295205E+05
       140   4 -4.366790E+06 -8.448747E+05 -8.695778E+02 -1.940447E+06 -1.009552E+05  2.703641E+05
       140   5 -4.412209E+06 -7.996053E+05 -1.216464E+03 -1.889980E+06 -9.043231E+04  2.443429E+05
       140   6 -4.365489E+06 -8.421179E+05 -9.959321E+02 -1.941072E+06 -7.984831E+04  2.178222E+05
       140   7 -3.243676E+05  6.412497E+05  8.827209E+05 -8.299061E+05 -1.312582E+05  2.588661E+05
       140   8 -7.457667E+05  5.458962E+05  8.008528E+05 -8.857627E+05 -1.212788E+05  2.327106E+05
       140   9 -1.074797E+06  3.629263E+05  7.199684E+05 -1.043073E+06 -1.112391E+05  2.060575E+05
       140  10 -8.392627E+06 -2.329809E+06 -8.855993E+05 -3.044301E+06 -2.442738E-08 -1.522649E-08
       140  11 -8.065021E+06 -2.144146E+06 -8.042263E+05 -2.888719E+06 -5.354951E-09 -2.298975E-09
       140  12 -7.645216E+06 -2.046405E+06 -7.227215E+05 -2.834680E+06  1.813617E-08  6.452878E-09
       140  13 -4.366821E+06 -8.449558E+05 -1.025711E+03 -1.940425E+06 -1.140694E-09 -3.978907E-09
       140  14 -4.412234E+06 -7.996715E+05 -1.343715E+03 -1.889962E+06 -2.958842E-09  1.913365E-10
       140  15 -4.365508E+06 -8.421705E+05 -1.096828E+03 -1.941058E+06 -1.035082E-09 -1.340320E-09
       140  16 -3.244039E+05  6.411733E+05  8.825630E+05 -8.298788E+05  2.146554E-08  7.476275E-09
       140  17 -7.457969E+05  5.458342E+05  8.007237E+05 -8.857400E+05 -4.863679E-09  2.149304E-09
       140  18 -1.074822E+06  3.628775E+05  7.198656E+05 -1.043054E+06 -2.302949E-08 -1.055531E-08
       140  19 -8.392600E+06 -2.329723E+06 -8.854410E+05 -3.044317E+06  7.086631E+04 -2.817828E+05
       140  20 -8.064999E+06 -2.144075E+06 -8.040968E+05 -2.888732E+06  5.978323E+04 -2.559022E+05
       140  21 -7.645199E+06 -2.046348E+06 -7.226182E+05 -2.834689E+06  4.863763E+04 -2.295205E+05
       140  22 -4.366790E+06 -8.448747E+05 -8.695778E+02 -1.940447E+06  1.009552E+05 -2.703641E+05
       140  23 -4.412209E+06 -7.996053E+05 -1.216464E+03 -1.889980E+06  9.043231E+04 -2.443429E+05
       140  24 -4.365489E+06 -8.421179E+05 -9.959321E+02 -1.941072E+06  7.984831E+04 -2.178222E+05
       140  25 -3.243676E+05  6.412497E+05  8.827209E+05 -8.299061E+05  1.312582E+05 -2.588661E+05
       140  26 -7.457667E+05  5.458962E+05  8.008528E+05 -8.857627E+05  1.212788E+05 -2.327106E+05
       140  27 -1.074797E+06  3.629263E+05  7.199684E+05 -1.043073E+06  1.112391E+05 -2.060575E+05
       141   1 -7.365070E+06 -1.942832E+06 -6.588771E+05 -2.758956E+06 -4.209762E+04  2.139105E+05
       141   2 -7.020249E+06 -1.751206E+06 -5.748834E+05 -2.597845E+06 -3.019946E+04  1.869714E+05
       141   3 -6.581630E+06 -1.651486E+06 -4.916539E+05 -2.543634E+06 -1.826437E+04  1.596851E+05
       141   4 -4.364717E+06 -8.426607E+05 -1.389442E+03 -1.942234E+06 -7.374950E+04  2.020856E+05
       141   5 -4.411082E+06 -7.957713E+05 -2.511600E+03 -1.888983E+06 -6.224055E+04  1.750531E+05
       141   6 -4.363764E+06 -8.407009E+05 -4.100213E+03 -1.942664E+06 -5.069620E+04  1.476744E+05
       141   7 -1.355130E+06  2.582061E+05  6.555644E+05 -1.121839E+06 -1.055687E+05  1.901990E+05
       141   8 -1.794944E+06  1.601818E+05  5.694548E+05 -1.177351E+06 -9.442867E+04  1.630807E+05
       141   9 -2.140872E+06 -2.954872E+04  4.831586E+05 -1.339704E+06 -8.325429E+04  1.356171E+05
       141  10 -7.365084E+06 -1.942881E+06 -6.589663E+05 -2.758948E+06  6.368780E-09 -4.234725E-10
       141  11 -7.020259E+06 -1.751244E+06 -5.749507E+05 -2.597841E+06 -5.242205E-10 -7.076306E-09
       141  12 -6.581637E+06 -1.651513E+06 -4.917024E+05 -2.543631E+06 -8.580858E-09 -7.781806E-09
       141  13 -4.364734E+06 -8.427059E+05 -1.476195E+03 -1.942222E+06  8.027778E-10 -2.591765E-09
       141  14 -4.411094E+06 -7.958051E+05 -2.576307E+03 -1.888974E+06  1.000129E-08  1.125859E-08
       141  15 -4.363772E+06 -8.407250E+05 -4.145913E+03 -1.942658E+06  4.939347E-09  5.869977E-09
       141  16 -1.355151E+06  2.581644E+05  6.554757E+05 -1.121823E+06 -1.077239E-09  1.618925E-09
       141  17 -1.794960E+06  1.601509E+05  5.693882E+05 -1.177339E+06  5.815468E-09  2.326574E-09
       141  18 -2.140884E+06 -2.957027E+04  4.831111E+05 -1.339695E+06  6.734836E-09  4.176385E-09
       141  19 -7.365070E+06 -1.942832E+06 -6.588771E+05 -2.758956E+06  4.209762E+04 -2.139105E+05
       141  20 -7.020249E+06 -1.751206E+06 -5.748834E+05 -2.597845E+06  3.019946E+04 -1.869714E+05
       141  21 -6.581630E+06 -1.651486E+06 -4.916539E+05 -2.543634E+06  1.826437E+04 -1.596851E+05
       141  22 -4.364717E+06 -8.426607E+05 -1.389442E+03 -1.942234E+06  7.374950E+04 -2.020856E+05
       141  23 -4.411082E+06 -7.957713E+05 -2.511600E+03 -1.888983E+06  6.224055E+04 -1.750531E+05
       141  24 -4.363764E+06 -8.407009E+05 -4.100213E+03 -1.942664E+06  5.069620E+04 -1.476744E+05
       141  25 -1.355130E+06  2.582061E+05  6.555644E+05 -1.121839E+06  1.055687E+05 -1.901990E+05
       141  26 -1.794944E+06  1.601818E+05  5.694548E+05 -1.177351E+06  9.442867E+04 -1.630807E+05
       141  27 -2.140872E+06 -2.954872E+04  4.831586E+05 -1.339704E+06  8.325429E+04 -1.356171E+05
       142   1 -6.290797E+06 -1.545061E+06 -4.267506E+05 -2.466186E+06 -1.109334E+04  1.436782E+05
       142   2 -5.934576E+06 -1.349280E+06 -3.439042E+05 -2.300352E+06  4.444391E+03  1.172465E+05
       142   3 -5.484990E+06 -1.250649E+06 -2.654803E+05 -2.244376E+06  1.993181E+04  9.081053E+04
       142   4 -4.363463E+06 -8.408433E+05 -5.533739E+03 -1.943594E+06 -4.387054E+04  1.315654E+05
       142   5 -4.410000E+06 -7.932930E+05 -1.009726E+04 -1.888180E+06 -2.832729E+04  1.051660E+05
       142   6 -4.363356E+06 -8.428929E+05 -1.908952E+04 -1.942677E+06 -1.283792E+04  7.876148E+04
       142   7 -2.432343E+06 -1.363506E+05  4.154609E+05 -1.419500E+06 -7.675827E+04  1.194119E+05
       142   8 -2.883050E+06 -2.371339E+05  3.235740E+05 -1.475071E+06 -6.118651E+04  9.305337E+04
       142   9 -3.240431E+06 -4.350425E+05  2.272315E+05 -1.640471E+06 -4.567223E+04  6.668884E+04
       142  10 -6.290803E+06 -1.545083E+06 -4.267896E+05 -2.466185E+06 -5.545434E-09 -6.206047E-09
       142  11 -5.934580E+06 -1.349294E+06 -3.439300E+05 -2.300352E+06 -7.908348E-09 -5.293495E-09
       142  12 -5.484993E+06 -1.250658E+06 -2.654966E+05 -2.244378E+06 -3.805545E-09  2.953943E-09
       142  13 -4.363469E+06 -8.408623E+05 -5.569797E+03 -1.943590E+06 -3.016122E-09  3.101236E-09
       142  14 -4.410004E+06 -7.933051E+05 -1.011950E+04 -1.888178E+06 -2.862896E-09 -1.504888E-08
       142  15 -4.363358E+06 -8.428996E+05 -1.910147E+04 -1.942676E+06 -5.557476E-09 -1.374869E-08
       142  16 -2.432353E+06 -1.363675E+05  4.154232E+05 -1.419493E+06 -6.079411E-09  6.914710E-09
       142  17 -2.883056E+06 -2.371441E+05  3.235507E+05 -1.475067E+06 -2.018714E-09 -5.501017E-09
       142  18 -3.240434E+06 -4.350478E+05  2.272192E+05 -1.640468E+06 -2.299594E-09  2.186629E-10
       142  19 -6.290797E+06 -1.545061E+06 -4.267506E+05 -2.466186E+06  1.109334E+04 -1.436782E+05
       142  20 -5.934576E+06 -1.349280E+06 -3.439042E+05 -2.300352E+06 -4.444391E+03 -1.172465E+05
       142  21 -5.484990E+06 -1.250649E+06 -2.654803E+05 -2.244376E+06 -1.993181E+04 -9.081053E+04
       142  22 -4.363463E+06 -8.408433E+05 -5.533739E+03 -1.943594E+06  4.387054E+04 -1.315654E+05
       142  23 -4.410000E+06 -7.932930E+05 -1.009726E+04 -1.888180E+06  2.832729E+04 -1.051660E+05
       142  24 -4.363356E+06 -8.428929E+05 -1.908952E+04 -1.942677E+06  1.283792E+04 -7.876148E+04
       142  25 -2.432343E+06 -1.363506E+05  4.154609E+05 -1.419500E+06  7.675827E+04 -1.194119E+05
       142  26 -2.883050E+06 -2.371339E+05  3.235740E+05 -1.475071E+06  6.118651E+04 -9.305337E+04
       142  27 -3.240431E+06 -4.350425E+05  2.272315E+05 -1.640471E+06  4.567223E+04 -6.668884E+04
       143   1 -5.183350E+06 -1.144931E+06 -2.035579E+05 -2.177229E+06  3.021272E+04  7.539266E+04
       143   2 -4.832401E+06 -9.366673E+05 -1.345815E+05 -1.982293E+06  5.970103E+04  5.526309E+04
       143   3 -4.412451E+06 -8.879047E+05 -9.767074E+04 -1.883091E+06  8.774475E+04  3.905868E+04
       143   4 -4.366262E+06 -8.380699E+05 -2.467684E+04 -1.946418E+06 -3.699227E+03  6.293733E+04
       143   5 -4.405615E+06 -7.975233E+05 -4.525655E+04 -1.883958E+06  3.034365E+04  4.448412E+04
       143   6 -4.377053E+06 -9.173938E+05 -1.015251E+05 -1.917321E+06  6.292972E+04  2.994869E+04
       143   7 -3.548485E+06 -5.311452E+05  1.541699E+05 -1.715319E+06 -3.765972E+04  5.046280E+04
       143   8 -3.978646E+06 -6.583751E+05  4.406099E+04 -1.785566E+06  9.646878E+02  3.369918E+04
       143   9 -4.341649E+06 -9.468741E+05 -1.053757E+05 -1.951551E+06  3.811381E+04  2.084268E+04
       143  10 -5.183352E+06 -1.144937E+06 -2.035703E+05 -2.177231E+06  8.086185E-09  1.278136E-09
       143  11 -4.832406E+06 -9.366716E+05 -1.345940E+05 -1.982296E+06  7.655506E-09  1.228447E-08
       143  12 -4.412460E+06 -8.879084E+05 -9.768822E+04 -1.883094E+06 -6.827249E-09 -6.777176E-09
       143  13 -4.366263E+06 -8.380741E+05 -2.468430E+04 -1.946418E+06  5.019144E-09 -6.853261E-09
       143  14 -4.405617E+06 -7.975257E+05 -4.526203E+04 -1.883960E+06  5.487948E-10 -1.358845E-08
       143  15 -4.377058E+06 -9.173959E+05 -1.015343E+05 -1.917322E+06  1.480646E-09 -7.158073E-09
       143  16 -3.548487E+06 -5.311483E+05  1.541625E+05 -1.715318E+06 -5.563489E-09 -1.594319E-09
       143  17 -3.978646E+06 -6.583763E+05  4.405886E+04 -1.785566E+06  2.798234E-09  7.397574E-09
       143  18 -4.341651E+06 -9.468749E+05 -1.053793E+05 -1.951552E+06  7.512501E-09 -1.553349E-13
       143  19 -5.183350E+06 -1.144931E+06 -2.035579E+05 -2.177229E+06 -3.021272E+04 -7.539266E+04
       143  20 -4.832401E+06 -9.366673E+05 -1.345815E+05 -1.982293E+06 -5.970103E+04 -5.526309E+04
       143  21 -4.412451E+06 -8.879047E+05 -9.767074E+04 -1.883091E+06 -8.774475E+04 -3.905868E+04
       143  22 -4.366262E+06 -8.380699E+05 -2.467684E+04 -1.946418E+06  3.699227E+03 -6.293733E+04
       143  23 -4.405615E+06 -7.975233E+05 -4.525655E+04 -1.883958E+06 -3.034365E+04 -4.448412E+04
       143  24 -4.377053E+06 -9.173938E+05 -1.015251E+05 -1.917321E+06 -6.292972E+04 -2.994869E+04
       143  25 -3.548485E+06 -5.311452E+05  1.541699E+05 -1.715319E+06  3.765972E+04 -5.046280E+04
       143  26 -3.978646E+06 -6.583751E+05  4.406099E+04 -1.785566E+06 -9.646878E+02 -3.369918E+04
       143  27 -4.341649E+06 -9.468741E+05 -1.053757E+05 -1.951551E+06 -3.811381E+04 -2.084268E+04
       144   1  3.494359E+05  7.258141E+04  9.518362E+04  7.021444E+03  6.590883E+04  1.827412E+01
       144   2  3.351053E+05 -1.848462E+04  3.996050E+04  1.982285E+03  4.337382E+04  5.402793E+01
       144   3  3.501738E+05 -3.675883E+03  2.587380E+04 -3.999383E+03  2.083828E+04  3.297245E+01
       144   4  3.549217E+05  7.395284E+04  9.655272E+04 -3.640561E+02  6.591840E+04  1.748995E+01
       144   5  3.402277E+05 -1.720527E+04  4.123532E+04  1.050394E+02  4.337497E+04  5.389676E+01
       144   6  3.549337E+05 -2.487737E+03  2.705991E+04 -3.683978E+02  2.083103E+04  3.309481E+01
       144   7  3.604077E+05  7.532447E+04  9.792183E+04 -7.749621E+03  6.592798E+04  1.670556E+01
       144   8  3.453500E+05 -1.592590E+04  4.251014E+04 -1.772222E+03  4.337612E+04  5.376558E+01
       144   9  3.596937E+05 -1.299543E+03  2.824603E+04  3.262615E+03  2.082377E+04  3.321709E+01
       144  10  3.494312E+05  7.258024E+04  9.517547E+04  7.021443E+03  4.246963E-09  3.577130E-10
       144  11  3.351033E+05 -1.848512E+04  3.995697E+04  1.982283E+03  4.630235E-09  8.860486E-11
       144  12  3.501733E+05 -3.675999E+03  2.587298E+04 -3.999384E+03 -6.915003E-09 -1.159922E-09
       144  13  3.549170E+05  7.395167E+04  9.654455E+04 -3.640570E+02  1.296372E-10  1.606430E-10
       144  14  3.402256E+05 -1.720577E+04  4.123179E+04  1.050375E+02 -6.319792E-09  5.181964E-10
       144  15  3.549333E+05 -2.487853E+03  2.705909E+04 -3.683984E+02  9.569283E-09  3.752708E-10
       144  16  3.604030E+05  7.532331E+04  9.791367E+04 -7.749622E+03 -3.084336E-09 -5.551226E-11
       144  17  3.453480E+05 -1.592641E+04  4.250660E+04 -1.772224E+03 -1.600114E-09 -1.809250E-10
       144  18  3.596933E+05 -1.299659E+03  2.824521E+04  3.262615E+03  5.125401E-09 -5.946701E-10
       144  19  3.494359E+05  7.258141E+04  9.518362E+04  7.021444E+03 -6.590883E+04 -1.827412E+01
       144  20  3.351053E+05 -1.848462E+04  3.996050E+04  1.982285E+03 -4.337382E+04 -5.402793E+01
       144  21  3.501738E+05 -3.675883E+03  2.587380E+04 -3.999383E+03 -2.083828E+04 -3.297245E+01
       144  22  3.549217E+05  7.395284E+04  9.655272E+04 -3.640561E+02 -6.591840E+04 -1.748995E+01
       144  23  3.402277E+05 -1.720527E+04  4.123532E+04  1.050394E+02 -4.337497E+04 -5.389676E+01
       144  24  3.549337E+05 -2.487737E+03  2.705991E+04 -3.683978E+02 -2.083103E+04 -3.309481E+01
       144  25  3.604077E+05  7.532447E+04  9.792183E+04 -7.749621E+03 -6.592798E+04 -1.670556E+01
       144  26  3.453500E+05 -1.592590E+04  4.251014E+04 -1.772222E+03 -4.337612E+04 -5.376558E+01
       144  27  3.596937E+05 -1.299543E+03  2.824603E+04  3.262615E+03 -2.082377E+04 -3.321709E+01
       145   1  3.481987E+05  1.090170E+04  2.208054E+04  7.111100E+02  1.635495E+04  1.575507E+01
       145   2  3.461737E+05 -2.840041E+03  1.046046E+04  3.473881E+02  1.074747E+04  8.970214E+00
       145   3  3.488964E+05 -5.071886E+02  6.508333E+03 -9.214905E+02  5.140003E+03 -6.796216E+00
       145   4  3.494520E+05  1.121480E+04  2.239219E+04 -3.578921E+02  1.635458E+04  1.572695E+01
       145   5  3.470793E+05 -2.613860E+03  1.068586E+04  9.421626E+01  1.074579E+04  8.965973E+00
       145   6  3.494545E+05 -3.677127E+02  6.648382E+03 -3.588320E+02  5.137021E+03 -6.791306E+00
       145   7  3.507053E+05  1.152790E+04  2.270383E+04 -1.426896E+03  1.635421E+04  1.569883E+01
       145   8  3.479849E+05 -2.387678E+03  1.091126E+04 -1.589560E+02  1.074411E+04  8.961733E+00
       145   9  3.500126E+05 -2.282356E+02  6.788430E+03  2.038270E+02  5.134039E+03 -6.786401E+00
       145  10  3.481984E+05  1.090163E+04  2.208004E+04  7.111098E+02 -6.731477E-09 -9.454581E-10
       145  11  3.461736E+05 -2.840072E+03  1.046024E+04  3.473881E+02  1.883163E-10  1.468455E-10
       145  12  3.488963E+05 -5.071957E+02  6.508284E+03 -9.214905E+02  3.698058E-09 -7.714483E-10
       145  13  3.494517E+05  1.121473E+04  2.239168E+04 -3.578923E+02 -4.171217E-09  4.758806E-11
       145  14  3.470792E+05 -2.613891E+03  1.068564E+04  9.421618E+01 -1.487051E-08  3.992776E-10
       145  15  3.494544E+05 -3.677198E+02  6.648332E+03 -3.588320E+02 -3.355568E-09 -1.717102E-10
       145  16  3.507050E+05  1.152783E+04  2.270333E+04 -1.426897E+03  2.415013E-09 -7.296918E-10
       145  17  3.479848E+05 -2.387709E+03  1.091104E+04 -1.589561E+02  3.274445E-09 -6.444430E-10
       145  18  3.500126E+05 -2.282427E+02  6.788380E+03  2.038270E+02 -6.465745E-10 -2.586980E-11
       145  19  3.481987E+05  1.090170E+04  2.208054E+04  7.111100E+02 -1.635495E+04 -1.575507E+01
       145  20  3.461737E+05 -2.840041E+03  1.046046E+04  3.473881E+02 -1.074747E+04 -8.970214E+00
       145  21  3.488964E+05 -5.071886E+02  6.508333E+03 -9.214905E+02 -5.140003E+03  6.796216E+00
       145  22  3.494520E+05  1.121480E+04  2.239219E+04 -3.578921E+02 -1.635458E+04 -1.572695E+01
       145  23  3.470793E+05 -2.613860E+03  1.068586E+04  9.421626E+01 -1.074579E+04 -8.965973E+00
       145  24  3.494545E+05 -3.677127E+02  6.648382E+03 -3.588320E+02 -5.137021E+03  6.791306E+00
       145  25  3.507053E+05  1.152790E+04  2.270383E+04 -1.426896E+03 -1.635421E+04 -1.569883E+01
       145  26  3.479849E+05 -2.387678E+03  1.091126E+04 -1.589560E+02 -1.074411E+04 -8.961733E+00
       145  27  3.500126E+05 -2.282356E+02  6.788430E+03  2.038270E+02 -5.134039E+03  6.786401E+00
       146   1  3.514772E+05  2.416544E+03  6.048822E+03 -2.136965E+02  4.054531E+03 -1.663471E+01
       146   2  3.514360E+05  4.173914E+02  3.544990E+03  1.287972E+02  2.654414E+03 -3.022951E+01
       146   3  3.521848E+05  8.498093E+02  2.560179E+03 -4.502999E+02  1.254319E+03 -4.630787E+01
       146   4  3.485745E+05  1.691479E+03  5.324956E+03 -3.620653E+02  4.052721E+03 -1.663554E+01
       146   5  3.481797E+05 -3.958086E+02  2.734039E+03  9.865896E+01  2.652252E+03 -3.022949E+01
       146   6  3.485750E+05 -5.145692E+01  1.662392E+03 -3.622096E+02  1.251805E+03 -4.630754E+01
       146   7  3.456717E+05  9.664138E+02  4.601089E+03 -5.104333E+02  4.050911E+03 -1.663636E+01
       146   8  3.449234E+05 -1.209009E+03  1.923086E+03  6.852089E+01  2.650089E+03 -3.022946E+01
       146   9  3.449651E+05 -9.527241E+02  7.646045E+02 -2.741198E+02  1.249291E+03 -4.630720E+01
       146  10  3.514772E+05  2.416539E+03  6.048792E+03 -2.136965E+02 -4.689888E-10 -5.721795E-10
       146  11  3.514360E+05  4.173895E+02  3.544977E+03  1.287973E+02  2.887576E-09  8.016595E-10
       146  12  3.521848E+05  8.498089E+02  2.560176E+03 -4.502998E+02 -2.414286E-09 -1.507995E-10
       146  13  3.485744E+05  1.691475E+03  5.324925E+03 -3.620652E+02 -1.257897E-10 -6.743118E-11
       146  14  3.481797E+05 -3.958105E+02  2.734026E+03  9.865903E+01 -6.442269E-09  3.059202E-10
       146  15  3.485750E+05 -5.145734E+01  1.662389E+03 -3.622095E+02  8.351748E-10  4.751339E-10
       146  16  3.456717E+05  9.664094E+02  4.601058E+03 -5.104332E+02  2.468466E-09  1.668465E-11
       146  17  3.449234E+05 -1.209011E+03  1.923073E+03  6.852095E+01  4.284672E-09 -1.186344E-11
       146  18  3.449651E+05 -9.527245E+02  7.646015E+02 -2.741197E+02  3.467425E-09  6.641532E-10
       146  19  3.514772E+05  2.416544E+03  6.048822E+03 -2.136965E+02 -4.054531E+03  1.663471E+01
       146  20  3.514360E+05  4.173914E+02  3.544990E+03  1.287972E+02 -2.654414E+03  3.022951E+01
       146  21  3.521848E+05  8.498093E+02  2.560179E+03 -4.502999E+02 -1.254319E+03  4.630787E+01
       146  22  3.485745E+05  1.691479E+03  5.324956E+03 -3.620653E+02 -4.052721E+03  1.663554E+01
       146  23  3.481797E+05 -3.958086E+02  2.734039E+03  9.865896E+01 -2.652252E+03  3.022949E+01
       146  24  3.485750E+05 -5.145692E+01  1.662392E+03 -3.622096E+02 -1.251805E+03  4.630754E+01
       146  25  3.456717E+05  9.664138E+02  4.601089E+03 -5.104333E+02 -4.050911E+03  1.663636E+01
       146  26  3.449234E+05 -1.209009E+03  1.923086E+03  6.852089E+01 -2.650089E+03  3.022946E+01
       146  27  3.449651E+05 -9.527241E+02  7.646045E+02 -2.741198E+02 -1.249291E+03  4.630720E+01
       147   1  3.556685E+05  2.060056E+03  3.118896E+03 -3.588681E+02  9.840615E+02 -5.546448E+01
       147   2  3.559776E+05  1.840288E+03  2.638697E+03  1.210178E+02  6.103203E+02 -7.079159E+01
       147   3  3.564315E+05  2.002173E+03  2.497271E+03 -3.929238E+02  2.365739E+02 -8.859308E+01
       147   4  3.484315E+05  2.525660E+02  1.315559E+03 -3.782034E+02  9.820202E+02 -5.546442E+01
       147   5  3.483592E+05 -6.225879E+01  7.414584E+02  1.187028E+02  6.079263E+02 -7.079153E+01
       147   6  3.484316E+05  4.632336E+00  5.063756E+02 -3.782191E+02  2.338275E+02 -8.859306E+01
       147   7  3.411946E+05 -1.554928E+03 -4.877818E+02 -3.975385E+02  9.799790E+02 -5.546437E+01
       147   8  3.407407E+05 -1.964810E+03 -1.155785E+03  1.163878E+02  6.055324E+02 -7.079148E+01
       147   9  3.404317E+05 -1.992913E+03 -1.484525E+03 -3.635145E+02  2.310811E+02 -8.859304E+01
       147  10  3.556684E+05  2.060056E+03  3.118894E+03 -3.588680E+02  1.200372E-09 -7.848710E-10
       147  11  3.559776E+05  1.840288E+03  2.638697E+03  1.210178E+02  3.117270E-09 -2.314571E-10
       147  12  3.564315E+05  2.002173E+03  2.497271E+03 -3.929238E+02 -5.571320E-09  8.697919E-11
       147  13  3.484315E+05  2.525658E+02  1.315557E+03 -3.782033E+02 -4.316934E-09 -1.697186E-10
       147  14  3.483592E+05 -6.225890E+01  7.414577E+02  1.187028E+02 -1.082166E-08 -3.545036E-10
       147  15  3.484316E+05  4.632313E+00  5.063755E+02 -3.782191E+02  2.299949E-09  3.663480E-10
       147  16  3.411946E+05 -1.554928E+03 -4.877836E+02 -3.975384E+02 -2.222125E-09  1.918909E-10
       147  17  3.407407E+05 -1.964810E+03 -1.155786E+03  1.163878E+02  3.241339E-09 -8.310240E-10
       147  18  3.404317E+05 -1.992913E+03 -1.484525E+03 -3.635145E+02  4.029635E-09  5.248089E-10
       147  19  3.556685E+05  2.060056E+03  3.118896E+03 -3.588681E+02 -9.840615E+02  5.546448E+01
       147  20  3.559776E+05  1.840288E+03  2.638697E+03  1.210178E+02 -6.103203E+02  7.079159E+01
       147  21  3.564315E+05  2.002173E+03  2.497271E+03 -3.929238E+02 -2.365739E+02  8.859308E+01
       147  22  3.484315E+05  2.525660E+02  1.315559E+03 -3.782034E+02 -9.820202E+02  5.546442E+01
       147  23  3.483592E+05 -6.225879E+01  7.414584E+02  1.187028E+02 -6.079263E+02  7.079153E+01
       147  24  3.484316E+05  4.632336E+00  5.063756E+02 -3.782191E+02 -2.338275E+02  8.859306E+01
       147  25  3.411946E+05 -1.554928E+03 -4.877818E+02 -3.975385E+02 -9.799790E+02  5.546437E+01
       147  26  3.407407E+05 -1.964810E+03 -1.155785E+03  1.163878E+02 -6.055324E+02  7.079148E+01
       147  27  3.404317E+05 -1.992913E+03 -1.484525E+03 -3.635145E+02 -2.310811E+02  8.859304E+01
       148   1  3.604312E+05  3.035867E+03  3.438012E+03 -4.015782E+02  1.499304E+02 -9.869256E+01
       148   2  3.608283E+05  3.080635E+03  3.494529E+03  1.548786E+02 -4.808038E+01 -1.158150E+02
       148   3  3.612962E+05  3.297419E+03  3.723336E+03 -4.159035E+02 -2.460901E+02 -1.357584E+02
       148   4  3.484152E+05  3.488527E+01  4.444331E+02 -4.078604E+02  1.476644E+02 -9.869264E+01
       148   5  3.483797E+05 -2.811823E+01  3.944625E+02  1.557581E+02 -5.074938E+01 -1.158151E+02
       148   6  3.484152E+05  8.096675E+01  5.170645E+02 -4.078637E+02 -2.491620E+02 -1.357587E+02
       148   7  3.363993E+05 -2.966107E+03 -2.549157E+03 -4.141425E+02  1.453984E+02 -9.869272E+01
       148   8  3.359312E+05 -3.136883E+03 -2.705615E+03  1.566376E+02 -5.341833E+01 -1.158153E+02
       148   9  3.355343E+05 -3.135498E+03 -2.689219E+03 -3.998240E+02 -2.522338E+02 -1.357589E+02
       148  10  3.604312E+05  3.035867E+03  3.438012E+03 -4.015782E+02 -9.229492E-10  3.115398E-11
       148  11  3.608283E+05  3.080635E+03  3.494529E+03  1.548786E+02  5.477087E-09 -3.458267E-10
       148  12  3.612962E+05  3.297419E+03  3.723335E+03 -4.159035E+02 -3.171493E-09 -3.698204E-10
       148  13  3.484152E+05  3.488526E+01  4.444331E+02 -4.078604E+02  8.877159E-09  3.159760E-10
       148  14  3.483797E+05 -2.811825E+01  3.944624E+02  1.557581E+02 -1.900387E-09  4.890490E-11
       148  15  3.484152E+05  8.096671E+01  5.170644E+02 -4.078637E+02  3.791566E-09  1.100704E-09
       148  16  3.363993E+05 -2.966107E+03 -2.549157E+03 -4.141425E+02 -4.385592E-09  4.299318E-10
       148  17  3.359312E+05 -3.136883E+03 -2.705615E+03  1.566376E+02 -3.475479E-11 -8.611219E-10
       148  18  3.355343E+05 -3.135498E+03 -2.689219E+03 -3.998240E+02 -6.565819E-09  1.027737E-10
       148  19  3.604312E+05  3.035867E+03  3.438012E+03 -4.015782E+02 -1.499304E+02  9.869256E+01
       148  20  3.608283E+05  3.080635E+03  3.494529E+03  1.548786E+02  4.808038E+01  1.158150E+02
       148  21  3.612962E+05  3.297419E+03  3.723336E+03 -4.159035E+02  2.460901E+02  1.357584E+02
       148  22  3.484152E+05  3.488527E+01  4.444331E+02 -4.078604E+02 -1.476644E+02  9.869264E+01
       148  23  3.483797E+05 -2.811823E+01  3.944625E+02  1.557581E+02  5.074938E+01  1.158151E+02
       148  24  3.484152E+05  8.096675E+01  5.170645E+02 -4.078637E+02  2.491620E+02  1.357587E+02
       148  25  3.363993E+05 -2.966107E+03 -2.549157E+03 -4.141425E+02 -1.453984E+02  9.869272E+01
       148  26  3.359312E+05 -3.136883E+03 -2.705615E+03  1.566376E+02  5.341833E+01  1.158153E+02
       148  27  3.355343E+05 -3.135498E+03 -2.689219E+03 -3.998240E+02  2.522338E+02  1.357589E+02
       149   1  3.659919E+05  4.366959E+03  4.976710E+03 -4.236733E+02 -3.481439E+02 -1.483743E+02
       149   2  3.663690E+05  4.376148E+03  5.419597E+03  2.033273E+02 -8.224351E+02 -1.688483E+02
       149   3  3.670117E+05  5.181988E+03  6.371247E+03 -4.997326E+02 -1.296718E+03 -1.875710E+02
       149   4  3.484584E+05 -1.189446E+01  6.089869E+02 -4.529124E+02 -3.512091E+02 -1.483747E+02
       149   5  3.483255E+05 -1.297532E+02  9.263536E+02  2.120844E+02 -8.252359E+02 -1.688488E+02
       149   6  3.484583E+05  5.490074E+02  1.752313E+03 -4.529823E+02 -1.299254E+03 -1.875718E+02
       149   7  3.309252E+05 -4.390771E+03 -3.758759E+03 -4.821506E+02 -3.542743E+02 -1.483751E+02
       149   8  3.302824E+05 -4.635679E+03 -3.566914E+03  2.208412E+02 -8.280367E+02 -1.688494E+02
       149   9  3.299052E+05 -4.083999E+03 -2.866648E+03 -4.062334E+02 -1.301790E+03 -1.875725E+02
       149  10  3.659919E+05  4.366959E+03  4.976709E+03 -4.236734E+02  1.435737E-10  1.601624E-10
       149  11  3.663690E+05  4.376148E+03  5.419595E+03  2.033272E+02  1.788673E-09 -6.183171E-11
       149  12  3.670117E+05  5.181987E+03  6.371244E+03 -4.997328E+02 -2.393337E-09 -1.214168E-09
       149  13  3.484584E+05 -1.189452E+01  6.089867E+02 -4.529124E+02  3.270617E-14  1.181369E-09
       149  14  3.483255E+05 -1.297534E+02  9.263523E+02  2.120843E+02 -2.300089E-09 -1.502186E-11
       149  15  3.484583E+05  5.490069E+02  1.752309E+03 -4.529825E+02  2.608532E-09 -4.137430E-10
       149  16  3.309252E+05 -4.390771E+03 -3.758759E+03 -4.821507E+02  8.688335E-10  9.221302E-11
       149  17  3.302824E+05 -4.635679E+03 -3.566915E+03  2.208411E+02 -7.203516E-11 -1.343327E-09
       149  18  3.299052E+05 -4.083999E+03 -2.866651E+03 -4.062336E+02  4.363615E-09  2.697439E-10
       149  19  3.659919E+05  4.366959E+03  4.976710E+03 -4.236733E+02  3.481439E+02  1.483743E+02
       149  20  3.663690E+05  4.376148E+03  5.419597E+03  2.033273E+02  8.224351E+02  1.688483E+02
       149  21  3.670117E+05  5.181988E+03  6.371247E+03 -4.997326E+02  1.296718E+03  1.875710E+02
       149  22  3.484584E+05 -1.189446E+01  6.089869E+02 -4.529124E+02  3.512091E+02  1.483747E+02
       149  23  3.483255E+05 -1.297532E+02  9.263536E+02  2.120844E+02  8.252359E+02  1.688488E+02
       149  24  3.484583E+05  5.490074E+02  1.752313E+03 -4.529823E+02  1.299254E+03  1.875718E+02
       149  25  3.309252E+05 -4.390771E+03 -3.758759E+03 -4.821506E+02  3.542743E+02  1.483751E+02
       149  26  3.302824E+05 -4.635679E+03 -3.566914E+03  2.208412E+02  8.280367E+02  1.688494E+02
       149  27  3.299052E+05 -4.083999E+03 -2.866648E+03 -4.062334E+02  1.301790E+03  1.875725E+02
       150   1  3.728710E+05  5.906580E+03  8.186997E+03 -3.304260E+02 -1.648194E+03 -2.086793E+02
       150   2  3.727142E+05  5.330228E+03  9.642536E+03  2.125030E+02 -3.480806E+03 -2.380264E+02
       150   3  3.741107E+05  9.977823E+03  1.359848E+04 -8.591762E+02 -5.313456E+03 -2.274758E+02
       150   4  3.487443E+05 -1.188480E+02  2.177263E+03 -5.158675E+02 -1.655211E+03 -2.086804E+02
       150   5  3.479677E+05 -8.494294E+02  3.480655E+03  2.909619E+02 -3.482011E+03 -2.380277E+02
       150   6  3.487435E+05  3.643036E+03  7.280485E+03 -5.168168E+02 -5.308847E+03 -2.274782E+02
       150   7  3.246181E+05 -6.144319E+03 -3.832514E+03 -7.013017E+02 -1.662227E+03 -2.086815E+02
       150   8  3.232217E+05 -7.029133E+03 -2.681272E+03  3.694177E+02 -3.483216E+03 -2.380290E+02
       150   9  3.233769E+05 -2.691798E+03  9.624410E+02 -1.744714E+02 -5.304238E+03 -2.274806E+02
       150  10  3.728710E+05  5.906579E+03  8.186991E+03 -3.304263E+02  4.187575E-09 -9.737939E-10
       150  11  3.727142E+05  5.330225E+03  9.642514E+03  2.125024E+02  8.645259E-09  7.846769E-10
       150  12  3.741107E+05  9.977815E+03  1.359843E+04 -8.591772E+02 -7.302626E-09 -2.436570E-10
       150  13  3.487443E+05 -1.188488E+02  2.177258E+03 -5.158678E+02  4.312731E-09 -1.197414E-10
       150  14  3.479677E+05 -8.494327E+02  3.480632E+03  2.909613E+02 -6.518350E-09  3.359710E-10
       150  15  3.487435E+05  3.643029E+03  7.280432E+03 -5.168178E+02  1.122045E-09 -1.647136E-10
       150  16  3.246181E+05 -6.144320E+03 -3.832520E+03 -7.013020E+02  2.286050E-09  7.590636E-10
       150  17  3.232217E+05 -7.029136E+03 -2.681295E+03  3.694170E+02 -3.060631E-09  2.968978E-10
       150  18  3.233769E+05 -2.691806E+03  9.623881E+02 -1.744724E+02  6.854605E-09 -1.500867E-10
       150  19  3.728710E+05  5.906580E+03  8.186997E+03 -3.304260E+02  1.648194E+03  2.086793E+02
       150  20  3.727142E+05  5.330228E+03  9.642536E+03  2.125030E+02  3.480806E+03  2.380264E+02
       150  21  3.741107E+05  9.977823E+03  1.359848E+04 -8.591762E+02  5.313456E+03  2.274758E+02
       150  22  3.487443E+05 -1.188480E+02  2.177263E+03 -5.158675E+02  1.655211E+03  2.086804E+02
       150  23  3.479677E+05 -8.494294E+02  3.480655E+03  2.909619E+02  3.482011E+03  2.380277E+02
       150  24  3.487435E+05  3.643036E+03  7.280485E+03 -5.168168E+02  5.308847E+03  2.274782E+02
       150  25  3.246181E+05 -6.144319E+03 -3.832514E+03 -7.013017E+02  1.662227E+03  2.086815E+02
       150  26  3.232217E+05 -7.029133E+03 -2.681272E+03  3.694177E+02  3.483216E+03  2.380290E+02
       150  27  3.233769E+05 -2.691798E+03  9.624410E+02 -1.744714E+02  5.304238E+03  2.274806E+02
       151   1  3.827266E+05  7.233971E+03  1.681580E+04  5.864150E+02 -6.733833E+03 -2.914385E+02
       151   2  3.787074E+05  2.641219E+03  2.160237E+04 -2.023479E+02 -1.410171E+04 -3.587550E+02
       151   3  3.842638E+05  3.245438E+04  3.978853E+04 -2.999445E+03 -2.146970E+04 -1.318188E+02
       151   4  3.505259E+05 -8.083727E+02  8.795886E+03 -6.002940E+02 -6.764173E+03 -2.914355E+02
       151   5  3.457395E+05 -5.590286E+03  1.339702E+04  3.986040E+02 -1.408933E+04 -3.587655E+02
       151   6  3.505217E+05  2.402725E+04  3.136858E+04 -6.108251E+02 -2.141458E+04 -1.318784E+02
       151   7  3.183261E+05 -8.850789E+03  7.758990E+02 -1.786941E+03 -6.794511E+03 -2.914324E+02
       151   8  3.127725E+05 -1.382187E+04  5.191584E+03  9.995238E+02 -1.407694E+04 -3.587760E+02
       151   9  3.167807E+05  1.560006E+04  2.294855E+04  1.777665E+03 -2.135946E+04 -1.319377E+02
       151  10  3.827266E+05  7.233959E+03  1.681571E+04  5.864134E+02 -6.535953E-09 -1.150670E-09
       151  11  3.787072E+05  2.641165E+03  2.160200E+04 -2.023520E+02 -2.499786E-09 -1.532251E-09
       151  12  3.842633E+05  3.245425E+04  3.978766E+04 -2.999447E+03  1.422138E-09 -1.754320E-10
       151  13  3.505258E+05 -8.083851E+02  8.795800E+03 -6.002956E+02  3.935810E-09 -1.627954E-09
       151  14  3.457392E+05 -5.590340E+03  1.339665E+04  3.985999E+02 -1.878682E-09  4.205535E-10
       151  15  3.505212E+05  2.402713E+04  3.136772E+04 -6.108274E+02 -1.101152E-09 -1.242552E-10
       151  16  3.183260E+05 -8.850801E+03  7.758122E+02 -1.786943E+03  4.320293E-09 -3.753230E-10
       151  17  3.127723E+05 -1.382193E+04  5.191212E+03  9.995198E+02  7.777413E-09  2.554605E-10
       151  18  3.167802E+05  1.559994E+04  2.294769E+04  1.777662E+03  5.584762E-09 -5.481930E-10
       151  19  3.827266E+05  7.233971E+03  1.681580E+04  5.864150E+02  6.733833E+03  2.914385E+02
       151  20  3.787074E+05  2.641219E+03  2.160237E+04 -2.023479E+02  1.410171E+04  3.587550E+02
       151  21  3.842638E+05  3.245438E+04  3.978853E+04 -2.999445E+03  2.146970E+04  1.318188E+02
       151  22  3.505259E+05 -8.083727E+02  8.795886E+03 -6.002940E+02  6.764173E+03  2.914355E+02
       151  23  3.457395E+05 -5.590286E+03  1.339702E+04  3.986040E+02  1.408933E+04  3.587655E+02
       151  24  3.505217E+05  2.402725E+04  3.136858E+04 -6.108251E+02  2.141458E+04  1.318784E+02
       151  25  3.183261E+05 -8.850789E+03  7.758990E+02 -1.786941E+03  6.794511E+03  2.914324E+02
       151  26  3.127725E+05 -1.382187E+04  5.191584E+03  9.995238E+02  1.407694E+04  3.587760E+02
       151  27  3.167807E+05  1.560006E+04  2.294855E+04  1.777665E+03  2.135946E+04  1.319377E+02
       152   1  2.037214E+06  8.202278E+06  2.057137E+06 -6.565903E+05  3.035003E+04  2.825792E+04
       152   2  1.739456E+06  7.194443E+06  1.790380E+06  1.185817E+05  8.030223E+04 -1.854806E+03
       152   3  1.722083E+06  6.883766E+06  1.737094E+06 -7.948756E+05  4.580825E+04 -3.357578E+04
       152   4  8.419270E+04  3.488123E+05  1.066668E+05 -6.185756E+05  3.045208E+04  1.475720E+04
       152   5 -5.350778E+04 -3.324345E+03  5.669119E+03  2.276057E+05  8.038032E+04 -2.846238E+03
       152   6  8.480213E+04  3.351495E+05  1.096969E+05 -6.161044E+05  4.542569E+04 -2.209911E+04
       152   7 -1.873439E+06 -7.449173E+06 -1.848412E+06 -5.809315E+05  3.055327E+04  1.424543E+03
       152   8 -1.850325E+06 -7.154396E+06 -1.782907E+06  3.356018E+05  8.045867E+04 -3.826013E+03
       152   9 -1.555638E+06 -6.174815E+06 -1.520909E+06 -4.388418E+05  4.504767E+04 -1.074144E+04
       152  10  2.037212E+06  8.202277E+06  2.057133E+06 -6.565910E+05  4.489871E-09 -1.203115E-08
       152  11  1.739449E+06  7.194441E+06  1.790368E+06  1.185818E+05  9.496992E-09 -8.931538E-09
       152  12  1.722080E+06  6.883764E+06  1.737088E+06 -7.948744E+05  1.285114E-08  5.191347E-10
       152  13  8.419165E+04  3.488118E+05  1.066647E+05 -6.185760E+05 -6.719270E-10 -5.220147E-09
       152  14 -5.351472E+04 -3.326089E+03  5.656961E+03  2.276059E+05 -2.590601E-08 -1.031179E-10
       152  15  8.479979E+04  3.351485E+05  1.096921E+05 -6.161036E+05  3.593586E-09 -1.391237E-08
       152  16 -1.873440E+06 -7.449173E+06 -1.848414E+06 -5.809315E+05  1.080461E-09  1.706508E-08
       152  17 -1.850332E+06 -7.154397E+06 -1.782919E+06  3.356021E+05 -1.879041E-09  1.456700E-08
       152  18 -1.555640E+06 -6.174815E+06 -1.520913E+06 -4.388414E+05 -2.676284E-09 -3.906227E-08
       152  19  2.037214E+06  8.202278E+06  2.057137E+06 -6.565903E+05 -3.035003E+04 -2.825792E+04
       152  20  1.739456E+06  7.194443E+06  1.790380E+06  1.185817E+05 -8.030223E+04  1.854806E+03
       152  21  1.722083E+06  6.883766E+06  1.737094E+06 -7.948756E+05 -4.580825E+04  3.357578E+04
       152  22  8.419270E+04  3.488123E+05  1.066668E+05 -6.185756E+05 -3.045208E+04 -1.475720E+04
       152  23 -5.350778E+04 -3.324345E+03  5.669119E+03  2.276057E+05 -8.038032E+04  2.846238E+03
       152  24  8.480213E+04  3.351495E+05  1.096969E+05 -6.161044E+05 -4.542569E+04  2.209911E+04
       152  25 -1.873439E+06 -7.449173E+06 -1.848412E+06 -5.809315E+05 -3.055327E+04 -1.424543E+03
       152  26 -1.850325E+06 -7.154396E+06 -1.782907E+06  3.356018E+05 -8.045867E+04  3.826013E+03
       152  27 -1.555638E+06 -6.174815E+06 -1.520909E+06 -4.388418E+05 -4.504767E+04  1.074144E+04
       153   1  7.617681E+04  4.038624E+05  1.319206E+05 -6.169706E+05  1.492480E+04 -4.732799E+04
       153   2 -1.305074E+05 -1.797179E+05  2.352550E+04  2.293774E+05  3.095467E+02 -1.106570E+05
       153   3 -1.376324E+05 -8.609929E+05 -2.554024E+04 -5.699582E+05 -1.319148E+04 -1.738449E+05
       153   4  1.876012E+04  1.748362E+05  7.582346E+04 -6.092706E+05  1.482387E+04 -4.479908E+04
       153   5 -2.879073E+04  2.243420E+05  1.243211E+05  2.155104E+05  2.204804E+02 -1.083288E+05
       153   6  1.232283E+05  1.757478E+05  2.322481E+05 -6.053057E+05 -1.326695E+04 -1.717811E+05
       153   7 -3.866035E+04 -5.414228E+04  1.972252E+04 -6.015729E+05  1.472298E+04 -4.227110E+04
       153   8  7.291400E+04  6.285501E+05  2.251044E+05  2.016357E+05  1.313379E+02 -1.059989E+05
       153   9  3.840104E+05  1.213466E+06  4.899559E+05 -6.407026E+05 -1.334259E+04 -1.697136E+05
       153  10  7.617597E+04  4.038600E+05  1.319160E+05 -6.169700E+05 -9.251761E-09 -6.354811E-09
       153  11 -1.305107E+05 -1.797311E+05  2.350248E+04  2.293775E+05  1.540208E-09 -1.390450E-08
       153  12 -1.376407E+05 -8.610255E+05 -2.559744E+04 -5.699600E+05 -1.883836E-08 -1.226680E-08
       153  13  1.875935E+04  1.748340E+05  7.581928E+04 -6.092701E+05 -5.707242E-10 -4.218900E-08
       153  14 -2.879388E+04  2.243294E+05  1.242990E+05  2.155104E+05  1.998901E-08  6.586505E-11
       153  15  1.232202E+05  1.757161E+05  2.321923E+05 -6.053075E+05  2.637892E-08 -1.486027E-08
       153  16 -3.866106E+04 -5.414426E+04  1.971876E+04 -6.015724E+05 -1.649842E-09  4.790514E-08
       153  17  7.291098E+04  6.285380E+05  2.250833E+05  2.016357E+05 -2.798674E-08  2.348419E-08
       153  18  3.840025E+05  1.213435E+06  4.899015E+05 -6.407044E+05 -6.101668E-09 -2.847059E-08
       153  19  7.617681E+04  4.038624E+05  1.319206E+05 -6.169706E+05 -1.492480E+04  4.732799E+04
       153  20 -1.305074E+05 -1.797179E+05  2.352550E+04  2.293774E+05 -3.095467E+02  1.106570E+05
       153  21 -1.376324E+05 -8.609929E+05 -2.554024E+04 -5.699582E+05  1.319148E+04  1.738449E+05
       153  22  1.876012E+04  1.748362E+05  7.582346E+04 -6.092706E+05 -1.482387E+04  4.479908E+04
       153  23 -2.879073E+04  2.243420E+05  1.243211E+05  2.155104E+05 -2.204804E+02  1.083288E+05
       153  24  1.232283E+05  1.757478E+05  2.322481E+05 -6.053057E+05  1.326695E+04  1.717811E+05
       153  25 -3.866035E+04 -5.414228E+04  1.972252E+04 -6.015729E+05 -1.472298E+04  4.227110E+04
       153  26  7.291400E+04  6.285501E+05  2.251044E+05  2.016357E+05 -1.313379E+02  1.059989E+05
       153  27  3.840104E+05  1.213466E+06  4.899559E+05 -6.407026E+05  1.334259E+04  1.697136E+05
       154   1 -1.789314E+06 -6.871317E+06 -1.492114E+06 -4.725645E+05 -4.423902E+04 -2.408833E+05
       154   2 -2.227012E+06 -8.094213E+06 -1.607728E+06  3.448009E+05 -8.170868E+04 -4.559194E+05
       154   3 -1.339499E+06 -8.155276E+06 -1.088158E+06 -5.516014E+05 -3.374448E+04 -6.697185E+05
       154   4  4.911101E+04  4.378619E+05  3.381825E+05 -6.230917E+05 -4.456076E+04 -2.304071E+05
       154   5 -2.267299E+05 -1.373308E+05  3.833292E+05  2.321376E+05 -8.155455E+04 -4.602070E+05
       154   6  8.213805E+05  4.532612E+05  1.070084E+06 -6.252201E+05 -3.364019E+04 -6.890087E+05
       154   7  1.883521E+06  7.795794E+06  2.164437E+06 -7.749779E+05 -4.488616E+04 -2.197934E+05
       154   8  1.768774E+06  7.877423E+06  2.369599E+06  1.182331E+05 -8.140062E+04 -4.645191E+05
       154   9  2.976658E+06  9.129515E+06  3.222713E+06 -6.998432E+05 -3.353262E+04 -7.085147E+05
       154  10 -1.789332E+06 -6.871380E+06 -1.492228E+06 -4.725731E+05 -3.168015E-09  4.726422E-09
       154  11 -2.227076E+06 -8.094440E+06 -1.608136E+06  3.447708E+05  9.852440E-10 -1.775796E-09
       154  12 -1.339623E+06 -8.155762E+06 -1.089014E+06 -5.516198E+05  6.434408E-10 -4.579564E-09
       154  13  4.909463E+04  4.378044E+05  3.380790E+05 -6.231000E+05 -2.071559E-08 -3.506996E-08
       154  14 -2.267939E+05 -1.375599E+05  3.829188E+05  2.321074E+05  2.369270E-09  4.884958E-12
       154  15  8.212520E+05  4.527517E+05  1.069190E+06 -6.252388E+05 -2.342121E-09  5.302232E-10
       154  16  1.883506E+06  7.795742E+06  2.164344E+06 -7.749858E+05  1.121551E-08  3.030899E-08
       154  17  1.768710E+06  7.877192E+06  2.369187E+06  1.182029E+05 -4.058175E-09  5.227822E-09
       154  18  2.976525E+06  9.128983E+06  3.221781E+06 -6.998624E+05 -4.859622E-09  5.772740E-09
       154  19 -1.789314E+06 -6.871317E+06 -1.492114E+06 -4.725645E+05  4.423902E+04  2.408833E+05
       154  20 -2.227012E+06 -8.094213E+06 -1.607728E+06  3.448009E+05  8.170868E+04  4.559194E+05
       154  21 -1.339499E+06 -8.155276E+06 -1.088158E+06 -5.516014E+05  3.374448E+04  6.697185E+05
       154  22  4.911101E+04  4.378619E+05  3.381825E+05 -6.230917E+05  4.456076E+04  2.304071E+05
       154  23 -2.267299E+05 -1.373308E+05  3.833292E+05  2.321376E+05  8.155455E+04  4.602070E+05
       154  24  8.213805E+05  4.532612E+05  1.070084E+06 -6.252201E+05  3.364019E+04  6.890087E+05
       154  25  1.883521E+06  7.795794E+06  2.164437E+06 -7.749779E+05  4.488616E+04  2.197934E+05
       154  26  1.768774E+06  7.877423E+06  2.369599E+06  1.182331E+05  8.140062E+04  4.645191E+05
       154  27  2.976658E+06  9.129515E+06  3.222713E+06 -6.998432E+05  3.353262E+04  7.085147E+05
       155   1 -3.918485E+05 -1.683952E+05 -7.847146E+04 -1.880473E+05 -4.653783E+04 -1.751450E+04
       155   2 -3.746604E+05 -9.899758E+04 -3.469565E+04 -1.775941E+05 -2.736228E+04 -1.108460E+04
       155   3 -3.692312E+05 -6.699207E+04 -1.424862E+04 -1.628258E+05 -7.925908E+03 -5.347704E+03
       155   4 -3.981940E+05 -1.326566E+05 -7.250877E+04 -1.505361E+05 -4.710457E+04 -1.773057E+04
       155   5 -3.885234E+05 -8.627769E+04 -3.399387E+04 -1.631156E+05 -2.917748E+04 -1.176610E+04
       155   6 -3.903645E+05 -7.704573E+04 -1.781856E+04 -1.713806E+05 -1.098954E+04 -6.496198E+03
       155   7 -4.045359E+05 -9.691133E+04 -6.654527E+04 -1.130253E+05 -4.767128E+04 -1.794672E+04
       155   8 -4.023854E+05 -7.355653E+04 -3.329186E+04 -1.486373E+05 -3.099262E+04 -1.244772E+04
       155   9 -4.114974E+05 -8.709929E+04 -2.138852E+04 -1.799352E+05 -1.405307E+04 -7.644628E+03
       155  10 -3.918509E+05 -1.683961E+05 -7.847611E+04 -1.880479E+05 -3.547694E-08 -1.098343E-08
       155  11 -3.746612E+05 -9.899791E+04 -3.469729E+04 -1.775944E+05 -7.403244E-09 -1.044050E-09
       155  12 -3.692312E+05 -6.699211E+04 -1.424879E+04 -1.628258E+05  2.514688E-08  1.104135E-08
       155  13 -3.981965E+05 -1.326575E+05 -7.251353E+04 -1.505368E+05 -1.964569E-09 -1.041732E-10
       155  14 -3.885244E+05 -8.627807E+04 -3.399573E+04 -1.631158E+05 -7.184152E-09  3.049620E-11
       155  15 -3.903646E+05 -7.704581E+04 -1.781887E+04 -1.713807E+05  1.174328E-08  1.948017E-09
       155  16 -4.045385E+05 -9.691229E+04 -6.655015E+04 -1.130260E+05  2.513217E-08  1.074249E-08
       155  17 -4.023865E+05 -7.355696E+04 -3.329395E+04 -1.486376E+05 -2.368710E-09  1.431762E-09
       155  18 -4.114976E+05 -8.709941E+04 -2.138900E+04 -1.799353E+05 -1.778532E-08 -7.550694E-09
       155  19 -3.918485E+05 -1.683952E+05 -7.847146E+04 -1.880473E+05  4.653783E+04  1.751450E+04
       155  20 -3.746604E+05 -9.899758E+04 -3.469565E+04 -1.775941E+05  2.736228E+04  1.108460E+04
       155  21 -3.692312E+05 -6.699207E+04 -1.424862E+04 -1.628258E+05  7.925908E+03  5.347704E+03
       155  22 -3.981940E+05 -1.326566E+05 -7.250877E+04 -1.505361E+05  4.710457E+04  1.773057E+04
       155  23 -3.885234E+05 -8.627769E+04 -3.399387E+04 -1.631156E+05  2.917748E+04  1.176610E+04
       155  24 -3.903645E+05 -7.704573E+04 -1.781856E+04 -1.713806E+05  1.098954E+04  6.496198E+03
       155  25 -4.045359E+05 -9.691133E+04 -6.654527E+04 -1.130253E+05  4.767128E+04  1.794672E+04
       155  26 -4.023854E+05 -7.355653E+04 -3.329186E+04 -1.486373E+05  3.099262E+04  1.244772E+04
       155  27 -4.114974E+05 -8.709929E+04 -2.138852E+04 -1.799352E+05  1.405307E+04  7.644628E+03
       156   1 -3.500592E+05 -6.467712E+04 -7.198825E+03 -1.611977E+05 -5.610801E+03 -5.628776E+03
       156   2 -3.294800E+05 -5.188528E+04  3.004322E+03 -1.530463E+05 -1.324680E+03 -5.957700E+03
       156   3 -3.066787E+05 -4.455710E+04  9.955905E+03 -1.484793E+05  2.985589E+03 -6.350458E+03
       156   4 -3.883025E+05 -7.706857E+04 -1.336873E+04 -1.704862E+05 -8.602444E+03 -6.750371E+03
       156   5 -3.892195E+05 -7.289065E+04 -7.014886E+03 -1.692402E+05 -4.431432E+03 -7.122509E+03
       156   6 -3.878920E+05 -7.415367E+04 -3.821421E+03 -1.715787E+05 -2.363585E+02 -7.558541E+03
       156   7 -4.265438E+05 -8.945980E+04 -1.953851E+04 -1.797740E+05 -1.159386E+04 -7.871898E+03
       156   8 -4.489552E+05 -9.389571E+04 -1.703415E+04 -1.854327E+05 -7.537867E+03 -8.287205E+03
       156   9 -4.690991E+05 -1.037498E+05 -1.759911E+04 -1.946756E+05 -3.457892E+03 -8.766463E+03
       156  10 -3.500592E+05 -6.467716E+04 -7.198944E+03 -1.611977E+05 -4.497960E-08 -1.863006E-08
       156  11 -3.294800E+05 -5.188532E+04  3.004252E+03 -1.530463E+05  9.360908E-09 -3.598406E-09
       156  12 -3.066787E+05 -4.455715E+04  9.955812E+03 -1.484793E+05  5.765269E-08  1.810933E-08
       156  13 -3.883026E+05 -7.706864E+04 -1.336895E+04 -1.704862E+05  4.371633E-09  9.504394E-10
       156  14 -3.892195E+05 -7.289071E+04 -7.015019E+03 -1.692402E+05  7.431006E-09 -1.615935E-09
       156  15 -3.878920E+05 -7.415373E+04 -3.821529E+03 -1.715787E+05 -2.273042E-09  1.563537E-09
       156  16 -4.265440E+05 -8.945990E+04 -1.953888E+04 -1.797741E+05  6.337709E-08  2.050482E-08
       156  17 -4.489552E+05 -9.389579E+04 -1.703438E+04 -1.854327E+05  4.486808E-09  1.231546E-09
       156  18 -4.690991E+05 -1.037499E+05 -1.759928E+04 -1.946756E+05 -5.083193E-08 -1.516820E-08
       156  19 -3.500592E+05 -6.467712E+04 -7.198825E+03 -1.611977E+05  5.610801E+03  5.628776E+03
       156  20 -3.294800E+05 -5.188528E+04  3.004322E+03 -1.530463E+05  1.324680E+03  5.957700E+03
       156  21 -3.066787E+05 -4.455710E+04  9.955905E+03 -1.484793E+05 -2.985589E+03  6.350458E+03
       156  22 -3.883025E+05 -7.706857E+04 -1.336873E+04 -1.704862E+05  8.602444E+03  6.750371E+03
       156  23 -3.892195E+05 -7.289065E+04 -7.014886E+03 -1.692402E+05  4.431432E+03  7.122509E+03
       156  24 -3.878920E+05 -7.415367E+04 -3.821421E+03 -1.715787E+05  2.363585E+02  7.558541E+03
       156  25 -4.265438E+05 -8.945980E+04 -1.953851E+04 -1.797740E+05  1.159386E+04  7.871898E+03
       156  26 -4.489552E+05 -9.389571E+04 -1.703415E+04 -1.854327E+05  7.537867E+03  8.287205E+03
       156  27 -4.690991E+05 -1.037498E+05 -1.759911E+04 -1.946756E+05  3.457892E+03  8.766463E+03
       157   1 -2.920728E+05 -3.962962E+04  1.345006E+04 -1.446539E+05  3.895955E+03 -7.200896E+03
       157   2 -2.715981E+05 -2.987932E+04  1.846806E+04 -1.365360E+05  5.357205E+03 -8.696478E+03
       157   3 -2.478285E+05 -2.368871E+04  2.287003E+04 -1.323659E+05  6.820558E+03 -1.019719E+04
       157   4 -3.877202E+05 -7.417146E+04 -2.865338E+03 -1.714963E+05  6.813578E+02 -8.406299E+03
       157   5 -3.893637E+05 -7.235106E+04 -1.562698E+03 -1.695382E+05  2.133170E+03 -9.905581E+03
       157   6 -3.877106E+05 -7.408856E+04 -8.686142E+02 -1.715283E+05  3.587050E+03 -1.141001E+04
       157   7 -4.833579E+05 -1.087124E+05 -1.918093E+04 -1.983348E+05 -2.532712E+03 -9.611503E+03
       157   8 -5.071138E+05 -1.148211E+05 -2.159360E+04 -2.025344E+05 -1.090198E+03 -1.111443E+04
       157   9 -5.275704E+05 -1.244859E+05 -2.460732E+04 -2.106819E+05  3.543498E+02 -1.262252E+04
       157  10 -2.920728E+05 -3.962968E+04  1.344993E+04 -1.446539E+05  6.761803E-09  3.616075E-09
       157  11 -2.715982E+05 -2.987941E+04  1.846786E+04 -1.365359E+05  2.353743E-09  7.615462E-10
       157  12 -2.478286E+05 -2.368883E+04  2.286975E+04 -1.323658E+05 -2.312268E-09  1.461302E-09
       157  13 -3.877202E+05 -7.417154E+04 -2.865472E+03 -1.714963E+05 -4.742417E-10  1.563176E-09
       157  14 -3.893637E+05 -7.235116E+04 -1.562891E+03 -1.695382E+05 -6.210321E-09 -1.473559E-09
       157  15 -3.877107E+05 -7.408871E+04 -8.688830E+02 -1.715282E+05  5.937536E-10 -3.809024E-10
       157  16 -4.833579E+05 -1.087125E+05 -1.918112E+04 -1.983348E+05 -3.417969E-09 -3.787190E-10
       157  17 -5.071138E+05 -1.148213E+05 -2.159384E+04 -2.025344E+05 -9.017897E-09 -3.534300E-09
       157  18 -5.275705E+05 -1.244861E+05 -2.460762E+04 -2.106819E+05  1.060694E-08 -2.302871E-09
       157  19 -2.920728E+05 -3.962962E+04  1.345006E+04 -1.446539E+05 -3.895955E+03  7.200896E+03
       157  20 -2.715981E+05 -2.987932E+04  1.846806E+04 -1.365360E+05 -5.357205E+03  8.696478E+03
       157  21 -2.478285E+05 -2.368871E+04  2.287003E+04 -1.323659E+05 -6.820558E+03  1.019719E+04
       157  22 -3.877202E+05 -7.417146E+04 -2.865338E+03 -1.714963E+05 -6.813578E+02  8.406299E+03
       157  23 -3.893637E+05 -7.235106E+04 -1.562698E+03 -1.695382E+05 -2.133170E+03  9.905581E+03
       157  24 -3.877106E+05 -7.408856E+04 -8.686142E+02 -1.715283E+05 -3.587050E+03  1.141001E+04
       157  25 -4.833579E+05 -1.087124E+05 -1.918093E+04 -1.983348E+05  2.532712E+03  9.611503E+03
       157  26 -5.071138E+05 -1.148211E+05 -2.159360E+04 -2.025344E+05  1.090198E+03  1.111443E+04
       157  27 -5.275704E+05 -1.244859E+05 -2.460732E+04 -2.106819E+05 -3.543498E+02  1.262252E+04
       158   1 -2.335712E+05 -1.857569E+04  2.561101E+04 -1.284081E+05  7.337761E+03 -1.119769E+04
       158   2 -2.131954E+05 -8.943900E+03  2.958564E+04 -1.202770E+05  8.199656E+03 -1.292496E+04
       158   3 -1.894087E+05 -2.750688E+03  3.342103E+04 -1.160852E+05  9.061298E+03 -1.465084E+04
       158   4 -3.876899E+05 -7.409302E+04 -6.573295E+02 -1.715149E+05  4.106053E+03 -1.240995E+04
       158   5 -3.893975E+05 -7.238305E+04 -3.812226E+02 -1.695420E+05  4.970225E+03 -1.413662E+04
       158   6 -3.876957E+05 -7.411252E+04 -2.463298E+02 -1.715089E+05  5.834137E+03 -1.586189E+04
       158   7 -5.417849E+05 -1.296086E+05 -2.692674E+04 -2.146121E+05  8.751622E+02 -1.362191E+04
       158   8 -5.655676E+05 -1.358195E+05 -3.034916E+04 -2.187941E+05  1.741751E+03 -1.534792E+04
       158   9 -5.859409E+05 -1.454705E+05 -3.391473E+04 -2.269160E+05  2.608070E+03 -1.707254E+04
       158  10 -2.335713E+05 -1.857584E+04  2.561067E+04 -1.284080E+05 -3.594812E-08 -1.506426E-08
       158  11 -2.131955E+05 -8.944098E+03  2.958520E+04 -1.202769E+05  1.517210E-08 -4.774306E-09
       158  12 -1.894088E+05 -2.750941E+03  3.342047E+04 -1.160851E+05  4.329417E-08  1.042529E-08
       158  13 -3.876899E+05 -7.409319E+04 -6.576505E+02 -1.715148E+05  9.618878E-09  1.290225E-09
       158  14 -3.893976E+05 -7.238327E+04 -3.816444E+02 -1.695419E+05  2.811288E-09  2.778203E-09
       158  15 -3.876958E+05 -7.411280E+04 -2.468665E+02 -1.715088E+05 -6.289391E-09  3.173742E-09
       158  16 -5.417850E+05 -1.296088E+05 -2.692709E+04 -2.146121E+05  5.401613E-08  1.545770E-08
       158  17 -5.655677E+05 -1.358198E+05 -3.034961E+04 -2.187941E+05  2.908245E-09  3.995895E-10
       158  18 -5.859410E+05 -1.454708E+05 -3.391529E+04 -2.269160E+05 -5.731161E-08 -2.161863E-08
       158  19 -2.335712E+05 -1.857569E+04  2.561101E+04 -1.284081E+05 -7.337761E+03  1.119769E+04
       158  20 -2.131954E+05 -8.943900E+03  2.958564E+04 -1.202770E+05 -8.199656E+03  1.292496E+04
       158  21 -1.894087E+05 -2.750688E+03  3.342103E+04 -1.160852E+05 -9.061298E+03  1.465084E+04
       158  22 -3.876899E+05 -7.409302E+04 -6.573295E+02 -1.715149E+05 -4.106053E+03  1.240995E+04
       158  23 -3.893975E+05 -7.238305E+04 -3.812226E+02 -1.695420E+05 -4.970225E+03  1.413662E+04
       158  24 -3.876957E+05 -7.411252E+04 -2.463298E+02 -1.715089E+05 -5.834137E+03  1.586189E+04
       158  25 -5.417849E+05 -1.296086E+05 -2.692674E+04 -2.146121E+05 -8.751622E+02  1.362191E+04
       158  26 -5.655676E+05 -1.358195E+05 -3.034916E+04 -2.187941E+05 -1.741751E+03  1.534792E+04
       158  27 -5.859409E+05 -1.454705E+05 -3.391473E+04 -2.269160E+05 -2.608070E+03  1.707254E+04
       159   1 -1.752105E+05  2.374480E+03  3.597859E+04 -1.121241E+05  9.491296E+03 -1.568189E+04
       159   2 -1.548898E+05  1.200196E+04  3.968411E+04 -1.040008E+05  1.024784E+04 -1.744021E+04
       159   3 -1.311472E+05  1.820356E+04  4.332860E+04 -9.980544E+04  1.100097E+04 -1.918855E+04
       159   4 -3.876961E+05 -7.411382E+04 -2.148319E+02 -1.715057E+05  6.265032E+03 -1.689278E+04
       159   5 -3.894070E+05 -7.240390E+04 -2.056529E+02 -1.695405E+05  7.039311E+03 -1.864476E+04
       159   6 -3.876998E+05 -7.412326E+04 -2.714791E+02 -1.715032E+05  7.810183E+03 -2.038678E+04
       159   7 -6.001315E+05 -1.505968E+05 -3.640883E+04 -2.308677E+05  3.039975E+03 -1.810321E+04
       159   8 -6.238656E+05 -1.568043E+05 -4.009687E+04 -2.350570E+05  3.832071E+03 -1.984884E+04
       159   9 -6.441851E+05 -1.664446E+05 -4.387404E+04 -2.431740E+05  4.620761E+03 -2.158450E+04
       159  10 -1.752106E+05  2.374192E+03  3.597796E+04 -1.121240E+05  5.809382E-09  2.485373E-09
       159  11 -1.548900E+05  1.200161E+04  3.968334E+04 -1.040007E+05 -4.995621E-09  2.358017E-09
       159  12 -1.311474E+05  1.820313E+04  4.332768E+04 -9.980527E+04 -1.069520E-08 -2.069047E-09
       159  13 -3.876962E+05 -7.411414E+04 -2.154418E+02 -1.715056E+05 -4.469706E-09  3.062824E-09
       159  14 -3.894071E+05 -7.240428E+04 -2.063991E+02 -1.695404E+05 -2.718003E-09  2.814686E-09
       159  15 -3.877000E+05 -7.412373E+04 -2.723745E+02 -1.715031E+05  2.216259E-09  2.874274E-09
       159  16 -6.001316E+05 -1.505972E+05 -3.640947E+04 -2.308676E+05 -2.729478E-08 -1.395838E-08
       159  17 -6.238657E+05 -1.568047E+05 -4.009763E+04 -2.350569E+05 -2.312284E-09 -6.042358E-09
       159  18 -6.441853E+05 -1.664451E+05 -4.387496E+04 -2.431739E+05  1.232481E-08  5.937794E-09
       159  19 -1.752105E+05  2.374480E+03  3.597859E+04 -1.121241E+05 -9.491296E+03  1.568189E+04
       159  20 -1.548898E+05  1.200196E+04  3.968411E+04 -1.040008E+05 -1.024784E+04  1.744021E+04
       159  21 -1.311472E+05  1.820356E+04  4.332860E+04 -9.980544E+04 -1.100097E+04  1.918855E+04
       159  22 -3.876961E+05 -7.411382E+04 -2.148319E+02 -1.715057E+05 -6.265032E+03  1.689278E+04
       159  23 -3.894070E+05 -7.240390E+04 -2.056529E+02 -1.695405E+05 -7.039311E+03  1.864476E+04
       159  24 -3.876998E+05 -7.412326E+04 -2.714791E+02 -1.715032E+05 -7.810183E+03  2.038678E+04
       159  25 -6.001315E+05 -1.505968E+05 -3.640883E+04 -2.308677E+05 -3.039975E+03  1.810321E+04
       159  26 -6.238656E+05 -1.568043E+05 -4.009687E+04 -2.350570E+05 -3.832071E+03  1.984884E+04
       159  27 -6.441851E+05 -1.664446E+05 -4.387404E+04 -2.431740E+05 -4.620761E+03  2.158450E+04
       160   1 -1.169833E+05  2.332303E+04  4.579255E+04 -9.585589E+04  1.144844E+04 -2.020472E+04
       160   2 -9.671133E+04  3.294280E+04  4.931484E+04 -8.774996E+04  1.221462E+04 -2.189353E+04
       160   3 -7.303407E+04  3.913901E+04  5.275131E+04 -8.355520E+04  1.294595E+04 -2.348842E+04
       160   4 -3.877112E+05 -7.412167E+04 -3.362759E+02 -1.715034E+05  8.250408E+03 -2.140588E+04
       160   5 -3.894028E+05 -7.241491E+04 -5.694080E+02 -1.695407E+05  9.185158E+03 -2.303184E+04
       160   6 -3.877229E+05 -7.416534E+04 -1.021920E+03 -1.714895E+05  1.008504E+04 -2.456384E+04
       160   7 -6.583610E+05 -1.715591E+05 -4.646704E+04 -2.471201E+05  5.053865E+03 -2.260649E+04
       160   8 -6.820016E+05 -1.777635E+05 -5.045551E+04 -2.512949E+05  6.157230E+03 -2.416956E+04
       160   9 -7.023030E+05 -1.874586E+05 -5.479692E+04 -2.593811E+05  7.225695E+03 -2.563866E+04
       160  10 -1.169835E+05  2.332256E+04  4.579153E+04 -9.585571E+04  6.296851E-09  2.148563E-09
       160  11 -9.671162E+04  3.294225E+04  4.931366E+04 -8.774975E+04  6.151467E-09  2.485503E-09
       160  12 -7.303440E+04  3.913837E+04  5.274996E+04 -8.355495E+04  5.267936E-09  4.389055E-09
       160  13 -3.877114E+05 -7.412218E+04 -3.372646E+02 -1.715033E+05  3.148268E-09  3.520311E-09
       160  14 -3.894031E+05 -7.241550E+04 -5.705632E+02 -1.695405E+05  7.028889E-09  4.925621E-09
       160  15 -3.877231E+05 -7.416601E+04 -1.023245E+03 -1.714893E+05  1.286024E-08  5.711608E-09
       160  16 -6.583612E+05 -1.715596E+05 -4.646804E+04 -2.471200E+05 -5.281857E-09  4.624922E-09
       160  17 -6.820018E+05 -1.777642E+05 -5.045668E+04 -2.512947E+05 -5.516418E-09  5.901878E-09
       160  18 -7.023032E+05 -1.874594E+05 -5.479825E+04 -2.593810E+05  9.545395E-09  6.984206E-09
       160  19 -1.169833E+05  2.332303E+04  4.579255E+04 -9.585589E+04 -1.144844E+04  2.020472E+04
       160  20 -9.671133E+04  3.294280E+04  4.931484E+04 -8.774996E+04 -1.221462E+04  2.189353E+04
       160  21 -7.303407E+04  3.913901E+04  5.275131E+04 -8.355520E+04 -1.294595E+04  2.348842E+04
       160  22 -3.877112E+05 -7.412167E+04 -3.362759E+02 -1.715034E+05 -8.250408E+03  2.140588E+04
       160  23 -3.894028E+05 -7.241491E+04 -5.694080E+02 -1.695407E+05 -9.185158E+03  2.303184E+04
       160  24 -3.877229E+05 -7.416534E+04 -1.021920E+03 -1.714895E+05 -1.008504E+04  2.456384E+04
       160  25 -6.583610E+05 -1.715591E+05 -4.646704E+04 -2.471201E+05 -5.053865E+03  2.260649E+04
       160  26 -6.820016E+05 -1.777635E+05 -5.045551E+04 -2.512949E+05 -6.157230E+03  2.416956E+04
       160  27 -7.023030E+05 -1.874586E+05 -5.479692E+04 -2.593811E+05 -7.225695E+03  2.563866E+04
       161   1 -5.886021E+04  4.423154E+04  5.502434E+04 -7.968759E+04  1.360173E+04 -2.436110E+04
       161   2 -3.886635E+04  5.394958E+04  5.837542E+04 -7.132961E+04  1.349566E+04 -2.571218E+04
       161   3 -1.556982E+04  5.996441E+04  6.203068E+04 -6.668164E+04  1.301593E+04 -2.606750E+04
       161   4 -3.877959E+05 -7.414819E+04 -1.356544E+03 -1.715014E+05  1.064085E+04 -2.547428E+04
       161   5 -3.893463E+05 -7.264008E+04 -2.483252E+03 -1.694519E+05  1.232421E+04 -2.615387E+04
       161   6 -3.879495E+05 -7.519043E+04 -4.724189E+03 -1.711131E+05  1.363385E+04 -2.583735E+04
       161   7 -7.166203E+05 -1.925187E+05 -5.774143E+04 -2.632708E+05  7.681606E+03 -2.658685E+04
       161   8 -7.396981E+05 -1.992184E+05 -6.334613E+04 -2.675230E+05  1.115346E+04 -2.659529E+04
       161   9 -7.601831E+05 -2.103318E+05 -7.148379E+04 -2.754860E+05  1.425138E+04 -2.560735E+04
       161  10 -5.886057E+04  4.423085E+04  5.502288E+04 -7.968732E+04  8.911361E-09  6.671178E-09
       161  11 -3.886672E+04  5.394882E+04  5.837384E+04 -7.132933E+04  3.983207E-09  1.244058E-10
       161  12 -1.557018E+04  5.996364E+04  6.202909E+04 -6.668137E+04 -1.140731E-08 -1.196826E-09
       161  13 -3.877962E+05 -7.414891E+04 -1.357976E+03 -1.715012E+05  7.421944E-09  3.470050E-09
       161  14 -3.893467E+05 -7.264086E+04 -2.484822E+03 -1.694517E+05  2.543215E-09 -3.116030E-10
       161  15 -3.879498E+05 -7.519119E+04 -4.725793E+03 -1.711128E+05 -4.711062E-09 -3.837674E-10
       161  16 -7.166205E+05 -1.925195E+05 -5.774287E+04 -2.632706E+05  2.539959E-09  2.022322E-09
       161  17 -7.396984E+05 -1.992192E+05 -6.334769E+04 -2.675227E+05  1.646158E-09  8.644791E-10
       161  18 -7.601835E+05 -2.103326E+05 -7.148540E+04 -2.754857E+05  8.098997E-09 -5.204385E-10
       161  19 -5.886021E+04  4.423154E+04  5.502434E+04 -7.968759E+04 -1.360173E+04  2.436110E+04
       161  20 -3.886635E+04  5.394958E+04  5.837542E+04 -7.132961E+04 -1.349566E+04  2.571218E+04
       161  21 -1.556982E+04  5.996441E+04  6.203068E+04 -6.668164E+04 -1.301593E+04  2.606750E+04
       161  22 -3.877959E+05 -7.414819E+04 -1.356544E+03 -1.715014E+05 -1.064085E+04  2.547428E+04
       161  23 -3.893463E+05 -7.264008E+04 -2.483252E+03 -1.694519E+05 -1.232421E+04  2.615387E+04
       161  24 -3.879495E+05 -7.519043E+04 -4.724189E+03 -1.711131E+05 -1.363385E+04  2.583735E+04
       161  25 -7.166203E+05 -1.925187E+05 -5.774143E+04 -2.632708E+05 -7.681606E+03  2.658685E+04
       161  26 -7.396981E+05 -1.992184E+05 -6.334613E+04 -2.675230E+05 -1.115346E+04  2.659529E+04
       161  27 -7.601831E+05 -2.103318E+05 -7.148379E+04 -2.754860E+05 -1.425138E+04  2.560735E+04
       162   1 -7.217332E+02  6.456337E+04  6.399417E+04 -6.395714E+04  1.497768E+04 -2.577602E+04
       162   2  1.429714E+04  7.618515E+04  7.065797E+04 -4.907254E+04  4.163860E+01 -2.557806E+04
       162   3  3.070081E+04  7.691939E+04  8.470976E+04 -3.449987E+04 -1.892454E+04 -1.466123E+04
       162   4 -3.887964E+05 -7.506829E+04 -6.294848E+03 -1.712940E+05  1.449041E+04 -2.596103E+04
       162   5 -3.889692E+05 -7.752315E+04 -1.200993E+04 -1.674559E+05  1.882524E+04 -1.852259E+04
       162   6 -3.915782E+05 -9.468796E+04 -2.561060E+04 -1.639299E+05  1.912931E+04 -3.612994E+02
       162   7 -7.767121E+05 -2.146859E+05 -7.658897E+04 -2.785683E+05  1.400347E+04 -2.614593E+04
       162   8 -7.920607E+05 -2.312109E+05 -9.468287E+04 -2.857648E+05  3.759546E+04 -1.147264E+04
       162   9 -8.136672E+05 -2.662689E+05 -1.359365E+05 -2.932725E+05  5.715378E+04  1.392551E+04
       162  10 -7.221523E+02  6.456260E+04  6.399251E+04 -6.395682E+04 -4.538670E-08 -1.194062E-08
       162  11  1.429696E+04  7.618445E+04  7.065674E+04 -4.907253E+04 -4.569440E-09 -7.305667E-10
       162  12  3.070037E+04  7.691906E+04  8.470868E+04 -3.450010E+04  2.930891E-08  1.127589E-08
       162  13 -3.887968E+05 -7.506907E+04 -6.296509E+03 -1.712937E+05 -5.786116E-09 -5.171961E-10
       162  14 -3.889697E+05 -7.752361E+04 -1.201124E+04 -1.674556E+05  4.172590E-09  6.503958E-10
       162  15 -3.915786E+05 -9.468806E+04 -2.561129E+04 -1.639299E+05  7.880087E-09  1.495325E-09
       162  16 -7.767125E+05 -2.146867E+05 -7.659062E+04 -2.785680E+05  4.148359E-08  1.159424E-08
       162  17 -7.920623E+05 -2.312114E+05 -9.468578E+04 -2.857644E+05  1.715181E-09  2.668923E-09
       162  18 -8.136708E+05 -2.662700E+05 -1.359430E+05 -2.932731E+05 -3.030661E-08 -1.026897E-08
       162  19 -7.217332E+02  6.456337E+04  6.399417E+04 -6.395714E+04 -1.497768E+04  2.577602E+04
       162  20  1.429714E+04  7.618515E+04  7.065797E+04 -4.907254E+04 -4.163860E+01  2.557806E+04
       162  21  3.070081E+04  7.691939E+04  8.470976E+04 -3.449987E+04  1.892454E+04  1.466123E+04
       162  22 -3.887964E+05 -7.506829E+04 -6.294848E+03 -1.712940E+05 -1.449041E+04  2.596103E+04
       162  23 -3.889692E+05 -7.752315E+04 -1.200993E+04 -1.674559E+05 -1.882524E+04  1.852259E+04
       162  24 -3.915782E+05 -9.468796E+04 -2.561060E+04 -1.639299E+05 -1.912931E+04  3.612994E+02
       162  25 -7.767121E+05 -2.146859E+05 -7.658897E+04 -2.785683E+05 -1.400347E+04  2.614593E+04
       162  26 -7.920607E+05 -2.312109E+05 -9.468287E+04 -2.857648E+05 -3.759546E+04  1.147264E+04
       162  27 -8.136672E+05 -2.662689E+05 -1.359365E+05 -2.932725E+05 -5.715378E+04 -1.392551E+04
       163   1 -5.096824E+05 -1.039623E+05 -1.413648E+05 -1.243125E+04 -1.090038E+05 -3.183702E+02
       163   2 -4.854570E+05  4.701603E+04 -4.982012E+04 -3.479942E+03 -7.175928E+04 -8.340503E+02
       163   3 -5.098562E+05  2.263183E+04 -2.635587E+04  5.753657E+03 -3.451617E+04 -7.262571E+02
       163   4 -5.838933E+05 -1.225071E+05 -1.599018E+05 -2.362980E+02 -1.091162E+05 -3.205757E+02
       163   5 -5.595542E+05  2.850106E+04 -6.828076E+04 -4.097680E+02 -7.178605E+04 -8.344330E+02
       163   6 -5.838604E+05  4.120491E+03 -4.480542E+04 -3.010998E+02 -3.445727E+04 -7.258804E+02
       163   7 -6.580988E+05 -1.410519E+05 -1.784392E+05  1.195719E+04 -1.092286E+05 -3.227859E+02
       163   8 -6.336464E+05  9.985714E+03 -8.674180E+04  2.660038E+03 -7.181282E+04 -8.348161E+02
       163   9 -6.578596E+05 -1.439112E+04 -6.325536E+04 -6.355136E+03 -3.439839E+04 -7.255047E+02
       163  10 -5.096952E+05 -1.039655E+05 -1.413872E+05 -1.243128E+04 -4.933922E-09  2.703389E-10
       163  11 -4.854625E+05  4.701464E+04 -4.982981E+04 -3.479990E+03  1.934259E-09 -1.246554E-10
       163  12 -5.098574E+05  2.263151E+04 -2.635811E+04  5.753637E+03 -1.390536E-09 -1.569065E-09
       163  13 -5.839061E+05 -1.225103E+05 -1.599242E+05 -2.363262E+02 -1.937581E-10  6.568139E-10
       163  14 -5.595597E+05  2.849967E+04 -6.829045E+04 -4.098162E+02  1.973815E-09 -1.845062E-10
       163  15 -5.838617E+05  4.120171E+03 -4.480765E+04 -3.011200E+02 -1.507290E-09 -2.641296E-10
       163  16 -6.581116E+05 -1.410551E+05 -1.784617E+05  1.195716E+04  3.063986E-10  3.575043E-10
       163  17 -6.336520E+05  9.984327E+03 -8.675150E+04  2.659990E+03  3.617218E-09 -1.156225E-09
       163  18 -6.578609E+05 -1.439144E+04 -6.325759E+04 -6.355156E+03  2.725809E-09 -8.251754E-10
       163  19 -5.096824E+05 -1.039623E+05 -1.413648E+05 -1.243125E+04  1.090038E+05  3.183702E+02
       163  20 -4.854570E+05  4.701603E+04 -4.982012E+04 -3.479942E+03  7.175928E+04  8.340503E+02
       163  21 -5.098562E+05  2.263183E+04 -2.635587E+04  5.753657E+03  3.451617E+04  7.262571E+02
       163  22 -5.838933E+05 -1.225071E+05 -1.599018E+05 -2.362980E+02  1.091162E+05  3.205757E+02
       163  23 -5.595542E+05  2.850106E+04 -6.828076E+04 -4.097680E+02  7.178605E+04  8.344330E+02
       163  24 -5.838604E+05  4.120491E+03 -4.480542E+04 -3.010998E+02  3.445727E+04  7.258804E+02
       163  25 -6.580988E+05 -1.410519E+05 -1.784392E+05  1.195719E+04  1.092286E+05  3.227859E+02
       163  26 -6.336464E+05  9.985714E+03 -8.674180E+04  2.660038E+03  7.181282E+04  8.348161E+02
       163  27 -6.578596E+05 -1.439112E+04 -6.325536E+04 -6.355136E+03  3.439839E+04  7.255047E+02
       164   1 -5.047674E+05 -1.075989E+03 -1.961844E+04 -1.643413E+03 -2.703505E+04 -6.242935E+02
       164   2 -5.015614E+05  2.165615E+04 -4.239760E+02 -1.210895E+03 -1.776397E+04 -6.858541E+02
       164   3 -5.061586E+05  1.776883E+04  6.088770E+03  1.054885E+03 -8.492850E+03 -6.204756E+02
       164   4 -5.747945E+05 -1.857813E+04 -3.707883E+04  7.932735E+01 -2.705214E+04 -6.243902E+02
       164   5 -5.708877E+05  4.327902E+03 -1.770315E+04 -8.460306E+02 -1.776371E+04 -6.858705E+02
       164   6 -5.747880E+05  6.098522E+02 -1.102223E+04  6.186721E+01 -8.475242E+03 -6.204462E+02
       164   7 -6.448171E+05 -3.608064E+04 -5.453959E+04  1.801872E+03 -2.706922E+04 -6.244871E+02
       164   8 -6.402096E+05 -1.300071E+04 -3.498268E+04 -4.812080E+02 -1.776345E+04 -6.858870E+02
       164   9 -6.434131E+05 -1.654948E+04 -2.813358E+04 -9.310422E+02 -8.457636E+03 -6.204168E+02
       164  10 -5.047682E+05 -1.076186E+03 -1.961981E+04 -1.643427E+03  2.281041E-09 -2.059945E-09
       164  11 -5.015617E+05  2.165607E+04 -4.245704E+02 -1.210905E+03  1.504370E-09  1.140857E-09
       164  12 -5.061586E+05  1.776881E+04  6.088634E+03  1.054881E+03  6.302843E-09  1.576107E-09
       164  13 -5.747953E+05 -1.857833E+04 -3.708021E+04  7.931374E+01 -4.328388E-09 -2.470986E-09
       164  14 -5.708880E+05  4.327817E+03 -1.770374E+04 -8.460404E+02  8.342335E-09 -1.607067E-09
       164  15 -5.747880E+05  6.098325E+02 -1.102236E+04  6.186298E+01  1.783093E-09  1.278325E-10
       164  16 -6.448179E+05 -3.608084E+04 -5.454097E+04  1.801859E+03 -1.687179E-09 -2.216290E-10
       164  17 -6.402100E+05 -1.300080E+04 -3.498327E+04 -4.812178E+02 -5.545568E-09 -1.639340E-09
       164  18 -6.434132E+05 -1.654950E+04 -2.813371E+04 -9.310464E+02  2.054463E-11  2.250135E-09
       164  19 -5.047674E+05 -1.075989E+03 -1.961844E+04 -1.643413E+03  2.703505E+04  6.242935E+02
       164  20 -5.015614E+05  2.165615E+04 -4.239760E+02 -1.210895E+03  1.776397E+04  6.858541E+02
       164  21 -5.061586E+05  1.776883E+04  6.088770E+03  1.054885E+03  8.492850E+03  6.204756E+02
       164  22 -5.747945E+05 -1.857813E+04 -3.707883E+04  7.932735E+01  2.705214E+04  6.243902E+02
       164  23 -5.708877E+05  4.327902E+03 -1.770315E+04 -8.460306E+02  1.776371E+04  6.858705E+02
       164  24 -5.747880E+05  6.098522E+02 -1.102223E+04  6.186721E+01  8.475242E+03  6.204462E+02
       164  25 -6.448171E+05 -3.608064E+04 -5.453959E+04  1.801872E+03  2.706922E+04  6.244871E+02
       164  26 -6.402096E+05 -1.300071E+04 -3.498268E+04 -4.812080E+02  1.776345E+04  6.858870E+02
       164  27 -6.434131E+05 -1.654948E+04 -2.813358E+04 -9.310422E+02  8.457636E+03  6.204168E+02
       165   1 -5.143907E+05  1.193260E+04  5.851961E+03  1.870278E+02 -6.679522E+03 -5.796264E+02
       165   2 -5.149846E+05  1.508083E+04  9.809848E+03 -1.222628E+03 -4.343704E+03 -5.521406E+02
       165   3 -5.168553E+05  1.420296E+04  1.124648E+04  5.843111E+02 -2.007959E+03 -4.814965E+02
       165   4 -5.733379E+05 -2.801653E+03 -8.840048E+03  3.779649E+02 -6.678664E+03 -5.796314E+02
       165   5 -5.726984E+05  6.540461E+02 -4.576065E+03 -1.232183E+03 -4.336832E+03 -5.521347E+02
       165   6 -5.733368E+05  8.238801E+01 -2.837678E+03  3.742844E+02 -1.995068E+03 -4.814794E+02
       165   7 -6.322820E+05 -1.753617E+04 -2.353232E+04  5.688829E+02 -6.677807E+03 -5.796364E+02
       165   8 -6.304092E+05 -1.377299E+04 -1.896223E+04 -1.241737E+03 -4.329960E+03 -5.521287E+02
       165   9 -6.298154E+05 -1.403842E+04 -1.692208E+04  1.642758E+02 -1.982177E+03 -4.814622E+02
       165  10 -5.143908E+05  1.193259E+04  5.851876E+03  1.870247E+02  7.050389E-10  2.183955E-09
       165  11 -5.149847E+05  1.508082E+04  9.809812E+03 -1.222630E+03 -6.383628E-10  2.493671E-09
       165  12 -5.168553E+05  1.420296E+04  1.124648E+04  5.843103E+02 -2.477245E-09  5.631703E-10
       165  13 -5.733380E+05 -2.801666E+03 -8.840132E+03  3.779618E+02 -3.911605E-09 -4.215962E-10
       165  14 -5.726984E+05  6.540407E+02 -4.576101E+03 -1.232185E+03  3.939604E-09  1.809022E-09
       165  15 -5.733368E+05  8.238669E+01 -2.837686E+03  3.742836E+02  3.900115E-09  5.306848E-09
       165  16 -6.322820E+05 -1.753618E+04 -2.353240E+04  5.688798E+02 -3.455057E-09  3.373959E-09
       165  17 -6.304092E+05 -1.377299E+04 -1.896226E+04 -1.241739E+03  3.071324E-09  2.278622E-09
       165  18 -6.298154E+05 -1.403842E+04 -1.692209E+04  1.642750E+02 -4.971141E-09  3.660751E-09
       165  19 -5.143907E+05  1.193260E+04  5.851961E+03  1.870278E+02  6.679522E+03  5.796264E+02
       165  20 -5.149846E+05  1.508083E+04  9.809848E+03 -1.222628E+03  4.343704E+03  5.521406E+02
       165  21 -5.168553E+05  1.420296E+04  1.124648E+04  5.843111E+02  2.007959E+03  4.814965E+02
       165  22 -5.733379E+05 -2.801653E+03 -8.840048E+03  3.779649E+02  6.678664E+03  5.796314E+02
       165  23 -5.726984E+05  6.540461E+02 -4.576065E+03 -1.232183E+03  4.336832E+03  5.521347E+02
       165  24 -5.733368E+05  8.238801E+01 -2.837678E+03  3.742844E+02  1.995068E+03  4.814794E+02
       165  25 -6.322820E+05 -1.753617E+04 -2.353232E+04  5.688829E+02  6.677807E+03  5.796364E+02
       165  26 -6.304092E+05 -1.377299E+04 -1.896223E+04 -1.241737E+03  4.329960E+03  5.521287E+02
       165  27 -6.298154E+05 -1.403842E+04 -1.692208E+04  1.642758E+02  1.982177E+03  4.814622E+02
       166   1 -5.310626E+05  1.009444E+04  8.184352E+03  6.285640E+02 -1.537835E+03 -4.406748E+02
       166   2 -5.325791E+05  1.020915E+04  8.641969E+03 -1.485391E+03 -8.215810E+02 -3.824348E+02
       166   3 -5.343547E+05  9.642508E+03  8.463533E+03  6.913325E+02 -1.053898E+02 -3.021260E+02
       166   4 -5.731102E+05 -4.156261E+02 -2.292883E+03  6.146699E+02 -1.531133E+03 -4.406662E+02
       166   5 -5.729803E+05  1.097239E+02 -1.428815E+03 -1.530964E+03 -8.117461E+02 -3.824201E+02
       166   6 -5.731102E+05 -4.685927E+01 -1.203012E+03  6.140984E+02 -9.241984E+01 -3.021046E+02
       166   7 -6.151562E+05 -1.092582E+04 -1.277025E+04  6.007760E+02 -1.524432E+03 -4.406576E+02
       166   8 -6.133801E+05 -9.989825E+03 -1.149972E+04 -1.576535E+03 -8.019118E+02 -3.824054E+02
       166   9 -6.118643E+05 -9.736339E+03 -1.086967E+04  5.368684E+02 -7.945068E+01 -3.020833E+02
       166  10 -5.310626E+05  1.009444E+04  8.184348E+03  6.285635E+02  1.410705E-09  8.274687E-10
       166  11 -5.325791E+05  1.020915E+04  8.641968E+03 -1.485391E+03 -1.006897E-09  4.688961E-09
       166  12 -5.343547E+05  9.642508E+03  8.463533E+03  6.913325E+02 -4.780952E-09  4.472238E-09
       166  13 -5.731102E+05 -4.156269E+02 -2.292888E+03  6.146693E+02  4.312693E-09  1.937226E-09
       166  14 -5.729803E+05  1.097235E+02 -1.428816E+03 -1.530964E+03  3.455596E-09  2.653534E-09
       166  15 -5.731102E+05 -4.685937E+01 -1.203012E+03  6.140983E+02  5.743574E-09  1.289726E-09
       166  16 -6.151562E+05 -1.092582E+04 -1.277026E+04  6.007754E+02 -1.961275E-09  2.238804E-09
       166  17 -6.133801E+05 -9.989826E+03 -1.149972E+04 -1.576535E+03  5.038658E-09 -2.060992E-09
       166  18 -6.118643E+05 -9.736340E+03 -1.086967E+04  5.368684E+02  9.969965E-09 -5.149706E-10
       166  19 -5.310626E+05  1.009444E+04  8.184352E+03  6.285640E+02  1.537835E+03  4.406748E+02
       166  20 -5.325791E+05  1.020915E+04  8.641969E+03 -1.485391E+03  8.215810E+02  3.824348E+02
       166  21 -5.343547E+05  9.642508E+03  8.463533E+03  6.913325E+02  1.053898E+02  3.021260E+02
       166  22 -5.731102E+05 -4.156261E+02 -2.292883E+03  6.146699E+02  1.531133E+03  4.406662E+02
       166  23 -5.729803E+05  1.097239E+02 -1.428815E+03 -1.530964E+03  8.117461E+02  3.824201E+02
       166  24 -5.731102E+05 -4.685927E+01 -1.203012E+03  6.140984E+02  9.241984E+01  3.021046E+02
       166  25 -6.151562E+05 -1.092582E+04 -1.277025E+04  6.007760E+02  1.524432E+03  4.406576E+02
       166  26 -6.133801E+05 -9.989825E+03 -1.149972E+04 -1.576535E+03  8.019118E+02  3.824054E+02
       166  27 -6.118643E+05 -9.736339E+03 -1.086967E+04  5.368684E+02  7.945068E+01  3.020833E+02
       167   1 -5.521225E+05  5.201018E+03  4.018307E+03  7.601431E+02  1.155785E+02 -2.543594E+02
       167   2 -5.538745E+05  4.886367E+03  3.303576E+03 -1.682090E+03  8.483495E+02 -1.782540E+02
       167   3 -5.559137E+05  3.875060E+03  1.933724E+03  8.203617E+02  1.581106E+03 -9.393986E+01
       167   4 -5.731160E+05 -4.578701E+01 -1.209456E+03  7.593910E+02  1.257500E+02 -2.543419E+02
       167   5 -5.729724E+05  1.121959E+02 -1.457050E+03 -1.712601E+03  8.596822E+02 -1.782338E+02
       167   6 -5.731163E+05 -4.266845E+02 -2.360578E+03  7.601007E+02  1.593602E+03 -9.391692E+01
       167   7 -5.941090E+05 -5.292625E+03 -6.437251E+03  7.586388E+02  1.359211E+02 -2.543244E+02
       167   8 -5.920701E+05 -4.662003E+03 -6.217704E+03 -1.743111E+03  8.710146E+02 -1.782136E+02
       167   9 -5.903186E+05 -4.728451E+03 -6.654903E+03  6.998413E+02  1.606098E+03 -9.389398E+01
       167  10 -5.521225E+05  5.201018E+03  4.018306E+03  7.601431E+02  1.359860E-09  1.731359E-09
       167  11 -5.538745E+05  4.886367E+03  3.303575E+03 -1.682090E+03 -1.360907E-09 -7.267474E-10
       167  12 -5.559137E+05  3.875059E+03  1.933720E+03  8.203618E+02 -9.155266E-10 -2.501482E-09
       167  13 -5.731160E+05 -4.578709E+01 -1.209456E+03  7.593911E+02  1.680366E-08  6.164705E-09
       167  14 -5.729724E+05  1.121956E+02 -1.457051E+03 -1.712601E+03  1.007236E-08  7.111649E-10
       167  15 -5.731163E+05 -4.266852E+02 -2.360583E+03  7.601009E+02  2.482675E-09 -3.765328E-09
       167  16 -5.941090E+05 -5.292625E+03 -6.437251E+03  7.586389E+02  6.438504E-09  3.837855E-09
       167  17 -5.920701E+05 -4.662003E+03 -6.217705E+03 -1.743111E+03  5.664986E-09 -5.687163E-10
       167  18 -5.903186E+05 -4.728452E+03 -6.654908E+03  6.998415E+02  3.274940E-09 -4.382303E-09
       167  19 -5.521225E+05  5.201018E+03  4.018307E+03  7.601431E+02 -1.155785E+02  2.543594E+02
       167  20 -5.538745E+05  4.886367E+03  3.303576E+03 -1.682090E+03 -8.483495E+02  1.782540E+02
       167  21 -5.559137E+05  3.875060E+03  1.933724E+03  8.203617E+02 -1.581106E+03  9.393986E+01
       167  22 -5.731160E+05 -4.578702E+01 -1.209456E+03  7.593910E+02 -1.257500E+02  2.543419E+02
       167  23 -5.729724E+05  1.121959E+02 -1.457050E+03 -1.712601E+03 -8.596822E+02  1.782338E+02
       167  24 -5.731163E+05 -4.266845E+02 -2.360578E+03  7.601007E+02 -1.593602E+03  9.391692E+01
       167  25 -5.941090E+05 -5.292625E+03 -6.437251E+03  7.586388E+02 -1.359211E+02  2.543244E+02
       167  26 -5.920701E+05 -4.662003E+03 -6.217704E+03 -1.743111E+03 -8.710146E+02  1.782136E+02
       167  27 -5.903186E+05 -4.728451E+03 -6.654903E+03  6.998413E+02 -1.606098E+03  9.389398E+01
       168   1 -5.754906E+05 -4.480874E+02 -3.466502E+03  6.416255E+02  2.059189E+03 -4.043506E+01
       168   2 -5.767614E+05 -3.471582E+02 -5.745565E+03 -1.712342E+03  4.480261E+03  4.850928E+01
       168   3 -5.794111E+05 -4.404572E+03 -1.064631E+04  1.047163E+03  6.901345E+03  1.248743E+02
       168   4 -5.733585E+05  8.681470E+01 -2.928846E+03  7.952291E+02  2.072251E+03 -4.041017E+01
       168   5 -5.726699E+05  6.753887E+02 -4.725847E+03 -1.758753E+03  4.491528E+03  4.852979E+01
       168   6 -5.733599E+05 -2.894050E+03 -9.143265E+03  8.007360E+02  6.910824E+03  1.248889E+02
       168   7 -5.712264E+05  6.217165E+02 -2.391191E+03  9.488332E+02  2.085314E+03 -4.038528E+01
       168   8 -5.685784E+05  1.697934E+03 -3.706131E+03 -1.805165E+03  4.502795E+03  4.855030E+01
       168   9 -5.673086E+05 -1.383531E+03 -7.640224E+03  5.543064E+02  6.920303E+03  1.249035E+02
       168  10 -5.754906E+05 -4.480885E+02 -3.466510E+03  6.416256E+02 -1.649592E-09  1.604172E-09
       168  11 -5.767615E+05 -3.471636E+02 -5.745602E+03 -1.712342E+03  1.955462E-09  1.294608E-09
       168  12 -5.794112E+05 -4.404584E+03 -1.064640E+04  1.047163E+03 -5.758946E-09  7.868364E-10
       168  13 -5.733585E+05  8.681355E+01 -2.928854E+03  7.952292E+02 -2.388664E-11 -4.522046E-10
       168  14 -5.726699E+05  6.753833E+02 -4.725885E+03 -1.758753E+03 -4.810381E-09  2.519883E-09
       168  15 -5.733599E+05 -2.894063E+03 -9.143355E+03  8.007353E+02 -1.103453E-08  2.780853E-09
       168  16 -5.712264E+05  6.217153E+02 -2.391199E+03  9.488333E+02  2.741972E-09  3.026420E-10
       168  17 -5.685784E+05  1.697929E+03 -3.706169E+03 -1.805165E+03 -9.876106E-09 -2.588085E-09
       168  18 -5.673086E+05 -1.383544E+03 -7.640314E+03  5.543057E+02  2.386616E-09  1.430125E-09
       168  19 -5.754906E+05 -4.480874E+02 -3.466502E+03  6.416255E+02 -2.059189E+03  4.043506E+01
       168  20 -5.767614E+05 -3.471582E+02 -5.745565E+03 -1.712342E+03 -4.480261E+03 -4.850928E+01
       168  21 -5.794111E+05 -4.404572E+03 -1.064631E+04  1.047163E+03 -6.901345E+03 -1.248743E+02
       168  22 -5.733585E+05  8.681470E+01 -2.928846E+03  7.952291E+02 -2.072251E+03  4.041017E+01
       168  23 -5.726699E+05  6.753887E+02 -4.725847E+03 -1.758753E+03 -4.491528E+03 -4.852979E+01
       168  24 -5.733599E+05 -2.894050E+03 -9.143265E+03  8.007360E+02 -6.910824E+03 -1.248889E+02
       168  25 -5.712264E+05  6.217165E+02 -2.391191E+03  9.488332E+02 -2.085314E+03  4.038528E+01
       168  26 -5.685784E+05  1.697934E+03 -3.706131E+03 -1.805165E+03 -4.502795E+03 -4.855030E+01
       168  27 -5.673086E+05 -1.383531E+03 -7.640224E+03  5.543064E+02 -6.920303E+03 -1.249035E+02
       169   1 -5.999089E+05 -5.632562E+03 -1.765233E+04 -2.818162E+02  8.750594E+03  1.884577E+02
       169   2 -5.976703E+05 -2.241596E+03 -2.500647E+04 -1.269644E+03  1.836874E+04  2.963690E+02
       169   3 -6.035816E+05 -2.638430E+04 -4.551236E+04  2.542936E+03  2.798682E+04  3.224087E+02
       169   4 -5.748629E+05  6.342527E+02 -1.140200E+04  7.157736E+02  8.769738E+03  1.885059E+02
       169   5 -5.707925E+05  4.475395E+03 -1.830773E+04 -1.667367E+03  1.837646E+04  2.963691E+02
       169   6 -5.748697E+05 -1.921451E+04 -3.835686E+04  7.499126E+02  2.798315E+04  3.223191E+02
       169   7 -5.498164E+05  6.901024E+03 -5.151723E+03  1.713403E+03  8.788882E+03  1.885542E+02
       169   8 -5.439142E+05  1.119233E+04 -1.160905E+04 -2.065108E+03  1.838419E+04  2.963692E+02
       169   9 -5.461572E+05 -1.204477E+04 -3.120142E+04 -1.043195E+03  2.797949E+04  3.222294E+02
       169  10 -5.999090E+05 -5.632583E+03 -1.765247E+04 -2.818175E+02 -7.750640E-09  3.469408E-09
       169  11 -5.976706E+05 -2.241687E+03 -2.500711E+04 -1.269648E+03  1.745581E-09  2.708988E-09
       169  12 -6.035824E+05 -2.638451E+04 -4.551383E+04  2.542929E+03 -8.561877E-09  1.404382E-09
       169  13 -5.748630E+05  6.342320E+02 -1.140215E+04  7.157723E+02 -1.030309E-11  1.575870E-09
       169  14 -5.707929E+05  4.475304E+03 -1.830837E+04 -1.667372E+03 -2.633449E-09  2.149379E-09
       169  15 -5.748706E+05 -1.921472E+04 -3.835833E+04  7.499053E+02  1.480126E-09 -8.443854E-10
       169  16 -5.498165E+05  6.901003E+03 -5.151869E+03  1.713402E+03  2.599135E-09  6.173132E-10
       169  17 -5.439145E+05  1.119224E+04 -1.160968E+04 -2.065113E+03 -1.751251E-09 -2.483561E-09
       169  18 -5.461580E+05 -1.204498E+04 -3.120289E+04 -1.043202E+03  3.680479E-10 -3.670755E-09
       169  19 -5.999089E+05 -5.632562E+03 -1.765233E+04 -2.818162E+02 -8.750594E+03 -1.884577E+02
       169  20 -5.976703E+05 -2.241596E+03 -2.500647E+04 -1.269644E+03 -1.836874E+04 -2.963690E+02
       169  21 -6.035816E+05 -2.638430E+04 -4.551236E+04  2.542936E+03 -2.798682E+04 -3.224087E+02
       169  22 -5.748629E+05  6.342527E+02 -1.140200E+04  7.157736E+02 -8.769738E+03 -1.885059E+02
       169  23 -5.707925E+05  4.475395E+03 -1.830773E+04 -1.667367E+03 -1.837646E+04 -2.963691E+02
       169  24 -5.748697E+05 -1.921451E+04 -3.835686E+04  7.499126E+02 -2.798315E+04 -3.223191E+02
       169  25 -5.498164E+05  6.901024E+03 -5.151723E+03  1.713403E+03 -8.788882E+03 -1.885542E+02
       169  26 -5.439142E+05  1.119233E+04 -1.160905E+04 -2.065108E+03 -1.838419E+04 -2.963692E+02
       169  27 -5.461572E+05 -1.204477E+04 -3.120142E+04 -1.043195E+03 -2.797949E+04 -3.222294E+02
       170   1 -6.297262E+05 -7.129703E+03 -5.769595E+04 -5.761135E+03  3.559177E+04  4.433636E+02
       170   2 -6.060911E+05  1.774072E+04 -8.233940E+04  1.699821E+03  7.426834E+04  6.272345E+02
       170   3 -6.328513E+05 -1.388259E+05 -1.775326E+05  1.329366E+04  1.129466E+05  3.499000E+02
       170   4 -5.842454E+05  4.266963E+03 -4.634867E+04  5.115341E+02  3.564393E+04  4.438057E+02
       170   5 -5.590720E+05  2.948086E+04 -7.062701E+04 -1.457988E+03  7.425655E+04  6.268288E+02
       170   6 -5.842793E+05 -1.267241E+05 -1.654069E+05  7.055530E+02  1.128709E+05  3.474855E+02
       170   7 -5.387627E+05  1.566362E+04 -3.500153E+04  6.784663E+03  3.569610E+04  4.442488E+02
       170   8 -5.120510E+05  4.122088E+04 -5.891479E+04 -4.616038E+03  7.424475E+04  6.264232E+02
       170   9 -5.357048E+05 -1.146220E+05 -1.532812E+05 -1.188354E+04  1.127953E+05  3.450743E+02
       170  10 -6.297275E+05 -7.130043E+03 -5.769834E+04 -5.761148E+03 -4.206933E-09  7.362918E-10
       170  11 -6.060970E+05  1.773923E+04 -8.234977E+04  1.699784E+03 -2.772176E-09 -1.290079E-09
       170  12 -6.328650E+05 -1.388293E+05 -1.775566E+05  1.329363E+04 -1.289155E-09  7.546812E-10
       170  13 -5.842468E+05  4.266621E+03 -4.635106E+04  5.115213E+02 -4.025247E-10  2.952147E-09
       170  14 -5.590780E+05  2.947938E+04 -7.063739E+04 -1.458026E+03 -2.010941E-11 -3.979086E-09
       170  15 -5.842930E+05 -1.267276E+05 -1.654308E+05  7.055214E+02 -9.738042E-10  2.867296E-09
       170  16 -5.387640E+05  1.566328E+04 -3.500392E+04  6.784650E+03  9.600070E-09  2.202215E-09
       170  17 -5.120569E+05  4.121940E+04 -5.892516E+04 -4.616076E+03  5.177792E-09  1.208299E-09
       170  18 -5.357184E+05 -1.146254E+05 -1.533052E+05 -1.188358E+04  2.536420E-09 -2.770570E-10
       170  19 -6.297262E+05 -7.129703E+03 -5.769595E+04 -5.761135E+03 -3.559177E+04 -4.433636E+02
       170  20 -6.060911E+05  1.774072E+04 -8.233940E+04  1.699821E+03 -7.426834E+04 -6.272345E+02
       170  21 -6.328513E+05 -1.388259E+05 -1.775326E+05  1.329366E+04 -1.129466E+05 -3.499000E+02
       170  22 -5.842454E+05  4.266963E+03 -4.634867E+04  5.115341E+02 -3.564393E+04 -4.438057E+02
       170  23 -5.590720E+05  2.948086E+04 -7.062701E+04 -1.457988E+03 -7.425655E+04 -6.268288E+02
       170  24 -5.842793E+05 -1.267241E+05 -1.654069E+05  7.055530E+02 -1.128709E+05 -3.474855E+02
       170  25 -5.387627E+05  1.566362E+04 -3.500153E+04  6.784663E+03 -3.569610E+04 -4.442488E+02
       170  26 -5.120510E+05  4.122088E+04 -5.891479E+04 -4.616038E+03 -7.424475E+04 -6.264232E+02
       170  27 -5.357048E+05 -1.146220E+05 -1.532812E+05 -1.188354E+04 -1.127953E+05 -3.450743E+02
       171   1  1.960993E+05  1.114718E+06  2.100473E+05 -9.034481E+04  5.659723E+03  6.438415E+04
       171   2  9.657817E+04  9.948563E+05  1.358738E+05 -4.352673E+04  1.633864E+04  3.276092E+04
       171   3  7.192674E+04  8.978191E+05  1.009806E+05 -5.291185E+04  1.318739E+04  1.133846E+03
       171   4  6.652742E+04  5.939425E+05  8.264776E+04 -6.251381E+04  5.670722E+03  5.168933E+04
       171   5 -4.673535E+03  5.834126E+05  4.077448E+04 -3.443610E+04  1.634193E+04  3.005312E+04
       171   6 -2.708573E+03  5.939843E+05  3.127365E+04 -6.256044E+04  1.318082E+04  8.407414E+03
       171   7 -6.306152E+04  7.341576E+04 -4.477057E+04 -3.470612E+04  5.680590E+03  3.900511E+04
       171   8 -1.059368E+05  1.721254E+05 -5.433603E+04 -2.535150E+04  1.634515E+04  2.734710E+04
       171   9 -7.734993E+04  2.902351E+05 -3.843914E+04 -7.220425E+04  1.317401E+04  1.567745E+04
       171  10  1.960981E+05  1.114713E+06  2.100395E+05 -9.034511E+04  3.412284E-09  1.463475E-08
       171  11  9.657759E+04  9.948551E+05  1.358713E+05 -4.352716E+04  9.540072E-09 -3.093611E-09
       171  12  7.192655E+04  8.978191E+05  1.009803E+05 -5.291187E+04  3.489332E-09 -2.060701E-08
       171  13  6.652667E+04  5.939396E+05  8.264268E+04 -6.251405E+04 -1.566669E-09  3.457499E-10
       171  14 -4.674065E+03  5.834116E+05  4.077229E+04 -3.443650E+04  3.487346E-09  5.026231E-11
       171  15 -2.708778E+03  5.939842E+05  3.127319E+04 -6.256053E+04 -5.535008E-09  1.095774E-09
       171  16 -6.306196E+04  7.341411E+04 -4.477349E+04 -3.470630E+04  2.362033E-09 -1.437097E-08
       171  17 -1.059373E+05  1.721245E+05 -5.433794E+04 -2.535186E+04  2.411623E-09  3.311314E-09
       171  18 -7.735018E+04  2.902348E+05 -3.843993E+04 -7.220442E+04 -2.424449E-09  2.096910E-08
       171  19  1.960993E+05  1.114718E+06  2.100473E+05 -9.034481E+04 -5.659723E+03 -6.438415E+04
       171  20  9.657817E+04  9.948563E+05  1.358738E+05 -4.352673E+04 -1.633864E+04 -3.276092E+04
       171  21  7.192674E+04  8.978191E+05  1.009806E+05 -5.291185E+04 -1.318739E+04 -1.133846E+03
       171  22  6.652742E+04  5.939425E+05  8.264776E+04 -6.251381E+04 -5.670722E+03 -5.168933E+04
       171  23 -4.673535E+03  5.834126E+05  4.077448E+04 -3.443610E+04 -1.634193E+04 -3.005312E+04
       171  24 -2.708573E+03  5.939843E+05  3.127365E+04 -6.256044E+04 -1.318082E+04 -8.407414E+03
       171  25 -6.306152E+04  7.341576E+04 -4.477057E+04 -3.470612E+04 -5.680590E+03 -3.900511E+04
       171  26 -1.059368E+05  1.721254E+05 -5.433603E+04 -2.535150E+04 -1.634515E+04 -2.734710E+04
       171  27 -7.734993E+04  2.902351E+05 -3.843914E+04 -7.220425E+04 -1.317401E+04 -1.567745E+04
       172   1  5.362135E+04  7.908724E+05  7.614196E+04 -6.647711E+04  8.407391E+03  1.111329E+02
       172   2  2.132029E+04  6.795754E+05  5.235926E+04 -3.385920E+04  3.960440E+03 -1.584598E+04
       172   3  7.746381E+03  5.749163E+05  4.360973E+04 -5.774280E+04 -7.043430E+02 -3.180142E+04
       172   4  4.413684E+03  5.907709E+05  3.009552E+04 -6.261370E+04  8.404363E+03  3.248198E+03
       172   5 -1.318083E+03  5.874720E+05  3.119896E+04 -3.435923E+04  3.957062E+03 -1.254963E+04
       172   6  1.165169E+04  5.907726E+05  4.722677E+04 -6.260600E+04 -7.079022E+02 -2.834848E+04
       172   7 -4.479672E+04  3.907064E+05 -1.595353E+04 -5.875154E+04  8.401373E+03  6.384260E+03
       172   8 -2.395704E+04  4.953766E+05  1.003814E+04 -3.485918E+04  3.953678E+03 -9.253764E+03
       172   9  1.555708E+04  6.066293E+05  5.084386E+04 -6.746933E+04 -7.115155E+02 -2.489546E+04
       172  10  5.362127E+04  7.908724E+05  7.614183E+04 -6.647711E+04  3.022844E-09  1.687610E-09
       172  11  2.132020E+04  6.795751E+05  5.235876E+04 -3.385915E+04  7.325611E-09 -1.553071E-09
       172  12  7.746110E+03  5.749152E+05  4.360783E+04 -5.774282E+04  1.214628E-09 -2.226178E-09
       172  13  4.413605E+03  5.907708E+05  3.009537E+04 -6.261372E+04 -1.167151E-09  7.821843E-10
       172  14 -1.318142E+03  5.874719E+05  3.119864E+04 -3.435919E+04  7.013398E-09 -9.245975E-11
       172  15  1.165148E+04  5.907718E+05  4.722526E+04 -6.260602E+04  5.316593E-09  1.186154E-09
       172  16 -4.479680E+04  3.907064E+05 -1.595374E+04 -5.875158E+04 -2.194871E-09 -1.269155E-09
       172  17 -2.395707E+04  4.953765E+05  1.003795E+04 -3.485915E+04  1.817156E-09  1.874011E-09
       172  18  1.555691E+04  6.066286E+05  5.084269E+04 -6.746935E+04  3.254376E-09  2.969439E-09
       172  19  5.362135E+04  7.908724E+05  7.614196E+04 -6.647711E+04 -8.407391E+03 -1.111329E+02
       172  20  2.132029E+04  6.795754E+05  5.235926E+04 -3.385920E+04 -3.960440E+03  1.584598E+04
       172  21  7.746381E+03  5.749163E+05  4.360973E+04 -5.774280E+04  7.043430E+02  3.180142E+04
       172  22  4.413684E+03  5.907709E+05  3.009552E+04 -6.261370E+04 -8.404363E+03 -3.248198E+03
       172  23 -1.318083E+03  5.874720E+05  3.119896E+04 -3.435923E+04 -3.957062E+03  1.254963E+04
       172  24  1.165169E+04  5.907726E+05  4.722677E+04 -6.260600E+04  7.079022E+02  2.834848E+04
       172  25 -4.479672E+04  3.907064E+05 -1.595353E+04 -5.875154E+04 -8.401373E+03 -6.384260E+03
       172  26 -2.395704E+04  4.953766E+05  1.003814E+04 -3.485918E+04 -3.953678E+03  9.253764E+03
       172  27  1.555708E+04  6.066293E+05  5.084386E+04 -6.746933E+04  7.115155E+02  2.489546E+04
       173   1 -3.747713E+04  4.807840E+05  2.869590E+04 -8.578212E+04 -4.968559E+03 -4.300427E+04
       173   2 -6.678645E+04  3.488194E+05  3.597864E+04 -1.348673E+04 -8.781937E+03 -8.350855E+04
       173   3  7.425378E+04  2.646416E+05  1.121979E+05  2.640387E+03 -3.259422E+03 -1.239958E+05
       173   4 -8.178619E+03  6.001816E+05  5.616278E+04 -6.257971E+04 -4.976766E+03 -3.687269E+04
       173   5 -1.087681E+04  5.756970E+05  8.852361E+04 -3.442436E+04 -8.778328E+03 -8.412160E+04
       173   6  1.579012E+05  6.001252E+05  1.944785E+05 -6.242983E+04 -3.239767E+03 -1.313608E+05
       173   7  2.112095E+04  7.195937E+05  8.362915E+04 -3.937280E+04 -4.984515E+03 -3.073994E+04
       173   8  4.503084E+04  8.026230E+05  1.410654E+05 -5.536968E+04 -8.774679E+03 -8.473487E+04
       173   9  2.415562E+05  9.357203E+05  2.767533E+05 -1.275352E+05 -3.218577E+03 -1.387297E+05
       173  10 -3.747766E+04  4.807820E+05  2.869238E+04 -8.578229E+04  1.793573E-09  1.265789E-08
       173  11 -6.678841E+04  3.488119E+05  3.596539E+04 -1.348732E+04  1.897304E-09  3.893800E-09
       173  12  7.424964E+04  2.646251E+05  1.121690E+05  2.640061E+03  1.807028E-09 -4.293679E-09
       173  13 -8.179010E+03  6.001802E+05  5.616018E+04 -6.257986E+04 -3.267545E-09  1.216590E-09
       173  14 -1.087879E+04  5.756894E+05  8.851018E+04 -3.442495E+04  1.738787E-09 -1.969746E-10
       173  15  1.578966E+05  6.001067E+05  1.944461E+05 -6.243017E+04  5.373156E-09  1.031701E-09
       173  16  2.112067E+04  7.195927E+05  8.362733E+04 -3.937292E+04  1.840989E-09 -1.224125E-08
       173  17  4.502883E+04  8.026153E+05  1.410518E+05 -5.537028E+04  7.531130E-09 -3.553890E-09
       173  18  2.415511E+05  9.356997E+05  2.767172E+05 -1.275356E+05 -4.082361E-09  4.900277E-09
       173  19 -3.747713E+04  4.807840E+05  2.869590E+04 -8.578212E+04  4.968559E+03  4.300427E+04
       173  20 -6.678645E+04  3.488194E+05  3.597864E+04 -1.348673E+04  8.781937E+03  8.350855E+04
       173  21  7.425378E+04  2.646416E+05  1.121979E+05  2.640387E+03  3.259422E+03  1.239958E+05
       173  22 -8.178619E+03  6.001816E+05  5.616278E+04 -6.257971E+04  4.976766E+03  3.687269E+04
       173  23 -1.087681E+04  5.756970E+05  8.852361E+04 -3.442436E+04  8.778328E+03  8.412160E+04
       173  24  1.579012E+05  6.001252E+05  1.944785E+05 -6.242983E+04  3.239767E+03  1.313608E+05
       173  25  2.112095E+04  7.195937E+05  8.362915E+04 -3.937280E+04  4.984515E+03  3.073994E+04
       173  26  4.503084E+04  8.026230E+05  1.410654E+05 -5.536968E+04  8.774679E+03  8.473487E+04
       173  27  2.415562E+05  9.357203E+05  2.767533E+05 -1.275352E+05  3.218577E+03  1.387297E+05
       174   1 -4.889308E+04 -2.593498E+04 -4.748218E+04 -9.937396E+03 -6.408965E+04 -1.645270E+03
       174   2 -4.960120E+04  5.934688E+04  2.825340E+03 -4.616207E+03 -4.276634E+04 -4.600077E+03
       174   3 -7.793635E+04  4.517176E+04  1.439439E+04  1.582180E+04 -2.144946E+04 -3.905977E+03
       174   4 -2.456964E+05 -7.500642E+04 -9.631547E+04  7.609534E+03 -6.580699E+04 -1.649716E+03
       174   5 -2.317606E+05  1.403235E+04 -4.165640E+04 -9.177794E+00 -4.317685E+04 -4.601173E+03
       174   6 -2.456879E+05  3.370776E+03 -2.665230E+04  7.489235E+03 -2.055258E+04 -3.904142E+03
       174   7 -4.424638E+05 -1.240796E+05 -1.451515E+05  2.515089E+04 -6.752378E+04 -1.654260E+03
       174   8 -4.138897E+05 -3.128456E+04 -8.614055E+04  4.596484E+03 -4.358723E+04 -4.602275E+03
       174   9 -4.134137E+05 -3.843203E+04 -6.770101E+04 -8.410799E+02 -1.965595E+04 -3.902330E+03
       174  10 -4.889750E+04 -2.593609E+04 -4.748990E+04 -9.937481E+03 -3.977409E-09  2.315430E-09
       174  11 -4.960317E+04  5.934637E+04  2.821863E+03 -4.616365E+03  2.134659E-09  6.424115E-09
       174  12 -7.793685E+04  4.517162E+04  1.439349E+04  1.582173E+04  4.040320E-09  2.752286E-09
       174  13 -2.457010E+05 -7.500758E+04 -9.632362E+04  7.609447E+03 -4.141609E-09 -1.072987E-09
       174  14 -2.317626E+05  1.403182E+04 -4.165995E+04 -9.337811E+00  3.834403E-09 -3.390527E-09
       174  15 -2.456884E+05  3.370646E+03 -2.665313E+04  7.489170E+03 -5.904540E-10  1.437710E-09
       174  16 -4.424687E+05 -1.240808E+05 -1.451601E+05  2.515080E+04  4.473280E-09  1.393693E-09
       174  17 -4.138918E+05 -3.128509E+04 -8.614417E+04  4.596322E+03 -2.427004E-09  5.683709E-09
       174  18 -4.134141E+05 -3.843215E+04 -6.770177E+04 -8.411417E+02 -5.013171E-10 -5.449179E-11
       174  19 -4.889308E+04 -2.593498E+04 -4.748218E+04 -9.937396E+03  6.408965E+04  1.645270E+03
       174  20 -4.960120E+04  5.934688E+04  2.825340E+03 -4.616207E+03  4.276634E+04  4.600077E+03
       174  21 -7.793635E+04  4.517176E+04  1.439439E+04  1.582180E+04  2.144946E+04  3.905977E+03
       174  22 -2.456964E+05 -7.500642E+04 -9.631547E+04  7.609534E+03  6.580699E+04  1.649716E+03
       174  23 -2.317606E+05  1.403235E+04 -4.165640E+04 -9.177794E+00  4.317685E+04  4.601173E+03
       174  24 -2.456879E+05  3.370776E+03 -2.665230E+04  7.489235E+03  2.055258E+04  3.904142E+03
       174  25 -4.424638E+05 -1.240796E+05 -1.451515E+05  2.515089E+04  6.752378E+04  1.654260E+03
       174  26 -4.138897E+05 -3.128456E+04 -8.614055E+04  4.596484E+03  4.358723E+04  4.602275E+03
       174  27 -4.134137E+05 -3.843203E+04 -6.770101E+04 -8.410799E+02  1.965595E+04  3.902330E+03
       175   1 -1.029323E+05  2.473387E+04  1.175242E+04  5.693339E+03 -1.627883E+04 -3.045590E+03
       175   2 -1.156888E+05  3.234403E+04  1.919299E+04 -4.229527E+02 -1.081199E+04 -2.873559E+03
       175   3 -1.323488E+05  2.735669E+04  1.991645E+04  8.813212E+03 -5.346242E+03 -2.314455E+03
       175   4 -2.403687E+05 -9.480952E+03 -2.190480E+04  7.594678E+03 -1.628788E+04 -3.045705E+03
       175   5 -2.384035E+05  1.795339E+03 -1.082278E+04 -9.113091E+01 -1.068284E+04 -2.873348E+03
       175   6 -2.403670E+05  4.486445E+02 -6.554998E+03  7.575768E+03 -5.078769E+03 -2.313912E+03
       175   7 -3.777879E+05 -4.369716E+04 -5.556340E+04  9.495586E+03 -1.629693E+04 -3.045820E+03
       175   8 -3.611044E+05 -2.875447E+04 -4.083964E+04  2.406184E+02 -1.055372E+04 -2.873138E+03
       175   9 -3.483746E+05 -2.646026E+04 -3.302730E+04  6.338535E+03 -4.811343E+03 -2.313371E+03
       175  10 -1.029326E+05  2.473379E+04  1.175190E+04  5.693299E+03 -3.118032E-09  6.899661E-11
       175  11 -1.156889E+05  3.234399E+04  1.919275E+04 -4.229777E+02 -7.661964E-09  2.721247E-09
       175  12 -1.323488E+05  2.735668E+04  1.991638E+04  8.813202E+03  6.173317E-09  5.204194E-09
       175  13 -2.403690E+05 -9.481033E+03 -2.190532E+04  7.594638E+03 -1.844310E-10  5.917997E-09
       175  14 -2.384036E+05  1.795299E+03 -1.082301E+04 -9.115564E+01  1.603859E-09 -1.169689E-08
       175  15 -2.403670E+05  4.486318E+02 -6.555057E+03  7.575759E+03 -2.673799E-09  6.411042E-09
       175  16 -3.777882E+05 -4.369724E+04 -5.556392E+04  9.495546E+03  3.846776E-09 -4.246598E-09
       175  17 -3.611045E+05 -2.875451E+04 -4.083987E+04  2.405939E+02  2.792945E-09 -3.817083E-10
       175  18 -3.483746E+05 -2.646027E+04 -3.302735E+04  6.338526E+03 -7.387453E-09  2.121359E-09
       175  19 -1.029323E+05  2.473387E+04  1.175242E+04  5.693339E+03  1.627883E+04  3.045590E+03
       175  20 -1.156888E+05  3.234403E+04  1.919299E+04 -4.229527E+02  1.081199E+04  2.873559E+03
       175  21 -1.323488E+05  2.735669E+04  1.991645E+04  8.813212E+03  5.346242E+03  2.314455E+03
       175  22 -2.403687E+05 -9.480952E+03 -2.190480E+04  7.594678E+03  1.628788E+04  3.045705E+03
       175  23 -2.384035E+05  1.795339E+03 -1.082278E+04 -9.113091E+01  1.068284E+04  2.873348E+03
       175  24 -2.403670E+05  4.486445E+02 -6.554998E+03  7.575768E+03  5.078769E+03  2.313912E+03
       175  25 -3.777879E+05 -4.369716E+04 -5.556340E+04  9.495586E+03  1.629693E+04  3.045820E+03
       175  26 -3.611044E+05 -2.875447E+04 -4.083964E+04  2.406184E+02  1.055372E+04  2.873138E+03
       175  27 -3.483746E+05 -2.646026E+04 -3.302730E+04  6.338535E+03  4.811343E+03  2.313371E+03
       176   1 -1.623707E+05  1.806628E+04  1.368383E+04  7.517616E+03 -4.204866E+03 -1.942968E+03
       176   2 -1.769011E+05  1.577010E+04  1.251886E+04 -7.469456E+01 -2.829306E+03 -1.441942E+03
       176   3 -1.920704E+05  1.193847E+04  1.005843E+04  7.839905E+03 -1.453938E+03 -8.985984E+02
       176   4 -2.396350E+05 -1.162526E+03 -5.183083E+03  7.618121E+03 -4.032890E+03 -1.942618E+03
       176   5 -2.393140E+05  2.305520E+02 -2.751454E+03 -1.367225E+02 -2.642259E+03 -1.441544E+03
       176   6 -2.396346E+05  8.553722E+01 -1.625811E+03  7.615443E+03 -1.251787E+03 -8.981496E+02
       176   7 -3.168939E+05 -2.039178E+04 -2.405043E+04  7.718609E+03 -3.860936E+03 -1.942268E+03
       176   8 -3.017234E+05 -1.530928E+04 -1.802205E+04 -1.987461E+02 -2.455230E+03 -1.441145E+03
       176   9 -2.871968E+05 -1.176756E+04 -1.331022E+04  7.390998E+03 -1.049651E+03 -8.977008E+02
       176  10 -1.623707E+05  1.806628E+04  1.368379E+04  7.517610E+03  3.146009E-09 -2.955616E-09
       176  11 -1.769011E+05  1.577009E+04  1.251884E+04 -7.469785E+01  2.801347E-09 -3.265699E-09
       176  12 -1.920704E+05  1.193847E+04  1.005842E+04  7.839903E+03 -6.845014E-10 -3.683451E-09
       176  13 -2.396350E+05 -1.162534E+03 -5.183121E+03  7.618114E+03  1.525360E-11 -1.699280E-09
       176  14 -2.393140E+05  2.305479E+02 -2.751471E+03 -1.367256E+02 -1.068731E-09 -4.248823E-09
       176  15 -2.396346E+05  8.553593E+01 -1.625815E+03  7.615442E+03 -8.901102E-09 -1.980840E-09
       176  16 -3.168939E+05 -2.039179E+04 -2.405047E+04  7.718603E+03 -5.967460E-09 -3.007318E-09
       176  17 -3.017234E+05 -1.530928E+04 -1.802207E+04 -1.987490E+02 -7.905547E-09  2.657150E-09
       176  18 -2.871968E+05 -1.176756E+04 -1.331022E+04  7.390997E+03 -2.261713E-09  4.292398E-09
       176  19 -1.623707E+05  1.806628E+04  1.368383E+04  7.517616E+03  4.204866E+03  1.942968E+03
       176  20 -1.769011E+05  1.577010E+04  1.251886E+04 -7.469456E+01  2.829306E+03  1.441942E+03
       176  21 -1.920704E+05  1.193847E+04  1.005843E+04  7.839905E+03  1.453938E+03  8.985984E+02
       176  22 -2.396350E+05 -1.162526E+03 -5.183083E+03  7.618121E+03  4.032890E+03  1.942618E+03
       176  23 -2.393140E+05  2.305520E+02 -2.751454E+03 -1.367225E+02  2.642259E+03  1.441544E+03
       176  24 -2.396346E+05  8.553722E+01 -1.625811E+03  7.615443E+03  1.251787E+03  8.981496E+02
       176  25 -3.168939E+05 -2.039178E+04 -2.405043E+04  7.718609E+03  3.860936E+03  1.942268E+03
       176  26 -3.017234E+05 -1.530928E+04 -1.802205E+04 -1.987461E+02  2.455230E+03  1.441145E+03
       176  27 -2.871968E+05 -1.176756E+04 -1.331022E+04  7.390998E+03  1.049651E+03  8.977008E+02
       177   1 -2.229340E+05  4.010470E+03  2.752264E+03  7.638149E+03 -1.185113E+03 -5.776221E+02
       177   2 -2.377520E+05  4.524145E+02 -2.918840E+02 -1.478111E+02 -8.347381E+02 -4.107412E+01
       177   3 -2.527367E+05 -3.240799E+03 -3.616287E+03  7.626211E+03 -4.843820E+02  4.991756E+02
       177   4 -2.395286E+05 -1.122657E+02 -1.262692E+03  7.628327E+03 -9.929507E+02 -5.771896E+02
       177   5 -2.394450E+05  3.087866E+01 -7.060598E+02 -1.518359E+02 -6.412552E+02 -4.063853E+01
       177   6 -2.395285E+05  3.864775E+01 -4.305978E+02  7.627986E+03 -2.895704E+02  4.996150E+02
       177   7 -2.561230E+05 -4.235022E+03 -5.277666E+03  7.618505E+03 -8.007932E+02 -5.767570E+02
       177   8 -2.411380E+05 -3.906574E+02 -1.120236E+03 -1.558606E+02 -4.477728E+02 -4.020294E+01
       177   9 -2.263202E+05  3.318082E+03  2.755079E+03  7.629761E+03 -9.475464E+01  5.000544E+02
       177  10 -2.229340E+05  4.010469E+03  2.752260E+03  7.638148E+03 -9.279792E-10 -4.382071E-09
       177  11 -2.377520E+05  4.524143E+02 -2.918853E+02 -1.478111E+02 -1.053976E-08  4.861665E-09
       177  12 -2.527367E+05 -3.240799E+03 -3.616288E+03  7.626211E+03  2.155732E-10  7.304107E-11
       177  13 -2.395286E+05 -1.122663E+02 -1.262694E+03  7.628326E+03 -4.318768E-09  1.287368E-09
       177  14 -2.394450E+05  3.087855E+01 -7.060606E+02 -1.518359E+02 -5.343508E-09  2.577371E-09
       177  15 -2.395285E+05  3.864746E+01 -4.305985E+02  7.627986E+03  2.144789E-10 -1.962814E-09
       177  16 -2.561230E+05 -4.235022E+03 -5.277668E+03  7.618504E+03 -1.959380E-09  1.861279E-09
       177  17 -2.411380E+05 -3.906574E+02 -1.120236E+03 -1.558606E+02  1.963651E-09  1.026168E-08
       177  18 -2.263202E+05  3.318081E+03  2.755079E+03  7.629761E+03 -4.065344E-09 -8.106444E-11
       177  19 -2.229340E+05  4.010470E+03  2.752264E+03  7.638149E+03  1.185113E+03  5.776221E+02
       177  20 -2.377520E+05  4.524145E+02 -2.918840E+02 -1.478111E+02  8.347381E+02  4.107412E+01
       177  21 -2.527367E+05 -3.240799E+03 -3.616287E+03  7.626211E+03  4.843820E+02 -4.991756E+02
       177  22 -2.395286E+05 -1.122657E+02 -1.262692E+03  7.628327E+03  9.929507E+02  5.771896E+02
       177  23 -2.394450E+05  3.087867E+01 -7.060598E+02 -1.518359E+02  6.412552E+02  4.063853E+01
       177  24 -2.395285E+05  3.864775E+01 -4.305978E+02  7.627986E+03  2.895704E+02 -4.996150E+02
       177  25 -2.561230E+05 -4.235022E+03 -5.277666E+03  7.618505E+03  8.007932E+02  5.767570E+02
       177  26 -2.411380E+05 -3.906574E+02 -1.120236E+03 -1.558606E+02  4.477728E+02  4.020294E+01
       177  27 -2.263202E+05  3.318082E+03  2.755079E+03  7.629761E+03  9.475464E+01 -5.000544E+02
       178   1 -2.836937E+05 -1.099203E+04 -1.120269E+04  7.540865E+03 -4.155253E+02  8.151337E+02
       178   2 -2.985030E+05 -1.469316E+04 -1.468505E+04 -2.333988E+02 -2.952204E+02  1.354322E+03
       178   3 -3.133994E+05 -1.837293E+04 -1.825658E+04  7.503745E+03 -1.748182E+02  1.886578E+03
       178   4 -2.395113E+05  1.875932E+01 -3.450857E+02  7.617293E+03 -2.203472E+02  8.155681E+02
       178   5 -2.394678E+05  6.833852E+00 -2.393133E+02 -1.383630E+02 -1.025330E+02  1.354736E+03
       178   6 -2.395114E+05  1.666286E+01 -2.210200E+02  7.617296E+03  1.538153E+01  1.886972E+03
       178   7 -1.953271E+05  1.102940E+04  1.051237E+04  7.693726E+03 -2.515516E+01  8.160026E+02
       178   8 -1.804294E+05  1.470657E+04  1.420617E+04 -4.331989E+01  9.017278E+01  1.355149E+03
       178   9 -1.656183E+05  1.840585E+04  1.781414E+04  7.730858E+03  2.056038E+02  1.887365E+03
       178  10 -2.836937E+05 -1.099203E+04 -1.120269E+04  7.540865E+03 -1.076694E-09 -2.705195E-09
       178  11 -2.985030E+05 -1.469316E+04 -1.468505E+04 -2.333984E+02 -1.693251E-09 -4.238926E-09
       178  12 -3.133994E+05 -1.837293E+04 -1.825658E+04  7.503746E+03 -6.253158E-10 -3.220141E-09
       178  13 -2.395113E+05  1.875859E+01 -3.450870E+02  7.617293E+03 -1.721753E-10  5.249917E-09
       178  14 -2.394678E+05  6.831878E+00 -2.393168E+02 -1.383629E+02  3.141587E-09 -2.053590E-09
       178  15 -2.395114E+05  1.665904E+01 -2.210267E+02  7.617296E+03  7.239175E-09 -3.996338E-09
       178  16 -1.953271E+05  1.102940E+04  1.051237E+04  7.693726E+03  2.276176E-09 -2.477972E-09
       178  17 -1.804294E+05  1.470657E+04  1.420616E+04 -4.331998E+01 -5.759566E-09 -8.532218E-09
       178  18 -1.656183E+05  1.840585E+04  1.781413E+04  7.730858E+03  1.659137E-09 -8.788999E-09
       178  19 -2.836937E+05 -1.099203E+04 -1.120269E+04  7.540865E+03  4.155253E+02 -8.151337E+02
       178  20 -2.985030E+05 -1.469316E+04 -1.468505E+04 -2.333988E+02  2.952204E+02 -1.354322E+03
       178  21 -3.133994E+05 -1.837293E+04 -1.825658E+04  7.503745E+03  1.748182E+02 -1.886578E+03
       178  22 -2.395113E+05  1.875932E+01 -3.450857E+02  7.617293E+03  2.203472E+02 -8.155681E+02
       178  23 -2.394678E+05  6.833852E+00 -2.393133E+02 -1.383630E+02  1.025330E+02 -1.354736E+03
       178  24 -2.395114E+05  1.666286E+01 -2.210200E+02  7.617296E+03 -1.538153E+01 -1.886972E+03
       178  25 -1.953271E+05  1.102940E+04  1.051237E+04  7.693726E+03  2.515516E+01 -8.160026E+02
       178  26 -1.804294E+05  1.470657E+04  1.420617E+04 -4.331989E+01 -9.017278E+01 -1.355149E+03
       178  27 -1.656183E+05  1.840585E+04  1.781414E+04  7.730858E+03 -2.056038E+02 -1.887365E+03
       179   1 -3.441720E+05 -2.603408E+04 -2.588706E+04  7.403043E+03 -1.477582E+02  2.206584E+03
       179   2 -3.588328E+05 -2.970227E+04 -2.951950E+04 -2.685052E+02  2.735247E+01  2.743687E+03
       179   3 -3.735869E+05 -3.347178E+04 -3.330101E+04  7.414950E+03  2.027398E+02  3.226222E+03
       179   4 -2.395137E+05  3.617517E+01 -2.309997E+02  7.582425E+03  5.520767E+01  2.206986E+03
       179   5 -2.394688E+05  2.061243E+01 -3.113761E+02 -9.486059E+01  2.107083E+02  2.744019E+03
       179   6 -2.395139E+05 -9.276254E+01 -5.271116E+02  7.582673E+03  3.664894E+02  3.226488E+03
       179   7 -1.348454E+05  2.610562E+04  2.542426E+04  7.761832E+03  2.582077E+02  2.207389E+03
       179   8 -1.200919E+05  2.974244E+04  2.889571E+04  7.881099E+01  3.940993E+02  2.744351E+03
       179   9 -1.054245E+05  3.328492E+04  3.224548E+04  7.750425E+03  5.302744E+02  3.226755E+03
       179  10 -3.441720E+05 -2.603409E+04 -2.588707E+04  7.403043E+03  1.068923E-09 -2.101804E-09
       179  11 -3.588328E+05 -2.970228E+04 -2.951951E+04 -2.685052E+02 -5.470280E-09 -7.306262E-09
       179  12 -3.735869E+05 -3.347179E+04 -3.330103E+04  7.414950E+03  3.352585E-09  5.588222E-12
       179  13 -2.395137E+05  3.616994E+01 -2.310089E+02  7.582425E+03  4.314175E-09  2.606336E-11
       179  14 -2.394688E+05  2.060433E+01 -3.113903E+02 -9.486106E+01  7.545406E-09  2.129310E-09
       179  15 -2.395139E+05 -9.277375E+01 -5.271314E+02  7.582672E+03  1.408903E-09  4.046355E-09
       179  16 -1.348454E+05  2.610561E+04  2.542425E+04  7.761832E+03  3.391731E-09 -5.523377E-10
       179  17 -1.200919E+05  2.974244E+04  2.889569E+04  7.881011E+01  7.912010E-09 -2.709256E-09
       179  18 -1.054245E+05  3.328491E+04  3.224546E+04  7.750424E+03  2.715064E-09  6.664918E-09
       179  19 -3.441720E+05 -2.603408E+04 -2.588706E+04  7.403043E+03  1.477582E+02 -2.206584E+03
       179  20 -3.588328E+05 -2.970227E+04 -2.951950E+04 -2.685052E+02 -2.735247E+01 -2.743687E+03
       179  21 -3.735869E+05 -3.347178E+04 -3.330101E+04  7.414950E+03 -2.027398E+02 -3.226222E+03
       179  22 -2.395137E+05  3.617517E+01 -2.309997E+02  7.582425E+03 -5.520767E+01 -2.206986E+03
       179  23 -2.394688E+05  2.061243E+01 -3.113761E+02 -9.486059E+01 -2.107083E+02 -2.744019E+03
       179  24 -2.395139E+05 -9.276254E+01 -5.271116E+02  7.582673E+03 -3.664894E+02 -3.226488E+03
       179  25 -1.348454E+05  2.610562E+04  2.542426E+04  7.761832E+03 -2.582077E+02 -2.207389E+03
       179  26 -1.200919E+05  2.974244E+04  2.889571E+04  7.881099E+01 -3.940993E+02 -2.744351E+03
       179  27 -1.054245E+05  3.328492E+04  3.224548E+04  7.750425E+03 -5.302744E+02 -3.226755E+03
       180   1 -4.040090E+05 -4.088760E+04 -4.092993E+04  7.193183E+03  1.867823E+02  3.606176E+03
       180   2 -4.182800E+05 -4.437502E+04 -4.483047E+04 -1.956256E+02  9.113696E+02  4.152372E+03
       180   3 -4.329400E+05 -4.907008E+04 -4.950378E+04  7.509273E+03  1.636938E+03  4.212199E+03
       180   4 -2.395764E+05  6.753811E+01 -6.516711E+02  7.523915E+03  4.704320E+02  3.606633E+03
       180   5 -2.393972E+05  1.680723E+02 -1.065848E+03 -2.204298E+01  1.020162E+03  4.152477E+03
       180   6 -2.395768E+05 -9.084422E+02 -2.131142E+03  7.525440E+03  1.570891E+03  4.212013E+03
       180   7 -7.511911E+04  4.102067E+04  3.962461E+04  7.854723E+03  7.541567E+02  3.607090E+03
       180   8 -6.048529E+04  4.470879E+04  4.269644E+04  1.515776E+02  1.128986E+03  4.152582E+03
       180   9 -4.617944E+04  4.725042E+04  4.523875E+04  7.541598E+03  1.504823E+03  4.211827E+03
       180  10 -4.040090E+05 -4.088761E+04 -4.092996E+04  7.193183E+03  8.777629E-09  8.925704E-10
       180  11 -4.182800E+05 -4.437504E+04 -4.483051E+04 -1.956286E+02  4.747463E-09  5.360090E-09
       180  12 -4.329400E+05 -4.907010E+04 -4.950381E+04  7.509268E+03  3.016923E-09 -4.325711E-09
       180  13 -2.395764E+05  6.752408E+01 -6.516960E+02  7.523913E+03  1.716831E-10 -5.426622E-09
       180  14 -2.393972E+05  1.680535E+02 -1.065882E+03 -2.204639E+01  3.150589E-09  2.470547E-09
       180  15 -2.395768E+05 -9.084619E+02 -2.131180E+03  7.525435E+03 -2.108165E-09 -3.006428E-09
       180  16 -7.511912E+04  4.102066E+04  3.962458E+04  7.854721E+03 -9.490671E-09  1.140869E-10
       180  17 -6.048530E+04  4.470878E+04  4.269640E+04  1.515738E+02 -2.365292E-09 -6.655486E-09
       180  18 -4.617945E+04  4.725040E+04  4.523871E+04  7.541593E+03 -6.066587E-09  2.931080E-09
       180  19 -4.040090E+05 -4.088760E+04 -4.092993E+04  7.193183E+03 -1.867823E+02 -3.606176E+03
       180  20 -4.182800E+05 -4.437502E+04 -4.483047E+04 -1.956256E+02 -9.113696E+02 -4.152372E+03
       180  21 -4.329400E+05 -4.907008E+04 -4.950378E+04  7.509273E+03 -1.636938E+03 -4.212199E+03
       180  22 -2.395764E+05  6.753811E+01 -6.516711E+02  7.523915E+03 -4.704320E+02 -3.606633E+03
       180  23 -2.393972E+05  1.680723E+02 -1.065848E+03 -2.204298E+01 -1.020162E+03 -4.152477E+03
       180  24 -2.395768E+05 -9.084422E+02 -2.131142E+03  7.525440E+03 -1.570891E+03 -4.212013E+03
       180  25 -7.511911E+04  4.102067E+04  3.962461E+04  7.854723E+03 -7.541567E+02 -3.607090E+03
       180  26 -6.048529E+04  4.470879E+04  4.269644E+04  1.515776E+02 -1.128986E+03 -4.152582E+03
       180  27 -4.617944E+04  4.725042E+04  4.523875E+04  7.541598E+03 -1.504823E+03 -4.211827E+03
       181   1 -4.631957E+05 -5.521833E+04 -5.717135E+04  6.400113E+03  9.119659E+02  5.196511E+03
       181   2 -4.759121E+05 -5.768324E+04 -6.198631E+04  3.493339E+02  4.758345E+03  5.888004E+03
       181   3 -4.915288E+05 -7.005821E+04 -7.176866E+04  8.965616E+03  8.609600E+03  2.000700E+03
       181   4 -2.400814E+05  3.423271E+02 -2.587312E+03  7.426799E+03  1.983034E+03  5.197919E+03
       181   5 -2.387753E+05  1.348326E+03 -4.056647E+03  9.749214E+01  4.182827E+03  5.887153E+03
       181   6 -2.400826E+05 -7.267735E+03 -9.348308E+03  7.434954E+03  6.387616E+03  1.998344E+03
       181   7 -1.692173E+04  5.589930E+04  5.199309E+04  8.453839E+03  3.054487E+03  5.199329E+03
       181   8 -1.587113E+03  6.037574E+04  5.386892E+04 -1.544617E+02  3.607090E+03  5.886303E+03
       181   9  1.142101E+04  5.551801E+04  5.306734E+04  5.903655E+03  4.164731E+03  1.996000E+03
       181  10 -4.631957E+05 -5.521836E+04 -5.717141E+04  6.400109E+03  3.810941E-09 -2.204145E-09
       181  11 -4.759122E+05 -5.768329E+04 -6.198642E+04  3.493113E+02 -1.216509E-08  6.985045E-10
       181  12 -4.915289E+05 -7.005824E+04 -7.176881E+04  8.965602E+03 -1.863763E-09  3.653154E-09
       181  13 -2.400814E+05  3.422970E+02 -2.587370E+03  7.426791E+03 -4.302040E-09  1.038453E-09
       181  14 -2.387753E+05  1.348284E+03 -4.056745E+03  9.747230E+01  3.656709E-09  2.293623E-09
       181  15 -2.400827E+05 -7.267750E+03 -9.348392E+03  7.434943E+03 -3.467625E-09  1.745985E-09
       181  16 -1.692175E+04  5.589927E+04  5.199303E+04  8.453826E+03 -5.465807E-09  5.640875E-09
       181  17 -1.587136E+03  6.037570E+04  5.386883E+04 -1.544788E+02 -8.889828E-11  4.012002E-09
       181  18  1.142099E+04  5.551800E+04  5.306730E+04  5.903648E+03 -2.585325E-09  6.662518E-10
       181  19 -4.631957E+05 -5.521833E+04 -5.717135E+04  6.400113E+03 -9.119659E+02 -5.196511E+03
       181  20 -4.759121E+05 -5.768324E+04 -6.198631E+04  3.493339E+02 -4.758345E+03 -5.888004E+03
       181  21 -4.915288E+05 -7.005821E+04 -7.176866E+04  8.965616E+03 -8.609600E+03 -2.000700E+03
       181  22 -2.400814E+05  3.423271E+02 -2.587312E+03  7.426799E+03 -1.983034E+03 -5.197919E+03
       181  23 -2.387753E+05  1.348326E+03 -4.056647E+03  9.749214E+01 -4.182827E+03 -5.887153E+03
       181  24 -2.400826E+05 -7.267735E+03 -9.348308E+03  7.434954E+03 -6.387616E+03 -1.998344E+03
       181  25 -1.692173E+04  5.589930E+04  5.199309E+04  8.453839E+03 -3.054487E+03 -5.199329E+03
       181  26 -1.587113E+03  6.037574E+04  5.386892E+04 -1.544617E+02 -3.607090E+03 -5.886303E+03
       181  27  1.142101E+04  5.551801E+04  5.306734E+04  5.903655E+03 -4.164731E+03 -1.996000E+03
       182   1 -3.106877E+05 -1.093656E+06 -3.081375E+05  2.402949E+05 -1.231906E+04 -8.956944E+04
       182   2 -2.002982E+05 -8.282810E+05 -1.925804E+05  1.879804E+05 -3.659312E+04 -3.947931E+04
       182   3 -1.307732E+05 -5.792695E+05 -1.198534E+05  2.080949E+05 -3.231884E+04  1.067168E+04
       182   4 -4.740944E+04 -3.304277E+04 -5.345302E+04  2.128609E+05 -1.236581E+04 -3.885023E+04
       182   5 -6.405037E+03 -2.804354E+04 -2.388672E+04  1.766684E+05 -3.660023E+04 -2.636845E+04
       182   6  3.038014E+02 -3.291228E+04 -1.098325E+04  2.129067E+05 -3.230040E+04 -1.384842E+04
       182   7  2.157911E+05  1.028609E+06  2.011616E+05  1.853799E+05 -1.241702E+04  1.195545E+04
       182   8  1.874474E+05  7.727997E+05  1.447716E+05  1.653417E+05 -3.660781E+04 -1.324093E+04
       182   9  1.313629E+05  5.137316E+05  9.787420E+04  2.177228E+05 -3.228235E+04 -3.838968E+04
       182  10 -3.106900E+05 -1.093665E+06 -3.081528E+05  2.402940E+05 -1.519781E-09  1.845998E-09
       182  11 -2.003001E+05 -8.282831E+05 -1.925859E+05  1.879792E+05 -1.522574E-09 -4.251853E-09
       182  12 -1.307743E+05 -5.792699E+05 -1.198556E+05  2.080952E+05 -1.308746E-08 -1.037127E-08
       182  13 -4.741001E+04 -3.304443E+04 -5.345615E+04  2.128605E+05 -3.105676E-09 -3.522659E-09
       182  14 -6.406661E+03 -2.804464E+04 -2.389054E+04  1.766677E+05  5.628992E-09  6.468044E-09
       182  15  3.026299E+02 -3.291277E+04 -1.098557E+04  2.129063E+05 -8.680541E-09  1.840779E-09
       182  16  2.157909E+05  1.028608E+06  2.011610E+05  1.853800E+05 -4.764520E-09 -3.649527E-10
       182  17  1.874459E+05  7.727992E+05  1.447687E+05  1.653413E+05 -5.734568E-09  7.085392E-10
       182  18  1.313614E+05  5.137298E+05  9.786948E+04  2.177218E+05 -4.250518E-09  9.942576E-09
       182  19 -3.106877E+05 -1.093656E+06 -3.081375E+05  2.402949E+05  1.231906E+04  8.956944E+04
       182  20 -2.002982E+05 -8.282810E+05 -1.925804E+05  1.879804E+05  3.659312E+04  3.947931E+04
       182  21 -1.307732E+05 -5.792695E+05 -1.198534E+05  2.080949E+05  3.231884E+04 -1.067168E+04
       182  22 -4.740944E+04 -3.304277E+04 -5.345302E+04  2.128609E+05  1.236581E+04  3.885023E+04
       182  23 -6.405037E+03 -2.804354E+04 -2.388672E+04  1.766684E+05  3.660023E+04  2.636845E+04
       182  24  3.038014E+02 -3.291228E+04 -1.098325E+04  2.129067E+05  3.230040E+04  1.384842E+04
       182  25  2.157911E+05  1.028609E+06  2.011616E+05  1.853799E+05  1.241702E+04 -1.195545E+04
       182  26  1.874474E+05  7.727997E+05  1.447716E+05  1.653417E+05  3.660781E+04  1.324093E+04
       182  27  1.313629E+05  5.137316E+05  9.787420E+04  2.177228E+05  3.228235E+04  3.838968E+04
       183   1 -9.021852E+04 -3.972296E+05 -7.974832E+04  2.135044E+05 -2.155102E+04  6.256070E+03
       183   2 -2.640598E+04 -1.403187E+05 -1.934288E+04  1.765117E+05 -7.072246E+03  5.740051E+03
       183   3  3.766939E+04  1.169747E+05  4.150099E+04  2.135206E+05  7.748767E+03  5.222599E+03
       183   4 -2.240083E+03 -3.059755E+04 -6.583466E+03  2.132447E+05 -2.153881E+04 -1.262563E+04
       183   5 -2.352247E+02 -3.078853E+04  1.967974E+03  1.762455E+05 -7.060598E+03 -1.359540E+04
       183   6  2.115700E+03 -3.057935E+04  1.127666E+04  2.132472E+05  7.759635E+03 -1.456640E+04
       183   7  8.573031E+04  3.361637E+05  6.657598E+04  2.129849E+05 -2.152658E+04 -3.151826E+04
       183   8  2.593501E+04  7.875394E+04  2.327967E+04  1.759793E+05 -7.048933E+03 -3.293419E+04
       183   9 -3.343915E+04 -1.781118E+05 -1.894735E+04  2.129739E+05  7.770521E+03 -3.435079E+04
       183  10 -9.021903E+04 -3.972298E+05 -7.974927E+04  2.135045E+05 -7.794451E-09  6.131651E-09
       183  11 -2.640604E+04 -1.403187E+05 -1.934304E+04  1.765117E+05 -1.591389E-09 -1.385100E-08
       183  12  3.766932E+04  1.169746E+05  4.150082E+04  2.135206E+05  7.295898E-10 -2.772348E-08
       183  13 -2.240624E+03 -3.059784E+04 -6.584637E+03  2.132445E+05 -3.384897E-09 -2.068528E-09
       183  14 -2.353278E+02 -3.078874E+04  1.967533E+03  1.762454E+05  1.162402E-09  5.556442E-09
       183  15  2.115578E+03 -3.057959E+04  1.127615E+04  2.132473E+05  6.556080E-09  1.052432E-09
       183  16  8.572954E+04  3.361625E+05  6.657325E+04  2.129843E+05 -3.376075E-09 -4.846318E-09
       183  17  2.593466E+04  7.875276E+04  2.327754E+04  1.759792E+05 -1.603477E-09  1.143741E-08
       183  18 -3.343953E+04 -1.781131E+05 -1.894968E+04  2.129741E+05 -4.108775E-10  2.686710E-08
       183  19 -9.021852E+04 -3.972296E+05 -7.974832E+04  2.135044E+05  2.155102E+04 -6.256070E+03
       183  20 -2.640598E+04 -1.403187E+05 -1.934288E+04  1.765117E+05  7.072246E+03 -5.740051E+03
       183  21  3.766939E+04  1.169747E+05  4.150099E+04  2.135206E+05 -7.748767E+03 -5.222599E+03
       183  22 -2.240083E+03 -3.059755E+04 -6.583466E+03  2.132447E+05  2.153881E+04  1.262563E+04
       183  23 -2.352247E+02 -3.078853E+04  1.967974E+03  1.762455E+05  7.060598E+03  1.359540E+04
       183  24  2.115700E+03 -3.057935E+04  1.127666E+04  2.132472E+05 -7.759635E+03  1.456640E+04
       183  25  8.573031E+04  3.361637E+05  6.657598E+04  2.129849E+05  2.152658E+04  3.151826E+04
       183  26  2.593501E+04  7.875394E+04  2.327967E+04  1.759793E+05  7.048933E+03  3.293419E+04
       183  27 -3.343915E+04 -1.781118E+05 -1.894735E+04  2.129739E+05 -7.770521E+03  3.435079E+04
       184   1  7.736942E+04  2.995629E+05  8.237531E+04  2.060852E+05  1.843915E+04  7.649915E+03
       184   2  1.485608E+05  5.474111E+05  1.562049E+05  1.905433E+05  2.529785E+04 -3.975260E+04
       184   3  2.703737E+05  8.143922E+05  2.735809E+05  2.478408E+05  9.117946E+03 -8.720141E+04
       184   4 -1.252629E+03 -2.761548E+04  1.644230E+04  2.129754E+05  1.845393E+04 -1.657368E+04
       184   5  7.482406E+03 -3.456957E+04  3.247982E+04  1.765846E+05  2.529596E+04 -3.353410E+04
       184   6  6.158738E+04 -2.770871E+04  7.095151E+04  2.130288E+05  9.092766E+03 -5.052077E+04
       184   7 -7.988081E+04 -3.546905E+05 -4.949398E+04  2.198619E+05  1.846816E+04 -4.078475E+04
       184   8 -1.336172E+05 -6.162307E+05 -9.126440E+04  1.626392E+05  2.529379E+04 -2.732133E+04
       184   9 -1.472453E+05 -8.691556E+05 -1.317227E+05  1.782642E+05  9.063466E+03 -1.388961E+04
       184  10  7.736904E+04  2.995628E+05  8.237456E+04  2.060851E+05 -1.856969E-09  3.044997E-08
       184  11  1.485597E+05  5.474092E+05  1.562007E+05  1.905441E+05 -2.266296E-09  1.789995E-08
       184  12  2.703716E+05  8.143840E+05  2.735665E+05  2.478414E+05  4.043029E-09  6.543314E-10
       184  13 -1.253068E+03 -2.761587E+04  1.644114E+04  2.129757E+05  1.144262E-08 -2.052771E-09
       184  14  7.481416E+03 -3.457095E+04  3.247651E+04  1.765853E+05  1.647034E-08  5.780139E-09
       184  15  6.158661E+04 -2.771147E+04  7.094656E+04  2.130292E+05  7.497241E-11  2.422653E-09
       184  16 -7.988162E+04 -3.546924E+05 -4.949775E+04  2.198625E+05 -1.814943E-09 -2.971605E-08
       184  17 -1.336181E+05 -6.162317E+05 -9.126701E+04  1.626397E+05 -4.220276E-10 -2.040901E-08
       184  18 -1.472454E+05 -8.691559E+05 -1.317232E+05  1.782643E+05  1.798452E-09  1.022165E-09
       184  19  7.736942E+04  2.995629E+05  8.237531E+04  2.060852E+05 -1.843915E+04 -7.649915E+03
       184  20  1.485608E+05  5.474111E+05  1.562049E+05  1.905433E+05 -2.529785E+04  3.975260E+04
       184  21  2.703737E+05  8.143922E+05  2.735809E+05  2.478408E+05 -9.117946E+03  8.720141E+04
       184  22 -1.252629E+03 -2.761548E+04  1.644230E+04  2.129754E+05 -1.845393E+04  1.657368E+04
       184  23  7.482406E+03 -3.456957E+04  3.247982E+04  1.765846E+05 -2.529596E+04  3.353410E+04
       184  24  6.158738E+04 -2.770871E+04  7.095151E+04  2.130288E+05 -9.092766E+03  5.052077E+04
       184  25 -7.988081E+04 -3.546905E+05 -4.949398E+04  2.198619E+05 -1.846816E+04  4.078475E+04
       184  26 -1.336172E+05 -6.162307E+05 -9.126440E+04  1.626392E+05 -2.529379E+04  2.732133E+04
       184  27 -1.472453E+05 -8.691556E+05 -1.317227E+05  1.782642E+05 -9.063466E+03  1.388961E+04
       185   1  6.705897E+05  2.266873E+05  1.235236E+05  2.500253E+05  5.184272E+04  1.548039E+04
       185   2  6.518336E+05  1.607381E+05  7.821712E+04  2.437485E+05  3.336150E+04 -3.735929E+02
       185   3  6.469530E+05  1.419425E+05  6.037918E+04  2.325370E+05  1.231186E+04 -9.405110E+03
       185   4  4.487013E+05  1.191550E+05  6.035088E+04  1.646275E+05  3.999683E+04  1.101544E+04
       185   5  4.391549E+05  7.284350E+04  2.667702E+04  1.759325E+05  2.873195E+04 -2.118783E+03
       185   6  4.420607E+05  7.226482E+04  1.476277E+04  1.823014E+05  1.489739E+04 -8.431025E+03
       185   7  2.268669E+05  1.163836E+04 -2.824536E+03  7.926212E+04  2.815579E+04  6.553458E+03
       185   8  2.265227E+05 -1.504419E+04 -2.486600E+04  1.081392E+05  2.410416E+04 -3.863150E+03
       185   9  2.372085E+05  2.588135E+03 -3.085672E+04  1.320799E+05  1.748202E+04 -7.457214E+03
       185  10  6.705867E+05  2.266863E+05  1.235181E+05  2.500247E+05  1.613285E-09  6.479511E-10
       185  11  6.518324E+05  1.607378E+05  7.821503E+04  2.437485E+05 -2.852835E-09 -3.387882E-09
       185  12  6.469528E+05  1.419423E+05  6.037873E+04  2.325371E+05 -1.211789E-08 -1.227566E-09
       185  13  4.486996E+05  1.191545E+05  6.034765E+04  1.646271E+05  4.416608E-09 -3.876863E-09
       185  14  4.391540E+05  7.284327E+04  2.667546E+04  1.759326E+05 -4.051648E-09  7.481964E-10
       185  15  4.420604E+05  7.226469E+04  1.476221E+04  1.823015E+05 -1.096598E-08 -1.829779E-09
       185  16  2.268660E+05  1.163810E+04 -2.826106E+03  7.926197E+04 -3.036477E-09 -2.702054E-09
       185  17  2.265220E+05 -1.504436E+04 -2.486712E+04  1.081392E+05  1.420836E-08 -6.877718E-10
       185  18  2.372082E+05  2.587994E+03 -3.085740E+04  1.320800E+05  3.479272E-09 -1.107381E-09
       185  19  6.705897E+05  2.266873E+05  1.235236E+05  2.500253E+05 -5.184272E+04 -1.548039E+04
       185  20  6.518336E+05  1.607381E+05  7.821712E+04  2.437485E+05 -3.336150E+04  3.735929E+02
       185  21  6.469530E+05  1.419425E+05  6.037918E+04  2.325370E+05 -1.231186E+04  9.405110E+03
       185  22  4.487013E+05  1.191550E+05  6.035088E+04  1.646275E+05 -3.999683E+04 -1.101544E+04
       185  23  4.391549E+05  7.284350E+04  2.667702E+04  1.759325E+05 -2.873195E+04  2.118783E+03
       185  24  4.420607E+05  7.226482E+04  1.476277E+04  1.823014E+05 -1.489739E+04  8.431025E+03
       185  25  2.268669E+05  1.163836E+04 -2.824536E+03  7.926212E+04 -2.815579E+04 -6.553458E+03
       185  26  2.265227E+05 -1.504419E+04 -2.486600E+04  1.081392E+05 -2.410416E+04  3.863150E+03
       185  27  2.372085E+05  2.588135E+03 -3.085672E+04  1.320799E+05 -1.748202E+04  7.457214E+03
       186   1  6.252038E+05  1.451073E+05  5.401241E+04  2.319154E+05  1.192368E+04 -8.195838E+03
       186   2  6.081634E+05  1.329466E+05  4.386959E+04  2.238963E+05  8.214904E+03 -8.626757E+03
       186   3  5.873261E+05  1.278972E+05  3.680584E+04  2.211953E+05  4.384238E+03 -8.734520E+03
       186   4  4.401554E+05  7.579536E+04  1.154089E+04  1.800099E+05  1.264614E+04 -7.923878E+03
       186   5  4.419380E+05  7.120835E+04  6.036065E+03  1.777532E+05  9.279860E+03 -8.225587E+03
       186   6  4.398558E+05  7.366520E+04  3.339724E+03  1.808143E+05  5.791572E+03 -8.204141E+03
       186   7  2.551413E+05  6.486257E+03 -3.093291E+04  1.281186E+05  1.336837E+04 -7.652008E+03
       186   8  2.757407E+05  9.472472E+03 -3.179912E+04  1.316215E+05  1.034450E+04 -7.824534E+03
       186   9  2.924081E+05  1.943511E+04 -3.012755E+04  1.404422E+05  7.198534E+03 -7.673899E+03
       186  10  6.252036E+05  1.451072E+05  5.401202E+04  2.319155E+05 -1.208716E-09  1.602222E-09
       186  11  6.081633E+05  1.329465E+05  4.386932E+04  2.238964E+05  4.019488E-10  4.744466E-09
       186  12  5.873261E+05  1.278971E+05  3.680566E+04  2.211953E+05 -1.094390E-09  4.518046E-09
       186  13  4.401552E+05  7.579525E+04  1.154047E+04  1.800100E+05 -9.524327E-09 -4.304261E-09
       186  14  4.419379E+05  7.120826E+04  6.035776E+03  1.777532E+05 -8.977748E-09  5.351076E-09
       186  15  4.398557E+05  7.366512E+04  3.339535E+03  1.808143E+05  3.134835E-09 -6.050228E-10
       186  16  2.551411E+05  6.486146E+03 -3.093336E+04  1.281187E+05 -1.368879E-09 -1.821333E-09
       186  17  2.757406E+05  9.472378E+03 -3.179944E+04  1.316215E+05  4.028454E-09 -2.238993E-09
       186  18  2.924080E+05  1.943503E+04 -3.012776E+04  1.404423E+05  2.768116E-09  2.867801E-09
       186  19  6.252038E+05  1.451073E+05  5.401241E+04  2.319154E+05 -1.192368E+04  8.195838E+03
       186  20  6.081634E+05  1.329466E+05  4.386959E+04  2.238963E+05 -8.214904E+03  8.626757E+03
       186  21  5.873261E+05  1.278972E+05  3.680584E+04  2.211953E+05 -4.384238E+03  8.734520E+03
       186  22  4.401554E+05  7.579536E+04  1.154089E+04  1.800099E+05 -1.264614E+04  7.923878E+03
       186  23  4.419380E+05  7.120835E+04  6.036065E+03  1.777532E+05 -9.279860E+03  8.225587E+03
       186  24  4.398558E+05  7.366520E+04  3.339724E+03  1.808143E+05 -5.791572E+03  8.204141E+03
       186  25  2.551413E+05  6.486257E+03 -3.093291E+04  1.281186E+05 -1.336837E+04  7.652008E+03
       186  26  2.757407E+05  9.472472E+03 -3.179912E+04  1.316215E+05 -1.034450E+04  7.824534E+03
       186  27  2.924081E+05  1.943511E+04 -3.012755E+04  1.404422E+05 -7.198534E+03  7.673899E+03
       187   1  5.724186E+05  1.229047E+05  3.259158E+04  2.173406E+05  3.715796E+03 -8.114903E+03
       187   2  5.557401E+05  1.132532E+05  2.717303E+04  2.092257E+05  2.531068E+03 -7.130698E+03
       187   3  5.341901E+05  1.087214E+05  2.231199E+04  2.068126E+05  1.340939E+03 -6.132646E+03
       187   4  4.397150E+05  7.381621E+04  2.530091E+03  1.806819E+05  5.032451E+03 -7.618637E+03
       187   5  4.421479E+05  7.122223E+04  1.398217E+03  1.778446E+05  3.862529E+03 -6.628747E+03
       187   6  4.397063E+05  7.374522E+04  8.123263E+02  1.807092E+05  2.687185E+03 -5.625018E+03
       187   7  3.070283E+05  2.472879E+04 -2.753277E+04  1.440300E+05  6.348810E+03 -7.122482E+03
       187   8  3.285682E+05  2.919211E+04 -2.437753E+04  1.464687E+05  5.193731E+03 -6.126894E+03
       187   9  3.452314E+05  3.876968E+04 -2.068792E+04  1.546095E+05  4.033208E+03 -5.117474E+03
       187  10  5.724185E+05  1.229046E+05  3.259143E+04  2.173407E+05  9.951511E-09  6.210446E-09
       187  11  5.557401E+05  1.132531E+05  2.717293E+04  2.092257E+05 -4.597090E-09 -2.643235E-09
       187  12  5.341901E+05  1.087214E+05  2.231192E+04  2.068126E+05 -1.187383E-08 -9.831387E-09
       187  13  4.397150E+05  7.381615E+04  2.529934E+03  1.806819E+05 -5.665800E-10  3.930676E-09
       187  14  4.421478E+05  7.122218E+04  1.398107E+03  1.778446E+05 -1.852149E-09  5.783274E-09
       187  15  4.397063E+05  7.374518E+04  8.122533E+02  1.807092E+05 -1.069228E-08  5.916846E-10
       187  16  3.070283E+05  2.472872E+04 -2.753294E+04  1.440301E+05 -1.133881E-08 -5.256543E-09
       187  17  3.285681E+05  2.919207E+04 -2.437766E+04  1.464687E+05  2.242329E-09 -1.289437E-09
       187  18  3.452314E+05  3.876964E+04 -2.068800E+04  1.546095E+05  1.267503E-08 -4.857372E-10
       187  19  5.724186E+05  1.229047E+05  3.259158E+04  2.173406E+05 -3.715796E+03  8.114903E+03
       187  20  5.557401E+05  1.132532E+05  2.717303E+04  2.092257E+05 -2.531068E+03  7.130698E+03
       187  21  5.341901E+05  1.087214E+05  2.231199E+04  2.068126E+05 -1.340939E+03  6.132646E+03
       187  22  4.397150E+05  7.381621E+04  2.530091E+03  1.806819E+05 -5.032451E+03  7.618637E+03
       187  23  4.421479E+05  7.122223E+04  1.398217E+03  1.778446E+05 -3.862529E+03  6.628747E+03
       187  24  4.397063E+05  7.374522E+04  8.123263E+02  1.807092E+05 -2.687185E+03  5.625018E+03
       187  25  3.070283E+05  2.472879E+04 -2.753277E+04  1.440300E+05 -6.348810E+03  7.122482E+03
       187  26  3.285682E+05  2.919211E+04 -2.437753E+04  1.464687E+05 -5.193731E+03  6.126894E+03
       187  27  3.452314E+05  3.876968E+04 -2.068792E+04  1.546095E+05 -4.033208E+03  5.117474E+03
       188   1  5.197131E+05  1.033631E+05  1.873867E+04  2.028255E+05  9.464232E+02 -5.435739E+03
       188   2  5.031372E+05  9.382699E+04  1.428808E+04  1.947178E+05  2.429596E+02 -4.252060E+03
       188   3  4.816014E+05  8.929348E+04  1.000639E+04  1.922968E+05 -4.605228E+02 -3.068548E+03
       188   4  4.396915E+05  7.374675E+04  6.433608E+02  1.806959E+05  2.287265E+03 -4.930103E+03
       188   5  4.421723E+05  7.124638E+04  4.525780E+02  1.778524E+05  1.583647E+03 -3.746432E+03
       188   6  4.396927E+05  7.374866E+04  4.308206E+02  1.806956E+05  8.799988E+02 -2.562926E+03
       188   7  3.596769E+05  4.413110E+04 -1.745222E+04  1.585691E+05  3.627911E+03 -4.424542E+03
       188   8  3.812111E+05  4.866606E+04 -1.338316E+04  1.609886E+05  2.924191E+03 -3.240858E+03
       188   9  3.977856E+05  5.820387E+04 -9.144923E+03  1.690951E+05  2.220430E+03 -2.057338E+03
       188  10  5.197130E+05  1.033630E+05  1.873861E+04  2.028255E+05  2.818514E-09 -8.994551E-10
       188  11  5.031372E+05  9.382697E+04  1.428805E+04  1.947178E+05  1.337054E-09  8.612832E-09
       188  12  4.816014E+05  8.929347E+04  1.000637E+04  1.922968E+05  1.420708E-09 -6.161705E-09
       188  13  4.396915E+05  7.374672E+04  6.433052E+02  1.806959E+05 -4.524052E-09  7.412989E-09
       188  14  4.421723E+05  7.124637E+04  4.525469E+02  1.778524E+05 -8.351288E-09  4.064326E-09
       188  15  4.396927E+05  7.374865E+04  4.308068E+02  1.806956E+05 -2.633537E-09 -2.847308E-09
       188  16  3.596769E+05  4.413107E+04 -1.745228E+04  1.585691E+05 -8.841984E-10 -7.075244E-09
       188  17  3.812111E+05  4.866604E+04 -1.338319E+04  1.609886E+05 -3.497765E-09 -5.114779E-09
       188  18  3.977856E+05  5.820387E+04 -9.144940E+03  1.690951E+05 -4.681676E-09  4.202722E-09
       188  19  5.197131E+05  1.033631E+05  1.873867E+04  2.028255E+05 -9.464232E+02  5.435739E+03
       188  20  5.031372E+05  9.382699E+04  1.428808E+04  1.947178E+05 -2.429596E+02  4.252060E+03
       188  21  4.816014E+05  8.929348E+04  1.000639E+04  1.922968E+05  4.605228E+02  3.068548E+03
       188  22  4.396915E+05  7.374675E+04  6.433608E+02  1.806959E+05 -2.287265E+03  4.930103E+03
       188  23  4.421723E+05  7.124638E+04  4.525780E+02  1.778524E+05 -1.583647E+03  3.746432E+03
       188  24  4.396927E+05  7.374866E+04  4.308206E+02  1.806956E+05 -8.799988E+02  2.562926E+03
       188  25  3.596769E+05  4.413110E+04 -1.745222E+04  1.585691E+05 -3.627911E+03  4.424542E+03
       188  26  3.812111E+05  4.866606E+04 -1.338316E+04  1.609886E+05 -2.924191E+03  3.240858E+03
       188  27  3.977856E+05  5.820387E+04 -9.144923E+03  1.690951E+05 -2.220430E+03  2.057338E+03
       189   1  4.671854E+05  8.393212E+04  6.652400E+03  1.883179E+05 -8.138643E+02 -2.358802E+03
       189   2  4.506168E+05  7.440488E+04  2.623093E+03  1.802235E+05 -1.639877E+03 -1.222503E+03
       189   3  4.291113E+05  6.988166E+04 -1.144849E+03  1.778133E+05 -2.465647E+03 -8.678124E+01
       189   4  4.396979E+05  7.374815E+04  4.751678E+02  1.806954E+05  5.260593E+02 -1.853385E+03
       189   5  4.421662E+05  7.124419E+04  7.003151E+02  1.778541E+05 -3.005955E+02 -7.173233E+02
       189   6  4.396974E+05  7.374429E+04  1.187306E+03  1.806969E+05 -1.127017E+03  4.181576E+02
       189   7  4.122112E+05  6.356425E+04 -5.702103E+03  1.730732E+05  1.865918E+03 -1.347993E+03
       189   8  4.337158E+05  6.808352E+04 -1.222452E+03  1.754847E+05  1.038662E+03 -2.121525E+02
       189   9  4.502836E+05  7.760691E+04  3.519445E+03  1.835804E+05  2.116283E+02  9.231024E+02
       189  10  4.671854E+05  8.393211E+04  6.652388E+03  1.883179E+05 -1.834273E-08 -1.539013E-08
       189  11  4.506167E+05  7.440487E+04  2.623085E+03  1.802235E+05 -1.040629E-08 -1.001900E-08
       189  12  4.291113E+05  6.988166E+04 -1.144861E+03  1.778133E+05  3.470586E-09 -4.960977E-09
       189  13  4.396979E+05  7.374815E+04  4.751608E+02  1.806954E+05 -4.926198E-09  2.054361E-09
       189  14  4.421662E+05  7.124419E+04  7.003139E+02  1.778541E+05 -1.193614E-08 -4.300628E-09
       189  15  4.396974E+05  7.374429E+04  1.187304E+03  1.806969E+05 -9.020380E-09  1.886113E-09
       189  16  4.122112E+05  6.356425E+04 -5.702113E+03  1.730732E+05  1.241896E-08  9.034015E-09
       189  17  4.337158E+05  6.808352E+04 -1.222454E+03  1.754847E+05  9.856992E-10  1.631741E-09
       189  18  4.502836E+05  7.760691E+04  3.519443E+03  1.835804E+05 -1.379363E-08 -1.322391E-08
       189  19  4.671854E+05  8.393212E+04  6.652400E+03  1.883179E+05  8.138643E+02  2.358802E+03
       189  20  4.506168E+05  7.440488E+04  2.623093E+03  1.802235E+05  1.639877E+03  1.222503E+03
       189  21  4.291113E+05  6.988166E+04 -1.144849E+03  1.778133E+05  2.465647E+03  8.678124E+01
       189  22  4.396979E+05  7.374815E+04  4.751678E+02  1.806954E+05 -5.260593E+02  1.853385E+03
       189  23  4.421662E+05  7.124419E+04  7.003151E+02  1.778541E+05  3.005955E+02  7.173233E+02
       189  24  4.396974E+05  7.374429E+04  1.187306E+03  1.806969E+05  1.127017E+03 -4.181576E+02
       189  25  4.122112E+05  6.356425E+04 -5.702103E+03  1.730732E+05 -1.865918E+03  1.347993E+03
       189  26  4.337158E+05  6.808352E+04 -1.222452E+03  1.754847E+05 -1.038662E+03  2.121525E+02
       189  27  4.502836E+05  7.760691E+04  3.519445E+03  1.835804E+05 -2.116283E+02 -9.231024E+02
       190   1  4.147053E+05  6.453773E+04 -4.168811E+03  1.738834E+05 -2.975231E+03  5.645965E+02
       190   2  3.980346E+05  5.497946E+04 -7.194882E+03  1.657567E+05 -4.835464E+03  1.307379E+03
       190   3  3.766307E+05  5.063227E+04 -9.139205E+03  1.633170E+05 -6.691631E+03  2.039659E+03
       190   4  4.397353E+05  7.373681E+04  1.561205E+03  1.807178E+05 -1.633375E+03  1.070743E+03
       190   5  4.421111E+05  7.120536E+04  2.794748E+03  1.778457E+05 -3.504841E+03  1.809253E+03
       190   6  4.397558E+05  7.388733E+04  5.118985E+03  1.806606E+05 -5.372281E+03  2.537245E+03
       190   7  4.647662E+05  8.293599E+04  7.291230E+03  1.875525E+05 -2.914525E+02  1.576914E+03
       190   8  4.861897E+05  8.743147E+04  1.278430E+04  1.899356E+05 -2.174111E+03  2.311167E+03
       190   9  5.028849E+05  9.714270E+04  1.937693E+04  1.980059E+05 -4.052786E+03  3.034885E+03
       190  10  4.147052E+05  6.453773E+04 -4.168828E+03  1.738834E+05  3.978246E-09 -3.923902E-09
       190  11  3.980346E+05  5.497945E+04 -7.194929E+03  1.657567E+05  1.037805E-09  6.758476E-09
       190  12  3.766307E+05  5.063226E+04 -9.139297E+03  1.633170E+05 -1.268965E-09  1.610214E-09
       190  13  4.397353E+05  7.373681E+04  1.561198E+03  1.807178E+05 -5.410558E-09 -1.263222E-09
       190  14  4.421111E+05  7.120536E+04  2.794719E+03  1.778457E+05  1.338957E-08 -3.922125E-11
       190  15  4.397557E+05  7.388732E+04  5.118918E+03  1.806606E+05  1.036379E-09 -1.554977E-09
       190  16  4.647662E+05  8.293599E+04  7.291225E+03  1.875525E+05 -3.147481E-09 -7.200248E-09
       190  17  4.861897E+05  8.743146E+04  1.278428E+04  1.899356E+05  4.431392E-09 -1.434648E-09
       190  18  5.028849E+05  9.714268E+04  1.937688E+04  1.980059E+05  7.192736E-09 -3.860919E-09
       190  19  4.147053E+05  6.453773E+04 -4.168811E+03  1.738834E+05  2.975231E+03 -5.645965E+02
       190  20  3.980346E+05  5.497946E+04 -7.194882E+03  1.657567E+05  4.835464E+03 -1.307379E+03
       190  21  3.766307E+05  5.063227E+04 -9.139205E+03  1.633170E+05  6.691631E+03 -2.039659E+03
       190  22  4.397353E+05  7.373681E+04  1.561205E+03  1.807178E+05  1.633375E+03 -1.070743E+03
       190  23  4.421111E+05  7.120536E+04  2.794748E+03  1.778457E+05  3.504841E+03 -1.809253E+03
       190  24  4.397558E+05  7.388733E+04  5.118985E+03  1.806606E+05  5.372281E+03 -2.537245E+03
       190  25  4.647662E+05  8.293599E+04  7.291230E+03  1.875525E+05  2.914525E+02 -1.576914E+03
       190  26  4.861897E+05  8.743147E+04  1.278430E+04  1.899356E+05  2.174111E+03 -2.311167E+03
       190  27  5.028849E+05  9.714270E+04  1.937693E+04  1.980059E+05  4.052786E+03 -3.034885E+03
       191   1  3.619740E+05  4.546145E+04 -1.087792E+04  1.601727E+05 -7.995088E+03  2.409150E+03
       191   2  3.453901E+05  3.517625E+04 -9.704923E+03  1.506862E+05 -1.439341E+04  1.360275E+03
       191   3  3.260957E+05  3.396237E+04 -3.018280E+03  1.460860E+05 -2.070430E+04  8.046607E+01
       191   4  4.400478E+05  7.357813E+04  6.772791E+03  1.809264E+05 -6.611458E+03  2.930950E+03
       191   5  4.416859E+05  7.118903E+04  1.226775E+04  1.776640E+05 -1.325487E+04  1.789538E+03
       191   6  4.406613E+05  7.791907E+04  2.346974E+04  1.792877E+05 -1.981110E+04  4.171033E+02
       191   7  5.181272E+05  1.016950E+05  2.442299E+04  2.016824E+05 -5.227647E+03  3.452814E+03
       191   8  5.379910E+05  1.072026E+05  3.423981E+04  2.046457E+05 -1.211615E+04  2.218875E+03
       191   9  5.552408E+05  1.218773E+05  4.995708E+04  2.124952E+05 -1.891771E+04  7.538154E+02
       191  10  3.619740E+05  4.546142E+04 -1.087805E+04  1.601728E+05  6.577979E-09  6.417658E-09
       191  11  3.453898E+05  3.517619E+04 -9.705316E+03  1.506862E+05  9.982706E-09  6.397521E-10
       191  12  3.260952E+05  3.396226E+04 -3.019085E+03  1.460860E+05  8.503060E-09 -1.217400E-09
       191  13  4.400478E+05  7.357811E+04  6.772693E+03  1.809265E+05  4.416331E-09 -3.120264E-09
       191  14  4.416857E+05  7.118898E+04  1.226741E+04  1.776640E+05 -4.437522E-09  3.127969E-09
       191  15  4.406609E+05  7.791897E+04  2.346901E+04  1.792877E+05  1.347387E-09  5.534430E-09
       191  16  5.181272E+05  1.016950E+05  2.442291E+04  2.016824E+05 -5.424343E-09 -1.032274E-08
       191  17  5.379909E+05  1.072025E+05  3.423953E+04  2.046457E+05 -7.531285E-09 -1.005049E-08
       191  18  5.552404E+05  1.218772E+05  4.995640E+04  2.124952E+05  8.381837E-10 -4.642790E-10
       191  19  3.619740E+05  4.546145E+04 -1.087792E+04  1.601727E+05  7.995088E+03 -2.409150E+03
       191  20  3.453901E+05  3.517625E+04 -9.704923E+03  1.506862E+05  1.439341E+04 -1.360275E+03
       191  21  3.260957E+05  3.396237E+04 -3.018280E+03  1.460860E+05  2.070430E+04 -8.046607E+01
       191  22  4.400478E+05  7.357813E+04  6.772791E+03  1.809264E+05  6.611458E+03 -2.930950E+03
       191  23  4.416859E+05  7.118903E+04  1.226775E+04  1.776640E+05  1.325487E+04 -1.789538E+03
       191  24  4.406613E+05  7.791907E+04  2.346974E+04  1.792877E+05  1.981110E+04 -4.171033E+02
       191  25  5.181272E+05  1.016950E+05  2.442299E+04  2.016824E+05  5.227647E+03 -3.452814E+03
       191  26  5.379910E+05  1.072026E+05  3.423981E+04  2.046457E+05  1.211615E+04 -2.218875E+03
       191  27  5.552408E+05  1.218773E+05  4.995708E+04  2.124952E+05  1.891771E+04 -7.538154E+02
       192   1  3.049846E+05  3.175820E+04  3.313943E+02  1.584894E+05 -2.610002E+04 -7.486369E+02
       192   2  3.002202E+05  5.888729E+03  1.914144E+04  1.177932E+05 -4.970209E+04 -1.002019E+04
       192   3  3.246886E+05  6.709303E+04  7.813358E+04  6.143280E+04 -7.146869E+04 -2.415830E+04
       192   4  4.444713E+05  7.080450E+04  3.002455E+04  1.840198E+05 -2.387779E+04  8.971726E+01
       192   5  4.361151E+05  7.444607E+04  5.426612E+04  1.738707E+05 -5.263073E+04 -1.112619E+04
       192   6  4.580002E+05  1.661644E+05  1.227634E+05  1.480605E+05 -7.954825E+04 -2.721087E+04
       192   7  5.839782E+05  1.098508E+05  5.971683E+04  2.095545E+05 -2.165500E+04  9.281651E+02
       192   8  5.720280E+05  1.430093E+05  8.938908E+04  2.299605E+05 -5.556004E+04 -1.223265E+04
       192   9  5.913324E+05  2.652562E+05  1.673914E+05  2.347080E+05 -8.762950E+04 -3.026568E+04
       192  10  3.049839E+05  3.175802E+04  3.301138E+02  1.584894E+05  4.034568E-09 -1.011504E-09
       192  11  3.002175E+05  5.887959E+03  1.913661E+04  1.177928E+05 -7.248539E-10 -1.081422E-09
       192  12  3.246829E+05  6.709104E+04  7.812289E+04  6.143141E+04 -2.109154E-09  4.091693E-09
       192  13  4.444707E+05  7.080435E+04  3.002347E+04  1.840198E+05  3.473069E-09  3.578133E-09
       192  14  4.361121E+05  7.444519E+04  5.426069E+04  1.738703E+05 -4.904912E-09 -7.336758E-11
       192  15  4.579932E+05  1.661619E+05  1.227501E+05  1.480587E+05  2.451851E-09  4.093676E-09
       192  16  5.839777E+05  1.098506E+05  5.971595E+04  2.095546E+05  7.630854E-09 -1.200227E-09
       192  17  5.720247E+05  1.430083E+05  8.938300E+04  2.299600E+05 -6.623246E-11 -2.152582E-09
       192  18  5.913239E+05  2.652531E+05  1.673753E+05  2.347059E+05  3.603512E-10  1.036795E-09
       192  19  3.049846E+05  3.175820E+04  3.313943E+02  1.584894E+05  2.610002E+04  7.486369E+02
       192  20  3.002202E+05  5.888729E+03  1.914144E+04  1.177932E+05  4.970209E+04  1.002019E+04
       192  21  3.246886E+05  6.709303E+04  7.813358E+04  6.143280E+04  7.146869E+04  2.415830E+04
       192  22  4.444713E+05  7.080450E+04  3.002455E+04  1.840198E+05  2.387779E+04 -8.971726E+01
       192  23  4.361151E+05  7.444607E+04  5.426612E+04  1.738707E+05  5.263073E+04  1.112619E+04
       192  24  4.580002E+05  1.661644E+05  1.227634E+05  1.480605E+05  7.954825E+04  2.721087E+04
       192  25  5.839782E+05  1.098508E+05  5.971683E+04  2.095545E+05  2.165500E+04 -9.281651E+02
       192  26  5.720280E+05  1.430093E+05  8.938908E+04  2.299605E+05  5.556004E+04  1.223265E+04
       192  27  5.913324E+05  2.652562E+05  1.673914E+05  2.347080E+05  8.762950E+04  3.026568E+04
       193   1 -1.422422E+04 -2.654035E+05 -1.626364E+04  6.432353E+04  7.332318E+02 -3.577535E+03
       193   2  1.561898E+04 -1.770590E+05  8.286220E+03  4.514622E+04  4.119788E+03  6.795600E+02
       193   3  3.728329E+04 -9.122344E+04  2.803641E+04  5.863309E+04  8.870669E+03  4.939053E+03
       193   4 -8.804583E+03 -2.441529E+05 -1.046813E+04  5.988286E+04  7.355840E+02 -6.306353E+03
       193   5 -3.294298E+02 -2.430150E+05 -5.501877E+03  4.355463E+04  4.123457E+03 -3.424376E+03
       193   6  2.054668E+02 -2.441554E+05 -4.379979E+03  5.989123E+04  8.875738E+03 -5.405919E+02
       193   7 -3.384903E+03 -2.229018E+05 -4.672617E+03  5.544205E+04  7.379751E+02 -9.035265E+03
       193   8 -1.627810E+04 -3.089668E+05 -1.929015E+04  4.196322E+04  4.127147E+03 -7.527883E+03
       193   9 -3.687385E+04 -3.970652E+05 -3.679759E+04  6.114905E+04  8.880785E+03 -6.018907E+03
       193  10 -1.422423E+04 -2.654035E+05 -1.626366E+04  6.432353E+04  3.127182E-09  1.999862E-09
       193  11  1.561897E+04 -1.770590E+05  8.286187E+03  4.514622E+04  2.661138E-09  1.066193E-08
       193  12  3.728320E+04 -9.122349E+04  2.803621E+04  5.863305E+04 -2.841318E-09  1.072060E-08
       193  13 -8.804595E+03 -2.441529E+05 -1.046820E+04  5.988287E+04  3.920249E-10  4.597360E-11
       193  14 -3.294512E+02 -2.430150E+05 -5.501931E+03  4.355464E+04  1.888292E-09  3.100215E-09
       193  15  2.053821E+02 -2.441554E+05 -4.380128E+03  5.989123E+04  1.824425E-09 -4.149615E-09
       193  16 -3.384926E+03 -2.229019E+05 -4.672772E+03  5.544205E+04 -3.371197E-09 -4.613452E-09
       193  17 -1.627814E+04 -3.089668E+05 -1.929029E+04  4.196324E+04  4.904626E-09 -7.498315E-09
       193  18 -3.687395E+04 -3.970652E+05 -3.679780E+04  6.114910E+04  4.971833E-09 -1.181400E-08
       193  19 -1.422422E+04 -2.654035E+05 -1.626364E+04  6.432353E+04 -7.332318E+02  3.577535E+03
       193  20  1.561898E+04 -1.770590E+05  8.286220E+03  4.514622E+04 -4.119788E+03 -6.795600E+02
       193  21  3.728329E+04 -9.122344E+04  2.803641E+04  5.863309E+04 -8.870669E+03 -4.939053E+03
       193  22 -8.804583E+03 -2.441529E+05 -1.046813E+04  5.988286E+04 -7.355840E+02  6.306353E+03
       193  23 -3.294298E+02 -2.430150E+05 -5.501877E+03  4.355463E+04 -4.123457E+03  3.424376E+03
       193  24  2.054668E+02 -2.441554E+05 -4.379979E+03  5.989123E+04 -8.875738E+03  5.405919E+02
       193  25 -3.384903E+03 -2.229018E+05 -4.672617E+03  5.544205E+04 -7.379751E+02  9.035265E+03
       193  26 -1.627810E+04 -3.089668E+05 -1.929015E+04  4.196322E+04 -4.127147E+03  7.527883E+03
       193  27 -3.687385E+04 -3.970652E+05 -3.679759E+04  6.114905E+04 -8.880785E+03  6.018907E+03
       194   1  5.307523E+04 -2.335524E+04  4.281172E+04  6.016189E+04  1.207427E+04  5.494316E+03
       194   2  7.453980E+04  6.395702E+04  6.056479E+04  4.323344E+04  1.697585E+04  7.345269E+03
       194   3  9.429930E+04  1.507298E+05  7.671360E+04  5.897982E+04  2.114607E+04  9.197356E+03
       194   4 -4.586483E+02 -2.438047E+05 -4.381317E+03  5.989179E+04  1.207951E+04  1.828381E+02
       194   5 -9.647892E+01 -2.434755E+05 -5.155081E+03  4.355328E+04  1.698121E+04  2.769700E+03
       194   6 -1.567280E+03 -2.438212E+05 -8.044723E+03  5.989067E+04  2.115135E+04  5.357444E+03
       194   7 -5.399569E+04 -4.642084E+05 -5.157707E+04  5.962180E+04  1.208475E+04 -5.126781E+03
       194   8 -7.473892E+04 -5.508190E+05 -7.088035E+04  4.387297E+04  1.698656E+04 -1.803637E+03
       194   9 -9.744406E+04 -6.382258E+05 -9.281210E+04  6.080097E+04  2.115663E+04  1.519937E+03
       194  10  5.307506E+04 -2.335531E+04  4.281139E+04  6.016183E+04 -5.275110E-09 -1.196012E-09
       194  11  7.453948E+04  6.395688E+04  6.056415E+04  4.323334E+04 -4.159667E-09 -9.301961E-09
       194  12  9.429879E+04  1.507296E+05  7.671260E+04  5.897967E+04  7.529094E-10 -1.498386E-08
       194  13 -4.588050E+02 -2.438048E+05 -4.381592E+03  5.989179E+04 -2.966831E-09  2.284761E-11
       194  14 -9.679059E+01 -2.434756E+05 -5.155638E+03  4.355324E+04  3.190172E-09  1.422013E-09
       194  15 -1.567768E+03 -2.438213E+05 -8.045617E+03  5.989058E+04 -1.648732E-09 -3.627712E-09
       194  16 -5.399585E+04 -4.642085E+05 -5.157739E+04  5.962185E+04 -8.505578E-10 -2.050661E-09
       194  17 -7.473923E+04 -5.508190E+05 -7.088090E+04  4.387300E+04 -3.065566E-09  1.120367E-08
       194  18 -9.744454E+04 -6.382259E+05 -9.281295E+04  6.080094E+04  9.189549E-10  1.411844E-08
       194  19  5.307523E+04 -2.335524E+04  4.281172E+04  6.016189E+04 -1.207427E+04 -5.494316E+03
       194  20  7.453980E+04  6.395702E+04  6.056479E+04  4.323344E+04 -1.697585E+04 -7.345269E+03
       194  21  9.429930E+04  1.507298E+05  7.671360E+04  5.897982E+04 -2.114607E+04 -9.197356E+03
       194  22 -4.586483E+02 -2.438047E+05 -4.381317E+03  5.989179E+04 -1.207951E+04 -1.828381E+02
       194  23 -9.647892E+01 -2.434755E+05 -5.155081E+03  4.355328E+04 -1.698121E+04 -2.769700E+03
       194  24 -1.567280E+03 -2.438212E+05 -8.044723E+03  5.989067E+04 -2.115135E+04 -5.357444E+03
       194  25 -5.399569E+04 -4.642084E+05 -5.157707E+04  5.962180E+04 -1.208475E+04  5.126781E+03
       194  26 -7.473892E+04 -5.508190E+05 -7.088035E+04  4.387297E+04 -1.698656E+04  1.803637E+03
       194  27 -9.744406E+04 -6.382258E+05 -9.281210E+04  6.080097E+04 -2.115663E+04 -1.519937E+03
       195   1  1.133473E+05  2.170471E+05  8.906782E+04  6.335764E+04  2.539705E+04  1.528872E+04
       195   2  1.326208E+05  3.064040E+05  1.039202E+05  3.777115E+04  2.532604E+04  6.765699E+03
       195   3  1.281710E+05  3.911503E+05  1.184312E+05  4.398396E+04  8.195741E+03 -1.785282E+03
       195   4  1.089954E+03 -2.453740E+05 -9.856797E+03  5.970781E+04  2.540850E+04  6.765363E+03
       195   5 -1.062890E+03 -2.415858E+05 -1.644756E+04  4.378510E+04  2.531588E+04  1.544055E+04
       195   6 -2.993606E+04 -2.454061E+05 -3.532711E+04  5.966421E+04  8.156945E+03  2.408853E+04
       195   7 -1.111813E+05 -7.075937E+05 -1.087935E+05  5.606078E+04  2.542005E+04 -1.751739E+03
       195   8 -1.347665E+05 -7.892944E+05 -1.368333E+05  4.979377E+04  2.530589E+04  2.410784E+04
       195   9 -1.880715E+05 -8.815901E+05 -1.891118E+05  7.532845E+04  8.119436E+03  4.993590E+04
       195  10  1.133466E+05  2.170467E+05  8.906617E+04  6.335733E+04  2.777195E-09  2.012791E-08
       195  11  1.326201E+05  3.064038E+05  1.039189E+05  3.777101E+04 -2.221778E-09  5.386147E-10
       195  12  1.281709E+05  3.911502E+05  1.184311E+05  4.398397E+04 -2.227042E-09 -2.033938E-08
       195  13  1.089249E+03 -2.453742E+05 -9.858096E+03  5.970767E+04  4.895486E-09 -2.191914E-09
       195  14 -1.063642E+03 -2.415862E+05 -1.644921E+04  4.378479E+04 -2.178000E-09  1.591162E-09
       195  15 -2.993629E+04 -2.454067E+05 -3.532832E+04  5.966405E+04 -1.132730E-09 -2.861276E-09
       195  16 -1.111820E+05 -7.075939E+05 -1.087948E+05  5.606081E+04  1.709238E-09 -2.336985E-08
       195  17 -1.347674E+05 -7.892952E+05 -1.368356E+05  4.979328E+04  8.676418E-10  2.467910E-09
       195  18 -1.880722E+05 -8.815928E+05 -1.891166E+05  7.532812E+04  3.210473E-10  1.899582E-08
       195  19  1.133473E+05  2.170471E+05  8.906782E+04  6.335764E+04 -2.539705E+04 -1.528872E+04
       195  20  1.326208E+05  3.064040E+05  1.039202E+05  3.777115E+04 -2.532604E+04 -6.765699E+03
       195  21  1.281710E+05  3.911503E+05  1.184312E+05  4.398396E+04 -8.195741E+03  1.785282E+03
       195  22  1.089954E+03 -2.453740E+05 -9.856797E+03  5.970781E+04 -2.540850E+04 -6.765363E+03
       195  23 -1.062890E+03 -2.415858E+05 -1.644756E+04  4.378510E+04 -2.531588E+04 -1.544055E+04
       195  24 -2.993606E+04 -2.454061E+05 -3.532711E+04  5.966421E+04 -8.156945E+03 -2.408853E+04
       195  25 -1.111813E+05 -7.075937E+05 -1.087935E+05  5.606078E+04 -2.542005E+04  1.751739E+03
       195  26 -1.347665E+05 -7.892944E+05 -1.368333E+05  4.979377E+04 -2.530589E+04 -2.410784E+04
       195  27 -1.880715E+05 -8.815901E+05 -1.891118E+05  7.532845E+04 -8.119436E+03 -4.993590E+04
       196   1  8.813812E+04  1.183003E+05  1.063328E+05  2.311616E+04  1.440853E+04 -8.940026E+03
       196   2  4.020616E+04  1.323411E+05  9.475257E+04  3.073418E+04  9.941981E+02 -2.969318E+04
       196   3 -1.098434E+04  1.262676E+05  8.689327E+04  4.942313E+04 -1.243010E+04 -3.492408E+04
       196   4 -5.462864E+05 -3.847701E+04 -4.320960E+04  4.613716E+04 -3.004180E+04 -8.978497E+03
       196   5 -5.425360E+05 -7.326914E+03 -2.080908E+04  4.058223E+04 -1.924206E+04 -2.971512E+04
       196   6 -5.462581E+05 -5.075165E+02 -1.151156E+04  4.609915E+04 -8.453475E+03 -3.492225E+04
       196   7 -1.180335E+06 -1.952801E+05 -1.927720E+05  6.913441E+04 -7.444695E+04 -9.020286E+03
       196   8 -1.124952E+06 -1.470150E+05 -1.363859E+05  5.042076E+04 -3.945970E+04 -2.973771E+04
       196   9 -1.081254E+06 -1.272989E+05 -1.099281E+05  4.277803E+04 -4.480182E+03 -3.492047E+04
       196  10  8.813788E+04  1.183002E+05  1.063322E+05  2.311626E+04  8.042441E-09 -1.445885E-09
       196  11  4.020592E+04  1.323402E+05  9.475091E+04  3.073421E+04  1.485481E-08 -3.208757E-09
       196  12 -1.098483E+04  1.262662E+05  8.689069E+04  4.942278E+04  2.693667E-08  1.688591E-09
       196  13 -5.462873E+05 -3.847734E+04 -4.321145E+04  4.613694E+04  8.411403E-09  4.954220E-10
       196  14 -5.425366E+05 -7.327961E+03 -2.081143E+04  4.058177E+04 -1.663375E-09  1.192682E-09
       196  15 -5.462585E+05 -5.088450E+02 -1.151399E+04  4.609891E+04  2.728430E-09  9.767246E-09
       196  16 -1.180341E+06 -1.952816E+05 -1.927826E+05  6.913387E+04 -1.122444E-08 -1.160696E-09
       196  17 -1.124954E+06 -1.470164E+05 -1.363905E+05  5.041981E+04 -1.390939E-08 -5.965280E-09
       196  18 -1.081254E+06 -1.273002E+05 -1.099304E+05  4.277790E+04 -2.801611E-08 -4.276478E-09
       196  19  8.813812E+04  1.183003E+05  1.063328E+05  2.311616E+04 -1.440853E+04  8.940026E+03
       196  20  4.020616E+04  1.323411E+05  9.475257E+04  3.073418E+04 -9.941981E+02  2.969318E+04
       196  21 -1.098434E+04  1.262676E+05  8.689327E+04  4.942313E+04  1.243010E+04  3.492408E+04
       196  22 -5.462864E+05 -3.847701E+04 -4.320960E+04  4.613716E+04  3.004180E+04  8.978497E+03
       196  23 -5.425360E+05 -7.326914E+03 -2.080908E+04  4.058223E+04  1.924206E+04  2.971512E+04
       196  24 -5.462581E+05 -5.075165E+02 -1.151156E+04  4.609915E+04  8.453475E+03  3.492225E+04
       196  25 -1.180335E+06 -1.952801E+05 -1.927720E+05  6.913441E+04  7.444695E+04  9.020286E+03
       196  26 -1.124952E+06 -1.470150E+05 -1.363859E+05  5.042076E+04  3.945970E+04  2.973771E+04
       196  27 -1.081254E+06 -1.272989E+05 -1.099281E+05  4.277803E+04  4.480182E+03  3.492047E+04
       197   1 -4.299036E+04  1.171994E+05  8.289503E+04  4.618609E+04 -8.659726E+03 -3.325595E+04
       197   2 -9.242585E+04  1.065071E+05  7.615369E+04  4.056968E+04 -8.178496E+03 -3.153729E+04
       197   3 -1.421300E+05  9.502229E+04  6.889937E+04  4.702503E+04 -7.699730E+03 -2.857153E+04
       197   4 -5.447270E+05 -1.520015E+03 -8.813696E+03  4.632722E+04 -6.948264E+03 -3.325630E+04
       197   5 -5.444149E+05 -1.253516E+02 -4.863313E+03  4.029000E+04 -4.523296E+03 -3.153478E+04
       197   6 -5.447113E+05  1.391230E+02 -2.776843E+03  4.632509E+04 -2.100723E+03 -2.856570E+04
       197   7 -1.046219E+06 -1.202537E+05 -1.005326E+05  4.646816E+04 -5.238145E+03 -3.325664E+04
       197   8 -9.962047E+05 -1.067691E+05 -8.588811E+04  4.001046E+04 -8.706820E+02 -3.153226E+04
       197   9 -9.471342E+05 -9.475298E+04 -7.445904E+04  4.562557E+04  3.494757E+03 -2.855988E+04
       197  10 -4.299074E+04  1.171982E+05  8.289281E+04  4.618585E+04  4.919574E-08  3.492248E-09
       197  11 -9.242619E+04  1.065060E+05  7.615170E+04  4.056947E+04 -1.862148E-08  4.341660E-09
       197  12 -1.421303E+05  9.502139E+04  6.889772E+04  4.702485E+04 -8.330753E-08 -7.214859E-10
       197  13 -5.447274E+05 -1.521216E+03 -8.815864E+03  4.632703E+04  6.576711E-11  1.149222E-08
       197  14 -5.444152E+05 -1.264247E+02 -4.865219E+03  4.028988E+04  2.820499E-09  8.487028E-09
       197  15 -5.447115E+05  1.382458E+02 -2.778384E+03  4.632505E+04 -6.670809E-09 -2.300375E-09
       197  16 -1.046219E+06 -1.202549E+05 -1.005347E+05  4.646802E+04 -5.238272E-08  2.086300E-09
       197  17 -9.962050E+05 -1.067702E+05 -8.588997E+04  4.001044E+04  2.526830E-08  4.781289E-09
       197  18 -9.471344E+05 -9.475386E+04 -7.446059E+04  4.562566E+04  7.698676E-08 -2.329135E-09
       197  19 -4.299036E+04  1.171994E+05  8.289503E+04  4.618609E+04  8.659726E+03  3.325595E+04
       197  20 -9.242585E+04  1.065071E+05  7.615369E+04  4.056968E+04  8.178496E+03  3.153729E+04
       197  21 -1.421300E+05  9.502229E+04  6.889937E+04  4.702503E+04  7.699730E+03  2.857153E+04
       197  22 -5.447270E+05 -1.520015E+03 -8.813696E+03  4.632722E+04  6.948264E+03  3.325630E+04
       197  23 -5.444149E+05 -1.253516E+02 -4.863313E+03  4.029000E+04  4.523296E+03  3.153478E+04
       197  24 -5.447113E+05  1.391230E+02 -2.776843E+03  4.632509E+04  2.100723E+03  2.856570E+04
       197  25 -1.046219E+06 -1.202537E+05 -1.005326E+05  4.646816E+04  5.238145E+03  3.325664E+04
       197  26 -9.962047E+05 -1.067691E+05 -8.588811E+04  4.001046E+04  8.706820E+02  3.153226E+04
       197  27 -9.471342E+05 -9.475298E+04 -7.445904E+04  4.562557E+04 -3.494757E+03  2.855988E+04
       198   1 -1.749889E+05  8.715351E+04  6.345538E+04  4.683643E+04 -7.095059E+03 -2.646670E+04
       198   2 -2.246231E+05  7.548207E+04  5.551120E+04  4.068290E+04 -6.658003E+03 -2.293985E+04
       198   3 -2.743387E+05  6.381813E+04  4.727657E+04  4.670528E+04 -6.222018E+03 -1.931081E+04
       198   4 -5.445959E+05  8.834047E+01 -2.113041E+03  4.634856E+04 -1.674150E+03 -2.646063E+04
       198   5 -5.445347E+05  1.269923E+02 -1.212525E+03  4.026038E+04 -1.078238E+03 -2.293289E+04
       198   6 -5.445852E+05  1.456193E+02 -7.130612E+02  4.634847E+04 -4.833632E+02 -1.930293E+04
       198   7 -9.140693E+05 -8.698435E+04 -6.768644E+04  4.586094E+04  3.743626E+03 -2.645456E+04
       198   8 -8.643463E+05 -7.523370E+04 -5.793994E+04  3.983804E+04  4.498735E+03 -2.292593E+04
       198   9 -8.147602E+05 -6.353091E+04 -4.870530E+04  4.599180E+04  5.252865E+03 -1.929505E+04
       198  10 -1.749891E+05  8.715275E+04  6.345397E+04  4.683627E+04 -1.178430E-08 -2.393418E-09
       198  11 -2.246233E+05  7.548149E+04  5.551012E+04  4.068277E+04  1.732276E-09 -2.930811E-09
       198  12 -2.743389E+05  6.381772E+04  4.727580E+04  4.670518E+04 -8.983815E-11 -1.616132E-09
       198  13 -5.445960E+05  8.758806E+01 -2.114362E+03  4.634852E+04 -8.214633E-09 -6.638364E-09
       198  14 -5.445349E+05  1.264274E+02 -1.213515E+03  4.026036E+04  5.049544E-09 -2.021504E-09
       198  15 -5.445853E+05  1.452192E+02 -7.137616E+02  4.634847E+04  7.482060E-09  1.837627E-09
       198  16 -9.140695E+05 -8.698510E+04 -6.768778E+04  4.586102E+04  7.753014E-09 -4.363644E-09
       198  17 -8.643465E+05 -7.523427E+04 -5.794096E+04  3.983813E+04  7.681482E-10 -3.495299E-10
       198  18 -8.147604E+05 -6.353131E+04 -4.870605E+04  4.599188E+04 -2.592388E-09  6.240379E-11
       198  19 -1.749889E+05  8.715351E+04  6.345538E+04  4.683643E+04  7.095059E+03  2.646670E+04
       198  20 -2.246231E+05  7.548207E+04  5.551120E+04  4.068290E+04  6.658003E+03  2.293985E+04
       198  21 -2.743387E+05  6.381813E+04  4.727657E+04  4.670528E+04  6.222018E+03  1.931081E+04
       198  22 -5.445959E+05  8.834047E+01 -2.113041E+03  4.634856E+04  1.674150E+03  2.646063E+04
       198  23 -5.445347E+05  1.269923E+02 -1.212525E+03  4.026038E+04  1.078238E+03  2.293289E+04
       198  24 -5.445852E+05  1.456193E+02 -7.130612E+02  4.634847E+04  4.833632E+02  1.930293E+04
       198  25 -9.140693E+05 -8.698435E+04 -6.768644E+04  4.586094E+04 -3.743626E+03  2.645456E+04
       198  26 -8.643463E+05 -7.523370E+04 -5.793994E+04  3.983804E+04 -4.498735E+03  2.292593E+04
       198  27 -8.147602E+05 -6.353091E+04 -4.870530E+04  4.599180E+04 -5.252865E+03  1.929505E+04
       199   1 -3.073062E+05  5.600449E+04  4.136172E+04  4.666206E+04 -6.098221E+03 -1.716740E+04
       199   2 -3.570299E+05  4.429486E+04  3.284843E+04  4.049271E+04 -5.939032E+03 -1.349041E+04
       199   3 -4.068033E+05  3.262210E+04  2.422953E+04  4.652383E+04 -5.780409E+03 -9.804297E+03
       199   4 -5.445694E+05  1.450672E+02 -5.563974E+02  4.635392E+04 -3.715534E+02 -1.715921E+04
       199   5 -5.445387E+05  1.318380E+02 -3.608897E+02  4.025358E+04 -1.984634E+02 -1.348179E+04
       199   6 -5.445632E+05  1.529555E+02 -2.809813E+02  4.635391E+04 -2.592668E+01 -9.795250E+03
       199   7 -7.817775E+05 -5.571743E+04 -4.247647E+04  4.604587E+04  5.352989E+03 -1.715102E+04
       199   8 -7.320130E+05 -4.403310E+04 -3.357139E+04  4.001450E+04  5.540421E+03 -1.347318E+04
       199   9 -6.823045E+05 -3.231722E+04 -2.479208E+04  4.618402E+04  5.727315E+03 -9.786204E+03
       199  10 -3.073063E+05  5.600416E+04  4.136110E+04  4.666197E+04  5.112406E-09  1.068178E-09
       199  11 -3.570300E+05  4.429466E+04  3.284802E+04  4.049265E+04  9.712770E-10  4.904380E-09
       199  12 -4.068034E+05  3.262199E+04  2.422928E+04  4.652379E+04  4.438083E-09  2.150655E-09
       199  13 -5.445695E+05  1.447511E+02 -5.569508E+02  4.635391E+04  4.297590E-09  3.932479E-10
       199  14 -5.445387E+05  1.316429E+02 -3.612312E+02  4.025357E+04 -1.756743E-09  3.991480E-09
       199  15 -5.445632E+05  1.528525E+02 -2.811616E+02  4.635391E+04  1.375128E-09  6.000597E-11
       199  16 -7.817776E+05 -5.571775E+04 -4.247707E+04  4.604595E+04 -1.428692E-09  2.477235E-10
       199  17 -7.320130E+05 -4.403331E+04 -3.357179E+04  4.001456E+04 -2.616394E-09  5.762799E-10
       199  18 -6.823046E+05 -3.231734E+04 -2.479232E+04  4.618406E+04 -5.528122E-10 -4.961030E-11
       199  19 -3.073062E+05  5.600449E+04  4.136172E+04  4.666206E+04  6.098221E+03  1.716740E+04
       199  20 -3.570299E+05  4.429486E+04  3.284843E+04  4.049271E+04  5.939032E+03  1.349041E+04
       199  21 -4.068033E+05  3.262210E+04  2.422953E+04  4.652383E+04  5.780409E+03  9.804297E+03
       199  22 -5.445694E+05  1.450672E+02 -5.563974E+02  4.635392E+04  3.715534E+02  1.715921E+04
       199  23 -5.445387E+05  1.318380E+02 -3.608897E+02  4.025358E+04  1.984634E+02  1.348179E+04
       199  24 -5.445632E+05  1.529555E+02 -2.809813E+02  4.635391E+04  2.592668E+01  9.795250E+03
       199  25 -7.817775E+05 -5.571743E+04 -4.247647E+04  4.604587E+04 -5.352989E+03  1.715102E+04
       199  26 -7.320130E+05 -4.403310E+04 -3.357139E+04  4.001450E+04 -5.540421E+03  1.347318E+04
       199  27 -6.823045E+05 -3.231722E+04 -2.479208E+04  4.618402E+04 -5.727315E+03  9.786204E+03
       200   1 -4.398173E+05  2.480275E+04  1.815982E+04  4.648255E+04 -5.733928E+03 -7.655648E+03
       200   2 -4.895699E+05  1.308692E+04  9.401353E+03  4.030181E+04 -5.571116E+03 -3.966107E+03
       200   3 -5.393808E+05  1.405091E+03  5.320785E+02  4.633239E+04 -5.408465E+03 -2.805195E+02
       200   4 -5.445624E+05  1.548190E+02 -2.753210E+02  4.635629E+04  2.124372E+01 -7.646442E+03
       200   5 -5.445322E+05  1.420185E+02 -3.284448E+02  4.025060E+04  1.777039E+02 -3.956794E+03
       200   6 -5.445607E+05  1.646229E+02 -4.878154E+02  4.635628E+04  3.340145E+02 -2.710958E+02
       200   7 -6.492968E+05 -2.449370E+04 -1.871073E+04  4.623004E+04  5.775473E+03 -7.637238E+03
       200   8 -5.994913E+05 -1.280303E+04 -1.005823E+04  4.019938E+04  5.926029E+03 -3.947482E+03
       200   9 -5.497404E+05 -1.075829E+03 -1.507587E+03  4.638017E+04  6.076447E+03 -2.616716E+02
       200  10 -4.398173E+05  2.480268E+04  1.815965E+04  4.648251E+04  3.642012E-08 -3.811122E-10
       200  11 -4.895700E+05  1.308689E+04  9.401265E+03  4.030179E+04  4.975162E-09 -3.111270E-10
       200  12 -5.393808E+05  1.405083E+03  5.320233E+02  4.633238E+04 -3.378770E-08 -2.438228E-09
       200  13 -5.445624E+05  1.547562E+02 -2.754309E+02  4.635629E+04 -3.628267E-10  3.606608E-09
       200  14 -5.445322E+05  1.420016E+02 -3.284742E+02  4.025060E+04  6.599477E-10  2.008799E-09
       200  15 -5.445607E+05  1.646228E+02 -4.878157E+02  4.635628E+04 -7.179506E-09 -1.712686E-09
       200  16 -6.492968E+05 -2.449377E+04 -1.871091E+04  4.623008E+04 -3.290974E-08  2.374071E-09
       200  17 -5.994914E+05 -1.280305E+04 -1.005833E+04  4.019940E+04 -5.160058E-09 -2.764111E-10
       200  18 -5.497404E+05 -1.075839E+03 -1.507656E+03  4.638017E+04  3.227968E-08 -9.983810E-10
       200  19 -4.398173E+05  2.480275E+04  1.815982E+04  4.648255E+04  5.733928E+03  7.655648E+03
       200  20 -4.895699E+05  1.308692E+04  9.401353E+03  4.030181E+04  5.571116E+03  3.966107E+03
       200  21 -5.393808E+05  1.405091E+03  5.320785E+02  4.633239E+04  5.408465E+03  2.805195E+02
       200  22 -5.445624E+05  1.548190E+02 -2.753210E+02  4.635629E+04 -2.124372E+01  7.646442E+03
       200  23 -5.445322E+05  1.420185E+02 -3.284448E+02  4.025060E+04 -1.777039E+02  3.956794E+03
       200  24 -5.445607E+05  1.646229E+02 -4.878154E+02  4.635628E+04 -3.340145E+02  2.710958E+02
       200  25 -6.492968E+05 -2.449370E+04 -1.871073E+04  4.623004E+04 -5.775473E+03  7.637238E+03
       200  26 -5.994913E+05 -1.280303E+04 -1.005823E+04  4.019938E+04 -5.926029E+03  3.947482E+03
       200  27 -5.497404E+05 -1.075829E+03 -1.507587E+03  4.638017E+04 -6.076447E+03  2.616716E+02
       201   1 -5.724167E+05 -6.415965E+03 -5.679496E+03  4.627633E+04 -5.320597E+03  1.867563E+03
       201   2 -6.221263E+05 -1.813498E+04 -1.483799E+04  4.008934E+04 -4.711681E+03  5.526331E+03
       201   3 -6.719663E+05 -2.988133E+04 -2.441309E+04  4.610890E+04 -4.102496E+03  9.121849E+03
       201   4 -5.445735E+05  1.683999E+02 -6.198570E+02  4.635516E+04  4.306780E+02  1.876987E+03
       201   5 -5.445170E+05  1.566608E+02 -1.043081E+03  4.025197E+04  9.408464E+02  5.535424E+03
       201   6 -5.445762E+05  1.348534E+02 -1.814293E+03  4.635523E+04  1.451330E+03  9.130620E+03
       201   7 -5.167294E+05  6.752739E+03  4.439876E+03  4.643400E+04  6.182205E+03  1.886411E+03
       201   8 -4.669017E+05  1.844799E+04  1.275172E+04  4.041461E+04  6.594060E+03  5.544520E+03
       201   9 -4.171701E+05  3.015016E+04  2.078401E+04  4.660160E+04  7.006263E+03  9.139395E+03
       201  10 -5.724167E+05 -6.415977E+03 -5.679556E+03  4.627634E+04 -3.120252E-08 -1.050168E-09
       201  11 -6.221263E+05 -1.813502E+04 -1.483809E+04  4.008936E+04 -4.066891E-09 -2.878582E-09
       201  12 -6.719664E+05 -2.988143E+04 -2.441327E+04  4.610893E+04  2.271394E-08 -9.621704E-10
       201  13 -5.445735E+05  1.683961E+02 -6.198640E+02  4.635516E+04 -4.314369E-09 -6.545790E-10
       201  14 -5.445170E+05  1.566277E+02 -1.043140E+03  4.025196E+04 -3.495557E-09 -1.397242E-09
       201  15 -5.445762E+05  1.347633E+02 -1.814453E+03  4.635522E+04 -2.430301E-09 -1.783554E-09
       201  16 -5.167294E+05  6.752725E+03  4.439797E+03  4.643399E+04  2.703677E-08  1.915933E-09
       201  17 -4.669017E+05  1.844794E+04  1.275158E+04  4.041458E+04  1.038139E-08 -6.620170E-09
       201  18 -4.171702E+05  3.015006E+04  2.078376E+04  4.660155E+04 -2.962861E-08 -3.131535E-09
       201  19 -5.724167E+05 -6.415965E+03 -5.679496E+03  4.627633E+04  5.320597E+03 -1.867563E+03
       201  20 -6.221263E+05 -1.813498E+04 -1.483799E+04  4.008934E+04  4.711681E+03 -5.526331E+03
       201  21 -6.719663E+05 -2.988133E+04 -2.441309E+04  4.610890E+04  4.102496E+03 -9.121849E+03
       201  22 -5.445735E+05  1.683999E+02 -6.198570E+02  4.635516E+04 -4.306780E+02 -1.876987E+03
       201  23 -5.445170E+05  1.566608E+02 -1.043081E+03  4.025197E+04 -9.408464E+02 -5.535424E+03
       201  24 -5.445762E+05  1.348534E+02 -1.814293E+03  4.635523E+04 -1.451330E+03 -9.130620E+03
       201  25 -5.167294E+05  6.752739E+03  4.439876E+03  4.643400E+04 -6.182205E+03 -1.886411E+03
       201  26 -4.669017E+05  1.844799E+04  1.275172E+04  4.041461E+04 -6.594060E+03 -5.544520E+03
       201  27 -4.171701E+05  3.015016E+04  2.078401E+04  4.660160E+04 -7.006263E+03 -9.139395E+03
       202   1 -7.051004E+05 -3.766922E+04 -3.108942E+04  4.589383E+04 -3.850402E+03  1.124746E+04
       202   2 -7.544543E+05 -4.964991E+04 -4.199855E+04  4.014289E+04 -5.538835E+02  1.449602E+04
       202   3 -8.045680E+05 -6.280511E+04 -5.536018E+04  4.654068E+04  2.743972E+03  1.696035E+04
       202   4 -5.446747E+05  1.814633E+02 -2.383360E+03  4.634196E+04  1.816183E+03  1.125623E+04
       202   5 -5.444033E+05 -4.266595E+01 -4.169881E+03  4.026881E+04  3.890903E+03  1.450247E+04
       202   6 -5.446824E+05 -1.228809E+03 -7.559463E+03  4.634416E+04  5.967232E+03  1.696461E+04
       202   7 -3.842237E+05  3.803073E+04  2.632184E+04  4.679020E+04  7.484193E+03  1.126501E+04
       202   8 -3.343094E+05  4.956213E+04  3.365715E+04  4.039475E+04  8.337152E+03  1.450891E+04
       202   9 -2.847312E+05  6.034365E+04  4.023851E+04  4.614753E+04  9.191807E+03  1.696886E+04
       202  10 -7.051005E+05 -3.766936E+04 -3.108969E+04  4.589386E+04  1.589756E-08  3.533355E-09
       202  11 -7.544543E+05 -4.965014E+04 -4.199895E+04  4.014290E+04 -8.274057E-09  4.271636E-09
       202  12 -8.045681E+05 -6.280542E+04 -5.536073E+04  4.654064E+04 -2.538457E-08  5.691993E-09
       202  13 -5.446747E+05  1.813264E+02 -2.383605E+03  4.634194E+04 -4.326645E-09  6.780323E-10
       202  14 -5.444034E+05 -4.289581E+01 -4.170304E+03  4.026876E+04 -9.961057E-09  4.706683E-09
       202  15 -5.446826E+05 -1.229127E+03 -7.560071E+03  4.634408E+04  5.661339E-09  2.073049E-09
       202  16 -3.842238E+05  3.803058E+04  2.632149E+04  4.679013E+04 -2.316721E-08  5.132322E-10
       202  17 -3.343095E+05  4.956188E+04  3.365663E+04  4.039466E+04  2.095547E-09  3.807868E-09
       202  18 -2.847314E+05  6.034332E+04  4.023781E+04  4.614741E+04  2.472015E-08  8.493029E-10
       202  19 -7.051004E+05 -3.766922E+04 -3.108942E+04  4.589383E+04  3.850402E+03 -1.124746E+04
       202  20 -7.544543E+05 -4.964991E+04 -4.199855E+04  4.014289E+04  5.538835E+02 -1.449602E+04
       202  21 -8.045680E+05 -6.280511E+04 -5.536018E+04  4.654068E+04 -2.743972E+03 -1.696035E+04
       202  22 -5.446747E+05  1.814633E+02 -2.383360E+03  4.634196E+04 -1.816183E+03 -1.125623E+04
       202  23 -5.444033E+05 -4.266595E+01 -4.169881E+03  4.026881E+04 -3.890903E+03 -1.450247E+04
       202  24 -5.446824E+05 -1.228809E+03 -7.559463E+03  4.634416E+04 -5.967232E+03 -1.696461E+04
       202  25 -3.842237E+05  3.803073E+04  2.632184E+04  4.679020E+04 -7.484193E+03 -1.126501E+04
       202  26 -3.343094E+05  4.956213E+04  3.365715E+04  4.039475E+04 -8.337152E+03 -1.450891E+04
       202  27 -2.847312E+05  6.034365E+04  4.023851E+04  4.614753E+04 -9.191807E+03 -1.696886E+04
       203   1 -8.392760E+05 -6.992521E+04 -6.415506E+04  4.339838E+04  2.609412E+03  1.880951E+04
       203   2 -8.844887E+05 -8.824326E+04 -8.616965E+04  4.890617E+04  2.707766E+04  1.694083E+04
       203   3 -9.387984E+05 -1.300900E+05 -1.300142E+05  6.594661E+04  5.155597E+04  5.301861E+03
       203   4 -5.459960E+05 -3.569957E+02 -9.873755E+03  4.620024E+04  7.256972E+03  1.881563E+04
       203   5 -5.427814E+05 -6.209736E+03 -1.784510E+04  4.045654E+04  1.650411E+04  1.692484E+04
       203   6 -5.460156E+05 -3.293932E+04 -3.706258E+04  4.624607E+04  2.576345E+04  5.265318E+03
       203   7 -2.526324E+05  6.920633E+04  4.440404E+04  4.900343E+04  1.190667E+04  1.882179E+04
       203   8 -2.009621E+05  7.581695E+04  5.047401E+04  3.200211E+04  5.924837E+03  1.690914E+04
       203   9 -1.530885E+05  6.420216E+04  5.588110E+04  2.653293E+04 -4.531978E+01  5.230428E+03
       203  10 -8.392761E+05 -6.992559E+04 -6.415574E+04  4.339834E+04 -2.628659E-09  3.453152E-09
       203  11 -8.844895E+05 -8.824377E+04 -8.617157E+04  4.890580E+04  1.448805E-09 -2.562523E-09
       203  12 -9.388012E+05 -1.300908E+05 -1.300193E+05  6.594639E+04  1.621247E-09 -1.067009E-09
       203  13 -5.459961E+05 -3.573899E+02 -9.874520E+03  4.620013E+04  3.940643E-09  5.198207E-09
       203  14 -5.427818E+05 -6.210117E+03 -1.784616E+04  4.045631E+04  7.560373E-09 -4.644826E-09
       203  15 -5.460163E+05 -3.293953E+04 -3.706388E+04  4.624596E+04 -2.392806E-09  1.415304E-09
       203  16 -2.526326E+05  6.920591E+04  4.440311E+04  4.900325E+04  1.565504E-09  1.543401E-09
       203  17 -2.009622E+05  7.581664E+04  5.047341E+04  3.200203E+04  3.330916E-09  4.097862E-10
       203  18 -1.530885E+05  6.420213E+04  5.588104E+04  2.653293E+04  1.966862E-09 -1.337842E-09
       203  19 -8.392760E+05 -6.992521E+04 -6.415506E+04  4.339838E+04 -2.609412E+03 -1.880951E+04
       203  20 -8.844887E+05 -8.824326E+04 -8.616965E+04  4.890617E+04 -2.707766E+04 -1.694083E+04
       203  21 -9.387984E+05 -1.300900E+05 -1.300142E+05  6.594661E+04 -5.155597E+04 -5.301861E+03
       203  22 -5.459960E+05 -3.569957E+02 -9.873755E+03  4.620024E+04 -7.256972E+03 -1.881563E+04
       203  23 -5.427814E+05 -6.209736E+03 -1.784510E+04  4.045654E+04 -1.650411E+04 -1.692484E+04
       203  24 -5.460156E+05 -3.293932E+04 -3.706258E+04  4.624607E+04 -2.576345E+04 -5.265318E+03
       203  25 -2.526324E+05  6.920633E+04  4.440404E+04  4.900343E+04 -1.190667E+04 -1.882179E+04
       203  26 -2.009621E+05  7.581695E+04  5.047401E+04  3.200211E+04 -5.924837E+03 -1.690914E+04
       203  27 -1.530885E+05  6.420216E+04  5.588110E+04  2.653293E+04  4.531978E+01 -5.230428E+03
       204   1 -4.577775E+04  9.110987E+04  8.247409E+04  1.277276E+04  1.403853E+03 -6.640691E+03
       204   2 -8.144995E+04  1.048824E+05  7.916245E+04  1.582989E+04 -4.784823E+03 -2.140384E+04
       204   3 -1.214006E+05  9.828913E+04  7.480362E+04  3.091608E+04 -1.098893E+04 -2.366179E+04
       204   4 -5.243130E+05 -2.753749E+04 -3.230824E+04  2.697389E+04 -2.227985E+04 -6.672434E+03
       204   5 -5.209376E+05 -1.862776E+03 -1.502788E+04  2.093853E+04 -1.436660E+04 -2.141883E+04
       204   6 -5.242957E+05  9.887460E+02 -8.594576E+03  2.693292E+04 -6.469020E+03 -2.365585E+04
       204   7 -1.002637E+06 -1.462004E+05 -1.471046E+05  4.116394E+04 -4.594536E+04 -6.705274E+03
       204   8 -9.602432E+05 -1.086205E+05 -1.092291E+05  2.604343E+04 -2.394170E+04 -2.143399E+04
       204   9 -9.270367E+05 -9.632187E+04 -9.200151E+04  2.295234E+04 -1.951992E+03 -2.364996E+04
       204  10 -4.577776E+04  9.110982E+04  8.247400E+04  1.277277E+04 -2.295754E-08  1.575166E-09
       204  11 -8.145010E+04  1.048819E+05  7.916155E+04  1.582981E+04  4.120716E-09  6.599312E-09
       204  12 -1.214009E+05  9.828849E+04  7.480234E+04  3.091587E+04  2.095002E-08  3.322701E-09
       204  13 -5.243135E+05 -2.753767E+04 -3.230925E+04  2.697377E+04 -3.259335E-09 -1.303456E-09
       204  14 -5.209380E+05 -1.863324E+03 -1.502913E+04  2.093828E+04  6.998332E-09 -5.190794E-09
       204  15 -5.242959E+05  9.881340E+02 -8.595706E+03  2.693280E+04  2.612225E-09  5.324172E-10
       204  16 -1.002639E+06 -1.462010E+05 -1.471086E+05  4.116369E+04  2.116051E-08 -6.028556E-10
       204  17 -9.602440E+05 -1.086211E+05 -1.092310E+05  2.604302E+04 -1.057994E-08  2.706769E-09
       204  18 -9.270369E+05 -9.632247E+04 -9.200256E+04  2.295230E+04 -2.583896E-08  1.377767E-09
       204  19 -4.577775E+04  9.110987E+04  8.247409E+04  1.277276E+04 -1.403853E+03  6.640691E+03
       204  20 -8.144995E+04  1.048824E+05  7.916245E+04  1.582989E+04  4.784823E+03  2.140384E+04
       204  21 -1.214006E+05  9.828913E+04  7.480362E+04  3.091608E+04  1.098893E+04  2.366179E+04
       204  22 -5.243130E+05 -2.753749E+04 -3.230824E+04  2.697389E+04  2.227985E+04  6.672434E+03
       204  23 -5.209376E+05 -1.862776E+03 -1.502788E+04  2.093853E+04  1.436660E+04  2.141883E+04
       204  24 -5.242957E+05  9.887460E+02 -8.594576E+03  2.693292E+04  6.469020E+03  2.365585E+04
       204  25 -1.002637E+06 -1.462004E+05 -1.471046E+05  4.116394E+04  4.594536E+04  6.705274E+03
       204  26 -9.602432E+05 -1.086205E+05 -1.092291E+05  2.604343E+04  2.394170E+04  2.143399E+04
       204  27 -9.270367E+05 -9.632187E+04 -9.200151E+04  2.295234E+04  1.951992E+03  2.364996E+04
       205   1 -1.482172E+05  8.944173E+04  7.108930E+04  2.717460E+04 -6.671590E+03 -2.163343E+04
       205   2 -1.859086E+05  8.129894E+04  6.576247E+04  2.109906E+04 -5.550348E+03 -2.009185E+04
       205   3 -2.239899E+05  7.228069E+04  5.948099E+04  2.773959E+04 -4.431005E+03 -1.790292E+04
       205   4 -5.229111E+05 -1.089198E+03 -6.739217E+03  2.709556E+04 -5.297857E+03 -2.163221E+04
       205   5 -5.226473E+05  3.088670E+01 -3.706966E+03  2.073625E+04 -3.447546E+03 -2.008910E+04
       205   6 -5.229024E+05  1.484372E+02 -2.136570E+03  2.709343E+04 -1.599078E+03 -1.789846E+04
       205   7 -8.974719E+05 -9.162906E+04 -8.457541E+04  2.701651E+04 -3.924938E+03 -2.163099E+04
       205   8 -8.592784E+05 -8.124434E+04 -7.318250E+04  2.037358E+04 -1.345865E+03 -2.008635E+04
       205   9 -8.217300E+05 -7.198945E+04 -6.375891E+04  2.644756E+04  1.231509E+03 -1.789401E+04
       205  10 -1.482174E+05  8.944121E+04  7.108834E+04  2.717449E+04  3.937340E-09 -7.858168E-10
       205  11 -1.859088E+05  8.129850E+04  6.576165E+04  2.109897E+04 -3.511946E-09  8.648852E-10
       205  12 -2.239900E+05  7.228034E+04  5.948035E+04  2.773952E+04 -6.053021E-09  3.764950E-09
       205  13 -5.229113E+05 -1.089708E+03 -6.740149E+03  2.709547E+04  4.772493E-09  7.331355E-09
       205  14 -5.226474E+05  3.045025E+01 -3.707746E+03  2.073619E+04 -3.617332E-09 -9.957023E-09
       205  15 -5.229025E+05  1.480926E+02 -2.137177E+03  2.709341E+04 -7.253304E-11  4.206095E-09
       205  16 -8.974721E+05 -9.162956E+04 -8.457632E+04  2.701645E+04 -3.684433E-09 -8.721463E-10
       205  17 -8.592785E+05 -8.124477E+04 -7.318326E+04  2.037356E+04 -2.697578E-09  1.048041E-09
       205  18 -8.217301E+05 -7.198980E+04 -6.375952E+04  2.644758E+04 -1.049013E-09  1.679783E-09
       205  19 -1.482172E+05  8.944173E+04  7.108930E+04  2.717460E+04  6.671590E+03  2.163343E+04
       205  20 -1.859086E+05  8.129894E+04  6.576247E+04  2.109906E+04  5.550348E+03  2.009185E+04
       205  21 -2.239899E+05  7.228069E+04  5.948099E+04  2.773959E+04  4.431005E+03  1.790292E+04
       205  22 -5.229111E+05 -1.089198E+03 -6.739217E+03  2.709556E+04  5.297857E+03  2.163221E+04
       205  23 -5.226473E+05  3.088670E+01 -3.706966E+03  2.073625E+04  3.447546E+03  2.008910E+04
       205  24 -5.229024E+05  1.484372E+02 -2.136570E+03  2.709343E+04  1.599078E+03  1.789846E+04
       205  25 -8.974719E+05 -9.162906E+04 -8.457541E+04  2.701651E+04  3.924938E+03  2.163099E+04
       205  26 -8.592784E+05 -8.124434E+04 -7.318250E+04  2.037358E+04  1.345865E+03  2.008635E+04
       205  27 -8.217300E+05 -7.198945E+04 -6.375891E+04  2.644756E+04 -1.231509E+03  1.789401E+04
       206   1 -2.518711E+05  6.540788E+04  5.404480E+04  2.754435E+04 -3.941572E+03 -1.645583E+04
       206   2 -2.898536E+05  5.627238E+04  4.696624E+04  2.108544E+04 -3.511264E+03 -1.406681E+04
       206   3 -3.279375E+05  4.714294E+04  3.959710E+04  2.743146E+04 -3.081635E+03 -1.164188E+04
       206   4 -5.228080E+05  5.966793E+01 -1.639130E+03  2.711368E+04 -1.268333E+03 -1.645143E+04
       206   5 -5.227506E+05  8.618636E+01 -9.589386E+02  2.071103E+04 -7.977777E+02 -1.406203E+04
       206   6 -5.228023E+05  1.119665E+02 -5.972317E+02  2.711359E+04 -3.278755E+02 -1.163671E+04
       206   7 -7.936751E+05 -6.529316E+04 -5.732696E+04  2.668318E+04  1.403760E+03 -1.644704E+04
       206   8 -7.555959E+05 -5.610342E+04 -4.888700E+04  2.033674E+04  1.914708E+03 -1.405725E+04
       206   9 -7.176311E+05 -4.692141E+04 -4.079359E+04  2.679580E+04  2.425034E+03 -1.163154E+04
       206  10 -2.518712E+05  6.540758E+04  5.404426E+04  2.754430E+04 -3.683970E-09 -7.471871E-10
       206  11 -2.898537E+05  5.627216E+04  4.696585E+04  2.108540E+04 -6.626500E-09  3.292102E-10
       206  12 -3.279375E+05  4.714279E+04  3.959683E+04  2.743143E+04  5.061800E-09 -2.941411E-10
       206  13 -5.228081E+05  5.937694E+01 -1.639641E+03  2.711367E+04 -7.618334E-09  4.807510E-10
       206  14 -5.227506E+05  8.597390E+01 -9.593113E+02  2.071102E+04 -8.930879E-09  9.448960E-10
       206  15 -5.228024E+05  1.118211E+02 -5.974863E+02  2.711358E+04 -3.680203E-09 -1.927729E-09
       206  16 -7.936752E+05 -6.529345E+04 -5.732748E+04  2.668319E+04 -1.888232E-09 -2.594365E-09
       206  17 -7.555960E+05 -5.610364E+04 -4.888738E+04  2.033676E+04  1.933594E-09  6.012368E-09
       206  18 -7.176311E+05 -4.692155E+04 -4.079385E+04  2.679582E+04 -6.736494E-09  3.509547E-09
       206  19 -2.518711E+05  6.540788E+04  5.404480E+04  2.754435E+04  3.941572E+03  1.645583E+04
       206  20 -2.898536E+05  5.627238E+04  4.696624E+04  2.108544E+04  3.511264E+03  1.406681E+04
       206  21 -3.279375E+05  4.714294E+04  3.959710E+04  2.743146E+04  3.081635E+03  1.164188E+04
       206  22 -5.228080E+05  5.966793E+01 -1.639130E+03  2.711368E+04  1.268333E+03  1.645143E+04
       206  23 -5.227506E+05  8.618636E+01 -9.589386E+02  2.071103E+04  7.977777E+02  1.406203E+04
       206  24 -5.228023E+05  1.119665E+02 -5.972317E+02  2.711359E+04  3.278755E+02  1.163671E+04
       206  25 -7.936751E+05 -6.529316E+04 -5.732696E+04  2.668318E+04 -1.403760E+03  1.644704E+04
       206  26 -7.555959E+05 -5.610342E+04 -4.888700E+04  2.033674E+04 -1.914708E+03  1.405725E+04
       206  27 -7.176311E+05 -4.692141E+04 -4.079359E+04  2.679580E+04 -2.425034E+03  1.163154E+04
       207   1 -3.559757E+05  4.033499E+04  3.372981E+04  2.738873E+04 -2.979613E+03 -1.022056E+04
       207   2 -3.940704E+05  3.113668E+04  2.608419E+04  2.090193E+04 -2.793763E+03 -7.781723E+03
       207   3 -4.322365E+05  2.198664E+04  1.831452E+04  2.725386E+04 -2.608263E+03 -5.339690E+03
       207   4 -5.227922E+05  1.100853E+02 -4.935071E+02  2.712109E+04 -2.319872E+02 -1.021525E+04
       207   5 -5.227540E+05  9.095039E+01 -3.927464E+02  2.070165E+04 -4.265472E+01 -7.776239E+03
       207   6 -5.227892E+05  1.195627E+02 -4.184492E+02  2.712108E+04  1.463404E+02 -5.334023E+03
       207   7 -6.895822E+05 -4.011656E+04 -3.471828E+04  2.685352E+04  2.514913E+03 -1.020995E+04
       207   8 -6.514218E+05 -3.095582E+04 -2.687054E+04  2.050140E+04  2.707894E+03 -7.770756E+03
       207   9 -6.133340E+05 -2.174803E+04 -1.915184E+04  2.698832E+04  2.900548E+03 -5.328357E+03
       207  10 -3.559758E+05  4.033487E+04  3.372960E+04  2.738870E+04  2.051477E-08 -4.626909E-09
       207  11 -3.940705E+05  3.113661E+04  2.608406E+04  2.090191E+04 -4.998244E-09 -1.324359E-09
       207  12 -4.322366E+05  2.198661E+04  1.831445E+04  2.725384E+04 -3.146061E-08 -2.753645E-09
       207  13 -5.227922E+05  1.099733E+02 -4.937033E+02  2.712109E+04  1.067883E-09  1.862103E-10
       207  14 -5.227540E+05  9.088547E+01 -3.928600E+02  2.070165E+04 -1.520657E-08 -3.846051E-09
       207  15 -5.227892E+05  1.195321E+02 -4.185027E+02  2.712108E+04 -6.327912E-09 -3.738608E-09
       207  16 -6.895823E+05 -4.011668E+04 -3.471849E+04  2.685354E+04 -2.383958E-08 -6.623532E-10
       207  17 -6.514218E+05 -3.095588E+04 -2.687067E+04  2.050142E+04 -1.162407E-09  4.307320E-09
       207  18 -6.133340E+05 -2.174807E+04 -1.915190E+04  2.698834E+04  2.826009E-08  1.004144E-10
       207  19 -3.559757E+05  4.033499E+04  3.372981E+04  2.738873E+04  2.979613E+03  1.022056E+04
       207  20 -3.940704E+05  3.113668E+04  2.608419E+04  2.090193E+04  2.793763E+03  7.781723E+03
       207  21 -4.322365E+05  2.198664E+04  1.831452E+04  2.725386E+04  2.608263E+03  5.339690E+03
       207  22 -5.227922E+05  1.100853E+02 -4.935071E+02  2.712109E+04  2.319872E+02  1.021525E+04
       207  23 -5.227540E+05  9.095039E+01 -3.927464E+02  2.070165E+04  4.265472E+01  7.776239E+03
       207  24 -5.227892E+05  1.195627E+02 -4.184492E+02  2.712108E+04 -1.463404E+02  5.334023E+03
       207  25 -6.895822E+05 -4.011656E+04 -3.471828E+04  2.685352E+04 -2.514913E+03  1.020995E+04
       207  26 -6.514218E+05 -3.095582E+04 -2.687054E+04  2.050140E+04 -2.707894E+03  7.770756E+03
       207  27 -6.133340E+05 -2.174803E+04 -1.915184E+04  2.698832E+04 -2.900548E+03  5.328357E+03
       208   1 -4.603383E+05  1.516841E+04  1.227063E+04  2.720899E+04 -2.530535E+03 -3.917170E+03
       208   2 -4.984585E+05  5.962457E+03  4.277462E+03  2.070047E+04 -2.179304E+03 -1.472719E+03
       208   3 -5.366780E+05 -3.200206E+03 -3.950069E+03  2.704469E+04 -1.828161E+03  9.709595E+02
       208   4 -5.227944E+05  1.201466E+02 -4.792789E+02  2.712417E+04  2.248449E+02 -3.911438E+03
       208   5 -5.227437E+05  1.034173E+02 -7.191152E+02  2.069778E+04  5.750959E+02 -1.466960E+03
       208   6 -5.227939E+05  1.300774E+02 -1.192772E+03  2.712415E+04  9.252805E+02  9.767523E+02
       208   7 -5.852467E+05 -1.492835E+04 -1.322936E+04  2.703935E+04  2.979953E+03 -3.905707E+03
       208   8 -5.470282E+05 -5.755655E+03 -5.715696E+03  2.069508E+04  3.329390E+03 -1.461200E+03
       208   9 -5.089096E+05  3.460354E+03  1.564544E+03  2.720361E+04  3.678782E+03  9.825458E+02
       208  10 -4.603383E+05  1.516839E+04  1.227058E+04  2.720898E+04  8.309604E-09 -3.926595E-11
       208  11 -4.984586E+05  5.962453E+03  4.277449E+03  2.070047E+04 -1.543826E-09 -1.828550E-09
       208  12 -5.366780E+05 -3.200208E+03 -3.950077E+03  2.704469E+04 -7.341000E-09  2.023283E-09
       208  13 -5.227944E+05  1.201302E+02 -4.793077E+02  2.712417E+04  7.021789E-10  2.761779E-09
       208  14 -5.227437E+05  1.034149E+02 -7.191199E+02  2.069778E+04 -9.132110E-09 -6.838209E-09
       208  15 -5.227939E+05  1.300762E+02 -1.192775E+03  2.712415E+04 -1.103213E-09 -7.581832E-09
       208  16 -5.852468E+05 -1.492837E+04 -1.322941E+04  2.703936E+04 -9.050242E-09 -5.812349E-10
       208  17 -5.470282E+05 -5.755660E+03 -5.715720E+03  2.069509E+04 -4.599343E-09 -8.584267E-09
       208  18 -5.089096E+05  3.460349E+03  1.564517E+03  2.720361E+04  1.378554E-08 -1.183115E-11
       208  19 -4.603383E+05  1.516841E+04  1.227063E+04  2.720899E+04  2.530535E+03  3.917170E+03
       208  20 -4.984585E+05  5.962457E+03  4.277462E+03  2.070047E+04  2.179304E+03  1.472719E+03
       208  21 -5.366780E+05 -3.200206E+03 -3.950069E+03  2.704469E+04  1.828161E+03 -9.709595E+02
       208  22 -5.227944E+05  1.201466E+02 -4.792789E+02  2.712417E+04 -2.248449E+02  3.911438E+03
       208  23 -5.227437E+05  1.034173E+02 -7.191152E+02  2.069778E+04 -5.750959E+02  1.466960E+03
       208  24 -5.227939E+05  1.300774E+02 -1.192772E+03  2.712415E+04 -9.252805E+02 -9.767523E+02
       208  25 -5.852467E+05 -1.492835E+04 -1.322936E+04  2.703935E+04 -2.979953E+03  3.905707E+03
       208  26 -5.470282E+05 -5.755655E+03 -5.715696E+03  2.069508E+04 -3.329390E+03  1.461200E+03
       208  27 -5.089096E+05  3.460354E+03  1.564544E+03  2.720361E+04 -3.678782E+03 -9.825458E+02
       209   1 -5.648186E+05 -1.001241E+04 -1.029720E+04  2.696752E+04 -1.588162E+03  2.395406E+03
       209   2 -6.028390E+05 -1.920570E+04 -1.917773E+04  2.045127E+04 -2.399287E+02  4.833727E+03
       209   3 -6.411233E+05 -2.849868E+04 -2.897779E+04  2.678112E+04  1.108494E+03  7.248172E+03
       209   4 -5.228296E+05  1.395867E+02 -1.554963E+03  2.712256E+04  1.170644E+03  2.401187E+03
       209   5 -5.227008E+05  1.325454E+02 -2.680309E+03  2.069969E+04  2.492068E+03  4.839342E+03
       209   6 -5.228320E+05  3.073193E+01 -4.706256E+03  2.712280E+04  3.813761E+03  7.253628E+03
       209   7 -4.808390E+05  1.029148E+04  7.187209E+03  2.727762E+04  3.929634E+03  2.406969E+03
       209   8 -4.425564E+05  1.947039E+04  1.381679E+04  2.094814E+04  5.224410E+03  4.844960E+03
       209   9 -4.045273E+05  2.855927E+04  1.956456E+04  2.746455E+04  6.519534E+03  7.259086E+03
       209  10 -5.648186E+05 -1.001242E+04 -1.029722E+04  2.696752E+04  2.275180E-08  6.115047E-09
       209  11 -6.028390E+05 -1.920573E+04 -1.917777E+04  2.045127E+04 -1.981730E-09  1.405425E-09
       209  12 -6.411234E+05 -2.849874E+04 -2.897789E+04  2.678111E+04 -2.911412E-08  8.113196E-10
       209  13 -5.228296E+05  1.395802E+02 -1.554976E+03  2.712256E+04  1.179824E-09 -4.701702E-09
       209  14 -5.227008E+05  1.325186E+02 -2.680365E+03  2.069968E+04 -2.666287E-09  2.601288E-09
       209  15 -5.228320E+05  3.067154E+01 -4.706382E+03  2.712278E+04  5.780302E-09  5.671894E-10
       209  16 -4.808390E+05  1.029147E+04  7.187169E+03  2.727761E+04 -2.245868E-08  8.847641E-09
       209  17 -4.425565E+05  1.947036E+04  1.381669E+04  2.094812E+04  4.805032E-09  3.567475E-09
       209  18 -4.045273E+05  2.855920E+04  1.956438E+04  2.746451E+04  3.217498E-08  1.591634E-09
       209  19 -5.648186E+05 -1.001241E+04 -1.029720E+04  2.696752E+04  1.588162E+03 -2.395406E+03
       209  20 -6.028390E+05 -1.920570E+04 -1.917773E+04  2.045127E+04  2.399287E+02 -4.833727E+03
       209  21 -6.411233E+05 -2.849868E+04 -2.897779E+04  2.678112E+04 -1.108494E+03 -7.248172E+03
       209  22 -5.228296E+05  1.395867E+02 -1.554963E+03  2.712256E+04 -1.170644E+03 -2.401187E+03
       209  23 -5.227008E+05  1.325454E+02 -2.680309E+03  2.069969E+04 -2.492068E+03 -4.839342E+03
       209  24 -5.228320E+05  3.073193E+01 -4.706256E+03  2.712280E+04 -3.813761E+03 -7.253628E+03
       209  25 -4.808390E+05  1.029148E+04  7.187209E+03  2.727762E+04 -3.929634E+03 -2.406969E+03
       209  26 -4.425564E+05  1.947039E+04  1.381679E+04  2.094814E+04 -5.224410E+03 -4.844960E+03
       209  27 -4.045273E+05  2.855927E+04  1.956456E+04  2.746455E+04 -6.519534E+03 -7.259086E+03
       210   1 -6.694816E+05 -3.505025E+04 -3.640741E+04  2.619005E+04  1.954329E+03  8.692993E+03
       210   2 -7.067719E+05 -4.450124E+04 -4.883085E+04  2.064011E+04  7.822761E+03  1.097865E+04
       210   3 -7.456539E+05 -5.704502E+04 -6.586494E+04  2.789293E+04  1.369209E+04  1.281634E+04
       210   4 -5.231101E+05  2.952925E+02 -6.169785E+03  2.711137E+04  4.770268E+03  8.698568E+03
       210   5 -5.223610E+05  2.320104E+01 -1.074666E+04  2.071361E+04  1.013523E+04  1.098298E+04
       210   6 -5.231168E+05 -3.253459E+03 -1.958317E+04  2.711842E+04  1.550144E+04  1.281947E+04
       210   7 -3.767184E+05  3.563949E+04  2.406671E+04  2.803290E+04  7.586860E+03  8.704151E+03
       210   8 -3.379178E+05  4.454549E+04  2.733572E+04  2.078711E+04  1.244837E+04  1.098730E+04
       210   9 -3.005327E+05  5.053495E+04  2.669589E+04  2.634361E+04  1.731142E+04  1.282259E+04
       210  10 -6.694816E+05 -3.505034E+04 -3.640756E+04  2.619003E+04 -5.675981E-10 -1.108616E-09
       210  11 -7.067720E+05 -4.450139E+04 -4.883119E+04  2.064004E+04 -4.404604E-09  2.412590E-09
       210  12 -7.456542E+05 -5.704525E+04 -6.586560E+04  2.789279E+04  4.039143E-10 -6.267053E-09
       210  13 -5.231102E+05  2.952052E+02 -6.169970E+03  2.711133E+04  1.444557E-09 -6.959781E-09
       210  14 -5.223611E+05  2.304394E+01 -1.074708E+04  2.071352E+04 -5.384464E-09  2.914532E-09
       210  15 -5.231171E+05 -3.253700E+03 -1.958393E+04  2.711826E+04 -6.599058E-09 -3.756301E-09
       210  16 -3.767184E+05  3.563939E+04  2.406646E+04  2.803284E+04 -1.952460E-09 -5.919462E-09
       210  17 -3.379180E+05  4.454532E+04  2.733520E+04  2.078700E+04 -1.498023E-09 -1.140242E-08
       210  18 -3.005331E+05  5.053469E+04  2.669501E+04  2.634343E+04 -3.507789E-09 -6.305672E-10
       210  19 -6.694816E+05 -3.505025E+04 -3.640741E+04  2.619005E+04 -1.954329E+03 -8.692993E+03
       210  20 -7.067719E+05 -4.450124E+04 -4.883085E+04  2.064011E+04 -7.822761E+03 -1.097865E+04
       210  21 -7.456539E+05 -5.704502E+04 -6.586494E+04  2.789293E+04 -1.369209E+04 -1.281634E+04
       210  22 -5.231101E+05  2.952925E+02 -6.169785E+03  2.711137E+04 -4.770268E+03 -8.698568E+03
       210  23 -5.223610E+05  2.320104E+01 -1.074666E+04  2.071361E+04 -1.013523E+04 -1.098298E+04
       210  24 -5.231168E+05 -3.253459E+03 -1.958317E+04  2.711842E+04 -1.550144E+04 -1.281947E+04
       210  25 -3.767184E+05  3.563949E+04  2.406671E+04  2.803290E+04 -7.586860E+03 -8.704151E+03
       210  26 -3.379178E+05  4.454549E+04  2.733572E+04  2.078711E+04 -1.244837E+04 -1.098730E+04
       210  27 -3.005327E+05  5.053495E+04  2.669589E+04  2.634361E+04 -1.731142E+04 -1.282259E+04
       211   1 -7.779089E+05 -5.783113E+04 -7.698595E+04  1.642506E+04  1.492260E+04  1.466111E+04
       211   2 -8.053659E+05 -7.538408E+04 -1.055673E+05  3.671826E+04  4.762308E+04  1.392491E+04
       211   3 -8.541827E+05 -1.611618E+05 -1.725182E+05  6.940434E+04  8.033527E+04  4.524459E+03
       211   4 -5.271503E+05  2.804827E+03 -2.498497E+04  2.699145E+04  1.891120E+04  1.466847E+04
       211   5 -5.173355E+05 -5.427317E+03 -4.368057E+04  2.086872E+04  4.185462E+04  1.391271E+04
       211   6 -5.271779E+05 -8.017421E+04 -9.395544E+04  2.714120E+04  6.481241E+04  4.491729E+03
       211   7 -2.763318E+05  6.343721E+04  2.701269E+04  3.756215E+04  2.290139E+04  1.467596E+04
       211   8 -2.292264E+05  6.452498E+04  1.820155E+04  5.011690E+03  3.608350E+04  1.390081E+04
       211   9 -2.000707E+05  8.125495E+02 -1.539835E+04 -1.514435E+04  4.928139E+04  4.461126E+03
       211  10 -7.779092E+05 -5.783142E+04 -7.698677E+04  1.642488E+04  1.987662E-08 -3.069320E-09
       211  11 -8.053684E+05 -7.538490E+04 -1.055719E+05  3.671772E+04 -1.681847E-09  1.869985E-09
       211  12 -8.541896E+05 -1.611636E+05 -1.725304E+05  6.940404E+04 -1.313993E-08  7.908179E-09
       211  13 -5.271507E+05  2.804500E+03 -2.498605E+04  2.699122E+04 -3.281198E-09  3.891836E-09
       211  14 -5.173375E+05 -5.427995E+03 -4.368422E+04  2.086825E+04 -2.609185E-09  3.201373E-09
       211  15 -5.271824E+05 -8.017536E+04 -9.396338E+04  2.714097E+04 -3.666559E-09  3.183004E-09
       211  16 -2.763324E+05  6.343683E+04  2.701130E+04  3.756188E+04 -2.357259E-08  4.077353E-09
       211  17 -2.292278E+05  6.452443E+04  1.819874E+04  5.011286E+03 -8.666509E-09  3.087539E-09
       211  18 -2.000733E+05  8.118758E+02 -1.540295E+04 -1.514452E+04  1.252263E-08 -1.217200E-09
       211  19 -7.779089E+05 -5.783113E+04 -7.698595E+04  1.642506E+04 -1.492260E+04 -1.466111E+04
       211  20 -8.053659E+05 -7.538408E+04 -1.055673E+05  3.671826E+04 -4.762308E+04 -1.392491E+04
       211  21 -8.541827E+05 -1.611618E+05 -1.725182E+05  6.940434E+04 -8.033527E+04 -4.524459E+03
       211  22 -5.271503E+05  2.804827E+03 -2.498497E+04  2.699145E+04 -1.891120E+04 -1.466847E+04
       211  23 -5.173355E+05 -5.427317E+03 -4.368057E+04  2.086872E+04 -4.185462E+04 -1.391271E+04
       211  24 -5.271779E+05 -8.017421E+04 -9.395544E+04  2.714120E+04 -6.481241E+04 -4.491729E+03
       211  25 -2.763318E+05  6.343721E+04  2.701269E+04  3.756215E+04 -2.290139E+04 -1.467596E+04
       211  26 -2.292264E+05  6.452498E+04  1.820155E+04  5.011690E+03 -3.608350E+04 -1.390081E+04
       211  27 -2.000707E+05  8.125495E+02 -1.539835E+04 -1.514435E+04 -4.928139E+04 -4.461126E+03
