    1C
    1UUSER                                                              
    1UDATE              11.october.2022                                 
    1UTIME              18:43:43                                        
    1UHOST                                                              
    1UPGM               CalculiX                                        
    1UVERSION           Version 2.20                             
    1UCOMPILETIME       Sun Jul 31 18:08:37 CEST 2022                    
    1UDIR                                                               
    1UDBN                                                               
    1UMAT    1MESH_MATERIAL                                             
    2C                           409                                     1
 -1         1 0.00000E+00 0.00000E+00 0.00000E+00
 -1         2 1.66667E-02 0.00000E+00 0.00000E+00
 -1         3 3.33333E-02 0.00000E+00 0.00000E+00
 -1         5 6.66667E-02 0.00000E+00 0.00000E+00
 -1         8 0.00000E+00 6.25000E-03 0.00000E+00
 -1         9 1.66667E-02 6.25000E-03 0.00000E+00
 -1        10 3.33333E-02 6.25000E-03 0.00000E+00
 -1        12 6.66667E-02 6.25000E-03 0.00000E+00
 -1        15 0.00000E+00 1.25000E-02 0.00000E+00
 -1        16 1.66667E-02 1.25000E-02 0.00000E+00
 -1        17 3.33333E-02 1.25000E-02 0.00000E+00
 -1        18 5.00000E-02 1.25000E-02 0.00000E+00
 -1        19 6.66667E-02 1.25000E-02 0.00000E+00
 -1        20 8.33333E-02 1.25000E-02 0.00000E+00
 -1        21 1.00000E-01 1.25000E-02 0.00000E+00
 -1        24 3.33333E-02 1.87500E-02 0.00000E+00
 -1        25 5.00000E-02 1.87500E-02 0.00000E+00
 -1        26 6.66667E-02 1.87500E-02 0.00000E+00
 -1        27 8.33333E-02 1.87500E-02 0.00000E+00
 -1        28 1.00000E-01 1.87500E-02 0.00000E+00
 -1        32 5.00000E-02 2.50000E-02 0.00000E+00
 -1        33 6.66667E-02 2.50000E-02 0.00000E+00
 -1        34 8.33333E-02 2.50000E-02 0.00000E+00
 -1        35 1.00000E-01 2.50000E-02 0.00000E+00
 -1        51 0.00000E+00 1.04167E-03 0.00000E+00
 -1        52 0.00000E+00 2.08333E-03 0.00000E+00
 -1        53 0.00000E+00 3.12500E-03 0.00000E+00
 -1        54 0.00000E+00 4.16667E-03 0.00000E+00
 -1        55 0.00000E+00 5.20833E-03 0.00000E+00
 -1        56 1.04167E-03 3.90630E-04 0.00000E+00
 -1        57 2.08333E-03 7.81250E-04 0.00000E+00
 -1        58 3.12500E-03 1.17188E-03 0.00000E+00
 -1        59 4.16667E-03 1.56250E-03 0.00000E+00
 -1        60 5.20833E-03 1.95312E-03 0.00000E+00
 -1        61 6.25000E-03 2.34375E-03 0.00000E+00
 -1        62 7.29167E-03 2.73438E-03 0.00000E+00
 -1        63 8.33333E-03 3.12500E-03 0.00000E+00
 -1        64 9.37500E-03 3.51563E-03 0.00000E+00
 -1        65 1.04167E-02 3.90625E-03 0.00000E+00
 -1        66 1.14583E-02 4.29688E-03 0.00000E+00
 -1        67 1.25000E-02 4.68750E-03 0.00000E+00
 -1        68 1.35417E-02 5.07813E-03 0.00000E+00
 -1        69 1.45833E-02 5.46875E-03 0.00000E+00
 -1        70 1.56250E-02 5.85938E-03 0.00000E+00
 -1        86 1.66667E-02 1.04167E-03 0.00000E+00
 -1        87 1.66667E-02 2.08333E-03 0.00000E+00
 -1        88 1.66667E-02 3.12500E-03 0.00000E+00
 -1        89 1.66667E-02 4.16667E-03 0.00000E+00
 -1        90 1.66667E-02 5.20833E-03 0.00000E+00
 -1       121 3.33333E-02 1.04167E-03 0.00000E+00
 -1       122 3.33333E-02 2.08333E-03 0.00000E+00
 -1       123 3.33333E-02 3.12500E-03 0.00000E+00
 -1       124 3.33333E-02 4.16667E-03 0.00000E+00
 -1       125 3.33333E-02 5.20833E-03 0.00000E+00
 -1       191 6.66667E-02 1.04167E-03 0.00000E+00
 -1       192 6.66667E-02 2.08333E-03 0.00000E+00
 -1       193 6.66667E-02 3.12500E-03 0.00000E+00
 -1       194 6.66667E-02 4.16667E-03 0.00000E+00
 -1       195 6.66667E-02 5.20833E-03 0.00000E+00
 -1       251 1.04167E-03 6.25000E-03 0.00000E+00
 -1       252 2.08333E-03 6.25000E-03 0.00000E+00
 -1       253 3.12500E-03 6.25000E-03 0.00000E+00
 -1       254 4.16667E-03 6.25000E-03 0.00000E+00
 -1       255 5.20833E-03 6.25000E-03 0.00000E+00
 -1       256 6.25000E-03 6.25000E-03 0.00000E+00
 -1       257 7.29167E-03 6.25000E-03 0.00000E+00
 -1       258 8.33333E-03 6.25000E-03 0.00000E+00
 -1       259 9.37500E-03 6.25000E-03 0.00000E+00
 -1       260 1.04167E-02 6.25000E-03 0.00000E+00
 -1       261 1.14583E-02 6.25000E-03 0.00000E+00
 -1       262 1.25000E-02 6.25000E-03 0.00000E+00
 -1       263 1.35417E-02 6.25000E-03 0.00000E+00
 -1       264 1.45833E-02 6.25000E-03 0.00000E+00
 -1       265 1.56250E-02 6.25000E-03 0.00000E+00
 -1       266 0.00000E+00 7.29167E-03 0.00000E+00
 -1       267 0.00000E+00 8.33333E-03 0.00000E+00
 -1       268 0.00000E+00 9.37500E-03 0.00000E+00
 -1       269 0.00000E+00 1.04167E-02 0.00000E+00
 -1       270 0.00000E+00 1.14583E-02 0.00000E+00
 -1       271 1.04167E-03 6.64063E-03 0.00000E+00
 -1       272 2.08333E-03 7.03125E-03 0.00000E+00
 -1       273 3.12500E-03 7.42188E-03 0.00000E+00
 -1       274 4.16667E-03 7.81250E-03 0.00000E+00
 -1       275 5.20833E-03 8.20313E-03 0.00000E+00
 -1       276 6.25000E-03 8.59375E-03 0.00000E+00
 -1       277 7.29167E-03 8.98438E-03 0.00000E+00
 -1       278 8.33333E-03 9.37500E-03 0.00000E+00
 -1       279 9.37500E-03 9.76562E-03 0.00000E+00
 -1       280 1.04167E-02 1.01562E-02 0.00000E+00
 -1       281 1.14583E-02 1.05469E-02 0.00000E+00
 -1       282 1.25000E-02 1.09375E-02 0.00000E+00
 -1       283 1.35417E-02 1.13281E-02 0.00000E+00
 -1       284 1.45833E-02 1.17188E-02 0.00000E+00
 -1       285 1.56250E-02 1.21094E-02 0.00000E+00
 -1       301 1.66667E-02 7.29167E-03 0.00000E+00
 -1       302 1.66667E-02 8.33333E-03 0.00000E+00
 -1       303 1.66667E-02 9.37500E-03 0.00000E+00
 -1       304 1.66667E-02 1.04167E-02 0.00000E+00
 -1       305 1.66667E-02 1.14583E-02 0.00000E+00
 -1       306 1.77083E-02 6.64063E-03 0.00000E+00
 -1       307 1.87500E-02 7.03125E-03 0.00000E+00
 -1       308 1.97917E-02 7.42188E-03 0.00000E+00
 -1       309 2.08333E-02 7.81250E-03 0.00000E+00
 -1       310 2.18750E-02 8.20313E-03 0.00000E+00
 -1       311 2.29167E-02 8.59375E-03 0.00000E+00
 -1       312 2.39583E-02 8.98438E-03 0.00000E+00
 -1       313 2.50000E-02 9.37500E-03 0.00000E+00
 -1       314 2.60417E-02 9.76562E-03 0.00000E+00
 -1       315 2.70833E-02 1.01562E-02 0.00000E+00
 -1       316 2.81250E-02 1.05469E-02 0.00000E+00
 -1       317 2.91667E-02 1.09375E-02 0.00000E+00
 -1       318 3.02083E-02 1.13281E-02 0.00000E+00
 -1       319 3.12500E-02 1.17188E-02 0.00000E+00
 -1       320 3.22917E-02 1.21094E-02 0.00000E+00
 -1       336 3.33333E-02 7.29167E-03 0.00000E+00
 -1       337 3.33333E-02 8.33333E-03 0.00000E+00
 -1       338 3.33333E-02 9.37500E-03 0.00000E+00
 -1       339 3.33333E-02 1.04167E-02 0.00000E+00
 -1       340 3.33333E-02 1.14583E-02 0.00000E+00
 -1       406 6.66667E-02 7.29167E-03 0.00000E+00
 -1       407 6.66667E-02 8.33333E-03 0.00000E+00
 -1       408 6.66667E-02 9.37500E-03 0.00000E+00
 -1       409 6.66667E-02 1.04167E-02 0.00000E+00
 -1       410 6.66667E-02 1.14583E-02 0.00000E+00
 -1       521 1.77083E-02 1.28906E-02 0.00000E+00
 -1       522 1.87500E-02 1.32813E-02 0.00000E+00
 -1       523 1.97917E-02 1.36719E-02 0.00000E+00
 -1       524 2.08333E-02 1.40625E-02 0.00000E+00
 -1       525 2.18750E-02 1.44531E-02 0.00000E+00
 -1       526 2.29167E-02 1.48437E-02 0.00000E+00
 -1       527 2.39583E-02 1.52344E-02 0.00000E+00
 -1       528 2.50000E-02 1.56250E-02 0.00000E+00
 -1       529 2.60417E-02 1.60156E-02 0.00000E+00
 -1       530 2.70833E-02 1.64062E-02 0.00000E+00
 -1       531 2.81250E-02 1.67969E-02 0.00000E+00
 -1       532 2.91667E-02 1.71875E-02 0.00000E+00
 -1       533 3.02083E-02 1.75781E-02 0.00000E+00
 -1       534 3.12500E-02 1.79687E-02 0.00000E+00
 -1       535 3.22917E-02 1.83594E-02 0.00000E+00
 -1       536 3.43750E-02 1.25000E-02 0.00000E+00
 -1       537 3.54167E-02 1.25000E-02 0.00000E+00
 -1       538 3.64583E-02 1.25000E-02 0.00000E+00
 -1       539 3.75000E-02 1.25000E-02 0.00000E+00
 -1       540 3.85417E-02 1.25000E-02 0.00000E+00
 -1       541 3.95833E-02 1.25000E-02 0.00000E+00
 -1       542 4.06250E-02 1.25000E-02 0.00000E+00
 -1       543 4.16667E-02 1.25000E-02 0.00000E+00
 -1       544 4.27083E-02 1.25000E-02 0.00000E+00
 -1       545 4.37500E-02 1.25000E-02 0.00000E+00
 -1       546 4.47917E-02 1.25000E-02 0.00000E+00
 -1       547 4.58333E-02 1.25000E-02 0.00000E+00
 -1       548 4.68750E-02 1.25000E-02 0.00000E+00
 -1       549 4.79167E-02 1.25000E-02 0.00000E+00
 -1       550 4.89583E-02 1.25000E-02 0.00000E+00
 -1       551 3.33333E-02 1.35417E-02 0.00000E+00
 -1       552 3.33333E-02 1.45833E-02 0.00000E+00
 -1       553 3.33333E-02 1.56250E-02 0.00000E+00
 -1       554 3.33333E-02 1.66667E-02 0.00000E+00
 -1       555 3.33333E-02 1.77083E-02 0.00000E+00
 -1       556 3.43750E-02 1.28906E-02 0.00000E+00
 -1       557 3.54167E-02 1.32813E-02 0.00000E+00
 -1       558 3.64583E-02 1.36719E-02 0.00000E+00
 -1       559 3.75000E-02 1.40625E-02 0.00000E+00
 -1       560 3.85417E-02 1.44531E-02 0.00000E+00
 -1       561 3.95833E-02 1.48437E-02 0.00000E+00
 -1       562 4.06250E-02 1.52344E-02 0.00000E+00
 -1       563 4.16667E-02 1.56250E-02 0.00000E+00
 -1       564 4.27083E-02 1.60156E-02 0.00000E+00
 -1       565 4.37500E-02 1.64062E-02 0.00000E+00
 -1       566 4.47917E-02 1.67969E-02 0.00000E+00
 -1       567 4.58333E-02 1.71875E-02 0.00000E+00
 -1       568 4.68750E-02 1.75781E-02 0.00000E+00
 -1       569 4.79167E-02 1.79687E-02 0.00000E+00
 -1       570 4.89583E-02 1.83594E-02 0.00000E+00
 -1       571 5.10417E-02 1.25000E-02 0.00000E+00
 -1       572 5.20833E-02 1.25000E-02 0.00000E+00
 -1       573 5.31250E-02 1.25000E-02 0.00000E+00
 -1       574 5.41667E-02 1.25000E-02 0.00000E+00
 -1       575 5.52083E-02 1.25000E-02 0.00000E+00
 -1       576 5.62500E-02 1.25000E-02 0.00000E+00
 -1       577 5.72917E-02 1.25000E-02 0.00000E+00
 -1       578 5.83333E-02 1.25000E-02 0.00000E+00
 -1       579 5.93750E-02 1.25000E-02 0.00000E+00
 -1       580 6.04167E-02 1.25000E-02 0.00000E+00
 -1       581 6.14583E-02 1.25000E-02 0.00000E+00
 -1       582 6.25000E-02 1.25000E-02 0.00000E+00
 -1       583 6.35417E-02 1.25000E-02 0.00000E+00
 -1       584 6.45833E-02 1.25000E-02 0.00000E+00
 -1       585 6.56250E-02 1.25000E-02 0.00000E+00
 -1       586 5.00000E-02 1.35417E-02 0.00000E+00
 -1       587 5.00000E-02 1.45833E-02 0.00000E+00
 -1       588 5.00000E-02 1.56250E-02 0.00000E+00
 -1       589 5.00000E-02 1.66667E-02 0.00000E+00
 -1       590 5.00000E-02 1.77083E-02 0.00000E+00
 -1       591 5.10417E-02 1.28906E-02 0.00000E+00
 -1       592 5.20833E-02 1.32813E-02 0.00000E+00
 -1       593 5.31250E-02 1.36719E-02 0.00000E+00
 -1       594 5.41667E-02 1.40625E-02 0.00000E+00
 -1       595 5.52083E-02 1.44531E-02 0.00000E+00
 -1       596 5.62500E-02 1.48437E-02 0.00000E+00
 -1       597 5.72917E-02 1.52344E-02 0.00000E+00
 -1       598 5.83333E-02 1.56250E-02 0.00000E+00
 -1       599 5.93750E-02 1.60156E-02 0.00000E+00
 -1       600 6.04167E-02 1.64062E-02 0.00000E+00
 -1       601 6.14583E-02 1.67969E-02 0.00000E+00
 -1       602 6.25000E-02 1.71875E-02 0.00000E+00
 -1       603 6.35417E-02 1.75781E-02 0.00000E+00
 -1       604 6.45833E-02 1.79687E-02 0.00000E+00
 -1       605 6.56250E-02 1.83594E-02 0.00000E+00
 -1       606 6.77083E-02 1.25000E-02 0.00000E+00
 -1       607 6.87500E-02 1.25000E-02 0.00000E+00
 -1       608 6.97917E-02 1.25000E-02 0.00000E+00
 -1       609 7.08333E-02 1.25000E-02 0.00000E+00
 -1       610 7.18750E-02 1.25000E-02 0.00000E+00
 -1       611 7.29167E-02 1.25000E-02 0.00000E+00
 -1       612 7.39583E-02 1.25000E-02 0.00000E+00
 -1       613 7.50000E-02 1.25000E-02 0.00000E+00
 -1       614 7.60417E-02 1.25000E-02 0.00000E+00
 -1       615 7.70833E-02 1.25000E-02 0.00000E+00
 -1       616 7.81250E-02 1.25000E-02 0.00000E+00
 -1       617 7.91667E-02 1.25000E-02 0.00000E+00
 -1       618 8.02083E-02 1.25000E-02 0.00000E+00
 -1       619 8.12500E-02 1.25000E-02 0.00000E+00
 -1       620 8.22917E-02 1.25000E-02 0.00000E+00
 -1       621 6.66667E-02 1.35417E-02 0.00000E+00
 -1       622 6.66667E-02 1.45833E-02 0.00000E+00
 -1       623 6.66667E-02 1.56250E-02 0.00000E+00
 -1       624 6.66667E-02 1.66667E-02 0.00000E+00
 -1       625 6.66667E-02 1.77083E-02 0.00000E+00
 -1       626 6.77083E-02 1.28906E-02 0.00000E+00
 -1       627 6.87500E-02 1.32813E-02 0.00000E+00
 -1       628 6.97917E-02 1.36719E-02 0.00000E+00
 -1       629 7.08333E-02 1.40625E-02 0.00000E+00
 -1       630 7.18750E-02 1.44531E-02 0.00000E+00
 -1       631 7.29167E-02 1.48437E-02 0.00000E+00
 -1       632 7.39583E-02 1.52344E-02 0.00000E+00
 -1       633 7.50000E-02 1.56250E-02 0.00000E+00
 -1       634 7.60417E-02 1.60156E-02 0.00000E+00
 -1       635 7.70833E-02 1.64062E-02 0.00000E+00
 -1       636 7.81250E-02 1.67969E-02 0.00000E+00
 -1       637 7.91667E-02 1.71875E-02 0.00000E+00
 -1       638 8.02083E-02 1.75781E-02 0.00000E+00
 -1       639 8.12500E-02 1.79687E-02 0.00000E+00
 -1       640 8.22917E-02 1.83594E-02 0.00000E+00
 -1       656 8.33333E-02 1.35417E-02 0.00000E+00
 -1       657 8.33333E-02 1.45833E-02 0.00000E+00
 -1       658 8.33333E-02 1.56250E-02 0.00000E+00
 -1       659 8.33333E-02 1.66667E-02 0.00000E+00
 -1       660 8.33333E-02 1.77083E-02 0.00000E+00
 -1       661 8.43750E-02 1.28906E-02 0.00000E+00
 -1       662 8.54167E-02 1.32813E-02 0.00000E+00
 -1       663 8.64583E-02 1.36719E-02 0.00000E+00
 -1       664 8.75000E-02 1.40625E-02 0.00000E+00
 -1       665 8.85417E-02 1.44531E-02 0.00000E+00
 -1       666 8.95833E-02 1.48437E-02 0.00000E+00
 -1       667 9.06250E-02 1.52344E-02 0.00000E+00
 -1       668 9.16667E-02 1.56250E-02 0.00000E+00
 -1       669 9.27083E-02 1.60156E-02 0.00000E+00
 -1       670 9.37500E-02 1.64062E-02 0.00000E+00
 -1       671 9.47917E-02 1.67969E-02 0.00000E+00
 -1       672 9.58333E-02 1.71875E-02 0.00000E+00
 -1       673 9.68750E-02 1.75781E-02 0.00000E+00
 -1       674 9.79167E-02 1.79687E-02 0.00000E+00
 -1       675 9.89583E-02 1.83594E-02 0.00000E+00
 -1       676 1.00000E-01 1.35417E-02 0.00000E+00
 -1       677 1.00000E-01 1.45833E-02 0.00000E+00
 -1       678 1.00000E-01 1.56250E-02 0.00000E+00
 -1       679 1.00000E-01 1.66667E-02 0.00000E+00
 -1       680 1.00000E-01 1.77083E-02 0.00000E+00
 -1       771 3.43750E-02 1.91406E-02 0.00000E+00
 -1       772 3.54167E-02 1.95312E-02 0.00000E+00
 -1       773 3.64583E-02 1.99219E-02 0.00000E+00
 -1       774 3.75000E-02 2.03125E-02 0.00000E+00
 -1       775 3.85417E-02 2.07031E-02 0.00000E+00
 -1       776 3.95833E-02 2.10938E-02 0.00000E+00
 -1       777 4.06250E-02 2.14844E-02 0.00000E+00
 -1       778 4.16667E-02 2.18750E-02 0.00000E+00
 -1       779 4.27083E-02 2.22656E-02 0.00000E+00
 -1       780 4.37500E-02 2.26563E-02 0.00000E+00
 -1       781 4.47917E-02 2.30469E-02 0.00000E+00
 -1       782 4.58333E-02 2.34375E-02 0.00000E+00
 -1       783 4.68750E-02 2.38281E-02 0.00000E+00
 -1       784 4.79167E-02 2.42187E-02 0.00000E+00
 -1       785 4.89583E-02 2.46094E-02 0.00000E+00
 -1       786 5.10417E-02 1.87500E-02 0.00000E+00
 -1       787 5.20833E-02 1.87500E-02 0.00000E+00
 -1       788 5.31250E-02 1.87500E-02 0.00000E+00
 -1       789 5.41667E-02 1.87500E-02 0.00000E+00
 -1       790 5.52083E-02 1.87500E-02 0.00000E+00
 -1       791 5.62500E-02 1.87500E-02 0.00000E+00
 -1       792 5.72917E-02 1.87500E-02 0.00000E+00
 -1       793 5.83333E-02 1.87500E-02 0.00000E+00
 -1       794 5.93750E-02 1.87500E-02 0.00000E+00
 -1       795 6.04167E-02 1.87500E-02 0.00000E+00
 -1       796 6.14583E-02 1.87500E-02 0.00000E+00
 -1       797 6.25000E-02 1.87500E-02 0.00000E+00
 -1       798 6.35417E-02 1.87500E-02 0.00000E+00
 -1       799 6.45833E-02 1.87500E-02 0.00000E+00
 -1       800 6.56250E-02 1.87500E-02 0.00000E+00
 -1       801 5.00000E-02 1.97917E-02 0.00000E+00
 -1       802 5.00000E-02 2.08333E-02 0.00000E+00
 -1       803 5.00000E-02 2.18750E-02 0.00000E+00
 -1       804 5.00000E-02 2.29167E-02 0.00000E+00
 -1       805 5.00000E-02 2.39583E-02 0.00000E+00
 -1       806 5.10417E-02 1.91406E-02 0.00000E+00
 -1       807 5.20833E-02 1.95312E-02 0.00000E+00
 -1       808 5.31250E-02 1.99219E-02 0.00000E+00
 -1       809 5.41667E-02 2.03125E-02 0.00000E+00
 -1       810 5.52083E-02 2.07031E-02 0.00000E+00
 -1       811 5.62500E-02 2.10938E-02 0.00000E+00
 -1       812 5.72917E-02 2.14844E-02 0.00000E+00
 -1       813 5.83333E-02 2.18750E-02 0.00000E+00
 -1       814 5.93750E-02 2.22656E-02 0.00000E+00
 -1       815 6.04167E-02 2.26563E-02 0.00000E+00
 -1       816 6.14583E-02 2.30469E-02 0.00000E+00
 -1       817 6.25000E-02 2.34375E-02 0.00000E+00
 -1       818 6.35417E-02 2.38281E-02 0.00000E+00
 -1       819 6.45833E-02 2.42187E-02 0.00000E+00
 -1       820 6.56250E-02 2.46094E-02 0.00000E+00
 -1       821 6.77083E-02 1.87500E-02 0.00000E+00
 -1       822 6.87500E-02 1.87500E-02 0.00000E+00
 -1       823 6.97917E-02 1.87500E-02 0.00000E+00
 -1       824 7.08333E-02 1.87500E-02 0.00000E+00
 -1       825 7.18750E-02 1.87500E-02 0.00000E+00
 -1       826 7.29167E-02 1.87500E-02 0.00000E+00
 -1       827 7.39583E-02 1.87500E-02 0.00000E+00
 -1       828 7.50000E-02 1.87500E-02 0.00000E+00
 -1       829 7.60417E-02 1.87500E-02 0.00000E+00
 -1       830 7.70833E-02 1.87500E-02 0.00000E+00
 -1       831 7.81250E-02 1.87500E-02 0.00000E+00
 -1       832 7.91667E-02 1.87500E-02 0.00000E+00
 -1       833 8.02083E-02 1.87500E-02 0.00000E+00
 -1       834 8.12500E-02 1.87500E-02 0.00000E+00
 -1       835 8.22917E-02 1.87500E-02 0.00000E+00
 -1       836 6.66667E-02 1.97917E-02 0.00000E+00
 -1       837 6.66667E-02 2.08333E-02 0.00000E+00
 -1       838 6.66667E-02 2.18750E-02 0.00000E+00
 -1       839 6.66667E-02 2.29167E-02 0.00000E+00
 -1       840 6.66667E-02 2.39583E-02 0.00000E+00
 -1       856 8.43750E-02 1.87500E-02 0.00000E+00
 -1       857 8.54167E-02 1.87500E-02 0.00000E+00
 -1       858 8.64583E-02 1.87500E-02 0.00000E+00
 -1       859 8.75000E-02 1.87500E-02 0.00000E+00
 -1       860 8.85417E-02 1.87500E-02 0.00000E+00
 -1       861 8.95833E-02 1.87500E-02 0.00000E+00
 -1       862 9.06250E-02 1.87500E-02 0.00000E+00
 -1       863 9.16667E-02 1.87500E-02 0.00000E+00
 -1       864 9.27083E-02 1.87500E-02 0.00000E+00
 -1       865 9.37500E-02 1.87500E-02 0.00000E+00
 -1       866 9.47917E-02 1.87500E-02 0.00000E+00
 -1       867 9.58333E-02 1.87500E-02 0.00000E+00
 -1       868 9.68750E-02 1.87500E-02 0.00000E+00
 -1       869 9.79167E-02 1.87500E-02 0.00000E+00
 -1       870 9.89583E-02 1.87500E-02 0.00000E+00
 -1       871 8.33333E-02 1.97917E-02 0.00000E+00
 -1       872 8.33333E-02 2.08333E-02 0.00000E+00
 -1       873 8.33333E-02 2.18750E-02 0.00000E+00
 -1       874 8.33333E-02 2.29167E-02 0.00000E+00
 -1       875 8.33333E-02 2.39583E-02 0.00000E+00
 -1       876 8.43750E-02 1.91406E-02 0.00000E+00
 -1       877 8.54167E-02 1.95312E-02 0.00000E+00
 -1       878 8.64583E-02 1.99219E-02 0.00000E+00
 -1       879 8.75000E-02 2.03125E-02 0.00000E+00
 -1       880 8.85417E-02 2.07031E-02 0.00000E+00
 -1       881 8.95833E-02 2.10938E-02 0.00000E+00
 -1       882 9.06250E-02 2.14844E-02 0.00000E+00
 -1       883 9.16667E-02 2.18750E-02 0.00000E+00
 -1       884 9.27083E-02 2.22656E-02 0.00000E+00
 -1       885 9.37500E-02 2.26563E-02 0.00000E+00
 -1       886 9.47917E-02 2.30469E-02 0.00000E+00
 -1       887 9.58333E-02 2.34375E-02 0.00000E+00
 -1       888 9.68750E-02 2.38281E-02 0.00000E+00
 -1       889 9.79167E-02 2.42187E-02 0.00000E+00
 -1       890 9.89583E-02 2.46094E-02 0.00000E+00
 -1       891 1.00000E-01 1.97917E-02 0.00000E+00
 -1       892 1.00000E-01 2.08333E-02 0.00000E+00
 -1       893 1.00000E-01 2.18750E-02 0.00000E+00
 -1       894 1.00000E-01 2.29167E-02 0.00000E+00
 -1       895 1.00000E-01 2.39583E-02 0.00000E+00
 -1       956 6.77083E-02 2.50000E-02 0.00000E+00
 -1       957 6.87500E-02 2.50000E-02 0.00000E+00
 -1       958 6.97917E-02 2.50000E-02 0.00000E+00
 -1       959 7.08333E-02 2.50000E-02 0.00000E+00
 -1       960 7.18750E-02 2.50000E-02 0.00000E+00
 -1       961 7.29167E-02 2.50000E-02 0.00000E+00
 -1       962 7.39583E-02 2.50000E-02 0.00000E+00
 -1       963 7.50000E-02 2.50000E-02 0.00000E+00
 -1       964 7.60417E-02 2.50000E-02 0.00000E+00
 -1       965 7.70833E-02 2.50000E-02 0.00000E+00
 -1       966 7.81250E-02 2.50000E-02 0.00000E+00
 -1       967 7.91667E-02 2.50000E-02 0.00000E+00
 -1       968 8.02083E-02 2.50000E-02 0.00000E+00
 -1       969 8.12500E-02 2.50000E-02 0.00000E+00
 -1       970 8.22917E-02 2.50000E-02 0.00000E+00
 -1       971 8.43750E-02 2.50000E-02 0.00000E+00
 -1       972 8.54167E-02 2.50000E-02 0.00000E+00
 -1       973 8.64583E-02 2.50000E-02 0.00000E+00
 -1       974 8.75000E-02 2.50000E-02 0.00000E+00
 -1       975 8.85417E-02 2.50000E-02 0.00000E+00
 -1       976 8.95833E-02 2.50000E-02 0.00000E+00
 -1       977 9.06250E-02 2.50000E-02 0.00000E+00
 -1       978 9.16667E-02 2.50000E-02 0.00000E+00
 -1       979 9.27083E-02 2.50000E-02 0.00000E+00
 -1       980 9.37500E-02 2.50000E-02 0.00000E+00
 -1       981 9.47917E-02 2.50000E-02 0.00000E+00
 -1       982 9.58333E-02 2.50000E-02 0.00000E+00
 -1       983 9.68750E-02 2.50000E-02 0.00000E+00
 -1       984 9.79167E-02 2.50000E-02 0.00000E+00
 -1       985 9.89583E-02 2.50000E-02 0.00000E+00
 -3
    3C                           211                                     1
 -1         1   12    0    1
 -2         1        52        51
 -1         2   12    0    1
 -2        52        54        53
 -1         3   12    0    1
 -2        54         8        55
 -1         4   12    0    1
 -2         1        57        56
 -1         5   12    0    1
 -2        57        59        58
 -1         6   12    0    1
 -2        59        61        60
 -1         7   12    0    1
 -2        61        63        62
 -1         8   12    0    1
 -2        63        65        64
 -1         9   12    0    1
 -2        65        67        66
 -1        10   12    0    1
 -2        67        69        68
 -1        11   12    0    1
 -2        69         9        70
 -1        12   12    0    1
 -2         2        87        86
 -1        13   12    0    1
 -2        87        89        88
 -1        14   12    0    1
 -2        89         9        90
 -1        15   12    0    1
 -2         3       122       121
 -1        16   12    0    1
 -2       122       124       123
 -1        17   12    0    1
 -2       124        10       125
 -1        18   12    0    1
 -2         5       192       191
 -1        19   12    0    1
 -2       192       194       193
 -1        20   12    0    1
 -2       194        12       195
 -1        21   12    0    1
 -2         8       252       251
 -1        22   12    0    1
 -2       252       254       253
 -1        23   12    0    1
 -2       254       256       255
 -1        24   12    0    1
 -2       256       258       257
 -1        25   12    0    1
 -2       258       260       259
 -1        26   12    0    1
 -2       260       262       261
 -1        27   12    0    1
 -2       262       264       263
 -1        28   12    0    1
 -2       264         9       265
 -1        29   12    0    1
 -2         8       267       266
 -1        30   12    0    1
 -2       267       269       268
 -1        31   12    0    1
 -2       269        15       270
 -1        32   12    0    1
 -2         8       272       271
 -1        33   12    0    1
 -2       272       274       273
 -1        34   12    0    1
 -2       274       276       275
 -1        35   12    0    1
 -2       276       278       277
 -1        36   12    0    1
 -2       278       280       279
 -1        37   12    0    1
 -2       280       282       281
 -1        38   12    0    1
 -2       282       284       283
 -1        39   12    0    1
 -2       284        16       285
 -1        40   12    0    1
 -2         9       302       301
 -1        41   12    0    1
 -2       302       304       303
 -1        42   12    0    1
 -2       304        16       305
 -1        43   12    0    1
 -2         9       307       306
 -1        44   12    0    1
 -2       307       309       308
 -1        45   12    0    1
 -2       309       311       310
 -1        46   12    0    1
 -2       311       313       312
 -1        47   12    0    1
 -2       313       315       314
 -1        48   12    0    1
 -2       315       317       316
 -1        49   12    0    1
 -2       317       319       318
 -1        50   12    0    1
 -2       319        17       320
 -1        51   12    0    1
 -2        10       337       336
 -1        52   12    0    1
 -2       337       339       338
 -1        53   12    0    1
 -2       339        17       340
 -1        54   12    0    1
 -2        12       407       406
 -1        55   12    0    1
 -2       407       409       408
 -1        56   12    0    1
 -2       409        19       410
 -1        57   12    0    1
 -2        16       522       521
 -1        58   12    0    1
 -2       522       524       523
 -1        59   12    0    1
 -2       524       526       525
 -1        60   12    0    1
 -2       526       528       527
 -1        61   12    0    1
 -2       528       530       529
 -1        62   12    0    1
 -2       530       532       531
 -1        63   12    0    1
 -2       532       534       533
 -1        64   12    0    1
 -2       534        24       535
 -1        65   12    0    1
 -2        17       537       536
 -1        66   12    0    1
 -2       537       539       538
 -1        67   12    0    1
 -2       539       541       540
 -1        68   12    0    1
 -2       541       543       542
 -1        69   12    0    1
 -2       543       545       544
 -1        70   12    0    1
 -2       545       547       546
 -1        71   12    0    1
 -2       547       549       548
 -1        72   12    0    1
 -2       549        18       550
 -1        73   12    0    1
 -2        17       552       551
 -1        74   12    0    1
 -2       552       554       553
 -1        75   12    0    1
 -2       554        24       555
 -1        76   12    0    1
 -2        17       557       556
 -1        77   12    0    1
 -2       557       559       558
 -1        78   12    0    1
 -2       559       561       560
 -1        79   12    0    1
 -2       561       563       562
 -1        80   12    0    1
 -2       563       565       564
 -1        81   12    0    1
 -2       565       567       566
 -1        82   12    0    1
 -2       567       569       568
 -1        83   12    0    1
 -2       569        25       570
 -1        84   12    0    1
 -2        18       572       571
 -1        85   12    0    1
 -2       572       574       573
 -1        86   12    0    1
 -2       574       576       575
 -1        87   12    0    1
 -2       576       578       577
 -1        88   12    0    1
 -2       578       580       579
 -1        89   12    0    1
 -2       580       582       581
 -1        90   12    0    1
 -2       582       584       583
 -1        91   12    0    1
 -2       584        19       585
 -1        92   12    0    1
 -2        18       587       586
 -1        93   12    0    1
 -2       587       589       588
 -1        94   12    0    1
 -2       589        25       590
 -1        95   12    0    1
 -2        18       592       591
 -1        96   12    0    1
 -2       592       594       593
 -1        97   12    0    1
 -2       594       596       595
 -1        98   12    0    1
 -2       596       598       597
 -1        99   12    0    1
 -2       598       600       599
 -1       100   12    0    1
 -2       600       602       601
 -1       101   12    0    1
 -2       602       604       603
 -1       102   12    0    1
 -2       604        26       605
 -1       103   12    0    1
 -2        19       607       606
 -1       104   12    0    1
 -2       607       609       608
 -1       105   12    0    1
 -2       609       611       610
 -1       106   12    0    1
 -2       611       613       612
 -1       107   12    0    1
 -2       613       615       614
 -1       108   12    0    1
 -2       615       617       616
 -1       109   12    0    1
 -2       617       619       618
 -1       110   12    0    1
 -2       619        20       620
 -1       111   12    0    1
 -2        19       622       621
 -1       112   12    0    1
 -2       622       624       623
 -1       113   12    0    1
 -2       624        26       625
 -1       114   12    0    1
 -2        19       627       626
 -1       115   12    0    1
 -2       627       629       628
 -1       116   12    0    1
 -2       629       631       630
 -1       117   12    0    1
 -2       631       633       632
 -1       118   12    0    1
 -2       633       635       634
 -1       119   12    0    1
 -2       635       637       636
 -1       120   12    0    1
 -2       637       639       638
 -1       121   12    0    1
 -2       639        27       640
 -1       122   12    0    1
 -2        20       657       656
 -1       123   12    0    1
 -2       657       659       658
 -1       124   12    0    1
 -2       659        27       660
 -1       125   12    0    1
 -2        20       662       661
 -1       126   12    0    1
 -2       662       664       663
 -1       127   12    0    1
 -2       664       666       665
 -1       128   12    0    1
 -2       666       668       667
 -1       129   12    0    1
 -2       668       670       669
 -1       130   12    0    1
 -2       670       672       671
 -1       131   12    0    1
 -2       672       674       673
 -1       132   12    0    1
 -2       674        28       675
 -1       133   12    0    1
 -2        21       677       676
 -1       134   12    0    1
 -2       677       679       678
 -1       135   12    0    1
 -2       679        28       680
 -1       136   12    0    1
 -2        24       772       771
 -1       137   12    0    1
 -2       772       774       773
 -1       138   12    0    1
 -2       774       776       775
 -1       139   12    0    1
 -2       776       778       777
 -1       140   12    0    1
 -2       778       780       779
 -1       141   12    0    1
 -2       780       782       781
 -1       142   12    0    1
 -2       782       784       783
 -1       143   12    0    1
 -2       784        32       785
 -1       144   12    0    1
 -2        25       787       786
 -1       145   12    0    1
 -2       787       789       788
 -1       146   12    0    1
 -2       789       791       790
 -1       147   12    0    1
 -2       791       793       792
 -1       148   12    0    1
 -2       793       795       794
 -1       149   12    0    1
 -2       795       797       796
 -1       150   12    0    1
 -2       797       799       798
 -1       151   12    0    1
 -2       799        26       800
 -1       152   12    0    1
 -2        25       802       801
 -1       153   12    0    1
 -2       802       804       803
 -1       154   12    0    1
 -2       804        32       805
 -1       155   12    0    1
 -2        25       807       806
 -1       156   12    0    1
 -2       807       809       808
 -1       157   12    0    1
 -2       809       811       810
 -1       158   12    0    1
 -2       811       813       812
 -1       159   12    0    1
 -2       813       815       814
 -1       160   12    0    1
 -2       815       817       816
 -1       161   12    0    1
 -2       817       819       818
 -1       162   12    0    1
 -2       819        33       820
 -1       163   12    0    1
 -2        26       822       821
 -1       164   12    0    1
 -2       822       824       823
 -1       165   12    0    1
 -2       824       826       825
 -1       166   12    0    1
 -2       826       828       827
 -1       167   12    0    1
 -2       828       830       829
 -1       168   12    0    1
 -2       830       832       831
 -1       169   12    0    1
 -2       832       834       833
 -1       170   12    0    1
 -2       834        27       835
 -1       171   12    0    1
 -2        26       837       836
 -1       172   12    0    1
 -2       837       839       838
 -1       173   12    0    1
 -2       839        33       840
 -1       174   12    0    1
 -2        27       857       856
 -1       175   12    0    1
 -2       857       859       858
 -1       176   12    0    1
 -2       859       861       860
 -1       177   12    0    1
 -2       861       863       862
 -1       178   12    0    1
 -2       863       865       864
 -1       179   12    0    1
 -2       865       867       866
 -1       180   12    0    1
 -2       867       869       868
 -1       181   12    0    1
 -2       869        28       870
 -1       182   12    0    1
 -2        27       872       871
 -1       183   12    0    1
 -2       872       874       873
 -1       184   12    0    1
 -2       874        34       875
 -1       185   12    0    1
 -2        27       877       876
 -1       186   12    0    1
 -2       877       879       878
 -1       187   12    0    1
 -2       879       881       880
 -1       188   12    0    1
 -2       881       883       882
 -1       189   12    0    1
 -2       883       885       884
 -1       190   12    0    1
 -2       885       887       886
 -1       191   12    0    1
 -2       887       889       888
 -1       192   12    0    1
 -2       889        35       890
 -1       193   12    0    1
 -2        28       892       891
 -1       194   12    0    1
 -2       892       894       893
 -1       195   12    0    1
 -2       894        35       895
 -1       196   12    0    1
 -2        33       957       956
 -1       197   12    0    1
 -2       957       959       958
 -1       198   12    0    1
 -2       959       961       960
 -1       199   12    0    1
 -2       961       963       962
 -1       200   12    0    1
 -2       963       965       964
 -1       201   12    0    1
 -2       965       967       966
 -1       202   12    0    1
 -2       967       969       968
 -1       203   12    0    1
 -2       969        34       970
 -1       204   12    0    1
 -2        34       972       971
 -1       205   12    0    1
 -2       972       974       973
 -1       206   12    0    1
 -2       974       976       975
 -1       207   12    0    1
 -2       976       978       977
 -1       208   12    0    1
 -2       978       980       979
 -1       209   12    0    1
 -2       980       982       981
 -1       210   12    0    1
 -2       982       984       983
 -1       211   12    0    1
 -2       984        35       985
 -3
    1PSTEP                         1           1           1          
  100CL  101 1.000000000         409                     0    1           1
 -4  DISP        4    1
 -5  D1          1    2    1    0
 -5  D2          1    2    2    0
 -5  D3          1    2    3    0
 -5  ALL         1    2    0    0    1ALL
 -1         1 2.64982E-04 0.00000E+00 0.00000E+00
 -1         2 2.48861E-04 1.15948E-27 0.00000E+00
 -1         3 2.48634E-04-1.60766E-27-1.32349E-23
 -1         5 1.65340E-04 1.36373E-25 6.61744E-24
 -1         8 2.20729E-04-1.89741E-06 0.00000E+00
 -1         9 2.24740E-04 2.05722E-06 0.00000E+00
 -1        10 2.27320E-04-3.15771E-06 0.00000E+00
 -1        12 1.64373E-04 1.11226E-06 3.30872E-24
 -1        15 1.69479E-04-2.15236E-06 0.00000E+00
 -1        16 1.72612E-04 1.90346E-06 0.00000E+00
 -1        17 1.60923E-04-6.84479E-06 0.00000E+00
 -1        18 1.59328E-04 1.98249E-06 0.00000E+00
 -1        19 1.61472E-04 2.21844E-06 0.00000E+00
 -1        20 1.61862E-04 3.02726E-05 0.00000E+00
 -1        21 1.59478E-04 5.98875E-05 0.00000E+00
 -1        24 3.75916E-05-1.00718E-05 0.00000E+00
 -1        25 1.56094E-04 2.25055E-06 0.00000E+00
 -1        26 1.58026E-04 3.06322E-06 0.00000E+00
 -1        27 1.54840E-04 2.75368E-05 0.00000E+00
 -1        28 1.53483E-04 5.90705E-05 0.00000E+00
 -1        32 0.00000E+00 0.00000E+00 0.00000E+00
 -1        33 1.52409E-04 4.26133E-06 0.00000E+00
 -1        34 1.49358E-04 2.74665E-05 0.00000E+00
 -1        35 1.46422E-04 5.85611E-05 0.00000E+00
 -1        51 2.61997E-04-3.07597E-07 0.00000E+00
 -1        52 2.56606E-04-6.09031E-07 0.00000E+00
 -1        53 2.49287E-04-9.15791E-07 0.00000E+00
 -1        54 2.40536E-04-1.23093E-06 0.00000E+00
 -1        55 2.30850E-04-1.55515E-06 5.79026E-24
 -1        56 2.63085E-04-1.29759E-06 0.00000E+00
 -1        57 2.61456E-04-3.52296E-06 0.00000E+00
 -1        58 2.60082E-04-6.41971E-06-5.29396E-23
 -1        59 2.58851E-04-9.73848E-06 2.64698E-23
 -1        60 2.57673E-04-1.31995E-05 0.00000E+00
 -1        61 2.56442E-04-1.65224E-05 0.00000E+00
 -1        62 2.55056E-04-1.94326E-05 0.00000E+00
 -1        63 2.53419E-04-2.16717E-05 2.64698E-23
 -1        64 2.51447E-04-2.30147E-05 5.29396E-23
 -1        65 2.49068E-04-2.32698E-05-2.64698E-23
 -1        66 2.46228E-04-2.22999E-05 0.00000E+00
 -1        67 2.42892E-04-2.00125E-05 0.00000E+00
 -1        68 2.39048E-04-1.63821E-05 0.00000E+00
 -1        69 2.34712E-04-1.14284E-05 0.00000E+00
 -1        70 2.29904E-04-5.24573E-06 0.00000E+00
 -1        86 2.48237E-04 3.63904E-07-1.32349E-23
 -1        87 2.46358E-04 7.25156E-07 3.30872E-24
 -1        88 2.43165E-04 1.08293E-06 6.61744E-24
 -1        89 2.38587E-04 1.42828E-06 0.00000E+00
 -1        90 2.32494E-04 1.76813E-06 0.00000E+00
 -1       121 2.48038E-04-5.18281E-07 0.00000E+00
 -1       122 2.46250E-04-1.03793E-06 0.00000E+00
 -1       123 2.43274E-04-1.56032E-06 0.00000E+00
 -1       124 2.39119E-04-2.08683E-06 0.00000E+00
 -1       125 2.33796E-04-2.61864E-06 0.00000E+00
 -1       191 1.65313E-04 1.85400E-07-1.32349E-23
 -1       192 1.65232E-04 3.70794E-07 0.00000E+00
 -1       193 1.65098E-04 5.56184E-07 6.61744E-24
 -1       194 1.64910E-04 7.41563E-07-9.92617E-24
 -1       195 1.64669E-04 9.26925E-07 0.00000E+00
 -1       251 2.20927E-04 5.14574E-06 0.00000E+00
 -1       252 2.21177E-04 9.34175E-06-8.27181E-25
 -1       253 2.21431E-04 1.11778E-05-3.30872E-24
 -1       254 2.21694E-04 1.11210E-05 3.30872E-24
 -1       255 2.21956E-04 9.58373E-06 0.00000E+00
 -1       256 2.22217E-04 6.96618E-06 0.00000E+00
 -1       257 2.22477E-04 3.63691E-06 0.00000E+00
 -1       258 2.22735E-04-4.13497E-08-3.30872E-24
 -1       259 2.22993E-04-3.71619E-06 6.61744E-24
 -1       260 2.23253E-04-7.03509E-06 0.00000E+00
 -1       261 2.23514E-04-9.63508E-06 0.00000E+00
 -1       262 2.23776E-04-1.11474E-05-3.30872E-24
 -1       263 2.24039E-04-1.11713E-05 1.32349E-23
 -1       264 2.24293E-04-9.29382E-06 8.27181E-25
 -1       265 2.24542E-04-5.04699E-06 0.00000E+00
 -1       266 2.12188E-04-1.96234E-06 0.00000E+00
 -1       267 2.03646E-04-2.00214E-06-1.65436E-24
 -1       268 1.95104E-04-2.04340E-06 0.00000E+00
 -1       269 1.86563E-04-2.08007E-06-8.27181E-25
 -1       270 1.78021E-04-2.11657E-06 0.00000E+00
 -1       271 2.15507E-04 4.43973E-06 0.00000E+00
 -1       272 2.11086E-04 8.43208E-06-2.64698E-23
 -1       273 2.07460E-04 1.03325E-05 0.00000E+00
 -1       274 2.04508E-04 1.04105E-05 0.00000E+00
 -1       275 2.02119E-04 8.98430E-06 0.00000E+00
 -1       276 2.00159E-04 6.40488E-06 5.29396E-23
 -1       277 1.98489E-04 3.04967E-06 0.00000E+00
 -1       278 1.96959E-04-6.85298E-07 0.00000E+00
 -1       279 1.95420E-04-4.39559E-06 1.05879E-22
 -1       280 1.93721E-04-7.67728E-06 0.00000E+00
 -1       281 1.91716E-04-1.01361E-05 0.00000E+00
 -1       282 1.89264E-04-1.13979E-05 2.64698E-23
 -1       283 1.86233E-04-1.11153E-05 0.00000E+00
 -1       284 1.82511E-04-8.97629E-06 2.64698E-23
 -1       285 1.77981E-04-4.71522E-06-5.29396E-23
 -1       301 2.16137E-04 2.02211E-06 0.00000E+00
 -1       302 2.07511E-04 2.01394E-06 0.00000E+00
 -1       303 1.98855E-04 2.00666E-06 0.00000E+00
 -1       304 1.90159E-04 1.99575E-06 0.00000E+00
 -1       305 1.81414E-04 1.97871E-06 0.00000E+00
 -1       306 2.17130E-04 1.15585E-05 0.00000E+00
 -1       307 2.08018E-04 2.45545E-05 5.29396E-23
 -1       308 1.98922E-04 3.75331E-05 0.00000E+00
 -1       309 1.91199E-04 4.69166E-05-5.29396E-23
 -1       310 1.85775E-04 5.02950E-05 1.05879E-22
 -1       311 1.83277E-04 4.58761E-05 5.29396E-23
 -1       312 1.83385E-04 3.43778E-05 1.05879E-22
 -1       313 1.85515E-04 1.72761E-05 5.29396E-23
 -1       314 1.88469E-04-2.13161E-06 0.00000E+00
 -1       315 1.90981E-04-2.02963E-05 0.00000E+00
 -1       316 1.91916E-04-3.40758E-05 0.00000E+00
 -1       317 1.90279E-04-4.08033E-05 0.00000E+00
 -1       318 1.85868E-04-4.00967E-05 0.00000E+00
 -1       319 1.78804E-04-3.23559E-05 5.29396E-23
 -1       320 1.70042E-04-2.02524E-05 0.00000E+00
 -1       336 2.19579E-04-3.74055E-06 0.00000E+00
 -1       337 2.10465E-04-4.33516E-06-6.61744E-24
 -1       338 2.00007E-04-4.94225E-06 1.32349E-23
 -1       339 1.88238E-04-5.56270E-06-6.61744E-24
 -1       340 1.75196E-04-6.19826E-06 0.00000E+00
 -1       406 1.64024E-04 1.29756E-06 0.00000E+00
 -1       407 1.63621E-04 1.48279E-06 0.00000E+00
 -1       408 1.63164E-04 1.66788E-06-6.61744E-24
 -1       409 1.62654E-04 1.85263E-06 0.00000E+00
 -1       410 1.62089E-04 2.03669E-06 0.00000E+00
 -1       521 1.56318E-04 2.62704E-05 0.00000E+00
 -1       522 1.27272E-04 8.04011E-05 0.00000E+00
 -1       523 9.48104E-05 1.42370E-04 2.11758E-22
 -1       524 6.90389E-05 1.88984E-04 0.00000E+00
 -1       525 5.65051E-05 2.03116E-04 0.00000E+00
 -1       526 6.04340E-05 1.72552E-04-1.05879E-22
 -1       527 7.70360E-05 1.03161E-04 0.00000E+00
 -1       528 1.01277E-04 7.51649E-06-1.05879E-22
 -1       529 1.26215E-04-9.06011E-05 2.11758E-22
 -1       530 1.44926E-04-1.66963E-04 0.00000E+00
 -1       531 1.51958E-04-2.06665E-04 0.00000E+00
 -1       532 1.42782E-04-2.01190E-04-1.05879E-22
 -1       533 1.19481E-04-1.60404E-04-2.11758E-22
 -1       534 8.75257E-05-9.95953E-05 0.00000E+00
 -1       535 5.69477E-05-4.19533E-05 0.00000E+00
 -1       536 1.60736E-04 6.47751E-06 0.00000E+00
 -1       537 1.60598E-04 1.67553E-05 0.00000E+00
 -1       538 1.60483E-04 2.42125E-05 3.30872E-24
 -1       539 1.60387E-04 2.90817E-05 0.00000E+00
 -1       540 1.60298E-04 3.16423E-05 0.00000E+00
 -1       541 1.60213E-04 3.21803E-05 0.00000E+00
 -1       542 1.60128E-04 3.10187E-05 3.30872E-24
 -1       543 1.60041E-04 2.84851E-05 0.00000E+00
 -1       544 1.59950E-04 2.49321E-05-3.30872E-24
 -1       545 1.59857E-04 2.07152E-05 0.00000E+00
 -1       546 1.59763E-04 1.62019E-05 3.30872E-24
 -1       547 1.59670E-04 1.17606E-05 0.00000E+00
 -1       548 1.59578E-04 7.75838E-06-1.65436E-24
 -1       549 1.59491E-04 4.56094E-06 0.00000E+00
 -1       550 1.59405E-04 2.51974E-06 0.00000E+00
 -1       551 1.43252E-04-7.32420E-06 6.61744E-24
 -1       552 1.23215E-04-7.83798E-06 4.13590E-24
 -1       553 1.01715E-04-8.37916E-06-6.61744E-24
 -1       554 7.96675E-05-8.93559E-06 0.00000E+00
 -1       555 5.79902E-05-9.49093E-06 0.00000E+00
 -1       556 1.55926E-04 5.96300E-06 0.00000E+00
 -1       557 1.52117E-04 1.57588E-05 0.00000E+00
 -1       558 1.49362E-04 2.28198E-05 0.00000E+00
 -1       559 1.47540E-04 2.74441E-05 0.00000E+00
 -1       560 1.46531E-04 2.99292E-05 0.00000E+00
 -1       561 1.46217E-04 3.05751E-05 0.00000E+00
 -1       562 1.46480E-04 2.96825E-05 0.00000E+00
 -1       563 1.47206E-04 2.75526E-05-6.61744E-24
 -1       564 1.48281E-04 2.44875E-05 0.00000E+00
 -1       565 1.49591E-04 2.07894E-05 0.00000E+00
 -1       566 1.51024E-04 1.67610E-05 0.00000E+00
 -1       567 1.52467E-04 1.27050E-05 0.00000E+00
 -1       568 1.53809E-04 8.92423E-06 0.00000E+00
 -1       569 1.54935E-04 5.72102E-06 0.00000E+00
 -1       570 1.55734E-04 3.39775E-06 0.00000E+00
 -1       571 1.59458E-04 2.09621E-06 1.65436E-24
 -1       572 1.59591E-04 2.12105E-06-1.24077E-24
 -1       573 1.59724E-04 2.07247E-06-3.30872E-24
 -1       574 1.59859E-04 1.96672E-06-8.27181E-25
 -1       575 1.59993E-04 1.82015E-06 3.30872E-24
 -1       576 1.60127E-04 1.64921E-06 0.00000E+00
 -1       577 1.60262E-04 1.47035E-06 3.30872E-24
 -1       578 1.60396E-04 1.30005E-06 3.30872E-24
 -1       579 1.60531E-04 1.15477E-06 6.61744E-24
 -1       580 1.60665E-04 1.05100E-06 0.00000E+00
 -1       581 1.60800E-04 1.00521E-06 0.00000E+00
 -1       582 1.60934E-04 1.03384E-06 0.00000E+00
 -1       583 1.61069E-04 1.15336E-06 0.00000E+00
 -1       584 1.61203E-04 1.38005E-06 0.00000E+00
 -1       585 1.61338E-04 1.73008E-06 0.00000E+00
 -1       586 1.58756E-04 2.02941E-06 0.00000E+00
 -1       587 1.58123E-04 2.07551E-06-4.13590E-25
 -1       588 1.57485E-04 2.12122E-06 0.00000E+00
 -1       589 1.56898E-04 2.16631E-06 0.00000E+00
 -1       590 1.56416E-04 2.21030E-06 0.00000E+00
 -1       591 1.59212E-04 2.15759E-06 0.00000E+00
 -1       592 1.59117E-04 2.26055E-06 0.00000E+00
 -1       593 1.59044E-04 2.30483E-06 0.00000E+00
 -1       594 1.58988E-04 2.30252E-06-8.27181E-25
 -1       595 1.58945E-04 2.26584E-06 0.00000E+00
 -1       596 1.58910E-04 2.20693E-06 0.00000E+00
 -1       597 1.58878E-04 2.13792E-06 0.00000E+00
 -1       598 1.58846E-04 2.07091E-06 8.27181E-25
 -1       599 1.58809E-04 2.01804E-06 0.00000E+00
 -1       600 1.58761E-04 1.99142E-06-4.13590E-25
 -1       601 1.58700E-04 2.00315E-06 1.65436E-24
 -1       602 1.58619E-04 2.06537E-06 0.00000E+00
 -1       603 1.58515E-04 2.19019E-06 0.00000E+00
 -1       604 1.58384E-04 2.38984E-06-1.80946E-25
 -1       605 1.58221E-04 2.67636E-06 0.00000E+00
 -1       606 1.61503E-04 3.00094E-06 6.61744E-24
 -1       607 1.61530E-04 3.97036E-06 3.30872E-24
 -1       608 1.61556E-04 5.11556E-06 0.00000E+00
 -1       609 1.61581E-04 6.42411E-06 0.00000E+00
 -1       610 1.61606E-04 7.88352E-06 0.00000E+00
 -1       611 1.61630E-04 9.48113E-06 0.00000E+00
 -1       612 1.61654E-04 1.12043E-05 0.00000E+00
 -1       613 1.61678E-04 1.30403E-05 0.00000E+00
 -1       614 1.61701E-04 1.49766E-05 0.00000E+00
 -1       615 1.61725E-04 1.70003E-05 0.00000E+00
 -1       616 1.61748E-04 1.90990E-05 0.00000E+00
 -1       617 1.61771E-04 2.12599E-05 0.00000E+00
 -1       618 1.61794E-04 2.34704E-05 0.00000E+00
 -1       619 1.61817E-04 2.57178E-05 0.00000E+00
 -1       620 1.61840E-04 2.79894E-05 0.00000E+00
 -1       621 1.60831E-04 2.35975E-06 3.30872E-24
 -1       622 1.60212E-04 2.50144E-06 0.00000E+00
 -1       623 1.59618E-04 2.64307E-06 0.00000E+00
 -1       624 1.59053E-04 2.78441E-06-1.65436E-24
 -1       625 1.58521E-04 2.92541E-06-3.30872E-24
 -1       626 1.61330E-04 3.07328E-06 0.00000E+00
 -1       627 1.61120E-04 4.11115E-06 6.61744E-24
 -1       628 1.60849E-04 5.31450E-06 0.00000E+00
 -1       629 1.60523E-04 6.66475E-06 0.00000E+00
 -1       630 1.60148E-04 8.14332E-06 6.61744E-24
 -1       631 1.59732E-04 9.73152E-06 0.00000E+00
 -1       632 1.59282E-04 1.14107E-05 0.00000E+00
 -1       633 1.58804E-04 1.31621E-05-9.92617E-24
 -1       634 1.58307E-04 1.49672E-05-1.32349E-23
 -1       635 1.57796E-04 1.68072E-05 0.00000E+00
 -1       636 1.57279E-04 1.86635E-05 0.00000E+00
 -1       637 1.56763E-04 2.05176E-05 0.00000E+00
 -1       638 1.56254E-04 2.23506E-05 0.00000E+00
 -1       639 1.55761E-04 2.41440E-05 1.65436E-24
 -1       640 1.55288E-04 2.58790E-05-3.30872E-24
 -1       656 1.59962E-04 2.98268E-05 0.00000E+00
 -1       657 1.58684E-04 2.93634E-05 0.00000E+00
 -1       658 1.57784E-04 2.89018E-05 0.00000E+00
 -1       659 1.57013E-04 2.84409E-05 0.00000E+00
 -1       660 1.56116E-04 2.79784E-05 6.61744E-24
 -1       661 1.61154E-04 3.25468E-05 0.00000E+00
 -1       662 1.60466E-04 3.47855E-05 0.00000E+00
 -1       663 1.59793E-04 3.69816E-05 0.00000E+00
 -1       664 1.59139E-04 3.91302E-05 0.00000E+00
 -1       665 1.58505E-04 4.12258E-05 3.30872E-24
 -1       666 1.57894E-04 4.32629E-05 1.65436E-24
 -1       667 1.57306E-04 4.52359E-05 0.00000E+00
 -1       668 1.56746E-04 4.71389E-05 0.00000E+00
 -1       669 1.56213E-04 4.89659E-05 0.00000E+00
 -1       670 1.55712E-04 5.07107E-05-1.65436E-24
 -1       671 1.55244E-04 5.23668E-05 0.00000E+00
 -1       672 1.54812E-04 5.39276E-05 0.00000E+00
 -1       673 1.54418E-04 5.53862E-05 0.00000E+00
 -1       674 1.54064E-04 5.67348E-05 1.65436E-24
 -1       675 1.53754E-04 5.79666E-05 8.27181E-25
 -1       676 1.58476E-04 5.97505E-05-3.30872E-24
 -1       677 1.57473E-04 5.96136E-05 1.65436E-24
 -1       678 1.56472E-04 5.94768E-05 3.30872E-24
 -1       679 1.55473E-04 5.93403E-05 1.65436E-24
 -1       680 1.54476E-04 5.92040E-05 0.00000E+00
 -1       771 2.94621E-05 5.70449E-06 0.00000E+00
 -1       772 2.24102E-05 1.86800E-05 0.00000E+00
 -1       773 1.63933E-05 2.89891E-05 1.05879E-22
 -1       774 1.13448E-05 3.67843E-05 0.00000E+00
 -1       775 7.19856E-06 4.22246E-05 0.00000E+00
 -1       776 3.88402E-06 4.54803E-05 0.00000E+00
 -1       777 1.32966E-06 4.67277E-05 5.29396E-23
 -1       778-5.38572E-07 4.61525E-05-2.64698E-23
 -1       779-1.79543E-06 4.39454E-05 5.29396E-23
 -1       780-2.51770E-06 4.03048E-05 0.00000E+00
 -1       781-2.78249E-06 3.54330E-05 5.29396E-23
 -1       782-2.66840E-06 2.95382E-05 0.00000E+00
 -1       783-2.25416E-06 2.28315E-05 0.00000E+00
 -1       784-1.61913E-06 1.55279E-05 0.00000E+00
 -1       785-8.43213E-07 7.84391E-06 0.00000E+00
 -1       786 1.56208E-04 2.18840E-06 0.00000E+00
 -1       787 1.56328E-04 2.11181E-06-1.65436E-24
 -1       788 1.56448E-04 2.02673E-06 3.30872E-24
 -1       789 1.56569E-04 1.93910E-06 0.00000E+00
 -1       790 1.56691E-04 1.85478E-06 3.30872E-24
 -1       791 1.56813E-04 1.77964E-06 0.00000E+00
 -1       792 1.56934E-04 1.71979E-06-3.30872E-24
 -1       793 1.57056E-04 1.68143E-06 0.00000E+00
 -1       794 1.57178E-04 1.67129E-06-3.30872E-24
 -1       795 1.57299E-04 1.69626E-06-1.65436E-24
 -1       796 1.57421E-04 1.76412E-06 0.00000E+00
 -1       797 1.57543E-04 1.88285E-06 1.65436E-24
 -1       798 1.57664E-04 2.06178E-06 3.30872E-24
 -1       799 1.57786E-04 2.31048E-06-1.65436E-24
 -1       800 1.57907E-04 2.64037E-06 3.30872E-24
 -1       801 1.45038E-04 2.23598E-06-4.13590E-25
 -1       802 1.13744E-04 1.81660E-06 8.27181E-25
 -1       803 7.29141E-05 1.08695E-06 0.00000E+00
 -1       804 3.32252E-05 3.89255E-07 0.00000E+00
 -1       805 5.34719E-06 5.27406E-08 0.00000E+00
 -1       806 1.55969E-04 2.11516E-06 0.00000E+00
 -1       807 1.55838E-04 1.97807E-06-1.65436E-24
 -1       808 1.55704E-04 1.84831E-06-3.30872E-24
 -1       809 1.55563E-04 1.73355E-06 0.00000E+00
 -1       810 1.55413E-04 1.64143E-06 3.30872E-24
 -1       811 1.55253E-04 1.57945E-06-1.65436E-24
 -1       812 1.55078E-04 1.55513E-06-3.30872E-24
 -1       813 1.54886E-04 1.57593E-06 3.30872E-24
 -1       814 1.54674E-04 1.64935E-06 0.00000E+00
 -1       815 1.54440E-04 1.78283E-06 1.65436E-24
 -1       816 1.54180E-04 1.98384E-06 0.00000E+00
 -1       817 1.53892E-04 2.25981E-06-1.65436E-24
 -1       818 1.53574E-04 2.61819E-06 0.00000E+00
 -1       819 1.53222E-04 3.06636E-06-1.65436E-24
 -1       820 1.52834E-04 3.61171E-06 1.65436E-24
 -1       821 1.57838E-04 3.63823E-06 0.00000E+00
 -1       822 1.57640E-04 4.42245E-06 0.00000E+00
 -1       823 1.57442E-04 5.40989E-06 6.61744E-24
 -1       824 1.57241E-04 6.59305E-06 0.00000E+00
 -1       825 1.57041E-04 7.95622E-06 6.61744E-24
 -1       826 1.56839E-04 9.48235E-06 3.30872E-24
 -1       827 1.56638E-04 1.11475E-05 6.61744E-24
 -1       828 1.56436E-04 1.29267E-05-3.30872E-24
 -1       829 1.56234E-04 1.47902E-05-6.61744E-24
 -1       830 1.56032E-04 1.67076E-05-3.30872E-24
 -1       831 1.55830E-04 1.86463E-05-6.61744E-24
 -1       832 1.55628E-04 2.05735E-05 0.00000E+00
 -1       833 1.55427E-04 2.24567E-05 0.00000E+00
 -1       834 1.55228E-04 2.42641E-05 0.00000E+00
 -1       835 1.55028E-04 2.59668E-05 0.00000E+00
 -1       836 1.57371E-04 3.26165E-06 3.30872E-24
 -1       837 1.56483E-04 3.46536E-06 0.00000E+00
 -1       838 1.55452E-04 3.66861E-06-3.30872E-24
 -1       839 1.54369E-04 3.87072E-06-1.65436E-24
 -1       840 1.53325E-04 4.07283E-06-8.27181E-25
 -1       856 1.54763E-04 2.91520E-05 7.75482E-26
 -1       857 1.54679E-04 3.09731E-05-8.27181E-25
 -1       858 1.54595E-04 3.29666E-05 0.00000E+00
 -1       859 1.54509E-04 3.50988E-05 8.27181E-25
 -1       860 1.54424E-04 3.73357E-05-3.30872E-24
 -1       861 1.54338E-04 3.96431E-05 0.00000E+00
 -1       862 1.54251E-04 4.19867E-05 0.00000E+00
 -1       863 1.54165E-04 4.43323E-05 0.00000E+00
 -1       864 1.54079E-04 4.66455E-05 3.30872E-24
 -1       865 1.53993E-04 4.88919E-05 0.00000E+00
 -1       866 1.53907E-04 5.10374E-05 3.30872E-24
 -1       867 1.53821E-04 5.30481E-05 0.00000E+00
 -1       868 1.53736E-04 5.48900E-05 0.00000E+00
 -1       869 1.53651E-04 5.65298E-05 0.00000E+00
 -1       870 1.53566E-04 5.79342E-05 0.00000E+00
 -1       871 1.53662E-04 2.75302E-05-8.27181E-25
 -1       872 1.52732E-04 2.75200E-05 0.00000E+00
 -1       873 1.51945E-04 2.75092E-05 0.00000E+00
 -1       874 1.51192E-04 2.74974E-05 0.00000E+00
 -1       875 1.50366E-04 2.74847E-05-1.24077E-24
 -1       876 1.54426E-04 2.91649E-05 0.00000E+00
 -1       877 1.53982E-04 3.08886E-05 0.00000E+00
 -1       878 1.53507E-04 3.26951E-05 6.61744E-24
 -1       879 1.53005E-04 3.45732E-05-3.30872E-24
 -1       880 1.52481E-04 3.65113E-05 0.00000E+00
 -1       881 1.51938E-04 3.84981E-05-3.30872E-24
 -1       882 1.51382E-04 4.05225E-05 0.00000E+00
 -1       883 1.50815E-04 4.25729E-05 0.00000E+00
 -1       884 1.50243E-04 4.46383E-05 0.00000E+00
 -1       885 1.49669E-04 4.67073E-05 3.30872E-24
 -1       886 1.49099E-04 4.87686E-05 0.00000E+00
 -1       887 1.48535E-04 5.08110E-05 0.00000E+00
 -1       888 1.47982E-04 5.28231E-05 6.61744E-24
 -1       889 1.47444E-04 5.47935E-05 1.65436E-24
 -1       890 1.46926E-04 5.67109E-05-1.65436E-24
 -1       891 1.52537E-04 5.89859E-05 0.00000E+00
 -1       892 1.51564E-04 5.89005E-05 0.00000E+00
 -1       893 1.50515E-04 5.88151E-05 1.65436E-24
 -1       894 1.49341E-04 5.87297E-05 4.13590E-25
 -1       895 1.47993E-04 5.86443E-05 0.00000E+00
 -1       956 1.52222E-04 5.16414E-06 6.61744E-24
 -1       957 1.52032E-04 6.22084E-06-1.65436E-24
 -1       958 1.51842E-04 7.41493E-06 0.00000E+00
 -1       959 1.51651E-04 8.72899E-06-1.65436E-24
 -1       960 1.51460E-04 1.01456E-05-6.61744E-24
 -1       961 1.51268E-04 1.16471E-05-1.65436E-24
 -1       962 1.51077E-04 1.32161E-05 6.61744E-24
 -1       963 1.50885E-04 1.48348E-05 0.00000E+00
 -1       964 1.50693E-04 1.64858E-05 0.00000E+00
 -1       965 1.50502E-04 1.81513E-05-3.30872E-24
 -1       966 1.50310E-04 1.98138E-05 0.00000E+00
 -1       967 1.50119E-04 2.14558E-05-3.30872E-24
 -1       968 1.49927E-04 2.30595E-05 6.61744E-24
 -1       969 1.49736E-04 2.46074E-05 0.00000E+00
 -1       970 1.49546E-04 2.60821E-05 6.61744E-24
 -1       971 1.49177E-04 2.88697E-05 0.00000E+00
 -1       972 1.48994E-04 3.04327E-05 3.30872E-24
 -1       973 1.48810E-04 3.21374E-05 0.00000E+00
 -1       974 1.48626E-04 3.39647E-05-1.65436E-24
 -1       975 1.48442E-04 3.58960E-05 0.00000E+00
 -1       976 1.48257E-04 3.79121E-05-3.30872E-24
 -1       977 1.48072E-04 3.99942E-05 6.61744E-24
 -1       978 1.47887E-04 4.21232E-05 0.00000E+00
 -1       979 1.47702E-04 4.42800E-05 0.00000E+00
 -1       980 1.47517E-04 4.64458E-05 0.00000E+00
 -1       981 1.47332E-04 4.86013E-05-6.61744E-24
 -1       982 1.47148E-04 5.07276E-05 0.00000E+00
 -1       983 1.46963E-04 5.28057E-05 0.00000E+00
 -1       984 1.46780E-04 5.48166E-05-3.30872E-24
 -1       985 1.46597E-04 5.67412E-05 3.30872E-24
 -3
    1PSTEP                         2           1           1          
  100CL  101 1.000000000         409                     0    1           1
 -4  STRESS      6    1
 -5  SXX         1    4    1    1
 -5  SYY         1    4    2    2
 -5  SZZ         1    4    3    3
 -5  SXY         1    4    1    2
 -5  SYZ         1    4    2    3
 -5  SZX         1    4    3    1
 -1         1-2.75304E+06-1.29100E+06-5.34131E+05-1.93274E+06 1.74623E-10 6.15546E-09
 -1         2 4.98086E+03 1.05056E+06 1.89431E+04 4.21221E+03-1.24237E-09-1.89616E-08
 -1         3-8.96346E+02-1.47588E+06 2.74152E+02-1.09269E+03 9.84492E-10 4.09345E-08
 -1         5-2.17132E+01 5.30632E+05 1.31200E+01 1.19674E+00 1.48371E-10-1.79170E-10
 -1         8-1.25456E+06-5.90584E+05-1.70175E+04-1.08054E+06-3.16504E-10 6.79574E-09
 -1         9-2.71687E+06-5.53323E+05-3.06096E+05-8.24176E+05 5.05825E-09 9.91859E-09
 -1        10-1.54720E+03-1.52879E+06-1.63100E+03-7.26091E+03 2.09657E-08-3.53212E-08
 -1        12-1.64046E+01 5.30660E+05 4.25881E+02 7.80866E+00 4.21885E-10 1.45578E-08
 -1        15 3.20871E+03 1.85841E+03 1.17986E+04 1.10738E+01-1.14881E-10 9.35319E-09
 -1        16-7.60038E+06-1.52912E+06-1.12615E+06-1.42411E+06 1.01960E-08 2.79397E-09
 -1        17-1.96587E+06-1.08326E+06-3.72108E+05-9.65833E+05 1.87603E-08-3.23053E-09
 -1        18-1.47428E+03-7.60166E+03-3.77123E+04-1.33034E+05 1.43632E-09-2.42835E-09
 -1        19 1.70731E+05 1.97028E+05-2.11145E+03 2.80640E+04 3.72529E-10-6.34318E-09
 -1        20 2.66258E+04-4.13471E+05-8.32973E+04 6.60099E+04 7.09830E-09-3.93872E-09
 -1        21-3.70736E+01-3.90669E+05-1.21239E+03-2.13035E+02 8.75836E-09 1.21727E-08
 -1        24-7.06940E+06-1.55191E+06-9.48681E+05-1.90917E+06-9.32293E-09-1.36012E-08
 -1        25 8.56285E+04 6.41461E+04 4.99024E+04-4.32856E+05-7.04786E-09 1.13694E-08
 -1        26-4.43576E+04 1.48582E+05-1.86250E+04-2.56227E+04-2.82307E-10 1.42512E-09
 -1        27-8.52002E+04-2.42491E+05-1.10359E+05 1.06880E+05 6.52608E-09-7.61126E-09
 -1        28 1.73974E+04-1.17066E+05 1.89610E+04 4.24765E+04 8.50866E-09 3.91741E-09
 -1        32-1.49280E+06-3.95903E+04 6.30793E+05-1.57106E+06-2.72412E-08 4.48097E-09
 -1        33-2.33939E+05 1.53988E+05 5.19631E+04-6.47438E+04 4.72596E-10-7.13771E-09
 -1        34-3.29521E+05-3.54849E+04 7.20798E+02 1.06138E+05 2.76842E-09 5.23066E-09
 -1        35-3.56494E+04-5.08692E+04-2.21739E+03 7.97112E+04 4.77657E-09 7.56942E-09
 -1        51 2.56389E+04-7.34573E+05 6.55797E+04-1.85295E+06-2.91038E-11-1.98197E-08
 -1        52 2.32336E+04-7.43904E+05 4.45766E+04-2.13043E+06 4.36557E-11 1.74623E-09
 -1        53 2.20363E+04-7.78764E+05 3.72492E+04-1.84655E+06-1.19326E-09-2.00816E-09
 -1        54 5.22978E+04-7.86270E+05 6.02296E+04-2.13657E+06-1.68802E-09 1.39989E-08
 -1        55 8.75775E+04-8.11346E+05 1.07152E+05-1.84511E+06-1.71713E-09-9.84437E-09
 -1        56-5.33688E+06-6.24147E+05-4.02792E+05-2.05193E+06 7.34872E-10 1.83354E-08
 -1        57-5.46854E+06-9.78968E+05-2.65811E+05-2.06837E+06 4.26826E-09-7.11225E-09
 -1        58-5.41727E+06-7.37903E+05-9.48508E+04-2.02760E+06 9.04038E-10 9.00400E-09
 -1        59-5.37572E+06-8.42837E+05-5.49518E+04-2.09906E+06 3.57591E-09 1.06666E-08
 -1        60-5.42841E+06-7.52117E+05-2.20920E+04-2.02423E+06 3.06500E-09-9.48057E-09
 -1        61-5.36559E+06-8.22832E+05-1.22073E+04-2.09945E+06 4.76393E-09-1.89606E-08
 -1        62-5.42694E+06-7.57086E+05-6.11828E+03-2.02736E+06-3.64707E-10 5.78075E-09
 -1        63-5.37261E+06-8.11631E+05-4.85241E+03-2.08857E+06 4.64706E-09 6.73526E-09
 -1        64-5.42069E+06-7.63651E+05-6.01823E+03-2.03466E+06-6.06724E-09-7.16273E-09
 -1        65-5.38817E+06-7.98525E+05-1.13935E+04-2.07053E+06-1.11804E-08-5.85123E-09
 -1        66-5.41070E+06-7.70739E+05-2.11042E+04-2.04487E+06 2.55204E-09 1.06120E-08
 -1        67-5.41740E+06-7.97123E+05-5.14805E+04-2.04678E+06 4.47699E-09-1.54005E-08
 -1        68-5.39144E+06-7.66114E+05-8.94686E+04-2.05792E+06 2.56864E-09 2.82307E-09
 -1        69-5.51912E+06-9.11447E+05-2.49801E+05-2.00336E+06 5.68571E-09 1.07902E-08
 -1        70-5.31097E+06-6.63590E+05-3.78821E+05-2.08594E+06 3.17959E-09-5.76256E-09
 -1        86-2.59629E+03 1.04398E+06 2.03849E+04-2.10657E+03 1.18416E-09 1.92908E-08
 -1        87 1.75087E+04 1.05705E+06 4.21900E+04 8.68235E+03 6.39830E-10-2.41334E-08
 -1        88-1.50023E+04 1.03754E+06 6.53054E+04-6.57760E+03 2.07365E-09 1.99661E-08
 -1        89 1.16884E+05 1.10517E+06 1.74358E+05 1.86886E+04 2.38651E-09 3.72402E-08
 -1        90-1.00692E+05 9.96095E+05 2.48715E+05-1.21047E+04 3.46336E-09 2.41016E-09
 -1       121-1.17943E+03-1.47815E+06-1.21808E+02 5.42545E+02 1.95969E-09 1.65783E-08
 -1       122-7.96070E+02-1.47588E+06 6.19778E+02-2.19117E+03 5.19893E-09-3.09956E-09
 -1       123-1.19510E+03-1.47824E+06 6.63327E+02 1.62593E+03 5.92513E-09 1.24528E-08
 -1       124 3.29755E+02-1.47533E+06 2.65680E+03-4.81548E+03 1.12359E-08 7.49060E-09
 -1       125-1.67376E+03-1.47894E+06 3.85662E+03 3.14953E+03 9.49694E-09-1.16415E-09
 -1       191-2.32259E+01 5.30675E+05 1.50625E+01-6.03096E-01 3.00292E-10-9.04038E-10
 -1       192-2.29314E+01 5.30633E+05 2.78045E+01 3.26248E+00 3.94863E-10-5.94400E-09
 -1       193-2.64563E+01 5.30674E+05 5.11017E+01-2.68984E+00 4.16076E-10 1.86183E-08
 -1       194-2.68477E+01 5.30637E+05 1.05223E+02 7.13086E+00 2.34559E-10 1.23655E-08
 -1       195-3.26607E+01 5.30671E+05 2.05203E+02-4.51355E+00 7.50234E-10 1.34478E-08
 -1       251 7.11522E+05-9.15162E+04 2.23776E+05 1.83775E+04-1.65073E-09 3.11411E-09
 -1       252 8.16691E+05 1.05385E+05 1.57778E+05-7.98138E+04-2.56637E-09-6.59384E-09
 -1       253 7.50639E+05-1.36284E+04 5.79182E+04 1.22098E+04 2.43108E-09-1.49703E-08
 -1       254 7.69391E+05 1.55652E+04 3.63360E+04-7.00008E+04-1.52704E-09 1.56360E-08
 -1       255 7.57460E+05-2.04975E+03 1.49521E+04 8.56447E+03 3.45790E-09 4.31282E-09
 -1       256 7.60576E+05 2.58872E+03 9.01975E+03-6.46159E+04-2.20552E-10-9.87291E-09
 -1       257 7.58792E+05-3.50866E+02 4.67200E+03 6.82472E+03 1.69052E-10 1.94278E-08
 -1       258 7.59044E+05 1.01200E+03 4.04570E+03-6.28834E+04 1.37046E-10-3.30745E-09
 -1       259 7.58791E+05-3.49414E+02 4.65292E+03 6.83258E+03-5.68548E-10-2.52419E-08
 -1       260 7.60580E+05 2.57178E+03 8.96892E+03-6.46539E+04 4.12911E-10-1.15268E-08
 -1       261 7.57461E+05-2.03732E+03 1.48536E+04 8.59456E+03 2.07683E-09-9.71886E-09
 -1       262 7.69367E+05 1.54570E+04 3.61038E+04-7.00726E+04 8.96307E-10-8.36508E-09
 -1       263 7.50672E+05-1.35406E+04 5.75292E+04 1.22516E+04-2.60570E-09 2.53567E-09
 -1       264 8.16410E+05 1.04678E+05 1.56749E+05-7.99182E+04-3.85262E-09 6.62112E-09
 -1       265 7.11788E+05-9.09187E+04 2.22279E+05 1.84403E+04-2.47655E-09 1.37370E-08
 -1       266-6.35958E+04-3.08077E+04 1.57448E+05-2.68893E+02 1.96451E-10-5.88898E-10
 -1       267 7.40727E+04 3.57385E+04 1.09978E+05 3.14376E+02-6.00267E-11-1.94379E-08
 -1       268-9.43494E+03-4.89070E+03 4.14071E+04-3.72670E+01-4.18368E-11 8.56289E-10
 -1       269 1.11618E+04 5.82210E+03 2.64751E+04 4.37908E+01 3.63798E-12-2.14796E-08
 -1       270-1.58813E+03-9.29141E+02 1.29841E+04-5.40434E+00 2.41016E-11 1.96141E-08
 -1       271-6.26430E+06-8.33473E+05-4.83535E+05-2.46698E+06-1.16415E-10-1.61817E-08
 -1       272-6.38567E+06-1.17656E+06-3.02299E+05-2.51343E+06 6.48470E-10 4.73301E-09
 -1       273-6.35681E+06-9.27678E+05-1.14219E+05-2.44544E+06 4.56203E-09 1.29876E-08
 -1       274-6.27719E+06-1.05353E+06-6.17173E+04-2.55537E+06 1.36970E-09-1.65401E-08
 -1       275-6.37355E+06-9.30562E+05-2.64842E+04-2.43708E+06 1.38243E-09 1.61162E-09
 -1       276-6.25883E+06-1.04926E+06-1.35917E+04-2.57106E+06 1.40790E-09 8.45830E-11
 -1       277-6.37860E+06-9.27481E+05-6.74813E+03-2.43321E+06-1.72804E-11-2.52834E-09
 -1       278-6.25522E+06-1.05114E+06-4.75607E+03-2.57585E+06 4.23427E-09-9.93759E-09
 -1       279-6.37853E+06-9.27664E+05-5.18177E+03-2.43333E+06-1.24965E-09 1.41599E-08
 -1       280-6.25864E+06-1.04831E+06-9.23629E+03-2.57048E+06-4.22096E-09 1.54305E-08
 -1       281-6.37359E+06-9.31403E+05-1.76309E+04-2.43741E+06 2.43199E-09 8.92214E-09
 -1       282-6.27366E+06-1.04725E+06-4.04417E+04-2.55479E+06 1.03682E-09-2.14095E-09
 -1       283-6.35979E+06-9.32568E+05-7.51620E+04-2.44570E+06-1.29148E-09-2.13186E-09
 -1       284-6.34970E+06-1.12169E+06-1.97892E+05-2.51928E+06-3.75712E-09 1.86265E-09
 -1       285-6.29539E+06-8.75053E+05-3.17443E+05-2.46378E+06-2.90129E-09 1.32713E-08
 -1       301 3.51735E+04 8.75427E+04 2.01053E+05 1.25863E+04-4.34375E-09 2.19884E-08
 -1       302 2.50586E+04 1.36230E+05 1.43474E+05 1.72875E+04-1.02154E-08 2.80165E-08
 -1       303 1.45170E+03 1.04639E+05 1.33663E+05 1.21885E+04-4.77485E-09 1.26229E-08
 -1       304 4.90286E+04 1.58472E+05 2.24598E+05 1.71942E+04-1.01463E-08-1.11013E-08
 -1       305 7.25404E+04 6.54922E+04 3.84170E+05 1.32199E+04-4.00178E-09 2.27064E-08
 -1       306-8.74871E+06-1.12891E+06-7.25876E+05-3.60957E+06 7.23230E-09-3.14321E-09
 -1       307-9.56946E+06-1.28620E+06-4.93233E+05-2.98291E+06 2.05255E-08-5.35510E-09
 -1       308-8.89350E+06-1.37457E+06-1.70883E+05-3.56381E+06 5.85351E-09 1.12559E-08
 -1       309-9.24589E+06-1.12692E+06-9.70960E+04-3.16421E+06-3.58932E-09 1.23946E-08
 -1       310-9.05995E+06-1.29157E+06-4.73312E+04-3.42128E+06 1.81899E-12-1.20017E-08
 -1       311-8.93908E+06-1.35547E+06-1.52053E+04-3.47672E+06 1.36779E-08 2.28247E-08
 -1       312-9.19582E+06-1.14841E+06-1.46722E+04-3.24856E+06-1.05319E-09-1.50430E-09
 -1       313-8.78117E+06-1.53914E+06-7.11916E+03-3.71733E+06-1.00358E-08 1.74492E-08
 -1       314-9.23011E+06-1.09827E+06-1.09444E+04-3.19002E+06-1.45553E-08-4.61114E-10
 -1       315-8.81575E+06-1.50339E+06-2.00666E+04-3.66191E+06 3.24826E-09 1.30376E-08
 -1       316-9.15750E+06-1.18722E+06-4.80144E+04-3.30113E+06 1.80953E-08 6.78483E-09
 -1       317-9.05532E+06-1.30796E+06-1.01081E+05-3.35976E+06-4.02406E-09-1.77715E-09
 -1       318-8.98128E+06-1.30201E+06-1.86059E+05-3.48448E+06-1.24237E-08 1.93177E-08
 -1       319-9.50852E+06-1.36452E+06-5.20550E+05-3.03699E+06-5.14592E-09-1.03028E-08
 -1       320-8.71678E+06-1.12744E+06-7.67335E+05-3.63063E+06 1.92522E-08-1.80153E-08
 -1       336-4.88435E+02-1.58279E+06-7.75247E+03 4.04655E+03-1.43555E-08 5.68980E-09
 -1       337-2.68686E+03-1.58272E+06-7.64334E+03-1.01731E+04-1.53295E-09-1.65091E-08
 -1       338-6.63404E+02-1.58319E+06-1.01694E+04 6.02229E+03-1.91685E-08-1.20053E-10
 -1       339-8.85328E+03-1.58763E+06-2.07249E+04-1.40151E+04-3.27782E-09 6.31007E-09
 -1       340 3.99757E+03-1.57880E+06-3.32164E+04 7.84108E+03-2.14413E-08 1.85028E-08
 -1       406 1.55233E+01 5.30652E+05 8.40106E+02-3.40297E+00 1.03830E-09 1.06857E-08
 -1       407 2.76785E+02 5.30807E+05 1.78675E+03-8.25690E+00 3.98472E-11-1.03018E-08
 -1       408 9.02954E+02 5.30522E+05 3.56749E+03 1.22331E+01 1.18598E-09 5.83532E-09
 -1       409 3.84284E+03 5.31946E+05 8.03202E+03-1.46277E+02-4.54747E-12-3.32921E-09
 -1       410 1.10704E+04 5.29505E+05 1.63961E+04 1.45857E+02 1.16052E-09 3.54248E-09
 -1       521-1.42864E+07-2.62406E+06-1.27241E+06-6.65104E+06 2.30502E-08-5.48898E-08
 -1       522-1.75125E+07 6.91763E+04-6.72176E+05-3.02911E+06 7.44258E-08-1.74623E-09
 -1       523-1.39807E+07-3.15150E+06-2.78383E+05-6.78737E+06 1.35724E-08 2.20170E-08
 -1       524-1.57514E+07-3.92821E+05 2.04576E+04-3.63400E+06-4.09782E-08 3.83516E-08
 -1       525-1.57401E+07-2.40390E+06-3.32093E+05-5.79442E+06-1.04628E-08 2.24827E-09
 -1       526-1.32435E+07-2.56304E+06 1.76202E+05-6.15219E+06 6.83212E-09-2.64936E-08
 -1       527-1.63465E+07-1.09983E+06-8.56622E+04-4.20399E+06 2.99915E-08-2.34231E-08
 -1       528-1.31184E+07-3.56993E+06 8.61974E+04-8.17895E+06 1.63527E-09 8.52997E-08
 -1       529-1.63298E+07-1.00632E+06-5.42248E+04-4.09180E+06-2.88128E-08 5.39148E-08
 -1       530-1.31555E+07-2.75393E+06 1.64127E+05-6.47401E+06 1.36060E-09-4.90254E-08
 -1       531-1.58952E+07-2.26470E+06-3.34797E+05-5.62449E+06 3.81260E-08 9.65520E-09
 -1       532-1.54108E+07-6.13636E+05 3.95434E+04-3.80355E+06 1.25510E-08-6.87141E-08
 -1       533-1.41074E+07-3.11856E+06-2.96368E+05-6.74298E+06-7.74526E-09-6.03904E-08
 -1       534-1.75760E+07 1.25994E+05-6.53319E+05-3.01183E+06-3.69619E-09 7.95117E-08
 -1       535-1.41115E+07-2.70091E+06-1.20571E+06-6.72650E+06-2.16532E-08 6.40866E-08
 -1       536-2.62732E+05-3.75111E+04 8.72793E+04 1.71964E+03 3.42743E-09 5.06770E-09
 -1       537-2.12072E+05 4.26199E+04 6.35303E+04-2.69601E+04-2.08247E-08-7.30506E-09
 -1       538-2.46831E+05-5.84455E+03 2.21547E+04 4.00790E+03 3.83034E-09-1.37779E-08
 -1       539-2.32097E+05 6.20895E+03 1.51458E+04-3.13442E+04 7.23367E-09-1.36133E-08
 -1       540-2.43305E+05-9.70581E+02 5.36156E+03 6.09221E+03 5.51609E-10 1.20963E-09
 -1       541-2.37547E+05 8.98741E+02 3.77972E+03-3.49743E+04-5.08396E-09-1.23521E-08
 -1       542-2.41921E+05-1.88469E+02 1.12537E+03 7.63189E+03-4.33602E-10 1.34406E-08
 -1       543-2.40082E+05 2.21931E+02 6.54131E+02-3.74369E+04-1.82422E-09 5.04781E-09
 -1       544-2.41177E+05-6.93668E+00-2.85639E+02 8.55413E+03 2.62094E-09 7.59957E-09
 -1       545-2.41407E+05-1.36751E+02-1.19212E+03-3.86273E+04-2.67556E-09 3.61393E-09
 -1       546-2.40806E+05 3.17912E+02-2.35347E+03 8.82317E+03 2.33875E-09-2.43620E-09
 -1       547-2.42454E+05-2.47357E+03-5.89525E+03-3.85001E+04-6.79938E-09-1.00590E-08
 -1       548-2.40108E+05 2.29715E+03-9.68823E+03 8.42679E+03-6.49936E-09-1.88038E-09
 -1       549-2.48318E+05-1.77958E+04-2.58575E+04-3.70376E+04-1.57701E-09 3.58841E-09
 -1       550-2.34692E+05 1.53438E+04-3.75101E+04 7.35974E+03-3.89036E-10-2.25191E-09
 -1       551 4.55057E+04-9.26876E+05 4.11113E+04-1.41874E+06 7.20320E-10-7.34872E-09
 -1       552 8.02425E+04-9.49696E+05 5.47424E+04-1.93143E+06 2.22935E-08 6.81030E-09
 -1       553 5.96591E+04-9.53898E+05 8.31094E+04-1.41378E+06 1.23691E-09 1.84154E-08
 -1       554 1.23081E+05-9.33152E+05 1.74491E+05-1.93241E+06 2.71248E-08-1.04410E-09
 -1       555 1.23081E+05-9.79977E+05 3.15525E+05-1.41500E+06 1.89175E-09-8.57108E-09
 -1       556 1.42381E+05-2.97559E+05 9.12066E+04-3.54481E+05-2.31375E-09-2.30502E-08
 -1       557 2.77955E+05-3.97974E+05 5.00362E+04-4.65196E+05-4.65661E-09-2.42917E-08
 -1       558 1.36019E+05-3.01083E+05 1.83527E+04-3.49828E+05 2.16241E-08 6.97764E-09
 -1       559 2.52001E+05-4.08171E+05 9.98305E+03-4.78835E+05 1.51631E-08 1.11177E-08
 -1       560 1.26945E+05-2.94942E+05 3.19232E+03-3.56295E+05 1.16415E-10-9.77889E-09
 -1       561 2.39212E+05-4.03751E+05 2.13773E+03-4.87068E+05 4.86034E-09-7.27778E-09
 -1       562 1.20026E+05-2.90360E+05 4.25403E+02-3.61302E+05 1.57161E-09-9.93077E-09
 -1       563 2.30948E+05-4.00223E+05 5.76935E+02-4.92361E+05-2.57569E-09-1.40208E-08
 -1       564 1.15768E+05-2.87570E+05 1.29139E+02-3.64325E+05-7.23230E-09-8.22547E-09
 -1       565 2.26700E+05-3.98403E+05 1.95175E+02-4.95041E+05-1.94123E-08-3.78350E-09
 -1       566 1.14275E+05-2.86574E+05-7.35529E+01-3.65387E+05-5.16957E-09-3.97995E-09
 -1       567 2.26394E+05-3.98279E+05-3.89277E+02-4.95092E+05-5.28689E-09 8.22911E-09
 -1       568 1.15637E+05-2.87462E+05-1.30820E+03-3.64564E+05 2.36832E-09 1.57270E-08
 -1       569 2.28357E+05-3.99283E+05-2.94860E+03-4.91214E+05 1.21508E-09 9.44056E-09
 -1       570 1.21138E+05-2.91897E+05-6.60110E+03-3.62698E+05 3.97267E-09-2.15732E-09
 -1       571 3.83518E+05 1.48774E+04 2.20793E+04-9.45220E+04-9.24047E-10 3.32830E-09
 -1       572 3.86786E+05 5.17239E+03 1.08196E+04-1.03592E+05-2.37469E-09-1.29148E-09
 -1       573 3.84789E+05 1.23423E+03 4.80642E+03-9.42661E+04-1.37425E-09-7.95717E-09
 -1       574 3.85162E+05 4.14675E+02 2.40918E+03-1.03873E+05-2.03954E-09-1.40235E-08
 -1       575 3.84906E+05 7.23635E+01 1.13486E+03-9.42333E+04-9.22091E-09 3.78168E-09
 -1       576 3.84926E+05 4.02227E+01 5.76993E+02-1.03910E+05-2.00647E-08 3.27873E-09
 -1       577 3.84920E+05 1.38307E+01 2.81499E+02-9.42290E+04-9.76797E-09 1.19071E-08
 -1       578 3.84909E+05 1.85123E+01 1.48253E+02-1.03915E+05-1.47429E-09 1.29949E-08
 -1       579 3.84960E+05 7.05017E-01 7.95145E+01-9.42286E+04-1.06156E-08-8.30096E-09
 -1       580 3.84969E+05-1.13111E+01 5.68297E+01-1.03910E+05-1.86110E-08-1.29476E-08
 -1       581 3.85043E+05-4.12958E+01 5.47593E+01-9.42334E+04-1.67238E-08-1.44328E-08
 -1       582 3.85091E+05-5.86907E+01 9.15555E+01-1.03857E+05-1.87092E-08 1.87838E-08
 -1       583 3.85164E+05-7.38306E+01 1.59706E+02-9.42818E+04-1.33878E-09 7.20502E-09
 -1       584 3.85306E+05 2.19503E+01 3.59102E+02-1.03445E+05 1.62327E-08-7.50583E-09
 -1       585 3.85272E+05 3.09599E+02 7.15040E+02-9.46458E+04 8.05812E-09-8.77844E-09
 -1       586-3.01749E+03 1.32008E+05-4.06333E+03-3.21806E+05 8.29914E-10-1.68575E-09
 -1       587-2.55931E+02 1.31431E+05 2.70490E+02-3.54087E+05 1.60071E-09-1.32998E-08
 -1       588 1.57241E+03 1.31461E+05 4.64000E+03-3.21597E+05 1.00044E-09 1.48430E-09
 -1       589 6.50940E+03 1.33913E+05 1.25184E+04-3.53819E+05 1.13141E-09-5.17866E-09
 -1       590 1.81273E+04 1.30243E+05 2.64249E+04-3.22081E+05 6.32099E-10 8.73843E-09
 -1       591-1.13284E+05-3.12657E+04-3.01137E+04-5.58239E+04 1.47634E-09-6.58110E-09
 -1       592-1.16019E+05-3.63226E+04-1.60070E+04-6.36088E+04-2.23736E-10 7.22503E-09
 -1       593-1.15987E+05-2.76143E+04-6.71360E+03-5.84716E+04 3.83989E-09 1.22550E-08
 -1       594-1.12034E+05-3.22573E+04-3.33112E+03-6.37803E+04 4.05271E-09 4.18140E-10
 -1       595-1.16203E+05-2.75592E+04-1.53486E+03-5.85815E+04-5.56884E-09-1.52700E-08
 -1       596-1.11774E+05-3.20890E+04-7.79515E+02-6.37493E+04-1.66858E-09-9.62515E-09
 -1       597-1.16233E+05-2.75790E+04-4.25623E+02-5.85849E+04 3.10624E-09-8.12690E-09
 -1       598-1.11749E+05-3.20842E+04-3.43461E+02-6.37404E+04-1.80711E-09 8.53788E-10
 -1       599-1.16229E+05-2.75805E+04-4.40794E+02-5.85836E+04-8.62428E-10 3.83625E-09
 -1       600-1.11772E+05-3.20916E+04-8.19419E+02-6.37445E+04-4.00996E-09 1.08184E-08
 -1       601-1.16191E+05-2.75625E+04-1.61939E+03-5.85771E+04-5.38239E-09 6.59384E-09
 -1       602-1.12043E+05-3.22696E+04-3.51754E+03-6.37703E+04-2.14663E-09 3.16440E-08
 -1       603-1.15958E+05-2.76262E+04-7.09047E+03-5.84603E+04 3.75258E-09-1.07775E-09
 -1       604-1.16265E+05-3.65443E+04-1.69034E+04-6.35618E+04 9.35006E-09 3.04681E-09
 -1       605-1.13081E+05-3.14989E+04-3.18001E+04-5.56807E+04 2.26260E-09 1.31149E-09
 -1       606 7.58037E+04-1.66192E+04-3.19609E+04 4.75450E+04-5.66070E-09 5.92809E-09
 -1       607 7.01261E+04-5.32102E+03-1.60100E+04 5.40181E+04-4.02179E-09-1.51567E-09
 -1       608 7.32761E+04-8.01978E+02-7.18998E+03 4.71474E+04 6.71571E-09 1.81444E-10
 -1       609 7.26490E+04-1.79284E+02-3.63764E+03 5.44514E+04 3.49246E-10 8.27549E-09
 -1       610 7.29420E+04 7.72010E+01-1.74739E+03 4.71055E+04-9.52423E-09-3.91174E-09
 -1       611 7.28019E+04 1.20838E+02-8.80020E+02 5.44947E+04-1.80580E-08-1.03078E-08
 -1       612 7.28227E+04 1.19752E+02-4.23744E+02 4.71022E+04-6.27551E-09 1.10458E-08
 -1       613 7.27511E+04 1.59176E+02-1.90174E+02 5.44985E+04-9.08040E-09-3.61979E-10
 -1       614 7.27459E+04 1.43304E+02-5.04488E+01 4.71011E+04 1.12195E-08 3.41061E-09
 -1       615 7.26943E+04 1.89154E+02 7.05647E+01 5.44983E+04 3.11411E-08 9.06857E-09
 -1       616 7.26879E+04 1.68930E+02 2.19079E+02 4.71019E+04-3.51065E-10-2.53385E-09
 -1       617 7.26838E+04 2.48819E+02 5.04161E+02 5.44964E+04-4.30919E-09 4.02088E-09
 -1       618 7.26201E+04 3.05229E+02 1.01454E+03 4.71022E+04-1.31149E-09 2.25464E-09
 -1       619 7.30328E+04 9.87719E+02 2.27555E+03 5.44928E+04-1.48862E-09-9.19590E-09
 -1       620 7.22581E+04 2.56112E+03 4.54540E+03 4.70984E+04 2.52089E-09 5.54564E-09
 -1       621 5.40173E+02 4.06331E+05 3.77973E+03-5.83576E+03-1.96655E-09-5.97311E-09
 -1       622 4.61428E+02 4.07204E+05 3.96193E+03-8.09670E+03-1.51431E-09 1.80474E-08
 -1       623 7.45832E+01 4.06485E+05 5.62308E+03-5.85651E+03-1.61799E-09 1.24583E-08
 -1       624 2.69517E+03 4.09279E+05 1.15239E+04-8.03083E+03-1.10390E-09-4.94879E-10
 -1       625 4.01260E+03 4.04261E+05 2.08182E+04-5.89944E+03-1.31968E-09-1.87879E-09
 -1       626 3.56622E+05 1.00614E+05 7.47696E+03 1.95353E+05-7.97809E-09-4.41287E-09
 -1       627 3.50982E+05 1.05166E+05 3.63372E+03 2.04136E+05 2.54659E-11 3.28860E-08
 -1       628 3.56895E+05 9.73133E+04 1.53185E+03 1.96368E+05 3.47609E-09 8.80027E-09
 -1       629 3.49808E+05 1.04406E+05 7.55779E+02 2.04544E+05 1.25874E-09 6.90466E-09
 -1       630 3.56856E+05 9.72086E+04 3.48535E+02 1.96353E+05 1.20053E-10-1.62884E-08
 -1       631 3.49627E+05 1.04416E+05 1.91694E+02 2.04503E+05-2.12567E-08-3.10714E-08
 -1       632 3.56795E+05 9.72476E+04 1.29642E+02 1.96311E+05-1.64073E-08-2.37524E-08
 -1       633 3.49566E+05 1.04441E+05 1.52969E+02 2.04461E+05-2.90493E-09-1.89575E-08
 -1       634 3.56750E+05 9.72621E+04 2.52459E+02 1.96287E+05-6.36646E-12-1.19239E-08
 -1       635 3.49560E+05 1.04450E+05 5.15120E+02 2.04448E+05-5.91535E-09 5.77211E-09
 -1       636 3.56716E+05 9.72572E+04 1.04045E+03 1.96278E+05-7.41511E-09-9.20772E-09
 -1       637 3.49763E+05 1.04588E+05 2.28047E+03 2.04450E+05 7.47667E-09 5.05679E-10
 -1       638 3.56628E+05 9.76643E+04 4.67478E+03 1.96084E+05-4.72482E-09 9.79526E-09
 -1       639 3.52241E+05 1.07784E+05 1.10401E+04 2.03852E+05-1.11286E-08-5.21413E-09
 -1       640 3.56173E+05 1.07069E+05 2.27460E+04 1.92018E+05-1.70348E-09-7.33689E-09
 -1       656 5.01372E+04-1.31154E+06-1.28082E+05-3.98533E+03-6.28643E-09-2.09900E-08
 -1       657-6.66731E+04-1.36772E+06-1.05169E+05 4.27774E+04-4.20550E-09-8.23252E-09
 -1       658 1.55334E+04-1.32774E+06-6.62713E+04-5.66953E+03-4.58249E-09-1.75731E-10
 -1       659-7.36195E+04-1.37119E+06-1.14600E+05 4.38761E+04-3.47427E-09-6.43726E-09
 -1       660 5.70225E+04-1.30812E+06-1.44430E+05-5.08362E+03-4.86762E-09-1.08228E-08
 -1       661 3.32882E+05 3.81238E+04 3.05644E+04 1.29796E+05-1.11763E-08 1.13378E-08
 -1       662 3.45902E+05 6.19563E+04 2.01589E+04 1.27613E+05-1.21922E-08-1.22373E-09
 -1       663 3.38654E+05 4.70656E+04 7.21893E+03 1.28366E+05 1.90471E-09-4.53565E-09
 -1       664 3.39247E+05 5.12890E+04 4.18983E+03 1.29462E+05 1.64761E-09 2.24927E-08
 -1       665 3.39456E+05 4.81930E+04 1.70107E+03 1.28175E+05 2.76430E-09 1.11543E-08
 -1       666 3.38304E+05 4.99781E+04 9.66057E+02 1.29731E+05-3.67027E-09-1.14040E-08
 -1       667 3.39590E+05 4.83076E+04 5.23160E+02 1.28124E+05 6.53824E-09-7.05262E-09
 -1       668 3.38147E+05 4.99031E+04 5.15612E+02 1.29823E+05 3.11340E-09-6.65568E-09
 -1       669 3.39613E+05 4.82609E+04 7.07262E+02 1.28086E+05 1.28603E-09-1.50436E-09
 -1       670 3.38262E+05 5.02378E+04 1.49831E+03 1.29876E+05-2.29502E-09 8.68931E-09
 -1       671 3.39478E+05 4.79820E+04 2.73062E+03 1.28069E+05-6.27006E-09 5.55474E-09
 -1       672 3.39634E+05 5.25433E+04 6.79168E+03 1.29639E+05-1.35742E-10 1.12004E-09
 -1       673 3.38259E+05 4.60640E+04 1.17196E+04 1.28283E+05 3.89491E-09-1.90175E-09
 -1       674 3.50290E+05 7.00385E+04 3.27490E+04 1.26827E+05-8.18864E-09 1.17639E-08
 -1       675 3.28960E+05 3.14567E+04 4.96555E+04 1.30517E+05 2.25646E-09-1.76442E-09
 -1       676 2.41552E+01-3.90584E+05-1.47222E+03 1.06525E+02 6.45747E-09 2.70278E-09
 -1       677-2.88383E+02-3.90891E+05-2.66042E+03-2.12863E+02-1.07829E-09 3.75165E-09
 -1       678 1.61473E+02-3.90363E+05-4.78030E+03 1.06244E+02 2.63140E-09-1.00166E-08
 -1       679-4.14521E+03-3.93654E+05-1.11420E+04-2.11483E+02 2.47974E-09-2.19716E-08
 -1       680 1.75429E+03-3.87823E+05-1.84340E+04 1.03124E+02 2.78578E-09-3.88248E-09
 -1       771-4.36247E+06-8.33526E+05-1.12636E+05-1.87156E+06 2.41853E-08-8.81846E-09
 -1       772-4.32785E+06-8.82097E+05-5.84510E+04-1.93575E+06-1.88593E-08-1.71021E-08
 -1       773-4.38041E+06-8.13642E+05-2.73396E+04-1.88027E+06-7.36327E-09-7.28323E-09
 -1       774-4.31546E+06-8.71442E+05-1.28300E+04-1.94892E+06-5.35510E-09-1.34169E-08
 -1       775-4.38846E+06-8.07852E+05-7.89689E+03-1.88222E+06 4.65661E-09 1.10449E-08
 -1       776-4.31835E+06-8.71551E+05-3.36709E+03-1.95833E+06 5.82077E-09-1.14778E-08
 -1       777-4.39525E+06-8.02965E+05-3.03067E+03-1.88395E+06 1.12050E-09-6.92671E-09
 -1       778-4.32209E+06-8.71649E+05-1.23920E+03-1.96643E+06-6.41739E-09 3.50337E-09
 -1       779-4.40099E+06-7.98737E+05-1.80929E+03-1.88551E+06-8.58563E-10-2.20825E-09
 -1       780-4.32557E+06-8.71578E+05-1.41844E+03-1.97302E+06 7.78527E-09 2.21189E-09
 -1       781-4.40543E+06-7.95352E+05-2.80818E+03-1.88676E+06-8.25821E-09 7.28687E-09
 -1       782-4.32865E+06-8.71669E+05-5.02853E+03-1.97788E+06-4.45289E-09 5.28189E-10
 -1       783-4.40818E+06-7.93177E+05-1.01981E+04-1.88747E+06 1.18089E-08-4.00360E-09
 -1       784-4.33627E+06-8.77692E+05-2.39963E+04-1.98052E+06 1.00699E-08-6.69388E-10
 -1       785-4.40563E+06-7.97548E+05-4.52622E+04-1.88398E+06 3.38514E-08 3.02316E-09
 -1       786 3.40247E+05-1.72046E+04 4.12408E+04 1.05022E+02 6.56822E-10 3.38332E-09
 -1       787 3.57871E+05 1.99698E+04 2.89494E+04-6.71316E+02-8.92209E-10-8.02174E-09
 -1       788 3.47097E+05-2.61380E+03 1.06867E+04 9.42115E+01-2.31737E-10-9.45329E-09
 -1       789 3.49924E+05 3.03040E+03 6.63877E+03-6.64956E+02-4.87438E-10 3.72370E-09
 -1       790 3.48197E+05-3.95803E+02 2.73420E+03 9.86548E+01 3.60334E-10 2.96063E-09
 -1       791 3.48645E+05 4.60674E+02 1.59102E+03-6.89444E+02 4.51763E-11 1.75993E-09
 -1       792 3.48377E+05-6.22616E+01 7.41496E+02 1.18699E+02-5.56401E-10-1.08483E-08
 -1       793 3.48446E+05 9.06616E+01 4.96485E+02-7.46543E+02 5.31568E-10-4.46591E-09
 -1       794 3.48397E+05-2.81276E+01 3.94474E+02 1.55755E+02-1.02791E-09 3.06947E-09
 -1       795 3.48479E+05 1.58516E+02 5.98614E+02-8.39924E+02-3.32605E-11-5.03932E-09
 -1       796 3.48343E+05-1.29772E+02 9.26386E+02 2.12082E+02-1.51893E-09-6.58684E-09
 -1       797 3.48891E+05 9.85436E+02 2.17741E+03-9.75126E+02-5.36559E-10-7.07118E-09
 -1       798 3.47986E+05-8.49455E+02 3.48083E+03 2.90958E+02 2.49074E-10 9.81208E-09
 -1       799 3.51475E+05 6.48778E+03 9.41124E+03-1.16164E+03-1.44301E-09 7.54437E-09
 -1       800 3.45758E+05-5.59024E+03 1.33981E+04 3.98578E+02-5.32992E-10 4.99585E-09
 -1       801-5.67283E+04 3.57204E+04 2.43837E+03 2.26773E+05 1.10184E-07-1.40608E-08
 -1       802 1.22262E+05 3.67743E+05 1.24422E+05-1.16939E+06 2.19905E-07-2.28661E-08
 -1       803-2.88069E+04 2.24608E+05 1.24328E+05 2.15493E+05 2.06324E-07 3.85833E-08
 -1       804 2.89887E+05 5.03330E+05 3.58536E+05-1.17404E+06 2.16354E-07 3.13339E-08
 -1       805-2.30671E+05-8.87885E+04 3.79685E+05 2.31127E+05 7.99191E-08 3.35385E-08
 -1       806-3.88541E+05-8.62803E+04-3.39939E+04-1.63124E+05 2.89674E-10-1.80262E-09
 -1       807-3.90322E+05-8.03183E+04-1.65587E+04-1.72242E+05 2.74201E-09 1.87819E-08
 -1       808-3.89236E+05-7.28940E+04-7.01522E+03-1.69247E+05-1.07730E-09 2.30744E-08
 -1       809-3.86832E+05-7.54529E+04-3.42225E+03-1.72861E+05 3.11502E-09 7.89578E-09
 -1       810-3.89370E+05-7.23532E+04-1.56276E+03-1.69542E+05-1.30285E-09 2.91971E-09
 -1       811-3.86547E+05-7.52448E+04-7.72801E+02-1.72825E+05 2.74667E-10-3.97949E-09
 -1       812-3.89390E+05-7.23843E+04-3.81843E+02-1.69540E+05-5.64933E-09 1.06093E-09
 -1       813-3.86504E+05-7.52516E+04-2.32762E+02-1.72797E+05-1.33186E-08 8.91237E-09
 -1       814-3.89377E+05-7.24028E+04-2.06396E+02-1.69530E+05-5.47516E-09-7.84348E-09
 -1       815-3.86498E+05-7.52594E+04-3.08508E+02-1.72780E+05 2.17733E-09-1.59575E-08
 -1       816-3.89345E+05-7.24106E+04-5.70212E+02-1.69519E+05 3.27054E-09-9.99262E-09
 -1       817-3.86589E+05-7.53249E+04-1.21773E+03-1.72750E+05 5.46152E-09 9.16771E-10
 -1       818-3.89259E+05-7.26338E+04-2.48593E+03-1.69418E+05 1.72804E-10 9.68885E-09
 -1       819-3.87953E+05-7.68913E+04-5.85197E+03-1.72325E+05 1.67802E-10-1.64373E-08
 -1       820-3.88843E+05-7.75098E+04-1.20139E+04-1.67402E+05 3.32875E-09-6.83099E-09
 -1       821-5.59574E+05 2.85017E+04-6.82770E+04-4.10076E+02-1.87839E-09 8.30551E-09
 -1       822-5.88708E+05-3.30811E+04-4.79364E+04 2.38597E+02-1.56058E-09 1.45783E-08
 -1       823-5.70912E+05 4.32763E+03-1.77040E+04-8.46084E+02 3.50587E-09-1.23937E-08
 -1       824-5.75551E+05-5.01852E+03-1.10087E+04 1.06062E+03-7.09790E-10-1.39296E-08
 -1       825-5.72724E+05 6.53834E+02-4.57650E+03-1.23221E+03-7.74384E-09-5.15229E-10
 -1       826-5.73455E+05-7.68654E+02-2.73522E+03 1.74548E+03-1.30417E-08-2.46678E-09
 -1       827-5.73008E+05 1.09620E+02-1.42899E+03-1.53100E+03-9.21513E-09-2.32188E-09
 -1       828-5.73181E+05-2.21640E+02-1.25890E+03 2.22589E+03-1.12350E-08-1.57602E-08
 -1       829-5.73001E+05 1.12172E+02-1.45715E+03-1.71264E+03-1.95742E-09-1.44537E-08
 -1       830-5.73492E+05-7.89926E+02-2.82228E+03 2.45368E+03 6.30430E-09-1.09965E-08
 -1       831-5.72699E+05 6.75384E+02-4.72608E+03-1.75879E+03-5.25154E-09-3.10592E-09
 -1       832-5.75676E+05-5.18418E+03-1.13906E+04 2.40851E+03-1.46617E-09 3.77077E-09
 -1       833-5.70820E+05 4.47538E+03-1.83083E+04-1.66742E+03-7.41778E-10 3.11138E-09
 -1       834-5.89286E+05-3.42126E+04-4.95913E+04 2.10826E+03 1.57307E-10 6.39011E-09
 -1       835-5.59094E+05 2.94818E+04-7.06226E+04-1.45821E+03 6.36277E-09-3.25235E-09
 -1       836-4.68235E+03 5.83577E+05 4.07690E+04-3.44444E+04-2.31739E-09 8.61201E-09
 -1       837 1.05967E+04 5.97018E+05 3.35785E+04-8.13697E+04-2.32512E-09 1.60371E-08
 -1       838-1.31860E+03 5.87512E+05 3.12005E+04-3.43617E+04-3.34239E-09 1.00786E-08
 -1       839 2.18763E+04 6.04708E+05 5.76277E+04-8.13739E+04-2.81489E-09-2.46791E-09
 -1       840-1.08735E+04 5.75778E+05 8.85378E+04-3.44354E+04-3.44153E-09-5.47061E-10
 -1       856-2.31745E+05 1.40307E+04-4.16579E+04-1.02159E+01-6.04291E-09-1.61199E-08
 -1       857-2.48299E+05-1.67970E+04-2.80723E+04 1.26139E+04-7.40283E-09 4.68390E-11
 -1       858-2.38404E+05 1.79440E+03-1.08241E+04-9.10384E+01-6.62374E-09-6.13500E-09
 -1       859-2.40747E+05-2.08601E+03-6.36471E+03 1.27390E+04-1.58661E-09-1.13553E-08
 -1       860-2.39323E+05 2.30306E+02-2.75183E+03-1.36570E+02 1.24544E-09 6.56701E-09
 -1       861-2.39706E+05-2.12515E+02-1.51050E+03 1.27994E+04-1.01197E-08-5.33646E-10
 -1       862-2.39457E+05 3.08736E+01-7.06102E+02-1.51688E+02 1.08557E-08-1.21523E-08
 -1       863-2.39552E+05 2.08477E+01-3.97803E+02 1.28010E+04 1.95032E-08-1.77110E-09
 -1       864-2.39477E+05 6.61554E+00-2.39541E+02-1.38209E+02 9.85483E-09-8.21936E-09
 -1       865-2.39526E+05 2.24815E+01-2.33050E+02 1.27440E+04 6.53154E-09-8.95956E-09
 -1       866-2.39470E+05 1.97336E+01-3.12257E+02-9.46890E+01-2.62719E-09-3.71687E-09
 -1       867-2.39593E+05-1.64828E+02-6.35691E+02 1.26278E+04-1.43166E-09 6.16982E-11
 -1       868-2.39385E+05 1.66100E+02-1.06784E+03-2.18605E+01 6.05428E-09-1.11447E-08
 -1       869-2.40282E+05-1.60289E+03-2.72304E+03 1.24357E+04-8.12634E-10-1.30198E-08
 -1       870-2.38744E+05 1.34483E+03-4.06028E+03 9.75468E+01-2.86400E-09-1.60369E-08
 -1       871-6.44133E+03-2.75202E+04-2.39171E+04 1.76664E+05 1.42609E-09-3.47063E-09
 -1       872-3.47895E+03-3.31859E+04-9.64699E+03 2.37481E+05-5.15683E-10 1.72713E-09
 -1       873-2.36794E+02-3.07586E+04 1.96829E+03 1.76255E+05 1.07502E-09 4.03770E-09
 -1       874 3.79543E+03-2.67035E+04 1.50592E+04 2.37568E+05 1.94086E-09-1.87765E-09
 -1       875 7.46433E+03-3.42839E+04 3.24665E+04 1.76608E+05-7.93079E-10-1.31695E-09
 -1       876 4.39217E+05 7.28540E+04 2.66774E+04 1.75960E+05 3.03109E-09-9.48785E-09
 -1       877 4.42091E+05 7.95675E+04 1.45236E+04 1.82450E+05-3.53634E-09-9.81572E-10
 -1       878 4.41984E+05 7.12140E+04 6.03520E+03 1.77772E+05-2.80670E-09 1.58116E-08
 -1       879 4.38306E+05 7.56160E+04 3.02122E+03 1.82641E+05-4.08386E-09-4.39024E-09
 -1       880 4.42181E+05 7.12266E+04 1.39758E+03 1.77858E+05-1.31918E-08-3.42573E-09
 -1       881 4.38048E+05 7.54250E+04 7.37188E+02 1.82598E+05-2.11894E-08 1.47800E-08
 -1       882 4.42198E+05 7.12503E+04 4.52433E+02 1.77863E+05-4.77189E-09-3.50259E-09
 -1       883 4.38029E+05 7.54137E+04 4.57426E+02 1.82584E+05 8.73854E-10-4.13974E-09
 -1       884 4.42188E+05 7.12478E+04 7.00352E+02 1.77863E+05 8.07091E-09 9.13928E-10
 -1       885 4.38086E+05 7.54293E+04 1.39259E+03 1.82600E+05-4.11006E-10-9.76240E-09
 -1       886 4.42135E+05 7.12091E+04 2.79484E+03 1.77855E+05-1.07293E-08-1.21399E-08
 -1       887 4.38612E+05 7.58138E+04 6.12230E+03 1.82665E+05-4.45198E-10 3.61160E-09
 -1       888 4.41716E+05 7.11934E+04 1.22682E+04 1.77676E+05 1.89914E-09 7.52152E-10
 -1       889 4.46220E+05 8.39353E+04 2.95395E+04 1.82351E+05 4.54470E-09 1.79716E-08
 -1       890 4.36156E+05 7.44579E+04 5.42728E+04 1.73890E+05 4.22278E-09 4.89308E-09
 -1       891-3.29865E+02-2.43021E+05-5.50240E+03 4.35571E+04 3.41504E-09 1.12670E-08
 -1       892-1.02083E+03-2.44438E+05-4.66560E+03 7.07801E+04 2.84717E-09 2.55773E-09
 -1       893-1.01595E+02-2.43411E+05-5.15963E+03 4.35557E+04-1.20053E-09-2.34650E-09
 -1       894-2.82997E+03-2.45826E+05-9.77215E+03 7.05486E+04 2.31921E-09 1.37406E-08
 -1       895-1.07990E+03-2.41361E+05-1.64630E+04 4.37829E+04 3.17959E-09-7.64248E-09
 -1       956-5.42290E+05-7.34397E+03-2.08214E+04 4.05763E+04-1.14451E-08-3.93175E-09
 -1       957-5.46599E+05-2.62689E+03-1.07971E+04 5.00690E+04-5.10045E-09-5.17866E-09
 -1       958-5.44275E+05-1.34221E+02-4.86892E+03 4.02923E+04 4.88035E-09 2.20734E-09
 -1       959-5.44631E+05 3.23668E+01-2.48847E+03 5.03767E+04-8.42192E-09 1.07443E-08
 -1       960-5.44478E+05 1.22653E+02-1.21502E+03 4.02627E+04-1.13168E-08 1.56742E-08
 -1       961-5.44532E+05 1.48673E+02-6.40432E+02 5.04123E+04-1.46501E-08 9.82163E-09
 -1       962-5.44536E+05 1.30343E+02-3.61670E+02 4.02558E+04-6.03359E-09 1.28643E-08
 -1       963-5.44549E+05 1.64816E+02-2.79844E+02 5.04220E+04-9.53855E-09 1.98706E-08
 -1       964-5.44556E+05 1.41879E+02-3.28438E+02 4.02527E+04-7.36463E-10 1.84591E-08
 -1       965-5.44575E+05 1.73945E+02-5.57948E+02 5.04236E+04 6.25553E-09 9.39554E-09
 -1       966-5.44538E+05 1.56392E+02-1.04319E+03 4.02541E+04-8.10837E-09 9.67611E-09
 -1       967-5.44698E+05 9.55074E+01-2.13458E+03 5.04059E+04-2.83853E-09 1.51761E-08
 -1       968-5.44394E+05-4.46283E+01-4.17124E+03 4.02710E+04 3.11229E-09 1.11065E-08
 -1       969-5.46422E+05-2.16794E+03-9.25826E+03 5.02156E+04 5.35010E-09 1.37986E-08
 -1       970-5.42714E+05-6.21581E+03-1.78499E+04 4.04545E+04-4.62023E-10-8.89122E-09
 -1       971-5.20811E+05-1.87337E+03-1.50372E+04 2.09365E+04-6.06451E-09 1.25451E-08
 -1       972-5.24671E+05-2.04318E+03-8.33360E+03 3.11368E+04-5.23141E-09-1.75335E-08
 -1       973-5.22583E+05 2.51497E+01-3.71178E+03 2.07376E+04-5.65251E-09-1.51124E-08
 -1       974-5.22875E+05 1.90726E+01-1.92862E+03 3.13562E+04 1.42336E-10-6.74390E-09
 -1       975-5.22733E+05 8.34573E+01-9.61161E+02 2.07123E+04 5.69980E-09-1.06043E-08
 -1       976-5.22781E+05 1.20380E+02-5.50420E+02 3.13904E+04-1.21870E-08 2.16460E-10
 -1       977-5.22767E+05 9.01057E+01-3.93424E+02 2.07028E+04 4.73301E-09 7.57382E-10
 -1       978-5.22796E+05 1.34756E+02-4.51703E+02 3.14036E+04 2.20615E-08 1.12184E-08
 -1       979-5.22769E+05 1.03371E+02-7.19169E+02 2.06989E+04 1.40878E-08-8.36178E-09
 -1       980-5.22851E+05 1.34909E+02-1.38549E+03 3.14055E+04 2.32497E-08-1.13994E-08
 -1       981-5.22721E+05 1.32209E+02-2.68069E+03 2.07009E+04 7.53835E-09-1.20320E-09
 -1       982-5.23231E+05-1.04104E+02-5.55185E+03 3.13905E+04-1.19228E-08 3.94749E-10
 -1       983-5.22360E+05 2.14565E+01-1.07485E+04 2.07148E+04 2.06001E-10-5.77165E-09
 -1       984-5.28595E+05-6.03463E+03-2.42165E+04 3.12466E+04-1.32786E-09 8.52378E-09
 -1       985-5.17294E+05-5.43073E+03-4.36838E+04 2.08633E+04 4.24097E-09-1.24965E-09
 -3
 9999
